    1C
    1UUSER                                                              
    1UDATE              11.october.2022                                 
    1UTIME              18:57:53                                        
    1UHOST                                                              
    1UPGM               CalculiX                                        
    1UVERSION           Version 2.20                             
    1UCOMPILETIME       Sun Jul 31 18:08:37 CEST 2022                    
    1UDIR                                                               
    1UDBN                                                               
    1UMAT    1MESH_MATERIAL                                             
    2C                           409                                     1
 -1         1 0.00000E+00 0.00000E+00 0.00000E+00
 -1         2 1.66667E-02 0.00000E+00 0.00000E+00
 -1         3 3.33333E-02 0.00000E+00 0.00000E+00
 -1         5 6.66667E-02 0.00000E+00 0.00000E+00
 -1         8 0.00000E+00 6.25000E-03 0.00000E+00
 -1         9 1.66667E-02 6.25000E-03 0.00000E+00
 -1        10 3.33333E-02 6.25000E-03 0.00000E+00
 -1        12 6.66667E-02 6.25000E-03 0.00000E+00
 -1        15 0.00000E+00 1.25000E-02 0.00000E+00
 -1        16 1.66667E-02 1.25000E-02 0.00000E+00
 -1        17 3.33333E-02 1.25000E-02 0.00000E+00
 -1        18 5.00000E-02 1.25000E-02 0.00000E+00
 -1        19 6.66667E-02 1.25000E-02 0.00000E+00
 -1        20 8.33333E-02 1.25000E-02 0.00000E+00
 -1        21 1.00000E-01 1.25000E-02 0.00000E+00
 -1        24 3.33333E-02 1.87500E-02 0.00000E+00
 -1        25 5.00000E-02 1.87500E-02 0.00000E+00
 -1        26 6.66667E-02 1.87500E-02 0.00000E+00
 -1        27 8.33333E-02 1.87500E-02 0.00000E+00
 -1        28 1.00000E-01 1.87500E-02 0.00000E+00
 -1        32 5.00000E-02 2.50000E-02 0.00000E+00
 -1        33 6.66667E-02 2.50000E-02 0.00000E+00
 -1        34 8.33333E-02 2.50000E-02 0.00000E+00
 -1        35 1.00000E-01 2.50000E-02 0.00000E+00
 -1        51 0.00000E+00 1.04167E-03 0.00000E+00
 -1        52 0.00000E+00 2.08333E-03 0.00000E+00
 -1        53 0.00000E+00 3.12500E-03 0.00000E+00
 -1        54 0.00000E+00 4.16667E-03 0.00000E+00
 -1        55 0.00000E+00 5.20833E-03 0.00000E+00
 -1        56 1.04167E-03 3.90630E-04 0.00000E+00
 -1        57 2.08333E-03 7.81250E-04 0.00000E+00
 -1        58 3.12500E-03 1.17188E-03 0.00000E+00
 -1        59 4.16667E-03 1.56250E-03 0.00000E+00
 -1        60 5.20833E-03 1.95312E-03 0.00000E+00
 -1        61 6.25000E-03 2.34375E-03 0.00000E+00
 -1        62 7.29167E-03 2.73438E-03 0.00000E+00
 -1        63 8.33333E-03 3.12500E-03 0.00000E+00
 -1        64 9.37500E-03 3.51563E-03 0.00000E+00
 -1        65 1.04167E-02 3.90625E-03 0.00000E+00
 -1        66 1.14583E-02 4.29688E-03 0.00000E+00
 -1        67 1.25000E-02 4.68750E-03 0.00000E+00
 -1        68 1.35417E-02 5.07813E-03 0.00000E+00
 -1        69 1.45833E-02 5.46875E-03 0.00000E+00
 -1        70 1.56250E-02 5.85938E-03 0.00000E+00
 -1        86 1.66667E-02 1.04167E-03 0.00000E+00
 -1        87 1.66667E-02 2.08333E-03 0.00000E+00
 -1        88 1.66667E-02 3.12500E-03 0.00000E+00
 -1        89 1.66667E-02 4.16667E-03 0.00000E+00
 -1        90 1.66667E-02 5.20833E-03 0.00000E+00
 -1       121 3.33333E-02 1.04167E-03 0.00000E+00
 -1       122 3.33333E-02 2.08333E-03 0.00000E+00
 -1       123 3.33333E-02 3.12500E-03 0.00000E+00
 -1       124 3.33333E-02 4.16667E-03 0.00000E+00
 -1       125 3.33333E-02 5.20833E-03 0.00000E+00
 -1       191 6.66667E-02 1.04167E-03 0.00000E+00
 -1       192 6.66667E-02 2.08333E-03 0.00000E+00
 -1       193 6.66667E-02 3.12500E-03 0.00000E+00
 -1       194 6.66667E-02 4.16667E-03 0.00000E+00
 -1       195 6.66667E-02 5.20833E-03 0.00000E+00
 -1       251 1.04167E-03 6.25000E-03 0.00000E+00
 -1       252 2.08333E-03 6.25000E-03 0.00000E+00
 -1       253 3.12500E-03 6.25000E-03 0.00000E+00
 -1       254 4.16667E-03 6.25000E-03 0.00000E+00
 -1       255 5.20833E-03 6.25000E-03 0.00000E+00
 -1       256 6.25000E-03 6.25000E-03 0.00000E+00
 -1       257 7.29167E-03 6.25000E-03 0.00000E+00
 -1       258 8.33333E-03 6.25000E-03 0.00000E+00
 -1       259 9.37500E-03 6.25000E-03 0.00000E+00
 -1       260 1.04167E-02 6.25000E-03 0.00000E+00
 -1       261 1.14583E-02 6.25000E-03 0.00000E+00
 -1       262 1.25000E-02 6.25000E-03 0.00000E+00
 -1       263 1.35417E-02 6.25000E-03 0.00000E+00
 -1       264 1.45833E-02 6.25000E-03 0.00000E+00
 -1       265 1.56250E-02 6.25000E-03 0.00000E+00
 -1       266 0.00000E+00 7.29167E-03 0.00000E+00
 -1       267 0.00000E+00 8.33333E-03 0.00000E+00
 -1       268 0.00000E+00 9.37500E-03 0.00000E+00
 -1       269 0.00000E+00 1.04167E-02 0.00000E+00
 -1       270 0.00000E+00 1.14583E-02 0.00000E+00
 -1       271 1.04167E-03 6.64063E-03 0.00000E+00
 -1       272 2.08333E-03 7.03125E-03 0.00000E+00
 -1       273 3.12500E-03 7.42188E-03 0.00000E+00
 -1       274 4.16667E-03 7.81250E-03 0.00000E+00
 -1       275 5.20833E-03 8.20313E-03 0.00000E+00
 -1       276 6.25000E-03 8.59375E-03 0.00000E+00
 -1       277 7.29167E-03 8.98438E-03 0.00000E+00
 -1       278 8.33333E-03 9.37500E-03 0.00000E+00
 -1       279 9.37500E-03 9.76562E-03 0.00000E+00
 -1       280 1.04167E-02 1.01562E-02 0.00000E+00
 -1       281 1.14583E-02 1.05469E-02 0.00000E+00
 -1       282 1.25000E-02 1.09375E-02 0.00000E+00
 -1       283 1.35417E-02 1.13281E-02 0.00000E+00
 -1       284 1.45833E-02 1.17188E-02 0.00000E+00
 -1       285 1.56250E-02 1.21094E-02 0.00000E+00
 -1       301 1.66667E-02 7.29167E-03 0.00000E+00
 -1       302 1.66667E-02 8.33333E-03 0.00000E+00
 -1       303 1.66667E-02 9.37500E-03 0.00000E+00
 -1       304 1.66667E-02 1.04167E-02 0.00000E+00
 -1       305 1.66667E-02 1.14583E-02 0.00000E+00
 -1       306 1.77083E-02 6.64063E-03 0.00000E+00
 -1       307 1.87500E-02 7.03125E-03 0.00000E+00
 -1       308 1.97917E-02 7.42188E-03 0.00000E+00
 -1       309 2.08333E-02 7.81250E-03 0.00000E+00
 -1       310 2.18750E-02 8.20313E-03 0.00000E+00
 -1       311 2.29167E-02 8.59375E-03 0.00000E+00
 -1       312 2.39583E-02 8.98438E-03 0.00000E+00
 -1       313 2.50000E-02 9.37500E-03 0.00000E+00
 -1       314 2.60417E-02 9.76562E-03 0.00000E+00
 -1       315 2.70833E-02 1.01562E-02 0.00000E+00
 -1       316 2.81250E-02 1.05469E-02 0.00000E+00
 -1       317 2.91667E-02 1.09375E-02 0.00000E+00
 -1       318 3.02083E-02 1.13281E-02 0.00000E+00
 -1       319 3.12500E-02 1.17188E-02 0.00000E+00
 -1       320 3.22917E-02 1.21094E-02 0.00000E+00
 -1       336 3.33333E-02 7.29167E-03 0.00000E+00
 -1       337 3.33333E-02 8.33333E-03 0.00000E+00
 -1       338 3.33333E-02 9.37500E-03 0.00000E+00
 -1       339 3.33333E-02 1.04167E-02 0.00000E+00
 -1       340 3.33333E-02 1.14583E-02 0.00000E+00
 -1       406 6.66667E-02 7.29167E-03 0.00000E+00
 -1       407 6.66667E-02 8.33333E-03 0.00000E+00
 -1       408 6.66667E-02 9.37500E-03 0.00000E+00
 -1       409 6.66667E-02 1.04167E-02 0.00000E+00
 -1       410 6.66667E-02 1.14583E-02 0.00000E+00
 -1       521 1.77083E-02 1.28906E-02 0.00000E+00
 -1       522 1.87500E-02 1.32813E-02 0.00000E+00
 -1       523 1.97917E-02 1.36719E-02 0.00000E+00
 -1       524 2.08333E-02 1.40625E-02 0.00000E+00
 -1       525 2.18750E-02 1.44531E-02 0.00000E+00
 -1       526 2.29167E-02 1.48437E-02 0.00000E+00
 -1       527 2.39583E-02 1.52344E-02 0.00000E+00
 -1       528 2.50000E-02 1.56250E-02 0.00000E+00
 -1       529 2.60417E-02 1.60156E-02 0.00000E+00
 -1       530 2.70833E-02 1.64062E-02 0.00000E+00
 -1       531 2.81250E-02 1.67969E-02 0.00000E+00
 -1       532 2.91667E-02 1.71875E-02 0.00000E+00
 -1       533 3.02083E-02 1.75781E-02 0.00000E+00
 -1       534 3.12500E-02 1.79687E-02 0.00000E+00
 -1       535 3.22917E-02 1.83594E-02 0.00000E+00
 -1       536 3.43750E-02 1.25000E-02 0.00000E+00
 -1       537 3.54167E-02 1.25000E-02 0.00000E+00
 -1       538 3.64583E-02 1.25000E-02 0.00000E+00
 -1       539 3.75000E-02 1.25000E-02 0.00000E+00
 -1       540 3.85417E-02 1.25000E-02 0.00000E+00
 -1       541 3.95833E-02 1.25000E-02 0.00000E+00
 -1       542 4.06250E-02 1.25000E-02 0.00000E+00
 -1       543 4.16667E-02 1.25000E-02 0.00000E+00
 -1       544 4.27083E-02 1.25000E-02 0.00000E+00
 -1       545 4.37500E-02 1.25000E-02 0.00000E+00
 -1       546 4.47917E-02 1.25000E-02 0.00000E+00
 -1       547 4.58333E-02 1.25000E-02 0.00000E+00
 -1       548 4.68750E-02 1.25000E-02 0.00000E+00
 -1       549 4.79167E-02 1.25000E-02 0.00000E+00
 -1       550 4.89583E-02 1.25000E-02 0.00000E+00
 -1       551 3.33333E-02 1.35417E-02 0.00000E+00
 -1       552 3.33333E-02 1.45833E-02 0.00000E+00
 -1       553 3.33333E-02 1.56250E-02 0.00000E+00
 -1       554 3.33333E-02 1.66667E-02 0.00000E+00
 -1       555 3.33333E-02 1.77083E-02 0.00000E+00
 -1       556 3.43750E-02 1.28906E-02 0.00000E+00
 -1       557 3.54167E-02 1.32813E-02 0.00000E+00
 -1       558 3.64583E-02 1.36719E-02 0.00000E+00
 -1       559 3.75000E-02 1.40625E-02 0.00000E+00
 -1       560 3.85417E-02 1.44531E-02 0.00000E+00
 -1       561 3.95833E-02 1.48437E-02 0.00000E+00
 -1       562 4.06250E-02 1.52344E-02 0.00000E+00
 -1       563 4.16667E-02 1.56250E-02 0.00000E+00
 -1       564 4.27083E-02 1.60156E-02 0.00000E+00
 -1       565 4.37500E-02 1.64062E-02 0.00000E+00
 -1       566 4.47917E-02 1.67969E-02 0.00000E+00
 -1       567 4.58333E-02 1.71875E-02 0.00000E+00
 -1       568 4.68750E-02 1.75781E-02 0.00000E+00
 -1       569 4.79167E-02 1.79687E-02 0.00000E+00
 -1       570 4.89583E-02 1.83594E-02 0.00000E+00
 -1       571 5.10417E-02 1.25000E-02 0.00000E+00
 -1       572 5.20833E-02 1.25000E-02 0.00000E+00
 -1       573 5.31250E-02 1.25000E-02 0.00000E+00
 -1       574 5.41667E-02 1.25000E-02 0.00000E+00
 -1       575 5.52083E-02 1.25000E-02 0.00000E+00
 -1       576 5.62500E-02 1.25000E-02 0.00000E+00
 -1       577 5.72917E-02 1.25000E-02 0.00000E+00
 -1       578 5.83333E-02 1.25000E-02 0.00000E+00
 -1       579 5.93750E-02 1.25000E-02 0.00000E+00
 -1       580 6.04167E-02 1.25000E-02 0.00000E+00
 -1       581 6.14583E-02 1.25000E-02 0.00000E+00
 -1       582 6.25000E-02 1.25000E-02 0.00000E+00
 -1       583 6.35417E-02 1.25000E-02 0.00000E+00
 -1       584 6.45833E-02 1.25000E-02 0.00000E+00
 -1       585 6.56250E-02 1.25000E-02 0.00000E+00
 -1       586 5.00000E-02 1.35417E-02 0.00000E+00
 -1       587 5.00000E-02 1.45833E-02 0.00000E+00
 -1       588 5.00000E-02 1.56250E-02 0.00000E+00
 -1       589 5.00000E-02 1.66667E-02 0.00000E+00
 -1       590 5.00000E-02 1.77083E-02 0.00000E+00
 -1       591 5.10417E-02 1.28906E-02 0.00000E+00
 -1       592 5.20833E-02 1.32813E-02 0.00000E+00
 -1       593 5.31250E-02 1.36719E-02 0.00000E+00
 -1       594 5.41667E-02 1.40625E-02 0.00000E+00
 -1       595 5.52083E-02 1.44531E-02 0.00000E+00
 -1       596 5.62500E-02 1.48437E-02 0.00000E+00
 -1       597 5.72917E-02 1.52344E-02 0.00000E+00
 -1       598 5.83333E-02 1.56250E-02 0.00000E+00
 -1       599 5.93750E-02 1.60156E-02 0.00000E+00
 -1       600 6.04167E-02 1.64062E-02 0.00000E+00
 -1       601 6.14583E-02 1.67969E-02 0.00000E+00
 -1       602 6.25000E-02 1.71875E-02 0.00000E+00
 -1       603 6.35417E-02 1.75781E-02 0.00000E+00
 -1       604 6.45833E-02 1.79687E-02 0.00000E+00
 -1       605 6.56250E-02 1.83594E-02 0.00000E+00
 -1       606 6.77083E-02 1.25000E-02 0.00000E+00
 -1       607 6.87500E-02 1.25000E-02 0.00000E+00
 -1       608 6.97917E-02 1.25000E-02 0.00000E+00
 -1       609 7.08333E-02 1.25000E-02 0.00000E+00
 -1       610 7.18750E-02 1.25000E-02 0.00000E+00
 -1       611 7.29167E-02 1.25000E-02 0.00000E+00
 -1       612 7.39583E-02 1.25000E-02 0.00000E+00
 -1       613 7.50000E-02 1.25000E-02 0.00000E+00
 -1       614 7.60417E-02 1.25000E-02 0.00000E+00
 -1       615 7.70833E-02 1.25000E-02 0.00000E+00
 -1       616 7.81250E-02 1.25000E-02 0.00000E+00
 -1       617 7.91667E-02 1.25000E-02 0.00000E+00
 -1       618 8.02083E-02 1.25000E-02 0.00000E+00
 -1       619 8.12500E-02 1.25000E-02 0.00000E+00
 -1       620 8.22917E-02 1.25000E-02 0.00000E+00
 -1       621 6.66667E-02 1.35417E-02 0.00000E+00
 -1       622 6.66667E-02 1.45833E-02 0.00000E+00
 -1       623 6.66667E-02 1.56250E-02 0.00000E+00
 -1       624 6.66667E-02 1.66667E-02 0.00000E+00
 -1       625 6.66667E-02 1.77083E-02 0.00000E+00
 -1       626 6.77083E-02 1.28906E-02 0.00000E+00
 -1       627 6.87500E-02 1.32813E-02 0.00000E+00
 -1       628 6.97917E-02 1.36719E-02 0.00000E+00
 -1       629 7.08333E-02 1.40625E-02 0.00000E+00
 -1       630 7.18750E-02 1.44531E-02 0.00000E+00
 -1       631 7.29167E-02 1.48437E-02 0.00000E+00
 -1       632 7.39583E-02 1.52344E-02 0.00000E+00
 -1       633 7.50000E-02 1.56250E-02 0.00000E+00
 -1       634 7.60417E-02 1.60156E-02 0.00000E+00
 -1       635 7.70833E-02 1.64062E-02 0.00000E+00
 -1       636 7.81250E-02 1.67969E-02 0.00000E+00
 -1       637 7.91667E-02 1.71875E-02 0.00000E+00
 -1       638 8.02083E-02 1.75781E-02 0.00000E+00
 -1       639 8.12500E-02 1.79687E-02 0.00000E+00
 -1       640 8.22917E-02 1.83594E-02 0.00000E+00
 -1       656 8.33333E-02 1.35417E-02 0.00000E+00
 -1       657 8.33333E-02 1.45833E-02 0.00000E+00
 -1       658 8.33333E-02 1.56250E-02 0.00000E+00
 -1       659 8.33333E-02 1.66667E-02 0.00000E+00
 -1       660 8.33333E-02 1.77083E-02 0.00000E+00
 -1       661 8.43750E-02 1.28906E-02 0.00000E+00
 -1       662 8.54167E-02 1.32813E-02 0.00000E+00
 -1       663 8.64583E-02 1.36719E-02 0.00000E+00
 -1       664 8.75000E-02 1.40625E-02 0.00000E+00
 -1       665 8.85417E-02 1.44531E-02 0.00000E+00
 -1       666 8.95833E-02 1.48437E-02 0.00000E+00
 -1       667 9.06250E-02 1.52344E-02 0.00000E+00
 -1       668 9.16667E-02 1.56250E-02 0.00000E+00
 -1       669 9.27083E-02 1.60156E-02 0.00000E+00
 -1       670 9.37500E-02 1.64062E-02 0.00000E+00
 -1       671 9.47917E-02 1.67969E-02 0.00000E+00
 -1       672 9.58333E-02 1.71875E-02 0.00000E+00
 -1       673 9.68750E-02 1.75781E-02 0.00000E+00
 -1       674 9.79167E-02 1.79687E-02 0.00000E+00
 -1       675 9.89583E-02 1.83594E-02 0.00000E+00
 -1       676 1.00000E-01 1.35417E-02 0.00000E+00
 -1       677 1.00000E-01 1.45833E-02 0.00000E+00
 -1       678 1.00000E-01 1.56250E-02 0.00000E+00
 -1       679 1.00000E-01 1.66667E-02 0.00000E+00
 -1       680 1.00000E-01 1.77083E-02 0.00000E+00
 -1       771 3.43750E-02 1.91406E-02 0.00000E+00
 -1       772 3.54167E-02 1.95312E-02 0.00000E+00
 -1       773 3.64583E-02 1.99219E-02 0.00000E+00
 -1       774 3.75000E-02 2.03125E-02 0.00000E+00
 -1       775 3.85417E-02 2.07031E-02 0.00000E+00
 -1       776 3.95833E-02 2.10938E-02 0.00000E+00
 -1       777 4.06250E-02 2.14844E-02 0.00000E+00
 -1       778 4.16667E-02 2.18750E-02 0.00000E+00
 -1       779 4.27083E-02 2.22656E-02 0.00000E+00
 -1       780 4.37500E-02 2.26563E-02 0.00000E+00
 -1       781 4.47917E-02 2.30469E-02 0.00000E+00
 -1       782 4.58333E-02 2.34375E-02 0.00000E+00
 -1       783 4.68750E-02 2.38281E-02 0.00000E+00
 -1       784 4.79167E-02 2.42187E-02 0.00000E+00
 -1       785 4.89583E-02 2.46094E-02 0.00000E+00
 -1       786 5.10417E-02 1.87500E-02 0.00000E+00
 -1       787 5.20833E-02 1.87500E-02 0.00000E+00
 -1       788 5.31250E-02 1.87500E-02 0.00000E+00
 -1       789 5.41667E-02 1.87500E-02 0.00000E+00
 -1       790 5.52083E-02 1.87500E-02 0.00000E+00
 -1       791 5.62500E-02 1.87500E-02 0.00000E+00
 -1       792 5.72917E-02 1.87500E-02 0.00000E+00
 -1       793 5.83333E-02 1.87500E-02 0.00000E+00
 -1       794 5.93750E-02 1.87500E-02 0.00000E+00
 -1       795 6.04167E-02 1.87500E-02 0.00000E+00
 -1       796 6.14583E-02 1.87500E-02 0.00000E+00
 -1       797 6.25000E-02 1.87500E-02 0.00000E+00
 -1       798 6.35417E-02 1.87500E-02 0.00000E+00
 -1       799 6.45833E-02 1.87500E-02 0.00000E+00
 -1       800 6.56250E-02 1.87500E-02 0.00000E+00
 -1       801 5.00000E-02 1.97917E-02 0.00000E+00
 -1       802 5.00000E-02 2.08333E-02 0.00000E+00
 -1       803 5.00000E-02 2.18750E-02 0.00000E+00
 -1       804 5.00000E-02 2.29167E-02 0.00000E+00
 -1       805 5.00000E-02 2.39583E-02 0.00000E+00
 -1       806 5.10417E-02 1.91406E-02 0.00000E+00
 -1       807 5.20833E-02 1.95312E-02 0.00000E+00
 -1       808 5.31250E-02 1.99219E-02 0.00000E+00
 -1       809 5.41667E-02 2.03125E-02 0.00000E+00
 -1       810 5.52083E-02 2.07031E-02 0.00000E+00
 -1       811 5.62500E-02 2.10938E-02 0.00000E+00
 -1       812 5.72917E-02 2.14844E-02 0.00000E+00
 -1       813 5.83333E-02 2.18750E-02 0.00000E+00
 -1       814 5.93750E-02 2.22656E-02 0.00000E+00
 -1       815 6.04167E-02 2.26563E-02 0.00000E+00
 -1       816 6.14583E-02 2.30469E-02 0.00000E+00
 -1       817 6.25000E-02 2.34375E-02 0.00000E+00
 -1       818 6.35417E-02 2.38281E-02 0.00000E+00
 -1       819 6.45833E-02 2.42187E-02 0.00000E+00
 -1       820 6.56250E-02 2.46094E-02 0.00000E+00
 -1       821 6.77083E-02 1.87500E-02 0.00000E+00
 -1       822 6.87500E-02 1.87500E-02 0.00000E+00
 -1       823 6.97917E-02 1.87500E-02 0.00000E+00
 -1       824 7.08333E-02 1.87500E-02 0.00000E+00
 -1       825 7.18750E-02 1.87500E-02 0.00000E+00
 -1       826 7.29167E-02 1.87500E-02 0.00000E+00
 -1       827 7.39583E-02 1.87500E-02 0.00000E+00
 -1       828 7.50000E-02 1.87500E-02 0.00000E+00
 -1       829 7.60417E-02 1.87500E-02 0.00000E+00
 -1       830 7.70833E-02 1.87500E-02 0.00000E+00
 -1       831 7.81250E-02 1.87500E-02 0.00000E+00
 -1       832 7.91667E-02 1.87500E-02 0.00000E+00
 -1       833 8.02083E-02 1.87500E-02 0.00000E+00
 -1       834 8.12500E-02 1.87500E-02 0.00000E+00
 -1       835 8.22917E-02 1.87500E-02 0.00000E+00
 -1       836 6.66667E-02 1.97917E-02 0.00000E+00
 -1       837 6.66667E-02 2.08333E-02 0.00000E+00
 -1       838 6.66667E-02 2.18750E-02 0.00000E+00
 -1       839 6.66667E-02 2.29167E-02 0.00000E+00
 -1       840 6.66667E-02 2.39583E-02 0.00000E+00
 -1       856 8.43750E-02 1.87500E-02 0.00000E+00
 -1       857 8.54167E-02 1.87500E-02 0.00000E+00
 -1       858 8.64583E-02 1.87500E-02 0.00000E+00
 -1       859 8.75000E-02 1.87500E-02 0.00000E+00
 -1       860 8.85417E-02 1.87500E-02 0.00000E+00
 -1       861 8.95833E-02 1.87500E-02 0.00000E+00
 -1       862 9.06250E-02 1.87500E-02 0.00000E+00
 -1       863 9.16667E-02 1.87500E-02 0.00000E+00
 -1       864 9.27083E-02 1.87500E-02 0.00000E+00
 -1       865 9.37500E-02 1.87500E-02 0.00000E+00
 -1       866 9.47917E-02 1.87500E-02 0.00000E+00
 -1       867 9.58333E-02 1.87500E-02 0.00000E+00
 -1       868 9.68750E-02 1.87500E-02 0.00000E+00
 -1       869 9.79167E-02 1.87500E-02 0.00000E+00
 -1       870 9.89583E-02 1.87500E-02 0.00000E+00
 -1       871 8.33333E-02 1.97917E-02 0.00000E+00
 -1       872 8.33333E-02 2.08333E-02 0.00000E+00
 -1       873 8.33333E-02 2.18750E-02 0.00000E+00
 -1       874 8.33333E-02 2.29167E-02 0.00000E+00
 -1       875 8.33333E-02 2.39583E-02 0.00000E+00
 -1       876 8.43750E-02 1.91406E-02 0.00000E+00
 -1       877 8.54167E-02 1.95312E-02 0.00000E+00
 -1       878 8.64583E-02 1.99219E-02 0.00000E+00
 -1       879 8.75000E-02 2.03125E-02 0.00000E+00
 -1       880 8.85417E-02 2.07031E-02 0.00000E+00
 -1       881 8.95833E-02 2.10938E-02 0.00000E+00
 -1       882 9.06250E-02 2.14844E-02 0.00000E+00
 -1       883 9.16667E-02 2.18750E-02 0.00000E+00
 -1       884 9.27083E-02 2.22656E-02 0.00000E+00
 -1       885 9.37500E-02 2.26563E-02 0.00000E+00
 -1       886 9.47917E-02 2.30469E-02 0.00000E+00
 -1       887 9.58333E-02 2.34375E-02 0.00000E+00
 -1       888 9.68750E-02 2.38281E-02 0.00000E+00
 -1       889 9.79167E-02 2.42187E-02 0.00000E+00
 -1       890 9.89583E-02 2.46094E-02 0.00000E+00
 -1       891 1.00000E-01 1.97917E-02 0.00000E+00
 -1       892 1.00000E-01 2.08333E-02 0.00000E+00
 -1       893 1.00000E-01 2.18750E-02 0.00000E+00
 -1       894 1.00000E-01 2.29167E-02 0.00000E+00
 -1       895 1.00000E-01 2.39583E-02 0.00000E+00
 -1       956 6.77083E-02 2.50000E-02 0.00000E+00
 -1       957 6.87500E-02 2.50000E-02 0.00000E+00
 -1       958 6.97917E-02 2.50000E-02 0.00000E+00
 -1       959 7.08333E-02 2.50000E-02 0.00000E+00
 -1       960 7.18750E-02 2.50000E-02 0.00000E+00
 -1       961 7.29167E-02 2.50000E-02 0.00000E+00
 -1       962 7.39583E-02 2.50000E-02 0.00000E+00
 -1       963 7.50000E-02 2.50000E-02 0.00000E+00
 -1       964 7.60417E-02 2.50000E-02 0.00000E+00
 -1       965 7.70833E-02 2.50000E-02 0.00000E+00
 -1       966 7.81250E-02 2.50000E-02 0.00000E+00
 -1       967 7.91667E-02 2.50000E-02 0.00000E+00
 -1       968 8.02083E-02 2.50000E-02 0.00000E+00
 -1       969 8.12500E-02 2.50000E-02 0.00000E+00
 -1       970 8.22917E-02 2.50000E-02 0.00000E+00
 -1       971 8.43750E-02 2.50000E-02 0.00000E+00
 -1       972 8.54167E-02 2.50000E-02 0.00000E+00
 -1       973 8.64583E-02 2.50000E-02 0.00000E+00
 -1       974 8.75000E-02 2.50000E-02 0.00000E+00
 -1       975 8.85417E-02 2.50000E-02 0.00000E+00
 -1       976 8.95833E-02 2.50000E-02 0.00000E+00
 -1       977 9.06250E-02 2.50000E-02 0.00000E+00
 -1       978 9.16667E-02 2.50000E-02 0.00000E+00
 -1       979 9.27083E-02 2.50000E-02 0.00000E+00
 -1       980 9.37500E-02 2.50000E-02 0.00000E+00
 -1       981 9.47917E-02 2.50000E-02 0.00000E+00
 -1       982 9.58333E-02 2.50000E-02 0.00000E+00
 -1       983 9.68750E-02 2.50000E-02 0.00000E+00
 -1       984 9.79167E-02 2.50000E-02 0.00000E+00
 -1       985 9.89583E-02 2.50000E-02 0.00000E+00
 -3
    3C                           211                                     1
 -1         1   12    0    1
 -2         1        52        51
 -1         2   12    0    1
 -2        52        54        53
 -1         3   12    0    1
 -2        54         8        55
 -1         4   12    0    1
 -2         1        57        56
 -1         5   12    0    1
 -2        57        59        58
 -1         6   12    0    1
 -2        59        61        60
 -1         7   12    0    1
 -2        61        63        62
 -1         8   12    0    1
 -2        63        65        64
 -1         9   12    0    1
 -2        65        67        66
 -1        10   12    0    1
 -2        67        69        68
 -1        11   12    0    1
 -2        69         9        70
 -1        12   12    0    1
 -2         2        87        86
 -1        13   12    0    1
 -2        87        89        88
 -1        14   12    0    1
 -2        89         9        90
 -1        15   12    0    1
 -2         3       122       121
 -1        16   12    0    1
 -2       122       124       123
 -1        17   12    0    1
 -2       124        10       125
 -1        18   12    0    1
 -2         5       192       191
 -1        19   12    0    1
 -2       192       194       193
 -1        20   12    0    1
 -2       194        12       195
 -1        21   12    0    1
 -2         8       252       251
 -1        22   12    0    1
 -2       252       254       253
 -1        23   12    0    1
 -2       254       256       255
 -1        24   12    0    1
 -2       256       258       257
 -1        25   12    0    1
 -2       258       260       259
 -1        26   12    0    1
 -2       260       262       261
 -1        27   12    0    1
 -2       262       264       263
 -1        28   12    0    1
 -2       264         9       265
 -1        29   12    0    1
 -2         8       267       266
 -1        30   12    0    1
 -2       267       269       268
 -1        31   12    0    1
 -2       269        15       270
 -1        32   12    0    1
 -2         8       272       271
 -1        33   12    0    1
 -2       272       274       273
 -1        34   12    0    1
 -2       274       276       275
 -1        35   12    0    1
 -2       276       278       277
 -1        36   12    0    1
 -2       278       280       279
 -1        37   12    0    1
 -2       280       282       281
 -1        38   12    0    1
 -2       282       284       283
 -1        39   12    0    1
 -2       284        16       285
 -1        40   12    0    1
 -2         9       302       301
 -1        41   12    0    1
 -2       302       304       303
 -1        42   12    0    1
 -2       304        16       305
 -1        43   12    0    1
 -2         9       307       306
 -1        44   12    0    1
 -2       307       309       308
 -1        45   12    0    1
 -2       309       311       310
 -1        46   12    0    1
 -2       311       313       312
 -1        47   12    0    1
 -2       313       315       314
 -1        48   12    0    1
 -2       315       317       316
 -1        49   12    0    1
 -2       317       319       318
 -1        50   12    0    1
 -2       319        17       320
 -1        51   12    0    1
 -2        10       337       336
 -1        52   12    0    1
 -2       337       339       338
 -1        53   12    0    1
 -2       339        17       340
 -1        54   12    0    1
 -2        12       407       406
 -1        55   12    0    1
 -2       407       409       408
 -1        56   12    0    1
 -2       409        19       410
 -1        57   12    0    1
 -2        16       522       521
 -1        58   12    0    1
 -2       522       524       523
 -1        59   12    0    1
 -2       524       526       525
 -1        60   12    0    1
 -2       526       528       527
 -1        61   12    0    1
 -2       528       530       529
 -1        62   12    0    1
 -2       530       532       531
 -1        63   12    0    1
 -2       532       534       533
 -1        64   12    0    1
 -2       534        24       535
 -1        65   12    0    1
 -2        17       537       536
 -1        66   12    0    1
 -2       537       539       538
 -1        67   12    0    1
 -2       539       541       540
 -1        68   12    0    1
 -2       541       543       542
 -1        69   12    0    1
 -2       543       545       544
 -1        70   12    0    1
 -2       545       547       546
 -1        71   12    0    1
 -2       547       549       548
 -1        72   12    0    1
 -2       549        18       550
 -1        73   12    0    1
 -2        17       552       551
 -1        74   12    0    1
 -2       552       554       553
 -1        75   12    0    1
 -2       554        24       555
 -1        76   12    0    1
 -2        17       557       556
 -1        77   12    0    1
 -2       557       559       558
 -1        78   12    0    1
 -2       559       561       560
 -1        79   12    0    1
 -2       561       563       562
 -1        80   12    0    1
 -2       563       565       564
 -1        81   12    0    1
 -2       565       567       566
 -1        82   12    0    1
 -2       567       569       568
 -1        83   12    0    1
 -2       569        25       570
 -1        84   12    0    1
 -2        18       572       571
 -1        85   12    0    1
 -2       572       574       573
 -1        86   12    0    1
 -2       574       576       575
 -1        87   12    0    1
 -2       576       578       577
 -1        88   12    0    1
 -2       578       580       579
 -1        89   12    0    1
 -2       580       582       581
 -1        90   12    0    1
 -2       582       584       583
 -1        91   12    0    1
 -2       584        19       585
 -1        92   12    0    1
 -2        18       587       586
 -1        93   12    0    1
 -2       587       589       588
 -1        94   12    0    1
 -2       589        25       590
 -1        95   12    0    1
 -2        18       592       591
 -1        96   12    0    1
 -2       592       594       593
 -1        97   12    0    1
 -2       594       596       595
 -1        98   12    0    1
 -2       596       598       597
 -1        99   12    0    1
 -2       598       600       599
 -1       100   12    0    1
 -2       600       602       601
 -1       101   12    0    1
 -2       602       604       603
 -1       102   12    0    1
 -2       604        26       605
 -1       103   12    0    1
 -2        19       607       606
 -1       104   12    0    1
 -2       607       609       608
 -1       105   12    0    1
 -2       609       611       610
 -1       106   12    0    1
 -2       611       613       612
 -1       107   12    0    1
 -2       613       615       614
 -1       108   12    0    1
 -2       615       617       616
 -1       109   12    0    1
 -2       617       619       618
 -1       110   12    0    1
 -2       619        20       620
 -1       111   12    0    1
 -2        19       622       621
 -1       112   12    0    1
 -2       622       624       623
 -1       113   12    0    1
 -2       624        26       625
 -1       114   12    0    1
 -2        19       627       626
 -1       115   12    0    1
 -2       627       629       628
 -1       116   12    0    1
 -2       629       631       630
 -1       117   12    0    1
 -2       631       633       632
 -1       118   12    0    1
 -2       633       635       634
 -1       119   12    0    1
 -2       635       637       636
 -1       120   12    0    1
 -2       637       639       638
 -1       121   12    0    1
 -2       639        27       640
 -1       122   12    0    1
 -2        20       657       656
 -1       123   12    0    1
 -2       657       659       658
 -1       124   12    0    1
 -2       659        27       660
 -1       125   12    0    1
 -2        20       662       661
 -1       126   12    0    1
 -2       662       664       663
 -1       127   12    0    1
 -2       664       666       665
 -1       128   12    0    1
 -2       666       668       667
 -1       129   12    0    1
 -2       668       670       669
 -1       130   12    0    1
 -2       670       672       671
 -1       131   12    0    1
 -2       672       674       673
 -1       132   12    0    1
 -2       674        28       675
 -1       133   12    0    1
 -2        21       677       676
 -1       134   12    0    1
 -2       677       679       678
 -1       135   12    0    1
 -2       679        28       680
 -1       136   12    0    1
 -2        24       772       771
 -1       137   12    0    1
 -2       772       774       773
 -1       138   12    0    1
 -2       774       776       775
 -1       139   12    0    1
 -2       776       778       777
 -1       140   12    0    1
 -2       778       780       779
 -1       141   12    0    1
 -2       780       782       781
 -1       142   12    0    1
 -2       782       784       783
 -1       143   12    0    1
 -2       784        32       785
 -1       144   12    0    1
 -2        25       787       786
 -1       145   12    0    1
 -2       787       789       788
 -1       146   12    0    1
 -2       789       791       790
 -1       147   12    0    1
 -2       791       793       792
 -1       148   12    0    1
 -2       793       795       794
 -1       149   12    0    1
 -2       795       797       796
 -1       150   12    0    1
 -2       797       799       798
 -1       151   12    0    1
 -2       799        26       800
 -1       152   12    0    1
 -2        25       802       801
 -1       153   12    0    1
 -2       802       804       803
 -1       154   12    0    1
 -2       804        32       805
 -1       155   12    0    1
 -2        25       807       806
 -1       156   12    0    1
 -2       807       809       808
 -1       157   12    0    1
 -2       809       811       810
 -1       158   12    0    1
 -2       811       813       812
 -1       159   12    0    1
 -2       813       815       814
 -1       160   12    0    1
 -2       815       817       816
 -1       161   12    0    1
 -2       817       819       818
 -1       162   12    0    1
 -2       819        33       820
 -1       163   12    0    1
 -2        26       822       821
 -1       164   12    0    1
 -2       822       824       823
 -1       165   12    0    1
 -2       824       826       825
 -1       166   12    0    1
 -2       826       828       827
 -1       167   12    0    1
 -2       828       830       829
 -1       168   12    0    1
 -2       830       832       831
 -1       169   12    0    1
 -2       832       834       833
 -1       170   12    0    1
 -2       834        27       835
 -1       171   12    0    1
 -2        26       837       836
 -1       172   12    0    1
 -2       837       839       838
 -1       173   12    0    1
 -2       839        33       840
 -1       174   12    0    1
 -2        27       857       856
 -1       175   12    0    1
 -2       857       859       858
 -1       176   12    0    1
 -2       859       861       860
 -1       177   12    0    1
 -2       861       863       862
 -1       178   12    0    1
 -2       863       865       864
 -1       179   12    0    1
 -2       865       867       866
 -1       180   12    0    1
 -2       867       869       868
 -1       181   12    0    1
 -2       869        28       870
 -1       182   12    0    1
 -2        27       872       871
 -1       183   12    0    1
 -2       872       874       873
 -1       184   12    0    1
 -2       874        34       875
 -1       185   12    0    1
 -2        27       877       876
 -1       186   12    0    1
 -2       877       879       878
 -1       187   12    0    1
 -2       879       881       880
 -1       188   12    0    1
 -2       881       883       882
 -1       189   12    0    1
 -2       883       885       884
 -1       190   12    0    1
 -2       885       887       886
 -1       191   12    0    1
 -2       887       889       888
 -1       192   12    0    1
 -2       889        35       890
 -1       193   12    0    1
 -2        28       892       891
 -1       194   12    0    1
 -2       892       894       893
 -1       195   12    0    1
 -2       894        35       895
 -1       196   12    0    1
 -2        33       957       956
 -1       197   12    0    1
 -2       957       959       958
 -1       198   12    0    1
 -2       959       961       960
 -1       199   12    0    1
 -2       961       963       962
 -1       200   12    0    1
 -2       963       965       964
 -1       201   12    0    1
 -2       965       967       966
 -1       202   12    0    1
 -2       967       969       968
 -1       203   12    0    1
 -2       969        34       970
 -1       204   12    0    1
 -2        34       972       971
 -1       205   12    0    1
 -2       972       974       973
 -1       206   12    0    1
 -2       974       976       975
 -1       207   12    0    1
 -2       976       978       977
 -1       208   12    0    1
 -2       978       980       979
 -1       209   12    0    1
 -2       980       982       981
 -1       210   12    0    1
 -2       982       984       983
 -1       211   12    0    1
 -2       984        35       985
 -3
    1PSTEP                         1           1           1          
  100CL  101 1.25000E-01         409                     0    1           1
 -4  DISP        4    1
 -5  D1          1    2    1    0
 -5  D2          1    2    2    0
 -5  D3          1    2    3    0
 -5  ALL         1    2    0    0    1ALL
 -1         1 3.25342E-05 0.00000E+00 0.00000E+00
 -1         2 3.00997E-05-6.57416E-30 0.00000E+00
 -1         3 2.75270E-05 8.99034E-28-1.65436E-24
 -1         5 1.99561E-05-1.72641E-26 0.00000E+00
 -1         8 2.59643E-05-2.30022E-07 0.00000E+00
 -1         9 2.63577E-05 1.50623E-07 0.00000E+00
 -1        10 2.55410E-05-3.78149E-07 0.00000E+00
 -1        12 1.98101E-05 1.35945E-07-4.13590E-25
 -1        15 1.81516E-05-2.41400E-07 0.00000E+00
 -1        16 1.87839E-05 1.24632E-07 0.00000E+00
 -1        17 1.90850E-05-7.89165E-07 0.00000E+00
 -1        18 1.91091E-05 2.30965E-09 0.00000E+00
 -1        19 1.93723E-05 2.71168E-07 0.00000E+00
 -1        20 1.94088E-05 4.08175E-06 0.00000E+00
 -1        21 1.92720E-05 7.72622E-06-4.13590E-25
 -1        24 4.89177E-06-1.03558E-06 0.00000E+00
 -1        25 1.86397E-05 3.33242E-08 0.00000E+00
 -1        26 1.88865E-05 3.77867E-07 0.00000E+00
 -1        27 1.85110E-05 3.47682E-06 0.00000E+00
 -1        28 1.83895E-05 7.60990E-06 0.00000E+00
 -1        32 0.00000E+00 0.00000E+00 0.00000E+00
 -1        33 1.80760E-05 5.06920E-07 0.00000E+00
 -1        34 1.77124E-05 3.47156E-06 0.00000E+00
 -1        35 1.73672E-05 7.54861E-06 0.00000E+00
 -1        51 3.21065E-05-3.87012E-08 0.00000E+00
 -1        52 3.13141E-05-7.61137E-08 0.00000E+00
 -1        53 3.02290E-05-1.13476E-07 0.00000E+00
 -1        54 2.89258E-05-1.51129E-07 0.00000E+00
 -1        55 2.74792E-05-1.89379E-07-1.44757E-24
 -1        56 3.22298E-05-1.75430E-07 0.00000E+00
 -1        57 3.19504E-05-4.51127E-07 0.00000E+00
 -1        58 3.16979E-05-7.96825E-07 0.00000E+00
 -1        59 3.14599E-05-1.18701E-06 0.00000E+00
 -1        60 3.12280E-05-1.59378E-06 1.32349E-23
 -1        61 3.09918E-05-1.98994E-06 6.61744E-24
 -1        62 3.07414E-05-2.34828E-06 0.00000E+00
 -1        63 3.04667E-05-2.64200E-06 6.61744E-24
 -1        64 3.01581E-05-2.84531E-06-1.32349E-23
 -1        65 2.98062E-05-2.93314E-06-6.61744E-24
 -1        66 2.94024E-05-2.88229E-06 0.00000E+00
 -1        67 2.89385E-05-2.67057E-06 6.61744E-24
 -1        68 2.84071E-05-2.27857E-06 0.00000E+00
 -1        69 2.78028E-05-1.68757E-06-3.30872E-24
 -1        70 2.71178E-05-8.83562E-07-6.61744E-24
 -1        86 2.99979E-05 2.66505E-08 8.27181E-25
 -1        87 2.96922E-05 5.31155E-08 2.06795E-25
 -1        88 2.91798E-05 7.94780E-08 0.00000E+00
 -1        89 2.84573E-05 1.04802E-07 0.00000E+00
 -1        90 2.75188E-05 1.30261E-07 0.00000E+00
 -1       121 2.74718E-05-6.29305E-08 0.00000E+00
 -1       122 2.73061E-05-1.25874E-07 0.00000E+00
 -1       123 2.70301E-05-1.88844E-07 1.65436E-24
 -1       124 2.66437E-05-2.51863E-07 0.00000E+00
 -1       125 2.61473E-05-3.14926E-07-1.65436E-24
 -1       191 1.99521E-05 2.26587E-08-8.27181E-25
 -1       192 1.99399E-05 4.53170E-08-4.13590E-25
 -1       193 1.99196E-05 6.79753E-08 8.27181E-25
 -1       194 1.98913E-05 9.06331E-08 0.00000E+00
 -1       195 1.98548E-05 1.13290E-07-8.27181E-25
 -1       251 2.59839E-05 8.54932E-07 0.00000E+00
 -1       252 2.60086E-05 1.51163E-06 0.00000E+00
 -1       253 2.60332E-05 1.80552E-06 0.00000E+00
 -1       254 2.60587E-05 1.80164E-06-2.06795E-25
 -1       255 2.60843E-05 1.56103E-06-8.27181E-25
 -1       256 2.61099E-05 1.14450E-06 0.00000E+00
 -1       257 2.61355E-05 6.10461E-07 0.00000E+00
 -1       258 2.61611E-05 1.72220E-08 4.13590E-25
 -1       259 2.61867E-05-5.77737E-07 0.00000E+00
 -1       260 2.62123E-05-1.11692E-06 4.13590E-25
 -1       261 2.62380E-05-1.54207E-06-8.27181E-25
 -1       262 2.62635E-05-1.79483E-06-2.06795E-25
 -1       263 2.62890E-05-1.81450E-06 0.00000E+00
 -1       264 2.63135E-05-1.54014E-06 0.00000E+00
 -1       265 2.63382E-05-9.06861E-07 0.00000E+00
 -1       266 2.46621E-05-2.35162E-07 0.00000E+00
 -1       267 2.33600E-05-2.36663E-07-4.13590E-25
 -1       268 2.20579E-05-2.38394E-07 0.00000E+00
 -1       269 2.07558E-05-2.39443E-07-1.03398E-25
 -1       270 1.94537E-05-2.40476E-07 0.00000E+00
 -1       271 2.51760E-05 7.33994E-07 0.00000E+00
 -1       272 2.45094E-05 1.33646E-06 6.61744E-24
 -1       273 2.39599E-05 1.62870E-06 0.00000E+00
 -1       274 2.35068E-05 1.65799E-06 0.00000E+00
 -1       275 2.31334E-05 1.47447E-06 0.00000E+00
 -1       276 2.28205E-05 1.12862E-06 0.00000E+00
 -1       277 2.25490E-05 6.71920E-07 0.00000E+00
 -1       278 2.22995E-05 1.56303E-07 6.61744E-24
 -1       279 2.20525E-05-3.65979E-07-1.32349E-23
 -1       280 2.17885E-05-8.42630E-07 0.00000E+00
 -1       281 2.14879E-05-1.22163E-06-1.32349E-23
 -1       282 2.11316E-05-1.45139E-06 0.00000E+00
 -1       283 2.07004E-05-1.48118E-06 0.00000E+00
 -1       284 2.01769E-05-1.26076E-06 6.61744E-24
 -1       285 1.95410E-05-7.42202E-07 6.61744E-24
 -1       301 2.50758E-05 1.44742E-07 0.00000E+00
 -1       302 2.37935E-05 1.42777E-07 0.00000E+00
 -1       303 2.25170E-05 1.40918E-07 0.00000E+00
 -1       304 2.12525E-05 1.38613E-07-8.27181E-25
 -1       305 2.00061E-05 1.35675E-07 0.00000E+00
 -1       306 2.55505E-05 1.06957E-06 6.61744E-24
 -1       307 2.48776E-05 1.59064E-06 0.00000E+00
 -1       308 2.43380E-05 1.75928E-06 1.32349E-23
 -1       309 2.39116E-05 1.61890E-06 0.00000E+00
 -1       310 2.35793E-05 1.22735E-06 1.32349E-23
 -1       311 2.33181E-05 6.44658E-07-6.61744E-24
 -1       312 2.31030E-05-6.11420E-08-1.32349E-23
 -1       313 2.29079E-05-8.20652E-07 6.61744E-24
 -1       314 2.27061E-05-1.56214E-06 0.00000E+00
 -1       315 2.24708E-05-2.21411E-06 6.61744E-24
 -1       316 2.21768E-05-2.70892E-06 0.00000E+00
 -1       317 2.17997E-05-2.98068E-06 0.00000E+00
 -1       318 2.13178E-05-2.97278E-06-1.32349E-23
 -1       319 2.07136E-05-2.63101E-06 0.00000E+00
 -1       320 1.99684E-05-1.91687E-06-6.61744E-24
 -1       336 2.48105E-05-4.46423E-07 0.00000E+00
 -1       337 2.39412E-05-5.14898E-07-8.27181E-25
 -1       338 2.29334E-05-5.83480E-07 0.00000E+00
 -1       339 2.17876E-05-6.52113E-07-8.27181E-25
 -1       340 2.05046E-05-7.20916E-07 0.00000E+00
 -1       406 1.97574E-05 1.58597E-07 0.00000E+00
 -1       407 1.96966E-05 1.81241E-07 0.00000E+00
 -1       408 1.96276E-05 2.03871E-07-8.27181E-25
 -1       409 1.95506E-05 2.26459E-07 0.00000E+00
 -1       410 1.94655E-05 2.48960E-07-8.27181E-25
 -1       521 1.76522E-05 8.26062E-07 0.00000E+00
 -1       522 1.66522E-05 1.10193E-06-1.32349E-23
 -1       523 1.57935E-05 1.00603E-06 2.64698E-23
 -1       524 1.50505E-05 5.88312E-07 0.00000E+00
 -1       525 1.44009E-05-7.89005E-08 0.00000E+00
 -1       526 1.38154E-05-9.19637E-07-1.32349E-23
 -1       527 1.32623E-05-1.84727E-06 0.00000E+00
 -1       528 1.27086E-05-2.77359E-06 0.00000E+00
 -1       529 1.21214E-05-3.61036E-06 0.00000E+00
 -1       530 1.14685E-05-4.27128E-06 0.00000E+00
 -1       531 1.07213E-05-4.68046E-06 2.64698E-23
 -1       532 9.85400E-06-4.76719E-06-1.32349E-23
 -1       533 8.84654E-06-4.48010E-06-2.64698E-23
 -1       534 7.68656E-06-3.77418E-06 0.00000E+00
 -1       535 6.36087E-06-2.63247E-06-1.32349E-23
 -1       536 1.90835E-05 5.27084E-07-8.27181E-25
 -1       537 1.90845E-05 1.50119E-06 0.00000E+00
 -1       538 1.90856E-05 2.17458E-06 0.00000E+00
 -1       539 1.90872E-05 2.58871E-06 0.00000E+00
 -1       540 1.90889E-05 2.78086E-06 0.00000E+00
 -1       541 1.90907E-05 2.78829E-06 0.00000E+00
 -1       542 1.90925E-05 2.64535E-06 0.00000E+00
 -1       543 1.90943E-05 2.38636E-06 0.00000E+00
 -1       544 1.90961E-05 2.04382E-06 5.16988E-26
 -1       545 1.90979E-05 1.65023E-06 2.58494E-26
 -1       546 1.90996E-05 1.23733E-06 0.00000E+00
 -1       547 1.91014E-05 8.36826E-07 0.00000E+00
 -1       548 1.91032E-05 4.80656E-07 0.00000E+00
 -1       549 1.91051E-05 2.00754E-07-5.16988E-26
 -1       550 1.91069E-05 3.02587E-08 0.00000E+00
 -1       551 1.72007E-05-8.27883E-07-8.27181E-25
 -1       552 1.49459E-05-8.66777E-07-6.20385E-25
 -1       553 1.24532E-05-9.06339E-07 0.00000E+00
 -1       554 9.85714E-06-9.46821E-07 0.00000E+00
 -1       555 7.29217E-06-9.87946E-07 0.00000E+00
 -1       556 1.85939E-05 4.88387E-07 0.00000E+00
 -1       557 1.82191E-05 1.46286E-06 0.00000E+00
 -1       558 1.79480E-05 2.16236E-06 0.00000E+00
 -1       559 1.77690E-05 2.61720E-06 0.00000E+00
 -1       560 1.76706E-05 2.85757E-06-3.30872E-24
 -1       561 1.76413E-05 2.91384E-06 0.00000E+00
 -1       562 1.76696E-05 2.81636E-06 0.00000E+00
 -1       563 1.77443E-05 2.59552E-06 0.00000E+00
 -1       564 1.78538E-05 2.28169E-06 0.00000E+00
 -1       565 1.79867E-05 1.90527E-06 4.13590E-25
 -1       566 1.81318E-05 1.49665E-06-2.06795E-25
 -1       567 1.82775E-05 1.08623E-06 5.16988E-26
 -1       568 1.84124E-05 7.04387E-07 0.00000E+00
 -1       569 1.85254E-05 3.81486E-07 0.00000E+00
 -1       570 1.86048E-05 1.47900E-07 0.00000E+00
 -1       571 1.91251E-05 2.95490E-08 3.10193E-25
 -1       572 1.91414E-05 4.59769E-08 1.03398E-25
 -1       573 1.91578E-05 5.35164E-08 0.00000E+00
 -1       574 1.91743E-05 5.41924E-08-1.03398E-25
 -1       575 1.91908E-05 5.00387E-08-4.13590E-25
 -1       576 1.92073E-05 4.31026E-08 0.00000E+00
 -1       577 1.92238E-05 3.54328E-08 0.00000E+00
 -1       578 1.92403E-05 2.90799E-08 0.00000E+00
 -1       579 1.92568E-05 2.60944E-08 0.00000E+00
 -1       580 1.92734E-05 2.85268E-08 0.00000E+00
 -1       581 1.92899E-05 3.84273E-08 0.00000E+00
 -1       582 1.93064E-05 5.78437E-08 8.27181E-25
 -1       583 1.93229E-05 8.88218E-08 0.00000E+00
 -1       584 1.93394E-05 1.33386E-07 0.00000E+00
 -1       585 1.93559E-05 1.93549E-07 0.00000E+00
 -1       586 1.90251E-05 7.80694E-09 4.13590E-25
 -1       587 1.89342E-05 1.31623E-08-1.03398E-25
 -1       588 1.88432E-05 1.84571E-08 0.00000E+00
 -1       589 1.87592E-05 2.36665E-08 0.00000E+00
 -1       590 1.86891E-05 2.87326E-08 0.00000E+00
 -1       591 1.90913E-05 3.78486E-08 2.58494E-26
 -1       592 1.90762E-05 6.44114E-08 0.00000E+00
 -1       593 1.90638E-05 8.37076E-08 0.00000E+00
 -1       594 1.90535E-05 9.72770E-08-1.03398E-25
 -1       595 1.90448E-05 1.06680E-07 0.00000E+00
 -1       596 1.90370E-05 1.13464E-07-5.16988E-26
 -1       597 1.90296E-05 1.19178E-07 1.03398E-25
 -1       598 1.90220E-05 1.25368E-07 0.00000E+00
 -1       599 1.90136E-05 1.33580E-07 0.00000E+00
 -1       600 1.90040E-05 1.45361E-07 0.00000E+00
 -1       601 1.89924E-05 1.62256E-07 0.00000E+00
 -1       602 1.89783E-05 1.85814E-07 5.16988E-26
 -1       603 1.89612E-05 2.17584E-07-1.03398E-25
 -1       604 1.89404E-05 2.59126E-07 0.00000E+00
 -1       605 1.89155E-05 3.11981E-07 0.00000E+00
 -1       606 1.93754E-05 3.86259E-07 0.00000E+00
 -1       607 1.93779E-05 5.24985E-07 0.00000E+00
 -1       608 1.93803E-05 6.85958E-07-8.27181E-25
 -1       609 1.93825E-05 8.67613E-07 4.13590E-25
 -1       610 1.93848E-05 1.06838E-06-8.27181E-25
 -1       611 1.93870E-05 1.28667E-06 0.00000E+00
 -1       612 1.93892E-05 1.52087E-06 0.00000E+00
 -1       613 1.93914E-05 1.76941E-06 0.00000E+00
 -1       614 1.93936E-05 2.03067E-06 0.00000E+00
 -1       615 1.93958E-05 2.30306E-06 0.00000E+00
 -1       616 1.93980E-05 2.58499E-06 4.13590E-25
 -1       617 1.94002E-05 2.87486E-06 0.00000E+00
 -1       618 1.94024E-05 3.17107E-06 0.00000E+00
 -1       619 1.94045E-05 3.47202E-06-1.03398E-25
 -1       620 1.94067E-05 3.77611E-06 0.00000E+00
 -1       621 1.92803E-05 2.88964E-07-4.13590E-25
 -1       622 1.91944E-05 3.06847E-07-2.06795E-25
 -1       623 1.91134E-05 3.24726E-07-4.13590E-25
 -1       624 1.90359E-05 3.42577E-07 0.00000E+00
 -1       625 1.89607E-05 3.60397E-07-4.13590E-25
 -1       626 1.93483E-05 3.91860E-07-8.27181E-25
 -1       627 1.93170E-05 5.32139E-07-8.27181E-25
 -1       628 1.92790E-05 6.90193E-07 0.00000E+00
 -1       629 1.92352E-05 8.64086E-07-8.27181E-25
 -1       630 1.91861E-05 1.05188E-06 0.00000E+00
 -1       631 1.91326E-05 1.25163E-06 0.00000E+00
 -1       632 1.90753E-05 1.46137E-06 0.00000E+00
 -1       633 1.90150E-05 1.67917E-06 0.00000E+00
 -1       634 1.89524E-05 1.90305E-06 0.00000E+00
 -1       635 1.88883E-05 2.13108E-06-4.13590E-25
 -1       636 1.88233E-05 2.36130E-06 4.13590E-25
 -1       637 1.87582E-05 2.59175E-06-2.06795E-25
 -1       638 1.86938E-05 2.82049E-06 4.13590E-25
 -1       639 1.86307E-05 3.04555E-06 0.00000E+00
 -1       640 1.85696E-05 3.26499E-06 0.00000E+00
 -1       656 1.91548E-05 3.98337E-06 1.65436E-24
 -1       657 1.89901E-05 3.88101E-06-8.27181E-25
 -1       658 1.88794E-05 3.77896E-06 0.00000E+00
 -1       659 1.87870E-05 3.67699E-06 0.00000E+00
 -1       660 1.86764E-05 3.57470E-06 1.65436E-24
 -1       661 1.93147E-05 4.38145E-06-2.06795E-25
 -1       662 1.92260E-05 4.66869E-06 0.00000E+00
 -1       663 1.91419E-05 4.94367E-06 0.00000E+00
 -1       664 1.90623E-05 5.20693E-06-2.06795E-25
 -1       665 1.89870E-05 5.45889E-06 0.00000E+00
 -1       666 1.89158E-05 5.70001E-06-2.06795E-25
 -1       667 1.88484E-05 5.93074E-06 0.00000E+00
 -1       668 1.87848E-05 6.15151E-06 0.00000E+00
 -1       669 1.87248E-05 6.36276E-06 0.00000E+00
 -1       670 1.86682E-05 6.56492E-06-2.06795E-25
 -1       671 1.86148E-05 6.75842E-06 0.00000E+00
 -1       672 1.85645E-05 6.94366E-06-2.06795E-25
 -1       673 1.85171E-05 7.12108E-06-4.13590E-25
 -1       674 1.84723E-05 7.29101E-06-2.06795E-25
 -1       675 1.84302E-05 7.45396E-06 1.03398E-25
 -1       676 1.91248E-05 7.70672E-06 0.00000E+00
 -1       677 1.89777E-05 7.68722E-06 0.00000E+00
 -1       678 1.88305E-05 7.66774E-06 0.00000E+00
 -1       679 1.86834E-05 7.64831E-06 0.00000E+00
 -1       680 1.85364E-05 7.62889E-06 0.00000E+00
 -1       771 3.93003E-06 7.82249E-07 0.00000E+00
 -1       772 3.09241E-06 2.26358E-06 0.00000E+00
 -1       773 2.37329E-06 3.42962E-06 0.00000E+00
 -1       774 1.76432E-06 4.30218E-06-6.61744E-24
 -1       775 1.25735E-06 4.90318E-06-6.61744E-24
 -1       776 8.44043E-07 5.25474E-06 0.00000E+00
 -1       777 5.16000E-07 5.37911E-06 0.00000E+00
 -1       778 2.64784E-07 5.29867E-06-3.30872E-24
 -1       779 8.19315E-08 5.03590E-06 0.00000E+00
 -1       780-4.10685E-08 4.61341E-06 0.00000E+00
 -1       781-1.12729E-07 4.05388E-06 6.61744E-24
 -1       782-1.41599E-07 3.38010E-06 0.00000E+00
 -1       783-1.36227E-07 2.61489E-06 0.00000E+00
 -1       784-1.05171E-07 1.78116E-06 0.00000E+00
 -1       785-5.70099E-08 9.01840E-07-6.61744E-24
 -1       786 1.86542E-05 3.51934E-08 2.06795E-25
 -1       787 1.86696E-05 3.67233E-08 0.00000E+00
 -1       788 1.86849E-05 3.84548E-08 0.00000E+00
 -1       789 1.87004E-05 4.09287E-08 0.00000E+00
 -1       790 1.87159E-05 4.47117E-08 4.13590E-25
 -1       791 1.87315E-05 5.03716E-08 0.00000E+00
 -1       792 1.87470E-05 5.85407E-08 4.13590E-25
 -1       793 1.87625E-05 6.98537E-08 0.00000E+00
 -1       794 1.87781E-05 8.50541E-08 4.13590E-25
 -1       795 1.87936E-05 1.04888E-07 0.00000E+00
 -1       796 1.88091E-05 1.30263E-07-4.13590E-25
 -1       797 1.88247E-05 1.62089E-07 0.00000E+00
 -1       798 1.88402E-05 2.01501E-07 0.00000E+00
 -1       799 1.88557E-05 2.49638E-07 0.00000E+00
 -1       800 1.88712E-05 3.07944E-07 0.00000E+00
 -1       801 1.73810E-05 3.52963E-08-2.06795E-25
 -1       802 1.36404E-05 3.12668E-08 0.00000E+00
 -1       803 8.72523E-06 2.25293E-08 8.27181E-25
 -1       804 3.94247E-06 1.26095E-08 0.00000E+00
 -1       805 5.98456E-07 8.59244E-09-3.30872E-24
 -1       806 1.86196E-05 2.51132E-08 0.00000E+00
 -1       807 1.85986E-05 1.70802E-08-2.06795E-25
 -1       808 1.85770E-05 1.04280E-08 8.27181E-25
 -1       809 1.85543E-05 6.17408E-09 0.00000E+00
 -1       810 1.85304E-05 5.33432E-09-4.13590E-25
 -1       811 1.85048E-05 8.90941E-09 0.00000E+00
 -1       812 1.84772E-05 1.78991E-08 8.27181E-25
 -1       813 1.84471E-05 3.33007E-08 4.13590E-25
 -1       814 1.84143E-05 5.61117E-08 0.00000E+00
 -1       815 1.83784E-05 8.73290E-08-2.06795E-25
 -1       816 1.83389E-05 1.27949E-07-4.13590E-25
 -1       817 1.82955E-05 1.78968E-07-2.06795E-25
 -1       818 1.82478E-05 2.41383E-07 8.27181E-25
 -1       819 1.81955E-05 3.16188E-07 2.06795E-25
 -1       820 1.81383E-05 4.04376E-07 4.13590E-25
 -1       821 1.88643E-05 4.64907E-07 0.00000E+00
 -1       822 1.88408E-05 5.74537E-07 2.06795E-25
 -1       823 1.88174E-05 7.06265E-07 8.27181E-25
 -1       824 1.87937E-05 8.59575E-07 4.13590E-25
 -1       825 1.87700E-05 1.03285E-06-8.27181E-25
 -1       826 1.87463E-05 1.22443E-06 0.00000E+00
 -1       827 1.87225E-05 1.43174E-06 8.27181E-25
 -1       828 1.86987E-05 1.65217E-06 0.00000E+00
 -1       829 1.86750E-05 1.88244E-06-8.27181E-25
 -1       830 1.86512E-05 2.11925E-06 0.00000E+00
 -1       831 1.86274E-05 2.35899E-06 8.27181E-25
 -1       832 1.86037E-05 2.59802E-06 4.13590E-25
 -1       833 1.85800E-05 2.83274E-06 8.27181E-25
 -1       834 1.85566E-05 3.05957E-06 2.06795E-25
 -1       835 1.85331E-05 3.27532E-06 0.00000E+00
 -1       836 1.87873E-05 3.99344E-07 0.00000E+00
 -1       837 1.86599E-05 4.21301E-07 2.06795E-25
 -1       838 1.85147E-05 4.43221E-07 0.00000E+00
 -1       839 1.83620E-05 4.65002E-07 0.00000E+00
 -1       840 1.82123E-05 4.86749E-07 0.00000E+00
 -1       856 1.85042E-05 3.68506E-06 0.00000E+00
 -1       857 1.84967E-05 3.91925E-06 0.00000E+00
 -1       858 1.84892E-05 4.17529E-06 2.06795E-25
 -1       859 1.84816E-05 4.44903E-06 0.00000E+00
 -1       860 1.84739E-05 4.73635E-06-2.06795E-25
 -1       861 1.84663E-05 5.03312E-06 0.00000E+00
 -1       862 1.84586E-05 5.33519E-06 0.00000E+00
 -1       863 1.84509E-05 5.63843E-06-1.03398E-25
 -1       864 1.84433E-05 5.93869E-06-2.06795E-25
 -1       865 1.84356E-05 6.23183E-06 0.00000E+00
 -1       866 1.84279E-05 6.51373E-06 0.00000E+00
 -1       867 1.84202E-05 6.78024E-06 0.00000E+00
 -1       868 1.84126E-05 7.02723E-06 0.00000E+00
 -1       869 1.84049E-05 7.25058E-06 1.03398E-25
 -1       870 1.83972E-05 7.44617E-06 0.00000E+00
 -1       871 1.83515E-05 3.47665E-06 0.00000E+00
 -1       872 1.82169E-05 3.47596E-06 0.00000E+00
 -1       873 1.80965E-05 3.47518E-06 0.00000E+00
 -1       874 1.79795E-05 3.47426E-06-2.58494E-26
 -1       875 1.78550E-05 3.47324E-06-1.55096E-25
 -1       876 1.84556E-05 3.68717E-06-8.27181E-25
 -1       877 1.83960E-05 3.91014E-06 0.00000E+00
 -1       878 1.83323E-05 4.14420E-06 0.00000E+00
 -1       879 1.82650E-05 4.38793E-06 0.00000E+00
 -1       880 1.81946E-05 4.63989E-06 0.00000E+00
 -1       881 1.81217E-05 4.89868E-06 0.00000E+00
 -1       882 1.80468E-05 5.16286E-06 0.00000E+00
 -1       883 1.79704E-05 5.43102E-06 0.00000E+00
 -1       884 1.78930E-05 5.70174E-06-8.27181E-25
 -1       885 1.78152E-05 5.97360E-06 0.00000E+00
 -1       886 1.77375E-05 6.24518E-06 0.00000E+00
 -1       887 1.76604E-05 6.51506E-06 4.13590E-25
 -1       888 1.75844E-05 6.78181E-06 0.00000E+00
 -1       889 1.75100E-05 7.04398E-06 0.00000E+00
 -1       890 1.74378E-05 7.30017E-06 4.13590E-25
 -1       891 1.82475E-05 7.59963E-06 0.00000E+00
 -1       892 1.81009E-05 7.58934E-06 1.03398E-25
 -1       893 1.79447E-05 7.57905E-06 2.06795E-25
 -1       894 1.77738E-05 7.56879E-06 5.16988E-26
 -1       895 1.75830E-05 7.55855E-06 2.06795E-25
 -1       956 1.80537E-05 6.38805E-07-4.13590E-25
 -1       957 1.80310E-05 7.85237E-07 4.13590E-25
 -1       958 1.80083E-05 9.44704E-07-8.27181E-25
 -1       959 1.79855E-05 1.11560E-06-2.06795E-25
 -1       960 1.79627E-05 1.29633E-06 8.27181E-25
 -1       961 1.79399E-05 1.48527E-06 4.13590E-25
 -1       962 1.79171E-05 1.68081E-06 0.00000E+00
 -1       963 1.78943E-05 1.88134E-06 0.00000E+00
 -1       964 1.78714E-05 2.08525E-06 0.00000E+00
 -1       965 1.78486E-05 2.29091E-06 0.00000E+00
 -1       966 1.78258E-05 2.49672E-06 8.27181E-25
 -1       967 1.78030E-05 2.70106E-06 0.00000E+00
 -1       968 1.77802E-05 2.90231E-06-8.27181E-25
 -1       969 1.77575E-05 3.09888E-06 4.13590E-25
 -1       970 1.77348E-05 3.28915E-06 0.00000E+00
 -1       971 1.76911E-05 3.65891E-06 4.13590E-25
 -1       972 1.76695E-05 3.86555E-06 0.00000E+00
 -1       973 1.76478E-05 4.08932E-06 0.00000E+00
 -1       974 1.76261E-05 4.32801E-06-4.13590E-25
 -1       975 1.76045E-05 4.57942E-06 0.00000E+00
 -1       976 1.75828E-05 4.84131E-06 4.13590E-25
 -1       977 1.75610E-05 5.11147E-06 8.27181E-25
 -1       978 1.75393E-05 5.38768E-06 0.00000E+00
 -1       979 1.75176E-05 5.66772E-06 0.00000E+00
 -1       980 1.74959E-05 5.94936E-06 0.00000E+00
 -1       981 1.74742E-05 6.23038E-06-8.27181E-25
 -1       982 1.74525E-05 6.50857E-06 0.00000E+00
 -1       983 1.74309E-05 6.78170E-06-8.27181E-25
 -1       984 1.74093E-05 7.04756E-06 4.13590E-25
 -1       985 1.73879E-05 7.30392E-06 4.13590E-25
 -3
    1PSTEP                         2           1           1          
  100CL  101 1.25000E-01         409                     0    1           1
 -4  STRESS      6    1
 -5  SXX         1    4    1    1
 -5  SYY         1    4    2    2
 -5  SZZ         1    4    3    3
 -5  SXY         1    4    1    2
 -5  SYZ         1    4    2    3
 -5  SZX         1    4    3    1
 -1         1-4.32705E+05-2.00306E+05-8.73536E+04-2.79141E+05 7.09406E-11-3.05590E-10
 -1         2 7.19364E+02 7.71199E+04 2.33465E+03 6.67758E+01-4.29310E-11 1.65399E-09
 -1         3-2.95284E+00-1.79953E+05 4.10373E+01-1.67597E+01-2.24216E-11-6.34236E-09
 -1         5-6.40828E-01 6.48241E+04 1.69612E+00-5.98240E-02 2.90909E-11 4.69299E-10
 -1         8-2.04103E+05-8.88500E+04-7.07839E+03-1.54304E+05 6.59384E-11-4.42014E-10
 -1         9-3.50086E+05-9.32643E+04-3.50136E+04-1.22873E+05 9.07312E-10 2.86673E-10
 -1        10-1.26540E+02-1.87478E+05-2.33536E+02-1.06168E+02-8.50605E-10-3.12615E-09
 -1        12 5.67558E-02 6.48276E+04 5.49537E+01-2.54927E-01 5.07798E-11-1.63720E-09
 -1        15 5.37571E+02 2.95431E+02 1.73763E+03 3.92215E-01-4.51124E-11-5.25596E-10
 -1        16-9.78464E+05-3.17701E+05-1.52205E+05-3.24020E+05 2.88734E-09-1.48430E-09
 -1        17-2.15133E+05-1.34479E+05-4.10383E+04-1.27780E+05-2.03509E-09-7.50151E-10
 -1        18 9.52502E+03 1.14623E+03-2.62016E+03-1.51482E+04 2.13845E-10 4.04157E-10
 -1        19 2.03321E+04 2.42341E+04-1.11028E+02 3.99061E+03-1.70576E-10-6.29916E-10
 -1        20-8.41112E+03-9.61444E+04-2.11933E+04 7.20530E+03 1.13035E-09 1.20523E-09
 -1        21-9.11598E+00-5.58143E+04-1.80264E+02-5.63507E+00-2.36027E-09-1.02926E-09
 -1        24-8.57324E+05-3.04306E+05-1.22563E+05-3.71949E+05-3.94903E-09-2.22159E-09
 -1        25 6.91087E+03-3.36468E+03 3.97391E+03-2.74780E+04 9.71568E-11 3.91083E-11
 -1        26-4.72959E+03 1.65567E+04-3.29791E+03-2.34750E+03 4.29554E-10 1.10887E-09
 -1        27-1.53873E+04-5.27608E+04-1.97908E+04 1.18926E+04 1.41623E-09-1.41063E-09
 -1        28 4.30295E+03-1.54241E+04 3.14841E+03 4.94745E+03 6.64031E-10-3.29809E-10
 -1        32-2.07705E+05-3.70653E+04 8.72102E+04-1.38108E+05-3.97631E-09 3.77307E-09
 -1        33-3.02028E+04 1.55159E+04 5.50232E+03-8.98683E+03 2.73881E-10 1.04865E-09
 -1        34-3.91885E+04-3.90184E+03 9.40034E+01 1.20555E+04 1.12520E-09-8.50643E-10
 -1        35-4.38121E+03-6.13991E+03-2.38259E+02 9.71894E+03 4.58435E-10 2.43138E-10
 -1        51 4.44242E+03-1.03465E+05 1.02624E+04-2.51488E+05-1.09139E-11 2.59752E-09
 -1        52 1.80994E+03-1.01949E+05 6.62351E+03-2.93307E+05 1.23691E-10-6.60293E-10
 -1        53 8.55126E+02-1.03804E+05 5.73383E+03-2.50649E+05 1.98270E-10 1.56797E-09
 -1        54 3.23053E+03-1.02351E+05 9.13543E+03-2.94210E+05-2.18279E-11 5.12955E-10
 -1        55 8.37035E+03-1.05529E+05 1.64308E+04-2.50563E+05 1.49157E-10 2.81034E-10
 -1        56-8.31458E+05-9.42295E+04-6.48744E+04-3.20884E+05 4.27463E-10 2.34286E-09
 -1        57-8.58362E+05-1.52007E+05-4.37168E+04-3.17434E+05-6.03904E-10 1.63254E-09
 -1        58-8.44218E+05-1.15029E+05-1.52795E+04-3.17149E+05 1.32104E-10 2.25555E-10
 -1        59-8.43621E+05-1.27615E+05-9.12124E+03-3.21923E+05-2.34195E-10-2.27953E-09
 -1        60-8.46087E+05-1.17931E+05-3.57349E+03-3.16649E+05-5.29440E-10-1.75191E-09
 -1        61-8.41523E+05-1.24164E+05-2.03285E+03-3.22444E+05-9.35984E-10 3.72867E-09
 -1        62-8.46300E+05-1.18394E+05-9.78985E+02-3.16658E+05 8.01833E-10 1.81454E-09
 -1        63-8.41439E+05-1.23553E+05-8.10037E+02-3.22277E+05-8.98524E-10 3.01240E-09
 -1        64-8.46168E+05-1.18539E+05-9.23144E+02-3.16816E+05-4.77485E-12-1.09441E-09
 -1        65-8.42023E+05-1.23567E+05-1.86142E+03-3.21810E+05-5.53541E-10-2.96654E-09
 -1        66-8.45711E+05-1.18391E+05-3.25696E+03-3.17117E+05 3.54703E-11 1.39198E-09
 -1        67-8.44436E+05-1.26172E+05-8.28523E+03-3.20725E+05 1.51651E-10 1.78500E-09
 -1        68-8.43757E+05-1.16014E+05-1.38867E+04-3.17868E+05 3.98586E-10-2.62662E-09
 -1        69-8.58314E+05-1.47831E+05-3.97084E+04-3.16074E+05 5.25688E-10-1.05501E-09
 -1        70-8.31926E+05-9.73602E+04-5.89427E+04-3.21535E+05-4.12911E-10-1.25510E-09
 -1        86-3.59567E+02 7.64742E+04 2.51655E+03-3.33820E+01 3.41856E-10-3.61476E-09
 -1        87 2.39196E+03 7.79300E+04 5.22935E+03 1.35683E+02 5.71390E-10 2.44370E-10
 -1        88-2.02627E+03 7.56649E+04 8.02871E+03-1.02277E+02 8.30369E-10 1.38600E-09
 -1        89 1.51089E+04 8.38332E+04 2.16203E+04 2.84621E+02 1.26920E-09-2.47867E-09
 -1        90-1.30343E+04 7.05719E+04 3.05677E+04-1.82300E+02 1.38789E-09-4.37694E-12
 -1       121-9.03563E+00-1.79992E+05 4.51614E+01 8.37800E+00 9.11271E-11 2.86946E-10
 -1       122 1.05793E+01-1.79944E+05 9.04829E+01-3.36271E+01-3.55101E-10 6.48470E-10
 -1       123-1.90708E+01-1.80002E+05 1.53214E+02 2.52399E+01 2.78860E-10 5.45697E-10
 -1       124 1.77697E+02-1.79840E+05 3.81724E+02-9.87056E+01-6.52335E-10 1.75942E-09
 -1       125-1.28186E+02-1.80096E+05 5.92310E+02 7.34854E+01 3.88241E-10-2.34331E-09
 -1       191-7.29278E-01 6.48297E+04 2.05705E+00 2.98897E-02 4.41085E-11 4.02679E-10
 -1       192-7.96158E-01 6.48242E+04 3.59012E+00 1.29840E-02 5.80926E-11-9.42805E-10
 -1       193-1.14262E+00 6.48296E+04 6.70584E+00-4.30515E-02 7.01976E-11-9.57243E-10
 -1       194-1.29625E+00 6.48247E+04 1.35774E+01 1.18111E-01 2.40628E-11-6.38011E-10
 -1       195-1.93732E+00 6.48292E+04 2.65881E+01-7.56439E-02 1.08054E-10-1.46520E-09
 -1       251 6.79008E+04-1.25279E+04 2.93282E+04 8.88430E+02 8.98694E-11 6.18456E-10
 -1       252 8.07936E+04 1.45093E+04 2.07303E+04-3.46023E+03 7.95808E-11 1.80307E-10
 -1       253 7.28416E+04-1.94073E+03 7.59550E+03 7.63147E+02-1.08230E-10 1.98588E-09
 -1       254 7.50188E+04 2.24589E+03 4.77596E+03-3.25927E+03 1.54891E-10 1.00931E-09
 -1       255 7.36675E+04-3.00302E+02 1.96292E+03 6.87523E+02-4.41815E-11 3.31966E-09
 -1       256 7.40467E+04 3.55063E+02 1.18783E+03-3.14660E+03 1.66825E-10 4.53922E-09
 -1       257 7.38098E+04-5.26975E+01 6.13818E+02 6.50514E+02-1.49853E-11-2.08185E-09
 -1       258 7.39039E+04 1.09355E+02 5.44929E+02-3.10899E+03 4.29083E-11-1.97318E-09
 -1       259 7.38092E+04-5.39253E+01 6.25703E+02 6.49934E+02-9.46834E-11-2.38370E-09
 -1       260 7.40518E+04 3.66096E+02 1.22180E+03-3.14457E+03 5.82041E-11-3.20803E-09
 -1       261 7.36628E+04-3.09935E+02 2.02468E+03 6.86087E+02 2.34280E-10-1.10481E-09
 -1       262 7.50533E+04 2.31859E+03 4.92889E+03-3.25483E+03 2.87805E-10-1.25590E-09
 -1       263 7.28114E+04-2.00358E+03 7.84145E+03 7.60155E+02-4.22574E-10 9.09949E-10
 -1       264 8.10111E+04 1.49789E+04 2.13998E+04-3.45309E+03-7.25436E-10 8.51969E-10
 -1       265 6.77129E+04-1.29330E+04 3.02790E+04 8.84299E+02-3.70733E-10 5.71163E-10
 -1       266-9.73175E+03-4.55151E+03 2.28292E+04-6.50500E+00 1.36424E-11-1.78433E-09
 -1       267 1.12815E+04 5.30351E+03 1.61376E+04 7.56073E+00 1.75078E-11-1.61067E-09
 -1       268-1.51282E+03-7.51177E+02 5.99814E+03-9.83364E-01 4.34284E-11-7.07804E-10
 -1       269 1.78622E+03 8.98957E+02 3.89882E+03 1.19875E+00 1.36424E-12-9.05561E-10
 -1       270-2.68091E+02-1.47686E+02 1.88201E+03-1.81720E-01-7.04858E-12 1.87032E-09
 -1       271-9.55284E+05-1.18197E+05-7.33357E+04-3.70841E+05-1.21872E-10-6.98492E-10
 -1       272-9.74112E+05-1.79404E+05-4.71770E+04-3.79132E+05-5.36431E-10-4.04862E-09
 -1       273-9.68781E+05-1.36782E+05-1.73208E+04-3.67938E+05-4.36216E-10-5.54792E-11
 -1       274-9.58519E+05-1.56447E+05-9.71867E+03-3.83446E+05 1.17780E-10-2.56023E-10
 -1       275-9.70612E+05-1.38765E+05-4.02991E+03-3.67459E+05-3.44926E-10-5.91172E-11
 -1       276-9.56390E+05-1.54052E+05-2.15102E+03-3.84189E+05 1.36197E-10-1.29489E-09
 -1       277-9.70927E+05-1.38907E+05-1.05141E+03-3.67320E+05-1.27784E-10 5.35579E-10
 -1       278-9.56075E+05-1.53875E+05-7.66296E+02-3.84357E+05 3.97904E-13 2.36588E-09
 -1       279-9.70944E+05-1.38910E+05-8.21060E+02-3.67312E+05 7.02585E-11-4.58954E-10
 -1       280-9.56279E+05-1.53966E+05-1.50478E+03-3.84231E+05-5.71276E-11 1.03546E-09
 -1       281-9.70709E+05-1.38839E+05-2.73968E+03-3.67430E+05 3.50155E-11 1.01045E-09
 -1       282-9.57778E+05-1.55501E+05-6.55834E+03-3.83634E+05-6.35509E-11-5.18412E-11
 -1       283-9.69420E+05-1.37566E+05-1.16747E+04-3.67816E+05 1.96451E-10 7.74889E-10
 -1       284-9.68407E+05-1.70815E+05-3.17761E+04-3.80542E+05-9.95612E-11-6.52562E-10
 -1       285-9.60233E+05-1.25150E+05-4.94062E+04-3.69877E+05 5.21140E-10-9.38599E-10
 -1       301 3.66289E+03-2.50181E+03 2.87656E+04-7.41570E+03-2.30102E-10 2.34095E-10
 -1       302 3.92480E+03 4.81211E+03 2.07553E+04-1.08901E+04 3.56977E-10 2.46166E-09
 -1       303 1.48334E+02 8.49293E+01 1.90763E+04-7.41810E+03-2.45109E-10-7.85576E-10
 -1       304 7.40318E+03 8.01629E+03 3.20577E+04-1.08637E+04 1.89630E-10-4.75438E-10
 -1       305 7.34393E+03-5.69842E+03 5.37678E+04-7.43469E+03-3.52884E-10 2.07865E-09
 -1       306-1.03568E+06-1.17088E+05-7.87191E+04-4.01065E+05 3.49246E-10-1.20781E-09
 -1       307-1.07000E+06-1.90092E+05-5.37068E+04-3.94937E+05 5.07953E-10 1.46611E-09
 -1       308-1.05220E+06-1.42880E+05-1.85144E+04-3.95235E+05-7.23048E-11 3.01952E-10
 -1       309-1.05043E+06-1.60530E+05-1.12570E+04-4.02330E+05 4.10083E-10-2.09684E-09
 -1       310-1.05519E+06-1.46183E+05-4.34312E+03-3.93848E+05-2.25050E-10 6.20275E-10
 -1       311-1.04679E+06-1.56887E+05-2.53187E+03-4.04185E+05 7.62725E-10 1.41009E-09
 -1       312-1.05583E+06-1.46439E+05-1.23390E+03-3.93412E+05-3.81526E-10-2.53976E-10
 -1       313-1.04620E+06-1.56579E+05-1.11328E+03-4.04575E+05-6.09020E-10 5.60669E-09
 -1       314-1.05578E+06-1.46474E+05-1.33542E+03-3.93465E+05-5.12230E-10-1.34770E-09
 -1       315-1.04703E+06-1.56820E+05-2.83431E+03-4.03969E+05-4.06999E-10-1.88521E-09
 -1       316-1.05501E+06-1.46224E+05-4.90270E+03-3.94009E+05 6.50417E-10 2.93494E-09
 -1       317-1.05118E+06-1.60910E+05-1.27351E+04-4.01834E+05 2.91976E-10 2.61639E-09
 -1       318-1.05163E+06-1.42468E+05-2.09518E+04-3.95564E+05-4.72028E-10 3.25781E-09
 -1       319-1.07327E+06-1.94445E+05-6.07918E+04-3.93557E+05-1.21054E-09 1.92995E-09
 -1       320-1.03298E+06-1.13208E+05-8.90965E+04-4.02088E+05 1.90812E-09 2.39015E-09
 -1       336 1.57082E+02-1.94855E+05-1.01589E+03 3.27201E+01-1.66455E-09 6.59384E-11
 -1       337-3.58778E+02-1.95178E+05-1.10909E+03-1.25959E+02-3.08293E-09-5.54792E-11
 -1       338 1.04309E+02-1.94888E+05-1.37131E+03 9.31841E+01-2.28476E-09 9.63155E-10
 -1       339-1.41275E+03-1.95817E+05-3.00691E+03-2.46422E+02-4.05612E-09-6.11408E-10
 -1       340 9.78754E+02-1.94216E+05-4.61866E+03 1.52820E+02-2.67755E-09 2.02817E-09
 -1       406 4.28177E+00 6.48267E+04 1.08527E+02 3.29714E-01 1.53683E-10-4.21096E-10
 -1       407 3.78814E+01 6.48466E+04 2.30605E+02-3.14670E+00 1.42393E-11 1.65448E-09
 -1       408 1.18775E+02 6.48101E+04 4.60620E+02 2.82982E+00 1.70758E-10 9.19044E-10
 -1       409 4.98076E+02 6.49938E+04 1.03699E+03-2.45140E+01-1.73372E-11 6.46992E-10
 -1       410 1.43097E+03 6.46793E+04 2.11704E+03 2.19163E+01 1.70076E-10-7.65340E-10
 -1       521-1.94410E+06-2.22051E+05-1.45246E+05-7.52614E+05 2.15186E-09-2.15368E-09
 -1       522-2.01018E+06-3.51580E+05-9.87468E+04-7.38240E+05 1.09139E-10-2.91038E-10
 -1       523-1.97440E+06-2.68971E+05-3.41593E+04-7.42113E+05 2.16460E-10 1.04046E-09
 -1       524-1.97430E+06-2.97610E+05-2.06490E+04-7.51532E+05-1.81899E-11-2.56932E-10
 -1       525-1.97974E+06-2.74915E+05-7.98505E+03-7.39703E+05-4.98858E-10-1.50521E-10
 -1       526-1.96790E+06-2.90834E+05-4.60404E+03-7.54577E+05 1.33124E-10-6.81609E-10
 -1       527-1.98073E+06-2.75538E+05-2.20740E+03-7.39127E+05 3.82983E-10-7.51413E-10
 -1       528-1.96728E+06-2.89816E+05-1.90149E+03-7.54719E+05-4.54676E-10 1.98129E-09
 -1       529-1.98038E+06-2.75946E+05-2.20911E+03-7.39565E+05 1.38755E-10-1.31308E-10
 -1       530-1.96934E+06-2.89406E+05-4.57701E+03-7.52883E+05-9.29930E-10 1.30888E-09
 -1       531-1.97870E+06-2.76028E+05-7.93647E+03-7.40943E+05 5.46216E-10-4.54747E-11
 -1       532-1.97685E+06-2.94832E+05-2.04642E+04-7.48435E+05-1.09321E-09-2.70575E-10
 -1       533-1.97281E+06-2.70612E+05-3.38721E+04-7.43948E+05-2.95586E-11-6.20275E-10
 -1       534-2.01326E+06-3.47475E+05-9.79116E+04-7.34309E+05 6.09361E-10 1.93086E-09
 -1       535-1.94245E+06-2.24392E+05-1.44055E+05-7.54699E+05-2.39743E-09 1.68075E-09
 -1       536 2.54534E+03-5.77289E+03 1.32868E+04 5.17459E+01-1.48456E-09 1.26147E-09
 -1       537 8.47356E+03 6.68194E+03 9.43408E+03-1.54112E+02-1.84587E-09 2.23247E-09
 -1       538 4.79604E+03-9.06573E+02 3.43416E+03 3.86553E+01-1.87418E-10 3.64025E-10
 -1       539 5.83874E+03 1.04963E+03 2.17157E+03-1.35107E+02 7.75650E-10-6.46054E-10
 -1       540 5.17983E+03-1.41416E+02 8.71386E+02 3.27176E+01-7.05205E-11 2.03727E-10
 -1       541 5.38141E+03 1.63089E+02 5.09808E+02-1.25575E+02-1.79412E-10 1.61199E-09
 -1       542 5.25189E+03-2.13775E+01 2.12952E+02 2.90296E+01 2.75975E-11 9.12976E-10
 -1       543 5.29187E+03 2.20628E+01 1.08397E+02-1.20004E+02-6.66762E-10-1.49572E-09
 -1       544 5.26959E+03-3.34369E-02 2.81994E+01 2.70479E+01-1.14981E-06-1.27672E-09
 -1       545 5.26429E+03-1.59377E+01-3.26315E+01-1.17655E+02-2.29810E-06-2.25945E-09
 -1       546 5.28062E+03 1.78318E+01-9.35744E+01 2.66138E+01-6.99296E-08-2.12317E-09
 -1       547 5.21065E+03-1.27887E+02-2.57943E+02-1.18284E+02 2.15695E-06 1.16952E-09
 -1       548 5.32321E+03 1.11863E+02-4.19926E+02 2.76793E+01 1.07757E-06-1.75149E-09
 -1       549 4.90110E+03-8.19488E+02-1.15304E+03-1.21832E+02 5.69016E-10-9.18661E-10
 -1       550 5.58910E+03 7.08118E+02-1.63620E+03 3.02253E+01 4.49010E-11 6.98037E-11
 -1       551 1.08106E+03-1.03539E+05 6.02142E+03-1.77592E+05-7.41420E-09-3.34694E-10
 -1       552 1.83856E+03-1.02600E+05 7.45929E+03-2.52573E+05-5.66433E-09 3.48518E-09
 -1       553 9.48105E+02-1.03984E+05 1.15745E+04-1.77051E+05-9.16589E-09 3.45244E-09
 -1       554 7.15435E+03-9.82314E+04 2.45147E+04-2.52810E+05-5.94082E-09 1.69234E-09
 -1       555 8.13532E+03-1.08779E+05 4.41631E+04-1.77327E+05-9.34779E-09-1.32150E-09
 -1       556 1.34972E+04-3.24161E+04 1.16996E+04-4.43707E+04-1.76988E-09-2.07910E-09
 -1       557 2.67706E+04-4.37389E+04 6.08892E+03-5.52980E+04 3.00133E-10 4.47244E-10
 -1       558 1.38889E+04-3.42250E+04 2.54145E+03-4.27914E+04-9.71340E-10-8.98581E-10
 -1       559 2.54639E+04-4.55006E+04 1.26306E+03-5.57505E+04 1.34969E-09-1.02773E-09
 -1       560 1.38298E+04-3.41716E+04 5.63462E+02-4.28005E+04 2.09184E-10 2.13436E-09
 -1       561 2.52476E+04-4.55179E+04 2.80405E+02-5.58798E+04-3.53793E-10 2.09013E-09
 -1       562 1.37553E+04-3.41098E+04 1.23704E+02-4.28582E+04 1.54614E-10-8.18943E-10
 -1       563 2.51455E+04-4.54765E+04 6.35954E+01-5.59443E+04-6.00267E-11 5.01927E-11
 -1       564 1.37073E+04-3.40754E+04 2.48974E+01-4.28942E+04 8.37645E-10 3.25599E-10
 -1       565 2.50932E+04-4.54557E+04 7.94464E+00-5.59756E+04 3.27259E-09 7.08042E-09
 -1       566 1.36921E+04-3.40631E+04-1.03122E+01-4.29067E+04 2.17869E-09 6.87623E-09
 -1       567 2.50792E+04-4.54485E+04-3.56018E+01-5.59678E+04 1.41523E-09 6.07088E-11
 -1       568 1.37185E+04-3.40819E+04-8.26107E+01-4.29036E+04-1.19144E-10 6.50743E-10
 -1       569 2.49329E+04-4.53741E+04-1.97807E+02-5.57760E+04-5.08408E-10-7.83984E-10
 -1       570 1.39295E+04-3.43129E+04-3.90513E+02-4.29822E+04 3.55612E-10-3.12639E-10
 -1       571 4.70653E+04 1.70329E+03 2.52089E+03-1.17528E+04 1.08230E-10 1.07434E-10
 -1       572 4.74418E+04 5.92855E+02 1.23488E+03-1.28833E+04 4.33147E-11-2.07251E-09
 -1       573 4.72196E+04 1.41558E+02 5.48572E+02-1.17223E+04 2.81602E-10-1.36447E-09
 -1       574 4.72651E+04 4.55479E+01 2.74727E+02-1.29178E+04 5.25233E-11 9.42350E-10
 -1       575 4.72385E+04 5.70539E+00 1.29456E+02-1.17182E+04-1.42222E-10-4.98630E-10
 -1       576 4.72419E+04 7.79426E-01 6.58242E+01-1.29224E+04-3.49218E-10-5.27962E-10
 -1       577 4.72413E+04-1.66907E+00 3.23988E+01-1.17177E+04-2.25754E-10 1.30012E-09
 -1       578 4.72388E+04-1.02342E+00 1.75986E+01-1.29229E+04-4.25644E-10 1.14642E-09
 -1       579 4.72423E+04-1.15282E+00 1.07676E+01-1.17177E+04-7.86713E-11 2.22394E-09
 -1       580 4.72395E+04-8.41976E-01 9.97260E+00-1.29222E+04 7.27596E-12 1.50908E-09
 -1       581 4.72435E+04-7.30120E-01 1.36519E+01-1.17184E+04-2.09184E-11 7.57382E-10
 -1       582 4.72433E+04 2.48995E+00 2.58581E+01-1.29150E+04 2.21462E-10-9.50422E-11
 -1       583 4.72437E+04 1.05856E+01 4.99757E+01-1.17248E+04 3.50155E-11 7.17364E-10
 -1       584 4.72617E+04 5.08160E+01 1.11752E+02-1.28626E+04-2.82398E-10-1.79440E-09
 -1       585 4.72321E+04 1.50653E+02 2.27523E+02-1.17709E+04 1.59162E-12-1.85537E-09
 -1       586-6.06579E+02 1.52521E+04-7.89521E+02-4.02302E+04 1.38471E-10-2.21917E-10
 -1       587-1.46296E+02 1.51490E+04-1.01678E+02-4.42705E+04 2.33740E-10-1.45656E-09
 -1       588 1.46160E+02 1.51680E+04 5.30162E+02-4.02058E+04 1.28011E-10 4.67480E-10
 -1       589 7.87890E+02 1.54547E+04 1.56224E+03-4.42336E+04 2.09639E-10 1.31604E-09
 -1       590 2.29319E+03 1.49587E+04 3.35392E+03-4.02671E+04 1.09480E-10-4.84079E-10
 -1       591-1.01557E+04-2.92568E+03-3.41487E+03-5.28531E+03 1.03370E-10-3.31420E-09
 -1       592-1.04749E+04-3.76506E+03-1.84963E+03-6.17660E+03 4.18595E-10-1.06155E-09
 -1       593-1.05007E+04-2.67417E+03-7.70003E+02-5.53166E+03-1.81302E-10-1.02233E-09
 -1       594-9.99866E+03-3.26883E+03-3.84056E+02-6.19999E+03 1.42155E-09 3.19078E-09
 -1       595-1.05269E+04-2.67317E+03-1.76495E+02-5.54288E+03 9.81657E-10 4.75045E-09
 -1       596-9.96630E+03-3.24614E+03-8.99748E+01-6.19648E+03 6.24681E-10 4.86253E-10
 -1       597-1.05302E+04-2.67540E+03-4.95221E+01-5.54330E+03 1.91442E-10-1.29005E-09
 -1       598-9.96326E+03-3.24527E+03-4.07798E+01-6.19558E+03-1.46485E-10 9.90006E-10
 -1       599-1.05301E+04-2.67533E+03-5.32752E+01-5.54327E+03-1.70530E-12-7.77305E-10
 -1       600-9.96691E+03-3.24637E+03-9.99550E+01-6.19663E+03-2.02547E-10 5.68306E-10
 -1       601-1.05261E+04-2.67278E+03-1.97640E+02-5.54271E+03-2.65459E-11-9.96977E-10
 -1       602-1.00034E+04-3.27173E+03-4.31097E+02-6.20036E+03-3.01554E-11-4.85045E-10
 -1       603-1.04965E+04-2.67418E+03-8.64585E+02-5.53028E+03-1.08344E-10 9.67020E-10
 -1       604-1.05402E+04-3.82696E+03-2.07707E+03-6.17172E+03 1.42450E-10-3.16732E-10
 -1       605-1.01069E+04-2.95824E+03-3.83467E+03-5.25567E+03-1.11203E-09-2.51657E-09
 -1       606 6.72985E+03-2.26190E+03-4.07689E+03 6.60367E+03-1.01181E-09-1.76601E-09
 -1       607 6.03194E+03-7.29552E+02-2.03026E+03 7.41304E+03-3.21052E-10-3.51406E-10
 -1       608 6.43246E+03-1.22333E+02-9.08690E+02 6.55095E+03 3.80624E-10 1.17376E-09
 -1       609 6.35529E+03-3.37828E+01-4.59148E+02 7.47149E+03-4.81805E-10-6.80927E-10
 -1       610 6.40057E+03 3.93299E+00-2.18969E+02 6.54508E+03-1.36515E-09 4.07908E-10
 -1       611 6.38766E+03 4.42090E+00-1.10565E+02 7.47792E+03-2.47292E-09 1.54046E-09
 -1       612 6.39479E+03 5.07210E+00-5.26866E+01 6.54449E+03-1.45792E-09-9.34392E-10
 -1       613 6.39122E+03 4.12399E+00-2.41071E+01 7.47872E+03-1.86253E-09 2.99622E-10
 -1       614 6.39265E+03 3.26078E+00-6.62557E+00 6.54428E+03 3.37650E-10 9.72307E-10
 -1       615 6.39162E+03 3.63000E+00 7.45761E+00 7.47888E+03 3.20506E-09 2.59377E-09
 -1       616 6.39100E+03 3.12097E+00 2.48597E+01 6.54433E+03-6.78710E-11-1.95735E-09
 -1       617 6.39539E+03 8.59370E+00 5.75304E+01 7.47878E+03-2.16005E-12-1.90477E-09
 -1       618 6.38646E+03 1.94479E+01 1.16352E+02 6.54437E+03-5.11250E-10 6.26130E-10
 -1       619 6.43693E+03 9.84057E+01 2.61475E+02 7.47865E+03-6.97128E-10-1.57974E-09
 -1       620 6.34801E+03 2.95469E+02 5.25661E+02 6.54435E+03 1.72577E-10 1.64960E-09
 -1       621 8.23183E+01 5.12094E+04 7.06433E+02 1.58854E+03-8.31832E-11 1.34861E-09
 -1       622 9.41098E+01 5.13842E+04 5.99453E+02 2.31598E+03-8.16982E-11-2.01611E-09
 -1       623 4.45511E+00 5.12601E+04 6.89289E+02 1.58096E+03-7.16369E-11-8.52367E-11
 -1       624 3.12559E+02 5.15851E+04 1.30887E+03 2.32352E+03-1.07207E-10-2.26373E-09
 -1       625 3.13477E+02 5.10082E+04 2.27537E+03 1.58103E+03-3.80851E-11-7.33728E-10
 -1       626 4.22971E+04 1.17397E+04 8.48991E+02 2.28901E+04-2.06228E-10-1.59798E-09
 -1       627 4.17163E+04 1.21664E+04 4.08807E+02 2.38204E+04-5.43878E-10 1.85508E-10
 -1       628 4.23327E+04 1.13367E+04 1.72929E+02 2.30197E+04 5.17275E-10 1.46792E-09
 -1       629 4.15975E+04 1.20687E+04 8.46056E+01 2.38790E+04 7.65567E-10 9.51744E-10
 -1       630 4.23378E+04 1.13160E+04 3.92577E+01 2.30249E+04 3.58114E-10 6.17476E-10
 -1       631 4.15855E+04 1.20655E+04 2.10109E+01 2.38817E+04-3.07296E-10 4.37549E-10
 -1       632 4.23380E+04 1.13163E+04 1.39133E+01 2.30243E+04-1.52295E-09-1.76630E-09
 -1       633 4.15842E+04 1.20660E+04 1.54335E+01 2.38814E+04 1.80586E-09 6.60172E-09
 -1       634 4.23369E+04 1.13158E+04 2.50118E+01 2.30241E+04 1.29853E-09 8.68994E-10
 -1       635 4.15862E+04 1.20660E+04 5.06910E+01 2.38820E+04 8.19227E-10-5.68321E-10
 -1       636 4.23346E+04 1.13154E+04 1.02448E+02 2.30236E+04-4.24365E-10-8.39520E-10
 -1       637 4.16070E+04 1.20823E+04 2.25196E+02 2.38810E+04-4.80354E-11-1.43007E-09
 -1       638 4.23253E+04 1.13659E+04 4.62936E+02 2.30002E+04 8.07745E-11-2.08502E-09
 -1       639 4.18482E+04 1.24214E+04 1.09522E+03 2.38084E+04-7.21656E-10-1.69155E-09
 -1       640 4.22913E+04 1.23750E+04 2.27308E+03 2.25718E+04-6.71378E-10-9.54515E-10
 -1       656 1.14656E+04-2.90289E+05-2.76908E+04-3.40153E+02 2.00089E-10 6.19600E-10
 -1       657-1.51489E+04-3.02806E+05-2.29003E+04 1.91197E+03-1.81899E-12 5.43103E-11
 -1       658 3.63447E+03-2.93864E+05-1.40553E+04-4.10460E+02-1.93069E-10 3.09555E-10
 -1       659-1.62401E+04-3.03316E+05-2.43332E+04 1.95775E+03-2.56932E-10-1.93551E-09
 -1       660 1.25534E+04-2.89779E+05-3.01608E+04-3.85935E+02-1.16415E-10-1.85453E-09
 -1       661 4.13478E+04 4.47535E+03 3.96088E+03 1.61203E+04 1.55296E-10 8.76298E-10
 -1       662 4.33860E+04 7.60652E+03 2.66895E+03 1.54589E+04 7.53744E-10-4.28059E-10
 -1       663 4.21210E+04 5.75061E+03 9.33626E+02 1.58997E+04-1.84400E-10-7.76708E-10
 -1       664 4.24933E+04 6.11166E+03 5.58105E+02 1.57249E+04-5.82077E-11 1.93758E-10
 -1       665 4.22347E+04 5.92834E+03 2.20201E+02 1.58701E+04-2.29804E-10-4.92506E-10
 -1       666 4.23619E+04 5.90529E+03 1.28336E+02 1.57610E+04-2.70497E-09-1.22937E-09
 -1       667 4.22517E+04 5.95167E+03 6.77066E+01 1.58656E+04-2.34692E-10-7.86907E-10
 -1       668 4.23457E+04 5.88424E+03 6.77349E+01 1.57663E+04 3.03906E-10-3.73141E-09
 -1       669 4.22508E+04 5.94887E+03 9.08139E+01 1.58650E+04-6.82515E-10-3.17471E-09
 -1       670 4.23726E+04 5.92821E+03 1.96761E+02 1.57615E+04 1.85373E-09 2.10198E-09
 -1       671 4.22249E+04 5.90864E+03 3.49142E+02 1.58700E+04-2.24293E-10 1.23877E-09
 -1       672 4.25800E+04 6.26405E+03 8.93011E+02 1.57080E+04-1.35298E-09-5.67184E-10
 -1       673 4.20446E+04 5.62155E+03 1.49650E+03 1.59153E+04-2.05034E-10-7.03494E-10
 -1       674 4.40082E+04 8.66503E+03 4.27995E+03 1.52854E+04-2.20552E-10-2.15533E-09
 -1       675 4.08060E+04 3.57485E+03 6.35242E+03 1.62674E+04 6.32213E-10 2.31921E-10
 -1       676 4.67929E+00-5.57992E+04-2.17262E+02 2.81751E+00 9.95612E-11 7.58780E-10
 -1       677-5.76678E+01-5.58518E+04-3.97585E+02-5.63621E+00-1.48086E-09-2.28358E-09
 -1       678 3.84995E+01-5.57618E+04-7.02812E+02 2.81656E+00-5.83611E-10-2.17585E-09
 -1       679-7.02828E+02-5.62759E+04-1.66939E+03-5.62920E+00-4.43379E-10-1.70774E-10
 -1       680 4.19382E+02-5.53751E+04-2.69055E+03 2.77801E+00 1.70530E-11 4.61298E-10
 -1       771-6.00979E+05-1.03793E+05-1.44390E+04-2.48480E+05-2.28283E-09-1.87356E-09
 -1       772-5.96995E+05-1.12390E+05-7.79433E+03-2.58046E+05-1.51704E-09 7.18956E-10
 -1       773-6.02744E+05-1.02439E+05-3.28172E+03-2.49285E+05-1.12232E-09 7.19410E-10
 -1       774-5.94816E+05-1.10566E+05-1.62085E+03-2.58562E+05 1.67802E-09-2.16232E-10
 -1       775-6.02965E+05-1.02337E+05-7.63728E+02-2.49325E+05-4.52928E-10 1.70076E-10
 -1       776-5.94703E+05-1.10510E+05-3.67296E+02-2.58701E+05-9.05857E-10 4.90672E-10
 -1       777-6.03069E+05-1.02278E+05-1.92153E+02-2.49334E+05-9.82254E-11 4.19732E-10
 -1       778-5.94713E+05-1.10523E+05-9.61505E+01-2.58811E+05-1.11777E-09-2.65527E-09
 -1       779-6.03143E+05-1.02225E+05-7.63521E+01-2.49340E+05-6.80302E-10-6.32099E-10
 -1       780-5.94737E+05-1.10541E+05-7.60735E+01-2.58902E+05-4.76120E-10-8.18545E-12
 -1       781-6.03194E+05-1.02179E+05-1.30124E+02-2.49343E+05-2.00089E-09-3.15026E-10
 -1       782-5.94776E+05-1.10568E+05-2.59419E+02-2.58971E+05-2.62480E-09-7.22736E-10
 -1       783-6.03213E+05-1.02152E+05-5.16482E+02-2.49339E+05-6.15728E-10-1.07099E-09
 -1       784-5.95098E+05-1.10909E+05-1.23289E+03-2.58999E+05-1.52772E-09-3.54703E-11
 -1       785-6.03005E+05-1.02301E+05-2.27723E+03-2.49172E+05-2.45859E-09 3.14230E-10
 -1       786 4.33924E+04-2.32575E+03 5.38002E+03 1.95688E+00 7.38128E-10-7.79892E-11
 -1       787 4.57238E+04 2.69246E+03 3.80643E+03-7.69301E+00 9.98676E-10-8.83574E-10
 -1       788 4.42919E+04-3.64583E+02 1.39246E+03 1.99528E+00 1.47210E-08 1.05410E-09
 -1       789 4.46760E+04 4.21842E+02 8.74895E+02-8.00276E+00 2.83007E-08-9.07093E-10
 -1       790 4.44403E+04-5.69529E+01 3.55965E+02 2.26675E+00 5.15587E-08-1.52326E-09
 -1       791 4.45027E+04 6.61691E+01 2.08980E+02-8.79357E+00 7.44820E-08 2.44844E-09
 -1       792 4.44652E+04-9.17410E+00 9.53424E+01 2.78598E+00 1.16889E-07-2.92747E-09
 -1       793 4.44747E+04 1.28774E+01 6.24120E+01-1.01193E+01 1.59186E-07-5.47856E-10
 -1       794 4.44684E+04-3.67899E+00 4.61383E+01 3.59220E+00 2.40287E-07-3.34328E-09
 -1       795 4.44774E+04 1.90258E+01 6.65957E+01-1.20753E+01 3.21587E-07 3.54857E-09
 -1       796 4.44625E+04-1.52750E+01 9.96815E+01 4.74162E+00 4.63590E-07-1.99292E-09
 -1       797 4.45226E+04 1.12214E+02 2.34940E+02-1.47964E+01 6.06358E-07 3.12173E-09
 -1       798 4.44233E+04-9.67518E+01 3.70855E+02 6.31313E+00 7.73832E-07-4.27860E-09
 -1       799 4.48006E+04 7.14677E+02 1.01092E+03-1.85006E+01 9.39194E-07 5.19265E-10
 -1       800 4.41845E+04-6.17261E+02 1.42812E+03 8.44590E+00 4.70823E-07 1.53307E-10
 -1       801-1.90064E+03 6.29200E+03 4.70594E+03 4.55562E+03 2.53385E-09-2.17705E-09
 -1       802 6.10250E+03 1.57569E+04 1.16194E+04-1.87360E+04 6.80450E-09-1.64190E-09
 -1       803-4.13403E+03 8.06252E+03 1.61919E+04 4.48289E+03 5.37057E-09 4.83562E-09
 -1       804 3.10538E+04 2.79563E+04 4.42005E+04-1.88158E+04 6.32781E-09 5.11260E-09
 -1       805-2.68436E+04-5.88599E+03 6.03814E+04 4.63493E+03 2.23008E-09 6.18712E-09
 -1       806-5.13640E+04-1.09781E+04-4.35285E+03-2.13621E+04 1.75930E-10-1.88834E-09
 -1       807-5.16227E+04-1.03522E+04-2.13843E+03-2.25134E+04 7.61403E-10 7.09861E-10
 -1       808-5.14876E+04-9.40556E+03-9.07176E+02-2.21008E+04 3.60274E-10-1.03789E-10
 -1       809-5.11667E+04-9.75824E+03-4.43511E+02-2.25751E+04 2.37938E-09 8.96705E-09
 -1       810-5.15072E+04-9.34989E+03-2.03067E+02-2.21335E+04 2.86491E-11 1.04075E-09
 -1       811-5.11321E+04-9.73466E+03-1.00718E+02-2.25703E+04 1.16415E-10-3.42595E-10
 -1       812-5.15110E+04-9.35370E+03-5.02198E+01-2.21337E+04 4.74870E-10-6.69957E-10
 -1       813-5.11281E+04-9.73513E+03-3.17027E+01-2.25682E+04 9.43601E-11-8.97131E-10
 -1       814-5.15112E+04-9.35481E+03-2.96672E+01-2.21333E+04-3.38787E-11-2.19529E-10
 -1       815-5.11293E+04-9.73547E+03-4.65577E+01-2.25682E+04-1.44382E-10-8.17408E-11
 -1       816-5.15090E+04-9.35392E+03-8.71619E+01-2.21331E+04-9.53833E-11 4.61114E-10
 -1       817-5.11450E+04-9.74362E+03-1.87127E+02-2.25675E+04 6.96275E-10-4.39741E-10
 -1       818-5.14989E+04-9.37955E+03-3.81249E+02-2.21211E+04 3.45608E-10-1.39994E-09
 -1       819-5.13565E+04-9.97242E+03-8.97664E+02-2.25176E+04-2.54659E-10-2.69733E-09
 -1       820-5.14273E+04-1.00580E+04-1.82670E+03-2.18323E+04 1.22100E-10 5.80485E-10
 -1       821-6.62562E+04 3.67945E+03-8.51094E+03-6.16360E+00-2.26655E-10-1.36242E-09
 -1       822-6.99439E+04-4.25930E+03-6.02217E+03-6.63703E-01-8.86528E-10-1.62993E-09
 -1       823-6.76789E+04 5.77013E+02-2.20427E+03-1.31100E+01 7.28404E-10-1.14630E-09
 -1       824-6.82864E+04-6.67428E+02-1.38732E+03 1.25755E+01-2.52774E-10 2.65345E-10
 -1       825-6.79136E+04 9.04474E+01-5.69765E+02-1.94026E+01-8.99601E-10-1.32289E-09
 -1       826-6.80138E+04-1.06490E+02-3.44872E+02 2.38340E+01 8.67233E-09 4.87397E-11
 -1       827-6.79519E+04 1.61436E+01-1.77762E+02-2.43697E+01 3.02375E-06-4.19401E-09
 -1       828-6.79758E+04-3.25869E+01-1.58002E+02 3.19138E+01 6.03492E-06-8.05566E-10
 -1       829-6.79517E+04 1.64538E+01-1.80480E+02-2.74844E+01 4.02401E-06-2.33253E-09
 -1       830-6.80154E+04-1.09113E+02-3.52825E+02 3.59572E+01 1.99841E-06 1.89832E-10
 -1       831-6.79122E+04 9.26966E+01-5.83990E+02-2.84147E+01-1.12908E-06-1.18942E-09
 -1       832-6.82955E+04-6.84766E+02-1.42298E+03 3.55784E+01-4.25649E-06-4.07624E-10
 -1       833-6.76716E+04 5.91707E+02-2.26103E+03-2.71057E+01-7.26988E-06 3.38855E-09
 -1       834-6.99957E+04-4.36935E+03-6.17756E+03 3.10392E+01-1.02522E-05-1.35515E-09
 -1       835-6.62121E+04 3.77426E+03-8.73038E+03-2.38737E+01-5.14477E-06 3.75439E-09
 -1       836-2.21453E+02 6.28650E+04 3.78379E+03-5.48696E+03 4.66571E-10 1.19792E-09
 -1       837 8.27327E+02 6.40397E+04 3.22902E+03-1.10379E+04 6.92808E-10 1.10822E-09
 -1       838-8.43771E+01 6.31941E+04 3.32920E+03-5.46701E+03 5.84009E-10 1.54409E-09
 -1       839 2.13038E+03 6.50156E+04 6.33680E+03-1.10458E+04 7.55790E-10 1.12505E-09
 -1       840-6.45704E+02 6.18867E+04 1.01206E+04-5.47894E+03 5.10681E-10 6.44206E-10
 -1       856-2.09415E+04 1.78306E+03-4.69785E+03-9.39997E+01-9.35685E-10 7.19410E-10
 -1       857-2.28828E+04-2.09205E+03-3.23467E+03 1.08737E+03-6.04771E-10-8.80846E-10
 -1       858-2.17085E+04 2.50023E+02-1.21919E+03-9.58490E+01-6.67342E-10-6.08452E-10
 -1       859-2.20012E+04-2.91826E+02-7.36519E+02 1.09011E+03-1.56039E-10 1.00346E-09
 -1       860-2.18234E+04 3.49103E+01-3.09664E+02-9.67492E+01-2.42999E-10 1.08676E-09
 -1       861-2.18685E+04-3.99219E+01-1.72587E+02 1.09129E+03-1.15695E-09-7.11029E-10
 -1       862-2.18413E+04 4.75639E+00-7.61622E+01-9.70242E+01 1.75812E-09 9.10219E-10
 -1       863-2.18473E+04-4.41925E+00-3.77788E+01 1.09142E+03 3.51208E-09 1.10570E-09
 -1       864-2.18445E+04 1.58370E-01-1.20737E+01-9.68794E+01 1.26242E-09-8.68685E-10
 -1       865-2.18417E+04 3.71309E+00 6.39771E+00 1.09058E+03 1.89054E-09-1.09299E-09
 -1       866-2.18468E+04-3.31084E+00 2.46914E+01-9.61884E+01-9.47011E-10-7.25478E-10
 -1       867-2.18281E+04 2.83038E+01 6.78432E+01 1.08874E+03 2.96765E-10-1.75525E-10
 -1       868-2.18580E+04-2.39447E+01 1.15021E+02-9.50382E+01 3.09470E-10 2.93511E-10
 -1       869-2.17433E+04 1.99993E+02 3.08072E+02 1.08514E+03-1.61346E-09-2.81766E-10
 -1       870-2.19313E+04-1.70258E+02 4.47670E+02-9.25896E+01 1.53477E-12 2.35019E-10
 -1       871-9.53280E+02-2.00357E+03-3.14721E+03 2.06507E+04 5.49107E-10-1.75055E-09
 -1       872-4.07944E+02-2.70527E+03-1.28177E+03 2.67712E+04 1.11061E-09 8.77264E-10
 -1       873-2.40892E-01-2.36802E+03 1.88847E+02 2.06044E+04 9.16032E-10-1.01792E-09
 -1       874 4.98481E+02-1.91135E+03 1.79920E+03 2.67811E+04 1.16484E-09 3.29862E-10
 -1       875 1.16697E+03-2.80071E+03 3.98818E+03 2.06414E+04 1.29376E-10-1.55262E-09
 -1       876 5.17738E+04 8.90275E+03 2.77640E+03 2.09808E+04-9.06425E-10-3.66299E-10
 -1       877 5.19327E+04 9.51155E+03 1.48258E+03 2.18025E+04-1.87458E-09-1.78548E-09
 -1       878 5.20343E+04 8.59472E+03 6.21195E+02 2.12085E+04 4.04270E-10-3.59819E-11
 -1       879 5.15552E+04 9.13566E+03 3.09389E+02 2.18233E+04-3.38304E-10-3.31553E-10
 -1       880 5.20539E+04 8.59074E+03 1.44074E+02 2.12178E+04 5.44560E-10-5.35053E-10
 -1       881 5.15303E+04 9.11987E+03 7.66878E+01 2.18202E+04 1.20690E-09 4.84000E-10
 -1       882 5.20562E+04 8.59265E+03 4.87001E+01 2.12181E+04 1.93168E-09-5.27763E-10
 -1       883 5.15286E+04 9.11922E+03 5.17296E+01 2.18196E+04 1.08467E-09 3.10575E-10
 -1       884 5.20554E+04 8.59190E+03 8.17563E+01 2.12181E+04-4.82501E-10-7.50859E-10
 -1       885 5.15351E+04 9.12041E+03 1.64045E+02 2.18218E+04 7.87612E-10-6.86867E-10
 -1       886 5.20490E+04 8.58713E+03 3.30501E+02 2.12175E+04 9.66597E-10-1.16191E-09
 -1       887 5.15932E+04 9.15844E+03 7.21926E+02 2.18299E+04-1.59368E-09-1.73054E-09
 -1       888 5.20032E+04 8.59540E+03 1.45476E+03 2.11944E+04 3.88624E-10-4.74074E-11
 -1       889 5.24602E+04 1.00585E+04 3.47556E+03 2.18019E+04 1.11249E-09 1.85770E-09
 -1       890 5.14094E+04 9.30016E+03 6.50919E+03 2.06403E+04-2.55000E-10-3.92743E-09
 -1       891-2.87537E+01-2.94520E+04-3.45818E+02 5.59521E+03-1.68882E-10 2.11799E-10
 -1       892-5.04234E+01-2.95377E+04-3.77131E+02 8.47184E+03-7.94785E-10-8.97103E-10
 -1       893-4.25660E+00-2.94647E+04-5.39439E+02 5.59611E+03 2.50054E-10-6.27551E-10
 -1       894-2.87302E+02-2.97501E+04-1.12112E+03 8.44223E+03 6.98833E-10 8.66862E-11
 -1       895-2.22722E+02-2.92356E+04-1.97493E+03 5.62472E+03-4.77911E-11 1.33832E-09
 -1       956-6.49965E+04-9.37720E+02-2.35906E+03 4.29851E+03-1.66756E-09-6.84906E-10
 -1       957-6.54618E+04-3.17860E+02-1.21120E+03 5.17152E+03 5.11250E-10-1.86321E-09
 -1       958-6.52038E+04-2.67353E+01-5.45535E+02 4.27100E+03 3.39151E-09-3.05005E-09
 -1       959-6.52397E+04-7.32979E+00-2.78732E+02 5.20132E+03 6.70013E-10 1.03415E-09
 -1       960-6.52207E+04 5.15756E+00-1.35787E+02 4.26860E+03-1.70303E-09-8.82665E-10
 -1       961-6.52219E+04 3.39143E+00-7.20458E+01 5.20394E+03-2.37310E-09 7.28278E-10
 -1       962-6.52233E+04 3.41476E+00-4.11129E+01 4.26837E+03-1.45303E-09 8.89202E-10
 -1       963-6.52201E+04 3.07476E+00-3.28489E+01 5.20425E+03-1.81001E-09 2.57171E-09
 -1       964-6.52235E+04 3.48753E+00-3.96169E+01 4.26829E+03-3.83494E-10-1.16097E-09
 -1       965-6.52222E+04 3.59950E+00-6.82464E+01 5.20419E+03 1.07833E-09-2.17565E-09
 -1       966-6.52215E+04 5.35196E+00-1.27932E+02 4.26842E+03-5.94696E-10-1.10850E-09
 -1       967-6.52395E+04-6.23434E+00-2.62299E+02 5.20268E+03-8.64247E-10 9.79867E-10
 -1       968-6.52060E+04-2.44095E+01-5.13173E+02 4.26982E+03-6.87805E-11 1.13496E-09
 -1       969-6.54488E+04-2.98118E+02-1.13936E+03 5.18526E+03 8.86757E-10 7.58604E-10
 -1       970-6.50113E+04-8.81195E+02-2.21905E+03 4.28602E+03 3.25485E-10 1.61435E-10
 -1       971-6.17938E+04-3.27674E+02-1.81960E+03 3.06827E+03-9.83505E-10-6.80714E-10
 -1       972-6.22359E+04-2.37036E+02-9.91212E+02 4.27417E+03-1.07457E-09-1.65073E-10
 -1       973-6.19942E+04-3.73203E+00-4.43561E+02 3.04385E+03-8.13543E-10-6.73197E-10
 -1       974-6.20235E+04-5.88757E+00-2.29906E+02 4.30020E+03 2.94222E-10-1.47401E-09
 -1       975-6.20083E+04 3.56918E+00-1.14506E+02 3.04215E+03 2.74781E-10-2.70546E-10
 -1       976-6.20091E+04 2.55030E+00-6.56319E+01 4.30204E+03-1.16665E-09-1.67546E-10
 -1       977-6.20102E+04 2.71524E+00-4.66673E+01 3.04201E+03 3.81590E-10 1.02034E-11
 -1       978-6.20086E+04 2.97420E+00-5.34051E+01 4.30223E+03 2.03784E-09-2.10409E-09
 -1       979-6.20096E+04 3.77967E+00-8.46741E+01 3.04196E+03 1.55968E-09 1.58357E-09
 -1       980-6.20146E+04 3.32708E+00-1.62788E+02 4.30221E+03 8.16996E-10 1.90354E-09
 -1       981-6.20045E+04 7.88701E+00-3.14839E+02 3.04203E+03 3.09910E-10 1.69365E-10
 -1       982-6.20583E+04-1.96063E+01-6.50513E+02 4.30120E+03-4.81350E-10 1.41021E-10
 -1       983-6.19655E+04-1.17568E+01-1.26369E+03 3.04299E+03 6.33236E-10-7.23475E-10
 -1       984-6.26673E+04-6.78677E+02-2.82973E+03 4.28459E+03-6.80416E-11 5.75994E-10
 -1       985-6.13945E+04-9.35876E+02-5.19623E+03 3.05898E+03 1.62800E-10-2.06001E-10
 -3
    1PSTEP                         3           2           1          
  100CL  102 2.50000E-01         409                     0    2           1
 -4  DISP        4    1
 -5  D1          1    2    1    0
 -5  D2          1    2    2    0
 -5  D3          1    2    3    0
 -5  ALL         1    2    0    0    1ALL
 -1         1 6.52358E-05 0.00000E+00 0.00000E+00
 -1         2 6.02685E-05-6.27910E-30-1.65436E-24
 -1         3 5.54708E-05-4.50477E-27 0.00000E+00
 -1         5 4.00378E-05-1.30292E-26 1.65436E-24
 -1         8 5.20699E-05-4.68844E-07 0.00000E+00
 -1         9 5.28942E-05 3.09989E-07 0.00000E+00
 -1        10 5.14307E-05-7.59687E-07 1.65436E-24
 -1        12 3.97511E-05 2.72225E-07 8.27181E-25
 -1        15 3.64079E-05-5.01463E-07 2.06795E-25
 -1        16 3.76674E-05 2.49398E-07 0.00000E+00
 -1        17 3.83745E-05-1.59167E-06 0.00000E+00
 -1        18 3.83645E-05 7.27671E-08 0.00000E+00
 -1        19 3.88912E-05 5.42977E-07 0.00000E+00
 -1        20 3.89632E-05 8.10363E-06 0.00000E+00
 -1        21 3.86924E-05 1.53285E-05 8.27181E-25
 -1        24 9.81933E-06-2.11655E-06 0.00000E+00
 -1        25 3.74481E-05 1.35036E-07 0.00000E+00
 -1        26 3.79435E-05 7.56586E-07 0.00000E+00
 -1        27 3.71911E-05 6.89287E-06 0.00000E+00
 -1        28 3.69477E-05 1.50958E-05 0.00000E+00
 -1        32 0.00000E+00 0.00000E+00 0.00000E+00
 -1        33 3.63458E-05 1.01478E-06 0.00000E+00
 -1        34 3.56179E-05 6.88219E-06 0.00000E+00
 -1        35 3.49264E-05 1.49730E-05 0.00000E+00
 -1        51 6.43791E-05-7.81426E-08 0.00000E+00
 -1        52 6.27916E-05-1.53930E-07 0.00000E+00
 -1        53 6.06172E-05-2.29961E-07 0.00000E+00
 -1        54 5.80055E-05-3.06950E-07 0.00000E+00
 -1        55 5.51063E-05-3.85421E-07-2.48154E-24
 -1        56 6.46334E-05-3.64434E-07 1.32349E-23
 -1        57 6.40906E-05-9.55870E-07-6.61744E-24
 -1        58 6.36096E-05-1.70798E-06-1.32349E-23
 -1        59 6.31624E-05-2.56245E-06 1.32349E-23
 -1        60 6.27292E-05-3.45442E-06 2.64698E-23
 -1        61 6.22854E-05-4.32006E-06-1.32349E-23
 -1        62 6.18079E-05-5.09603E-06 0.00000E+00
 -1        63 6.12736E-05-5.72066E-06 0.00000E+00
 -1        64 6.06612E-05-6.13707E-06-2.64698E-23
 -1        65 5.99508E-05-6.29165E-06 0.00000E+00
 -1        66 5.91253E-05-6.13923E-06 0.00000E+00
 -1        67 5.81699E-05-5.63932E-06 0.00000E+00
 -1        68 5.70731E-05-4.76293E-06 0.00000E+00
 -1        69 5.58293E-05-3.48558E-06 0.00000E+00
 -1        70 5.44298E-05-1.79857E-06 1.32349E-23
 -1        86 6.00721E-05 5.52434E-08-1.65436E-24
 -1        87 5.94825E-05 1.10046E-07-8.27181E-25
 -1        88 5.84877E-05 1.64496E-07 0.00000E+00
 -1        89 5.70749E-05 2.16625E-07-5.16988E-26
 -1        90 5.52191E-05 2.68677E-07 0.00000E+00
 -1       121 5.53583E-05-1.26280E-07 0.00000E+00
 -1       122 5.50209E-05-2.52612E-07 0.00000E+00
 -1       123 5.44588E-05-3.79045E-07-3.30872E-24
 -1       124 5.36726E-05-5.05653E-07 0.00000E+00
 -1       125 5.26629E-05-6.32448E-07 3.30872E-24
 -1       191 4.00298E-05 4.53739E-08 1.65436E-24
 -1       192 4.00059E-05 9.07471E-08 8.27181E-25
 -1       193 3.99661E-05 1.36120E-07 1.65436E-24
 -1       194 3.99104E-05 1.81491E-07 0.00000E+00
 -1       195 3.98387E-05 2.26860E-07 1.65436E-24
 -1       251 5.21107E-05 1.69855E-06-1.65436E-24
 -1       252 5.21623E-05 2.99387E-06 0.00000E+00
 -1       253 5.22140E-05 3.56002E-06 8.27181E-25
 -1       254 5.22677E-05 3.53818E-06 0.00000E+00
 -1       255 5.23213E-05 3.05293E-06 0.00000E+00
 -1       256 5.23751E-05 2.22776E-06 0.00000E+00
 -1       257 5.24287E-05 1.17651E-06 1.65436E-24
 -1       258 5.24822E-05 1.25063E-08 0.00000E+00
 -1       259 5.25358E-05-1.15417E-06 0.00000E+00
 -1       260 5.25894E-05-2.21340E-06 0.00000E+00
 -1       261 5.26431E-05-3.05203E-06 1.65436E-24
 -1       262 5.26967E-05-3.55642E-06 0.00000E+00
 -1       263 5.27504E-05-3.60338E-06 0.00000E+00
 -1       264 5.28021E-05-3.06869E-06 1.03398E-25
 -1       265 5.28537E-05-1.81169E-06 0.00000E+00
 -1       266 4.94596E-05-4.80771E-07 0.00000E+00
 -1       267 4.68493E-05-4.85416E-07 8.27181E-25
 -1       268 4.42389E-05-4.90523E-07 8.27181E-25
 -1       269 4.16286E-05-4.94263E-07-2.06795E-25
 -1       270 3.90183E-05-4.97972E-07 2.06795E-25
 -1       271 5.04858E-05 1.47059E-06 0.00000E+00
 -1       272 4.91435E-05 2.69248E-06-1.32349E-23
 -1       273 4.80366E-05 3.29161E-06 0.00000E+00
 -1       274 4.71255E-05 3.35769E-06 0.00000E+00
 -1       275 4.63772E-05 2.98899E-06 2.64698E-23
 -1       276 4.57531E-05 2.28663E-06-1.32349E-23
 -1       277 4.52146E-05 1.35552E-06 0.00000E+00
 -1       278 4.47215E-05 3.02629E-07 0.00000E+00
 -1       279 4.42334E-05-7.63764E-07 0.00000E+00
 -1       280 4.37099E-05-1.73524E-06-1.32349E-23
 -1       281 4.31108E-05-2.50443E-06 0.00000E+00
 -1       282 4.23968E-05-2.96589E-06 0.00000E+00
 -1       283 4.15294E-05-3.01749E-06 0.00000E+00
 -1       284 4.04739E-05-2.56021E-06-1.32349E-23
 -1       285 3.91917E-05-1.50232E-06 1.32349E-23
 -1       301 5.03159E-05 2.96774E-07-3.30872E-24
 -1       302 4.77380E-05 2.91367E-07 0.00000E+00
 -1       303 4.51723E-05 2.86186E-07 1.65436E-24
 -1       304 4.26307E-05 2.80136E-07 0.00000E+00
 -1       305 4.01252E-05 2.72860E-07-6.61744E-24
 -1       306 5.12646E-05 2.18898E-06 1.32349E-23
 -1       307 4.98919E-05 3.30530E-06-1.32349E-23
 -1       308 4.87907E-05 3.70469E-06 2.64698E-23
 -1       309 4.79343E-05 3.43793E-06 0.00000E+00
 -1       310 4.72871E-05 2.61272E-06 0.00000E+00
 -1       311 4.68030E-05 1.34879E-06-1.32349E-23
 -1       312 4.64248E-05-1.98538E-07 0.00000E+00
 -1       313 4.60918E-05-1.86722E-06 0.00000E+00
 -1       314 4.57398E-05-3.48519E-06 0.00000E+00
 -1       315 4.53053E-05-4.88166E-06-1.32349E-23
 -1       316 4.47309E-05-5.90399E-06-2.64698E-23
 -1       317 4.39637E-05-6.40854E-06 1.32349E-23
 -1       318 4.29642E-05-6.29347E-06 2.64698E-23
 -1       319 4.17046E-05-5.47018E-06 0.00000E+00
 -1       320 4.01656E-05-3.91093E-06 1.32349E-23
 -1       336 4.99475E-05-8.97230E-07 3.30872E-24
 -1       337 4.81844E-05-1.03540E-06 0.00000E+00
 -1       338 4.61431E-05-1.17404E-06 3.30872E-24
 -1       339 4.38260E-05-1.31307E-06 1.65436E-24
 -1       340 4.12355E-05-1.45276E-06 0.00000E+00
 -1       406 3.96475E-05 3.17584E-07 1.65436E-24
 -1       407 3.95281E-05 3.62925E-07-8.27181E-25
 -1       408 3.93927E-05 4.08238E-07-1.65436E-24
 -1       409 3.92413E-05 4.53464E-07 8.27181E-25
 -1       410 3.90742E-05 4.98516E-07 0.00000E+00
 -1       521 3.54014E-05 1.64680E-06 0.00000E+00
 -1       522 3.34226E-05 2.13083E-06 0.00000E+00
 -1       523 3.17663E-05 1.76550E-06 0.00000E+00
 -1       524 3.03896E-05 6.27781E-07 0.00000E+00
 -1       525 2.92369E-05-1.10911E-06 5.29396E-23
 -1       526 2.82330E-05-3.24953E-06 0.00000E+00
 -1       527 2.72888E-05-5.55010E-06 0.00000E+00
 -1       528 2.63109E-05-7.76117E-06 0.00000E+00
 -1       529 2.52101E-05-9.64316E-06 0.00000E+00
 -1       530 2.39023E-05-1.09709E-05 0.00000E+00
 -1       531 2.23268E-05-1.15835E-05 0.00000E+00
 -1       532 2.04357E-05-1.13506E-05 0.00000E+00
 -1       533 1.82147E-05-1.02406E-05 5.29396E-23
 -1       534 1.56736E-05-8.25634E-06 2.64698E-23
 -1       535 1.28402E-05-5.50839E-06 0.00000E+00
 -1       536 3.83665E-05 1.07082E-06-1.65436E-24
 -1       537 3.83641E-05 3.06918E-06 0.00000E+00
 -1       538 3.83624E-05 4.47375E-06 4.13590E-25
 -1       539 3.83620E-05 5.35487E-06 0.00000E+00
 -1       540 3.83620E-05 5.78200E-06 0.00000E+00
 -1       541 3.83623E-05 5.82458E-06-2.58494E-26
 -1       542 3.83625E-05 5.55109E-06 1.29247E-26
 -1       543 3.83626E-05 5.03000E-06 4.03897E-28
 -1       544 3.83627E-05 4.32916E-06 0.00000E+00
 -1       545 3.83627E-05 3.51636E-06-6.46235E-27
 -1       546 3.83626E-05 2.65913E-06 0.00000E+00
 -1       547 3.83626E-05 1.82499E-06 2.58494E-26
 -1       548 3.83627E-05 1.08150E-06-5.16988E-26
 -1       549 3.83630E-05 4.96268E-07-5.16988E-26
 -1       550 3.83634E-05 1.37341E-07-2.06795E-25
 -1       551 3.45854E-05-1.67261E-06-3.30872E-24
 -1       552 3.00526E-05-1.75522E-06 0.00000E+00
 -1       553 2.50410E-05-1.84015E-06 1.65436E-24
 -1       554 1.98194E-05-1.92740E-06 3.30872E-24
 -1       555 1.46567E-05-2.01581E-06 0.00000E+00
 -1       556 3.73836E-05 9.81290E-07 0.00000E+00
 -1       557 3.66268E-05 2.94603E-06 0.00000E+00
 -1       558 3.60787E-05 4.35879E-06 0.00000E+00
 -1       559 3.57159E-05 5.28022E-06 0.00000E+00
 -1       560 3.55153E-05 5.77079E-06 0.00000E+00
 -1       561 3.54537E-05 5.89129E-06 0.00000E+00
 -1       562 3.55081E-05 5.70256E-06 0.00000E+00
 -1       563 3.56557E-05 5.26545E-06-1.65436E-24
 -1       564 3.58734E-05 4.64088E-06 0.00000E+00
 -1       565 3.61386E-05 3.88973E-06 0.00000E+00
 -1       566 3.64283E-05 3.07296E-06 4.13590E-25
 -1       567 3.67198E-05 2.25148E-06 0.00000E+00
 -1       568 3.69903E-05 1.48622E-06 0.00000E+00
 -1       569 3.72169E-05 8.38030E-07 0.00000E+00
 -1       570 3.73769E-05 3.67794E-07 0.00000E+00
 -1       571 3.83964E-05 1.23063E-07 2.06795E-25
 -1       572 3.84291E-05 1.51650E-07-3.10193E-25
 -1       573 3.84620E-05 1.62392E-07-8.27181E-25
 -1       574 3.84950E-05 1.59355E-07 0.00000E+00
 -1       575 3.85280E-05 1.46626E-07 0.00000E+00
 -1       576 3.85610E-05 1.28315E-07 4.13590E-25
 -1       577 3.85940E-05 1.08537E-07 8.27181E-25
 -1       578 3.86271E-05 9.14115E-08 0.00000E+00
 -1       579 3.86601E-05 8.10560E-08 0.00000E+00
 -1       580 3.86932E-05 8.15893E-08-8.27181E-25
 -1       581 3.87262E-05 9.71293E-08 0.00000E+00
 -1       582 3.87592E-05 1.31789E-07 1.65436E-24
 -1       583 3.87923E-05 1.89678E-07 0.00000E+00
 -1       584 3.88253E-05 2.74862E-07 1.65436E-24
 -1       585 3.88583E-05 3.91386E-07 0.00000E+00
 -1       586 3.82004E-05 8.37999E-08 0.00000E+00
 -1       587 3.80224E-05 9.45499E-08 0.00000E+00
 -1       588 3.78442E-05 1.05179E-07 0.00000E+00
 -1       589 3.76799E-05 1.15638E-07 0.00000E+00
 -1       590 3.75434E-05 1.25811E-07 0.00000E+00
 -1       591 3.83304E-05 1.39756E-07-2.58494E-26
 -1       592 3.83017E-05 1.88754E-07 0.00000E+00
 -1       593 3.82784E-05 2.23185E-07-2.06795E-25
 -1       594 3.82593E-05 2.46135E-07 0.00000E+00
 -1       595 3.82433E-05 2.60727E-07 0.00000E+00
 -1       596 3.82292E-05 2.70064E-07-1.03398E-25
 -1       597 3.82160E-05 2.77246E-07-2.06795E-25
 -1       598 3.82023E-05 2.85371E-07 0.00000E+00
 -1       599 3.81872E-05 2.97536E-07 2.06795E-25
 -1       600 3.81694E-05 3.16840E-07 0.00000E+00
 -1       601 3.81477E-05 3.46378E-07 0.00000E+00
 -1       602 3.81211E-05 3.89254E-07-1.03398E-25
 -1       603 3.80884E-05 4.48567E-07 1.80946E-25
 -1       604 3.80484E-05 5.27444E-07-5.16988E-26
 -1       605 3.80001E-05 6.28969E-07 0.00000E+00
 -1       606 3.88974E-05 7.69653E-07 0.00000E+00
 -1       607 3.89023E-05 1.04355E-06 0.00000E+00
 -1       608 3.89070E-05 1.36188E-06 1.65436E-24
 -1       609 3.89115E-05 1.72154E-06 8.27181E-25
 -1       610 3.89159E-05 2.11938E-06-1.65436E-24
 -1       611 3.89203E-05 2.55222E-06 0.00000E+00
 -1       612 3.89247E-05 3.01686E-06 0.00000E+00
 -1       613 3.89291E-05 3.51012E-06 0.00000E+00
 -1       614 3.89334E-05 4.02881E-06 0.00000E+00
 -1       615 3.89377E-05 4.56974E-06 0.00000E+00
 -1       616 3.89420E-05 5.12972E-06 0.00000E+00
 -1       617 3.89464E-05 5.70555E-06 0.00000E+00
 -1       618 3.89506E-05 6.29405E-06 4.13590E-25
 -1       619 3.89549E-05 6.89202E-06 2.06795E-25
 -1       620 3.89591E-05 7.49628E-06 0.00000E+00
 -1       621 3.87107E-05 5.78604E-07 0.00000E+00
 -1       622 3.85428E-05 6.14404E-07 0.00000E+00
 -1       623 3.83848E-05 6.50199E-07 0.00000E+00
 -1       624 3.82341E-05 6.85936E-07 4.13590E-25
 -1       625 3.80878E-05 7.21612E-07 0.00000E+00
 -1       626 3.88444E-05 7.80861E-07 1.65436E-24
 -1       627 3.87831E-05 1.05786E-06 0.00000E+00
 -1       628 3.87086E-05 1.37034E-06 0.00000E+00
 -1       629 3.86223E-05 1.71445E-06 0.00000E+00
 -1       630 3.85256E-05 2.08631E-06 0.00000E+00
 -1       631 3.84199E-05 2.48202E-06 0.00000E+00
 -1       632 3.83067E-05 2.89768E-06 0.00000E+00
 -1       633 3.81875E-05 3.32940E-06 0.00000E+00
 -1       634 3.80638E-05 3.77327E-06 0.00000E+00
 -1       635 3.79369E-05 4.22538E-06-8.27181E-25
 -1       636 3.78084E-05 4.68186E-06 0.00000E+00
 -1       637 3.76797E-05 5.13878E-06 4.13590E-25
 -1       638 3.75523E-05 5.59225E-06 0.00000E+00
 -1       639 3.74276E-05 6.03837E-06 4.13590E-25
 -1       640 3.73069E-05 6.47323E-06 8.27181E-25
 -1       656 3.84586E-05 7.90667E-06 3.30872E-24
 -1       657 3.81319E-05 7.70181E-06 0.00000E+00
 -1       658 3.79138E-05 7.49757E-06 0.00000E+00
 -1       659 3.77337E-05 7.29349E-06-1.65436E-24
 -1       660 3.75175E-05 7.08877E-06 3.30872E-24
 -1       661 3.87764E-05 8.69894E-06-4.13590E-25
 -1       662 3.86006E-05 9.26914E-06 0.00000E+00
 -1       663 3.84339E-05 9.81471E-06 8.27181E-25
 -1       664 3.82764E-05 1.03368E-05 0.00000E+00
 -1       665 3.81273E-05 1.08363E-05-8.27181E-25
 -1       666 3.79864E-05 1.13142E-05 0.00000E+00
 -1       667 3.78532E-05 1.17714E-05 8.27181E-25
 -1       668 3.77275E-05 1.22088E-05 4.13590E-25
 -1       669 3.76089E-05 1.26273E-05 0.00000E+00
 -1       670 3.74971E-05 1.30278E-05 0.00000E+00
 -1       671 3.73917E-05 1.34110E-05 0.00000E+00
 -1       672 3.72924E-05 1.37778E-05 0.00000E+00
 -1       673 3.71989E-05 1.41291E-05-8.27181E-25
 -1       674 3.71106E-05 1.44653E-05 0.00000E+00
 -1       675 3.70277E-05 1.47876E-05 0.00000E+00
 -1       676 3.84012E-05 1.52895E-05 0.00000E+00
 -1       677 3.81101E-05 1.52505E-05 4.13590E-25
 -1       678 3.78191E-05 1.52115E-05 0.00000E+00
 -1       679 3.75284E-05 1.51726E-05 0.00000E+00
 -1       680 3.72379E-05 1.51338E-05-8.27181E-25
 -1       771 7.87686E-06 1.55758E-06 0.00000E+00
 -1       772 6.18445E-06 4.55737E-06 0.00000E+00
 -1       773 4.73128E-06 6.92343E-06 0.00000E+00
 -1       774 3.50083E-06 8.69808E-06-1.32349E-23
 -1       775 2.47700E-06 9.92410E-06 0.00000E+00
 -1       776 1.64314E-06 1.06451E-05 0.00000E+00
 -1       777 9.82484E-07 1.09051E-05 1.32349E-23
 -1       778 4.78068E-07 1.07488E-05-6.61744E-24
 -1       779 1.12839E-07 1.02212E-05 1.32349E-23
 -1       780-1.30426E-07 9.36790E-06 6.61744E-24
 -1       781-2.68979E-07 8.23483E-06 1.32349E-23
 -1       782-3.20204E-07 6.86825E-06 6.61744E-24
 -1       783-3.01503E-07 5.31461E-06 0.00000E+00
 -1       784-2.30332E-07 3.62071E-06 6.61744E-24
 -1       785-1.24203E-07 1.83343E-06-1.32349E-23
 -1       786 3.74772E-05 1.35749E-07 0.00000E+00
 -1       787 3.75081E-05 1.37025E-07 4.13590E-25
 -1       788 3.75389E-05 1.39476E-07-8.27181E-25
 -1       789 3.75700E-05 1.43721E-07 4.13590E-25
 -1       790 3.76011E-05 1.50502E-07 0.00000E+00
 -1       791 3.76323E-05 1.60566E-07-4.13590E-25
 -1       792 3.76635E-05 1.74891E-07 8.27181E-25
 -1       793 3.76947E-05 1.94460E-07 0.00000E+00
 -1       794 3.77259E-05 2.20626E-07 8.27181E-25
 -1       795 3.77571E-05 2.54752E-07 0.00000E+00
 -1       796 3.77883E-05 2.98760E-07 8.27181E-25
 -1       797 3.78195E-05 3.54587E-07 0.00000E+00
 -1       798 3.78506E-05 4.25001E-07 8.27181E-25
 -1       799 3.78817E-05 5.12792E-07-4.13590E-25
 -1       800 3.79129E-05 6.21973E-07 8.27181E-25
 -1       801 3.49192E-05 1.37925E-07 0.00000E+00
 -1       802 2.73975E-05 1.16740E-07 0.00000E+00
 -1       803 1.75147E-05 7.67175E-08 0.00000E+00
 -1       804 7.90212E-06 3.56327E-08-1.65436E-24
 -1       805 1.18720E-06 1.71642E-08 0.00000E+00
 -1       806 3.74092E-05 1.14857E-07 0.00000E+00
 -1       807 3.73687E-05 9.49059E-08 0.00000E+00
 -1       808 3.73270E-05 7.76031E-08 0.00000E+00
 -1       809 3.72832E-05 6.49987E-08 0.00000E+00
 -1       810 3.72369E-05 5.91386E-08 0.00000E+00
 -1       811 3.71873E-05 6.20390E-08 4.13590E-25
 -1       812 3.71337E-05 7.57136E-08 1.65436E-24
 -1       813 3.70752E-05 1.02172E-07 4.13590E-25
 -1       814 3.70112E-05 1.43422E-07-8.27181E-25
 -1       815 3.69409E-05 2.01471E-07-8.27181E-25
 -1       816 3.68635E-05 2.78325E-07-8.27181E-25
 -1       817 3.67784E-05 3.75992E-07 0.00000E+00
 -1       818 3.66847E-05 4.96476E-07 0.00000E+00
 -1       819 3.65817E-05 6.41775E-07 0.00000E+00
 -1       820 3.64689E-05 8.13891E-07 8.27181E-25
 -1       821 3.78992E-05 9.20547E-07 0.00000E+00
 -1       822 3.78521E-05 1.11785E-06 4.13590E-25
 -1       823 3.78052E-05 1.35325E-06 0.00000E+00
 -1       824 3.77577E-05 1.63143E-06 0.00000E+00
 -1       825 3.77103E-05 1.95274E-06 0.00000E+00
 -1       826 3.76627E-05 2.31745E-06 8.27181E-25
 -1       827 3.76151E-05 2.72140E-06-1.65436E-24
 -1       828 3.75675E-05 3.16038E-06 0.00000E+00
 -1       829 3.75198E-05 3.62660E-06 1.65436E-24
 -1       830 3.74722E-05 4.11223E-06 0.00000E+00
 -1       831 3.74245E-05 4.60749E-06 1.65436E-24
 -1       832 3.73770E-05 5.10253E-06 0.00000E+00
 -1       833 3.73295E-05 5.58756E-06 0.00000E+00
 -1       834 3.72825E-05 6.05281E-06 0.00000E+00
 -1       835 3.72354E-05 6.49049E-06 0.00000E+00
 -1       836 3.77492E-05 7.99562E-07 0.00000E+00
 -1       837 3.74983E-05 8.43492E-07-4.13590E-25
 -1       838 3.72115E-05 8.87344E-07 0.00000E+00
 -1       839 3.69099E-05 9.30918E-07-4.13590E-25
 -1       840 3.66144E-05 9.74424E-07 0.00000E+00
 -1       856 3.71775E-05 7.30533E-06 1.03398E-25
 -1       857 3.71625E-05 7.76969E-06 0.00000E+00
 -1       858 3.71475E-05 8.27773E-06 4.13590E-25
 -1       859 3.71322E-05 8.82122E-06 0.00000E+00
 -1       860 3.71169E-05 9.39190E-06 0.00000E+00
 -1       861 3.71015E-05 9.98149E-06 0.00000E+00
 -1       862 3.70861E-05 1.05817E-05 0.00000E+00
 -1       863 3.70707E-05 1.11843E-05 0.00000E+00
 -1       864 3.70553E-05 1.17809E-05 0.00000E+00
 -1       865 3.70399E-05 1.23633E-05 0.00000E+00
 -1       866 3.70246E-05 1.29231E-05 0.00000E+00
 -1       867 3.70092E-05 1.34521E-05 0.00000E+00
 -1       868 3.69938E-05 1.39422E-05 0.00000E+00
 -1       869 3.69785E-05 1.43849E-05-2.06795E-25
 -1       870 3.69631E-05 1.47721E-05 0.00000E+00
 -1       871 3.68761E-05 6.89250E-06 0.00000E+00
 -1       872 3.66110E-05 6.89110E-06 0.00000E+00
 -1       873 3.63742E-05 6.88950E-06 0.00000E+00
 -1       874 3.61442E-05 6.88765E-06-1.03398E-25
 -1       875 3.58992E-05 6.88557E-06 0.00000E+00
 -1       876 3.70818E-05 7.30959E-06 1.65436E-24
 -1       877 3.69640E-05 7.75154E-06-8.27181E-25
 -1       878 3.68380E-05 8.21568E-06 0.00000E+00
 -1       879 3.67049E-05 8.69916E-06 0.00000E+00
 -1       880 3.65656E-05 9.19912E-06-1.65436E-24
 -1       881 3.64213E-05 9.71272E-06 8.27181E-25
 -1       882 3.62728E-05 1.02371E-05 0.00000E+00
 -1       883 3.61214E-05 1.07695E-05 8.27181E-25
 -1       884 3.59681E-05 1.13069E-05 1.65436E-24
 -1       885 3.58138E-05 1.18467E-05 0.00000E+00
 -1       886 3.56598E-05 1.23859E-05-1.65436E-24
 -1       887 3.55070E-05 1.29217E-05 4.13590E-25
 -1       888 3.53565E-05 1.34512E-05 0.00000E+00
 -1       889 3.52092E-05 1.39716E-05-4.13590E-25
 -1       890 3.50661E-05 1.44801E-05 8.27181E-25
 -1       891 3.66674E-05 1.50752E-05 0.00000E+00
 -1       892 3.63782E-05 1.50546E-05-2.06795E-25
 -1       893 3.60697E-05 1.50340E-05 4.13590E-25
 -1       894 3.57317E-05 1.50134E-05-1.03398E-25
 -1       895 3.53540E-05 1.49929E-05 0.00000E+00
 -1       956 3.63012E-05 1.27445E-06 0.00000E+00
 -1       957 3.62558E-05 1.56328E-06-4.13590E-25
 -1       958 3.62103E-05 1.87823E-06-8.27181E-25
 -1       959 3.61647E-05 2.21609E-06 0.00000E+00
 -1       960 3.61190E-05 2.57365E-06 0.00000E+00
 -1       961 3.60734E-05 2.94767E-06-4.13590E-25
 -1       962 3.60277E-05 3.33493E-06 8.27181E-25
 -1       963 3.59820E-05 3.73219E-06 8.27181E-25
 -1       964 3.59363E-05 4.13622E-06 0.00000E+00
 -1       965 3.58906E-05 4.54376E-06-8.27181E-25
 -1       966 3.58450E-05 4.95161E-06-1.65436E-24
 -1       967 3.57993E-05 5.35651E-06 8.27181E-25
 -1       968 3.57537E-05 5.75522E-06 0.00000E+00
 -1       969 3.57081E-05 6.14454E-06 0.00000E+00
 -1       970 3.56627E-05 6.52124E-06-1.65436E-24
 -1       971 3.55752E-05 7.25297E-06 0.00000E+00
 -1       972 3.55320E-05 7.66229E-06 4.13590E-25
 -1       973 3.54886E-05 8.10588E-06-1.65436E-24
 -1       974 3.54452E-05 8.57932E-06 4.13590E-25
 -1       975 3.54017E-05 9.07817E-06-1.65436E-24
 -1       976 3.53583E-05 9.59798E-06 0.00000E+00
 -1       977 3.53148E-05 1.01343E-05 1.65436E-24
 -1       978 3.52713E-05 1.06828E-05 8.27181E-25
 -1       979 3.52278E-05 1.12389E-05 0.00000E+00
 -1       980 3.51843E-05 1.17982E-05 8.27181E-25
 -1       981 3.51408E-05 1.23563E-05 1.65436E-24
 -1       982 3.50974E-05 1.29087E-05 0.00000E+00
 -1       983 3.50540E-05 1.34510E-05 1.65436E-24
 -1       984 3.50108E-05 1.39788E-05 0.00000E+00
 -1       985 3.49678E-05 1.44876E-05 0.00000E+00
 -3
    1PSTEP                         4           2           1          
  100CL  102 2.50000E-01         409                     0    2           1
 -4  STRESS      6    1
 -5  SXX         1    4    1    1
 -5  SYY         1    4    2    2
 -5  SZZ         1    4    3    3
 -5  SXY         1    4    1    2
 -5  SYZ         1    4    2    3
 -5  SZX         1    4    3    1
 -1         1-8.63904E+05-3.98585E+05-1.75233E+05-5.58306E+05 1.01863E-10 1.51340E-09
 -1         2 1.44473E+03 1.59917E+05 4.70697E+03 2.67235E+02-7.11253E-11 3.51548E-10
 -1         3-1.82483E+01-3.60981E+05 8.31547E+01-6.58642E+01-7.36611E-11-2.85036E-09
 -1         5-2.14414E+00 1.29819E+05 3.39843E+00-5.15306E-02 5.58747E-11 8.81118E-09
 -1         8-4.07006E+05-1.77336E+05-1.38777E+04-3.08516E+05 2.50111E-10 6.43922E-10
 -1         9-6.98521E+05-1.82663E+05-6.93957E+04-2.42746E+05 1.89320E-09-9.69158E-10
 -1        10-2.67376E+02-3.76070E+05-4.72837E+02-4.36333E+02-1.81126E-09-6.09046E-09
 -1        12-7.49075E-01 1.29826E+05 1.10157E+02-1.07188E-01 1.32616E-10 2.22565E-08
 -1        15 1.07553E+03 5.91058E+02 3.47663E+03 1.21406E+00-3.55706E-09-1.37791E-06
 -1        16-1.96249E+06-6.33011E+05-3.05150E+05-6.44103E+05 5.63159E-09-2.21189E-09
 -1        17-4.32184E+05-2.67750E+05-8.26587E+04-2.53309E+05-4.24843E-09-4.07454E-11
 -1        18 1.65492E+04 1.68560E+03-5.87040E+03-3.03574E+04 4.33431E-10 4.71346E-10
 -1        19 4.06946E+04 4.85207E+04-2.24191E+02 7.97823E+03-2.99951E-10 4.38376E-10
 -1        20-1.68638E+04-1.92377E+05-4.24150E+04 1.43397E+04 2.21280E-09 2.47928E-09
 -1        21-1.82290E+01-1.11628E+05-3.60555E+02-2.22944E+01-3.70239E-09-6.92842E-09
 -1        24-1.72164E+06-6.03024E+05-2.45938E+05-7.35750E+05-8.28732E-09-3.49003E-09
 -1        25 1.47645E+04-3.57085E+03 8.71292E+03-5.51274E+04 1.94314E-10 1.44719E-09
 -1        26-9.43360E+03 3.31555E+04-6.58642E+03-4.72785E+03 7.96172E-10-2.63881E-10
 -1        27-3.08000E+04-1.05564E+05-3.96010E+04 2.37914E+04 2.51631E-09 4.45652E-10
 -1        28 8.62007E+03-3.08398E+04 6.29992E+03 9.89403E+03 1.61401E-09 2.80082E-10
 -1        32-4.12929E+05-6.49021E+04 1.76750E+05-2.77041E+05-8.30187E-09 8.05260E-09
 -1        33-6.03981E+04 3.10492E+04 1.10086E+04-1.80154E+04 7.08591E-10 1.95390E-09
 -1        34-7.83991E+04-7.80320E+03 1.86265E+02 2.41079E+04 1.99566E-09 1.00757E-09
 -1        35-8.77236E+03-1.22692E+04-4.77805E+02 1.94405E+04 2.59916E-09-5.93900E-10
 -1        51 8.24135E+03-2.04643E+05 1.98529E+04-5.03529E+05 4.36557E-11 5.31873E-09
 -1        52 3.99436E+03-2.02592E+05 1.30353E+04-5.87270E+05 2.07365E-10-2.08820E-09
 -1        53 2.40205E+03-2.07360E+05 1.13525E+04-5.01826E+05 3.45608E-10 1.81899E-10
 -1        54 7.88661E+03-2.05269E+05 1.82959E+04-5.89087E+05 1.20053E-10 1.10413E-09
 -1        55 1.81377E+04-2.11869E+05 3.29159E+04-5.01617E+05-8.00355E-11 4.58931E-09
 -1        56-1.65948E+06-1.87755E+05-1.29607E+05-6.40152E+05-7.34872E-10-2.43745E-09
 -1        57-1.71217E+06-3.04313E+05-8.73492E+04-6.34462E+05 3.63798E-12 1.97542E-09
 -1        58-1.68525E+06-2.29056E+05-3.05153E+04-6.32353E+05 6.36646E-12 3.98904E-09
 -1        59-1.68237E+06-2.55894E+05-1.82172E+04-6.43834E+05 2.90697E-10-3.24121E-09
 -1        60-1.68904E+06-2.34793E+05-7.13385E+03-6.31277E+05-9.18817E-10 6.01881E-09
 -1        61-1.67827E+06-2.48900E+05-4.05755E+03-6.44764E+05 8.23150E-10 3.50775E-09
 -1        62-1.68931E+06-2.35876E+05-1.95509E+03-6.31479E+05-3.76303E-11-3.31367E-09
 -1        63-1.67859E+06-2.47156E+05-1.61163E+03-6.43819E+05-2.83308E-10-1.72008E-09
 -1        64-1.68869E+06-2.36531E+05-1.84669E+03-6.32212E+05 1.15108E-09-5.42013E-09
 -1        65-1.68060E+06-2.46310E+05-3.70627E+03-6.41866E+05-2.29818E-10-7.21934E-09
 -1        66-1.68727E+06-2.36759E+05-6.51015E+03-6.33406E+05 8.83915E-10-2.81261E-09
 -1        67-1.68653E+06-2.50400E+05-1.65340E+04-6.38403E+05 6.63505E-10 3.40970E-09
 -1        68-1.68277E+06-2.32619E+05-2.77415E+04-6.35601E+05 5.91399E-10 1.18962E-09
 -1        69-1.71551E+06-2.92460E+05-7.93197E+04-6.27708E+05 8.78117E-10-4.23097E-09
 -1        70-1.65852E+06-1.95954E+05-1.17747E+05-6.43645E+05 4.87489E-10 3.78350E-09
 -1        86-7.23812E+02 1.58518E+05 5.05320E+03-1.33625E+02 6.58019E-10-4.27465E-09
 -1        87 4.80650E+03 1.61553E+05 1.05282E+04 5.46825E+02 1.09810E-09 3.62728E-09
 -1        88-4.07567E+03 1.56882E+05 1.61344E+04-4.13214E+02 1.62709E-09 1.36245E-09
 -1        89 3.03760E+04 1.73450E+05 4.34887E+04 1.16548E+03 2.48701E-09-6.83659E-09
 -1        90-2.62094E+04 1.46626E+05 6.14522E+04-7.52104E+02 2.77214E-09 2.65391E-09
 -1       121-3.46457E+01-3.61098E+05 8.31664E+01 3.29127E+01 1.89917E-10-6.80302E-10
 -1       122 9.03378E+00-3.60963E+05 1.82197E+02-1.31876E+02-6.95024E-10 2.66027E-10
 -1       123-5.46976E+01-3.61118E+05 2.99666E+02 9.88499E+01 5.69429E-10-1.89175E-10
 -1       124 3.44675E+02-3.60755E+05 7.65725E+02-3.26933E+02-1.29631E-09-6.44286E-09
 -1       125-2.73431E+02-3.61308E+05 1.17942E+03 2.27991E+02 8.12179E-10-8.56289E-09
 -1       191-2.36384E+00 1.29830E+05 4.07804E+00 2.56051E-02 8.89798E-11 2.96177E-09
 -1       192-2.45603E+00 1.29819E+05 7.19521E+00 1.57156E-01 1.32396E-10-2.37014E-09
 -1       193-3.19342E+00 1.29830E+05 1.33971E+01-1.83886E-01 1.42694E-10 1.20099E-09
 -1       194-3.45994E+00 1.29820E+05 2.72158E+01 4.95043E-01 9.54774E-11-1.00044E-10
 -1       195-4.78811E+00 1.29829E+05 5.32525E+01-3.14295E-01 2.32347E-10 8.62974E-09
 -1       251 1.43069E+05-2.53688E+04 5.93108E+04 2.15008E+03 1.56774E-10-1.30967E-09
 -1       252 1.69629E+05 2.93654E+04 4.20038E+04-7.51041E+03-3.00531E-10 1.78261E-09
 -1       253 1.53177E+05-3.92930E+03 1.53544E+04 1.62184E+03-1.06297E-11-7.86713E-10
 -1       254 1.57763E+05 4.54285E+03 9.68382E+03-6.67113E+03-1.69393E-11-1.52431E-09
 -1       255 1.54902E+05-6.07497E+02 3.96744E+03 1.31092E+03 4.81805E-10 2.79556E-09
 -1       256 1.55713E+05 7.19773E+02 2.40760E+03-6.21026E+03-4.66116E-11 7.67628E-09
 -1       257 1.55211E+05-1.06557E+02 1.24108E+03 1.16096E+03 1.84812E-11-5.25802E-11
 -1       258 1.55399E+05 2.23301E+02 1.10071E+03-6.05845E+03-2.81020E-10-1.82972E-10
 -1       259 1.55211E+05-1.08818E+02 1.26247E+03 1.15912E+03-1.32424E-10 9.51843E-10
 -1       260 1.55721E+05 7.39605E+02 2.46847E+03-6.20343E+03-1.40091E-10-1.64300E-09
 -1       261 1.54894E+05-6.24848E+02 4.07862E+03 1.30593E+03 7.46439E-10-1.88538E-09
 -1       262 1.57822E+05 4.67375E+03 9.95835E+03-6.65640E+03 1.86134E-10-2.18552E-09
 -1       263 1.53125E+05-4.04209E+03 1.57970E+04 1.61210E+03-4.91411E-10 2.18188E-09
 -1       264 1.70015E+05 3.02100E+04 4.32064E+04-7.48681E+03-1.25010E-09-2.21189E-09
 -1       265 1.42735E+05-2.60968E+04 6.10214E+04 2.13622E+03-7.22025E-10 1.10231E-09
 -1       266-1.94708E+04-9.10519E+03 4.56811E+04-2.59758E+01-5.40786E-09-2.15458E-06
 -1       267 2.25719E+04 1.06113E+04 3.22883E+04 2.99726E+01-1.06807E-08-4.26757E-06
 -1       268-3.02686E+03-1.50291E+03 1.20013E+04-3.81893E+00-8.55562E-09-3.42243E-06
 -1       269 3.57381E+03 1.79860E+03 7.80074E+03 4.44859E+00-6.43206E-09-2.58163E-06
 -1       270-5.36434E+02-2.95528E+02 3.76553E+03-6.03696E-01-4.79918E-09-1.90394E-06
 -1       271-1.91282E+06-2.37684E+05-1.47080E+05-7.43904E+05-1.01863E-10 1.89175E-10
 -1       272-1.95254E+06-3.58186E+05-9.45792E+04-7.57833E+05 3.42425E-10-1.48975E-09
 -1       273-1.94047E+06-2.74336E+05-3.47396E+04-7.37398E+05-9.13360E-10-7.82165E-11
 -1       274-1.92038E+06-3.13122E+05-1.94646E+04-7.67744E+05 5.94127E-10 2.84672E-09
 -1       275-1.94456E+06-2.77863E+05-8.08119E+03-7.35965E+05-1.17780E-10-7.00311E-11
 -1       276-1.91557E+06-3.08937E+05-4.30275E+03-7.70034E+05-7.60792E-10 6.16865E-10
 -1       277-1.94542E+06-2.77907E+05-2.10398E+03-7.35438E+05-3.14913E-10-1.56717E-09
 -1       278-1.91475E+06-3.08807E+05-1.53159E+03-7.70667E+05 6.50289E-11-7.98593E-10
 -1       279-1.94546E+06-2.77899E+05-1.64246E+03-7.35407E+05-4.68390E-10-4.06044E-09
 -1       280-1.91531E+06-3.08812E+05-3.00975E+03-7.70183E+05 8.97558E-10-7.72354E-09
 -1       281-1.94479E+06-2.77970E+05-5.49662E+03-7.35864E+05-8.32642E-10-5.53428E-10
 -1       282-1.91881E+06-3.11320E+05-1.31356E+04-7.68244E+05 5.11136E-10-8.64475E-10
 -1       283-1.94181E+06-2.75843E+05-2.34288E+04-7.37083E+05-4.00632E-10-5.67707E-09
 -1       284-1.94097E+06-3.41102E+05-6.37143E+04-7.60838E+05-2.90072E-10-1.21690E-09
 -1       285-1.92282E+06-2.51544E+05-9.91387E+04-7.41872E+05 4.81123E-10-1.09139E-10
 -1       301 7.33928E+03-4.64640E+03 5.73874E+04-1.42747E+04-5.20231E-10-3.20625E-09
 -1       302 7.87874E+03 9.92611E+03 4.14457E+04-2.09907E+04 8.28322E-10-1.14799E-08
 -1       303 3.29868E+02 5.07487E+02 3.81583E+04-1.42961E+04-5.15683E-10-6.19571E-09
 -1       304 1.48777E+04 1.63791E+04 6.41949E+04-2.09356E+04 5.63887E-10 3.27987E-09
 -1       305 1.47495E+04-1.10694E+04 1.07724E+05-1.42996E+04-6.11180E-10 6.70479E-09
 -1       306-2.06383E+06-2.36044E+05-1.57193E+05-8.03062E+05 1.02227E-09-5.65342E-09
 -1       307-2.13862E+06-3.75285E+05-1.07204E+05-7.83191E+05 3.25599E-10 7.33780E-09
 -1       308-2.09862E+06-2.85766E+05-3.69778E+04-7.89344E+05 1.05638E-09 5.79894E-09
 -1       309-2.09626E+06-3.19518E+05-2.24325E+04-8.01763E+05 7.52806E-10 4.13229E-09
 -1       310-2.10602E+06-2.90855E+05-8.67586E+03-7.84841E+05-2.04803E-10 7.86258E-10
 -1       311-2.08687E+06-3.14520E+05-5.04235E+03-8.08136E+05 2.99545E-09 1.04006E-09
 -1       312-2.10805E+06-2.90587E+05-2.46302E+03-7.83061E+05-9.66310E-10-7.95808E-13
 -1       313-2.08511E+06-3.14529E+05-2.22184E+03-8.09647E+05-7.88297E-10 4.12206E-09
 -1       314-2.10780E+06-2.90815E+05-2.66629E+03-7.83352E+05-1.83212E-09-5.55019E-10
 -1       315-2.08788E+06-3.13788E+05-5.63440E+03-8.07006E+05-3.25002E-10-2.98621E-09
 -1       316-2.10524E+06-2.91374E+05-9.79247E+03-7.85665E+05 5.87626E-10 3.17323E-09
 -1       317-2.09875E+06-3.19245E+05-2.53655E+04-7.99576E+05-3.47399E-10-9.45874E-10
 -1       318-2.09689E+06-2.85554E+05-4.18280E+04-7.90684E+05-2.51293E-09 3.87809E-09
 -1       319-2.14634E+06-3.82758E+05-1.21301E+05-7.79077E+05-1.36743E-09-1.49157E-10
 -1       320-2.05785E+06-2.28926E+05-1.77820E+05-8.05782E+05 3.33239E-09 2.21189E-09
 -1       336 2.93479E+02-3.90913E+05-2.05866E+03 2.08168E+02-3.45108E-09-3.20779E-09
 -1       337-7.37046E+02-3.91510E+05-2.24454E+03-5.87280E+02-6.37726E-09 6.32099E-11
 -1       338 1.91298E+02-3.90978E+05-2.79975E+03 3.78307E+02-4.49074E-09-3.26418E-09
 -1       339-2.88830E+03-3.92824E+05-6.12533E+03-9.25106E+02-8.24366E-09 7.67159E-10
 -1       340 1.97496E+03-3.89610E+05-9.42569E+03 5.44293E+02-5.66683E-09 7.19410E-09
 -1       406 7.67828E+00 1.29824E+05 2.17498E+02 4.16867E-01 3.39909E-10 7.20274E-09
 -1       407 7.50768E+01 1.29864E+05 4.62244E+02-5.65841E+00 5.75682E-11-7.51697E-10
 -1       408 2.37194E+02 1.29791E+05 9.23238E+02 5.29038E+00 3.89150E-10-7.54653E-09
 -1       409 9.97568E+02 1.30159E+05 2.07853E+03-4.74731E+01-2.10321E-11-1.68757E-08
 -1       410 2.86754E+03 1.29528E+05 4.24331E+03 4.30939E+01 3.24690E-10-9.78184E-09
 -1       521-3.88768E+06-4.47699E+05-2.90907E+05-1.51037E+06 3.42698E-09-6.95582E-09
 -1       522-4.02704E+06-6.99867E+05-1.97743E+05-1.47276E+06-3.54703E-10-1.47884E-09
 -1       523-3.95242E+06-5.37711E+05-6.83943E+04-1.48460E+06-5.20231E-10 6.65750E-10
 -1       524-3.94827E+06-5.98668E+05-4.12843E+04-1.50753E+06 1.19189E-09 1.06911E-09
 -1       525-3.96596E+06-5.46696E+05-1.59844E+04-1.47635E+06 1.33639E-09-4.37467E-10
 -1       526-3.93215E+06-5.88666E+05-9.22046E+03-1.51782E+06 1.05950E-09-9.64633E-10
 -1       527-3.96853E+06-5.47334E+05-4.42579E+03-1.47448E+06 2.14470E-09 8.83688E-10
 -1       528-3.93220E+06-5.85202E+05-3.79484E+03-1.51645E+06-1.84338E-09 1.39607E-10
 -1       529-3.96586E+06-5.50149E+05-4.44462E+03-1.47770E+06 6.01176E-10 2.44222E-09
 -1       530-3.94189E+06-5.78426E+05-9.08486E+03-1.50585E+06 4.87944E-10 2.08274E-10
 -1       531-3.95870E+06-5.54249E+05-1.59369E+04-1.48496E+06 4.25644E-10 3.16504E-09
 -1       532-3.96510E+06-5.81218E+05-4.09094E+04-1.48756E+06-7.47605E-10-3.39378E-09
 -1       533-3.94269E+06-5.47713E+05-6.78869E+04-1.49584E+06 5.55701E-10-3.73257E-09
 -1       534-4.04567E+06-6.79780E+05-1.96243E+05-1.45131E+06 5.22959E-10 4.32192E-09
 -1       535-3.87883E+06-4.57726E+05-2.88601E+05-1.52062E+06-5.27507E-09 4.03088E-09
 -1       536-4.50391E+03-1.11583E+04 2.56405E+04 8.94694E+01-3.67956E-09 3.04681E-09
 -1       537 7.22683E+03 1.29132E+04 1.82559E+04-2.81544E+02-4.18908E-09 1.91585E-09
 -1       538-1.21562E+02-1.75342E+03 6.61818E+03 6.64060E+01-5.69536E-10-6.29370E-10
 -1       539 2.07053E+03 2.02661E+03 4.21411E+03-2.54760E+02 1.91429E-09 3.58256E-09
 -1       540 6.50598E+02-2.73414E+02 1.67417E+03 6.26866E+01 5.00023E-10-2.63685E-09
 -1       541 1.13550E+03 3.13869E+02 9.92997E+02-2.49591E+02-2.23803E-10 7.83288E-10
 -1       542 8.12692E+02-4.06133E+01 4.04041E+02 6.12354E+01-3.32661E-10-1.38596E-09
 -1       543 9.25481E+02 3.94017E+01 2.03888E+02-2.47382E+02-3.89475E-09-2.86639E-09
 -1       544 8.60173E+02 1.28618E+00 3.74299E+01 6.04777E+01-4.99850E-06-7.51974E-10
 -1       545 8.49097E+02-4.50097E+01-1.00365E+02-2.46453E+02-9.99668E-06-8.02901E-09
 -1       546 8.88949E+02 4.39768E+01-2.45100E+02 6.03071E+01-3.92018E-07-1.77945E-09
 -1       547 7.17346E+02-3.25326E+02-6.55440E+02-2.46683E+02 9.20554E-06 6.18390E-09
 -1       548 9.91992E+02 2.81551E+02-1.06364E+03 6.07069E+01 4.59258E-06-3.02316E-09
 -1       549-4.50178E+01-2.06805E+03-2.90783E+03-2.47502E+02 3.19433E-09 3.19631E-10
 -1       550 1.65157E+03 1.78615E+03-4.13530E+03 6.11267E+01 1.52086E-10-5.58202E-10
 -1       551 3.00730E+03-2.06480E+05 1.17761E+04-3.54333E+05-1.57506E-08-1.20781E-09
 -1       552 5.86178E+03-2.05772E+05 1.49331E+04-5.04108E+05-1.24674E-08 4.93674E-09
 -1       553 3.57822E+03-2.08514E+05 2.31751E+04-3.53224E+05-1.88920E-08 2.98678E-09
 -1       554 1.69043E+04-1.97802E+05 4.91301E+04-5.04588E+05-1.22018E-08 1.25931E-09
 -1       555 1.78837E+04-2.17987E+05 8.83759E+04-3.53732E+05-1.92085E-08-2.04818E-09
 -1       556 2.80285E+04-6.54293E+04 2.31582E+04-8.83215E+04-3.47063E-09-1.89902E-09
 -1       557 5.47080E+04-8.79622E+04 1.20923E+04-1.10209E+05-9.60426E-10 1.28466E-09
 -1       558 2.85144E+04-6.88464E+04 4.99116E+03-8.53525E+04-1.90630E-09 3.39242E-10
 -1       559 5.17295E+04-9.13364E+04 2.49921E+03-1.11357E+05 3.84716E-09-3.72847E-09
 -1       560 2.81612E+04-6.85929E+04 1.08613E+03-8.55363E+04 2.54659E-10 5.43059E-09
 -1       561 5.10178E+04-9.12497E+04 5.53023E+02-1.11796E+05-2.40107E-10 3.58386E-09
 -1       562 2.78426E+04-6.83636E+04 2.32301E+02-8.57710E+04-1.10231E-09-8.42533E-10
 -1       563 5.06253E+04-9.10843E+04 1.28042E+02-1.12046E+05-5.59612E-09-8.28015E-09
 -1       564 2.76432E+04-6.82303E+04 4.84566E+01-8.59151E+04 1.82808E-09 4.50200E-10
 -1       565 5.04243E+04-9.10004E+04 2.02847E+01-1.12171E+05-3.06500E-10-4.49381E-09
 -1       566 2.75762E+04-6.81829E+04-1.77713E+01-8.59656E+04-2.34468E-09-1.04346E-08
 -1       567 5.03919E+04-9.09839E+04-6.77929E+01-1.12158E+05 4.04782E-09-1.20690E-09
 -1       568 2.76591E+04-6.82392E+04-1.69045E+02-8.59384E+04-5.15683E-10 3.27054E-09
 -1       569 5.01891E+04-9.08719E+04-4.00860E+02-1.11719E+05-1.38152E-09 4.28918E-09
 -1       570 2.81730E+04-6.87589E+04-8.13620E+02-8.60305E+04 1.37879E-09 1.74214E-09
 -1       571 9.41919E+04 3.40569E+03 5.04334E+03-2.36075E+04 2.03499E-10 3.58568E-10
 -1       572 9.49440E+04 1.18483E+03 2.47066E+03-2.58780E+04-1.07320E-10 1.16779E-09
 -1       573 9.44976E+04 2.82514E+02 1.09755E+03-2.35460E+04 2.79215E-10-4.59977E-10
 -1       574 9.45879E+04 9.11260E+01 5.49739E+02-2.59472E+04 2.85240E-10-3.14708E-09
 -1       575 9.45338E+04 1.16833E+01 2.59056E+02-2.35378E+04 2.63071E-10-1.78534E-09
 -1       576 9.45404E+04 2.13652E+00 1.31767E+02-2.59565E+04-5.09033E-10-2.07592E-10
 -1       577 9.45391E+04-2.92206E+00 6.48614E+01-2.35367E+04-4.39059E-10 4.39104E-09
 -1       578 9.45346E+04-1.76128E+00 3.52599E+01-2.59576E+04 3.77440E-11 3.09706E-09
 -1       579 9.45425E+04-2.61219E+00 2.15300E+01-2.35367E+04 6.00267E-11 2.35354E-09
 -1       580 9.45382E+04-2.58016E+00 1.99403E+01-2.59561E+04 7.61702E-11 7.73298E-10
 -1       581 9.45475E+04-3.36934E+00 2.71268E+01-2.35382E+04-3.68800E-10 1.50999E-09
 -1       582 9.45494E+04 1.99591E+00 5.14539E+01-2.59419E+04-4.44970E-10 2.66186E-09
 -1       583 9.45521E+04 1.67192E+01 9.91139E+01-2.35509E+04 2.27374E-11 2.47655E-09
 -1       584 9.45913E+04 9.54113E+01 2.21860E+02-2.58367E+04-8.38099E-10 2.54880E-09
 -1       585 9.45339E+04 2.92594E+02 4.51223E+02-2.36436E+04-1.92813E-10 3.82261E-09
 -1       586-1.19373E+03 3.06333E+04-1.56865E+03-8.05471E+04 2.63526E-10-2.56716E-09
 -1       587-2.74709E+02 3.04257E+04-1.97665E+02-8.86356E+04 4.49745E-10-6.21731E-09
 -1       588 3.04775E+02 3.04659E+04 1.06253E+03-8.04981E+04 2.65572E-10-8.94693E-09
 -1       589 1.58645E+03 3.10454E+04 3.12513E+03-8.85621E+04 3.91083E-10-2.20380E-08
 -1       590 4.58912E+03 3.00631E+04 6.70521E+03-8.06208E+04 1.79625E-10-1.20262E-08
 -1       591-2.04318E+04-5.87398E+03-6.84631E+03-1.06202E+04-7.26175E-11-3.85671E-09
 -1       592-2.10728E+04-7.55575E+03-3.70824E+03-1.24060E+04-4.38831E-11-3.36968E-09
 -1       593-2.11237E+04-5.36966E+03-1.54376E+03-1.11143E+04-1.60981E-10-2.52624E-09
 -1       594-2.01183E+04-6.56081E+03-7.69967E+02-1.24531E+04-5.05935E-10 5.48961E-09
 -1       595-2.11765E+04-5.36753E+03-3.53844E+02-1.11369E+04 6.24823E-10 5.64600E-09
 -1       596-2.00535E+04-6.51528E+03-1.80374E+02-1.24462E+04 1.31101E-09 7.87813E-09
 -1       597-2.11832E+04-5.37196E+03-9.92717E+01-1.11378E+04 1.10489E-12-7.31916E-10
 -1       598-2.00474E+04-6.51353E+03-8.17316E+01-1.24444E+04 2.47667E-10 4.27264E-10
 -1       599-2.11828E+04-5.37189E+03-1.06775E+02-1.11377E+04-2.03954E-10-1.65920E-09
 -1       600-2.00545E+04-6.51578E+03-2.00302E+02-1.24463E+04-5.60647E-10-6.11908E-09
 -1       601-2.11747E+04-5.36692E+03-3.96084E+02-1.11365E+04 1.24305E-09 3.02123E-09
 -1       602-2.01274E+04-6.56670E+03-8.63874E+02-1.24535E+04-7.47605E-10-4.81941E-09
 -1       603-2.11150E+04-5.36997E+03-1.73260E+03-1.11114E+04-3.59250E-10-1.21190E-10
 -1       604-2.12025E+04-7.67946E+03-4.16222E+03-1.23957E+04-4.90274E-10 4.68606E-09
 -1       605-2.03340E+04-5.93931E+03-7.68427E+03-1.05608E+04-1.19167E-09-2.23690E-09
 -1       606 1.34719E+04-4.53066E+03-8.16352E+03 1.31960E+04-1.87310E-09-6.86214E-10
 -1       607 1.20741E+04-1.46125E+03-4.06522E+03 1.48132E+04-4.00178E-10-2.69432E-09
 -1       608 1.28729E+04-2.45387E+02-1.81986E+03 1.30906E+04 1.19144E-09 2.15562E-09
 -1       609 1.27170E+04-6.60099E+01-9.19407E+02 1.49298E+04-1.64482E-09 1.48088E-09
 -1       610 1.28054E+04 9.63565E+00-4.38744E+02 1.30789E+04-2.90129E-09 2.06148E-09
 -1       611 1.27779E+04 1.26073E+01-2.21447E+02 1.49425E+04-4.46016E-09-9.97261E-10
 -1       612 1.27908E+04 1.38228E+01-1.05704E+02 1.30777E+04-2.19916E-09-1.59753E-09
 -1       613 1.27819E+04 1.37723E+01-4.83092E+01 1.49441E+04-2.71757E-09-1.15244E-09
 -1       614 1.27840E+04 1.17240E+01-1.33895E+01 1.30773E+04-9.69840E-09 2.52146E-09
 -1       615 1.27803E+04 1.41516E+01 1.49202E+01 1.49444E+04-1.60792E-08 5.69969E-09
 -1       616 1.27789E+04 1.25888E+01 4.97213E+01 1.30774E+04-1.14535E-08 2.54545E-10
 -1       617 1.27861E+04 2.50660E+01 1.15201E+02 1.49442E+04-2.58183E-10-1.83900E-09
 -1       618 1.27686E+04 4.60418E+01 2.32959E+02 1.30775E+04-1.74168E-10-2.23395E-10
 -1       619 1.28682E+04 2.05479E+02 5.23563E+02 1.49439E+04-1.38562E-09-6.10385E-10
 -1       620 1.26910E+04 5.99096E+02 1.05252E+03 1.30772E+04 2.82967E-10 1.59616E-09
 -1       621 1.64519E+02 1.02541E+05 1.41745E+03 3.23248E+03-1.01188E-10 1.28466E-10
 -1       622 1.88015E+02 1.02892E+05 1.20242E+03 4.71640E+03-1.92301E-10 2.36173E-09
 -1       623 8.39323E+00 1.02643E+05 1.38206E+03 3.21716E+03-1.42791E-10 1.51221E-09
 -1       624 6.25817E+02 1.03294E+05 2.62383E+03 4.73151E+03-1.01238E-10 1.25681E-09
 -1       625 6.27970E+02 1.02138E+05 4.56110E+03 3.21746E+03-1.07775E-10 4.06587E-10
 -1       626 8.46278E+04 2.34860E+04 1.69262E+03 4.57987E+04-9.68157E-10-3.74894E-09
 -1       627 8.34657E+04 2.43412E+04 8.15236E+02 4.76569E+04-1.75282E-09-7.62157E-10
 -1       628 8.46962E+04 2.26833E+04 3.44651E+02 4.60558E+04 1.25738E-09 2.08809E-09
 -1       629 8.32257E+04 2.41476E+04 1.68739E+02 4.77717E+04 1.61776E-09 1.21187E-09
 -1       630 8.47039E+04 2.26434E+04 7.81899E+01 4.60647E+04 7.10315E-10-3.04900E-09
 -1       631 8.31994E+04 2.41420E+04 4.19320E+01 4.77754E+04-9.00627E-10-1.95742E-09
 -1       632 8.47025E+04 2.26449E+04 2.77438E+01 4.60625E+04-1.76760E-09-2.29647E-09
 -1       633 8.31955E+04 2.41436E+04 3.08812E+01 4.77739E+04 2.73337E-09 1.05218E-08
 -1       634 8.46993E+04 2.26444E+04 5.00434E+01 4.60613E+04 2.39129E-09 9.86915E-10
 -1       635 8.31986E+04 2.41440E+04 1.01463E+02 4.77744E+04 1.50931E-09-1.05820E-09
 -1       636 8.46943E+04 2.26438E+04 2.05021E+02 4.60601E+04-9.10063E-10 1.43916E-09
 -1       637 8.32403E+04 2.41767E+04 4.50648E+02 4.77723E+04-1.54854E-10 3.41845E-09
 -1       638 8.46760E+04 2.27446E+04 9.26321E+02 4.60134E+04 2.04636E-11 2.21121E-09
 -1       639 8.37235E+04 2.48549E+04 2.19147E+03 4.76275E+04-1.33787E-09 1.71440E-10
 -1       640 8.46092E+04 2.47630E+04 4.54813E+03 4.51564E+04-1.13050E-09-1.98906E-09
 -1       656 2.29457E+04-5.80835E+05-5.54076E+04-4.99099E+02 3.96540E-10-2.77659E-09
 -1       657-3.03180E+04-6.05868E+05-4.58216E+04 3.81011E+03 5.37966E-10 2.28518E-09
 -1       658 7.27402E+03-5.87981E+05-2.81209E+04-7.81660E+02 3.82499E-10 1.18642E-09
 -1       659-3.25018E+04-6.06894E+05-4.86895E+04 3.99544E+03 7.96717E-10 5.88610E-10
 -1       660 2.51232E+04-5.79811E+05-6.03474E+04-6.84425E+02 2.25555E-10 8.77634E-10
 -1       661 8.26523E+04 8.96674E+03 7.92003E+03 3.22527E+04 1.39357E-09 2.92266E-09
 -1       662 8.67457E+04 1.52101E+04 5.33674E+03 3.09106E+04 1.18848E-09-4.51428E-09
 -1       663 8.42005E+04 1.15145E+04 1.86684E+03 3.18092E+04-2.48292E-10 2.23054E-10
 -1       664 8.49567E+04 1.22250E+04 1.11602E+03 3.14468E+04 1.51567E-09-1.49157E-10
 -1       665 8.44295E+04 1.18681E+04 4.40291E+02 3.17479E+04-8.52168E-10 8.42178E-10
 -1       666 8.46905E+04 1.18158E+04 2.56655E+02 3.15229E+04-1.94030E-09 4.45668E-09
 -1       667 8.44652E+04 1.19131E+04 1.35363E+02 3.17371E+04 3.63016E-10 6.42581E-10
 -1       668 8.46550E+04 1.17768E+04 1.35471E+02 3.15369E+04 4.11371E-09-1.11848E-09
 -1       669 8.44649E+04 1.19061E+04 1.81574E+02 3.17343E+04 4.72326E-10-4.55529E-10
 -1       670 8.47060E+04 1.18675E+04 3.93468E+02 3.15306E+04 3.10803E-09-1.67398E-09
 -1       671 8.44144E+04 1.18243E+04 6.98135E+02 3.17427E+04-1.61474E-09-4.29173E-09
 -1       672 8.51180E+04 1.25415E+04 1.78566E+03 3.14265E+04-2.31674E-09-4.47383E-09
 -1       673 8.40551E+04 1.12491E+04 2.99236E+03 3.18319E+04-1.43831E-09-2.08934E-09
 -1       674 8.79718E+04 1.73442E+04 8.55790E+03 3.05838E+04-2.50390E-09 2.18211E-09
 -1       675 8.15793E+04 7.15593E+03 1.27021E+04 3.25348E+04 1.68279E-09-2.14413E-09
 -1       676 9.35345E+00-1.11598E+05-4.34558E+02 1.11475E+01 7.75728E-10-6.57021E-10
 -1       677-1.15352E+02-1.11703E+05-7.95251E+02-2.22939E+01-1.98220E-09-1.60754E-09
 -1       678 7.70087E+01-1.11523E+05-1.40577E+03 1.11387E+01-8.99036E-10-4.43668E-10
 -1       679-1.40590E+03-1.12551E+05-3.33923E+03-2.22512E+01-3.24030E-09 2.69418E-10
 -1       680 8.38946E+02-1.10749E+05-5.38178E+03 1.09766E+01-1.09435E-09-9.38361E-10
 -1       771-1.20096E+06-2.08275E+05-2.90858E+04-4.96863E+05-4.56930E-09-2.86673E-09
 -1       772-1.19330E+06-2.24803E+05-1.56577E+04-5.15265E+05-3.35604E-09 1.50658E-09
 -1       773-1.20469E+06-2.05395E+05-6.66698E+03-4.98491E+05-2.28829E-09 1.92631E-09
 -1       774-1.18901E+06-2.21227E+05-3.27093E+03-5.16618E+05 3.01407E-09-4.30646E-10
 -1       775-1.20534E+06-2.05025E+05-1.59344E+03-4.98583E+05-1.05138E-09 4.08363E-10
 -1       776-1.18884E+06-2.21170E+05-7.50749E+02-5.17183E+05-1.62981E-09 9.46329E-10
 -1       777-1.20573E+06-2.04764E+05-4.27279E+02-4.98614E+05 7.60338E-10 5.49335E-10
 -1       778-1.18892E+06-2.21240E+05-2.01318E+02-5.17643E+05 1.25874E-09-2.39379E-09
 -1       779-1.20603E+06-2.04540E+05-1.78400E+02-4.98640E+05-1.32059E-09-1.42973E-09
 -1       780-1.18902E+06-2.21306E+05-1.56555E+02-5.18016E+05-5.15320E-09-4.91627E-09
 -1       781-1.20624E+06-2.04357E+05-2.73516E+02-4.98656E+05-3.63070E-09-6.16410E-10
 -1       782-1.18913E+06-2.21383E+05-5.21507E+02-5.18292E+05-3.92174E-09-1.95098E-09
 -1       783-1.20636E+06-2.04241E+05-1.04090E+03-4.98655E+05-5.05679E-10-2.22462E-09
 -1       784-1.18980E+06-2.22080E+05-2.47551E+03-5.18432E+05-2.73940E-09-5.88898E-11
 -1       785-1.20598E+06-2.04510E+05-4.57470E+03-4.98325E+05-5.06179E-09 6.06178E-10
 -1       786 8.71306E+04-4.65927E+03 1.07785E+04 2.10886E+00 4.22087E-08 1.49021E-09
 -1       787 9.18013E+04 5.39394E+03 7.62577E+03-8.71279E+00 8.34251E-08 5.14228E-09
 -1       788 8.89327E+04-7.30388E+02 2.78972E+03 2.59882E+00 1.35027E-07 2.77407E-09
 -1       789 8.97021E+04 8.45100E+02 1.75281E+03-1.02587E+01 1.86664E-07 2.12219E-09
 -1       790 8.92301E+04-1.14098E+02 7.13195E+02 3.65479E+00 2.68255E-07-2.21843E-09
 -1       791 8.93551E+04 1.32566E+02 4.18744E+02-1.30854E+01 3.49696E-07 4.31285E-09
 -1       792 8.92798E+04-1.83887E+01 1.91121E+02 5.42555E+00 5.01354E-07-6.40384E-09
 -1       793 8.92990E+04 2.58322E+01 1.25267E+02-1.76012E+01 6.53659E-07 2.45942E-09
 -1       794 8.92862E+04-7.43303E+00 9.28361E+01 8.17070E+00 9.58766E-07-7.44553E-09
 -1       795 8.93045E+04 3.83700E+01 1.34351E+02-2.44598E+01 1.26298E-06 4.14899E-09
 -1       796 8.92743E+04-3.09179E+01 2.01295E+02 1.22843E+01 6.31233E-07-5.72473E-09
 -1       797 8.93958E+04 2.26640E+02 4.74651E+02-3.46464E+01 2.18089E-09 3.70143E-09
 -1       798 8.91949E+04-1.95564E+02 7.49273E+02 1.83575E+01-1.30082E-10-2.05154E-09
 -1       799 8.99576E+04 1.44393E+03 2.04260E+03-4.97245E+01-5.41947E-10-1.69300E-09
 -1       800 8.87124E+04-1.24723E+03 2.88551E+03 2.73625E+01-5.46452E-11 2.60059E-09
 -1       801-4.62959E+03 9.64023E+03 8.39232E+03 9.21257E+03 5.12000E-09-2.57489E-09
 -1       802 1.28901E+04 4.06994E+04 2.47137E+04-3.79355E+04 1.37354E-08-2.61394E-09
 -1       803-8.00789E+03 1.95878E+04 3.26144E+04 8.86919E+03 1.07739E-08 8.34256E-09
 -1       804 6.29346E+04 6.65611E+04 9.02015E+04-3.82623E+04 1.27629E-08 1.09847E-08
 -1       805-5.46780E+04-1.61306E+04 1.19498E+05 9.53880E+03 4.47471E-09 1.26624E-08
 -1       806-1.02713E+05-2.19909E+04-8.72119E+03-4.27575E+04-3.14003E-10-9.29049E-10
 -1       807-1.03228E+05-2.07407E+04-4.28450E+03-4.50686E+04 4.35080E-10-4.07863E-09
 -1       808-1.02961E+05-1.88402E+04-1.81755E+03-4.42372E+04-5.48653E-10 1.39370E-09
 -1       809-1.02314E+05-1.95510E+04-8.88571E+02-4.51923E+04 6.29655E-10 1.06464E-08
 -1       810-1.03000E+05-1.87288E+04-4.06855E+02-4.43027E+04-2.71257E-10 1.89323E-09
 -1       811-1.02244E+05-1.95039E+04-2.01786E+02-4.51823E+04 1.54273E-10 1.69268E-09
 -1       812-1.03007E+05-1.87367E+04-1.00645E+02-4.43028E+04-5.90262E-10-2.88878E-09
 -1       813-1.02235E+05-1.95049E+04-6.35089E+01-4.51776E+04-4.92037E-10-1.81302E-09
 -1       814-1.03007E+05-1.87392E+04-5.94641E+01-4.43018E+04-6.24141E-10-1.57763E-09
 -1       815-1.02237E+05-1.95057E+04-9.31992E+01-4.51769E+04 4.37467E-10-1.99452E-09
 -1       816-1.03002E+05-1.87379E+04-1.74521E+02-4.43010E+04 3.30829E-10 3.00952E-09
 -1       817-1.02268E+05-1.95222E+04-3.74460E+02-4.51748E+04-1.23168E-09-4.02019E-09
 -1       818-1.02981E+05-1.87897E+04-7.63003E+02-4.42767E+04 1.24692E-09 3.02384E-09
 -1       819-1.02691E+05-1.99801E+04-1.79621E+03-4.50740E+04-4.92719E-10-2.96836E-10
 -1       820-1.02836E+05-2.01475E+04-3.65535E+03-4.36984E+04-9.54969E-11 8.91873E-11
 -1       821-1.32655E+05 7.36531E+03-1.70360E+04-7.14057E-01-5.81363E-10 1.90994E-11
 -1       822-1.40036E+05-8.52658E+03-1.20547E+04-9.44264E+01-1.81582E-09 9.27685E-11
 -1       823-1.35503E+05 1.15462E+03-4.41237E+03-2.45688E+01 6.75456E-10-5.29781E-10
 -1       824-1.36718E+05-1.33642E+03-2.77685E+03-4.33270E+01-5.22431E-10 7.16113E-09
 -1       825-1.35973E+05 1.80802E+02-1.14062E+03-5.18152E+01-1.40069E-09 1.11686E-09
 -1       826-1.36172E+05-2.13239E+02-6.90114E+02 8.75612E+00-2.33985E-09-1.50136E-09
 -1       827-1.36049E+05 3.22614E+01-3.55878E+02-7.66530E+01-2.91670E-09-1.22466E-09
 -1       828-1.36096E+05-6.51971E+01-3.16123E+02 5.08620E+01 2.91212E-08 2.06947E-09
 -1       829-1.36049E+05 3.28741E+01-3.61256E+02-9.39218E+01 9.48897E-06-5.36123E-09
 -1       830-1.36176E+05-2.18453E+02-7.06187E+02 7.42505E+01 1.88879E-05-8.97827E-09
 -1       831-1.35970E+05 1.85425E+02-1.16889E+03-1.00042E+02-1.18841E-06-1.67063E-09
 -1       832-1.36737E+05-1.37075E+03-2.84821E+03 7.42388E+01-2.12568E-05 7.21963E-09
 -1       833-1.35488E+05 1.18433E+03-4.52563E+03-9.39098E+01-1.06771E-05 1.02455E-08
 -1       834-1.40140E+05-8.74605E+03-1.23651E+04 5.16870E+01-3.46215E-08 1.27602E-09
 -1       835-1.32567E+05 7.55491E+03-1.74746E+04-7.74876E+01 1.98794E-09 2.27374E-10
 -1       836-4.42689E+02 1.25826E+05 7.57444E+03-1.10271E+04 9.54060E-10 2.97064E-09
 -1       837 1.66153E+03 1.28174E+05 6.46368E+03-2.21679E+04 1.28398E-09 2.87042E-09
 -1       838-1.65882E+02 1.26482E+05 6.66276E+03-1.09881E+04 1.23259E-09 2.34007E-09
 -1       839 4.26897E+03 1.30124E+05 1.26802E+04-2.21827E+04 1.51795E-09 1.21361E-10
 -1       840-1.28901E+03 1.23867E+05 2.02512E+04-1.10118E+04 1.10958E-09 8.37304E-10
 -1       856-4.17793E+04 3.56276E+03-9.38757E+03-1.96642E+02-1.73057E-09 3.91992E-10
 -1       857-4.56582E+04-4.17952E+03-6.46354E+03 2.15941E+03-2.30332E-09 2.94494E-09
 -1       858-4.33118E+04 4.99431E+02-2.43630E+03-2.02436E+02-1.84323E-09 6.82462E-10
 -1       859-4.38972E+04-5.82049E+02-1.47168E+03 2.16840E+03-3.43960E-10 8.69221E-10
 -1       860-4.35412E+04 6.96246E+01-6.18789E+02-2.05664E+02 5.85544E-10 1.38763E-09
 -1       861-4.36326E+04-7.85739E+01-3.44836E+02 2.17274E+03-2.20994E-09 2.25222E-09
 -1       862-4.35769E+04 9.38544E+00-1.52146E+02-2.06784E+02 3.39082E-09 1.56847E-09
 -1       863-4.35904E+04-7.60718E+00-7.54022E+01 2.17325E+03 4.50217E-09 3.69743E-09
 -1       864-4.35834E+04 1.79203E-01-2.39774E+01-2.06171E+02 2.47950E-09-1.46790E-09
 -1       865-4.35788E+04 8.63621E+00 1.31785E+01 2.17003E+03 1.97053E-09-6.87592E-09
 -1       866-4.35882E+04-6.85211E+00 4.99117E+01-2.03569E+02-3.26224E-10-2.56623E-09
 -1       867-4.35505E+04 5.81316E+01 1.37196E+02 2.16301E+03-4.21210E-11 4.10613E-09
 -1       868-4.36109E+04-4.85981E+01 2.32183E+02-1.99152E+02 2.15422E-09-6.43780E-10
 -1       869-4.33781E+04 4.04738E+02 6.22494E+02 2.15068E+03-1.04166E-11-4.81792E-09
 -1       870-4.37594E+04-3.44282E+02 9.03872E+02-1.91241E+02 4.93316E-10 7.18273E-10
 -1       871-1.92253E+03-4.01641E+03-6.30036E+03 4.13183E+04 1.39153E-09-4.22915E-10
 -1       872-8.29570E+02-5.42229E+03-2.56571E+03 5.35649E+04 2.46473E-09-1.09458E-09
 -1       873-9.84478E+00-4.75375E+03 3.76722E+02 4.12262E+04 1.26499E-09-2.20280E-09
 -1       874 9.85133E+02-3.83664E+03 3.59805E+03 5.35845E+04 2.01499E-09 1.07121E-09
 -1       875 2.32173E+03-5.61490E+03 7.97498E+03 4.13009E+04 1.20281E-09 2.01590E-09
 -1       876 1.03545E+05 1.78275E+04 5.55280E+03 4.19891E+04-2.50321E-09-1.54614E-09
 -1       877 1.03861E+05 1.90472E+04 2.96521E+03 4.36338E+04-4.23825E-09-4.29054E-10
 -1       878 1.04066E+05 1.72120E+04 1.24237E+03 4.24447E+04 1.30422E-09-1.87583E-10
 -1       879 1.03106E+05 1.82953E+04 6.18803E+02 4.36746E+04 6.98947E-10-3.04317E-09
 -1       880 1.04104E+05 1.72044E+04 2.88128E+02 4.24633E+04 1.25431E-09 1.29535E-09
 -1       881 1.03056E+05 1.82636E+04 1.53388E+02 4.36679E+04 2.41289E-09 7.05607E-09
 -1       882 1.04109E+05 1.72084E+04 9.74016E+01 4.24639E+04 3.27555E-09 2.20878E-09
 -1       883 1.03053E+05 1.82622E+04 1.03482E+02 4.36663E+04 1.41677E-09 5.40155E-10
 -1       884 1.04107E+05 1.72071E+04 1.63547E+02 4.24639E+04 8.14850E-11 6.42075E-10
 -1       885 1.03066E+05 1.82646E+04 3.28160E+02 4.36706E+04 2.89067E-09-1.98436E-09
 -1       886 1.04094E+05 1.71975E+04 6.61122E+02 4.24627E+04 2.30084E-09 3.76798E-09
 -1       887 1.03182E+05 1.83407E+04 1.44409E+03 4.36870E+04-2.13713E-09-1.06735E-09
 -1       888 1.04003E+05 1.72139E+04 2.90995E+03 4.24165E+04 8.26603E-10-9.13587E-10
 -1       889 1.04916E+05 2.01410E+04 6.95198E+03 4.36312E+04 2.79172E-10 1.62515E-09
 -1       890 1.02816E+05 1.86231E+04 1.30202E+04 4.13074E+04 5.01245E-10-1.66119E-09
 -1       891-6.07222E+01-5.89030E+04-6.92529E+02 1.12056E+04-7.52209E-10-4.20982E-10
 -1       892-1.06025E+02-5.90722E+04-7.54760E+02 1.69623E+04-7.70910E-10-1.88334E-09
 -1       893-1.27655E+01-5.89271E+04-1.07941E+03 1.12075E+04-6.98037E-11 2.17165E-09
 -1       894-5.81504E+02-5.94933E+04-2.24273E+03 1.69027E+04-1.01249E-09-1.67029E-09
 -1       895-4.51998E+02-5.84658E+04-3.95127E+03 1.12647E+04 4.95447E-10 1.99907E-09
 -1       956-1.30021E+05-1.87586E+03-4.72171E+03 8.59139E+03-2.39743E-09-1.54108E-09
 -1       957-1.30953E+05-6.34305E+02-2.42415E+03 1.03397E+04-5.31145E-10-4.23029E-09
 -1       958-1.30437E+05-5.18666E+01-1.09196E+03 8.53588E+03 1.43928E-09-2.09286E-09
 -1       959-1.30510E+05-1.19043E+01-5.57858E+02 1.03998E+04-4.36103E-10 2.48292E-09
 -1       960-1.30472E+05 1.27556E+01-2.71816E+02 8.53089E+03-1.75532E-09 1.73543E-09
 -1       961-1.30476E+05 1.02527E+01-1.44180E+02 1.04053E+04-3.70494E-09-3.49360E-10
 -1       962-1.30478E+05 9.81144E+00-8.22854E+01 8.53031E+03-1.92938E-09 5.22277E-10
 -1       963-1.30473E+05 1.00461E+01-6.57060E+01 1.04061E+04-2.05864E-09 1.71383E-10
 -1       964-1.30479E+05 1.02346E+01-7.92393E+01 8.53010E+03-3.38616E-10-3.26037E-09
 -1       965-1.30477E+05 1.12464E+01-1.36490E+02 1.04060E+04 1.58061E-09-4.13337E-09
 -1       966-1.30475E+05 1.39764E+01-2.55886E+02 8.53035E+03-1.49680E-09-2.06177E-09
 -1       967-1.30511E+05-8.54965E+00-5.24658E+02 1.04029E+04 1.27557E-10 1.01130E-09
 -1       968-1.30444E+05-4.58013E+01-1.02652E+03 8.53323E+03-2.48178E-10 2.35701E-10
 -1       969-1.30929E+05-5.92810E+02-2.27914E+03 1.03679E+04 5.77643E-10 6.06093E-10
 -1       970-1.30053E+05-1.76005E+03-4.43901E+03 8.56610E+03 7.78982E-10 1.37743E-09
 -1       971-1.23605E+05-6.54559E+02-3.63952E+03 6.10461E+03-2.14868E-09-2.47410E-09
 -1       972-1.24490E+05-4.71660E+02-1.98243E+03 8.51320E+03-7.44876E-10 3.40492E-09
 -1       973-1.24007E+05-5.80894E+00-8.87302E+02 6.05519E+03-2.04409E-09 3.04146E-09
 -1       974-1.24067E+05-8.42335E+00-4.59823E+02 8.56605E+03-9.48944E-10 4.01371E-10
 -1       975-1.24036E+05 9.57813E+00-2.29100E+02 6.05142E+03-9.34506E-11-2.04977E-10
 -1       976-1.24040E+05 9.15567E+00-1.31259E+02 8.57033E+03-1.28756E-09-3.66117E-09
 -1       977-1.24041E+05 8.38649E+00-9.33561E+01 6.05089E+03 2.83478E-09 4.98517E-10
 -1       978-1.24039E+05 1.04106E+01-1.06796E+02 8.57106E+03 7.66630E-09 2.30045E-10
 -1       979-1.24040E+05 1.07549E+01-1.69350E+02 6.05069E+03 2.68074E-09 4.13081E-10
 -1       980-1.24051E+05 1.12242E+01-3.25593E+02 8.57110E+03 1.28242E-09-1.98872E-09
 -1       981-1.24030E+05 1.89328E+01-6.29761E+02 6.05084E+03-1.58195E-10-9.15151E-10
 -1       982-1.24139E+05-3.48459E+01-1.30123E+03 8.56891E+03-1.07082E-09-3.80895E-09
 -1       983-1.23952E+05-2.06704E+01-2.52786E+03 6.05294E+03 1.41404E-09 1.74794E-10
 -1       984-1.25356E+05-1.35378E+03-5.66060E+03 8.53537E+03-8.38554E-10 1.41517E-09
 -1       985-1.22809E+05-1.86962E+03-1.03946E+04 6.08576E+03 1.77829E-09 3.73302E-09
 -3
    1PSTEP                         5           3           1          
  100CL  103 4.37500E-01         409                     0    3           1
 -4  DISP        4    1
 -5  D1          1    2    1    0
 -5  D2          1    2    2    0
 -5  D3          1    2    3    0
 -5  ALL         1    2    0    0    1ALL
 -1         1 1.15100E-04 0.00000E+00 0.00000E+00
 -1         2 1.06035E-04-8.37698E-30 0.00000E+00
 -1         3 9.88485E-05 8.94831E-28 6.61744E-24
 -1         5 7.07573E-05 7.13855E-27 0.00000E+00
 -1         8 9.20348E-05-8.40941E-07 0.00000E+00
 -1         9 9.34503E-05 5.52283E-07 0.00000E+00
 -1        10 9.15394E-05-1.35007E-06 0.00000E+00
 -1        12 7.02741E-05 4.77351E-07-1.65436E-24
 -1        15 6.45792E-05-9.23944E-07 0.00000E+00
 -1        16 6.68091E-05 4.19768E-07 0.00000E+00
 -1        17 6.81321E-05-2.84613E-06 0.00000E+00
 -1        18 6.79017E-05 3.67668E-07 0.00000E+00
 -1        19 6.88248E-05 9.52057E-07 0.00000E+00
 -1        20 6.89484E-05 1.39668E-05 0.00000E+00
 -1        21 6.84812E-05 2.63778E-05 0.00000E+00
 -1        24 1.72995E-05-3.85774E-06 0.00000E+00
 -1        25 6.63821E-05 4.77358E-07 0.00000E+00
 -1        26 6.72519E-05 1.32643E-06 0.00000E+00
 -1        27 6.59313E-05 1.18450E-05 0.00000E+00
 -1        28 6.55050E-05 2.59702E-05 0.00000E+00
 -1        32 0.00000E+00 0.00000E+00 0.00000E+00
 -1        33 6.45416E-05 1.77855E-06 0.00000E+00
 -1        34 6.32656E-05 1.18259E-05 0.00000E+00
 -1        35 6.20524E-05 2.57549E-05 0.00000E+00
 -1        51 1.13600E-04-1.38278E-07 0.00000E+00
 -1        52 1.10820E-04-2.72995E-07 0.00000E+00
 -1        53 1.07011E-04-4.09043E-07 0.00000E+00
 -1        54 1.02436E-04-5.47745E-07-3.30872E-24
 -1        55 9.73559E-05-6.89803E-07-6.41065E-24
 -1        56 1.14061E-04-6.84106E-07 2.64698E-23
 -1        57 1.13159E-04-1.85263E-06 1.32349E-23
 -1        58 1.12391E-04-3.37030E-06 2.64698E-23
 -1        59 1.11698E-04-5.11061E-06 0.00000E+00
 -1        60 1.11033E-04-6.92900E-06-2.64698E-23
 -1        61 1.10343E-04-8.68152E-06 0.00000E+00
 -1        62 1.09576E-04-1.02274E-05-2.64698E-23
 -1        63 1.08680E-04-1.14319E-05 0.00000E+00
 -1        64 1.07614E-04-1.21795E-05 0.00000E+00
 -1        65 1.06337E-04-1.23670E-05 0.00000E+00
 -1        66 1.04824E-04-1.19229E-05 0.00000E+00
 -1        67 1.03053E-04-1.07927E-05-1.32349E-23
 -1        68 1.01018E-04-8.96096E-06 0.00000E+00
 -1        69 9.87259E-05-6.42902E-06 1.32349E-23
 -1        70 9.61832E-05-3.24240E-06 0.00000E+00
 -1        86 1.05711E-04 9.95022E-08 0.00000E+00
 -1        87 1.04738E-04 1.98084E-07 0.00000E+00
 -1        88 1.03079E-04 2.95721E-07 1.65436E-24
 -1        89 1.00697E-04 3.88719E-07 0.00000E+00
 -1        90 9.75140E-05 4.80658E-07 3.30872E-24
 -1       121 9.86446E-05-2.23998E-07 6.61744E-24
 -1       122 9.80331E-05-4.48160E-07-3.30872E-24
 -1       123 9.70150E-05-6.72650E-07 6.61744E-24
 -1       124 9.55918E-05-8.97665E-07 3.30872E-24
 -1       125 9.37656E-05-1.12330E-06 0.00000E+00
 -1       191 7.07439E-05 7.95653E-08 0.00000E+00
 -1       192 7.07036E-05 1.59129E-07 0.00000E+00
 -1       193 7.06365E-05 2.38692E-07-3.30872E-24
 -1       194 7.05426E-05 3.18251E-07 0.00000E+00
 -1       195 7.04218E-05 3.97805E-07 0.00000E+00
 -1       251 9.21022E-05 2.94089E-06-3.30872E-24
 -1       252 9.21906E-05 5.16261E-06 0.00000E+00
 -1       253 9.22801E-05 6.10223E-06 0.00000E+00
 -1       254 9.23730E-05 6.03250E-06 8.27181E-25
 -1       255 9.24658E-05 5.17641E-06 0.00000E+00
 -1       256 9.25585E-05 3.75388E-06 0.00000E+00
 -1       257 9.26508E-05 1.95667E-06-3.30872E-24
 -1       258 9.27428E-05-2.49127E-08-1.65436E-24
 -1       259 9.28349E-05-2.00978E-06 0.00000E+00
 -1       260 9.29271E-05-3.81681E-06 1.65436E-24
 -1       261 9.30198E-05-5.25602E-06 0.00000E+00
 -1       262 9.31125E-05-6.13607E-06 0.00000E+00
 -1       263 9.32055E-05-6.23775E-06 0.00000E+00
 -1       264 9.32948E-05-5.33884E-06-2.06795E-25
 -1       265 9.33833E-05-3.16773E-06-3.30872E-24
 -1       266 8.74589E-05-8.66112E-07 6.61744E-24
 -1       267 8.28830E-05-8.78564E-07 0.00000E+00
 -1       268 7.83070E-05-8.91822E-07 1.65436E-24
 -1       269 7.37311E-05-9.02693E-07 0.00000E+00
 -1       270 6.91551E-05-9.13508E-07 0.00000E+00
 -1       271 8.92470E-05 2.58340E-06 2.64698E-23
 -1       272 8.68744E-05 4.77845E-06 0.00000E+00
 -1       273 8.49139E-05 5.88643E-06 0.00000E+00
 -1       274 8.33014E-05 6.04867E-06 0.00000E+00
 -1       275 8.19819E-05 5.42890E-06-5.29396E-23
 -1       276 8.08885E-05 4.20179E-06 0.00000E+00
 -1       277 7.99523E-05 2.55367E-06 0.00000E+00
 -1       278 7.91011E-05 6.77791E-07 0.00000E+00
 -1       279 7.82611E-05-1.22843E-06-5.29396E-23
 -1       280 7.73586E-05-2.96698E-06-2.64698E-23
 -1       281 7.63208E-05-4.34307E-06-5.29396E-23
 -1       282 7.50774E-05-5.16795E-06 2.64698E-23
 -1       283 7.35608E-05-5.26322E-06 0.00000E+00
 -1       284 7.17122E-05-4.46134E-06 1.32349E-23
 -1       285 6.94682E-05-2.61458E-06 0.00000E+00
 -1       301 8.89108E-05 5.24533E-07 0.00000E+00
 -1       302 8.43795E-05 5.10447E-07 0.00000E+00
 -1       303 7.98799E-05 4.96838E-07 0.00000E+00
 -1       304 7.54358E-05 4.81835E-07-3.30872E-24
 -1       305 7.10711E-05 4.64863E-07 0.00000E+00
 -1       306 9.05670E-05 3.93013E-06 0.00000E+00
 -1       307 8.81075E-05 6.04710E-06 1.32349E-23
 -1       308 8.61469E-05 6.85047E-06 0.00000E+00
 -1       309 8.46773E-05 6.32197E-06 2.64698E-23
 -1       310 8.36424E-05 4.63198E-06 0.00000E+00
 -1       311 8.29581E-05 1.99800E-06 2.64698E-23
 -1       312 8.24957E-05-1.23211E-06-5.29396E-23
 -1       313 8.21160E-05-4.68511E-06 0.00000E+00
 -1       314 8.16687E-05-7.95663E-06 5.29396E-23
 -1       315 8.10066E-05-1.06502E-05-2.64698E-23
 -1       316 8.00110E-05-1.24495E-05 0.00000E+00
 -1       317 7.85785E-05-1.30766E-05 0.00000E+00
 -1       318 7.66620E-05-1.24146E-05 0.00000E+00
 -1       319 7.42458E-05-1.03991E-05 0.00000E+00
 -1       320 7.13619E-05-7.15786E-06-2.64698E-23
 -1       336 8.88636E-05-1.59561E-06 0.00000E+00
 -1       337 8.56888E-05-1.84288E-06 3.30872E-24
 -1       338 8.20208E-05-2.09170E-06 0.00000E+00
 -1       339 7.78665E-05-2.34199E-06 0.00000E+00
 -1       340 7.32339E-05-2.59434E-06 0.00000E+00
 -1       406 7.00996E-05 5.56883E-07 0.00000E+00
 -1       407 6.98983E-05 6.36384E-07-1.65436E-24
 -1       408 6.96700E-05 7.15832E-07-3.30872E-24
 -1       409 6.94150E-05 7.95126E-07 0.00000E+00
 -1       410 6.91332E-05 8.74112E-07 3.30872E-24
 -1       521 6.34274E-05 1.27947E-06 0.00000E+00
 -1       522 6.16761E-05-2.48066E-06 0.00000E+00
 -1       523 6.13886E-05-1.01794E-05-1.05879E-22
 -1       524 6.21804E-05-2.08736E-05 0.00000E+00
 -1       525 6.34975E-05-3.30116E-05 0.00000E+00
 -1       526 6.47339E-05-4.49360E-05-5.29396E-23
 -1       527 6.53033E-05-5.50314E-05 1.05879E-22
 -1       528 6.46600E-05-6.18238E-05 5.29396E-23
 -1       529 6.24890E-05-6.44997E-05 1.05879E-22
 -1       530 5.85838E-05-6.25592E-05 5.29396E-23
 -1       531 5.30817E-05-5.64201E-05 1.05879E-22
 -1       532 4.62491E-05-4.68149E-05 5.29396E-23
 -1       533 3.86234E-05-3.51621E-05-1.05879E-22
 -1       534 3.08268E-05-2.30252E-05 0.00000E+00
 -1       535 2.34859E-05-1.20773E-05-5.29396E-23
 -1       536 6.81011E-05 2.11107E-06 0.00000E+00
 -1       537 6.80801E-05 6.31818E-06-8.27181E-25
 -1       538 6.80617E-05 9.68550E-06 0.00000E+00
 -1       539 6.80472E-05 1.21239E-05 0.00000E+00
 -1       540 6.80345E-05 1.36351E-05-4.13590E-25
 -1       541 6.80229E-05 1.42216E-05-2.06795E-25
 -1       542 6.80116E-05 1.39758E-05 4.13590E-25
 -1       543 6.79998E-05 1.29906E-05 0.00000E+00
 -1       544 6.79874E-05 1.14308E-05 0.00000E+00
 -1       545 6.79743E-05 9.46145E-06 2.06795E-25
 -1       546 6.79609E-05 7.28761E-06 0.00000E+00
 -1       547 6.79475E-05 5.11435E-06 0.00000E+00
 -1       548 6.79345E-05 3.14668E-06 0.00000E+00
 -1       549 6.79225E-05 1.58956E-06-2.58494E-26
 -1       550 6.79111E-05 6.08252E-07 0.00000E+00
 -1       551 6.14043E-05-2.99801E-06 3.30872E-24
 -1       552 5.33578E-05-3.15648E-06-1.65436E-24
 -1       553 4.44552E-05-3.32179E-06-6.61744E-24
 -1       554 3.51657E-05-3.49260E-06 3.30872E-24
 -1       555 2.59586E-05-3.66525E-06 0.00000E+00
 -1       556 6.63616E-05 1.73814E-06 0.00000E+00
 -1       557 6.50075E-05 5.24641E-06 0.00000E+00
 -1       558 6.40241E-05 7.77759E-06 0.00000E+00
 -1       559 6.33702E-05 9.43842E-06 0.00000E+00
 -1       560 6.30042E-05 1.03354E-05 0.00000E+00
 -1       561 6.28852E-05 1.05757E-05 0.00000E+00
 -1       562 6.29725E-05 1.02664E-05 0.00000E+00
 -1       563 6.32255E-05 9.51502E-06 0.00000E+00
 -1       564 6.36038E-05 8.42883E-06 0.00000E+00
 -1       565 6.40671E-05 7.11532E-06 0.00000E+00
 -1       566 6.45752E-05 5.68199E-06 0.00000E+00
 -1       567 6.50879E-05 4.23637E-06 4.13590E-25
 -1       568 6.55650E-05 2.88594E-06 0.00000E+00
 -1       569 6.59664E-05 1.73809E-06 0.00000E+00
 -1       570 6.62519E-05 9.00225E-07 0.00000E+00
 -1       571 6.79578E-05 4.40531E-07 1.24077E-24
 -1       572 6.80150E-05 4.75190E-07 8.27181E-25
 -1       573 6.80726E-05 4.78457E-07 1.65436E-24
 -1       574 6.81304E-05 4.57503E-07-4.13590E-25
 -1       575 6.81883E-05 4.19531E-07-1.65436E-24
 -1       576 6.82462E-05 3.71788E-07 8.27181E-25
 -1       577 6.83040E-05 3.21530E-07-1.65436E-24
 -1       578 6.83619E-05 2.76016E-07 8.27181E-25
 -1       579 6.84198E-05 2.42507E-07 0.00000E+00
 -1       580 6.84777E-05 2.28263E-07 0.00000E+00
 -1       581 6.85356E-05 2.40545E-07-3.30872E-24
 -1       582 6.85935E-05 2.86605E-07 0.00000E+00
 -1       583 6.86514E-05 3.73686E-07 3.30872E-24
 -1       584 6.87093E-05 5.08962E-07-3.30872E-24
 -1       585 6.87671E-05 6.99560E-07 0.00000E+00
 -1       586 6.76289E-05 3.87092E-07-8.27181E-25
 -1       587 6.73315E-05 4.06025E-07 0.00000E+00
 -1       588 6.70337E-05 4.24747E-07 0.00000E+00
 -1       589 6.67600E-05 4.43172E-07 0.00000E+00
 -1       590 6.65349E-05 4.61097E-07 0.00000E+00
 -1       591 6.78475E-05 4.70083E-07 5.16988E-26
 -1       592 6.78028E-05 5.40997E-07 0.00000E+00
 -1       593 6.77675E-05 5.86405E-07 0.00000E+00
 -1       594 6.77394E-05 6.11705E-07 2.06795E-25
 -1       595 6.77168E-05 6.22371E-07 0.00000E+00
 -1       596 6.76976E-05 6.23831E-07 2.06795E-25
 -1       597 6.76798E-05 6.21513E-07 0.00000E+00
 -1       598 6.76614E-05 6.20842E-07 0.00000E+00
 -1       599 6.76404E-05 6.27239E-07 4.13590E-25
 -1       600 6.76146E-05 6.46129E-07 2.06795E-25
 -1       601 6.75822E-05 6.82933E-07-4.13590E-25
 -1       602 6.75410E-05 7.43080E-07 1.03398E-25
 -1       603 6.74891E-05 8.31999E-07 3.10193E-25
 -1       604 6.74247E-05 9.55160E-07-5.16988E-26
 -1       605 6.73456E-05 1.11796E-06 0.00000E+00
 -1       606 6.88355E-05 1.33635E-06 0.00000E+00
 -1       607 6.88441E-05 1.80306E-06 0.00000E+00
 -1       608 6.88522E-05 2.34735E-06 0.00000E+00
 -1       609 6.88600E-05 2.96375E-06 1.65436E-24
 -1       610 6.88677E-05 3.64679E-06 0.00000E+00
 -1       611 6.88753E-05 4.39092E-06 0.00000E+00
 -1       612 6.88828E-05 5.19055E-06 0.00000E+00
 -1       613 6.88903E-05 6.04014E-06 0.00000E+00
 -1       614 6.88977E-05 6.93412E-06 0.00000E+00
 -1       615 6.89051E-05 7.86689E-06 0.00000E+00
 -1       616 6.89124E-05 8.83292E-06 0.00000E+00
 -1       617 6.89198E-05 9.82662E-06 0.00000E+00
 -1       618 6.89271E-05 1.08424E-05 0.00000E+00
 -1       619 6.89343E-05 1.18748E-05 0.00000E+00
 -1       620 6.89415E-05 1.29181E-05 0.00000E+00
 -1       621 6.85218E-05 1.01449E-06 0.00000E+00
 -1       622 6.82416E-05 1.07724E-06 8.27181E-25
 -1       623 6.79794E-05 1.13997E-06 0.00000E+00
 -1       624 6.77303E-05 1.20261E-06 0.00000E+00
 -1       625 6.74895E-05 1.26514E-06 0.00000E+00
 -1       626 6.87474E-05 1.35600E-06 0.00000E+00
 -1       627 6.86450E-05 1.82814E-06 0.00000E+00
 -1       628 6.85195E-05 2.36216E-06 0.00000E+00
 -1       629 6.83733E-05 2.95130E-06 3.30872E-24
 -1       630 6.82090E-05 3.58879E-06 0.00000E+00
 -1       631 6.80290E-05 4.26783E-06 0.00000E+00
 -1       632 6.78361E-05 4.98159E-06 0.00000E+00
 -1       633 6.76326E-05 5.72329E-06 0.00000E+00
 -1       634 6.74212E-05 6.48611E-06 3.30872E-24
 -1       635 6.72044E-05 7.26323E-06 0.00000E+00
 -1       636 6.69848E-05 8.04785E-06 0.00000E+00
 -1       637 6.67649E-05 8.83317E-06-8.27181E-25
 -1       638 6.65473E-05 9.61236E-06 0.00000E+00
 -1       639 6.63343E-05 1.03786E-05-8.27181E-25
 -1       640 6.61285E-05 1.11251E-05-1.65436E-24
 -1       656 6.80779E-05 1.36215E-05-6.61744E-24
 -1       657 6.75167E-05 1.32625E-05 0.00000E+00
 -1       658 6.71470E-05 1.29046E-05-6.61744E-24
 -1       659 6.68483E-05 1.25470E-05 0.00000E+00
 -1       660 6.64871E-05 1.21883E-05 3.30872E-24
 -1       661 6.86267E-05 1.49940E-05 8.27181E-25
 -1       662 6.83243E-05 1.59767E-05-8.27181E-25
 -1       663 6.80382E-05 1.69160E-05 1.65436E-24
 -1       664 6.77680E-05 1.78141E-05 0.00000E+00
 -1       665 6.75127E-05 1.86726E-05 0.00000E+00
 -1       666 6.72717E-05 1.94934E-05 0.00000E+00
 -1       667 6.70442E-05 2.02783E-05 0.00000E+00
 -1       668 6.68296E-05 2.10289E-05 0.00000E+00
 -1       669 6.66273E-05 2.17466E-05-1.65436E-24
 -1       670 6.64367E-05 2.24331E-05 0.00000E+00
 -1       671 6.62573E-05 2.30898E-05 0.00000E+00
 -1       672 6.60885E-05 2.37181E-05 8.27181E-25
 -1       673 6.59298E-05 2.43192E-05 0.00000E+00
 -1       674 6.57802E-05 2.48942E-05-4.13590E-25
 -1       675 6.56401E-05 2.54446E-05 0.00000E+00
 -1       676 6.79841E-05 2.63095E-05 1.65436E-24
 -1       677 6.74871E-05 2.62411E-05-8.27181E-25
 -1       678 6.69905E-05 2.61729E-05-1.65436E-24
 -1       679 6.64945E-05 2.61048E-05 0.00000E+00
 -1       680 6.59993E-05 2.60367E-05 1.65436E-24
 -1       771 1.38134E-05 2.76741E-06-2.64698E-23
 -1       772 1.07763E-05 8.19218E-06-1.32349E-23
 -1       773 8.17003E-06 1.24837E-05 0.00000E+00
 -1       774 5.96579E-06 1.57135E-05 0.00000E+00
 -1       775 4.13550E-06 1.79544E-05 2.64698E-23
 -1       776 2.64976E-06 1.92821E-05 0.00000E+00
 -1       777 1.47884E-06 1.97734E-05 2.64698E-23
 -1       778 5.92351E-07 1.95073E-05 1.32349E-23
 -1       779-4.02977E-08 1.85640E-05 0.00000E+00
 -1       780-4.50242E-07 1.70254E-05 0.00000E+00
 -1       781-6.68728E-07 1.49743E-05 0.00000E+00
 -1       782-7.27405E-07 1.24949E-05-1.32349E-23
 -1       783-6.57995E-07 9.67177E-06 2.64698E-23
 -1       784-4.92428E-07 6.59076E-06 0.00000E+00
 -1       785-2.62760E-07 3.33788E-06 0.00000E+00
 -1       786 6.64333E-05 4.65728E-07 0.00000E+00
 -1       787 6.64875E-05 4.57875E-07-4.13590E-25
 -1       788 6.65416E-05 4.53817E-07-1.65436E-24
 -1       789 6.65962E-05 4.53585E-07 8.27181E-25
 -1       790 6.66508E-05 4.57688E-07 1.65436E-24
 -1       791 6.67055E-05 4.66645E-07 8.27181E-25
 -1       792 6.67603E-05 4.81590E-07 0.00000E+00
 -1       793 6.68151E-05 5.03668E-07-8.27181E-25
 -1       794 6.68699E-05 5.34923E-07 0.00000E+00
 -1       795 6.69246E-05 5.77421E-07 0.00000E+00
 -1       796 6.69794E-05 6.34645E-07 0.00000E+00
 -1       797 6.70342E-05 7.10112E-07 0.00000E+00
 -1       798 6.70889E-05 8.09636E-07 0.00000E+00
 -1       799 6.71435E-05 9.39089E-07 0.00000E+00
 -1       800 6.71981E-05 1.10811E-06 0.00000E+00
 -1       801 6.18979E-05 4.71119E-07 0.00000E+00
 -1       802 4.85335E-05 3.88778E-07 8.27181E-25
 -1       803 3.09795E-05 2.47346E-07 3.30872E-24
 -1       804 1.39251E-05 1.07952E-07 0.00000E+00
 -1       805 2.03987E-06 3.82848E-08 1.32349E-23
 -1       806 6.63195E-05 4.27580E-07-1.65436E-24
 -1       807 6.62541E-05 3.78027E-07-8.27181E-25
 -1       808 6.61864E-05 3.32961E-07 1.65436E-24
 -1       809 6.61155E-05 2.95994E-07 8.27181E-25
 -1       810 6.60400E-05 2.70735E-07 1.65436E-24
 -1       811 6.59588E-05 2.60735E-07-8.27181E-25
 -1       812 6.58705E-05 2.69545E-07-1.65436E-24
 -1       813 6.57738E-05 3.00705E-07 0.00000E+00
 -1       814 6.56674E-05 3.57755E-07 0.00000E+00
 -1       815 6.55500E-05 4.44228E-07 0.00000E+00
 -1       816 6.54202E-05 5.63659E-07 0.00000E+00
 -1       817 6.52767E-05 7.19580E-07 0.00000E+00
 -1       818 6.51183E-05 9.15521E-07 1.65436E-24
 -1       819 6.49436E-05 1.15500E-06-8.27181E-25
 -1       820 6.47515E-05 1.44153E-06 0.00000E+00
 -1       821 6.71742E-05 1.57106E-06-8.27181E-25
 -1       822 6.70916E-05 1.81957E-06 0.00000E+00
 -1       823 6.70094E-05 2.10314E-06 0.00000E+00
 -1       824 6.69263E-05 2.45285E-06 0.00000E+00
 -1       825 6.68431E-05 2.88830E-06-3.30872E-24
 -1       826 6.67597E-05 3.42877E-06-1.65436E-24
 -1       827 6.66761E-05 4.07534E-06 0.00000E+00
 -1       828 6.65925E-05 4.82868E-06 1.65436E-24
 -1       829 6.65089E-05 5.67098E-06 3.30872E-24
 -1       830 6.64251E-05 6.58407E-06 0.00000E+00
 -1       831 6.63414E-05 7.53753E-06 3.30872E-24
 -1       832 6.62579E-05 8.50078E-06-8.27181E-25
 -1       833 6.61744E-05 9.44152E-06 0.00000E+00
 -1       834 6.60918E-05 1.03276E-05 0.00000E+00
 -1       835 6.60091E-05 1.11362E-05 8.27181E-25
 -1       836 6.69265E-05 1.40170E-06 0.00000E+00
 -1       837 6.65017E-05 1.47863E-06 8.27181E-25
 -1       838 6.60140E-05 1.55542E-06 0.00000E+00
 -1       839 6.55003E-05 1.63171E-06 0.00000E+00
 -1       840 6.49973E-05 1.70788E-06-2.06795E-25
 -1       856 6.59076E-05 1.25522E-05 0.00000E+00
 -1       857 6.58813E-05 1.33503E-05 0.00000E+00
 -1       858 6.58551E-05 1.42248E-05-4.13590E-25
 -1       859 6.58283E-05 1.51614E-05 0.00000E+00
 -1       860 6.58014E-05 1.61457E-05 0.00000E+00
 -1       861 6.57745E-05 1.71631E-05 0.00000E+00
 -1       862 6.57475E-05 1.81992E-05 8.27181E-25
 -1       863 6.57204E-05 1.92394E-05 0.00000E+00
 -1       864 6.56934E-05 2.02692E-05 0.00000E+00
 -1       865 6.56664E-05 2.12740E-05-4.13590E-25
 -1       866 6.56394E-05 2.22394E-05 0.00000E+00
 -1       867 6.56125E-05 2.31509E-05 4.13590E-25
 -1       868 6.55856E-05 2.39940E-05-8.27181E-25
 -1       869 6.55588E-05 2.47544E-05 4.13590E-25
 -1       870 6.55320E-05 2.54178E-05-8.27181E-25
 -1       871 6.53947E-05 1.18443E-05-4.13590E-25
 -1       872 6.49453E-05 1.18417E-05 0.00000E+00
 -1       873 6.45456E-05 1.18389E-05 0.00000E+00
 -1       874 6.41577E-05 1.18356E-05 2.06795E-25
 -1       875 6.37435E-05 1.18319E-05-6.20385E-25
 -1       876 6.57453E-05 1.25598E-05-1.65436E-24
 -1       877 6.55446E-05 1.33188E-05 0.00000E+00
 -1       878 6.53295E-05 1.41166E-05 0.00000E+00
 -1       879 6.51018E-05 1.49482E-05 0.00000E+00
 -1       880 6.48633E-05 1.58087E-05 0.00000E+00
 -1       881 6.46159E-05 1.66931E-05 0.00000E+00
 -1       882 6.43614E-05 1.75964E-05 0.00000E+00
 -1       883 6.41017E-05 1.85136E-05 0.00000E+00
 -1       884 6.38386E-05 1.94398E-05 0.00000E+00
 -1       885 6.35740E-05 2.03700E-05-8.27181E-25
 -1       886 6.33097E-05 2.12992E-05 0.00000E+00
 -1       887 6.30476E-05 2.22224E-05-8.27181E-25
 -1       888 6.27894E-05 2.31348E-05-1.65436E-24
 -1       889 6.25368E-05 2.40311E-05 0.00000E+00
 -1       890 6.22917E-05 2.49066E-05 8.27181E-25
 -1       891 6.50285E-05 2.59341E-05-8.27181E-25
 -1       892 6.45363E-05 2.58980E-05 0.00000E+00
 -1       893 6.40106E-05 2.58619E-05-8.27181E-25
 -1       894 6.34333E-05 2.58259E-05-2.06795E-25
 -1       895 6.27864E-05 2.57899E-05-6.20385E-25
 -1       956 6.44633E-05 2.21870E-06 1.65436E-24
 -1       957 6.43838E-05 2.71002E-06-8.27181E-25
 -1       958 6.43040E-05 3.24720E-06 0.00000E+00
 -1       959 6.42241E-05 3.82459E-06 0.00000E+00
 -1       960 6.41441E-05 4.43657E-06 1.65436E-24
 -1       961 6.40640E-05 5.07745E-06 0.00000E+00
 -1       962 6.39840E-05 5.74154E-06 1.65436E-24
 -1       963 6.39039E-05 6.42318E-06 0.00000E+00
 -1       964 6.38238E-05 7.11668E-06-1.65436E-24
 -1       965 6.37437E-05 7.81633E-06 0.00000E+00
 -1       966 6.36636E-05 8.51648E-06 0.00000E+00
 -1       967 6.35835E-05 9.21142E-06-4.96308E-24
 -1       968 6.35035E-05 9.89547E-06 0.00000E+00
 -1       969 6.34237E-05 1.05630E-05-1.65436E-24
 -1       970 6.33440E-05 1.12083E-05 0.00000E+00
 -1       971 6.31907E-05 1.24605E-05 0.00000E+00
 -1       972 6.31149E-05 1.31625E-05-8.27181E-25
 -1       973 6.30389E-05 1.39244E-05-1.65436E-24
 -1       974 6.29627E-05 1.47386E-05 8.27181E-25
 -1       975 6.28865E-05 1.55972E-05-1.65436E-24
 -1       976 6.28102E-05 1.64925E-05 0.00000E+00
 -1       977 6.27339E-05 1.74167E-05 0.00000E+00
 -1       978 6.26576E-05 1.83621E-05 0.00000E+00
 -1       979 6.25812E-05 1.93209E-05 0.00000E+00
 -1       980 6.25049E-05 2.02853E-05 8.27181E-25
 -1       981 6.24286E-05 2.12476E-05 0.00000E+00
 -1       982 6.23524E-05 2.21999E-05 1.65436E-24
 -1       983 6.22763E-05 2.31345E-05 0.00000E+00
 -1       984 6.22005E-05 2.40437E-05 0.00000E+00
 -1       985 6.21250E-05 2.49197E-05-1.65436E-24
 -3
    1PSTEP                         6           3           1          
  100CL  103 4.37500E-01         409                     0    3           1
 -4  STRESS      6    1
 -5  SXX         1    4    1    1
 -5  SYY         1    4    2    2
 -5  SZZ         1    4    3    3
 -5  SXY         1    4    1    2
 -5  SYZ         1    4    2    3
 -5  SZX         1    4    3    1
 -1         1-1.51360E+06-6.93919E+05-3.09481E+05-9.77837E+05 2.11003E-10 3.21597E-09
 -1         2 2.53712E+03 2.88199E+05 8.31195E+03 7.95219E+02-1.60611E-10 7.80938E-09
 -1         3-6.83904E+01-6.39962E+05 1.49553E+02-2.08070E+02-1.93353E-10 1.34978E-08
 -1         5-5.70488E+00 2.27665E+05 5.96390E+00 8.04433E-02 1.02327E-10 9.02583E-09
 -1         8-7.12460E+05-3.09482E+05-2.47033E+04-5.38004E+05 7.82165E-11-1.49157E-09
 -1         9-1.22477E+06-3.11890E+05-1.20794E+05-4.18385E+05 3.11411E-09-4.07454E-09
 -1        10-5.08415E+02-6.66704E+05-8.58714E+02-1.40164E+03-3.04999E-09 5.24011E-10
 -1        12-3.26048E+00 2.27678E+05 1.93416E+02 8.16844E-01 1.84844E-10 7.79437E-10
 -1        15 1.87842E+03 1.03230E+03 6.07199E+03 3.71703E+00 9.20863E-12 4.94064E-09
 -1        16-3.42638E+06-1.11313E+06-5.34478E+05-1.13214E+06 1.02106E-08 1.88205E-09
 -1        17-7.63241E+05-4.66266E+05-1.46500E+05-4.36322E+05-6.85832E-09-8.81846E-10
 -1        18 2.03529E+04 8.55686E+02-1.24416E+04-5.33445E+04 8.03652E-10-3.17414E-10
 -1        19 7.13216E+04 8.50545E+04-3.99666E+02 1.39583E+04-5.52063E-10 2.36723E-09
 -1        20-2.96995E+04-3.37018E+05-7.43331E+04 2.48774E+04 2.76365E-09 9.97109E-10
 -1        21-3.18369E+01-1.95347E+05-6.30959E+02-6.66159E+01-6.68032E-09-1.21962E-08
 -1        24-3.05146E+06-1.01945E+06-4.32320E+05-1.24218E+06-1.59465E-08-7.03343E-09
 -1        25 2.71709E+04-2.78547E+03 1.61005E+04-9.71670E+04 3.90719E-10 5.34874E-09
 -1        26-1.65257E+04 5.81162E+04-1.15209E+04-8.33027E+03 1.37879E-09 3.23292E-09
 -1        27-5.39399E+04-1.84902E+05-6.93665E+04 4.16700E+04 4.63297E-09-3.09895E-09
 -1        28 1.51201E+04-5.39560E+04 1.10333E+04 1.72994E+04 5.25178E-09-9.61933E-10
 -1        32-7.18408E+05-1.01239E+05 3.12845E+05-4.87853E+05-1.45592E-08 1.24737E-08
 -1        33-1.05731E+05 5.43907E+04 1.92794E+04-3.15951E+04 1.00164E-09-1.93722E-10
 -1        34-1.37290E+05-1.36621E+04 3.21895E+02 4.22050E+04 2.35506E-09-1.39001E-09
 -1        35-1.53763E+04-2.14466E+04-8.39682E+02 3.40274E+04 3.91201E-09 5.37208E-10
 -1        51 1.28022E+04-3.50847E+05 3.31316E+04-8.80847E+05 1.01863E-10-2.45927E-09
 -1        52 7.98883E+03-3.49800E+05 2.23231E+04-1.02736E+06 5.96629E-10 2.18279E-11
 -1        53 6.01356E+03-3.60939E+05 1.95745E+04-8.77798E+05 4.94765E-10 3.41970E-09
 -1        54 1.75226E+04-3.59427E+05 3.20450E+04-1.03055E+06 2.98314E-10-1.11650E-08
 -1        55 3.53525E+04-3.71604E+05 5.76421E+04-8.77325E+05 8.65839E-10 3.70346E-09
 -1        56-2.90638E+06-3.27745E+05-2.27521E+05-1.12014E+06-3.78350E-10-4.23461E-09
 -1        57-2.99541E+06-5.35896E+05-1.53356E+05-1.11400E+06 3.91992E-10 1.31477E-08
 -1        58-2.95258E+06-3.99290E+05-5.35379E+04-1.10524E+06-5.89353E-10 2.51748E-09
 -1        59-2.94189E+06-4.52040E+05-3.19586E+04-1.13191E+06-7.81711E-10-5.23869E-09
 -1        60-2.95943E+06-4.09150E+05-1.25038E+04-1.10310E+06 6.86441E-10-1.09353E-08
 -1        61-2.93506E+06-4.39342E+05-7.10596E+03-1.13305E+06 1.19837E-09 1.17342E-09
 -1        62-2.95929E+06-4.11689E+05-3.43242E+03-1.10417E+06-4.41105E-11 7.28974E-10
 -1        63-2.93746E+06-4.34333E+05-2.80017E+03-1.12909E+06 8.92101E-10 3.88650E-09
 -1        64-2.95691E+06-4.14188E+05-3.25709E+03-1.10700E+06 3.17186E-09-1.16797E-08
 -1        65-2.94396E+06-4.29783E+05-6.45330E+03-1.12209E+06 1.83320E-09-6.49345E-09
 -1        66-2.95270E+06-4.16341E+05-1.14335E+04-1.11109E+06-4.82032E-11-1.45428E-09
 -1        67-2.95785E+06-4.33462E+05-2.89338E+04-1.11203E+06 1.76669E-09-5.19321E-09
 -1        68-2.94305E+06-4.10828E+05-4.86343E+04-1.11693E+06 2.17597E-09 6.17001E-09
 -1        69-3.01197E+06-5.04131E+05-1.39068E+05-1.08980E+06-1.09321E-09-8.22183E-09
 -1        70-2.89911E+06-3.47830E+05-2.06427E+05-1.13259E+06-9.56788E-10 1.65892E-09
 -1        86-1.27420E+03 2.85523E+05 8.88154E+03-3.97634E+02 1.08184E-09 1.41739E-09
 -1        87 8.45223E+03 2.91114E+05 1.85649E+04 1.64677E+03 1.83354E-09 4.17913E-10
 -1        88-7.17398E+03 2.82611E+05 2.83807E+04-1.24920E+03 2.71939E-09 3.99609E-09
 -1        89 5.34613E+04 3.12187E+05 7.66066E+04 3.59826E+03 4.14275E-09 6.32159E-09
 -1        90-4.61417E+04 2.64473E+05 1.08142E+05-2.34865E+03 4.80213E-09-9.50445E-09
 -1       121-1.09707E+02-6.40281E+05 1.25384E+02 1.03921E+02 3.39746E-10 3.64980E-09
 -1       122-1.89951E+01-6.39931E+05 3.24499E+02-4.16087E+02-1.24210E-09 7.86758E-09
 -1       123-1.44276E+02-6.40317E+05 5.08088E+02 3.11487E+02 1.02693E-09 1.18234E-10
 -1       124 5.79005E+02-6.39570E+05 1.35565E+03-9.43448E+02-2.28624E-09-5.68070E-09
 -1       125-5.30220E+02-6.40654E+05 2.06232E+03 6.31057E+02 1.56570E-09-3.30147E-09
 -1       191-6.18629E+00 2.27684E+05 7.05817E+00-4.08869E-02 1.45010E-10 2.53203E-09
 -1       192-6.25346E+00 2.27666E+05 1.26311E+01 5.98608E-01 2.10267E-10-7.48469E-09
 -1       193-7.64464E+00 2.27684E+05 2.34221E+01-5.62190E-01 2.26012E-10-8.51378E-09
 -1       194-8.01872E+00 2.27668E+05 4.77859E+01 1.50127E+00 9.13039E-11-1.18143E-09
 -1       195-1.04473E+01 2.27682E+05 9.34036E+01-9.50649E-01 4.02572E-10-1.87356E-09
 -1       251 2.47268E+05-4.42786E+04 1.03299E+05 4.65838E+03 3.44471E-10 4.29281E-10
 -1       252 2.94891E+05 5.12102E+04 7.33815E+04-1.45261E+04 6.82832E-10-1.88711E-08
 -1       253 2.65234E+05-6.85299E+03 2.67311E+04 3.04756E+03-4.22290E-10-1.33696E-08
 -1       254 2.73672E+05 7.91346E+03 1.69299E+04-1.20007E+04 1.09426E-09-7.27823E-09
 -1       255 2.68380E+05-1.05756E+03 6.90743E+03 2.13316E+03 6.50857E-11-3.14685E-09
 -1       256 2.69892E+05 1.25771E+03 4.20727E+03-1.06550E+04 5.28473E-10 1.00164E-08
 -1       257 2.68968E+05-1.84483E+02 2.16420E+03 1.70190E+03-4.46789E-11 1.16427E-09
 -1       258 2.69291E+05 3.96090E+02 1.91980E+03-1.02199E+04-2.99041E-10-2.81383E-09
 -1       259 2.68967E+05-1.88524E+02 2.20237E+03 1.69802E+03-1.26931E-10-6.41830E-09
 -1       260 2.69906E+05 1.29316E+03 4.31568E+03-1.06401E+04 5.79519E-10-1.65340E-08
 -1       261 2.68367E+05-1.08853E+03 7.10582E+03 2.12216E+03 1.24436E-09-4.15321E-09
 -1       262 2.73775E+05 8.14710E+03 1.74190E+04-1.19682E+04 5.31287E-10 4.01315E-10
 -1       263 2.65142E+05-7.05411E+03 2.75209E+04 3.02614E+03-4.20414E-10 1.95723E-09
 -1       264 2.95571E+05 5.27161E+04 7.55244E+04-1.44739E+04-2.18546E-09 4.52474E-09
 -1       265 2.46679E+05-4.55759E+04 1.06351E+05 4.62762E+03-1.54091E-09 3.54339E-09
 -1       266-3.40048E+04-1.58986E+04 7.97948E+04-7.95415E+01 4.72937E-11 1.16054E-09
 -1       267 3.94219E+04 1.85333E+04 5.63928E+04 9.17645E+01 9.09495E-11 1.99449E-09
 -1       268-5.28637E+03-2.62466E+03 2.09612E+04-1.16930E+01 9.27685E-11 4.26600E-09
 -1       269 6.24170E+03 3.14135E+03 1.36242E+04 1.36199E+01-2.27374E-12 2.04974E-09
 -1       270-9.36886E+02-5.16141E+02 6.57660E+03-1.84835E+00-3.70619E-11-9.24922E-10
 -1       271-3.34236E+06-4.17953E+05-2.57548E+05-1.30338E+06 4.87489E-10 4.54020E-09
 -1       272-3.41775E+06-6.22427E+05-1.65530E+05-1.31997E+06-1.75760E-10-7.26868E-09
 -1       273-3.39232E+06-4.80550E+05-6.08433E+04-1.29020E+06 2.06819E-09-5.32964E-09
 -1       274-3.35901E+06-5.46121E+05-3.40143E+04-1.34063E+06 1.16779E-09-1.52022E-09
 -1       275-3.40062E+06-4.85500E+05-1.41533E+04-1.28641E+06-2.23736E-10 2.27919E-09
 -1       276-3.34911E+06-5.40498E+05-7.50333E+03-1.34685E+06 5.90489E-10 1.42597E-09
 -1       277-3.40275E+06-4.84891E+05-3.67169E+03-1.28477E+06 1.16506E-09 4.30020E-09
 -1       278-3.34711E+06-5.40928E+05-2.66498E+03-1.34883E+06-1.11925E-09 3.04169E-09
 -1       279-3.40289E+06-4.84817E+05-2.86009E+03-1.28466E+06-3.91765E-10-2.09207E-09
 -1       280-3.34847E+06-5.40485E+05-5.23854E+03-1.34739E+06 3.13094E-10 1.61094E-09
 -1       281-3.40119E+06-4.85515E+05-9.61358E+03-1.28605E+06 1.76442E-10-5.44878E-09
 -1       282-3.35590E+06-5.43349E+05-2.29105E+04-1.34201E+06 4.09273E-11 4.06362E-09
 -1       283-3.39492E+06-4.82930E+05-4.09844E+04-1.28937E+06 1.99816E-09 2.12822E-10
 -1       284-3.39687E+06-5.92957E+05-1.11315E+05-1.32596E+06-4.34738E-10-8.64566E-09
 -1       285-3.36026E+06-4.41993E+05-1.73379E+05-1.29942E+06 1.04592E-09-5.04224E-09
 -1       301 1.29416E+04-9.24773E+03 1.00230E+05-2.84333E+04-1.11322E-09 2.76145E-10
 -1       302 1.39394E+04 1.61419E+04 7.24250E+04-4.18865E+04 1.34719E-09 4.69709E-09
 -1       303 6.95198E+02-2.49645E+02 6.67521E+04-2.85169E+04-1.00044E-09-4.51882E-09
 -1       304 2.62184E+04 2.74958E+04 1.12375E+05-4.17549E+04 1.23873E-09-8.11019E-09
 -1       305 2.59470E+04-2.04838E+04 1.88658E+05-2.84763E+04-4.87489E-10-5.86624E-10
 -1       306-3.58763E+06-4.18155E+05-2.73706E+05-1.40674E+06 8.47649E-10-3.76895E-09
 -1       307-3.73586E+06-6.41765E+05-1.86541E+05-1.35030E+06 1.36333E-09 2.82671E-09
 -1       308-3.65349E+06-4.99727E+05-6.44509E+04-1.37703E+06 2.35286E-09 3.86353E-09
 -1       309-3.65181E+06-5.54793E+05-3.88903E+04-1.39432E+06-7.76595E-10 5.71390E-09
 -1       310-3.67128E+06-5.03455E+05-1.51427E+04-1.36329E+06 1.79000E-10-6.85213E-09
 -1       311-3.62829E+06-5.53778E+05-8.71572E+03-1.41452E+06 4.92099E-09-1.07013E-09
 -1       312-3.67722E+06-5.00303E+05-4.26972E+03-1.35710E+06-5.01927E-10 3.36559E-09
 -1       313-3.62388E+06-5.55311E+05-3.83909E+03-1.41899E+06-2.12466E-09 1.16278E-08
 -1       314-3.67578E+06-5.01827E+05-4.65386E+03-1.35890E+06-6.80075E-10-5.03951E-09
 -1       315-3.63368E+06-5.48559E+05-9.69653E+03-1.40787E+06 2.68756E-10 2.37833E-09
 -1       316-3.66720E+06-5.07251E+05-1.71350E+04-1.36805E+06 1.89766E-09 3.49246E-09
 -1       317-3.66227E+06-5.48046E+05-4.39823E+04-1.38324E+06 7.50561E-10 4.96948E-09
 -1       318-3.64704E+06-5.02780E+05-7.29077E+04-1.38328E+06-3.01225E-09 1.10231E-08
 -1       319-3.75563E+06-6.48852E+05-2.11210E+05-1.33645E+06-3.26872E-09 9.13133E-10
 -1       320-3.57447E+06-4.08205E+05-3.09644E+05-1.41433E+06 6.54836E-09-5.19503E-09
 -1       336 4.62214E+02-6.93144E+05-3.72398E+03 7.68972E+02-6.25687E-09 4.39286E-10
 -1       337-1.35317E+03-6.94078E+05-4.07111E+03-1.97692E+03-1.14339E-08-4.92219E-09
 -1       338 2.98963E+02-6.93250E+05-5.16551E+03 1.20385E+03-8.25025E-09-4.51018E-09
 -1       339-5.33622E+03-6.96546E+05-1.12856E+04-2.83537E+03-1.48564E-08 3.30692E-09
 -1       340 3.59704E+03-6.90731E+05-1.74156E+04 1.62167E+03-9.98944E-09 4.45561E-09
 -1       406 1.14434E+01 2.27674E+05 3.81782E+02 1.16704E-01 5.32282E-10 5.39876E-09
 -1       407 1.29888E+02 2.27745E+05 8.11585E+02-8.21477E+00 1.70530E-11-1.31695E-09
 -1       408 4.14457E+02 2.27615E+05 1.62082E+03 8.23794E+00 5.57748E-10-9.45465E-09
 -1       409 1.74962E+03 2.28262E+05 3.64912E+03-7.83125E+01-1.88720E-11-2.04598E-08
 -1       410 5.03279E+03 2.27154E+05 7.44949E+03 7.27654E+01 5.97538E-10-1.59407E-08
 -1       521-6.83320E+06-7.73771E+05-5.13223E+05-2.63345E+06 4.13274E-09-6.69388E-09
 -1       522-6.97973E+06-1.29026E+06-3.44794E+05-2.65292E+06-8.12452E-09-7.01766E-09
 -1       523-6.98729E+06-8.85015E+05-1.20777E+05-2.53434E+06-1.93540E-09-1.27620E-08
 -1       524-6.79647E+06-1.16903E+06-7.17500E+04-2.78627E+06 7.76458E-09-1.35487E-08
 -1       525-7.01985E+06-8.87752E+05-2.76937E+04-2.50470E+06 5.62159E-09-2.54659E-09
 -1       526-6.78327E+06-1.13471E+06-1.52896E+04-2.78402E+06 3.96312E-09-1.80816E-09
 -1       527-6.99969E+06-9.19169E+05-9.03388E+03-2.53632E+06 8.22365E-09-3.13776E-11
 -1       528-6.85464E+06-1.04518E+06-3.99614E+03-2.67801E+06 5.58157E-09 3.69255E-10
 -1       529-6.94341E+06-9.80805E+05-1.04941E+04-2.60699E+06-4.77667E-09 4.30009E-09
 -1       530-6.97880E+06-9.26095E+05-1.32531E+04-2.53703E+06-3.47063E-09 6.06815E-09
 -1       531-6.87532E+06-1.03844E+06-2.91995E+04-2.67702E+06-1.26802E-08 7.02130E-10
 -1       532-7.10243E+06-8.60756E+05-7.09261E+04-2.43343E+06 8.80846E-09-1.19544E-08
 -1       533-6.82506E+06-1.04315E+06-1.18631E+05-2.71426E+06 5.11682E-09-2.11658E-08
 -1       534-7.23485E+06-1.04520E+06-3.44075E+05-2.38427E+06-3.12320E-09 1.43264E-08
 -1       535-6.74550E+06-8.56968E+05-5.07443E+05-2.72602E+06-1.07684E-08 1.30094E-08
 -1       536-4.07958E+04-1.82043E+04 4.18822E+04-1.98432E+02-4.35921E-09 5.52791E-09
 -1       537-2.16078E+04 2.10784E+04 2.98264E+04 1.34791E+02-8.50140E-09 5.75892E-09
 -1       538-3.39242E+04-2.87019E+03 1.07646E+04-1.23325E+02 2.24908E-10 7.03494E-10
 -1       539-2.96458E+04 3.32558E+03 6.97830E+03-7.60995E+01 5.01497E-09 6.68354E-09
 -1       540-3.27593E+04-4.55642E+02 2.67125E+03 1.24619E+01 5.75007E-10-3.60365E-09
 -1       541-3.11594E+04 5.24101E+02 1.71528E+03-3.38989E+02 1.01713E-09 3.53987E-09
 -1       542-3.24129E+04-6.95326E+01 6.03188E+02 1.39564E+02 1.37611E-10-1.37669E-09
 -1       543-3.17348E+04 5.85503E+01 3.55786E+02-5.53912E+02-1.01432E-09-3.36056E-09
 -1       544-3.21868E+04 1.08549E+01-9.37692E+00 2.27387E+02 1.20554E-10-3.02717E-09
 -1       545-3.20969E+04-1.23824E+02-2.86146E+02-6.72977E+02-1.67822E-10-3.31951E-10
 -1       546-3.20516E+04 1.14944E+02-6.27013E+02 2.58638E+02 6.51023E-10-1.89422E-09
 -1       547-3.24323E+04-8.09484E+02-1.62436E+03-6.73027E+02-2.91389E-09-5.97714E-09
 -1       548-3.18509E+04 6.96963E+02-2.64479E+03 2.27439E+02-3.44357E-09-6.74845E-10
 -1       549-3.41469E+04-5.09750E+03-7.14688E+03-5.50711E+02-1.74456E-09-1.86094E-09
 -1       550-3.03360E+04 4.40015E+03-1.02594E+04 1.36313E+02 4.57518E-11-1.13687E-10
 -1       551 7.48023E+03-3.61084E+05 1.98579E+04-6.17224E+05-2.67246E-08 3.89991E-09
 -1       552 1.60831E+04-3.62968E+05 2.61505E+04-8.78530E+05-2.08383E-08 4.33647E-09
 -1       553 1.07653E+04-3.67761E+05 4.06092E+04-6.15170E+05-3.41170E-08 6.86850E-09
 -1       554 3.65934E+04-3.51244E+05 8.62327E+04-8.79391E+05-2.11003E-08 6.50527E-09
 -1       555 3.57289E+04-3.84182E+05 1.54793E+05-6.15919E+05-3.37022E-08-2.95768E-09
 -1       556 5.22269E+04-1.16661E+05 3.99730E+04-1.54071E+05-4.31464E-09-4.11819E-09
 -1       557 9.94837E+04-1.55969E+05 2.09824E+04-1.92650E+05-6.69388E-10 9.25866E-10
 -1       558 5.22722E+04-1.22113E+05 8.50552E+03-1.49380E+05-2.35013E-09 9.93168E-10
 -1       559 9.32710E+04-1.61490E+05 4.31096E+03-1.95335E+05 3.17596E-09-1.57161E-09
 -1       560 5.10138E+04-1.21270E+05 1.79297E+03-1.50157E+05 2.53203E-09 2.52840E-09
 -1       561 9.12611E+04-1.61008E+05 9.48469E+02-1.96602E+05-1.54614E-09 4.54293E-09
 -1       562 4.99904E+04-1.20579E+05 3.65171E+02-1.50896E+05-1.13869E-09-1.39426E-09
 -1       563 9.00552E+04-1.60492E+05 2.26541E+02-1.97373E+05 2.27737E-09-4.23074E-09
 -1       564 4.93549E+04-1.20167E+05 8.06561E+01-1.51348E+05 4.24552E-09-7.17000E-09
 -1       565 8.94330E+04-1.60226E+05 4.74655E+01-1.97764E+05 7.36509E-09 1.58707E-09
 -1       566 4.91323E+04-1.20018E+05-2.31965E+01-1.51510E+05 1.96633E-09-3.25599E-10
 -1       567 8.93560E+04-1.60188E+05-1.08922E+02-1.97755E+05 7.43285E-09-2.76486E-09
 -1       568 4.93530E+04-1.20164E+05-3.04810E+02-1.51410E+05 1.57524E-09 4.73119E-09
 -1       569 8.92354E+04-1.60087E+05-7.13857E+02-1.96840E+05-3.28782E-09-4.36557E-10
 -1       570 5.04974E+04-1.21227E+05-1.50753E+03-1.51400E+05-1.73532E-09-4.65388E-09
 -1       571 1.65078E+05 5.96260E+03 8.83595E+03-4.16262E+04 6.10271E-10-2.08684E-09
 -1       572 1.66393E+05 2.07361E+03 4.32899E+03-4.56294E+04-1.08503E-09-6.98037E-10
 -1       573 1.65607E+05 4.94159E+02 1.92310E+03-4.15174E+04-6.71207E-10 1.84264E-09
 -1       574 1.65762E+05 1.60793E+02 9.63476E+02-4.57510E+04-8.91077E-10-2.13731E-10
 -1       575 1.65665E+05 2.22170E+01 4.54060E+02-4.15030E+04 9.78389E-10 2.92039E-09
 -1       576 1.65676E+05 6.40729E+00 2.31090E+02-4.57672E+04 3.92902E-10 1.98634E-09
 -1       577 1.65674E+05-2.99793E+00 1.13786E+02-4.15011E+04-1.30740E-11 8.13225E-09
 -1       578 1.65667E+05-1.23052E+00 6.19594E+01-4.57692E+04-1.20008E-09-6.18456E-10
 -1       579 1.65683E+05-4.42693E+00 3.77580E+01-4.15011E+04-9.25411E-10-4.26371E-09
 -1       580 1.65679E+05-5.86879E+00 3.50312E+01-4.57667E+04-1.20508E-09 6.40011E-09
 -1       581 1.65699E+05-1.00804E+01 4.72563E+01-4.15036E+04-4.16549E-10 1.64619E-09
 -1       582 1.65709E+05-3.42830E+00 8.98694E+01-4.57420E+04 6.22094E-10 6.28643E-09
 -1       583 1.65719E+05 1.84519E+01 1.72231E+02-4.15258E+04 4.32010E-10 2.28692E-09
 -1       584 1.65797E+05 1.52323E+02 3.86145E+02-4.55567E+04-8.38554E-10-6.46992E-09
 -1       585 1.65700E+05 4.92664E+02 7.84060E+02-4.16892E+04-2.88310E-10-4.80213E-09
 -1       586-2.03993E+03 5.39897E+04-2.71557E+03-1.41343E+05 4.33829E-10 4.91127E-10
 -1       587-4.36097E+02 5.36232E+04-3.27676E+02-1.55535E+05 7.13953E-10 5.41519E-09
 -1       588 5.64772E+02 5.36985E+04 1.87104E+03-1.41257E+05 4.60204E-10-1.81544E-08
 -1       589 2.80724E+03 5.47309E+04 5.48332E+03-1.55407E+05 5.82986E-10-4.47690E-08
 -1       590 8.05252E+03 5.30333E+04 1.17528E+04-1.41473E+05 3.41061E-10-1.57634E-08
 -1       591-3.60769E+04-1.03309E+04-1.20267E+04-1.87059E+04 4.09614E-10-6.06815E-09
 -1       592-3.72095E+04-1.32782E+04-6.51416E+03-2.18351E+04-9.34449E-10-1.44446E-08
 -1       593-3.72929E+04-9.44474E+03-2.71191E+03-1.95744E+04 9.78957E-10-5.36261E-10
 -1       594-3.55336E+04-1.15301E+04-1.35255E+03-2.19184E+04 6.55575E-10 5.31833E-09
 -1       595-3.73860E+04-9.44069E+03-6.21566E+02-1.96143E+04 3.69823E-10 1.19321E-09
 -1       596-3.54202E+04-1.14500E+04-3.16808E+02-2.19066E+04-1.04023E-11-1.13121E-09
 -1       597-3.73979E+04-9.44839E+03-1.74330E+02-1.96159E+04 5.89150E-10 3.09041E-09
 -1       598-3.54094E+04-1.14469E+04-1.43475E+02-2.19033E+04-1.61009E-10-5.51972E-09
 -1       599-3.73970E+04-9.44843E+03-1.87428E+02-1.96156E+04-4.01599E-10-3.22871E-10
 -1       600-3.54214E+04-1.14510E+04-3.51529E+02-2.19063E+04-7.35326E-10-9.67430E-09
 -1       601-3.73822E+04-9.44009E+03-6.95216E+02-1.96132E+04 3.86535E-11-2.28431E-09
 -1       602-3.55485E+04-1.15406E+04-1.51611E+03-2.19180E+04-2.26464E-10 1.60753E-09
 -1       603-3.72767E+04-9.44607E+03-3.04091E+03-1.95688E+04 2.71484E-10 6.02449E-09
 -1       604-3.74339E+04-1.34940E+04-7.30475E+03-2.18156E+04 1.95541E-11 4.40468E-09
 -1       605-3.59051E+04-1.04456E+04-1.34861E+04-1.86014E+04 1.23441E-09 6.28052E-09
 -1       606 2.35869E+04-7.95059E+03-1.43182E+04 2.30405E+04-3.20688E-09 3.52702E-09
 -1       607 2.11346E+04-2.56441E+03-7.12969E+03 2.58641E+04-2.44836E-09-2.67596E-09
 -1       608 2.25270E+04-4.31860E+02-3.19271E+03 2.28567E+04 1.58980E-09-2.18279E-09
 -1       609 2.22501E+04-1.11942E+02-1.61260E+03 2.60670E+04-4.25644E-10 3.59591E-09
 -1       610 2.23993E+04 2.11120E+01-7.70245E+02 2.28361E+04-1.17689E-09 9.56265E-09
 -1       611 2.23470E+04 3.14433E+01-3.88527E+02 2.60892E+04-5.49153E-09 9.86211E-09
 -1       612 2.23657E+04 3.34014E+01-1.85911E+02 2.28341E+04-2.90947E-09-2.55454E-09
 -1       613 2.23458E+04 3.80510E+01-8.48047E+01 2.60918E+04-5.29872E-09 1.79625E-10
 -1       614 2.23475E+04 3.36841E+01-2.37697E+01 2.28334E+04 7.56063E-09 3.87354E-09
 -1       615 2.23365E+04 4.22659E+01 2.61884E+01 2.60922E+04 2.32494E-08-6.00403E-09
 -1       616 2.23336E+04 3.81710E+01 8.71492E+01 2.28336E+04 6.28279E-09-6.08929E-09
 -1       617 2.23422E+04 6.39516E+01 2.02236E+02 2.60918E+04-8.04903E-10-7.68478E-09
 -1       618 2.23124E+04 9.88606E+01 4.08867E+02 2.28337E+04 1.46406E-09-1.39858E-09
 -1       619 2.24836E+04 3.82118E+02 9.18990E+02 2.60912E+04 2.53863E-10 4.85420E-09
 -1       620 2.21746E+04 1.07054E+03 1.84736E+03 2.28329E+04 1.95405E-09 7.70342E-10
 -1       621 2.86971E+02 1.79764E+05 2.48805E+03 5.86151E+03-3.05704E-10-6.24902E-09
 -1       622 3.27930E+02 1.80381E+05 2.11097E+03 8.56076E+03-1.63254E-10-1.28633E-08
 -1       623 1.33861E+01 1.79942E+05 2.42661E+03 5.83401E+03-2.27260E-10-6.99424E-09
 -1       624 1.09707E+03 1.81086E+05 4.60709E+03 8.58762E+03-2.57558E-10-7.47653E-09
 -1       625 1.10169E+03 1.79054E+05 8.00879E+03 5.83495E+03-2.09639E-10-7.28173E-09
 -1       626 1.48266E+05 4.11180E+04 2.95180E+03 8.02096E+04-7.33053E-10 6.27551E-09
 -1       627 1.46233E+05 4.26174E+04 1.42224E+03 8.34541E+04-2.63526E-09-5.11841E-09
 -1       628 1.48378E+05 3.97206E+04 6.00759E+02 8.06543E+04 4.61114E-10-8.07449E-09
 -1       629 1.45806E+05 4.22822E+04 2.94441E+02 8.36489E+04 4.82669E-09 4.08193E-10
 -1       630 1.48386E+05 3.96542E+04 1.36167E+02 8.06662E+04 4.00632E-09-7.97286E-10
 -1       631 1.45755E+05 4.22747E+04 7.32465E+01 8.36509E+04 1.54614E-10 3.49366E-09
 -1       632 1.48378E+05 3.96594E+04 4.83969E+01 8.06597E+04-4.44243E-09-4.55896E-09
 -1       633 1.45744E+05 4.22791E+04 5.41300E+01 8.36453E+04-1.52045E-09 1.09101E-08
 -1       634 1.48370E+05 3.96601E+04 8.76888E+01 8.06560E+04 3.17414E-09-2.77373E-09
 -1       635 1.45748E+05 4.22805E+04 1.77869E+02 8.36448E+04 2.81568E-09-5.55383E-09
 -1       636 1.48360E+05 3.96594E+04 3.59290E+02 8.06532E+04-5.06361E-10 9.94760E-10
 -1       637 1.45821E+05 4.23378E+04 7.89682E+02 8.36410E+04 2.93959E-09 2.66618E-09
 -1       638 1.48329E+05 3.98357E+04 1.62299E+03 8.05718E+04 8.52651E-11-3.15276E-09
 -1       639 1.46669E+05 4.35253E+04 3.83953E+03 8.33885E+04-1.03000E-09-1.85173E-09
 -1       640 1.48215E+05 4.33701E+04 7.96808E+03 7.90708E+04-4.77485E-12-6.77892E-09
 -1       656 4.02037E+04-1.01745E+06-9.70574E+04-4.03278E+02 1.05138E-09 1.15145E-09
 -1       657-5.31237E+04-1.06127E+06-8.02650E+04 6.61368E+03-5.23869E-10 2.64121E-09
 -1       658 1.27466E+04-1.02995E+06-4.92533E+04-1.27532E+03 9.54969E-12-9.42258E-10
 -1       659-5.69520E+04-1.06308E+06-8.52932E+04 7.19243E+03 5.86624E-10-5.65902E-09
 -1       660 4.40225E+04-1.01565E+06-1.05709E+05-9.82014E+02-2.65572E-10 2.66861E-09
 -1       661 1.44392E+05 1.57167E+04 1.38457E+04 5.64194E+04 8.01037E-10 4.52201E-09
 -1       662 1.51596E+05 2.65835E+04 9.32971E+03 5.40202E+04 2.28340E-09-2.37378E-09
 -1       663 1.47104E+05 2.01647E+04 3.26361E+03 5.56377E+04 7.06677E-10-1.54682E-09
 -1       664 1.48458E+05 2.13758E+04 1.95119E+03 5.49694E+04 2.34925E-09-6.40154E-09
 -1       665 1.47509E+05 2.07782E+04 7.69693E+02 5.55254E+04-3.45602E-09-6.91813E-10
 -1       666 1.47984E+05 2.06692E+04 4.48806E+02 5.51125E+04-6.72190E-09 1.32871E-09
 -1       667 1.47576E+05 2.08528E+04 2.36613E+02 5.55016E+04-1.40386E-09 2.36540E-09
 -1       668 1.47914E+05 2.06089E+04 2.36944E+02 5.51459E+04 2.61559E-09 9.59645E-10
 -1       669 1.47579E+05 2.08368E+04 3.17447E+02 5.54925E+04 1.11943E-09 4.03224E-09
 -1       670 1.47996E+05 2.07747E+04 6.88052E+02 5.51429E+04 8.40465E-09 1.85639E-09
 -1       671 1.47494E+05 2.06905E+04 1.22067E+03 5.55033E+04 6.99313E-10-1.51584E-09
 -1       672 1.48709E+05 2.19595E+04 3.12222E+03 5.49682E+04-5.70651E-10-1.64840E-09
 -1       673 1.46869E+05 1.96818E+04 5.23206E+03 5.56558E+04-2.52555E-10-4.75484E-09
 -1       674 1.53693E+05 3.03618E+04 1.49627E+04 5.35011E+04-1.24010E-09-2.80033E-09
 -1       675 1.42543E+05 1.25232E+04 2.22092E+04 5.68819E+04 1.57206E-09-1.94359E-09
 -1       676 1.63796E+01-1.95294E+05-7.60467E+02 3.33088E+01-7.12021E-10 1.50601E-10
 -1       677-2.01832E+02-1.95478E+05-1.39172E+03-6.65918E+01-3.96028E-09-8.09721E-09
 -1       678 1.34803E+02-1.95163E+05-2.46019E+03 3.32601E+01-7.79892E-11 1.72555E-09
 -1       679-2.46061E+03-1.96963E+05-5.84410E+03-6.63973E+01-1.26443E-09 1.98372E-09
 -1       680 1.46849E+03-1.93809E+05-9.41875E+03 3.27325E+01 9.02219E-10-1.86241E-09
 -1       771-2.09859E+06-3.67211E+05-5.14196E+04-8.70257E+05-8.73479E-09-4.82396E-09
 -1       772-2.08564E+06-3.94649E+05-2.75619E+04-9.00839E+05-6.03904E-09 2.64845E-09
 -1       773-2.10566E+06-3.61716E+05-1.19525E+04-8.73129E+05-2.38651E-09 3.49974E-09
 -1       774-2.07826E+06-3.88636E+05-5.80308E+03-9.04101E+05 7.43967E-09-2.60115E-10
 -1       775-2.10736E+06-3.60613E+05-2.98153E+03-8.73323E+05-2.36469E-09 9.45874E-10
 -1       776-2.07813E+06-3.88697E+05-1.36159E+03-9.05892E+05-4.49290E-09 2.08092E-09
 -1       777-2.10855E+06-3.59750E+05-8.77408E+02-8.73421E+05-9.16771E-10 1.51704E-09
 -1       778-2.07844E+06-3.88933E+05-3.79872E+02-9.07387E+05-1.65892E-09 3.64798E-09
 -1       779-2.10950E+06-3.59015E+05-3.90388E+02-8.73511E+05-6.31553E-09-8.25821E-10
 -1       780-2.07877E+06-3.89129E+05-2.85923E+02-9.08596E+05-1.31186E-08-2.02726E-09
 -1       781-2.11021E+06-3.58428E+05-5.15588E+02-8.73578E+05-1.22818E-08 6.51198E-10
 -1       782-2.07910E+06-3.89316E+05-9.11570E+02-9.09487E+05-9.27685E-09-2.45745E-09
 -1       783-2.11065E+06-3.58042E+05-1.82725E+03-8.73605E+05-1.28784E-09-3.68959E-09
 -1       784-2.08036E+06-3.90562E+05-4.31667E+03-9.09980E+05-5.06134E-09-4.45652E-11
 -1       785-2.11011E+06-3.58419E+05-7.98455E+03-8.73048E+05-9.16680E-09 1.21781E-09
 -1       786 1.52990E+05-8.16646E+03 1.88930E+04-2.27720E+00 3.73975E-07 8.48650E-09
 -1       787 1.61177E+05 9.45421E+03 1.33665E+04-1.15210E+00 7.43579E-07 4.80941E-09
 -1       788 1.56149E+05-1.28019E+03 4.89001E+03 5.68811E-01 8.76369E-07-4.48154E-09
 -1       789 1.57497E+05 1.48125E+03 3.07245E+03-7.17246E+00 1.00824E-06 8.12736E-09
 -1       790 1.56670E+05-1.99986E+02 1.25021E+03 3.74315E+00 1.23654E-06-5.43076E-09
 -1       791 1.56889E+05 2.32366E+02 7.34102E+02-1.47186E+01 1.46587E-06 1.38688E-08
 -1       792 1.56757E+05-3.22387E+01 3.35174E+02 8.11510E+00 1.94097E-06-1.01684E-08
 -1       793 1.56791E+05 4.53381E+01 2.19903E+02-2.57958E+01 2.41172E-06 1.13133E-08
 -1       794 1.56768E+05-1.30830E+01 1.63303E+02 1.48205E+01 1.20632E-06-1.18096E-08
 -1       795 1.56801E+05 6.76576E+01 2.36812E+02-4.32635E+01 3.66477E-09 2.16308E-09
 -1       796 1.56747E+05-5.45419E+01 3.55079E+02 2.55831E+01-1.10012E-10 3.31269E-10
 -1       797 1.56962E+05 3.99879E+02 8.37535E+02-7.16198E+01 2.24760E-10 2.78447E-09
 -1       798 1.56607E+05-3.45060E+02 1.32209E+03 4.31773E+01-2.04659E-10 6.16757E-09
 -1       799 1.57954E+05 2.54782E+03 3.60438E+03-1.18444E+02-4.46604E-10-1.82325E-09
 -1       800 1.55755E+05-2.20075E+03 5.09142E+03 7.24078E+01-1.24976E-10-1.93268E-11
 -1       801-9.44121E+03-1.61172E+04 9.52606E+03 1.66646E+04 9.05220E-09-4.29009E-09
 -1       802 2.32158E+04 7.10915E+04 4.54905E+04-6.79858E+04 2.43294E-08-2.55622E-09
 -1       803-1.29838E+04 1.88860E+04 5.66196E+04 1.57892E+04 1.91212E-08 1.44480E-08
 -1       804 1.11235E+05 1.20553E+05 1.61075E+05-6.89350E+04 2.26282E-08 1.89382E-08
 -1       805-9.75344E+04-6.52877E+04 2.03335E+05 1.76108E+04 7.94535E-09 1.90038E-08
 -1       806-1.79812E+05-3.85563E+04-1.52918E+04-7.49150E+04-6.26642E-10 5.23869E-09
 -1       807-1.80707E+05-3.63711E+04-7.51252E+03-7.89748E+04 6.75072E-10 4.12393E-09
 -1       808-1.80246E+05-3.30318E+04-3.18681E+03-7.75088E+04 3.79964E-09 6.10585E-09
 -1       809-1.79104E+05-3.42853E+04-1.55794E+03-7.91914E+04 1.04287E-08 1.58448E-08
 -1       810-1.80313E+05-3.28369E+04-7.13366E+02-7.76232E+04 4.38195E-09 6.87533E-09
 -1       811-1.78981E+05-3.42029E+04-3.53780E+02-7.91731E+04 3.93538E-09 5.82850E-09
 -1       812-1.80325E+05-3.28514E+04-1.76540E+02-7.76230E+04-2.97791E-09-6.12408E-09
 -1       813-1.78965E+05-3.42050E+04-1.11349E+02-7.91635E+04-1.21208E-08-1.22421E-08
 -1       814-1.80323E+05-3.28568E+04-1.04383E+02-7.76206E+04-5.37148E-09-4.23142E-10
 -1       815-1.78967E+05-3.42068E+04-1.63339E+02-7.91607E+04-4.94765E-10-1.21418E-10
 -1       816-1.80312E+05-3.28556E+04-3.06011E+02-7.76184E+04-1.89266E-09 1.09901E-08
 -1       817-1.79019E+05-3.42361E+04-6.56051E+02-7.91550E+04 2.91993E-09 1.14178E-08
 -1       818-1.80273E+05-3.29477E+04-1.33702E+03-7.75748E+04 1.93722E-09 2.81716E-09
 -1       819-1.79757E+05-3.50385E+04-3.14675E+03-7.89760E+04-2.87605E-09-6.95945E-09
 -1       820-1.80019E+05-3.53271E+04-6.40419E+03-7.65605E+04 2.00134E-09-4.78803E-09
 -1       821-2.32517E+05 1.29065E+04-2.98491E+04 5.83203E+01-7.69831E-10 5.04770E-09
 -1       822-2.45453E+05-1.49414E+04-2.11224E+04-4.93381E+02-1.78097E-09 7.61474E-10
 -1       823-2.37510E+05 2.02334E+03-7.73104E+03 2.08244E+01 1.08485E-09-5.29326E-10
 -1       824-2.39633E+05-2.34196E+03-4.86454E+03-3.60869E+02-2.18172E-11-1.42791E-09
 -1       825-2.38336E+05 3.16681E+02-1.99915E+03-7.41961E+01-2.57877E-09-2.95245E-10
 -1       826-2.38672E+05-3.73525E+02-1.20745E+03-1.48150E+02-5.42789E-09 1.49925E-10
 -1       827-2.38470E+05 5.62598E+01-6.24375E+02-1.91899E+02-3.42705E-09-3.61705E-09
 -1       828-2.38542E+05-1.13992E+02-5.52553E+02 6.83018E+01-4.57430E-09 1.97081E-09
 -1       829-2.38466E+05 5.73817E+01-6.33334E+02-2.90652E+02 2.07496E-11 9.99043E-09
 -1       830-2.38686E+05-3.82584E+02-1.23698E+03 2.11954E+02 2.08647E-09 4.76246E-09
 -1       831-2.38326E+05 3.24785E+02-2.04805E+03-3.35554E+02-8.15127E-10-6.05735E-09
 -1       832-2.39670E+05-2.40186E+03-4.99063E+03 2.32546E+02-2.64760E-10 4.44015E-09
 -1       833-2.37483E+05 2.07521E+03-7.93021E+03-3.11243E+02-4.54316E-10 9.89985E-10
 -1       834-2.45629E+05-1.53263E+04-2.16669E+04 1.24998E+02-2.23491E-10 3.10865E-09
 -1       835-2.32367E+05 1.32391E+04-3.06210E+04-2.27997E+02 4.02496E-09-2.73940E-09
 -1       836-7.74628E+02 2.20458E+05 1.32750E+04-1.93845E+04 1.64800E-09 7.01266E-09
 -1       837 2.92534E+03 2.24567E+05 1.13280E+04-3.89324E+04 2.24099E-09-1.44610E-10
 -1       838-2.83165E+02 2.21603E+05 1.16735E+04-1.93189E+04 1.96678E-09 3.47711E-09
 -1       839 7.49300E+03 2.27974E+05 2.22123E+04-3.89556E+04 2.72667E-09-1.31689E-09
 -1       840-2.25028E+03 2.17023E+05 3.54733E+04-1.93599E+04 1.92995E-09-4.48154E-10
 -1       856-7.27139E+04 6.22308E+03-1.63991E+04-3.65671E+02-2.76339E-09-5.84896E-09
 -1       857-7.94886E+04-7.29877E+03-1.12906E+04 3.73942E+03-3.72506E-09-7.62770E-09
 -1       858-7.53904E+04 8.72001E+02-4.25604E+03-3.81283E+02-3.41760E-09-1.95473E-09
 -1       859-7.64146E+04-1.01396E+03-2.57061E+03 3.76429E+03 1.37686E-09 2.30443E-09
 -1       860-7.57906E+04 1.21292E+02-1.08092E+03-3.90657E+02 2.01743E-09 2.12748E-09
 -1       861-7.59534E+04-1.34163E+02-6.02249E+02 3.77709E+03-3.98204E-09 1.95342E-09
 -1       862-7.58529E+04 1.61001E+01-2.65591E+02-3.94105E+02 3.56587E-09-1.27849E-09
 -1       863-7.58798E+04-1.01167E+01-1.31350E+02 3.77862E+03 6.17626E-09 4.65211E-09
 -1       864-7.58644E+04-4.07579E-02-4.12583E+01-3.92193E+02 3.96558E-09 2.76047E-09
 -1       865-7.58584E+04 1.83345E+01 2.45660E+01 3.76898E+03 4.59039E-09-4.93064E-09
 -1       866-7.58732E+04-1.26651E+01 8.95889E+01-3.84462E+02 3.09598E-10-2.85259E-09
 -1       867-7.58061E+04 1.06443E+02 2.46055E+02 3.74802E+03 9.60540E-10-2.42868E-09
 -1       868-7.59144E+04-8.75470E+01 4.15231E+02-3.71232E+02 9.49115E-10-6.93007E-10
 -1       869-7.54947E+04 7.26305E+02 1.11474E+03 3.71313E+03-2.23355E-09-9.88010E-09
 -1       870-7.61810E+04-6.17129E+02 1.61682E+03-3.49574E+02 3.96136E-09-3.23485E-09
 -1       871-3.40642E+03-7.06948E+03-1.10468E+04 7.23977E+04 3.23053E-09-1.77351E-09
 -1       872-1.48632E+03-9.53808E+03-4.49838E+03 9.38581E+04 4.30964E-09 5.80485E-10
 -1       873-4.02352E+01-8.38266E+03 6.56061E+02 7.22379E+04 9.09495E-10 1.74145E-09
 -1       874 1.69531E+03-6.76795E+03 6.29655E+03 9.38920E+04 2.24691E-09 4.99062E-09
 -1       875 4.03331E+03-9.87877E+03 1.39553E+04 7.23706E+04 1.42609E-09 2.35104E-09
 -1       876 1.81242E+05 3.12597E+04 9.71802E+03 7.35666E+04-4.20130E-09-3.01952E-10
 -1       877 1.81792E+05 3.33993E+04 5.18960E+03 7.64478E+04-3.16231E-09-1.16540E-09
 -1       878 1.82151E+05 3.01838E+04 2.17422E+03 7.43646E+04 3.59705E-09 2.13981E-09
 -1       879 1.80469E+05 3.20830E+04 1.08305E+03 7.65173E+04-1.23055E-09 1.72577E-09
 -1       880 1.82218E+05 3.01715E+04 5.04221E+02 7.43971E+04 2.17187E-09-1.43905E-09
 -1       881 1.80382E+05 3.20272E+04 2.68498E+02 7.65040E+04 6.13841E-09-8.13644E-09
 -1       882 1.82224E+05 3.01793E+04 1.70489E+02 7.43980E+04 5.38625E-09 1.14574E-09
 -1       883 1.80375E+05 3.20247E+04 1.81197E+02 7.65003E+04 1.37607E-09-1.88152E-11
 -1       884 1.82221E+05 3.01772E+04 2.86367E+02 7.43981E+04-4.82032E-10 3.01327E-10
 -1       885 1.80398E+05 3.20287E+04 5.74589E+02 7.65076E+04 3.66563E-09-1.40392E-09
 -1       886 1.82199E+05 3.01604E+04 1.15752E+03 7.43958E+04 1.92057E-09 2.23895E-09
 -1       887 1.80602E+05 3.21620E+04 2.52829E+03 7.65368E+04-3.76326E-09-3.86228E-09
 -1       888 1.82039E+05 3.01887E+04 5.09457E+03 7.43149E+04 3.58966E-10 2.33695E-09
 -1       889 1.83638E+05 3.53137E+04 1.21707E+04 7.64400E+04 1.92181E-09 3.21302E-09
 -1       890 1.79963E+05 3.26545E+04 2.27945E+04 7.23717E+04 2.51021E-09 3.48882E-09
 -1       891-1.14289E+02-1.03093E+05-1.21457E+03 1.96427E+04 6.08338E-10 6.10498E-09
 -1       892-1.98522E+02-1.03383E+05-1.32242E+03 2.97233E+04 7.54881E-11 4.53167E-09
 -1       893-3.30513E+01-1.03131E+05-1.89072E+03 1.96464E+04-1.17120E-09-2.65572E-10
 -1       894-1.03526E+03-1.04111E+05-3.92679E+03 2.96179E+04-2.60570E-09-7.51425E-09
 -1       895-8.07885E+02-1.02316E+05-6.91973E+03 1.97467E+04 2.37219E-09-4.61796E-09
 -1       956-2.27682E+05-3.28447E+03-8.27316E+03 1.50333E+04-1.46747E-09-3.43334E-10
 -1       957-2.29316E+05-1.10677E+03-4.24720E+03 1.81014E+04-3.02407E-11 3.48723E-09
 -1       958-2.28414E+05-8.68484E+01-1.91341E+03 1.49349E+04 2.79260E-09-3.19460E-10
 -1       959-2.28545E+05-1.39310E+01-9.77359E+02 1.82076E+04-2.72553E-09-1.69848E-09
 -1       960-2.28479E+05 2.84677E+01-4.76348E+02 1.49257E+04-6.02358E-09 2.98837E-09
 -1       961-2.28488E+05 2.67423E+01-2.52561E+02 1.82180E+04-6.46196E-09-1.90892E-09
 -1       962-2.28492E+05 2.47503E+01-1.44163E+02 1.49243E+04-2.62389E-09-2.23133E-09
 -1       963-2.28485E+05 2.75122E+01-1.15019E+02 1.82199E+04-3.82795E-09-5.06247E-10
 -1       964-2.28494E+05 2.62259E+01-1.38713E+02 1.49238E+04 3.10592E-10-1.79330E-09
 -1       965-2.28493E+05 3.00103E+01-2.38922E+02 1.82199E+04 3.83665E-09-5.62648E-09
 -1       966-2.28487E+05 3.28066E+01-4.48010E+02 1.49243E+04-1.57138E-09-3.81897E-09
 -1       967-2.28553E+05-4.99173E+00-9.18632E+02 1.82144E+04-3.38332E-10 4.35807E-09
 -1       968-2.28431E+05-7.25254E+01-1.79753E+03 1.49295E+04-4.01542E-10 3.92248E-10
 -1       969-2.29283E+05-1.02914E+03-3.99104E+03 1.81525E+04-8.44921E-10 2.58248E-09
 -1       970-2.27747E+05-3.07539E+03-7.77353E+03 1.49883E+04 1.48020E-10-1.73213E-09
 -1       971-2.16394E+05-1.14355E+03-6.36946E+03 1.05993E+04-1.08776E-09 1.82847E-09
 -1       972-2.17944E+05-8.19347E+02-3.46896E+03 1.48051E+04 5.05838E-09-4.82032E-11
 -1       973-2.17101E+05-6.06580E+00-1.55311E+03 1.05114E+04 2.20189E-09-1.22657E-09
 -1       974-2.17209E+05-6.29349E+00-8.04640E+02 1.48996E+04 1.40631E-09-6.16637E-10
 -1       975-2.17155E+05 2.29127E+01-4.01114E+02 1.05038E+04 1.52522E-09-1.25715E-09
 -1       976-2.17164E+05 2.63115E+01-2.29667E+02 1.49087E+04-2.35673E-10-5.92331E-09
 -1       977-2.17165E+05 2.21802E+01-1.63422E+02 1.05022E+04 5.57930E-09-3.71210E-09
 -1       978-2.17166E+05 2.95765E+01-1.86867E+02 1.49109E+04 9.17817E-09-1.90107E-09
 -1       979-2.17164E+05 2.69542E+01-2.96408E+02 1.05016E+04 4.27099E-09 3.93953E-09
 -1       980-2.17187E+05 3.12843E+01-5.69929E+02 1.49112E+04 3.52327E-09 1.12857E-09
 -1       981-2.17146E+05 4.11726E+01-1.10251E+03 1.05019E+04-7.16454E-10 6.44377E-10
 -1       982-2.17339E+05-4.98883E+01-2.27812E+03 1.49069E+04 5.91172E-11-1.52746E-09
 -1       983-2.17008E+05-2.89740E+01-4.42592E+03 1.05060E+04 3.23894E-09 3.04942E-09
 -1       984-2.19468E+05-2.36059E+03-9.91106E+03 1.48474E+04-8.15703E-10 3.91992E-10
 -1       985-2.15005E+05-3.26716E+03-1.81999E+04 1.05656E+04 4.70482E-09-7.20320E-10
 -3
    1PSTEP                         7           4           1          
  100CL  104 4.55078E-01         409                     0    4           1
 -4  DISP        4    1
 -5  D1          1    2    1    0
 -5  D2          1    2    2    0
 -5  D3          1    2    3    0
 -5  ALL         1    2    0    0    1ALL
 -1         1 1.20660E-04 0.00000E+00 0.00000E+00
 -1         2 1.11009E-04-5.48520E-30 0.00000E+00
 -1         3 1.03955E-04 2.00888E-27 0.00000E+00
 -1         5 7.41640E-05 3.84036E-27-3.30872E-24
 -1         8 9.67416E-05-8.72097E-07 0.00000E+00
 -1         9 9.80091E-05 5.40597E-07 0.00000E+00
 -1        10 9.62438E-05-1.41996E-06 0.00000E+00
 -1        12 7.36702E-05 4.96692E-07 1.65436E-24
 -1        15 6.82664E-05-9.60472E-07 4.13590E-25
 -1        16 7.06515E-05 3.97085E-07 0.00000E+00
 -1        17 7.15757E-05-2.99570E-06 0.00000E+00
 -1        18 7.12282E-05 4.97937E-07 0.00000E+00
 -1        19 7.21892E-05 9.90634E-07 0.00000E+00
 -1        20 7.23175E-05 1.44203E-05 0.00000E+00
 -1        21 7.18317E-05 2.72094E-05 0.00000E+00
 -1        24 1.80286E-05-4.06786E-06 0.00000E+00
 -1        25 6.96944E-05 6.12192E-07 0.00000E+00
 -1        26 7.05954E-05 1.38005E-06 0.00000E+00
 -1        27 6.92212E-05 1.22119E-05 0.00000E+00
 -1        28 6.87791E-05 2.67854E-05 0.00000E+00
 -1        32 0.00000E+00 0.00000E+00 0.00000E+00
 -1        33 6.78222E-05 1.85037E-06 0.00000E+00
 -1        34 6.64941E-05 1.21920E-05 0.00000E+00
 -1        35 6.52317E-05 2.65614E-05 0.00000E+00
 -1        51 1.19105E-04-1.43292E-07 0.00000E+00
 -1        52 1.16222E-04-2.82885E-07 0.00000E+00
 -1        53 1.12272E-04-4.23926E-07 0.00000E+00
 -1        54 1.07528E-04-5.67802E-07-3.30872E-24
 -1        55 1.02260E-04-7.15223E-07 3.72231E-24
 -1        56 1.19573E-04-7.17457E-07 2.64698E-23
 -1        57 1.18630E-04-1.94490E-06 0.00000E+00
 -1        58 1.17828E-04-3.54005E-06-2.64698E-23
 -1        59 1.17105E-04-5.36936E-06 1.32349E-23
 -1        60 1.16412E-04-7.27962E-06 0.00000E+00
 -1        61 1.15691E-04-9.11826E-06-1.32349E-23
 -1        62 1.14888E-04-1.07363E-05 0.00000E+00
 -1        63 1.13948E-04-1.19917E-05-1.32349E-23
 -1        64 1.12828E-04-1.27633E-05 2.64698E-23
 -1        65 1.11486E-04-1.29442E-05 1.32349E-23
 -1        66 1.09895E-04-1.24620E-05-2.64698E-23
 -1        67 1.08035E-04-1.12633E-05 1.32349E-23
 -1        68 1.05902E-04-9.33715E-06 0.00000E+00
 -1        69 1.03503E-04-6.69101E-06 0.00000E+00
 -1        70 1.00851E-04-3.37968E-06 0.00000E+00
 -1        86 1.10674E-04 9.79010E-08 3.30872E-24
 -1        87 1.09668E-04 1.94836E-07-8.27181E-25
 -1        88 1.07953E-04 2.90764E-07 0.00000E+00
 -1        89 1.05491E-04 3.81848E-07 0.00000E+00
 -1        90 1.02203E-04 4.71771E-07 0.00000E+00
 -1       121 1.03740E-04-2.35537E-07 6.61744E-24
 -1       122 1.03094E-04-4.71257E-07 3.30872E-24
 -1       123 1.02020E-04-7.07340E-07 0.00000E+00
 -1       124 1.00519E-04-9.44005E-07 3.30872E-24
 -1       125 9.85920E-05-1.18136E-06 0.00000E+00
 -1       191 7.41503E-05 8.27892E-08 3.30872E-24
 -1       192 7.41091E-05 1.65577E-07-1.65436E-24
 -1       193 7.40406E-05 2.48363E-07-3.30872E-24
 -1       194 7.39446E-05 3.31146E-07 0.00000E+00
 -1       195 7.38211E-05 4.13923E-07 3.30872E-24
 -1       251 9.67993E-05 3.05486E-06 3.30872E-24
 -1       252 9.68784E-05 5.37228E-06 0.00000E+00
 -1       253 9.69587E-05 6.36176E-06 8.27181E-25
 -1       254 9.70426E-05 6.29995E-06 0.00000E+00
 -1       255 9.71262E-05 5.41680E-06 0.00000E+00
 -1       256 9.72098E-05 3.93935E-06 1.65436E-24
 -1       257 9.72929E-05 2.06800E-06 3.30872E-24
 -1       258 9.73757E-05 1.78107E-09-1.65436E-24
 -1       259 9.74585E-05-2.06910E-06 0.00000E+00
 -1       260 9.75415E-05-3.95439E-06-1.65436E-24
 -1       261 9.76251E-05-5.45550E-06 0.00000E+00
 -1       262 9.77087E-05-6.37253E-06 0.00000E+00
 -1       263 9.77925E-05-6.47937E-06 0.00000E+00
 -1       264 9.78727E-05-5.54705E-06 4.13590E-25
 -1       265 9.79518E-05-3.30039E-06-3.30872E-24
 -1       266 9.19957E-05-8.98568E-07-6.61744E-24
 -1       267 8.72499E-05-9.11866E-07 1.65436E-24
 -1       268 8.25040E-05-9.25999E-07 1.65436E-24
 -1       269 7.77582E-05-9.37660E-07 4.13590E-25
 -1       270 7.30123E-05-9.49263E-07 0.00000E+00
 -1       271 9.38501E-05 2.68840E-06 0.00000E+00
 -1       272 9.13848E-05 4.98631E-06 1.32349E-23
 -1       273 8.93440E-05 6.16477E-06 0.00000E+00
 -1       274 8.76628E-05 6.36655E-06-2.64698E-23
 -1       275 8.62850E-05 5.75822E-06 0.00000E+00
 -1       276 8.51425E-05 4.51814E-06 2.64698E-23
 -1       277 8.41646E-05 2.83718E-06 0.00000E+00
 -1       278 8.32772E-05 9.13731E-07 2.64698E-23
 -1       279 8.24044E-05-1.04920E-06 0.00000E+00
 -1       280 8.14704E-05-2.84785E-06 0.00000E+00
 -1       281 8.04002E-05-4.28173E-06-5.29396E-23
 -1       282 7.91216E-05-5.15664E-06 0.00000E+00
 -1       283 7.75651E-05-5.28920E-06-5.29396E-23
 -1       284 7.56702E-05-4.50756E-06 1.32349E-23
 -1       285 7.33724E-05-2.66063E-06 0.00000E+00
 -1       301 9.33208E-05 5.10535E-07 6.61744E-24
 -1       302 8.86456E-05 4.94807E-07 0.00000E+00
 -1       303 8.40123E-05 4.79632E-07 0.00000E+00
 -1       304 7.94497E-05 4.63096E-07-3.30872E-24
 -1       305 7.49867E-05 4.44607E-07-1.32349E-23
 -1       306 9.50200E-05 4.01132E-06 0.00000E+00
 -1       307 9.24761E-05 6.15943E-06-2.64698E-23
 -1       308 9.04583E-05 6.92199E-06-5.29396E-23
 -1       309 8.89601E-05 6.27531E-06 0.00000E+00
 -1       310 8.79204E-05 4.40328E-06 0.00000E+00
 -1       311 8.72480E-05 1.54187E-06-2.64698E-23
 -1       312 8.68029E-05-1.93062E-06 0.00000E+00
 -1       313 8.64339E-05-5.60872E-06 2.64698E-23
 -1       314 8.59795E-05-9.05701E-06 0.00000E+00
 -1       315 8.52818E-05-1.18505E-05 0.00000E+00
 -1       316 8.42165E-05-1.36587E-05-5.29396E-23
 -1       317 8.26772E-05-1.41952E-05 0.00000E+00
 -1       318 8.06210E-05-1.33559E-05 0.00000E+00
 -1       319 7.80396E-05-1.10950E-05 0.00000E+00
 -1       320 7.49780E-05-7.57687E-06 0.00000E+00
 -1       336 9.34217E-05-1.67835E-06 6.61744E-24
 -1       337 9.00742E-05-1.93864E-06 3.30872E-24
 -1       338 8.62075E-05-2.20066E-06 6.61744E-24
 -1       339 8.18295E-05-2.46433E-06 0.00000E+00
 -1       340 7.69489E-05-2.73027E-06-6.61744E-24
 -1       406 7.34919E-05 5.79447E-07 0.00000E+00
 -1       407 7.32862E-05 6.62169E-07 1.65436E-24
 -1       408 7.30530E-05 7.44836E-07 0.00000E+00
 -1       409 7.27923E-05 8.27343E-07 0.00000E+00
 -1       410 7.25043E-05 9.09530E-07 0.00000E+00
 -1       521 6.77484E-05-3.37417E-07 0.00000E+00
 -1       522 6.76085E-05-8.79566E-06 0.00000E+00
 -1       523 6.97587E-05-2.35285E-05 1.05879E-22
 -1       524 7.34514E-05-4.26218E-05-5.29396E-23
 -1       525 7.76874E-05-6.32450E-05 0.00000E+00
 -1       526 8.14167E-05-8.24488E-05 0.00000E+00
 -1       527 8.36868E-05-9.75796E-05 0.00000E+00
 -1       528 8.36327E-05-1.06313E-04 5.29396E-23
 -1       529 8.08368E-05-1.07654E-04-1.05879E-22
 -1       530 7.50844E-05-1.01193E-04 0.00000E+00
 -1       531 6.67777E-05-8.81230E-05 0.00000E+00
 -1       532 5.65449E-05-7.01477E-05 0.00000E+00
 -1       533 4.54390E-05-4.99698E-05 1.05879E-22
 -1       534 3.46141E-05-3.04518E-05 2.64698E-23
 -1       535 2.51285E-05-1.43391E-05 5.29396E-23
 -1       536 7.15365E-05 2.41522E-06 0.00000E+00
 -1       537 7.15061E-05 7.41739E-06-8.27181E-25
 -1       538 7.14783E-05 1.17503E-05 0.00000E+00
 -1       539 7.14552E-05 1.51541E-05-4.13590E-25
 -1       540 7.14350E-05 1.75047E-05 0.00000E+00
 -1       541 7.14171E-05 1.86788E-05 4.13590E-25
 -1       542 7.13999E-05 1.87241E-05 0.00000E+00
 -1       543 7.13822E-05 1.76891E-05 2.06795E-25
 -1       544 7.13633E-05 1.57791E-05 4.13590E-25
 -1       545 7.13430E-05 1.31999E-05 0.00000E+00
 -1       546 7.13218E-05 1.02544E-05 0.00000E+00
 -1       547 7.13005E-05 7.24592E-06 0.00000E+00
 -1       548 7.12798E-05 4.48651E-06 4.13590E-25
 -1       549 7.12609E-05 2.28818E-06 1.03398E-25
 -1       550 7.12432E-05 8.81891E-07 0.00000E+00
 -1       551 6.44988E-05-3.15614E-06 0.00000E+00
 -1       552 5.60347E-05-3.32397E-06-3.30872E-24
 -1       553 4.66662E-05-3.49937E-06-3.30872E-24
 -1       554 3.68830E-05-3.68075E-06 0.00000E+00
 -1       555 2.71750E-05-3.86410E-06-1.32349E-23
 -1       556 6.97101E-05 1.83366E-06 0.00000E+00
 -1       557 6.82821E-05 5.53291E-06 0.00000E+00
 -1       558 6.72438E-05 8.20573E-06 0.00000E+00
 -1       559 6.65518E-05 9.96400E-06 0.00000E+00
 -1       560 6.61626E-05 1.09194E-05 1.32349E-23
 -1       561 6.60331E-05 1.11841E-05 0.00000E+00
 -1       562 6.61207E-05 1.08707E-05 0.00000E+00
 -1       563 6.63827E-05 1.00916E-05 0.00000E+00
 -1       564 6.67770E-05 8.95943E-06 0.00000E+00
 -1       565 6.72611E-05 7.58688E-06 0.00000E+00
 -1       566 6.77929E-05 6.08666E-06 0.00000E+00
 -1       567 6.83303E-05 4.57150E-06-2.06795E-25
 -1       568 6.88312E-05 3.15413E-06 0.00000E+00
 -1       569 6.92535E-05 1.94712E-06 0.00000E+00
 -1       570 6.95549E-05 1.06310E-06 0.00000E+00
 -1       571 7.12866E-05 5.65924E-07 1.24077E-24
 -1       572 7.13462E-05 5.94184E-07 4.13590E-25
 -1       573 7.14062E-05 5.89816E-07 1.65436E-24
 -1       574 7.14663E-05 5.60293E-07-4.13590E-25
 -1       575 7.15265E-05 5.13124E-07 0.00000E+00
 -1       576 7.15868E-05 4.55862E-07-8.27181E-25
 -1       577 7.16471E-05 3.96069E-07 0.00000E+00
 -1       578 7.17073E-05 3.41312E-07 0.00000E+00
 -1       579 7.17676E-05 2.99158E-07-3.30872E-24
 -1       580 7.18279E-05 2.77174E-07 0.00000E+00
 -1       581 7.18882E-05 2.82928E-07 0.00000E+00
 -1       582 7.19484E-05 3.23977E-07 0.00000E+00
 -1       583 7.20087E-05 4.07873E-07-3.30872E-24
 -1       584 7.20689E-05 5.42090E-07 0.00000E+00
 -1       585 7.21291E-05 7.34059E-07 0.00000E+00
 -1       586 7.09519E-05 5.18169E-07 0.00000E+00
 -1       587 7.06501E-05 5.37891E-07 0.00000E+00
 -1       588 7.03480E-05 5.57394E-07-4.13590E-25
 -1       589 7.00712E-05 5.76588E-07 0.00000E+00
 -1       590 6.98451E-05 5.95258E-07 0.00000E+00
 -1       591 7.11747E-05 5.96835E-07 0.00000E+00
 -1       592 7.11310E-05 6.63110E-07 0.00000E+00
 -1       593 7.10970E-05 7.02978E-07-4.13590E-25
 -1       594 7.10705E-05 7.22039E-07 0.00000E+00
 -1       595 7.10497E-05 7.25965E-07-4.13590E-25
 -1       596 7.10324E-05 7.20385E-07 0.00000E+00
 -1       597 7.10165E-05 7.10927E-07 0.00000E+00
 -1       598 7.10000E-05 7.03216E-07-2.06795E-25
 -1       599 7.09807E-05 7.02872E-07-4.13590E-25
 -1       600 7.09566E-05 7.15519E-07 0.00000E+00
 -1       601 7.09254E-05 7.46779E-07-2.06795E-25
 -1       602 7.08853E-05 8.02281E-07 1.03398E-25
 -1       603 7.08340E-05 8.87650E-07-5.16988E-26
 -1       604 7.07697E-05 1.00856E-06 0.00000E+00
 -1       605 7.06901E-05 1.17061E-06 0.00000E+00
 -1       606 7.22003E-05 1.38438E-06 0.00000E+00
 -1       607 7.22093E-05 1.86371E-06 0.00000E+00
 -1       608 7.22177E-05 2.42359E-06 0.00000E+00
 -1       609 7.22258E-05 3.05836E-06 0.00000E+00
 -1       610 7.22337E-05 3.76233E-06 0.00000E+00
 -1       611 7.22416E-05 4.52973E-06 0.00000E+00
 -1       612 7.22494E-05 5.35477E-06 0.00000E+00
 -1       613 7.22572E-05 6.23168E-06 0.00000E+00
 -1       614 7.22649E-05 7.15468E-06 0.00000E+00
 -1       615 7.22725E-05 8.11797E-06 8.27181E-25
 -1       616 7.22802E-05 9.11579E-06 0.00000E+00
 -1       617 7.22878E-05 1.01424E-05 0.00000E+00
 -1       618 7.22954E-05 1.11919E-05 8.27181E-25
 -1       619 7.23029E-05 1.22585E-05 0.00000E+00
 -1       620 7.23103E-05 1.33366E-05 0.00000E+00
 -1       621 7.18803E-05 1.05558E-06 0.00000E+00
 -1       622 7.15955E-05 1.12084E-06 8.27181E-25
 -1       623 7.13298E-05 1.18610E-06 1.65436E-24
 -1       624 7.10780E-05 1.25125E-06-8.27181E-25
 -1       625 7.08349E-05 1.31629E-06-1.65436E-24
 -1       626 7.21110E-05 1.40485E-06 0.00000E+00
 -1       627 7.20068E-05 1.88986E-06-3.30872E-24
 -1       628 7.18786E-05 2.43908E-06 3.30872E-24
 -1       629 7.17290E-05 3.04550E-06 0.00000E+00
 -1       630 7.15606E-05 3.70209E-06-3.30872E-24
 -1       631 7.13760E-05 4.40178E-06 0.00000E+00
 -1       632 7.11778E-05 5.13747E-06 0.00000E+00
 -1       633 7.09688E-05 5.90211E-06-1.65436E-24
 -1       634 7.07516E-05 6.68862E-06 0.00000E+00
 -1       635 7.05288E-05 7.48991E-06 0.00000E+00
 -1       636 7.03031E-05 8.29892E-06 0.00000E+00
 -1       637 7.00771E-05 9.10858E-06-8.27181E-25
 -1       638 6.98535E-05 9.91179E-06 1.65436E-24
 -1       639 6.96348E-05 1.07015E-05 0.00000E+00
 -1       640 6.94235E-05 1.14706E-05-8.27181E-25
 -1       656 7.14188E-05 1.40609E-05 6.61744E-24
 -1       657 7.08417E-05 1.36873E-05 3.30872E-24
 -1       658 7.04639E-05 1.33148E-05 6.61744E-24
 -1       659 7.01603E-05 1.29426E-05 0.00000E+00
 -1       660 6.97920E-05 1.25692E-05-6.61744E-24
 -1       661 7.19854E-05 1.54815E-05 8.27181E-25
 -1       662 7.16736E-05 1.64963E-05-8.27181E-25
 -1       663 7.13786E-05 1.74658E-05 0.00000E+00
 -1       664 7.11004E-05 1.83924E-05 8.27181E-25
 -1       665 7.08375E-05 1.92777E-05-1.65436E-24
 -1       666 7.05896E-05 2.01239E-05-8.27181E-25
 -1       667 7.03557E-05 2.09326E-05 1.65436E-24
 -1       668 7.01352E-05 2.17056E-05-8.27181E-25
 -1       669 6.99276E-05 2.24446E-05-1.65436E-24
 -1       670 6.97321E-05 2.31510E-05 8.27181E-25
 -1       671 6.95482E-05 2.38265E-05 0.00000E+00
 -1       672 6.93753E-05 2.44724E-05 8.27181E-25
 -1       673 6.92130E-05 2.50902E-05 0.00000E+00
 -1       674 6.90601E-05 2.56809E-05-8.27181E-25
 -1       675 6.89170E-05 2.62460E-05 4.13590E-25
 -1       676 7.13217E-05 2.71383E-05 0.00000E+00
 -1       677 7.08119E-05 2.70673E-05 8.27181E-25
 -1       678 7.03026E-05 2.69962E-05 0.00000E+00
 -1       679 6.97938E-05 2.69254E-05-8.27181E-25
 -1       680 6.92859E-05 2.68546E-05 0.00000E+00
 -1       771 1.43518E-05 2.95157E-06 2.64698E-23
 -1       772 1.11510E-05 8.70056E-06 1.32349E-23
 -1       773 8.40675E-06 1.32496E-05 0.00000E+00
 -1       774 6.08871E-06 1.66739E-05-1.32349E-23
 -1       775 4.16716E-06 1.90504E-05-2.64698E-23
 -1       776 2.61100E-06 2.04587E-05 1.32349E-23
 -1       777 1.38872E-06 2.09801E-05 0.00000E+00
 -1       778 4.68170E-07 2.06983E-05 1.32349E-23
 -1       779-1.83089E-07 1.96980E-05 0.00000E+00
 -1       780-5.98060E-07 1.80659E-05 0.00000E+00
 -1       781-8.09875E-07 1.58899E-05-2.64698E-23
 -1       782-8.52106E-07 1.32592E-05-1.32349E-23
 -1       783-7.58402E-07 1.02636E-05-2.64698E-23
 -1       784-5.62651E-07 6.99419E-06-1.32349E-23
 -1       785-2.98866E-07 3.54225E-06 0.00000E+00
 -1       786 6.97474E-05 5.91751E-07 0.00000E+00
 -1       787 6.98036E-05 5.75915E-07 4.13590E-25
 -1       788 6.98596E-05 5.64525E-07 0.00000E+00
 -1       789 6.99162E-05 5.57433E-07-8.27181E-25
 -1       790 6.99727E-05 5.55054E-07 0.00000E+00
 -1       791 7.00294E-05 5.57811E-07 8.27181E-25
 -1       792 7.00862E-05 5.66802E-07 1.65436E-24
 -1       793 7.01429E-05 5.83136E-07 8.27181E-25
 -1       794 7.01996E-05 6.08886E-07 0.00000E+00
 -1       795 7.02564E-05 6.46146E-07 0.00000E+00
 -1       796 7.03131E-05 6.98512E-07 0.00000E+00
 -1       797 7.03698E-05 7.69623E-07 8.27181E-25
 -1       798 7.04265E-05 8.65558E-07 0.00000E+00
 -1       799 7.04831E-05 9.92465E-07 0.00000E+00
 -1       800 7.05397E-05 1.16053E-06 0.00000E+00
 -1       801 6.49863E-05 5.90889E-07 0.00000E+00
 -1       802 5.09353E-05 4.84898E-07 0.00000E+00
 -1       803 3.24830E-05 3.13717E-07 0.00000E+00
 -1       804 1.45728E-05 1.45483E-07 0.00000E+00
 -1       805 2.10911E-06 5.41767E-08 0.00000E+00
 -1       806 6.96324E-05 5.51901E-07 1.65436E-24
 -1       807 6.95674E-05 4.92114E-07 0.00000E+00
 -1       808 6.95000E-05 4.37243E-07 0.00000E+00
 -1       809 6.94290E-05 3.91029E-07-8.27181E-25
 -1       810 6.93533E-05 3.57202E-07 0.00000E+00
 -1       811 6.92715E-05 3.39437E-07 0.00000E+00
 -1       812 6.91823E-05 3.41405E-07 1.65436E-24
 -1       813 6.90843E-05 3.66768E-07 0.00000E+00
 -1       814 6.89761E-05 4.19188E-07 0.00000E+00
 -1       815 6.88565E-05 5.02319E-07 0.00000E+00
 -1       816 6.87239E-05 6.19816E-07 1.65436E-24
 -1       817 6.85772E-05 7.75332E-07 8.27181E-25
 -1       818 6.84148E-05 9.72517E-07 0.00000E+00
 -1       819 6.82355E-05 1.21501E-06 4.13590E-25
 -1       820 6.80381E-05 1.50644E-06-8.27181E-25
 -1       821 7.05145E-05 1.62286E-06 0.00000E+00
 -1       822 7.04287E-05 1.86144E-06 8.27181E-25
 -1       823 7.03432E-05 2.13145E-06 0.00000E+00
 -1       824 7.02566E-05 2.46844E-06-1.65436E-24
 -1       825 7.01701E-05 2.89591E-06 3.30872E-24
 -1       826 7.00833E-05 3.43700E-06 0.00000E+00
 -1       827 6.99964E-05 4.09439E-06 0.00000E+00
 -1       828 6.99094E-05 4.87034E-06 0.00000E+00
 -1       829 6.98223E-05 5.74576E-06 0.00000E+00
 -1       830 6.97352E-05 6.70117E-06-1.65436E-24
 -1       831 6.96481E-05 7.70273E-06 3.30872E-24
 -1       832 6.95611E-05 8.71638E-06 0.00000E+00
 -1       833 6.94742E-05 9.70589E-06 1.65436E-24
 -1       834 6.93883E-05 1.06351E-05-8.27181E-25
 -1       835 6.93022E-05 1.14788E-05 0.00000E+00
 -1       836 7.02647E-05 1.45835E-06 0.00000E+00
 -1       837 6.98307E-05 1.53838E-06 0.00000E+00
 -1       838 6.93314E-05 1.61826E-06 0.00000E+00
 -1       839 6.88048E-05 1.69762E-06-8.27181E-25
 -1       840 6.82891E-05 1.77686E-06 0.00000E+00
 -1       856 6.91967E-05 1.29401E-05 2.06795E-25
 -1       857 6.91694E-05 1.37627E-05 2.06795E-25
 -1       858 6.91422E-05 1.46649E-05 0.00000E+00
 -1       859 6.91144E-05 1.56316E-05 0.00000E+00
 -1       860 6.90866E-05 1.66479E-05 0.00000E+00
 -1       861 6.90586E-05 1.76988E-05 0.00000E+00
 -1       862 6.90306E-05 1.87690E-05-8.27181E-25
 -1       863 6.90025E-05 1.98435E-05 4.13590E-25
 -1       864 6.89745E-05 2.09072E-05 0.00000E+00
 -1       865 6.89465E-05 2.19449E-05 0.00000E+00
 -1       866 6.89185E-05 2.29417E-05 0.00000E+00
 -1       867 6.88906E-05 2.38823E-05 0.00000E+00
 -1       868 6.88627E-05 2.47518E-05 0.00000E+00
 -1       869 6.88348E-05 2.55354E-05 0.00000E+00
 -1       870 6.88071E-05 2.62182E-05 0.00000E+00
 -1       871 6.86707E-05 1.22112E-05 4.13590E-25
 -1       872 6.82109E-05 1.22085E-05 0.00000E+00
 -1       873 6.78029E-05 1.22055E-05 0.00000E+00
 -1       874 6.74070E-05 1.22021E-05 1.55096E-25
 -1       875 6.69838E-05 1.21982E-05-2.06795E-25
 -1       876 6.90306E-05 1.29480E-05 0.00000E+00
 -1       877 6.88247E-05 1.37300E-05 0.00000E+00
 -1       878 6.86037E-05 1.45524E-05 0.00000E+00
 -1       879 6.83697E-05 1.54100E-05 1.65436E-24
 -1       880 6.81245E-05 1.62976E-05 0.00000E+00
 -1       881 6.78700E-05 1.72101E-05-1.65436E-24
 -1       882 6.76081E-05 1.81422E-05 3.30872E-24
 -1       883 6.73408E-05 1.90888E-05 0.00000E+00
 -1       884 6.70699E-05 2.00447E-05 0.00000E+00
 -1       885 6.67975E-05 2.10047E-05-8.27181E-25
 -1       886 6.65254E-05 2.19638E-05 0.00000E+00
 -1       887 6.62556E-05 2.29167E-05-8.27181E-25
 -1       888 6.59899E-05 2.38583E-05 0.00000E+00
 -1       889 6.57299E-05 2.47832E-05 8.27181E-25
 -1       890 6.54778E-05 2.56864E-05 0.00000E+00
 -1       891 6.82907E-05 2.67479E-05 0.00000E+00
 -1       892 6.77860E-05 2.67103E-05 0.00000E+00
 -1       893 6.72464E-05 2.66728E-05 0.00000E+00
 -1       894 6.66533E-05 2.66353E-05-2.06795E-25
 -1       895 6.59878E-05 2.65978E-05 2.06795E-25
 -1       956 6.77407E-05 2.30154E-06-1.65436E-24
 -1       957 6.76580E-05 2.80596E-06 8.27181E-25
 -1       958 6.75749E-05 3.35808E-06 3.30872E-24
 -1       959 6.74917E-05 3.95202E-06 1.65436E-24
 -1       960 6.74085E-05 4.58193E-06 0.00000E+00
 -1       961 6.73251E-05 5.24189E-06-8.27181E-25
 -1       962 6.72418E-05 5.92597E-06 0.00000E+00
 -1       963 6.71584E-05 6.62826E-06 0.00000E+00
 -1       964 6.70751E-05 7.34284E-06-3.30872E-24
 -1       965 6.69917E-05 8.06378E-06 1.65436E-24
 -1       966 6.69084E-05 8.78518E-06-3.30872E-24
 -1       967 6.68250E-05 9.50109E-06 1.65436E-24
 -1       968 6.67418E-05 1.02056E-05 0.00000E+00
 -1       969 6.66586E-05 1.08928E-05 0.00000E+00
 -1       970 6.65758E-05 1.15569E-05 0.00000E+00
 -1       971 6.64162E-05 1.28447E-05 1.65436E-24
 -1       972 6.63373E-05 1.35675E-05 0.00000E+00
 -1       973 6.62582E-05 1.43527E-05-1.65436E-24
 -1       974 6.61790E-05 1.51921E-05-8.27181E-25
 -1       975 6.60996E-05 1.60777E-05 1.65436E-24
 -1       976 6.60203E-05 1.70015E-05 8.27181E-25
 -1       977 6.59408E-05 1.79554E-05 1.65436E-24
 -1       978 6.58614E-05 1.89313E-05 0.00000E+00
 -1       979 6.57820E-05 1.99211E-05 0.00000E+00
 -1       980 6.57025E-05 2.09168E-05 0.00000E+00
 -1       981 6.56231E-05 2.19102E-05 0.00000E+00
 -1       982 6.55438E-05 2.28934E-05 0.00000E+00
 -1       983 6.54646E-05 2.38581E-05 3.30872E-24
 -1       984 6.53857E-05 2.47964E-05 0.00000E+00
 -1       985 6.53072E-05 2.57001E-05 0.00000E+00
 -3
    1PSTEP                         8           4           1          
  100CL  104 4.55078E-01         409                     0    4           1
 -4  STRESS      6    1
 -5  SXX         1    4    1    1
 -5  SYY         1    4    2    2
 -5  SZZ         1    4    3    3
 -5  SXY         1    4    1    2
 -5  SYZ         1    4    2    3
 -5  SZX         1    4    3    1
 -1         1-1.58455E+06-7.24248E+05-3.24601E+05-1.01819E+06 1.67347E-10 1.04774E-08
 -1         2 2.62351E+03 2.83758E+05 8.59835E+03 8.09531E+02-1.44894E-10-1.07241E-09
 -1         3-7.67628E+01-6.72882E+05 1.57371E+02-2.30611E+02-9.26619E-11-4.41378E-09
 -1         5-5.95449E+00 2.36892E+05 6.20351E+00 9.83196E-02 8.13447E-11 9.77707E-10
 -1         8-7.46288E+05-3.22117E+05-2.75889E+04-5.56739E+05-1.45519E-11-4.36557E-10
 -1         9-1.28868E+06-3.30869E+05-1.28172E+05-4.38066E+05 3.38332E-09-5.93136E-09
 -1        10-5.39171E+02-7.01000E+05-9.10918E+02-1.55477E+03-3.41970E-09 6.49791E-09
 -1        12-3.41183E+00 2.36904E+05 2.01185E+02 9.30874E-01 2.17568E-10-2.83762E-10
 -1        15 1.94557E+03 1.06921E+03 6.28899E+03 3.99282E+00 2.74954E-09 5.85518E-07
 -1        16-3.52600E+06-1.16729E+06-5.52238E+05-1.19055E+06 1.09770E-08 4.05513E-09
 -1        17-8.00349E+05-4.88059E+05-1.53801E+05-4.54687E+05-7.69942E-09-1.48139E-09
 -1        18 1.73013E+04-6.01194E+01-1.39159E+04-5.56022E+04 1.10924E-09-2.19279E-09
 -1        19 7.42367E+04 8.84874E+04-4.19457E+02 1.45272E+04-6.04268E-10-2.15259E-09
 -1        20-3.10351E+04-3.50789E+05-7.73804E+04 2.58151E+04 4.26250E-09 1.44216E-09
 -1        21-3.31017E+01-2.03195E+05-6.56195E+02-7.10764E+01-6.74000E-09-8.94195E-09
 -1        24-3.18018E+06-1.03823E+06-4.47251E+05-1.26796E+06-1.75520E-08-8.46921E-09
 -1        25 2.64248E+04-1.07885E+04 1.48567E+04-1.01288E+05 3.28055E-10 8.13052E-09
 -1        26-1.73457E+04 6.04225E+04-1.20193E+04-8.60440E+03 1.40753E-09 3.25327E-09
 -1        27-5.60746E+04-1.92433E+05-7.21831E+04 4.33694E+04 4.95068E-09 1.13475E-09
 -1        28 1.57293E+04-5.61352E+04 1.14781E+04 1.79731E+04 2.29811E-09 5.21923E-09
 -1        32-7.51109E+05-1.24494E+05 3.21212E+05-5.08067E+05-1.53668E-08 9.95544E-09
 -1        33-1.10071E+05 5.65904E+04 2.00611E+04-3.27987E+04 1.13156E-09 2.30102E-09
 -1        34-1.42870E+05-1.42224E+04 3.35229E+02 4.39392E+04 3.58073E-09-1.72865E-09
 -1        35-1.59953E+04-2.23110E+04-8.74009E+02 3.53952E+04 4.75702E-09 2.06152E-11
 -1        51 1.33115E+04-3.62305E+05 3.45906E+04-9.13175E+05 8.73115E-11-1.99361E-09
 -1        52 8.42935E+03-3.61375E+05 2.32943E+04-1.06507E+06 3.78350E-10-1.20781E-09
 -1        53 6.40252E+03-3.73215E+05 2.03551E+04-9.10007E+05 5.23869E-10 4.51109E-10
 -1        54 1.85013E+04-3.71832E+05 3.32700E+04-1.06837E+06 4.36557E-11-6.92671E-09
 -1        55 3.69770E+04-3.84518E+05 5.97866E+04-9.09505E+05 5.96629E-10-1.39335E-09
 -1        56-3.04214E+06-3.42848E+05-2.38534E+05-1.17244E+06-1.08412E-09-4.51109E-10
 -1        57-3.13542E+06-5.61153E+05-1.60782E+05-1.16606E+06 1.62254E-09-7.08678E-09
 -1        58-3.09067E+06-4.17762E+05-5.61259E+04-1.15670E+06-7.02130E-10-8.40373E-10
 -1        59-3.07919E+06-4.73342E+05-3.35031E+04-1.18497E+06 5.73550E-10-4.62205E-09
 -1        60-3.09787E+06-4.28085E+05-1.31066E+04-1.15443E+06 1.40426E-09-7.79391E-09
 -1        61-3.07208E+06-4.59968E+05-7.44717E+03-1.18610E+06 3.41072E-09 5.76057E-09
 -1        62-3.09765E+06-4.30824E+05-3.59730E+03-1.15565E+06-1.10686E-09-3.35170E-09
 -1        63-3.07481E+06-4.54495E+05-2.92908E+03-1.18169E+06-8.88122E-10 4.34591E-09
 -1        64-3.09502E+06-4.33592E+05-3.40990E+03-1.15877E+06-1.21349E-09 7.61452E-09
 -1        65-3.08193E+06-4.49406E+05-6.74497E+03-1.17399E+06-1.00624E-09-1.42031E-08
 -1        66-3.09043E+06-4.36024E+05-1.19582E+04-1.16326E+06 1.85196E-09-7.56063E-09
 -1        67-3.09680E+06-4.52922E+05-3.02536E+04-1.16310E+06-2.16141E-09 8.01447E-09
 -1        68-3.08018E+06-4.30406E+05-5.08566E+04-1.16954E+06 2.78578E-09-3.93629E-09
 -1        69-3.15364E+06-5.26615E+05-1.45434E+05-1.13962E+06 1.49930E-09-9.03674E-09
 -1        70-3.03416E+06-3.64580E+05-2.15867E+05-1.18599E+06-1.40426E-09-1.05210E-08
 -1        86-1.31790E+03 2.80968E+05 9.18326E+03-4.04793E+02 1.11390E-09 1.09723E-08
 -1        87 8.74058E+03 2.86774E+05 1.92015E+04 1.67615E+03 1.85446E-09 6.08088E-09
 -1        88-7.41917E+03 2.77956E+05 2.93480E+04-1.27144E+03 2.83217E-09-1.55376E-09
 -1        89 5.52868E+04 3.08570E+05 7.92256E+04 3.66499E+03 4.35102E-09-7.50947E-09
 -1        90-4.77176E+04 2.59197E+05 1.11834E+05-2.39314E+03 4.99131E-09 2.15357E-09
 -1       121-1.21852E+02-6.73234E+05 1.28664E+02 1.15171E+02 3.59613E-10-8.86757E-10
 -1       122-2.46438E+01-6.72850E+05 3.41052E+02-4.61115E+02-1.24513E-09 4.06362E-09
 -1       123-1.58011E+02-6.73271E+05 5.30483E+02 3.45149E+02 1.03114E-09-7.39965E-09
 -1       124 6.04621E+02-6.72472E+05 1.42385E+03-1.03918E+03-2.44120E-09-8.63656E-09
 -1       125-5.63423E+02-6.73626E+05 2.16208E+03 6.92950E+02 1.56706E-09 1.52613E-09
 -1       191-6.45625E+00 2.36911E+05 7.34071E+00-4.98687E-02 1.34035E-10 9.02310E-09
 -1       192-6.52512E+00 2.36892E+05 1.31386E+01 6.43871E-01 2.23449E-10 2.89192E-08
 -1       193-7.97319E+00 2.36911E+05 2.43621E+01-5.98764E-01 2.24373E-10 6.34145E-09
 -1       194-8.36130E+00 2.36894E+05 4.97056E+01 1.59840E+00 1.16732E-10-1.85667E-08
 -1       195-1.08884E+01 2.36909E+05 9.71545E+01-1.01195E+00 3.98394E-10-6.34782E-09
 -1       251 2.21131E+05-4.45230E+04 1.03835E+05 4.63387E+03-2.13049E-10 3.12866E-09
 -1       252 2.69194E+05 5.14873E+04 7.37955E+04-1.47468E+04 1.06184E-10 1.81171E-09
 -1       253 2.39223E+05-6.89128E+03 2.68657E+04 3.11261E+03-4.08590E-10 2.30466E-09
 -1       254 2.47800E+05 7.95581E+03 1.70308E+04-1.23615E+04 4.09528E-10-7.68750E-09
 -1       255 2.42410E+05-1.06356E+03 6.94254E+03 2.24877E+03 5.58202E-10-2.93130E-09
 -1       256 2.43959E+05 1.26577E+03 4.23503E+03-1.10880E+04 4.60219E-10 4.23870E-09
 -1       257 2.43013E+05-1.85735E+02 2.18059E+03 1.83911E+03-1.26377E-10 5.62568E-09
 -1       258 2.43342E+05 4.02083E+02 1.94129E+03-1.06734E+04-4.15454E-11 5.00306E-09
 -1       259 2.43012E+05-1.91418E+02 2.23434E+03 1.83415E+03-9.01579E-10-2.58831E-09
 -1       260 2.43978E+05 1.31569E+03 4.38755E+03-1.10688E+04 4.59863E-11 4.37240E-10
 -1       261 2.42392E+05-1.10714E+03 7.22185E+03 2.23450E+03 6.28575E-10 6.73435E-09
 -1       262 2.47945E+05 8.28469E+03 1.77190E+04-1.23201E+04 2.36469E-11-7.72707E-09
 -1       263 2.39095E+05-7.17440E+03 2.79773E+04 3.08552E+03-7.59428E-10-1.12232E-09
 -1       264 2.70150E+05 5.36069E+04 7.68119E+04-1.46817E+04-1.81888E-09 2.05546E-10
 -1       265 2.20301E+05-4.63492E+04 1.08131E+05 4.59588E+03-3.95175E-10-3.71074E-10
 -1       266-3.52199E+04-1.64664E+04 8.26474E+04-8.54444E+01 4.08909E-09 8.90608E-07
 -1       267 4.08307E+04 1.91957E+04 5.84082E+04 9.85731E+01 8.15635E-09 1.76925E-06
 -1       268-5.47526E+03-2.71842E+03 2.17104E+04-1.25606E+01 6.51926E-09 1.42914E-06
 -1       269 6.46477E+03 3.25363E+03 1.41111E+04 1.46305E+01 4.95379E-09 1.07552E-06
 -1       270-9.70351E+02-5.34570E+02 6.81164E+03-1.98549E+00 3.68505E-09 8.01558E-07
 -1       271-3.45809E+06-4.32621E+05-2.66412E+05-1.34874E+06 1.15688E-09-2.40107E-09
 -1       272-3.53714E+06-6.43027E+05-1.71224E+05-1.36460E+06 1.75464E-09-1.29403E-08
 -1       273-3.50987E+06-4.97263E+05-6.29385E+04-1.33498E+06 1.68484E-09 4.19095E-09
 -1       274-3.47617E+06-5.64298E+05-3.51799E+04-1.38622E+06 1.09503E-09 2.71666E-09
 -1       275-3.51856E+06-5.02283E+05-1.46416E+04-1.33094E+06-5.78439E-10 4.96857E-09
 -1       276-3.46579E+06-5.58642E+05-7.75852E+03-1.39286E+06 5.40240E-10 1.18234E-10
 -1       277-3.52084E+06-5.01580E+05-3.79701E+03-1.32917E+06-3.46517E-10-6.64159E-10
 -1       278-3.46364E+06-5.59183E+05-2.75350E+03-1.39502E+06-6.37783E-11 3.28964E-09
 -1       279-3.52101E+06-5.01470E+05-2.95279E+03-1.32902E+06 2.13731E-10-8.75934E-09
 -1       280-3.46502E+06-5.58745E+05-5.40808E+03-1.39356E+06-2.04977E-09-6.28529E-09
 -1       281-3.51924E+06-5.02202E+05-9.92365E+03-1.33046E+06-1.05774E-09 5.09135E-09
 -1       282-3.47275E+06-5.61645E+05-2.36512E+04-1.38795E+06 9.77707E-11 8.27640E-10
 -1       283-3.51272E+06-4.99583E+05-4.23110E+04-1.33395E+06 6.54836E-11-6.38465E-09
 -1       284-3.51517E+06-6.12743E+05-1.14922E+05-1.37122E+06-4.15639E-10-1.06375E-08
 -1       285-3.47686E+06-4.57393E+05-1.78999E+05-1.34442E+06 1.33605E-09-2.39379E-09
 -1       301 1.36019E+04-1.20711E+04 1.04842E+05-3.45252E+04-6.22094E-10-4.50427E-10
 -1       302 1.46568E+04 1.44669E+04 7.55832E+04-5.08546E+04 1.52795E-09 1.07225E-08
 -1       303 7.70484E+02-2.62815E+03 6.93949E+04-3.46183E+04-7.74889E-10 8.66658E-09
 -1       304 2.72349E+04 2.61236E+04 1.16535E+05-5.06877E+04 1.14051E-09 5.14046E-09
 -1       305 2.69185E+04-2.35654E+04 1.95488E+05-3.46038E+04-1.06957E-09 6.38374E-09
 -1       306-3.74360E+06-4.37022E+05-2.85197E+05-1.46855E+06 2.27737E-09-9.72068E-09
 -1       307-3.89910E+06-6.68831E+05-1.94351E+05-1.40835E+06 2.74849E-09 4.75120E-09
 -1       308-3.81290E+06-5.21372E+05-6.71663E+04-1.43684E+06-2.20098E-10 5.23141E-09
 -1       309-3.81030E+06-5.79430E+05-4.05023E+04-1.45563E+06-2.44640E-10-2.68301E-11
 -1       310-3.83197E+06-5.24674E+05-1.57805E+04-1.42185E+06 2.25270E-10-4.51018E-09
 -1       311-3.78517E+06-5.79079E+05-9.07731E+03-1.47755E+06 3.50133E-09 7.44876E-10
 -1       312-3.83827E+06-5.21247E+05-4.44577E+03-1.41524E+06 1.00192E-09-2.01703E-09
 -1       313-3.78085E+06-5.80386E+05-3.99616E+03-1.48186E+06-1.29822E-09-5.01103E-10
 -1       314-3.83637E+06-5.23270E+05-4.86201E+03-1.41762E+06-2.81943E-09-7.90146E-09
 -1       315-3.79218E+06-5.72121E+05-1.00907E+04-1.46880E+06-2.11071E-09-3.53907E-09
 -1       316-3.82667E+06-5.29742E+05-1.78957E+04-1.42809E+06 3.97222E-10-3.35604E-10
 -1       317-3.82357E+06-5.70015E+05-4.58560E+04-1.44130E+06 5.61442E-10 4.80213E-10
 -1       318-3.80483E+06-5.25838E+05-7.60694E+04-1.44484E+06-5.14410E-09-7.27596E-11
 -1       319-3.92218E+06-6.74129E+05-2.20350E+05-1.39134E+06-3.53975E-09-5.15502E-09
 -1       320-3.72876E+06-4.27433E+05-3.23027E+05-1.47755E+06 8.35280E-09-5.67525E-10
 -1       336 4.78899E+02-7.28815E+05-3.93578E+03 8.59902E+02-6.32099E-09-6.05905E-09
 -1       337-1.43277E+03-7.29786E+05-4.31591E+03-2.19878E+03-1.18487E-08-9.51786E-10
 -1       338 3.13021E+02-7.28924E+05-5.49977E+03 1.33415E+03-8.60814E-09 2.67391E-09
 -1       339-5.68719E+03-7.32428E+05-1.20258E+04-3.13435E+03-1.56306E-08 5.26597E-10
 -1       340 3.83067E+03-7.26238E+05-1.85670E+04 1.78901E+03-1.03746E-08 1.05993E-08
 -1       406 1.18820E+01 2.36900E+05 3.97115E+02 6.28666E-02 5.82332E-10 7.96717E-10
 -1       407 1.35085E+02 2.36974E+05 8.44179E+02-8.26699E+00 7.46923E-11-3.53157E-09
 -1       408 4.31083E+02 2.36840E+05 1.68591E+03 8.35276E+00 6.36646E-10 2.14441E-08
 -1       409 1.81986E+03 2.37513E+05 3.79565E+03-7.98617E+01 1.65983E-11 4.21592E-08
 -1       410 5.23488E+03 2.36360E+05 7.74862E+03 7.43690E+01 5.65706E-10 2.45677E-08
 -1       521-7.13176E+06-7.85614E+05-5.38512E+05-2.70976E+06 2.83762E-09-6.83940E-09
 -1       522-7.14587E+06-1.41567E+06-3.54183E+05-2.84488E+06-1.43336E-08-9.25138E-09
 -1       523-7.31549E+06-8.62329E+05-1.26437E+05-2.56246E+06 1.02091E-09-1.36133E-08
 -1       524-6.94236E+06-1.32442E+06-7.36510E+04-3.03614E+06 1.91799E-08-1.81790E-08
 -1       525-7.34724E+06-8.63204E+05-2.85797E+04-2.52931E+06 1.33323E-08-1.06365E-08
 -1       526-6.94856E+06-1.25761E+06-1.33372E+04-2.99017E+06-7.68523E-10 1.75805E-09
 -1       527-7.30370E+06-9.32454E+05-1.31157E+04-2.60476E+06 5.42423E-09-3.88809E-09
 -1       528-7.08260E+06-1.08330E+06 1.54292E+03-2.77242E+06-5.16775E-09 7.50515E-09
 -1       529-7.19917E+06-1.04747E+06-1.60022E+04-2.73666E+06-1.24855E-08 4.50018E-09
 -1       530-7.31024E+06-8.71018E+05-9.54673E+03-2.53190E+06-9.81890E-09 2.44108E-09
 -1       531-7.08010E+06-1.14179E+06-3.15300E+04-2.84793E+06-2.33267E-08 1.60253E-09
 -1       532-7.50313E+06-7.60861E+05-7.26757E+04-2.39166E+06 2.10729E-08-2.49929E-08
 -1       533-7.02073E+06-1.14811E+06-1.22753E+05-2.88777E+06 5.85351E-09-3.30620E-08
 -1       534-7.59867E+06-9.84342E+05-3.54767E+05-2.37213E+06-1.07339E-08 2.27155E-08
 -1       535-6.98386E+06-9.23868E+05-5.30534E+05-2.86456E+06-9.67702E-09 2.00525E-08
 -1       536-5.74935E+04-1.84094E+04 4.25123E+04-4.61104E+02-6.13110E-09-3.63798E-10
 -1       537-3.84032E+04 2.14368E+04 3.02253E+04 6.41802E+02-1.08130E-08-3.40879E-09
 -1       538-5.06439E+04-2.79920E+03 1.09574E+04-3.55738E+02 5.93730E-11-1.67847E-09
 -1       539-4.60553E+04 3.50614E+03 7.17234E+03 2.98693E+02 5.27557E-09 4.86671E-09
 -1       540-4.97483E+04-3.93379E+02 2.68848E+03-1.18201E+02-4.63665E-10 1.59241E-09
 -1       541-4.73726E+04 5.93113E+02 1.86158E+03-2.00685E+02-2.94254E-09 2.73050E-09
 -1       542-4.95130E+04-7.44004E+01 5.49300E+02 1.44213E+02 9.48930E-10-2.79158E-10
 -1       543-4.81185E+04 6.77698E+01 4.30005E+02-6.65684E+02-2.49798E-10-8.71444E-09
 -1       544-4.91022E+04 3.74559E+01-5.23810E+01 3.47423E+02-1.23853E-09-7.57355E-09
 -1       545-4.87257E+04-8.58848E+01-3.03882E+02-9.52700E+02-3.21759E-09-8.65931E-09
 -1       546-4.87637E+04 2.27923E+02-7.08197E+02 4.31839E+02 2.17008E-10-2.50338E-09
 -1       547-4.91423E+04-8.51876E+02-1.86168E+03-9.79506E+02-2.98740E-09-4.99810E-09
 -1       548-4.85954E+04 8.94343E+02-3.08987E+03 3.74469E+02-4.89094E-09-1.98918E-09
 -1       549-5.10165E+04-5.92366E+03-8.32704E+03-7.33895E+02-2.29902E-09-4.98528E-09
 -1       550-4.70193E+04 5.16323E+03-1.20906E+04 1.85832E+02 2.29228E-10-4.24097E-09
 -1       551 8.05615E+03-3.78135E+05 2.05764E+04-6.44153E+05-2.88637E-08-1.10595E-09
 -1       552 1.74891E+04-3.80494E+05 2.71916E+04-9.16891E+05-2.21626E-08 1.16379E-08
 -1       553 1.17914E+04-3.85519E+05 4.21934E+04-6.41982E+05-3.56886E-08 7.30506E-09
 -1       554 3.89892E+04-3.68718E+05 8.95999E+04-9.17811E+05-2.21698E-08 2.00259E-09
 -1       555 3.77700E+04-4.02637E+05 1.60795E+05-6.42734E+05-3.55285E-08-3.21961E-09
 -1       556 5.53099E+04-1.22457E+05 4.17614E+04-1.61250E+05-8.89850E-09-1.03100E-08
 -1       557 1.04875E+05-1.63614E+05 2.19354E+04-2.01695E+05-1.92085E-09 7.15590E-09
 -1       558 5.52547E+04-1.28095E+05 8.87137E+03-1.56401E+05-3.38332E-09 4.42196E-09
 -1       559 9.82502E+04-1.69347E+05 4.50320E+03-2.04594E+05 3.97631E-09-9.15315E-09
 -1       560 5.38570E+04-1.27163E+05 1.86193E+03-1.57272E+05 3.72529E-09 6.94945E-09
 -1       561 9.60499E+04-1.68801E+05 9.89800E+02-2.05983E+05-1.36788E-09 5.62432E-09
 -1       562 5.27262E+04-1.26403E+05 3.76251E+02-1.58087E+05 5.89353E-10 3.47882E-10
 -1       563 9.47203E+04-1.68231E+05 2.37188E+02-2.06834E+05 5.23869E-10 1.88919E-09
 -1       564 5.20229E+04-1.25948E+05 8.35647E+01-1.58587E+05 6.60293E-09 4.32738E-09
 -1       565 9.40314E+04-1.67936E+05 5.13466E+01-2.07267E+05 8.14907E-10-8.45375E-09
 -1       566 5.17737E+04-1.25782E+05-2.26949E+01-1.58768E+05-7.04858E-10 1.13869E-09
 -1       567 9.39436E+04-1.67893E+05-1.11317E+02-2.07262E+05 5.77415E-09-2.34650E-10
 -1       568 5.20100E+04-1.25938E+05-3.16753E+02-1.58659E+05 1.74441E-09 1.04646E-08
 -1       569 9.38432E+04-1.67796E+05-7.41479E+02-2.06292E+05-3.77804E-09 8.97489E-09
 -1       570 5.32321E+04-1.27064E+05-1.57352E+03-1.58631E+05-1.38607E-09-6.75391E-09
 -1       571 1.71862E+05 6.20950E+03 9.20154E+03-4.33869E+04 7.21684E-10 6.95081E-09
 -1       572 1.73230E+05 2.15985E+03 4.50815E+03-4.75598E+04 5.88898E-11 6.90534E-10
 -1       573 1.72411E+05 5.15126E+02 2.00269E+03-4.32736E+04 3.81988E-10-1.56069E-09
 -1       574 1.72572E+05 1.68208E+02 1.00338E+03-4.76862E+04-3.49019E-10-3.41515E-10
 -1       575 1.72472E+05 2.38872E+01 4.72874E+02-4.32587E+04 1.22100E-10 1.89812E-09
 -1       576 1.72483E+05 7.55649E+00 2.40688E+02-4.77032E+04-1.17990E-09 1.31149E-09
 -1       577 1.72481E+05-2.36800E+00 1.18532E+02-4.32567E+04-1.30831E-09 4.82532E-09
 -1       578 1.72474E+05-5.16930E-01 6.45872E+01-4.77052E+04-1.90448E-09-8.73570E-10
 -1       579 1.72491E+05-4.09595E+00 3.94106E+01-4.32567E+04-9.59972E-10 5.03132E-09
 -1       580 1.72487E+05-5.70735E+00 3.66705E+01-4.77026E+04 5.47971E-11 4.23279E-09
 -1       581 1.72508E+05-1.04428E+01 4.95358E+01-4.32593E+04 7.93079E-10 1.48111E-09
 -1       582 1.72519E+05-3.65157E+00 9.43108E+01-4.76769E+04-1.06593E-09 8.94670E-09
 -1       583 1.72529E+05 1.89241E+01 1.80707E+02-4.32824E+04-9.09495E-12 1.43768E-09
 -1       584 1.72612E+05 1.59196E+02 4.05231E+02-4.74835E+04-2.23690E-09 2.75577E-09
 -1       585 1.72511E+05 5.16070E+02 8.22711E+02-4.34529E+04-2.63753E-11-2.19916E-09
 -1       586-2.11833E+03 5.62421E+04-2.81961E+03-1.47309E+05 4.65207E-10-4.28508E-09
 -1       587-4.50318E+02 5.58614E+04-3.34562E+02-1.62101E+05 7.13953E-10 3.26077E-09
 -1       588 5.90985E+02 5.59394E+04 1.95625E+03-1.47219E+05 3.83807E-10-7.77709E-09
 -1       589 2.93049E+03 5.70192E+04 5.72506E+03-1.61966E+05 5.25688E-10-1.12082E-08
 -1       590 8.40360E+03 5.52494E+04 1.22677E+04-1.47444E+05 2.48292E-10-8.03811E-09
 -1       591-3.75484E+04-1.07350E+04-1.25156E+04-1.94461E+04 2.67050E-10-5.30417E-09
 -1       592-3.87346E+04-1.37946E+04-6.77898E+03-2.26940E+04-1.38715E-09-5.64683E-10
 -1       593-3.88138E+04-9.81293E+03-2.82215E+03-2.03501E+04-1.83718E-10-9.85665E-11
 -1       594-3.69907E+04-1.19753E+04-1.40752E+03-2.27806E+04 2.44700E-09 7.37586E-10
 -1       595-3.89108E+04-9.80870E+03-6.46827E+02-2.03916E+04 4.15361E-09 1.23431E-08
 -1       596-3.68727E+04-1.18920E+04-3.29676E+02-2.27684E+04 2.67107E-10 3.48450E-11
 -1       597-3.89231E+04-9.81671E+03-1.81398E+02-2.03933E+04-1.41271E-09 3.15481E-10
 -1       598-3.68614E+04-1.18888E+04-1.49269E+02-2.27649E+04-1.45263E-10-6.17388E-09
 -1       599-3.89221E+04-9.81676E+03-1.94976E+02-2.03930E+04-3.54817E-10-3.91492E-09
 -1       600-3.68740E+04-1.18930E+04-3.65665E+02-2.27680E+04 4.98289E-10-5.49824E-09
 -1       601-3.89067E+04-9.80812E+03-7.23172E+02-2.03905E+04 1.36652E-09-2.90652E-09
 -1       602-3.70061E+04-1.19863E+04-1.57706E+03-2.27802E+04-4.42014E-10-3.10320E-09
 -1       603-3.87969E+04-9.81440E+03-3.16316E+03-2.03442E+04-2.82398E-10 5.55019E-10
 -1       604-3.89670E+04-1.40183E+04-7.59840E+03-2.26736E+04 1.64619E-09 8.87212E-09
 -1       605-3.73702E+04-1.08540E+04-1.40283E+04-1.93379E+04 6.20048E-10-6.31189E-10
 -1       606 2.45031E+04-8.27754E+03-1.49060E+04 2.39262E+04-1.55978E-09-5.02951E-10
 -1       607 2.19501E+04-2.67005E+03-7.42234E+03 2.68584E+04 1.60253E-09 1.34617E-09
 -1       608 2.33989E+04-4.49931E+02-3.32385E+03 2.37354E+04 3.90537E-09 4.30646E-10
 -1       609 2.31103E+04-1.16445E+02-1.67879E+03 2.70690E+04-4.51109E-09-8.63884E-09
 -1       610 2.32651E+04 2.21350E+01-8.01924E+02 2.37140E+04-9.15952E-09 1.39971E-09
 -1       611 2.32103E+04 3.33090E+01-4.04482E+02 2.70920E+04-7.69751E-09 4.22551E-09
 -1       612 2.32294E+04 3.53628E+01-1.93579E+02 2.37119E+04-7.91260E-11-5.03564E-09
 -1       613 2.32083E+04 4.05881E+01-8.82753E+01 2.70948E+04-2.29193E-09-7.54653E-09
 -1       614 2.32099E+04 3.60039E+01-2.47378E+01 2.37112E+04 9.32323E-09-4.04702E-09
 -1       615 2.31981E+04 4.52871E+01 2.73310E+01 2.70952E+04 2.16096E-08 6.72799E-10
 -1       616 2.31951E+04 4.09358E+01 9.08500E+01 2.37114E+04 4.60295E-09-5.30463E-10
 -1       617 2.32037E+04 6.81078E+01 2.10821E+02 2.70947E+04 4.25871E-10 4.89672E-09
 -1       618 2.31726E+04 1.04366E+02 4.26203E+02 2.37115E+04 5.26597E-10-1.88697E-09
 -1       619 2.33509E+04 3.99890E+02 9.57954E+02 2.70941E+04 2.25555E-09-4.97107E-09
 -1       620 2.30289E+04 1.11733E+03 1.92567E+03 2.37106E+04 5.36602E-10 5.58953E-09
 -1       621 2.97194E+02 1.86987E+05 2.58010E+03 6.20382E+03-2.28226E-10-5.46538E-09
 -1       622 3.39827E+02 1.87627E+05 2.19151E+03 9.06059E+03-2.41812E-10-1.23075E-08
 -1       623 1.37973E+01 1.87171E+05 2.52237E+03 6.17471E+03-1.88209E-10-7.70842E-09
 -1       624 1.14108E+03 1.88361E+05 4.79165E+03 9.08903E+03-3.79316E-10-9.96275E-09
 -1       625 1.14600E+03 1.86248E+05 8.33094E+03 6.17569E+03-1.97360E-10 1.11996E-09
 -1       626 1.54364E+05 4.27750E+04 3.07630E+03 8.34607E+04-2.31648E-09-3.77986E-09
 -1       627 1.52252E+05 4.43310E+04 1.48228E+03 8.68341E+04-1.85901E-09-8.02095E-09
 -1       628 1.54480E+05 4.13193E+04 6.26078E+02 8.39244E+04 4.41105E-10-4.35330E-09
 -1       629 1.51807E+05 4.39813E+04 3.06874E+02 8.70360E+04 5.48334E-09 5.30122E-09
 -1       630 1.54487E+05 4.12505E+04 1.41891E+02 8.39366E+04 1.59889E-09-2.51634E-09
 -1       631 1.51753E+05 4.39737E+04 7.63365E+01 8.70378E+04-2.43563E-09-9.04269E-09
 -1       632 1.54479E+05 4.12561E+04 5.04125E+01 8.39296E+04-4.37558E-09-6.78364E-09
 -1       633 1.51742E+05 4.39784E+04 5.63778E+01 8.70317E+04 1.11072E-09 8.29618E-09
 -1       634 1.54471E+05 4.12569E+04 9.12997E+01 8.39256E+04 4.00496E-09-4.32988E-09
 -1       635 1.51745E+05 4.39799E+04 1.85180E+02 8.70311E+04 4.98312E-09-7.56313E-09
 -1       636 1.54460E+05 4.12563E+04 3.74038E+02 8.39227E+04-1.51545E-09-1.00454E-09
 -1       637 1.51821E+05 4.40396E+04 8.22084E+02 8.70271E+04 5.49168E-10 4.24052E-10
 -1       638 1.54428E+05 4.14397E+04 1.68956E+03 8.38380E+04-5.03792E-09-6.85168E-09
 -1       639 1.52705E+05 4.52756E+04 3.99700E+03 8.67643E+04-7.88805E-09-3.28919E-09
 -1       640 1.54309E+05 4.51190E+04 8.29483E+03 8.22754E+04-3.15708E-09 1.90812E-09
 -1       656 4.18406E+04-1.05892E+06-1.01007E+05-3.78280E+02 1.06593E-09-3.61118E-09
 -1       657-5.52873E+04-1.10452E+06-8.35321E+04 6.86265E+03 6.29370E-10-6.15640E-09
 -1       658 1.32662E+04-1.07193E+06-5.12588E+04-1.32267E+03 6.10498E-10 4.67887E-09
 -1       659-5.92751E+04-1.10640E+06-8.87698E+04 7.49080E+03-1.75714E-09 2.98248E-09
 -1       660 4.58186E+04-1.05704E+06-1.10018E+05-1.00641E+03-6.83940E-10 6.17695E-09
 -1       661 1.49954E+05 1.63249E+04 1.43852E+04 5.86002E+04 4.11660E-09-7.54881E-10
 -1       662 1.57447E+05 2.76079E+04 9.69325E+03 5.60995E+04 2.71996E-09 1.90539E-09
 -1       663 1.52773E+05 2.09456E+04 3.39078E+03 5.77874E+04 6.96559E-10 3.05249E-09
 -1       664 1.54186E+05 2.21983E+04 2.02723E+03 5.70868E+04 2.90231E-09-1.10992E-08
 -1       665 1.53194E+05 2.15826E+04 7.99685E+02 5.76702E+04-3.29800E-09 5.03917E-11
 -1       666 1.53692E+05 2.14651E+04 4.66315E+02 5.72364E+04-6.56252E-09 4.09455E-09
 -1       667 1.53264E+05 2.16597E+04 2.45846E+02 5.76451E+04-1.13599E-09 6.26824E-09
 -1       668 1.53618E+05 2.14032E+04 2.46223E+02 5.72720E+04 4.87128E-09 2.27334E-09
 -1       669 1.53268E+05 2.16426E+04 3.29884E+02 5.76352E+04 2.40719E-09 3.01453E-09
 -1       670 1.53703E+05 2.15761E+04 7.15037E+02 5.72696E+04 6.39157E-09-8.22791E-09
 -1       671 1.53180E+05 2.14903E+04 1.26854E+03 5.76460E+04-2.71676E-11-3.19238E-09
 -1       672 1.54444E+05 2.28081E+04 3.24466E+03 5.70888E+04-3.38254E-10-7.87963E-09
 -1       673 1.52530E+05 2.04417E+04 5.43722E+03 5.78042E+04-2.46837E-09 6.45855E-09
 -1       674 1.59623E+05 3.15402E+04 1.55494E+04 5.55647E+04-5.61272E-09 5.52063E-10
 -1       675 1.48035E+05 1.30023E+04 2.30800E+04 5.90781E+04-2.02135E-09 4.05362E-09
 -1       676 1.70393E+01-2.03140E+05-7.90883E+02 3.55391E+01 1.88035E-09 1.61941E-09
 -1       677-2.09900E+02-2.03331E+05-1.44739E+03-7.10485E+01-2.85968E-09-2.75535E-09
 -1       678 1.40202E+02-2.03004E+05-2.55860E+03 3.54849E+01-2.17381E-09 5.77617E-09
 -1       679-2.55906E+03-2.04876E+05-6.07790E+03-7.08341E+01-2.71621E-09-4.03162E-09
 -1       680 1.52727E+03-2.01596E+05-9.79557E+03 3.49177E+01-2.76486E-10 8.94438E-10
 -1       771-2.18207E+06-3.83333E+05-5.36241E+04-9.06469E+05-9.03674E-09-5.04951E-09
 -1       772-2.16821E+06-4.12095E+05-2.87227E+04-9.38551E+05-6.27551E-09 3.35967E-09
 -1       773-2.18954E+06-3.77526E+05-1.24946E+04-9.09459E+05-5.39876E-09 0.00000E+00
 -1       774-2.16055E+06-4.05876E+05-6.05573E+03-9.42100E+05 6.22822E-09-8.33097E-10
 -1       775-2.19140E+06-3.76305E+05-3.13848E+03-9.09675E+05-2.61934E-09 8.87667E-10
 -1       776-2.16046E+06-4.05953E+05-1.42602E+03-9.44092E+05-1.00044E-09 2.13186E-09
 -1       777-2.19272E+06-3.75342E+05-9.36334E+02-9.09793E+05 8.36735E-10 1.42245E-09
 -1       778-2.16083E+06-4.06208E+05-3.99681E+02-9.45755E+05 1.87720E-09 3.92538E-09
 -1       779-2.19378E+06-3.74523E+05-4.18980E+02-9.09901E+05-6.01358E-09-1.21145E-09
 -1       780-2.16121E+06-4.06416E+05-2.96634E+02-9.47102E+05-3.78350E-09 1.11841E-08
 -1       781-2.19458E+06-3.73868E+05-5.36896E+02-9.09982E+05-1.11468E-08 4.04725E-10
 -1       782-2.16158E+06-4.06611E+05-9.34559E+02-9.48093E+05-1.11904E-08-2.37776E-09
 -1       783-2.19507E+06-3.73436E+05-1.87464E+03-9.10020E+05-2.11003E-09-3.84671E-09
 -1       784-2.16289E+06-4.07889E+05-4.42205E+03-9.48647E+05-5.45697E-09 1.49157E-10
 -1       785-2.19454E+06-3.73804E+05-8.18103E+03-9.09455E+05-9.82527E-09 1.39789E-09
 -1       786 1.58470E+05-8.48104E+03 1.96209E+04-4.49291E+00 5.32875E-07 3.68436E-09
 -1       787 1.66972E+05 9.81842E+03 1.38814E+04 2.53496E-01 1.06045E-06 1.21072E-08
 -1       788 1.61751E+05-1.32950E+03 5.07841E+03-1.01220E+00 1.19729E-06-5.52905E-09
 -1       789 1.63151E+05 1.53832E+03 3.19080E+03-6.80576E+00 1.33205E-06 1.20298E-08
 -1       790 1.62292E+05-2.07686E+02 1.29833E+03 2.56625E+00 1.57549E-06-1.14661E-08
 -1       791 1.62520E+05 2.41306E+02 7.62278E+02-1.50997E+01 1.82091E-06 8.04179E-09
 -1       792 1.62383E+05-3.34651E+01 3.47881E+02 7.28188E+00 2.34860E-06-1.37355E-08
 -1       793 1.62418E+05 4.69923E+01 2.27916E+02-2.69415E+01 2.87130E-06 5.40419E-09
 -1       794 1.62394E+05-1.35018E+01 1.68761E+02 1.44082E+01 1.43662E-06-1.27719E-08
 -1       795 1.62428E+05 6.96510E+01 2.44012E+02-4.55054E+01 4.54298E-09 1.23119E-08
 -1       796 1.62373E+05-5.61076E+01 3.65444E+02 2.58461E+01 2.87110E-10 1.85258E-09
 -1       797 1.62593E+05 4.11339E+02 8.61628E+02-7.57505E+01-7.68052E-11 3.85370E-09
 -1       798 1.62228E+05-3.54938E+02 1.36000E+03 4.46538E+01 2.48277E-11 1.33690E-09
 -1       799 1.63614E+05 2.62078E+03 3.70764E+03-1.26047E+02-8.20622E-10 2.15198E-09
 -1       800 1.61352E+05-2.26377E+03 5.23722E+03 7.61431E+01-2.00041E-10 2.46087E-09
 -1       801-8.49235E+03-6.05378E+04 5.50962E+03 1.76201E+04 9.49512E-09 9.50649E-10
 -1       802 2.22580E+04 3.34667E+04 4.47016E+04-7.07721E+04 2.56587E-08-7.22991E-09
 -1       803-1.29157E+04-2.19731E+04 5.70912E+04 1.75178E+04 2.02526E-08 1.33485E-08
 -1       804 1.13926E+05 8.55221E+04 1.65138E+05-7.16046E+04 2.38542E-08 2.15546E-08
 -1       805-1.00253E+05-1.12272E+05 2.07138E+05 1.84490E+04 8.41101E-09 2.25729E-08
 -1       806-1.87213E+05-4.00784E+04-1.58901E+04-7.79332E+04 2.36241E-10 4.79986E-09
 -1       807-1.88149E+05-3.78021E+04-7.80647E+03-8.21453E+04 1.70439E-09-3.03373E-10
 -1       808-1.87663E+05-3.43381E+04-3.31150E+03-8.06288E+04 4.41105E-11 1.12115E-09
 -1       809-1.86483E+05-3.56343E+04-1.61890E+03-8.23698E+04-6.95877E-10 1.69052E-09
 -1       810-1.87734E+05-3.41357E+04-7.41283E+02-8.07476E+04 1.15597E-09 7.91488E-10
 -1       811-1.86355E+05-3.55486E+04-3.67634E+02-8.23507E+04 3.41606E-09-1.07152E-08
 -1       812-1.87746E+05-3.41508E+04-1.83485E+02-8.07473E+04 4.18459E-09-4.77417E-09
 -1       813-1.86339E+05-3.55508E+04-1.15764E+02-8.23405E+04 2.12435E-09-1.33803E-08
 -1       814-1.87744E+05-3.41565E+04-1.08600E+02-8.07448E+04 6.06678E-09 1.61413E-09
 -1       815-1.86340E+05-3.55528E+04-1.69980E+02-8.23375E+04-1.38175E-09-3.27873E-10
 -1       816-1.87732E+05-3.41554E+04-3.18510E+02-8.07424E+04-1.32650E-09 1.57916E-08
 -1       817-1.86395E+05-3.55833E+04-6.82816E+02-8.23314E+04 5.85555E-09 1.61563E-08
 -1       818-1.87691E+05-3.42514E+04-1.39161E+03-8.06970E+04 6.22504E-09-6.85304E-10
 -1       819-1.87163E+05-3.64185E+04-3.27514E+03-8.21449E+04 5.69230E-09-1.05911E-08
 -1       820-1.87426E+05-3.67278E+04-6.66553E+03-7.96411E+04 1.36788E-09-9.65065E-09
 -1       821-2.41921E+05 1.34272E+04-3.10531E+04 7.14204E+01-2.94846E-10-5.42059E-10
 -1       822-2.55379E+05-1.55443E+04-2.19745E+04-5.54805E+02-1.45841E-09 1.47338E-10
 -1       823-2.47115E+05 2.10501E+03-8.04285E+03 3.67229E+01 1.25225E-09 1.91949E-09
 -1       824-2.49323E+05-2.43648E+03-5.06063E+03-4.15773E+02-3.08777E-10 4.13161E-09
 -1       825-2.47975E+05 3.29446E+02-2.07992E+03-6.76166E+01-2.69958E-09 1.59605E-09
 -1       826-2.48322E+05-3.88564E+02-1.25581E+03-1.77184E+02-5.45329E-09 2.18370E-09
 -1       827-2.48115E+05 5.84800E+01-6.49795E+02-2.01871E+02-3.96148E-09-7.15065E-09
 -1       828-2.48187E+05-1.18543E+02-5.74576E+02 7.19575E+01-4.54358E-09-1.73123E-09
 -1       829-2.48111E+05 5.96708E+01-6.59104E+02-3.16762E+02 1.89502E-10-1.27315E-10
 -1       830-2.48338E+05-3.98061E+02-1.28704E+03 2.40228E+02 3.05177E-09-1.18602E-09
 -1       831-2.47964E+05 3.37951E+02-2.13112E+03-3.70145E+02-2.55263E-09 9.80663E-10
 -1       832-2.49362E+05-2.49928E+03-5.19307E+03 2.66450E+02-6.83381E-10 1.59207E-09
 -1       833-2.47087E+05 2.15939E+03-8.25200E+03-3.42983E+02-8.36648E-10 3.71256E-09
 -1       834-2.55563E+05-1.59481E+04-2.25458E+04 1.43269E+02-1.98498E-09-1.17711E-09
 -1       835-2.41765E+05 1.37762E+04-3.18636E+04-2.46954E+02 3.80228E-09 3.77077E-09
 -1       836-8.06102E+02 2.29340E+05 1.38118E+04-2.00806E+04 1.62254E-09 2.05728E-09
 -1       837 3.04423E+03 2.33614E+05 1.17866E+04-4.03274E+04 2.39356E-09-4.17322E-09
 -1       838-2.94282E+02 2.30530E+05 1.21466E+04-2.00127E+04 2.25054E-09 3.07989E-09
 -1       839 7.79764E+03 2.37159E+05 2.31130E+04-4.03515E+04 2.86491E-09 4.94344E-09
 -1       840-2.34109E+03 2.25764E+05 3.69120E+04-2.00550E+04 1.93722E-09 4.18186E-09
 -1       856-7.53876E+04 6.46710E+03-1.70423E+04-3.81706E+02-4.12211E-09-8.76753E-10
 -1       857-8.24279E+04-7.58484E+03-1.17333E+04 3.88571E+03-4.65317E-09 2.06296E-09
 -1       858-7.81690E+04 9.06164E+02-4.42297E+03-3.98451E+02-4.18513E-09-5.40695E-09
 -1       859-7.92334E+04-1.05350E+03-2.67140E+03 3.91242E+03 2.36128E-10-8.93579E-11
 -1       860-7.85849E+04 1.26024E+02-1.12329E+03-4.08538E+02-2.33399E-10-4.54827E-09
 -1       861-7.87543E+04-1.39162E+02-6.25808E+02 3.92620E+03-5.12787E-09-4.97121E-09
 -1       862-7.86496E+04 1.67070E+01-2.75897E+02-4.12260E+02 3.99734E-09 3.23486E-09
 -1       863-7.86778E+04-1.02214E+01-1.36271E+02 3.92786E+03 9.48287E-09 2.10865E-09
 -1       864-7.86616E+04-9.20484E-02-4.24526E+01-4.10197E+02 2.70889E-09-7.44261E-09
 -1       865-7.86554E+04 1.95151E+01 2.64852E+01 3.91747E+03 3.79185E-09-2.98668E-09
 -1       866-7.86708E+04-1.33843E+01 9.47738E+01-4.01871E+02-1.86748E-09-2.77419E-09
 -1       867-7.86001E+04 1.12405E+02 2.59741E+02 3.89489E+03 3.94692E-10 1.82091E-09
 -1       868-7.87144E+04-9.23899E+01 4.38103E+02-3.87618E+02 5.09243E-09-1.64619E-09
 -1       869-7.82714E+04 7.66315E+02 1.17610E+03 3.85741E+03-1.61003E-09-7.27255E-10
 -1       870-7.89956E+04-6.51115E+02 1.70568E+03-3.64393E+02 8.42931E-10-6.53017E-09
 -1       871-3.54904E+03-7.37958E+03-1.15015E+04 7.53886E+04 3.05499E-09 4.62387E-09
 -1       872-1.54930E+03-9.95046E+03-4.68412E+03 9.77359E+04 3.69755E-09 1.34605E-09
 -1       873-4.31826E+01-8.74875E+03 6.81128E+02 7.52224E+04 2.41312E-09 2.89072E-09
 -1       874 1.76240E+03-7.06802E+03 6.55103E+03 9.77710E+04 4.24234E-09 2.54840E-09
 -1       875 4.19470E+03-1.03044E+04 1.45202E+04 7.53607E+04 1.60253E-09-4.01451E-09
 -1       876 1.88596E+05 3.25290E+04 1.01093E+04 7.65533E+04-4.35762E-09-6.24550E-09
 -1       877 1.89168E+05 3.47546E+04 5.39856E+03 7.95500E+04-4.53429E-09-3.13321E-09
 -1       878 1.89541E+05 3.14099E+04 2.26176E+03 7.73834E+04 2.73462E-09-8.69477E-10
 -1       879 1.87792E+05 3.33853E+04 1.12667E+03 7.96221E+04-6.00380E-10-3.04539E-10
 -1       880 1.89610E+05 3.13973E+04 5.24523E+02 7.74172E+04 3.24007E-10 9.33596E-10
 -1       881 1.87701E+05 3.33272E+04 2.79321E+02 7.96082E+04 1.91892E-09 3.75280E-09
 -1       882 1.89617E+05 3.14054E+04 1.77372E+02 7.74181E+04 7.69455E-09 2.88796E-09
 -1       883 1.87694E+05 3.33245E+04 1.88534E+02 7.96042E+04 4.11711E-09 2.87788E-09
 -1       884 1.89614E+05 3.14033E+04 2.97975E+02 7.74183E+04-4.48608E-10-3.16049E-09
 -1       885 1.87718E+05 3.33287E+04 5.97886E+02 7.96117E+04 6.42021E-09-4.81759E-09
 -1       886 1.89591E+05 3.13858E+04 1.20445E+03 7.74159E+04 6.64248E-09-1.52124E-09
 -1       887 1.87930E+05 3.34674E+04 2.63079E+03 7.96421E+04-3.40719E-09-3.11502E-09
 -1       888 1.89424E+05 3.14152E+04 5.30109E+03 7.73317E+04 1.01619E-09-5.85169E-09
 -1       889 1.91089E+05 3.67468E+04 1.26640E+04 7.95415E+04 2.32428E-09 7.16454E-10
 -1       890 1.87264E+05 3.39808E+04 2.37185E+04 7.53096E+04-5.63205E-10-3.78623E-09
 -1       891-1.19450E+02-1.07260E+05-1.26421E+03 2.04263E+04 2.35366E-09 6.23299E-09
 -1       892-2.07442E+02-1.07561E+05-1.37622E+03 3.09084E+04 8.22183E-10 5.34044E-09
 -1       893-3.51540E+01-1.07299E+05-1.96747E+03 2.04302E+04 1.16484E-09 6.39193E-09
 -1       894-1.07846E+03-1.08317E+05-4.08593E+03 3.07987E+04-2.04273E-09 7.90214E-09
 -1       895-8.41931E+02-1.06450E+05-7.20026E+03 2.05345E+04-2.78533E-10 1.13596E-09
 -1       956-2.36959E+05-3.41701E+03-8.60720E+03 1.56537E+04-3.48655E-09-7.97741E-10
 -1       957-2.38659E+05-1.15120E+03-4.41866E+03 1.88492E+04-1.48816E-09-1.02318E-10
 -1       958-2.37721E+05-9.01158E+01-1.99067E+03 1.55512E+04 2.68619E-09-3.02248E-09
 -1       959-2.37857E+05-1.40045E+01-1.01681E+03 1.89598E+04-1.48179E-09 3.00838E-09
 -1       960-2.37789E+05 3.00632E+01-4.95590E+02 1.55415E+04-3.78031E-09 5.56611E-10
 -1       961-2.37798E+05 2.84928E+01-2.62758E+02 1.89707E+04-5.53518E-09 2.05807E-09
 -1       962-2.37802E+05 2.63361E+01-1.49995E+02 1.55401E+04-3.14230E-09 1.13400E-08
 -1       963-2.37795E+05 2.94023E+01-1.19679E+02 1.89727E+04-4.93947E-09 5.41149E-09
 -1       964-2.37805E+05 2.79403E+01-1.44356E+02 1.55396E+04-4.41219E-10-3.50440E-09
 -1       965-2.37804E+05 3.20348E+01-2.48661E+02 1.89728E+04 4.36347E-09-1.99407E-10
 -1       966-2.37798E+05 3.47848E+01-4.66294E+02 1.55400E+04-1.80216E-09 1.32820E-09
 -1       967-2.37866E+05-4.43941E+00-9.56135E+02 1.89669E+04-1.52841E-09 2.25168E-09
 -1       968-2.37739E+05-7.49236E+01-1.87094E+03 1.55455E+04 6.72344E-10-2.87929E-09
 -1       969-2.38626E+05-1.07053E+03-4.15403E+03 1.89023E+04 1.93700E-09-4.49606E-09
 -1       970-2.37027E+05-3.20054E+03-8.09102E+03 1.56070E+04 1.33218E-09 6.14000E-09
 -1       971-2.25160E+05-1.18932E+03-6.62470E+03 1.10150E+04-8.88076E-09 1.08912E-09
 -1       972-2.26771E+05-8.51783E+02-3.60792E+03 1.53876E+04-1.15915E-08 4.90172E-09
 -1       973-2.25895E+05-6.04893E+00-1.61538E+03 1.09234E+04-8.50605E-09 2.48474E-09
 -1       974-2.26008E+05-5.92411E+00-8.36877E+02 1.54861E+04-1.04296E-09 2.60752E-09
 -1       975-2.25951E+05 2.42881E+01-4.17210E+02 1.09154E+04-7.50788E-10 5.28121E-09
 -1       976-2.25961E+05 2.81647E+01-2.38880E+02 1.54957E+04-4.05623E-09-2.30216E-09
 -1       977-2.25962E+05 2.36570E+01-1.70002E+02 1.09138E+04 3.55590E-09 3.81681E-09
 -1       978-2.25963E+05 3.16641E+01-1.94411E+02 1.54980E+04 1.09590E-08 1.04012E-09
 -1       979-2.25961E+05 2.86853E+01-3.08407E+02 1.09131E+04 4.48244E-09 3.65389E-10
 -1       980-2.25986E+05 3.34685E+01-5.93021E+02 1.54984E+04 3.47548E-09-3.58034E-09
 -1       981-2.25942E+05 4.34711E+01-1.14720E+03 1.09134E+04 6.49038E-10 2.95654E-09
 -1       982-2.26143E+05-5.10442E+01-2.37049E+03 1.54939E+04-4.43731E-09 2.27388E-10
 -1       983-2.25798E+05-2.95966E+01-4.60540E+03 1.09177E+04 3.88400E-09 6.73208E-09
 -1       984-2.28359E+05-2.45559E+03-1.03130E+04 1.54319E+04 8.26390E-10 8.57233E-09
 -1       985-2.23714E+05-3.39918E+03-1.89380E+04 1.09798E+04 4.89695E-09 2.48292E-10
 -3
    1PSTEP                         9           5           1          
  100CL  105 4.72656E-01         409                     0    5           1
 -4  DISP        4    1
 -5  D1          1    2    1    0
 -5  D2          1    2    2    0
 -5  D3          1    2    3    0
 -5  ALL         1    2    0    0    1ALL
 -1         1 1.29584E-04 0.00000E+00 0.00000E+00
 -1         2 1.18609E-04-1.56160E-30 0.00000E+00
 -1         3 1.12632E-04 1.66692E-27-6.61744E-24
 -1         5 7.93121E-05 2.59254E-27 3.30872E-24
 -1         8 1.05084E-04-8.87326E-07 0.00000E+00
 -1         9 1.05492E-04 4.07293E-07 0.00000E+00
 -1        10 1.04188E-04-1.53733E-06 6.61744E-24
 -1        12 7.88363E-05 5.16157E-07 0.00000E+00
 -1        15 7.59048E-05-9.79424E-07-4.13590E-25
 -1        16 7.86552E-05 2.49227E-07 0.00000E+00
 -1        17 7.72253E-05-3.24808E-06 0.00000E+00
 -1        18 7.64071E-05 1.00017E-06 0.00000E+00
 -1        19 7.74089E-05 1.02948E-06 0.00000E+00
 -1        20 7.75413E-05 1.45198E-05 0.00000E+00
 -1        21 7.70348E-05 2.72857E-05 0.00000E+00
 -1        24 1.88375E-05-4.42571E-06 0.00000E+00
 -1        25 7.50197E-05 1.11919E-06 0.00000E+00
 -1        26 7.59321E-05 1.43362E-06 0.00000E+00
 -1        27 7.45046E-05 1.22207E-05 0.00000E+00
 -1        28 7.40520E-05 2.68453E-05 0.00000E+00
 -1        32 0.00000E+00 0.00000E+00 0.00000E+00
 -1        33 7.32513E-05 1.92219E-06 0.00000E+00
 -1        34 7.18686E-05 1.21997E-05 0.00000E+00
 -1        35 7.05557E-05 2.66125E-05 0.00000E+00
 -1        51 1.27992E-04-1.45926E-07 0.00000E+00
 -1        52 1.25039E-04-2.87846E-07 0.00000E+00
 -1        53 1.20994E-04-4.31253E-07 0.00000E+00
 -1        54 1.16134E-04-5.77595E-07 0.00000E+00
 -1        55 1.10737E-04-7.27608E-07-3.41212E-24
 -1        56 1.28420E-04-7.50655E-07 0.00000E+00
 -1        57 1.27399E-04-2.01921E-06 1.32349E-23
 -1        58 1.26521E-04-3.65949E-06 0.00000E+00
 -1        59 1.25722E-04-5.53459E-06-2.64698E-23
 -1        60 1.24951E-04-7.48663E-06 0.00000E+00
 -1        61 1.24149E-04-9.35853E-06 0.00000E+00
 -1        62 1.23259E-04-1.09976E-05 0.00000E+00
 -1        63 1.22228E-04-1.22588E-05 0.00000E+00
 -1        64 1.21010E-04-1.30205E-05-5.29396E-23
 -1        65 1.19565E-04-1.31765E-05 2.64698E-23
 -1        66 1.17867E-04-1.26587E-05 0.00000E+00
 -1        67 1.15898E-04-1.14190E-05 0.00000E+00
 -1        68 1.13657E-04-9.45535E-06 0.00000E+00
 -1        69 1.11156E-04-6.78502E-06 0.00000E+00
 -1        70 1.08410E-04-3.47491E-06 0.00000E+00
 -1        86 1.18265E-04 7.57761E-08 0.00000E+00
 -1        87 1.17233E-04 1.50557E-07 0.00000E+00
 -1        88 1.15482E-04 2.24296E-07-8.27181E-25
 -1        89 1.12983E-04 2.93117E-07 4.13590E-25
 -1        90 1.09675E-04 3.60816E-07 0.00000E+00
 -1       121 1.12396E-04-2.54888E-07 0.00000E+00
 -1       122 1.11689E-04-5.09994E-07 0.00000E+00
 -1       123 1.10513E-04-7.65535E-07 0.00000E+00
 -1       124 1.08868E-04-1.02177E-06 3.30872E-24
 -1       125 1.06759E-04-1.27883E-06 0.00000E+00
 -1       191 7.92989E-05 8.60331E-08 0.00000E+00
 -1       192 7.92593E-05 1.72065E-07 1.65436E-24
 -1       193 7.91932E-05 2.58095E-07 3.30872E-24
 -1       194 7.91007E-05 3.44122E-07 0.00000E+00
 -1       195 7.89817E-05 4.30143E-07 3.30872E-24
 -1       251 1.05089E-04 3.16742E-06 3.30872E-24
 -1       252 1.05115E-04 5.62864E-06 0.00000E+00
 -1       253 1.05141E-04 6.74212E-06-4.13590E-25
 -1       254 1.05171E-04 6.75164E-06 1.03398E-25
 -1       255 1.05201E-04 5.88346E-06-8.27181E-25
 -1       256 1.05231E-04 4.36268E-06 0.00000E+00
 -1       257 1.05260E-04 2.40385E-06 8.27181E-25
 -1       258 1.05289E-04 2.20935E-07 4.13590E-25
 -1       259 1.05317E-04-1.97578E-06-8.27181E-25
 -1       260 1.05346E-04-3.97598E-06-4.13590E-25
 -1       261 1.05376E-04-5.56615E-06 4.13590E-25
 -1       262 1.05406E-04-6.53230E-06 0.00000E+00
 -1       263 1.05436E-04-6.65028E-06 4.13590E-25
 -1       264 1.05462E-04-5.69485E-06-8.27181E-25
 -1       265 1.05488E-04-3.42371E-06-6.61744E-24
 -1       266 1.00221E-04-9.14656E-07-6.61744E-24
 -1       267 9.53574E-05-9.28546E-07 0.00000E+00
 -1       268 9.04942E-05-9.43286E-07-1.65436E-24
 -1       269 8.56311E-05-9.55505E-07 0.00000E+00
 -1       270 8.07680E-05-9.67665E-07 0.00000E+00
 -1       271 1.02125E-04 2.78697E-06 2.64698E-23
 -1       272 9.95912E-05 5.20276E-06-1.32349E-23
 -1       273 9.74823E-05 6.49765E-06 0.00000E+00
 -1       274 9.57355E-05 6.80890E-06 2.64698E-23
 -1       275 9.42968E-05 6.29804E-06-5.29396E-23
 -1       276 9.30997E-05 5.13875E-06 0.00000E+00
 -1       277 9.20750E-05 3.51780E-06 0.00000E+00
 -1       278 9.11499E-05 1.62992E-06 0.00000E+00
 -1       279 9.02497E-05-3.25018E-07 5.29396E-23
 -1       280 8.92996E-05-2.14586E-06 0.00000E+00
 -1       281 8.82254E-05-3.63418E-06 0.00000E+00
 -1       282 8.69556E-05-4.59737E-06 2.64698E-23
 -1       283 8.54209E-05-4.85318E-06 5.29396E-23
 -1       284 8.35615E-05-4.23038E-06 0.00000E+00
 -1       285 8.13128E-05-2.57816E-06 0.00000E+00
 -1       301 1.00822E-04 3.73587E-07 0.00000E+00
 -1       302 9.61771E-05 3.55389E-07 1.65436E-24
 -1       303 9.15972E-05 3.37934E-07 0.00000E+00
 -1       304 8.71234E-05 3.19329E-07-3.30872E-24
 -1       305 8.27961E-05 2.98944E-07 0.00000E+00
 -1       306 1.02441E-04 3.74218E-06 0.00000E+00
 -1       307 9.98854E-05 5.61297E-06 0.00000E+00
 -1       308 9.79033E-05 5.97073E-06-5.29396E-23
 -1       309 9.64788E-05 4.81476E-06 0.00000E+00
 -1       310 9.55317E-05 2.38111E-06-5.29396E-23
 -1       311 9.49489E-05-1.03598E-06 2.64698E-23
 -1       312 9.45663E-05-4.99160E-06-5.29396E-23
 -1       313 9.42086E-05-9.01540E-06 0.00000E+00
 -1       314 9.36974E-05-1.26261E-05 0.00000E+00
 -1       315 9.28611E-05-1.53623E-05-2.64698E-23
 -1       316 9.15763E-05-1.68969E-05 5.29396E-23
 -1       317 8.97421E-05-1.69601E-05 2.64698E-23
 -1       318 8.73373E-05-1.55064E-05 5.29396E-23
 -1       319 8.43797E-05-1.25595E-05 2.64698E-23
 -1       320 8.09490E-05-8.37715E-06 0.00000E+00
 -1       336 1.01100E-04-1.81739E-06 0.00000E+00
 -1       337 9.74378E-05-2.09968E-06 3.30872E-24
 -1       338 9.32094E-05-2.38403E-06 0.00000E+00
 -1       339 8.84241E-05-2.67038E-06 0.00000E+00
 -1       340 8.30921E-05-2.95942E-06-6.61744E-24
 -1       406 7.86645E-05 6.02156E-07 3.30872E-24
 -1       407 7.84662E-05 6.88122E-07 1.65436E-24
 -1       408 7.82414E-05 7.74031E-07 0.00000E+00
 -1       409 7.79902E-05 8.59775E-07-1.65436E-24
 -1       410 7.77126E-05 9.45188E-07 3.30872E-24
 -1       521 7.72664E-05-4.79588E-06 0.00000E+00
 -1       522 8.13912E-05-2.53488E-05 0.00000E+00
 -1       523 8.97238E-05-5.79567E-05 1.05879E-22
 -1       524 1.00607E-04-9.81841E-05 5.29396E-23
 -1       525 1.12001E-04-1.39944E-04 0.00000E+00
 -1       526 1.21829E-04-1.77024E-04-5.29396E-23
 -1       527 1.28269E-04-2.04224E-04 0.00000E+00
 -1       528 1.29660E-04-2.17183E-04 0.00000E+00
 -1       529 1.25283E-04-2.14584E-04 1.05879E-22
 -1       530 1.14854E-04-1.96375E-04 5.29396E-23
 -1       531 9.94374E-05-1.65767E-04 1.05879E-22
 -1       532 8.06083E-05-1.26928E-04-5.29396E-23
 -1       533 6.07826E-05-8.57124E-05 1.05879E-22
 -1       534 4.25093E-05-4.81453E-05 0.00000E+00
 -1       535 2.79152E-05-1.95282E-05 0.00000E+00
 -1       536 7.71646E-05 3.80951E-06 0.00000E+00
 -1       537 7.70965E-05 1.27204E-05-8.27181E-25
 -1       538 7.70213E-05 2.23917E-05 0.00000E+00
 -1       539 7.69505E-05 3.17301E-05 0.00000E+00
 -1       540 7.68907E-05 3.97181E-05 0.00000E+00
 -1       541 7.68467E-05 4.53395E-05 4.13590E-25
 -1       542 7.68139E-05 4.81365E-05 8.27181E-25
 -1       543 7.67848E-05 4.76551E-05 0.00000E+00
 -1       544 7.67503E-05 4.42094E-05 0.00000E+00
 -1       545 7.67036E-05 3.81179E-05 0.00000E+00
 -1       546 7.66459E-05 3.03219E-05 0.00000E+00
 -1       547 7.65824E-05 2.17648E-05-4.13590E-25
 -1       548 7.65217E-05 1.35709E-05 0.00000E+00
 -1       549 7.64721E-05 6.86392E-06-2.06795E-25
 -1       550 7.64341E-05 2.41703E-06 0.00000E+00
 -1       551 6.95243E-05-3.42342E-06 0.00000E+00
 -1       552 6.03191E-05-3.60770E-06 3.30872E-24
 -1       553 5.01251E-05-3.80087E-06-3.30872E-24
 -1       554 3.94654E-05-4.00088E-06 3.30872E-24
 -1       555 2.88630E-05-4.20302E-06 0.00000E+00
 -1       556 7.51851E-05 2.03240E-06 1.32349E-23
 -1       557 7.36185E-05 6.09101E-06 0.00000E+00
 -1       558 7.24740E-05 9.03894E-06 0.00000E+00
 -1       559 7.17048E-05 1.09963E-05 0.00000E+00
 -1       560 7.12641E-05 1.20830E-05 0.00000E+00
 -1       561 7.11056E-05 1.24196E-05 0.00000E+00
 -1       562 7.11835E-05 1.21266E-05 0.00000E+00
 -1       563 7.14520E-05 1.13251E-05 0.00000E+00
 -1       564 7.18656E-05 1.01359E-05 0.00000E+00
 -1       565 7.23790E-05 8.67995E-06-1.65436E-24
 -1       566 7.29467E-05 7.07838E-06 0.00000E+00
 -1       567 7.35236E-05 5.45225E-06 2.06795E-25
 -1       568 7.40645E-05 3.92259E-06 0.00000E+00
 -1       569 7.45242E-05 2.61033E-06 0.00000E+00
 -1       570 7.48573E-05 1.63643E-06 0.00000E+00
 -1       571 7.64679E-05 1.03735E-06-1.24077E-24
 -1       572 7.65300E-05 1.03349E-06-8.27181E-25
 -1       573 7.65926E-05 9.96013E-07-8.27181E-25
 -1       574 7.66553E-05 9.32723E-07 8.27181E-25
 -1       575 7.67181E-05 8.51466E-07 0.00000E+00
 -1       576 7.67809E-05 7.60134E-07 0.00000E+00
 -1       577 7.68437E-05 6.66626E-07 0.00000E+00
 -1       578 7.69066E-05 5.78848E-07-1.65436E-24
 -1       579 7.69694E-05 5.04704E-07 0.00000E+00
 -1       580 7.70323E-05 4.52101E-07 0.00000E+00
 -1       581 7.70951E-05 4.28945E-07 0.00000E+00
 -1       582 7.71579E-05 4.43131E-07 0.00000E+00
 -1       583 7.72208E-05 5.02548E-07-3.30872E-24
 -1       584 7.72836E-05 6.15005E-07 0.00000E+00
 -1       585 7.73463E-05 7.88263E-07 0.00000E+00
 -1       586 7.61527E-05 1.02125E-06 8.27181E-25
 -1       587 7.58722E-05 1.04181E-06-2.06795E-25
 -1       588 7.55921E-05 1.06214E-06 0.00000E+00
 -1       589 7.53390E-05 1.08213E-06 0.00000E+00
 -1       590 7.51396E-05 1.10158E-06 0.00000E+00
 -1       591 7.63638E-05 1.07017E-06 0.00000E+00
 -1       592 7.63304E-05 1.10713E-06 0.00000E+00
 -1       593 7.63069E-05 1.11738E-06 4.13590E-25
 -1       594 7.62910E-05 1.10664E-06 0.00000E+00
 -1       595 7.62807E-05 1.08070E-06 4.13590E-25
 -1       596 7.62739E-05 1.04530E-06 0.00000E+00
 -1       597 7.62685E-05 1.00617E-06-4.13590E-25
 -1       598 7.62623E-05 9.69058E-07 0.00000E+00
 -1       599 7.62532E-05 9.39688E-07 0.00000E+00
 -1       600 7.62391E-05 9.23797E-07-2.06795E-25
 -1       601 7.62178E-05 9.27119E-07 0.00000E+00
 -1       602 7.61871E-05 9.55392E-07 1.03398E-25
 -1       603 7.61451E-05 1.01436E-06-1.03398E-25
 -1       604 7.60897E-05 1.10980E-06 0.00000E+00
 -1       605 7.60186E-05 1.24743E-06-4.13590E-25
 -1       606 7.74205E-05 1.41333E-06 0.00000E+00
 -1       607 7.74297E-05 1.88539E-06 0.00000E+00
 -1       608 7.74384E-05 2.44048E-06 0.00000E+00
 -1       609 7.74467E-05 3.07276E-06 0.00000E+00
 -1       610 7.74549E-05 3.77637E-06 0.00000E+00
 -1       611 7.74631E-05 4.54535E-06 0.00000E+00
 -1       612 7.74711E-05 5.37375E-06 0.00000E+00
 -1       613 7.74791E-05 6.25562E-06 0.00000E+00
 -1       614 7.74871E-05 7.18499E-06 0.00000E+00
 -1       615 7.74950E-05 8.15589E-06 8.27181E-25
 -1       616 7.75029E-05 9.16238E-06 1.65436E-24
 -1       617 7.75107E-05 1.01985E-05-4.13590E-25
 -1       618 7.75185E-05 1.12582E-05 0.00000E+00
 -1       619 7.75263E-05 1.23357E-05 0.00000E+00
 -1       620 7.75340E-05 1.34249E-05 4.13590E-25
 -1       621 7.71142E-05 1.09689E-06-1.65436E-24
 -1       622 7.68465E-05 1.16462E-06 0.00000E+00
 -1       623 7.66002E-05 1.23234E-06-1.65436E-24
 -1       624 7.63695E-05 1.29995E-06-8.27181E-25
 -1       625 7.61487E-05 1.36745E-06-1.65436E-24
 -1       626 7.73374E-05 1.43473E-06 0.00000E+00
 -1       627 7.72390E-05 1.91284E-06 3.30872E-24
 -1       628 7.71160E-05 2.45699E-06 0.00000E+00
 -1       629 7.69710E-05 3.05992E-06 0.00000E+00
 -1       630 7.68067E-05 3.71438E-06 0.00000E+00
 -1       631 7.66257E-05 4.41303E-06-3.30872E-24
 -1       632 7.64309E-05 5.14855E-06-3.30872E-24
 -1       633 7.62250E-05 5.91365E-06 1.65436E-24
 -1       634 7.60108E-05 6.70100E-06-3.30872E-24
 -1       635 7.57909E-05 7.50327E-06 0.00000E+00
 -1       636 7.55681E-05 8.31317E-06 0.00000E+00
 -1       637 7.53452E-05 9.12337E-06-8.27181E-25
 -1       638 7.51249E-05 9.92654E-06 1.65436E-24
 -1       639 7.49098E-05 1.07154E-05 8.27181E-25
 -1       640 7.47025E-05 1.14826E-05 8.27181E-25
 -1       656 7.66378E-05 1.41457E-05 0.00000E+00
 -1       657 7.60673E-05 1.37567E-05 3.30872E-24
 -1       658 7.57037E-05 1.33689E-05 0.00000E+00
 -1       659 7.54180E-05 1.29814E-05-3.30872E-24
 -1       660 7.50660E-05 1.25927E-05 6.61744E-24
 -1       661 7.72075E-05 1.55912E-05 8.27181E-25
 -1       662 7.68949E-05 1.66138E-05-8.27181E-25
 -1       663 7.66000E-05 1.75889E-05 0.00000E+00
 -1       664 7.63225E-05 1.85191E-05 8.27181E-25
 -1       665 7.60612E-05 1.94061E-05-1.65436E-24
 -1       666 7.58154E-05 2.02522E-05-8.27181E-25
 -1       667 7.55843E-05 2.10593E-05 0.00000E+00
 -1       668 7.53672E-05 2.18292E-05 8.27181E-25
 -1       669 7.51634E-05 2.25637E-05 0.00000E+00
 -1       670 7.49722E-05 2.32645E-05-8.27181E-25
 -1       671 7.47930E-05 2.39332E-05 1.65436E-24
 -1       672 7.46252E-05 2.45713E-05 0.00000E+00
 -1       673 7.44683E-05 2.51805E-05-1.65436E-24
 -1       674 7.43210E-05 2.57617E-05 8.27181E-25
 -1       675 7.41839E-05 2.63168E-05-4.13590E-25
 -1       676 7.65364E-05 2.72119E-05 1.65436E-24
 -1       677 7.60383E-05 2.71381E-05 0.00000E+00
 -1       678 7.55405E-05 2.70643E-05-1.65436E-24
 -1       679 7.50434E-05 2.69908E-05-8.27181E-25
 -1       680 7.45472E-05 2.69172E-05-1.65436E-24
 -1       771 1.48406E-05 3.32273E-06 0.00000E+00
 -1       772 1.13703E-05 9.67005E-06 1.32349E-23
 -1       773 8.40458E-06 1.46932E-05-2.64698E-23
 -1       774 5.91011E-06 1.84747E-05 0.00000E+00
 -1       775 3.85398E-06 2.10988E-05 2.64698E-23
 -1       776 2.20181E-06 2.26534E-05 0.00000E+00
 -1       777 9.18813E-07 2.32277E-05 0.00000E+00
 -1       778-3.05791E-08 2.29140E-05 0.00000E+00
 -1       779-6.82202E-07 2.18057E-05 2.64698E-23
 -1       780-1.07254E-06 1.99986E-05-1.32349E-23
 -1       781-1.23823E-06 1.75897E-05 0.00000E+00
 -1       782-1.21638E-06 1.46776E-05-1.32349E-23
 -1       783-1.04421E-06 1.13617E-05 0.00000E+00
 -1       784-7.59180E-07 7.74257E-06 1.32349E-23
 -1       785-3.98905E-07 3.92135E-06 2.64698E-23
 -1       786 7.50734E-05 1.06112E-06 0.00000E+00
 -1       787 7.51303E-05 1.01035E-06 4.13590E-25
 -1       788 7.51869E-05 9.66164E-07 0.00000E+00
 -1       789 7.52442E-05 9.27878E-07 8.27181E-25
 -1       790 7.53015E-05 8.95585E-07-1.65436E-24
 -1       791 7.53589E-05 8.69392E-07-8.27181E-25
 -1       792 7.54163E-05 8.50215E-07-1.65436E-24
 -1       793 7.54738E-05 8.38987E-07 8.27181E-25
 -1       794 7.55313E-05 8.37692E-07 0.00000E+00
 -1       795 7.55887E-05 8.48341E-07-8.27181E-25
 -1       796 7.56462E-05 8.74522E-07 0.00000E+00
 -1       797 7.57036E-05 9.19867E-07 8.27181E-25
 -1       798 7.57610E-05 9.90539E-07 0.00000E+00
 -1       799 7.58183E-05 1.09277E-06 0.00000E+00
 -1       800 7.58756E-05 1.23696E-06 0.00000E+00
 -1       801 6.99548E-05 1.02715E-06 0.00000E+00
 -1       802 5.47502E-05 8.33194E-07-1.65436E-24
 -1       803 3.47997E-05 5.63480E-07-6.61744E-24
 -1       804 1.55146E-05 2.99513E-07 3.30872E-24
 -1       805 2.16352E-06 1.25147E-07-1.32349E-23
 -1       806 7.49689E-05 1.01944E-06 1.65436E-24
 -1       807 7.49144E-05 9.21703E-07 0.00000E+00
 -1       808 7.48569E-05 8.30441E-07 0.00000E+00
 -1       809 7.47953E-05 7.49418E-07 1.65436E-24
 -1       810 7.47283E-05 6.82390E-07 0.00000E+00
 -1       811 7.46546E-05 6.33052E-07-8.27181E-25
 -1       812 7.45729E-05 6.05096E-07-1.65436E-24
 -1       813 7.44818E-05 6.02206E-07 1.65436E-24
 -1       814 7.43799E-05 6.28059E-07 1.65436E-24
 -1       815 7.42658E-05 6.86333E-07 8.27181E-25
 -1       816 7.41382E-05 7.80700E-07 1.65436E-24
 -1       817 7.39957E-05 9.14834E-07-8.27181E-25
 -1       818 7.38369E-05 1.09240E-06-3.30872E-24
 -1       819 7.36607E-05 1.31706E-06 0.00000E+00
 -1       820 7.34655E-05 1.59246E-06-1.65436E-24
 -1       821 7.58481E-05 1.64947E-06 0.00000E+00
 -1       822 7.57589E-05 1.85196E-06 0.00000E+00
 -1       823 7.56701E-05 2.08182E-06 0.00000E+00
 -1       824 7.55802E-05 2.37968E-06 0.00000E+00
 -1       825 7.54903E-05 2.77348E-06-3.30872E-24
 -1       826 7.54002E-05 3.29078E-06-1.65436E-24
 -1       827 7.53099E-05 3.93609E-06 0.00000E+00
 -1       828 7.52195E-05 4.71343E-06 1.65436E-24
 -1       829 7.51291E-05 5.60218E-06 0.00000E+00
 -1       830 7.50386E-05 6.58126E-06 0.00000E+00
 -1       831 7.49480E-05 7.61279E-06 0.00000E+00
 -1       832 7.48577E-05 8.65864E-06-1.65436E-24
 -1       833 7.47674E-05 9.67799E-06 0.00000E+00
 -1       834 7.46782E-05 1.06302E-05 0.00000E+00
 -1       835 7.45887E-05 1.14870E-05 0.00000E+00
 -1       836 7.56219E-05 1.51496E-06 0.00000E+00
 -1       837 7.52057E-05 1.59810E-06 8.27181E-25
 -1       838 7.47220E-05 1.68108E-06 0.00000E+00
 -1       839 7.42093E-05 1.76352E-06 0.00000E+00
 -1       840 7.37063E-05 1.84584E-06 2.06795E-25
 -1       856 7.44796E-05 1.29450E-05-2.06795E-25
 -1       857 7.44516E-05 1.37673E-05 0.00000E+00
 -1       858 7.44238E-05 1.46721E-05-4.13590E-25
 -1       859 7.43953E-05 1.56440E-05 0.00000E+00
 -1       860 7.43668E-05 1.66673E-05 0.00000E+00
 -1       861 7.43382E-05 1.77265E-05 0.00000E+00
 -1       862 7.43095E-05 1.88059E-05 0.00000E+00
 -1       863 7.42808E-05 1.98897E-05 0.00000E+00
 -1       864 7.42521E-05 2.09624E-05-8.27181E-25
 -1       865 7.42234E-05 2.20081E-05 0.00000E+00
 -1       866 7.41948E-05 2.30113E-05 0.00000E+00
 -1       867 7.41662E-05 2.39564E-05 0.00000E+00
 -1       868 7.41376E-05 2.48277E-05-8.27181E-25
 -1       869 7.41091E-05 2.56099E-05 4.13590E-25
 -1       870 7.40807E-05 2.62875E-05-8.27181E-25
 -1       871 7.39654E-05 1.22198E-05-4.13590E-25
 -1       872 7.35207E-05 1.22171E-05 0.00000E+00
 -1       873 7.31300E-05 1.22139E-05 0.00000E+00
 -1       874 7.27518E-05 1.22103E-05 1.03398E-25
 -1       875 7.23450E-05 1.22063E-05 4.13590E-25
 -1       876 7.43188E-05 1.29532E-05 1.65436E-24
 -1       877 7.41171E-05 1.37335E-05-1.65436E-24
 -1       878 7.38997E-05 1.45556E-05 0.00000E+00
 -1       879 7.36689E-05 1.54143E-05 1.65436E-24
 -1       880 7.34264E-05 1.63042E-05 0.00000E+00
 -1       881 7.31743E-05 1.72198E-05 1.65436E-24
 -1       882 7.29145E-05 1.81558E-05-3.30872E-24
 -1       883 7.26490E-05 1.91069E-05 0.00000E+00
 -1       884 7.23799E-05 2.00676E-05 3.30872E-24
 -1       885 7.21092E-05 2.10327E-05 0.00000E+00
 -1       886 7.18388E-05 2.19968E-05 0.00000E+00
 -1       887 7.15707E-05 2.29546E-05 0.00000E+00
 -1       888 7.13068E-05 2.39005E-05 1.65436E-24
 -1       889 7.10490E-05 2.48293E-05 0.00000E+00
 -1       890 7.07992E-05 2.57355E-05-8.27181E-25
 -1       891 7.35759E-05 2.68064E-05 0.00000E+00
 -1       892 7.30829E-05 2.67673E-05 0.00000E+00
 -1       893 7.25538E-05 2.67283E-05-8.27181E-25
 -1       894 7.19691E-05 2.66893E-05-2.06795E-25
 -1       895 7.13094E-05 2.66504E-05-6.20385E-25
 -1       956 7.31665E-05 2.36302E-06 0.00000E+00
 -1       957 7.30803E-05 2.85913E-06 8.27181E-25
 -1       958 7.29939E-05 3.40474E-06-3.30872E-24
 -1       959 7.29072E-05 3.99373E-06-1.65436E-24
 -1       960 7.28206E-05 4.61996E-06 1.65436E-24
 -1       961 7.27338E-05 5.27725E-06 0.00000E+00
 -1       962 7.26470E-05 5.95943E-06-3.30872E-24
 -1       963 7.25603E-05 6.66033E-06 0.00000E+00
 -1       964 7.24735E-05 7.37375E-06 0.00000E+00
 -1       965 7.23867E-05 8.09352E-06 0.00000E+00
 -1       966 7.22999E-05 8.81346E-06 0.00000E+00
 -1       967 7.22132E-05 9.52739E-06 1.65436E-24
 -1       968 7.21265E-05 1.02291E-05 3.30872E-24
 -1       969 7.20399E-05 1.09125E-05 1.65436E-24
 -1       970 7.19536E-05 1.15713E-05 0.00000E+00
 -1       971 7.17876E-05 1.28461E-05-1.65436E-24
 -1       972 7.17055E-05 1.35650E-05 0.00000E+00
 -1       973 7.16233E-05 1.43486E-05-1.65436E-24
 -1       974 7.15409E-05 1.51885E-05 1.65436E-24
 -1       975 7.14584E-05 1.60764E-05 1.65436E-24
 -1       976 7.13758E-05 1.70038E-05-8.27181E-25
 -1       977 7.12932E-05 1.79625E-05 3.30872E-24
 -1       978 7.12106E-05 1.89440E-05 8.27181E-25
 -1       979 7.11280E-05 1.99399E-05 3.30872E-24
 -1       980 7.10454E-05 2.09419E-05 1.65436E-24
 -1       981 7.09628E-05 2.19416E-05-3.30872E-24
 -1       982 7.08803E-05 2.29307E-05 1.65436E-24
 -1       983 7.07979E-05 2.39006E-05 0.00000E+00
 -1       984 7.07159E-05 2.48431E-05 0.00000E+00
 -1       985 7.06343E-05 2.57498E-05-1.65436E-24
 -3
    1PSTEP                        10           5           1          
  100CL  105 4.72656E-01         409                     0    5           1
 -4  STRESS      6    1
 -5  SXX         1    4    1    1
 -5  SYY         1    4    2    2
 -5  SZZ         1    4    3    3
 -5  SXY         1    4    1    2
 -5  SYZ         1    4    2    3
 -5  SZX         1    4    3    1
 -1         1-1.69050E+06-7.64319E+05-3.48164E+05-1.06186E+06-2.91038E-11 2.22644E-09
 -1         2 2.66049E+03 2.20520E+05 8.71761E+03 6.44265E+02-1.35515E-10 1.75573E-08
 -1         3-9.33282E+01-7.28070E+05 1.70556E+02-2.72911E+02-1.54108E-10-1.06411E-09
 -1         5-5.60025E+00 2.46173E+05 6.43104E+00 1.10383E-01 1.16450E-10-1.97674E-08
 -1         8-7.98192E+05-3.35964E+05-3.69746E+04-5.66179E+05 5.40240E-10 2.37196E-09
 -1         9-1.41272E+06-3.77766E+05-1.46364E+05-4.70549E+05 3.72238E-09 4.74975E-09
 -1        10-5.93303E+02-7.58494E+05-1.00218E+03-1.84206E+03-3.46154E-09-1.35164E-08
 -1        12-2.96486E+00 2.46186E+05 2.08521E+02 9.90739E-01 2.11116E-10-1.88720E-10
 -1        15 1.98495E+03 1.09085E+03 6.41633E+03 4.17435E+00-2.27715E-10 9.09118E-09
 -1        16-3.49959E+06-1.22074E+06-5.53381E+05-1.25468E+06 1.12341E-08-4.55960E-09
 -1        17-8.60975E+05-5.23375E+05-1.65748E+05-4.83435E+05-6.86850E-09-8.19564E-09
 -1        18 1.21762E+04-1.47485E+03-1.59558E+04-5.82635E+04 2.27658E-09 5.26461E-09
 -1        19 7.73140E+04 9.19061E+04-4.52125E+02 1.51402E+04-5.54246E-10 6.06633E-09
 -1        20-3.29031E+04-3.65389E+05-8.06426E+04 2.65784E+04 3.53839E-09 1.19905E-08
 -1        21-3.43602E+01-2.11044E+05-6.80950E+02-7.21406E+01-6.86749E-09-1.27003E-08
 -1        24-3.26398E+06-1.01088E+06-4.47541E+05-1.25121E+06-2.14495E-08-1.05453E-08
 -1        25 1.73927E+04-5.23092E+04 5.55042E+03-1.05705E+05 2.95040E-10 8.01974E-09
 -1        26-1.88904E+04 6.25461E+04-1.26917E+04-8.57395E+03 1.50321E-09 5.41844E-09
 -1        27-5.80315E+04-2.00322E+05-7.50944E+04 4.51600E+04 5.68783E-09-8.31581E-10
 -1        28 1.63313E+04-5.83688E+04 1.19262E+04 1.85606E+04 2.00518E-09 1.84160E-09
 -1        32-8.01712E+05-2.30430E+05 3.10895E+05-5.27906E+05-1.66328E-08 1.14546E-08
 -1        33-1.14803E+05 5.88302E+04 2.08685E+04-3.36680E+04 1.07449E-09 4.82047E-09
 -1        34-1.48687E+05-1.48278E+04 3.51960E+02 4.58308E+04 3.04350E-09 1.80717E-09
 -1        35-1.66091E+04-2.31965E+04-9.09432E+02 3.67633E+04 5.61264E-09-1.67468E-09
 -1        51 1.43522E+04-3.67092E+05 3.70409E+04-9.34886E+05-1.45519E-11-1.19326E-09
 -1        52 8.95380E+03-3.65979E+05 2.46903E+04-1.09038E+06 4.36557E-10-1.27766E-08
 -1        53 6.69848E+03-3.78459E+05 2.12138E+04-9.31634E+05 1.81899E-10-6.08270E-09
 -1        54 1.91865E+04-3.77145E+05 3.42669E+04-1.09377E+06 3.63798E-11-3.05590E-09
 -1        55 3.80971E+04-3.90200E+05 6.13172E+04-9.31111E+05 1.22236E-09 1.12523E-08
 -1        56-3.24352E+06-3.65070E+05-2.55851E+05-1.25038E+06-2.54659E-11-6.00994E-09
 -1        57-3.34485E+06-5.98023E+05-1.72466E+05-1.24210E+06 1.46429E-10-2.79397E-09
 -1        58-3.29560E+06-4.45431E+05-6.01951E+04-1.23348E+06 3.73802E-10 2.99769E-09
 -1        59-3.28454E+06-5.03802E+05-3.59324E+04-1.26237E+06 1.54341E-09 1.55251E-09
 -1        60-3.30329E+06-4.56533E+05-1.40538E+04-1.23108E+06-7.63293E-10 5.80803E-09
 -1        61-3.27700E+06-4.89362E+05-7.98208E+03-1.26348E+06-8.52310E-10 3.83631E-09
 -1        62-3.30299E+06-4.59538E+05-3.85011E+03-1.23246E+06 3.75167E-11-1.73358E-09
 -1        63-3.28007E+06-4.83346E+05-3.12385E+03-1.25858E+06-4.68390E-10-1.70655E-09
 -1        64-3.30009E+06-4.62584E+05-3.62275E+03-1.23590E+06-1.64187E-09-4.18095E-09
 -1        65-3.28782E+06-4.77749E+05-7.15704E+03-1.25020E+06 2.73121E-09-1.17052E-08
 -1        66-3.29513E+06-4.65247E+05-1.26771E+04-1.24075E+06 5.84805E-10-1.82808E-09
 -1        67-3.30372E+06-4.81389E+05-3.20860E+04-1.23856E+06 2.27550E-09 2.26919E-09
 -1        68-3.28426E+06-4.59285E+05-5.39189E+04-1.24741E+06 2.76668E-09 3.91083E-09
 -1        69-3.36390E+06-5.59682E+05-1.54240E+05-1.21383E+06 1.25965E-10-7.81256E-09
 -1        70-3.23559E+06-3.89330E+05-2.28905E+05-1.26471E+06-1.54978E-09-2.82307E-09
 -1        86-1.33685E+03 2.17662E+05 9.30494E+03-3.22159E+02 1.14096E-09 3.55163E-09
 -1        87 8.86144E+03 2.23565E+05 1.94620E+04 1.32831E+03 1.91721E-09-8.28351E-10
 -1        88-7.52104E+03 2.14620E+05 2.97444E+04-1.00623E+03 2.87582E-09 2.31051E-09
 -1        89 5.60387E+04 2.45608E+05 8.02894E+04 2.89638E+03 4.40559E-09-1.76866E-08
 -1        90-4.83628E+04 1.95642E+05 1.13356E+05-1.88970E+03 4.95493E-09-3.87217E-10
 -1       121-1.45608E+02-7.28482E+05 1.32528E+02 1.36279E+02 3.62093E-10-6.40102E-09
 -1       122-3.65741E+01-7.28035E+05 3.68748E+02-5.45618E+02-1.43100E-09 1.60071E-09
 -1       123-1.84382E+02-7.28522E+05 5.66113E+02 4.08290E+02 1.11993E-09 4.03088E-09
 -1       124 6.45284E+02-7.27629E+05 1.53743E+03-1.21845E+03-2.69051E-09 7.71979E-09
 -1       125-6.22327E+02-7.28907E+05 2.32619E+03 8.08671E+02 1.84082E-09 7.05586E-09
 -1       191-6.09220E+00 2.46193E+05 7.63890E+00-5.58452E-02 1.71924E-10-3.42470E-09
 -1       192-6.19164E+00 2.46173E+05 1.36189E+01 6.51839E-01 2.14682E-10 2.78533E-10
 -1       193-7.66436E+00 2.46193E+05 2.52808E+01-6.00421E-01 2.20052E-10-1.20504E-08
 -1       194-8.09464E+00 2.46175E+05 5.15191E+01 1.60302E+00 1.01350E-10-2.70106E-08
 -1       195-1.06857E+01 2.46191E+05 1.00727E+02-1.01425E+00 3.65304E-10-1.30267E-08
 -1       251 6.93813E+04-3.94206E+04 9.18622E+04 3.49790E+03-8.41283E-12 1.01500E-09
 -1       252 1.12288E+05 4.55781E+04 6.53562E+04-1.30712E+04-1.21815E-10-1.31604E-09
 -1       253 8.53941E+04-6.10671E+03 2.37506E+04 2.86034E+03-4.49631E-10-1.18871E-09
 -1       254 9.32814E+04 7.04407E+03 1.51071E+04-1.20908E+04 8.38867E-10-4.31191E-09
 -1       255 8.82748E+04-9.44047E+02 6.13825E+03 2.51756E+03 4.12342E-10-2.34559E-09
 -1       256 8.97638E+04 1.12590E+03 3.77139E+03-1.15815E+04 1.85652E-09 1.56634E-08
 -1       257 8.88545E+04-1.66359E+02 1.95302E+03 2.35102E+03-4.34142E-11 7.45513E-09
 -1       258 8.91676E+04 3.72400E+02 1.77262E+03-1.14095E+04 4.16009E-11 4.42908E-09
 -1       259 8.88522E+04-1.79210E+02 2.07529E+03 2.34562E+03-1.37092E-10 2.53391E-09
 -1       260 8.98002E+04 1.23937E+03 4.11613E+03-1.15609E+04-2.70433E-11-1.44536E-09
 -1       261 8.82384E+04-1.04271E+03 6.77284E+03 2.50239E+03 1.24930E-09-2.06137E-09
 -1       262 9.36002E+04 7.79051E+03 1.66666E+04-1.20482E+04 1.08571E-10-1.10063E-08
 -1       263 8.51068E+04-6.74869E+03 2.62733E+04 2.83290E+03-7.13840E-10-8.45830E-09
 -1       264 1.14456E+05 5.03869E+04 7.21996E+04-1.30121E+04-1.66324E-09-4.31373E-09
 -1       265 6.74945E+04-4.35646E+04 1.01608E+05 3.46619E+03-5.74119E-10 3.89264E-09
 -1       266-3.59330E+04-1.67997E+04 8.43216E+04-8.93296E+01-2.18279E-11 9.22455E-09
 -1       267 4.16575E+04 1.95844E+04 5.95909E+04 1.03054E+02 7.27596E-12-5.03006E-09
 -1       268-5.58614E+03-2.77348E+03 2.21500E+04-1.31317E+01 3.18323E-11-4.64442E-09
 -1       269 6.59565E+03 3.31951E+03 1.43968E+04 1.52956E+01-2.81943E-11 1.52232E-09
 -1       270-9.90015E+02-5.45411E+02 6.94956E+03-2.07576E+00-1.66438E-10 8.62642E-09
 -1       271-3.51053E+06-4.39246E+05-2.70030E+05-1.36911E+06-7.49424E-10-6.54836E-10
 -1       272-3.59282E+06-6.50407E+05-1.73558E+05-1.38275E+06 3.14003E-10-3.41970E-10
 -1       273-3.56303E+06-5.04774E+05-6.37939E+04-1.35514E+06-1.79625E-10 1.88084E-09
 -1       274-3.53091E+06-5.70669E+05-3.56573E+04-1.40470E+06-6.73026E-11-5.97720E-09
 -1       275-3.57189E+06-5.09821E+05-1.48434E+04-1.35099E+06 1.01500E-09-1.72349E-09
 -1       276-3.52025E+06-5.65059E+05-7.86167E+03-1.41157E+06 2.11003E-10-8.96398E-09
 -1       277-3.57427E+06-5.09032E+05-3.84924E+03-1.34912E+06 1.29967E-09-5.83555E-10
 -1       278-3.51792E+06-5.65773E+05-2.78639E+03-1.41397E+06 1.37379E-09-5.21175E-09
 -1       279-3.57454E+06-5.08817E+05-2.98183E+03-1.34886E+06-3.71301E-10-2.22349E-09
 -1       280-3.51916E+06-5.65523E+05-5.46264E+03-1.41275E+06-7.44421E-10-1.56410E-09
 -1       281-3.57286E+06-5.09440E+05-1.00092E+04-1.35020E+06-1.27238E-09 2.92948E-09
 -1       282-3.52680E+06-5.68653E+05-2.38782E+04-1.40735E+06-1.61390E-09 8.63110E-10
 -1       283-3.56639E+06-5.06676E+05-4.26919E+04-1.35360E+06 7.89441E-10-2.61571E-09
 -1       284-3.56945E+06-6.20448E+05-1.16010E+05-1.39075E+06-1.23009E-09 1.05392E-08
 -1       285-3.53031E+06-4.63962E+05-1.80655E+05-1.36405E+06 2.03545E-09-6.83212E-09
 -1       301 1.47342E+04-1.95612E+04 1.12235E+05-4.85880E+04-8.29459E-10 1.15278E-08
 -1       302 1.58468E+04 8.81797E+03 7.99715E+04-7.15438E+04 1.12232E-09 5.90990E-09
 -1       303 8.93124E+02-9.29812E+03 7.19690E+04-4.86938E+04-7.40329E-10-2.83035E-09
 -1       304 2.78906E+04 2.00684E+04 1.19281E+05-7.12957E+04 1.28057E-09 7.00766E-10
 -1       305 2.74624E+04-3.05184E+04 1.99240E+05-4.87681E+04-9.53150E-10 4.70391E-09
 -1       306-3.99576E+06-4.66195E+05-3.03172E+05-1.56630E+06 1.68802E-09-6.44650E-09
 -1       307-4.15850E+06-7.14790E+05-2.06543E+05-1.50473E+06 9.34961E-10-9.04402E-09
 -1       308-4.07062E+06-5.54611E+05-7.14054E+04-1.53114E+06-3.63798E-11 1.69530E-09
 -1       309-4.06255E+06-6.21506E+05-4.30375E+04-1.55712E+06 1.27312E-09 1.56133E-08
 -1       310-4.09131E+06-5.57574E+05-1.67575E+04-1.51457E+06-2.11065E-09-2.52930E-09
 -1       311-4.03611E+06-6.20978E+05-9.65946E+03-1.58032E+06 8.37974E-09 1.54046E-09
 -1       312-4.09734E+06-5.54599E+05-4.71807E+03-1.50830E+06-6.31388E-11 5.68355E-09
 -1       313-4.03369E+06-6.19983E+05-4.23085E+03-1.58206E+06-3.59057E-09 7.31620E-09
 -1       314-4.09374E+06-5.58514E+05-5.21859E+03-1.51286E+06 1.13914E-09-6.69115E-09
 -1       315-4.04925E+06-6.07424E+05-1.06917E+04-1.56369E+06-2.74201E-09 1.29694E-09
 -1       316-4.08141E+06-5.67468E+05-1.91370E+04-1.52638E+06 3.53430E-09-4.54475E-09
 -1       317-4.08624E+06-6.01796E+05-4.88575E+04-1.53057E+06 2.86826E-09 3.49792E-09
 -1       318-4.05663E+06-5.64609E+05-8.11305E+04-1.54572E+06-5.42695E-09 1.55269E-08
 -1       319-4.19304E+06-7.11690E+05-2.35047E+05-1.47619E+06-2.25555E-09 2.24463E-09
 -1       320-3.97553E+06-4.59405E+05-3.44475E+05-1.58035E+06 9.00036E-09-8.23638E-09
 -1       336 5.02795E+02-7.88623E+05-4.30048E+03 1.03077E+03-7.23594E-09 1.12050E-09
 -1       337-1.57139E+03-7.89649E+05-4.74259E+03-2.61511E+03-1.31415E-08 3.15049E-09
 -1       338 3.34959E+02-7.88733E+05-6.09195E+03 1.57824E+03-9.50558E-09 1.74350E-08
 -1       339-6.31122E+03-7.92603E+05-1.33401E+04-3.69405E+03-1.72101E-08 1.88193E-08
 -1       340 4.24325E+03-7.85752E+05-2.06145E+04 2.10185E+03-1.11831E-08 1.47593E-08
 -1       406 1.29145E+01 2.46182E+05 4.11623E+02 6.30410E-03 4.62563E-10-7.63657E-09
 -1       407 1.40577E+02 2.46258E+05 8.74955E+02-7.84319E+00-1.54046E-10-1.33452E-08
 -1       408 4.47389E+02 2.46119E+05 1.74740E+03 7.98665E+00 6.09134E-10-2.56068E-09
 -1       409 1.88672E+03 2.46816E+05 3.93402E+03-7.68075E+01 1.62117E-10 3.43334E-11
 -1       410 5.42618E+03 2.45622E+05 8.03112E+03 7.16793E+01 6.45741E-10 1.06411E-10
 -1       521-7.42951E+06-7.69871E+05-5.77770E+05-2.71337E+06 2.07365E-10-5.90808E-09
 -1       522-7.01796E+06-1.63431E+06-3.44805E+05-3.14980E+06-3.22061E-08-1.18816E-08
 -1       523-7.64723E+06-7.42667E+05-1.33165E+05-2.44165E+06-3.24690E-09-1.77970E-08
 -1       524-6.82714E+06-1.62048E+06-7.12744E+04-3.49494E+06 3.28969E-08-4.58558E-08
 -1       525-7.67154E+06-7.41767E+05-2.98421E+04-2.40575E+06 3.72638E-08-3.04321E-08
 -1       526-6.84305E+06-1.47294E+06 8.41734E+02-3.30848E+06 9.74615E-09-1.68961E-08
 -1       527-7.59562E+06-9.15145E+05-3.38622E+04-2.60407E+06 5.66070E-09-9.08767E-09
 -1       528-7.09138E+06-1.08822E+06 3.00965E+04-2.78452E+06-1.21108E-08 4.74301E-09
 -1       529-7.37017E+06-1.16403E+06-4.03426E+04-2.88942E+06-8.96398E-09 1.20817E-08
 -1       530-7.62070E+06-6.40635E+05 9.07218E+03-2.32132E+06-4.01578E-08 3.43825E-08
 -1       531-7.09887E+06-1.33921E+06-3.63664E+04-3.08880E+06-4.31173E-08-1.28239E-09
 -1       532-8.02207E+06-4.21659E+05-6.97883E+04-2.12546E+06 1.72658E-08-3.66344E-08
 -1       533-7.02261E+06-1.34602E+06-1.25312E+05-3.12833E+06 1.13505E-09-5.43369E-08
 -1       534-7.96378E+06-7.37731E+05-3.47862E+05-2.16845E+06-2.05146E-08 4.19241E-08
 -1       535-7.13215E+06-1.04561E+06-5.63169E+05-3.02280E+06-1.22236E-08 3.06754E-08
 -1       536-9.19336E+04-1.88173E+04 4.26237E+04-1.46696E+03-5.10274E-09 3.94357E-09
 -1       537-6.99416E+04 2.16386E+04 3.07484E+04 3.10240E+03-1.72498E-08 1.35301E-08
 -1       538-8.30292E+04-2.79689E+03 1.11351E+04-1.76859E+03 3.76271E-09 9.03856E-09
 -1       539-7.73380E+04 3.30404E+03 7.46350E+03 2.90664E+03 1.95478E-08 7.15499E-09
 -1       540-8.45283E+04-4.86788E+02 2.29551E+03-1.27114E+03-5.18696E-10 1.09662E-09
 -1       541-7.34767E+04 7.47590E+02 3.18435E+03 1.30284E+03-4.91872E-09 1.83610E-09
 -1       542-8.68605E+04-2.73757E+02-3.82140E+02-1.64544E+02-4.49148E-10-1.76550E-09
 -1       543-7.30355E+04 3.11446E+02 1.97022E+03-9.75893E+02-5.41554E-10 4.95231E-09
 -1       544-8.49703E+04-5.97424E+01-7.32930E+02 1.00733E+03-1.46356E-09-2.49014E-09
 -1       545-7.81922E+04-2.41549E+02 1.78674E+02-2.79932E+03-6.50578E-09-1.29655E-08
 -1       546-8.17331E+04 3.10425E+02-9.75916E+02 1.65895E+03-1.89493E-09-6.90397E-09
 -1       547-8.10415E+04-1.37117E+03-2.26402E+03-3.31534E+03-1.12575E-08-1.01850E-08
 -1       548-8.21306E+04 1.08863E+03-4.11159E+03 1.52355E+03-1.32288E-08-1.06859E-08
 -1       549-7.96261E+04-7.23202E+03-9.59294E+03-2.28862E+03-8.52980E-09-9.24399E-09
 -1       550-8.31257E+04 6.14217E+03-1.61413E+04 6.31954E+02 7.31717E-11 4.32465E-09
 -1       551 9.06089E+03-4.06791E+05 2.13753E+04-6.87515E+05-3.16213E-08-4.45289E-09
 -1       552 1.99542E+04-4.10108E+05 2.82142E+04-9.78665E+05-2.34577E-08 1.86265E-08
 -1       553 1.36182E+04-4.15417E+05 4.34986E+04-6.85142E+05-3.90210E-08 1.45883E-08
 -1       554 4.24890E+04-3.98999E+05 9.22489E+04-9.79694E+05-2.46400E-08 8.83790E-09
 -1       555 4.04481E+04-4.33171E+05 1.65388E+05-6.85892E+05-3.93120E-08-1.25874E-09
 -1       556 6.05128E+04-1.31756E+05 4.46675E+04-1.72595E+05-9.13860E-09-9.64792E-09
 -1       557 1.13794E+05-1.75843E+05 2.34880E+04-2.15995E+05-1.09867E-09-7.95353E-10
 -1       558 6.02690E+04-1.37680E+05 9.45968E+03-1.67500E+05-2.76486E-09-2.42835E-09
 -1       559 1.06468E+05-1.81915E+05 4.81444E+03-2.19265E+05 6.20275E-09-1.08339E-08
 -1       560 5.86230E+04-1.36589E+05 1.96838E+03-1.68539E+05-1.20781E-09-4.45107E-09
 -1       561 1.03930E+05-1.81253E+05 1.05558E+03-2.20874E+05-1.53159E-09 3.22188E-09
 -1       562 5.72981E+04-1.35704E+05 3.90598E+02-1.69493E+05 2.83762E-10 7.38964E-09
 -1       563 1.02374E+05-1.80584E+05 2.53829E+02-2.21870E+05-4.49654E-09-2.61218E-09
 -1       564 5.64677E+04-1.35169E+05 8.67616E+01-1.70082E+05 1.52795E-09 2.81216E-09
 -1       565 1.01555E+05-1.80233E+05 5.79870E+01-2.22385E+05 2.46655E-09 3.80442E-09
 -1       566 5.61612E+04-1.34966E+05-2.09613E+01-1.70303E+05 3.83807E-10 2.80124E-10
 -1       567 1.01433E+05-1.80175E+05-1.12796E+02-2.22398E+05 4.64433E-09-7.03039E-09
 -1       568 5.64113E+04-1.35131E+05-3.30760E+02-1.70189E+05-5.13683E-09-6.74481E-09
 -1       569 1.01360E+05-1.80082E+05-7.75984E+02-2.21352E+05-2.68665E-09 8.13816E-09
 -1       570 5.77451E+04-1.36345E+05-1.65974E+03-1.70132E+05 4.36921E-09 8.29550E-09
 -1       571 1.79177E+05 6.47964E+03 9.59805E+03-4.53313E+04 1.21872E-10 7.74230E-09
 -1       572 1.80604E+05 2.25595E+03 4.70245E+03-4.96936E+04-1.52795E-10-1.64187E-09
 -1       573 1.79749E+05 5.40176E+02 2.08902E+03-4.52142E+04 5.32509E-10 6.26642E-10
 -1       574 1.79917E+05 1.78727E+02 1.04666E+03-4.98246E+04 1.36060E-09-2.71075E-09
 -1       575 1.79812E+05 2.78915E+01 4.93304E+02-4.51988E+04 7.61474E-10 3.41515E-09
 -1       576 1.79823E+05 1.11428E+01 2.51147E+02-4.98421E+04 5.12586E-10 7.56609E-09
 -1       577 1.79822E+05 3.51568E-01 1.23774E+02-4.51968E+04 3.77099E-10-1.98270E-10
 -1       578 1.79815E+05 2.42128E+00 6.76377E+01-4.98442E+04-5.45128E-10-7.21957E-09
 -1       579 1.79833E+05-1.89341E+00 4.15900E+01-4.51967E+04 3.74257E-10-1.86219E-09
 -1       580 1.79830E+05-3.54736E+00 3.92642E+01-4.98415E+04-2.33149E-09 1.24846E-08
 -1       581 1.79853E+05-9.11064E+00 5.36053E+01-4.51994E+04-2.33922E-09-3.00270E-09
 -1       582 1.79865E+05-1.57516E+00 1.02550E+02-4.98145E+04-5.38421E-10 4.02542E-09
 -1       583 1.79876E+05 2.26295E+01 1.96707E+02-4.52238E+04 2.12822E-10 3.23325E-10
 -1       584 1.79967E+05 1.75567E+02 4.41295E+02-4.96113E+04-1.04455E-09-1.05401E-08
 -1       585 1.79857E+05 5.63962E+02 8.95959E+02-4.54030E+04 5.66615E-10 1.49339E-09
 -1       586-2.21374E+03 5.86064E+04-2.93239E+03-1.54016E+05 3.84262E-10 1.17893E-09
 -1       587-4.72817E+02 5.82122E+04-3.30978E+02-1.69485E+05 8.03993E-10-7.43057E-10
 -1       588 6.18596E+02 5.82909E+04 2.07579E+03-1.53924E+05 3.07409E-10 7.06677E-09
 -1       589 3.08589E+03 5.94357E+04 6.05097E+03-1.69341E+05 3.37423E-10 1.07029E-08
 -1       590 8.86437E+03 5.75677E+04 1.29572E+04-1.54162E+05 1.30058E-10 3.85899E-09
 -1       591-3.89026E+04-1.10529E+04-1.30087E+04-2.00494E+04-7.02585E-11 9.43146E-10
 -1       592-4.01749E+04-1.41938E+04-7.04607E+03-2.33804E+04-1.50862E-09 2.11912E-09
 -1       593-4.02172E+04-1.00952E+04-2.93333E+03-2.09897E+04-2.40789E-10 2.46280E-09
 -1       594-3.83630E+04-1.23021E+04-1.46297E+03-2.34696E+04 1.03682E-09 2.31739E-09
 -1       595-4.03179E+04-1.00908E+04-6.72288E+02-2.10328E+04-1.46832E-09 1.68491E-10
 -1       596-3.82403E+04-1.22154E+04-3.42625E+02-2.34568E+04-1.30734E-09 5.04588E-09
 -1       597-4.03307E+04-1.00991E+04-1.88460E+02-2.10346E+04-4.93898E-11 6.40694E-09
 -1       598-3.82286E+04-1.22121E+04-1.54967E+02-2.34532E+04-1.09105E-09-5.07850E-09
 -1       599-4.03297E+04-1.00992E+04-2.02283E+02-2.10342E+04-1.08196E-09 1.86924E-09
 -1       600-3.82415E+04-1.22165E+04-3.79255E+02-2.34564E+04 1.76931E-09-1.70837E-09
 -1       601-4.03137E+04-1.00903E+04-7.50000E+02-2.10316E+04 2.44654E-10-8.11929E-09
 -1       602-3.83785E+04-1.23133E+04-1.63552E+03-2.34690E+04-2.85581E-10-2.45018E-09
 -1       603-4.01998E+04-1.00968E+04-3.28041E+03-2.09836E+04-7.74662E-10-4.66412E-09
 -1       604-4.04116E+04-1.44211E+04-7.88002E+03-2.33590E+04 3.40151E-10 2.52771E-09
 -1       605-3.87206E+04-1.11746E+04-1.45482E+04-1.99395E+04 7.03722E-10 4.65070E-09
 -1       606 2.52790E+04-8.62593E+03-1.55311E+04 2.46627E+04-3.16595E-09 3.45517E-09
 -1       607 2.26190E+04-2.78326E+03-7.73359E+03 2.76855E+04-3.78350E-10-3.06829E-09
 -1       608 2.41280E+04-4.69902E+02-3.46328E+03 2.44662E+04 2.45745E-09-1.02978E-09
 -1       609 2.38273E+04-1.22297E+02-1.74920E+03 2.79025E+04-2.12549E-09 5.27689E-09
 -1       610 2.39881E+04 2.22582E+01-8.35583E+02 2.44442E+04-5.95628E-09 3.12320E-09
 -1       611 2.39309E+04 3.40216E+01-4.21431E+02 2.79262E+04-8.37599E-09 6.84486E-09
 -1       612 2.39505E+04 3.62964E+01-2.01682E+02 2.44420E+04-3.23053E-09-1.35219E-09
 -1       613 2.39285E+04 4.18406E+01-9.18959E+01 2.79290E+04-4.83669E-09-1.91767E-09
 -1       614 2.39298E+04 3.71637E+01-2.56214E+01 2.44413E+04-3.25599E-10-2.39038E-09
 -1       615 2.39176E+04 4.69181E+01 2.88254E+01 2.79295E+04 3.87627E-09 1.20849E-09
 -1       616 2.39141E+04 4.24580E+01 9.53413E+01 2.44415E+04-4.76666E-09 9.08130E-10
 -1       617 2.39232E+04 7.09444E+01 2.21107E+02 2.79290E+04 5.99584E-10-3.26759E-09
 -1       618 2.38904E+04 1.09045E+02 4.46931E+02 2.44416E+04 6.93944E-10 2.10866E-09
 -1       619 2.40774E+04 4.18903E+02 1.00451E+03 2.79283E+04 7.93534E-10 3.11047E-10
 -1       620 2.37397E+04 1.17126E+03 2.01924E+03 2.44406E+04 2.66687E-09-1.88993E-09
 -1       621 3.02026E+02 1.94040E+05 2.63351E+03 6.89716E+03-2.25839E-10 5.65933E-09
 -1       622 3.46491E+02 1.94693E+05 2.24954E+03 1.00695E+04-1.87811E-10-3.97631E-09
 -1       623 1.41872E+01 1.94226E+05 2.60566E+03 6.86468E+03-2.79499E-10 9.19636E-09
 -1       624 1.18323E+03 1.95459E+05 4.96425E+03 1.01015E+04-2.50367E-10 8.95380E-09
 -1       625 1.18860E+03 1.93268E+05 8.63779E+03 6.86549E+03-9.18590E-11 4.84994E-09
 -1       626 1.60997E+05 4.44488E+04 3.23319E+03 8.68094E+04 2.35559E-10-2.66846E-09
 -1       627 1.58818E+05 4.60439E+04 1.55792E+03 9.03086E+04-6.73026E-10-1.36140E-09
 -1       628 1.61117E+05 4.29214E+04 6.58013E+02 8.72993E+04 2.57842E-09-1.90175E-09
 -1       629 1.58353E+05 4.56738E+04 3.22515E+02 9.05176E+04 5.59157E-09 3.33898E-10
 -1       630 1.61123E+05 4.28494E+04 1.49092E+02 8.73123E+04 1.43582E-08-1.34976E-08
 -1       631 1.58296E+05 4.56656E+04 8.01674E+01 9.05191E+04 2.49261E-08-2.70916E-08
 -1       632 1.61115E+05 4.28554E+04 5.28174E+01 8.73049E+04 1.25333E-08-6.68274E-09
 -1       633 1.58284E+05 4.56705E+04 5.89075E+01 9.05126E+04-1.80739E-09 3.92038E-09
 -1       634 1.61106E+05 4.28563E+04 9.52364E+01 8.73006E+04 9.85347E-09 1.00316E-08
 -1       635 1.58288E+05 4.56720E+04 1.93059E+02 9.05119E+04 1.04527E-08 6.13659E-09
 -1       636 1.61095E+05 4.28556E+04 3.89894E+02 8.72977E+04 3.94130E-09 3.30715E-09
 -1       637 1.58367E+05 4.57342E+04 8.56912E+02 9.05079E+04-1.94857E-09 2.23622E-09
 -1       638 1.61062E+05 4.30467E+04 1.76110E+03 8.72095E+04-1.17835E-08-1.55965E-08
 -1       639 1.59288E+05 4.70224E+04 4.16623E+03 9.02340E+04-2.47655E-09-6.93262E-09
 -1       640 1.60938E+05 4.68818E+04 8.64600E+03 8.55811E+04 3.87240E-09 1.85651E-09
 -1       656 4.35491E+04-1.10249E+06-1.05130E+05-3.68419E+02 9.16771E-10 6.41393E-10
 -1       657-5.75475E+04-1.14994E+06-8.69468E+04 7.06536E+03 1.46247E-09-2.39866E-09
 -1       658 1.38106E+04-1.11602E+06-5.33604E+04-1.38883E+03 9.77707E-12-2.13672E-09
 -1       659-6.17163E+04-1.15192E+06-9.24222E+04 7.74853E+03-2.09548E-09 4.93262E-09
 -1       660 4.77078E+04-1.10052E+06-1.14549E+05-1.05157E+03-1.96451E-10-1.06499E-09
 -1       661 1.54593E+05 1.68230E+04 1.48582E+04 6.04207E+04 2.92289E-09 6.91125E-09
 -1       662 1.62350E+05 2.84586E+04 1.00120E+04 5.78168E+04 4.28236E-09-6.16035E-09
 -1       663 1.57505E+05 2.15950E+04 3.50227E+03 5.95805E+04-5.45015E-10 1.75351E-09
 -1       664 1.58981E+05 2.28722E+04 2.09392E+03 5.88379E+04-2.41016E-11-4.81563E-09
 -1       665 1.57941E+05 2.22524E+04 8.25989E+02 5.94588E+04-3.52514E-10-5.57480E-09
 -1       666 1.58470E+05 2.21159E+04 4.81702E+02 5.89934E+04-6.07838E-09 8.92864E-09
 -1       667 1.58013E+05 2.23316E+04 2.54001E+02 5.94323E+04-4.03745E-09 1.28225E-09
 -1       668 1.58393E+05 2.20528E+04 2.54510E+02 5.90311E+04 4.54302E-09-9.70871E-09
 -1       669 1.58017E+05 2.23136E+04 3.41072E+02 5.94217E+04 1.01323E-10-2.90446E-09
 -1       670 1.58480E+05 2.22323E+04 7.39386E+02 5.90294E+04 2.76658E-09 6.43013E-10
 -1       671 1.57927E+05 2.21557E+04 1.31176E+03 5.94326E+04-1.22810E-10 3.87644E-09
 -1       672 1.59246E+05 2.35067E+04 3.35523E+03 5.88430E+04-2.22813E-09 1.70547E-09
 -1       673 1.57255E+05 2.10713E+04 5.62251E+03 5.95959E+04-5.34556E-10-1.12186E-09
 -1       674 1.64600E+05 3.25369E+04 1.60792E+04 5.72675E+04 2.34428E-09-3.45608E-09
 -1       675 1.52607E+05 1.33781E+04 2.38665E+04 6.09129E+04 3.18232E-09-1.90994E-11
 -1       676 1.76782E+01-2.10987E+05-8.20719E+02 3.60712E+01 1.07923E-09-1.03341E-09
 -1       677-2.17831E+02-2.11185E+05-1.50200E+03-7.21100E+01 1.21278E-09-1.06627E-08
 -1       678 1.45490E+02-2.10845E+05-2.65513E+03 3.60140E+01 3.28214E-10-4.33166E-09
 -1       679-2.65564E+03-2.12788E+05-6.30723E+03-7.18853E+01-4.53053E-09-1.94427E-09
 -1       680 1.58491E+03-2.09385E+05-1.01652E+04 3.54339E+01-6.32099E-10-2.92311E-09
 -1       771-2.26387E+06-4.02876E+05-5.64203E+04-9.46223E+05-9.79344E-09-8.51287E-09
 -1       772-2.24783E+06-4.34093E+05-3.01699E+04-9.81125E+05-7.95990E-09 3.84171E-09
 -1       773-2.27194E+06-3.96585E+05-1.32166E+04-9.49362E+05-4.64206E-09 4.47471E-09
 -1       774-2.23989E+06-4.27648E+05-6.38042E+03-9.85192E+05 6.27188E-09-7.33053E-10
 -1       775-2.27409E+06-3.95146E+05-3.37024E+03-9.49644E+05-2.00089E-09 6.07542E-10
 -1       776-2.23994E+06-4.27733E+05-1.51394E+03-9.87544E+05-3.41606E-09 1.65892E-09
 -1       777-2.27566E+06-3.93997E+05-1.03379E+03-9.49822E+05 1.80444E-09 1.38607E-09
 -1       778-2.24045E+06-4.27991E+05-4.26380E+02-9.89513E+05 4.90763E-09 3.85262E-09
 -1       779-2.27693E+06-3.93021E+05-4.63870E+02-9.49982E+05 2.48110E-09-6.09361E-10
 -1       780-2.24096E+06-4.28200E+05-2.98784E+02-9.91106E+05 6.23550E-09 2.40107E-09
 -1       781-2.27788E+06-3.92242E+05-5.43218E+02-9.50105E+05-3.49246E-09-2.47383E-09
 -1       782-2.24143E+06-4.28390E+05-9.02356E+02-9.92278E+05-8.36008E-09-2.70518E-09
 -1       783-2.27849E+06-3.91726E+05-1.81288E+03-9.50173E+05-1.37879E-09-4.47619E-09
 -1       784-2.24276E+06-4.29620E+05-4.25627E+03-9.92943E+05-6.43195E-09-5.20686E-10
 -1       785-2.27804E+06-3.92030E+05-7.87859E+03-9.49646E+05-1.07848E-08 1.39698E-09
 -1       786 1.60408E+05-8.71749E+03 2.01680E+04-1.28768E+01 1.36216E-06 7.49787E-09
 -1       787 1.69147E+05 1.00921E+04 1.42684E+04 2.98092E+00 2.71363E-06 9.97056E-09
 -1       788 1.63779E+05-1.36656E+03 5.21992E+03-7.54108E+00 2.77136E-06-4.75893E-09
 -1       789 1.65219E+05 1.58119E+03 3.27959E+03-6.98167E+00 2.82572E-06 1.09774E-08
 -1       790 1.64336E+05-2.13467E+02 1.33420E+03-2.91452E+00 3.01865E-06-1.07755E-08
 -1       791 1.64570E+05 2.47940E+02 7.82835E+02-1.69855E+01 3.20717E-06 1.45376E-08
 -1       792 1.64429E+05-3.43240E+01 3.56273E+02 2.46290E+00 1.60497E-06-8.26776E-09
 -1       793 1.64465E+05 4.77086E+01 2.31399E+02-2.99762E+01 4.62653E-09-8.26335E-10
 -1       794 1.64441E+05-1.33668E+01 1.68258E+02 1.00764E+01 2.67746E-10 4.51111E-09
 -1       795 1.64473E+05 6.77635E+01 2.38829E+02-4.94974E+01-2.74064E-10 7.23512E-09
 -1       796 1.64420E+05-5.43622E+01 3.54985E+02 2.19844E+01 2.99341E-10 4.85616E-09
 -1       797 1.64634E+05 3.98245E+02 8.34741E+02-8.08297E+01-3.43488E-10 3.82227E-09
 -1       798 1.64281E+05-3.43608E+02 1.31684E+03 4.14093E+01-1.86228E-10 1.31274E-09
 -1       799 1.65622E+05 2.53706E+03 3.58935E+03-1.32719E+02-7.92923E-10-3.36286E-09
 -1       800 1.63432E+05-2.19145E+03 5.06990E+03 7.38745E+01 6.29958E-11 7.61202E-09
 -1       801-1.60284E+03-2.69627E+05-1.42952E+04 1.94294E+04 1.02918E-08-7.90624E-09
 -1       802 1.33330E+04-1.68779E+05 3.23581E+04-7.24013E+04 2.76468E-08-4.46960E-09
 -1       803-1.09060E+04-2.25890E+05 5.03939E+04 2.38583E+04 2.17624E-08 1.66555E-08
 -1       804 1.08869E+05-1.13708E+05 1.57990E+05-7.21762E+04 2.56059E-08 2.05928E-08
 -1       805-9.72757E+04-3.24319E+05 1.95554E+05 1.92003E+04 9.24047E-09 2.02901E-08
 -1       806-1.95370E+05-4.14530E+04-1.64009E+04-8.09555E+04 4.56248E-09 3.23143E-09
 -1       807-1.96369E+05-3.90706E+04-8.05740E+03-8.52654E+04 1.42126E-08 4.65667E-09
 -1       808-1.95833E+05-3.55300E+04-3.41794E+03-8.37396E+04 3.29487E-09 4.56104E-09
 -1       809-1.94651E+05-3.68310E+04-1.67096E+03-8.54945E+04-1.48566E-09 7.46809E-10
 -1       810-1.95905E+05-3.53214E+04-7.65158E+02-8.38624E+04 1.17120E-09-4.25803E-09
 -1       811-1.94519E+05-3.67424E+04-3.79539E+02-8.54743E+04 1.57115E-09-4.60113E-09
 -1       812-1.95917E+05-3.53371E+04-1.89571E+02-8.38621E+04-8.93124E-10-2.79147E-09
 -1       813-1.94502E+05-3.67446E+04-1.19822E+02-8.54636E+04 6.69161E-10 1.20340E-08
 -1       814-1.95915E+05-3.53431E+04-1.12793E+02-8.38594E+04 2.14504E-09 6.64704E-09
 -1       815-1.94504E+05-3.67466E+04-1.76886E+02-8.54604E+04-6.83258E-10-7.65874E-09
 -1       816-1.95903E+05-3.53420E+04-3.31700E+02-8.38570E+04 2.65572E-10 1.33332E-09
 -1       817-1.94560E+05-3.67785E+04-7.11155E+02-8.54540E+04 2.58524E-10 7.48514E-09
 -1       818-1.95860E+05-3.54420E+04-1.44944E+03-8.38096E+04-1.84536E-09 5.28962E-09
 -1       819-1.95360E+05-3.76489E+04-3.41120E+03-8.52605E+04-1.42300E-08-1.44610E-10
 -1       820-1.95585E+05-3.80206E+04-6.94247E+03-8.27093E+04-5.40331E-09 6.71412E-09
 -1       821-2.51316E+05 1.39462E+04-3.22530E+04 9.28619E+01-4.89799E-10 5.31145E-09
 -1       822-2.65293E+05-1.61451E+04-2.28236E+04-6.17873E+02-2.00840E-09-3.74303E-09
 -1       823-2.56710E+05 2.18641E+03-8.35361E+03 6.16730E+01 5.66999E-10-1.05047E-10
 -1       824-2.59003E+05-2.53067E+03-5.25603E+03-4.71706E+02-4.48150E-10 1.51377E-08
 -1       825-2.57604E+05 3.42161E+02-2.16049E+03-5.33087E+01-2.61931E-09 1.05922E-09
 -1       826-2.57962E+05-4.03542E+02-1.30395E+03-2.03222E+02-4.46264E-09-8.82764E-10
 -1       827-2.57750E+05 6.06864E+01-6.75321E+02-2.06816E+02-3.66930E-09-1.36532E-08
 -1       828-2.57821E+05-1.23121E+02-5.96685E+02 8.39510E+01-4.51245E-09 1.92411E-09
 -1       829-2.57745E+05 6.19990E+01-6.85306E+02-3.40487E+02 5.36790E-10 2.05188E-09
 -1       830-2.57981E+05-4.13846E+02-1.33801E+03 2.80631E+02 1.97415E-09 3.36324E-09
 -1       831-2.57592E+05 3.51392E+02-2.21583E+03-4.03501E+02-1.94894E-09 1.56490E-09
 -1       832-2.59046E+05-2.59866E+03-5.39953E+03 3.12619E+02-2.11749E-09 3.14162E-09
 -1       833-2.56681E+05 2.24527E+03-8.58024E+03-3.72474E+02-5.19782E-10 6.37283E-09
 -1       834-2.65492E+05-1.65824E+04-2.34423E+04 1.69921E+02-6.81460E-10 7.04813E-09
 -1       835-2.51147E+05 1.43241E+04-3.31311E+04-2.60793E+02 4.80453E-09 3.34694E-10
 -1       836-8.38926E+02 2.38217E+05 1.43539E+04-2.03471E+04 1.48611E-09 1.27907E-08
 -1       837 3.16145E+03 2.42661E+05 1.22527E+04-4.08620E+04 2.23918E-09 5.14228E-09
 -1       838-3.07197E+02 2.39454E+05 1.26317E+04-2.02780E+04 1.92540E-09 9.21455E-09
 -1       839 8.10878E+03 2.46350E+05 2.40406E+04-4.08874E+04 2.55386E-09 4.37211E-09
 -1       840-2.43590E+03 2.34496E+05 3.83957E+04-2.03202E+04 1.97360E-09-1.49635E-09
 -1       856-7.71579E+04 6.69003E+03-1.76299E+04-3.94890E+02-3.15447E-09-9.91349E-10
 -1       857-8.44406E+04-7.84636E+03-1.21378E+04 4.03095E+03-2.54977E-09 3.17414E-09
 -1       858-8.00351E+04 9.37381E+02-4.57546E+03-4.12680E+02-2.98866E-09-1.96678E-10
 -1       859-8.11362E+04-1.08976E+03-2.76343E+03 4.05932E+03 1.77437E-10 3.09444E-09
 -1       860-8.04653E+04 1.30352E+02-1.16190E+03-4.23394E+02-2.58126E-10-1.06394E-09
 -1       861-8.06406E+04-1.43858E+02-6.47125E+02 4.07397E+03-4.88794E-09 1.56962E-09
 -1       862-8.05323E+04 1.72567E+01-2.84916E+02-4.27356E+02 5.38298E-09-2.92124E-09
 -1       863-8.05614E+04-1.03454E+01-1.39914E+02 4.07575E+03 1.29783E-08-3.03726E-09
 -1       864-8.05447E+04-2.29970E-01-4.19491E+01-4.25169E+02 6.82539E-09-7.93118E-09
 -1       865-8.05377E+04 2.12801E+01 3.17915E+01 4.06473E+03 5.55893E-09-5.25378E-09
 -1       866-8.05547E+04-1.47509E+01 1.05856E+02-4.16338E+02 2.62122E-09-3.67652E-09
 -1       867-8.04769E+04 1.23688E+02 2.87335E+02 4.04077E+03 6.25448E-09 3.24337E-09
 -1       868-8.06028E+04-1.01934E+02 4.83956E+02-4.01211E+02 2.45649E-09-4.14076E-10
 -1       869-8.01143E+04 8.45563E+02 1.29841E+03 4.00106E+03-7.57495E-10-1.03068E-08
 -1       870-8.09132E+04-7.18687E+02 1.88304E+03-3.76630E+02 1.28523E-09-2.66073E-09
 -1       871-3.69942E+03-7.78067E+03-1.19939E+04 7.86953E+04 2.26009E-09 5.48880E-09
 -1       872-1.61250E+03-1.04636E+04-4.88776E+03 1.02023E+05 3.83216E-09 4.06999E-09
 -1       873-4.27248E+01-9.21032E+03 7.02066E+02 7.85220E+04 1.60139E-09 1.11131E-08
 -1       874 1.83651E+03-7.46254E+03 6.81212E+03 1.02060E+05 3.92174E-09 6.47651E-09
 -1       875 4.36525E+03-1.08274E+04 1.51043E+04 7.86665E+04 1.57797E-09 2.00544E-09
 -1       876 1.96243E+05 3.38305E+04 1.05036E+04 7.96374E+04-3.12741E-09 8.91032E-09
 -1       877 1.96840E+05 3.61397E+04 5.60915E+03 8.27475E+04-5.63170E-09-2.75054E-09
 -1       878 1.97224E+05 3.26678E+04 2.34998E+03 8.05000E+04 3.19983E-09-2.98337E-09
 -1       879 1.95411E+05 3.47169E+04 1.17063E+03 8.28222E+04 1.82263E-09 1.97610E-09
 -1       880 1.97296E+05 3.26548E+04 5.44996E+02 8.05351E+04 4.21210E-09 1.34844E-09
 -1       881 1.95316E+05 3.46565E+04 2.90257E+02 8.28075E+04 6.91864E-09-5.22927E-09
 -1       882 1.97303E+05 3.26633E+04 1.84368E+02 8.05361E+04 3.86535E-09 1.03874E-10
 -1       883 1.95309E+05 3.46537E+04 1.96058E+02 8.28033E+04 2.86758E-09 1.18952E-08
 -1       884 1.97299E+05 3.26611E+04 3.09945E+02 8.05362E+04 1.70451E-09 2.90731E-09
 -1       885 1.95333E+05 3.46581E+04 6.21954E+02 8.28111E+04 5.88814E-09-5.16832E-09
 -1       886 1.97275E+05 3.26429E+04 1.25296E+03 8.05338E+04 1.01214E-08-5.91831E-09
 -1       887 1.95554E+05 3.48024E+04 2.73674E+03 8.28428E+04 8.75218E-09-1.12294E-08
 -1       888 1.97102E+05 3.26735E+04 5.51458E+03 8.04462E+04 7.88901E-09 7.46695E-10
 -1       889 1.98840E+05 3.82139E+04 1.31740E+04 8.27383E+04 7.13077E-09 5.13364E-09
 -1       890 1.94855E+05 3.53424E+04 2.46737E+04 7.83425E+04 8.62360E-09 1.76260E-09
 -1       891-1.23871E+02-1.11526E+05-1.31638E+03 2.11729E+04-2.25475E-09-1.94427E-09
 -1       892-2.15242E+02-1.11841E+05-1.43224E+03 3.20387E+04-3.99496E-10-1.98315E-09
 -1       893-3.62925E+01-1.11568E+05-2.04683E+03 2.11770E+04 1.15188E-09-1.26365E-08
 -1       894-1.12144E+03-1.12626E+05-4.25014E+03 3.19249E+04-9.94078E-10-2.01692E-08
 -1       895-8.75958E+02-1.10684E+05-7.48955E+03 2.12852E+04-8.84029E-10-1.39607E-08
 -1       956-2.46731E+05-3.55091E+03-8.94312E+03 1.63415E+04-1.65028E-09 1.83741E-09
 -1       957-2.48497E+05-1.19657E+03-4.59108E+03 1.96783E+04-2.13186E-09 5.86624E-11
 -1       958-2.47524E+05-9.39670E+01-2.06838E+03 1.62351E+04 1.99816E-09-1.30990E-09
 -1       959-2.47665E+05-1.47542E+01-1.05649E+03 1.97933E+04-9.91122E-10 5.20140E-09
 -1       960-2.47595E+05 3.11239E+01-5.14953E+02 1.62250E+04-2.88173E-09 5.59817E-09
 -1       961-2.47604E+05 2.95896E+01-2.73042E+02 1.98047E+04-6.90011E-09 1.43541E-09
 -1       962-2.47609E+05 2.73910E+01-1.55920E+02 1.62235E+04-3.02703E-09 4.88762E-09
 -1       963-2.47601E+05 3.06338E+01-1.24497E+02 1.98068E+04-3.33603E-09 2.28806E-09
 -1       964-2.47612E+05 2.91149E+01-1.50290E+02 1.62229E+04-1.23714E-09 4.67480E-10
 -1       965-2.47611E+05 3.33793E+01-2.58986E+02 1.98069E+04 2.67089E-09-6.60600E-09
 -1       966-2.47604E+05 3.62045E+01-4.85725E+02 1.62234E+04-8.54243E-10-3.79544E-09
 -1       967-2.47675E+05-4.70460E+00-9.96013E+02 1.98007E+04 4.04384E-10 2.65595E-09
 -1       968-2.47543E+05-7.82069E+01-1.94901E+03 1.62292E+04-5.74573E-10-1.80421E-09
 -1       969-2.48466E+05-1.11544E+03-4.32737E+03 1.97327E+04-9.57812E-10 5.41354E-09
 -1       970-2.46800E+05-3.33441E+03-8.42869E+03 1.62938E+04 2.67778E-09 5.40149E-09
 -1       971-2.34195E+05-1.23510E+03-6.87703E+03 1.14213E+04-1.11008E-08-5.75483E-10
 -1       972-2.35868E+05-8.84585E+02-3.74531E+03 1.59550E+04-1.48202E-08-1.94814E-09
 -1       973-2.34959E+05-6.55736E+00-1.67694E+03 1.13262E+04-7.70160E-09 1.73497E-09
 -1       974-2.35076E+05-6.29146E+00-8.68765E+02 1.60574E+04 5.07498E-10 2.05375E-10
 -1       975-2.35018E+05 2.51302E+01-4.33157E+02 1.13178E+04 7.73980E-10 3.13867E-09
 -1       976-2.35028E+05 2.92706E+01-2.48054E+02 1.60675E+04-2.93824E-09 2.13663E-09
 -1       977-2.35029E+05 2.46067E+01-1.76638E+02 1.13160E+04 1.49453E-09 2.47564E-09
 -1       978-2.35030E+05 3.30081E+01-2.02130E+02 1.60700E+04 9.99540E-09-6.78335E-09
 -1       979-2.35028E+05 2.98984E+01-3.20781E+02 1.13152E+04 2.65885E-09 3.45415E-09
 -1       980-2.35053E+05 3.49124E+01-6.16895E+02 1.60704E+04 6.36150E-09 6.72969E-10
 -1       981-2.35008E+05 4.52735E+01-1.19344E+03 1.13156E+04 2.69745E-09 1.89311E-09
 -1       982-2.35217E+05-5.30522E+01-2.46606E+03 1.60657E+04-7.81029E-10 4.40400E-09
 -1       983-2.34859E+05-3.08110E+01-4.79111E+03 1.13201E+04 1.48862E-09 5.96788E-09
 -1       984-2.37522E+05-2.55468E+03-1.07289E+04 1.60013E+04-2.82387E-09 1.04063E-08
 -1       985-2.32690E+05-3.53635E+03-1.97017E+04 1.13846E+04 2.42744E-09 1.12050E-09
 -3
    1PSTEP                        11           6           1          
  100CL  106 4.99023E-01         409                     0    6           1
 -4  DISP        4    1
 -5  D1          1    2    1    0
 -5  D2          1    2    2    0
 -5  D3          1    2    3    0
 -5  ALL         1    2    0    0    1ALL
 -1         1 1.49319E-04 0.00000E+00 0.00000E+00
 -1         2 1.34935E-04 6.52468E-31 1.03398E-25
 -1         3 1.32069E-04-2.11097E-27 0.00000E+00
 -1         5 8.99661E-05 1.20268E-26 0.00000E+00
 -1         8 1.24402E-04-8.83798E-07 0.00000E+00
 -1         9 1.22331E-04 9.99732E-09 0.00000E+00
 -1        10 1.21898E-04-1.79481E-06 0.00000E+00
 -1        12 8.95728E-05 5.45338E-07 0.00000E+00
 -1        15 9.47044E-05-9.78498E-07-4.13590E-25
 -1        16 9.83337E-05-1.65018E-07 0.00000E+00
 -1        17 8.95481E-05-3.80608E-06 0.00000E+00
 -1        18 8.73241E-05 2.48145E-06 0.00000E+00
 -1        19 8.83932E-05 1.08776E-06 0.00000E+00
 -1        20 8.85307E-05 1.39706E-05 0.00000E+00
 -1        21 8.79885E-05 2.59055E-05 0.00000E+00
 -1        24 2.01969E-05-5.23720E-06 0.00000E+00
 -1        25 8.64787E-05 2.60772E-06 0.00000E+00
 -1        26 8.73627E-05 1.51322E-06 0.00000E+00
 -1        27 8.58572E-05 1.15263E-05 0.00000E+00
 -1        28 8.54000E-05 2.54407E-05 0.00000E+00
 -1        32 0.00000E+00 0.00000E+00 0.00000E+00
 -1        33 8.51305E-05 2.02931E-06 0.00000E+00
 -1        34 8.36605E-05 1.15037E-05 0.00000E+00
 -1        35 8.22695E-05 2.51944E-05 0.00000E+00
 -1        51 1.47700E-04-1.45954E-07 0.00000E+00
 -1        52 1.44698E-04-2.87159E-07 0.00000E+00
 -1        53 1.40585E-04-4.29764E-07 0.00000E+00
 -1        54 1.35642E-04-5.75319E-07 0.00000E+00
 -1        55 1.30153E-04-7.24618E-07 5.63517E-24
 -1        56 1.47987E-04-7.94840E-07 0.00000E+00
 -1        57 1.46783E-04-2.07980E-06 0.00000E+00
 -1        58 1.45710E-04-3.70967E-06 0.00000E+00
 -1        59 1.44707E-04-5.55101E-06-2.64698E-23
 -1        60 1.43724E-04-7.44832E-06 0.00000E+00
 -1        61 1.42704E-04-9.24778E-06 0.00000E+00
 -1        62 1.41591E-04-1.08017E-05 5.29396E-23
 -1        63 1.40334E-04-1.19716E-05-2.64698E-23
 -1        64 1.38891E-04-1.26456E-05-5.29396E-23
 -1        65 1.37227E-04-1.27293E-05 0.00000E+00
 -1        66 1.35322E-04-1.21697E-05 5.29396E-23
 -1        67 1.33164E-04-1.09357E-05 2.64698E-23
 -1        68 1.30758E-04-9.04438E-06-5.29396E-23
 -1        69 1.28126E-04-6.53246E-06 2.64698E-23
 -1        70 1.25289E-04-3.48636E-06 0.00000E+00
 -1        86 1.34587E-04 9.22322E-09-2.06795E-25
 -1        87 1.33545E-04 1.74461E-08 2.06795E-25
 -1        88 1.31803E-04 2.46557E-08 1.65436E-24
 -1        89 1.29359E-04 2.70819E-08-1.65436E-24
 -1        90 1.26204E-04 2.87367E-08-6.61744E-24
 -1       121 1.31785E-04-2.97230E-07 0.00000E+00
 -1       122 1.30933E-04-5.94777E-07 3.30872E-24
 -1       123 1.29515E-04-8.92952E-07 0.00000E+00
 -1       124 1.27534E-04-1.19211E-06 0.00000E+00
 -1       125 1.24993E-04-1.49247E-06 6.61744E-24
 -1       191 8.99551E-05 9.08956E-08-3.30872E-24
 -1       192 8.99224E-05 1.81790E-07 0.00000E+00
 -1       193 8.98678E-05 2.72683E-07 0.00000E+00
 -1       194 8.97913E-05 3.63574E-07-1.65436E-24
 -1       195 8.96930E-05 4.54459E-07 0.00000E+00
 -1       251 1.24258E-04 3.35769E-06 0.00000E+00
 -1       252 1.24128E-04 6.18882E-06 0.00000E+00
 -1       253 1.24000E-04 7.71205E-06 3.30872E-24
 -1       254 1.23874E-04 8.03636E-06 0.00000E+00
 -1       255 1.23749E-04 7.34736E-06-3.30872E-24
 -1       256 1.23623E-04 5.83583E-06-1.65436E-24
 -1       257 1.23496E-04 3.74503E-06 3.30872E-24
 -1       258 1.23368E-04 1.32116E-06 0.00000E+00
 -1       259 1.23240E-04-1.16841E-06-3.30872E-24
 -1       260 1.23113E-04-3.45588E-06 1.65436E-24
 -1       261 1.22986E-04-5.28636E-06 0.00000E+00
 -1       262 1.22860E-04-6.40734E-06-1.65436E-24
 -1       263 1.22735E-04-6.61154E-06-6.61744E-24
 -1       264 1.22606E-04-5.69634E-06 0.00000E+00
 -1       265 1.22477E-04-3.53073E-06 0.00000E+00
 -1       266 1.19452E-04-9.11642E-07-6.61744E-24
 -1       267 1.14503E-04-9.25955E-07 1.65436E-24
 -1       268 1.09553E-04-9.41125E-07 0.00000E+00
 -1       269 1.04604E-04-9.53757E-07-4.13590E-25
 -1       270 9.96540E-05-9.66329E-07-4.13590E-25
 -1       271 1.21409E-04 2.91271E-06 2.64698E-23
 -1       272 1.18821E-04 5.50322E-06 0.00000E+00
 -1       273 1.16645E-04 7.00998E-06 5.29396E-23
 -1       274 1.14823E-04 7.55422E-06 0.00000E+00
 -1       275 1.13308E-04 7.28086E-06 0.00000E+00
 -1       276 1.12040E-04 6.34679E-06-2.64698E-23
 -1       277 1.10954E-04 4.92209E-06 5.29396E-23
 -1       278 1.09985E-04 3.18524E-06 0.00000E+00
 -1       279 1.09064E-04 1.32072E-06 0.00000E+00
 -1       280 1.08121E-04-4.84660E-07 0.00000E+00
 -1       281 1.07086E-04-2.04537E-06-5.29396E-23
 -1       282 1.05894E-04-3.18009E-06-2.64698E-23
 -1       283 1.04477E-04-3.71585E-06 0.00000E+00
 -1       284 1.02779E-04-3.48870E-06-2.64698E-23
 -1       285 1.00737E-04-2.35275E-06-2.64698E-23
 -1       301 1.18033E-04-2.94164E-08 0.00000E+00
 -1       302 1.13775E-04-5.06332E-08 0.00000E+00
 -1       303 1.09618E-04-7.07357E-08 0.00000E+00
 -1       304 1.05619E-04-9.15241E-08-3.30872E-24
 -1       305 1.01839E-04-1.13802E-07 0.00000E+00
 -1       306 1.19316E-04 2.52796E-06 0.00000E+00
 -1       307 1.17037E-04 2.91821E-06 0.00000E+00
 -1       308 1.15524E-04 1.27563E-06 0.00000E+00
 -1       309 1.14690E-04-2.21966E-06 0.00000E+00
 -1       310 1.14354E-04-7.05752E-06 5.29396E-23
 -1       311 1.14298E-04-1.26568E-05 2.64698E-23
 -1       312 1.14259E-04-1.83025E-05-5.29396E-23
 -1       313 1.13972E-04-2.32777E-05 0.00000E+00
 -1       314 1.13213E-04-2.69820E-05 5.29396E-23
 -1       315 1.11783E-04-2.88859E-05 0.00000E+00
 -1       316 1.09598E-04-2.87749E-05 5.29396E-23
 -1       317 1.06617E-04-2.65452E-05-2.64698E-23
 -1       318 1.02934E-04-2.24625E-05 0.00000E+00
 -1       319 9.86959E-05-1.68891E-05 0.00000E+00
 -1       320 9.41245E-05-1.04556E-05 0.00000E+00
 -1       336 1.18183E-04-2.12267E-06-6.61744E-24
 -1       337 1.13781E-04-2.45364E-06 3.30872E-24
 -1       338 1.08702E-04-2.78759E-06 0.00000E+00
 -1       339 1.02961E-04-3.12448E-06 0.00000E+00
 -1       340 9.65705E-05-3.46520E-06 0.00000E+00
 -1       406 8.94308E-05 6.36203E-07 0.00000E+00
 -1       407 8.92669E-05 7.27035E-07 0.00000E+00
 -1       408 8.90812E-05 8.17809E-07 0.00000E+00
 -1       409 8.88736E-05 9.08414E-07 0.00000E+00
 -1       410 8.86442E-05 9.98673E-07 0.00000E+00
 -1       521 9.94974E-05-1.23535E-05 5.29396E-23
 -1       522 1.10266E-04-5.24332E-05 0.00000E+00
 -1       523 1.27922E-04-1.13746E-04-1.05879E-22
 -1       524 1.49436E-04-1.87783E-04 0.00000E+00
 -1       525 1.71368E-04-2.63213E-04 1.05879E-22
 -1       526 1.90258E-04-3.28579E-04 5.29396E-23
 -1       527 2.02999E-04-3.74671E-04-1.05879E-22
 -1       528 2.06603E-04-3.93980E-04 5.29396E-23
 -1       529 1.99638E-04-3.84798E-04 1.05879E-22
 -1       530 1.81490E-04-3.47787E-04 5.29396E-23
 -1       531 1.54184E-04-2.89381E-04-1.05879E-22
 -1       532 1.20868E-04-2.17615E-04 5.29396E-23
 -1       533 8.63448E-05-1.43208E-04 0.00000E+00
 -1       534 5.56066E-05-7.70524E-05 0.00000E+00
 -1       535 3.25529E-05-2.84197E-05 0.00000E+00
 -1       536 8.94536E-05 6.51453E-06 0.00000E+00
 -1       537 8.92910E-05 2.28049E-05 0.00000E+00
 -1       538 8.90683E-05 4.26197E-05 0.00000E+00
 -1       539 8.88260E-05 6.35103E-05 0.00000E+00
 -1       540 8.86153E-05 8.27196E-05 0.00000E+00
 -1       541 8.84775E-05 9.74929E-05 4.13590E-25
 -1       542 8.84057E-05 1.06269E-04-8.27181E-25
 -1       543 8.83704E-05 1.07494E-04 4.13590E-25
 -1       544 8.83194E-05 1.01563E-04 0.00000E+00
 -1       545 8.82081E-05 8.88841E-05 0.00000E+00
 -1       546 8.80328E-05 7.16271E-05 8.27181E-25
 -1       547 8.78149E-05 5.19696E-05 0.00000E+00
 -1       548 8.76050E-05 3.27468E-05 0.00000E+00
 -1       549 8.74509E-05 1.67934E-05 0.00000E+00
 -1       550 8.73617E-05 6.05830E-06 0.00000E+00
 -1       551 8.03920E-05-4.01743E-06 0.00000E+00
 -1       552 6.94768E-05-4.24164E-06 1.65436E-24
 -1       553 5.73966E-05-4.47803E-06-3.30872E-24
 -1       554 4.47551E-05-4.72312E-06-3.30872E-24
 -1       555 3.21554E-05-4.97045E-06 1.32349E-23
 -1       556 8.70961E-05 2.53563E-06 0.00000E+00
 -1       557 8.51994E-05 7.44838E-06 0.00000E+00
 -1       558 8.37984E-05 1.10598E-05 0.00000E+00
 -1       559 8.28389E-05 1.35077E-05 0.00000E+00
 -1       560 8.22670E-05 1.49301E-05 0.00000E+00
 -1       561 8.20291E-05 1.54653E-05 0.00000E+00
 -1       562 8.20724E-05 1.52522E-05 0.00000E+00
 -1       563 8.23441E-05 1.44297E-05 0.00000E+00
 -1       564 8.27918E-05 1.31368E-05 0.00000E+00
 -1       565 8.33633E-05 1.15128E-05 0.00000E+00
 -1       566 8.40065E-05 9.69679E-06 0.00000E+00
 -1       567 8.46693E-05 7.82815E-06-3.61892E-25
 -1       568 8.52999E-05 6.04608E-06 0.00000E+00
 -1       569 8.58461E-05 4.48972E-06 0.00000E+00
 -1       570 8.62561E-05 3.29820E-06 0.00000E+00
 -1       571 8.73890E-05 2.42102E-06 1.65436E-24
 -1       572 8.74553E-05 2.31814E-06 8.27181E-25
 -1       573 8.75221E-05 2.18076E-06-8.27181E-25
 -1       574 8.75890E-05 2.01726E-06 0.00000E+00
 -1       575 8.76560E-05 1.83602E-06 1.65436E-24
 -1       576 8.77230E-05 1.64549E-06 8.27181E-25
 -1       577 8.77901E-05 1.45412E-06 0.00000E+00
 -1       578 8.78571E-05 1.27038E-06 0.00000E+00
 -1       579 8.79242E-05 1.10272E-06-3.30872E-24
 -1       580 8.79912E-05 9.59600E-07 0.00000E+00
 -1       581 8.80583E-05 8.49483E-07 3.30872E-24
 -1       582 8.81254E-05 7.80816E-07-3.30872E-24
 -1       583 8.81924E-05 7.62042E-07 0.00000E+00
 -1       584 8.82594E-05 8.01517E-07-3.30872E-24
 -1       585 8.83264E-05 9.07541E-07 0.00000E+00
 -1       586 8.71536E-05 2.50387E-06-8.27181E-25
 -1       587 8.69571E-05 2.52571E-06 2.06795E-25
 -1       588 8.67629E-05 2.54731E-06 0.00000E+00
 -1       589 8.65995E-05 2.56854E-06 0.00000E+00
 -1       590 8.64956E-05 2.58915E-06 0.00000E+00
 -1       591 8.73153E-05 2.45779E-06 1.80946E-25
 -1       592 8.73160E-05 2.40198E-06 4.13590E-25
 -1       593 8.73262E-05 2.32038E-06 4.13590E-25
 -1       594 8.73436E-05 2.21869E-06 0.00000E+00
 -1       595 8.73663E-05 2.10265E-06 0.00000E+00
 -1       596 8.73922E-05 1.97799E-06-2.06795E-25
 -1       597 8.74191E-05 1.85041E-06 0.00000E+00
 -1       598 8.74450E-05 1.72561E-06 0.00000E+00
 -1       599 8.74678E-05 1.60931E-06 0.00000E+00
 -1       600 8.74852E-05 1.50721E-06 0.00000E+00
 -1       601 8.74952E-05 1.42500E-06 4.13590E-25
 -1       602 8.74956E-05 1.36841E-06 0.00000E+00
 -1       603 8.74844E-05 1.34314E-06 2.06795E-25
 -1       604 8.74595E-05 1.35494E-06 0.00000E+00
 -1       605 8.74189E-05 1.40951E-06 0.00000E+00
 -1       606 8.84053E-05 1.41882E-06 0.00000E+00
 -1       607 8.84149E-05 1.84094E-06 0.00000E+00
 -1       608 8.84239E-05 2.34877E-06 0.00000E+00
 -1       609 8.84325E-05 2.93628E-06 0.00000E+00
 -1       610 8.84410E-05 3.59743E-06 0.00000E+00
 -1       611 8.84495E-05 4.32606E-06 0.00000E+00
 -1       612 8.84578E-05 5.11603E-06 0.00000E+00
 -1       613 8.84661E-05 5.96119E-06 0.00000E+00
 -1       614 8.84744E-05 6.85538E-06 0.00000E+00
 -1       615 8.84826E-05 7.79244E-06 0.00000E+00
 -1       616 8.84908E-05 8.76623E-06 0.00000E+00
 -1       617 8.84989E-05 9.77059E-06 0.00000E+00
 -1       618 8.85071E-05 1.07994E-05 0.00000E+00
 -1       619 8.85151E-05 1.18464E-05 0.00000E+00
 -1       620 8.85231E-05 1.29055E-05 0.00000E+00
 -1       621 8.81592E-05 1.15874E-06 0.00000E+00
 -1       622 8.79596E-05 1.23005E-06 0.00000E+00
 -1       623 8.77873E-05 1.30134E-06 1.65436E-24
 -1       624 8.76352E-05 1.37251E-06 8.27181E-25
 -1       625 8.74960E-05 1.44357E-06-1.65436E-24
 -1       626 8.83462E-05 1.44188E-06-3.30872E-24
 -1       627 8.82716E-05 1.87084E-06 3.30872E-24
 -1       628 8.81718E-05 2.36754E-06 0.00000E+00
 -1       629 8.80494E-05 2.92439E-06-1.65436E-24
 -1       630 8.79074E-05 3.53382E-06 0.00000E+00
 -1       631 8.77484E-05 4.18821E-06 1.65436E-24
 -1       632 8.75754E-05 4.87991E-06 3.30872E-24
 -1       633 8.73913E-05 5.60132E-06 0.00000E+00
 -1       634 8.71989E-05 6.34480E-06 3.30872E-24
 -1       635 8.70011E-05 7.10271E-06 1.65436E-24
 -1       636 8.68006E-05 7.86746E-06-1.65436E-24
 -1       637 8.66005E-05 8.63139E-06-8.27181E-25
 -1       638 8.64034E-05 9.38689E-06 0.00000E+00
 -1       639 8.62123E-05 1.01263E-05 8.27181E-25
 -1       640 8.60296E-05 1.08420E-05 0.00000E+00
 -1       656 8.76658E-05 1.35729E-05 0.00000E+00
 -1       657 8.71497E-05 1.31593E-05 0.00000E+00
 -1       658 8.68518E-05 1.27470E-05-1.32349E-23
 -1       659 8.66378E-05 1.23351E-05 0.00000E+00
 -1       660 8.63564E-05 1.19218E-05-6.61744E-24
 -1       661 8.82112E-05 1.50100E-05 0.00000E+00
 -1       662 8.79146E-05 1.59962E-05 0.00000E+00
 -1       663 8.76372E-05 1.69309E-05 0.00000E+00
 -1       664 8.73786E-05 1.78170E-05-8.27181E-25
 -1       665 8.71375E-05 1.86568E-05-1.65436E-24
 -1       666 8.69130E-05 1.94525E-05 0.00000E+00
 -1       667 8.67042E-05 2.02065E-05 0.00000E+00
 -1       668 8.65102E-05 2.09210E-05 0.00000E+00
 -1       669 8.63304E-05 2.15979E-05 1.65436E-24
 -1       670 8.61639E-05 2.22393E-05 0.00000E+00
 -1       671 8.60099E-05 2.28471E-05 1.65436E-24
 -1       672 8.58678E-05 2.34231E-05 8.27181E-25
 -1       673 8.57370E-05 2.39690E-05 1.65436E-24
 -1       674 8.56161E-05 2.44863E-05 0.00000E+00
 -1       675 8.55054E-05 2.49769E-05 0.00000E+00
 -1       676 8.75559E-05 2.58276E-05-1.65436E-24
 -1       677 8.71236E-05 2.57497E-05 0.00000E+00
 -1       678 8.66916E-05 2.56718E-05-1.65436E-24
 -1       679 8.62602E-05 2.55942E-05 8.27181E-25
 -1       680 8.58296E-05 2.55166E-05 1.65436E-24
 -1       771 1.55277E-05 4.09737E-06-5.29396E-23
 -1       772 1.14956E-05 1.17469E-05-2.64698E-23
 -1       773 8.07331E-06 1.78024E-05 0.00000E+00
 -1       774 5.22033E-06 2.23620E-05 2.64698E-23
 -1       775 2.89688E-06 2.55267E-05 0.00000E+00
 -1       776 1.06137E-06 2.74011E-05 2.64698E-23
 -1       777-3.28242E-07 2.80926E-05 0.00000E+00
 -1       778-1.31495E-06 2.77117E-05-1.32349E-23
 -1       779-1.94205E-06 2.63711E-05 0.00000E+00
 -1       780-2.25363E-06 2.41859E-05-1.32349E-23
 -1       781-2.29390E-06 2.12732E-05-2.64698E-23
 -1       782-2.10772E-06 1.77518E-05 1.32349E-23
 -1       783-1.73999E-06 1.37419E-05 0.00000E+00
 -1       784-1.23600E-06 9.36500E-06-1.32349E-23
 -1       785-6.41117E-07 4.74331E-06 2.64698E-23
 -1       786 8.65305E-05 2.43658E-06 4.13590E-25
 -1       787 8.65856E-05 2.28036E-06 4.13590E-25
 -1       788 8.66404E-05 2.13684E-06 0.00000E+00
 -1       789 8.66959E-05 2.00387E-06 8.27181E-25
 -1       790 8.67514E-05 1.88066E-06 1.65436E-24
 -1       791 8.68070E-05 1.76640E-06 0.00000E+00
 -1       792 8.68627E-05 1.66146E-06 0.00000E+00
 -1       793 8.69184E-05 1.56623E-06 0.00000E+00
 -1       794 8.69740E-05 1.48233E-06 0.00000E+00
 -1       795 8.70297E-05 1.41142E-06 0.00000E+00
 -1       796 8.70854E-05 1.35682E-06-1.65436E-24
 -1       797 8.71411E-05 1.32189E-06 0.00000E+00
 -1       798 8.71967E-05 1.31250E-06 1.65436E-24
 -1       799 8.72522E-05 1.33460E-06 8.27181E-25
 -1       800 8.73078E-05 1.39815E-06 0.00000E+00
 -1       801 8.06310E-05 2.30162E-06 0.00000E+00
 -1       802 6.28116E-05 1.84800E-06 0.00000E+00
 -1       803 3.95230E-05 1.29310E-06 1.32349E-23
 -1       804 1.73427E-05 7.55157E-07 6.61744E-24
 -1       805 2.21595E-06 3.37956E-07 2.64698E-23
 -1       806 8.64654E-05 2.39197E-06 0.00000E+00
 -1       807 8.64465E-05 2.18294E-06 0.00000E+00
 -1       808 8.64229E-05 1.98499E-06-1.65436E-24
 -1       809 8.63935E-05 1.80171E-06 8.27181E-25
 -1       810 8.63571E-05 1.63669E-06-1.65436E-24
 -1       811 8.63125E-05 1.49345E-06 0.00000E+00
 -1       812 8.62583E-05 1.37550E-06-1.65436E-24
 -1       813 8.61934E-05 1.28635E-06-1.65436E-24
 -1       814 8.61164E-05 1.22950E-06-1.65436E-24
 -1       815 8.60259E-05 1.20845E-06 0.00000E+00
 -1       816 8.59208E-05 1.22669E-06-1.65436E-24
 -1       817 8.57995E-05 1.28772E-06 1.65436E-24
 -1       818 8.56610E-05 1.39503E-06-1.65436E-24
 -1       819 8.55040E-05 1.55210E-06-8.27181E-25
 -1       820 8.53272E-05 1.76239E-06 1.65436E-24
 -1       821 8.72741E-05 1.63899E-06 0.00000E+00
 -1       822 8.71800E-05 1.73552E-06 8.27181E-25
 -1       823 8.70863E-05 1.85239E-06 0.00000E+00
 -1       824 8.69915E-05 2.03908E-06 0.00000E+00
 -1       825 8.68967E-05 2.33140E-06-3.30872E-24
 -1       826 8.68017E-05 2.76468E-06 0.00000E+00
 -1       827 8.67065E-05 3.34660E-06 0.00000E+00
 -1       828 8.66112E-05 4.08425E-06 0.00000E+00
 -1       829 8.65158E-05 4.95415E-06 0.00000E+00
 -1       830 8.64203E-05 5.93226E-06 0.00000E+00
 -1       831 8.63248E-05 6.97335E-06 0.00000E+00
 -1       832 8.62295E-05 8.03190E-06 0.00000E+00
 -1       833 8.61343E-05 9.05894E-06 3.30872E-24
 -1       834 8.60402E-05 1.00057E-05-8.27181E-25
 -1       835 8.59458E-05 1.08390E-05-8.27181E-25
 -1       836 8.71347E-05 1.59914E-06 0.00000E+00
 -1       837 8.67991E-05 1.68697E-06-8.27181E-25
 -1       838 8.63933E-05 1.77463E-06 0.00000E+00
 -1       839 8.59549E-05 1.86173E-06 0.00000E+00
 -1       840 8.55215E-05 1.94869E-06 0.00000E+00
 -1       856 8.58320E-05 1.21956E-05 0.00000E+00
 -1       857 8.58038E-05 1.29681E-05 2.06795E-25
 -1       858 8.57757E-05 1.38275E-05-4.13590E-25
 -1       859 8.57469E-05 1.47576E-05-4.13590E-25
 -1       860 8.57182E-05 1.57419E-05-8.27181E-25
 -1       861 8.56892E-05 1.67641E-05 4.13590E-25
 -1       862 8.56602E-05 1.78075E-05 0.00000E+00
 -1       863 8.56313E-05 1.88558E-05-4.13590E-25
 -1       864 8.56023E-05 1.98924E-05-8.27181E-25
 -1       865 8.55733E-05 2.09007E-05-4.13590E-25
 -1       866 8.55444E-05 2.18645E-05 0.00000E+00
 -1       867 8.55155E-05 2.27671E-05-4.13590E-25
 -1       868 8.54866E-05 2.35922E-05-8.27181E-25
 -1       869 8.54578E-05 2.43237E-05-4.13590E-25
 -1       870 8.54291E-05 2.49452E-05 8.27181E-25
 -1       871 8.53850E-05 1.15254E-05-4.13590E-25
 -1       872 8.50138E-05 1.15224E-05 0.00000E+00
 -1       873 8.46999E-05 1.15190E-05 0.00000E+00
 -1       874 8.43992E-05 1.15151E-05-1.55096E-25
 -1       875 8.40673E-05 1.15107E-05 0.00000E+00
 -1       876 8.56973E-05 1.22045E-05 3.30872E-24
 -1       877 8.55206E-05 1.29330E-05 0.00000E+00
 -1       878 8.53275E-05 1.37055E-05-3.30872E-24
 -1       879 8.51202E-05 1.45166E-05 0.00000E+00
 -1       880 8.49006E-05 1.53605E-05-3.30872E-24
 -1       881 8.46708E-05 1.62315E-05 0.00000E+00
 -1       882 8.44330E-05 1.71240E-05-3.30872E-24
 -1       883 8.41892E-05 1.80325E-05 1.65436E-24
 -1       884 8.39415E-05 1.89512E-05 3.30872E-24
 -1       885 8.36921E-05 1.98745E-05 1.65436E-24
 -1       886 8.34430E-05 2.07969E-05 3.30872E-24
 -1       887 8.31963E-05 2.17126E-05-8.27181E-25
 -1       888 8.29540E-05 2.26160E-05-1.65436E-24
 -1       889 8.27181E-05 2.35015E-05 0.00000E+00
 -1       890 8.24905E-05 2.43632E-05 0.00000E+00
 -1       891 8.49903E-05 2.53995E-05 1.65436E-24
 -1       892 8.45628E-05 2.53582E-05 0.00000E+00
 -1       893 8.40973E-05 2.53168E-05 0.00000E+00
 -1       894 8.35734E-05 2.52756E-05 2.06795E-25
 -1       895 8.29708E-05 2.52344E-05 2.06795E-25
 -1       956 8.50403E-05 2.41261E-06 1.65436E-24
 -1       957 8.49487E-05 2.85418E-06-8.27181E-25
 -1       958 8.48568E-05 3.34784E-06-1.65436E-24
 -1       959 8.47647E-05 3.88702E-06 8.27181E-25
 -1       960 8.46725E-05 4.46515E-06-1.65436E-24
 -1       961 8.45803E-05 5.07562E-06-8.27181E-25
 -1       962 8.44880E-05 5.71182E-06-3.30872E-24
 -1       963 8.43958E-05 6.36713E-06-1.65436E-24
 -1       964 8.43035E-05 7.03494E-06 0.00000E+00
 -1       965 8.42113E-05 7.70861E-06 1.65436E-24
 -1       966 8.41190E-05 8.38153E-06 0.00000E+00
 -1       967 8.40268E-05 9.04709E-06 0.00000E+00
 -1       968 8.39346E-05 9.69865E-06-3.30872E-24
 -1       969 8.38426E-05 1.03296E-05 0.00000E+00
 -1       970 8.37509E-05 1.09334E-05 0.00000E+00
 -1       971 8.35747E-05 1.20917E-05-1.65436E-24
 -1       972 8.34877E-05 1.27561E-05-8.27181E-25
 -1       973 8.34006E-05 1.34885E-05 0.00000E+00
 -1       974 8.33133E-05 1.42800E-05 8.27181E-25
 -1       975 8.32258E-05 1.51220E-05 1.65436E-24
 -1       976 8.31384E-05 1.60056E-05 8.27181E-25
 -1       977 8.30509E-05 1.69220E-05 0.00000E+00
 -1       978 8.29634E-05 1.78625E-05 0.00000E+00
 -1       979 8.28758E-05 1.88182E-05 0.00000E+00
 -1       980 8.27883E-05 1.97803E-05 1.65436E-24
 -1       981 8.27008E-05 2.07400E-05 0.00000E+00
 -1       982 8.26134E-05 2.16884E-05 1.65436E-24
 -1       983 8.25261E-05 2.26169E-05 0.00000E+00
 -1       984 8.24393E-05 2.35165E-05-1.65436E-24
 -1       985 8.23528E-05 2.43786E-05 0.00000E+00
 -3
    1PSTEP                        12           6           1          
  100CL  106 4.99023E-01         409                     0    6           1
 -4  STRESS      6    1
 -5  SXX         1    4    1    1
 -5  SYY         1    4    2    2
 -5  SZZ         1    4    3    3
 -5  SXY         1    4    1    2
 -5  SYZ         1    4    2    3
 -5  SZX         1    4    3    1
 -1         1-1.90776E+06-8.40670E+05-3.97541E+05-1.13282E+06 2.18279E-10 1.78552E-08
 -1         2 2.64911E+03 3.01000E+04 8.66537E+03 8.48481E+01-1.26306E-10-1.89062E-08
 -1         3-1.38840E+02-8.48753E+05 2.00471E+02-3.82541E+02-2.17829E-10 1.42973E-08
 -1         5-4.06928E+00 2.60081E+05 6.73955E+00 1.10580E-01 3.16868E-11-2.18824E-08
 -1         8-9.06160E+05-3.59130E+05-6.19273E+04-5.64947E+05 2.85581E-10 2.83035E-09
 -1         9-1.71221E+06-4.99058E+05-1.94231E+05-5.42382E+05 3.78932E-09 1.12923E-09
 -1        10-7.17243E+02-8.84223E+05-1.18841E+03-2.58620E+03-4.28781E-09-1.56791E-08
 -1        12-1.30629E+00 2.60095E+05 2.18394E+02 9.35227E-01 2.06395E-10 9.84778E-09
 -1        15 1.99821E+03 1.09814E+03 6.45920E+03 4.27690E+00 3.10649E-11 2.05828E-08
 -1        16-3.25893E+06-1.25021E+06-5.22357E+05-1.30202E+06 1.12147E-08 1.19714E-08
 -1        17-9.90094E+05-5.98851E+05-1.90087E+05-5.50502E+05-7.60338E-09-5.94882E-09
 -1        18 2.21347E+04 8.00815E+02-1.47481E+04-6.27261E+04 4.96755E-09-6.89261E-09
 -1        19 8.22552E+04 9.69756E+04-5.26942E+02 1.61624E+04-5.04042E-10 7.40693E-10
 -1        20-3.68028E+04-3.88990E+05-8.59770E+04 2.73620E+04 3.94342E-09 4.43227E-10
 -1        21-3.62147E+01-2.22816E+05-7.17077E+02-6.61048E+01-4.96977E-09-1.64142E-08
 -1        24-3.23721E+06-9.20746E+05-4.15621E+05-1.19414E+06-2.92421E-08-1.24855E-08
 -1        25-1.25119E+04-1.78571E+05-2.38454E+04-1.11674E+05 3.13776E-10 1.68206E-08
 -1        26-2.27927E+04 6.53330E+04-1.40904E+04-7.87426E+03 1.61563E-09 6.16645E-09
 -1        27-6.05560E+04-2.12878E+05-7.96447E+04 4.80336E+04 4.68564E-09-1.21812E-09
 -1        28 1.72190E+04-6.18317E+04 1.26050E+04 1.92638E+04 2.33058E-09-4.13432E-09
 -1        32-9.12909E+05-5.47879E+05 2.59246E+05-5.51456E+05-1.93104E-08 8.33188E-09
 -1        33-1.22715E+05 6.22818E+04 2.21353E+04-3.42491E+04 8.64153E-10-4.21066E-09
 -1        34-1.57902E+05-1.58284E+04 3.84072E+02 4.89931E+04 2.58713E-09-1.43291E-09
 -1        35-1.75190E+04-2.45693E+04-9.64818E+02 3.88155E+04 3.48379E-09 1.86265E-09
 -1        51 1.68121E+04-3.63377E+05 4.23782E+04-9.49775E+05-3.92902E-10-4.14730E-09
 -1        52 9.87437E+03-3.61472E+05 2.74951E+04-1.10772E+06 4.36557E-10-2.76777E-08
 -1        53 6.97537E+03-3.74788E+05 2.26344E+04-9.46456E+05 1.40426E-09-2.04891E-08
 -1        54 1.96980E+04-3.73460E+05 3.53822E+04-1.11117E+06-1.45519E-11-1.92449E-09
 -1        55 3.89098E+04-3.86827E+05 6.25908E+04-9.45917E+05 9.89530E-10-2.96859E-09
 -1        56-3.65477E+06-4.10308E+05-2.92303E+05-1.41006E+06 1.47702E-09-4.55475E-09
 -1        57-3.77481E+06-6.72396E+05-1.97074E+05-1.39579E+06 5.63887E-10 5.25688E-10
 -1        58-3.71406E+06-5.02387E+05-6.87592E+04-1.39099E+06 3.16504E-10 3.74348E-09
 -1        59-3.70620E+06-5.64338E+05-4.10463E+04-1.41851E+06 2.01226E-10 1.57570E-09
 -1        60-3.72271E+06-5.15227E+05-1.60462E+04-1.38841E+06-1.40153E-09-5.16593E-10
 -1        61-3.69778E+06-5.47620E+05-9.10563E+03-1.41953E+06 7.09974E-10-6.37829E-09
 -1        62-3.72230E+06-5.18723E+05-4.37317E+03-1.39006E+06 1.46179E-09-6.06678E-09
 -1        63-3.70132E+06-5.40743E+05-3.52403E+03-1.41397E+06 3.64685E-09-4.00405E-09
 -1        64-3.71904E+06-5.22131E+05-4.03401E+03-1.39390E+06 5.79803E-10 2.22690E-09
 -1        65-3.70988E+06-5.34629E+05-7.96497E+03-1.40483E+06-1.24635E-09-1.06238E-08
 -1        66-3.71366E+06-5.24938E+05-1.40519E+04-1.39912E+06-1.86037E-09 2.13458E-09
 -1        67-3.72707E+06-5.39190E+05-3.56290E+04-1.39255E+06-2.54025E-09 2.76486E-09
 -1        68-3.70196E+06-5.17927E+05-5.98073E+04-1.40608E+06 3.83807E-10 2.80852E-09
 -1        69-3.79285E+06-6.27173E+05-1.71222E+05-1.36629E+06-6.64841E-10 3.91628E-09
 -1        70-3.64863E+06-4.39588E+05-2.54028E+05-1.42454E+06-2.71757E-09-1.35333E-09
 -1        86-1.33144E+03 2.72236E+04 9.24366E+03-4.24463E+01 1.16324E-09 8.35030E-09
 -1        87 8.81477E+03 3.30860E+04 1.93358E+04 1.81463E+02 1.91972E-09 1.13780E-08
 -1        88-7.47790E+03 2.42389E+04 2.95635E+04-1.39069E+02 2.85581E-09 1.13574E-08
 -1        89 5.57033E+04 5.48544E+04 7.97619E+04 4.76143E+02 4.33283E-09-7.79622E-09
 -1        90-4.80610E+04 5.47471E+03 1.12683E+05-3.36620E+02 4.65661E-09-1.12934E-08
 -1       121-2.10007E+02-8.49327E+05 1.35957E+02 1.90962E+02 4.93969E-10 4.87853E-09
 -1       122-7.14939E+01-8.48716E+05 4.30864E+02-7.64597E+02-1.63346E-09 2.91220E-09
 -1       123-2.54074E+02-8.49375E+05 6.40338E+02 5.71797E+02 1.38459E-09 1.21727E-08
 -1       124 7.26770E+02-8.48250E+05 1.78984E+03-1.68000E+03-3.22348E-09 1.04337E-08
 -1       125-7.62417E+02-8.49826E+05 2.68665E+03 1.10543E+03 2.24964E-09 7.71433E-09
 -1       191-4.49607E+00 2.60103E+05 8.09639E+00-5.57135E-02 1.10379E-10-1.58598E-08
 -1       192-4.68817E+00 2.60081E+05 1.42676E+01 5.77630E-01 1.79174E-10-3.93356E-09
 -1       193-6.14174E+00 2.60103E+05 2.65734E+01-5.24891E-01 2.11149E-10 1.11236E-08
 -1       194-6.67991E+00 2.60083E+05 5.39615E+01 1.40259E+00 1.17687E-10 1.36386E-08
 -1       195-9.30442E+00 2.60101E+05 1.05591E+02-8.86063E-01 2.90704E-10 1.70485E-09
 -1       251-3.68353E+05-2.28173E+04 5.30113E+04-4.32584E+02 2.15209E-10 4.63115E-09
 -1       252-3.42672E+05 2.63684E+04 3.78833E+04-6.41456E+03-9.14696E-10 7.20775E-10
 -1       253-3.59210E+05-3.55476E+03 1.36479E+04 1.49111E+03 7.80005E-10 5.40967E-09
 -1       254-3.53702E+05 4.08266E+03 8.84666E+03-9.87661E+03 2.65382E-09-5.79621E-09
 -1       255-3.57401E+05-5.58105E+02 3.52252E+03 3.02931E+03 1.28637E-09 4.42060E-09
 -1       256-3.56080E+05 6.70354E+02 2.26632E+03-1.22977E+04 9.24246E-10 1.65086E-08
 -1       257-3.56900E+05-1.04280E+02 1.20338E+03 3.91215E+03 1.32928E-10 5.16795E-09
 -1       258-3.56627E+05 2.71257E+02 1.20775E+03-1.32802E+04 3.77620E-10-3.51152E-09
 -1       259-3.56887E+05-1.36808E+02 1.52559E+03 4.01191E+03-4.06757E-10 4.54554E-09
 -1       260-3.56049E+05 9.66842E+02 3.15124E+03-1.26846E+04-4.50555E-10-7.75105E-09
 -1       261-3.57458E+05-8.12388E+02 5.18171E+03 3.31656E+03 1.39732E-09-4.05794E-09
 -1       262-3.52920E+05 6.02440E+03 1.28949E+04-1.05982E+04 5.44333E-10-6.55382E-09
 -1       263-3.59952E+05-5.22328E+03 2.02128E+04 1.92540E+03-1.31388E-09-2.65663E-09
 -1       264-3.36934E+05 3.88834E+04 5.57102E+04-7.39396E+03-3.44983E-09-2.43745E-10
 -1       265-3.73354E+05-3.36111E+04 7.83494E+04 1.12315E+02-1.55353E-09 2.19370E-09
 -1       266-3.61731E+04-1.69118E+04 8.48851E+04-9.15242E+01 2.03727E-10 2.15173E-08
 -1       267 4.19358E+04 1.97153E+04 5.99891E+04 1.05586E+02 2.08274E-10 3.16801E-08
 -1       268-5.62346E+03-2.79200E+03 2.22980E+04-1.34543E+01 8.82210E-11 2.20544E-08
 -1       269 6.63972E+03 3.34169E+03 1.44930E+04 1.56714E+01 2.04636E-10 2.83963E-08
 -1       270-9.96629E+02-5.49055E+02 6.99599E+03-2.12675E+00 7.00311E-11 2.34084E-08
 -1       271-3.48377E+06-4.35893E+05-2.66721E+05-1.35816E+06-2.25191E-09-9.74978E-09
 -1       272-3.56907E+06-6.40599E+05-1.71455E+05-1.36718E+06 7.22821E-10-5.18776E-09
 -1       273-3.53552E+06-5.00766E+05-6.30133E+04-1.34448E+06-2.06137E-09 4.48927E-09
 -1       274-3.50792E+06-5.61739E+05-3.52253E+04-1.38866E+06-1.05956E-09 3.10229E-09
 -1       275-3.54426E+06-5.05771E+05-1.46688E+04-1.34038E+06 5.61158E-10 1.63800E-09
 -1       276-3.49723E+06-5.56315E+05-7.76407E+03-1.39554E+06-2.20643E-09-6.33554E-09
 -1       277-3.54672E+06-5.04886E+05-3.80777E+03-1.33840E+06 6.26187E-10 9.89507E-09
 -1       278-3.49464E+06-5.57333E+05-2.74863E+03-1.39830E+06 2.49929E-09 2.56435E-09
 -1       279-3.54720E+06-5.04448E+05-2.93452E+03-1.33790E+06-1.96373E-09-1.13164E-08
 -1       280-3.49545E+06-5.57567E+05-5.38046E+03-1.39773E+06-1.98906E-09 1.12141E-09
 -1       281-3.54585E+06-5.04742E+05-9.82828E+03-1.33890E+06 1.19326E-09 5.32054E-09
 -1       282-3.50245E+06-5.61266E+05-2.34987E+04-1.39324E+06 1.26306E-09 5.03860E-09
 -1       283-3.53984E+06-5.01635E+05-4.19523E+04-1.34185E+06 8.79027E-10 3.76713E-09
 -1       284-3.54377E+06-6.12954E+05-1.14119E+05-1.37785E+06 1.47224E-10-1.02409E-09
 -1       285-3.50476E+06-4.59186E+05-1.77620E+05-1.35168E+06 1.27329E-10 1.13505E-09
 -1       301 1.72229E+04-3.30128E+04 1.28970E+05-7.05024E+04-5.56611E-10 2.38970E-09
 -1       302 1.83505E+04-3.98386E+02 8.90975E+04-1.03773E+05 1.31286E-09 5.82531E-10
 -1       303 1.02115E+03-2.07804E+04 7.58095E+04-7.06233E+04-9.00400E-10-1.23327E-09
 -1       304 2.79910E+04 8.82963E+03 1.20804E+05-1.03403E+05 7.71252E-10 2.24099E-09
 -1       305 2.73512E+04-4.16608E+04 1.99130E+05-7.08549E+04-8.44011E-10 9.60426E-10
 -1       306-4.60776E+06-5.32424E+05-3.47647E+05-1.79767E+06 3.43425E-09-5.66070E-09
 -1       307-4.77298E+06-8.36055E+05-2.36427E+05-1.74836E+06 6.58474E-10 8.30914E-09
 -1       308-4.69867E+06-6.27956E+05-8.18883E+04-1.75068E+06 6.85759E-10-7.23958E-10
 -1       309-4.65818E+06-7.35441E+05-4.92846E+04-1.81648E+06 3.04226E-10 5.38421E-09
 -1       310-4.72252E+06-6.30512E+05-1.91022E+04-1.73064E+06-4.53156E-10 1.97269E-09
 -1       311-4.63271E+06-7.30224E+05-1.10833E+04-1.83795E+06 9.33437E-09-7.17773E-09
 -1       312-4.72452E+06-6.32496E+05-5.44427E+03-1.72966E+06-1.12118E-09 3.28222E-09
 -1       313-4.64278E+06-7.14594E+05-4.61347E+03-1.82243E+06-3.61615E-09 5.00484E-09
 -1       314-4.71193E+06-6.46456E+05-6.29656E+03-1.74580E+06-1.13096E-09-1.41426E-10
 -1       315-4.67783E+06-6.82109E+05-1.19166E+04-1.78016E+06-3.09569E-09 1.89593E-08
 -1       316-4.68875E+06-6.65547E+05-2.22706E+04-1.77137E+06 1.65528E-09 1.46701E-09
 -1       317-4.73456E+06-6.63051E+05-5.61018E+04-1.72856E+06 4.57143E-09-9.06857E-09
 -1       318-4.65559E+06-6.65707E+05-9.33319E+04-1.79748E+06-1.02500E-08 9.53150E-09
 -1       319-4.85894E+06-7.89934E+05-2.70795E+05-1.66725E+06-2.18461E-09 5.65706E-09
 -1       320-4.56604E+06-5.40387E+05-3.96493E+05-1.83265E+06 1.14014E-08 6.51926E-09
 -1       336 5.40099E+02-9.19444E+05-5.07988E+03 1.47593E+03-8.69977E-09-3.79259E-09
 -1       337-1.86662E+03-9.20551E+05-5.61829E+03-3.69474E+03-1.59091E-08 7.82165E-10
 -1       338 3.62546E+02-9.19565E+05-7.29143E+03 2.20862E+03-1.10413E-08 2.28647E-09
 -1       339-7.55436E+03-9.24133E+05-1.59636E+04-5.13504E+03-1.99616E-08 6.08907E-09
 -1       340 5.05096E+03-9.15998E+05-2.47054E+04 2.90493E+03-1.32623E-08 9.39508E-09
 -1       406 1.54133E+01 2.60091E+05 4.31203E+02-6.14842E-02 4.06516E-10 6.26505E-09
 -1       407 1.49018E+02 2.60170E+05 9.16371E+02-6.32727E+00 9.83391E-11 9.21659E-09
 -1       408 4.70426E+02 2.60025E+05 1.83023E+03 6.52179E+00 3.57886E-10 6.46651E-10
 -1       409 1.97767E+03 2.60755E+05 4.12027E+03-6.32778E+01-1.16188E-10 1.42791E-09
 -1       410 5.68452E+03 2.59505E+05 8.41141E+03 5.92341E+01 3.98359E-10 3.58909E-09
 -1       521-7.75770E+06-7.57211E+05-6.57998E+05-2.64084E+06-2.57933E-09 5.50062E-09
 -1       522-6.47200E+06-1.89340E+06-2.94245E+05-3.54431E+06-6.80957E-08-1.64800E-08
 -1       523-7.93337E+06-5.40136E+05-1.42608E+05-2.15145E+06 2.78669E-09-2.98242E-08
 -1       524-6.45097E+06-1.98646E+06-5.87856E+04-4.17771E+06 6.10498E-08-5.97502E-08
 -1       525-7.94456E+06-5.38619E+05-3.40484E+04-2.11598E+06 5.43514E-08-4.11692E-08
 -1       526-6.34232E+06-1.73151E+06 4.79981E+04-3.70585E+06 4.42997E-08 6.03904E-10
 -1       527-7.90350E+06-8.95285E+05-9.88596E+04-2.53562E+06 2.96131E-08 1.76442E-09
 -1       528-6.64123E+06-1.02496E+06 1.17234E+05-2.62752E+06 2.40761E-08 8.86212E-09
 -1       529-7.48452E+06-1.35885E+06-1.11174E+05-3.06658E+06-3.56522E-09 9.12769E-09
 -1       530-7.78351E+06-1.86627E+05 6.36480E+04-1.87428E+06-4.51801E-08 3.88245E-08
 -1       531-6.89142E+06-1.63870E+06-4.63024E+04-3.37196E+06-7.38801E-08-1.40426E-09
 -1       532-8.64138E+06 2.10518E+05-5.58551E+04-1.67207E+06 6.09743E-08-7.01984E-08
 -1       533-6.78721E+06-1.64532E+06-1.27063E+05-3.40744E+06 2.45927E-08-1.07735E-07
 -1       534-8.21239E+06-2.45076E+05-2.98788E+05-1.74633E+06-2.48874E-08 7.87586E-08
 -1       535-7.21597E+06-1.25982E+06-6.28693E+05-3.20267E+06-9.05129E-09 5.09026E-08
 -1       536-1.19879E+05-2.34301E+04 4.60850E+04-3.07886E+03-8.32459E-09 1.27329E-08
 -1       537-6.30287E+04 2.61226E+04 3.88753E+04 7.32154E+03-3.19356E-08 2.50620E-08
 -1       538-9.40070E+04-2.63760E+03 1.29390E+04-4.39178E+03 5.49041E-09 1.76497E-08
 -1       539-8.12574E+04 3.03578E+03 9.62117E+03 8.04869E+03 4.26888E-08 1.94823E-08
 -1       540-1.01660E+05-2.54224E+02 1.52334E+03-3.80619E+03 5.41783E-09 6.44513E-09
 -1       541-5.52167E+04 1.44629E+03 9.16488E+03 4.80809E+03 5.12500E-10 8.57608E-09
 -1       542-1.19830E+05-1.17028E+03-4.71528E+03-1.14808E+03 5.82347E-09-8.62883E-10
 -1       543-4.26975E+04 1.73807E+03 1.02772E+04-1.30453E+03 1.06981E-09 7.35372E-09
 -1       544-1.14148E+05-6.72380E+02-4.40388E+03 2.30235E+03-1.90312E-10 1.92355E-09
 -1       545-6.82711E+04-2.83072E+02 4.10856E+03-6.64496E+03-7.79348E-09-1.46349E-08
 -1       546-9.44352E+04 9.83542E+02-1.39036E+03 4.19085E+03-1.25823E-09-1.42920E-08
 -1       547-8.59725E+04-2.32848E+03-1.58664E+03-8.37853E+03-3.28953E-08-2.02508E-08
 -1       548-9.64744E+04 1.55800E+03-5.17378E+03 4.03654E+03-2.99812E-08-6.49788E-09
 -1       549-6.59864E+04-6.19665E+03-5.46938E+03-5.96302E+03-1.90777E-08-1.44813E-08
 -1       550-1.14296E+05 4.69980E+03-2.19288E+04 1.77342E+03-1.18973E-10-8.72296E-09
 -1       551 1.18105E+04-4.73199E+05 2.28240E+04-7.92169E+05-3.83880E-08 1.87720E-09
 -1       552 2.64546E+04-4.79204E+05 2.97564E+04-1.12786E+06-2.90747E-08 1.08521E-08
 -1       553 1.84345E+04-4.84895E+05 4.48525E+04-7.89330E+05-4.60423E-08 6.37374E-09
 -1       554 5.05155E+04-4.70505E+05 9.46018E+04-1.12909E+06-2.88273E-08 5.32145E-09
 -1       555 4.59458E+04-5.03154E+05 1.69021E+05-7.90133E+05-4.75629E-08-3.22689E-09
 -1       556 7.13654E+04-1.52309E+05 5.12671E+04-1.97472E+05-7.29051E-09-1.63345E-08
 -1       557 1.32875E+05-2.02744E+05 2.70249E+04-2.47239E+05 1.27329E-09 1.22891E-08
 -1       558 7.06289E+04-1.58852E+05 1.07800E+04-1.91860E+05-3.81260E-09-1.30603E-09
 -1       559 1.23855E+05-2.09557E+05 5.51878E+03-2.51417E+05 8.94215E-09 4.76030E-09
 -1       560 6.83571E+04-1.57361E+05 2.19619E+03-1.93327E+05 6.52653E-09 2.37924E-09
 -1       561 1.20468E+05-2.08597E+05 1.20178E+03-2.53576E+05-4.07454E-10 4.47653E-09
 -1       562 6.65388E+04-1.56160E+05 4.14256E+02-1.94634E+05-1.20781E-09 5.85533E-09
 -1       563 1.18333E+05-2.07677E+05 2.89837E+02-2.54945E+05-5.26779E-09-4.34432E-09
 -1       564 6.53778E+04-1.55416E+05 8.96620E+01-1.95456E+05 2.26646E-09 6.59929E-09
 -1       565 1.17169E+05-2.07176E+05 7.21351E+01-2.55679E+05 5.06407E-09 5.35329E-09
 -1       566 6.49098E+04-1.55110E+05-1.90356E+01-1.95790E+05-1.17325E-10 2.47928E-09
 -1       567 1.16933E+05-2.07068E+05-1.19209E+02-2.55758E+05 4.62234E-09-5.09135E-09
 -1       568 6.51711E+04-1.55283E+05-3.68726E+02-1.95674E+05-9.16771E-10 1.36060E-09
 -1       569 1.16907E+05-2.06991E+05-8.72700E+02-2.54563E+05-4.23370E-09-1.85537E-09
 -1       570 6.67440E+04-1.56692E+05-1.89080E+03-1.95544E+05-7.56700E-10-4.22006E-09
 -1       571 1.91225E+05 6.91959E+03 1.02362E+04-4.85223E+04-8.64293E-09 7.87099E-09
 -1       572 1.92746E+05 2.41625E+03 5.01514E+03-5.31995E+04-1.70207E-08 4.67571E-09
 -1       573 1.91835E+05 5.85585E+02 2.22798E+03-4.84011E+04-8.50423E-09 3.52884E-09
 -1       574 1.92013E+05 2.01100E+02 1.11635E+03-5.33358E+04-1.20849E-09 5.80712E-10
 -1       575 1.91903E+05 3.91416E+01 5.26243E+02-4.83851E+04-5.12273E-10 6.12999E-09
 -1       576 1.91914E+05 2.20261E+01 2.68088E+02-5.33540E+04-1.16432E-09 5.55565E-09
 -1       577 1.91914E+05 9.16105E+00 1.32417E+02-4.83830E+04-1.75055E-09 5.03951E-09
 -1       578 1.91906E+05 1.18463E+01 7.29732E+01-5.33562E+04-2.52908E-09 4.91127E-10
 -1       579 1.91928E+05 5.63286E+00 4.59107E+01-4.83829E+04-7.95808E-11 9.50422E-11
 -1       580 1.91925E+05 4.20048E+00 4.51493E+01-5.33534E+04-1.17507E-09-1.81990E-09
 -1       581 1.91951E+05-3.28242E+00 6.34937E+01-4.83859E+04 7.93079E-10-2.55750E-09
 -1       582 1.91967E+05 6.68442E+00 1.22965E+02-5.33240E+04 8.85848E-10-2.86491E-10
 -1       583 1.91978E+05 3.52956E+01 2.36672E+02-4.84123E+04 5.94810E-10 4.54952E-09
 -1       584 1.92088E+05 2.20575E+02 5.31428E+02-5.31027E+04-1.43700E-09 9.26639E-09
 -1       585 1.91953E+05 6.88055E+02 1.07927E+03-4.86076E+04-1.27875E-09 3.59250E-09
 -1       586-2.41693E+03 6.22444E+04-3.15313E+03-1.64960E+05-1.21872E-10-6.49538E-09
 -1       587-5.34341E+02 6.18271E+04-3.20723E+02-1.81539E+05 3.00133E-10 2.89037E-09
 -1       588 6.58334E+02 6.19055E+04 2.31800E+03-1.64866E+05 3.01043E-10-5.38876E-09
 -1       589 3.38122E+03 6.31829E+04 6.70830E+03-1.81375E+05-2.18279E-11-1.19635E-08
 -1       590 9.77716E+03 6.11147E+04 1.43472E+04-1.65128E+05-1.65528E-10 3.27873E-09
 -1       591-4.05652E+04-1.13232E+04-1.37581E+04-2.06093E+04-9.66907E-10-3.12866E-09
 -1       592-4.20394E+04-1.45167E+04-7.45202E+03-2.39859E+04-2.12003E-09-7.82620E-09
 -1       593-4.19535E+04-1.03123E+04-3.10228E+03-2.16059E+04-6.07088E-10-7.11498E-09
 -1       594-4.01252E+04-1.25139E+04-1.54724E+03-2.40776E+04 6.65295E-10 1.20590E-09
 -1       595-4.20598E+04-1.03079E+04-7.10940E+02-2.16516E+04-6.98208E-10 1.27763E-08
 -1       596-3.99954E+04-1.24222E+04-3.62227E+02-2.40638E+04 2.15454E-09 8.19398E-10
 -1       597-4.20732E+04-1.03168E+04-1.99023E+02-2.16534E+04 6.38806E-10 1.27352E-09
 -1       598-3.99829E+04-1.24187E+04-1.63258E+02-2.40599E+04-8.89941E-10 8.27436E-09
 -1       599-4.20722E+04-1.03169E+04-2.12623E+02-2.16530E+04-3.50838E-10-4.65047E-09
 -1       600-3.99965E+04-1.24233E+04-3.98258E+02-2.40632E+04-2.88077E-09-1.57490E-09
 -1       601-4.20555E+04-1.03075E+04-7.87383E+02-2.16503E+04-9.61791E-11 8.39827E-09
 -1       602-4.01403E+04-1.25249E+04-1.71692E+03-2.40765E+04-5.57179E-10-3.80942E-09
 -1       603-4.19360E+04-1.03142E+04-3.44363E+03-2.15998E+04-5.84578E-10 6.51926E-09
 -1       604-4.22731E+04-1.47390E+04-8.27211E+03-2.39629E+04 8.84484E-11 9.31573E-09
 -1       605-4.03846E+04-1.14443E+04-1.52720E+04-2.05024E+04 3.53111E-10 3.67072E-09
 -1       606 2.61519E+04-9.19024E+03-1.65414E+04 2.54607E+04 6.23459E-09-9.57698E-09
 -1       607 2.33194E+04-2.96790E+03-8.23668E+03 2.85821E+04 1.58861E-08-1.93623E-08
 -1       608 2.49259E+04-5.03632E+02-3.68857E+03 2.52584E+04 1.00663E-08-6.41967E-09
 -1       609 2.46062E+04-1.33849E+02-1.86297E+03 2.88062E+04 1.36151E-09 3.88559E-09
 -1       610 2.47770E+04 2.05567E+01-8.89909E+02 2.52357E+04 1.76806E-09 4.01496E-09
 -1       611 2.47166E+04 3.26432E+01-4.48779E+02 2.88306E+04-3.78395E-09-9.93168E-10
 -1       612 2.47369E+04 3.55101E+01-2.14669E+02 2.52335E+04-4.32192E-09-5.99243E-09
 -1       613 2.47139E+04 4.09683E+01-9.75999E+01 2.88335E+04-3.34558E-09-3.52134E-09
 -1       614 2.47148E+04 3.64182E+01-2.67496E+01 2.52327E+04-2.21917E-10 5.57338E-09
 -1       615 2.47024E+04 4.63715E+01 3.18057E+01 2.88340E+04 5.19321E-09 1.86151E-09
 -1       616 2.46981E+04 4.20641E+01 1.03718E+02 2.52330E+04 8.81664E-09 9.68043E-09
 -1       617 2.47087E+04 7.23332E+01 2.40047E+02 2.88335E+04 2.08229E-08 1.08957E-09
 -1       618 2.46726E+04 1.14227E+02 4.85017E+02 2.52331E+04 8.70341E-09-7.11066E-09
 -1       619 2.48762E+04 4.49818E+02 1.08999E+03 2.88328E+04-1.14255E-10-1.26679E-08
 -1       620 2.45090E+04 1.26676E+03 2.19103E+03 2.52320E+04 2.78021E-09 1.56751E-09
 -1       621 2.98339E+02 2.04226E+05 2.63349E+03 8.62629E+03-2.11969E-10 6.71389E-09
 -1       622 3.46049E+02 2.04877E+05 2.28915E+03 1.25817E+04-1.42222E-10 6.23686E-09
 -1       623 1.50044E+01 2.04405E+05 2.70282E+03 8.58524E+03-2.41201E-10-2.28829E-09
 -1       624 1.24193E+03 2.05696E+05 5.19381E+03 1.26228E+04-1.36708E-10-8.88076E-09
 -1       625 1.24812E+03 2.03398E+05 9.05809E+03 8.58534E+03-5.32054E-11 1.58082E-10
 -1       626 1.72046E+05 4.69962E+04 3.53924E+03 9.20323E+04-1.30240E-09-2.09711E-08
 -1       627 1.69791E+05 4.86127E+04 1.70545E+03 9.57152E+04-4.12456E-10-1.13594E-08
 -1       628 1.72170E+05 4.53318E+04 7.20368E+02 9.25775E+04-1.07320E-10-5.26870E-09
 -1       629 1.69290E+05 4.81990E+04 3.52989E+02 9.59349E+04 2.70575E-09-5.78149E-09
 -1       630 1.72177E+05 4.52535E+04 1.63126E+02 9.25928E+04 1.68775E-08 1.35526E-09
 -1       631 1.69230E+05 4.81890E+04 8.75332E+01 9.59360E+04 3.31265E-08-8.42823E-09
 -1       632 1.72168E+05 4.52598E+04 5.72737E+01 9.25851E+04 1.29553E-08-2.23747E-08
 -1       633 1.69217E+05 4.81941E+04 6.33064E+01 9.59290E+04 7.96717E-10-8.00537E-09
 -1       634 1.72158E+05 4.52608E+04 1.01824E+02 9.25808E+04 7.53244E-09-4.09136E-09
 -1       635 1.69221E+05 4.81956E+04 2.06046E+02 9.59285E+04 1.41540E-09-9.88894E-09
 -1       636 1.72147E+05 4.52598E+04 4.15953E+02 9.25778E+04 6.34373E-10-1.11413E-09
 -1       637 1.69306E+05 4.82617E+04 9.14111E+02 9.59245E+04-5.20060E-10 1.25510E-09
 -1       638 1.72112E+05 4.54635E+04 1.87855E+03 9.24840E+04-8.09018E-09-1.25574E-08
 -1       639 1.70290E+05 4.96353E+04 4.44411E+03 9.56323E+04 1.24419E-09 5.77438E-09
 -1       640 1.71980E+05 4.95547E+04 9.22258E+03 9.07479E+04-3.09001E-10 2.44609E-09
 -1       656 4.62585E+04-1.17213E+06-1.11670E+05-3.89866E+02 1.03319E-09-2.19293E-09
 -1       657-6.11354E+04-1.22254E+06-9.23709E+04 7.26921E+03 2.68483E-09-5.28316E-09
 -1       658 1.46783E+04-1.18650E+06-5.67097E+04-1.53155E+03 1.52409E-09 1.72719E-10
 -1       659-6.56202E+04-1.22466E+06-9.82614E+04 8.04716E+03 8.18545E-12-1.57048E-08
 -1       660 5.07325E+04-1.17001E+06-1.21801E+05-1.16780E+03-1.27329E-09 2.93012E-09
 -1       661 1.59640E+05 1.73420E+04 1.54301E+04 6.24056E+04 3.82897E-10-2.18006E-09
 -1       662 1.67747E+05 2.93750E+04 1.03974E+04 5.96439E+04 7.42773E-10 3.97313E-09
 -1       663 1.62665E+05 2.22967E+04 3.63706E+03 6.15319E+04 1.61788E-09 3.42925E-09
 -1       664 1.64246E+05 2.35756E+04 2.17460E+03 6.07064E+04 1.06041E-09 1.33787E-09
 -1       665 1.63118E+05 2.29785E+04 8.57818E+02 6.14045E+04-2.30449E-09 2.53672E-09
 -1       666 1.63713E+05 2.27918E+04 5.00400E+02 6.08698E+04-5.58518E-09 8.53236E-09
 -1       667 1.63194E+05 2.30600E+04 2.64009E+02 6.13762E+04 5.24523E-10 5.32186E-10
 -1       668 1.63632E+05 2.27277E+04 2.64898E+02 6.09104E+04 3.71949E-09-1.16729E-08
 -1       669 1.63199E+05 2.30407E+04 3.55277E+02 6.13645E+04 2.09005E-09 3.22922E-09
 -1       670 1.63721E+05 2.29157E+04 7.70468E+02 6.09097E+04 5.09547E-09 3.86137E-10
 -1       671 1.63105E+05 2.28758E+04 1.36698E+03 6.13754E+04 1.71761E-09 3.98222E-09
 -1       672 1.64519E+05 2.42444E+04 3.49655E+03 6.07161E+04-2.01110E-09 4.08045E-09
 -1       673 1.62406E+05 2.17454E+04 5.85935E+03 6.15453E+04-6.83940E-10-4.34511E-09
 -1       674 1.70099E+05 3.36554E+04 1.67565E+04 5.90749E+04-2.91396E-09-1.64982E-09
 -1       675 1.57562E+05 1.37280E+04 2.48720E+04 6.29175E+04-1.84627E-09 7.67614E-10
 -1       676 1.86130E+01-2.22756E+05-8.64262E+02 3.30532E+01 4.67594E-10-7.33228E-10
 -1       677-2.29425E+02-2.22965E+05-1.58170E+03-6.60736E+01-3.67035E-09-1.87112E-09
 -1       678 1.53210E+02-2.22607E+05-2.79602E+03 3.29977E+01-7.14977E-10-4.04571E-10
 -1       679-2.79663E+03-2.24653E+05-6.64195E+03-6.58574E+01-4.38274E-09 8.87546E-09
 -1       680 1.66905E+03-2.21069E+05-1.07046E+04 3.24601E+01-3.22825E-09 5.28128E-09
 -1       771-2.38391E+06-4.37385E+05-6.20850E+04-1.01083E+06-1.04046E-08-9.57516E-09
 -1       772-2.36283E+06-4.73865E+05-3.30697E+04-1.05182E+06-7.93807E-09 3.35785E-09
 -1       773-2.39328E+06-4.30036E+05-1.47247E+04-1.01431E+06-8.49832E-09-2.18279E-10
 -1       774-2.35449E+06-4.66967E+05-7.04431E+03-1.05707E+06 8.49832E-09-1.89175E-10
 -1       775-2.39614E+06-4.28082E+05-3.88360E+03-1.01479E+06 2.18279E-10 5.82077E-10
 -1       776-2.35493E+06-4.67023E+05-1.70055E+03-1.06027E+06-1.39335E-09 2.28465E-09
 -1       777-2.39830E+06-4.26492E+05-1.26173E+03-1.01515E+06 3.46336E-09 5.50972E-09
 -1       778-2.35585E+06-4.67249E+05-4.82537E+02-1.06295E+06 7.13044E-10 4.61478E-09
 -1       779-2.40006E+06-4.25141E+05-5.65776E+02-1.01547E+06-6.39557E-09-2.05546E-09
 -1       780-2.35672E+06-4.67421E+05-2.86282E+02-1.06513E+06-5.68616E-09 7.38237E-09
 -1       781-2.40141E+06-4.24066E+05-5.24990E+02-1.01571E+06-1.37261E-08 2.21007E-10
 -1       782-2.35745E+06-4.67569E+05-7.47321E+02-1.06672E+06-1.55633E-08-2.89174E-09
 -1       783-2.40229E+06-4.23348E+05-1.50926E+03-1.01587E+06-2.69574E-09-1.32331E-09
 -1       784-2.35876E+06-4.68564E+05-3.48268E+03-1.06765E+06-7.78346E-09 2.63753E-10
 -1       785-2.40212E+06-4.23448E+05-6.45928E+03-1.01549E+06-1.28948E-08 2.10093E-09
 -1       786 1.55233E+05-8.88519E+03 2.05559E+04-3.64640E+01 5.76718E-06 3.29846E-08
 -1       787 1.64141E+05 1.02863E+04 1.45428E+04 9.68455E+00 1.14890E-05 1.67456E-08
 -1       788 1.58669E+05-1.39284E+03 5.32003E+03-2.62193E+01 1.06595E-05-2.06676E-08
 -1       789 1.60138E+05 1.61156E+03 3.34210E+03-7.89703E+00 9.80585E-06 2.09216E-08
 -1       790 1.59236E+05-2.17531E+02 1.35875E+03-1.88835E+01 9.23254E-06-1.70124E-08
 -1       791 1.59476E+05 2.52402E+02 7.95522E+02-2.21630E+01 8.65004E-06 2.36386E-08
 -1       792 1.59332E+05-3.47158E+01 3.58672E+02-1.19533E+01 4.32911E-06-5.94164E-09
 -1       793 1.59367E+05 4.66123E+01 2.26064E+02-3.75115E+01 1.28228E-08 1.31831E-08
 -1       794 1.59345E+05-1.18749E+01 1.53748E+02-3.53474E+00 1.29902E-09 6.80847E-10
 -1       795 1.59370E+05 5.60278E+01 2.02580E+02-5.80424E+01-1.08415E-09 6.89789E-09
 -1       796 1.59329E+05-4.41203E+01 2.91459E+02 8.57798E+00 1.04156E-09-1.09193E-09
 -1       797 1.59499E+05 3.22227E+02 6.77323E+02-8.91237E+01-1.13048E-09-9.81161E-09
 -1       798 1.59216E+05-2.77881E+02 1.06590E+03 2.75471E+01-1.33653E-11 2.14976E-09
 -1       799 1.60298E+05 2.05161E+03 2.90306E+03-1.39060E+02-8.67024E-10-4.21551E-10
 -1       800 1.58530E+05-1.77212E+03 4.09984E+03 5.85146E+01 3.81546E-10 3.52952E-09
 -1       801 1.99977E+04-9.02757E+05-7.48228E+04 2.40796E+04 1.19107E-08-3.14640E-09
 -1       802-1.52410E+04-7.87870E+05-8.03293E+03-6.98801E+04 3.24617E-08-4.33715E-09
 -1       803-4.28995E+03-8.46422E+05 2.64732E+04 4.51015E+04 2.56478E-08 2.03536E-08
 -1       804 8.62191E+04-7.29298E+05 1.25595E+05-6.47622E+04 2.93658E-08 2.53514E-08
 -1       805-8.17535E+04-9.60833E+05 1.48418E+05 1.89565E+04 1.06666E-08 2.23108E-08
 -1       806-2.09197E+05-4.32162E+04-1.69795E+04-8.55158E+04 3.65480E-09 9.58607E-10
 -1       807-2.10334E+05-4.06465E+04-8.34173E+03-8.98594E+04 1.32555E-08 9.92989E-09
 -1       808-2.09670E+05-3.70902E+04-3.53859E+03-8.84041E+04 3.36763E-09-6.89434E-09
 -1       809-2.08562E+05-3.83212E+04-1.73003E+03-9.00884E+04-1.50885E-09 3.24121E-09
 -1       810-2.09744E+05-3.68749E+04-7.92321E+02-8.85317E+04 3.06954E-09 1.93852E-08
 -1       811-2.08426E+05-3.82288E+04-3.93223E+02-9.00663E+04-2.71530E-09 6.33281E-09
 -1       812-2.09757E+05-3.68915E+04-1.96862E+02-8.85314E+04 1.24510E-09-8.01833E-09
 -1       813-2.08408E+05-3.82310E+04-1.25146E+02-9.00549E+04 9.74978E-10-1.30236E-08
 -1       814-2.09754E+05-3.68978E+04-1.19041E+02-8.85286E+04 2.04955E-09 2.09116E-09
 -1       815-2.08411E+05-3.82329E+04-1.87844E+02-9.00514E+04 4.94083E-10 1.41983E-09
 -1       816-2.09741E+05-3.68965E+04-3.53035E+02-8.85262E+04 5.63887E-10-7.97900E-09
 -1       817-2.08471E+05-3.82667E+04-7.57189E+02-9.00448E+04 1.43154E-09-5.81622E-10
 -1       818-2.09696E+05-3.70027E+04-1.54346E+03-8.84758E+04 6.48197E-09-4.58158E-09
 -1       819-2.09320E+05-3.91956E+04-3.63247E+03-8.98415E+04 9.64428E-09-1.06238E-08
 -1       820-2.09406E+05-3.97465E+04-7.39286E+03-8.73023E+04 5.81986E-09-6.04848E-09
 -1       821-2.65146E+05 1.47131E+04-3.40264E+04 1.43280E+02 2.75578E-10 9.84073E-10
 -1       822-2.79891E+05-1.70329E+04-2.40786E+04-7.14863E+02-1.69121E-09 2.31603E-09
 -1       823-2.70836E+05 2.30672E+03-8.81290E+03 1.18969E+02 4.72649E-10 2.69984E-09
 -1       824-2.73253E+05-2.66984E+03-5.54473E+03-5.56900E+02 9.05516E-11 3.24849E-09
 -1       825-2.71781E+05 3.60946E+02-2.27973E+03-1.46873E+01-2.10530E-09-1.98975E-09
 -1       826-2.72152E+05-4.25628E+02-1.37495E+03-2.35172E+02-4.57182E-09-2.74738E-10
 -1       827-2.71936E+05 6.39403E+01-7.13464E+02-2.02765E+02-3.30032E-09-9.53494E-09
 -1       828-2.72004E+05-1.29951E+02-6.29622E+02 1.20297E+02-4.58373E-09 7.18323E-09
 -1       829-2.71929E+05 6.55500E+01-7.25075E+02-3.70163E+02-3.58250E-10 4.10427E-09
 -1       830-2.72176E+05-4.37889E+02-1.41547E+03 3.67498E+02 2.13327E-09-2.99730E-09
 -1       831-2.71765E+05 3.71916E+02-2.34480E+03-4.49971E+02-2.85798E-09 2.72235E-09
 -1       832-2.73304E+05-2.75006E+03-5.71397E+03 4.08196E+02-1.68726E-09 5.22493E-09
 -1       833-2.70802E+05 2.37611E+03-9.08032E+03-4.10860E+02-1.93937E-09 3.16504E-10
 -1       834-2.80123E+05-1.75486E+04-2.48077E+04 2.27773E+02-9.43512E-10-7.23048E-10
 -1       835-2.64948E+05 1.51588E+04-3.50622E+04-2.69537E+02 4.76654E-09 5.40786E-09
 -1       836-8.90696E+02 2.51566E+05 1.51779E+04-1.98016E+04 1.23055E-09 1.90812E-09
 -1       837 3.33405E+03 2.56270E+05 1.29676E+04-3.97707E+04 2.04022E-09-7.83302E-09
 -1       838-3.30240E+02 2.52872E+05 1.33851E+04-1.97326E+04 1.68757E-09 4.08272E-09
 -1       839 8.59004E+03 2.60188E+05 2.54904E+04-3.97990E+04 2.08456E-09 5.46042E-09
 -1       840-2.58661E+03 2.47612E+05 4.07192E+04-1.97717E+04 1.46429E-09 3.59273E-09
 -1       856-7.79486E+04 6.98100E+03-1.83968E+04-4.08681E+02-3.13565E-09-4.08727E-09
 -1       857-8.55473E+04-8.18802E+03-1.26657E+04 4.24683E+03-6.34600E-10-6.23913E-10
 -1       858-8.09509E+04 9.78155E+02-4.77444E+03-4.27809E+02-4.57419E-09 3.99518E-09
 -1       859-8.20995E+04-1.13744E+03-2.88341E+03 4.27728E+03 7.48770E-11 3.72802E-09
 -1       860-8.13998E+04 1.36038E+02-1.21208E+03-4.39251E+02 1.50612E-09-1.36936E-10
 -1       861-8.15826E+04-1.50293E+02-6.74473E+02 4.29294E+03-2.03471E-09-1.37270E-08
 -1       862-8.14696E+04 1.79869E+01-2.95783E+02-4.43491E+02 3.13530E-09-9.21943E-09
 -1       863-8.14997E+04-1.05872E+01-1.42735E+02 4.29487E+03 6.46405E-09 7.49718E-09
 -1       864-8.14829E+04-5.92051E-01-3.76807E+01-4.41183E+02 2.15307E-09-1.95916E-09
 -1       865-8.14731E+04 2.51194E+01 4.67520E+01 4.28318E+03 1.41928E-09-4.03552E-09
 -1       866-8.14948E+04-1.81143E+01 1.34663E+02-4.31806E+02-6.59043E-10-2.96438E-10
 -1       867-8.13990E+04 1.51588E+02 3.57448E+02 4.25773E+03-2.73249E-09 8.22886E-09
 -1       868-8.15540E+04-1.25932E+02 6.00196E+02-4.15725E+02 3.16356E-09 1.41256E-11
 -1       869-8.09512E+04 1.04544E+03 1.60773E+03 4.21554E+03-2.25307E-09-3.84765E-09
 -1       870-8.19380E+04-8.89369E+02 2.33185E+03-3.89627E+02 2.38424E-09-5.51529E-09
 -1       871-3.94006E+03-8.56755E+03-1.28102E+04 8.43078E+04 2.26737E-09 7.07223E-09
 -1       872-1.70654E+03-1.14388E+04-5.23006E+03 1.09301E+05 2.67846E-09 6.41376E-09
 -1       873-3.40726E+01-1.00972E+04 7.25069E+02 8.41225E+04 2.22212E-09-1.19314E-09
 -1       874 1.96339E+03-8.24695E+03 7.21756E+03 1.09338E+05 3.16072E-09 1.79057E-10
 -1       875 4.64092E+03-1.18103E+04 1.60199E+04 8.42775E+04 1.54341E-09 6.12772E-09
 -1       876 2.08318E+05 3.58482E+04 1.11014E+04 8.44644E+04-4.70720E-09 1.37788E-09
 -1       877 2.08960E+05 3.82782E+04 5.92841E+03 8.77397E+04-3.67095E-09 6.19275E-09
 -1       878 2.09356E+05 3.46195E+04 2.48373E+03 8.53761E+04 2.32581E-09-1.65437E-09
 -1       879 2.07450E+05 3.67741E+04 1.23729E+03 8.78181E+04-1.26010E-09 7.63907E-09
 -1       880 2.09431E+05 3.46059E+04 5.76062E+02 8.54132E+04 2.49383E-09-1.46264E-09
 -1       881 2.07349E+05 3.67102E+04 3.06901E+02 8.78024E+04 9.92077E-09 6.01440E-09
 -1       882 2.09439E+05 3.46150E+04 1.95103E+02 8.54143E+04 3.15458E-09-5.05535E-09
 -1       883 2.07342E+05 3.67072E+04 2.07743E+02 8.77978E+04-3.28555E-10 1.01134E-08
 -1       884 2.09434E+05 3.46127E+04 3.28659E+02 8.54144E+04-3.17652E-09-3.87928E-09
 -1       885 2.07368E+05 3.67119E+04 6.59659E+02 8.78060E+04 3.86621E-09 6.33264E-09
 -1       886 2.09409E+05 3.45934E+04 1.32899E+03 8.54118E+04 2.40496E-09 2.79999E-09
 -1       887 2.07602E+05 3.68650E+04 2.90282E+03 8.78397E+04-1.97574E-09-1.27325E-08
 -1       888 2.09225E+05 3.46258E+04 5.84925E+03 8.53189E+04-1.11163E-09 2.00771E-09
 -1       889 2.11087E+05 4.04838E+04 1.39734E+04 8.77293E+04 2.17517E-09 8.52219E-09
 -1       890 2.06842E+05 3.74566E+04 2.61711E+04 8.30874E+04 4.21551E-10-2.11458E-09
 -1       891-1.28801E+02-1.18134E+05-1.39985E+03 2.22152E+04 2.02670E-09 1.47168E-09
 -1       892-2.24379E+02-1.18470E+05-1.52086E+03 3.36196E+04 2.52226E-09-5.11545E-09
 -1       893-3.58326E+01-1.18178E+05-2.17130E+03 2.22196E+04 8.86303E-10 1.47802E-08
 -1       894-1.18520E+03-1.19301E+05-4.50691E+03 3.34998E+04-1.09640E-09 1.52145E-08
 -1       895-9.26762E+02-1.17240E+05-7.94155E+03 2.23335E+04 4.87432E-10 4.59295E-10
 -1       956-2.62414E+05-3.75421E+03-9.44975E+03 1.75111E+04-2.22462E-09-2.47474E-09
 -1       957-2.64280E+05-1.26660E+03-4.85112E+03 2.10881E+04-2.01180E-09-8.19318E-09
 -1       958-2.63253E+05-1.01054E+02-2.18557E+03 1.73990E+04 2.57296E-09-1.41972E-09
 -1       959-2.63401E+05-1.74224E+01-1.11634E+03 2.12097E+04 1.23237E-09 3.04408E-09
 -1       960-2.63328E+05 3.14876E+01-5.44177E+02 1.73883E+04-3.16095E-09-7.96717E-10
 -1       961-2.63338E+05 2.97267E+01-2.88612E+02 2.12219E+04-7.28005E-09-1.93268E-09
 -1       962-2.63343E+05 2.77481E+01-1.64981E+02 1.73866E+04-3.15663E-09-2.32740E-09
 -1       963-2.63335E+05 3.09550E+01-1.32033E+02 2.12241E+04-4.88660E-09 2.10980E-09
 -1       964-2.63346E+05 2.96242E+01-1.59780E+02 1.73860E+04-1.47531E-09-3.77474E-09
 -1       965-2.63345E+05 3.38148E+01-2.75676E+02 2.12241E+04 4.17666E-09 5.27211E-09
 -1       966-2.63338E+05 3.70312E+01-5.17244E+02 1.73866E+04-1.02693E-09 1.90039E-09
 -1       967-2.63413E+05-6.98197E+00-1.06075E+03 2.12173E+04-1.75521E-09 9.91349E-10
 -1       968-2.63272E+05-8.51254E+01-2.07579E+03 1.73930E+04 9.98170E-11-2.57188E-10
 -1       969-2.64255E+05-1.19034E+03-4.60885E+03 2.11426E+04 6.95991E-10 3.06602E-09
 -1       970-2.62480E+05-3.55350E+03-8.97704E+03 1.74635E+04 1.79671E-09 9.02219E-10
 -1       971-2.48306E+05-1.30387E+03-7.24961E+03 1.20126E+04-2.48292E-10 1.83886E-09
 -1       972-2.50069E+05-9.34655E+02-3.94817E+03 1.67765E+04 4.70141E-09-2.11560E-09
 -1       973-2.49112E+05-8.46785E+00-1.76786E+03 1.19125E+04 4.00723E-09 3.20983E-09
 -1       974-2.49235E+05-8.46887E+00-9.15881E+02 1.68845E+04 2.54909E-09 1.57906E-08
 -1       975-2.49174E+05 2.52240E+01-4.56768E+02 1.19035E+04 1.33969E-09-2.68039E-09
 -1       976-2.49185E+05 2.92767E+01-2.61732E+02 1.68954E+04-1.40653E-09-9.06277E-09
 -1       977-2.49186E+05 2.48706E+01-1.86698E+02 1.19015E+04 2.84399E-09-6.02199E-09
 -1       978-2.49187E+05 3.33757E+01-2.14065E+02 1.68982E+04 1.06961E-08-7.18410E-09
 -1       979-2.49186E+05 3.05750E+01-3.40111E+02 1.19007E+04 6.72850E-09 3.33102E-10
 -1       980-2.49212E+05 3.54362E+01-6.54315E+02 1.68987E+04 7.60376E-09-3.76610E-09
 -1       981-2.49165E+05 4.68798E+01-1.26597E+03 1.19010E+04 2.72826E-09-4.47727E-09
 -1       982-2.49386E+05-5.79356E+01-2.61602E+03 1.68937E+04 4.73119E-09-3.64615E-10
 -1       983-2.49006E+05-3.39252E+01-5.08253E+03 1.19059E+04 6.68251E-09 2.69290E-09
 -1       984-2.51831E+05-2.71190E+03-1.13815E+04 1.68259E+04-3.75667E-09 9.05675E-09
 -1       985-2.46705E+05-3.75280E+03-2.09001E+04 1.19734E+04 1.46611E-09 5.27598E-09
 -3
    1PSTEP                        13           7           1          
  100CL  107 5.38574E-01         409                     0    7           1
 -4  DISP        4    1
 -5  D1          1    2    1    0
 -5  D2          1    2    2    0
 -5  D3          1    2    3    0
 -5  ALL         1    2    0    0    1ALL
 -1         1 1.82847E-04 0.00000E+00 0.00000E+00
 -1         2 1.62461E-04 4.04013E-31-3.30872E-24
 -1         3 1.63631E-04 2.98167E-27 0.00000E+00
 -1         5 1.06700E-04-2.61395E-28 0.00000E+00
 -1         8 1.57441E-04-8.71249E-07 0.00000E+00
 -1         9 1.51300E-04-6.36675E-07 0.00000E+00
 -1        10 1.50551E-04-2.20779E-06 6.61744E-24
 -1        12 1.06457E-04 5.89316E-07 1.65436E-24
 -1        15 1.27130E-04-9.68982E-07 4.13590E-25
 -1        16 1.32157E-04-8.35796E-07 0.00000E+00
 -1        17 1.09213E-04-4.71169E-06 0.00000E+00
 -1        18 1.04556E-04 5.04799E-06 0.00000E+00
 -1        19 1.05728E-04 1.17559E-06 0.00000E+00
 -1        20 1.05873E-04 1.28197E-05 0.00000E+00
 -1        21 1.05274E-04 2.31378E-05 3.30872E-24
 -1        24 2.23155E-05-6.58684E-06 0.00000E+00
 -1        25 1.04671E-04 5.18521E-06 0.00000E+00
 -1        26 1.05495E-04 1.63284E-06 0.00000E+00
 -1        27 1.03872E-04 1.01537E-05 0.00000E+00
 -1        28 1.03413E-04 2.26365E-05 0.00000E+00
 -1        32 0.00000E+00 0.00000E+00 0.00000E+00
 -1        33 1.04079E-04 2.19038E-06 0.00000E+00
 -1        34 1.02475E-04 1.01283E-05 0.00000E+00
 -1        35 1.00966E-04 2.23697E-05 0.00000E+00
 -1        51 1.81198E-04-1.44925E-07 0.00000E+00
 -1        52 1.78139E-04-2.83902E-07 0.00000E+00
 -1        53 1.73946E-04-4.24108E-07 0.00000E+00
 -1        54 1.68907E-04-5.67247E-07 0.00000E+00
 -1        55 1.63309E-04-7.14205E-07-2.68834E-24
 -1        56 1.81246E-04-8.47602E-07 0.00000E+00
 -1        57 1.79732E-04-2.10890E-06 0.00000E+00
 -1        58 1.78325E-04-3.64555E-06-5.29396E-23
 -1        59 1.76963E-04-5.33651E-06-2.64698E-23
 -1        60 1.75606E-04-7.03937E-06-5.29396E-23
 -1        61 1.74199E-04-8.61561E-06-2.64698E-23
 -1        62 1.72697E-04-9.93629E-06 0.00000E+00
 -1        63 1.71054E-04-1.08836E-05 2.64698E-23
 -1        64 1.69239E-04-1.13703E-05-5.29396E-23
 -1        65 1.67225E-04-1.13281E-05 2.64698E-23
 -1        66 1.65003E-04-1.07323E-05 5.29396E-23
 -1        67 1.62574E-04-9.58050E-06 2.64698E-23
 -1        68 1.59951E-04-7.91683E-06 0.00000E+00
 -1        69 1.57169E-04-5.80282E-06 2.64698E-23
 -1        70 1.54253E-04-3.34426E-06-2.64698E-23
 -1        86 1.62127E-04-9.93097E-08 3.30872E-24
 -1        87 1.61126E-04-1.99575E-07 1.65436E-24
 -1        88 1.59492E-04-3.00713E-07 0.00000E+00
 -1        89 1.57264E-04-4.06276E-07 0.00000E+00
 -1        90 1.54510E-04-5.11967E-07 0.00000E+00
 -1       121 1.63265E-04-3.64870E-07-1.32349E-23
 -1       122 1.62168E-04-7.30260E-07 0.00000E+00
 -1       123 1.60343E-04-1.09669E-06 1.32349E-23
 -1       124 1.57794E-04-1.46471E-06 0.00000E+00
 -1       125 1.54527E-04-1.83472E-06 0.00000E+00
 -1       191 1.06694E-04 9.82239E-08 0.00000E+00
 -1       192 1.06673E-04 1.96446E-07-1.65436E-24
 -1       193 1.06640E-04 2.94669E-07 0.00000E+00
 -1       194 1.06592E-04 3.92890E-07 0.00000E+00
 -1       195 1.06532E-04 4.91106E-07 0.00000E+00
 -1       251 1.57052E-04 3.85110E-06 1.32349E-23
 -1       252 1.56665E-04 7.88283E-06 6.61744E-24
 -1       253 1.56281E-04 1.09314E-05-1.32349E-23
 -1       254 1.55899E-04 1.27196E-05 0.00000E+00
 -1       255 1.55519E-04 1.32049E-05 0.00000E+00
 -1       256 1.55139E-04 1.23650E-05 0.00000E+00
 -1       257 1.54757E-04 1.04248E-05 0.00000E+00
 -1       258 1.54373E-04 7.62587E-06 0.00000E+00
 -1       259 1.53988E-04 4.37001E-06 0.00000E+00
 -1       260 1.53603E-04 1.06605E-06-6.61744E-24
 -1       261 1.53219E-04-1.86816E-06 0.00000E+00
 -1       262 1.52836E-04-4.02065E-06 0.00000E+00
 -1       263 1.52455E-04-5.12502E-06 1.32349E-23
 -1       264 1.52073E-04-4.93117E-06 0.00000E+00
 -1       265 1.51691E-04-3.43101E-06 0.00000E+00
 -1       266 1.52389E-04-8.99641E-07 0.00000E+00
 -1       267 1.47337E-04-9.14455E-07 0.00000E+00
 -1       268 1.42285E-04-9.30128E-07 1.65436E-24
 -1       269 1.37233E-04-9.43254E-07 0.00000E+00
 -1       270 1.32182E-04-9.56321E-07 0.00000E+00
 -1       271 1.54419E-04 3.08442E-06 2.64698E-23
 -1       272 1.51775E-04 5.91135E-06-1.32349E-23
 -1       273 1.49522E-04 7.70999E-06 0.00000E+00
 -1       274 1.47611E-04 8.57893E-06 0.00000E+00
 -1       275 1.46004E-04 8.63927E-06 5.29396E-23
 -1       276 1.44649E-04 8.02372E-06 0.00000E+00
 -1       277 1.43492E-04 6.87814E-06 0.00000E+00
 -1       278 1.42475E-04 5.35732E-06 0.00000E+00
 -1       279 1.41539E-04 3.62308E-06-5.29396E-23
 -1       280 1.40620E-04 1.84103E-06 2.64698E-23
 -1       281 1.39657E-04 1.77519E-07 5.29396E-23
 -1       282 1.38589E-04-1.20301E-06 0.00000E+00
 -1       283 1.37356E-04-2.14164E-06 5.29396E-23
 -1       284 1.35905E-04-2.48553E-06 0.00000E+00
 -1       285 1.34178E-04-2.09639E-06 0.00000E+00
 -1       301 1.47755E-04-6.84281E-07 0.00000E+00
 -1       302 1.44240E-04-7.09511E-07-3.30872E-24
 -1       303 1.40838E-04-7.33227E-07 0.00000E+00
 -1       304 1.37635E-04-7.57105E-07 0.00000E+00
 -1       305 1.34713E-04-7.82270E-07 0.00000E+00
 -1       306 1.49345E-04-2.13172E-06 0.00000E+00
 -1       307 1.50294E-04-1.16986E-05 2.64698E-23
 -1       308 1.53588E-04-2.77212E-05 0.00000E+00
 -1       309 1.58443E-04-4.81664E-05 0.00000E+00
 -1       310 1.63810E-04-7.00592E-05 0.00000E+00
 -1       311 1.68600E-04-9.03271E-05 2.64698E-23
 -1       312 1.71837E-04-1.06242E-04-5.29396E-23
 -1       313 1.72617E-04-1.15380E-04 0.00000E+00
 -1       314 1.70519E-04-1.16746E-04 0.00000E+00
 -1       315 1.65299E-04-1.09875E-04 0.00000E+00
 -1       316 1.57378E-04-9.60198E-05-5.29396E-23
 -1       317 1.47382E-04-7.68958E-05 0.00000E+00
 -1       318 1.36407E-04-5.53073E-05 0.00000E+00
 -1       319 1.25645E-04-3.42104E-05-2.64698E-23
 -1       320 1.16211E-04-1.64763E-05 0.00000E+00
 -1       336 1.45783E-04-2.61302E-06 0.00000E+00
 -1       337 1.40140E-04-3.02316E-06 0.00000E+00
 -1       338 1.33640E-04-3.43816E-06 1.32349E-23
 -1       339 1.26304E-04-3.85808E-06-6.61744E-24
 -1       340 1.18153E-04-4.28411E-06-6.61744E-24
 -1       406 1.06370E-04 6.87514E-07-3.30872E-24
 -1       407 1.06268E-04 7.85680E-07 1.65436E-24
 -1       408 1.06154E-04 8.83785E-07 0.00000E+00
 -1       409 1.06025E-04 9.81713E-07 0.00000E+00
 -1       410 1.05884E-04 1.07928E-06 3.30872E-24
 -1       521 1.36129E-04-2.10746E-05-5.29396E-23
 -1       522 1.53779E-04-8.27437E-05 5.29396E-23
 -1       523 1.80746E-04-1.75702E-04 0.00000E+00
 -1       524 2.12631E-04-2.86944E-04 5.29396E-23
 -1       525 2.44816E-04-3.99325E-04 0.00000E+00
 -1       526 2.72685E-04-4.95593E-04 5.29396E-23
 -1       527 2.91833E-04-5.62165E-04 0.00000E+00
 -1       528 2.97725E-04-5.88188E-04 0.00000E+00
 -1       529 2.87803E-04-5.71631E-04 0.00000E+00
 -1       530 2.60759E-04-5.14091E-04 0.00000E+00
 -1       531 2.19539E-04-4.25517E-04 0.00000E+00
 -1       532 1.69082E-04-3.18088E-04 0.00000E+00
 -1       533 1.17121E-04-2.07645E-04 0.00000E+00
 -1       534 7.16470E-05-1.10205E-04 0.00000E+00
 -1       535 3.86358E-05-3.93080E-05 5.29396E-23
 -1       536 1.09066E-04 9.55412E-06 0.00000E+00
 -1       537 1.08747E-04 3.36917E-05 0.00000E+00
 -1       538 1.08271E-04 6.39469E-05 0.00000E+00
 -1       539 1.07726E-04 9.65592E-05 0.00000E+00
 -1       540 1.07244E-04 1.27041E-04-1.65436E-24
 -1       541 1.06936E-04 1.50907E-04 4.13590E-25
 -1       542 1.06793E-04 1.65569E-04 8.27181E-25
 -1       543 1.06750E-04 1.68453E-04-4.13590E-25
 -1       544 1.06678E-04 1.60032E-04 8.27181E-25
 -1       545 1.06462E-04 1.40799E-04 4.13590E-25
 -1       546 1.06086E-04 1.14114E-04 0.00000E+00
 -1       547 1.05598E-04 8.33487E-05-4.13590E-25
 -1       548 1.05124E-04 5.30770E-05-8.27181E-25
 -1       549 1.04785E-04 2.78743E-05 2.06795E-25
 -1       550 1.04608E-04 1.08370E-05-3.23117E-27
 -1       551 9.76665E-05-4.98552E-06-6.61744E-24
 -1       552 8.39732E-05-5.27981E-06 1.65436E-24
 -1       553 6.88567E-05-5.59240E-06-4.96308E-24
 -1       554 5.30524E-05-5.91698E-06 0.00000E+00
 -1       555 3.72952E-05-6.24366E-06-2.64698E-23
 -1       556 1.06076E-04 3.38883E-06 0.00000E+00
 -1       557 1.03629E-04 9.72034E-06 0.00000E+00
 -1       558 1.01799E-04 1.44370E-05 0.00000E+00
 -1       559 1.00521E-04 1.77060E-05 0.00000E+00
 -1       560 9.97279E-05 1.96940E-05 0.00000E+00
 -1       561 9.93544E-05 2.05689E-05 0.00000E+00
 -1       562 9.93363E-05 2.04990E-05 1.32349E-23
 -1       563 9.96092E-05 1.96527E-05 0.00000E+00
 -1       564 1.00110E-04 1.81986E-05 0.00000E+00
 -1       565 1.00774E-04 1.63055E-05 0.00000E+00
 -1       566 1.01539E-04 1.41424E-05 0.00000E+00
 -1       567 1.02342E-04 1.18782E-05 0.00000E+00
 -1       568 1.03120E-04 9.68190E-06 0.00000E+00
 -1       569 1.03809E-04 7.72231E-06 0.00000E+00
 -1       570 1.04347E-04 6.16828E-06 0.00000E+00
 -1       571 1.04627E-04 4.81717E-06 4.13590E-25
 -1       572 1.04700E-04 4.54197E-06-8.27181E-25
 -1       573 1.04773E-04 4.23120E-06 0.00000E+00
 -1       574 1.04846E-04 3.89406E-06 0.00000E+00
 -1       575 1.04920E-04 3.53981E-06 1.65436E-24
 -1       576 1.04993E-04 3.17775E-06 0.00000E+00
 -1       577 1.05067E-04 2.81719E-06 0.00000E+00
 -1       578 1.05140E-04 2.46747E-06 0.00000E+00
 -1       579 1.05214E-04 2.13790E-06 3.30872E-24
 -1       580 1.05288E-04 1.83780E-06 3.30872E-24
 -1       581 1.05361E-04 1.57650E-06 0.00000E+00
 -1       582 1.05435E-04 1.36329E-06 0.00000E+00
 -1       583 1.05508E-04 1.20750E-06 0.00000E+00
 -1       584 1.05582E-04 1.11831E-06 0.00000E+00
 -1       585 1.05655E-04 1.10487E-06 0.00000E+00
 -1       586 1.04535E-04 5.07243E-06 0.00000E+00
 -1       587 1.04488E-04 5.09623E-06 4.13590E-25
 -1       588 1.04447E-04 5.11975E-06 0.00000E+00
 -1       589 1.04443E-04 5.14284E-06 0.00000E+00
 -1       590 1.04508E-04 5.16521E-06 0.00000E+00
 -1       591 1.04608E-04 4.86036E-06 7.75482E-26
 -1       592 1.04668E-04 4.64257E-06 4.13590E-25
 -1       593 1.04737E-04 4.40092E-06 0.00000E+00
 -1       594 1.04813E-04 4.14097E-06 0.00000E+00
 -1       595 1.04893E-04 3.86837E-06 0.00000E+00
 -1       596 1.04976E-04 3.58870E-06 0.00000E+00
 -1       597 1.05059E-04 3.30755E-06 0.00000E+00
 -1       598 1.05141E-04 3.03051E-06 0.00000E+00
 -1       599 1.05219E-04 2.76315E-06 4.13590E-25
 -1       600 1.05292E-04 2.51106E-06 0.00000E+00
 -1       601 1.05357E-04 2.27982E-06 0.00000E+00
 -1       602 1.05412E-04 2.07501E-06 1.03398E-25
 -1       603 1.05455E-04 1.90223E-06 2.06795E-25
 -1       604 1.05484E-04 1.76711E-06-1.03398E-25
 -1       605 1.05497E-04 1.67520E-06 0.00000E+00
 -1       606 1.05741E-04 1.40955E-06 0.00000E+00
 -1       607 1.05751E-04 1.73835E-06 0.00000E+00
 -1       608 1.05761E-04 2.15642E-06 0.00000E+00
 -1       609 1.05770E-04 2.65750E-06 0.00000E+00
 -1       610 1.05779E-04 3.23526E-06 0.00000E+00
 -1       611 1.05788E-04 3.88331E-06 0.00000E+00
 -1       612 1.05796E-04 4.59524E-06 0.00000E+00
 -1       613 1.05805E-04 5.36465E-06 0.00000E+00
 -1       614 1.05814E-04 6.18513E-06 0.00000E+00
 -1       615 1.05822E-04 7.05025E-06 8.27181E-25
 -1       616 1.05831E-04 7.95362E-06 0.00000E+00
 -1       617 1.05840E-04 8.88882E-06 0.00000E+00
 -1       618 1.05848E-04 9.84943E-06 0.00000E+00
 -1       619 1.05857E-04 1.08291E-05 0.00000E+00
 -1       620 1.05865E-04 1.18213E-05 4.13590E-25
 -1       621 1.05604E-04 1.25192E-06-1.65436E-24
 -1       622 1.05527E-04 1.32855E-06 8.27181E-25
 -1       623 1.05487E-04 1.40516E-06 0.00000E+00
 -1       624 1.05474E-04 1.48164E-06-8.27181E-25
 -1       625 1.05480E-04 1.55798E-06 0.00000E+00
 -1       626 1.05725E-04 1.43519E-06 0.00000E+00
 -1       627 1.05693E-04 1.77214E-06-1.65436E-24
 -1       628 1.05635E-04 2.17887E-06 0.00000E+00
 -1       629 1.05554E-04 2.64736E-06 0.00000E+00
 -1       630 1.05453E-04 3.16961E-06-3.30872E-24
 -1       631 1.05335E-04 3.73753E-06-1.65436E-24
 -1       632 1.05203E-04 4.34306E-06 0.00000E+00
 -1       633 1.05059E-04 4.97813E-06 0.00000E+00
 -1       634 1.04908E-04 5.63467E-06 0.00000E+00
 -1       635 1.04751E-04 6.30461E-06 1.65436E-24
 -1       636 1.04593E-04 6.97988E-06-3.30872E-24
 -1       637 1.04435E-04 7.65243E-06 0.00000E+00
 -1       638 1.04281E-04 8.31416E-06 3.30872E-24
 -1       639 1.04135E-04 8.95702E-06 8.27181E-25
 -1       640 1.03998E-04 9.57291E-06 1.65436E-24
 -1       656 1.05087E-04 1.23859E-05-6.61744E-24
 -1       657 1.04674E-04 1.19348E-05 0.00000E+00
 -1       658 1.04495E-04 1.14851E-05 0.00000E+00
 -1       659 1.04410E-04 1.10357E-05 3.30872E-24
 -1       660 1.04256E-04 1.05850E-05 6.61744E-24
 -1       661 1.05583E-04 1.37889E-05 0.00000E+00
 -1       662 1.05318E-04 1.46981E-05 8.27181E-25
 -1       663 1.05075E-04 1.55496E-05 0.00000E+00
 -1       664 1.04853E-04 1.63467E-05-8.27181E-25
 -1       665 1.04651E-04 1.70922E-05 0.00000E+00
 -1       666 1.04467E-04 1.77890E-05 0.00000E+00
 -1       667 1.04300E-04 1.84400E-05 0.00000E+00
 -1       668 1.04149E-04 1.90477E-05 8.27181E-25
 -1       669 1.04014E-04 1.96147E-05 0.00000E+00
 -1       670 1.03892E-04 2.01434E-05 0.00000E+00
 -1       671 1.03785E-04 2.06363E-05 0.00000E+00
 -1       672 1.03690E-04 2.10955E-05 0.00000E+00
 -1       673 1.03606E-04 2.15233E-05-1.65436E-24
 -1       674 1.03533E-04 2.19214E-05 0.00000E+00
 -1       675 1.03471E-04 2.22925E-05 0.00000E+00
 -1       676 1.04963E-04 2.30538E-05 0.00000E+00
 -1       677 1.04652E-04 2.29698E-05 0.00000E+00
 -1       678 1.04342E-04 2.28858E-05 0.00000E+00
 -1       679 1.04031E-04 2.28021E-05 0.00000E+00
 -1       680 1.03722E-04 2.27184E-05 1.65436E-24
 -1       771 1.66020E-05 5.20390E-06 0.00000E+00
 -1       772 1.16975E-05 1.48733E-05 0.00000E+00
 -1       773 7.56591E-06 2.25332E-05 0.00000E+00
 -1       774 4.15606E-06 2.83055E-05 0.00000E+00
 -1       775 1.41731E-06 3.23156E-05 5.29396E-23
 -1       776-7.03146E-07 3.46944E-05 0.00000E+00
 -1       777-2.25863E-06 3.55762E-05-5.29396E-23
 -1       778-3.30369E-06 3.51000E-05 0.00000E+00
 -1       779-3.89320E-06 3.34074E-05 0.00000E+00
 -1       780-4.08305E-06 3.06439E-05 2.64698E-23
 -1       781-3.92926E-06 2.69572E-05 5.29396E-23
 -1       782-3.48864E-06 2.24978E-05 1.32349E-23
 -1       783-2.81803E-06 1.74178E-05 0.00000E+00
 -1       784-1.97484E-06 1.18713E-05 0.00000E+00
 -1       785-1.01644E-06 6.01333E-06 2.64698E-23
 -1       786 1.04719E-04 4.81852E-06 4.13590E-25
 -1       787 1.04770E-04 4.47926E-06 0.00000E+00
 -1       788 1.04821E-04 4.16292E-06 0.00000E+00
 -1       789 1.04873E-04 3.86503E-06-8.27181E-25
 -1       790 1.04925E-04 3.58332E-06-1.65436E-24
 -1       791 1.04977E-04 3.31555E-06 0.00000E+00
 -1       792 1.05028E-04 3.06114E-06 0.00000E+00
 -1       793 1.05080E-04 2.81957E-06-8.27181E-25
 -1       794 1.05132E-04 2.59179E-06 0.00000E+00
 -1       795 1.05184E-04 2.37882E-06 0.00000E+00
 -1       796 1.05236E-04 2.18345E-06 1.65436E-24
 -1       797 1.05288E-04 2.00847E-06-8.27181E-25
 -1       798 1.05340E-04 1.85914E-06-1.65436E-24
 -1       799 1.05391E-04 1.74075E-06 0.00000E+00
 -1       800 1.05443E-04 1.66229E-06 1.65436E-24
 -1       801 9.73976E-05 4.51170E-06-1.32349E-23
 -1       802 7.48159E-05 3.59325E-06-6.61744E-24
 -1       803 4.57982E-05 2.52671E-06 0.00000E+00
 -1       804 1.94135E-05 1.52222E-06-1.32349E-23
 -1       805 2.09250E-06 6.99030E-07 2.64698E-23
 -1       806 1.04724E-04 4.76954E-06 1.65436E-24
 -1       807 1.04767E-04 4.36860E-06-8.27181E-25
 -1       808 1.04803E-04 3.98651E-06 0.00000E+00
 -1       809 1.04831E-04 3.62654E-06 1.65436E-24
 -1       810 1.04848E-04 3.29194E-06 1.65436E-24
 -1       811 1.04855E-04 2.98588E-06-8.27181E-25
 -1       812 1.04850E-04 2.71154E-06-3.30872E-24
 -1       813 1.04832E-04 2.47210E-06 8.27181E-25
 -1       814 1.04800E-04 2.27069E-06-3.30872E-24
 -1       815 1.04752E-04 2.11048E-06 8.27181E-25
 -1       816 1.04688E-04 1.99461E-06 0.00000E+00
 -1       817 1.04606E-04 1.92624E-06-8.27181E-25
 -1       818 1.04505E-04 1.90851E-06 0.00000E+00
 -1       819 1.04384E-04 1.94455E-06-8.27181E-25
 -1       820 1.04242E-04 2.03749E-06-1.65436E-24
 -1       821 1.05399E-04 1.59549E-06-8.27181E-25
 -1       822 1.05298E-04 1.49457E-06-8.27181E-25
 -1       823 1.05197E-04 1.39665E-06 0.00000E+00
 -1       824 1.05095E-04 1.36829E-06 0.00000E+00
 -1       825 1.04992E-04 1.46138E-06-3.30872E-24
 -1       826 1.04890E-04 1.72728E-06 0.00000E+00
 -1       827 1.04787E-04 2.18096E-06 3.30872E-24
 -1       828 1.04685E-04 2.83658E-06 1.65436E-24
 -1       829 1.04582E-04 3.66578E-06 0.00000E+00
 -1       830 1.04479E-04 4.63943E-06 1.65436E-24
 -1       831 1.04376E-04 5.69803E-06 3.30872E-24
 -1       832 1.04273E-04 6.78166E-06 1.65436E-24
 -1       833 1.04171E-04 7.82514E-06 3.30872E-24
 -1       834 1.04069E-04 8.76348E-06 8.27181E-25
 -1       835 1.03968E-04 9.55374E-06-8.27181E-25
 -1       836 1.05414E-04 1.72564E-06 0.00000E+00
 -1       837 1.05224E-04 1.82053E-06-1.65436E-24
 -1       838 1.04960E-04 1.91525E-06 0.00000E+00
 -1       839 1.04658E-04 2.00936E-06 0.00000E+00
 -1       840 1.04352E-04 2.10332E-06 0.00000E+00
 -1       856 1.03847E-04 1.07175E-05 0.00000E+00
 -1       857 1.03819E-04 1.13923E-05 0.00000E+00
 -1       858 1.03791E-04 1.21607E-05-4.13590E-25
 -1       859 1.03762E-04 1.30050E-05 0.00000E+00
 -1       860 1.03733E-04 1.39077E-05 0.00000E+00
 -1       861 1.03704E-04 1.48512E-05 0.00000E+00
 -1       862 1.03675E-04 1.58178E-05 8.27181E-25
 -1       863 1.03646E-04 1.67897E-05 0.00000E+00
 -1       864 1.03616E-04 1.77491E-05 8.27181E-25
 -1       865 1.03587E-04 1.86785E-05-4.13590E-25
 -1       866 1.03558E-04 1.95601E-05 0.00000E+00
 -1       867 1.03529E-04 2.03762E-05 4.13590E-25
 -1       868 1.03500E-04 2.11093E-05 0.00000E+00
 -1       869 1.03471E-04 2.17420E-05-4.13590E-25
 -1       870 1.03442E-04 2.22568E-05-8.27181E-25
 -1       871 1.03524E-04 1.01526E-05 8.27181E-25
 -1       872 1.03287E-04 1.01491E-05 0.00000E+00
 -1       873 1.03112E-04 1.01453E-05 0.00000E+00
 -1       874 1.02951E-04 1.01409E-05 2.06795E-25
 -1       875 1.02755E-04 1.01360E-05 6.20385E-25
 -1       876 1.03760E-04 1.07275E-05 3.30872E-24
 -1       877 1.03630E-04 1.13553E-05-1.65436E-24
 -1       878 1.03482E-04 1.20306E-05 0.00000E+00
 -1       879 1.03318E-04 1.27472E-05-1.65436E-24
 -1       880 1.03142E-04 1.34992E-05-3.30872E-24
 -1       881 1.02954E-04 1.42804E-05-1.65436E-24
 -1       882 1.02758E-04 1.50848E-05 0.00000E+00
 -1       883 1.02555E-04 1.59064E-05 0.00000E+00
 -1       884 1.02349E-04 1.67390E-05-3.30872E-24
 -1       885 1.02140E-04 1.75768E-05 1.65436E-24
 -1       886 1.01932E-04 1.84136E-05-3.30872E-24
 -1       887 1.01726E-04 1.92434E-05 0.00000E+00
 -1       888 1.01525E-04 2.00602E-05 0.00000E+00
 -1       889 1.01330E-04 2.08578E-05 0.00000E+00
 -1       890 1.01145E-04 2.16301E-05-8.27181E-25
 -1       891 1.03125E-04 2.25919E-05-8.27181E-25
 -1       892 1.02818E-04 2.25471E-05-4.13590E-25
 -1       893 1.02471E-04 2.25023E-05 8.27181E-25
 -1       894 1.02061E-04 2.24576E-05-2.06795E-25
 -1       895 1.01566E-04 2.24130E-05-4.13590E-25
 -1       956 1.03980E-04 2.46739E-06-1.65436E-24
 -1       957 1.03880E-04 2.80719E-06 8.27181E-25
 -1       958 1.03780E-04 3.20294E-06 0.00000E+00
 -1       959 1.03679E-04 3.64740E-06-1.65436E-24
 -1       960 1.03579E-04 4.13332E-06-1.65436E-24
 -1       961 1.03478E-04 4.65341E-06 0.00000E+00
 -1       962 1.03378E-04 5.20036E-06-3.30872E-24
 -1       963 1.03277E-04 5.76690E-06 0.00000E+00
 -1       964 1.03177E-04 6.34572E-06 0.00000E+00
 -1       965 1.03076E-04 6.92950E-06 1.65436E-24
 -1       966 1.02975E-04 7.51095E-06 0.00000E+00
 -1       967 1.02875E-04 8.08277E-06 0.00000E+00
 -1       968 1.02774E-04 8.63765E-06 3.30872E-24
 -1       969 1.02674E-04 9.16833E-06-1.65436E-24
 -1       970 1.02574E-04 9.66754E-06 0.00000E+00
 -1       971 1.02382E-04 1.06062E-05 3.30872E-24
 -1       972 1.02288E-04 1.11660E-05 1.65436E-24
 -1       973 1.02193E-04 1.17987E-05 1.65436E-24
 -1       974 1.02098E-04 1.24949E-05 1.65436E-24
 -1       975 1.02004E-04 1.32452E-05 0.00000E+00
 -1       976 1.01909E-04 1.40401E-05-1.65436E-24
 -1       977 1.01814E-04 1.48703E-05 3.30872E-24
 -1       978 1.01719E-04 1.57262E-05 0.00000E+00
 -1       979 1.01624E-04 1.65985E-05 0.00000E+00
 -1       980 1.01529E-04 1.74777E-05 1.65436E-24
 -1       981 1.01434E-04 1.83544E-05 0.00000E+00
 -1       982 1.01339E-04 1.92191E-05 1.65436E-24
 -1       983 1.01244E-04 2.00624E-05 0.00000E+00
 -1       984 1.01150E-04 2.08748E-05-1.65436E-24
 -1       985 1.01056E-04 2.16470E-05 0.00000E+00
 -3
    1PSTEP                        14           7           1          
  100CL  107 5.38574E-01         409                     0    7           1
 -4  STRESS      6    1
 -5  SXX         1    4    1    1
 -5  SYY         1    4    2    2
 -5  SZZ         1    4    3    3
 -5  SXY         1    4    1    2
 -5  SYZ         1    4    2    3
 -5  SZX         1    4    3    1
 -1         1-2.25061E+06-9.59901E+05-4.75687E+05-1.24067E+06-7.27596E-12 3.68163E-09
 -1         2 2.61681E+03-2.80425E+05 8.53021E+03-8.05025E+02-6.96332E-11 9.61813E-09
 -1         3-2.35743E+02-1.04134E+06 2.50048E+02-6.02675E+02-2.61515E-10 1.90375E-08
 -1         5-2.03516E+00 2.81044E+05 7.19195E+00 8.63565E-02 4.73500E-11 4.11765E-08
 -1         8-1.07653E+06-3.94867E+05-1.02481E+05-5.57766E+05 3.69255E-10-3.76167E-09
 -1         9-2.17073E+06-7.07554E+05-2.70297E+05-6.70936E+05 5.30854E-09 2.86964E-09
 -1        10-9.29321E+02-1.08487E+06-1.48248E+03-4.07831E+03-5.49426E-09-6.23862E-09
 -1        12 9.15806E-01 2.81059E+05 2.32885E+02 6.86283E-01-2.01794E-12 1.24959E-08
 -1        15 2.00523E+03 1.10200E+03 6.48191E+03 4.38069E+00-2.38202E-10-2.65345E-08
 -1        16-2.84754E+06-1.24732E+06-4.63138E+05-1.32273E+06 1.20199E-08 4.65661E-09
 -1        17-1.20513E+06-7.00855E+05-2.27582E+05-6.39767E+05-1.02926E-08-3.76021E-09
 -1        18 4.35077E+04 5.83377E+03-1.13901E+04-6.94546E+04 7.43739E-09 5.92308E-09
 -1        19 8.98200E+04 1.04591E+05-6.49587E+02 1.77338E+04-3.41242E-10-2.40834E-10
 -1        20-4.31390E+04-4.25157E+05-9.41768E+04 2.83660E+04 2.59858E-09 1.19780E-08
 -1        21-3.89775E+01-2.40475E+05-7.70817E+02-5.13141E+01-1.34530E-09-3.04893E-08
 -1        24-3.10243E+06-7.89186E+05-3.53881E+05-1.12270E+06-3.85820E-08-1.77533E-08
 -1        25-6.26478E+04-3.88595E+05-7.29270E+04-1.18006E+05-6.55746E-11 5.73018E-09
 -1        26-2.92884E+04 6.93803E+04-1.63460E+04-6.55800E+03 1.48684E-09 9.66526E-10
 -1        27-6.41792E+04-2.32046E+05-8.65564E+04 5.24254E+04 5.51609E-09-7.05465E-10
 -1        28 1.85406E+04-6.70764E+04 1.36255E+04 2.02404E+04 2.70461E-09-2.78706E-09
 -1        32-1.09449E+06-1.08722E+06 1.67056E+05-5.68749E+05-2.40616E-08 3.40287E-09
 -1        33-1.34919E+05 6.75186E+04 2.40632E+04-3.48357E+04 5.87534E-10-3.67193E-09
 -1        34-1.71936E+05-1.73743E+04 4.35054E+02 5.38836E+04 2.48408E-09 2.64026E-09
 -1        35-1.88776E+04-2.66485E+04-1.04897E+03 4.18931E+04 4.38839E-09-4.06180E-09
 -1        51 2.07616E+04-3.54830E+05 5.08629E+04-9.67005E+05-2.91038E-11 2.56987E-08
 -1        52 1.12951E+04-3.51588E+05 3.19069E+04-1.12778E+06 8.22183E-10 7.79983E-09
 -1        53 7.34392E+03-3.66123E+05 2.48033E+04-9.63602E+05 5.89353E-10 2.03727E-09
 -1        54 2.03179E+04-3.64740E+05 3.69456E+04-1.13130E+06-3.63798E-10-7.63976E-11
 -1        55 3.98794E+04-3.78505E+05 6.42061E+04-9.63044E+05 3.49246E-10-5.35510E-09
 -1        56-4.30292E+06-4.81716E+05-3.49992E+05-1.66205E+06-2.18279E-10-3.84171E-09
 -1        57-4.45362E+06-7.88980E+05-2.36036E+05-1.63716E+06 2.16914E-09 5.43150E-09
 -1        58-4.37334E+06-5.92664E+05-8.23074E+04-1.63989E+06-3.29237E-10-4.72937E-11
 -1        59-4.37228E+06-6.58551E+05-4.91372E+04-1.66323E+06 8.93124E-10-4.01997E-10
 -1        60-4.38334E+06-6.08412E+05-1.91963E+04-1.63721E+06-2.09093E-09 5.67252E-09
 -1        61-4.36260E+06-6.38114E+05-1.08822E+04-1.66399E+06 2.41141E-09-4.18243E-09
 -1        62-4.38279E+06-6.12640E+05-5.19622E+03-1.63923E+06 1.36083E-09-3.73706E-09
 -1        63-4.36661E+06-6.30159E+05-4.15747E+03-1.65773E+06 6.73140E-10 1.08689E-08
 -1        64-4.37922E+06-6.16368E+05-4.67221E+03-1.64342E+06-7.44421E-10-4.64911E-09
 -1        65-4.37577E+06-6.23902E+05-9.23442E+03-1.64818E+06-5.94582E-10-6.22572E-09
 -1        66-4.37360E+06-6.18977E+05-1.61942E+04-1.64874E+06-9.25297E-10-5.97811E-09
 -1        67-4.39401E+06-6.30859E+05-4.11722E+04-1.63596E+06-2.28601E-09 7.16136E-09
 -1        68-4.36116E+06-6.09800E+05-6.90135E+04-1.65556E+06 4.52928E-09 9.99717E-09
 -1        69-4.46745E+06-7.35077E+05-1.97787E+05-1.60850E+06-2.78214E-09-6.17729E-09
 -1        70-4.30107E+06-5.17816E+05-2.93338E+05-1.67524E+06-7.42148E-10-6.31553E-09
 -1        86-1.31465E+03-2.83244E+05 9.10587E+03 4.02499E+02 1.12504E-09 1.16247E-08
 -1        87 8.69436E+03-2.77538E+05 1.90319E+04-1.55615E+03 1.88834E-09 2.60619E-09
 -1        88-7.36956E+03-2.86132E+05 2.91342E+04 1.15364E+03 2.67028E-09-7.00658E-09
 -1        89 5.48926E+04-2.56237E+05 7.85373E+04-2.85643E+03 3.95812E-09-1.01605E-08
 -1        90-4.73466E+04-3.04526E+05 1.11049E+05 1.70321E+03 3.88536E-09 2.62213E-09
 -1       121-3.45337E+02-1.04225E+06 1.27096E+02 3.00680E+02 6.65452E-10-1.63927E-08
 -1       122-1.50032E+02-1.04130E+06 5.31953E+02-1.20420E+03-2.15325E-09 5.81076E-09
 -1       123-3.96481E+02-1.04231E+06 7.45387E+02 8.99604E+02 1.88913E-09 1.50503E-08
 -1       124 8.38283E+02-1.04074E+06 2.19529E+03-2.59668E+03-4.30919E-09-1.30285E-08
 -1       125-1.01462E+03-1.04286E+06 3.25125E+03 1.69078E+03 2.74940E-09-5.14410E-09
 -1       191-2.37679E+00 2.81068E+05 8.75658E+00-4.33446E-02 6.53404E-11 1.38755E-08
 -1       192-2.69440E+00 2.81044E+05 1.52194E+01 3.93168E-01 9.94955E-11-1.29842E-09
 -1       193-4.13026E+00 2.81068E+05 2.84593E+01-3.51104E-01 8.26041E-11-1.03666E-08
 -1       194-4.81620E+00 2.81047E+05 5.75463E+01 9.39118E-01 5.03810E-11-3.99064E-09
 -1       195-7.50018E+00 2.81066E+05 1.12718E+02-5.92166E-01 1.50656E-10 9.60426E-10
 -1       251-1.08429E+06 4.66651E+03-1.11326E+04-9.12170E+03-7.68523E-11 1.06297E-08
 -1       252-1.08790E+06-5.37110E+03-7.62090E+03 1.10878E+04-1.64931E-09 6.19070E-09
 -1       253-1.08669E+06 6.66281E+02-3.01962E+03-4.56037E+03 1.40403E-10-8.29550E-09
 -1       254-1.08502E+06-7.93067E+02-1.45299E+03 4.94277E+02-1.70530E-10-1.31286E-09
 -1       255-1.08709E+06 5.31497E+01-8.67298E+02 1.47185E+03 8.69932E-10 3.01500E-09
 -1       256-1.08512E+06-7.07469E+01-1.01822E+02-1.06327E+04 1.65804E-09 1.14538E-08
 -1       257-1.08665E+06-2.15067E+01-8.89071E+01 6.56647E+03-3.49814E-10 9.34720E-09
 -1       258-1.08598E+06 1.22497E+02 3.17174E+02-1.78401E+04 1.81512E-09 5.03128E-10
 -1       259-1.08632E+06-6.98110E+01 6.21575E+02 8.67968E+03-1.58370E-09 2.01071E-08
 -1       260-1.08582E+06 5.39782E+02 1.53157E+03-1.82432E+04 1.93424E-09 6.31633E-09
 -1       261-1.08680E+06-4.30867E+02 2.54835E+03 6.96972E+03 2.28317E-09 2.60002E-09
 -1       262-1.08364E+06 3.09965E+03 6.63595E+03-1.16847E+04-1.14588E-09 4.38695E-09
 -1       263-1.08842E+06-2.68899E+03 1.01065E+04 2.12089E+03 1.23919E-11 1.51576E-08
 -1       264-1.07533E+06 1.97446E+04 2.83622E+04-8.29293E+02-2.67642E-09 1.38352E-08
 -1       265-1.09503E+06-1.70647E+04 3.95681E+04-3.88568E+03-1.63766E-09 1.42645E-08
 -1       266-3.63002E+04-1.69713E+04 8.51836E+04-9.37454E+01-3.20142E-10-5.63081E-08
 -1       267 4.20832E+04 1.97846E+04 6.01999E+04 1.08148E+02-3.84716E-10-8.71788E-08
 -1       268-5.64322E+03-2.80181E+03 2.23764E+04-1.37808E+01-4.25644E-10-6.61222E-08
 -1       269 6.66306E+03 3.35344E+03 1.45440E+04 1.60517E+01-1.52113E-10-6.33852E-08
 -1       270-1.00013E+03-5.50980E+02 7.02059E+03-2.17836E+00-2.45109E-10-4.28835E-08
 -1       271-3.41346E+06-4.27168E+05-2.59267E+05-1.32997E+06 1.64073E-09 5.71890E-09
 -1       272-3.50177E+06-6.20946E+05-1.66691E+05-1.33276E+06-4.12115E-09-3.45790E-09
 -1       273-3.46361E+06-4.90432E+05-6.12549E+04-1.31684E+06 1.00954E-09 1.95250E-08
 -1       274-3.44235E+06-5.44144E+05-3.42473E+04-1.35337E+06 1.53705E-10 1.72322E-08
 -1       275-3.47210E+06-4.95329E+05-1.42697E+04-1.31285E+06-2.38288E-10 1.15251E-08
 -1       276-3.43175E+06-5.39028E+05-7.54510E+03-1.36018E+06 9.33596E-10 4.48313E-09
 -1       277-3.47464E+06-4.94326E+05-3.71167E+03-1.31076E+06 1.29830E-09 8.31847E-09
 -1       278-3.42882E+06-5.40452E+05-2.66710E+03-1.36337E+06 4.40014E-09 1.24921E-08
 -1       279-3.47541E+06-4.93590E+05-2.84465E+03-1.30995E+06 3.05545E-09-4.05930E-09
 -1       280-3.42901E+06-5.41362E+05-5.21427E+03-1.36371E+06-1.59486E-09 2.62855E-09
 -1       281-3.47452E+06-4.93426E+05-9.49371E+03-1.31045E+06 1.99361E-09-1.16415E-09
 -1       282-3.43502E+06-5.45829E+05-2.27539E+04-1.36052E+06-2.84444E-09 5.45378E-09
 -1       283-3.46922E+06-4.89867E+05-4.05515E+04-1.31274E+06 1.21895E-09 6.18456E-10
 -1       284-3.47408E+06-5.96914E+05-1.10448E+05-1.34697E+06-5.82304E-10-1.14596E-10
 -1       285-3.43586E+06-4.48165E+05-1.71795E+05-1.32161E+06 7.09406E-10 2.11003E-09
 -1       301 2.11088E+04-5.24492E+04 1.55832E+05-1.00931E+05-9.74978E-10 4.69527E-09
 -1       302 2.22009E+04-1.30045E+04 1.03577E+05-1.48401E+05 8.79481E-10-3.26418E-09
 -1       303 1.11977E+03-3.70592E+04 8.15622E+04-1.01023E+05-8.17636E-10-3.75439E-09
 -1       304 2.77451E+04-7.27490E+03 1.22270E+05-1.47941E+05 8.22183E-10-1.96451E-08
 -1       305 2.68156E+04-5.71884E+04 1.97155E+05-1.01432E+05-7.34872E-10-8.84575E-09
 -1       306-5.66328E+06-6.11997E+05-4.28443E+05-2.13756E+06 1.47702E-09-6.86850E-09
 -1       307-5.62397E+06-1.14741E+06-2.79312E+05-2.28026E+06-2.12603E-08-4.53656E-09
 -1       308-5.81177E+06-6.64562E+05-1.00505E+05-2.00808E+06-4.69254E-09 1.01136E-08
 -1       309-5.46217E+06-1.08321E+06-5.83608E+04-2.44649E+06 6.45110E-09 2.18470E-08
 -1       310-5.83598E+06-6.65145E+05-2.26978E+04-1.98057E+06-8.89304E-09-7.18501E-10
 -1       311-5.46922E+06-1.02241E+06-9.55181E+03-2.39976E+06 2.57214E-08-1.42194E-08
 -1       312-5.79942E+06-7.28715E+05-1.20004E+04-2.05123E+06 1.73532E-09 1.11795E-08
 -1       313-5.58566E+06-8.63673E+05 3.85691E+03-2.19984E+06-6.32735E-09 7.26141E-09
 -1       314-5.70705E+06-8.32789E+05-1.56725E+04-2.17119E+06 1.99361E-09-4.91127E-09
 -1       315-5.79312E+06-6.71963E+05-7.01310E+03-1.98229E+06-6.78847E-09-1.37115E-08
 -1       316-5.59550E+06-9.17860E+05-2.94644E+04-2.27103E+06-2.69993E-08-3.82206E-08
 -1       317-5.97667E+06-5.71976E+05-6.66499E+04-1.85490E+06 2.23722E-08-2.44600E-08
 -1       318-5.53649E+06-9.24097E+05-1.12508E+05-2.30838E+06-3.40733E-08 1.63272E-08
 -1       319-6.07098E+06-7.73514E+05-3.26125E+05-1.83116E+06-1.06502E-08 4.25644E-09
 -1       320-5.50084E+06-7.20218E+05-4.86727E+05-2.29281E+06 1.69384E-08-1.31549E-08
 -1       336 5.64341E+02-1.12829E+06-6.33741E+03 2.37674E+03-1.09067E-08 3.75439E-09
 -1       337-2.33925E+03-1.12946E+06-7.00330E+03-5.86266E+03-2.05455E-08 1.20735E-08
 -1       338 3.76462E+02-1.12843E+06-9.20236E+03 3.46562E+03-1.44491E-08 8.52924E-09
 -1       339-9.50318E+03-1.13406E+06-2.01049E+04-7.99384E+03-2.61275E-08 1.64619E-10
 -1       340 6.30348E+03-1.12395E+06-3.11784E+04 4.48984E+03-1.75933E-08 1.37497E-08
 -1       406 1.88585E+01 2.81056E+05 4.59932E+02-1.00196E-01 2.48463E-10 4.90149E-09
 -1       407 1.61199E+02 2.81139E+05 9.77160E+02-3.76605E+00 6.04814E-11 3.30567E-09
 -1       408 5.04022E+02 2.80985E+05 1.95178E+03 3.95660E+00 3.12752E-10 1.36379E-09
 -1       409 2.11096E+03 2.81763E+05 4.39364E+03-3.89179E+01-1.79170E-10-3.42152E-09
 -1       410 6.06352E+03 2.80431E+05 8.96955E+03 3.65974E+01 6.54836E-11-4.89968E-09
 -1       521-8.17145E+06-7.90515E+05-7.89591E+05-2.55387E+06-8.19273E-09 1.26893E-08
 -1       522-5.67338E+06-2.09861E+06-2.03413E+05-3.94952E+06-9.06548E-08-5.33691E-08
 -1       523-8.17188E+06-3.39426E+05-1.55590E+05-1.79925E+06 7.28323E-09-4.17785E-08
 -1       524-6.03948E+06-2.27614E+06-3.57489E+04-4.95399E+06 1.23276E-07-1.10048E-07
 -1       525-8.17183E+06-3.38901E+05-4.30989E+04-1.76817E+06 6.94199E-08-7.20192E-08
 -1       526-5.58762E+06-1.94299E+06 1.33248E+05-4.09740E+06-1.29439E-08-4.70754E-09
 -1       527-8.29145E+06-9.16769E+05-2.14669E+05-2.46114E+06-2.50293E-09 2.32176E-08
 -1       528-5.76390E+06-8.98830E+05 2.70197E+05-2.31533E+06-1.08921E-08 3.77804E-08
 -1       529-7.65545E+06-1.62180E+06-2.33700E+05-3.26723E+06 1.04337E-08-7.72707E-09
 -1       530-7.76750E+06 3.98200E+05 1.57718E+05-1.32525E+06-6.42613E-08 5.21068E-08
 -1       531-6.60032E+06-1.98379E+06-6.19733E+04-3.64147E+06-1.05814E-07-5.14046E-09
 -1       532-9.29804E+06 9.93292E+05-3.04556E+04-1.23449E+06 4.87171E-08-1.15449E-07
 -1       533-6.45837E+06-1.98946E+06-1.30155E+05-3.66959E+06 2.58733E-08-1.56613E-07
 -1       534-8.31119E+06 3.99797E+05-2.06987E+05-1.23745E+06-3.01516E-08 1.25991E-07
 -1       535-7.34733E+06-1.55722E+06-7.38977E+05-3.40547E+06-9.80799E-09 7.35745E-08
 -1       536-1.56145E+05-3.18728E+04 5.18354E+04-5.16860E+03-1.18933E-08 1.87647E-08
 -1       537-3.15492E+04 3.43842E+04 5.41025E+04 1.20687E+04-4.42112E-08 3.11547E-08
 -1       538-9.90775E+04-2.42979E+03 1.59123E+04-7.11013E+03 1.04389E-08 1.80089E-08
 -1       539-7.18520E+04 2.52461E+03 1.35919E+04 1.34974E+04 7.64421E-08 3.09749E-08
 -1       540-1.16008E+05 1.57463E+02 2.31677E+02-6.60429E+03-1.27338E-09 2.22044E-08
 -1       541-7.95010E+03 2.48061E+03 1.95856E+04 8.81478E+03-1.60704E-08 2.85622E-08
 -1       542-1.62540E+05-2.77088E+03-1.23753E+04-2.41453E+03 1.27255E-08 2.52015E-09
 -1       543 2.79942E+04 4.27128E+03 2.52668E+04-1.75054E+03 2.28579E-09 5.86419E-09
 -1       544-1.51724E+05-1.85594E+03-1.11855E+04 3.94965E+03-1.14848E-08-1.13813E-08
 -1       545-3.27562E+04-2.36423E+02 1.15995E+04-1.10592E+04-3.82646E-09-2.60396E-08
 -1       546-1.02194E+05 2.08491E+03-2.20753E+03 6.89026E+03 2.53607E-10-3.07395E-08
 -1       547-7.83704E+04-4.01727E+03-3.82977E+01-1.38626E+04-3.89507E-08-2.27683E-08
 -1       548-1.06387E+05 2.21392E+03-6.69930E+03 6.76318E+03-4.54198E-08-1.93897E-08
 -1       549-2.56071E+04-3.69146E+03 2.92870E+03-1.02749E+04-2.94073E-08-3.30765E-08
 -1       550-1.54608E+05 1.42770E+03-3.07718E+04 3.29100E+03 4.21608E-10-2.03227E-08
 -1       551 1.73751E+04-5.79360E+05 2.50145E+04-9.63345E+05-4.68644E-08-1.35333E-09
 -1       552 3.92101E+04-5.90761E+05 3.21368E+04-1.37212E+06-3.37313E-08 1.45592E-08
 -1       553 2.78751E+04-5.96754E+05 4.67162E+04-9.59723E+05-5.64833E-08 1.07393E-08
 -1       554 6.57151E+04-5.86500E+05 9.76322E+04-1.37355E+06-3.58195E-08 1.02084E-08
 -1       555 5.60239E+04-6.15366E+05 1.73317E+05-9.60668E+05-5.88552E-08-2.85218E-09
 -1       556 8.99420E+04-1.86373E+05 6.16295E+04-2.37454E+05-7.37782E-09 5.76256E-09
 -1       557 1.64973E+05-2.47014E+05 3.26240E+04-2.97587E+05-6.98492E-10 2.93039E-09
 -1       558 8.81317E+04-1.93723E+05 1.27989E+04-2.31196E+05-5.23869E-09 3.80533E-09
 -1       559 1.52881E+05-2.54889E+05 6.61921E+03-3.03480E+05 6.17729E-09 2.25555E-10
 -1       560 8.46205E+04-1.91446E+05 2.50874E+03-2.33525E+05 1.03319E-09 1.30003E-08
 -1       561 1.47841E+05-2.53328E+05 1.42375E+03-3.06717E+05-2.28465E-09-3.18323E-10
 -1       562 8.18253E+04-1.89623E+05 4.25956E+02-2.35530E+05-3.71074E-10-1.53523E-09
 -1       563 1.44557E+05-2.51908E+05 3.44216E+02-3.08827E+05 1.97906E-09-8.71898E-09
 -1       564 8.00017E+04-1.88463E+05 8.52047E+01-2.36819E+05 6.82485E-09-1.16652E-08
 -1       565 1.42696E+05-2.51104E+05 9.65653E+01-3.10006E+05-1.34423E-09-3.45062E-09
 -1       566 7.91976E+04-1.87942E+05-1.57390E+01-2.37388E+05-1.32641E-08-4.17094E-09
 -1       567 1.42209E+05-2.50885E+05-1.26371E+02-3.10233E+05 1.06249E-08 1.56015E-08
 -1       568 7.94554E+04-1.88115E+05-4.28953E+02-2.37286E+05 8.91305E-11 5.01677E-09
 -1       569 1.42268E+05-2.50838E+05-1.02972E+03-3.08795E+05-3.31056E-09 4.49654E-09
 -1       570 8.14445E+04-1.89857E+05-2.27648E+03-2.37014E+05 8.54197E-09 1.24182E-08
 -1       571 2.09783E+05 7.59738E+03 1.12126E+04-5.34910E+04-1.08685E-09 4.58931E-09
 -1       572 2.11447E+05 2.66660E+03 5.49364E+03-5.86595E+04-1.73168E-09-8.58745E-09
 -1       573 2.10451E+05 6.59660E+02 2.44064E+03-5.33643E+04-1.58343E-09-1.37516E-09
 -1       574 2.10644E+05 2.40338E+02 1.22301E+03-5.88036E+04-1.25556E-09 5.54792E-10
 -1       575 2.10525E+05 6.08015E+01 5.76675E+02-5.33476E+04 1.07775E-10 5.32054E-10
 -1       576 2.10536E+05 4.34601E+01 2.94063E+02-5.88228E+04 9.06724E-10-1.25619E-08
 -1       577 2.10539E+05 2.67892E+01 1.45719E+02-5.33453E+04-1.87274E-08-1.08921E-08
 -1       578 2.10531E+05 3.06712E+01 8.13045E+01-5.88252E+04-3.80760E-08-1.63391E-09
 -1       579 2.10558E+05 2.08482E+01 5.28142E+01-5.33452E+04-1.65637E-08-4.17367E-09
 -1       580 2.10556E+05 1.99521E+01 5.47933E+01-5.88221E+04-1.52113E-09 9.42964E-09
 -1       581 2.10588E+05 8.81958E+00 7.98306E+01-5.33485E+04-2.05000E-09-6.84850E-10
 -1       582 2.10610E+05 2.29861E+01 1.56839E+02-5.87890E+04-6.03904E-10 1.18989E-08
 -1       583 2.10622E+05 5.84606E+01 3.02985E+02-5.33783E+04-1.07320E-09-6.74140E-09
 -1       584 2.10765E+05 2.97622E+02 6.81073E+02-5.85388E+04-1.96815E-09-1.26511E-09
 -1       585 2.10589E+05 8.96098E+02 1.38357E+03-5.35991E+04-1.21236E-09 1.48084E-08
 -1       586-2.75079E+03 6.78290E+04-3.50040E+03-1.81776E+05-3.18323E-10-3.00884E-09
 -1       587-6.45788E+02 6.73775E+04-3.01456E+02-2.00064E+05-7.07587E-10-6.69115E-09
 -1       588 7.08487E+02 6.74546E+04 2.70663E+03-1.81682E+05-5.27507E-10 4.62933E-09
 -1       589 3.83801E+03 6.89473E+04 7.76026E+03-1.99868E+05-7.45786E-10-8.12679E-09
 -1       590 1.12220E+04 6.65586E+04 1.65703E+04-1.81981E+05-8.78572E-10-7.90351E-10
 -1       591-4.29773E+04-1.16552E+04-1.48967E+04-2.13342E+04 9.92600E-10 2.69756E-09
 -1       592-4.47865E+04-1.49008E+04-8.06883E+03-2.47482E+04-3.04863E-09 6.85122E-09
 -1       593-4.44771E+04-1.05641E+04-3.35898E+03-2.24167E+04 3.06272E-10-1.59787E-08
 -1       594-4.27171E+04-1.27286E+04-1.67527E+03-2.48429E+04 1.52613E-09 3.45943E-09
 -1       595-4.45918E+04-1.05596E+04-7.69649E+02-2.24662E+04 5.03235E-10 6.06595E-09
 -1       596-4.25765E+04-1.26292E+04-3.91980E+02-2.48275E+04 2.01780E-09 2.21570E-09
 -1       597-4.46063E+04-1.05694E+04-2.15004E+02-2.24681E+04 1.21854E-09 1.22037E-09
 -1       598-4.25628E+04-1.26254E+04-1.75704E+02-2.48232E+04-2.45657E-09 2.21894E-09
 -1       599-4.46052E+04-1.05696E+04-2.28021E+02-2.24677E+04 6.23004E-10-2.23827E-09
 -1       600-4.25774E+04-1.26303E+04-4.26454E+02-2.48267E+04 2.70575E-11 1.06559E-09
 -1       601-4.45874E+04-1.05595E+04-8.42794E+02-2.24649E+04-5.74801E-10-8.61212E-09
 -1       602-4.27313E+04-1.27390E+04-1.83755E+03-2.48412E+04-2.12628E-09-1.48657E-08
 -1       603-4.44597E+04-1.05665E+04-3.68549E+03-2.24109E+04-3.72893E-10-1.36470E-09
 -1       604-4.50117E+04-1.51112E+04-8.85310E+03-2.47227E+04-1.51886E-10-7.02130E-09
 -1       605-4.28017E+04-1.17737E+04-1.63445E+04-2.12341E+04 6.33236E-10 6.83758E-09
 -1       606 2.73334E+04-1.00578E+04-1.80930E+04 2.65202E+04 9.98352E-09-1.24965E-09
 -1       607 2.42359E+04-3.25258E+03-9.00935E+03 2.97733E+04 2.13986E-08-6.55905E-09
 -1       608 2.59925E+04-5.56401E+02-4.03455E+03 2.63107E+04 2.01981E-08-6.50971E-10
 -1       609 2.56438E+04-1.52846E+02-2.03771E+03 3.00067E+04 1.60944E-08 1.54525E-08
 -1       610 2.58299E+04 1.68197E+01-9.73316E+02 2.62872E+04 4.95857E-09 5.74323E-09
 -1       611 2.57648E+04 2.91150E+01-4.90763E+02 3.00322E+04-6.21594E-09-5.38034E-09
 -1       612 2.57862E+04 3.30386E+01-2.34573E+02 2.62849E+04-2.81671E-09-3.73143E-09
 -1       613 2.57621E+04 3.80870E+01-1.06304E+02 3.00352E+04-4.22551E-09-6.75072E-09
 -1       614 2.57622E+04 3.38935E+01-2.83693E+01 2.62841E+04-1.24601E-10-8.94920E-09
 -1       615 2.57497E+04 4.38888E+01 3.65972E+01 3.00356E+04 2.61980E-09-5.89512E-09
 -1       616 2.57439E+04 3.99966E+01 1.17007E+02 2.62844E+04-1.33182E-08-9.68521E-09
 -1       617 2.57573E+04 7.28225E+01 2.70013E+02 3.00351E+04-1.75869E-08-1.33020E-08
 -1       618 2.57156E+04 1.20906E+02 5.45248E+02 2.62845E+04-7.89350E-09 1.85310E-09
 -1       619 2.59459E+04 4.96941E+02 1.22516E+03 3.00343E+04-1.18234E-11 7.91715E-10
 -1       620 2.55321E+04 1.41620E+03 2.46267E+03 2.62834E+04 2.23326E-09 1.57356E-08
 -1       621 2.89406E+02 2.19435E+05 2.60468E+03 1.15492E+04-1.36652E-10 3.37036E-09
 -1       622 3.43024E+02 2.20076E+05 2.33204E+03 1.68262E+04 4.82032E-11 1.59451E-08
 -1       623 1.73118E+01 2.19600E+05 2.83968E+03 1.14938E+04-9.28537E-11 5.83418E-09
 -1       624 1.33076E+03 2.20975E+05 5.53019E+03 1.68826E+04 6.45173E-11-1.17772E-08
 -1       625 1.33774E+03 2.18520E+05 9.67887E+03 1.14926E+04-3.00133E-11-2.82012E-09
 -1       626 1.89104E+05 5.08262E+04 4.02518E+03 9.99496E+04-9.70522E-09 3.43425E-09
 -1       627 1.86746E+05 5.24592E+04 1.93968E+03 1.03905E+05-9.86438E-09 2.11083E-08
 -1       628 1.89234E+05 4.89453E+04 8.19396E+02 1.00584E+05-6.40102E-09 9.77320E-09
 -1       629 1.86191E+05 5.19749E+04 4.01365E+02 1.04140E+05 3.21961E-10-1.57434E-09
 -1       630 1.89242E+05 4.88568E+04 1.85411E+02 1.00603E+05 6.23913E-09-1.19205E-08
 -1       631 1.86125E+05 5.19621E+04 9.92034E+01 1.04141E+05 1.77297E-08 8.29202E-09
 -1       632 1.89233E+05 4.88636E+04 6.42903E+01 1.00595E+05 4.95311E-09 1.17268E-09
 -1       633 1.86111E+05 5.19672E+04 7.01524E+01 1.04133E+05-2.17688E-09-1.35485E-08
 -1       634 1.89223E+05 4.88645E+04 1.11998E+02 1.00591E+05 7.01311E-09 1.11322E-08
 -1       635 1.86116E+05 5.19686E+04 2.26044E+02 1.04133E+05-7.21229E-10 7.34917E-09
 -1       636 1.89212E+05 4.88632E+04 4.56049E+02 1.00588E+05-7.46729E-09 5.38444E-09
 -1       637 1.86211E+05 5.20408E+04 1.00212E+03 1.04129E+05-9.49865E-09 3.03910E-08
 -1       638 1.89173E+05 4.90861E+04 2.05925E+03 1.00485E+05-8.28504E-09 3.78941E-09
 -1       639 1.87290E+05 5.35457E+04 4.87160E+03 1.03809E+05-2.76304E-09 7.53971E-10
 -1       640 1.89029E+05 5.35715E+04 1.01096E+04 9.85840E+04 4.24279E-10 1.07082E-08
 -1       656 5.03893E+04-1.27853E+06-1.21640E+05-4.48811E+02-1.96451E-10-8.64296E-09
 -1       657-6.66069E+04-1.33344E+06-1.00643E+05 7.50465E+03 1.55524E-09-2.65788E-09
 -1       658 1.60027E+04-1.29418E+06-6.18221E+04-1.78618E+03 9.50422E-11-4.80046E-09
 -1       659-7.15850E+04-1.33580E+06-1.07182E+05 8.44068E+03-8.00355E-10 8.66003E-09
 -1       660 5.53558E+04-1.27618E+06-1.32884E+05-1.38483E+03-6.54836E-11 1.13628E-08
 -1       661 1.66372E+05 1.80196E+04 1.62277E+04 6.50548E+04 2.20552E-09 2.81125E-09
 -1       662 1.74983E+05 3.05908E+04 1.09351E+04 6.20546E+04 1.72122E-09 5.39137E-09
 -1       663 1.69555E+05 2.32289E+04 3.82505E+03 6.41341E+04 7.83643E-10-3.71074E-09
 -1       664 1.71297E+05 2.44947E+04 2.28714E+03 6.31754E+04 6.53472E-10-7.38544E-09
 -1       665 1.70033E+05 2.39445E+04 9.02221E+02 6.39985E+04-9.38030E-10-9.83135E-10
 -1       666 1.70735E+05 2.36730E+04 5.26534E+02 6.33502E+04-7.12247E-09-4.20301E-09
 -1       667 1.70114E+05 2.40290E+04 2.78047E+02 6.39674E+04-1.88783E-09 3.03134E-09
 -1       668 1.70647E+05 2.36079E+04 2.79586E+02 6.33953E+04 1.35481E-09 4.40608E-11
 -1       669 1.70120E+05 2.40076E+04 3.75454E+02 6.39541E+04 1.48351E-09 6.16168E-09
 -1       670 1.70740E+05 2.38082E+04 8.14706E+02 6.33960E+04 4.27724E-09-6.76414E-09
 -1       671 1.70021E+05 2.38327E+04 1.44561E+03 6.39650E+04-2.11902E-09 6.00096E-10
 -1       672 1.71583E+05 2.52143E+04 3.69779E+03 6.31923E+04-1.48700E-09 7.32331E-09
 -1       673 1.69282E+05 2.26369E+04 6.19662E+03 6.41442E+04-1.61072E-09 6.02836E-09
 -1       674 1.77482E+05 3.51677E+04 1.77210E+04 6.14574E+04-7.69433E-10-1.13703E-08
 -1       675 1.64160E+05 1.41577E+04 2.63037E+04 6.55950E+04 2.54568E-09-2.63390E-09
 -1       676 2.00045E+01-2.40411E+05-9.29034E+02 2.56577E+01-1.68882E-09-8.92861E-09
 -1       677-2.46676E+02-2.40635E+05-1.70025E+03-5.12862E+01-2.25023E-09-6.76103E-09
 -1       678 1.64697E+02-2.40251E+05-3.00560E+03 2.56109E+01 9.31095E-11-2.12949E-09
 -1       679-3.00637E+03-2.42449E+05-7.13986E+03-5.11063E+01-3.98722E-09-4.02183E-10
 -1       680 1.79422E+03-2.38597E+05-1.15071E+04 2.51866E+01 4.95220E-10 4.63796E-09
 -1       771-2.56302E+06-4.90395E+05-7.14126E+04-1.10788E+06-4.52565E-09-1.70548E-08
 -1       772-2.53412E+06-5.34640E+05-3.78048E+04-1.15790E+06 6.46105E-09-1.90084E-09
 -1       773-2.57460E+06-4.81265E+05-1.72705E+04-1.11205E+06-1.30967E-09-2.16096E-09
 -1       774-2.52531E+06-5.26960E+05-8.14752E+03-1.16523E+06 1.33296E-08-1.13323E-09
 -1       775-2.57872E+06-4.78382E+05-4.79071E+03-1.11293E+06-9.16771E-10-3.23780E-09
 -1       776-2.52658E+06-5.26917E+05-2.02166E+03-1.16997E+06-5.84259E-09 1.92813E-09
 -1       777-2.58198E+06-4.75981E+05-1.68289E+03-1.11367E+06 5.82077E-10 9.89530E-10
 -1       778-2.52834E+06-5.27033E+05-5.84076E+02-1.17397E+06 4.56930E-09-3.91992E-10
 -1       779-2.58467E+06-4.73935E+05-7.60731E+02-1.11431E+06 9.80799E-09-8.57835E-09
 -1       780-2.52993E+06-5.27094E+05-2.66327E+02-1.17721E+06 1.62690E-08-1.29949E-08
 -1       781-2.58675E+06-4.72311E+05-5.00757E+02-1.11481E+06-2.42289E-09-3.14958E-09
 -1       782-2.53120E+06-5.27129E+05-4.73265E+02-1.17959E+06-1.22709E-08-5.15138E-09
 -1       783-2.58816E+06-4.71215E+05-9.74211E+02-1.11515E+06 2.59024E-09-4.54406E-09
 -1       784-2.53251E+06-5.27685E+05-2.11209E+03-1.18101E+06-9.26957E-09-3.97586E-09
 -1       785-2.58849E+06-4.70941E+05-3.94572E+03-1.11505E+06-1.65783E-08-1.26965E-09
 -1       786 1.44307E+05-9.06012E+03 2.09604E+04-7.28930E+01 1.16608E-09-8.82210E-11
 -1       787 1.53392E+05 1.04888E+04 1.48289E+04 2.06263E+01 2.12699E-09 5.72436E-09
 -1       788 1.47811E+05-1.42024E+03 5.42424E+03-5.53182E+01 9.66131E-10 8.69500E-09
 -1       789 1.49310E+05 1.64320E+03 3.40691E+03-8.36379E+00 7.90503E-11 7.86650E-09
 -1       790 1.48390E+05-2.21732E+02 1.38357E+03-4.39054E+01 5.33530E-10 2.69836E-10
 -1       791 1.48634E+05 2.56847E+02 8.07141E+02-2.90489E+01-1.15229E-09 1.69578E-08
 -1       792 1.48487E+05-3.49320E+01 3.58140E+02-3.46331E+01-2.76986E-10-2.03093E-09
 -1       793 1.48522E+05 4.40991E+01 2.13838E+02-4.78763E+01-1.62822E-10-5.85701E-09
 -1       794 1.48502E+05-9.12141E+00 1.26527E+02-2.50777E+01 6.68164E-10-1.38485E-09
 -1       795 1.48515E+05 3.49087E+01 1.36956E+02-6.96035E+01-8.37964E-10 1.31742E-09
 -1       796 1.48494E+05-2.57442E+01 1.77284E+02-1.29055E+01 1.74764E-10 6.80977E-09
 -1       797 1.48588E+05 1.85949E+02 3.94984E+02-9.95073E+01 8.09285E-10 1.26329E-09
 -1       798 1.48429E+05-1.60053E+02 6.16018E+02 4.82665E+00-1.72172E-10-4.56737E-10
 -1       799 1.49048E+05 1.18141E+03 1.67280E+03-1.44908E+02 1.08758E-09-1.07302E-08
 -1       800 1.48034E+05-1.02042E+03 2.36095E+03 3.24958E+01 3.55138E-11-3.65617E-09
 -1       801 5.55663E+04-1.99023E+06-1.80287E+05 3.49436E+04 1.53304E-08-1.10767E-08
 -1       802-6.27923E+04-1.82787E+06-7.43932E+04-5.86566E+04 4.13511E-08-6.55871E-09
 -1       803 6.39074E+03-1.90308E+06-1.53163E+04 9.12511E+04 3.18141E-08 2.19312E-08
 -1       804 4.57692E+04-1.77727E+06 6.84251E+04-3.64449E+04 3.40951E-08 3.12740E-08
 -1       805-5.37532E+04-2.04025E+06 6.61515E+04 1.27244E+04 1.27184E-08 1.97767E-08
 -1       806-2.30600E+05-4.57585E+04-1.77878E+04-9.23828E+04 1.80125E-09 1.11613E-08
 -1       807-2.31961E+05-4.28950E+04-8.73887E+03-9.67366E+04 1.72145E-09 6.23004E-09
 -1       808-2.31086E+05-3.93506E+04-3.70717E+03-9.54186E+04-4.62478E-09-7.62407E-09
 -1       809-2.30116E+05-4.04478E+04-1.81258E+03-9.69627E+04 1.67961E-09 3.82829E-09
 -1       810-2.31162E+05-3.91262E+04-8.30349E+02-9.55531E+04-7.13953E-09 4.09864E-09
 -1       811-2.29975E+05-4.03498E+04-4.12437E+02-9.69379E+04-1.69293E-08 6.99674E-09
 -1       812-2.31175E+05-3.91441E+04-2.07258E+02-9.55529E+04-1.05479E-08-4.89308E-10
 -1       813-2.29956E+05-4.03516E+04-1.32926E+02-9.69253E+04-7.99992E-09-1.89029E-08
 -1       814-2.31171E+05-3.91507E+04-1.28478E+02-9.55502E+04-3.05499E-09-9.91758E-09
 -1       815-2.29959E+05-4.03534E+04-2.04590E+02-9.69215E+04 7.91260E-10-3.47245E-09
 -1       816-2.31158E+05-3.91491E+04-3.85775E+02-9.55479E+04-1.03591E-09 2.73076E-09
 -1       817-2.30026E+05-4.03902E+04-8.27864E+02-9.69148E+04-2.18324E-09-1.84627E-10
 -1       818-2.31110E+05-3.92647E+04-1.68784E+03-9.54930E+04 3.22780E-09 8.15453E-09
 -1       819-2.30952E+05-4.14091E+04-3.97225E+03-9.66970E+04 5.67979E-10 5.45811E-09
 -1       820-2.30795E+05-4.22618E+04-8.08447E+03-9.42069E+04-4.94765E-10 8.86166E-09
 -1       821-2.85855E+05 1.58625E+04-3.66846E+04 2.42487E+02 1.04358E-09 3.73802E-09
 -1       822-3.01751E+05-1.83635E+04-2.59595E+04-8.94428E+02-1.72958E-09-6.79574E-09
 -1       823-2.91989E+05 2.48712E+03-9.50122E+03 2.39419E+02-1.94964E-10 2.73258E-09
 -1       824-2.94592E+05-2.87840E+03-5.97724E+03-7.25464E+02-2.62656E-10 4.92457E-09
 -1       825-2.93012E+05 3.89065E+02-2.45876E+03 7.35196E+01-1.55280E-09 1.67995E-09
 -1       826-2.93397E+05-4.58588E+02-1.48049E+03-3.03394E+02-3.35893E-09 5.57998E-09
 -1       827-2.93182E+05 6.86859E+01-7.71338E+02-1.82658E+02-3.32453E-09-5.30304E-09
 -1       828-2.93238E+05-1.40078E+02-6.78208E+02 1.89637E+02-4.80557E-09-3.27409E-09
 -1       829-2.93171E+05 7.08610E+01-7.85407E+02-4.19520E+02 7.24008E-11-3.93450E-09
 -1       830-2.93431E+05-4.74185E+02-1.53205E+03 5.42489E+02 2.04774E-09-1.20775E-09
 -1       831-2.92990E+05 4.02985E+02-2.53955E+03-5.35517E+02-2.87904E-09 7.24924E-09
 -1       832-2.94655E+05-2.97874E+03-6.18871E+03 6.04444E+02-7.26800E-10-6.85793E-09
 -1       833-2.91949E+05 2.57371E+03-9.83570E+03-4.81475E+02-1.48455E-09-2.33695E-09
 -1       834-3.02034E+05-1.90075E+04-2.68690E+04 3.49375E+02-6.05160E-10 1.81308E-09
 -1       835-2.85612E+05 1.64190E+04-3.79792E+04-2.80437E+02 4.03494E-09 1.48793E-09
 -1       836-9.69365E+02 2.71688E+05 1.64248E+04-1.86081E+04 5.89353E-10 2.44881E-09
 -1       837 3.59378E+03 2.76787E+05 1.40510E+04-3.73872E+04 1.19712E-09-7.34553E-09
 -1       838-3.66062E+02 2.73100E+05 1.45296E+04-1.85403E+04 1.07320E-09-7.76026E-10
 -1       839 9.32049E+03 2.81056E+05 2.76952E+04-3.74203E+04 1.47520E-09 4.14816E-09
 -1       840-2.81654E+03 2.67380E+05 4.42537E+04-1.85738E+04 9.98625E-10 5.05270E-09
 -1       856-7.83305E+04 7.39868E+03-1.94978E+04-4.26555E+02-2.13231E-09 6.66296E-09
 -1       857-8.63822E+04-8.67875E+03-1.34235E+04 4.57028E+03-1.34767E-09-9.73751E-09
 -1       858-8.15123E+04 1.03670E+03-5.06006E+03-4.47632E+02-3.46216E-09 4.50063E-09
 -1       859-8.27288E+04-1.20615E+03-3.05558E+03 4.60370E+03 6.60521E-10 1.30154E-08
 -1       860-8.19879E+04 1.44224E+02-1.28399E+03-4.60080E+02 2.17540E-09-1.11423E-08
 -1       861-8.21812E+04-1.59772E+02-7.13495E+02 4.62075E+03-4.39780E-09 2.58683E-09
 -1       862-8.20620E+04 1.90483E+01-3.10932E+02-4.64704E+02 5.48795E-09-2.12545E-09
 -1       863-8.20929E+04-1.10629E+01-1.45822E+02 4.62290E+03 9.76992E-09-1.40687E-08
 -1       864-8.20764E+04-1.19603E+00-2.97591E+01-4.62239E+02 5.80074E-09-5.48044E-09
 -1       865-8.20618E+04 3.13013E+01 7.22235E+01 4.61033E+03 1.11686E-09 3.53493E-09
 -1       866-8.20915E+04-2.37237E+01 1.83142E+02-4.52134E+02-2.56762E-09-2.30600E-10
 -1       867-8.19655E+04 1.98086E+02 4.75052E+02 4.58287E+03-1.45789E-09-8.09908E-09
 -1       868-8.21694E+04-1.66119E+02 7.95081E+02-4.34777E+02 6.36078E-10-5.19844E-09
 -1       869-8.13750E+04 1.38019E+03 2.12618E+03 4.53738E+03-3.28845E-09-9.63814E-09
 -1       870-8.26766E+04-1.17540E+03 3.08412E+03-4.06644E+02 1.81706E-09-8.93510E-09
 -1       871-4.30476E+03-9.84246E+03-1.40695E+04 9.30120E+04 8.15817E-10-3.91083E-11
 -1       872-1.84273E+03-1.30069E+04-5.76002E+03 1.20587E+05 1.04205E-09 8.99854E-09
 -1       873-1.40073E+01-1.15272E+04 7.55568E+02 9.28080E+04 1.00772E-09 9.18567E-09
 -1       874 2.16516E+03-9.52327E+03 7.83130E+03 1.20627E+05 2.64367E-09 1.43194E-08
 -1       875 5.06605E+03-1.33853E+04 1.74098E+04 9.29792E+04 1.43882E-09-2.32285E-09
 -1       876 2.26699E+05 3.89017E+04 1.20013E+04 9.17911E+04-3.24133E-09-3.73984E-09
 -1       877 2.27411E+05 4.15111E+04 6.40903E+03 9.53127E+04-4.77303E-09-6.45321E-09
 -1       878 2.27820E+05 3.75738E+04 2.68508E+03 9.27768E+04 1.68143E-09-6.09361E-10
 -1       879 2.25778E+05 3.98847E+04 1.33765E+03 9.53966E+04 2.10071E-09-7.43285E-09
 -1       880 2.27902E+05 3.75593E+04 6.22843E+02 9.28170E+04 2.06865E-09-7.83155E-09
 -1       881 2.25670E+05 3.98155E+04 3.31983E+02 9.53792E+04 3.37320E-09 1.03562E-08
 -1       882 2.27910E+05 3.75693E+04 2.11317E+02 9.28181E+04 5.11523E-09 7.96794E-09
 -1       883 2.25662E+05 3.98122E+04 2.25446E+02 9.53740E+04-3.83181E-10 2.98559E-09
 -1       884 2.27905E+05 3.75669E+04 3.57065E+02 9.28183E+04 1.02284E-09 6.57917E-09
 -1       885 2.25690E+05 3.98172E+04 7.16922E+02 9.53829E+04 5.35638E-09 3.52748E-09
 -1       886 2.27877E+05 3.75459E+04 1.44447E+03 9.28154E+04 6.50846E-09-2.49770E-10
 -1       887 2.25944E+05 3.99836E+04 3.15509E+03 9.54195E+04 3.55445E-09-9.83755E-09
 -1       888 2.27678E+05 3.75810E+04 6.35756E+03 9.27144E+04 3.13679E-09 3.50292E-09
 -1       889 2.29732E+05 4.39174E+04 1.51876E+04 9.53004E+04 2.69665E-10-4.33533E-09
 -1       890 2.25088E+05 4.06579E+04 2.84453E+04 9.02890E+04 3.01725E-09 2.25555E-10
 -1       891-1.34858E+02-1.28138E+05-1.52720E+03 2.37416E+04 1.41483E-09 4.78758E-09
 -1       892-2.36084E+02-1.28507E+05-1.65572E+03 3.59369E+04-1.51658E-10 1.54614E-09
 -1       893-3.36748E+01-1.28185E+05-2.36036E+03 2.37465E+04 1.63050E-09 4.92992E-09
 -1       894-1.27978E+03-1.29407E+05-4.89668E+03 3.58083E+04-1.15506E-09 1.50449E-08
 -1       895-1.00247E+03-1.27165E+05-8.62761E+03 2.38686E+04 1.93091E-09 8.62747E-09
 -1       956-2.86385E+05-4.06173E+03-1.02130E+04 1.93382E+04-3.16504E-09 8.01458E-09
 -1       957-2.88401E+05-1.37353E+03-5.24285E+03 2.32894E+04-1.89175E-09-8.64065E-09
 -1       958-2.87292E+05-1.12881E+02-2.36211E+03 1.92175E+04-3.76258E-09-6.48311E-09
 -1       959-2.87453E+05-2.27788E+01-1.20651E+03 2.34210E+04-8.30005E-09 5.98038E-09
 -1       960-2.87374E+05 3.09646E+01-5.88206E+02 1.92058E+04-6.15182E-09-4.79758E-10
 -1       961-2.87384E+05 2.86526E+01-3.12085E+02 2.34343E+04-6.64659E-09 6.98719E-10
 -1       962-2.87391E+05 2.72459E+01-1.78673E+02 1.92040E+04-3.04613E-09 9.58016E-09
 -1       963-2.87382E+05 3.01629E+01-1.43482E+02 2.34367E+04-1.91449E-09 1.30260E-08
 -1       964-2.87395E+05 2.93339E+01-1.74275E+02 1.92034E+04-5.34897E-11 9.35052E-09
 -1       965-2.87392E+05 3.31484E+01-3.01230E+02 2.34366E+04 2.00771E-10 3.56567E-09
 -1       966-2.87385E+05 3.71563E+01-5.65546E+02 1.92041E+04-2.10002E-09 5.78416E-09
 -1       967-2.87466E+05-1.19039E+01-1.15997E+03 2.34287E+04-1.58502E-09-4.74984E-10
 -1       968-2.87313E+05-9.69877E+01-2.27012E+03 1.92114E+04-1.22873E-09-3.54873E-09
 -1       969-2.88385E+05-1.30670E+03-5.04029E+03 2.33434E+04 3.05863E-09-7.68617E-09
 -1       970-2.86446E+05-3.89069E+03-9.81759E+03 1.92913E+04 2.15095E-10 5.43332E-09
 -1       971-2.69716E+05-1.40739E+03-7.80558E+03 1.28940E+04-3.86763E-09-6.00551E-11
 -1       972-2.71613E+05-1.01055E+03-4.25088E+03 1.79980E+04-1.92813E-09 2.07160E-09
 -1       973-2.70584E+05-1.21631E+01-1.90353E+03 1.27867E+04 1.25692E-09 1.59275E-09
 -1       974-2.70715E+05-1.28552E+01-9.86197E+02 1.81144E+04-1.49180E-09 1.88618E-09
 -1       975-2.70652E+05 2.45664E+01-4.92032E+02 1.27768E+04 5.48425E-10 2.75986E-09
 -1       976-2.70662E+05 2.81896E+01-2.82201E+02 1.81265E+04 9.92941E-10-3.65935E-09
 -1       977-2.70665E+05 2.45001E+01-2.01829E+02 1.27744E+04 2.59433E-10 4.26530E-09
 -1       978-2.70665E+05 3.28549E+01-2.32117E+02 1.81298E+04 5.65217E-09-9.89223E-09
 -1       979-2.70665E+05 3.08443E+01-3.69437E+02 1.27734E+04 3.90872E-09 1.80478E-09
 -1       980-2.70692E+05 3.51586E+01-7.11143E+02 1.81304E+04 4.59414E-09 3.19596E-09
 -1       981-2.70642E+05 4.85620E+01-1.37616E+03 1.27739E+04-3.42823E-09 6.15881E-09
 -1       982-2.70881E+05-6.64341E+01-2.84385E+03 1.81249E+04-9.78980E-09-1.07216E-08
 -1       983-2.70469E+05-3.94248E+01-5.52527E+03 1.27791E+04 5.26484E-09-1.39403E-09
 -1       984-2.73539E+05-2.95186E+03-1.23731E+04 1.80520E+04 7.54653E-09 1.57189E-08
 -1       985-2.67968E+05-4.08241E+03-2.27209E+04 1.28511E+04 8.23775E-09 6.57747E-09
 -3
    1PSTEP                        15           8           1          
  100CL  108 5.53406E-01         409                     0    8           1
 -4  DISP        4    1
 -5  D1          1    2    1    0
 -5  D2          1    2    2    0
 -5  D3          1    2    3    0
 -5  ALL         1    2    0    0    1ALL
 -1         1 2.19022E-04 0.00000E+00 0.00000E+00
 -1         2 1.94457E-04-1.49139E-31 0.00000E+00
 -1         3 1.79368E-04 9.19879E-28 0.00000E+00
 -1         5 1.14191E-04-5.63500E-27-3.30872E-24
 -1         8 1.93768E-04-8.48357E-07 0.00000E+00
 -1         9 1.85217E-04-1.02695E-06 0.00000E+00
 -1        10 1.64701E-04-2.41400E-06 0.00000E+00
 -1        12 1.14047E-04 6.05974E-07 0.00000E+00
 -1        15 1.63616E-04-9.44956E-07-4.13590E-25
 -1        16 1.69382E-04-1.26569E-06 0.00000E+00
 -1        17 1.18489E-04-5.17021E-06 0.00000E+00
 -1        18 1.12399E-04 6.56456E-06 0.00000E+00
 -1        19 1.13614E-04 1.20887E-06 0.00000E+00
 -1        20 1.13761E-04 1.18600E-05 0.00000E+00
 -1        21 1.13137E-04 2.09724E-05 0.00000E+00
 -1        24 2.32047E-05-7.25227E-06 0.00000E+00
 -1        25 1.13115E-04 6.70603E-06 0.00000E+00
 -1        26 1.13885E-04 1.67752E-06 0.00000E+00
 -1        27 1.12219E-04 9.10424E-06 0.00000E+00
 -1        28 1.11767E-04 2.04574E-05 0.00000E+00
 -1        32 0.00000E+00 0.00000E+00 0.00000E+00
 -1        33 1.13007E-04 2.25068E-06 0.00000E+00
 -1        34 1.11350E-04 9.07751E-06 0.00000E+00
 -1        35 1.09794E-04 2.01827E-05 0.00000E+00
 -1        51 2.17385E-04-1.41866E-07 0.00000E+00
 -1        52 2.14345E-04-2.77120E-07 0.00000E+00
 -1        53 2.10178E-04-4.13432E-07 0.00000E+00
 -1        54 2.05168E-04-5.52562E-07-3.30872E-24
 -1        55 1.99603E-04-6.95454E-07 6.20385E-24
 -1        56 2.17274E-04-8.39935E-07 0.00000E+00
 -1        57 2.15567E-04-1.99079E-06 0.00000E+00
 -1        58 2.13936E-04-3.33022E-06 0.00000E+00
 -1        59 2.12325E-04-4.75865E-06 0.00000E+00
 -1        60 2.10703E-04-6.15926E-06 0.00000E+00
 -1        61 2.09027E-04-7.42116E-06-2.64698E-23
 -1        62 2.07262E-04-8.44487E-06 0.00000E+00
 -1        63 2.05373E-04-9.14207E-06-2.64698E-23
 -1        64 2.03340E-04-9.45322E-06 0.00000E+00
 -1        65 2.01146E-04-9.33564E-06 0.00000E+00
 -1        66 1.98790E-04-8.78486E-06 0.00000E+00
 -1        67 1.96277E-04-7.81483E-06 2.64698E-23
 -1        68 1.93626E-04-6.47763E-06 0.00000E+00
 -1        69 1.90872E-04-4.83756E-06 0.00000E+00
 -1        70 1.88037E-04-2.99344E-06 0.00000E+00
 -1        86 1.94166E-04-1.65266E-07 0.00000E+00
 -1        87 1.93295E-04-3.31359E-07 0.00000E+00
 -1        88 1.91894E-04-4.98098E-07-6.61744E-24
 -1        89 1.90018E-04-6.68751E-07 3.30872E-24
 -1        90 1.87760E-04-8.39084E-07 0.00000E+00
 -1       121 1.78957E-04-3.98469E-07 1.32349E-23
 -1       122 1.77727E-04-7.97592E-07 6.61744E-24
 -1       123 1.75679E-04-1.19801E-06-1.32349E-23
 -1       124 1.72820E-04-1.60044E-06 6.61744E-24
 -1       125 1.69157E-04-2.00535E-06 0.00000E+00
 -1       191 1.14187E-04 1.01000E-07 0.00000E+00
 -1       192 1.14175E-04 2.01998E-07 1.65436E-24
 -1       193 1.14155E-04 3.02996E-07 0.00000E+00
 -1       194 1.14127E-04 4.03993E-07 0.00000E+00
 -1       195 1.14091E-04 5.04986E-07 3.30872E-24
 -1       251 1.93242E-04 5.12100E-06 1.32349E-23
 -1       252 1.92697E-04 1.29003E-05 0.00000E+00
 -1       253 1.92147E-04 2.13646E-05 0.00000E+00
 -1       254 1.91599E-04 2.93742E-05 0.00000E+00
 -1       255 1.91061E-04 3.59025E-05 0.00000E+00
 -1       256 1.90535E-04 3.99547E-05-6.61744E-24
 -1       257 1.90016E-04 4.11508E-05 0.00000E+00
 -1       258 1.89496E-04 3.91714E-05 6.61744E-24
 -1       259 1.88968E-04 3.44857E-05 0.00000E+00
 -1       260 1.88427E-04 2.76205E-05-6.61744E-24
 -1       261 1.87879E-04 1.96439E-05 0.00000E+00
 -1       262 1.87330E-04 1.16475E-05 6.61744E-24
 -1       263 1.86789E-04 4.72784E-06 1.32349E-23
 -1       264 1.86260E-04-4.11013E-08-6.61744E-24
 -1       265 1.85739E-04-2.12019E-06 0.00000E+00
 -1       266 1.88743E-04-8.76377E-07 6.61744E-24
 -1       267 1.83718E-04-8.91024E-07 0.00000E+00
 -1       268 1.78692E-04-9.06518E-07 0.00000E+00
 -1       269 1.73667E-04-9.19503E-07-4.13590E-25
 -1       270 1.68641E-04-9.32429E-07 4.13590E-25
 -1       271 1.90781E-04 3.13208E-06 2.64698E-23
 -1       272 1.88149E-04 6.04773E-06 1.32349E-23
 -1       273 1.85889E-04 7.98536E-06-5.29396E-23
 -1       274 1.83958E-04 9.02907E-06-2.64698E-23
 -1       275 1.82323E-04 9.28419E-06 0.00000E+00
 -1       276 1.80939E-04 8.86697E-06 0.00000E+00
 -1       277 1.79759E-04 7.90635E-06 5.29396E-23
 -1       278 1.78731E-04 6.54016E-06 0.00000E+00
 -1       279 1.77800E-04 4.91363E-06 5.29396E-23
 -1       280 1.76910E-04 3.17642E-06-2.64698E-23
 -1       281 1.76005E-04 1.48009E-06-5.29396E-23
 -1       282 1.75029E-04-2.43792E-08 0.00000E+00
 -1       283 1.73927E-04-1.18968E-06 5.29396E-23
 -1       284 1.72649E-04-1.87270E-06 0.00000E+00
 -1       285 1.71140E-04-1.94239E-06 0.00000E+00
 -1       301 1.82325E-04-1.08248E-06 6.61744E-24
 -1       302 1.79371E-04-1.11423E-06 3.30872E-24
 -1       303 1.76478E-04-1.14448E-06 6.61744E-24
 -1       304 1.73768E-04-1.17479E-06 0.00000E+00
 -1       305 1.71362E-04-1.20636E-06 0.00000E+00
 -1       306 1.86968E-04-1.31207E-05 0.00000E+00
 -1       307 1.98059E-04-5.22573E-05 0.00000E+00
 -1       308 2.15800E-04-1.11838E-04 5.29396E-23
 -1       309 2.37284E-04-1.83681E-04 0.00000E+00
 -1       310 2.59148E-04-2.56780E-04-5.29396E-23
 -1       311 2.78015E-04-3.20030E-04-2.64698E-23
 -1       312 2.90896E-04-3.64605E-04 0.00000E+00
 -1       313 2.94871E-04-3.83144E-04 2.64698E-23
 -1       314 2.88626E-04-3.74138E-04 0.00000E+00
 -1       315 2.71539E-04-3.38098E-04 0.00000E+00
 -1       316 2.45633E-04-2.81372E-04 5.29396E-23
 -1       317 2.13915E-04-2.11658E-04 0.00000E+00
 -1       318 1.81033E-04-1.39382E-04 0.00000E+00
 -1       319 1.51804E-04-7.51165E-05 2.64698E-23
 -1       320 1.29968E-04-2.77836E-05 5.29396E-23
 -1       336 1.59358E-04-2.85832E-06 0.00000E+00
 -1       337 1.53041E-04-3.30866E-06 6.61744E-24
 -1       338 1.45769E-04-3.76508E-06 0.00000E+00
 -1       339 1.37567E-04-4.22766E-06 6.61744E-24
 -1       340 1.28463E-04-4.69780E-06 0.00000E+00
 -1       406 1.13995E-04 7.06949E-07 0.00000E+00
 -1       407 1.13935E-04 8.07892E-07 0.00000E+00
 -1       408 1.13867E-04 9.08775E-07 0.00000E+00
 -1       409 1.13790E-04 1.00948E-06 1.65436E-24
 -1       410 1.13706E-04 1.10981E-06 3.30872E-24
 -1       521 1.75567E-04-2.80888E-05 0.00000E+00
 -1       522 1.98559E-04-1.07769E-04-5.29396E-23
 -1       523 2.32539E-04-2.27247E-04 1.05879E-22
 -1       524 2.72044E-04-3.69677E-04-5.29396E-23
 -1       525 3.11739E-04-5.12917E-04 0.00000E+00
 -1       526 3.46293E-04-6.34742E-04 5.29396E-23
 -1       527 3.70279E-04-7.17898E-04 0.00000E+00
 -1       528 3.77767E-04-7.48811E-04 0.00000E+00
 -1       529 3.64985E-04-7.25325E-04 0.00000E+00
 -1       530 3.29826E-04-6.50047E-04-5.29396E-23
 -1       531 2.75971E-04-5.35993E-04-1.05879E-22
 -1       532 2.10006E-04-3.98868E-04 0.00000E+00
 -1       533 1.42426E-04-2.58728E-04 0.00000E+00
 -1       534 8.40263E-05-1.35787E-04 0.00000E+00
 -1       535 4.25815E-05-4.70672E-05 0.00000E+00
 -1       536 1.18310E-04 1.10207E-05 6.61744E-24
 -1       537 1.17899E-04 3.87837E-05 0.00000E+00
 -1       538 1.17274E-04 7.37865E-05 0.00000E+00
 -1       539 1.16550E-04 1.11690E-04 0.00000E+00
 -1       540 1.15906E-04 1.47227E-04 0.00000E+00
 -1       541 1.15497E-04 1.75132E-04 4.13590E-25
 -1       542 1.15312E-04 1.92388E-04-8.27181E-25
 -1       543 1.15264E-04 1.95997E-04 4.13590E-25
 -1       544 1.15181E-04 1.86465E-04 0.00000E+00
 -1       545 1.14905E-04 1.64326E-04-4.13590E-25
 -1       546 1.14413E-04 1.33451E-04 0.00000E+00
 -1       547 1.13765E-04 9.77293E-05 0.00000E+00
 -1       548 1.13135E-04 6.25245E-05-8.27181E-25
 -1       549 1.12688E-04 3.32031E-05-2.06795E-25
 -1       550 1.12459E-04 1.33575E-05 0.00000E+00
 -1       551 1.05732E-04-5.47276E-06 0.00000E+00
 -1       552 9.06927E-05-5.79966E-06 0.00000E+00
 -1       553 7.41408E-05-6.14785E-06-3.30872E-24
 -1       554 5.68562E-05-6.50962E-06-6.61744E-24
 -1       555 3.96191E-05-6.87343E-06 2.64698E-23
 -1       556 1.14980E-04 3.88067E-06 0.00000E+00
 -1       557 1.12234E-04 1.09822E-05 0.00000E+00
 -1       558 1.10171E-04 1.63024E-05 0.00000E+00
 -1       559 1.08717E-04 2.00236E-05 0.00000E+00
 -1       560 1.07800E-04 2.23277E-05 0.00000E+00
 -1       561 1.07349E-04 2.33978E-05 0.00000E+00
 -1       562 1.07293E-04 2.34174E-05 0.00000E+00
 -1       563 1.07563E-04 2.25704E-05 0.00000E+00
 -1       564 1.08087E-04 2.10409E-05 0.00000E+00
 -1       565 1.08798E-04 1.90131E-05-3.30872E-24
 -1       566 1.09626E-04 1.66713E-05 3.30872E-24
 -1       567 1.10502E-04 1.42002E-05 2.06795E-25
 -1       568 1.11358E-04 1.17842E-05-1.65436E-24
 -1       569 1.12124E-04 9.60753E-06 0.00000E+00
 -1       570 1.12732E-04 7.85458E-06 0.00000E+00
 -1       571 1.12473E-04 6.23111E-06-4.13590E-25
 -1       572 1.12548E-04 5.85290E-06 4.13590E-25
 -1       573 1.12624E-04 5.43909E-06-8.27181E-25
 -1       574 1.12700E-04 4.99926E-06 0.00000E+00
 -1       575 1.12776E-04 4.54303E-06 0.00000E+00
 -1       576 1.12852E-04 4.08007E-06 0.00000E+00
 -1       577 1.12928E-04 3.62005E-06 3.30872E-24
 -1       578 1.13005E-04 3.17269E-06 0.00000E+00
 -1       579 1.13081E-04 2.74765E-06 0.00000E+00
 -1       580 1.13157E-04 2.35463E-06 0.00000E+00
 -1       581 1.13233E-04 2.00332E-06 0.00000E+00
 -1       582 1.13310E-04 1.70339E-06 0.00000E+00
 -1       583 1.13386E-04 1.46453E-06 0.00000E+00
 -1       584 1.13462E-04 1.29628E-06 3.30872E-24
 -1       585 1.13538E-04 1.20815E-06-6.61744E-24
 -1       586 1.12472E-04 6.58980E-06 8.27181E-25
 -1       587 1.12520E-04 6.61438E-06 2.06795E-25
 -1       588 1.12576E-04 6.63866E-06-8.27181E-25
 -1       589 1.12672E-04 6.66248E-06 0.00000E+00
 -1       590 1.12841E-04 6.68553E-06 0.00000E+00
 -1       591 1.12488E-04 6.27753E-06 0.00000E+00
 -1       592 1.12584E-04 5.96214E-06 4.13590E-25
 -1       593 1.12689E-04 5.62455E-06 0.00000E+00
 -1       594 1.12800E-04 5.27013E-06 0.00000E+00
 -1       595 1.12915E-04 4.90435E-06 8.27181E-25
 -1       596 1.13032E-04 4.53262E-06 2.06795E-25
 -1       597 1.13149E-04 4.16034E-06 0.00000E+00
 -1       598 1.13264E-04 3.79292E-06 0.00000E+00
 -1       599 1.13376E-04 3.43575E-06 4.13590E-25
 -1       600 1.13482E-04 3.09424E-06 0.00000E+00
 -1       601 1.13580E-04 2.77378E-06 0.00000E+00
 -1       602 1.13668E-04 2.47979E-06 0.00000E+00
 -1       603 1.13744E-04 2.21766E-06 4.13590E-25
 -1       604 1.13806E-04 1.99286E-06 1.03398E-25
 -1       605 1.13853E-04 1.81075E-06 0.00000E+00
 -1       606 1.13627E-04 1.37757E-06 0.00000E+00
 -1       607 1.13637E-04 1.64174E-06 0.00000E+00
 -1       608 1.13647E-04 1.99576E-06 3.30872E-24
 -1       609 1.13656E-04 2.43332E-06 0.00000E+00
 -1       610 1.13665E-04 2.94806E-06 0.00000E+00
 -1       611 1.13674E-04 3.53354E-06 0.00000E+00
 -1       612 1.13683E-04 4.18332E-06 0.00000E+00
 -1       613 1.13692E-04 4.89095E-06 0.00000E+00
 -1       614 1.13701E-04 5.64997E-06 0.00000E+00
 -1       615 1.13709E-04 6.45392E-06-8.27181E-25
 -1       616 1.13718E-04 7.29636E-06 0.00000E+00
 -1       617 1.13727E-04 8.17084E-06 0.00000E+00
 -1       618 1.13735E-04 9.07088E-06 0.00000E+00
 -1       619 1.13744E-04 9.99006E-06 0.00000E+00
 -1       620 1.13752E-04 1.09219E-05 4.13590E-25
 -1       621 1.13561E-04 1.28712E-06 0.00000E+00
 -1       622 1.13562E-04 1.36567E-06 0.00000E+00
 -1       623 1.13605E-04 1.44418E-06-1.65436E-24
 -1       624 1.13681E-04 1.52256E-06-8.27181E-25
 -1       625 1.13778E-04 1.60081E-06 1.65436E-24
 -1       626 1.13638E-04 1.40437E-06-3.30872E-24
 -1       627 1.13634E-04 1.67734E-06 0.00000E+00
 -1       628 1.13603E-04 2.02008E-06-3.30872E-24
 -1       629 1.13550E-04 2.42446E-06 0.00000E+00
 -1       630 1.13476E-04 2.88233E-06-3.30872E-24
 -1       631 1.13386E-04 3.38549E-06-1.65436E-24
 -1       632 1.13281E-04 3.92573E-06 0.00000E+00
 -1       633 1.13166E-04 4.49486E-06-1.65436E-24
 -1       634 1.13043E-04 5.08469E-06 3.30872E-24
 -1       635 1.12915E-04 5.68702E-06 1.65436E-24
 -1       636 1.12786E-04 6.29365E-06 3.30872E-24
 -1       637 1.12658E-04 6.89638E-06 8.27181E-25
 -1       638 1.12535E-04 7.48702E-06 0.00000E+00
 -1       639 1.12419E-04 8.05737E-06 1.65436E-24
 -1       640 1.12313E-04 8.59921E-06 1.65436E-24
 -1       656 1.13039E-04 1.14116E-05 0.00000E+00
 -1       657 1.12698E-04 1.09453E-05 0.00000E+00
 -1       658 1.12597E-04 1.04805E-05-1.32349E-23
 -1       659 1.12594E-04 1.00160E-05 6.61744E-24
 -1       660 1.12523E-04 9.55006E-06 0.00000E+00
 -1       661 1.13494E-04 1.27672E-05-8.27181E-25
 -1       662 1.13255E-04 1.36113E-05 0.00000E+00
 -1       663 1.13038E-04 1.43948E-05 1.65436E-24
 -1       664 1.12843E-04 1.51213E-05-8.27181E-25
 -1       665 1.12668E-04 1.57940E-05-1.65436E-24
 -1       666 1.12513E-04 1.64159E-05 0.00000E+00
 -1       667 1.12375E-04 1.69901E-05-1.65436E-24
 -1       668 1.12254E-04 1.75196E-05 8.27181E-25
 -1       669 1.12149E-04 1.80071E-05-1.65436E-24
 -1       670 1.12059E-04 1.84553E-05 8.27181E-25
 -1       671 1.11982E-04 1.88669E-05 1.65436E-24
 -1       672 1.11919E-04 1.92442E-05-8.27181E-25
 -1       673 1.11867E-04 1.95899E-05 0.00000E+00
 -1       674 1.11825E-04 1.99059E-05 8.27181E-25
 -1       675 1.11793E-04 2.01949E-05 4.13590E-25
 -1       676 1.12908E-04 2.08861E-05 0.00000E+00
 -1       677 1.12679E-04 2.07998E-05 1.65436E-24
 -1       678 1.12450E-04 2.07135E-05 3.30872E-24
 -1       679 1.12222E-04 2.06275E-05-8.27181E-25
 -1       680 1.11994E-04 2.05415E-05-1.65436E-24
 -1       771 1.69875E-05 5.74025E-06 0.00000E+00
 -1       772 1.16641E-05 1.63986E-05-2.64698E-23
 -1       773 7.19395E-06 2.48444E-05-5.29396E-23
 -1       774 3.52047E-06 3.12112E-05 0.00000E+00
 -1       775 5.87637E-07 3.56362E-05 0.00000E+00
 -1       776-1.66291E-06 3.82630E-05 2.64698E-23
 -1       777-3.29007E-06 3.92390E-05 0.00000E+00
 -1       778-4.35412E-06 3.87171E-05 0.00000E+00
 -1       779-4.91562E-06 3.68531E-05 0.00000E+00
 -1       780-5.03627E-06 3.38071E-05 0.00000E+00
 -1       781-4.77787E-06 2.97419E-05-5.29396E-23
 -1       782-4.20310E-06 2.48234E-05-2.64698E-23
 -1       783-3.37464E-06 1.92194E-05 2.64698E-23
 -1       784-2.35580E-06 1.30999E-05 0.00000E+00
 -1       785-1.20980E-06 6.63604E-06 0.00000E+00
 -1       786 1.13160E-04 6.22318E-06 0.00000E+00
 -1       787 1.13207E-04 5.77474E-06 0.00000E+00
 -1       788 1.13255E-04 5.35502E-06 8.27181E-25
 -1       789 1.13303E-04 4.95839E-06-8.27181E-25
 -1       790 1.13352E-04 4.58179E-06 1.65436E-24
 -1       791 1.13400E-04 4.22220E-06 0.00000E+00
 -1       792 1.13448E-04 3.87849E-06 0.00000E+00
 -1       793 1.13497E-04 3.54955E-06 0.00000E+00
 -1       794 1.13545E-04 3.23593E-06 1.65436E-24
 -1       795 1.13594E-04 2.93820E-06 8.27181E-25
 -1       796 1.13642E-04 2.65870E-06 0.00000E+00
 -1       797 1.13691E-04 2.39980E-06 0.00000E+00
 -1       798 1.13739E-04 2.16617E-06-1.65436E-24
 -1       799 1.13788E-04 1.96254E-06-8.27181E-25
 -1       800 1.13836E-04 1.79694E-06-1.65436E-24
 -1       801 1.04844E-04 5.81139E-06 1.32349E-23
 -1       802 7.89846E-05 4.59476E-06 0.00000E+00
 -1       803 4.65710E-05 3.20933E-06 0.00000E+00
 -1       804 1.89056E-05 1.95241E-06 0.00000E+00
 -1       805 1.63563E-06 9.10646E-07 2.64698E-23
 -1       806 1.13208E-04 6.17257E-06 1.65436E-24
 -1       807 1.13290E-04 5.65861E-06-8.27181E-25
 -1       808 1.13362E-04 5.16804E-06-1.65436E-24
 -1       809 1.13425E-04 4.70386E-06 0.00000E+00
 -1       810 1.13476E-04 4.26905E-06-1.65436E-24
 -1       811 1.13515E-04 3.86652E-06-1.65436E-24
 -1       812 1.13541E-04 3.49915E-06 3.30872E-24
 -1       813 1.13553E-04 3.16986E-06 8.27181E-25
 -1       814 1.13549E-04 2.88151E-06-3.30872E-24
 -1       815 1.13529E-04 2.63698E-06 0.00000E+00
 -1       816 1.13492E-04 2.43915E-06-3.30872E-24
 -1       817 1.13436E-04 2.29089E-06 8.27181E-25
 -1       818 1.13360E-04 2.19507E-06 0.00000E+00
 -1       819 1.13264E-04 2.15454E-06 8.27181E-25
 -1       820 1.13146E-04 2.17214E-06 0.00000E+00
 -1       821 1.13787E-04 1.54044E-06 8.27181E-25
 -1       822 1.13683E-04 1.32323E-06 0.00000E+00
 -1       823 1.13579E-04 1.10043E-06 0.00000E+00
 -1       824 1.13474E-04 9.46588E-07 0.00000E+00
 -1       825 1.13369E-04 9.21364E-07 0.00000E+00
 -1       826 1.13264E-04 1.08380E-06 0.00000E+00
 -1       827 1.13158E-04 1.45249E-06 3.30872E-24
 -1       828 1.13053E-04 2.04504E-06 1.65436E-24
 -1       829 1.12948E-04 2.83081E-06 0.00000E+00
 -1       830 1.12842E-04 3.77823E-06-1.65436E-24
 -1       831 1.12736E-04 4.82092E-06 0.00000E+00
 -1       832 1.12631E-04 5.89199E-06-1.65436E-24
 -1       833 1.12525E-04 6.91845E-06 0.00000E+00
 -1       834 1.12421E-04 7.82755E-06 8.27181E-25
 -1       835 1.12317E-04 8.57173E-06 8.27181E-25
 -1       836 1.13898E-04 1.77292E-06 0.00000E+00
 -1       837 1.13802E-04 1.87047E-06 1.65436E-24
 -1       838 1.13633E-04 1.96785E-06-1.65436E-24
 -1       839 1.13421E-04 2.06461E-06 0.00000E+00
 -1       840 1.13202E-04 2.16120E-06-4.13590E-25
 -1       856 1.12194E-04 9.59151E-06 0.00000E+00
 -1       857 1.12167E-04 1.01925E-05 0.00000E+00
 -1       858 1.12139E-04 1.08894E-05 0.00000E+00
 -1       859 1.12110E-04 1.16643E-05 0.00000E+00
 -1       860 1.12082E-04 1.24991E-05 0.00000E+00
 -1       861 1.12053E-04 1.33758E-05-4.13590E-25
 -1       862 1.12025E-04 1.42762E-05 0.00000E+00
 -1       863 1.11996E-04 1.51821E-05 0.00000E+00
 -1       864 1.11967E-04 1.60754E-05 0.00000E+00
 -1       865 1.11939E-04 1.69380E-05 4.13590E-25
 -1       866 1.11910E-04 1.77517E-05 0.00000E+00
 -1       867 1.11881E-04 1.84984E-05-4.13590E-25
 -1       868 1.11853E-04 1.91602E-05 0.00000E+00
 -1       869 1.11824E-04 1.97191E-05-4.13590E-25
 -1       870 1.11796E-04 2.01574E-05 8.27181E-25
 -1       871 1.11955E-04 9.10303E-06 4.13590E-25
 -1       872 1.11806E-04 9.09941E-06 0.00000E+00
 -1       873 1.11721E-04 9.09536E-06 0.00000E+00
 -1       874 1.11651E-04 9.09074E-06-5.16988E-26
 -1       875 1.11544E-04 9.08559E-06 2.06795E-25
 -1       876 1.12139E-04 9.60195E-06 0.00000E+00
 -1       877 1.12040E-04 1.01550E-05 0.00000E+00
 -1       878 1.11923E-04 1.07567E-05-3.30872E-24
 -1       879 1.11790E-04 1.14008E-05 0.00000E+00
 -1       880 1.11644E-04 1.20812E-05 0.00000E+00
 -1       881 1.11486E-04 1.27915E-05 0.00000E+00
 -1       882 1.11320E-04 1.35257E-05 3.30872E-24
 -1       883 1.11147E-04 1.42775E-05 0.00000E+00
 -1       884 1.10970E-04 1.50407E-05 3.30872E-24
 -1       885 1.10790E-04 1.58093E-05 1.65436E-24
 -1       886 1.10611E-04 1.65769E-05 0.00000E+00
 -1       887 1.10435E-04 1.73374E-05-1.65436E-24
 -1       888 1.10263E-04 1.80847E-05 3.30872E-24
 -1       889 1.10098E-04 1.88123E-05 8.27181E-25
 -1       890 1.09943E-04 1.95143E-05 8.27181E-25
 -1       891 1.11561E-04 2.04115E-05-1.65436E-24
 -1       892 1.11335E-04 2.03653E-05-8.27181E-25
 -1       893 1.11068E-04 2.03192E-05 8.27181E-25
 -1       894 1.10737E-04 2.02732E-05-2.06795E-25
 -1       895 1.10320E-04 2.02273E-05-8.27181E-25
 -1       956 1.12905E-04 2.45590E-06-1.65436E-24
 -1       957 1.12802E-04 2.72557E-06 0.00000E+00
 -1       958 1.12698E-04 3.05258E-06 0.00000E+00
 -1       959 1.12594E-04 3.42938E-06-1.65436E-24
 -1       960 1.12490E-04 3.84845E-06 0.00000E+00
 -1       961 1.12386E-04 4.30220E-06-1.65436E-24
 -1       962 1.12282E-04 4.78304E-06 3.30872E-24
 -1       963 1.12178E-04 5.28339E-06 0.00000E+00
 -1       964 1.12074E-04 5.79564E-06 0.00000E+00
 -1       965 1.11970E-04 6.31220E-06 0.00000E+00
 -1       966 1.11866E-04 6.82549E-06 3.30872E-24
 -1       967 1.11763E-04 7.32790E-06 0.00000E+00
 -1       968 1.11659E-04 7.81184E-06 3.30872E-24
 -1       969 1.11555E-04 8.26974E-06 0.00000E+00
 -1       970 1.11452E-04 8.69406E-06 3.30872E-24
 -1       971 1.11254E-04 9.47750E-06 0.00000E+00
 -1       972 1.11156E-04 9.96136E-06 0.00000E+00
 -1       973 1.11059E-04 1.05198E-05 3.30872E-24
 -1       974 1.10961E-04 1.11433E-05 0.00000E+00
 -1       975 1.10863E-04 1.18221E-05-3.30872E-24
 -1       976 1.10766E-04 1.25466E-05 1.65436E-24
 -1       977 1.10668E-04 1.33072E-05 0.00000E+00
 -1       978 1.10570E-04 1.40943E-05 1.65436E-24
 -1       979 1.10472E-04 1.48981E-05-3.30872E-24
 -1       980 1.10374E-04 1.57090E-05 1.65436E-24
 -1       981 1.10276E-04 1.65174E-05 3.30872E-24
 -1       982 1.10179E-04 1.73135E-05 1.65436E-24
 -1       983 1.10081E-04 1.80877E-05 0.00000E+00
 -1       984 1.09984E-04 1.88304E-05 0.00000E+00
 -1       985 1.09887E-04 1.95318E-05-1.65436E-24
 -3
    1PSTEP                        16           8           1          
  100CL  108 5.53406E-01         409                     0    8           1
 -4  STRESS      6    1
 -5  SXX         1    4    1    1
 -5  SYY         1    4    2    2
 -5  SZZ         1    4    3    3
 -5  SXY         1    4    1    2
 -5  SYZ         1    4    2    3
 -5  SZX         1    4    3    1
 -1         1-2.42321E+06-1.01670E+06-5.15420E+05-1.28472E+06 1.45519E-10 2.28611E-08
 -1         2 2.49473E+03-4.69314E+05 8.10813E+03-1.16933E+03-5.76108E-11 1.57952E-08
 -1         3-2.99469E+02-1.13688E+06 2.74147E+02-7.37652E+02-3.94248E-10-3.45426E-08
 -1         5-1.21827E+00 2.88984E+05 7.34100E+00 5.53152E-02-4.48683E-12-1.34492E-09
 -1         8-1.15354E+06-4.08031E+05-1.23413E+05-5.40330E+05 4.29281E-10-1.05065E-08
 -1         9-2.19904E+06-8.25266E+05-2.80834E+05-7.60357E+05 7.37200E-09-5.22705E-09
 -1        10-1.04819E+03-1.18442E+06-1.68281E+03-4.99173E+03-6.29734E-09-2.48035E-08
 -1        12 1.79478E+00 2.88999E+05 2.37649E+02 4.31770E-01 2.15898E-11-8.80937E-09
 -1        15 1.97510E+03 1.08544E+03 6.38449E+03 4.29221E+00-9.31095E-11 6.51738E-09
 -1        16-2.40201E+06-1.22707E+06-3.97363E+05-1.33024E+06 1.00893E-08 2.11100E-08
 -1        17-1.21457E+06-6.53892E+05-2.17141E+05-5.79495E+05-8.45175E-09 6.76373E-09
 -1        18 5.56583E+04 8.77273E+03-9.18392E+03-7.23702E+04 7.46775E-09 1.25738E-09
 -1        19 9.29010E+04 1.07428E+05-7.14337E+02 1.83906E+04-2.89583E-10 7.64121E-09
 -1        20-4.63173E+04-4.39969E+05-9.75753E+04 2.84755E+04 4.51989E-09 1.76381E-09
 -1        21-3.99859E+01-2.47097E+05-7.90234E+02-3.88112E+01-3.27549E-09-5.92987E-09
 -1        24-2.88250E+06-6.28145E+05-2.90693E+05-9.77444E+05-4.50333E-08-2.06249E-08
 -1        25-9.18065E+04-5.08479E+05-1.01236E+05-1.20248E+05 1.12414E-10 2.22080E-09
 -1        26-3.28251E+04 7.06313E+04-1.74594E+04-5.60337E+03 1.51595E-09 5.10641E-09
 -1        27-6.52613E+04-2.39772E+05-8.92884E+04 5.42078E+04 5.90126E-09-3.21415E-09
 -1        28 1.90229E+04-6.91259E+04 1.40126E+04 2.04767E+04 2.22508E-09-3.14310E-09
 -1        32-1.19136E+06-1.41603E+06 1.03259E+05-5.57074E+05-2.59097E-08-3.53282E-11
 -1        33-1.40079E+05 6.95534E+04 2.48270E+04-3.45524E+04 3.57981E-10 4.30797E-10
 -1        34-1.77553E+05-1.80239E+04 4.59212E+02 5.59568E+04 1.86086E-09 2.29905E-09
 -1        35-1.93782E+04-2.74611E+04-1.08217E+03 4.30469E+04 4.08030E-09-4.52928E-09
 -1        51 2.29147E+04-3.44259E+05 5.52842E+04-9.60241E+05 2.03727E-10 2.70811E-08
 -1        52 1.19210E+04-3.40121E+05 3.40894E+04-1.11986E+06 8.65839E-10 3.11338E-08
 -1        53 7.34867E+03-3.55011E+05 2.57135E+04-9.56850E+05 2.98314E-10 2.68919E-08
 -1        54 2.01489E+04-3.53513E+05 3.72440E+04-1.12337E+06-7.42148E-10-7.85803E-09
 -1        55 3.95786E+04-3.67245E+05 6.40419E+04-9.56295E+05 2.18279E-10 1.18598E-08
 -1        56-4.62728E+06-5.17689E+05-3.79398E+05-1.78884E+06 5.89353E-10 7.62520E-09
 -1        57-4.79598E+06-8.45693E+05-2.55909E+05-1.75585E+06-1.85173E-09 1.49739E-08
 -1        58-4.70289E+06-6.38778E+05-8.92121E+04-1.76568E+06 4.12911E-10 1.63964E-08
 -1        59-4.70882E+06-7.03156E+05-5.32618E+04-1.78283E+06-1.90994E-10 5.54337E-09
 -1        60-4.71340E+06-6.56197E+05-2.08021E+04-1.76317E+06-3.21097E-09-1.11040E-08
 -1        61-4.69850E+06-6.80817E+05-1.17909E+04-1.78347E+06-2.62969E-09-8.21956E-11
 -1        62-4.71295E+06-6.60610E+05-5.61461E+03-1.76516E+06-4.91355E-10-1.16529E-10
 -1        63-4.70209E+06-6.73016E+05-4.49391E+03-1.77768E+06-1.23055E-09-2.16147E-08
 -1        64-4.70972E+06-6.63975E+05-5.00215E+03-1.76893E+06 5.82077E-10-2.92994E-09
 -1        65-4.71034E+06-6.67939E+05-9.92294E+03-1.76935E+06-3.93180E-09-5.06748E-09
 -1        66-4.70471E+06-6.65749E+05-1.73368E+04-1.77346E+06 1.68382E-09 9.07676E-10
 -1        67-4.72765E+06-6.77656E+05-4.41571E+04-1.75881E+06-1.42677E-09-4.07272E-09
 -1        68-4.69262E+06-6.54675E+05-7.39615E+04-1.77938E+06 1.55069E-09 6.10817E-09
 -1        69-4.80388E+06-7.91896E+05-2.12075E+05-1.73214E+06-8.94943E-10-1.50758E-08
 -1        70-4.62946E+06-5.54810E+05-3.14484E+05-1.79911E+06 1.03319E-09-1.92231E-08
 -1        86-1.25150E+03-4.71892E+05 8.68023E+03 5.84662E+02 9.79526E-10-9.61325E-09
 -1        87 8.28412E+03-4.66576E+05 1.81086E+04-2.22546E+03 1.64823E-09-2.59190E-09
 -1        88-7.01842E+03-4.74630E+05 2.77596E+04 1.64081E+03 2.23190E-09-4.98568E-09
 -1        89 5.22902E+04-4.46301E+05 7.47874E+04-3.98791E+03 3.36695E-09-1.13170E-09
 -1        90-4.50981E+04-4.92144E+05 1.05791E+05 2.34745E+03 2.95404E-09-1.29716E-08
 -1       121-4.33454E+02-1.13800E+06 1.11389E+02 3.67898E+02 7.15602E-10-1.59653E-08
 -1       122-2.03723E+02-1.13684E+06 5.79761E+02-1.47373E+03-2.37230E-09-6.23822E-09
 -1       123-4.87173E+02-1.13807E+06 7.82080E+02 1.10030E+03 1.90346E-09-1.62072E-09
 -1       124 8.81304E+02-1.13625E+06 2.38431E+03-3.15508E+03-4.74938E-09 1.82845E-08
 -1       125-1.15775E+03-1.13868E+06 3.49759E+03 2.04570E+03 2.77123E-09-1.15870E-09
 -1       191-1.52460E+00 2.89009E+05 8.98151E+00-2.77333E-02 3.33185E-11 1.05115E-09
 -1       192-1.89073E+00 2.88984E+05 1.55326E+01 2.41540E-01 8.28013E-11 8.73467E-09
 -1       193-3.31343E+00 2.89009E+05 2.90872E+01-2.14432E-01 4.66862E-11-2.92425E-09
 -1       194-4.05516E+00 2.88986E+05 5.87250E+01 5.73764E-01 6.73746E-11-1.24364E-08
 -1       195-6.75132E+00 2.89007E+05 1.15069E+02-3.61546E-01 1.37170E-10-1.71235E-08
 -1       251-1.47160E+06 1.97488E+04-4.75584E+04-2.14988E+04 1.28739E-09-1.67875E-08
 -1       252-1.48965E+06-2.25730E+04-3.29846E+04 4.65739E+04-1.55717E-09 8.92032E-09
 -1       253-1.47784E+06 2.99266E+03-1.21768E+04-2.57882E+04-1.90769E-09 3.68891E-09
 -1       254-1.47896E+06-3.07473E+03-7.07554E+03 4.15429E+04 2.42153E-10 6.28108E-09
 -1       255-1.48209E+06 2.12633E+02-3.69555E+03-1.64666E+04 1.82354E-10 8.22581E-09
 -1       256-1.47199E+06-2.07251E+02-2.15064E+02 1.42231E+04-1.22691E-09 3.22033E-08
 -1       257-1.48430E+06-3.13552E+02-1.75305E+03 1.53365E+03-2.05591E-09 1.87152E-08
 -1       258-1.47249E+06 2.84000E+02 1.11700E+03-2.08249E+04 2.33263E-09-3.24492E-09
 -1       259-1.48168E+06-2.39810E+02-3.84587E+02 1.85779E+04-3.70687E-09-1.02528E-09
 -1       260-1.47793E+06 6.72250E+02 8.91321E+02-4.48512E+04 1.25570E-09 9.70217E-09
 -1       261-1.47937E+06-2.44949E+02 1.08575E+03 2.55628E+04 8.50104E-09 4.96237E-09
 -1       262-1.47745E+06 1.79033E+03 2.99250E+03-4.50664E+04-1.86230E-09-6.85898E-09
 -1       263-1.48215E+06-1.32684E+03 3.76295E+03 1.87933E+04 3.84034E-10 2.41905E-08
 -1       264-1.46860E+06 8.71494E+03 1.29864E+04-2.13813E+04 4.63314E-09 4.55211E-08
 -1       265-1.48769E+06-7.60094E+03 1.52358E+04 1.87476E+03 6.64159E-10 4.38649E-09
 -1       266-3.57547E+04-1.67164E+04 8.39030E+04-9.18515E+01 9.09495E-11 8.58918E-09
 -1       267 4.14507E+04 1.94872E+04 5.92952E+04 1.05964E+02 1.14596E-10-1.42769E-08
 -1       268-5.55842E+03-2.75972E+03 2.20401E+04-1.35025E+01 3.63798E-12-1.64834E-08
 -1       269 6.56292E+03 3.30304E+03 1.43254E+04 1.57275E+01-1.61435E-11 3.11830E-09
 -1       270-9.85101E+02-5.42704E+02 6.91508E+03-2.13437E+00-4.47926E-11 1.04168E-08
 -1       271-3.31566E+06-4.14803E+05-2.50620E+05-1.29119E+06 9.05857E-10-6.03904E-09
 -1       272-3.40411E+06-5.99166E+05-1.61149E+05-1.29051E+06-4.37763E-09 1.00608E-08
 -1       273-3.36400E+06-4.76132E+05-5.92121E+04-1.27866E+06-1.66119E-09 9.27321E-09
 -1       274-3.34678E+06-5.24737E+05-3.31105E+04-1.31016E+06 2.91038E-11 1.09139E-08
 -1       275-3.37215E+06-4.80935E+05-1.37981E+04-1.27486E+06 9.24047E-10 2.28920E-09
 -1       276-3.33648E+06-5.19804E+05-7.29053E+03-1.31670E+06-2.37605E-09-7.05950E-09
 -1       277-3.37466E+06-4.79919E+05-3.58918E+03-1.27278E+06 1.01227E-09 3.92743E-09
 -1       278-3.33344E+06-5.21390E+05-2.56310E+03-1.32004E+06 3.29055E-09 1.46225E-08
 -1       279-3.37555E+06-4.79044E+05-2.72378E+03-1.27182E+06 1.63141E-09-1.43326E-08
 -1       280-3.33326E+06-5.22658E+05-4.97541E+03-1.32086E+06-2.37719E-10-4.02270E-09
 -1       281-3.37496E+06-4.78623E+05-9.04090E+03-1.27202E+06-9.84301E-10 4.75393E-09
 -1       282-3.33852E+06-5.27451E+05-2.16869E+04-1.31852E+06 2.87116E-09 3.55612E-09
 -1       283-3.37022E+06-4.74897E+05-3.86139E+04-1.27385E+06-2.70921E-09 1.92813E-09
 -1       284-3.37516E+06-5.76776E+05-1.05235E+05-1.30644E+06 1.91505E-09-8.76025E-09
 -1       285-3.33881E+06-4.34782E+05-1.63630E+05-1.28190E+06-1.05319E-09-4.51109E-10
 -1       301 2.27097E+04-7.62313E+04 1.66110E+05-1.46769E+05-2.25555E-10 9.54378E-09
 -1       302 2.38728E+04-3.42848E+04 1.08851E+05-2.15379E+05 6.75755E-10 1.83377E-09
 -1       303 1.28762E+03-5.96517E+04 8.30865E+04-1.46706E+05-6.31189E-10-3.17068E-08
 -1       304 2.73990E+04-3.02027E+04 1.21214E+05-2.14952E+05 1.02591E-09 1.12650E-08
 -1       305 2.62138E+04-7.90015E+04 1.93396E+05-1.47250E+05-4.36557E-10 1.07939E-08
 -1       306-6.36119E+06-6.10597E+05-5.38386E+05-2.14888E+06-5.52063E-09-6.11180E-09
 -1       307-5.17909E+06-1.55952E+06-2.24507E+05-2.90183E+06-8.54470E-08 1.02955E-08
 -1       308-6.47382E+06-4.16701E+05-1.15978E+05-1.72244E+06-1.27911E-08 2.44036E-08
 -1       309-5.18559E+06-1.65884E+06-4.58697E+04-3.44008E+06 3.24848E-08-7.26868E-09
 -1       310-6.48015E+06-4.15906E+05-2.84867E+04-1.69313E+06-1.74623E-10-2.59924E-08
 -1       311-5.07866E+06-1.43141E+06 4.90746E+04-3.03178E+06 4.06180E-08-7.23958E-10
 -1       312-6.47486E+06-7.21681E+05-8.84175E+04-2.06307E+06-1.71422E-08 3.16031E-08
 -1       313-5.31583E+06-8.16778E+05 1.15391E+05-2.10902E+06-1.48648E-08 6.57383E-09
 -1       314-6.12074E+06-1.11783E+06-1.00062E+05-2.51864E+06 2.48401E-08-2.62735E-08
 -1       315-6.30418E+06-1.12177E+05 6.19792E+04-1.46959E+06 3.79441E-09-2.41926E-09
 -1       316-5.58560E+06-1.35322E+06-4.36248E+04-2.76639E+06-8.67403E-08-3.57795E-08
 -1       317-7.05786E+06 2.10614E+05-5.49040E+04-1.29918E+06 9.32237E-08-4.18822E-08
 -1       318-5.48936E+06-1.35518E+06-1.21752E+05-2.79475E+06-8.04284E-08 1.01318E-08
 -1       319-6.69176E+06-1.91884E+05-2.86296E+05-1.35656E+06-2.29666E-08-6.15546E-09
 -1       320-5.87226E+06-1.00992E+06-5.95023E+05-2.63666E+06 2.98023E-08-4.10364E-09
 -1       336 5.57517E+02-1.23195E+06-7.08103E+03 2.93058E+03-1.25942E-08-4.55839E-09
 -1       337-2.62411E+03-1.23315E+06-7.92813E+03-7.18988E+03-2.30661E-08-2.77032E-09
 -1       338 4.00996E+02-1.23208E+06-1.05925E+04 4.23146E+03-1.61026E-08-3.35604E-09
 -1       339-1.09682E+04-1.23856E+06-2.32230E+04-9.73161E+03-2.89656E-08-2.14641E-10
 -1       340 7.27235E+03-1.22689E+06-3.60720E+04 5.44919E+03-1.89966E-08 2.13695E-08
 -1       406 2.01469E+01 2.88996E+05 4.69384E+02-7.34552E-02 1.55467E-10-3.71892E-09
 -1       407 1.65351E+02 2.89081E+05 9.97143E+02-2.20325E+00 1.82894E-11-1.03956E-08
 -1       408 5.15220E+02 2.88924E+05 1.99175E+03 2.33204E+00 1.50976E-10-9.13815E-09
 -1       409 2.15491E+03 2.89717E+05 4.48350E+03-2.30613E+01-1.17097E-10-1.28216E-09
 -1       410 6.18822E+03 2.88358E+05 9.15303E+03 2.17211E+01 2.81943E-11-2.23042E-09
 -1       521-8.62808E+06-8.63074E+05-9.41186E+05-2.49917E+06-1.44355E-08 1.15833E-08
 -1       522-4.90377E+06-2.22467E+06-1.02524E+05-4.30006E+06-1.13054E-07-6.71243E-08
 -1       523-8.37961E+06-1.94000E+05-1.69732E+05-1.49750E+06 1.71058E-08-6.58256E-08
 -1       524-5.75439E+06-2.44305E+06-9.19877E+03-5.65708E+06 1.23806E-07-1.16872E-07
 -1       525-8.37560E+06-1.96616E+05-5.53616E+04-1.47407E+06 1.16794E-07-9.42819E-08
 -1       526-4.84005E+06-2.07767E+06 2.32866E+05-4.41826E+06 3.26545E-08-1.85955E-08
 -1       527-8.72696E+06-9.80251E+05-3.49275E+05-2.42532E+06-1.33005E-08 1.80735E-08
 -1       528-4.79306E+06-7.46981E+05 4.44703E+05-1.95441E+06 4.36557E-09-3.67436E-09
 -1       529-7.88944E+06-1.89973E+06-3.71881E+05-3.47365E+06 7.82893E-09-2.44472E-09
 -1       530-7.69650E+06 9.70788E+05 2.61986E+05-8.30584E+05-3.14540E-08 6.34027E-08
 -1       531-6.35790E+06-2.30191E+06-7.78673E+04-3.86427E+06-1.38934E-07 6.94854E-09
 -1       532-9.90446E+06 1.71936E+06-2.91393E+03-9.35812E+05 7.84312E-08-1.37064E-07
 -1       533-6.19479E+06-2.30246E+06-1.39078E+05-3.88149E+06 2.91548E-08-2.06221E-07
 -1       534-8.30054E+06 1.00658E+06-1.06354E+05-7.90197E+05-4.84579E-08 1.45459E-07
 -1       535-7.56693E+06-1.85701E+06-8.80550E+05-3.60131E+06-1.48721E-08 9.74396E-08
 -1       536-1.76092E+05-3.56918E+04 5.25433E+04-6.33576E+03-1.06720E-08 1.44391E-08
 -1       537-1.25862E+04 3.79223E+04 6.12103E+04 1.44778E+04-5.43301E-08 2.25773E-08
 -1       538-1.01206E+05-2.14021E+03 1.69442E+04-8.38882E+03 1.47232E-08 2.28574E-08
 -1       539-6.52631E+04 2.03550E+03 1.55501E+04 1.61232E+04 8.64383E-08 5.92438E-08
 -1       540-1.23683E+05 4.05903E+02-7.35327E+02-7.99289E+03 1.89364E-08 2.98610E-08
 -1       541 2.06343E+04 3.06171E+03 2.55955E+04 1.08665E+04-3.53005E-08 2.25151E-08
 -1       542-1.86499E+05-3.67423E+03-1.68687E+04-3.11151E+03 2.11510E-08 9.10268E-09
 -1       543 7.02682E+04 5.74065E+03 3.40185E+04-1.99701E+03 2.97678E-09 7.17461E-09
 -1       544-1.72976E+05-2.55722E+03-1.51919E+04 4.85321E+03-8.47598E-09-2.15285E-08
 -1       545-1.07055E+04-1.83326E+02 1.60642E+04-1.32988E+04 9.92756E-10-3.95613E-08
 -1       546-1.06078E+05 2.70946E+03-2.72133E+03 8.18390E+03 6.84292E-09-3.64801E-08
 -1       547-7.27401E+04-4.96741E+03 9.61362E+02-1.65126E+04-5.25865E-08-4.23013E-08
 -1       548-1.11365E+05 2.58267E+03-7.54767E+03 8.08347E+03-5.19356E-08-2.64840E-08
 -1       549-1.07239E+03-2.11020E+03 7.99088E+03-1.24854E+04-3.07004E-08-1.65765E-08
 -1       550-1.77246E+05-5.67223E+02-3.57074E+04 4.13842E+03 2.52521E-09-1.14906E-08
 -1       551 2.02829E+04-6.20136E+05 2.56629E+04-1.02164E+06-5.15865E-08-1.33878E-08
 -1       552 4.52641E+04-6.34024E+05 3.29259E+04-1.45545E+06-3.96685E-08 1.74041E-08
 -1       553 3.23304E+04-6.39781E+05 4.73252E+04-1.01772E+06-6.36064E-08 1.74696E-08
 -1       554 7.27234E+04-6.31535E+05 9.86305E+04-1.45694E+06-4.11965E-08 8.35439E-09
 -1       555 6.06968E+04-6.58523E+05 1.74692E+05-1.01869E+06-6.47415E-08-1.07721E-08
 -1       556 1.00378E+05-2.04766E+05 6.48933E+04-2.57699E+05-7.74162E-09-1.70257E-09
 -1       557 1.82123E+05-2.70549E+05 3.44553E+04-3.23453E+05-1.30967E-10-9.69703E-09
 -1       558 9.77381E+04-2.12078E+05 1.33575E+04-2.51430E+05-7.21775E-09 5.26779E-09
 -1       559 1.68503E+05-2.78655E+05 6.95908E+03-3.30369E+05 8.68749E-09-3.05590E-10
 -1       560 9.34548E+04-2.09313E+05 2.54397E+03-2.54302E+05-9.31323E-10-5.19685E-09
 -1       561 1.62474E+05-2.76710E+05 1.48376E+03-3.34263E+05-3.17232E-09-7.37055E-09
 -1       562 9.00565E+04-2.07112E+05 3.94921E+02-2.56740E+05 1.60071E-10 1.62163E-09
 -1       563 1.58484E+05-2.74981E+05 3.59278E+02-3.36830E+05-3.67800E-09-1.05222E-08
 -1       564 8.78189E+04-2.05692E+05 7.22236E+01-2.58320E+05 6.59929E-09 1.01991E-08
 -1       565 1.56181E+05-2.73985E+05 1.07535E+02-3.38290E+05 4.87489E-09 9.50695E-09
 -1       566 8.67962E+04-2.05033E+05-1.48846E+01-2.59042E+05-1.94814E-09 3.78350E-09
 -1       567 1.55522E+05-2.73691E+05-1.27740E+02-3.38621E+05 9.90076E-09-7.54153E-09
 -1       568 8.70339E+04-2.05194E+05-4.56660E+02-2.58958E+05 1.59343E-09 1.25838E-08
 -1       569 1.55622E+05-2.73658E+05-1.10491E+03-3.37065E+05-3.29783E-09 5.17139E-09
 -1       570 8.92434E+04-2.07110E+05-2.46845E+03-2.58606E+05 3.41970E-10-4.38558E-09
 -1       571 2.17539E+05 7.88336E+03 1.16180E+04-5.56170E+04 2.37196E-09 1.03933E-09
 -1       572 2.19261E+05 2.77549E+03 5.69231E+03-6.09980E+04-1.92358E-10 2.01999E-09
 -1       573 2.18230E+05 6.94867E+02 2.52895E+03-5.54894E+04-7.31688E-10 2.70438E-09
 -1       574 2.18430E+05 2.61409E+02 1.26731E+03-6.11442E+04-7.43512E-11 1.65664E-09
 -1       575 2.18308E+05 7.40159E+01 5.97650E+02-5.54724E+04 2.12401E-09 9.50331E-09
 -1       576 2.18319E+05 5.68692E+01 3.04915E+02-6.11637E+04 5.41263E-10 7.68705E-09
 -1       577 2.18324E+05 3.80240E+01 1.51363E+02-5.54702E+04-1.94905E-09 3.40015E-09
 -1       578 2.18315E+05 4.26523E+01 8.50212E+01-6.11662E+04-1.56524E-09 6.11590E-09
 -1       579 2.18345E+05 3.07038E+01 5.61645E+01-5.54700E+04 4.59295E-10-6.56928E-09
 -1       580 2.18344E+05 3.02816E+01 5.98308E+01-6.11630E+04-1.03864E-09 8.48104E-10
 -1       581 2.18378E+05 1.70742E+01 8.86184E+01-5.54734E+04 1.18780E-09 1.54432E-09
 -1       582 2.18404E+05 3.37919E+01 1.75223E+02-6.11282E+04 1.90994E-11-4.40787E-09
 -1       583 2.18416E+05 7.29848E+01 3.39078E+02-5.55049E+04-1.41335E-09-1.47998E-09
 -1       584 2.18576E+05 3.41797E+02 7.62560E+02-6.08645E+04-2.30648E-09-7.61361E-09
 -1       585 2.18378E+05 1.01162E+03 1.54935E+03-5.57375E+04 1.02773E-10-2.83762E-10
 -1       586-2.91379E+03 7.00762E+04-3.65364E+03-1.88969E+05-1.05820E-09 2.28727E-09
 -1       587-7.09165E+02 6.96126E+04-2.84525E+02-2.07991E+05-5.32964E-10 3.12434E-09
 -1       588 7.21742E+02 6.96871E+04 2.89886E+03-1.88876E+05-1.16415E-10 2.37378E-10
 -1       589 4.04694E+03 7.12864E+04 8.27323E+03-2.07778E+05-1.46247E-09-1.52659E-09
 -1       590 1.19121E+04 6.87406E+04 1.76517E+04-1.89193E+05-8.70386E-10-9.84073E-10
 -1       591-4.36900E+04-1.16465E+04-1.53342E+04-2.13914E+04-2.97632E-10 5.33964E-09
 -1       592-4.56757E+04-1.48644E+04-8.30587E+03-2.47653E+04 8.06494E-10-3.39423E-09
 -1       593-4.52318E+04-1.05253E+04-3.45761E+03-2.25077E+04 2.96757E-09-1.11056E-08
 -1       594-4.35474E+04-1.26263E+04-1.72446E+03-2.48601E+04-1.14778E-09-1.35355E-08
 -1       595-4.53497E+04-1.05209E+04-7.92184E+02-2.25587E+04-3.57488E-10 1.85820E-08
 -1       596-4.34026E+04-1.25239E+04-4.03365E+02-2.48441E+04 7.18764E-09 1.75884E-08
 -1       597-4.53646E+04-1.05310E+04-2.21039E+02-2.25606E+04 5.43073E-09-7.59593E-09
 -1       598-4.33885E+04-1.25200E+04-1.80252E+02-2.48395E+04-1.47728E-09-1.35187E-08
 -1       599-4.53634E+04-1.05312E+04-2.33448E+02-2.25602E+04-4.42810E-10-4.27428E-09
 -1       600-4.34034E+04-1.25250E+04-4.36228E+02-2.48431E+04-1.27574E-09-1.92239E-09
 -1       601-4.53453E+04-1.05209E+04-8.61910E+02-2.25574E+04-4.28849E-09-2.23361E-09
 -1       602-4.35608E+04-1.26362E+04-1.87913E+03-2.48582E+04-1.08530E-08-8.07484E-09
 -1       603-4.52149E+04-1.05278E+04-3.76881E+03-2.25021E+04-5.06725E-09-9.98170E-10
 -1       604-4.58915E+04-1.50634E+04-9.05328E+03-2.47388E+04 6.13807E-09 1.71983E-08
 -1       605-4.35208E+04-1.17610E+04-1.67140E+04-2.12976E+04 8.23093E-11 6.43286E-09
 -1       606 2.75641E+04-1.04154E+04-1.87311E+04 2.66926E+04 3.00133E-10 2.35741E-09
 -1       607 2.43578E+04-3.37079E+03-9.32711E+03 2.99679E+04 1.78261E-10 3.04226E-09
 -1       608 2.61765E+04-5.79102E+02-4.17677E+03 2.64825E+04 8.91851E-09-2.67778E-09
 -1       609 2.58162E+04-1.62129E+02-2.10955E+03 3.02029E+04 1.44983E-08-1.66892E-10
 -1       610 2.60087E+04 1.39430E+01-1.00756E+03 2.64589E+04 5.66070E-09 5.23028E-09
 -1       611 2.59422E+04 2.58630E+01-5.07998E+02 3.02285E+04-5.40786E-09-3.10115E-09
 -1       612 2.59641E+04 3.03846E+01-2.42683E+02 2.64566E+04-2.38924E-09-5.38625E-09
 -1       613 2.59400E+04 3.48249E+01-1.09791E+02 3.02316E+04-1.63300E-09-5.85601E-09
 -1       614 2.59397E+04 3.09734E+01-2.88427E+01 2.64558E+04 1.86810E-09 6.31508E-09
 -1       615 2.59277E+04 4.05749E+01 3.89269E+01 3.02320E+04 7.35781E-09-9.82709E-10
 -1       616 2.59211E+04 3.70878E+01 1.23185E+02 2.64560E+04 6.94035E-09-5.16252E-09
 -1       617 2.59362E+04 7.06993E+01 2.83813E+02 3.02315E+04 1.71733E-08-6.90989E-10
 -1       618 2.58917E+04 1.21879E+02 5.72944E+02 2.64562E+04 8.73797E-09-3.11616E-09
 -1       619 2.61346E+04 5.16142E+02 1.28728E+03 3.02307E+04-2.19541E-09-6.99174E-10
 -1       620 2.56990E+04 1.48272E+03 2.58751E+03 2.64551E+04 3.40629E-09-1.09503E-09
 -1       621 2.78890E+02 2.24907E+05 2.53807E+03 1.31709E+04-1.44041E-10 8.04403E-09
 -1       622 3.35688E+02 2.25530E+05 2.31558E+03 1.91791E+04-4.61569E-11-1.97610E-09
 -1       623 1.91035E+01 2.25060E+05 2.87277E+03 1.31074E+04-1.22498E-11 5.07293E-09
 -1       624 1.36288E+03 2.26462E+05 5.63856E+03 1.92442E+04-1.02091E-10-6.05633E-09
 -1       625 1.36989E+03 2.23954E+05 9.88865E+03 1.31054E+04 1.28239E-10 2.70836E-09
 -1       626 1.96305E+05 5.22848E+04 4.25592E+03 1.03062E+05-6.86623E-09-6.95036E-09
 -1       627 1.93926E+05 5.38976E+04 2.05088E+03 1.07114E+05-4.39377E-09-1.75486E-08
 -1       628 1.96437E+05 5.03025E+04 8.66447E+02 1.03740E+05 3.20324E-09 1.65303E-08
 -1       629 1.93348E+05 5.33778E+04 4.24314E+02 1.07356E+05 1.90266E-09 3.03135E-09
 -1       630 1.96446E+05 5.02090E+04 1.95987E+02 1.03762E+05-4.43833E-10-2.27621E-09
 -1       631 1.93280E+05 5.33631E+04 1.04692E+02 1.07356E+05-5.60703E-09-4.71074E-09
 -1       632 1.96437E+05 5.02160E+04 6.75079E+01 1.03754E+05-4.04043E-09-1.87156E-08
 -1       633 1.93266E+05 5.33682E+04 7.31439E+01 1.07348E+05-1.61185E-09-6.04905E-09
 -1       634 1.96427E+05 5.02167E+04 1.16303E+02 1.03750E+05 4.93355E-09 1.25237E-08
 -1       635 1.93272E+05 5.33694E+04 2.34395E+02 1.07349E+05 1.88606E-09 2.18733E-09
 -1       636 1.96416E+05 5.02151E+04 4.72749E+02 1.03747E+05 2.36685E-09 5.66729E-09
 -1       637 1.93370E+05 5.34441E+04 1.03876E+03 1.07345E+05 3.46199E-09 8.89213E-09
 -1       638 1.96376E+05 5.04460E+04 2.13446E+03 1.03641E+05-6.35055E-10-1.48011E-08
 -1       639 1.94489E+05 5.50035E+04 5.04956E+03 1.07013E+05 8.71410E-10-2.66027E-10
 -1       640 1.96226E+05 5.50958E+04 1.04789E+04 1.01671E+05-1.07502E-09 6.53245E-09
 -1       656 5.20463E+04-1.32159E+06-1.25640E+05-5.08988E+02 1.54978E-09-8.21322E-09
 -1       657-6.88040E+04-1.37831E+06-1.03968E+05 7.50780E+03-4.92946E-10-9.67198E-10
 -1       658 1.65367E+04-1.33774E+06-6.38838E+04-1.92506E+03 3.09001E-10-4.28232E-09
 -1       659-7.39994E+04-1.38077E+06-1.10792E+05 8.51352E+03-5.32054E-10 5.93421E-09
 -1       660 5.72296E+04-1.31913E+06-1.37375E+05-1.51469E+03-5.31145E-10 9.01252E-10
 -1       661 1.67504E+05 1.81070E+04 1.64267E+04 6.55044E+04 1.39062E-09 7.43148E-09
 -1       662 1.76269E+05 3.07849E+04 1.10692E+04 6.24130E+04 2.50225E-09-3.88468E-10
 -1       663 1.70727E+05 2.33795E+04 3.87193E+03 6.45717E+04-7.64203E-10-4.83374E-09
 -1       664 1.72537E+05 2.46152E+04 2.31526E+03 6.35490E+04 6.78710E-10 7.38902E-09
 -1       665 1.71212E+05 2.41033E+04 9.13319E+02 6.44337E+04-9.11541E-10 1.86304E-10
 -1       666 1.71967E+05 2.37845E+04 5.33143E+02 6.37271E+04-5.39427E-09-3.01117E-09
 -1       667 1.71295E+05 2.41884E+04 2.81690E+02 6.44017E+04 2.36554E-09 2.71950E-10
 -1       668 1.71877E+05 2.37195E+04 2.83604E+02 6.37736E+04 6.56769E-09-7.11118E-09
 -1       669 1.71301E+05 2.41664E+04 3.81143E+02 6.43879E+04 2.00812E-09-3.29251E-09
 -1       670 1.71971E+05 2.39234E+04 8.27331E+02 6.37748E+04 2.02026E-09 7.55993E-09
 -1       671 1.71201E+05 2.39886E+04 1.46810E+03 6.43988E+04 1.25834E-09 6.45406E-09
 -1       672 1.72827E+05 2.53516E+04 3.75540E+03 6.35681E+04-3.25116E-09-2.40840E-09
 -1       673 1.70450E+05 2.27741E+04 6.29318E+03 6.45808E+04-7.32484E-10-3.77895E-10
 -1       674 1.78818E+05 3.54603E+04 1.79971E+04 6.18064E+04 3.63798E-11 1.48498E-09
 -1       675 1.65248E+05 1.41626E+04 2.67136E+04 6.60540E+04 2.11367E-09-4.12729E-09
 -1       676 2.05045E+01-2.47031E+05-9.52437E+02 1.94061E+01-9.19442E-10-3.74080E-09
 -1       677-2.52919E+02-2.47261E+05-1.74308E+03-3.87890E+01-3.14799E-10-1.04860E-08
 -1       678 1.68845E+02-2.46867E+05-3.08132E+03 1.93697E+01 6.07884E-10-3.52427E-09
 -1       679-3.08217E+03-2.49121E+05-7.31977E+03-3.86494E+01-2.10730E-09-2.18205E-08
 -1       680 1.83945E+03-2.45172E+05-1.17970E+04 1.90468E+01 5.46152E-10 3.00669E-09
 -1       771-2.62854E+06-5.13407E+05-7.55326E+04-1.14692E+06-1.53814E-08-1.21217E-08
 -1       772-2.59554E+06-5.61308E+05-3.98557E+04-1.20122E+06-9.98989E-09 5.40604E-09
 -1       773-2.64122E+06-5.03396E+05-1.84543E+04-1.15143E+06-5.41331E-09 5.87170E-09
 -1       774-2.58670E+06-5.53297E+05-8.64326E+03-1.20966E+06 1.18962E-08-8.23093E-09
 -1       775-2.64603E+06-5.00007E+05-5.24917E+03-1.15257E+06 1.62981E-09-2.54659E-11
 -1       776-2.58848E+06-5.53168E+05-2.17550E+03-1.21524E+06 4.36557E-11 2.33376E-09
 -1       777-2.64989E+06-4.97160E+05-1.91055E+03-1.15355E+06 3.89991E-09-2.18279E-11
 -1       778-2.59076E+06-5.53191E+05-6.34724E+02-1.21996E+06 1.31258E-08 1.15015E-08
 -1       779-2.65310E+06-4.94731E+05-8.67485E+02-1.15439E+06-2.45200E-09-1.05156E-08
 -1       780-2.59280E+06-5.53163E+05-2.48247E+02-1.22378E+06-3.29237E-09-6.54836E-11
 -1       781-2.65559E+06-4.92801E+05-4.75590E+02-1.15505E+06-6.49743E-09 2.97860E-09
 -1       782-2.59439E+06-5.53112E+05-2.91538E+02-1.22658E+06-1.79461E-08-4.83578E-09
 -1       783-2.65729E+06-4.91495E+05-6.18468E+02-1.15551E+06-4.27826E-09-7.43603E-09
 -1       784-2.59568E+06-5.53372E+05-1.20807E+03-1.22827E+06-8.99126E-09 4.42014E-10
 -1       785-2.65794E+06-4.90993E+05-2.28621E+03-1.15559E+06-1.78570E-08 3.12684E-09
 -1       786 1.34754E+05-8.99884E+03 2.08185E+04-9.01776E+01 1.56285E-09 5.73345E-09
 -1       787 1.43780E+05 1.04178E+04 1.47284E+04 2.69540E+01 1.82103E-09-2.14050E-09
 -1       788 1.38235E+05-1.41062E+03 5.38720E+03-6.93563E+01 1.05393E-09 1.57672E-08
 -1       789 1.39725E+05 1.63202E+03 3.38326E+03-7.12075E+00 3.20381E-10 2.43625E-09
 -1       790 1.38810E+05-2.20180E+02 1.37302E+03-5.61060E+01-6.50522E-10 3.75110E-10
 -1       791 1.39054E+05 2.54782E+02 7.99191E+02-3.06774E+01-7.54270E-10-4.61688E-09
 -1       792 1.38907E+05-3.44079E+01 3.51035E+02-4.57997E+01-5.80304E-10-5.50413E-09
 -1       793 1.38941E+05 4.16839E+01 2.02118E+02-5.09046E+01-6.98748E-10-5.19731E-09
 -1       794 1.38923E+05-7.21866E+00 1.07036E+02-3.58786E+01 6.71650E-10-3.66747E-09
 -1       795 1.38928E+05 2.09805E+01 9.31462E+01-7.26274E+01-6.84998E-10-1.66230E-09
 -1       796 1.38920E+05-1.37139E+01 1.02216E+02-2.40765E+01 4.55070E-10 1.04487E-09
 -1       797 1.38964E+05 9.68291E+01 2.10169E+02-1.00773E+02 6.72761E-10 4.16833E-10
 -1       798 1.38886E+05-8.30137E+01 3.21787E+02-7.73255E+00 2.14973E-10 6.14224E-09
 -1       799 1.39203E+05 6.12464E+02 8.68400E+02-1.41739E+02 6.84248E-10 4.59868E-09
 -1       800 1.38681E+05-5.28945E+02 1.22408E+03 1.68902E+01 2.37513E-10 7.82956E-09
 -1       801 7.55732E+04-2.64506E+06-2.45319E+05 4.62873E+04 1.70403E-08-1.57738E-08
 -1       802-8.95884E+04-2.42827E+06-1.10906E+05-5.17191E+04 4.80213E-08-4.26337E-09
 -1       803 1.20678E+04-2.53510E+06-4.24611E+04 1.22541E+05 3.55431E-08 2.66319E-08
 -1       804 1.83036E+04-2.40631E+06 2.99557E+04-7.13414E+03 3.43935E-08 3.40401E-08
 -1       805-3.36097E+04-2.66661E+06 1.59070E+04 1.69522E+03 1.29985E-08 1.77570E-08
 -1       806-2.39760E+05-4.65048E+04-1.79712E+04-9.49740E+04-1.45656E-09 2.23690E-09
 -1       807-2.41238E+05-4.35081E+04-8.82900E+03-9.92539E+04 1.78443E-09 4.62614E-09
 -1       808-2.40246E+05-4.00366E+04-3.74549E+03-9.80471E+04 5.06134E-10 3.99831E-09
 -1       809-2.39381E+05-4.10290E+04-1.83140E+03-9.94743E+04-1.25629E-08-1.39266E-09
 -1       810-2.40321E+05-3.98106E+04-8.39113E+02-9.81836E+04-1.63063E-08-4.69322E-09
 -1       811-2.39238E+05-4.09292E+04-4.16990E+02-9.94482E+04-2.06528E-08-9.63200E-09
 -1       812-2.40334E+05-3.98289E+04-2.10010E+02-9.81837E+04-5.70162E-09 1.10208E-08
 -1       813-2.39220E+05-4.09307E+04-1.35377E+02-9.94353E+04 3.71256E-09 2.87844E-09
 -1       814-2.40331E+05-3.98354E+04-1.32030E+02-9.81811E+04-2.95404E-09-9.18749E-09
 -1       815-2.39224E+05-4.09322E+04-2.11311E+02-9.94315E+04-7.30779E-10 6.97901E-09
 -1       816-2.40317E+05-3.98335E+04-3.99160E+02-9.81790E+04 1.97360E-10 1.61067E-08
 -1       817-2.39293E+05-4.09702E+04-8.56861E+02-9.94250E+04-3.34148E-09 8.02856E-09
 -1       818-2.40267E+05-3.99528E+04-1.74712E+03-9.81224E+04-2.25009E-09-5.26916E-09
 -1       819-2.40250E+05-4.20266E+04-4.11181E+03-9.92022E+04 1.36197E-09-1.08548E-09
 -1       820-2.39945E+05-4.30532E+04-8.36853E+03-9.67896E+04 2.55204E-09-4.91582E-10
 -1       821-2.93553E+05 1.62896E+04-3.76727E+04 2.97662E+02 1.55783E-09 2.90311E-09
 -1       822-3.09875E+05-1.88579E+04-2.66585E+04-9.69255E+02-1.58303E-09-1.26602E-09
 -1       823-2.99850E+05 2.55417E+03-9.75705E+03 3.06145E+02-5.16086E-10 6.29052E-09
 -1       824-3.02521E+05-2.95585E+03-6.13789E+03-7.97225E+02 1.83347E-11 4.49461E-09
 -1       825-3.00903E+05 3.99484E+02-2.52550E+03 1.25631E+02-4.13674E-10 3.79146E-10
 -1       826-3.01290E+05-4.70753E+02-1.51935E+03-3.27778E+02-2.49747E-09-1.51874E-09
 -1       827-3.01080E+05 7.03933E+01-7.93336E+02-1.63310E+02-2.53368E-09-2.01942E-09
 -1       828-3.01127E+05-1.43857E+02-6.96163E+02 2.31888E+02-4.73206E-09 7.55438E-09
 -1       829-3.01067E+05 7.29002E+01-8.08705E+02-4.34045E+02 5.96323E-11 6.06019E-09
 -1       830-3.01330E+05-4.88223E+02-1.57683E+03 6.36169E+02 8.16508E-10-2.82648E-09
 -1       831-3.00878E+05 4.15042E+02-2.61469E+03-5.67599E+02-2.56381E-09 7.18501E-11
 -1       832-3.02591E+05-3.06707E+03-6.37190E+03 7.07927E+02-2.37243E-09 8.49150E-09
 -1       833-2.99807E+05 2.65002E+03-1.01274E+04-5.05803E+02-1.40320E-09 1.40758E-08
 -1       834-3.10185E+05-1.95706E+04-2.76645E+04 4.15236E+02-1.36716E-09 1.39485E-08
 -1       835-2.93285E+05 1.69055E+04-3.91057E+04-2.74895E+02 4.66364E-09 7.87804E-09
 -1       836-1.00022E+03 2.79276E+05 1.69026E+04-1.75077E+04 8.00355E-11 6.04678E-09
 -1       837 3.69066E+03 2.84528E+05 1.44703E+04-3.51887E+04 8.55835E-10 9.96124E-10
 -1       838-3.81562E+02 2.80727E+05 1.49783E+04-1.74417E+04 7.65795E-10-3.03112E-09
 -1       839 9.60635E+03 2.88937E+05 2.85653E+04-3.52242E+04 1.09867E-09-3.73166E-09
 -1       840-2.90862E+03 2.74825E+05 4.56510E+04-1.74711E+04 6.91216E-10-1.14062E-09
 -1       856-7.71241E+04 7.52387E+03-1.98278E+04-4.29071E+02-1.40244E-09-9.42237E-10
 -1       857-8.53112E+04-8.82622E+03-1.36505E+04 4.69032E+03-1.03813E-09-3.65071E-09
 -1       858-8.03597E+04 1.05428E+03-5.14562E+03-4.50670E+02-2.72138E-09-6.60384E-09
 -1       859-8.15962E+04-1.22713E+03-3.10708E+03 4.72447E+03 8.36167E-10 1.10863E-08
 -1       860-8.08434E+04 1.46709E+02-1.30535E+03-4.63304E+02 1.06346E-09-2.32228E-09
 -1       861-8.10394E+04-1.62965E+02-7.24781E+02 4.74177E+03-3.62627E-09-1.31525E-08
 -1       862-8.09187E+04 1.93770E+01-3.14688E+02-4.67996E+02 4.57293E-09-4.47768E-09
 -1       863-8.09494E+04-1.13614E+01-1.45067E+02 4.74399E+03 1.13632E-08-3.13167E-09
 -1       864-8.09336E+04-1.53591E+00-2.42457E+01-4.65526E+02 4.89275E-09-3.34060E-09
 -1       865-8.09161E+04 3.44042E+01 8.68452E+01 4.73132E+03 3.02430E-09-1.43749E-08
 -1       866-8.09503E+04-2.67797E+01 2.10148E+02-4.55332E+02-2.51489E-09-3.13213E-09
 -1       867-8.08076E+04 2.23396E+02 5.39962E+02 4.70361E+03-4.43723E-09 7.22281E-10
 -1       868-8.10385E+04-1.88205E+02 9.02550E+02-4.37812E+02-9.89075E-11-8.19227E-10
 -1       869-8.01388E+04 1.56434E+03 2.41178E+03 4.65766E+03-3.27449E-09-1.39391E-08
 -1       870-8.16136E+04-1.33289E+03 3.49864E+03-4.09384E+02-6.13909E-11-6.70548E-09
 -1       871-4.45043E+03-1.04625E+04-1.45985E+04 9.67507E+04 9.98625E-10-9.85983E-09
 -1       872-1.89039E+03-1.37525E+04-5.98573E+03 1.25435E+05 2.32467E-09-1.72395E-09
 -1       873 1.53252E+00-1.22123E+04 7.60733E+02 9.65385E+04 1.31013E-09 4.28372E-09
 -1       874 2.25508E+03-1.01500E+04 8.07126E+03 1.25475E+05 2.42017E-09 1.07464E-08
 -1       875 5.24191E+03-1.41274E+04 1.79594E+04 9.67166E+04 1.49885E-09-4.53383E-09
 -1       876 2.34035E+05 4.00931E+04 1.23436E+04 9.46831E+04-1.36765E-09-1.34514E-09
 -1       877 2.34777E+05 4.27664E+04 6.59184E+03 9.82938E+04-3.99427E-09-2.87014E-09
 -1       878 2.35188E+05 3.87274E+04 2.76167E+03 9.56970E+04 1.00272E-09-7.33667E-09
 -1       879 2.33098E+05 4.10933E+04 1.37584E+03 9.83798E+04 1.91631E-09 2.21860E-10
 -1       880 2.35271E+05 3.87126E+04 6.40657E+02 9.57383E+04 7.80801E-10-5.35465E-11
 -1       881 2.32987E+05 4.10221E+04 3.41567E+02 9.83617E+04 1.59650E-09-3.61457E-09
 -1       882 2.35279E+05 3.87229E+04 2.17574E+02 9.57395E+04 5.06884E-09 9.60280E-09
 -1       883 2.32979E+05 4.10186E+04 2.32373E+02 9.83563E+04 3.68863E-09 2.02071E-08
 -1       884 2.35274E+05 3.87204E+04 3.68267E+02 9.57397E+04 3.13850E-09 1.20673E-09
 -1       885 2.33008E+05 4.10238E+04 7.39559E+02 9.83655E+04 5.82233E-09-5.91172E-10
 -1       886 2.35246E+05 3.86988E+04 1.49014E+03 9.57368E+04 1.36917E-09-1.34373E-08
 -1       887 2.33270E+05 4.11955E+04 3.25489E+03 9.84033E+04-4.98176E-10-6.23731E-09
 -1       888 2.35040E+05 3.87350E+04 6.55867E+03 9.56325E+04 4.32928E-09-7.47013E-09
 -1       889 2.37177E+05 4.52540E+04 1.56679E+04 9.82807E+04 4.89128E-09-7.40329E-10
 -1       890 2.32368E+05 4.19093E+04 2.93451E+04 9.31305E+04 5.90171E-09 3.94903E-09
 -1       891-1.35576E+02-1.32041E+05-1.57866E+03 2.42555E+04-6.70525E-10-3.23416E-09
 -1       892-2.38127E+02-1.32424E+05-1.70958E+03 3.67202E+04-1.24601E-09 6.31985E-09
 -1       893-3.09745E+01-1.32090E+05-2.43519E+03 2.42607E+04 3.22871E-10 5.06770E-09
 -1       894-1.31426E+03-1.33352E+05-5.05048E+03 3.65885E+04-8.74024E-10 1.08248E-08
 -1       895-1.03036E+03-1.31038E+05-8.89807E+03 2.43858E+04-1.07889E-09-3.43789E-10
 -1       956-2.96118E+05-4.17971E+03-1.05024E+04 2.01303E+04-2.03909E-09-4.60545E-10
 -1       957-2.98190E+05-1.41568E+03-5.39139E+03 2.42432E+04-5.22959E-09-8.72296E-09
 -1       958-2.97052E+05-1.18670E+02-2.42904E+03 2.00066E+04 3.61615E-09-2.03795E-09
 -1       959-2.97216E+05-2.63823E+01-1.24070E+03 2.43786E+04 5.73255E-09 6.16774E-09
 -1       960-2.97136E+05 2.94936E+01-6.04914E+02 1.99945E+04-1.93677E-09-8.89031E-10
 -1       961-2.97146E+05 2.66847E+01-3.21027E+02 2.43924E+04-7.28141E-09-6.32099E-09
 -1       962-2.97154E+05 2.57784E+01-1.83950E+02 1.99927E+04-6.14637E-09-9.44624E-09
 -1       963-2.97143E+05 2.82784E+01-1.48009E+02 2.43949E+04-4.80804E-09 3.91901E-09
 -1       964-2.97157E+05 2.79131E+01-1.80144E+02 1.99921E+04-2.15186E-09-3.92561E-09
 -1       965-2.97154E+05 3.12541E+01-3.11688E+02 2.43947E+04 3.28623E-09-3.73916E-09
 -1       966-2.97147E+05 3.58347E+01-5.85381E+02 1.99928E+04-5.89353E-10-6.74186E-09
 -1       967-2.97230E+05-1.56344E+01-1.20074E+03 2.43863E+04 8.50719E-10 1.18157E-08
 -1       968-2.97072E+05-1.03332E+02-2.35000E+03 2.00006E+04-3.53339E-10-2.91493E-10
 -1       969-2.98181E+05-1.35633E+03-5.21762E+03 2.42958E+04-5.94810E-10-3.95536E-09
 -1       970-2.96173E+05-4.03085E+03-1.01631E+04 2.00848E+04 1.10731E-09 5.69162E-09
 -1       971-2.78150E+05-1.44643E+03-8.00958E+03 1.32135E+04-1.32377E-09 9.93984E-09
 -1       972-2.80095E+05-1.03988E+03-4.36195E+03 1.84365E+04 2.34559E-09 9.91122E-10
 -1       973-2.79041E+05-1.45710E+01-1.95333E+03 1.31036E+04-4.46471E-09 1.98270E-10
 -1       974-2.79174E+05-1.59513E+01-1.01202E+03 1.85559E+04-4.24188E-09 2.46735E-09
 -1       975-2.79111E+05 2.32761E+01-5.05022E+02 1.30934E+04 6.58474E-10 4.30714E-09
 -1       976-2.79120E+05 2.63056E+01-2.89813E+02 1.85685E+04-6.60293E-10 7.70592E-09
 -1       977-2.79124E+05 2.33206E+01-2.07581E+02 1.30909E+04 2.19779E-09 1.05167E-08
 -1       978-2.79124E+05 3.11838E+01-2.39146E+02 1.85720E+04 1.03624E-08-2.04614E-09
 -1       979-2.79124E+05 2.99159E+01-3.80995E+02 1.30899E+04 7.21815E-09 4.33840E-09
 -1       980-2.79152E+05 3.35826E+01-7.33624E+02 1.85726E+04 4.68316E-09 3.62752E-09
 -1       981-2.79101E+05 4.81971E+01-1.41980E+03 1.30903E+04-3.46290E-10-2.25367E-09
 -1       982-2.79347E+05-7.12580E+01-2.93409E+03 1.85670E+04 1.32127E-09-9.31365E-09
 -1       983-2.78922E+05-4.26225E+01-5.70064E+03 1.30957E+04 1.89038E-09 6.50721E-09
 -1       984-2.82088E+05-3.04835E+03-1.27659E+04 1.84923E+04-8.36962E-10 1.00692E-08
 -1       985-2.76341E+05-4.21398E+03-2.34422E+04 1.31690E+04 1.36197E-09-9.29140E-09
 -3
    1PSTEP                        17           9           1          
  100CL  109 5.68237E-01         409                     0    9           1
 -4  DISP        4    1
 -5  D1          1    2    1    0
 -5  D2          1    2    2    0
 -5  D3          1    2    3    0
 -5  ALL         1    2    0    0    1ALL
 -1         1 4.18441E-04 0.00000E+00 0.00000E+00
 -1         2 3.81762E-04 4.10294E-31 6.61744E-24
 -1         3 2.05250E-04 1.11126E-27-1.32349E-23
 -1         5 1.25096E-04 1.70214E-26 0.00000E+00
 -1         8 3.94977E-04-7.71706E-07 0.00000E+00
 -1         9 3.79445E-04-1.56271E-06 0.00000E+00
 -1        10 1.87816E-04-2.72245E-06 0.00000E+00
 -1        12 1.25179E-04 6.25724E-07-1.65436E-24
 -1        15 3.66882E-04-8.56797E-07 0.00000E+00
 -1        16 3.73028E-04-1.94207E-06 0.00000E+00
 -1        17 1.33144E-04-5.86986E-06 0.00000E+00
 -1        18 1.24158E-04 9.76547E-06 0.00000E+00
 -1        19 1.25428E-04 1.24831E-06 0.00000E+00
 -1        20 1.25574E-04 9.33600E-06 0.00000E+00
 -1        21 1.24916E-04 1.54974E-05 0.00000E+00
 -1        24 2.43266E-05-8.25047E-06 0.00000E+00
 -1        25 1.26153E-04 9.91347E-06 0.00000E+00
 -1        26 1.26817E-04 1.72988E-06 0.00000E+00
 -1        27 1.25102E-04 6.47263E-06 0.00000E+00
 -1        28 1.24677E-04 1.49687E-05 0.00000E+00
 -1        32 0.00000E+00 0.00000E+00 0.00000E+00
 -1        33 1.27143E-04 2.32133E-06 0.00000E+00
 -1        34 1.25422E-04 6.44351E-06 0.00000E+00
 -1        35 1.23815E-04 1.46854E-05 0.00000E+00
 -1        51 4.16923E-04-1.31557E-07 0.00000E+00
 -1        52 4.14102E-04-2.54821E-07 0.00000E+00
 -1        53 4.10233E-04-3.78459E-07 0.00000E+00
 -1        54 4.05579E-04-5.04298E-07-3.30872E-24
 -1        55 4.00406E-04-6.33418E-07 2.06795E-24
 -1        56 4.16337E-04-7.59592E-07 0.00000E+00
 -1        57 4.14130E-04-1.47783E-06 0.00000E+00
 -1        58 4.11889E-04-2.08953E-06 0.00000E+00
 -1        59 4.09583E-04-2.57171E-06 2.64698E-23
 -1        60 4.07221E-04-2.90363E-06 0.00000E+00
 -1        61 4.04797E-04-3.07770E-06 0.00000E+00
 -1        62 4.02316E-04-3.10144E-06-5.29396E-23
 -1        63 3.99784E-04-2.99083E-06-2.64698E-23
 -1        64 3.97213E-04-2.77531E-06 0.00000E+00
 -1        65 3.94616E-04-2.48962E-06 0.00000E+00
 -1        66 3.92008E-04-2.17581E-06 5.29396E-23
 -1        67 3.89408E-04-1.87672E-06 0.00000E+00
 -1        68 3.86830E-04-1.63478E-06 0.00000E+00
 -1        69 3.84299E-04-1.48492E-06-2.64698E-23
 -1        70 3.81812E-04-1.46183E-06 0.00000E+00
 -1        86 3.81683E-04-2.56310E-07 0.00000E+00
 -1        87 3.81450E-04-5.13095E-07 0.00000E+00
 -1        88 3.81081E-04-7.69987E-07 0.00000E+00
 -1        89 3.80599E-04-1.02977E-06-6.61744E-24
 -1        90 3.80041E-04-1.28863E-06 1.32349E-23
 -1       121 2.04761E-04-4.48336E-07-1.32349E-23
 -1       122 2.03297E-04-8.97595E-07 0.00000E+00
 -1       123 2.00862E-04-1.34869E-06 1.32349E-23
 -1       124 1.97462E-04-1.80257E-06 6.61744E-24
 -1       125 1.93109E-04-2.25998E-06 0.00000E+00
 -1       191 1.25098E-04 1.04291E-07 0.00000E+00
 -1       192 1.25105E-04 2.08581E-07 0.00000E+00
 -1       193 1.25117E-04 3.12871E-07-3.30872E-24
 -1       194 1.25133E-04 4.17160E-07 0.00000E+00
 -1       195 1.25154E-04 5.21445E-07 3.30872E-24
 -1       251 3.94354E-04 1.11748E-05 0.00000E+00
 -1       252 3.93460E-04 3.74209E-05 0.00000E+00
 -1       253 3.92285E-04 7.33435E-05 0.00000E+00
 -1       254 3.90931E-04 1.14098E-04-6.61744E-24
 -1       255 3.89625E-04 1.53547E-04-1.32349E-23
 -1       256 3.88574E-04 1.85585E-04-6.61744E-24
 -1       257 3.87805E-04 2.06085E-04 0.00000E+00
 -1       258 3.87225E-04 2.11184E-04-6.61744E-24
 -1       259 3.86610E-04 2.01082E-04 0.00000E+00
 -1       260 3.85749E-04 1.76333E-04 6.61744E-24
 -1       261 3.84605E-04 1.41365E-04 0.00000E+00
 -1       262 3.83258E-04 1.00834E-04 0.00000E+00
 -1       263 3.81933E-04 6.08861E-05 0.00000E+00
 -1       264 3.80843E-04 2.76553E-05 0.00000E+00
 -1       265 3.80040E-04 5.47715E-06-1.32349E-23
 -1       266 3.90295E-04-7.96847E-07 0.00000E+00
 -1       267 3.85612E-04-8.09693E-07 0.00000E+00
 -1       268 3.80929E-04-8.23317E-07 8.27181E-25
 -1       269 3.76247E-04-8.34635E-07 0.00000E+00
 -1       270 3.71564E-04-8.45899E-07 4.13590E-25
 -1       271 3.92178E-04 3.05879E-06-2.64698E-23
 -1       272 3.89638E-04 6.08901E-06 0.00000E+00
 -1       273 3.87387E-04 8.35890E-06-2.64698E-23
 -1       274 3.85403E-04 9.90247E-06 0.00000E+00
 -1       275 3.83673E-04 1.07703E-05 2.64698E-23
 -1       276 3.82175E-04 1.10213E-05 0.00000E+00
 -1       277 3.80881E-04 1.07248E-05 2.64698E-23
 -1       278 3.79764E-04 9.95834E-06 1.32349E-23
 -1       279 3.78790E-04 8.80735E-06 0.00000E+00
 -1       280 3.77927E-04 7.36311E-06-1.32349E-23
 -1       281 3.77137E-04 5.72163E-06 2.64698E-23
 -1       282 3.76385E-04 3.98209E-06 0.00000E+00
 -1       283 3.75632E-04 2.24510E-06 2.64698E-23
 -1       284 3.74844E-04 6.12615E-07 0.00000E+00
 -1       285 3.73980E-04-8.18134E-07 0.00000E+00
 -1       301 3.78320E-04-1.64277E-06 1.32349E-23
 -1       302 3.76895E-04-1.69807E-06 0.00000E+00
 -1       303 3.75410E-04-1.75190E-06 0.00000E+00
 -1       304 3.74109E-04-1.80568E-06 0.00000E+00
 -1       305 3.73235E-04-1.86086E-06 1.32349E-23
 -1       306 3.90665E-04-4.22479E-05-5.29396E-23
 -1       307 4.24781E-04-1.61444E-04 2.64698E-23
 -1       308 4.72347E-04-3.39306E-04 0.00000E+00
 -1       309 5.25903E-04-5.50468E-04 0.00000E+00
 -1       310 5.79367E-04-7.61098E-04 5.29396E-23
 -1       311 6.26609E-04-9.37405E-04 0.00000E+00
 -1       312 6.60122E-04-1.05434E-03 0.00000E+00
 -1       313 6.70397E-04-1.09241E-03 2.64698E-23
 -1       314 6.50259E-04-1.05021E-03 0.00000E+00
 -1       315 5.95078E-04-9.33142E-04 2.64698E-23
 -1       316 5.10394E-04-7.61783E-04-5.29396E-23
 -1       317 4.06979E-04-5.59632E-04 2.64698E-23
 -1       318 3.02637E-04-3.55989E-04 0.00000E+00
 -1       319 2.15370E-04-1.80189E-04-2.64698E-23
 -1       320 1.56725E-04-5.63560E-05 0.00000E+00
 -1       336 1.81475E-04-3.22622E-06 1.32349E-23
 -1       337 1.73984E-04-3.73823E-06 0.00000E+00
 -1       338 1.65370E-04-4.25870E-06 1.32349E-23
 -1       339 1.55667E-04-4.78773E-06-6.61744E-24
 -1       340 1.44911E-04-5.32717E-06-1.32349E-23
 -1       406 1.25209E-04 7.29992E-07-3.30872E-24
 -1       407 1.25244E-04 8.34226E-07 1.65436E-24
 -1       408 1.25283E-04 9.38400E-07 0.00000E+00
 -1       409 1.25327E-04 1.04239E-06 0.00000E+00
 -1       410 1.25375E-04 1.14600E-06-3.30872E-24
 -1       521 3.86580E-04-5.23196E-05 0.00000E+00
 -1       522 4.25980E-04-1.96903E-04-5.29396E-23
 -1       523 4.79574E-04-4.12221E-04 1.05879E-22
 -1       524 5.38814E-04-6.67176E-04 0.00000E+00
 -1       525 5.97893E-04-9.20945E-04 1.05879E-22
 -1       526 6.50897E-04-1.13282E-03 0.00000E+00
 -1       527 6.89093E-04-1.27237E-03 1.05879E-22
 -1       528 7.00658E-04-1.31696E-03 0.00000E+00
 -1       529 6.75321E-04-1.26475E-03 1.05879E-22
 -1       530 6.06450E-04-1.12359E-03 0.00000E+00
 -1       531 5.00050E-04-9.17958E-04 1.05879E-22
 -1       532 3.69661E-04-6.76181E-04-5.29396E-23
 -1       533 2.37973E-04-4.32497E-04 1.05879E-22
 -1       534 1.27980E-04-2.21188E-04-5.29396E-23
 -1       535 5.43350E-05-7.12689E-05 1.05879E-22
 -1       536 1.32905E-04 1.36086E-05 6.61744E-24
 -1       537 1.32308E-04 4.75113E-05-1.65436E-24
 -1       538 1.31381E-04 9.05485E-05 0.00000E+00
 -1       539 1.30290E-04 1.37422E-04 0.00000E+00
 -1       540 1.29318E-04 1.81524E-04-1.65436E-24
 -1       541 1.28701E-04 2.16254E-04 0.00000E+00
 -1       542 1.28429E-04 2.37903E-04 0.00000E+00
 -1       543 1.28372E-04 2.42785E-04 0.00000E+00
 -1       544 1.28266E-04 2.31458E-04 0.00000E+00
 -1       545 1.27873E-04 2.04511E-04 0.00000E+00
 -1       546 1.27149E-04 1.66651E-04 0.00000E+00
 -1       547 1.26182E-04 1.22602E-04 0.00000E+00
 -1       548 1.25236E-04 7.90916E-05-8.27181E-25
 -1       549 1.24570E-04 4.28478E-05 0.00000E+00
 -1       550 1.24236E-04 1.82771E-05 0.00000E+00
 -1       551 1.18412E-04-6.21154E-06 0.00000E+00
 -1       552 1.01250E-04-6.58424E-06 3.30872E-24
 -1       553 8.24533E-05-6.98327E-06 1.65436E-24
 -1       554 6.28295E-05-7.39908E-06 0.00000E+00
 -1       555 4.31863E-05-7.81796E-06 0.00000E+00
 -1       556 1.28989E-04 4.83566E-06 0.00000E+00
 -1       557 1.25716E-04 1.32915E-05 0.00000E+00
 -1       558 1.23235E-04 1.96881E-05 0.00000E+00
 -1       559 1.21461E-04 2.42319E-05 0.00000E+00
 -1       560 1.20314E-04 2.71290E-05 0.00000E+00
 -1       561 1.19710E-04 2.85869E-05 0.00000E+00
 -1       562 1.19570E-04 2.88137E-05 0.00000E+00
 -1       563 1.19814E-04 2.80177E-05 0.00000E+00
 -1       564 1.20363E-04 2.64078E-05 0.00000E+00
 -1       565 1.21137E-04 2.41930E-05 0.00000E+00
 -1       566 1.22059E-04 2.15824E-05 0.00000E+00
 -1       567 1.23050E-04 1.87853E-05 0.00000E+00
 -1       568 1.24033E-04 1.60111E-05 1.65436E-24
 -1       569 1.24930E-04 1.34690E-05 0.00000E+00
 -1       570 1.25662E-04 1.13680E-05 0.00000E+00
 -1       571 1.24236E-04 9.21592E-06 0.00000E+00
 -1       572 1.24314E-04 8.62132E-06 8.27181E-25
 -1       573 1.24394E-04 7.99139E-06 0.00000E+00
 -1       574 1.24473E-04 7.33632E-06-1.65436E-24
 -1       575 1.24552E-04 6.66633E-06-1.65436E-24
 -1       576 1.24632E-04 5.99167E-06 3.30872E-24
 -1       577 1.24712E-04 5.32263E-06-3.30872E-24
 -1       578 1.24791E-04 4.66950E-06 1.65436E-24
 -1       579 1.24871E-04 4.04255E-06-3.30872E-24
 -1       580 1.24950E-04 3.45207E-06 0.00000E+00
 -1       581 1.25030E-04 2.90836E-06 0.00000E+00
 -1       582 1.25110E-04 2.42168E-06 3.30872E-24
 -1       583 1.25189E-04 2.00230E-06 0.00000E+00
 -1       584 1.25269E-04 1.66036E-06-6.61744E-24
 -1       585 1.25349E-04 1.40595E-06 0.00000E+00
 -1       586 1.24437E-04 9.79193E-06 0.00000E+00
 -1       587 1.24691E-04 9.81770E-06-1.29247E-25
 -1       588 1.24956E-04 9.84315E-06 0.00000E+00
 -1       589 1.25265E-04 9.86810E-06 0.00000E+00
 -1       590 1.25653E-04 9.89218E-06 0.00000E+00
 -1       591 1.24326E-04 9.26803E-06 1.03398E-25
 -1       592 1.24500E-04 8.74602E-06 0.00000E+00
 -1       593 1.24680E-04 8.20523E-06-4.13590E-25
 -1       594 1.24865E-04 7.65059E-06 0.00000E+00
 -1       595 1.25054E-04 7.08714E-06 0.00000E+00
 -1       596 1.25244E-04 6.51985E-06 0.00000E+00
 -1       597 1.25433E-04 5.95369E-06 4.13590E-25
 -1       598 1.25620E-04 5.39364E-06 0.00000E+00
 -1       599 1.25803E-04 4.84465E-06 4.13590E-25
 -1       600 1.25980E-04 4.31169E-06 2.06795E-25
 -1       601 1.26149E-04 3.79972E-06 0.00000E+00
 -1       602 1.26309E-04 3.31373E-06 2.06795E-25
 -1       603 1.26457E-04 2.85867E-06 2.06795E-25
 -1       604 1.26592E-04 2.43959E-06 5.16988E-26
 -1       605 1.26712E-04 2.06140E-06 0.00000E+00
 -1       606 1.25441E-04 1.26462E-06 0.00000E+00
 -1       607 1.25451E-04 1.37490E-06 0.00000E+00
 -1       608 1.25461E-04 1.57362E-06 3.30872E-24
 -1       609 1.25470E-04 1.85457E-06 0.00000E+00
 -1       610 1.25479E-04 2.21150E-06 0.00000E+00
 -1       611 1.25488E-04 2.63805E-06 0.00000E+00
 -1       612 1.25497E-04 3.12789E-06 0.00000E+00
 -1       613 1.25505E-04 3.67466E-06 0.00000E+00
 -1       614 1.25514E-04 4.27201E-06 0.00000E+00
 -1       615 1.25523E-04 4.91359E-06 0.00000E+00
 -1       616 1.25532E-04 5.59304E-06 0.00000E+00
 -1       617 1.25540E-04 6.30401E-06 0.00000E+00
 -1       618 1.25549E-04 7.04014E-06 0.00000E+00
 -1       619 1.25558E-04 7.79509E-06 0.00000E+00
 -1       620 1.25566E-04 8.56249E-06 0.00000E+00
 -1       621 1.25537E-04 1.32877E-06 0.00000E+00
 -1       622 1.25712E-04 1.40949E-06-8.27181E-25
 -1       623 1.25942E-04 1.49017E-06 1.65436E-24
 -1       624 1.26211E-04 1.57070E-06-8.27181E-25
 -1       625 1.26508E-04 1.65108E-06-1.65436E-24
 -1       626 1.25513E-04 1.29295E-06 0.00000E+00
 -1       627 1.25570E-04 1.41304E-06 0.00000E+00
 -1       628 1.25602E-04 1.60083E-06 0.00000E+00
 -1       629 1.25611E-04 1.84817E-06 0.00000E+00
 -1       630 1.25602E-04 2.14687E-06-3.30872E-24
 -1       631 1.25576E-04 2.48872E-06 1.65436E-24
 -1       632 1.25537E-04 2.86550E-06-3.30872E-24
 -1       633 1.25488E-04 3.26900E-06 0.00000E+00
 -1       634 1.25433E-04 3.69100E-06-3.30872E-24
 -1       635 1.25373E-04 4.12327E-06 1.65436E-24
 -1       636 1.25312E-04 4.55763E-06-3.30872E-24
 -1       637 1.25254E-04 4.98583E-06-1.65436E-24
 -1       638 1.25201E-04 5.39967E-06-1.65436E-24
 -1       639 1.25157E-04 5.79092E-06 8.27181E-25
 -1       640 1.25123E-04 6.15135E-06 1.65436E-24
 -1       656 1.25019E-04 8.87018E-06 0.00000E+00
 -1       657 1.24850E-04 8.38571E-06-6.61744E-24
 -1       658 1.24927E-04 7.90267E-06 1.32349E-23
 -1       659 1.25106E-04 7.42000E-06 0.00000E+00
 -1       660 1.25220E-04 6.93584E-06-6.61744E-24
 -1       661 1.25369E-04 1.00763E-05 8.27181E-25
 -1       662 1.25193E-04 1.07491E-05 0.00000E+00
 -1       663 1.25041E-04 1.13571E-05-1.65436E-24
 -1       664 1.24913E-04 1.19045E-05 0.00000E+00
 -1       665 1.24805E-04 1.23949E-05 0.00000E+00
 -1       666 1.24718E-04 1.28319E-05 8.27181E-25
 -1       667 1.24650E-04 1.32189E-05 1.65436E-24
 -1       668 1.24599E-04 1.35593E-05 0.00000E+00
 -1       669 1.24564E-04 1.38563E-05-1.65436E-24
 -1       670 1.24545E-04 1.41130E-05 0.00000E+00
 -1       671 1.24540E-04 1.43325E-05 0.00000E+00
 -1       672 1.24547E-04 1.45176E-05-8.27181E-25
 -1       673 1.24566E-04 1.46712E-05-1.65436E-24
 -1       674 1.24595E-04 1.47960E-05 0.00000E+00
 -1       675 1.24634E-04 1.48948E-05 0.00000E+00
 -1       676 1.24876E-04 1.54087E-05-3.30872E-24
 -1       677 1.24836E-04 1.53201E-05 0.00000E+00
 -1       678 1.24796E-04 1.52316E-05 0.00000E+00
 -1       679 1.24756E-04 1.51433E-05 0.00000E+00
 -1       680 1.24716E-04 1.50551E-05-1.65436E-24
 -1       771 1.72204E-05 6.91711E-06-5.29396E-23
 -1       772 1.11636E-05 1.93628E-05 0.00000E+00
 -1       773 6.10728E-06 2.92266E-05-5.29396E-23
 -1       774 1.98474E-06 3.66628E-05 0.00000E+00
 -1       775-1.27009E-06 4.18304E-05-5.29396E-23
 -1       776-3.72591E-06 4.48962E-05 0.00000E+00
 -1       777-5.45194E-06 4.60315E-05 0.00000E+00
 -1       778-6.51896E-06 4.54142E-05 2.64698E-23
 -1       779-6.99795E-06 4.32257E-05 0.00000E+00
 -1       780-6.96122E-06 3.96530E-05 0.00000E+00
 -1       781-6.48104E-06 3.48860E-05 5.29396E-23
 -1       782-5.63073E-06 2.91186E-05 0.00000E+00
 -1       783-4.48350E-06 2.25468E-05 0.00000E+00
 -1       784-3.11335E-06 1.53694E-05 0.00000E+00
 -1       785-1.59403E-06 7.78672E-06 0.00000E+00
 -1       786 1.26191E-04 9.19730E-06 0.00000E+00
 -1       787 1.26232E-04 8.52556E-06 4.13590E-25
 -1       788 1.26273E-04 7.89112E-06 0.00000E+00
 -1       789 1.26315E-04 7.28697E-06 4.13590E-25
 -1       790 1.26356E-04 6.70896E-06 0.00000E+00
 -1       791 1.26398E-04 6.15298E-06 0.00000E+00
 -1       792 1.26440E-04 5.61705E-06 0.00000E+00
 -1       793 1.26482E-04 5.09922E-06-8.27181E-25
 -1       794 1.26524E-04 4.59925E-06 0.00000E+00
 -1       795 1.26566E-04 4.11695E-06-8.27181E-25
 -1       796 1.26607E-04 3.65382E-06 0.00000E+00
 -1       797 1.26649E-04 3.21138E-06 0.00000E+00
 -1       798 1.26691E-04 2.79314E-06 0.00000E+00
 -1       799 1.26733E-04 2.40267E-06-8.27181E-25
 -1       800 1.26775E-04 2.04616E-06-1.65436E-24
 -1       801 1.11827E-04 8.57077E-06 0.00000E+00
 -1       802 6.75166E-05 6.34011E-06 0.00000E+00
 -1       803 2.09603E-05 4.02442E-06 0.00000E+00
 -1       804 4.84509E-08 2.52856E-06-1.32349E-23
 -1       805-3.76435E-06 1.26436E-06 0.00000E+00
 -1       806 1.26329E-04 9.14497E-06 0.00000E+00
 -1       807 1.26491E-04 8.40327E-06 8.27181E-25
 -1       808 1.26642E-04 7.69184E-06 1.65436E-24
 -1       809 1.26780E-04 7.01323E-06-8.27181E-25
 -1       810 1.26904E-04 6.36996E-06-1.65436E-24
 -1       811 1.27015E-04 5.76449E-06 0.00000E+00
 -1       812 1.27110E-04 5.19925E-06 0.00000E+00
 -1       813 1.27189E-04 4.67667E-06 8.27181E-25
 -1       814 1.27252E-04 4.19917E-06-1.65436E-24
 -1       815 1.27296E-04 3.76918E-06 0.00000E+00
 -1       816 1.27322E-04 3.38909E-06-1.65436E-24
 -1       817 1.27329E-04 3.06132E-06-1.65436E-24
 -1       818 1.27314E-04 2.78827E-06-1.65436E-24
 -1       819 1.27279E-04 2.57234E-06 8.27181E-25
 -1       820 1.27222E-04 2.41591E-06 0.00000E+00
 -1       821 1.26716E-04 1.38238E-06 8.27181E-25
 -1       822 1.26609E-04 9.33749E-07 0.00000E+00
 -1       823 1.26502E-04 4.69028E-07-3.30872E-24
 -1       824 1.26394E-04 7.33420E-08-1.65436E-24
 -1       825 1.26286E-04-1.83540E-07 0.00000E+00
 -1       826 1.26177E-04-2.32510E-07-1.65436E-24
 -1       827 1.26069E-04-5.05250E-08 3.30872E-24
 -1       828 1.25961E-04 3.84338E-07 0.00000E+00
 -1       829 1.25852E-04 1.03797E-06 0.00000E+00
 -1       830 1.25743E-04 1.87522E-06 0.00000E+00
 -1       831 1.25635E-04 2.82024E-06-3.30872E-24
 -1       832 1.25526E-04 3.79668E-06 0.00000E+00
 -1       833 1.25418E-04 4.72118E-06 0.00000E+00
 -1       834 1.25311E-04 5.51069E-06 8.27181E-25
 -1       835 1.25203E-04 6.11195E-06 8.27181E-25
 -1       836 1.27035E-04 1.82830E-06 0.00000E+00
 -1       837 1.27149E-04 1.92896E-06 0.00000E+00
 -1       838 1.27187E-04 2.02946E-06 0.00000E+00
 -1       839 1.27180E-04 2.12932E-06 0.00000E+00
 -1       840 1.27155E-04 2.22901E-06-4.13590E-25
 -1       856 1.25080E-04 6.77501E-06-4.13590E-25
 -1       857 1.25053E-04 7.19380E-06 0.00000E+00
 -1       858 1.25027E-04 7.71075E-06 0.00000E+00
 -1       859 1.25001E-04 8.30755E-06-4.13590E-25
 -1       860 1.24974E-04 8.96576E-06 0.00000E+00
 -1       861 1.24947E-04 9.66691E-06 4.13590E-25
 -1       862 1.24920E-04 1.03925E-05 0.00000E+00
 -1       863 1.24893E-04 1.11240E-05 0.00000E+00
 -1       864 1.24866E-04 1.18427E-05-8.27181E-25
 -1       865 1.24839E-04 1.25303E-05 0.00000E+00
 -1       866 1.24812E-04 1.31682E-05 8.27181E-25
 -1       867 1.24785E-04 1.37379E-05 0.00000E+00
 -1       868 1.24758E-04 1.42211E-05 0.00000E+00
 -1       869 1.24731E-04 1.45994E-05 0.00000E+00
 -1       870 1.24704E-04 1.48546E-05 0.00000E+00
 -1       871 1.25033E-04 6.47118E-06 4.13590E-25
 -1       872 1.25083E-04 6.46720E-06 0.00000E+00
 -1       873 1.25200E-04 6.46275E-06-4.13590E-25
 -1       874 1.25331E-04 6.45770E-06 1.55096E-25
 -1       875 1.25422E-04 6.45212E-06 0.00000E+00
 -1       876 1.25095E-04 6.78611E-06 0.00000E+00
 -1       877 1.25069E-04 7.15622E-06 0.00000E+00
 -1       878 1.25024E-04 7.57614E-06 0.00000E+00
 -1       879 1.24963E-04 8.03953E-06 0.00000E+00
 -1       880 1.24888E-04 8.54002E-06-3.30872E-24
 -1       881 1.24802E-04 9.07129E-06 0.00000E+00
 -1       882 1.24706E-04 9.62701E-06-3.30872E-24
 -1       883 1.24604E-04 1.02009E-05 1.65436E-24
 -1       884 1.24497E-04 1.07866E-05 0.00000E+00
 -1       885 1.24388E-04 1.13778E-05 0.00000E+00
 -1       886 1.24280E-04 1.19682E-05 3.30872E-24
 -1       887 1.24174E-04 1.25516E-05 0.00000E+00
 -1       888 1.24073E-04 1.31215E-05 3.30872E-24
 -1       889 1.23978E-04 1.36716E-05-8.27181E-25
 -1       890 1.23893E-04 1.41955E-05-1.65436E-24
 -1       891 1.24659E-04 1.49213E-05 0.00000E+00
 -1       892 1.24620E-04 1.48737E-05 0.00000E+00
 -1       893 1.24539E-04 1.48261E-05-8.27181E-25
 -1       894 1.24393E-04 1.47787E-05 0.00000E+00
 -1       895 1.24159E-04 1.47313E-05 4.13590E-25
 -1       956 1.27037E-04 2.35629E-06 0.00000E+00
 -1       957 1.26930E-04 2.45783E-06-8.27181E-25
 -1       958 1.26822E-04 2.61842E-06-3.30872E-24
 -1       959 1.26714E-04 2.83011E-06 8.27181E-25
 -1       960 1.26606E-04 3.08494E-06 0.00000E+00
 -1       961 1.26499E-04 3.37489E-06 0.00000E+00
 -1       962 1.26391E-04 3.69196E-06 3.30872E-24
 -1       963 1.26283E-04 4.02814E-06 0.00000E+00
 -1       964 1.26175E-04 4.37539E-06-3.30872E-24
 -1       965 1.26067E-04 4.72571E-06-1.65436E-24
 -1       966 1.25959E-04 5.07107E-06 3.30872E-24
 -1       967 1.25851E-04 5.40345E-06 1.65436E-24
 -1       968 1.25743E-04 5.71483E-06 0.00000E+00
 -1       969 1.25635E-04 5.99724E-06 0.00000E+00
 -1       970 1.25528E-04 6.24269E-06 3.30872E-24
 -1       971 1.25323E-04 6.65892E-06-1.65436E-24
 -1       972 1.25222E-04 6.95974E-06-8.27181E-25
 -1       973 1.25121E-04 7.33657E-06-3.30872E-24
 -1       974 1.25021E-04 7.77960E-06 0.00000E+00
 -1       975 1.24920E-04 8.27906E-06 3.30872E-24
 -1       976 1.24819E-04 8.82511E-06 1.65436E-24
 -1       977 1.24718E-04 9.40794E-06 0.00000E+00
 -1       978 1.24617E-04 1.00177E-05 0.00000E+00
 -1       979 1.24516E-04 1.06446E-05 0.00000E+00
 -1       980 1.24415E-04 1.12787E-05 0.00000E+00
 -1       981 1.24314E-04 1.19103E-05-3.30872E-24
 -1       982 1.24213E-04 1.25294E-05 0.00000E+00
 -1       983 1.24112E-04 1.31263E-05 3.30872E-24
 -1       984 1.24011E-04 1.36911E-05 0.00000E+00
 -1       985 1.23912E-04 1.42140E-05-1.65436E-24
 -3
    1PSTEP                        18           9           1          
  100CL  109 5.68237E-01         409                     0    9           1
 -4  STRESS      6    1
 -5  SXX         1    4    1    1
 -5  SYY         1    4    2    2
 -5  SZZ         1    4    3    3
 -5  SXY         1    4    1    2
 -5  SYZ         1    4    2    3
 -5  SZX         1    4    3    1
 -1         1-2.81038E+06-1.14140E+06-6.04764E+05-1.34921E+06-1.23691E-10 9.90985E-09
 -1         2 2.24301E+03-7.30298E+05 7.24575E+03-4.88059E+02-8.52651E-12 6.76453E-08
 -1         3-4.28878E+02-1.27843E+06 3.07295E+02-9.85989E+02-2.37097E-10 2.24427E-08
 -1         5-9.32504E-01 2.98402E+05 7.50554E+00-3.45991E-02-3.27004E-11-1.39332E-08
 -1         8-1.06620E+06-3.70947E+05-1.14294E+05-4.69609E+05 2.25555E-10 2.16642E-08
 -1         9-1.14903E+06-8.40727E+05-1.02518E+05-8.36233E+05 1.18103E-08-5.16884E-09
 -1        10-1.25985E+03-1.33194E+06-2.15034E+03-6.67008E+03-7.42602E-09-4.91594E-08
 -1        12 2.14858E+00 2.98418E+05 2.42950E+02-2.65053E-01-2.74625E-12-1.10946E-08
 -1        15 1.81574E+03 9.97856E+02 5.86937E+03 3.67678E+00-2.25242E-10-1.74229E-08
 -1        16-9.62741E+04-1.04847E+06-4.76589E+04-1.26137E+06 1.04483E-08 2.43696E-08
 -1        17-4.37640E+05-1.79222E+05-2.02255E+04-8.49688E+04-6.51926E-09 1.31200E-08
 -1        18 7.88087E+04 1.46242E+04-4.47687E+03-7.65450E+04 8.25503E-09 1.31695E-09
 -1        19 9.67070E+04 1.10689E+05-8.06952E+02 1.91416E+04-6.56655E-11-1.05792E-09
 -1        20-5.15300E+04-4.58146E+05-1.01836E+05 2.79146E+04 1.98452E-09 4.09758E-09
 -1        21-4.09067E+01-2.53719E+05-8.07847E+02-6.94970E+00 2.60453E-10-3.16186E-08
 -1        24-1.40564E+06 2.87807E+05 5.97030E+04-5.01652E+04-6.24229E-08-2.76874E-08
 -1        25-1.18893E+05-6.20094E+05-1.27069E+05-1.55610E+05-4.39832E-10 4.88217E-10
 -1        26-3.85452E+04 7.17619E+04-1.90988E+04-3.70871E+03 1.37952E-09-6.41621E-09
 -1        27-6.59153E+04-2.49052E+05-9.24473E+04 5.63099E+04 5.12205E-09-3.58341E-09
 -1        28 1.94701E+04-7.13779E+04 1.44102E+04 2.03969E+04 5.10369E-10-4.99914E-09
 -1        32-1.36125E+06-2.07660E+06-3.73780E+04-4.39319E+05-2.79024E-08-2.58826E-09
 -1        33-1.46417E+05 7.20294E+04 2.57412E+04-3.34642E+04 6.48394E-11 1.92055E-09
 -1        34-1.84043E+05-1.88892E+04 4.95489E+02 5.86613E+04 9.80113E-10-9.46693E-09
 -1        35-1.98574E+04-2.83522E+04-1.11932E+03 4.41983E+04 2.60550E-09 7.04676E-09
 -1        51 2.82565E+04-3.14237E+05 6.55811E+04-8.88432E+05-1.01863E-10 5.39876E-09
 -1        52 1.29918E+04-3.07333E+05 3.87494E+04-1.03604E+06 6.33008E-10-2.23663E-08
 -1        53 6.71989E+03-3.22099E+05 2.70165E+04-8.85271E+05 9.67702E-10-3.22470E-08
 -1        54 1.80401E+04-3.20075E+05 3.60252E+04-1.03932E+06 4.36557E-10-3.36149E-08
 -1        55 3.59905E+04-3.32857E+05 5.99209E+04-8.84768E+05 0.00000E+00 1.42973E-08
 -1        56-5.35289E+06-5.98901E+05-4.45833E+05-2.07386E+06 3.91447E-09-2.64263E-08
 -1        57-5.56601E+06-9.69927E+05-3.00803E+05-2.01816E+06 2.75213E-09-2.03145E-08
 -1        58-5.43882E+06-7.44278E+05-1.04810E+05-2.05001E+06-5.91717E-09 1.12559E-08
 -1        59-5.46760E+06-7.98150E+05-6.25759E+04-2.04507E+06 9.93259E-09-1.52777E-08
 -1        60-5.44996E+06-7.65966E+05-2.44325E+04-2.04842E+06-5.05088E-09 4.47017E-09
 -1        61-5.45584E+06-7.71573E+05-1.38599E+04-2.04552E+06 9.40543E-09 1.14865E-08
 -1        62-5.45030E+06-7.70232E+05-6.58912E+03-2.04971E+06-3.47131E-09 2.60798E-08
 -1        63-5.45644E+06-7.66141E+05-5.32928E+03-2.04308E+06 5.18588E-09 1.43915E-08
 -1        64-5.44931E+06-7.71324E+05-5.90092E+03-2.05087E+06-5.65549E-10-1.71569E-08
 -1        65-5.45929E+06-7.67131E+05-1.18253E+04-2.04123E+06-7.02130E-10-3.94829E-08
 -1        66-5.44749E+06-7.69294E+05-2.05900E+04-2.05155E+06 1.68893E-09 1.88156E-08
 -1        67-5.47137E+06-7.87192E+05-5.25713E+04-2.03831E+06-4.20641E-10-1.08630E-08
 -1        68-5.43747E+06-7.51787E+05-8.80044E+04-2.05368E+06-5.70435E-09 4.39104E-09
 -1        69-5.55428E+06-9.31058E+05-2.52510E+05-2.01532E+06 1.63709E-10 1.43118E-08
 -1        70-5.36574E+06-6.29411E+05-3.74369E+05-2.07330E+06-9.16771E-10 6.15546E-09
 -1        86-1.11925E+03-7.32246E+05 7.84021E+03 2.44032E+02 2.64890E-10-1.39482E-08
 -1        87 7.45247E+03-7.27785E+05 1.62569E+04-9.07100E+02 5.29099E-10 3.13930E-08
 -1        88-6.31177E+03-7.34754E+05 2.50071E+04 6.63086E+02 6.45741E-10 1.19559E-08
 -1        89 4.70662E+04-7.09416E+05 6.73054E+04-1.55213E+03 8.91305E-10 2.04771E-09
 -1        90-4.05976E+04-7.50576E+05 9.52473E+04 8.89128E+02 8.07631E-10 1.26545E-08
 -1       121-6.10880E+02-1.27998E+06 6.10470E+01 4.91434E+02 8.06665E-10-1.01136E-09
 -1       122-3.16331E+02-1.27840E+06 6.42238E+02-1.96973E+03-2.86482E-09 7.35963E-09
 -1       123-6.66354E+02-1.28006E+06 7.96037E+02 1.46900E+03 2.35912E-09 1.03864E-08
 -1       124 9.16732E+02-1.27777E+06 2.62520E+03-4.17951E+03-5.40831E-09-2.93949E-09
 -1       125-1.40990E+03-1.28075E+06 3.76350E+03 2.69484E+03 3.63980E-09 3.63798E-12
 -1       191-1.23026E+00 2.98429E+05 9.19864E+00 1.73390E-02-1.85527E-11 2.92357E-09
 -1       192-1.61986E+00 2.98403E+05 1.58799E+01-1.44544E-01-2.08533E-11 4.71005E-09
 -1       193-3.05878E+00 2.98428E+05 2.97528E+01 1.27541E-01-8.16716E-11-4.86534E-09
 -1       194-3.83225E+00 2.98405E+05 6.00357E+01-3.41269E-01-4.59623E-11-8.34405E-09
 -1       195-6.57292E+00 2.98426E+05 1.17653E+02 2.14967E-01-9.35856E-11-9.72773E-09
 -1       251-1.67177E+06 1.20862E+04-8.62157E+04-6.63322E+04-9.60426E-10-4.15457E-09
 -1       252-1.50427E+06-1.25626E+04-2.25033E+04 1.97261E+05 3.80783E-09-4.70072E-09
 -1       253-1.58909E+06 1.63320E+02-1.77837E+04-1.30681E+05-6.27824E-09-3.15713E-08
 -1       254-1.57784E+06 9.67965E+03-5.05023E+03 2.52847E+05-3.95630E-09-5.16025E-09
 -1       255-1.60631E+06-3.50897E+03-8.70317E+03-1.22276E+05 1.45492E-08-1.05310E-08
 -1       256-1.45722E+06 9.85742E+03 2.44800E+04 1.67334E+05 6.43558E-09 1.16667E-08
 -1       257-1.69806E+06-9.42557E+03-2.53340E+04-4.47256E+04-2.31921E-10-1.37709E-08
 -1       258-1.36811E+06 8.18639E+03 4.27661E+04-1.59833E+04-1.18016E-08 7.12362E-09
 -1       259-1.68672E+06-8.86713E+03-2.18333E+04 6.06973E+04-2.93521E-08-4.44679E-08
 -1       260-1.48269E+06 1.14623E+04 2.26639E+04-1.89592E+05-1.42559E-08-7.48167E-08
 -1       261-1.59472E+06-3.61327E+03-7.21517E+02 1.28707E+05 3.78609E-08 7.57656E-09
 -1       262-1.57590E+06 1.60600E+04 8.07399E+03-2.53441E+05-3.56703E-09 2.55261E-08
 -1       263-1.60272E+06-5.99668E+03 1.24521E+03 1.24939E+05 1.07384E-08 1.44030E-08
 -1       264-1.45916E+06 2.78296E+04 4.06892E+04-1.76268E+05 5.79785E-08-2.01690E-08
 -1       265-1.70066E+06-2.40642E+04-6.08143E+03 5.11025E+04 1.86483E-08-5.60522E-09
 -1       266-3.28702E+04-1.53684E+04 7.71311E+04-7.86791E+01 1.34605E-10 2.53111E-08
 -1       267 3.81064E+04 1.79149E+04 5.45109E+04 9.07707E+01 1.20963E-10-1.58769E-08
 -1       268-5.10996E+03-2.53709E+03 2.02617E+04-1.15663E+01 4.45652E-11 2.78536E-08
 -1       269 6.03341E+03 3.03653E+03 1.31695E+04 1.34724E+01-5.09317E-11 6.87829E-09
 -1       270-9.05622E+02-4.98918E+02 6.35714E+03-1.82833E+00 6.61657E-11 4.25521E-08
 -1       271-3.02621E+06-3.76568E+05-2.27883E+05-1.17563E+06-3.56522E-10 3.36149E-09
 -1       272-3.11832E+06-5.33094E+05-1.46609E+05-1.16235E+06 3.01964E-09 2.34468E-09
 -1       273-3.06951E+06-4.33083E+05-5.38264E+04-1.16497E+06 4.45993E-09-2.11730E-09
 -1       274-3.06689E+06-4.64458E+05-3.01334E+04-1.17892E+06-2.58478E-09-2.28119E-08
 -1       275-3.07659E+06-4.37843E+05-1.25469E+04-1.16187E+06 3.04772E-09 3.66126E-08
 -1       276-3.05760E+06-4.59712E+05-6.62424E+03-1.18438E+06 2.94676E-10 1.81608E-08
 -1       277-3.07889E+06-4.36935E+05-3.26422E+03-1.15994E+06 1.38152E-09-8.81255E-09
 -1       278-3.05435E+06-4.61569E+05-2.28331E+03-1.18782E+06 9.36393E-09-2.35815E-08
 -1       279-3.08008E+06-4.35767E+05-2.40680E+03-1.15864E+06-6.45741E-11-1.74333E-08
 -1       280-3.05315E+06-4.63760E+05-4.32018E+03-1.18986E+06 1.07693E-08 5.62841E-09
 -1       281-3.08029E+06-4.34664E+05-7.82880E+03-1.15801E+06 1.02273E-09 1.24510E-08
 -1       282-3.05625E+06-4.69524E+05-1.87756E+04-1.18987E+06 3.48450E-09 2.27651E-08
 -1       283-3.07715E+06-4.30419E+05-3.33673E+04-1.15852E+06-8.13088E-10-1.06811E-08
 -1       284-3.08607E+06-5.14284E+05-9.10499E+04-1.18206E+06 3.43061E-09 1.59953E-08
 -1       285-3.05116E+06-3.94463E+05-1.41446E+05-1.16415E+06-4.05635E-10 1.09649E-08
 -1       301 2.33381E+04-1.52403E+05 1.71743E+05-2.92822E+05 8.73115E-11 1.83481E-08
 -1       302 2.47385E+04-1.09270E+05 1.10592E+05-4.28848E+05 4.57931E-10 1.82940E-08
 -1       303 1.25029E+03-1.35316E+05 8.08937E+04-2.92305E+05-2.63753E-10-3.68782E-08
 -1       304 2.50555E+04-1.07310E+05 1.13426E+05-4.28413E+05 5.16593E-10 1.22800E-08
 -1       305 2.31942E+04-1.51763E+05 1.77846E+05-2.93322E+05-2.18279E-10 3.38805E-08
 -1       306-8.69902E+06-1.00453E+06-1.23802E+06-2.04854E+06-2.22353E-08-2.82307E-09
 -1       307-1.65160E+06-1.93861E+06 3.07725E+05-4.25565E+06-2.72128E-07-1.17725E-08
 -1       308-7.35720E+06 1.18221E+05-1.79205E+05-5.17663E+05-3.48809E-08 5.73564E-08
 -1       309-4.03961E+06-2.22444E+06 8.81548E+04-6.27983E+06 8.71132E-08 4.23365E-08
 -1       310-7.38249E+06 1.02522E+05-9.76989E+04-5.31233E+05-1.18744E-08 6.60839E-09
 -1       311-1.56281E+06-1.88143E+06 5.71850E+05-4.20295E+06 1.05181E-07-1.67129E-08
 -1       312-8.73547E+06-1.06507E+06-7.39572E+05-2.07164E+06 8.36153E-08 5.39003E-08
 -1       313-6.29893E+05 1.76800E+03 1.01982E+06-3.28622E+05-1.90921E-08 2.25118E-08
 -1       314-7.45668E+06-2.38013E+06-7.49741E+05-3.55463E+06 1.55036E-07-1.23982E-08
 -1       315-5.76732E+06 2.40275E+06 5.82290E+05 6.63351E+05-4.22006E-08 2.18934E-08
 -1       316-4.63914E+06-2.67707E+06-1.11725E+05-3.65940E+06-2.61105E-07-1.64357E-07
 -1       317-9.47583E+06 3.20537E+06 7.72800E+04-1.66998E+05 2.49798E-07-1.55073E-07
 -1       318-4.53300E+06-2.66327E+06-1.88467E+05-3.64876E+06-2.61804E-07 1.63691E-08
 -1       319-6.13452E+06 2.40718E+06 2.41345E+05 6.30082E+05-3.89773E-08 1.63709E-08
 -1       320-7.26556E+06-2.35135E+06-1.30745E+06-3.59983E+06 5.14265E-08-1.20199E-08
 -1       336 5.07961E+02-1.38564E+06-8.54732E+03 3.94891E+03-1.42454E-08 6.61021E-09
 -1       337-3.20406E+03-1.38690E+06-1.00435E+04-9.62698E+03-2.72566E-08 8.10905E-09
 -1       338 5.07986E+02-1.38567E+06-1.40280E+04 5.63316E+03-1.84855E-08 8.43647E-09
 -1       339-1.47099E+04-1.39443E+06-3.11721E+04-1.29138E+04-3.42116E-08 1.20144E-09
 -1       340 9.80650E+03-1.37866E+06-4.85810E+04 7.19974E+03-2.33613E-08 2.28865E-08
 -1       406 2.09257E+01 2.98415E+05 4.79869E+02 5.18924E-02-4.90274E-11-7.31995E-09
 -1       407 1.69350E+02 2.98502E+05 1.01938E+03 1.24599E+00-1.59915E-10-2.30858E-09
 -1       408 5.27036E+02 2.98342E+05 2.03618E+03-1.33056E+00-1.61890E-10-4.88728E-09
 -1       409 2.20325E+03 2.99152E+05 4.58347E+03 1.32440E+01-1.32559E-10 9.01764E-09
 -1       410 6.32646E+03 2.97763E+05 9.35712E+03-1.24971E+01-3.01725E-10 4.27974E-10
 -1       521-1.09369E+07-1.41631E+06-1.77168E+06-2.34334E+06-3.02098E-08 3.85917E-08
 -1       522-1.24027E+06-2.32133E+06 4.51901E+05-5.66030E+06-1.89291E-07-5.12955E-08
 -1       523-9.00010E+06 1.67688E+05-2.37529E+05-3.17026E+05 4.91855E-09-8.78790E-08
 -1       524-5.04033E+06-2.40032E+06 1.47699E+05-8.46432E+06 2.91288E-07-1.89923E-07
 -1       525-9.06002E+06 1.35732E+05-1.41341E+05-3.50053E+05 2.74085E-07-1.50067E-07
 -1       526-1.04366E+06-2.26522E+06 8.07514E+05-5.50736E+06 6.34464E-08 1.99116E-08
 -1       527-1.09854E+07-1.50503E+06-1.11758E+06-2.41374E+06 2.61643E-08 8.59582E-08
 -1       528 5.93554E+05 1.69221E+05 1.41356E+06 1.37944E+05-4.97093E-08 2.54877E-08
 -1       529-9.21300E+06-3.31464E+06-1.12757E+06-4.43617E+06-1.75001E-07 2.49420E-08
 -1       530-6.94141E+06 3.72091E+06 8.21628E+05 1.22989E+06-1.61293E-07 2.13404E-07
 -1       531-5.34746E+06-3.61793E+06-1.50324E+05-4.53731E+06-2.47499E-07 9.59699E-09
 -1       532-1.22724E+07 4.83956E+06 1.54429E+05-3.90748E+05 1.59293E-07-1.85267E-07
 -1       533-5.19742E+06-3.60130E+06-2.16502E+05-4.51702E+06 3.75003E-08-3.39991E-07
 -1       534-7.45595E+06 3.83882E+06 4.69363E+05 1.12370E+06-7.44112E-08 2.52294E-07
 -1       535-8.97953E+06-3.36146E+06-1.71600E+06-4.48606E+06-5.29690E-09 1.60573E-07
 -1       536-2.14778E+05-4.02108E+04 4.64812E+04-8.68277E+03-1.40188E-08 3.20360E-08
 -1       537 2.48371E+04 4.13874E+04 7.04106E+04 1.90423E+04-7.31493E-08 3.95848E-08
 -1       538-1.05129E+05-1.05511E+03 1.70591E+04-1.06790E+04 1.81668E-08 2.56550E-08
 -1       539-5.14196E+04 5.55676E+02 1.84062E+04 2.09512E+04 9.33283E-08 4.16638E-08
 -1       540-1.38947E+05 9.69837E+02-3.21162E+03-1.06151E+04 1.31853E-08 3.49835E-08
 -1       541 7.82818E+04 4.14752E+03 3.73729E+04 1.48611E+04 1.38478E-08 3.91574E-08
 -1       542-2.33915E+05-5.42542E+03-2.59409E+04-4.54947E+03 1.67586E-08 1.64508E-08
 -1       543 1.55440E+05 8.64941E+03 5.15095E+04-2.44376E+03-1.25665E-08 1.43762E-08
 -1       544-2.15571E+05-3.98089E+03-2.33186E+04 6.65743E+03 6.92387E-09-1.65930E-08
 -1       545 3.47031E+04-1.79368E+01 2.51873E+04-1.75471E+04 1.73541E-07-3.16534E-08
 -1       546-1.14010E+05 3.94098E+03-3.83826E+03 1.05406E+04 1.99543E-04 7.79123E-06
 -1       547-6.04077E+04-6.75552E+03 3.15808E+03-2.13644E+04 4.00891E-04 1.81163E-05
 -1       548-1.21120E+05 3.31839E+03-9.20043E+03 1.05063E+04 1.99293E-04 7.58497E-06
 -1       549 4.84816E+04 1.20039E+03 1.83197E+04-1.67286E+04 1.16003E-07-4.78717E-08
 -1       550-2.22143E+05-4.65815E+03-4.52956E+04 5.87042E+03 7.63498E-09-1.51804E-08
 -1       551 2.36726E+04-6.58548E+05 2.32276E+04-1.05605E+06-5.97865E-08-1.44501E-08
 -1       552 5.23161E+04-6.75932E+05 3.17566E+04-1.50483E+06-4.49218E-08 2.22644E-08
 -1       553 3.77972E+04-6.80829E+05 4.65388E+04-1.05177E+06-7.33053E-08 2.31594E-08
 -1       554 8.11876E+04-6.76016E+05 9.78215E+04-1.50646E+06-4.30955E-08 1.32163E-08
 -1       555 6.66755E+04-7.00417E+05 1.73434E+05-1.05257E+06-7.18574E-08-4.54384E-09
 -1       556 1.18529E+05-2.35788E+05 6.39937E+04-2.88766E+05-1.12050E-08-1.19762E-08
 -1       557 2.09965E+05-3.09364E+05 3.42491E+04-3.64163E+05 2.18279E-10-3.73075E-09
 -1       558 1.13946E+05-2.41809E+05 1.28615E+04-2.83319E+05-9.03674E-09 4.67116E-09
 -1       559 1.94336E+05-3.16984E+05 6.83491E+03-3.72947E+05 1.49594E-08 5.89716E-09
 -1       560 1.08198E+05-2.38126E+05 2.25349E+03-2.87236E+05 3.62343E-09 4.54747E-10
 -1       561 1.86526E+05-3.14294E+05 1.42218E+03-3.78052E+05-1.11322E-09 1.24355E-08
 -1       562 1.03666E+05-2.35224E+05 2.47575E+02-2.90484E+05-7.85803E-09-4.87762E-09
 -1       563 1.81207E+05-3.11983E+05 3.44070E+02-3.81482E+05-1.66619E-09-1.10241E-08
 -1       564 1.00635E+05-2.33310E+05 2.08710E+01-2.92622E+05 7.49424E-09-6.95763E-10
 -1       565 1.78045E+05-3.10612E+05 1.14247E+02-3.83491E+05-2.52840E-10-1.09867E-09
 -1       566 9.91679E+04-2.32370E+05-2.47698E+01-2.93654E+05-1.70621E-09 2.60297E-09
 -1       567 1.77003E+05-3.10151E+05-1.40941E+02-3.84058E+05 1.31022E-08-2.13186E-09
 -1       568 9.93147E+04-2.32475E+05-5.21456E+02-2.93641E+05-5.90262E-09-3.63070E-09
 -1       569 1.77111E+05-3.10141E+05-1.27934E+03-3.82359E+05-8.24730E-09-5.23505E-09
 -1       570 1.01853E+05-2.34667E+05-2.88045E+03-2.93150E+05 4.14730E-10 7.94898E-10
 -1       571 2.27442E+05 8.24207E+03 1.21090E+04-5.90754E+04 6.35737E-10 6.76300E-09
 -1       572 2.29234E+05 2.92109E+03 5.93293E+03-6.48031E+04 3.41743E-10-7.84894E-10
 -1       573 2.28162E+05 7.49994E+02 2.63593E+03-5.89474E+04 2.98633E-09 2.91402E-09
 -1       574 2.28367E+05 3.00617E+02 1.32101E+03-6.49522E+04 1.07809E-09 5.70117E-09
 -1       575 2.28244E+05 1.02260E+02 6.23118E+02-5.89303E+04-1.06411E-08 5.38785E-09
 -1       576 2.28254E+05 8.63696E+01 3.18180E+02-6.49721E+04-2.16944E-08 6.58383E-09
 -1       577 2.28263E+05 6.32620E+01 1.58388E+02-5.89280E+04-1.85555E-08 6.93899E-09
 -1       578 2.28253E+05 6.96231E+01 8.99290E+01-6.49746E+04-2.15769E-08 3.17823E-09
 -1       579 2.28288E+05 5.32989E+01 6.09430E+01-5.89278E+04-8.54197E-09-5.50835E-09
 -1       580 2.28288E+05 5.41451E+01 6.74945E+01-6.49712E+04-4.10546E-09-2.35559E-10
 -1       581 2.28328E+05 3.66060E+01 1.02227E+02-5.89315E+04 6.76664E-10-2.30739E-09
 -1       582 2.28360E+05 5.78033E+01 2.03943E+02-6.49335E+04 1.22964E-09 4.92582E-09
 -1       583 2.28372E+05 1.01723E+02 3.95459E+02-5.89656E+04-6.54836E-11-1.39084E-09
 -1       584 2.28560E+05 4.17410E+02 8.90007E+02-6.46471E+04-1.65346E-09-6.75641E-09
 -1       585 2.28327E+05 1.19802E+03 1.80854E+03-5.92182E+04-1.92449E-09-9.24229E-09
 -1       586-3.12743E+03 7.36475E+04-3.79751E+03-1.98036E+05-1.03410E-09 1.00134E-08
 -1       587-8.15936E+02 7.31813E+04-2.21226E+02-2.17986E+05-1.75351E-09 5.60817E-09
 -1       588 7.15619E+02 7.32418E+04 3.19574E+03-1.97945E+05-1.02045E-09 5.85260E-09
 -1       589 4.31999E+03 7.50002E+04 9.02828E+03-2.17751E+05-5.96629E-10 2.33103E-09
 -1       590 1.28883E+04 7.22209E+04 1.92295E+04-1.98288E+05-1.68529E-09-7.42148E-10
 -1       591-4.49023E+04-1.15191E+04-1.59339E+04-2.13610E+04 2.46132E-10 3.21415E-09
 -1       592-4.71966E+04-1.46325E+04-8.63079E+03-2.46037E+04 3.12440E-10-6.71105E-09
 -1       593-4.65008E+04-1.03576E+04-3.59279E+03-2.25244E+04-1.75532E-10 2.48178E-09
 -1       594-4.49886E+04-1.23031E+04-1.79189E+03-2.46975E+04-1.11558E-09 1.91118E-09
 -1       595-4.66229E+04-1.03533E+04-8.23031E+02-2.25774E+04-8.60950E-10 1.99049E-09
 -1       596-4.48380E+04-1.21965E+04-4.18887E+02-2.46803E+04 6.85502E-09-3.51415E-09
 -1       597-4.66383E+04-1.03640E+04-2.29129E+02-2.25794E+04 5.62551E-09 2.78362E-09
 -1       598-4.48233E+04-1.21924E+04-1.86088E+02-2.46755E+04 1.23492E-10-8.68124E-09
 -1       599-4.66372E+04-1.03643E+04-2.40065E+02-2.25791E+04 1.29603E-09-1.00422E-08
 -1       600-4.48386E+04-1.21975E+04-4.47853E+02-2.46793E+04-8.56062E-10-2.97314E-09
 -1       601-4.66187E+04-1.03536E+04-8.84477E+02-2.25762E+04 4.21323E-09 1.07389E-09
 -1       602-4.50003E+04-1.23116E+04-1.92814E+03-2.46951E+04 9.12235E-09-6.93763E-09
 -1       603-4.64853E+04-1.03604E+04-3.86698E+03-2.25196E+04 1.32377E-09-5.51131E-09
 -1       604-4.73893E+04-1.48048E+04-9.28916E+03-2.45763E+04 1.42336E-09 9.94464E-09
 -1       605-4.47498E+04-1.16233E+04-1.71494E+04-2.12814E+04 4.59443E-09 9.75706E-09
 -1       606 2.72797E+04-1.08816E+04-1.95594E+04 2.62736E+04-1.18871E-09 3.68800E-09
 -1       607 2.39326E+04-3.52689E+03-9.73971E+03 2.95000E+04-6.62112E-10-6.82803E-10
 -1       608 2.58328E+04-6.10867E+02-4.36129E+03 2.60687E+04 1.45155E-09-1.98315E-09
 -1       609 2.54584E+04-1.77628E+02-2.20282E+03 2.97316E+04-1.06502E-09 7.01698E-09
 -1       610 2.56598E+04 7.05909E+00-1.05189E+03 2.60455E+04-2.58842E-09 1.31133E-08
 -1       611 2.55924E+04 1.73595E+01-5.30318E+02 2.97568E+04-5.85806E-09 9.00809E-09
 -1       612 2.56150E+04 2.30392E+01-2.53062E+02 2.60432E+04-2.72303E-09 3.63798E-10
 -1       613 2.55920E+04 2.56130E+01-1.14156E+02 2.97598E+04-6.58838E-09-1.01070E-08
 -1       614 2.55911E+04 2.26715E+01-2.91219E+01 2.60424E+04-2.44108E-09 1.26722E-08
 -1       615 2.55807E+04 3.07538E+01 4.25476E+01 2.97603E+04 6.05542E-09 3.50656E-09
 -1       616 2.55727E+04 2.83531E+01 1.32393E+02 2.60427E+04-1.07580E-08 2.65322E-09
 -1       617 2.55913E+04 6.22390E+01 3.04168E+02 2.97597E+04-2.21671E-08 3.24667E-09
 -1       618 2.55423E+04 1.18551E+02 6.13740E+02 2.60428E+04-9.64201E-09-5.97629E-09
 -1       619 2.58047E+04 5.38835E+02 1.37873E+03 2.97589E+04 9.67475E-10 1.63641E-09
 -1       620 2.53364E+04 1.57572E+03 2.77127E+03 2.60420E+04 1.92188E-09 8.15180E-09
 -1       621 2.63449E+02 2.31180E+05 2.42487E+03 1.63890E+04 1.31877E-10 3.06954E-09
 -1       622 3.26847E+02 2.31770E+05 2.27807E+03 2.38467E+04 1.17097E-10-1.05797E-09
 -1       623 2.44571E+01 2.31312E+05 2.90517E+03 1.63100E+04 9.51559E-11 1.08525E-08
 -1       624 1.40739E+03 2.32744E+05 5.76646E+03 2.39281E+04 1.36907E-10 2.94542E-08
 -1       625 1.41297E+03 2.30173E+05 1.01420E+04 1.63068E+04 3.21506E-10 6.33440E-09
 -1       626 2.05520E+05 5.37335E+04 4.55593E+03 1.06488E+05-9.12405E-09 1.42245E-09
 -1       627 2.03165E+05 5.52701E+04 2.19543E+03 1.10612E+05-1.86847E-08 6.92194E-09
 -1       628 2.05653E+05 5.16225E+04 9.27705E+02 1.07229E+05-8.34643E-09 4.92810E-09
 -1       629 2.02561E+05 5.47000E+04 4.54133E+02 1.10857E+05 9.10859E-10 1.23183E-09
 -1       630 2.05663E+05 5.15224E+04 2.09779E+02 1.07255E+05 7.13953E-10 7.18683E-09
 -1       631 2.02491E+05 5.46824E+04 1.11827E+02 1.10858E+05 1.40699E-09 1.32331E-10
 -1       632 2.05655E+05 5.15290E+04 7.16728E+01 1.07247E+05-7.24867E-10-1.09287E-08
 -1       633 2.02478E+05 5.46871E+04 7.69611E+01 1.10851E+05-2.88651E-09-4.86784E-09
 -1       634 2.05646E+05 5.15293E+04 1.21758E+02 1.07243E+05 4.55930E-09-6.41421E-10
 -1       635 2.02485E+05 5.46879E+04 2.44922E+02 1.10852E+05 1.58116E-09-5.25688E-09
 -1       636 2.05635E+05 5.15271E+04 4.93792E+02 1.07241E+05-1.48961E-09 2.74031E-09
 -1       637 2.02588E+05 5.47655E+04 1.08495E+03 1.10848E+05-1.62402E-10-1.38284E-08
 -1       638 2.05595E+05 5.17680E+04 2.22926E+03 1.07131E+05 1.26965E-09 7.57154E-09
 -1       639 2.03759E+05 5.63936E+04 5.27391E+03 1.10501E+05-7.43171E-09-5.87170E-09
 -1       640 2.05437E+05 5.66254E+04 1.09444E+04 1.05075E+05-1.41472E-09 1.46094E-08
 -1       656 5.40009E+04-1.37326E+06-1.30360E+05-6.87067E+02 6.47560E-10 6.70707E-09
 -1       657-7.14005E+04-1.43213E+06-1.07902E+05 7.28370E+03-2.62844E-10 4.73427E-09
 -1       658 1.71720E+04-1.39002E+06-6.63382E+04-2.18723E+03 7.64430E-10-3.74371E-09
 -1       659-7.68909E+04-1.43473E+06-1.15114E+05 8.37884E+03-4.24734E-10 1.94701E-09
 -1       660 5.94786E+04-1.37067E+06-1.42762E+05-1.78219E+03-3.92902E-10-4.95896E-09
 -1       661 1.65243E+05 1.77851E+04 1.63838E+04 6.46255E+04 1.87765E-09 1.94541E-09
 -1       662 1.74075E+05 3.03410E+04 1.10405E+04 6.14400E+04 1.01818E-09-2.13331E-08
 -1       663 1.68458E+05 2.30433E+04 3.86179E+03 6.36944E+04-2.87810E-09 3.39924E-10
 -1       664 1.70351E+05 2.41888E+04 2.30934E+03 6.25745E+04 1.50510E-09-1.48844E-09
 -1       665 1.68942E+05 2.37645E+04 9.11005E+02 6.35560E+04-2.01322E-09-6.02876E-09
 -1       666 1.69780E+05 2.33616E+04 5.32040E+02 6.27536E+04-1.35128E-09 1.07624E-08
 -1       667 1.69025E+05 2.38488E+04 2.81414E+02 6.35234E+04-3.45921E-10 2.95602E-09
 -1       668 1.69690E+05 2.32978E+04 2.84004E+02 6.28008E+04 2.53237E-09-1.34823E-08
 -1       669 1.69032E+05 2.38264E+04 3.82262E+02 6.35093E+04 6.86924E-10-4.41105E-09
 -1       670 1.69784E+05 2.35028E+04 8.30288E+02 6.28022E+04 1.78901E-09 3.70937E-09
 -1       671 1.68931E+05 2.36479E+04 1.47353E+03 6.35203E+04 1.33785E-09-3.60347E-09
 -1       672 1.70643E+05 2.49362E+04 3.76944E+03 6.25946E+04 8.16627E-10-8.51037E-09
 -1       673 1.68177E+05 2.24291E+04 6.31677E+03 6.37031E+04 1.70689E-09 1.40449E-09
 -1       674 1.76657E+05 3.50827E+04 1.80646E+04 6.08261E+04-6.54836E-10 2.63299E-10
 -1       675 1.62956E+05 1.37852E+04 2.68138E+04 6.51818E+04 2.12412E-09 3.32875E-09
 -1       676 2.09583E+01-2.53651E+05-9.73666E+02 3.47493E+00-4.43265E-10-1.45870E-08
 -1       677-2.58589E+02-2.53887E+05-1.78194E+03-6.94553E+00-1.53057E-09-5.15165E-10
 -1       678 1.72608E+02-2.53484E+05-3.15001E+03 3.46823E+00-6.85986E-10-5.39164E-09
 -1       679-3.15093E+03-2.55788E+05-7.48297E+03-6.91982E+00 3.91083E-10-1.71772E-08
 -1       680 1.88048E+03-2.51751E+05-1.20600E+04 3.41006E+00-5.57975E-10-1.06473E-08
 -1       771-2.68800E+06-5.47219E+05-8.37485E+04-1.19506E+06-1.36788E-08-1.61963E-08
 -1       772-2.64731E+06-6.01812E+05-4.39325E+04-1.25727E+06-5.87170E-09 3.64162E-09
 -1       773-2.70282E+06-5.35507E+05-2.08349E+04-1.20039E+06 7.71252E-10 3.93629E-09
 -1       774-2.63857E+06-5.93026E+05-9.63510E+03-1.26784E+06 2.25846E-08-1.00044E-09
 -1       775-2.70901E+06-5.31128E+05-6.18285E+03-1.20214E+06-1.41154E-09-3.81988E-10
 -1       776-2.64152E+06-5.92636E+05-2.48695E+03-1.27505E+06-7.26868E-09 1.35333E-09
 -1       777-2.71408E+06-5.27400E+05-2.37959E+03-1.20365E+06 3.49246E-09 6.10453E-09
 -1       778-2.64492E+06-5.92393E+05-7.40539E+02-1.28117E+06 6.17001E-09 5.45697E-09
 -1       779-2.71832E+06-5.24213E+05-1.09282E+03-1.20495E+06-4.11819E-09-4.24370E-09
 -1       780-2.64794E+06-5.92122E+05-2.20921E+02-1.28613E+06-3.42334E-09 2.78305E-10
 -1       781-2.72163E+06-5.21678E+05-4.44748E+02-1.20597E+06-2.79906E-08-3.47973E-09
 -1       782-2.65025E+06-5.91853E+05 3.89179E+01-1.28977E+06-3.43352E-08-2.84535E-09
 -1       783-2.72393E+06-5.19951E+05 2.59155E+01-1.20669E+06-9.36416E-09-5.77825E-09
 -1       784-2.65159E+06-5.91535E+05 4.43179E+02-1.29199E+06-2.23372E-08-1.01272E-09
 -1       785-2.72517E+06-5.19011E+05 7.42908E+02-1.20711E+06-2.98023E-08 3.51429E-09
 -1       786 1.16106E+05-8.71453E+03 2.01604E+04-1.14799E+02 2.05213E-09-5.11591E-09
 -1       787 1.24848E+05 1.00887E+04 1.42629E+04 3.10176E+01 4.36433E-09 5.17298E-09
 -1       788 1.19477E+05-1.36601E+03 5.21637E+03-9.07672E+01 2.11560E-09 3.00088E-09
 -1       789 1.20921E+05 1.58036E+03 3.27531E+03-8.05865E+00-1.67842E-10-7.70740E-10
 -1       790 1.20033E+05-2.13124E+02 1.32757E+03-7.57275E+01-8.96891E-10 5.20856E-09
 -1       791 1.20270E+05 2.46166E+02 7.69634E+02-3.43654E+01-1.79417E-09 2.30426E-09
 -1       792 1.20127E+05-3.28131E+01 3.31838E+02-6.44607E+01-1.78075E-09-4.48560E-09
 -1       793 1.20159E+05 3.67046E+01 1.77952E+02-5.56416E+01-6.36586E-10-5.17367E-09
 -1       794 1.20144E+05-3.79509E+00 7.13980E+01-5.44510E+01 1.05839E-09 1.05966E-09
 -1       795 1.20136E+05-3.38014E+00 1.59762E+01-7.63846E+01-7.26041E-10 4.51106E-10
 -1       796 1.20151E+05 7.25082E+00-2.88751E+01-4.37173E+01 9.14806E-10 1.18615E-08
 -1       797 1.20108E+05-5.83171E+01-1.11756E+02-1.00665E+02 1.97272E-10-5.76123E-09
 -1       798 1.20172E+05 5.11001E+01-1.90467E+02-3.01704E+01 4.48972E-10 6.72564E-09
 -1       799 1.19961E+05-3.77906E+02-5.31859E+02-1.33256E+02 1.22880E-09-1.63524E-10
 -1       800 1.20298E+05 3.26573E+02-7.54846E+02-1.11254E+01 2.21181E-10 5.71964E-09
 -1       801 8.72925E+04-3.96618E+06-4.01909E+05 1.53691E+05 2.92639E-08-2.20762E-08
 -1       802-8.92257E+04-2.92045E+06-6.31549E+04-1.33885E+05 8.15380E-08-1.10429E-08
 -1       803-8.75722E+02-3.89054E+06-1.50402E+05 1.92609E+05 4.18258E-08 2.67496E-08
 -1       804-2.96586E+04-3.27606E+06-1.37764E+03 1.20745E+05 8.03175E-09 8.72478E-09
 -1       805 2.16884E+04-3.61370E+06-4.98031E+04-1.00860E+05 2.70666E-09 4.70448E-09
 -1       806-2.51251E+05-4.71169E+04-1.80446E+04-9.78967E+04-1.29194E-09 1.47093E-08
 -1       807-2.52892E+05-4.39489E+04-8.86508E+03-1.02012E+05 1.95905E-09 7.96854E-09
 -1       808-2.51730E+05-4.06309E+04-3.76098E+03-1.00992E+05-5.47743E-09-4.23722E-09
 -1       809-2.51038E+05-4.14491E+04-1.83908E+03-1.02220E+05 1.57411E-09 8.77071E-09
 -1       810-2.51804E+05-4.04049E+04-8.42884E+02-1.01130E+05 8.97444E-09 2.01808E-08
 -1       811-2.50896E+05-4.13475E+04-4.19178E+02-1.02193E+05-7.47218E-09-1.72713E-09
 -1       812-2.51817E+05-4.04235E+04-2.11864E+02-1.01130E+05-4.70254E-09 1.81444E-09
 -1       813-2.50878E+05-4.13485E+04-1.37666E+02-1.02180E+05-2.59070E-09-2.50111E-10
 -1       814-2.51814E+05-4.04298E+04-1.36149E+02-1.01128E+05-5.90353E-09-8.82301E-09
 -1       815-2.50883E+05-4.13496E+04-2.19588E+02-1.02176E+05 2.33740E-10 2.30330E-09
 -1       816-2.51800E+05-4.04275E+04-4.15912E+02-1.01126E+05 7.23776E-09 8.83574E-10
 -1       817-2.50956E+05-4.13888E+04-8.93270E+02-1.02170E+05 1.11932E-08-1.00954E-10
 -1       818-2.51750E+05-4.05513E+04-1.82162E+03-1.01068E+05 2.15850E-08 3.08155E-08
 -1       819-2.51953E+05-4.24930E+04-4.28721E+03-1.01942E+05 2.27556E-09-2.53362E-09
 -1       820-2.51417E+05-4.37810E+04-8.72552E+03-9.96759E+04-4.17458E-10-6.12999E-10
 -1       821-3.02297E+05 1.67700E+04-3.87846E+04 3.96702E+02 2.79234E-09-1.14342E-08
 -1       822-3.19098E+05-1.94139E+04-2.74448E+04-1.04347E+03-8.52009E-10 1.51458E-08
 -1       823-3.08779E+05 2.62956E+03-1.00449E+04 4.19429E+02-1.05826E-09-1.96678E-09
 -1       824-3.11526E+05-3.04282E+03-6.31848E+03-8.65355E+02-5.49265E-10-9.58062E-09
 -1       825-3.09866E+05 4.11131E+02-2.60082E+03 2.18588E+02 1.05878E-10-6.85861E-09
 -1       826-3.10252E+05-4.84298E+02-1.56265E+03-3.31313E+02-1.78658E-09-1.13458E-08
 -1       827-3.10051E+05 7.22645E+01-8.18587E+02-1.14623E+02-1.66713E-09-6.07869E-09
 -1       828-3.10084E+05-1.48167E+02-7.16280E+02 3.17551E+02-4.30352E-09 9.82918E-09
 -1       829-3.10034E+05 7.53236E+01-8.35784E+02-4.30287E+02-7.16192E-11 9.29793E-09
 -1       830-3.10300E+05-5.04692E+02-1.62871E+03 7.88779E+02 9.46756E-10 6.40946E-09
 -1       831-3.09836E+05 4.29209E+02-2.70204E+03-5.85859E+02-2.39608E-09-8.23809E-09
 -1       832-3.11605E+05-3.16999E+03-6.58487E+03 8.69965E+02-1.34938E-09-1.43144E-08
 -1       833-3.08731E+05 2.73886E+03-1.04668E+04-5.11474E+02-2.09812E-09-1.73941E-09
 -1       834-3.19448E+05-2.02256E+04-2.85893E+04 5.22301E+02-2.50472E-09 2.66664E-09
 -1       835-3.01994E+05 1.74712E+04-4.04162E+04-2.38183E+02 4.79648E-09 3.95812E-09
 -1       836-1.03970E+03 2.88190E+05 1.74891E+04-1.53217E+04-8.00355E-10 2.95586E-10
 -1       837 3.80489E+03 2.93632E+05 1.49801E+04-3.08329E+04-4.53610E-10 1.50294E-09
 -1       838-4.02716E+02 2.89693E+05 1.55179E+04-1.52597E+04-2.48747E-10 8.85393E-09
 -1       839 9.94271E+03 2.98209E+05 2.96058E+04-3.08724E+04 1.73259E-10 3.46290E-09
 -1       840-3.02094E+03 2.83573E+05 4.73199E+04-1.52817E+04-4.54747E-11-8.72035E-10
 -1       856-7.26389E+04 7.57083E+03-1.99514E+04-4.21207E+02-4.49177E-10 5.17502E-09
 -1       857-8.08752E+04-8.88282E+03-1.37355E+04 4.80996E+03-7.28022E-10 1.36060E-09
 -1       858-7.58946E+04 1.06097E+03-5.17757E+03-4.42831E+02-2.86906E-09 6.52517E-09
 -1       859-7.71373E+04-1.23631E+03-3.12606E+03 4.84388E+03-2.55426E-10 5.37756E-09
 -1       860-7.63813E+04 1.47753E+02-1.31276E+03-4.55174E+02 5.69173E-10-2.68415E-09
 -1       861-7.65771E+04-1.65382E+02-7.27749E+02 4.86077E+03-2.90251E-09-1.28517E-08
 -1       862-7.64571E+04 1.95490E+01-3.13682E+02-4.59746E+02 3.60040E-09-7.42195E-09
 -1       863-7.64861E+04-1.20895E+01-1.39616E+02 4.86300E+03 5.88577E-09 1.22554E-10
 -1       864-7.64726E+04-2.13517E+00-1.25259E+01-4.57406E+02 2.47799E-09-1.01015E-09
 -1       865-7.64493E+04 3.92760E+01 1.13807E+02 4.85085E+03 4.44237E-09-7.66451E-09
 -1       866-7.64921E+04-3.21335E+01 2.58629E+02-4.47591E+02-1.31323E-09 6.20476E-09
 -1       867-7.63197E+04 2.67721E+02 6.55476E+02 4.82415E+03 1.19655E-09 9.87370E-11
 -1       868-7.65984E+04-2.27333E+02 1.09365E+03-4.30708E+02-1.08730E-09 3.22405E-09
 -1       869-7.55121E+04 1.89090E+03 2.91912E+03 4.77974E+03-1.87717E-09-5.41320E-10
 -1       870-7.72939E+04-1.61250E+03 4.23521E+03-4.03180E+02 2.69665E-10-6.00176E-09
 -1       871-4.61708E+03-1.15853E+04-1.52761E+04 1.01654E+05 2.96495E-10 4.82305E-09
 -1       872-1.92695E+03-1.50417E+04-6.28346E+03 1.31795E+05 7.87622E-10 1.39344E-08
 -1       873 3.95056E+01-1.34174E+04 7.45969E+02 1.01431E+05 3.46972E-10 1.14865E-08
 -1       874 2.38229E+03-1.12971E+04 8.32867E+03 1.31834E+05-4.18368E-11 5.35965E-09
 -1       875 5.45808E+03-1.53950E+04 1.85676E+04 1.01618E+05 8.36735E-11-1.12777E-09
 -1       876 2.42450E+05 4.14013E+04 1.27035E+04 9.79321E+04-3.33495E-09-4.37740E-09
 -1       877 2.43233E+05 4.41329E+04 6.78404E+03 1.01628E+05 3.00133E-10 8.90338E-09
 -1       878 2.43636E+05 3.99958E+04 2.84220E+03 9.89755E+04-1.19280E-09 1.30854E-09
 -1       879 2.41506E+05 4.24107E+04 1.41600E+03 1.01715E+05 1.11288E-09-9.91633E-10
 -1       880 2.43722E+05 3.99806E+04 6.59426E+02 9.90180E+04 7.20775E-11-1.29774E-10
 -1       881 2.41391E+05 4.23373E+04 3.51729E+02 1.01697E+05 1.62936E-09 9.38083E-09
 -1       882 2.43730E+05 3.99913E+04 2.24330E+02 9.90193E+04 4.84192E-09 2.15792E-11
 -1       883 2.41383E+05 4.23337E+04 2.40038E+02 1.01691E+05 1.89925E-09 1.25237E-09
 -1       884 2.43725E+05 3.99888E+04 3.80829E+02 9.90195E+04 6.14989E-10-3.13599E-09
 -1       885 2.41413E+05 4.23390E+04 7.65049E+02 1.01700E+05 1.26420E-09 9.01764E-10
 -1       886 2.43696E+05 3.99664E+04 1.54163E+03 9.90164E+04 2.26137E-09 6.32599E-09
 -1       887 2.41684E+05 4.25167E+04 3.36741E+03 1.01740E+05 2.20393E-09-2.71893E-09
 -1       888 2.43483E+05 4.00038E+04 6.78541E+03 9.89086E+04 1.85423E-10-1.38334E-09
 -1       889 2.45726E+05 4.67160E+04 1.62095E+04 1.01613E+05-7.82471E-10-9.23114E-09
 -1       890 2.40718E+05 4.32883E+04 3.03596E+04 9.63205E+04 1.71667E-09-7.02676E-09
 -1       891-1.31900E+02-1.36313E+05-1.63901E+03 2.46241E+04 8.37190E-10 5.34078E-09
 -1       892-2.33519E+02-1.36716E+05-1.77141E+03 3.72908E+04-1.34605E-10 1.70303E-09
 -1       893-2.30259E+01-1.36365E+05-2.51958E+03 2.46295E+04 3.15822E-10 1.08230E-09
 -1       894-1.34538E+03-1.37674E+05-5.22293E+03 3.71565E+04 8.80163E-10-2.62480E-09
 -1       895-1.05631E+03-1.35277E+05-9.20080E+03 2.47573E+04 8.00867E-10 4.76484E-09
 -1       956-3.07668E+05-4.31574E+03-1.08264E+04 2.13042E+04-1.54614E-09 1.12561E-09
 -1       957-3.09804E+05-1.46751E+03-5.55765E+03 2.56538E+04-2.14868E-09 6.14818E-10
 -1       958-3.08632E+05-1.28927E+02-2.50398E+03 2.11769E+04-5.21959E-09-4.53861E-09
 -1       959-3.08800E+05-3.49286E+01-1.27897E+03 2.57942E+04-9.04060E-09-7.19206E-09
 -1       960-3.08720E+05 2.41863E+01-6.23628E+02 2.11644E+04-8.84984E-09-2.30966E-09
 -1       961-3.08728E+05 2.00414E+01-3.31072E+02 2.58085E+04-1.11868E-08 2.44108E-09
 -1       962-3.08738E+05 2.05056E+01-1.89940E+02 2.11625E+04-5.52677E-09-5.17593E-09
 -1       963-3.08726E+05 2.17140E+01-1.53264E+02 2.58110E+04-3.63252E-09-5.69707E-09
 -1       964-3.08741E+05 2.26429E+01-1.87097E+02 2.11619E+04-1.99640E-09 5.05975E-09
 -1       965-3.08736E+05 2.45781E+01-3.24189E+02 2.58107E+04 1.94632E-09-5.53428E-10
 -1       966-3.08730E+05 3.05508E+01-6.09168E+02 2.11627E+04-2.58160E-09-9.24865E-09
 -1       967-3.08814E+05-2.46876E+01-1.24965E+03 2.58014E+04-2.96200E-09 7.77266E-09
 -1       968-3.08651E+05-1.14848E+02-2.44587E+03 2.11712E+04-5.79348E-10 1.76924E-08
 -1       969-3.09803E+05-1.42067E+03-5.43041E+03 2.57029E+04 5.05679E-10 8.18039E-09
 -1       970-3.07715E+05-4.20317E+03-1.05777E+04 2.12618E+04 5.27507E-10 8.52833E-09
 -1       971-2.87572E+05-1.48534E+03-8.19737E+03 1.35005E+04-2.63026E-09-2.29596E-09
 -1       972-2.89560E+05-1.07107E+03-4.46421E+03 1.88182E+04-2.16141E-09 4.19959E-09
 -1       973-2.88484E+05-1.97708E+01-1.99919E+03 1.33889E+04-3.73211E-09 8.41078E-09
 -1       974-2.88618E+05-2.30664E+01-1.03587E+03 1.89402E+04 1.19053E-09 3.20847E-09
 -1       975-2.88555E+05 1.90754E+01-5.17114E+02 1.33783E+04 1.05774E-09-1.17200E-09
 -1       976-2.88563E+05 2.02763E+01-2.97105E+02 1.89532E+04-1.18530E-09-6.11249E-09
 -1       977-2.88569E+05 1.92117E+01-2.13437E+02 1.33757E+04-1.96451E-10 7.02119E-09
 -1       978-2.88567E+05 2.53438E+01-2.46767E+02 1.89569E+04 7.08303E-09 2.22906E-09
 -1       979-2.88569E+05 2.60717E+01-3.93900E+02 1.33746E+04 4.46380E-09-1.31088E-08
 -1       980-2.88596E+05 2.78397E+01-7.58954E+02 1.89575E+04 2.40232E-09 4.44766E-09
 -1       981-2.88545E+05 4.49993E+01-1.46907E+03 1.33751E+04-3.28794E-09 1.69265E-08
 -1       982-2.88797E+05-8.06428E+01-3.03606E+03 1.89518E+04-7.68193E-09 1.91790E-08
 -1       983-2.88360E+05-4.89782E+01-5.89883E+03 1.33806E+04-2.10844E-09 1.39678E-08
 -1       984-2.91634E+05-3.16126E+03-1.32098E+04 1.88756E+04-1.01954E-09 1.87233E-08
 -1       985-2.85689E+05-4.36535E+03-2.42573E+04 1.34540E+04-4.51564E-10-9.16771E-10
 -3
    1PSTEP                        19          10           1          
  100CL  110 5.83069E-01         409                     0   10           1
 -4  DISP        4    1
 -5  D1          1    2    1    0
 -5  D2          1    2    2    0
 -5  D3          1    2    3    0
 -5  ALL         1    2    0    0    1ALL
 -1         1 7.19801E-04 0.00000E+00 0.00000E+00
 -1         2 6.70292E-04-3.57750E-29 0.00000E+00
 -1         3 2.30738E-04 6.12913E-28 0.00000E+00
 -1         5 1.34554E-04-1.98940E-26 3.30872E-24
 -1         8 6.98063E-04-7.02889E-07 0.00000E+00
 -1         9 6.75786E-04-2.23222E-06 0.00000E+00
 -1        10 2.10563E-04-2.95629E-06 0.00000E+00
 -1        12 1.34961E-04 6.55359E-07 0.00000E+00
 -1        15 6.71959E-04-7.77542E-07 0.00000E+00
 -1        16 6.78364E-04-2.76924E-06 0.00000E+00
 -1        17 1.47519E-04-6.42362E-06 0.00000E+00
 -1        18 1.34856E-04 1.42524E-05 0.00000E+00
 -1        19 1.36183E-04 1.30731E-06 0.00000E+00
 -1        20 1.36328E-04 5.73701E-06 0.00000E+00
 -1        21 1.35633E-04 7.83722E-06 3.30872E-24
 -1        24 2.54110E-05-9.11072E-06 0.00000E+00
 -1        25 1.38490E-04 1.44138E-05 0.00000E+00
 -1        26 1.39130E-04 1.81175E-06 0.00000E+00
 -1        27 1.37341E-04 2.75800E-06 0.00000E+00
 -1        28 1.36942E-04 7.29465E-06 0.00000E+00
 -1        32 0.00000E+00 0.00000E+00 0.00000E+00
 -1        33 1.41049E-04 2.43048E-06 0.00000E+00
 -1        34 1.39263E-04 2.72495E-06 0.00000E+00
 -1        35 1.37606E-04 7.00241E-06 0.00000E+00
 -1        51 7.18398E-04-1.22427E-07 0.00000E+00
 -1        52 7.15788E-04-2.34948E-07 0.00000E+00
 -1        53 7.12206E-04-3.47203E-07 0.00000E+00
 -1        54 7.07895E-04-4.61087E-07-3.30872E-24
 -1        55 7.03099E-04-5.77806E-07 5.79026E-24
 -1        56 7.17338E-04-6.44426E-07 0.00000E+00
 -1        57 7.14602E-04-8.31042E-07 2.64698E-23
 -1        58 7.11701E-04-5.63906E-07 0.00000E+00
 -1        59 7.08640E-04 8.43738E-08 2.64698E-23
 -1        60 7.05474E-04 1.00987E-06 0.00000E+00
 -1        61 7.02248E-04 2.08643E-06-2.64698E-23
 -1        62 6.99018E-04 3.17162E-06 0.00000E+00
 -1        63 6.95838E-04 4.12157E-06 0.00000E+00
 -1        64 6.92758E-04 4.80839E-06 0.00000E+00
 -1        65 6.89820E-04 5.11929E-06-2.64698E-23
 -1        66 6.87049E-04 4.98483E-06 0.00000E+00
 -1        67 6.84465E-04 4.36185E-06-2.64698E-23
 -1        68 6.82060E-04 3.26246E-06 5.29396E-23
 -1        69 6.79831E-04 1.73153E-06-2.64698E-23
 -1        70 6.77727E-04-1.46778E-07 5.29396E-23
 -1        86 6.70495E-04-3.68353E-07 0.00000E+00
 -1        87 6.71098E-04-7.37218E-07-6.61744E-24
 -1        88 6.72027E-04-1.10637E-06 0.00000E+00
 -1        89 6.73202E-04-1.47805E-06 0.00000E+00
 -1        90 6.74497E-04-1.84909E-06 1.32349E-23
 -1       121 2.30172E-04-4.85528E-07 0.00000E+00
 -1       122 2.28476E-04-9.72291E-07 0.00000E+00
 -1       123 2.25657E-04-1.46151E-06-1.32349E-23
 -1       124 2.21722E-04-1.95443E-06-6.61744E-24
 -1       125 2.16685E-04-2.45208E-06 0.00000E+00
 -1       191 1.34566E-04 1.09233E-07-3.30872E-24
 -1       192 1.34599E-04 2.18465E-07-8.27181E-25
 -1       193 1.34656E-04 3.27695E-07-3.30872E-24
 -1       194 1.34735E-04 4.36923E-07 8.27181E-25
 -1       195 1.34837E-04 5.46145E-07 1.65436E-24
 -1       251 6.97391E-04 1.41333E-05 0.00000E+00
 -1       252 6.96210E-04 4.96354E-05 6.61744E-24
 -1       253 6.94459E-04 9.94669E-05 0.00000E+00
 -1       254 6.92311E-04 1.56961E-04 0.00000E+00
 -1       255 6.90220E-04 2.13382E-04-1.32349E-23
 -1       256 6.88614E-04 2.60018E-04 0.00000E+00
 -1       257 6.87579E-04 2.90797E-04 1.32349E-23
 -1       258 6.86959E-04 3.00011E-04-6.61744E-24
 -1       259 6.86307E-04 2.87631E-04 0.00000E+00
 -1       260 6.85190E-04 2.54143E-04 6.61744E-24
 -1       261 6.83497E-04 2.05597E-04 1.32349E-23
 -1       262 6.81362E-04 1.48390E-04 0.00000E+00
 -1       263 6.79232E-04 9.12572E-05 0.00000E+00
 -1       264 6.77548E-04 4.29325E-05 6.61744E-24
 -1       265 6.76441E-04 9.76692E-06-1.32349E-23
 -1       266 6.93712E-04-7.25391E-07-3.30872E-24
 -1       267 6.89361E-04-7.36607E-07 0.00000E+00
 -1       268 6.85011E-04-7.48537E-07 8.27181E-25
 -1       269 6.80660E-04-7.58351E-07 0.00000E+00
 -1       270 6.76309E-04-7.68114E-07 4.13590E-25
 -1       271 6.95436E-04 2.98001E-06 0.00000E+00
 -1       272 6.92975E-04 6.11898E-06 1.32349E-23
 -1       273 6.90724E-04 8.70738E-06 2.64698E-23
 -1       274 6.88681E-04 1.07300E-05-1.32349E-23
 -1       275 6.86851E-04 1.21845E-05 2.64698E-23
 -1       276 6.85233E-04 1.30743E-05 0.00000E+00
 -1       277 6.83823E-04 1.34119E-05 0.00000E+00
 -1       278 6.82612E-04 1.32172E-05 0.00000E+00
 -1       279 6.81590E-04 1.25181E-05-2.64698E-23
 -1       280 6.80745E-04 1.13495E-05 0.00000E+00
 -1       281 6.80059E-04 9.75354E-06 2.64698E-23
 -1       282 6.79516E-04 7.77817E-06 1.32349E-23
 -1       283 6.79094E-04 5.47701E-06-2.64698E-23
 -1       284 6.78776E-04 2.90946E-06 0.00000E+00
 -1       285 6.78533E-04 1.36232E-07 0.00000E+00
 -1       301 6.76286E-04-2.33971E-06 1.32349E-23
 -1       302 6.76282E-04-2.42134E-06 0.00000E+00
 -1       303 6.76131E-04-2.50122E-06-6.61744E-24
 -1       304 6.76190E-04-2.58098E-06 0.00000E+00
 -1       305 6.76816E-04-2.66268E-06 0.00000E+00
 -1       306 6.94084E-04-6.70983E-05 5.29396E-23
 -1       307 7.42387E-04-2.53387E-04 2.64698E-23
 -1       308 8.04623E-04-5.30579E-04 0.00000E+00
 -1       309 8.70947E-04-8.58461E-04 2.64698E-23
 -1       310 9.37033E-04-1.18302E-03-5.29396E-23
 -1       311 9.98178E-04-1.45055E-03 2.64698E-23
 -1       312 1.04366E-03-1.62273E-03 0.00000E+00
 -1       313 1.05681E-03-1.67152E-03 5.29396E-23
 -1       314 1.02152E-03-1.59658E-03 0.00000E+00
 -1       315 9.26817E-04-1.41023E-03 5.29396E-23
 -1       316 7.80410E-04-1.14517E-03 0.00000E+00
 -1       317 6.01219E-04-8.37465E-04 0.00000E+00
 -1       318 4.22201E-04-5.29974E-04 0.00000E+00
 -1       319 2.76282E-04-2.65572E-04-2.64698E-23
 -1       320 1.82216E-04-8.01814E-05 0.00000E+00
 -1       336 2.03234E-04-3.50668E-06 0.00000E+00
 -1       337 1.94581E-04-4.06785E-06-6.61744E-24
 -1       338 1.84639E-04-4.64025E-06 1.32349E-23
 -1       339 1.73450E-04-5.22401E-06 0.00000E+00
 -1       340 1.61060E-04-5.82145E-06 1.32349E-23
 -1       406 1.35108E-04 7.64557E-07 0.00000E+00
 -1       407 1.35278E-04 8.73718E-07-8.27181E-25
 -1       408 1.35470E-04 9.82810E-07 0.00000E+00
 -1       409 1.35685E-04 1.09170E-06 0.00000E+00
 -1       410 1.35923E-04 1.20019E-06-1.65436E-24
 -1       521 6.98351E-04-7.62528E-05-1.05879E-22
 -1       522 7.49598E-04-2.83983E-04 5.29396E-23
 -1       523 8.13990E-04-5.92595E-04 0.00000E+00
 -1       524 8.81188E-04-9.56670E-04 5.29396E-23
 -1       525 9.48212E-04-1.31654E-03 1.05879E-22
 -1       526 1.01155E-03-1.61296E-03 0.00000E+00
 -1       527 1.05954E-03-1.80283E-03 1.05879E-22
 -1       528 1.07313E-03-1.85601E-03 0.00000E+00
 -1       529 1.03242E-03-1.77166E-03 1.05879E-22
 -1       530 9.24147E-04-1.56522E-03 5.29396E-23
 -1       531 7.56060E-04-1.27259E-03 1.05879E-22
 -1       532 5.49977E-04-9.33824E-04 5.29396E-23
 -1       533 3.43762E-04-5.94901E-04 1.05879E-22
 -1       534 1.75321E-04-3.01791E-04 0.00000E+00
 -1       535 6.65785E-05-9.45132E-05 0.00000E+00
 -1       536 1.47207E-04 1.64013E-05 6.61744E-24
 -1       537 1.46379E-04 5.66603E-05 0.00000E+00
 -1       538 1.45070E-04 1.08096E-04 0.00000E+00
 -1       539 1.43509E-04 1.64442E-04 0.00000E+00
 -1       540 1.42108E-04 2.17637E-04 0.00000E+00
 -1       541 1.41222E-04 2.59623E-04-4.13590E-25
 -1       542 1.40836E-04 2.85997E-04 0.00000E+00
 -1       543 1.40765E-04 2.92385E-04 4.13590E-25
 -1       544 1.40635E-04 2.79371E-04 0.00000E+00
 -1       545 1.40099E-04 2.47581E-04 0.00000E+00
 -1       546 1.39089E-04 2.02547E-04-8.27181E-25
 -1       547 1.37716E-04 1.49820E-04 0.00000E+00
 -1       548 1.36369E-04 9.76107E-05 8.27181E-25
 -1       549 1.35424E-04 5.41279E-05 2.06795E-25
 -1       550 1.34956E-04 2.46056E-05 2.58494E-26
 -1       551 1.30843E-04-6.80458E-06 0.00000E+00
 -1       552 1.11598E-04-7.22401E-06-3.30872E-24
 -1       553 9.06003E-05-7.67517E-06-1.15805E-23
 -1       554 6.86832E-05-8.14666E-06-6.61744E-24
 -1       555 4.66778E-05-8.62258E-06 0.00000E+00
 -1       556 1.42715E-04 5.93916E-06 0.00000E+00
 -1       557 1.38902E-04 1.57826E-05 0.00000E+00
 -1       558 1.35980E-04 2.33152E-05 0.00000E+00
 -1       559 1.33856E-04 2.87629E-05 0.00000E+00
 -1       560 1.32441E-04 3.23512E-05 0.00000E+00
 -1       561 1.31644E-04 3.43076E-05 0.00000E+00
 -1       562 1.31377E-04 3.48598E-05 0.00000E+00
 -1       563 1.31551E-04 3.42362E-05 0.00000E+00
 -1       564 1.32080E-04 3.26657E-05 0.00000E+00
 -1       565 1.32876E-04 3.03772E-05 0.00000E+00
 -1       566 1.33855E-04 2.76002E-05 0.00000E+00
 -1       567 1.34931E-04 2.45641E-05 8.27181E-25
 -1       568 1.36017E-04 2.14984E-05-1.65436E-24
 -1       569 1.37029E-04 1.86325E-05 0.00000E+00
 -1       570 1.37881E-04 1.61959E-05 0.00000E+00
 -1       571 1.34937E-04 1.34125E-05 8.27181E-25
 -1       572 1.35019E-04 1.25246E-05 4.13590E-25
 -1       573 1.35102E-04 1.15993E-05 3.30872E-24
 -1       574 1.35185E-04 1.06480E-05-8.27181E-25
 -1       575 1.35268E-04 9.68175E-06-1.65436E-24
 -1       576 1.35351E-04 8.71198E-06 0.00000E+00
 -1       577 1.35434E-04 7.74997E-06 0.00000E+00
 -1       578 1.35517E-04 6.80707E-06 0.00000E+00
 -1       579 1.35600E-04 5.89458E-06 0.00000E+00
 -1       580 1.35683E-04 5.02384E-06 0.00000E+00
 -1       581 1.35767E-04 4.20619E-06 6.61744E-24
 -1       582 1.35850E-04 3.45292E-06 0.00000E+00
 -1       583 1.35933E-04 2.77534E-06 0.00000E+00
 -1       584 1.36017E-04 2.18464E-06 0.00000E+00
 -1       585 1.36100E-04 1.69191E-06 0.00000E+00
 -1       586 1.35409E-04 1.42812E-05 0.00000E+00
 -1       587 1.35935E-04 1.43093E-05-1.03398E-25
 -1       588 1.36471E-04 1.43370E-05 0.00000E+00
 -1       589 1.37052E-04 1.43643E-05 0.00000E+00
 -1       590 1.37713E-04 1.43906E-05 0.00000E+00
 -1       591 1.35127E-04 1.34721E-05 0.00000E+00
 -1       592 1.35404E-04 1.26690E-05 0.00000E+00
 -1       593 1.35687E-04 1.18487E-05 4.13590E-25
 -1       594 1.35974E-04 1.10160E-05 4.13590E-25
 -1       595 1.36264E-04 1.01759E-05-8.27181E-25
 -1       596 1.36555E-04 9.33300E-06 4.13590E-25
 -1       597 1.36845E-04 8.49221E-06-8.27181E-25
 -1       598 1.37133E-04 7.65831E-06-2.06795E-25
 -1       599 1.37416E-04 6.83610E-06 4.13590E-25
 -1       600 1.37693E-04 6.03036E-06 4.13590E-25
 -1       601 1.37962E-04 5.24590E-06-4.13590E-25
 -1       602 1.38221E-04 4.48750E-06-2.06795E-25
 -1       603 1.38469E-04 3.75997E-06 0.00000E+00
 -1       604 1.38704E-04 3.06819E-06 5.16988E-26
 -1       605 1.38924E-04 2.41689E-06 0.00000E+00
 -1       606 1.36196E-04 1.10620E-06 0.00000E+00
 -1       607 1.36206E-04 9.96912E-07 0.00000E+00
 -1       608 1.36215E-04 9.74053E-07 0.00000E+00
 -1       609 1.36224E-04 1.03155E-06 0.00000E+00
 -1       610 1.36233E-04 1.16327E-06 0.00000E+00
 -1       611 1.36242E-04 1.36303E-06 0.00000E+00
 -1       612 1.36251E-04 1.62463E-06 0.00000E+00
 -1       613 1.36260E-04 1.94185E-06 0.00000E+00
 -1       614 1.36269E-04 2.30849E-06 0.00000E+00
 -1       615 1.36277E-04 2.71833E-06 8.27181E-25
 -1       616 1.36286E-04 3.16518E-06 0.00000E+00
 -1       617 1.36295E-04 3.64281E-06 4.13590E-25
 -1       618 1.36303E-04 4.14501E-06 0.00000E+00
 -1       619 1.36312E-04 4.66559E-06 0.00000E+00
 -1       620 1.36320E-04 5.19833E-06 0.00000E+00
 -1       621 1.36521E-04 1.39162E-06-1.65436E-24
 -1       622 1.36943E-04 1.47620E-06-1.65436E-24
 -1       623 1.37432E-04 1.56072E-06 1.65436E-24
 -1       624 1.37971E-04 1.64506E-06-8.27181E-25
 -1       625 1.38543E-04 1.72924E-06 1.65436E-24
 -1       626 1.36353E-04 1.13595E-06 0.00000E+00
 -1       627 1.36496E-04 1.03720E-06 0.00000E+00
 -1       628 1.36615E-04 1.00335E-06-3.30872E-24
 -1       629 1.36714E-04 1.02627E-06-1.65436E-24
 -1       630 1.36793E-04 1.09783E-06 0.00000E+00
 -1       631 1.36858E-04 1.20985E-06-1.65436E-24
 -1       632 1.36911E-04 1.35417E-06-3.30872E-24
 -1       633 1.36954E-04 1.52261E-06-1.65436E-24
 -1       634 1.36992E-04 1.70701E-06-3.30872E-24
 -1       635 1.37027E-04 1.89920E-06 1.65436E-24
 -1       636 1.37061E-04 2.09100E-06 0.00000E+00
 -1       637 1.37099E-04 2.27424E-06 0.00000E+00
 -1       638 1.37144E-04 2.44076E-06 0.00000E+00
 -1       639 1.37197E-04 2.58236E-06 1.65436E-24
 -1       640 1.37262E-04 2.69087E-06 1.65436E-24
 -1       656 1.36010E-04 5.25246E-06-6.61744E-24
 -1       657 1.36081E-04 4.74846E-06 0.00000E+00
 -1       658 1.36404E-04 4.24587E-06 0.00000E+00
 -1       659 1.36834E-04 3.74366E-06-6.61744E-24
 -1       660 1.37203E-04 3.23990E-06 0.00000E+00
 -1       661 1.36212E-04 6.24040E-06 0.00000E+00
 -1       662 1.36125E-04 6.67180E-06-8.27181E-25
 -1       663 1.36064E-04 7.03454E-06 0.00000E+00
 -1       664 1.36028E-04 7.33323E-06-8.27181E-25
 -1       665 1.36014E-04 7.57181E-06 1.65436E-24
 -1       666 1.36021E-04 7.75437E-06 0.00000E+00
 -1       667 1.36048E-04 7.88474E-06 0.00000E+00
 -1       668 1.36093E-04 7.96670E-06-8.27181E-25
 -1       669 1.36155E-04 8.00389E-06 0.00000E+00
 -1       670 1.36232E-04 7.99986E-06 0.00000E+00
 -1       671 1.36323E-04 7.95805E-06-1.65436E-24
 -1       672 1.36427E-04 7.88179E-06 0.00000E+00
 -1       673 1.36543E-04 7.77437E-06-1.65436E-24
 -1       674 1.36669E-04 7.63874E-06 0.00000E+00
 -1       675 1.36804E-04 7.47840E-06 4.13590E-25
 -1       676 1.35852E-04 7.74626E-06-3.30872E-24
 -1       677 1.36071E-04 7.65534E-06 0.00000E+00
 -1       678 1.36289E-04 7.56446E-06-3.30872E-24
 -1       679 1.36507E-04 7.47386E-06 0.00000E+00
 -1       680 1.36725E-04 7.38326E-06 0.00000E+00
 -1       771 1.74221E-05 8.20411E-06 5.29396E-23
 -1       772 1.06373E-05 2.24144E-05 0.00000E+00
 -1       773 4.99982E-06 3.36779E-05 0.00000E+00
 -1       774 4.32601E-07 4.21691E-05 0.00000E+00
 -1       775-3.14041E-06 4.80682E-05 0.00000E+00
 -1       776-5.79831E-06 5.15644E-05-2.64698E-23
 -1       777-7.62061E-06 5.28524E-05 0.00000E+00
 -1       778-8.68858E-06 5.21347E-05 0.00000E+00
 -1       779-9.08358E-06 4.96182E-05-5.29396E-23
 -1       780-8.88844E-06 4.55159E-05 2.64698E-23
 -1       781-8.18586E-06 4.00447E-05-5.29396E-23
 -1       782-7.05968E-06 3.34261E-05 0.00000E+00
 -1       783-5.59353E-06 2.58841E-05 0.00000E+00
 -1       784-3.87193E-06 1.76462E-05 2.64698E-23
 -1       785-1.97904E-06 8.94142E-06 2.64698E-23
 -1       786 1.38526E-04 1.34132E-05 0.00000E+00
 -1       787 1.38566E-04 1.24590E-05 0.00000E+00
 -1       788 1.38605E-04 1.15437E-05 8.27181E-25
 -1       789 1.38645E-04 1.06602E-05-4.13590E-25
 -1       790 1.38685E-04 9.80423E-06-8.27181E-25
 -1       791 1.38726E-04 8.97138E-06-8.27181E-25
 -1       792 1.38766E-04 8.15956E-06 1.65436E-24
 -1       793 1.38806E-04 7.36669E-06 0.00000E+00
 -1       794 1.38846E-04 6.59239E-06-1.65436E-24
 -1       795 1.38887E-04 5.83637E-06 0.00000E+00
 -1       796 1.38927E-04 5.10000E-06 0.00000E+00
 -1       797 1.38968E-04 4.38468E-06 8.27181E-25
 -1       798 1.39008E-04 3.69376E-06 0.00000E+00
 -1       799 1.39049E-04 3.03064E-06 0.00000E+00
 -1       800 1.39089E-04 2.40130E-06 0.00000E+00
 -1       801 1.14721E-04 1.26334E-05 0.00000E+00
 -1       802 4.21474E-05 8.55917E-06 0.00000E+00
 -1       803-2.48724E-05 4.80424E-06-5.29396E-23
 -1       804-3.23330E-05 3.16514E-06 0.00000E+00
 -1       805-1.26057E-05 1.53093E-06 5.29396E-23
 -1       806 1.38768E-04 1.33584E-05 0.00000E+00
 -1       807 1.39033E-04 1.23307E-05-8.27181E-25
 -1       808 1.39286E-04 1.13343E-05-3.30872E-24
 -1       809 1.39525E-04 1.03720E-05 0.00000E+00
 -1       810 1.39751E-04 9.44648E-06 0.00000E+00
 -1       811 1.39961E-04 8.56031E-06 1.65436E-24
 -1       812 1.40156E-04 7.71610E-06 0.00000E+00
 -1       813 1.40335E-04 6.91644E-06-8.27181E-25
 -1       814 1.40495E-04 6.16388E-06-1.65436E-24
 -1       815 1.40637E-04 5.46102E-06 8.27181E-25
 -1       816 1.40760E-04 4.81041E-06 1.65436E-24
 -1       817 1.40862E-04 4.21461E-06-1.65436E-24
 -1       818 1.40943E-04 3.67618E-06-3.30872E-24
 -1       819 1.41001E-04 3.19767E-06 1.65436E-24
 -1       820 1.41036E-04 2.78160E-06 1.65436E-24
 -1       821 1.39024E-04 1.16914E-06 0.00000E+00
 -1       822 1.38912E-04 3.82403E-07-8.27181E-25
 -1       823 1.38800E-04-4.45329E-07 0.00000E+00
 -1       824 1.38687E-04-1.21070E-06 0.00000E+00
 -1       825 1.38574E-04-1.82482E-06 0.00000E+00
 -1       826 1.38461E-04-2.19953E-06 1.65436E-24
 -1       827 1.38348E-04-2.30183E-06-3.30872E-24
 -1       828 1.38235E-04-2.10012E-06 0.00000E+00
 -1       829 1.38122E-04-1.63283E-06 0.00000E+00
 -1       830 1.38009E-04-9.39751E-07-1.65436E-24
 -1       831 1.37896E-04-1.12654E-07 0.00000E+00
 -1       832 1.37783E-04 7.55974E-07-1.65436E-24
 -1       833 1.37670E-04 1.56406E-06-3.30872E-24
 -1       834 1.37558E-04 2.20989E-06 0.00000E+00
 -1       835 1.37446E-04 2.62896E-06 0.00000E+00
 -1       836 1.39621E-04 1.91464E-06 0.00000E+00
 -1       837 1.40006E-04 2.01992E-06-1.65436E-24
 -1       838 1.40312E-04 2.12506E-06 0.00000E+00
 -1       839 1.40569E-04 2.22954E-06 0.00000E+00
 -1       840 1.40805E-04 2.33386E-06 0.00000E+00
 -1       856 1.37320E-04 2.80552E-06-4.13590E-25
 -1       857 1.37295E-04 2.97239E-06 0.00000E+00
 -1       858 1.37271E-04 3.23995E-06-4.13590E-25
 -1       859 1.37246E-04 3.58946E-06 4.13590E-25
 -1       860 1.37221E-04 4.00206E-06 0.00000E+00
 -1       861 1.37196E-04 4.45886E-06 4.13590E-25
 -1       862 1.37170E-04 4.94094E-06 0.00000E+00
 -1       863 1.37145E-04 5.42933E-06 0.00000E+00
 -1       864 1.37120E-04 5.90505E-06 8.27181E-25
 -1       865 1.37095E-04 6.34917E-06-4.13590E-25
 -1       866 1.37069E-04 6.74276E-06 0.00000E+00
 -1       867 1.37044E-04 7.06693E-06-4.13590E-25
 -1       868 1.37019E-04 7.30289E-06-8.27181E-25
 -1       869 1.36994E-04 7.43189E-06-4.13590E-25
 -1       870 1.36968E-04 7.43531E-06 8.27181E-25
 -1       871 1.37535E-04 2.75607E-06 4.13590E-25
 -1       872 1.37854E-04 2.75146E-06 0.00000E+00
 -1       873 1.38242E-04 2.74635E-06 4.13590E-25
 -1       874 1.38644E-04 2.74061E-06 1.03398E-25
 -1       875 1.39003E-04 2.73433E-06 2.06795E-25
 -1       876 1.37433E-04 2.81728E-06 3.30872E-24
 -1       877 1.37505E-04 2.93476E-06 1.65436E-24
 -1       878 1.37558E-04 3.10344E-06-3.30872E-24
 -1       879 1.37595E-04 3.31684E-06-1.65436E-24
 -1       880 1.37618E-04 3.56841E-06 3.30872E-24
 -1       881 1.37628E-04 3.85168E-06 0.00000E+00
 -1       882 1.37630E-04 4.16018E-06 0.00000E+00
 -1       883 1.37624E-04 4.48743E-06 0.00000E+00
 -1       884 1.37613E-04 4.82697E-06-3.30872E-24
 -1       885 1.37601E-04 5.17234E-06 0.00000E+00
 -1       886 1.37588E-04 5.51708E-06 3.30872E-24
 -1       887 1.37579E-04 5.85472E-06 1.65436E-24
 -1       888 1.37574E-04 6.17877E-06 0.00000E+00
 -1       889 1.37576E-04 6.48264E-06 0.00000E+00
 -1       890 1.37587E-04 6.75989E-06 0.00000E+00
 -1       891 1.37180E-04 7.24568E-06 0.00000E+00
 -1       892 1.37398E-04 7.19655E-06-4.13590E-25
 -1       893 1.37572E-04 7.14747E-06 1.65436E-24
 -1       894 1.37680E-04 7.09854E-06 4.13590E-25
 -1       895 1.37699E-04 7.04974E-06 8.27181E-25
 -1       956 1.40939E-04 2.21599E-06 1.65436E-24
 -1       957 1.40828E-04 2.07215E-06-8.27181E-25
 -1       958 1.40716E-04 1.99088E-06 1.65436E-24
 -1       959 1.40604E-04 1.96364E-06 0.00000E+00
 -1       960 1.40492E-04 1.98189E-06 3.30872E-24
 -1       961 1.40380E-04 2.03703E-06 0.00000E+00
 -1       962 1.40268E-04 2.12046E-06 0.00000E+00
 -1       963 1.40156E-04 2.22357E-06-1.65436E-24
 -1       964 1.40044E-04 2.33776E-06 3.30872E-24
 -1       965 1.39932E-04 2.45442E-06 0.00000E+00
 -1       966 1.39820E-04 2.56494E-06-3.30872E-24
 -1       967 1.39708E-04 2.66071E-06 0.00000E+00
 -1       968 1.39596E-04 2.73314E-06-3.30872E-24
 -1       969 1.39485E-04 2.77364E-06 0.00000E+00
 -1       970 1.39373E-04 2.77366E-06 0.00000E+00
 -1       971 1.39161E-04 2.68810E-06 0.00000E+00
 -1       972 1.39057E-04 2.73794E-06 8.27181E-25
 -1       973 1.38953E-04 2.86492E-06-3.30872E-24
 -1       974 1.38849E-04 3.05911E-06 1.65436E-24
 -1       975 1.38745E-04 3.31056E-06-3.30872E-24
 -1       976 1.38641E-04 3.60931E-06 0.00000E+00
 -1       977 1.38536E-04 3.94538E-06 3.30872E-24
 -1       978 1.38432E-04 4.30881E-06 0.00000E+00
 -1       979 1.38328E-04 4.68959E-06-3.30872E-24
 -1       980 1.38224E-04 5.07774E-06 1.65436E-24
 -1       981 1.38119E-04 5.46328E-06 3.30872E-24
 -1       982 1.38015E-04 5.83619E-06 0.00000E+00
 -1       983 1.37911E-04 6.18652E-06-3.30872E-24
 -1       984 1.37808E-04 6.50427E-06-1.65436E-24
 -1       985 1.37705E-04 6.77948E-06-1.65436E-24
 -3
    1PSTEP                        20          10           1          
  100CL  110 5.83069E-01         409                     0   10           1
 -4  STRESS      6    1
 -5  SXX         1    4    1    1
 -5  SYY         1    4    2    2
 -5  SZZ         1    4    3    3
 -5  SXY         1    4    1    2
 -5  SYZ         1    4    2    3
 -5  SZX         1    4    3    1
 -1         1-3.18709E+06-1.26354E+06-6.91575E+05-1.41258E+06-1.01136E-09 2.47383E-08
 -1         2 1.78967E+03-1.05077E+06 5.79216E+03 1.81207E+03 1.99208E-10 4.94712E-08
 -1         3-5.80072E+02-1.38362E+06 3.33458E+02-1.23535E+03-1.82673E-10 2.37924E-09
 -1         5-4.43341E+00 3.12559E+05 7.90593E+00-1.90089E-01-1.19150E-10-2.39502E-08
 -1         8-9.53817E+05-3.29235E+05-9.83152E+04-4.12844E+05-1.81899E-10 1.20745E-08
 -1         9 5.15137E+05-7.69931E+05 1.75970E+05-8.35523E+05 1.76835E-08-1.35740E-08
 -1        10-1.46000E+03-1.44159E+06-2.58100E+03-8.35400E+03-8.60837E-09-9.57948E-09
 -1        12-1.19310E+00 3.12576E+05 2.56143E+02-1.42014E+00-6.28688E-11 5.87261E-09
 -1        15 1.66681E+03 9.16008E+02 5.38792E+03 3.13587E+00-1.58593E-10-8.72496E-08
 -1        16 3.20765E+06-7.76296E+05 4.51377E+05-1.13817E+06 1.29900E-08 1.99070E-08
 -1        17 8.64710E+05 5.72918E+05 2.96627E+05 6.63701E+05-2.24682E-09 6.45523E-09
 -1        18 1.06736E+05 2.21176E+04 1.27717E+03-8.17626E+04 1.32851E-08-1.49612E-09
 -1        19 1.01018E+05 1.15661E+05-8.37120E+02 1.96420E+04 2.96677E-10-2.38797E-09
 -1        20-5.71265E+04-4.77631E+05-1.06404E+05 2.72220E+04 1.12141E-09-2.86976E-09
 -1        21-4.17637E+01-2.60340E+05-8.25317E+02 3.90819E+01 4.74802E-06 1.14619E-08
 -1        24 8.66226E+05 1.68335E+06 5.89279E+05 1.34605E+06-8.38772E-08-3.29843E-08
 -1        25-7.69265E+04-4.60664E+05-8.64981E+04-2.46068E+05-2.04500E-10-1.51667E-09
 -1        26-4.25265E+04 7.48131E+04-2.02986E+04-2.45216E+03 1.22745E-09 9.37698E-09
 -1        27-6.74183E+04-2.59265E+05-9.59304E+04 5.83949E+04 5.05164E-09-2.91341E-09
 -1        28 1.98986E+04-7.36459E+04 1.48054E+04 2.03021E+04 2.13703E-10 7.90543E-10
 -1        32-1.45200E+06-2.41953E+06-1.02841E+05-2.51190E+05-2.91584E-08-4.28605E-09
 -1        33-1.51936E+05 7.54998E+04 2.68470E+04-3.38619E+04-6.65201E-10 6.51168E-09
 -1        34-1.90602E+05-1.99320E+04 5.31171E+02 6.15727E+04-7.46591E-11 4.25871E-09
 -1        35-2.03337E+04-2.92421E+04-1.15676E+03 4.53423E+04 1.70553E-09-3.45608E-09
 -1        51 3.33983E+04-2.87258E+05 7.55260E+04-8.19807E+05 7.27596E-11 1.53959E-08
 -1        52 1.40732E+04-2.77754E+05 4.32618E+04-9.55951E+05 1.11322E-09-3.44298E-08
 -1        53 6.17713E+03-2.92485E+05 2.82830E+04-8.16867E+05 5.52973E-10 1.83354E-09
 -1        54 1.61252E+04-2.90011E+05 3.48662E+04-9.59006E+05-1.60071E-10-4.41505E-08
 -1        55 3.26462E+04-3.01890E+05 5.59673E+04-8.16411E+05 5.02041E-10 1.15324E-08
 -1        56-6.05821E+06-6.78777E+05-5.10363E+05-2.35208E+06 7.31961E-09-2.84927E-08
 -1        57-6.31664E+06-1.08908E+06-3.44360E+05-2.27147E+06-1.35806E-08 2.41598E-08
 -1        58-6.15266E+06-8.49167E+05-1.19957E+05-2.32916E+06-6.95400E-09-3.58923E-08
 -1        59-6.20934E+06-8.87027E+05-7.16040E+04-2.29633E+06 2.39652E-10-3.89300E-08
 -1        60-6.16395E+06-8.75389E+05-2.79481E+04-2.32891E+06 4.35557E-09-6.29307E-08
 -1        61-6.19574E+06-8.56784E+05-1.58634E+04-2.29713E+06-1.17807E-08 2.75197E-08
 -1        62-6.16594E+06-8.78666E+05-7.55083E+03-2.32855E+06 2.18742E-09-2.16180E-08
 -1        63-6.19059E+06-8.56327E+05-6.12807E+03-2.30085E+06 1.08889E-09-3.87690E-08
 -1        64-6.16899E+06-8.75790E+05-6.85440E+03-2.32517E+06 1.21690E-09-2.30970E-08
 -1        65-6.18428E+06-8.66979E+05-1.37094E+04-2.30944E+06-8.37645E-09-4.67153E-08
 -1        66-6.17223E+06-8.68128E+05-2.39772E+04-2.31990E+06 1.09740E-08 1.63245E-08
 -1        67-6.18833E+06-9.00343E+05-6.11361E+04-2.31745E+06-1.66624E-08 3.74012E-08
 -1        68-6.16523E+06-8.43050E+05-1.02424E+05-2.31702E+06-2.49020E-09 1.03282E-08
 -1        69-6.27786E+06-1.07507E+06-2.93939E+05-2.29900E+06-4.76211E-09-1.94486E-08
 -1        70-6.08420E+06-6.97995E+05-4.35737E+05-2.33700E+06 2.90311E-09 2.23226E-08
 -1        86-8.96144E+02-1.05257E+06 6.22365E+03-9.06046E+02-6.33463E-10-2.44082E-08
 -1        87 5.93867E+03-1.04882E+06 1.29549E+04 3.26828E+03-1.15119E-09 2.43389E-10
 -1        88-5.02785E+03-1.05452E+06 1.98959E+04-2.36229E+03-1.18416E-09 2.78759E-08
 -1        89 3.74777E+04-1.03427E+06 5.35745E+04 5.24693E+03-1.77533E-09-5.71677E-08
 -1        90-3.23220E+04-1.06708E+06 7.58076E+04-2.88483E+03-1.52431E-09-2.51058E-08
 -1       121-8.16492E+02-1.38566E+06-1.21091E+01 6.15255E+02 9.48205E-10 2.11730E-09
 -1       122-4.52104E+02-1.38360E+06 6.87388E+02-2.46811E+03-3.39885E-09 8.00901E-09
 -1       123-8.70376E+02-1.38575E+06 7.65073E+02 1.83845E+03 2.70518E-09 2.65682E-08
 -1       124 8.99007E+02-1.38296E+06 2.78799E+03-5.20765E+03-6.38556E-09 2.54659E-09
 -1       125-1.66224E+03-1.38651E+06 3.89330E+03 3.34443E+03 4.41469E-09-3.42698E-09
 -1       191-4.91733E+00 3.12586E+05 9.51471E+00 9.55325E-02-1.40421E-10-8.58608E-09
 -1       192-5.15940E+00 3.12560E+05 1.67355E+01-7.49173E-01-1.14758E-10-2.22371E-10
 -1       193-6.84762E+00 3.12586E+05 3.11860E+01 6.57090E-01-2.20259E-10-1.87010E-08
 -1       194-7.49564E+00 3.12562E+05 6.32911E+01-1.75425E+00-1.93212E-10-3.33339E-08
 -1       195-1.05570E+01 3.12584E+05 1.23862E+02 1.10699E+00-2.86384E-10-8.05130E-09
 -1       251-1.77870E+06-8.97532E+02-1.17439E+05-8.99780E+04 2.51748E-09 1.70803E-08
 -1       252-1.39375E+06 3.08058E+03-1.69268E+03 2.75124E+05 1.06593E-09-1.74023E-08
 -1       253-1.60069E+06-3.90778E+03-2.21284E+04-1.84170E+05 1.65983E-09-2.86091E-08
 -1       254-1.57000E+06 2.41378E+04-1.11455E+03 3.61655E+05-1.68603E-09-3.65126E-08
 -1       255-1.62046E+06-7.26107E+03-1.21175E+04-1.77607E+05-8.20910E-09 8.90168E-09
 -1       256-1.34241E+06 2.09718E+04 4.86761E+04 2.50693E+05 9.96351E-10-1.02814E-08
 -1       257-1.80613E+06-1.87004E+04-4.87381E+04-7.19710E+04-1.17561E-08 2.87228E-08
 -1       258-1.14737E+06 1.65297E+04 8.66643E+04-9.86043E+03 1.51886E-08 8.43697E-08
 -1       259-1.79640E+06-1.82943E+04-4.54013E+04 8.20866E+04-1.25601E-08 2.26046E-08
 -1       260-1.36425E+06 2.27357E+04 4.80716E+04-2.63972E+05 1.06847E-08-7.25771E-08
 -1       261-1.61054E+06-7.65236E+03-3.49868E+03 1.81492E+05 5.80794E-08 3.01889E-08
 -1       262-1.56738E+06 3.17636E+04 1.45064E+04-3.61696E+05-2.59913E-08-1.57822E-08
 -1       263-1.61332E+06-1.10380E+04 1.16463E+03 1.80992E+05 6.13818E-09 5.40331E-09
 -1       264-1.34887E+06 5.11687E+04 7.15862E+04-2.62536E+05 8.42447E-08 4.84579E-08
 -1       265-1.80871E+06-4.34653E+04-2.16067E+04 8.11412E+04 2.50620E-08 5.14246E-08
 -1       266-3.01741E+04-1.41084E+04 7.08023E+04-6.71023E+01 3.27418E-11 5.84598E-08
 -1       267 3.49807E+04 1.64453E+04 5.00394E+04 7.74173E+01-1.61890E-10-2.83754E-09
 -1       268-4.69082E+03-2.32901E+03 1.85996E+04-9.86462E+00-1.23691E-10-1.85958E-08
 -1       269 5.53852E+03 2.78744E+03 1.20893E+04 1.14905E+01-1.41654E-10-2.44312E-08
 -1       270-8.31332E+02-4.57989E+02 5.83567E+03-1.55935E+00-1.03910E-10-5.50223E-09
 -1       271-2.76794E+06-3.42163E+05-2.07886E+05-1.07222E+06 1.16052E-09 4.45580E-08
 -1       272-2.86475E+06-4.72610E+05-1.33803E+05-1.04609E+06-1.39403E-09-6.29716E-08
 -1       273-2.80686E+06-3.94370E+05-4.90898E+04-1.06315E+06 7.79380E-10 5.56465E-08
 -1       274-2.81850E+06-4.09138E+05-2.75096E+04-1.06008E+06-1.50048E-08 7.06818E-08
 -1       275-2.81303E+06-3.99052E+05-1.14446E+04-1.06064E+06 3.97267E-09 1.97406E-08
 -1       276-2.81010E+06-4.04579E+05-6.03789E+03-1.06464E+06 1.58207E-09 7.33617E-08
 -1       277-2.81515E+06-3.98245E+05-2.98416E+03-1.05885E+06-8.62565E-09 2.41521E-08
 -1       278-2.80664E+06-4.06655E+05-2.04367E+03-1.06809E+06 5.62432E-09 3.69515E-08
 -1       279-2.81656E+06-3.96868E+05-2.16451E+03-1.05727E+06-1.11049E-08-1.82413E-08
 -1       280-2.80452E+06-4.09607E+05-3.78728E+03-1.07104E+06-4.23370E-09 4.89504E-08
 -1       281-2.81740E+06-3.95248E+05-6.90111E+03-1.05597E+06 6.10362E-09-7.16121E-08
 -1       282-2.80574E+06-4.16199E+05-1.64560E+04-1.07288E+06-1.09799E-08 4.18304E-08
 -1       283-2.81555E+06-3.90596E+05-2.92727E+04-1.05538E+06 7.08587E-09-3.10283E-08
 -1       284-2.82999E+06-4.57454E+05-7.98236E+04-1.06848E+06-7.42148E-10-7.86231E-08
 -1       285-2.79392E+06-3.57892E+05-1.23998E+05-1.05902E+06 1.22782E-09-4.63479E-08
 -1       301 2.24220E+04-2.28949E+05 1.73056E+05-4.31083E+05 5.38421E-10 3.30620E-08
 -1       302 2.39361E+04-1.85534E+05 1.09843E+05-6.30905E+05-7.27596E-11 5.81090E-08
 -1       303 4.39876E+02-2.12080E+05 7.72379E+04-4.30162E+05 1.23691E-10-2.48729E-08
 -1       304 2.12374E+04-1.85220E+05 1.04100E+05-6.30404E+05 2.03727E-10 6.25878E-08
 -1       305 1.87514E+04-2.24913E+05 1.60053E+05-4.31636E+05-6.54836E-11 3.29674E-08
 -1       306-1.19233E+07-1.77575E+06-2.30502E+06-2.01508E+06-4.92146E-08-2.22353E-08
 -1       307 2.97788E+06-1.66906E+06 1.11027E+06-5.58152E+06-4.12736E-07 4.42451E-08
 -1       308-7.85986E+06 2.94964E+05-2.63006E+05 6.58749E+05-9.22155E-08 1.92311E-07
 -1       309-3.45072E+06-1.63147E+06 3.18756E+05-9.06374E+06 1.87671E-07-2.90693E-08
 -1       310-8.09199E+06 2.40314E+05-2.41021E+05 5.68596E+05-2.66882E-08-7.96281E-08
 -1       311 3.51005E+06-1.80006E+06 1.41773E+06-5.08996E+06 3.84171E-08 2.44218E-08
 -1       312-1.19651E+07-1.79027E+06-1.77465E+06-2.28227E+06 3.92902E-08 3.70346E-08
 -1       313 6.64089E+06 1.39149E+06 2.41229E+06 2.56686E+06 6.91507E-08 2.04622E-07
 -1       314-9.43068E+06-4.17986E+06-1.73702E+06-4.88000E+06 5.47734E-08 4.98549E-08
 -1       315-4.39966E+06 5.75815E+06 1.36080E+06 2.99369E+06-3.02243E-07-5.69271E-08
 -1       316-3.60899E+06-4.06718E+06-2.00098E+05-4.16056E+06-3.58123E-07-1.83019E-07
 -1       317-1.16623E+07 6.56329E+06 3.05081E+05-5.88141E+04 2.47379E-07-1.72568E-07
 -1       318-3.63916E+06-4.08475E+06-3.27634E+05-4.16209E+06-4.01909E-07 8.45466E-09
 -1       319-4.27578E+06 5.87354E+06 1.10469E+06 2.97702E+06-2.77578E-08 6.35482E-08
 -1       320-9.51294E+06-4.28476E+06-2.43481E+06-4.84556E+06 9.19681E-08-2.93512E-08
 -1       336 3.94911E+02-1.50003E+06-9.84675E+03 4.96829E+03-1.68238E-08-3.23780E-10
 -1       337-3.72446E+03-1.50124E+06-1.19808E+04-1.20694E+04-3.10397E-08-1.99543E-09
 -1       338 5.74600E+02-1.49995E+06-1.72877E+04 7.03368E+03-2.16314E-08 1.09212E-08
 -1       339-1.82564E+04-1.51085E+06-3.87280E+04-1.60983E+04-3.93993E-08 1.59926E-08
 -1       340 1.21952E+04-1.49123E+06-6.05081E+04 8.94626E+03-2.57842E-08 2.35777E-08
 -1       406 1.84346E+01 3.12572E+05 5.05748E+02 3.27624E-01-3.82784E-10 9.28640E-09
 -1       407 1.75111E+02 3.12664E+05 1.07473E+03 5.95296E+00-1.88905E-10 1.96133E-09
 -1       408 5.52083E+02 3.12495E+05 2.14652E+03-6.44278E+00-5.71561E-10 4.63388E-10
 -1       409 2.31970E+03 3.13350E+05 4.83220E+03 6.47602E+01-1.49186E-10-2.21385E-08
 -1       410 6.66701E+03 3.11884E+05 9.86474E+03-6.13280E+01-7.26800E-10-1.10431E-08
 -1       521-1.41183E+07-2.33316E+06-2.98305E+06-2.18142E+06-3.35858E-08-4.29573E-08
 -1       522 3.57459E+06-1.90304E+06 1.25643E+06-7.28096E+06-2.72645E-07-1.11722E-07
 -1       523-9.35572E+06 2.63228E+05-3.23125E+05 9.48583E+05 4.41505E-08-1.66114E-07
 -1       524-4.81489E+06-1.31458E+06 4.02496E+05-1.15025E+07 3.60771E-07-3.34479E-07
 -1       525-9.66714E+06 1.73367E+05-3.03002E+05 8.32741E+05 3.44822E-07-1.80291E-07
 -1       526 4.41332E+06-2.08607E+06 1.68707E+06-6.59130E+06 2.26311E-07-7.69214E-08
 -1       527-1.41968E+07-2.40545E+06-2.28049E+06-2.53360E+06 1.48313E-07 4.26080E-08
 -1       528 8.47471E+06 1.65961E+06 2.83614E+06 3.36713E+06-8.73115E-09 7.62957E-08
 -1       529-1.10823E+07-5.34321E+06-2.22972E+06-5.69863E+06-4.88362E-08-1.33296E-08
 -1       530-5.68028E+06 7.57261E+06 1.62533E+06 3.60439E+06-1.12239E-07 2.50133E-07
 -1       531-4.16380E+06-5.12034E+06-2.41191E+05-4.92693E+06-4.95507E-07 3.10829E-08
 -1       532-1.46837E+07 8.54748E+06 4.08130E+05-7.88337E+05 2.30277E-07-2.96572E-07
 -1       533-4.16194E+06-5.13435E+06-3.66712E+05-4.91543E+06 4.39904E-08-4.70405E-07
 -1       534-5.63780E+06 7.78270E+06 1.35531E+06 3.52943E+06-1.05676E-07 3.39831E-07
 -1       535-1.11473E+07-5.52430E+06-2.98403E+06-5.65648E+06 2.25846E-08 2.30066E-07
 -1       536-2.63929E+05-4.45859E+04 3.52445E+04-1.17406E+04-1.07908E-08 3.93920E-08
 -1       537 7.32479E+04 4.42421E+04 8.00413E+04 2.46514E+04-7.42223E-08 4.96002E-08
 -1       538-1.10499E+05 5.02354E+02 1.62016E+04-1.33230E+04 2.00823E-08 3.57231E-08
 -1       539-3.30929E+04-1.47968E+03 2.16495E+04 2.67165E+04 1.00817E-07 5.74246E-08
 -1       540-1.58223E+05 1.67805E+03-6.59809E+03-1.38481E+04 8.97643E-09 3.95546E-08
 -1       541 1.50654E+05 5.44409E+03 5.20024E+04 1.99870E+04-2.16432E-08 4.28969E-08
 -1       542-2.92942E+05-7.55362E+03-3.73074E+04-6.52437E+03 2.27544E-08 8.04351E-09
 -1       543 2.62988E+05 1.22641E+04 7.35265E+04-2.88820E+03-1.92074E-10-2.54613E-09
 -1       544-2.69773E+05-5.81208E+03-3.37072E+04 8.97210E+03-2.60570E-09-2.02950E-08
 -1       545 9.38036E+04 3.02543E+02 3.70398E+04-2.27668E+04-2.17094E-07-4.82352E-08
 -1       546-1.24935E+05 5.41325E+03-5.46550E+03 1.33293E+04-2.59586E-04-1.22414E-05
 -1       547-4.34738E+04-8.89919E+03 6.19499E+03-2.71220E+04-5.21930E-04-2.84259E-05
 -1       548-1.33460E+05 4.23094E+03-1.13144E+04 1.33828E+04-2.59468E-04-1.19553E-05
 -1       549 1.10881E+05 5.36893E+03 3.13157E+04-2.20287E+04-2.55585E-07-4.13775E-08
 -1       550-2.78214E+05-9.78966E+03-5.72686E+04 8.17661E+03-5.16616E-09-1.23528E-08
 -1       551 2.66857E+04-6.89373E+05 1.81805E+04-1.08570E+06-6.66842E-08-9.02219E-09
 -1       552 5.90304E+04-7.10847E+05 2.89536E+04-1.54743E+06-4.77885E-08 2.15659E-08
 -1       553 4.32421E+04-7.14481E+05 4.46248E+04-1.08107E+06-8.13379E-08 1.45010E-08
 -1       554 8.93741E+04-7.13475E+05 9.55485E+04-1.54917E+06-4.91564E-08 1.23027E-08
 -1       555 7.23558E+04-7.34790E+05 1.69945E+05-1.08168E+06-8.36590E-08-5.26052E-09
 -1       556 1.34503E+05-2.62256E+05 6.02062E+04-3.12928E+05-1.52068E-08-8.41101E-09
 -1       557 2.33483E+05-3.41844E+05 3.25454E+04-3.96353E+05-7.42148E-10 6.47742E-09
 -1       558 1.27888E+05-2.66542E+05 1.17135E+04-3.08652E+05-1.56870E-08-1.44792E-08
 -1       559 2.16224E+05-3.48610E+05 6.38931E+03-4.06948E+05 1.26674E-08-1.01463E-08
 -1       560 1.20689E+05-2.61953E+05 1.79457E+03-3.13619E+05 3.94357E-09 1.66983E-09
 -1       561 2.06667E+05-3.45168E+05 1.27903E+03-4.13260E+05 5.82077E-10-3.90082E-09
 -1       562 1.15013E+05-2.58348E+05 4.20471E+01-3.17691E+05-1.01863E-09-2.25555E-09
 -1       563 1.99986E+05-3.42260E+05 3.00586E+02-4.17581E+05 6.69388E-10-7.88918E-09
 -1       564 1.11144E+05-2.55915E+05-6.13304E+01-3.20420E+05 1.78989E-09-5.97902E-09
 -1       565 1.95880E+05-3.40478E+05 1.01170E+02-4.20193E+05 1.00408E-08-3.85626E-10
 -1       566 1.09154E+05-2.54645E+05-6.35158E+01-3.21816E+05-2.05182E-09-9.04038E-09
 -1       567 1.94324E+05-3.39797E+05-1.96333E+02-4.21081E+05 1.21490E-08-8.76025E-09
 -1       568 1.09099E+05-2.54624E+05-6.59427E+02-3.21946E+05 2.60843E-09-7.88714E-09
 -1       569 1.94254E+05-3.39820E+05-1.63450E+03-4.19392E+05 2.16096E-09 3.58705E-09
 -1       570 1.11820E+05-2.57040E+05-3.61717E+03-3.21332E+05 1.04337E-08-7.26322E-09
 -1       571 2.38185E+05 8.59287E+03 1.25661E+04-6.51109E+04 1.20599E-09 8.60223E-09
 -1       572 2.40039E+05 3.07617E+03 6.15714E+03-7.14294E+04 5.19321E-10 3.43493E-09
 -1       573 2.38929E+05 8.19564E+02 2.73560E+03-6.49756E+04-5.32964E-09-2.37924E-09
 -1       574 2.39137E+05 3.58034E+02 1.37112E+03-7.15898E+04-1.51050E-08 8.78708E-09
 -1       575 2.39013E+05 1.47743E+02 6.46843E+02-6.49575E+04 4.40065E-09-4.99631E-09
 -1       576 2.39020E+05 1.35172E+02 3.30490E+02-7.16112E+04 1.44877E-08-6.03768E-09
 -1       577 2.39035E+05 1.05800E+02 1.64700E+02-6.49550E+04 1.32532E-08-3.15413E-09
 -1       578 2.39024E+05 1.15333E+02 9.39938E+01-7.16140E+04 1.46256E-08 1.31922E-09
 -1       579 2.39067E+05 9.20777E+01 6.42259E+01-6.49548E+04 1.07148E-08-6.29962E-09
 -1       580 2.39068E+05 9.49510E+01 7.22678E+01-7.16103E+04-4.21369E-09 6.33190E-09
 -1       581 2.39117E+05 6.97591E+01 1.09974E+02-6.49589E+04 2.55386E-09-8.10996E-09
 -1       582 2.39154E+05 9.39540E+01 2.20433E+02-7.15684E+04 2.49292E-09-1.71708E-08
 -1       583 2.39174E+05 1.34791E+02 4.26999E+02-6.49969E+04 1.62072E-09 4.81282E-09
 -1       584 2.39383E+05 4.77121E+02 9.61898E+02-7.12489E+04 1.10595E-09-6.39795E-09
 -1       585 2.39135E+05 1.31572E+03 1.95370E+03-6.52784E+04-1.28966E-09-5.75892E-09
 -1       586-3.20594E+03 8.07393E+04-3.70328E+03-2.06116E+05-1.81808E-09 3.10388E-09
 -1       587-9.03898E+02 8.03026E+04-6.90222E+01-2.26876E+05-2.71029E-09-1.54816E-08
 -1       588 6.77206E+02 8.03245E+04 3.47613E+03-2.06020E+05-1.85355E-09 1.25947E-08
 -1       589 4.49217E+03 8.22132E+04 9.64859E+03-2.26639E+05-3.55431E-09 7.94898E-09
 -1       590 1.36204E+04 7.92403E+04 2.04892E+04-2.06376E+05-1.32786E-09 3.99632E-09
 -1       591-4.96428E+04-1.21303E+04-1.70364E+04-2.29011E+04-5.80030E-10-3.16413E-09
 -1       592-5.22812E+04-1.52740E+04-9.22806E+03-2.61575E+04-1.60315E-09-2.11708E-09
 -1       593-5.13499E+04-1.08906E+04-3.84135E+03-2.41471E+04-2.83157E-09-5.20640E-09
 -1       594-4.99231E+04-1.27806E+04-1.91584E+03-2.62544E+04-2.06683E-10 6.76576E-09
 -1       595-5.14802E+04-1.08862E+04-8.79845E+02-2.42039E+04 4.43265E-10 1.31363E-08
 -1       596-4.97620E+04-1.26665E+04-4.47602E+02-2.62358E+04 3.80874E-09 1.27670E-08
 -1       597-5.14965E+04-1.08977E+04-2.44413E+02-2.42060E+04 5.14433E-10 1.08710E-08
 -1       598-4.97462E+04-1.26621E+04-1.97729E+02-2.62306E+04-1.43791E-09 8.94670E-09
 -1       599-5.14955E+04-1.08979E+04-2.54127E+02-2.42056E+04 6.45127E-09 4.77098E-09
 -1       600-4.97625E+04-1.26674E+04-4.73333E+02-2.62345E+04 2.59649E-09-7.40050E-09
 -1       601-5.14761E+04-1.08866E+04-9.34406E+02-2.42027E+04-3.44221E-09 6.90670E-09
 -1       602-4.99334E+04-1.27880E+04-2.03678E+03-2.62514E+04-1.13968E-08-1.15890E-08
 -1       603-5.13354E+04-1.08936E+04-4.08475E+03-2.41429E+04-3.04135E-09 4.13411E-09
 -1       604-5.24547E+04-1.54241E+04-9.81236E+03-2.61291E+04 9.49171E-10 3.78850E-09
 -1       605-4.95041E+04-1.22258E+04-1.81152E+04-2.28332E+04 2.03272E-10-7.16682E-10
 -1       606 2.69789E+04-1.14626E+04-2.05904E+04 2.56708E+04-7.32143E-10-9.01218E-09
 -1       607 2.34567E+04-3.72217E+03-1.02533E+04 2.88269E+04-9.54969E-11-1.89234E-08
 -1       608 2.54583E+04-6.51266E+02-4.59096E+03 2.54733E+04 1.50794E-09-1.73477E-08
 -1       609 2.50667E+04-1.97989E+02-2.31892E+03 2.90535E+04 1.81808E-09-8.34098E-09
 -1       610 2.52790E+04-2.45741E+00-1.10709E+03 2.54508E+04 3.14321E-09 3.19574E-09
 -1       611 2.52107E+04 5.62036E+00-5.58152E+02 2.90782E+04-1.10276E-09 7.14863E-10
 -1       612 2.52343E+04 1.28750E+01-2.66078E+02 2.54486E+04 1.74896E-08-9.62359E-09
 -1       613 2.52128E+04 1.29270E+01-1.19803E+02 2.90811E+04 3.74430E-08-3.34467E-09
 -1       614 2.52109E+04 1.12712E+01-2.98855E+01 2.54478E+04 2.01171E-08 2.22826E-09
 -1       615 2.52028E+04 1.72610E+01 4.61908E+01 2.90816E+04 4.26189E-09-1.42154E-09
 -1       616 2.51930E+04 1.63647E+01 1.42157E+02 2.54481E+04 1.68598E-08 2.88651E-09
 -1       617 2.52157E+04 5.01117E+01 3.25943E+02 2.90811E+04 3.71972E-08-3.88468E-09
 -1       618 2.51615E+04 1.12291E+02 6.57474E+02 2.54483E+04 2.18092E-08 1.97133E-10
 -1       619 2.54453E+04 5.60072E+02 1.47681E+03 2.90803E+04 2.43961E-09 8.55835E-09
 -1       620 2.49416E+04 1.67275E+03 2.96839E+03 2.54478E+04 5.65035E-09 6.00585E-09
 -1       621 2.94337E+02 2.42436E+05 2.63304E+03 2.08332E+04 1.39380E-10 1.05692E-08
 -1       622 3.69885E+02 2.43072E+05 2.45046E+03 3.02942E+04 3.57659E-10 3.77167E-09
 -1       623 3.66309E+01 2.42577E+05 3.09582E+03 2.07344E+04 2.92459E-10 9.91531E-09
 -1       624 1.51098E+03 2.44090E+05 6.12287E+03 3.03948E+04 4.88782E-10-1.27611E-08
 -1       625 1.51123E+03 2.41367E+05 1.07584E+04 2.07311E+04 5.52063E-10 8.15851E-09
 -1       626 2.15030E+05 5.49446E+04 4.68119E+03 1.09801E+05-1.25242E-08-1.02682E-08
 -1       627 2.12700E+05 5.64339E+04 2.25578E+03 1.13939E+05-1.25347E-08 1.43356E-08
 -1       628 2.15162E+05 5.27824E+04 9.53403E+02 1.10571E+05-8.20364E-09 6.29029E-09
 -1       629 2.12089E+05 5.58392E+04 4.66660E+02 1.14183E+05 5.38421E-10 1.85986E-09
 -1       630 2.15173E+05 5.26794E+04 2.15755E+02 1.10599E+05-3.22598E-09-8.90853E-09
 -1       631 2.12020E+05 5.58197E+04 1.15177E+02 1.14184E+05-2.15005E-09-7.09423E-09
 -1       632 2.15166E+05 5.26854E+04 7.41310E+01 1.10592E+05-2.72121E-09-6.15512E-09
 -1       633 2.12008E+05 5.58237E+04 8.00563E+01 1.14177E+05-9.73159E-10-1.83547E-08
 -1       634 2.15158E+05 5.26851E+04 1.27103E+02 1.10589E+05 2.68074E-09 2.00430E-09
 -1       635 2.12016E+05 5.58240E+04 2.55891E+02 1.14179E+05-1.57047E-09-7.86076E-09
 -1       636 2.15147E+05 5.26822E+04 5.16059E+02 1.10587E+05-3.03302E-09-7.76299E-09
 -1       637 2.12125E+05 5.59049E+04 1.13402E+03 1.14176E+05 1.71804E-09 5.32805E-09
 -1       638 2.15105E+05 5.29337E+04 2.33005E+03 1.10473E+05-9.61336E-09-7.66295E-09
 -1       639 2.13348E+05 5.76066E+04 5.51248E+03 1.13814E+05-1.92333E-08 1.27966E-09
 -1       640 2.14939E+05 5.80120E+04 1.14394E+04 1.08325E+05-8.94988E-09-6.97969E-09
 -1       656 5.60954E+04-1.42865E+06-1.35416E+05-9.73706E+02 2.18279E-10 7.80540E-09
 -1       657-7.41789E+04-1.48981E+06-1.12111E+05 6.92325E+03 8.36735E-11 1.56611E-08
 -1       658 1.78492E+04-1.44605E+06-6.89557E+04-2.56065E+03 4.87034E-10-5.60681E-09
 -1       659-7.99641E+04-1.49255E+06-1.19710E+05 8.11533E+03-8.06722E-10-1.17231E-08
 -1       660 6.18672E+04-1.42591E+06-1.48484E+05-2.16577E+03-8.51287E-10 3.32858E-09
 -1       661 1.62806E+05 1.74306E+04 1.63368E+04 6.36679E+04-1.28466E-09 1.67984E-09
 -1       662 1.71701E+05 2.98643E+04 1.10090E+04 6.03920E+04 2.34559E-09-1.31304E-08
 -1       663 1.66013E+05 2.26734E+04 3.85069E+03 6.27390E+04-6.38920E-10 4.77939E-10
 -1       664 1.67986E+05 2.37307E+04 2.30285E+03 6.15244E+04 1.26192E-09-9.11623E-09
 -1       665 1.66496E+05 2.33919E+04 9.08459E+02 6.26002E+04-1.63482E-09-3.99646E-09
 -1       666 1.67416E+05 2.29070E+04 5.30791E+02 6.17042E+04-5.52575E-10 1.00476E-08
 -1       667 1.66579E+05 2.34755E+04 2.81042E+02 6.25672E+04-1.36782E-09 3.15323E-09
 -1       668 1.67325E+05 2.28443E+04 2.84274E+02 6.17521E+04 1.64175E-09-1.08756E-08
 -1       669 1.66586E+05 2.34528E+04 3.83172E+02 6.25528E+04 1.60952E-09 3.72910E-09
 -1       670 1.67420E+05 2.30502E+04 8.32765E+02 6.17536E+04-2.02873E-09 1.41841E-09
 -1       671 1.66485E+05 2.32738E+04 1.47810E+03 6.25639E+04-1.55950E-10-1.95866E-08
 -1       672 1.68281E+05 2.44879E+04 3.78127E+03 6.15450E+04 1.18784E-09-2.03880E-09
 -1       673 1.65729E+05 2.20513E+04 6.33664E+03 6.27476E+04 4.75893E-10 3.29715E-09
 -1       674 1.74314E+05 3.46666E+04 1.81214E+04 5.97712E+04-1.32331E-09-7.89578E-09
 -1       675 1.60491E+05 1.33800E+04 2.68983E+04 6.42305E+04 1.97042E-09-5.65888E-09
 -1       676 2.14166E+01-2.60272E+05-9.94722E+02-1.95414E+01-4.70010E-10 3.24654E-09
 -1       677-2.64157E+02-2.60512E+05-1.82048E+03 3.90574E+01 6.22492E-10 1.51042E-09
 -1       678 1.76349E+02-2.60101E+05-3.21815E+03-1.95027E+01-5.22505E-10 1.23573E-08
 -1       679-3.21909E+03-2.62455E+05-7.64486E+03 3.89087E+01 1.26829E-09 9.07977E-09
 -1       680 1.92119E+03-2.58330E+05-1.23209E+04-1.91736E+01-3.86990E-10 8.52196E-09
 -1       771-2.74617E+06-5.81254E+05-9.47813E+04-1.24191E+06-2.21917E-08-1.87138E-08
 -1       772-2.69831E+06-6.42442E+05-4.94855E+04-1.31189E+06-1.66037E-08 8.45830E-09
 -1       773-2.76349E+06-5.67586E+05-2.39267E+04-1.24839E+06-1.54250E-09 1.70548E-08
 -1       774-2.68952E+06-6.32448E+05-1.09549E+04-1.32478E+06 1.92085E-08-7.38510E-10
 -1       775-2.77121E+06-5.62117E+05-7.33716E+03-1.25085E+06-5.45697E-09 1.67347E-09
 -1       776-2.69381E+06-6.31710E+05-2.88782E+03-1.33382E+06-7.15954E-09 3.29965E-09
 -1       777-2.77763E+06-5.57413E+05-2.94299E+03-1.25300E+06-8.73115E-10-2.88128E-09
 -1       778-2.69854E+06-6.31132E+05-8.84419E+02-1.34149E+06 3.67436E-09 5.00586E-09
 -1       779-2.78304E+06-5.53375E+05-1.38249E+03-1.25485E+06-1.05065E-08-5.31145E-09
 -1       780-2.70270E+06-6.30552E+05-2.47665E+02-1.34772E+06-1.30749E-08 1.81899E-10
 -1       781-2.78728E+06-5.50158E+05-5.24904E+02-1.25630E+06-2.02563E-08 3.04135E-09
 -1       782-2.70588E+06-6.30025E+05 1.67907E+02-1.35230E+06-2.11585E-08 7.89214E-09
 -1       783-2.79023E+06-5.47955E+05 2.63152E+02-1.25732E+06-9.19681E-09-7.87850E-09
 -1       784-2.70761E+06-6.29358E+05 1.13155E+03-1.35511E+06-2.00762E-08 4.01633E-09
 -1       785-2.79194E+06-5.46674E+05 1.99118E+03-1.25798E+06-2.85581E-08 5.53700E-09
 -1       786 1.12249E+05-8.74961E+03 2.02416E+04-1.46057E+02 1.42251E-10 7.21684E-09
 -1       787 1.21027E+05 1.01294E+04 1.43203E+04 6.67029E+00 3.61028E-09 2.00162E-08
 -1       788 1.15633E+05-1.37145E+03 5.23719E+03-1.20644E+02 2.06496E-09 1.37743E-09
 -1       789 1.17084E+05 1.58670E+03 3.28810E+03-3.41972E+01 1.24533E-09 5.06355E-09
 -1       790 1.16192E+05-2.13905E+02 1.33210E+03-1.05197E+02-1.01996E-09 7.60548E-09
 -1       791 1.16431E+05 2.46954E+02 7.70998E+02-6.11120E+01-4.58284E-09-1.64716E-08
 -1       792 1.16287E+05-3.27059E+01 3.29904E+02-9.37299E+01-2.39293E-09-4.05626E-09
 -1       793 1.16318E+05 3.54035E+01 1.71482E+02-8.26633E+01 1.91555E-10 1.56757E-08
 -1       794 1.16304E+05-2.48791E+00 5.86494E+01-8.36450E+01 1.82765E-09-1.05586E-08
 -1       795 1.16291E+05-1.29350E+01-1.39629E+01-1.03401E+02-1.29789E-09-2.79105E-09
 -1       796 1.16315E+05 1.56066E+01-8.06760E+01-7.29920E+01 1.78558E-09-1.70445E-09
 -1       797 1.16238E+05-1.19985E+02-2.39649E+02-1.27295E+02 1.84405E-09 3.74244E-09
 -1       798 1.16358E+05 1.04481E+02-3.94196E+02-5.97505E+01 7.82615E-10 8.32904E-09
 -1       799 1.15937E+05-7.71886E+02-1.08892E+03-1.58981E+02 1.78204E-09-4.37366E-09
 -1       800 1.16615E+05 6.66974E+02-1.54221E+03-4.13054E+01 3.20542E-10-1.61549E-09
 -1       801 4.74418E+04-5.21954E+06-6.00822E+05 3.85855E+05 4.82687E-08-1.86938E-08
 -1       802 5.04543E+04-1.40271E+06 3.37773E+05-4.03883E+05 1.35067E-07-1.75880E-08
 -1       803-9.79609E+04-5.84322E+06-4.62436E+05 2.91939E+05 5.02550E-08 2.34704E-08
 -1       804 8.89551E+03-2.48203E+06 2.41594E+05 2.72323E+05-3.71410E-08-2.51785E-08
 -1       805 7.18668E+04-4.14936E+06-8.40150E+04-2.89507E+05-1.57906E-08-1.90521E-08
 -1       806-2.61287E+05-4.90441E+04-1.87273E+04-1.01899E+05-6.72799E-09 3.50110E-09
 -1       807-2.62969E+05-4.57775E+04-9.20048E+03-1.06195E+05 4.86489E-09 6.77004E-09
 -1       808-2.61786E+05-4.23109E+04-3.90328E+03-1.05109E+05-8.07631E-10 1.69783E-08
 -1       809-2.61045E+05-4.31833E+04-1.90868E+03-1.06412E+05-9.57152E-09 8.41771E-09
 -1       810-2.61863E+05-4.20764E+04-8.74840E+02-1.05252E+05 5.21595E-09 1.20688E-08
 -1       811-2.60897E+05-4.30779E+04-4.35135E+02-1.06383E+05 4.09455E-09-3.63116E-09
 -1       812-2.61876E+05-4.20958E+04-2.20111E+02-1.05252E+05-4.05134E-09 4.14161E-09
 -1       813-2.60879E+05-4.30789E+04-1.43284E+02-1.06369E+05-1.19144E-09-8.80846E-09
 -1       814-2.61873E+05-4.21026E+04-1.42170E+02-1.05250E+05-1.48611E-09-3.51838E-09
 -1       815-2.60884E+05-4.30801E+04-2.29654E+02-1.06365E+05-5.88489E-09-6.42285E-09
 -1       816-2.61858E+05-4.21003E+04-4.35272E+02-1.05248E+05-3.57159E-09 1.28539E-08
 -1       817-2.60960E+05-4.31212E+04-9.34863E+02-1.06358E+05-2.99451E-09 1.43527E-08
 -1       818-2.61805E+05-4.22301E+04-1.90655E+03-1.05186E+05-5.54792E-10-1.46247E-09
 -1       819-2.62002E+05-4.42766E+04-4.48696E+03-1.06119E+05 7.27596E-10-2.48565E-09
 -1       820-2.61455E+05-4.56115E+04-9.13214E+03-1.03731E+05-3.51065E-10 8.01299E-09
 -1       821-3.15376E+05 1.74752E+04-4.04181E+04 5.50686E+02-4.98237E-07 4.55784E-08
 -1       822-3.32876E+05-2.02303E+04-2.85992E+04-1.18042E+03-1.04004E-06-4.17867E-09
 -1       823-3.22124E+05 2.74028E+03-1.04675E+04 6.10450E+02-5.15242E-07 4.58385E-10
 -1       824-3.24984E+05-3.17048E+03-6.58351E+03-1.01155E+03-1.54927E-09 8.77890E-09
 -1       825-3.23264E+05 4.28152E+02-2.71139E+03 3.81820E+02 1.95197E-09 5.45435E-09
 -1       826-3.23642E+05-5.03932E+02-1.62472E+03-3.72905E+02 1.53688E-09-6.44755E-09
 -1       827-3.23463E+05 7.47215E+01-8.55489E+02-2.82025E+01-6.18002E-10 7.09198E-09
 -1       828-3.23465E+05-1.53867E+02-7.42270E+02 4.36846E+02-2.48884E-09 5.54042E-09
 -1       829-3.23442E+05 7.83869E+01-8.72224E+02-4.27945E+02 6.10818E-11-4.82160E-09
 -1       830-3.23703E+05-5.26070E+02-1.69530E+03 1.03831E+03 1.31340E-09 5.78009E-09
 -1       831-3.23227E+05 4.47630E+02-2.81480E+03-6.29680E+02-1.89724E-09 8.05107E-09
 -1       832-3.25066E+05-3.30279E+03-6.85919E+03 1.14924E+03-5.60202E-10-3.77167E-09
 -1       833-3.22079E+05 2.85337E+03-1.09044E+04-5.38875E+02-1.63679E-09 4.81941E-09
 -1       834-3.33225E+05-2.10692E+04-2.97798E+04 7.12632E+02-1.60664E-09-4.11819E-09
 -1       835-3.15070E+05 1.81996E+04-4.21059E+04-1.93058E+02 5.21779E-09-9.87529E-09
 -1       836-1.10099E+03 3.01611E+05 1.83829E+04-1.49098E+04-1.99816E-09 4.26007E-09
 -1       837 3.98255E+03 3.07339E+05 1.57073E+04-3.00781E+04-1.83127E-09 1.78027E-08
 -1       838-4.28699E+02 3.03198E+05 1.62182E+04-1.48475E+04-1.32968E-09-1.07116E-09
 -1       839 1.03544E+04 3.12090E+05 3.08907E+04-3.01203E+04-9.19499E-10 1.00740E-08
 -1       840-3.15736E+03 2.96818E+05 4.93515E+04-1.48681E+04-1.28603E-09 9.76004E-09
 -1       856-6.80581E+04 7.60895E+03-2.00517E+04-4.10489E+02-3.20028E-10-8.99763E-09
 -1       857-7.63329E+04-8.92972E+03-1.38043E+04 4.94077E+03 5.28246E-10 5.63296E-09
 -1       858-7.13301E+04 1.06646E+03-5.20345E+03-4.32345E+02-3.96085E-10-3.87217E-10
 -1       859-7.25766E+04-1.24476E+03-3.14135E+03 4.97471E+03-2.71854E-09 1.14169E-08
 -1       860-7.18191E+04 1.48680E+02-1.31862E+03-4.44415E+02 2.23650E-10-7.36634E-09
 -1       861-7.20137E+04-1.68320E+02-7.29826E+02 4.99122E+03-5.46117E-09 9.43601E-12
 -1       862-7.18954E+04 1.97553E+01-3.12240E+02-4.48872E+02 2.26769E-09-4.37936E-09
 -1       863-7.19218E+04-1.34994E+01-1.33859E+02 4.99348E+03 3.48928E-09 1.85966E-09
 -1       864-7.19114E+04-2.68890E+00-5.25209E-01-4.46681E+02 1.44649E-09 2.94065E-10
 -1       865-7.18815E+04 4.35245E+01 1.41227E+02 4.98189E+03 3.40650E-09-1.46802E-08
 -1       866-7.19339E+04-3.75111E+01 3.07860E+02-4.37278E+02-6.39261E-10-2.67413E-09
 -1       867-7.17305E+04 3.12006E+02 7.72727E+02 4.95630E+03-1.91875E-10 2.71092E-09
 -1       868-7.20585E+04-2.66990E+02 1.28761E+03-4.21092E+02-3.70051E-11 7.77254E-09
 -1       869-7.07820E+04 2.22163E+03 3.43403E+03 4.91366E+03 1.14301E-09-1.77943E-08
 -1       870-7.28762E+04-1.89623E+03 4.98275E+03-3.94622E+02-7.19865E-10-4.14252E-09
 -1       871-4.77746E+03-1.33033E+04-1.59972E+04 1.06641E+05-4.96584E-10-1.11868E-09
 -1       872-1.94534E+03-1.69413E+04-6.60719E+03 1.38263E+05-1.77442E-09-6.06815E-09
 -1       873 9.50245E+01-1.52213E+04 7.13449E+02 1.06407E+05-9.85892E-10-9.96056E-09
 -1       874 2.52822E+03-1.30527E+04 8.56343E+03 1.38300E+05-1.98634E-09 7.60519E-09
 -1       875 5.68196E+03-1.72574E+04 1.91399E+04 1.06603E+05-7.63976E-10-5.94900E-09
 -1       876 2.50924E+05 4.27265E+04 1.30854E+04 1.01212E+05 3.49723E-09-2.21007E-10
 -1       877 2.51745E+05 4.55261E+04 6.98804E+03 1.05005E+05 1.21622E-09-4.21267E-09
 -1       878 2.52146E+05 4.12784E+04 2.92767E+03 1.02286E+05-1.56433E-09 4.44857E-09
 -1       879 2.49966E+05 4.37518E+04 1.45862E+03 1.05095E+05 3.37968E-09 1.83667E-08
 -1       880 2.52235E+05 4.12629E+04 6.79314E+02 1.02330E+05 2.74213E-09-2.19393E-09
 -1       881 2.49848E+05 4.36762E+04 3.62447E+02 1.05076E+05-4.50927E-09-4.47113E-09
 -1       882 2.52243E+05 4.12740E+04 2.31356E+02 1.02331E+05 2.15778E-10 5.83420E-09
 -1       883 2.49839E+05 4.36724E+04 2.47863E+02 1.05070E+05 3.68226E-09-4.07925E-09
 -1       884 2.52238E+05 4.12713E+04 3.93526E+02 1.02332E+05 3.22115E-09 1.03404E-09
 -1       885 2.49871E+05 4.36779E+04 7.90731E+02 1.05079E+05-6.52648E-10 8.88485E-09
 -1       886 2.52207E+05 4.12482E+04 1.59347E+03 1.02328E+05 3.31568E-09-3.78020E-09
 -1       887 2.50151E+05 4.38616E+04 3.48066E+03 1.05120E+05 5.03678E-09-1.09371E-08
 -1       888 2.51987E+05 4.12869E+04 7.01363E+03 1.02217E+05 3.94635E-10 1.34787E-09
 -1       889 2.54328E+05 4.82025E+04 1.67546E+04 1.04990E+05 1.93513E-09 7.98332E-09
 -1       890 2.49129E+05 4.46829E+04 3.13806E+04 9.95428E+04 5.07703E-09 4.61478E-09
 -1       891-1.24603E+02-1.40608E+05-1.69906E+03 2.49687E+04-6.36646E-11-1.15210E-09
 -1       892-2.23452E+02-1.41032E+05-1.83328E+03 3.78308E+04 8.46285E-10-1.54268E-08
 -1       893-1.15144E+01-1.40662E+05-2.60445E+03 2.49744E+04-2.24190E-10 6.70298E-10
 -1       894-1.37143E+03-1.42021E+05-5.39663E+03 3.76939E+04 7.11225E-10 6.70298E-10
 -1       895-1.07895E+03-1.39538E+05-9.50583E+03 2.51049E+04 1.12550E-10-4.95311E-09
 -1       956-3.19315E+05-4.49626E+03-1.12493E+04 2.29400E+04-5.65251E-09-8.06267E-10
 -1       957-3.21532E+05-1.53840E+03-5.77467E+03 2.76130E+04-9.01855E-09 1.78170E-09
 -1       958-3.20318E+05-1.44994E+02-2.60183E+03 2.28060E+04-7.10679E-09 5.42877E-09
 -1       959-3.20491E+05-4.90025E+01-1.32889E+03 2.77624E+04-2.99224E-09 6.08338E-09
 -1       960-3.20411E+05 1.49031E+01-6.47982E+02 2.27928E+04-1.42600E-08 6.72549E-09
 -1       961-3.20418E+05 8.75380E+00-3.43945E+02 2.77777E+04-2.67100E-08 1.41822E-08
 -1       962-3.20430E+05 1.15225E+01-1.97289E+02 2.27907E+04-1.21443E-08-3.77281E-09
 -1       963-3.20416E+05 1.07590E+01-1.59121E+02 2.77803E+04-1.09151E-09-4.45971E-09
 -1       964-3.20434E+05 1.38144E+01-1.94200E+02 2.27901E+04-1.87399E-09 1.84168E-08
 -1       965-3.20426E+05 1.36186E+01-3.36462E+02 2.77800E+04-1.28182E-10 4.15548E-09
 -1       966-3.20422E+05 2.17272E+01-6.32263E+02 2.27911E+04 5.95719E-11-6.48743E-09
 -1       967-3.20506E+05-3.80042E+01-1.29700E+03 2.77698E+04-3.37968E-09-3.52452E-09
 -1       968-3.20339E+05-1.29841E+02-2.53865E+03 2.28003E+04-1.19098E-09-2.83919E-09
 -1       969-3.21531E+05-1.48767E+03-5.63628E+03 2.76623E+04 2.62708E-09-8.31250E-10
 -1       970-3.19366E+05-4.37400E+03-1.09789E+04 2.28976E+04-1.35060E-10 7.63066E-09
 -1       971-2.97038E+05-1.52257E+03-8.36538E+03 1.37711E+04-8.20364E-10 1.10048E-08
 -1       972-2.99065E+05-1.10239E+03-4.55572E+03 1.91686E+04-1.83263E-10 6.56200E-10
 -1       973-2.97969E+05-2.68476E+01-2.04024E+03 1.36582E+04-2.26009E-09 3.05522E-09
 -1       974-2.98103E+05-3.28757E+01-1.05724E+03 1.92927E+04 7.86486E-10-6.91534E-09
 -1       975-2.98042E+05 1.28803E+01-5.28013E+02 1.36474E+04-8.58108E-10-2.15334E-09
 -1       976-2.98047E+05 1.14229E+01-3.03800E+02 1.93061E+04-1.04546E-09-4.69618E-09
 -1       977-2.98057E+05 1.30938E+01-2.19013E+02 1.36447E+04 2.25441E-09 4.23768E-09
 -1       978-2.98051E+05 1.66548E+01-2.54275E+02 1.93099E+04 4.78121E-09-5.60090E-09
 -1       979-2.98056E+05 2.02084E+01-4.06804E+02 1.36436E+04 1.77170E-09-4.08625E-09
 -1       980-2.98081E+05 1.92383E+01-7.84398E+02 1.93106E+04 2.33939E-09-2.20325E-09
 -1       981-2.98031E+05 3.97843E+01-1.51862E+03 1.36440E+04-1.60765E-09-1.93995E-09
 -1       982-2.98290E+05-9.29024E+01-3.13864E+03 1.93048E+04-1.58821E-09 1.10283E-08
 -1       983-2.97840E+05-5.73591E+01-6.09821E+03 1.36496E+04 7.72843E-10-5.08817E-09
 -1       984-3.01223E+05-3.27764E+03-1.36563E+04 1.92273E+04-2.57842E-10 1.87561E-09
 -1       985-2.95080E+05-4.51961E+03-2.50774E+04 1.37225E+04 2.48338E-09 2.91220E-09
 -3
    1PSTEP                        21          11           1          
  100CL  111 5.97900E-01         409                     0   11           1
 -4  DISP        4    1
 -5  D1          1    2    1    0
 -5  D2          1    2    2    0
 -5  D3          1    2    3    0
 -5  ALL         1    2    0    0    1ALL
 -1         1 1.04488E-03 0.00000E+00 0.00000E+00
 -1         2 9.81712E-04 1.54662E-29 0.00000E+00
 -1         3 2.53435E-04-2.99565E-27-1.32349E-23
 -1         5 1.42946E-04-1.06501E-25 0.00000E+00
 -1         8 1.02453E-03-6.48026E-07 0.00000E+00
 -1         9 9.96468E-04-2.98693E-06 0.00000E+00
 -1        10 2.30828E-04-3.13642E-06 0.00000E+00
 -1        12 1.43649E-04 6.84644E-07 8.27181E-25
 -1        15 1.00003E-03-7.14746E-07 0.00000E+00
 -1        16 1.00672E-03-3.67791E-06 0.00000E+00
 -1        17 1.60369E-04-6.86618E-06 0.00000E+00
 -1        18 1.44377E-04 1.83676E-05 0.00000E+00
 -1        19 1.45757E-04 1.36550E-06 0.00000E+00
 -1        20 1.45902E-04 2.48870E-06 0.00000E+00
 -1        21 1.45171E-04 9.23413E-07 3.30872E-24
 -1        24 2.64378E-05-9.84444E-06 0.00000E+00
 -1        25 1.49493E-04 1.85419E-05 0.00000E+00
 -1        26 1.50125E-04 1.89257E-06 0.00000E+00
 -1        27 1.48262E-04-6.01994E-07 0.00000E+00
 -1        28 1.47884E-04 3.66569E-07 0.00000E+00
 -1        32 0.00000E+00 0.00000E+00 0.00000E+00
 -1        33 1.53485E-04 2.53801E-06 0.00000E+00
 -1        34 1.51637E-04-6.39087E-07 0.00000E+00
 -1        35 1.49928E-04 6.53326E-08 0.00000E+00
 -1        51 1.04357E-03-1.15243E-07 0.00000E+00
 -1        52 1.04113E-03-2.19186E-07 0.00000E+00
 -1        53 1.03778E-03-3.22343E-07 0.00000E+00
 -1        54 1.03374E-03-4.26674E-07 0.00000E+00
 -1        55 1.02925E-03-5.33489E-07-5.37667E-24
 -1        56 1.04208E-03-4.88995E-07 0.00000E+00
 -1        57 1.03882E-03-4.78316E-08 0.00000E+00
 -1        58 1.03524E-03 1.23626E-06 0.00000E+00
 -1        59 1.03140E-03 3.17507E-06 5.29396E-23
 -1        60 1.02741E-03 5.51147E-06 1.05879E-22
 -1        61 1.02337E-03 7.95621E-06 5.29396E-23
 -1        62 1.01941E-03 1.02076E-05 0.00000E+00
 -1        63 1.01563E-03 1.19749E-05 5.29396E-23
 -1        64 1.01212E-03 1.30296E-05 0.00000E+00
 -1        65 1.00894E-03 1.31880E-05 5.29396E-23
 -1        66 1.00613E-03 1.23805E-05-1.05879E-22
 -1        67 1.00369E-03 1.05994E-05 0.00000E+00
 -1        68 1.00157E-03 7.95955E-06 0.00000E+00
 -1        69 9.99719E-04 4.63667E-06 2.64698E-23
 -1        70 9.98024E-04 8.81592E-07 0.00000E+00
 -1        86 9.82309E-04-4.92457E-07 1.32349E-23
 -1        87 9.84091E-04-9.86510E-07 6.61744E-24
 -1        88 9.86763E-04-1.48245E-06 0.00000E+00
 -1        89 9.90016E-04-1.98160E-06 0.00000E+00
 -1        90 9.93401E-04-2.48063E-06 0.00000E+00
 -1       121 2.52801E-04-5.13756E-07 0.00000E+00
 -1       122 2.50900E-04-1.02906E-06-6.61744E-24
 -1       123 2.47739E-04-1.54744E-06 0.00000E+00
 -1       124 2.43330E-04-2.07047E-06-6.61744E-24
 -1       125 2.37686E-04-2.59941E-06 0.00000E+00
 -1       191 1.42965E-04 1.14120E-07 0.00000E+00
 -1       192 1.43024E-04 2.28237E-07 0.00000E+00
 -1       193 1.43121E-04 3.42351E-07-1.65436E-24
 -1       194 1.43258E-04 4.56460E-07 8.27181E-25
 -1       195 1.43434E-04 5.70559E-07-1.65436E-24
 -1       251 1.02382E-03 1.60556E-05-1.32349E-23
 -1       252 1.02240E-03 5.76401E-05 0.00000E+00
 -1       253 1.02017E-03 1.16654E-04 0.00000E+00
 -1       254 1.01735E-03 1.85243E-04 0.00000E+00
 -1       255 1.01458E-03 2.52948E-04 0.00000E+00
 -1       256 1.01249E-03 3.09334E-04 6.61744E-24
 -1       257 1.01122E-03 3.47036E-04 0.00000E+00
 -1       258 1.01056E-03 3.59120E-04 0.00000E+00
 -1       259 1.00988E-03 3.45379E-04 0.00000E+00
 -1       260 1.00856E-03 3.06229E-04 0.00000E+00
 -1       261 1.00641E-03 2.48763E-04-1.32349E-23
 -1       262 1.00360E-03 1.80493E-04 6.61744E-24
 -1       263 1.00078E-03 1.11868E-04 0.00000E+00
 -1       264 9.98566E-04 5.33455E-05 0.00000E+00
 -1       265 9.97182E-04 1.26273E-05 0.00000E+00
 -1       266 1.02044E-03-6.68482E-07 3.30872E-24
 -1       267 1.01636E-03-6.78464E-07-8.27181E-25
 -1       268 1.01228E-03-6.89109E-07 8.27181E-25
 -1       269 1.00819E-03-6.97790E-07 0.00000E+00
 -1       270 1.00411E-03-7.06424E-07-4.13590E-25
 -1       271 1.02204E-03 2.91967E-06 0.00000E+00
 -1       272 1.01964E-03 6.15452E-06 0.00000E+00
 -1       273 1.01738E-03 9.01023E-06-2.64698E-23
 -1       274 1.01529E-03 1.14303E-05-1.32349E-23
 -1       275 1.01337E-03 1.33681E-05 2.64698E-23
 -1       276 1.01165E-03 1.47817E-05 0.00000E+00
 -1       277 1.01015E-03 1.56364E-05 0.00000E+00
 -1       278 1.00886E-03 1.59047E-05 0.00000E+00
 -1       279 1.00780E-03 1.55672E-05-2.64698E-23
 -1       280 1.00697E-03 1.46124E-05 1.32349E-23
 -1       281 1.00637E-03 1.30370E-05 0.00000E+00
 -1       282 1.00601E-03 1.08461E-05-1.32349E-23
 -1       283 1.00587E-03 8.05301E-06 0.00000E+00
 -1       284 1.00594E-03 4.68009E-06-1.32349E-23
 -1       285 1.00623E-03 7.55105E-07-2.64698E-23
 -1       301 9.98348E-04-3.12128E-06 0.00000E+00
 -1       302 9.99554E-04-3.22844E-06-3.30872E-24
 -1       303 1.00054E-03-3.33342E-06 6.61744E-24
 -1       304 1.00176E-03-3.43828E-06 0.00000E+00
 -1       305 1.00367E-03-3.54588E-06-1.32349E-23
 -1       306 1.01983E-03-8.72046E-05 1.05879E-22
 -1       307 1.07616E-03-3.26423E-04 0.00000E+00
 -1       308 1.14355E-03-6.81938E-04-1.05879E-22
 -1       309 1.21122E-03-1.10151E-03 0.00000E+00
 -1       310 1.27893E-03-1.51462E-03-1.05879E-22
 -1       311 1.34545E-03-1.85141E-03-5.29396E-23
 -1       312 1.39749E-03-2.06323E-03 0.00000E+00
 -1       313 1.41139E-03-2.11657E-03 5.29396E-23
 -1       314 1.36134E-03-2.01239E-03-1.05879E-22
 -1       315 1.22982E-03-1.77059E-03 0.00000E+00
 -1       316 1.02588E-03-1.43363E-03-1.05879E-22
 -1       317 7.76119E-04-1.04691E-03-2.64698E-23
 -1       318 5.28250E-04-6.62174E-04 0.00000E+00
 -1       319 3.29487E-04-3.31280E-04-2.64698E-23
 -1       320 2.04540E-04-9.90134E-05 0.00000E+00
 -1       336 2.22622E-04-3.72381E-06 0.00000E+00
 -1       337 2.12939E-04-4.32449E-06 0.00000E+00
 -1       338 2.01820E-04-4.93920E-06-1.32349E-23
 -1       339 1.89315E-04-5.56809E-06 6.61744E-24
 -1       340 1.75478E-04-6.21392E-06-1.32349E-23
 -1       406 1.43902E-04 7.98707E-07 1.65436E-24
 -1       407 1.44195E-04 9.12724E-07 8.27181E-25
 -1       408 1.44527E-04 1.02666E-06 1.65436E-24
 -1       409 1.44898E-04 1.14038E-06 0.00000E+00
 -1       410 1.45308E-04 1.25367E-06 0.00000E+00
 -1       521 1.03146E-03-9.62886E-05 0.00000E+00
 -1       522 1.08946E-03-3.55532E-04 0.00000E+00
 -1       523 1.15677E-03-7.40087E-04 0.00000E+00
 -1       524 1.22252E-03-1.19249E-03 5.29396E-23
 -1       525 1.28853E-03-1.63735E-03 0.00000E+00
 -1       526 1.35533E-03-2.00007E-03 5.29396E-23
 -1       527 1.40881E-03-2.22727E-03 1.05879E-22
 -1       528 1.42264E-03-2.28375E-03 0.00000E+00
 -1       529 1.36660E-03-2.16994E-03 0.00000E+00
 -1       530 1.22070E-03-1.90953E-03-5.29396E-23
 -1       531 9.93899E-04-1.54801E-03 1.05879E-22
 -1       532 7.16052E-04-1.13448E-03 0.00000E+00
 -1       533 4.39863E-04-7.22578E-04-1.05879E-22
 -1       534 2.17587E-04-3.66052E-04 5.29396E-23
 -1       535 7.74187E-05-1.13554E-04-1.05879E-22
 -1       536 1.59989E-04 1.87337E-05 6.61744E-24
 -1       537 1.58948E-04 6.40613E-05-1.65436E-24
 -1       538 1.57290E-04 1.22122E-04 0.00000E+00
 -1       539 1.55298E-04 1.85911E-04 0.00000E+00
 -1       540 1.53507E-04 2.46214E-04 0.00000E+00
 -1       541 1.52377E-04 2.93819E-04 4.13590E-25
 -1       542 1.51888E-04 3.23831E-04-1.65436E-24
 -1       543 1.51804E-04 3.31385E-04 0.00000E+00
 -1       544 1.51653E-04 3.17085E-04 1.65436E-24
 -1       545 1.50993E-04 2.81588E-04 0.00000E+00
 -1       546 1.49727E-04 2.31031E-04 8.27181E-25
 -1       547 1.47990E-04 1.71573E-04-4.13590E-25
 -1       548 1.46280E-04 1.12606E-04 8.27181E-25
 -1       549 1.45085E-04 6.35236E-05 0.00000E+00
 -1       550 1.44497E-04 3.01714E-05 5.16988E-26
 -1       551 1.41968E-04-7.28409E-06 0.00000E+00
 -1       552 1.20867E-04-7.74777E-06 3.30872E-24
 -1       553 9.79088E-05-8.24843E-06-6.20385E-24
 -1       554 7.39482E-05-8.77291E-06 0.00000E+00
 -1       555 4.98410E-05-9.30321E-06-2.64698E-23
 -1       556 1.54989E-04 6.96276E-06 0.00000E+00
 -1       557 1.50694E-04 1.80366E-05 0.00000E+00
 -1       558 1.47379E-04 2.65795E-05 0.00000E+00
 -1       559 1.44943E-04 3.28341E-05 0.00000E+00
 -1       560 1.43287E-04 3.70429E-05 0.00000E+00
 -1       561 1.42315E-04 3.94501E-05 0.00000E+00
 -1       562 1.41931E-04 4.03008E-05 0.00000E+00
 -1       563 1.42039E-04 3.98405E-05 0.00000E+00
 -1       564 1.42546E-04 3.83153E-05 0.00000E+00
 -1       565 1.43359E-04 3.59716E-05 0.00000E+00
 -1       566 1.44385E-04 3.30562E-05 0.00000E+00
 -1       567 1.45532E-04 2.98161E-05 0.00000E+00
 -1       568 1.46708E-04 2.64981E-05 4.13590E-25
 -1       569 1.47821E-04 2.33491E-05 0.00000E+00
 -1       570 1.48779E-04 2.06162E-05 0.00000E+00
 -1       571 1.44461E-04 1.72630E-05 1.65436E-24
 -1       572 1.44546E-04 1.61072E-05 0.00000E+00
 -1       573 1.44632E-04 1.49119E-05 0.00000E+00
 -1       574 1.44718E-04 1.36893E-05-1.65436E-24
 -1       575 1.44805E-04 1.24517E-05 0.00000E+00
 -1       576 1.44891E-04 1.12113E-05 0.00000E+00
 -1       577 1.44978E-04 9.98046E-06 0.00000E+00
 -1       578 1.45064E-04 8.77157E-06 0.00000E+00
 -1       579 1.45151E-04 7.59691E-06 0.00000E+00
 -1       580 1.45237E-04 6.46883E-06 0.00000E+00
 -1       581 1.45324E-04 5.39966E-06 0.00000E+00
 -1       582 1.45410E-04 4.40170E-06 0.00000E+00
 -1       583 1.45497E-04 3.48728E-06 0.00000E+00
 -1       584 1.45584E-04 2.66856E-06-3.30872E-24
 -1       585 1.45671E-04 1.95762E-06 0.00000E+00
 -1       586 1.45179E-04 1.83986E-05 1.65436E-24
 -1       587 1.45952E-04 1.84289E-05 3.10193E-25
 -1       588 1.46734E-04 1.84589E-05 8.27181E-25
 -1       589 1.47560E-04 1.84883E-05 0.00000E+00
 -1       590 1.48467E-04 1.85167E-05 0.00000E+00
 -1       591 1.44743E-04 1.73295E-05 1.03398E-25
 -1       592 1.45113E-04 1.62697E-05 0.00000E+00
 -1       593 1.45490E-04 1.51939E-05-8.27181E-25
 -1       594 1.45870E-04 1.41066E-05 4.13590E-25
 -1       595 1.46252E-04 1.30128E-05 8.27181E-25
 -1       596 1.46636E-04 1.19171E-05 0.00000E+00
 -1       597 1.47018E-04 1.08242E-05 0.00000E+00
 -1       598 1.47397E-04 9.73888E-06 0.00000E+00
 -1       599 1.47772E-04 8.66576E-06-4.13590E-25
 -1       600 1.48140E-04 7.60957E-06-4.13590E-25
 -1       601 1.48501E-04 6.57501E-06-4.13590E-25
 -1       602 1.48851E-04 5.56678E-06-2.06795E-25
 -1       603 1.49190E-04 4.58960E-06 0.00000E+00
 -1       604 1.49516E-04 3.64824E-06-7.75482E-26
 -1       605 1.49828E-04 2.74736E-06 0.00000E+00
 -1       606 1.45770E-04 9.66272E-07 0.00000E+00
 -1       607 1.45780E-04 6.57234E-07 0.00000E+00
 -1       608 1.45790E-04 4.33087E-07 3.30872E-24
 -1       609 1.45799E-04 2.87862E-07 0.00000E+00
 -1       610 1.45807E-04 2.15543E-07 0.00000E+00
 -1       611 1.45816E-04 2.10047E-07 0.00000E+00
 -1       612 1.45825E-04 2.65281E-07 0.00000E+00
 -1       613 1.45834E-04 3.75145E-07 0.00000E+00
 -1       614 1.45842E-04 5.33540E-07 0.00000E+00
 -1       615 1.45851E-04 7.34362E-07 0.00000E+00
 -1       616 1.45860E-04 9.71516E-07 0.00000E+00
 -1       617 1.45868E-04 1.23890E-06 0.00000E+00
 -1       618 1.45877E-04 1.53040E-06 0.00000E+00
 -1       619 1.45886E-04 1.83994E-06 2.06795E-25
 -1       620 1.45894E-04 2.16141E-06 4.13590E-25
 -1       621 1.46305E-04 1.45363E-06-3.30872E-24
 -1       622 1.46952E-04 1.54202E-06-1.65436E-24
 -1       623 1.47678E-04 1.63035E-06-3.30872E-24
 -1       624 1.48462E-04 1.71847E-06 0.00000E+00
 -1       625 1.49285E-04 1.80640E-06-1.65436E-24
 -1       626 1.46005E-04 9.97314E-07 3.30872E-24
 -1       627 1.46227E-04 6.99432E-07 1.65436E-24
 -1       628 1.46426E-04 4.64126E-07 0.00000E+00
 -1       629 1.46604E-04 2.83295E-07 0.00000E+00
 -1       630 1.46766E-04 1.48819E-07 3.30872E-24
 -1       631 1.46912E-04 5.25496E-08 0.00000E+00
 -1       632 1.47048E-04-1.36620E-08 0.00000E+00
 -1       633 1.47175E-04-5.79680E-08 0.00000E+00
 -1       634 1.47298E-04-8.85169E-08 0.00000E+00
 -1       635 1.47418E-04-1.13457E-07 0.00000E+00
 -1       636 1.47539E-04-1.40939E-07 0.00000E+00
 -1       637 1.47664E-04-1.79113E-07 0.00000E+00
 -1       638 1.47796E-04-2.36131E-07-3.30872E-24
 -1       639 1.47938E-04-3.20157E-07 8.27181E-25
 -1       640 1.48093E-04-4.39357E-07 1.65436E-24
 -1       656 1.45797E-04 1.98607E-06 0.00000E+00
 -1       657 1.46087E-04 1.46320E-06 6.61744E-24
 -1       658 1.46633E-04 9.41737E-07 0.00000E+00
 -1       659 1.47292E-04 4.20650E-07 6.61744E-24
 -1       660 1.47892E-04-1.02035E-07-6.61744E-24
 -1       661 1.45865E-04 2.77874E-06-8.27181E-25
 -1       662 1.45859E-04 2.99278E-06-8.27181E-25
 -1       663 1.45880E-04 3.13455E-06-1.65436E-24
 -1       664 1.45927E-04 3.20903E-06-8.27181E-25
 -1       665 1.45998E-04 3.22058E-06 0.00000E+00
 -1       666 1.46090E-04 3.17365E-06 0.00000E+00
 -1       667 1.46203E-04 3.07246E-06 0.00000E+00
 -1       668 1.46335E-04 2.92118E-06-8.27181E-25
 -1       669 1.46484E-04 2.72379E-06-1.65436E-24
 -1       670 1.46649E-04 2.48424E-06 8.27181E-25
 -1       671 1.46828E-04 2.20632E-06 0.00000E+00
 -1       672 1.47020E-04 1.89374E-06-8.27181E-25
 -1       673 1.47223E-04 1.55016E-06 0.00000E+00
 -1       674 1.47436E-04 1.17888E-06 0.00000E+00
 -1       675 1.47659E-04 7.83808E-07-4.13590E-25
 -1       676 1.45624E-04 8.30059E-07 0.00000E+00
 -1       677 1.46078E-04 7.36747E-07-1.65436E-24
 -1       678 1.46531E-04 6.43483E-07 0.00000E+00
 -1       679 1.46983E-04 5.50499E-07-1.65436E-24
 -1       680 1.47434E-04 4.57525E-07-1.65436E-24
 -1       771 1.76607E-05 9.36817E-06 0.00000E+00
 -1       772 1.02253E-05 2.51387E-05 0.00000E+00
 -1       773 4.06801E-06 3.76404E-05 0.00000E+00
 -1       774-8.97647E-07 4.70652E-05 0.00000E+00
 -1       775-4.75662E-06 5.36115E-05 0.00000E+00
 -1       776-7.59732E-06 5.74883E-05-2.64698E-23
 -1       777-9.50846E-06 5.89109E-05 0.00000E+00
 -1       778-1.05807E-05 5.81033E-05 0.00000E+00
 -1       779-1.09047E-05 5.52947E-05 5.29396E-23
 -1       780-1.05726E-05 5.07217E-05 0.00000E+00
 -1       781-9.67650E-06 4.46247E-05 0.00000E+00
 -1       782-8.30953E-06 3.72499E-05 0.00000E+00
 -1       783-6.56460E-06 2.88463E-05-5.29396E-23
 -1       784-4.53557E-06 1.96667E-05-2.64698E-23
 -1       785-2.31586E-06 9.96588E-06-5.29396E-23
 -1       786 1.49528E-04 1.72845E-05 0.00000E+00
 -1       787 1.49568E-04 1.60742E-05 0.00000E+00
 -1       788 1.49606E-04 1.49035E-05 0.00000E+00
 -1       789 1.49646E-04 1.37652E-05 0.00000E+00
 -1       790 1.49686E-04 1.26549E-05-8.27181E-25
 -1       791 1.49725E-04 1.15682E-05 0.00000E+00
 -1       792 1.49765E-04 1.05030E-05 1.65436E-24
 -1       793 1.49805E-04 9.45705E-06 8.27181E-25
 -1       794 1.49845E-04 8.43009E-06 1.65436E-24
 -1       795 1.49885E-04 7.42177E-06-8.27181E-25
 -1       796 1.49925E-04 6.43349E-06 0.00000E+00
 -1       797 1.49965E-04 5.46665E-06 0.00000E+00
 -1       798 1.50005E-04 4.52466E-06 1.65436E-24
 -1       799 1.50045E-04 3.61096E-06 0.00000E+00
 -1       800 1.50085E-04 2.73156E-06-1.65436E-24
 -1       801 1.19832E-04 1.64010E-05 2.64698E-23
 -1       802 2.96013E-05 1.07443E-05-1.32349E-23
 -1       803-5.06461E-05 5.78054E-06 5.29396E-23
 -1       804-5.11284E-05 3.89342E-06 2.64698E-23
 -1       805-1.79471E-05 1.76791E-06 0.00000E+00
 -1       806 1.49864E-04 1.72272E-05 3.30872E-24
 -1       807 1.50221E-04 1.59401E-05-8.27181E-25
 -1       808 1.50566E-04 1.46846E-05 1.65436E-24
 -1       809 1.50898E-04 1.34636E-05 8.27181E-25
 -1       810 1.51216E-04 1.22801E-05 1.65436E-24
 -1       811 1.51518E-04 1.11368E-05-1.65436E-24
 -1       812 1.51804E-04 1.00367E-05 1.65436E-24
 -1       813 1.52073E-04 8.98251E-06 0.00000E+00
 -1       814 1.52324E-04 7.97706E-06 0.00000E+00
 -1       815 1.52556E-04 7.02314E-06 1.65436E-24
 -1       816 1.52767E-04 6.12357E-06 1.65436E-24
 -1       817 1.52957E-04 5.28111E-06-8.27181E-25
 -1       818 1.53125E-04 4.49856E-06 3.30872E-24
 -1       819 1.53269E-04 3.77870E-06 0.00000E+00
 -1       820 1.53389E-04 3.12427E-06-3.30872E-24
 -1       821 1.50015E-04 9.70351E-07 8.27181E-25
 -1       822 1.49898E-04-1.56662E-07 0.00000E+00
 -1       823 1.49781E-04-1.36208E-06 0.00000E+00
 -1       824 1.49663E-04-2.51907E-06 0.00000E+00
 -1       825 1.49545E-04-3.51250E-06 0.00000E+00
 -1       826 1.49428E-04-4.22809E-06 1.65436E-24
 -1       827 1.49310E-04-4.61796E-06 0.00000E+00
 -1       828 1.49192E-04-4.63600E-06 0.00000E+00
 -1       829 1.49075E-04-4.32498E-06 3.30872E-24
 -1       830 1.48957E-04-3.72938E-06 0.00000E+00
 -1       831 1.48839E-04-2.96174E-06-3.30872E-24
 -1       832 1.48721E-04-2.13550E-06 1.65436E-24
 -1       833 1.48604E-04-1.37815E-06 0.00000E+00
 -1       834 1.48487E-04-8.16773E-07 0.00000E+00
 -1       835 1.48371E-04-5.31754E-07 0.00000E+00
 -1       836 1.50864E-04 1.99984E-06 0.00000E+00
 -1       837 1.51493E-04 2.10964E-06-1.65436E-24
 -1       838 1.52041E-04 2.21932E-06 0.00000E+00
 -1       839 1.52537E-04 2.32833E-06-8.27181E-25
 -1       840 1.53009E-04 2.43717E-06 0.00000E+00
 -1       856 1.48242E-04-7.84844E-07 0.00000E+00
 -1       857 1.48218E-04-8.45331E-07 0.00000E+00
 -1       858 1.48195E-04-8.02561E-07 0.00000E+00
 -1       859 1.48172E-04-6.75718E-07-2.06795E-25
 -1       860 1.48148E-04-4.84081E-07 8.27181E-25
 -1       861 1.48124E-04-2.46971E-07 0.00000E+00
 -1       862 1.48100E-04 1.62450E-08 0.00000E+00
 -1       863 1.48076E-04 2.86177E-07 0.00000E+00
 -1       864 1.48053E-04 5.43427E-07 0.00000E+00
 -1       865 1.48029E-04 7.68611E-07-4.13590E-25
 -1       866 1.48005E-04 9.42378E-07 0.00000E+00
 -1       867 1.47981E-04 1.04541E-06 0.00000E+00
 -1       868 1.47957E-04 1.05846E-06 8.27181E-25
 -1       869 1.47933E-04 9.62360E-07 0.00000E+00
 -1       870 1.47909E-04 7.38053E-07 8.27181E-25
 -1       871 1.48695E-04-6.04431E-07-4.13590E-25
 -1       872 1.49258E-04-6.09685E-07 0.00000E+00
 -1       873 1.49891E-04-6.15486E-07 0.00000E+00
 -1       874 1.50538E-04-6.21932E-07-1.55096E-25
 -1       875 1.51139E-04-6.28924E-07-1.03398E-24
 -1       876 1.48443E-04-7.72485E-07 0.00000E+00
 -1       877 1.48605E-04-8.83176E-07 0.00000E+00
 -1       878 1.48747E-04-9.41255E-07 0.00000E+00
 -1       879 1.48872E-04-9.53365E-07 0.00000E+00
 -1       880 1.48983E-04-9.26202E-07-3.30872E-24
 -1       881 1.49081E-04-8.66411E-07 1.65436E-24
 -1       882 1.49169E-04-7.80629E-07 3.30872E-24
 -1       883 1.49251E-04-6.75483E-07-1.65436E-24
 -1       884 1.49327E-04-5.57597E-07 0.00000E+00
 -1       885 1.49402E-04-4.33587E-07 0.00000E+00
 -1       886 1.49476E-04-3.10078E-07 0.00000E+00
 -1       887 1.49553E-04-1.93708E-07-1.65436E-24
 -1       888 1.49635E-04-9.11124E-08-3.30872E-24
 -1       889 1.49724E-04-9.05653E-09-1.65436E-24
 -1       890 1.49822E-04 4.58654E-08 0.00000E+00
 -1       891 1.48355E-04 3.16064E-07-1.65436E-24
 -1       892 1.48805E-04 2.65402E-07 0.00000E+00
 -1       893 1.49210E-04 2.14794E-07 8.27181E-25
 -1       894 1.49548E-04 1.64359E-07 0.00000E+00
 -1       895 1.49795E-04 1.14075E-07 0.00000E+00
 -1       956 1.53372E-04 2.09561E-06 0.00000E+00
 -1       957 1.53256E-04 1.72791E-06-8.27181E-25
 -1       958 1.53141E-04 1.42629E-06 3.30872E-24
 -1       959 1.53025E-04 1.18167E-06 1.65436E-24
 -1       960 1.52909E-04 9.84925E-07 3.30872E-24
 -1       961 1.52793E-04 8.26913E-07-1.65436E-24
 -1       962 1.52677E-04 6.98472E-07-3.30872E-24
 -1       963 1.52561E-04 5.90431E-07-1.65436E-24
 -1       964 1.52445E-04 4.93620E-07-3.30872E-24
 -1       965 1.52329E-04 3.98870E-07 0.00000E+00
 -1       966 1.52213E-04 2.97007E-07 3.30872E-24
 -1       967 1.52097E-04 1.78864E-07 0.00000E+00
 -1       968 1.51982E-04 3.52766E-08 0.00000E+00
 -1       969 1.51866E-04-1.42890E-07 0.00000E+00
 -1       970 1.51751E-04-3.64757E-07 0.00000E+00
 -1       971 1.51531E-04-9.04021E-07-1.65436E-24
 -1       972 1.51424E-04-1.08089E-06 0.00000E+00
 -1       973 1.51317E-04-1.17941E-06 3.30872E-24
 -1       974 1.51210E-04-1.20967E-06 0.00000E+00
 -1       975 1.51102E-04-1.18176E-06 0.00000E+00
 -1       976 1.50995E-04-1.10581E-06-1.65436E-24
 -1       977 1.50887E-04-9.91945E-07 0.00000E+00
 -1       978 1.50780E-04-8.50308E-07-1.65436E-24
 -1       979 1.50673E-04-6.91044E-07 0.00000E+00
 -1       980 1.50565E-04-5.24300E-07 1.65436E-24
 -1       981 1.50458E-04-3.60226E-07 0.00000E+00
 -1       982 1.50350E-04-2.08972E-07 0.00000E+00
 -1       983 1.50243E-04-8.06833E-08 3.30872E-24
 -1       984 1.50137E-04 1.45113E-08 0.00000E+00
 -1       985 1.50030E-04 6.64774E-08 0.00000E+00
 -3
    1PSTEP                        22          11           1          
  100CL  111 5.97900E-01         409                     0   11           1
 -4  STRESS      6    1
 -5  SXX         1    4    1    1
 -5  SYY         1    4    2    2
 -5  SZZ         1    4    3    3
 -5  SXY         1    4    1    2
 -5  SYZ         1    4    2    3
 -5  SZX         1    4    3    1
 -1         1-3.51984E+06-1.37145E+06-7.68058E+05-1.47096E+06 1.15688E-09-6.67642E-08
 -1         2 1.26619E+03-1.40407E+06 4.19553E+03 7.15542E+03 4.41347E-10-8.67612E-09
 -1         3-7.33319E+02-1.46319E+06 3.54754E+02-1.46470E+03-4.48651E-10-1.36206E-08
 -1         5-1.16212E+01 3.26573E+05 8.30538E+00-3.62916E-01-2.09895E-10 4.39786E-08
 -1         8-8.59704E+05-2.94606E+05-8.45602E+04-3.68147E+05-5.09317E-10-4.08545E-09
 -1         9 2.29930E+06-7.14685E+05 4.63861E+05-8.52119E+05 1.93017E-08 4.27710E-08
 -1        10-1.63835E+03-1.52456E+06-2.95035E+03-9.90190E+03-9.00764E-09-1.33248E-08
 -1        12-8.22996E+00 3.26590E+05 2.69559E+02-2.65311E+00-2.60751E-10-5.67024E-09
 -1        15 1.54689E+03 8.50108E+02 5.00031E+03 2.73175E+00-8.85620E-11 4.27456E-08
 -1        16 6.66023E+06-5.38398E+05 9.60237E+05-1.07493E+06 1.31161E-08 5.44436E-08
 -1        17 2.23739E+06 1.42760E+06 6.36482E+05 1.49696E+06 3.18978E-09 1.04192E-08
 -1        18 1.31508E+05 2.88101E+04 6.30086E+03-8.67421E+04 1.28734E-08 1.14178E-08
 -1        19 1.05169E+05 1.20607E+05-8.58140E+02 2.01055E+04 5.07862E-10-3.59360E-09
 -1        20-6.22221E+04-4.96312E+05-1.10764E+05 2.66867E+04 7.63672E-10 1.00166E-09
 -1        21-4.25767E+01-2.66962E+05-8.43232E+02 8.30669E+01-5.89018E-07 1.78880E-09
 -1        24 3.23205E+06 3.24180E+06 1.15056E+06 2.88172E+06-1.00573E-07-3.79902E-08
 -1        25-3.70964E+04-3.11168E+05-4.84468E+04-3.23613E+05-1.16079E-09 1.49505E-08
 -1        26-4.58444E+04 7.79899E+04-2.13379E+04-1.47191E+03 1.13105E-09 7.61677E-09
 -1        27-6.90541E+04-2.69120E+05-9.93154E+04 6.03990E+04 4.70997E-09-8.93730E-10
 -1        28 2.03317E+04-7.58638E+04 1.51972E+04 2.02869E+04-6.75755E-10-3.27687E-09
 -1        32-1.50367E+06-2.59683E+06-1.28935E+05-1.06968E+05-3.13121E-08-8.76412E-09
 -1        33-1.57115E+05 7.89046E+04 2.79232E+04-3.45329E+04-1.16283E-09 1.27187E-08
 -1        34-1.96938E+05-2.09300E+04 5.63602E+02 6.43347E+04-1.20201E-09 9.46632E-10
 -1        35-2.08139E+04-3.01129E+04-1.19322E+03 4.64858E+04 3.28455E-10-1.79231E-09
 -1        51 3.78536E+04-2.65424E+05 8.42198E+04-7.64639E+05-1.01863E-10 6.44068E-08
 -1        52 1.50776E+04-2.53747E+05 4.72474E+04-8.91569E+05 7.09406E-10-3.63216E-08
 -1        53 5.79344E+03-2.68578E+05 2.94592E+04-7.61878E+05 4.65661E-10-4.26080E-08
 -1        54 1.46652E+04-2.65771E+05 3.40152E+04-8.94444E+05-4.07454E-10 3.96394E-08
 -1        55 3.00297E+04-2.76943E+05 5.28223E+04-7.61457E+05 3.05590E-10 7.99082E-08
 -1        56-6.67961E+06-7.50420E+05-5.67229E+05-2.59876E+06-2.67610E-08-6.07397E-08
 -1        57-6.98148E+06-1.19119E+06-3.82654E+05-2.49159E+06 1.46065E-08-1.00106E-07
 -1        58-6.77964E+06-9.44586E+05-1.33302E+05-2.57866E+06-9.26957E-09-3.64089E-08
 -1        59-6.86886E+06-9.60250E+05-7.95330E+04-2.51236E+06-2.61070E-09-6.99538E-08
 -1        60-6.79062E+06-9.75158E+05-3.10302E+04-2.58000E+06 1.91485E-08-4.09946E-08
 -1        61-6.85272E+06-9.27664E+05-1.76089E+04-2.51446E+06 2.00753E-08 5.83577E-08
 -1        62-6.79542E+06-9.76329E+05-8.42426E+03-2.57677E+06 2.78101E-09 9.93759E-08
 -1        63-6.83852E+06-9.35250E+05-6.77478E+03-2.52752E+06-5.73527E-09 1.47155E-08
 -1        64-6.80448E+06-9.67656E+05-7.77845E+03-2.56676E+06 1.38011E-08-1.01500E-07
 -1        65-6.81932E+06-9.59077E+05-1.53053E+04-2.55049E+06-1.16052E-08-7.55181E-08
 -1        66-6.81444E+06-9.52735E+05-2.70648E+04-2.55361E+06 7.75071E-09-5.19040E-08
 -1        67-6.81328E+06-1.00750E+06-6.87231E+04-2.57212E+06-2.13658E-08 3.86908E-08
 -1        68-6.81100E+06-9.19858E+05-1.15291E+05-2.54507E+06-9.94987E-09-1.99943E-08
 -1        69-6.90903E+06-1.20980E+06-3.30897E+05-2.55804E+06-1.47265E-08-4.38049E-08
 -1        70-6.72070E+06-7.55438E+05-4.90455E+05-2.56639E+06 1.32786E-08-1.20403E-07
 -1        86-6.62706E+02-1.40721E+06 4.11080E+03-3.57771E+03-1.92642E-09-3.39745E-08
 -1        87 4.11417E+03-1.40329E+06 8.97978E+03 1.24797E+04-3.36763E-09 1.04891E-08
 -1        88-3.45607E+03-1.40804E+06 1.35415E+04-8.90213E+03-3.64525E-09-4.12496E-08
 -1        89 2.56676E+04-1.39401E+06 3.65693E+04 1.85746E+04-5.47698E-09-1.83298E-07
 -1        90-2.20883E+04-1.41652E+06 5.16887E+04-9.67306E+03-3.62706E-09-2.33452E-08
 -1       121-1.02415E+03-1.46573E+06-9.21731E+01 7.28939E+02 1.01137E-09 3.33966E-09
 -1       122-5.91381E+02-1.46318E+06 7.21576E+02-2.92679E+03-3.90865E-09-8.36735E-09
 -1       123-1.07460E+03-1.46583E+06 7.14330E+02 2.17757E+03 2.91527E-09-1.69457E-08
 -1       124 8.55447E+02-1.46255E+06 2.90335E+03-6.15197E+03-7.07314E-09 3.73802E-09
 -1       125-1.89857E+03-1.46663E+06 3.95104E+03 3.93910E+03 4.87125E-09 9.52423E-09
 -1       191-1.24733E+01 3.26599E+05 9.64304E+00 1.83330E-01-2.39848E-10 1.53641E-08
 -1       192-1.23881E+01 3.26573E+05 1.75983E+01-1.36074E+00-2.93845E-10 1.38471E-09
 -1       193-1.45101E+01 3.26599E+05 3.24510E+01 1.18961E+00-4.09038E-10 2.11057E-08
 -1       194-1.48549E+01 3.26576E+05 6.65960E+01-3.16312E+00-2.95213E-10 1.95159E-08
 -1       195-1.84236E+01 3.26597E+05 1.29985E+02 2.00325E+00-5.65663E-10 4.95493E-09
 -1       251-1.86823E+06-1.22940E+04-1.43755E+05-1.06575E+05-2.05000E-09-2.58005E-08
 -1       252-1.29381E+06 1.67299E+04 1.69611E+04 3.28245E+05 8.79845E-09 3.81146E-08
 -1       253-1.60913E+06-7.57542E+03-2.60049E+04-2.19902E+05 3.54612E-09 3.74775E-08
 -1       254-1.56033E+06 3.66822E+04 2.38648E+03 4.34511E+05-1.57421E-08 2.40925E-08
 -1       255-1.62845E+06-1.04623E+04-1.47397E+04-2.14768E+05-1.76515E-08 9.24047E-10
 -1       256-1.24478E+06 3.06231E+04 6.87729E+04 3.08307E+05 2.19597E-08 1.64562E-07
 -1       257-1.89388E+06-2.65317E+04-6.83541E+04-9.16083E+04 5.91172E-09 1.31330E-07
 -1       258-9.56372E+05 2.36437E+04 1.24088E+05-4.53392E+03-3.28992E-08 5.71449E-08
 -1       259-1.88857E+06-2.64307E+04-6.58243E+04 9.67008E+04-1.73895E-09 4.93716E-09
 -1       260-1.25654E+06 3.23671E+04 7.04687E+04-3.14120E+05 1.32691E-08-6.34254E-08
 -1       261-1.62320E+06-1.13258E+04-6.33208E+03 2.16754E+05 8.74870E-08-1.68259E-08
 -1       262-1.55691E+06 4.53577E+04 2.00832E+04-4.34088E+05-2.50177E-08-6.63740E-08
 -1       263-1.61783E+06-1.53160E+04 1.41829E+03 2.18733E+05 1.63536E-08 6.38838E-08
 -1       264-1.25635E+06 7.12712E+04 9.70930E+04-3.22614E+05 1.00628E-07 9.37871E-09
 -1       265-1.89573E+06-5.98846E+04-3.44578E+04 1.03285E+05 3.42752E-08 6.72571E-08
 -1       266-2.80035E+04-1.30939E+04 6.57073E+04-5.84533E+01 2.00089E-10-5.90064E-08
 -1       267 3.24642E+04 1.52621E+04 4.64394E+04 6.74405E+01 1.11868E-10-6.92362E-08
 -1       268-4.35337E+03-2.16148E+03 1.72614E+04-8.59326E+00-2.13731E-10-1.27297E-07
 -1       269 5.14007E+03 2.58690E+03 1.12196E+04 1.00097E+01-5.01359E-11-5.33703E-08
 -1       270-7.71526E+02-4.25041E+02 5.41584E+03-1.35839E+00-6.88942E-11-2.87702E-10
 -1       271-2.56070E+06-3.14483E+05-1.91874E+05-9.89098E+05-1.89902E-09 5.34055E-09
 -1       272-2.66184E+06-4.23345E+05-1.23528E+05-9.51934E+05 6.87851E-09-5.64178E-08
 -1       273-2.59618E+06-3.63146E+05-4.52982E+04-9.81245E+05-5.30747E-09-7.40511E-08
 -1       274-2.61971E+06-3.64107E+05-2.54027E+04-9.64014E+05 3.03669E-08-7.49242E-09
 -1       275-2.60166E+06-3.67715E+05-1.05606E+04-9.79162E+05 7.29233E-09 5.92081E-09
 -1       276-2.61200E+06-3.59738E+05-5.56670E+03-9.67911E+05-5.75301E-09 2.50220E-08
 -1       277-2.60363E+06-3.66985E+05-2.76232E+03-9.77467E+05 1.19144E-09-5.78138E-08
 -1       278-2.60836E+06-3.61974E+05-1.85247E+03-9.71328E+05 1.92085E-09 3.76876E-08
 -1       279-2.60519E+06-3.65487E+05-1.99022E+03-9.75696E+05-1.83536E-09-1.21736E-09
 -1       280-2.60549E+06-3.65466E+05-3.37498E+03-9.74840E+05 3.55612E-09 7.10310E-08
 -1       281-2.60647E+06-3.63539E+05-6.23011E+03-9.73926E+05 1.12823E-08 5.40251E-09
 -1       282-2.60525E+06-3.72632E+05-1.46962E+04-9.77891E+05-1.13005E-09 8.09843E-08
 -1       283-2.60555E+06-3.58656E+05-2.62446E+04-9.72549E+05-8.92396E-09-2.76605E-08
 -1       284-2.62527E+06-4.11191E+05-7.13720E+04-9.75903E+05 1.80080E-09-9.73369E-08
 -1       285-2.58714E+06-3.28472E+05-1.10973E+05-9.74711E+05 1.88447E-09 1.57597E-08
 -1       301 2.07713E+04-2.97711E+05 1.73252E+05-5.49113E+05 9.60426E-10-8.32006E-08
 -1       302 2.23061E+04-2.54162E+05 1.08658E+05-8.03329E+05-6.65750E-10-1.71358E-08
 -1       303-8.28303E+02-2.81353E+05 7.36938E+04-5.47851E+05 4.14730E-10-9.46202E-08
 -1       304 1.69405E+04-2.55128E+05 9.55218E+04-8.02763E+05 1.45519E-10-4.75557E-08
 -1       305 1.39318E+04-2.90571E+05 1.43759E+05-5.49693E+05 1.38243E-10-4.00105E-08
 -1       306-1.52699E+07-2.61110E+06-3.43783E+06-1.94651E+06-3.86499E-08-2.08674E-08
 -1       307 7.56888E+06-1.11010E+06 1.94790E+06-6.95331E+06-5.16768E-07 1.34460E-08
 -1       308-8.10163E+06 2.42499E+05-3.44958E+05 1.67580E+06-5.56756E-08 1.72396E-07
 -1       309-3.24296E+06-4.03538E+05 5.92973E+05-1.14957E+07 3.01938E-07 3.53612E-08
 -1       310-8.71431E+06 1.33067E+05-4.31298E+05 1.51828E+06-5.26779E-09 7.20202E-08
 -1       311 8.96232E+06-1.52452E+06 2.34913E+06-5.88131E+06 2.95113E-08 9.78471E-08
 -1       312-1.53994E+07-2.60117E+06-2.89855E+06-2.55886E+06-3.76604E-08 2.27054E-07
 -1       313 1.42263E+07 3.02761E+06 3.88561E+06 5.78044E+06-1.02707E-07 8.99236E-08
 -1       314-1.13890E+07-6.16445E+06-2.78026E+06-6.25801E+06 3.69735E-07 8.14907E-09
 -1       315-3.09398E+06 9.41518E+06 2.17354E+06 5.11979E+06-7.84275E-08-4.01633E-08
 -1       316-2.66338E+06-5.34474E+06-2.86451E+05-4.35206E+06-5.61035E-07-2.05735E-07
 -1       317-1.34154E+07 9.73644E+06 5.75814E+05-6.49977E+05 6.10809E-07-3.28040E-07
 -1       318-2.92919E+06-5.47210E+06-5.12551E+05-4.43716E+06-4.90385E-07 2.98605E-08
 -1       319-2.15660E+06 9.66494E+06 2.05485E+06 5.33921E+06-8.41683E-08 5.04806E-08
 -1       320-1.18982E+07-6.39373E+06-3.66176E+06-6.16150E+06 1.07510E-07-2.81725E-08
 -1       336 2.55891E+02-1.58670E+06-1.09472E+04 5.90435E+03-1.94341E-08-1.30240E-09
 -1       337-4.16384E+03-1.58779E+06-1.36379E+04-1.43131E+04-3.54385E-08-1.19235E-08
 -1       338 6.08038E+02-1.58652E+06-2.01314E+04 8.31611E+03-2.49456E-08 1.37807E-08
 -1       339-2.13335E+04-1.59925E+06-4.53124E+04-1.90167E+04-4.44925E-08-6.10999E-09
 -1       340 1.42619E+04-1.57629E+06-7.09218E+04 1.05422E+04-2.92348E-08 2.39161E-08
 -1       406 1.20834E+01 3.26585E+05 5.31876E+02 6.93989E-01-7.14294E-10-2.59934E-09
 -1       407 1.77353E+02 3.26683E+05 1.13103E+03 1.00094E+01-1.85068E-10-3.54703E-10
 -1       408 5.73793E+02 3.26503E+05 2.25849E+03-1.09744E+01-9.16600E-10-1.31040E-08
 -1       409 2.43479E+03 3.27405E+05 5.08501E+03 1.11448E+02-1.01608E-10-1.58288E-08
 -1       410 7.01025E+03 3.25860E+05 1.03805E+04-1.05915E+02-1.34241E-09-1.43268E-08
 -1       521-1.73696E+07-3.31519E+06-4.25086E+06-1.98649E+06-7.16536E-08 5.69853E-08
 -1       522 8.29141E+06-1.18824E+06 2.08642E+06-8.97243E+06-3.41475E-07-2.09824E-07
 -1       523-9.44506E+06 1.43367E+05-4.02267E+05 2.04207E+06 1.04221E-07-2.54482E-07
 -1       524-4.98010E+06 3.98112E+05 6.97456E+05-1.41468E+07 5.97072E-07-3.57575E-07
 -1       525-1.01760E+07-2.57090E+04-5.10896E+05 1.85849E+06 2.66620E-07-1.63023E-07
 -1       526 1.02319E+07-1.73736E+06 2.63881E+06-7.60873E+06 2.27388E-07-9.44929E-08
 -1       527-1.75632E+07-3.39145E+06-3.52784E+06-2.71730E+06 1.05007E-07-3.72820E-08
 -1       528 1.65769E+07 3.41006E+06 4.31916E+06 6.91816E+06-4.11877E-07 7.79983E-08
 -1       529-1.29045E+07-7.53642E+06-3.38033E+06-6.98115E+06-3.90573E-08-2.72412E-08
 -1       530-4.55452E+06 1.17461E+07 2.45220E+06 5.72156E+06-3.86935E-08 2.82860E-07
 -1       531-3.07109E+06-6.48383E+06-3.25776E+05-4.99942E+06-4.47209E-07 3.14612E-08
 -1       532-1.65953E+07 1.19850E+07 7.00824E+05-1.91969E+06 2.04513E-07-3.82272E-07
 -1       533-3.31330E+06-6.60988E+06-5.61708E+05-5.06468E+06-5.13392E-08-5.85685E-07
 -1       534-3.62134E+06 1.20703E+07 2.31465E+06 5.93344E+06-7.23594E-08 4.24741E-07
 -1       535-1.34234E+07-7.84274E+06-4.34809E+06-6.86640E+06 2.87546E-08 2.78218E-07
 -1       536-3.07178E+05-4.80069E+04 2.41292E+04-1.46475E+04-1.22251E-08 2.56587E-08
 -1       537 1.16359E+05 4.62429E+04 8.78368E+04 2.97139E+04-9.21601E-08 4.84761E-08
 -1       538-1.15170E+05 1.95647E+03 1.51184E+04-1.55648E+04 2.49298E-08 4.41178E-08
 -1       539-1.55308E+04-3.25913E+03 2.45886E+04 3.17613E+04 1.38259E-07 7.16768E-08
 -1       540-1.76110E+05 2.21199E+03-9.88629E+03-1.67577E+04-4.88939E-09 4.56644E-08
 -1       541 2.15996E+05 6.63778E+03 6.51312E+04 2.46880E+04-1.96775E-08 3.47937E-08
 -1       542-3.45037E+05-9.39812E+03-4.73935E+04-8.39070E+03 4.61250E-08 1.13533E-08
 -1       543 3.58774E+05 1.54149E+04 9.30688E+04-3.27760E+03 2.53540E-08 1.29126E-09
 -1       544-3.17881E+05-7.43341E+03-4.29739E+04 1.11294E+04 8.03766E-10-2.12457E-08
 -1       545 1.47406E+05 6.39688E+02 4.77495E+04-2.74653E+04 6.61402E-10-4.87788E-08
 -1       546-1.35156E+05 6.65854E+03-7.06367E+03 1.57592E+04 1.87280E-08-3.73324E-08
 -1       547-2.71379E+04-1.06999E+04 9.12090E+03-3.21396E+04-8.80905E-08-6.17956E-08
 -1       548-1.44582E+05 5.00671E+03-1.32757E+04 1.58846E+04-9.43385E-08-4.82028E-08
 -1       549 1.66652E+05 9.07158E+03 4.28733E+04-2.68190E+04-5.36812E-08-4.01291E-08
 -1       550-3.27584E+05-1.43135E+04-6.78786E+04 1.03530E+04 1.33082E-09-8.61837E-09
 -1       551 2.93960E+04-7.14371E+05 1.25657E+04-1.11548E+06-7.59755E-08-4.59841E-09
 -1       552 6.53326E+04-7.39970E+05 2.58108E+04-1.59016E+06-5.45406E-08 3.21888E-08
 -1       553 4.84320E+04-7.42308E+05 4.25063E+04-1.11049E+06-8.75880E-08 2.39452E-08
 -1       554 9.71200E+04-7.44983E+05 9.30463E+04-1.59199E+06-5.56174E-08 9.71522E-09
 -1       555 7.76597E+04-7.63207E+05 1.66117E+05-1.11096E+06-8.92687E-08-9.95715E-09
 -1       556 1.48962E+05-2.85689E+05 5.55454E+04-3.33232E+05-1.85682E-08-1.20490E-08
 -1       557 2.54339E+05-3.70337E+05 3.03790E+04-4.23712E+05-4.77303E-09 1.93540E-08
 -1       558 1.40376E+05-2.88168E+05 1.03810E+04-3.30232E+05-1.67638E-08-9.16771E-10
 -1       559 2.35632E+05-3.76140E+05 5.84820E+03-4.36019E+05 1.38971E-08-2.51384E-09
 -1       560 1.31788E+05-2.82716E+05 1.29559E+03-3.36216E+05 1.07539E-08 1.50067E-08
 -1       561 2.24410E+05-3.71975E+05 1.11361E+03-4.43491E+05-4.03816E-09-3.37604E-09
 -1       562 1.25012E+05-2.78437E+05-1.74357E+02-3.41083E+05-6.89761E-09 2.43563E-09
 -1       563 2.16415E+05-3.68493E+05 2.50165E+02-4.48674E+05-1.54469E-08-1.87438E-08
 -1       564 1.20330E+05-2.75500E+05-1.49023E+02-3.44387E+05 2.55386E-09 1.07225E-08
 -1       565 2.11386E+05-3.66308E+05 8.54661E+01-4.51878E+05 1.06338E-08 8.33825E-09
 -1       566 1.17822E+05-2.73903E+05-1.04326E+02-3.46145E+05-2.67028E-09 5.41513E-09
 -1       567 2.09309E+05-3.65404E+05-2.48275E+02-4.53093E+05 1.39889E-08 9.62245E-09
 -1       568 1.17548E+05-2.73747E+05-7.87132E+02-3.46428E+05-8.37645E-10 3.32147E-09
 -1       569 2.09039E+05-3.65444E+05-1.96099E+03-4.51443E+05-3.68527E-09 7.89441E-09
 -1       570 1.20408E+05-2.76350E+05-4.29241E+03-3.45714E+05 1.06738E-08 2.13422E-08
 -1       571 2.48416E+05 8.93050E+03 1.29999E+04-7.09322E+04 2.98860E-09 1.51665E-08
 -1       572 2.50328E+05 3.22874E+03 6.36993E+03-7.78189E+04 4.78849E-10-7.11952E-09
 -1       573 2.49182E+05 8.90597E+02 2.83019E+03-7.07894E+04 1.11177E-08 8.75843E-10
 -1       574 2.49392E+05 4.18192E+02 1.41868E+03-7.79909E+04 2.42228E-08-8.09541E-09
 -1       575 2.49268E+05 1.96075E+02 6.69355E+02-7.07702E+04 1.97703E-08 1.28157E-08
 -1       576 2.49272E+05 1.87199E+02 3.42158E+02-7.80139E+04 1.50567E-08 1.53168E-08
 -1       577 2.49294E+05 1.51263E+02 1.70632E+02-7.07676E+04 1.85801E-08 3.00224E-09
 -1       578 2.49280E+05 1.64228E+02 9.77315E+01-7.80169E+04 1.81813E-08 4.78394E-09
 -1       579 2.49332E+05 1.33660E+02 6.70681E+01-7.07674E+04 1.08103E-08 2.84126E-09
 -1       580 2.49334E+05 1.38726E+02 7.62496E+01-7.80130E+04-6.03541E-09-1.64891E-09
 -1       581 2.49393E+05 1.05372E+02 1.16188E+02-7.07718E+04 4.19095E-09 4.47471E-10
 -1       582 2.49435E+05 1.32226E+02 2.33715E+02-7.79670E+04 3.62343E-09 1.58229E-08
 -1       583 2.49464E+05 1.68361E+02 4.52093E+02-7.08134E+04 2.24099E-09 6.58974E-09
 -1       584 2.49690E+05 5.32141E+02 1.01933E+03-7.76164E+04 1.29967E-09-1.28090E-08
 -1       585 2.49434E+05 1.41532E+03 2.06926E+03-7.11223E+04-2.16460E-10-5.68616E-09
 -1       586-3.27262E+03 8.76665E+04-3.60009E+03-2.13669E+05-3.08137E-09 7.56040E-09
 -1       587-9.87800E+02 8.72589E+04 7.61744E+01-2.35181E+05-3.94175E-09 1.53568E-09
 -1       588 6.35289E+02 8.72432E+04 3.73040E+03-2.13565E+05-2.27192E-09 1.49157E-09
 -1       589 4.63671E+03 8.92488E+04 1.02040E+04-2.34947E+05-3.44698E-09-6.36646E-11
 -1       590 1.42650E+04 8.61022E+04 2.16137E+04-2.13934E+05-2.40470E-09 6.25732E-09
 -1       591-5.44220E+04-1.28050E+04-1.81211E+04-2.45356E+04-1.18007E-09-1.23655E-08
 -1       592-5.73724E+04-1.60052E+04-9.81568E+03-2.78358E+04-5.15968E-09-4.80168E-09
 -1       593-5.62364E+04-1.14879E+04-4.08591E+03-2.58623E+04 1.46485E-10 9.21409E-09
 -1       594-5.48660E+04-1.33509E+04-2.03779E+03-2.79362E+04 2.66175E-09 1.46827E-08
 -1       595-5.63748E+04-1.14833E+04-9.35756E+02-2.59227E+04 2.51174E-09 2.03976E-09
 -1       596-5.46947E+04-1.32295E+04-4.75881E+02-2.79162E+04 4.72021E-09 1.78804E-08
 -1       597-5.63922E+04-1.14956E+04-2.59510E+02-2.59250E+04 1.21724E-09 8.66805E-09
 -1       598-5.46778E+04-1.32248E+04-2.09313E+02-2.79106E+04-3.09572E-09 7.44546E-09
 -1       599-5.63911E+04-1.14959E+04-2.68236E+02-2.59246E+04 1.21508E-09-7.25731E-09
 -1       600-5.46950E+04-1.32303E+04-4.98993E+02-2.79148E+04 3.37604E-09-1.68017E-08
 -1       601-5.63707E+04-1.14840E+04-9.84743E+02-2.59216E+04 7.91943E-10 2.03136E-09
 -1       602-5.48752E+04-1.33574E+04-2.14634E+03-2.79328E+04-5.04224E-09-1.93086E-09
 -1       603-5.62227E+04-1.14912E+04-4.30438E+03-2.58586E+04-3.56408E-09 1.95269E-09
 -1       604-5.75302E+04-1.61372E+04-1.03400E+04-2.78063E+04 9.08130E-10 1.57825E-08
 -1       605-5.42943E+04-1.28936E+04-1.90892E+04-2.44772E+04 2.69199E-09 1.41454E-08
 -1       606 2.68073E+04-1.20212E+04-2.15825E+04 2.52108E+04 2.90038E-09 3.42425E-10
 -1       607 2.31165E+04-3.90935E+03-1.07475E+04 2.83141E+04 2.29193E-09 4.77303E-09
 -1       608 2.52155E+04-6.89486E+02-4.81201E+03 2.50197E+04 8.93124E-10-8.01265E-10
 -1       609 2.48070E+04-2.16669E+02-2.43066E+03 2.85371E+04-1.42791E-10-9.73512E-09
 -1       610 2.50298E+04-1.07897E+01-1.16024E+03 2.49978E+04 2.14914E-09 1.69916E-09
 -1       611 2.49604E+04-4.59817E+00-5.84954E+02 2.85613E+04-1.03273E-09 9.83346E-09
 -1       612 2.49849E+04 4.06814E+00-2.78643E+02 2.49956E+04-2.92857E-09 5.03678E-09
 -1       613 2.49646E+04 1.93543E+00-1.25288E+02 2.85642E+04-4.80850E-09-2.79806E-09
 -1       614 2.49620E+04 1.39712E+00-3.07239E+01 2.49949E+04-4.39286E-09 3.06045E-10
 -1       615 2.49558E+04 5.60088E+00 4.95033E+01 2.85646E+04-1.88720E-09 7.93398E-09
 -1       616 2.49443E+04 6.01290E+00 1.51169E+02 2.49951E+04-8.29368E-09-7.67318E-09
 -1       617 2.49707E+04 3.97772E+01 3.46105E+02 2.85641E+04-1.22745E-08-1.54791E-08
 -1       618 2.49118E+04 1.07295E+02 6.97990E+02 2.49953E+04-4.65752E-09 7.11680E-10
 -1       619 2.52152E+04 5.80691E+02 1.56769E+03 2.85634E+04-1.13232E-10 8.83983E-09
 -1       620 2.46788E+04 1.76350E+03 3.15105E+03 2.49952E+04-1.29342E-09 4.79668E-09
 -1       621 3.31032E+02 2.53719E+05 2.86765E+03 2.49316E+04 3.79941E-10-2.18370E-09
 -1       622 4.20371E+02 2.54407E+05 2.63792E+03 3.62382E+04 5.72300E-10-1.98190E-08
 -1       623 5.15411E+01 2.53872E+05 3.29392E+03 2.48148E+04 6.09191E-10-2.60798E-09
 -1       624 1.61955E+03 2.55465E+05 6.48493E+03 3.63560E+04 4.95760E-10-1.69050E-08
 -1       625 1.61303E+03 2.52590E+05 1.13806E+04 2.48115E+04 6.93035E-10-9.06289E-09
 -1       626 2.24038E+05 5.61440E+04 4.78012E+03 1.13024E+05-7.91715E-10 1.64036E-08
 -1       627 2.21722E+05 5.76018E+04 2.30346E+03 1.17180E+05 1.17825E-09-1.56001E-09
 -1       628 2.24169E+05 5.39414E+04 9.73710E+02 1.13817E+05-6.56746E-09-1.41940E-08
 -1       629 2.21106E+05 5.69875E+04 4.76575E+02 1.17423E+05-4.06635E-09 6.85731E-10
 -1       630 2.24181E+05 5.38361E+04 2.20518E+02 1.13847E+05 6.65750E-10 1.23788E-09
 -1       631 2.21038E+05 5.69665E+04 1.17916E+02 1.17424E+05-3.70392E-10 2.02294E-08
 -1       632 2.24175E+05 5.38416E+04 7.62572E+01 1.13841E+05-4.56566E-10-1.52037E-08
 -1       633 2.21026E+05 5.69700E+04 8.29015E+01 1.17418E+05 6.13863E-09 9.18408E-09
 -1       634 2.24168E+05 5.38408E+04 1.32142E+02 1.13839E+05 3.60637E-09-4.25803E-09
 -1       635 2.21036E+05 5.69698E+04 2.66317E+02 1.17421E+05 1.75129E-09 1.28011E-10
 -1       636 2.24157E+05 5.38373E+04 5.37258E+02 1.13837E+05 2.18631E-09 4.04043E-09
 -1       637 2.21150E+05 5.70539E+04 1.18075E+03 1.17418E+05 1.54819E-09-1.14651E-08
 -1       638 2.24114E+05 5.40989E+04 2.42606E+03 1.13718E+05 4.55202E-10-8.90304E-09
 -1       639 2.22424E+05 5.88258E+04 5.73975E+03 1.17042E+05 1.04092E-09 4.51109E-10
 -1       640 2.23941E+05 5.93876E+04 1.19111E+04 1.11484E+05 3.50747E-09 4.30055E-09
 -1       656 5.81197E+04-1.48199E+06-1.40303E+05-1.25679E+03 1.81899E-10-5.75733E-09
 -1       657-7.68634E+04-1.54537E+06-1.16175E+05 6.58898E+03-9.82254E-11-5.89023E-09
 -1       658 1.85022E+04-1.50002E+06-7.14797E+04-2.93195E+03 2.28738E-10-1.30555E-08
 -1       659-8.29234E+04-1.54824E+06-1.24136E+05 7.87775E+03-9.37689E-10-4.83844E-09
 -1       660 6.41658E+04-1.47913E+06-1.53992E+05-2.54554E+03-1.20781E-09 7.55210E-09
 -1       661 1.61226E+05 1.71792E+04 1.63512E+04 6.30454E+04 4.81123E-10 2.00271E-09
 -1       662 1.70204E+05 2.95491E+04 1.10189E+04 5.96801E+04 1.70758E-10 1.94973E-10
 -1       663 1.64435E+05 2.24263E+04 3.85406E+03 6.21152E+04-9.77707E-10 7.63703E-09
 -1       664 1.66485E+05 2.34110E+04 2.30500E+03 6.08146E+04-4.44288E-10-6.46344E-09
 -1       665 1.64920E+05 2.31449E+04 9.09315E+02 6.19756E+04-4.36103E-10 2.16281E-09
 -1       666 1.65913E+05 2.25877E+04 5.31502E+02 6.09957E+04 1.74816E-09 1.58374E-08
 -1       667 1.65004E+05 2.32281E+04 2.81663E+02 6.19421E+04 9.74751E-10 4.67690E-09
 -1       668 1.65822E+05 2.25257E+04 2.85460E+02 6.10444E+04 9.54529E-10-4.72205E-10
 -1       669 1.65011E+05 2.32050E+04 3.85236E+02 6.19274E+04-1.06192E-09 1.39694E-08
 -1       670 1.65916E+05 2.27331E+04 8.37683E+02 6.10461E+04-1.67648E-09 6.40136E-09
 -1       671 1.64909E+05 2.30249E+04 1.48698E+03 6.19385E+04-1.41072E-09-6.72969E-10
 -1       672 1.66783E+05 2.41795E+04 3.80410E+03 6.08361E+04 1.59366E-09 5.62954E-09
 -1       673 1.64148E+05 2.17952E+04 6.37495E+03 6.21234E+04 2.24281E-09 3.98222E-09
 -1       674 1.72852E+05 3.44200E+04 1.82310E+04 5.90519E+04-5.02456E-09 2.36469E-09
 -1       675 1.58879E+05 1.30711E+04 2.70610E+04 6.36150E+04-1.61799E-09-1.23291E-08
 -1       676 2.18927E+01-2.66892E+05-1.01631E+03-4.15345E+01 1.93182E-10 7.16430E-09
 -1       677-2.69801E+02-2.67138E+05-1.86001E+03 8.30125E+01 2.84555E-09-1.38922E-08
 -1       678 1.80190E+02-2.66717E+05-3.28802E+03-4.14500E+01 2.82967E-10-5.33568E-09
 -1       679-3.28892E+03-2.69123E+05-7.81086E+03 8.26882E+01 2.75065E-09 2.00845E-08
 -1       680 1.96294E+03-2.64909E+05-1.25885E+04-4.07463E+01 1.47338E-10 2.64080E-10
 -1       771-2.80513E+06-6.13020E+05-1.06452E+05-1.28586E+06-2.34722E-08-1.89466E-08
 -1       772-2.75117E+06-6.79970E+05-5.53892E+04-1.36263E+06-1.87429E-08 8.62201E-09
 -1       773-2.82492E+06-5.97429E+05-2.71604E+04-1.29358E+06-8.64384E-09 1.16852E-08
 -1       774-2.74226E+06-6.68629E+05-1.23474E+04-1.37777E+06 2.57423E-08 7.18865E-09
 -1       775-2.83414E+06-5.90903E+05-8.52362E+03-1.29678E+06 6.69388E-10-7.27596E-12
 -1       776-2.74789E+06-6.67527E+05-3.30575E+03-1.38858E+06 2.38651E-09 5.86442E-09
 -1       777-2.84190E+06-5.85242E+05-3.51519E+03-1.29958E+06 1.16270E-08 8.00355E-11
 -1       778-2.75395E+06-6.66598E+05-1.03535E+03-1.39779E+06 7.92352E-09 5.48607E-09
 -1       779-2.84846E+06-5.80367E+05-1.68002E+03-1.30199E+06-6.28643E-09-6.11544E-09
 -1       780-2.75928E+06-6.65694E+05-2.88309E+02-1.40527E+06-4.31464E-09-5.68434E-10
 -1       781-2.85361E+06-5.76474E+05-6.31817E+02-1.30387E+06-1.49594E-08-2.36832E-09
 -1       782-2.76335E+06-6.64897E+05 2.39134E+02-1.41078E+06-1.47993E-08-4.93219E-09
 -1       783-2.85722E+06-5.73799E+05 3.84707E+02-1.30519E+06-1.17143E-09-1.17057E-08
 -1       784-2.76555E+06-6.63947E+05 1.54165E+03-1.41416E+06-1.64855E-08-6.65295E-10
 -1       785-2.85934E+06-5.72216E+05 2.72568E+03-1.30606E+06-2.65682E-08 7.21229E-09
 -1       786 1.11431E+05-8.85983E+03 2.04968E+04-1.75411E+02-5.90905E-11 1.19699E-08
 -1       787 1.20320E+05 1.02571E+04 1.45008E+04-1.82419E+01 3.81867E-09-5.51631E-09
 -1       788 1.14858E+05-1.38868E+03 5.30308E+03-1.48722E+02 1.75026E-09-1.44769E-09
 -1       789 1.16328E+05 1.60671E+03 3.32928E+03-6.07211E+01-7.14198E-10 5.17230E-09
 -1       790 1.15424E+05-2.16526E+02 1.34837E+03-1.32940E+02-2.61082E-09 9.76991E-09
 -1       791 1.15666E+05 2.49958E+02 7.79618E+02-8.81431E+01-4.00999E-09 1.44142E-08
 -1       792 1.15520E+05-3.29432E+01 3.31999E+02-1.21300E+02-3.05766E-09-1.99135E-09
 -1       793 1.15552E+05 3.49587E+01 1.69107E+02-1.10009E+02-9.87477E-12-4.47625E-09
 -1       794 1.15539E+05-1.66214E+00 5.11611E+01-1.11074E+02 1.76636E-09 7.39850E-09
 -1       795 1.15521E+05-1.90935E+01-3.30757E+01-1.31029E+02-1.61788E-09 6.25427E-09
 -1       796 1.15551E+05 2.10794E+01-1.14314E+02-1.00280E+02 1.60847E-09 5.79860E-10
 -1       797 1.15451E+05-1.60239E+02-3.23102E+02-1.55236E+02 2.00012E-09 1.02040E-08
 -1       798 1.15608E+05 1.39378E+02-5.27264E+02-8.68661E+01 4.78019E-10 4.82402E-10
 -1       799 1.15050E+05-1.02927E+03-1.45288E+03-1.87413E+02 3.08200E-09-5.89463E-09
 -1       800 1.15952E+05 8.89404E+02-2.05667E+03-6.81038E+01 4.02354E-11 1.30484E-08
 -1       801 9.98020E+03-6.23634E+06-7.66599E+05 5.83827E+05 6.06378E-08-2.49092E-08
 -1       802 1.85206E+05 1.20726E+05 7.20149E+05-6.51129E+05 1.69490E-07-2.32380E-08
 -1       803-1.91660E+05-7.61816E+06-7.60726E+05 3.93769E+05 5.64869E-08 1.70221E-08
 -1       804 6.40998E+04-1.49180E+06 5.07277E+05 3.71055E+05-6.25496E-08-5.72081E-08
 -1       805 1.02818E+05-4.63608E+06-1.25522E+05-4.36491E+05-2.56223E-08-3.83866E-08
 -1       806-2.70661E+05-5.10619E+04-1.94605E+04-1.05865E+05-4.95766E-09-1.25333E-08
 -1       807-2.72365E+05-4.77112E+04-9.56074E+03-1.10381E+05 3.12912E-09-4.49145E-09
 -1       808-2.71182E+05-4.40619E+04-4.05610E+03-1.09197E+05-3.02907E-09 5.31452E-09
 -1       809-2.70364E+05-4.50171E+04-1.98340E+03-1.10608E+05-6.34736E-09-2.44654E-10
 -1       810-2.71263E+05-4.38181E+04-9.09113E+02-1.09345E+05-1.59889E-09 2.15857E-08
 -1       811-2.70210E+05-4.49079E+04-4.52206E+02-1.10578E+05-1.06784E-08 5.38921E-09
 -1       812-2.71276E+05-4.38385E+04-2.28828E+02-1.09345E+05-1.43064E-09 9.50422E-11
 -1       813-2.70190E+05-4.49091E+04-1.49070E+02-1.10563E+05-2.01499E-09 3.67891E-10
 -1       814-2.71272E+05-4.38457E+04-1.48126E+02-1.09342E+05 1.29057E-09-2.33558E-09
 -1       815-2.70195E+05-4.49104E+04-2.39400E+02-1.10558E+05-3.59614E-09 5.03223E-09
 -1       816-2.71256E+05-4.38437E+04-4.53896E+02-1.09340E+05 6.77119E-09 1.00972E-08
 -1       817-2.70274E+05-4.49533E+04-9.74802E+02-1.10551E+05-6.68297E-09 1.05440E-08
 -1       818-2.71200E+05-4.39794E+04-1.98808E+03-1.09276E+05-1.90812E-09 1.87947E-09
 -1       819-2.71361E+05-4.61575E+04-4.67867E+03-1.10300E+05 1.64437E-09 2.40016E-09
 -1       820-2.70833E+05-4.75067E+04-9.52242E+03-1.07760E+05-5.42514E-09-6.53108E-09
 -1       821-3.28317E+05 1.81737E+04-4.20387E+04 7.20619E+02 5.19165E-09-7.39237E-09
 -1       822-3.46501E+05-2.10389E+04-2.97428E+04-1.37661E+03 2.42995E-10-4.67844E-09
 -1       823-3.35325E+05 2.85009E+03-1.08863E+04 8.40405E+02-3.24239E-09-9.64565E-09
 -1       824-3.38295E+05-3.29693E+03-6.84590E+03-1.23876E+03 1.26024E-10 9.83437E-09
 -1       825-3.36520E+05 4.44892E+02-2.82153E+03 5.82776E+02 4.15850E-09 4.14673E-09
 -1       826-3.36877E+05-5.22960E+02-1.68397E+03-4.70783E+02 4.05339E-09 1.82504E-08
 -1       827-3.36740E+05 7.66683E+01-8.93706E+02 7.24168E+01 1.83370E-09-3.33191E-09
 -1       828-3.36687E+05-1.59016E+02-7.64883E+02 5.55154E+02-2.01567E-09-9.52429E-11
 -1       829-3.36710E+05 8.11488E+01-9.09227E+02-4.43177E+02-3.24363E-11 1.37570E-08
 -1       830-3.36954E+05-5.47053E+02-1.75926E+03 1.34028E+03 9.97369E-10 9.08975E-09
 -1       831-3.36474E+05 4.65877E+02-2.92518E+03-7.12723E+02-2.27770E-09 1.37043E-08
 -1       832-3.38380E+05-3.43297E+03-7.12729E+03 1.50201E+03 7.71148E-11 1.50785E-08
 -1       833-3.35286E+05 2.96545E+03-1.13330E+04-6.04906E+02-2.19142E-09 1.04092E-09
 -1       834-3.46839E+05-2.18940E+04-3.09426E+04 9.53539E+02-1.48623E-09-9.06766E-09
 -1       835-3.28016E+05 1.89115E+04-4.37610E+04-1.64244E+02 4.89664E-09-1.48975E-09
 -1       836-1.16111E+03 3.14904E+05 1.92632E+04-1.48549E+04-2.93221E-09 9.23865E-09
 -1       837 4.15865E+03 3.20914E+05 1.64216E+04-3.00425E+04-2.72416E-09-1.28748E-08
 -1       838-4.53491E+02 3.16575E+05 1.69028E+04-1.47915E+04-2.25191E-09 1.55728E-09
 -1       839 1.07566E+04 3.25833E+05 3.21434E+04-3.00870E+04-2.00043E-09 1.36748E-08
 -1       840-3.28975E+03 3.09941E+05 5.13305E+04-1.48119E+04-2.35559E-09 8.74687E-09
 -1       856-6.43214E+04 7.66699E+03-2.02045E+04-4.03791E+02 1.05575E-09-2.70120E-10
 -1       857-7.26566E+04-8.99992E+03-1.39094E+04 5.07103E+03 1.25510E-09-1.97597E-08
 -1       858-6.76182E+04 1.07473E+03-5.24299E+03-4.25982E+02-1.07985E-09-1.84730E-08
 -1       859-6.88720E+04-1.25636E+03-3.16493E+03 5.10518E+03-2.56591E-10-1.00229E-08
 -1       860-6.81109E+04 1.49976E+02-1.32804E+03-4.37875E+02 8.71182E-10-4.79633E-09
 -1       861-6.83050E+04-1.71597E+02-7.34024E+02 5.12144E+03-1.33977E-09-6.85122E-09
 -1       862-6.81879E+04 2.00039E+01-3.12015E+02-4.42249E+02 2.17146E-09 6.01861E-09
 -1       863-6.82119E+04-1.49413E+01-1.29304E+02 5.12373E+03 2.08843E-09 2.11224E-09
 -1       864-6.82044E+04-3.17358E+00 9.88469E+00-4.40173E+02 8.24301E-10-1.78611E-09
 -1       865-6.81684E+04 4.71755E+01 1.65482E+02 5.11257E+03 1.45501E-09 4.94374E-09
 -1       866-6.82294E+04-4.22971E+01 3.51582E+02-4.31083E+02-1.22040E-09-9.55566E-09
 -1       867-6.79983E+04 3.51268E+02 8.77000E+02 5.08782E+03 4.48352E-10-5.42589E-09
 -1       868-6.83704E+04-3.02275E+02 1.46011E+03-4.15428E+02 4.54406E-10-6.39187E-09
 -1       869-6.69245E+04 2.51567E+03 3.89206E+03 5.04658E+03-1.23529E-09-2.13657E-09
 -1       870-6.92969E+04-2.14864E+03 5.64768E+03-3.89812E+02-1.10731E-09-1.70758E-09
 -1       871-4.92793E+03-1.49243E+04-1.66824E+04 1.11333E+05-1.30422E-09 1.06729E-08
 -1       872-1.95994E+03-1.87357E+04-6.91368E+03 1.44349E+05-3.77258E-09-2.73621E-09
 -1       873 1.50059E+02-1.69244E+04 6.85207E+02 1.11089E+05-2.10730E-09-8.10826E-09
 -1       874 2.67121E+03-1.47090E+04 8.79266E+03 1.44385E+05-4.19186E-09 2.02090E-09
 -1       875 5.90005E+03-1.90169E+04 1.96954E+04 1.11294E+05-1.73532E-09-4.11183E-09
 -1       876 2.59128E+05 4.40199E+04 1.34641E+04 1.04399E+05-4.55884E-10-2.08183E-09
 -1       877 2.59984E+05 4.68893E+04 7.19026E+03 1.08291E+05 5.62363E-09-3.44949E-09
 -1       878 2.60387E+05 4.25295E+04 3.01239E+03 1.05504E+05 2.20416E-09-7.01948E-09
 -1       879 2.58154E+05 4.50635E+04 1.50086E+03 1.08384E+05 4.11819E-09 6.36294E-09
 -1       880 2.60477E+05 4.25137E+04 6.99013E+02 1.05549E+05 4.23074E-09 1.04479E-08
 -1       881 2.58032E+05 4.49856E+04 3.73044E+02 1.08364E+05 4.35170E-09 5.90194E-09
 -1       882 2.60486E+05 4.25252E+04 2.38267E+02 1.05550E+05 3.33557E-09 3.09302E-09
 -1       883 2.58024E+05 4.49817E+04 2.55507E+02 1.08357E+05 4.19141E-09 1.31050E-08
 -1       884 2.60480E+05 4.25225E+04 4.05882E+02 1.05551E+05 1.19121E-09-5.15058E-09
 -1       885 2.58056E+05 4.49874E+04 8.15693E+02 1.08367E+05-2.47275E-09-1.05072E-08
 -1       886 2.60449E+05 4.24987E+04 1.64384E+03 1.05547E+05 7.39973E-10-1.13246E-08
 -1       887 2.58345E+05 4.51768E+04 3.59070E+03 1.08409E+05 8.54766E-09 5.44276E-09
 -1       888 2.60222E+05 4.25386E+04 7.23537E+03 1.05432E+05 5.36983E-09 6.30916E-09
 -1       889 2.62654E+05 4.96553E+04 1.72843E+04 1.08275E+05-1.29819E-09 3.91765E-09
 -1       890 2.57272E+05 4.60429E+04 3.23727E+04 1.02675E+05 5.95492E-10-1.38243E-08
 -1       891-1.17863E+02-1.44810E+05-1.75668E+03 2.53460E+04-4.09273E-10-1.91289E-09
 -1       892-2.14228E+02-1.45254E+05-1.89306E+03 3.84197E+04 9.89985E-10-2.68756E-09
 -1       893-8.07773E-01-1.44866E+05-2.68687E+03 2.53520E+04-2.93085E-10 1.43700E-09
 -1       894-1.39756E+03-1.46273E+05-5.56564E+03 3.82800E+04 9.84528E-10-5.43878E-09
 -1       895-1.10158E+03-1.43707E+05-9.80281E+03 2.54854E+04-2.33968E-10-1.12877E-08
 -1       956-3.30500E+05-4.67569E+03-1.16682E+04 2.45047E+04 8.80573E-09-6.41217E-09
 -1       957-3.32797E+05-1.60933E+03-5.98958E+03 2.94860E+04 8.84347E-09-2.46000E-08
 -1       958-3.31542E+05-1.61515E+02-2.69875E+03 2.43640E+04 1.51522E-09-1.67042E-08
 -1       959-3.31719E+05-6.36169E+01-1.37832E+03 2.96443E+04-5.71163E-10-7.34894E-09
 -1       960-3.31639E+05 5.15856E+00-6.72093E+02 2.43500E+04 7.92625E-10-2.58524E-10
 -1       961-3.31645E+05-3.04683E+00-3.56668E+02 2.96605E+04 4.48199E-09-9.94760E-10
 -1       962-3.31660E+05 2.11953E+00-2.04519E+02 2.43478E+04 3.89537E-09-1.34953E-08
 -1       963-3.31643E+05-6.74902E-01-1.64817E+02 2.96634E+04 1.23816E-09-7.58973E-09
 -1       964-3.31664E+05 4.58853E+00-2.01032E+02 2.43471E+04-2.67460E-09-1.12868E-09
 -1       965-3.31654E+05 2.19837E+00-3.48200E+02 2.96629E+04-2.20416E-09-2.72348E-09
 -1       966-3.31651E+05 1.25070E+01-6.54319E+02 2.43482E+04 2.16005E-10-3.71983E-10
 -1       967-3.31736E+05-5.16884E+01-1.34220E+03 2.96519E+04-9.77252E-10 1.15892E-08
 -1       968-3.31564E+05-1.44981E+02-2.62720E+03 2.43582E+04 4.47926E-10-5.28595E-09
 -1       969-3.32795E+05-1.55263E+03-5.83278E+03 2.95362E+04 1.05410E-09-1.44314E-08
 -1       970-3.30556E+05-4.53795E+03-1.13619E+04 2.44617E+04 2.76486E-10 3.55612E-09
 -1       971-3.06253E+05-1.56000E+03-8.53660E+03 1.40533E+04 4.62023E-10-5.97340E-09
 -1       972-3.08318E+05-1.13355E+03-4.64897E+03 1.95361E+04 1.39653E-09-8.92214E-09
 -1       973-3.07204E+05-3.35339E+01-2.08207E+03 1.39390E+04 6.36646E-11-6.97582E-09
 -1       974-3.07338E+05-4.20975E+01-1.07900E+03 1.96624E+04 2.94131E-09 1.17367E-08
 -1       975-3.07278E+05 7.10658E+00-5.39086E+02 1.39280E+04-1.43928E-09 9.05970E-10
 -1       976-3.07280E+05 3.18798E+00-3.10548E+02 1.96763E+04 3.54703E-11-4.01371E-09
 -1       977-3.07293E+05 7.40552E+00-2.24549E+02 1.39252E+04-1.48634E-09-6.02313E-10
 -1       978-3.07285E+05 8.59194E+00-2.61627E+02 1.96803E+04 4.85215E-10 3.28112E-09
 -1       979-3.07293E+05 1.47724E+01-4.19363E+02 1.39239E+04 2.25975E-09-1.80432E-09
 -1       980-3.07316E+05 1.12629E+01-8.09118E+02 1.96810E+04 1.98843E-09-7.08610E-09
 -1       981-3.07267E+05 3.49753E+01-1.56674E+03 1.39244E+04 1.38368E-09 7.01004E-09
 -1       982-3.07531E+05-1.04437E+02-3.23824E+03 1.96750E+04-1.63368E-10-5.66775E-09
 -1       983-3.07070E+05-6.52534E+01-6.29180E+03 1.39301E+04-2.38833E-09-6.42376E-09
 -1       984-3.10557E+05-3.39029E+03-1.40900E+04 1.95961E+04-2.59683E-09 3.75985E-09
 -1       985-3.04221E+05-4.66915E+03-2.58736E+04 1.40026E+04 2.56841E-09 9.96806E-09
 -3
    1PSTEP                        23          12           1          
  100CL  112 6.12732E-01         409                     0   12           1
 -4  DISP        4    1
 -5  D1          1    2    1    0
 -5  D2          1    2    2    0
 -5  D3          1    2    3    0
 -5  ALL         1    2    0    0    1ALL
 -1         1 1.38069E-03 0.00000E+00 0.00000E+00
 -1         2 1.29976E-03-3.84068E-30 0.00000E+00
 -1         3 2.74475E-04 3.07245E-27 1.32349E-23
 -1         5 1.50798E-04-2.74063E-26 2.48154E-24
 -1         8 1.36154E-03-6.00804E-07 0.00000E+00
 -1         9 1.32822E-03-3.84408E-06 0.00000E+00
 -1        10 2.49619E-04-3.28406E-06 0.00000E+00
 -1        12 1.51773E-04 7.13006E-07 4.13590E-25
 -1        15 1.33843E-03-6.60984E-07 2.06795E-25
 -1        16 1.34545E-03-4.69034E-06 0.00000E+00
 -1        17 1.72318E-04-7.24279E-06 0.00000E+00
 -1        18 1.53265E-04 2.21663E-05 0.00000E+00
 -1        19 1.54696E-04 1.42176E-06 0.00000E+00
 -1        20 1.54841E-04-4.70836E-07 0.00000E+00
 -1        21 1.54073E-04-5.38318E-06 0.00000E+00
 -1        24 2.74349E-05-1.05062E-05 0.00000E+00
 -1        25 1.59743E-04 2.23525E-05 0.00000E+00
 -1        26 1.60371E-04 1.97054E-06 0.00000E+00
 -1        27 1.58434E-04-3.67031E-06 0.00000E+00
 -1        28 1.58074E-04-5.95453E-06 0.00000E+00
 -1        32 0.00000E+00 0.00000E+00 0.00000E+00
 -1        33 1.65053E-04 2.64164E-06 0.00000E+00
 -1        34 1.63142E-04-3.71149E-06 0.00000E+00
 -1        35 1.61383E-04-6.26490E-06 0.00000E+00
 -1        51 1.37946E-03-1.09123E-07 0.00000E+00
 -1        52 1.37717E-03-2.05673E-07 0.00000E+00
 -1        53 1.37402E-03-3.00982E-07 0.00000E+00
 -1        54 1.37022E-03-3.97076E-07 0.00000E+00
 -1        55 1.36599E-03-4.95356E-07-4.13590E-24
 -1        56 1.37755E-03-2.66902E-07 0.00000E+00
 -1        57 1.37371E-03 9.84555E-07 2.64698E-23
 -1        58 1.36938E-03 3.55619E-06 0.00000E+00
 -1        59 1.36466E-03 7.10655E-06-5.29396E-23
 -1        60 1.35974E-03 1.11753E-05 0.00000E+00
 -1        61 1.35480E-03 1.52590E-05-5.29396E-23
 -1        62 1.35006E-03 1.88535E-05 0.00000E+00
 -1        63 1.34568E-03 2.14869E-05 5.29396E-23
 -1        64 1.34179E-03 2.28203E-05 1.05879E-22
 -1        65 1.33849E-03 2.26037E-05 5.29396E-23
 -1        66 1.33578E-03 2.08011E-05 0.00000E+00
 -1        67 1.33364E-03 1.74866E-05 0.00000E+00
 -1        68 1.33195E-03 1.29419E-05 0.00000E+00
 -1        69 1.33061E-03 7.54065E-06 0.00000E+00
 -1        70 1.32939E-03 1.76209E-06 0.00000E+00
 -1        86 1.30104E-03-6.28258E-07 0.00000E+00
 -1        87 1.30485E-03-1.26282E-06 1.32349E-23
 -1        88 1.31041E-03-1.90499E-06 0.00000E+00
 -1        89 1.31689E-03-2.55323E-06 1.32349E-23
 -1        90 1.32319E-03-3.20016E-06 2.64698E-23
 -1       121 2.73777E-04-5.36526E-07 0.00000E+00
 -1       122 2.71687E-04-1.07493E-06 0.00000E+00
 -1       123 2.68210E-04-1.61704E-06 0.00000E+00
 -1       124 2.63361E-04-2.16475E-06 0.00000E+00
 -1       125 2.57156E-04-2.71960E-06 0.00000E+00
 -1       191 1.50826E-04 1.18855E-07-8.27181E-25
 -1       192 1.50907E-04 2.37706E-07 1.24077E-24
 -1       193 1.51042E-04 3.56551E-07-8.27181E-25
 -1       194 1.51231E-04 4.75386E-07 8.27181E-25
 -1       195 1.51475E-04 5.94206E-07-8.27181E-25
 -1       251 1.36080E-03 1.75369E-05-1.32349E-23
 -1       252 1.35918E-03 6.38422E-05 0.00000E+00
 -1       253 1.35651E-03 1.30004E-04 0.00000E+00
 -1       254 1.35308E-03 2.07253E-04 0.00000E+00
 -1       255 1.34970E-03 2.83786E-04-1.32349E-23
 -1       256 1.34717E-03 3.47818E-04 0.00000E+00
 -1       257 1.34567E-03 3.90976E-04 1.32349E-23
 -1       258 1.34498E-03 4.05371E-04 0.00000E+00
 -1       259 1.34428E-03 3.90641E-04 0.00000E+00
 -1       260 1.34277E-03 3.47138E-04 0.00000E+00
 -1       261 1.34021E-03 2.82745E-04 0.00000E+00
 -1       262 1.33680E-03 2.05825E-04-6.61744E-24
 -1       263 1.33334E-03 1.28163E-04 0.00000E+00
 -1       264 1.33064E-03 6.15623E-05 0.00000E+00
 -1       265 1.32899E-03 1.47873E-05 0.00000E+00
 -1       266 1.35769E-03-6.19542E-07 3.30872E-24
 -1       267 1.35384E-03-6.28511E-07 0.00000E+00
 -1       268 1.34998E-03-6.38098E-07 0.00000E+00
 -1       269 1.34613E-03-6.45853E-07-2.06795E-25
 -1       270 1.34228E-03-6.53564E-07 2.06795E-25
 -1       271 1.35917E-03 2.86847E-06-2.64698E-23
 -1       272 1.35682E-03 6.18923E-06 0.00000E+00
 -1       273 1.35456E-03 9.27967E-06 2.64698E-23
 -1       274 1.35242E-03 1.20466E-05-1.32349E-23
 -1       275 1.35043E-03 1.44045E-05 0.00000E+00
 -1       276 1.34862E-03 1.62715E-05 0.00000E+00
 -1       277 1.34703E-03 1.75717E-05 0.00000E+00
 -1       278 1.34568E-03 1.82363E-05 0.00000E+00
 -1       279 1.34459E-03 1.82044E-05 0.00000E+00
 -1       280 1.34378E-03 1.74234E-05 0.00000E+00
 -1       281 1.34327E-03 1.58505E-05 0.00000E+00
 -1       282 1.34306E-03 1.34520E-05 0.00000E+00
 -1       283 1.34317E-03 1.02051E-05-2.64698E-23
 -1       284 1.34361E-03 6.09804E-06-1.32349E-23
 -1       285 1.34436E-03 1.12764E-06 0.00000E+00
 -1       301 1.33136E-03-4.00566E-06 6.61744E-24
 -1       302 1.33367E-03-4.13843E-06 0.00000E+00
 -1       303 1.33569E-03-4.26844E-06 0.00000E+00
 -1       304 1.33796E-03-4.39840E-06 0.00000E+00
 -1       305 1.34104E-03-4.53209E-06 0.00000E+00
 -1       306 1.35552E-03-1.04683E-04 1.05879E-22
 -1       307 1.41651E-03-3.88612E-04 5.29396E-23
 -1       308 1.48393E-03-8.10113E-04 1.05879E-22
 -1       309 1.54688E-03-1.30653E-03 5.29396E-23
 -1       310 1.61052E-03-1.79314E-03 0.00000E+00
 -1       311 1.67816E-03-2.18620E-03-5.29396E-23
 -1       312 1.73406E-03-2.42843E-03 1.05879E-22
 -1       313 1.74750E-03-2.48265E-03-5.29396E-23
 -1       314 1.68262E-03-2.35119E-03 0.00000E+00
 -1       315 1.51556E-03-2.06208E-03 0.00000E+00
 -1       316 1.25638E-03-1.66616E-03 0.00000E+00
 -1       317 9.39184E-04-1.21631E-03 0.00000E+00
 -1       318 6.26083E-04-7.70138E-04 1.05879E-22
 -1       319 3.78073E-04-3.85656E-04 0.00000E+00
 -1       320 2.25020E-04-1.14991E-04 0.00000E+00
 -1       336 2.40603E-04-3.90270E-06 1.32349E-23
 -1       337 2.29969E-04-4.53721E-06 0.00000E+00
 -1       338 2.17764E-04-5.18859E-06 0.00000E+00
 -1       339 2.04044E-04-5.85705E-06 0.00000E+00
 -1       340 1.88873E-04-6.54576E-06 0.00000E+00
 -1       406 1.52125E-04 8.31774E-07-2.48154E-24
 -1       407 1.52531E-04 9.50485E-07 8.27181E-25
 -1       408 1.52991E-04 1.06910E-06-2.48154E-24
 -1       409 1.53506E-04 1.18748E-06-1.65436E-24
 -1       410 1.54074E-04 1.30539E-06 3.30872E-24
 -1       521 1.37391E-03-1.13949E-04 0.00000E+00
 -1       522 1.43565E-03-4.17278E-04-5.29396E-23
 -1       523 1.50133E-03-8.66561E-04-1.05879E-22
 -1       524 1.56035E-03-1.39373E-03 0.00000E+00
 -1       525 1.62043E-03-1.90982E-03 0.00000E+00
 -1       526 1.68706E-03-2.32704E-03 0.00000E+00
 -1       527 1.74370E-03-2.58315E-03-1.05879E-22
 -1       528 1.75666E-03-2.63955E-03-5.29396E-23
 -1       529 1.68506E-03-2.49797E-03 1.05879E-22
 -1       530 1.50251E-03-2.19096E-03 0.00000E+00
 -1       531 1.21892E-03-1.77239E-03-1.05879E-22
 -1       532 8.72140E-04-1.29865E-03 5.29396E-23
 -1       533 5.29309E-04-8.28231E-04-1.05879E-22
 -1       534 2.56463E-04-4.20029E-04 0.00000E+00
 -1       535 8.73768E-05-1.29976E-04 0.00000E+00
 -1       536 1.71872E-04 2.07854E-05-6.61744E-24
 -1       537 1.70633E-04 7.03975E-05-1.65436E-24
 -1       538 1.68650E-04 1.33999E-04 0.00000E+00
 -1       539 1.66258E-04 2.03983E-04-8.27181E-25
 -1       540 1.64108E-04 2.70170E-04-1.65436E-24
 -1       541 1.62755E-04 3.22387E-04-4.13590E-25
 -1       542 1.62171E-04 3.55362E-04 0.00000E+00
 -1       543 1.62076E-04 3.63862E-04 4.13590E-25
 -1       544 1.61905E-04 3.48507E-04 1.65436E-24
 -1       545 1.61134E-04 3.09983E-04 0.00000E+00
 -1       546 1.59637E-04 2.54901E-04-8.27181E-25
 -1       547 1.57567E-04 1.89897E-04-4.13590E-25
 -1       548 1.55525E-04 1.25358E-04 8.27181E-25
 -1       549 1.54101E-04 7.16755E-05 0.00000E+00
 -1       550 1.53404E-04 3.51785E-05 5.16988E-26
 -1       551 1.52322E-04-7.69663E-06 0.00000E+00
 -1       552 1.29503E-04-8.20350E-06 0.00000E+00
 -1       553 1.04725E-04-8.75262E-06 4.96308E-24
 -1       554 7.88695E-05-9.32907E-06 3.30872E-24
 -1       555 5.28145E-05-9.91278E-06 0.00000E+00
 -1       556 1.66406E-04 7.93618E-06 0.00000E+00
 -1       557 1.61667E-04 2.01426E-05 0.00000E+00
 -1       558 1.57988E-04 2.96150E-05 0.00000E+00
 -1       559 1.55264E-04 3.66115E-05 0.00000E+00
 -1       560 1.53387E-04 4.13901E-05 0.00000E+00
 -1       561 1.52254E-04 4.42108E-05 0.00000E+00
 -1       562 1.51763E-04 4.53345E-05 0.00000E+00
 -1       563 1.51811E-04 4.50225E-05 0.00000E+00
 -1       564 1.52299E-04 4.35370E-05 0.00000E+00
 -1       565 1.53128E-04 4.11404E-05-6.61744E-24
 -1       566 1.54198E-04 3.80956E-05 0.00000E+00
 -1       567 1.55411E-04 3.46657E-05-1.65436E-24
 -1       568 1.56670E-04 3.11137E-05 3.10193E-25
 -1       569 1.57877E-04 2.77028E-05 0.00000E+00
 -1       570 1.58933E-04 2.46961E-05 0.00000E+00
 -1       571 1.53352E-04 2.08178E-05 0.00000E+00
 -1       572 1.53441E-04 1.94150E-05 1.24077E-24
 -1       573 1.53530E-04 1.79706E-05 1.65436E-24
 -1       574 1.53619E-04 1.64977E-05-1.65436E-24
 -1       575 1.53709E-04 1.50095E-05 3.30872E-24
 -1       576 1.53798E-04 1.35192E-05-1.65436E-24
 -1       577 1.53888E-04 1.20402E-05-3.30872E-24
 -1       578 1.53977E-04 1.05857E-05-1.65436E-24
 -1       579 1.54067E-04 9.16892E-06 0.00000E+00
 -1       580 1.54157E-04 7.80326E-06-6.61744E-24
 -1       581 1.54247E-04 6.50196E-06 0.00000E+00
 -1       582 1.54337E-04 5.27826E-06 0.00000E+00
 -1       583 1.54426E-04 4.14544E-06 0.00000E+00
 -1       584 1.54517E-04 3.11660E-06 0.00000E+00
 -1       585 1.54607E-04 2.20474E-06-6.61744E-24
 -1       586 1.54296E-04 2.21993E-05 0.00000E+00
 -1       587 1.55297E-04 2.22317E-05-2.06795E-25
 -1       588 1.56303E-04 2.22637E-05 0.00000E+00
 -1       589 1.57354E-04 2.22951E-05 0.00000E+00
 -1       590 1.58488E-04 2.23255E-05 0.00000E+00
 -1       591 1.53718E-04 2.08907E-05-1.03398E-25
 -1       592 1.54175E-04 1.95943E-05 0.00000E+00
 -1       593 1.54637E-04 1.82827E-05 0.00000E+00
 -1       594 1.55103E-04 1.69607E-05 4.13590E-25
 -1       595 1.55571E-04 1.56328E-05 0.00000E+00
 -1       596 1.56039E-04 1.43037E-05 0.00000E+00
 -1       597 1.56506E-04 1.29781E-05 0.00000E+00
 -1       598 1.56970E-04 1.16607E-05 4.13590E-25
 -1       599 1.57429E-04 1.03559E-05-8.27181E-25
 -1       600 1.57882E-04 9.06860E-06 2.06795E-25
 -1       601 1.58327E-04 7.80328E-06-8.27181E-25
 -1       602 1.58761E-04 6.56460E-06 2.06795E-25
 -1       603 1.59184E-04 5.35722E-06 2.06795E-25
 -1       604 1.59594E-04 4.18586E-06 6.46235E-26
 -1       605 1.59990E-04 3.05510E-06 0.00000E+00
 -1       606 1.54710E-04 8.40737E-07 3.30872E-24
 -1       607 1.54720E-04 3.48620E-07 0.00000E+00
 -1       608 1.54729E-04-5.98098E-08 0.00000E+00
 -1       609 1.54738E-04-3.90436E-07 0.00000E+00
 -1       610 1.54746E-04-6.49194E-07 0.00000E+00
 -1       611 1.54755E-04-8.42080E-07 0.00000E+00
 -1       612 1.54764E-04-9.75100E-07 0.00000E+00
 -1       613 1.54772E-04-1.05427E-06 0.00000E+00
 -1       614 1.54781E-04-1.08561E-06 0.00000E+00
 -1       615 1.54790E-04-1.07512E-06 0.00000E+00
 -1       616 1.54798E-04-1.02883E-06 0.00000E+00
 -1       617 1.54807E-04-9.52756E-07 0.00000E+00
 -1       618 1.54816E-04-8.52903E-07 0.00000E+00
 -1       619 1.54824E-04-7.35289E-07 0.00000E+00
 -1       620 1.54833E-04-6.05928E-07 0.00000E+00
 -1       621 1.55437E-04 1.51356E-06 1.65436E-24
 -1       622 1.56290E-04 1.60563E-06 0.00000E+00
 -1       623 1.57234E-04 1.69760E-06 1.65436E-24
 -1       624 1.58245E-04 1.78934E-06-1.65436E-24
 -1       625 1.59298E-04 1.88088E-06-1.65436E-24
 -1       626 1.55015E-04 8.73006E-07 3.30872E-24
 -1       627 1.55310E-04 3.92605E-07-1.65436E-24
 -1       628 1.55582E-04-2.71852E-08 6.61744E-24
 -1       629 1.55834E-04-3.94466E-07 0.00000E+00
 -1       630 1.56070E-04-7.17359E-07-3.30872E-24
 -1       631 1.56292E-04-1.00401E-06 1.65436E-24
 -1       632 1.56504E-04-1.26257E-06 0.00000E+00
 -1       633 1.56708E-04-1.50119E-06 0.00000E+00
 -1       634 1.56908E-04-1.72801E-06 0.00000E+00
 -1       635 1.57106E-04-1.95119E-06 1.65436E-24
 -1       636 1.57306E-04-2.17887E-06 0.00000E+00
 -1       637 1.57511E-04-2.41920E-06 8.27181E-25
 -1       638 1.57723E-04-2.68033E-06 0.00000E+00
 -1       639 1.57946E-04-2.97044E-06-8.27181E-25
 -1       640 1.58183E-04-3.29767E-06 3.30872E-24
 -1       656 1.54930E-04-9.91082E-07 6.61744E-24
 -1       657 1.55419E-04-1.53233E-06 0.00000E+00
 -1       658 1.56171E-04-2.07217E-06 0.00000E+00
 -1       659 1.57040E-04-2.61164E-06 0.00000E+00
 -1       660 1.57852E-04-3.15276E-06 0.00000E+00
 -1       661 1.54875E-04-3.74861E-07 0.00000E+00
 -1       662 1.54943E-04-3.58700E-07 0.00000E+00
 -1       663 1.55040E-04-4.18243E-07 0.00000E+00
 -1       664 1.55163E-04-5.48143E-07-8.27181E-25
 -1       665 1.55310E-04-7.43684E-07 0.00000E+00
 -1       666 1.55481E-04-1.00005E-06 0.00000E+00
 -1       667 1.55673E-04-1.31268E-06-1.65436E-24
 -1       668 1.55884E-04-1.67705E-06 0.00000E+00
 -1       669 1.56113E-04-2.08882E-06 0.00000E+00
 -1       670 1.56358E-04-2.54372E-06-8.27181E-25
 -1       671 1.56617E-04-3.03760E-06 1.65436E-24
 -1       672 1.56890E-04-3.56643E-06-8.27181E-25
 -1       673 1.57174E-04-4.12619E-06 0.00000E+00
 -1       674 1.57467E-04-4.71325E-06-8.27181E-25
 -1       675 1.57769E-04-5.32335E-06 0.00000E+00
 -1       676 1.54742E-04-5.47897E-06 3.30872E-24
 -1       677 1.55411E-04-5.57471E-06 0.00000E+00
 -1       678 1.56079E-04-5.67040E-06 0.00000E+00
 -1       679 1.56745E-04-5.76581E-06 0.00000E+00
 -1       680 1.57411E-04-5.86120E-06 0.00000E+00
 -1       771 1.79248E-05 1.04566E-05 0.00000E+00
 -1       772 9.88402E-06 2.76671E-05 0.00000E+00
 -1       773 3.24243E-06 4.13121E-05 0.00000E+00
 -1       774-2.09486E-06 5.15994E-05 0.00000E+00
 -1       775-6.22122E-06 5.87440E-05 0.00000E+00
 -1       776-9.23372E-06 6.29729E-05 0.00000E+00
 -1       777-1.12297E-05 6.45200E-05 5.29396E-23
 -1       778-1.23084E-05 6.36294E-05 0.00000E+00
 -1       779-1.25693E-05 6.05508E-05-5.29396E-23
 -1       780-1.21132E-05 5.55420E-05-2.64698E-23
 -1       781-1.10407E-05 4.88657E-05-5.29396E-23
 -1       782-9.45379E-06 4.07908E-05 2.64698E-23
 -1       783-7.45383E-06 3.15892E-05 0.00000E+00
 -1       784-5.14337E-06 2.15376E-05 2.64698E-23
 -1       785-2.62434E-06 1.09145E-05 0.00000E+00
 -1       786 1.59778E-04 2.08586E-05 0.00000E+00
 -1       787 1.59817E-04 1.94124E-05-4.13590E-25
 -1       788 1.59855E-04 1.80064E-05 8.27181E-25
 -1       789 1.59895E-04 1.66332E-05 4.13590E-25
 -1       790 1.59934E-04 1.52884E-05-8.27181E-25
 -1       791 1.59974E-04 1.39675E-05-8.27181E-25
 -1       792 1.60013E-04 1.26683E-05-1.65436E-24
 -1       793 1.60053E-04 1.13888E-05 0.00000E+00
 -1       794 1.60092E-04 1.01286E-05-1.65436E-24
 -1       795 1.60132E-04 8.88733E-06 0.00000E+00
 -1       796 1.60172E-04 7.66646E-06-1.65436E-24
 -1       797 1.60211E-04 6.46744E-06 8.27181E-25
 -1       798 1.60251E-04 5.29375E-06 1.65436E-24
 -1       799 1.60291E-04 4.14893E-06 0.00000E+00
 -1       800 1.60331E-04 3.03911E-06 0.00000E+00
 -1       801 1.25592E-04 1.98868E-05 2.64698E-23
 -1       802 2.19091E-05 1.27955E-05 2.64698E-23
 -1       803-6.86644E-05 6.73683E-06 0.00000E+00
 -1       804-6.46432E-05 4.59403E-06 0.00000E+00
 -1       805-2.19178E-05 1.98665E-06 0.00000E+00
 -1       806 1.60199E-04 2.07988E-05-1.65436E-24
 -1       807 1.60641E-04 1.92726E-05 8.27181E-25
 -1       808 1.61071E-04 1.77781E-05 0.00000E+00
 -1       809 1.61488E-04 1.63185E-05 1.65436E-24
 -1       810 1.61890E-04 1.48969E-05 0.00000E+00
 -1       811 1.62277E-04 1.35165E-05 0.00000E+00
 -1       812 1.62647E-04 1.21802E-05-1.65436E-24
 -1       813 1.63000E-04 1.08911E-05 0.00000E+00
 -1       814 1.63333E-04 9.65224E-06-1.65436E-24
 -1       815 1.63647E-04 8.46670E-06-8.27181E-25
 -1       816 1.63940E-04 7.33749E-06-1.65436E-24
 -1       817 1.64211E-04 6.26761E-06 0.00000E+00
 -1       818 1.64458E-04 5.26009E-06 1.65436E-24
 -1       819 1.64682E-04 4.31795E-06 1.65436E-24
 -1       820 1.64879E-04 3.44414E-06-1.65436E-24
 -1       821 1.60257E-04 7.76236E-07 8.27181E-25
 -1       822 1.60135E-04-7.08374E-07 1.65436E-24
 -1       823 1.60013E-04-2.32638E-06 0.00000E+00
 -1       824 1.59890E-04-3.92010E-06 1.65436E-24
 -1       825 1.59767E-04-5.33806E-06 3.30872E-24
 -1       826 1.59645E-04-6.42966E-06 0.00000E+00
 -1       827 1.59522E-04-7.12510E-06 0.00000E+00
 -1       828 1.59400E-04-7.35673E-06 0.00000E+00
 -1       829 1.59278E-04-7.17167E-06-3.30872E-24
 -1       830 1.59156E-04-6.61927E-06 0.00000E+00
 -1       831 1.59033E-04-5.83980E-06 0.00000E+00
 -1       832 1.58911E-04-4.97475E-06 1.65436E-24
 -1       833 1.58789E-04-4.18683E-06 3.30872E-24
 -1       834 1.58669E-04-3.63829E-06-1.65436E-24
 -1       835 1.58548E-04-3.43235E-06-8.27181E-25
 -1       836 1.61337E-04 2.08202E-06 0.00000E+00
 -1       837 1.62191E-04 2.19617E-06 0.00000E+00
 -1       838 1.62960E-04 2.31020E-06 0.00000E+00
 -1       839 1.63674E-04 2.42356E-06 0.00000E+00
 -1       840 1.64362E-04 2.53675E-06 0.00000E+00
 -1       856 1.58415E-04-4.06372E-06 4.13590E-25
 -1       857 1.58393E-04-4.33175E-06-5.16988E-26
 -1       858 1.58371E-04-4.49394E-06 4.13590E-25
 -1       859 1.58349E-04-4.56993E-06-2.06795E-25
 -1       860 1.58326E-04-4.57943E-06 0.00000E+00
 -1       861 1.58303E-04-4.54219E-06-4.13590E-25
 -1       862 1.58281E-04-4.47803E-06-8.27181E-25
 -1       863 1.58258E-04-4.40677E-06 4.13590E-25
 -1       864 1.58235E-04-4.34824E-06 0.00000E+00
 -1       865 1.58213E-04-4.32227E-06 0.00000E+00
 -1       866 1.58190E-04-4.34864E-06 8.27181E-25
 -1       867 1.58167E-04-4.44712E-06 0.00000E+00
 -1       868 1.58144E-04-4.63739E-06 0.00000E+00
 -1       869 1.58121E-04-4.93906E-06 4.13590E-25
 -1       870 1.58098E-04-5.37163E-06-8.27181E-25
 -1       871 1.59087E-04-3.67327E-06 0.00000E+00
 -1       872 1.59873E-04-3.67918E-06 0.00000E+00
 -1       873 1.60732E-04-3.68567E-06 0.00000E+00
 -1       874 1.61604E-04-3.69283E-06 2.58494E-25
 -1       875 1.62427E-04-3.70054E-06-4.13590E-25
 -1       876 1.58698E-04-4.05081E-06 3.30872E-24
 -1       877 1.58941E-04-4.36992E-06 0.00000E+00
 -1       878 1.59165E-04-4.63500E-06 0.00000E+00
 -1       879 1.59371E-04-4.85287E-06 0.00000E+00
 -1       880 1.59562E-04-5.03038E-06 0.00000E+00
 -1       881 1.59740E-04-5.17433E-06 0.00000E+00
 -1       882 1.59909E-04-5.29154E-06 0.00000E+00
 -1       883 1.60070E-04-5.38878E-06-1.65436E-24
 -1       884 1.60226E-04-5.47284E-06 3.30872E-24
 -1       885 1.60379E-04-5.55051E-06 0.00000E+00
 -1       886 1.60533E-04-5.62855E-06 0.00000E+00
 -1       887 1.60689E-04-5.71378E-06-1.65436E-24
 -1       888 1.60850E-04-5.81300E-06 0.00000E+00
 -1       889 1.61019E-04-5.93312E-06 0.00000E+00
 -1       890 1.61197E-04-6.08091E-06 1.65436E-24
 -1       891 1.58759E-04-6.00659E-06 1.65436E-24
 -1       892 1.59421E-04-6.05881E-06-8.27181E-25
 -1       893 1.60039E-04-6.11097E-06 1.65436E-24
 -1       894 1.60587E-04-6.16293E-06 8.27181E-25
 -1       895 1.61043E-04-6.21472E-06-8.27181E-25
 -1       956 1.64935E-04 1.99001E-06 3.30872E-24
 -1       957 1.64816E-04 1.41696E-06 8.27181E-25
 -1       958 1.64696E-04 9.13396E-07-1.65436E-24
 -1       959 1.64576E-04 4.69683E-07 0.00000E+00
 -1       960 1.64457E-04 7.61784E-08-3.30872E-24
 -1       961 1.64337E-04-2.76804E-07 0.00000E+00
 -1       962 1.64217E-04-5.98955E-07 0.00000E+00
 -1       963 1.64097E-04-8.99986E-07-1.65436E-24
 -1       964 1.63977E-04-1.18960E-06 0.00000E+00
 -1       965 1.63858E-04-1.47749E-06 0.00000E+00
 -1       966 1.63738E-04-1.77338E-06 0.00000E+00
 -1       967 1.63618E-04-2.08697E-06 0.00000E+00
 -1       968 1.63498E-04-2.42795E-06 0.00000E+00
 -1       969 1.63379E-04-2.80599E-06 1.65436E-24
 -1       970 1.63260E-04-3.23075E-06 0.00000E+00
 -1       971 1.63033E-04-4.18505E-06 0.00000E+00
 -1       972 1.62923E-04-4.56911E-06 1.65436E-24
 -1       973 1.62812E-04-4.87354E-06 3.30872E-24
 -1       974 1.62702E-04-5.10860E-06 0.00000E+00
 -1       975 1.62591E-04-5.28455E-06 3.30872E-24
 -1       976 1.62481E-04-5.41166E-06-1.65436E-24
 -1       977 1.62370E-04-5.50026E-06-3.30872E-24
 -1       978 1.62259E-04-5.56062E-06 0.00000E+00
 -1       979 1.62149E-04-5.60308E-06-3.30872E-24
 -1       980 1.62038E-04-5.63795E-06 0.00000E+00
 -1       981 1.61928E-04-5.67554E-06-3.30872E-24
 -1       982 1.61817E-04-5.72616E-06 1.65436E-24
 -1       983 1.61707E-04-5.80014E-06 0.00000E+00
 -1       984 1.61597E-04-5.90777E-06 1.65436E-24
 -1       985 1.61488E-04-6.05934E-06 0.00000E+00
 -3
    1PSTEP                        24          12           1          
  100CL  112 6.12732E-01         409                     0   12           1
 -4  STRESS      6    1
 -5  SXX         1    4    1    1
 -5  SYY         1    4    2    2
 -5  SZZ         1    4    3    3
 -5  SXY         1    4    1    2
 -5  SYZ         1    4    2    3
 -5  SZX         1    4    3    1
 -1         1-3.82896E+06-1.47075E+06-8.38850E+05-1.52565E+06-1.03319E-09 4.79922E-08
 -1         2 8.27496E+02-1.78518E+06 3.07529E+03 1.95258E+04 8.14836E-10-2.75531E-08
 -1         3-8.90828E+02-1.52715E+06 3.73433E+02-1.68173E+03-3.50134E-10 5.39512E-09
 -1         5-2.15779E+01 3.40164E+05 8.68566E+00-5.49847E-01-1.87934E-10-8.47376E-09
 -1         8-7.76045E+05-2.63978E+05-7.21362E+04-3.29620E+05-5.20231E-10 4.27463E-09
 -1         9 4.11932E+06-6.93742E+05 7.47390E+05-9.09100E+05 2.31841E-08 2.99653E-08
 -1        10-1.80449E+03-1.59126E+06-3.27767E+03-1.13663E+04-1.10140E-08-3.35430E-08
 -1        12-1.80508E+01 3.40182E+05 2.82542E+02-3.94544E+00-3.19123E-10 1.63236E-08
 -1        15 1.44288E+03 7.92946E+02 4.66408E+03 2.40383E+00-1.88052E-10 1.07808E-07
 -1        16 1.01422E+07-3.55175E+05 1.45890E+06-1.09527E+06 1.22818E-08 6.73269E-08
 -1        17 3.59528E+06 2.35102E+06 9.81291E+05 2.38270E+06 5.91972E-09 1.69966E-08
 -1        18 1.53912E+05 3.48735E+04 1.07789E+04-9.15112E+04 1.41108E-08-9.48239E-09
 -1        19 1.09185E+05 1.25415E+05-8.78335E+02 2.05644E+04 8.41465E-10 9.66102E-09
 -1        20-6.69887E+04-5.14412E+05-1.14977E+05 2.62529E+04-8.03387E-12 1.35563E-08
 -1        21-4.33466E+01-2.73584E+05-8.61419E+02 1.25535E+02-1.40386E-07-4.32281E-09
 -1        24 5.56368E+06 4.91189E+06 1.71734E+06 4.50286E+06-1.17201E-07-4.49557E-08
 -1        25-5.27237E+02-1.75233E+05-1.37396E+04-3.96035E+05 1.70257E-10 8.96598E-09
 -1        26-4.88612E+04 8.11111E+04-2.23061E+04-6.18402E+02 6.18820E-10-4.79737E-09
 -1        27-7.06889E+04-2.78687E+05-1.02613E+05 6.23595E+04 4.64403E-09-9.93562E-09
 -1        28 2.07680E+04-7.80506E+04 1.55871E+04 2.03204E+04-1.67211E-09-5.02821E-09
 -1        32-1.54698E+06-2.73788E+06-1.46572E+05 2.30559E+04-3.43935E-08-7.36924E-09
 -1        33-1.62147E+05 8.21990E+04 2.89678E+04-3.52623E+04-1.56630E-09 7.80043E-09
 -1        34-2.03133E+05-2.18890E+04 5.94087E+02 6.69928E+04-2.07052E-09 1.08068E-08
 -1        35-2.12961E+04-3.09727E+04-1.22908E+03 4.76292E+04-1.40485E-09-4.95857E-09
 -1        51 4.19315E+04-2.46393E+05 9.22267E+04-7.16845E+05-5.82077E-11 7.22212E-08
 -1        52 1.60407E+04-2.32779E+05 5.09439E+04-8.35795E+05 8.14907E-10-2.64336E-08
 -1        53 5.49838E+03-2.47788E+05 3.05860E+04-7.14239E+05 9.64064E-10-6.17438E-08
 -1        54 1.34576E+04-2.44713E+05 3.33335E+04-8.38514E+05 1.38243E-10-2.24951E-07
 -1        55 2.78150E+04-2.55284E+05 5.01212E+04-7.13847E+05 4.80213E-10-8.20437E-08
 -1        56-7.25432E+06-8.18483E+05-6.19986E+05-2.82913E+06-2.98460E-08 6.51926E-09
 -1        57-7.60179E+06-1.28104E+06-4.18012E+05-2.69026E+06 1.80789E-08-9.55333E-08
 -1        58-7.35692E+06-1.03696E+06-1.45677E+05-2.81427E+06-4.95493E-09-1.47920E-08
 -1        59-7.48759E+06-1.02053E+06-8.68456E+04-2.70441E+06-1.00663E-08-6.18156E-08
 -1        60-7.36713E+06-1.07190E+06-3.38667E+04-2.81748E+06-7.90169E-09 4.55857E-08
 -1        61-7.46745E+06-9.87307E+05-1.91834E+04-2.70936E+06 6.68564E-09-1.04183E-07
 -1        62-7.37658E+06-1.06930E+06-9.29596E+03-2.80950E+06-8.61064E-09-6.21862E-08
 -1        63-7.43908E+06-1.00754E+06-7.25684E+03-2.73652E+06 6.12727E-09 2.80852E-08
 -1        64-7.39462E+06-1.05211E+06-8.77553E+03-2.78973E+06 1.39671E-08 1.27494E-08
 -1        65-7.40170E+06-1.04970E+06-1.66510E+04-2.77974E+06-2.10202E-08-5.08773E-08
 -1        66-7.41359E+06-1.02753E+06-3.00149E+04-2.76595E+06 7.99446E-09 4.20860E-08
 -1        67-7.38310E+06-1.11585E+06-7.56886E+04-2.81881E+06-2.00971E-08-7.55781E-08
 -1        68-7.41420E+06-9.86352E+05-1.27186E+05-2.75093E+06-2.35377E-09-3.68891E-09
 -1        69-7.48568E+06-1.34302E+06-3.65108E+05-2.80833E+06 9.45874E-09-1.31549E-07
 -1        70-7.31373E+06-8.05608E+05-5.41102E+05-2.77533E+06-4.79486E-09 4.48199E-09
 -1        86-5.57187E+02-1.79499E+06 1.34587E+03-9.76243E+03-4.09807E-09-1.14907E-07
 -1        87 2.24611E+03-1.78762E+06 4.81283E+03 3.28249E+04-7.10520E-09-8.85505E-08
 -1        88-1.71797E+03-1.79285E+06 6.33635E+03-2.30621E+04-7.77641E-09 4.11525E-08
 -1        89 1.25777E+04-1.78552E+06 1.74138E+04 4.47678E+04-1.08130E-08-8.46684E-08
 -1        90-1.06369E+04-1.79733E+06 2.41743E+04-2.17074E+04-6.43922E-09 2.04955E-09
 -1       121-1.23711E+03-1.53018E+06-1.78073E+02 8.36329E+02 1.15340E-09-1.33514E-09
 -1       122-7.35584E+02-1.52715E+06 7.49592E+02-3.36114E+03-4.35386E-09-1.40553E-08
 -1       123-1.28279E+03-1.53029E+06 6.50389E+02 2.49785E+03 3.25201E-09-1.97542E-09
 -1       124 7.94003E+02-1.52654E+06 2.99116E+03-7.04496E+03-8.29141E-09 1.58689E-08
 -1       125-2.12861E+03-1.53114E+06 3.96558E+03 4.49977E+03 5.24051E-09 5.63523E-09
 -1       191-2.29341E+01 3.40189E+05 9.60764E+00 2.79490E-01-2.94807E-10 1.19717E-08
 -1       192-2.23858E+01 3.40164E+05 1.84273E+01-1.97594E+00-4.37419E-10 1.27002E-08
 -1       193-2.50769E+01 3.40189E+05 3.35163E+01 1.72529E+00-6.20537E-10-1.09876E-08
 -1       194-2.49833E+01 3.40167E+05 6.97900E+01-4.56401E+00-3.42374E-10-9.91758E-09
 -1       195-2.91930E+01 3.40186E+05 1.35755E+02 2.90419E+00-7.86372E-10-1.06857E-08
 -1       251-1.94897E+06-2.27354E+04-1.67395E+05-1.20198E+05 5.16593E-10 2.87400E-10
 -1       252-1.20153E+06 2.92300E+04 3.42350E+04 3.70859E+05 1.64127E-08 3.81010E-08
 -1       253-1.61681E+06-1.10021E+04-2.96079E+04-2.48041E+05-6.97037E-09 7.19192E-08
 -1       254-1.55083E+06 4.81753E+04 5.63355E+03 4.91933E+05-1.46381E-08 1.01883E-07
 -1       255-1.63440E+06-1.33685E+04-1.69715E+04-2.44079E+05-1.15615E-08 5.46247E-08
 -1       256-1.15752E+06 3.94619E+04 8.66574E+04 3.54813E+05 3.92683E-08 5.95946E-10
 -1       257-1.97166E+06-3.35702E+04-8.58930E+04-1.07947E+05 5.83168E-09 5.15133E-08
 -1       258-7.83199E+05 3.00698E+04 1.57894E+05 3.77867E+02-4.00678E-08 7.86649E-08
 -1       259-1.97197E+06-3.38322E+04-8.44429E+04 1.08477E+05-7.32325E-09 4.00827E-08
 -1       260-1.15635E+06 4.11119E+04 9.11422E+04-3.53988E+05-5.64341E-09 8.53606E-09
 -1       261-1.63520E+06-1.48067E+04-9.15244E+03 2.44559E+05 4.76330E-08-4.61240E-08
 -1       262-1.54652E+06 5.78415E+04 2.52571E+04-4.91051E+05-3.44842E-08-1.31946E-07
 -1       263-1.62030E+06-1.92060E+04 1.92645E+03 2.48545E+05 4.78394E-09 1.30951E-07
 -1       264-1.17467E+06 8.97751E+04 1.19899E+05-3.71332E+05 1.04827E-07 1.07683E-07
 -1       265-1.97236E+06-7.48136E+04-4.54598E+04 1.22017E+05 3.97467E-08 7.59464E-08
 -1       266-2.61207E+04-1.22138E+04 6.12878E+04-5.14353E+01 4.72937E-11 5.01400E-08
 -1       267 3.02813E+04 1.42358E+04 4.33167E+04 5.93448E+01 9.14042E-11-4.58226E-08
 -1       268-4.06065E+03-2.01616E+03 1.61007E+04-7.56164E+00-1.59162E-10 9.80288E-08
 -1       269 4.79445E+03 2.41295E+03 1.04651E+04 8.80810E+00 8.00355E-11 9.10963E-08
 -1       270-7.19646E+02-3.96459E+02 5.05167E+03-1.19533E+00-4.96811E-11-3.98087E-08
 -1       271-2.38122E+06-2.90475E+05-1.78029E+05-9.17029E+05 1.24928E-08 1.36948E-07
 -1       272-2.48639E+06-3.80278E+05-1.14629E+05-8.69912E+05-1.89766E-08-8.53834E-08
 -1       273-2.41377E+06-3.35997E+05-4.20204E+04-9.10166E+05-8.53288E-09 2.29793E-08
 -1       274-2.44780E+06-3.24783E+05-2.35760E+04-8.80473E+05-2.35195E-09 1.59567E-07
 -1       275-2.41869E+06-3.40429E+05-9.79489E+03-9.08422E+05 1.03864E-08 4.99058E-08
 -1       276-2.44066E+06-3.20609E+05-5.15731E+03-8.83844E+05 2.61389E-09-7.45631E-08
 -1       277-2.42054E+06-3.39764E+05-2.57099E+03-9.06811E+05-5.57884E-09 7.50679E-08
 -1       278-2.43686E+06-3.22965E+05-1.68469E+03-8.87185E+05-1.12159E-08 1.75735E-08
 -1       279-2.42220E+06-3.38200E+05-1.84867E+03-9.04899E+05-4.41833E-09-4.30168E-08
 -1       280-2.43336E+06-3.26863E+05-3.01587E+03-8.91049E+05 3.01616E-08-2.83999E-08
 -1       281-2.42380E+06-3.36041E+05-5.67933E+03-9.02770E+05-1.13123E-08-8.42283E-09
 -1       282-2.43188E+06-3.34428E+05-1.31857E+04-8.94943E+05-2.13404E-08 4.37171E-08
 -1       283-2.42359E+06-3.31055E+05-2.37076E+04-9.00787E+05 1.08448E-08 1.09067E-08
 -1       284-2.44831E+06-3.70571E+05-6.41680E+04-8.94776E+05-9.10950E-09 1.34954E-07
 -1       285-2.40784E+06-3.03124E+05-9.99661E+04-9.01769E+05-2.69611E-08 2.64336E-08
 -1       301 1.86469E+04-3.62789E+05 1.73282E+05-6.56107E+05 1.29512E-09-8.06322E-08
 -1       302 2.01461E+04-3.19060E+05 1.07528E+05-9.59560E+05-5.20231E-10-2.90220E-08
 -1       303-2.43610E+03-3.47114E+05 7.04136E+04-6.54534E+05 6.33008E-10-7.39965E-08
 -1       304 1.23017E+04-3.21120E+05 8.76222E+04-9.58937E+05-2.76486E-10 4.72755E-08
 -1       305 8.83592E+03-3.52713E+05 1.28683E+05-6.56686E+05 8.00355E-11 3.38769E-08
 -1       306-1.86169E+07-3.44551E+06-4.58387E+06-1.81096E+06-4.88362E-08-8.60600E-08
 -1       307 1.20000E+07-3.84383E+05 2.78232E+06-8.43732E+06-5.56218E-07 6.51198E-08
 -1       308-8.17194E+06 5.57263E+04-4.21260E+05 2.58605E+06-1.72236E-07 2.87368E-07
 -1       309-3.23606E+06 1.21655E+06 9.00332E+05-1.36926E+07 2.50555E-07 7.50988E-08
 -1       310-9.32050E+06-1.26475E+05-6.61044E+05 2.38889E+06-9.76142E-08-8.84756E-08
 -1       311 1.46225E+07-1.17336E+06 3.31948E+06-6.68554E+06 3.19909E-07 1.34227E-07
 -1       312-1.88994E+07-3.42798E+06-4.05514E+06-2.86493E+06 4.18513E-08 1.36803E-07
 -1       313 2.17095E+07 4.86921E+06 5.36690E+06 9.17388E+06-2.92057E-07 1.91649E-07
 -1       314-1.32013E+07-8.29093E+06-3.83224E+06-7.65330E+06 1.30851E-07-2.04309E-08
 -1       315-2.03269E+06 1.33274E+07 2.98399E+06 7.02822E+06-5.19052E-07 6.11180E-10
 -1       316-1.77625E+06-6.53096E+06-3.67575E+05-4.32797E+06-8.83461E-07-2.04222E-07
 -1       317-1.48230E+07 1.27522E+07 8.79267E+05-1.70739E+06 6.03293E-07-4.85135E-07
 -1       318-2.34179E+06-6.86494E+06-7.35570E+05-4.56461E+06-5.64090E-07 4.75848E-08
 -1       319-5.46567E+04 1.37561E+07 3.04349E+06 7.70298E+06-1.09663E-07 1.39582E-07
 -1       320-1.42654E+07-8.61166E+06-4.92765E+06-7.51738E+06 1.43191E-07-4.82687E-08
 -1       336 9.65800E+01-1.65648E+06-1.19195E+04 6.78856E+03-2.04227E-08 2.07910E-08
 -1       337-4.54966E+03-1.65741E+06-1.51040E+04-1.64346E+04-3.81056E-08-2.33558E-09
 -1       338 6.15007E+02-1.65621E+06-2.26871E+04 9.52529E+03-2.72994E-08 1.94632E-09
 -1       339-2.40797E+04-1.67055E+06-5.12158E+04-2.17716E+04-4.94401E-08 1.65874E-08
 -1       340 1.60998E+04-1.64464E+06-8.02751E+04 1.20451E+04-3.29092E-08 1.41335E-08
 -1       406 2.77786E+00 3.40174E+05 5.57008E+02 1.13878E+00-9.39441E-10-5.38694E-09
 -1       407 1.76529E+02 3.40279E+05 1.18552E+03 1.35229E+01-3.09093E-10-2.77150E-08
 -1       408 5.91691E+02 3.40088E+05 2.36668E+03-1.50112E+01-1.38334E-09-7.40420E-09
 -1       409 2.54341E+03 3.41035E+05 5.32960E+03 1.54051E+02-2.75577E-10-2.41780E-08
 -1       410 7.33989E+03 3.39413E+05 1.08794E+04-1.46895E+02-1.63709E-09-5.57611E-09
 -1       521-2.05909E+07-4.29995E+06-5.52626E+06-1.73731E+06-5.48316E-08 1.17405E-07
 -1       522 1.27937E+07-2.84778E+05 2.90799E+06-1.07695E+07-4.15544E-07-2.50060E-07
 -1       523-9.35379E+06-1.05221E+05-4.71922E+05 3.00337E+06 1.09460E-07-2.52312E-07
 -1       524-5.36270E+06 2.50215E+06 1.02200E+06-1.64901E+07 6.82929E-07-3.68556E-07
 -1       525-1.06529E+07-3.77448E+05-7.57741E+05 2.78328E+06 4.16068E-07-3.25832E-07
 -1       526 1.62429E+07-1.32000E+06 3.62147E+06-8.63753E+06 1.20053E-07-5.43514E-08
 -1       527-2.09697E+07-4.39534E+06-4.80650E+06-2.93865E+06 1.48546E-07 3.18396E-08
 -1       528 2.45130E+07 5.38827E+06 5.79945E+06 1.06601E+07 2.06986E-07 3.08355E-08
 -1       529-1.45762E+07-9.84797E+06-4.53478E+06-8.25505E+06 6.38538E-08-1.69384E-08
 -1       530-3.70022E+06 1.61669E+07 3.27030E+06 7.55450E+06-2.63681E-07 3.69764E-07
 -1       531-2.06000E+06-7.71705E+06-4.01337E+05-4.84329E+06-4.84026E-07 1.80036E-07
 -1       532-1.80661E+07 1.51506E+07 1.02238E+06-3.55352E+06 3.45732E-07-4.02681E-07
 -1       533-2.60849E+06-8.05378E+06-7.94105E+05-5.04887E+06-7.68923E-08-7.63830E-07
 -1       534-1.64418E+06 1.66579E+07 3.30482E+06 8.30949E+06-1.09663E-07 5.55650E-07
 -1       535-1.56789E+07-1.02506E+07-5.75040E+06-8.09496E+06 5.36675E-08 3.19415E-07
 -1       536-3.45843E+05-5.08030E+04 1.34335E+04-1.74423E+04-4.82616E-09 2.96750E-08
 -1       537 1.55081E+05 4.77122E+04 9.43623E+04 3.44111E+04-9.34379E-08 4.16248E-08
 -1       538-1.19271E+05 3.32019E+03 1.39609E+04-1.75484E+04 1.77448E-08 6.10535E-08
 -1       539 1.30428E+03-4.81842E+03 2.73269E+04 3.63534E+04 1.30114E-07 6.60249E-08
 -1       540-1.93051E+05 2.60479E+03-1.30884E+04-1.94680E+04 9.17805E-09 4.59625E-08
 -1       541 2.75966E+05 7.76927E+03 7.71419E+04 2.91039E+04-2.85060E-08 2.81339E-08
 -1       542-3.91948E+05-1.10321E+04-5.65039E+04-1.01653E+04 2.64974E-08 9.21614E-09
 -1       543 4.45400E+05 1.82105E+04 1.10704E+05-3.63578E+03 8.37491E-09-9.38553E-09
 -1       544-3.61280E+05-8.88617E+03-5.13556E+04 1.31689E+04-3.92749E-08-2.78333E-08
 -1       545 1.96498E+05 9.79350E+02 5.75391E+04-3.18175E+04-9.12382E-09-4.29926E-08
 -1       546-1.44811E+05 7.73609E+03-8.61862E+03 1.79653E+04 1.55724E-08-4.52060E-08
 -1       547-1.14361E+04-1.22386E+04 1.19422E+04-3.66907E+04-1.01795E-07-7.37471E-08
 -1       548-1.54846E+05 5.67700E+03-1.51206E+04 1.81491E+04-1.01097E-07-5.63157E-08
 -1       549 2.17284E+05 1.24204E+04 5.33310E+04-3.12634E+04-5.77143E-08-5.34781E-08
 -1       550-3.71912E+05-1.83717E+04-7.74514E+04 1.24256E+04 1.68598E-09-1.95832E-08
 -1       551 3.19998E+04-7.35401E+05 6.80056E+03-1.14541E+06-8.14762E-08-3.98722E-09
 -1       552 7.15060E+04-7.65132E+05 2.25932E+04-1.63307E+06-5.87170E-08 3.68236E-08
 -1       553 5.35390E+04-7.66181E+05 4.03642E+04-1.14007E+06-9.59844E-08 2.17551E-08
 -1       554 1.04745E+05-7.72472E+05 9.05547E+04-1.63496E+06-5.87461E-08 8.59109E-09
 -1       555 8.28572E+04-7.87634E+05 1.62324E+05-1.14040E+06-9.76797E-08-1.18234E-08
 -1       556 1.62817E+05-3.07719E+05 5.04494E+04-3.51608E+05-2.26573E-08-1.90630E-08
 -1       557 2.74076E+05-3.96967E+05 2.79867E+04-4.48687E+05-7.33417E-09 1.07502E-09
 -1       558 1.52271E+05-3.08347E+05 8.95071E+03-3.49963E+05-1.47847E-08 8.57835E-09
 -1       559 2.53967E+05-4.01743E+05 5.25887E+03-4.62687E+05 1.76951E-08-4.11092E-10
 -1       560 1.42300E+05-3.02037E+05 7.71711E+02-3.56970E+05 7.15954E-09-1.40062E-09
 -1       561 2.41088E+05-3.96855E+05 9.36270E+02-4.71318E+05-5.62432E-09 9.22591E-09
 -1       562 1.34426E+05-2.97088E+05-3.99064E+02-3.62634E+05 1.00408E-09 1.79280E-08
 -1       563 2.31780E+05-3.92799E+05 1.96095E+02-4.77366E+05-3.21597E-09 1.02127E-08
 -1       564 1.28929E+05-2.93646E+05-2.40454E+02-3.66516E+05-1.54250E-09-8.85348E-09
 -1       565 2.25823E+05-3.90210E+05 6.92285E+01-4.81166E+05 7.40329E-09 2.43699E-09
 -1       566 1.25896E+05-2.91719E+05-1.45254E+02-3.68639E+05-3.08501E-09-7.90169E-09
 -1       567 2.23216E+05-3.89078E+05-2.95252E+02-4.82712E+05 1.65819E-08-5.69344E-09
 -1       568 1.25396E+05-2.91422E+05-9.04165E+02-3.69082E+05-2.38265E-09 1.26747E-08
 -1       569 2.22741E+05-3.89124E+05-2.25887E+03-4.81112E+05-1.25128E-08 1.40644E-08
 -1       570 1.28380E+05-2.94194E+05-4.91139E+03-3.68280E+05 2.21917E-09 5.49244E-09
 -1       571 2.58277E+05 9.26219E+03 1.34220E+04-7.64418E+04 2.81125E-09 1.56679E-08
 -1       572 2.60244E+05 3.38077E+03 6.57698E+03-8.38655E+04 4.46289E-09 5.36238E-09
 -1       573 2.59064E+05 9.63008E+02 2.92224E+03-7.62918E+04-3.09001E-09 7.37691E-09
 -1       574 2.59275E+05 4.80402E+02 1.46497E+03-8.40488E+04-1.39530E-08-3.32329E-09
 -1       575 2.59152E+05 2.46433E+02 6.91262E+02-7.62715E+04-5.37369E-10 8.19819E-09
 -1       576 2.59152E+05 2.41477E+02 3.53512E+02-8.40732E+04 1.07956E-08 1.10622E-08
 -1       577 2.59181E+05 1.98748E+02 1.76389E+02-7.62688E+04 1.41063E-08 8.66294E-09
 -1       578 2.59165E+05 2.15312E+02 1.01338E+02-8.40765E+04 1.96997E-08-1.18598E-09
 -1       579 2.59226E+05 1.77162E+02 6.97507E+01-7.62685E+04 1.62336E-08-3.06773E-09
 -1       580 2.59229E+05 1.84549E+02 7.99658E+01-8.40723E+04-5.94446E-09 2.85072E-08
 -1       581 2.59298E+05 1.42717E+02 1.21887E+02-7.62733E+04 2.38851E-08 3.14503E-09
 -1       582 2.59345E+05 1.72184E+02 2.45937E+02-8.40227E+04 4.07554E-08-1.55078E-08
 -1       583 2.59383E+05 2.02928E+02 4.75049E+02-7.63184E+04 1.88993E-08 8.80004E-09
 -1       584 2.59627E+05 5.86507E+02 1.07197E+03-8.36427E+04 3.84898E-09 1.41404E-09
 -1       585 2.59362E+05 1.50972E+03 2.17503E+03-7.66530E+04-1.12777E-10 5.80258E-09
 -1       586-3.34408E+03 9.42450E+04-3.50884E+03-2.20973E+05-3.44335E-09-5.48698E-09
 -1       587-1.07309E+03 9.38639E+04 2.10181E+02-2.43215E+05-6.00630E-09-9.91031E-09
 -1       588 5.91082E+02 9.38129E+04 3.96889E+03-2.20862E+05-3.72347E-09 5.49335E-10
 -1       589 4.76806E+03 9.59292E+04 1.07270E+04-2.42982E+05-4.91218E-09-3.76531E-09
 -1       590 1.48681E+04 9.26189E+04 2.26736E+04-2.21243E+05-4.40923E-09-3.19960E-09
 -1       591-5.89706E+04-1.34647E+04-1.91590E+04-2.61134E+04 8.29914E-10-6.79847E-09
 -1       592-6.22109E+04-1.67273E+04-1.03779E+04-2.94652E+04 7.26374E-10-4.66298E-09
 -1       593-6.08878E+04-1.20733E+04-4.31990E+03-2.75173E+04-4.98213E-09-1.49855E-08
 -1       594-5.95625E+04-1.39193E+04-2.15447E+03-2.95692E+04-3.17732E-09-1.28404E-08
 -1       595-6.10340E+04-1.20686E+04-9.89257E+02-2.75811E+04 6.46338E-10 3.12724E-10
 -1       596-5.93814E+04-1.37909E+04-5.02949E+02-2.95480E+04 4.08474E-09 1.31595E-08
 -1       597-6.10524E+04-1.20816E+04-2.73979E+02-2.75835E+04 5.77268E-09 1.27999E-08
 -1       598-5.93636E+04-1.37858E+04-2.20447E+02-2.95420E+04-5.79348E-10-1.15983E-09
 -1       599-6.10512E+04-1.20820E+04-2.81840E+02-2.75831E+04 2.51623E-09-4.09466E-09
 -1       600-5.93816E+04-1.37916E+04-5.23770E+02-2.95464E+04 1.54728E-10-1.08766E-08
 -1       601-6.10299E+04-1.20694E+04-1.03337E+03-2.75800E+04 5.30235E-10-6.03006E-09
 -1       602-5.95707E+04-1.39249E+04-2.25218E+03-2.95654E+04-6.31906E-09 5.75960E-09
 -1       603-6.08747E+04-1.20769E+04-4.51656E+03-2.75139E+04-9.30186E-10 9.69476E-09
 -1       604-6.23551E+04-1.68436E+04-1.08497E+04-2.94348E+04 6.97526E-10 2.03149E-08
 -1       605-5.88525E+04-1.35473E+04-2.00301E+04-2.60634E+04-9.45704E-10 1.61554E-08
 -1       606 2.67140E+04-1.25580E+04-2.25369E+04 2.48503E+04 3.90173E-09-9.99671E-09
 -1       607 2.28609E+04-4.08883E+03-1.12229E+04 2.79128E+04 7.13044E-10-1.53461E-08
 -1       608 2.50537E+04-7.25765E+02-5.02463E+03 2.46647E+04-2.62662E-09-3.84944E-10
 -1       609 2.46288E+04-2.33978E+02-2.53813E+03 2.81330E+04-1.27056E-09-3.07091E-09
 -1       610 2.48616E+04-1.82100E+01-1.21137E+03 2.46433E+04 1.71258E-09-3.67277E-09
 -1       611 2.47910E+04-1.36587E+01-6.10740E+02 2.81569E+04 3.27782E-09-3.52384E-09
 -1       612 2.48164E+04-3.71021E+00-2.90748E+02 2.46411E+04 1.44610E-10 5.94082E-09
 -1       613 2.47971E+04-7.77760E+00-1.30584E+02 2.81597E+04-2.35923E-09 6.81371E-09
 -1       614 2.47938E+04-7.32778E+00-3.15721E+01 2.46404E+04-3.94084E-09 8.68636E-09
 -1       615 2.47892E+04-4.68416E+00 5.26153E+01 2.81602E+04-3.24144E-09-4.67071E-09
 -1       616 2.47762E+04-3.11277E+00 1.59690E+02 2.46407E+04-8.22001E-09-1.41479E-08
 -1       617 2.48060E+04 3.07926E+01 3.65193E+02 2.81597E+04-1.30085E-08-1.15151E-08
 -1       618 2.47427E+04 1.03276E+02 7.36356E+02 2.46409E+04-5.49517E-09 4.77712E-09
 -1       619 2.50645E+04 6.01048E+02 1.65376E+03 2.81590E+04 7.96717E-10 6.62590E-09
 -1       620 2.44973E+04 1.85016E+03 3.32403E+03 2.46411E+04-5.28189E-10-9.09586E-09
 -1       621 3.68472E+02 2.64663E+05 3.09508E+03 2.87356E+04 5.23414E-10 1.45064E-09
 -1       622 4.72739E+02 2.65399E+05 2.81940E+03 4.17533E+04 6.37101E-10 9.27139E-09
 -1       623 6.84077E+01 2.64826E+05 3.48510E+03 2.86022E+04 7.12134E-10 5.63796E-09
 -1       624 1.72816E+03 2.66495E+05 6.83392E+03 4.18870E+04 8.22695E-10-1.06068E-08
 -1       625 1.71390E+03 2.63474E+05 1.19799E+04 2.85989E+04 1.01272E-09-8.49855E-09
 -1       626 2.32723E+05 5.73525E+04 4.87551E+03 1.16201E+05 1.12459E-09-4.11092E-10
 -1       627 2.30413E+05 5.87862E+04 2.34943E+03 1.20381E+05-6.12090E-10-1.05272E-08
 -1       628 2.32853E+05 5.51106E+04 9.93280E+02 1.17015E+05 4.66844E-09 1.43400E-08
 -1       629 2.29792E+05 5.81536E+04 4.86137E+02 1.20623E+05 1.20917E-09 1.65392E-08
 -1       630 2.32866E+05 5.50030E+04 2.25103E+02 1.17047E+05 5.53882E-10 2.44921E-09
 -1       631 2.29724E+05 5.81312E+04 1.20555E+02 1.20624E+05 2.23417E-09 1.18548E-08
 -1       632 2.32860E+05 5.50082E+04 7.83033E+01 1.17042E+05 3.34467E-09-3.24849E-09
 -1       633 2.29713E+05 5.81343E+04 8.56464E+01 1.20619E+05 2.89310E-09-8.86894E-09
 -1       634 2.32854E+05 5.50069E+04 1.37000E+02 1.17040E+05 1.40540E-09-5.00336E-09
 -1       635 2.29724E+05 5.81338E+04 2.76381E+02 1.20622E+05-3.21140E-09 1.04421E-08
 -1       636 2.32844E+05 5.50028E+04 5.57717E+02 1.17038E+05-2.28010E-09-1.36629E-08
 -1       637 2.29843E+05 5.82209E+04 1.22586E+03 1.20620E+05-1.67438E-09 4.15912E-09
 -1       638 2.32799E+05 5.52742E+04 2.51872E+03 1.16915E+05 6.17683E-09 1.88084E-09
 -1       639 2.31166E+05 6.00606E+04 5.95909E+03 1.20230E+05 5.77165E-09-1.70248E-08
 -1       640 2.32618E+05 6.07659E+04 1.23662E+04 1.14596E+05 9.59517E-11-1.87092E-08
 -1       656 6.00915E+04-1.53383E+06-1.45062E+05-1.53604E+03-1.23691E-10 1.87299E-09
 -1       657-7.94778E+04-1.59936E+06-1.20132E+05 6.27257E+03-8.09450E-11-8.42400E-09
 -1       658 1.91374E+04-1.55246E+06-7.39353E+04-3.30117E+03 2.16914E-10-6.45763E-09
 -1       659-8.58007E+04-1.60236E+06-1.28440E+05 7.65887E+03-1.28784E-09 8.27465E-09
 -1       660 6.64000E+04-1.53084E+06-1.59346E+05-2.92232E+03-1.36060E-09 7.27837E-09
 -1       661 1.60171E+05 1.69919E+04 1.64028E+04 6.26295E+04-5.75710E-10-3.02680E-09
 -1       662 1.69247E+05 2.93334E+04 1.10538E+04 5.91754E+04-2.24924E-09-1.08827E-08
 -1       663 1.63392E+05 2.22552E+04 3.86619E+03 6.16959E+04 1.45280E-09-9.16771E-10
 -1       664 1.65515E+05 2.31768E+04 2.31238E+03 6.03145E+04-9.38883E-10 3.36581E-09
 -1       665 1.63879E+05 2.29756E+04 9.12231E+02 6.15553E+04 4.84135E-10-7.62711E-09
 -1       666 1.64940E+05 2.23518E+04 5.33400E+02 6.04972E+04 4.13920E-10-1.24767E-08
 -1       667 1.63963E+05 2.30586E+04 2.82888E+02 6.15211E+04 6.75840E-10-9.63625E-09
 -1       668 1.64848E+05 2.22905E+04 2.87206E+02 6.05468E+04-2.65231E-09-1.27802E-08
 -1       669 1.63970E+05 2.30351E+04 3.88010E+02 6.15061E+04-2.29221E-10 4.67628E-09
 -1       670 1.64943E+05 2.24998E+04 8.44105E+02 6.05488E+04-4.62416E-09 6.32697E-09
 -1       671 1.63868E+05 2.28536E+04 1.49851E+03 6.15173E+04-6.36625E-10 3.93982E-10
 -1       672 1.65816E+05 2.39574E+04 3.83370E+03 6.03371E+04 1.06004E-09 3.28441E-09
 -1       673 1.63101E+05 2.16143E+04 6.42459E+03 6.17037E+04 2.76373E-09 7.67159E-10
 -1       674 1.71932E+05 3.42780E+04 1.83730E+04 5.85393E+04-2.94733E-09-6.62249E-09
 -1       675 1.57791E+05 1.28220E+04 2.72718E+04 6.32065E+04-5.72072E-10-1.49485E-08
 -1       676 2.23834E+01-2.73513E+05-1.03824E+03-6.27689E+01 6.88004E-10 4.77648E-10
 -1       677-2.75476E+02-2.73763E+05-1.90013E+03 1.25449E+02 4.71547E-09-1.66432E-08
 -1       678 1.84098E+02-2.73334E+05-3.35895E+03-6.26379E+01 8.69022E-10-1.32932E-10
 -1       679-3.35975E+03-2.75791E+05-7.97939E+03 1.24947E+02 4.57260E-09 3.38133E-10
 -1       680 2.00533E+03-2.71486E+05-1.28601E+04-6.15680E+01-8.64020E-11-4.11240E-09
 -1       771-2.86453E+06-6.43464E+05-1.18371E+05-1.32800E+06-2.58005E-08-1.88593E-08
 -1       772-2.80506E+06-7.15620E+05-6.14244E+04-1.41093E+06-2.07656E-08 8.75661E-09
 -1       773-2.88677E+06-6.25978E+05-3.04604E+04-1.33704E+06-1.06811E-08 8.76753E-09
 -1       774-2.79603E+06-7.02877E+05-1.37705E+04-1.42829E+06 2.29193E-08-1.65892E-09
 -1       775-2.89749E+06-6.18400E+05-9.73396E+03-1.34099E+06 3.81260E-09 5.66797E-09
 -1       776-2.80301E+06-7.01396E+05-3.73317E+03-1.44089E+06 4.07454E-10-2.60843E-09
 -1       777-2.90659E+06-6.11780E+05-4.09954E+03-1.34447E+06 6.95582E-09-2.92493E-09
 -1       778-2.81044E+06-7.00102E+05-1.19081E+03-1.45165E+06 1.08848E-08 6.01358E-09
 -1       779-2.91432E+06-6.06061E+05-1.98568E+03-1.34745E+06-8.00355E-10-9.31686E-09
 -1       780-2.81696E+06-6.98856E+05-3.33838E+02-1.46039E+06 9.63337E-09-2.69210E-10
 -1       781-2.92040E+06-6.01483E+05-7.48814E+02-1.34978E+06-1.21072E-08-5.22959E-09
 -1       782-2.82196E+06-6.97776E+05 2.95078E+02-1.46683E+06-2.40580E-08-8.41010E-09
 -1       783-2.92467E+06-5.98329E+05 4.75257E+02-1.35142E+06-4.33647E-09-1.71858E-08
 -1       784-2.82466E+06-6.96552E+05 1.87980E+03-1.47080E+06-1.80589E-08-2.38970E-09
 -1       785-2.92719E+06-5.96451E+05 3.32694E+03-1.35249E+06-2.72557E-08 5.77711E-09
 -1       786 1.11398E+05-8.99085E+03 2.08001E+04-2.03231E+02 2.23451E-09-5.19231E-09
 -1       787 1.20419E+05 1.04088E+04 1.47153E+04-4.17576E+01 5.69746E-09 3.82306E-09
 -1       788 1.14876E+05-1.40915E+03 5.38145E+03-1.75243E+02 1.97446E-09 2.09868E-08
 -1       789 1.16367E+05 1.63050E+03 3.37833E+03-8.58953E+01 3.50984E-10 1.61216E-08
 -1       790 1.15450E+05-2.19650E+02 1.36791E+03-1.59103E+02-1.99516E-09 1.24123E-08
 -1       791 1.15696E+05 2.53585E+02 7.90257E+02-1.13869E+02-5.48956E-09-6.23716E-09
 -1       792 1.15548E+05-3.32699E+01 3.35228E+02-1.47270E+02-2.47231E-09 1.31448E-08
 -1       793 1.15579E+05 3.47665E+01 1.67906E+02-1.36102E+02-1.48639E-10-6.05690E-09
 -1       794 1.15567E+05-9.69837E-01 4.52023E+01-1.36871E+02 2.81470E-09 7.27306E-09
 -1       795 1.15546E+05-2.42510E+01-4.90233E+01-1.57498E+02-3.43591E-09 2.53185E-08
 -1       796 1.15581E+05 2.57149E+01-1.42634E+02-1.25873E+02 2.16467E-09 4.88275E-09
 -1       797 1.15462E+05-1.94216E+02-3.93541E+02-1.82203E+02 2.56514E-09-8.60666E-09
 -1       798 1.15650E+05 1.68868E+02-6.39637E+02-1.12166E+02 1.55414E-09 2.78359E-09
 -1       799 1.14977E+05-1.24665E+03-1.76027E+03-2.15225E+02 3.38745E-09 8.62869E-09
 -1       800 1.16067E+05 1.07729E+03-2.49120E+03-9.28510E+01-1.13122E-10-9.69339E-09
 -1       801-2.71342E+04-7.14502E+06-9.15930E+05 7.69495E+05 6.98492E-08-3.11375E-08
 -1       802 3.11587E+05 1.52053E+06 1.07043E+06-8.89387E+05 1.94232E-07-2.69320E-08
 -1       803-2.76460E+05-9.23226E+06-1.03385E+06 4.97607E+05 6.16528E-08 1.67001E-08
 -1       804 1.17600E+05-5.54759E+05 7.55850E+05 4.51675E+05-8.01392E-08-7.03672E-08
 -1       805 1.26762E+05-5.08376E+06-1.65286E+05-5.68678E+05-3.33239E-08-4.48499E-08
 -1       806-2.79740E+05-5.30412E+04-2.01859E+04-1.09730E+05-5.15047E-09 4.80213E-09
 -1       807-2.81465E+05-4.96089E+04-9.91709E+03-1.14466E+05 6.86759E-09 1.36659E-08
 -1       808-2.80284E+05-4.57772E+04-4.20726E+03-1.13182E+05-7.92170E-10 1.99051E-08
 -1       809-2.79387E+05-4.68161E+04-2.05731E+03-1.14703E+05-1.37472E-08 1.26358E-08
 -1       810-2.80368E+05-4.55242E+04-9.43007E+02-1.13336E+05-3.55112E-09 9.07767E-09
 -1       811-2.79227E+05-4.67031E+04-4.69078E+02-1.14672E+05 2.12822E-10 1.51517E-08
 -1       812-2.80381E+05-4.55455E+04-2.37424E+02-1.13336E+05-4.68117E-09 9.82618E-09
 -1       813-2.79206E+05-4.67045E+04-1.54744E+02-1.14656E+05 3.72074E-09 1.04883E-08
 -1       814-2.80376E+05-4.55532E+04-1.53918E+02-1.13333E+05 1.62527E-09-1.43614E-08
 -1       815-2.79211E+05-4.67060E+04-2.48831E+02-1.14651E+05-4.85670E-10-1.97288E-08
 -1       816-2.80359E+05-4.55514E+04-4.71892E+02-1.13330E+05 2.50111E-09 7.00993E-09
 -1       817-2.79292E+05-4.67507E+04-1.01337E+03-1.14642E+05-4.82032E-09 1.46410E-08
 -1       818-2.80300E+05-4.56929E+04-2.06682E+03-1.13264E+05 1.43973E-09 7.29960E-09
 -1       819-2.80423E+05-4.80020E+04-4.86380E+03-1.14380E+05 3.86353E-09 7.34053E-09
 -1       820-2.79917E+05-4.93613E+04-9.89930E+03-1.11689E+05-1.02864E-09-5.23528E-09
 -1       821-3.40778E+05 1.88474E+04-4.36074E+04 9.13314E+02 7.15800E-09-5.22959E-09
 -1       822-3.59602E+05-2.18193E+04-3.08460E+04-1.65515E+03 9.04338E-10-1.11322E-09
 -1       823-3.48025E+05 2.95632E+03-1.12909E+04 1.12653E+03-4.19733E-09 5.63887E-09
 -1       824-3.51099E+05-3.41896E+03-7.09885E+03-1.58072E+03 1.09861E-09 1.17296E-08
 -1       825-3.49278E+05 4.60913E+02-2.92888E+03 8.38900E+02 6.67562E-09-3.81181E-09
 -1       826-3.49591E+05-5.40563E+02-1.73720E+03-6.48841E+02 6.67470E-09-1.61157E-08
 -1       827-3.49529E+05 7.76888E+01-9.33815E+02 1.94628E+02 2.05270E-09 1.14636E-09
 -1       828-3.49380E+05-1.63055E+02-7.81138E+02 6.73033E+02-1.18867E-09 4.40789E-09
 -1       829-3.49488E+05 8.33494E+01-9.47358E+02-4.82995E+02 6.13156E-10 7.50376E-09
 -1       830-3.49691E+05-5.67314E+02-1.81856E+03 1.71984E+03 1.18558E-09 1.00204E-08
 -1       831-3.49221E+05 4.83900E+02-3.03180E+03-8.52198E+02-2.07982E-09-3.45494E-10
 -1       832-3.51186E+05-3.55900E+03-7.38543E+03 1.96358E+03-9.39960E-10 1.94063E-10
 -1       833-3.47996E+05 3.07372E+03-1.17472E+04-7.26735E+02-2.18132E-09 1.50380E-08
 -1       834-3.59921E+05-2.26888E+04-3.20612E+04 1.26981E+03-2.05406E-09 9.48421E-09
 -1       835-3.40486E+05 1.95971E+04-4.53616E+04-1.58412E+02 4.86694E-09-6.45559E-09
 -1       836-1.21901E+03 3.27800E+05 2.01133E+04-1.48877E+04-4.12365E-09 1.58529E-08
 -1       837 4.32913E+03 3.34080E+05 1.71123E+04-3.01836E+04-4.25871E-09 7.16773E-09
 -1       838-4.77267E+02 3.29550E+05 1.75664E+04-1.48231E+04-3.48109E-09-2.06660E-09
 -1       839 1.11477E+04 3.39163E+05 3.33592E+04-3.02301E+04-3.70528E-09-2.73184E-09
 -1       840-3.41803E+03 3.22670E+05 5.32521E+04-1.48436E+04-3.52156E-09-1.09958E-08
 -1       856-6.11028E+04 7.73777E+03-2.03909E+04-3.99941E+02 1.43376E-09-5.25688E-09
 -1       857-6.95122E+04-9.08498E+03-1.40375E+04 5.20001E+03 3.40211E-09-3.15049E-09
 -1       858-6.44299E+04 1.08477E+03-5.29125E+03-4.22512E+02 1.41313E-10-7.53471E-09
 -1       859-6.56931E+04-1.26996E+03-3.19380E+03 5.23445E+03-6.78710E-11 3.44056E-09
 -1       860-6.49271E+04 1.51509E+02-1.33972E+03-4.34274E+02 1.81132E-10-4.35955E-09
 -1       861-6.51209E+04-1.75075E+02-7.39571E+02 5.25052E+03 4.19824E-10-9.63439E-09
 -1       862-6.50048E+04 2.02800E+01-3.12557E+02-4.38583E+02 2.09734E-10 1.74634E-09
 -1       863-6.50266E+04-1.63860E+01-1.25497E+02 5.25285E+03 1.38839E-09 1.13638E-08
 -1       864-6.50218E+04-3.61550E+00 1.93129E+01-4.36602E+02-3.54063E-10-5.21364E-09
 -1       865-6.49802E+04 5.04775E+01 1.87791E+02 5.24203E+03 1.10298E-09-7.24980E-09
 -1       866-6.50493E+04-4.67195E+01 3.91919E+02-4.27765E+02 3.44926E-10 6.97818E-09
 -1       867-6.47923E+04 3.87461E+02 9.73302E+02 5.21798E+03-1.63533E-09 1.00835E-08
 -1       868-6.52054E+04-3.34874E+02 1.61944E+03-4.12550E+02 1.63459E-09-5.54678E-10
 -1       869-6.36026E+04 2.78721E+03 4.31517E+03 5.17793E+03 3.52367E-09-1.90894E-08
 -1       870-6.62323E+04-2.38181E+03 6.26188E+03-3.87677E+02-1.51636E-09-1.21704E-08
 -1       871-5.07167E+03-1.64455E+04-1.73428E+04 1.15842E+05-2.34104E-09-1.52249E-09
 -1       872-1.97193E+03-2.04246E+04-7.20791E+03 1.50198E+05-5.63978E-09-7.11225E-09
 -1       873 2.04806E+02-1.85251E+04 6.60818E+02 1.15588E+05-2.97314E-09-9.99000E-09
 -1       874 2.81271E+03-1.62634E+04 9.02019E+03 1.50232E+05-5.59612E-09-2.86113E-08
 -1       875 6.11529E+03-2.06730E+04 2.02434E+04 1.15801E+05-2.27374E-09-2.78305E-09
 -1       876 2.67167E+05 4.52920E+04 1.38391E+04 1.07528E+05 6.58963E-09 5.45697E-11
 -1       877 2.68057E+05 4.82317E+04 7.39057E+03 1.11519E+05 7.20388E-09 1.87438E-08
 -1       878 2.68461E+05 4.37599E+04 3.09631E+03 1.08663E+05-5.67024E-09 1.42982E-08
 -1       879 2.66176E+05 4.63548E+04 1.54270E+03 1.11614E+05 2.71484E-09 4.79702E-10
 -1       880 2.68554E+05 4.37437E+04 7.18523E+02 1.08709E+05-1.31467E-09 1.30359E-09
 -1       881 2.66051E+05 4.62747E+04 3.83532E+02 1.11593E+05-3.37184E-09 1.45449E-08
 -1       882 2.68563E+05 4.37556E+04 2.45092E+02 1.08711E+05 3.47291E-09 1.18917E-08
 -1       883 2.66042E+05 4.62707E+04 2.63033E+02 1.11587E+05-2.11753E-09 8.44791E-09
 -1       884 2.68557E+05 4.37529E+04 4.18024E+02 1.08711E+05-1.12664E-09 6.72406E-09
 -1       885 2.66075E+05 4.62765E+04 8.40210E+02 1.11597E+05-1.16803E-09 2.29147E-09
 -1       886 2.68524E+05 4.37284E+04 1.69330E+03 1.08707E+05 6.25491E-10-3.30624E-09
 -1       887 2.66373E+05 4.64716E+04 3.69875E+03 1.11640E+05 4.52903E-09-2.26817E-09
 -1       888 2.68291E+05 4.37695E+04 7.45311E+03 1.08589E+05-2.79022E-09-1.88725E-08
 -1       889 2.70811E+05 5.10852E+04 1.78043E+04 1.11503E+05-5.67285E-09-1.31117E-08
 -1       890 2.65251E+05 4.73801E+04 3.33468E+04 1.05749E+05-8.09450E-10 3.04499E-09
 -1       891-1.11568E+02-1.48955E+05-1.81282E+03 2.57436E+04-1.03887E-09 1.77724E-08
 -1       892-2.05678E+02-1.49418E+05-1.95154E+03 3.90388E+04 1.26533E-09 1.17452E-08
 -1       893 9.29968E+00-1.49013E+05-2.76780E+03 2.57499E+04-9.08130E-10-5.72754E-09
 -1       894-1.42389E+03-1.50467E+05-5.73176E+03 3.88963E+04 1.70712E-09-1.82604E-08
 -1       895-1.12431E+03-1.47820E+05-1.00948E+04 2.58864E+04-4.47130E-10 2.08001E-09
 -1       956-3.41399E+05-4.85168E+03-1.20776E+04 2.59948E+04 5.27780E-09-6.67251E-09
 -1       957-3.43775E+05-1.67937E+03-6.19962E+03 3.12692E+04 5.66433E-09-5.69639E-09
 -1       958-3.42479E+05-1.78248E+02-2.79347E+03 2.58478E+04 3.74348E-09-1.00531E-08
 -1       959-3.42661E+05-7.85684E+01-1.42662E+03 3.14361E+04 1.94950E-09 8.48127E-09
 -1       960-3.42581E+05-4.90895E+00-6.95658E+02 2.58330E+04 3.86672E-09 3.75371E-09
 -1       961-3.42585E+05-1.52133E+01-3.69100E+02 3.14533E+04 5.82395E-09-1.15510E-08
 -1       962-3.42603E+05-7.58816E+00-2.11580E+02 2.58306E+04 2.99701E-09 5.25279E-09
 -1       963-3.42584E+05-1.24647E+01-1.70374E+02 3.14563E+04 2.06001E-09-9.90281E-09
 -1       964-3.42608E+05-4.93707E+00-2.07689E+02 2.58300E+04 1.37149E-09 4.46744E-09
 -1       965-3.42595E+05-9.57711E+00-3.59631E+02 3.14558E+04-6.45377E-09 1.96073E-08
 -1       966-3.42594E+05 2.97889E+00-6.75799E+02 2.58312E+04-1.41426E-10-1.85446E-09
 -1       967-3.42679E+05-6.56859E+01-1.38622E+03 3.14440E+04-2.68074E-09-1.38598E-08
 -1       968-3.42503E+05-1.60300E+02-2.71345E+03 2.58417E+04 1.32923E-09-2.47962E-09
 -1       969-3.43771E+05-1.61660E+03-6.02415E+03 3.13205E+04 2.88242E-09-2.26437E-08
 -1       970-3.41460E+05-4.69822E+03-1.17348E+04 2.59511E+04 1.85537E-10-4.15639E-10
 -1       971-3.15313E+05-1.59776E+03-8.71117E+03 1.43449E+04 5.18321E-09 7.00889E-09
 -1       972-3.17418E+05-1.16473E+03-4.74404E+03 1.99174E+04 1.67438E-09 1.36833E-09
 -1       973-3.16283E+05-3.99354E+01-2.12471E+03 1.42291E+04-2.22553E-09-1.13916E-08
 -1       974-3.16418E+05-5.08872E+01-1.10117E+03 2.00461E+04 2.83762E-09-6.44104E-09
 -1       975-3.16360E+05 1.64704E+00-5.50348E+02 1.42178E+04-1.95996E-10 3.18983E-09
 -1       976-3.16359E+05-4.58466E+00-3.17370E+02 2.00604E+04-7.87850E-10 4.66116E-12
 -1       977-3.16375E+05 2.03907E+00-2.30080E+02 1.42149E+04 5.65933E-10 2.68369E-09
 -1       978-3.16364E+05 9.99108E-01-2.68890E+02 2.00646E+04 2.07785E-09-1.28382E-08
 -1       979-3.16374E+05 9.65846E+00-4.31714E+02 1.42136E+04 4.35034E-09-1.78363E-09
 -1       980-3.16396E+05 3.75833E+00-8.33392E+02 2.00654E+04 4.40198E-09-5.63546E-10
 -1       981-3.16348E+05 3.04752E+01-1.61398E+03 1.42141E+04 1.65664E-09-8.68454E-10
 -1       982-3.16618E+05-1.15441E+02-3.33600E+03 2.00592E+04 3.05999E-09 6.99929E-09
 -1       983-3.16145E+05-7.27908E+01-6.48182E+03 1.42198E+04 2.67619E-09 6.84167E-10
 -1       984-3.19735E+05-3.50056E+03-1.45156E+04 1.99789E+04 8.80391E-10 7.25390E-09
 -1       985-3.13210E+05-4.81574E+03-2.66552E+04 1.42921E+04-2.11094E-09 1.11177E-08
 -3
    1PSTEP                        25          13           1          
  100CL  113 6.27563E-01         409                     0   13           1
 -4  DISP        4    1
 -5  D1          1    2    1    0
 -5  D2          1    2    2    0
 -5  D3          1    2    3    0
 -5  ALL         1    2    0    0    1ALL
 -1         1 1.72401E-03 0.00000E+00 0.00000E+00
 -1         2 1.61204E-03 1.62667E-28 0.00000E+00
 -1         3 2.94522E-04 1.01717E-26 0.00000E+00
 -1         5 1.58332E-04-3.43366E-26-4.13590E-25
 -1         8 1.70596E-03-5.57769E-07 0.00000E+00
 -1         9 1.66767E-03-4.93052E-06 0.00000E+00
 -1        10 2.67530E-04-3.40758E-06-6.61744E-24
 -1        12 1.59564E-04 7.40786E-07 0.00000E+00
 -1        15 1.68412E-03-6.12212E-07 2.06795E-25
 -1        16 1.69155E-03-5.93753E-06 0.00000E+00
 -1        17 1.83731E-04-7.57192E-06 0.00000E+00
 -1        18 1.61778E-04 2.57751E-05 0.00000E+00
 -1        19 1.63259E-04 1.47679E-06 0.00000E+00
 -1        20 1.63402E-04-3.25755E-06 0.00000E+00
 -1        21 1.62598E-04-1.13267E-05 0.00000E+00
 -1        24 2.84164E-05-1.11204E-05 0.00000E+00
 -1        25 1.69546E-04 2.59726E-05 0.00000E+00
 -1        26 1.70172E-04 2.04664E-06 0.00000E+00
 -1        27 1.68162E-04-6.56413E-06 0.00000E+00
 -1        28 1.67818E-04-1.19127E-05 0.00000E+00
 -1        32 0.00000E+00 0.00000E+00 0.00000E+00
 -1        33 1.76103E-04 2.74266E-06 0.00000E+00
 -1        34 1.74131E-04-6.60948E-06 0.00000E+00
 -1        35 1.72321E-04-1.22324E-05 0.00000E+00
 -1        51 1.72286E-03-1.03584E-07 0.00000E+00
 -1        52 1.72070E-03-1.93388E-07 0.00000E+00
 -1        53 1.71773E-03-2.81534E-07 0.00000E+00
 -1        54 1.71415E-03-3.70112E-07 0.00000E+00
 -1        55 1.71016E-03-4.60609E-07 4.13590E-24
 -1        56 1.72049E-03 6.71481E-08 0.00000E+00
 -1        57 1.71597E-03 2.44805E-06 5.29396E-23
 -1        58 1.71071E-03 6.78301E-06 0.00000E+00
 -1        59 1.70489E-03 1.25106E-05 0.00000E+00
 -1        60 1.69883E-03 1.88811E-05 0.00000E+00
 -1        61 1.69283E-03 2.50896E-05 0.00000E+00
 -1        62 1.68719E-03 3.03563E-05-1.05879E-22
 -1        63 1.68217E-03 3.39694E-05 0.00000E+00
 -1        64 1.67796E-03 3.54620E-05-1.05879E-22
 -1        65 1.67467E-03 3.45235E-05-5.29396E-23
 -1        66 1.67227E-03 3.12040E-05 0.00000E+00
 -1        67 1.67067E-03 2.57309E-05 5.29396E-23
 -1        68 1.66966E-03 1.86512E-05-1.05879E-22
 -1        69 1.66902E-03 1.06385E-05 0.00000E+00
 -1        70 1.66842E-03 2.49232E-06 0.00000E+00
 -1        86 1.61485E-03-7.79417E-07 0.00000E+00
 -1        87 1.62320E-03-1.58848E-06 1.32349E-23
 -1        88 1.63500E-03-2.42965E-06 0.00000E+00
 -1        89 1.64811E-03-3.28615E-06-1.32349E-23
 -1        90 1.65986E-03-4.12726E-06-2.64698E-23
 -1       121 2.93764E-04-5.55209E-07 0.00000E+00
 -1       122 2.91493E-04-1.11263E-06 6.61744E-24
 -1       123 2.87717E-04-1.67442E-06 0.00000E+00
 -1       124 2.82451E-04-2.24279E-06 6.61744E-24
 -1       125 2.75713E-04-2.81959E-06-1.32349E-23
 -1       191 1.58367E-04 1.23495E-07 1.65436E-24
 -1       192 1.58469E-04 2.46984E-07 6.20385E-25
 -1       193 1.58640E-04 3.70464E-07-1.65436E-24
 -1       194 1.58880E-04 4.93930E-07-1.03398E-24
 -1       195 1.59188E-04 6.17372E-07 2.89513E-24
 -1       251 1.70519E-03 1.87737E-05 0.00000E+00
 -1       252 1.70338E-03 6.90467E-05 0.00000E+00
 -1       253 1.70031E-03 1.41232E-04 0.00000E+00
 -1       254 1.69631E-03 2.25792E-04 0.00000E+00
 -1       255 1.69235E-03 3.09788E-04 0.00000E+00
 -1       256 1.68940E-03 3.80295E-04 6.61744E-24
 -1       257 1.68769E-03 4.28090E-04 0.00000E+00
 -1       258 1.68696E-03 4.44475E-04 0.00000E+00
 -1       259 1.68624E-03 4.28949E-04 1.32349E-23
 -1       260 1.68457E-03 3.81801E-04-6.61744E-24
 -1       261 1.68163E-03 3.11567E-04 0.00000E+00
 -1       262 1.67765E-03 2.27313E-04-6.61744E-24
 -1       263 1.67358E-03 1.41954E-04 1.32349E-23
 -1       264 1.67041E-03 6.84293E-05 0.00000E+00
 -1       265 1.66851E-03 1.64058E-05 0.00000E+00
 -1       266 1.70232E-03-5.74974E-07-3.30872E-24
 -1       267 1.69868E-03-5.83057E-07 8.27181E-25
 -1       268 1.69504E-03-5.91717E-07 0.00000E+00
 -1       269 1.69140E-03-5.98666E-07 2.06795E-25
 -1       270 1.68776E-03-6.05575E-07 2.06795E-25
 -1       271 1.70370E-03 2.81965E-06 0.00000E+00
 -1       272 1.70140E-03 6.21482E-06 0.00000E+00
 -1       273 1.69914E-03 9.51303E-06-2.64698E-23
 -1       274 1.69696E-03 1.25873E-05 1.32349E-23
 -1       275 1.69490E-03 1.53169E-05 2.64698E-23
 -1       276 1.69302E-03 1.75833E-05-1.32349E-23
 -1       277 1.69136E-03 1.92737E-05 2.64698E-23
 -1       278 1.68996E-03 2.02814E-05 0.00000E+00
 -1       279 1.68885E-03 2.05082E-05 0.00000E+00
 -1       280 1.68807E-03 1.98640E-05-1.32349E-23
 -1       281 1.68764E-03 1.82695E-05 0.00000E+00
 -1       282 1.68759E-03 1.56556E-05-1.32349E-23
 -1       283 1.68794E-03 1.19655E-05 2.64698E-23
 -1       284 1.68871E-03 7.15502E-06-1.32349E-23
 -1       285 1.68991E-03 1.19142E-06 0.00000E+00
 -1       301 1.67202E-03-5.12046E-06-1.32349E-23
 -1       302 1.67539E-03-5.27963E-06 3.30872E-24
 -1       303 1.67840E-03-5.43533E-06 1.32349E-23
 -1       304 1.68168E-03-5.59106E-06-1.32349E-23
 -1       305 1.68586E-03-5.75170E-06 0.00000E+00
 -1       306 1.69819E-03-1.20679E-04 0.00000E+00
 -1       307 1.76170E-03-4.43986E-04-5.29396E-23
 -1       308 1.82591E-03-9.23341E-04 1.05879E-22
 -1       309 1.88035E-03-1.48668E-03 0.00000E+00
 -1       310 1.93650E-03-2.03669E-03 1.05879E-22
 -1       311 2.00280E-03-2.47733E-03 0.00000E+00
 -1       312 2.06100E-03-2.74369E-03 0.00000E+00
 -1       313 2.07311E-03-2.79616E-03 0.00000E+00
 -1       314 1.99302E-03-2.63853E-03 0.00000E+00
 -1       315 1.79085E-03-2.30745E-03 0.00000E+00
 -1       316 1.47757E-03-1.86131E-03 0.00000E+00
 -1       317 1.09476E-03-1.35915E-03-5.29396E-23
 -1       318 7.18697E-04-8.62242E-04 0.00000E+00
 -1       319 4.23739E-04-4.32705E-04 0.00000E+00
 -1       320 2.44382E-04-1.29146E-04 0.00000E+00
 -1       336 2.57743E-04-4.05330E-06 0.00000E+00
 -1       337 2.46206E-04-4.71756E-06-6.61744E-24
 -1       338 2.32969E-04-5.40163E-06 0.00000E+00
 -1       339 2.18096E-04-6.10581E-06-6.61744E-24
 -1       340 2.01658E-04-6.83363E-06-1.32349E-23
 -1       406 1.60009E-04 8.64158E-07 2.06795E-24
 -1       407 1.60522E-04 9.87459E-07-1.03398E-24
 -1       408 1.61104E-04 1.11065E-06-2.48154E-24
 -1       409 1.61754E-04 1.23358E-06 8.27181E-25
 -1       410 1.62473E-04 1.35600E-06-1.65436E-24
 -1       521 1.72307E-03-1.30232E-04 0.00000E+00
 -1       522 1.78657E-03-4.72661E-04 0.00000E+00
 -1       523 1.84766E-03-9.79023E-04 0.00000E+00
 -1       524 1.89656E-03-1.57158E-03-5.29396E-23
 -1       525 1.94771E-03-2.14937E-03 1.05879E-22
 -1       526 2.01202E-03-2.61292E-03-5.29396E-23
 -1       527 2.07046E-03-2.89202E-03-1.05879E-22
 -1       528 2.08172E-03-2.94580E-03 5.29396E-23
 -1       529 1.99408E-03-2.77744E-03-1.05879E-22
 -1       530 1.77508E-03-2.42882E-03-5.29396E-23
 -1       531 1.43567E-03-1.96147E-03 0.00000E+00
 -1       532 1.02167E-03-1.43780E-03 0.00000E+00
 -1       533 6.14376E-04-9.18987E-04-1.05879E-22
 -1       534 2.93113E-04-4.67141E-04-5.29396E-23
 -1       535 9.67818E-05-1.44679E-04 1.05879E-22
 -1       536 1.83220E-04 2.26751E-05-6.61744E-24
 -1       537 1.81788E-04 7.60952E-05 0.00000E+00
 -1       538 1.79495E-04 1.44576E-04-1.65436E-24
 -1       539 1.76722E-04 2.19993E-04 0.00000E+00
 -1       540 1.74230E-04 2.91320E-04-1.65436E-24
 -1       541 1.72668E-04 3.47533E-04 0.00000E+00
 -1       542 1.71996E-04 3.83059E-04 1.65436E-24
 -1       543 1.71890E-04 3.92369E-04 0.00000E+00
 -1       544 1.71702E-04 3.76100E-04 0.00000E+00
 -1       545 1.70826E-04 3.34964E-04 0.00000E+00
 -1       546 1.69114E-04 2.75963E-04 8.27181E-25
 -1       547 1.66729E-04 2.06134E-04 0.00000E+00
 -1       548 1.64374E-04 1.36747E-04-8.27181E-25
 -1       549 1.62735E-04 7.90729E-05 0.00000E+00
 -1       550 1.61935E-04 3.98484E-05 0.00000E+00
 -1       551 1.62217E-04-8.06142E-06 0.00000E+00
 -1       552 1.37761E-04-8.61134E-06 3.30872E-24
 -1       553 1.11249E-04-9.20884E-06 7.44463E-24
 -1       554 8.35867E-05-9.83726E-06 3.30872E-24
 -1       555 5.56762E-05-1.04745E-05 0.00000E+00
 -1       556 1.77312E-04 8.88762E-06 0.00000E+00
 -1       557 1.72149E-04 2.21679E-05 0.00000E+00
 -1       558 1.68126E-04 3.25212E-05 0.00000E+00
 -1       559 1.65128E-04 4.02202E-05 0.00000E+00
 -1       560 1.63041E-04 4.55379E-05 0.00000E+00
 -1       561 1.61756E-04 4.87490E-05 0.00000E+00
 -1       562 1.61164E-04 5.01297E-05 0.00000E+00
 -1       563 1.61156E-04 4.99563E-05 0.00000E+00
 -1       564 1.61627E-04 4.85063E-05 0.00000E+00
 -1       565 1.62471E-04 4.60574E-05 0.00000E+00
 -1       566 1.63584E-04 4.28877E-05 0.00000E+00
 -1       567 1.64861E-04 3.92758E-05 0.00000E+00
 -1       568 1.66199E-04 3.55003E-05-4.13590E-25
 -1       569 1.67495E-04 3.18396E-05 0.00000E+00
 -1       570 1.68644E-04 2.85723E-05 0.00000E+00
 -1       571 1.61868E-04 2.41951E-05 1.65436E-24
 -1       572 1.61960E-04 2.25578E-05 1.24077E-24
 -1       573 1.62052E-04 2.08768E-05 0.00000E+00
 -1       574 1.62144E-04 1.91662E-05 0.00000E+00
 -1       575 1.62237E-04 1.74399E-05-3.30872E-24
 -1       576 1.62330E-04 1.57122E-05-1.65436E-24
 -1       577 1.62422E-04 1.39973E-05 3.30872E-24
 -1       578 1.62515E-04 1.23094E-05 0.00000E+00
 -1       579 1.62608E-04 1.06627E-05 0.00000E+00
 -1       580 1.62700E-04 9.07128E-06 0.00000E+00
 -1       581 1.62793E-04 7.54948E-06-6.61744E-24
 -1       582 1.62886E-04 6.11141E-06-3.30872E-24
 -1       583 1.62979E-04 4.77126E-06 0.00000E+00
 -1       584 1.63073E-04 3.54304E-06 0.00000E+00
 -1       585 1.63166E-04 2.44065E-06 0.00000E+00
 -1       586 1.63027E-04 2.58101E-05-1.65436E-24
 -1       587 1.64242E-04 2.58444E-05-2.06795E-25
 -1       588 1.65462E-04 2.58783E-05-8.27181E-25
 -1       589 1.66726E-04 2.59117E-05 0.00000E+00
 -1       590 1.68075E-04 2.59439E-05 0.00000E+00
 -1       591 1.62313E-04 2.42741E-05 0.00000E+00
 -1       592 1.62852E-04 2.27532E-05-2.06795E-25
 -1       593 1.63396E-04 2.12179E-05-8.27181E-25
 -1       594 1.63943E-04 1.96728E-05 4.13590E-25
 -1       595 1.64492E-04 1.81225E-05 0.00000E+00
 -1       596 1.65041E-04 1.65718E-05 0.00000E+00
 -1       597 1.65589E-04 1.50251E-05-8.27181E-25
 -1       598 1.66133E-04 1.34872E-05 0.00000E+00
 -1       599 1.66673E-04 1.19624E-05 8.27181E-25
 -1       600 1.67205E-04 1.04555E-05 4.13590E-25
 -1       601 1.67730E-04 8.97097E-06-4.13590E-25
 -1       602 1.68244E-04 7.51346E-06-2.06795E-25
 -1       603 1.68747E-04 6.08755E-06-4.13590E-25
 -1       604 1.69236E-04 4.69792E-06 1.03398E-25
 -1       605 1.69711E-04 3.34907E-06 0.00000E+00
 -1       606 1.63272E-04 7.23751E-07 0.00000E+00
 -1       607 1.63282E-04 5.85468E-08-1.65436E-24
 -1       608 1.63291E-04-5.23976E-07 0.00000E+00
 -1       609 1.63300E-04-1.02963E-06 0.00000E+00
 -1       610 1.63308E-04-1.46428E-06 0.00000E+00
 -1       611 1.63317E-04-1.83386E-06 0.00000E+00
 -1       612 1.63326E-04-2.14429E-06 0.00000E+00
 -1       613 1.63334E-04-2.40153E-06 0.00000E+00
 -1       614 1.63343E-04-2.61151E-06 0.00000E+00
 -1       615 1.63351E-04-2.78018E-06 0.00000E+00
 -1       616 1.63360E-04-2.91349E-06 0.00000E+00
 -1       617 1.63369E-04-3.01737E-06 0.00000E+00
 -1       618 1.63377E-04-3.09778E-06 0.00000E+00
 -1       619 1.63386E-04-3.16065E-06-2.06795E-25
 -1       620 1.63394E-04-3.21193E-06 0.00000E+00
 -1       621 1.64181E-04 1.57216E-06 0.00000E+00
 -1       622 1.65231E-04 1.66780E-06 0.00000E+00
 -1       623 1.66381E-04 1.76330E-06 1.65436E-24
 -1       624 1.67606E-04 1.85856E-06 0.00000E+00
 -1       625 1.68878E-04 1.95358E-06 1.65436E-24
 -1       626 1.63646E-04 7.57206E-07 0.00000E+00
 -1       627 1.64009E-04 1.04244E-07 0.00000E+00
 -1       628 1.64350E-04-4.89864E-07 0.00000E+00
 -1       629 1.64672E-04-1.03323E-06 1.65436E-24
 -1       630 1.64978E-04-1.53399E-06 0.00000E+00
 -1       631 1.65271E-04-2.00030E-06 0.00000E+00
 -1       632 1.65555E-04-2.44032E-06-3.30872E-24
 -1       633 1.65831E-04-2.86221E-06 0.00000E+00
 -1       634 1.66104E-04-3.27413E-06-3.30872E-24
 -1       635 1.66377E-04-3.68424E-06 1.65436E-24
 -1       636 1.66651E-04-4.10069E-06 3.30872E-24
 -1       637 1.66931E-04-4.53166E-06 1.65436E-24
 -1       638 1.67220E-04-4.98530E-06-1.65436E-24
 -1       639 1.67519E-04-5.46979E-06 0.00000E+00
 -1       640 1.67833E-04-5.99330E-06 1.65436E-24
 -1       656 1.63674E-04-3.79514E-06-6.61744E-24
 -1       657 1.64352E-04-4.35448E-06 0.00000E+00
 -1       658 1.65298E-04-4.91241E-06-1.32349E-23
 -1       659 1.66366E-04-5.46998E-06 0.00000E+00
 -1       660 1.67380E-04-6.02925E-06 0.00000E+00
 -1       661 1.63505E-04-3.34412E-06 0.00000E+00
 -1       662 1.63642E-04-3.51418E-06 0.00000E+00
 -1       663 1.63809E-04-3.76328E-06 0.00000E+00
 -1       664 1.64004E-04-4.08572E-06-8.27181E-25
 -1       665 1.64225E-04-4.47643E-06-1.65436E-24
 -1       666 1.64469E-04-4.93026E-06 8.27181E-25
 -1       667 1.64735E-04-5.44231E-06 1.65436E-24
 -1       668 1.65021E-04-6.00773E-06 8.27181E-25
 -1       669 1.65325E-04-6.62183E-06-1.65436E-24
 -1       670 1.65646E-04-7.28003E-06 8.27181E-25
 -1       671 1.65982E-04-7.97785E-06 0.00000E+00
 -1       672 1.66330E-04-8.71094E-06 0.00000E+00
 -1       673 1.66690E-04-9.47495E-06 1.65436E-24
 -1       674 1.67060E-04-1.02659E-05 0.00000E+00
 -1       675 1.67438E-04-1.10793E-05 0.00000E+00
 -1       676 1.63471E-04-1.14249E-05-3.30872E-24
 -1       677 1.64343E-04-1.15231E-05-1.65436E-24
 -1       678 1.65215E-04-1.16213E-05 3.30872E-24
 -1       679 1.66085E-04-1.17192E-05 0.00000E+00
 -1       680 1.66952E-04-1.18170E-05-1.65436E-24
 -1       771 1.82054E-05 1.15042E-05 0.00000E+00
 -1       772 9.58545E-06 3.00826E-05 0.00000E+00
 -1       773 2.48044E-06 4.48143E-05 0.00000E+00
 -1       774-3.21284E-06 5.59220E-05 0.00000E+00
 -1       775-7.59572E-06 6.36359E-05 0.00000E+00
 -1       776-1.07736E-05 6.82001E-05 0.00000E+00
 -1       777-1.28520E-05 6.98661E-05-5.29396E-23
 -1       778-1.39387E-05 6.88965E-05 0.00000E+00
 -1       779-1.41412E-05 6.55607E-05 0.00000E+00
 -1       780-1.35687E-05 6.01369E-05 2.64698E-23
 -1       781-1.23301E-05 5.29086E-05 5.29396E-23
 -1       782-1.05355E-05 4.41664E-05 2.64698E-23
 -1       783-8.29458E-06 3.42043E-05 5.29396E-23
 -1       784-5.71808E-06 2.33213E-05 2.64698E-23
 -1       785-2.91605E-06 1.18188E-05 0.00000E+00
 -1       786 1.69581E-04 2.42543E-05 0.00000E+00
 -1       787 1.69620E-04 2.25843E-05 0.00000E+00
 -1       788 1.69658E-04 2.09550E-05-8.27181E-25
 -1       789 1.69697E-04 1.93588E-05 0.00000E+00
 -1       790 1.69736E-04 1.77912E-05 0.00000E+00
 -1       791 1.69776E-04 1.62479E-05 8.27181E-25
 -1       792 1.69815E-04 1.47266E-05 0.00000E+00
 -1       793 1.69854E-04 1.32252E-05-8.27181E-25
 -1       794 1.69894E-04 1.17434E-05 0.00000E+00
 -1       795 1.69934E-04 1.02808E-05-8.27181E-25
 -1       796 1.69973E-04 8.83893E-06 0.00000E+00
 -1       797 1.70013E-04 7.41935E-06 8.27181E-25
 -1       798 1.70052E-04 6.02561E-06-1.65436E-24
 -1       799 1.70092E-04 4.66136E-06 0.00000E+00
 -1       800 1.70132E-04 3.33289E-06 1.65436E-24
 -1       801 1.31622E-04 2.32012E-05 2.64698E-23
 -1       802 1.66486E-05 1.47529E-05 0.00000E+00
 -1       803-8.27502E-05 7.65628E-06 0.00000E+00
 -1       804-7.54762E-05 5.26362E-06 0.00000E+00
 -1       805-2.51911E-05 2.19382E-06-5.29396E-23
 -1       806 1.70083E-04 2.41921E-05 1.65436E-24
 -1       807 1.70606E-04 2.24389E-05 0.00000E+00
 -1       808 1.71116E-04 2.07174E-05 3.30872E-24
 -1       809 1.71613E-04 1.90311E-05 0.00000E+00
 -1       810 1.72096E-04 1.73834E-05 0.00000E+00
 -1       811 1.72562E-04 1.57776E-05 0.00000E+00
 -1       812 1.73012E-04 1.42169E-05 0.00000E+00
 -1       813 1.73444E-04 1.27047E-05 0.00000E+00
 -1       814 1.73856E-04 1.12442E-05-1.65436E-24
 -1       815 1.74248E-04 9.83873E-06-8.27181E-25
 -1       816 1.74618E-04 8.49151E-06-1.65436E-24
 -1       817 1.74965E-04 7.20578E-06-8.27181E-25
 -1       818 1.75288E-04 5.98480E-06-1.65436E-24
 -1       819 1.75586E-04 4.83183E-06-1.65436E-24
 -1       820 1.75857E-04 3.75006E-06 1.65436E-24
 -1       821 1.70053E-04 5.71933E-07 8.27181E-25
 -1       822 1.69926E-04-1.31896E-06 1.65436E-24
 -1       823 1.69800E-04-3.42678E-06 0.00000E+00
 -1       824 1.69671E-04-5.55101E-06 0.00000E+00
 -1       825 1.69544E-04-7.48715E-06 0.00000E+00
 -1       826 1.69416E-04-9.03175E-06 0.00000E+00
 -1       827 1.69289E-04-1.00813E-05 3.30872E-24
 -1       828 1.69163E-04-1.05352E-05 0.00000E+00
 -1       829 1.69036E-04-1.04449E-05 0.00000E+00
 -1       830 1.68910E-04-9.86491E-06 0.00000E+00
 -1       831 1.68783E-04-8.97473E-06 0.00000E+00
 -1       832 1.68656E-04-7.95571E-06 0.00000E+00
 -1       833 1.68530E-04-7.02211E-06 3.30872E-24
 -1       834 1.68405E-04-6.38767E-06 0.00000E+00
 -1       835 1.68280E-04-6.18998E-06 8.27181E-25
 -1       836 1.71354E-04 2.16220E-06 3.30872E-24
 -1       837 1.72419E-04 2.28057E-06-1.65436E-24
 -1       838 1.73398E-04 2.39884E-06 3.30872E-24
 -1       839 1.74318E-04 2.51642E-06 0.00000E+00
 -1       840 1.75211E-04 2.63384E-06-8.27181E-25
 -1       856 1.68145E-04-7.15626E-06 0.00000E+00
 -1       857 1.68123E-04-7.61998E-06-2.58494E-26
 -1       858 1.68102E-04-7.97528E-06 0.00000E+00
 -1       859 1.68081E-04-8.24225E-06 2.06795E-25
 -1       860 1.68059E-04-8.44103E-06 4.13590E-25
 -1       861 1.68038E-04-8.59183E-06-4.13590E-25
 -1       862 1.68016E-04-8.71489E-06 0.00000E+00
 -1       863 1.67994E-04-8.83048E-06 0.00000E+00
 -1       864 1.67972E-04-8.95887E-06 8.27181E-25
 -1       865 1.67951E-04-9.12033E-06 0.00000E+00
 -1       866 1.67929E-04-9.33509E-06 8.27181E-25
 -1       867 1.67907E-04-9.62335E-06 0.00000E+00
 -1       868 1.67885E-04-1.00052E-05 8.27181E-25
 -1       869 1.67863E-04-1.05008E-05 0.00000E+00
 -1       870 1.67841E-04-1.11300E-05-8.27181E-25
 -1       871 1.69023E-04-6.56762E-06 0.00000E+00
 -1       872 1.70020E-04-6.57420E-06 0.00000E+00
 -1       873 1.71093E-04-6.58139E-06 0.00000E+00
 -1       874 1.72177E-04-6.58928E-06-1.55096E-25
 -1       875 1.73211E-04-6.59773E-06 1.44757E-24
 -1       876 1.68504E-04-7.14283E-06 0.00000E+00
 -1       877 1.68825E-04-7.65855E-06 0.00000E+00
 -1       878 1.69125E-04-8.11883E-06 3.30872E-24
 -1       879 1.69407E-04-8.53066E-06-1.65436E-24
 -1       880 1.69674E-04-8.90105E-06-3.30872E-24
 -1       881 1.69928E-04-9.23697E-06 0.00000E+00
 -1       882 1.70172E-04-9.54538E-06 3.30872E-24
 -1       883 1.70408E-04-9.83324E-06 1.65436E-24
 -1       884 1.70639E-04-1.01075E-05 0.00000E+00
 -1       885 1.70867E-04-1.03751E-05-1.65436E-24
 -1       886 1.71096E-04-1.06429E-05 0.00000E+00
 -1       887 1.71327E-04-1.09180E-05 0.00000E+00
 -1       888 1.71563E-04-1.12073E-05-3.30872E-24
 -1       889 1.71806E-04-1.15179E-05 1.65436E-24
 -1       890 1.72060E-04-1.18566E-05 0.00000E+00
 -1       891 1.68704E-04-1.19664E-05 1.65436E-24
 -1       892 1.69568E-04-1.20202E-05 0.00000E+00
 -1       893 1.70386E-04-1.20739E-05 8.27181E-25
 -1       894 1.71133E-04-1.21274E-05 0.00000E+00
 -1       895 1.71786E-04-1.21807E-05 4.13590E-25
 -1       956 1.75982E-04 1.89302E-06-3.30872E-24
 -1       957 1.75858E-04 1.12576E-06 0.00000E+00
 -1       958 1.75735E-04 4.31286E-07-1.65436E-24
 -1       959 1.75611E-04-2.00540E-07 0.00000E+00
 -1       960 1.75488E-04-7.79881E-07-3.30872E-24
 -1       961 1.75364E-04-1.31694E-06 0.00000E+00
 -1       962 1.75240E-04-1.82192E-06-3.30872E-24
 -1       963 1.75117E-04-2.30506E-06 0.00000E+00
 -1       964 1.74993E-04-2.77657E-06 3.30872E-24
 -1       965 1.74869E-04-3.24667E-06-1.65436E-24
 -1       966 1.74746E-04-3.72561E-06 0.00000E+00
 -1       967 1.74622E-04-4.22358E-06 0.00000E+00
 -1       968 1.74499E-04-4.75082E-06 0.00000E+00
 -1       969 1.74375E-04-5.31751E-06 0.00000E+00
 -1       970 1.74252E-04-5.93381E-06 0.00000E+00
 -1       971 1.74019E-04-7.28004E-06-1.65436E-24
 -1       972 1.73905E-04-7.85963E-06-1.65436E-24
 -1       973 1.73792E-04-8.35827E-06-3.30872E-24
 -1       974 1.73678E-04-8.78640E-06 1.65436E-24
 -1       975 1.73564E-04-9.15443E-06 0.00000E+00
 -1       976 1.73450E-04-9.47283E-06 1.65436E-24
 -1       977 1.73337E-04-9.75207E-06-3.30872E-24
 -1       978 1.73223E-04-1.00026E-05 1.65436E-24
 -1       979 1.73109E-04-1.02350E-05 0.00000E+00
 -1       980 1.72995E-04-1.04596E-05-1.65436E-24
 -1       981 1.72882E-04-1.06871E-05-3.30872E-24
 -1       982 1.72768E-04-1.09277E-05 0.00000E+00
 -1       983 1.72654E-04-1.11922E-05-3.30872E-24
 -1       984 1.72541E-04-1.14908E-05 1.65436E-24
 -1       985 1.72429E-04-1.18341E-05-3.30872E-24
 -3
    1PSTEP                        26          13           1          
  100CL  113 6.27563E-01         409                     0   13           1
 -4  STRESS      6    1
 -5  SXX         1    4    1    1
 -5  SYY         1    4    2    2
 -5  SZZ         1    4    3    3
 -5  SXY         1    4    1    2
 -5  SYZ         1    4    2    3
 -5  SZX         1    4    3    1
 -1         1-4.12616E+06-1.56387E+06-9.06506E+05-1.57656E+06-5.82077E-10 2.94240E-08
 -1         2 1.18770E+03-2.18189E+06 5.42298E+03 5.29244E+04 1.13420E-09 1.74443E-07
 -1         3-1.05463E+03-1.57939E+06 3.90437E+02-1.88992E+03-2.84238E-10-4.65297E-09
 -1         5-3.39636E+01 3.53492E+05 9.05216E+00-7.52761E-01-2.53903E-10 2.11730E-09
 -1         8-6.98211E+05-2.35588E+05-6.04836E+04-2.94409E+05 2.78305E-10-3.19160E-08
 -1         9 5.95118E+06-7.08909E+05 1.02362E+06-1.00969E+06 3.01516E-08-2.66824E-08
 -1        10-1.96354E+03-1.64576E+06-3.57144E+03-1.27713E+04-1.16270E-08-2.66274E-08
 -1        12-3.03148E+01 3.53512E+05 2.95245E+02-5.31338E+00-4.17185E-10 2.18242E-08
 -1        15 1.34743E+03 7.40484E+02 4.35554E+03 2.12104E+00-8.46967E-12 2.62829E-07
 -1        16 1.36263E+07-2.27595E+05 1.94325E+06-1.20279E+06 2.07607E-08-1.80444E-08
 -1        17 4.91711E+06 3.33227E+06 1.32619E+06 3.30944E+06 8.45757E-09 1.59256E-08
 -1        18 1.74812E+05 4.05390E+04 1.49084E+04-9.61605E+04 1.39489E-08 2.68756E-09
 -1        19 1.13121E+05 1.30137E+05-8.98501E+02 2.10216E+04 1.07921E-09 6.49015E-10
 -1        20-7.15630E+04-5.32166E+05-1.19103E+05 2.58761E+04-8.45375E-10 1.56312E-09
 -1        21-4.40749E+01-2.80206E+05-8.79762E+02 1.67731E+02-2.79401E-08 1.15834E-08
 -1        24 7.82995E+06 6.67925E+06 2.28283E+06 6.19239E+06-1.29730E-07-4.94571E-08
 -1        25 3.44015E+04-4.63494E+04 1.92455E+04-4.66751E+05-2.97987E-09-1.80808E-10
 -1        26-5.16570E+04 8.42050E+04-2.32227E+04 1.54192E+02 8.10905E-10-2.49166E-09
 -1        27-7.22774E+04-2.88071E+05-1.05848E+05 6.43021E+04 3.93842E-09 3.55218E-09
 -1        28 2.12051E+04-8.02198E+04 1.59758E+04 2.03820E+04-2.51219E-09 9.87428E-09
 -1        32-1.58724E+06-2.86637E+06-1.61318E+05 1.47870E+05-3.61833E-08-7.45842E-09
 -1        33-1.67098E+05 8.54260E+04 2.99935E+04-3.60202E+04-2.02692E-09 2.53749E-10
 -1        34-2.09248E+05-2.28252E+04 6.23419E+02 6.95910E+04-2.81463E-09 7.82378E-09
 -1        35-2.17791E+04-3.18264E+04-1.26461E+03 4.87723E+04-8.53944E-10-1.17604E-08
 -1        51 4.58028E+04-2.28867E+05 9.98597E+04-6.73008E+05-1.16415E-10 1.59052E-08
 -1        52 1.69849E+04-2.13449E+05 5.44836E+04-7.84640E+05 4.25644E-10 6.49306E-08
 -1        53 5.25640E+03-2.28684E+05 3.16853E+04-6.70544E+05 6.91216E-10-7.79546E-08
 -1        54 1.23958E+04-2.25382E+05 3.27428E+04-7.87215E+05-1.09139E-10-3.48700E-07
 -1        55 2.58260E+04-2.35411E+05 4.76588E+04-6.70177E+05 5.45697E-10-1.53912E-07
 -1        56-7.80281E+06-8.86298E+05-6.70733E+05-3.05242E+06-1.70985E-08-1.65659E-07
 -1        57-8.20250E+06-1.35910E+06-4.51677E+05-2.87162E+06 3.42152E-08 5.53846E-08
 -1        58-7.90388E+06-1.13140E+06-1.57568E+05-3.04646E+06-5.24233E-09 8.20582E-08
 -1        59-8.09187E+06-1.06624E+06-9.37971E+04-2.87561E+06 8.24366E-09-7.78482E-08
 -1        60-7.91281E+06-1.17083E+06-3.65585E+04-3.05181E+06-2.13936E-08-5.31381E-08
 -1        61-8.06475E+06-1.03515E+06-2.05934E+04-2.88609E+06 2.01464E-09-7.80819E-08
 -1        62-7.93017E+06-1.16172E+06-1.02856E+04-3.03596E+06-8.65930E-09 3.39951E-08
 -1        63-8.01351E+06-1.07564E+06-7.47181E+03-2.93509E+06 1.24928E-08 2.73128E-07
 -1        64-7.96199E+06-1.13157E+06-1.00129E+04-3.00136E+06 9.00400E-10 1.02420E-08
 -1        65-7.94977E+06-1.14434E+06-1.76914E+04-3.00802E+06-4.17613E-08-2.73147E-07
 -1        66-7.99336E+06-1.09354E+06-3.29620E+04-2.96258E+06-8.96398E-09-1.36811E-07
 -1        67-7.91552E+06-1.23232E+06-8.22293E+04-3.07042E+06-8.19819E-09-5.62677E-08
 -1        68-7.99843E+06-1.04328E+06-1.38444E+05-2.94005E+06 1.92667E-08-9.58680E-08
 -1        69-8.02681E+06-1.48124E+06-3.97595E+05-3.06156E+06-3.35494E-08-1.13709E-07
 -1        70-7.88568E+06-8.49948E+05-5.89296E+05-2.97071E+06 1.63709E-08-1.00204E-07
 -1        86-1.29628E+03-2.22577E+06-3.63794E+03-2.64558E+04-9.35140E-09 4.80450E-08
 -1        87 1.26643E+03-2.19824E+06 1.88045E+03 8.54010E+04-1.56451E-08 2.19038E-08
 -1        88 3.66399E+01-2.21107E+06-1.52881E+03-5.89388E+04-1.60738E-08 4.26952E-08
 -1        89-2.69852E+02-2.20752E+06-2.65145E+03 1.05291E+05-2.33028E-08-1.68992E-07
 -1        90 9.70805E+02-2.21735E+06-7.63022E+03-4.63572E+04-9.98830E-09-2.99710E-08
 -1       121-1.45818E+03-1.58294E+06-2.70112E+02 9.39152E+02 1.27244E-09-7.57427E-09
 -1       122-8.86429E+02-1.57941E+06 7.73335E+02-3.77818E+03-4.51253E-09 1.67111E-08
 -1       123-1.49796E+03-1.58306E+06 5.75019E+02 2.80448E+03 3.68107E-09-3.96176E-09
 -1       124 7.16626E+02-1.57882E+06 3.05901E+03-7.90173E+03-8.59563E-09 1.48066E-09
 -1       125-2.35769E+03-1.58395E+06 3.94704E+03 5.03621E+03 5.39876E-09 1.19435E-08
 -1       191-3.59435E+01 3.53517E+05 9.43232E+00 3.85246E-01-3.40594E-10-1.98816E-09
 -1       192-3.48132E+01 3.53493E+05 1.92331E+01-2.60671E+00-5.84667E-10-1.64791E-08
 -1       193-3.81928E+01 3.53516E+05 3.44184E+01 2.27662E+00-7.94433E-10 6.57928E-09
 -1       194-3.75430E+01 3.53496E+05 7.29109E+01-5.98689E+00-3.91583E-10 1.75605E-08
 -1       195-4.25128E+01 3.53514E+05 1.41261E+02 3.83088E+00-9.56600E-10 2.09275E-08
 -1       251-2.02462E+06-3.25995E+04-1.89500E+05-1.32237E+05 3.24508E-09 3.92829E-08
 -1       252-1.11388E+06 4.10494E+04 5.06665E+04 4.07822E+05 1.83586E-08 6.92244E-08
 -1       253-1.62414E+06-1.42976E+04-3.30656E+04-2.72018E+05-8.38463E-09-5.98593E-08
 -1       254-1.54152E+06 5.90673E+04 8.73177E+03 5.40905E+05 3.38730E-09-1.63019E-07
 -1       255-1.63929E+06-1.61125E+04-1.89838E+04-2.69052E+05 2.17415E-08 9.09404E-08
 -1       256-1.07644E+06 4.78345E+04 1.03247E+05 3.95272E+05 2.82807E-08 6.03818E-08
 -1       257-2.04370E+06-4.01471E+04-1.02213E+05-1.22496E+05 1.88902E-08 4.55736E-08
 -1       258-6.20527E+05 3.60936E+04 1.89592E+05 5.08690E+03 1.56433E-10 1.60470E-07
 -1       259-2.05038E+06-4.08083E+04-1.02010E+05 1.18750E+05-5.25324E-09 1.52863E-07
 -1       260-1.06046E+06 4.93640E+04 1.10862E+05-3.88278E+05 1.63345E-08-2.11663E-07
 -1       261-1.64705E+06-1.82173E+04-1.19772E+04 2.68316E+05 4.16630E-08 9.49774E-08
 -1       262-1.53622E+06 6.97491E+04 3.02695E+04-5.39525E+05-5.97402E-09-1.80645E-07
 -1       263-1.62158E+06-2.29111E+04 2.69254E+03 2.73996E+05 5.40422E-09 5.36384E-08
 -1       264-1.09963E+06 1.07569E+05 1.41333E+05-4.13860E+05 1.17282E-07 2.38568E-07
 -1       265-2.04291E+06-8.90360E+04-5.49825E+04 1.38981E+05 4.56566E-08-5.10190E-08
 -1       266-2.43928E+04-1.14061E+04 5.72325E+04-4.53836E+01-1.30967E-10-1.21328E-08
 -1       267 2.82781E+04 1.32941E+04 4.04511E+04 5.23636E+01 1.01409E-10-1.30487E-07
 -1       268-3.79204E+03-1.88281E+03 1.50355E+04-6.67204E+00-7.91260E-11-5.42409E-08
 -1       269 4.47728E+03 2.25332E+03 9.77283E+03 7.77192E+00 3.27418E-11 4.77772E-08
 -1       270-6.72046E+02-3.70238E+02 4.71748E+03-1.05470E+00-1.10845E-10-6.69240E-09
 -1       271-2.21664E+06-2.68454E+05-1.65351E+05-8.50902E+05-8.36735E-09-5.10263E-08
 -1       272-2.32553E+06-3.40669E+05-1.06465E+05-7.94548E+05 3.46336E-09-9.16043E-09
 -1       273-2.24656E+06-3.11028E+05-3.90192E+04-8.44891E+05 1.92658E-08 6.55818E-08
 -1       274-2.29015E+06-2.88681E+05-2.18991E+04-8.03836E+05 1.04519E-08 7.27978E-08
 -1       275-2.25098E+06-3.15298E+05-9.09251E+03-8.43427E+05 2.82216E-09 6.79447E-08
 -1       276-2.28352E+06-2.84714E+05-4.78028E+03-8.06768E+05 1.25765E-08-5.30117E-08
 -1       277-2.25272E+06-3.14691E+05-2.39527E+03-8.41889E+05 8.99126E-09 4.09714E-08
 -1       278-2.27957E+06-2.87161E+05-1.52693E+03-8.10001E+05 1.33073E-08-1.03140E-07
 -1       279-2.25444E+06-3.13101E+05-1.72213E+03-8.39874E+05-4.85306E-09-3.91824E-08
 -1       280-2.27551E+06-2.91366E+05-2.67526E+03-8.14068E+05 5.49635E-08 1.38489E-07
 -1       281-2.25629E+06-3.10819E+05-5.18028E+03-8.37468E+05 3.69619E-09 4.64997E-08
 -1       282-2.27292E+06-2.99187E+05-1.17666E+04-8.18543E+05-1.64910E-08-7.67432E-09
 -1       283-2.25666E+06-3.05841E+05-2.13713E+04-8.35001E+05 1.92813E-10-2.57278E-08
 -1       284-2.28607E+06-3.32916E+05-5.74367E+04-8.19810E+05 1.35851E-08-9.72827E-08
 -1       285-2.24330E+06-2.80141E+05-8.97586E+04-8.34984E+05-2.81070E-08-3.41824E-08
 -1       301 1.61061E+04-4.26630E+05 1.73512E+05-7.57188E+05 3.20142E-10 1.27795E-07
 -1       302 1.75280E+04-3.82593E+05 1.06622E+05-1.10708E+06-1.17871E-09 5.48389E-08
 -1       303-4.36442E+03-4.11783E+05 6.74094E+04-7.55318E+05 9.02219E-10-8.30005E-09
 -1       304 7.30895E+03-3.85674E+05 8.02635E+04-1.10641E+06-2.03727E-10 2.19137E-07
 -1       305 3.44127E+03-4.13724E+05 1.14509E+05-7.57740E+05 5.52973E-10-3.56667E-08
 -1       306-2.19324E+07-4.26409E+06-5.72955E+06-1.60146E+06-8.38772E-08 1.60071E-08
 -1       307 1.62437E+07 4.71392E+05 3.60359E+06-1.00479E+07-6.68573E-07 6.33299E-08
 -1       308-8.10910E+06-2.23514E+05-4.90255E+05 3.41548E+06-1.93308E-07 1.83376E-07
 -1       309-3.35308E+06 3.12722E+06 1.23649E+06-1.57209E+07 2.50235E-07-3.13739E-08
 -1       310-9.93995E+06-5.00840E+05-9.27809E+05 3.21782E+06 1.57743E-07-1.09940E-07
 -1       311 2.04448E+07-7.84109E+05 4.31522E+06-7.53416E+06 5.92787E-07-2.07729E-07
 -1       312-2.24257E+07-4.25177E+06-5.22909E+06-3.19713E+06-1.07102E-08 1.24273E-07
 -1       313 2.89659E+07 6.92198E+06 6.83705E+06 1.27123E+07 1.89699E-07 1.66314E-07
 -1       314-1.48312E+07-1.05538E+07-4.88144E+06-9.04838E+06 2.26602E-07 1.74041E-08
 -1       315-1.25524E+06 1.74754E+07 3.78274E+06 8.70104E+06-2.71721E-07 3.43716E-08
 -1       316-9.37720E+05-7.63324E+06-4.42254E+05-4.12953E+06-6.94083E-07-3.72034E-07
 -1       317-1.59255E+07 1.56271E+07 1.21118E+06-3.13161E+06 6.93217E-07-4.33996E-07
 -1       318-1.84503E+06-8.28765E+06-9.94318E+05-4.58013E+06-6.62112E-07 9.72650E-08
 -1       319 1.93841E+06 1.81523E+07 4.05667E+06 1.00556E+07-5.47734E-08 1.44122E-07
 -1       320-1.65716E+07-1.09204E+07-6.21608E+06-8.90300E+06 1.64844E-07-3.18105E-08
 -1       336-8.28698E+01-1.71359E+06-1.27943E+04 7.63495E+03-2.23026E-08-1.17507E-08
 -1       337-4.89483E+03-1.71431E+06-1.64182E+04-1.84690E+04-4.14368E-08-1.64291E-08
 -1       338 5.96699E+02-1.71324E+06-2.50140E+04 1.06818E+04-2.91948E-08-5.24960E-09
 -1       339-2.65593E+04-1.72903E+06-5.65713E+04-2.44111E+04-5.20085E-08 5.61704E-09
 -1       340 1.77498E+04-1.70046E+06-8.87770E+04 1.34817E+04-3.46627E-08 2.26537E-08
 -1       406-9.11352E+00 3.53501E+05 5.81458E+02 1.66257E+00-1.37675E-09 1.21872E-09
 -1       407 1.73081E+02 3.53614E+05 1.23883E+03 1.66577E+01-3.62892E-10 8.89486E-09
 -1       408 6.06454E+02 3.53411E+05 2.47235E+03-1.87140E+01-1.54478E-09-6.49197E-09
 -1       409 2.64723E+03 3.54403E+05 5.56880E+03 1.94135E+02-3.01952E-10 7.64703E-09
 -1       410 7.66014E+03 3.52704E+05 1.13672E+04-1.85716E+02-2.02635E-09-9.87711E-10
 -1       521-2.37616E+07-5.27224E+06-6.79836E+06-1.42758E+06-7.84639E-08 6.68806E-08
 -1       522 1.70650E+07 7.70936E+05 3.71327E+06-1.26819E+07-4.58793E-07-4.31872E-07
 -1       523-9.12371E+06-4.39800E+05-5.30945E+05 3.85975E+06 8.33243E-08-2.84555E-07
 -1       524-5.87948E+06 4.89217E+06 1.37222E+06-1.86043E+07 6.28705E-07-3.32406E-07
 -1       525-1.11302E+07-8.43996E+05-1.04144E+06 3.64411E+06 4.22180E-07-2.80663E-07
 -1       526 2.24112E+07-8.70102E+05 4.62397E+06-9.70396E+06 3.94997E-07 4.61005E-08
 -1       527-2.43895E+07-5.39808E+06-6.10327E+06-3.19490E+06 1.70199E-07 2.31215E-07
 -1       528 3.21722E+07 7.60662E+06 7.26202E+06 1.45632E+07-1.26951E-07 1.45854E-07
 -1       529-1.60694E+07-1.22748E+07-5.68349E+06-9.50806E+06 1.75147E-07-6.36210E-08
 -1       530-3.14034E+06 2.08100E+07 4.07254E+06 9.08599E+06 8.13234E-08 3.42523E-07
 -1       531-1.12260E+06-8.82795E+06-4.66995E+05-4.50400E+06-6.44912E-07 1.31171E-07
 -1       532-1.91342E+07 1.80612E+07 1.36905E+06-5.57846E+06 3.21161E-07-4.39977E-07
 -1       533-2.01887E+06-9.48990E+06-1.06188E+06-4.90708E+06-5.64032E-08-8.55303E-07
 -1       534 2.12337E+05 2.15528E+07 4.31440E+06 1.06459E+07-1.03915E-07 6.38596E-07
 -1       535-1.78786E+07-1.27343E+07-7.17675E+06-9.33820E+06 4.64497E-08 3.84462E-07
 -1       536-3.81556E+05-5.32022E+04 3.01544E+03-2.01950E+04-9.90644E-09 4.09709E-08
 -1       537 1.90908E+05 4.88407E+04 1.00062E+05 3.89176E+04-9.76988E-08 7.25431E-08
 -1       538-1.22993E+05 4.62685E+03 1.27621E+04-1.93809E+04 1.74916E-08 5.83104E-08
 -1       539 1.77681E+04-6.22443E+03 2.99612E+04 4.07076E+04 1.63740E-07 6.94772E-08
 -1       540-2.09552E+05 2.88894E+03-1.62668E+04-2.20895E+04-9.87598E-10 4.84511E-08
 -1       541 3.32670E+05 8.87420E+03 8.84765E+04 3.33897E+04-4.11555E-08 5.71049E-08
 -1       542-4.35599E+05-1.25301E+04-6.49979E+04-1.18952E+04 4.88606E-08 2.95867E-08
 -1       543 5.26202E+05 2.07740E+04 1.27128E+05-3.97610E+03 9.71204E-09 1.16138E-08
 -1       544-4.01694E+05-1.02290E+04-5.91736E+04 1.51485E+04-1.06612E-08-2.66913E-08
 -1       545 2.42761E+05 1.32359E+03 6.67548E+04-3.59898E+04 1.16679E-08-5.09207E-08
 -1       546-1.54187E+05 8.69870E+03-1.01600E+04 2.00537E+04 2.17764E-08-5.67693E-08
 -1       547 3.95634E+03-1.35992E+04 1.47203E+04-4.09927E+04-9.04872E-08-7.76490E-08
 -1       548-1.64633E+05 6.27317E+03-1.69036E+04 2.02854E+04-1.00661E-07-6.08929E-08
 -1       549 2.64683E+05 1.55477E+04 6.30982E+04-3.55278E+04-5.74300E-08-5.28767E-08
 -1       550-4.13050E+05-2.21329E+04-8.63672E+04 1.44488E+04 6.27892E-09-1.58707E-08
 -1       551 3.45968E+04-7.53296E+05 1.00277E+03-1.17544E+06-8.71223E-08-2.09693E-08
 -1       552 7.77020E+04-7.87184E+05 1.93757E+04-1.67609E+06-6.26751E-08 1.55051E-08
 -1       553 5.86636E+04-7.86950E+05 3.82479E+04-1.16974E+06-1.00314E-07 2.12021E-08
 -1       554 1.12421E+05-7.96841E+05 8.81382E+04-1.67802E+06-6.48142E-08 1.77242E-08
 -1       555 8.80859E+04-8.08958E+05 1.58667E+05-1.16994E+06-1.04948E-07-1.01027E-08
 -1       556 1.76440E+05-3.28997E+05 4.50505E+04-3.68776E+05-1.92813E-08-2.23517E-08
 -1       557 2.93303E+05-4.22567E+05 2.54421E+04-4.72191E+05 4.43833E-09 5.94810E-09
 -1       558 1.63913E+05-3.27732E+05 7.44591E+03-3.68563E+05-1.88884E-08 8.93488E-09
 -1       559 2.71785E+05-4.26262E+05 4.63508E+03-4.87903E+05 2.04891E-08 5.56611E-10
 -1       560 1.52539E+05-3.20553E+05 2.24801E+02-3.76617E+05 1.57161E-08 2.08274E-08
 -1       561 2.57224E+05-4.20639E+05 7.49415E+02-4.97716E+05 1.33878E-09 1.52122E-08
 -1       562 1.43547E+05-3.14922E+05-6.33162E+02-3.83095E+05-2.53203E-09 9.78253E-09
 -1       563 2.46576E+05-4.16000E+05 1.38864E+02-5.04648E+05-3.52156E-09-9.66838E-09
 -1       564 1.37218E+05-3.10966E+05-3.36241E+02-3.87569E+05 7.61065E-09-6.62021E-09
 -1       565 2.39669E+05-4.12996E+05 5.24961E+01-5.09058E+05-1.05501E-10 9.80071E-09
 -1       566 1.33647E+05-3.08699E+05-1.86858E+02-3.90068E+05-9.57516E-09-1.16688E-08
 -1       567 2.36515E+05-4.11628E+05-3.38881E+02-5.10948E+05 1.38389E-08-1.06229E-08
 -1       568 1.32909E+05-3.08254E+05-1.01444E+03-3.90677E+05-2.82034E-09 1.01136E-09
 -1       569 2.35827E+05-4.11671E+05-2.53851E+03-5.09404E+05-4.26371E-09 6.41739E-09
 -1       570 1.36006E+05-3.11184E+05-5.49526E+03-3.89795E+05 4.18368E-09-2.40561E-09
 -1       571 2.67918E+05 9.59181E+03 1.38372E+04-8.17616E+04 1.35669E-08 7.15613E-09
 -1       572 2.69939E+05 3.53407E+03 6.78069E+03-8.97033E+04 2.16514E-08 4.76575E-10
 -1       573 2.68725E+05 1.03767E+03 3.01280E+03-8.16047E+04 1.26147E-08 6.47196E-09
 -1       574 2.68936E+05 5.45418E+02 1.51052E+03-8.98975E+04 3.51974E-09 2.57387E-09
 -1       575 2.68815E+05 2.99424E+02 7.12819E+02-8.15834E+04-9.63746E-09-9.54969E-09
 -1       576 2.68810E+05 2.98658E+02 3.64686E+02-8.99234E+04-2.57195E-08-1.44437E-08
 -1       577 2.68846E+05 2.48818E+02 1.82046E+02-8.15805E+04-2.42803E-08-1.76078E-09
 -1       578 2.68828E+05 2.69189E+02 1.04872E+02-8.99269E+04-2.75236E-08 1.69275E-08
 -1       579 2.68899E+05 2.23093E+02 7.23426E+01-8.15802E+04-7.98082E-09-9.59426E-09
 -1       580 2.68902E+05 2.32957E+02 8.35396E+01-8.99225E+04-6.53472E-09-4.21096E-10
 -1       581 2.68982E+05 1.82230E+02 1.27299E+02-8.15853E+04 5.96083E-09-3.82897E-09
 -1       582 2.69035E+05 2.14342E+02 2.57584E+02-8.98694E+04 5.85715E-10-1.30985E-08
 -1       583 2.69082E+05 2.39059E+02 4.96815E+02-8.16337E+04-3.34694E-10 1.44155E-09
 -1       584 2.69343E+05 6.41576E+02 1.12199E+03-8.94613E+04 1.61799E-09-1.32061E-08
 -1       585 2.69072E+05 1.60213E+03 2.27536E+03-8.19929E+04-1.29694E-09-4.51109E-10
 -1       586-3.42094E+03 1.00608E+05-3.42558E+03-2.28137E+05-3.99723E-09 4.60659E-09
 -1       587-1.16148E+03 1.00253E+05 3.37170E+02-2.51095E+05-5.95355E-09 4.98403E-10
 -1       588 5.43613E+02 1.00167E+05 4.19796E+03-2.28019E+05-3.85808E-09 1.23919E-08
 -1       589 4.88965E+03 1.02391E+05 1.12312E+04-2.50863E+05-4.22369E-09 2.40107E-10
 -1       590 1.54451E+04 9.89226E+04 2.36960E+04-2.28413E+05-4.16276E-09 1.39826E-08
 -1       591-6.33674E+04-1.41118E+04-2.01672E+04-2.76502E+04 7.56791E-09-1.19308E-08
 -1       592-6.68845E+04-1.74399E+04-1.09241E+04-3.10575E+04 1.44445E-08-1.36106E-09
 -1       593-6.53846E+04-1.26480E+04-4.54720E+03-2.91288E+04 3.27867E-09-2.16298E-08
 -1       594-6.40982E+04-1.44825E+04-2.26782E+03-3.11652E+04 4.12501E-09 6.98813E-09
 -1       595-6.55384E+04-1.26432E+04-1.04123E+03-2.91960E+04 1.09975E-09 2.98344E-09
 -1       596-6.39076E+04-1.43473E+04-5.29250E+02-3.11426E+04 2.25111E-09-1.07554E-08
 -1       597-6.55577E+04-1.26569E+04-2.88049E+02-2.91985E+04 1.13175E-09 1.58695E-09
 -1       598-6.38888E+04-1.43419E+04-2.31295E+02-3.11363E+04-2.31353E-09-7.14294E-10
 -1       599-6.55566E+04-1.26573E+04-2.95121E+02-2.91982E+04 4.36137E-09-1.52968E-08
 -1       600-6.39077E+04-1.43479E+04-5.47980E+02-3.11409E+04-1.82354E-10-3.25851E-08
 -1       601-6.55343E+04-1.26442E+04-1.08089E+03-2.91950E+04 3.66072E-11-1.25917E-08
 -1       602-6.41055E+04-1.44874E+04-2.35562E+03-3.11609E+04-7.12646E-09 6.39420E-09
 -1       603-6.53721E+04-1.26519E+04-4.72394E+03-2.91259E+04-6.55746E-10-4.93628E-09
 -1       604-6.70163E+04-1.75416E+04-1.13479E+04-3.10262E+04 5.09658E-10 9.84051E-09
 -1       605-6.32579E+04-1.41890E+04-2.09498E+04-2.76079E+04-1.59238E-09 6.93944E-09
 -1       606 2.66656E+04-1.30818E+04-2.34684E+04 2.45486E+04 4.44470E-09 2.41107E-09
 -1       607 2.26541E+04-4.26367E+03-1.16869E+04 2.75776E+04 3.13230E-09 6.17661E-09
 -1       608 2.49382E+04-7.60861E+02-5.23219E+03 2.43681E+04-3.28146E-09 5.67638E-09
 -1       609 2.44972E+04-2.50446E+02-2.64304E+03 2.77955E+04-4.55657E-10 8.42283E-09
 -1       610 2.47399E+04-2.50685E+01-1.26130E+03 2.43471E+04 1.39698E-09 6.34759E-09
 -1       611 2.46679E+04-2.20090E+01-6.35915E+02 2.78192E+04 1.67529E-09 1.25629E-08
 -1       612 2.46941E+04-1.08586E+01-3.02575E+02 2.43450E+04-3.87445E-10-9.31664E-09
 -1       613 2.46757E+04-1.67094E+01-1.35765E+02 2.78220E+04 4.79849E-09 1.47338E-09
 -1       614 2.46717E+04-1.53515E+01-3.24255E+01 2.43443E+04 5.68889E-09 2.80806E-09
 -1       615 2.46687E+04-1.41312E+01 5.56092E+01 2.78224E+04 1.27329E-09 1.20945E-08
 -1       616 2.46543E+04-1.14921E+01 1.67920E+02 2.43446E+04 7.42284E-09 1.13664E-09
 -1       617 2.46872E+04 2.26312E+01 3.83649E+02 2.78219E+04 2.02128E-08-1.09228E-08
 -1       618 2.46198E+04 9.98579E+01 7.73457E+02 2.43448E+04 8.25776E-09 3.61388E-09
 -1       619 2.49593E+04 6.21279E+02 1.73699E+03 2.78212E+04 8.02629E-10 1.54387E-10
 -1       620 2.43623E+04 1.93446E+03 3.49131E+03 2.43454E+04 1.33923E-09-5.34465E-09
 -1       621 4.06739E+02 2.75388E+05 3.31698E+03 3.23659E+04 6.68024E-10-1.67083E-08
 -1       622 5.27114E+02 2.76170E+05 2.99651E+03 4.70149E+04 8.11269E-10-2.15600E-08
 -1       623 8.71817E+01 2.75561E+05 3.67151E+03 3.22169E+04 9.94760E-10 1.25392E-08
 -1       624 1.83778E+03 2.77302E+05 7.17414E+03 4.71635E+04 9.01139E-10 5.68411E-09
 -1       625 1.81485E+03 2.74141E+05 1.25641E+04 3.22134E+04 9.65883E-10-9.65156E-09
 -1       626 2.41216E+05 5.85663E+04 4.96928E+03 1.19349E+05 3.02998E-09 3.96176E-09
 -1       627 2.38909E+05 5.99803E+04 2.39462E+03 1.23557E+05 3.48928E-09 8.96932E-09
 -1       628 2.41345E+05 5.62854E+04 1.01251E+03 1.20184E+05-8.89395E-09-2.04923E-08
 -1       629 2.38281E+05 5.93301E+04 4.95537E+02 1.23799E+05-8.53106E-10 5.15497E-09
 -1       630 2.41358E+05 5.61757E+04 2.29600E+02 1.20218E+05-2.12094E-09-4.88953E-09
 -1       631 2.38214E+05 5.93064E+04 1.23144E+02 1.23801E+05 1.71462E-09-2.42761E-09
 -1       632 2.41353E+05 5.61805E+04 8.03042E+01 1.20213E+05 3.30601E-09-2.79731E-08
 -1       633 2.38204E+05 5.93091E+04 8.83313E+01 1.23796E+05 1.60662E-09 2.36810E-09
 -1       634 2.41348E+05 5.61787E+04 1.41748E+02 1.20211E+05-1.00363E-09 2.65118E-09
 -1       635 2.38216E+05 5.93082E+04 2.86222E+02 1.23800E+05-1.00674E-09 2.74576E-09
 -1       636 2.41338E+05 5.61741E+04 5.77721E+02 1.20211E+05-8.95898E-09 6.61112E-09
 -1       637 2.38340E+05 5.93983E+04 1.26997E+03 1.23798E+05-1.20485E-09 1.60285E-08
 -1       638 2.41292E+05 5.64551E+04 2.60934E+03 1.20083E+05 1.57784E-08 5.21050E-09
 -1       639 2.39710E+05 6.13043E+04 6.17358E+03 1.23394E+05 2.87698E-08-3.32875E-09
 -1       640 2.41104E+05 6.21454E+04 1.28113E+04 1.17682E+05 1.29357E-08-1.96972E-08
 -1       656 6.20318E+04-1.58477E+06-1.49744E+05-1.81835E+03 8.73115E-11-2.32254E-08
 -1       657-8.20503E+04-1.65242E+06-1.24025E+05 5.95990E+03-2.91038E-11-2.60055E-08
 -1       658 1.97619E+04-1.60400E+06-7.63499E+04-3.67543E+03-2.81943E-11-2.54353E-09
 -1       659-8.86291E+04-1.65555E+06-1.32670E+05 7.44559E+03-8.59472E-10 9.46665E-09
 -1       660 6.85957E+04-1.58166E+06-1.64607E+05-3.30402E+03-1.81899E-09-1.20707E-10
 -1       661 1.59420E+05 1.68417E+04 1.64757E+04 6.23329E+04 6.98037E-10 1.50449E-08
 -1       662 1.68600E+05 2.91750E+04 1.11031E+04 5.87903E+04-2.95643E-10-1.12232E-09
 -1       663 1.62656E+05 2.21280E+04 3.88335E+03 6.13947E+04-1.78034E-10 5.85055E-09
 -1       664 1.64851E+05 2.29919E+04 2.32277E+03 5.99354E+04 1.79364E-09 6.83167E-09
 -1       665 1.63145E+05 2.28511E+04 9.16329E+02 6.12527E+04-2.41187E-10-6.35427E-09
 -1       666 1.64272E+05 2.21642E+04 5.35979E+02 6.01200E+04 6.53355E-09-4.77898E-09
 -1       667 1.63231E+05 2.29341E+04 2.84458E+02 6.12179E+04-2.11838E-09 5.69761E-09
 -1       668 1.64179E+05 2.21034E+04 2.89275E+02 6.01705E+04-2.29920E-09-3.49110E-09
 -1       669 1.63238E+05 2.29101E+04 3.91192E+02 6.12026E+04-1.51630E-09-1.37767E-08
 -1       670 1.64275E+05 2.23149E+04 8.51392E+02 6.01727E+04-5.78471E-09 1.11311E-08
 -1       671 1.63135E+05 2.27270E+04 1.51157E+03 6.12138E+04 7.26828E-10 7.48844E-09
 -1       672 1.65156E+05 2.37852E+04 3.86721E+03 5.99592E+04 3.36300E-09-1.41716E-08
 -1       673 1.62361E+05 2.14769E+04 6.48078E+03 6.14019E+04 3.38582E-09 4.61409E-09
 -1       674 1.71325E+05 3.41964E+04 1.85337E+04 5.81460E+04-1.69439E-09 1.38643E-08
 -1       675 1.57005E+05 1.26073E+04 2.75104E+04 6.29175E+04-1.88857E-09-3.07773E-09
 -1       676 2.28813E+01-2.80133E+05-1.06034E+03-8.38679E+01 5.63347E-10 8.40418E-10
 -1       677-2.81152E+02-2.80389E+05-1.94060E+03 1.67612E+02 6.37874E-09 2.13526E-09
 -1       678 1.88042E+02-2.79950E+05-3.43049E+03-8.36885E+01 1.47111E-09 5.47224E-10
 -1       679-3.43114E+03-2.82460E+05-8.14936E+03 1.66925E+02 5.63705E-09-1.14714E-08
 -1       680 2.04809E+03-2.78063E+05-1.31340E+04-8.22504E+01-5.87534E-10 8.75507E-09
 -1       771-2.92409E+06-6.73169E+05-1.30443E+05-1.36897E+06-2.91620E-08-2.59315E-08
 -1       772-2.85942E+06-7.50149E+05-6.75329E+04-1.45761E+06-2.46800E-08 7.38146E-09
 -1       773-2.94878E+06-6.53796E+05-3.38150E+04-1.37937E+06-1.22236E-08 9.72068E-09
 -1       774-2.85030E+06-7.35972E+05-1.52151E+04-1.47722E+06 3.36440E-08 9.72796E-09
 -1       775-2.96103E+06-6.45156E+05-1.09728E+04-1.38412E+06-4.48199E-09 2.73576E-09
 -1       776-2.85868E+06-7.34100E+05-4.16971E+03-1.49165E+06-1.37807E-08 4.32192E-09
 -1       777-2.97150E+06-6.37558E+05-4.70187E+03-1.38830E+06 6.69388E-10 4.54747E-09
 -1       778-2.86752E+06-7.32420E+05-1.35131E+03-1.50399E+06-4.82396E-09 4.50018E-09
 -1       779-2.98042E+06-6.30973E+05-2.30289E+03-1.39188E+06-8.33825E-09-4.91491E-09
 -1       780-2.87529E+06-7.30812E+05-3.83095E+02-1.51403E+06-2.91038E-09-2.23554E-09
 -1       781-2.98747E+06-6.25691E+05-8.74498E+02-1.39468E+06-2.40689E-08-1.85901E-09
 -1       782-2.88125E+06-7.29431E+05 3.43577E+02-1.52143E+06-3.29856E-08-2.43745E-09
 -1       783-2.99241E+06-6.22043E+05 5.50085E+02-1.39665E+06-1.12123E-08-1.64423E-08
 -1       784-2.88449E+06-7.27929E+05 2.18473E+03-1.52598E+06-1.45374E-08 1.82990E-09
 -1       785-2.99535E+06-6.19864E+05 3.86610E+03-1.39792E+06-3.05663E-08 6.77937E-09
 -1       786 1.11779E+05-9.13287E+03 2.11289E+04-2.30417E+02 5.46390E-10-9.78889E-09
 -1       787 1.20943E+05 1.05734E+04 1.49478E+04-6.45935E+01 6.38880E-09-1.10758E-08
 -1       788 1.15312E+05-1.43135E+03 5.46642E+03-2.01096E+02 2.21590E-09 1.14569E-08
 -1       789 1.16827E+05 1.65629E+03 3.43154E+03-1.10446E+02 7.56465E-10-7.76316E-09
 -1       790 1.15896E+05-2.23040E+02 1.38916E+03-1.84577E+02-2.20387E-09-3.93840E-09
 -1       791 1.16145E+05 2.57542E+02 8.01965E+02-1.39010E+02-7.29687E-09-1.72269E-08
 -1       792 1.15994E+05-3.36436E+01 3.39058E+02-1.72534E+02-3.37465E-09 1.05239E-08
 -1       793 1.16026E+05 3.47097E+01 1.67330E+02-1.61644E+02 1.14420E-09 1.91329E-09
 -1       794 1.16014E+05-3.48420E-01 4.00596E+01-1.61942E+02 4.37530E-09-3.21843E-09
 -1       795 1.15990E+05-2.88718E+01-6.32786E+01-1.83472E+02-4.45014E-09 6.60513E-09
 -1       796 1.16030E+05 2.99025E+01-1.68110E+02-1.50706E+02 2.91136E-09 2.73145E-09
 -1       797 1.15894E+05-2.24830E+02-4.57015E+02-2.08773E+02 2.94851E-09 1.36517E-09
 -1       798 1.16110E+05 1.95463E+02-7.40932E+02-1.36641E+02 1.56340E-09-8.16331E-09
 -1       799 1.15332E+05-1.44260E+03-2.03739E+03-2.42843E+02 4.84567E-09-2.40565E-08
 -1       800 1.16592E+05 1.24668E+03-2.88294E+03-1.16638E+02 2.14572E-10 2.89185E-09
 -1       801-6.54111E+04-7.99425E+06-1.05654E+06 9.51658E+05 7.56409E-08-5.66324E-08
 -1       802 4.33877E+05 2.83878E+06 1.40055E+06-1.12727E+06 2.15849E-07-2.48947E-08
 -1       803-3.55173E+05-1.07432E+07-1.29026E+06 6.04935E+05 6.68151E-08 2.24882E-08
 -1       804 1.68611E+05 3.31607E+05 9.90526E+05 5.22974E+05-9.44347E-08-7.14674E-08
 -1       805 1.46980E+05-5.50197E+06-2.02549E+05-6.94748E+05-3.92174E-08-5.08280E-08
 -1       806-2.88655E+05-5.49929E+04-2.09054E+04-1.13533E+05-5.90444E-09-1.91994E-09
 -1       807-2.90399E+05-5.14799E+04-1.02706E+04-1.18486E+05 1.07793E-08 5.28189E-09
 -1       808-2.89221E+05-4.74668E+04-4.35720E+03-1.17104E+05-4.00178E-11 1.94007E-09
 -1       809-2.88245E+05-4.85892E+04-2.13062E+03-1.18733E+05 2.84899E-10 1.32002E-08
 -1       810-2.89307E+05-4.72048E+04-9.76625E+02-1.17262E+05 5.28507E-09-2.20166E-09
 -1       811-2.88079E+05-4.84725E+04-4.85809E+02-1.18701E+05-1.14642E-09-3.00607E-08
 -1       812-2.89321E+05-4.72270E+04-2.45940E+02-1.17262E+05-1.68347E-09-2.80670E-09
 -1       813-2.88057E+05-4.84740E+04-1.60348E+02-1.18684E+05-1.41290E-09-1.19533E-08
 -1       814-2.89315E+05-4.72353E+04-1.59614E+02-1.17259E+05 2.42744E-09-1.17498E-08
 -1       815-2.88062E+05-4.84757E+04-2.58074E+02-1.18678E+05 1.95496E-09-9.54242E-09
 -1       816-2.89297E+05-4.72336E+04-4.89517E+02-1.17256E+05 1.10049E-09-3.62888E-10
 -1       817-2.88146E+05-4.85222E+04-1.05113E+03-1.18669E+05-1.18121E-08-5.53791E-09
 -1       818-2.89235E+05-4.73808E+04-2.14389E+03-1.17187E+05-1.06456E-08 2.72257E-09
 -1       819-2.89318E+05-4.98196E+04-5.04500E+03-1.18396E+05-2.19152E-08-1.42368E-08
 -1       820-2.88836E+05-5.11874E+04-1.02682E+04-1.15555E+05-9.59881E-09-1.05183E-09
 -1       821-3.52759E+05 1.94963E+04-4.51299E+04 1.14542E+03 8.45505E-09 5.17684E-09
 -1       822-3.72157E+05-2.25715E+04-3.19083E+04-2.06582E+03 9.91976E-10 3.56381E-08
 -1       823-3.60213E+05 3.05929E+03-1.16823E+04 1.50686E+03-5.57597E-09 4.46562E-09
 -1       824-3.63382E+05-3.53672E+03-7.34223E+03-2.10843E+03 3.68388E-10 5.27552E-09
 -1       825-3.61532E+05 4.76239E+02-3.03432E+03 1.18805E+03 9.32865E-09 5.21254E-09
 -1       826-3.61753E+05-5.56095E+02-1.78078E+03-9.56453E+02 9.92909E-09-4.02929E-09
 -1       827-3.61836E+05 7.69808E+01-9.78995E+02 3.54858E+02 3.75621E-09-2.05489E-09
 -1       828-3.61506E+05-1.64980E+02-7.85394E+02 7.92721E+02 2.43347E-10 1.77590E-08
 -1       829-3.61778E+05 8.44533E+01-9.89318E+02-5.61149E+02-6.96438E-10 3.44386E-09
 -1       830-3.61889E+05-5.86749E+02-1.87067E+03 2.23062E+03-6.00199E-10 9.88211E-09
 -1       831-3.61457E+05 5.02116E+02-3.13517E+03-1.08306E+03-3.12760E-09 2.35866E-09
 -1       832-3.63470E+05-3.68152E+03-7.63373E+03 2.60862E+03-2.64696E-09 1.64300E-09
 -1       833-3.60201E+05 3.17862E+03-1.21489E+04-9.39160E+02-2.73621E-09-8.75843E-10
 -1       834-3.72443E+05-2.34545E+04-3.31349E+04 1.71410E+03-3.47788E-09 9.33687E-09
 -1       835-3.52483E+05 2.02568E+04-4.69155E+04-1.88519E+02 4.18731E-09 2.71211E-09
 -1       836-1.27560E+03 3.40448E+05 2.09442E+04-1.49652E+04-4.69390E-09 5.68707E-09
 -1       837 4.49587E+03 3.46993E+05 1.77883E+04-3.04162E+04-5.40479E-09-9.57016E-09
 -1       838-5.00509E+02 3.42276E+05 1.82171E+04-1.48992E+04-4.27781E-09-6.39102E-09
 -1       839 1.15317E+04 3.52237E+05 3.45527E+04-3.04645E+04-4.41059E-09 1.13077E-08
 -1       840-3.54391E+03 3.35154E+05 5.51389E+04-1.49201E+04-4.24916E-09 1.51765E-08
 -1       856-5.81868E+04 7.81602E+03-2.05971E+04-3.98006E+02 3.17351E-09 2.69210E-10
 -1       857-6.66787E+04-9.17882E+03-1.41792E+04 5.32799E+03 2.08070E-09 7.98013E-09
 -1       858-6.15475E+04 1.09585E+03-5.34465E+03-4.20976E+02 2.01658E-09 9.76229E-09
 -1       859-6.28213E+04-1.28477E+03-3.22578E+03 5.36277E+03-3.32925E-09-2.10827E-09
 -1       860-6.20496E+04 1.53178E+02-1.35274E+03-4.32630E+02 8.02629E-10 1.94865E-09
 -1       861-6.22435E+04-1.78704E+02-7.45913E+02 5.37868E+03-2.72511E-09 2.88327E-09
 -1       862-6.21281E+04 2.05705E+01-3.13551E+02-4.36880E+02-1.15150E-09-1.10449E-08
 -1       863-6.21479E+04-1.78642E+01-1.22130E+02 5.38103E+03-3.81847E-09-1.14225E-08
 -1       864-6.21457E+04-4.03439E+00 2.81666E+01-4.34981E+02 5.98433E-10 1.83404E-08
 -1       865-6.20986E+04 5.35441E+01 2.08965E+02 5.37052E+03 5.25503E-10 1.62058E-08
 -1       866-6.21754E+04-5.09320E+01 4.30282E+02-4.26368E+02 4.86978E-10-1.01361E-08
 -1       867-6.18938E+04 4.21834E+02 1.06496E+03 5.34709E+03-1.50575E-09-1.86097E-08
 -1       868-6.23459E+04-3.65909E+02 1.77108E+03-4.11549E+02-3.58625E-10-2.58979E-10
 -1       869-6.05938E+04 3.04559E+03 4.71791E+03 5.30816E+03 3.19301E-09-1.63654E-08
 -1       870-6.34685E+04-2.60376E+03 6.84650E+03-3.87378E+02-2.28874E-09 9.17817E-09
 -1       871-5.21043E+03-1.79075E+04-1.79888E+04 1.20245E+05-2.99042E-09 6.65204E-09
 -1       872-1.98095E+03-2.20514E+04-7.49493E+03 1.55910E+05-7.51970E-09-1.00813E-08
 -1       873 2.60495E+02-2.00651E+04 6.38741E+02 1.19981E+05-3.98268E-09-1.49745E-08
 -1       874 2.95480E+03-1.77578E+04 9.24686E+03 1.55943E+05-7.44149E-09-3.18967E-08
 -1       875 6.32995E+03-2.22677E+04 2.07871E+04 1.20202E+05-3.02134E-09 1.53914E-08
 -1       876 2.75112E+05 4.65511E+04 1.42121E+04 1.10621E+05 1.46724E-09-1.10631E-08
 -1       877 2.76034E+05 4.95611E+04 7.58976E+03 1.14713E+05 4.68299E-09-3.59303E-08
 -1       878 2.76440E+05 4.49774E+04 3.17975E+03 1.11787E+05-3.42743E-09-2.86529E-08
 -1       879 2.74102E+05 4.76335E+04 1.58430E+03 1.14809E+05 4.30191E-09-2.59544E-08
 -1       880 2.76536E+05 4.49609E+04 7.37918E+02 1.11834E+05-5.53882E-10-1.08060E-08
 -1       881 2.73974E+05 4.75512E+04 3.93953E+02 1.14788E+05-6.83303E-09 9.14659E-09
 -1       882 2.76545E+05 4.49732E+04 2.51865E+02 1.11836E+05-1.98884E-09-1.29346E-09
 -1       883 2.73965E+05 4.75470E+04 2.70489E+02 1.14781E+05-5.37966E-10 2.45814E-08
 -1       884 2.76539E+05 4.49705E+04 4.30040E+02 1.11836E+05-1.41870E-09-4.57345E-09
 -1       885 2.73999E+05 4.75530E+04 8.64469E+02 1.14791E+05-7.68284E-09-2.33329E-08
 -1       886 2.76505E+05 4.49453E+04 1.74223E+03 1.11832E+05-3.33878E-09-3.29010E-10
 -1       887 2.74306E+05 4.77537E+04 3.80566E+03 1.14836E+05-3.25304E-09-1.72399E-08
 -1       888 2.76265E+05 4.49876E+04 7.66853E+03 1.11711E+05-2.01155E-09-1.89866E-08
 -1       889 2.78871E+05 5.25009E+04 1.83189E+04 1.14695E+05-1.93353E-09-2.75213E-09
 -1       890 2.73137E+05 4.87034E+04 3.43106E+04 1.08790E+05 4.43652E-09 1.39371E-08
 -1       891-1.05419E+02-1.53067E+05-1.86808E+03 2.61521E+04-1.50635E-09 2.02060E-08
 -1       892-1.97347E+02-1.53549E+05-2.00926E+03 3.96744E+04 5.80712E-10-2.49181E-08
 -1       893 1.91629E+01-1.53127E+05-2.84785E+03 2.61587E+04-1.08594E-09-5.34965E-09
 -1       894-1.45018E+03-1.54627E+05-5.89621E+03 3.95290E+04 1.34742E-09 3.93629E-09
 -1       895-1.14700E+03-1.51899E+05-1.03839E+04 2.62982E+04-3.18437E-10-1.10967E-08
 -1       956-3.52133E+05-5.02593E+03-1.24812E+04 2.74412E+04 2.39288E-09-6.17001E-09
 -1       957-3.54586E+05-1.74926E+03-6.40669E+03 3.29996E+04-8.49104E-09-3.93811E-09
 -1       958-3.53251E+05-1.95432E+02-2.88685E+03 2.72881E+04-2.93858E-09-1.29587E-08
 -1       959-3.53437E+05-9.40984E+01-1.47425E+03 3.31749E+04 3.27327E-09-1.02232E-08
 -1       960-3.53357E+05-1.54767E+01-7.18893E+02 2.72726E+04 7.74662E-09 1.76374E-08
 -1       961-3.53360E+05-2.79607E+01-3.81354E+02 3.31930E+04 8.30073E-09 4.03863E-08
 -1       962-3.53381E+05-1.77745E+01-2.18540E+02 2.72700E+04 2.19779E-09-4.23211E-09
 -1       963-3.53359E+05-2.48231E+01-1.75847E+02 3.31962E+04 3.61626E-09-8.10860E-09
 -1       964-3.53386E+05-1.49364E+01-2.14245E+02 2.72694E+04-8.85905E-11 1.08921E-08
 -1       965-3.53370E+05-2.19235E+01-3.70889E+02 3.31957E+04-3.81306E-09-6.45741E-10
 -1       966-3.53371E+05-7.03495E+00-6.96952E+02 2.72706E+04 5.69116E-10-1.21522E-08
 -1       967-3.53456E+05-8.02425E+01-1.42956E+03 3.31831E+04-3.66344E-09 7.25504E-09
 -1       968-3.53276E+05-1.76048E+02-2.79839E+03 2.72819E+04-1.69211E-09 7.93096E-09
 -1       969-3.54581E+05-1.68040E+03-6.21260E+03 3.30520E+04 2.44609E-09-5.94164E-09
 -1       970-3.52200E+05-4.85676E+03-1.21021E+04 2.73967E+04-5.45697E-11 1.91294E-08
 -1       971-3.24284E+05-1.63580E+03-8.88774E+03 1.46432E+04 4.69663E-09-9.79696E-11
 -1       972-3.26429E+05-1.19602E+03-4.84019E+03 2.03081E+04 1.39016E-09 1.97770E-09
 -1       973-3.25273E+05-4.62456E+01-2.16783E+03 1.45259E+04 5.64796E-10 3.90492E-09
 -1       974-3.25408E+05-5.95225E+01-1.12359E+03 2.04392E+04 1.32604E-09-6.45855E-09
 -1       975-3.25351E+05-3.70129E+00-5.61724E+02 1.45142E+04-5.77984E-10 1.14267E-09
 -1       976-3.25349E+05-1.21831E+01-3.24238E+02 2.04539E+04 7.91260E-10-3.92583E-09
 -1       977-3.25367E+05-3.21012E+00-2.35610E+02 1.45112E+04-2.41744E-09-4.25393E-09
 -1       978-3.25354E+05-6.41384E+00-2.76105E+02 2.04583E+04 4.19720E-09 8.08177E-09
 -1       979-3.25367E+05 4.66275E+00-4.43945E+02 1.45098E+04-4.38433E-10 7.89464E-09
 -1       980-3.25387E+05-3.56546E+00-8.57409E+02 2.04592E+04-2.25465E-09-1.87219E-09
 -1       981-3.25339E+05 2.60855E+01-1.66071E+03 1.45103E+04 1.29739E-09-4.68356E-09
 -1       982-3.25615E+05-1.26231E+02-3.43270E+03 2.04529E+04 2.20928E-09-8.33115E-09
 -1       983-3.25130E+05-8.01909E+01-6.66977E+03 1.45162E+04-5.37034E-09-2.40698E-09
 -1       984-3.28823E+05-3.60955E+03-1.49366E+04 2.03710E+04-1.34082E-09 1.91420E-08
 -1       985-3.22110E+05-4.96068E+03-2.74282E+04 1.45883E+04-5.87079E-10 1.39698E-09
 -3
    1PSTEP                        27          14           1          
  100CL  114 6.49811E-01         409                     0   14           1
 -4  DISP        4    1
 -5  D1          1    2    1    0
 -5  D2          1    2    2    0
 -5  D3          1    2    3    0
 -5  ALL         1    2    0    0    1ALL
 -1         1 2.26277E-03 0.00000E+00 0.00000E+00
 -1         2 1.75244E-03-7.06590E-27 0.00000E+00
 -1         3 3.23770E-04-3.30311E-27 1.32349E-23
 -1         5 1.69365E-04 5.10184E-26 2.68834E-24
 -1         8 2.24671E-03-4.91226E-07 0.00000E+00
 -1         9 2.20740E-03-2.65933E-05 0.00000E+00
 -1        10 2.93682E-04-3.53534E-06-6.61744E-24
 -1        12 1.70973E-04 7.82098E-07-2.06795E-25
 -1        15 2.22729E-03-5.35851E-07 0.00000E+00
 -1        16 2.24251E-03-2.78814E-05 0.00000E+00
 -1        17 2.00433E-04-7.95371E-06 0.00000E+00
 -1        18 1.74249E-04 3.10815E-05 0.00000E+00
 -1        19 1.75801E-04 1.55849E-06 0.00000E+00
 -1        20 1.75942E-04-7.34034E-06 0.00000E+00
 -1        21 1.75083E-04-2.00379E-05 3.30872E-24
 -1        24 2.98634E-05-1.19344E-05 0.00000E+00
 -1        25 1.83911E-04 3.12952E-05 0.00000E+00
 -1        26 1.84534E-04 2.15925E-06 0.00000E+00
 -1        27 1.82415E-04-1.08068E-05 0.00000E+00
 -1        28 1.82091E-04-2.06464E-05 0.00000E+00
 -1        32 0.00000E+00 0.00000E+00 0.00000E+00
 -1        33 1.92299E-04 2.89198E-06 0.00000E+00
 -1        34 1.90234E-04-1.08588E-05 0.00000E+00
 -1        35 1.88347E-04-2.09803E-05 0.00000E+00
 -1        51 2.26174E-03-9.51192E-08-6.61744E-24
 -1        52 2.25982E-03-1.74547E-07 0.00000E+00
 -1        53 2.25717E-03-2.51641E-07 0.00000E+00
 -1        54 2.25399E-03-3.28586E-07 0.00000E+00
 -1        55 2.25044E-03-4.06997E-07 1.65436E-24
 -1        56 2.25849E-03 1.04766E-06 0.00000E+00
 -1        57 2.25240E-03 6.46396E-06 0.00000E+00
 -1        58 2.24500E-03 1.52933E-05 0.00000E+00
 -1        59 2.23677E-03 2.62354E-05 5.29396E-23
 -1        60 2.22834E-03 3.76667E-05-1.05879E-22
 -1        61 2.22037E-03 4.79147E-05-5.29396E-23
 -1        62 2.21342E-03 5.55011E-05 0.00000E+00
 -1        63 2.20798E-03 5.91619E-05 0.00000E+00
 -1        64 2.20425E-03 5.82765E-05 1.05879E-22
 -1        65 2.20231E-03 5.25958E-05 0.00000E+00
 -1        66 2.20194E-03 4.26623E-05 0.00000E+00
 -1        67 2.20279E-03 2.93712E-05 0.00000E+00
 -1        68 2.20434E-03 1.41743E-05-1.05879E-22
 -1        69 2.20601E-03-1.30982E-06-5.29396E-23
 -1        70 2.20717E-03-1.54287E-05 5.29396E-23
 -1        86 1.78017E-03-1.54520E-06 0.00000E+00
 -1        87 1.86203E-03-5.94757E-06-1.32349E-23
 -1        88 1.97261E-03-1.28709E-05 2.64698E-23
 -1        89 2.08529E-03-2.00219E-05 0.00000E+00
 -1        90 2.17242E-03-2.48368E-05 0.00000E+00
 -1       121 3.22925E-04-5.73467E-07 1.32349E-23
 -1       122 3.20393E-04-1.14968E-06 0.00000E+00
 -1       123 3.16183E-04-1.73132E-06 0.00000E+00
 -1       124 3.10311E-04-2.32112E-06-6.61744E-24
 -1       125 3.02801E-04-2.92138E-06-1.32349E-23
 -1       191 1.69409E-04 1.30399E-07 2.06795E-25
 -1       192 1.69543E-04 2.60789E-07-7.23783E-25
 -1       193 1.69767E-04 3.91164E-07-1.65436E-24
 -1       194 1.70080E-04 5.21514E-07 6.20385E-25
 -1       195 1.70482E-04 6.51829E-07 3.30872E-24
 -1       251 2.24595E-03 1.85805E-05 0.00000E+00
 -1       252 2.24413E-03 6.88664E-05 0.00000E+00
 -1       253 2.24106E-03 1.41183E-04-1.32349E-23
 -1       254 2.23706E-03 2.25839E-04 0.00000E+00
 -1       255 2.23311E-03 3.09768E-04 1.32349E-23
 -1       256 2.23018E-03 3.79919E-04 0.00000E+00
 -1       257 2.22851E-03 4.27004E-04 0.00000E+00
 -1       258 2.22780E-03 4.42267E-04 0.00000E+00
 -1       259 2.22706E-03 4.25199E-04 0.00000E+00
 -1       260 2.22529E-03 3.76092E-04 0.00000E+00
 -1       261 2.22220E-03 3.03534E-04 1.32349E-23
 -1       262 2.21800E-03 2.16651E-04 0.00000E+00
 -1       263 2.21370E-03 1.28478E-04 1.32349E-23
 -1       264 2.21033E-03 5.20769E-05-6.61744E-24
 -1       265 2.20829E-03-2.72830E-06 0.00000E+00
 -1       266 2.24347E-03-5.05881E-07 0.00000E+00
 -1       267 2.24023E-03-5.12439E-07 0.00000E+00
 -1       268 2.23700E-03-5.19509E-07 0.00000E+00
 -1       269 2.23376E-03-5.25061E-07 0.00000E+00
 -1       270 2.23052E-03-5.30577E-07 0.00000E+00
 -1       271 2.24473E-03 2.46674E-06 0.00000E+00
 -1       272 2.24276E-03 5.32443E-06 1.32349E-23
 -1       273 2.24087E-03 7.96150E-06 2.64698E-23
 -1       274 2.23911E-03 1.02482E-05 0.00000E+00
 -1       275 2.23753E-03 1.20614E-05 0.00000E+00
 -1       276 2.23617E-03 1.32813E-05-1.32349E-23
 -1       277 2.23508E-03 1.37944E-05 0.00000E+00
 -1       278 2.23430E-03 1.34938E-05 0.00000E+00
 -1       279 2.23385E-03 1.22814E-05-2.64698E-23
 -1       280 2.23378E-03 1.00675E-05 0.00000E+00
 -1       281 2.23411E-03 6.77308E-06-2.64698E-23
 -1       282 2.23487E-03 2.32951E-06 1.32349E-23
 -1       283 2.23608E-03-3.31994E-06 2.64698E-23
 -1       284 2.23774E-03-1.02194E-05 1.32349E-23
 -1       285 2.23988E-03-1.84019E-05-2.64698E-23
 -1       301 2.21382E-03-2.68334E-05-6.61744E-24
 -1       302 2.21900E-03-2.70385E-05-6.61744E-24
 -1       303 2.22370E-03-2.72386E-05 0.00000E+00
 -1       304 2.22867E-03-2.74389E-05 0.00000E+00
 -1       305 2.23469E-03-2.76465E-05 0.00000E+00
 -1       306 2.24195E-03-1.63178E-04 0.00000E+00
 -1       307 2.30655E-03-5.39644E-04 5.29396E-23
 -1       308 2.36174E-03-1.09602E-03 0.00000E+00
 -1       309 2.39871E-03-1.74696E-03-5.29396E-23
 -1       310 2.43969E-03-2.37820E-03 0.00000E+00
 -1       311 2.50143E-03-2.87722E-03 0.00000E+00
 -1       312 2.56109E-03-3.16881E-03 0.00000E+00
 -1       313 2.56889E-03-3.21179E-03 0.00000E+00
 -1       314 2.46275E-03-3.01271E-03 1.05879E-22
 -1       315 2.20466E-03-2.62259E-03 0.00000E+00
 -1       316 1.80751E-03-2.11043E-03 1.05879E-22
 -1       317 1.32486E-03-1.54265E-03 5.29396E-23
 -1       318 8.54331E-04-9.82467E-04 0.00000E+00
 -1       319 4.89979E-04-4.95193E-04 0.00000E+00
 -1       320 2.72564E-04-1.48426E-04 0.00000E+00
 -1       336 2.82779E-04-4.21180E-06 0.00000E+00
 -1       337 2.69930E-04-4.91104E-06 0.00000E+00
 -1       338 2.55194E-04-5.63481E-06-1.32349E-23
 -1       339 2.38644E-04-6.38360E-06 6.61744E-24
 -1       340 2.20361E-04-7.16148E-06 0.00000E+00
 -1       406 1.71555E-04 9.12306E-07-2.68834E-24
 -1       407 1.72225E-04 1.04242E-06 2.06795E-25
 -1       408 1.72985E-04 1.17239E-06 1.03398E-24
 -1       409 1.73835E-04 1.30205E-06 1.34417E-24
 -1       410 1.74774E-04 1.43115E-06 1.65436E-24
 -1       521 2.27783E-03-1.73275E-04 0.00000E+00
 -1       522 2.34142E-03-5.68804E-04-5.29396E-23
 -1       523 2.39169E-03-1.15152E-03 1.05879E-22
 -1       524 2.42114E-03-1.82998E-03 5.29396E-23
 -1       525 2.45545E-03-2.48703E-03 0.00000E+00
 -1       526 2.51411E-03-3.00758E-03-5.29396E-23
 -1       527 2.57347E-03-3.31048E-03 2.11758E-22
 -1       528 2.57982E-03-3.35343E-03 0.00000E+00
 -1       529 2.46453E-03-3.14246E-03-2.11758E-22
 -1       530 2.18711E-03-2.73500E-03 5.29396E-23
 -1       531 1.76071E-03-2.20344E-03-1.05879E-22
 -1       532 1.24410E-03-1.61724E-03 0.00000E+00
 -1       533 7.39767E-04-1.03818E-03 1.05879E-22
 -1       534 3.46552E-04-5.30242E-04 5.29396E-23
 -1       535 1.10505E-04-1.64913E-04 0.00000E+00
 -1       536 1.99822E-04 2.54172E-05 0.00000E+00
 -1       537 1.98105E-04 8.40530E-05 0.00000E+00
 -1       538 1.95354E-04 1.59154E-04 0.00000E+00
 -1       539 1.92022E-04 2.41909E-04 8.27181E-25
 -1       540 1.89030E-04 3.20142E-04 1.65436E-24
 -1       541 1.87164E-04 3.81681E-04 4.13590E-25
 -1       542 1.86365E-04 4.20585E-04 0.00000E+00
 -1       543 1.86243E-04 4.30963E-04-4.13590E-25
 -1       544 1.86030E-04 4.13473E-04 0.00000E+00
 -1       545 1.85005E-04 3.68864E-04-4.13590E-25
 -1       546 1.82983E-04 3.04643E-04 0.00000E+00
 -1       547 1.80142E-04 2.28352E-04 0.00000E+00
 -1       548 1.77330E-04 1.52466E-04 0.00000E+00
 -1       549 1.75381E-04 8.94601E-05 0.00000E+00
 -1       550 1.74431E-04 4.65926E-05 0.00000E+00
 -1       551 1.76702E-04-8.49663E-06 0.00000E+00
 -1       552 1.49852E-04-9.11146E-06 0.00000E+00
 -1       553 1.20803E-04-9.78227E-06-8.27181E-24
 -1       554 9.04973E-05-1.04897E-05-6.61744E-24
 -1       555 5.98725E-05-1.12085E-05 0.00000E+00
 -1       556 1.93271E-04 1.03726E-05 0.00000E+00
 -1       557 1.87491E-04 2.52175E-05 0.00000E+00
 -1       558 1.82964E-04 3.68535E-05 0.00000E+00
 -1       559 1.79566E-04 4.55746E-05 0.00000E+00
 -1       560 1.77174E-04 5.16753E-05 0.00000E+00
 -1       561 1.75668E-04 5.54524E-05 0.00000E+00
 -1       562 1.74930E-04 5.72038E-05 0.00000E+00
 -1       563 1.74842E-04 5.72284E-05 0.00000E+00
 -1       564 1.75289E-04 5.58256E-05 0.00000E+00
 -1       565 1.76158E-04 5.32957E-05 0.00000E+00
 -1       566 1.77334E-04 4.99394E-05 0.00000E+00
 -1       567 1.78706E-04 4.60576E-05 0.00000E+00
 -1       568 1.80161E-04 4.19516E-05 0.00000E+00
 -1       569 1.81588E-04 3.79224E-05 8.27181E-25
 -1       570 1.82875E-04 3.42714E-05 0.00000E+00
 -1       571 1.74343E-04 2.91612E-05 8.27181E-25
 -1       572 1.74439E-04 2.71793E-05-1.24077E-24
 -1       573 1.74536E-04 2.51505E-05 0.00000E+00
 -1       574 1.74632E-04 2.30902E-05 0.00000E+00
 -1       575 1.74729E-04 2.10139E-05 0.00000E+00
 -1       576 1.74826E-04 1.89370E-05 0.00000E+00
 -1       577 1.74923E-04 1.68753E-05-3.30872E-24
 -1       578 1.75020E-04 1.48441E-05 0.00000E+00
 -1       579 1.75118E-04 1.28591E-05 0.00000E+00
 -1       580 1.75215E-04 1.09358E-05-3.30872E-24
 -1       581 1.75312E-04 9.08979E-06 0.00000E+00
 -1       582 1.75410E-04 7.33654E-06 0.00000E+00
 -1       583 1.75508E-04 5.69162E-06 0.00000E+00
 -1       584 1.75605E-04 4.17038E-06 0.00000E+00
 -1       585 1.75703E-04 2.78803E-06 0.00000E+00
 -1       586 1.75816E-04 3.11193E-05 1.65436E-24
 -1       587 1.77347E-04 3.11564E-05-4.13590E-25
 -1       588 1.78880E-04 3.11932E-05 0.00000E+00
 -1       589 1.80458E-04 3.12293E-05 0.00000E+00
 -1       590 1.82121E-04 3.12641E-05 0.00000E+00
 -1       591 1.74905E-04 2.92493E-05 1.03398E-25
 -1       592 1.75564E-04 2.73982E-05 2.06795E-25
 -1       593 1.76228E-04 2.55339E-05-8.27181E-25
 -1       594 1.76894E-04 2.36609E-05 0.00000E+00
 -1       595 1.77562E-04 2.17838E-05 8.27181E-25
 -1       596 1.78230E-04 1.99071E-05 0.00000E+00
 -1       597 1.78896E-04 1.80353E-05 8.27181E-25
 -1       598 1.79558E-04 1.61731E-05 0.00000E+00
 -1       599 1.80215E-04 1.43248E-05 0.00000E+00
 -1       600 1.80865E-04 1.24949E-05 0.00000E+00
 -1       601 1.81507E-04 1.06882E-05 8.27181E-25
 -1       602 1.82139E-04 8.90892E-06 4.13590E-25
 -1       603 1.82758E-04 7.16174E-06-4.13590E-25
 -1       604 1.83365E-04 5.45124E-06 0.00000E+00
 -1       605 1.83956E-04 3.78187E-06 0.00000E+00
 -1       606 1.75814E-04 5.52927E-07-3.30872E-24
 -1       607 1.75824E-04-3.66279E-07 0.00000E+00
 -1       608 1.75833E-04-1.20420E-06 0.00000E+00
 -1       609 1.75842E-04-1.96655E-06 0.00000E+00
 -1       610 1.75850E-04-2.65910E-06 0.00000E+00
 -1       611 1.75858E-04-3.28768E-06 0.00000E+00
 -1       612 1.75867E-04-3.85811E-06 0.00000E+00
 -1       613 1.75875E-04-4.37626E-06 0.00000E+00
 -1       614 1.75884E-04-4.84797E-06 0.00000E+00
 -1       615 1.75892E-04-5.27906E-06 0.00000E+00
 -1       616 1.75901E-04-5.67541E-06 0.00000E+00
 -1       617 1.75909E-04-6.04284E-06 0.00000E+00
 -1       618 1.75918E-04-6.38720E-06 0.00000E+00
 -1       619 1.75926E-04-6.71435E-06 0.00000E+00
 -1       620 1.75934E-04-7.03011E-06 0.00000E+00
 -1       621 1.76992E-04 1.65911E-06-3.30872E-24
 -1       622 1.78329E-04 1.75999E-06 8.27181E-25
 -1       623 1.79783E-04 1.86069E-06-1.65436E-24
 -1       624 1.81322E-04 1.96109E-06-8.27181E-25
 -1       625 1.82916E-04 2.06122E-06 0.00000E+00
 -1       626 1.76287E-04 5.88124E-07 3.30872E-24
 -1       627 1.76751E-04-3.18078E-07 0.00000E+00
 -1       628 1.77193E-04-1.16794E-06 0.00000E+00
 -1       629 1.77618E-04-1.96959E-06 4.96308E-24
 -1       630 1.78027E-04-2.73120E-06-3.30872E-24
 -1       631 1.78425E-04-3.46096E-06 0.00000E+00
 -1       632 1.78814E-04-4.16703E-06-3.30872E-24
 -1       633 1.79197E-04-4.85761E-06 0.00000E+00
 -1       634 1.79577E-04-5.54088E-06-3.30872E-24
 -1       635 1.79958E-04-6.22501E-06-1.65436E-24
 -1       636 1.80342E-04-6.91821E-06 3.30872E-24
 -1       637 1.80732E-04-7.62864E-06 0.00000E+00
 -1       638 1.81132E-04-8.36450E-06 3.30872E-24
 -1       639 1.81544E-04-9.13399E-06 8.27181E-25
 -1       640 1.81971E-04-9.94532E-06 3.30872E-24
 -1       656 1.76483E-04-7.90381E-06-6.61744E-24
 -1       657 1.77437E-04-8.49015E-06 6.61744E-24
 -1       658 1.78668E-04-9.07509E-06 0.00000E+00
 -1       659 1.80028E-04-9.65969E-06 0.00000E+00
 -1       660 1.81338E-04-1.02460E-05 0.00000E+00
 -1       661 1.76145E-04-7.69422E-06-8.27181E-25
 -1       662 1.76384E-04-8.13708E-06 0.00000E+00
 -1       663 1.76654E-04-8.66391E-06 1.65436E-24
 -1       664 1.76954E-04-9.26852E-06 0.00000E+00
 -1       665 1.77282E-04-9.94531E-06 1.65436E-24
 -1       666 1.77634E-04-1.06886E-05 8.27181E-25
 -1       667 1.78009E-04-1.14931E-05-1.65436E-24
 -1       668 1.78405E-04-1.23533E-05-8.27181E-25
 -1       669 1.78820E-04-1.32642E-05-1.65436E-24
 -1       670 1.79251E-04-1.42206E-05 0.00000E+00
 -1       671 1.79698E-04-1.52176E-05-1.65436E-24
 -1       672 1.80159E-04-1.62504E-05 0.00000E+00
 -1       673 1.80630E-04-1.73141E-05-1.65436E-24
 -1       674 1.81111E-04-1.84044E-05-4.13590E-25
 -1       675 1.81600E-04-1.95160E-05 4.13590E-25
 -1       676 1.76255E-04-2.01399E-05 0.00000E+00
 -1       677 1.77426E-04-2.02419E-05 0.00000E+00
 -1       678 1.78596E-04-2.03438E-05 0.00000E+00
 -1       679 1.79764E-04-2.04454E-05-1.65436E-24
 -1       680 1.80929E-04-2.05470E-05 0.00000E+00
 -1       771 1.86221E-05 1.31163E-05 0.00000E+00
 -1       772 9.15084E-06 3.36926E-05 0.00000E+00
 -1       773 1.36487E-06 5.00121E-05 0.00000E+00
 -1       774-4.85128E-06 6.23181E-05 0.00000E+00
 -1       775-9.61080E-06 7.08631E-05 0.00000E+00
 -1       776-1.30314E-05 7.59155E-05 2.64698E-23
 -1       777-1.52307E-05 7.77524E-05-5.29396E-23
 -1       778-1.63289E-05 7.66636E-05 0.00000E+00
 -1       779-1.64456E-05 7.29469E-05 5.29396E-23
 -1       780-1.57023E-05 6.69101E-05 0.00000E+00
 -1       781-1.42200E-05 5.88676E-05 0.00000E+00
 -1       782-1.21210E-05 4.91414E-05-2.64698E-23
 -1       783-9.52681E-06 3.80582E-05 0.00000E+00
 -1       784-6.56035E-06 2.59499E-05 0.00000E+00
 -1       785-3.34355E-06 1.31515E-05 0.00000E+00
 -1       786 1.83946E-04 2.92472E-05-5.16988E-26
 -1       787 1.83984E-04 2.72482E-05 4.13590E-25
 -1       788 1.84022E-04 2.52905E-05 0.00000E+00
 -1       789 1.84061E-04 2.33665E-05 4.13590E-25
 -1       790 1.84100E-04 2.14716E-05 8.27181E-25
 -1       791 1.84139E-04 1.96013E-05 8.27181E-25
 -1       792 1.84178E-04 1.77534E-05 0.00000E+00
 -1       793 1.84218E-04 1.59257E-05 0.00000E+00
 -1       794 1.84257E-04 1.41180E-05 0.00000E+00
 -1       795 1.84296E-04 1.23300E-05 8.27181E-25
 -1       796 1.84336E-04 1.05632E-05 0.00000E+00
 -1       797 1.84375E-04 8.81936E-06 0.00000E+00
 -1       798 1.84415E-04 7.10208E-06 0.00000E+00
 -1       799 1.84454E-04 5.41523E-06 0.00000E+00
 -1       800 1.84494E-04 3.76539E-06 0.00000E+00
 -1       801 1.41016E-04 2.80767E-05 0.00000E+00
 -1       802 1.11973E-05 1.76318E-05 2.64698E-23
 -1       803-9.99999E-05 9.00306E-06 0.00000E+00
 -1       804-8.91105E-05 6.24225E-06-2.64698E-23
 -1       805-2.94367E-05 2.49703E-06-5.29396E-23
 -1       806 1.84566E-04 2.91812E-05-1.65436E-24
 -1       807 1.85207E-04 2.70942E-05 0.00000E+00
 -1       808 1.85836E-04 2.50390E-05 0.00000E+00
 -1       809 1.86451E-04 2.30194E-05 0.00000E+00
 -1       810 1.87051E-04 2.10391E-05 3.30872E-24
 -1       811 1.87635E-04 1.91019E-05 0.00000E+00
 -1       812 1.88202E-04 1.72113E-05 0.00000E+00
 -1       813 1.88750E-04 1.53710E-05 1.65436E-24
 -1       814 1.89277E-04 1.35846E-05-3.30872E-24
 -1       815 1.89784E-04 1.18558E-05 8.27181E-25
 -1       816 1.90267E-04 1.01880E-05 1.65436E-24
 -1       817 1.90726E-04 8.58504E-06 1.65436E-24
 -1       818 1.91160E-04 7.05036E-06-1.65436E-24
 -1       819 1.91567E-04 5.58761E-06 8.27181E-25
 -1       820 1.91947E-04 4.20031E-06 0.00000E+00
 -1       821 1.84409E-04 1.99107E-07 0.00000E+00
 -1       822 1.84274E-04-2.50861E-06-1.65436E-24
 -1       823 1.84139E-04-5.65951E-06 3.30872E-24
 -1       824 1.84002E-04-8.94645E-06-1.65436E-24
 -1       825 1.83866E-04-1.20265E-05 0.00000E+00
 -1       826 1.83730E-04-1.45579E-05 0.00000E+00
 -1       827 1.83597E-04-1.63450E-05 0.00000E+00
 -1       828 1.83464E-04-1.71964E-05 0.00000E+00
 -1       829 1.83332E-04-1.71700E-05 0.00000E+00
 -1       830 1.83199E-04-1.63286E-05-1.65436E-24
 -1       831 1.83066E-04-1.49521E-05 3.30872E-24
 -1       832 1.82933E-04-1.33236E-05-1.65436E-24
 -1       833 1.82800E-04-1.17931E-05 0.00000E+00
 -1       834 1.82669E-04-1.07103E-05 1.65436E-24
 -1       835 1.82538E-04-1.03060E-05 8.27181E-25
 -1       836 1.86032E-04 2.28081E-06 3.30872E-24
 -1       837 1.87409E-04 2.40540E-06 1.65436E-24
 -1       838 1.88694E-04 2.52990E-06 0.00000E+00
 -1       839 1.89918E-04 2.65371E-06 0.00000E+00
 -1       840 1.91110E-04 2.77736E-06 0.00000E+00
 -1       856 1.82398E-04-1.16903E-05 0.00000E+00
 -1       857 1.82378E-04-1.24410E-05 0.00000E+00
 -1       858 1.82358E-04-1.30793E-05 0.00000E+00
 -1       859 1.82338E-04-1.36260E-05 2.06795E-25
 -1       860 1.82318E-04-1.41021E-05 0.00000E+00
 -1       861 1.82298E-04-1.45283E-05-2.06795E-25
 -1       862 1.82277E-04-1.49256E-05 8.27181E-25
 -1       863 1.82257E-04-1.53148E-05-4.13590E-25
 -1       864 1.82237E-04-1.57170E-05 0.00000E+00
 -1       865 1.82216E-04-1.61530E-05 0.00000E+00
 -1       866 1.82196E-04-1.66438E-05 8.27181E-25
 -1       867 1.82175E-04-1.72101E-05-4.13590E-25
 -1       868 1.82155E-04-1.78729E-05-8.27181E-25
 -1       869 1.82134E-04-1.86528E-05 0.00000E+00
 -1       870 1.82113E-04-1.95705E-05 0.00000E+00
 -1       871 1.83579E-04-1.08112E-05-8.27181E-25
 -1       872 1.84887E-04-1.08188E-05 0.00000E+00
 -1       873 1.86272E-04-1.08271E-05 4.13590E-25
 -1       874 1.87670E-04-1.08362E-05-2.06795E-25
 -1       875 1.89012E-04-1.08458E-05 4.13590E-25
 -1       876 1.82870E-04-1.16762E-05 0.00000E+00
 -1       877 1.83304E-04-1.24802E-05 1.65436E-24
 -1       878 1.83717E-04-1.32267E-05 0.00000E+00
 -1       879 1.84111E-04-1.39229E-05-1.65436E-24
 -1       880 1.84489E-04-1.45760E-05-3.30872E-24
 -1       881 1.84854E-04-1.51932E-05 0.00000E+00
 -1       882 1.85208E-04-1.57819E-05 3.30872E-24
 -1       883 1.85555E-04-1.63491E-05-1.65436E-24
 -1       884 1.85895E-04-1.69020E-05 3.30872E-24
 -1       885 1.86233E-04-1.74479E-05 0.00000E+00
 -1       886 1.86572E-04-1.79939E-05 0.00000E+00
 -1       887 1.86912E-04-1.85472E-05 0.00000E+00
 -1       888 1.87258E-04-1.91151E-05-3.30872E-24
 -1       889 1.87612E-04-1.97048E-05 0.00000E+00
 -1       890 1.87975E-04-2.03235E-05-1.65436E-24
 -1       891 1.83273E-04-2.07025E-05 0.00000E+00
 -1       892 1.84433E-04-2.07587E-05 0.00000E+00
 -1       893 1.85544E-04-2.08149E-05 8.27181E-25
 -1       894 1.86584E-04-2.08708E-05 4.13590E-25
 -1       895 1.87526E-04-2.09265E-05 0.00000E+00
 -1       956 1.92172E-04 1.75167E-06 1.65436E-24
 -1       957 1.92043E-04 6.99381E-07-1.65436E-24
 -1       958 1.91913E-04-2.75210E-07 0.00000E+00
 -1       959 1.91784E-04-1.18299E-06 1.65436E-24
 -1       960 1.91654E-04-2.03490E-06 0.00000E+00
 -1       961 1.91525E-04-2.84191E-06 0.00000E+00
 -1       962 1.91395E-04-3.61498E-06-3.30872E-24
 -1       963 1.91266E-04-4.36513E-06 0.00000E+00
 -1       964 1.91136E-04-5.10333E-06 0.00000E+00
 -1       965 1.91007E-04-5.84058E-06-1.65436E-24
 -1       966 1.90878E-04-6.58788E-06 3.30872E-24
 -1       967 1.90748E-04-7.35622E-06 0.00000E+00
 -1       968 1.90619E-04-8.15658E-06 3.30872E-24
 -1       969 1.90490E-04-8.99991E-06-1.65436E-24
 -1       970 1.90361E-04-9.89714E-06 0.00000E+00
 -1       971 1.90117E-04-1.18183E-05 0.00000E+00
 -1       972 1.89998E-04-1.26847E-05-1.65436E-24
 -1       973 1.89880E-04-1.34681E-05 3.30872E-24
 -1       974 1.89761E-04-1.41792E-05 0.00000E+00
 -1       975 1.89643E-04-1.48288E-05 0.00000E+00
 -1       976 1.89524E-04-1.54275E-05 1.65436E-24
 -1       977 1.89405E-04-1.59861E-05 0.00000E+00
 -1       978 1.89287E-04-1.65153E-05 1.65436E-24
 -1       979 1.89168E-04-1.70259E-05 0.00000E+00
 -1       980 1.89050E-04-1.75286E-05-1.65436E-24
 -1       981 1.88931E-04-1.80341E-05 0.00000E+00
 -1       982 1.88813E-04-1.85532E-05 1.65436E-24
 -1       983 1.88695E-04-1.90967E-05-3.30872E-24
 -1       984 1.88577E-04-1.96753E-05 0.00000E+00
 -1       985 1.88459E-04-2.02997E-05 0.00000E+00
 -3
    1PSTEP                        28          14           1          
  100CL  114 6.49811E-01         409                     0   14           1
 -4  STRESS      6    1
 -5  SXX         1    4    1    1
 -5  SYY         1    4    2    2
 -5  SZZ         1    4    3    3
 -5  SXY         1    4    1    2
 -5  SYZ         1    4    2    3
 -5  SZX         1    4    3    1
 -1         1-4.61086E+06-1.68955E+06-1.01253E+06-1.62952E+06-2.91038E-11 1.03813E-07
 -1         2 1.37618E+05-1.17996E+05 5.57146E+05 8.34573E+05 8.29823E-09 3.50010E-08
 -1         3-1.31631E+03-1.62976E+06 4.11949E+02-2.17604E+03-5.07935E-10-2.04818E-09
 -1         5-5.73616E+01 3.73345E+05 9.58681E+00-1.09591E+00-3.86438E-10 1.37316E-08
 -1         8-6.27271E+05-2.07294E+05-5.51744E+04-2.48376E+05 4.45652E-11 1.56724E-07
 -1         9 8.80809E+06-3.07320E+05 1.53405E+06-1.11799E+06 1.88011E-08 5.56000E-08
 -1        10-2.19256E+03-1.69835E+06-3.93710E+03-1.47052E+04-1.31586E-08-3.80328E-08
 -1        12-5.35538E+01 3.73366E+05 3.14134E+02-7.56768E+00-4.10498E-10 1.63336E-08
 -1        15 1.19594E+03 6.57237E+02 3.86585E+03 1.67400E+00-1.26263E-10 3.30565E-07
 -1        16 1.89248E+07-1.52304E+05 2.64811E+06-1.56218E+06 1.32519E-08-1.08654E-09
 -1        17 6.87226E+06 4.93916E+06 1.85334E+06 4.79437E+06 1.86730E-08 2.85916E-08
 -1        18 2.04756E+05 4.86819E+04 2.07685E+04-1.03090E+05 1.44712E-08 4.35648E-10
 -1        19 1.18977E+05 1.37170E+05-9.29702E+02 2.17080E+04 1.50812E-09-1.30221E-08
 -1        20-7.83247E+04-5.58590E+05-1.25241E+05 2.53316E+04-1.43518E-09 9.38902E-09
 -1        21-4.50584E+01-2.90139E+05-9.07339E+02 2.33232E+02 1.79166E-08 6.63228E-09
 -1        24 1.11880E+07 9.56784E+06 3.14751E+06 8.89716E+06-1.52640E-07-5.81106E-08
 -1        25 8.62836E+04 1.43804E+05 6.80076E+04-5.74713E+05 8.53379E-10 9.21973E-09
 -1        26-5.54109E+04 8.89061E+04-2.44965E+04 1.22768E+03 2.51021E-10 8.04745E-09
 -1        27-7.43683E+04-3.01974E+05-1.10599E+05 6.72428E+04 3.32830E-09-1.58646E-09
 -1        28 2.18576E+04-8.34661E+04 1.65575E+04 2.04872E+04-4.26417E-09-1.09726E-08
 -1        32-1.64558E+06-3.05458E+06-1.82294E+05 3.36815E+05-3.93629E-08-9.04879E-09
 -1        33-1.74487E+05 9.02316E+04 3.15222E+04-3.71733E+04-2.67733E-09 7.31901E-09
 -1        34-2.18377E+05-2.42201E+04 6.66783E+02 7.34624E+04-4.24807E-09 1.79083E-08
 -1        35-2.25022E+04-3.31053E+04-1.31777E+03 5.04861E+04-2.40535E-09 9.80314E-09
 -1        51 5.19483E+04-2.02148E+05 1.11898E+05-5.99688E+05-2.03727E-10 1.40950E-07
 -1        52 1.85092E+04-1.83896E+05 6.00538E+04-6.99129E+05 3.67436E-10-1.87007E-07
 -1        53 4.90106E+03-1.99453E+05 3.33941E+04-5.97483E+05 5.56611E-10-1.26747E-07
 -1        54 1.07121E+04-1.95789E+05 3.17459E+04-7.01426E+05-5.89353E-10-2.02279E-07
 -1        55 2.26198E+04-2.04902E+05 4.36426E+04-5.97174E+05 1.52795E-10-1.61563E-08
 -1        56-8.66001E+06-1.00560E+06-7.52214E+05-3.41699E+06-2.24099E-08-2.40514E-07
 -1        57-9.19798E+06-1.42866E+06-5.03970E+05-3.09891E+06 3.98140E-08 3.90573E-08
 -1        58-8.74558E+06-1.30153E+06-1.76343E+05-3.43571E+06 2.68810E-08-3.82061E-08
 -1        59-9.10337E+06-1.07930E+06-1.04554E+05-3.08398E+06 5.20868E-09-1.68613E-07
 -1        60-8.75773E+06-1.34292E+06-4.08535E+04-3.43867E+06-6.57667E-09-9.53169E-08
 -1        61-9.03588E+06-1.07568E+06-2.19373E+04-3.12639E+06 1.51031E-08 5.02769E-08
 -1        62-8.80873E+06-1.30657E+06-1.32538E+04-3.39071E+06-3.29856E-08-1.32064E-07
 -1        63-8.90206E+06-1.18853E+06-6.15887E+03-3.25146E+06 3.52229E-08-5.95342E-08
 -1        64-8.88418E+06-1.23493E+06-1.36340E+04-3.30824E+06-1.84264E-08 9.28467E-08
 -1        65-8.76761E+06-1.33240E+06-1.82087E+04-3.41353E+06-2.60097E-08 1.31188E-07
 -1        66-8.94464E+06-1.16189E+06-3.78965E+04-3.22979E+06 9.61154E-09 3.03044E-08
 -1        67-8.70815E+06-1.46276E+06-9.23381E+04-3.52867E+06-3.82306E-08-3.82133E-08
 -1        68-8.95202E+06-1.10018E+06-1.55835E+05-3.19858E+06-2.47310E-08-5.17248E-08
 -1        69-8.85186E+06-1.72426E+06-4.48130E+05-3.49578E+06 2.22863E-08-1.97084E-07
 -1        70-8.80454E+06-9.06804E+05-6.66186E+05-3.26147E+06 1.97251E-08 8.75734E-08
 -1        86-1.39561E+05-4.28677E+06-3.07290E+05-4.10688E+05-8.90082E-08-8.91305E-10
 -1        87 1.83778E+05-1.77932E+06 2.47588E+05 1.12180E+06-1.54449E-07-4.09091E-08
 -1        88-1.74334E+04-2.80729E+06 8.37348E+03-7.06839E+05-1.34112E-07-1.02873E-07
 -1        89 2.42186E+05-1.87869E+06 2.15592E+05 1.16371E+06-2.00271E-07 1.81299E-08
 -1        90-1.84957E+05-4.20093E+06-3.61038E+05-4.53914E+05-4.73665E-08-1.99558E-07
 -1       121-1.81042E+03-1.63414E+06-4.23507E+02 1.07997E+03 1.33207E-09-8.95670E-09
 -1       122-1.13014E+03-1.62981E+06 7.98576E+02-4.35234E+03-5.48184E-09-2.43963E-08
 -1       123-1.83920E+03-1.63428E+06 4.33315E+02 3.22451E+03 4.12820E-09 1.17507E-09
 -1       124 5.59057E+02-1.62929E+06 3.11200E+03-9.08378E+03-9.88121E-09 2.47383E-10
 -1       125-2.70182E+03-1.63521E+06 3.83655E+03 5.77398E+03 6.22822E-09-3.99232E-08
 -1       191-6.05146E+01 3.73366E+05 8.90680E+00 5.67169E-01-5.50003E-10 2.01617E-08
 -1       192-5.82763E+01 3.73346E+05 2.04215E+01-3.61513E+00-7.32624E-10 6.11180E-09
 -1       193-6.29281E+01 3.73366E+05 3.54961E+01 3.16610E+00-8.73410E-10 1.03973E-08
 -1       194-6.12114E+01 3.73349E+05 7.75447E+01-8.24043E+00-5.77501E-10 8.32370E-09
 -1       195-6.75617E+01 3.73363E+05 1.49188E+02 5.32499E+00-1.33072E-09 2.65391E-09
 -1       251-2.02086E+06-3.14128E+04-1.96845E+05-1.33720E+05 1.29512E-09 3.66977E-07
 -1       252-1.09757E+06 3.97297E+04 4.83834E+04 4.16712E+05 1.26752E-08 7.90706E-08
 -1       253-1.61238E+06-1.35401E+04-3.42115E+04-2.73183E+05-1.41345E-08 3.83079E-09
 -1       254-1.52898E+06 5.92565E+04 8.36364E+03 5.48630E+05-4.55839E-09 1.01045E-08
 -1       255-1.63199E+06-1.58335E+04-1.99823E+04-2.69392E+05 1.50121E-08 1.59944E-07
 -1       256-1.04928E+06 4.80904E+04 1.06243E+05 4.00575E+05-4.90545E-08 1.24057E-07
 -1       257-2.04526E+06-4.07713E+04-1.04891E+05-1.21169E+05-3.80642E-08-5.83893E-08
 -1       258-5.84030E+05 3.69191E+04 1.94677E+05 6.08652E+03-1.04774E-08 5.82072E-08
 -1       259-2.05168E+06-4.21475E+04-1.04552E+05 1.22483E+05 4.51018E-08 1.76240E-07
 -1       260-1.03450E+06 5.17969E+04 1.14620E+05-3.90473E+05 5.21877E-08-1.91836E-07
 -1       261-1.63894E+06-1.96385E+04-1.19499E+04 2.72811E+05 8.05558E-08-2.31296E-07
 -1       262-1.52572E+06 7.40825E+04 3.27746E+04-5.42981E+05-4.85599E-08-1.38678E-07
 -1       263-1.60873E+06-2.47944E+04 6.18070E+03 2.79293E+05 1.24692E-08 1.06746E-07
 -1       264-1.08235E+06 1.17242E+05 1.51399E+05-4.19931E+05 1.29142E-07-1.00204E-07
 -1       265-2.04135E+06-9.61510E+04-4.44269E+04 1.45878E+05 3.99959E-08 1.70523E-07
 -1       266-2.16505E+04-1.01242E+04 5.07964E+04-3.58180E+01 9.82254E-11 8.24154E-08
 -1       267 2.50988E+04 1.17994E+04 3.59031E+04 4.13280E+01-5.41149E-11-4.61343E-09
 -1       268-3.36571E+03-1.67114E+03 1.33450E+04-5.26584E+00 8.64020E-11-4.22324E-08
 -1       269 3.97392E+03 1.99998E+03 8.67407E+03 6.13397E+00 1.81672E-10 4.78387E-08
 -1       270-5.96482E+02-3.28606E+02 4.18710E+03-8.32415E-01-3.40947E-10 8.09077E-08
 -1       271-1.94505E+06-2.33884E+05-1.44339E+05-7.44045E+05 3.31747E-08-6.08416E-08
 -1       272-2.04574E+06-2.91199E+05-9.29240E+04-6.88295E+05 2.34545E-08-1.68962E-07
 -1       273-1.97141E+06-2.70816E+05-3.40782E+04-7.38514E+05-1.85264E-09 2.13713E-08
 -1       274-2.01423E+06-2.46351E+05-1.91015E+04-6.96893E+05-2.27171E-08 2.02466E-07
 -1       275-1.97552E+06-2.74320E+05-7.96604E+03-7.36936E+05 2.66764E-08 1.03898E-07
 -1       276-2.00780E+06-2.43429E+05-4.13981E+03-6.99959E+05-4.36739E-09 1.23772E-07
 -1       277-1.97728E+06-2.73566E+05-2.12003E+03-7.35281E+05-1.03782E-08 2.87719E-08
 -1       278-2.00370E+06-2.46105E+05-1.25562E+03-7.03301E+05 3.63216E-08-9.45693E-09
 -1       279-1.97904E+06-2.71956E+05-1.47731E+03-7.33209E+05-3.21306E-08-6.71535E-08
 -1       280-1.99949E+06-2.50277E+05-2.08649E+03-7.07387E+05-4.23461E-09 1.88427E-07
 -1       281-1.98093E+06-2.69770E+05-4.20385E+03-7.30794E+05-3.71256E-09 1.27487E-07
 -1       282-1.99643E+06-2.57356E+05-9.25028E+03-7.11889E+05-3.75439E-09-3.62668E-08
 -1       283-1.98166E+06-2.65417E+05-1.70137E+04-7.28297E+05 1.05301E-08 4.22420E-08
 -1       284-2.00578E+06-2.84958E+05-4.53391E+04-7.13995E+05-3.41533E-08-1.43309E-07
 -1       285-1.97161E+06-2.44647E+05-7.10958E+04-7.27668E+05-1.63054E-08-1.59402E-07
 -1       301 1.06363E+04-5.29553E+05 1.73786E+05-9.18995E+05 5.38421E-10 1.13760E-07
 -1       302 1.18383E+04-4.84850E+05 1.05349E+05-1.34303E+06-1.89175E-10-9.21918E-08
 -1       303-8.41168E+03-5.16627E+05 6.29604E+04-9.16633E+05 4.87489E-10 1.52872E-07
 -1       304-1.89567E+03-4.89564E+05 6.93062E+04-1.34232E+06-1.92085E-09 3.85280E-07
 -1       305-6.21410E+03-5.12530E+05 9.31868E+04-9.19424E+05-1.23873E-09-1.99012E-07
 -1       306-2.68707E+07-5.46454E+06-7.45507E+06-1.12640E+06-7.03149E-08-1.35915E-07
 -1       307 2.22319E+07 1.99387E+06 4.80724E+06-1.27711E+07-7.77887E-07 1.08179E-07
 -1       308-7.75726E+06-7.54190E+05-5.61981E+05 4.54261E+06-8.31787E-08 2.80910E-07
 -1       309-3.61754E+06 6.43824E+06 1.80218E+06-1.85838E+07 4.67891E-07 1.68184E-07
 -1       310-1.10118E+07-1.25300E+06-1.42277E+06 4.43202E+06 2.51224E-07-7.59610E-08
 -1       311 2.97707E+07-1.79470E+05 5.89276E+06-8.81891E+06 7.43195E-07 3.23693E-07
 -1       312-2.78379E+07-5.52441E+06-7.05548E+06-3.83836E+06 2.08966E-07 2.02926E-07
 -1       313 3.93669E+07 1.06251E+07 9.04697E+06 1.84651E+07 6.31553E-09-4.13711E-08
 -1       314-1.68464E+07-1.43231E+07-6.45893E+06-1.11400E+07 2.94531E-07-8.18400E-08
 -1       315-7.45345E+05 2.42466E+07 4.95731E+06 1.06333E+07-3.02651E-07 8.98726E-08
 -1       316 2.89049E+05-9.12359E+06-5.25234E+05-3.50445E+06-1.00851E-06-3.58152E-07
 -1       317-1.70202E+07 1.97308E+07 1.76979E+06-5.94617E+06 4.86812E-07-6.40532E-07
 -1       318-1.24472E+06-1.05862E+07-1.47271E+06-4.42753E+06-8.62055E-07 1.21654E-07
 -1       319 4.76720E+06 2.55121E+07 5.65824E+06 1.36297E+07-7.49715E-08 2.06754E-07
 -1       320-1.99707E+07-1.46216E+07-8.22735E+06-1.10741E+07 1.75438E-07-1.96451E-08
 -1       336-4.05480E+02-1.76903E+06-1.38872E+04 8.79183E+03-2.51257E-08-9.63701E-09
 -1       337-5.33244E+03-1.76929E+06-1.80496E+04-2.12674E+04-4.51523E-08-1.75587E-08
 -1       338 5.04523E+02-1.76857E+06-2.80042E+04 1.22682E+04-3.17268E-08-9.45874E-09
 -1       339-2.97081E+04-1.78608E+06-6.33996E+04-2.80514E+04-5.85787E-08-8.00355E-10
 -1       340 1.98007E+04-1.75424E+06-9.96669E+04 1.54584E+04-3.92320E-08 3.40151E-08
 -1       406-3.20460E+01 3.73349E+05 6.17561E+02 2.61763E+00-1.60131E-09 1.02136E-08
 -1       407 1.62977E+02 3.73474E+05 1.31812E+03 2.09344E+01-2.42466E-10 4.78394E-10
 -1       408 6.23232E+02 3.73253E+05 2.62919E+03-2.39340E+01-2.18324E-09 3.45062E-09
 -1       409 2.79704E+03 3.74314E+05 5.92437E+03 2.52561E+02-2.12822E-10-1.37170E-08
 -1       410 8.13214E+03 3.72499E+05 1.20920E+04-2.42744E+02-2.47746E-09-4.16912E-09
 -1       521-2.84639E+07-6.71288E+06-8.71651E+06-8.23772E+05-1.12457E-07-8.83592E-08
 -1       522 2.30340E+07 2.64226E+06 4.89154E+06-1.58498E+07-5.63101E-07-3.55445E-07
 -1       523-8.51561E+06-1.03677E+06-5.81015E+05 4.98885E+06 5.73345E-08-3.17945E-07
 -1       524-6.74857E+06 8.91548E+06 1.95572E+06-2.15122E+07 8.69135E-07-6.09078E-07
 -1       525-1.19690E+07-1.73707E+06-1.56555E+06 4.86863E+06 7.26606E-07-2.46204E-07
 -1       526 3.23140E+07-1.99905E+05 6.20636E+06-1.12977E+07 2.91941E-07 3.50614E-07
 -1       527-2.96373E+07-6.95086E+06-8.12660E+06-3.73730E+06 1.79512E-07 1.20301E-07
 -1       528 4.31004E+07 1.16588E+07 9.45558E+06 2.09324E+07 1.51340E-08-3.32133E-07
 -1       529-1.78910E+07-1.62651E+07-7.41108E+06-1.13506E+07-3.51574E-08-5.84987E-08
 -1       530-2.96678E+06 2.83157E+07 5.24944E+06 1.06567E+07 1.51573E-07 5.39876E-07
 -1       531 2.10461E+05-1.02637E+07-5.28784E+05-3.65544E+06-6.93821E-07 2.01020E-07
 -1       532-1.99801E+07 2.20043E+07 1.94600E+06-9.34388E+06 4.27826E-07-7.34406E-07
 -1       533-1.32537E+06-1.17441E+07-1.55694E+06-4.49201E+06-1.23371E-07-9.79053E-07
 -1       534 2.82752E+06 2.97026E+07 5.90598E+06 1.41535E+07-9.96806E-08 7.28876E-07
 -1       535-2.11372E+07-1.66895E+07-9.41008E+06-1.12735E+07 7.19447E-08 4.37547E-07
 -1       536-4.32144E+05-5.61757E+04-1.29321E+04-2.43867E+04-5.75933E-09 4.09127E-08
 -1       537 2.41654E+05 4.99213E+04 1.07390E+05 4.56110E+04-1.06914E-07 5.11336E-08
 -1       538-1.28140E+05 6.58342E+03 1.07830E+04-2.19995E+04 2.53396E-08 5.54865E-08
 -1       539 4.25669E+04-8.17504E+03 3.38218E+04 4.71222E+04 1.65706E-07 6.94436E-08
 -1       540-2.34401E+05 3.16276E+03-2.11604E+04-2.60355E+04-1.52049E-08 4.63237E-08
 -1       541 4.15253E+05 1.05452E+04 1.04945E+05 3.98444E+04-3.69353E-08 5.18930E-08
 -1       542-4.98078E+05-1.46365E+04-7.71818E+04-1.44991E+04 6.26645E-08 6.24777E-09
 -1       543 6.42064E+05 2.43777E+04 1.50640E+05-4.47541E+03 3.68915E-08-3.08728E-09
 -1       544-4.59564E+05-1.21331E+04-7.03837E+04 1.81166E+04-1.03533E-08-2.90012E-08
 -1       545 3.09840E+05 1.86507E+03 8.01072E+04-4.21884E+04 7.64916E-09-5.97638E-08
 -1       546-1.68260E+05 1.00107E+04-1.25178E+04 2.31267E+04 1.41145E-08-8.18551E-08
 -1       547 2.72305E+04-1.54184E+04 1.89483E+04-4.73094E+04-1.18356E-07-8.59877E-08
 -1       548-1.79048E+05 7.08142E+03-1.95605E+04 2.34149E+04-1.18657E-07-5.00422E-08
 -1       549 3.32937E+05 2.00490E+04 7.71378E+04-4.18672E+04-5.90869E-08-5.45213E-08
 -1       550-4.71754E+05-2.74926E+04-9.91289E+04 1.75009E+04 3.61752E-09-1.06156E-08
 -1       551 3.85952E+04-7.71890E+05-7.88875E+03-1.22065E+06-9.70613E-08 1.74623E-09
 -1       552 8.72622E+04-8.12173E+05 1.44696E+04-1.74077E+06-7.26577E-08 3.11484E-08
 -1       553 6.65615E+04-8.09985E+05 3.50585E+04-1.21439E+06-1.12661E-07 2.86236E-08
 -1       554 1.24298E+05-8.25384E+05 8.45694E+04-1.74272E+06-6.97910E-08 2.50529E-08
 -1       555 9.61919E+04-8.32883E+05 1.53307E+05-1.21439E+06-1.16474E-07-1.44100E-08
 -1       556 1.97152E+05-3.60700E+05 3.59413E+04-3.93274E+05-2.52039E-08-1.55123E-08
 -1       557 3.22176E+05-4.60481E+05 2.11213E+04-5.06085E+05-2.44472E-09 1.66583E-08
 -1       558 1.81514E+05-3.56392E+05 4.93799E+03-3.95437E+05-1.89466E-08 8.53470E-09
 -1       559 2.98495E+05-4.62383E+05 3.58528E+03-5.24477E+05 1.76369E-08 1.00517E-08
 -1       560 1.67931E+05-3.47851E+05-6.72662E+02-4.05154E+05 1.04192E-08 3.43789E-08
 -1       561 2.81287E+05-4.55602E+05 4.38268E+02-5.36162E+05-1.05210E-08 1.71531E-08
 -1       562 1.57177E+05-3.41147E+05-1.01420E+03-4.12924E+05-3.55067E-09 1.43264E-08
 -1       563 2.68523E+05-4.50041E+05 4.35705E+01-5.44494E+05-2.67755E-09 1.56615E-09
 -1       564 1.49529E+05-3.36375E+05-4.92571E+02-4.18337E+05-3.92902E-10-4.47471E-09
 -1       565 2.60108E+05-4.46380E+05 2.53783E+01-5.49875E+05-9.93168E-10-4.22051E-09
 -1       566 1.45100E+05-3.33569E+05-2.52661E+02-4.21434E+05-6.80302E-09-4.53110E-09
 -1       567 2.56077E+05-4.44633E+05-4.01114E+02-5.52314E+05 1.81299E-08 1.46247E-08
 -1       568 1.43975E+05-3.32882E+05-1.17425E+03-4.22315E+05-5.75801E-09 2.89947E-09
 -1       569 2.55045E+05-4.44653E+05-2.94199E+03-5.50874E+05-1.02373E-08 1.40717E-08
 -1       570 1.47229E+05-3.36037E+05-6.34230E+03-4.21324E+05 3.55794E-09 1.07684E-08
 -1       571 2.82244E+05 1.00903E+04 1.44555E+04-8.96405E+04 4.81759E-09 3.03771E-09
 -1       572 2.84346E+05 3.77097E+03 7.08408E+03-9.83487E+04 7.40101E-09 1.11213E-08
 -1       573 2.83081E+05 1.15675E+03 3.14767E+03-8.94734E+04-2.58433E-09 6.97491E-09
 -1       574 2.83294E+05 6.51037E+02 1.57838E+03-9.85591E+04-1.38634E-08-1.52359E-08
 -1       575 2.83174E+05 3.86291E+02 7.44939E+02-8.94506E+04 4.31193E-09 3.05499E-09
 -1       576 2.83163E+05 3.92515E+02 3.81350E+02-9.85871E+04 2.41050E-08-5.06679E-09
 -1       577 2.83211E+05 3.31098E+02 1.90475E+02-8.94475E+04 2.01462E-08-9.64064E-09
 -1       578 2.83189E+05 3.57739E+02 1.10149E+02-9.85911E+04 1.86769E-08-6.16819E-09
 -1       579 2.83275E+05 2.98680E+02 7.61750E+01-8.94472E+04 1.76769E-08 3.53884E-09
 -1       580 2.83280E+05 3.12677E+02 8.88376E+01-9.85865E+04-4.34829E-09-1.69348E-09
 -1       581 2.83377E+05 2.47438E+02 1.35229E+02-8.94527E+04 7.38510E-09 3.65617E-09
 -1       582 2.83438E+05 2.83750E+02 2.74739E+02-9.85281E+04 6.44832E-09 5.01586E-09
 -1       583 2.83500E+05 2.98063E+02 5.28701E+02-8.95061E+04 2.21917E-09-1.42245E-08
 -1       584 2.83788E+05 7.28652E+02 1.19542E+03-9.80785E+04 2.66300E-09-9.62041E-09
 -1       585 2.83508E+05 1.74281E+03 2.42244E+03-8.99017E+04-2.15732E-09-1.17361E-08
 -1       586-3.54733E+03 1.10035E+05-3.30620E+03-2.38813E+05-7.72707E-09-1.11572E-08
 -1       587-1.30414E+03 1.09717E+05 5.22938E+02-2.62837E+05-5.10408E-09 4.88399E-10
 -1       588 4.62989E+02 1.09580E+05 4.53531E+03-2.38685E+05-5.03314E-09 1.26447E-08
 -1       589 5.05757E+03 1.11963E+05 1.19749E+04-2.62607E+05-9.94260E-09 8.96398E-09
 -1       590 1.62859E+04 1.08261E+05 2.52046E+04-2.39097E+05-4.25962E-09 1.73568E-08
 -1       591-6.98470E+04-1.50683E+04-2.16595E+04-2.99178E+04-6.72571E-10 9.86620E-09
 -1       592-7.37714E+04-1.84957E+04-1.17325E+04-3.34100E+04-2.71227E-09 8.70273E-10
 -1       593-7.20124E+04-1.34974E+04-4.88366E+03-3.15069E+04-3.40568E-09-1.50044E-09
 -1       594-7.07810E+04-1.53174E+04-2.43560E+03-3.35230E+04-2.13925E-09 1.19385E-09
 -1       595-7.21774E+04-1.34923E+04-1.11817E+03-3.15791E+04-2.78645E-09 1.14125E-08
 -1       596-7.05763E+04-1.51720E+04-5.68187E+02-3.34986E+04 7.48960E-09 4.57336E-08
 -1       597-7.21982E+04-1.35071E+04-3.08890E+02-3.15818E+04 4.63967E-09 2.08048E-08
 -1       598-7.05561E+04-1.51662E+04-2.47383E+02-3.34918E+04-1.07298E-09-2.80333E-08
 -1       599-7.21970E+04-1.35076E+04-3.14842E+02-3.15815E+04 4.34466E-09-1.10966E-08
 -1       600-7.05762E+04-1.51725E+04-5.83954E+02-3.34966E+04 3.56067E-10-2.34241E-08
 -1       601-7.21734E+04-1.34936E+04-1.15152E+03-3.15781E+04 4.28849E-09-7.02448E-09
 -1       602-7.07871E+04-1.53211E+04-2.50937E+03-3.35180E+04-4.59897E-09-1.40202E-08
 -1       603-7.20007E+04-1.35017E+04-5.03217E+03-3.15045E+04 3.18255E-09 3.41061E-11
 -1       604-7.38858E+04-1.85767E+04-1.20884E+04-3.33771E+04 6.64079E-09 7.78596E-09
 -1       605-6.97498E+04-1.51379E+04-2.23167E+04-2.98865E+04 1.23671E-08 2.01453E-08
 -1       606 2.66126E+04-1.38598E+04-2.48528E+04 2.41292E+04 4.92946E-09-2.71893E-09
 -1       607 2.23655E+04-4.52308E+03-1.23765E+04 2.71123E+04 1.60071E-10-2.16164E-09
 -1       608 2.47854E+04-8.12636E+02-5.54067E+03 2.39564E+04-7.26504E-09-4.62228E-09
 -1       609 2.43204E+04-2.74440E+02-2.79896E+03 2.73272E+04 7.27596E-11-5.00222E-10
 -1       610 2.45777E+04-3.48326E+01-1.33550E+03 2.39361E+04 4.72482E-09-1.85644E-08
 -1       611 2.45037E+04-3.38947E+01-6.73332E+02 2.73504E+04 7.43194E-09-8.76457E-09
 -1       612 2.45312E+04-2.10151E+01-3.20160E+02 2.39340E+04 4.32647E-09-1.60958E-09
 -1       613 2.45140E+04-2.94238E+01-1.43471E+02 2.73531E+04 5.06952E-09-8.16817E-09
 -1       614 2.45091E+04-2.67779E+01-3.37055E+01 2.39333E+04 2.07547E-09-4.16458E-09
 -1       615 2.45082E+04-2.75836E+01 6.00386E+01 2.73536E+04-2.56250E-09 6.54245E-09
 -1       616 2.44917E+04-2.34239E+01 1.80111E+02 2.39336E+04-1.72804E-09 2.23054E-09
 -1       617 2.45293E+04 1.11023E+01 4.10993E+02 2.73531E+04-7.12589E-10-2.25873E-09
 -1       618 2.44556E+04 9.52911E+01 8.28426E+02 2.39339E+04 4.75666E-10-7.19615E-09
 -1       619 2.48214E+04 6.51829E+02 1.86031E+03 2.73524E+04 2.46132E-10-3.83216E-09
 -1       620 2.41803E+04 2.05985E+03 3.73917E+03 2.39350E+04 2.36810E-09-5.64160E-09
 -1       621 4.66894E+02 2.91344E+05 3.64585E+03 3.77289E+04 8.30369E-10-2.86855E-09
 -1       622 6.14279E+02 2.92192E+05 3.25905E+03 5.47846E+04 1.02364E-09-2.23281E-09
 -1       623 1.19665E+02 2.91528E+05 3.94738E+03 3.75568E+04 1.26556E-09-1.14405E-08
 -1       624 2.00754E+03 2.93375E+05 7.67746E+03 5.49551E+04 1.14051E-09 9.63450E-09
 -1       625 1.96947E+03 2.90006E+05 1.34282E+04 3.75533E+04 1.17052E-09 2.21087E-08
 -1       626 2.53836E+05 6.03870E+04 5.10822E+03 1.24050E+05 2.05500E-09-5.16229E-09
 -1       627 2.51531E+05 6.17745E+04 2.46159E+03 1.28304E+05-1.50976E-09-4.31282E-09
 -1       628 2.53965E+05 5.80483E+04 1.04099E+03 1.24917E+05-6.89579E-09 2.15723E-08
 -1       629 2.50894E+05 6.10982E+04 5.09466E+02 1.28545E+05-6.19275E-09 9.67046E-09
 -1       630 2.53979E+05 5.79354E+04 2.36259E+02 1.24953E+05-7.35963E-09-1.34429E-08
 -1       631 2.50827E+05 6.10727E+04 1.26979E+02 1.28547E+05 9.27503E-09-1.66559E-08
 -1       632 2.53975E+05 5.79396E+04 8.32653E+01 1.24948E+05-5.23050E-09-1.24624E-08
 -1       633 2.50818E+05 6.10748E+04 9.23116E+01 1.28543E+05-2.05866E-08 5.19253E-09
 -1       634 2.53970E+05 5.79372E+04 1.48783E+02 1.24947E+05-1.68661E-08 1.20197E-08
 -1       635 2.50832E+05 6.10734E+04 3.00815E+02 1.28548E+05-6.35077E-09 1.15920E-08
 -1       636 2.53961E+05 5.79318E+04 6.07379E+02 1.24947E+05 5.96651E-09-2.95495E-09
 -1       637 2.50963E+05 6.11679E+04 1.33537E+03 1.28547E+05 2.15969E-08 2.73599E-09
 -1       638 2.53913E+05 5.82269E+04 2.74369E+03 1.24814E+05 7.32052E-09 4.79258E-09
 -1       639 2.52404E+05 6.31722E+04 6.49162E+03 1.28122E+05 5.60681E-09 2.37815E-08
 -1       640 2.53714E+05 6.42118E+04 1.34713E+04 1.22290E+05 5.93582E-09 3.86331E-09
 -1       656 6.49227E+04-1.66063E+06-1.56721E+05-2.26499E+03-5.02041E-10-5.68735E-09
 -1       657-8.58836E+04-1.73144E+06-1.29826E+05 5.46656E+03-3.12866E-10-3.43528E-09
 -1       658 2.06921E+04-1.68074E+06-7.99468E+04-4.26405E+03-3.36740E-10-2.76738E-09
 -1       659-9.28427E+04-1.73475E+06-1.38971E+05 7.10711E+03-1.91631E-09 6.41388E-09
 -1       660 7.18662E+04-1.65733E+06-1.72444E+05-3.90552E+03-2.76486E-09-6.52022E-09
 -1       661 1.58436E+05 1.66340E+04 1.65949E+04 6.19440E+04-2.66482E-09 4.89945E-09
 -1       662 1.67776E+05 2.89648E+04 1.11837E+04 5.82692E+04 1.54085E-09-1.03917E-08
 -1       663 1.61696E+05 2.19581E+04 3.91140E+03 6.09984E+04 9.94191E-10-4.68935E-09
 -1       664 1.63998E+05 2.27383E+04 2.33974E+03 5.94241E+04 1.51337E-09-7.53832E-09
 -1       665 1.62190E+05 2.26856E+04 9.23017E+02 6.08545E+04 1.20133E-09-1.17687E-08
 -1       666 1.63413E+05 2.19061E+04 5.40165E+02 5.96115E+04 1.35088E-10 1.84953E-08
 -1       667 1.62276E+05 2.27687E+04 2.86973E+02 6.08187E+04 1.04262E-09-1.43778E-10
 -1       668 1.63318E+05 2.18460E+04 2.92530E+02 5.96635E+04-4.59779E-09-1.46384E-08
 -1       669 1.62284E+05 2.27440E+04 3.96158E+02 6.08028E+04-1.40665E-09 1.52369E-09
 -1       670 1.63415E+05 2.20608E+04 8.62735E+02 5.96661E+04-8.28101E-09 1.91567E-09
 -1       671 1.62179E+05 2.25583E+04 1.53189E+03 6.08141E+04 1.19810E-09-5.90853E-09
 -1       672 1.64308E+05 2.35510E+04 3.91933E+03 5.94497E+04 9.43544E-09 1.80745E-09
 -1       673 1.61395E+05 2.12915E+04 6.56818E+03 6.10048E+04 1.74055E-09 8.50969E-09
 -1       674 1.70560E+05 3.41031E+04 1.87836E+04 5.76126E+04-2.82398E-09 2.32603E-09
 -1       675 1.55968E+05 1.23018E+04 2.78814E+04 6.25403E+04-1.87902E-09-1.29785E-08
 -1       676 2.36458E+01-2.90064E+05-1.09358E+03-1.16619E+02 8.97813E-10-3.25097E-09
 -1       677-2.89574E+02-2.90328E+05-2.00144E+03 2.33057E+02 5.17571E-09-4.93392E-09
 -1       678 1.93987E+02-2.89875E+05-3.53805E+03-1.16361E+02-2.08502E-10 3.89225E-09
 -1       679-3.53837E+03-2.92464E+05-8.40491E+03 2.32069E+02 6.87214E-09 2.82337E-09
 -1       680 2.11239E+03-2.87929E+05-1.35458E+04-1.14343E+02-1.78261E-10-1.30167E-08
 -1       771-3.01311E+06-7.17462E+05-1.49326E+05-1.42915E+06-3.09374E-08-2.79397E-08
 -1       772-2.94085E+06-8.01291E+05-7.70772E+04-1.52594E+06-2.45636E-08 5.10408E-09
 -1       773-3.04158E+06-6.95190E+05-3.90876E+04-1.44176E+06-1.11759E-08 1.08703E-08
 -1       774-2.93164E+06-7.84859E+05-1.74807E+04-1.54907E+06 2.66446E-08 3.72165E-09
 -1       775-3.05622E+06-6.84889E+05-1.29375E+04-1.44780E+06 3.34694E-09 1.25874E-09
 -1       776-2.94226E+06-7.82354E+05-4.85984E+03-1.56639E+06-2.73576E-09-5.42059E-10
 -1       777-3.06885E+06-6.75746E+05-5.66547E+03-1.45312E+06 1.08266E-08 6.86123E-09
 -1       778-2.95338E+06-7.80044E+05-1.60814E+03-1.58125E+06 7.59610E-09 5.44605E-09
 -1       779-3.07968E+06-6.67783E+05-2.81399E+03-1.45767E+06-7.74162E-09-6.20275E-09
 -1       780-2.96316E+06-7.77837E+05-4.64781E+02-1.59335E+06-1.15688E-09 2.37196E-09
 -1       781-3.08827E+06-6.61377E+05-1.08222E+03-1.46123E+06-2.60770E-08-3.20142E-10
 -1       782-2.97069E+06-7.75955E+05 4.10652E+02-1.60227E+06-3.83152E-08-7.48696E-09
 -1       783-3.09431E+06-6.56936E+05 6.48436E+02-1.46373E+06-1.13941E-08-1.34946E-08
 -1       784-2.97482E+06-7.74009E+05 2.62305E+03-1.60778E+06-1.88629E-08 8.41283E-10
 -1       785-3.09789E+06-6.54282E+05 4.63706E+03-1.46533E+06-3.22834E-08 1.20708E-08
 -1       786 1.12612E+05-9.35204E+03 2.16363E+04-2.71392E+02-2.15785E-10 2.86818E-08
 -1       787 1.21996E+05 1.08273E+04 1.53068E+04-9.87991E+01 4.01516E-09-1.22175E-08
 -1       788 1.16230E+05-1.46558E+03 5.59757E+03-2.39996E+02 1.74285E-09 2.77282E-09
 -1       789 1.17781E+05 1.69612E+03 3.51368E+03-1.47329E+02 3.20439E-10 1.60967E-08
 -1       790 1.16827E+05-2.28254E+02 1.42201E+03-2.22878E+02-3.62103E-09 3.98956E-09
 -1       791 1.17083E+05 2.63681E+02 8.20126E+02-1.76821E+02-3.54354E-09 6.70184E-11
 -1       792 1.16929E+05-3.42112E+01 3.45140E+02-2.10505E+02-4.12527E-09 1.25007E-08
 -1       793 1.16961E+05 3.47197E+01 1.66816E+02-2.00089E+02-2.44148E-09-1.10793E-08
 -1       794 1.16949E+05 5.62973E-01 3.28035E+01-1.99610E+02 3.49919E-09 8.74974E-09
 -1       795 1.16921E+05-3.54834E+01-8.37141E+01-2.22599E+02-5.14660E-09-5.27811E-09
 -1       796 1.16968E+05 3.59522E+01-2.04733E+02-1.87994E+02 2.28420E-09-1.59988E-08
 -1       797 1.16807E+05-2.68853E+02-5.48333E+02-2.48866E+02 2.70313E-09-1.49823E-08
 -1       798 1.17064E+05 2.33758E+02-8.86685E+02-1.73343E+02 1.92014E-09 9.29958E-10
 -1       799 1.16135E+05-1.72454E+03-2.43615E+03-2.84673E+02 5.57292E-09 6.32014E-09
 -1       800 1.17640E+05 1.49046E+03-3.44664E+03-1.52189E+02 4.10028E-10-4.16321E-10
 -1       801-1.27432E+05-9.22629E+06-1.26243E+06 1.23148E+06 8.96398E-08-5.23505E-08
 -1       802 6.18249E+05 4.75580E+06 1.88164E+06-1.49872E+06 2.41300E-07-2.69147E-08
 -1       803-4.67760E+05-1.29272E+07-1.66184E+06 7.77482E+05 7.27305E-08 2.15205E-08
 -1       804 2.42713E+05 1.61537E+06 1.33051E+06 6.21179E+05-1.11082E-07-9.33173E-08
 -1       805 1.73504E+05-6.10072E+06-2.55610E+05-8.83335E+05-4.60568E-08-6.11599E-08
 -1       806-3.01947E+05-5.79031E+04-2.19854E+04-1.19199E+05-8.67931E-09-2.40607E-09
 -1       807-3.03723E+05-5.42682E+04-1.08012E+04-1.24479E+05 4.76621E-09 1.82658E-08
 -1       808-3.02547E+05-4.99836E+04-4.58226E+03-1.22949E+05-7.45513E-09-3.36206E-09
 -1       809-3.01455E+05-5.12307E+04-2.24065E+03-1.24741E+05-1.63955E-08-1.94469E-08
 -1       810-3.02638E+05-4.97079E+04-1.02708E+03-1.23115E+05 1.06920E-08 5.48789E-09
 -1       811-3.01279E+05-5.11084E+04-5.10913E+02-1.24707E+05 7.19047E-09 2.37280E-08
 -1       812-3.02652E+05-4.97315E+04-2.58710E+02-1.23115E+05-1.74987E-09-2.92903E-09
 -1       813-3.01256E+05-5.11103E+04-1.68734E+02-1.24689E+05-3.12548E-09-1.95876E-08
 -1       814-3.02646E+05-4.97406E+04-1.68117E+02-1.23111E+05-4.70300E-09-2.10193E-08
 -1       815-3.01260E+05-5.11122E+04-2.71841E+02-1.24683E+05 4.70254E-09 1.31076E-08
 -1       816-3.02626E+05-4.97393E+04-5.15760E+02-1.23108E+05 7.22139E-09 3.70483E-09
 -1       817-3.01348E+05-5.11613E+04-1.10732E+03-1.24672E+05-9.45829E-09 4.43697E-09
 -1       818-3.02560E+05-4.98950E+04-2.25862E+03-1.23034E+05-3.34421E-09 1.10931E-08
 -1       819-3.02583E+05-5.25274E+04-5.31468E+03-1.24382E+05 1.52795E-09-7.58473E-09
 -1       820-3.02137E+05-5.39073E+04-1.08172E+04-1.21317E+05 7.95808E-10 1.17243E-08
 -1       821-3.69332E+05 2.03955E+04-4.73024E+04 1.63402E+03 1.14711E-08 6.63749E-09
 -1       822-3.89282E+05-2.36173E+04-3.33771E+04-3.14473E+03 3.74293E-09 7.21548E-09
 -1       823-3.76954E+05 3.20546E+03-1.22344E+04 2.41320E+03-9.04678E-09 1.49225E-08
 -1       824-3.80218E+05-3.70172E+03-7.67854E+03-3.55644E+03 1.27345E-09 5.00222E-10
 -1       825-3.78396E+05 4.97813E+02-3.18978E+03 2.04578E+03 1.58699E-08-1.44360E-09
 -1       826-3.78265E+05-5.71139E+02-1.80414E+03-1.87818E+03 1.73976E-08-2.38646E-08
 -1       827-3.78895E+05 6.77939E+01-1.07424E+03 7.34871E+02 7.81515E-09 1.66273E-09
 -1       828-3.77864E+05-1.57373E+02-7.33090E+02 9.79214E+02-1.92822E-09 3.63376E-09
 -1       829-3.78791E+05 8.03700E+01-1.07519E+03-8.11647E+02 1.93835E-09-2.27556E-09
 -1       830-3.78497E+05-6.12473E+02-1.91598E+03 3.46791E+03 3.05672E-10 2.22258E-10
 -1       831-3.78274E+05 5.31438E+02-3.28276E+03-1.75386E+03-3.23817E-09-6.20093E-09
 -1       832-3.80304E+05-3.85697E+03-7.97700E+03 4.23728E+03-9.26432E-10 3.74030E-09
 -1       833-3.76991E+05 3.32760E+03-1.27203E+04-1.58103E+03-1.72770E-09 1.62672E-08
 -1       834-3.89469E+05-2.45192E+04-3.46095E+04 2.84457E+03-3.25106E-09-8.64748E-09
 -1       835-3.69103E+05 2.11698E+04-4.91367E+04-3.61112E+02 3.90718E-09 6.30826E-09
 -1       836-1.35981E+03 3.59290E+05 2.21779E+04-1.51059E+04-6.07633E-09 9.69931E-09
 -1       837 4.74307E+03 3.66229E+05 1.87932E+04-3.08217E+04-6.46401E-09 1.98734E-08
 -1       838-5.35239E+02 3.61233E+05 1.91859E+04-1.50380E+04-5.50381E-09 7.93034E-09
 -1       839 1.21039E+04 3.71714E+05 3.63312E+04-3.08728E+04-5.83896E-09-5.34055E-09
 -1       840-3.73163E+03 3.53751E+05 5.79514E+04-1.50596E+04-5.64978E-09-2.22499E-09
 -1       856-5.39694E+04 7.93740E+03-2.09168E+04-3.97434E+02 4.07738E-09-2.31921E-09
 -1       857-6.25891E+04-9.32435E+03-1.43991E+04 5.51823E+03 4.22935E-09-3.23598E-09
 -1       858-5.73821E+04 1.11304E+03-5.42748E+03-4.20981E+02 1.22196E-09-4.43970E-09
 -1       859-5.86724E+04-1.30772E+03-3.27540E+03 5.55348E+03-3.40309E-09-1.39880E-09
 -1       860-5.78920E+04 1.55765E+02-1.37297E+03-4.32455E+02 1.48432E-09-5.62795E-09
 -1       861-5.80858E+04-1.84332E+02-7.55844E+02 5.56912E+03 3.61439E-09-1.70060E-08
 -1       862-5.79717E+04 2.10233E+01-3.15277E+02-4.36605E+02 3.31525E-10 1.59259E-08
 -1       863-5.79883E+04-2.02028E+01-1.17305E+02 5.57149E+03-1.59439E-09 2.60006E-08
 -1       864-5.79900E+04-4.64163E+00 4.11548E+01-4.34826E+02-1.21604E-09 2.16260E-08
 -1       865-5.79347E+04 5.79189E+01 2.40149E+02 5.56143E+03-4.89098E-09 4.82170E-09
 -1       866-5.80232E+04-5.71348E+01 4.86822E+02-4.26551E+02 9.58892E-10 1.23687E-08
 -1       867-5.77050E+04 4.72357E+02 1.20008E+03 5.53895E+03-2.03443E-10-7.16443E-09
 -1       868-5.82149E+04-4.11658E+02 1.99463E+03-4.12342E+02-1.04541E-09-1.58147E-08
 -1       869-5.62422E+04 3.42634E+03 5.31166E+03 5.50178E+03 2.91692E-09-3.02806E-08
 -1       870-5.94785E+04-2.93097E+03 7.70837E+03-3.89298E+02-7.56745E-09-2.67596E-08
 -1       871-5.41175E+03-2.00729E+04-1.89505E+04 1.26801E+05-4.90763E-09 1.69275E-08
 -1       872-1.98711E+03-2.44642E+04-7.92178E+03 1.64415E+05-9.31777E-09 4.64720E-08
 -1       873 3.49029E+02-2.23473E+04 6.06885E+02 1.26523E+05-5.63887E-09 8.86018E-09
 -1       874 3.17413E+03-1.99729E+04 9.58663E+03 1.64445E+05-1.05474E-08-1.44341E-08
 -1       875 6.65601E+03-2.46312E+04 2.16008E+04 1.26755E+05-4.21642E-09-6.95672E-09
 -1       876 2.86987E+05 4.84303E+04 1.47706E+04 1.15242E+05 7.99469E-09 6.31553E-09
 -1       877 2.87959E+05 5.15457E+04 7.88805E+03 1.19482E+05 9.54878E-09-8.77560E-09
 -1       878 2.88369E+05 4.67944E+04 3.30471E+03 1.16452E+05 4.32010E-10 1.11820E-08
 -1       879 2.85952E+05 4.95420E+04 1.64660E+03 1.19582E+05 1.03582E-08 1.49839E-08
 -1       880 2.88468E+05 4.67774E+04 7.66963E+02 1.16502E+05 5.65228E-09 1.30099E-08
 -1       881 2.85818E+05 4.94563E+04 4.09559E+02 1.19560E+05-8.96625E-09-1.38204E-08
 -1       882 2.88477E+05 4.67903E+04 2.62002E+02 1.16503E+05-1.45383E-09-1.23594E-08
 -1       883 2.85809E+05 4.94519E+04 2.81641E+02 1.19552E+05-6.88209E-09-2.17258E-08
 -1       884 2.88470E+05 4.67875E+04 4.48009E+02 1.16504E+05 1.44382E-09-2.55079E-09
 -1       885 2.85844E+05 4.94581E+04 9.00737E+02 1.19563E+05 1.56228E-09 7.91943E-09
 -1       886 2.88435E+05 4.67612E+04 1.81539E+03 1.16500E+05 9.72918E-10 5.68548E-09
 -1       887 2.86164E+05 4.96673E+04 3.96549E+03 1.19609E+05 9.36041E-09-1.38385E-08
 -1       888 2.88185E+05 4.68054E+04 7.99057E+03 1.16373E+05 5.40243E-09 1.98097E-08
 -1       889 2.90921E+05 5.46143E+04 1.90881E+04 1.19463E+05 3.90499E-09-9.33142E-10
 -1       890 2.84924E+05 5.06786E+04 3.57514E+04 1.13331E+05 1.35424E-09-2.67228E-08
 -1       891-9.58520E+01-1.59220E+05-1.95039E+03 2.67665E+04-2.01089E-09-6.76300E-09
 -1       892-1.84329E+02-1.59731E+05-2.09540E+03 4.06313E+04 2.88537E-09 6.81780E-09
 -1       893 3.42259E+01-1.59283E+05-2.96749E+03 2.67736E+04-6.85077E-10 9.90804E-09
 -1       894-1.48901E+03-1.60853E+05-6.14211E+03 4.04815E+04 2.07729E-09-2.20052E-09
 -1       895-1.18067E+03-1.58003E+05-1.08163E+04 2.69177E+04 2.91038E-10-4.39195E-09
 -1       956-3.68154E+05-5.28799E+03-1.30841E+04 2.95928E+04 8.25185E-09 1.86039E-08
 -1       957-3.70724E+05-1.85572E+03-6.71598E+03 3.55724E+04 1.33195E-09 1.27739E-09
 -1       958-3.69329E+05-2.22799E+02-3.02635E+03 2.94306E+04 2.48565E-09-5.12864E-09
 -1       959-3.69522E+05-1.19264E+02-1.54538E+03 3.57602E+04 1.10326E-08-1.45415E-08
 -1       960-3.69442E+05-3.28620E+01-7.53598E+02 2.94140E+04 7.45786E-09-6.94035E-09
 -1       961-3.69442E+05-4.88915E+01-3.99653E+02 3.57798E+04 3.87081E-09 5.20686E-11
 -1       962-3.69468E+05-3.45344E+01-2.28933E+02 2.94112E+04 3.93948E-09 2.52339E-09
 -1       963-3.69442E+05-4.51387E+01-1.84017E+02 3.57832E+04 8.75480E-09-7.62134E-09
 -1       964-3.69474E+05-3.14065E+01-2.24033E+02 2.94105E+04 1.24433E-09 1.17473E-08
 -1       965-3.69454E+05-4.22334E+01-3.87695E+02 3.57826E+04-4.65570E-09 4.23938E-09
 -1       966-3.69458E+05-2.35611E+01-7.28541E+02 2.94119E+04 2.95199E-09 4.10409E-10
 -1       967-3.69542E+05-1.03910E+02-1.49429E+03 3.57688E+04 1.89698E-09 1.12518E-08
 -1       968-3.69357E+05-2.01216E+02-2.92523E+03 2.94241E+04 1.27648E-09 7.23026E-09
 -1       969-3.70716E+05-1.77770E+03-6.49403E+03 3.56265E+04-3.56204E-09 2.20871E-09
 -1       970-3.68230E+05-5.09528E+03-1.26506E+04 2.95470E+04-3.75530E-09 1.05138E-08
 -1       971-3.37695E+05-1.69324E+03-9.15356E+03 1.50985E+04 8.67931E-09 1.40143E-08
 -1       972-3.39901E+05-1.24335E+03-4.98494E+03 2.09034E+04 1.12573E-08-6.02085E-10
 -1       973-3.38715E+05-5.59180E+01-2.23276E+03 1.49788E+04 4.78485E-09 5.47516E-10
 -1       974-3.38850E+05-7.27340E+01-1.15734E+03 2.10382E+04 4.73301E-09 9.05766E-09
 -1       975-3.38795E+05-1.19135E+01-5.78844E+02 1.49667E+04-5.72982E-10 5.60601E-09
 -1       976-3.38789E+05-2.38235E+01-3.34561E+02 2.10536E+04 3.57795E-09 2.72280E-10
 -1       977-3.38811E+05-1.12657E+01-2.43904E+02 1.49635E+04-1.82354E-09-8.68249E-09
 -1       978-3.38794E+05-1.77696E+01-2.86902E+02 2.10583E+04-9.57834E-09 9.22012E-09
 -1       979-3.38811E+05-3.00984E+00-4.62232E+02 1.49621E+04-2.13464E-09-4.84147E-09
 -1       980-3.38829E+05-1.47861E+01-8.93310E+02 2.10592E+04 9.32175E-10-9.97761E-09
 -1       981-3.38782E+05 1.93178E+01-1.73055E+03 1.49626E+04 1.83240E-09-1.91093E-08
 -1       982-3.39066E+05-1.42635E+02-3.57724E+03 2.10527E+04-2.32194E-09-2.62377E-08
 -1       983-3.38565E+05-9.14644E+01-6.95071E+03 1.49685E+04-2.43472E-09-1.23443E-08
 -1       984-3.42409E+05-3.77274E+03-1.55658E+04 2.09685E+04 1.85310E-09 2.67119E-09
 -1       985-3.35418E+05-5.17754E+03-2.85837E+04 1.50402E+04-3.10547E-09 7.21411E-09
 -3
    1PSTEP                        29          15           1          
  100CL  115 6.55373E-01         409                     0   15           1
 -4  DISP        4    1
 -5  D1          1    2    1    0
 -5  D2          1    2    2    0
 -5  D3          1    2    3    0
 -5  ALL         1    2    0    0    1ALL
 -1         1 2.43505E-03 0.00000E+00 0.00000E+00
 -1         2 1.49097E-03-5.70853E-28-2.64698E-23
 -1         3 3.31740E-04-8.56942E-28-1.32349E-23
 -1         5 1.72323E-04 3.80805E-27-8.27181E-25
 -1         8 2.42055E-03-4.65622E-07 0.00000E+00
 -1         9 2.39959E-03-8.94005E-05 0.00000E+00
 -1        10 3.00843E-04-3.49890E-06 6.61744E-24
 -1        12 1.74045E-04 7.93111E-07-4.13590E-25
 -1        15 2.40332E-03-5.03001E-07 0.00000E+00
 -1        16 2.44079E-03-9.08186E-05 0.00000E+00
 -1        17 2.05027E-04-7.91240E-06 0.00000E+00
 -1        18 1.77641E-04 3.26550E-05 0.00000E+00
 -1        19 1.79212E-04 1.58021E-06 0.00000E+00
 -1        20 1.79352E-04-8.58632E-06 0.00000E+00
 -1        21 1.78476E-04-2.26896E-05-3.30872E-24
 -1        24 3.01898E-05-1.19977E-05 0.00000E+00
 -1        25 1.87871E-04 3.28730E-05 0.00000E+00
 -1        26 1.88489E-04 2.18902E-06 0.00000E+00
 -1        27 1.86340E-04-1.20953E-05 0.00000E+00
 -1        28 1.86023E-04-2.33039E-05 0.00000E+00
 -1        32 0.00000E+00 0.00000E+00 0.00000E+00
 -1        33 1.96806E-04 2.93137E-06 0.00000E+00
 -1        34 1.94716E-04-1.21493E-05 0.00000E+00
 -1        35 1.92808E-04-2.36416E-05 0.00000E+00
 -1        51 2.43411E-03-9.21722E-08 0.00000E+00
 -1        52 2.43236E-03-1.67806E-07 0.00000E+00
 -1        53 2.42996E-03-2.40733E-07 0.00000E+00
 -1        54 2.42709E-03-3.13154E-07-1.65436E-24
 -1        55 2.42389E-03-3.86736E-07 2.74004E-24
 -1        56 2.43035E-03 1.70816E-06 0.00000E+00
 -1        57 2.42340E-03 8.92968E-06 5.29396E-23
 -1        58 2.41498E-03 1.99593E-05 1.05879E-22
 -1        59 2.40587E-03 3.26998E-05 5.29396E-23
 -1        60 2.39702E-03 4.47881E-05 0.00000E+00
 -1        61 2.38931E-03 5.39054E-05-5.29396E-23
 -1        62 2.38343E-03 5.82371E-05 0.00000E+00
 -1        63 2.37990E-03 5.63703E-05 0.00000E+00
 -1        64 2.37880E-03 4.79500E-05 0.00000E+00
 -1        65 2.38001E-03 3.31819E-05 0.00000E+00
 -1        66 2.38302E-03 1.33667E-05 0.00000E+00
 -1        67 2.38721E-03-9.75595E-06 5.29396E-23
 -1        68 2.39175E-03-3.38725E-05 1.05879E-22
 -1        69 2.39582E-03-5.65748E-05 5.29396E-23
 -1        70 2.39862E-03-7.57135E-05-5.29396E-23
 -1        86 1.54759E-03-3.27408E-06-5.29396E-23
 -1        87 1.71339E-03-1.83116E-05 0.00000E+00
 -1        88 1.93642E-03-4.36261E-05 0.00000E+00
 -1        89 2.16211E-03-6.95367E-05-1.32349E-23
 -1        90 2.33444E-03-8.56048E-05 2.64698E-23
 -1       121 3.30872E-04-5.66550E-07 0.00000E+00
 -1       122 3.28272E-04-1.13599E-06 0.00000E+00
 -1       123 3.23949E-04-1.71116E-06 0.00000E+00
 -1       124 3.17921E-04-2.29492E-06 6.61744E-24
 -1       125 3.10208E-04-2.88971E-06 1.32349E-23
 -1       191 1.72371E-04 1.32241E-07-2.48154E-24
 -1       192 1.72514E-04 2.64472E-07-1.24077E-24
 -1       193 1.72753E-04 3.96686E-07 4.13590E-25
 -1       194 1.73088E-04 5.28871E-07 8.27181E-25
 -1       195 1.73519E-04 6.61017E-07 2.06795E-24
 -1       251 2.41994E-03 1.18076E-05-1.32349E-23
 -1       252 2.41894E-03 4.25622E-05 0.00000E+00
 -1       253 2.41751E-03 8.57263E-05 0.00000E+00
 -1       254 2.41581E-03 1.34953E-04 6.61744E-24
 -1       255 2.41420E-03 1.82321E-04 0.00000E+00
 -1       256 2.41298E-03 2.19953E-04 0.00000E+00
 -1       257 2.41218E-03 2.42490E-04-1.32349E-23
 -1       258 2.41162E-03 2.44908E-04-6.61744E-24
 -1       259 2.41092E-03 2.27291E-04 0.00000E+00
 -1       260 2.40971E-03 1.90173E-04-6.61744E-24
 -1       261 2.40791E-03 1.39047E-04 0.00000E+00
 -1       262 2.40568E-03 7.97102E-05 0.00000E+00
 -1       263 2.40344E-03 2.00895E-05-1.32349E-23
 -1       264 2.40160E-03-3.18819E-05 6.61744E-24
 -1       265 2.40034E-03-7.02621E-05 0.00000E+00
 -1       266 2.41768E-03-4.78653E-07 0.00000E+00
 -1       267 2.41481E-03-4.84054E-07-8.27181E-25
 -1       268 2.41193E-03-4.89938E-07 0.00000E+00
 -1       269 2.40906E-03-4.94391E-07-2.06795E-25
 -1       270 2.40619E-03-4.98810E-07-2.06795E-25
 -1       271 2.41898E-03 1.57152E-06-1.32349E-23
 -1       272 2.41783E-03 2.44865E-06 0.00000E+00
 -1       273 2.41711E-03 2.16812E-06 0.00000E+00
 -1       274 2.41681E-03 7.33066E-07 0.00000E+00
 -1       275 2.41695E-03-1.83960E-06 2.64698E-23
 -1       276 2.41749E-03-5.52392E-06 0.00000E+00
 -1       277 2.41843E-03-1.02828E-05 2.64698E-23
 -1       278 2.41976E-03-1.60695E-05 1.32349E-23
 -1       279 2.42144E-03-2.28274E-05 0.00000E+00
 -1       280 2.42345E-03-3.04909E-05-1.32349E-23
 -1       281 2.42577E-03-3.89854E-05 0.00000E+00
 -1       282 2.42836E-03-4.82292E-05-1.32349E-23
 -1       283 2.43119E-03-5.81329E-05 0.00000E+00
 -1       284 2.43423E-03-6.86005E-05 1.32349E-23
 -1       285 2.43744E-03-7.95321E-05 0.00000E+00
 -1       301 2.40709E-03-8.96634E-05 6.61744E-24
 -1       302 2.41325E-03-8.98894E-05-6.61744E-24
 -1       303 2.41887E-03-9.01096E-05 0.00000E+00
 -1       304 2.42479E-03-9.03302E-05 0.00000E+00
 -1       305 2.43183E-03-9.05597E-05 0.00000E+00
 -1       306 2.43528E-03-2.32220E-04-1.05879E-22
 -1       307 2.49974E-03-6.23209E-04 0.00000E+00
 -1       308 2.55177E-03-1.19927E-03 1.05879E-22
 -1       309 2.58357E-03-1.87081E-03 5.29396E-23
 -1       310 2.62059E-03-2.51876E-03-1.05879E-22
 -1       311 2.68132E-03-3.02617E-03 0.00000E+00
 -1       312 2.74040E-03-3.31548E-03 1.05879E-22
 -1       313 2.74376E-03-3.34650E-03 5.29396E-23
 -1       314 2.62457E-03-3.12773E-03 1.05879E-22
 -1       315 2.34336E-03-2.71543E-03 5.29396E-23
 -1       316 1.91497E-03-2.18177E-03 0.00000E+00
 -1       317 1.39772E-03-1.59462E-03 0.00000E+00
 -1       318 8.96008E-04-1.01650E-03 0.00000E+00
 -1       319 5.09617E-04-5.12840E-04 0.00000E+00
 -1       320 2.80606E-04-1.53824E-04 0.00000E+00
 -1       336 2.89645E-04-4.17099E-06 1.32349E-23
 -1       337 2.76446E-04-4.86709E-06 6.61744E-24
 -1       338 2.61307E-04-5.58912E-06-1.32349E-23
 -1       339 2.44302E-04-6.33770E-06 0.00000E+00
 -1       340 2.25511E-04-7.11707E-06 0.00000E+00
 -1       406 1.74667E-04 9.25137E-07-4.13590E-25
 -1       407 1.75385E-04 1.05706E-06-1.24077E-24
 -1       408 1.76198E-04 1.18883E-06 1.65436E-24
 -1       409 1.77108E-04 1.32028E-06 1.24077E-24
 -1       410 1.78113E-04 1.45114E-06 0.00000E+00
 -1       521 2.47721E-03-2.42660E-04 0.00000E+00
 -1       522 2.54038E-03-6.52917E-04-5.29396E-23
 -1       523 2.58700E-03-1.25539E-03 0.00000E+00
 -1       524 2.61079E-03-1.95420E-03 5.29396E-23
 -1       525 2.64080E-03-2.62762E-03 0.00000E+00
 -1       526 2.69830E-03-3.15626E-03 0.00000E+00
 -1       527 2.75702E-03-3.45638E-03 0.00000E+00
 -1       528 2.75865E-03-3.48673E-03-5.29396E-23
 -1       529 2.62947E-03-3.25548E-03 2.11758E-22
 -1       530 2.32768E-03-2.82576E-03 0.00000E+00
 -1       531 1.86854E-03-2.27318E-03 0.00000E+00
 -1       532 1.31597E-03-1.66845E-03 5.29396E-23
 -1       533 7.79233E-04-1.07225E-03 0.00000E+00
 -1       534 3.62878E-04-5.48251E-04 0.00000E+00
 -1       535 1.14566E-04-1.70625E-04-1.05879E-22
 -1       536 2.04387E-04 2.63185E-05 3.30872E-24
 -1       537 2.02588E-04 8.63690E-05 1.65436E-24
 -1       538 1.99706E-04 1.63256E-04 0.00000E+00
 -1       539 1.96214E-04 2.47983E-04-8.27181E-25
 -1       540 1.93081E-04 3.28067E-04 0.00000E+00
 -1       541 1.91129E-04 3.91023E-04 0.00000E+00
 -1       542 1.90295E-04 4.30820E-04 1.65436E-24
 -1       543 1.90169E-04 4.41476E-04 4.13590E-25
 -1       544 1.89948E-04 4.23655E-04 0.00000E+00
 -1       545 1.88882E-04 3.78118E-04 0.00000E+00
 -1       546 1.86772E-04 3.12499E-04-8.27181E-25
 -1       547 1.83801E-04 2.34473E-04-4.13590E-25
 -1       548 1.80860E-04 1.56840E-04 0.00000E+00
 -1       549 1.78823E-04 9.24045E-05-2.06795E-25
 -1       550 1.77831E-04 4.85587E-05 0.00000E+00
 -1       551 1.80677E-04-8.46721E-06 0.00000E+00
 -1       552 1.53158E-04-9.09731E-06 0.00000E+00
 -1       553 1.23402E-04-9.78585E-06 1.65436E-24
 -1       554 9.23574E-05-1.05127E-05 3.30872E-24
 -1       555 6.09723E-05-1.12518E-05 0.00000E+00
 -1       556 1.97656E-04 1.09369E-05 0.00000E+00
 -1       557 1.91702E-04 2.62193E-05 0.00000E+00
 -1       558 1.87034E-04 3.82132E-05 0.00000E+00
 -1       559 1.83525E-04 4.72186E-05 0.00000E+00
 -1       560 1.81049E-04 5.35361E-05 0.00000E+00
 -1       561 1.79482E-04 5.74686E-05 0.00000E+00
 -1       562 1.78704E-04 5.93203E-05 0.00000E+00
 -1       563 1.78595E-04 5.93961E-05 0.00000E+00
 -1       564 1.79038E-04 5.80021E-05 0.00000E+00
 -1       565 1.79915E-04 5.54446E-05 0.00000E+00
 -1       566 1.81111E-04 5.20308E-05 0.00000E+00
 -1       567 1.82512E-04 4.80679E-05 0.00000E+00
 -1       568 1.84002E-04 4.38636E-05 0.00000E+00
 -1       569 1.85467E-04 3.97253E-05 0.00000E+00
 -1       570 1.86795E-04 3.59608E-05 0.00000E+00
 -1       571 1.77736E-04 3.06334E-05 0.00000E+00
 -1       572 1.77833E-04 2.85490E-05 8.27181E-25
 -1       573 1.77931E-04 2.64168E-05 1.65436E-24
 -1       574 1.78029E-04 2.42528E-05 8.27181E-25
 -1       575 1.78127E-04 2.20727E-05-3.30872E-24
 -1       576 1.78225E-04 1.98924E-05 1.65436E-24
 -1       577 1.78324E-04 1.77278E-05 0.00000E+00
 -1       578 1.78422E-04 1.55949E-05-3.30872E-24
 -1       579 1.78520E-04 1.35097E-05 0.00000E+00
 -1       580 1.78619E-04 1.14880E-05 3.30872E-24
 -1       581 1.78717E-04 9.54578E-06 6.61744E-24
 -1       582 1.78816E-04 7.69896E-06 0.00000E+00
 -1       583 1.78915E-04 5.96346E-06 0.00000E+00
 -1       584 1.79014E-04 4.35499E-06 0.00000E+00
 -1       585 1.79113E-04 2.88916E-06 0.00000E+00
 -1       586 1.79304E-04 3.26935E-05-1.65436E-24
 -1       587 1.80929E-04 3.27314E-05 4.13590E-25
 -1       588 1.82556E-04 3.27689E-05 0.00000E+00
 -1       589 1.84228E-04 3.28057E-05 0.00000E+00
 -1       590 1.85986E-04 3.28413E-05 0.00000E+00
 -1       591 1.78333E-04 3.07241E-05 1.03398E-25
 -1       592 1.79028E-04 2.87748E-05 0.00000E+00
 -1       593 1.79727E-04 2.68127E-05 0.00000E+00
 -1       594 1.80429E-04 2.48423E-05 0.00000E+00
 -1       595 1.81133E-04 2.28681E-05 8.27181E-25
 -1       596 1.81836E-04 2.08947E-05 4.13590E-25
 -1       597 1.82537E-04 1.89265E-05 0.00000E+00
 -1       598 1.83234E-04 1.69681E-05 4.13590E-25
 -1       599 1.83926E-04 1.50238E-05 8.27181E-25
 -1       600 1.84611E-04 1.30982E-05 4.13590E-25
 -1       601 1.85288E-04 1.11957E-05 8.27181E-25
 -1       602 1.85954E-04 9.32090E-06 2.06795E-25
 -1       603 1.86609E-04 7.47819E-06 0.00000E+00
 -1       604 1.87250E-04 5.67217E-06 1.03398E-25
 -1       605 1.87876E-04 3.90724E-06 0.00000E+00
 -1       606 1.79225E-04 4.98799E-07 0.00000E+00
 -1       607 1.79235E-04-4.96901E-07-1.65436E-24
 -1       608 1.79244E-04-1.41193E-06 0.00000E+00
 -1       609 1.79252E-04-2.25194E-06 0.00000E+00
 -1       610 1.79261E-04-3.02269E-06 0.00000E+00
 -1       611 1.79269E-04-3.72995E-06 0.00000E+00
 -1       612 1.79277E-04-4.37950E-06 0.00000E+00
 -1       613 1.79286E-04-4.97716E-06 0.00000E+00
 -1       614 1.79294E-04-5.52872E-06 1.65436E-24
 -1       615 1.79302E-04-6.03999E-06 0.00000E+00
 -1       616 1.79311E-04-6.51677E-06 0.00000E+00
 -1       617 1.79319E-04-6.96486E-06 0.00000E+00
 -1       618 1.79328E-04-7.39005E-06-8.27181E-25
 -1       619 1.79336E-04-7.79816E-06 0.00000E+00
 -1       620 1.79344E-04-8.19499E-06 0.00000E+00
 -1       621 1.80483E-04 1.68221E-06 0.00000E+00
 -1       622 1.81906E-04 1.78445E-06 8.27181E-25
 -1       623 1.83451E-04 1.88650E-06 1.65436E-24
 -1       624 1.85084E-04 1.98824E-06 8.27181E-25
 -1       625 1.86774E-04 2.08970E-06 0.00000E+00
 -1       626 1.79728E-04 5.34468E-07-3.30872E-24
 -1       627 1.80221E-04-4.48013E-07 0.00000E+00
 -1       628 1.80694E-04-1.37505E-06 0.00000E+00
 -1       629 1.81150E-04-2.25478E-06 0.00000E+00
 -1       630 1.81590E-04-3.09535E-06 0.00000E+00
 -1       631 1.82019E-04-3.90494E-06 1.65436E-24
 -1       632 1.82440E-04-4.69171E-06 3.30872E-24
 -1       633 1.82855E-04-5.46385E-06 0.00000E+00
 -1       634 1.83267E-04-6.22952E-06 0.00000E+00
 -1       635 1.83681E-04-6.99690E-06 1.65436E-24
 -1       636 1.84098E-04-7.77418E-06 3.30872E-24
 -1       637 1.84521E-04-8.56951E-06 1.65436E-24
 -1       638 1.84955E-04-9.39108E-06-1.65436E-24
 -1       639 1.85401E-04-1.02471E-05-8.27181E-25
 -1       640 1.85862E-04-1.11457E-05-1.65436E-24
 -1       656 1.79974E-04-9.15668E-06-6.61744E-24
 -1       657 1.81012E-04-9.75020E-06 0.00000E+00
 -1       658 1.82328E-04-1.03423E-05 1.32349E-23
 -1       659 1.83776E-04-1.09341E-05 0.00000E+00
 -1       660 1.85174E-04-1.15277E-05 0.00000E+00
 -1       661 1.79585E-04-9.02208E-06-8.27181E-25
 -1       662 1.79855E-04-9.54835E-06 0.00000E+00
 -1       663 1.80157E-04-1.01600E-05-1.65436E-24
 -1       664 1.80489E-04-1.08506E-05-8.27181E-25
 -1       665 1.80848E-04-1.16145E-05 0.00000E+00
 -1       666 1.81233E-04-1.24458E-05 8.27181E-25
 -1       667 1.81641E-04-1.33391E-05-1.65436E-24
 -1       668 1.82070E-04-1.42888E-05 0.00000E+00
 -1       669 1.82518E-04-1.52896E-05 0.00000E+00
 -1       670 1.82983E-04-1.63364E-05 0.00000E+00
 -1       671 1.83464E-04-1.74240E-05 0.00000E+00
 -1       672 1.83958E-04-1.85474E-05 0.00000E+00
 -1       673 1.84463E-04-1.97017E-05-1.65436E-24
 -1       674 1.84977E-04-2.08823E-05 0.00000E+00
 -1       675 1.85500E-04-2.20840E-05 2.06795E-25
 -1       676 1.79739E-04-2.27926E-05 3.30872E-24
 -1       677 1.81000E-04-2.28955E-05 1.65436E-24
 -1       678 1.82260E-04-2.29984E-05 0.00000E+00
 -1       679 1.83518E-04-2.31010E-05-1.65436E-24
 -1       680 1.84772E-04-2.32035E-05-1.65436E-24
 -1       771 1.86583E-05 1.37376E-05 0.00000E+00
 -1       772 8.94834E-06 3.48759E-05-5.29396E-23
 -1       773 9.72667E-07 5.16398E-05 5.29396E-23
 -1       774-5.38776E-06 6.42786E-05 0.00000E+00
 -1       775-1.02495E-05 7.30515E-05 0.00000E+00
 -1       776-1.37340E-05 7.82333E-05 2.64698E-23
 -1       777-1.59622E-05 8.01087E-05 5.29396E-23
 -1       778-1.70580E-05 7.89753E-05-2.64698E-23
 -1       779-1.71444E-05 7.51388E-05 0.00000E+00
 -1       780-1.63466E-05 6.89158E-05-2.64698E-23
 -1       781-1.47888E-05 6.06293E-05 0.00000E+00
 -1       782-1.25970E-05 5.06105E-05-2.64698E-23
 -1       783-9.89616E-06 3.91952E-05 0.00000E+00
 -1       784-6.81253E-06 2.67250E-05 2.64698E-23
 -1       785-3.47145E-06 1.35443E-05 0.00000E+00
 -1       786 1.87905E-04 3.07266E-05-5.16988E-26
 -1       787 1.87943E-04 2.86296E-05 4.13590E-25
 -1       788 1.87981E-04 2.65742E-05-8.27181E-25
 -1       789 1.88020E-04 2.45527E-05 0.00000E+00
 -1       790 1.88058E-04 2.25605E-05-8.27181E-25
 -1       791 1.88097E-04 2.05931E-05 8.27181E-25
 -1       792 1.88136E-04 1.86484E-05 1.65436E-24
 -1       793 1.88175E-04 1.67240E-05 8.27181E-25
 -1       794 1.88214E-04 1.48197E-05 0.00000E+00
 -1       795 1.88253E-04 1.29352E-05 8.27181E-25
 -1       796 1.88292E-04 1.10722E-05 1.65436E-24
 -1       797 1.88331E-04 9.23212E-06 0.00000E+00
 -1       798 1.88370E-04 7.41885E-06-1.65436E-24
 -1       799 1.88410E-04 5.63616E-06-8.27181E-25
 -1       800 1.88449E-04 3.89065E-06 1.65436E-24
 -1       801 1.43610E-04 2.95223E-05 0.00000E+00
 -1       802 9.71927E-06 1.84871E-05 0.00000E+00
 -1       803-1.04717E-04 9.40694E-06 0.00000E+00
 -1       804-9.28664E-05 6.53615E-06 2.64698E-23
 -1       805-3.06246E-05 2.58770E-06 5.29396E-23
 -1       806 1.88562E-04 3.06597E-05-3.30872E-24
 -1       807 1.89238E-04 2.84733E-05 0.00000E+00
 -1       808 1.89902E-04 2.63189E-05 3.30872E-24
 -1       809 1.90552E-04 2.42003E-05 0.00000E+00
 -1       810 1.91188E-04 2.21213E-05-3.30872E-24
 -1       811 1.91807E-04 2.00857E-05-1.65436E-24
 -1       812 1.92408E-04 1.80972E-05 0.00000E+00
 -1       813 1.92990E-04 1.61596E-05-1.65436E-24
 -1       814 1.93553E-04 1.42764E-05 0.00000E+00
 -1       815 1.94093E-04 1.24516E-05 1.65436E-24
 -1       816 1.94610E-04 1.06886E-05-3.30872E-24
 -1       817 1.95103E-04 8.99128E-06 0.00000E+00
 -1       818 1.95570E-04 7.36323E-06 1.65436E-24
 -1       819 1.96010E-04 5.80816E-06 1.65436E-24
 -1       820 1.96422E-04 4.32967E-06 1.65436E-24
 -1       821 1.88362E-04 6.77165E-08 1.65436E-24
 -1       822 1.88226E-04-2.93224E-06-1.65436E-24
 -1       823 1.88088E-04-6.46595E-06 3.30872E-24
 -1       824 1.87948E-04-1.01852E-05 0.00000E+00
 -1       825 1.87809E-04-1.36924E-05 3.30872E-24
 -1       826 1.87671E-04-1.65911E-05 0.00000E+00
 -1       827 1.87536E-04-1.86485E-05 3.30872E-24
 -1       828 1.87402E-04-1.96367E-05 1.65436E-24
 -1       829 1.87268E-04-1.96151E-05 0.00000E+00
 -1       830 1.87134E-04-1.86492E-05 0.00000E+00
 -1       831 1.86999E-04-1.70579E-05 3.30872E-24
 -1       832 1.86864E-04-1.51641E-05-1.65436E-24
 -1       833 1.86729E-04-1.33720E-05 3.30872E-24
 -1       834 1.86597E-04-1.20851E-05 0.00000E+00
 -1       835 1.86465E-04-1.15717E-05 8.27181E-25
 -1       836 1.90082E-04 2.31216E-06 0.00000E+00
 -1       837 1.91552E-04 2.43837E-06-1.65436E-24
 -1       838 1.92930E-04 2.56451E-06 0.00000E+00
 -1       839 1.94246E-04 2.68995E-06-8.27181E-25
 -1       840 1.95528E-04 2.81523E-06 8.27181E-25
 -1       856 1.86324E-04-1.30672E-05-8.27181E-25
 -1       857 1.86304E-04-1.39050E-05 0.00000E+00
 -1       858 1.86285E-04-1.46295E-05 0.00000E+00
 -1       859 1.86265E-04-1.52617E-05 0.00000E+00
 -1       860 1.86246E-04-1.58226E-05-4.13590E-25
 -1       861 1.86226E-04-1.63331E-05-2.06795E-25
 -1       862 1.86206E-04-1.68144E-05 4.13590E-25
 -1       863 1.86186E-04-1.72875E-05-4.13590E-25
 -1       864 1.86166E-04-1.77735E-05 8.27181E-25
 -1       865 1.86146E-04-1.82936E-05-4.13590E-25
 -1       866 1.86126E-04-1.88687E-05 0.00000E+00
 -1       867 1.86106E-04-1.95199E-05-4.13590E-25
 -1       868 1.86086E-04-2.02682E-05-8.27181E-25
 -1       869 1.86066E-04-2.11344E-05-4.13590E-25
 -1       870 1.86045E-04-2.21394E-05 0.00000E+00
 -1       871 1.87596E-04-1.20999E-05 0.00000E+00
 -1       872 1.88997E-04-1.21079E-05 0.00000E+00
 -1       873 1.90477E-04-1.21166E-05 0.00000E+00
 -1       874 1.91968E-04-1.21260E-05 2.32645E-25
 -1       875 1.93404E-04-1.21359E-05 0.00000E+00
 -1       876 1.86830E-04-1.30528E-05 0.00000E+00
 -1       877 1.87298E-04-1.39444E-05 0.00000E+00
 -1       878 1.87745E-04-1.47778E-05-3.30872E-24
 -1       879 1.88173E-04-1.55605E-05 0.00000E+00
 -1       880 1.88585E-04-1.62998E-05 0.00000E+00
 -1       881 1.88983E-04-1.70028E-05-1.65436E-24
 -1       882 1.89371E-04-1.76769E-05 3.30872E-24
 -1       883 1.89750E-04-1.83294E-05 0.00000E+00
 -1       884 1.90124E-04-1.89674E-05-3.30872E-24
 -1       885 1.90496E-04-1.95983E-05 0.00000E+00
 -1       886 1.90867E-04-2.02292E-05 0.00000E+00
 -1       887 1.91241E-04-2.08675E-05-1.65436E-24
 -1       888 1.91620E-04-2.15203E-05 3.30872E-24
 -1       889 1.92007E-04-2.21952E-05 0.00000E+00
 -1       890 1.92404E-04-2.28992E-05 0.00000E+00
 -1       891 1.87295E-04-2.33606E-05-1.65436E-24
 -1       892 1.88543E-04-2.34175E-05 0.00000E+00
 -1       893 1.89744E-04-2.34743E-05-1.65436E-24
 -1       894 1.90871E-04-2.35308E-05 4.13590E-25
 -1       895 1.91901E-04-2.35871E-05 0.00000E+00
 -1       956 1.96677E-04 1.70385E-06 1.65436E-24
 -1       957 1.96546E-04 5.65872E-07-8.27181E-25
 -1       958 1.96416E-04-4.93074E-07 3.30872E-24
 -1       959 1.96285E-04-1.48409E-06 1.65436E-24
 -1       960 1.96154E-04-2.41834E-06 3.30872E-24
 -1       961 1.96023E-04-3.30698E-06 1.65436E-24
 -1       962 1.95892E-04-4.16122E-06 0.00000E+00
 -1       963 1.95760E-04-4.99226E-06 1.65436E-24
 -1       964 1.95630E-04-5.81132E-06-3.30872E-24
 -1       965 1.95499E-04-6.62959E-06 0.00000E+00
 -1       966 1.95368E-04-7.45829E-06-3.30872E-24
 -1       967 1.95237E-04-8.30862E-06 0.00000E+00
 -1       968 1.95106E-04-9.19177E-06 0.00000E+00
 -1       969 1.94975E-04-1.01189E-05 0.00000E+00
 -1       970 1.94845E-04-1.11012E-05 0.00000E+00
 -1       971 1.94598E-04-1.31963E-05 3.30872E-24
 -1       972 1.94478E-04-1.41496E-05 1.65436E-24
 -1       973 1.94358E-04-1.50195E-05 0.00000E+00
 -1       974 1.94238E-04-1.58167E-05 0.00000E+00
 -1       975 1.94118E-04-1.65520E-05 3.30872E-24
 -1       976 1.93998E-04-1.72362E-05-1.65436E-24
 -1       977 1.93879E-04-1.78801E-05 3.30872E-24
 -1       978 1.93759E-04-1.84944E-05 0.00000E+00
 -1       979 1.93639E-04-1.90900E-05 0.00000E+00
 -1       980 1.93519E-04-1.96776E-05-1.65436E-24
 -1       981 1.93399E-04-2.02682E-05 3.30872E-24
 -1       982 1.93280E-04-2.08724E-05 1.65436E-24
 -1       983 1.93160E-04-2.15010E-05 3.30872E-24
 -1       984 1.93041E-04-2.21650E-05 1.65436E-24
 -1       985 1.92923E-04-2.28750E-05 0.00000E+00
 -3
    1PSTEP                        30          15           1          
  100CL  115 6.55373E-01         409                     0   15           1
 -4  STRESS      6    1
 -5  SXX         1    4    1    1
 -5  SYY         1    4    2    2
 -5  SZZ         1    4    3    3
 -5  SXY         1    4    1    2
 -5  SYZ         1    4    2    3
 -5  SZX         1    4    3    1
 -1         1-4.85262E+06-1.70110E+06-1.05633E+06-1.59538E+06-1.09139E-09 7.38655E-08
 -1         2 6.04853E+05 8.27291E+06 2.28676E+06 2.73590E+06 2.33413E-08 5.55156E-08
 -1         3-1.38940E+03-1.60953E+06 4.11532E+02-2.20752E+03-5.50838E-10 2.47164E-08
 -1         5-6.55809E+01 3.78650E+05 9.72551E+00-1.20508E+00-2.38091E-10-2.26701E-08
 -1         8-7.26914E+05-2.37490E+05-8.60316E+04-2.56324E+05 5.10227E-10 3.96503E-08
 -1         9 9.86729E+06 1.29234E+06 2.00265E+06-8.32073E+05 6.53090E-09-2.81725E-09
 -1        10-2.24236E+03-1.67727E+06-3.95540E+03-1.49243E+04-1.38098E-08-3.99051E-08
 -1        12-6.17387E+01 3.78671E+05 3.19180E+02-8.27433E+00-4.69996E-10 1.23955E-08
 -1        15 1.12694E+03 6.19310E+02 3.64279E+03 1.39982E+00-8.03254E-10-2.25034E-07
 -1        16 2.04799E+07-2.07071E+05 2.83639E+06-1.78858E+06 1.31549E-08 2.49517E-07
 -1        17 7.49949E+06 5.46851E+06 2.02299E+06 5.26707E+06 2.15601E-08 2.90689E-08
 -1        18 2.13104E+05 5.09721E+04 2.24152E+04-1.05009E+05 1.41931E-08-6.33554E-09
 -1        19 1.20543E+05 1.39037E+05-9.39334E+02 2.18835E+04 1.40917E-09-1.15640E-08
 -1        20-8.02785E+04-5.65642E+05-1.26889E+05 2.51055E+04-1.55311E-09 1.48084E-08
 -1        21-4.52446E+01-2.92623E+05-9.13999E+02 2.53323E+02 1.58999E-08 6.81329E-09
 -1        24 1.22849E+07 1.05164E+07 3.42989E+06 9.76605E+06-1.58723E-07-5.19018E-08
 -1        25 1.01468E+05 1.99658E+05 8.23050E+04-6.07652E+05-1.89020E-09 4.61660E-09
 -1        26-5.63981E+04 9.01684E+04-2.48280E+04 1.57387E+03 2.72848E-11 1.67270E-08
 -1        27-7.47354E+04-3.05634E+05-1.11817E+05 6.80306E+04 3.97267E-09-7.22745E-10
 -1        28 2.20143E+04-8.43036E+04 1.67040E+04 2.04733E+04-4.99983E-09-1.39867E-09
 -1        32-1.66073E+06-3.10952E+06-1.89066E+05 3.95689E+05-4.06217E-08-1.06642E-08
 -1        33-1.76454E+05 9.15210E+04 3.19294E+04-3.74138E+04-2.63215E-09-7.52789E-09
 -1        34-2.20770E+05-2.46024E+04 6.79090E+02 7.45174E+04-5.42367E-09-1.18230E-08
 -1        35-2.26797E+04-3.34353E+04-1.33157E+03 5.09136E+04-3.12159E-09-1.21266E-09
 -1        51 5.46958E+04-1.93630E+05 1.17015E+05-5.55667E+05-4.36557E-11 2.09453E-07
 -1        52 1.91691E+04-1.74075E+05 6.23620E+04-6.47896E+05 2.80124E-10-1.66609E-07
 -1        53 4.70689E+03-1.89536E+05 3.40230E+04-5.53668E+05 5.92991E-10-2.85356E-07
 -1        54 9.75135E+03-1.85617E+05 3.10780E+04-6.49938E+05 2.83762E-10-3.04204E-07
 -1        55 2.08260E+04-1.94140E+05 4.14573E+04-5.53438E+05 6.03904E-10-1.45923E-07
 -1        56-9.01014E+06-1.06690E+06-7.87063E+05-3.58130E+06 1.26893E-08-5.37257E-08
 -1        57-9.69706E+06-1.37387E+06-5.25463E+05-3.10280E+06-1.19398E-08 2.40289E-07
 -1        58-9.08858E+06-1.38024E+06-1.83581E+05-3.60732E+06 2.49238E-08 5.45042E-08
 -1        59-9.58781E+06-1.02197E+06-1.08675E+05-3.10244E+06 5.45242E-10-1.58399E-07
 -1        60-9.12368E+06-1.40546E+06-4.35438E+04-3.58951E+06-3.76103E-08 7.64157E-08
 -1        61-9.44653E+06-1.07470E+06-2.06073E+04-3.20077E+06 1.10304E-08 1.42065E-07
 -1        62-9.21721E+06-1.33459E+06-1.71216E+04-3.50018E+06 1.34933E-08-1.39496E-07
 -1        63-9.23370E+06-1.26046E+06-3.51203E+03-3.40794E+06-2.18770E-08-2.34763E-07
 -1        64-9.32568E+06-1.22701E+06-1.65708E+04-3.37476E+06 2.50438E-08 2.61389E-09
 -1        65-9.06597E+06-1.45195E+06-1.79707E+04-3.63936E+06-7.81147E-08-1.07929E-07
 -1        66-9.39435E+06-1.13680E+06-3.94102E+04-3.27576E+06 4.18004E-09-1.75394E-07
 -1        67-9.01775E+06-1.58304E+06-9.69761E+04-3.76234E+06-3.99241E-08 1.56213E-07
 -1        68-9.38770E+06-1.08778E+06-1.63911E+05-3.26084E+06-5.12773E-09-7.27887E-08
 -1        69-9.20437E+06-1.80943E+06-4.69500E+05-3.66107E+06-2.73358E-08-1.30436E-07
 -1        70-9.20430E+06-9.22229E+05-7.03738E+05-3.37074E+06 1.33878E-08-1.24506E-07
 -1        86-6.14334E+05-8.67966E+06-1.24694E+06-1.31138E+06-1.85501E-07 1.69930E-07
 -1        87 8.83343E+05 1.39965E+06 1.03621E+06 2.90313E+06-3.07668E-07 3.38850E-08
 -1        88-1.25688E+05-2.59931E+06 8.28764E+04-1.56348E+06-2.78073E-07-3.90953E-08
 -1        89 1.19997E+06 1.25351E+06 1.03669E+06 2.98136E+06-3.99705E-07-5.02259E-08
 -1        90-8.95993E+05-8.56563E+06-1.36855E+06-1.39653E+06-9.32923E-08-1.32277E-07
 -1       121-1.90777E+03-1.61414E+06-4.73676E+02 1.09504E+03 1.50794E-09-1.49157E-09
 -1       122-1.20210E+03-1.60959E+06 7.91105E+02-4.41667E+03-5.34244E-09-1.61108E-08
 -1       123-1.93280E+03-1.61427E+06 3.68529E+02 3.26979E+03 4.16856E-09-6.68297E-09
 -1       124 4.75531E+02-1.60909E+06 3.06368E+03-9.22450E+03-9.88848E-09 5.04588E-09
 -1       125-2.77782E+03-1.61519E+06 3.70944E+03 5.86198E+03 6.11544E-09 2.08274E-08
 -1       191-6.91444E+01 3.78670E+05 8.66168E+00 6.25968E-01-6.06878E-10 4.83851E-09
 -1       192-6.65141E+01 3.78651E+05 2.07351E+01-3.92776E+00-8.02909E-10 2.34095E-08
 -1       193-7.16039E+01 3.78669E+05 3.56796E+01 3.44553E+00-8.55374E-10 1.94996E-09
 -1       194-6.95073E+01 3.78654E+05 7.87796E+01-8.93661E+00-5.55499E-10 2.46746E-09
 -1       195-7.63251E+01 3.78667E+05 1.51203E+02 5.79423E+00-1.42576E-09 9.14042E-09
 -1       251-1.67029E+06 1.25802E+04-1.25136E+05-8.28357E+04 1.81535E-09-3.33603E-09
 -1       252-1.38196E+06-1.29332E+04-2.45042E+04 2.68980E+05-7.28232E-09-4.82805E-08
 -1       253-1.52862E+06 4.78287E+02-2.45222E+04-1.61563E+05-1.62845E-09 1.76806E-07
 -1       254-1.50610E+06 1.54152E+04-5.31780E+03 3.35860E+05-1.45510E-08 4.75768E-08
 -1       255-1.55937E+06-4.78809E+03-1.35169E+04-1.50397E+05 3.05863E-09 1.02038E-07
 -1       256-1.30060E+06 1.51110E+04 4.27162E+04 2.27793E+05-1.06866E-10 2.07292E-08
 -1       257-1.71424E+06-1.53886E+04-4.26466E+04-5.26527E+04 8.24184E-09 1.37620E-07
 -1       258-1.14387E+06 1.40823E+04 7.48176E+04-7.23129E+03-9.05129E-09 7.00777E-08
 -1       259-1.70072E+06-1.63706E+04-3.80785E+04 8.37245E+04 1.71167E-09-7.81998E-09
 -1       260-1.33323E+06 2.24709E+04 4.29946E+04-2.32140E+05 1.72404E-08 1.04320E-07
 -1       261-1.54314E+06-8.96536E+03-4.76558E+02 1.71920E+05 5.84587E-08 2.63152E-07
 -1       262-1.51015E+06 3.42892E+04 1.91780E+04-3.20762E+05-3.25255E-08-1.34823E-07
 -1       263-1.54113E+06-1.40250E+04 1.32889E+04 1.73488E+05 3.37468E-09 1.22136E-07
 -1       264-1.32297E+06 6.87429E+04 9.04029E+04-2.38576E+05 8.63938E-08-3.57368E-08
 -1       265-1.71394E+06-5.65851E+04 2.72658E+04 8.86394E+04 3.42916E-08 9.03019E-08
 -1       266-2.04014E+04-9.54023E+03 4.78649E+04-2.99507E+01-1.49157E-10 2.49806E-08
 -1       267 2.36507E+04 1.11185E+04 3.38315E+04 3.45587E+01-1.20053E-10-2.10663E-07
 -1       268-3.17152E+03-1.57473E+03 1.25749E+04-4.40329E+00-3.01952E-10-8.68437E-08
 -1       269 3.74462E+03 1.88457E+03 8.17358E+03 5.12927E+00-3.07409E-10-1.85484E-07
 -1       270-5.62070E+02-3.09649E+02 3.94550E+03-6.96074E-01-1.37675E-10 6.85991E-08
 -1       271-1.79548E+06-2.20083E+05-1.32909E+05-6.91284E+05-1.47138E-08-9.78034E-08
 -1       272-1.85340E+06-3.05095E+05-8.52305E+04-6.76712E+05-4.55657E-09-4.44785E-07
 -1       273-1.82144E+06-2.52165E+05-3.15635E+04-6.84205E+05 1.90084E-10 6.93526E-08
 -1       274-1.82187E+06-2.66819E+05-1.74395E+04-6.88191E+05-1.72977E-08 2.49452E-07
 -1       275-1.82640E+06-2.54095E+05-7.50336E+03-6.81433E+05 3.99668E-08 5.66342E-08
 -1       276-1.81479E+06-2.65816E+05-3.72730E+03-6.93506E+05-7.25649E-08 1.43114E-07
 -1       277-1.82868E+06-2.52598E+05-2.02263E+03-6.79213E+05 3.79750E-08 6.95177E-08
 -1       278-1.81114E+06-2.68812E+05-1.09935E+03-6.97952E+05-4.77485E-10 2.64927E-08
 -1       279-1.83040E+06-2.50840E+05-1.26096E+03-6.77254E+05-2.73067E-08 3.14317E-08
 -1       280-1.80852E+06-2.72047E+05-1.78113E+03-7.01854E+05 3.17086E-08 2.53265E-08
 -1       281-1.83172E+06-2.49109E+05-3.39318E+03-6.75607E+05 1.71094E-08 1.01620E-08
 -1       282-1.80782E+06-2.76708E+05-7.77074E+03-7.04870E+05-3.01975E-08 2.93439E-08
 -1       283-1.83158E+06-2.46099E+05-1.39409E+04-6.74475E+05 1.20590E-08 4.05621E-08
 -1       284-1.81828E+06-2.97502E+05-3.78092E+04-7.04562E+05-3.53398E-08-1.29696E-07
 -1       285-1.82192E+06-2.29970E+05-5.88029E+04-6.75502E+05-1.98270E-10-4.20696E-08
 -1       301 7.01725E+03-5.70038E+05 1.71054E+05-9.92874E+05 8.45466E-09 2.24682E-08
 -1       302 7.91438E+03-5.25514E+05 1.03397E+05-1.45072E+06 8.73115E-10 4.15312E-08
 -1       303-1.09269E+04-5.58396E+05 6.06757E+04-9.90308E+05 3.09956E-09-1.04963E-07
 -1       304-6.88950E+03-5.30192E+05 6.49822E+04-1.44997E+06 1.45519E-09-1.59183E-07
 -1       305-1.12618E+04-5.51463E+05 8.51016E+04-9.93263E+05 1.32059E-08-7.69214E-08
 -1       306-2.82344E+07-5.78319E+06-7.93672E+06-9.22902E+05-9.48785E-08-3.02098E-08
 -1       307 2.36486E+07 2.47028E+06 5.11091E+06-1.37119E+07-8.07951E-07-1.64408E-07
 -1       308-7.49663E+06-8.71155E+05-5.33678E+05 4.82696E+06-7.36909E-08 1.72571E-07
 -1       309-3.50705E+06 7.36527E+06 1.99150E+06-1.94407E+07 4.80606E-07 7.61174E-08
 -1       310-1.15731E+07-1.51470E+06-1.64640E+06 4.75127E+06-2.06637E-08 3.75148E-08
 -1       311 3.31219E+07-9.00166E+04 6.43388E+06-8.89599E+06 6.15953E-07 2.15630E-07
 -1       312-2.94931E+07-6.00440E+06-7.64486E+06-4.26731E+06 9.42964E-08 2.82656E-07
 -1       313 4.19750E+07 1.22467E+07 9.70525E+06 2.05474E+07-1.34023E-07 7.28469E-08
 -1       314-1.70900E+07-1.56731E+07-6.89835E+06-1.17349E+07 4.66243E-07-7.44476E-08
 -1       315-1.09698E+06 2.64486E+07 5.25690E+06 1.07376E+07-1.85828E-08 3.24799E-08
 -1       316 7.40975E+05-9.46199E+06-5.01130E+05-3.15222E+06-9.73174E-07-3.29310E-07
 -1       317-1.71376E+07 2.08619E+07 1.95528E+06-7.05415E+06 5.47559E-07-8.77888E-07
 -1       318-1.15658E+06-1.14410E+07-1.68703E+06-4.36561E+06-9.44216E-07 6.93835E-08
 -1       319 5.76263E+06 2.80224E+07 6.20412E+06 1.48206E+07-1.14116E-07 2.28552E-07
 -1       320-2.10380E+07-1.58212E+07-8.87711E+06-1.17699E+07 1.50525E-07-5.16593E-08
 -1       336-5.37961E+02-1.74737E+06-1.39269E+04 8.91050E+03-2.61862E-08 1.62290E-08
 -1       337-5.37647E+03-1.74736E+06-1.81236E+04-2.15834E+04-4.69327E-08-2.81125E-08
 -1       338 4.18692E+02-1.74689E+06-2.82795E+04 1.24479E+04-3.34758E-08-4.70754E-09
 -1       339-2.99926E+04-1.76439E+06-6.39792E+04-2.84948E+04-5.99821E-08 1.78115E-08
 -1       340 1.99091E+04-1.73243E+06-1.00656E+05 1.56990E+04-3.89846E-08 3.32402E-08
 -1       406-4.02468E+01 3.78653E+05 6.27103E+02 2.93373E+00-1.88996E-09-1.47174E-08
 -1       407 1.58312E+02 3.78782E+05 1.33930E+03 2.21752E+01-5.39053E-10-4.16912E-08
 -1       408 6.25668E+02 3.78555E+05 2.67097E+03-2.54635E+01-2.29011E-09 7.76708E-10
 -1       409 2.83525E+03 3.79635E+05 6.01929E+03 2.70019E+02-2.36469E-10 3.79559E-08
 -1       410 8.25656E+03 3.77787E+05 1.22855E+04-2.59837E+02-2.79579E-09 1.97779E-08
 -1       521-2.97618E+07-7.10227E+06-9.25446E+06-5.84150E+05-9.04547E-08 4.27826E-08
 -1       522 2.44214E+07 3.24398E+06 5.19190E+06-1.69388E+07-5.50586E-07-2.85916E-07
 -1       523-8.18175E+06-1.16166E+06-5.40756E+05 5.26709E+06 7.13626E-08-8.89850E-08
 -1       524-6.78524E+06 1.00384E+07 2.15225E+06-2.23979E+07 8.01330E-07-4.49534E-07
 -1       525-1.24627E+07-2.04834E+06-1.80673E+06 5.18400E+06 6.22356E-07 5.47152E-09
 -1       526 3.59519E+07-1.37273E+05 6.75259E+06-1.14326E+07 5.73345E-08 2.16009E-07
 -1       527-3.12607E+07-7.52625E+06-8.78860E+06-4.14607E+06 2.53436E-07 2.74726E-07
 -1       528 4.58148E+07 1.34845E+07 1.01141E+07 2.32665E+07-2.93017E-07-9.44128E-08
 -1       529-1.80756E+07-1.76860E+07-7.89526E+06-1.18611E+07-6.99656E-08-2.50177E-07
 -1       530-3.43199E+06 3.07466E+07 5.55284E+06 1.05513E+07 7.76636E-08 3.24100E-07
 -1       531 6.89966E+05-1.05711E+07-4.92584E+05-3.23096E+06-7.13349E-07 1.51456E-07
 -1       532-1.99462E+07 2.30198E+07 2.13797E+06-1.07735E+07 5.19125E-07-7.40984E-07
 -1       533-1.22071E+06-1.25798E+07-1.78374E+06-4.33550E+06-2.00438E-07-9.66131E-07
 -1       534 3.77780E+06 3.24952E+07 6.45229E+06 1.53364E+07 2.18279E-09 7.00005E-07
 -1       535-2.21785E+07-1.79806E+07-1.01414E+07-1.18983E+07 8.84756E-08 4.54718E-07
 -1       536-4.46020E+05-5.64469E+04-1.87015E+04-2.56084E+04-5.97231E-09 5.78839E-08
 -1       537 2.55524E+05 4.95717E+04 1.08508E+05 4.75363E+04-1.08947E-07 9.37816E-08
 -1       538-1.29505E+05 7.22366E+03 9.89545E+03-2.27357E+04 2.95399E-08 6.55618E-08
 -1       539 4.97175E+04-8.79459E+03 3.47445E+04 4.89654E+04 1.50812E-07 8.12647E-08
 -1       540-2.41613E+05 3.22246E+03-2.26741E+04-2.71848E+04-3.90548E-09 7.22935E-08
 -1       541 4.38666E+05 1.10188E+04 1.09567E+05 4.17217E+04-4.48217E-08 5.96542E-08
 -1       542-5.15577E+05-1.52168E+04-8.06173E+04-1.52528E+04-9.37314E-09 3.55938E-08
 -1       543 6.74545E+05 2.53712E+04 1.57215E+05-4.62050E+03 1.93082E-08 1.22645E-08
 -1       544-4.75772E+05-1.26622E+04-7.35306E+04 1.89776E+04 3.37080E-08-1.77219E-08
 -1       545 3.28794E+05 2.02696E+03 8.38767E+04-4.39760E+04-4.52736E-08-6.24784E-08
 -1       546-1.72338E+05 1.03635E+04-1.32099E+04 2.40089E+04-1.75950E-08-6.61544E-08
 -1       547 3.40008E+04-1.58998E+04 2.01852E+04-4.91181E+04-1.29432E-07-9.35315E-08
 -1       548-1.83172E+05 7.29687E+03-2.03240E+04 2.43100E+04-1.20444E-07-6.80175E-08
 -1       549 3.52135E+05 2.13206E+04 8.10888E+04-4.36960E+04-7.70037E-08-7.91908E-08
 -1       550-4.88161E+05-2.89933E+04-1.02692E+05 1.83900E+04 2.89083E-09-1.85146E-08
 -1       551 3.96495E+04-7.66158E+05-1.07798E+04-1.23218E+06-1.00452E-07 1.45519E-10
 -1       552 8.98715E+04-8.08308E+05 1.28399E+04-1.75714E+06-7.07660E-08 4.57876E-08
 -1       553 6.87598E+04-8.05524E+05 3.39808E+04-1.22576E+06-1.18060E-07 3.26836E-08
 -1       554 1.27570E+05-8.22537E+05 8.33228E+04-1.75908E+06-7.35163E-08 2.74613E-08
 -1       555 9.84223E+04-8.28679E+05 1.51428E+05-1.22570E+06-1.17558E-07-1.13505E-08
 -1       556 2.03250E+05-3.69971E+05 3.19537E+04-3.99898E+05-2.07801E-08 1.01863E-09
 -1       557 3.30335E+05-4.71421E+05 1.91740E+04-5.15529E+05-1.28057E-09 2.52840E-09
 -1       558 1.86615E+05-3.64537E+05 3.91092E+03-4.02932E+05-2.72994E-08-2.29629E-08
 -1       559 3.06162E+05-4.72622E+05 3.13470E+03-5.34719E+05 1.63418E-08-5.56975E-09
 -1       560 1.72368E+05-3.55588E+05-1.00425E+03-4.13152E+05 1.07684E-08 1.13505E-08
 -1       561 2.88175E+05-4.65491E+05 3.14384E+02-5.46961E+05-2.98314E-09 2.07783E-08
 -1       562 1.61088E+05-3.48566E+05-1.14324E+03-4.21308E+05-5.12227E-09 2.04454E-08
 -1       563 2.74781E+05-4.59655E+05 7.77911E+00-5.55712E+05-1.51631E-08-2.08092E-09
 -1       564 1.53045E+05-3.43550E+05-5.43344E+02-4.27002E+05 2.37196E-09 1.84036E-09
 -1       565 2.65913E+05-4.55796E+05 1.55842E+01-5.61383E+05 4.51473E-09 9.53651E-09
 -1       566 1.48358E+05-3.40582E+05-2.73225E+02-4.30280E+05-7.27596E-10-3.44153E-09
 -1       567 2.61617E+05-4.53935E+05-4.19046E+02-5.63988E+05 2.11949E-08 7.70524E-09
 -1       568 1.47114E+05-3.39820E+05-1.21990E+03-4.31243E+05 2.08183E-09 1.04264E-08
 -1       569 2.60479E+05-4.53946E+05-3.05645E+03-5.62584E+05-8.09450E-10-1.56797E-08
 -1       570 1.50410E+05-3.43038E+05-6.58303E+03-4.30223E+05 8.38190E-09-4.99313E-09
 -1       571 2.86109E+05 1.02264E+04 1.46190E+04-9.18602E+04 1.62581E-08 4.26235E-09
 -1       572 2.88231E+05 3.83830E+03 7.16433E+03-1.00785E+05 2.40134E-08-1.49084E-08
 -1       573 2.86954E+05 1.19253E+03 3.18335E+03-9.16906E+04 1.35951E-08-5.96174E-09
 -1       574 2.87166E+05 6.83703E+02 1.59634E+03-1.00999E+05 1.29921E-09 2.33667E-08
 -1       575 2.87047E+05 4.13525E+02 7.53447E+02-9.16674E+04 5.36033E-10 1.39771E-08
 -1       576 2.87034E+05 4.21985E+02 3.85778E+02-1.01028E+05-6.59406E-09 2.99569E-08
 -1       577 2.87086E+05 3.56965E+02 1.92726E+02-9.16642E+04-4.72028E-09 2.66782E-08
 -1       578 2.87063E+05 3.85579E+02 1.11591E+02-1.01032E+05-7.39965E-09-5.71163E-10
 -1       579 2.87154E+05 3.22484E+02 7.72520E+01-9.16638E+04 4.96584E-09-1.35160E-08
 -1       580 2.87158E+05 3.37819E+02 9.03905E+01-1.01027E+05-6.35464E-09 6.29825E-09
 -1       581 2.87261E+05 2.68085E+02 1.37585E+02-9.16696E+04 7.74889E-09 1.04483E-08
 -1       582 2.87324E+05 3.05762E+02 2.79873E+02-1.00968E+05 6.05451E-09 1.98725E-09
 -1       583 2.87391E+05 3.16820E+02 5.38250E+02-9.17243E+04 5.07498E-09 6.58224E-09
 -1       584 2.87687E+05 7.55933E+02 1.21744E+03-1.00506E+05 7.21411E-09 7.08883E-09
 -1       585 2.87405E+05 1.78606E+03 2.46652E+03-9.21303E+04-7.38510E-10-1.07684E-09
 -1       586-3.58421E+03 1.12670E+05-3.26800E+03-2.41680E+05-6.52608E-09 2.28711E-08
 -1       587-1.34832E+03 1.12363E+05 5.76890E+02-2.65991E+05-7.78891E-09 1.07628E-08
 -1       588 4.35610E+02 1.12211E+05 4.62983E+03-2.41549E+05-2.46837E-09 9.14497E-09
 -1       589 5.09829E+03 1.14639E+05 1.21813E+04-2.65762E+05-5.53791E-09 6.80302E-10
 -1       590 1.65134E+04 1.10872E+05 2.56225E+04-2.41967E+05-4.56475E-09 1.34878E-08
 -1       591-7.16301E+04-1.53142E+04-2.20673E+04-3.05192E+04-3.22416E-09-4.10273E-09
 -1       592-7.56732E+04-1.87614E+04-1.19534E+04-3.40261E+04-1.24521E-09 1.40099E-08
 -1       593-7.38359E+04-1.37141E+04-4.97560E+03-3.21385E+04 2.54221E-09 9.78002E-09
 -1       594-7.26271E+04-1.55225E+04-2.48145E+03-3.41404E+04 5.07356E-10-1.02964E-08
 -1       595-7.40040E+04-1.37090E+04-1.13919E+03-3.22121E+04 1.32033E-10 1.68291E-08
 -1       596-7.24185E+04-1.53744E+04-5.78820E+02-3.41155E+04 4.78207E-09 9.18533E-09
 -1       597-7.40251E+04-1.37241E+04-3.14569E+02-3.22148E+04 4.56254E-09 8.31079E-09
 -1       598-7.23979E+04-1.53685E+04-2.51743E+02-3.41085E+04-3.53543E-09 1.42325E-09
 -1       599-7.40239E+04-1.37246E+04-3.20158E+02-3.22145E+04 3.42561E-09 7.64589E-09
 -1       600-7.24185E+04-1.53749E+04-5.93624E+02-3.41134E+04 2.54863E-09-1.30881E-08
 -1       601-7.39999E+04-1.37104E+04-1.17049E+03-3.22111E+04 6.41421E-10 2.30648E-09
 -1       602-7.26328E+04-1.55259E+04-2.55066E+03-3.41352E+04-4.74256E-09 2.13663E-09
 -1       603-7.38244E+04-1.37185E+04-5.11495E+03-3.21364E+04-1.45837E-09-1.66788E-08
 -1       604-7.57819E+04-1.88358E+04-1.22873E+04-3.39928E+04 3.82983E-09-1.27891E-08
 -1       605-7.15369E+04-1.53813E+04-2.26838E+04-3.04914E+04 6.63044E-09-8.46012E-09
 -1       606 2.65337E+04-1.40710E+04-2.52287E+04 2.39467E+04 8.10815E-09-1.09603E-08
 -1       607 2.22227E+04-4.59353E+03-1.25638E+04 2.69092E+04 1.40062E-10-1.88929E-08
 -1       608 2.46795E+04-8.26701E+02-5.62443E+03 2.37768E+04 6.54109E-09-2.92130E-09
 -1       609 2.42081E+04-2.81040E+02-2.84129E+03 2.71226E+04 2.00816E-08 7.42352E-09
 -1       610 2.44694E+04-3.75702E+01-1.35564E+03 2.37567E+04 1.27666E-08 5.73164E-09
 -1       611 2.43949E+04-3.72857E+01-6.83487E+02 2.71457E+04 5.19913E-09-1.21281E-08
 -1       612 2.44229E+04-2.39305E+01-3.24920E+02 2.37546E+04 1.47338E-09 1.88152E-09
 -1       613 2.44060E+04-3.31058E+01-1.45546E+02 2.71484E+04 4.35057E-09 3.12639E-09
 -1       614 2.44009E+04-3.00963E+01-3.40180E+01 2.37539E+04 3.72802E-09 5.99675E-09
 -1       615 2.44006E+04-3.15174E+01 6.13046E+01 2.71488E+04-2.38333E-09 1.71894E-09
 -1       616 2.43836E+04-2.69218E+01 1.83548E+02 2.37542E+04 5.58884E-10-2.54636E-09
 -1       617 2.44225E+04 7.67552E+00 4.18677E+02 2.71484E+04 4.06180E-09-5.00222E-09
 -1       618 2.43471E+04 9.38354E+01 8.43867E+02 2.37545E+04 8.95398E-10-1.02270E-08
 -1       619 2.47203E+04 6.60199E+02 1.89495E+03 2.71477E+04-7.03835E-10-4.45721E-09
 -1       620 2.40668E+04 2.09488E+03 3.80878E+03 2.37559E+04-1.67472E-09 1.01413E-08
 -1       621 4.84276E+02 2.95591E+05 3.73269E+03 3.93114E+04 8.15362E-10 4.16094E-09
 -1       622 6.40301E+02 2.96456E+05 3.32880E+03 5.70766E+04 1.20781E-09 1.09453E-08
 -1       623 1.30382E+02 2.95778E+05 4.02102E+03 3.91325E+04 1.24135E-09-8.21365E-09
 -1       624 2.05633E+03 2.97651E+05 7.81226E+03 5.72535E+04 1.41847E-09-1.66415E-08
 -1       625 2.01322E+03 2.94228E+05 1.36598E+04 3.91289E+04 1.34196E-09-4.87012E-09
 -1       626 2.57240E+05 6.08318E+04 5.14509E+03 1.25257E+05 1.82081E-09-3.37786E-09
 -1       627 2.54940E+05 6.22071E+04 2.47936E+03 1.29517E+05 5.78893E-09 3.37561E-08
 -1       628 2.57368E+05 5.84781E+04 1.04856E+03 1.26132E+05-3.22689E-09 1.38475E-08
 -1       629 2.54302E+05 6.15234E+04 5.13160E+02 1.29758E+05-8.07631E-10-1.03096E-08
 -1       630 2.57382E+05 5.83643E+04 2.38030E+02 1.26169E+05-2.49474E-09-1.28559E-08
 -1       631 2.54234E+05 6.14974E+04 1.28000E+02 1.29760E+05 2.46291E-09 1.84639E-08
 -1       632 2.57379E+05 5.83684E+04 8.40533E+01 1.26165E+05 1.27930E-08-1.00069E-08
 -1       633 2.54226E+05 6.14993E+04 9.33746E+01 1.29756E+05 2.17699E-08 1.88525E-08
 -1       634 2.57374E+05 5.83657E+04 1.50663E+02 1.26164E+05 9.81083E-09 8.49423E-09
 -1       635 2.54240E+05 6.14977E+04 3.04719E+02 1.29761E+05 1.80854E-08 3.81078E-09
 -1       636 2.57365E+05 5.83601E+04 6.15313E+02 1.26164E+05 4.28736E-09-8.54016E-10
 -1       637 2.54373E+05 6.15934E+04 1.35288E+03 1.29761E+05-1.45499E-08 1.93349E-08
 -1       638 2.57317E+05 5.86590E+04 2.77965E+03 1.26029E+05-4.46562E-09 1.17061E-08
 -1       639 2.55833E+05 6.36240E+04 6.57675E+03 1.29330E+05 1.07839E-08 1.16090E-08
 -1       640 2.57115E+05 6.47228E+04 1.36479E+04 1.23473E+05 3.22052E-09-6.90034E-09
 -1       656 6.56852E+04-1.68074E+06-1.58561E+05-2.40506E+03-5.09317E-10 6.47316E-09
 -1       657-8.68954E+04-1.75239E+06-1.31357E+05 5.29968E+03-6.00267E-10-1.13639E-09
 -1       658 2.09380E+04-1.70109E+06-8.08981E+04-4.44073E+03 4.16321E-10 1.18225E-08
 -1       659-9.39592E+04-1.75574E+06-1.40640E+05 6.98299E+03-2.05000E-09-3.86752E-09
 -1       660 7.27333E+04-1.67739E+06-1.74521E+05-4.08835E+03-1.09867E-09 7.43501E-09
 -1       661 1.57759E+05 1.65304E+04 1.65941E+04 6.16786E+04-3.00270E-09 1.02709E-08
 -1       662 1.67128E+05 2.88322E+04 1.11832E+04 5.79708E+04-7.80346E-10 2.67119E-09
 -1       663 1.61018E+05 2.18542E+04 3.91121E+03 6.07328E+04-2.46814E-10-1.49248E-08
 -1       664 1.63349E+05 2.26062E+04 2.33969E+03 5.91259E+04-6.71207E-10-3.34913E-09
 -1       665 1.61513E+05 2.25815E+04 9.22997E+02 6.05888E+04 2.47724E-09-8.27478E-09
 -1       666 1.62764E+05 2.17744E+04 5.40239E+02 5.93137E+04 7.07658E-09 9.05524E-09
 -1       667 1.61599E+05 2.26644E+04 2.87107E+02 6.05528E+04 2.89162E-10 9.90582E-10
 -1       668 1.62669E+05 2.17146E+04 2.92887E+02 5.93659E+04-5.82440E-09-3.71813E-09
 -1       669 1.61607E+05 2.26396E+04 3.96821E+02 6.05368E+04-4.10316E-09 1.04304E-08
 -1       670 1.62766E+05 2.19299E+04 8.64346E+02 5.93686E+04-1.34466E-08-5.90316E-09
 -1       671 1.61502E+05 2.24536E+04 1.53481E+03 6.05481E+04-6.62652E-11 2.23963E-09
 -1       672 1.63660E+05 2.34229E+04 3.92684E+03 5.91517E+04 4.75748E-09-1.02641E-08
 -1       673 1.60717E+05 2.11843E+04 6.58078E+03 6.07393E+04 7.19581E-09 7.72479E-09
 -1       674 1.69924E+05 3.39954E+04 1.88197E+04 5.73112E+04 4.02304E-09 9.65451E-09
 -1       675 1.55279E+05 1.21772E+04 2.79350E+04 6.22775E+04-1.61845E-09-4.05089E-09
 -1       676 2.38364E+01-2.92546E+05-1.10161E+03-1.26665E+02 1.74148E-09-4.45044E-09
 -1       677-2.91557E+02-2.92813E+05-2.01613E+03 2.53130E+02 7.35108E-09-3.29465E-09
 -1       678 1.95428E+02-2.92356E+05-3.56402E+03-1.26382E+02 2.56182E-09-5.52700E-09
 -1       679-3.56422E+03-2.94964E+05-8.46663E+03 2.52048E+02 7.69853E-09 5.54584E-09
 -1       680 2.12793E+03-2.90396E+05-1.36453E+04-1.24186E+02 1.24510E-09-3.38119E-10
 -1       771-3.03443E+06-7.29711E+05-1.55697E+05-1.44465E+06-3.25672E-08-2.43017E-08
 -1       772-2.96013E+06-8.15556E+05-8.03202E+04-1.54383E+06-2.45491E-08 5.10772E-09
 -1       773-3.06409E+06-7.06537E+05-4.08341E+04-1.45801E+06-1.37079E-08 1.17288E-08
 -1       774-2.95083E+06-7.98330E+05-1.82405E+04-1.56802E+06 2.28756E-08-1.74623E-10
 -1       775-3.07945E+06-6.95738E+05-1.35687E+04-1.46444E+06-1.14378E-08 1.79716E-09
 -1       776-2.96214E+06-7.95618E+05-5.08581E+03-1.58621E+06-9.67702E-09 1.14960E-09
 -1       777-3.09274E+06-6.86131E+05-5.96711E+03-1.47012E+06 3.20142E-09 1.03610E-08
 -1       778-2.97396E+06-7.93106E+05-1.69010E+03-1.60183E+06-1.08412E-08 5.91899E-09
 -1       779-3.10414E+06-6.77753E+05-2.97187E+03-1.47498E+06-1.33150E-08-4.52928E-09
 -1       780-2.98437E+06-7.90708E+05-4.90349E+02-1.61455E+06-7.91624E-09-1.00590E-09
 -1       781-3.11320E+06-6.71007E+05-1.14571E+03-1.47878E+06-2.36614E-08 3.68345E-09
 -1       782-2.99238E+06-7.88666E+05 4.32132E+02-1.62393E+06-4.18586E-08-3.79487E-09
 -1       783-3.11957E+06-6.66325E+05 6.80743E+02-1.48144E+06-1.46247E-08-1.75346E-08
 -1       784-2.99679E+06-7.86579E+05 2.76278E+03-1.62972E+06-2.37196E-08 7.52425E-09
 -1       785-3.12335E+06-6.63525E+05 4.88342E+03-1.48314E+06-4.02870E-08 4.83124E-09
 -1       786 1.12227E+05-9.38799E+03 2.17196E+04-2.82353E+02 4.04697E-09-2.10366E-09
 -1       787 1.21647E+05 1.08690E+04 1.53657E+04-1.07872E+02 6.24417E-09 2.27710E-08
 -1       788 1.15859E+05-1.47118E+03 5.61907E+03-2.50428E+02 3.96285E-09 2.02772E-08
 -1       789 1.17416E+05 1.70267E+03 3.52711E+03-1.57067E+02 9.32563E-10 7.12959E-09
 -1       790 1.16458E+05-2.29085E+02 1.42728E+03-2.33173E+02-4.73228E-09 6.34350E-09
 -1       791 1.16715E+05 2.64671E+02 8.22862E+02-1.86763E+02-7.51514E-09 4.36819E-09
 -1       792 1.16560E+05-3.42576E+01 3.45676E+02-2.20734E+02-3.44428E-09 2.64018E-08
 -1       793 1.16592E+05 3.45290E+01 1.65716E+02-2.10148E+02 4.94502E-10 5.07114E-09
 -1       794 1.16581E+05 9.12107E-01 2.97712E+01-2.09788E+02 5.44011E-09-1.75259E-08
 -1       795 1.16552E+05-3.79034E+01-9.13058E+01-2.32754E+02-5.18878E-09-1.01566E-08
 -1       796 1.16601E+05 3.81338E+01-2.18043E+02-1.98127E+02 4.36463E-09 5.97456E-09
 -1       797 1.16430E+05-2.84742E+02-5.81320E+02-2.59121E+02 3.94305E-09-1.97374E-08
 -1       798 1.16702E+05 2.47566E+02-9.39273E+02-1.83421E+02 1.94482E-09 7.19433E-09
 -1       799 1.15719E+05-1.82623E+03-2.57997E+03-2.95136E+02 5.98019E-09 2.80380E-08
 -1       800 1.17312E+05 1.57837E+03-3.64994E+03-1.62114E+02 4.08408E-10 1.04214E-08
 -1       801-1.46845E+05-9.58788E+06-1.32318E+06 1.31741E+06 8.87958E-08-5.17612E-08
 -1       802 6.73878E+05 5.32120E+06 2.02374E+06-1.61384E+06 2.51173E-07-2.85472E-08
 -1       803-5.00602E+05-1.35717E+07-1.77186E+06 8.31090E+05 7.37346E-08 1.54760E-08
 -1       804 2.64521E+05 1.99531E+06 1.43076E+06 6.49717E+05-1.16503E-07-8.65512E-08
 -1       805 1.80840E+05-6.27653E+06-2.71800E+05-9.40742E+05-4.78758E-08-6.24459E-08
 -1       806-3.05511E+05-5.86600E+04-2.22706E+04-1.20690E+05-4.85215E-09 1.09685E-08
 -1       807-3.07297E+05-5.49903E+04-1.09413E+04-1.26054E+05 8.62337E-09 2.19215E-08
 -1       808-3.06120E+05-5.06365E+04-4.64169E+03-1.24487E+05-9.20454E-09-8.71637E-09
 -1       809-3.04999E+05-5.19139E+04-2.26971E+03-1.26320E+05-1.01381E-08 7.95808E-10
 -1       810-3.06212E+05-5.03573E+04-1.04041E+03-1.24655E+05 6.83212E-09 8.11724E-09
 -1       811-3.04821E+05-5.17901E+04-5.17548E+02-1.26285E+05 3.80032E-09-1.73941E-08
 -1       812-3.06226E+05-5.03812E+04-2.62094E+02-1.24655E+05-8.79481E-10 2.26783E-09
 -1       813-3.04797E+05-5.17920E+04-1.70965E+02-1.26267E+05 5.48789E-09-1.23418E-09
 -1       814-3.06219E+05-5.03905E+04-1.70396E+02-1.24651E+05 2.51384E-09 1.49430E-09
 -1       815-3.04801E+05-5.17941E+04-2.75543E+02-1.26260E+05 2.83808E-09-7.67795E-09
 -1       816-3.06199E+05-5.03893E+04-5.22827E+02-1.24648E+05 4.22642E-09 5.57793E-09
 -1       817-3.04890E+05-5.18439E+04-1.12246E+03-1.26249E+05-1.03391E-08 3.13798E-08
 -1       818-3.06132E+05-5.05473E+04-2.28951E+03-1.24573E+05 7.58519E-10-1.78384E-08
 -1       819-3.06143E+05-5.32285E+04-5.38731E+03-1.25955E+05-1.74532E-09-9.18590E-09
 -1       820-3.05702E+05-5.46150E+04-1.09651E+04-1.22833E+05-1.16870E-09 1.04271E-08
 -1       821-3.73188E+05 2.06042E+04-4.78361E+04 1.80955E+03 1.25473E-08 7.65249E-09
 -1       822-3.93149E+05-2.38617E+04-3.37161E+04-3.56804E+03 4.62901E-09 3.24508E-09
 -1       823-3.80795E+05 3.24093E+03-1.23675E+04 2.75897E+03-1.10048E-08 1.67115E-08
 -1       824-3.84063E+05-3.74095E+03-7.75621E+03-4.13682E+03-8.09628E-10 1.00657E-08
 -1       825-3.82276E+05 5.03130E+02-3.22985E+03 2.37840E+03 1.62909E-08 5.47823E-09
 -1       826-3.81965E+05-5.71859E+02-1.79324E+03-2.25965E+03 2.03570E-08 2.09416E-08
 -1       827-3.82877E+05 6.20060E+01-1.11103E+03 8.81714E+02 8.29402E-09 7.58484E-09
 -1       828-3.81480E+05-1.50911E+02-6.94442E+02 1.03424E+03-2.63412E-10 6.44803E-09
 -1       829-3.82754E+05 7.67692E+01-1.10802E+03-9.15520E+02 3.11267E-09 1.60639E-08
 -1       830-3.82235E+05-6.17792E+02-1.91395E+03 3.94371E+03 1.74723E-09-1.10598E-08
 -1       831-3.82136E+05 5.40064E+02-3.31932E+03-2.02778E+03-4.71091E-09-1.05423E-08
 -1       832-3.84147E+05-3.90045E+03-8.05667E+03 4.87506E+03-2.94396E-09 9.09677E-09
 -1       833-3.80852E+05 3.36403E+03-1.28601E+04-1.84689E+03-4.09258E-09 4.89126E-09
 -1       834-3.93295E+05-2.47692E+04-3.49477E+04 3.28959E+03-2.95637E-09-2.12867E-09
 -1       835-3.72979E+05 2.13823E+04-4.96856E+04-4.42266E+02 4.98792E-09-6.87578E-10
 -1       836-1.38250E+03 3.64316E+05 2.25087E+04-1.50685E+04-6.56746E-09 1.06993E-08
 -1       837 4.80903E+03 3.71361E+05 1.90621E+04-3.07844E+04-7.13158E-09-1.70885E-08
 -1       838-5.44690E+02 3.66291E+05 1.94444E+04-1.50002E+04-6.13090E-09-7.78755E-10
 -1       839 1.22559E+04 3.76910E+05 3.68050E+04-3.08363E+04-6.63249E-09-1.77067E-08
 -1       840-3.78178E+03 3.58712E+05 5.87003E+04-1.50219E+04-5.88989E-09-1.98952E-08
 -1       856-5.25069E+04 7.95782E+03-2.09706E+04-3.97053E+02 1.43348E-09-2.54113E-09
 -1       857-6.11475E+04-9.34927E+03-1.44360E+04 5.56505E+03 2.60593E-09-6.51016E-09
 -1       858-5.59283E+04 1.11596E+03-5.44138E+03-4.20664E+02 2.84757E-09-5.07407E-09
 -1       859-5.72209E+04-1.31203E+03-3.28369E+03 5.60026E+03-7.38750E-09 1.09071E-09
 -1       860-5.64395E+04 1.56231E+02-1.37626E+03-4.32018E+02 2.46331E-10-8.44688E-09
 -1       861-5.66329E+04-1.85701E+02-7.57273E+02 5.61573E+03-7.70207E-10-1.80432E-09
 -1       862-5.65195E+04 2.11179E+01-3.15107E+02-4.36111E+02-1.75940E-09 5.51759E-09
 -1       863-5.65349E+04-2.09037E+01-1.15509E+02 5.61809E+03-4.41976E-09-1.01480E-08
 -1       864-5.65379E+04-4.82445E+00 4.51788E+01-4.34378E+02-1.10477E-09-1.73154E-08
 -1       865-5.64801E+04 5.91703E+01 2.49487E+02 5.60823E+03-6.19504E-09 3.58438E-09
 -1       866-5.65721E+04-5.89710E+01 5.03640E+02-4.26255E+02-1.33815E-09-1.95369E-08
 -1       867-5.62431E+04 4.87298E+02 1.24018E+03 5.58617E+03-5.12034E-09 1.20335E-08
 -1       868-5.67702E+04-4.25222E+02 2.06097E+03-4.12317E+02-1.27386E-09-9.10620E-09
 -1       869-5.47321E+04 3.53925E+03 5.48780E+03 5.54977E+03-5.28814E-10-6.01563E-09
 -1       870-5.80755E+04-3.02803E+03 7.96407E+03-3.89758E+02-4.17913E-09 9.57834E-09
 -1       871-5.46243E+03-2.06979E+04-1.92108E+04 1.28589E+05-4.25462E-09 4.28827E-09
 -1       872-1.98394E+03-2.51573E+04-8.03827E+03 1.66734E+05-1.06756E-08 4.81032E-09
 -1       873 3.76618E+02-2.30039E+04 5.95895E+02 1.28306E+05-5.53518E-09 3.93902E-09
 -1       874 3.23692E+03-2.06135E+04 9.67307E+03 1.66764E+05-1.09258E-08 3.96540E-10
 -1       875 6.74480E+03-2.53085E+04 2.18105E+04 1.28542E+05-5.60249E-09-4.27463E-10
 -1       876 2.90095E+05 4.89139E+04 1.49132E+04 1.16441E+05 7.99218E-09 1.07848E-08
 -1       877 2.91080E+05 5.20551E+04 7.96422E+03 1.20719E+05 7.35304E-09-1.54989E-08
 -1       878 2.91489E+05 4.72621E+04 3.33662E+03 1.17663E+05-3.27964E-09-1.66056E-08
 -1       879 2.89053E+05 5.00320E+04 1.66251E+03 1.20820E+05 5.80326E-09-1.80409E-08
 -1       880 2.91589E+05 4.72450E+04 7.74383E+02 1.17713E+05-1.93404E-09 4.50143E-10
 -1       881 2.88919E+05 4.99455E+04 4.13552E+02 1.20796E+05-5.99641E-09 8.23046E-09
 -1       882 2.91598E+05 4.72580E+04 2.64608E+02 1.17715E+05-5.85715E-09 7.95375E-09
 -1       883 2.88909E+05 4.99410E+04 2.84527E+02 1.20789E+05-1.17575E-09-5.88491E-09
 -1       884 2.91592E+05 4.72552E+04 4.52676E+02 1.17715E+05-8.93351E-10-1.88440E-08
 -1       885 2.88945E+05 4.99473E+04 9.10167E+02 1.20800E+05-1.55605E-09-3.00349E-08
 -1       886 2.91556E+05 4.72287E+04 1.83442E+03 1.17711E+05-2.32752E-09-4.93856E-10
 -1       887 2.89267E+05 5.01587E+04 4.00706E+03 1.20847E+05 1.38881E-08 1.72764E-08
 -1       888 2.91303E+05 4.72733E+04 8.07434E+03 1.17583E+05-3.04055E-10 1.22986E-08
 -1       889 2.94074E+05 5.51576E+04 1.92881E+04 1.20699E+05-1.41069E-09 3.04772E-09
 -1       890 2.88008E+05 5.11876E+04 3.61262E+04 1.14510E+05-3.47791E-09-2.51712E-08
 -1       891-9.27013E+01-1.60805E+05-1.97201E+03 2.68999E+04 2.64208E-10 4.14229E-09
 -1       892-1.79923E+02-1.61324E+05-2.11791E+03 4.08414E+04 5.08408E-10-1.37516E-09
 -1       893 3.88488E+01-1.60869E+05-2.99860E+03 2.69071E+04-3.25076E-09 9.01582E-09
 -1       894-1.49800E+03-1.62457E+05-6.20596E+03 4.06905E+04 1.43154E-09-2.11276E-09
 -1       895-1.18866E+03-1.59576E+05-1.09285E+04 2.70523E+04 1.59218E-09-1.80080E-10
 -1       956-3.72390E+05-5.35805E+03-1.32427E+04 3.01953E+04 6.62385E-09-1.71674E-08
 -1       957-3.74989E+05-1.88503E+03-6.79731E+03 3.62924E+04 3.49473E-09-1.66256E-08
 -1       958-3.73579E+05-2.31079E+02-3.06303E+03 3.00307E+04-1.82172E-09-1.68575E-08
 -1       959-3.73774E+05-1.27160E+02-1.56408E+03 3.64837E+04 7.63157E-09-1.15924E-08
 -1       960-3.73695E+05-3.84748E+01-7.62724E+02 3.00138E+04 1.32241E-08-1.03303E-08
 -1       961-3.73694E+05-5.56427E+01-4.04465E+02 3.65036E+04 1.22407E-08-8.54334E-09
 -1       962-3.73722E+05-3.99631E+01-2.31667E+02 3.00110E+04 1.19053E-09 1.54841E-09
 -1       963-3.73694E+05-5.17202E+01-1.86171E+02 3.65071E+04 3.67015E-09 2.86675E-08
 -1       964-3.73727E+05-3.67625E+01-2.26621E+02 3.00103E+04-5.04197E-09 5.24415E-09
 -1       965-3.73706E+05-4.88292E+01-3.92146E+02 3.65064E+04-1.15870E-08-5.52609E-09
 -1       966-3.73711E+05-2.89582E+01-7.36916E+02 3.00117E+04 5.21504E-09-2.33117E-08
 -1       967-3.73795E+05-1.11434E+02-1.51145E+03 3.64923E+04 9.36484E-09 3.35626E-09
 -1       968-3.73609E+05-2.08952E+02-2.95887E+03 3.00242E+04 4.92128E-09 9.96664E-09
 -1       969-3.74981E+05-1.80479E+03-6.56865E+03 3.63468E+04-2.91038E-10-1.09926E-08
 -1       970-3.72467E+05-5.15963E+03-1.27960E+04 3.01494E+04-2.27192E-09 1.27357E-08
 -1       971-3.41172E+05-1.70760E+03-9.21732E+03 1.52097E+04 4.49472E-09 1.31006E-09
 -1       972-3.43392E+05-1.25551E+03-5.01967E+03 2.10461E+04 5.68252E-09-1.51340E-09
 -1       973-3.42199E+05-5.88170E+01-2.24833E+03 1.50895E+04 6.62476E-09 4.88399E-09
 -1       974-3.42334E+05-7.67189E+01-1.16544E+03 2.11818E+04 8.48922E-09 7.91260E-10
 -1       975-3.42280E+05-1.44664E+01-5.82971E+02 1.50773E+04 5.11000E-09-1.33824E-08
 -1       976-3.42273E+05-2.74361E+01-3.37081E+02 2.11973E+04 3.79100E-09-4.55339E-09
 -1       977-3.42297E+05-1.37823E+01-2.45981E+02 1.50740E+04-3.91333E-09 1.83160E-08
 -1       978-3.42278E+05-2.13149E+01-2.89671E+02 2.12021E+04-5.51574E-09-2.34182E-08
 -1       979-3.42296E+05-5.42940E+00-4.66972E+02 1.50726E+04-4.39576E-09-1.05873E-08
 -1       980-3.42313E+05-1.82978E+01-9.02644E+02 2.12031E+04-6.65064E-09 1.15485E-08
 -1       981-3.42268E+05 1.71349E+01-1.74872E+03 1.50731E+04 7.88998E-09 1.02166E-08
 -1       982-3.42553E+05-1.47492E+02-3.61486E+03 2.11965E+04 5.70708E-09 6.26509E-09
 -1       983-3.42047E+05-9.48146E+01-7.02383E+03 1.50791E+04 1.54205E-09 8.07518E-09
 -1       984-3.45932E+05-3.81579E+03-1.57296E+04 2.11118E+04 1.65801E-09 1.42534E-08
 -1       985-3.38867E+05-5.23439E+03-2.88845E+04 1.51505E+04 7.53516E-10 1.25929E-08
 -3
    1PSTEP                        31          16           1          
  100CL  116 6.60934E-01         409                     0   16           1
 -4  DISP        4    1
 -5  D1          1    2    1    0
 -5  D2          1    2    2    0
 -5  D3          1    2    3    0
 -5  ALL         1    2    0    0    1ALL
 -1         1 2.61419E-03 0.00000E+00 0.00000E+00
 -1         2 1.41714E-03-2.34955E-27 0.00000E+00
 -1         3 3.39715E-04-2.75955E-28 1.32349E-23
 -1         5 1.75290E-04 1.64914E-26 1.65436E-24
 -1         8 2.60163E-03-4.36792E-07 0.00000E+00
 -1         9 2.59346E-03-1.46582E-04 0.00000E+00
 -1        10 3.08013E-04-3.46092E-06 6.61744E-24
 -1        12 1.77126E-04 8.04138E-07 4.13590E-25
 -1        15 2.58701E-03-4.66355E-07-2.06795E-25
 -1        16 2.64401E-03-1.48170E-04 0.00000E+00
 -1        17 2.09633E-04-7.86881E-06 0.00000E+00
 -1        18 1.81043E-04 3.42315E-05 0.00000E+00
 -1        19 1.82633E-04 1.60194E-06 0.00000E+00
 -1        20 1.82771E-04-9.83488E-06 0.00000E+00
 -1        21 1.81880E-04-2.53466E-05 0.00000E+00
 -1        24 3.05191E-05-1.20610E-05 0.00000E+00
 -1        25 1.91842E-04 3.44539E-05 0.00000E+00
 -1        26 1.92456E-04 2.21877E-06 0.00000E+00
 -1        27 1.90276E-04-1.33864E-05 0.00000E+00
 -1        28 1.89967E-04-2.59668E-05 0.00000E+00
 -1        32 0.00000E+00 0.00000E+00 0.00000E+00
 -1        33 2.01325E-04 2.97071E-06 0.00000E+00
 -1        34 1.99210E-04-1.34425E-05 0.00000E+00
 -1        35 1.97282E-04-2.63084E-05 0.00000E+00
 -1        51 2.61336E-03-8.89738E-08-3.30872E-24
 -1        52 2.61183E-03-1.60357E-07 3.30872E-24
 -1        53 2.60975E-03-2.28599E-07 0.00000E+00
 -1        54 2.60725E-03-2.95920E-07 1.65436E-24
 -1        55 2.60450E-03-3.64046E-07-2.89513E-24
 -1        56 2.60849E-03 3.77298E-06 5.29396E-23
 -1        57 2.59903E-03 1.68892E-05 0.00000E+00
 -1        58 2.58712E-03 3.62269E-05 1.05879E-22
 -1        59 2.57420E-03 5.80417E-05 0.00000E+00
 -1        60 2.56195E-03 7.81819E-05-1.05879E-22
 -1        61 2.55194E-03 9.26295E-05 0.00000E+00
 -1        62 2.54530E-03 9.83701E-05 0.00000E+00
 -1        63 2.54279E-03 9.31518E-05 0.00000E+00
 -1        64 2.54439E-03 7.66817E-05 1.05879E-22
 -1        65 2.54970E-03 4.96839E-05 0.00000E+00
 -1        66 2.55773E-03 1.47981E-05 0.00000E+00
 -1        67 2.56728E-03-2.46059E-05-5.29396E-23
 -1        68 2.57694E-03-6.43271E-05 0.00000E+00
 -1        69 2.58531E-03-1.00127E-04 0.00000E+00
 -1        70 2.59112E-03-1.28500E-04 0.00000E+00
 -1        86 1.49098E-03-4.84807E-06 0.00000E+00
 -1        87 1.70572E-03-2.94954E-05 0.00000E+00
 -1        88 1.99435E-03-7.15322E-05 2.64698E-23
 -1        89 2.28634E-03-1.14557E-04 0.00000E+00
 -1        90 2.50925E-03-1.40894E-04 0.00000E+00
 -1       121 3.38824E-04-5.59357E-07 0.00000E+00
 -1       122 3.36157E-04-1.12176E-06 0.00000E+00
 -1       123 3.31722E-04-1.69019E-06-1.32349E-23
 -1       124 3.25536E-04-2.26764E-06-6.61744E-24
 -1       125 3.17623E-04-2.85673E-06 0.00000E+00
 -1       191 1.75341E-04 1.34086E-07 8.27181E-25
 -1       192 1.75494E-04 2.68161E-07-4.13590E-25
 -1       193 1.75749E-04 4.02216E-07 8.27181E-25
 -1       194 1.76106E-04 5.36239E-07 4.13590E-25
 -1       195 1.76565E-04 6.70217E-07 0.00000E+00
 -1       251 2.60123E-03 3.22756E-06 6.61744E-24
 -1       252 2.60081E-03 9.21714E-06 0.00000E+00
 -1       253 2.60038E-03 1.58779E-05 1.32349E-23
 -1       254 2.59995E-03 2.15440E-05 0.00000E+00
 -1       255 2.59954E-03 2.47486E-05 0.00000E+00
 -1       256 2.59913E-03 2.40662E-05 6.61744E-24
 -1       257 2.59871E-03 1.88459E-05 1.32349E-23
 -1       258 2.59825E-03 8.51300E-06 6.61744E-24
 -1       259 2.59773E-03-6.48954E-06 0.00000E+00
 -1       260 2.59715E-03-2.56402E-05-6.61744E-24
 -1       261 2.59651E-03-4.75907E-05 0.00000E+00
 -1       262 2.59584E-03-7.09471E-05-6.61744E-24
 -1       263 2.59517E-03-9.40343E-05-1.32349E-23
 -1       264 2.59454E-03-1.15182E-04 0.00000E+00
 -1       265 2.59398E-03-1.33107E-04 1.32349E-23
 -1       266 2.59920E-03-4.47941E-07 0.00000E+00
 -1       267 2.59676E-03-4.52110E-07 0.00000E+00
 -1       268 2.59432E-03-4.56721E-07-8.27181E-25
 -1       269 2.59188E-03-4.60022E-07 2.06795E-25
 -1       270 2.58945E-03-4.63293E-07 2.06795E-25
 -1       271 2.60047E-03 7.05729E-07 0.00000E+00
 -1       272 2.60005E-03-1.96348E-07 6.61744E-24
 -1       273 2.60036E-03-3.04107E-06-2.64698E-23
 -1       274 2.60134E-03-7.71831E-06 0.00000E+00
 -1       275 2.60296E-03-1.40992E-05-2.64698E-23
 -1       276 2.60514E-03-2.20419E-05 0.00000E+00
 -1       277 2.60784E-03-3.13899E-05 0.00000E+00
 -1       278 2.61099E-03-4.19750E-05 1.32349E-23
 -1       279 2.61453E-03-5.36180E-05 0.00000E+00
 -1       280 2.61838E-03-6.61306E-05 1.32349E-23
 -1       281 2.62247E-03-7.93165E-05 0.00000E+00
 -1       282 2.62673E-03-9.29740E-05 0.00000E+00
 -1       283 2.63109E-03-1.06897E-04 0.00000E+00
 -1       284 2.63548E-03-1.20876E-04-1.32349E-23
 -1       285 2.63980E-03-1.34704E-04 0.00000E+00
 -1       301 2.60264E-03-1.46875E-04 0.00000E+00
 -1       302 2.61034E-03-1.47129E-04 0.00000E+00
 -1       303 2.61745E-03-1.47375E-04 1.32349E-23
 -1       304 2.62484E-03-1.47621E-04-6.61744E-24
 -1       305 2.63340E-03-1.47879E-04 0.00000E+00
 -1       306 2.63037E-03-2.96131E-04 0.00000E+00
 -1       307 2.69448E-03-7.01815E-04-5.29396E-23
 -1       308 2.74303E-03-1.29738E-03 0.00000E+00
 -1       309 2.76939E-03-1.98902E-03 5.29396E-23
 -1       310 2.80231E-03-2.65309E-03 0.00000E+00
 -1       311 2.86202E-03-3.16837E-03-5.29396E-23
 -1       312 2.92048E-03-3.45502E-03 1.05879E-22
 -1       313 2.91922E-03-3.47401E-03-5.29396E-23
 -1       314 2.78662E-03-3.23593E-03-1.05879E-22
 -1       315 2.48197E-03-2.80241E-03 5.29396E-23
 -1       316 2.02212E-03-2.24864E-03 1.05879E-22
 -1       317 1.47026E-03-1.64368E-03-5.29396E-23
 -1       318 9.37460E-04-1.04900E-03-1.05879E-22
 -1       319 5.29133E-04-5.29856E-04 0.00000E+00
 -1       320 2.88634E-04-1.59085E-04 1.05879E-22
 -1       336 2.96521E-04-4.12842E-06 0.00000E+00
 -1       337 2.82973E-04-4.82118E-06 0.00000E+00
 -1       338 2.67431E-04-5.54133E-06-1.32349E-23
 -1       339 2.49971E-04-6.28959E-06 0.00000E+00
 -1       340 2.30674E-04-7.07037E-06-1.32349E-23
 -1       406 1.77789E-04 9.37983E-07-1.65436E-24
 -1       407 1.78554E-04 1.07172E-06-1.65436E-24
 -1       408 1.79421E-04 1.20529E-06 1.65436E-24
 -1       409 1.80390E-04 1.33852E-06 8.27181E-25
 -1       410 1.81461E-04 1.47115E-06 4.13590E-25
 -1       521 2.68159E-03-3.06942E-04 0.00000E+00
 -1       522 2.74412E-03-7.32264E-04-5.29396E-23
 -1       523 2.78669E-03-1.35461E-03 0.00000E+00
 -1       524 2.80445E-03-2.07370E-03-5.29396E-23
 -1       525 2.82994E-03-2.76328E-03-1.05879E-22
 -1       526 2.88624E-03-3.29977E-03-5.29396E-23
 -1       527 2.94427E-03-3.59683E-03 0.00000E+00
 -1       528 2.94096E-03-3.61449E-03-5.29396E-23
 -1       529 2.79734E-03-3.36316E-03-2.11758E-22
 -1       530 2.47047E-03-2.91187E-03 0.00000E+00
 -1       531 1.97787E-03-2.33943E-03 0.00000E+00
 -1       532 1.38874E-03-1.71753E-03 5.29396E-23
 -1       533 8.19164E-04-1.10532E-03-1.05879E-22
 -1       534 3.79362E-04-5.65928E-04-5.29396E-23
 -1       535 1.18671E-04-1.76297E-04 0.00000E+00
 -1       536 2.08963E-04 2.72149E-05 3.30872E-24
 -1       537 2.07082E-04 8.86582E-05 1.65436E-24
 -1       538 2.04068E-04 1.67299E-04 1.65436E-24
 -1       539 2.00417E-04 2.53961E-04-8.27181E-25
 -1       540 1.97141E-04 3.35856E-04 1.65436E-24
 -1       541 1.95104E-04 4.00198E-04 0.00000E+00
 -1       542 1.94234E-04 4.40866E-04-1.65436E-24
 -1       543 1.94104E-04 4.51793E-04 0.00000E+00
 -1       544 1.93876E-04 4.33650E-04 0.00000E+00
 -1       545 1.92769E-04 3.87206E-04 4.13590E-25
 -1       546 1.90571E-04 3.20223E-04 0.00000E+00
 -1       547 1.87471E-04 2.40498E-04 0.00000E+00
 -1       548 1.84400E-04 1.61157E-04 8.27181E-25
 -1       549 1.82275E-04 9.53231E-05-2.06795E-25
 -1       550 1.81241E-04 5.05208E-05-5.16988E-26
 -1       551 1.84663E-04-8.43573E-06 0.00000E+00
 -1       552 1.56476E-04-9.08141E-06 0.00000E+00
 -1       553 1.26011E-04-9.78806E-06-9.92617E-24
 -1       554 9.42265E-05-1.05348E-05 6.61744E-24
 -1       555 6.20784E-05-1.12947E-05 1.32349E-23
 -1       556 2.02053E-04 1.15034E-05 0.00000E+00
 -1       557 1.95926E-04 2.72235E-05 0.00000E+00
 -1       558 1.91117E-04 3.95753E-05 5.29396E-23
 -1       559 1.87496E-04 4.88652E-05 2.64698E-23
 -1       560 1.84935E-04 5.53995E-05 0.00000E+00
 -1       561 1.83307E-04 5.94875E-05 0.00000E+00
 -1       562 1.82490E-04 6.14396E-05 0.00000E+00
 -1       563 1.82360E-04 6.15669E-05 0.00000E+00
 -1       564 1.82797E-04 6.01817E-05 0.00000E+00
 -1       565 1.83683E-04 5.75967E-05-6.61744E-24
 -1       566 1.84899E-04 5.41254E-05 0.00000E+00
 -1       567 1.86328E-04 5.00815E-05 0.00000E+00
 -1       568 1.87853E-04 4.57788E-05 0.00000E+00
 -1       569 1.89358E-04 4.15315E-05 0.00000E+00
 -1       570 1.90726E-04 3.76533E-05 0.00000E+00
 -1       571 1.81139E-04 3.21084E-05 3.30872E-24
 -1       572 1.81238E-04 2.99213E-05 0.00000E+00
 -1       573 1.81337E-04 2.76857E-05-1.65436E-24
 -1       574 1.81436E-04 2.54177E-05-8.27181E-25
 -1       575 1.81535E-04 2.31336E-05 0.00000E+00
 -1       576 1.81634E-04 2.08496E-05 0.00000E+00
 -1       577 1.81734E-04 1.85820E-05 3.30872E-24
 -1       578 1.81833E-04 1.63473E-05 0.00000E+00
 -1       579 1.81933E-04 1.41616E-05 0.00000E+00
 -1       580 1.82032E-04 1.20412E-05 0.00000E+00
 -1       581 1.82132E-04 1.00027E-05 0.00000E+00
 -1       582 1.82232E-04 8.06209E-06-3.30872E-24
 -1       583 1.82332E-04 6.23581E-06 0.00000E+00
 -1       584 1.82432E-04 4.53995E-06 3.30872E-24
 -1       585 1.82533E-04 2.99046E-06 6.61744E-24
 -1       586 1.82802E-04 3.42707E-05 0.00000E+00
 -1       587 1.84521E-04 3.43094E-05-4.13590E-25
 -1       588 1.86243E-04 3.43476E-05 0.00000E+00
 -1       589 1.88009E-04 3.43852E-05 0.00000E+00
 -1       590 1.89861E-04 3.44215E-05 0.00000E+00
 -1       591 1.81771E-04 3.22017E-05-2.06795E-25
 -1       592 1.82502E-04 3.01540E-05-2.06795E-25
 -1       593 1.83237E-04 2.80939E-05 0.00000E+00
 -1       594 1.83975E-04 2.60260E-05 0.00000E+00
 -1       595 1.84714E-04 2.39546E-05 8.27181E-25
 -1       596 1.85452E-04 2.18843E-05 0.00000E+00
 -1       597 1.86188E-04 1.98195E-05 0.00000E+00
 -1       598 1.86921E-04 1.77646E-05-4.13590E-25
 -1       599 1.87648E-04 1.57242E-05-8.27181E-25
 -1       600 1.88368E-04 1.37026E-05 0.00000E+00
 -1       601 1.89080E-04 1.17043E-05-8.27181E-25
 -1       602 1.89781E-04 9.73365E-06-4.13590E-25
 -1       603 1.90470E-04 7.79520E-06-4.13590E-25
 -1       604 1.91146E-04 5.89346E-06 1.03398E-25
 -1       605 1.91807E-04 4.03278E-06 0.00000E+00
 -1       606 1.82646E-04 4.44528E-07-3.30872E-24
 -1       607 1.82656E-04-6.27823E-07-1.65436E-24
 -1       608 1.82665E-04-1.62011E-06 3.30872E-24
 -1       609 1.82673E-04-2.53796E-06 1.65436E-24
 -1       610 1.82681E-04-3.38706E-06-3.30872E-24
 -1       611 1.82689E-04-4.17315E-06 0.00000E+00
 -1       612 1.82698E-04-4.90198E-06 0.00000E+00
 -1       613 1.82706E-04-5.57931E-06 0.00000E+00
 -1       614 1.82714E-04-6.21090E-06 0.00000E+00
 -1       615 1.82722E-04-6.80250E-06 0.00000E+00
 -1       616 1.82731E-04-7.35988E-06-1.65436E-24
 -1       617 1.82739E-04-7.88879E-06-4.13590E-25
 -1       618 1.82747E-04-8.39498E-06-8.27181E-25
 -1       619 1.82756E-04-8.88422E-06 2.06795E-25
 -1       620 1.82764E-04-9.36227E-06 0.00000E+00
 -1       621 1.83984E-04 1.70531E-06 0.00000E+00
 -1       622 1.85494E-04 1.80892E-06 1.65436E-24
 -1       623 1.87129E-04 1.91232E-06-3.30872E-24
 -1       624 1.88857E-04 2.01539E-06 1.65436E-24
 -1       625 1.90643E-04 2.11817E-06 3.30872E-24
 -1       626 1.83179E-04 4.80666E-07 3.30872E-24
 -1       627 1.83702E-04-5.78249E-07-3.30872E-24
 -1       628 1.84206E-04-1.58262E-06 6.61744E-24
 -1       629 1.84692E-04-2.54058E-06 0.00000E+00
 -1       630 1.85163E-04-3.46027E-06 3.30872E-24
 -1       631 1.85624E-04-4.34985E-06-1.65436E-24
 -1       632 1.86076E-04-5.21748E-06 0.00000E+00
 -1       633 1.86523E-04-6.07134E-06 0.00000E+00
 -1       634 1.86968E-04-6.91959E-06 3.30872E-24
 -1       635 1.87414E-04-7.77038E-06 0.00000E+00
 -1       636 1.87864E-04-8.63190E-06 3.30872E-24
 -1       637 1.88321E-04-9.51230E-06 1.65436E-24
 -1       638 1.88788E-04-1.04198E-05 1.65436E-24
 -1       639 1.89268E-04-1.13625E-05 0.00000E+00
 -1       640 1.89764E-04-1.23486E-05-1.65436E-24
 -1       656 1.83476E-04-1.04121E-05 0.00000E+00
 -1       657 1.84598E-04-1.10128E-05 0.00000E+00
 -1       658 1.85999E-04-1.16121E-05-1.32349E-23
 -1       659 1.87535E-04-1.22111E-05 6.61744E-24
 -1       660 1.89021E-04-1.28119E-05 6.61744E-24
 -1       661 1.83035E-04-1.03527E-05 0.00000E+00
 -1       662 1.83336E-04-1.09625E-05 0.00000E+00
 -1       663 1.83669E-04-1.16591E-05-1.65436E-24
 -1       664 1.84033E-04-1.24359E-05-8.27181E-25
 -1       665 1.84425E-04-1.32871E-05-1.65436E-24
 -1       666 1.84842E-04-1.42067E-05-8.27181E-25
 -1       667 1.85283E-04-1.51889E-05 0.00000E+00
 -1       668 1.85746E-04-1.62283E-05 8.27181E-25
 -1       669 1.86227E-04-1.73193E-05 0.00000E+00
 -1       670 1.86726E-04-1.84566E-05 0.00000E+00
 -1       671 1.87240E-04-1.96349E-05 1.65436E-24
 -1       672 1.87768E-04-2.08491E-05 8.27181E-25
 -1       673 1.88306E-04-2.20941E-05 0.00000E+00
 -1       674 1.88854E-04-2.33653E-05-4.13590E-25
 -1       675 1.89410E-04-2.46572E-05-2.06795E-25
 -1       676 1.83232E-04-2.54506E-05 0.00000E+00
 -1       677 1.84584E-04-2.55545E-05 0.00000E+00
 -1       678 1.85934E-04-2.56584E-05-3.30872E-24
 -1       679 1.87282E-04-2.57620E-05 0.00000E+00
 -1       680 1.88626E-04-2.58655E-05 0.00000E+00
 -1       771 1.86954E-05 1.43625E-05 0.00000E+00
 -1       772 8.74504E-06 3.60658E-05 0.00000E+00
 -1       773 5.78379E-07 5.32768E-05 5.29396E-23
 -1       774-5.92728E-06 6.62506E-05 2.64698E-23
 -1       775-1.08920E-05 7.52526E-05 0.00000E+00
 -1       776-1.44407E-05 8.05648E-05 0.00000E+00
 -1       777-1.66980E-05 8.24791E-05-5.29396E-23
 -1       778-1.77913E-05 8.13009E-05 0.00000E+00
 -1       779-1.78472E-05 7.73441E-05 5.29396E-23
 -1       780-1.69945E-05 7.09339E-05 0.00000E+00
 -1       781-1.53609E-05 6.24019E-05 0.00000E+00
 -1       782-1.30758E-05 5.20887E-05 2.64698E-23
 -1       783-1.02676E-05 4.03393E-05 1.05879E-22
 -1       784-7.06611E-06 2.75049E-05 0.00000E+00
 -1       785-3.60007E-06 1.39396E-05-5.29396E-23
 -1       786 1.91876E-04 3.22089E-05-5.16988E-26
 -1       787 1.91914E-04 3.00137E-05 0.00000E+00
 -1       788 1.91951E-04 2.78604E-05 0.00000E+00
 -1       789 1.91989E-04 2.57412E-05 0.00000E+00
 -1       790 1.92028E-04 2.36516E-05 0.00000E+00
 -1       791 1.92066E-04 2.15870E-05 0.00000E+00
 -1       792 1.92105E-04 1.95451E-05 0.00000E+00
 -1       793 1.92144E-04 1.75238E-05 0.00000E+00
 -1       794 1.92182E-04 1.55227E-05 0.00000E+00
 -1       795 1.92221E-04 1.35416E-05-8.27181E-25
 -1       796 1.92260E-04 1.15821E-05-1.65436E-24
 -1       797 1.92299E-04 9.64568E-06 8.27181E-25
 -1       798 1.92338E-04 7.73620E-06 0.00000E+00
 -1       799 1.92377E-04 5.85747E-06 0.00000E+00
 -1       800 1.92416E-04 4.01608E-06-1.65436E-24
 -1       801 1.46250E-04 3.09708E-05-2.64698E-23
 -1       802 8.39406E-06 1.93434E-05 2.64698E-23
 -1       803-1.09211E-04 9.80971E-06-5.29396E-23
 -1       804-9.64777E-05 6.82928E-06 0.00000E+00
 -1       805-3.17782E-05 2.67839E-06 0.00000E+00
 -1       806 1.92568E-04 3.21410E-05 1.65436E-24
 -1       807 1.93280E-04 2.98552E-05-1.65436E-24
 -1       808 1.93979E-04 2.76013E-05 0.00000E+00
 -1       809 1.94665E-04 2.53835E-05 0.00000E+00
 -1       810 1.95335E-04 2.32056E-05-3.30872E-24
 -1       811 1.95989E-04 2.10715E-05 0.00000E+00
 -1       812 1.96626E-04 1.89849E-05 0.00000E+00
 -1       813 1.97243E-04 1.69497E-05 1.65436E-24
 -1       814 1.97839E-04 1.49696E-05 0.00000E+00
 -1       815 1.98414E-04 1.30485E-05 8.27181E-25
 -1       816 1.98965E-04 1.11901E-05 1.65436E-24
 -1       817 1.99492E-04 9.39826E-06 0.00000E+00
 -1       818 1.99992E-04 7.67664E-06 0.00000E+00
 -1       819 2.00465E-04 6.02904E-06 8.27181E-25
 -1       820 2.00909E-04 4.45918E-06-3.30872E-24
 -1       821 1.92327E-04-7.45523E-08 0.00000E+00
 -1       822 1.92188E-04-3.39887E-06 1.65436E-24
 -1       823 1.92048E-04-7.36262E-06 0.00000E+00
 -1       824 1.91905E-04-1.15703E-05-1.65436E-24
 -1       825 1.91763E-04-1.55607E-05 0.00000E+00
 -1       826 1.91623E-04-1.88742E-05 0.00000E+00
 -1       827 1.91485E-04-2.12342E-05 0.00000E+00
 -1       828 1.91350E-04-2.23703E-05 0.00000E+00
 -1       829 1.91215E-04-2.23432E-05 0.00000E+00
 -1       830 1.91079E-04-2.12208E-05 1.65436E-24
 -1       831 1.90943E-04-1.93677E-05-3.30872E-24
 -1       832 1.90806E-04-1.71528E-05 1.65436E-24
 -1       833 1.90670E-04-1.50431E-05 0.00000E+00
 -1       834 1.90536E-04-1.35050E-05 0.00000E+00
 -1       835 1.90402E-04-1.28506E-05-8.27181E-25
 -1       836 1.94143E-04 2.34347E-06 3.30872E-24
 -1       837 1.95707E-04 2.47130E-06 0.00000E+00
 -1       838 1.97178E-04 2.59907E-06 3.30872E-24
 -1       839 1.98585E-04 2.72614E-06 0.00000E+00
 -1       840 1.99957E-04 2.85305E-06-8.27181E-25
 -1       856 1.90261E-04-1.44468E-05 0.00000E+00
 -1       857 1.90241E-04-1.53719E-05 0.00000E+00
 -1       858 1.90223E-04-1.61829E-05 0.00000E+00
 -1       859 1.90203E-04-1.69007E-05 0.00000E+00
 -1       860 1.90184E-04-1.75465E-05 0.00000E+00
 -1       861 1.90165E-04-1.81415E-05 0.00000E+00
 -1       862 1.90145E-04-1.87070E-05-4.13590E-25
 -1       863 1.90126E-04-1.92641E-05 0.00000E+00
 -1       864 1.90107E-04-1.98342E-05 0.00000E+00
 -1       865 1.90087E-04-2.04385E-05 0.00000E+00
 -1       866 1.90068E-04-2.10982E-05 0.00000E+00
 -1       867 1.90048E-04-2.18344E-05 4.13590E-25
 -1       868 1.90028E-04-2.26684E-05 0.00000E+00
 -1       869 1.90008E-04-2.36212E-05 0.00000E+00
 -1       870 1.89988E-04-2.47137E-05 8.27181E-25
 -1       871 1.91624E-04-1.33914E-05 0.00000E+00
 -1       872 1.93119E-04-1.33997E-05 0.00000E+00
 -1       873 1.94693E-04-1.34087E-05 0.00000E+00
 -1       874 1.96279E-04-1.34184E-05-1.55096E-25
 -1       875 1.97807E-04-1.34288E-05 1.24077E-24
 -1       876 1.90801E-04-1.44322E-05 0.00000E+00
 -1       877 1.91303E-04-1.54115E-05-1.65436E-24
 -1       878 1.91784E-04-1.63321E-05 0.00000E+00
 -1       879 1.92246E-04-1.72015E-05 1.65436E-24
 -1       880 1.92691E-04-1.80270E-05 3.30872E-24
 -1       881 1.93123E-04-1.88160E-05 0.00000E+00
 -1       882 1.93544E-04-1.95758E-05 0.00000E+00
 -1       883 1.93957E-04-2.03137E-05 0.00000E+00
 -1       884 1.94365E-04-2.10370E-05 3.30872E-24
 -1       885 1.94769E-04-2.17530E-05 1.65436E-24
 -1       886 1.95174E-04-2.24691E-05 3.30872E-24
 -1       887 1.95581E-04-2.31925E-05 0.00000E+00
 -1       888 1.95994E-04-2.39305E-05 0.00000E+00
 -1       889 1.96414E-04-2.46907E-05 0.00000E+00
 -1       890 1.96844E-04-2.54802E-05 1.65436E-24
 -1       891 1.91328E-04-2.60242E-05 1.65436E-24
 -1       892 1.92665E-04-2.60818E-05 0.00000E+00
 -1       893 1.93954E-04-2.61392E-05-8.27181E-25
 -1       894 1.95170E-04-2.61964E-05-8.27181E-25
 -1       895 1.96288E-04-2.62533E-05 4.13590E-25
 -1       956 2.01195E-04 1.65580E-06 0.00000E+00
 -1       957 2.01062E-04 4.31967E-07 0.00000E+00
 -1       958 2.00930E-04-7.11502E-07 0.00000E+00
 -1       959 2.00797E-04-1.78592E-06-1.65436E-24
 -1       960 2.00665E-04-2.80266E-06 0.00000E+00
 -1       961 2.00532E-04-3.77311E-06 0.00000E+00
 -1       962 2.00400E-04-4.70867E-06 3.30872E-24
 -1       963 2.00267E-04-5.62077E-06 0.00000E+00
 -1       964 2.00135E-04-6.52084E-06 3.30872E-24
 -1       965 2.00002E-04-7.42028E-06 0.00000E+00
 -1       966 1.99869E-04-8.33053E-06 3.30872E-24
 -1       967 1.99737E-04-9.26302E-06 0.00000E+00
 -1       968 1.99604E-04-1.02291E-05-6.61744E-24
 -1       969 1.99472E-04-1.12403E-05 0.00000E+00
 -1       970 1.99340E-04-1.23078E-05 0.00000E+00
 -1       971 1.99090E-04-1.45771E-05 0.00000E+00
 -1       972 1.98969E-04-1.56175E-05 0.00000E+00
 -1       973 1.98848E-04-1.65741E-05 0.00000E+00
 -1       974 1.98727E-04-1.74576E-05 1.65436E-24
 -1       975 1.98606E-04-1.82788E-05 0.00000E+00
 -1       976 1.98485E-04-1.90487E-05 1.65436E-24
 -1       977 1.98364E-04-1.97780E-05-3.30872E-24
 -1       978 1.98243E-04-2.04776E-05-1.65436E-24
 -1       979 1.98121E-04-2.11583E-05-3.30872E-24
 -1       980 1.98000E-04-2.18311E-05 1.65436E-24
 -1       981 1.97879E-04-2.25068E-05 3.30872E-24
 -1       982 1.97758E-04-2.31963E-05 1.65436E-24
 -1       983 1.97638E-04-2.39103E-05-3.30872E-24
 -1       984 1.97517E-04-2.46599E-05 0.00000E+00
 -1       985 1.97397E-04-2.54557E-05-3.30872E-24
 -3
    1PSTEP                        32          16           1          
  100CL  116 6.60934E-01         409                     0   16           1
 -4  STRESS      6    1
 -5  SXX         1    4    1    1
 -5  SYY         1    4    2    2
 -5  SZZ         1    4    3    3
 -5  SXY         1    4    1    2
 -5  SYZ         1    4    2    3
 -5  SZX         1    4    3    1
 -1         1-5.15064E+06-1.69712E+06-1.10860E+06-1.52743E+06 2.00816E-09-9.66538E-08
 -1         2 1.07043E+06 1.57295E+07 3.82450E+06 4.73573E+06 2.17406E-08 2.23925E-07
 -1         3-1.46408E+03-1.58851E+06 4.11086E+02-2.23626E+03-6.14794E-10 9.12405E-09
 -1         5-7.43753E+01 3.83965E+05 9.86351E+00-1.31867E+00-5.18541E-10 8.84029E-10
 -1         8-6.73741E+05-2.29085E+05-8.21065E+04-2.63775E+05 2.21007E-10-5.59521E-08
 -1         9 1.10037E+07 2.71083E+06 2.45128E+06-5.57221E+05 1.21188E-08-4.81959E-08
 -1        10-2.29389E+03-1.65536E+06-3.97211E+03-1.51253E+04-1.39353E-08-2.09890E-08
 -1        12-7.05014E+01 3.83987E+05 3.24242E+02-9.00402E+00-5.98845E-10 1.78834E-08
 -1        15 1.03101E+03 5.66592E+02 3.33271E+03 1.08658E+00-9.39551E-10-2.77561E-07
 -1        16 2.20564E+07-2.69353E+05 3.02441E+06-2.04703E+06 1.87041E-08 2.80406E-07
 -1        17 8.11824E+06 6.01283E+06 2.19288E+06 5.75009E+06 1.94181E-08 1.79862E-08
 -1        18 2.21417E+05 5.32553E+04 2.40528E+04-1.06934E+05 1.44637E-08 2.53658E-09
 -1        19 1.22109E+05 1.40906E+05-9.49004E+02 2.20593E+04 1.58652E-09-1.50099E-08
 -1        20-8.22360E+04-5.72694E+05-1.28537E+05 2.48771E+04-1.74608E-09 2.16405E-08
 -1        21-4.54170E+01-2.95106E+05-9.20653E+02 2.73761E+02 1.94345E-08-4.30642E-11
 -1        24 1.33852E+07 1.15108E+07 3.71749E+06 1.06706E+07-1.61216E-07-5.12227E-08
 -1        25 1.16756E+05 2.55754E+05 9.66734E+04-6.41075E+05-3.11893E-09 3.29273E-09
 -1        26-5.72811E+04 9.14589E+04-2.51357E+04 1.91265E+03-1.35333E-10 1.13820E-08
 -1        27-7.50191E+04-3.09274E+05-1.13014E+05 6.88255E+04 3.05363E-09 6.53108E-09
 -1        28 2.21703E+04-8.51419E+04 1.68504E+04 2.04584E+04-5.57753E-09-4.53213E-09
 -1        32-1.67581E+06-3.16503E+06-1.95936E+05 4.55357E+05-4.22951E-08-1.12706E-08
 -1        33-1.78421E+05 9.28135E+04 3.23373E+04-3.76575E+04-3.13749E-09 6.08058E-09
 -1        34-2.23165E+05-2.49859E+04 6.91425E+02 7.55749E+04-5.23470E-09-2.70823E-08
 -1        35-2.28568E+04-3.37656E+04-1.34539E+03 5.13411E+04-4.22580E-09-4.64085E-09
 -1        51 5.80764E+04-1.84011E+05 1.23399E+05-4.95347E+05-1.60071E-10 1.90885E-07
 -1        52 1.99584E+04-1.62845E+05 6.51925E+04-5.77648E+05-2.76486E-10 1.60449E-07
 -1        53 4.43348E+03-1.78254E+05 3.46719E+04-4.93607E+05 5.92991E-10-3.33610E-07
 -1        54 8.48301E+03-1.74126E+05 2.99386E+04-5.79386E+05-8.00355E-11 7.56099E-08
 -1        55 1.83381E+04-1.81855E+05 3.81177E+04-4.93458E+05 3.27418E-10-9.94260E-09
 -1        56-9.44503E+06-1.17497E+06-8.38240E+05-3.81579E+06 1.53668E-08-1.02067E-07
 -1        57-1.03768E+07-1.23077E+06-5.48796E+05-3.03695E+06 1.74878E-08 1.94850E-08
 -1        58-9.46547E+06-1.53905E+06-1.92918E+05-3.88686E+06 5.79166E-09-9.48057E-08
 -1        59-1.03095E+07-8.34101E+05-1.12270E+05-3.02000E+06 6.56109E-09-2.47435E-07
 -1        60-9.52768E+06-1.55012E+06-4.84574E+04-3.84954E+06 7.79801E-09-2.52905E-07
 -1        61-1.00213E+07-9.83483E+05-1.37433E+04-3.19599E+06 2.05619E-08-1.38831E-07
 -1        62-9.71454E+06-1.41495E+06-2.96163E+04-3.68183E+06-4.89672E-09-1.96680E-07
 -1        63-9.61868E+06-1.33149E+06 7.52455E+03-3.57428E+06 1.90303E-08-1.93686E-08
 -1        64-9.90321E+06-1.22102E+06-2.70921E+04-3.45313E+06 1.26965E-08-6.58110E-08
 -1        65-9.36750E+06-1.65029E+06-1.32021E+04-3.99585E+06-7.04313E-08-3.29436E-07
 -1        66-9.99997E+06-1.07256E+06-4.20521E+04-3.28554E+06 1.25656E-08-1.51307E-07
 -1        67-9.32181E+06-1.81600E+06-1.01163E+05-4.18741E+06-7.67286E-08-6.75209E-08
 -1        68-9.98289E+06-1.03294E+06-1.75160E+05-3.28381E+06 4.29736E-10 1.56841E-07
 -1        69-9.54782E+06-1.98792E+06-4.91854E+05-3.96742E+06 1.30299E-08-1.69384E-08
 -1        70-9.74758E+06-9.29256E+05-7.59116E+05-3.48380E+06-2.90675E-08 6.99656E-08
 -1        86-1.09020E+06-1.24982E+07-2.08876E+06-2.24126E+06-2.31714E-07 1.27897E-07
 -1        87 1.65337E+06 4.12428E+06 1.73837E+06 4.43688E+06-4.09011E-07 8.33015E-08
 -1        88-2.80732E+05-2.28561E+06 1.55541E+05-2.14145E+06-3.60682E-07-1.64956E-07
 -1        89 2.22240E+06 3.93340E+06 1.77324E+06 4.56433E+06-5.11598E-07-3.14250E-07
 -1        90-1.60020E+06-1.23579E+07-2.27078E+06-2.38416E+06-1.22494E-07 1.79672E-07
 -1       121-2.00723E+03-1.59334E+06-5.24965E+02 1.10872E+03 1.40605E-09 2.70520E-08
 -1       122-1.27577E+03-1.58857E+06 7.83405E+02-4.47562E+03-5.84002E-09-4.90400E-09
 -1       123-2.02852E+03-1.59348E+06 3.02176E+02 3.31090E+03 4.00553E-09 1.20272E-08
 -1       124 3.89419E+02-1.58810E+06 3.01394E+03-9.35461E+03-9.77980E-09 1.25710E-08
 -1       125-2.85553E+03-1.59439E+06 3.57901E+03 5.94313E+03 6.72844E-09-1.36170E-08
 -1       191-7.83777E+01 3.83984E+05 8.38660E+00 6.87574E-01-5.35806E-10-2.58660E-09
 -1       192-7.53274E+01 3.83966E+05 2.10486E+01-4.24826E+00-7.08670E-10-9.87802E-09
 -1       193-8.08840E+01 3.83983E+05 3.58347E+01 3.73359E+00-1.13089E-09 6.35373E-09
 -1       194-7.83800E+01 3.83969E+05 8.00176E+01-9.64865E+00-5.74126E-10 3.74739E-08
 -1       195-8.56945E+01 3.83981E+05 1.53195E+02 6.27789E+00-1.48818E-09 1.21472E-08
 -1       251-1.15765E+06 2.49659E+04-6.01449E+04-2.35878E+04-2.48929E-09-1.58208E-07
 -1       252-1.17884E+06-2.86492E+04-4.14686E+04 7.87393E+04 7.91076E-09-2.12726E-08
 -1       253-1.16523E+06 4.05790E+03-1.53743E+04-2.69375E+04-4.02633E-09-2.64842E-07
 -1       254-1.16222E+06-4.21829E+03-8.18266E+03 6.98477E+04-5.87488E-09-4.23153E-07
 -1       255-1.17369E+06 2.65217E+02-5.29861E+03-1.46948E+04 9.09563E-09-6.31107E-08
 -1       256-1.14703E+06-3.29222E+02 1.86216E+03 3.49403E+04-6.00778E-09 6.64818E-08
 -1       257-1.17914E+06-9.04377E+02-3.23414E+03 7.95978E+03 2.64527E-09-7.93024E-08
 -1       258-1.14622E+06 1.09223E+03 4.49575E+03-1.09713E+04-1.12486E-08 3.32217E-08
 -1       259-1.17443E+06-1.29447E+03-2.59693E+02 3.11963E+04 9.69976E-10-2.11961E-07
 -1       260-1.15954E+06 3.27996E+03 5.45865E+03-4.79826E+04 1.17485E-08-9.47203E-08
 -1       261-1.16706E+06-2.05968E+03 6.62653E+03 4.49939E+04 8.78106E-09-5.73077E-08
 -1       262-1.16382E+06 1.05211E+04 1.69582E+04-6.03874E+04 9.31691E-09 1.63482E-07
 -1       263-1.17081E+06-7.92032E+03 2.62922E+04 4.36250E+04-2.80647E-09 1.27839E-07
 -1       264-1.13345E+06 5.35601E+04 7.48675E+04-4.30595E+04 4.50151E-08 1.58107E-08
 -1       265-1.19646E+06-4.57230E+04 1.00690E+05 2.76372E+04 1.03287E-08-5.91026E-08
 -1       266-1.86649E+04-8.72838E+03 4.37898E+04-2.32480E+01-8.67658E-10-3.20087E-07
 -1       267 2.16375E+04 1.01720E+04 3.09516E+04 2.68253E+01-1.94950E-09-9.63479E-07
 -1       268-2.90156E+03-1.44070E+03 1.15045E+04-3.41791E+00-1.55296E-09-6.89490E-07
 -1       269 3.42587E+03 1.72415E+03 7.47782E+03 3.98147E+00-1.46190E-09-6.92273E-07
 -1       270-5.14226E+02-2.83292E+02 3.60965E+03-5.40308E-01-9.99648E-10-2.10022E-07
 -1       271-1.64009E+06-2.05190E+05-1.22357E+05-6.35405E+05 2.42671E-08 1.60951E-07
 -1       272-1.66087E+06-3.10731E+05-7.77440E+04-6.54285E+05-4.95529E-08-3.59280E-07
 -1       273-1.66517E+06-2.32824E+05-2.93332E+04-6.27504E+05 3.18705E-08 1.45383E-07
 -1       274-1.63118E+06-2.77762E+05-1.57817E+04-6.68162E+05-6.19548E-09 9.47575E-08
 -1       275-1.67064E+06-2.33395E+05-7.11975E+03-6.24028E+05 2.03945E-08-1.14925E-07
 -1       276-1.62461E+06-2.77960E+05-3.29921E+03-6.75438E+05 3.20588E-08 1.69559E-07
 -1       277-1.67326E+06-2.31255E+05-1.93177E+03-6.21479E+05-1.92813E-09 4.42897E-08
 -1       278-1.62172E+06-2.81068E+05-9.21989E+02-6.80886E+05 6.23004E-09 1.00566E-07
 -1       279-1.67497E+06-2.29338E+05-1.04805E+03-6.19601E+05-4.48235E-08-1.62431E-07
 -1       280-1.62017E+06-2.83675E+05-1.41896E+03-6.84709E+05 1.68620E-08-1.19995E-07
 -1       281-1.67594E+06-2.27943E+05-2.61778E+03-6.18428E+05-1.87720E-08 3.72150E-08
 -1       282-1.62048E+06-2.86688E+05-6.11770E+03-6.86588E+05 2.42608E-08 1.86722E-07
 -1       283-1.67534E+06-2.26063E+05-1.08814E+04-6.18116E+05-1.17916E-09-1.71449E-07
 -1       284-1.62990E+06-3.01615E+05-2.96661E+04-6.84554E+05-3.93434E-08-3.99426E-07
 -1       285-1.66682E+06-2.14448E+05-4.61397E+04-6.19992E+05-2.82648E-09-1.81240E-07
 -1       301 1.76865E+03-6.12589E+05 1.68626E+05-1.06887E+06-3.28146E-09 4.42597E-08
 -1       302 1.90638E+03-5.67657E+05 1.01640E+05-1.56123E+06-2.86236E-08-1.08863E-07
 -1       303-1.48168E+04-6.02597E+05 5.84512E+04-1.06606E+06 1.12777E-09-2.31921E-08
 -1       304-1.38490E+04-5.72762E+05 6.06203E+04-1.56047E+06-2.78669E-08-6.13363E-08
 -1       305-1.76475E+04-5.92888E+05 7.68638E+04-1.06914E+06-4.92582E-09-6.72007E-08
 -1       306-2.95762E+07-6.09655E+06-8.41297E+06-6.89370E+05-4.44707E-08 2.34868E-08
 -1       307 2.49774E+07 2.98726E+06 5.40698E+06-1.46830E+07-8.55711E-07 1.28872E-07
 -1       308-7.19929E+06-9.92352E+05-4.97782E+05 5.09749E+06-3.54601E-07 2.65878E-07
 -1       309-3.38823E+06 8.32834E+06 2.18768E+06-2.02836E+07 2.90715E-07-1.22171E-07
 -1       310-1.21694E+07-1.79518E+06-1.88572E+06 5.07755E+06 1.05880E-07-1.92842E-07
 -1       311 3.65541E+07 9.32475E+02 6.98591E+06-8.94677E+06 4.96162E-07 5.74510E-08
 -1       312-3.11485E+07-6.49408E+06-8.24039E+06-4.72425E+06 1.11409E-07-8.55362E-08
 -1       313 4.44677E+07 1.39881E+07 1.03619E+07 2.26725E+07-1.32713E-08-1.32946E-07
 -1       314-1.72750E+07-1.70669E+07-7.33613E+06-1.23003E+07 5.50703E-07-1.65659E-07
 -1       315-1.49020E+06 2.86729E+07 5.55267E+06 1.07337E+07-3.19298E-07-9.84874E-08
 -1       316 1.16908E+06-9.75657E+06-4.72854E+05-2.76523E+06-1.25970E-06 3.57977E-09
 -1       317-1.71705E+07 2.19491E+07 2.14712E+06-8.21750E+06 6.13203E-07-6.81335E-07
 -1       318-1.08094E+06-1.23198E+07-1.91270E+06-4.28110E+06-8.82050E-07 1.64146E-07
 -1       319 6.70971E+06 3.06416E+07 6.75760E+06 1.60098E+07-2.77942E-08 2.54513E-07
 -1       320-2.20879E+07-1.70450E+07-9.53286E+06-1.24733E+07 1.91270E-07-3.06754E-08
 -1       336-6.74446E+02-1.72485E+06-1.39628E+04 9.01727E+03-2.68374E-08-1.51922E-08
 -1       337-5.42139E+03-1.72457E+06-1.81905E+04-2.18731E+04-4.86759E-08-6.30826E-09
 -1       338 3.28697E+02-1.72435E+06-2.85469E+04 1.26121E+04-3.39587E-08 1.77170E-09
 -1       339-3.02695E+04-1.74183E+06-6.45366E+04-2.89057E+04-6.25587E-08 8.11633E-09
 -1       340 2.00065E+04-1.70977E+06-1.01612E+05 1.59213E+04-4.12547E-08 3.26145E-08
 -1       406-4.90529E+01 3.83966E+05 6.36647E+02 3.26924E+00-2.01045E-09 1.74259E-08
 -1       407 1.53082E+02 3.84099E+05 1.36056E+03 2.33900E+01-5.22739E-10 2.45564E-08
 -1       408 6.27541E+02 3.83867E+05 2.71284E+03-2.69742E+01-2.46928E-09-1.19344E-08
 -1       409 2.87307E+03 3.84965E+05 6.11450E+03 2.87475E+02-1.46883E-10-5.77056E-08
 -1       410 8.38091E+03 3.83086E+05 1.24794E+04-2.76965E+02-2.87400E-09-1.17179E-08
 -1       521-3.10646E+07-7.49570E+06-9.79920E+06-3.15153E+05-1.07219E-07-2.48547E-08
 -1       522 2.57510E+07 3.90536E+06 5.49225E+06-1.80715E+07-5.32455E-07-4.00934E-07
 -1       523-7.81039E+06-1.29287E+06-4.93380E+05 5.53420E+06 6.97328E-08-4.91695E-07
 -1       524-6.81710E+06 1.12226E+07 2.35923E+06-2.32794E+07 6.61414E-07-5.47763E-07
 -1       525-1.29923E+07-2.38513E+06-2.06737E+06 5.51078E+06 6.14789E-07-2.96859E-08
 -1       526 3.97337E+07-7.29905E+04 7.31759E+06-1.15478E+07 1.96451E-07 7.71252E-08
 -1       527-3.29147E+07-8.11983E+06-9.46979E+06-4.58552E+06-1.59373E-07 3.41679E-07
 -1       528 4.84526E+07 1.54781E+07 1.07827E+07 2.56844E+07-3.65253E-07 5.85715E-07
 -1       529-1.82143E+07-1.91698E+07-8.38777E+06-1.23461E+07 1.26893E-08 3.29455E-08
 -1       530-3.92804E+06 3.32323E+07 5.85923E+06 1.03210E+07-5.13683E-08 6.13451E-07
 -1       531 1.14443E+06-1.08324E+07-4.51960E+05-2.76630E+06-9.65098E-07 2.89583E-07
 -1       532-1.97992E+07 2.39842E+07 2.33993E+06-1.22798E+07 3.06172E-07-7.24336E-07
 -1       533-1.13362E+06-1.34440E+07-2.02600E+06-4.15068E+06-2.04978E-07-9.35164E-07
 -1       534 4.68673E+06 3.54579E+07 7.01497E+06 1.65304E+07-9.82836E-08 7.85512E-07
 -1       535-2.32222E+07-1.93186E+07-1.08936E+07-1.25401E+07 6.28643E-08 4.76954E-07
 -1       536-4.59803E+05-5.66945E+04-2.44979E+04-2.68479E+04-8.46612E-09 3.93011E-08
 -1       537 2.69296E+05 4.91973E+04 1.09578E+05 4.94774E+04-1.14373E-07 5.87834E-08
 -1       538-1.30850E+05 7.86587E+03 8.99922E+03-2.34701E+04 3.01534E-08 7.15172E-08
 -1       539 5.69420E+04-9.40265E+03 3.56772E+04 5.08219E+04 1.89389E-07 1.06406E-07
 -1       540-2.48905E+05 3.26924E+03-2.42087E+04-2.83497E+04-2.56045E-09 6.42135E-08
 -1       541 4.62103E+05 1.14992E+04 1.14193E+05 4.36230E+04-5.30372E-08 6.17470E-08
 -1       542-5.33006E+05-1.57916E+04-8.40402E+04-1.60149E+04 2.37375E-08 1.75560E-08
 -1       543 7.06907E+05 2.63549E+04 1.63763E+05-4.76584E+03 2.41093E-08-1.30053E-08
 -1       544-4.91918E+05-1.31876E+04-7.66660E+04 1.98469E+04-1.75114E-08-2.29733E-08
 -1       545 3.47745E+05 2.19288E+03 8.76453E+04-4.57790E+04 2.75222E-09-4.42010E-08
 -1       546-1.76461E+05 1.07085E+04-1.39127E+04 2.48976E+04-9.78929E-09-6.39608E-08
 -1       547 4.08508E+04-1.63673E+04 2.14396E+04-5.09385E+04-1.53242E-07-1.03064E-07
 -1       548-1.87317E+05 7.50711E+03-2.10932E+04 2.52101E+04-1.12493E-07-5.52645E-08
 -1       549 3.71287E+05 2.25900E+04 8.50297E+04-4.55407E+04-7.90727E-08-7.47234E-08
 -1       550-5.04488E+05-3.04865E+04-1.06240E+05 1.92896E+04-3.18096E-10-1.48648E-08
 -1       551 4.07084E+04-7.60009E+05-1.36878E+04-1.24354E+06-1.03319E-07-1.50758E-08
 -1       552 9.25021E+04-8.04036E+05 1.11970E+04-1.77327E+06-7.30943E-08 4.46453E-08
 -1       553 7.09756E+04-8.00662E+05 3.28849E+04-1.23697E+06-1.17754E-07 2.99333E-08
 -1       554 1.30872E+05-8.19317E+05 8.20436E+04-1.77521E+06-7.33417E-08 1.84991E-08
 -1       555 1.00676E+05-8.24088E+05 1.49492E+05-1.23685E+06-1.21348E-07-1.53850E-08
 -1       556 2.09414E+05-3.79276E+05 2.79064E+04-4.06459E+05-1.51049E-08-1.09139E-08
 -1       557 3.38565E+05-4.82386E+05 1.71985E+04-5.24913E+05 2.16387E-08-7.63066E-09
 -1       558 1.91766E+05-3.72702E+05 2.86681E+03-4.10383E+05-7.88714E-09-1.14960E-08
 -1       559 3.13883E+05-4.82873E+05 2.67700E+03-5.44916E+05 2.02126E-08 8.58927E-09
 -1       560 1.76841E+05-3.63336E+05-1.34241E+03-4.21119E+05 4.04543E-09 2.28320E-08
 -1       561 2.95101E+05-4.75384E+05 1.88205E+02-5.57728E+05-9.63337E-09 2.20134E-08
 -1       562 1.65023E+05-3.55989E+05-1.27540E+03-4.29671E+05-2.40107E-09 1.44792E-09
 -1       563 2.81062E+05-4.69267E+05-2.88471E+01-5.66908E+05 2.41562E-09-1.35924E-08
 -1       564 1.56577E+05-3.50724E+05-5.95582E+02-4.35653E+05 7.26141E-09-4.90445E-09
 -1       565 2.71731E+05-4.65206E+05 5.57495E+00-5.72878E+05 1.63855E-08 1.78115E-08
 -1       566 1.51624E+05-3.47589E+05-2.94271E+02-4.39116E+05 5.27507E-09-5.01859E-09
 -1       567 2.67162E+05-4.63227E+05-4.36835E+02-5.75654E+05 1.85719E-08 1.81899E-09
 -1       568 1.50257E+05-3.46751E+05-1.26540E+03-4.40165E+05-4.19732E-09 1.20199E-08
 -1       569 2.65915E+05-4.63226E+05-3.17038E+03-5.74287E+05-2.26100E-09 4.04725E-08
 -1       570 1.53593E+05-3.50030E+05-6.82303E+03-4.39117E+05 3.71074E-09-1.08357E-08
 -1       571 2.89974E+05 1.03631E+04 1.47823E+04-9.40863E+04 1.92904E-09 1.69471E-08
 -1       572 2.92116E+05 3.90658E+03 7.24445E+03-1.03227E+05-2.11003E-10-2.02508E-08
 -1       573 2.90826E+05 1.22922E+03 3.21897E+03-9.39140E+04 4.54111E-09-3.81533E-09
 -1       574 2.91038E+05 7.17397E+02 1.61428E+03-1.03447E+05 2.88310E-09 1.90994E-10
 -1       575 2.90920E+05 4.41693E+02 7.61942E+02-9.38904E+04-1.92294E-09 5.73709E-09
 -1       576 2.90905E+05 4.52477E+02 3.90201E+02-1.03476E+05-6.45309E-09 2.38833E-09
 -1       577 2.90960E+05 3.83738E+02 1.94973E+02-9.38871E+04-5.86897E-09 8.37827E-09
 -1       578 2.90936E+05 4.14395E+02 1.13032E+02-1.03480E+05-3.95448E-09 1.97360E-09
 -1       579 2.91032E+05 3.47133E+02 7.83246E+01-9.38868E+04 9.12223E-09-1.44619E-08
 -1       580 2.91037E+05 3.63858E+02 9.19398E+01-1.03475E+05-6.93035E-09-2.24463E-09
 -1       581 2.91145E+05 2.89482E+02 1.39925E+02-9.38927E+04 4.16185E-09 1.12777E-10
 -1       582 2.91211E+05 3.28554E+02 2.84984E+02-1.03414E+05-8.40373E-10 1.50139E-08
 -1       583 2.91282E+05 3.36192E+02 5.47736E+02-9.39489E+04-8.36735E-10 2.32535E-09
 -1       584 2.91586E+05 7.83814E+02 1.23932E+03-1.02941E+05 3.75439E-09-4.94401E-09
 -1       585 2.91302E+05 1.82968E+03 2.51033E+03-9.43652E+04-8.44011E-10 5.48243E-09
 -1       586-3.62207E+03 1.15312E+05-3.22955E+03-2.44548E+05-5.73073E-09-5.27007E-09
 -1       587-1.39368E+03 1.15017E+05 6.30975E+02-2.69146E+05-5.96992E-09-1.59471E-08
 -1       588 4.07135E+02 1.14849E+05 4.72441E+03-2.44415E+05-5.66615E-09-6.66660E-10
 -1       589 5.13780E+03 1.17322E+05 1.23878E+04-2.68917E+05-6.59384E-09-1.12022E-08
 -1       590 1.67398E+04 1.13489E+05 2.60405E+04-2.44838E+05-5.96128E-09 8.73115E-09
 -1       591-7.34103E+04-1.55597E+04-2.24751E+04-3.11194E+04-1.55319E-09 4.87580E-09
 -1       592-7.75722E+04-1.90267E+04-1.21743E+04-3.46410E+04-1.28922E-09 1.23041E-08
 -1       593-7.56566E+04-1.39304E+04-5.06754E+03-3.27689E+04-3.11252E-09-2.13915E-08
 -1       594-7.44704E+04-1.57273E+04-2.52730E+03-3.47566E+04-4.22288E-09-3.54009E-09
 -1       595-7.58278E+04-1.39251E+04-1.16021E+03-3.28438E+04-3.66427E-10 8.11207E-09
 -1       596-7.42579E+04-1.55764E+04-5.89454E+02-3.47312E+04 6.70042E-10 1.48596E-08
 -1       597-7.58492E+04-1.39405E+04-3.20250E+02-3.28467E+04 2.11855E-10 2.56585E-08
 -1       598-7.42370E+04-1.55704E+04-2.56108E+02-3.47241E+04-5.40604E-09-7.37646E-09
 -1       599-7.58480E+04-1.39411E+04-3.25482E+02-3.28464E+04 6.63476E-10-2.24018E-08
 -1       600-7.42578E+04-1.55768E+04-6.03315E+02-3.47291E+04-1.86134E-09-1.92492E-08
 -1       601-7.58237E+04-1.39266E+04-1.18950E+03-3.28429E+04 2.99792E-09-1.01809E-08
 -1       602-7.44756E+04-1.57303E+04-2.59204E+03-3.47513E+04-3.03919E-09 1.07025E-08
 -1       603-7.56454E+04-1.39349E+04-5.19792E+03-3.27670E+04-2.58819E-09 5.75938E-09
 -1       604-7.76753E+04-1.90945E+04-1.24866E+04-3.46074E+04 3.50383E-09-6.34918E-09
 -1       605-7.33211E+04-1.56243E+04-2.30518E+04-3.10951E+04 1.75135E-09 2.24836E-08
 -1       606 2.64532E+04-1.42824E+04-2.56051E+04 2.37638E+04 4.05544E-09-2.85354E-10
 -1       607 2.20781E+04-4.66400E+03-1.27513E+04 2.67055E+04 2.83217E-09-1.05538E-08
 -1       608 2.45720E+04-8.40732E+02-5.70827E+03 2.35967E+04-7.91260E-10 6.95763E-11
 -1       609 2.40941E+04-2.87592E+02-2.88367E+03 2.69176E+04 5.60340E-09 2.25702E-08
 -1       610 2.43595E+04-4.02622E+01-1.37580E+03 2.35769E+04 7.85349E-09 4.40446E-09
 -1       611 2.42845E+04-4.06237E+01-6.93652E+02 2.69405E+04 5.60749E-09 2.00184E-08
 -1       612 2.43128E+04-2.67993E+01-3.29684E+02 2.35748E+04 1.75305E-08-6.82348E-09
 -1       613 2.42964E+04-3.67340E+01-1.47624E+02 2.69432E+04 3.93879E-08-1.54844E-08
 -1       614 2.42910E+04-3.33674E+01-3.43308E+01 2.35742E+04 1.95669E-08 1.96064E-09
 -1       615 2.42914E+04-3.53968E+01 6.25720E+01 2.69436E+04-1.69621E-09 2.83774E-08
 -1       616 2.42738E+04-3.03721E+01 1.86988E+02 2.35744E+04 2.63935E-09-1.25965E-09
 -1       617 2.43141E+04 4.30435E+00 4.26370E+02 2.69431E+04 3.66776E-09-4.54065E-10
 -1       618 2.42370E+04 9.24304E+01 8.59325E+02 2.35747E+04 3.38559E-09-5.09999E-09
 -1       619 2.46176E+04 6.68639E+02 1.92962E+03 2.69425E+04-3.18960E-09-8.75866E-09
 -1       620 2.39517E+04 2.13001E+03 3.87846E+03 2.35763E+04 1.72008E-09 8.09860E-09
 -1       621 5.02124E+02 2.99846E+05 3.81999E+03 4.09009E+04 1.13414E-09 6.03632E-09
 -1       622 6.67153E+02 3.00727E+05 3.39879E+03 5.93783E+04 1.20508E-09 1.20426E-08
 -1       623 1.41642E+02 3.00035E+05 4.09467E+03 4.07152E+04 1.29069E-09 2.72576E-09
 -1       624 2.10593E+03 3.01935E+05 7.94687E+03 5.95617E+04 1.19587E-09 1.03241E-08
 -1       625 2.05751E+03 2.98458E+05 1.38909E+04 4.07115E+04 1.04319E-09 3.60092E-09
 -1       626 2.60641E+05 6.12758E+04 5.18141E+03 1.26463E+05 3.10183E-09-5.71708E-09
 -1       627 2.58346E+05 6.26390E+04 2.49687E+03 1.30729E+05 5.99175E-09 6.10089E-09
 -1       628 2.60768E+05 5.89072E+04 1.05601E+03 1.27347E+05-7.46695E-09-9.08994E-09
 -1       629 2.57706E+05 6.19481E+04 5.16800E+02 1.30970E+05-8.74115E-09 1.06642E-08
 -1       630 2.60783E+05 5.87926E+04 2.39774E+02 1.27384E+05-3.74712E-10-4.98289E-10
 -1       631 2.57639E+05 6.19215E+04 1.29008E+02 1.30971E+05 1.39789E-09 1.29722E-09
 -1       632 2.60780E+05 5.87964E+04 8.48337E+01 1.27380E+05 1.35947E-08 1.56454E-08
 -1       633 2.57631E+05 6.19232E+04 9.44319E+01 1.30968E+05 9.79026E-09-8.56971E-10
 -1       634 2.60776E+05 5.87936E+04 1.52536E+02 1.27380E+05 3.48052E-10 1.06284E-08
 -1       635 2.57646E+05 6.19214E+04 3.08609E+02 1.30974E+05-6.41592E-09 2.51202E-09
 -1       636 2.60766E+05 5.87877E+04 6.23221E+02 1.27380E+05-5.70026E-10-4.04452E-09
 -1       637 2.57781E+05 6.20183E+04 1.37033E+03 1.30973E+05-4.25280E-09 8.27458E-09
 -1       638 2.60718E+05 5.90904E+04 2.81549E+03 1.27243E+05-1.77351E-10 3.94402E-09
 -1       639 2.59260E+05 6.40751E+04 6.66160E+03 1.30537E+05 2.89219E-09 5.79894E-09
 -1       640 2.60513E+05 6.52329E+04 1.38240E+04 1.24655E+05-1.14596E-10 2.29693E-09
 -1       656 6.64476E+04-1.70085E+06-1.60402E+05-2.54847E+03 5.96629E-10-8.80272E-09
 -1       657-8.79071E+04-1.77333E+06-1.32888E+05 5.12873E+03 5.49335E-10-1.20785E-08
 -1       658 2.11838E+04-1.72143E+06-8.18493E+04-4.62105E+03 4.72028E-10 4.14563E-09
 -1       659-9.50758E+04-1.77674E+06-1.42309E+05 6.85541E+03-1.38789E-09-1.75681E-09
 -1       660 7.36003E+04-1.69745E+06-1.76598E+05-4.27514E+03-2.18279E-09 1.30754E-08
 -1       661 1.57072E+05 1.64258E+04 1.65927E+04 6.14096E+04 8.78117E-10 2.06946E-08
 -1       662 1.66469E+05 2.86979E+04 1.11823E+04 5.76688E+04 1.65426E-09 2.93634E-08
 -1       663 1.60332E+05 2.17491E+04 3.91085E+03 6.04638E+04-3.64162E-09 4.49586E-09
 -1       664 1.62690E+05 2.24727E+04 2.33953E+03 5.88241E+04-2.54218E-09 7.91772E-10
 -1       665 1.60826E+05 2.24761E+04 9.22936E+02 6.03195E+04 3.06528E-09-5.41098E-09
 -1       666 1.62105E+05 2.16413E+04 5.40289E+02 5.90123E+04 7.37805E-09 1.36241E-08
 -1       667 1.60913E+05 2.25588E+04 2.87229E+02 6.02834E+04 3.60816E-09 4.05269E-09
 -1       668 1.62010E+05 2.15819E+04 2.93233E+02 5.90648E+04-1.14221E-09-3.29674E-08
 -1       669 1.60921E+05 2.25339E+04 3.97471E+02 6.02673E+04-2.73349E-09-2.00793E-08
 -1       670 1.62107E+05 2.17977E+04 8.65931E+02 5.90675E+04-1.12559E-08-3.69505E-09
 -1       671 1.60816E+05 2.23475E+04 1.53768E+03 6.02786E+04 3.47498E-10-1.16244E-08
 -1       672 1.63003E+05 2.32935E+04 3.93423E+03 5.88501E+04 5.62173E-09-1.33372E-09
 -1       673 1.60029E+05 2.10760E+04 6.59319E+03 6.04701E+04 6.40364E-09 1.18412E-08
 -1       674 1.69278E+05 3.38860E+04 1.88551E+04 5.70063E+04-6.10271E-10 2.05318E-08
 -1       675 1.54581E+05 1.20517E+04 2.79877E+04 6.20111E+04-1.50567E-09 2.88346E-08
 -1       676 2.40285E+01-2.95029E+05-1.10963E+03-1.36885E+02 2.23267E-09 1.77750E-09
 -1       677-2.93524E+02-2.95297E+05-2.03081E+03 2.73550E+02 8.70406E-09-9.24176E-09
 -1       678 1.96870E+02-2.94838E+05-3.58998E+03-1.36576E+02 1.12550E-10 3.97453E-09
 -1       679-3.59003E+03-2.97465E+05-8.52829E+03 2.72371E+02 6.02847E-09 9.12996E-09
 -1       680 2.14345E+03-2.92863E+05-1.37447E+04-1.34197E+02-1.17052E-09-4.31584E-11
 -1       771-3.05564E+06-7.42048E+05-1.62190E+05-1.46011E+06-3.87954E-08-3.00060E-08
 -1       772-2.97929E+06-8.29902E+05-8.36226E+04-1.56167E+06-3.69910E-08 7.73798E-09
 -1       773-3.08651E+06-7.17957E+05-4.26186E+04-1.47423E+06-2.26137E-08 8.83301E-09
 -1       774-2.96989E+06-8.11865E+05-1.90158E+04-1.58694E+06 2.43890E-08-9.38599E-10
 -1       775-3.10261E+06-7.06648E+05-1.42166E+04-1.48109E+06-1.57161E-08 3.01952E-09
 -1       776-2.98191E+06-8.08939E+05-5.31725E+03-1.60603E+06-1.10012E-08 2.30284E-09
 -1       777-3.11658E+06-6.96564E+05-6.27809E+03-1.48714E+06 4.13274E-09 4.14730E-10
 -1       778-2.99447E+06-8.06217E+05-1.77448E+03-1.62243E+06 6.79574E-09 9.44419E-09
 -1       779-3.12858E+06-6.87757E+05-3.13512E+03-1.49231E+06-6.37374E-09-7.92352E-09
 -1       780-3.00552E+06-8.03619E+05-5.16946E+02-1.63579E+06-6.75209E-09-2.98314E-09
 -1       781-3.13811E+06-6.80659E+05-1.21183E+03-1.49635E+06-2.58151E-08 6.05360E-09
 -1       782-3.01404E+06-8.01410E+05 4.53412E+02-1.64565E+06-4.08108E-08-4.11274E-09
 -1       783-3.14483E+06-6.75729E+05 7.12249E+02-1.49918E+06-6.54109E-09-1.57465E-08
 -1       784-3.01874E+06-7.99176E+05 2.90276E+03-1.65174E+06-7.14135E-09 3.20551E-09
 -1       785-3.14881E+06-6.72780E+05 5.12985E+03-1.50099E+06-3.30110E-08 5.31145E-09
 -1       786 1.11876E+05-9.42509E+03 2.18055E+04-2.93340E+02 2.04822E-09 2.19097E-08
 -1       787 1.21334E+05 1.09121E+04 1.54265E+04-1.16967E+02 4.50971E-09 2.02181E-09
 -1       788 1.15522E+05-1.47696E+03 5.64126E+03-2.60880E+02 6.40138E-09 8.89600E-09
 -1       789 1.17086E+05 1.70943E+03 3.54097E+03-1.66835E+02 1.14946E-09 1.85111E-08
 -1       790 1.16124E+05-2.29943E+02 1.43274E+03-2.43488E+02-3.32699E-09 1.29421E-08
 -1       791 1.16382E+05 2.65697E+02 8.25704E+02-1.96736E+02-7.39016E-09-1.85025E-10
 -1       792 1.16227E+05-3.43069E+01 3.46265E+02-2.30981E+02-5.27384E-09 1.62814E-09
 -1       793 1.16259E+05 3.43492E+01 1.64659E+02-2.20240E+02-7.49588E-10 1.76773E-09
 -1       794 1.16247E+05 1.25933E+00 2.67828E+01-2.19984E+02 4.34770E-09-1.73505E-09
 -1       795 1.16217E+05-4.02966E+01-9.88164E+01-2.42944E+02-4.49814E-09-7.62039E-09
 -1       796 1.16269E+05 4.02964E+01-2.31222E+02-2.08276E+02 5.38707E-09 2.28871E-08
 -1       797 1.16089E+05-3.00474E+02-6.13987E+02-2.69419E+02 5.72435E-09 2.09979E-08
 -1       798 1.16375E+05 2.61243E+02-9.91352E+02-1.93509E+02 2.61331E-09 2.28465E-08
 -1       799 1.15339E+05-1.92694E+03-2.72241E+03-3.05661E+02 5.75085E-09 8.48527E-09
 -1       800 1.17019E+05 1.66544E+03-3.85127E+03-1.72036E+02 7.18831E-10 9.70772E-09
 -1       801-1.66916E+05-9.94885E+06-1.38402E+06 1.40478E+06 9.27539E-08-5.57920E-08
 -1       802 7.30129E+05 5.88541E+06 2.16568E+06-1.73138E+06 2.58333E-07-3.59723E-08
 -1       803-5.33193E+05-1.42135E+07-1.88150E+06 8.86254E+05 7.58155E-08 2.19661E-08
 -1       804 2.86213E+05 2.37322E+06 1.53052E+06 6.77785E+05-1.20690E-07-1.01788E-07
 -1       805 1.87925E+05-6.45075E+06-2.87791E+05-9.98700E+05-4.99494E-08-7.09642E-08
 -1       806-3.09077E+05-5.94189E+04-2.25566E+04-1.22184E+05-3.80123E-09 1.28480E-08
 -1       807-3.10873E+05-5.57147E+04-1.10818E+04-1.27631E+05 1.59143E-08 1.39960E-08
 -1       808-3.09694E+05-5.12912E+04-4.70130E+03-1.26029E+05-4.64343E-09-7.10543E-09
 -1       809-3.08545E+05-5.25992E+04-2.29886E+03-1.27901E+05-1.15856E-08-1.07657E-08
 -1       810-3.09788E+05-5.10084E+04-1.05378E+03-1.26199E+05 1.11222E-08 7.07041E-09
 -1       811-3.08365E+05-5.24739E+04-5.24201E+02-1.27866E+05 2.35423E-09 1.68102E-08
 -1       812-3.09802E+05-5.10327E+04-2.65486E+02-1.26198E+05-6.92035E-09 1.09139E-10
 -1       813-3.08340E+05-5.24759E+04-1.73201E+02-1.27848E+05-9.33096E-09-1.26490E-08
 -1       814-3.09795E+05-5.10422E+04-1.72680E+02-1.26194E+05-3.35604E-10 2.52476E-09
 -1       815-3.08344E+05-5.24780E+04-2.79251E+02-1.27841E+05 1.07684E-09 2.79779E-08
 -1       816-3.09774E+05-5.10411E+04-5.29903E+02-1.26191E+05 4.69208E-09 1.28011E-08
 -1       817-3.08434E+05-5.25286E+04-1.13761E+03-1.27829E+05-4.03406E-09 1.12375E-08
 -1       818-3.09705E+05-5.12014E+04-2.32045E+03-1.26115E+05-2.93403E-09-1.51822E-08
 -1       819-3.09703E+05-5.39318E+04-5.46002E+03-1.27531E+05 1.65073E-10-9.97784E-09
 -1       820-3.09269E+05-5.53246E+04-1.11131E+04-1.24352E+05-4.01087E-10 1.02091E-09
 -1       821-3.76696E+05 2.07940E+04-4.83442E+04 2.00521E+03 1.32001E-08 3.24508E-09
 -1       822-3.96575E+05-2.40851E+04-3.40225E+04-4.06010E+03 4.40726E-09 2.03095E-08
 -1       823-3.84246E+05 3.27437E+03-1.24924E+04 3.15440E+03-1.17141E-08 8.73933E-09
 -1       824-3.87503E+05-3.77744E+03-7.82655E+03-4.81579E+03 1.01308E-09 1.54064E-08
 -1       825-3.85772E+05 5.08322E+02-3.26920E+03 2.76100E+03 1.73242E-08 1.14208E-08
 -1       826-3.85221E+05-5.70512E+02-1.77107E+03-2.71125E+03 2.27068E-08-2.69463E-09
 -1       827-3.86507E+05 5.39929E+01-1.15563E+03 1.04974E+03 1.06185E-08-2.28284E-08
 -1       828-3.84621E+05-1.41394E+02-6.38915E+02 1.08916E+03-1.85857E-10 4.02188E-09
 -1       829-3.86362E+05 7.13823E+01-1.14789E+03-1.03945E+03 1.60813E-09 7.85008E-11
 -1       830-3.85538E+05-6.21970E+02-1.90220E+03 4.48983E+03-1.05788E-09 2.20894E-10
 -1       831-3.85609E+05 5.49219E+02-3.35432E+03-2.35095E+03-6.31343E-09 5.80212E-09
 -1       832-3.87585E+05-3.94187E+03-8.12886E+03 5.61252E+03-2.07421E-09-7.03767E-09
 -1       833-3.84328E+05 3.39846E+03-1.29924E+04-2.16217E+03-3.23226E-09 3.82079E-09
 -1       834-3.96670E+05-2.49980E+04-3.52510E+04 3.80500E+03-2.72474E-09 3.64162E-09
 -1       835-3.76510E+05 2.15753E+04-5.02088E+04-5.43374E+02 5.95907E-09-4.12911E-09
 -1       836-1.40520E+03 3.69355E+05 2.28396E+04-1.50350E+04-6.95672E-09 1.70421E-08
 -1       837 4.87496E+03 3.76506E+05 1.93312E+04-3.07561E+04-7.60247E-09 1.30497E-08
 -1       838-5.54162E+02 3.71361E+05 1.97032E+04-1.49664E+04-6.18047E-09 5.92468E-09
 -1       839 1.24082E+04 3.82119E+05 3.72796E+04-3.08088E+04-6.65523E-09 2.71993E-08
 -1       840-3.83202E+03 3.63686E+05 5.94506E+04-1.49881E+04-6.27188E-09 1.38008E-08
 -1       856-5.10372E+04 7.97807E+03-2.10239E+04-3.96911E+02 3.91140E-09-1.43373E-08
 -1       857-5.96986E+04-9.37401E+03-1.44727E+04 5.61162E+03 5.52717E-09-7.78437E-09
 -1       858-5.44673E+04 1.11885E+03-5.45517E+03-4.20581E+02 3.50349E-09 1.25829E-09
 -1       859-5.57622E+04-1.31632E+03-3.29190E+03 5.64678E+03-1.65890E-09 4.02156E-09
 -1       860-5.49797E+04 1.56693E+02-1.37952E+03-4.31809E+02 6.01119E-10-8.80033E-09
 -1       861-5.51727E+04-1.87083E+02-7.58684E+02 5.66207E+03-7.11744E-10 9.31323E-10
 -1       862-5.50599E+04 2.12126E+01-3.14927E+02-4.35842E+02-2.61256E-09 1.93311E-08
 -1       863-5.50743E+04-2.16193E+01-1.13702E+02 5.66442E+03-7.93788E-09 2.86024E-08
 -1       864-5.50786E+04-5.00731E+00 4.92170E+01-4.34156E+02-1.54559E-09 9.23987E-09
 -1       865-5.50183E+04 6.04119E+01 2.58854E+02 5.65476E+03-3.73814E-09-1.27891E-08
 -1       866-5.51138E+04-6.08118E+01 5.20508E+02-4.26187E+02 1.45923E-09-1.07136E-08
 -1       867-5.47739E+04 5.02269E+02 1.28040E+03 5.63313E+03-4.74927E-11-9.05095E-09
 -1       868-5.53181E+04-4.38825E+02 2.12750E+03-4.12528E+02-1.19297E-09-2.63333E-09
 -1       869-5.32145E+04 3.65248E+03 5.66445E+03 5.59752E+03 2.12822E-09-2.30912E-08
 -1       870-5.66654E+04-3.12536E+03 8.22050E+03-3.90471E+02-5.68161E-09-6.24004E-09
 -1       871-5.51256E+03-2.13254E+04-1.94715E+04 1.30381E+05-4.77303E-09-7.03949E-09
 -1       872-1.97992E+03-2.58532E+04-8.15495E+03 1.69059E+05-1.04810E-08 9.94987E-10
 -1       873 4.04906E+02-2.36629E+04 5.84849E+02 1.30094E+05-5.49198E-09 8.26822E-09
 -1       874 3.30064E+03-2.12569E+04 9.75954E+03 1.69088E+05-1.06857E-08 2.10694E-08
 -1       875 6.83431E+03-2.59883E+04 2.20202E+04 1.30333E+05-4.00723E-09-1.17197E-08
 -1       876 2.93206E+05 4.93974E+04 1.50559E+04 1.17641E+05 6.97241E-10 2.51111E-09
 -1       877 2.94205E+05 5.25645E+04 8.04045E+03 1.21956E+05 1.23321E-08 6.18206E-09
 -1       878 2.94614E+05 4.77296E+04 3.36856E+03 1.18874E+05-3.44016E-09-1.70089E-08
 -1       879 2.92158E+05 5.05219E+04 1.67843E+03 1.22057E+05 3.34808E-09 1.49244E-08
 -1       880 2.94714E+05 4.77124E+04 7.81810E+02 1.18925E+05-3.64003E-09 4.26155E-09
 -1       881 2.92022E+05 5.04346E+04 4.17549E+02 1.22034E+05-5.14910E-09-1.33022E-09
 -1       882 2.94724E+05 4.77256E+04 2.67216E+02 1.18926E+05 3.26577E-09 1.06640E-08
 -1       883 2.92013E+05 5.04300E+04 2.87416E+02 1.22026E+05-2.62412E-09 2.13599E-08
 -1       884 2.94717E+05 4.77228E+04 4.57347E+02 1.18927E+05 3.81533E-10 7.97797E-09
 -1       885 2.92049E+05 5.04363E+04 9.19605E+02 1.22037E+05-3.90423E-09-2.29334E-08
 -1       886 2.94681E+05 4.76960E+04 1.85347E+03 1.18923E+05-5.52233E-09-1.56326E-08
 -1       887 2.92375E+05 5.06499E+04 4.04866E+03 1.22084E+05 5.35749E-09-9.23831E-09
 -1       888 2.94425E+05 4.77411E+04 8.15818E+03 1.18794E+05-8.59814E-10 1.41335E-09
 -1       889 2.97231E+05 5.57009E+04 1.94884E+04 1.21936E+05 4.34760E-09-1.26829E-08
 -1       890 2.91096E+05 5.16964E+04 3.65013E+04 1.15689E+05 1.39653E-09-7.26686E-09
 -1       891-8.94953E+01-1.62391E+05-1.99364E+03 2.70323E+04-2.02363E-09-2.75190E-09
 -1       892-1.75432E+02-1.62918E+05-2.14042E+03 4.10503E+04 2.55795E-09 2.73403E-08
 -1       893 4.35261E+01-1.62456E+05-3.02974E+03 2.70396E+04-2.27351E-09 1.73332E-08
 -1       894-1.50692E+03-1.64063E+05-6.26986E+03 4.08984E+04 1.56138E-09 1.50499E-08
 -1       895-1.19660E+03-1.61150E+05-1.10409E+04 2.71860E+04 3.11843E-10 2.66209E-09
 -1       956-3.76631E+05-5.42850E+03-1.34016E+04 3.08000E+04 1.62072E-09-4.35648E-10
 -1       957-3.79261E+05-1.91467E+03-6.87885E+03 3.70150E+04-2.88219E-09-1.71804E-08
 -1       958-3.77835E+05-2.39577E+02-3.09982E+03 3.06331E+04-7.42784E-09-7.26050E-09
 -1       959-3.78031E+05-1.35305E+02-1.58283E+03 3.72096E+04-7.16318E-09 2.20839E-08
 -1       960-3.77953E+05-4.42881E+01-7.71875E+02 3.06159E+04 1.75169E-09 1.00190E-08
 -1       961-3.77951E+05-6.26320E+01-4.09288E+02 3.72299E+04 1.54046E-08-2.52164E-08
 -1       962-3.77980E+05-4.55866E+01-2.34408E+02 3.06130E+04 3.89718E-10-2.12224E-08
 -1       963-3.77951E+05-5.85363E+01-1.88329E+02 3.72336E+04 4.95129E-09-1.10267E-08
 -1       964-3.77986E+05-4.23126E+01-2.29214E+02 3.06123E+04-4.74235E-09-5.33623E-09
 -1       965-3.77963E+05-5.56616E+01-3.96604E+02 3.72328E+04-1.74463E-08-2.46077E-08
 -1       966-3.77969E+05-3.45538E+01-7.45303E+02 3.06138E+04 2.90447E-09-3.95903E-09
 -1       967-3.78052E+05-1.19203E+02-1.52864E+03 3.72184E+04 1.45019E-08 2.65209E-09
 -1       968-3.77865E+05-2.16899E+02-2.99255E+03 3.06265E+04 5.78711E-09-4.36989E-09
 -1       969-3.79252E+05-1.83217E+03-6.64338E+03 3.70697E+04 2.94312E-09-1.92679E-09
 -1       970-3.76710E+05-5.22430E+03-1.29417E+04 3.07539E+04-1.92267E-09 1.16770E-08
 -1       971-3.44652E+05-1.72197E+03-9.28099E+03 1.53214E+04 3.99177E-09 8.70084E-09
 -1       972-3.46887E+05-1.26770E+03-5.05434E+03 2.11893E+04-9.54969E-10 8.76071E-09
 -1       973-3.45686E+05-6.17534E+01-2.26389E+03 1.52007E+04 3.45608E-09-9.63973E-09
 -1       974-3.45821E+05-8.07535E+01-1.17354E+03 2.13258E+04 3.94721E-09-3.09001E-09
 -1       975-3.45768E+05-1.70564E+01-5.87093E+02 1.51884E+04 1.44792E-09-1.64781E-08
 -1       976-3.45760E+05-3.10985E+01-3.39600E+02 2.13416E+04-2.08934E-09-4.67242E-09
 -1       977-3.45785E+05-1.63357E+01-2.48058E+02 1.51850E+04-4.95152E-09-1.91566E-08
 -1       978-3.45765E+05-2.49099E+01-2.92442E+02 2.13464E+04-3.99530E-09 1.00512E-08
 -1       979-3.45784E+05-7.88553E+00-4.71716E+02 1.51836E+04-5.95099E-09 2.56966E-09
 -1       980-3.45800E+05-2.18591E+01-9.11986E+02 2.13474E+04-7.02806E-09 1.52226E-08
 -1       981-3.45755E+05 1.49155E+01-1.76691E+03 1.51841E+04-5.94582E-10 1.59173E-08
 -1       982-3.46043E+05-1.52400E+02-3.65251E+03 2.13408E+04 3.73529E-09 8.52209E-09
 -1       983-3.45533E+05-9.82023E+01-7.09701E+03 1.51901E+04 1.59253E-09-6.56496E-09
 -1       984-3.49456E+05-3.85893E+03-1.58936E+04 2.12555E+04-9.62245E-10 6.37726E-09
 -1       985-3.42319E+05-5.29133E+03-2.91855E+04 1.52612E+04-5.62659E-09-1.21690E-09
 -3
    1PSTEP                        33          17           1          
  100CL  117 6.62325E-01         409                     0   17           1
 -4  DISP        4    1
 -5  D1          1    2    1    0
 -5  D2          1    2    2    0
 -5  D3          1    2    3    0
 -5  ALL         1    2    0    0    1ALL
 -1         1 2.66337E-03 0.00000E+00 0.00000E+00
 -1         2 1.41072E-03 6.98991E-27-5.29396E-23
 -1         3 3.41768E-04-5.66421E-28 0.00000E+00
 -1         5 1.76055E-04-8.47938E-27 2.48154E-24
 -1         8 2.65144E-03-4.26038E-07 0.00000E+00
 -1         9 2.64428E-03-1.60735E-04 0.00000E+00
 -1        10 3.09860E-04-3.45013E-06-6.61744E-24
 -1        12 1.77920E-04 8.06940E-07 1.65436E-24
 -1        15 2.63762E-03-4.53327E-07-2.06795E-25
 -1        16 2.69935E-03-1.62394E-04 0.00000E+00
 -1        17 2.10822E-04-7.85563E-06 0.00000E+00
 -1        18 1.81920E-04 3.46400E-05 0.00000E+00
 -1        19 1.83515E-04 1.60745E-06 0.00000E+00
 -1        20 1.83653E-04-1.01600E-05 0.00000E+00
 -1        21 1.82757E-04-2.60382E-05 0.00000E+00
 -1        24 3.06024E-05-1.20754E-05 0.00000E+00
 -1        25 1.92867E-04 3.48634E-05 0.00000E+00
 -1        26 1.93479E-04 2.22631E-06 0.00000E+00
 -1        27 1.91292E-04-1.37224E-05 0.00000E+00
 -1        28 1.90985E-04-2.66598E-05 0.00000E+00
 -1        32 0.00000E+00 0.00000E+00 0.00000E+00
 -1        33 2.02492E-04 2.98068E-06 0.00000E+00
 -1        34 2.00371E-04-1.37790E-05 0.00000E+00
 -1        35 1.98438E-04-2.70024E-05 0.00000E+00
 -1        51 2.66257E-03-8.76938E-08 0.00000E+00
 -1        52 2.66112E-03-1.57457E-07-3.30872E-24
 -1        53 2.65913E-03-2.23945E-07 0.00000E+00
 -1        54 2.65677E-03-2.89385E-07 0.00000E+00
 -1        55 2.65415E-03-3.55520E-07 1.65436E-24
 -1        56 2.65708E-03 5.11858E-06 5.29396E-23
 -1        57 2.64601E-03 2.21135E-05 0.00000E+00
 -1        58 2.63177E-03 4.71076E-05-1.05879E-22
 -1        59 2.61614E-03 7.54364E-05-5.29396E-23
 -1        60 2.60127E-03 1.01875E-04-1.05879E-22
 -1        61 2.58920E-03 1.21350E-04 0.00000E+00
 -1        62 2.58136E-03 1.30028E-04 0.00000E+00
 -1        63 2.57869E-03 1.25032E-04-5.29396E-23
 -1        64 2.58113E-03 1.05958E-04 1.05879E-22
 -1        65 2.58818E-03 7.37001E-05 0.00000E+00
 -1        66 2.59856E-03 3.15938E-05 0.00000E+00
 -1        67 2.61077E-03-1.60945E-05-5.29396E-23
 -1        68 2.62307E-03-6.40490E-05-1.05879E-22
 -1        69 2.63373E-03-1.06922E-04 0.00000E+00
 -1        70 2.64119E-03-1.40328E-04 5.29396E-23
 -1        86 1.48820E-03-5.23292E-06 0.00000E+00
 -1        87 1.71319E-03-3.22164E-05 1.32349E-23
 -1        88 2.01561E-03-7.83538E-05-2.64698E-23
 -1        89 2.32169E-03-1.25626E-04 1.32349E-23
 -1        90 2.55557E-03-1.54547E-04-5.29396E-23
 -1       121 3.40872E-04-5.57334E-07 0.00000E+00
 -1       122 3.38187E-04-1.11775E-06 6.61744E-24
 -1       123 3.33723E-04-1.68428E-06 0.00000E+00
 -1       124 3.27498E-04-2.25994E-06 0.00000E+00
 -1       125 3.19533E-04-2.84739E-06-1.32349E-23
 -1       191 1.76107E-04 1.34555E-07-1.65436E-24
 -1       192 1.76262E-04 2.69098E-07 1.24077E-24
 -1       193 1.76521E-04 4.03621E-07 8.27181E-25
 -1       194 1.76884E-04 5.38111E-07 0.00000E+00
 -1       195 1.77350E-04 6.72555E-07-8.27181E-25
 -1       251 2.65109E-03 2.35103E-06 6.61744E-24
 -1       252 2.65073E-03 5.97284E-06 0.00000E+00
 -1       253 2.65037E-03 9.22813E-06 0.00000E+00
 -1       254 2.65001E-03 1.09109E-05 0.00000E+00
 -1       255 2.64966E-03 1.00917E-05 0.00000E+00
 -1       256 2.64929E-03 5.87787E-06-6.61744E-24
 -1       257 2.64891E-03-2.03103E-06 1.32349E-23
 -1       258 2.64848E-03-1.38816E-05-6.61744E-24
 -1       259 2.64801E-03-2.92325E-05-1.32349E-23
 -1       260 2.64750E-03-4.75913E-05-6.61744E-24
 -1       261 2.64694E-03-6.79401E-05-1.32349E-23
 -1       262 2.64637E-03-8.92327E-05 0.00000E+00
 -1       263 2.64580E-03-1.10259E-04-1.32349E-23
 -1       264 2.64525E-03-1.29811E-04 0.00000E+00
 -1       265 2.64475E-03-1.46941E-04 0.00000E+00
 -1       266 2.64913E-03-4.36592E-07 0.00000E+00
 -1       267 2.64683E-03-4.40408E-07-8.27181E-25
 -1       268 2.64453E-03-4.44651E-07 0.00000E+00
 -1       269 2.64223E-03-4.47630E-07 2.06795E-25
 -1       270 2.63993E-03-4.50579E-07 0.00000E+00
 -1       271 2.65038E-03 4.92141E-07 1.32349E-23
 -1       272 2.65014E-03-8.14356E-07 0.00000E+00
 -1       273 2.65068E-03-4.22617E-06 0.00000E+00
 -1       274 2.65195E-03-9.61447E-06 1.32349E-23
 -1       275 2.65389E-03-1.68311E-05 2.64698E-23
 -1       276 2.65645E-03-2.57139E-05 0.00000E+00
 -1       277 2.65954E-03-3.60861E-05-2.64698E-23
 -1       278 2.66311E-03-4.77585E-05 0.00000E+00
 -1       279 2.66708E-03-6.05306E-05 0.00000E+00
 -1       280 2.67137E-03-7.41930E-05 0.00000E+00
 -1       281 2.67590E-03-8.85280E-05 2.64698E-23
 -1       282 2.68059E-03-1.03313E-04 0.00000E+00
 -1       283 2.68536E-03-1.18321E-04 0.00000E+00
 -1       284 2.69014E-03-1.33323E-04-6.61744E-24
 -1       285 2.69482E-03-1.48090E-04 0.00000E+00
 -1       301 2.65429E-03-1.61042E-04 0.00000E+00
 -1       302 2.66277E-03-1.61307E-04 0.00000E+00
 -1       303 2.67061E-03-1.61564E-04 0.00000E+00
 -1       304 2.67872E-03-1.61821E-04 0.00000E+00
 -1       305 2.68800E-03-1.62091E-04 0.00000E+00
 -1       306 2.68159E-03-3.12405E-04 1.05879E-22
 -1       307 2.74558E-03-7.22168E-04 0.00000E+00
 -1       308 2.79314E-03-1.32290E-03 0.00000E+00
 -1       309 2.81805E-03-2.01970E-03-5.29396E-23
 -1       310 2.84991E-03-2.68777E-03-1.05879E-22
 -1       311 2.90936E-03-3.20485E-03-5.29396E-23
 -1       312 2.96764E-03-3.49054E-03 1.05879E-22
 -1       313 2.96509E-03-3.50622E-03 0.00000E+00
 -1       314 2.82886E-03-3.26305E-03 0.00000E+00
 -1       315 2.51796E-03-2.82407E-03-5.29396E-23
 -1       316 2.04984E-03-2.26527E-03-1.05879E-22
 -1       317 1.48898E-03-1.65592E-03-5.29396E-23
 -1       318 9.48133E-04-1.05716E-03 0.00000E+00
 -1       319 5.34149E-04-5.34149E-04 5.29396E-23
 -1       320 2.90702E-04-1.60421E-04-1.05879E-22
 -1       336 2.98293E-04-4.11628E-06 0.00000E+00
 -1       337 2.84655E-04-4.80801E-06 6.61744E-24
 -1       338 2.69011E-04-5.52750E-06 0.00000E+00
 -1       339 2.51433E-04-6.27553E-06-6.61744E-24
 -1       340 2.32006E-04-7.05652E-06 1.32349E-23
 -1       406 1.78593E-04 9.41247E-07 2.48154E-24
 -1       407 1.79371E-04 1.07544E-06 4.13590E-25
 -1       408 1.80252E-04 1.20947E-06 2.48154E-24
 -1       409 1.81236E-04 1.34315E-06 8.27181E-25
 -1       410 1.82325E-04 1.47623E-06 2.89513E-24
 -1       521 2.73730E-03-3.23317E-04 0.00000E+00
 -1       522 2.79963E-03-7.52908E-04 0.00000E+00
 -1       523 2.84102E-03-1.38071E-03-1.05879E-22
 -1       524 2.85709E-03-2.10526E-03 0.00000E+00
 -1       525 2.88133E-03-2.79910E-03 0.00000E+00
 -1       526 2.93731E-03-3.33759E-03 0.00000E+00
 -1       527 2.99514E-03-3.63370E-03-2.11758E-22
 -1       528 2.99043E-03-3.64785E-03-5.29396E-23
 -1       529 2.84280E-03-3.39110E-03 0.00000E+00
 -1       530 2.50906E-03-2.93413E-03 0.00000E+00
 -1       531 2.00735E-03-2.35655E-03-1.05879E-22
 -1       532 1.40833E-03-1.73028E-03 5.29396E-23
 -1       533 8.29895E-04-1.11398E-03-1.05879E-22
 -1       534 3.83780E-04-5.70584E-04 5.29396E-23
 -1       535 1.19767E-04-1.77798E-04 0.00000E+00
 -1       536 2.10145E-04 2.74469E-05 0.00000E+00
 -1       537 2.08242E-04 8.92463E-05 1.65436E-24
 -1       538 2.05194E-04 1.68335E-04-1.65436E-24
 -1       539 2.01501E-04 2.55491E-04 0.00000E+00
 -1       540 1.98189E-04 3.37849E-04 0.00000E+00
 -1       541 1.96129E-04 4.02544E-04 0.00000E+00
 -1       542 1.95251E-04 4.43434E-04-1.65436E-24
 -1       543 1.95119E-04 4.54430E-04-4.13590E-25
 -1       544 1.94890E-04 4.36204E-04 0.00000E+00
 -1       545 1.93771E-04 3.89530E-04 0.00000E+00
 -1       546 1.91551E-04 3.22199E-04 0.00000E+00
 -1       547 1.88418E-04 2.42042E-04 0.00000E+00
 -1       548 1.85313E-04 1.62264E-04 0.00000E+00
 -1       549 1.83165E-04 9.60740E-05-2.06795E-25
 -1       550 1.82120E-04 5.10278E-05 0.00000E+00
 -1       551 1.85692E-04-8.42563E-06 0.00000E+00
 -1       552 1.57333E-04-9.07529E-06 0.00000E+00
 -1       553 1.26686E-04-9.78659E-06-1.32349E-23
 -1       554 9.47098E-05-1.05385E-05-6.61744E-24
 -1       555 6.23639E-05-1.13037E-05-1.32349E-23
 -1       556 2.03189E-04 1.16512E-05-5.29396E-23
 -1       557 1.97016E-04 2.74841E-05 0.00000E+00
 -1       558 1.92171E-04 3.99282E-05 0.00000E+00
 -1       559 1.88521E-04 4.92913E-05 0.00000E+00
 -1       560 1.85938E-04 5.58816E-05 0.00000E+00
 -1       561 1.84295E-04 6.00097E-05 0.00000E+00
 -1       562 1.83467E-04 6.19877E-05 0.00000E+00
 -1       563 1.83332E-04 6.21284E-05 0.00000E+00
 -1       564 1.83768E-04 6.07456E-05 0.00000E+00
 -1       565 1.84656E-04 5.81536E-05 0.00000E+00
 -1       566 1.85877E-04 5.46675E-05 0.00000E+00
 -1       567 1.87313E-04 5.06027E-05 0.00000E+00
 -1       568 1.88847E-04 4.62748E-05 1.65436E-24
 -1       569 1.90362E-04 4.19992E-05-8.27181E-25
 -1       570 1.91740E-04 3.80917E-05 0.00000E+00
 -1       571 1.82017E-04 3.24906E-05 1.65436E-24
 -1       572 1.82116E-04 3.02769E-05-1.24077E-24
 -1       573 1.82215E-04 2.80144E-05-3.30872E-24
 -1       574 1.82315E-04 2.57195E-05 0.00000E+00
 -1       575 1.82414E-04 2.34084E-05 0.00000E+00
 -1       576 1.82514E-04 2.10976E-05-1.65436E-24
 -1       577 1.82613E-04 1.88033E-05 0.00000E+00
 -1       578 1.82713E-04 1.65422E-05 0.00000E+00
 -1       579 1.82813E-04 1.43304E-05 0.00000E+00
 -1       580 1.82913E-04 1.21846E-05 6.61744E-24
 -1       581 1.83013E-04 1.01210E-05 0.00000E+00
 -1       582 1.83113E-04 8.15614E-06 0.00000E+00
 -1       583 1.83213E-04 6.30633E-06-6.61744E-24
 -1       584 1.83314E-04 4.58781E-06 0.00000E+00
 -1       585 1.83415E-04 3.01662E-06 6.61744E-24
 -1       586 1.83704E-04 3.46794E-05-1.65436E-24
 -1       587 1.85448E-04 3.47182E-05 0.00000E+00
 -1       588 1.87194E-04 3.47567E-05 0.00000E+00
 -1       589 1.88984E-04 3.47944E-05 0.00000E+00
 -1       590 1.90862E-04 3.48309E-05 0.00000E+00
 -1       591 1.82658E-04 3.25846E-05 0.00000E+00
 -1       592 1.83398E-04 3.05113E-05 4.13590E-25
 -1       593 1.84143E-04 2.84259E-05-8.27181E-25
 -1       594 1.84890E-04 2.63326E-05-4.13590E-25
 -1       595 1.85638E-04 2.42360E-05 8.27181E-25
 -1       596 1.86385E-04 2.21406E-05-4.13590E-25
 -1       597 1.87130E-04 2.00508E-05 0.00000E+00
 -1       598 1.87872E-04 1.79710E-05-4.13590E-25
 -1       599 1.88608E-04 1.59056E-05 8.27181E-25
 -1       600 1.89337E-04 1.38591E-05-4.13590E-25
 -1       601 1.90058E-04 1.18360E-05 0.00000E+00
 -1       602 1.90768E-04 9.84051E-06 0.00000E+00
 -1       603 1.91467E-04 7.87724E-06 8.27181E-25
 -1       604 1.92152E-04 5.95068E-06 7.75482E-26
 -1       605 1.92822E-04 4.06517E-06 0.00000E+00
 -1       606 1.83528E-04 4.30307E-07 0.00000E+00
 -1       607 1.83538E-04-6.61958E-07 0.00000E+00
 -1       608 1.83547E-04-1.67432E-06 0.00000E+00
 -1       609 1.83555E-04-2.61241E-06 1.65436E-24
 -1       610 1.83563E-04-3.48189E-06-3.30872E-24
 -1       611 1.83571E-04-4.28850E-06 0.00000E+00
 -1       612 1.83580E-04-5.03796E-06 0.00000E+00
 -1       613 1.83588E-04-5.73603E-06 0.00000E+00
 -1       614 1.83596E-04-6.38846E-06 0.00000E+00
 -1       615 1.83604E-04-7.00098E-06 0.00000E+00
 -1       616 1.83613E-04-7.57935E-06 0.00000E+00
 -1       617 1.83621E-04-8.12932E-06 4.13590E-25
 -1       618 1.83629E-04-8.65661E-06 0.00000E+00
 -1       619 1.83638E-04-9.16700E-06 2.06795E-25
 -1       620 1.83646E-04-9.66622E-06 0.00000E+00
 -1       621 1.84887E-04 1.71117E-06 0.00000E+00
 -1       622 1.86419E-04 1.81513E-06-8.27181E-25
 -1       623 1.88078E-04 1.91887E-06 1.65436E-24
 -1       624 1.89830E-04 2.02227E-06 0.00000E+00
 -1       625 1.91642E-04 2.12539E-06 3.30872E-24
 -1       626 1.84069E-04 4.66565E-07-3.30872E-24
 -1       627 1.84600E-04-6.12210E-07 0.00000E+00
 -1       628 1.85111E-04-1.63669E-06 6.61744E-24
 -1       629 1.85605E-04-2.61498E-06 0.00000E+00
 -1       630 1.86085E-04-3.55524E-06 0.00000E+00
 -1       631 1.86554E-04-4.46563E-06 1.65436E-24
 -1       632 1.87014E-04-5.35429E-06 0.00000E+00
 -1       633 1.87470E-04-6.22941E-06 0.00000E+00
 -1       634 1.87923E-04-7.09914E-06 3.30872E-24
 -1       635 1.88378E-04-7.97163E-06 1.65436E-24
 -1       636 1.88836E-04-8.85507E-06 0.00000E+00
 -1       637 1.89302E-04-9.75761E-06 0.00000E+00
 -1       638 1.89778E-04-1.06874E-05-1.65436E-24
 -1       639 1.90266E-04-1.16527E-05 0.00000E+00
 -1       640 1.90771E-04-1.26615E-05 0.00000E+00
 -1       656 1.84379E-04-1.07390E-05 0.00000E+00
 -1       657 1.85522E-04-1.13415E-05 0.00000E+00
 -1       658 1.86946E-04-1.19427E-05 1.32349E-23
 -1       659 1.88505E-04-1.25435E-05-6.61744E-24
 -1       660 1.90014E-04-1.31461E-05 0.00000E+00
 -1       661 1.83924E-04-1.06992E-05-8.27181E-25
 -1       662 1.84234E-04-1.13308E-05 8.27181E-25
 -1       663 1.84575E-04-1.20495E-05 0.00000E+00
 -1       664 1.84947E-04-1.28488E-05 0.00000E+00
 -1       665 1.85348E-04-1.37226E-05 0.00000E+00
 -1       666 1.85774E-04-1.46651E-05 0.00000E+00
 -1       667 1.86223E-04-1.56706E-05 1.65436E-24
 -1       668 1.86694E-04-1.67333E-05-8.27181E-25
 -1       669 1.87184E-04-1.78477E-05 1.65436E-24
 -1       670 1.87692E-04-1.90085E-05 0.00000E+00
 -1       671 1.88215E-04-2.02104E-05-1.65436E-24
 -1       672 1.88751E-04-2.14482E-05 0.00000E+00
 -1       673 1.89298E-04-2.27169E-05 0.00000E+00
 -1       674 1.89855E-04-2.40115E-05 0.00000E+00
 -1       675 1.90419E-04-2.53269E-05 0.00000E+00
 -1       676 1.84133E-04-2.61424E-05 0.00000E+00
 -1       677 1.85509E-04-2.62465E-05 0.00000E+00
 -1       678 1.86882E-04-2.63507E-05 0.00000E+00
 -1       679 1.88253E-04-2.64545E-05 0.00000E+00
 -1       680 1.89621E-04-2.65582E-05 1.65436E-24
 -1       771 1.87025E-05 1.45278E-05 0.00000E+00
 -1       772 8.68947E-06 3.63787E-05-2.64698E-23
 -1       773 4.73058E-07 5.37063E-05 5.29396E-23
 -1       774-6.07037E-06 6.67675E-05-2.64698E-23
 -1       775-1.10618E-05 7.58293E-05 5.29396E-23
 -1       776-1.46271E-05 8.11754E-05 0.00000E+00
 -1       777-1.68918E-05 8.30997E-05 0.00000E+00
 -1       778-1.79843E-05 8.19097E-05 2.64698E-23
 -1       779-1.80321E-05 7.79213E-05 0.00000E+00
 -1       780-1.71648E-05 7.14620E-05-2.64698E-23
 -1       781-1.55112E-05 6.28657E-05 0.00000E+00
 -1       782-1.32015E-05 5.24755E-05-2.64698E-23
 -1       783-1.03651E-05 4.06387E-05 0.00000E+00
 -1       784-7.13270E-06 2.77090E-05 2.64698E-23
 -1       785-3.63384E-06 1.40431E-05 0.00000E+00
 -1       786 1.92901E-04 3.25930E-05 0.00000E+00
 -1       787 1.92939E-04 3.03723E-05-2.06795E-25
 -1       788 1.92976E-04 2.81936E-05 0.00000E+00
 -1       789 1.93014E-04 2.60492E-05 0.00000E+00
 -1       790 1.93052E-04 2.39343E-05 0.00000E+00
 -1       791 1.93091E-04 2.18445E-05 0.00000E+00
 -1       792 1.93129E-04 1.97774E-05 0.00000E+00
 -1       793 1.93168E-04 1.77310E-05 8.27181E-25
 -1       794 1.93207E-04 1.57048E-05-1.65436E-24
 -1       795 1.93245E-04 1.36987E-05-8.27181E-25
 -1       796 1.93284E-04 1.17141E-05-1.65436E-24
 -1       797 1.93323E-04 9.75274E-06-8.27181E-25
 -1       798 1.93361E-04 7.81833E-06 1.65436E-24
 -1       799 1.93401E-04 5.91469E-06-8.27181E-25
 -1       800 1.93440E-04 4.04844E-06 1.65436E-24
 -1       801 1.46936E-04 3.13461E-05-2.64698E-23
 -1       802 8.07050E-06 1.95651E-05 0.00000E+00
 -1       803-1.10344E-04 9.91384E-06-5.29396E-23
 -1       804-9.73924E-05 6.90509E-06 0.00000E+00
 -1       805-3.20725E-05 2.70189E-06 0.00000E+00
 -1       806 1.93602E-04 3.25248E-05 3.30872E-24
 -1       807 1.94323E-04 3.02132E-05 1.65436E-24
 -1       808 1.95032E-04 2.79336E-05 0.00000E+00
 -1       809 1.95727E-04 2.56901E-05 0.00000E+00
 -1       810 1.96406E-04 2.34865E-05 0.00000E+00
 -1       811 1.97069E-04 2.13269E-05-1.65436E-24
 -1       812 1.97715E-04 1.92148E-05 3.30872E-24
 -1       813 1.98341E-04 1.71544E-05 0.00000E+00
 -1       814 1.98946E-04 1.51492E-05-3.30872E-24
 -1       815 1.99530E-04 1.32031E-05 8.27181E-25
 -1       816 2.00090E-04 1.13200E-05 3.30872E-24
 -1       817 2.00625E-04 9.50362E-06-8.27181E-25
 -1       818 2.01134E-04 7.75773E-06 0.00000E+00
 -1       819 2.01615E-04 6.08613E-06-8.27181E-25
 -1       820 2.02068E-04 4.49255E-06 0.00000E+00
 -1       821 1.93351E-04-1.12766E-07-1.65436E-24
 -1       822 1.93211E-04-3.52462E-06 1.65436E-24
 -1       823 1.93070E-04-7.60495E-06-3.30872E-24
 -1       824 1.92926E-04-1.19453E-05 0.00000E+00
 -1       825 1.92783E-04-1.60671E-05-3.30872E-24
 -1       826 1.92643E-04-1.94933E-05-1.65436E-24
 -1       827 1.92505E-04-2.19354E-05 3.30872E-24
 -1       828 1.92369E-04-2.31110E-05 0.00000E+00
 -1       829 1.92234E-04-2.30815E-05 0.00000E+00
 -1       830 1.92098E-04-2.19152E-05-1.65436E-24
 -1       831 1.91961E-04-1.99892E-05-3.30872E-24
 -1       832 1.91824E-04-1.76851E-05-1.65436E-24
 -1       833 1.91687E-04-1.54871E-05 0.00000E+00
 -1       834 1.91552E-04-1.38789E-05-1.65436E-24
 -1       835 1.91418E-04-1.31845E-05 8.27181E-25
 -1       836 1.95191E-04 2.35141E-06 0.00000E+00
 -1       837 1.96780E-04 2.47965E-06 0.00000E+00
 -1       838 1.98275E-04 2.60783E-06 3.30872E-24
 -1       839 1.99706E-04 2.73532E-06 0.00000E+00
 -1       840 2.01101E-04 2.86264E-06 0.00000E+00
 -1       856 1.91277E-04-1.48057E-05 0.00000E+00
 -1       857 1.91258E-04-1.57536E-05 0.00000E+00
 -1       858 1.91239E-04-1.65870E-05 2.06795E-25
 -1       859 1.91220E-04-1.73271E-05-2.06795E-25
 -1       860 1.91201E-04-1.79951E-05 0.00000E+00
 -1       861 1.91182E-04-1.86121E-05 2.06795E-25
 -1       862 1.91162E-04-1.91995E-05 0.00000E+00
 -1       863 1.91143E-04-1.97785E-05 2.06795E-25
 -1       864 1.91124E-04-2.03705E-05 0.00000E+00
 -1       865 1.91105E-04-2.09967E-05 4.13590E-25
 -1       866 1.91085E-04-2.16784E-05-8.27181E-25
 -1       867 1.91066E-04-2.24368E-05 0.00000E+00
 -1       868 1.91046E-04-2.32931E-05-8.27181E-25
 -1       869 1.91026E-04-2.42684E-05-4.13590E-25
 -1       870 1.91006E-04-2.53837E-05 8.27181E-25
 -1       871 1.92664E-04-1.37273E-05 0.00000E+00
 -1       872 1.94183E-04-1.37357E-05 0.00000E+00
 -1       873 1.95782E-04-1.37449E-05 0.00000E+00
 -1       874 1.97392E-04-1.37547E-05-1.80946E-25
 -1       875 1.98944E-04-1.37651E-05-1.65436E-24
 -1       876 1.91826E-04-1.47911E-05 0.00000E+00
 -1       877 1.92337E-04-1.57932E-05 0.00000E+00
 -1       878 1.92827E-04-1.67365E-05 0.00000E+00
 -1       879 1.93297E-04-1.76284E-05 1.65436E-24
 -1       880 1.93752E-04-1.84764E-05 3.30872E-24
 -1       881 1.94192E-04-1.92878E-05 0.00000E+00
 -1       882 1.94622E-04-2.00699E-05-3.30872E-24
 -1       883 1.95044E-04-2.08300E-05 0.00000E+00
 -1       884 1.95460E-04-2.15755E-05 0.00000E+00
 -1       885 1.95873E-04-2.23137E-05 0.00000E+00
 -1       886 1.96286E-04-2.30519E-05 3.30872E-24
 -1       887 1.96702E-04-2.37975E-05 0.00000E+00
 -1       888 1.97123E-04-2.45577E-05 0.00000E+00
 -1       889 1.97552E-04-2.53401E-05-1.65436E-24
 -1       890 1.97991E-04-2.61519E-05 0.00000E+00
 -1       891 1.92369E-04-2.67174E-05-1.65436E-24
 -1       892 1.93730E-04-2.67751E-05 0.00000E+00
 -1       893 1.95042E-04-2.68327E-05 0.00000E+00
 -1       894 1.96280E-04-2.68901E-05 0.00000E+00
 -1       895 1.97421E-04-2.69472E-05 8.27181E-25
 -1       956 2.02361E-04 1.64307E-06-1.65436E-24
 -1       957 2.02229E-04 3.96941E-07 8.27181E-25
 -1       958 2.02096E-04-7.68489E-07 0.00000E+00
 -1       959 2.01963E-04-1.86459E-06 1.65436E-24
 -1       960 2.01830E-04-2.90277E-06-3.30872E-24
 -1       961 2.01697E-04-3.89448E-06 0.00000E+00
 -1       962 2.01564E-04-4.85119E-06 3.30872E-24
 -1       963 2.01431E-04-5.78438E-06-1.65436E-24
 -1       964 2.01298E-04-6.70551E-06 0.00000E+00
 -1       965 2.01165E-04-7.62606E-06 0.00000E+00
 -1       966 2.01032E-04-8.55753E-06 0.00000E+00
 -1       967 2.00899E-04-9.51138E-06 0.00000E+00
 -1       968 2.00767E-04-1.04991E-05 6.61744E-24
 -1       969 2.00634E-04-1.15320E-05 0.00000E+00
 -1       970 2.00501E-04-1.26217E-05 3.30872E-24
 -1       971 2.00251E-04-1.49364E-05-3.30872E-24
 -1       972 2.00130E-04-1.59994E-05 0.00000E+00
 -1       973 2.00008E-04-1.69785E-05-3.30872E-24
 -1       974 1.99887E-04-1.78844E-05 1.65436E-24
 -1       975 1.99765E-04-1.87281E-05 0.00000E+00
 -1       976 1.99644E-04-1.95202E-05-1.65436E-24
 -1       977 1.99522E-04-2.02718E-05 3.30872E-24
 -1       978 1.99401E-04-2.09936E-05 0.00000E+00
 -1       979 1.99279E-04-2.16965E-05 3.30872E-24
 -1       980 1.99158E-04-2.23915E-05 0.00000E+00
 -1       981 1.99037E-04-2.30893E-05 3.30872E-24
 -1       982 1.98915E-04-2.38010E-05-1.65436E-24
 -1       983 1.98794E-04-2.45373E-05-3.30872E-24
 -1       984 1.98674E-04-2.53091E-05 0.00000E+00
 -1       985 1.98553E-04-2.61273E-05 0.00000E+00
 -3
    1PSTEP                        34          17           1          
  100CL  117 6.62325E-01         409                     0   17           1
 -4  STRESS      6    1
 -5  SXX         1    4    1    1
 -5  SYY         1    4    2    2
 -5  SZZ         1    4    3    3
 -5  SXY         1    4    1    2
 -5  SYZ         1    4    2    3
 -5  SZX         1    4    3    1
 -1         1-5.24059E+06-1.68027E+06-1.12311E+06-1.48667E+06-5.52973E-10 1.53697E-07
 -1         2 1.18969E+06 1.75225E+07 4.19480E+06 5.26180E+06 2.16532E-08-1.62167E-07
 -1         3-1.48350E+03-1.58261E+06 4.10885E+02-2.24265E+03-6.47304E-10 1.43191E-08
 -1         5-7.67497E+01 3.85317E+05 9.89841E+00-1.34866E+00-5.49566E-10-2.73958E-08
 -1         8-6.22770E+05-2.16833E+05-7.29350E+04-2.58563E+05 1.46429E-10 6.24423E-08
 -1         9 1.13240E+07 3.04278E+06 2.56598E+06-5.04881E+05 5.37839E-09-5.96745E-08
 -1        10-2.30730E+03-1.64921E+06-3.97557E+03-1.51704E+04-1.36497E-08-7.15411E-08
 -1        12-7.28683E+01 3.85338E+05 3.25532E+02-9.19583E+00-7.12124E-10 3.67436E-10
 -1        15 9.95044E+02 5.46827E+02 3.21645E+03 9.90690E-01-1.28438E-10-1.96178E-07
 -1        16 2.24775E+07-2.87494E+05 3.07393E+06-2.12849E+06 1.08848E-08-3.66320E-08
 -1        17 8.27706E+06 6.15577E+06 2.23684E+06 5.87634E+06 1.72353E-08 1.90805E-08
 -1        18 2.23557E+05 5.38440E+04 2.44756E+04-1.07428E+05 1.37929E-08 4.53156E-09
 -1        19 1.22507E+05 1.41381E+05-9.51474E+02 2.21033E+04 1.61999E-09-5.54428E-10
 -1        20-8.27399E+04-5.74481E+05-1.28956E+05 2.48149E+04-1.85234E-09 9.56182E-10
 -1        21-4.54558E+01-2.95727E+05-9.22304E+02 2.79098E+02 1.33289E-08 1.17689E-08
 -1        24 1.36800E+07 1.17843E+07 3.79521E+06 1.09184E+07-1.66367E-07-5.35510E-08
 -1        25 1.20725E+05 2.70305E+05 1.00400E+05-6.49796E+05-2.94303E-09 3.40751E-09
 -1        26-5.74916E+04 9.17907E+04-2.52103E+04 2.00064E+03 3.09228E-11-1.07377E-09
 -1        27-7.50732E+04-3.10192E+05-1.13313E+05 6.90274E+04 3.41349E-09-8.47558E-09
 -1        28 2.22089E+04-8.53529E+04 1.68870E+04 2.04525E+04-7.27835E-09 7.54368E-09
 -1        32-1.67961E+06-3.17949E+06-1.97762E+05 4.70964E+05-4.19022E-08-1.13596E-08
 -1        33-1.78919E+05 9.31423E+04 3.24408E+04-3.77173E+04-2.94267E-09-1.33899E-08
 -1        34-2.23770E+05-2.50838E+04 6.94590E+02 7.58443E+04-4.62200E-09-1.29315E-08
 -1        35-2.29009E+04-3.38488E+04-1.34887E+03 5.14479E+04-4.16518E-09-7.26989E-09
 -1        51 5.91613E+04-1.80110E+05 1.25469E+05-4.74080E+05-5.82077E-11 2.33136E-07
 -1        52 2.02062E+04-1.58426E+05 6.60967E+04-5.52868E+05 1.45519E-11 2.56085E-07
 -1        53 4.33726E+03-1.73834E+05 3.48459E+04-4.72426E+05 4.78394E-10 1.13956E-07
 -1        54 8.05281E+03-1.69668E+05 2.94866E+04-5.54511E+05 2.69210E-10-5.36784E-09
 -1        55 1.74637E+04-1.77123E+05 3.68697E+04-4.72297E+05 4.51109E-10 1.68106E-07
 -1        56-9.58541E+06-1.23007E+06-8.60931E+05-3.90812E+06-8.49832E-09 5.91390E-08
 -1        57-1.06271E+07-1.13447E+06-5.53328E+05-2.96941E+06 5.54064E-09-9.63773E-08
 -1        58-9.55613E+06-1.62469E+06-1.96139E+05-4.01212E+06 2.52476E-09 2.42457E-07
 -1        59-1.06132E+07-7.00955E+05-1.12390E+05-2.93358E+06-1.54769E-08 1.35169E-07
 -1        60-9.62722E+06-1.63327E+06-5.08367E+04-3.97090E+06 7.61065E-09-2.61462E-08
 -1        61-1.02371E+07-9.00112E+05-7.69996E+03-3.13779E+06-1.59962E-08-2.30744E-07
 -1        62-9.87234E+06-1.46510E+06-3.95501E+04-3.76253E+06 2.26428E-08 5.67306E-08
 -1        63-9.71022E+06-1.34519E+06 1.72134E+04-3.60894E+06 4.13602E-08-7.20320E-09
 -1        64-1.01107E+07-1.21873E+06-3.61374E+04-3.47115E+06-3.70783E-08-2.01120E-07
 -1        65-9.41333E+06-1.74388E+06-8.03926E+03-4.15565E+06 1.35624E-08-1.25011E-07
 -1        66-1.02229E+07-1.02930E+06-4.34565E+04-3.25563E+06 1.83718E-09 6.54982E-08
 -1        67-9.37204E+06-1.93702E+06-1.01398E+05-4.40612E+06-1.46792E-09-1.06011E-07
 -1        68-1.02046E+07-9.89952E+05-1.79211E+05-3.25483E+06-3.55914E-08-8.98508E-08
 -1        69-9.59964E+06-2.08315E+06-4.95618E+05-4.12341E+06-5.12759E-08-7.04313E-08
 -1        70-9.95052E+06-9.25045E+05-7.83056E+05-3.50482E+06 1.01427E-08-8.47795E-08
 -1        86-1.21232E+06-1.34074E+07-2.29232E+06-2.48428E+06-2.37958E-07-2.11483E-07
 -1        87 1.85915E+06 4.76561E+06 1.90780E+06 4.81341E+06-4.22282E-07 4.15553E-08
 -1        88-3.26175E+05-2.19454E+06 1.73915E+05-2.26856E+06-3.76911E-07-1.11959E-07
 -1        89 2.49545E+06 4.54889E+06 1.94970E+06 4.95787E+06-5.31989E-07-2.38688E-08
 -1        90-1.78072E+06-1.32478E+07-2.48626E+06-2.64749E+06-1.35915E-07 1.54192E-07
 -1       121-2.03308E+03-1.58750E+06-5.38399E+02 1.11173E+03 1.49033E-09 1.81171E-08
 -1       122-1.29499E+03-1.58267E+06 7.81210E+02-4.48881E+03-5.27679E-09 1.34169E-08
 -1       123-2.05340E+03-1.58763E+06 2.84578E+02 3.31997E+03 4.15150E-09 1.93686E-08
 -1       124 3.66455E+02-1.58221E+06 3.00016E+03-9.38418E+03-9.90758E-09 3.02971E-08
 -1       125-2.87553E+03-1.58854E+06 3.54377E+03 5.96154E+03 6.77028E-09-2.52439E-08
 -1       191-8.08705E+01 3.85334E+05 8.30941E+00 7.03918E-01-5.90785E-10-8.29277E-09
 -1       192-7.77068E+01 3.85317E+05 2.11282E+01-4.33226E+00-7.60870E-10-2.41926E-10
 -1       193-8.33889E+01 3.85334E+05 3.58671E+01 3.80943E+00-1.08463E-09-7.40511E-09
 -1       194-8.07747E+01 3.85321E+05 8.03330E+01-9.83509E+00-6.04935E-10 3.44180E-08
 -1       195-8.82225E+01 3.85332E+05 1.53696E+02 6.40521E+00-1.47110E-09 6.67933E-09
 -1       251-1.00661E+06 2.03219E+04-4.77505E+04-1.75571E+04 8.41737E-10 2.57665E-07
 -1       252-1.02576E+06-2.32972E+04-3.33642E+04 5.93976E+04 1.25731E-08 3.51427E-07
 -1       253-1.01522E+06 3.34639E+03-1.24566E+04-1.59385E+04-8.23661E-09 1.49150E-07
 -1       254-1.01071E+06-3.44676E+03-6.30724E+03 4.69042E+04 9.08528E-09-1.51045E-07
 -1       255-1.02082E+06 3.54739E+02-4.11161E+03-5.08503E+03-7.23958E-10 1.34846E-07
 -1       256-1.00253E+06-2.65391E+02 1.05045E+03 2.00400E+04-5.63386E-09 3.70545E-07
 -1       257-1.02290E+06-5.52656E+02-1.87034E+03 1.09346E+04 1.94132E-09 1.33193E-07
 -1       258-1.00419E+06 8.48492E+02 2.94490E+03-1.11065E+04-1.24057E-08 1.57626E-07
 -1       259-1.01957E+06-9.31010E+02 8.61616E+02 2.60704E+04 3.05386E-09-1.98068E-07
 -1       260-1.01191E+06 2.87503E+03 5.23865E+03-3.47335E+04-1.12059E-08 1.07993E-07
 -1       261-1.01580E+06-1.84290E+03 7.69901E+03 3.45897E+04 2.04991E-08 2.12820E-07
 -1       262-1.01194E+06 1.09185E+04 1.92127E+04-4.20258E+04-5.66405E-09 4.33836E-08
 -1       263-1.01966E+06-8.45588E+03 3.02404E+04 3.33920E+04 2.79215E-10 4.20005E-09
 -1       264-9.83218E+05 5.99124E+04 8.41692E+04-3.03133E+04 6.35009E-09 5.85906E-08
 -1       265-1.04409E+06-5.12537E+04 1.16256E+05 2.28465E+04 1.60430E-08 4.56275E-08
 -1       266-1.80138E+04-8.42400E+03 4.22620E+04-2.11962E+01 7.27596E-12 2.08936E-08
 -1       267 2.08827E+04 9.81720E+03 2.98719E+04 2.44580E+01-2.68301E-10-2.12208E-07
 -1       268-2.80034E+03-1.39045E+03 1.11032E+04-3.11628E+00 1.55524E-10 1.00587E-08
 -1       269 3.30637E+03 1.66400E+03 7.21697E+03 3.63010E+00-2.39652E-10 4.24790E-08
 -1       270-4.96289E+02-2.73411E+02 3.48373E+03-4.92626E-01-7.45786E-11 1.88354E-07
 -1       271-1.58898E+06-1.99665E+05-1.18984E+05-6.16355E+05-1.33541E-08-3.26909E-08
 -1       272-1.60224E+06-3.07660E+05-7.53839E+04-6.41227E+05 9.33869E-09-9.96433E-08
 -1       273-1.61358E+06-2.26105E+05-2.86065E+04-6.08415E+05 2.42289E-08-1.30192E-07
 -1       274-1.57339E+06-2.76057E+05-1.52631E+04-6.55451E+05-4.81959E-08-2.14907E-07
 -1       275-1.61908E+06-2.26387E+05-6.98856E+03-6.04854E+05 3.73202E-08 1.08102E-07
 -1       276-1.56707E+06-2.76473E+05-3.16458E+03-6.63088E+05-1.12732E-08 2.37956E-07
 -1       277-1.62175E+06-2.24118E+05-1.90373E+03-6.02259E+05-1.40972E-09 3.67728E-07
 -1       278-1.56438E+06-2.79597E+05-8.60320E+02-6.68758E+05 5.46243E-08 2.56932E-07
 -1       279-1.62348E+06-2.22150E+05-9.87858E+02-6.00383E+05-1.27093E-08-1.09740E-08
 -1       280-1.56299E+06-2.82122E+05-1.28801E+03-6.72637E+05 3.09660E-08 6.86653E-08
 -1       281-1.62443E+06-2.20788E+05-2.37325E+03-5.99256E+05 4.71300E-09 1.42193E-07
 -1       282-1.56334E+06-2.84850E+05-5.54393E+03-6.74419E+05-4.76819E-08 2.33460E-07
 -1       283-1.62384E+06-2.19124E+05-9.85966E+03-5.99021E+05 2.52421E-08 2.44882E-07
 -1       284-1.57199E+06-2.98197E+05-2.68797E+04-6.72303E+05-4.16859E-08 8.58458E-08
 -1       285-1.61597E+06-2.08792E+05-4.18404E+04-6.00891E+05-2.48393E-08-3.75603E-08
 -1       301-6.42335E+02-6.25676E+05 1.68114E+05-1.09275E+06-2.95404E-09 2.05619E-08
 -1       302-9.48768E+02-5.80319E+05 1.01249E+05-1.59581E+06-2.82307E-09-6.86250E-08
 -1       303-1.66610E+04-6.16410E+05 5.78382E+04-1.08984E+06 8.94943E-10 7.62939E-08
 -1       304-1.68664E+04-5.85929E+05 5.93187E+04-1.59509E+06-1.94996E-09 1.30865E-07
 -1       305-2.01264E+04-6.06026E+05 7.43750E+04-1.09294E+06-3.92902E-09 3.72529E-08
 -1       306-2.99089E+07-6.17361E+06-8.53117E+06-6.16129E+05-7.33417E-08-5.52973E-10
 -1       307 2.52774E+07 3.13256E+06 5.47870E+06-1.49470E+07-8.13394E-07 2.98140E-07
 -1       308-7.10676E+06-1.02245E+06-4.84375E+05 5.16406E+06-8.16653E-08 1.20039E-07
 -1       309-3.35234E+06 8.58072E+06 2.23946E+06-2.04965E+07 4.26135E-07 1.05912E-07
 -1       310-1.23378E+07-1.87232E+06-1.95313E+06 5.16204E+06 6.06524E-08-4.50236E-08
 -1       311 3.74718E+07 2.32115E+04 7.13264E+06-8.94420E+06 6.93864E-07-1.63243E-07
 -1       312-3.15750E+07-6.62505E+06-8.39601E+06-4.85258E+06 1.57161E-08 2.57714E-08
 -1       313 4.50798E+07 1.44675E+07 1.05307E+07 2.32343E+07 7.45058E-09 2.29105E-07
 -1       314-1.73046E+07-1.74350E+07-7.44711E+06-1.24388E+07 2.46393E-07-5.87897E-09
 -1       315-1.60722E+06 2.92484E+07 5.62655E+06 1.07054E+07-2.07860E-07-1.62516E-07
 -1       316 1.27781E+06-9.82166E+06-4.63606E+05-2.65744E+06-1.17935E-06-1.76515E-07
 -1       317-1.71624E+07 2.22193E+07 2.19732E+06-8.52743E+06 7.45553E-07-6.84966E-07
 -1       318-1.06479E+06-1.25517E+07-1.97374E+06-4.25575E+06-8.43836E-07 1.95578E-07
 -1       319 6.95020E+06 3.13365E+07 6.90235E+06 1.63182E+07 2.67028E-09 1.37050E-07
 -1       320-2.23557E+07-1.73641E+07-9.70300E+06-1.26554E+07 2.23634E-07-8.53615E-08
 -1       336-7.10578E+02-1.71853E+06-1.39691E+04 9.04045E+03-2.64736E-08 5.54428E-09
 -1       337-5.43257E+03-1.71817E+06-1.82038E+04-2.19380E+04-4.89833E-08 2.62862E-08
 -1       338 3.04465E+02-1.71802E+06-2.86109E+04 1.26488E+04-3.42607E-08 9.08403E-09
 -1       339-3.03361E+04-1.73549E+06-6.46682E+04-2.89995E+04-6.29670E-08 3.61943E-08
 -1       340 2.00268E+04-1.70341E+06-1.01841E+05 1.59719E+04-4.18841E-08 2.81761E-08
 -1       406-5.14375E+01 3.85317E+05 6.39073E+02 3.35879E+00-1.83346E-09 2.36287E-08
 -1       407 1.51617E+02 3.85451E+05 1.36597E+03 2.37021E+01-4.15405E-10 1.31186E-08
 -1       408 6.27880E+02 3.85218E+05 2.72350E+03-2.73635E+01-2.41130E-09 1.06011E-08
 -1       409 2.88258E+03 3.86320E+05 6.13876E+03 2.92002E+02-3.77554E-10-2.04964E-08
 -1       410 8.41249E+03 3.84433E+05 1.25289E+04-2.81412E+02-3.23416E-09-8.39827E-09
 -1       521-3.14066E+07-7.59931E+06-9.94343E+06-2.32650E+05-1.32481E-07 7.42148E-08
 -1       522 2.60755E+07 4.09770E+06 5.57020E+06-1.83873E+07-5.03031E-07-3.78437E-07
 -1       523-7.69849E+06-1.32787E+06-4.77662E+05 5.60304E+06-3.92902E-08-1.95112E-07
 -1       524-6.82300E+06 1.15491E+07 2.41628E+06-2.35121E+07 8.19869E-07-4.39635E-07
 -1       525-1.31447E+07-2.48107E+06-2.14242E+06 5.59976E+06 6.41507E-07-3.54776E-07
 -1       526 4.07807E+07-5.65230E+04 7.47317E+06-1.15685E+07-1.44762E-07-1.61323E-07
 -1       527-3.33613E+07-8.28312E+06-9.65565E+06-4.71112E+06 4.90109E-08 2.79673E-07
 -1       528 4.91364E+07 1.60460E+07 1.09627E+07 2.63478E+07-1.49361E-07 3.46627E-08
 -1       529-1.82388E+07-1.95769E+07-8.51962E+06-1.24693E+07 2.84286E-07-2.42842E-07
 -1       530-4.06968E+06 3.39033E+07 5.94058E+06 1.02321E+07-4.61368E-07 7.23114E-07
 -1       531 1.26234E+06-1.08917E+07-4.39628E+05-2.63440E+06-9.56468E-07 4.83473E-07
 -1       532-1.97385E+07 2.42306E+07 2.39533E+06-1.26947E+07 3.53888E-07-7.14295E-07
 -1       533-1.11409E+06-1.36799E+07-2.09384E+06-4.09631E+06-3.28233E-07-9.84350E-07
 -1       534 4.92412E+06 3.62791E+07 7.16829E+06 1.68518E+07-5.23869E-09 7.72823E-07
 -1       535-2.35007E+07-1.96834E+07-1.10979E+07-1.27139E+07 1.40164E-07 4.61121E-07
 -1       536-4.63349E+05-5.67465E+04-2.60203E+04-2.71709E+04-9.32124E-09 4.74520E-08
 -1       537 2.72839E+05 4.90870E+04 1.09834E+05 4.99815E+04-1.09937E-07 8.94361E-08
 -1       538-1.31195E+05 8.03342E+03 8.76094E+03-2.36597E+04 3.62231E-08 4.45157E-08
 -1       539 5.88194E+04-9.55955E+03 3.59166E+04 5.13040E+04 1.82705E-07 9.38604E-08
 -1       540-2.50800E+05 3.27962E+03-2.46097E+04-2.86533E+04 9.83960E-10 4.02906E-08
 -1       541 4.68162E+05 1.16240E+04 1.15388E+05 4.41184E+04-3.55765E-08 2.30738E-08
 -1       542-5.37498E+05-1.59392E+04-8.49231E+04-1.62133E+04 5.10884E-08 1.07731E-08
 -1       543 7.15252E+05 2.66076E+04 1.65451E+05-4.80330E+03 3.43505E-09 2.66482E-09
 -1       544-4.96081E+05-1.33229E+04-7.74748E+04 2.00729E+04-3.25140E-08-2.15410E-08
 -1       545 3.52643E+05 2.23649E+03 8.86194E+04-4.62475E+04-4.38065E-08-3.70731E-08
 -1       546-1.77534E+05 1.07963E+04-1.40962E+04 2.51284E+04 1.24464E-08-7.19194E-08
 -1       547 4.26340E+04-1.64858E+04 2.17668E+04-5.14110E+04-1.07230E-07-8.39595E-08
 -1       548-1.88392E+05 7.56060E+03-2.12927E+04 2.54435E+04-1.23545E-07-5.75999E-08
 -1       549 3.76230E+05 2.29181E+04 8.60470E+04-4.60201E+04-8.20235E-08-4.16692E-08
 -1       550-5.08695E+05-3.08715E+04-1.07154E+05 1.95238E+04 6.15228E-09-1.84773E-08
 -1       551 4.09707E+04-7.58134E+05-1.44453E+04-1.24627E+06-1.02009E-07-3.81260E-09
 -1       552 9.31657E+04-8.02640E+05 1.07640E+04-1.77714E+06-7.40110E-08 4.80068E-08
 -1       553 7.15370E+04-7.99119E+05 3.25878E+04-1.23966E+06-1.18336E-07 3.33821E-08
 -1       554 1.31707E+05-8.18206E+05 8.16846E+04-1.77908E+06-7.23230E-08 2.39961E-08
 -1       555 1.01246E+05-8.22620E+05 1.48942E+05-1.23952E+06-1.24986E-07-5.35510E-09
 -1       556 2.11011E+05-3.81676E+05 2.68314E+04-4.08130E+05-2.26719E-08-1.71713E-09
 -1       557 3.40689E+05-4.85210E+05 1.66732E+04-5.27312E+05 3.95812E-09 4.56348E-08
 -1       558 1.93099E+05-3.74802E+05 2.59014E+03-4.12289E+05-1.53668E-08 8.58563E-09
 -1       559 3.15877E+05-4.85508E+05 2.55549E+03-5.47527E+05 1.68657E-08-5.41331E-09
 -1       560 1.77997E+05-3.65329E+05-1.43169E+03-4.23160E+05 1.13214E-08 1.12996E-08
 -1       561 2.96888E+05-4.77926E+05 1.54775E+02-5.60488E+05-2.22644E-09 2.07183E-08
 -1       562 1.66039E+05-3.57896E+05-1.31020E+03-4.31815E+05-5.23869E-09-6.70843E-09
 -1       563 2.82679E+05-4.71735E+05-3.85536E+01-5.69780E+05-1.06229E-08-2.12749E-08
 -1       564 1.57487E+05-3.52566E+05-6.09353E+02-4.37872E+05 5.04951E-09-8.72978E-09
 -1       565 2.73228E+05-4.67622E+05 2.91753E+00-5.75827E+05 1.69093E-08 2.66800E-08
 -1       566 1.52465E+05-3.49388E+05-2.99806E+02-4.41383E+05 2.74304E-09 8.15271E-09
 -1       567 2.68588E+05-4.65611E+05-4.41421E+02-5.78649E+05 1.96796E-08-1.14414E-08
 -1       568 1.51065E+05-3.48529E+05-1.27712E+03-4.42455E+05 3.97722E-09-3.62706E-09
 -1       569 2.67311E+05-4.65608E+05-3.19970E+03-5.77291E+05-1.13869E-09-5.63159E-09
 -1       570 1.54411E+05-3.51824E+05-6.88478E+03-4.41400E+05 1.00408E-08-1.74441E-09
 -1       571 2.90955E+05 1.03980E+04 1.48235E+04-9.46585E+04 4.09727E-09 2.11899E-08
 -1       572 2.93103E+05 3.92416E+03 7.26468E+03-1.03855E+05 4.17276E-09-3.70892E-09
 -1       573 2.91810E+05 1.23879E+03 3.22797E+03-9.44856E+04 1.74987E-09 1.15415E-08
 -1       574 2.92021E+05 7.26244E+02 1.61881E+03-1.04076E+05 4.04179E-09 2.66909E-08
 -1       575 2.91904E+05 4.49111E+02 7.64088E+02-9.44619E+04-6.79205E-09 5.90535E-09
 -1       576 2.91888E+05 4.60510E+02 3.91319E+02-1.04105E+05-2.61291E-08 2.18097E-09
 -1       577 2.91945E+05 3.90794E+02 1.95541E+02-9.44586E+04-1.46119E-08 4.53201E-09
 -1       578 2.91920E+05 4.21990E+02 1.13398E+02-1.04109E+05-1.01350E-08-1.31458E-08
 -1       579 2.92017E+05 3.53632E+02 7.85975E+01-9.44583E+04 4.86034E-09-9.11677E-09
 -1       580 2.92022E+05 3.70725E+02 9.23366E+01-1.04104E+05-7.16591E-09-8.74388E-09
 -1       581 2.92131E+05 2.95129E+02 1.40524E+02-9.44642E+04 5.15138E-09-7.29960E-09
 -1       582 2.92198E+05 3.34569E+02 2.86295E+02-1.04043E+05 3.95812E-09 1.03037E-08
 -1       583 2.92271E+05 3.41298E+02 5.50166E+02-9.45207E+04-2.91038E-11 5.61022E-09
 -1       584 2.92577E+05 7.91111E+02 1.24493E+03-1.03566E+05 1.50430E-09 1.96474E-09
 -1       585 2.92292E+05 1.84099E+03 2.52155E+03-9.49398E+04-8.87667E-10 1.12777E-08
 -1       586-3.63177E+03 1.15990E+05-3.21928E+03-2.45275E+05-5.66661E-09 2.66209E-09
 -1       587-1.40552E+03 1.15698E+05 6.45017E+02-2.69945E+05-4.65661E-09 1.25847E-08
 -1       588 3.99568E+02 1.15526E+05 4.74869E+03-2.45141E+05-3.67254E-09 2.59097E-08
 -1       589 5.14757E+03 1.18011E+05 1.24407E+04-2.69717E+05-6.96309E-09-9.21864E-09
 -1       590 1.67974E+04 1.14161E+05 2.61473E+04-2.45565E+05-4.29736E-09-2.29193E-10
 -1       591-7.38662E+04-1.56219E+04-2.25792E+04-3.12723E+04-8.26230E-09-1.60471E-08
 -1       592-7.80587E+04-1.90937E+04-1.22308E+04-3.47973E+04 3.95494E-09-1.23729E-08
 -1       593-7.61228E+04-1.39851E+04-5.09102E+03-3.29295E+04 2.35156E-09 2.55091E-09
 -1       594-7.49427E+04-1.57788E+04-2.53900E+03-3.49133E+04-1.79590E-09-8.37815E-10
 -1       595-7.62948E+04-1.39799E+04-1.16558E+03-3.30048E+04-9.29489E-10 1.01659E-08
 -1       596-7.47292E+04-1.56272E+04-5.92169E+02-3.48877E+04 6.89482E-10 1.79220E-08
 -1       597-7.63163E+04-1.39954E+04-3.21700E+02-3.30076E+04 9.03066E-09 1.14651E-08
 -1       598-7.47082E+04-1.56212E+04-2.57222E+02-3.48806E+04 3.34694E-10 8.54493E-09
 -1       599-7.63151E+04-1.39959E+04-3.26841E+02-3.30073E+04 7.24481E-09-1.90344E-08
 -1       600-7.47291E+04-1.56276E+04-6.05786E+02-3.48855E+04 3.95499E-09 1.02996E-08
 -1       601-7.62907E+04-1.39814E+04-1.19435E+03-3.30039E+04 5.09067E-09 7.80551E-09
 -1       602-7.49478E+04-1.57818E+04-2.60260E+03-3.49079E+04 2.54886E-09-1.14096E-09
 -1       603-7.61117E+04-1.39896E+04-5.21907E+03-3.29276E+04 5.02746E-09 1.21445E-08
 -1       604-7.81604E+04-1.91598E+04-1.25374E+04-3.47636E+04-2.59149E-09-6.07088E-09
 -1       605-7.37781E+04-1.56858E+04-2.31456E+04-3.12488E+04 4.05510E-09-2.99588E-09
 -1       606 2.64294E+04-1.43362E+04-2.57009E+04 2.37138E+04 6.41558E-09-7.93307E-09
 -1       607 2.20381E+04-4.68194E+03-1.27990E+04 2.66498E+04 1.95996E-09-8.79118E-09
 -1       608 2.45414E+04-8.44301E+02-5.72962E+03 2.35475E+04-5.66433E-09-8.03720E-09
 -1       609 2.40618E+04-2.89259E+02-2.89447E+03 2.68615E+04-2.74031E-09 9.35211E-09
 -1       610 2.43282E+04-4.09472E+01-1.38093E+03 2.35277E+04 4.03361E-09-1.95291E-09
 -1       611 2.42531E+04-4.14762E+01-6.96241E+02 2.68844E+04 7.85622E-09-3.48973E-09
 -1       612 2.42816E+04-2.75327E+01-3.30897E+02 2.35257E+04-6.10635E-09-4.88672E-09
 -1       613 2.42652E+04-3.76635E+01-1.48153E+02 2.68871E+04-1.13600E-08-6.35509E-09
 -1       614 2.42598E+04-3.42060E+01-3.44090E+01 2.35250E+04-6.75846E-09 9.15202E-09
 -1       615 2.42603E+04-3.63928E+01 6.28975E+01 2.68875E+04-1.25829E-09 9.29754E-09
 -1       616 2.42426E+04-3.12583E+01 1.87869E+02 2.35252E+04-1.59798E-09 1.38334E-09
 -1       617 2.42832E+04 3.43701E+00 4.28340E+02 2.68870E+04-8.23320E-10-4.32919E-09
 -1       618 2.42057E+04 9.20667E+01 8.63283E+02 2.35255E+04 5.95719E-10-4.73119E-09
 -1       619 2.45882E+04 6.70795E+02 1.93850E+03 2.68864E+04-1.78488E-09-4.96198E-09
 -1       620 2.39191E+04 2.13900E+03 3.89631E+03 2.35272E+04 3.82329E-10-2.57628E-08
 -1       621 5.06784E+02 3.00928E+05 3.84235E+03 4.13127E+04 1.16097E-09 3.49792E-09
 -1       622 6.74197E+02 3.01813E+05 3.41668E+03 5.99746E+04 1.10686E-09 3.33202E-08
 -1       623 1.44643E+02 3.01117E+05 4.11344E+03 4.11252E+04 1.15165E-09 2.55568E-08
 -1       624 2.11877E+03 3.03024E+05 7.98114E+03 6.01597E+04 1.35736E-09-2.32012E-09
 -1       625 2.06894E+03 2.99533E+05 1.39497E+04 4.11215E+04 1.50885E-09-9.50217E-09
 -1       626 2.61504E+05 6.13859E+04 5.19042E+03 1.26766E+05 1.66210E-09-1.98634E-09
 -1       627 2.59211E+05 6.27459E+04 2.50121E+03 1.31033E+05 4.62796E-09-8.55619E-09
 -1       628 2.61631E+05 5.90137E+04 1.05786E+03 1.27652E+05-5.09317E-09-3.62820E-09
 -1       629 2.58571E+05 6.20532E+04 5.17703E+02 1.31274E+05-8.95670E-09 1.85068E-08
 -1       630 2.61646E+05 5.88989E+04 2.40208E+02 1.27690E+05-9.37234E-10-1.16837E-08
 -1       631 2.58504E+05 6.20264E+04 1.29259E+02 1.31276E+05 1.67747E-08 1.38016E-10
 -1       632 2.61643E+05 5.89027E+04 8.50294E+01 1.27686E+05 3.59660E-09-1.48177E-08
 -1       633 2.58496E+05 6.20281E+04 9.46987E+01 1.31272E+05 4.57931E-10 1.47363E-08
 -1       634 2.61639E+05 5.88998E+04 1.53010E+02 1.27685E+05-4.71391E-09 8.68158E-09
 -1       635 2.58510E+05 6.20263E+04 3.09594E+02 1.31278E+05-7.53795E-09-9.99671E-09
 -1       636 2.61630E+05 5.88939E+04 6.25224E+02 1.27685E+05 1.23555E-09 9.29822E-09
 -1       637 2.58646E+05 6.21235E+04 1.37475E+03 1.31277E+05-4.36489E-09-1.60671E-08
 -1       638 2.61581E+05 5.91975E+04 2.82457E+03 1.27548E+05 4.56612E-09 1.05774E-09
 -1       639 2.60130E+05 6.41870E+04 6.68309E+03 1.30840E+05 5.13955E-09 1.39212E-08
 -1       640 2.61376E+05 6.53600E+04 1.38686E+04 1.24952E+05 6.20503E-09 1.93222E-09
 -1       656 6.66404E+04-1.70594E+06-1.60867E+05-2.58613E+03-1.81899E-10-1.66625E-08
 -1       657-8.81630E+04-1.77863E+06-1.33275E+05 5.08332E+03-1.93631E-09-2.75516E-08
 -1       658 2.12460E+04-1.72658E+06-8.20899E+04-4.66800E+03 1.70758E-10-6.49264E-09
 -1       659-9.53584E+04-1.78205E+06-1.42732E+05 6.82109E+03-2.19188E-09 1.94304E-08
 -1       660 7.38197E+04-1.70253E+06-1.77124E+05-4.32389E+03-2.96859E-09 1.32749E-08
 -1       661 1.56877E+05 1.63968E+04 1.65906E+04 6.13330E+04-1.48111E-09 9.11314E-10
 -1       662 1.66280E+05 2.86599E+04 1.11810E+04 5.75840E+04 3.62087E-09 9.26661E-10
 -1       663 1.60136E+05 2.17194E+04 3.91037E+03 6.03873E+04-1.48873E-09 3.53975E-09
 -1       664 1.62502E+05 2.24356E+04 2.33926E+03 5.87392E+04-7.34502E-10-7.57154E-11
 -1       665 1.60630E+05 2.24463E+04 9.22826E+02 6.02429E+04-3.08603E-10 6.17180E-09
 -1       666 1.61917E+05 2.16044E+04 5.40248E+02 5.89275E+04 1.18668E-08 1.06496E-08
 -1       667 1.60717E+05 2.25289E+04 2.87232E+02 6.02068E+04 5.96651E-09 7.70098E-09
 -1       668 1.61821E+05 2.15450E+04 2.93294E+02 5.89800E+04-5.33772E-09 7.09903E-09
 -1       669 1.60725E+05 2.25040E+04 3.97601E+02 6.01907E+04-7.53033E-10 1.11380E-08
 -1       670 1.61918E+05 2.17609E+04 8.66259E+02 5.89827E+04-1.10537E-08-1.15120E-08
 -1       671 1.60620E+05 2.23176E+04 1.53828E+03 6.02020E+04 2.56532E-09 1.41331E-08
 -1       672 1.62815E+05 2.32573E+04 3.93577E+03 5.87652E+04 4.30241E-09 5.24528E-09
 -1       673 1.59832E+05 2.10455E+04 6.59577E+03 6.03936E+04 9.27685E-10 3.62843E-09
 -1       674 1.69092E+05 3.38540E+04 1.88625E+04 5.69208E+04-6.38067E-09-1.65571E-08
 -1       675 1.54382E+05 1.20177E+04 2.79987E+04 6.19352E+04-5.70708E-09-9.35324E-09
 -1       676 2.40766E+01-2.95650E+05-1.11162E+03-1.39553E+02 2.57785E-10 2.40837E-09
 -1       677-2.94008E+02-2.95919E+05-2.03445E+03 2.78882E+02 9.84335E-09-1.75180E-08
 -1       678 1.97228E+02-2.95458E+05-3.59641E+03-1.39237E+02 8.82665E-10-1.79037E-08
 -1       679-3.59643E+03-2.98090E+05-8.54358E+03 2.77677E+02 5.88807E-09 1.71097E-08
 -1       680 2.14730E+03-2.93480E+05-1.37693E+04-1.36811E+02 1.20508E-09-3.34660E-09
 -1       771-3.06086E+06-7.45237E+05-1.63924E+05-1.46402E+06-2.83471E-08-3.02680E-08
 -1       772-2.98397E+06-8.33618E+05-8.45051E+04-1.56620E+06-2.07656E-08 9.46602E-09
 -1       773-3.09205E+06-7.20903E+05-4.30948E+04-1.47835E+06-1.50758E-08 6.15546E-09
 -1       774-2.97456E+06-8.15363E+05-1.92228E+04-1.59176E+06 2.76923E-08-2.27737E-09
 -1       775-3.10835E+06-7.09460E+05-1.43892E+04-1.48532E+06 3.20142E-10 7.38510E-09
 -1       776-2.98677E+06-8.12379E+05-5.37898E+03-1.61109E+06-1.21800E-08 2.80124E-09
 -1       777-3.12249E+06-6.99249E+05-6.36085E+03-1.49146E+06-9.02219E-10-3.41970E-10
 -1       778-2.99952E+06-8.09601E+05-1.79696E+03-1.62770E+06 1.21508E-08 8.04721E-09
 -1       779-3.13465E+06-6.90328E+05-3.17855E+03-1.49672E+06-1.05938E-08-1.03391E-08
 -1       780-3.01074E+06-8.06949E+05-5.24052E+02-1.64123E+06-1.35042E-08-5.05679E-10
 -1       781-3.14432E+06-6.83138E+05-1.22946E+03-1.50083E+06-3.64817E-08-4.60386E-09
 -1       782-3.01939E+06-8.04695E+05 4.58968E+02-1.65121E+06-3.63216E-08-6.89306E-09
 -1       783-3.15112E+06-6.78142E+05 7.20425E+02-1.50371E+06-1.66692E-08-1.69148E-08
 -1       784-3.02417E+06-8.02422E+05 2.93950E+03-1.65738E+06-3.26872E-08-1.20053E-09
 -1       785-3.15516E+06-6.75152E+05 5.19449E+03-1.50554E+06-4.19532E-08 8.30369E-09
 -1       786 1.11771E+05-9.43388E+03 2.18259E+04-2.96141E+02 5.81025E-10 1.53195E-08
 -1       787 1.21238E+05 1.09223E+04 1.54409E+04-1.19296E+02 8.58301E-09 1.93170E-08
 -1       788 1.15421E+05-1.47832E+03 5.64651E+03-2.63546E+02 5.33165E-09 1.24528E-08
 -1       789 1.16986E+05 1.71103E+03 3.54425E+03-1.69332E+02-1.00256E-10 2.61675E-08
 -1       790 1.16024E+05-2.30145E+02 1.43402E+03-2.46122E+02-3.55608E-09 4.12609E-09
 -1       791 1.16281E+05 2.65940E+02 8.26366E+02-1.99282E+02-1.06049E-08 6.03274E-09
 -1       792 1.16126E+05-3.43162E+01 3.46384E+02-2.33598E+02-5.35882E-09 5.96798E-09
 -1       793 1.16158E+05 3.42984E+01 1.64364E+02-2.22813E+02 4.88390E-10 1.10791E-08
 -1       794 1.16147E+05 1.35069E+00 2.59938E+01-2.22590E+02 6.34606E-09 4.94781E-09
 -1       795 1.16116E+05-4.09219E+01-1.00782E+02-2.45539E+02-5.48040E-09 3.63749E-09
 -1       796 1.16168E+05 4.08614E+01-2.34665E+02-2.10872E+02 3.73006E-09 1.14241E-09
 -1       797 1.15986E+05-3.04583E+02-6.22519E+02-2.72037E+02 5.63404E-09-9.40685E-09
 -1       798 1.16276E+05 2.64815E+02-1.00495E+03-1.96093E+02 2.72320E-09 1.29605E-08
 -1       799 1.15226E+05-1.95324E+03-2.75960E+03-3.08331E+02 6.17477E-09 9.55094E-09
 -1       800 1.16929E+05 1.68818E+03-3.90384E+03-1.74580E+02-1.68397E-10 1.44155E-09
 -1       801-1.72214E+05-1.00421E+07-1.39977E+06 1.42763E+06 8.89704E-08-6.85541E-08
 -1       802 7.44786E+05 6.03124E+06 2.20238E+06-1.76220E+06 2.60217E-07-3.35858E-08
 -1       803-5.41587E+05-1.43792E+07-1.90983E+06 9.00770E+05 7.81547E-08 1.59271E-08
 -1       804 2.91800E+05 2.47072E+06 1.55625E+06 6.84980E+05-1.21130E-07-1.02636E-07
 -1       805 1.89727E+05-6.49556E+06-2.91919E+05-1.01380E+06-5.05315E-08-7.08760E-08
 -1       806-3.09980E+05-5.96112E+04-2.26290E+04-1.22562E+05-4.54747E-11 6.25960E-09
 -1       807-3.11779E+05-5.58983E+04-1.11174E+04-1.28031E+05 9.78707E-09 5.96546E-09
 -1       808-3.10600E+05-5.14572E+04-4.71639E+03-1.26419E+05-1.07971E-08 5.32634E-09
 -1       809-3.09443E+05-5.27730E+04-2.30624E+03-1.28302E+05-1.26211E-08-1.77855E-08
 -1       810-3.10693E+05-5.11734E+04-1.05716E+03-1.26590E+05 1.95951E-09 1.70487E-08
 -1       811-3.09262E+05-5.26473E+04-5.25886E+02-1.28267E+05 1.10090E-08 3.09228E-11
 -1       812-3.10707E+05-5.11978E+04-2.66345E+02-1.26589E+05-1.58707E-09-4.85943E-09
 -1       813-3.09237E+05-5.26493E+04-1.73768E+02-1.28249E+05-9.20772E-09-8.13543E-10
 -1       814-3.10700E+05-5.12074E+04-1.73260E+02-1.26585E+05 6.20275E-10-9.58289E-09
 -1       815-3.09241E+05-5.26514E+04-2.80193E+02-1.28241E+05 5.67343E-09 2.46860E-09
 -1       816-3.10680E+05-5.12063E+04-5.31701E+02-1.26582E+05 8.49286E-09 1.88902E-08
 -1       817-3.09332E+05-5.27021E+04-1.14146E+03-1.28230E+05-5.65205E-09 2.21835E-08
 -1       818-3.10611E+05-5.13672E+04-2.32831E+03-1.26506E+05-2.89219E-10-3.30328E-09
 -1       819-3.10605E+05-5.41100E+04-5.47850E+03-1.27930E+05-1.57888E-09-5.42786E-09
 -1       820-3.10173E+05-5.55045E+04-1.11507E+04-1.24737E+05 1.07957E-09 2.00864E-08
 -1       821-3.77522E+05 2.08386E+04-4.84683E+04 2.05798E+03 1.36190E-08-1.93504E-08
 -1       822-3.97363E+05-2.41379E+04-3.40942E+04-4.19490E+03 4.99509E-09 1.37661E-08
 -1       823-3.85051E+05 3.28247E+03-1.25226E+04 3.26221E+03-1.21374E-08-7.60156E-09
 -1       824-3.88302E+05-3.78619E+03-7.84305E+03-5.00243E+03 1.91730E-09-1.81599E-08
 -1       825-3.86588E+05 5.09618E+02-3.27902E+03 2.86562E+03 1.96593E-08-7.52505E-09
 -1       826-3.85967E+05-5.69801E+02-1.76343E+03-2.83602E+03 2.51395E-08-1.17448E-08
 -1       827-3.87364E+05 5.15630E+01-1.16833E+03 1.09568E+03 1.06263E-08-1.26648E-08
 -1       828-3.85332E+05-1.38431E+02-6.21796E+02 1.10325E+03-1.51803E-09 6.82902E-09
 -1       829-3.87212E+05 6.96918E+01-1.15927E+03-1.07369E+03 1.13107E-09-7.09954E-09
 -1       830-3.86297E+05-6.22820E+02-1.89745E+03 4.63896E+03 3.87239E-10-1.19245E-08
 -1       831-3.86419E+05 5.51633E+02-3.36291E+03-2.44005E+03-5.31045E-09-1.86822E-08
 -1       832-3.88384E+05-3.95200E+03-8.14580E+03 5.81453E+03-4.51808E-09-5.84998E-09
 -1       833-3.85140E+05 3.40683E+03-1.30245E+04-2.24930E+03-2.01285E-09 2.71120E-09
 -1       834-3.97445E+05-2.50521E+04-3.53215E+04 3.94634E+03-2.16615E-09-1.09490E-08
 -1       835-3.77343E+05 2.16207E+04-5.03367E+04-5.71790E+02 5.27217E-09-5.87170E-09
 -1       836-1.41098E+03 3.70636E+05 2.29238E+04-1.50246E+04-6.97946E-09-4.13820E-11
 -1       837 4.89171E+03 3.77814E+05 1.93996E+04-3.07453E+04-7.66227E-09 2.99176E-08
 -1       838-5.56578E+02 3.72650E+05 1.97690E+04-1.49558E+04-6.42422E-09 2.34616E-08
 -1       839 1.24468E+04 3.83443E+05 3.74001E+04-3.07982E+04-6.60157E-09-2.37951E-08
 -1       840-3.84478E+03 3.64950E+05 5.96410E+04-1.49776E+04-6.18456E-09-2.47723E-08
 -1       856-5.06472E+04 7.98258E+03-2.10358E+04-3.96884E+02 1.93052E-09 5.42786E-09
 -1       857-5.93132E+04-9.37955E+03-1.44808E+04 5.62321E+03 5.79834E-09-1.61874E-08
 -1       858-5.40792E+04 1.11950E+03-5.45824E+03-4.20563E+02 3.09745E-09 1.65744E-08
 -1       859-5.53746E+04-1.31732E+03-3.29372E+03 5.65835E+03-1.90306E-09 1.36730E-08
 -1       860-5.45920E+04 1.56799E+02-1.38024E+03-4.31755E+02-1.48052E-09-3.75002E-09
 -1       861-5.47848E+04-1.87428E+02-7.58978E+02 5.67358E+03 2.75929E-09-9.76824E-09
 -1       862-5.46722E+04 2.12353E+01-3.14848E+02-4.35772E+02-2.34720E-09-7.67048E-09
 -1       863-5.46863E+04-2.18056E+01-1.13218E+02 5.67593E+03-6.88567E-09-1.28170E-08
 -1       864-5.46909E+04-5.05467E+00 5.02696E+01-4.34098E+02-1.84679E-09 2.31405E-09
 -1       865-5.46300E+04 6.07300E+01 2.61281E+02 5.66632E+03-4.93090E-09-3.23920E-08
 -1       866-5.47264E+04-6.12877E+01 5.24873E+02-4.26172E+02-1.21776E-09-2.13167E-08
 -1       867-5.43837E+04 5.06139E+02 1.29080E+03 5.64482E+03 5.62025E-09 1.62438E-08
 -1       868-5.49324E+04-4.42343E+02 2.14471E+03-4.12590E+02-4.91707E-09-3.55317E-09
 -1       869-5.28118E+04 3.68176E+03 5.71014E+03 5.60942E+03 7.02042E-09-8.32495E-09
 -1       870-5.62905E+04-3.15054E+03 8.28684E+03-3.90670E+02-2.76941E-09 2.12822E-09
 -1       871-5.52508E+03-2.14874E+04-1.95378E+04 1.30837E+05-5.28962E-09 5.29508E-09
 -1       872-1.97859E+03-2.60326E+04-8.18467E+03 1.69651E+05-1.05711E-08 2.65136E-08
 -1       873 4.12328E+02-2.38330E+04 5.81909E+02 1.30550E+05-4.99313E-09 5.82043E-09
 -1       874 3.31707E+03-2.14231E+04 9.78123E+03 1.69680E+05-1.22545E-08 1.79953E-08
 -1       875 6.85713E+03-2.61635E+04 2.20730E+04 1.30789E+05-5.44424E-09-2.04727E-09
 -1       876 2.93991E+05 4.95191E+04 1.50918E+04 1.17943E+05 2.58922E-09-1.24710E-08
 -1       877 2.94994E+05 5.26925E+04 8.05961E+03 1.22267E+05 1.00249E-08-8.01197E-09
 -1       878 2.95402E+05 4.78473E+04 3.37658E+03 1.19180E+05-5.15183E-09-9.42941E-09
 -1       879 2.92942E+05 5.06451E+04 1.68243E+03 1.22369E+05 4.59067E-10 7.72764E-09
 -1       880 2.95504E+05 4.78300E+04 7.83677E+02 1.19230E+05-1.07639E-09-5.31827E-10
 -1       881 2.92806E+05 5.05575E+04 4.18554E+02 1.22346E+05-4.31669E-09 6.01844E-09
 -1       882 2.95513E+05 4.78432E+04 2.67873E+02 1.19232E+05-5.24187E-09 5.07497E-09
 -1       883 2.92796E+05 5.05529E+04 2.88144E+02 1.22338E+05-3.44062E-09 2.95510E-08
 -1       884 2.95506E+05 4.78404E+04 4.58524E+02 1.19232E+05 1.22403E-08-7.01505E-09
 -1       885 2.92833E+05 5.05593E+04 9.21985E+02 1.22349E+05 4.21433E-09-1.33505E-08
 -1       886 2.95470E+05 4.78136E+04 1.85827E+03 1.19228E+05 2.56034E-09-7.53812E-09
 -1       887 2.93160E+05 5.07734E+04 4.05915E+03 1.22396E+05-3.54530E-09-1.90726E-08
 -1       888 2.95214E+05 4.78588E+04 8.17932E+03 1.19099E+05-4.23543E-09-2.81079E-09
 -1       889 2.98029E+05 5.58375E+04 1.95388E+04 1.22247E+05-3.41330E-09-2.01453E-09
 -1       890 2.91875E+05 5.18245E+04 3.65958E+04 1.15986E+05-8.26049E-09 8.13452E-09
 -1       891-8.86487E+01-1.62791E+05-1.99911E+03 2.70643E+04-1.82126E-09 6.30280E-09
 -1       892-1.74241E+02-1.63319E+05-2.14610E+03 4.11009E+04 3.47450E-09 2.92059E-08
 -1       893 4.47457E+01-1.62855E+05-3.03759E+03 2.70716E+04-6.84395E-10 7.35645E-09
 -1       894-1.50911E+03-1.64467E+05-6.28597E+03 4.09487E+04 1.20053E-09-1.21418E-09
 -1       895-1.19855E+03-1.61546E+05-1.10692E+04 2.72183E+04 2.79329E-10-8.66658E-09
 -1       956-3.77704E+05-5.44642E+03-1.34419E+04 3.09552E+04 8.38281E-09 1.10285E-08
 -1       957-3.80341E+05-1.92226E+03-6.89951E+03 3.72003E+04-2.04091E-09 4.40286E-09
 -1       958-3.78912E+05-2.41798E+02-3.10913E+03 3.07876E+04-3.61888E-09 1.47611E-09
 -1       959-3.79108E+05-1.37449E+02-1.58758E+03 3.73959E+04 7.39919E-09 1.28680E-08
 -1       960-3.79030E+05-4.58265E+01-7.74193E+02 3.07703E+04 7.91897E-09-5.39399E-09
 -1       961-3.79028E+05-6.44812E+01-4.10510E+02 3.74163E+04 9.96442E-09 1.45760E-08
 -1       962-3.79058E+05-4.70756E+01-2.35102E+02 3.07675E+04-4.03361E-09 2.56523E-09
 -1       963-3.79028E+05-6.03409E+01-1.88875E+02 3.74199E+04-9.77980E-09 6.41285E-09
 -1       964-3.79063E+05-4.37830E+01-2.29870E+02 3.07667E+04-1.04888E-08-2.30989E-09
 -1       965-3.79040E+05-5.74711E+01-3.97733E+02 3.74192E+04-6.31007E-09-9.63018E-09
 -1       966-3.79047E+05-3.60373E+01-7.47426E+02 3.07682E+04-1.56570E-09-4.12683E-09
 -1       967-3.79130E+05-1.21252E+02-1.53299E+03 3.74047E+04-1.02582E-08-3.88764E-09
 -1       968-3.78942E+05-2.18981E+02-3.00108E+03 3.07810E+04-1.92813E-09-1.11555E-09
 -1       969-3.80332E+05-1.83919E+03-6.66229E+03 3.72551E+04 6.16274E-09-3.35547E-10
 -1       970-3.77784E+05-5.24074E+03-1.29786E+04 3.09090E+04-9.54969E-10 1.12523E-08
 -1       971-3.45529E+05-1.72557E+03-9.29674E+03 1.53492E+04 4.55839E-09-9.06460E-09
 -1       972-3.47767E+05-1.27077E+03-5.06292E+03 2.12248E+04 4.07090E-09 4.68390E-11
 -1       973-3.46565E+05-6.25162E+01-2.26773E+03 1.52284E+04 5.82440E-09 8.25298E-09
 -1       974-3.46700E+05-8.18027E+01-1.17554E+03 2.13615E+04 5.39967E-09-5.42127E-09
 -1       975-3.46647E+05-1.77337E+01-5.88114E+02 1.52161E+04-2.93767E-09 1.18812E-08
 -1       976-3.46638E+05-3.20559E+01-3.40225E+02 2.13773E+04 1.13778E-09 8.25366E-11
 -1       977-3.46663E+05-1.70040E+01-2.48577E+02 1.52127E+04-4.66503E-09 3.86831E-09
 -1       978-3.46644E+05-2.58507E+01-2.93138E+02 2.13821E+04-9.66747E-09-1.03598E-08
 -1       979-3.46663E+05-8.52952E+00-4.72911E+02 1.52112E+04-3.50929E-09 7.43796E-09
 -1       980-3.46679E+05-2.27914E+01-9.14342E+02 2.13831E+04-3.92852E-09 2.54622E-08
 -1       981-3.46634E+05 1.43313E+01-1.77150E+03 1.52117E+04 2.24350E-09-4.24473E-09
 -1       982-3.46922E+05-1.53672E+02-3.66200E+03 2.13765E+04 3.27748E-09 9.82482E-10
 -1       983-3.46411E+05-9.90809E+01-7.11547E+03 1.52178E+04-1.56251E-09-1.02730E-08
 -1       984-3.50345E+05-3.86984E+03-1.59349E+04 2.12911E+04-1.92813E-09 3.21586E-09
 -1       985-3.43189E+05-5.30571E+03-2.92614E+04 1.52888E+04-2.48383E-09 1.80589E-08
 -3
    1PSTEP                        35          18           1          
  100CL  118 6.62673E-01         409                     0   18           1
 -4  DISP        4    1
 -5  D1          1    2    1    0
 -5  D2          1    2    2    0
 -5  D3          1    2    3    0
 -5  ALL         1    2    0    0    1ALL
 -1         1 2.67811E-03 0.00000E+00 0.00000E+00
 -1         2 1.40472E-03-2.42306E-27 0.00000E+00
 -1         3 3.42327E-04-5.34690E-28 1.32349E-23
 -1         5 1.76261E-04 3.16346E-27-8.27181E-25
 -1         8 2.66639E-03-4.22114E-07 0.00000E+00
 -1         9 2.65947E-03-1.66146E-04 0.00000E+00
 -1        10 3.10364E-04-3.44513E-06 0.00000E+00
 -1        12 1.78134E-04 8.07679E-07 4.13590E-25
 -1        15 2.65286E-03-4.48645E-07 0.00000E+00
 -1        16 2.71642E-03-1.67833E-04 0.00000E+00
 -1        17 2.11147E-04-7.84779E-06 0.00000E+00
 -1        18 1.82159E-04 3.47553E-05 0.00000E+00
 -1        19 1.83755E-04 1.60891E-06 0.00000E+00
 -1        20 1.83893E-04-1.02533E-05 0.00000E+00
 -1        21 1.82996E-04-2.62364E-05-3.30872E-24
 -1        24 3.06225E-05-1.20744E-05 0.00000E+00
 -1        25 1.93147E-04 3.49791E-05 0.00000E+00
 -1        26 1.93759E-04 2.22829E-06 0.00000E+00
 -1        27 1.91570E-04-1.38185E-05 0.00000E+00
 -1        28 1.91263E-04-2.68584E-05 0.00000E+00
 -1        32 0.00000E+00 0.00000E+00 0.00000E+00
 -1        33 2.02813E-04 2.98330E-06 0.00000E+00
 -1        34 2.00690E-04-1.38753E-05 0.00000E+00
 -1        35 1.98756E-04-2.72013E-05 0.00000E+00
 -1        51 2.67733E-03-8.72063E-08 0.00000E+00
 -1        52 2.67589E-03-1.56373E-07 3.30872E-24
 -1        53 2.67395E-03-2.22220E-07 0.00000E+00
 -1        54 2.67162E-03-2.86978E-07-1.65436E-24
 -1        55 2.66906E-03-3.52394E-07-3.30872E-24
 -1        56 2.67157E-03 5.69318E-06 5.29396E-23
 -1        57 2.65983E-03 2.43417E-05-5.29396E-23
 -1        58 2.64458E-03 5.17514E-05 0.00000E+00
 -1        59 2.62778E-03 8.28709E-05 0.00000E+00
 -1        60 2.61179E-03 1.12021E-04-1.05879E-22
 -1        61 2.59882E-03 1.33683E-04-5.29396E-23
 -1        62 2.59044E-03 1.43671E-04 0.00000E+00
 -1        63 2.58768E-03 1.38837E-04 5.29396E-23
 -1        64 2.59047E-03 1.18727E-04 1.05879E-22
 -1        65 2.59823E-03 8.43003E-05-5.29396E-23
 -1        66 2.60958E-03 3.91837E-05-1.05879E-22
 -1        67 2.62289E-03-1.19773E-05 0.00000E+00
 -1        68 2.63629E-03-6.33931E-05 0.00000E+00
 -1        69 2.64790E-03-1.09243E-04 0.00000E+00
 -1        70 2.65606E-03-1.44766E-04-1.05879E-22
 -1        86 1.48355E-03-5.37966E-06 5.29396E-23
 -1        87 1.71231E-03-3.32521E-05 0.00000E+00
 -1        88 2.01981E-03-8.09535E-05 0.00000E+00
 -1        89 2.33110E-03-1.29851E-04-1.32349E-23
 -1        90 2.56906E-03-1.59764E-04 5.29396E-23
 -1       121 3.41429E-04-5.56442E-07 0.00000E+00
 -1       122 3.38740E-04-1.11598E-06 6.61744E-24
 -1       123 3.34268E-04-1.68164E-06 0.00000E+00
 -1       124 3.28032E-04-2.25648E-06 0.00000E+00
 -1       125 3.20054E-04-2.84314E-06 1.32349E-23
 -1       191 1.76313E-04 1.34679E-07 0.00000E+00
 -1       192 1.76469E-04 2.69345E-07 8.27181E-25
 -1       193 1.76729E-04 4.03992E-07-1.65436E-24
 -1       194 1.77094E-04 5.38605E-07 4.13590E-25
 -1       195 1.77562E-04 6.73172E-07 2.48154E-24
 -1       251 2.66606E-03 2.15034E-06-6.61744E-24
 -1       252 2.66571E-03 5.25631E-06 3.30872E-24
 -1       253 2.66537E-03 7.77509E-06 1.32349E-23
 -1       254 2.66503E-03 8.59394E-06 0.00000E+00
 -1       255 2.66469E-03 6.88573E-06 1.32349E-23
 -1       256 2.66434E-03 1.85853E-06 0.00000E+00
 -1       257 2.66396E-03-6.72260E-06 1.32349E-23
 -1       258 2.66355E-03-1.90430E-05 6.61744E-24
 -1       259 2.66309E-03-3.46612E-05 1.32349E-23
 -1       260 2.66259E-03-5.30892E-05 0.00000E+00
 -1       261 2.66205E-03-7.33677E-05 1.32349E-23
 -1       262 2.66149E-03-9.45119E-05 6.61744E-24
 -1       263 2.66094E-03-1.15392E-04 0.00000E+00
 -1       264 2.66042E-03-1.34880E-04 6.61744E-24
 -1       265 2.65993E-03-1.52085E-04 1.32349E-23
 -1       266 2.66414E-03-4.32466E-07 0.00000E+00
 -1       267 2.66188E-03-4.36165E-07 0.00000E+00
 -1       268 2.65962E-03-4.40285E-07-8.27181E-25
 -1       269 2.65737E-03-4.43157E-07 0.00000E+00
 -1       270 2.65511E-03-4.46000E-07 0.00000E+00
 -1       271 2.66538E-03 4.15938E-07 1.32349E-23
 -1       272 2.66519E-03-1.03872E-06-6.61744E-24
 -1       273 2.66582E-03-4.66039E-06 0.00000E+00
 -1       274 2.66720E-03-1.03134E-05 0.00000E+00
 -1       275 2.66927E-03-1.78426E-05-2.64698E-23
 -1       276 2.67196E-03-2.70785E-05 0.00000E+00
 -1       277 2.67520E-03-3.78368E-05 0.00000E+00
 -1       278 2.67893E-03-4.99206E-05 0.00000E+00
 -1       279 2.68306E-03-6.31219E-05 0.00000E+00
 -1       280 2.68752E-03-7.72231E-05-1.32349E-23
 -1       281 2.69221E-03-9.19991E-05-2.64698E-23
 -1       282 2.69707E-03-1.07219E-04 0.00000E+00
 -1       283 2.70200E-03-1.22649E-04 0.00000E+00
 -1       284 2.70693E-03-1.38052E-04 6.61744E-24
 -1       285 2.71176E-03-1.53192E-04 0.00000E+00
 -1       301 2.66982E-03-1.66458E-04 6.61744E-24
 -1       302 2.67862E-03-1.66728E-04-3.30872E-24
 -1       303 2.68677E-03-1.66989E-04 1.32349E-23
 -1       304 2.69518E-03-1.67251E-04-6.61744E-24
 -1       305 2.70476E-03-1.67525E-04-2.64698E-23
 -1       306 2.69691E-03-3.18519E-04 0.00000E+00
 -1       307 2.76087E-03-7.29506E-04-5.29396E-23
 -1       308 2.80815E-03-1.33170E-03 0.00000E+00
 -1       309 2.83267E-03-2.02987E-03-5.29396E-23
 -1       310 2.86426E-03-2.69891E-03 1.05879E-22
 -1       311 2.92367E-03-3.21626E-03 0.00000E+00
 -1       312 2.98186E-03-3.50142E-03 1.05879E-22
 -1       313 2.97885E-03-3.51589E-03 0.00000E+00
 -1       314 2.84142E-03-3.27106E-03 0.00000E+00
 -1       315 2.52857E-03-2.83038E-03-5.29396E-23
 -1       316 2.05793E-03-2.27005E-03 0.00000E+00
 -1       317 1.49438E-03-1.65942E-03 5.29396E-23
 -1       318 9.51184E-04-1.05948E-03 1.05879E-22
 -1       319 5.35565E-04-5.35362E-04-5.29396E-23
 -1       320 2.91276E-04-1.60794E-04 0.00000E+00
 -1       336 2.98776E-04-4.11054E-06 1.32349E-23
 -1       337 2.85115E-04-4.80162E-06-6.61744E-24
 -1       338 2.69442E-04-5.52056E-06 0.00000E+00
 -1       339 2.51833E-04-6.26816E-06 0.00000E+00
 -1       340 2.32370E-04-7.04885E-06 1.32349E-23
 -1       406 1.78811E-04 9.42108E-07-3.30872E-24
 -1       407 1.79592E-04 1.07642E-06 8.27181E-25
 -1       408 1.80477E-04 1.21057E-06 2.48154E-24
 -1       409 1.81466E-04 1.34437E-06 1.03398E-24
 -1       410 1.82559E-04 1.47757E-06-2.48154E-24
 -1       521 2.75449E-03-3.29468E-04 1.05879E-22
 -1       522 2.81675E-03-7.60366E-04 0.00000E+00
 -1       523 2.85779E-03-1.38977E-03 0.00000E+00
 -1       524 2.87338E-03-2.11584E-03 0.00000E+00
 -1       525 2.89729E-03-2.81080E-03 0.00000E+00
 -1       526 2.95320E-03-3.34967E-03 0.00000E+00
 -1       527 3.01096E-03-3.64526E-03-2.11758E-22
 -1       528 3.00575E-03-3.65814E-03-1.05879E-22
 -1       529 2.85679E-03-3.39960E-03-2.11758E-22
 -1       530 2.52084E-03-2.94081E-03 0.00000E+00
 -1       531 2.01627E-03-2.36165E-03 0.00000E+00
 -1       532 1.41422E-03-1.73405E-03 0.00000E+00
 -1       533 8.33095E-04-1.11653E-03 1.05879E-22
 -1       534 3.85085E-04-5.71951E-04 0.00000E+00
 -1       535 1.20085E-04-1.78233E-04 0.00000E+00
 -1       536 2.10468E-04 2.75151E-05 0.00000E+00
 -1       537 2.08559E-04 8.94130E-05 0.00000E+00
 -1       538 2.05502E-04 1.68625E-04 1.65436E-24
 -1       539 2.01797E-04 2.55918E-04 8.27181E-25
 -1       540 1.98475E-04 3.38404E-04 0.00000E+00
 -1       541 1.96409E-04 4.03197E-04 0.00000E+00
 -1       542 1.95528E-04 4.44148E-04 0.00000E+00
 -1       543 1.95396E-04 4.55163E-04 4.13590E-25
 -1       544 1.95166E-04 4.36915E-04 0.00000E+00
 -1       545 1.94045E-04 3.90177E-04 0.00000E+00
 -1       546 1.91818E-04 3.22749E-04 8.27181E-25
 -1       547 1.88675E-04 2.42472E-04-4.13590E-25
 -1       548 1.85562E-04 1.62573E-04 0.00000E+00
 -1       549 1.83407E-04 9.62845E-05-2.06795E-25
 -1       550 1.82359E-04 5.11706E-05 0.00000E+00
 -1       551 1.85974E-04-8.41851E-06 0.00000E+00
 -1       552 1.57567E-04-9.06915E-06 0.00000E+00
 -1       553 1.26870E-04-9.78162E-06 0.00000E+00
 -1       554 9.48409E-05-1.05348E-05 3.30872E-24
 -1       555 6.24402E-05-1.13014E-05 0.00000E+00
 -1       556 2.03499E-04 1.16962E-05 0.00000E+00
 -1       557 1.97314E-04 2.75600E-05-2.64698E-23
 -1       558 1.92459E-04 4.00295E-05 0.00000E+00
 -1       559 1.88801E-04 4.94128E-05 0.00000E+00
 -1       560 1.86212E-04 5.60185E-05 0.00000E+00
 -1       561 1.84564E-04 6.01576E-05 0.00000E+00
 -1       562 1.83734E-04 6.21427E-05 0.00000E+00
 -1       563 1.83597E-04 6.22870E-05 0.00000E+00
 -1       564 1.84033E-04 6.09047E-05 0.00000E+00
 -1       565 1.84922E-04 5.83107E-05 0.00000E+00
 -1       566 1.86144E-04 5.48204E-05 0.00000E+00
 -1       567 1.87583E-04 5.07498E-05 0.00000E+00
 -1       568 1.89119E-04 4.64147E-05 0.00000E+00
 -1       569 1.90637E-04 4.21313E-05 0.00000E+00
 -1       570 1.92018E-04 3.82155E-05 0.00000E+00
 -1       571 1.82256E-04 3.25985E-05 0.00000E+00
 -1       572 1.82355E-04 3.03773E-05 1.24077E-24
 -1       573 1.82454E-04 2.81073E-05 0.00000E+00
 -1       574 1.82553E-04 2.58047E-05 8.27181E-25
 -1       575 1.82653E-04 2.34860E-05-3.30872E-24
 -1       576 1.82753E-04 2.11676E-05 0.00000E+00
 -1       577 1.82852E-04 1.88658E-05-3.30872E-24
 -1       578 1.82952E-04 1.65972E-05 0.00000E+00
 -1       579 1.83052E-04 1.43781E-05 0.00000E+00
 -1       580 1.83152E-04 1.22250E-05-6.61744E-24
 -1       581 1.83252E-04 1.01544E-05 0.00000E+00
 -1       582 1.83352E-04 8.18268E-06 0.00000E+00
 -1       583 1.83453E-04 6.32621E-06 0.00000E+00
 -1       584 1.83554E-04 4.60127E-06 3.30872E-24
 -1       585 1.83654E-04 3.02393E-06 0.00000E+00
 -1       586 1.83950E-04 3.47948E-05 0.00000E+00
 -1       587 1.85701E-04 3.48337E-05-8.27181E-25
 -1       588 1.87454E-04 3.48722E-05 0.00000E+00
 -1       589 1.89251E-04 3.49100E-05 0.00000E+00
 -1       590 1.91135E-04 3.49465E-05 0.00000E+00
 -1       591 1.82899E-04 3.26927E-05-2.06795E-25
 -1       592 1.83642E-04 3.06122E-05 0.00000E+00
 -1       593 1.84389E-04 2.85196E-05 0.00000E+00
 -1       594 1.85139E-04 2.64191E-05-4.13590E-25
 -1       595 1.85889E-04 2.43155E-05 8.27181E-25
 -1       596 1.86639E-04 2.22130E-05 0.00000E+00
 -1       597 1.87387E-04 2.01160E-05 0.00000E+00
 -1       598 1.88131E-04 1.80292E-05 0.00000E+00
 -1       599 1.88870E-04 1.59568E-05 0.00000E+00
 -1       600 1.89602E-04 1.39033E-05 0.00000E+00
 -1       601 1.90325E-04 1.18731E-05 0.00000E+00
 -1       602 1.91038E-04 9.87061E-06 4.13590E-25
 -1       603 1.91739E-04 7.90032E-06 4.13590E-25
 -1       604 1.92427E-04 5.96674E-06-1.03398E-25
 -1       605 1.93099E-04 4.07420E-06 0.00000E+00
 -1       606 1.83768E-04 4.26144E-07-3.30872E-24
 -1       607 1.83778E-04-6.71796E-07 0.00000E+00
 -1       608 1.83786E-04-1.68989E-06 0.00000E+00
 -1       609 1.83795E-04-2.63376E-06 0.00000E+00
 -1       610 1.83803E-04-3.50908E-06 3.30872E-24
 -1       611 1.83811E-04-4.32156E-06 0.00000E+00
 -1       612 1.83819E-04-5.07693E-06 0.00000E+00
 -1       613 1.83828E-04-5.78096E-06 0.00000E+00
 -1       614 1.83836E-04-6.43937E-06 0.00000E+00
 -1       615 1.83844E-04-7.05790E-06 0.00000E+00
 -1       616 1.83852E-04-7.64231E-06 1.65436E-24
 -1       617 1.83861E-04-8.19832E-06 0.00000E+00
 -1       618 1.83869E-04-8.73169E-06 0.00000E+00
 -1       619 1.83877E-04-9.24816E-06 0.00000E+00
 -1       620 1.83885E-04-9.75347E-06 0.00000E+00
 -1       621 1.85133E-04 1.71272E-06-1.65436E-24
 -1       622 1.86671E-04 1.81676E-06 1.65436E-24
 -1       623 1.88337E-04 1.92059E-06 3.30872E-24
 -1       624 1.90096E-04 2.02409E-06 0.00000E+00
 -1       625 1.91915E-04 2.12729E-06 0.00000E+00
 -1       626 1.84311E-04 4.62434E-07 0.00000E+00
 -1       627 1.84844E-04-6.22001E-07 0.00000E+00
 -1       628 1.85358E-04-1.65221E-06 0.00000E+00
 -1       629 1.85854E-04-2.63631E-06 0.00000E+00
 -1       630 1.86336E-04-3.58246E-06-3.30872E-24
 -1       631 1.86807E-04-4.49879E-06 0.00000E+00
 -1       632 1.87270E-04-5.39348E-06-3.30872E-24
 -1       633 1.87728E-04-6.27468E-06 0.00000E+00
 -1       634 1.88184E-04-7.15056E-06 3.30872E-24
 -1       635 1.88641E-04-8.02927E-06 0.00000E+00
 -1       636 1.89102E-04-8.91899E-06 0.00000E+00
 -1       637 1.89570E-04-9.82786E-06 0.00000E+00
 -1       638 1.90048E-04-1.07641E-05-3.30872E-24
 -1       639 1.90539E-04-1.17358E-05 0.00000E+00
 -1       640 1.91046E-04-1.27512E-05 1.65436E-24
 -1       656 1.84625E-04-1.08328E-05-6.61744E-24
 -1       657 1.85774E-04-1.14358E-05 6.61744E-24
 -1       658 1.87205E-04-1.20374E-05 0.00000E+00
 -1       659 1.88770E-04-1.26387E-05 0.00000E+00
 -1       660 1.90286E-04-1.32418E-05 0.00000E+00
 -1       661 1.84166E-04-1.07987E-05 8.27181E-25
 -1       662 1.84478E-04-1.14366E-05 8.27181E-25
 -1       663 1.84822E-04-1.21616E-05 0.00000E+00
 -1       664 1.85196E-04-1.29673E-05-8.27181E-25
 -1       665 1.85599E-04-1.38477E-05 0.00000E+00
 -1       666 1.86027E-04-1.47968E-05 0.00000E+00
 -1       667 1.86479E-04-1.58088E-05-1.65436E-24
 -1       668 1.86953E-04-1.68782E-05-8.27181E-25
 -1       669 1.87445E-04-1.79993E-05 0.00000E+00
 -1       670 1.87955E-04-1.91669E-05 0.00000E+00
 -1       671 1.88481E-04-2.03755E-05-1.65436E-24
 -1       672 1.89019E-04-2.16201E-05-8.27181E-25
 -1       673 1.89570E-04-2.28954E-05 1.65436E-24
 -1       674 1.90128E-04-2.41968E-05-4.13590E-25
 -1       675 1.90695E-04-2.55188E-05 0.00000E+00
 -1       676 1.84379E-04-2.63407E-05 0.00000E+00
 -1       677 1.85761E-04-2.64449E-05 0.00000E+00
 -1       678 1.87141E-04-2.65491E-05 0.00000E+00
 -1       679 1.88519E-04-2.66529E-05-1.65436E-24
 -1       680 1.89893E-04-2.67568E-05 0.00000E+00
 -1       771 1.87013E-05 1.45790E-05 0.00000E+00
 -1       772 8.67087E-06 3.64710E-05 0.00000E+00
 -1       773 4.40687E-07 5.38311E-05 0.00000E+00
 -1       774-6.11315E-06 6.69166E-05 2.64698E-23
 -1       775-1.11119E-05 7.59948E-05 5.29396E-23
 -1       776-1.46816E-05 8.13502E-05 0.00000E+00
 -1       777-1.69482E-05 8.32770E-05-5.29396E-23
 -1       778-1.80402E-05 8.20833E-05-2.64698E-23
 -1       779-1.80855E-05 7.80858E-05 5.29396E-23
 -1       780-1.72139E-05 7.16123E-05 2.64698E-23
 -1       781-1.55545E-05 6.29977E-05 0.00000E+00
 -1       782-1.32377E-05 5.25854E-05 0.00000E+00
 -1       783-1.03932E-05 4.07237E-05-5.29396E-23
 -1       784-7.15183E-06 2.77669E-05 0.00000E+00
 -1       785-3.64354E-06 1.40724E-05 5.29396E-23
 -1       786 1.93181E-04 3.27014E-05 0.00000E+00
 -1       787 1.93219E-04 3.04736E-05 2.06795E-25
 -1       788 1.93256E-04 2.82877E-05-8.27181E-25
 -1       789 1.93294E-04 2.61360E-05 0.00000E+00
 -1       790 1.93333E-04 2.40140E-05 0.00000E+00
 -1       791 1.93371E-04 2.19171E-05 0.00000E+00
 -1       792 1.93410E-04 1.98429E-05 0.00000E+00
 -1       793 1.93448E-04 1.77894E-05 8.27181E-25
 -1       794 1.93487E-04 1.57562E-05 1.65436E-24
 -1       795 1.93525E-04 1.37429E-05-8.27181E-25
 -1       796 1.93564E-04 1.17513E-05 0.00000E+00
 -1       797 1.93603E-04 9.78289E-06-8.27181E-25
 -1       798 1.93642E-04 7.84143E-06-1.65436E-24
 -1       799 1.93681E-04 5.93075E-06 8.27181E-25
 -1       800 1.93720E-04 4.05746E-06 1.65436E-24
 -1       801 1.47121E-04 3.14521E-05 0.00000E+00
 -1       802 7.97280E-06 1.96279E-05-2.64698E-23
 -1       803-1.10667E-04 9.94349E-06 0.00000E+00
 -1       804-9.76526E-05 6.92669E-06-2.64698E-23
 -1       805-3.21562E-05 2.70856E-06 5.29396E-23
 -1       806 1.93885E-04 3.26332E-05-3.30872E-24
 -1       807 1.94609E-04 3.03142E-05 1.65436E-24
 -1       808 1.95320E-04 2.80274E-05 0.00000E+00
 -1       809 1.96017E-04 2.57766E-05 1.65436E-24
 -1       810 1.96700E-04 2.35658E-05 0.00000E+00
 -1       811 1.97365E-04 2.13989E-05 0.00000E+00
 -1       812 1.98013E-04 1.92797E-05-3.30872E-24
 -1       813 1.98642E-04 1.72121E-05 1.65436E-24
 -1       814 1.99250E-04 1.51998E-05-3.30872E-24
 -1       815 1.99836E-04 1.32467E-05 0.00000E+00
 -1       816 2.00399E-04 1.13566E-05 3.30872E-24
 -1       817 2.00936E-04 9.53328E-06 8.27181E-25
 -1       818 2.01448E-04 7.78051E-06 0.00000E+00
 -1       819 2.01931E-04 6.10211E-06 1.65436E-24
 -1       820 2.02386E-04 4.50181E-06 0.00000E+00
 -1       821 1.93630E-04-1.23404E-07 0.00000E+00
 -1       822 1.93491E-04-3.55901E-06 0.00000E+00
 -1       823 1.93350E-04-7.67083E-06 0.00000E+00
 -1       824 1.93206E-04-1.20469E-05 0.00000E+00
 -1       825 1.93062E-04-1.62043E-05 0.00000E+00
 -1       826 1.92922E-04-1.96609E-05 0.00000E+00
 -1       827 1.92783E-04-2.21252E-05 0.00000E+00
 -1       828 1.92647E-04-2.33118E-05 0.00000E+00
 -1       829 1.92512E-04-2.32820E-05 0.00000E+00
 -1       830 1.92376E-04-2.21045E-05-1.65436E-24
 -1       831 1.92239E-04-2.01594E-05 3.30872E-24
 -1       832 1.92102E-04-1.78319E-05-1.65436E-24
 -1       833 1.91965E-04-1.56108E-05 0.00000E+00
 -1       834 1.91830E-04-1.39843E-05 1.65436E-24
 -1       835 1.91696E-04-1.32796E-05 0.00000E+00
 -1       836 1.95478E-04 2.35350E-06-3.30872E-24
 -1       837 1.97074E-04 2.48185E-06-1.65436E-24
 -1       838 1.98576E-04 2.61014E-06 0.00000E+00
 -1       839 2.00013E-04 2.73773E-06 0.00000E+00
 -1       840 2.01416E-04 2.86516E-06-8.27181E-25
 -1       856 1.91555E-04-1.49085E-05-8.27181E-25
 -1       857 1.91536E-04-1.58629E-05 0.00000E+00
 -1       858 1.91517E-04-1.67027E-05 2.06795E-25
 -1       859 1.91498E-04-1.74492E-05 0.00000E+00
 -1       860 1.91479E-04-1.81235E-05 4.13590E-25
 -1       861 1.91460E-04-1.87469E-05-2.06795E-25
 -1       862 1.91441E-04-1.93406E-05 0.00000E+00
 -1       863 1.91421E-04-1.99260E-05-2.06795E-25
 -1       864 1.91402E-04-2.05242E-05 0.00000E+00
 -1       865 1.91383E-04-2.11568E-05 0.00000E+00
 -1       866 1.91363E-04-2.18448E-05 8.27181E-25
 -1       867 1.91344E-04-2.26095E-05 0.00000E+00
 -1       868 1.91325E-04-2.34722E-05-8.27181E-25
 -1       869 1.91305E-04-2.44539E-05 0.00000E+00
 -1       870 1.91285E-04-2.55757E-05-8.27181E-25
 -1       871 1.92949E-04-1.38235E-05 0.00000E+00
 -1       872 1.94475E-04-1.38320E-05 0.00000E+00
 -1       873 1.96080E-04-1.38411E-05 0.00000E+00
 -1       874 1.97697E-04-1.38510E-05-4.13590E-25
 -1       875 1.99256E-04-1.38614E-05-1.24077E-24
 -1       876 1.92106E-04-1.48938E-05 0.00000E+00
 -1       877 1.92620E-04-1.59024E-05 1.65436E-24
 -1       878 1.93112E-04-1.68522E-05-3.30872E-24
 -1       879 1.93585E-04-1.77507E-05-1.65436E-24
 -1       880 1.94042E-04-1.86051E-05-3.30872E-24
 -1       881 1.94485E-04-1.94229E-05-1.65436E-24
 -1       882 1.94918E-04-2.02114E-05 0.00000E+00
 -1       883 1.95342E-04-2.09779E-05 0.00000E+00
 -1       884 1.95760E-04-2.17298E-05 0.00000E+00
 -1       885 1.96176E-04-2.24743E-05 0.00000E+00
 -1       886 1.96592E-04-2.32189E-05 3.30872E-24
 -1       887 1.97010E-04-2.39708E-05 0.00000E+00
 -1       888 1.97434E-04-2.47374E-05-3.30872E-24
 -1       889 1.97865E-04-2.55262E-05 0.00000E+00
 -1       890 1.98306E-04-2.63444E-05 0.00000E+00
 -1       891 1.92654E-04-2.69160E-05 0.00000E+00
 -1       892 1.94021E-04-2.69738E-05 0.00000E+00
 -1       893 1.95340E-04-2.70315E-05 8.27181E-25
 -1       894 1.96585E-04-2.70889E-05-4.13590E-25
 -1       895 1.97732E-04-2.71460E-05 8.27181E-25
 -1       956 2.02682E-04 1.63924E-06 1.65436E-24
 -1       957 2.02550E-04 3.86753E-07-8.27181E-25
 -1       958 2.02417E-04-7.84938E-07-3.30872E-24
 -1       959 2.02283E-04-1.88722E-06 0.00000E+00
 -1       960 2.02150E-04-2.93152E-06 0.00000E+00
 -1       961 2.02017E-04-3.92932E-06 0.00000E+00
 -1       962 2.01884E-04-4.89207E-06 0.00000E+00
 -1       963 2.01751E-04-5.83128E-06 0.00000E+00
 -1       964 2.01618E-04-6.75844E-06-3.30872E-24
 -1       965 2.01485E-04-7.68504E-06-1.65436E-24
 -1       966 2.01352E-04-8.62258E-06 0.00000E+00
 -1       967 2.01219E-04-9.58254E-06 0.00000E+00
 -1       968 2.01086E-04-1.05764E-05 0.00000E+00
 -1       969 2.00953E-04-1.16156E-05 3.30872E-24
 -1       970 2.00821E-04-1.27116E-05 3.30872E-24
 -1       971 2.00570E-04-1.50392E-05-3.30872E-24
 -1       972 2.00449E-04-1.61087E-05 0.00000E+00
 -1       973 2.00327E-04-1.70942E-05 3.30872E-24
 -1       974 2.00206E-04-1.80066E-05-1.65436E-24
 -1       975 2.00084E-04-1.88567E-05 0.00000E+00
 -1       976 1.99962E-04-1.96552E-05-1.65436E-24
 -1       977 1.99841E-04-2.04132E-05-3.30872E-24
 -1       978 1.99719E-04-2.11414E-05 1.65436E-24
 -1       979 1.99598E-04-2.18507E-05-3.30872E-24
 -1       980 1.99476E-04-2.25520E-05 1.65436E-24
 -1       981 1.99355E-04-2.32562E-05-3.30872E-24
 -1       982 1.99234E-04-2.39742E-05-1.65436E-24
 -1       983 1.99112E-04-2.47169E-05 0.00000E+00
 -1       984 1.98992E-04-2.54951E-05 0.00000E+00
 -1       985 1.98871E-04-2.63197E-05 0.00000E+00
 -3
    1PSTEP                        36          18           1          
  100CL  118 6.62673E-01         409                     0   18           1
 -4  STRESS      6    1
 -5  SXX         1    4    1    1
 -5  SYY         1    4    2    2
 -5  SZZ         1    4    3    3
 -5  SXY         1    4    1    2
 -5  SYZ         1    4    2    3
 -5  SZX         1    4    3    1
 -1         1-5.26790E+06-1.67000E+06-1.12703E+06-1.46785E+06 1.45519E-10-2.30153E-07
 -1         2 1.23570E+06 1.82025E+07 4.33534E+06 5.46593E+06 2.38651E-08 3.17013E-07
 -1         3-1.48870E+03-1.58002E+06 4.10637E+02-2.24291E+03-3.41927E-10-7.32107E-08
 -1         5-7.74315E+01 3.85674E+05 9.90753E+00-1.35705E+00-4.81825E-10-2.25118E-08
 -1         8-6.06784E+05-2.12985E+05-7.01816E+04-2.56295E+05 1.79170E-10 6.83212E-08
 -1         9 1.14241E+07 3.16763E+06 2.60605E+06-4.82515E+05-8.95234E-09-2.51690E-08
 -1        10-2.31057E+03-1.64652E+06-3.97431E+03-1.51728E+04-1.27711E-08-1.70637E-08
 -1        12-7.35483E+01 3.85695E+05 3.25874E+02-9.24953E+00-7.85539E-10 1.85055E-08
 -1        15 9.82551E+02 5.39960E+02 3.17607E+03 9.58584E-01 1.35557E-10 2.60707E-07
 -1        16 2.25985E+07-2.94379E+05 3.08772E+06-2.15680E+06 2.51263E-08-9.53053E-08
 -1        17 8.32332E+06 6.19677E+06 2.24954E+06 5.91228E+06 1.84402E-08 1.02445E-09
 -1        18 2.24149E+05 5.40075E+04 2.45937E+04-1.07561E+05 1.63789E-08-3.98904E-09
 -1        19 1.22612E+05 1.41506E+05-9.52162E+02 2.21144E+04 1.70767E-09 2.33667E-09
 -1        20-8.28797E+04-5.74952E+05-1.29066E+05 2.47948E+04-1.70864E-09 6.68964E-09
 -1        21-4.54632E+01-2.95882E+05-9.22704E+02 2.80601E+02 1.28810E-08 2.10793E-08
 -1        24 1.37693E+07 1.18657E+07 3.81859E+06 1.09920E+07-1.72304E-07-5.32600E-08
 -1        25 1.21835E+05 2.74391E+05 1.01445E+05-6.52262E+05-1.09112E-09 1.96906E-09
 -1        26-5.75520E+04 9.18773E+04-2.52308E+04 2.02719E+03-1.48793E-10 4.31752E-09
 -1        27-7.50835E+04-3.10433E+05-1.13391E+05 6.90801E+04 2.76441E-09 6.72965E-09
 -1        28 2.22183E+04-8.54069E+04 1.68963E+04 2.04489E+04-4.49194E-09-1.27575E-09
 -1        32-1.68059E+06-3.18353E+06-1.98302E+05 4.75432E+05-4.26444E-08-7.35679E-09
 -1        33-1.79049E+05 9.32293E+04 3.24681E+04-3.77301E+04-3.28354E-09-1.21551E-08
 -1        34-2.23927E+05-2.51100E+04 6.95457E+02 7.59162E+04-6.22887E-09-8.57350E-10
 -1        35-2.29117E+04-3.38701E+04-1.34976E+03 5.14746E+04-1.59165E-09-6.18214E-09
 -1        51 5.95096E+04-1.78647E+05 1.26131E+05-4.66862E+05 8.73115E-11 2.07328E-07
 -1        52 2.02847E+04-1.56796E+05 6.63834E+04-5.44457E+05 2.47383E-10-2.59133E-08
 -1        53 4.30488E+03-1.72202E+05 3.48958E+04-4.65237E+05 3.96540E-10-1.05581E-07
 -1        54 7.90871E+03-1.68024E+05 2.93287E+04-5.46068E+05 2.21917E-10-2.26537E-07
 -1        55 1.71688E+04-1.75386E+05 3.64439E+04-4.65115E+05 4.40195E-10 4.77667E-09
 -1        56-9.63032E+06-1.25255E+06-8.69818E+05-3.94128E+06 7.74162E-09-2.98111E-07
 -1        57-1.07146E+07-1.09027E+06-5.53927E+05-2.93543E+06 2.24099E-09-2.82795E-07
 -1        58-9.57810E+06-1.65936E+06-1.97208E+05-4.05920E+06-1.23691E-09-1.00117E-07
 -1        59-1.07264E+07-6.41000E+05-1.12127E+05-2.89223E+06-3.23398E-08 7.05768E-08
 -1        60-9.65278E+06-1.66709E+06-5.18370E+04-4.01666E+06 1.74186E-08-1.87723E-07
 -1        61-1.03109E+07-8.61341E+05-4.69188E+03-3.10644E+06-1.77824E-08 1.85719E-08
 -1        62-9.92378E+06-1.48548E+06-4.43750E+04-3.79159E+06-3.02171E-08-2.27305E-07
 -1        63-9.72882E+06-1.34801E+06 2.19992E+04-3.61580E+06-1.95869E-08-1.26787E-07
 -1        64-1.01832E+07-1.21682E+06-4.05688E+04-3.47351E+06 8.78936E-09-2.31033E-07
 -1        65-9.41499E+06-1.78028E+06-5.41338E+03-4.21725E+06-2.62044E-08-5.73964E-08
 -1        66-1.03007E+07-1.00953E+06-4.40259E+04-3.23710E+06 2.59679E-08-8.77553E-08
 -1        67-9.37801E+06-1.98462E+06-1.01169E+05-4.49424E+06-6.74681E-08-5.48789E-08
 -1        68-1.02821E+07-9.70199E+05-1.80637E+05-3.23647E+06-4.51964E-08-2.48838E-08
 -1        69-9.60299E+06-2.12003E+06-4.95836E+05-4.18425E+06-5.52870E-08 6.30098E-09
 -1        70-1.00218E+07-9.22552E+05-7.92418E+05-3.50786E+06 2.79579E-08 6.86850E-08
 -1        86-1.25949E+06-1.37516E+07-2.36970E+06-2.57844E+06-2.57038E-07 8.31205E-08
 -1        87 1.93911E+06 5.00709E+06 1.97204E+06 4.95728E+06-4.36165E-07 3.42552E-08
 -1        88-3.44438E+05-2.15882E+06 1.80864E+05-2.31585E+06-3.73766E-07-1.07623E-07
 -1        89 2.60166E+06 4.77927E+06 2.01648E+06 5.10868E+06-5.36129E-07-4.78147E-07
 -1        90-1.85047E+06-1.35837E+07-2.56806E+06-2.74998E+06-1.33416E-07-3.24071E-08
 -1       121-2.03996E+03-1.58493E+06-5.42215E+02 1.11181E+03 1.50335E-09-2.28974E-08
 -1       122-1.30026E+03-1.58009E+06 7.80183E+02-4.48946E+03-5.60483E-09-3.73257E-09
 -1       123-2.06001E+03-1.58507E+06 2.79099E+02 3.32024E+03 4.29657E-09-2.66300E-08
 -1       124 3.59122E+02-1.57963E+06 2.99457E+03-9.38643E+03-1.01513E-08-2.15132E-08
 -1       125-2.88031E+03-1.58598E+06 3.53140E+03 5.96296E+03 6.80302E-09-1.14233E-08
 -1       191-8.15862E+01 3.85691E+05 8.28614E+00 7.08507E-01-5.79937E-10-1.27329E-11
 -1       192-7.83898E+01 3.85674E+05 2.11492E+01-4.35586E+00-6.87824E-10-1.41627E-08
 -1       193-8.41078E+01 3.85691E+05 3.58729E+01 3.83081E+00-1.01167E-09-1.21108E-08
 -1       194-8.14618E+01 3.85677E+05 8.04163E+01-9.88754E+00-6.24465E-10-1.43627E-08
 -1       195-8.89476E+01 3.85688E+05 1.53826E+02 6.44111E+00-1.56599E-09-4.70936E-09
 -1       251-9.63618E+05 1.89248E+04-4.43928E+04-1.62707E+04 6.86083E-09-2.11356E-07
 -1       252-9.81491E+05-2.18331E+04-3.10562E+04 5.54199E+04-1.44059E-08-1.82002E-07
 -1       253-9.72215E+05 2.95975E+03-1.17069E+04-1.38318E+04-1.70758E-10 2.87632E-08
 -1       254-9.67252E+05-3.43982E+03-5.84966E+03 4.24843E+04 5.75858E-09-6.96241E-08
 -1       255-9.77283E+05 1.62062E+02-3.90588E+03-3.33633E+03 5.74255E-09 1.11020E-07
 -1       256-9.60161E+05-3.61069E+02 9.43470E+02 1.72022E+04-5.72390E-09 1.49634E-07
 -1       257-9.78724E+05-5.54149E+02-1.65409E+03 1.14403E+04-8.24002E-10-5.21572E-08
 -1       258-9.62022E+05 8.26192E+02 2.75687E+03-1.12323E+04-1.29984E-08 6.74565E-08
 -1       259-9.75584E+05-8.98813E+02 1.05673E+03 2.50928E+04 4.38604E-10 7.46014E-08
 -1       260-9.68980E+05 2.76935E+03 5.26739E+03-3.24747E+04 6.43860E-09-4.38372E-07
 -1       261-9.72452E+05-1.96469E+03 7.94416E+03 3.26975E+04 1.41480E-08-2.01409E-07
 -1       262-9.68468E+05 1.09544E+04 1.98130E+04-3.89288E+04-2.00232E-08 3.57845E-07
 -1       263-9.76393E+05-8.82106E+03 3.13126E+04 3.15569E+04 1.19360E-08 6.04723E-08
 -1       264-9.39473E+05 6.18021E+04 8.69957E+04-2.82264E+04 1.73411E-08 2.92675E-08
 -1       265-1.00090E+06-5.30023E+04 1.20650E+05 2.19822E+04 9.31936E-09-8.69404E-08
 -1       266-1.77877E+04-8.31828E+03 4.17313E+04-2.05093E+01-1.36424E-10 1.02243E-07
 -1       267 2.06206E+04 9.69394E+03 2.94969E+04 2.36654E+01-2.13731E-11-6.45545E-08
 -1       268-2.76519E+03-1.37300E+03 1.09638E+04-3.01529E+00 0.00000E+00 9.51336E-08
 -1       269 3.26486E+03 1.64311E+03 7.12636E+03 3.51247E+00 1.10958E-10-1.05633E-07
 -1       270-4.90060E+02-2.69979E+02 3.44000E+03-4.76662E-01-1.88265E-10-3.09683E-07
 -1       271-1.57019E+06-1.97657E+05-1.17721E+05-6.09356E+05 4.28081E-08 1.86883E-07
 -1       272-1.58067E+06-3.06509E+05-7.44954E+04-6.36411E+05-3.64817E-08 1.06904E-07
 -1       273-1.59462E+06-2.23649E+05-2.83364E+04-6.01406E+05-1.00772E-09 4.60550E-08
 -1       274-1.55214E+06-2.75416E+05-1.50674E+04-6.50766E+05 4.46471E-08-4.28463E-07
 -1       275-1.60013E+06-2.23823E+05-6.94163E+03-5.97814E+05 5.05097E-08-1.22951E-07
 -1       276-1.54593E+06-2.75913E+05-3.11371E+03-6.58542E+05-5.48798E-08 5.18066E-08
 -1       277-1.60282E+06-2.21503E+05-1.89505E+03-5.95201E+05-2.19916E-09 1.41854E-08
 -1       278-1.54332E+06-2.79044E+05-8.37271E+02-6.64300E+05 3.16086E-08-7.94239E-08
 -1       279-1.60455E+06-2.19514E+05-9.66627E+02-5.93323E+05-4.32774E-08 1.55824E-07
 -1       280-1.54199E+06-2.81542E+05-1.23911E+03-6.68209E+05 3.78750E-08 1.38027E-07
 -1       281-1.60550E+06-2.18159E+05-2.28243E+03-5.92210E+05-3.41852E-08-6.53595E-08
 -1       282-1.54234E+06-2.84172E+05-5.32883E+03-6.69967E+05-2.13347E-08 2.44307E-07
 -1       283-1.60492E+06-2.16571E+05-9.47703E+03-5.91998E+05-1.52340E-11 3.08605E-07
 -1       284-1.55069E+06-2.96937E+05-2.58345E+04-6.67833E+05-3.20686E-08-1.90605E-07
 -1       285-1.59730E+06-2.06713E+05-4.02286E+04-5.93858E+05-1.60680E-08 2.19152E-08
 -1       301-1.63030E+03-6.30063E+05 1.67927E+05-1.10114E+06 4.16185E-09-5.58794E-08
 -1       302-2.13458E+03-5.84511E+05 1.01113E+05-1.60794E+06 9.86620E-09-8.39937E-08
 -1       303-1.74246E+04-6.21085E+05 5.76304E+04-1.09820E+06 2.19734E-09-1.35884E-07
 -1       304-1.80807E+04-5.90342E+05 5.88798E+04-1.60724E+06-2.11003E-09 5.60176E-08
 -1       305-2.10876E+04-6.10495E+05 7.35381E+04-1.10130E+06 9.63701E-09-5.22705E-08
 -1       306-2.99965E+07-6.19342E+06-8.56228E+06-5.91999E+05-7.14790E-08 2.00234E-08
 -1       307 2.53445E+07 3.17469E+06 5.49644E+06-1.50259E+07-8.46630E-07-1.56229E-07
 -1       308-7.07453E+06-1.02870E+06-4.78472E+05 5.18163E+06-2.31346E-07 1.65455E-08
 -1       309-3.33486E+06 8.64725E+06 2.25439E+06-2.05566E+07 2.30568E-07 4.26662E-07
 -1       310-1.23944E+07-1.89470E+06-1.97481E+06 5.18447E+06 3.17232E-08-2.92639E-07
 -1       311 3.77493E+07 2.66687E+04 7.17637E+06-8.93057E+06 5.81786E-07-2.75613E-08
 -1       312-3.16952E+07-6.66580E+06-8.44105E+06-4.89656E+06 1.85100E-08-2.01690E-08
 -1       313 4.52364E+07 1.46179E+07 1.05781E+07 2.34022E+07-2.44909E-07-3.46627E-08
 -1       314-1.73025E+07-1.75434E+07-7.47695E+06-1.24758E+07 4.22588E-07 8.17236E-08
 -1       315-1.65292E+06 2.94116E+07 5.64553E+06 1.06838E+07-3.23300E-07 1.82248E-07
 -1       316 1.31131E+06-9.83641E+06-4.59418E+05-2.62326E+06-1.18688E-06-2.29746E-07
 -1       317-1.71560E+07 2.22930E+07 2.21163E+06-8.61889E+06 6.04079E-07-6.51846E-07
 -1       318-1.06249E+06-1.26215E+07-1.99283E+06-4.24906E+06-8.68778E-07 1.97440E-07
 -1       319 7.02406E+06 3.15380E+07 6.94486E+06 1.64094E+07-6.31480E-08 2.21306E-07
 -1       320-2.24327E+07-1.74553E+07-9.75190E+06-1.27075E+07 1.77417E-07-6.72881E-08
 -1       336-7.21519E+02-1.71575E+06-1.39636E+04 9.04050E+03-2.65009E-08-4.02360E-09
 -1       337-5.43366E+03-1.71536E+06-1.81974E+04-2.19414E+04-5.03369E-08-1.80626E-09
 -1       338 2.96313E+02-1.71524E+06-2.86138E+04 1.26508E+04-3.41988E-08-8.36735E-10
 -1       339-3.03392E+04-1.73269E+06-6.46697E+04-2.90075E+04-6.27915E-08 1.46792E-08
 -1       340 2.00203E+04-1.70063E+06-1.01850E+05 1.59762E+04-4.21096E-08 2.89547E-08
 -1       406-5.21248E+01 3.85674E+05 6.39712E+02 3.38384E+00-1.92736E-09-5.50426E-09
 -1       407 1.51175E+02 3.85808E+05 1.36740E+03 2.37920E+01-2.03954E-10-1.49494E-08
 -1       408 6.27914E+02 3.85574E+05 2.72632E+03-2.74746E+01-2.50134E-09 2.71939E-09
 -1       409 2.88505E+03 3.86678E+05 6.14518E+03 2.93291E+02-4.32351E-10 8.78208E-09
 -1       410 8.42080E+03 3.84789E+05 1.25419E+04-2.82675E+02-3.12502E-09 3.21961E-09
 -1       521-3.15020E+07-7.62798E+06-9.98391E+06-2.05703E+05-6.77537E-08-1.51806E-07
 -1       522 2.61552E+07 4.15576E+06 5.59109E+06-1.84840E+07-5.11063E-07-1.83936E-07
 -1       523-7.66076E+06-1.33594E+06-4.71154E+05 5.62218E+06 8.26549E-09-3.45462E-07
 -1       524-6.81711E+06 1.16404E+07 2.43339E+06-2.35814E+07 7.97125E-07-4.30078E-07
 -1       525-1.31974E+07-2.51005E+06-2.16705E+06 5.62471E+06 5.12693E-07-1.63622E-07
 -1       526 4.11073E+07-5.54919E+04 7.52096E+06-1.15623E+07 1.99594E-07-3.40806E-07
 -1       527-3.34927E+07-8.33467E+06-9.71157E+06-4.75500E+06-1.29919E-07 3.35247E-07
 -1       528 4.93212E+07 1.62290E+07 1.10155E+07 2.65525E+07-5.76256E-09 1.73255E-07
 -1       529-1.82367E+07-1.97009E+07-8.55703E+06-1.25035E+07 1.36381E-07-1.65543E-07
 -1       530-4.12249E+06 3.41012E+07 5.96295E+06 1.01914E+07-6.42758E-08 4.20958E-07
 -1       531 1.29937E+06-1.09057E+07-4.34490E+05-2.59221E+06-6.52202E-07 2.57744E-07
 -1       532-1.97154E+07 2.42997E+07 2.41181E+06-1.28210E+07 6.08838E-07-6.09296E-07
 -1       533-1.11054E+06-1.37532E+07-2.11567E+06-4.08033E+06-3.04426E-07-1.07533E-06
 -1       534 4.99951E+06 3.65265E+07 7.21494E+06 1.69505E+07-1.26049E-07 7.69971E-07
 -1       535-2.35843E+07-1.97921E+07-1.11591E+07-1.27656E+07 1.02445E-07 4.66302E-07
 -1       536-4.64328E+05-5.67445E+04-2.64817E+04-2.72606E+04-6.49706E-09 6.16292E-08
 -1       537 2.73815E+05 4.90373E+04 1.09878E+05 5.01217E+04-1.18380E-07 9.38385E-08
 -1       538-1.31290E+05 8.08258E+03 8.68481E+03-2.37125E+04 2.22673E-08 5.51354E-08
 -1       539 5.93404E+04-9.60605E+03 3.59770E+04 5.14382E+04 1.63963E-07 9.53749E-08
 -1       540-2.51327E+05 3.28280E+03-2.47237E+04-2.87379E+04 1.07424E-08 5.77534E-08
 -1       541 4.69845E+05 1.16583E+04 1.15718E+05 4.42563E+04-4.64238E-08 5.53159E-08
 -1       542-5.38746E+05-1.59801E+04-8.51689E+04-1.62685E+04 3.83294E-08 1.95439E-08
 -1       543 7.17570E+05 2.66776E+04 1.65920E+05-4.81374E+03 3.24201E-08 4.79713E-09
 -1       544-4.97238E+05-1.33604E+04-7.76995E+04 2.01358E+04 1.58390E-08-2.00189E-08
 -1       545 3.54004E+05 2.24869E+03 8.88901E+04-4.63779E+04 2.19210E-08-4.11401E-08
 -1       546-1.77833E+05 1.08206E+04-1.41473E+04 2.51926E+04 1.26241E-08-6.69788E-08
 -1       547 4.31304E+04-1.65185E+04 2.18579E+04-5.15424E+04-1.12635E-07-1.06318E-07
 -1       548-1.88690E+05 7.57537E+03-2.13481E+04 2.55085E+04-1.23968E-07-6.85052E-08
 -1       549 3.77602E+05 2.30095E+04 8.63299E+04-4.61536E+04-7.26617E-08-8.18734E-08
 -1       550-5.09864E+05-3.09786E+04-1.07407E+05 1.95891E+04 4.22142E-09-2.24454E-08
 -1       551 4.10361E+04-7.57272E+05-1.46662E+04-1.24693E+06-1.01310E-07 4.24916E-09
 -1       552 9.33379E+04-8.01909E+05 1.06352E+04-1.77806E+06-7.24831E-08 3.23926E-08
 -1       553 7.16850E+04-7.98348E+05 3.24965E+04-1.24031E+06-1.21188E-07 3.36004E-08
 -1       554 1.31924E+05-8.17556E+05 8.15697E+04-1.78000E+06-7.43312E-08 1.44391E-08
 -1       555 1.01395E+05-8.21870E+05 1.48764E+05-1.24016E+06-1.21698E-07-1.04301E-08
 -1       556 2.11454E+05-3.82345E+05 2.64924E+04-4.08583E+05-2.34286E-08-9.19681E-09
 -1       557 3.41270E+05-4.85992E+05 1.65062E+04-5.27971E+05-6.06815E-09 1.97288E-08
 -1       558 1.93467E+05-3.75381E+05 2.50446E+03-4.12812E+05-2.55241E-08-1.71713E-09
 -1       559 3.16426E+05-4.86233E+05 2.51737E+03-5.48244E+05 2.43745E-08 4.43833E-09
 -1       560 1.78316E+05-3.65877E+05-1.45847E+03-4.23720E+05 1.23982E-08 1.08776E-08
 -1       561 2.97380E+05-4.78625E+05 1.44513E+02-5.61246E+05 4.40923E-09-1.25037E-08
 -1       562 1.66319E+05-3.58421E+05-1.32032E+03-4.32404E+05 4.03088E-09 3.05954E-09
 -1       563 2.83125E+05-4.72414E+05-4.14765E+01-5.70570E+05 2.57569E-09-1.48120E-08
 -1       564 1.57738E+05-3.53073E+05-6.13289E+02-4.38482E+05 8.49832E-09 5.21595E-10
 -1       565 2.73640E+05-4.68286E+05 2.12075E+00-5.76638E+05 1.90339E-08 1.77533E-09
 -1       566 1.52696E+05-3.49882E+05-3.01379E+02-4.42007E+05 1.82627E-09-1.26238E-08
 -1       567 2.68980E+05-4.66267E+05-4.42714E+02-5.79472E+05 1.83281E-08 1.12268E-08
 -1       568 1.51288E+05-3.49018E+05-1.28039E+03-4.43085E+05 1.19235E-09 6.97037E-09
 -1       569 2.67696E+05-4.66262E+05-3.20785E+03-5.78118E+05-8.18545E-09 1.20199E-08
 -1       570 1.54637E+05-3.52317E+05-6.90192E+03-4.42028E+05 5.42059E-09 7.29779E-09
 -1       571 2.91216E+05 1.04072E+04 1.48343E+04-9.48152E+04 3.15413E-09 5.26461E-09
 -1       572 2.93365E+05 3.92891E+03 7.26997E+03-1.04027E+05 5.32646E-09 6.90397E-09
 -1       573 2.92071E+05 1.24143E+03 3.23032E+03-9.46421E+04 6.33281E-09 1.25729E-08
 -1       574 2.92282E+05 7.28716E+02 1.61999E+03-1.04248E+05 5.47084E-09-1.60953E-08
 -1       575 2.92165E+05 4.51193E+02 7.64650E+02-9.46184E+04-4.47305E-09-7.53880E-09
 -1       576 2.92149E+05 4.62766E+02 3.91612E+02-1.04277E+05-9.54424E-09 1.26047E-08
 -1       577 2.92206E+05 3.92776E+02 1.95691E+02-9.46151E+04-3.40606E-09 1.09812E-08
 -1       578 2.92181E+05 4.24123E+02 1.13496E+02-1.04282E+05-2.28056E-09-6.63022E-10
 -1       579 2.92279E+05 3.55458E+02 7.86717E+01-9.46148E+04 6.91762E-09 1.01772E-08
 -1       580 2.92284E+05 3.72656E+02 9.24470E+01-1.04277E+05-7.31961E-09 1.83654E-08
 -1       581 2.92393E+05 2.96720E+02 1.40692E+02-9.46207E+04 5.62432E-09 2.91820E-08
 -1       582 2.92460E+05 3.36265E+02 2.86664E+02-1.04215E+05 4.01997E-09 2.15905E-08
 -1       583 2.92533E+05 3.42743E+02 5.50852E+02-9.46773E+04 5.25688E-09-6.01835E-09
 -1       584 2.92840E+05 7.93176E+02 1.24652E+03-1.03738E+05 3.77258E-09-1.86355E-08
 -1       585 2.92555E+05 1.84419E+03 2.52472E+03-9.50971E+04-4.92037E-09 3.09228E-10
 -1       586-3.63435E+03 1.16175E+05-3.21620E+03-2.45467E+05-4.50655E-09 7.17250E-09
 -1       587-1.40882E+03 1.15884E+05 6.48967E+02-2.70156E+05-5.81531E-09-7.35383E-09
 -1       588 3.97389E+02 1.15711E+05 4.75533E+03-2.45333E+05-3.89991E-09 1.11049E-08
 -1       589 5.15006E+03 1.18199E+05 1.24550E+04-2.69928E+05-4.09091E-09 3.22070E-08
 -1       590 1.68129E+04 1.14345E+05 2.61763E+04-2.45757E+05-3.68482E-09 2.34995E-08
 -1       591-7.39901E+04-1.56381E+04-2.26073E+04-3.13129E+04-1.69848E-10-1.30149E-09
 -1       592-7.81911E+04-1.91109E+04-1.22459E+04-3.48385E+04-4.49906E-09-2.10219E-08
 -1       593-7.62495E+04-1.39993E+04-5.09734E+03-3.29722E+04 1.42171E-09-4.64888E-09
 -1       594-7.50713E+04-1.57918E+04-2.54216E+03-3.49546E+04 2.70035E-10 3.00864E-09
 -1       595-7.64217E+04-1.39940E+04-1.16703E+03-3.30476E+04 1.56560E-09 2.29882E-08
 -1       596-7.48576E+04-1.56400E+04-5.92900E+02-3.49290E+04 1.49647E-09 1.36979E-08
 -1       597-7.64433E+04-1.40096E+04-3.22090E+02-3.30504E+04 1.65420E-09-3.46927E-09
 -1       598-7.48365E+04-1.56340E+04-2.57520E+02-3.49218E+04-7.43717E-09 4.71459E-09
 -1       599-7.64421E+04-1.40101E+04-3.27202E+02-3.30501E+04 2.34991E-09-1.22795E-08
 -1       600-7.48575E+04-1.56405E+04-6.06443E+02-3.49268E+04-6.77687E-10 1.25222E-08
 -1       601-7.64176E+04-1.39956E+04-1.19564E+03-3.30467E+04 9.79298E-10-2.42267E-08
 -1       602-7.50764E+04-1.57948E+04-2.60540E+03-3.49492E+04-4.16958E-09-1.22890E-08
 -1       603-7.62384E+04-1.40038E+04-5.22469E+03-3.29704E+04 5.00449E-10 6.68479E-11
 -1       604-7.82924E+04-1.91764E+04-1.25509E+04-3.48048E+04 5.96970E-10 1.28896E-08
 -1       605-7.39023E+04-1.57018E+04-2.31705E+04-3.12897E+04-2.10889E-10 7.87441E-09
 -1       606 2.64201E+04-1.43506E+04-2.57265E+04 2.36972E+04 7.56518E-09 1.55228E-09
 -1       607 2.20244E+04-4.68673E+03-1.28117E+04 2.66313E+04 2.41471E-09-1.61231E-09
 -1       608 2.45302E+04-8.45256E+02-5.73532E+03 2.35311E+04-2.85036E-09-8.30755E-09
 -1       609 2.40502E+04-2.89710E+02-2.89735E+03 2.68429E+04 2.35013E-09 1.52315E-08
 -1       610 2.43169E+04-4.11360E+01-1.38230E+03 2.35113E+04 4.91309E-09 1.30128E-08
 -1       611 2.42418E+04-4.17137E+01-6.96932E+02 2.68657E+04 9.36598E-09-5.89080E-09
 -1       612 2.42703E+04-2.77378E+01-3.31220E+02 2.35093E+04-5.60249E-09-1.21654E-08
 -1       613 2.42539E+04-3.79247E+01-1.48293E+02 2.68684E+04-1.67652E-08-9.31777E-10
 -1       614 2.42485E+04-3.44420E+01-3.44283E+01 2.35086E+04-5.10590E-09 1.46026E-08
 -1       615 2.42491E+04-3.66742E+01 6.29871E+01 2.68688E+04-1.50203E-09 6.89420E-09
 -1       616 2.42314E+04-3.15090E+01 1.88110E+02 2.35089E+04-1.66392E-09-5.53632E-09
 -1       617 2.42721E+04 3.18915E+00 4.28878E+02 2.68683E+04-6.87805E-10-2.16662E-08
 -1       618 2.41944E+04 9.19571E+01 8.64362E+02 2.35092E+04-1.71849E-09-1.10870E-08
 -1       619 2.45774E+04 6.71370E+02 1.94092E+03 2.68677E+04-4.65377E-09 1.06434E-09
 -1       620 2.39075E+04 2.14143E+03 3.90117E+03 2.35108E+04-5.17844E-10 1.09289E-08
 -1       621 5.08058E+02 3.01213E+05 3.84827E+03 4.14283E+04 1.11459E-09-5.49335E-10
 -1       622 6.76143E+02 3.02099E+05 3.42143E+03 6.01421E+04 1.25692E-09-3.71074E-10
 -1       623 1.45496E+02 3.01403E+05 4.11843E+03 4.12404E+04 1.36492E-09 2.84372E-08
 -1       624 2.12228E+03 3.03311E+05 7.99026E+03 6.03276E+04 1.33599E-09 1.50983E-08
 -1       625 2.07204E+03 2.99816E+05 1.39653E+04 4.12366E+04 1.32650E-09 1.70653E-08
 -1       626 2.61733E+05 6.14129E+04 5.19276E+03 1.26843E+05-8.94943E-10-2.03245E-08
 -1       627 2.59441E+05 6.27718E+04 2.50233E+03 1.31111E+05 2.46700E-09 7.93432E-09
 -1       628 2.61860E+05 5.90398E+04 1.05834E+03 1.27730E+05-3.88809E-09 1.55942E-08
 -1       629 2.58800E+05 6.20786E+04 5.17938E+02 1.31351E+05-4.65661E-09 1.82505E-08
 -1       630 2.61875E+05 5.89249E+04 2.40320E+02 1.27768E+05-3.82170E-09-1.77388E-08
 -1       631 2.58733E+05 6.20518E+04 1.29324E+02 1.31353E+05 6.29552E-09 1.45161E-09
 -1       632 2.61872E+05 5.89287E+04 8.50806E+01 1.27764E+05 9.81709E-09 1.06245E-08
 -1       633 2.58725E+05 6.20534E+04 9.47691E+01 1.31349E+05 4.83351E-09 1.41465E-08
 -1       634 2.61868E+05 5.89257E+04 1.53135E+02 1.27763E+05-9.79810E-10 7.74230E-09
 -1       635 2.58740E+05 6.20516E+04 3.09855E+02 1.31355E+05-4.01553E-09-7.77936E-09
 -1       636 2.61859E+05 5.89198E+04 6.25753E+02 1.27763E+05 4.58272E-09 1.02168E-08
 -1       637 2.58876E+05 6.21489E+04 1.37592E+03 1.31355E+05 2.33740E-09 1.39062E-09
 -1       638 2.61810E+05 5.92237E+04 2.82697E+03 1.27626E+05 7.44558E-09 1.88629E-08
 -1       639 2.60361E+05 6.42141E+04 6.68878E+03 1.30917E+05 3.50747E-09-5.99539E-09
 -1       640 2.61605E+05 6.53915E+04 1.38804E+04 1.25028E+05 6.12499E-09-2.52401E-08
 -1       656 6.66907E+04-1.70727E+06-1.60988E+05-2.59681E+03 4.22006E-10 7.25123E-09
 -1       657-8.82298E+04-1.78002E+06-1.33377E+05 5.06997E+03 6.54836E-11 1.98676E-08
 -1       658 2.12623E+04-1.72793E+06-8.21529E+04-4.68103E+03 5.22277E-10-9.86847E-09
 -1       659-9.54324E+04-1.78344E+06-1.42842E+05 6.81067E+03-3.85626E-10-4.50365E-08
 -1       660 7.38772E+04-1.70386E+06-1.77262E+05-4.33750E+03-1.42609E-09-3.49323E-09
 -1       661 1.56806E+05 1.63868E+04 1.65885E+04 6.13052E+04 2.98814E-09 1.79562E-08
 -1       662 1.66210E+05 2.86463E+04 1.11796E+04 5.75541E+04-2.11543E-09 5.66990E-09
 -1       663 1.60064E+05 2.17088E+04 3.90988E+03 6.03596E+04 3.73234E-10 1.77442E-09
 -1       664 1.62432E+05 2.24228E+04 2.33897E+03 5.87092E+04-1.75373E-09 1.21781E-09
 -1       665 1.60559E+05 2.24356E+04 9.22712E+02 6.02152E+04 3.90457E-09 5.76168E-09
 -1       666 1.61847E+05 2.15917E+04 5.40188E+02 5.88975E+04 8.05073E-09 7.61198E-09
 -1       667 1.60645E+05 2.25182E+04 2.87207E+02 6.01791E+04 2.05335E-09 1.92325E-08
 -1       668 1.61751E+05 2.15323E+04 2.93286E+02 5.89500E+04-4.32350E-09-5.83334E-09
 -1       669 1.60653E+05 2.24933E+04 3.97604E+02 6.01630E+04-2.21962E-09 9.99935E-09
 -1       670 1.61848E+05 2.17482E+04 8.66278E+02 5.89527E+04-6.88539E-09-1.64488E-08
 -1       671 1.60548E+05 2.23068E+04 1.53831E+03 6.01743E+04-5.27656E-10-1.17160E-08
 -1       672 1.62745E+05 2.32446E+04 3.93587E+03 5.87352E+04-4.20869E-10-1.50897E-09
 -1       673 1.59761E+05 2.10348E+04 6.59594E+03 6.03660E+04-8.47081E-10 4.34147E-09
 -1       674 1.69023E+05 3.38416E+04 1.88630E+04 5.68907E+04 7.20206E-10 1.03323E-08
 -1       675 1.54311E+05 1.20067E+04 2.79994E+04 6.19075E+04-1.00499E-09 1.55069E-08
 -1       676 2.40885E+01-2.95805E+05-1.11210E+03-1.40305E+02 1.88891E-09 5.45888E-09
 -1       677-2.94124E+02-2.96074E+05-2.03534E+03 2.80384E+02 1.08530E-08-1.03913E-08
 -1       678 1.97316E+02-2.95613E+05-3.59797E+03-1.39987E+02 1.36879E-09 3.75010E-09
 -1       679-3.59798E+03-2.98246E+05-8.54730E+03 2.79172E+02 7.78709E-09 1.34331E-08
 -1       680 2.14824E+03-2.93634E+05-1.37753E+04-1.37548E+02-1.27875E-09-6.05455E-09
 -1       771-3.06211E+06-7.46106E+05-1.64442E+05-1.46504E+06-3.24799E-08-2.27301E-08
 -1       772-2.98508E+06-8.34639E+05-8.47696E+04-1.56740E+06-3.09083E-08 1.22018E-08
 -1       773-3.09340E+06-7.21702E+05-4.32357E+04-1.47943E+06-1.67638E-08 1.27038E-08
 -1       774-2.97565E+06-8.16318E+05-1.92845E+04-1.59304E+06 3.01807E-08 1.39698E-09
 -1       775-3.10975E+06-7.10220E+05-1.44394E+04-1.48643E+06-2.37778E-08-2.72121E-09
 -1       776-2.98792E+06-8.13317E+05-5.39711E+03-1.61244E+06-2.91911E-08 2.23736E-09
 -1       777-3.12395E+06-6.99974E+05-6.38454E+03-1.49260E+06-8.14907E-10 1.03537E-08
 -1       778-3.00072E+06-8.10523E+05-1.80346E+03-1.62910E+06 4.94765E-09 1.32713E-08
 -1       779-3.13615E+06-6.91022E+05-3.19087E+03-1.49788E+06-6.83940E-10-4.18368E-09
 -1       780-3.01200E+06-8.07855E+05-5.26070E+02-1.64268E+06-4.01633E-09-2.63572E-09
 -1       781-3.14585E+06-6.83805E+05-1.23440E+03-1.50201E+06-2.52476E-08-5.56975E-09
 -1       782-3.02069E+06-8.05589E+05 4.60621E+02-1.65270E+06-3.36222E-08-6.40193E-09
 -1       783-3.15268E+06-6.78790E+05 7.22915E+02-1.50490E+06-1.16415E-09-1.50944E-08
 -1       784-3.02549E+06-8.03304E+05 2.95031E+03-1.65888E+06-8.30914E-09 5.10499E-09
 -1       785-3.15674E+06-6.75790E+05 5.21356E+03-1.50674E+06-3.06027E-08 4.87125E-09
 -1       786 1.11717E+05-9.43521E+03 2.18290E+04-2.96874E+02 5.20038E-09-1.51877E-08
 -1       787 1.21185E+05 1.09238E+04 1.54430E+04-1.19908E+02 6.71438E-09-2.48929E-09
 -1       788 1.15367E+05-1.47853E+03 5.64731E+03-2.64247E+02 3.97913E-09 1.05672E-08
 -1       789 1.16932E+05 1.71127E+03 3.54474E+03-1.69985E+02-2.21307E-09-7.90897E-09
 -1       790 1.15970E+05-2.30174E+02 1.43421E+03-2.46815E+02-5.90446E-09 4.97795E-09
 -1       791 1.16227E+05 2.65975E+02 8.26448E+02-1.99945E+02-8.36699E-09 8.85473E-09
 -1       792 1.16072E+05-3.43142E+01 3.46368E+02-2.34289E+02-3.48586E-09-4.96442E-09
 -1       793 1.16104E+05 3.42765E+01 1.64245E+02-2.23481E+02-2.54774E-09 6.15046E-11
 -1       794 1.16093E+05 1.37919E+00 2.57385E+01-2.23279E+02 3.89485E-09-1.16893E-08
 -1       795 1.16062E+05-4.11151E+01-1.01392E+02-2.46209E+02-3.75840E-09 8.59763E-09
 -1       796 1.16114E+05 4.10346E+01-2.35725E+02-2.11561E+02 4.21324E-09 1.30036E-08
 -1       797 1.15932E+05-3.05844E+02-6.25138E+02-2.72705E+02 3.49730E-09-1.37730E-09
 -1       798 1.16223E+05 2.65910E+02-1.00912E+03-1.96782E+02 2.11326E-09 1.90931E-09
 -1       799 1.15168E+05-1.96130E+03-2.77101E+03-3.09001E+02 5.94291E-09-1.83368E-09
 -1       800 1.16878E+05 1.69515E+03-3.91997E+03-1.75267E+02 3.48638E-10 5.54110E-09
 -1       801-1.73707E+05-1.00684E+07-1.40422E+06 1.43410E+06 9.12696E-08-5.35765E-08
 -1       802 7.48926E+05 6.07246E+06 2.21275E+06-1.77093E+06 2.62968E-07-3.77486E-08
 -1       803-5.43958E+05-1.44262E+07-1.91786E+06 9.04860E+05 7.83693E-08 2.56514E-08
 -1       804 2.93378E+05 2.49837E+06 1.56353E+06 6.87030E+05-1.21228E-07-9.81577E-08
 -1       805 1.90238E+05-6.50826E+06-2.93116E+05-1.01809E+06-5.00222E-08-7.21329E-08
 -1       806-3.10218E+05-5.96611E+04-2.26479E+04-1.22661E+05-4.82396E-09-8.09905E-10
 -1       807-3.12017E+05-5.59459E+04-1.11267E+04-1.28136E+05 9.52537E-09 8.53765E-09
 -1       808-3.10838E+05-5.15002E+04-4.72033E+03-1.26521E+05-5.54292E-09 1.25191E-08
 -1       809-3.09680E+05-5.28180E+04-2.30816E+03-1.28407E+05-1.53095E-08 5.78757E-09
 -1       810-3.10932E+05-5.12161E+04-1.05804E+03-1.26692E+05 4.83124E-09 2.73446E-08
 -1       811-3.09499E+05-5.26921E+04-5.26326E+02-1.28372E+05 9.08267E-09 5.61067E-09
 -1       812-3.10946E+05-5.12406E+04-2.66570E+02-1.26691E+05-9.20954E-09-6.64522E-09
 -1       813-3.09474E+05-5.26942E+04-1.73916E+02-1.28353E+05-1.73532E-09 1.05319E-08
 -1       814-3.10939E+05-5.12502E+04-1.73413E+02-1.26687E+05 6.53017E-10 3.63798E-10
 -1       815-3.09478E+05-5.26963E+04-2.80442E+02-1.28346E+05 2.36651E-09 9.55106E-09
 -1       816-3.10918E+05-5.12491E+04-5.32178E+02-1.26684E+05 9.25138E-09 2.72453E-08
 -1       817-3.09568E+05-5.27471E+04-1.14248E+03-1.28334E+05-9.05857E-09 5.57338E-09
 -1       818-3.10849E+05-5.14101E+04-2.33039E+03-1.26608E+05 1.14960E-09 5.07271E-09
 -1       819-3.10843E+05-5.41562E+04-5.48339E+03-1.28034E+05-1.44109E-09-6.58792E-09
 -1       820-3.10411E+05-5.55512E+04-1.11607E+04-1.24837E+05-8.51287E-10-1.00340E-08
 -1       821-3.77735E+05 2.08501E+04-4.85004E+04 2.07220E+03 1.38915E-08 2.07219E-08
 -1       822-3.97564E+05-2.41515E+04-3.41126E+04-4.23069E+03 4.52943E-09 2.58997E-08
 -1       823-3.85258E+05 3.28456E+03-1.25304E+04 3.29111E+03-1.22966E-08 8.89713E-09
 -1       824-3.88507E+05-3.78844E+03-7.84727E+03-5.05204E+03 1.25046E-09-9.88803E-09
 -1       825-3.86798E+05 5.09953E+02-3.28159E+03 2.89366E+03 1.91552E-08 2.38185E-09
 -1       826-3.86157E+05-5.69586E+02-1.76129E+03-2.86913E+03 2.47905E-08 7.21525E-09
 -1       827-3.87585E+05 5.08972E+01-1.17176E+03 1.10807E+03 1.45905E-08 2.66948E-09
 -1       828-3.85513E+05-1.37618E+02-6.17099E+02 1.10718E+03-1.80012E-09 1.52750E-08
 -1       829-3.87431E+05 6.92275E+01-1.16234E+03-1.08268E+03 2.98343E-09 1.97161E-09
 -1       830-3.86491E+05-6.23034E+02-1.89608E+03 4.67890E+03 2.04734E-09 6.78938E-10
 -1       831-3.86627E+05 5.52275E+02-3.36514E+03-2.46367E+03-3.59418E-09 1.78134E-08
 -1       832-3.88588E+05-3.95464E+03-8.15014E+03 5.86856E+03-4.68838E-09 5.37261E-09
 -1       833-3.85348E+05 3.40900E+03-1.30328E+04-2.27238E+03-2.10520E-09-1.79944E-08
 -1       834-3.97642E+05-2.50660E+04-3.53396E+04 3.98416E+03-4.37890E-09 6.58474E-10
 -1       835-3.77558E+05 2.16324E+04-5.03699E+04-5.79197E+02 4.26843E-09 7.57063E-09
 -1       836-1.41252E+03 3.70973E+05 2.29461E+04-1.50185E+04-7.17318E-09 7.76299E-09
 -1       837 4.89614E+03 3.78158E+05 1.94177E+04-3.07360E+04-7.99196E-09-2.66027E-11
 -1       838-5.57221E+02 3.72990E+05 1.97863E+04-1.49498E+04-6.62294E-09-9.75433E-09
 -1       839 1.24569E+04 3.83792E+05 3.74317E+04-3.07890E+04-7.06905E-09-1.88936E-09
 -1       840-3.84814E+03 3.65284E+05 5.96910E+04-1.49715E+04-6.45741E-09 3.86365E-09
 -1       856-5.05286E+04 7.98319E+03-2.10374E+04-3.96852E+02 2.39777E-09 6.71753E-09
 -1       857-5.91951E+04-9.38034E+03-1.44819E+04 5.62608E+03 4.39701E-09 1.12859E-08
 -1       858-5.39609E+04 1.11959E+03-5.45865E+03-4.20530E+02 2.83012E-09-1.05599E-08
 -1       859-5.52562E+04-1.31749E+03-3.29396E+03 5.66121E+03-5.43048E-09 3.42902E-09
 -1       860-5.44736E+04 1.56815E+02-1.38033E+03-4.31709E+02-1.98071E-09-3.92748E-09
 -1       861-5.46664E+04-1.87511E+02-7.58996E+02 5.67642E+03 2.14598E-09-1.32241E-08
 -1       862-5.45539E+04 2.12400E+01-3.14797E+02-4.35720E+02-1.81532E-09-4.75262E-09
 -1       863-5.45679E+04-2.18571E+01-1.13066E+02 5.67877E+03-6.99244E-09-2.34393E-08
 -1       864-5.45726E+04-5.06817E+00 5.05730E+01-4.34051E+02-1.89290E-09 5.51729E-09
 -1       865-5.45115E+04 6.08187E+01 2.61968E+02 5.66918E+03-2.98502E-09 2.34347E-08
 -1       866-5.46081E+04-6.14215E+01 5.26103E+02-4.26138E+02 2.91811E-09 1.12896E-08
 -1       867-5.42646E+04 5.07227E+02 1.29373E+03 5.64771E+03 5.86653E-10 1.16595E-08
 -1       868-5.48146E+04-4.43332E+02 2.14955E+03-4.12581E+02 1.30649E-09 1.47941E-08
 -1       869-5.26892E+04 3.69000E+03 5.72300E+03 5.61239E+03 1.67034E-10-3.27892E-08
 -1       870-5.61758E+04-3.15763E+03 8.30550E+03-3.90705E+02-3.91606E-09-2.04204E-08
 -1       871-5.52827E+03-2.15323E+04-1.95554E+04 1.30959E+05-4.84761E-09-3.69710E-09
 -1       872-1.97808E+03-2.60822E+04-8.19262E+03 1.69809E+05-9.71067E-09 1.11704E-08
 -1       873 4.14420E+02-2.38800E+04 5.81011E+02 1.30671E+05-5.86215E-09 1.24027E-08
 -1       874 3.32153E+03-2.14692E+04 9.78672E+03 1.69838E+05-1.22536E-08 6.92125E-10
 -1       875 6.86316E+03-2.62119E+04 2.20865E+04 1.30911E+05-5.42241E-09 4.96493E-09
 -1       876 2.94194E+05 4.95502E+04 1.51009E+04 1.18021E+05 4.41628E-09 6.81302E-09
 -1       877 2.95198E+05 5.27253E+04 8.06448E+03 1.22348E+05 1.11349E-08 1.28023E-09
 -1       878 2.95607E+05 4.78774E+04 3.37863E+03 1.19258E+05-2.94767E-09-5.94969E-09
 -1       879 2.93146E+05 5.06766E+04 1.68345E+03 1.22450E+05 4.55861E-09-1.26765E-08
 -1       880 2.95708E+05 4.78601E+04 7.84152E+02 1.19309E+05-4.22051E-09-1.06513E-09
 -1       881 2.93009E+05 5.05889E+04 4.18810E+02 1.22426E+05 3.39583E-10 1.44567E-09
 -1       882 2.95717E+05 4.78734E+04 2.68040E+02 1.19311E+05 2.16301E-09 3.69837E-09
 -1       883 2.93000E+05 5.05844E+04 2.88331E+02 1.22418E+05-1.40187E-08-3.78463E-10
 -1       884 2.95710E+05 4.78706E+04 4.58828E+02 1.19311E+05-7.12498E-09-5.50352E-09
 -1       885 2.93036E+05 5.05907E+04 9.22599E+02 1.22429E+05-1.14549E-08-2.70462E-08
 -1       886 2.95674E+05 4.78437E+04 1.85951E+03 1.19307E+05-6.77478E-09-1.23823E-08
 -1       887 2.93363E+05 5.08050E+04 4.06186E+03 1.22477E+05 1.19390E-08 4.41378E-09
 -1       888 2.95418E+05 4.78889E+04 8.18477E+03 1.19177E+05 1.12017E-09 1.10481E-08
 -1       889 2.98235E+05 5.58725E+04 1.95519E+04 1.22327E+05-7.57882E-09-1.12141E-08
 -1       890 2.92077E+05 5.18573E+04 3.66202E+04 1.16062E+05-2.98860E-09-5.99539E-09
 -1       891-8.84019E+01-1.62893E+05-2.00053E+03 2.70712E+04-7.67614E-10 1.31090E-08
 -1       892-1.73889E+02-1.63422E+05-2.14757E+03 4.11120E+04 3.81169E-09 2.07610E-08
 -1       893 4.50912E+01-1.62958E+05-3.03962E+03 2.70786E+04-1.44041E-09 1.67720E-08
 -1       894-1.50963E+03-1.64570E+05-6.29012E+03 4.09598E+04 1.33537E-09 1.97997E-08
 -1       895-1.19902E+03-1.61647E+05-1.10765E+04 2.72253E+04 7.52379E-10 2.66118E-09
 -1       956-3.77984E+05-5.45112E+03-1.34524E+04 3.09974E+04 5.51245E-09-1.17434E-08
 -1       957-3.80623E+05-1.92428E+03-6.90489E+03 3.72507E+04-2.69938E-09-1.20053E-08
 -1       958-3.79193E+05-2.42415E+02-3.11156E+03 3.08296E+04 2.85581E-09-1.00613E-08
 -1       959-3.79390E+05-1.38053E+02-1.58882E+03 3.74465E+04 1.33841E-08-3.50542E-09
 -1       960-3.79311E+05-4.62644E+01-7.74796E+02 3.08124E+04 1.20817E-08 3.82192E-09
 -1       961-3.79309E+05-6.50074E+01-4.10828E+02 3.74669E+04 1.42625E-08-1.02455E-08
 -1       962-3.79339E+05-4.75000E+01-2.35283E+02 3.08095E+04-1.84173E-10-1.11404E-08
 -1       963-3.79310E+05-6.08554E+01-1.89018E+02 3.74706E+04 3.13867E-09 1.46597E-08
 -1       964-3.79345E+05-4.42028E+01-2.30042E+02 3.08087E+04 9.56859E-10 1.13939E-08
 -1       965-3.79322E+05-5.79875E+01-3.98027E+02 3.74698E+04-9.01912E-09 1.36620E-08
 -1       966-3.79328E+05-3.64614E+01-7.47981E+02 3.08103E+04 3.46517E-09 5.60863E-09
 -1       967-3.79411E+05-1.21832E+02-1.53412E+03 3.74553E+04-2.75350E-09-2.54211E-08
 -1       968-3.79224E+05-2.19563E+02-3.00331E+03 3.08230E+04 9.17680E-10-1.62723E-08
 -1       969-3.80614E+05-1.84107E+03-6.66723E+03 3.73055E+04 6.07179E-09 1.86474E-08
 -1       970-3.78064E+05-5.24508E+03-1.29882E+04 3.09512E+04-1.17416E-09 8.64748E-09
 -1       971-3.45755E+05-1.72646E+03-9.30053E+03 1.53559E+04 6.18456E-09-2.16549E-09
 -1       972-3.47994E+05-1.27155E+03-5.06498E+03 2.12333E+04 9.45420E-09-1.00404E-08
 -1       973-3.46791E+05-6.27292E+01-2.26866E+03 1.52351E+04 1.22664E-08-1.78104E-08
 -1       974-3.46926E+05-8.20969E+01-1.17602E+03 2.13701E+04 1.27645E-08 1.83738E-08
 -1       975-3.46873E+05-1.79265E+01-5.88361E+02 1.52228E+04 6.12727E-09-9.97261E-10
 -1       976-3.46864E+05-3.23284E+01-3.40379E+02 2.13858E+04 5.02746E-09-6.39966E-09
 -1       977-3.46890E+05-1.71948E+01-2.48707E+02 1.52194E+04-3.97495E-09-6.62556E-09
 -1       978-3.46870E+05-2.61192E+01-2.93316E+02 2.13907E+04-2.78169E-09 1.20026E-08
 -1       979-3.46889E+05-8.71413E+00-4.73218E+02 1.52179E+04-3.47472E-09 4.76564E-09
 -1       980-3.46905E+05-2.30579E+01-9.14949E+02 2.13917E+04-7.57041E-09-3.23269E-09
 -1       981-3.46860E+05 1.41622E+01-1.77268E+03 1.52185E+04 1.18155E-09-1.21827E-09
 -1       982-3.47149E+05-1.54026E+02-3.66445E+03 2.13851E+04 8.16590E-09-2.42199E-08
 -1       983-3.46637E+05-9.93257E+01-7.12023E+03 1.52245E+04-3.20142E-09 2.78646E-09
 -1       984-3.50573E+05-3.87268E+03-1.59456E+04 2.12996E+04-3.25235E-09 2.19670E-08
 -1       985-3.43413E+05-5.30944E+03-2.92810E+04 1.52955E+04-2.43335E-09 2.36651E-09
 -3
    1PSTEP                        37          19           1          
  100CL  119 6.63020E-01         409                     0   19           1
 -4  DISP        4    1
 -5  D1          1    2    1    0
 -5  D2          1    2    2    0
 -5  D3          1    2    3    0
 -5  ALL         1    2    0    0    1ALL
 -1         1 2.69700E-03 0.00000E+00 0.00000E+00
 -1         2 1.39094E-03 2.98365E-27 5.29396E-23
 -1         3 3.42964E-04-5.37515E-28 0.00000E+00
 -1         5 1.76494E-04-4.02232E-27 0.00000E+00
 -1         8 2.68560E-03-4.16180E-07 0.00000E+00
 -1         9 2.67890E-03-1.74821E-04 0.00000E+00
 -1        10 3.10940E-04-3.43621E-06-6.61744E-24
 -1        12 1.78377E-04 8.08485E-07-1.24077E-24
 -1        15 2.67246E-03-4.41631E-07 0.00000E+00
 -1        16 2.73898E-03-1.76554E-04 0.00000E+00
 -1        17 2.11520E-04-7.83217E-06 0.00000E+00
 -1        18 1.82431E-04 3.48935E-05 0.00000E+00
 -1        19 1.84028E-04 1.61049E-06 0.00000E+00
 -1        20 1.84166E-04-1.03674E-05 0.00000E+00
 -1        21 1.83267E-04-2.64782E-05 0.00000E+00
 -1        24 3.06411E-05-1.20658E-05 0.00000E+00
 -1        25 1.93470E-04 3.51176E-05 0.00000E+00
 -1        26 1.94080E-04 2.23044E-06 0.00000E+00
 -1        27 1.91889E-04-1.39357E-05 0.00000E+00
 -1        28 1.91583E-04-2.71007E-05 0.00000E+00
 -1        32 0.00000E+00 0.00000E+00 0.00000E+00
 -1        33 2.03184E-04 2.98614E-06 0.00000E+00
 -1        34 2.01059E-04-1.39927E-05 0.00000E+00
 -1        35 1.99123E-04-2.74438E-05 0.00000E+00
 -1        51 2.69624E-03-8.64467E-08-3.30872E-24
 -1        52 2.69484E-03-1.54706E-07 0.00000E+00
 -1        53 2.69294E-03-2.19584E-07 0.00000E+00
 -1        54 2.69068E-03-2.83315E-07-1.65436E-24
 -1        55 2.68819E-03-3.47652E-07 1.65436E-24
 -1        56 2.69007E-03 6.64643E-06 0.00000E+00
 -1        57 2.67719E-03 2.80345E-05 0.00000E+00
 -1        58 2.66027E-03 5.94476E-05-1.05879E-22
 -1        59 2.64152E-03 9.51967E-05 0.00000E+00
 -1        60 2.62364E-03 1.28854E-04 0.00000E+00
 -1        61 2.60917E-03 1.54161E-04-5.29396E-23
 -1        62 2.59990E-03 1.66353E-04 1.05879E-22
 -1        63 2.59699E-03 1.61828E-04 5.29396E-23
 -1        64 2.60033E-03 1.40042E-04-1.05879E-22
 -1        65 2.60926E-03 1.02060E-04 0.00000E+00
 -1        66 2.62218E-03 5.19869E-05-1.05879E-22
 -1        67 2.63729E-03-4.90397E-06 5.29396E-23
 -1        68 2.65248E-03-6.20376E-05 0.00000E+00
 -1        69 2.66566E-03-1.12808E-04 0.00000E+00
 -1        70 2.67496E-03-1.51833E-04-5.29396E-23
 -1        86 1.47189E-03-5.61458E-06 0.00000E+00
 -1        87 1.70654E-03-3.49081E-05-2.64698E-23
 -1        88 2.02199E-03-8.51129E-05 0.00000E+00
 -1        89 2.34144E-03-1.36616E-04-1.32349E-23
 -1        90 2.58580E-03-1.68123E-04 0.00000E+00
 -1       121 3.42064E-04-5.54889E-07-1.32349E-23
 -1       122 3.39370E-04-1.11288E-06-6.61744E-24
 -1       123 3.34890E-04-1.67703E-06 1.32349E-23
 -1       124 3.28642E-04-2.25038E-06 0.00000E+00
 -1       125 3.20649E-04-2.83560E-06 0.00000E+00
 -1       191 1.76546E-04 1.34814E-07-8.27181E-25
 -1       192 1.76703E-04 2.69615E-07 4.13590E-25
 -1       193 1.76964E-04 4.04396E-07 1.65436E-24
 -1       194 1.77331E-04 5.39143E-07-1.65436E-24
 -1       195 1.77801E-04 6.73844E-07-1.65436E-24
 -1       251 2.68528E-03 1.91173E-06-6.61744E-24
 -1       252 2.68495E-03 4.42396E-06 0.00000E+00
 -1       253 2.68463E-03 6.09257E-06-6.61744E-24
 -1       254 2.68431E-03 5.90060E-06 0.00000E+00
 -1       255 2.68399E-03 3.12781E-06 0.00000E+00
 -1       256 2.68365E-03-2.91199E-06 0.00000E+00
 -1       257 2.68328E-03-1.23844E-05 0.00000E+00
 -1       258 2.68288E-03-2.54098E-05 0.00000E+00
 -1       259 2.68243E-03-4.15427E-05 0.00000E+00
 -1       260 2.68194E-03-6.02966E-05-6.61744E-24
 -1       261 2.68141E-03-8.07670E-05 0.00000E+00
 -1       262 2.68087E-03-1.02028E-04 0.00000E+00
 -1       263 2.68034E-03-1.23026E-04 0.00000E+00
 -1       264 2.67982E-03-1.42712E-04 0.00000E+00
 -1       265 2.67935E-03-1.60247E-04 0.00000E+00
 -1       266 2.68341E-03-4.26242E-07 0.00000E+00
 -1       267 2.68122E-03-4.29774E-07 0.00000E+00
 -1       268 2.67903E-03-4.33720E-07 8.27181E-25
 -1       269 2.67684E-03-4.36441E-07 0.00000E+00
 -1       270 2.67465E-03-4.39133E-07 0.00000E+00
 -1       271 2.68464E-03 3.00322E-07 1.32349E-23
 -1       272 2.68456E-03-1.38488E-06-6.61744E-24
 -1       273 2.68532E-03-5.33616E-06-2.64698E-23
 -1       274 2.68686E-03-1.14072E-05 0.00000E+00
 -1       275 2.68912E-03-1.94315E-05 0.00000E+00
 -1       276 2.69203E-03-2.92285E-05-1.32349E-23
 -1       277 2.69551E-03-4.06018E-05 0.00000E+00
 -1       278 2.69949E-03-5.33425E-05 1.32349E-23
 -1       279 2.70388E-03-6.72304E-05 5.29396E-23
 -1       280 2.70860E-03-8.20358E-05 0.00000E+00
 -1       281 2.71357E-03-9.75209E-05 0.00000E+00
 -1       282 2.71869E-03-1.13443E-04 0.00000E+00
 -1       283 2.72388E-03-1.29556E-04 0.00000E+00
 -1       284 2.72905E-03-1.45610E-04 0.00000E+00
 -1       285 2.73411E-03-1.61358E-04 0.00000E+00
 -1       301 2.68982E-03-1.75141E-04 0.00000E+00
 -1       302 2.69916E-03-1.75419E-04 0.00000E+00
 -1       303 2.70783E-03-1.75687E-04 0.00000E+00
 -1       304 2.71674E-03-1.75955E-04-6.61744E-24
 -1       305 2.72682E-03-1.76237E-04 0.00000E+00
 -1       306 2.71654E-03-3.28189E-04 1.05879E-22
 -1       307 2.78045E-03-7.40746E-04 0.00000E+00
 -1       308 2.82739E-03-1.34469E-03 0.00000E+00
 -1       309 2.85148E-03-2.04439E-03 0.00000E+00
 -1       310 2.88282E-03-2.71434E-03 0.00000E+00
 -1       311 2.94221E-03-3.23169E-03 0.00000E+00
 -1       312 3.00027E-03-3.51578E-03 1.05879E-22
 -1       313 2.99654E-03-3.52840E-03 0.00000E+00
 -1       314 2.85744E-03-3.28123E-03-1.05879E-22
 -1       315 2.54194E-03-2.83827E-03 0.00000E+00
 -1       316 2.06801E-03-2.27597E-03 0.00000E+00
 -1       317 1.50104E-03-1.66370E-03 0.00000E+00
 -1       318 9.54897E-04-1.06229E-03 0.00000E+00
 -1       319 5.37261E-04-5.36823E-04-1.58819E-22
 -1       320 2.91950E-04-1.61237E-04 0.00000E+00
 -1       336 2.99330E-04-4.10019E-06 0.00000E+00
 -1       337 2.85642E-04-4.78994E-06 0.00000E+00
 -1       338 2.69938E-04-5.50768E-06-1.32349E-23
 -1       339 2.52292E-04-6.25420E-06-6.61744E-24
 -1       340 2.32789E-04-7.03397E-06 1.32349E-23
 -1       406 1.79057E-04 9.43046E-07 0.00000E+00
 -1       407 1.79842E-04 1.07749E-06-4.13590E-25
 -1       408 1.80732E-04 1.21177E-06 1.65436E-24
 -1       409 1.81726E-04 1.34570E-06 2.06795E-25
 -1       410 1.82825E-04 1.47902E-06 2.48154E-24
 -1       521 2.77724E-03-3.39197E-04 0.00000E+00
 -1       522 2.83941E-03-7.71811E-04 0.00000E+00
 -1       523 2.88002E-03-1.40322E-03 1.05879E-22
 -1       524 2.89504E-03-2.13110E-03-5.29396E-23
 -1       525 2.91859E-03-2.82725E-03 0.00000E+00
 -1       526 2.97445E-03-3.36631E-03-5.29396E-23
 -1       527 3.03208E-03-3.66089E-03 0.00000E+00
 -1       528 3.02611E-03-3.67182E-03 5.29396E-23
 -1       529 2.87525E-03-3.41074E-03-2.11758E-22
 -1       530 2.53626E-03-2.94947E-03 0.00000E+00
 -1       531 2.02786E-03-2.36819E-03 1.05879E-22
 -1       532 1.42180E-03-1.73887E-03 5.29396E-23
 -1       533 8.37180E-04-1.11977E-03 1.05879E-22
 -1       534 3.86733E-04-5.73670E-04 0.00000E+00
 -1       535 1.20480E-04-1.78773E-04 2.11758E-22
 -1       536 2.10838E-04 2.76010E-05 3.30872E-24
 -1       537 2.08922E-04 8.96138E-05 0.00000E+00
 -1       538 2.05854E-04 1.68971E-04-1.65436E-24
 -1       539 2.02137E-04 2.56424E-04-8.27181E-25
 -1       540 1.98802E-04 3.39059E-04 1.65436E-24
 -1       541 1.96729E-04 4.03966E-04 4.13590E-25
 -1       542 1.95845E-04 4.44989E-04 1.65436E-24
 -1       543 1.95713E-04 4.56026E-04 0.00000E+00
 -1       544 1.95482E-04 4.37751E-04 0.00000E+00
 -1       545 1.94357E-04 3.90938E-04 4.13590E-25
 -1       546 1.92123E-04 3.23398E-04-8.27181E-25
 -1       547 1.88970E-04 2.42979E-04-4.13590E-25
 -1       548 1.85845E-04 1.62939E-04-8.27181E-25
 -1       549 1.83683E-04 9.65345E-05 0.00000E+00
 -1       550 1.82631E-04 5.13412E-05 0.00000E+00
 -1       551 1.86296E-04-8.40355E-06 0.00000E+00
 -1       552 1.57835E-04-9.05513E-06 0.00000E+00
 -1       553 1.27080E-04-9.76876E-06-6.61744E-24
 -1       554 9.49895E-05-1.05233E-05 0.00000E+00
 -1       555 6.25249E-05-1.12913E-05-1.32349E-23
 -1       556 2.03855E-04 1.17548E-05 0.00000E+00
 -1       557 1.97656E-04 2.76546E-05 0.00000E+00
 -1       558 1.92789E-04 4.01534E-05 0.00000E+00
 -1       559 1.89122E-04 4.95600E-05 0.00000E+00
 -1       560 1.86526E-04 5.61835E-05 0.00000E+00
 -1       561 1.84873E-04 6.03353E-05 0.00000E+00
 -1       562 1.84040E-04 6.23285E-05 0.00000E+00
 -1       563 1.83901E-04 6.24768E-05-1.32349E-23
 -1       564 1.84337E-04 6.10951E-05 0.00000E+00
 -1       565 1.85226E-04 5.84986E-05-6.61744E-24
 -1       566 1.86451E-04 5.50033E-05 0.00000E+00
 -1       567 1.87891E-04 5.09257E-05 6.61744E-24
 -1       568 1.89431E-04 4.65822E-05-1.65436E-24
 -1       569 1.90952E-04 4.22893E-05 0.00000E+00
 -1       570 1.92336E-04 3.83637E-05 0.00000E+00
 -1       571 1.82527E-04 3.27277E-05 1.65436E-24
 -1       572 1.82626E-04 3.04975E-05 1.24077E-24
 -1       573 1.82726E-04 2.82183E-05-1.65436E-24
 -1       574 1.82825E-04 2.59067E-05 8.27181E-25
 -1       575 1.82925E-04 2.35789E-05 3.30872E-24
 -1       576 1.83025E-04 2.12514E-05-1.65436E-24
 -1       577 1.83124E-04 1.89406E-05 0.00000E+00
 -1       578 1.83224E-04 1.66630E-05 6.61744E-24
 -1       579 1.83324E-04 1.44352E-05 0.00000E+00
 -1       580 1.83424E-04 1.22734E-05 0.00000E+00
 -1       581 1.83525E-04 1.01944E-05 0.00000E+00
 -1       582 1.83625E-04 8.21440E-06 3.30872E-24
 -1       583 1.83726E-04 6.34995E-06-6.61744E-24
 -1       584 1.83826E-04 4.61731E-06 0.00000E+00
 -1       585 1.83927E-04 3.03257E-06 0.00000E+00
 -1       586 1.84230E-04 3.49330E-05 0.00000E+00
 -1       587 1.85989E-04 3.49719E-05 0.00000E+00
 -1       588 1.87751E-04 3.50105E-05 0.00000E+00
 -1       589 1.89556E-04 3.50484E-05 0.00000E+00
 -1       590 1.91449E-04 3.50850E-05 0.00000E+00
 -1       591 1.83174E-04 3.28221E-05-1.03398E-25
 -1       592 1.83920E-04 3.07330E-05 0.00000E+00
 -1       593 1.84670E-04 2.86317E-05 0.00000E+00
 -1       594 1.85423E-04 2.65227E-05-4.13590E-25
 -1       595 1.86177E-04 2.44105E-05 0.00000E+00
 -1       596 1.86930E-04 2.22995E-05 4.13590E-25
 -1       597 1.87681E-04 2.01941E-05-8.27181E-25
 -1       598 1.88428E-04 1.80988E-05 0.00000E+00
 -1       599 1.89170E-04 1.60180E-05 8.27181E-25
 -1       600 1.89905E-04 1.39560E-05 4.13590E-25
 -1       601 1.90631E-04 1.19174E-05 0.00000E+00
 -1       602 1.91347E-04 9.90655E-06-2.06795E-25
 -1       603 1.92051E-04 7.92784E-06-4.13590E-25
 -1       604 1.92742E-04 5.98582E-06-1.03398E-25
 -1       605 1.93418E-04 4.08482E-06-4.13590E-25
 -1       606 1.84041E-04 4.20936E-07 0.00000E+00
 -1       607 1.84051E-04-6.83879E-07 0.00000E+00
 -1       608 1.84059E-04-1.70893E-06 0.00000E+00
 -1       609 1.84068E-04-2.65983E-06 1.65436E-24
 -1       610 1.84076E-04-3.54224E-06 0.00000E+00
 -1       611 1.84084E-04-4.36188E-06 0.00000E+00
 -1       612 1.84092E-04-5.12447E-06 0.00000E+00
 -1       613 1.84100E-04-5.83576E-06 0.00000E+00
 -1       614 1.84109E-04-6.50148E-06 0.00000E+00
 -1       615 1.84117E-04-7.12736E-06 8.27181E-25
 -1       616 1.84125E-04-7.71916E-06-1.65436E-24
 -1       617 1.84134E-04-8.28259E-06 0.00000E+00
 -1       618 1.84142E-04-8.82340E-06 0.00000E+00
 -1       619 1.84150E-04-9.34732E-06 0.00000E+00
 -1       620 1.84158E-04-9.86010E-06 0.00000E+00
 -1       621 1.85413E-04 1.71440E-06 1.65436E-24
 -1       622 1.86959E-04 1.81854E-06 0.00000E+00
 -1       623 1.88633E-04 1.92247E-06 0.00000E+00
 -1       624 1.90400E-04 2.02605E-06-8.27181E-25
 -1       625 1.92227E-04 2.12935E-06-1.65436E-24
 -1       626 1.84586E-04 4.57261E-07 0.00000E+00
 -1       627 1.85122E-04-6.34031E-07 3.30872E-24
 -1       628 1.85639E-04-1.67120E-06 0.00000E+00
 -1       629 1.86138E-04-2.66235E-06 0.00000E+00
 -1       630 1.86623E-04-3.61564E-06 0.00000E+00
 -1       631 1.87096E-04-4.53922E-06 0.00000E+00
 -1       632 1.87562E-04-5.44123E-06-3.30872E-24
 -1       633 1.88023E-04-6.32985E-06 0.00000E+00
 -1       634 1.88482E-04-7.21322E-06-3.30872E-24
 -1       635 1.88941E-04-8.09950E-06 0.00000E+00
 -1       636 1.89405E-04-8.99687E-06 3.30872E-24
 -1       637 1.89877E-04-9.91346E-06-1.65436E-24
 -1       638 1.90358E-04-1.08575E-05 3.30872E-24
 -1       639 1.90852E-04-1.18370E-05 0.00000E+00
 -1       640 1.91362E-04-1.28603E-05 3.30872E-24
 -1       656 1.84905E-04-1.09474E-05-6.61744E-24
 -1       657 1.86062E-04-1.15509E-05 6.61744E-24
 -1       658 1.87500E-04-1.21531E-05 0.00000E+00
 -1       659 1.89073E-04-1.27549E-05 0.00000E+00
 -1       660 1.90597E-04-1.33585E-05 0.00000E+00
 -1       661 1.84442E-04-1.09203E-05 0.00000E+00
 -1       662 1.84756E-04-1.15659E-05 8.27181E-25
 -1       663 1.85103E-04-1.22987E-05 0.00000E+00
 -1       664 1.85480E-04-1.31122E-05 0.00000E+00
 -1       665 1.85886E-04-1.40006E-05 0.00000E+00
 -1       666 1.86317E-04-1.49577E-05 0.00000E+00
 -1       667 1.86772E-04-1.59778E-05-1.65436E-24
 -1       668 1.87249E-04-1.70553E-05 8.27181E-25
 -1       669 1.87744E-04-1.81845E-05-1.65436E-24
 -1       670 1.88257E-04-1.93603E-05 0.00000E+00
 -1       671 1.88786E-04-2.05771E-05-1.65436E-24
 -1       672 1.89327E-04-2.18298E-05 8.27181E-25
 -1       673 1.89880E-04-2.31134E-05 0.00000E+00
 -1       674 1.90442E-04-2.44229E-05 0.00000E+00
 -1       675 1.91012E-04-2.57530E-05 0.00000E+00
 -1       676 1.84658E-04-2.65826E-05-3.30872E-24
 -1       677 1.86048E-04-2.66869E-05 0.00000E+00
 -1       678 1.87436E-04-2.67911E-05 3.30872E-24
 -1       679 1.88822E-04-2.68951E-05-1.65436E-24
 -1       680 1.90205E-04-2.69990E-05-3.30872E-24
 -1       771 1.86950E-05 1.46471E-05 5.29396E-23
 -1       772 8.64418E-06 3.65876E-05 0.00000E+00
 -1       773 3.97941E-07 5.39860E-05-5.29396E-23
 -1       774-6.16793E-06 6.70998E-05 2.64698E-23
 -1       775-1.11750E-05 7.61972E-05 0.00000E+00
 -1       776-1.47497E-05 8.15630E-05 0.00000E+00
 -1       777-1.70182E-05 8.34923E-05 0.00000E+00
 -1       778-1.81093E-05 8.22937E-05 2.64698E-23
 -1       779-1.81513E-05 7.82848E-05 0.00000E+00
 -1       780-1.72743E-05 7.17940E-05 0.00000E+00
 -1       781-1.56076E-05 6.31570E-05 5.29396E-23
 -1       782-1.32820E-05 5.27182E-05 2.64698E-23
 -1       783-1.04275E-05 4.08264E-05 5.29396E-23
 -1       784-7.17521E-06 2.78369E-05 2.64698E-23
 -1       785-3.65539E-06 1.41079E-05 0.00000E+00
 -1       786 1.93503E-04 3.28312E-05 0.00000E+00
 -1       787 1.93541E-04 3.05947E-05 2.06795E-25
 -1       788 1.93578E-04 2.84002E-05 8.27181E-25
 -1       789 1.93616E-04 2.62400E-05 4.13590E-25
 -1       790 1.93655E-04 2.41094E-05-8.27181E-25
 -1       791 1.93693E-04 2.20039E-05 0.00000E+00
 -1       792 1.93731E-04 1.99212E-05 1.65436E-24
 -1       793 1.93770E-04 1.78592E-05 0.00000E+00
 -1       794 1.93808E-04 1.58175E-05 0.00000E+00
 -1       795 1.93847E-04 1.37958E-05 8.27181E-25
 -1       796 1.93885E-04 1.17957E-05 0.00000E+00
 -1       797 1.93924E-04 9.81884E-06 0.00000E+00
 -1       798 1.93963E-04 7.86894E-06 1.65436E-24
 -1       799 1.94002E-04 5.94982E-06 0.00000E+00
 -1       800 1.94041E-04 4.06808E-06 0.00000E+00
 -1       801 1.47330E-04 3.15790E-05 2.64698E-23
 -1       802 7.84459E-06 1.97031E-05 2.64698E-23
 -1       803-1.11063E-04 9.97939E-06 0.00000E+00
 -1       804-9.79687E-05 6.95288E-06-2.64698E-23
 -1       805-3.22576E-05 2.71662E-06 0.00000E+00
 -1       806 1.94211E-04 3.27629E-05-1.65436E-24
 -1       807 1.94938E-04 3.04352E-05-1.65436E-24
 -1       808 1.95652E-04 2.81396E-05 3.30872E-24
 -1       809 1.96352E-04 2.58801E-05 0.00000E+00
 -1       810 1.97037E-04 2.36607E-05-3.30872E-24
 -1       811 1.97706E-04 2.14852E-05 0.00000E+00
 -1       812 1.98357E-04 1.93574E-05 0.00000E+00
 -1       813 1.98989E-04 1.72812E-05 1.65436E-24
 -1       814 1.99600E-04 1.52604E-05 3.30872E-24
 -1       815 2.00189E-04 1.32988E-05 0.00000E+00
 -1       816 2.00755E-04 1.14003E-05-1.65436E-24
 -1       817 2.01295E-04 9.56865E-06 1.65436E-24
 -1       818 2.01810E-04 7.80763E-06-1.65436E-24
 -1       819 2.02296E-04 6.12105E-06-1.65436E-24
 -1       820 2.02754E-04 4.51265E-06-3.30872E-24
 -1       821 1.93952E-04-1.35788E-07-1.65436E-24
 -1       822 1.93812E-04-3.59802E-06 0.00000E+00
 -1       823 1.93670E-04-7.74486E-06-3.30872E-24
 -1       824 1.93526E-04-1.21606E-05 0.00000E+00
 -1       825 1.93383E-04-1.63572E-05-3.30872E-24
 -1       826 1.93242E-04-1.98477E-05-1.65436E-24
 -1       827 1.93103E-04-2.23370E-05 0.00000E+00
 -1       828 1.92967E-04-2.35363E-05 0.00000E+00
 -1       829 1.92832E-04-2.35069E-05 0.00000E+00
 -1       830 1.92696E-04-2.23179E-05 1.65436E-24
 -1       831 1.92559E-04-2.03529E-05-3.30872E-24
 -1       832 1.92421E-04-1.80008E-05 0.00000E+00
 -1       833 1.92284E-04-1.57554E-05 0.00000E+00
 -1       834 1.92150E-04-1.41098E-05-1.65436E-24
 -1       835 1.92015E-04-1.33949E-05 0.00000E+00
 -1       836 1.95808E-04 2.35576E-06 0.00000E+00
 -1       837 1.97412E-04 2.48422E-06 1.65436E-24
 -1       838 1.98922E-04 2.61263E-06 0.00000E+00
 -1       839 2.00368E-04 2.74034E-06 0.00000E+00
 -1       840 2.01778E-04 2.86788E-06-8.27181E-25
 -1       856 1.91874E-04-1.50336E-05-8.27181E-25
 -1       857 1.91855E-04-1.59960E-05 0.00000E+00
 -1       858 1.91836E-04-1.68437E-05 0.00000E+00
 -1       859 1.91817E-04-1.75980E-05 0.00000E+00
 -1       860 1.91798E-04-1.82801E-05-4.13590E-25
 -1       861 1.91779E-04-1.89112E-05 0.00000E+00
 -1       862 1.91760E-04-1.95127E-05 4.13590E-25
 -1       863 1.91741E-04-2.01057E-05-2.06795E-25
 -1       864 1.91722E-04-2.07117E-05 4.13590E-25
 -1       865 1.91702E-04-2.13520E-05 4.13590E-25
 -1       866 1.91683E-04-2.20477E-05-8.27181E-25
 -1       867 1.91664E-04-2.28203E-05 0.00000E+00
 -1       868 1.91644E-04-2.36908E-05-8.27181E-25
 -1       869 1.91624E-04-2.46803E-05-4.13590E-25
 -1       870 1.91605E-04-2.58100E-05 8.27181E-25
 -1       871 1.93276E-04-1.39407E-05 0.00000E+00
 -1       872 1.94810E-04-1.39492E-05 0.00000E+00
 -1       873 1.96425E-04-1.39584E-05 4.13590E-25
 -1       874 1.98050E-04-1.39683E-05-2.58494E-26
 -1       875 1.99617E-04-1.39788E-05 0.00000E+00
 -1       876 1.92428E-04-1.50190E-05 0.00000E+00
 -1       877 1.92945E-04-1.60355E-05-1.65436E-24
 -1       878 1.93440E-04-1.69933E-05 0.00000E+00
 -1       879 1.93917E-04-1.78996E-05 0.00000E+00
 -1       880 1.94377E-04-1.87619E-05 0.00000E+00
 -1       881 1.94823E-04-1.95875E-05 0.00000E+00
 -1       882 1.95258E-04-2.03838E-05 3.30872E-24
 -1       883 1.95685E-04-2.11581E-05-1.65436E-24
 -1       884 1.96107E-04-2.19178E-05 0.00000E+00
 -1       885 1.96525E-04-2.26701E-05-1.65436E-24
 -1       886 1.96944E-04-2.34225E-05 0.00000E+00
 -1       887 1.97366E-04-2.41822E-05 0.00000E+00
 -1       888 1.97792E-04-2.49565E-05 0.00000E+00
 -1       889 1.98226E-04-2.57531E-05 0.00000E+00
 -1       890 1.98671E-04-2.65791E-05-1.65436E-24
 -1       891 1.92982E-04-2.71583E-05 0.00000E+00
 -1       892 1.94357E-04-2.72161E-05-8.27181E-25
 -1       893 1.95684E-04-2.72738E-05 8.27181E-25
 -1       894 1.96937E-04-2.73313E-05-4.13590E-25
 -1       895 1.98092E-04-2.73885E-05-8.27181E-25
 -1       956 2.03053E-04 1.63427E-06-1.65436E-24
 -1       957 2.02920E-04 3.74102E-07 8.27181E-25
 -1       958 2.02787E-04-8.05172E-07 0.00000E+00
 -1       959 2.02654E-04-1.91495E-06 1.65436E-24
 -1       960 2.02521E-04-2.96669E-06 3.30872E-24
 -1       961 2.02387E-04-3.97187E-06 1.65436E-24
 -1       962 2.02254E-04-4.94197E-06 0.00000E+00
 -1       963 2.02121E-04-5.88851E-06 0.00000E+00
 -1       964 2.01988E-04-6.82301E-06-3.30872E-24
 -1       965 2.01855E-04-7.75696E-06 0.00000E+00
 -1       966 2.01722E-04-8.70188E-06 0.00000E+00
 -1       967 2.01588E-04-9.66928E-06-1.65436E-24
 -1       968 2.01455E-04-1.06706E-05 0.00000E+00
 -1       969 2.01322E-04-1.17175E-05 0.00000E+00
 -1       970 2.01190E-04-1.28211E-05 0.00000E+00
 -1       971 2.00939E-04-1.51645E-05 0.00000E+00
 -1       972 2.00817E-04-1.62419E-05 0.00000E+00
 -1       973 2.00696E-04-1.72352E-05-3.30872E-24
 -1       974 2.00574E-04-1.81555E-05-1.65436E-24
 -1       975 2.00452E-04-1.90133E-05 0.00000E+00
 -1       976 2.00331E-04-1.98197E-05 0.00000E+00
 -1       977 2.00209E-04-2.05854E-05 0.00000E+00
 -1       978 2.00088E-04-2.13214E-05 0.00000E+00
 -1       979 1.99966E-04-2.20385E-05 3.30872E-24
 -1       980 1.99844E-04-2.27477E-05 0.00000E+00
 -1       981 1.99723E-04-2.34597E-05 0.00000E+00
 -1       982 1.99601E-04-2.41855E-05 1.65436E-24
 -1       983 1.99480E-04-2.49360E-05 0.00000E+00
 -1       984 1.99359E-04-2.57220E-05 1.65436E-24
 -1       985 1.99239E-04-2.65544E-05 0.00000E+00
 -3
    1PSTEP                        38          19           1          
  100CL  119 6.63020E-01         409                     0   19           1
 -4  STRESS      6    1
 -5  SXX         1    4    1    1
 -5  SYY         1    4    2    2
 -5  SZZ         1    4    3    3
 -5  SXY         1    4    1    2
 -5  SYZ         1    4    2    3
 -5  SZX         1    4    3    1
 -1         1-5.30241E+06-1.64973E+06-1.13134E+06-1.43483E+06-1.19326E-09-2.09257E-08
 -1         2 1.30996E+06 1.92868E+07 4.55954E+06 5.79670E+06 2.75904E-08 1.14946E-07
 -1         3-1.49446E+03-1.57555E+06 4.10049E+02-2.24090E+03-3.88194E-10-3.42407E-08
 -1         5-7.82583E+01 3.86063E+05 9.91734E+00-1.36694E+00-4.96230E-10-1.10049E-09
 -1         8-5.85988E+05-2.08005E+05-6.67948E+04-2.52655E+05 3.63798E-12 4.60313E-08
 -1         9 1.15585E+07 3.36590E+06 2.66590E+06-4.42979E+05-2.39816E-09 8.84756E-08
 -1        10-2.31370E+03-1.64186E+06-3.96941E+03-1.51603E+04-1.39862E-08-7.51731E-08
 -1        12-7.43735E+01 3.86084E+05 3.26247E+02-9.31285E+00-6.44024E-10 5.92991E-10
 -1        15 9.64408E+02 5.29990E+02 3.11742E+03 9.12859E-01-1.36652E-10 2.28005E-07
 -1        16 2.27461E+07-3.05225E+05 3.10391E+06-2.19838E+06 8.76995E-09 1.44821E-07
 -1        17 8.38094E+06 6.24668E+06 2.26520E+06 5.95565E+06 2.11061E-08 1.41561E-08
 -1        18 2.24839E+05 5.41993E+04 2.47334E+04-1.07712E+05 1.24162E-08-3.84262E-09
 -1        19 1.22726E+05 1.41641E+05-9.52971E+02 2.21257E+04 1.64055E-09-5.88261E-09
 -1        20-8.30431E+04-5.75464E+05-1.29187E+05 2.47667E+04-3.14685E-09 9.21197E-09
 -1        21-4.54669E+01-2.96037E+05-9.23085E+02 2.82392E+02 1.61559E-08 1.98060E-08
 -1        24 1.38855E+07 1.19691E+07 3.84873E+06 1.10854E+07-1.70898E-07-5.40555E-08
 -1        25 1.23147E+05 2.79248E+05 1.02684E+05-6.55214E+05-2.60252E-09 1.22285E-08
 -1        26-5.76272E+04 9.19698E+04-2.52549E+04 2.06162E+03-4.49290E-10 3.06213E-09
 -1        27-7.50893E+04-3.10693E+05-1.13474E+05 6.91364E+04 3.90279E-09 6.67387E-09
 -1        28 2.22272E+04-8.54633E+04 1.69056E+04 2.04418E+04-5.02646E-09-5.85199E-09
 -1        32-1.68164E+06-3.18830E+06-1.98982E+05 4.80864E+05-4.20550E-08-1.34379E-08
 -1        33-1.79190E+05 9.33245E+04 3.24976E+04-3.77391E+04-2.86976E-09 3.07743E-09
 -1        34-2.24094E+05-2.51393E+04 6.96454E+02 7.59957E+04-5.74616E-09-1.88857E-08
 -1        35-2.29223E+04-3.38923E+04-1.35070E+03 5.15012E+04-3.99693E-09-5.97114E-09
 -1        51 5.99825E+04-1.76398E+05 1.27026E+05-4.56567E+05 1.16415E-10 6.32572E-08
 -1        52 2.03900E+04-1.54318E+05 6.67676E+04-5.32463E+05 1.50067E-10 4.54893E-08
 -1        53 4.25876E+03-1.69716E+05 3.49560E+04-4.54984E+05 2.56478E-10-5.96410E-08
 -1        54 7.70465E+03-1.65524E+05 2.90983E+04-5.34026E+05 1.38243E-10-3.49144E-07
 -1        55 1.67498E+04-1.72753E+05 3.58348E+04-4.54872E+05 5.05679E-10 5.85496E-08
 -1        56-9.69144E+06-1.28924E+06-8.84081E+05-3.99065E+06 8.73115E-09 2.42144E-08
 -1        57-1.08418E+07-1.01336E+06-5.53554E+05-2.87393E+06-7.49424E-10 1.60217E-07
 -1        58-9.59914E+06-1.71519E+06-1.98708E+05-4.13129E+06-3.42698E-09-1.06076E-07
 -1        59-1.08997E+07-5.37992E+05-1.11342E+05-2.81974E+06-1.45783E-08-1.01072E-07
 -1        60-9.67970E+06-1.72167E+06-5.35112E+04-4.08684E+06-1.20781E-09 8.38700E-08
 -1        61-1.04157E+07-7.93669E+05 8.64356E+02-3.04819E+06-2.53531E-08 6.62421E-08
 -1        62-9.99515E+06-1.51848E+06-5.31683E+04-3.83476E+06 1.28421E-08-2.17988E-08
 -1        63-9.73910E+06-1.34977E+06 3.08001E+04-3.61936E+06-1.03828E-08-9.33833E-08
 -1        64-1.02894E+07-1.21292E+06-4.86809E+04-3.47234E+06-2.12531E-08 1.92740E-08
 -1        65-9.40064E+06-1.83701E+06-5.13864E+02-4.31340E+06-3.85335E-08-4.23286E-07
 -1        66-1.04139E+07-9.75540E+05-4.49542E+04-3.20074E+06 1.14960E-09-2.22388E-07
 -1        67-9.37417E+06-2.05914E+06-1.00432E+05-4.63600E+06-8.23165E-08-8.99690E-08
 -1        68-1.03949E+07-9.36198E+05-1.82741E+05-3.20025E+06-2.83908E-08-1.77679E-07
 -1        69-9.59074E+06-2.17718E+06-4.94767E+05-4.27979E+06-5.87443E-09 3.84178E-07
 -1        70-1.01267E+07-9.18032E+05-8.07439E+05-3.50735E+06-2.61571E-09-9.44128E-08
 -1        86-1.33559E+06-1.42999E+07-2.49324E+06-2.73085E+06-2.59781E-07-5.39876E-09
 -1        87 2.06928E+06 5.39050E+06 2.07464E+06 5.18800E+06-4.43557E-07 1.02158E-07
 -1        88-3.74212E+05-2.10011E+06 1.92119E+05-2.39030E+06-4.14217E-07 1.09180E-07
 -1        89 2.77451E+06 5.14384E+06 2.12305E+06 5.35092E+06-5.84114E-07 4.06380E-08
 -1        90-1.96303E+06-1.41176E+07-2.69864E+06-2.91632E+06-1.36242E-07 6.73026E-08
 -1       121-2.04755E+03-1.58048E+06-5.46806E+02 1.11075E+03 1.44003E-09-3.73257E-08
 -1       122-1.30629E+03-1.57562E+06 7.78337E+02-4.48562E+03-5.63705E-09 8.66567E-09
 -1       123-2.06728E+03-1.58061E+06 2.71784E+02 3.31714E+03 4.10694E-09 3.56522E-09
 -1       124 3.49082E+02-1.57516E+06 2.98530E+03-9.37999E+03-1.01891E-08 1.66656E-08
 -1       125-2.88470E+03-1.58152E+06 3.51294E+03 5.95898E+03 6.71025E-09-1.00081E-08
 -1       191-8.24543E+01 3.86080E+05 8.25638E+00 7.13926E-01-5.91999E-10-1.22418E-08
 -1       192-7.92182E+01 3.86064E+05 2.11720E+01-4.38385E+00-8.16916E-10-3.96085E-09
 -1       193-8.49795E+01 3.86080E+05 3.58749E+01 3.85627E+00-1.12733E-09-9.56425E-09
 -1       194-8.22948E+01 3.86067E+05 8.05074E+01-9.94984E+00-6.13069E-10-2.19261E-08
 -1       195-8.98262E+01 3.86078E+05 1.53964E+02 6.48385E+00-1.52332E-09 5.51154E-10
 -1       251-9.12563E+05 1.73357E+04-4.05555E+04-1.49325E+04 1.72460E-09 1.86115E-07
 -1       252-9.28642E+05-2.00244E+04-2.83344E+04 5.13712E+04-9.68924E-09 8.76430E-08
 -1       253-9.20929E+05 2.68672E+03-1.07857E+04-1.16121E+04 5.26131E-09 6.64750E-08
 -1       254-9.15203E+05-3.17899E+03-5.19902E+03 3.78956E+04-6.26278E-09-1.89883E-08
 -1       255-9.25437E+05 1.22997E+02-3.61712E+03-1.45900E+03 5.85396E-09 6.55757E-09
 -1       256-9.09285E+05-3.20791E+02 9.37923E+02 1.42192E+04-1.12974E-08 8.77142E-08
 -1       257-9.26367E+05-5.27207E+02-1.42839E+03 1.20544E+04-4.26098E-10-1.03854E-08
 -1       258-9.11503E+05 8.23644E+02 2.61009E+03-1.14754E+04 3.52020E-09-6.23362E-08
 -1       259-9.23415E+05-8.68941E+02 1.26237E+03 2.42321E+04-1.82308E-09 7.22192E-08
 -1       260-9.17721E+05 2.76677E+03 5.37055E+03-3.03167E+04 3.82533E-09-5.34908E-09
 -1       261-9.20770E+05-1.99061E+03 8.29538E+03 3.09098E+04 2.43109E-08 1.19048E-07
 -1       262-9.16587E+05 1.12563E+04 2.06303E+04-3.59068E+04-3.77049E-09-7.03542E-08
 -1       263-9.24803E+05-9.12859E+03 3.26692E+04 2.98310E+04-7.73952E-09 9.41145E-09
 -1       264-8.87163E+05 6.42554E+04 9.05100E+04-2.62532E+04 4.00041E-08-3.99996E-08
 -1       265-9.49700E+05-5.51302E+04 1.25945E+05 2.12449E+04 2.56983E-08 1.13068E-07
 -1       266-1.74592E+04-8.16470E+03 4.09605E+04-1.95309E+01-1.81899E-12-2.17632E-08
 -1       267 2.02398E+04 9.51492E+03 2.89522E+04 2.25366E+01-7.09406E-11-1.36896E-07
 -1       268-2.71412E+03-1.34764E+03 1.07613E+04-2.87145E+00 0.00000E+00 1.57289E-07
 -1       269 3.20457E+03 1.61277E+03 6.99476E+03 3.34492E+00 2.50111E-11 1.70042E-07
 -1       270-4.81008E+02-2.64992E+02 3.37647E+03-4.53924E-01-6.33236E-11 1.31630E-07
 -1       271-1.54153E+06-1.94636E+05-1.15767E+05-5.98692E+05 1.88629E-08-4.07454E-10
 -1       272-1.54761E+06-3.04834E+05-7.31121E+04-6.29165E+05-3.05517E-08-5.41913E-08
 -1       273-1.56567E+06-2.19925E+05-2.79217E+04-5.90724E+05-6.78483E-09 3.48331E-07
 -1       274-1.51960E+06-2.74534E+05-1.47607E+04-6.43735E+05-6.02449E-09 2.04338E-07
 -1       275-1.57120E+06-2.19925E+05-6.87127E+03-5.87085E+05 4.54384E-09 9.41091E-08
 -1       276-1.51355E+06-2.75156E+05-3.03252E+03-6.51739E+05 8.22911E-09 1.36009E-07
 -1       277-1.57392E+06-2.17522E+05-1.88248E+03-5.84442E+05-1.84973E-08-1.25650E-07
 -1       278-1.51106E+06-2.78302E+05-7.99840E+02-6.57648E+05 4.02306E-08 2.71734E-08
 -1       279-1.57567E+06-2.15494E+05-9.33602E+02-5.82559E+05-7.53244E-09-1.69357E-08
 -1       280-1.50983E+06-2.80764E+05-1.16219E+03-6.61613E+05 6.75618E-09-1.18386E-07
 -1       281-1.57661E+06-2.14147E+05-2.14135E+03-5.81462E+05-6.09152E-08-1.96949E-07
 -1       282-1.51019E+06-2.83246E+05-4.99504E+03-6.63340E+05 1.10406E-08-1.98464E-07
 -1       283-1.57606E+06-2.12674E+05-8.88455E+03-5.81282E+05-2.38397E-08-8.31537E-08
 -1       284-1.51807E+06-2.95117E+05-2.42159E+04-6.61186E+05-7.37219E-09 1.02229E-07
 -1       285-1.56882E+06-2.03549E+05-3.77344E+04-5.83124E+05 2.70575E-11 1.07309E-07
 -1       301-3.26063E+03-6.36283E+05 1.67630E+05-1.11353E+06 6.02449E-09 2.22361E-07
 -1       302-4.11159E+03-5.90391E+05 1.00907E+05-1.62581E+06-1.42463E-08-6.75427E-08
 -1       303-1.86958E+04-6.27768E+05 5.73292E+04-1.11052E+06-4.29281E-09-1.76708E-07
 -1       304-2.00676E+04-5.96591E+05 5.82519E+04-1.62514E+06 1.32422E-09-2.51894E-08
 -1       305-2.26230E+04-6.16909E+05 7.23455E+04-1.11363E+06 9.15497E-09-1.07699E-07
 -1       306-3.00920E+07-6.21426E+06-8.59615E+06-5.58239E+05-6.93835E-08-4.83124E-08
 -1       307 2.53991E+07 3.22633E+06 5.51395E+06-1.51267E+07-8.84989E-07-3.81027E-07
 -1       308-7.02714E+06-1.03271E+06-4.68289E+05 5.20099E+06-1.91125E-07 8.95670E-08
 -1       309-3.30271E+06 8.71929E+06 2.27266E+06-2.06287E+07 2.89598E-07-8.30332E-08
 -1       310-1.24755E+07-1.92217E+06-2.00466E+06 5.20906E+06-1.20664E-07-4.01342E-08
 -1       311 3.81084E+07 2.65456E+04 7.23210E+06-8.89478E+06 2.73576E-07 1.52155E-07
 -1       312-3.18385E+07-6.72027E+06-8.49659E+06-4.96071E+06 1.91154E-07 1.45519E-07
 -1       313 4.54002E+07 1.48196E+07 1.06344E+07 2.36170E+07-1.12224E-07 4.58094E-08
 -1       314-1.72847E+07-1.76796E+07-7.51042E+06-1.25171E+07 5.11180E-07-1.07044E-07
 -1       315-1.72629E+06 2.96078E+07 5.66545E+06 1.06384E+07-1.35944E-07 6.56582E-08
 -1       316 1.35591E+06-9.84902E+06-4.52051E+05-2.57702E+06-1.15442E-06-1.55356E-07
 -1       317-1.71430E+07 2.23777E+07 2.22890E+06-8.73377E+06 8.42731E-07-7.95291E-07
 -1       318-1.06305E+06-1.27113E+07-2.01841E+06-4.24202E+06-9.12696E-07 1.14436E-07
 -1       319 7.12206E+06 3.17861E+07 6.99820E+06 1.65248E+07-1.00379E-07 2.21393E-07
 -1       320-2.25275E+07-1.75658E+07-9.81168E+06-1.27706E+07 1.99769E-07-7.34290E-08
 -1       336-7.35694E+02-1.71092E+06-1.39460E+04 9.03083E+03-2.65536E-08-9.85892E-09
 -1       337-5.43183E+03-1.71051E+06-1.81743E+04-2.19230E+04-4.95945E-08-6.67933E-09
 -1       338 2.84615E+02-1.71042E+06-2.85943E+04 1.26405E+04-3.43171E-08 3.27418E-09
 -1       339-3.03192E+04-1.72783E+06-6.46178E+04-2.89892E+04-6.32645E-08 1.47938E-08
 -1       340 1.99941E+04-1.69581E+06-1.01778E+05 1.59662E+04-4.05853E-08 4.54747E-08
 -1       406-5.29620E+01 3.86063E+05 6.40407E+02 3.41325E+00-2.03337E-09-1.78443E-09
 -1       407 1.50612E+02 3.86197E+05 1.36897E+03 2.39024E+01-4.39655E-10-2.90529E-08
 -1       408 6.27868E+02 3.85963E+05 2.72940E+03-2.76096E+01-2.46541E-09-4.26371E-09
 -1       409 2.88768E+03 3.87069E+05 6.15220E+03 2.94848E+02-3.24349E-10-5.94810E-09
 -1       410 8.42982E+03 3.85177E+05 1.25562E+04-2.84200E+02-2.82307E-09 2.05036E-08
 -1       521-3.16143E+07-7.66138E+06-1.00319E+07-1.68195E+05-8.69622E-08 2.77068E-08
 -1       522 2.62332E+07 4.23033E+06 5.61442E+06-1.86109E+07-5.61820E-07-2.92173E-07
 -1       523-7.60663E+06-1.34275E+06-4.60288E+05 5.64478E+06 8.39354E-08-3.01865E-07
 -1       524-6.79841E+06 1.17479E+07 2.45533E+06-2.36700E+07 8.14238E-07-4.55013E-07
 -1       525-1.32746E+07-2.54734E+06-2.20157E+06 5.65418E+06 8.56991E-07-4.28234E-07
 -1       526 4.15441E+07-5.97326E+04 7.58388E+06-1.15364E+07 1.71422E-07-1.19442E-07
 -1       527-3.36580E+07-8.40454E+06-9.78354E+06-4.82008E+06 1.18511E-07 8.35716E-08
 -1       528 4.95306E+07 1.64811E+07 1.10817E+07 2.68229E+07-2.93367E-08-1.85828E-07
 -1       529-1.82210E+07-1.98622E+07-8.60200E+06-1.25436E+07-3.53321E-08-9.16189E-08
 -1       530-4.20478E+06 3.43502E+07 5.98883E+06 1.01201E+07-4.55766E-08 5.86675E-07
 -1       531 1.34967E+06-1.09188E+07-4.25860E+05-2.53456E+06-1.00066E-06 4.50469E-07
 -1       532-1.96801E+07 2.43825E+07 2.43274E+06-1.29852E+07 2.86294E-07-6.04465E-07
 -1       533-1.10909E+06-1.38510E+07-2.14575E+06-4.06056E+06-2.19210E-07-1.01898E-06
 -1       534 5.10296E+06 3.68449E+07 7.27577E+06 1.70806E+07-7.85803E-09 7.19912E-07
 -1       535-2.36918E+07-1.99303E+07-1.12375E+07-1.28316E+07 9.18517E-08 4.60190E-07
 -1       536-4.65467E+05-5.67170E+04-2.70820E+04-2.73657E+04-3.70196E-09 3.37750E-08
 -1       537 2.74950E+05 4.89499E+04 1.09889E+05 5.02862E+04-1.13601E-07 8.63433E-08
 -1       538-1.31400E+05 8.14422E+03 8.58029E+03-2.37745E+04 2.78298E-08 5.81153E-08
 -1       539 5.99494E+04-9.66518E+03 3.60385E+04 5.15960E+04 1.77877E-07 6.88513E-08
 -1       540-2.51945E+05 3.28715E+03-2.48614E+04-2.88371E+04-2.46614E-08 3.48928E-08
 -1       541 4.71818E+05 1.16977E+04 1.16104E+05 4.44183E+04-8.74107E-08 4.11760E-08
 -1       542-5.40209E+05-1.60279E+04-8.54581E+04-1.63333E+04 4.01802E-08 2.61671E-08
 -1       543 7.20288E+05 2.67596E+04 1.66468E+05-4.82605E+03-5.11942E-08 1.89534E-08
 -1       544-4.98595E+05-1.34044E+04-7.79634E+04 2.02098E+04-1.82134E-08-3.53664E-08
 -1       545 3.55602E+05 2.26307E+03 8.92076E+04-4.65310E+04-2.49618E-08-6.25835E-08
 -1       546-1.78185E+05 1.08491E+04-1.42075E+04 2.52681E+04 9.18811E-09-7.19605E-08
 -1       547 4.37134E+04-1.65567E+04 2.19652E+04-5.16967E+04-1.02113E-07-8.50827E-08
 -1       548-1.89041E+05 7.59262E+03-2.14128E+04 2.55848E+04-1.05107E-07-7.15518E-08
 -1       549 3.79212E+05 2.31171E+04 8.66623E+04-4.63103E+04-7.19688E-08-8.13523E-08
 -1       550-5.11234E+05-3.11046E+04-1.07703E+05 1.96658E+04 5.31804E-09-3.17596E-08
 -1       551 4.11009E+04-7.55740E+05-1.49412E+04-1.24754E+06-1.04730E-07-1.78115E-08
 -1       552 9.35204E+04-8.00526E+05 1.04712E+04-1.77892E+06-7.44039E-08 4.33502E-08
 -1       553 7.18459E+04-7.96920E+05 3.23761E+04-1.24091E+06-1.20810E-07 2.82889E-08
 -1       554 1.32158E+05-8.16272E+05 8.14115E+04-1.78086E+06-7.70378E-08 1.61508E-08
 -1       555 1.01553E+05-8.20467E+05 1.48516E+05-1.24076E+06-1.25365E-07-1.66674E-08
 -1       556 2.11974E+05-3.83130E+05 2.60331E+04-4.09097E+05-2.64263E-08-1.83936E-08
 -1       557 3.41934E+05-4.86907E+05 1.62784E+04-5.28731E+05-2.38651E-09-5.73345E-09
 -1       558 1.93895E+05-3.76050E+05 2.39059E+03-4.13416E+05-2.51166E-08 6.17001E-09
 -1       559 3.17062E+05-4.87072E+05 2.46602E+03-5.49073E+05 1.05356E-08-1.11104E-08
 -1       560 1.78686E+05-3.66511E+05-1.49285E+03-4.24368E+05 5.03496E-09-1.60435E-08
 -1       561 2.97950E+05-4.79433E+05 1.31002E+02-5.62123E+05-3.65253E-09-8.79663E-09
 -1       562 1.66644E+05-3.59028E+05-1.33285E+03-4.33085E+05-3.43425E-09 2.92493E-09
 -1       563 2.83642E+05-4.73199E+05-4.52437E+01-5.71482E+05-1.68802E-09 1.48166E-08
 -1       564 1.58029E+05-3.53659E+05-6.18060E+02-4.39187E+05 8.55653E-09 7.16818E-09
 -1       565 2.74117E+05-4.69054E+05 1.09855E+00-5.77576E+05 6.69388E-09 1.06220E-08
 -1       566 1.52965E+05-3.50454E+05-3.03270E+02-4.42727E+05-9.44419E-09-1.68984E-08
 -1       567 2.69434E+05-4.67025E+05-4.44263E+02-5.80424E+05 8.20000E-09 3.69291E-08
 -1       568 1.51545E+05-3.49583E+05-1.28424E+03-4.43813E+05-3.98268E-09 3.14612E-08
 -1       569 2.68140E+05-4.67019E+05-3.21742E+03-5.79073E+05-8.51833E-09 3.87445E-08
 -1       570 1.54897E+05-3.52886E+05-6.92201E+03-4.42754E+05 1.96451E-10-7.40147E-09
 -1       571 2.91503E+05 1.04174E+04 1.48459E+04-9.49954E+04 6.09543E-09 1.22332E-08
 -1       572 2.93653E+05 3.93427E+03 7.27567E+03-1.04225E+05 4.34420E-09 8.34189E-09
 -1       573 2.92358E+05 1.24451E+03 3.23286E+03-9.48221E+04 6.02813E-09-3.61342E-09
 -1       574 2.92569E+05 7.31623E+02 1.62127E+03-1.04446E+05 1.18393E-09 4.36739E-09
 -1       575 2.92452E+05 4.53655E+02 7.65255E+02-9.47983E+04 4.09611E-09 1.22809E-08
 -1       576 2.92436E+05 4.65435E+02 3.91929E+02-1.04475E+05 5.91240E-09-1.84018E-08
 -1       577 2.92493E+05 3.95122E+02 1.95853E+02-9.47950E+04 9.83164E-10 4.43015E-09
 -1       578 2.92468E+05 4.26649E+02 1.13604E+02-1.04480E+05-8.12406E-09 3.63889E-09
 -1       579 2.92567E+05 3.57622E+02 7.87563E+01-9.47947E+04 5.05679E-09-1.28812E-08
 -1       580 2.92572E+05 3.74946E+02 9.25766E+01-1.04475E+05-8.42920E-09-6.73208E-09
 -1       581 2.92682E+05 2.98609E+02 1.40892E+02-9.48006E+04 9.10950E-09-1.11377E-08
 -1       582 2.92748E+05 3.38283E+02 2.87105E+02-1.04413E+05 6.55382E-09-5.53518E-09
 -1       583 2.92822E+05 3.44469E+02 5.51674E+02-9.48574E+04 1.35697E-09 1.09549E-08
 -1       584 2.93130E+05 7.95648E+02 1.24841E+03-1.03935E+05 2.85218E-09 1.14715E-08
 -1       585 2.92844E+05 1.84802E+03 2.52852E+03-9.52780E+04-3.05226E-09-6.46469E-09
 -1       586-3.63716E+03 1.16386E+05-3.21223E+03-2.45676E+05-6.23822E-09 3.71529E-09
 -1       587-1.41269E+03 1.16097E+05 6.53672E+02-2.70386E+05-5.89898E-09-1.79034E-08
 -1       588 3.94728E+02 1.15923E+05 4.76295E+03-2.45541E+05-5.79348E-09-2.84763E-09
 -1       589 5.15266E+03 1.18414E+05 1.24713E+04-2.70158E+05-1.33386E-08-3.50610E-09
 -1       590 1.68302E+04 1.14554E+05 2.62091E+04-2.45966E+05-8.29004E-09-5.23869E-10
 -1       591-7.41312E+04-1.56554E+04-2.26388E+04-3.13577E+04-2.64390E-09-3.48064E-09
 -1       592-7.83423E+04-1.91288E+04-1.22630E+04-3.48834E+04-1.76527E-09-2.02790E-08
 -1       593-7.63937E+04-1.40144E+04-5.10444E+03-3.30194E+04-7.40883E-10-1.04017E-08
 -1       594-7.52182E+04-1.58050E+04-2.54570E+03-3.49995E+04-9.94945E-10 6.28785E-09
 -1       595-7.65661E+04-1.40091E+04-1.16865E+03-3.30949E+04-3.45850E-10 1.90471E-08
 -1       596-7.50042E+04-1.56530E+04-5.93720E+02-3.49739E+04 1.19367E-08 8.43607E-09
 -1       597-7.65877E+04-1.40247E+04-3.22526E+02-3.30977E+04 8.87246E-09-4.16389E-09
 -1       598-7.49831E+04-1.56470E+04-2.57852E+02-3.49667E+04-9.37234E-10-3.42493E-09
 -1       599-7.65865E+04-1.40252E+04-3.27602E+02-3.30974E+04 8.11804E-09-6.62453E-09
 -1       600-7.50041E+04-1.56535E+04-6.07167E+02-3.49717E+04 5.26416E-09-2.57000E-09
 -1       601-7.65620E+04-1.40106E+04-1.19706E+03-3.30940E+04 5.60476E-10 1.04733E-08
 -1       602-7.52233E+04-1.58079E+04-2.60848E+03-3.49941E+04-1.27011E-09-1.24783E-08
 -1       603-7.63826E+04-1.40189E+04-5.23088E+03-3.30176E+04-2.87082E-09-1.91403E-08
 -1       604-7.84430E+04-1.91937E+04-1.25658E+04-3.48496E+04 4.81316E-09-5.07271E-09
 -1       605-7.40438E+04-1.57189E+04-2.31980E+04-3.13349E+04 3.06204E-09 1.12377E-08
 -1       606 2.64051E+04-1.43665E+04-2.57548E+04 2.36735E+04 7.27778E-09-2.70620E-09
 -1       607 2.20045E+04-4.69205E+03-1.28259E+04 2.66049E+04 2.15005E-09-1.05301E-08
 -1       608 2.45131E+04-8.46318E+02-5.74163E+03 2.35077E+04-3.51429E-09 2.29534E-09
 -1       609 2.40327E+04-2.90221E+02-2.90054E+03 2.68162E+04 1.16415E-09 6.90761E-09
 -1       610 2.42997E+04-4.13555E+01-1.38382E+03 2.34879E+04 7.33507E-09 8.99195E-09
 -1       611 2.42245E+04-4.19936E+01-6.97697E+02 2.68390E+04 1.13841E-08 7.18546E-09
 -1       612 2.42530E+04-2.79809E+01-3.31577E+02 2.34859E+04 1.09294E-08 7.25777E-10
 -1       613 2.42368E+04-3.82359E+01-1.48447E+02 2.68417E+04 2.14104E-08 5.29826E-09
 -1       614 2.42313E+04-3.47237E+01-3.44472E+01 2.34852E+04 1.10858E-08-2.00907E-09
 -1       615 2.42320E+04-3.70117E+01 6.30910E+01 2.68421E+04-8.36735E-11 2.04880E-08
 -1       616 2.42142E+04-3.18104E+01 1.88386E+02 2.34855E+04 2.81852E-09-1.37607E-09
 -1       617 2.42550E+04 2.88739E+00 4.29491E+02 2.68417E+04 3.94562E-09-8.27117E-09
 -1       618 2.41772E+04 9.18151E+01 8.65595E+02 2.34858E+04 3.65617E-10 4.96379E-09
 -1       619 2.45608E+04 6.72007E+02 1.94368E+03 2.68411E+04-2.01590E-09-1.79084E-08
 -1       620 2.38898E+04 2.14420E+03 3.90673E+03 2.34875E+04 1.20838E-09-9.81436E-09
 -1       621 5.09514E+02 3.01524E+05 3.85475E+03 4.15658E+04 1.07957E-09 1.14596E-09
 -1       622 6.78398E+02 3.02411E+05 3.42665E+03 6.03412E+04 1.26647E-09 1.27357E-08
 -1       623 1.46518E+02 3.01714E+05 4.12394E+03 4.13773E+04 1.47179E-09-6.88306E-09
 -1       624 2.12629E+03 3.03624E+05 8.00036E+03 6.05273E+04 1.35702E-09-5.72754E-09
 -1       625 2.07557E+03 3.00125E+05 1.39827E+04 4.13735E+04 1.33241E-09 5.09317E-10
 -1       626 2.61985E+05 6.14389E+04 5.19525E+03 1.26924E+05 5.16638E-09 6.99401E-09
 -1       627 2.59694E+05 6.27962E+04 2.50353E+03 1.31191E+05 1.38452E-08 2.59073E-08
 -1       628 2.62112E+05 5.90648E+04 1.05885E+03 1.27811E+05-5.70253E-09 3.45176E-09
 -1       629 2.59054E+05 6.21024E+04 5.18187E+02 1.31431E+05-1.15415E-08 7.77341E-09
 -1       630 2.62127E+05 5.89499E+04 2.40441E+02 1.27849E+05-6.26278E-09 8.43295E-09
 -1       631 2.58987E+05 6.20756E+04 1.29395E+02 1.31433E+05 6.09543E-09 2.40356E-08
 -1       632 2.62124E+05 5.89537E+04 8.51360E+01 1.27845E+05 1.33796E-08 3.58523E-09
 -1       633 2.58979E+05 6.20772E+04 9.48457E+01 1.31429E+05 5.08589E-09-3.13244E-08
 -1       634 2.62120E+05 5.89507E+04 1.53272E+02 1.27845E+05-3.56459E-09 3.08887E-09
 -1       635 2.58993E+05 6.20754E+04 3.10140E+02 1.31435E+05-8.38861E-09 1.50130E-08
 -1       636 2.62111E+05 5.89448E+04 6.26334E+02 1.27844E+05 1.66847E-08-1.15601E-08
 -1       637 2.59129E+05 6.21727E+04 1.37720E+03 1.31435E+05 3.03789E-08 6.10316E-09
 -1       638 2.62063E+05 5.92489E+04 2.82960E+03 1.27707E+05 1.51540E-08-3.13275E-09
 -1       639 2.60616E+05 6.42399E+04 6.69502E+03 1.30997E+05 8.86939E-09 1.19721E-08
 -1       640 2.61856E+05 6.54225E+04 1.38933E+04 1.25107E+05 3.86126E-09-4.26189E-09
 -1       656 6.67448E+04-1.70871E+06-1.61119E+05-2.60963E+03 1.30967E-10 3.96898E-09
 -1       657-8.83016E+04-1.78152E+06-1.33485E+05 5.05323E+03-1.00863E-09 9.22685E-09
 -1       658 2.12798E+04-1.72939E+06-8.22207E+04-4.69623E+03-9.79298E-10-2.26186E-08
 -1       659-9.55123E+04-1.78495E+06-1.42962E+05 6.79711E+03-3.08683E-09-2.36662E-08
 -1       660 7.39393E+04-1.70530E+06-1.77411E+05-4.35351E+03-2.71393E-09-1.05089E-08
 -1       661 1.56697E+05 1.63724E+04 1.65838E+04 6.12625E+04-4.34693E-09 8.28732E-09
 -1       662 1.66101E+05 2.86256E+04 1.11764E+04 5.75094E+04 2.90584E-10-1.34163E-08
 -1       663 1.59954E+05 2.16928E+04 3.90875E+03 6.03172E+04-3.52293E-09-1.48066E-09
 -1       664 1.62324E+05 2.24038E+04 2.33830E+03 5.86642E+04-2.93494E-09-2.08723E-09
 -1       665 1.60448E+05 2.24194E+04 9.22449E+02 6.01729E+04-5.86340E-10 4.35108E-09
 -1       666 1.61739E+05 2.15730E+04 5.40042E+02 5.88524E+04 4.99551E-09 1.95501E-08
 -1       667 1.60535E+05 2.25020E+04 2.87139E+02 6.01367E+04 3.06005E-09-1.92286E-09
 -1       668 1.61644E+05 2.15137E+04 2.93238E+02 5.89049E+04-5.16690E-09-2.39501E-08
 -1       669 1.60543E+05 2.24770E+04 3.97556E+02 6.01206E+04-2.61872E-09 3.46205E-10
 -1       670 1.61740E+05 2.17296E+04 8.66189E+02 5.89076E+04-1.07059E-08-1.57435E-08
 -1       671 1.60438E+05 2.22906E+04 1.53816E+03 6.01320E+04-4.49809E-10-1.71560E-08
 -1       672 1.62637E+05 2.32258E+04 3.93549E+03 5.86901E+04 9.61506E-10-4.57936E-09
 -1       673 1.59651E+05 2.10186E+04 6.59530E+03 6.03236E+04 4.03202E-09 9.54378E-09
 -1       674 1.68914E+05 3.38218E+04 1.88612E+04 5.68458E+04-4.06931E-09 1.39894E-08
 -1       675 1.54201E+05 1.19914E+04 2.79967E+04 6.18650E+04-7.74889E-09 1.69584E-08
 -1       676 2.41002E+01-2.95960E+05-1.11256E+03-1.41200E+02 1.73765E-09-4.20625E-09
 -1       677-2.94230E+02-2.96229E+05-2.03618E+03 2.82173E+02 1.10268E-08-1.18116E-08
 -1       678 1.97399E+02-2.95768E+05-3.59946E+03-1.40881E+02 2.96131E-09-7.19714E-09
 -1       679-3.59945E+03-2.98402E+05-8.55082E+03 2.80953E+02 7.93000E-09-1.89997E-09
 -1       680 2.14913E+03-2.93788E+05-1.37810E+04-1.38425E+02 1.19326E-09 5.57023E-10
 -1       771-3.06328E+06-7.47097E+05-1.65104E+05-1.46612E+06-3.88536E-08-2.95113E-08
 -1       772-2.98608E+06-8.35819E+05-8.51091E+04-1.56871E+06-2.54950E-08 2.07365E-08
 -1       773-3.09467E+06-7.22607E+05-4.34137E+04-1.48059E+06-1.57743E-08 1.03901E-08
 -1       774-2.97664E+06-8.17412E+05-1.93629E+04-1.59444E+06 1.99070E-08 3.41970E-10
 -1       775-3.11110E+06-7.11080E+05-1.45016E+04-1.48762E+06-5.20959E-09 1.62981E-09
 -1       776-2.98896E+06-8.14390E+05-5.41982E+03-1.61392E+06 1.30385E-08 4.17640E-09
 -1       777-3.12535E+06-7.00792E+05-6.41329E+03-1.49383E+06 1.51049E-08 6.69388E-09
 -1       778-3.00184E+06-8.11575E+05-1.81144E+03-1.63065E+06 6.40284E-09 6.18456E-09
 -1       779-3.13761E+06-6.91802E+05-3.20565E+03-1.49914E+06-2.35741E-09-5.46424E-09
 -1       780-3.01317E+06-8.08889E+05-5.28492E+02-1.64428E+06-2.61934E-09-1.36060E-09
 -1       781-3.14735E+06-6.84554E+05-1.24025E+03-1.50329E+06-3.08646E-08-1.14414E-09
 -1       782-3.02191E+06-8.06606E+05 4.62733E+02-1.65434E+06-3.99668E-08-7.55063E-09
 -1       783-3.15421E+06-6.79517E+05 7.26185E+02-1.50620E+06-5.77711E-09-8.51196E-09
 -1       784-3.02673E+06-8.04308E+05 2.96393E+03-1.66056E+06-1.93941E-08 2.11230E-09
 -1       785-3.15829E+06-6.76503E+05 5.23763E+03-1.50805E+06-3.93702E-08 7.67250E-09
 -1       786 1.11614E+05-9.43502E+03 2.18285E+04-2.97664E+02 2.31197E-09-5.40695E-09
 -1       787 1.21082E+05 1.09236E+04 1.54427E+04-1.20572E+02 6.99464E-09 6.50630E-09
 -1       788 1.15264E+05-1.47850E+03 5.64719E+03-2.65004E+02 2.92232E-10 2.28131E-08
 -1       789 1.16829E+05 1.71124E+03 3.54466E+03-1.70686E+02-2.82269E-09 7.21633E-09
 -1       790 1.15866E+05-2.30165E+02 1.43416E+03-2.47567E+02-3.65233E-09-4.35517E-09
 -1       791 1.16124E+05 2.65966E+02 8.26384E+02-2.00653E+02-7.68033E-09-1.03115E-08
 -1       792 1.15969E+05-3.43047E+01 3.46272E+02-2.35040E+02-4.24133E-09-1.83496E-08
 -1       793 1.16001E+05 3.42385E+01 1.64046E+02-2.24189E+02 1.26660E-09 9.38103E-09
 -1       794 1.15990E+05 1.41748E+00 2.53828E+01-2.24031E+02 5.15912E-09 3.72331E-10
 -1       795 1.15958E+05-4.13720E+01-1.02208E+02-2.46912E+02-4.33318E-09-1.13876E-08
 -1       796 1.16011E+05 4.12629E+01-2.37128E+02-2.12317E+02 2.70569E-09 6.12135E-09
 -1       797 1.15828E+05-3.07509E+02-6.28597E+02-2.73396E+02 4.13771E-09 8.03620E-09
 -1       798 1.16121E+05 2.67356E+02-1.01463E+03-1.97547E+02 2.17198E-09 2.05799E-08
 -1       799 1.15060E+05-1.97196E+03-2.78607E+03-3.09675E+02 7.00289E-09-2.55855E-09
 -1       800 1.16779E+05 1.70436E+03-3.94126E+03-1.76039E+02-8.89955E-12 5.85715E-09
 -1       801-1.75483E+05-1.00999E+07-1.40952E+06 1.44186E+06 9.26957E-08-5.59739E-08
 -1       802 7.53879E+05 6.12190E+06 2.22519E+06-1.78140E+06 2.59817E-07-3.90755E-08
 -1       803-5.46802E+05-1.44826E+07-1.92753E+06 9.09724E+05 7.66377E-08 1.34132E-08
 -1       804 2.95270E+05 2.53171E+06 1.57228E+06 6.89518E+05-1.22764E-07-1.07450E-07
 -1       805 1.90854E+05-6.52356E+06-2.94599E+05-1.02326E+06-5.07498E-08-7.64539E-08
 -1       806-3.10476E+05-5.97141E+04-2.26681E+04-1.22767E+05-6.11544E-09 6.66296E-09
 -1       807-3.12277E+05-5.59962E+04-1.11366E+04-1.28247E+05 5.41422E-09 2.50627E-09
 -1       808-3.11097E+05-5.15458E+04-4.72454E+03-1.26630E+05-9.09267E-09 1.63519E-08
 -1       809-3.09937E+05-5.28656E+04-2.31022E+03-1.28519E+05-1.25358E-08-7.79346E-09
 -1       810-3.11191E+05-5.12615E+04-1.05899E+03-1.26801E+05-3.42243E-09-3.20499E-08
 -1       811-3.09756E+05-5.27396E+04-5.26796E+02-1.28484E+05-1.11213E-08-1.39808E-08
 -1       812-3.11205E+05-5.12860E+04-2.66811E+02-1.26801E+05-1.40626E-08-9.23183E-09
 -1       813-3.09731E+05-5.27417E+04-1.74077E+02-1.28465E+05-4.79622E-09-8.22956E-09
 -1       814-3.11198E+05-5.12956E+04-1.73579E+02-1.26797E+05 1.78170E-09 7.33735E-09
 -1       815-3.09735E+05-5.27438E+04-2.80715E+02-1.28458E+05 1.27802E-08 1.39496E-08
 -1       816-3.11177E+05-5.12945E+04-5.32700E+02-1.26793E+05 1.24091E-08 1.35897E-08
 -1       817-3.09826E+05-5.27946E+04-1.14360E+03-1.28446E+05-6.98628E-09-1.57963E-08
 -1       818-3.11108E+05-5.14557E+04-2.33268E+03-1.26717E+05 6.18456E-11-7.06905E-09
 -1       819-3.11101E+05-5.42052E+04-5.48877E+03-1.28146E+05-7.58519E-10 1.23691E-09
 -1       820-3.10670E+05-5.56009E+04-1.11717E+04-1.24945E+05 2.90947E-09 4.88239E-09
 -1       821-3.77962E+05 2.08623E+04-4.85349E+04 2.08798E+03 1.39877E-08 2.19734E-09
 -1       822-3.97780E+05-2.41659E+04-3.41321E+04-4.26931E+03 4.58246E-09-2.43563E-09
 -1       823-3.85478E+05 3.28679E+03-1.25387E+04 3.32280E+03-1.24050E-08-5.85032E-09
 -1       824-3.88726E+05-3.79084E+03-7.85176E+03-5.10563E+03 6.44178E-11 1.15597E-09
 -1       825-3.87022E+05 5.10308E+02-3.28434E+03 2.92441E+03 1.97887E-08-7.24413E-09
 -1       826-3.86360E+05-5.69336E+02-1.75890E+03-2.90477E+03 2.67359E-08-2.88992E-10
 -1       827-3.87821E+05 5.01638E+01-1.17550E+03 1.12181E+03 1.45432E-08 5.96941E-10
 -1       828-3.85705E+05-1.36724E+02-6.11932E+02 1.11180E+03-1.08162E-09-8.88577E-09
 -1       829-3.87665E+05 6.87185E+01-1.16570E+03-1.09219E+03 3.48513E-09-5.52816E-09
 -1       830-3.86697E+05-6.23266E+02-1.89455E+03 4.72264E+03 9.20068E-10-6.85941E-09
 -1       831-3.86849E+05 5.52975E+02-3.36754E+03-2.48905E+03-5.73817E-09 1.62231E-09
 -1       832-3.88807E+05-3.95748E+03-8.15479E+03 5.92756E+03-2.95566E-09 1.41326E-08
 -1       833-3.85571E+05 3.41134E+03-1.30418E+04-2.29715E+03-2.95543E-10 1.20845E-08
 -1       834-3.97853E+05-2.50810E+04-3.53589E+04 4.02548E+03-1.49596E-09 1.59234E-08
 -1       835-3.77787E+05 2.16448E+04-5.04056E+04-5.86900E+02 5.22189E-09 2.22826E-08
 -1       836-1.41421E+03 3.71341E+05 2.29706E+04-1.50066E+04-7.25868E-09 4.58886E-09
 -1       837 4.90099E+03 3.78534E+05 1.94375E+04-3.07154E+04-7.84860E-09-1.13985E-08
 -1       838-5.57932E+02 3.73360E+05 1.98052E+04-1.49378E+04-6.52017E-09 5.07157E-09
 -1       839 1.24679E+04 3.84172E+05 3.74661E+04-3.07684E+04-6.80529E-09 1.21742E-08
 -1       840-3.85180E+03 3.65647E+05 5.97453E+04-1.49595E+04-6.40284E-09 8.09965E-09
 -1       856-5.03736E+04 7.98291E+03-2.10367E+04-3.96774E+02 3.76315E-09-1.63982E-09
 -1       857-5.90398E+04-9.38010E+03-1.44814E+04 5.62891E+03 7.72559E-09 1.17093E-08
 -1       858-5.38058E+04 1.11955E+03-5.45846E+03-4.20444E+02 2.34218E-09 6.08384E-09
 -1       859-5.51010E+04-1.31753E+03-3.29383E+03 5.66402E+03-4.34630E-09 2.23249E-08
 -1       860-5.43186E+04 1.56816E+02-1.38026E+03-4.31605E+02-3.39995E-09 1.12701E-08
 -1       861-5.45112E+04-1.87588E+02-7.58921E+02 5.67921E+03-1.36922E-10-1.40732E-08
 -1       862-5.43988E+04 2.12429E+01-3.14693E+02-4.35608E+02-4.40706E-09-1.52218E-09
 -1       863-5.44127E+04-2.19170E+01-1.12862E+02 5.68155E+03-8.47209E-09-1.14593E-08
 -1       864-5.44176E+04-5.08448E+00 5.09454E+01-4.33944E+02-2.86137E-09-9.08651E-09
 -1       865-5.43562E+04 6.09234E+01 2.62792E+02 5.67199E+03-6.58719E-09-6.51139E-09
 -1       866-5.44532E+04-6.15807E+01 5.27572E+02-4.26050E+02 2.51777E-09-9.30692E-09
 -1       867-5.41087E+04 5.08522E+02 1.29722E+03 5.65057E+03-2.00075E-09 1.47284E-08
 -1       868-5.46601E+04-4.44511E+02 2.15532E+03-4.12527E+02-3.71614E-09-8.88929E-09
 -1       869-5.25291E+04 3.69982E+03 5.73832E+03 5.61535E+03-8.95852E-11-2.86142E-08
 -1       870-5.60250E+04-3.16606E+03 8.32774E+03-3.90712E+02-4.78337E-09 4.34602E-09
 -1       871-5.53157E+03-2.15849E+04-1.95748E+04 1.31094E+05-6.08270E-09 2.03281E-08
 -1       872-1.97725E+03-2.61400E+04-8.20144E+03 1.69984E+05-1.08967E-08 5.57975E-09
 -1       873 4.16914E+02-2.39349E+04 5.79835E+02 1.30806E+05-5.50790E-09-1.33801E-08
 -1       874 3.32658E+03-2.15232E+04 9.79232E+03 1.70012E+05-1.25328E-08-6.76778E-09
 -1       875 6.86976E+03-2.62682E+04 2.21005E+04 1.31046E+05-6.24095E-09-2.94649E-08
 -1       876 2.94410E+05 4.95827E+04 1.51103E+04 1.18103E+05 2.93971E-09 1.74859E-08
 -1       877 2.95415E+05 5.27593E+04 8.06950E+03 1.22432E+05 9.54583E-09 8.66783E-09
 -1       878 2.95823E+05 4.79088E+04 3.38073E+03 1.19341E+05-8.40464E-09 6.19320E-09
 -1       879 2.93361E+05 5.07093E+04 1.68450E+03 1.22534E+05 6.11226E-09-1.42689E-08
 -1       880 2.95924E+05 4.78915E+04 7.84641E+02 1.19392E+05-4.06794E-09-5.67741E-09
 -1       881 2.93224E+05 5.06216E+04 4.19074E+02 1.22510E+05-7.48469E-09-1.19501E-08
 -1       882 2.95934E+05 4.79048E+04 2.68215E+02 1.19393E+05 4.94083E-09 1.79045E-08
 -1       883 2.93215E+05 5.06170E+04 2.88526E+02 1.22503E+05 1.31689E-08 1.11395E-08
 -1       884 2.95927E+05 4.79020E+04 4.59147E+02 1.19393E+05 6.45707E-09-5.29360E-09
 -1       885 2.93251E+05 5.06234E+04 9.23245E+02 1.22514E+05-1.94291E-10-1.51437E-08
 -1       886 2.95891E+05 4.78751E+04 1.86081E+03 1.19390E+05 1.08820E-09 1.10297E-08
 -1       887 2.93578E+05 5.08378E+04 4.06471E+03 1.22561E+05 1.18473E-08 1.30109E-08
 -1       888 2.95634E+05 4.79203E+04 8.19051E+03 1.19260E+05-4.72468E-10 9.70749E-09
 -1       889 2.98454E+05 5.59089E+04 1.95656E+04 1.22412E+05-1.45832E-10 9.01400E-09
 -1       890 2.92291E+05 5.18915E+04 3.66459E+04 1.16143E+05 2.06091E-09-5.38603E-09
 -1       891-8.80951E+01-1.62999E+05-2.00204E+03 2.70765E+04-5.60476E-10 9.31527E-09
 -1       892-1.73447E+02-1.63529E+05-2.14913E+03 4.11207E+04 5.06361E-09-9.10222E-09
 -1       893 4.55060E+01-1.63064E+05-3.04175E+03 2.70839E+04-1.49726E-09 4.86943E-09
 -1       894-1.51009E+03-1.64678E+05-6.29448E+03 4.09685E+04 1.15483E-09-4.04862E-09
 -1       895-1.19946E+03-1.61753E+05-1.10841E+04 2.72307E+04 9.38257E-10-2.30102E-09
 -1       956-3.78285E+05-5.45622E+03-1.34636E+04 3.10454E+04 2.94403E-09-1.29085E-08
 -1       957-3.80926E+05-1.92652E+03-6.91064E+03 3.73081E+04-1.72577E-09-1.06224E-08
 -1       958-3.79495E+05-2.43135E+02-3.11416E+03 3.08775E+04-1.52604E-08-5.63796E-09
 -1       959-3.79691E+05-1.38771E+02-1.59014E+03 3.75041E+04-2.40616E-08-1.20799E-08
 -1       960-3.79613E+05-4.67914E+01-7.75442E+02 3.08602E+04-8.98672E-09-3.80783E-09
 -1       961-3.79611E+05-6.56411E+01-4.11168E+02 3.75246E+04 1.10631E-08 1.67697E-08
 -1       962-3.79641E+05-4.80119E+01-2.35477E+02 3.08573E+04 1.04019E-08 2.36241E-10
 -1       963-3.79611E+05-6.14763E+01-1.89170E+02 3.75282E+04 1.06518E-08 1.22427E-08
 -1       964-3.79646E+05-4.47101E+01-2.30225E+02 3.08566E+04-1.65676E-09-9.78162E-10
 -1       965-3.79623E+05-5.86115E+01-3.98344E+02 3.75275E+04-5.64751E-09-1.38064E-08
 -1       966-3.79630E+05-3.69749E+01-7.48577E+02 3.08581E+04-5.52291E-09-7.60497E-09
 -1       967-3.79713E+05-1.22527E+02-1.53535E+03 3.75129E+04-1.66008E-08 2.24381E-08
 -1       968-3.79525E+05-2.20249E+02-3.00570E+03 3.08709E+04-8.20364E-09-1.05433E-09
 -1       969-3.80917E+05-1.84316E+03-6.67254E+03 3.73629E+04 1.86947E-09-1.95347E-08
 -1       970-3.78365E+05-5.24980E+03-1.29986E+04 3.09993E+04-3.93811E-10-5.91626E-09
 -1       971-3.45992E+05-1.72735E+03-9.30408E+03 1.53623E+04 4.77485E-09-5.98768E-09
 -1       972-3.48231E+05-1.27235E+03-5.06692E+03 2.12411E+04-3.22734E-09 5.54655E-09
 -1       973-3.47028E+05-6.29801E+01-2.26953E+03 1.52415E+04-5.67888E-09-9.60313E-09
 -1       974-3.47163E+05-8.24455E+01-1.17648E+03 2.13779E+04-6.10453E-09 1.46090E-08
 -1       975-3.47110E+05-1.81591E+01-5.88594E+02 1.52292E+04-2.29102E-09-3.59796E-09
 -1       976-3.47101E+05-3.26572E+01-3.40526E+02 2.13937E+04 3.83261E-09-2.20767E-08
 -1       977-3.47127E+05-1.74257E+01-2.48837E+02 1.52258E+04-1.12288E-08-1.40683E-08
 -1       978-3.47107E+05-2.64446E+01-2.93500E+02 2.13986E+04-1.29628E-08 1.74396E-08
 -1       979-3.47126E+05-8.93890E+00-4.73540E+02 1.52243E+04-5.53410E-09 1.39858E-08
 -1       980-3.47142E+05-2.33812E+01-9.15588E+02 2.13996E+04-4.98892E-09-4.42890E-09
 -1       981-3.47097E+05 1.39538E+01-1.77393E+03 1.52249E+04-4.54747E-10-5.55349E-09
 -1       982-3.47386E+05-1.54441E+02-3.66703E+03 2.13930E+04 6.10760E-09-2.07528E-08
 -1       983-3.46874E+05-9.96132E+01-7.12525E+03 1.52309E+04-1.49430E-09 2.64095E-09
 -1       984-3.50813E+05-3.87572E+03-1.59568E+04 2.13075E+04-2.99588E-09 8.01901E-09
 -1       985-3.43648E+05-5.31340E+03-2.93016E+04 1.53018E+04-3.27827E-09 5.78802E-09
 -3
    1PSTEP                        39          20           1          
  100CL  120 6.63053E-01         409                     0   20           1
 -4  DISP        4    1
 -5  D1          1    2    1    0
 -5  D2          1    2    2    0
 -5  D3          1    2    3    0
 -5  ALL         1    2    0    0    1ALL
 -1         1 2.69944E-03 0.00000E+00 0.00000E+00
 -1         2 1.38839E-03 1.40796E-27 0.00000E+00
 -1         3 3.43036E-04-5.28489E-28-1.32349E-23
 -1         5 1.76520E-04-3.11991E-27 2.48154E-24
 -1         8 2.68808E-03-4.15301E-07 0.00000E+00
 -1         9 2.68141E-03-1.76163E-04 0.00000E+00
 -1        10 3.11006E-04-3.43474E-06 6.61744E-24
 -1        12 1.78404E-04 8.08571E-07-8.27181E-25
 -1        15 2.67501E-03-4.40599E-07 0.00000E+00
 -1        16 2.74199E-03-1.77903E-04 0.00000E+00
 -1        17 2.11562E-04-7.82945E-06 0.00000E+00
 -1        18 1.82461E-04 3.49101E-05 0.00000E+00
 -1        19 1.84059E-04 1.61066E-06 0.00000E+00
 -1        20 1.84196E-04-1.03815E-05 0.00000E+00
 -1        21 1.83298E-04-2.65080E-05-3.30872E-24
 -1        24 3.06426E-05-1.20637E-05 0.00000E+00
 -1        25 1.93506E-04 3.51343E-05 0.00000E+00
 -1        26 1.94117E-04 2.23067E-06 0.00000E+00
 -1        27 1.91926E-04-1.39501E-05 0.00000E+00
 -1        28 1.91620E-04-2.71305E-05 0.00000E+00
 -1        32 0.00000E+00 0.00000E+00 0.00000E+00
 -1        33 2.03226E-04 2.98644E-06 0.00000E+00
 -1        34 2.01102E-04-1.40071E-05 0.00000E+00
 -1        35 1.99166E-04-2.74736E-05 0.00000E+00
 -1        51 2.69868E-03-8.63319E-08 0.00000E+00
 -1        52 2.69729E-03-1.54456E-07 3.30872E-24
 -1        53 2.69540E-03-2.19191E-07 0.00000E+00
 -1        54 2.69315E-03-2.82770E-07 0.00000E+00
 -1        55 2.69066E-03-3.46949E-07 0.00000E+00
 -1        56 2.69245E-03 6.79586E-06 0.00000E+00
 -1        57 2.67939E-03 2.86130E-05 0.00000E+00
 -1        58 2.66221E-03 6.06531E-05-1.05879E-22
 -1        59 2.64315E-03 9.71276E-05 0.00000E+00
 -1        60 2.62498E-03 1.31492E-04 1.05879E-22
 -1        61 2.61027E-03 1.57372E-04-5.29396E-23
 -1        62 2.60085E-03 1.69910E-04 1.05879E-22
 -1        63 2.59792E-03 1.65437E-04-5.29396E-23
 -1        64 2.60135E-03 1.43392E-04 1.05879E-22
 -1        65 2.61046E-03 1.04855E-04-5.29396E-23
 -1        66 2.62363E-03 5.40078E-05 0.00000E+00
 -1        67 2.63902E-03-3.77943E-06-5.29396E-23
 -1        68 2.65448E-03-6.18082E-05 0.00000E+00
 -1        69 2.66791E-03-1.13350E-04-5.29396E-23
 -1        70 2.67738E-03-1.52923E-04-1.05879E-22
 -1        86 1.46966E-03-5.65090E-06-5.29396E-23
 -1        87 1.70520E-03-3.51638E-05-2.64698E-23
 -1        88 2.02186E-03-8.57557E-05 2.64698E-23
 -1        89 2.34256E-03-1.37662E-04-1.32349E-23
 -1        90 2.58789E-03-1.69417E-04 5.29396E-23
 -1       121 3.42137E-04-5.54636E-07-1.32349E-23
 -1       122 3.39442E-04-1.11238E-06 0.00000E+00
 -1       123 3.34961E-04-1.67627E-06-1.32349E-23
 -1       124 3.28712E-04-2.24938E-06 0.00000E+00
 -1       125 3.20716E-04-2.83437E-06-1.32349E-23
 -1       191 1.76572E-04 1.34828E-07 8.27181E-25
 -1       192 1.76729E-04 2.69644E-07-1.24077E-24
 -1       193 1.76991E-04 4.04439E-07-8.27181E-25
 -1       194 1.77357E-04 5.39201E-07-4.13590E-25
 -1       195 1.77828E-04 6.73916E-07 2.48154E-24
 -1       251 2.68777E-03 1.88285E-06 0.00000E+00
 -1       252 2.68745E-03 4.32564E-06 0.00000E+00
 -1       253 2.68713E-03 5.89443E-06 6.61744E-24
 -1       254 2.68681E-03 5.58191E-06 6.61744E-24
 -1       255 2.68648E-03 2.67886E-06 0.00000E+00
 -1       256 2.68614E-03-3.48997E-06 6.61744E-24
 -1       257 2.68578E-03-1.30828E-05 1.32349E-23
 -1       258 2.68538E-03-2.62128E-05 0.00000E+00
 -1       259 2.68493E-03-4.24339E-05-1.32349E-23
 -1       260 2.68444E-03-6.12587E-05-6.61744E-24
 -1       261 2.68392E-03-8.17880E-05 0.00000E+00
 -1       262 2.68338E-03-1.03100E-04 6.61744E-24
 -1       263 2.68284E-03-1.24151E-04 1.32349E-23
 -1       264 2.68233E-03-1.43896E-04 0.00000E+00
 -1       265 2.68186E-03-1.61503E-04 0.00000E+00
 -1       266 2.68590E-03-4.25322E-07 0.00000E+00
 -1       267 2.68372E-03-4.28831E-07 8.27181E-25
 -1       268 2.68154E-03-4.32752E-07 0.00000E+00
 -1       269 2.67937E-03-4.35452E-07-2.06795E-25
 -1       270 2.67719E-03-4.38123E-07 0.00000E+00
 -1       271 2.68713E-03 2.83114E-07 1.32349E-23
 -1       272 2.68707E-03-1.43705E-06 0.00000E+00
 -1       273 2.68785E-03-5.43862E-06 0.00000E+00
 -1       274 2.68942E-03-1.15737E-05 0.00000E+00
 -1       275 2.69171E-03-1.96741E-05 0.00000E+00
 -1       276 2.69465E-03-2.95574E-05 1.32349E-23
 -1       277 2.69817E-03-4.10254E-05 2.64698E-23
 -1       278 2.70219E-03-5.38675E-05 0.00000E+00
 -1       279 2.70662E-03-6.78616E-05-2.64698E-23
 -1       280 2.71138E-03-8.27760E-05 0.00000E+00
 -1       281 2.71639E-03-9.83711E-05 0.00000E+00
 -1       282 2.72155E-03-1.14402E-04-1.32349E-23
 -1       283 2.72678E-03-1.30621E-04 0.00000E+00
 -1       284 2.73199E-03-1.46777E-04 6.61744E-24
 -1       285 2.73709E-03-1.62621E-04 0.00000E+00
 -1       301 2.69242E-03-1.76485E-04 0.00000E+00
 -1       302 2.70185E-03-1.76763E-04 3.30872E-24
 -1       303 2.71059E-03-1.77033E-04 0.00000E+00
 -1       304 2.71959E-03-1.77302E-04 6.61744E-24
 -1       305 2.72975E-03-1.77585E-04 2.64698E-23
 -1       306 2.71907E-03-3.29672E-04-1.05879E-22
 -1       307 2.78298E-03-7.42432E-04-5.29396E-23
 -1       308 2.82988E-03-1.34659E-03 1.05879E-22
 -1       309 2.85392E-03-2.04645E-03 0.00000E+00
 -1       310 2.88524E-03-2.71649E-03-1.05879E-22
 -1       311 2.94463E-03-3.23378E-03 0.00000E+00
 -1       312 3.00267E-03-3.51769E-03-1.05879E-22
 -1       313 2.99884E-03-3.53004E-03 5.29396E-23
 -1       314 2.85950E-03-3.28254E-03 0.00000E+00
 -1       315 2.54365E-03-2.83927E-03-5.29396E-23
 -1       316 2.06928E-03-2.27671E-03 0.00000E+00
 -1       317 1.50187E-03-1.66423E-03 0.00000E+00
 -1       318 9.55352E-04-1.06264E-03-1.05879E-22
 -1       319 5.37466E-04-5.37000E-04 1.05879E-22
 -1       320 2.92029E-04-1.61290E-04 0.00000E+00
 -1       336 2.99393E-04-4.09847E-06 1.32349E-23
 -1       337 2.85702E-04-4.78799E-06 0.00000E+00
 -1       338 2.69994E-04-5.50551E-06 0.00000E+00
 -1       339 2.52345E-04-6.25183E-06 6.61744E-24
 -1       340 2.32837E-04-7.03141E-06 0.00000E+00
 -1       406 1.79085E-04 9.43146E-07 1.65436E-24
 -1       407 1.79870E-04 1.07760E-06-8.27181E-25
 -1       408 1.80761E-04 1.21190E-06-3.30872E-24
 -1       409 1.81756E-04 1.34585E-06-1.24077E-24
 -1       410 1.82856E-04 1.47918E-06-1.65436E-24
 -1       521 2.78027E-03-3.40689E-04 1.05879E-22
 -1       522 2.84243E-03-7.73530E-04 0.00000E+00
 -1       523 2.88298E-03-1.40519E-03-1.05879E-22
 -1       524 2.89794E-03-2.13329E-03 5.29396E-23
 -1       525 2.92145E-03-2.82956E-03 1.05879E-22
 -1       526 2.97731E-03-3.36861E-03 5.29396E-23
 -1       527 3.03491E-03-3.66301E-03 0.00000E+00
 -1       528 3.02883E-03-3.67366E-03 1.05879E-22
 -1       529 2.87771E-03-3.41221E-03 0.00000E+00
 -1       530 2.53830E-03-2.95060E-03 0.00000E+00
 -1       531 2.02938E-03-2.36904E-03 1.05879E-22
 -1       532 1.42278E-03-1.73949E-03 5.29396E-23
 -1       533 8.37706E-04-1.12019E-03-1.05879E-22
 -1       534 3.86943E-04-5.73888E-04-5.29396E-23
 -1       535 1.20529E-04-1.78840E-04 0.00000E+00
 -1       536 2.10881E-04 2.76119E-05 0.00000E+00
 -1       537 2.08964E-04 8.96382E-05 0.00000E+00
 -1       538 2.05894E-04 1.69012E-04 0.00000E+00
 -1       539 2.02175E-04 2.56484E-04-8.27181E-25
 -1       540 1.98839E-04 3.39137E-04 1.65436E-24
 -1       541 1.96765E-04 4.04057E-04 4.13590E-25
 -1       542 1.95881E-04 4.45088E-04 1.65436E-24
 -1       543 1.95749E-04 4.56128E-04 4.13590E-25
 -1       544 1.95518E-04 4.37850E-04-1.65436E-24
 -1       545 1.94393E-04 3.91028E-04 0.00000E+00
 -1       546 1.92158E-04 3.23474E-04 0.00000E+00
 -1       547 1.89003E-04 2.43040E-04 0.00000E+00
 -1       548 1.85877E-04 1.62983E-04 8.27181E-25
 -1       549 1.83714E-04 9.65643E-05 0.00000E+00
 -1       550 1.82662E-04 5.13616E-05 0.00000E+00
 -1       551 1.86333E-04-8.40088E-06 0.00000E+00
 -1       552 1.57866E-04-9.05254E-06 0.00000E+00
 -1       553 1.27103E-04-9.76629E-06-3.30872E-24
 -1       554 9.50063E-05-1.05210E-05 3.30872E-24
 -1       555 6.25342E-05-1.12891E-05 0.00000E+00
 -1       556 2.03895E-04 1.17625E-05 0.00000E+00
 -1       557 1.97695E-04 2.76664E-05 0.00000E+00
 -1       558 1.92826E-04 4.01687E-05-5.29396E-23
 -1       559 1.89159E-04 4.95780E-05 0.00000E+00
 -1       560 1.86562E-04 5.62035E-05 0.00000E+00
 -1       561 1.84909E-04 6.03568E-05 0.00000E+00
 -1       562 1.84074E-04 6.23509E-05 0.00000E+00
 -1       563 1.83936E-04 6.24997E-05-1.32349E-23
 -1       564 1.84372E-04 6.11180E-05 0.00000E+00
 -1       565 1.85261E-04 5.85212E-05 6.61744E-24
 -1       566 1.86486E-04 5.50253E-05 0.00000E+00
 -1       567 1.87927E-04 5.09468E-05 0.00000E+00
 -1       568 1.89467E-04 4.66023E-05 0.00000E+00
 -1       569 1.90988E-04 4.23083E-05 0.00000E+00
 -1       570 1.92373E-04 3.83816E-05 0.00000E+00
 -1       571 1.82558E-04 3.27433E-05 8.27181E-25
 -1       572 1.82657E-04 3.05119E-05 1.65436E-24
 -1       573 1.82757E-04 2.82317E-05-3.30872E-24
 -1       574 1.82856E-04 2.59190E-05 1.65436E-24
 -1       575 1.82956E-04 2.35901E-05 0.00000E+00
 -1       576 1.83056E-04 2.12615E-05 0.00000E+00
 -1       577 1.83155E-04 1.89496E-05 3.30872E-24
 -1       578 1.83255E-04 1.66710E-05 0.00000E+00
 -1       579 1.83355E-04 1.44420E-05 0.00000E+00
 -1       580 1.83455E-04 1.22793E-05 0.00000E+00
 -1       581 1.83556E-04 1.01992E-05 0.00000E+00
 -1       582 1.83656E-04 8.21822E-06-3.30872E-24
 -1       583 1.83757E-04 6.35280E-06 0.00000E+00
 -1       584 1.83857E-04 4.61923E-06 0.00000E+00
 -1       585 1.83958E-04 3.03360E-06 0.00000E+00
 -1       586 1.84262E-04 3.49497E-05 1.65436E-24
 -1       587 1.86022E-04 3.49886E-05-4.13590E-25
 -1       588 1.87784E-04 3.50272E-05 0.00000E+00
 -1       589 1.89591E-04 3.50650E-05 0.00000E+00
 -1       590 1.91485E-04 3.51016E-05 0.00000E+00
 -1       591 1.83205E-04 3.28377E-05 1.03398E-25
 -1       592 1.83952E-04 3.07475E-05 0.00000E+00
 -1       593 1.84702E-04 2.86452E-05-8.27181E-25
 -1       594 1.85455E-04 2.65352E-05 4.13590E-25
 -1       595 1.86209E-04 2.44220E-05 0.00000E+00
 -1       596 1.86963E-04 2.23099E-05 4.13590E-25
 -1       597 1.87714E-04 2.02035E-05-8.27181E-25
 -1       598 1.88462E-04 1.81072E-05 0.00000E+00
 -1       599 1.89204E-04 1.60253E-05-8.27181E-25
 -1       600 1.89939E-04 1.39624E-05 0.00000E+00
 -1       601 1.90666E-04 1.19228E-05 0.00000E+00
 -1       602 1.91382E-04 9.91087E-06 0.00000E+00
 -1       603 1.92087E-04 7.93114E-06-4.13590E-25
 -1       604 1.92778E-04 5.98810E-06 5.16988E-26
 -1       605 1.93454E-04 4.08608E-06 0.00000E+00
 -1       606 1.84072E-04 4.20279E-07 0.00000E+00
 -1       607 1.84082E-04-6.85375E-07 0.00000E+00
 -1       608 1.84090E-04-1.71128E-06 0.00000E+00
 -1       609 1.84099E-04-2.66303E-06 0.00000E+00
 -1       610 1.84107E-04-3.54631E-06 0.00000E+00
 -1       611 1.84115E-04-4.36683E-06 0.00000E+00
 -1       612 1.84123E-04-5.13031E-06 0.00000E+00
 -1       613 1.84131E-04-5.84250E-06 0.00000E+00
 -1       614 1.84140E-04-6.50912E-06 0.00000E+00
 -1       615 1.84148E-04-7.13591E-06 0.00000E+00
 -1       616 1.84156E-04-7.72862E-06 1.65436E-24
 -1       617 1.84164E-04-8.29297E-06 0.00000E+00
 -1       618 1.84173E-04-8.83469E-06 8.27181E-25
 -1       619 1.84181E-04-9.35954E-06 0.00000E+00
 -1       620 1.84189E-04-9.87324E-06 2.06795E-25
 -1       621 1.85445E-04 1.71458E-06-3.30872E-24
 -1       622 1.86992E-04 1.81873E-06 1.65436E-24
 -1       623 1.88666E-04 1.92267E-06-1.65436E-24
 -1       624 1.90435E-04 2.02626E-06 0.00000E+00
 -1       625 1.92263E-04 2.12957E-06 1.65436E-24
 -1       626 1.84618E-04 4.56607E-07 0.00000E+00
 -1       627 1.85154E-04-6.35522E-07 3.30872E-24
 -1       628 1.85671E-04-1.67354E-06 0.00000E+00
 -1       629 1.86170E-04-2.66556E-06-1.65436E-24
 -1       630 1.86655E-04-3.61972E-06 3.30872E-24
 -1       631 1.87129E-04-4.54419E-06 0.00000E+00
 -1       632 1.87595E-04-5.44709E-06 0.00000E+00
 -1       633 1.88056E-04-6.33662E-06 0.00000E+00
 -1       634 1.88516E-04-7.22092E-06 3.30872E-24
 -1       635 1.88976E-04-8.10813E-06 1.65436E-24
 -1       636 1.89440E-04-9.00643E-06 0.00000E+00
 -1       637 1.89912E-04-9.92398E-06 0.00000E+00
 -1       638 1.90393E-04-1.08689E-05 3.30872E-24
 -1       639 1.90888E-04-1.18495E-05-1.65436E-24
 -1       640 1.91398E-04-1.28738E-05 0.00000E+00
 -1       656 1.84937E-04-1.09615E-05 0.00000E+00
 -1       657 1.86095E-04-1.15651E-05 6.61744E-24
 -1       658 1.87534E-04-1.21673E-05 1.32349E-23
 -1       659 1.89107E-04-1.27691E-05 0.00000E+00
 -1       660 1.90632E-04-1.33728E-05 6.61744E-24
 -1       661 1.84473E-04-1.09353E-05 0.00000E+00
 -1       662 1.84788E-04-1.15818E-05 0.00000E+00
 -1       663 1.85135E-04-1.23156E-05-1.65436E-24
 -1       664 1.85513E-04-1.31301E-05 0.00000E+00
 -1       665 1.85919E-04-1.40194E-05 0.00000E+00
 -1       666 1.86350E-04-1.49775E-05 8.27181E-25
 -1       667 1.86806E-04-1.59986E-05 0.00000E+00
 -1       668 1.87282E-04-1.70771E-05 8.27181E-25
 -1       669 1.87778E-04-1.82074E-05-1.65436E-24
 -1       670 1.88292E-04-1.93841E-05 0.00000E+00
 -1       671 1.88821E-04-2.06019E-05 1.65436E-24
 -1       672 1.89363E-04-2.18557E-05-8.27181E-25
 -1       673 1.89916E-04-2.31402E-05 0.00000E+00
 -1       674 1.90478E-04-2.44507E-05-4.13590E-25
 -1       675 1.91048E-04-2.57818E-05 2.06795E-25
 -1       676 1.84690E-04-2.66123E-05-3.30872E-24
 -1       677 1.86081E-04-2.67166E-05 0.00000E+00
 -1       678 1.87470E-04-2.68209E-05 0.00000E+00
 -1       679 1.88857E-04-2.69248E-05-1.65436E-24
 -1       680 1.90240E-04-2.70287E-05 0.00000E+00
 -1       771 1.86936E-05 1.46562E-05-5.29396E-23
 -1       772 8.64037E-06 3.66025E-05 0.00000E+00
 -1       773 3.92254E-07 5.40053E-05-5.29396E-23
 -1       774-6.17502E-06 6.71225E-05 0.00000E+00
 -1       775-1.11830E-05 7.62221E-05 0.00000E+00
 -1       776-1.47582E-05 8.15891E-05 0.00000E+00
 -1       777-1.70269E-05 8.35186E-05 0.00000E+00
 -1       778-1.81179E-05 8.23194E-05 2.64698E-23
 -1       779-1.81594E-05 7.83090E-05 0.00000E+00
 -1       780-1.72817E-05 7.18161E-05 2.64698E-23
 -1       781-1.56141E-05 6.31764E-05 5.29396E-23
 -1       782-1.32875E-05 5.27343E-05 0.00000E+00
 -1       783-1.04317E-05 4.08388E-05 5.29396E-23
 -1       784-7.17809E-06 2.78453E-05-2.64698E-23
 -1       785-3.65685E-06 1.41122E-05 0.00000E+00
 -1       786 1.93540E-04 3.28468E-05 0.00000E+00
 -1       787 1.93578E-04 3.06093E-05-2.06795E-25
 -1       788 1.93615E-04 2.84138E-05 8.27181E-25
 -1       789 1.93653E-04 2.62525E-05 0.00000E+00
 -1       790 1.93691E-04 2.41209E-05 8.27181E-25
 -1       791 1.93730E-04 2.20144E-05-8.27181E-25
 -1       792 1.93768E-04 1.99307E-05 1.65436E-24
 -1       793 1.93807E-04 1.78676E-05 0.00000E+00
 -1       794 1.93845E-04 1.58249E-05 1.65436E-24
 -1       795 1.93884E-04 1.38021E-05 8.27181E-25
 -1       796 1.93922E-04 1.18010E-05 0.00000E+00
 -1       797 1.93961E-04 9.82316E-06 0.00000E+00
 -1       798 1.94000E-04 7.87223E-06-1.65436E-24
 -1       799 1.94039E-04 5.95209E-06-8.27181E-25
 -1       800 1.94078E-04 4.06933E-06-1.65436E-24
 -1       801 1.47353E-04 3.15943E-05 0.00000E+00
 -1       802 7.82757E-06 1.97122E-05 2.64698E-23
 -1       803-1.11112E-04 9.98377E-06 0.00000E+00
 -1       804-9.80074E-05 6.95608E-06 2.64698E-23
 -1       805-3.22701E-05 2.71759E-06 0.00000E+00
 -1       806 1.94248E-04 3.27785E-05-1.65436E-24
 -1       807 1.94975E-04 3.04498E-05 0.00000E+00
 -1       808 1.95690E-04 2.81532E-05 3.30872E-24
 -1       809 1.96391E-04 2.58926E-05-1.65436E-24
 -1       810 1.97076E-04 2.36721E-05 0.00000E+00
 -1       811 1.97745E-04 2.14955E-05 0.00000E+00
 -1       812 1.98397E-04 1.93667E-05 0.00000E+00
 -1       813 1.99029E-04 1.72895E-05 0.00000E+00
 -1       814 1.99640E-04 1.52677E-05 3.30872E-24
 -1       815 2.00230E-04 1.33051E-05 8.27181E-25
 -1       816 2.00796E-04 1.14056E-05 1.65436E-24
 -1       817 2.01337E-04 9.57289E-06 8.27181E-25
 -1       818 2.01851E-04 7.81087E-06 0.00000E+00
 -1       819 2.02338E-04 6.12330E-06-8.27181E-25
 -1       820 2.02797E-04 4.51392E-06-3.30872E-24
 -1       821 1.93988E-04-1.37228E-07 0.00000E+00
 -1       822 1.93849E-04-3.60241E-06 0.00000E+00
 -1       823 1.93707E-04-7.75308E-06-3.30872E-24
 -1       824 1.93563E-04-1.21732E-05 0.00000E+00
 -1       825 1.93419E-04-1.63741E-05-3.30872E-24
 -1       826 1.93278E-04-1.98682E-05 0.00000E+00
 -1       827 1.93140E-04-2.23603E-05 0.00000E+00
 -1       828 1.93004E-04-2.35610E-05 0.00000E+00
 -1       829 1.92869E-04-2.35319E-05-3.30872E-24
 -1       830 1.92733E-04-2.23417E-05 1.65436E-24
 -1       831 1.92596E-04-2.03748E-05 0.00000E+00
 -1       832 1.92458E-04-1.80202E-05-1.65436E-24
 -1       833 1.92321E-04-1.57723E-05 3.30872E-24
 -1       834 1.92186E-04-1.41248E-05-1.65436E-24
 -1       835 1.92052E-04-1.34089E-05 0.00000E+00
 -1       836 1.95846E-04 2.35600E-06 0.00000E+00
 -1       837 1.97451E-04 2.48448E-06 0.00000E+00
 -1       838 1.98962E-04 2.61290E-06 3.30872E-24
 -1       839 2.00409E-04 2.74061E-06 0.00000E+00
 -1       840 2.01820E-04 2.86817E-06-8.27181E-25
 -1       856 1.91910E-04-1.50490E-05 8.27181E-25
 -1       857 1.91892E-04-1.60123E-05 2.58494E-26
 -1       858 1.91873E-04-1.68610E-05 0.00000E+00
 -1       859 1.91854E-04-1.76163E-05 2.06795E-25
 -1       860 1.91835E-04-1.82994E-05 0.00000E+00
 -1       861 1.91816E-04-1.89314E-05 0.00000E+00
 -1       862 1.91797E-04-1.95338E-05 0.00000E+00
 -1       863 1.91777E-04-2.01278E-05 0.00000E+00
 -1       864 1.91758E-04-2.07348E-05 0.00000E+00
 -1       865 1.91739E-04-2.13760E-05 0.00000E+00
 -1       866 1.91720E-04-2.20727E-05 0.00000E+00
 -1       867 1.91700E-04-2.28462E-05-4.13590E-25
 -1       868 1.91681E-04-2.37176E-05 0.00000E+00
 -1       869 1.91661E-04-2.47082E-05 4.13590E-25
 -1       870 1.91641E-04-2.58388E-05-8.27181E-25
 -1       871 1.93314E-04-1.39551E-05 8.27181E-25
 -1       872 1.94849E-04-1.39636E-05 0.00000E+00
 -1       873 1.96464E-04-1.39728E-05 0.00000E+00
 -1       874 1.98090E-04-1.39827E-05-2.58494E-26
 -1       875 1.99659E-04-1.39932E-05 1.44757E-24
 -1       876 1.92465E-04-1.50344E-05-3.30872E-24
 -1       877 1.92983E-04-1.60519E-05 0.00000E+00
 -1       878 1.93478E-04-1.70106E-05 0.00000E+00
 -1       879 1.93955E-04-1.79179E-05-1.65436E-24
 -1       880 1.94415E-04-1.87811E-05-3.30872E-24
 -1       881 1.94862E-04-1.96077E-05 1.65436E-24
 -1       882 1.95297E-04-2.04050E-05-3.30872E-24
 -1       883 1.95725E-04-2.11803E-05 0.00000E+00
 -1       884 1.96147E-04-2.19409E-05 0.00000E+00
 -1       885 1.96566E-04-2.26942E-05 1.65436E-24
 -1       886 1.96985E-04-2.34475E-05-3.30872E-24
 -1       887 1.97407E-04-2.42081E-05 0.00000E+00
 -1       888 1.97834E-04-2.49835E-05 0.00000E+00
 -1       889 1.98268E-04-2.57810E-05 0.00000E+00
 -1       890 1.98713E-04-2.66079E-05-1.65436E-24
 -1       891 1.93020E-04-2.71881E-05-1.65436E-24
 -1       892 1.94396E-04-2.72459E-05-8.27181E-25
 -1       893 1.95723E-04-2.73036E-05-8.27181E-25
 -1       894 1.96978E-04-2.73611E-05-4.13590E-25
 -1       895 1.98133E-04-2.74183E-05 4.13590E-25
 -1       956 2.03096E-04 1.63362E-06-1.65436E-24
 -1       957 2.02963E-04 3.72517E-07-8.27181E-25
 -1       958 2.02830E-04-8.07682E-07 0.00000E+00
 -1       959 2.02697E-04-1.91838E-06 1.65436E-24
 -1       960 2.02563E-04-2.97103E-06 3.30872E-24
 -1       961 2.02430E-04-3.97711E-06-1.65436E-24
 -1       962 2.02297E-04-4.94811E-06-3.30872E-24
 -1       963 2.02164E-04-5.89555E-06 0.00000E+00
 -1       964 2.02031E-04-6.83095E-06 3.30872E-24
 -1       965 2.01897E-04-7.76580E-06 1.65436E-24
 -1       966 2.01764E-04-8.71163E-06-3.30872E-24
 -1       967 2.01631E-04-9.67994E-06-1.65436E-24
 -1       968 2.01498E-04-1.06822E-05 0.00000E+00
 -1       969 2.01365E-04-1.17300E-05 0.00000E+00
 -1       970 2.01232E-04-1.28346E-05-3.30872E-24
 -1       971 2.00982E-04-1.51798E-05 0.00000E+00
 -1       972 2.00860E-04-1.62582E-05 1.65436E-24
 -1       973 2.00738E-04-1.72525E-05 0.00000E+00
 -1       974 2.00617E-04-1.81737E-05 0.00000E+00
 -1       975 2.00495E-04-1.90326E-05-3.30872E-24
 -1       976 2.00373E-04-1.98399E-05 0.00000E+00
 -1       977 2.00252E-04-2.06066E-05-3.30872E-24
 -1       978 2.00130E-04-2.13435E-05 0.00000E+00
 -1       979 2.00009E-04-2.20616E-05-3.30872E-24
 -1       980 1.99887E-04-2.27717E-05-1.65436E-24
 -1       981 1.99765E-04-2.34847E-05 3.30872E-24
 -1       982 1.99644E-04-2.42115E-05 1.65436E-24
 -1       983 1.99523E-04-2.49629E-05 0.00000E+00
 -1       984 1.99402E-04-2.57499E-05 0.00000E+00
 -1       985 1.99281E-04-2.65832E-05-3.30872E-24
 -3
    1PSTEP                        40          20           1          
  100CL  120 6.63053E-01         409                     0   20           1
 -4  STRESS      6    1
 -5  SXX         1    4    1    1
 -5  SYY         1    4    2    2
 -5  SZZ         1    4    3    3
 -5  SXY         1    4    1    2
 -5  SYZ         1    4    2    3
 -5  SZX         1    4    3    1
 -1         1-5.30676E+06-1.64622E+06-1.13180E+06-1.42946E+06-5.23869E-10-6.67060E-08
 -1         2 1.32150E+06 1.94539E+07 4.59411E+06 5.84827E+06 2.90456E-08 2.63142E-07
 -1         3-1.49509E+03-1.57483E+06 4.09939E+02-2.24035E+03-4.68486E-10-8.17745E-08
 -1         5-7.83592E+01 3.86105E+05 9.91837E+00-1.36811E+00-4.50866E-10-1.33459E-08
 -1         8-5.83274E+05-2.07359E+05-6.63775E+04-2.52096E+05-3.91083E-11 2.03254E-08
 -1         9 1.15766E+07 3.39640E+06 2.67471E+06-4.36455E+05-7.11298E-09-3.01050E-08
 -1        10-2.31397E+03-1.64110E+06-3.96837E+03-1.51567E+04-1.36260E-08-3.48290E-08
 -1        12-7.44741E+01 3.86126E+05 3.26288E+02-9.32033E+00-6.92724E-10 1.68257E-10
 -1        15 9.61801E+02 5.28557E+02 3.10900E+03 9.06376E-01-1.30669E-10 3.39226E-07
 -1        16 2.27642E+07-3.06880E+05 3.10582E+06-2.20442E+06 5.33570E-09 1.54988E-07
 -1        17 8.38818E+06 6.25280E+06 2.26715E+06 5.96091E+06 2.01748E-08 1.03726E-08
 -1        18 2.24920E+05 5.42218E+04 2.47500E+04-1.07728E+05 1.72927E-08 6.44650E-09
 -1        19 1.22738E+05 1.41656E+05-9.53066E+02 2.21268E+04 1.84045E-09-4.76684E-09
 -1        20-8.30623E+04-5.75518E+05-1.29200E+05 2.47628E+04-2.64299E-09 7.97384E-09
 -1        21-4.54667E+01-2.96052E+05-9.23117E+02 2.82606E+02 1.51442E-08-1.68887E-08
 -1        24 1.39008E+07 1.19824E+07 3.85265E+06 1.10973E+07-1.71751E-07-4.92243E-08
 -1        25 1.23302E+05 2.79828E+05 1.02831E+05-6.55569E+05-1.23437E-09 9.21682E-09
 -1        26-5.76367E+04 9.19794E+04-2.52577E+04 2.06613E+03-8.22183E-11-4.38156E-09
 -1        27-7.50892E+04-3.10721E+05-1.13482E+05 6.91423E+04 4.26265E-09-1.17137E-08
 -1        28 2.22279E+04-8.54690E+04 1.69065E+04 2.04406E+04-2.30369E-09-3.18678E-11
 -1        32-1.68175E+06-3.18887E+06-1.99069E+05 4.81530E+05-4.30737E-08-1.25621E-08
 -1        33-1.79205E+05 9.33348E+04 3.25007E+04-3.77393E+04-3.19487E-09 8.99460E-09
 -1        34-2.24111E+05-2.51425E+04 6.96569E+02 7.60044E+04-6.39635E-09-1.19088E-08
 -1        35-2.29233E+04-3.38945E+04-1.35080E+03 5.15036E+04-2.38926E-09 8.73115E-11
 -1        51 6.00468E+04-1.76061E+05 1.27147E+05-4.55109E+05 2.91038E-11-2.13782E-07
 -1        52 2.04042E+04-1.53950E+05 6.68192E+04-5.30765E+05 1.81899E-10-3.67232E-07
 -1        53 4.25222E+03-1.69346E+05 3.49633E+04-4.53532E+05 1.38243E-10-2.50366E-08
 -1        54 7.67587E+03-1.65153E+05 2.90651E+04-5.32321E+05-1.16415E-10 4.68135E-08
 -1        55 1.66906E+04-1.72362E+05 3.57483E+04-4.53422E+05 5.27507E-10-1.61835E-08
 -1        56-9.69979E+06-1.29495E+06-8.86288E+05-3.99786E+06 2.13913E-08-1.54396E-07
 -1        57-1.08600E+07-1.00093E+06-5.53361E+05-2.86379E+06 1.28057E-08-1.64902E-07
 -1        58-9.60100E+06-1.72380E+06-1.98922E+05-4.14202E+06 3.60160E-09-2.99042E-08
 -1        59-1.09255E+07-5.21487E+05-1.11189E+05-2.80803E+06-4.29709E-08-1.02409E-09
 -1        60-9.68247E+06-1.73009E+06-5.37812E+04-4.09729E+06-2.71721E-08-2.21877E-07
 -1        61-1.04304E+07-7.82724E+05 1.79660E+03-3.03845E+06-2.03981E-08-2.35159E-08
 -1        62-1.00051E+07-1.52359E+06-5.46376E+04-3.84105E+06-5.95173E-09-7.22102E-08
 -1        63-9.73866E+06-1.34975E+06 3.22772E+04-3.61914E+06 1.31695E-08-3.38498E-07
 -1        64-1.03047E+07-1.21226E+06-5.00409E+04-3.47167E+06-3.02534E-08 4.89890E-08
 -1        65-9.39675E+06-1.84555E+06 3.10707E+02-4.32790E+06-8.86721E-08 4.98105E-08
 -1        66-1.04302E+07-9.70121E+05-4.51056E+04-3.19450E+06-3.25963E-09 1.14116E-07
 -1        67-9.37233E+06-2.07038E+06-1.00288E+05-4.65783E+06-8.45830E-09-2.73301E-07
 -1        68-1.04111E+07-9.30774E+05-1.83054E+05-3.19402E+06-6.10517E-08-9.85165E-09
 -1        69-9.58712E+06-2.18575E+06-4.94460E+05-4.29426E+06 2.02267E-08-2.79979E-08
 -1        70-1.01419E+07-9.17308E+05-8.09765E+05-3.50675E+06-9.89530E-10-1.48721E-07
 -1        86-1.34743E+06-1.43844E+07-2.51231E+06-2.75460E+06-2.67661E-07 6.05360E-09
 -1        87 2.08959E+06 5.44938E+06 2.09045E+06 5.22372E+06-4.52797E-07-1.01729E-07
 -1        88-3.78936E+05-2.09093E+06 1.93848E+05-2.40167E+06-4.00154E-07-1.52756E-07
 -1        89 2.80148E+06 5.19968E+06 2.13947E+06 5.38847E+06-5.38661E-07-2.83249E-07
 -1        90-1.98055E+06-1.41998E+07-2.71880E+06-2.94229E+06-1.23451E-07-1.98459E-07
 -1       121-2.04837E+03-1.57975E+06-5.47362E+02 1.11047E+03 1.45633E-09-2.69065E-08
 -1       122-1.30698E+03-1.57489E+06 7.78031E+02-4.48453E+03-5.48663E-09 2.74995E-08
 -1       123-2.06806E+03-1.57989E+06 2.70802E+02 3.31630E+03 4.10034E-09 2.33631E-08
 -1       124 3.47704E+02-1.57444E+06 2.98384E+03-9.37798E+03-1.08002E-08 2.42726E-08
 -1       125-2.88505E+03-1.58080E+06 3.51022E+03 5.95774E+03 6.66842E-09 1.35187E-08
 -1       191-8.25601E+01 3.86122E+05 8.25255E+00 7.14568E-01-5.91773E-10-5.07862E-09
 -1       192-7.93191E+01 3.86105E+05 2.11744E+01-4.38718E+00-8.29205E-10 2.50293E-09
 -1       193-8.50857E+01 3.86122E+05 3.58745E+01 3.85931E+00-1.07531E-09 2.48656E-09
 -1       194-8.23963E+01 3.86109E+05 8.05172E+01-9.95727E+00-5.90191E-10-3.17596E-09
 -1       195-8.99332E+01 3.86119E+05 1.53978E+02 6.48896E+00-1.64153E-09-3.32329E-09
 -1       251-9.06494E+05 1.71537E+04-4.01198E+04-1.47940E+04-6.81430E-09-1.05532E-07
 -1       252-9.22348E+05-1.98175E+04-2.80217E+04 5.09735E+04 9.05123E-09-2.45248E-07
 -1       253-9.14832E+05 2.65537E+03-1.06818E+04-1.13769E+04-2.30079E-09-9.10723E-08
 -1       254-9.08993E+05-3.14913E+03-5.12102E+03 3.74303E+04 5.15456E-09-1.60433E-07
 -1       255-9.19285E+05 1.17458E+02-3.58731E+03-1.25306E+03-4.55839E-09-1.58278E-07
 -1       256-9.03192E+05-3.15590E+02 9.44322E+02 1.39073E+04-2.42574E-09 7.44543E-08
 -1       257-9.20163E+05-5.26304E+02-1.40704E+03 1.21364E+04 8.18386E-09 1.32894E-07
 -1       258-9.05455E+05 8.25566E+02 2.60036E+03-1.15166E+04-2.24895E-08 3.56357E-07
 -1       259-9.17223E+05-8.68144E+02 1.28362E+03 2.41675E+04 4.32510E-09-2.52841E-07
 -1       260-9.11612E+05 2.77104E+03 5.38641E+03-3.01193E+04 1.28758E-08-5.32244E-07
 -1       261-9.14620E+05-1.99640E+03 8.33774E+03 3.07531E+04 2.40567E-08 3.52497E-08
 -1       262-9.10418E+05 1.12987E+04 2.07301E+04-3.56243E+04-1.26219E-08 7.75356E-08
 -1       263-9.18667E+05-9.16880E+03 3.28334E+04 2.96812E+04-1.48913E-09 3.12975E-08
 -1       264-8.80921E+05 6.45593E+04 9.09415E+04-2.60756E+04 2.86064E-08 9.06966E-08
 -1       265-9.43628E+05-5.53929E+04 1.26584E+05 2.11933E+04-4.06078E-09 2.39495E-07
 -1       266-1.74120E+04-8.14265E+03 4.08498E+04-1.93922E+01-1.47338E-10 1.90626E-07
 -1       267 2.01851E+04 9.48921E+03 2.88739E+04 2.23765E+01 1.30512E-10-5.21127E-08
 -1       268-2.70679E+03-1.34400E+03 1.07322E+04-2.85106E+00-1.31877E-10-5.16111E-07
 -1       269 3.19591E+03 1.60841E+03 6.97586E+03 3.32116E+00-8.07177E-12 6.17899E-08
 -1       270-4.79710E+02-2.64277E+02 3.36735E+03-4.50700E-01 4.38831E-11 1.98427E-07
 -1       271-1.53726E+06-1.94190E+05-1.15473E+05-5.97105E+05 1.74987E-08-1.01645E-07
 -1       272-1.54266E+06-3.04595E+05-7.29030E+04-6.28098E+05-8.91305E-09 5.44969E-08
 -1       273-1.56136E+06-2.19373E+05-2.78598E+04-5.89134E+05 2.09911E-09 2.96071E-07
 -1       274-1.51473E+06-2.74415E+05-1.47142E+04-6.42703E+05 2.72557E-08 3.72461E-07
 -1       275-1.56689E+06-2.19346E+05-6.86109E+03-5.85487E+05-5.21322E-09 5.38239E-08
 -1       276-1.50871E+06-2.75057E+05-3.02017E+03-6.50742E+05-1.89393E-08 4.34065E-08
 -1       277-1.56962E+06-2.16930E+05-1.88086E+03-5.82840E+05 8.00901E-09 8.65675E-08
 -1       278-1.50624E+06-2.78205E+05-7.94192E+02-6.56675E+05 1.26020E-08 5.40686E-08
 -1       279-1.57137E+06-2.14896E+05-9.28800E+02-5.80956E+05 5.64796E-09 1.82722E-08
 -1       280-1.50502E+06-2.80662E+05-1.15067E+03-6.60650E+05 1.74819E-08 2.81214E-07
 -1       281-1.57231E+06-2.13550E+05-2.12023E+03-5.79862E+05-3.08482E-08 3.35038E-08
 -1       282-1.50539E+06-2.83123E+05-4.94488E+03-6.62374E+05-4.40189E-08-4.72599E-07
 -1       283-1.57176E+06-2.12093E+05-8.79549E+03-5.79686E+05 6.34759E-08-2.52366E-07
 -1       284-1.51319E+06-2.94859E+05-2.39724E+04-6.60216E+05-1.26014E-08-1.17691E-07
 -1       285-1.56458E+06-2.03079E+05-3.73592E+04-5.81525E+05 3.18551E-09-1.78316E-08
 -1       301-3.51740E+03-6.37161E+05 1.67584E+05-1.11533E+06-9.35688E-09 1.03464E-08
 -1       302-4.42511E+03-5.91213E+05 1.00876E+05-1.62841E+06-3.10174E-08 7.65303E-08
 -1       303-1.88973E+04-6.28717E+05 5.72858E+04-1.11232E+06 5.95901E-09 7.40692E-08
 -1       304-2.03791E+04-5.97472E+05 5.81625E+04-1.62775E+06-6.17001E-09 4.18913E-08
 -1       305-2.28600E+04-6.17822E+05 7.21765E+04-1.11542E+06 1.28603E-09-3.83734E-08
 -1       306-3.01023E+07-6.21638E+06-8.59978E+06-5.53524E+05-6.90343E-08-3.46918E-08
 -1       307 2.54022E+07 3.23270E+06 5.51555E+06-1.51397E+07-7.98551E-07 1.55997E-07
 -1       308-7.02026E+06-1.03273E+06-4.66645E+05 5.20310E+06-1.57510E-07 2.61454E-07
 -1       309-3.29732E+06 8.72692E+06 2.27491E+06-2.06374E+07 3.08526E-07-1.94384E-07
 -1       310-1.24870E+07-1.92557E+06-2.00877E+06 5.21172E+06 6.43195E-08-2.23226E-08
 -1       311 3.81553E+07 2.59591E+04 7.23927E+06-8.88784E+06 5.84463E-07 2.15776E-07
 -1       312-3.18557E+07-6.72760E+06-8.50350E+06-4.96998E+06 1.37836E-07-3.83297E-08
 -1       313 4.54168E+07 1.48467E+07 1.06412E+07 2.36447E+07-5.30737E-07-1.26747E-07
 -1       314-1.72806E+07-1.76969E+07-7.51415E+06-1.25217E+07 1.93948E-07-3.17406E-07
 -1       315-1.73763E+06 2.96316E+07 5.66747E+06 1.06303E+07-3.36746E-07-6.91216E-08
 -1       316 1.36189E+06-9.84988E+06-4.50850E+05-2.57075E+06-1.21458E-06-3.08792E-07
 -1       317-1.71407E+07 2.23874E+07 2.23100E+06-8.74831E+06 7.14994E-07-8.18865E-07
 -1       318-1.06356E+06-1.27230E+07-2.02185E+06-4.24131E+06-1.08278E-06 2.30153E-07
 -1       319 7.13518E+06 3.18169E+07 7.00495E+06 1.65396E+07-2.96568E-08 2.88594E-07
 -1       320-2.25393E+07-1.75793E+07-9.81904E+06-1.27784E+07 2.15718E-07-3.45462E-08
 -1       336-7.37544E+02-1.71014E+06-1.39423E+04 9.02836E+03-2.66573E-08-7.93807E-09
 -1       337-5.43119E+03-1.70972E+06-1.81694E+04-2.19178E+04-4.91041E-08-2.59042E-08
 -1       338 2.82947E+02-1.70964E+06-2.85889E+04 1.26375E+04-3.39533E-08 1.68438E-09
 -1       339-3.03136E+04-1.72704E+06-6.46043E+04-2.89833E+04-6.32790E-08 1.04774E-09
 -1       340 1.99884E+04-1.69503E+06-1.01758E+05 1.59630E+04-4.16112E-08 3.12211E-08
 -1       406-5.30645E+01 3.86105E+05 6.40481E+02 3.41671E+00-1.93660E-09-6.52653E-09
 -1       407 1.50540E+02 3.86239E+05 1.36914E+03 2.39161E+01-5.11783E-10 1.14687E-09
 -1       408 6.27851E+02 3.86005E+05 2.72973E+03-2.76262E+01-2.68665E-09 3.30692E-09
 -1       409 2.88795E+03 3.87111E+05 6.15296E+03 2.95038E+02-1.98838E-10-4.21005E-09
 -1       410 8.43079E+03 3.85219E+05 1.25578E+04-2.84386E+02-3.09228E-09 7.87622E-10
 -1       521-3.16276E+07-7.66527E+06-1.00376E+07-1.62975E+05-1.37021E-07 7.04313E-09
 -1       522 2.62403E+07 4.23998E+06 5.61700E+06-1.86277E+07-4.24974E-07-3.27214E-07
 -1       523-7.59891E+06-1.34318E+06-4.58566E+05 5.64746E+06 3.08501E-09-1.55225E-07
 -1       524-6.79459E+06 1.17605E+07 2.45816E+06-2.36815E+07 7.44112E-07-3.90923E-07
 -1       525-1.32859E+07-2.55218E+06-2.20641E+06 5.65767E+06 3.79281E-07-1.31637E-07
 -1       526 4.16028E+07-6.09782E+04 7.59223E+06-1.15308E+07 1.98139E-07 1.14087E-08
 -1       527-3.36789E+07-8.41405E+06-9.79289E+06-4.82959E+06 2.44356E-07-7.69796E-09
 -1       528 4.95542E+07 1.65159E+07 1.10901E+07 2.68589E+07 6.99074E-08-6.94214E-07
 -1       529-1.82173E+07-1.98834E+07-8.60744E+06-1.25483E+07 1.16881E-07-2.45054E-07
 -1       530-4.21725E+06 3.43818E+07 5.99182E+06 1.01085E+07-2.47790E-07 5.61122E-07
 -1       531 1.35653E+06-1.09200E+07-4.24490E+05-2.52667E+06-9.37493E-07 3.54834E-07
 -1       532-1.96749E+07 2.43925E+07 2.43541E+06-1.30067E+07 4.23010E-07-6.83540E-07
 -1       533-1.10928E+06-1.38642E+07-2.14990E+06-4.05811E+06-1.95811E-07-9.43721E-07
 -1       534 5.11722E+06 3.68862E+07 7.28376E+06 1.70979E+07-5.27943E-08 7.27305E-07
 -1       535-2.37058E+07-1.99480E+07-1.12476E+07-1.28400E+07 1.07568E-07 4.62052E-07
 -1       536-4.65600E+05-5.67103E+04-2.71608E+04-2.73781E+04-4.94342E-09 3.47864E-08
 -1       537 2.75082E+05 4.89356E+04 1.09885E+05 5.03055E+04-1.17270E-07 8.67963E-08
 -1       538-1.31412E+05 8.15202E+03 8.56590E+03-2.37818E+04 4.18152E-08 5.83727E-08
 -1       539 6.00208E+04-9.67277E+03 3.60445E+04 5.16146E+04 1.64393E-07 8.02524E-08
 -1       540-2.52018E+05 3.28776E+03-2.48781E+04-2.88488E+04-1.90229E-08 5.92095E-08
 -1       541 4.72050E+05 1.17023E+04 1.16149E+05 4.44374E+04-3.72434E-08 5.85433E-08
 -1       542-5.40381E+05-1.60335E+04-8.54922E+04-1.63409E+04 2.37744E-08 4.60579E-09
 -1       543 7.20607E+05 2.67693E+04 1.66533E+05-4.82751E+03 3.38184E-09-1.73932E-08
 -1       544-4.98754E+05-1.34096E+04-7.79945E+04 2.02185E+04-1.89679E-08-4.54199E-08
 -1       545 3.55790E+05 2.26477E+03 8.92450E+04-4.65490E+04-1.80176E-08-5.06391E-08
 -1       546-1.78226E+05 1.08524E+04-1.42145E+04 2.52770E+04-5.88909E-09-6.13538E-08
 -1       547 4.37820E+04-1.65612E+04 2.19778E+04-5.17149E+04-1.24669E-07-8.00230E-08
 -1       548-1.89082E+05 7.59464E+03-2.14204E+04 2.55938E+04-1.42859E-07-5.44603E-08
 -1       549 3.79402E+05 2.31298E+04 8.67014E+04-4.63288E+04-7.38006E-08-6.22094E-08
 -1       550-5.11395E+05-3.11195E+04-1.07738E+05 1.96749E+04 9.34665E-09-1.45201E-08
 -1       551 4.11069E+04-7.55489E+05-1.49757E+04-1.24760E+06-1.03450E-07-3.87081E-09
 -1       552 9.35392E+04-8.00292E+05 1.04501E+04-1.77899E+06-7.31234E-08 1.29803E-08
 -1       553 7.18631E+04-7.96680E+05 3.23601E+04-1.24096E+06-1.18860E-07 2.43308E-08
 -1       554 1.32182E+05-8.16049E+05 8.13897E+04-1.78093E+06-7.51606E-08 1.44446E-08
 -1       555 1.01570E+05-8.20230E+05 1.48481E+05-1.24080E+06-1.22549E-07-1.75442E-08
 -1       556 2.12035E+05-3.83223E+05 2.59706E+04-4.09155E+05-2.51166E-08-1.53086E-08
 -1       557 3.42010E+05-4.87014E+05 1.62472E+04-5.28819E+05-3.47791E-09-5.84987E-09
 -1       558 1.93944E+05-3.76127E+05 2.37535E+03-4.13486E+05-2.24391E-08 8.45466E-09
 -1       559 3.17136E+05-4.87169E+05 2.45907E+03-5.49169E+05 1.74332E-08 1.10595E-09
 -1       560 1.78729E+05-3.66584E+05-1.49729E+03-4.24443E+05 1.07393E-08 3.78568E-08
 -1       561 2.98017E+05-4.79527E+05 1.29211E+02-5.62224E+05-2.54659E-09 7.63794E-09
 -1       562 1.66682E+05-3.59098E+05-1.33441E+03-4.33163E+05-1.28784E-08-5.32236E-09
 -1       563 2.83701E+05-4.73290E+05-4.57333E+01-5.71587E+05 1.09139E-10 3.13976E-08
 -1       564 1.58063E+05-3.53727E+05-6.18642E+02-4.39268E+05 6.73754E-09-3.85853E-09
 -1       565 2.74172E+05-4.69143E+05 9.66291E-01-5.77684E+05 1.24419E-09-1.68448E-08
 -1       566 1.52996E+05-3.50520E+05-3.03499E+02-4.42811E+05 3.03407E-09 4.07817E-09
 -1       567 2.69486E+05-4.67112E+05-4.44449E+02-5.80535E+05 2.02635E-08-1.70839E-08
 -1       568 1.51575E+05-3.49649E+05-1.28469E+03-4.43897E+05-1.83718E-09 1.05501E-09
 -1       569 2.68191E+05-4.67107E+05-3.21855E+03-5.79184E+05 4.92128E-09 4.08181E-08
 -1       570 1.54927E+05-3.52952E+05-6.92438E+03-4.42838E+05 9.38599E-09 1.28371E-08
 -1       571 2.91534E+05 1.04185E+04 1.48471E+04-9.50161E+04 2.09911E-09 1.12523E-08
 -1       572 2.93684E+05 3.93487E+03 7.27627E+03-1.04248E+05-4.33374E-10-8.92214E-09
 -1       573 2.92389E+05 1.24486E+03 3.23312E+03-9.48427E+04-1.41063E-09-8.76753E-10
 -1       574 2.92600E+05 7.31965E+02 1.62141E+03-1.04469E+05 1.26624E-09-1.94777E-08
 -1       575 2.92484E+05 4.53948E+02 7.65319E+02-9.48190E+04 6.82823E-09 6.30826E-09
 -1       576 2.92467E+05 4.65752E+02 3.91962E+02-1.04498E+05 1.17734E-08-6.57656E-09
 -1       577 2.92525E+05 3.95401E+02 1.95870E+02-9.48157E+04-5.58884E-09 4.91582E-09
 -1       578 2.92500E+05 4.26949E+02 1.13616E+02-1.04502E+05-2.39252E-08 1.34687E-08
 -1       579 2.92598E+05 3.57879E+02 7.87659E+01-9.48154E+04 8.22183E-10-6.50289E-09
 -1       580 2.92603E+05 3.75218E+02 9.25919E+01-1.04498E+05-6.07633E-09 5.19321E-09
 -1       581 2.92713E+05 2.98834E+02 1.40916E+02-9.48213E+04 6.84304E-09 6.28643E-09
 -1       582 2.92780E+05 3.38524E+02 2.87158E+02-1.04436E+05 3.56522E-09 2.14004E-08
 -1       583 2.92854E+05 3.44676E+02 5.51772E+02-9.48781E+04-1.42609E-09 1.77447E-08
 -1       584 2.93161E+05 7.95945E+02 1.24864E+03-1.03957E+05 4.51109E-09-1.21456E-08
 -1       585 2.92876E+05 1.84849E+03 2.52898E+03-9.52988E+04-1.32241E-09-1.42063E-08
 -1       586-3.63746E+03 1.16411E+05-3.21171E+03-2.45698E+05-5.29644E-09-5.74005E-09
 -1       587-1.41315E+03 1.16121E+05 6.54236E+02-2.70411E+05-7.86167E-09-9.95396E-09
 -1       588 3.94401E+02 1.15947E+05 4.76382E+03-2.45564E+05-6.12818E-09 8.65111E-09
 -1       589 5.15292E+03 1.18439E+05 1.24732E+04-2.70183E+05-8.16908E-09 1.82090E-08
 -1       590 1.68321E+04 1.14578E+05 2.62128E+04-2.45989E+05-6.55291E-09 1.90976E-08
 -1       591-7.41472E+04-1.56572E+04-2.26423E+04-3.13626E+04-2.98360E-09-1.21327E-08
 -1       592-7.83595E+04-1.91306E+04-1.22649E+04-3.48882E+04-3.49691E-09-8.08427E-09
 -1       593-7.64100E+04-1.40159E+04-5.10523E+03-3.30246E+04 5.02001E-09 7.45990E-09
 -1       594-7.52349E+04-1.58063E+04-2.54609E+03-3.50044E+04 2.28506E-09-1.37729E-08
 -1       595-7.65825E+04-1.40107E+04-1.16883E+03-3.31000E+04-3.86399E-09 1.03097E-08
 -1       596-7.50209E+04-1.56543E+04-5.93811E+02-3.49787E+04 4.36944E-09 4.24160E-09
 -1       597-7.66041E+04-1.40262E+04-3.22574E+02-3.31029E+04 8.07421E-09-2.95273E-09
 -1       598-7.49998E+04-1.56482E+04-2.57888E+02-3.49715E+04-6.85287E-09-3.45699E-09
 -1       599-7.66029E+04-1.40267E+04-3.27646E+02-3.31026E+04 1.97497E-09-1.59422E-08
 -1       600-7.50208E+04-1.56547E+04-6.07245E+02-3.49765E+04 7.02039E-09-1.43156E-08
 -1       601-7.65784E+04-1.40122E+04-1.19721E+03-3.30992E+04 5.52518E-09-4.13070E-09
 -1       602-7.52400E+04-1.58092E+04-2.60882E+03-3.49989E+04-2.21291E-09 2.70666E-09
 -1       603-7.63990E+04-1.40205E+04-5.23155E+03-3.30227E+04 1.64187E-09 1.37779E-08
 -1       604-7.84601E+04-1.91954E+04-1.25674E+04-3.48544E+04-3.63002E-10 8.50559E-09
 -1       605-7.40599E+04-1.57207E+04-2.32009E+04-3.13398E+04 4.99392E-09 1.72640E-08
 -1       606 2.64027E+04-1.43683E+04-2.57579E+04 2.36701E+04 5.99175E-09-2.74372E-09
 -1       607 2.20016E+04-4.69263E+03-1.28274E+04 2.66011E+04-7.99446E-10-8.11497E-10
 -1       608 2.45106E+04-8.46435E+02-5.74233E+03 2.35044E+04-4.89854E-09-3.62252E-09
 -1       609 2.40300E+04-2.90279E+02-2.90089E+03 2.68124E+04 3.33148E-09-9.38894E-09
 -1       610 2.42971E+04-4.13811E+01-1.38398E+03 2.34846E+04 7.64703E-09-1.29903E-08
 -1       611 2.42219E+04-4.20267E+01-6.97781E+02 2.68352E+04 9.94805E-09 2.07883E-08
 -1       612 2.42504E+04-2.80099E+01-3.31616E+02 2.34826E+04-7.07223E-09 7.31575E-09
 -1       613 2.42342E+04-3.82733E+01-1.48464E+02 2.68379E+04-1.71808E-08-2.59718E-08
 -1       614 2.42287E+04-3.47576E+01-3.44489E+01 2.34819E+04 3.65617E-10-3.59046E-09
 -1       615 2.42294E+04-3.70525E+01 6.31030E+01 2.68383E+04 1.62240E-08-1.45765E-08
 -1       616 2.42116E+04-3.18468E+01 1.88417E+02 2.34822E+04 7.54926E-09-6.17842E-09
 -1       617 2.42524E+04 2.85033E+00 4.29561E+02 2.68379E+04 1.35265E-09-1.34962E-08
 -1       618 2.41746E+04 9.17965E+01 8.65735E+02 2.34825E+04 4.32783E-09 5.02018E-09
 -1       619 2.45583E+04 6.72076E+02 1.94400E+03 2.68373E+04 6.08725E-09 1.08935E-09
 -1       620 2.38872E+04 2.14451E+03 3.90736E+03 2.34842E+04 2.54454E-09 6.20366E-09
 -1       621 5.09680E+02 3.01557E+05 3.85544E+03 4.15823E+04 9.46329E-10-2.99588E-09
 -1       622 6.78659E+02 3.02445E+05 3.42721E+03 6.03650E+04 1.39880E-09-2.54895E-08
 -1       623 1.46641E+02 3.01747E+05 4.12454E+03 4.13937E+04 1.44723E-09-1.01581E-08
 -1       624 2.12675E+03 3.03657E+05 8.00147E+03 6.05512E+04 1.68870E-09 8.99945E-09
 -1       625 2.07597E+03 3.00158E+05 1.39846E+04 4.13899E+04 1.78034E-09-3.06977E-09
 -1       626 2.62012E+05 6.14412E+04 5.19550E+03 1.26932E+05 1.25951E-08-1.16579E-08
 -1       627 2.59721E+05 6.27982E+04 2.50366E+03 1.31198E+05 2.28870E-08-6.89215E-09
 -1       628 2.62140E+05 5.90670E+04 1.05890E+03 1.27819E+05 9.87711E-10-1.35476E-08
 -1       629 2.59081E+05 6.21044E+04 5.18212E+02 1.31439E+05-6.93308E-09-2.10630E-08
 -1       630 2.62155E+05 5.89521E+04 2.40453E+02 1.27857E+05-7.06132E-09-2.28717E-08
 -1       631 2.59014E+05 6.20775E+04 1.29402E+02 1.31441E+05 8.23479E-09 2.66118E-09
 -1       632 2.62152E+05 5.89559E+04 8.51419E+01 1.27853E+05 1.41458E-08-1.69803E-08
 -1       633 2.59006E+05 6.20792E+04 9.48540E+01 1.31437E+05 6.78028E-10-8.38759E-09
 -1       634 2.62148E+05 5.89529E+04 1.53287E+02 1.27853E+05-4.02872E-09 1.75887E-08
 -1       635 2.59021E+05 6.20773E+04 3.10171E+02 1.31443E+05-8.96262E-09 9.08585E-10
 -1       636 2.62138E+05 5.89469E+04 6.26397E+02 1.27853E+05-2.43585E-09-1.88402E-09
 -1       637 2.59157E+05 6.21747E+04 1.37734E+03 1.31443E+05-5.89012E-09-1.66256E-08
 -1       638 2.62090E+05 5.92511E+04 2.82989E+03 1.27715E+05-1.86537E-09 2.01635E-09
 -1       639 2.60643E+05 6.42421E+04 6.69569E+03 1.31005E+05 1.09076E-08 6.86487E-09
 -1       640 2.61884E+05 6.54253E+04 1.38947E+04 1.25114E+05 7.43285E-09-3.29169E-09
 -1       656 6.67505E+04-1.70887E+06-1.61133E+05-2.61118E+03 5.67525E-10-3.42840E-09
 -1       657-8.83092E+04-1.78168E+06-1.33497E+05 5.05111E+03-6.59384E-10-7.60117E-09
 -1       658 2.12816E+04-1.72954E+06-8.22278E+04-4.69800E+03 1.13323E-09-2.75287E-09
 -1       659-9.55207E+04-1.78511E+06-1.42974E+05 6.79534E+03-1.05501E-09 5.45853E-09
 -1       660 7.39459E+04-1.70545E+06-1.77426E+05-4.35539E+03-1.70257E-09-4.16858E-09
 -1       661 1.56680E+05 1.63703E+04 1.65829E+04 6.12561E+04 1.84627E-10 1.21063E-08
 -1       662 1.66084E+05 2.86225E+04 1.11758E+04 5.75028E+04-2.55926E-09-1.33618E-08
 -1       663 1.59937E+05 2.16904E+04 3.90854E+03 6.03108E+04 6.74731E-10-1.55540E-08
 -1       664 1.62308E+05 2.24011E+04 2.33818E+03 5.86575E+04-1.46275E-09-5.64921E-09
 -1       665 1.60432E+05 2.24169E+04 9.22401E+02 6.01665E+04 9.22000E-11-1.52776E-08
 -1       666 1.61723E+05 2.15703E+04 5.40015E+02 5.88457E+04 8.47066E-09-1.04416E-10
 -1       667 1.60518E+05 2.24995E+04 2.87125E+02 6.01304E+04-6.24993E-11-5.26276E-09
 -1       668 1.61627E+05 2.15110E+04 2.93227E+02 5.88983E+04-3.11240E-09-1.78447E-08
 -1       669 1.60526E+05 2.24746E+04 3.97543E+02 6.01143E+04-1.68416E-09 1.47790E-09
 -1       670 1.61724E+05 2.17269E+04 8.66163E+02 5.89010E+04-1.09349E-08-5.04201E-09
 -1       671 1.60421E+05 2.22882E+04 1.53812E+03 6.01256E+04-1.04464E-10 6.05723E-09
 -1       672 1.62621E+05 2.32231E+04 3.93537E+03 5.86835E+04 8.46485E-09 6.00107E-09
 -1       673 1.59634E+05 2.10163E+04 6.59511E+03 6.03172E+04 3.36695E-09-6.25323E-09
 -1       674 1.68898E+05 3.38187E+04 1.88606E+04 5.68392E+04-1.16847E-09 5.37511E-09
 -1       675 1.54185E+05 1.19893E+04 2.79958E+04 6.18586E+04-2.50930E-09-1.16706E-08
 -1       676 2.41012E+01-2.95974E+05-1.11260E+03-1.41308E+02 9.46869E-10-2.38166E-08
 -1       677-2.94239E+02-2.96244E+05-2.03625E+03 2.82387E+02 8.75582E-09-4.81122E-08
 -1       678 1.97406E+02-2.95783E+05-3.59958E+03-1.40987E+02 7.52379E-10-2.08465E-08
 -1       679-3.59957E+03-2.98417E+05-8.55112E+03 2.81166E+02 9.83073E-09-1.63631E-08
 -1       680 2.14920E+03-2.93803E+05-1.37815E+04-1.38530E+02 2.75213E-09-6.68358E-09
 -1       771-3.06337E+06-7.47210E+05-1.65190E+05-1.46623E+06-3.91155E-08-2.57860E-08
 -1       772-2.98616E+06-8.35955E+05-8.51530E+04-1.56885E+06-3.39787E-08 1.55596E-08
 -1       773-3.09478E+06-7.22709E+05-4.34364E+04-1.48071E+06-2.07219E-08 1.43627E-08
 -1       774-2.97671E+06-8.17537E+05-1.93730E+04-1.59459E+06 2.88710E-08 4.54020E-09
 -1       775-3.11121E+06-7.11177E+05-1.45093E+04-1.48775E+06-1.45519E-08 4.16185E-09
 -1       776-2.98904E+06-8.14512E+05-5.42269E+03-1.61408E+06-2.15368E-08 1.50649E-08
 -1       777-3.12548E+06-7.00884E+05-6.41680E+03-1.49396E+06-1.19326E-09 6.13363E-09
 -1       778-3.00193E+06-8.11695E+05-1.81243E+03-1.63082E+06 3.25963E-09 7.02858E-09
 -1       779-3.13774E+06-6.91889E+05-3.20743E+03-1.49927E+06-1.42463E-08-7.04676E-09
 -1       780-3.01327E+06-8.09006E+05-5.28784E+02-1.64446E+06-6.63567E-09-2.72121E-09
 -1       781-3.14749E+06-6.84637E+05-1.24094E+03-1.50343E+06-2.83617E-08-2.31012E-09
 -1       782-3.02201E+06-8.06722E+05 4.63005E+02-1.65452E+06-2.60770E-08-2.67482E-09
 -1       783-3.15435E+06-6.79598E+05 7.26618E+02-1.50634E+06-7.97445E-09-1.80621E-08
 -1       784-3.02684E+06-8.04422E+05 2.96566E+03-1.66074E+06-3.34476E-08-1.35333E-09
 -1       785-3.15843E+06-6.76583E+05 5.24070E+03-1.50819E+06-4.12147E-08 7.94535E-09
 -1       786 1.11596E+05-9.43475E+03 2.18279E+04-2.97747E+02 1.67318E-09 2.10921E-08
 -1       787 1.21064E+05 1.09233E+04 1.54423E+04-1.20643E+02 4.95216E-09 2.22371E-08
 -1       788 1.15246E+05-1.47845E+03 5.64703E+03-2.65084E+02 5.41661E-09 1.65842E-08
 -1       789 1.16811E+05 1.71119E+03 3.54456E+03-1.70760E+02-8.04162E-10-7.50981E-09
 -1       790 1.15849E+05-2.30158E+02 1.43412E+03-2.47647E+02-3.00665E-09 1.34287E-08
 -1       791 1.16106E+05 2.65958E+02 8.26354E+02-2.00726E+02-1.07945E-08 2.64207E-08
 -1       792 1.15951E+05-3.43026E+01 3.46250E+02-2.35120E+02-5.88523E-09 1.01890E-08
 -1       793 1.15983E+05 3.42324E+01 1.64014E+02-2.24262E+02-2.89257E-10-1.39171E-08
 -1       794 1.15972E+05 1.42265E+00 2.53332E+01-2.24111E+02 3.64689E-09 7.72687E-10
 -1       795 1.15941E+05-4.14064E+01-1.02318E+02-2.46983E+02-5.64274E-09-8.49494E-09
 -1       796 1.15994E+05 4.12932E+01-2.37315E+02-2.12398E+02 4.75972E-09 4.13621E-10
 -1       797 1.15810E+05-3.07730E+02-6.29058E+02-2.73464E+02 3.39994E-09 1.58518E-08
 -1       798 1.16103E+05 2.67548E+02-1.01537E+03-1.97630E+02 1.98068E-09-4.26587E-09
 -1       799 1.15041E+05-1.97337E+03-2.78808E+03-3.09739E+02 5.94873E-09 1.09764E-08
 -1       800 1.16762E+05 1.70558E+03-3.94409E+03-1.76126E+02-2.40441E-10 7.24913E-09
 -1       801-1.75695E+05-1.01037E+07-1.41016E+06 1.44280E+06 9.06584E-08-6.56983E-08
 -1       802 7.54475E+05 6.12787E+06 2.22669E+06-1.78266E+06 2.60006E-07-3.32921E-08
 -1       803-5.47145E+05-1.44894E+07-1.92870E+06 9.10305E+05 7.76308E-08 1.38098E-08
 -1       804 2.95498E+05 2.53575E+06 1.57334E+06 6.89823E+05-1.22560E-07-1.04762E-07
 -1       805 1.90929E+05-6.52541E+06-2.94784E+05-1.02389E+06-5.13683E-08-5.89562E-08
 -1       806-3.10504E+05-5.97196E+04-2.26702E+04-1.22778E+05-1.48634E-08-9.76934E-09
 -1       807-3.12305E+05-5.60014E+04-1.11376E+04-1.28259E+05 7.06223E-09 2.53587E-09
 -1       808-3.11125E+05-5.15505E+04-4.72498E+03-1.26642E+05-3.96994E-09 1.22176E-08
 -1       809-3.09964E+05-5.28705E+04-2.31043E+03-1.28531E+05-6.19821E-09 1.59880E-08
 -1       810-3.11219E+05-5.12662E+04-1.05909E+03-1.26813E+05 5.82259E-09 3.67368E-09
 -1       811-3.09783E+05-5.27445E+04-5.26845E+02-1.28495E+05-7.20411E-09-1.24928E-08
 -1       812-3.11233E+05-5.12907E+04-2.66836E+02-1.26812E+05-8.06631E-09 1.05911E-08
 -1       813-3.09759E+05-5.27466E+04-1.74094E+02-1.28477E+05-8.52697E-09-1.46792E-09
 -1       814-3.11226E+05-5.13003E+04-1.73597E+02-1.26808E+05-5.00495E-09-2.65536E-08
 -1       815-3.09762E+05-5.27487E+04-2.80745E+02-1.28469E+05 4.26371E-09 1.65187E-09
 -1       816-3.11205E+05-5.12992E+04-5.32757E+02-1.26805E+05 7.77800E-09 8.76025E-09
 -1       817-3.09853E+05-5.27995E+04-1.14372E+03-1.28458E+05-7.14681E-09-3.16709E-09
 -1       818-3.11136E+05-5.14604E+04-2.33293E+03-1.26729E+05-5.16593E-10-1.53732E-08
 -1       819-3.11129E+05-5.42102E+04-5.48935E+03-1.28157E+05 6.51744E-09-5.98084E-09
 -1       820-3.10697E+05-5.56061E+04-1.11728E+04-1.24956E+05 5.62977E-09 2.50714E-08
 -1       821-3.77986E+05 2.08635E+04-4.85385E+04 2.08971E+03 1.40021E-08 2.18279E-09
 -1       822-3.97802E+05-2.41674E+04-3.41341E+04-4.27337E+03 4.30154E-09 1.21145E-09
 -1       823-3.85502E+05 3.28703E+03-1.25396E+04 3.32621E+03-1.23822E-08-1.93600E-08
 -1       824-3.88749E+05-3.79109E+03-7.85223E+03-5.11127E+03 1.13390E-09-9.42418E-09
 -1       825-3.87046E+05 5.10344E+02-3.28463E+03 2.92772E+03 1.93821E-08 6.75402E-09
 -1       826-3.86382E+05-5.69308E+02-1.75865E+03-2.90849E+03 2.66763E-08 2.16213E-08
 -1       827-3.87846E+05 5.00853E+01-1.17590E+03 1.12330E+03 1.07563E-08-9.19397E-09
 -1       828-3.85725E+05-1.36629E+02-6.11381E+02 1.11234E+03-4.75472E-09-5.51569E-09
 -1       829-3.87690E+05 6.86646E+01-1.16605E+03-1.09315E+03 1.85383E-09 3.11786E-11
 -1       830-3.86719E+05-6.23291E+02-1.89439E+03 4.72733E+03 1.43611E-09-1.05576E-08
 -1       831-3.86873E+05 5.53050E+02-3.36779E+03-2.49170E+03-7.06967E-09-8.45716E-09
 -1       832-3.88830E+05-3.95778E+03-8.15528E+03 5.93386E+03-1.05625E-09 2.33740E-08
 -1       833-3.85595E+05 3.41158E+03-1.30427E+04-2.29972E+03-1.08660E-09 1.16415E-10
 -1       834-3.97875E+05-2.50825E+04-3.53609E+04 4.02989E+03-2.14013E-09 3.77577E-09
 -1       835-3.77811E+05 2.16462E+04-5.04094E+04-5.87663E+02 5.09900E-09-9.64792E-09
 -1       836-1.41439E+03 3.71380E+05 2.29733E+04-1.50045E+04-7.44967E-09 1.43068E-08
 -1       837 4.90151E+03 3.78574E+05 1.94396E+04-3.07116E+04-8.06290E-09 4.95038E-09
 -1       838-5.58010E+02 3.73399E+05 1.98072E+04-1.49357E+04-6.42740E-09 3.38184E-08
 -1       839 1.24690E+04 3.84212E+05 3.74698E+04-3.07646E+04-6.79211E-09 2.90147E-08
 -1       840-3.85219E+03 3.65685E+05 5.97511E+04-1.49575E+04-6.37374E-09 6.34714E-10
 -1       856-5.03532E+04 7.98274E+03-2.10362E+04-3.96759E+02 7.80165E-09 1.91612E-08
 -1       857-5.90192E+04-9.37991E+03-1.44811E+04 5.62917E+03 4.77038E-09 3.10083E-08
 -1       858-5.37853E+04 1.11953E+03-5.45834E+03-4.20427E+02 4.25968E-09 1.89068E-08
 -1       859-5.50805E+04-1.31751E+03-3.29376E+03 5.66428E+03 3.37252E-10 3.22102E-08
 -1       860-5.42981E+04 1.56813E+02-1.38022E+03-4.31586E+02 3.71497E-09 2.47820E-09
 -1       861-5.44907E+04-1.87595E+02-7.58898E+02 5.67946E+03-5.35911E-09-8.89899E-09
 -1       862-5.43783E+04 2.12429E+01-3.14674E+02-4.35587E+02-2.00233E-09 1.43920E-08
 -1       863-5.43922E+04-2.19240E+01-1.12834E+02 5.68180E+03-3.46877E-09 9.44368E-09
 -1       864-5.43971E+04-5.08647E+00 5.09916E+01-4.33924E+02-3.32200E-09-3.56944E-09
 -1       865-5.43357E+04 6.09358E+01 2.62891E+02 5.67224E+03-3.12912E-09 1.06182E-08
 -1       866-5.44327E+04-6.15998E+01 5.27748E+02-4.26033E+02 1.44507E-09-1.28274E-08
 -1       867-5.40881E+04 5.08677E+02 1.29764E+03 5.65084E+03-1.20644E-09 5.93965E-09
 -1       868-5.46397E+04-4.44652E+02 2.15601E+03-4.12515E+02-2.39532E-09-1.02224E-08
 -1       869-5.25080E+04 3.70099E+03 5.74015E+03 5.61562E+03 4.93051E-09-4.00432E-08
 -1       870-5.60050E+04-3.16707E+03 8.33041E+03-3.90708E+02-5.45333E-09-1.40749E-08
 -1       871-5.53190E+03-2.15911E+04-1.95769E+04 1.31109E+05-5.39512E-09 2.49474E-09
 -1       872-1.97713E+03-2.61468E+04-8.20241E+03 1.70003E+05-1.02054E-08-2.03318E-09
 -1       873 4.17212E+02-2.39413E+04 5.79680E+02 1.30820E+05-5.30417E-09-2.25269E-08
 -1       874 3.32715E+03-2.15296E+04 9.79287E+03 1.70032E+05-1.27493E-08-2.01644E-08
 -1       875 6.87047E+03-2.62747E+04 2.21019E+04 1.31060E+05-5.71345E-09-1.18598E-08
 -1       876 2.94432E+05 4.95859E+04 1.51112E+04 1.18112E+05 6.57474E-09 1.65437E-09
 -1       877 2.95437E+05 5.27627E+04 8.06999E+03 1.22440E+05 7.23549E-09 1.77587E-08
 -1       878 2.95845E+05 4.79119E+04 3.38093E+03 1.19349E+05-4.21232E-09 8.69022E-10
 -1       879 2.93383E+05 5.07126E+04 1.68460E+03 1.22542E+05-1.44269E-09-7.36509E-09
 -1       880 2.95947E+05 4.78947E+04 7.84689E+02 1.19400E+05-8.76639E-09-1.21184E-08
 -1       881 2.93247E+05 5.06249E+04 4.19100E+02 1.22519E+05-6.83826E-09 7.60750E-10
 -1       882 2.95956E+05 4.79079E+04 2.68232E+02 1.19402E+05-8.19364E-09-7.52952E-09
 -1       883 2.93237E+05 5.06203E+04 2.88546E+02 1.22511E+05-1.03705E-09 7.43924E-09
 -1       884 2.95949E+05 4.79051E+04 4.59179E+02 1.19402E+05-4.72460E-09 9.09768E-09
 -1       885 2.93274E+05 5.06267E+04 9.23310E+02 1.22522E+05-1.53288E-08 6.99083E-09
 -1       886 2.95913E+05 4.78782E+04 1.86094E+03 1.19398E+05-1.09276E-08 1.55014E-08
 -1       887 2.93601E+05 5.08411E+04 4.06500E+03 1.22569E+05 1.08780E-08-2.63117E-08
 -1       888 2.95656E+05 4.79235E+04 8.19109E+03 1.19268E+05 1.81339E-09-1.55355E-08
 -1       889 2.98477E+05 5.59125E+04 1.95670E+04 1.22420E+05-5.21801E-09-1.40062E-08
 -1       890 2.92313E+05 5.18950E+04 3.66485E+04 1.16151E+05-4.62114E-09 1.25819E-08
 -1       891-8.80566E+01-1.63010E+05-2.00220E+03 2.70767E+04-1.91949E-09-3.53407E-09
 -1       892-1.73391E+02-1.63540E+05-2.14929E+03 4.11211E+04 7.28960E-10 3.75112E-08
 -1       893 4.55561E+01-1.63075E+05-3.04197E+03 2.70841E+04-6.06633E-10 4.53701E-09
 -1       894-1.51012E+03-1.64689E+05-6.29492E+03 4.09689E+04 1.61526E-09-3.86035E-09
 -1       895-1.19950E+03-1.61763E+05-1.10849E+04 2.72309E+04-4.27690E-10-1.47929E-08
 -1       956-3.78316E+05-5.45676E+03-1.34648E+04 3.10509E+04 9.41691E-09-1.02757E-08
 -1       957-3.80958E+05-1.92676E+03-6.91124E+03 3.73146E+04-3.33239E-09-3.78350E-08
 -1       958-3.79526E+05-2.43220E+02-3.11443E+03 3.08829E+04-9.87711E-10-1.28798E-08
 -1       959-3.79723E+05-1.38857E+02-1.59028E+03 3.75107E+04 1.14565E-08 1.06947E-08
 -1       960-3.79645E+05-4.68552E+01-7.75509E+02 3.08656E+04 1.06038E-08-1.13837E-08
 -1       961-3.79642E+05-6.57178E+01-4.11203E+02 3.75311E+04 1.08837E-08-2.79688E-08
 -1       962-3.79672E+05-4.80740E+01-2.35497E+02 3.08628E+04-6.03450E-10-1.21561E-08
 -1       963-3.79643E+05-6.15516E+01-1.89186E+02 3.75348E+04 4.94219E-09-6.83804E-09
 -1       964-3.79678E+05-4.47718E+01-2.30245E+02 3.08620E+04-2.89769E-09-2.14845E-09
 -1       965-3.79655E+05-5.86873E+01-3.98377E+02 3.75340E+04-9.44192E-09-1.36697E-08
 -1       966-3.79661E+05-3.70375E+01-7.48640E+02 3.08635E+04 6.67114E-10 3.32875E-10
 -1       967-3.79744E+05-1.22610E+02-1.53547E+03 3.75195E+04-2.78987E-09-2.07724E-08
 -1       968-3.79557E+05-2.20330E+02-3.00596E+03 3.08764E+04-3.08773E-09 3.25406E-09
 -1       969-3.80948E+05-1.84339E+03-6.67310E+03 3.73694E+04 3.27509E-09 5.67854E-09
 -1       970-3.78396E+05-5.25031E+03-1.29996E+04 3.10047E+04-2.16096E-09 1.82145E-08
 -1       971-3.46016E+05-1.72743E+03-9.30437E+03 1.53629E+04 9.94987E-10-2.22338E-08
 -1       972-3.48255E+05-1.27243E+03-5.06708E+03 2.12417E+04 9.53150E-10-1.47793E-10
 -1       973-3.47052E+05-6.30098E+01-2.26960E+03 1.52421E+04 1.42518E-09 6.82599E-09
 -1       974-3.47187E+05-8.24870E+01-1.17652E+03 2.13786E+04-8.57199E-09 1.07823E-08
 -1       975-3.47134E+05-1.81873E+01-5.88614E+02 1.52297E+04-4.54247E-09-3.85182E-09
 -1       976-3.47125E+05-3.26971E+01-3.40539E+02 2.13944E+04 6.62317E-09-4.79986E-09
 -1       977-3.47151E+05-1.74539E+01-2.48849E+02 1.52263E+04-1.27784E-10-6.37863E-09
 -1       978-3.47131E+05-2.64842E+01-2.93518E+02 2.13992E+04-1.61801E-08 9.45101E-09
 -1       979-3.47150E+05-8.96647E+00-4.73573E+02 1.52249E+04-7.90817E-09 6.64988E-09
 -1       980-3.47166E+05-2.34207E+01-9.15653E+02 2.14002E+04-5.65029E-09 7.05234E-09
 -1       981-3.47121E+05 1.39280E+01-1.77405E+03 1.52254E+04 4.89763E-10-4.68418E-09
 -1       982-3.47410E+05-1.54490E+02-3.66730E+03 2.13936E+04 1.59162E-10-4.58996E-09
 -1       983-3.46898E+05-9.96471E+01-7.12576E+03 1.52314E+04-2.63481E-09-1.30822E-08
 -1       984-3.50837E+05-3.87603E+03-1.59580E+04 2.13081E+04 1.80012E-09-6.50834E-09
 -1       985-3.43672E+05-5.31380E+03-2.93037E+04 1.53023E+04-6.64204E-09-2.25373E-09
 -3
    1PSTEP                        41          21           1          
  100CL  121 6.63085E-01         409                     0   21           1
 -4  DISP        4    1
 -5  D1          1    2    1    0
 -5  D2          1    2    2    0
 -5  D3          1    2    3    0
 -5  ALL         1    2    0    0    1ALL
 -1         1 2.70224E-03 0.00000E+00 0.00000E+00
 -1         2 1.38517E-03-4.12066E-28 0.00000E+00
 -1         3 3.43115E-04-5.81350E-28 1.32349E-23
 -1         5 1.76548E-04-1.52649E-27 0.00000E+00
 -1         8 2.69093E-03-4.14253E-07 0.00000E+00
 -1         9 2.68428E-03-1.77786E-04 0.00000E+00
 -1        10 3.11078E-04-3.43294E-06 6.61744E-24
 -1        12 1.78434E-04 8.08663E-07-4.13590E-25
 -1        15 2.67793E-03-4.39371E-07-2.06795E-25
 -1        16 2.74547E-03-1.79536E-04 0.00000E+00
 -1        17 2.11609E-04-7.82606E-06 0.00000E+00
 -1        18 1.82495E-04 3.49287E-05 0.00000E+00
 -1        19 1.84093E-04 1.61084E-06 0.00000E+00
 -1        20 1.84230E-04-1.03974E-05 0.00000E+00
 -1        21 1.83332E-04-2.65415E-05 0.00000E+00
 -1        24 3.06440E-05-1.20610E-05 0.00000E+00
 -1        25 1.93547E-04 3.51529E-05 0.00000E+00
 -1        26 1.94158E-04 2.23092E-06 0.00000E+00
 -1        27 1.91966E-04-1.39663E-05 0.00000E+00
 -1        28 1.91660E-04-2.71640E-05 0.00000E+00
 -1        32 0.00000E+00 0.00000E+00 0.00000E+00
 -1        33 2.03274E-04 2.98676E-06 0.00000E+00
 -1        34 2.01149E-04-1.40233E-05 0.00000E+00
 -1        35 1.99212E-04-2.75072E-05 0.00000E+00
 -1        51 2.70148E-03-8.61941E-08-3.30872E-24
 -1        52 2.70010E-03-1.54157E-07 0.00000E+00
 -1        53 2.69822E-03-2.18721E-07 0.00000E+00
 -1        54 2.69597E-03-2.82120E-07 1.65436E-24
 -1        55 2.69350E-03-3.46109E-07 3.30872E-24
 -1        56 2.69517E-03 6.97686E-06-5.29396E-23
 -1        57 2.68190E-03 2.93136E-05 5.29396E-23
 -1        58 2.66440E-03 6.21129E-05 0.00000E+00
 -1        59 2.64497E-03 9.94657E-05 0.00000E+00
 -1        60 2.62643E-03 1.34686E-04 0.00000E+00
 -1        61 2.61144E-03 1.61260E-04 0.00000E+00
 -1        62 2.60185E-03 1.74220E-04 0.00000E+00
 -1        63 2.59889E-03 1.69810E-04 0.00000E+00
 -1        64 2.60243E-03 1.47451E-04 0.00000E+00
 -1        65 2.61175E-03 1.08243E-04 5.29396E-23
 -1        66 2.62522E-03 5.64582E-05 1.05879E-22
 -1        67 2.64094E-03-2.41455E-06 0.00000E+00
 -1        68 2.65674E-03-6.15275E-05-1.05879E-22
 -1        69 2.67046E-03-1.14003E-04 5.29396E-23
 -1        70 2.68016E-03-1.54240E-04 0.00000E+00
 -1        86 1.46682E-03-5.69482E-06-5.29396E-23
 -1        87 1.70345E-03-3.54731E-05-2.64698E-23
 -1        88 2.02157E-03-8.65329E-05-2.64698E-23
 -1        89 2.34376E-03-1.38927E-04 0.00000E+00
 -1        90 2.59026E-03-1.70981E-04-5.29396E-23
 -1       121 3.42216E-04-5.54327E-07 1.32349E-23
 -1       122 3.39520E-04-1.11176E-06 0.00000E+00
 -1       123 3.35039E-04-1.67535E-06 0.00000E+00
 -1       124 3.28788E-04-2.24816E-06 6.61744E-24
 -1       125 3.20791E-04-2.83285E-06-1.32349E-23
 -1       191 1.76600E-04 1.34844E-07 0.00000E+00
 -1       192 1.76757E-04 2.69675E-07-8.27181E-25
 -1       193 1.77019E-04 4.04486E-07 0.00000E+00
 -1       194 1.77386E-04 5.39263E-07 0.00000E+00
 -1       195 1.77858E-04 6.73993E-07 1.65436E-24
 -1       251 2.69062E-03 1.85035E-06 0.00000E+00
 -1       252 2.69030E-03 4.21588E-06 0.00000E+00
 -1       253 2.68999E-03 5.67341E-06 6.61744E-24
 -1       254 2.68967E-03 5.22570E-06 0.00000E+00
 -1       255 2.68935E-03 2.17527E-06 0.00000E+00
 -1       256 2.68901E-03-4.14154E-06-6.61744E-24
 -1       257 2.68865E-03-1.38749E-05 1.32349E-23
 -1       258 2.68824E-03-2.71304E-05 0.00000E+00
 -1       259 2.68780E-03-4.34605E-05-1.32349E-23
 -1       260 2.68731E-03-6.23774E-05-6.61744E-24
 -1       261 2.68679E-03-8.29864E-05 0.00000E+00
 -1       262 2.68625E-03-1.04372E-04 0.00000E+00
 -1       263 2.68571E-03-1.25494E-04 0.00000E+00
 -1       264 2.68520E-03-1.45320E-04 6.61744E-24
 -1       265 2.68473E-03-1.63018E-04-1.32349E-23
 -1       266 2.68877E-03-4.24226E-07 3.30872E-24
 -1       267 2.68660E-03-4.27707E-07 0.00000E+00
 -1       268 2.68443E-03-4.31599E-07-8.27181E-25
 -1       269 2.68226E-03-4.34273E-07 0.00000E+00
 -1       270 2.68010E-03-4.36919E-07 2.06795E-25
 -1       271 2.68999E-03 2.62530E-07-1.32349E-23
 -1       272 2.68995E-03-1.49967E-06 0.00000E+00
 -1       273 2.69075E-03-5.56186E-06 2.64698E-23
 -1       274 2.69235E-03-1.17741E-05 1.32349E-23
 -1       275 2.69468E-03-1.99663E-05-2.64698E-23
 -1       276 2.69766E-03-2.99539E-05 0.00000E+00
 -1       277 2.70123E-03-4.15364E-05 0.00000E+00
 -1       278 2.70529E-03-5.45011E-05 1.32349E-23
 -1       279 2.70977E-03-6.86235E-05-2.64698E-23
 -1       280 2.71458E-03-8.36698E-05 0.00000E+00
 -1       281 2.71964E-03-9.93980E-05 0.00000E+00
 -1       282 2.72485E-03-1.15561E-04 0.00000E+00
 -1       283 2.73013E-03-1.31909E-04 0.00000E+00
 -1       284 2.73538E-03-1.48188E-04 6.61744E-24
 -1       285 2.74053E-03-1.64147E-04 0.00000E+00
 -1       301 2.69541E-03-1.78110E-04 0.00000E+00
 -1       302 2.70493E-03-1.78390E-04 6.61744E-24
 -1       303 2.71378E-03-1.78660E-04-1.32349E-23
 -1       304 2.72287E-03-1.78932E-04 0.00000E+00
 -1       305 2.73313E-03-1.79216E-04 2.64698E-23
 -1       306 2.72198E-03-3.31461E-04 0.00000E+00
 -1       307 2.78588E-03-7.44455E-04 0.00000E+00
 -1       308 2.83274E-03-1.34885E-03 1.05879E-22
 -1       309 2.85672E-03-2.04890E-03 0.00000E+00
 -1       310 2.88802E-03-2.71900E-03 1.05879E-22
 -1       311 2.94742E-03-3.23623E-03-5.29396E-23
 -1       312 3.00543E-03-3.51991E-03 2.11758E-22
 -1       313 3.00147E-03-3.53192E-03 5.29396E-23
 -1       314 2.86186E-03-3.28403E-03 1.05879E-22
 -1       315 2.54559E-03-2.84040E-03-5.29396E-23
 -1       316 2.07072E-03-2.27754E-03-1.05879E-22
 -1       317 1.50280E-03-1.66483E-03 5.29396E-23
 -1       318 9.55864E-04-1.06303E-03 1.05879E-22
 -1       319 5.37694E-04-5.37199E-04-5.29396E-23
 -1       320 2.92117E-04-1.61348E-04 0.00000E+00
 -1       336 2.99463E-04-4.09636E-06-1.32349E-23
 -1       337 2.85768E-04-4.78559E-06 6.61744E-24
 -1       338 2.70057E-04-5.50283E-06 0.00000E+00
 -1       339 2.52403E-04-6.24889E-06-6.61744E-24
 -1       340 2.32889E-04-7.02824E-06 0.00000E+00
 -1       406 1.79115E-04 9.43253E-07-3.30872E-24
 -1       407 1.79901E-04 1.07773E-06 0.00000E+00
 -1       408 1.80792E-04 1.21203E-06-2.48154E-24
 -1       409 1.81788E-04 1.34600E-06-1.65436E-24
 -1       410 1.82888E-04 1.47935E-06 0.00000E+00
 -1       521 2.78378E-03-3.42490E-04 1.05879E-22
 -1       522 2.84593E-03-7.75593E-04 0.00000E+00
 -1       523 2.88642E-03-1.40754E-03 0.00000E+00
 -1       524 2.90130E-03-2.13588E-03 5.29396E-23
 -1       525 2.92477E-03-2.83228E-03 1.05879E-22
 -1       526 2.98063E-03-3.37131E-03 0.00000E+00
 -1       527 3.03821E-03-3.66549E-03 0.00000E+00
 -1       528 3.03199E-03-3.67579E-03 0.00000E+00
 -1       529 2.88055E-03-3.41392E-03 0.00000E+00
 -1       530 2.54065E-03-2.95191E-03 0.00000E+00
 -1       531 2.03113E-03-2.37001E-03 1.05879E-22
 -1       532 1.42391E-03-1.74020E-03 0.00000E+00
 -1       533 8.38309E-04-1.12066E-03 0.00000E+00
 -1       534 3.87183E-04-5.74137E-04-5.29396E-23
 -1       535 1.20585E-04-1.78917E-04 2.11758E-22
 -1       536 2.10927E-04 2.76243E-05-3.30872E-24
 -1       537 2.09010E-04 8.96655E-05 0.00000E+00
 -1       538 2.05939E-04 1.69058E-04 0.00000E+00
 -1       539 2.02218E-04 2.56551E-04 0.00000E+00
 -1       540 1.98880E-04 3.39223E-04 1.65436E-24
 -1       541 1.96805E-04 4.04158E-04 0.00000E+00
 -1       542 1.95921E-04 4.45199E-04 0.00000E+00
 -1       543 1.95788E-04 4.56242E-04-4.13590E-25
 -1       544 1.95558E-04 4.37960E-04 0.00000E+00
 -1       545 1.94432E-04 3.91128E-04 0.00000E+00
 -1       546 1.92196E-04 3.23560E-04 8.27181E-25
 -1       547 1.89040E-04 2.43107E-04 4.13590E-25
 -1       548 1.85912E-04 1.63031E-04 0.00000E+00
 -1       549 1.83749E-04 9.65976E-05 0.00000E+00
 -1       550 1.82696E-04 5.13845E-05 0.00000E+00
 -1       551 1.86373E-04-8.39754E-06 0.00000E+00
 -1       552 1.57899E-04-9.04928E-06 0.00000E+00
 -1       553 1.27130E-04-9.76313E-06-3.30872E-24
 -1       554 9.50246E-05-1.05179E-05 0.00000E+00
 -1       555 6.25443E-05-1.12862E-05 0.00000E+00
 -1       556 2.03940E-04 1.17713E-05 0.00000E+00
 -1       557 1.97737E-04 2.76799E-05 0.00000E+00
 -1       558 1.92868E-04 4.01859E-05 0.00000E+00
 -1       559 1.89199E-04 4.95982E-05-2.64698E-23
 -1       560 1.86601E-04 5.62259E-05 0.00000E+00
 -1       561 1.84947E-04 6.03808E-05 0.00000E+00
 -1       562 1.84113E-04 6.23760E-05 0.00000E+00
 -1       563 1.83974E-04 6.25253E-05 0.00000E+00
 -1       564 1.84410E-04 6.11436E-05 0.00000E+00
 -1       565 1.85299E-04 5.85464E-05 0.00000E+00
 -1       566 1.86524E-04 5.50499E-05 0.00000E+00
 -1       567 1.87965E-04 5.09705E-05 0.00000E+00
 -1       568 1.89506E-04 4.66248E-05-1.65436E-24
 -1       569 1.91027E-04 4.23296E-05 0.00000E+00
 -1       570 1.92413E-04 3.84015E-05 0.00000E+00
 -1       571 1.82592E-04 3.27607E-05 0.00000E+00
 -1       572 1.82691E-04 3.05281E-05-1.24077E-24
 -1       573 1.82790E-04 2.82467E-05-1.65436E-24
 -1       574 1.82890E-04 2.59327E-05 0.00000E+00
 -1       575 1.82990E-04 2.36026E-05 0.00000E+00
 -1       576 1.83089E-04 2.12727E-05 0.00000E+00
 -1       577 1.83189E-04 1.89596E-05 3.30872E-24
 -1       578 1.83289E-04 1.66798E-05 0.00000E+00
 -1       579 1.83389E-04 1.44497E-05-6.61744E-24
 -1       580 1.83489E-04 1.22858E-05 0.00000E+00
 -1       581 1.83589E-04 1.02046E-05 0.00000E+00
 -1       582 1.83690E-04 8.22248E-06 0.00000E+00
 -1       583 1.83790E-04 6.35599E-06 6.61744E-24
 -1       584 1.83891E-04 4.62137E-06 0.00000E+00
 -1       585 1.83992E-04 3.03474E-06 0.00000E+00
 -1       586 1.84297E-04 3.49683E-05-1.65436E-24
 -1       587 1.86058E-04 3.50072E-05-4.13590E-25
 -1       588 1.87822E-04 3.50458E-05 0.00000E+00
 -1       589 1.89629E-04 3.50837E-05 0.00000E+00
 -1       590 1.91524E-04 3.51203E-05 0.00000E+00
 -1       591 1.83240E-04 3.28551E-05 1.03398E-25
 -1       592 1.83986E-04 3.07638E-05 0.00000E+00
 -1       593 1.84737E-04 2.86603E-05 0.00000E+00
 -1       594 1.85491E-04 2.65491E-05 0.00000E+00
 -1       595 1.86245E-04 2.44347E-05-8.27181E-25
 -1       596 1.86999E-04 2.23216E-05 0.00000E+00
 -1       597 1.87751E-04 2.02140E-05 0.00000E+00
 -1       598 1.88499E-04 1.81166E-05 4.13590E-25
 -1       599 1.89242E-04 1.60336E-05 0.00000E+00
 -1       600 1.89977E-04 1.39695E-05-4.13590E-25
 -1       601 1.90704E-04 1.19287E-05 8.27181E-25
 -1       602 1.91421E-04 9.91569E-06 2.06795E-25
 -1       603 1.92126E-04 7.93482E-06 4.13590E-25
 -1       604 1.92817E-04 5.99064E-06 1.29247E-25
 -1       605 1.93494E-04 4.08747E-06 0.00000E+00
 -1       606 1.84106E-04 4.19531E-07 0.00000E+00
 -1       607 1.84115E-04-6.87065E-07-1.65436E-24
 -1       608 1.84124E-04-1.71392E-06 0.00000E+00
 -1       609 1.84132E-04-2.66665E-06 0.00000E+00
 -1       610 1.84141E-04-3.55091E-06 0.00000E+00
 -1       611 1.84149E-04-4.37242E-06 0.00000E+00
 -1       612 1.84157E-04-5.13689E-06 0.00000E+00
 -1       613 1.84165E-04-5.85009E-06 0.00000E+00
 -1       614 1.84173E-04-6.51773E-06 0.00000E+00
 -1       615 1.84182E-04-7.14554E-06 0.00000E+00
 -1       616 1.84190E-04-7.73927E-06 0.00000E+00
 -1       617 1.84198E-04-8.30465E-06 0.00000E+00
 -1       618 1.84206E-04-8.84742E-06 0.00000E+00
 -1       619 1.84215E-04-9.37330E-06-2.06795E-25
 -1       620 1.84223E-04-9.88804E-06 0.00000E+00
 -1       621 1.85480E-04 1.71477E-06 0.00000E+00
 -1       622 1.87028E-04 1.81893E-06 0.00000E+00
 -1       623 1.88703E-04 1.92288E-06 0.00000E+00
 -1       624 1.90473E-04 2.02649E-06 1.65436E-24
 -1       625 1.92302E-04 2.12980E-06 1.65436E-24
 -1       626 1.84652E-04 4.55863E-07-3.30872E-24
 -1       627 1.85189E-04-6.37205E-07 3.30872E-24
 -1       628 1.85705E-04-1.67618E-06 0.00000E+00
 -1       629 1.86205E-04-2.66917E-06 0.00000E+00
 -1       630 1.86691E-04-3.62432E-06-3.30872E-24
 -1       631 1.87165E-04-4.54978E-06 0.00000E+00
 -1       632 1.87632E-04-5.45370E-06-3.30872E-24
 -1       633 1.88093E-04-6.34425E-06 0.00000E+00
 -1       634 1.88553E-04-7.22958E-06 0.00000E+00
 -1       635 1.89013E-04-8.11784E-06 1.65436E-24
 -1       636 1.89478E-04-9.01720E-06 0.00000E+00
 -1       637 1.89950E-04-9.93581E-06 0.00000E+00
 -1       638 1.90432E-04-1.08818E-05 0.00000E+00
 -1       639 1.90927E-04-1.18635E-05-1.65436E-24
 -1       640 1.91438E-04-1.28888E-05 3.30872E-24
 -1       656 1.84971E-04-1.09774E-05-6.61744E-24
 -1       657 1.86131E-04-1.15810E-05 0.00000E+00
 -1       658 1.87571E-04-1.21833E-05 0.00000E+00
 -1       659 1.89145E-04-1.27852E-05 6.61744E-24
 -1       660 1.90671E-04-1.33889E-05 6.61744E-24
 -1       661 1.84507E-04-1.09522E-05-8.27181E-25
 -1       662 1.84822E-04-1.15998E-05 0.00000E+00
 -1       663 1.85170E-04-1.23346E-05 0.00000E+00
 -1       664 1.85548E-04-1.31502E-05-8.27181E-25
 -1       665 1.85954E-04-1.40406E-05-1.65436E-24
 -1       666 1.86386E-04-1.49998E-05 0.00000E+00
 -1       667 1.86842E-04-1.60221E-05 0.00000E+00
 -1       668 1.87319E-04-1.71016E-05 0.00000E+00
 -1       669 1.87816E-04-1.82331E-05-1.65436E-24
 -1       670 1.88330E-04-1.94109E-05 0.00000E+00
 -1       671 1.88859E-04-2.06299E-05 1.65436E-24
 -1       672 1.89401E-04-2.18847E-05 0.00000E+00
 -1       673 1.89955E-04-2.31704E-05 0.00000E+00
 -1       674 1.90518E-04-2.44820E-05-4.13590E-25
 -1       675 1.91088E-04-2.58143E-05 2.06795E-25
 -1       676 1.84725E-04-2.66458E-05-3.30872E-24
 -1       677 1.86117E-04-2.67501E-05 0.00000E+00
 -1       678 1.87507E-04-2.68544E-05 3.30872E-24
 -1       679 1.88895E-04-2.69583E-05 1.65436E-24
 -1       680 1.90280E-04-2.70623E-05 0.00000E+00
 -1       771 1.86917E-05 1.46667E-05 5.29396E-23
 -1       772 8.63586E-06 3.66195E-05-2.64698E-23
 -1       773 3.85673E-07 5.40273E-05 0.00000E+00
 -1       774-6.18313E-06 6.71481E-05 0.00000E+00
 -1       775-1.11922E-05 7.62502E-05 0.00000E+00
 -1       776-1.47680E-05 8.16185E-05 0.00000E+00
 -1       777-1.70368E-05 8.35482E-05 0.00000E+00
 -1       778-1.81277E-05 8.23483E-05 0.00000E+00
 -1       779-1.81687E-05 7.83362E-05 5.29396E-23
 -1       780-1.72902E-05 7.18410E-05-2.64698E-23
 -1       781-1.56215E-05 6.31981E-05 0.00000E+00
 -1       782-1.32936E-05 5.27524E-05 2.64698E-23
 -1       783-1.04365E-05 4.08528E-05 5.29396E-23
 -1       784-7.18134E-06 2.78549E-05 0.00000E+00
 -1       785-3.65850E-06 1.41170E-05 0.00000E+00
 -1       786 1.93581E-04 3.28643E-05-1.03398E-25
 -1       787 1.93618E-04 3.06256E-05 0.00000E+00
 -1       788 1.93656E-04 2.84289E-05-8.27181E-25
 -1       789 1.93694E-04 2.62665E-05 0.00000E+00
 -1       790 1.93732E-04 2.41337E-05 8.27181E-25
 -1       791 1.93770E-04 2.20260E-05 0.00000E+00
 -1       792 1.93809E-04 1.99412E-05-1.65436E-24
 -1       793 1.93847E-04 1.78770E-05 0.00000E+00
 -1       794 1.93886E-04 1.58331E-05 1.65436E-24
 -1       795 1.93924E-04 1.38092E-05-8.27181E-25
 -1       796 1.93963E-04 1.18070E-05 0.00000E+00
 -1       797 1.94001E-04 9.82797E-06 8.27181E-25
 -1       798 1.94040E-04 7.87591E-06 0.00000E+00
 -1       799 1.94079E-04 5.95463E-06 0.00000E+00
 -1       800 1.94118E-04 4.07072E-06 1.65436E-24
 -1       801 1.47378E-04 3.16114E-05 0.00000E+00
 -1       802 7.80788E-06 1.97224E-05 2.64698E-23
 -1       803-1.11167E-04 9.98869E-06 0.00000E+00
 -1       804-9.80510E-05 6.95967E-06 0.00000E+00
 -1       805-3.22840E-05 2.71869E-06 5.29396E-23
 -1       806 1.94289E-04 3.27960E-05 1.65436E-24
 -1       807 1.95017E-04 3.04661E-05 0.00000E+00
 -1       808 1.95732E-04 2.81683E-05 0.00000E+00
 -1       809 1.96433E-04 2.59065E-05 0.00000E+00
 -1       810 1.97119E-04 2.36849E-05 0.00000E+00
 -1       811 1.97788E-04 2.15071E-05 1.65436E-24
 -1       812 1.98440E-04 1.93771E-05 0.00000E+00
 -1       813 1.99073E-04 1.72988E-05 0.00000E+00
 -1       814 1.99685E-04 1.52758E-05 0.00000E+00
 -1       815 2.00275E-04 1.33121E-05 0.00000E+00
 -1       816 2.00841E-04 1.14114E-05 0.00000E+00
 -1       817 2.01382E-04 9.57762E-06-8.27181E-25
 -1       818 2.01897E-04 7.81449E-06-1.65436E-24
 -1       819 2.02385E-04 6.12581E-06 8.27181E-25
 -1       820 2.02844E-04 4.51533E-06-1.65436E-24
 -1       821 1.94029E-04-1.38816E-07-1.65436E-24
 -1       822 1.93889E-04-3.60718E-06 0.00000E+00
 -1       823 1.93747E-04-7.76199E-06 0.00000E+00
 -1       824 1.93603E-04-1.21867E-05 0.00000E+00
 -1       825 1.93460E-04-1.63922E-05-3.30872E-24
 -1       826 1.93319E-04-1.98904E-05 0.00000E+00
 -1       827 1.93180E-04-2.23854E-05 3.30872E-24
 -1       828 1.93044E-04-2.35878E-05 0.00000E+00
 -1       829 1.92909E-04-2.35588E-05 0.00000E+00
 -1       830 1.92773E-04-2.23675E-05 0.00000E+00
 -1       831 1.92636E-04-2.03986E-05 0.00000E+00
 -1       832 1.92498E-04-1.80414E-05 0.00000E+00
 -1       833 1.92361E-04-1.57909E-05-3.30872E-24
 -1       834 1.92226E-04-1.41415E-05-1.65436E-24
 -1       835 1.92092E-04-1.34247E-05 0.00000E+00
 -1       836 1.95887E-04 2.35625E-06 0.00000E+00
 -1       837 1.97494E-04 2.48474E-06 0.00000E+00
 -1       838 1.99006E-04 2.61318E-06 0.00000E+00
 -1       839 2.00454E-04 2.74091E-06 0.00000E+00
 -1       840 2.01866E-04 2.86848E-06 0.00000E+00
 -1       856 1.91950E-04-1.50663E-05 0.00000E+00
 -1       857 1.91932E-04-1.60307E-05-2.58494E-26
 -1       858 1.91913E-04-1.68805E-05 0.00000E+00
 -1       859 1.91894E-04-1.76369E-05 0.00000E+00
 -1       860 1.91875E-04-1.83210E-05-4.13590E-25
 -1       861 1.91856E-04-1.89542E-05-2.06795E-25
 -1       862 1.91837E-04-1.95576E-05 0.00000E+00
 -1       863 1.91818E-04-2.01527E-05 2.06795E-25
 -1       864 1.91798E-04-2.07607E-05-4.13590E-25
 -1       865 1.91779E-04-2.14030E-05 0.00000E+00
 -1       866 1.91760E-04-2.21008E-05 0.00000E+00
 -1       867 1.91741E-04-2.28754E-05 0.00000E+00
 -1       868 1.91721E-04-2.37479E-05 0.00000E+00
 -1       869 1.91701E-04-2.47395E-05 0.00000E+00
 -1       870 1.91681E-04-2.58712E-05 8.27181E-25
 -1       871 1.93355E-04-1.39713E-05 0.00000E+00
 -1       872 1.94891E-04-1.39798E-05 0.00000E+00
 -1       873 1.96508E-04-1.39890E-05-4.13590E-25
 -1       874 1.98135E-04-1.39989E-05 0.00000E+00
 -1       875 1.99705E-04-1.40094E-05 1.03398E-24
 -1       876 1.92506E-04-1.50517E-05-3.30872E-24
 -1       877 1.93024E-04-1.60703E-05 1.65436E-24
 -1       878 1.93520E-04-1.70301E-05 3.30872E-24
 -1       879 1.93997E-04-1.79384E-05 0.00000E+00
 -1       880 1.94457E-04-1.88028E-05 0.00000E+00
 -1       881 1.94904E-04-1.96304E-05 1.65436E-24
 -1       882 1.95340E-04-2.04288E-05 3.30872E-24
 -1       883 1.95768E-04-2.12052E-05 0.00000E+00
 -1       884 1.96190E-04-2.19669E-05 0.00000E+00
 -1       885 1.96610E-04-2.27213E-05 0.00000E+00
 -1       886 1.97030E-04-2.34757E-05-3.30872E-24
 -1       887 1.97452E-04-2.42374E-05 1.65436E-24
 -1       888 1.97879E-04-2.50138E-05-3.30872E-24
 -1       889 1.98314E-04-2.58124E-05 0.00000E+00
 -1       890 1.98759E-04-2.66404E-05-1.65436E-24
 -1       891 1.93061E-04-2.72216E-05 1.65436E-24
 -1       892 1.94438E-04-2.72795E-05 8.27181E-25
 -1       893 1.95767E-04-2.73372E-05-1.65436E-24
 -1       894 1.97022E-04-2.73946E-05-4.13590E-25
 -1       895 1.98179E-04-2.74518E-05-8.27181E-25
 -1       956 2.03143E-04 1.63288E-06-1.65436E-24
 -1       957 2.03010E-04 3.70720E-07 1.65436E-24
 -1       958 2.02877E-04-8.10518E-07 0.00000E+00
 -1       959 2.02744E-04-1.92224E-06 0.00000E+00
 -1       960 2.02610E-04-2.97591E-06 0.00000E+00
 -1       961 2.02477E-04-3.98301E-06 1.65436E-24
 -1       962 2.02344E-04-4.95502E-06 0.00000E+00
 -1       963 2.02211E-04-5.90348E-06 0.00000E+00
 -1       964 2.02078E-04-6.83989E-06-3.30872E-24
 -1       965 2.01944E-04-7.77575E-06 0.00000E+00
 -1       966 2.01811E-04-8.72260E-06 0.00000E+00
 -1       967 2.01678E-04-9.69194E-06-1.65436E-24
 -1       968 2.01545E-04-1.06953E-05 0.00000E+00
 -1       969 2.01412E-04-1.17440E-05-3.30872E-24
 -1       970 2.01279E-04-1.28497E-05-3.30872E-24
 -1       971 2.01028E-04-1.51971E-05-3.30872E-24
 -1       972 2.00907E-04-1.62766E-05 0.00000E+00
 -1       973 2.00785E-04-1.72720E-05-3.30872E-24
 -1       974 2.00664E-04-1.81943E-05 0.00000E+00
 -1       975 2.00542E-04-1.90542E-05 3.30872E-24
 -1       976 2.00420E-04-1.98626E-05-1.65436E-24
 -1       977 2.00299E-04-2.06304E-05-3.30872E-24
 -1       978 2.00177E-04-2.13684E-05 0.00000E+00
 -1       979 2.00055E-04-2.20876E-05 3.30872E-24
 -1       980 1.99934E-04-2.27988E-05 1.65436E-24
 -1       981 1.99812E-04-2.35128E-05 0.00000E+00
 -1       982 1.99691E-04-2.42407E-05-1.65436E-24
 -1       983 1.99569E-04-2.49932E-05-3.30872E-24
 -1       984 1.99449E-04-2.57813E-05-1.65436E-24
 -1       985 1.99328E-04-2.66157E-05-3.30872E-24
 -3
    1PSTEP                        42          21           1          
  100CL  121 6.63085E-01         409                     0   21           1
 -4  STRESS      6    1
 -5  SXX         1    4    1    1
 -5  SYY         1    4    2    2
 -5  SZZ         1    4    3    3
 -5  SXY         1    4    1    2
 -5  SYZ         1    4    2    3
 -5  SZX         1    4    3    1
 -1         1-5.31168E+06-1.64187E+06-1.13229E+06-1.42289E+06-1.14960E-09 7.43894E-08
 -1         2 1.33549E+06 1.96558E+07 4.63589E+06 5.91079E+06 2.94822E-08-6.31990E-08
 -1         3-1.49577E+03-1.57394E+06 4.09800E+02-2.23960E+03-4.88058E-10 3.34549E-08
 -1         5-7.84723E+01 3.86149E+05 9.91946E+00-1.36940E+00-4.93258E-10-9.91895E-09
 -1         8-5.80160E+05-2.06620E+05-6.59081E+04-2.51422E+05 1.45519E-10 8.18072E-08
 -1         9 1.15977E+07 3.43323E+06 2.68523E+06-4.28423E+05-6.86850E-09-8.50298E-08
 -1        10-2.31422E+03-1.64018E+06-3.96702E+03-1.51518E+04-1.38334E-08-6.61822E-08
 -1        12-7.45871E+01 3.86171E+05 3.26331E+02-9.32864E+00-8.96794E-10 7.64521E-09
 -1        15 9.58718E+02 5.26863E+02 3.09903E+03 8.98732E-01-1.74808E-10 2.43188E-07
 -1        16 2.27846E+07-3.08873E+05 3.10793E+06-2.21159E+06 2.82113E-08 3.38691E-07
 -1        17 8.39641E+06 6.25968E+06 2.26935E+06 5.96681E+06 2.01981E-08 1.18278E-08
 -1        18 2.25010E+05 5.42468E+04 2.47685E+04-1.07747E+05 1.43859E-08 1.34651E-09
 -1        19 1.22752E+05 1.41671E+05-9.53172E+02 2.21279E+04 1.60217E-09-1.02806E-08
 -1        20-8.30835E+04-5.75576E+05-1.29214E+05 2.47582E+04-3.20476E-09 2.19504E-08
 -1        21-4.54661E+01-2.96066E+05-9.23147E+02 2.82845E+02 1.59053E-08-1.55399E-08
 -1        24 1.39184E+07 1.19975E+07 3.85715E+06 1.11109E+07-1.72731E-07-5.67137E-08
 -1        25 1.23476E+05 2.80474E+05 1.02996E+05-6.55966E+05-1.24091E-09-3.55685E-09
 -1        26-5.76475E+04 9.19895E+04-2.52609E+04 2.07133E+03-8.87667E-11 3.28789E-08
 -1        27-7.50887E+04-3.10750E+05-1.13491E+05 6.91485E+04 3.19187E-09-5.80743E-09
 -1        28 2.22286E+04-8.54748E+04 1.69074E+04 2.04391E+04-3.89713E-09-1.29215E-08
 -1        32-1.68187E+06-3.18950E+06-1.99167E+05 4.82278E+05-4.21642E-08-1.10313E-08
 -1        33-1.79220E+05 9.33457E+04 3.25041E+04-3.77392E+04-3.01884E-09 5.92627E-09
 -1        34-2.24129E+05-2.51460E+04 6.96695E+02 7.60138E+04-6.01578E-09 6.81090E-09
 -1        35-2.29242E+04-3.38968E+04-1.35090E+03 5.15061E+04-5.82686E-09-5.84138E-09
 -1        51 6.01215E+04-1.75658E+05 1.27288E+05-4.53392E+05 8.73115E-11-2.24827E-09
 -1        52 2.04205E+04-1.53511E+05 6.68790E+04-5.28764E+05 3.86535E-10-1.89000E-07
 -1        53 4.24451E+03-1.68905E+05 3.49714E+04-4.51822E+05 3.05590E-10-1.57772E-07
 -1        54 7.64202E+03-1.64709E+05 2.90257E+04-5.30313E+05-2.58296E-10-1.72986E-07
 -1        55 1.66209E+04-1.71896E+05 3.56463E+04-4.51714E+05 1.81899E-10-1.98816E-07
 -1        56-9.70953E+06-1.30187E+06-8.88957E+05-4.00643E+06-1.95578E-08 7.91624E-09
 -1        57-1.08815E+07-9.85746E+05-5.53080E+05-2.85135E+06 2.66009E-08-1.33645E-07
 -1        58-9.60278E+06-1.73418E+06-1.99172E+05-4.15483E+06 7.13044E-09-8.68022E-08
 -1        59-1.09564E+07-5.01362E+05-1.10989E+05-2.79375E+06-1.28557E-08-1.61765E-07
 -1        60-9.68538E+06-1.74025E+06-5.41082E+04-4.10977E+06 1.71203E-08-2.02384E-07
 -1        61-1.04477E+07-7.69349E+05 2.94978E+03-3.02646E+06-3.65108E-08 7.39747E-08
 -1        62-1.00167E+07-1.52977E+06-5.64500E+04-3.84851E+06-2.87691E-08-1.70985E-09
 -1        63-9.73746E+06-1.34964E+06 3.41017E+04-3.61862E+06-2.42253E-08-1.79907E-07
 -1        64-1.03229E+07-1.21144E+06-5.17192E+04-3.47071E+06-9.23319E-09-4.97563E-07
 -1        65-9.39150E+06-1.85576E+06 1.33330E+03-4.34529E+06-8.07631E-10-1.06661E-07
 -1        66-1.04494E+07-9.63518E+05-4.52863E+04-3.18677E+06 1.52286E-08-5.40058E-08
 -1        67-9.36970E+06-2.08382E+06-1.00097E+05-4.68416E+06-3.01770E-08-7.61702E-08
 -1        68-1.04302E+07-9.24165E+05-1.83423E+05-3.18630E+06-5.93209E-08-1.57306E-08
 -1        69-9.58217E+06-2.19597E+06-4.94038E+05-4.31163E+06-1.71513E-08-1.10886E-07
 -1        70-1.01599E+07-9.16428E+05-8.12577E+05-3.50585E+06 1.99270E-08-9.37143E-08
 -1        86-1.36177E+06-1.44864E+07-2.53535E+06-2.78338E+06-2.59715E-07 4.35830E-08
 -1        87 2.11423E+06 5.52044E+06 2.10956E+06 5.26692E+06-4.25345E-07-1.17601E-07
 -1        88-3.84663E+05-2.07977E+06 1.95947E+05-2.41538E+06-4.18519E-07-1.29021E-08
 -1        89 2.83420E+06 5.26706E+06 2.15931E+06 5.43389E+06-5.15698E-07-1.47626E-07
 -1        90-2.00177E+06-1.42990E+07-2.74316E+06-2.97377E+06-1.31749E-07 1.23997E-07
 -1       121-2.04926E+03-1.57887E+06-5.47984E+02 1.11009E+03 1.49161E-09 3.90719E-09
 -1       122-1.30774E+03-1.57400E+06 7.77656E+02-4.48307E+03-5.53661E-09-1.32422E-09
 -1       123-2.06891E+03-1.57901E+06 2.69662E+02 3.31518E+03 4.22392E-09 4.51109E-10
 -1       124 3.46095E+02-1.57355E+06 2.98206E+03-9.37524E+03-1.04856E-08 1.21363E-08
 -1       125-2.88536E+03-1.57991E+06 3.50699E+03 5.95604E+03 6.65932E-09-2.98387E-08
 -1       191-8.26788E+01 3.86167E+05 8.24817E+00 7.15280E-01-5.57332E-10 9.81709E-09
 -1       192-7.94324E+01 3.86150E+05 2.11770E+01-4.39089E+00-7.91879E-10 1.41754E-08
 -1       193-8.52049E+01 3.86166E+05 3.58738E+01 3.86270E+00-1.08630E-09-3.68891E-09
 -1       194-8.25102E+01 3.86153E+05 8.05277E+01-9.96555E+00-3.93566E-10 5.08317E-09
 -1       195-9.00532E+01 3.86164E+05 1.53993E+02 6.49466E+00-1.61497E-09 6.45196E-09
 -1       251-8.99756E+05 1.69549E+04-3.96445E+04-1.46476E+04 2.94136E-10-1.85124E-07
 -1       252-9.15360E+05-1.95916E+04-2.76794E+04 5.05631E+04 1.42109E-13-1.56429E-07
 -1       253-9.08064E+05 2.62110E+03-1.05690E+04-1.11238E+04-1.55808E-09-7.42521E-08
 -1       254-9.02091E+05-3.11658E+03-5.03417E+03 3.69407E+04-2.46791E-09-8.13167E-08
 -1       255-9.12460E+05 1.11087E+02-3.55598E+03-1.02756E+03 1.11413E-10 7.71976E-08
 -1       256-8.96414E+05-3.09610E+02 9.53957E+02 1.35740E+04 3.58114E-09 3.39948E-07
 -1       257-9.13282E+05-5.25974E+02-1.38513E+03 1.22331E+04-5.25233E-10 1.19634E-07
 -1       258-8.98727E+05 8.28693E+02 2.59215E+03-1.15674E+04-1.65452E-08 1.11279E-07
 -1       259-9.10352E+05-8.68105E+02 1.30630E+03 2.41108E+04 3.62206E-09 4.46412E-08
 -1       260-9.04825E+05 2.77764E+03 5.40524E+03-2.99199E+04-9.56436E-09-1.48540E-07
 -1       261-9.07793E+05-2.00371E+03 8.38511E+03 3.05997E+04 1.72822E-08 2.67833E-07
 -1       262-9.03569E+05 1.13485E+04 2.08421E+04-3.53357E+04 1.75599E-08 2.39023E-07
 -1       263-9.11855E+05-9.21470E+03 3.30169E+04 2.95351E+04 6.07992E-09 1.75294E-07
 -1       264-8.73984E+05 6.49016E+04 9.14257E+04-2.58972E+04 2.90022E-08 3.19284E-07
 -1       265-9.36893E+05-5.56882E+04 1.27297E+05 2.11503E+04 2.23998E-08 1.02424E-07
 -1       266-1.73562E+04-8.11657E+03 4.07189E+04-1.92286E+01-2.11003E-10 2.24375E-07
 -1       267 2.01204E+04 9.45880E+03 2.87814E+04 2.21878E+01 1.76442E-10-6.67820E-08
 -1       268-2.69812E+03-1.33970E+03 1.06978E+04-2.82701E+00 9.54969E-12-1.07282E-07
 -1       269 3.18567E+03 1.60326E+03 6.95351E+03 3.29315E+00-1.53477E-11 2.40101E-07
 -1       270-4.78173E+02-2.63431E+02 3.35655E+03-4.46899E-01-1.12891E-10-1.22018E-08
 -1       271-1.53215E+06-1.93660E+05-1.15121E+05-5.95208E+05-1.36315E-08-4.90982E-08
 -1       272-1.53674E+06-3.04314E+05-7.26521E+04-6.26828E+05 1.35879E-09-1.33630E-07
 -1       273-1.55620E+06-2.18714E+05-2.77857E+04-5.87234E+05 5.66070E-09 1.12692E-07
 -1       274-1.50891E+06-2.74278E+05-1.46583E+04-6.41475E+05-7.25413E-09 1.97472E-07
 -1       275-1.56174E+06-2.18655E+05-6.84899E+03-5.83578E+05 1.17398E-08 2.20111E-07
 -1       276-1.50292E+06-2.74943E+05-3.00526E+03-6.49558E+05-4.45261E-08-7.62248E-09
 -1       277-1.56447E+06-2.16223E+05-1.87895E+03-5.80925E+05 1.53996E-08-8.33243E-08
 -1       278-1.50048E+06-2.78094E+05-7.87335E+02-6.55520E+05 2.68092E-08-9.51295E-08
 -1       279-1.56623E+06-2.14181E+05-9.23019E+02-5.79039E+05-4.35284E-08-6.65068E-08
 -1       280-1.49927E+06-2.80545E+05-1.13677E+03-6.59507E+05-9.56788E-09 7.90313E-08
 -1       281-1.56717E+06-2.12836E+05-2.09485E+03-5.77948E+05-3.50292E-08 2.79210E-07
 -1       282-1.49964E+06-2.82980E+05-4.88466E+03-6.61227E+05-9.73068E-09 4.49616E-08
 -1       283-1.56662E+06-2.11399E+05-8.68867E+03-5.77777E+05 3.61465E-08-1.91572E-07
 -1       284-1.50735E+06-2.94556E+05-2.36803E+04-6.59066E+05-1.15583E-08-2.57822E-07
 -1       285-1.55951E+06-2.02517E+05-3.69094E+04-5.79612E+05 3.64162E-09 8.78099E-08
 -1       301-3.82917E+03-6.38194E+05 1.67529E+05-1.11747E+06 2.63390E-09 5.79967E-08
 -1       302-4.80660E+03-5.92177E+05 1.00839E+05-1.63149E+06-2.31375E-09 2.42289E-08
 -1       303-1.91425E+04-6.29836E+05 5.72344E+04-1.11444E+06 1.21072E-08-1.08270E-07
 -1       304-2.07571E+04-5.98507E+05 5.80571E+04-1.63083E+06-4.56930E-09 1.31069E-07
 -1       305-2.31464E+04-6.18900E+05 7.19774E+04-1.11755E+06 1.08230E-09 5.68107E-08
 -1       306-3.01132E+07-6.21859E+06-8.60364E+06-5.47989E+05-7.26432E-08-1.92987E-07
 -1       307 2.54043E+07 3.23987E+06 5.51715E+06-1.51545E+07-7.27945E-07-1.07539E-07
 -1       308-7.01208E+06-1.03255E+06-4.64636E+05 5.20537E+06-1.77475E-07 2.27446E-07
 -1       309-3.29067E+06 8.73502E+06 2.27746E+06-2.06472E+07 2.94545E-07 1.29745E-07
 -1       310-1.25007E+07-1.92939E+06-2.01358E+06 5.21455E+06 7.49133E-08-9.58244E-08
 -1       311 3.82091E+07 2.50693E+04 7.24746E+06-8.87901E+06 4.56232E-07 1.14931E-07
 -1       312-3.18749E+07-6.73610E+06-8.51130E+06-4.98097E+06-1.73692E-07-7.99919E-08
 -1       313 4.54341E+07 1.48783E+07 1.06487E+07 2.36765E+07 1.09227E-07 1.27940E-07
 -1       314-1.72751E+07-1.77165E+07-7.51819E+06-1.25266E+07 4.55882E-07-1.18045E-07
 -1       315-1.75133E+06 2.96581E+07 5.66957E+06 1.06202E+07-3.84898E-07 6.34172E-08
 -1       316 1.36883E+06-9.85057E+06-4.49377E+05-2.56345E+06-1.13402E-06-2.54455E-07
 -1       317-1.71379E+07 2.23982E+07 2.23335E+06-8.76484E+06 8.28470E-07-7.79808E-07
 -1       318-1.06431E+06-1.27364E+07-2.02585E+06-4.24058E+06-8.26200E-07 5.08153E-08
 -1       319 7.15038E+06 3.18516E+07 7.01263E+06 1.65565E+07-1.26551E-07 3.36760E-07
 -1       320-2.25526E+07-1.75944E+07-9.82734E+06-1.27870E+07 1.83471E-07-3.02971E-08
 -1       336-7.39671E+02-1.70919E+06-1.39377E+04 9.02506E+03-2.66300E-08-1.02664E-08
 -1       337-5.43030E+03-1.70876E+06-1.81632E+04-2.19107E+04-4.89783E-08-8.31278E-10
 -1       338 2.80975E+02-1.70868E+06-2.85815E+04 1.26335E+04-3.44526E-08 5.39876E-09
 -1       339-3.03060E+04-1.72607E+06-6.45862E+04-2.89752E+04-6.15237E-08 5.97574E-08
 -1       340 1.99811E+04-1.69408E+06-1.01731E+05 1.59586E+04-4.12692E-08 2.87364E-08
 -1       406-5.31798E+01 3.86149E+05 6.40560E+02 3.42053E+00-1.98230E-09-1.81171E-09
 -1       407 1.50457E+02 3.86284E+05 1.36932E+03 2.39316E+01-4.58492E-10-1.09094E-08
 -1       408 6.27827E+02 3.86050E+05 2.73009E+03-2.76448E+01-2.34172E-09 3.86353E-09
 -1       409 2.88824E+03 3.87156E+05 6.15377E+03 2.95251E+02-3.20028E-10-1.81899E-11
 -1       410 8.43181E+03 3.85263E+05 1.25594E+04-2.84594E+02-2.90856E-09 4.44015E-09
 -1       521-3.16423E+07-7.66957E+06-1.00440E+07-1.56851E+05-1.48895E-07-1.83587E-07
 -1       522 2.62472E+07 4.25104E+06 5.61979E+06-1.86470E+07-4.62285E-07-2.16969E-07
 -1       523-7.58979E+06-1.34351E+06-4.56471E+05 5.65045E+06 1.03901E-07-2.68294E-07
 -1       524-6.78966E+06 1.17746E+07 2.46141E+06-2.36945E+07 1.08857E-06-3.73973E-07
 -1       525-1.32992E+07-2.55773E+06-2.21209E+06 5.66155E+06 6.07397E-07-2.55357E-07
 -1       526 4.16710E+07-6.26725E+04 7.60187E+06-1.15235E+07-4.47617E-08 1.70345E-07
 -1       527-3.37028E+07-8.42515E+06-9.80361E+06-4.84093E+06 1.81608E-07 4.42422E-07
 -1       528 4.95800E+07 1.65565E+07 1.10996E+07 2.69005E+07 1.26893E-07-3.21568E-07
 -1       529-1.82125E+07-1.99078E+07-8.61354E+06-1.25535E+07 1.14320E-07-1.84984E-07
 -1       530-4.23224E+06 3.44178E+07 5.99512E+06 1.00943E+07-7.48696E-08 6.97095E-07
 -1       531 1.36455E+06-1.09210E+07-4.22820E+05-2.51746E+06-8.44622E-07 4.44823E-07
 -1       532-1.96686E+07 2.44037E+07 2.43847E+06-1.30314E+07 4.93892E-07-8.97257E-07
 -1       533-1.10965E+06-1.38794E+07-2.15475E+06-4.05533E+06-2.62982E-07-9.97912E-07
 -1       534 5.13391E+06 3.69335E+07 7.29297E+06 1.71179E+07 1.12341E-08 7.41566E-07
 -1       535-2.37218E+07-1.99683E+07-1.12592E+07-1.28497E+07 1.12341E-07 4.52565E-07
 -1       536-4.65747E+05-5.67015E+04-2.72515E+04-2.73917E+04-5.55283E-09 3.83825E-08
 -1       537 2.75228E+05 4.89180E+04 1.09878E+05 5.03270E+04-1.18480E-07 7.27737E-08
 -1       538-1.31426E+05 8.16090E+03 8.54907E+03-2.37900E+04 4.46448E-08 6.47842E-08
 -1       539 6.00998E+04-9.68146E+03 3.60505E+04 5.16352E+04 1.72276E-07 6.70996E-08
 -1       540-2.52098E+05 3.28846E+03-2.48968E+04-2.88617E+04 3.94130E-09 5.24858E-08
 -1       541 4.72307E+05 1.17072E+04 1.16198E+05 4.44585E+04-3.37220E-08 7.24785E-08
 -1       542-5.40572E+05-1.60397E+04-8.55301E+04-1.63493E+04 3.57913E-08 2.59934E-09
 -1       543 7.20962E+05 2.67799E+04 1.66604E+05-4.82912E+03 2.09021E-08-5.82304E-09
 -1       544-4.98931E+05-1.34154E+04-7.80290E+04 2.02281E+04-3.89495E-08-3.30715E-08
 -1       545 3.55998E+05 2.26665E+03 8.92864E+04-4.65690E+04 1.10876E-08-4.03734E-08
 -1       546-1.78272E+05 1.08561E+04-1.42224E+04 2.52869E+04 3.37668E-08-4.82633E-08
 -1       547 4.38581E+04-1.65662E+04 2.19918E+04-5.17350E+04-1.28213E-07-9.24022E-08
 -1       548-1.89128E+05 7.59687E+03-2.14288E+04 2.56038E+04-9.86934E-08-8.06879E-08
 -1       549 3.79612E+05 2.31439E+04 8.67449E+04-4.63493E+04-7.48987E-08-7.04788E-08
 -1       550-5.11574E+05-3.11360E+04-1.07776E+05 1.96849E+04 5.88216E-10-1.82163E-08
 -1       551 4.11129E+04-7.55180E+05-1.50149E+04-1.24764E+06-1.02984E-07-6.92671E-09
 -1       552 9.35590E+04-8.00001E+05 1.04259E+04-1.77905E+06-7.14499E-08 5.49771E-08
 -1       553 7.18814E+04-7.96384E+05 3.23416E+04-1.24100E+06-1.18365E-07 3.73693E-08
 -1       554 1.32208E+05-8.15772E+05 8.13642E+04-1.78099E+06-7.66013E-08 1.37406E-08
 -1       555 1.01587E+05-8.19937E+05 1.48441E+05-1.24085E+06-1.26602E-07-1.24837E-08
 -1       556 2.12102E+05-3.83326E+05 2.58978E+04-4.09219E+05-2.27301E-08-3.60014E-08
 -1       557 3.42093E+05-4.87132E+05 1.62108E+04-5.28916E+05 4.36557E-11 8.12361E-09
 -1       558 1.93999E+05-3.76212E+05 2.35770E+03-4.13562E+05-1.62981E-08-7.43603E-09
 -1       559 3.17217E+05-4.87276E+05 2.45098E+03-5.49274E+05 2.20025E-08-2.14568E-08
 -1       560 1.78777E+05-3.66665E+05-1.50240E+03-4.24525E+05 1.16997E-08-3.65253E-09
 -1       561 2.98089E+05-4.79630E+05 1.27140E+02-5.62336E+05 4.58385E-09 1.87974E-08
 -1       562 1.66723E+05-3.59175E+05-1.33618E+03-4.33250E+05 1.09139E-09-5.51881E-09
 -1       563 2.83767E+05-4.73390E+05-4.62952E+01-5.71704E+05-3.74712E-09-5.43969E-09
 -1       564 1.58100E+05-3.53801E+05-6.19295E+02-4.39358E+05 6.81030E-09-1.96360E-09
 -1       565 2.74233E+05-4.69241E+05 8.14692E-01-5.77804E+05 6.02449E-09 1.30312E-08
 -1       566 1.53030E+05-3.50593E+05-3.03755E+02-4.42902E+05-5.82804E-09-1.99543E-08
 -1       567 2.69544E+05-4.67209E+05-4.44658E+02-5.80656E+05 2.42217E-08 1.31840E-08
 -1       568 1.51608E+05-3.49720E+05-1.28520E+03-4.43990E+05-9.95897E-10 1.33878E-09
 -1       569 2.68248E+05-4.67203E+05-3.21981E+03-5.79306E+05-7.91806E-09 3.16650E-08
 -1       570 1.54961E+05-3.53025E+05-6.92699E+03-4.42930E+05 2.56114E-09 1.11486E-08
 -1       571 2.91567E+05 1.04197E+04 1.48484E+04-9.50388E+04-7.53789E-09 7.23458E-09
 -1       572 2.93718E+05 3.93552E+03 7.27690E+03-1.04273E+05-1.33487E-08-2.32649E-09
 -1       573 2.92423E+05 1.24525E+03 3.23341E+03-9.48654E+04-5.59248E-09 8.43465E-09
 -1       574 2.92634E+05 7.32345E+02 1.62155E+03-1.04494E+05 3.29237E-10-1.24146E-08
 -1       575 2.92517E+05 4.54272E+02 7.65387E+02-9.48416E+04 4.69029E-09-8.20364E-09
 -1       576 2.92501E+05 4.66104E+02 3.91998E+02-1.04523E+05 8.80914E-09-7.32598E-09
 -1       577 2.92558E+05 3.95711E+02 1.95889E+02-9.48384E+04-7.46604E-09 1.03937E-08
 -1       578 2.92533E+05 4.27282E+02 1.13628E+02-1.04527E+05-2.81493E-08 1.73841E-08
 -1       579 2.92632E+05 3.58165E+02 7.87764E+01-9.48380E+04-5.91172E-10 2.52248E-08
 -1       580 2.92636E+05 3.75521E+02 9.26089E+01-1.04523E+05-4.33738E-09 3.75439E-09
 -1       581 2.92747E+05 2.99085E+02 1.40943E+02-9.48440E+04 1.16888E-08-6.11089E-09
 -1       582 2.92813E+05 3.38793E+02 2.87218E+02-1.04461E+05 7.65976E-09-6.14182E-09
 -1       583 2.92887E+05 3.44907E+02 5.51883E+02-9.49008E+04-9.49512E-10 8.36849E-09
 -1       584 2.93195E+05 7.96278E+02 1.24890E+03-1.03982E+05 2.63753E-09 1.46495E-08
 -1       585 2.92909E+05 1.84901E+03 2.52949E+03-9.53216E+04-3.42152E-09-6.07542E-10
 -1       586-3.63778E+03 1.16437E+05-3.21112E+03-2.45722E+05-9.52468E-09-1.28236E-08
 -1       587-1.41365E+03 1.16148E+05 6.54865E+02-2.70437E+05-9.74433E-09-3.18605E-08
 -1       588 3.94033E+02 1.15973E+05 4.76478E+03-2.45588E+05-4.46380E-09 5.93627E-09
 -1       589 5.15318E+03 1.18465E+05 1.24752E+04-2.70209E+05-6.42831E-09 1.27256E-08
 -1       590 1.68342E+04 1.14605E+05 2.62169E+04-2.46013E+05-1.78215E-09-6.61566E-09
 -1       591-7.41647E+04-1.56591E+04-2.26461E+04-3.13679E+04-5.11955E-09-9.87529E-09
 -1       592-7.83783E+04-1.91324E+04-1.22670E+04-3.48934E+04 5.21297E-09-1.90732E-08
 -1       593-7.64279E+04-1.40176E+04-5.10609E+03-3.30301E+04-1.61451E-09-6.21208E-09
 -1       594-7.52532E+04-1.58076E+04-2.54652E+03-3.50095E+04-2.36057E-09-4.72951E-09
 -1       595-7.66004E+04-1.40123E+04-1.16903E+03-3.31056E+04-1.26150E-09 1.35983E-08
 -1       596-7.50392E+04-1.56555E+04-5.93910E+02-3.49838E+04 2.28331E-09 1.03998E-08
 -1       597-7.66220E+04-1.40278E+04-3.22627E+02-3.31085E+04 5.33288E-09 5.45680E-09
 -1       598-7.50180E+04-1.56495E+04-2.57928E+02-3.49767E+04-5.50790E-09-1.80239E-08
 -1       599-7.66208E+04-1.40284E+04-3.27693E+02-3.31081E+04 5.18980E-10 2.35616E-09
 -1       600-7.50391E+04-1.56560E+04-6.07330E+02-3.49817E+04 3.53418E-09 7.88941E-09
 -1       601-7.65963E+04-1.40138E+04-1.19738E+03-3.31047E+04 8.48013E-09 2.25077E-09
 -1       602-7.52583E+04-1.58105E+04-2.60918E+03-3.50041E+04 7.32871E-09-2.17424E-08
 -1       603-7.64169E+04-1.40221E+04-5.23227E+03-3.30282E+04 3.79259E-09-6.31235E-09
 -1       604-7.84789E+04-1.91972E+04-1.25691E+04-3.48596E+04 5.16462E-09-7.87168E-10
 -1       605-7.40774E+04-1.57225E+04-2.32041E+04-3.13451E+04 3.42436E-09 1.07675E-08
 -1       606 2.63999E+04-1.43701E+04-2.57613E+04 2.36661E+04 7.47696E-09-3.82079E-09
 -1       607 2.19982E+04-4.69326E+03-1.28291E+04 2.65966E+04-4.11092E-10 1.31968E-09
 -1       608 2.45075E+04-8.46561E+02-5.74307E+03 2.35004E+04 4.24734E-09-9.60449E-09
 -1       609 2.40269E+04-2.90341E+02-2.90127E+03 2.68079E+04 1.71531E-08 2.69893E-09
 -1       610 2.42940E+04-4.14093E+01-1.38416E+03 2.34807E+04 1.61444E-08 7.52902E-09
 -1       611 2.42188E+04-4.20635E+01-6.97871E+02 2.68307E+04 8.35689E-09 2.29950E-08
 -1       612 2.42474E+04-2.80421E+01-3.31658E+02 2.34787E+04 1.18407E-08 1.49209E-08
 -1       613 2.42311E+04-3.83149E+01-1.48482E+02 2.68334E+04 2.06041E-08-1.97176E-08
 -1       614 2.42256E+04-3.47954E+01-3.44506E+01 2.34780E+04 9.73978E-09 1.69723E-08
 -1       615 2.42263E+04-3.70982E+01 6.31163E+01 2.68338E+04-1.04410E-09 7.86849E-09
 -1       616 2.42085E+04-3.18877E+01 1.88452E+02 2.34783E+04 5.68980E-09-2.34400E-09
 -1       617 2.42494E+04 2.80861E+00 4.29638E+02 2.68334E+04 5.36011E-09-2.98041E-09
 -1       618 2.41715E+04 9.17751E+01 8.65889E+02 2.34786E+04 2.51794E-09 2.18488E-08
 -1       619 2.45553E+04 6.72151E+02 1.94434E+03 2.68328E+04-1.00681E-09 2.55714E-08
 -1       620 2.38841E+04 2.14486E+03 3.90805E+03 2.34802E+04-6.70070E-10 1.00476E-08
 -1       621 5.09861E+02 3.01593E+05 3.85619E+03 4.16006E+04 1.06684E-09-1.78588E-08
 -1       622 6.78947E+02 3.02480E+05 3.42782E+03 6.03915E+04 1.18189E-09-2.34159E-08
 -1       623 1.46778E+02 3.01782E+05 4.12519E+03 4.14119E+04 1.24555E-09 1.08839E-08
 -1       624 2.12725E+03 3.03693E+05 8.00265E+03 6.05777E+04 1.42006E-09 6.76118E-09
 -1       625 2.07640E+03 3.00194E+05 1.39866E+04 4.14081E+04 1.61253E-09-8.85166E-10
 -1       626 2.62042E+05 6.14434E+04 5.19577E+03 1.26940E+05 7.28778E-09 7.03585E-09
 -1       627 2.59751E+05 6.28002E+04 2.50379E+03 1.31207E+05 2.65663E-09 1.28748E-08
 -1       628 2.62169E+05 5.90691E+04 1.05896E+03 1.27827E+05-6.13181E-09-8.30164E-09
 -1       629 2.59111E+05 6.21062E+04 5.18240E+02 1.31447E+05-5.15865E-09-6.90619E-09
 -1       630 2.62184E+05 5.89542E+04 2.40467E+02 1.27865E+05 5.92536E-10-1.80808E-08
 -1       631 2.59044E+05 6.20794E+04 1.29410E+02 1.31449E+05 4.37012E-09-1.45326E-08
 -1       632 2.62181E+05 5.89579E+04 8.51481E+01 1.27861E+05 1.98224E-09-2.92912E-08
 -1       633 2.59036E+05 6.20810E+04 9.48627E+01 1.31445E+05 1.87129E-09 1.42904E-09
 -1       634 2.62177E+05 5.89550E+04 1.53302E+02 1.27861E+05-3.73768E-09 3.03248E-09
 -1       635 2.59051E+05 6.20792E+04 3.10204E+02 1.31451E+05-4.75075E-09 1.70212E-09
 -1       636 2.62168E+05 5.89490E+04 6.26464E+02 1.27861E+05 2.12367E-10-2.16382E-08
 -1       637 2.59186E+05 6.21765E+04 1.37748E+03 1.31451E+05 2.27624E-09-1.03964E-08
 -1       638 2.62119E+05 5.92532E+04 2.83019E+03 1.27724E+05 6.43558E-09 1.59071E-09
 -1       639 2.60673E+05 6.42441E+04 6.69641E+03 1.31013E+05 6.65796E-09-1.23973E-08
 -1       640 2.61913E+05 6.54281E+04 1.38962E+04 1.25122E+05 5.07544E-09 1.18193E-08
 -1       656 6.67565E+04-1.70903E+06-1.61147E+05-2.61291E+03-3.41970E-10-1.16415E-10
 -1       657-8.83172E+04-1.78185E+06-1.33509E+05 5.04870E+03 3.61069E-10 7.94489E-09
 -1       658 2.12836E+04-1.72971E+06-8.22354E+04-4.69996E+03 4.78394E-10 1.92656E-08
 -1       659-9.55296E+04-1.78528E+06-1.42988E+05 6.79329E+03-1.64619E-09-6.65426E-09
 -1       660 7.39528E+04-1.70561E+06-1.77443E+05-4.35749E+03-1.97178E-09-4.59568E-09
 -1       661 1.56660E+05 1.63678E+04 1.65818E+04 6.12485E+04-2.97996E-09 1.68111E-08
 -1       662 1.66065E+05 2.86188E+04 1.11750E+04 5.74949E+04 4.41560E-10-1.63039E-08
 -1       663 1.59918E+05 2.16875E+04 3.90828E+03 6.03032E+04-4.16458E-09-7.36759E-09
 -1       664 1.62288E+05 2.23978E+04 2.33802E+03 5.86496E+04 1.70073E-09 6.64872E-09
 -1       665 1.60412E+05 2.24140E+04 9.22339E+02 6.01589E+04-2.66476E-09 6.84290E-09
 -1       666 1.61703E+05 2.15671E+04 5.39980E+02 5.88378E+04 7.16494E-09-1.83774E-08
 -1       667 1.60499E+05 2.24966E+04 2.87108E+02 6.01227E+04-1.85833E-09-3.89081E-09
 -1       668 1.61608E+05 2.15078E+04 2.93212E+02 5.88903E+04-4.18203E-09 1.22384E-08
 -1       669 1.60506E+05 2.24717E+04 3.97526E+02 6.01066E+04-1.82001E-09 2.25894E-08
 -1       670 1.61705E+05 2.17237E+04 8.66128E+02 5.88930E+04-1.47996E-08-1.10771E-08
 -1       671 1.60402E+05 2.22853E+04 1.53805E+03 6.01180E+04-1.87935E-09 9.47176E-09
 -1       672 1.62601E+05 2.32198E+04 3.93521E+03 5.86755E+04 5.77568E-09 4.16372E-09
 -1       673 1.59614E+05 2.10134E+04 6.59484E+03 6.03096E+04 5.43685E-09-1.16233E-08
 -1       674 1.68878E+05 3.38150E+04 1.88599E+04 5.68313E+04 7.81142E-10-3.28982E-08
 -1       675 1.54165E+05 1.19868E+04 2.79947E+04 6.18509E+04-4.54838E-09-2.57842E-08
 -1       676 2.41023E+01-2.95989E+05-1.11264E+03-1.41427E+02 1.40446E-09-6.13553E-09
 -1       677-2.94246E+02-2.96258E+05-2.03632E+03 2.82626E+02 9.02637E-09-9.63780E-11
 -1       678 1.97413E+02-2.95797E+05-3.59970E+03-1.41107E+02-8.48786E-10-1.45890E-09
 -1       679-3.59969E+03-2.98431E+05-8.55140E+03 2.81403E+02 2.52953E-09-1.10064E-08
 -1       680 2.14927E+03-2.93817E+05-1.37819E+04-1.38647E+02-1.68984E-09-4.75751E-10
 -1       771-3.06346E+06-7.47334E+05-1.65288E+05-1.46635E+06-3.50410E-08-2.22935E-08
 -1       772-2.98622E+06-8.36105E+05-8.52035E+04-1.56899E+06-3.64962E-08 7.68341E-09
 -1       773-3.09489E+06-7.22820E+05-4.34623E+04-1.48084E+06-2.20316E-08 7.47968E-09
 -1       774-2.97677E+06-8.17674E+05-1.93845E+04-1.59476E+06 2.98605E-08 1.35697E-09
 -1       775-3.11133E+06-7.11282E+05-1.45181E+04-1.48789E+06-9.25502E-09 1.44064E-09
 -1       776-2.98912E+06-8.14646E+05-5.42595E+03-1.61425E+06-1.80444E-08 3.97995E-09
 -1       777-3.12560E+06-7.00983E+05-6.42074E+03-1.49410E+06-1.36788E-09 5.00586E-09
 -1       778-3.00201E+06-8.11826E+05-1.81354E+03-1.63100E+06 2.21189E-09 8.17818E-09
 -1       779-3.13786E+06-6.91983E+05-3.20942E+03-1.49942E+06-6.66478E-09-5.95901E-09
 -1       780-3.01336E+06-8.09135E+05-5.29111E+02-1.64465E+06-1.49157E-09 3.06682E-09
 -1       781-3.14762E+06-6.84728E+05-1.24171E+03-1.50357E+06-2.71684E-08-1.40244E-09
 -1       782-3.02210E+06-8.06848E+05 4.63317E+02-1.65472E+06-4.16330E-08-1.91130E-09
 -1       783-3.15449E+06-6.79686E+05 7.27119E+02-1.50649E+06-1.06666E-08-9.99989E-09
 -1       784-3.02693E+06-8.04546E+05 2.96763E+03-1.66094E+06-1.70112E-08 9.49512E-09
 -1       785-3.15857E+06-6.76668E+05 5.24420E+03-1.50834E+06-4.44852E-08 1.85355E-09
 -1       786 1.11574E+05-9.43436E+03 2.18270E+04-2.97835E+02 2.64103E-09 7.59792E-09
 -1       787 1.21042E+05 1.09228E+04 1.54417E+04-1.20718E+02 5.97743E-09 2.45323E-08
 -1       788 1.15224E+05-1.47839E+03 5.64679E+03-2.65170E+02 3.75570E-10-1.86787E-09
 -1       789 1.16789E+05 1.71112E+03 3.54441E+03-1.70837E+02-1.42869E-09 2.48037E-08
 -1       790 1.15827E+05-2.30147E+02 1.43405E+03-2.47732E+02-2.68800E-09-2.57671E-09
 -1       791 1.16084E+05 2.65947E+02 8.26312E+02-2.00804E+02-1.13694E-08 5.44581E-09
 -1       792 1.15929E+05-3.42998E+01 3.46222E+02-2.35206E+02-5.15937E-09 1.87013E-08
 -1       793 1.15961E+05 3.42248E+01 1.63976E+02-2.24338E+02-2.64434E-09-2.32210E-09
 -1       794 1.15950E+05 1.42866E+00 2.52749E+01-2.24198E+02 4.19858E-09-1.22275E-08
 -1       795 1.15919E+05-4.14463E+01-1.02445E+02-2.47058E+02-5.23552E-09-1.04862E-08
 -1       796 1.15972E+05 4.13283E+01-2.37532E+02-2.12486E+02 3.89673E-09 2.71214E-09
 -1       797 1.15788E+05-3.07987E+02-6.29591E+02-2.73535E+02 3.05323E-09 1.93515E-08
 -1       798 1.16081E+05 2.67771E+02-1.01622E+03-1.97721E+02 2.56102E-09 7.75805E-09
 -1       799 1.15019E+05-1.97501E+03-2.79040E+03-3.09803E+02 4.79572E-09 2.34584E-09
 -1       800 1.16741E+05 1.70700E+03-3.94737E+03-1.76220E+02-2.10976E-10 4.04225E-09
 -1       801-1.75932E+05-1.01079E+07-1.41087E+06 1.44384E+06 9.28994E-08-6.33336E-08
 -1       802 7.55141E+05 6.13455E+06 2.22837E+06-1.78407E+06 2.58544E-07-3.88391E-08
 -1       803-5.47529E+05-1.44970E+07-1.93001E+06 9.10952E+05 7.57063E-08 1.50139E-08
 -1       804 2.95754E+05 2.54029E+06 1.57452E+06 6.90166E+05-1.21821E-07-1.01857E-07
 -1       805 1.91014E+05-6.52749E+06-2.94995E+05-1.02459E+06-5.06334E-08-7.15308E-08
 -1       806-3.10533E+05-5.97253E+04-2.26724E+04-1.22790E+05-3.31147E-09 1.90266E-09
 -1       807-3.12334E+05-5.60068E+04-1.11387E+04-1.28271E+05 9.98261E-09 1.10917E-08
 -1       808-3.11155E+05-5.15554E+04-4.72544E+03-1.26654E+05-2.81761E-09 2.40386E-08
 -1       809-3.09994E+05-5.28756E+04-2.31066E+03-1.28543E+05-1.11454E-08-1.30776E-08
 -1       810-3.11248E+05-5.12711E+04-1.05919E+03-1.26825E+05 1.13191E-08-1.12050E-09
 -1       811-3.09813E+05-5.27496E+04-5.26897E+02-1.28508E+05 1.57597E-08 2.07519E-08
 -1       812-3.11262E+05-5.12956E+04-2.66863E+02-1.26824E+05 3.69619E-09 7.43512E-10
 -1       813-3.09788E+05-5.27517E+04-1.74112E+02-1.28489E+05-3.81078E-09-2.58037E-08
 -1       814-3.11255E+05-5.13052E+04-1.73616E+02-1.26820E+05 7.27323E-09-9.97625E-09
 -1       815-3.09792E+05-5.27538E+04-2.80776E+02-1.28482E+05 1.87415E-08-1.38998E-08
 -1       816-3.11234E+05-5.13041E+04-5.32817E+02-1.26817E+05 8.88213E-09 2.25423E-08
 -1       817-3.09882E+05-5.28046E+04-1.14385E+03-1.28470E+05-2.37378E-08 1.51949E-08
 -1       818-3.11165E+05-5.14654E+04-2.33319E+03-1.26741E+05-5.13046E-09-1.02546E-08
 -1       819-3.11158E+05-5.42155E+04-5.48997E+03-1.28170E+05-4.56112E-10 2.68005E-09
 -1       820-3.10727E+05-5.56114E+04-1.11741E+04-1.24968E+05-6.35737E-10 2.10587E-08
 -1       821-3.78012E+05 2.08649E+04-4.85423E+04 2.09156E+03 1.39386E-08-1.65637E-08
 -1       822-3.97826E+05-2.41690E+04-3.41363E+04-4.27765E+03 4.47288E-09-8.93124E-09
 -1       823-3.85526E+05 3.28727E+03-1.25405E+04 3.32985E+03-1.16171E-08 1.64755E-09
 -1       824-3.88773E+05-3.79135E+03-7.85273E+03-5.11722E+03 7.32207E-10-2.10612E-08
 -1       825-3.87071E+05 5.10382E+02-3.28494E+03 2.93124E+03 2.09083E-08-5.70731E-09
 -1       826-3.86404E+05-5.69277E+02-1.75837E+03-2.91241E+03 2.67580E-08-7.30938E-09
 -1       827-3.87872E+05 5.00017E+01-1.17632E+03 1.12491E+03 1.16444E-08-2.70461E-10
 -1       828-3.85747E+05-1.36528E+02-6.10795E+02 1.11295E+03 3.46404E-10 2.75857E-08
 -1       829-3.87716E+05 6.86074E+01-1.16643E+03-1.09416E+03 2.22448E-09 1.95676E-08
 -1       830-3.86742E+05-6.23319E+02-1.89421E+03 4.73233E+03-9.63063E-10-7.22287E-09
 -1       831-3.86898E+05 5.53129E+02-3.36806E+03-2.49448E+03-4.15553E-09 7.54198E-10
 -1       832-3.88854E+05-3.95810E+03-8.15580E+03 5.94056E+03-3.84676E-09-2.48122E-09
 -1       833-3.85620E+05 3.41184E+03-1.30437E+04-2.30243E+03-2.26761E-09-1.69948E-08
 -1       834-3.97899E+05-2.50842E+04-3.53630E+04 4.03459E+03-2.68319E-09 1.25092E-08
 -1       835-3.77837E+05 2.16475E+04-5.04134E+04-5.88446E+02 5.12756E-09-1.03319E-09
 -1       836-1.41459E+03 3.71422E+05 2.29761E+04-1.50019E+04-7.17137E-09 2.93812E-09
 -1       837 4.90207E+03 3.78617E+05 1.94419E+04-3.07068E+04-7.81574E-09-7.07769E-09
 -1       838-5.58093E+02 3.73441E+05 1.98093E+04-1.49331E+04-6.43013E-09-1.68836E-08
 -1       839 1.24703E+04 3.84256E+05 3.74737E+04-3.07599E+04-6.79438E-09 1.29385E-08
 -1       840-3.85260E+03 3.65727E+05 5.97572E+04-1.49549E+04-6.04996E-09-4.26286E-09
 -1       856-5.03297E+04 7.98250E+03-2.10356E+04-3.96740E+02 4.17481E-09 1.30613E-08
 -1       857-5.89954E+04-9.37963E+03-1.44807E+04 5.62943E+03 5.68662E-09 2.80579E-09
 -1       858-5.37617E+04 1.11949E+03-5.45817E+03-4.20406E+02 5.02376E-09 5.19208E-09
 -1       859-5.50568E+04-1.31748E+03-3.29365E+03 5.66453E+03-2.32205E-10 1.94650E-08
 -1       860-5.42744E+04 1.56809E+02-1.38018E+03-4.31561E+02 2.85979E-10 5.97458E-09
 -1       861-5.44670E+04-1.87601E+02-7.58868E+02 5.67971E+03 4.65744E-09-3.09478E-08
 -1       862-5.43547E+04 2.12427E+01-3.14651E+02-4.35561E+02-3.39551E-09-3.41970E-10
 -1       863-5.43686E+04-2.19317E+01-1.12802E+02 5.68205E+03-4.05470E-09-9.70836E-09
 -1       864-5.43734E+04-5.08871E+00 5.10436E+01-4.33899E+02-4.66083E-09-1.51159E-08
 -1       865-5.43120E+04 6.09496E+01 2.63002E+02 5.67249E+03-5.07434E-09-2.76495E-09
 -1       866-5.44090E+04-6.16210E+01 5.27945E+02-4.26011E+02-4.29071E-09 1.73154E-09
 -1       867-5.40643E+04 5.08850E+02 1.29810E+03 5.65110E+03 3.03010E-09-4.08636E-09
 -1       868-5.46162E+04-4.44810E+02 2.15678E+03-4.12499E+02-2.06205E-09 3.21063E-09
 -1       869-5.24837E+04 3.70230E+03 5.74220E+03 5.61590E+03-2.04807E-10 1.26076E-08
 -1       870-5.59819E+04-3.16820E+03 8.33338E+03-3.90701E+02-3.06500E-10-2.84490E-09
 -1       871-5.53224E+03-2.15979E+04-1.95792E+04 1.31125E+05-5.27507E-09 2.17451E-08
 -1       872-1.97697E+03-2.61542E+04-8.20346E+03 1.70023E+05-1.11077E-08 2.17988E-08
 -1       873 4.17545E+02-2.39484E+04 5.79501E+02 1.30836E+05-5.76756E-09 2.20982E-08
 -1       874 3.32777E+03-2.15366E+04 9.79342E+03 1.70052E+05-1.19780E-08 3.03035E-08
 -1       875 6.87123E+03-2.62819E+04 2.21034E+04 1.31076E+05-5.86806E-09 2.93403E-09
 -1       876 2.94455E+05 4.95893E+04 1.51122E+04 1.18120E+05 4.78815E-09-6.77301E-09
 -1       877 2.95460E+05 5.27662E+04 8.07050E+03 1.22449E+05 1.36406E-08 6.65750E-10
 -1       878 2.95869E+05 4.79152E+04 3.38115E+03 1.19358E+05-1.35287E-09-4.93856E-10
 -1       879 2.93406E+05 5.07159E+04 1.68471E+03 1.22551E+05 9.75888E-09-9.50786E-09
 -1       880 2.95970E+05 4.78979E+04 7.84739E+02 1.19409E+05-2.22622E-09-1.03335E-08
 -1       881 2.93270E+05 5.06282E+04 4.19127E+02 1.22528E+05-7.78027E-09-2.59132E-09
 -1       882 2.95979E+05 4.79112E+04 2.68250E+02 1.19410E+05-1.91699E-09 6.76282E-09
 -1       883 2.93260E+05 5.06237E+04 2.88566E+02 1.22520E+05 1.42646E-08 6.28083E-09
 -1       884 2.95972E+05 4.79084E+04 4.59213E+02 1.19411E+05 1.39835E-11-1.69015E-08
 -1       885 2.93297E+05 5.06300E+04 9.23379E+02 1.22531E+05-1.78218E-08-1.49737E-08
 -1       886 2.95937E+05 4.78815E+04 1.86108E+03 1.19407E+05-8.31275E-09 7.42352E-09
 -1       887 2.93624E+05 5.08445E+04 4.06530E+03 1.22578E+05 9.08102E-09 6.86668E-11
 -1       888 2.95680E+05 4.79267E+04 8.19170E+03 1.19277E+05-4.10276E-09-1.87151E-08
 -1       889 2.98500E+05 5.59163E+04 1.95684E+04 1.22429E+05 1.94332E-09 3.60433E-09
 -1       890 2.92336E+05 5.18985E+04 3.66512E+04 1.16160E+05-3.08864E-09-1.42263E-08
 -1       891-8.80130E+01-1.63021E+05-2.00237E+03 2.70768E+04-2.00453E-09 3.80328E-09
 -1       892-1.73327E+02-1.63551E+05-2.14946E+03 4.11213E+04 1.43859E-09 5.16320E-09
 -1       893 4.56121E+01-1.63086E+05-3.04219E+03 2.70842E+04-6.93262E-10 1.99270E-09
 -1       894-1.51015E+03-1.64700E+05-6.29538E+03 4.09691E+04 4.00178E-09 1.85664E-08
 -1       895-1.19953E+03-1.61774E+05-1.10857E+04 2.72310E+04 1.26715E-09-1.10658E-08
 -1       956-3.78349E+05-5.45733E+03-1.34660E+04 3.10568E+04 6.46287E-09-5.74187E-09
 -1       957-3.80991E+05-1.92703E+03-6.91187E+03 3.73217E+04-7.05768E-09 1.09953E-08
 -1       958-3.79560E+05-2.43313E+02-3.11471E+03 3.08889E+04-8.42283E-09-4.63842E-11
 -1       959-3.79756E+05-1.38952E+02-1.59042E+03 3.75178E+04 6.47788E-09-2.69556E-08
 -1       960-3.79678E+05-4.69266E+01-7.75580E+02 3.08716E+04 9.78798E-09-2.11730E-09
 -1       961-3.79676E+05-6.58037E+01-4.11241E+02 3.75383E+04 1.22582E-08-9.35643E-10
 -1       962-3.79706E+05-4.81436E+01-2.35518E+02 3.08687E+04 1.09685E-09-3.44608E-09
 -1       963-3.79676E+05-6.16361E+01-1.89203E+02 3.75419E+04 4.35784E-09-1.24032E-09
 -1       964-3.79711E+05-4.48410E+01-2.30265E+02 3.08679E+04-7.27439E-10-1.44121E-08
 -1       965-3.79688E+05-5.87723E+01-3.98412E+02 3.75412E+04-5.60703E-10-1.03803E-08
 -1       966-3.79695E+05-3.71077E+01-7.48706E+02 3.08695E+04 5.97765E-09-3.25963E-09
 -1       967-3.79778E+05-1.22704E+02-1.53561E+03 3.75266E+04 7.81256E-10-5.97515E-09
 -1       968-3.79590E+05-2.20420E+02-3.00622E+03 3.08823E+04 1.68257E-10 9.02673E-10
 -1       969-3.80982E+05-1.84364E+03-6.67369E+03 3.73765E+04-1.95905E-09 1.33645E-09
 -1       970-3.78429E+05-5.25084E+03-1.30008E+04 3.10107E+04-3.07591E-09 1.52977E-09
 -1       971-3.46041E+05-1.72751E+03-9.30464E+03 1.53634E+04 5.47334E-09-4.68221E-09
 -1       972-3.48280E+05-1.27251E+03-5.06722E+03 2.12423E+04 1.81899E-10-1.79675E-08
 -1       973-3.47077E+05-6.30427E+01-2.26967E+03 1.52426E+04-4.89308E-10-7.62725E-09
 -1       974-3.47212E+05-8.25331E+01-1.17655E+03 2.13792E+04-3.91628E-09 1.28043E-08
 -1       975-3.47159E+05-1.82190E+01-5.88633E+02 1.52303E+04-5.37648E-09 1.03674E-08
 -1       976-3.47150E+05-3.27419E+01-3.40552E+02 2.13949E+04-8.01720E-10-3.35729E-09
 -1       977-3.47176E+05-1.74855E+01-2.48862E+02 1.52269E+04 1.58934E-10-1.42536E-08
 -1       978-3.47156E+05-2.65288E+01-2.93537E+02 2.13998E+04-3.74473E-09 2.68232E-08
 -1       979-3.47175E+05-8.99750E+00-4.73607E+02 1.52254E+04-1.49345E-09 1.81823E-08
 -1       980-3.47191E+05-2.34651E+01-9.15721E+02 2.14008E+04-6.63800E-09 4.70391E-09
 -1       981-3.47146E+05 1.38987E+01-1.77419E+03 1.52259E+04 2.72848E-09-3.55999E-09
 -1       982-3.47435E+05-1.54544E+02-3.66757E+03 2.13942E+04 4.60841E-09-3.60657E-08
 -1       983-3.46923E+05-9.96846E+01-7.12630E+03 1.52319E+04-1.39785E-08-3.92743E-09
 -1       984-3.50862E+05-3.87637E+03-1.59592E+04 2.13087E+04-2.88046E-08 2.66657E-08
 -1       985-3.43696E+05-5.31423E+03-2.93059E+04 1.53029E+04-1.87092E-08 2.38106E-09
 -3
    1PSTEP                        43          22           1          
  100CL  122 6.63134E-01         409                     0   22           1
 -4  DISP        4    1
 -5  D1          1    2    1    0
 -5  D2          1    2    2    0
 -5  D3          1    2    3    0
 -5  ALL         1    2    0    0    1ALL
 -1         1 2.70820E-03 0.00000E+00 0.00000E+00
 -1         2 1.37704E-03 7.27064E-28 5.29396E-23
 -1         3 3.43268E-04-5.61836E-28 0.00000E+00
 -1         5 1.76602E-04-1.96273E-27 8.27181E-25
 -1         8 2.69702E-03-4.11846E-07 0.00000E+00
 -1         9 2.69040E-03-1.81614E-04 0.00000E+00
 -1        10 3.11217E-04-3.42856E-06 0.00000E+00
 -1        12 1.78490E-04 8.08829E-07 1.65436E-24
 -1        15 2.68417E-03-4.36558E-07 0.00000E+00
 -1        16 2.75303E-03-1.83383E-04 0.00000E+00
 -1        17 2.11700E-04-7.81769E-06 0.00000E+00
 -1        18 1.82560E-04 3.49663E-05 0.00000E+00
 -1        19 1.84158E-04 1.61116E-06 0.00000E+00
 -1        20 1.84295E-04-1.04300E-05 0.00000E+00
 -1        21 1.83396E-04-2.66103E-05 3.30872E-24
 -1        24 3.06455E-05-1.20536E-05 0.00000E+00
 -1        25 1.93626E-04 3.51906E-05 0.00000E+00
 -1        26 1.94236E-04 2.23135E-06 0.00000E+00
 -1        27 1.92044E-04-1.39995E-05 0.00000E+00
 -1        28 1.91738E-04-2.72329E-05 0.00000E+00
 -1        32 0.00000E+00 0.00000E+00 0.00000E+00
 -1        33 2.03366E-04 2.98733E-06 0.00000E+00
 -1        34 2.01240E-04-1.40566E-05 0.00000E+00
 -1        35 1.99304E-04-2.75761E-05 0.00000E+00
 -1        51 2.70745E-03-8.58745E-08 0.00000E+00
 -1        52 2.70608E-03-1.53466E-07 0.00000E+00
 -1        53 2.70422E-03-2.17637E-07 0.00000E+00
 -1        54 2.70200E-03-2.80622E-07 0.00000E+00
 -1        55 2.69955E-03-3.44178E-07 8.27181E-25
 -1        56 2.70096E-03 7.40373E-06 0.00000E+00
 -1        57 2.68718E-03 3.09651E-05 5.29396E-23
 -1        58 2.66893E-03 6.55539E-05-1.05879E-22
 -1        59 2.64862E-03 1.04977E-04 5.29396E-23
 -1        60 2.62923E-03 1.42216E-04 0.00000E+00
 -1        61 2.61355E-03 1.70427E-04-5.29396E-23
 -1        62 2.60357E-03 1.84382E-04 1.05879E-22
 -1        63 2.60053E-03 1.80123E-04 0.00000E+00
 -1        64 2.60431E-03 1.57026E-04 0.00000E+00
 -1        65 2.61415E-03 1.16238E-04 0.00000E+00
 -1        66 2.62832E-03 6.22434E-05 0.00000E+00
 -1        67 2.64483E-03 8.10719E-07 0.00000E+00
 -1        68 2.66142E-03-6.08597E-05 0.00000E+00
 -1        69 2.67583E-03-1.15538E-04 5.29396E-23
 -1        70 2.68603E-03-1.57344E-04 1.05879E-22
 -1        86 1.45960E-03-5.79832E-06 5.29396E-23
 -1        87 1.69874E-03-3.62013E-05-7.94093E-23
 -1        88 2.02026E-03-8.83638E-05-2.64698E-23
 -1        89 2.34595E-03-1.41909E-04-1.32349E-23
 -1        90 2.59521E-03-1.74668E-04 0.00000E+00
 -1       121 3.42368E-04-5.53584E-07 0.00000E+00
 -1       122 3.39671E-04-1.11028E-06 0.00000E+00
 -1       123 3.35188E-04-1.67313E-06 0.00000E+00
 -1       124 3.28934E-04-2.24521E-06 0.00000E+00
 -1       125 3.20934E-04-2.82918E-06 1.32349E-23
 -1       191 1.76654E-04 1.34871E-07-1.65436E-24
 -1       192 1.76811E-04 2.69731E-07-1.24077E-24
 -1       193 1.77074E-04 4.04569E-07 8.27181E-25
 -1       194 1.77441E-04 5.39374E-07 4.13590E-25
 -1       195 1.77913E-04 6.74132E-07 0.00000E+00
 -1       251 2.69671E-03 1.78333E-06 6.61744E-24
 -1       252 2.69640E-03 3.99322E-06 0.00000E+00
 -1       253 2.69608E-03 5.22565E-06 6.61744E-24
 -1       254 2.69577E-03 4.50088E-06 3.30872E-24
 -1       255 2.69545E-03 1.14267E-06 0.00000E+00
 -1       256 2.69512E-03-5.49149E-06 0.00000E+00
 -1       257 2.69476E-03-1.55364E-05-1.32349E-23
 -1       258 2.69435E-03-2.90832E-05-6.61744E-24
 -1       259 2.69391E-03-4.56807E-05 1.32349E-23
 -1       260 2.69342E-03-6.48385E-05 6.61744E-24
 -1       261 2.69290E-03-8.56692E-05 0.00000E+00
 -1       262 2.69236E-03-1.07265E-04 6.61744E-24
 -1       263 2.69183E-03-1.28598E-04 0.00000E+00
 -1       264 2.69132E-03-1.48644E-04 0.00000E+00
 -1       265 2.69085E-03-1.66582E-04 1.32349E-23
 -1       266 2.69488E-03-4.21709E-07 0.00000E+00
 -1       267 2.69273E-03-4.25127E-07 8.27181E-25
 -1       268 2.69059E-03-4.28954E-07 8.27181E-25
 -1       269 2.68845E-03-4.31572E-07 0.00000E+00
 -1       270 2.68631E-03-4.34161E-07 2.06795E-25
 -1       271 2.69610E-03 2.14957E-07 0.00000E+00
 -1       272 2.69609E-03-1.64534E-06 0.00000E+00
 -1       273 2.69696E-03-5.84946E-06 0.00000E+00
 -1       274 2.69863E-03-1.22429E-05 0.00000E+00
 -1       275 2.70104E-03-2.06507E-05 0.00000E+00
 -1       276 2.70412E-03-3.08833E-05 0.00000E+00
 -1       277 2.70779E-03-4.27353E-05 0.00000E+00
 -1       278 2.71196E-03-5.59886E-05 1.32349E-23
 -1       279 2.71655E-03-7.04135E-05 0.00000E+00
 -1       280 2.72148E-03-8.57707E-05 0.00000E+00
 -1       281 2.72666E-03-1.01813E-04 0.00000E+00
 -1       282 2.73199E-03-1.18288E-04 0.00000E+00
 -1       283 2.73738E-03-1.34940E-04 1.32349E-23
 -1       284 2.74274E-03-1.51511E-04-6.61744E-24
 -1       285 2.74799E-03-1.67744E-04-1.32349E-23
 -1       301 2.70178E-03-1.81941E-04-6.61744E-24
 -1       302 2.71156E-03-1.82225E-04 3.30872E-24
 -1       303 2.72065E-03-1.82498E-04 0.00000E+00
 -1       304 2.72997E-03-1.82772E-04 0.00000E+00
 -1       305 2.74046E-03-1.83060E-04-2.64698E-23
 -1       306 2.72817E-03-3.35661E-04-1.05879E-22
 -1       307 2.79206E-03-7.49153E-04-1.05879E-22
 -1       308 2.83883E-03-1.35403E-03 1.05879E-22
 -1       309 2.86272E-03-2.05441E-03 0.00000E+00
 -1       310 2.89398E-03-2.72461E-03 1.05879E-22
 -1       311 2.95340E-03-3.24160E-03 0.00000E+00
 -1       312 3.01135E-03-3.52473E-03 1.05879E-22
 -1       313 3.00710E-03-3.53596E-03 0.00000E+00
 -1       314 2.86687E-03-3.28721E-03-1.05879E-22
 -1       315 2.54968E-03-2.84279E-03 0.00000E+00
 -1       316 2.07372E-03-2.27928E-03 0.00000E+00
 -1       317 1.50474E-03-1.66606E-03-5.29396E-23
 -1       318 9.56914E-04-1.06383E-03 1.05879E-22
 -1       319 5.38156E-04-5.37603E-04 1.05879E-22
 -1       320 2.92291E-04-1.61467E-04 0.00000E+00
 -1       336 2.99597E-04-4.09125E-06 0.00000E+00
 -1       337 2.85896E-04-4.77975E-06-6.61744E-24
 -1       338 2.70177E-04-5.49630E-06 0.00000E+00
 -1       339 2.52515E-04-6.24170E-06 6.61744E-24
 -1       340 2.32991E-04-7.02043E-06 0.00000E+00
 -1       406 1.79173E-04 9.43447E-07-1.65436E-24
 -1       407 1.79960E-04 1.07795E-06 4.13590E-25
 -1       408 1.80852E-04 1.21228E-06-2.48154E-24
 -1       409 1.81849E-04 1.34627E-06-1.03398E-24
 -1       410 1.82952E-04 1.47965E-06-4.13590E-25
 -1       521 2.79141E-03-3.46716E-04-1.05879E-22
 -1       522 2.85353E-03-7.80388E-04 5.29396E-23
 -1       523 2.89389E-03-1.41294E-03 0.00000E+00
 -1       524 2.90861E-03-2.14177E-03 0.00000E+00
 -1       525 2.93201E-03-2.83840E-03 1.05879E-22
 -1       526 2.98789E-03-3.37730E-03-5.29396E-23
 -1       527 3.04540E-03-3.67096E-03 2.11758E-22
 -1       528 3.03887E-03-3.68044E-03-5.29396E-23
 -1       529 2.88671E-03-3.41761E-03 0.00000E+00
 -1       530 2.54572E-03-2.95471E-03-5.29396E-23
 -1       531 2.03488E-03-2.37209E-03 0.00000E+00
 -1       532 1.42633E-03-1.74171E-03 0.00000E+00
 -1       533 8.39590E-04-1.12166E-03 1.05879E-22
 -1       534 3.87689E-04-5.74661E-04 0.00000E+00
 -1       535 1.20702E-04-1.79076E-04 0.00000E+00
 -1       536 2.11017E-04 2.76505E-05 0.00000E+00
 -1       537 2.09098E-04 8.97210E-05-1.65436E-24
 -1       538 2.06024E-04 1.69151E-04-1.65436E-24
 -1       539 2.02300E-04 2.56685E-04 0.00000E+00
 -1       540 1.98959E-04 3.39396E-04 1.65436E-24
 -1       541 1.96882E-04 4.04360E-04 4.13590E-25
 -1       542 1.95997E-04 4.45419E-04 0.00000E+00
 -1       543 1.95864E-04 4.56467E-04 0.00000E+00
 -1       544 1.95634E-04 4.38179E-04-1.65436E-24
 -1       545 1.94507E-04 3.91328E-04-4.13590E-25
 -1       546 1.92269E-04 3.23730E-04 8.27181E-25
 -1       547 1.89110E-04 2.43240E-04-4.13590E-25
 -1       548 1.85980E-04 1.63128E-04 0.00000E+00
 -1       549 1.83814E-04 9.66643E-05 2.06795E-25
 -1       550 1.82761E-04 5.14306E-05 0.00000E+00
 -1       551 1.86452E-04-8.38920E-06 0.00000E+00
 -1       552 1.57964E-04-9.04105E-06 0.00000E+00
 -1       553 1.27180E-04-9.75506E-06 0.00000E+00
 -1       554 9.50595E-05-1.05101E-05 0.00000E+00
 -1       555 6.25629E-05-1.12786E-05 1.32349E-23
 -1       556 2.04026E-04 1.17905E-05 0.00000E+00
 -1       557 1.97820E-04 2.77080E-05 2.64698E-23
 -1       558 1.92948E-04 4.02214E-05-5.29396E-23
 -1       559 1.89276E-04 4.96395E-05 0.00000E+00
 -1       560 1.86677E-04 5.62716E-05 0.00000E+00
 -1       561 1.85022E-04 6.04296E-05 0.00000E+00
 -1       562 1.84187E-04 6.24267E-05 0.00000E+00
 -1       563 1.84048E-04 6.25770E-05 1.32349E-23
 -1       564 1.84483E-04 6.11953E-05 0.00000E+00
 -1       565 1.85373E-04 5.85974E-05 0.00000E+00
 -1       566 1.86598E-04 5.50995E-05 0.00000E+00
 -1       567 1.88040E-04 5.10182E-05 0.00000E+00
 -1       568 1.89582E-04 4.66703E-05-1.65436E-24
 -1       569 1.91104E-04 4.23726E-05 0.00000E+00
 -1       570 1.92491E-04 3.84419E-05 0.00000E+00
 -1       571 1.82656E-04 3.27958E-05 1.65436E-24
 -1       572 1.82755E-04 3.05608E-05 4.13590E-25
 -1       573 1.82855E-04 2.82769E-05-1.65436E-24
 -1       574 1.82954E-04 2.59604E-05 0.00000E+00
 -1       575 1.83054E-04 2.36278E-05 0.00000E+00
 -1       576 1.83154E-04 2.12955E-05 0.00000E+00
 -1       577 1.83254E-04 1.89800E-05 3.30872E-24
 -1       578 1.83354E-04 1.66977E-05 0.00000E+00
 -1       579 1.83454E-04 1.44652E-05 0.00000E+00
 -1       580 1.83554E-04 1.22989E-05 6.61744E-24
 -1       581 1.83654E-04 1.02154E-05 0.00000E+00
 -1       582 1.83754E-04 8.23109E-06 0.00000E+00
 -1       583 1.83855E-04 6.36241E-06 0.00000E+00
 -1       584 1.83956E-04 4.62568E-06-3.30872E-24
 -1       585 1.84057E-04 3.03701E-06 0.00000E+00
 -1       586 1.84364E-04 3.50059E-05-1.65436E-24
 -1       587 1.86127E-04 3.50448E-05 8.27181E-25
 -1       588 1.87893E-04 3.50834E-05 8.27181E-25
 -1       589 1.89703E-04 3.51213E-05 0.00000E+00
 -1       590 1.91600E-04 3.51579E-05 0.00000E+00
 -1       591 1.83305E-04 3.28903E-05 1.03398E-25
 -1       592 1.84053E-04 3.07966E-05 2.06795E-25
 -1       593 1.84804E-04 2.86908E-05 8.27181E-25
 -1       594 1.85559E-04 2.65773E-05 0.00000E+00
 -1       595 1.86314E-04 2.44606E-05-8.27181E-25
 -1       596 1.87069E-04 2.23451E-05-4.13590E-25
 -1       597 1.87821E-04 2.02352E-05 0.00000E+00
 -1       598 1.88570E-04 1.81355E-05-4.13590E-25
 -1       599 1.89314E-04 1.60502E-05 8.27181E-25
 -1       600 1.90050E-04 1.39838E-05-4.13590E-25
 -1       601 1.90778E-04 1.19407E-05-8.27181E-25
 -1       602 1.91496E-04 9.92540E-06-2.06795E-25
 -1       603 1.92201E-04 7.94222E-06 0.00000E+00
 -1       604 1.92894E-04 5.99573E-06 1.29247E-25
 -1       605 1.93571E-04 4.09024E-06 0.00000E+00
 -1       606 1.84171E-04 4.17965E-07 0.00000E+00
 -1       607 1.84180E-04-6.90555E-07 0.00000E+00
 -1       608 1.84189E-04-1.71937E-06-3.30872E-24
 -1       609 1.84197E-04-2.67407E-06 1.65436E-24
 -1       610 1.84205E-04-3.56034E-06 0.00000E+00
 -1       611 1.84214E-04-4.38388E-06 0.00000E+00
 -1       612 1.84222E-04-5.15041E-06 0.00000E+00
 -1       613 1.84230E-04-5.86568E-06 0.00000E+00
 -1       614 1.84238E-04-6.53541E-06 0.00000E+00
 -1       615 1.84246E-04-7.16532E-06 8.27181E-25
 -1       616 1.84255E-04-7.76117E-06 0.00000E+00
 -1       617 1.84263E-04-8.32869E-06 0.00000E+00
 -1       618 1.84271E-04-8.87359E-06-8.27181E-25
 -1       619 1.84279E-04-9.40161E-06 0.00000E+00
 -1       620 1.84287E-04-9.91850E-06 0.00000E+00
 -1       621 1.85546E-04 1.71511E-06 1.65436E-24
 -1       622 1.87096E-04 1.81930E-06 8.27181E-25
 -1       623 1.88775E-04 1.92326E-06-1.65436E-24
 -1       624 1.90546E-04 2.02689E-06-8.27181E-25
 -1       625 1.92378E-04 2.13022E-06 0.00000E+00
 -1       626 1.84717E-04 4.54304E-07 0.00000E+00
 -1       627 1.85255E-04-6.40683E-07 0.00000E+00
 -1       628 1.85772E-04-1.68161E-06-6.61744E-24
 -1       629 1.86273E-04-2.67658E-06 0.00000E+00
 -1       630 1.86759E-04-3.63375E-06 0.00000E+00
 -1       631 1.87235E-04-4.56126E-06 1.65436E-24
 -1       632 1.87702E-04-5.46725E-06 0.00000E+00
 -1       633 1.88164E-04-6.35991E-06-1.65436E-24
 -1       634 1.88625E-04-7.24736E-06-3.30872E-24
 -1       635 1.89086E-04-8.13777E-06 1.65436E-24
 -1       636 1.89552E-04-9.03930E-06 3.30872E-24
 -1       637 1.90024E-04-9.96011E-06 0.00000E+00
 -1       638 1.90507E-04-1.09083E-05-1.65436E-24
 -1       639 1.91003E-04-1.18922E-05 0.00000E+00
 -1       640 1.91515E-04-1.29198E-05 3.30872E-24
 -1       656 1.85038E-04-1.10101E-05 0.00000E+00
 -1       657 1.86200E-04-1.16139E-05 6.61744E-24
 -1       658 1.87642E-04-1.22162E-05 1.32349E-23
 -1       659 1.89219E-04-1.28182E-05 0.00000E+00
 -1       660 1.90747E-04-1.34221E-05 0.00000E+00
 -1       661 1.84573E-04-1.09870E-05 0.00000E+00
 -1       662 1.84889E-04-1.16367E-05 0.00000E+00
 -1       663 1.85237E-04-1.23738E-05 1.65436E-24
 -1       664 1.85616E-04-1.31917E-05 0.00000E+00
 -1       665 1.86023E-04-1.40843E-05 0.00000E+00
 -1       666 1.86456E-04-1.50458E-05 0.00000E+00
 -1       667 1.86913E-04-1.60703E-05 1.65436E-24
 -1       668 1.87391E-04-1.71522E-05 8.27181E-25
 -1       669 1.87888E-04-1.82859E-05 0.00000E+00
 -1       670 1.88403E-04-1.94661E-05 0.00000E+00
 -1       671 1.88933E-04-2.06873E-05 0.00000E+00
 -1       672 1.89476E-04-2.19445E-05 8.27181E-25
 -1       673 1.90031E-04-2.32325E-05 1.65436E-24
 -1       674 1.90594E-04-2.45464E-05 4.13590E-25
 -1       675 1.91165E-04-2.58809E-05-2.06795E-25
 -1       676 1.84791E-04-2.67147E-05 0.00000E+00
 -1       677 1.86186E-04-2.68190E-05 1.65436E-24
 -1       678 1.87578E-04-2.69232E-05 3.30872E-24
 -1       679 1.88969E-04-2.70272E-05 0.00000E+00
 -1       680 1.90355E-04-2.71311E-05 0.00000E+00
 -1       771 1.86868E-05 1.46898E-05 0.00000E+00
 -1       772 8.62566E-06 3.66552E-05 0.00000E+00
 -1       773 3.71386E-07 5.40730E-05 0.00000E+00
 -1       774-6.20042E-06 6.72011E-05 0.00000E+00
 -1       775-1.12115E-05 7.63079E-05 0.00000E+00
 -1       776-1.47884E-05 8.16787E-05 0.00000E+00
 -1       777-1.70575E-05 8.36088E-05 5.29396E-23
 -1       778-1.81479E-05 8.24072E-05-2.64698E-23
 -1       779-1.81878E-05 7.83918E-05 0.00000E+00
 -1       780-1.73076E-05 7.18915E-05 0.00000E+00
 -1       781-1.56368E-05 6.32424E-05-5.29396E-23
 -1       782-1.33063E-05 5.27892E-05 2.64698E-23
 -1       783-1.04463E-05 4.08812E-05 0.00000E+00
 -1       784-7.18803E-06 2.78742E-05 2.64698E-23
 -1       785-3.66188E-06 1.41268E-05-5.29396E-23
 -1       786 1.93659E-04 3.28996E-05 1.03398E-25
 -1       787 1.93697E-04 3.06585E-05 0.00000E+00
 -1       788 1.93734E-04 2.84595E-05 0.00000E+00
 -1       789 1.93772E-04 2.62947E-05 4.13590E-25
 -1       790 1.93810E-04 2.41596E-05-8.27181E-25
 -1       791 1.93849E-04 2.20496E-05 8.27181E-25
 -1       792 1.93887E-04 1.99624E-05 0.00000E+00
 -1       793 1.93925E-04 1.78959E-05 0.00000E+00
 -1       794 1.93964E-04 1.58497E-05-1.65436E-24
 -1       795 1.94002E-04 1.38235E-05 8.27181E-25
 -1       796 1.94041E-04 1.18190E-05 0.00000E+00
 -1       797 1.94080E-04 9.83766E-06 0.00000E+00
 -1       798 1.94118E-04 7.88330E-06 1.65436E-24
 -1       799 1.94157E-04 5.95971E-06 0.00000E+00
 -1       800 1.94196E-04 4.07349E-06 1.65436E-24
 -1       801 1.47427E-04 3.16459E-05 0.00000E+00
 -1       802 7.76515E-06 1.97429E-05 2.64698E-23
 -1       803-1.11281E-04 9.99873E-06 0.00000E+00
 -1       804-9.81404E-05 6.96701E-06 2.64698E-23
 -1       805-3.23126E-05 2.72092E-06 5.29396E-23
 -1       806 1.94368E-04 3.28313E-05 0.00000E+00
 -1       807 1.95097E-04 3.04990E-05 1.65436E-24
 -1       808 1.95813E-04 2.81988E-05 3.30872E-24
 -1       809 1.96515E-04 2.59347E-05 0.00000E+00
 -1       810 1.97202E-04 2.37107E-05 3.30872E-24
 -1       811 1.97872E-04 2.15306E-05-1.65436E-24
 -1       812 1.98525E-04 1.93982E-05 0.00000E+00
 -1       813 1.99158E-04 1.73175E-05 1.65436E-24
 -1       814 1.99771E-04 1.52922E-05-3.30872E-24
 -1       815 2.00362E-04 1.33262E-05-1.65436E-24
 -1       816 2.00929E-04 1.14232E-05 0.00000E+00
 -1       817 2.01471E-04 9.58716E-06 0.00000E+00
 -1       818 2.01987E-04 7.82175E-06-3.30872E-24
 -1       819 2.02475E-04 6.13083E-06-8.27181E-25
 -1       820 2.02935E-04 4.51812E-06 3.30872E-24
 -1       821 1.94107E-04-1.41926E-07 0.00000E+00
 -1       822 1.93967E-04-3.61625E-06 1.65436E-24
 -1       823 1.93825E-04-7.77868E-06 0.00000E+00
 -1       824 1.93681E-04-1.22120E-05 1.65436E-24
 -1       825 1.93538E-04-1.64259E-05 3.30872E-24
 -1       826 1.93396E-04-1.99314E-05 1.65436E-24
 -1       827 1.93258E-04-2.24321E-05 0.00000E+00
 -1       828 1.93122E-04-2.36375E-05 0.00000E+00
 -1       829 1.92987E-04-2.36092E-05 0.00000E+00
 -1       830 1.92851E-04-2.24162E-05-1.65436E-24
 -1       831 1.92714E-04-2.04439E-05 0.00000E+00
 -1       832 1.92576E-04-1.80824E-05-1.65436E-24
 -1       833 1.92439E-04-1.58277E-05 3.30872E-24
 -1       834 1.92304E-04-1.41751E-05-1.65436E-24
 -1       835 1.92170E-04-1.34569E-05 8.27181E-25
 -1       836 1.95968E-04 2.35671E-06 0.00000E+00
 -1       837 1.97577E-04 2.48523E-06 1.65436E-24
 -1       838 1.99091E-04 2.61368E-06 0.00000E+00
 -1       839 2.00541E-04 2.74143E-06 0.00000E+00
 -1       840 2.01956E-04 2.86903E-06 8.27181E-25
 -1       856 1.92028E-04-1.51018E-05-8.27181E-25
 -1       857 1.92009E-04-1.60684E-05 0.00000E+00
 -1       858 1.91991E-04-1.69205E-05 2.06795E-25
 -1       859 1.91972E-04-1.76791E-05 0.00000E+00
 -1       860 1.91953E-04-1.83655E-05 4.13590E-25
 -1       861 1.91934E-04-1.90008E-05 2.06795E-25
 -1       862 1.91915E-04-1.96065E-05 0.00000E+00
 -1       863 1.91895E-04-2.02038E-05 2.06795E-25
 -1       864 1.91876E-04-2.08141E-05 4.13590E-25
 -1       865 1.91857E-04-2.14586E-05 4.13590E-25
 -1       866 1.91838E-04-2.21586E-05 8.27181E-25
 -1       867 1.91818E-04-2.29354E-05 0.00000E+00
 -1       868 1.91799E-04-2.38101E-05 0.00000E+00
 -1       869 1.91779E-04-2.48039E-05 4.13590E-25
 -1       870 1.91759E-04-2.59379E-05 0.00000E+00
 -1       871 1.93435E-04-1.40046E-05-8.27181E-25
 -1       872 1.94974E-04-1.40130E-05 0.00000E+00
 -1       873 1.96592E-04-1.40222E-05 0.00000E+00
 -1       874 1.98222E-04-1.40321E-05 2.32645E-25
 -1       875 1.99794E-04-1.40426E-05-6.20385E-25
 -1       876 1.92584E-04-1.50871E-05 0.00000E+00
 -1       877 1.93103E-04-1.61080E-05 0.00000E+00
 -1       878 1.93600E-04-1.70700E-05 0.00000E+00
 -1       879 1.94078E-04-1.79807E-05 1.65436E-24
 -1       880 1.94539E-04-1.88472E-05 0.00000E+00
 -1       881 1.94987E-04-1.96771E-05-1.65436E-24
 -1       882 1.95424E-04-2.04777E-05-3.30872E-24
 -1       883 1.95853E-04-2.12563E-05 0.00000E+00
 -1       884 1.96276E-04-2.20203E-05 0.00000E+00
 -1       885 1.96696E-04-2.27769E-05 0.00000E+00
 -1       886 1.97117E-04-2.35335E-05 0.00000E+00
 -1       887 1.97540E-04-2.42974E-05 1.65436E-24
 -1       888 1.97968E-04-2.50761E-05 3.30872E-24
 -1       889 1.98404E-04-2.58769E-05 1.65436E-24
 -1       890 1.98850E-04-2.67071E-05 1.65436E-24
 -1       891 1.93141E-04-2.72905E-05 0.00000E+00
 -1       892 1.94521E-04-2.73484E-05-8.27181E-25
 -1       893 1.95852E-04-2.74061E-05 1.65436E-24
 -1       894 1.97109E-04-2.74636E-05-8.27181E-25
 -1       895 1.98268E-04-2.75208E-05 0.00000E+00
 -1       956 2.03235E-04 1.63128E-06 1.65436E-24
 -1       957 2.03102E-04 3.66977E-07-8.27181E-25
 -1       958 2.02969E-04-8.16385E-07 3.30872E-24
 -1       959 2.02836E-04-1.93022E-06 1.65436E-24
 -1       960 2.02702E-04-2.98598E-06 3.30872E-24
 -1       961 2.02569E-04-3.99515E-06 1.65436E-24
 -1       962 2.02436E-04-4.96924E-06 0.00000E+00
 -1       963 2.02303E-04-5.91977E-06 0.00000E+00
 -1       964 2.02169E-04-6.85826E-06 0.00000E+00
 -1       965 2.02036E-04-7.79620E-06-1.65436E-24
 -1       966 2.01903E-04-8.74514E-06 0.00000E+00
 -1       967 2.01770E-04-9.71658E-06 0.00000E+00
 -1       968 2.01637E-04-1.07220E-05 0.00000E+00
 -1       969 2.01504E-04-1.17730E-05 0.00000E+00
 -1       970 2.01371E-04-1.28808E-05 0.00000E+00
 -1       971 2.01120E-04-1.52326E-05 3.30872E-24
 -1       972 2.00999E-04-1.63143E-05 1.65436E-24
 -1       973 2.00877E-04-1.73120E-05 3.30872E-24
 -1       974 2.00755E-04-1.82365E-05 0.00000E+00
 -1       975 2.00633E-04-1.90986E-05-3.30872E-24
 -1       976 2.00512E-04-1.99093E-05 1.65436E-24
 -1       977 2.00390E-04-2.06793E-05 0.00000E+00
 -1       978 2.00268E-04-2.14195E-05 0.00000E+00
 -1       979 2.00147E-04-2.21409E-05 0.00000E+00
 -1       980 2.00025E-04-2.28543E-05-1.65436E-24
 -1       981 1.99904E-04-2.35706E-05 0.00000E+00
 -1       982 1.99782E-04-2.43007E-05 0.00000E+00
 -1       983 1.99661E-04-2.50555E-05 0.00000E+00
 -1       984 1.99540E-04-2.58457E-05 0.00000E+00
 -1       985 1.99420E-04-2.66824E-05-3.30872E-24
 -3
    1PSTEP                        44          22           1          
  100CL  122 6.63134E-01         409                     0   22           1
 -4  STRESS      6    1
 -5  SXX         1    4    1    1
 -5  SYY         1    4    2    2
 -5  SZZ         1    4    3    3
 -5  SXY         1    4    1    2
 -5  SYZ         1    4    2    3
 -5  SZX         1    4    3    1
 -1         1-5.32189E+06-1.63115E+06-1.13316E+06-1.40709E+06-2.76486E-10 5.98957E-08
 -1         2 1.36856E+06 2.01309E+07 4.73420E+06 6.05874E+06 2.45636E-08-4.62314E-08
 -1         3-1.49703E+03-1.57181E+06 4.09447E+02-2.23753E+03-4.82366E-10-2.31521E-08
 -1         5-7.87029E+01 3.86230E+05 9.92139E+00-1.37197E+00-5.08664E-10 2.38288E-10
 -1         8-5.73514E+05-2.05050E+05-6.49475E+04-2.49849E+05 4.09273E-11-1.23182E-07
 -1         9 1.16439E+07 3.51980E+06 2.70944E+06-4.08884E+05-3.00352E-09 5.81611E-08
 -1        10-2.31454E+03-1.63796E+06-3.96345E+03-1.51382E+04-1.39808E-08-3.48643E-08
 -1        12-7.48175E+01 3.86252E+05 3.26409E+02-9.34516E+00-7.84386E-10-3.16504E-09
 -1        15 9.51749E+02 5.23033E+02 3.07650E+03 8.81543E-01-3.21165E-12 8.44434E-07
 -1        16 2.28266E+07-3.13536E+05 3.11213E+06-2.22795E+06 1.49982E-08 3.29921E-07
 -1        17 8.41360E+06 6.27376E+06 2.27391E+06 5.97881E+06 2.15543E-08 4.81959E-09
 -1        18 2.25186E+05 5.42964E+04 2.48054E+04-1.07782E+05 1.29753E-08 9.96170E-09
 -1        19 1.22775E+05 1.41698E+05-9.53382E+02 2.21297E+04 1.80862E-09-3.16868E-09
 -1        20-8.31253E+04-5.75681E+05-1.29240E+05 2.47480E+04-1.33165E-09 1.79007E-08
 -1        21-4.54637E+01-2.96088E+05-9.23185E+02 2.83326E+02 1.46936E-08-3.13103E-08
 -1        24 1.39562E+07 1.20295E+07 3.86678E+06 1.11398E+07-1.66619E-07-5.62868E-08
 -1        25 1.23821E+05 2.81771E+05 1.03325E+05-6.56768E+05 6.72117E-11-1.83554E-09
 -1        26-5.76703E+04 9.20072E+04-2.52672E+04 2.08249E+03-6.00267E-11 4.63257E-09
 -1        27-7.50863E+04-3.10802E+05-1.13507E+05 6.91593E+04 3.84701E-09 1.24379E-08
 -1        28 2.22295E+04-8.54846E+04 1.69088E+04 2.04352E+04-3.20270E-09 4.17283E-09
 -1        32-1.68206E+06-3.19075E+06-1.99375E+05 4.83811E+05-4.34011E-08-7.60724E-09
 -1        33-1.79248E+05 9.33657E+04 3.25101E+04-3.77374E+04-3.01721E-09 1.03516E-08
 -1        34-2.24160E+05-2.51525E+04 6.96939E+02 7.60311E+04-4.92276E-09-7.38191E-09
 -1        35-2.29255E+04-3.39006E+04-1.35107E+03 5.15098E+04-2.85961E-09-1.23158E-08
 -1        51 6.02854E+04-1.74727E+05 1.27595E+05-4.49538E+05-1.01863E-10 3.44182E-07
 -1        52 2.04561E+04-1.52500E+05 6.70090E+04-5.24275E+05 5.79348E-10 2.68665E-08
 -1        53 4.22717E+03-1.67889E+05 3.49879E+04-4.47984E+05 3.09228E-10-3.99450E-09
 -1        54 7.56615E+03-1.63689E+05 2.89365E+04-5.25805E+05-3.78350E-10-2.62058E-07
 -1        55 1.64647E+04-1.70826E+05 3.54172E+04-4.47880E+05 3.49246E-10-1.25630E-07
 -1        56-9.73097E+06-1.31817E+06-8.95243E+05-4.02598E+06 5.93718E-09-2.94240E-07
 -1        57-1.09301E+07-9.49374E+05-5.52224E+05-2.82134E+06 1.68802E-08-2.11374E-07
 -1        58-9.60513E+06-1.75846E+06-1.99725E+05-4.18430E+06-3.35422E-08 1.85762E-07
 -1        59-1.10274E+07-4.53345E+05-1.10461E+05-2.75965E+06-5.61113E-09 2.19583E-07
 -1        60-9.69038E+06-1.76403E+06-5.48837E+04-4.13849E+06-1.90521E-08 7.94462E-08
 -1        61-1.04862E+07-7.37318E+05 5.77138E+03-2.99739E+06 2.91911E-08-2.12356E-07
 -1        62-1.00425E+07-1.54429E+06-6.08678E+04-3.86552E+06-1.90194E-08-1.24193E-07
 -1        63-9.73184E+06-1.34900E+06 3.85579E+04-3.61634E+06-5.19503E-08-5.13319E-08
 -1        64-1.03643E+07-1.20946E+06-5.58134E+04-3.46783E+06-9.63337E-09-1.61654E-07
 -1        65-9.37695E+06-1.87931E+06 3.84396E+03-4.38558E+06-7.46368E-08 6.29886E-08
 -1        66-1.04928E+07-9.47808E+05-4.57076E+04-3.16782E+06 1.19035E-08-4.62023E-09
 -1        67-9.36195E+06-2.11483E+06-9.95875E+04-4.74579E+06-7.01884E-08-7.60429E-08
 -1        68-1.04735E+07-9.08435E+05-1.84260E+05-3.16735E+06-5.11482E-08 1.23880E-07
 -1        69-9.56826E+06-2.21951E+06-4.92838E+05-4.35194E+06 2.13086E-08 7.20611E-08
 -1        70-1.02009E+07-9.14352E+05-8.19198E+05-3.50306E+06-3.24890E-08 3.92320E-08
 -1        86-1.39566E+06-1.47264E+07-2.58960E+06-2.85147E+06-2.50831E-07-2.41009E-07
 -1        87 2.17266E+06 5.68735E+06 2.15455E+06 5.36879E+06-4.38566E-07-2.30597E-07
 -1        88-3.98246E+05-2.05322E+06 2.00913E+05-2.44748E+06-3.96192E-07 8.51333E-09
 -1        89 2.91179E+06 5.42510E+06 2.20600E+06 5.54107E+06-5.35911E-07-1.92675E-07
 -1        90-2.05193E+06-1.45322E+07-2.80050E+06-3.04832E+06-1.42183E-07-2.66591E-08
 -1       121-2.05088E+03-1.57674E+06-5.49244E+02 1.10904E+03 1.43136E-09 1.21581E-08
 -1       122-1.30920E+03-1.57188E+06 7.76745E+02-4.47898E+03-5.48985E-09 4.59513E-08
 -1       123-2.07045E+03-1.57688E+06 2.67175E+02 3.31206E+03 4.33033E-09-2.61862E-08
 -1       124 3.42536E+02-1.57142E+06 2.97784E+03-9.36745E+03-1.04333E-08 1.92376E-08
 -1       125-2.88567E+03-1.57779E+06 3.49956E+03 5.95122E+03 7.06859E-09 1.20781E-09
 -1       191-8.29209E+01 3.86248E+05 8.23888E+00 7.16698E-01-5.74526E-10 2.05728E-09
 -1       192-7.96634E+01 3.86231E+05 2.11817E+01-4.39830E+00-8.12024E-10-1.82963E-08
 -1       193-8.54478E+01 3.86247E+05 3.58712E+01 3.86951E+00-1.07631E-09-1.43918E-08
 -1       194-8.27422E+01 3.86234E+05 8.05467E+01-9.98214E+00-4.90341E-10-7.43330E-09
 -1       195-9.02976E+01 3.86245E+05 1.54019E+02 6.50609E+00-1.49158E-09-1.97688E-08
 -1       251-8.86337E+05 1.65736E+04-3.87345E+04-1.43863E+04 2.42161E-09-2.64115E-07
 -1       252-9.01436E+05-1.91588E+04-2.70199E+04 4.98783E+04-9.76456E-09-3.31086E-07
 -1       253-8.94595E+05 2.55531E+03-1.03552E+04-1.06492E+04-3.24053E-09-2.96450E-07
 -1       254-8.88310E+05-3.05463E+03-4.85996E+03 3.60749E+04 9.12178E-09 2.63714E-08
 -1       255-8.98895E+05 9.74516E+01-3.50129E+03-5.85494E+02-5.31600E-10 3.11397E-08
 -1       256-8.82855E+05-2.97023E+02 9.83647E+02 1.29607E+04 9.19124E-09 1.29097E-08
 -1       257-8.99610E+05-5.28247E+02-1.34892E+03 1.24550E+04-1.79489E-09-3.14482E-08
 -1       258-8.85279E+05 8.38945E+02 2.58603E+03-1.16903E+04-8.12520E-09-2.28589E-07
 -1       259-8.96686E+05-8.71845E+02 1.34780E+03 2.40628E+04-2.98724E-09-6.79939E-08
 -1       260-8.91297E+05 2.79848E+03 5.44744E+03-2.96017E+04-2.08183E-09-3.64389E-08
 -1       261-8.94194E+05-2.02240E+03 8.48084E+03 3.03806E+04 1.24423E-08 9.25911E-09
 -1       262-8.89935E+05 1.14583E+04 2.10697E+04-3.48597E+04-1.05089E-08-9.02537E-08
 -1       263-8.98288E+05-9.31178E+03 3.33878E+04 2.93293E+04 1.05694E-08 1.03923E-07
 -1       264-8.60144E+05 6.56038E+04 9.24122E+04-2.56158E+04 3.37598E-08 7.87350E-08
 -1       265-9.23506E+05-5.62917E+04 1.28736E+05 2.11258E+04-1.22612E-08 4.60568E-08
 -1       266-1.72300E+04-8.05758E+03 4.04228E+04-1.88608E+01 1.58252E-10-1.18904E-07
 -1       267 1.99741E+04 9.39004E+03 2.85722E+04 2.17634E+01 2.00089E-11-3.38561E-07
 -1       268-2.67850E+03-1.32996E+03 1.06200E+04-2.77294E+00 9.18590E-11 4.84018E-08
 -1       269 3.16251E+03 1.59160E+03 6.90296E+03 3.23017E+00-1.34605E-10-1.31247E-07
 -1       270-4.74696E+02-2.61515E+02 3.33215E+03-4.38351E-01-1.08230E-10 3.22259E-07
 -1       271-1.52038E+06-1.92444E+05-1.14306E+05-5.90838E+05-3.07227E-09-5.16739E-08
 -1       272-1.52306E+06-3.03687E+05-7.20692E+04-6.23925E+05-1.22091E-08-1.84454E-07
 -1       273-1.54431E+06-2.17199E+05-2.76149E+04-5.82855E+05-1.12668E-08 3.80533E-09
 -1       274-1.49545E+06-2.73986E+05-1.45281E+04-6.38671E+05 9.68612E-09 1.22045E-07
 -1       275-1.54986E+06-2.17063E+05-6.82148E+03-5.79178E+05 1.36715E-08-3.37280E-07
 -1       276-1.48954E+06-2.74705E+05-2.97029E+03-6.46858E+05-3.41752E-08-1.75658E-07
 -1       277-1.55261E+06-2.14593E+05-1.87477E+03-5.76512E+05 3.04244E-08-4.25061E-08
 -1       278-1.48715E+06-2.77863E+05-7.71173E+02-6.52891E+05 1.51013E-08-3.20507E-07
 -1       279-1.55437E+06-2.12532E+05-9.09619E+02-5.74622E+05-4.37049E-08-3.81078E-08
 -1       280-1.48599E+06-2.80300E+05-1.10439E+03-6.56908E+05-1.29789E-08-1.27352E-08
 -1       281-1.55531E+06-2.11189E+05-2.03593E+03-5.73536E+05-1.62345E-09-1.46009E-07
 -1       282-1.48636E+06-2.82677E+05-4.74496E+03-6.58619E+05-2.35270E-08 3.32754E-07
 -1       283-1.55477E+06-2.09799E+05-8.44105E+03-5.73377E+05-2.36801E-08-1.44942E-08
 -1       284-1.49387E+06-2.93882E+05-2.30033E+04-6.56451E+05 4.37381E-08-4.03493E-07
 -1       285-1.54782E+06-2.01223E+05-3.58672E+04-5.75204E+05-7.23976E-08 6.09070E-08
 -1       301-4.56880E+03-6.40509E+05 1.67397E+05-1.12234E+06-1.56142E-08-2.52840E-08
 -1       302-5.71506E+03-5.94327E+05 1.00752E+05-1.63850E+06-2.52985E-08-3.17377E-07
 -1       303-1.97262E+04-6.32351E+05 5.71176E+04-1.11929E+06 3.99450E-09-1.33810E-07
 -1       304-2.16525E+04-6.00823E+05 5.78197E+04-1.63786E+06-7.45058E-09 5.29981E-08
 -1       305-2.38198E+04-6.21327E+05 7.15300E+04-1.12239E+06 1.17070E-08 1.32190E-07
 -1       306-3.01330E+07-6.22234E+06-8.61063E+06-5.35631E+05-9.41800E-08-1.84897E-07
 -1       307 2.54023E+07 3.25462E+06 5.51945E+06-1.51861E+07-8.01432E-07 8.78936E-08
 -1       308-6.99342E+06-1.03134E+06-4.59818E+05 5.20957E+06-3.82512E-07 2.86425E-07
 -1       309-3.27444E+06 8.74946E+06 2.28268E+06-2.06669E+07 3.67931E-07 8.48995E-08
 -1       310-1.25315E+07-1.93728E+06-2.02425E+06 5.21971E+06 9.83709E-09-2.11701E-07
 -1       311 3.83245E+07 2.22371E+04 7.26486E+06-8.85636E+06 3.94706E-07 1.87661E-07
 -1       312-3.19136E+07-6.75470E+06-8.52747E+06-5.00598E+06 1.35391E-07-1.52344E-07
 -1       313 4.54633E+07 1.49472E+07 1.06638E+07 2.37439E+07-1.07335E-07-4.58764E-07
 -1       314-1.72602E+07-1.77577E+07-7.52580E+06-1.25360E+07 2.86556E-07-9.97097E-08
 -1       315-1.78355E+06 2.97120E+07 5.67314E+06 1.05951E+07-2.77287E-07 2.25264E-07
 -1       316 1.38400E+06-9.85076E+06-4.45827E+05-2.54742E+06-1.32479E-06-2.69734E-07
 -1       317-1.71310E+07 2.24190E+07 2.23814E+06-8.79951E+06 6.15670E-07-6.45443E-07
 -1       318-1.06662E+06-1.27650E+07-2.03459E+06-4.23938E+06-9.64385E-07 1.84576E-07
 -1       319 7.18354E+06 3.19235E+07 7.02874E+06 1.65921E+07-9.89530E-10 2.09286E-07
 -1       320-2.25800E+07-1.76253E+07-9.84441E+06-1.28048E+07 1.72062E-07-6.07688E-08
 -1       336-7.44229E+02-1.70688E+06-1.39256E+04 9.01601E+03-2.66482E-08 6.62112E-10
 -1       337-5.42773E+03-1.70644E+06-1.81467E+04-2.18909E+04-4.84204E-08 1.54178E-08
 -1       338 2.76521E+02-1.70638E+06-2.85611E+04 1.26224E+04-3.33603E-08 2.27519E-08
 -1       339-3.02849E+04-1.72375E+06-6.45366E+04-2.89519E+04-6.11326E-08 5.27853E-08
 -1       340 1.99618E+04-1.69179E+06-1.01656E+05 1.59459E+04-4.12620E-08 1.85573E-08
 -1       406-5.34155E+01 3.86230E+05 6.40703E+02 3.42810E+00-2.08598E-09 1.31458E-08
 -1       407 1.50282E+02 3.86365E+05 1.36965E+03 2.39636E+01-6.75172E-10-2.90675E-09
 -1       408 6.27758E+02 3.86130E+05 2.73073E+03-2.76830E+01-2.69324E-09-4.36557E-11
 -1       409 2.88873E+03 3.87237E+05 6.15524E+03 2.95685E+02-1.78375E-10-7.01220E-10
 -1       410 8.43365E+03 3.85344E+05 1.25624E+04-2.85017E+02-2.85763E-09-1.41026E-08
 -1       521-3.16716E+07-7.67804E+06-1.00567E+07-1.43198E+05-1.55531E-07-2.72528E-07
 -1       522 2.62570E+07 4.27460E+06 5.62502E+06-1.86889E+07-5.42816E-07-4.47122E-07
 -1       523-7.56919E+06-1.34347E+06-4.51486E+05 5.65644E+06 1.12923E-08-3.20142E-08
 -1       524-6.77681E+06 1.18024E+07 2.46832E+06-2.37224E+07 4.77652E-07-6.90110E-07
 -1       525-1.33297E+07-2.56956E+06-2.22481E+06 5.66928E+06 4.05882E-07-1.22702E-07
 -1       526 4.18201E+07-6.74301E+04 7.62277E+06-1.15043E+07-9.00473E-08-2.10246E-07
 -1       527-3.37529E+07-8.44958E+06-9.82652E+06-4.86690E+06 1.89641E-07 1.92464E-07
 -1       528 4.96294E+07 1.66467E+07 1.11196E+07 2.69909E+07-4.65661E-10 5.49771E-07
 -1       529-1.81996E+07-1.99602E+07-8.62590E+06-1.25640E+07 8.66130E-08 8.16071E-08
 -1       530-4.26719E+06 3.44935E+07 6.00155E+06 1.00603E+07 1.61119E-07 6.12985E-07
 -1       531 1.38227E+06-1.09223E+07-4.18840E+05-2.49712E+06-7.81059E-07 3.72063E-07
 -1       532-1.96541E+07 2.44265E+07 2.44494E+06-1.30846E+07 4.49741E-07-5.90888E-07
 -1       533-1.11106E+06-1.39127E+07-2.16552E+06-4.04961E+06-3.35713E-07-1.00181E-06
 -1       534 5.17097E+06 3.70345E+07 7.31280E+06 1.71614E+07-5.17466E-08 7.55303E-07
 -1       535-2.37561E+07-2.00112E+07-1.12839E+07-1.28702E+07 1.08150E-07 4.76546E-07
 -1       536-4.66035E+05-5.66774E+04-2.74465E+04-2.74187E+04-6.96284E-09 3.17905E-08
 -1       537 2.75515E+05 4.88758E+04 1.09853E+05 5.03694E+04-1.08584E-07 8.10287E-08
 -1       538-1.31454E+05 8.17953E+03 8.51177E+03-2.38061E+04 3.61921E-08 7.63439E-08
 -1       539 6.02556E+04-9.69989E+03 3.60599E+04 5.16761E+04 1.84566E-07 6.99663E-08
 -1       540-2.52258E+05 3.29004E+03-2.49349E+04-2.88874E+04 1.33819E-08 3.93320E-08
 -1       541 4.72816E+05 1.17169E+04 1.16296E+05 4.45004E+04 5.40035E-09 5.76570E-08
 -1       542-5.40950E+05-1.60520E+04-8.56055E+04-1.63661E+04 5.20848E-08 3.10144E-08
 -1       543 7.21664E+05 2.68010E+04 1.66746E+05-4.83234E+03 2.29052E-08 6.61475E-09
 -1       544-4.99282E+05-1.34268E+04-7.80974E+04 2.02473E+04-3.35376E-09-3.07889E-08
 -1       545 3.56411E+05 2.27041E+03 8.93685E+04-4.66087E+04 3.67368E-09-5.44526E-08
 -1       546-1.78363E+05 1.08634E+04-1.42380E+04 2.53064E+04-5.51142E-09-7.46017E-08
 -1       547 4.40089E+04-1.65760E+04 2.20196E+04-5.17750E+04-1.60099E-07-9.21410E-08
 -1       548-1.89219E+05 7.60129E+03-2.14454E+04 2.56235E+04-1.14192E-07-5.04988E-08
 -1       549 3.80028E+05 2.31720E+04 8.68311E+04-4.63899E+04-7.16474E-08-6.28056E-08
 -1       550-5.11928E+05-3.11688E+04-1.07852E+05 1.97048E+04 1.11845E-08-2.79661E-08
 -1       551 4.11216E+04-7.54432E+05-1.50968E+04-1.24769E+06-1.02940E-07-1.26020E-08
 -1       552 9.35929E+04-7.99289E+05 1.03747E+04-1.77912E+06-7.44185E-08 5.01823E-08
 -1       553 7.19144E+04-7.95661E+05 3.23015E+04-1.24105E+06-1.19893E-07 4.13129E-08
 -1       554 1.32252E+05-8.15088E+05 8.13075E+04-1.78106E+06-7.28469E-08 3.03480E-08
 -1       555 1.01617E+05-8.19221E+05 1.48350E+05-1.24090E+06-1.20795E-07-1.10304E-08
 -1       556 2.12236E+05-3.83530E+05 2.57375E+04-4.09341E+05-2.45927E-08 3.20142E-09
 -1       557 3.42253E+05-4.87366E+05 1.61303E+04-5.29104E+05-9.69158E-09-8.88394E-09
 -1       558 1.94107E+05-3.76379E+05 2.31925E+03-4.13712E+05-2.06055E-08-1.06229E-09
 -1       559 3.17376E+05-4.87485E+05 2.43323E+03-5.49480E+05 2.39816E-08-4.31464E-09
 -1       560 1.78870E+05-3.66822E+05-1.51327E+03-4.24686E+05 1.18162E-08-4.94765E-09
 -1       561 2.98232E+05-4.79831E+05 1.22656E+02-5.62553E+05 4.14730E-09-2.49565E-09
 -1       562 1.66805E+05-3.59326E+05-1.33985E+03-4.33419E+05 3.79805E-09 1.12195E-08
 -1       563 2.83896E+05-4.73585E+05-4.74959E+01-5.71930E+05-3.35422E-09 2.24136E-08
 -1       564 1.58173E+05-3.53947E+05-6.20627E+02-4.39533E+05 4.36557E-10 1.06434E-08
 -1       565 2.74353E+05-4.69432E+05 4.91688E-01-5.78037E+05 1.10231E-08-3.67345E-09
 -1       566 1.53097E+05-3.50735E+05-3.04274E+02-4.43082E+05-7.05768E-09-1.38498E-08
 -1       567 2.69658E+05-4.67397E+05-4.45079E+02-5.80893E+05 1.10886E-08 2.66300E-09
 -1       568 1.51673E+05-3.49861E+05-1.28620E+03-4.44171E+05-6.30735E-09 4.59477E-09
 -1       569 2.68359E+05-4.67391E+05-3.22229E+03-5.79543E+05-1.67347E-09 2.53058E-08
 -1       570 1.55026E+05-3.53166E+05-6.93218E+03-4.43111E+05 6.92671E-09 1.54432E-09
 -1       571 2.91629E+05 1.04218E+04 1.48507E+04-9.50828E+04-2.62889E-08-1.58707E-09
 -1       572 2.93779E+05 3.93676E+03 7.27803E+03-1.04321E+05-5.75637E-08-1.47520E-08
 -1       573 2.92484E+05 1.24602E+03 3.23391E+03-9.49094E+04-2.87919E-08 1.29867E-08
 -1       574 2.92695E+05 7.33099E+02 1.62180E+03-1.04542E+05 4.37467E-10 1.03673E-08
 -1       575 2.92578E+05 4.54920E+02 7.65507E+02-9.48856E+04 1.69879E-09 4.32283E-09
 -1       576 2.92562E+05 4.66807E+02 3.92061E+02-1.04572E+05 1.02536E-08-2.06728E-09
 -1       577 2.92620E+05 3.96329E+02 1.95922E+02-9.48824E+04-5.74164E-09 1.09858E-08
 -1       578 2.92594E+05 4.27948E+02 1.13652E+02-1.04576E+05-2.83540E-08 8.09814E-09
 -1       579 2.92693E+05 3.58736E+02 7.87966E+01-9.48820E+04-3.58159E-09-7.61611E-09
 -1       580 2.92698E+05 3.76127E+02 9.26425E+01-1.04571E+05-9.16498E-09-8.60655E-09
 -1       581 2.92808E+05 2.99587E+02 1.40997E+02-9.48880E+04 4.76575E-09 1.88084E-08
 -1       582 2.92875E+05 3.39332E+02 2.87337E+02-1.04509E+05 2.41562E-09 1.49857E-08
 -1       583 2.92949E+05 3.45373E+02 5.52107E+02-9.49448E+04-3.05590E-10 1.29812E-08
 -1       584 2.93257E+05 7.96949E+02 1.24941E+03-1.04030E+05 7.23412E-09-1.32400E-08
 -1       585 2.92971E+05 1.85005E+03 2.53052E+03-9.53658E+04 3.52884E-10-1.54032E-08
 -1       586-3.63836E+03 1.16488E+05-3.20986E+03-2.45765E+05-8.66112E-09-3.57659E-10
 -1       587-1.41465E+03 1.16199E+05 6.56130E+02-2.70484E+05-6.60475E-09-2.49611E-09
 -1       588 3.93278E+02 1.16024E+05 4.76664E+03-2.45631E+05-3.38150E-09-7.13862E-09
 -1       589 5.15363E+03 1.18517E+05 1.24790E+04-2.70256E+05-4.41287E-09-2.92384E-08
 -1       590 1.68381E+04 1.14655E+05 2.62246E+04-2.46056E+05-5.70344E-09 1.61890E-10
 -1       591-7.41983E+04-1.56625E+04-2.26533E+04-3.13776E+04 6.64613E-10-2.98587E-09
 -1       592-7.84146E+04-1.91355E+04-1.22709E+04-3.49026E+04-2.84285E-09 5.31509E-09
 -1       593-7.64622E+04-1.40204E+04-5.10771E+03-3.30403E+04 1.22023E-09 2.93062E-09
 -1       594-7.52885E+04-1.58096E+04-2.54733E+03-3.50188E+04 5.51449E-09 2.85154E-08
 -1       595-7.66347E+04-1.40151E+04-1.16940E+03-3.31158E+04 4.14281E-09 3.23779E-08
 -1       596-7.50744E+04-1.56575E+04-5.94096E+02-3.49931E+04-1.58374E-09 2.97882E-08
 -1       597-7.66563E+04-1.40307E+04-3.22725E+02-3.31187E+04 6.14477E-09 5.40206E-09
 -1       598-7.50532E+04-1.56515E+04-2.58001E+02-3.49859E+04-5.15752E-09-4.90820E-09
 -1       599-7.66551E+04-1.40312E+04-3.27779E+02-3.31184E+04 4.35978E-09 1.53841E-09
 -1       600-7.50743E+04-1.56580E+04-6.07485E+02-3.49909E+04 4.54406E-09 2.40613E-09
 -1       601-7.66306E+04-1.40167E+04-1.19768E+03-3.31149E+04-5.50563E-09 1.16736E-08
 -1       602-7.52936E+04-1.58125E+04-2.60984E+03-3.50133E+04-1.84014E-08-6.13227E-09
 -1       603-7.64512E+04-1.40249E+04-5.23359E+03-3.30385E+04-6.39511E-09-8.94534E-09
 -1       604-7.85149E+04-1.92001E+04-1.25723E+04-3.48688E+04 2.67505E-09-1.28255E-08
 -1       605-7.41111E+04-1.57258E+04-2.32100E+04-3.13549E+04 5.75494E-09 5.46333E-09
 -1       606 2.63932E+04-1.43736E+04-2.57675E+04 2.36571E+04 6.80484E-09-8.04516E-09
 -1       607 2.19905E+04-4.69442E+03-1.28322E+04 2.65866E+04 4.64115E-09-1.87529E-08
 -1       608 2.45003E+04-8.46797E+02-5.74445E+03 2.34916E+04-1.25092E-08-1.27361E-08
 -1       609 2.40197E+04-2.90461E+02-2.90197E+03 2.67978E+04-2.00016E-08 3.91469E-09
 -1       610 2.42868E+04-4.14648E+01-1.38449E+03 2.34718E+04-5.78893E-09 4.08227E-09
 -1       611 2.42117E+04-4.21369E+01-6.98038E+02 2.68206E+04 5.73391E-09 1.31163E-08
 -1       612 2.42402E+04-2.81067E+01-3.31735E+02 2.34698E+04 1.99643E-08-2.85422E-09
 -1       613 2.42239E+04-3.83988E+01-1.48515E+02 2.68233E+04 4.47535E-08-4.52587E-09
 -1       614 2.42184E+04-3.48717E+01-3.44529E+01 2.34691E+04 2.12658E-08 5.05702E-09
 -1       615 2.42192E+04-3.71907E+01 6.31422E+01 2.68237E+04-1.50931E-09 2.72235E-09
 -1       616 2.42014E+04-3.19707E+01 1.88518E+02 2.34694E+04 1.44610E-09 1.12070E-08
 -1       617 2.42423E+04 2.72297E+00 4.29785E+02 2.68232E+04 2.17551E-09 1.08553E-08
 -1       618 2.41643E+04 9.17290E+01 8.66184E+02 2.34697E+04 2.38651E-09-2.98314E-10
 -1       619 2.45483E+04 6.72290E+02 1.94500E+03 2.68226E+04 1.61617E-09-8.08859E-09
 -1       620 2.38768E+04 2.14551E+03 3.90938E+03 2.34714E+04 1.03830E-09 8.55380E-09
 -1       621 5.10210E+02 3.01657E+05 3.85755E+03 4.16373E+04 1.06229E-09-1.76642E-08
 -1       622 6.79508E+02 3.02545E+05 3.42893E+03 6.04448E+04 1.17598E-09 6.33008E-10
 -1       623 1.47056E+02 3.01847E+05 4.12637E+03 4.14485E+04 1.24874E-09-1.08412E-09
 -1       624 2.12822E+03 3.03757E+05 8.00485E+03 6.06311E+04 1.35771E-09-1.71081E-08
 -1       625 2.07724E+03 3.00257E+05 1.39904E+04 4.14447E+04 1.66619E-09 9.34961E-10
 -1       626 2.62095E+05 6.14463E+04 5.19625E+03 1.26954E+05 7.85940E-09 1.37416E-08
 -1       627 2.59805E+05 6.28024E+04 2.50401E+03 1.31220E+05 1.73395E-09-1.45817E-08
 -1       628 2.62223E+05 5.90719E+04 1.05905E+03 1.27841E+05-4.84215E-09 2.03909E-09
 -1       629 2.59165E+05 6.21083E+04 5.18287E+02 1.31460E+05-1.10240E-08 6.74855E-09
 -1       630 2.62238E+05 5.89569E+04 2.40490E+02 1.27879E+05-6.26324E-09 6.99629E-09
 -1       631 2.59098E+05 6.20815E+04 1.29423E+02 1.31462E+05 1.79011E-09-2.63412E-10
 -1       632 2.62235E+05 5.89607E+04 8.51592E+01 1.27875E+05 6.82485E-09-1.74855E-08
 -1       633 2.59090E+05 6.20831E+04 9.48786E+01 1.31459E+05 6.69434E-09-3.11729E-09
 -1       634 2.62231E+05 5.89577E+04 1.53331E+02 1.27875E+05-3.36172E-09 2.44813E-09
 -1       635 2.59105E+05 6.20813E+04 3.10264E+02 1.31464E+05-4.49700E-09 1.06957E-09
 -1       636 2.62222E+05 5.89517E+04 6.26586E+02 1.27875E+05 1.00226E-09-1.25669E-08
 -1       637 2.59241E+05 6.21787E+04 1.37776E+03 1.31464E+05-9.84073E-10 2.82489E-09
 -1       638 2.62173E+05 5.92560E+04 2.83075E+03 1.27737E+05 4.38149E-09 1.60053E-08
 -1       639 2.60728E+05 6.42466E+04 6.69772E+03 1.31026E+05 8.82869E-09 8.55221E-09
 -1       640 2.61967E+05 6.54321E+04 1.38989E+04 1.25136E+05 5.02087E-09-6.01108E-09
 -1       656 6.67670E+04-1.70932E+06-1.61173E+05-2.61642E+03-1.45519E-10-4.08727E-09
 -1       657-8.83312E+04-1.78215E+06-1.33530E+05 5.04365E+03-1.86628E-09-2.44484E-09
 -1       658 2.12870E+04-1.73000E+06-8.22488E+04-4.70382E+03-8.30596E-10-2.09981E-08
 -1       659-9.55455E+04-1.78558E+06-1.43011E+05 6.78889E+03-2.62662E-09-3.78079E-09
 -1       660 7.39652E+04-1.70590E+06-1.77473E+05-4.36164E+03-2.02999E-09 1.80464E-09
 -1       661 1.56615E+05 1.63621E+04 1.65790E+04 6.12306E+04 8.27640E-10-2.97314E-09
 -1       662 1.66018E+05 2.86102E+04 1.11731E+04 5.74768E+04 1.68990E-09-1.69616E-08
 -1       663 1.59871E+05 2.16809E+04 3.90762E+03 6.02855E+04-2.68869E-10-1.85964E-08
 -1       664 1.62242E+05 2.23903E+04 2.33763E+03 5.86312E+04-1.12297E-09-4.95297E-09
 -1       665 1.60366E+05 2.24073E+04 9.22183E+02 6.01412E+04 1.44490E-09 1.64081E-09
 -1       666 1.61657E+05 2.15597E+04 5.39891E+02 5.88194E+04 4.67423E-09-9.12947E-09
 -1       667 1.60452E+05 2.24899E+04 2.87064E+02 6.01051E+04 1.29089E-09-1.00608E-08
 -1       668 1.61562E+05 2.15005E+04 2.93173E+02 5.88719E+04-5.41519E-09-1.36712E-08
 -1       669 1.60460E+05 2.24649E+04 3.97478E+02 6.00890E+04-1.04072E-09 3.67692E-10
 -1       670 1.61659E+05 2.17163E+04 8.66029E+02 5.88746E+04-6.19313E-09 2.30654E-08
 -1       671 1.60355E+05 2.22786E+04 1.53788E+03 6.01004E+04-1.04430E-09 4.58550E-09
 -1       672 1.62555E+05 2.32122E+04 3.93477E+03 5.86572E+04 8.93090E-09 3.91441E-09
 -1       673 1.59568E+05 2.10069E+04 6.59410E+03 6.02919E+04 2.10434E-09 8.39646E-09
 -1       674 1.68831E+05 3.38063E+04 1.88578E+04 5.68132E+04-8.72092E-10-5.46311E-09
 -1       675 1.54119E+05 1.19813E+04 2.79916E+04 6.18331E+04-2.82125E-09 1.07502E-09
 -1       676 2.41037E+01-2.96011E+05-1.11268E+03-1.41667E+02 1.86898E-09-1.57343E-08
 -1       677-2.94254E+02-2.96280E+05-2.03640E+03 2.83106E+02 9.42600E-09-1.11206E-08
 -1       678 1.97421E+02-2.95819E+05-3.59985E+03-1.41346E+02 1.10049E-10 1.42949E-08
 -1       679-3.59983E+03-2.98453E+05-8.55175E+03 2.81881E+02 8.48183E-09-5.42322E-09
 -1       680 2.14936E+03-2.93839E+05-1.37825E+04-1.38882E+02 2.58387E-09 2.29805E-09
 -1       771-3.06355E+06-7.47571E+05-1.65496E+05-1.46656E+06-3.16359E-08-2.45054E-08
 -1       772-2.98628E+06-8.36398E+05-8.53109E+04-1.56927E+06-2.60916E-08 9.78616E-09
 -1       773-3.09501E+06-7.23032E+05-4.35170E+04-1.48107E+06-7.79983E-09 9.92441E-09
 -1       774-2.97682E+06-8.17938E+05-1.94090E+04-1.59505E+06 3.33675E-08-9.21136E-09
 -1       775-3.11147E+06-7.11482E+05-1.45363E+04-1.48813E+06 1.04774E-09 4.07454E-10
 -1       776-2.98918E+06-8.14904E+05-5.43279E+03-1.61457E+06 3.69619E-09-3.66708E-09
 -1       777-3.12576E+06-7.01172E+05-6.42879E+03-1.49435E+06 1.23691E-08 1.31695E-09
 -1       778-3.00209E+06-8.12078E+05-1.81584E+03-1.63134E+06 6.40284E-10 6.69752E-09
 -1       779-3.13804E+06-6.92162E+05-3.21344E+03-1.49967E+06-1.80007E-08-1.00990E-08
 -1       780-3.01346E+06-8.09381E+05-5.29772E+02-1.64500E+06-1.90921E-08 7.33780E-09
 -1       781-3.14781E+06-6.84898E+05-1.24325E+03-1.50384E+06-3.43134E-08-9.09495E-12
 -1       782-3.02221E+06-8.07091E+05 4.63980E+02-1.65508E+06-4.67408E-08-7.15272E-09
 -1       783-3.15468E+06-6.79850E+05 7.28202E+02-1.50676E+06-2.14495E-08-2.10807E-08
 -1       784-3.02705E+06-8.04785E+05 2.97179E+03-1.66131E+06-2.25446E-08 8.26094E-09
 -1       785-3.15877E+06-6.76830E+05 5.25158E+03-1.50861E+06-3.93193E-08 1.15633E-08
 -1       786 1.11521E+05-9.43312E+03 2.18242E+04-2.97991E+02 8.83603E-10-1.72804E-09
 -1       787 1.20987E+05 1.09214E+04 1.54396E+04-1.20852E+02 5.28862E-09 2.08008E-08
 -1       788 1.15170E+05-1.47820E+03 5.64605E+03-2.65322E+02 4.25068E-09 2.40586E-08
 -1       789 1.16735E+05 1.71090E+03 3.54394E+03-1.70975E+02-1.27261E-09 1.57772E-08
 -1       790 1.15773E+05-2.30116E+02 1.43386E+03-2.47885E+02-2.61211E-09 7.49503E-09
 -1       791 1.16030E+05 2.65910E+02 8.26187E+02-2.00939E+02-8.18440E-09 2.35140E-08
 -1       792 1.15875E+05-3.42925E+01 3.46144E+02-2.35360E+02-5.26279E-09 2.21154E-08
 -1       793 1.15907E+05 3.42067E+01 1.63884E+02-2.24470E+02 5.25188E-10 5.63337E-09
 -1       794 1.15896E+05 1.44185E+00 2.51447E+01-2.24354E+02 5.05792E-09 2.13573E-09
 -1       795 1.15864E+05-4.15333E+01-1.02723E+02-2.47184E+02-4.69753E-09 6.93937E-09
 -1       796 1.15917E+05 4.14044E+01-2.38004E+02-2.12646E+02 3.96723E-09-6.43944E-09
 -1       797 1.15733E+05-3.08544E+02-6.30749E+02-2.73650E+02 4.51208E-09-3.12663E-08
 -1       798 1.16027E+05 2.68254E+02-1.01806E+03-1.97888E+02 2.27891E-09-8.38048E-09
 -1       799 1.14963E+05-1.97857E+03-2.79543E+03-3.09901E+02 6.63595E-09 7.32143E-10
 -1       800 1.16688E+05 1.71008E+03-3.95448E+03-1.76397E+02 4.10958E-10 1.15137E-08
 -1       801-1.76405E+05-1.01164E+07-1.41231E+06 1.44596E+06 9.21136E-08-5.61922E-08
 -1       802 7.56484E+05 6.14806E+06 2.23176E+06-1.78693E+06 2.62691E-07-3.23453E-08
 -1       803-5.48306E+05-1.45126E+07-1.93268E+06 9.12250E+05 7.77982E-08 1.76988E-08
 -1       804 2.96271E+05 2.54952E+06 1.57692E+06 6.90867E+05-1.23342E-07-8.79686E-08
 -1       805 1.91186E+05-6.53172E+06-2.95433E+05-1.02602E+06-5.06698E-08-6.74299E-08
 -1       806-3.10586E+05-5.97352E+04-2.26763E+04-1.22811E+05-7.63475E-09 4.73119E-09
 -1       807-3.12387E+05-5.60162E+04-1.11406E+04-1.28293E+05 7.23344E-09 5.17539E-09
 -1       808-3.11208E+05-5.15639E+04-4.72625E+03-1.26675E+05-7.61020E-09 1.53500E-08
 -1       809-3.10047E+05-5.28844E+04-2.31106E+03-1.28565E+05-1.42556E-08 2.32649E-08
 -1       810-3.11301E+05-5.12796E+04-1.05937E+03-1.26846E+05 1.06011E-08 2.83708E-08
 -1       811-3.09865E+05-5.27584E+04-5.26988E+02-1.28529E+05 1.41085E-08-6.69047E-09
 -1       812-3.11315E+05-5.13041E+04-2.66910E+02-1.26846E+05 5.00222E-11-3.26554E-09
 -1       813-3.09840E+05-5.27604E+04-1.74144E+02-1.28511E+05-4.96220E-09-3.68391E-08
 -1       814-3.11308E+05-5.13136E+04-1.73651E+02-1.26842E+05-2.87491E-09-6.39284E-09
 -1       815-3.09844E+05-5.27626E+04-2.80833E+02-1.28503E+05 3.40879E-09 4.94674E-09
 -1       816-3.11287E+05-5.13126E+04-5.32927E+02-1.26838E+05 3.28328E-09 7.86713E-09
 -1       817-3.09935E+05-5.28134E+04-1.14408E+03-1.28492E+05-8.36735E-09 2.50989E-08
 -1       818-3.11218E+05-5.14739E+04-2.33367E+03-1.26762E+05-8.33097E-10-4.01542E-10
 -1       819-3.11211E+05-5.42245E+04-5.49110E+03-1.28191E+05 1.03682E-09-1.72397E-08
 -1       820-3.10779E+05-5.56208E+04-1.11764E+04-1.24989E+05 1.95541E-10 4.43583E-09
 -1       821-3.78057E+05 2.08673E+04-4.85491E+04 2.09497E+03 1.39199E-08-1.07575E-08
 -1       822-3.97869E+05-2.41719E+04-3.41401E+04-4.28518E+03 5.51219E-09-7.31052E-09
 -1       823-3.85570E+05 3.28771E+03-1.25421E+04 3.33642E+03-1.28353E-08 1.20599E-09
 -1       824-3.88817E+05-3.79182E+03-7.85361E+03-5.12770E+03 2.35419E-09 5.63887E-10
 -1       825-3.87115E+05 5.10448E+02-3.28549E+03 2.93760E+03 2.11474E-08 4.38740E-09
 -1       826-3.86445E+05-5.69221E+02-1.75789E+03-2.91927E+03 2.47411E-08 1.28278E-08
 -1       827-3.87919E+05 4.98519E+01-1.17707E+03 1.12785E+03 1.39677E-08-4.22568E-09
 -1       828-3.85785E+05-1.36349E+02-6.09752E+02 1.11416E+03 1.84798E-09 1.48937E-08
 -1       829-3.87763E+05 6.85064E+01-1.16710E+03-1.09586E+03 1.41026E-09 2.77971E-08
 -1       830-3.86783E+05-6.23370E+02-1.89390E+03 4.74134E+03 4.12648E-10 9.97372E-09
 -1       831-3.86942E+05 5.53273E+02-3.36853E+03-2.49934E+03-5.00028E-09-6.72344E-09
 -1       832-3.88897E+05-3.95867E+03-8.15672E+03 5.95258E+03-3.05443E-09-9.44999E-09
 -1       833-3.85664E+05 3.41231E+03-1.30455E+04-2.30714E+03-2.70929E-09 3.33512E-09
 -1       834-3.97941E+05-2.50872E+04-3.53668E+04 4.04303E+03-3.86129E-09 1.44273E-08
 -1       835-3.77883E+05 2.16500E+04-5.04205E+04-5.89718E+02 6.41410E-09-4.62751E-09
 -1       836-1.41495E+03 3.71498E+05 2.29813E+04-1.49955E+04-6.97946E-09 5.40604E-09
 -1       837 4.90309E+03 3.78694E+05 1.94461E+04-3.06948E+04-8.11769E-09-2.79147E-09
 -1       838-5.58247E+02 3.73517E+05 1.98132E+04-1.49267E+04-6.63113E-09 1.89607E-08
 -1       839 1.24725E+04 3.84334E+05 3.74807E+04-3.07479E+04-6.91216E-09 3.68243E-09
 -1       840-3.85335E+03 3.65802E+05 5.97682E+04-1.49484E+04-6.27188E-09 9.62228E-09
 -1       856-5.02789E+04 7.98175E+03-2.10336E+04-3.96692E+02 5.71049E-09 9.02219E-10
 -1       857-5.89438E+04-9.37878E+03-1.44793E+04 5.62980E+03 1.82069E-09 1.38405E-08
 -1       858-5.37106E+04 1.11939E+03-5.45766E+03-4.20352E+02 3.46745E-09 1.95664E-08
 -1       859-5.50056E+04-1.31739E+03-3.29334E+03 5.66488E+03-1.53437E-09 5.80030E-09
 -1       860-5.42233E+04 1.56796E+02-1.38004E+03-4.31499E+02 7.17364E-10 5.57213E-09
 -1       861-5.44159E+04-1.87607E+02-7.58782E+02 5.68005E+03 1.05449E-09 6.19139E-10
 -1       862-5.43035E+04 2.12417E+01-3.14593E+02-4.35496E+02 2.06819E-09 8.70187E-10
 -1       863-5.43174E+04-2.19467E+01-1.12731E+02 5.68239E+03-4.47084E-09-2.28865E-08
 -1       864-5.43223E+04-5.09326E+00 5.11511E+01-4.33836E+02-1.05032E-10-8.54695E-09
 -1       865-5.42608E+04 6.09771E+01 2.63227E+02 5.67285E+03 8.28265E-10-5.12963E-09
 -1       866-5.43579E+04-6.16637E+01 5.28341E+02-4.25955E+02 2.94165E-10-5.22917E-09
 -1       867-5.40130E+04 5.09198E+02 1.29904E+03 5.65147E+03 4.64297E-10 1.23601E-08
 -1       868-5.45652E+04-4.45126E+02 2.15833E+03-4.12456E+02 9.78787E-10 7.22468E-09
 -1       869-5.24312E+04 3.70494E+03 5.74631E+03 5.61630E+03-1.76442E-10-1.06105E-08
 -1       870-5.59320E+04-3.17047E+03 8.33935E+03-3.90679E+02-2.57728E-09-3.83216E-09
 -1       871-5.53280E+03-2.16114E+04-1.95833E+04 1.31154E+05-4.49108E-09 9.17953E-09
 -1       872-1.97662E+03-2.61688E+04-8.20540E+03 1.70061E+05-1.09567E-08-1.44819E-08
 -1       873 4.18214E+02-2.39624E+04 5.79113E+02 1.30865E+05-5.48562E-09 4.39843E-09
 -1       874 3.32896E+03-2.15505E+04 9.79430E+03 1.70090E+05-1.12459E-08 2.66093E-08
 -1       875 6.87260E+03-2.62961E+04 2.21058E+04 1.31106E+05-5.03678E-09 1.95014E-08
 -1       876 2.94495E+05 4.95949E+04 1.51137E+04 1.18135E+05 6.90648E-09-1.89812E-09
 -1       877 2.95500E+05 5.27719E+04 8.07132E+03 1.22464E+05 7.07860E-09 2.09612E-08
 -1       878 2.95909E+05 4.79206E+04 3.38149E+03 1.19373E+05-5.96765E-09-2.14300E-09
 -1       879 2.93446E+05 5.07215E+04 1.68488E+03 1.22566E+05 8.92942E-09 6.80456E-09
 -1       880 2.96010E+05 4.79033E+04 7.84819E+02 1.19424E+05 2.61707E-09 2.96116E-08
 -1       881 2.93310E+05 5.06338E+04 4.19171E+02 1.22543E+05-1.18256E-08 2.03272E-08
 -1       882 2.96019E+05 4.79166E+04 2.68280E+02 1.19425E+05-8.05267E-09 1.24241E-08
 -1       883 2.93300E+05 5.06292E+04 2.88601E+02 1.22535E+05-5.31583E-09-3.08621E-09
 -1       884 2.96013E+05 4.79138E+04 4.59270E+02 1.19425E+05-6.80234E-09-8.68101E-09
 -1       885 2.93337E+05 5.06356E+04 9.23495E+02 1.22546E+05-3.57278E-09-3.01111E-09
 -1       886 2.95977E+05 4.78869E+04 1.86132E+03 1.19422E+05-1.07379E-08-1.92586E-09
 -1       887 2.93664E+05 5.08501E+04 4.06581E+03 1.22593E+05 8.74780E-09 1.18223E-09
 -1       888 2.95720E+05 4.79322E+04 8.19274E+03 1.19292E+05 2.12982E-09-9.09176E-09
 -1       889 2.98541E+05 5.59225E+04 1.95709E+04 1.22444E+05 5.21254E-10 1.28603E-09
 -1       890 2.92376E+05 5.19045E+04 3.66559E+04 1.16174E+05-3.40424E-09-4.44925E-09
 -1       891-8.79221E+01-1.63039E+05-2.00266E+03 2.70761E+04-2.63526E-09 4.36353E-09
 -1       892-1.73192E+02-1.63569E+05-2.14975E+03 4.11206E+04 2.90197E-09 6.39011E-09
 -1       893 4.57256E+01-1.63104E+05-3.04258E+03 2.70835E+04-8.66294E-10-1.30408E-08
 -1       894-1.51017E+03-1.64718E+05-6.29616E+03 4.09683E+04 1.48248E-09-1.38511E-08
 -1       895-1.19957E+03-1.61793E+05-1.10871E+04 2.72303E+04-1.92779E-09-1.25756E-08
 -1       956-3.78408E+05-5.45836E+03-1.34681E+04 3.10682E+04 5.61431E-09 3.06500E-10
 -1       957-3.81050E+05-1.92751E+03-6.91297E+03 3.73353E+04-3.25963E-09-8.34643E-09
 -1       958-3.79618E+05-2.43496E+02-3.11521E+03 3.09003E+04-5.73345E-09 1.56660E-09
 -1       959-3.79815E+05-1.39144E+02-1.59068E+03 3.75315E+04-5.54337E-10 9.48899E-09
 -1       960-3.79737E+05-4.70714E+01-7.75703E+02 3.08830E+04 7.23867E-09-2.74190E-09
 -1       961-3.79734E+05-6.59779E+01-4.11306E+02 3.75520E+04 1.22327E-08 1.04524E-09
 -1       962-3.79764E+05-4.82849E+01-2.35555E+02 3.08801E+04 3.05999E-09-4.05794E-09
 -1       963-3.79735E+05-6.18077E+01-1.89232E+02 3.75556E+04 2.80522E-09 7.43421E-09
 -1       964-3.79770E+05-4.49817E+01-2.30301E+02 3.08793E+04 2.78341E-09-2.83603E-09
 -1       965-3.79747E+05-5.89452E+01-3.98474E+02 3.75549E+04-8.53413E-09-2.61412E-09
 -1       966-3.79753E+05-3.72507E+01-7.48823E+02 3.08809E+04 8.59472E-11-1.17921E-08
 -1       967-3.79836E+05-1.22892E+02-1.53585E+03 3.75403E+04 4.01087E-09-5.80576E-09
 -1       968-3.79649E+05-2.20598E+02-3.00669E+03 3.08937E+04 1.12232E-09 6.11522E-09
 -1       969-3.81041E+05-1.84411E+03-6.67473E+03 3.73901E+04 1.24783E-09-1.05217E-10
 -1       970-3.78488E+05-5.25182E+03-1.30028E+04 3.10221E+04-1.09867E-09-3.91265E-09
 -1       971-3.46083E+05-1.72763E+03-9.30495E+03 1.53640E+04 4.05998E-09-1.92368E-08
 -1       972-3.48322E+05-1.27264E+03-5.06739E+03 2.12429E+04 5.87215E-09-1.52056E-08
 -1       973-3.47119E+05-6.31082E+01-2.26974E+03 1.52432E+04 1.99634E-09-1.26843E-08
 -1       974-3.47254E+05-8.26254E+01-1.17659E+03 2.13797E+04-2.18279E-10 4.29657E-09
 -1       975-3.47201E+05-1.82834E+01-5.88654E+02 1.52309E+04-7.66067E-09 1.10394E-08
 -1       976-3.47192E+05-3.28330E+01-3.40568E+02 2.13955E+04-6.05974E-09 4.96891E-09
 -1       977-3.47218E+05-1.75500E+01-2.48880E+02 1.52275E+04-7.14340E-09 1.48862E-09
 -1       978-3.47198E+05-2.66198E+01-2.93567E+02 2.14004E+04-6.40057E-09 2.09320E-09
 -1       979-3.47218E+05-9.06108E+00-4.73664E+02 1.52260E+04-5.48533E-09 1.25658E-08
 -1       980-3.47233E+05-2.35558E+01-9.15836E+02 2.14014E+04-4.49499E-09 2.23019E-09
 -1       981-3.47188E+05 1.38382E+01-1.77441E+03 1.52266E+04 4.48495E-09-1.00147E-08
 -1       982-3.47477E+05-1.54651E+02-3.66804E+03 2.13947E+04 1.59798E-09-1.33580E-08
 -1       983-3.46965E+05-9.97591E+01-7.12721E+03 1.52326E+04 5.68298E-09 7.32575E-09
 -1       984-3.50905E+05-3.87695E+03-1.59612E+04 2.13093E+04 2.76896E-09 1.82288E-08
 -1       985-3.43738E+05-5.31497E+03-2.93097E+04 1.53035E+04-8.09450E-10 3.48700E-09
 -3
    1PSTEP                        45          23           1          
  100CL  123 6.63153E-01         409                     0   23           1
 -4  DISP        4    1
 -5  D1          1    2    1    0
 -5  D2          1    2    2    0
 -5  D3          1    2    3    0
 -5  ALL         1    2    0    0    1ALL
 -1         1 2.71640E-03 0.00000E+00 0.00000E+00
 -1         2 1.36287E-03 1.52743E-27 0.00000E+00
 -1         3 3.43437E-04-5.49489E-28 0.00000E+00
 -1         5 1.76659E-04-2.93070E-27-1.65436E-24
 -1         8 2.70539E-03-4.08149E-07 0.00000E+00
 -1         9 2.69879E-03-1.87750E-04 0.00000E+00
 -1        10 3.11373E-04-3.42131E-06 0.00000E+00
 -1        12 1.78552E-04 8.08987E-07 1.24077E-24
 -1        15 2.69277E-03-4.32257E-07 0.00000E+00
 -1        16 2.76376E-03-1.89553E-04 0.00000E+00
 -1        17 2.11803E-04-7.80343E-06 0.00000E+00
 -1        18 1.82631E-04 3.50132E-05 0.00000E+00
 -1        19 1.84229E-04 1.61147E-06 0.00000E+00
 -1        20 1.84367E-04-1.04720E-05 0.00000E+00
 -1        21 1.83468E-04-2.66988E-05 0.00000E+00
 -1        24 3.06441E-05-1.20397E-05 0.00000E+00
 -1        25 1.93715E-04 3.52375E-05 0.00000E+00
 -1        26 1.94325E-04 2.23176E-06 0.00000E+00
 -1        27 1.92132E-04-1.40421E-05 0.00000E+00
 -1        28 1.91827E-04-2.73214E-05 0.00000E+00
 -1        32 0.00000E+00 0.00000E+00 0.00000E+00
 -1        33 2.03472E-04 2.98786E-06 0.00000E+00
 -1        34 2.01346E-04-1.40993E-05 0.00000E+00
 -1        35 1.99409E-04-2.76647E-05 0.00000E+00
 -1        51 2.71566E-03-8.53765E-08 1.65436E-24
 -1        52 2.71431E-03-1.52397E-07 3.30872E-24
 -1        53 2.71248E-03-2.15964E-07 0.00000E+00
 -1        54 2.71029E-03-2.78314E-07-1.65436E-24
 -1        55 2.70789E-03-3.41207E-07 2.48154E-24
 -1        56 2.70887E-03 8.08530E-06 0.00000E+00
 -1        57 2.69429E-03 3.36005E-05 0.00000E+00
 -1        58 2.67483E-03 7.10436E-05-1.05879E-22
 -1        59 2.65311E-03 1.13769E-04-5.29396E-23
 -1        60 2.63235E-03 1.54228E-04 0.00000E+00
 -1        61 2.61559E-03 1.85052E-04 0.00000E+00
 -1        62 2.60496E-03 2.00598E-04-1.05879E-22
 -1        63 2.60181E-03 1.96582E-04-5.29396E-23
 -1        64 2.60599E-03 1.72310E-04-1.05879E-22
 -1        65 2.61664E-03 1.29000E-04-5.29396E-23
 -1        66 2.63191E-03 7.14766E-05 1.05879E-22
 -1        67 2.64967E-03 5.95436E-06-5.29396E-23
 -1        68 2.66751E-03-5.98033E-05 0.00000E+00
 -1        69 2.68302E-03-1.18004E-04 5.29396E-23
 -1        70 2.69403E-03-1.62320E-04 0.00000E+00
 -1        86 1.44686E-03-5.96421E-06 5.29396E-23
 -1        87 1.68999E-03-3.73674E-05 0.00000E+00
 -1        88 2.01689E-03-9.12965E-05-2.64698E-23
 -1        89 2.34811E-03-1.46686E-04 1.32349E-23
 -1        90 2.60173E-03-1.80577E-04-5.29396E-23
 -1       121 3.42537E-04-5.52361E-07 0.00000E+00
 -1       122 3.39839E-04-1.10783E-06 6.61744E-24
 -1       123 3.35354E-04-1.66947E-06 0.00000E+00
 -1       124 3.29098E-04-2.24034E-06 0.00000E+00
 -1       125 3.21094E-04-2.82312E-06 1.32349E-23
 -1       191 1.76712E-04 1.34898E-07 8.27181E-25
 -1       192 1.76869E-04 2.69784E-07 0.00000E+00
 -1       193 1.77132E-04 4.04649E-07-3.30872E-24
 -1       194 1.77500E-04 5.39480E-07 0.00000E+00
 -1       195 1.77973E-04 6.74264E-07 2.48154E-24
 -1       251 2.70509E-03 1.69675E-06 0.00000E+00
 -1       252 2.70478E-03 3.71428E-06 3.30872E-24
 -1       253 2.70448E-03 4.66576E-06-6.61744E-24
 -1       254 2.70417E-03 3.58586E-06 3.30872E-24
 -1       255 2.70385E-03-1.81171E-07-6.61744E-24
 -1       256 2.70352E-03-7.25726E-06 0.00000E+00
 -1       257 2.70316E-03-1.77604E-05 0.00000E+00
 -1       258 2.70276E-03-3.17652E-05-3.30872E-24
 -1       259 2.70231E-03-4.88139E-05 1.32349E-23
 -1       260 2.70182E-03-6.84096E-05-6.61744E-24
 -1       261 2.70130E-03-8.96677E-05-1.32349E-23
 -1       262 2.70076E-03-1.11683E-04 0.00000E+00
 -1       263 2.70022E-03-1.33436E-04 0.00000E+00
 -1       264 2.69971E-03-1.53907E-04 0.00000E+00
 -1       265 2.69923E-03-1.72277E-04 0.00000E+00
 -1       266 2.70329E-03-4.17848E-07 0.00000E+00
 -1       267 2.70119E-03-4.21173E-07-8.27181E-25
 -1       268 2.69908E-03-4.24903E-07 8.27181E-25
 -1       269 2.69698E-03-4.27436E-07 2.06795E-25
 -1       270 2.69488E-03-4.29942E-07-2.06795E-25
 -1       271 2.70451E-03 1.40890E-07 1.32349E-23
 -1       272 2.70457E-03-1.87440E-06 0.00000E+00
 -1       273 2.70553E-03-6.30392E-06 0.00000E+00
 -1       274 2.70732E-03-1.29858E-05 0.00000E+00
 -1       275 2.70986E-03-2.17376E-05 0.00000E+00
 -1       276 2.71309E-03-3.23617E-05 1.32349E-23
 -1       277 2.71692E-03-4.46447E-05 0.00000E+00
 -1       278 2.72127E-03-5.83601E-05 0.00000E+00
 -1       279 2.72604E-03-7.32698E-05 2.64698E-23
 -1       280 2.73116E-03-8.91259E-05-1.32349E-23
 -1       281 2.73652E-03-1.05673E-04 1.32349E-23
 -1       282 2.74204E-03-1.22650E-04 0.00000E+00
 -1       283 2.74762E-03-1.39792E-04-1.32349E-23
 -1       284 2.75316E-03-1.56833E-04 0.00000E+00
 -1       285 2.75857E-03-1.73508E-04 0.00000E+00
 -1       301 2.71060E-03-1.88084E-04-6.61744E-24
 -1       302 2.72078E-03-1.88373E-04 3.30872E-24
 -1       303 2.73025E-03-1.88651E-04 0.00000E+00
 -1       304 2.73995E-03-1.88931E-04 6.61744E-24
 -1       305 2.75081E-03-1.89224E-04 0.00000E+00
 -1       306 2.73668E-03-3.42356E-04 0.00000E+00
 -1       307 2.80055E-03-7.56534E-04-5.29396E-23
 -1       308 2.84720E-03-1.36202E-03 0.00000E+00
 -1       309 2.87099E-03-2.06275E-03 0.00000E+00
 -1       310 2.90226E-03-2.73291E-03-1.05879E-22
 -1       311 2.96173E-03-3.24940E-03 0.00000E+00
 -1       312 3.01957E-03-3.53158E-03 1.05879E-22
 -1       313 3.01486E-03-3.54160E-03-5.29396E-23
 -1       314 2.87370E-03-3.29155E-03 0.00000E+00
 -1       315 2.55519E-03-2.84599E-03 0.00000E+00
 -1       316 2.07771E-03-2.28158E-03 0.00000E+00
 -1       317 1.50727E-03-1.66767E-03 5.29396E-23
 -1       318 9.58259E-04-1.06485E-03 0.00000E+00
 -1       319 5.38733E-04-5.38114E-04 0.00000E+00
 -1       320 2.92498E-04-1.61612E-04 1.05879E-22
 -1       336 2.99748E-04-4.08273E-06 0.00000E+00
 -1       337 2.86040E-04-4.77000E-06 6.61744E-24
 -1       338 2.70313E-04-5.48534E-06-1.32349E-23
 -1       339 2.52642E-04-6.22958E-06 0.00000E+00
 -1       340 2.33107E-04-7.00720E-06-1.32349E-23
 -1       406 1.79235E-04 9.43631E-07 1.65436E-24
 -1       407 1.80024E-04 1.07816E-06 1.24077E-24
 -1       408 1.80918E-04 1.21251E-06-1.65436E-24
 -1       409 1.81917E-04 1.34653E-06 1.44757E-24
 -1       410 1.83021E-04 1.47993E-06-2.89513E-24
 -1       521 2.80225E-03-3.53454E-04 0.00000E+00
 -1       522 2.86434E-03-7.87931E-04 0.00000E+00
 -1       523 2.90452E-03-1.42130E-03-1.05879E-22
 -1       524 2.91906E-03-2.15072E-03 0.00000E+00
 -1       525 2.94239E-03-2.84755E-03 0.00000E+00
 -1       526 2.99829E-03-3.38612E-03-5.29396E-23
 -1       527 3.05571E-03-3.67889E-03-2.11758E-22
 -1       528 3.04868E-03-3.68710E-03 5.29396E-23
 -1       529 2.89546E-03-3.42284E-03-2.11758E-22
 -1       530 2.55286E-03-2.95863E-03 5.29396E-23
 -1       531 2.04011E-03-2.37497E-03 1.05879E-22
 -1       532 1.42967E-03-1.74378E-03 0.00000E+00
 -1       533 8.41343E-04-1.12303E-03 1.05879E-22
 -1       534 3.88373E-04-5.75368E-04-5.29396E-23
 -1       535 1.20855E-04-1.79286E-04 2.11758E-22
 -1       536 2.11119E-04 2.76856E-05 0.00000E+00
 -1       537 2.09198E-04 8.97911E-05 1.65436E-24
 -1       538 2.06121E-04 1.69265E-04 0.00000E+00
 -1       539 2.02392E-04 2.56848E-04 0.00000E+00
 -1       540 1.99048E-04 3.39605E-04 0.00000E+00
 -1       541 1.96969E-04 4.04604E-04 0.00000E+00
 -1       542 1.96083E-04 4.45685E-04-1.65436E-24
 -1       543 1.95950E-04 4.56740E-04-4.13590E-25
 -1       544 1.95719E-04 4.38443E-04 1.65436E-24
 -1       545 1.94591E-04 3.91568E-04 4.13590E-25
 -1       546 1.92351E-04 3.23935E-04 0.00000E+00
 -1       547 1.89189E-04 2.43402E-04 4.13590E-25
 -1       548 1.86055E-04 1.63246E-04-8.27181E-25
 -1       549 1.83887E-04 9.67463E-05 2.06795E-25
 -1       550 1.82833E-04 5.14877E-05 0.00000E+00
 -1       551 1.86540E-04-8.37484E-06 0.00000E+00
 -1       552 1.58037E-04-9.02669E-06 0.00000E+00
 -1       553 1.27236E-04-9.74076E-06-6.61744E-24
 -1       554 9.50979E-05-1.04959E-05-3.30872E-24
 -1       555 6.25821E-05-1.12646E-05 1.32349E-23
 -1       556 2.04124E-04 1.18172E-05 0.00000E+00
 -1       557 1.97914E-04 2.77452E-05 0.00000E+00
 -1       558 1.93038E-04 4.02671E-05 0.00000E+00
 -1       559 1.89364E-04 4.96919E-05 0.00000E+00
 -1       560 1.86763E-04 5.63291E-05 0.00000E+00
 -1       561 1.85107E-04 6.04907E-05 0.00000E+00
 -1       562 1.84270E-04 6.24900E-05 0.00000E+00
 -1       563 1.84131E-04 6.26413E-05 0.00000E+00
 -1       564 1.84566E-04 6.12596E-05 0.00000E+00
 -1       565 1.85456E-04 5.86608E-05 0.00000E+00
 -1       566 1.86682E-04 5.51612E-05 0.00000E+00
 -1       567 1.88125E-04 5.10775E-05 0.00000E+00
 -1       568 1.89667E-04 4.67268E-05 0.00000E+00
 -1       569 1.91191E-04 4.24260E-05 0.00000E+00
 -1       570 1.92579E-04 3.84920E-05 0.00000E+00
 -1       571 1.82728E-04 3.28396E-05 1.65436E-24
 -1       572 1.82827E-04 3.06015E-05-4.13590E-25
 -1       573 1.82926E-04 2.83145E-05 1.65436E-24
 -1       574 1.83026E-04 2.59949E-05 8.27181E-25
 -1       575 1.83126E-04 2.36592E-05-3.30872E-24
 -1       576 1.83226E-04 2.13238E-05 1.65436E-24
 -1       577 1.83325E-04 1.90053E-05 0.00000E+00
 -1       578 1.83425E-04 1.67200E-05 0.00000E+00
 -1       579 1.83525E-04 1.44845E-05 0.00000E+00
 -1       580 1.83625E-04 1.23153E-05 0.00000E+00
 -1       581 1.83726E-04 1.02289E-05-6.61744E-24
 -1       582 1.83826E-04 8.24177E-06 0.00000E+00
 -1       583 1.83927E-04 6.37037E-06 6.61744E-24
 -1       584 1.84028E-04 4.63099E-06-3.30872E-24
 -1       585 1.84129E-04 3.03977E-06-6.61744E-24
 -1       586 1.84438E-04 3.50527E-05 0.00000E+00
 -1       587 1.86205E-04 3.50917E-05 4.13590E-25
 -1       588 1.87974E-04 3.51303E-05 0.00000E+00
 -1       589 1.89787E-04 3.51682E-05 0.00000E+00
 -1       590 1.91687E-04 3.52048E-05 0.00000E+00
 -1       591 1.83378E-04 3.29342E-05-1.03398E-25
 -1       592 1.84126E-04 3.08375E-05 2.06795E-25
 -1       593 1.84879E-04 2.87287E-05 8.27181E-25
 -1       594 1.85635E-04 2.66123E-05 0.00000E+00
 -1       595 1.86391E-04 2.44927E-05 0.00000E+00
 -1       596 1.87147E-04 2.23743E-05 0.00000E+00
 -1       597 1.87901E-04 2.02616E-05 8.27181E-25
 -1       598 1.88651E-04 1.81589E-05 0.00000E+00
 -1       599 1.89395E-04 1.60708E-05 0.00000E+00
 -1       600 1.90133E-04 1.40015E-05 0.00000E+00
 -1       601 1.90861E-04 1.19556E-05-8.27181E-25
 -1       602 1.91580E-04 9.93742E-06 0.00000E+00
 -1       603 1.92287E-04 7.95136E-06 8.27181E-25
 -1       604 1.92980E-04 6.00198E-06-7.75482E-26
 -1       605 1.93659E-04 4.09358E-06 0.00000E+00
 -1       606 1.84243E-04 4.15875E-07 0.00000E+00
 -1       607 1.84252E-04-6.95087E-07 0.00000E+00
 -1       608 1.84261E-04-1.72639E-06 3.30872E-24
 -1       609 1.84269E-04-2.68362E-06 0.00000E+00
 -1       610 1.84277E-04-3.57246E-06 0.00000E+00
 -1       611 1.84285E-04-4.39861E-06 0.00000E+00
 -1       612 1.84294E-04-5.16778E-06 0.00000E+00
 -1       613 1.84302E-04-5.88571E-06 0.00000E+00
 -1       614 1.84310E-04-6.55814E-06 0.00000E+00
 -1       615 1.84318E-04-7.19077E-06 0.00000E+00
 -1       616 1.84327E-04-7.78936E-06 0.00000E+00
 -1       617 1.84335E-04-8.35963E-06 0.00000E+00
 -1       618 1.84343E-04-8.90729E-06 0.00000E+00
 -1       619 1.84351E-04-9.43810E-06 0.00000E+00
 -1       620 1.84359E-04-9.95777E-06 0.00000E+00
 -1       621 1.85621E-04 1.71544E-06-3.30872E-24
 -1       622 1.87173E-04 1.81964E-06-1.65436E-24
 -1       623 1.88854E-04 1.92362E-06-3.30872E-24
 -1       624 1.90629E-04 2.02726E-06-8.27181E-25
 -1       625 1.92464E-04 2.13061E-06 3.30872E-24
 -1       626 1.84790E-04 4.52223E-07 6.61744E-24
 -1       627 1.85329E-04-6.45203E-07 0.00000E+00
 -1       628 1.85847E-04-1.68862E-06 0.00000E+00
 -1       629 1.86349E-04-2.68612E-06 0.00000E+00
 -1       630 1.86836E-04-3.64587E-06 3.30872E-24
 -1       631 1.87312E-04-4.57599E-06 0.00000E+00
 -1       632 1.87781E-04-5.48465E-06 0.00000E+00
 -1       633 1.88244E-04-6.37999E-06-1.65436E-24
 -1       634 1.88705E-04-7.27018E-06 0.00000E+00
 -1       635 1.89168E-04-8.16334E-06-1.65436E-24
 -1       636 1.89634E-04-9.06766E-06 0.00000E+00
 -1       637 1.90108E-04-9.99127E-06 0.00000E+00
 -1       638 1.90592E-04-1.09423E-05 1.65436E-24
 -1       639 1.91089E-04-1.19290E-05 1.65436E-24
 -1       640 1.91602E-04-1.29595E-05 0.00000E+00
 -1       656 1.85113E-04-1.10523E-05-6.61744E-24
 -1       657 1.86277E-04-1.16561E-05 6.61744E-24
 -1       658 1.87722E-04-1.22586E-05-1.32349E-23
 -1       659 1.89301E-04-1.28607E-05-6.61744E-24
 -1       660 1.90832E-04-1.34646E-05-6.61744E-24
 -1       661 1.84646E-04-1.10318E-05 0.00000E+00
 -1       662 1.84963E-04-1.16844E-05 0.00000E+00
 -1       663 1.85312E-04-1.24244E-05-1.65436E-24
 -1       664 1.85692E-04-1.32451E-05 0.00000E+00
 -1       665 1.86100E-04-1.41407E-05 1.65436E-24
 -1       666 1.86534E-04-1.51051E-05-8.27181E-25
 -1       667 1.86992E-04-1.61325E-05 0.00000E+00
 -1       668 1.87471E-04-1.72173E-05 8.27181E-25
 -1       669 1.87969E-04-1.83540E-05-1.65436E-24
 -1       670 1.88485E-04-1.95371E-05 0.00000E+00
 -1       671 1.89016E-04-2.07613E-05 0.00000E+00
 -1       672 1.89560E-04-2.20214E-05-8.27181E-25
 -1       673 1.90116E-04-2.33123E-05 1.65436E-24
 -1       674 1.90681E-04-2.46291E-05 4.13590E-25
 -1       675 1.91253E-04-2.59665E-05 2.06795E-25
 -1       676 1.84866E-04-2.68031E-05-3.30872E-24
 -1       677 1.86263E-04-2.69075E-05 0.00000E+00
 -1       678 1.87658E-04-2.70117E-05-3.30872E-24
 -1       679 1.89051E-04-2.71157E-05 1.65436E-24
 -1       680 1.90441E-04-2.72196E-05 0.00000E+00
 -1       771 1.86776E-05 1.47226E-05 0.00000E+00
 -1       772 8.61021E-06 3.67034E-05 0.00000E+00
 -1       773 3.51128E-07 5.41331E-05-5.29396E-23
 -1       774-6.22417E-06 6.72699E-05-2.64698E-23
 -1       775-1.12375E-05 7.63823E-05-5.29396E-23
 -1       776-1.48155E-05 8.17559E-05 0.00000E+00
 -1       777-1.70848E-05 8.36860E-05 0.00000E+00
 -1       778-1.81744E-05 8.24821E-05-5.29396E-23
 -1       779-1.82127E-05 7.84622E-05 5.29396E-23
 -1       780-1.73303E-05 7.19556E-05 2.64698E-23
 -1       781-1.56566E-05 6.32984E-05-5.29396E-23
 -1       782-1.33228E-05 5.28357E-05 0.00000E+00
 -1       783-1.04590E-05 4.09171E-05-5.29396E-23
 -1       784-7.19665E-06 2.78986E-05 0.00000E+00
 -1       785-3.66625E-06 1.41391E-05 5.29396E-23
 -1       786 1.93749E-04 3.29435E-05-1.03398E-25
 -1       787 1.93786E-04 3.06995E-05 0.00000E+00
 -1       788 1.93823E-04 2.84975E-05-8.27181E-25
 -1       789 1.93861E-04 2.63298E-05-4.13590E-25
 -1       790 1.93899E-04 2.41917E-05 0.00000E+00
 -1       791 1.93938E-04 2.20788E-05 8.27181E-25
 -1       792 1.93976E-04 1.99888E-05 0.00000E+00
 -1       793 1.94014E-04 1.79194E-05-8.27181E-25
 -1       794 1.94053E-04 1.58703E-05-1.65436E-24
 -1       795 1.94091E-04 1.38413E-05 0.00000E+00
 -1       796 1.94130E-04 1.18339E-05 1.65436E-24
 -1       797 1.94169E-04 9.84965E-06 0.00000E+00
 -1       798 1.94207E-04 7.89241E-06 1.65436E-24
 -1       799 1.94246E-04 5.96594E-06 0.00000E+00
 -1       800 1.94285E-04 4.07682E-06-1.65436E-24
 -1       801 1.47478E-04 3.16890E-05 2.64698E-23
 -1       802 7.70451E-06 1.97687E-05 2.64698E-23
 -1       803-1.11428E-04 1.00115E-05 0.00000E+00
 -1       804-9.82549E-05 6.97636E-06 2.64698E-23
 -1       805-3.23491E-05 2.72374E-06-5.29396E-23
 -1       806 1.94459E-04 3.28752E-05 3.30872E-24
 -1       807 1.95188E-04 3.05399E-05 1.65436E-24
 -1       808 1.95905E-04 2.82367E-05-3.30872E-24
 -1       809 1.96608E-04 2.59697E-05 0.00000E+00
 -1       810 1.97296E-04 2.37427E-05-3.30872E-24
 -1       811 1.97968E-04 2.15597E-05 1.65436E-24
 -1       812 1.98622E-04 1.94244E-05-3.30872E-24
 -1       813 1.99256E-04 1.73408E-05-1.65436E-24
 -1       814 1.99870E-04 1.53126E-05 0.00000E+00
 -1       815 2.00462E-04 1.33437E-05-8.27181E-25
 -1       816 2.01030E-04 1.14379E-05-1.65436E-24
 -1       817 2.01573E-04 9.59894E-06-1.65436E-24
 -1       818 2.02090E-04 7.83070E-06-3.30872E-24
 -1       819 2.02579E-04 6.13695E-06 0.00000E+00
 -1       820 2.03040E-04 4.52143E-06-1.65436E-24
 -1       821 1.94196E-04-1.45548E-07 1.65436E-24
 -1       822 1.94056E-04-3.62607E-06 1.65436E-24
 -1       823 1.93914E-04-7.79619E-06 0.00000E+00
 -1       824 1.93770E-04-1.22380E-05 0.00000E+00
 -1       825 1.93626E-04-1.64603E-05 3.30872E-24
 -1       826 1.93485E-04-1.99733E-05 0.00000E+00
 -1       827 1.93347E-04-2.24797E-05-3.30872E-24
 -1       828 1.93210E-04-2.36887E-05-1.65436E-24
 -1       829 1.93075E-04-2.36618E-05-3.30872E-24
 -1       830 1.92939E-04-2.24680E-05-1.65436E-24
 -1       831 1.92802E-04-2.04933E-05-3.30872E-24
 -1       832 1.92664E-04-1.81287E-05 0.00000E+00
 -1       833 1.92527E-04-1.58710E-05 3.30872E-24
 -1       834 1.92392E-04-1.42164E-05 0.00000E+00
 -1       835 1.92258E-04-1.34977E-05 0.00000E+00
 -1       836 1.96060E-04 2.35714E-06 0.00000E+00
 -1       837 1.97671E-04 2.48567E-06 0.00000E+00
 -1       838 1.99189E-04 2.61415E-06 0.00000E+00
 -1       839 2.00642E-04 2.74192E-06 8.27181E-25
 -1       840 2.02059E-04 2.86954E-06 0.00000E+00
 -1       856 1.92116E-04-1.51473E-05 0.00000E+00
 -1       857 1.92098E-04-1.61168E-05-2.58494E-26
 -1       858 1.92079E-04-1.69718E-05 0.00000E+00
 -1       859 1.92060E-04-1.77332E-05 0.00000E+00
 -1       860 1.92041E-04-1.84225E-05 0.00000E+00
 -1       861 1.92022E-04-1.90608E-05 2.06795E-25
 -1       862 1.92003E-04-1.96693E-05 4.13590E-25
 -1       863 1.91984E-04-2.02695E-05 0.00000E+00
 -1       864 1.91965E-04-2.08826E-05 0.00000E+00
 -1       865 1.91946E-04-2.15300E-05 0.00000E+00
 -1       866 1.91926E-04-2.22328E-05 8.27181E-25
 -1       867 1.91907E-04-2.30125E-05 4.13590E-25
 -1       868 1.91888E-04-2.38901E-05 0.00000E+00
 -1       869 1.91868E-04-2.48868E-05 4.13590E-25
 -1       870 1.91848E-04-2.60235E-05 0.00000E+00
 -1       871 1.93526E-04-1.40472E-05 8.27181E-25
 -1       872 1.95068E-04-1.40557E-05 0.00000E+00
 -1       873 1.96690E-04-1.40649E-05 0.00000E+00
 -1       874 1.98322E-04-1.40748E-05-2.58494E-26
 -1       875 1.99897E-04-1.40853E-05-1.03398E-24
 -1       876 1.92674E-04-1.51326E-05 0.00000E+00
 -1       877 1.93193E-04-1.61564E-05 0.00000E+00
 -1       878 1.93691E-04-1.71213E-05-3.30872E-24
 -1       879 1.94170E-04-1.80348E-05 0.00000E+00
 -1       880 1.94633E-04-1.89043E-05 3.30872E-24
 -1       881 1.95082E-04-1.97370E-05 0.00000E+00
 -1       882 1.95520E-04-2.05405E-05 0.00000E+00
 -1       883 1.95950E-04-2.13220E-05 0.00000E+00
 -1       884 1.96374E-04-2.20888E-05 0.00000E+00
 -1       885 1.96795E-04-2.28483E-05 1.65436E-24
 -1       886 1.97217E-04-2.36077E-05 3.30872E-24
 -1       887 1.97641E-04-2.43745E-05 1.65436E-24
 -1       888 1.98070E-04-2.51560E-05-3.30872E-24
 -1       889 1.98507E-04-2.59597E-05 0.00000E+00
 -1       890 1.98955E-04-2.67928E-05 0.00000E+00
 -1       891 1.93233E-04-2.73791E-05 0.00000E+00
 -1       892 1.94615E-04-2.74369E-05 0.00000E+00
 -1       893 1.95949E-04-2.74946E-05 0.00000E+00
 -1       894 1.97209E-04-2.75521E-05 0.00000E+00
 -1       895 1.98371E-04-2.76093E-05 4.13590E-25
 -1       956 2.03341E-04 1.62906E-06-1.65436E-24
 -1       957 2.03208E-04 3.62036E-07-8.27181E-25
 -1       958 2.03075E-04-8.24023E-07 0.00000E+00
 -1       959 2.02942E-04-1.94053E-06 1.65436E-24
 -1       960 2.02808E-04-2.99896E-06 0.00000E+00
 -1       961 2.02675E-04-4.01080E-06 0.00000E+00
 -1       962 2.02542E-04-4.98754E-06 3.30872E-24
 -1       963 2.02409E-04-5.94072E-06 1.65436E-24
 -1       964 2.02275E-04-6.88186E-06-3.30872E-24
 -1       965 2.02142E-04-7.82247E-06-1.65436E-24
 -1       966 2.02009E-04-8.77408E-06 0.00000E+00
 -1       967 2.01876E-04-9.74822E-06 0.00000E+00
 -1       968 2.01743E-04-1.07564E-05-6.61744E-24
 -1       969 2.01610E-04-1.18100E-05 0.00000E+00
 -1       970 2.01477E-04-1.29207E-05 0.00000E+00
 -1       971 2.01226E-04-1.52782E-05 0.00000E+00
 -1       972 2.01104E-04-1.63627E-05 1.65436E-24
 -1       973 2.00983E-04-1.73632E-05 0.00000E+00
 -1       974 2.00861E-04-1.82906E-05-1.65436E-24
 -1       975 2.00739E-04-1.91556E-05 3.30872E-24
 -1       976 2.00618E-04-1.99691E-05 0.00000E+00
 -1       977 2.00496E-04-2.07420E-05 0.00000E+00
 -1       978 2.00374E-04-2.14851E-05 0.00000E+00
 -1       979 2.00253E-04-2.22094E-05 3.30872E-24
 -1       980 2.00131E-04-2.29256E-05 1.65436E-24
 -1       981 2.00009E-04-2.36448E-05 0.00000E+00
 -1       982 1.99888E-04-2.43778E-05-1.65436E-24
 -1       983 1.99767E-04-2.51354E-05 3.30872E-24
 -1       984 1.99646E-04-2.59286E-05-1.65436E-24
 -1       985 1.99525E-04-2.67681E-05 0.00000E+00
 -3
    1PSTEP                        46          23           1          
  100CL  123 6.63153E-01         409                     0   23           1
 -4  FORC        4    1
 -5  F1          1    2    1    0
 -5  F2          1    2    2    0
 -5  F3          1    2    3    0
 -5  ALL         1    2    0    0    1ALL
 -1         1 3.45473E-04 0.00000E+00 0.00000E+00
 -1         2 0.00000E+00 0.00000E+00 0.00000E+00
 -1         3 0.00000E+00 0.00000E+00 0.00000E+00
 -1         5 0.00000E+00 0.00000E+00 0.00000E+00
 -1         8 1.99062E-05-1.71288E-05 0.00000E+00
 -1         9-9.32219E-04 4.59217E-05 0.00000E+00
 -1        10-2.92643E-09 1.72730E-08 0.00000E+00
 -1        12 0.00000E+00 0.00000E+00 0.00000E+00
 -1        15 0.00000E+00 0.00000E+00 0.00000E+00
 -1        16-1.34239E-04-1.32839E-03 0.00000E+00
 -1        17-2.04677E-05 1.14282E-05 0.00000E+00
 -1        18 1.96725E-07 1.57392E-07 0.00000E+00
 -1        19 5.39550E-08-1.23154E-08 0.00000E+00
 -1        20-8.92836E-08 9.91833E-09 0.00000E+00
 -1        21 0.00000E+00 3.55140E-08 0.00000E+00
 -1        24-5.51654E-05 1.77986E-05 0.00000E+00
 -1        25 1.03387E-07-9.73272E-08 0.00000E+00
 -1        26-5.77957E-08-4.12037E-08 0.00000E+00
 -1        27-2.97378E-08 5.66730E-08 0.00000E+00
 -1        28-2.76852E-08 1.68951E-08 0.00000E+00
 -1        32 0.00000E+00 0.00000E+00 0.00000E+00
 -1        33-3.86351E-09-7.26167E-08 0.00000E+00
 -1        34-2.11386E-08-7.49170E-08 0.00000E+00
 -1        35-1.25648E-07-8.07686E-08 0.00000E+00
 -1        51 0.00000E+00 0.00000E+00 0.00000E+00
 -1        52 0.00000E+00 0.00000E+00 0.00000E+00
 -1        53 0.00000E+00 0.00000E+00 0.00000E+00
 -1        54 0.00000E+00 0.00000E+00 0.00000E+00
 -1        55 0.00000E+00 0.00000E+00 0.00000E+00
 -1        56 0.00000E+00 0.00000E+00 0.00000E+00
 -1        57 0.00000E+00 0.00000E+00 0.00000E+00
 -1        58 0.00000E+00 0.00000E+00 0.00000E+00
 -1        59 0.00000E+00 0.00000E+00 0.00000E+00
 -1        60 0.00000E+00 0.00000E+00 0.00000E+00
 -1        61 0.00000E+00 0.00000E+00 0.00000E+00
 -1        62 0.00000E+00 0.00000E+00 0.00000E+00
 -1        63 0.00000E+00 0.00000E+00 0.00000E+00
 -1        64 0.00000E+00 0.00000E+00 0.00000E+00
 -1        65 0.00000E+00 0.00000E+00 0.00000E+00
 -1        66 0.00000E+00 0.00000E+00 0.00000E+00
 -1        67 0.00000E+00 0.00000E+00 0.00000E+00
 -1        68 0.00000E+00 0.00000E+00 0.00000E+00
 -1        69 0.00000E+00 0.00000E+00 0.00000E+00
 -1        70 0.00000E+00 0.00000E+00 0.00000E+00
 -1        86 0.00000E+00 0.00000E+00 0.00000E+00
 -1        87 0.00000E+00 0.00000E+00 0.00000E+00
 -1        88 0.00000E+00 0.00000E+00 0.00000E+00
 -1        89 0.00000E+00 0.00000E+00 0.00000E+00
 -1        90 0.00000E+00 0.00000E+00 0.00000E+00
 -1       121 0.00000E+00 0.00000E+00 0.00000E+00
 -1       122 0.00000E+00 0.00000E+00 0.00000E+00
 -1       123 0.00000E+00 0.00000E+00 0.00000E+00
 -1       124 0.00000E+00 0.00000E+00 0.00000E+00
 -1       125 0.00000E+00 0.00000E+00 0.00000E+00
 -1       191 0.00000E+00 0.00000E+00 0.00000E+00
 -1       192 0.00000E+00 0.00000E+00 0.00000E+00
 -1       193 0.00000E+00 0.00000E+00 0.00000E+00
 -1       194 0.00000E+00 0.00000E+00 0.00000E+00
 -1       195 0.00000E+00 0.00000E+00 0.00000E+00
 -1       251 0.00000E+00 0.00000E+00 0.00000E+00
 -1       252 0.00000E+00 0.00000E+00 0.00000E+00
 -1       253 0.00000E+00 0.00000E+00 0.00000E+00
 -1       254 0.00000E+00 0.00000E+00 0.00000E+00
 -1       255 0.00000E+00 0.00000E+00 0.00000E+00
 -1       256 0.00000E+00 0.00000E+00 0.00000E+00
 -1       257 0.00000E+00 0.00000E+00 0.00000E+00
 -1       258 0.00000E+00 0.00000E+00 0.00000E+00
 -1       259 0.00000E+00 0.00000E+00 0.00000E+00
 -1       260 0.00000E+00 0.00000E+00 0.00000E+00
 -1       261 0.00000E+00 0.00000E+00 0.00000E+00
 -1       262 0.00000E+00 0.00000E+00 0.00000E+00
 -1       263 0.00000E+00 0.00000E+00 0.00000E+00
 -1       264 0.00000E+00 0.00000E+00 0.00000E+00
 -1       265 0.00000E+00 0.00000E+00 0.00000E+00
 -1       266 0.00000E+00 0.00000E+00 0.00000E+00
 -1       267 0.00000E+00 0.00000E+00 0.00000E+00
 -1       268 0.00000E+00 0.00000E+00 0.00000E+00
 -1       269 0.00000E+00 0.00000E+00 0.00000E+00
 -1       270 0.00000E+00 0.00000E+00 0.00000E+00
 -1       271 0.00000E+00 0.00000E+00 0.00000E+00
 -1       272 0.00000E+00 0.00000E+00 0.00000E+00
 -1       273 0.00000E+00 0.00000E+00 0.00000E+00
 -1       274 0.00000E+00 0.00000E+00 0.00000E+00
 -1       275 0.00000E+00 0.00000E+00 0.00000E+00
 -1       276 0.00000E+00 0.00000E+00 0.00000E+00
 -1       277 0.00000E+00 0.00000E+00 0.00000E+00
 -1       278 0.00000E+00 0.00000E+00 0.00000E+00
 -1       279 0.00000E+00 0.00000E+00 0.00000E+00
 -1       280 0.00000E+00 0.00000E+00 0.00000E+00
 -1       281 0.00000E+00 0.00000E+00 0.00000E+00
 -1       282 0.00000E+00 0.00000E+00 0.00000E+00
 -1       283 0.00000E+00 0.00000E+00 0.00000E+00
 -1       284 0.00000E+00 0.00000E+00 0.00000E+00
 -1       285 0.00000E+00 0.00000E+00 0.00000E+00
 -1       301 0.00000E+00 0.00000E+00 0.00000E+00
 -1       302 0.00000E+00 0.00000E+00 0.00000E+00
 -1       303 0.00000E+00 0.00000E+00 0.00000E+00
 -1       304 0.00000E+00 0.00000E+00 0.00000E+00
 -1       305 0.00000E+00 0.00000E+00 0.00000E+00
 -1       306 0.00000E+00 0.00000E+00 0.00000E+00
 -1       307 0.00000E+00 0.00000E+00 0.00000E+00
 -1       308 0.00000E+00 0.00000E+00 0.00000E+00
 -1       309 0.00000E+00 0.00000E+00 0.00000E+00
 -1       310 0.00000E+00 0.00000E+00 0.00000E+00
 -1       311 0.00000E+00 0.00000E+00 0.00000E+00
 -1       312 0.00000E+00 0.00000E+00 0.00000E+00
 -1       313 0.00000E+00 0.00000E+00 0.00000E+00
 -1       314 0.00000E+00 0.00000E+00 0.00000E+00
 -1       315 0.00000E+00 0.00000E+00 0.00000E+00
 -1       316 0.00000E+00 0.00000E+00 0.00000E+00
 -1       317 0.00000E+00 0.00000E+00 0.00000E+00
 -1       318 0.00000E+00 0.00000E+00 0.00000E+00
 -1       319 0.00000E+00 0.00000E+00 0.00000E+00
 -1       320 0.00000E+00 0.00000E+00 0.00000E+00
 -1       336 0.00000E+00 0.00000E+00 0.00000E+00
 -1       337 0.00000E+00 0.00000E+00 0.00000E+00
 -1       338 0.00000E+00 0.00000E+00 0.00000E+00
 -1       339 0.00000E+00 0.00000E+00 0.00000E+00
 -1       340 0.00000E+00 0.00000E+00 0.00000E+00
 -1       406 0.00000E+00 0.00000E+00 0.00000E+00
 -1       407 0.00000E+00 0.00000E+00 0.00000E+00
 -1       408 0.00000E+00 0.00000E+00 0.00000E+00
 -1       409 0.00000E+00 0.00000E+00 0.00000E+00
 -1       410 0.00000E+00 0.00000E+00 0.00000E+00
 -1       521 0.00000E+00 0.00000E+00 0.00000E+00
 -1       522 0.00000E+00 0.00000E+00 0.00000E+00
 -1       523 0.00000E+00 0.00000E+00 0.00000E+00
 -1       524 0.00000E+00 0.00000E+00 0.00000E+00
 -1       525 0.00000E+00 0.00000E+00 0.00000E+00
 -1       526 0.00000E+00 0.00000E+00 0.00000E+00
 -1       527 0.00000E+00 0.00000E+00 0.00000E+00
 -1       528 0.00000E+00 0.00000E+00 0.00000E+00
 -1       529 0.00000E+00 0.00000E+00 0.00000E+00
 -1       530 0.00000E+00 0.00000E+00 0.00000E+00
 -1       531 0.00000E+00 0.00000E+00 0.00000E+00
 -1       532 0.00000E+00 0.00000E+00 0.00000E+00
 -1       533 0.00000E+00 0.00000E+00 0.00000E+00
 -1       534 0.00000E+00 0.00000E+00 0.00000E+00
 -1       535 0.00000E+00 0.00000E+00 0.00000E+00
 -1       536 0.00000E+00 0.00000E+00 0.00000E+00
 -1       537 0.00000E+00 0.00000E+00 0.00000E+00
 -1       538 0.00000E+00 0.00000E+00 0.00000E+00
 -1       539 0.00000E+00 0.00000E+00 0.00000E+00
 -1       540 0.00000E+00 0.00000E+00 0.00000E+00
 -1       541 0.00000E+00 0.00000E+00 0.00000E+00
 -1       542 0.00000E+00 0.00000E+00 0.00000E+00
 -1       543 0.00000E+00 0.00000E+00 0.00000E+00
 -1       544 0.00000E+00 0.00000E+00 0.00000E+00
 -1       545 0.00000E+00 0.00000E+00 0.00000E+00
 -1       546 0.00000E+00 0.00000E+00 0.00000E+00
 -1       547 0.00000E+00 0.00000E+00 0.00000E+00
 -1       548 0.00000E+00 0.00000E+00 0.00000E+00
 -1       549 0.00000E+00 0.00000E+00 0.00000E+00
 -1       550 0.00000E+00 0.00000E+00 0.00000E+00
 -1       551 0.00000E+00 0.00000E+00 0.00000E+00
 -1       552 0.00000E+00 0.00000E+00 0.00000E+00
 -1       553 0.00000E+00 0.00000E+00 0.00000E+00
 -1       554 0.00000E+00 0.00000E+00 0.00000E+00
 -1       555 0.00000E+00 0.00000E+00 0.00000E+00
 -1       556 0.00000E+00 0.00000E+00 0.00000E+00
 -1       557 0.00000E+00 0.00000E+00 0.00000E+00
 -1       558 0.00000E+00 0.00000E+00 0.00000E+00
 -1       559 0.00000E+00 0.00000E+00 0.00000E+00
 -1       560 0.00000E+00 0.00000E+00 0.00000E+00
 -1       561 0.00000E+00 0.00000E+00 0.00000E+00
 -1       562 0.00000E+00 0.00000E+00 0.00000E+00
 -1       563 0.00000E+00 0.00000E+00 0.00000E+00
 -1       564 0.00000E+00 0.00000E+00 0.00000E+00
 -1       565 0.00000E+00 0.00000E+00 0.00000E+00
 -1       566 0.00000E+00 0.00000E+00 0.00000E+00
 -1       567 0.00000E+00 0.00000E+00 0.00000E+00
 -1       568 0.00000E+00 0.00000E+00 0.00000E+00
 -1       569 0.00000E+00 0.00000E+00 0.00000E+00
 -1       570 0.00000E+00 0.00000E+00 0.00000E+00
 -1       571 0.00000E+00 0.00000E+00 0.00000E+00
 -1       572 0.00000E+00 0.00000E+00 0.00000E+00
 -1       573 0.00000E+00 0.00000E+00 0.00000E+00
 -1       574 0.00000E+00 0.00000E+00 0.00000E+00
 -1       575 0.00000E+00 0.00000E+00 0.00000E+00
 -1       576 0.00000E+00 0.00000E+00 0.00000E+00
 -1       577 0.00000E+00 0.00000E+00 0.00000E+00
 -1       578 0.00000E+00 0.00000E+00 0.00000E+00
 -1       579 0.00000E+00 0.00000E+00 0.00000E+00
 -1       580 0.00000E+00 0.00000E+00 0.00000E+00
 -1       581 0.00000E+00 0.00000E+00 0.00000E+00
 -1       582 0.00000E+00 0.00000E+00 0.00000E+00
 -1       583 0.00000E+00 0.00000E+00 0.00000E+00
 -1       584 0.00000E+00 0.00000E+00 0.00000E+00
 -1       585 0.00000E+00 0.00000E+00 0.00000E+00
 -1       586 0.00000E+00 0.00000E+00 0.00000E+00
 -1       587 0.00000E+00 0.00000E+00 0.00000E+00
 -1       588 0.00000E+00 0.00000E+00 0.00000E+00
 -1       589 0.00000E+00 0.00000E+00 0.00000E+00
 -1       590 0.00000E+00 0.00000E+00 0.00000E+00
 -1       591 0.00000E+00 0.00000E+00 0.00000E+00
 -1       592 0.00000E+00 0.00000E+00 0.00000E+00
 -1       593 0.00000E+00 0.00000E+00 0.00000E+00
 -1       594 0.00000E+00 0.00000E+00 0.00000E+00
 -1       595 0.00000E+00 0.00000E+00 0.00000E+00
 -1       596 0.00000E+00 0.00000E+00 0.00000E+00
 -1       597 0.00000E+00 0.00000E+00 0.00000E+00
 -1       598 0.00000E+00 0.00000E+00 0.00000E+00
 -1       599 0.00000E+00 0.00000E+00 0.00000E+00
 -1       600 0.00000E+00 0.00000E+00 0.00000E+00
 -1       601 0.00000E+00 0.00000E+00 0.00000E+00
 -1       602 0.00000E+00 0.00000E+00 0.00000E+00
 -1       603 0.00000E+00 0.00000E+00 0.00000E+00
 -1       604 0.00000E+00 0.00000E+00 0.00000E+00
 -1       605 0.00000E+00 0.00000E+00 0.00000E+00
 -1       606 0.00000E+00 0.00000E+00 0.00000E+00
 -1       607 0.00000E+00 0.00000E+00 0.00000E+00
 -1       608 0.00000E+00 0.00000E+00 0.00000E+00
 -1       609 0.00000E+00 0.00000E+00 0.00000E+00
 -1       610 0.00000E+00 0.00000E+00 0.00000E+00
 -1       611 0.00000E+00 0.00000E+00 0.00000E+00
 -1       612 0.00000E+00 0.00000E+00 0.00000E+00
 -1       613 0.00000E+00 0.00000E+00 0.00000E+00
 -1       614 0.00000E+00 0.00000E+00 0.00000E+00
 -1       615 0.00000E+00 0.00000E+00 0.00000E+00
 -1       616 0.00000E+00 0.00000E+00 0.00000E+00
 -1       617 0.00000E+00 0.00000E+00 0.00000E+00
 -1       618 0.00000E+00 0.00000E+00 0.00000E+00
 -1       619 0.00000E+00 0.00000E+00 0.00000E+00
 -1       620 0.00000E+00 0.00000E+00 0.00000E+00
 -1       621 0.00000E+00 0.00000E+00 0.00000E+00
 -1       622 0.00000E+00 0.00000E+00 0.00000E+00
 -1       623 0.00000E+00 0.00000E+00 0.00000E+00
 -1       624 0.00000E+00 0.00000E+00 0.00000E+00
 -1       625 0.00000E+00 0.00000E+00 0.00000E+00
 -1       626 0.00000E+00 0.00000E+00 0.00000E+00
 -1       627 0.00000E+00 0.00000E+00 0.00000E+00
 -1       628 0.00000E+00 0.00000E+00 0.00000E+00
 -1       629 0.00000E+00 0.00000E+00 0.00000E+00
 -1       630 0.00000E+00 0.00000E+00 0.00000E+00
 -1       631 0.00000E+00 0.00000E+00 0.00000E+00
 -1       632 0.00000E+00 0.00000E+00 0.00000E+00
 -1       633 0.00000E+00 0.00000E+00 0.00000E+00
 -1       634 0.00000E+00 0.00000E+00 0.00000E+00
 -1       635 0.00000E+00 0.00000E+00 0.00000E+00
 -1       636 0.00000E+00 0.00000E+00 0.00000E+00
 -1       637 0.00000E+00 0.00000E+00 0.00000E+00
 -1       638 0.00000E+00 0.00000E+00 0.00000E+00
 -1       639 0.00000E+00 0.00000E+00 0.00000E+00
 -1       640 0.00000E+00 0.00000E+00 0.00000E+00
 -1       656 0.00000E+00 0.00000E+00 0.00000E+00
 -1       657 0.00000E+00 0.00000E+00 0.00000E+00
 -1       658 0.00000E+00 0.00000E+00 0.00000E+00
 -1       659 0.00000E+00 0.00000E+00 0.00000E+00
 -1       660 0.00000E+00 0.00000E+00 0.00000E+00
 -1       661 0.00000E+00 0.00000E+00 0.00000E+00
 -1       662 0.00000E+00 0.00000E+00 0.00000E+00
 -1       663 0.00000E+00 0.00000E+00 0.00000E+00
 -1       664 0.00000E+00 0.00000E+00 0.00000E+00
 -1       665 0.00000E+00 0.00000E+00 0.00000E+00
 -1       666 0.00000E+00 0.00000E+00 0.00000E+00
 -1       667 0.00000E+00 0.00000E+00 0.00000E+00
 -1       668 0.00000E+00 0.00000E+00 0.00000E+00
 -1       669 0.00000E+00 0.00000E+00 0.00000E+00
 -1       670 0.00000E+00 0.00000E+00 0.00000E+00
 -1       671 0.00000E+00 0.00000E+00 0.00000E+00
 -1       672 0.00000E+00 0.00000E+00 0.00000E+00
 -1       673 0.00000E+00 0.00000E+00 0.00000E+00
 -1       674 0.00000E+00 0.00000E+00 0.00000E+00
 -1       675 0.00000E+00 0.00000E+00 0.00000E+00
 -1       676 0.00000E+00 0.00000E+00 0.00000E+00
 -1       677 0.00000E+00 0.00000E+00 0.00000E+00
 -1       678 0.00000E+00 0.00000E+00 0.00000E+00
 -1       679 0.00000E+00 0.00000E+00 0.00000E+00
 -1       680 0.00000E+00 0.00000E+00 0.00000E+00
 -1       771 0.00000E+00 0.00000E+00 0.00000E+00
 -1       772 0.00000E+00 0.00000E+00 0.00000E+00
 -1       773 0.00000E+00 0.00000E+00 0.00000E+00
 -1       774 0.00000E+00 0.00000E+00 0.00000E+00
 -1       775 0.00000E+00 0.00000E+00 0.00000E+00
 -1       776 0.00000E+00 0.00000E+00 0.00000E+00
 -1       777 0.00000E+00 0.00000E+00 0.00000E+00
 -1       778 0.00000E+00 0.00000E+00 0.00000E+00
 -1       779 0.00000E+00 0.00000E+00 0.00000E+00
 -1       780 0.00000E+00 0.00000E+00 0.00000E+00
 -1       781 0.00000E+00 0.00000E+00 0.00000E+00
 -1       782 0.00000E+00 0.00000E+00 0.00000E+00
 -1       783 0.00000E+00 0.00000E+00 0.00000E+00
 -1       784 0.00000E+00 0.00000E+00 0.00000E+00
 -1       785 0.00000E+00 0.00000E+00 0.00000E+00
 -1       786 0.00000E+00 0.00000E+00 0.00000E+00
 -1       787 0.00000E+00 0.00000E+00 0.00000E+00
 -1       788 0.00000E+00 0.00000E+00 0.00000E+00
 -1       789 0.00000E+00 0.00000E+00 0.00000E+00
 -1       790 0.00000E+00 0.00000E+00 0.00000E+00
 -1       791 0.00000E+00 0.00000E+00 0.00000E+00
 -1       792 0.00000E+00 0.00000E+00 0.00000E+00
 -1       793 0.00000E+00 0.00000E+00 0.00000E+00
 -1       794 0.00000E+00 0.00000E+00 0.00000E+00
 -1       795 0.00000E+00 0.00000E+00 0.00000E+00
 -1       796 0.00000E+00 0.00000E+00 0.00000E+00
 -1       797 0.00000E+00 0.00000E+00 0.00000E+00
 -1       798 0.00000E+00 0.00000E+00 0.00000E+00
 -1       799 0.00000E+00 0.00000E+00 0.00000E+00
 -1       800 0.00000E+00 0.00000E+00 0.00000E+00
 -1       801 0.00000E+00 0.00000E+00 0.00000E+00
 -1       802 0.00000E+00 0.00000E+00 0.00000E+00
 -1       803 0.00000E+00 0.00000E+00 0.00000E+00
 -1       804 0.00000E+00 0.00000E+00 0.00000E+00
 -1       805 0.00000E+00 0.00000E+00 0.00000E+00
 -1       806 0.00000E+00 0.00000E+00 0.00000E+00
 -1       807 0.00000E+00 0.00000E+00 0.00000E+00
 -1       808 0.00000E+00 0.00000E+00 0.00000E+00
 -1       809 0.00000E+00 0.00000E+00 0.00000E+00
 -1       810 0.00000E+00 0.00000E+00 0.00000E+00
 -1       811 0.00000E+00 0.00000E+00 0.00000E+00
 -1       812 0.00000E+00 0.00000E+00 0.00000E+00
 -1       813 0.00000E+00 0.00000E+00 0.00000E+00
 -1       814 0.00000E+00 0.00000E+00 0.00000E+00
 -1       815 0.00000E+00 0.00000E+00 0.00000E+00
 -1       816 0.00000E+00 0.00000E+00 0.00000E+00
 -1       817 0.00000E+00 0.00000E+00 0.00000E+00
 -1       818 0.00000E+00 0.00000E+00 0.00000E+00
 -1       819 0.00000E+00 0.00000E+00 0.00000E+00
 -1       820 0.00000E+00 0.00000E+00 0.00000E+00
 -1       821 0.00000E+00 0.00000E+00 0.00000E+00
 -1       822 0.00000E+00 0.00000E+00 0.00000E+00
 -1       823 0.00000E+00 0.00000E+00 0.00000E+00
 -1       824 0.00000E+00 0.00000E+00 0.00000E+00
 -1       825 0.00000E+00 0.00000E+00 0.00000E+00
 -1       826 0.00000E+00 0.00000E+00 0.00000E+00
 -1       827 0.00000E+00 0.00000E+00 0.00000E+00
 -1       828 0.00000E+00 0.00000E+00 0.00000E+00
 -1       829 0.00000E+00 0.00000E+00 0.00000E+00
 -1       830 0.00000E+00 0.00000E+00 0.00000E+00
 -1       831 0.00000E+00 0.00000E+00 0.00000E+00
 -1       832 0.00000E+00 0.00000E+00 0.00000E+00
 -1       833 0.00000E+00 0.00000E+00 0.00000E+00
 -1       834 0.00000E+00 0.00000E+00 0.00000E+00
 -1       835 0.00000E+00 0.00000E+00 0.00000E+00
 -1       836 0.00000E+00 0.00000E+00 0.00000E+00
 -1       837 0.00000E+00 0.00000E+00 0.00000E+00
 -1       838 0.00000E+00 0.00000E+00 0.00000E+00
 -1       839 0.00000E+00 0.00000E+00 0.00000E+00
 -1       840 0.00000E+00 0.00000E+00 0.00000E+00
 -1       856 0.00000E+00 0.00000E+00 0.00000E+00
 -1       857 0.00000E+00 0.00000E+00 0.00000E+00
 -1       858 0.00000E+00 0.00000E+00 0.00000E+00
 -1       859 0.00000E+00 0.00000E+00 0.00000E+00
 -1       860 0.00000E+00 0.00000E+00 0.00000E+00
 -1       861 0.00000E+00 0.00000E+00 0.00000E+00
 -1       862 0.00000E+00 0.00000E+00 0.00000E+00
 -1       863 0.00000E+00 0.00000E+00 0.00000E+00
 -1       864 0.00000E+00 0.00000E+00 0.00000E+00
 -1       865 0.00000E+00 0.00000E+00 0.00000E+00
 -1       866 0.00000E+00 0.00000E+00 0.00000E+00
 -1       867 0.00000E+00 0.00000E+00 0.00000E+00
 -1       868 0.00000E+00 0.00000E+00 0.00000E+00
 -1       869 0.00000E+00 0.00000E+00 0.00000E+00
 -1       870 0.00000E+00 0.00000E+00 0.00000E+00
 -1       871 0.00000E+00 0.00000E+00 0.00000E+00
 -1       872 0.00000E+00 0.00000E+00 0.00000E+00
 -1       873 0.00000E+00 0.00000E+00 0.00000E+00
 -1       874 0.00000E+00 0.00000E+00 0.00000E+00
 -1       875 0.00000E+00 0.00000E+00 0.00000E+00
 -1       876 0.00000E+00 0.00000E+00 0.00000E+00
 -1       877 0.00000E+00 0.00000E+00 0.00000E+00
 -1       878 0.00000E+00 0.00000E+00 0.00000E+00
 -1       879 0.00000E+00 0.00000E+00 0.00000E+00
 -1       880 0.00000E+00 0.00000E+00 0.00000E+00
 -1       881 0.00000E+00 0.00000E+00 0.00000E+00
 -1       882 0.00000E+00 0.00000E+00 0.00000E+00
 -1       883 0.00000E+00 0.00000E+00 0.00000E+00
 -1       884 0.00000E+00 0.00000E+00 0.00000E+00
 -1       885 0.00000E+00 0.00000E+00 0.00000E+00
 -1       886 0.00000E+00 0.00000E+00 0.00000E+00
 -1       887 0.00000E+00 0.00000E+00 0.00000E+00
 -1       888 0.00000E+00 0.00000E+00 0.00000E+00
 -1       889 0.00000E+00 0.00000E+00 0.00000E+00
 -1       890 0.00000E+00 0.00000E+00 0.00000E+00
 -1       891 0.00000E+00 0.00000E+00 0.00000E+00
 -1       892 0.00000E+00 0.00000E+00 0.00000E+00
 -1       893 0.00000E+00 0.00000E+00 0.00000E+00
 -1       894 0.00000E+00 0.00000E+00 0.00000E+00
 -1       895 0.00000E+00 0.00000E+00 0.00000E+00
 -1       956 0.00000E+00 0.00000E+00 0.00000E+00
 -1       957 0.00000E+00 0.00000E+00 0.00000E+00
 -1       958 0.00000E+00 0.00000E+00 0.00000E+00
 -1       959 0.00000E+00 0.00000E+00 0.00000E+00
 -1       960 0.00000E+00 0.00000E+00 0.00000E+00
 -1       961 0.00000E+00 0.00000E+00 0.00000E+00
 -1       962 0.00000E+00 0.00000E+00 0.00000E+00
 -1       963 0.00000E+00 0.00000E+00 0.00000E+00
 -1       964 0.00000E+00 0.00000E+00 0.00000E+00
 -1       965 0.00000E+00 0.00000E+00 0.00000E+00
 -1       966 0.00000E+00 0.00000E+00 0.00000E+00
 -1       967 0.00000E+00 0.00000E+00 0.00000E+00
 -1       968 0.00000E+00 0.00000E+00 0.00000E+00
 -1       969 0.00000E+00 0.00000E+00 0.00000E+00
 -1       970 0.00000E+00 0.00000E+00 0.00000E+00
 -1       971 0.00000E+00 0.00000E+00 0.00000E+00
 -1       972 0.00000E+00 0.00000E+00 0.00000E+00
 -1       973 0.00000E+00 0.00000E+00 0.00000E+00
 -1       974 0.00000E+00 0.00000E+00 0.00000E+00
 -1       975 0.00000E+00 0.00000E+00 0.00000E+00
 -1       976 0.00000E+00 0.00000E+00 0.00000E+00
 -1       977 0.00000E+00 0.00000E+00 0.00000E+00
 -1       978 0.00000E+00 0.00000E+00 0.00000E+00
 -1       979 0.00000E+00 0.00000E+00 0.00000E+00
 -1       980 0.00000E+00 0.00000E+00 0.00000E+00
 -1       981 0.00000E+00 0.00000E+00 0.00000E+00
 -1       982 0.00000E+00 0.00000E+00 0.00000E+00
 -1       983 0.00000E+00 0.00000E+00 0.00000E+00
 -1       984 0.00000E+00 0.00000E+00 0.00000E+00
 -1       985 0.00000E+00 0.00000E+00 0.00000E+00
 -3
