    1C
    1UUSER                                                              
    1UDATE              11.october.2022                                 
    1UTIME              19:09:37                                        
    1UHOST                                                              
    1UPGM               CalculiX                                        
    1UVERSION           Version 2.20                             
    1UCOMPILETIME       Sun Jul 31 18:08:37 CEST 2022                    
    1UDIR                                                               
    1UDBN                                                               
    1UMAT    1MESH_MATERIAL                                             
    2C                           409                                     1
 -1         1 0.00000E+00 0.00000E+00 0.00000E+00
 -1         2 1.66667E-02 0.00000E+00 0.00000E+00
 -1         3 3.33333E-02 0.00000E+00 0.00000E+00
 -1         5 6.66667E-02 0.00000E+00 0.00000E+00
 -1         8 0.00000E+00 6.25000E-03 0.00000E+00
 -1         9 1.66667E-02 6.25000E-03 0.00000E+00
 -1        10 3.33333E-02 6.25000E-03 0.00000E+00
 -1        12 6.66667E-02 6.25000E-03 0.00000E+00
 -1        15 0.00000E+00 1.25000E-02 0.00000E+00
 -1        16 1.66667E-02 1.25000E-02 0.00000E+00
 -1        17 3.33333E-02 1.25000E-02 0.00000E+00
 -1        18 5.00000E-02 1.25000E-02 0.00000E+00
 -1        19 6.66667E-02 1.25000E-02 0.00000E+00
 -1        20 8.33333E-02 1.25000E-02 0.00000E+00
 -1        21 1.00000E-01 1.25000E-02 0.00000E+00
 -1        24 3.33333E-02 1.87500E-02 0.00000E+00
 -1        25 5.00000E-02 1.87500E-02 0.00000E+00
 -1        26 6.66667E-02 1.87500E-02 0.00000E+00
 -1        27 8.33333E-02 1.87500E-02 0.00000E+00
 -1        28 1.00000E-01 1.87500E-02 0.00000E+00
 -1        32 5.00000E-02 2.50000E-02 0.00000E+00
 -1        33 6.66667E-02 2.50000E-02 0.00000E+00
 -1        34 8.33333E-02 2.50000E-02 0.00000E+00
 -1        35 1.00000E-01 2.50000E-02 0.00000E+00
 -1        51 0.00000E+00 1.04167E-03 0.00000E+00
 -1        52 0.00000E+00 2.08333E-03 0.00000E+00
 -1        53 0.00000E+00 3.12500E-03 0.00000E+00
 -1        54 0.00000E+00 4.16667E-03 0.00000E+00
 -1        55 0.00000E+00 5.20833E-03 0.00000E+00
 -1        56 1.04167E-03 3.90630E-04 0.00000E+00
 -1        57 2.08333E-03 7.81250E-04 0.00000E+00
 -1        58 3.12500E-03 1.17188E-03 0.00000E+00
 -1        59 4.16667E-03 1.56250E-03 0.00000E+00
 -1        60 5.20833E-03 1.95312E-03 0.00000E+00
 -1        61 6.25000E-03 2.34375E-03 0.00000E+00
 -1        62 7.29167E-03 2.73438E-03 0.00000E+00
 -1        63 8.33333E-03 3.12500E-03 0.00000E+00
 -1        64 9.37500E-03 3.51563E-03 0.00000E+00
 -1        65 1.04167E-02 3.90625E-03 0.00000E+00
 -1        66 1.14583E-02 4.29688E-03 0.00000E+00
 -1        67 1.25000E-02 4.68750E-03 0.00000E+00
 -1        68 1.35417E-02 5.07813E-03 0.00000E+00
 -1        69 1.45833E-02 5.46875E-03 0.00000E+00
 -1        70 1.56250E-02 5.85938E-03 0.00000E+00
 -1        86 1.66667E-02 1.04167E-03 0.00000E+00
 -1        87 1.66667E-02 2.08333E-03 0.00000E+00
 -1        88 1.66667E-02 3.12500E-03 0.00000E+00
 -1        89 1.66667E-02 4.16667E-03 0.00000E+00
 -1        90 1.66667E-02 5.20833E-03 0.00000E+00
 -1       121 3.33333E-02 1.04167E-03 0.00000E+00
 -1       122 3.33333E-02 2.08333E-03 0.00000E+00
 -1       123 3.33333E-02 3.12500E-03 0.00000E+00
 -1       124 3.33333E-02 4.16667E-03 0.00000E+00
 -1       125 3.33333E-02 5.20833E-03 0.00000E+00
 -1       191 6.66667E-02 1.04167E-03 0.00000E+00
 -1       192 6.66667E-02 2.08333E-03 0.00000E+00
 -1       193 6.66667E-02 3.12500E-03 0.00000E+00
 -1       194 6.66667E-02 4.16667E-03 0.00000E+00
 -1       195 6.66667E-02 5.20833E-03 0.00000E+00
 -1       251 1.04167E-03 6.25000E-03 0.00000E+00
 -1       252 2.08333E-03 6.25000E-03 0.00000E+00
 -1       253 3.12500E-03 6.25000E-03 0.00000E+00
 -1       254 4.16667E-03 6.25000E-03 0.00000E+00
 -1       255 5.20833E-03 6.25000E-03 0.00000E+00
 -1       256 6.25000E-03 6.25000E-03 0.00000E+00
 -1       257 7.29167E-03 6.25000E-03 0.00000E+00
 -1       258 8.33333E-03 6.25000E-03 0.00000E+00
 -1       259 9.37500E-03 6.25000E-03 0.00000E+00
 -1       260 1.04167E-02 6.25000E-03 0.00000E+00
 -1       261 1.14583E-02 6.25000E-03 0.00000E+00
 -1       262 1.25000E-02 6.25000E-03 0.00000E+00
 -1       263 1.35417E-02 6.25000E-03 0.00000E+00
 -1       264 1.45833E-02 6.25000E-03 0.00000E+00
 -1       265 1.56250E-02 6.25000E-03 0.00000E+00
 -1       266 0.00000E+00 7.29167E-03 0.00000E+00
 -1       267 0.00000E+00 8.33333E-03 0.00000E+00
 -1       268 0.00000E+00 9.37500E-03 0.00000E+00
 -1       269 0.00000E+00 1.04167E-02 0.00000E+00
 -1       270 0.00000E+00 1.14583E-02 0.00000E+00
 -1       271 1.04167E-03 6.64063E-03 0.00000E+00
 -1       272 2.08333E-03 7.03125E-03 0.00000E+00
 -1       273 3.12500E-03 7.42188E-03 0.00000E+00
 -1       274 4.16667E-03 7.81250E-03 0.00000E+00
 -1       275 5.20833E-03 8.20313E-03 0.00000E+00
 -1       276 6.25000E-03 8.59375E-03 0.00000E+00
 -1       277 7.29167E-03 8.98438E-03 0.00000E+00
 -1       278 8.33333E-03 9.37500E-03 0.00000E+00
 -1       279 9.37500E-03 9.76562E-03 0.00000E+00
 -1       280 1.04167E-02 1.01562E-02 0.00000E+00
 -1       281 1.14583E-02 1.05469E-02 0.00000E+00
 -1       282 1.25000E-02 1.09375E-02 0.00000E+00
 -1       283 1.35417E-02 1.13281E-02 0.00000E+00
 -1       284 1.45833E-02 1.17188E-02 0.00000E+00
 -1       285 1.56250E-02 1.21094E-02 0.00000E+00
 -1       301 1.66667E-02 7.29167E-03 0.00000E+00
 -1       302 1.66667E-02 8.33333E-03 0.00000E+00
 -1       303 1.66667E-02 9.37500E-03 0.00000E+00
 -1       304 1.66667E-02 1.04167E-02 0.00000E+00
 -1       305 1.66667E-02 1.14583E-02 0.00000E+00
 -1       306 1.77083E-02 6.64063E-03 0.00000E+00
 -1       307 1.87500E-02 7.03125E-03 0.00000E+00
 -1       308 1.97917E-02 7.42188E-03 0.00000E+00
 -1       309 2.08333E-02 7.81250E-03 0.00000E+00
 -1       310 2.18750E-02 8.20313E-03 0.00000E+00
 -1       311 2.29167E-02 8.59375E-03 0.00000E+00
 -1       312 2.39583E-02 8.98438E-03 0.00000E+00
 -1       313 2.50000E-02 9.37500E-03 0.00000E+00
 -1       314 2.60417E-02 9.76562E-03 0.00000E+00
 -1       315 2.70833E-02 1.01562E-02 0.00000E+00
 -1       316 2.81250E-02 1.05469E-02 0.00000E+00
 -1       317 2.91667E-02 1.09375E-02 0.00000E+00
 -1       318 3.02083E-02 1.13281E-02 0.00000E+00
 -1       319 3.12500E-02 1.17188E-02 0.00000E+00
 -1       320 3.22917E-02 1.21094E-02 0.00000E+00
 -1       336 3.33333E-02 7.29167E-03 0.00000E+00
 -1       337 3.33333E-02 8.33333E-03 0.00000E+00
 -1       338 3.33333E-02 9.37500E-03 0.00000E+00
 -1       339 3.33333E-02 1.04167E-02 0.00000E+00
 -1       340 3.33333E-02 1.14583E-02 0.00000E+00
 -1       406 6.66667E-02 7.29167E-03 0.00000E+00
 -1       407 6.66667E-02 8.33333E-03 0.00000E+00
 -1       408 6.66667E-02 9.37500E-03 0.00000E+00
 -1       409 6.66667E-02 1.04167E-02 0.00000E+00
 -1       410 6.66667E-02 1.14583E-02 0.00000E+00
 -1       521 1.77083E-02 1.28906E-02 0.00000E+00
 -1       522 1.87500E-02 1.32813E-02 0.00000E+00
 -1       523 1.97917E-02 1.36719E-02 0.00000E+00
 -1       524 2.08333E-02 1.40625E-02 0.00000E+00
 -1       525 2.18750E-02 1.44531E-02 0.00000E+00
 -1       526 2.29167E-02 1.48437E-02 0.00000E+00
 -1       527 2.39583E-02 1.52344E-02 0.00000E+00
 -1       528 2.50000E-02 1.56250E-02 0.00000E+00
 -1       529 2.60417E-02 1.60156E-02 0.00000E+00
 -1       530 2.70833E-02 1.64062E-02 0.00000E+00
 -1       531 2.81250E-02 1.67969E-02 0.00000E+00
 -1       532 2.91667E-02 1.71875E-02 0.00000E+00
 -1       533 3.02083E-02 1.75781E-02 0.00000E+00
 -1       534 3.12500E-02 1.79687E-02 0.00000E+00
 -1       535 3.22917E-02 1.83594E-02 0.00000E+00
 -1       536 3.43750E-02 1.25000E-02 0.00000E+00
 -1       537 3.54167E-02 1.25000E-02 0.00000E+00
 -1       538 3.64583E-02 1.25000E-02 0.00000E+00
 -1       539 3.75000E-02 1.25000E-02 0.00000E+00
 -1       540 3.85417E-02 1.25000E-02 0.00000E+00
 -1       541 3.95833E-02 1.25000E-02 0.00000E+00
 -1       542 4.06250E-02 1.25000E-02 0.00000E+00
 -1       543 4.16667E-02 1.25000E-02 0.00000E+00
 -1       544 4.27083E-02 1.25000E-02 0.00000E+00
 -1       545 4.37500E-02 1.25000E-02 0.00000E+00
 -1       546 4.47917E-02 1.25000E-02 0.00000E+00
 -1       547 4.58333E-02 1.25000E-02 0.00000E+00
 -1       548 4.68750E-02 1.25000E-02 0.00000E+00
 -1       549 4.79167E-02 1.25000E-02 0.00000E+00
 -1       550 4.89583E-02 1.25000E-02 0.00000E+00
 -1       551 3.33333E-02 1.35417E-02 0.00000E+00
 -1       552 3.33333E-02 1.45833E-02 0.00000E+00
 -1       553 3.33333E-02 1.56250E-02 0.00000E+00
 -1       554 3.33333E-02 1.66667E-02 0.00000E+00
 -1       555 3.33333E-02 1.77083E-02 0.00000E+00
 -1       556 3.43750E-02 1.28906E-02 0.00000E+00
 -1       557 3.54167E-02 1.32813E-02 0.00000E+00
 -1       558 3.64583E-02 1.36719E-02 0.00000E+00
 -1       559 3.75000E-02 1.40625E-02 0.00000E+00
 -1       560 3.85417E-02 1.44531E-02 0.00000E+00
 -1       561 3.95833E-02 1.48437E-02 0.00000E+00
 -1       562 4.06250E-02 1.52344E-02 0.00000E+00
 -1       563 4.16667E-02 1.56250E-02 0.00000E+00
 -1       564 4.27083E-02 1.60156E-02 0.00000E+00
 -1       565 4.37500E-02 1.64062E-02 0.00000E+00
 -1       566 4.47917E-02 1.67969E-02 0.00000E+00
 -1       567 4.58333E-02 1.71875E-02 0.00000E+00
 -1       568 4.68750E-02 1.75781E-02 0.00000E+00
 -1       569 4.79167E-02 1.79687E-02 0.00000E+00
 -1       570 4.89583E-02 1.83594E-02 0.00000E+00
 -1       571 5.10417E-02 1.25000E-02 0.00000E+00
 -1       572 5.20833E-02 1.25000E-02 0.00000E+00
 -1       573 5.31250E-02 1.25000E-02 0.00000E+00
 -1       574 5.41667E-02 1.25000E-02 0.00000E+00
 -1       575 5.52083E-02 1.25000E-02 0.00000E+00
 -1       576 5.62500E-02 1.25000E-02 0.00000E+00
 -1       577 5.72917E-02 1.25000E-02 0.00000E+00
 -1       578 5.83333E-02 1.25000E-02 0.00000E+00
 -1       579 5.93750E-02 1.25000E-02 0.00000E+00
 -1       580 6.04167E-02 1.25000E-02 0.00000E+00
 -1       581 6.14583E-02 1.25000E-02 0.00000E+00
 -1       582 6.25000E-02 1.25000E-02 0.00000E+00
 -1       583 6.35417E-02 1.25000E-02 0.00000E+00
 -1       584 6.45833E-02 1.25000E-02 0.00000E+00
 -1       585 6.56250E-02 1.25000E-02 0.00000E+00
 -1       586 5.00000E-02 1.35417E-02 0.00000E+00
 -1       587 5.00000E-02 1.45833E-02 0.00000E+00
 -1       588 5.00000E-02 1.56250E-02 0.00000E+00
 -1       589 5.00000E-02 1.66667E-02 0.00000E+00
 -1       590 5.00000E-02 1.77083E-02 0.00000E+00
 -1       591 5.10417E-02 1.28906E-02 0.00000E+00
 -1       592 5.20833E-02 1.32813E-02 0.00000E+00
 -1       593 5.31250E-02 1.36719E-02 0.00000E+00
 -1       594 5.41667E-02 1.40625E-02 0.00000E+00
 -1       595 5.52083E-02 1.44531E-02 0.00000E+00
 -1       596 5.62500E-02 1.48437E-02 0.00000E+00
 -1       597 5.72917E-02 1.52344E-02 0.00000E+00
 -1       598 5.83333E-02 1.56250E-02 0.00000E+00
 -1       599 5.93750E-02 1.60156E-02 0.00000E+00
 -1       600 6.04167E-02 1.64062E-02 0.00000E+00
 -1       601 6.14583E-02 1.67969E-02 0.00000E+00
 -1       602 6.25000E-02 1.71875E-02 0.00000E+00
 -1       603 6.35417E-02 1.75781E-02 0.00000E+00
 -1       604 6.45833E-02 1.79687E-02 0.00000E+00
 -1       605 6.56250E-02 1.83594E-02 0.00000E+00
 -1       606 6.77083E-02 1.25000E-02 0.00000E+00
 -1       607 6.87500E-02 1.25000E-02 0.00000E+00
 -1       608 6.97917E-02 1.25000E-02 0.00000E+00
 -1       609 7.08333E-02 1.25000E-02 0.00000E+00
 -1       610 7.18750E-02 1.25000E-02 0.00000E+00
 -1       611 7.29167E-02 1.25000E-02 0.00000E+00
 -1       612 7.39583E-02 1.25000E-02 0.00000E+00
 -1       613 7.50000E-02 1.25000E-02 0.00000E+00
 -1       614 7.60417E-02 1.25000E-02 0.00000E+00
 -1       615 7.70833E-02 1.25000E-02 0.00000E+00
 -1       616 7.81250E-02 1.25000E-02 0.00000E+00
 -1       617 7.91667E-02 1.25000E-02 0.00000E+00
 -1       618 8.02083E-02 1.25000E-02 0.00000E+00
 -1       619 8.12500E-02 1.25000E-02 0.00000E+00
 -1       620 8.22917E-02 1.25000E-02 0.00000E+00
 -1       621 6.66667E-02 1.35417E-02 0.00000E+00
 -1       622 6.66667E-02 1.45833E-02 0.00000E+00
 -1       623 6.66667E-02 1.56250E-02 0.00000E+00
 -1       624 6.66667E-02 1.66667E-02 0.00000E+00
 -1       625 6.66667E-02 1.77083E-02 0.00000E+00
 -1       626 6.77083E-02 1.28906E-02 0.00000E+00
 -1       627 6.87500E-02 1.32813E-02 0.00000E+00
 -1       628 6.97917E-02 1.36719E-02 0.00000E+00
 -1       629 7.08333E-02 1.40625E-02 0.00000E+00
 -1       630 7.18750E-02 1.44531E-02 0.00000E+00
 -1       631 7.29167E-02 1.48437E-02 0.00000E+00
 -1       632 7.39583E-02 1.52344E-02 0.00000E+00
 -1       633 7.50000E-02 1.56250E-02 0.00000E+00
 -1       634 7.60417E-02 1.60156E-02 0.00000E+00
 -1       635 7.70833E-02 1.64062E-02 0.00000E+00
 -1       636 7.81250E-02 1.67969E-02 0.00000E+00
 -1       637 7.91667E-02 1.71875E-02 0.00000E+00
 -1       638 8.02083E-02 1.75781E-02 0.00000E+00
 -1       639 8.12500E-02 1.79687E-02 0.00000E+00
 -1       640 8.22917E-02 1.83594E-02 0.00000E+00
 -1       656 8.33333E-02 1.35417E-02 0.00000E+00
 -1       657 8.33333E-02 1.45833E-02 0.00000E+00
 -1       658 8.33333E-02 1.56250E-02 0.00000E+00
 -1       659 8.33333E-02 1.66667E-02 0.00000E+00
 -1       660 8.33333E-02 1.77083E-02 0.00000E+00
 -1       661 8.43750E-02 1.28906E-02 0.00000E+00
 -1       662 8.54167E-02 1.32813E-02 0.00000E+00
 -1       663 8.64583E-02 1.36719E-02 0.00000E+00
 -1       664 8.75000E-02 1.40625E-02 0.00000E+00
 -1       665 8.85417E-02 1.44531E-02 0.00000E+00
 -1       666 8.95833E-02 1.48437E-02 0.00000E+00
 -1       667 9.06250E-02 1.52344E-02 0.00000E+00
 -1       668 9.16667E-02 1.56250E-02 0.00000E+00
 -1       669 9.27083E-02 1.60156E-02 0.00000E+00
 -1       670 9.37500E-02 1.64062E-02 0.00000E+00
 -1       671 9.47917E-02 1.67969E-02 0.00000E+00
 -1       672 9.58333E-02 1.71875E-02 0.00000E+00
 -1       673 9.68750E-02 1.75781E-02 0.00000E+00
 -1       674 9.79167E-02 1.79687E-02 0.00000E+00
 -1       675 9.89583E-02 1.83594E-02 0.00000E+00
 -1       676 1.00000E-01 1.35417E-02 0.00000E+00
 -1       677 1.00000E-01 1.45833E-02 0.00000E+00
 -1       678 1.00000E-01 1.56250E-02 0.00000E+00
 -1       679 1.00000E-01 1.66667E-02 0.00000E+00
 -1       680 1.00000E-01 1.77083E-02 0.00000E+00
 -1       771 3.43750E-02 1.91406E-02 0.00000E+00
 -1       772 3.54167E-02 1.95312E-02 0.00000E+00
 -1       773 3.64583E-02 1.99219E-02 0.00000E+00
 -1       774 3.75000E-02 2.03125E-02 0.00000E+00
 -1       775 3.85417E-02 2.07031E-02 0.00000E+00
 -1       776 3.95833E-02 2.10938E-02 0.00000E+00
 -1       777 4.06250E-02 2.14844E-02 0.00000E+00
 -1       778 4.16667E-02 2.18750E-02 0.00000E+00
 -1       779 4.27083E-02 2.22656E-02 0.00000E+00
 -1       780 4.37500E-02 2.26563E-02 0.00000E+00
 -1       781 4.47917E-02 2.30469E-02 0.00000E+00
 -1       782 4.58333E-02 2.34375E-02 0.00000E+00
 -1       783 4.68750E-02 2.38281E-02 0.00000E+00
 -1       784 4.79167E-02 2.42187E-02 0.00000E+00
 -1       785 4.89583E-02 2.46094E-02 0.00000E+00
 -1       786 5.10417E-02 1.87500E-02 0.00000E+00
 -1       787 5.20833E-02 1.87500E-02 0.00000E+00
 -1       788 5.31250E-02 1.87500E-02 0.00000E+00
 -1       789 5.41667E-02 1.87500E-02 0.00000E+00
 -1       790 5.52083E-02 1.87500E-02 0.00000E+00
 -1       791 5.62500E-02 1.87500E-02 0.00000E+00
 -1       792 5.72917E-02 1.87500E-02 0.00000E+00
 -1       793 5.83333E-02 1.87500E-02 0.00000E+00
 -1       794 5.93750E-02 1.87500E-02 0.00000E+00
 -1       795 6.04167E-02 1.87500E-02 0.00000E+00
 -1       796 6.14583E-02 1.87500E-02 0.00000E+00
 -1       797 6.25000E-02 1.87500E-02 0.00000E+00
 -1       798 6.35417E-02 1.87500E-02 0.00000E+00
 -1       799 6.45833E-02 1.87500E-02 0.00000E+00
 -1       800 6.56250E-02 1.87500E-02 0.00000E+00
 -1       801 5.00000E-02 1.97917E-02 0.00000E+00
 -1       802 5.00000E-02 2.08333E-02 0.00000E+00
 -1       803 5.00000E-02 2.18750E-02 0.00000E+00
 -1       804 5.00000E-02 2.29167E-02 0.00000E+00
 -1       805 5.00000E-02 2.39583E-02 0.00000E+00
 -1       806 5.10417E-02 1.91406E-02 0.00000E+00
 -1       807 5.20833E-02 1.95312E-02 0.00000E+00
 -1       808 5.31250E-02 1.99219E-02 0.00000E+00
 -1       809 5.41667E-02 2.03125E-02 0.00000E+00
 -1       810 5.52083E-02 2.07031E-02 0.00000E+00
 -1       811 5.62500E-02 2.10938E-02 0.00000E+00
 -1       812 5.72917E-02 2.14844E-02 0.00000E+00
 -1       813 5.83333E-02 2.18750E-02 0.00000E+00
 -1       814 5.93750E-02 2.22656E-02 0.00000E+00
 -1       815 6.04167E-02 2.26563E-02 0.00000E+00
 -1       816 6.14583E-02 2.30469E-02 0.00000E+00
 -1       817 6.25000E-02 2.34375E-02 0.00000E+00
 -1       818 6.35417E-02 2.38281E-02 0.00000E+00
 -1       819 6.45833E-02 2.42187E-02 0.00000E+00
 -1       820 6.56250E-02 2.46094E-02 0.00000E+00
 -1       821 6.77083E-02 1.87500E-02 0.00000E+00
 -1       822 6.87500E-02 1.87500E-02 0.00000E+00
 -1       823 6.97917E-02 1.87500E-02 0.00000E+00
 -1       824 7.08333E-02 1.87500E-02 0.00000E+00
 -1       825 7.18750E-02 1.87500E-02 0.00000E+00
 -1       826 7.29167E-02 1.87500E-02 0.00000E+00
 -1       827 7.39583E-02 1.87500E-02 0.00000E+00
 -1       828 7.50000E-02 1.87500E-02 0.00000E+00
 -1       829 7.60417E-02 1.87500E-02 0.00000E+00
 -1       830 7.70833E-02 1.87500E-02 0.00000E+00
 -1       831 7.81250E-02 1.87500E-02 0.00000E+00
 -1       832 7.91667E-02 1.87500E-02 0.00000E+00
 -1       833 8.02083E-02 1.87500E-02 0.00000E+00
 -1       834 8.12500E-02 1.87500E-02 0.00000E+00
 -1       835 8.22917E-02 1.87500E-02 0.00000E+00
 -1       836 6.66667E-02 1.97917E-02 0.00000E+00
 -1       837 6.66667E-02 2.08333E-02 0.00000E+00
 -1       838 6.66667E-02 2.18750E-02 0.00000E+00
 -1       839 6.66667E-02 2.29167E-02 0.00000E+00
 -1       840 6.66667E-02 2.39583E-02 0.00000E+00
 -1       856 8.43750E-02 1.87500E-02 0.00000E+00
 -1       857 8.54167E-02 1.87500E-02 0.00000E+00
 -1       858 8.64583E-02 1.87500E-02 0.00000E+00
 -1       859 8.75000E-02 1.87500E-02 0.00000E+00
 -1       860 8.85417E-02 1.87500E-02 0.00000E+00
 -1       861 8.95833E-02 1.87500E-02 0.00000E+00
 -1       862 9.06250E-02 1.87500E-02 0.00000E+00
 -1       863 9.16667E-02 1.87500E-02 0.00000E+00
 -1       864 9.27083E-02 1.87500E-02 0.00000E+00
 -1       865 9.37500E-02 1.87500E-02 0.00000E+00
 -1       866 9.47917E-02 1.87500E-02 0.00000E+00
 -1       867 9.58333E-02 1.87500E-02 0.00000E+00
 -1       868 9.68750E-02 1.87500E-02 0.00000E+00
 -1       869 9.79167E-02 1.87500E-02 0.00000E+00
 -1       870 9.89583E-02 1.87500E-02 0.00000E+00
 -1       871 8.33333E-02 1.97917E-02 0.00000E+00
 -1       872 8.33333E-02 2.08333E-02 0.00000E+00
 -1       873 8.33333E-02 2.18750E-02 0.00000E+00
 -1       874 8.33333E-02 2.29167E-02 0.00000E+00
 -1       875 8.33333E-02 2.39583E-02 0.00000E+00
 -1       876 8.43750E-02 1.91406E-02 0.00000E+00
 -1       877 8.54167E-02 1.95312E-02 0.00000E+00
 -1       878 8.64583E-02 1.99219E-02 0.00000E+00
 -1       879 8.75000E-02 2.03125E-02 0.00000E+00
 -1       880 8.85417E-02 2.07031E-02 0.00000E+00
 -1       881 8.95833E-02 2.10938E-02 0.00000E+00
 -1       882 9.06250E-02 2.14844E-02 0.00000E+00
 -1       883 9.16667E-02 2.18750E-02 0.00000E+00
 -1       884 9.27083E-02 2.22656E-02 0.00000E+00
 -1       885 9.37500E-02 2.26563E-02 0.00000E+00
 -1       886 9.47917E-02 2.30469E-02 0.00000E+00
 -1       887 9.58333E-02 2.34375E-02 0.00000E+00
 -1       888 9.68750E-02 2.38281E-02 0.00000E+00
 -1       889 9.79167E-02 2.42187E-02 0.00000E+00
 -1       890 9.89583E-02 2.46094E-02 0.00000E+00
 -1       891 1.00000E-01 1.97917E-02 0.00000E+00
 -1       892 1.00000E-01 2.08333E-02 0.00000E+00
 -1       893 1.00000E-01 2.18750E-02 0.00000E+00
 -1       894 1.00000E-01 2.29167E-02 0.00000E+00
 -1       895 1.00000E-01 2.39583E-02 0.00000E+00
 -1       956 6.77083E-02 2.50000E-02 0.00000E+00
 -1       957 6.87500E-02 2.50000E-02 0.00000E+00
 -1       958 6.97917E-02 2.50000E-02 0.00000E+00
 -1       959 7.08333E-02 2.50000E-02 0.00000E+00
 -1       960 7.18750E-02 2.50000E-02 0.00000E+00
 -1       961 7.29167E-02 2.50000E-02 0.00000E+00
 -1       962 7.39583E-02 2.50000E-02 0.00000E+00
 -1       963 7.50000E-02 2.50000E-02 0.00000E+00
 -1       964 7.60417E-02 2.50000E-02 0.00000E+00
 -1       965 7.70833E-02 2.50000E-02 0.00000E+00
 -1       966 7.81250E-02 2.50000E-02 0.00000E+00
 -1       967 7.91667E-02 2.50000E-02 0.00000E+00
 -1       968 8.02083E-02 2.50000E-02 0.00000E+00
 -1       969 8.12500E-02 2.50000E-02 0.00000E+00
 -1       970 8.22917E-02 2.50000E-02 0.00000E+00
 -1       971 8.43750E-02 2.50000E-02 0.00000E+00
 -1       972 8.54167E-02 2.50000E-02 0.00000E+00
 -1       973 8.64583E-02 2.50000E-02 0.00000E+00
 -1       974 8.75000E-02 2.50000E-02 0.00000E+00
 -1       975 8.85417E-02 2.50000E-02 0.00000E+00
 -1       976 8.95833E-02 2.50000E-02 0.00000E+00
 -1       977 9.06250E-02 2.50000E-02 0.00000E+00
 -1       978 9.16667E-02 2.50000E-02 0.00000E+00
 -1       979 9.27083E-02 2.50000E-02 0.00000E+00
 -1       980 9.37500E-02 2.50000E-02 0.00000E+00
 -1       981 9.47917E-02 2.50000E-02 0.00000E+00
 -1       982 9.58333E-02 2.50000E-02 0.00000E+00
 -1       983 9.68750E-02 2.50000E-02 0.00000E+00
 -1       984 9.79167E-02 2.50000E-02 0.00000E+00
 -1       985 9.89583E-02 2.50000E-02 0.00000E+00
 -3
    3C                           211                                     1
 -1         1   12    0    1
 -2         1        52        51
 -1         2   12    0    1
 -2        52        54        53
 -1         3   12    0    1
 -2        54         8        55
 -1         4   12    0    1
 -2         1        57        56
 -1         5   12    0    1
 -2        57        59        58
 -1         6   12    0    1
 -2        59        61        60
 -1         7   12    0    1
 -2        61        63        62
 -1         8   12    0    1
 -2        63        65        64
 -1         9   12    0    1
 -2        65        67        66
 -1        10   12    0    1
 -2        67        69        68
 -1        11   12    0    1
 -2        69         9        70
 -1        12   12    0    1
 -2         2        87        86
 -1        13   12    0    1
 -2        87        89        88
 -1        14   12    0    1
 -2        89         9        90
 -1        15   12    0    1
 -2         3       122       121
 -1        16   12    0    1
 -2       122       124       123
 -1        17   12    0    1
 -2       124        10       125
 -1        18   12    0    1
 -2         5       192       191
 -1        19   12    0    1
 -2       192       194       193
 -1        20   12    0    1
 -2       194        12       195
 -1        21   12    0    1
 -2         8       252       251
 -1        22   12    0    1
 -2       252       254       253
 -1        23   12    0    1
 -2       254       256       255
 -1        24   12    0    1
 -2       256       258       257
 -1        25   12    0    1
 -2       258       260       259
 -1        26   12    0    1
 -2       260       262       261
 -1        27   12    0    1
 -2       262       264       263
 -1        28   12    0    1
 -2       264         9       265
 -1        29   12    0    1
 -2         8       267       266
 -1        30   12    0    1
 -2       267       269       268
 -1        31   12    0    1
 -2       269        15       270
 -1        32   12    0    1
 -2         8       272       271
 -1        33   12    0    1
 -2       272       274       273
 -1        34   12    0    1
 -2       274       276       275
 -1        35   12    0    1
 -2       276       278       277
 -1        36   12    0    1
 -2       278       280       279
 -1        37   12    0    1
 -2       280       282       281
 -1        38   12    0    1
 -2       282       284       283
 -1        39   12    0    1
 -2       284        16       285
 -1        40   12    0    1
 -2         9       302       301
 -1        41   12    0    1
 -2       302       304       303
 -1        42   12    0    1
 -2       304        16       305
 -1        43   12    0    1
 -2         9       307       306
 -1        44   12    0    1
 -2       307       309       308
 -1        45   12    0    1
 -2       309       311       310
 -1        46   12    0    1
 -2       311       313       312
 -1        47   12    0    1
 -2       313       315       314
 -1        48   12    0    1
 -2       315       317       316
 -1        49   12    0    1
 -2       317       319       318
 -1        50   12    0    1
 -2       319        17       320
 -1        51   12    0    1
 -2        10       337       336
 -1        52   12    0    1
 -2       337       339       338
 -1        53   12    0    1
 -2       339        17       340
 -1        54   12    0    1
 -2        12       407       406
 -1        55   12    0    1
 -2       407       409       408
 -1        56   12    0    1
 -2       409        19       410
 -1        57   12    0    1
 -2        16       522       521
 -1        58   12    0    1
 -2       522       524       523
 -1        59   12    0    1
 -2       524       526       525
 -1        60   12    0    1
 -2       526       528       527
 -1        61   12    0    1
 -2       528       530       529
 -1        62   12    0    1
 -2       530       532       531
 -1        63   12    0    1
 -2       532       534       533
 -1        64   12    0    1
 -2       534        24       535
 -1        65   12    0    1
 -2        17       537       536
 -1        66   12    0    1
 -2       537       539       538
 -1        67   12    0    1
 -2       539       541       540
 -1        68   12    0    1
 -2       541       543       542
 -1        69   12    0    1
 -2       543       545       544
 -1        70   12    0    1
 -2       545       547       546
 -1        71   12    0    1
 -2       547       549       548
 -1        72   12    0    1
 -2       549        18       550
 -1        73   12    0    1
 -2        17       552       551
 -1        74   12    0    1
 -2       552       554       553
 -1        75   12    0    1
 -2       554        24       555
 -1        76   12    0    1
 -2        17       557       556
 -1        77   12    0    1
 -2       557       559       558
 -1        78   12    0    1
 -2       559       561       560
 -1        79   12    0    1
 -2       561       563       562
 -1        80   12    0    1
 -2       563       565       564
 -1        81   12    0    1
 -2       565       567       566
 -1        82   12    0    1
 -2       567       569       568
 -1        83   12    0    1
 -2       569        25       570
 -1        84   12    0    1
 -2        18       572       571
 -1        85   12    0    1
 -2       572       574       573
 -1        86   12    0    1
 -2       574       576       575
 -1        87   12    0    1
 -2       576       578       577
 -1        88   12    0    1
 -2       578       580       579
 -1        89   12    0    1
 -2       580       582       581
 -1        90   12    0    1
 -2       582       584       583
 -1        91   12    0    1
 -2       584        19       585
 -1        92   12    0    1
 -2        18       587       586
 -1        93   12    0    1
 -2       587       589       588
 -1        94   12    0    1
 -2       589        25       590
 -1        95   12    0    1
 -2        18       592       591
 -1        96   12    0    1
 -2       592       594       593
 -1        97   12    0    1
 -2       594       596       595
 -1        98   12    0    1
 -2       596       598       597
 -1        99   12    0    1
 -2       598       600       599
 -1       100   12    0    1
 -2       600       602       601
 -1       101   12    0    1
 -2       602       604       603
 -1       102   12    0    1
 -2       604        26       605
 -1       103   12    0    1
 -2        19       607       606
 -1       104   12    0    1
 -2       607       609       608
 -1       105   12    0    1
 -2       609       611       610
 -1       106   12    0    1
 -2       611       613       612
 -1       107   12    0    1
 -2       613       615       614
 -1       108   12    0    1
 -2       615       617       616
 -1       109   12    0    1
 -2       617       619       618
 -1       110   12    0    1
 -2       619        20       620
 -1       111   12    0    1
 -2        19       622       621
 -1       112   12    0    1
 -2       622       624       623
 -1       113   12    0    1
 -2       624        26       625
 -1       114   12    0    1
 -2        19       627       626
 -1       115   12    0    1
 -2       627       629       628
 -1       116   12    0    1
 -2       629       631       630
 -1       117   12    0    1
 -2       631       633       632
 -1       118   12    0    1
 -2       633       635       634
 -1       119   12    0    1
 -2       635       637       636
 -1       120   12    0    1
 -2       637       639       638
 -1       121   12    0    1
 -2       639        27       640
 -1       122   12    0    1
 -2        20       657       656
 -1       123   12    0    1
 -2       657       659       658
 -1       124   12    0    1
 -2       659        27       660
 -1       125   12    0    1
 -2        20       662       661
 -1       126   12    0    1
 -2       662       664       663
 -1       127   12    0    1
 -2       664       666       665
 -1       128   12    0    1
 -2       666       668       667
 -1       129   12    0    1
 -2       668       670       669
 -1       130   12    0    1
 -2       670       672       671
 -1       131   12    0    1
 -2       672       674       673
 -1       132   12    0    1
 -2       674        28       675
 -1       133   12    0    1
 -2        21       677       676
 -1       134   12    0    1
 -2       677       679       678
 -1       135   12    0    1
 -2       679        28       680
 -1       136   12    0    1
 -2        24       772       771
 -1       137   12    0    1
 -2       772       774       773
 -1       138   12    0    1
 -2       774       776       775
 -1       139   12    0    1
 -2       776       778       777
 -1       140   12    0    1
 -2       778       780       779
 -1       141   12    0    1
 -2       780       782       781
 -1       142   12    0    1
 -2       782       784       783
 -1       143   12    0    1
 -2       784        32       785
 -1       144   12    0    1
 -2        25       787       786
 -1       145   12    0    1
 -2       787       789       788
 -1       146   12    0    1
 -2       789       791       790
 -1       147   12    0    1
 -2       791       793       792
 -1       148   12    0    1
 -2       793       795       794
 -1       149   12    0    1
 -2       795       797       796
 -1       150   12    0    1
 -2       797       799       798
 -1       151   12    0    1
 -2       799        26       800
 -1       152   12    0    1
 -2        25       802       801
 -1       153   12    0    1
 -2       802       804       803
 -1       154   12    0    1
 -2       804        32       805
 -1       155   12    0    1
 -2        25       807       806
 -1       156   12    0    1
 -2       807       809       808
 -1       157   12    0    1
 -2       809       811       810
 -1       158   12    0    1
 -2       811       813       812
 -1       159   12    0    1
 -2       813       815       814
 -1       160   12    0    1
 -2       815       817       816
 -1       161   12    0    1
 -2       817       819       818
 -1       162   12    0    1
 -2       819        33       820
 -1       163   12    0    1
 -2        26       822       821
 -1       164   12    0    1
 -2       822       824       823
 -1       165   12    0    1
 -2       824       826       825
 -1       166   12    0    1
 -2       826       828       827
 -1       167   12    0    1
 -2       828       830       829
 -1       168   12    0    1
 -2       830       832       831
 -1       169   12    0    1
 -2       832       834       833
 -1       170   12    0    1
 -2       834        27       835
 -1       171   12    0    1
 -2        26       837       836
 -1       172   12    0    1
 -2       837       839       838
 -1       173   12    0    1
 -2       839        33       840
 -1       174   12    0    1
 -2        27       857       856
 -1       175   12    0    1
 -2       857       859       858
 -1       176   12    0    1
 -2       859       861       860
 -1       177   12    0    1
 -2       861       863       862
 -1       178   12    0    1
 -2       863       865       864
 -1       179   12    0    1
 -2       865       867       866
 -1       180   12    0    1
 -2       867       869       868
 -1       181   12    0    1
 -2       869        28       870
 -1       182   12    0    1
 -2        27       872       871
 -1       183   12    0    1
 -2       872       874       873
 -1       184   12    0    1
 -2       874        34       875
 -1       185   12    0    1
 -2        27       877       876
 -1       186   12    0    1
 -2       877       879       878
 -1       187   12    0    1
 -2       879       881       880
 -1       188   12    0    1
 -2       881       883       882
 -1       189   12    0    1
 -2       883       885       884
 -1       190   12    0    1
 -2       885       887       886
 -1       191   12    0    1
 -2       887       889       888
 -1       192   12    0    1
 -2       889        35       890
 -1       193   12    0    1
 -2        28       892       891
 -1       194   12    0    1
 -2       892       894       893
 -1       195   12    0    1
 -2       894        35       895
 -1       196   12    0    1
 -2        33       957       956
 -1       197   12    0    1
 -2       957       959       958
 -1       198   12    0    1
 -2       959       961       960
 -1       199   12    0    1
 -2       961       963       962
 -1       200   12    0    1
 -2       963       965       964
 -1       201   12    0    1
 -2       965       967       966
 -1       202   12    0    1
 -2       967       969       968
 -1       203   12    0    1
 -2       969        34       970
 -1       204   12    0    1
 -2        34       972       971
 -1       205   12    0    1
 -2       972       974       973
 -1       206   12    0    1
 -2       974       976       975
 -1       207   12    0    1
 -2       976       978       977
 -1       208   12    0    1
 -2       978       980       979
 -1       209   12    0    1
 -2       980       982       981
 -1       210   12    0    1
 -2       982       984       983
 -1       211   12    0    1
 -2       984        35       985
 -3
    1PSTEP                         1           1           1          
  100CL  101 2.50000E-01         409                     0    1           1
 -4  DISP        4    1
 -5  D1          1    2    1    0
 -5  D2          1    2    2    0
 -5  D3          1    2    3    0
 -5  ALL         1    2    0    0    1ALL
 -1         1 6.52355E-05 0.00000E+00 0.00000E+00
 -1         2 6.02680E-05 2.06002E-29-1.65436E-24
 -1         3 5.54695E-05-2.35147E-27 0.00000E+00
 -1         5 4.00444E-05 4.91857E-26 0.00000E+00
 -1         8 5.20697E-05-4.68841E-07 0.00000E+00
 -1         9 5.28938E-05 3.09969E-07 0.00000E+00
 -1        10 5.14297E-05-7.59936E-07 1.65436E-24
 -1        12 3.97584E-05 2.72193E-07 8.27181E-25
 -1        15 3.64077E-05-5.01460E-07 0.00000E+00
 -1        16 3.76673E-05 2.49380E-07 0.00000E+00
 -1        17 3.83741E-05-1.59214E-06 0.00000E+00
 -1        18 3.83732E-05 7.75908E-08 0.00000E+00
 -1        19 3.89006E-05 5.42912E-07 0.00000E+00
 -1        20 3.89728E-05 8.10594E-06 0.00000E+00
 -1        21 3.87024E-05 1.53439E-05 0.00000E+00
 -1        24 9.81949E-06-2.11697E-06 0.00000E+00
 -1        25 3.74453E-05 1.39809E-07 0.00000E+00
 -1        26 3.79610E-05 7.55844E-07 0.00000E+00
 -1        27 3.71987E-05 6.89588E-06 0.00000E+00
 -1        28 3.69540E-05 1.51111E-05 0.00000E+00
 -1        32 0.00000E+00 0.00000E+00 0.00000E+00
 -1        33 3.63473E-05 1.01401E-06 0.00000E+00
 -1        34 3.56200E-05 6.88523E-06 0.00000E+00
 -1        35 3.49289E-05 1.49884E-05 0.00000E+00
 -1        51 6.43788E-05-7.81421E-08 0.00000E+00
 -1        52 6.27913E-05-1.53929E-07 0.00000E+00
 -1        53 6.06169E-05-2.29960E-07 0.00000E+00
 -1        54 5.80052E-05-3.06948E-07-1.65436E-24
 -1        55 5.51061E-05-3.85419E-07-1.55096E-24
 -1        56 6.46330E-05-3.64433E-07 1.32349E-23
 -1        57 6.40903E-05-9.55865E-07-6.61744E-24
 -1        58 6.36092E-05-1.70796E-06-1.32349E-23
 -1        59 6.31621E-05-2.56242E-06 1.32349E-23
 -1        60 6.27289E-05-3.45439E-06-2.64698E-23
 -1        61 6.22850E-05-4.32001E-06 0.00000E+00
 -1        62 6.18075E-05-5.09597E-06 0.00000E+00
 -1        63 6.12732E-05-5.72059E-06 0.00000E+00
 -1        64 6.06608E-05-6.13699E-06-2.64698E-23
 -1        65 5.99504E-05-6.29156E-06-1.32349E-23
 -1        66 5.91249E-05-6.13915E-06 2.64698E-23
 -1        67 5.81695E-05-5.63925E-06 0.00000E+00
 -1        68 5.70727E-05-4.76286E-06-1.32349E-23
 -1        69 5.58289E-05-3.48554E-06 6.61744E-24
 -1        70 5.44294E-05-1.79855E-06 0.00000E+00
 -1        86 6.00716E-05 5.52402E-08 1.65436E-24
 -1        87 5.94820E-05 1.10039E-07-8.27181E-25
 -1        88 5.84873E-05 1.64486E-07 8.27181E-25
 -1        89 5.70745E-05 2.16612E-07-5.16988E-26
 -1        90 5.52187E-05 2.68661E-07 0.00000E+00
 -1       121 5.53570E-05-1.26322E-07 0.00000E+00
 -1       122 5.50196E-05-2.52695E-07 0.00000E+00
 -1       123 5.44576E-05-3.79170E-07 3.30872E-24
 -1       124 5.36714E-05-5.05819E-07-1.65436E-24
 -1       125 5.26618E-05-6.32656E-07 0.00000E+00
 -1       191 4.00364E-05 4.53685E-08 1.65436E-24
 -1       192 4.00126E-05 9.07363E-08 8.27181E-25
 -1       193 3.99729E-05 1.36104E-07 1.65436E-24
 -1       194 3.99173E-05 1.81470E-07 0.00000E+00
 -1       195 3.98458E-05 2.26833E-07 1.65436E-24
 -1       251 5.21104E-05 1.69855E-06 0.00000E+00
 -1       252 5.21620E-05 2.99387E-06 5.16988E-26
 -1       253 5.22137E-05 3.56003E-06-8.27181E-25
 -1       254 5.22674E-05 3.53820E-06 8.27181E-25
 -1       255 5.23210E-05 3.05296E-06 0.00000E+00
 -1       256 5.23748E-05 2.22779E-06-8.27181E-25
 -1       257 5.24284E-05 1.17655E-06-1.65436E-24
 -1       258 5.24819E-05 1.25502E-08 0.00000E+00
 -1       259 5.25354E-05-1.15412E-06-1.65436E-24
 -1       260 5.25890E-05-2.21336E-06 8.27181E-25
 -1       261 5.26428E-05-3.05199E-06-1.65436E-24
 -1       262 5.26964E-05-3.55638E-06-8.27181E-25
 -1       263 5.27500E-05-3.60334E-06 0.00000E+00
 -1       264 5.28017E-05-3.06866E-06 1.03398E-25
 -1       265 5.28533E-05-1.81167E-06 0.00000E+00
 -1       266 4.94594E-05-4.80768E-07-3.30872E-24
 -1       267 4.68490E-05-4.85413E-07-8.27181E-25
 -1       268 4.42387E-05-4.90520E-07 0.00000E+00
 -1       269 4.16284E-05-4.94260E-07 0.00000E+00
 -1       270 3.90180E-05-4.97969E-07-2.06795E-25
 -1       271 5.04855E-05 1.47059E-06-1.32349E-23
 -1       272 4.91432E-05 2.69248E-06 1.32349E-23
 -1       273 4.80363E-05 3.29161E-06 0.00000E+00
 -1       274 4.71253E-05 3.35770E-06 0.00000E+00
 -1       275 4.63769E-05 2.98901E-06-2.64698E-23
 -1       276 4.57529E-05 2.28666E-06 0.00000E+00
 -1       277 4.52143E-05 1.35555E-06 0.00000E+00
 -1       278 4.47213E-05 3.02677E-07 0.00000E+00
 -1       279 4.42332E-05-7.63708E-07 0.00000E+00
 -1       280 4.37097E-05-1.73518E-06 1.32349E-23
 -1       281 4.31106E-05-2.50437E-06 0.00000E+00
 -1       282 4.23966E-05-2.96583E-06 1.32349E-23
 -1       283 4.15292E-05-3.01744E-06 2.64698E-23
 -1       284 4.04737E-05-2.56018E-06 0.00000E+00
 -1       285 3.91915E-05-1.50231E-06 0.00000E+00
 -1       301 5.03155E-05 2.96755E-07 0.00000E+00
 -1       302 4.77377E-05 2.91348E-07 0.00000E+00
 -1       303 4.51720E-05 2.86167E-07 0.00000E+00
 -1       304 4.26305E-05 2.80117E-07 0.00000E+00
 -1       305 4.01250E-05 2.72841E-07 0.00000E+00
 -1       306 5.12642E-05 2.18893E-06 1.32349E-23
 -1       307 4.98915E-05 3.30525E-06 1.32349E-23
 -1       308 4.87903E-05 3.70466E-06 0.00000E+00
 -1       309 4.79339E-05 3.43793E-06 1.32349E-23
 -1       310 4.72866E-05 2.61275E-06 0.00000E+00
 -1       311 4.68025E-05 1.34886E-06 0.00000E+00
 -1       312 4.64243E-05-1.98438E-07 0.00000E+00
 -1       313 4.60913E-05-1.86710E-06 0.00000E+00
 -1       314 4.57393E-05-3.48506E-06 0.00000E+00
 -1       315 4.53047E-05-4.88154E-06 0.00000E+00
 -1       316 4.47303E-05-5.90391E-06-2.64698E-23
 -1       317 4.39631E-05-6.40852E-06 0.00000E+00
 -1       318 4.29636E-05-6.29353E-06 0.00000E+00
 -1       319 4.17041E-05-5.47036E-06-1.32349E-23
 -1       320 4.01651E-05-3.91124E-06-1.32349E-23
 -1       336 4.99464E-05-8.97523E-07 3.30872E-24
 -1       337 4.81835E-05-1.03574E-06 1.65436E-24
 -1       338 4.61423E-05-1.17442E-06-3.30872E-24
 -1       339 4.38254E-05-1.31349E-06 0.00000E+00
 -1       340 4.12350E-05-1.45322E-06 0.00000E+00
 -1       406 3.96551E-05 3.17546E-07 0.00000E+00
 -1       407 3.95359E-05 3.62882E-07-2.48154E-24
 -1       408 3.94008E-05 4.08189E-07 1.65436E-24
 -1       409 3.92499E-05 4.53410E-07 8.27181E-25
 -1       410 3.90831E-05 4.98457E-07-1.65436E-24
 -1       521 3.54013E-05 1.64675E-06-2.64698E-23
 -1       522 3.34224E-05 2.13076E-06 0.00000E+00
 -1       523 3.17662E-05 1.76540E-06 5.29396E-23
 -1       524 3.03895E-05 6.27668E-07 0.00000E+00
 -1       525 2.92368E-05-1.10924E-06-5.29396E-23
 -1       526 2.82330E-05-3.24967E-06 0.00000E+00
 -1       527 2.72888E-05-5.55025E-06 0.00000E+00
 -1       528 2.63109E-05-7.76133E-06-2.64698E-23
 -1       529 2.52101E-05-9.64334E-06-5.29396E-23
 -1       530 2.39023E-05-1.09711E-05-2.64698E-23
 -1       531 2.23269E-05-1.15837E-05 5.29396E-23
 -1       532 2.04358E-05-1.13509E-05 0.00000E+00
 -1       533 1.82148E-05-1.02409E-05 0.00000E+00
 -1       534 1.56737E-05-8.25668E-06 0.00000E+00
 -1       535 1.28404E-05-5.50877E-06-2.64698E-23
 -1       536 3.83667E-05 1.07002E-06 0.00000E+00
 -1       537 3.83648E-05 3.06899E-06 4.13590E-25
 -1       538 3.83637E-05 4.47481E-06 4.13590E-25
 -1       539 3.83640E-05 5.35751E-06 1.03398E-25
 -1       540 3.83645E-05 5.78623E-06-5.16988E-26
 -1       541 3.83653E-05 5.83008E-06 0.00000E+00
 -1       542 3.83661E-05 5.55745E-06 0.00000E+00
 -1       543 3.83669E-05 5.03673E-06 0.00000E+00
 -1       544 3.83675E-05 4.33583E-06 0.00000E+00
 -1       545 3.83680E-05 3.52263E-06 0.00000E+00
 -1       546 3.83686E-05 2.66482E-06 0.00000E+00
 -1       547 3.83692E-05 1.83009E-06 0.00000E+00
 -1       548 3.83698E-05 1.08613E-06 0.00000E+00
 -1       549 3.83707E-05 5.00703E-07 5.16988E-26
 -1       550 3.83716E-05 1.41841E-07-2.06795E-25
 -1       551 3.45852E-05-1.67305E-06 0.00000E+00
 -1       552 3.00525E-05-1.75565E-06 4.13590E-25
 -1       553 2.50410E-05-1.84057E-06 0.00000E+00
 -1       554 1.98195E-05-1.92782E-06 0.00000E+00
 -1       555 1.46568E-05-2.01623E-06 6.61744E-24
 -1       556 3.73833E-05 9.80637E-07 0.00000E+00
 -1       557 3.66266E-05 2.94520E-06 0.00000E+00
 -1       558 3.60784E-05 4.35781E-06 0.00000E+00
 -1       559 3.57157E-05 5.27912E-06 0.00000E+00
 -1       560 3.55151E-05 5.76962E-06 0.00000E+00
 -1       561 3.54534E-05 5.89012E-06 0.00000E+00
 -1       562 3.55078E-05 5.70146E-06 0.00000E+00
 -1       563 3.56553E-05 5.26451E-06 1.65436E-24
 -1       564 3.58729E-05 4.64018E-06 0.00000E+00
 -1       565 3.61379E-05 3.88940E-06 0.00000E+00
 -1       566 3.64274E-05 3.07311E-06-4.13590E-25
 -1       567 3.67186E-05 2.25224E-06 0.00000E+00
 -1       568 3.69888E-05 1.48774E-06 0.00000E+00
 -1       569 3.72151E-05 8.40464E-07 0.00000E+00
 -1       570 3.73746E-05 3.71309E-07 0.00000E+00
 -1       571 3.84053E-05 1.28699E-07-4.13590E-25
 -1       572 3.84380E-05 1.57845E-07-4.13590E-25
 -1       573 3.84709E-05 1.68911E-07-4.13590E-25
 -1       574 3.85039E-05 1.65988E-07-2.06795E-25
 -1       575 3.85369E-05 1.53183E-07 8.27181E-25
 -1       576 3.85700E-05 1.34632E-07 0.00000E+00
 -1       577 3.86031E-05 1.14471E-07 8.27181E-25
 -1       578 3.86362E-05 9.68445E-08 0.00000E+00
 -1       579 3.86692E-05 8.58922E-08 1.65436E-24
 -1       580 3.87023E-05 8.57564E-08 8.27181E-25
 -1       581 3.87354E-05 1.00578E-07 1.65436E-24
 -1       582 3.87685E-05 1.34494E-07 0.00000E+00
 -1       583 3.88015E-05 1.91637E-07 0.00000E+00
 -1       584 3.88346E-05 2.76095E-07 0.00000E+00
 -1       585 3.88676E-05 3.91937E-07 0.00000E+00
 -1       586 3.82075E-05 8.86184E-08 0.00000E+00
 -1       587 3.80276E-05 9.93618E-08 1.03398E-25
 -1       588 3.78475E-05 1.09984E-07 0.00000E+00
 -1       589 3.76811E-05 1.20435E-07 0.00000E+00
 -1       590 3.75425E-05 1.30599E-07 0.00000E+00
 -1       591 3.83392E-05 1.45547E-07-5.16988E-26
 -1       592 3.83107E-05 1.95168E-07 0.00000E+00
 -1       593 3.82877E-05 2.29910E-07-2.06795E-25
 -1       594 3.82690E-05 2.52894E-07 0.00000E+00
 -1       595 3.82535E-05 2.67284E-07 0.00000E+00
 -1       596 3.82400E-05 2.76216E-07 0.00000E+00
 -1       597 3.82273E-05 2.82830E-07 0.00000E+00
 -1       598 3.82144E-05 2.90260E-07 0.00000E+00
 -1       599 3.82000E-05 3.01642E-07 0.00000E+00
 -1       600 3.81829E-05 3.20110E-07 0.00000E+00
 -1       601 3.81620E-05 3.48799E-07-1.03398E-25
 -1       602 3.81361E-05 3.90848E-07 5.16988E-26
 -1       603 3.81040E-05 4.49395E-07 7.75482E-26
 -1       604 3.80648E-05 5.27603E-07 0.00000E+00
 -1       605 3.80171E-05 6.28595E-07 0.00000E+00
 -1       606 3.89067E-05 7.69206E-07 0.00000E+00
 -1       607 3.89117E-05 1.04282E-06 8.27181E-25
 -1       608 3.89164E-05 1.36097E-06-1.65436E-24
 -1       609 3.89209E-05 1.72053E-06-8.27181E-25
 -1       610 3.89254E-05 2.11836E-06-1.65436E-24
 -1       611 3.89298E-05 2.55125E-06 8.27181E-25
 -1       612 3.89342E-05 3.01602E-06 0.00000E+00
 -1       613 3.89385E-05 3.50948E-06 0.00000E+00
 -1       614 3.89429E-05 4.02842E-06 0.00000E+00
 -1       615 3.89472E-05 4.56964E-06 0.00000E+00
 -1       616 3.89515E-05 5.12996E-06 0.00000E+00
 -1       617 3.89559E-05 5.70617E-06 0.00000E+00
 -1       618 3.89602E-05 6.29506E-06-4.13590E-25
 -1       619 3.89644E-05 6.89346E-06 0.00000E+00
 -1       620 3.89687E-05 7.49815E-06 2.06795E-25
 -1       621 3.87211E-05 5.78429E-07 8.27181E-25
 -1       622 3.85546E-05 6.14115E-07 0.00000E+00
 -1       623 3.83983E-05 6.49794E-07-8.27181E-25
 -1       624 3.82492E-05 6.85417E-07 0.00000E+00
 -1       625 3.81044E-05 7.20978E-07 0.00000E+00
 -1       626 3.88538E-05 7.80382E-07 0.00000E+00
 -1       627 3.87927E-05 1.05706E-06 0.00000E+00
 -1       628 3.87182E-05 1.36932E-06 1.65436E-24
 -1       629 3.86319E-05 1.71329E-06 0.00000E+00
 -1       630 3.85352E-05 2.08509E-06 0.00000E+00
 -1       631 3.84295E-05 2.48084E-06-1.65436E-24
 -1       632 3.83162E-05 2.89661E-06 1.65436E-24
 -1       633 3.81969E-05 3.32852E-06 0.00000E+00
 -1       634 3.80730E-05 3.77265E-06 0.00000E+00
 -1       635 3.79460E-05 4.22510E-06 8.27181E-25
 -1       636 3.78173E-05 4.68197E-06 8.27181E-25
 -1       637 3.76884E-05 5.13936E-06 0.00000E+00
 -1       638 3.75607E-05 5.59335E-06-8.27181E-25
 -1       639 3.74358E-05 6.04005E-06 0.00000E+00
 -1       640 3.73148E-05 6.47555E-06-8.27181E-25
 -1       656 3.84678E-05 7.90910E-06 3.30872E-24
 -1       657 3.81409E-05 7.70435E-06-1.65436E-24
 -1       658 3.79226E-05 7.50023E-06 0.00000E+00
 -1       659 3.77423E-05 7.29627E-06-1.65436E-24
 -1       660 3.75257E-05 7.09167E-06 0.00000E+00
 -1       661 3.87859E-05 8.70175E-06-4.13590E-25
 -1       662 3.86100E-05 9.27255E-06-4.13590E-25
 -1       663 3.84431E-05 9.81881E-06-8.27181E-25
 -1       664 3.82854E-05 1.03417E-05 0.00000E+00
 -1       665 3.81361E-05 1.08420E-05 0.00000E+00
 -1       666 3.79949E-05 1.13208E-05 0.00000E+00
 -1       667 3.78616E-05 1.17789E-05 8.27181E-25
 -1       668 3.77356E-05 1.22172E-05-4.13590E-25
 -1       669 3.76167E-05 1.26367E-05 0.00000E+00
 -1       670 3.75047E-05 1.30381E-05 0.00000E+00
 -1       671 3.73990E-05 1.34223E-05 0.00000E+00
 -1       672 3.72995E-05 1.37900E-05 4.13590E-25
 -1       673 3.72058E-05 1.41421E-05 0.00000E+00
 -1       674 3.71173E-05 1.44792E-05 0.00000E+00
 -1       675 3.70342E-05 1.48022E-05 2.06795E-25
 -1       676 3.84106E-05 1.53048E-05 0.00000E+00
 -1       677 3.81189E-05 1.52658E-05-4.13590E-25
 -1       678 3.78273E-05 1.52268E-05-8.27181E-25
 -1       679 3.75359E-05 1.51879E-05 0.00000E+00
 -1       680 3.72448E-05 1.51491E-05 0.00000E+00
 -1       771 7.87703E-06 1.55713E-06 0.00000E+00
 -1       772 6.18464E-06 4.55689E-06 1.32349E-23
 -1       773 4.73147E-06 6.92294E-06 0.00000E+00
 -1       774 3.50102E-06 8.69759E-06-1.32349E-23
 -1       775 2.47718E-06 9.92362E-06 0.00000E+00
 -1       776 1.64332E-06 1.06446E-05 0.00000E+00
 -1       777 9.82652E-07 1.09046E-05-1.32349E-23
 -1       778 4.78223E-07 1.07483E-05 6.61744E-24
 -1       779 1.12980E-07 1.02208E-05-1.32349E-23
 -1       780-1.30302E-07 9.36758E-06 0.00000E+00
 -1       781-2.68872E-07 8.23455E-06 0.00000E+00
 -1       782-3.20117E-07 6.86802E-06 0.00000E+00
 -1       783-3.01437E-07 5.31444E-06-1.32349E-23
 -1       784-2.30287E-07 3.62059E-06-6.61744E-24
 -1       785-1.24180E-07 1.83337E-06 1.32349E-23
 -1       786 3.74756E-05 1.44281E-07 0.00000E+00
 -1       787 3.75078E-05 1.54041E-07 4.13590E-25
 -1       788 3.75398E-05 1.67774E-07 0.00000E+00
 -1       789 3.75722E-05 1.84170E-07 4.13590E-25
 -1       790 3.76046E-05 2.02771E-07 0.00000E+00
 -1       791 3.76371E-05 2.23127E-07 0.00000E+00
 -1       792 3.76695E-05 2.45349E-07 8.27181E-25
 -1       793 3.77020E-05 2.69553E-07 0.00000E+00
 -1       794 3.77345E-05 2.96492E-07-8.27181E-25
 -1       795 3.77670E-05 3.26925E-07 0.00000E+00
 -1       796 3.77994E-05 3.62733E-07-8.27181E-25
 -1       797 3.78319E-05 4.05807E-07 0.00000E+00
 -1       798 3.78643E-05 4.60378E-07 0.00000E+00
 -1       799 3.78967E-05 5.30692E-07 0.00000E+00
 -1       800 3.79291E-05 6.26064E-07-8.27181E-25
 -1       801 3.49155E-05 1.41914E-07-4.13590E-25
 -1       802 2.73938E-05 1.19919E-07 4.13590E-25
 -1       803 1.75118E-05 7.90944E-08 0.00000E+00
 -1       804 7.90051E-06 3.72135E-08 0.00000E+00
 -1       805 1.18680E-06 1.79430E-08 0.00000E+00
 -1       806 3.74061E-05 1.20732E-07-8.27181E-25
 -1       807 3.73655E-05 1.01493E-07 4.13590E-25
 -1       808 3.73237E-05 8.45506E-08 0.00000E+00
 -1       809 3.72801E-05 7.19968E-08-4.13590E-25
 -1       810 3.72340E-05 6.59209E-08 8.27181E-25
 -1       811 3.71847E-05 6.83822E-08 0.00000E+00
 -1       812 3.71314E-05 8.14380E-08-1.65436E-24
 -1       813 3.70734E-05 1.07141E-07 8.27181E-25
 -1       814 3.70098E-05 1.47543E-07 8.27181E-25
 -1       815 3.69400E-05 2.04695E-07 4.13590E-25
 -1       816 3.68631E-05 2.80646E-07-8.27181E-25
 -1       817 3.67784E-05 3.77446E-07-4.13590E-25
 -1       818 3.66851E-05 4.97145E-07-1.65436E-24
 -1       819 3.65826E-05 6.41784E-07 0.00000E+00
 -1       820 3.64700E-05 8.13406E-07-8.27181E-25
 -1       821 3.79160E-05 9.19262E-07 4.13590E-25
 -1       822 3.78683E-05 1.11566E-06 0.00000E+00
 -1       823 3.78208E-05 1.34999E-06 1.65436E-24
 -1       824 3.77728E-05 1.62714E-06 8.27181E-25
 -1       825 3.77247E-05 1.94761E-06 0.00000E+00
 -1       826 3.76765E-05 2.31177E-06 0.00000E+00
 -1       827 3.76283E-05 2.71555E-06-1.65436E-24
 -1       828 3.75800E-05 3.15477E-06 8.27181E-25
 -1       829 3.75317E-05 3.62161E-06 0.00000E+00
 -1       830 3.74835E-05 4.10820E-06 0.00000E+00
 -1       831 3.74352E-05 4.60464E-06 0.00000E+00
 -1       832 3.73871E-05 5.10101E-06 8.27181E-25
 -1       833 3.73389E-05 5.58739E-06-1.65436E-24
 -1       834 3.72914E-05 6.05389E-06-4.13590E-25
 -1       835 3.72436E-05 6.49266E-06 0.00000E+00
 -1       836 3.77655E-05 7.98816E-07 0.00000E+00
 -1       837 3.75117E-05 8.42740E-07-4.13590E-25
 -1       838 3.72212E-05 8.86587E-07-8.27181E-25
 -1       839 3.69157E-05 9.30155E-07 0.00000E+00
 -1       840 3.66172E-05 9.73655E-07 1.03398E-25
 -1       856 3.71851E-05 7.30907E-06 0.00000E+00
 -1       857 3.71700E-05 7.77419E-06-1.03398E-25
 -1       858 3.71549E-05 8.28301E-06 0.00000E+00
 -1       859 3.71395E-05 8.82730E-06 0.00000E+00
 -1       860 3.71241E-05 9.39880E-06 0.00000E+00
 -1       861 3.71087E-05 9.98921E-06 0.00000E+00
 -1       862 3.70932E-05 1.05903E-05 0.00000E+00
 -1       863 3.70777E-05 1.11937E-05 0.00000E+00
 -1       864 3.70622E-05 1.17911E-05 0.00000E+00
 -1       865 3.70468E-05 1.23743E-05 0.00000E+00
 -1       866 3.70313E-05 1.29349E-05-4.13590E-25
 -1       867 3.70158E-05 1.34647E-05 2.06795E-25
 -1       868 3.70004E-05 1.39554E-05 0.00000E+00
 -1       869 3.69850E-05 1.43989E-05 2.06795E-25
 -1       870 3.69695E-05 1.47868E-05-4.13590E-25
 -1       871 3.68829E-05 6.89552E-06 2.06795E-25
 -1       872 3.66168E-05 6.89411E-06 0.00000E+00
 -1       873 3.63791E-05 6.89252E-06 0.00000E+00
 -1       874 3.61481E-05 6.89068E-06-2.58494E-26
 -1       875 3.59022E-05 6.88860E-06 1.03398E-25
 -1       876 3.70891E-05 7.31332E-06 0.00000E+00
 -1       877 3.69710E-05 7.75601E-06-8.27181E-25
 -1       878 3.68447E-05 8.22090E-06 1.65436E-24
 -1       879 3.67113E-05 8.70515E-06 8.27181E-25
 -1       880 3.65717E-05 9.20589E-06 0.00000E+00
 -1       881 3.64270E-05 9.72028E-06 8.27181E-25
 -1       882 3.62782E-05 1.02455E-05 0.00000E+00
 -1       883 3.61265E-05 1.07786E-05 8.27181E-25
 -1       884 3.59728E-05 1.13169E-05 0.00000E+00
 -1       885 3.58182E-05 1.18574E-05 8.27181E-25
 -1       886 3.56639E-05 1.23974E-05 1.65436E-24
 -1       887 3.55108E-05 1.29340E-05 0.00000E+00
 -1       888 3.53599E-05 1.34643E-05-8.27181E-25
 -1       889 3.52123E-05 1.39855E-05-4.13590E-25
 -1       890 3.50689E-05 1.44947E-05 4.13590E-25
 -1       891 3.66731E-05 1.50905E-05 4.13590E-25
 -1       892 3.63833E-05 1.50699E-05 2.06795E-25
 -1       893 3.60742E-05 1.50493E-05 4.13590E-25
 -1       894 3.57356E-05 1.50288E-05 1.03398E-25
 -1       895 3.53572E-05 1.50083E-05 0.00000E+00
 -1       956 3.63026E-05 1.27359E-06-8.27181E-25
 -1       957 3.62573E-05 1.56234E-06 0.00000E+00
 -1       958 3.62118E-05 1.87726E-06 1.65436E-24
 -1       959 3.61663E-05 2.21512E-06-4.13590E-25
 -1       960 3.61207E-05 2.57272E-06 8.27181E-25
 -1       961 3.60750E-05 2.94683E-06 0.00000E+00
 -1       962 3.60294E-05 3.33421E-06 0.00000E+00
 -1       963 3.59838E-05 3.73165E-06 0.00000E+00
 -1       964 3.59381E-05 4.13590E-06 0.00000E+00
 -1       965 3.58925E-05 4.54373E-06 0.00000E+00
 -1       966 3.58469E-05 4.95192E-06-1.65436E-24
 -1       967 3.58012E-05 5.35722E-06 0.00000E+00
 -1       968 3.57556E-05 5.75642E-06 0.00000E+00
 -1       969 3.57101E-05 6.14628E-06 0.00000E+00
 -1       970 3.56647E-05 6.52359E-06-1.65436E-24
 -1       971 3.55774E-05 7.25675E-06 0.00000E+00
 -1       972 3.55341E-05 7.66683E-06-4.13590E-25
 -1       973 3.54908E-05 8.11119E-06 8.27181E-25
 -1       974 3.54474E-05 8.58539E-06 8.27181E-25
 -1       975 3.54040E-05 9.08502E-06-8.27181E-25
 -1       976 3.53605E-05 9.60562E-06 8.27181E-25
 -1       977 3.53170E-05 1.01428E-05 1.65436E-24
 -1       978 3.52736E-05 1.06920E-05 0.00000E+00
 -1       979 3.52301E-05 1.12489E-05 1.65436E-24
 -1       980 3.51866E-05 1.18090E-05 0.00000E+00
 -1       981 3.51432E-05 1.23679E-05-1.65436E-24
 -1       982 3.50997E-05 1.29211E-05 0.00000E+00
 -1       983 3.50564E-05 1.34642E-05 1.65436E-24
 -1       984 3.50132E-05 1.39927E-05 0.00000E+00
 -1       985 3.49702E-05 1.45022E-05 8.27181E-25
 -3
    1PSTEP                         2           1           1          
  100CL  101 2.50000E-01         409                     0    1           1
 -4  STRESS      6    1
 -5  SXX         1    4    1    1
 -5  SYY         1    4    2    2
 -5  SZZ         1    4    3    3
 -5  SXY         1    4    1    2
 -5  SYZ         1    4    2    3
 -5  SZX         1    4    3    1
 -1         1-8.63910E+05-3.98587E+05-1.75234E+05-5.58306E+05 1.87356E-10-5.23869E-10
 -1         2 1.44472E+03 1.59908E+05 4.70695E+03 2.67217E+02-7.56017E-11 1.13010E-08
 -1         3-1.82442E+01-3.61100E+05 8.30180E+01-6.58817E+01-6.66596E-11-1.13141E-09
 -1         5-2.13556E+00 1.29803E+05 3.39896E+00-5.14221E-02 5.58586E-11-1.16565E-08
 -1         8-4.07010E+05-1.77337E+05-1.38789E+04-3.08514E+05 1.57343E-10-1.64800E-09
 -1         9-6.98534E+05-1.82668E+05-6.93980E+04-2.42748E+05 1.94123E-09 4.60423E-09
 -1        10-2.67889E+02-3.76194E+05-4.78465E+02-4.36455E+02-1.67938E-09-6.08325E-09
 -1        12-7.40286E-01 1.29810E+05 1.10173E+02-1.07020E-01 8.42988E-11 1.38887E-08
 -1        15 1.07553E+03 5.91056E+02 3.47661E+03 1.21404E+00-1.32434E-08-5.26741E-06
 -1        16-1.96248E+06-6.33007E+05-3.05148E+05-6.44099E+05 6.12636E-09-1.24176E-09
 -1        17-4.32096E+05-2.67969E+05-8.30282E+04-2.53418E+05-2.81871E-09 1.96014E-09
 -1        18 1.72457E+04 1.86096E+03-5.71128E+03-3.06616E+04 4.03361E-10-2.71643E-09
 -1        19 4.06883E+04 4.84549E+04-2.34327E+02 8.03214E+03-3.47245E-10-2.39743E-09
 -1        20-1.67479E+04-1.92235E+05-4.23764E+04 1.43769E+04 2.12905E-09 1.76108E-09
 -1        21-1.82348E+01-1.11628E+05-3.60671E+02-2.23417E+01-4.99314E-09-3.23144E-09
 -1        24-1.72164E+06-6.03024E+05-2.45940E+05-7.35749E+05-8.31885E-09-3.94599E-09
 -1        25 1.55100E+04-3.82992E+03 8.87093E+03-5.52485E+04 4.65752E-10 2.27519E-09
 -1        26-8.86582E+03 3.32396E+04-6.46554E+03-4.77307E+03 6.51380E-10-1.54054E-09
 -1        27-3.11502E+04-1.05584E+05-3.96605E+04 2.37687E+04 2.95025E-09-2.12397E-09
 -1        28 8.62083E+03-3.08269E+04 6.29893E+03 9.91518E+03 2.41300E-09-4.63523E-09
 -1        32-4.13221E+05-6.61073E+04 1.76467E+05-2.77008E+05-8.17090E-09 8.44397E-09
 -1        33-6.02410E+04 3.10288E+04 1.09961E+04-1.83098E+04 5.84151E-10 3.79456E-09
 -1        34-7.83406E+04-7.79516E+03 1.85381E+02 2.40719E+04 1.59541E-09-2.11344E-09
 -1        35-8.77335E+03-1.22639E+04-4.77544E+02 1.94401E+04 8.27524E-10 4.73544E-10
 -1        51 8.24144E+03-2.04642E+05 1.98531E+04-5.03527E+05 1.23691E-10 1.37079E-08
 -1        52 3.99438E+03-2.02591E+05 1.30354E+04-5.87268E+05 6.18456E-11 2.14932E-08
 -1        53 2.40204E+03-2.07358E+05 1.13525E+04-5.01824E+05 7.63976E-11 1.06666E-08
 -1        54 7.88657E+03-2.05268E+05 1.82958E+04-5.89085E+05-5.45697E-11 3.20142E-10
 -1        55 1.81376E+04-2.11867E+05 3.29158E+04-5.01615E+05 2.98314E-10 5.27507E-11
 -1        56-1.65950E+06-1.87756E+05-1.29608E+05-6.40156E+05 3.60160E-10 1.10595E-09
 -1        57-1.71218E+06-3.04315E+05-8.73500E+04-6.34466E+05-5.17957E-10 2.58933E-09
 -1        58-1.68526E+06-2.29058E+05-3.05156E+04-6.32358E+05-1.10822E-09 2.91038E-11
 -1        59-1.68238E+06-2.55896E+05-1.82173E+04-6.43838E+05-1.17666E-11-4.90786E-09
 -1        60-1.68906E+06-2.34794E+05-7.13391E+03-6.31282E+05-4.60091E-10-8.65384E-10
 -1        61-1.67828E+06-2.48902E+05-4.05758E+03-6.44768E+05-1.08571E-09 2.50458E-09
 -1        62-1.68932E+06-2.35878E+05-1.95511E+03-6.31483E+05-3.68345E-11 3.60411E-09
 -1        63-1.67860E+06-2.47158E+05-1.61164E+03-6.43824E+05-9.96408E-10 3.16365E-09
 -1        64-1.68870E+06-2.36533E+05-1.84670E+03-6.32216E+05-3.11502E-10-2.08388E-09
 -1        65-1.68062E+06-2.46312E+05-3.70629E+03-6.41870E+05-1.13801E-09-2.40755E-09
 -1        66-1.68728E+06-2.36761E+05-6.51018E+03-6.33410E+05 2.75122E-10-7.87622E-10
 -1        67-1.68654E+06-2.50402E+05-1.65341E+04-6.38408E+05-8.71921E-10-3.69414E-09
 -1        68-1.68279E+06-2.32621E+05-2.77416E+04-6.35605E+05-3.08773E-10-3.28328E-09
 -1        69-1.71552E+06-2.92462E+05-7.93201E+04-6.27713E+05 1.08980E-09-1.60071E-09
 -1        70-1.65853E+06-1.95955E+05-1.17748E+05-6.43649E+05-2.76486E-10 4.01633E-09
 -1        86-7.23810E+02 1.58508E+05 5.05318E+03-1.33616E+02 6.57792E-10 3.83585E-09
 -1        87 4.80648E+03 1.61544E+05 1.05282E+04 5.46787E+02 1.11186E-09 4.82110E-09
 -1        88-4.07566E+03 1.56873E+05 1.61343E+04-4.13185E+02 1.61162E-09-4.47380E-09
 -1        89 3.03758E+04 1.73440E+05 4.34885E+04 1.16540E+03 2.47610E-09-2.52874E-09
 -1        90-2.62093E+04 1.46617E+05 6.14519E+04-7.52053E+02 2.76850E-09-2.50623E-09
 -1       121-3.46418E+01-3.61217E+05 8.29989E+01 3.29215E+01 1.83764E-10 2.69483E-09
 -1       122 9.04440E+00-3.61082E+05 1.81907E+02-1.31911E+02-6.79103E-10 2.83580E-09
 -1       123-5.46952E+01-3.61237E+05 2.99113E+02 9.88762E+01 5.37938E-10-4.23006E-09
 -1       124 3.44762E+02-3.60874E+05 7.64636E+02-3.26999E+02-1.30501E-09-8.52833E-09
 -1       125-2.73465E+02-3.61427E+05 1.17721E+03 2.28031E+02 8.71296E-10-2.69483E-09
 -1       191-2.35486E+00 1.29814E+05 4.07914E+00 2.55515E-02 8.21546E-11-1.73368E-08
 -1       192-2.44750E+00 1.29803E+05 7.19632E+00 1.56746E-01 1.30997E-10-3.53232E-08
 -1       193-3.18456E+00 1.29814E+05 1.33996E+01-1.83417E-01 1.28041E-10-1.60107E-08
 -1       194-3.45156E+00 1.29805E+05 2.72199E+01 4.93787E-01 4.40674E-11 2.09343E-09
 -1       195-4.77950E+00 1.29813E+05 5.32611E+01-3.13495E-01 1.89335E-10 4.87034E-09
 -1       251 1.43046E+05-2.53678E+04 5.93085E+04 2.14997E+03-8.09450E-11-4.14730E-10
 -1       252 1.69605E+05 2.93643E+04 4.20022E+04-7.51020E+03-5.18696E-10 2.86309E-09
 -1       253 1.53153E+05-3.92915E+03 1.53538E+04 1.62181E+03 1.93097E-10-4.86580E-10
 -1       254 1.57739E+05 4.54267E+03 9.68345E+03-6.67104E+03-1.32147E-10-4.43049E-09
 -1       255 1.54878E+05-6.07473E+02 3.96728E+03 1.31093E+03 2.46899E-10-1.52386E-09
 -1       256 1.55689E+05 7.19745E+02 2.40751E+03-6.21024E+03 3.63670E-10 2.63344E-09
 -1       257 1.55188E+05-1.06553E+02 1.24103E+03 1.16099E+03-1.67340E-10 2.39228E-09
 -1       258 1.55376E+05 2.23294E+02 1.10068E+03-6.05845E+03-1.75987E-10 1.78455E-09
 -1       259 1.55187E+05-1.08815E+02 1.26243E+03 1.15915E+03-4.67047E-10-1.49092E-09
 -1       260 1.55697E+05 7.39587E+02 2.46841E+03-6.20340E+03-7.48066E-10-3.03581E-09
 -1       261 1.54871E+05-6.24833E+02 4.07852E+03 1.30594E+03-6.41762E-11-3.94834E-09
 -1       262 1.57799E+05 4.67364E+03 9.95811E+03-6.65630E+03 2.91806E-10 1.85162E-09
 -1       263 1.53101E+05-4.04200E+03 1.57966E+04 1.61206E+03-3.95971E-10 2.52567E-09
 -1       264 1.69991E+05 3.02092E+04 4.32054E+04-7.48658E+03-1.25428E-09 1.80762E-09
 -1       265 1.42711E+05-2.60961E+04 6.10199E+04 2.13610E+03-5.85146E-10-1.82263E-09
 -1       266-1.94707E+04-9.10515E+03 4.56809E+04-2.59757E+01-2.07601E-08-8.29908E-06
 -1       267 2.25718E+04 1.06113E+04 3.22881E+04 2.99724E+01-4.10510E-08-1.63933E-05
 -1       268-3.02684E+03-1.50290E+03 1.20013E+04-3.81888E+00-3.29960E-08-1.31510E-05
 -1       269 3.57380E+03 1.79860E+03 7.80071E+03 4.44854E+00-2.48049E-08-9.91723E-06
 -1       270-5.36431E+02-2.95526E+02 3.76551E+03-6.03674E-01-1.83051E-08-7.30249E-06
 -1       271-1.91280E+06-2.37682E+05-1.47079E+05-7.43900E+05-4.38376E-10 1.37516E-09
 -1       272-1.95253E+06-3.58184E+05-9.45786E+04-7.57828E+05 6.52108E-10 3.03771E-10
 -1       273-1.94046E+06-2.74334E+05-3.47394E+04-7.37393E+05 3.11502E-11-1.74623E-10
 -1       274-1.92036E+06-3.13120E+05-1.94644E+04-7.67739E+05-4.72028E-10 5.50699E-09
 -1       275-1.94455E+06-2.77861E+05-8.08114E+03-7.35961E+05 1.88265E-09 3.06773E-09
 -1       276-1.91556E+06-3.08935E+05-4.30272E+03-7.70030E+05 9.13133E-10 1.13698E-09
 -1       277-1.94541E+06-2.77906E+05-2.10396E+03-7.35433E+05-1.30626E-09-2.81756E-09
 -1       278-1.91474E+06-3.08805E+05-1.53158E+03-7.70662E+05 3.10308E-10 2.61593E-10
 -1       279-1.94545E+06-2.77898E+05-1.64245E+03-7.35403E+05-3.81192E-10-9.43828E-10
 -1       280-1.91530E+06-3.08810E+05-3.00973E+03-7.70178E+05-5.23869E-10-6.09907E-09
 -1       281-1.94478E+06-2.77969E+05-5.49659E+03-7.35859E+05 1.90084E-10-8.20364E-10
 -1       282-1.91880E+06-3.11318E+05-1.31355E+04-7.68239E+05 7.46240E-10 4.86580E-09
 -1       283-1.94180E+06-2.75841E+05-2.34287E+04-7.37078E+05 6.84850E-10 2.63572E-09
 -1       284-1.94096E+06-3.41100E+05-6.37139E+04-7.60834E+05 2.49543E-11-1.29967E-09
 -1       285-1.92281E+06-2.51543E+05-9.91381E+04-7.41867E+05 1.11868E-09-1.85537E-09
 -1       301 7.33937E+03-4.64646E+03 5.73880E+04-1.42745E+04-3.09228E-10 3.84688E-10
 -1       302 7.87883E+03 9.92622E+03 4.14460E+04-2.09905E+04 8.30710E-10-5.78024E-09
 -1       303 3.29867E+02 5.07509E+02 3.81583E+04-1.42959E+04-4.30191E-10-3.96221E-09
 -1       304 1.48776E+04 1.63791E+04 6.41946E+04-2.09353E+04 4.19277E-10 4.45368E-09
 -1       305 1.47494E+04-1.10693E+04 1.07723E+05-1.42994E+04-5.05679E-10 5.17321E-09
 -1       306-2.06385E+06-2.36048E+05-1.57195E+05-8.03073E+05 6.62112E-10-1.92813E-09
 -1       307-2.13864E+06-3.75289E+05-1.07205E+05-7.83200E+05 9.71340E-10 4.85488E-09
 -1       308-2.09864E+06-2.85770E+05-3.69783E+04-7.89354E+05 1.92358E-10 5.09681E-09
 -1       309-2.09629E+06-3.19521E+05-2.24328E+04-8.01773E+05-8.79396E-10-1.52886E-09
 -1       310-2.10605E+06-2.90859E+05-8.67607E+03-7.84851E+05 9.32161E-10-5.45697E-11
 -1       311-2.08689E+06-3.14524E+05-5.04263E+03-8.08146E+05 2.21559E-09-1.25317E-09
 -1       312-2.10807E+06-2.90591E+05-2.46346E+03-7.83072E+05 7.09349E-10 5.23778E-09
 -1       313-2.08514E+06-3.14533E+05-2.22283E+03-8.09656E+05-2.04394E-09 3.92907E-09
 -1       314-2.10782E+06-2.90819E+05-2.66813E+03-7.83363E+05-1.09137E-09-5.93445E-10
 -1       315-2.08791E+06-3.13793E+05-5.63890E+03-8.07016E+05-7.60821E-10-3.04533E-09
 -1       316-2.10526E+06-2.91377E+05-9.80046E+03-7.85676E+05 1.01210E-09-9.66338E-10
 -1       317-2.09879E+06-3.19259E+05-2.53865E+04-7.99584E+05-1.41776E-09 2.03727E-10
 -1       318-2.09691E+06-2.85549E+05-4.18625E+04-7.90696E+05-2.31876E-09 5.60249E-09
 -1       319-2.14641E+06-3.82829E+05-1.21401E+05-7.79075E+05-6.89397E-10 4.87853E-09
 -1       320-2.05784E+06-2.28872E+05-1.77967E+05-8.05802E+05 4.63479E-09 3.63798E-10
 -1       336 2.93975E+02-3.91042E+05-2.07008E+03 2.08251E+02-3.38900E-09-3.55703E-09
 -1       337-7.42064E+02-3.91643E+05-2.26909E+03-5.87469E+02-6.21037E-09-3.71074E-10
 -1       338 1.94973E+02-3.91104E+05-2.84370E+03 3.78412E+02-4.43333E-09 9.54969E-11
 -1       339-2.93966E+03-3.92984E+05-6.23320E+03-9.25378E+02-8.26640E-09 2.23008E-09
 -1       340 2.01156E+03-3.89711E+05-9.59523E+03 5.44429E+02-5.52654E-09 8.34643E-09
 -1       406 7.68879E+00 1.29808E+05 2.17532E+02 4.15919E-01 2.99465E-10 4.74984E-09
 -1       407 7.50970E+01 1.29848E+05 4.62315E+02-5.64487E+00 3.50724E-11-1.76988E-09
 -1       408 2.37240E+02 1.29775E+05 9.23379E+02 5.27770E+00 3.16390E-10 1.68484E-09
 -1       409 9.97727E+02 1.30144E+05 2.07885E+03-4.73586E+01-8.53788E-11 7.28619E-10
 -1       410 2.86798E+03 1.29513E+05 4.24395E+03 4.29901E+01 3.38787E-10 1.07957E-09
 -1       521-3.88766E+06-4.47696E+05-2.90905E+05-1.51036E+06 2.12822E-09-6.66478E-09
 -1       522-4.02701E+06-6.99863E+05-1.97742E+05-1.47275E+06-1.45610E-09 1.80080E-10
 -1       523-3.95239E+06-5.37707E+05-6.83938E+04-1.48459E+06 5.64796E-10-7.27596E-10
 -1       524-3.94824E+06-5.98665E+05-4.12840E+04-1.50752E+06-9.78844E-11-3.45608E-10
 -1       525-3.96594E+06-5.46692E+05-1.59843E+04-1.47634E+06-3.96653E-10 2.39197E-10
 -1       526-3.93213E+06-5.88663E+05-9.22040E+03-1.51781E+06-4.48743E-10 1.77192E-09
 -1       527-3.96850E+06-5.47331E+05-4.42576E+03-1.47447E+06-1.55183E-11 2.94722E-09
 -1       528-3.93217E+06-5.85198E+05-3.79483E+03-1.51644E+06-1.79455E-10 2.80096E-10
 -1       529-3.96584E+06-5.50146E+05-4.44460E+03-1.47769E+06 4.63842E-11-3.73802E-10
 -1       530-3.94187E+06-5.78423E+05-9.08483E+03-1.50584E+06 2.63299E-10 1.27693E-09
 -1       531-3.95867E+06-5.54246E+05-1.59368E+04-1.48495E+06 2.13265E-09 2.33376E-09
 -1       532-3.96508E+06-5.81214E+05-4.09092E+04-1.48755E+06-3.49530E-10-3.99723E-10
 -1       533-3.94266E+06-5.47710E+05-6.78867E+04-1.49583E+06 2.48292E-09-3.55067E-09
 -1       534-4.04565E+06-6.79777E+05-1.96243E+05-1.45130E+06 2.32831E-09 3.71620E-09
 -1       535-3.87881E+06-4.57723E+05-2.88600E+05-1.52061E+06-5.50062E-09 3.62343E-09
 -1       536-2.84826E+03-1.11223E+04 2.56407E+04 2.74230E+02-8.09351E-10 5.38967E-09
 -1       537 8.86967E+03 1.28704E+04 1.82423E+04-1.02279E+03-4.11738E-09 2.15186E-09
 -1       538 1.53084E+03-1.74294E+03 6.61885E+03 2.46950E+02-2.34465E-10 1.74578E-09
 -1       539 3.71667E+03 2.01287E+03 4.20990E+03-9.88502E+02 1.69394E-09-2.60115E-10
 -1       540 2.30025E+03-2.71280E+02 1.67436E+03 2.39948E+02-3.41586E-10-7.91601E-10
 -1       541 2.78333E+03 3.10949E+02 9.92293E+02-9.77608E+02-1.00965E-09 7.75628E-10
 -1       542 2.46154E+03-4.04439E+01 4.04585E+02 2.36051E+02-4.24325E-10 1.39590E-09
 -1       543 2.57319E+03 3.98818E+01 2.04978E+02-9.71572E+02 4.51006E-10 2.90314E-09
 -1       544 2.50872E+03 8.04394E-01 3.97196E+01 2.33911E+02 4.35037E-10-2.34822E-09
 -1       545 2.49726E+03-4.19178E+01-9.49809E+01-9.68932E+02-2.22990E-10-2.75377E-09
 -1       546 2.53671E+03 4.18461E+01-2.36032E+02 2.33412E+02 2.42355E-10 2.13295E-09
 -1       547 2.37056E+03-3.11568E+02-6.32384E+02-9.69522E+02-8.12832E-10 6.61544E-10
 -1       548 2.63559E+03 2.70148E+02-1.02810E+03 2.34501E+02-1.15253E-09-3.56977E-11
 -1       549 1.63660E+03-1.99209E+03-2.80810E+03-9.72804E+02-6.40675E-10 3.27464E-09
 -1       550 3.27177E+03 1.72028E+03-3.99749E+03 2.36693E+02-5.61116E-11-1.02887E-09
 -1       551 2.97895E+03-2.06461E+05 1.16071E+04-3.54339E+05-1.55105E-08 9.96806E-10
 -1       552 5.83923E+03-2.05795E+05 1.48408E+04-5.04115E+05-1.18707E-08 5.22778E-09
 -1       553 3.57780E+03-2.08514E+05 2.31341E+04-3.53229E+05-1.89648E-08 4.92946E-09
 -1       554 1.69033E+04-1.97805E+05 4.91092E+04-5.04595E+05-1.13214E-08 3.76065E-09
 -1       555 1.78836E+04-2.17988E+05 8.83664E+04-3.53737E+05-1.87574E-08-9.36780E-10
 -1       556 2.79803E+04-6.54838E+04 2.29881E+04-8.83430E+04-1.96815E-09-2.19734E-09
 -1       557 5.46288E+04-8.80117E+04 1.20041E+04-1.10255E+05 7.27596E-11 2.18188E-09
 -1       558 2.84543E+04-6.88692E+04 4.95396E+03-8.53934E+04 6.36646E-09-1.95814E-09
 -1       559 5.16709E+04-9.13641E+04 2.48088E+03-1.11404E+05 1.69457E-08-1.23732E-08
 -1       560 2.81000E+04-6.86151E+04 1.07778E+03-8.55779E+04 9.86256E-09-3.28328E-09
 -1       561 5.09606E+04-9.12765E+04 5.48969E+02-1.11843E+05 3.05590E-10 2.53203E-09
 -1       562 2.77812E+04-6.83860E+04 2.30478E+02-8.58126E+04-2.60479E-09-6.06951E-09
 -1       563 5.05682E+04-9.11112E+04 1.27240E+02-1.12093E+05-4.72937E-11-2.67960E-09
 -1       564 2.75819E+04-6.82528E+04 4.82761E+01-8.59566E+04 4.92764E-09 6.02768E-09
 -1       565 5.03675E+04-9.10273E+04 2.05816E+01-1.12217E+05 2.37060E-09-1.29967E-09
 -1       566 2.75150E+04-6.82054E+04-1.68407E+01-8.60070E+04 6.80757E-10-1.62981E-09
 -1       567 5.03354E+04-9.10109E+04-6.55988E+01-1.12204E+05 2.92050E-09-5.37602E-09
 -1       568 2.75979E+04-6.82618E+04-1.64537E+02-8.59798E+04-2.05182E-09-6.88306E-09
 -1       569 5.01353E+04-9.08961E+04-3.90111E+02-1.11765E+05-8.14453E-10 4.45652E-10
 -1       570 2.81108E+04-6.87779E+04-7.92908E+02-8.60744E+04 1.35879E-09-1.33923E-09
 -1       571 9.42943E+04 3.40752E+03 5.04619E+03-2.37413E+04 7.75344E-11-4.44106E-09
 -1       572 9.50468E+04 1.18542E+03 2.47206E+03-2.60238E+04 7.88987E-11-1.48930E-09
 -1       573 9.46002E+04 2.82622E+02 1.09817E+03-2.36791E+04 6.59384E-11 2.85058E-09
 -1       574 9.46904E+04 9.11537E+01 5.50058E+02-2.60937E+04-8.55948E-10 8.28550E-10
 -1       575 9.46362E+04 1.16847E+01 2.59214E+02-2.36708E+04 1.33696E-10 2.53112E-09
 -1       576 9.46428E+04 2.15353E+00 1.31864E+02-2.61031E+04-3.05675E-11 2.62389E-09
 -1       577 9.46415E+04-2.90002E+00 6.49404E+01-2.36697E+04 4.66116E-12 2.40084E-09
 -1       578 9.46370E+04-1.72688E+00 3.53649E+01-2.61042E+04-5.34726E-10 5.97765E-10
 -1       579 9.46449E+04-2.58186E+00 2.17078E+01-2.36697E+04-4.70891E-10-6.94172E-10
 -1       580 9.46406E+04-2.53414E+00 2.02919E+01-2.61027E+04-2.09866E-10-4.57135E-09
 -1       581 9.46499E+04-3.30673E+00 2.78129E+01-2.36712E+04-1.55524E-10-2.64936E-09
 -1       582 9.46520E+04 2.26266E+00 5.29062E+01-2.60885E+04-3.87445E-10 9.23819E-10
 -1       583 9.46544E+04 1.74754E+01 1.02010E+02-2.36839E+04 1.90539E-10 1.51908E-09
 -1       584 9.46948E+04 9.85362E+01 2.28378E+02-2.59830E+04-4.82032E-10-2.89566E-09
 -1       585 9.46355E+04 3.01560E+02 4.64524E+02-2.37768E+04-1.85082E-10-3.92356E-09
 -1       586-1.20017E+03 3.06140E+04-1.57775E+03-8.10654E+04 2.70575E-10-5.93559E-10
 -1       587-2.76016E+02 3.04050E+04-1.99534E+02-8.92052E+04 4.20187E-10-2.90200E-09
 -1       588 3.06413E+02 3.04456E+04 1.06689E+03-8.10157E+04 2.55568E-10 7.95171E-09
 -1       589 1.59397E+03 3.10276E+04 3.13899E+03-8.91320E+04 4.11092E-10 1.53957E-08
 -1       590 4.61008E+03 3.00410E+04 6.73528E+03-8.11388E+04 2.09184E-10 1.48493E-08
 -1       591-1.95053E+04-5.76529E+03-6.75741E+03-1.03151E+04-3.93072E-10-5.36784E-09
 -1       592-2.01103E+04-7.45282E+03-3.66008E+03-1.21093E+04 1.40221E-09 3.35945E-10
 -1       593-2.01887E+04-5.26706E+03-1.52372E+03-1.08023E+04 2.48241E-09 4.65707E-09
 -1       594-1.91678E+04-6.47125E+03-7.59968E+02-1.21564E+04 7.19723E-10-1.79848E-09
 -1       595-2.02408E+04-5.26493E+03-3.49256E+02-1.08245E+04 1.09969E-09 1.93504E-09
 -1       596-1.91039E+04-6.42633E+03-1.78041E+02-1.21496E+04 5.87960E-10 4.27107E-09
 -1       597-2.02474E+04-5.26929E+03-9.80036E+01-1.08254E+04-2.23665E-10-1.51110E-09
 -1       598-1.90979E+04-6.42460E+03-8.07159E+01-1.21478E+04-1.51502E-10-2.09437E-09
 -1       599-2.02470E+04-5.26922E+03-1.05483E+02-1.08253E+04-1.02779E-09-3.41089E-09
 -1       600-1.91049E+04-6.42684E+03-1.97907E+02-1.21497E+04 3.69141E-10-5.81963E-10
 -1       601-2.02390E+04-5.26430E+03-3.91362E+02-1.08241E+04 3.86194E-10 3.40265E-09
 -1       602-1.91769E+04-6.47714E+03-8.53582E+02-1.21567E+04-5.54792E-10-1.21020E-10
 -1       603-2.01800E+04-5.26736E+03-1.71196E+03-1.07993E+04-2.37492E-10 7.61361E-10
 -1       604-2.02395E+04-7.57627E+03-4.11264E+03-1.20992E+04-7.18501E-11-2.48065E-09
 -1       605-1.94078E+04-5.83029E+03-7.59274E+03-1.02556E+04 2.24367E-09 7.84848E-09
 -1       606 1.35064E+04-4.52742E+03-8.15760E+03 1.32243E+04-1.92449E-09 2.42017E-09
 -1       607 1.21096E+04-1.46022E+03-4.06227E+03 1.48450E+04-1.08230E-09-1.42154E-09
 -1       608 1.29078E+04-2.45235E+02-1.81855E+03 1.31187E+04-1.58252E-10-1.52568E-10
 -1       609 1.27520E+04-6.59700E+01-9.18741E+02 1.49618E+04-3.23871E-09 1.96906E-10
 -1       610 1.28403E+04 9.62509E+00-4.38431E+02 1.31069E+04-5.75255E-09-3.88127E-10
 -1       611 1.28128E+04 1.26118E+01-2.21291E+02 1.49746E+04-6.44764E-09 2.65914E-10
 -1       612 1.28257E+04 1.38289E+01-1.05637E+02 1.31058E+04-2.02299E-08 1.31593E-09
 -1       613 1.28168E+04 1.37944E+01-4.82910E+01 1.49762E+04-3.81540E-08-1.92438E-09
 -1       614 1.28189E+04 1.17484E+01-1.34134E+01 1.31054E+04-1.53973E-08 1.22054E-09
 -1       615 1.28151E+04 1.41879E+01 1.48429E+01 1.49765E+04 3.76713E-09 5.60283E-09
 -1       616 1.28137E+04 1.26241E+01 4.95540E+01 1.31055E+04-4.46312E-09-1.56274E-09
 -1       617 1.28209E+04 2.50821E+01 1.14844E+02 1.49763E+04-2.52976E-09-9.22228E-10
 -1       618 1.28034E+04 4.59859E+01 2.32248E+02 1.31055E+04-1.88720E-09 2.08342E-09
 -1       619 1.29027E+04 2.04956E+02 5.21974E+02 1.49760E+04-1.29717E-09 4.81805E-09
 -1       620 1.27260E+04 5.97368E+02 1.04933E+03 1.31053E+04 5.56838E-10 1.86333E-09
 -1       621 1.60185E+02 1.02212E+05 1.38527E+03 3.50589E+03-1.42137E-10-1.30206E-09
 -1       622 1.83515E+02 1.02555E+05 1.18123E+03 5.11626E+03-1.36254E-10-1.54813E-09
 -1       623 8.21169E+00 1.02311E+05 1.36570E+03 3.48994E+03-5.69003E-11 3.33671E-11
 -1       624 6.20445E+02 1.02956E+05 2.59975E+03 5.13134E+03-1.09949E-10 1.09196E-09
 -1       625 6.22730E+02 1.01810E+05 4.52253E+03 3.49091E+03-7.00311E-11 1.48181E-09
 -1       626 8.45387E+04 2.34789E+04 1.68550E+03 4.57785E+04-1.05906E-08 1.80989E-10
 -1       627 8.33749E+04 2.43372E+04 8.11805E+02 4.76364E+04-3.06779E-08-2.31309E-08
 -1       628 8.46072E+04 2.26793E+04 3.43199E+02 4.60340E+04-5.03132E-09 1.26738E-08
 -1       629 8.31354E+04 2.41448E+04 1.68034E+02 4.77512E+04 2.25486E-09 4.13576E-09
 -1       630 8.46149E+04 2.26394E+04 7.78679E+01 4.60428E+04-1.29512E-09 1.68473E-09
 -1       631 8.31091E+04 2.41393E+04 4.17728E+01 4.77549E+04-7.20684E-09 1.58411E-09
 -1       632 8.46134E+04 2.26410E+04 2.76665E+01 4.60406E+04-1.13409E-08-7.82077E-09
 -1       633 8.31052E+04 2.41409E+04 3.08355E+01 4.77533E+04-3.32943E-09 7.54767E-10
 -1       634 8.46102E+04 2.26405E+04 5.00058E+01 4.60394E+04 3.44585E-09 2.92800E-10
 -1       635 8.31082E+04 2.41413E+04 1.01411E+02 4.77539E+04 2.76054E-09-2.96836E-10
 -1       636 8.46052E+04 2.26399E+04 2.04927E+02 4.60382E+04-3.90401E-10 1.59503E-10
 -1       637 8.31499E+04 2.41740E+04 4.50447E+02 4.77518E+04 2.08817E-09 2.14482E-09
 -1       638 8.45869E+04 2.27407E+04 9.25913E+02 4.59915E+04 9.94987E-10-1.14778E-09
 -1       639 8.36329E+04 2.48520E+04 2.19050E+03 4.76071E+04-1.59912E-09-3.93834E-09
 -1       640 8.45201E+04 2.47582E+04 4.54613E+03 4.51348E+04-2.20098E-10-6.92467E-10
 -1       656 2.29349E+04-5.80496E+05-5.53811E+04-5.00207E+02 3.23780E-10-8.28109E-10
 -1       657-3.03031E+04-6.05517E+05-4.57986E+04 3.81510E+03-6.91216E-11-1.83533E-09
 -1       658 7.26996E+03-5.87639E+05-2.81053E+04-7.82709E+02 4.10580E-10 1.08798E-09
 -1       659-3.24817E+04-6.06540E+05-4.86598E+04 4.00006E+03 3.63343E-10-6.40785E-10
 -1       660 2.51073E+04-5.79474E+05-6.03093E+04-6.85162E+02 1.09139E-10-2.11460E-09
 -1       661 8.28796E+04 8.99292E+03 7.93683E+03 3.23404E+04 1.53159E-09-4.06999E-10
 -1       662 8.69789E+04 1.52523E+04 5.34806E+03 3.09987E+04 1.58207E-09-7.89214E-10
 -1       663 8.44312E+04 1.15461E+04 1.87080E+03 3.18960E+04 1.55518E-09 1.29523E-09
 -1       664 8.51862E+04 1.22609E+04 1.11839E+03 3.15360E+04 4.03688E-10 1.03491E-09
 -1       665 8.46607E+04 1.19004E+04 4.41221E+02 3.18346E+04-1.06837E-09-1.94238E-09
 -1       666 8.49194E+04 1.18508E+04 2.57190E+02 3.16122E+04-3.96901E-09 4.07198E-09
 -1       667 8.46964E+04 1.19456E+04 1.35633E+02 3.18237E+04 1.83121E-10 5.28456E-10
 -1       668 8.48838E+04 1.18116E+04 1.35717E+02 3.16263E+04 2.02999E-09-1.87315E-09
 -1       669 8.46961E+04 1.19385E+04 1.81882E+02 3.18209E+04-3.30573E-10 1.66435E-09
 -1       670 8.49349E+04 1.19025E+04 3.94116E+02 3.16199E+04 2.69542E-09 3.91253E-10
 -1       671 8.46455E+04 1.18566E+04 6.99278E+02 3.18294E+04-1.45752E-09 1.09904E-09
 -1       672 8.53476E+04 1.25776E+04 1.78858E+03 3.15156E+04-3.65643E-09-1.51897E-09
 -1       673 8.42857E+04 1.12805E+04 2.99725E+03 3.19187E+04-1.13340E-09 1.40756E-09
 -1       674 8.82060E+04 1.73882E+04 8.57187E+03 3.06716E+04 1.26488E-09-1.03864E-09
 -1       675 8.18058E+04 7.18059E+03 1.27229E+04 3.26228E+04-2.31921E-11-3.58887E-09
 -1       676 9.35646E+00-1.11598E+05-4.34698E+02 1.11711E+01 1.34254E-09-3.24623E-09
 -1       677-1.15389E+02-1.11703E+05-7.95505E+02-2.23411E+01-2.68409E-09-7.32748E-10
 -1       678 7.70334E+01-1.11523E+05-1.40622E+03 1.11623E+01-5.68434E-10 5.47116E-10
 -1       679-1.40635E+03-1.12551E+05-3.34030E+03-2.22984E+01-2.18733E-10 2.37133E-09
 -1       680 8.39215E+02-1.10749E+05-5.38350E+03 1.09998E+01 9.77934E-10-4.33873E-09
 -1       771-1.20096E+06-2.08274E+05-2.90874E+04-4.96862E+05-4.48927E-09-3.09956E-09
 -1       772-1.19331E+06-2.24803E+05-1.56586E+04-5.15264E+05-2.60115E-09 1.26965E-09
 -1       773-1.20469E+06-2.05394E+05-6.66735E+03-4.98491E+05-6.40284E-10 1.90448E-09
 -1       774-1.18901E+06-2.21227E+05-3.27111E+03-5.16617E+05 4.90400E-09-1.07138E-09
 -1       775-1.20534E+06-2.05025E+05-1.59352E+03-4.98583E+05 2.52476E-09-1.05501E-09
 -1       776-1.18884E+06-2.21169E+05-7.50780E+02-5.17182E+05 1.36606E-09-6.44241E-09
 -1       777-1.20573E+06-2.04763E+05-4.27277E+02-4.98614E+05 3.28146E-09-6.99401E-10
 -1       778-1.18892E+06-2.21239E+05-2.01286E+02-5.17642E+05 1.90084E-09 1.36470E-09
 -1       779-1.20603E+06-2.04539E+05-1.78318E+02-4.98640E+05-3.01952E-10 1.95541E-09
 -1       780-1.18902E+06-2.21305E+05-1.56376E+02-5.18015E+05-5.84805E-10-9.54969E-11
 -1       781-1.20624E+06-2.04357E+05-2.73146E+02-4.98656E+05-3.29419E-09-7.19183E-10
 -1       782-1.18913E+06-2.21382E+05-5.20693E+02-5.18291E+05-4.47562E-09-1.48970E-09
 -1       783-1.20636E+06-2.04241E+05-1.03926E+03-4.98655E+05-4.27463E-10-1.99827E-09
 -1       784-1.18980E+06-2.22078E+05-2.47157E+03-5.18431E+05-3.04499E-09 2.72848E-12
 -1       785-1.20598E+06-2.04509E+05-4.56742E+03-4.98325E+05-5.18503E-09 6.65750E-10
 -1       786 9.07158E+04-4.82529E+03 1.11258E+04-1.15324E+00 1.59835E-08 1.50521E-10
 -1       787 9.55432E+04 5.58502E+03 7.87737E+03 6.02329E+00 3.05120E-08-1.46315E-09
 -1       788 9.25770E+04-7.58670E+02 2.87934E+03 6.24981E-01 2.85548E-08-4.12683E-11
 -1       789 9.33742E+04 8.77703E+02 1.81123E+03 3.27004E+00 2.64291E-08 4.37294E-09
 -1       790 9.28850E+04-1.18879E+02 7.36337E+02 1.60006E+00 2.80394E-08 1.45587E-09
 -1       791 9.30148E+04 1.38173E+02 4.33180E+02 1.46910E+00 2.96873E-08 1.53783E-10
 -1       792 9.29366E+04-1.92752E+01 1.98212E+02 2.42595E+00 4.13452E-08-1.50429E-10
 -1       793 9.29568E+04 2.74275E+01 1.31486E+02-5.68306E-01 5.29384E-08-8.43937E-10
 -1       794 9.29430E+04-8.14965E+00 9.95749E+01 3.63750E+00 8.75810E-08-1.56827E-09
 -1       795 9.29637E+04 4.27717E+01 1.47432E+02-4.16172E+00 1.22307E-07 3.30341E-09
 -1       796 9.29296E+04-3.46166E+01 2.22617E+02 6.01944E+00 2.08423E-07-1.50189E-09
 -1       797 9.30655E+04 2.53153E+02 5.27065E+02-1.16443E+01 2.94752E-07-3.12443E-09
 -1       798 9.28412E+04-2.18494E+02 8.31634E+02 1.11202E+01 4.53398E-07-7.34303E-10
 -1       799 9.36902E+04 1.60822E+03 2.26956E+03-2.79750E+01 6.11408E-07 5.20922E-09
 -1       800 9.23048E+04-1.38942E+03 3.20374E+03 2.23503E+01 3.04614E-07-7.22821E-10
 -1       801-4.54955E+03 7.34251E+03 8.20365E+03 9.21245E+03 5.10204E-09-2.20928E-09
 -1       802 1.27845E+04 3.83068E+04 2.45553E+04-3.79043E+04 1.36888E-08-1.16842E-09
 -1       803-7.98286E+03 1.72612E+04 3.25176E+04 8.89528E+03 1.07721E-08 8.23778E-09
 -1       804 6.28205E+04 6.41649E+04 9.00322E+04-3.82251E+04 1.27820E-08 1.16989E-08
 -1       805-5.45896E+04-1.84246E+04 1.19290E+05 9.53271E+03 4.52565E-09 1.23716E-08
 -1       806-1.02333E+05-2.20062E+04-8.65783E+03-4.27489E+04-5.07043E-11 2.64754E-09
 -1       807-1.02823E+05-2.07860E+04-4.25336E+03-4.50671E+04 3.97705E-10-1.23396E-09
 -1       808-1.02579E+05-1.88778E+04-1.80434E+03-4.42172E+04-1.77408E-10-1.71566E-09
 -1       809-1.01915E+05-1.96055E+04-8.82114E+02-4.51906E+04-8.07859E-10 2.22673E-09
 -1       810-1.02618E+05-1.87671E+04-4.03904E+02-4.42821E+04 1.90880E-10 5.81281E-10
 -1       811-1.01845E+05-1.95587E+04-2.00332E+02-4.51808E+04-7.98764E-10-5.78780E-10
 -1       812-1.02625E+05-1.87750E+04-9.99410E+01-4.42822E+04-1.56660E-10 1.38175E-09
 -1       813-1.01837E+05-1.95598E+04-6.31096E+01-4.51760E+04-3.77440E-09-9.19175E-09
 -1       814-1.02625E+05-1.87775E+04-5.91616E+01-4.42812E+04-1.11663E-09-1.82445E-09
 -1       815-1.01839E+05-1.95606E+04-9.28027E+01-4.51753E+04-4.00178E-10 2.31665E-09
 -1       816-1.02620E+05-1.87762E+04-1.73827E+02-4.42805E+04-3.64480E-10 3.84489E-09
 -1       817-1.01869E+05-1.95770E+04-3.72998E+02-4.51732E+04 1.26465E-09 8.76526E-10
 -1       818-1.02599E+05-1.88279E+04-7.60039E+02-4.42563E+04 2.94312E-09 6.39511E-09
 -1       819-1.02291E+05-2.00326E+04-1.78923E+03-4.50721E+04-1.62072E-09-1.94541E-09
 -1       820-1.02455E+05-2.01809E+04-3.64115E+03-4.36807E+04-1.87811E-10 2.71706E-09
 -1       821-1.34395E+05 7.43486E+03-1.71968E+04-1.93514E-01-4.69226E-10 2.03727E-10
 -1       822-1.41846E+05-8.60711E+03-1.21685E+04-9.74458E+01-1.21412E-09-2.73531E-10
 -1       823-1.37271E+05 1.16552E+03-4.45403E+03-2.42546E+01 9.96536E-10 4.16549E-10
 -1       824-1.38497E+05-1.34904E+03-2.80306E+03-4.56713E+01-5.93229E-10-4.14843E-09
 -1       825-1.37745E+05 1.82509E+02-1.15138E+03-5.19698E+01-1.31891E-09-7.88702E-10
 -1       826-1.37945E+05-2.15249E+02-6.96594E+02 7.43855E+00-2.37449E-09 3.05636E-09
 -1       827-1.37822E+05 3.25620E+01-3.59178E+02-7.73656E+01-2.93918E-09 6.24624E-10
 -1       828-1.37869E+05-6.57849E+01-3.18970E+02 5.05682E+01 2.97293E-08 2.07882E-09
 -1       829-1.37821E+05 3.31601E+01-3.64422E+02-9.51002E+01 9.68356E-06-6.55771E-09
 -1       830-1.37949E+05-2.20336E+02-7.12289E+02 7.46540E+01 1.92749E-05-7.24248E-09
 -1       831-1.37741E+05 1.87020E+02-1.17895E+03-1.01452E+02-9.46740E-07-1.31934E-10
 -1       832-1.38515E+05-1.38253E+03-2.87271E+03 7.48079E+01-2.11606E-05 1.01122E-08
 -1       833-1.37256E+05 1.19451E+03-4.56454E+03-9.52538E+01-1.06294E-05 1.29148E-08
 -1       834-1.41947E+05-8.82126E+03-1.24714E+04 5.18637E+01-3.38516E-08 4.45584E-09
 -1       835-1.34309E+05 7.61988E+03-1.76249E+04-7.85050E+01 1.89320E-09 1.22054E-09
 -1       836-4.42274E+02 1.25812E+05 7.56751E+03-1.14561E+04 9.14952E-10 3.63093E-09
 -1       837 1.66061E+03 1.28158E+05 6.45767E+03-2.30323E+04 1.31013E-09-2.64356E-09
 -1       838-1.65390E+02 1.26468E+05 6.65626E+03-1.14159E+04 1.25215E-09-7.13271E-10
 -1       839 4.26535E+03 1.30105E+05 1.26675E+04-2.30471E+04 1.51613E-09-2.40806E-09
 -1       840-1.28752E+03 1.23855E+05 2.02307E+04-1.14409E+04 1.07138E-09 1.32195E-09
 -1       856-4.20058E+04 3.56805E+03-9.40153E+03-1.96871E+02-2.26390E-09-5.43423E-10
 -1       857-4.58905E+04-4.18574E+03-6.47315E+03 2.16052E+03-9.28082E-10-1.20622E-09
 -1       858-4.35406E+04 5.00173E+02-2.43993E+03-2.02691E+02-1.95311E-09-6.94513E-10
 -1       859-4.41269E+04-5.82914E+02-1.47388E+03 2.16955E+03 5.53996E-10 8.55835E-10
 -1       860-4.37703E+04 6.97284E+01-6.19733E+02-2.05936E+02 6.86825E-10 7.43455E-10
 -1       861-4.38618E+04-7.86933E+01-3.45400E+02 2.17392E+03-2.20581E-09-4.67880E-09
 -1       862-4.38061E+04 9.40253E+00-1.52470E+02-2.07063E+02 2.73674E-09-1.29062E-09
 -1       863-4.38196E+04-7.64518E+00-7.57228E+01 2.17442E+03 6.48088E-09-2.22667E-09
 -1       864-4.38126E+04 2.03543E-01-2.44026E+01-2.06446E+02 1.93742E-09 5.76954E-10
 -1       865-4.38080E+04 8.44742E+00 1.23316E+01 2.17119E+03 2.70023E-09-2.09467E-09
 -1       866-4.38173E+04-6.68789E+00 4.84376E+01-2.03829E+02-1.83292E-10-4.23101E-09
 -1       867-4.37804E+04 5.67593E+01 1.33722E+02 2.16413E+03 9.00556E-10 1.73122E-09
 -1       868-4.38395E+04-4.74218E+01 2.26440E+02-1.99387E+02 1.93774E-09-4.05215E-09
 -1       869-4.36121E+04 3.94893E+02 6.07269E+02 2.15174E+03-1.63303E-09-4.91173E-09
 -1       870-4.39844E+04-3.35891E+02 8.81761E+02-1.91440E+02 1.21557E-09-5.98430E-09
 -1       871-1.92008E+03-4.00404E+03-6.29196E+03 4.12407E+04 1.37152E-09-9.53605E-10
 -1       872-8.28558E+02-5.40802E+03-2.56181E+03 5.34644E+04 1.74919E-09-1.96223E-09
 -1       873-9.86930E+00-4.74043E+03 3.77390E+02 4.11488E+04 1.07559E-09 8.00583E-10
 -1       874 9.84387E+02-3.82389E+03 3.59598E+03 5.34840E+04 2.57228E-09 2.49480E-09
 -1       875 2.32007E+03-5.60098E+03 7.96958E+03 4.12234E+04 6.33008E-10-9.63155E-10
 -1       876 1.03474E+05 1.78197E+04 5.55220E+03 4.19655E+04-1.91648E-09-1.49521E-09
 -1       877 1.03789E+05 1.90403E+04 2.96489E+03 4.36111E+04-3.04590E-09-4.65525E-09
 -1       878 1.03994E+05 1.72042E+04 1.24223E+03 4.24210E+04 2.08058E-09 4.96470E-09
 -1       879 1.03034E+05 1.82885E+04 6.18734E+02 4.36520E+04 1.17950E-10 3.95266E-09
 -1       880 1.04033E+05 1.71967E+04 2.88093E+02 4.24396E+04 1.29683E-09 2.57290E-09
 -1       881 1.02984E+05 1.82568E+04 1.53364E+02 4.36453E+04 3.55499E-09 1.55268E-09
 -1       882 1.04037E+05 1.72007E+04 9.73748E+01 4.24401E+04 4.51780E-09-3.63401E-09
 -1       883 1.02980E+05 1.82554E+04 1.03436E+02 4.36436E+04 6.46054E-10-3.78273E-09
 -1       884 1.04035E+05 1.71994E+04 1.63458E+02 4.24402E+04 8.14100E-09-3.67208E-09
 -1       885 1.02993E+05 1.82578E+04 3.27970E+02 4.36479E+04 1.92075E-08-6.73089E-09
 -1       886 1.04023E+05 1.71898E+04 6.60735E+02 4.24389E+04 9.54468E-09-3.93584E-09
 -1       887 1.03109E+05 1.83339E+04 1.44324E+03 4.36644E+04-4.91440E-09-5.69793E-09
 -1       888 1.03931E+05 1.72062E+04 2.90824E+03 4.23928E+04 1.64390E-09 8.27640E-11
 -1       889 1.04843E+05 2.01331E+04 6.94790E+03 4.36086E+04 1.90005E-09-3.40151E-10
 -1       890 1.02745E+05 1.86146E+04 1.30125E+04 4.12844E+04 2.13936E-09 2.67300E-09
 -1       891-6.06770E+01-5.88786E+04-6.91857E+02 1.12137E+04 7.93136E-10-1.47270E-09
 -1       892-1.05958E+02-5.90476E+04-7.54190E+02 1.69746E+04 7.19297E-10 4.39968E-10
 -1       893-1.27838E+01-5.89027E+04-1.07876E+03 1.12156E+04 8.34916E-10 6.29370E-09
 -1       894-5.81233E+02-5.94685E+04-2.24150E+03 1.69149E+04-2.51930E-10 5.65467E-09
 -1       895-4.51792E+02-5.84416E+04-3.94916E+03 1.12729E+04-7.52607E-11 8.07631E-10
 -1       956-1.29898E+05-1.87897E+03-4.72951E+03 8.58247E+03-2.00271E-09-4.70777E-10
 -1       957-1.30831E+05-6.35371E+02-2.42815E+03 1.03287E+04-2.99679E-10-1.72781E-09
 -1       958-1.30315E+05-5.19699E+01-1.09376E+03 8.52692E+03 2.73394E-09 9.66338E-10
 -1       959-1.30388E+05-1.19458E+01-5.58774E+02 1.03888E+04-7.05199E-10 3.95426E-09
 -1       960-1.30350E+05 1.27574E+01-2.72255E+02 8.52192E+03-2.13913E-09 2.09911E-09
 -1       961-1.30353E+05 1.02470E+01-1.44396E+02 1.03944E+04-4.28429E-09 2.00907E-09
 -1       962-1.30356E+05 9.80753E+00-8.23776E+01 8.52134E+03-2.11116E-09-1.90198E-10
 -1       963-1.30350E+05 1.00398E+01-6.57245E+01 1.03951E+04-2.19075E-09 5.80144E-10
 -1       964-1.30357E+05 1.02283E+01-7.91929E+01 8.52113E+03-3.79885E-10-2.28056E-10
 -1       965-1.30355E+05 1.12412E+01-1.36353E+02 1.03951E+04 1.11370E-09-4.53156E-10
 -1       966-1.30353E+05 1.39689E+01-2.55594E+02 8.52138E+03-1.23470E-09 1.08321E-09
 -1       967-1.30389E+05-8.52678E+00-5.24042E+02 1.03920E+04 6.81212E-10-4.38831E-11
 -1       968-1.30321E+05-4.57332E+01-1.02531E+03 8.52424E+03-7.71365E-10-8.75218E-10
 -1       969-1.30807E+05-5.92089E+02-2.27644E+03 1.03572E+04-6.14364E-10 2.36561E-09
 -1       970-1.29932E+05-1.75795E+03-4.43375E+03 8.55698E+03 4.70891E-10 1.52795E-09
 -1       971-1.23538E+05-6.54622E+02-3.63992E+03 6.10672E+03-7.65431E-09 7.66860E-10
 -1       972-1.24423E+05-4.71698E+02-1.98264E+03 8.51616E+03-1.23191E-08 1.29626E-09
 -1       973-1.23940E+05-5.80014E+00-8.87398E+02 6.05729E+03-6.83372E-09 1.35060E-09
 -1       974-1.24000E+05-8.41002E+00-4.59869E+02 8.56903E+03 9.83505E-10-2.46700E-09
 -1       975-1.23969E+05 9.58923E+00-2.29119E+02 6.05351E+03 6.76891E-10 5.97424E-10
 -1       976-1.23973E+05 9.17141E+00-1.31259E+02 8.57332E+03-3.03191E-09-3.53396E-10
 -1       977-1.23974E+05 8.39734E+00-9.33385E+01 6.05298E+03 1.12379E-09 4.49688E-10
 -1       978-1.23972E+05 1.04262E+01-1.06751E+02 8.57404E+03 7.40124E-09-3.20142E-10
 -1       979-1.23973E+05 1.07640E+01-1.69257E+02 6.05278E+03 3.88485E-09 7.74719E-10
 -1       980-1.23984E+05 1.12393E+01-3.25400E+02 8.57408E+03 2.90346E-09-5.76961E-10
 -1       981-1.23963E+05 1.89365E+01-6.29381E+02 6.05294E+03 1.09401E-09 5.83157E-10
 -1       982-1.24072E+05-3.48036E+01-1.30044E+03 8.57189E+03-1.20963E-10-3.38986E-10
 -1       983-1.23885E+05-2.06437E+01-2.52633E+03 6.05503E+03-6.85986E-10 4.33943E-10
 -1       984-1.25288E+05-1.35294E+03-5.65716E+03 8.53833E+03-1.29239E-09 2.71717E-09
 -1       985-1.22742E+05-1.86847E+03-1.03883E+04 6.08787E+03 2.31080E-09 1.87947E-09
 -3
    1PSTEP                         3           2           1          
  100CL  102 3.12500E-01         409                     0    2           1
 -4  DISP        4    1
 -5  D1          1    2    1    0
 -5  D2          1    2    2    0
 -5  D3          1    2    3    0
 -5  ALL         1    2    0    0    1ALL
 -1         1 8.16619E-05 0.00000E+00 0.00000E+00
 -1         2 7.53874E-05 1.48702E-29 1.65436E-24
 -1         3 6.96193E-05-2.99225E-27-3.30872E-24
 -1         5 5.01492E-05 2.79186E-26 0.00000E+00
 -1         8 6.51886E-05-5.91541E-07 0.00000E+00
 -1         9 6.62400E-05 3.93713E-07 0.00000E+00
 -1        10 6.45248E-05-9.52480E-07 3.30872E-24
 -1        12 4.97950E-05 3.40478E-07 0.00000E+00
 -1        15 4.55885E-05-6.38521E-07 2.06795E-25
 -1        16 4.71602E-05 3.12461E-07 0.00000E+00
 -1        17 4.81096E-05-1.99955E-06 0.00000E+00
 -1        18 4.80732E-05 1.39455E-07 0.00000E+00
 -1        19 4.87325E-05 6.79097E-07 0.00000E+00
 -1        20 4.88222E-05 1.00957E-05 0.00000E+00
 -1        21 4.84860E-05 1.91044E-05 1.65436E-24
 -1        24 1.22979E-05-2.67617E-06 0.00000E+00
 -1        25 4.69264E-05 2.17406E-07 0.00000E+00
 -1        26 4.75729E-05 9.45410E-07 0.00000E+00
 -1        27 4.66190E-05 8.58266E-06 0.00000E+00
 -1        28 4.63128E-05 1.88133E-05 0.00000E+00
 -1        32 0.00000E+00 0.00000E+00 0.00000E+00
 -1        33 4.55696E-05 1.26817E-06 0.00000E+00
 -1        34 4.46601E-05 8.56924E-06 0.00000E+00
 -1        35 4.37955E-05 1.86598E-05 0.00000E+00
 -1        51 8.05902E-05-9.81361E-08 0.00000E+00
 -1        52 7.86040E-05-1.93467E-07 0.00000E+00
 -1        53 7.58835E-05-2.89321E-07 0.00000E+00
 -1        54 7.26157E-05-3.86607E-07 0.00000E+00
 -1        55 6.89881E-05-4.85928E-07-6.10046E-24
 -1        56 8.09131E-05-4.65317E-07 0.00000E+00
 -1        57 8.02462E-05-1.23339E-06 1.32349E-23
 -1        58 7.96618E-05-2.21714E-06 0.00000E+00
 -1        59 7.91234E-05-3.33842E-06 1.32349E-23
 -1        60 7.86035E-05-4.50951E-06 0.00000E+00
 -1        61 7.80689E-05-5.64372E-06 0.00000E+00
 -1        62 7.74882E-05-6.65544E-06 0.00000E+00
 -1        63 7.68306E-05-7.46175E-06 0.00000E+00
 -1        64 7.60680E-05-7.98789E-06-2.64698E-23
 -1        65 7.51744E-05-8.16460E-06 0.00000E+00
 -1        66 7.41291E-05-7.93668E-06-2.64698E-23
 -1        67 7.29148E-05-7.25663E-06 0.00000E+00
 -1        68 7.15195E-05-6.09556E-06 2.64698E-23
 -1        69 6.99399E-05-4.43221E-06 0.00000E+00
 -1        70 6.81700E-05-2.26903E-06 1.32349E-23
 -1        86 7.51466E-05 7.03881E-08 0.00000E+00
 -1        87 7.44235E-05 1.40186E-07-8.27181E-25
 -1        88 7.31994E-05 2.09460E-07 8.27181E-25
 -1        89 7.14540E-05 2.75686E-07 0.00000E+00
 -1        90 6.91480E-05 3.41596E-07-3.30872E-24
 -1       121 6.94773E-05-1.58233E-07 0.00000E+00
 -1       122 6.90516E-05-3.16547E-07-3.30872E-24
 -1       123 6.83426E-05-4.75022E-07-6.61744E-24
 -1       124 6.73510E-05-6.33763E-07-1.65436E-24
 -1       125 6.60779E-05-7.92804E-07 0.00000E+00
 -1       191 5.01393E-05 5.67505E-08-3.30872E-24
 -1       192 5.01098E-05 1.13500E-07 0.00000E+00
 -1       193 5.00606E-05 1.70249E-07 0.00000E+00
 -1       194 4.99918E-05 2.26996E-07 0.00000E+00
 -1       195 4.99032E-05 2.83739E-07 0.00000E+00
 -1       251 6.52402E-05 2.11594E-06-3.30872E-24
 -1       252 6.53060E-05 3.72338E-06-5.16988E-26
 -1       253 6.53721E-05 4.41719E-06-8.27181E-25
 -1       254 6.54407E-05 4.38101E-06 0.00000E+00
 -1       255 6.55092E-05 3.77205E-06 0.00000E+00
 -1       256 6.55779E-05 2.74587E-06 8.27181E-25
 -1       257 6.56462E-05 1.44280E-06-1.65436E-24
 -1       258 6.57145E-05 2.36382E-09 0.00000E+00
 -1       259 6.57828E-05-1.44095E-06 1.65436E-24
 -1       260 6.58511E-05-2.75265E-06-8.27181E-25
 -1       261 6.59197E-05-3.79339E-06 0.00000E+00
 -1       262 6.59882E-05-4.42313E-06 8.27181E-25
 -1       263 6.60568E-05-4.48677E-06 8.27181E-25
 -1       264 6.61228E-05-3.82757E-06 1.03398E-25
 -1       265 6.61887E-05-2.26262E-06 0.00000E+00
 -1       266 6.19219E-05-6.07486E-07-3.30872E-24
 -1       267 5.86553E-05-6.14327E-07-8.27181E-25
 -1       268 5.53886E-05-6.21745E-07 0.00000E+00
 -1       269 5.21219E-05-6.27454E-07 0.00000E+00
 -1       270 4.88552E-05-6.33123E-07-2.06795E-25
 -1       271 6.32036E-05 1.84010E-06 0.00000E+00
 -1       272 6.15198E-05 3.37868E-06 0.00000E+00
 -1       273 6.01310E-05 4.13758E-06 0.00000E+00
 -1       274 5.89888E-05 4.22575E-06 0.00000E+00
 -1       275 5.80523E-05 3.76466E-06-2.64698E-23
 -1       276 5.72732E-05 2.88070E-06 0.00000E+00
 -1       277 5.66027E-05 1.70621E-06-2.64698E-23
 -1       278 5.59899E-05 3.76856E-07 0.00000E+00
 -1       279 5.53836E-05-9.69642E-07-2.64698E-23
 -1       280 5.47321E-05-2.19532E-06 0.00000E+00
 -1       281 5.39845E-05-3.16390E-06 2.64698E-23
 -1       282 5.30914E-05-3.74213E-06 1.32349E-23
 -1       283 5.20042E-05-3.80205E-06 0.00000E+00
 -1       284 5.06798E-05-3.22089E-06-1.32349E-23
 -1       285 4.90711E-05-1.88669E-06-2.64698E-23
 -1       301 6.30078E-05 3.76260E-07-3.30872E-24
 -1       302 5.97769E-05 3.68554E-07 0.00000E+00
 -1       303 5.65620E-05 3.61140E-07-3.30872E-24
 -1       304 5.33778E-05 3.52656E-07 0.00000E+00
 -1       305 5.02391E-05 3.42666E-07 0.00000E+00
 -1       306 6.41934E-05 2.76901E-06-2.64698E-23
 -1       307 6.24603E-05 4.21212E-06 1.32349E-23
 -1       308 6.10707E-05 4.74945E-06 2.64698E-23
 -1       309 6.00001E-05 4.41952E-06 1.32349E-23
 -1       310 5.92059E-05 3.35146E-06 0.00000E+00
 -1       311 5.86305E-05 1.69499E-06 0.00000E+00
 -1       312 5.81968E-05-3.41110E-07 0.00000E+00
 -1       313 5.78223E-05-2.53664E-06 0.00000E+00
 -1       314 5.74192E-05-4.65520E-06-2.64698E-23
 -1       315 5.69002E-05-6.46277E-06 0.00000E+00
 -1       316 5.61893E-05-7.75680E-06 0.00000E+00
 -1       317 5.52176E-05-8.35029E-06-1.32349E-23
 -1       318 5.39393E-05-8.12630E-06 0.00000E+00
 -1       319 5.23256E-05-6.99058E-06 0.00000E+00
 -1       320 5.03659E-05-4.94452E-06 0.00000E+00
 -1       336 6.26561E-05-1.12518E-06-6.61744E-24
 -1       337 6.04363E-05-1.29880E-06 1.65436E-24
 -1       338 5.78680E-05-1.47318E-06 0.00000E+00
 -1       339 5.49547E-05-1.64822E-06 1.65436E-24
 -1       340 5.17004E-05-1.82429E-06-3.30872E-24
 -1       406 4.96670E-05 3.97207E-07 0.00000E+00
 -1       407 4.95194E-05 4.53916E-07 0.00000E+00
 -1       408 4.93521E-05 5.10586E-07 0.00000E+00
 -1       409 4.91652E-05 5.67149E-07-1.65436E-24
 -1       410 4.89586E-05 6.23493E-07 0.00000E+00
 -1       521 4.43440E-05 2.00745E-06-5.29396E-23
 -1       522 4.19359E-05 2.43114E-06 0.00000E+00
 -1       523 3.99839E-05 1.65200E-06 0.00000E+00
 -1       524 3.84308E-05-2.26000E-07 2.64698E-23
 -1       525 3.71869E-05-2.93258E-06 0.00000E+00
 -1       526 3.61335E-05-6.15689E-06 0.00000E+00
 -1       527 3.51288E-05-9.51232E-06 0.00000E+00
 -1       528 3.40263E-05-1.26060E-05-2.64698E-23
 -1       529 3.26936E-05-1.50825E-05-5.29396E-23
 -1       530 3.10104E-05-1.66197E-05 0.00000E+00
 -1       531 2.89056E-05-1.70313E-05 0.00000E+00
 -1       532 2.63321E-05-1.61911E-05 0.00000E+00
 -1       533 2.33073E-05-1.41537E-05-5.29396E-23
 -1       534 1.98850E-05-1.10341E-05 2.64698E-23
 -1       535 1.61534E-05-7.11098E-06 0.00000E+00
 -1       536 4.80973E-05 1.34533E-06 0.00000E+00
 -1       537 4.80923E-05 3.86853E-06 0.00000E+00
 -1       538 4.80886E-05 5.65273E-06 0.00000E+00
 -1       539 4.80867E-05 6.78066E-06-1.03398E-25
 -1       540 4.80853E-05 7.33659E-06 0.00000E+00
 -1       541 4.80843E-05 7.40483E-06 5.16988E-26
 -1       542 4.80832E-05 7.07072E-06 0.00000E+00
 -1       543 4.80820E-05 6.41964E-06-2.58494E-26
 -1       544 4.80807E-05 5.53764E-06 0.00000E+00
 -1       545 4.80792E-05 4.51073E-06 0.00000E+00
 -1       546 4.80777E-05 3.42529E-06 0.00000E+00
 -1       547 4.80763E-05 2.36766E-06 0.00000E+00
 -1       548 4.80750E-05 1.42413E-06 0.00000E+00
 -1       549 4.80740E-05 6.80994E-07 0.00000E+00
 -1       550 4.80731E-05 2.24148E-07 0.00000E+00
 -1       551 4.33595E-05-2.10294E-06-3.30872E-24
 -1       552 3.76777E-05-2.20927E-06 8.27181E-25
 -1       553 3.13951E-05-2.31914E-06-1.65436E-24
 -1       554 2.48476E-05-2.43223E-06 0.00000E+00
 -1       555 1.83707E-05-2.54670E-06 0.00000E+00
 -1       556 4.68653E-05 1.22848E-06-1.32349E-23
 -1       557 4.59147E-05 3.69475E-06 0.00000E+00
 -1       558 4.52257E-05 5.46960E-06 0.00000E+00
 -1       559 4.47693E-05 6.62891E-06 0.00000E+00
 -1       560 4.45161E-05 7.24835E-06 0.00000E+00
 -1       561 4.44371E-05 7.40400E-06 0.00000E+00
 -1       562 4.45037E-05 7.17200E-06 0.00000E+00
 -1       563 4.46870E-05 6.62853E-06 0.00000E+00
 -1       564 4.49584E-05 5.84984E-06 0.00000E+00
 -1       565 4.52893E-05 4.91218E-06 0.00000E+00
 -1       566 4.56512E-05 3.89184E-06-8.27181E-25
 -1       567 4.60154E-05 2.86511E-06-2.06795E-25
 -1       568 4.63535E-05 1.90827E-06 0.00000E+00
 -1       569 4.66369E-05 1.09750E-06 0.00000E+00
 -1       570 4.68372E-05 5.09043E-07 0.00000E+00
 -1       571 4.81132E-05 2.00804E-07 0.00000E+00
 -1       572 4.81541E-05 2.34630E-07 3.10193E-25
 -1       573 4.81953E-05 2.45800E-07 4.13590E-25
 -1       574 4.82366E-05 2.39437E-07-8.27181E-25
 -1       575 4.82779E-05 2.20690E-07 0.00000E+00
 -1       576 4.83192E-05 1.94740E-07 4.13590E-25
 -1       577 4.83606E-05 1.66770E-07 0.00000E+00
 -1       578 4.84019E-05 1.41972E-07 0.00000E+00
 -1       579 4.84433E-05 1.25534E-07 0.00000E+00
 -1       580 4.84846E-05 1.22646E-07-8.27181E-25
 -1       581 4.85260E-05 1.38497E-07-1.65436E-24
 -1       582 4.85674E-05 1.78269E-07 0.00000E+00
 -1       583 4.86087E-05 2.47142E-07 0.00000E+00
 -1       584 4.86500E-05 3.50239E-07 0.00000E+00
 -1       585 4.86913E-05 4.92657E-07 0.00000E+00
 -1       586 4.78683E-05 1.53268E-07 0.00000E+00
 -1       587 4.76457E-05 1.66726E-07-1.03398E-25
 -1       588 4.74227E-05 1.80033E-07-4.13590E-25
 -1       589 4.72169E-05 1.93126E-07 0.00000E+00
 -1       590 4.70457E-05 2.05861E-07 0.00000E+00
 -1       591 4.80315E-05 2.21923E-07-7.75482E-26
 -1       592 4.79968E-05 2.81428E-07 0.00000E+00
 -1       593 4.79690E-05 3.22295E-07-4.13590E-25
 -1       594 4.79466E-05 3.48433E-07 0.00000E+00
 -1       595 4.79281E-05 3.63798E-07-4.13590E-25
 -1       596 4.79122E-05 3.72320E-07 2.06795E-25
 -1       597 4.78973E-05 3.77927E-07 0.00000E+00
 -1       598 4.78821E-05 3.84543E-07 0.00000E+00
 -1       599 4.78650E-05 3.96094E-07 2.06795E-25
 -1       600 4.78446E-05 4.16502E-07-1.03398E-25
 -1       601 4.78194E-05 4.49692E-07-2.06795E-25
 -1       602 4.77880E-05 4.99593E-07-5.16988E-26
 -1       603 4.77489E-05 5.70132E-07-1.55096E-25
 -1       604 4.77008E-05 6.65270E-07 0.00000E+00
 -1       605 4.76421E-05 7.88913E-07 0.00000E+00
 -1       606 4.87402E-05 9.59785E-07 0.00000E+00
 -1       607 4.87464E-05 1.29959E-06 0.00000E+00
 -1       608 4.87523E-05 1.69506E-06 0.00000E+00
 -1       609 4.87579E-05 2.14225E-06 0.00000E+00
 -1       610 4.87634E-05 2.63726E-06 0.00000E+00
 -1       611 4.87689E-05 3.17608E-06 0.00000E+00
 -1       612 4.87744E-05 3.75473E-06 0.00000E+00
 -1       613 4.87798E-05 4.36922E-06 8.27181E-25
 -1       614 4.87852E-05 5.01554E-06 0.00000E+00
 -1       615 4.87906E-05 5.68971E-06 0.00000E+00
 -1       616 4.87959E-05 6.38773E-06 0.00000E+00
 -1       617 4.88013E-05 7.10561E-06 0.00000E+00
 -1       618 4.88066E-05 7.83933E-06 4.13590E-25
 -1       619 4.88119E-05 8.58493E-06-2.06795E-25
 -1       620 4.88172E-05 9.33840E-06 0.00000E+00
 -1       621 4.85105E-05 7.23516E-07 0.00000E+00
 -1       622 4.83048E-05 7.68148E-07-8.27181E-25
 -1       623 4.81118E-05 8.12772E-07 1.65436E-24
 -1       624 4.79280E-05 8.57326E-07-4.13590E-25
 -1       625 4.77496E-05 9.01803E-07 0.00000E+00
 -1       626 4.86749E-05 9.73758E-07 0.00000E+00
 -1       627 4.85993E-05 1.31739E-06 0.00000E+00
 -1       628 4.85071E-05 1.70547E-06 0.00000E+00
 -1       629 4.84000E-05 2.13316E-06 3.30872E-24
 -1       630 4.82799E-05 2.59562E-06 3.30872E-24
 -1       631 4.81486E-05 3.08798E-06 0.00000E+00
 -1       632 4.80079E-05 3.60534E-06 0.00000E+00
 -1       633 4.78597E-05 4.14285E-06 8.27181E-25
 -1       634 4.77057E-05 4.69562E-06 0.00000E+00
 -1       635 4.75478E-05 5.25878E-06 8.27181E-25
 -1       636 4.73878E-05 5.82745E-06 1.65436E-24
 -1       637 4.72276E-05 6.39676E-06 0.00000E+00
 -1       638 4.70689E-05 6.96181E-06-1.65436E-24
 -1       639 4.69135E-05 7.51775E-06 0.00000E+00
 -1       640 4.67632E-05 8.05968E-06 0.00000E+00
 -1       656 4.81931E-05 9.84958E-06-3.30872E-24
 -1       657 4.77861E-05 9.59356E-06 3.30872E-24
 -1       658 4.75151E-05 9.33833E-06 0.00000E+00
 -1       659 4.72927E-05 9.08331E-06-3.30872E-24
 -1       660 4.70251E-05 8.82748E-06 3.30872E-24
 -1       661 4.85895E-05 1.08380E-05 8.27181E-25
 -1       662 4.83705E-05 1.15489E-05 0.00000E+00
 -1       663 4.81629E-05 1.22291E-05-8.27181E-25
 -1       664 4.79667E-05 1.28799E-05 0.00000E+00
 -1       665 4.77810E-05 1.35027E-05-1.65436E-24
 -1       666 4.76056E-05 1.40985E-05-8.27181E-25
 -1       667 4.74398E-05 1.46686E-05 1.65436E-24
 -1       668 4.72832E-05 1.52140E-05 0.00000E+00
 -1       669 4.71355E-05 1.57359E-05 0.00000E+00
 -1       670 4.69963E-05 1.62353E-05 8.27181E-25
 -1       671 4.68650E-05 1.67133E-05 0.00000E+00
 -1       672 4.67414E-05 1.71707E-05 0.00000E+00
 -1       673 4.66251E-05 1.76087E-05-8.27181E-25
 -1       674 4.65153E-05 1.80279E-05 0.00000E+00
 -1       675 4.64122E-05 1.84295E-05 4.13590E-25
 -1       676 4.81232E-05 1.90556E-05 0.00000E+00
 -1       677 4.77605E-05 1.90068E-05-8.27181E-25
 -1       678 4.73980E-05 1.89580E-05 0.00000E+00
 -1       679 4.70359E-05 1.89094E-05-8.27181E-25
 -1       680 4.66741E-05 1.88608E-05 0.00000E+00
 -1       771 9.85653E-06 1.94398E-06 0.00000E+00
 -1       772 7.72913E-06 5.71980E-06-1.32349E-23
 -1       773 5.90238E-06 8.70097E-06 0.00000E+00
 -1       774 4.35577E-06 1.09396E-05 0.00000E+00
 -1       775 3.06926E-06 1.24884E-05 0.00000E+00
 -1       776 2.02208E-06 1.34017E-05 0.00000E+00
 -1       777 1.19325E-06 1.37341E-05 0.00000E+00
 -1       778 5.61493E-07 1.35415E-05-1.32349E-23
 -1       779 1.05410E-07 1.28803E-05 2.64698E-23
 -1       780-1.96675E-07 1.18077E-05-1.32349E-23
 -1       781-3.66485E-07 1.03815E-05-2.64698E-23
 -1       782-4.25948E-07 8.66001E-06-1.32349E-23
 -1       783-3.97024E-07 6.70186E-06-2.64698E-23
 -1       784-3.01767E-07 4.56619E-06 0.00000E+00
 -1       785-1.62307E-07 2.31231E-06 0.00000E+00
 -1       786 4.69644E-05 2.21369E-07-4.13590E-25
 -1       787 4.70048E-05 2.33110E-07 0.00000E+00
 -1       788 4.70449E-05 2.50436E-07 0.00000E+00
 -1       789 4.70855E-05 2.71165E-07-4.13590E-25
 -1       790 4.71261E-05 2.94522E-07 0.00000E+00
 -1       791 4.71668E-05 3.19739E-07 0.00000E+00
 -1       792 4.72075E-05 3.46816E-07 0.00000E+00
 -1       793 4.72482E-05 3.75760E-07 0.00000E+00
 -1       794 4.72889E-05 4.07350E-07 0.00000E+00
 -1       795 4.73297E-05 4.42371E-07 0.00000E+00
 -1       796 4.73704E-05 4.83032E-07 1.65436E-24
 -1       797 4.74111E-05 5.31552E-07-8.27181E-25
 -1       798 4.74518E-05 5.93413E-07-8.27181E-25
 -1       799 4.74923E-05 6.74118E-07 4.13590E-25
 -1       800 4.75329E-05 7.86991E-07 0.00000E+00
 -1       801 4.37558E-05 2.19504E-07 4.13590E-25
 -1       802 3.43251E-05 1.83791E-07-4.13590E-25
 -1       803 2.19358E-05 1.18546E-07 0.00000E+00
 -1       804 9.88833E-06 5.28284E-08 0.00000E+00
 -1       805 1.47698E-06 2.22688E-08-6.61744E-24
 -1       806 4.68783E-05 1.91271E-07-8.27181E-25
 -1       807 4.68284E-05 1.64841E-07 0.00000E+00
 -1       808 4.67771E-05 1.41198E-07 0.00000E+00
 -1       809 4.67235E-05 1.22969E-07 0.00000E+00
 -1       810 4.66669E-05 1.12776E-07-1.65436E-24
 -1       811 4.66063E-05 1.13203E-07-8.27181E-25
 -1       812 4.65407E-05 1.26833E-07-1.65436E-24
 -1       813 4.64691E-05 1.56242E-07 8.27181E-25
 -1       814 4.63907E-05 2.04005E-07 1.65436E-24
 -1       815 4.63044E-05 2.72696E-07 4.13590E-25
 -1       816 4.62094E-05 3.64885E-07 0.00000E+00
 -1       817 4.61045E-05 4.83146E-07-4.13590E-25
 -1       818 4.59890E-05 6.30049E-07 8.27181E-25
 -1       819 4.58618E-05 8.08156E-07-8.27181E-25
 -1       820 4.57221E-05 1.02003E-06 8.27181E-25
 -1       821 4.75167E-05 1.14201E-06 4.13590E-25
 -1       822 4.74570E-05 1.36968E-06 0.00000E+00
 -1       823 4.73976E-05 1.63914E-06 0.00000E+00
 -1       824 4.73375E-05 1.96106E-06 0.00000E+00
 -1       825 4.72773E-05 2.33939E-06 0.00000E+00
 -1       826 4.72170E-05 2.77794E-06 0.00000E+00
 -1       827 4.71567E-05 3.27286E-06 1.65436E-24
 -1       828 4.70963E-05 3.82015E-06 0.00000E+00
 -1       829 4.70359E-05 4.40912E-06 1.65436E-24
 -1       830 4.69754E-05 5.02900E-06 8.27181E-25
 -1       831 4.69150E-05 5.66506E-06-1.65436E-24
 -1       832 4.68548E-05 6.30255E-06 0.00000E+00
 -1       833 4.67945E-05 6.92650E-06 0.00000E+00
 -1       834 4.67350E-05 7.52202E-06 4.13590E-25
 -1       835 4.66752E-05 8.07780E-06 0.00000E+00
 -1       836 4.73309E-05 9.99137E-07 0.00000E+00
 -1       837 4.70159E-05 1.05405E-06 8.27181E-25
 -1       838 4.66550E-05 1.10887E-06 0.00000E+00
 -1       839 4.62755E-05 1.16334E-06 4.13590E-25
 -1       840 4.59046E-05 1.21772E-06 2.06795E-25
 -1       856 4.66020E-05 9.09671E-06-1.03398E-25
 -1       857 4.65831E-05 9.67565E-06 0.00000E+00
 -1       858 4.65642E-05 1.03092E-05 0.00000E+00
 -1       859 4.65450E-05 1.09872E-05 0.00000E+00
 -1       860 4.65257E-05 1.16992E-05-4.13590E-25
 -1       861 4.65063E-05 1.24348E-05 0.00000E+00
 -1       862 4.64870E-05 1.31837E-05-4.13590E-25
 -1       863 4.64676E-05 1.39356E-05-2.06795E-25
 -1       864 4.64482E-05 1.46800E-05 4.13590E-25
 -1       865 4.64288E-05 1.54066E-05 0.00000E+00
 -1       866 4.64095E-05 1.61050E-05 4.13590E-25
 -1       867 4.63901E-05 1.67649E-05 4.13590E-25
 -1       868 4.63708E-05 1.73759E-05 0.00000E+00
 -1       869 4.63515E-05 1.79278E-05 0.00000E+00
 -1       870 4.63322E-05 1.84103E-05 0.00000E+00
 -1       871 4.62267E-05 8.58218E-06 0.00000E+00
 -1       872 4.58965E-05 8.58041E-06 0.00000E+00
 -1       873 4.56018E-05 8.57840E-06 2.06795E-25
 -1       874 4.53154E-05 8.57608E-06 0.00000E+00
 -1       875 4.50105E-05 8.57348E-06-4.13590E-25
 -1       876 4.64829E-05 9.10203E-06-1.65436E-24
 -1       877 4.63362E-05 9.65298E-06-8.27181E-25
 -1       878 4.61792E-05 1.02317E-05 0.00000E+00
 -1       879 4.60133E-05 1.08346E-05 0.00000E+00
 -1       880 4.58396E-05 1.14581E-05 1.65436E-24
 -1       881 4.56596E-05 1.20987E-05 0.00000E+00
 -1       882 4.54745E-05 1.27528E-05 0.00000E+00
 -1       883 4.52857E-05 1.34168E-05 0.00000E+00
 -1       884 4.50944E-05 1.40872E-05 1.65436E-24
 -1       885 4.49021E-05 1.47605E-05 0.00000E+00
 -1       886 4.47100E-05 1.54331E-05 1.65436E-24
 -1       887 4.45195E-05 1.61015E-05-8.27181E-25
 -1       888 4.43318E-05 1.67620E-05 1.65436E-24
 -1       889 4.41481E-05 1.74110E-05-8.27181E-25
 -1       890 4.39697E-05 1.80451E-05-8.27181E-25
 -1       891 4.59640E-05 1.87876E-05 8.27181E-25
 -1       892 4.56041E-05 1.87619E-05-2.06795E-25
 -1       893 4.52201E-05 1.87361E-05 0.00000E+00
 -1       894 4.47991E-05 1.87104E-05 2.06795E-25
 -1       895 4.43285E-05 1.86848E-05-4.13590E-25
 -1       956 4.55138E-05 1.59010E-06-8.27181E-25
 -1       957 4.54571E-05 1.94855E-06-4.13590E-25
 -1       958 4.54002E-05 2.33973E-06-8.27181E-25
 -1       959 4.53432E-05 2.75962E-06 0.00000E+00
 -1       960 4.52862E-05 3.20422E-06 1.65436E-24
 -1       961 4.52292E-05 3.66949E-06 0.00000E+00
 -1       962 4.51721E-05 4.15136E-06 0.00000E+00
 -1       963 4.51150E-05 4.64582E-06 8.27181E-25
 -1       964 4.50580E-05 5.14882E-06 0.00000E+00
 -1       965 4.50009E-05 5.65630E-06 0.00000E+00
 -1       966 4.49438E-05 6.16422E-06 1.65436E-24
 -1       967 4.48868E-05 6.66855E-06-8.27181E-25
 -1       968 4.48297E-05 7.16523E-06 0.00000E+00
 -1       969 4.47728E-05 7.65023E-06-8.27181E-25
 -1       970 4.47161E-05 8.11954E-06 0.00000E+00
 -1       971 4.46068E-05 9.03127E-06 0.00000E+00
 -1       972 4.45527E-05 9.54147E-06 4.13590E-25
 -1       973 4.44985E-05 1.00945E-05 1.65436E-24
 -1       974 4.44442E-05 1.06849E-05-8.27181E-25
 -1       975 4.43899E-05 1.13070E-05 1.65436E-24
 -1       976 4.43355E-05 1.19554E-05 0.00000E+00
 -1       977 4.42811E-05 1.26244E-05 0.00000E+00
 -1       978 4.42267E-05 1.33086E-05 0.00000E+00
 -1       979 4.41724E-05 1.40023E-05 0.00000E+00
 -1       980 4.41180E-05 1.47000E-05 0.00000E+00
 -1       981 4.40636E-05 1.53962E-05 0.00000E+00
 -1       982 4.40093E-05 1.60853E-05 0.00000E+00
 -1       983 4.39550E-05 1.67617E-05 1.65436E-24
 -1       984 4.39010E-05 1.74200E-05-8.27181E-25
 -1       985 4.38473E-05 1.80545E-05 0.00000E+00
 -3
    1PSTEP                         4           2           1          
  100CL  102 3.12500E-01         409                     0    2           1
 -4  STRESS      6    1
 -5  SXX         1    4    1    1
 -5  SYY         1    4    2    2
 -5  SZZ         1    4    3    3
 -5  SXY         1    4    1    2
 -5  SYZ         1    4    2    3
 -5  SZX         1    4    3    1
 -1         1-1.07899E+06-4.96991E+05-2.19389E+05-6.97923E+05 3.27418E-11 5.93718E-09
 -1         2 1.81007E+03 2.03781E+05 5.90840E+03 4.17725E+02-1.07605E-10 1.39988E-09
 -1         3-3.09499E+01-4.52241E+05 1.04503E+02-1.03295E+02-3.22569E-11-1.88902E-09
 -1         5-3.17557E+00 1.62374E+05 4.25359E+00-2.28584E-02 6.11177E-11-5.49335E-10
 -1         8-5.08082E+05-2.21440E+05-1.71933E+04-3.85563E+05 1.29148E-10 3.57977E-09
 -1         9-8.72202E+05-2.25765E+05-8.63390E+04-3.01505E+05 2.27155E-09 5.35510E-10
 -1        10-3.43546E+02-4.71142E+05-6.02273E+02-6.89993E+02-2.06592E-09-1.30996E-10
 -1        12-1.43002E+00 1.62382E+05 1.37903E+02 1.10947E-01 1.74161E-10 1.75919E-09
 -1        15 1.34461E+03 7.38932E+02 4.34642E+03 1.89943E+00-2.10503E-09-6.64558E-07
 -1        16-2.45637E+06-7.89957E+05-3.81896E+05-8.02957E+05 7.60095E-09-5.94688E-09
 -1        17-5.41254E+05-3.34126E+05-1.04117E+05-3.15227E+05-3.71656E-09 3.70783E-09
 -1        18 2.00459E+04 1.96417E+03-7.51631E+03-3.83824E+04 4.82032E-10-2.55204E-09
 -1        19 5.08788E+04 6.06046E+04-2.94172E+02 1.00368E+04-3.57159E-10-1.17179E-09
 -1        20-2.09548E+04-2.40341E+05-5.29860E+04 1.79280E+04 2.23258E-09 5.26992E-09
 -1        21-2.27818E+01-1.39534E+05-4.50859E+02-3.47230E+01-3.20656E-09-1.02573E-08
 -1        24-2.15776E+06-7.49248E+05-3.07974E+05-9.13417E+05-9.94381E-09-4.64206E-09
 -1        25 2.00566E+04-2.68301E+03 1.16023E+04-6.91996E+04 5.86169E-10 4.59113E-10
 -1        26-1.10466E+04 4.15816E+04-8.07030E+03-5.99404E+03 8.36553E-10-9.90815E-10
 -1        27-3.89603E+04-1.32004E+05-4.95879E+04 2.97142E+04 3.65920E-09 1.39638E-09
 -1        28 1.07848E+04-3.85278E+04 7.87553E+03 1.23944E+04 2.91209E-10-3.12359E-09
 -1        32-5.14876E+05-7.65414E+04 2.22124E+05-3.46862E+05-1.01791E-08 7.69123E-09
 -1        33-7.52904E+04 3.87962E+04 1.37472E+04-2.29216E+04 7.79418E-10-7.58973E-10
 -1        34-9.79366E+04-9.74339E+03 2.30600E+02 3.00862E+04 2.47136E-09 1.66256E-09
 -1        35-1.09729E+04-1.53230E+04-5.97719E+02 2.43017E+04 4.30978E-09-2.66785E-10
 -1        51 9.89755E+03-2.54345E+05 2.43959E+04-6.29738E+05 7.27596E-11-6.47560E-09
 -1        52 5.22751E+03-2.52396E+05 1.61619E+04-7.34474E+05 1.49157E-10-2.52257E-08
 -1        53 3.43632E+03-2.59021E+05 1.41183E+04-6.27592E+05 2.07365E-10-6.99947E-09
 -1        54 1.07530E+04-2.56919E+05 2.28850E+04-7.36750E+05 5.09317E-10 1.86992E-09
 -1        55 2.35487E+04-2.65322E+05 4.11776E+04-6.27305E+05 5.38421E-10 6.47196E-09
 -1        56-2.07237E+06-2.34245E+05-1.61934E+05-7.99204E+05 1.12777E-10 4.59113E-09
 -1        57-2.13743E+06-3.80672E+05-1.09142E+05-7.92954E+05-8.14907E-10 2.64117E-09
 -1        58-2.10477E+06-2.85651E+05-3.81194E+04-7.89208E+05-1.06638E-09 4.18549E-09
 -1        59-2.09994E+06-3.20414E+05-2.27563E+04-8.04970E+05 2.29420E-10-8.86416E-09
 -1        60-2.10955E+06-2.92773E+05-8.90878E+03-7.87807E+05 1.86901E-10-8.65793E-09
 -1        61-2.09488E+06-3.11594E+05-5.06608E+03-8.06038E+05 8.87837E-10-2.98905E-09
 -1        62-2.10976E+06-2.94254E+05-2.44241E+03-7.88204E+05 4.51109E-10 3.72660E-09
 -1        63-2.09566E+06-3.09016E+05-2.00819E+03-8.04388E+05 8.54925E-11-1.35401E-09
 -1        64-2.10872E+06-2.95351E+05-2.31026E+03-7.89437E+05-6.83485E-10 3.52827E-09
 -1        65-2.09880E+06-3.07312E+05-4.62116E+03-8.01192E+05-6.72344E-10 2.90652E-09
 -1        66-2.10657E+06-2.96012E+05-8.13699E+03-7.91358E+05 8.52538E-10 4.79395E-09
 -1        67-2.10698E+06-3.11648E+05-2.06446E+04-7.95976E+05 1.20966E-09 5.22050E-09
 -1        68-2.10055E+06-2.91241E+05-3.46587E+04-7.94560E+05 6.41194E-11-3.93811E-09
 -1        69-2.14398E+06-3.63449E+05-9.90981E+04-7.81758E+05 2.34695E-09-5.52063E-09
 -1        70-2.06988E+06-2.45773E+05-1.47108E+05-8.05019E+05-7.09406E-11-1.13505E-09
 -1        86-9.07654E+02 2.01972E+05 6.33207E+03-2.08875E+02 8.00128E-10 3.71742E-09
 -1        87 6.02450E+03 2.05840E+05 1.32082E+04 8.58150E+02 1.34332E-09-4.80895E-11
 -1        88-5.11009E+03 1.99914E+05 2.02240E+04-6.49303E+02 1.99634E-09 7.33587E-09
 -1        89 3.80830E+04 2.20782E+05 5.45377E+04 1.84421E+03 3.07591E-09-6.63908E-09
 -1        90-3.28622E+04 1.87039E+05 7.70409E+04-1.19466E+03 3.48518E-09-3.93953E-09
 -1       121-5.42375E+01-4.52413E+05 9.90521E+01 5.16087E+01 2.30848E-10-1.83991E-09
 -1       122 3.41476E+00-4.52218E+05 2.28261E+02-2.06714E+02-8.90678E-10 2.21917E-09
 -1       123-7.91741E+01-4.52437E+05 3.69575E+02 1.54876E+02 7.09321E-10-3.36513E-11
 -1       124 4.24414E+02-4.51960E+05 9.57600E+02-4.92480E+02-1.64039E-09 1.41335E-09
 -1       125-3.52837E+02-4.52676E+05 1.46860E+03 3.37362E+02 9.84073E-10 4.61660E-09
 -1       191-3.47482E+00 1.62387E+05 5.07931E+00 1.11458E-02 1.10190E-10-3.79532E-09
 -1       192-3.56622E+00 1.62374E+05 9.00687E+00 2.75607E-01 1.79568E-10-3.24690E-09
 -1       193-4.51371E+00 1.62387E+05 1.67459E+01-2.88704E-01 1.67785E-10-4.42969E-09
 -1       194-4.82351E+00 1.62375E+05 3.40707E+01 7.74377E-01 7.58291E-11-2.29943E-09
 -1       195-6.51059E+00 1.62386E+05 6.66406E+01-4.90951E-01 2.94868E-10-6.54836E-11
 -1       251 1.82978E+05-3.18905E+04 7.45077E+04 2.93181E+03 1.09367E-10-2.54659E-10
 -1       252 2.16658E+05 3.69045E+04 5.28180E+04-9.77063E+03 1.96820E-10 1.67347E-09
 -1       253 1.95758E+05-4.93837E+03 1.92857E+04 2.08698E+03-5.90660E-10-6.53017E-10
 -1       254 2.01625E+05 5.70721E+03 1.21801E+04-8.43460E+03 8.31960E-10-5.92081E-10
 -1       255 1.97958E+05-7.63080E+02 4.98315E+03 1.59594E+03 3.71443E-10 1.66642E-09
 -1       256 1.99000E+05 9.05166E+02 3.02755E+03-7.70870E+03 7.10159E-10 4.51655E-09
 -1       257 1.98358E+05-1.33583E+02 1.55908E+03 1.36106E+03-2.35062E-10 1.77920E-09
 -1       258 1.98593E+05 2.81983E+02 1.38207E+03-7.47130E+03 1.82487E-10-1.61492E-09
 -1       259 1.98358E+05-1.36256E+02 1.58436E+03 1.35854E+03 1.13737E-10-7.50930E-09
 -1       260 1.99010E+05 9.28617E+02 3.09935E+03-7.69919E+03 1.28753E-09-8.27868E-10
 -1       261 1.97949E+05-7.83574E+02 5.11448E+03 1.58895E+03 6.92125E-10 3.61752E-10
 -1       262 2.01695E+05 5.86184E+03 1.25041E+04-8.41402E+03 1.40830E-10 1.06161E-09
 -1       263 1.95696E+05-5.07154E+03 1.98085E+04 2.07338E+03-5.97140E-10 6.12818E-09
 -1       264 2.17110E+05 3.79017E+04 5.42375E+04-9.73748E+03-1.65531E-09 1.41972E-09
 -1       265 1.82586E+05-3.27498E+04 7.65280E+04 2.91224E+03-8.29118E-10-2.58296E-10
 -1       266-2.43418E+04-1.13822E+04 5.71126E+04-4.06420E+01-3.31056E-09-1.04519E-06
 -1       267 2.82189E+04 1.32662E+04 4.03664E+04 4.68927E+01-6.52699E-09-2.07447E-06
 -1       268-3.78410E+03-1.87886E+03 1.50040E+04-5.97495E+00-5.24142E-09-1.66448E-06
 -1       269 4.46791E+03 2.24859E+03 9.75236E+03 6.95992E+00-3.97426E-09-1.25248E-06
 -1       270-6.70639E+02-3.69462E+02 4.70760E+03-9.44507E-01-2.91459E-09-9.21931E-07
 -1       271-2.39226E+06-2.97895E+05-1.84091E+05-9.31214E+05 1.05138E-09 7.27596E-12
 -1       272-2.44324E+06-4.47275E+05-1.18357E+05-9.46918E+05 1.04433E-09-6.71025E-09
 -1       273-2.42724E+06-3.43385E+05-4.34835E+04-9.22641E+05 1.15256E-09 5.19140E-09
 -1       274-2.40242E+06-3.91493E+05-2.43457E+04-9.60116E+05 1.57888E-09 2.95813E-09
 -1       275-2.43263E+06-3.47509E+05-1.01148E+04-9.20543E+05-1.15233E-09-2.33285E-10
 -1       276-2.39606E+06-3.86653E+05-5.37821E+03-9.63501E+05-2.19597E-09-4.46107E-10
 -1       277-2.43385E+06-3.47407E+05-2.63043E+03-9.19720E+05-6.83713E-10-1.37300E-09
 -1       278-2.39490E+06-3.86638E+05-1.91343E+03-9.64487E+05-6.64869E-10 3.33955E-09
 -1       279-2.43392E+06-3.47388E+05-2.05294E+03-9.19673E+05 5.26484E-10-2.19575E-09
 -1       280-2.39570E+06-3.86529E+05-3.76156E+03-9.63730E+05-3.49019E-10 8.00355E-11
 -1       281-2.43295E+06-3.47617E+05-6.88119E+03-9.20388E+05-1.38061E-09 1.96587E-09
 -1       282-2.40040E+06-3.89299E+05-1.64289E+04-9.60821E+05 7.92170E-10 6.43558E-09
 -1       283-2.42896E+06-3.45229E+05-2.93326E+04-9.22202E+05 8.91760E-10 2.60843E-09
 -1       284-2.42868E+06-4.25979E+05-7.97336E+04-9.50791E+05-8.28550E-10-7.28323E-09
 -1       285-2.40483E+06-3.15194E+05-1.24110E+05-9.28608E+05 6.70298E-10 8.73115E-11
 -1       301 9.18183E+03-5.60934E+03 7.16403E+04-1.76312E+04-4.98403E-10 3.23382E-10
 -1       302 9.86579E+03 1.25709E+04 5.17642E+04-2.59447E+04 1.17507E-09 5.26683E-09
 -1       303 4.32852E+02 8.20422E+02 4.77002E+04-1.76685E+04-5.52973E-10 3.42743E-09
 -1       304 1.86411E+04 2.06655E+04 8.02920E+04-2.58734E+04 8.62201E-10 1.01281E-08
 -1       305 1.84750E+04-1.36569E+04 1.34771E+05-1.76550E+04-5.74801E-10 4.57476E-09
 -1       306-2.57454E+06-2.96257E+05-1.96292E+05-1.00433E+06 8.62201E-10-4.78030E-09
 -1       307-2.67215E+06-4.65733E+05-1.33842E+05-9.74401E+05 1.67574E-09-9.60426E-09
 -1       308-2.61917E+06-3.57206E+05-4.61852E+04-9.85867E+05 8.61291E-10-1.57524E-09
 -1       309-2.61701E+06-3.98326E+05-2.79776E+04-1.00017E+06 1.14625E-10 2.81261E-09
 -1       310-2.62946E+06-3.62465E+05-1.08392E+04-9.78984E+05-4.08647E-10-4.97494E-10
 -1       311-2.60371E+06-3.93749E+05-6.28340E+03-1.01010E+06 2.50685E-09 7.59428E-10
 -1       312-2.63253E+06-3.61538E+05-3.07211E+03-9.76082E+05-2.48690E-11-1.56342E-09
 -1       313-2.60113E+06-3.94180E+05-2.76986E+03-1.01248E+06-1.89299E-09 2.55073E-09
 -1       314-2.63207E+06-3.61985E+05-3.33076E+03-9.76631E+05-1.94643E-09-3.57500E-09
 -1       315-2.60551E+06-3.92257E+05-7.01918E+03-1.00800E+06-6.84679E-10 1.09594E-09
 -1       316-2.62808E+06-3.63538E+05-1.22462E+04-9.80502E+05 1.75672E-09 3.14685E-10
 -1       317-2.62104E+06-3.97043E+05-3.16530E+04-9.96336E+05-7.92568E-10-2.60661E-09
 -1       318-2.61648E+06-3.57467E+05-5.22716E+04-9.88151E+05-3.11684E-09 2.48838E-09
 -1       319-2.68284E+06-4.74145E+05-1.51541E+05-9.68145E+05-1.65073E-09-1.54250E-09
 -1       320-2.56657E+06-2.87757E+05-2.22166E+05-1.00824E+06 5.60249E-09 2.25555E-09
 -1       336 3.54716E+02-4.89766E+05-2.60639E+03 3.52188E+02-4.28531E-09-2.85581E-10
 -1       337-9.39340E+02-4.90488E+05-2.85576E+03-9.49818E+02-8.01879E-09-6.45878E-09
 -1       338 2.33650E+02-4.89842E+05-3.59503E+03 5.96110E+02-5.82838E-09 1.04865E-09
 -1       339-3.71730E+03-4.92191E+05-7.87258E+03-1.43329E+03-1.03182E-08 3.88354E-09
 -1       340 2.52996E+03-4.88083E+05-1.21294E+04 8.32879E+02-6.95491E-09 3.26963E-09
 -1       406 9.09650E+00 1.62380E+05 2.72254E+02 3.72224E-01 3.87558E-10-1.63573E-09
 -1       407 9.34979E+01 1.62430E+05 5.78665E+02-6.66868E+00 4.72369E-11 7.69433E-10
 -1       408 2.96429E+02 1.62338E+05 1.15572E+03 6.37113E+00 4.16890E-10 2.68301E-09
 -1       409 1.24835E+03 1.62799E+05 2.60197E+03-5.82406E+01-6.78710E-11 9.75888E-10
 -1       410 3.58928E+03 1.62010E+05 5.31186E+03 5.32777E+01 3.97449E-10-1.25738E-10
 -1       521-4.86019E+06-5.61448E+05-3.63962E+05-1.89074E+06 2.88856E-09-2.43017E-09
 -1       522-5.03623E+06-8.74633E+05-2.47314E+05-1.84077E+06-1.78261E-09-1.01863E-10
 -1       523-4.94487E+06-6.70368E+05-8.55740E+04-1.85417E+06 2.64481E-09-2.85581E-09
 -1       524-4.93178E+06-7.54068E+05-5.15774E+04-1.89146E+06 1.64437E-09 9.34051E-10
 -1       525-4.96404E+06-6.79175E+05-1.99758E+04-1.84104E+06 9.09836E-10-9.92259E-10
 -1       526-4.90978E+06-7.43608E+05-1.15130E+04-1.90685E+06 1.66705E-09 1.44564E-09
 -1       527-4.96693E+06-6.80286E+05-5.52739E+03-1.83905E+06 3.59034E-09 1.25158E-09
 -1       528-4.91290E+06-7.35955E+05-4.69419E+03-1.90119E+06-5.20345E-10-2.44626E-09
 -1       529-4.96074E+06-6.86882E+05-5.61361E+03-1.84660E+06-1.72804E-10-6.11635E-10
 -1       530-4.93199E+06-7.20168E+05-1.12554E+04-1.87934E+06 2.20552E-10 6.31871E-10
 -1       531-4.94753E+06-6.96348E+05-2.00064E+04-1.86064E+06-2.14050E-09 1.66983E-09
 -1       532-4.96891E+06-7.15967E+05-5.10882E+04-1.84777E+06 1.00704E-09-7.14863E-09
 -1       533-4.92396E+06-6.91490E+05-8.49232E+04-1.87804E+06 3.67436E-10-4.70754E-09
 -1       534-5.07420E+06-8.35514E+05-2.45581E+05-1.79834E+06-3.70164E-10 6.27188E-09
 -1       535-4.84344E+06-5.79210E+05-3.61036E+05-1.90954E+06-7.77072E-09 5.90808E-09
 -1       536-9.35453E+03-1.36699E+04 3.14872E+04 3.12191E+02-9.26434E-10 5.26961E-09
 -1       537 5.22105E+03 1.58168E+04 2.24341E+04-1.22684E+03-4.62705E-09-1.22759E-09
 -1       538-3.95389E+03-2.14229E+03 8.12231E+03 2.90388E+02-2.72181E-10 2.45200E-09
 -1       539-1.15032E+03 2.47296E+03 5.18566E+03-1.20962E+03 2.18736E-09 2.73417E-10
 -1       540-2.99000E+03-3.33349E+02 2.05116E+03 2.94975E+02-1.40972E-11 5.41047E-09
 -1       541-2.33139E+03 3.81378E+02 1.22500E+03-1.21901E+03-7.69433E-10 4.62705E-10
 -1       542-2.77697E+03-4.93731E+01 4.92270E+02 2.99769E+02-9.42116E-10 4.19220E-10
 -1       543-2.61476E+03 4.74961E+01 2.48852E+02-1.22666E+03 1.67269E-10 1.22252E-09
 -1       544-2.70931E+03 2.22859E+00 3.83452E+01 3.02630E+02-3.47310E-10-1.93863E-09
 -1       545-2.72339E+03-5.90811E+01-1.39480E+02-1.23029E+03-5.90235E-11-6.17642E-09
 -1       546-2.66957E+03 5.80215E+01-3.29625E+02 3.03398E+02 1.47126E-10 5.00293E-10
 -1       547-2.89653E+03-4.29990E+02-8.74144E+02-1.22967E+03-1.70292E-09 3.33419E-09
 -1       548-2.53592E+03 3.72698E+02-1.41988E+03 3.02011E+02-1.66370E-09 3.83864E-09
 -1       549-3.89942E+03-2.74739E+03-3.87216E+03-1.22387E+03-9.69653E-10 9.26605E-10
 -1       550-1.66493E+03 2.37238E+03-5.51718E+03 2.97597E+02 1.52767E-11 3.35604E-09
 -1       551 4.25142E+03-2.57747E+05 1.43369E+04-4.42313E+05-1.93832E-08 3.55794E-09
 -1       552 8.66962E+03-2.57648E+05 1.85579E+04-6.29379E+05-1.45737E-08 8.89850E-09
 -1       553 5.52896E+03-2.61035E+05 2.89332E+04-4.40905E+05-2.35377E-08 7.19410E-09
 -1       554 2.27648E+04-2.48155E+05 6.14505E+04-6.29981E+05-1.43773E-08 1.05661E-08
 -1       555 2.33769E+04-2.72815E+05 1.10493E+05-4.41511E+05-2.32285E-08 2.26646E-09
 -1       556 3.57284E+04-8.22420E+04 2.85929E+04-1.10159E+05-4.28554E-09-9.45874E-10
 -1       557 6.91336E+04-1.10339E+05 1.49563E+04-1.37578E+05 7.74889E-10 1.19167E-09
 -1       558 3.61339E+04-8.63495E+04 6.13654E+03-1.06592E+05-1.73895E-09-8.67658E-10
 -1       559 6.52047E+04-1.14438E+05 3.08515E+03-1.39169E+05 5.73345E-09 1.41199E-09
 -1       560 3.55427E+04-8.59394E+04 1.32180E+03-1.06927E+05 2.63026E-09 1.80535E-09
 -1       561 6.41401E+04-1.14252E+05 6.81495E+02-1.39833E+05 5.27507E-11 1.13960E-09
 -1       562 3.50367E+04-8.55860E+04 2.78567E+02-1.07296E+05-3.14685E-09-6.28893E-09
 -1       563 6.35302E+04-1.13992E+05 1.59638E+02-1.40222E+05-1.66983E-09-7.35326E-10
 -1       564 3.47217E+04-8.53785E+04 5.95228E+01-1.07522E+05 6.32826E-09 3.10183E-09
 -1       565 6.32176E+04-1.13861E+05 2.86309E+01-1.40417E+05 3.50883E-09 1.03228E-09
 -1       566 3.46145E+04-8.53046E+04-1.89808E+01-1.07602E+05-4.57158E-09-6.88760E-09
 -1       567 6.31741E+04-1.13839E+05-7.92508E+01-1.40403E+05-1.71894E-09-1.19380E-08
 -1       568 3.47366E+04-8.53865E+04-2.06842E+02-1.07555E+05-3.83534E-09-8.78936E-09
 -1       569 6.29805E+04-1.13717E+05-4.88123E+02-1.39819E+05-1.41881E-09-1.85537E-09
 -1       570 3.54350E+04-8.60669E+04-1.00616E+03-1.07633E+05 9.74978E-10 4.40468E-09
 -1       571 1.17903E+05 4.25969E+03 6.30988E+03-2.97493E+04-5.57066E-10 1.90039E-09
 -1       572 1.18843E+05 1.48158E+03 3.09123E+03-3.26093E+04-5.22050E-10 8.86871E-10
 -1       573 1.18284E+05 3.53044E+02 1.37323E+03-2.96712E+04 2.20552E-10-2.44518E-09
 -1       574 1.18396E+05 1.14085E+02 6.87886E+02-3.26968E+04-1.07502E-09-3.08660E-09
 -1       575 1.18328E+05 1.48821E+01 3.24172E+02-2.96608E+04 1.96565E-10-1.46383E-09
 -1       576 1.18336E+05 3.17666E+00 1.64940E+02-3.27086E+04 6.38948E-10 2.10230E-09
 -1       577 1.18334E+05-3.24957E+00 8.12337E+01-2.96594E+04 1.83093E-10 4.75075E-09
 -1       578 1.18329E+05-1.85152E+00 4.42547E+01-3.27100E+04-6.82121E-10 2.91880E-09
 -1       579 1.18339E+05-3.30495E+00 2.71331E+01-2.96594E+04-4.75666E-10-3.83125E-10
 -1       580 1.18335E+05-3.60911E+00 2.53541E+01-3.27081E+04-5.22732E-10-1.10549E-09
 -1       581 1.18347E+05-5.23130E+00 3.46312E+01-2.96613E+04 8.94943E-10 7.34417E-11
 -1       582 1.18351E+05 1.04695E+00 6.59117E+01-3.26904E+04 1.11186E-09 6.28461E-10
 -1       583 1.18355E+05 1.90947E+01 1.26866E+02-2.96772E+04-1.90994E-10 4.12797E-10
 -1       584 1.18408E+05 1.19204E+02 2.84165E+02-3.25583E+04-1.90539E-09-7.43853E-10
 -1       585 1.18335E+05 3.71147E+02 5.77684E+02-2.97935E+04-4.10637E-10 5.04770E-10
 -1       586-1.48621E+03 3.83612E+04-1.96288E+03-1.01432E+05 3.33785E-10-5.54121E-09
 -1       587-3.33252E+02 3.80994E+04-2.44648E+02-1.11616E+05 5.43878E-10-7.55188E-09
 -1       588 3.90803E+02 3.81512E+04 1.33517E+03-1.01370E+05 3.06500E-10-1.68257E-10
 -1       589 1.99864E+03 3.88824E+04 3.92342E+03-1.11525E+05 5.07498E-10 4.18368E-09
 -1       590 5.76282E+03 3.76555E+04 8.41548E+03-1.01524E+05 2.37378E-10 1.04637E-09
 -1       591-2.44674E+04-7.22410E+03-8.45708E+03-1.29313E+04-4.92776E-10-3.45381E-09
 -1       592-2.52244E+04-9.33627E+03-4.58069E+03-1.51771E+04 5.50244E-10 2.61554E-09
 -1       593-2.53228E+04-6.60047E+03-1.90698E+03-1.35411E+04-1.19633E-09-5.56133E-09
 -1       594-2.40449E+04-8.10775E+03-9.51113E+02-1.52361E+04 2.67846E-10 2.19384E-09
 -1       595-2.53882E+04-6.59772E+03-4.37100E+02-1.35691E+04 6.55291E-10 4.19093E-09
 -1       596-2.39650E+04-8.05151E+03-2.22813E+02-1.52277E+04 3.58099E-10 2.96554E-09
 -1       597-2.53965E+04-6.60316E+03-1.22645E+02-1.35702E+04 2.09553E-10 2.15209E-10
 -1       598-2.39575E+04-8.04935E+03-1.01004E+02-1.52255E+04 1.37220E-10 4.61597E-09
 -1       599-2.53959E+04-6.60311E+03-1.32001E+02-1.35700E+04-1.30501E-09-8.36377E-09
 -1       600-2.39662E+04-8.05218E+03-2.47648E+02-1.52278E+04 2.84672E-10-6.53645E-09
 -1       601-2.53858E+04-6.59706E+03-4.89751E+02-1.35684E+04-2.05205E-10 4.63035E-09
 -1       602-2.40561E+04-8.11518E+03-1.06813E+03-1.52364E+04 1.55239E-10-2.91550E-10
 -1       603-2.53118E+04-6.60103E+03-2.14231E+03-1.35373E+04-9.95897E-11-1.10890E-09
 -1       604-2.53855E+04-9.49068E+03-5.14636E+03-1.51641E+04-8.58336E-10-2.86150E-10
 -1       605-2.43453E+04-7.30555E+03-9.50122E+03-1.28568E+04 1.16944E-09 1.08093E-09
 -1       606 1.68923E+04-5.66363E+03-1.02032E+04 1.65248E+04-2.79942E-09 1.86355E-09
 -1       607 1.51452E+04-1.82668E+03-5.08080E+03 1.85499E+04-1.88857E-09-1.90084E-10
 -1       608 1.61414E+04-3.07035E+02-2.27475E+03 1.63929E+04 9.27685E-10-3.58159E-09
 -1       609 1.59457E+04-8.15327E+01-1.14912E+03 1.86957E+04-5.57975E-10 2.99246E-09
 -1       610 1.60547E+04 1.31023E+01-5.48543E+02 1.63782E+04-3.15504E-09 5.05474E-09
 -1       611 1.60194E+04 1.80792E+01-2.76812E+02 1.87117E+04-5.97174E-09 7.53153E-09
 -1       612 1.60345E+04 1.95527E+01-1.32252E+02 1.63767E+04-1.75078E-09 1.80194E-09
 -1       613 1.60223E+04 2.06591E+01-6.04215E+01 1.87137E+04-3.79487E-09-1.17097E-09
 -1       614 1.60245E+04 1.79067E+01-1.68526E+01 1.63762E+04-8.17636E-10 1.86719E-09
 -1       615 1.60187E+04 2.20073E+01 1.85553E+01 1.87140E+04 4.04179E-09 7.77709E-09
 -1       616 1.60169E+04 1.97181E+01 6.19379E+01 1.63763E+04-3.14867E-09 5.38876E-11
 -1       617 1.60248E+04 3.62418E+01 1.43627E+02 1.87137E+04 5.70481E-10-9.27412E-09
 -1       618 1.60032E+04 6.19156E+01 2.90436E+02 1.63764E+04 9.20181E-10 3.50155E-10
 -1       619 1.61265E+04 2.61550E+02 6.52770E+02 1.87133E+04 9.87768E-10-3.86308E-10
 -1       620 1.59061E+04 7.51689E+02 1.31225E+03 1.63760E+04 1.03381E-09-1.30990E-09
 -1       621 2.00198E+02 1.27849E+05 1.73499E+03 4.41802E+03-1.18803E-10-1.36504E-09
 -1       622 2.29317E+02 1.28279E+05 1.47913E+03 6.44951E+03-1.67518E-10 1.49976E-09
 -1       623 9.93516E+00 1.27972E+05 1.70968E+03 4.39799E+03-2.10235E-10-2.88412E-09
 -1       624 7.76128E+02 1.28781E+05 3.25413E+03 6.46838E+03-1.48304E-10 4.29861E-09
 -1       625 7.79188E+02 1.27345E+05 5.66071E+03 4.39932E+03-9.14042E-11 4.36387E-10
 -1       626 1.05689E+05 2.93520E+04 2.10271E+03 5.72334E+04-7.91488E-10 3.96631E-09
 -1       627 1.04233E+05 3.04263E+04 1.01288E+03 5.95541E+04-3.56067E-10 5.40319E-09
 -1       628 1.05773E+05 2.83548E+04 4.28079E+02 5.75512E+04-3.20506E-09 9.80253E-09
 -1       629 1.03933E+05 3.01871E+04 2.09669E+02 5.96962E+04-1.68416E-08-4.21466E-09
 -1       630 1.05781E+05 2.83060E+04 9.70972E+01 5.75613E+04-3.60160E-10-1.26749E-09
 -1       631 1.03898E+05 3.01808E+04 5.21447E+01 5.96997E+04 9.41964E-09-1.48085E-08
 -1       632 1.05778E+05 2.83085E+04 3.45255E+01 5.75579E+04 2.87491E-09 2.32149E-10
 -1       633 1.03893E+05 3.01832E+04 3.85513E+01 5.96971E+04-1.25010E-09 1.61089E-09
 -1       634 1.05773E+05 2.83083E+04 6.25187E+01 5.75560E+04 2.67687E-09 1.07252E-09
 -1       635 1.03896E+05 3.01838E+04 1.26812E+02 5.96974E+04-9.29504E-10-5.39490E-09
 -1       636 1.05767E+05 2.83076E+04 2.56229E+02 5.75543E+04-1.65329E-09-6.41421E-10
 -1       637 1.03948E+05 3.02247E+04 5.63200E+02 5.96948E+04-2.24240E-10 1.76533E-09
 -1       638 1.05744E+05 2.84335E+04 1.15763E+03 5.74961E+04-1.27159E-09-5.44105E-10
 -1       639 1.04552E+05 3.10721E+04 2.73867E+03 5.95141E+04-8.51969E-10-3.04021E-09
 -1       640 1.05661E+05 3.09554E+04 5.68368E+03 5.64251E+04-1.65710E-09-5.28780E-09
 -1       656 2.86770E+04-7.25761E+05-6.92409E+04-5.12452E+02 1.63709E-10-2.36099E-10
 -1       657-3.78905E+04-7.57035E+05-5.72599E+04 4.75902E+03 3.44244E-10-7.11823E-09
 -1       658 9.09038E+03-7.34687E+05-3.51371E+04-9.54951E+02 2.85468E-10 5.73696E-10
 -1       659-4.06143E+04-7.58317E+05-6.08373E+04 5.04977E+03 3.41061E-10-1.63025E-12
 -1       660 3.13934E+04-7.24481E+05-7.54004E+04-8.03195E+02 2.00089E-10-1.04941E-09
 -1       661 1.03584E+05 1.12524E+04 9.92077E+03 4.04372E+04 3.90219E-09 3.07091E-09
 -1       662 1.08718E+05 1.90655E+04 6.68490E+03 3.87480E+04 4.70590E-09-3.16368E-09
 -1       663 1.05524E+05 1.44423E+04 2.33844E+03 3.98802E+04 7.73298E-10-4.18891E-09
 -1       664 1.06475E+05 1.53289E+04 1.39798E+03 3.94225E+04 9.01153E-10-2.44903E-09
 -1       665 1.05812E+05 1.48841E+04 5.51506E+02 3.98022E+04-2.02058E-09-1.85844E-09
 -1       666 1.06140E+05 1.48184E+04 3.21506E+02 3.95201E+04-4.61245E-09 1.88150E-09
 -1       667 1.05858E+05 1.49396E+04 1.69527E+02 3.97875E+04-1.74630E-09 5.85436E-10
 -1       668 1.06093E+05 1.47714E+04 1.69662E+02 3.95398E+04 3.89216E-09 4.15980E-10
 -1       669 1.05858E+05 1.49299E+04 2.27338E+02 3.97830E+04 1.15953E-09 1.42133E-09
 -1       670 1.06155E+05 1.48866E+04 4.92647E+02 3.95338E+04 3.62651E-09-6.18246E-09
 -1       671 1.05796E+05 1.48267E+04 8.74063E+02 3.97925E+04-4.25946E-10-8.51458E-10
 -1       672 1.06670E+05 1.57320E+04 2.23564E+03 3.94053E+04-3.26293E-09-6.95172E-09
 -1       673 1.05347E+05 1.41058E+04 3.74641E+03 3.99034E+04-4.17333E-09-4.33374E-09
 -1       674 1.10241E+05 2.17462E+04 1.07143E+04 3.83518E+04-1.49862E-09-5.14774E-10
 -1       675 1.02248E+05 8.98075E+03 1.59029E+04 4.07827E+04 1.68643E-09 2.22826E-10
 -1       676 1.16985E+01-1.39497E+05-5.43397E+02 1.73619E+01 5.24778E-10 2.15474E-10
 -1       677-1.44238E+02-1.39628E+05-9.94441E+02-3.47183E+01-3.80226E-09 1.17849E-09
 -1       678 9.63054E+01-1.39403E+05-1.75789E+03 1.73444E+01-1.71576E-09 2.53592E-09
 -1       679-1.75810E+03-1.40689E+05-4.17569E+03-3.46403E+01-1.08457E-09 3.78806E-09
 -1       680 1.04915E+03-1.38436E+05-6.72988E+03 1.70844E+01 1.33150E-09 5.11640E-09
 -1       771-1.50056E+06-2.60804E+05-3.64852E+04-6.21052E+05-6.00994E-09-4.72937E-09
 -1       772-1.49117E+06-2.81052E+05-1.96143E+04-6.43601E+05-4.10364E-09 2.48110E-09
 -1       773-1.50535E+06-2.57100E+05-8.39945E+03-6.23096E+05-2.40107E-09 2.27374E-09
 -1       774-1.48584E+06-2.76633E+05-4.10724E+03-6.45494E+05 4.08909E-09-1.06411E-10
 -1       775-1.50629E+06-2.56534E+05-2.03470E+03-6.23218E+05-5.95901E-09 1.90630E-09
 -1       776-1.48566E+06-2.76599E+05-9.49071E+02-6.46382E+05-1.33714E-08-7.60338E-10
 -1       777-1.50689E+06-2.56116E+05-5.62473E+02-6.23265E+05-2.48110E-09 2.52294E-09
 -1       778-1.48580E+06-2.76713E+05-2.57687E+02-6.47111E+05 2.09548E-09 2.43335E-09
 -1       779-1.50735E+06-2.55759E+05-2.40056E+02-6.23306E+05-2.25555E-09-1.46338E-09
 -1       780-1.48595E+06-2.76816E+05-1.98482E+02-6.47702E+05-1.33150E-09 6.68479E-11
 -1       781-1.50770E+06-2.55472E+05-3.50338E+02-6.23333E+05-4.78758E-09-1.01772E-09
 -1       782-1.48612E+06-2.76925E+05-6.52684E+02-6.48137E+05-6.41012E-09-1.83491E-09
 -1       783-1.50789E+06-2.55286E+05-1.30446E+03-6.23338E+05-9.49512E-10-2.74594E-09
 -1       784-1.48698E+06-2.77805E+05-3.09619E+03-6.48367E+05-3.28146E-09-1.17780E-10
 -1       785-1.50744E+06-2.55603E+05-5.72332E+03-6.22928E+05-7.43694E-09-2.87355E-09
 -1       786 1.13737E+05-6.04013E+03 1.39272E+04-2.18644E+00 3.18651E-08 1.70712E-09
 -1       787 1.19780E+05 6.99116E+03 9.86076E+03 9.99769E+00 6.19087E-08-1.17086E-09
 -1       788 1.16067E+05-9.49679E+02 3.60436E+03 9.56891E-01 5.44994E-08 1.25056E-09
 -1       789 1.17065E+05 1.09868E+03 2.26731E+03 5.39808E+00 4.73569E-08 7.17236E-09
 -1       790 1.16452E+05-1.48810E+02 9.21781E+02 2.41324E+00 4.59313E-08-9.27230E-10
 -1       791 1.16615E+05 1.72968E+02 5.42314E+02 2.90962E+00 4.46612E-08-2.80836E-09
 -1       792 1.16517E+05-2.41342E+01 2.48228E+02 3.44540E+00 5.97151E-08-2.61788E-09
 -1       793 1.16542E+05 3.43789E+01 1.64819E+02 4.08032E-01 7.51890E-08-1.37534E-09
 -1       794 1.16525E+05-1.02412E+01 1.25054E+02 4.91487E+00 1.28161E-07 4.38555E-09
 -1       795 1.16551E+05 5.38364E+01 1.85483E+02-4.19476E+00 1.81319E-07 5.29616E-09
 -1       796 1.16508E+05-4.35880E+01 2.80269E+02 8.04828E+00 3.19239E-07-1.98094E-09
 -1       797 1.16679E+05 3.18789E+02 6.63714E+02-1.47497E+01 4.57288E-07 1.10541E-09
 -1       798 1.16396E+05-2.75147E+02 1.04729E+03 1.54700E+01 7.22632E-07 5.85430E-10
 -1       799 1.17466E+05 2.02528E+03 2.85818E+03-4.02439E+01 9.86564E-07-2.17287E-09
 -1       800 1.15721E+05-1.74975E+03 4.03451E+03 3.35428E+01 4.91927E-07 3.22188E-10
 -1       801-6.22981E+03 7.70975E+03 9.64036E+03 1.16005E+04 6.40284E-09-4.88069E-09
 -1       802 1.64399E+04 5.41664E+04 3.16647E+04-4.77319E+04 1.71672E-08-2.91720E-09
 -1       803-9.81347E+03 2.41984E+04 4.08127E+04 1.10479E+04 1.35842E-08 1.16515E-08
 -1       804 7.90773E+04 8.74364E+04 1.13723E+05-4.82436E+04 1.60362E-08 1.38374E-08
 -1       805-6.88868E+04-2.54168E+04 1.48341E+05 1.21111E+04 5.64614E-09 1.40535E-08
 -1       806-1.27893E+05-2.75313E+04-1.08339E+04-5.34557E+04 1.97815E-10-3.18778E-10
 -1       807-1.28503E+05-2.60072E+04-5.32244E+03-5.63597E+04 1.19417E-09 2.15454E-09
 -1       808-1.28202E+05-2.36165E+04-2.25783E+03-5.52928E+04-6.67569E-10-7.66889E-10
 -1       809-1.27367E+05-2.45302E+04-1.10381E+03-5.65143E+04-6.96673E-10 2.90311E-09
 -1       810-1.28250E+05-2.34782E+04-5.05417E+02-5.53740E+04-6.01517E-10 1.74873E-09
 -1       811-1.27280E+05-2.44717E+04-2.50672E+02-5.65018E+04-7.18501E-10-2.38458E-09
 -1       812-1.28259E+05-2.34881E+04-1.25069E+02-5.53740E+04-3.71983E-10-2.01567E-09
 -1       813-1.27269E+05-2.44731E+04-7.89547E+01-5.64956E+04 1.70382E-09 6.69593E-09
 -1       814-1.28258E+05-2.34916E+04-7.40284E+01-5.53726E+04-7.30324E-10-1.41631E-09
 -1       815-1.27271E+05-2.44742E+04-1.16044E+02-5.64943E+04-3.20142E-10-5.47959E-09
 -1       816-1.28251E+05-2.34902E+04-2.17385E+02-5.53714E+04-1.45928E-09 3.53930E-09
 -1       817-1.27309E+05-2.44948E+04-4.66329E+02-5.64911E+04 3.68436E-09 9.12826E-09
 -1       818-1.28224E+05-2.35551E+04-9.50273E+02-5.53409E+04 7.64430E-10-5.80303E-09
 -1       819-1.27836E+05-2.50645E+04-2.23688E+03-5.63642E+04-9.96806E-10-4.15537E-09
 -1       820-1.28044E+05-2.52468E+04-4.55224E+03-5.46211E+04-1.18234E-11 1.27511E-09
 -1       821-1.68108E+05 9.29858E+03-2.15067E+04 1.04903E+01-3.66023E-10-4.61841E-09
 -1       822-1.77428E+05-1.07647E+04-1.52184E+04-1.90618E+02-1.51353E-09-2.56387E-09
 -1       823-1.71705E+05 1.45768E+03-5.57033E+03-2.25381E+01 9.24157E-10-3.06954E-09
 -1       824-1.73237E+05-1.68721E+03-3.50541E+03-1.12422E+02-1.90986E-10 2.73360E-09
 -1       825-1.72298E+05 2.28228E+02-1.44003E+03-6.77075E+01-2.34373E-09 2.17619E-09
 -1       826-1.72547E+05-2.69184E+02-8.70924E+02-2.20486E+01-4.38602E-09 2.42687E-09
 -1       827-1.72394E+05 4.06833E+01-4.49289E+02-1.12914E+02-2.82098E-09-1.48970E-09
 -1       828-1.72452E+05-8.22389E+01-3.98737E+02 5.66275E+01-3.23068E-09-2.65678E-09
 -1       829-1.72393E+05 4.14348E+01-4.55771E+02-1.46385E+02-5.20308E-10-2.62274E-09
 -1       830-1.72554E+05-2.75523E+02-8.90732E+02 1.03135E+02 7.03236E-10-5.42110E-09
 -1       831-1.72293E+05 2.33864E+02-1.47436E+03-1.59422E+02-1.74230E-09-1.11243E-10
 -1       832-1.73261E+05-1.72900E+03-3.59258E+03 1.05648E+02 2.56079E-10-6.79404E-09
 -1       833-1.71686E+05 1.49386E+03-5.70841E+03-1.48897E+02-6.45787E-10-2.93880E-09
 -1       834-1.77553E+05-1.10321E+04-1.55968E+04 6.48187E+01 3.40448E-10 2.79601E-09
 -1       835-1.68002E+05 9.52967E+03-2.20417E+04-1.18589E+02 3.46051E-09-2.56296E-09
 -1       836-5.52746E+02 1.57324E+05 9.46388E+03-1.43656E+04 1.28330E-09 2.96109E-09
 -1       837 2.08026E+03 1.60256E+05 8.07568E+03-2.88725E+04 1.72395E-09-2.56387E-09
 -1       838-2.04845E+02 1.58143E+05 8.32293E+03-1.43159E+04 1.52136E-09 1.46542E-09
 -1       839 5.33683E+03 1.62689E+05 1.58382E+04-2.88904E+04 1.90630E-09 8.22581E-10
 -1       840-1.60781E+03 1.54877E+05 2.52939E+04-1.43470E+04 1.44883E-09 5.44219E-10
 -1       856-5.24542E+04 4.45825E+03-1.17475E+04-2.51441E+02-1.95524E-09 5.33782E-09
 -1       857-5.73079E+04-5.22964E+03-8.08831E+03 2.69117E+03-2.21445E-09 3.69255E-09
 -1       858-5.43718E+04 6.24877E+02-3.04880E+03-2.60034E+02-2.39359E-09-9.92031E-10
 -1       859-5.51047E+04-7.27685E+02-1.84160E+03 2.70466E+03-7.09917E-10-5.22959E-10
 -1       860-5.46587E+04 8.70492E+01-7.74374E+02-2.64988E+02 3.54120E-10 4.15318E-09
 -1       861-5.47738E+04-9.75785E+01-4.31565E+02 2.71137E+03-4.12408E-09 2.09815E-09
 -1       862-5.47034E+04 1.16799E+01-1.90489E+02-2.66754E+02 4.44305E-09 3.00892E-09
 -1       863-5.47210E+04-8.78821E+00-9.45693E+01 2.71216E+03 7.54816E-09-3.31834E-09
 -1       864-5.47116E+04 1.75296E-01-3.04154E+01-2.65780E+02 4.04025E-09-3.08274E-09
 -1       865-5.47064E+04 1.13058E+01 1.56142E+01 2.70715E+03 1.97593E-09 1.57087E-10
 -1       866-5.47175E+04-8.48925E+00 6.08055E+01-2.61742E+02 7.21002E-10-4.26425E-10
 -1       867-5.46713E+04 7.18300E+01 1.67922E+02 2.69623E+03-8.80931E-11-8.60865E-10
 -1       868-5.47455E+04-5.96528E+01 2.84099E+02-2.54862E+02-4.65604E-10-1.93108E-09
 -1       869-5.44594E+04 4.96081E+02 7.62281E+02 2.67752E+03-3.76103E-09-1.04541E-08
 -1       870-5.49275E+04-4.21781E+02 1.10641E+03-2.43041E+02-1.05155E-09-9.51047E-09
 -1       871-2.40981E+03-5.01060E+03-7.86824E+03 5.15577E+04 1.12868E-09-3.17095E-09
 -1       872-1.04402E+03-6.76706E+03-3.20343E+03 6.68396E+04 1.76522E-09-5.80258E-10
 -1       873-1.80533E+01-5.93630E+03 4.71161E+02 5.14431E+04 1.00374E-09-5.66615E-10
 -1       874 1.22322E+03-4.78833E+03 4.49465E+03 6.68640E+04 3.37388E-09 3.68027E-09
 -1       875 2.89250E+03-7.00931E+03 9.96085E+03 5.15368E+04 1.15597E-09 1.57797E-09
 -1       876 1.29337E+05 2.22879E+04 6.94025E+03 5.24727E+04-3.21711E-09-2.81534E-09
 -1       877 1.29730E+05 2.38150E+04 3.70615E+03 5.45307E+04-1.20781E-09 1.59338E-09
 -1       878 1.29987E+05 2.15189E+04 1.55277E+03 5.30423E+04 2.58615E-09 3.23519E-09
 -1       879 1.28786E+05 2.28752E+04 7.73435E+02 5.45813E+04-7.09861E-10 1.28324E-09
 -1       880 1.30035E+05 2.15096E+04 3.60107E+02 5.30655E+04 1.88913E-09 6.91148E-09
 -1       881 1.28724E+05 2.28355E+04 1.91716E+02 5.45725E+04 4.92719E-09 5.22939E-09
 -1       882 1.30041E+05 2.15149E+04 1.21722E+02 5.30662E+04 4.16287E-09-1.52630E-09
 -1       883 1.28719E+05 2.28337E+04 1.29311E+02 5.45703E+04-4.14246E-10 1.33650E-09
 -1       884 1.30038E+05 2.15132E+04 2.04343E+02 5.30663E+04-2.43972E-10 2.58191E-09
 -1       885 1.28735E+05 2.28367E+04 4.10000E+02 5.45756E+04 2.16681E-09-6.09361E-11
 -1       886 1.30022E+05 2.15013E+04 8.25978E+02 5.30647E+04 1.95033E-09 4.35648E-10
 -1       887 1.28881E+05 2.29317E+04 1.80416E+03 5.45962E+04 6.34827E-10 1.04325E-09
 -1       888 1.29908E+05 2.15217E+04 3.63548E+03 5.30070E+04 9.79639E-10 1.00863E-09
 -1       889 1.31047E+05 2.51808E+04 8.68521E+03 5.45267E+04-1.37759E-09 2.70757E-09
 -1       890 1.28426E+05 2.32819E+04 1.62664E+04 5.16211E+04 2.05773E-09-1.46247E-09
 -1       891-7.78149E+01-7.35965E+04-8.65336E+02 1.40268E+04 3.25713E-10 3.54714E-09
 -1       892-1.35626E+02-7.38063E+04-9.43013E+02 2.12303E+04-1.51658E-10 6.21264E-09
 -1       893-1.86004E+01-7.36257E+04-1.34875E+03 1.40292E+04 1.18939E-09 3.33944E-09
 -1       894-7.30787E+02-7.43302E+04-2.80212E+03 2.11554E+04-3.04681E-10-1.51203E-10
 -1       895-5.68790E+02-7.30475E+04-4.93723E+03 1.41009E+04 1.97531E-11 2.27328E-09
 -1       956-1.62383E+05-2.34908E+03-5.91429E+03 1.07245E+04-2.84308E-09-1.17495E-09
 -1       957-1.63551E+05-7.93388E+02-3.03636E+03 1.29088E+04-1.19803E-09-2.39208E-09
 -1       958-1.62906E+05-6.39903E+01-1.36778E+03 1.06548E+04 9.21773E-10-2.68949E-09
 -1       959-1.62998E+05-1.32429E+01-6.98730E+02 1.29841E+04-8.84256E-10 2.25270E-09
 -1       960-1.62950E+05 1.74471E+01-3.40477E+02 1.06484E+04-2.72303E-09-6.45969E-10
 -1       961-1.62955E+05 1.49488E+01-1.80552E+02 1.29912E+04-4.47517E-09 2.41459E-09
 -1       962-1.62958E+05 1.41010E+01-1.03008E+02 1.06476E+04-1.89743E-09 9.08585E-10
 -1       963-1.62952E+05 1.49594E+01-8.21569E+01 1.29923E+04-2.71001E-09 7.45558E-10
 -1       964-1.62960E+05 1.48028E+01-9.89883E+01 1.06473E+04-1.11817E-09 1.48896E-09
 -1       965-1.62958E+05 1.65575E+01-1.70429E+02 1.29923E+04 1.88750E-09 6.54836E-11
 -1       966-1.62955E+05 1.94882E+01-3.19489E+02 1.06476E+04-8.39748E-10-3.09228E-10
 -1       967-1.63001E+05-8.22981E+00-6.55054E+02 1.29884E+04-6.95763E-10 3.22603E-09
 -1       968-1.62915E+05-5.52938E+01-1.28168E+03 1.06512E+04 4.82942E-10-3.18724E-09
 -1       969-1.63522E+05-7.37956E+02-2.84566E+03 1.29447E+04 3.87445E-10-1.76780E-09
 -1       970-1.62428E+05-2.19589E+03-5.54248E+03 1.06925E+04 6.58474E-10 2.41016E-09
 -1       971-1.54430E+05-8.17801E+02-4.55010E+03 7.61375E+03-8.26640E-09-5.17376E-09
 -1       972-1.55537E+05-5.88139E+02-2.47831E+03 1.06236E+04-1.39455E-08-6.77801E-09
 -1       973-1.54934E+05-6.23184E+00-1.10936E+03 7.55160E+03-7.16227E-09 2.21019E-09
 -1       974-1.55009E+05-8.44172E+00-5.74841E+02 1.06902E+04 9.69862E-10 5.41900E-09
 -1       975-1.54971E+05 1.34950E+01-2.86450E+02 7.54664E+03 2.18506E-10 1.18280E-09
 -1       976-1.54976E+05 1.39749E+01-1.64067E+02 1.06959E+04-2.17733E-09-1.19462E-09
 -1       977-1.54977E+05 1.23277E+01-1.16682E+02 7.54583E+03 7.76367E-10 1.54637E-09
 -1       978-1.54976E+05 1.57981E+01-1.33425E+02 1.06970E+04 5.77637E-09-9.02560E-10
 -1       979-1.54976E+05 1.54357E+01-2.11565E+02 7.54552E+03 4.68140E-09 2.68244E-10
 -1       980-1.54991E+05 1.68819E+01-4.06747E+02 1.06971E+04 5.94866E-09 4.55128E-09
 -1       981-1.54963E+05 2.56281E+01-7.86755E+02 7.54572E+03 1.16785E-09 2.64242E-09
 -1       982-1.55100E+05-4.07977E+01-1.62563E+03 1.06943E+04-1.76055E-09 6.27793E-10
 -1       983-1.54865E+05-2.40435E+01-3.15813E+03 7.54845E+03-1.11186E-09 3.94152E-09
 -1       984-1.56620E+05-1.68893E+03-7.07199E+03 1.06521E+04-1.64482E-09 2.01732E-09
 -1       985-1.53437E+05-2.33422E+03-1.29864E+04 7.59002E+03 3.02134E-09 7.97627E-10
 -3
    1PSTEP                         5           3           1          
  100CL  103 3.75000E-01         409                     0    3           1
 -4  DISP        4    1
 -5  D1          1    2    1    0
 -5  D2          1    2    2    0
 -5  D3          1    2    3    0
 -5  ALL         1    2    0    0    1ALL
 -1         1 9.81706E-05 0.00000E+00 0.00000E+00
 -1         2 9.05548E-05 9.59250E-30 0.00000E+00
 -1         3 8.39365E-05-5.87661E-27 0.00000E+00
 -1         5 6.03215E-05 1.54012E-26 0.00000E+00
 -1         8 7.83865E-05-7.16257E-07 0.00000E+00
 -1         9 7.96647E-05 4.79500E-07 0.00000E+00
 -1        10 7.77646E-05-1.14708E-06 3.30872E-24
 -1        12 5.99007E-05 4.08868E-07 0.00000E+00
 -1        15 5.48426E-05-7.80097E-07 0.00000E+00
 -1        16 5.67281E-05 3.75003E-07 0.00000E+00
 -1        17 5.79376E-05-2.41299E-06 0.00000E+00
 -1        18 5.78471E-05 2.22729E-07 0.00000E+00
 -1        19 5.86386E-05 8.15485E-07 0.00000E+00
 -1        20 5.87455E-05 1.20668E-05 0.00000E+00
 -1        21 5.83441E-05 2.28262E-05 0.00000E+00
 -1        24 1.47877E-05-3.25039E-06 0.00000E+00
 -1        25 5.64884E-05 3.16494E-07 0.00000E+00
 -1        26 5.72664E-05 1.13524E-06 0.00000E+00
 -1        27 5.61205E-05 1.02505E-05 0.00000E+00
 -1        28 5.57527E-05 2.24768E-05 0.00000E+00
 -1        32 0.00000E+00 0.00000E+00 0.00000E+00
 -1        33 5.48807E-05 1.52262E-06 0.00000E+00
 -1        34 5.37889E-05 1.02343E-05 0.00000E+00
 -1        35 5.27506E-05 2.22925E-05 0.00000E+00
 -1        51 9.68838E-05-1.18284E-07 0.00000E+00
 -1        52 9.44988E-05-2.33368E-07 0.00000E+00
 -1        53 9.12316E-05-3.49340E-07 0.00000E+00
 -1        54 8.73070E-05-4.67313E-07 0.00000E+00
 -1        55 8.29501E-05-5.87948E-07-4.03251E-24
 -1        56 9.72774E-05-5.71426E-07-2.64698E-23
 -1        57 9.64919E-05-1.53129E-06-1.32349E-23
 -1        58 9.58126E-05-2.76958E-06 0.00000E+00
 -1        59 9.51933E-05-4.18550E-06-1.32349E-23
 -1        60 9.45975E-05-5.66489E-06 0.00000E+00
 -1        61 9.39819E-05-7.09451E-06 0.00000E+00
 -1        62 9.33060E-05-8.36301E-06 0.00000E+00
 -1        63 9.25294E-05-9.36319E-06-1.32349E-23
 -1        64 9.16170E-05-1.00007E-05-2.64698E-23
 -1        65 9.05366E-05-1.01896E-05 1.32349E-23
 -1        66 8.92637E-05-9.86565E-06 0.00000E+00
 -1        67 8.77793E-05-8.97645E-06 1.32349E-23
 -1        68 8.60728E-05-7.49715E-06-2.64698E-23
 -1        69 8.41446E-05-5.41475E-06 1.32349E-23
 -1        70 8.19940E-05-2.74939E-06 0.00000E+00
 -1        86 9.02715E-05 8.59876E-08 0.00000E+00
 -1        87 8.94206E-05 1.71224E-07 8.27181E-25
 -1        88 8.79751E-05 2.55738E-07-1.65436E-24
 -1        89 8.59060E-05 3.36426E-07 0.00000E+00
 -1        90 8.31558E-05 4.16467E-07-3.30872E-24
 -1       121 8.37644E-05-1.90444E-07 6.61744E-24
 -1       122 8.32483E-05-3.81006E-07 0.00000E+00
 -1       123 8.23890E-05-5.71802E-07 0.00000E+00
 -1       124 8.11875E-05-7.62980E-07 0.00000E+00
 -1       125 7.96453E-05-9.54598E-07 6.61744E-24
 -1       191 6.03098E-05 6.81502E-08 0.00000E+00
 -1       192 6.02747E-05 1.36299E-07 3.30872E-24
 -1       193 6.02163E-05 2.04447E-07 3.30872E-24
 -1       194 6.01345E-05 2.72592E-07 0.00000E+00
 -1       195 6.00293E-05 3.40733E-07-3.30872E-24
 -1       251 7.84488E-05 2.53026E-06 3.30872E-24
 -1       252 7.85287E-05 4.44514E-06-5.16988E-26
 -1       253 7.86092E-05 5.26125E-06 0.00000E+00
 -1       254 7.86928E-05 5.20743E-06 0.00000E+00
 -1       255 7.87762E-05 4.47404E-06 0.00000E+00
 -1       256 7.88597E-05 3.24903E-06 1.65436E-24
 -1       257 7.89428E-05 1.69846E-06-3.30872E-24
 -1       258 7.90258E-05-1.27569E-08-1.65436E-24
 -1       259 7.91087E-05-1.72692E-06-3.30872E-24
 -1       260 7.91919E-05-3.28629E-06 0.00000E+00
 -1       261 7.92753E-05-4.52622E-06-1.65436E-24
 -1       262 7.93587E-05-5.28099E-06 0.00000E+00
 -1       263 7.94422E-05-5.36321E-06 0.00000E+00
 -1       264 7.95227E-05-4.58314E-06 1.03398E-25
 -1       265 7.96026E-05-2.71286E-06 0.00000E+00
 -1       266 7.44625E-05-7.36634E-07 3.30872E-24
 -1       267 7.05386E-05-7.46088E-07 8.27181E-25
 -1       268 6.66146E-05-7.56233E-07 0.00000E+00
 -1       269 6.26906E-05-7.64328E-07 0.00000E+00
 -1       270 5.87666E-05-7.72376E-07 0.00000E+00
 -1       271 7.59990E-05 2.21073E-06 2.64698E-23
 -1       272 7.39713E-05 4.07171E-06 0.00000E+00
 -1       273 7.22982E-05 4.99634E-06 0.00000E+00
 -1       274 7.09229E-05 5.11127E-06 0.00000E+00
 -1       275 6.97970E-05 4.56031E-06-2.64698E-23
 -1       276 6.88627E-05 3.49493E-06 1.32349E-23
 -1       277 6.80607E-05 2.07517E-06-2.64698E-23
 -1       278 6.73294E-05 4.65994E-07 1.32349E-23
 -1       279 6.66061E-05-1.16461E-06 0.00000E+00
 -1       280 6.58279E-05-2.64830E-06-1.32349E-23
 -1       281 6.49329E-05-3.81917E-06 0.00000E+00
 -1       282 6.38610E-05-4.51578E-06 0.00000E+00
 -1       283 6.25539E-05-4.58434E-06 0.00000E+00
 -1       284 6.09604E-05-3.87893E-06 1.32349E-23
 -1       285 5.90249E-05-2.26868E-06 2.64698E-23
 -1       301 7.57749E-05 4.57360E-07 0.00000E+00
 -1       302 7.18881E-05 4.46904E-07-1.65436E-24
 -1       303 6.80223E-05 4.36814E-07 0.00000E+00
 -1       304 6.41951E-05 4.25466E-07 3.30872E-24
 -1       305 6.04245E-05 4.12347E-07 0.00000E+00
 -1       306 7.71978E-05 3.36083E-06 0.00000E+00
 -1       307 7.50990E-05 5.14727E-06 0.00000E+00
 -1       308 7.34183E-05 5.83176E-06 0.00000E+00
 -1       309 7.21380E-05 5.42902E-06 0.00000E+00
 -1       310 7.12091E-05 4.08771E-06 2.64698E-23
 -1       311 7.05619E-05 1.98863E-06-2.64698E-23
 -1       312 7.00960E-05-5.96994E-07 0.00000E+00
 -1       313 6.97036E-05-3.38025E-06 0.00000E+00
 -1       314 6.92682E-05-6.04838E-06 5.29396E-23
 -1       315 6.86752E-05-8.29291E-06 1.32349E-23
 -1       316 6.78279E-05-9.85623E-06 2.64698E-23
 -1       317 6.66402E-05-1.05056E-05-1.32349E-23
 -1       318 6.50631E-05-1.01170E-05 0.00000E+00
 -1       319 6.30709E-05-8.60195E-06 0.00000E+00
 -1       320 6.06690E-05-6.01101E-06 2.64698E-23
 -1       336 7.55029E-05-1.35537E-06 6.61744E-24
 -1       337 7.28178E-05-1.56495E-06 0.00000E+00
 -1       338 6.97133E-05-1.77563E-06 0.00000E+00
 -1       339 6.61945E-05-1.98734E-06 0.00000E+00
 -1       340 6.22671E-05-2.20053E-06 0.00000E+00
 -1       406 5.97487E-05 4.76991E-07 3.30872E-24
 -1       407 5.95734E-05 5.45088E-07 0.00000E+00
 -1       408 5.93746E-05 6.13140E-07 0.00000E+00
 -1       409 5.91525E-05 6.81061E-07 0.00000E+00
 -1       410 5.89071E-05 7.48719E-07 0.00000E+00
 -1       521 5.34242E-05 2.19797E-06 0.00000E+00
 -1       522 5.07712E-05 2.06691E-06 2.64698E-23
 -1       523 4.88067E-05 1.13046E-07 0.00000E+00
 -1       524 4.74271E-05-3.44906E-06-2.64698E-23
 -1       525 4.64590E-05-8.11923E-06 0.00000E+00
 -1       526 4.56885E-05-1.33301E-05-2.64698E-23
 -1       527 4.48730E-05-1.84201E-05 0.00000E+00
 -1       528 4.37701E-05-2.27364E-05 0.00000E+00
 -1       529 4.21858E-05-2.57590E-05-5.29396E-23
 -1       530 3.99558E-05-2.70522E-05 2.64698E-23
 -1       531 3.70246E-05-2.64778E-05-5.29396E-23
 -1       532 3.33839E-05-2.40175E-05 0.00000E+00
 -1       533 2.91441E-05-1.99775E-05 5.29396E-23
 -1       534 2.44706E-05-1.47604E-05 0.00000E+00
 -1       535 1.95769E-05-8.98014E-06 5.29396E-23
 -1       536 5.79188E-05 1.62768E-06-1.65436E-24
 -1       537 5.79093E-05 4.69747E-06-8.27181E-25
 -1       538 5.79017E-05 6.88609E-06-8.27181E-25
 -1       539 5.78965E-05 8.28344E-06 0.00000E+00
 -1       540 5.78921E-05 8.98635E-06 0.00000E+00
 -1       541 5.78881E-05 9.09178E-06 0.00000E+00
 -1       542 5.78841E-05 8.70175E-06 0.00000E+00
 -1       543 5.78800E-05 7.91838E-06-5.16988E-26
 -1       544 5.78756E-05 6.84715E-06 0.00000E+00
 -1       545 5.78710E-05 5.59353E-06 0.00000E+00
 -1       546 5.78663E-05 4.26457E-06 1.03398E-25
 -1       547 5.78618E-05 2.96733E-06 0.00000E+00
 -1       548 5.78573E-05 1.80858E-06 0.00000E+00
 -1       549 5.78534E-05 8.95092E-07 0.00000E+00
 -1       550 5.78496E-05 3.31594E-07 0.00000E+00
 -1       551 5.22176E-05-2.53983E-06-3.30872E-24
 -1       552 4.53762E-05-2.67125E-06 8.27181E-25
 -1       553 3.78103E-05-2.80767E-06-3.30872E-24
 -1       554 2.99224E-05-2.94835E-06 0.00000E+00
 -1       555 2.21150E-05-3.09063E-06 1.32349E-23
 -1       556 5.64364E-05 1.47776E-06 0.00000E+00
 -1       557 5.52892E-05 4.45212E-06 6.61744E-24
 -1       558 5.44572E-05 6.59458E-06 0.00000E+00
 -1       559 5.39053E-05 7.99628E-06 0.00000E+00
 -1       560 5.35982E-05 8.74815E-06 0.00000E+00
 -1       561 5.35010E-05 8.94160E-06 0.00000E+00
 -1       562 5.35790E-05 8.66814E-06-6.61744E-24
 -1       563 5.37978E-05 8.01935E-06 0.00000E+00
 -1       564 5.41227E-05 7.08689E-06 0.00000E+00
 -1       565 5.45195E-05 5.96241E-06 0.00000E+00
 -1       566 5.49538E-05 4.73765E-06-8.27181E-25
 -1       567 5.53913E-05 3.50433E-06-4.13590E-25
 -1       568 5.57977E-05 2.35413E-06 0.00000E+00
 -1       569 5.61387E-05 1.37868E-06 0.00000E+00
 -1       570 5.63801E-05 6.69605E-07 0.00000E+00
 -1       571 5.78952E-05 2.93014E-07-2.06795E-25
 -1       572 5.79443E-05 3.30187E-07-6.20385E-25
 -1       573 5.79937E-05 3.40103E-07-1.24077E-24
 -1       574 5.80432E-05 3.28925E-07 8.27181E-25
 -1       575 5.80928E-05 3.02848E-07 8.27181E-25
 -1       576 5.81425E-05 2.68103E-07-8.27181E-25
 -1       577 5.81921E-05 2.30929E-07 0.00000E+00
 -1       578 5.82417E-05 1.97568E-07 0.00000E+00
 -1       579 5.82914E-05 1.74264E-07 1.65436E-24
 -1       580 5.83410E-05 1.67259E-07 0.00000E+00
 -1       581 5.83907E-05 1.82796E-07 0.00000E+00
 -1       582 5.84403E-05 2.27111E-07 0.00000E+00
 -1       583 5.84899E-05 3.06433E-07 0.00000E+00
 -1       584 5.85395E-05 4.26928E-07 0.00000E+00
 -1       585 5.85891E-05 5.94727E-07 0.00000E+00
 -1       586 5.76043E-05 2.39339E-07 8.27181E-25
 -1       587 5.73402E-05 2.55526E-07 0.00000E+00
 -1       588 5.70754E-05 2.71532E-07 0.00000E+00
 -1       589 5.68313E-05 2.87282E-07 0.00000E+00
 -1       590 5.66288E-05 3.02602E-07 0.00000E+00
 -1       591 5.77983E-05 3.18435E-07 5.16988E-26
 -1       592 5.77579E-05 3.86536E-07 0.00000E+00
 -1       593 5.77257E-05 4.32227E-07 0.00000E+00
 -1       594 5.77000E-05 4.60204E-07-2.06795E-25
 -1       595 5.76790E-05 4.75223E-07 0.00000E+00
 -1       596 5.76612E-05 4.82005E-07 0.00000E+00
 -1       597 5.76446E-05 4.85270E-07-4.13590E-25
 -1       598 5.76276E-05 4.89733E-07 0.00000E+00
 -1       599 5.76083E-05 5.00111E-07 0.00000E+00
 -1       600 5.75851E-05 5.21117E-07 0.00000E+00
 -1       601 5.75561E-05 5.57468E-07 2.06795E-25
 -1       602 5.75197E-05 6.13884E-07 1.03398E-25
 -1       603 5.74740E-05 6.95084E-07 1.03398E-25
 -1       604 5.74175E-05 8.05826E-07 0.00000E+00
 -1       605 5.73483E-05 9.50805E-07 0.00000E+00
 -1       606 5.86478E-05 1.14947E-06 0.00000E+00
 -1       607 5.86552E-05 1.55436E-06 0.00000E+00
 -1       608 5.86622E-05 2.02600E-06 0.00000E+00
 -1       609 5.86689E-05 2.55969E-06 0.00000E+00
 -1       610 5.86755E-05 3.15072E-06 0.00000E+00
 -1       611 5.86821E-05 3.79430E-06 0.00000E+00
 -1       612 5.86886E-05 4.48565E-06 0.00000E+00
 -1       613 5.86951E-05 5.21998E-06 0.00000E+00
 -1       614 5.87015E-05 5.99249E-06 0.00000E+00
 -1       615 5.87079E-05 6.79840E-06 0.00000E+00
 -1       616 5.87143E-05 7.63292E-06 0.00000E+00
 -1       617 5.87207E-05 8.49124E-06 0.00000E+00
 -1       618 5.87270E-05 9.36858E-06 0.00000E+00
 -1       619 5.87333E-05 1.02602E-05 0.00000E+00
 -1       620 5.87395E-05 1.11612E-05 0.00000E+00
 -1       621 5.83750E-05 8.68818E-07-1.65436E-24
 -1       622 5.81313E-05 9.22406E-07 0.00000E+00
 -1       623 5.79031E-05 9.75986E-07 0.00000E+00
 -1       624 5.76858E-05 1.02948E-06 8.27181E-25
 -1       625 5.74751E-05 1.08289E-06 0.00000E+00
 -1       626 5.85705E-05 1.16624E-06 0.00000E+00
 -1       627 5.84808E-05 1.57572E-06 0.00000E+00
 -1       628 5.83712E-05 2.03849E-06 0.00000E+00
 -1       629 5.82439E-05 2.54875E-06 3.30872E-24
 -1       630 5.81009E-05 3.10070E-06 0.00000E+00
 -1       631 5.79444E-05 3.68848E-06 1.65436E-24
 -1       632 5.77767E-05 4.30624E-06 0.00000E+00
 -1       633 5.76000E-05 4.94815E-06 8.27181E-25
 -1       634 5.74163E-05 5.60835E-06 1.65436E-24
 -1       635 5.72280E-05 6.28098E-06 0.00000E+00
 -1       636 5.70372E-05 6.96022E-06 1.65436E-24
 -1       637 5.68460E-05 7.64021E-06-8.27181E-25
 -1       638 5.66568E-05 8.31508E-06-1.65436E-24
 -1       639 5.64715E-05 8.97900E-06-8.27181E-25
 -1       640 5.62923E-05 9.62611E-06 0.00000E+00
 -1       656 5.79933E-05 1.17713E-05-3.30872E-24
 -1       657 5.75070E-05 1.14640E-05 3.30872E-24
 -1       658 5.71845E-05 1.11576E-05 0.00000E+00
 -1       659 5.69214E-05 1.08515E-05-3.30872E-24
 -1       660 5.66044E-05 1.05444E-05 0.00000E+00
 -1       661 5.84674E-05 1.29543E-05 0.00000E+00
 -1       662 5.82058E-05 1.38040E-05-8.27181E-25
 -1       663 5.79580E-05 1.46167E-05 0.00000E+00
 -1       664 5.77238E-05 1.53942E-05 0.00000E+00
 -1       665 5.75022E-05 1.61380E-05 0.00000E+00
 -1       666 5.72929E-05 1.68496E-05 0.00000E+00
 -1       667 5.70952E-05 1.75303E-05 0.00000E+00
 -1       668 5.69085E-05 1.81816E-05-8.27181E-25
 -1       669 5.67324E-05 1.88046E-05 1.65436E-24
 -1       670 5.65664E-05 1.94009E-05 8.27181E-25
 -1       671 5.64100E-05 1.99714E-05-1.65436E-24
 -1       672 5.62628E-05 2.05174E-05 0.00000E+00
 -1       673 5.61242E-05 2.10401E-05 0.00000E+00
 -1       674 5.59935E-05 2.15402E-05 0.00000E+00
 -1       675 5.58709E-05 2.20193E-05 0.00000E+00
 -1       676 5.79114E-05 2.27676E-05 0.00000E+00
 -1       677 5.74788E-05 2.27091E-05 0.00000E+00
 -1       678 5.70465E-05 2.26505E-05 0.00000E+00
 -1       679 5.66146E-05 2.25922E-05 0.00000E+00
 -1       680 5.61833E-05 2.25339E-05 0.00000E+00
 -1       771 1.18388E-05 2.33517E-06 2.64698E-23
 -1       772 9.26895E-06 6.90440E-06 1.32349E-23
 -1       773 7.06236E-06 1.05156E-05 2.64698E-23
 -1       774 5.19454E-06 1.32305E-05 1.32349E-23
 -1       775 3.64154E-06 1.51116E-05-2.64698E-23
 -1       776 2.37843E-06 1.62236E-05-1.32349E-23
 -1       777 1.37997E-06 1.66319E-05-2.64698E-23
 -1       778 6.20532E-07 1.64038E-05 1.32349E-23
 -1       779 7.42604E-08 1.56069E-05-2.64698E-23
 -1       780-2.85059E-07 1.43105E-05-1.32349E-23
 -1       781-4.83726E-07 1.25843E-05 0.00000E+00
 -1       782-5.48336E-07 1.04992E-05 0.00000E+00
 -1       783-5.05531E-07 8.12609E-06-2.64698E-23
 -1       784-3.82101E-07 5.53703E-06 1.32349E-23
 -1       785-2.04934E-07 2.80408E-06 0.00000E+00
 -1       786 5.65342E-05 3.18847E-07 0.00000E+00
 -1       787 5.65827E-05 3.31681E-07-4.13590E-25
 -1       788 5.66311E-05 3.51792E-07-1.65436E-24
 -1       789 5.66799E-05 3.75994E-07 0.00000E+00
 -1       790 5.67288E-05 4.03192E-07 0.00000E+00
 -1       791 5.67778E-05 4.32302E-07 0.00000E+00
 -1       792 5.68267E-05 4.63218E-07 0.00000E+00
 -1       793 5.68757E-05 4.95840E-07 8.27181E-25
 -1       794 5.69247E-05 5.30945E-07 1.65436E-24
 -1       795 5.69737E-05 5.69313E-07-8.27181E-25
 -1       796 5.70227E-05 6.13405E-07 1.65436E-24
 -1       797 5.70717E-05 6.65693E-07 8.27181E-25
 -1       798 5.71207E-05 7.32860E-07 0.00000E+00
 -1       799 5.71695E-05 8.21623E-07 0.00000E+00
 -1       800 5.72183E-05 9.49787E-07 0.00000E+00
 -1       801 5.26713E-05 3.17795E-07 0.00000E+00
 -1       802 4.13124E-05 2.64287E-07 0.00000E+00
 -1       803 2.63911E-05 1.68012E-07-3.30872E-24
 -1       804 1.18852E-05 7.22323E-08-3.30872E-24
 -1       805 1.76334E-06 2.70870E-08 0.00000E+00
 -1       806 5.64319E-05 2.82067E-07 0.00000E+00
 -1       807 5.63732E-05 2.47182E-07 0.00000E+00
 -1       808 5.63128E-05 2.15550E-07 0.00000E+00
 -1       809 5.62498E-05 1.90335E-07 0.00000E+00
 -1       810 5.61831E-05 1.74697E-07 0.00000E+00
 -1       811 5.61117E-05 1.71749E-07-8.27181E-25
 -1       812 5.60342E-05 1.84601E-07 0.00000E+00
 -1       813 5.59497E-05 2.16357E-07 8.27181E-25
 -1       814 5.58569E-05 2.70119E-07 0.00000E+00
 -1       815 5.57548E-05 3.48986E-07 8.27181E-25
 -1       816 5.56420E-05 4.56056E-07 8.27181E-25
 -1       817 5.55175E-05 5.94425E-07-4.13590E-25
 -1       818 5.53801E-05 7.67190E-07 8.27181E-25
 -1       819 5.52288E-05 9.77433E-07 0.00000E+00
 -1       820 5.50625E-05 1.22824E-06-8.27181E-25
 -1       821 5.71989E-05 1.36000E-06-8.27181E-25
 -1       822 5.71273E-05 1.60646E-06-8.27181E-25
 -1       823 5.70559E-05 1.89409E-06 1.65436E-24
 -1       824 5.69837E-05 2.24221E-06 0.00000E+00
 -1       825 5.69115E-05 2.66099E-06 0.00000E+00
 -1       826 5.68391E-05 3.16035E-06 8.27181E-25
 -1       827 5.67666E-05 3.73800E-06-1.65436E-24
 -1       828 5.66940E-05 4.39141E-06 0.00000E+00
 -1       829 5.66214E-05 5.10654E-06-1.65436E-24
 -1       830 5.65488E-05 5.86917E-06 8.27181E-25
 -1       831 5.64762E-05 6.65787E-06 0.00000E+00
 -1       832 5.64038E-05 7.45113E-06 0.00000E+00
 -1       833 5.63314E-05 8.22674E-06-1.65436E-24
 -1       834 5.62598E-05 8.96257E-06 8.27181E-25
 -1       835 5.61880E-05 9.64246E-06 8.27181E-25
 -1       836 5.69793E-05 1.19973E-06 1.65436E-24
 -1       837 5.66043E-05 1.26565E-06 0.00000E+00
 -1       838 5.61741E-05 1.33144E-06 1.65436E-24
 -1       839 5.57216E-05 1.39680E-06-4.13590E-25
 -1       840 5.52796E-05 1.46207E-06 2.06795E-25
 -1       856 5.61000E-05 1.08641E-05 2.06795E-25
 -1       857 5.60773E-05 1.15557E-05 0.00000E+00
 -1       858 5.60547E-05 1.23128E-05 0.00000E+00
 -1       859 5.60316E-05 1.31231E-05 0.00000E+00
 -1       860 5.60084E-05 1.39743E-05-8.27181E-25
 -1       861 5.59852E-05 1.48539E-05 0.00000E+00
 -1       862 5.59619E-05 1.57496E-05 0.00000E+00
 -1       863 5.59386E-05 1.66487E-05-4.13590E-25
 -1       864 5.59153E-05 1.75389E-05 0.00000E+00
 -1       865 5.58920E-05 1.84076E-05 0.00000E+00
 -1       866 5.58687E-05 1.92426E-05-8.27181E-25
 -1       867 5.58455E-05 2.00313E-05 0.00000E+00
 -1       868 5.58223E-05 2.07613E-05 0.00000E+00
 -1       869 5.57991E-05 2.14204E-05 0.00000E+00
 -1       870 5.57760E-05 2.19963E-05 8.27181E-25
 -1       871 5.56529E-05 1.02499E-05 0.00000E+00
 -1       872 5.52599E-05 1.02477E-05 0.00000E+00
 -1       873 5.49094E-05 1.02453E-05 0.00000E+00
 -1       874 5.45690E-05 1.02425E-05-1.55096E-25
 -1       875 5.42062E-05 1.02394E-05 6.20385E-25
 -1       876 5.59583E-05 1.08705E-05 0.00000E+00
 -1       877 5.57834E-05 1.15285E-05 0.00000E+00
 -1       878 5.55962E-05 1.22198E-05 0.00000E+00
 -1       879 5.53982E-05 1.29401E-05-8.27181E-25
 -1       880 5.51910E-05 1.36852E-05 0.00000E+00
 -1       881 5.49761E-05 1.44507E-05 0.00000E+00
 -1       882 5.47551E-05 1.52324E-05-1.65436E-24
 -1       883 5.45296E-05 1.60261E-05-8.27181E-25
 -1       884 5.43013E-05 1.68275E-05-1.65436E-24
 -1       885 5.40716E-05 1.76323E-05-8.27181E-25
 -1       886 5.38423E-05 1.84362E-05 1.65436E-24
 -1       887 5.36148E-05 1.92351E-05-8.27181E-25
 -1       888 5.33907E-05 2.00245E-05 0.00000E+00
 -1       889 5.31714E-05 2.08003E-05 0.00000E+00
 -1       890 5.29585E-05 2.15580E-05 0.00000E+00
 -1       891 5.53372E-05 2.24460E-05 8.27181E-25
 -1       892 5.49084E-05 2.24151E-05 4.13590E-25
 -1       893 5.44506E-05 2.23841E-05-4.13590E-25
 -1       894 5.39487E-05 2.23533E-05 2.06795E-25
 -1       895 5.33870E-05 2.23225E-05-8.27181E-25
 -1       956 5.48138E-05 1.90565E-06 1.65436E-24
 -1       957 5.47457E-05 2.33253E-06 0.00000E+00
 -1       958 5.46774E-05 2.79874E-06 1.65436E-24
 -1       959 5.46090E-05 3.29945E-06 0.00000E+00
 -1       960 5.45406E-05 3.82984E-06 1.65436E-24
 -1       961 5.44721E-05 4.38505E-06 0.00000E+00
 -1       962 5.44036E-05 4.96023E-06 1.65436E-24
 -1       963 5.43350E-05 5.55053E-06 8.27181E-25
 -1       964 5.42665E-05 6.15109E-06 0.00000E+00
 -1       965 5.41980E-05 6.75703E-06 0.00000E+00
 -1       966 5.41295E-05 7.36352E-06 1.65436E-24
 -1       967 5.40610E-05 7.96568E-06 8.27181E-25
 -1       968 5.39925E-05 8.55866E-06 0.00000E+00
 -1       969 5.39242E-05 9.13762E-06 8.27181E-25
 -1       970 5.38560E-05 9.69771E-06 0.00000E+00
 -1       971 5.37248E-05 1.07856E-05 0.00000E+00
 -1       972 5.36599E-05 1.13947E-05 0.00000E+00
 -1       973 5.35948E-05 1.20552E-05 0.00000E+00
 -1       974 5.35296E-05 1.27605E-05 8.27181E-25
 -1       975 5.34644E-05 1.35039E-05 0.00000E+00
 -1       976 5.33991E-05 1.42787E-05 8.27181E-25
 -1       977 5.33338E-05 1.50784E-05 0.00000E+00
 -1       978 5.32685E-05 1.58962E-05 0.00000E+00
 -1       979 5.32031E-05 1.67255E-05 0.00000E+00
 -1       980 5.31378E-05 1.75597E-05 8.27181E-25
 -1       981 5.30725E-05 1.83920E-05 1.65436E-24
 -1       982 5.30073E-05 1.92157E-05 0.00000E+00
 -1       983 5.29421E-05 2.00243E-05 1.65436E-24
 -1       984 5.28773E-05 2.08110E-05-8.27181E-25
 -1       985 5.28127E-05 2.15693E-05-1.65436E-24
 -3
    1PSTEP                         6           3           1          
  100CL  103 3.75000E-01         409                     0    3           1
 -4  STRESS      6    1
 -5  SXX         1    4    1    1
 -5  SYY         1    4    2    2
 -5  SZZ         1    4    3    3
 -5  SXY         1    4    1    2
 -5  SYZ         1    4    2    3
 -5  SZX         1    4    3    1
 -1         1-1.29410E+06-5.95023E+05-2.63784E+05-8.37618E+05 2.51021E-10 3.01225E-09
 -1         2 2.17682E+03 2.48968E+05 7.11876E+03 6.00562E+02-1.48333E-10-7.89561E-09
 -1         3-4.73391E+01-5.44203E+05 1.26385E+02-1.49886E+02-1.02117E-10-2.22744E-08
 -1         5-4.38808E+00 1.94996E+05 5.11038E+00 2.14194E-02 8.98361E-11 1.23964E-09
 -1         8-6.09135E+05-2.65455E+05-2.05303E+04-4.62461E+05 1.45519E-10-2.47746E-09
 -1         9-1.04585E+06-2.67894E+05-1.03159E+05-3.59561E+05 2.79251E-09-2.95695E-09
 -1        10-4.22973E+02-5.66946E+05-7.29358E+02-1.00633E+03-2.60115E-09 2.05566E-09
 -1        12-2.29203E+00 1.95007E+05 1.65711E+02 4.21409E-01 1.54131E-10 2.52567E-09
 -1        15 1.61341E+03 8.86661E+02 5.21534E+03 2.73776E+00-3.97591E-10-8.63491E-08
 -1        16-2.94997E+06-9.47536E+05-4.58765E+05-9.62438E+05 9.04159E-09-7.08193E-09
 -1        17-6.50920E+05-3.99952E+05-1.25340E+05-3.76236E+05-4.16330E-09 6.02449E-10
 -1        18 2.20581E+04 1.87808E+03-9.51779E+03-4.61317E+04 6.04700E-10-2.11503E-09
 -1        19 6.10783E+04 7.27700E+04-3.54621E+02 1.20401E+04-4.78940E-10-2.18351E-09
 -1        20-2.51745E+04-2.88473E+05-6.36039E+04 2.14598E+04 2.69241E-09-1.76412E-09
 -1        21-2.73206E+01-1.67441E+05-5.41050E+02-4.97016E+01-7.40083E-09 4.91315E-09
 -1        24-2.59865E+06-8.91582E+05-3.70288E+05-1.08617E+06-1.22454E-08-7.41663E-09
 -1        25 2.48045E+04-1.00467E+03 1.44655E+04-8.32347E+04 6.82849E-10 3.26618E-09
 -1        26-1.32157E+04 4.99363E+04-9.67088E+03-7.22566E+03 1.04883E-09 5.35973E-09
 -1        27-4.67779E+04-1.58438E+05-5.95210E+04 3.56625E+04 5.36268E-09-1.52477E-09
 -1        28 1.29521E+04-4.62268E+04 9.45289E+03 1.48731E+04 2.98765E-09-1.47043E-09
 -1        32-6.16006E+05-8.53000E+04 2.68236E+05-4.17061E+05-1.22818E-08 1.03391E-08
 -1        33-9.03385E+04 4.65684E+04 1.64992E+04-2.75455E+04 8.97595E-10-2.21326E-09
 -1        34-1.17539E+05-1.16919E+04 2.75397E+02 3.61008E+04 2.88856E-09 8.41283E-11
 -1        35-1.31747E+04-1.83796E+04-7.18219E+02 2.91639E+04 3.13993E-09-4.24006E-09
 -1        51 1.13958E+04-3.03368E+05 2.87807E+04-7.55954E+05 1.16415E-10 1.22818E-08
 -1        52 6.55572E+03-3.01766E+05 1.92401E+04-8.81691E+05 5.67525E-10 1.51849E-08
 -1        53 4.64425E+03-3.10517E+05 1.68557E+04-7.53358E+05 4.51109E-10 8.74570E-09
 -1        54 1.39774E+04-3.08611E+05 2.74776E+04-8.84424E+05-4.36557E-11-7.45058E-09
 -1        55 2.93081E+04-3.18879E+05 4.94453E+04-7.52984E+05 1.16415E-10-2.84126E-09
 -1        56-2.48525E+06-2.80616E+05-1.94307E+05-9.58134E+05-3.63798E-12 1.01863E-10
 -1        57-2.56230E+06-4.57354E+05-1.30966E+05-9.51764E+05 1.33969E-09 6.35191E-09
 -1        58-2.52440E+06-3.42026E+05-4.57314E+04-9.45796E+05-6.67569E-10-3.08319E-09
 -1        59-2.51697E+06-3.85374E+05-2.72997E+04-9.66597E+05 5.42968E-10 5.11545E-09
 -1        60-2.53019E+06-3.50511E+05-1.06843E+04-9.44042E+05-2.45768E-09 4.99676E-09
 -1        61-2.51100E+06-3.74674E+05-6.07418E+03-9.67744E+05-3.66015E-09 8.04619E-10
 -1        62-2.53027E+06-3.52469E+05-2.93089E+03-9.44722E+05 3.25144E-11-3.74288E-09
 -1        63-2.51246E+06-3.71029E+05-2.40183E+03-9.65112E+05-1.37788E-09-3.24985E-09
 -1        64-2.52865E+06-3.54168E+05-2.77711E+03-9.46637E+05-1.15256E-09-4.27985E-09
 -1        65-2.51707E+06-3.68113E+05-5.53158E+03-9.60260E+05-7.51584E-10-6.39000E-09
 -1        66-2.52559E+06-3.55461E+05-9.76826E+03-9.49511E+05-2.87173E-10-7.81256E-10
 -1        67-2.52788E+06-3.72318E+05-2.47533E+04-9.52861E+05-8.63849E-10-1.85901E-09
 -1        68-2.51786E+06-3.50237E+05-4.15823E+04-9.53924E+05 2.91311E-09-6.00085E-09
 -1        69-2.57322E+06-4.33582E+05-1.18896E+05-9.34800E+05 1.60435E-09-2.75759E-09
 -1        70-2.48066E+06-2.96058E+05-1.76494E+05-9.66925E+05-6.00267E-10-7.17409E-09
 -1        86-1.09244E+03 2.46730E+05 7.61746E+03-3.00299E+02 9.46557E-10-1.19767E-08
 -1        87 7.24853E+03 2.51456E+05 1.59065E+04 1.23894E+03 1.58889E-09-7.60281E-09
 -1        88-6.15034E+03 2.44244E+05 2.43357E+04-9.38690E+02 2.39288E-09 3.20244E-09
 -1        89 4.58338E+04 2.69479E+05 6.56570E+04 2.68544E+03 3.62252E-09 3.99115E-09
 -1        90-3.95544E+04 2.28722E+05 9.27169E+04-1.74642E+03 4.11455E-09 5.12188E-09
 -1       121-7.87930E+01-5.44442E+05 1.13057E+02 7.48741E+01 2.70667E-10-2.59024E-09
 -1       122-5.69989E+00-5.44176E+05 2.75167E+02-2.99832E+02-1.02407E-09 4.09500E-09
 -1       123-1.08529E+02-5.44471E+05 4.38370E+02 2.24550E+02 8.87894E-10 5.08408E-09
 -1       124 5.01739E+02-5.43867E+05 1.15208E+03-6.94594E+02-1.94916E-09 4.62342E-09
 -1       125-4.37337E+02-5.44758E+05 1.75975E+03 4.69547E+02 1.26647E-09-6.02267E-09
 -1       191-4.77589E+00 1.95013E+05 6.07341E+00-1.11633E-02 1.26720E-10 4.15776E-09
 -1       192-4.85778E+00 1.94997E+05 1.08224E+01 4.24302E-01 1.62357E-10 5.73164E-09
 -1       193-6.02478E+00 1.95012E+05 2.00930E+01-4.16217E-01 2.11372E-10-2.81125E-09
 -1       194-6.36935E+00 1.94998E+05 4.09409E+01 1.11355E+00 1.21084E-10-5.78621E-09
 -1       195-8.42510E+00 1.95011E+05 8.00495E+01-7.05451E-01 3.59655E-10-8.03993E-10
 -1       251 2.22950E+05-3.84169E+04 8.96930E+04 3.80971E+03 4.93856E-10 7.66522E-09
 -1       252 2.63881E+05 4.44445E+04 6.36467E+04-1.21781E+04-2.50765E-10 9.78071E-09
 -1       253 2.38438E+05-5.94737E+03 2.32136E+04 2.57309E+03-6.98776E-10-4.53838E-09
 -1       254 2.45626E+05 6.87064E+03 1.46802E+04-1.02317E+04-4.37012E-10-4.57339E-09
 -1       255 2.41127E+05-9.18388E+02 5.99814E+03 1.86346E+03-1.34150E-11 1.25874E-09
 -1       256 2.42408E+05 1.09069E+03 3.64812E+03-9.18554E+03 4.76149E-10 1.81126E-09
 -1       257 2.41622E+05-1.60442E+02 1.87706E+03 1.52693E+03 2.73204E-10 6.47105E-10
 -1       258 2.41903E+05 3.41145E+02 1.66327E+03-8.84587E+03-1.72078E-10 3.26193E-09
 -1       259 2.41621E+05-1.63507E+02 1.90603E+03 1.52380E+03 1.38414E-11 8.62713E-10
 -1       260 2.42418E+05 1.11759E+03 3.73036E+03-9.17363E+03 3.28768E-10-2.25918E-09
 -1       261 2.41117E+05-9.41882E+02 6.14867E+03 1.85468E+03 8.63537E-10 2.75577E-10
 -1       262 2.45704E+05 7.04790E+03 1.50513E+04-1.02058E+04 5.52774E-10 4.68026E-09
 -1       263 2.38369E+05-6.09997E+03 2.38128E+04 2.55595E+03-6.74447E-10 1.63527E-09
 -1       264 2.64397E+05 4.55871E+04 6.52727E+04-1.21361E+04-1.10694E-09 1.00008E-08
 -1       265 2.22502E+05-3.94013E+04 9.20087E+04 3.78482E+03-9.33142E-10 4.88581E-09
 -1       266-2.92078E+04-1.36566E+04 6.85338E+04-5.85828E+01-3.78350E-10-1.34552E-07
 -1       267 3.38603E+04 1.59185E+04 4.84366E+04 6.75890E+01-9.05857E-10-2.62122E-07
 -1       268-4.54058E+03-2.25442E+03 1.80038E+04-8.61223E+00-8.07631E-10-2.14709E-07
 -1       269 5.36112E+03 2.69814E+03 1.17020E+04 1.00317E+01-6.25164E-10-1.59480E-07
 -1       270-8.04710E+02-4.43323E+02 5.64875E+03-1.36139E+00-5.07953E-10-1.14258E-07
 -1       271-2.87142E+06-3.58328E+05-2.21134E+05-1.11876E+06-1.05683E-09 2.59024E-09
 -1       272-2.93426E+06-5.35967E+05-1.42147E+05-1.13547E+06-2.01226E-11 5.19503E-09
 -1       273-2.91389E+06-4.12511E+05-5.22366E+04-1.10794E+06-1.28694E-10-3.11047E-09
 -1       274-2.88452E+06-4.69713E+05-2.92244E+04-1.15228E+06 1.41245E-09-4.25280E-09
 -1       275-2.92069E+06-4.17112E+05-1.21507E+04-1.10505E+06-1.17325E-09-2.45745E-09
 -1       276-2.87646E+06-4.64388E+05-6.45152E+03-1.15698E+06-1.23941E-09 7.35554E-10
 -1       277-2.92234E+06-4.16793E+05-3.15615E+03-1.10386E+06-1.57343E-10 1.51738E-09
 -1       278-2.87491E+06-4.64554E+05-2.29389E+03-1.15841E+06 2.53965E-09 1.21474E-08
 -1       279-2.92243E+06-4.16756E+05-2.46221E+03-1.10379E+06-1.53773E-09-1.18916E-09
 -1       280-2.87599E+06-4.64284E+05-4.51079E+03-1.15732E+06-8.34916E-10-1.02591E-09
 -1       281-2.92110E+06-4.17203E+05-8.26605E+03-1.10483E+06 1.93268E-10 6.29370E-09
 -1       282-2.88202E+06-4.67162E+05-1.97157E+04-1.15324E+06 9.04038E-10 2.51885E-09
 -1       283-2.91600E+06-4.14669E+05-3.52374E+04-1.10735E+06-1.18234E-11-3.59978E-09
 -1       284-2.91663E+06-5.10494E+05-9.57408E+04-1.14028E+06 3.82215E-10-5.21868E-09
 -1       285-2.88660E+06-3.79049E+05-1.49078E+05-1.11554E+06 7.49424E-10-4.17640E-09
 -1       301 1.10309E+04-6.67144E+03 8.58577E+04-2.13695E+04-7.56700E-10-5.68491E-10
 -1       302 1.18644E+04 1.51017E+04 6.20650E+04-3.14670E+04 1.36424E-09-1.02298E-08
 -1       303 5.46687E+02 1.03007E+03 5.72392E+04-2.14271E+04-6.83940E-10-2.38060E-09
 -1       304 2.24233E+04 2.48477E+04 9.63986E+04-3.13759E+04 7.78527E-10 1.09667E-08
 -1       305 2.22151E+04-1.63471E+04 1.61846E+05-2.13923E+04-6.03904E-10 5.11045E-09
 -1       306-3.08213E+06-3.56914E+05-2.35196E+05-1.20547E+06 1.81535E-09-1.46974E-09
 -1       307-3.20435E+06-5.54486E+05-1.60336E+05-1.16325E+06 3.66572E-09 3.59614E-09
 -1       308-3.13709E+06-4.28533E+05-5.53570E+04-1.18171E+06 1.52249E-09 1.93177E-09
 -1       309-3.13535E+06-4.76592E+05-3.34747E+04-1.19744E+06 2.15528E-09-4.43106E-09
 -1       310-3.15083E+06-4.33370E+05-1.29980E+04-1.17178E+06 6.08424E-10-1.52795E-10
 -1       311-3.11735E+06-4.73320E+05-7.51012E+03-1.21195E+06 3.52566E-09 2.78283E-09
 -1       312-3.15521E+06-4.31473E+05-3.67574E+03-1.16740E+06 4.43038E-10-1.44701E-09
 -1       313-3.11383E+06-4.74329E+05-3.31046E+03-1.21540E+06-3.12389E-09-6.42899E-11
 -1       314-3.15441E+06-4.32291E+05-3.99244E+03-1.16838E+06-1.34969E-09-6.65318E-09
 -1       315-3.12042E+06-4.70544E+05-8.37758E+03-1.20826E+06 1.27284E-09-2.13004E-09
 -1       316-3.14849E+06-4.35382E+05-1.46925E+04-1.17444E+06 1.32377E-09 5.01586E-09
 -1       317-3.14173E+06-4.73471E+05-3.78663E+04-1.19101E+06 9.56533E-10-5.67570E-09
 -1       318-3.13300E+06-4.29713E+05-6.26391E+04-1.18543E+06-3.88718E-09 6.33008E-09
 -1       319-3.21875E+06-5.63039E+05-1.81534E+05-1.15406E+06-6.86668E-10-4.74756E-10
 -1       320-3.07189E+06-3.47374E+05-2.66145E+05-1.21088E+06 5.70435E-09-2.43017E-09
 -1       336 4.10487E+02-5.89392E+05-3.15503E+03 5.35885E+02-5.27552E-09 8.69022E-09
 -1       337-1.14244E+03-5.90225E+05-3.45737E+03-1.40523E+03-9.56402E-09 5.90944E-09
 -1       338 2.69157E+02-5.89482E+05-4.37392E+03 8.66767E+02-6.72901E-09 2.46473E-10
 -1       339-4.52344E+03-5.92307E+05-9.57135E+03-2.05979E+03-1.23425E-08 1.16097E-09
 -1       340 3.06392E+03-5.87344E+05-1.47596E+04 1.18634E+03-8.30369E-09 5.23232E-09
 -1       406 1.03297E+01 1.95004E+05 3.27122E+02 2.72053E-01 4.06942E-10 4.54747E-10
 -1       407 1.11781E+02 1.95064E+05 6.95342E+02-7.53819E+00 4.45652E-11-5.17275E-09
 -1       408 3.55609E+02 1.94954E+05 1.38871E+03 7.37154E+00 4.45880E-10-2.45063E-09
 -1       409 1.49950E+03 1.95508E+05 3.12653E+03-6.86931E+01-1.08685E-10-1.03257E-08
 -1       410 4.31244E+03 1.94559E+05 6.38269E+03 6.33304E+01 5.62068E-10 3.57613E-09
 -1       521-5.83616E+06-6.74143E+05-4.37395E+05-2.27028E+06 3.84171E-09-6.83940E-09
 -1       522-6.03932E+06-1.05637E+06-2.96841E+05-2.21683E+06-3.20688E-09-1.70985E-10
 -1       523-5.94541E+06-7.97117E+05-1.02877E+05-2.21722E+06 1.89175E-09-1.59343E-09
 -1       524-5.90364E+06-9.22694E+05-6.18337E+04-2.29128E+06 1.82104E-09-4.59841E-09
 -1       525-5.97143E+06-8.04100E+05-2.39418E+04-2.19728E+06 3.14913E-10-1.79989E-09
 -1       526-5.87730E+06-9.10372E+05-1.37787E+04-2.31030E+06 3.51110E-09 5.17502E-10
 -1       527-5.97192E+06-8.08675E+05-6.67733E+03-2.19860E+06 1.77079E-09 1.23876E-09
 -1       528-5.89151E+06-8.89590E+05-5.42691E+03-2.28951E+06 8.14907E-10 2.14811E-09
 -1       529-5.95655E+06-8.25266E+05-6.98348E+03-2.21761E+06 1.57843E-09 7.07587E-10
 -1       530-5.93158E+06-8.52812E+05-1.32032E+04-2.24247E+06-7.63976E-11 1.32627E-09
 -1       531-5.93122E+06-8.45979E+05-2.42260E+04-2.24514E+06-4.97585E-09-7.82165E-10
 -1       532-5.99139E+06-8.33450E+05-6.12095E+04-2.18895E+06 3.57986E-09-7.16318E-09
 -1       533-5.89738E+06-8.44808E+05-1.01951E+05-2.27133E+06 2.40470E-09-7.47605E-09
 -1       534-6.12101E+06-9.75243E+05-2.95092E+05-2.12813E+06 7.63976E-10 1.01536E-08
 -1       535-5.80361E+06-7.06764E+05-4.33649E+05-2.30571E+06-8.55653E-09 8.55653E-09
 -1       536-1.88747E+04-1.60983E+04 3.70520E+04 3.10367E+02-1.13238E-09 2.47928E-09
 -1       537-1.51228E+03 1.86254E+04 2.64357E+04-1.36572E+03-5.93064E-09 4.42742E-09
 -1       538-1.25020E+04-2.52342E+03 9.54988E+03 3.11681E+02-2.46729E-10 5.52245E-09
 -1       539-9.04934E+03 2.91169E+03 6.12243E+03-1.39882E+03 3.17155E-09 3.51918E-09
 -1       540-1.13470E+04-3.92738E+02 2.40652E+03 3.43463E+02 4.64226E-10 2.71484E-09
 -1       541-1.04806E+04 4.48388E+02 1.45057E+03-1.45558E+03 4.78508E-10 4.22006E-10
 -1       542-1.10767E+04-5.78057E+01 5.72774E+02 3.68431E+02-6.85809E-10-2.90427E-09
 -1       543-1.08485E+04 5.39829E+01 2.89372E+02-1.49520E+03 9.18078E-10-4.73693E-09
 -1       544-1.09831E+04 4.27673E+00 3.09974E+01 3.83074E+02 2.31839E-10-4.69967E-10
 -1       545-1.09986E+04-7.97386E+01-1.94714E+02-1.51373E+03-3.08084E-10-9.22569E-09
 -1       546-1.09285E+04 7.71982E+01-4.41263E+02 3.86966E+02 2.66143E-10-5.15141E-09
 -1       547-1.12263E+04-5.69585E+02-1.15959E+03-1.51063E+03-1.29380E-09 1.69834E-10
 -1       548-1.07551E+04 4.93528E+02-1.88211E+03 3.79972E+02-1.88404E-09-3.69710E-09
 -1       549-1.25423E+04-3.63708E+03-5.12525E+03-1.48443E+03-1.06034E-09-1.67165E-09
 -1       550-9.60989E+03 3.14045E+03-7.30879E+03 3.60770E+02 5.70139E-11-1.63300E-09
 -1       551 5.73255E+03-3.08986E+05 1.69914E+04-5.29887E+05-2.29047E-08-2.29920E-09
 -1       552 1.20529E+04-3.09753E+05 2.22752E+04-7.54111E+05-1.79716E-08 4.43470E-09
 -1       553 7.90848E+03-3.13808E+05 3.47381E+04-5.28168E+05-2.91911E-08 2.43017E-09
 -1       554 2.92970E+04-2.98972E+05 7.38199E+04-7.54835E+05-1.73059E-08 7.34963E-09
 -1       555 2.92979E+04-3.27888E+05 1.32641E+05-5.28858E+05-2.80852E-08-1.38243E-09
 -1       556 4.38270E+04-9.92001E+04 3.41442E+04-1.31908E+05-5.70435E-09-3.89264E-09
 -1       557 8.40438E+04-1.32855E+05 1.78913E+04-1.64860E+05-1.56433E-10 2.25009E-09
 -1       558 4.40872E+04-1.03979E+05 7.29703E+03-1.27772E+05-4.94038E-09-3.78350E-09
 -1       559 7.90479E+04-1.37662E+05 3.68337E+03-1.66958E+05 3.25235E-09-9.05675E-09
 -1       560 4.31975E+04-1.03375E+05 1.55541E+03-1.28303E+05 6.83940E-10 1.32422E-09
 -1       561 7.75554E+04-1.37346E+05 8.12144E+02-1.67894E+05 3.12866E-10 1.32741E-09
 -1       562 4.24594E+04-1.02869E+05 3.22643E+02-1.28838E+05 2.98314E-09 7.34963E-09
 -1       563 7.66778E+04-1.36971E+05 1.92273E+02-1.68455E+05-4.82032E-10-3.25986E-09
 -1       564 4.20011E+04-1.02570E+05 7.03787E+01-1.29165E+05 6.71207E-10-9.30459E-09
 -1       565 7.62271E+04-1.36780E+05 3.78932E+01-1.68737E+05-9.32232E-10-8.56198E-09
 -1       566 4.18433E+04-1.02463E+05-2.02219E+01-1.29281E+05 1.35378E-09 5.00768E-09
 -1       567 7.61701E+04-1.36751E+05-9.16576E+01-1.68724E+05 2.02431E-09-5.06770E-09
 -1       568 4.20116E+04-1.02575E+05-2.49360E+02-1.29210E+05-4.56566E-10-1.60617E-09
 -1       569 7.60055E+04-1.36632E+05-5.85829E+02-1.67982E+05-3.34330E-09 1.36879E-09
 -1       570 4.29188E+04-1.03434E+05-1.22455E+03-1.29255E+05 4.19095E-09 6.03632E-09
 -1       571 1.41531E+05 5.11245E+03 7.57505E+03-3.57911E+04 1.43700E-09 2.34672E-09
 -1       572 1.42659E+05 1.77788E+03 3.71114E+03-3.92317E+04-1.57343E-10-6.51187E-09
 -1       573 1.41986E+05 4.23496E+02 1.64862E+03-3.56970E+04 9.06084E-09 8.65384E-10
 -1       574 1.42120E+05 1.37189E+02 8.25905E+02-3.93371E+04 1.62099E-08-2.27465E-09
 -1       575 1.42037E+05 1.82878E+01 3.89224E+02-3.56846E+04 8.11269E-09-2.95631E-09
 -1       576 1.42047E+05 4.50240E+00 1.98076E+02-3.93511E+04 6.79989E-10 3.79259E-10
 -1       577 1.42045E+05-3.35195E+00 9.75590E+01-3.56829E+04 2.72530E-09-1.98725E-10
 -1       578 1.42039E+05-1.74777E+00 5.31697E+01-3.93528E+04 3.20370E-10-1.01863E-09
 -1       579 1.42052E+05-3.96837E+00 3.25626E+01-3.56829E+04 4.97494E-10-8.17636E-10
 -1       580 1.42047E+05-4.76510E+00 3.04190E+01-3.93506E+04-7.27596E-11 2.09184E-10
 -1       581 1.42063E+05-7.51737E+00 4.14066E+01-3.56851E+04-2.70120E-10 1.65187E-09
 -1       582 1.42070E+05-7.99645E-01 7.88524E+01-3.93294E+04-2.91038E-11-9.42237E-10
 -1       583 1.42077E+05 1.96825E+01 1.51508E+02-3.57041E+04 5.02951E-10-3.16561E-09
 -1       584 1.42142E+05 1.38390E+02 3.39531E+02-3.91706E+04-1.10231E-09-4.49666E-09
 -1       585 1.42056E+05 4.38590E+02 6.89860E+02-3.58441E+04 5.10227E-10-2.43745E-09
 -1       586-1.76651E+03 4.61511E+04-2.34366E+03-1.21856E+05 3.84489E-10 3.82624E-09
 -1       587-3.85882E+02 4.58364E+04-2.87419E+02-1.34091E+05 6.53927E-10 5.30304E-09
 -1       588 4.78185E+02 4.58998E+04 1.60453E+03-1.21781E+05 3.75621E-10 2.50429E-09
 -1       589 2.40588E+03 4.67818E+04 4.70853E+03-1.33981E+05 5.52063E-10-3.39514E-09
 -1       590 6.91640E+03 4.53170E+04 1.00957E+04-1.21966E+05 3.12411E-10 2.37924E-09
 -1       591-2.94667E+04-8.68999E+03-1.01611E+04-1.55631E+04 1.28978E-10-4.00314E-09
 -1       592-3.03760E+04-1.12278E+04-5.50368E+03-1.82615E+04-1.47719E-09-3.10399E-09
 -1       593-3.04947E+04-7.94061E+03-2.29124E+03-1.62960E+04 1.12277E-09-1.26170E-09
 -1       594-2.89592E+04-9.75165E+03-1.14275E+03-1.83327E+04 1.32349E-09 4.66684E-09
 -1       595-3.05733E+04-7.93721E+03-5.25168E+02-1.63296E+04-2.31353E-11 1.09903E-08
 -1       596-2.88632E+04-9.68404E+03-2.67697E+02-1.83227E+04 7.52266E-10-4.96300E-10
 -1       597-3.05833E+04-7.94372E+03-1.47346E+02-1.63309E+04-5.12447E-10 5.87164E-10
 -1       598-2.88542E+04-9.68146E+03-1.21337E+02-1.83199E+04-2.15462E-09 7.66346E-09
 -1       599-3.05826E+04-7.94370E+03-1.58581E+02-1.63307E+04-5.67013E-10-1.25488E-09
 -1       600-2.88645E+04-9.68489E+03-2.97502E+02-1.83226E+04-3.87615E-10-1.88834E-09
 -1       601-3.05702E+04-7.93654E+03-5.88371E+02-1.63288E+04-5.62864E-10-8.09223E-10
 -1       602-2.89723E+04-9.76065E+03-1.28317E+03-1.83327E+04 1.50595E-09 3.94061E-09
 -1       603-3.04811E+04-7.94149E+03-2.57366E+03-1.62913E+04-1.07048E-09 4.53883E-09
 -1       604-3.05689E+04-1.14132E+04-6.18244E+03-1.82455E+04-3.78179E-10 3.31238E-09
 -1       605-2.93198E+04-8.78797E+03-1.14141E+04-1.54735E+04 1.82172E-09 2.68938E-09
 -1       606 2.02807E+04-6.80190E+03-1.22517E+04 1.98216E+04-2.75759E-09-4.89763E-09
 -1       607 1.81826E+04-2.19383E+03-6.10076E+03 2.22508E+04-1.38607E-09-1.32411E-09
 -1       608 1.93763E+04-3.69082E+02-2.73169E+03 1.96635E+04 1.20872E-09-2.14891E-09
 -1       609 1.91403E+04-9.67743E+01-1.37984E+03 2.24255E+04-1.67711E-09 1.79432E-09
 -1       610 1.92696E+04 1.69667E+01-6.58883E+02 1.96458E+04-3.11229E-09 7.30870E-09
 -1       611 1.92259E+04 2.44217E+01-3.32425E+02 2.24446E+04-5.27507E-09 5.76711E-09
 -1       612 1.92430E+04 2.61383E+01-1.58954E+02 1.96440E+04-2.29375E-09 1.34833E-10
 -1       613 1.92271E+04 2.88358E+01-7.25774E+01 2.24469E+04-5.25733E-09 3.92220E-10
 -1       614 1.92291E+04 2.53050E+01-2.03257E+01 1.96434E+04-7.12134E-10 3.83329E-09
 -1       615 1.92209E+04 3.14784E+01 2.22713E+01 2.24473E+04 4.41037E-09 7.42625E-09
 -1       616 1.92186E+04 2.83364E+01 7.43270E+01 1.96436E+04-2.57569E-09-1.55410E-09
 -1       617 1.92270E+04 4.92988E+01 1.72453E+02 2.24470E+04 3.63798E-10-2.67983E-09
 -1       618 1.92013E+04 7.95704E+01 3.48704E+02 1.96437E+04 8.25594E-10 1.82081E-09
 -1       619 1.93483E+04 3.20249E+02 7.83756E+02 2.24465E+04 1.46747E-09 1.63482E-09
 -1       620 1.90842E+04 9.08024E+02 1.57554E+03 1.96431E+04 2.00737E-09 1.94905E-09
 -1       621 2.40170E+02 1.53521E+05 2.08589E+03 5.34870E+03-2.42899E-10 7.88987E-11
 -1       622 2.75065E+02 1.54038E+05 1.77798E+03 7.81060E+03-2.30784E-10-3.24928E-09
 -1       623 1.15305E+01 1.53669E+05 2.05467E+03 5.32453E+03-2.50424E-10-2.82978E-09
 -1       624 9.32070E+02 1.54640E+05 3.91037E+03 7.83328E+03-1.78431E-10-9.74296E-10
 -1       625 9.35987E+02 1.52915E+05 6.80209E+03 5.32625E+03-6.43468E-11 1.73819E-09
 -1       626 1.26850E+05 3.52263E+04 2.51837E+03 6.86932E+04-9.24047E-10 3.24326E-09
 -1       627 1.25103E+05 3.65171E+04 1.21325E+03 7.14760E+04-2.04864E-09-1.35594E-09
 -1       628 1.26948E+05 3.40326E+04 5.12618E+02 6.90726E+04 1.03737E-08-6.65523E-10
 -1       629 1.24740E+05 3.62314E+04 2.51167E+02 7.16446E+04 2.33772E-08 2.49656E-10
 -1       630 1.26956E+05 3.39750E+04 1.16238E+02 6.90836E+04 9.29322E-09-1.77374E-09
 -1       631 1.24698E+05 3.62245E+04 6.24911E+01 7.16477E+04-2.17938E-09-6.70838E-09
 -1       632 1.26951E+05 3.39787E+04 4.13634E+01 6.90788E+04-5.22004E-09-9.80083E-09
 -1       633 1.24689E+05 3.62279E+04 4.62715E+01 7.16436E+04-2.12685E-09 2.80420E-09
 -1       634 1.26945E+05 3.39789E+04 7.50388E+01 6.90760E+04 4.23120E-09 3.67140E-09
 -1       635 1.24693E+05 3.62289E+04 1.52237E+02 7.16436E+04 5.94355E-09 6.53426E-09
 -1       636 1.26937E+05 3.39782E+04 3.07570E+02 6.90738E+04-5.77074E-10-6.11863E-10
 -1       637 1.24755E+05 3.62779E+04 6.76032E+02 7.16404E+04-2.33406E-10-5.84168E-09
 -1       638 1.26910E+05 3.41293E+04 1.38949E+03 6.90040E+04 3.25258E-10-6.42467E-09
 -1       639 1.25481E+05 3.72949E+04 3.28715E+03 7.14239E+04-2.32194E-09-7.40965E-09
 -1       640 1.26811E+05 3.71557E+04 6.82186E+03 6.77186E+04-5.87806E-09-9.73375E-09
 -1       656 3.44231E+04-8.71101E+05-8.31082E+04-4.80041E+02-6.87578E-10-4.73315E-09
 -1       657-4.54834E+04-9.08629E+05-6.87273E+04 5.69735E+03 5.84350E-10-2.22153E-09
 -1       658 1.09122E+04-8.81810E+05-4.21721E+04-1.11885E+03 5.12728E-10 8.59561E-10
 -1       659-4.87529E+04-9.10171E+05-7.30215E+04 6.11863E+03-8.22183E-10-5.54321E-09
 -1       660 3.76840E+04-8.69561E+05-9.04991E+04-9.01311E+02-2.40107E-10-1.41775E-09
 -1       661 1.24273E+05 1.35153E+04 1.19040E+04 4.85353E+04 2.44881E-10-3.17004E-09
 -1       662 1.30448E+05 2.28771E+04 8.02129E+03 4.64939E+04-2.39663E-09-5.81224E-09
 -1       663 1.26603E+05 1.73412E+04 2.80592E+03 4.78651E+04-2.61622E-09 6.46423E-10
 -1       664 1.27753E+05 1.83966E+04 1.67750E+03 4.73066E+04 1.67395E-09 3.24326E-09
 -1       665 1.26950E+05 1.78700E+04 6.61751E+02 4.77701E+04-3.58730E-09-9.96522E-10
 -1       666 1.27348E+05 1.77866E+04 3.85812E+02 4.74267E+04-4.63031E-09 2.75969E-10
 -1       667 1.27006E+05 1.79354E+04 2.03406E+02 4.77510E+04-2.17270E-09 2.45388E-09
 -1       668 1.27290E+05 1.77325E+04 2.03605E+02 4.74529E+04 1.80574E-09-3.32400E-09
 -1       669 1.27008E+05 1.79226E+04 2.72777E+02 4.77444E+04-2.56733E-10-9.65343E-11
 -1       670 1.27362E+05 1.78728E+04 5.91154E+02 4.74480E+04 4.89875E-09 3.55924E-09
 -1       671 1.26934E+05 1.77979E+04 1.04879E+03 4.77548E+04-1.02084E-09-1.94950E-09
 -1       672 1.27977E+05 1.88891E+04 2.68257E+03 4.72959E+04-3.70489E-09-8.27163E-09
 -1       673 1.26396E+05 1.69320E+04 4.49533E+03 4.78868E+04-4.21494E-10-2.23440E-09
 -1       674 1.32261E+05 2.61069E+04 1.28560E+04 4.60336E+04-1.26238E-09 7.35781E-10
 -1       675 1.22678E+05 1.07819E+04 1.90819E+04 4.89410E+04 2.96222E-09 1.21327E-09
 -1       676 1.40421E+01-1.67395E+05-6.52102E+02 2.48514E+01-1.73472E-09-1.79990E-09
 -1       677-1.73083E+02-1.67553E+05-1.19339E+03-4.96893E+01-4.01687E-09 3.25873E-10
 -1       678 1.15582E+02-1.67283E+05-2.10958E+03 2.48207E+01 1.23100E-09-4.10037E-09
 -1       679-2.10989E+03-1.68826E+05-5.01117E+03-4.95609E+01 6.52278E-10-6.81776E-09
 -1       680 1.25913E+03-1.66122E+05-8.07638E+03 2.44378E+01 9.62245E-10-4.02702E-09
 -1       771-1.79986E+06-3.13599E+05-4.39274E+04-7.45319E+05-7.37782E-09-5.28235E-09
 -1       772-1.78878E+06-3.37424E+05-2.35827E+04-7.71857E+05-4.62387E-09 2.78487E-09
 -1       773-1.80575E+06-3.09030E+05-1.01583E+04-7.47778E+05-2.63390E-09 2.63390E-09
 -1       774-1.78241E+06-3.32189E+05-4.95066E+03-7.74375E+05 5.74437E-09-1.45519E-09
 -1       775-1.80704E+06-3.08224E+05-2.49489E+03-7.47933E+05-5.65342E-09 1.91358E-09
 -1       776-1.78225E+06-3.32194E+05-1.15211E+03-7.75664E+05-1.26602E-08-5.59339E-10
 -1       777-1.80790E+06-3.07610E+05-7.10744E+02-7.48001E+05-5.44605E-09-1.09503E-09
 -1       778-1.78246E+06-3.32364E+05-3.16937E+02-7.76731E+05-4.60204E-10 2.67846E-09
 -1       779-1.80858E+06-3.07087E+05-3.09810E+02-7.48061E+05-1.66619E-09-1.68257E-09
 -1       780-1.78269E+06-3.32510E+05-2.41920E+02-7.77595E+05-3.09228E-09 2.93085E-10
 -1       781-1.80908E+06-3.06668E+05-4.31486E+02-7.48104E+05-5.64251E-09-9.11314E-10
 -1       782-1.78293E+06-3.32657E+05-7.84919E+02-7.78230E+05-7.99992E-09-2.07001E-09
 -1       783-1.80938E+06-3.06395E+05-1.57092E+03-7.48117E+05-8.45830E-10-3.13656E-09
 -1       784-1.78398E+06-3.33723E+05-3.72083E+03-7.78575E+05-3.69619E-09 5.17275E-11
 -1       785-1.80887E+06-3.06749E+05-6.88000E+03-7.47630E+05-8.75752E-09-2.87037E-09
 -1       786 1.36885E+05-7.25836E+03 1.67365E+04-3.60815E+00 5.74282E-08 1.99816E-09
 -1       787 1.44147E+05 8.40121E+03 1.18497E+04 1.45766E+01 1.12759E-07-7.26686E-10
 -1       788 1.39685E+05-1.14122E+03 4.33144E+03 1.33357E+00 9.40450E-08 1.45428E-09
 -1       789 1.40884E+05 1.32028E+03 2.72468E+03 7.63613E+00 7.56163E-08 2.29437E-09
 -1       790 1.40148E+05-1.78824E+02 1.10776E+03 3.33238E+00 6.86095E-08 3.34694E-10
 -1       791 1.40343E+05 2.07863E+02 6.51780E+02 4.43171E+00 6.11657E-08 3.74299E-09
 -1       792 1.40226E+05-2.90090E+01 2.98426E+02 4.53806E+00 7.92618E-08 6.31559E-09
 -1       793 1.40256E+05 4.13665E+01 1.98329E+02 1.56705E+00 9.80994E-08 3.44468E-09
 -1       794 1.40235E+05-1.23532E+01 1.50752E+02 6.19709E+00 1.71533E-07-3.54212E-09
 -1       795 1.40267E+05 6.50396E+01 2.23980E+02-3.91913E+00 2.45528E-07 5.67072E-09
 -1       796 1.40215E+05-5.26777E+01 3.38667E+02 1.00243E+01 4.49087E-07-1.06706E-09
 -1       797 1.40422E+05 3.85297E+02 8.02180E+02-1.77098E+01 6.53159E-07 4.86875E-09
 -1       798 1.40080E+05-3.32555E+02 1.26584E+03 1.99880E+01 1.05743E-06-6.13682E-10
 -1       799 1.41374E+05 2.44794E+03 3.45472E+03-5.43145E+01 1.46068E-06 5.09863E-09
 -1       800 1.39263E+05-2.11492E+03 4.87638E+03 4.66295E+01 7.28130E-07-9.45215E-09
 -1       801-8.07489E+03 5.77348E+03 1.06588E+04 1.40479E+04 7.72752E-09-2.44768E-09
 -1       802 2.02048E+04 7.09472E+04 3.90591E+04-5.77569E+04 2.06114E-08-6.78347E-09
 -1       803-1.15529E+04 3.05498E+04 4.91038E+04 1.31960E+04 1.62581E-08 1.18177E-08
 -1       804 9.54874E+04 1.12048E+05 1.37795E+05-5.85033E+04 1.93686E-08 1.77985E-08
 -1       805-8.33993E+04-3.51186E+04 1.76909E+05 1.47924E+04 6.85395E-09 1.69814E-08
 -1       806-1.53450E+05-3.30650E+04-1.30143E+04-6.41705E+04-4.49290E-10-2.30784E-09
 -1       807-1.54180E+05-3.12373E+04-6.39359E+03-6.76624E+04-1.80802E-09-1.49094E-08
 -1       808-1.53820E+05-2.83623E+04-2.71220E+03-6.63770E+04 5.17389E-10-2.68119E-09
 -1       809-1.52815E+05-2.94631E+04-1.32592E+03-6.78481E+04 5.80826E-10-9.16430E-10
 -1       810-1.53878E+05-2.81962E+04-6.07125E+02-6.64744E+04 1.07343E-09 2.31046E-09
 -1       811-1.52710E+05-2.93930E+04-3.01106E+02-6.78329E+04-1.03205E-09 7.05177E-09
 -1       812-1.53889E+05-2.82083E+04-1.50249E+02-6.64743E+04-8.70159E-10 8.04448E-10
 -1       813-1.52697E+05-2.93948E+04-9.48251E+01-6.78250E+04 1.92699E-09 3.05317E-09
 -1       814-1.53887E+05-2.82127E+04-8.89257E+01-6.64724E+04-1.59434E-09-4.67321E-09
 -1       815-1.52699E+05-2.93962E+04-1.39303E+02-6.78231E+04-1.46042E-09 1.01522E-09
 -1       816-1.53879E+05-2.82114E+04-2.60987E+02-6.64708E+04-2.64663E-10 2.88651E-09
 -1       817-1.52744E+05-2.94211E+04-5.59704E+02-6.78186E+04 6.09543E-09 1.23964E-08
 -1       818-1.53846E+05-2.82897E+04-1.14062E+03-6.64339E+04 2.81034E-09-1.87674E-09
 -1       819-1.53375E+05-3.01048E+04-2.68471E+03-6.76655E+04-1.87629E-09 3.80442E-09
 -1       820-1.53628E+05-3.03203E+04-5.46374E+03-6.55697E+04-2.67619E-09-8.74525E-09
 -1       821-2.01868E+05 1.11643E+04-2.58209E+04 2.94356E+01-4.77503E-10 3.37786E-09
 -1       822-2.13057E+05-1.29246E+04-1.82716E+04-3.23296E+02-2.04663E-09 4.58840E-10
 -1       823-2.06187E+05 1.75017E+03-6.68775E+03-9.33286E+00 8.95710E-10-2.25918E-09
 -1       824-2.08025E+05-2.02577E+03-4.20835E+03-2.16577E+02 2.83715E-10-1.40869E-09
 -1       825-2.06900E+05 2.73979E+02-1.72907E+03-7.72862E+01-2.45689E-09 2.74508E-09
 -1       826-2.07195E+05-3.23157E+02-1.04516E+03-7.32272E+01-4.68159E-09-4.80668E-10
 -1       827-2.07015E+05 4.87718E+01-5.39630E+02-1.52686E+02-3.57124E-09-9.20922E-09
 -1       828-2.07082E+05-9.86708E+01-4.78365E+02 6.16678E+01-4.64703E-09-3.37250E-09
 -1       829-2.07013E+05 4.96853E+01-5.47275E+02-2.12184E+02-3.40704E-10-4.89612E-09
 -1       830-2.07205E+05-3.30734E+02-1.06929E+03 1.46359E+02 2.12371E-09-2.94689E-09
 -1       831-2.06893E+05 2.80736E+02-1.77005E+03-2.37379E+02-1.84856E-09-1.66892E-10
 -1       832-2.08054E+05-2.07581E+03-4.31315E+03 1.55032E+02-1.24938E-09-6.19593E-09
 -1       833-2.06164E+05 1.79350E+03-6.85347E+03-2.20856E+02-5.93872E-10-1.26647E-09
 -1       834-2.13206E+05-1.32453E+04-1.87254E+04 8.67868E+01-1.29745E-09-4.21915E-09
 -1       835-2.01742E+05 1.14415E+04-2.64633E+04-1.69128E+02 4.51450E-09-7.76708E-10
 -1       836-6.63231E+02 1.88862E+05 1.13622E+04-1.72912E+04 1.47520E-09 1.90403E-09
 -1       837 2.50168E+03 1.92380E+05 9.69528E+03-3.47420E+04 2.03113E-09-1.86128E-09
 -1       838-2.43573E+02 1.89843E+05 9.99080E+03-1.72323E+04 1.78852E-09 5.31782E-09
 -1       839 6.41042E+03 1.95297E+05 1.90106E+04-3.47627E+04 2.36105E-09 9.26472E-09
 -1       840-1.92753E+03 1.85923E+05 3.03598E+04-1.72695E+04 1.64982E-09 4.45198E-10
 -1       856-6.28739E+04 5.34755E+03-1.40914E+04-3.08051E+02-2.18421E-09-2.60115E-09
 -1       857-6.86957E+04-6.27233E+03-9.70189E+03 3.21811E+03-1.87742E-09 4.09455E-09
 -1       858-6.51740E+04 7.49420E+02-3.65710E+03-3.19943E+02-3.20196E-09-2.13277E-09
 -1       859-6.60536E+04-8.72055E+02-2.20896E+03 3.23693E+03-7.26331E-10 1.67859E-10
 -1       860-6.55180E+04 1.04320E+02-9.28868E+02-3.26963E+02 8.65171E-10 9.87200E-10
 -1       861-6.56570E+04-1.16154E+02-5.17637E+02 3.24648E+03-4.81678E-09-2.27077E-09
 -1       862-6.55716E+04 1.39254E+01-2.28458E+02-3.29512E+02 4.85196E-09-7.60740E-09
 -1       863-6.55937E+04-9.63155E+00-1.13372E+02 3.24762E+03 8.07990E-09-5.62413E-09
 -1       864-6.55814E+04 1.12727E-01-3.63791E+01-3.28101E+02 4.26698E-09-3.25700E-09
 -1       865-6.55759E+04 1.44594E+01 1.90048E+01 3.24044E+03 3.46119E-09 5.37263E-10
 -1       866-6.55886E+04-1.03493E+01 7.33257E+01-3.22337E+02 1.18800E-09-2.99044E-09
 -1       867-6.55330E+04 8.72878E+01 2.02545E+02 3.22484E+03 1.69493E-10 6.94641E-10
 -1       868-6.56225E+04-7.20739E+01 3.42366E+02-3.12491E+02 3.95534E-09 4.78749E-10
 -1       869-6.52768E+04 5.98568E+02 9.19075E+02 3.19854E+03-5.59109E-09-1.03114E-10
 -1       870-6.58422E+04-5.08715E+02 1.33347E+03-2.96048E+02 7.14010E-10-2.15664E-10
 -1       871-2.90339E+03-6.02058E+03-9.44618E+03 6.18800E+04 2.90493E-09 6.13909E-10
 -1       872-1.26267E+03-8.13025E+03-3.84569E+03 8.02222E+04 3.65617E-09 4.63137E-09
 -1       873-2.83802E+01-7.13772E+03 5.64659E+02 6.17430E+04 1.58525E-09 3.05420E-09
 -1       874 1.45936E+03-5.75743E+03 5.39323E+03 8.02513E+04 2.92584E-09 2.31080E-09
 -1       875 3.46209E+03-8.42213E+03 1.19518E+04 6.18559E+04 1.02045E-09-1.44792E-09
 -1       876 1.55202E+05 2.67616E+04 8.32834E+03 6.29871E+04-3.49957E-09 2.69301E-09
 -1       877 1.55672E+05 2.85957E+04 4.44744E+03 6.54577E+04-4.93549E-09-2.38020E-09
 -1       878 1.55981E+05 2.58391E+04 1.86332E+03 6.36708E+04 3.31761E-09-5.60476E-10
 -1       879 1.54539E+05 2.74678E+04 9.28148E+02 6.55178E+04 3.93857E-09 1.14341E-08
 -1       880 1.56038E+05 2.58283E+04 4.32120E+02 6.36986E+04 1.31467E-09-7.75685E-10
 -1       881 1.54464E+05 2.74200E+04 2.30073E+02 6.55069E+04 2.83808E-09-4.31055E-09
 -1       882 1.56045E+05 2.58348E+04 1.46071E+02 6.36994E+04 3.32409E-09-2.84609E-09
 -1       883 1.54458E+05 2.74179E+04 1.55194E+02 6.55039E+04 3.50803E-09 9.43514E-09
 -1       884 1.56042E+05 2.58329E+04 2.45240E+02 6.36995E+04 1.54984E-09-5.53143E-10
 -1       885 1.54478E+05 2.74214E+04 4.92051E+02 6.55102E+04 2.38823E-09 2.32268E-09
 -1       886 1.56023E+05 2.58186E+04 9.91258E+02 6.36976E+04 2.79002E-09 1.75646E-10
 -1       887 1.54652E+05 2.75355E+04 2.16515E+03 6.55351E+04-3.61619E-09-3.73393E-09
 -1       888 1.55886E+05 2.58429E+04 4.36286E+03 6.36283E+04-2.46027E-09 1.06161E-09
 -1       889 1.57252E+05 3.02345E+04 1.04228E+04 6.54519E+04 3.05749E-09 5.69344E-10
 -1       890 1.54107E+05 2.79549E+04 1.95208E+04 6.19647E+04 1.87060E-09 2.32831E-10
 -1       891-9.57042E+01-8.83146E+04-1.03904E+03 1.68433E+04-1.16302E-10 4.26348E-09
 -1       892-1.66510E+02-8.85647E+04-1.13196E+03 2.54901E+04-1.79136E-09-4.42549E-09
 -1       893-2.54272E+01-8.83486E+04-1.61888E+03 1.68464E+04 2.12117E-09 6.98083E-09
 -1       894-8.81994E+02-8.91907E+04-3.36288E+03 2.54000E+04-2.64663E-10 1.26606E-08
 -1       895-6.87380E+02-8.76525E+04-5.92569E+03 1.69324E+04-8.55266E-10-3.85171E-10
 -1       956-1.94878E+05-2.81939E+03-7.10013E+03 1.28661E+04-2.74622E-09-3.46313E-09
 -1       957-1.96280E+05-9.51124E+02-3.64508E+03 1.54890E+04-5.88443E-10-5.76119E-09
 -1       958-1.95506E+05-7.56549E+01-1.64207E+03 1.27821E+04 2.54340E-09-2.23679E-09
 -1       959-1.95617E+05-1.39006E+01-8.38801E+02 1.55798E+04-1.14960E-09 1.76613E-09
 -1       960-1.95560E+05 2.27077E+01-4.08767E+02 1.27743E+04-3.37104E-09-4.87739E-09
 -1       961-1.95567E+05 2.04731E+01-2.16733E+02 1.55886E+04-5.49471E-09 7.02073E-09
 -1       962-1.95571E+05 1.91036E+01-1.23654E+02 1.27733E+04-2.12685E-09 1.01602E-09
 -1       963-1.95564E+05 2.08111E+01-9.85915E+01 1.55900E+04-3.73325E-09-4.78053E-10
 -1       964-1.95573E+05 2.01579E+01-1.18785E+02 1.27729E+04-1.66563E-09-1.30785E-09
 -1       965-1.95571E+05 2.28452E+01-2.04504E+02 1.55900E+04 3.02436E-09-8.05016E-10
 -1       966-1.95567E+05 2.57922E+01-3.83391E+02 1.27732E+04-1.88118E-09-1.86913E-09
 -1       967-1.95622E+05-6.99373E+00-7.86087E+02 1.55853E+04-1.60156E-09-8.35939E-10
 -1       968-1.95519E+05-6.41345E+01-1.53811E+03 1.27776E+04-5.66615E-10-2.92053E-09
 -1       969-1.96247E+05-8.83015E+02-3.41502E+03 1.55328E+04-1.30285E-10-2.72770E-09
 -1       970-1.94934E+05-2.63330E+03-6.65150E+03 1.28274E+04 3.09910E-10 2.58751E-09
 -1       971-1.85328E+05-9.80809E+02-5.46033E+03 9.11300E+03 6.71207E-10 6.43809E-10
 -1       972-1.86656E+05-7.04018E+02-2.97395E+03 1.27224E+04 4.59613E-09-1.78079E-09
 -1       973-1.85933E+05-6.28327E+00-1.33136E+03 9.03799E+03 3.31602E-09 7.91601E-10
 -1       974-1.86025E+05-7.68207E+00-6.89810E+02 1.28029E+04 9.94987E-10 1.47952E-09
 -1       975-1.85978E+05 1.79763E+01-3.43800E+02 9.03176E+03 1.03864E-09 1.13869E-09
 -1       976-1.85985E+05 1.97454E+01-1.96872E+02 1.28102E+04-1.25874E-09-8.99377E-10
 -1       977-1.85986E+05 1.69624E+01-1.40030E+02 9.03060E+03 2.64185E-09 7.24185E-10
 -1       978-1.85986E+05 2.22389E+01-1.60094E+02 1.28118E+04 8.74206E-09-1.01022E-09
 -1       979-1.85986E+05 2.08717E+01-2.53873E+02 9.03014E+03 5.77091E-09 4.56629E-09
 -1       980-1.86004E+05 2.36205E+01-4.88100E+02 1.28120E+04 6.50152E-09 1.99947E-09
 -1       981-1.85970E+05 3.30748E+01-9.44155E+02 9.03040E+03 8.13429E-10 4.15992E-09
 -1       982-1.86134E+05-4.57471E+01-1.95088E+03 1.28085E+04-3.61058E-09-1.92699E-10
 -1       983-1.85852E+05-2.67673E+01-3.79008E+03 9.03380E+03-2.39106E-09 9.14952E-10
 -1       984-1.87958E+05-2.02408E+03-8.48716E+03 1.27577E+04-1.66995E-09 3.09353E-09
 -1       985-1.84137E+05-2.79948E+03-1.55851E+04 9.08430E+03 5.69730E-09 8.07631E-10
 -3
    1PSTEP                         7           4           1          
  100CL  104 4.68750E-01         409                     0    4           1
 -4  DISP        4    1
 -5  D1          1    2    1    0
 -5  D2          1    2    2    0
 -5  D3          1    2    3    0
 -5  ALL         1    2    0    0    1ALL
 -1         1 1.27096E-04 0.00000E+00 0.00000E+00
 -1         2 1.16519E-04 2.92067E-30-1.65436E-24
 -1         3 1.10137E-04-1.47674E-27 6.61744E-24
 -1         5 7.80037E-05 3.96328E-27 3.30872E-24
 -1         8 1.02690E-04-8.86053E-07 0.00000E+00
 -1         9 1.03383E-04 4.52909E-07 0.00000E+00
 -1        10 1.01913E-04-1.50275E-06 3.30872E-24
 -1        12 7.75169E-05 5.12250E-07-1.65436E-24
 -1        15 7.36248E-05-9.77557E-07 4.13590E-25
 -1        16 7.62668E-05 2.98161E-07 0.00000E+00
 -1        17 7.56359E-05-3.17351E-06 0.00000E+00
 -1        18 7.50640E-05 7.90316E-07 0.00000E+00
 -1        19 7.60566E-05 1.02167E-06 0.00000E+00
 -1        20 7.61887E-05 1.46157E-05 0.00000E+00
 -1        21 7.56887E-05 2.75474E-05-1.65436E-24
 -1        24 1.86447E-05-4.32076E-06 0.00000E+00
 -1        25 7.35608E-05 9.08651E-07 0.00000E+00
 -1        26 7.45268E-05 1.42166E-06 0.00000E+00
 -1        27 7.30901E-05 1.23401E-05 0.00000E+00
 -1        28 7.26347E-05 2.71106E-05 0.00000E+00
 -1        32 0.00000E+00 0.00000E+00 0.00000E+00
 -1        33 7.17393E-05 1.90600E-06 0.00000E+00
 -1        34 7.03713E-05 1.23195E-05 0.00000E+00
 -1        35 6.90710E-05 2.68799E-05 0.00000E+00
 -1        51 1.25510E-04-1.45655E-07 0.00000E+00
 -1        52 1.22569E-04-2.87395E-07 0.00000E+00
 -1        53 1.18539E-04-4.30624E-07 0.00000E+00
 -1        54 1.13697E-04-5.76778E-07 0.00000E+00
 -1        55 1.08321E-04-7.26582E-07 2.17135E-24
 -1        56 1.25953E-04-7.43480E-07 0.00000E+00
 -1        57 1.24955E-04-2.00578E-06 1.32349E-23
 -1        58 1.24100E-04-3.64113E-06 2.64698E-23
 -1        59 1.23324E-04-5.51278E-06 2.64698E-23
 -1        60 1.22578E-04-7.46328E-06 0.00000E+00
 -1        61 1.21800E-04-9.33589E-06 0.00000E+00
 -1        62 1.20937E-04-1.09781E-05 0.00000E+00
 -1        63 1.19933E-04-1.22447E-05 0.00000E+00
 -1        64 1.18742E-04-1.30136E-05-5.29396E-23
 -1        65 1.17325E-04-1.31777E-05 0.00000E+00
 -1        66 1.15655E-04-1.26672E-05 0.00000E+00
 -1        67 1.13713E-04-1.14322E-05 2.64698E-23
 -1        68 1.11497E-04-9.46828E-06 0.00000E+00
 -1        69 1.09017E-04-6.78997E-06-1.32349E-23
 -1        70 1.06289E-04-3.46123E-06 0.00000E+00
 -1        86 1.16177E-04 8.33941E-08 0.00000E+00
 -1        87 1.15149E-04 1.65797E-07 8.27181E-25
 -1        88 1.13403E-04 2.47161E-07 8.27181E-25
 -1        89 1.10905E-04 3.23606E-07 0.00000E+00
 -1        90 1.07589E-04 3.98898E-07 3.30872E-24
 -1       121 1.09908E-04-2.49189E-07 0.00000E+00
 -1       122 1.09219E-04-4.98585E-07 0.00000E+00
 -1       123 1.08073E-04-7.48394E-07 0.00000E+00
 -1       124 1.06472E-04-9.98859E-07 3.30872E-24
 -1       125 1.04417E-04-1.25011E-06 0.00000E+00
 -1       191 7.79902E-05 8.53823E-08-3.30872E-24
 -1       192 7.79496E-05 1.70763E-07 1.65436E-24
 -1       193 7.78820E-05 2.56142E-07 0.00000E+00
 -1       194 7.77873E-05 3.41518E-07 0.00000E+00
 -1       195 7.76656E-05 4.26888E-07 0.00000E+00
 -1       251 1.02712E-04 3.14224E-06 0.00000E+00
 -1       252 1.02756E-04 5.56395E-06 0.00000E+00
 -1       253 1.02800E-04 6.63846E-06 0.00000E+00
 -1       254 1.02848E-04 6.62211E-06-4.13590E-25
 -1       255 1.02896E-04 5.74365E-06 0.00000E+00
 -1       256 1.02943E-04 4.23006E-06 0.00000E+00
 -1       257 1.02990E-04 2.29200E-06 0.00000E+00
 -1       258 1.03037E-04 1.39315E-07 0.00000E+00
 -1       259 1.03084E-04-2.02377E-06 1.65436E-24
 -1       260 1.03131E-04-3.99297E-06 0.00000E+00
 -1       261 1.03178E-04-5.55902E-06 8.27181E-25
 -1       262 1.03226E-04-6.51188E-06 0.00000E+00
 -1       263 1.03274E-04-6.62574E-06 0.00000E+00
 -1       264 1.03318E-04-5.67306E-06 0.00000E+00
 -1       265 1.03361E-04-3.39932E-06 0.00000E+00
 -1       266 9.78455E-05-9.13253E-07 0.00000E+00
 -1       267 9.30014E-05-9.27047E-07-1.65436E-24
 -1       268 8.81572E-05-9.41690E-07 0.00000E+00
 -1       269 8.33131E-05-9.53818E-07 0.00000E+00
 -1       270 7.84690E-05-9.65888E-07 0.00000E+00
 -1       271 9.97411E-05 2.76630E-06-2.64698E-23
 -1       272 9.72187E-05 5.15482E-06-1.32349E-23
 -1       273 9.51228E-05 6.41908E-06 0.00000E+00
 -1       274 9.33896E-05 6.69833E-06 0.00000E+00
 -1       275 9.19642E-05 6.15614E-06 0.00000E+00
 -1       276 9.07792E-05 4.96822E-06 2.64698E-23
 -1       277 8.97650E-05 3.32323E-06 0.00000E+00
 -1       278 8.88480E-05 1.41778E-06-2.64698E-23
 -1       279 8.79528E-05-5.46538E-07 0.00000E+00
 -1       280 8.70041E-05-2.36700E-06 2.64698E-23
 -1       281 8.59271E-05-3.84379E-06 0.00000E+00
 -1       282 8.46497E-05-4.78311E-06-2.64698E-23
 -1       283 8.31026E-05-5.00174E-06 0.00000E+00
 -1       284 8.12254E-05-4.32771E-06 0.00000E+00
 -1       285 7.89534E-05-2.60974E-06 2.64698E-23
 -1       301 9.86850E-05 4.20120E-07 0.00000E+00
 -1       302 9.40084E-05 4.02507E-07 1.65436E-24
 -1       303 8.93909E-05 3.85584E-07 0.00000E+00
 -1       304 8.48699E-05 3.67445E-07 0.00000E+00
 -1       305 8.04830E-05 3.47473E-07-1.32349E-23
 -1       306 1.00340E-04 3.85346E-06 0.00000E+00
 -1       307 9.77736E-05 5.83770E-06 0.00000E+00
 -1       308 9.57667E-05 6.34899E-06 0.00000E+00
 -1       309 9.43067E-05 5.37608E-06 0.00000E+00
 -1       310 9.33203E-05 3.13605E-06-5.29396E-23
 -1       311 9.27022E-05-9.73655E-08 0.00000E+00
 -1       312 9.22961E-05-3.90090E-06 0.00000E+00
 -1       313 9.19343E-05-7.82476E-06 0.00000E+00
 -1       314 9.14432E-05-1.14006E-05 5.29396E-23
 -1       315 9.06548E-05-1.41765E-05-2.64698E-23
 -1       316 8.94443E-05-1.58215E-05-5.29396E-23
 -1       317 8.77080E-05-1.60573E-05-2.64698E-23
 -1       318 8.54167E-05-1.48171E-05-5.29396E-23
 -1       319 8.25790E-05-1.21000E-05-2.64698E-23
 -1       320 7.92631E-05-8.13280E-06 2.64698E-23
 -1       336 9.89040E-05-1.77641E-06 6.61744E-24
 -1       337 9.53360E-05-2.05221E-06 3.30872E-24
 -1       338 9.12158E-05-2.32996E-06 6.61744E-24
 -1       339 8.65523E-05-2.60959E-06 3.30872E-24
 -1       340 8.13552E-05-2.89179E-06 0.00000E+00
 -1       406 7.73411E-05 5.97598E-07 0.00000E+00
 -1       407 7.71382E-05 6.82913E-07 0.00000E+00
 -1       408 7.69082E-05 7.68170E-07 0.00000E+00
 -1       409 7.66513E-05 8.53263E-07-1.65436E-24
 -1       410 7.63673E-05 9.38026E-07 0.00000E+00
 -1       521 7.44530E-05-3.55830E-06 0.00000E+00
 -1       522 7.74199E-05-2.08105E-05 2.64698E-23
 -1       523 8.40930E-05-4.85521E-05-1.05879E-22
 -1       524 9.30588E-05-8.30367E-05-5.29396E-23
 -1       525 1.02548E-04-1.19065E-04 1.05879E-22
 -1       526 1.10750E-04-1.51311E-04 0.00000E+00
 -1       527 1.16075E-04-1.75264E-04-1.05879E-22
 -1       528 1.17078E-04-1.87109E-04-5.29396E-23
 -1       529 1.13132E-04-1.85606E-04 1.05879E-22
 -1       530 1.03984E-04-1.70600E-04 0.00000E+00
 -1       531 9.05203E-05-1.44750E-04-1.05879E-22
 -1       532 7.40558E-05-1.11556E-04 0.00000E+00
 -1       533 5.66266E-05-7.60265E-05 1.05879E-22
 -1       534 4.03929E-05-4.33380E-05 0.00000E+00
 -1       535 2.71895E-05-1.81055E-05 0.00000E+00
 -1       536 7.55813E-05 2.30741E-06 0.00000E+00
 -1       537 7.55379E-05 6.79945E-06 0.00000E+00
 -1       538 7.54979E-05 1.02761E-05 1.65436E-24
 -1       539 7.54622E-05 1.27124E-05-8.27181E-25
 -1       540 7.54283E-05 1.41564E-05-8.27181E-25
 -1       541 7.53956E-05 1.46574E-05-4.13590E-25
 -1       542 7.53630E-05 1.43309E-05 0.00000E+00
 -1       543 7.53300E-05 1.32935E-05 0.00000E+00
 -1       544 7.52963E-05 1.17116E-05 0.00000E+00
 -1       545 7.52620E-05 9.75228E-06 0.00000E+00
 -1       546 7.52274E-05 7.60910E-06 0.00000E+00
 -1       547 7.51929E-05 5.47586E-06 0.00000E+00
 -1       548 7.51588E-05 3.54565E-06 8.27181E-25
 -1       549 7.51259E-05 2.01130E-06 0.00000E+00
 -1       550 7.50934E-05 1.03806E-06 0.00000E+00
 -1       551 6.81190E-05-3.34448E-06 6.61744E-24
 -1       552 5.91298E-05-3.52399E-06-1.65436E-24
 -1       553 4.91744E-05-3.71202E-06 4.96308E-24
 -1       554 3.87665E-05-3.90666E-06 3.30872E-24
 -1       555 2.84199E-05-4.10341E-06-1.32349E-23
 -1       556 7.36492E-05 1.97077E-06-1.32349E-23
 -1       557 7.21260E-05 5.91860E-06 0.00000E+00
 -1       558 7.10159E-05 8.77927E-06 0.00000E+00
 -1       559 7.02729E-05 1.06708E-05 0.00000E+00
 -1       560 6.98510E-05 1.17110E-05 0.00000E+00
 -1       561 6.97049E-05 1.20183E-05 0.00000E+00
 -1       562 6.97894E-05 1.17113E-05 0.00000E+00
 -1       563 7.00596E-05 1.09087E-05 0.00000E+00
 -1       564 7.04709E-05 9.72935E-06 0.00000E+00
 -1       565 7.09785E-05 8.29206E-06 0.00000E+00
 -1       566 7.15381E-05 6.71578E-06 8.27181E-25
 -1       567 7.21052E-05 5.11948E-06 2.06795E-25
 -1       568 7.26354E-05 3.62207E-06 0.00000E+00
 -1       569 7.30842E-05 2.34235E-06 0.00000E+00
 -1       570 7.34072E-05 1.39914E-06 0.00000E+00
 -1       571 7.51242E-05 8.44637E-07 8.27181E-25
 -1       572 7.51858E-05 8.57375E-07-8.27181E-25
 -1       573 7.52477E-05 8.35934E-07 8.27181E-25
 -1       574 7.53099E-05 7.88111E-07-4.13590E-25
 -1       575 7.53721E-05 7.21737E-07-1.65436E-24
 -1       576 7.54343E-05 6.44694E-07 0.00000E+00
 -1       577 7.54966E-05 5.64867E-07 1.65436E-24
 -1       578 7.55589E-05 4.90153E-07 0.00000E+00
 -1       579 7.56211E-05 4.28443E-07 0.00000E+00
 -1       580 7.56834E-05 3.87633E-07 0.00000E+00
 -1       581 7.57456E-05 3.75617E-07 0.00000E+00
 -1       582 7.58079E-05 4.00279E-07 0.00000E+00
 -1       583 7.58701E-05 4.69496E-07 0.00000E+00
 -1       584 7.59324E-05 5.91066E-07 1.65436E-24
 -1       585 7.59945E-05 7.72741E-07 0.00000E+00
 -1       586 7.47917E-05 8.11266E-07-8.27181E-25
 -1       587 7.44927E-05 8.31695E-07-2.06795E-25
 -1       588 7.41935E-05 8.51899E-07 0.00000E+00
 -1       589 7.39208E-05 8.71782E-07 0.00000E+00
 -1       590 7.37013E-05 8.91121E-07 0.00000E+00
 -1       591 7.50151E-05 8.77173E-07-5.16988E-26
 -1       592 7.49766E-05 9.29852E-07 0.00000E+00
 -1       593 7.49483E-05 9.54807E-07 0.00000E+00
 -1       594 7.49279E-05 9.57861E-07-2.06795E-25
 -1       595 7.49135E-05 9.44918E-07 4.13590E-25
 -1       596 7.49029E-05 9.21833E-07 0.00000E+00
 -1       597 7.48938E-05 8.94463E-07 4.13590E-25
 -1       598 7.48841E-05 8.68660E-07-2.06795E-25
 -1       599 7.48717E-05 8.50273E-07 4.13590E-25
 -1       600 7.48543E-05 8.45153E-07-2.06795E-25
 -1       601 7.48298E-05 8.59150E-07 4.13590E-25
 -1       602 7.47959E-05 8.98120E-07 2.06795E-25
 -1       603 7.47505E-05 9.67918E-07-1.03398E-25
 -1       604 7.46917E-05 1.07445E-06 0.00000E+00
 -1       605 7.46171E-05 1.22353E-06 0.00000E+00
 -1       606 7.60681E-05 1.41272E-06 0.00000E+00
 -1       607 7.60773E-05 1.89184E-06 0.00000E+00
 -1       608 7.60859E-05 2.45386E-06 0.00000E+00
 -1       609 7.60943E-05 3.09295E-06 0.00000E+00
 -1       610 7.61025E-05 3.80325E-06 0.00000E+00
 -1       611 7.61106E-05 4.57883E-06 0.00000E+00
 -1       612 7.61186E-05 5.41372E-06 0.00000E+00
 -1       613 7.61266E-05 6.30201E-06 0.00000E+00
 -1       614 7.61346E-05 7.23772E-06 0.00000E+00
 -1       615 7.61425E-05 8.21490E-06 0.00000E+00
 -1       616 7.61503E-05 9.22761E-06-1.65436E-24
 -1       617 7.61582E-05 1.02699E-05 0.00000E+00
 -1       618 7.61659E-05 1.13358E-05 0.00000E+00
 -1       619 7.61737E-05 1.24194E-05 8.27181E-25
 -1       620 7.61813E-05 1.35147E-05 0.00000E+00
 -1       621 7.57547E-05 1.08839E-06 1.65436E-24
 -1       622 7.54794E-05 1.15542E-06 0.00000E+00
 -1       623 7.52250E-05 1.22244E-06 0.00000E+00
 -1       624 7.49854E-05 1.28936E-06 0.00000E+00
 -1       625 7.47546E-05 1.35617E-06 1.65436E-24
 -1       626 7.59816E-05 1.43380E-06 0.00000E+00
 -1       627 7.58798E-05 1.91875E-06 3.30872E-24
 -1       628 7.57533E-05 2.46975E-06 0.00000E+00
 -1       629 7.56048E-05 3.07958E-06 0.00000E+00
 -1       630 7.54369E-05 3.74101E-06 3.30872E-24
 -1       631 7.52524E-05 4.44676E-06 0.00000E+00
 -1       632 7.50539E-05 5.18954E-06 0.00000E+00
 -1       633 7.48443E-05 5.96209E-06 1.65436E-24
 -1       634 7.46263E-05 6.75712E-06 0.00000E+00
 -1       635 7.44025E-05 7.56734E-06-1.65436E-24
 -1       636 7.41757E-05 8.38549E-06-1.65436E-24
 -1       637 7.39487E-05 9.20427E-06 8.27181E-25
 -1       638 7.37241E-05 1.00164E-05 1.65436E-24
 -1       639 7.35046E-05 1.08146E-05 8.27181E-25
 -1       640 7.32927E-05 1.15916E-05 8.27181E-25
 -1       656 7.52781E-05 1.42454E-05 0.00000E+00
 -1       657 7.46984E-05 1.38604E-05 0.00000E+00
 -1       658 7.43242E-05 1.34765E-05 6.61744E-24
 -1       659 7.40267E-05 1.30930E-05-3.30872E-24
 -1       660 7.36628E-05 1.27083E-05 6.61744E-24
 -1       661 7.58523E-05 1.56937E-05 0.00000E+00
 -1       662 7.55369E-05 1.67238E-05 8.27181E-25
 -1       663 7.52388E-05 1.77072E-05 0.00000E+00
 -1       664 7.49578E-05 1.86464E-05 8.27181E-25
 -1       665 7.46928E-05 1.95431E-05 1.65436E-24
 -1       666 7.44431E-05 2.03995E-05-8.27181E-25
 -1       667 7.42079E-05 2.12174E-05 0.00000E+00
 -1       668 7.39865E-05 2.19985E-05 8.27181E-25
 -1       669 7.37782E-05 2.27445E-05 1.65436E-24
 -1       670 7.35825E-05 2.34572E-05-8.27181E-25
 -1       671 7.33988E-05 2.41379E-05 0.00000E+00
 -1       672 7.32263E-05 2.47882E-05-8.27181E-25
 -1       673 7.30648E-05 2.54095E-05 0.00000E+00
 -1       674 7.29129E-05 2.60030E-05 8.27181E-25
 -1       675 7.27711E-05 2.65701E-05 4.13590E-25
 -1       676 7.51785E-05 2.74741E-05 1.65436E-24
 -1       677 7.46684E-05 2.74009E-05 8.27181E-25
 -1       678 7.41588E-05 2.73278E-05-1.65436E-24
 -1       679 7.36498E-05 2.72548E-05 0.00000E+00
 -1       680 7.31417E-05 2.71819E-05 0.00000E+00
 -1       771 1.47366E-05 3.21989E-06-5.29396E-23
 -1       772 1.13407E-05 9.39669E-06 1.32349E-23
 -1       773 8.43572E-06 1.42847E-05-2.64698E-23
 -1       774 5.98912E-06 1.79644E-05 0.00000E+00
 -1       775 3.96892E-06 2.05179E-05 0.00000E+00
 -1       776 2.34170E-06 2.20307E-05 0.00000E+00
 -1       777 1.07361E-06 2.25899E-05 2.64698E-23
 -1       778 1.30051E-07 2.22850E-05-1.32349E-23
 -1       779-5.23832E-07 2.12073E-05 0.00000E+00
 -1       780-9.23539E-07 1.94499E-05 0.00000E+00
 -1       781-1.10470E-06 1.71070E-05 2.64698E-23
 -1       782-1.10343E-06 1.42748E-05-1.32349E-23
 -1       783-9.55914E-07 1.10498E-05 0.00000E+00
 -1       784-6.98622E-07 7.53002E-06 0.00000E+00
 -1       785-3.68130E-07 3.81366E-06-2.64698E-23
 -1       786 7.36177E-05 8.76144E-07 0.00000E+00
 -1       787 7.36779E-05 8.60907E-07 0.00000E+00
 -1       788 7.37380E-05 8.57212E-07 1.65436E-24
 -1       789 7.37986E-05 8.59364E-07 8.27181E-25
 -1       790 7.38593E-05 8.65542E-07 0.00000E+00
 -1       791 7.39201E-05 8.73937E-07 8.27181E-25
 -1       792 7.39809E-05 8.84216E-07 1.65436E-24
 -1       793 7.40417E-05 8.96050E-07-8.27181E-25
 -1       794 7.41026E-05 9.10144E-07-1.65436E-24
 -1       795 7.41634E-05 9.27211E-07 0.00000E+00
 -1       796 7.42242E-05 9.49941E-07 1.65436E-24
 -1       797 7.42850E-05 9.81041E-07 0.00000E+00
 -1       798 7.43458E-05 1.02879E-06 0.00000E+00
 -1       799 7.44065E-05 1.10150E-06 8.27181E-25
 -1       800 7.44671E-05 1.22411E-06 0.00000E+00
 -1       801 6.85892E-05 8.47520E-07 1.65436E-24
 -1       802 5.37097E-05 6.89913E-07 1.65436E-24
 -1       803 3.41808E-05 4.59563E-07-3.30872E-24
 -1       804 1.52714E-05 2.33923E-07 3.30872E-24
 -1       805 2.15539E-06 9.42613E-08 1.32349E-23
 -1       806 7.35038E-05 8.28692E-07 1.65436E-24
 -1       807 7.34437E-05 7.49147E-07-8.27181E-25
 -1       808 7.33812E-05 6.74594E-07 1.65436E-24
 -1       809 7.33150E-05 6.08918E-07-8.27181E-25
 -1       810 7.32440E-05 5.56003E-07-3.30872E-24
 -1       811 7.31667E-05 5.19670E-07-8.27181E-25
 -1       812 7.30817E-05 5.03739E-07 0.00000E+00
 -1       813 7.29876E-05 5.12019E-07-1.65436E-24
 -1       814 7.28830E-05 5.48319E-07 0.00000E+00
 -1       815 7.27665E-05 6.16442E-07 1.65436E-24
 -1       816 7.26366E-05 7.20190E-07 0.00000E+00
 -1       817 7.24920E-05 8.63362E-07 0.00000E+00
 -1       818 7.23312E-05 1.04976E-06-1.65436E-24
 -1       819 7.21528E-05 1.28315E-06 0.00000E+00
 -1       820 7.19557E-05 1.56734E-06 8.27181E-25
 -1       821 7.44422E-05 1.64840E-06 8.27181E-25
 -1       822 7.43525E-05 1.85939E-06 0.00000E+00
 -1       823 7.42631E-05 2.09583E-06-1.65436E-24
 -1       824 7.41726E-05 2.39882E-06 0.00000E+00
 -1       825 7.40822E-05 2.79697E-06 3.30872E-24
 -1       826 7.39914E-05 3.31851E-06 0.00000E+00
 -1       827 7.39006E-05 3.96851E-06 3.30872E-24
 -1       828 7.38097E-05 4.75154E-06-1.65436E-24
 -1       829 7.37186E-05 5.64718E-06 0.00000E+00
 -1       830 7.36275E-05 6.63458E-06-1.65436E-24
 -1       831 7.35364E-05 7.67568E-06 0.00000E+00
 -1       832 7.34455E-05 8.73218E-06-1.65436E-24
 -1       833 7.33546E-05 9.76290E-06-1.65436E-24
 -1       834 7.32648E-05 1.07268E-05-8.27181E-25
 -1       835 7.31747E-05 1.15952E-05 0.00000E+00
 -1       836 7.42009E-05 1.50230E-06 1.65436E-24
 -1       837 7.37655E-05 1.58471E-06 0.00000E+00
 -1       838 7.32610E-05 1.66697E-06 1.65436E-24
 -1       839 7.27281E-05 1.74870E-06-8.27181E-25
 -1       840 7.22074E-05 1.83030E-06-2.06795E-25
 -1       856 7.30648E-05 1.30750E-05 2.06795E-25
 -1       857 7.30367E-05 1.39072E-05 0.00000E+00
 -1       858 7.30087E-05 1.48213E-05 0.00000E+00
 -1       859 7.29801E-05 1.58020E-05 0.00000E+00
 -1       860 7.29514E-05 1.68338E-05-8.27181E-25
 -1       861 7.29226E-05 1.79012E-05-4.13590E-25
 -1       862 7.28937E-05 1.89885E-05 0.00000E+00
 -1       863 7.28648E-05 2.00804E-05 4.13590E-25
 -1       864 7.28360E-05 2.11610E-05-8.27181E-25
 -1       865 7.28071E-05 2.22149E-05 0.00000E+00
 -1       866 7.27783E-05 2.32266E-05 8.27181E-25
 -1       867 7.27495E-05 2.41804E-05 0.00000E+00
 -1       868 7.27208E-05 2.50611E-05 0.00000E+00
 -1       869 7.26921E-05 2.58532E-05 0.00000E+00
 -1       870 7.26635E-05 2.65414E-05 8.27181E-25
 -1       871 7.25382E-05 1.23392E-05-4.13590E-25
 -1       872 7.20797E-05 1.23365E-05 0.00000E+00
 -1       873 7.16744E-05 1.23334E-05-4.13590E-25
 -1       874 7.12817E-05 1.23299E-05-1.03398E-25
 -1       875 7.08608E-05 1.23259E-05 2.06795E-25
 -1       876 7.28994E-05 1.30831E-05 0.00000E+00
 -1       877 7.26930E-05 1.38735E-05 0.00000E+00
 -1       878 7.24710E-05 1.47055E-05 0.00000E+00
 -1       879 7.22357E-05 1.55738E-05 1.65436E-24
 -1       880 7.19887E-05 1.64730E-05 3.30872E-24
 -1       881 7.17322E-05 1.73978E-05-1.65436E-24
 -1       882 7.14681E-05 1.83429E-05 0.00000E+00
 -1       883 7.11984E-05 1.93029E-05 0.00000E+00
 -1       884 7.09250E-05 2.02725E-05 3.30872E-24
 -1       885 7.06500E-05 2.12464E-05-1.65436E-24
 -1       886 7.03754E-05 2.22193E-05 0.00000E+00
 -1       887 7.01031E-05 2.31858E-05 8.27181E-25
 -1       888 6.98350E-05 2.41406E-05-1.65436E-24
 -1       889 6.95729E-05 2.50784E-05 0.00000E+00
 -1       890 6.93188E-05 2.59936E-05 0.00000E+00
 -1       891 7.21466E-05 2.70720E-05 8.27181E-25
 -1       892 7.16419E-05 2.70333E-05 0.00000E+00
 -1       893 7.11011E-05 2.69946E-05 0.00000E+00
 -1       894 7.05052E-05 2.69560E-05 0.00000E+00
 -1       895 6.98348E-05 2.69174E-05 8.27181E-25
 -1       956 7.16554E-05 2.35545E-06 0.00000E+00
 -1       957 7.15701E-05 2.85983E-06-1.65436E-24
 -1       958 7.14846E-05 3.41342E-06-3.30872E-24
 -1       959 7.13989E-05 4.01016E-06 1.65436E-24
 -1       960 7.13131E-05 4.64401E-06 1.65436E-24
 -1       961 7.12273E-05 5.30887E-06 8.27181E-25
 -1       962 7.11415E-05 5.99861E-06-1.65436E-24
 -1       963 7.10556E-05 6.70715E-06 0.00000E+00
 -1       964 7.09698E-05 7.42838E-06 0.00000E+00
 -1       965 7.08839E-05 8.15617E-06 0.00000E+00
 -1       966 7.07980E-05 8.88444E-06 3.30872E-24
 -1       967 7.07122E-05 9.60707E-06 0.00000E+00
 -1       968 7.06264E-05 1.03179E-05 0.00000E+00
 -1       969 7.05408E-05 1.10110E-05 0.00000E+00
 -1       970 7.04554E-05 1.16801E-05 0.00000E+00
 -1       971 7.02911E-05 1.29769E-05 1.65436E-24
 -1       972 7.02098E-05 1.37064E-05 8.27181E-25
 -1       973 7.01283E-05 1.45001E-05-1.65436E-24
 -1       974 7.00467E-05 1.53498E-05-8.27181E-25
 -1       975 6.99650E-05 1.62470E-05-1.65436E-24
 -1       976 6.98833E-05 1.71835E-05 8.27181E-25
 -1       977 6.98015E-05 1.81510E-05-3.30872E-24
 -1       978 6.97196E-05 1.91411E-05-1.65436E-24
 -1       979 6.96378E-05 2.01456E-05 3.30872E-24
 -1       980 6.95560E-05 2.11561E-05 0.00000E+00
 -1       981 6.94742E-05 2.21644E-05 0.00000E+00
 -1       982 6.93925E-05 2.31619E-05-1.65436E-24
 -1       983 6.93109E-05 2.41406E-05 0.00000E+00
 -1       984 6.92296E-05 2.50920E-05 8.27181E-25
 -1       985 6.91488E-05 2.60078E-05 0.00000E+00
 -3
    1PSTEP                         8           4           1          
  100CL  104 4.68750E-01         409                     0    4           1
 -4  STRESS      6    1
 -5  SXX         1    4    1    1
 -5  SYY         1    4    2    2
 -5  SZZ         1    4    3    3
 -5  SXY         1    4    1    2
 -5  SYZ         1    4    2    3
 -5  SZX         1    4    3    1
 -1         1-1.66232E+06-7.54122E+05-3.41811E+05-1.05172E+06 3.96540E-10 1.92085E-09
 -1         2 2.65833E+03 2.42312E+05 8.71180E+03 7.05389E+02-1.35998E-10 2.07639E-08
 -1         3-8.81997E+01-7.11818E+05 1.66375E+02-2.59973E+02-1.54396E-10-1.11868E-08
 -1         5-5.82740E+00 2.44311E+05 6.40247E+00 1.09722E-01 1.29514E-10 2.04222E-08
 -1         8-7.84263E+05-3.32714E+05-3.40264E+04-5.65306E+05 3.05590E-10-5.23869E-10
 -1         9-1.37671E+06-3.63503E+05-1.40799E+05-4.61591E+05 3.64671E-09 3.12575E-09
 -1        10-5.77944E+02-7.41564E+05-9.84691E+02-1.75420E+03-3.58204E-09-6.90085E-09
 -1        12-3.20384E+00 2.44324E+05 2.07613E+02 9.94271E-01 1.77156E-10-1.73904E-08
 -1        15 1.97985E+03 1.08805E+03 6.39987E+03 4.14736E+00-2.47439E-10-5.45500E-09
 -1        16-3.52223E+06-1.21074E+06-5.55568E+05-1.24176E+06 1.18162E-08-5.60734E-09
 -1        17-8.48372E+05-5.14938E+05-1.64297E+05-4.75638E+05-5.11791E-09-1.36497E-09
 -1        18 7.25860E+03-2.58642E+03-1.69461E+04-5.83905E+04 7.44080E-10-5.59749E-09
 -1        19 7.65578E+04 9.10926E+04-4.58551E+02 1.50593E+04-6.48470E-10-2.10312E-09
 -1        20-3.20098E+04-3.61488E+05-7.97437E+04 2.65631E+04 2.40364E-09-2.77851E-09
 -1        21-3.41001E+01-2.09299E+05-6.75907E+02-7.32515E+01-7.37635E-09-4.76777E-09
 -1        24-3.25431E+06-1.02222E+06-4.49768E+05-1.25934E+06-1.99677E-08-1.23158E-08
 -1        25 2.43127E+04-3.32248E+04 1.04735E+04-1.05244E+05 8.37554E-10 4.57112E-10
 -1        26-1.69468E+04 6.23734E+04-1.21701E+04-8.86743E+03 1.13760E-09 1.46452E-09
 -1        27-5.84234E+04-1.98462E+05-7.45341E+04 4.46735E+04 5.72785E-09-6.66660E-10
 -1        28 1.62019E+04-5.78211E+04 1.18231E+04 1.85130E+04 2.87278E-09 4.71900E-10
 -1        32-7.85191E+05-1.83896E+05 3.18492E+05-5.24194E+05-1.64073E-08 1.19357E-08
 -1        33-1.13245E+05 5.82635E+04 2.06488E+04-3.42599E+04 1.01263E-09 1.74032E-09
 -1        34-1.47166E+05-1.46585E+04 3.44857E+02 4.52666E+04 2.40823E-09 2.36787E-09
 -1        35-1.64770E+04-2.29790E+04-9.00536E+02 3.64582E+04 3.63433E-09 2.20886E-09
 -1        51 1.40496E+04-3.66903E+05 3.63643E+04-9.31468E+05 2.47383E-10 1.50467E-08
 -1        52 8.82660E+03-3.65872E+05 2.43236E+04-1.08640E+06 7.42148E-10 1.20490E-08
 -1        53 6.64593E+03-3.78219E+05 2.10125E+04-9.28230E+05 7.78527E-10 1.64000E-08
 -1        54 1.90751E+04-3.76899E+05 3.40756E+04-1.08977E+06-2.76486E-10-1.25292E-08
 -1        55 3.79169E+04-3.89891E+05 6.10584E+04-9.27711E+05-5.82077E-11-5.51881E-09
 -1        56-3.19008E+06-3.59187E+05-2.51168E+05-1.22966E+06-7.63976E-11-6.35919E-09
 -1        57-3.28910E+06-5.88301E+05-1.69306E+05-1.22204E+06 3.49246E-10-1.04774E-09
 -1        58-3.24121E+06-4.38059E+05-5.90948E+04-1.21306E+06 8.04903E-10-2.29920E-09
 -1        59-3.22988E+06-4.95834E+05-3.52754E+04-1.24197E+06-2.51998E-09 4.21733E-09
 -1        60-3.24878E+06-4.48945E+05-1.37978E+04-1.21069E+06 2.30557E-10-5.52518E-09
 -1        61-3.22245E+06-4.81682E+05-7.83759E+03-1.24308E+06-9.42237E-10 3.24007E-09
 -1        62-3.24849E+06-4.51883E+05-3.78237E+03-1.21203E+06-2.11753E-09-7.80219E-10
 -1        63-3.22545E+06-4.75795E+05-3.07189E+03-1.23829E+06-1.80250E-09 5.38466E-09
 -1        64-3.24565E+06-4.54869E+05-3.56778E+03-1.21540E+06-2.28988E-09-1.90084E-10
 -1        65-3.23307E+06-4.70300E+05-7.04987E+03-1.23005E+06-2.13367E-09-3.98131E-10
 -1        66-3.24077E+06-4.57491E+05-1.24925E+04-1.22018E+06-7.21229E-10 1.41881E-09
 -1        67-3.24874E+06-4.73867E+05-3.16129E+04-1.21856E+06 1.68825E-11 8.39282E-09
 -1        68-3.23004E+06-4.51640E+05-5.31308E+04-1.22677E+06 4.14275E-10 9.25138E-09
 -1        69-3.30811E+06-5.50926E+05-1.51970E+05-1.19409E+06 1.56297E-09-4.84397E-09
 -1        70-3.18202E+06-3.82775E+05-2.25546E+05-1.24388E+06-1.30240E-09-8.73115E-11
 -1        86-1.33569E+03 2.39462E+05 9.30004E+03-3.52721E+02 1.13891E-09-1.91261E-09
 -1        87 8.85519E+03 2.45359E+05 1.94506E+04 1.45633E+03 1.91835E-09 6.20597E-09
 -1        88-7.51608E+03 2.36418E+05 2.97266E+04-1.10369E+03 2.85036E-09 1.80989E-09
 -1        89 5.60039E+04 2.67406E+05 8.02449E+04 3.17736E+03 4.32283E-09-9.56882E-09
 -1        90-4.83342E+04 2.17439E+05 1.13285E+05-2.07323E+03 5.02041E-09 7.61020E-10
 -1       121-1.38274E+02-7.12212E+05 1.31194E+02 1.29824E+02 4.11717E-10 3.37241E-09
 -1       122-3.28283E+01-7.11785E+05 3.59973E+02-5.19774E+02-1.34277E-09-1.87720E-08
 -1       123-1.76285E+02-7.12251E+05 5.54635E+02 3.88981E+02 1.19638E-09-3.53248E-09
 -1       124 6.33444E+02-7.11386E+05 1.50166E+03-1.16370E+03-2.67460E-09 9.71886E-09
 -1       125-6.04616E+02-7.12627E+05 2.27352E+03 7.73365E+02 1.58843E-09 2.86309E-09
 -1       191-6.32959E+00 2.44332E+05 7.59222E+00-5.55515E-02 1.60576E-10 1.24801E-08
 -1       192-6.41628E+00 2.44311E+05 1.35591E+01 6.60419E-01 2.02916E-10 4.45925E-09
 -1       193-7.89503E+00 2.44331E+05 2.51574E+01-6.09526E-01 2.55168E-10 1.89993E-09
 -1       194-8.31118E+00 2.44313E+05 5.12943E+01 1.62710E+00 1.40034E-10-6.54654E-09
 -1       195-1.09034E+01 2.44330E+05 1.00275E+02-1.02973E+00 3.43000E-10-1.38821E-08
 -1       251 1.19777E+05-4.12642E+04 9.61821E+04 3.90423E+03 6.32213E-10-5.52973E-09
 -1       252 1.64575E+05 4.77122E+04 6.84066E+04-1.37116E+04 6.99174E-12 1.63709E-10
 -1       253 1.36546E+05-6.39024E+03 2.48740E+04 2.96524E+03 2.98087E-10 5.33873E-09
 -1       254 1.44696E+05 7.37325E+03 1.58031E+04-1.22463E+04-8.97302E-10 3.54794E-09
 -1       255 1.39541E+05-9.87218E+02 6.42842E+03 2.43898E+03 4.51735E-10 6.44923E-09
 -1       256 1.41056E+05 1.17659E+03 3.93945E+03-1.14655E+04 4.69115E-10-2.57165E-09
 -1       257 1.40131E+05-1.73381E+02 2.03592E+03 2.18449E+03 2.52044E-10 2.17352E-09
 -1       258 1.40450E+05 3.83673E+02 1.83518E+03-1.12046E+04-7.71622E-10 6.23061E-09
 -1       259 1.40129E+05-1.83897E+02 2.13572E+03 2.17812E+03-6.46807E-10-4.60778E-09
 -1       260 1.41087E+05 1.26924E+03 4.22145E+03-1.14409E+04-2.75335E-10-1.04152E-08
 -1       261 1.39510E+05-1.06789E+03 6.94665E+03 2.42070E+03 8.68397E-10 4.84170E-09
 -1       262 1.44959E+05 7.98306E+03 1.70777E+04-1.21947E+04-1.68541E-11-5.95082E-09
 -1       263 1.36310E+05-6.91482E+03 2.69349E+04 2.93200E+03-7.92852E-10-6.10271E-09
 -1       264 1.66346E+05 5.16410E+04 7.39975E+04-1.36359E+04-2.90072E-09 1.37125E-08
 -1       265 1.18237E+05-4.46496E+04 1.04145E+05 3.86171E+03-1.33491E-09 1.53232E-08
 -1       266-3.58409E+04-1.67566E+04 8.41051E+04-8.87518E+01-5.45697E-11-2.55974E-09
 -1       267 4.15506E+04 1.95341E+04 5.94380E+04 1.02388E+02-6.27551E-11-1.94745E-08
 -1       268-5.57181E+03-2.76636E+03 2.20932E+04-1.30468E+01-2.18279E-11-9.23130E-09
 -1       269 6.57873E+03 3.31099E+03 1.43599E+04 1.51967E+01-1.18234E-11-4.69278E-09
 -1       270-9.87474E+02-5.44011E+02 6.93173E+03-2.06234E+00-2.54659E-11-6.02663E-09
 -1       271-3.50726E+06-4.38836E+05-2.69921E+05-1.36789E+06 6.91216E-11 1.51340E-09
 -1       272-3.58893E+06-6.50479E+05-1.73485E+05-1.38218E+06 1.55751E-10-1.12123E-08
 -1       273-3.55975E+06-5.04322E+05-6.37681E+04-1.35392E+06-1.22600E-09-5.45697E-11
 -1       274-3.52706E+06-5.70778E+05-3.56425E+04-1.40414E+06-8.34916E-10 3.32875E-09
 -1       275-3.56860E+06-5.09369E+05-1.48365E+04-1.34978E+06 1.14596E-10 3.55885E-09
 -1       276-3.51643E+06-5.65148E+05-7.85886E+03-1.41098E+06 1.98270E-10 6.87487E-09
 -1       277-3.57096E+06-5.08598E+05-3.84725E+03-1.34792E+06-3.80624E-10 2.73053E-09
 -1       278-3.51414E+06-5.65818E+05-2.78624E+03-1.41333E+06 2.90464E-09 6.66887E-10
 -1       279-3.57121E+06-5.08413E+05-2.98329E+03-1.34769E+06-2.25100E-09-2.67664E-09
 -1       280-3.51543E+06-5.65505E+05-5.46476E+03-1.41202E+06-7.82393E-10 6.04541E-09
 -1       281-3.56949E+06-5.09077E+05-1.00177E+04-1.34908E+06 1.15233E-09 3.02589E-09
 -1       282-3.52314E+06-5.68561E+05-2.38910E+04-1.40652E+06-3.15140E-10 1.70985E-10
 -1       283-3.56297E+06-5.06359E+05-4.27233E+04-1.35252E+06 1.02318E-09-4.38376E-09
 -1       284-3.56589E+06-6.20299E+05-1.16078E+05-1.38980E+06-3.15936E-09-5.17321E-09
 -1       285-3.52682E+06-4.63671E+05-1.80774E+05-1.36303E+06 1.54068E-09-8.14907E-10
 -1       301 1.44196E+04-1.74668E+04 1.10189E+05-4.48325E+04-9.31323E-10 2.68165E-09
 -1       302 1.55217E+04 1.04005E+04 7.88165E+04-6.60193E+04 1.14778E-09 2.09729E-09
 -1       303 8.64028E+02-7.43975E+03 7.14032E+04-4.49353E+04-7.74889E-10 3.75258E-09
 -1       304 2.78023E+04 2.18431E+04 1.18867E+05-6.57928E+04 1.51886E-09 8.82983E-09
 -1       305 2.74057E+04-2.86553E+04 1.98836E+05-4.49842E+04-6.25732E-10 6.68570E-09
 -1       306-3.92452E+06-4.58126E+05-2.98093E+05-1.53891E+06 2.35013E-09-1.08994E-08
 -1       307-4.08573E+06-7.01490E+05-2.03103E+05-1.47718E+06 1.46429E-10-2.48838E-09
 -1       308-3.99776E+06-5.45448E+05-7.02085E+04-1.50480E+06 2.46382E-09-2.18279E-11
 -1       309-3.99179E+06-6.09286E+05-4.23206E+04-1.52809E+06 1.75994E-09 5.89353E-09
 -1       310-4.01804E+06-5.48475E+05-1.64843E+04-1.48864E+06-1.47617E-09-4.63388E-09
 -1       311-3.96557E+06-6.08954E+05-9.49409E+03-1.55110E+06 4.45959E-09 1.07966E-08
 -1       312-4.02425E+06-5.45259E+05-4.64218E+03-1.48214E+06 4.47216E-11-4.26667E-09
 -1       313-3.96239E+06-6.08864E+05-4.16935E+03-1.55387E+06 8.72433E-10-6.78119E-09
 -1       314-4.02127E+06-5.48492E+05-5.11793E+03-1.48591E+06-2.29215E-09-9.65633E-09
 -1       315-3.97651E+06-5.97777E+05-1.05364E+04-1.53730E+06-2.97860E-10 2.11912E-10
 -1       316-4.00979E+06-5.56629E+05-1.88003E+04-1.49844E+06 1.59184E-09-2.02635E-09
 -1       317-4.01177E+06-5.93304E+05-4.80558E+04-1.50591E+06 1.84855E-10-9.45874E-09
 -1       318-3.98587E+06-5.53437E+05-7.97762E+04-1.51703E+06-5.31873E-09 1.49703E-08
 -1       319-4.11636E+06-7.01636E+05-2.31107E+05-1.45268E+06 3.33785E-10 8.94579E-09
 -1       320-3.90605E+06-4.50129E+05-3.38733E+05-1.55123E+06 8.43283E-09-1.38243E-09
 -1       336 4.96768E+02-7.71010E+05-4.21130E+03 9.78439E+02-6.87237E-09-3.76531E-09
 -1       337-1.53871E+03-7.72027E+05-4.65776E+03-2.48776E+03-1.28621E-08-5.08226E-09
 -1       338 3.34938E+02-7.71114E+05-5.99112E+03 1.50364E+03-9.12087E-09 7.50697E-09
 -1       339-6.21394E+03-7.74936E+05-1.31344E+04-3.52326E+03-1.66347E-08 9.33778E-09
 -1       340 4.18352E+03-7.68178E+05-2.02965E+04 2.00641E+03-1.09630E-08 2.51748E-09
 -1       406 1.25941E+01 2.44320E+05 4.09818E+02 1.74893E-02 5.38819E-10-4.03861E-09
 -1       407 1.39715E+02 2.44396E+05 8.71146E+02-8.04975E+00 6.51426E-11-4.96038E-09
 -1       408 4.45181E+02 2.44257E+05 1.73978E+03 8.18423E+00 5.90262E-10-2.77350E-09
 -1       409 1.87828E+03 2.44952E+05 3.91689E+03-7.86116E+01-2.75122E-11-3.39992E-09
 -1       410 5.40235E+03 2.43763E+05 7.99614E+03 7.33383E+01 6.19366E-10-3.96994E-09
 -1       521-7.36708E+06-7.74913E+05-5.67104E+05-2.72070E+06 1.17507E-09-1.97906E-09
 -1       522-7.08121E+06-1.58110E+06-3.49634E+05-3.07564E+06-2.81207E-08-1.28348E-08
 -1       523-7.58033E+06-7.77277E+05-1.31554E+05-2.48363E+06-2.04363E-09-1.95505E-08
 -1       524-6.87933E+06-1.54671E+06-7.24017E+04-3.37702E+06 2.94930E-08-2.84381E-08
 -1       525-7.60688E+06-7.76693E+05-2.94031E+04-2.44812E+06 2.70229E-08-1.96337E-08
 -1       526-6.89910E+06-1.42037E+06-4.18770E+03-3.23201E+06 1.59544E-08-2.12822E-10
 -1       527-7.53576E+06-9.20944E+05-2.66948E+04-2.61171E+06 1.37697E-08 9.81709E-09
 -1       528-7.12283E+06-1.09219E+06 2.03262E+04-2.79439E+06 1.59052E-08-3.01407E-09
 -1       529-7.34314E+06-1.13347E+06-3.21971E+04-2.85542E+06 1.08776E-08 1.24419E-08
 -1       530-7.56395E+06-7.08984E+05 2.82669E+03-2.38829E+06-1.80389E-08 1.68620E-08
 -1       531-7.11684E+06-1.28787E+06-3.49599E+04-3.03263E+06-2.66737E-08-5.80258E-09
 -1       532-7.90287E+06-5.19609E+05-7.10812E+04-2.20341E+06 4.75547E-08-3.65026E-08
 -1       533-7.04500E+06-1.29467E+06-1.24877E+05-3.07256E+06 1.46756E-08-4.28481E-08
 -1       534-7.89310E+06-8.11012E+05-3.52134E+05-2.23238E+06-1.56579E-08 3.92538E-08
 -1       535-7.11044E+06-1.01309E+06-5.54478E+05-2.98800E+06-1.04483E-08 2.65718E-08
 -1       536-1.01477E+05-1.76487E+04 4.06335E+04-5.95410E+02-1.28182E-09 1.22200E-08
 -1       537-8.23155E+04 2.04293E+04 2.90153E+04-6.70580E+01-8.41860E-09 5.50426E-09
 -1       538-9.47135E+04-2.77734E+03 1.04301E+04-2.15782E+02-9.39934E-10 8.74525E-09
 -1       539-9.03003E+04 3.20608E+03 6.79470E+03-8.70022E+02 2.33354E-09 2.54136E-09
 -1       540-9.34968E+04-4.39232E+02 2.58200E+03 2.07566E+02 3.05974E-10 2.32365E-09
 -1       541-9.19010E+04 4.97056E+02 1.65165E+03-1.65081E+03 7.52038E-11 2.44142E-09
 -1       542-9.31206E+04-6.50370E+01 5.62343E+02 5.64964E+02 8.88434E-10 4.65462E-09
 -1       543-9.25073E+04 4.53667E+01 2.83142E+02-2.24346E+03 2.03803E-09 7.74162E-09
 -1       544-9.28999E+04 1.90602E+01-1.10091E+02 8.00218E+02 7.82833E-10-4.06612E-09
 -1       545-9.28837E+04-1.88289E+02-5.16588E+02-2.55826E+03 3.40075E-10-1.20460E-09
 -1       546-9.27506E+04 1.73144E+02-1.01718E+03 8.79776E+02 3.76698E-10 5.54223E-11
 -1       547-9.34015E+04-1.26024E+03-2.58305E+03-2.55038E+03-3.16295E-09-6.98245E-09
 -1       548-9.23820E+04 1.09009E+03-4.17095E+03 7.92336E+02-2.54133E-09-5.27189E-09
 -1       549-9.62699E+04-8.03256E+03-1.13196E+04-2.21592E+03-2.07980E-09 5.04770E-10
 -1       550-8.98757E+04 6.93532E+03-1.61571E+04 5.45300E+02-6.93490E-11 6.83031E-10
 -1       551 8.69584E+03-3.98634E+05 2.08212E+04-6.75274E+05-3.06827E-08-2.92493E-09
 -1       552 1.91815E+04-4.01752E+05 2.77917E+04-9.61221E+05-2.25482E-08 1.09831E-08
 -1       553 1.30806E+04-4.06953E+05 4.31634E+04-6.72957E+05-3.66854E-08 5.93354E-09
 -1       554 4.15358E+04-3.90361E+05 9.17274E+04-9.62222E+05-2.31958E-08 5.25182E-09
 -1       555 3.97586E+04-4.24593E+05 1.64569E+05-6.73705E+05-3.73620E-08-2.88856E-09
 -1       556 6.09693E+04-1.29160E+05 4.36915E+04-1.69020E+05-9.48057E-09-1.15178E-08
 -1       557 1.13252E+05-1.72497E+05 2.29691E+04-2.11706E+05-7.27596E-10 2.83853E-09
 -1       558 6.07654E+04-1.34973E+05 9.26019E+03-1.64015E+05 2.11003E-09 8.00537E-09
 -1       559 1.06141E+05-1.78452E+05 4.71019E+03-2.14874E+05 1.49666E-08-2.72121E-09
 -1       560 5.91876E+04-1.33926E+05 1.93157E+03-1.65008E+05 4.23461E-09-4.08636E-09
 -1       561 1.03698E+05-1.77821E+05 1.03386E+03-2.16420E+05 3.38332E-10 5.48698E-09
 -1       562 5.79179E+04-1.33076E+05 3.85995E+02-1.65922E+05 3.09956E-09-2.25805E-09
 -1       563 1.02208E+05-1.77181E+05 2.49478E+02-2.17373E+05-9.09495E-10-9.30038E-09
 -1       564 5.71254E+04-1.32565E+05 8.77763E+01-1.66485E+05 2.58660E-09-3.01088E-09
 -1       565 1.01430E+05-1.76848E+05 5.99097E+01-2.17863E+05-3.15140E-09-3.12684E-09
 -1       566 5.68383E+04-1.32375E+05-1.36788E+01-1.66692E+05-7.73980E-10 7.70342E-09
 -1       567 1.01324E+05-1.76795E+05-9.54884E+01-2.17867E+05 8.53515E-09-2.35195E-09
 -1       568 5.70885E+04-1.32540E+05-2.93014E+02-1.66577E+05-1.31877E-09-3.44517E-09
 -1       569 1.01267E+05-1.76681E+05-6.85258E+02-2.16835E+05-2.97405E-09-7.89441E-10
 -1       570 5.83881E+04-1.33706E+05-1.48029E+03-1.66545E+05 1.31331E-09-5.48971E-09
 -1       571 1.77523E+05 6.43524E+03 9.53489E+03-4.52644E+04-3.56522E-10-1.67302E-09
 -1       572 1.78941E+05 2.23929E+03 4.67152E+03-4.96168E+04 6.91216E-11-8.46057E-10
 -1       573 1.78091E+05 5.35036E+02 2.07527E+03-4.51460E+04 1.23873E-09 2.25191E-09
 -1       574 1.78258E+05 1.75977E+02 1.03978E+03-4.97491E+04 1.52500E-09-2.71439E-09
 -1       575 1.78154E+05 2.63863E+01 4.90051E+02-4.51304E+04 1.74487E-09-8.52197E-10
 -1       576 1.78165E+05 9.75889E+00 2.49486E+02-4.97668E+04 7.36151E-10 9.30868E-10
 -1       577 1.78163E+05-7.20495E-01 1.22941E+02-4.51283E+04-4.33033E-10 1.19962E-09
 -1       578 1.78156E+05 1.33962E+00 6.71488E+01-4.97689E+04-2.17392E-09-1.40517E-09
 -1       579 1.78173E+05-2.72027E+00 4.12360E+01-4.51283E+04-2.03590E-09-1.75987E-09
 -1       580 1.78170E+05-4.37501E+00 3.88203E+01-4.97663E+04-1.55296E-09 1.75396E-09
 -1       581 1.78192E+05-9.70785E+00 5.28988E+01-4.51310E+04 2.91038E-11 2.91539E-09
 -1       582 1.78205E+05-2.35232E+00 1.01091E+02-4.97395E+04 3.60160E-10 1.31058E-09
 -1       583 1.78215E+05 2.16044E+01 1.93870E+02-4.51551E+04 2.00725E-09-5.36534E-09
 -1       584 1.78305E+05 1.72197E+02 4.34879E+02-4.95382E+04-7.09861E-10-2.08070E-09
 -1       585 1.78196E+05 5.54966E+02 8.82916E+02-4.53326E+04 1.79170E-10-3.01952E-09
 -1       586-2.15516E+03 5.82640E+04-2.86024E+03-1.54275E+05 3.44244E-10 3.97449E-09
 -1       587-4.51229E+02 5.78785E+04-3.11379E+02-1.69767E+05 7.78527E-10 5.05020E-09
 -1       588 6.18534E+02 5.79536E+04 2.05262E+03-1.54181E+05 4.27463E-10 3.53293E-09
 -1       589 3.05009E+03 5.90820E+04 5.96753E+03-1.69626E+05 5.62068E-10-4.08772E-09
 -1       590 8.74421E+03 5.72418E+04 1.27728E+04-1.54418E+05 3.33330E-10-1.85628E-09
 -1       591-3.71720E+04-1.08778E+04-1.27328E+04-1.95328E+04-7.65738E-10-1.88811E-09
 -1       592-3.83325E+04-1.40367E+04-6.89658E+03-2.28902E+04-2.56250E-10 2.74849E-09
 -1       593-3.84602E+04-9.93887E+03-2.87113E+03-2.04517E+04 1.01443E-09 7.52812E-09
 -1       594-3.65578E+04-1.21865E+04-1.43194E+03-2.29793E+04 5.87988E-10-2.82068E-09
 -1       595-3.85590E+04-9.93447E+03-6.58067E+02-2.04940E+04-4.94424E-10 1.74016E-09
 -1       596-3.64378E+04-1.21017E+04-3.35419E+02-2.29670E+04 1.08605E-09 5.33532E-10
 -1       597-3.85715E+04-9.94258E+03-1.84601E+02-2.04957E+04-6.21270E-10-6.73481E-09
 -1       598-3.64264E+04-1.20985E+04-1.51981E+02-2.29635E+04 5.84350E-11-7.61599E-09
 -1       599-3.85706E+04-9.94264E+03-1.98616E+02-2.04953E+04 4.91809E-10-5.42741E-09
 -1       600-3.64391E+04-1.21029E+04-3.72562E+02-2.29666E+04-1.08616E-09-2.69466E-09
 -1       601-3.85548E+04-9.93388E+03-7.36861E+02-2.04927E+04-7.83984E-10 1.71144E-09
 -1       602-3.65736E+04-1.21979E+04-1.60691E+03-2.29788E+04 8.64929E-10-4.86580E-10
 -1       603-3.84427E+04-9.94038E+03-3.22307E+03-2.04455E+04-7.70342E-10 9.19295E-09
 -1       604-3.85721E+04-1.42678E+04-7.74226E+03-2.28694E+04 7.29756E-10 4.32806E-09
 -1       605-3.69883E+04-1.10004E+04-1.42939E+04-1.94207E+04 1.60992E-09 7.81893E-09
 -1       606 2.52427E+04-8.53711E+03-1.53717E+04 2.46233E+04 5.95992E-09-1.51886E-09
 -1       607 2.26100E+04-2.75431E+03-7.65421E+03 2.76411E+04 1.59271E-08 1.63595E-10
 -1       608 2.41033E+04-4.64745E+02-3.42775E+03 2.44270E+04 1.14869E-08-4.32919E-10
 -1       609 2.38056E+04-1.20556E+02-1.73125E+03 2.78578E+04-2.11912E-10 4.70004E-09
 -1       610 2.39648E+04 2.24721E+01-8.27032E+02 2.44051E+04-3.03498E-09-7.66613E-09
 -1       611 2.39080E+04 3.42649E+01-4.17131E+02 2.78815E+04-6.68206E-09-6.91421E-09
 -1       612 2.39274E+04 3.64634E+01-1.99667E+02 2.44029E+04-2.63663E-09-1.83832E-09
 -1       613 2.39054E+04 4.20947E+01-9.10457E+01 2.78843E+04-5.88761E-09 3.51520E-09
 -1       614 2.39068E+04 3.74055E+01-2.55439E+01 2.44022E+04 4.19277E-10 5.00950E-09
 -1       615 2.38945E+04 4.71918E+01 2.81608E+01 2.78848E+04 6.90261E-09 5.15365E-09
 -1       616 2.38912E+04 4.27016E+01 9.36354E+01 2.44024E+04-2.94767E-09-2.27806E-09
 -1       617 2.38998E+04 7.08974E+01 2.17320E+02 2.78843E+04 1.19144E-10-4.90422E-09
 -1       618 2.38678E+04 1.08229E+02 4.39340E+02 2.44025E+04 1.38198E-09 7.37373E-10
 -1       619 2.40514E+04 4.13017E+02 9.87492E+02 2.78836E+04-1.18268E-09-4.59522E-10
 -1       620 2.37195E+04 1.15249E+03 1.98504E+03 2.44015E+04 1.21736E-09 2.21780E-09
 -1       621 2.95593E+02 1.92047E+05 2.58315E+03 7.15223E+03-2.62531E-10-2.28965E-09
 -1       622 3.39395E+02 1.92687E+05 2.21118E+03 1.04451E+04-5.80940E-11-2.38379E-09
 -1       623 1.37375E+01 1.92229E+05 2.56730E+03 7.11995E+03-2.16858E-10 5.22732E-10
 -1       624 1.16704E+03 1.93445E+05 4.89640E+03 1.04754E+04-2.43574E-10-9.42214E-09
 -1       625 1.17252E+03 1.91283E+05 8.52220E+03 7.12221E+03-1.56433E-10-1.09361E-08
 -1       626 1.59100E+05 4.40486E+04 3.16074E+03 8.59785E+04-2.68210E-09 2.64663E-09
 -1       627 1.56925E+05 4.56512E+04 1.52301E+03 8.94487E+04-3.10820E-09 2.86150E-10
 -1       628 1.59218E+05 4.25529E+04 6.43242E+02 8.64545E+04-9.25775E-09 1.11772E-08
 -1       629 1.56468E+05 4.52923E+04 3.15316E+02 8.96560E+04-1.67906E-08 7.65800E-09
 -1       630 1.59225E+05 4.24825E+04 1.45785E+02 8.64667E+04-1.61153E-08 7.12208E-09
 -1       631 1.56412E+05 4.52846E+04 7.84710E+01 8.96575E+04-8.56880E-09 2.42239E-08
 -1       632 1.59216E+05 4.24884E+04 5.18611E+01 8.64593E+04-1.35410E-08-1.09583E-09
 -1       633 1.56400E+05 4.52895E+04 5.80832E+01 8.96509E+04-9.08244E-09-6.54160E-09
 -1       634 1.59207E+05 4.24893E+04 9.41192E+01 8.64550E+04 1.91585E-09 3.19665E-09
 -1       635 1.56403E+05 4.52911E+04 1.90942E+02 8.96502E+04 2.75986E-09-2.41494E-09
 -1       636 1.59197E+05 4.24887E+04 3.85686E+02 8.64520E+04-9.29469E-09-3.08205E-09
 -1       637 1.56481E+05 4.53527E+04 8.47693E+02 8.96462E+04-1.41251E-08 1.55881E-08
 -1       638 1.59163E+05 4.26778E+04 1.74218E+03 8.63647E+04-1.60453E-08-5.20777E-09
 -1       639 1.57392E+05 4.66273E+04 4.12148E+03 8.93754E+04-6.28097E-09 1.36833E-09
 -1       640 1.59041E+05 4.64715E+04 8.55314E+03 8.47535E+04 2.61070E-09 1.25940E-08
 -1       656 4.31162E+04-1.09120E+06-1.04084E+05-3.68087E+02 3.45608E-10-8.07034E-10
 -1       657-5.69727E+04-1.13818E+06-8.60768E+04 7.04847E+03-3.81988E-10 7.64114E-09
 -1       658 1.36705E+04-1.10460E+06-5.28193E+04-1.37074E+03 9.27685E-11 2.21486E-09
 -1       659-6.10808E+04-1.14012E+06-9.14725E+04 7.71617E+03 3.60160E-10-8.07181E-09
 -1       660 4.72143E+04-1.08926E+06-1.13366E+05-1.03577E+03 5.60249E-10-1.27180E-09
 -1       661 1.54453E+05 1.68165E+04 1.48183E+04 6.03617E+04 2.01885E-09 8.53197E-09
 -1       662 1.62175E+05 2.84359E+04 9.98505E+03 5.77820E+04-3.57375E-10 2.90015E-10
 -1       663 1.57357E+05 2.15759E+04 3.49285E+03 5.95240E+04-2.53203E-09-4.17992E-09
 -1       664 1.58815E+05 2.28643E+04 2.08827E+03 5.87999E+04 2.36028E-09 8.48627E-09
 -1       665 1.57792E+05 2.22317E+04 8.23754E+02 5.94028E+04-3.18798E-09-6.88061E-10
 -1       666 1.58305E+05 2.21096E+04 4.80357E+02 5.89548E+04-6.32504E-09-2.59554E-09
 -1       667 1.57864E+05 2.23108E+04 2.53238E+02 5.93765E+04-8.34973E-10-2.97617E-09
 -1       668 1.58229E+05 2.20465E+04 2.53629E+02 5.89921E+04 4.47136E-09-7.84560E-10
 -1       669 1.57868E+05 2.22930E+04 3.39790E+02 5.93660E+04-5.74360E-10 3.97773E-09
 -1       670 1.58315E+05 2.22252E+04 7.36516E+02 5.89903E+04 9.55982E-09-2.53766E-09
 -1       671 1.57778E+05 2.21357E+04 1.30663E+03 5.93769E+04-1.29183E-09-4.68276E-10
 -1       672 1.59078E+05 2.34946E+04 3.34209E+03 5.88046E+04-4.63650E-10 2.32995E-09
 -1       673 1.57109E+05 2.10555E+04 5.60049E+03 5.95395E+04-1.73134E-09 9.93168E-10
 -1       674 1.64412E+05 3.24894E+04 1.60163E+04 5.72353E+04-4.99648E-09 3.78691E-09
 -1       675 1.52479E+05 1.33925E+04 2.37731E+04 6.08514E+04-1.87720E-09-6.58474E-10
 -1       676 1.75478E+01-2.09243E+05-8.14641E+02 3.66267E+01-8.90452E-10-2.50753E-09
 -1       677-2.16212E+02-2.09440E+05-1.49088E+03-7.32210E+01-3.45403E-09-3.86172E-09
 -1       678 1.44413E+02-2.09103E+05-2.63547E+03 3.65691E+01-9.14270E-10-2.17127E-09
 -1       679-2.63596E+03-2.11031E+05-6.26051E+03-7.29947E+01-5.96685E-09-1.49780E-08
 -1       680 1.57317E+03-2.07653E+05-1.00899E+04 3.59810E+01-2.17733E-09-1.29281E-09
 -1       771-2.24592E+06-3.98064E+05-5.57070E+04-9.36907E+05-9.66247E-09-7.98900E-09
 -1       772-2.23052E+06-4.28582E+05-2.98034E+04-9.71003E+05-7.50151E-09 3.68982E-09
 -1       773-2.25382E+06-3.91905E+05-1.30287E+04-9.40007E+05-3.15777E-09 4.34011E-09
 -1       774-2.22265E+06-4.22192E+05-6.29716E+03-9.74922E+05 9.90985E-09-1.04956E-09
 -1       775-2.25589E+06-3.90528E+05-3.30763E+03-9.40268E+05 4.95493E-09 2.68119E-09
 -1       776-2.22265E+06-4.22277E+05-1.49092E+03-9.77172E+05 7.24685E-09 4.71027E-09
 -1       777-2.25738E+06-3.89433E+05-1.00665E+03-9.40426E+05-4.58385E-10-4.53656E-09
 -1       778-2.22312E+06-4.22536E+05-4.19782E+02-9.79053E+05 1.78989E-09 3.71983E-09
 -1       779-2.25859E+06-3.88502E+05-4.52283E+02-9.40569E+05-1.87720E-09-3.23053E-09
 -1       780-2.22359E+06-4.22747E+05-3.01194E+02-9.80576E+05-1.73168E-09-1.32331E-10
 -1       781-2.25950E+06-3.87759E+05-5.47369E+02-9.40679E+05-6.27915E-09-1.67211E-09
 -1       782-2.22403E+06-4.22941E+05-9.24959E+02-9.81697E+05-9.21136E-09-3.11411E-09
 -1       783-2.26007E+06-3.87267E+05-1.85739E+03-9.40737E+05-1.18234E-09-4.30305E-09
 -1       784-2.22537E+06-4.24203E+05-4.36840E+03-9.82330E+05-5.32873E-09-8.54925E-11
 -1       785-2.25959E+06-3.87598E+05-8.08456E+03-9.40190E+05-1.02827E-08 1.42427E-09
 -1       786 1.69933E+05-9.06056E+03 2.08927E+04-1.28132E+01 2.28580E-07 3.38332E-10
 -1       787 1.78998E+05 1.04872E+04 1.47922E+04 2.10030E+01 4.53166E-07-3.76758E-10
 -1       788 1.73428E+05-1.42458E+03 5.40709E+03-2.92869E+00 3.46737E-07-1.52431E-09
 -1       789 1.74925E+05 1.64810E+03 3.40127E+03 7.76528E+00 2.39944E-07-3.50343E-09
 -1       790 1.74006E+05-2.23222E+02 1.38279E+03 4.24666E-01 1.88810E-07 1.43120E-09
 -1       791 1.74250E+05 2.59448E+02 8.13456E+02 2.84907E+00 1.37000E-07-1.80039E-09
 -1       792 1.74103E+05-3.61891E+01 3.72176E+02 1.98761E+00 1.55833E-07-1.17960E-09
 -1       793 1.74141E+05 5.14654E+01 2.46767E+02-5.89976E-01 1.74595E-07 8.56647E-09
 -1       794 1.74115E+05-1.52712E+01 1.86707E+02 3.86378E+00 2.98158E-07 4.26977E-09
 -1       795 1.74154E+05 8.00775E+01 2.76168E+02-7.16802E+00 4.22061E-07 4.50889E-09
 -1       796 1.74090E+05-6.47956E+01 4.16866E+02 8.56577E+00 7.66993E-07-4.62256E-09
 -1       797 1.74345E+05 4.73865E+02 9.86789E+02-2.57071E+01 1.11357E-06 1.34798E-09
 -1       798 1.73924E+05-4.08989E+02 1.55697E+03 2.24032E+01 1.78974E-06-8.85586E-09
 -1       799 1.75516E+05 3.01076E+03 4.24920E+03-8.13930E+01 2.46307E-06 3.76070E-09
 -1       800 1.72919E+05-2.60119E+03 5.99736E+03 6.42524E+01 1.22652E-06-3.61570E-09
 -1       801-4.81009E+03-1.78181E+05-5.63005E+03 1.88702E+04 1.00335E-08-1.84855E-09
 -1       802 1.75382E+04-7.81545E+04 3.83546E+04-7.26879E+04 2.70334E-08-4.09023E-09
 -1       803-1.18687E+04-1.35659E+05 5.38650E+04 2.12314E+04 2.14386E-08 1.97067E-08
 -1       804 1.12181E+05-2.37042E+04 1.62787E+05-7.29740E+04 2.51257E-08 2.01865E-08
 -1       805-9.95745E+04-2.32268E+05 2.02276E+05 1.91524E+04 8.96398E-09 2.29604E-08
 -1       806-1.92401E+05-4.12479E+04-1.62343E+04-8.02362E+04-9.96215E-09-1.63936E-09
 -1       807-1.93332E+05-3.89478E+04-7.97555E+03-8.45688E+04-1.40045E-08 2.12331E-08
 -1       808-1.92862E+05-3.53830E+04-3.38321E+03-8.29898E+04-7.43080E-09 1.32788E-08
 -1       809-1.91629E+05-3.67333E+04-1.65396E+03-8.47985E+04-1.03364E-09-1.48282E-09
 -1       810-1.92933E+05-3.51762E+04-7.57355E+02-8.31111E+04-2.75577E-10 3.90344E-09
 -1       811-1.91499E+05-3.66458E+04-3.75634E+02-8.47788E+04-1.81694E-09 9.66111E-10
 -1       812-1.92946E+05-3.51917E+04-1.87549E+02-8.31107E+04-3.04590E-09-4.40582E-09
 -1       813-1.91482E+05-3.66481E+04-1.18439E+02-8.47683E+04-4.05635E-10-2.29784E-09
 -1       814-1.92943E+05-3.51977E+04-1.11312E+02-8.31080E+04 7.04858E-11-3.28146E-09
 -1       815-1.91483E+05-3.66501E+04-1.74397E+02-8.47649E+04 5.00904E-10-3.45847E-09
 -1       816-1.92931E+05-3.51967E+04-3.26922E+02-8.31055E+04-1.00636E-09 3.14731E-09
 -1       817-1.91539E+05-3.66815E+04-7.00860E+02-8.47583E+04 2.94858E-09-2.32558E-09
 -1       818-1.92889E+05-3.52955E+04-1.42844E+03-8.30588E+04 4.67935E-10 5.11864E-09
 -1       819-1.92328E+05-3.75379E+04-3.36174E+03-8.45657E+04-1.59343E-09 4.59886E-09
 -1       820-1.92616E+05-3.78382E+04-6.84183E+03-8.19759E+04 3.31329E-09 8.96807E-09
 -1       821-2.52947E+05 1.39770E+04-3.23243E+04 9.09308E+01-4.22516E-10 5.85896E-09
 -1       822-2.66955E+05-1.61808E+04-2.28741E+04-6.26430E+02-2.02954E-09 6.58906E-09
 -1       823-2.58353E+05 2.19125E+03-8.37204E+03 6.19625E+01 5.62070E-10-1.72895E-09
 -1       824-2.60651E+05-2.53629E+03-5.26765E+03-4.82700E+02-5.68067E-10 2.75833E-09
 -1       825-2.59249E+05 3.42921E+02-2.16521E+03-5.28037E+01-3.00778E-09 5.16366E-09
 -1       826-2.59607E+05-4.04429E+02-1.30672E+03-2.12913E+02-5.41323E-09 3.61952E-09
 -1       827-2.59396E+05 6.08016E+01-6.76646E+02-2.07829E+02-4.38526E-09-2.78324E-09
 -1       828-2.59466E+05-1.23301E+02-5.97540E+02 7.80904E+01-5.49967E-09-5.11769E-09
 -1       829-2.59390E+05 6.20499E+01-6.86088E+02-3.43813E+02 4.98929E-10-7.47386E-09
 -1       830-2.59626E+05-4.14197E+02-1.33920E+03 2.79003E+02 2.42518E-09 2.28511E-11
 -1       831-2.59237E+05 3.51680E+02-2.21773E+03-4.08746E+02-3.03973E-09-2.79852E-09
 -1       832-2.60692E+05-2.60083E+03-5.40408E+03 3.13569E+02-1.33520E-09-5.34192E-09
 -1       833-2.58325E+05 2.24714E+03-8.58743E+03-3.78378E+02-6.65896E-10-4.12138E-09
 -1       834-2.67143E+05-1.65963E+04-2.34619E+04 1.70795E+02-2.47758E-10 3.85626E-10
 -1       835-2.52787E+05 1.43361E+04-3.31589E+04-2.65961E+02 5.02365E-09-1.56433E-09
 -1       836-8.30545E+02 2.36176E+05 1.42196E+04-2.14206E+04 1.59662E-09 4.17913E-10
 -1       837 3.13565E+03 2.40576E+05 1.21347E+04-4.30228E+04 2.38924E-09-3.63571E-09
 -1       838-3.02026E+02 2.37400E+05 1.25046E+04-2.13486E+04 2.10321E-09-1.92415E-09
 -1       839 8.02918E+03 2.44223E+05 2.37936E+04-4.30478E+04 2.71984E-09 2.54391E-09
 -1       840-2.40943E+03 2.32494E+05 3.79985E+04-2.13941E+04 1.90812E-09 4.11092E-10
 -1       856-7.76462E+04 6.66100E+03-1.75534E+04-3.93742E+02-2.99309E-09-9.70431E-10
 -1       857-8.48974E+04-7.81224E+03-1.20852E+04 4.00139E+03-4.63260E-10 4.34284E-10
 -1       858-8.05109E+04 9.33312E+02-4.55562E+03-4.11464E+02-2.15596E-09 1.87401E-09
 -1       859-8.16073E+04-1.08499E+03-2.75150E+03 4.02968E+03-3.14117E-10 3.80965E-09
 -1       860-8.09393E+04 1.29784E+02-1.15698E+03-4.22156E+02 6.33818E-10-5.50045E-09
 -1       861-8.11138E+04-1.43211E+02-6.44571E+02 4.04430E+03-5.49387E-09-4.95231E-09
 -1       862-8.10059E+04 1.71922E+01-2.84167E+02-4.26109E+02 5.31497E-09 3.18853E-09
 -1       863-8.10350E+04-1.03991E+01-1.40351E+02 4.04606E+03 7.65776E-09 1.39745E-09
 -1       864-8.10182E+04-1.13137E-01-4.37172E+01-4.23919E+02 5.57974E-09 2.12151E-09
 -1       865-8.10119E+04 2.02175E+01 2.73121E+01 4.03504E+03 7.43235E-09-6.68763E-11
 -1       866-8.10278E+04-1.38157E+01 9.76470E+01-4.15095E+02 6.30337E-10-1.43620E-09
 -1       867-8.09548E+04 1.15895E+02 2.67661E+02 4.01111E+03 1.51158E-09-4.09017E-09
 -1       868-8.10727E+04-9.52363E+01 4.51384E+02-3.99982E+02 1.13840E-09-1.39056E-09
 -1       869-8.06159E+04 7.89641E+02 1.21189E+03 3.97146E+03-4.01329E-09 3.92052E-09
 -1       870-8.13626E+04-6.70972E+02 1.75744E+03-3.75449E+02 7.17193E-10-1.14653E-09
 -1       871-3.65719E+03-7.63263E+03-1.18504E+04 7.76564E+04 1.82263E-09 5.07225E-09
 -1       872-1.59591E+03-1.02824E+04-4.82661E+03 1.00676E+05 3.84307E-09 2.20098E-09
 -1       873-4.41180E+01-9.04482E+03 7.00435E+02 7.74853E+04 1.73281E-09-1.38334E-09
 -1       874 1.81565E+03-7.31376E+03 6.74648E+03 1.00712E+05 4.75393E-09 1.03265E-08
 -1       875 4.31993E+03-1.06461E+04 1.49541E+04 7.76278E+04 2.23281E-09 3.78714E-09
 -1       876 1.94262E+05 3.35107E+04 1.04136E+04 7.88589E+04-3.21938E-09 8.65839E-10
 -1       877 1.94850E+05 3.58043E+04 5.56110E+03 8.19471E+04-7.53846E-09-6.33918E-10
 -1       878 1.95236E+05 3.23579E+04 2.32984E+03 7.97139E+04 8.00947E-09-1.22873E-09
 -1       879 1.93433E+05 3.43938E+04 1.16059E+03 8.20212E+04 9.87927E-09 6.97619E-09
 -1       880 1.95307E+05 3.23450E+04 5.40309E+02 7.97488E+04 5.03474E-09 4.62990E-10
 -1       881 1.93339E+05 3.43339E+04 2.87731E+02 8.20067E+04 8.31778E-09 2.38408E-09
 -1       882 1.95314E+05 3.23534E+04 1.82708E+02 7.97497E+04 6.53642E-09-7.53609E-10
 -1       883 1.93332E+05 3.43311E+04 1.94205E+02 8.20025E+04 2.70552E-09 2.02863E-09
 -1       884 1.95310E+05 3.23512E+04 3.06935E+02 7.97499E+04 1.13681E-09 9.38201E-10
 -1       885 1.93356E+05 3.43355E+04 6.15861E+02 8.20103E+04 5.78729E-09 9.77934E-09
 -1       886 1.95286E+05 3.23332E+04 1.24066E+03 7.97474E+04-3.74285E-10-3.61217E-09
 -1       887 1.93575E+05 3.44784E+04 2.70986E+03 8.20416E+04-3.64730E-09-4.91582E-10
 -1       888 1.95115E+05 3.23634E+04 5.46042E+03 7.96607E+04 2.92897E-09 8.63292E-09
 -1       889 1.96829E+05 3.78563E+04 1.30446E+04 8.19380E+04 5.10482E-09 6.76027E-09
 -1       890 1.92890E+05 3.50062E+04 2.44314E+04 7.75778E+04 2.30739E-09 3.65253E-09
 -1       891-1.23058E+02-1.10482E+05-1.30223E+03 2.10403E+04 1.75828E-09-8.74252E-11
 -1       892-2.13770E+02-1.10793E+05-1.41759E+03 3.18374E+04-1.12345E-09-1.95575E-09
 -1       893-3.64576E+01-1.10523E+05-2.02666E+03 2.10443E+04 2.58979E-10 7.24731E-09
 -1       894-1.11134E+03-1.11571E+05-4.20881E+03 3.17244E+04-5.16820E-10 5.64978E-09
 -1       895-8.67949E+02-1.09648E+05-7.41693E+03 2.11518E+04-3.04453E-10 8.78526E-09
 -1       956-2.44079E+05-3.52748E+03-8.88470E+03 1.61457E+04-4.13002E-09-4.44561E-09
 -1       957-2.45834E+05-1.18853E+03-4.56110E+03 1.94417E+04-1.82627E-09-2.63663E-09
 -1       958-2.44867E+05-9.31834E+01-2.05486E+03 1.60400E+04 3.77577E-09 2.60820E-09
 -1       959-2.45007E+05-1.44911E+01-1.04958E+03 1.95559E+04-1.33150E-09 5.25074E-09
 -1       960-2.44936E+05 3.10376E+01-5.11561E+02 1.60300E+04-3.68163E-09 1.07093E-10
 -1       961-2.44946E+05 2.95240E+01-2.71193E+02 1.95672E+04-5.90444E-09 2.32967E-09
 -1       962-2.44950E+05 2.73041E+01-1.54767E+02 1.60286E+04-3.07068E-09 1.00306E-09
 -1       963-2.44943E+05 3.05511E+01-1.23400E+02 1.95692E+04-3.16595E-09 5.64000E-09
 -1       964-2.44953E+05 2.90113E+01-1.48744E+02 1.60280E+04-8.30482E-10-1.52340E-09
 -1       965-2.44952E+05 3.32942E+01-2.56135E+02 1.95694E+04 1.25101E-09 2.45893E-09
 -1       966-2.44946E+05 3.60618E+01-4.80268E+02 1.60285E+04-3.78350E-09-8.00128E-10
 -1       967-2.45016E+05-4.30046E+00-9.84766E+02 1.95633E+04-8.37190E-10 6.13534E-09
 -1       968-2.44886E+05-7.69873E+01-1.92697E+03 1.60341E+04 2.30716E-09-2.14985E-09
 -1       969-2.45798E+05-1.10240E+03-4.27841E+03 1.94967E+04 5.58430E-10-7.75094E-09
 -1       970-2.44151E+05-3.29628E+03-8.33332E+03 1.60975E+04 1.53227E-09 6.97764E-09
 -1       971-2.31925E+05-1.22505E+03-6.82284E+03 1.13396E+04-3.54248E-10-3.43351E-09
 -1       972-2.33585E+05-8.77235E+02-3.71580E+03 1.58416E+04 2.05546E-09-3.56295E-10
 -1       973-2.32683E+05-6.23065E+00-1.66371E+03 1.12451E+04 1.55023E-09 2.71518E-09
 -1       974-2.32799E+05-5.89822E+00-8.61904E+02 1.59432E+04 2.04727E-09 1.43712E-09
 -1       975-2.32741E+05 2.51710E+01-4.29705E+02 1.12368E+04 1.28739E-09 2.05284E-09
 -1       976-2.32752E+05 2.93511E+01-2.46027E+02 1.59532E+04-1.50703E-09-5.13148E-09
 -1       977-2.32752E+05 2.46249E+01-1.75100E+02 1.12351E+04 1.17120E-09 2.07569E-09
 -1       978-2.32754E+05 3.30371E+01-2.00241E+02 1.59556E+04 8.50014E-09-1.09560E-09
 -1       979-2.32752E+05 2.98521E+01-3.17668E+02 1.12343E+04 6.19150E-09 2.08001E-09
 -1       980-2.32777E+05 3.49171E+01-6.10835E+02 1.59560E+04 6.74076E-09-4.71368E-09
 -1       981-2.32732E+05 4.50744E+01-1.18168E+03 1.12347E+04 1.94154E-09-5.87283E-09
 -1       982-2.32939E+05-5.21753E+01-2.44173E+03 1.59514E+04-5.71845E-11 2.33712E-10
 -1       983-2.32584E+05-3.02518E+01-4.74383E+03 1.12392E+04 3.98313E-09 5.21482E-09
 -1       984-2.35221E+05-2.52910E+03-1.06230E+04 1.58875E+04-1.92449E-09 1.51306E-09
 -1       985-2.30437E+05-3.50119E+03-1.95072E+04 1.13032E+04 1.02455E-09-5.52063E-10
 -3
    1PSTEP                         9           5           1          
  100CL  105 5.03906E-01         409                     0    5           1
 -4  DISP        4    1
 -5  D1          1    2    1    0
 -5  D2          1    2    2    0
 -5  D3          1    2    3    0
 -5  ALL         1    2    0    0    1ALL
 -1         1 1.52996E-04 0.00000E+00 0.00000E+00
 -1         2 1.37935E-04-1.33904E-30 4.13590E-25
 -1         3 1.35472E-04-2.03951E-27 6.61744E-24
 -1         5 9.22531E-05-8.48622E-27 0.00000E+00
 -1         8 1.28010E-04-8.82723E-07 0.00000E+00
 -1         9 1.25459E-04-6.63204E-08 0.00000E+00
 -1        10 1.25009E-04-1.83274E-06 6.61744E-24
 -1        12 9.18589E-05 5.52879E-07 0.00000E+00
 -1        15 9.82266E-05-9.77853E-07 0.00000E+00
 -1        16 1.02023E-04-2.43736E-07 0.00000E+00
 -1        17 9.17492E-05-3.88914E-06 0.00000E+00
 -1        18 8.95970E-05 2.53983E-06 0.00000E+00
 -1        19 9.06763E-05 1.10278E-06 0.00000E+00
 -1        20 9.08161E-05 1.41388E-05 0.00000E+00
 -1        21 9.02713E-05 2.62779E-05-1.65436E-24
 -1        24 2.04415E-05-5.36917E-06 0.00000E+00
 -1        25 8.86657E-05 2.66954E-06 0.00000E+00
 -1        26 8.96502E-05 1.53239E-06 0.00000E+00
 -1        27 8.80997E-05 1.16750E-05 0.00000E+00
 -1        28 8.76310E-05 2.58086E-05 0.00000E+00
 -1        32 0.00000E+00 0.00000E+00 0.00000E+00
 -1        33 8.73262E-05 2.05310E-06 0.00000E+00
 -1        34 8.58455E-05 1.16522E-05 0.00000E+00
 -1        35 8.44428E-05 2.55601E-05 0.00000E+00
 -1        51 1.51373E-04-1.45897E-07 0.00000E+00
 -1        52 1.48363E-04-2.86903E-07 0.00000E+00
 -1        53 1.44239E-04-4.29290E-07 0.00000E+00
 -1        54 1.39282E-04-5.74627E-07-3.30872E-24
 -1        55 1.33778E-04-7.23720E-07 5.06648E-24
 -1        56 1.51633E-04-8.02422E-07-2.64698E-23
 -1        57 1.50392E-04-2.08815E-06 1.32349E-23
 -1        58 1.49282E-04-3.71240E-06-5.29396E-23
 -1        59 1.48238E-04-5.54272E-06 0.00000E+00
 -1        60 1.47213E-04-7.42448E-06 0.00000E+00
 -1        61 1.46149E-04-9.20494E-06 0.00000E+00
 -1        62 1.44992E-04-1.07379E-05 0.00000E+00
 -1        63 1.43691E-04-1.18866E-05-2.64698E-23
 -1        64 1.42204E-04-1.25414E-05 5.29396E-23
 -1        65 1.40499E-04-1.26106E-05-2.64698E-23
 -1        66 1.38554E-04-1.20443E-05 0.00000E+00
 -1        67 1.36361E-04-1.08147E-05 0.00000E+00
 -1        68 1.33926E-04-8.94251E-06 5.29396E-23
 -1        69 1.31273E-04-6.46786E-06 2.64698E-23
 -1        70 1.28421E-04-3.48034E-06 2.64698E-23
 -1        86 1.37588E-04-3.57071E-09 8.27181E-25
 -1        87 1.36546E-04-8.14053E-09 4.13590E-25
 -1        88 1.34810E-04-1.37135E-08 1.65436E-24
 -1        89 1.32382E-04-2.40377E-08 0.00000E+00
 -1        90 1.29265E-04-3.50607E-08 0.00000E+00
 -1       121 1.35180E-04-3.03445E-07 6.61744E-24
 -1       122 1.34303E-04-6.07224E-07 0.00000E+00
 -1       123 1.32844E-04-9.11669E-07 0.00000E+00
 -1       124 1.30806E-04-1.21715E-06-3.30872E-24
 -1       125 1.28192E-04-1.52391E-06 0.00000E+00
 -1       191 9.22422E-05 9.21524E-08-3.30872E-24
 -1       192 9.22093E-05 1.84303E-07 0.00000E+00
 -1       193 9.21546E-05 2.76454E-07 0.00000E+00
 -1       194 9.20779E-05 3.68601E-07-1.65436E-24
 -1       195 9.19794E-05 4.60743E-07-3.30872E-24
 -1       251 1.27837E-04 3.39892E-06 0.00000E+00
 -1       252 1.27677E-04 6.31813E-06-3.30872E-24
 -1       253 1.27519E-04 7.94417E-06 6.61744E-24
 -1       254 1.27363E-04 8.35440E-06 0.00000E+00
 -1       255 1.27208E-04 7.72211E-06-6.61744E-24
 -1       256 1.27052E-04 6.22717E-06-3.30872E-24
 -1       257 1.26895E-04 4.11746E-06-6.61744E-24
 -1       258 1.26737E-04 1.64474E-06 0.00000E+00
 -1       259 1.26579E-04-9.10710E-07 0.00000E+00
 -1       260 1.26421E-04-3.26799E-06 0.00000E+00
 -1       261 1.26264E-04-5.16183E-06 0.00000E+00
 -1       262 1.26108E-04-6.32996E-06-3.30872E-24
 -1       263 1.25952E-04-6.56723E-06-6.61744E-24
 -1       264 1.25794E-04-5.67442E-06 0.00000E+00
 -1       265 1.25634E-04-3.54152E-06 0.00000E+00
 -1       266 1.23046E-04-9.10649E-07 0.00000E+00
 -1       267 1.18082E-04-9.25033E-07 0.00000E+00
 -1       268 1.13118E-04-9.40274E-07 0.00000E+00
 -1       269 1.08154E-04-9.52975E-07-4.13590E-25
 -1       270 1.03191E-04-9.65616E-07-4.13590E-25
 -1       271 1.25012E-04 2.93474E-06 0.00000E+00
 -1       272 1.22416E-04 5.55549E-06 0.00000E+00
 -1       273 1.20229E-04 7.09907E-06 0.00000E+00
 -1       274 1.18396E-04 7.68394E-06 0.00000E+00
 -1       275 1.16868E-04 7.45206E-06 0.00000E+00
 -1       276 1.15588E-04 6.55739E-06 0.00000E+00
 -1       277 1.14493E-04 5.16704E-06-5.29396E-23
 -1       278 1.13517E-04 3.45662E-06-2.64698E-23
 -1       279 1.12593E-04 1.60788E-06 5.29396E-23
 -1       280 1.11652E-04-1.94956E-07 0.00000E+00
 -1       281 1.10626E-04-1.76864E-06 0.00000E+00
 -1       282 1.09448E-04-2.93386E-06 2.64698E-23
 -1       283 1.08052E-04-3.51931E-06 0.00000E+00
 -1       284 1.06384E-04-3.36236E-06 0.00000E+00
 -1       285 1.04380E-04-2.31800E-06 0.00000E+00
 -1       301 1.21241E-04-1.06668E-07-6.61744E-24
 -1       302 1.17066E-04-1.28300E-07 3.30872E-24
 -1       303 1.12995E-04-1.48757E-07 0.00000E+00
 -1       304 1.09090E-04-1.69826E-07 0.00000E+00
 -1       305 1.05412E-04-1.92347E-07 1.32349E-23
 -1       306 1.22470E-04 2.24148E-06 0.00000E+00
 -1       307 1.20293E-04 2.20898E-06 0.00000E+00
 -1       308 1.18942E-04-1.81394E-08-5.29396E-23
 -1       309 1.18306E-04-4.19731E-06 0.00000E+00
 -1       310 1.18171E-04-9.72986E-06-5.29396E-23
 -1       311 1.18286E-04-1.59435E-05 0.00000E+00
 -1       312 1.18358E-04-2.20431E-05 0.00000E+00
 -1       313 1.18096E-04-2.72409E-05 0.00000E+00
 -1       314 1.17268E-04-3.09097E-05 5.29396E-23
 -1       315 1.15668E-04-3.25103E-05 0.00000E+00
 -1       316 1.13229E-04-3.18737E-05 5.29396E-23
 -1       317 1.09931E-04-2.89576E-05-2.64698E-23
 -1       318 1.05907E-04-2.41265E-05 5.29396E-23
 -1       319 1.01343E-04-1.78475E-05-2.64698E-23
 -1       320 9.65010E-05-1.08552E-05 0.00000E+00
 -1       336 1.21187E-04-2.16770E-06-1.32349E-23
 -1       337 1.16660E-04-2.50593E-06-3.30872E-24
 -1       338 1.11438E-04-2.84731E-06-6.61744E-24
 -1       339 1.05535E-04-3.19180E-06 0.00000E+00
 -1       340 9.89666E-05-3.54033E-06 6.61744E-24
 -1       406 9.17165E-05 6.45000E-07 0.00000E+00
 -1       407 9.15522E-05 7.37088E-07 0.00000E+00
 -1       408 9.13660E-05 8.29117E-07-3.30872E-24
 -1       409 9.11579E-05 9.20972E-07 1.65436E-24
 -1       410 9.09279E-05 1.01247E-06-3.30872E-24
 -1       521 1.03556E-04-1.34761E-05-5.29396E-23
 -1       522 1.15250E-04-5.63691E-05-5.29396E-23
 -1       523 1.34177E-04-1.21807E-04 0.00000E+00
 -1       524 1.57122E-04-2.00695E-04 0.00000E+00
 -1       525 1.80470E-04-2.80947E-04 0.00000E+00
 -1       526 2.00589E-04-3.50352E-04 5.29396E-23
 -1       527 2.14195E-04-3.99128E-04-1.05879E-22
 -1       528 2.18105E-04-4.19323E-04 0.00000E+00
 -1       529 2.10761E-04-4.09184E-04-1.05879E-22
 -1       530 1.91475E-04-3.69483E-04 5.29396E-23
 -1       531 1.62405E-04-3.07116E-04-1.05879E-22
 -1       532 1.26925E-04-2.30665E-04 0.00000E+00
 -1       533 9.02041E-05-1.51530E-04-1.05879E-22
 -1       534 5.76060E-05-8.12835E-05 0.00000E+00
 -1       535 3.32932E-05-2.97601E-05 0.00000E+00
 -1       536 9.16006E-05 4.50616E-06 0.00000E+00
 -1       537 9.14418E-05 1.46035E-05 0.00000E+00
 -1       538 9.12773E-05 2.52600E-05-3.30872E-24
 -1       539 9.11195E-05 3.53305E-05 0.00000E+00
 -1       540 9.09758E-05 4.37994E-05-3.30872E-24
 -1       541 9.08502E-05 4.96590E-05 0.00000E+00
 -1       542 9.07371E-05 5.24816E-05-3.30872E-24
 -1       543 9.06276E-05 5.18541E-05-1.65436E-24
 -1       544 9.05119E-05 4.81294E-05 3.30872E-24
 -1       545 9.03829E-05 4.16751E-05 0.00000E+00
 -1       546 9.02419E-05 3.34657E-05 3.30872E-24
 -1       547 9.00947E-05 2.44841E-05 1.65436E-24
 -1       548 8.99507E-05 1.58850E-05 0.00000E+00
 -1       549 8.98194E-05 8.82173E-06 8.27181E-25
 -1       550 8.97006E-05 4.10649E-06 0.00000E+00
 -1       551 8.23403E-05-4.10728E-06 0.00000E+00
 -1       552 7.11218E-05-4.33918E-06-1.65436E-24
 -1       553 5.87036E-05-4.58393E-06 0.00000E+00
 -1       554 4.57053E-05-4.83777E-06 0.00000E+00
 -1       555 3.27462E-05-5.09389E-06 1.32349E-23
 -1       556 8.92326E-05 2.62754E-06 0.00000E+00
 -1       557 8.72875E-05 7.67417E-06 0.00000E+00
 -1       558 8.58526E-05 1.13821E-05 0.00000E+00
 -1       559 8.48719E-05 1.38936E-05 0.00000E+00
 -1       560 8.42897E-05 1.53503E-05 0.00000E+00
 -1       561 8.40511E-05 1.58949E-05 0.00000E+00
 -1       562 8.41014E-05 1.56704E-05 0.00000E+00
 -1       563 8.43864E-05 1.48197E-05 0.00000E+00
 -1       564 8.48521E-05 1.34862E-05-6.61744E-24
 -1       565 8.54447E-05 1.18132E-05 0.00000E+00
 -1       566 8.61105E-05 9.94388E-06 0.00000E+00
 -1       567 8.67961E-05 8.02184E-06 2.06795E-25
 -1       568 8.74478E-05 6.19043E-06 0.00000E+00
 -1       569 8.80123E-05 4.59290E-06 0.00000E+00
 -1       570 8.84357E-05 3.37253E-06 0.00000E+00
 -1       571 8.96625E-05 2.48423E-06 4.13590E-25
 -1       572 8.97295E-05 2.38402E-06-2.06795E-25
 -1       573 8.97968E-05 2.24737E-06-1.65436E-24
 -1       574 8.98644E-05 2.08290E-06-4.13590E-25
 -1       575 8.99321E-05 1.89926E-06-1.65436E-24
 -1       576 8.99997E-05 1.70514E-06 8.27181E-25
 -1       577 9.00674E-05 1.50926E-06-3.30872E-24
 -1       578 9.01351E-05 1.32033E-06 1.65436E-24
 -1       579 9.02028E-05 1.14707E-06 0.00000E+00
 -1       580 9.02705E-05 9.98195E-07 0.00000E+00
 -1       581 9.03382E-05 8.82418E-07 3.30872E-24
 -1       582 9.04059E-05 8.08444E-07 0.00000E+00
 -1       583 9.04736E-05 7.84973E-07 0.00000E+00
 -1       584 9.05412E-05 8.20615E-07 1.65436E-24
 -1       585 9.06089E-05 9.23922E-07-3.30872E-24
 -1       586 8.94121E-05 2.56279E-06 0.00000E+00
 -1       587 8.91996E-05 2.58520E-06 0.00000E+00
 -1       588 8.89890E-05 2.60738E-06 0.00000E+00
 -1       589 8.88102E-05 2.62919E-06 0.00000E+00
 -1       590 8.86928E-05 2.65039E-06 0.00000E+00
 -1       591 8.95862E-05 2.52173E-06-1.55096E-25
 -1       592 8.95857E-05 2.46893E-06 4.13590E-25
 -1       593 8.95956E-05 2.38810E-06 4.13590E-25
 -1       594 8.96134E-05 2.28524E-06 4.13590E-25
 -1       595 8.96371E-05 2.16644E-06 0.00000E+00
 -1       596 8.96645E-05 2.03772E-06 0.00000E+00
 -1       597 8.96934E-05 1.90512E-06-4.13590E-25
 -1       598 8.97214E-05 1.77467E-06 0.00000E+00
 -1       599 8.97463E-05 1.65239E-06 0.00000E+00
 -1       600 8.97660E-05 1.54430E-06 2.06795E-25
 -1       601 8.97781E-05 1.45643E-06-4.13590E-25
 -1       602 8.97804E-05 1.39482E-06-2.06795E-25
 -1       603 8.97706E-05 1.36549E-06 0.00000E+00
 -1       604 8.97468E-05 1.37452E-06 0.00000E+00
 -1       605 8.97066E-05 1.42792E-06 0.00000E+00
 -1       606 9.06885E-05 1.43564E-06 3.30872E-24
 -1       607 9.06983E-05 1.86105E-06 0.00000E+00
 -1       608 9.07074E-05 2.37358E-06-3.30872E-24
 -1       609 9.07162E-05 2.96710E-06-1.65436E-24
 -1       610 9.07249E-05 3.63546E-06 0.00000E+00
 -1       611 9.07335E-05 4.37240E-06 1.65436E-24
 -1       612 9.07420E-05 5.17169E-06 0.00000E+00
 -1       613 9.07504E-05 6.02707E-06 0.00000E+00
 -1       614 9.07588E-05 6.93229E-06 0.00000E+00
 -1       615 9.07672E-05 7.88109E-06 0.00000E+00
 -1       616 9.07755E-05 8.86722E-06 0.00000E+00
 -1       617 9.07838E-05 9.88442E-06 0.00000E+00
 -1       618 9.07921E-05 1.09264E-05 0.00000E+00
 -1       619 9.08002E-05 1.19870E-05 0.00000E+00
 -1       620 9.08084E-05 1.30599E-05 0.00000E+00
 -1       621 9.04428E-05 1.17446E-06 0.00000E+00
 -1       622 9.02444E-05 1.24646E-06-8.27181E-25
 -1       623 9.00737E-05 1.31844E-06 0.00000E+00
 -1       624 8.99228E-05 1.39031E-06 8.27181E-25
 -1       625 8.97842E-05 1.46205E-06 0.00000E+00
 -1       626 9.06291E-05 1.45876E-06 0.00000E+00
 -1       627 9.05540E-05 1.89088E-06-3.30872E-24
 -1       628 9.04532E-05 2.39195E-06 0.00000E+00
 -1       629 9.03294E-05 2.95430E-06-3.30872E-24
 -1       630 9.01854E-05 3.57026E-06 0.00000E+00
 -1       631 9.00243E-05 4.23211E-06 0.00000E+00
 -1       632 8.98488E-05 4.93211E-06 0.00000E+00
 -1       633 8.96619E-05 5.66255E-06 0.00000E+00
 -1       634 8.94664E-05 6.41571E-06 0.00000E+00
 -1       635 8.92654E-05 7.18386E-06 0.00000E+00
 -1       636 8.90615E-05 7.95928E-06 1.65436E-24
 -1       637 8.88578E-05 8.73425E-06 0.00000E+00
 -1       638 8.86572E-05 9.50104E-06-1.65436E-24
 -1       639 8.84623E-05 1.02519E-05 0.00000E+00
 -1       640 8.82759E-05 1.09792E-05-1.65436E-24
 -1       656 8.99398E-05 1.37379E-05 0.00000E+00
 -1       657 8.94164E-05 1.33210E-05 3.30872E-24
 -1       658 8.91136E-05 1.29054E-05 0.00000E+00
 -1       659 8.88953E-05 1.24902E-05 3.30872E-24
 -1       660 8.86081E-05 1.20736E-05 0.00000E+00
 -1       661 9.04926E-05 1.51921E-05 8.27181E-25
 -1       662 9.01921E-05 1.61922E-05 0.00000E+00
 -1       663 8.99107E-05 1.71409E-05 1.65436E-24
 -1       664 8.96483E-05 1.80408E-05 0.00000E+00
 -1       665 8.94033E-05 1.88942E-05 0.00000E+00
 -1       666 8.91750E-05 1.97035E-05 0.00000E+00
 -1       667 8.89624E-05 2.04709E-05 0.00000E+00
 -1       668 8.87649E-05 2.11985E-05 0.00000E+00
 -1       669 8.85815E-05 2.18883E-05-1.65436E-24
 -1       670 8.84116E-05 2.25422E-05-8.27181E-25
 -1       671 8.82544E-05 2.31622E-05 0.00000E+00
 -1       672 8.81092E-05 2.37498E-05 8.27181E-25
 -1       673 8.79755E-05 2.43069E-05 1.65436E-24
 -1       674 8.78518E-05 2.48348E-05 0.00000E+00
 -1       675 8.77387E-05 2.53355E-05-4.13590E-25
 -1       676 8.98301E-05 2.61992E-05-1.65436E-24
 -1       677 8.93891E-05 2.61206E-05 0.00000E+00
 -1       678 8.89484E-05 2.60420E-05 1.65436E-24
 -1       679 8.85084E-05 2.59636E-05 0.00000E+00
 -1       680 8.80692E-05 2.58852E-05 1.65436E-24
 -1       771 1.56524E-05 4.24638E-06-5.29396E-23
 -1       772 1.15202E-05 1.21266E-05 0.00000E+00
 -1       773 8.01646E-06 1.83648E-05 0.00000E+00
 -1       774 5.09951E-06 2.30622E-05 0.00000E+00
 -1       775 2.72832E-06 2.63223E-05 5.29396E-23
 -1       776 8.60023E-07 2.82530E-05 2.64698E-23
 -1       777-5.48718E-07 2.89646E-05-5.29396E-23
 -1       778-1.54222E-06 2.85712E-05 0.00000E+00
 -1       779-2.16511E-06 2.71885E-05 0.00000E+00
 -1       780-2.46282E-06 2.49354E-05 0.00000E+00
 -1       781-2.48094E-06 2.19322E-05 0.00000E+00
 -1       782-2.26568E-06 1.83018E-05 1.32349E-23
 -1       783-1.86331E-06 1.41676E-05-2.64698E-23
 -1       784-1.32053E-06 9.65511E-06-1.32349E-23
 -1       785-6.84079E-07 4.89026E-06 2.64698E-23
 -1       786 8.87235E-05 2.50789E-06 4.13590E-25
 -1       787 8.87849E-05 2.37560E-06-8.27181E-25
 -1       788 8.88460E-05 2.26285E-06 0.00000E+00
 -1       789 8.89078E-05 2.15986E-06 0.00000E+00
 -1       790 8.89697E-05 2.06348E-06-1.65436E-24
 -1       791 8.90316E-05 1.97057E-06-8.27181E-25
 -1       792 8.90936E-05 1.88038E-06-1.65436E-24
 -1       793 8.91556E-05 1.79215E-06 8.27181E-25
 -1       794 8.92176E-05 1.70644E-06-1.65436E-24
 -1       795 8.92796E-05 1.62385E-06 8.27181E-25
 -1       796 8.93416E-05 1.54708E-06 1.65436E-24
 -1       797 8.94036E-05 1.47884E-06 0.00000E+00
 -1       798 8.94656E-05 1.42767E-06-1.65436E-24
 -1       799 8.95274E-05 1.40216E-06-8.27181E-25
 -1       800 8.95892E-05 1.42833E-06 1.65436E-24
 -1       801 8.26594E-05 2.35904E-06 0.00000E+00
 -1       802 6.43702E-05 1.89365E-06 0.00000E+00
 -1       803 4.04774E-05 1.32176E-06-1.32349E-23
 -1       804 1.77379E-05 7.68388E-07 0.00000E+00
 -1       805 2.24494E-06 3.42063E-07 0.00000E+00
 -1       806 8.86518E-05 2.45465E-06 0.00000E+00
 -1       807 8.86327E-05 2.24509E-06 0.00000E+00
 -1       808 8.86094E-05 2.04542E-06-1.65436E-24
 -1       809 8.85806E-05 1.85943E-06-1.65436E-24
 -1       810 8.85452E-05 1.69092E-06-3.30872E-24
 -1       811 8.85018E-05 1.54362E-06 8.27181E-25
 -1       812 8.84490E-05 1.42125E-06-3.30872E-24
 -1       813 8.83854E-05 1.32753E-06 0.00000E+00
 -1       814 8.83097E-05 1.26615E-06-1.65436E-24
 -1       815 8.82205E-05 1.24084E-06-8.27181E-25
 -1       816 8.81164E-05 1.25528E-06 0.00000E+00
 -1       817 8.79960E-05 1.31318E-06 0.00000E+00
 -1       818 8.78580E-05 1.41824E-06 0.00000E+00
 -1       819 8.77010E-05 1.57414E-06 0.00000E+00
 -1       820 8.75238E-05 1.78456E-06 0.00000E+00
 -1       821 8.95589E-05 1.65381E-06 0.00000E+00
 -1       822 8.94620E-05 1.73312E-06 0.00000E+00
 -1       823 8.93655E-05 1.82486E-06 0.00000E+00
 -1       824 8.92679E-05 1.98353E-06-1.65436E-24
 -1       825 8.91703E-05 2.25011E-06 0.00000E+00
 -1       826 8.90724E-05 2.66511E-06-1.65436E-24
 -1       827 8.89745E-05 3.23913E-06 3.30872E-24
 -1       828 8.88763E-05 3.98209E-06 1.65436E-24
 -1       829 8.87781E-05 4.86984E-06-3.30872E-24
 -1       830 8.86798E-05 5.87761E-06 0.00000E+00
 -1       831 8.85814E-05 6.95646E-06 0.00000E+00
 -1       832 8.84833E-05 8.05711E-06 0.00000E+00
 -1       833 8.83852E-05 9.12589E-06 0.00000E+00
 -1       834 8.82882E-05 1.01093E-05 8.27181E-25
 -1       835 8.81911E-05 1.09709E-05 0.00000E+00
 -1       836 8.94132E-05 1.61907E-06 0.00000E+00
 -1       837 8.90613E-05 1.70768E-06 0.00000E+00
 -1       838 8.86356E-05 1.79613E-06-1.65436E-24
 -1       839 8.81770E-05 1.88400E-06 0.00000E+00
 -1       840 8.77269E-05 1.97174E-06 0.00000E+00
 -1       856 8.80739E-05 1.23559E-05 2.06795E-25
 -1       857 8.80449E-05 1.31410E-05 2.06795E-25
 -1       858 8.80161E-05 1.40142E-05 0.00000E+00
 -1       859 8.79866E-05 1.49587E-05 0.00000E+00
 -1       860 8.79571E-05 1.59581E-05 8.27181E-25
 -1       861 8.79275E-05 1.69957E-05 0.00000E+00
 -1       862 8.78978E-05 1.80549E-05 0.00000E+00
 -1       863 8.78680E-05 1.91189E-05 4.13590E-25
 -1       864 8.78383E-05 2.01711E-05 0.00000E+00
 -1       865 8.78086E-05 2.11947E-05 0.00000E+00
 -1       866 8.77790E-05 2.21732E-05 8.27181E-25
 -1       867 8.77493E-05 2.30898E-05 0.00000E+00
 -1       868 8.77198E-05 2.39280E-05 8.27181E-25
 -1       869 8.76902E-05 2.46715E-05 0.00000E+00
 -1       870 8.76608E-05 2.53037E-05 0.00000E+00
 -1       871 8.76173E-05 1.16740E-05 0.00000E+00
 -1       872 8.72364E-05 1.16710E-05 0.00000E+00
 -1       873 8.69131E-05 1.16676E-05 0.00000E+00
 -1       874 8.66031E-05 1.16637E-05 5.16988E-26
 -1       875 8.62619E-05 1.16593E-05 4.13590E-25
 -1       876 8.79362E-05 1.23648E-05-3.30872E-24
 -1       877 8.77557E-05 1.31054E-05 1.65436E-24
 -1       878 8.75586E-05 1.38906E-05 3.30872E-24
 -1       879 8.73472E-05 1.47148E-05 0.00000E+00
 -1       880 8.71233E-05 1.55722E-05-3.30872E-24
 -1       881 8.68891E-05 1.64571E-05 0.00000E+00
 -1       882 8.66467E-05 1.73637E-05 0.00000E+00
 -1       883 8.63984E-05 1.82864E-05 0.00000E+00
 -1       884 8.61461E-05 1.92194E-05 3.30872E-24
 -1       885 8.58920E-05 2.01571E-05 0.00000E+00
 -1       886 8.56383E-05 2.10938E-05-3.30872E-24
 -1       887 8.53870E-05 2.20237E-05-1.65436E-24
 -1       888 8.51403E-05 2.29413E-05 1.65436E-24
 -1       889 8.48999E-05 2.38405E-05-8.27181E-25
 -1       890 8.46680E-05 2.47158E-05 8.27181E-25
 -1       891 8.72130E-05 2.57670E-05 8.27181E-25
 -1       892 8.67770E-05 2.57253E-05 8.27181E-25
 -1       893 8.63025E-05 2.56836E-05-8.27181E-25
 -1       894 8.57690E-05 2.56420E-05-2.06795E-25
 -1       895 8.51558E-05 2.56005E-05-4.13590E-25
 -1       956 8.72353E-05 2.43997E-06 0.00000E+00
 -1       957 8.71430E-05 2.88590E-06 1.65436E-24
 -1       958 8.70505E-05 3.38467E-06 3.30872E-24
 -1       959 8.69577E-05 3.92965E-06-8.27181E-25
 -1       960 8.68649E-05 4.51423E-06 0.00000E+00
 -1       961 8.67720E-05 5.13174E-06-8.27181E-25
 -1       962 8.66791E-05 5.77553E-06 0.00000E+00
 -1       963 8.65862E-05 6.43894E-06-1.65436E-24
 -1       964 8.64932E-05 7.11528E-06 0.00000E+00
 -1       965 8.64003E-05 7.79789E-06 0.00000E+00
 -1       966 8.63074E-05 8.48011E-06 0.00000E+00
 -1       967 8.62145E-05 9.15525E-06 1.65436E-24
 -1       968 8.61216E-05 9.81665E-06 3.30872E-24
 -1       969 8.60290E-05 1.04577E-05 0.00000E+00
 -1       970 8.59366E-05 1.10717E-05 0.00000E+00
 -1       971 8.57590E-05 1.22510E-05 1.65436E-24
 -1       972 8.56713E-05 1.29270E-05 1.65436E-24
 -1       973 8.55834E-05 1.36717E-05 1.65436E-24
 -1       974 8.54953E-05 1.44762E-05 1.65436E-24
 -1       975 8.54072E-05 1.53316E-05 1.65436E-24
 -1       976 8.53190E-05 1.62291E-05-8.27181E-25
 -1       977 8.52308E-05 1.71598E-05 0.00000E+00
 -1       978 8.51425E-05 1.81148E-05 0.00000E+00
 -1       979 8.50542E-05 1.90851E-05 0.00000E+00
 -1       980 8.49660E-05 2.00619E-05 1.65436E-24
 -1       981 8.48778E-05 2.10363E-05 0.00000E+00
 -1       982 8.47896E-05 2.19993E-05 0.00000E+00
 -1       983 8.47016E-05 2.29421E-05 3.30872E-24
 -1       984 8.46140E-05 2.38557E-05 0.00000E+00
 -1       985 8.45267E-05 2.47312E-05 1.65436E-24
 -3
    1PSTEP                        10           5           1          
  100CL  105 5.03906E-01         409                     0    5           1
 -4  STRESS      6    1
 -5  SXX         1    4    1    1
 -5  SYY         1    4    2    2
 -5  SZZ         1    4    3    3
 -5  SXY         1    4    1    2
 -5  SYZ         1    4    2    3
 -5  SZX         1    4    3    1
 -1         1-1.94898E+06-8.55089E+05-4.06924E+05-1.14604E+06 3.34694E-10-4.17640E-09
 -1         2 2.64709E+03-6.50384E+03 8.65555E+03-2.39124E+01-1.18661E-10 1.31308E-09
 -1         3-1.47452E+02-8.66452E+05 2.04872E+02-4.01655E+02-2.24961E-10-6.46469E-09
 -1         5-4.10124E+00 2.63678E+05 6.88218E+00 1.15878E-01 1.19651E-10-8.66976E-09
 -1         8-9.26665E+05-3.63490E+05-6.67370E+04-5.64438E+05-2.18279E-11 5.84987E-09
 -1         9-1.77023E+06-5.22840E+05-2.03603E+05-5.56403E+05 4.31610E-09 2.16533E-09
 -1        10-7.37302E+02-9.02662E+05-1.22011E+03-2.71587E+03-4.41833E-09-1.12561E-08
 -1        12-1.27982E+00 2.63692E+05 2.23010E+02 9.67526E-01 2.02842E-10 1.45146E-08
 -1        15 1.99991E+03 1.09907E+03 6.46471E+03 4.29295E+00-4.10978E-11 2.05887E-09
 -1        16-3.21326E+06-1.25162E+06-5.15985E+05-1.30615E+06 1.09382E-08 1.14475E-09
 -1        17-1.06734E+06-6.25635E+05-2.08817E+05-5.61930E+05-6.54836E-09-3.69619E-10
 -1        18-4.40665E+04-1.53951E+04-3.11569E+04-6.57033E+04 1.96144E-09 2.14050E-09
 -1        19 8.29988E+04 9.80866E+04-5.45110E+02 1.62831E+04-5.19140E-10-1.82408E-09
 -1        20-3.65069E+04-3.91926E+05-8.65864E+04 2.78343E+04 3.35513E-09-3.72953E-09
 -1        21-3.65977E+01-2.24996E+05-7.24730E+02-6.80887E+01-1.45378E-08-4.94661E-09
 -1        24-3.22551E+06-9.05682E+05-4.08909E+05-1.18630E+06-3.07167E-08-1.28154E-08
 -1        25-6.54524E+03-1.78780E+05-2.29756E+04-1.14471E+05 6.67660E-10 5.16102E-09
 -1        26-2.05546E+04 6.65073E+04-1.36018E+04-8.51821E+03 1.36242E-09-2.46067E-09
 -1        27-6.23296E+04-2.14844E+05-8.05552E+04 4.83792E+04 5.54701E-09 2.20037E-09
 -1        28 1.73929E+04-6.23650E+04 1.27232E+04 1.95682E+04 1.88768E-09-7.55740E-09
 -1        32-9.20240E+05-5.51523E+05 2.62634E+05-5.58505E+05-2.02490E-08 6.41089E-09
 -1        33-1.23203E+05 6.27749E+04 2.22887E+04-3.57273E+04 1.02616E-09-2.67695E-09
 -1        34-1.59129E+05-1.59415E+04 3.82908E+02 4.92782E+04 2.18346E-09 4.34648E-09
 -1        35-1.76965E+04-2.47801E+04-9.72933E+02 3.91934E+04 4.84827E-09 1.10091E-08
 -1        51 1.72828E+04-3.62516E+05 4.33946E+04-9.52233E+05 3.05590E-10 1.85973E-08
 -1        52 1.00472E+04-3.60456E+05 2.80265E+04-1.11058E+06 5.96629E-10 1.83354E-08
 -1        53 7.02397E+03-3.73925E+05 2.28997E+04-9.48902E+05 4.58385E-10 1.03464E-08
 -1        54 1.97842E+04-3.72592E+05 3.55823E+04-1.11404E+06-9.45874E-11-1.84627E-08
 -1        55 3.90457E+04-3.86013E+05 6.28093E+04-9.48361E+05 8.87667E-10 5.76620E-09
 -1        56-3.73276E+06-4.18891E+05-2.99230E+05-1.44035E+06-2.05910E-09-3.27418E-09
 -1        57-3.85641E+06-6.86473E+05-2.01751E+05-1.42490E+06 4.15639E-10 1.21945E-08
 -1        58-3.79341E+06-5.13211E+05-7.03863E+04-1.42089E+06-1.21963E-09 2.49202E-09
 -1        59-3.78624E+06-5.75764E+05-4.20179E+04-1.44806E+06 1.51499E-09-3.45608E-10
 -1        60-3.80223E+06-5.26390E+05-1.64246E+04-1.41829E+06-1.99952E-09 4.06271E-09
 -1        61-3.77767E+06-5.58606E+05-9.31899E+03-1.44905E+06 6.44036E-10 4.75438E-09
 -1        62-3.80180E+06-5.29978E+05-4.47224E+03-1.41999E+06-5.81167E-10 1.01155E-08
 -1        63-3.78128E+06-5.51576E+05-3.59986E+03-1.44338E+06 1.14085E-09-6.52778E-09
 -1        64-3.79849E+06-5.33444E+05-4.11112E+03-1.42389E+06 1.95337E-09 9.41668E-09
 -1        65-3.78996E+06-5.45394E+05-8.11709E+03-1.43413E+06 1.28648E-09 7.74207E-10
 -1        66-3.79305E+06-5.36259E+05-1.43097E+04-1.42916E+06-7.27709E-10-3.74712E-09
 -1        67-3.80735E+06-5.50171E+05-3.62945E+04-1.42178E+06 5.05906E-10-2.70620E-09
 -1        68-3.78122E+06-5.29027E+05-6.09130E+04-1.43614E+06 4.12092E-09 1.58579E-08
 -1        69-3.87413E+06-6.40030E+05-1.74412E+05-1.39530E+06 2.76941E-09-3.25963E-09
 -1        70-3.72704E+06-4.49084E+05-2.58747E+05-1.45479E+06 1.57161E-09-3.31784E-09
 -1        86-1.33044E+03-9.38038E+03 9.23286E+03 1.19349E+01 1.15529E-09-1.39773E-08
 -1        87 8.80636E+03-3.52864E+03 1.93126E+04-3.65989E+01 1.93290E-09 3.21961E-09
 -1        88-7.47004E+03-1.23546E+04 2.95313E+04 2.46159E+01 2.80124E-09 1.75817E-10
 -1        89 5.56430E+04 1.81924E+04 7.96671E+04 3.54596E+01 4.31191E-09-2.53408E-10
 -1        90-4.80068E+04-3.10825E+04 1.12562E+05-5.96217E+01 4.54020E-09 5.80280E-09
 -1       121-2.22046E+02-8.67056E+05 1.35151E+02 2.00492E+02 4.65157E-10-8.99672E-09
 -1       122-7.84760E+01-8.66415E+05 4.39840E+02-8.02779E+02-1.85417E-09 4.18004E-09
 -1       123-2.66811E+02-8.67105E+05 6.49587E+02 6.00286E+02 1.43501E-09-1.40426E-09
 -1       124 7.37056E+02-8.65940E+05 1.82593E+03-1.76031E+03-3.20074E-09-6.06087E-09
 -1       125-7.85309E+02-8.67565E+05 2.73642E+03 1.15697E+03 2.03272E-09-3.79623E-09
 -1       191-4.53439E+00 2.63700E+05 8.27046E+00-5.83680E-02 1.23438E-10 4.83851E-10
 -1       192-4.73322E+00 2.63678E+05 1.45694E+01 5.89119E-01 1.63207E-10-6.00699E-09
 -1       193-6.21485E+00 2.63700E+05 2.71380E+01-5.33770E-01 1.72991E-10-1.22327E-09
 -1       194-6.76705E+00 2.63680E+05 5.51024E+01 1.42617E+00 5.34897E-11-3.24872E-09
 -1       195-9.44436E+00 2.63698E+05 1.07826E+02-9.00913E-01 3.29315E-10-1.19826E-09
 -1       251-4.53022E+05-1.95869E+04 4.54607E+04-1.27512E+03 1.21418E-10 4.46562E-09
 -1       252-4.30720E+05 2.26329E+04 3.25384E+04-4.90351E+03-6.84111E-10 5.10499E-09
 -1       253-4.45227E+05-3.05864E+03 1.16842E+04 1.11221E+03-7.72843E-10 1.19371E-09
 -1       254-4.40173E+05 3.50718E+03 7.63140E+03-9.25788E+03 8.60155E-10-1.37879E-09
 -1       255-4.43636E+05-4.83862E+02 3.01216E+03 3.07908E+03 4.07908E-10 3.21302E-09
 -1       256-4.42324E+05 5.82123E+02 1.97661E+03-1.23878E+04 1.37209E-09 2.00737E-09
 -1       257-4.43145E+05-9.26034E+01 1.05688E+03 4.24215E+03 6.79933E-10 5.06367E-09
 -1       258-4.42873E+05 2.52164E+02 1.09867E+03-1.37069E+04-8.07933E-10 1.42963E-08
 -1       259-4.43123E+05-1.28679E+02 1.41924E+03 4.39821E+03-3.09811E-10 7.82512E-09
 -1       260-4.42310E+05 9.14575E+02 2.96394E+03-1.29874E+04 3.15083E-10-1.90635E-08
 -1       261-4.43687E+05-7.67889E+02 4.87306E+03 3.52265E+03 1.25908E-09 1.82763E-09
 -1       262-4.39307E+05 5.68184E+03 1.21638E+04-1.03565E+04-1.84599E-10 3.07955E-09
 -1       263-4.46060E+05-4.92723E+03 1.90369E+04 1.76728E+03-4.02451E-10 1.03682E-09
 -1       264-4.24258E+05 3.66513E+04 5.25131E+04-6.34059E+03-2.59408E-09 1.10977E-08
 -1       265-4.58651E+05-3.16799E+04 7.38352E+04-4.93339E+02-1.44985E-09 1.09976E-08
 -1       266-3.62039E+04-1.69263E+04 8.49576E+04-9.18679E+01 5.82077E-11 1.06400E-08
 -1       267 4.19716E+04 1.97321E+04 6.00403E+04 1.05982E+02 7.27596E-11 3.08636E-09
 -1       268-5.62826E+03-2.79439E+03 2.23171E+04-1.35048E+01-7.27596E-11-5.10060E-09
 -1       269 6.64538E+03 3.34454E+03 1.45054E+04 1.57302E+01 8.00355E-11 2.91602E-09
 -1       270-9.97479E+02-5.49523E+02 7.00196E+03-2.13474E+00 5.22959E-12 6.39902E-09
 -1       271-3.47702E+06-4.35056E+05-2.65960E+05-1.35544E+06 5.45697E-11 3.30328E-09
 -1       272-3.56277E+06-6.38516E+05-1.70969E+05-1.36366E+06 3.79487E-10-8.49832E-09
 -1       273-3.52861E+06-4.99769E+05-6.28339E+04-1.34182E+06 8.77208E-10-6.34827E-09
 -1       274-3.50179E+06-5.59864E+05-3.51257E+04-1.38506E+06 4.04179E-09 1.19308E-08
 -1       275-3.53733E+06-5.04764E+05-1.46283E+04-1.33772E+06-8.88576E-10 7.73616E-09
 -1       276-3.49111E+06-5.54476E+05-7.74175E+03-1.39193E+06 1.01500E-09-6.25528E-09
 -1       277-3.53980E+06-5.03863E+05-3.79819E+03-1.33573E+06 3.31966E-10-3.18141E-09
 -1       278-3.48848E+06-5.55545E+05-2.74047E+03-1.39475E+06-4.66230E-10 5.41766E-09
 -1       279-3.54032E+06-5.03386E+05-2.92529E+03-1.33520E+06-1.56246E-09 1.44269E-09
 -1       280-3.48921E+06-5.55865E+05-5.36413E+03-1.39429E+06-3.36513E-09 9.03583E-10
 -1       281-3.53902E+06-5.03623E+05-9.79393E+03-1.33613E+06-3.19960E-09-2.46473E-09
 -1       282-3.49609E+06-5.59663E+05-2.34248E+04-1.38996E+06-1.66233E-09 7.90169E-09
 -1       283-3.53310E+06-5.00456E+05-4.18105E+04-1.33900E+06 8.94033E-10-1.27147E-09
 -1       284-3.53716E+06-6.11318E+05-1.13753E+05-1.37479E+06 1.18831E-09-5.90808E-09
 -1       285-3.49820E+06-4.58066E+05-1.77035E+05-1.34872E+06 6.67569E-10-4.66389E-09
 -1       301 1.76962E+04-3.51536E+04 1.32234E+05-7.37201E+04-6.33008E-10 6.49788E-09
 -1       302 1.88200E+04-1.70809E+03 9.08649E+04-1.08503E+05 9.62473E-10 9.82254E-11
 -1       303 1.03392E+03-2.25370E+04 7.65282E+04-7.38424E+04-9.07676E-10-1.36515E-08
 -1       304 2.79751E+04 7.10534E+03 1.21030E+05-1.08116E+05 1.04956E-09 1.90994E-11
 -1       305 2.73008E+04-4.33384E+04 1.98977E+05-7.40974E+04-7.49424E-10 9.54969E-10
 -1       306-4.73070E+06-5.45005E+05-3.56694E+05-1.84314E+06 3.07773E-09-2.95404E-09
 -1       307-4.89327E+06-8.62330E+05-2.42409E+05-1.79929E+06-2.06728E-09 7.27596E-10
 -1       308-4.82552E+06-6.41137E+05-8.40212E+04-1.79279E+06 1.14233E-09 9.88439E-09
 -1       309-4.77418E+06-7.61011E+05-5.05389E+04-1.87164E+06 4.15301E-09 1.15169E-08
 -1       310-4.84992E+06-6.43605E+05-1.95661E+04-1.77204E+06-7.34076E-10 4.90490E-09
 -1       311-4.74969E+06-7.53996E+05-1.13530E+04-1.89174E+06 7.03062E-09-3.12241E-09
 -1       312-4.85039E+06-6.47462E+05-5.62369E+03-1.77314E+06-1.09867E-09-9.57100E-09
 -1       313-4.76401E+06-7.33364E+05-4.62306E+03-1.87020E+06-6.91557E-09-8.65839E-10
 -1       314-4.83486E+06-6.64704E+05-6.58685E+03-1.79306E+06 1.10231E-09-4.94902E-09
 -1       315-4.80516E+06-6.94709E+05-1.21082E+04-1.82066E+06-3.49496E-09-1.30422E-09
 -1       316-4.80845E+06-6.86731E+05-2.29524E+04-1.82207E+06 2.71484E-09 6.40648E-09
 -1       317-4.86725E+06-6.71969E+05-5.76119E+04-1.76441E+06 7.38214E-09 4.51291E-09
 -1       318-4.77338E+06-6.87495E+05-9.58663E+04-1.84955E+06-7.99355E-09 3.14321E-09
 -1       319-4.99447E+06-8.03309E+05-2.78280E+05-1.70272E+06-6.12454E-09-7.14863E-09
 -1       320-4.68309E+06-5.57078E+05-4.07404E+05-1.88383E+06 1.06957E-08-4.81668E-09
 -1       336 5.42817E+02-9.38636E+05-5.20453E+03 1.55359E+03-8.92260E-09-2.82307E-09
 -1       337-1.91483E+03-9.39751E+05-5.76593E+03-3.88284E+03-1.64403E-08-7.03312E-09
 -1       338 3.66824E+02-9.38756E+05-7.50386E+03 2.31825E+03-1.15742E-08 6.47560E-10
 -1       339-7.77780E+03-9.43450E+05-1.64346E+04-5.38551E+03-2.10375E-08 1.86956E-08
 -1       340 5.19642E+03-9.35084E+05-2.54427E+04 3.04427E+03-1.39635E-08 1.71513E-08
 -1       406 1.57959E+01 2.63688E+05 4.40321E+02-7.91479E-02 3.42567E-10-8.54470E-10
 -1       407 1.52222E+02 2.63769E+05 9.35740E+02-6.30364E+00-1.85025E-11-2.38761E-08
 -1       408 4.80426E+02 2.63621E+05 1.86891E+03 6.51908E+00 4.95106E-10-8.95807E-09
 -1       409 2.01952E+03 2.64366E+05 4.20736E+03-6.33856E+01-4.88853E-12 7.13044E-10
 -1       410 5.80471E+03 2.63089E+05 8.58919E+03 5.94036E+01 5.01132E-10-1.66619E-09
 -1       521-7.80672E+06-7.58578E+05-6.72461E+05-2.62921E+06-9.12041E-09 1.66765E-08
 -1       522-6.37755E+06-1.92449E+06-2.84359E+05-3.59806E+06-6.61221E-08-1.53595E-08
 -1       523-7.96708E+06-5.12403E+05-1.44113E+05-2.10673E+06 6.17001E-09-3.13885E-08
 -1       524-6.39525E+06-2.03066E+06-5.63121E+04-4.27680E+06 7.12853E-08-6.22376E-08
 -1       525-7.97655E+06-5.10952E+05-3.49583E+04-2.07166E+06 6.41812E-08-3.55822E-08
 -1       526-6.25416E+06-1.76294E+06 5.71582E+04-3.75864E+06-9.56788E-10-1.00190E-08
 -1       527-7.94922E+06-8.95369E+05-1.11358E+05-2.52526E+06 1.05938E-08 4.98039E-09
 -1       528-6.54742E+06-1.01153E+06 1.33829E+05-2.59425E+06 2.24099E-09 3.88536E-08
 -1       529-7.50228E+06-1.38998E+06-1.24520E+05-3.09167E+06-1.49885E-09 1.29512E-08
 -1       530-7.79090E+06-1.15289E+05 7.39117E+04-1.80550E+06-6.57456E-08 5.16884E-08
 -1       531-6.85525E+06-1.68249E+06-4.80412E+04-3.40885E+06-1.07568E-07 3.69255E-09
 -1       532-8.72656E+06 3.07719E+05-5.31034E+04-1.61067E+06 5.67161E-08-7.98982E-08
 -1       533-6.74661E+06-1.68906E+06-1.27347E+05-3.44356E+06 2.73649E-08-1.05720E-07
 -1       534-8.23324E+06-1.66871E+05-2.88843E+05-1.68199E+06-3.02680E-08 7.87077E-08
 -1       535-7.22909E+06-1.29475E+06-6.40579E+05-3.22806E+06-1.05647E-08 5.33182E-08
 -1       536-3.18683E+05-1.37999E+04 3.11091E+04-6.31938E+03-1.36578E-09 8.52197E-09
 -1       537-3.02442E+05 1.59580E+04 2.24991E+04 1.27157E+04-1.88925E-08 8.97626E-09
 -1       538-3.12089E+05-2.07304E+03 8.11965E+03-7.14237E+03 2.77866E-09 1.60421E-08
 -1       539-3.06669E+05 2.55522E+03 5.70086E+03 1.12508E+04 1.50288E-08 1.82351E-08
 -1       540-3.14406E+05-4.46171E+02 1.38745E+03-4.85373E+03 3.73859E-10 9.72216E-09
 -1       541-3.01830E+05 6.66117E+02 2.91698E+03 4.55575E+03 3.26082E-09 3.72449E-09
 -1       542-3.16778E+05-3.08780E+02-7.86729E+02-4.46336E+02 6.76658E-09 2.33075E-09
 -1       543-3.01700E+05 2.77723E+02 1.81799E+03-4.35617E+03-2.17960E-09-3.80282E-10
 -1       544-3.14532E+05-6.75186E+01-1.17563E+03 4.05684E+03-4.63859E-09-8.26947E-09
 -1       545-3.07646E+05-3.87977E+02-6.07238E+02-1.13873E+04 2.90493E-09-1.05584E-08
 -1       546-3.10979E+05 4.77181E+02-2.35483E+03 6.58508E+03 2.56510E-09-1.23191E-08
 -1       547-3.11370E+05-2.83774E+03-5.63922E+03-1.33691E+04-1.62219E-08-1.15161E-08
 -1       548-3.10873E+05 2.43678E+03-9.50944E+03 6.03942E+03-1.41356E-08-4.37694E-09
 -1       549-3.13532E+05-1.75103E+04-2.42191E+04-9.39158E+03-8.10495E-09-4.23370E-10
 -1       550-3.08699E+05 1.50384E+04-3.70283E+04 2.60635E+03 4.90218E-10 1.33332E-09
 -1       551 1.22563E+04-4.85786E+05 2.25483E+04-8.12999E+05-3.76094E-08-1.03319E-09
 -1       552 2.77075E+04-4.92496E+05 2.97480E+04-1.15756E+06-2.81361E-08 3.16650E-08
 -1       553 1.94216E+04-4.98208E+05 4.49531E+04-8.10064E+05-4.64788E-08 2.31666E-08
 -1       554 5.21441E+04-4.84274E+05 9.49217E+04-1.15882E+06-2.93876E-08 1.53564E-08
 -1       555 4.70455E+04-5.16555E+05 1.69560E+05-8.10880E+05-4.72137E-08 2.51021E-09
 -1       556 8.22473E+04-1.55766E+05 5.28788E+04-2.00007E+05-9.11677E-09-5.21686E-09
 -1       557 1.45664E+05-2.07678E+05 2.78862E+04-2.51250E+05-1.25874E-09 8.93260E-09
 -1       558 8.14105E+04-1.62475E+05 1.11077E+04-1.94276E+05-9.99717E-09 1.08776E-09
 -1       559 1.36236E+05-2.14663E+05 5.69231E+03-2.55625E+05-1.94996E-09 1.16415E-09
 -1       560 7.89998E+04-1.60896E+05 2.25724E+03-1.95841E+05-6.91216E-10 1.07939E-08
 -1       561 1.32656E+05-2.13635E+05 1.23984E+03-2.57903E+05 1.25510E-09 5.10590E-09
 -1       562 7.70752E+04-1.59627E+05 4.25326E+02-1.97225E+05 1.45519E-09 4.17640E-09
 -1       563 1.30397E+05-2.12659E+05 3.02882E+02-2.59348E+05-2.98314E-10 2.60576E-09
 -1       564 7.58480E+04-1.58842E+05 9.90410E+01-1.98095E+05 2.50293E-09 1.62618E-09
 -1       565 1.29169E+05-2.12130E+05 9.00514E+01-2.60122E+05 1.29512E-09-5.58612E-09
 -1       566 7.53547E+04-1.58520E+05 1.04321E+01-1.98447E+05 6.69388E-10 3.54157E-09
 -1       567 1.28930E+05-2.12015E+05-5.82582E+01-2.60203E+05 8.86905E-09-3.36513E-10
 -1       568 7.56306E+04-1.58703E+05-2.52354E+02-1.98323E+05-1.40608E-09-5.54610E-09
 -1       569 1.29003E+05-2.11871E+05-5.95869E+02-2.58955E+05-5.64705E-09-1.71713E-09
 -1       570 7.72399E+04-1.60064E+05-1.37025E+03-1.98235E+05-1.08412E-09-4.34193E-09
 -1       571 1.93035E+05 7.07641E+03 1.04697E+04-4.99945E+04 9.29504E-10-1.87720E-09
 -1       572 1.94590E+05 2.47066E+03 5.12962E+03-5.48081E+04 8.73115E-10-1.12937E-09
 -1       573 1.93657E+05 5.98522E+02 2.27881E+03-4.98675E+04-2.20552E-10 2.61934E-09
 -1       574 1.93839E+05 2.05695E+02 1.14185E+03-5.49509E+04 3.60615E-10 1.30194E-08
 -1       575 1.93725E+05 4.02799E+01 5.38238E+02-4.98507E+04 2.35696E-09 1.35419E-08
 -1       576 1.93737E+05 2.30958E+01 2.74174E+02-5.49700E+04 4.58556E-10-1.72486E-09
 -1       577 1.93736E+05 1.00387E+01 1.35344E+02-4.98485E+04-4.44970E-10 9.81299E-09
 -1       578 1.93728E+05 1.29728E+01 7.44229E+01-5.49723E+04-2.53954E-09 2.18688E-09
 -1       579 1.93750E+05 6.57823E+00 4.65108E+01-4.98484E+04 6.73026E-10-8.83119E-10
 -1       580 1.93747E+05 5.12049E+00 4.52261E+01-5.49694E+04-2.51430E-09-6.28916E-10
 -1       581 1.93774E+05-2.80039E+00 6.30305E+01-4.98514E+04-4.60204E-10-5.98129E-09
 -1       582 1.93791E+05 6.69591E+00 1.21690E+02-5.49394E+04-9.76797E-10 6.90670E-09
 -1       583 1.93803E+05 3.42003E+01 2.33867E+02-4.98784E+04 9.09495E-13 5.59248E-09
 -1       584 1.93913E+05 2.16744E+02 5.25086E+02-5.47138E+04 2.18279E-11 7.06950E-09
 -1       585 1.93781E+05 6.77923E+02 1.06610E+03-5.00774E+04 1.18598E-09-5.51518E-09
 -1       586-2.26114E+03 6.39210E+04-2.93192E+03-1.71902E+05 8.95852E-11 1.09358E-08
 -1       587-4.72622E+02 6.35349E+04-2.08852E+02-1.89177E+05 2.38288E-10 1.32006E-08
 -1       588 6.79999E+02 6.35949E+04 2.37369E+03-1.71803E+05 7.91260E-11 1.11586E-08
 -1       589 3.40061E+03 6.48840E+04 6.75000E+03-1.89008E+05 2.43745E-10 3.91174E-09
 -1       590 9.80535E+03 6.28141E+04 1.43933E+04-1.72074E+05 2.68301E-11 2.11548E-09
 -1       591-4.03775E+04-1.15450E+04-1.37285E+04-2.08738E+04 7.73696E-10 3.28873E-09
 -1       592-4.17301E+04-1.48498E+04-7.43595E+03-2.43788E+04-1.41142E-10-3.78532E-09
 -1       593-4.17650E+04-1.05341E+04-3.09564E+03-2.18662E+04-5.90035E-10-8.22342E-09
 -1       594-3.98182E+04-1.28532E+04-1.54392E+03-2.44729E+04-1.44337E-09 8.33523E-10
 -1       595-4.18713E+04-1.05295E+04-7.09492E+02-2.19117E+04 9.72364E-10 9.93390E-09
 -1       596-3.96888E+04-1.27618E+04-3.61593E+02-2.44594E+04 1.09122E-09-3.30488E-10
 -1       597-4.18849E+04-1.05383E+04-1.98915E+02-2.19136E+04 9.88841E-10-2.12538E-10
 -1       598-3.96764E+04-1.27583E+04-1.63601E+02-2.44556E+04-9.04606E-10 6.96247E-09
 -1       599-4.18838E+04-1.05384E+04-2.13606E+02-2.19132E+04-1.18973E-09-9.83948E-09
 -1       600-3.96900E+04-1.27630E+04-4.00517E+02-2.44589E+04-6.96218E-10-9.15662E-09
 -1       601-4.18668E+04-1.05290E+04-7.92081E+02-2.19104E+04-1.29080E-09-1.25389E-08
 -1       602-3.98346E+04-1.28651E+04-1.72727E+03-2.44721E+04 9.09495E-11 1.33241E-10
 -1       603-4.17464E+04-1.05359E+04-3.46446E+03-2.18596E+04-2.56068E-09-5.44560E-10
 -1       604-4.19814E+04-1.50915E+04-8.32209E+03-2.43560E+04 2.14186E-10-6.23481E-09
 -1       605-4.01841E+04-1.16743E+04-1.53643E+04-2.07569E+04 8.93465E-10 9.43510E-09
 -1       606 2.66010E+04-9.27921E+03-1.67006E+04 2.58771E+04 7.97263E-09-8.63383E-09
 -1       607 2.37411E+04-2.99686E+03-8.31591E+03 2.90496E+04 1.64864E-08 1.15824E-09
 -1       608 2.53626E+04-5.08842E+02-3.72412E+03 2.56716E+04 1.21672E-08-3.23416E-09
 -1       609 2.50395E+04-1.35182E+02-1.88091E+03 2.92773E+04-1.63891E-09 1.40199E-09
 -1       610 2.52115E+04 2.07730E+01-8.98535E+02 2.56485E+04-3.00133E-09 3.67527E-09
 -1       611 2.51503E+04 3.32832E+01-4.53136E+02 2.93022E+04-6.73026E-09-2.12503E-09
 -1       612 2.51705E+04 3.62064E+01-2.16829E+02 2.56463E+04-3.62888E-09 2.39743E-09
 -1       613 2.51471E+04 4.20002E+01-9.86663E+01 2.93051E+04-3.89264E-09 9.57243E-11
 -1       614 2.51478E+04 3.74002E+01-2.72665E+01 2.56455E+04 2.30102E-10 4.86784E-09
 -1       615 2.51349E+04 4.76991E+01 3.16202E+01 2.93056E+04 5.14228E-09 9.08358E-10
 -1       616 2.51306E+04 4.32993E+01 1.03742E+02 2.56457E+04-9.41782E-10 7.47104E-09
 -1       617 2.51409E+04 7.39175E+01 2.40337E+02 2.93051E+04 5.86397E-10 2.04568E-09
 -1       618 2.51048E+04 1.15738E+02 4.85683E+02 2.56459E+04-4.11092E-10-4.80782E-09
 -1       619 2.53084E+04 4.52079E+02 1.09155E+03 2.93043E+04-8.34916E-10-1.25037E-08
 -1       620 2.49409E+04 1.27001E+03 2.19417E+03 2.56448E+04 2.30705E-09-3.84171E-09
 -1       621 2.98570E+02 2.06215E+05 2.64269E+03 9.24835E+03-1.85992E-10 8.72592E-09
 -1       622 3.46898E+02 2.06868E+05 2.30364E+03 1.34922E+04-1.14255E-10-3.34819E-09
 -1       623 1.50267E+01 2.06394E+05 2.72818E+03 9.20610E+03-1.01252E-10 2.12231E-09
 -1       624 1.25557E+03 2.07699E+05 5.24951E+03 1.35328E+04-9.36495E-11 3.54703E-09
 -1       625 1.26199E+03 2.05375E+05 9.15848E+03 9.20794E+03-2.36469E-11 4.23427E-10
 -1       626 1.73145E+05 4.73990E+04 3.49697E+03 9.28103E+04-2.18733E-09-1.15633E-08
 -1       627 1.70852E+05 4.90604E+04 1.68511E+03 9.65224E+04 1.88720E-10-1.85446E-09
 -1       628 1.73270E+05 4.57512E+04 7.11723E+02 9.33446E+04 4.39650E-09-3.53225E-09
 -1       629 1.70353E+05 4.86557E+04 3.48833E+02 9.67431E+04 4.29463E-09-1.89086E-08
 -1       630 1.73276E+05 4.56739E+04 1.61239E+02 9.33589E+04 5.27962E-09-2.03994E-09
 -1       631 1.70292E+05 4.86465E+04 8.66797E+01 9.67440E+04-7.54153E-09-1.42923E-08
 -1       632 1.73267E+05 4.56805E+04 5.69980E+01 9.33509E+04-3.60205E-09-8.57949E-09
 -1       633 1.70279E+05 4.86517E+04 6.34466E+01 9.67368E+04-3.88059E-09-2.08706E-09
 -1       634 1.73257E+05 4.56815E+04 1.02436E+02 9.33464E+04 2.32194E-09 2.98678E-09
 -1       635 1.70283E+05 4.86534E+04 2.07547E+02 9.67362E+04-4.35421E-10-5.40831E-09
 -1       636 1.73246E+05 4.56807E+04 4.19098E+02 9.33433E+04-1.44818E-08 2.51714E-08
 -1       637 1.70368E+05 4.87201E+04 9.21075E+02 9.67320E+04-3.42907E-08 3.50847E-08
 -1       638 1.73210E+05 4.58859E+04 1.89290E+03 9.32488E+04-1.56280E-08 1.57347E-08
 -1       639 1.71359E+05 5.01044E+04 4.47804E+03 9.64379E+04 8.11724E-10 1.45792E-08
 -1       640 1.73078E+05 5.00080E+04 9.29299E+03 9.14991E+04-2.03454E-09 5.40740E-09
 -1       656 4.66421E+04-1.18148E+06-1.12594E+05-3.85720E+02 6.33008E-10-7.76907E-10
 -1       657-6.16392E+04-1.23231E+06-9.31293E+04 7.36753E+03-5.96629E-10-7.89112E-09
 -1       658 1.47967E+04-1.19598E+06-5.71667E+04-1.54911E+03-1.08002E-11 1.07839E-09
 -1       659-6.61391E+04-1.23444E+06-9.90398E+04 8.15664E+03-1.54614E-09 1.78523E-09
 -1       660 5.11314E+04-1.17936E+06-1.22760E+05-1.17481E+03-2.91038E-11-7.27036E-09
 -1       661 1.62445E+05 1.76573E+04 1.56724E+04 6.34989E+04 2.37242E-09-4.27099E-09
 -1       662 1.70665E+05 2.98939E+04 1.05607E+04 6.07106E+04 2.58910E-09-3.81124E-09
 -1       663 1.65518E+05 2.26897E+04 3.69417E+03 6.26114E+04-9.58494E-10-1.17716E-08
 -1       664 1.67109E+05 2.40036E+04 2.20872E+03 6.17900E+04 5.91712E-10-4.12683E-09
 -1       665 1.65979E+05 2.33822E+04 8.71270E+02 6.24819E+04-2.90822E-09-1.88692E-10
 -1       666 1.66568E+05 2.32076E+04 5.08207E+02 6.19561E+04-4.07704E-09-5.59515E-10
 -1       667 1.66056E+05 2.34649E+04 2.68061E+02 6.24531E+04-2.00791E-09 8.70435E-09
 -1       668 1.66485E+05 2.31427E+04 2.68836E+02 6.19976E+04 4.57617E-09 6.27764E-09
 -1       669 1.66061E+05 2.34451E+04 3.60436E+02 6.24411E+04 2.85159E-09 1.67600E-09
 -1       670 1.66576E+05 2.33337E+04 7.81557E+02 6.19972E+04 5.94031E-09-4.55501E-09
 -1       671 1.65966E+05 2.32778E+04 1.38661E+03 6.24520E+04 7.65873E-10 2.92823E-09
 -1       672 1.67384E+05 2.46818E+04 3.54674E+03 6.18012E+04-1.36679E-09-4.59187E-09
 -1       673 1.65257E+05 2.21310E+04 5.94344E+03 6.26241E+04-1.86105E-09-2.02726E-09
 -1       674 1.73043E+05 3.42282E+04 1.69970E+04 6.01368E+04 1.01244E-09 6.38920E-09
 -1       675 1.60343E+05 1.39983E+04 2.52289E+04 6.40158E+04 2.53294E-09-9.31232E-09
 -1       676 1.88121E+01-2.24936E+05-8.73487E+02 3.40452E+01-2.59621E-09-1.06746E-09
 -1       677-2.31871E+02-2.25147E+05-1.59858E+03-6.80560E+01-1.14892E-09-2.27981E-10
 -1       678 1.54847E+02-2.24785E+05-2.82587E+03 3.39874E+01-9.35188E-10 7.97551E-09
 -1       679-2.82649E+03-2.26853E+05-6.71285E+03-6.78318E+01-3.30874E-09 5.14471E-09
 -1       680 1.68688E+03-2.23231E+05-1.08189E+04 3.34325E+01-2.80079E-09 8.22965E-10
 -1       771-2.40609E+06-4.43675E+05-6.31964E+04-1.02260E+06-1.61017E-08-7.33417E-09
 -1       772-2.38413E+06-4.81074E+05-3.36387E+04-1.06466E+06-1.17871E-08 9.51695E-09
 -1       773-2.41571E+06-4.36124E+05-1.50209E+04-1.02616E+06-9.06584E-09 6.57747E-09
 -1       774-2.37571E+06-4.74081E+05-7.17480E+03-1.07013E+06 7.77800E-09-3.63798E-10
 -1       775-2.41870E+06-4.34072E+05-3.98484E+03-1.02668E+06-2.09548E-09 8.44011E-10
 -1       776-2.37624E+06-4.74129E+05-1.73771E+03-1.07350E+06-5.61704E-09-1.99543E-09
 -1       777-2.42098E+06-4.32396E+05-1.30761E+03-1.02708E+06 1.17143E-09 1.62254E-09
 -1       778-2.37724E+06-4.74347E+05-4.95587E+02-1.07632E+06 9.67702E-10 4.38013E-09
 -1       779-2.42284E+06-4.30971E+05-5.89913E+02-1.02742E+06-5.42059E-09-2.99588E-09
 -1       780-2.37818E+06-4.74510E+05-2.92450E+02-1.07861E+06-3.21234E-09 3.51974E-10
 -1       781-2.42426E+06-4.29838E+05-5.39062E+02-1.02769E+06-1.25438E-08-1.08230E-09
 -1       782-2.37897E+06-4.74651E+05-7.55538E+02-1.08029E+06-9.31323E-09 1.03432E-09
 -1       783-2.42520E+06-4.29081E+05-1.52736E+03-1.02787E+06-2.25555E-09-5.69423E-09
 -1       784-2.38032E+06-4.75650E+05-3.51774E+03-1.08127E+06-9.92895E-09-3.37036E-09
 -1       785-2.42504E+06-4.29165E+05-6.52584E+03-1.02750E+06-1.35296E-08 1.88538E-09
 -1       786 1.73053E+05-9.55581E+03 2.20347E+04-4.07685E+01 1.05720E-06 1.40517E-09
 -1       787 1.82614E+05 1.10604E+04 1.56007E+04 1.85606E+01 2.10782E-06 4.64570E-09
 -1       788 1.76739E+05-1.50243E+03 5.70247E+03-2.32511E+01 1.54949E-06-3.11047E-09
 -1       789 1.78319E+05 1.73814E+03 3.58681E+03-4.63638E+00 9.91708E-07 1.03284E-10
 -1       790 1.77349E+05-2.35393E+02 1.45764E+03-1.75716E+01 7.17304E-07-1.22075E-08
 -1       791 1.77607E+05 2.73420E+02 8.56342E+02-1.26200E+01 4.44090E-07-1.99836E-09
 -1       792 1.77452E+05-3.79844E+01 3.89560E+02-1.52674E+01 4.19975E-07 1.44080E-09
 -1       793 1.77491E+05 5.29191E+01 2.53734E+02-1.70661E+01 3.96400E-07 4.20975E-09
 -1       794 1.77465E+05-1.49259E+01 1.85103E+02-1.31255E+01 5.82833E-07-2.09781E-09
 -1       795 1.77501E+05 7.56907E+01 2.64046E+02-2.41275E+01 7.69336E-07 5.90786E-09
 -1       796 1.77442E+05-6.07511E+01 3.92826E+02-8.20586E+00 1.25426E-06 6.85138E-09
 -1       797 1.77679E+05 4.43714E+02 9.25134E+02-4.34917E+01 1.73900E-06 8.47689E-09
 -1       798 1.77287E+05-3.82884E+02 1.45819E+03 6.23917E+00 2.50547E-06-1.74089E-08
 -1       799 1.78776E+05 2.81859E+03 3.97830E+03-1.01987E+02 3.26727E-06-3.12622E-09
 -1       800 1.76345E+05-2.43516E+03 5.61447E+03 5.02905E+01 1.62742E-06-1.00545E-09
 -1       801 1.99736E+04-9.15751E+05-7.64839E+04 2.47984E+04 1.24201E-08-5.53109E-09
 -1       802-1.52768E+04-7.93962E+05-7.70442E+03-7.15900E+04 3.34721E-08-6.41876E-09
 -1       803-4.21250E+03-8.55813E+05 2.66836E+04 4.65486E+04 2.62226E-08 1.98986E-08
 -1       804 8.73213E+04-7.34219E+05 1.27492E+05-6.62060E+04 3.00352E-08 2.93077E-08
 -1       805-8.29393E+04-9.74972E+05 1.49088E+05 1.94088E+04 1.10376E-08 2.20007E-08
 -1       806-2.09578E+05-4.37913E+04-1.71959E+04-8.62099E+04-3.95585E-09-2.47019E-09
 -1       807-2.10672E+05-4.12461E+04-8.44801E+03-9.06746E+04-1.51033E-09-7.30245E-09
 -1       808-2.10059E+05-3.75851E+04-3.58366E+03-8.91328E+04 8.11042E-10 8.54376E-09
 -1       809-2.08875E+05-3.88934E+04-1.75203E+03-9.09091E+04 4.24563E-09 1.44655E-08
 -1       810-2.10134E+05-3.73669E+04-8.02356E+02-8.92618E+04 5.36829E-09-4.43538E-09
 -1       811-2.08737E+05-3.88001E+04-3.98122E+02-9.08870E+04 8.34643E-09 7.52607E-10
 -1       812-2.10147E+05-3.73838E+04-1.99156E+02-8.92613E+04 2.50384E-09 3.09751E-09
 -1       813-2.08719E+05-3.88024E+04-1.26309E+02-9.08754E+04-6.79847E-11-2.35241E-09
 -1       814-2.10144E+05-3.73902E+04-1.19685E+02-8.92584E+04 3.07364E-09 8.24525E-09
 -1       815-2.08721E+05-3.88045E+04-1.88363E+02-9.08716E+04 3.37150E-09-1.81990E-09
 -1       816-2.10131E+05-3.73892E+04-3.53709E+02-8.92558E+04 1.57343E-09 2.96177E-09
 -1       817-2.08781E+05-3.88383E+04-7.58430E+02-9.08645E+04-5.04315E-10 8.86439E-09
 -1       818-2.10085E+05-3.74960E+04-1.54594E+03-8.92053E+04-6.02995E-10-8.58108E-10
 -1       819-2.09634E+05-3.97667E+04-3.63816E+03-9.06579E+04 2.98678E-09 3.48996E-09
 -1       820-2.09791E+05-4.02462E+04-7.40447E+03-8.80320E+04 6.73026E-11-8.16146E-09
 -1       821-2.73059E+05 1.50586E+04-3.48254E+04 1.58806E+02 3.78529E-10 1.25328E-08
 -1       822-2.88150E+05-1.74330E+04-2.46440E+04-7.78371E+02-1.23810E-09 1.08921E-08
 -1       823-2.78883E+05 2.36097E+03-9.01975E+03 1.44254E+02 7.72792E-10-5.71117E-09
 -1       824-2.81356E+05-2.73260E+03-5.67481E+03-6.23204E+02-1.24086E-10-4.09636E-09
 -1       825-2.79851E+05 3.69419E+02-2.33337E+03 3.63535E+00-2.27546E-09-1.01958E-08
 -1       826-2.80227E+05-4.35565E+02-1.40662E+03-2.75418E+02-4.23515E-09-1.63429E-09
 -1       827-2.80011E+05 6.53480E+01-7.30415E+02-2.03537E+02-3.84721E-09-2.71427E-11
 -1       828-2.80075E+05-1.32831E+02-6.43458E+02 1.20458E+02-5.13636E-09-6.53524E-09
 -1       829-2.80003E+05 6.69657E+01-7.41693E+02-3.92248E+02-2.89406E-10 7.59437E-09
 -1       830-2.80252E+05-4.47652E+02-1.44702E+03 4.01893E+02 1.11005E-09 1.00090E-08
 -1       831-2.79834E+05 3.80246E+02-2.39735E+03-4.84978E+02-2.88792E-09-3.27327E-09
 -1       832-2.81406E+05-2.81163E+03-5.84192E+03 4.53885E+02-2.48954E-09-3.05727E-09
 -1       833-2.78850E+05 2.42931E+03-9.28376E+03-4.44240E+02-6.17291E-10-2.46928E-09
 -1       834-2.88377E+05-1.79415E+04-2.53630E+04 2.56674E+02-5.91839E-10-1.01845E-08
 -1       835-2.72866E+05 1.54982E+04-3.58479E+04-2.87755E+02 5.61841E-09-4.83124E-09
 -1       836-8.99116E+02 2.53826E+05 1.53145E+04-2.16835E+04 1.27693E-09-1.14142E-09
 -1       837 3.36777E+03 2.58570E+05 1.30777E+04-4.35587E+04 1.97633E-09 7.22321E-09
 -1       838-3.30551E+02 2.55143E+05 1.34883E+04-2.16094E+04 1.91221E-09 9.72875E-09
 -1       839 8.65658E+03 2.62510E+05 2.56769E+04-4.35871E+04 2.33013E-09 1.89773E-08
 -1       840-2.60389E+03 2.49846E+05 4.10120E+04-2.16537E+04 1.70803E-09 7.79710E-09
 -1       856-7.99444E+04 7.07770E+03-1.86517E+04-4.14979E+02-3.02805E-09 7.74889E-10
 -1       857-8.76482E+04-8.30138E+03-1.28412E+04 4.29219E+03-3.14634E-09 1.99179E-09
 -1       858-8.29883E+04 9.91692E+02-4.84062E+03-4.34733E+02-3.22399E-09 6.54336E-09
 -1       859-8.41528E+04-1.15310E+03-2.92342E+03 4.32366E+03 2.24327E-09-6.72571E-10
 -1       860-8.34433E+04 1.37913E+02-1.22900E+03-4.46575E+02 1.14554E-09-1.47128E-09
 -1       861-8.36287E+04-1.52289E+02-6.84096E+02 4.33987E+03-3.88581E-09-3.31221E-09
 -1       862-8.35141E+04 1.82426E+01-3.00419E+02-4.50969E+02 4.66579E-09 5.17139E-09
 -1       863-8.35448E+04-1.07809E+01-1.45866E+02 4.34186E+03 8.76541E-09 9.08981E-09
 -1       864-8.35275E+04-4.78442E-01-4.03618E+01-4.48569E+02 2.47952E-09-6.27871E-10
 -1       865-8.35184E+04 2.44442E+01 4.26014E+01 4.32974E+03 4.97043E-09-3.79471E-09
 -1       866-8.35391E+04-1.74128E+01 1.27944E+02-4.38851E+02-8.17295E-10-3.81482E-09
 -1       867-8.34469E+04 1.45686E+02 3.42025E+02 4.30336E+03 2.38535E-09 5.81294E-09
 -1       868-8.35960E+04-1.20776E+02 5.74767E+02-4.22185E+02 1.91324E-09 5.00120E-09
 -1       869-8.30172E+04 1.00210E+03 1.54053E+03 4.25973E+03-5.11611E-09-9.61199E-09
 -1       870-8.39641E+04-8.52384E+02 2.23416E+03-3.95227E+02 1.98463E-09-4.15707E-09
 -1       871-3.96650E+03-8.59244E+03-1.28897E+04 8.47088E+04 2.30375E-09-1.25510E-10
 -1       872-1.71911E+03-1.14812E+04-5.25999E+03 1.09820E+05 3.22188E-09-3.40833E-10
 -1       873-3.55866E+01-1.01322E+04 7.35672E+02 8.45226E+04 1.09458E-09 9.89542E-09
 -1       874 1.97711E+03-8.26669E+03 7.27656E+03 1.09858E+05 3.20051E-09 8.51537E-09
 -1       875 4.67593E+03-1.18586E+04 1.61465E+04 8.46783E+04 2.65754E-09-2.83990E-09
 -1       876 2.09964E+05 3.61573E+04 1.12076E+04 8.51621E+04 1.74339E-10-2.54295E-09
 -1       877 2.10606E+05 3.86159E+04 5.98513E+03 8.84748E+04-5.81440E-09 2.78396E-09
 -1       878 2.11011E+05 3.49169E+04 2.50748E+03 8.60825E+04 6.65204E-09-5.74573E-09
 -1       879 2.09082E+05 3.70976E+04 1.24912E+03 8.85539E+04 8.07677E-09-3.40174E-09
 -1       880 2.11087E+05 3.49032E+04 5.81550E+02 8.61199E+04 3.63548E-09-1.77545E-09
 -1       881 2.08980E+05 3.70331E+04 3.09792E+02 8.85380E+04 3.06318E-09 1.08488E-08
 -1       882 2.11095E+05 3.49124E+04 1.96876E+02 8.61210E+04 7.65522E-09 8.32009E-09
 -1       883 2.08973E+05 3.70300E+04 2.09530E+02 8.85333E+04-6.79847E-10-5.72804E-09
 -1       884 2.11091E+05 3.49101E+04 3.31391E+02 8.61211E+04-6.13340E-11-4.78479E-09
 -1       885 2.08999E+05 3.70347E+04 6.65080E+02 8.85416E+04 5.03397E-09-2.38023E-09
 -1       886 2.11065E+05 3.48907E+04 1.33988E+03 8.61185E+04 3.62806E-09 5.45106E-09
 -1       887 2.09235E+05 3.71891E+04 2.92659E+03 8.85755E+04-5.00586E-09 8.51742E-10
 -1       888 2.10880E+05 3.49233E+04 5.89712E+03 8.60248E+04-2.46857E-09 3.49701E-10
 -1       889 2.12749E+05 4.08374E+04 1.40877E+04 8.84642E+04 1.88414E-09-6.72549E-09
 -1       890 2.08477E+05 3.77773E+04 2.63852E+04 8.37752E+04 2.03249E-09 3.43971E-09
 -1       891-1.30135E+02-1.19156E+05-1.40995E+03 2.24786E+04 5.29667E-10-2.91107E-09
 -1       892-2.26721E+02-1.19494E+05-1.53266E+03 3.40176E+04-2.18984E-09-9.87222E-09
 -1       893-3.66991E+01-1.19200E+05-2.18903E+03 2.24830E+04 9.79526E-10-3.12821E-09
 -1       894-1.19598E+03-1.20332E+05-4.54429E+03 3.38964E+04-3.09956E-09-7.95808E-12
 -1       895-9.35328E+02-1.18254E+05-8.00776E+03 2.25982E+04-2.17358E-09-2.37651E-09
 -1       956-2.64311E+05-3.80085E+03-9.56693E+03 1.76405E+04-2.16551E-09-3.78805E-09
 -1       957-2.66200E+05-1.28235E+03-4.91127E+03 2.12426E+04-3.22098E-09-6.29689E-09
 -1       958-2.65160E+05-1.02353E+02-2.21267E+03 1.75269E+04-1.08048E-09-2.77532E-09
 -1       959-2.65310E+05-1.76115E+01-1.13017E+03 2.13658E+04-3.33421E-09 2.71484E-10
 -1       960-2.65236E+05 3.19051E+01-5.50892E+02 1.75160E+04-9.10859E-10 2.53340E-09
 -1       961-2.65246E+05 3.01960E+01-2.92101E+02 2.13782E+04-5.44310E-09 6.59611E-09
 -1       962-2.65251E+05 2.81837E+01-1.66850E+02 1.75144E+04-1.28580E-09 1.69643E-09
 -1       963-2.65243E+05 3.15015E+01-1.33295E+02 2.13804E+04-1.24339E-09 8.83301E-09
 -1       964-2.65255E+05 3.01241E+01-1.61022E+02 1.75137E+04-1.83252E-09 4.71800E-11
 -1       965-2.65253E+05 3.44416E+01-2.77577E+02 2.13805E+04 6.48736E-10-7.99503E-09
 -1       966-2.65246E+05 3.76315E+01-5.20673E+02 1.75143E+04-1.02705E-09 6.06406E-10
 -1       967-2.65322E+05-6.57338E+00-1.06771E+03 2.13737E+04-3.35012E-09 8.96023E-09
 -1       968-2.65180E+05-8.52859E+01-2.08938E+03 1.75207E+04-2.18279E-10-1.63780E-09
 -1       969-2.66169E+05-1.19765E+03-4.63901E+03 2.12991E+04-5.27507E-10-3.71966E-09
 -1       970-2.64383E+05-3.57634E+03-9.03578E+03 1.75912E+04 1.01090E-09 3.30328E-09
 -1       971-2.50370E+05-1.31683E+03-7.32248E+03 1.21404E+04 5.93900E-10-1.93836E-09
 -1       972-2.52151E+05-9.43731E+02-3.98784E+03 1.69560E+04 3.94152E-09-9.81800E-10
 -1       973-2.51184E+05-8.33389E+00-1.78563E+03 1.20392E+04 1.54023E-09-2.50157E-09
 -1       974-2.51308E+05-8.15270E+00-9.25065E+02 1.70652E+04 3.50246E-09-8.51105E-09
 -1       975-2.51247E+05 2.57668E+01-4.61328E+02 1.20301E+04 2.92130E-09 3.99280E-09
 -1       976-2.51257E+05 3.00349E+01-2.64285E+02 1.70763E+04-3.12411E-09 1.27068E-08
 -1       977-2.51259E+05 2.54531E+01-1.88425E+02 1.20280E+04 2.54568E-09 6.61578E-09
 -1       978-2.51260E+05 3.42083E+01-2.15908E+02 1.70792E+04 1.15708E-08 5.06429E-09
 -1       979-2.51258E+05 3.12240E+01-3.42926E+02 1.20272E+04 5.34612E-09 7.67386E-10
 -1       980-2.51285E+05 3.62943E+01-6.59659E+02 1.70796E+04 2.42498E-09-6.11385E-09
 -1       981-2.51237E+05 4.76546E+01-1.27628E+03 1.20276E+04 2.97234E-09 5.87755E-09
 -1       982-2.51460E+05-5.78602E+01-2.63731E+03 1.70745E+04 1.00686E-08 5.39531E-09
 -1       983-2.51077E+05-3.38432E+01-5.12388E+03 1.20325E+04 7.62293E-09-3.97563E-10
 -1       984-2.53925E+05-2.73347E+03-1.14741E+04 1.70060E+04 2.24213E-09-4.39479E-09
 -1       985-2.48758E+05-3.78301E+03-2.10702E+04 1.21009E+04 2.89629E-09 5.82077E-11
 -3
    1PSTEP                        11           6           1          
  100CL  106 5.39062E-01         409                     0    6           1
 -4  DISP        4    1
 -5  D1          1    2    1    0
 -5  D2          1    2    2    0
 -5  D3          1    2    3    0
 -5  ALL         1    2    0    0    1ALL
 -1         1 1.83155E-04 0.00000E+00 0.00000E+00
 -1         2 1.62686E-04 2.50107E-30-3.30872E-24
 -1         3 1.63613E-04 1.35152E-27 0.00000E+00
 -1         5 1.07207E-04-2.45368E-27 0.00000E+00
 -1         8 1.57743E-04-8.71087E-07 0.00000E+00
 -1         9 1.51551E-04-6.44667E-07 0.00000E+00
 -1        10 1.50552E-04-2.19947E-06 0.00000E+00
 -1        12 1.06945E-04 5.92359E-07 0.00000E+00
 -1        15 1.27424E-04-9.68856E-07 0.00000E+00
 -1        16 1.32468E-04-8.44129E-07 0.00000E+00
 -1        17 1.09265E-04-4.69405E-06 0.00000E+00
 -1        18 1.04987E-04 4.80072E-06 0.00000E+00
 -1        19 1.06158E-04 1.18163E-06 0.00000E+00
 -1        20 1.06304E-04 1.31438E-05 0.00000E+00
 -1        21 1.05709E-04 2.38823E-05 3.30872E-24
 -1        24 2.23273E-05-6.57175E-06 0.00000E+00
 -1        25 1.04890E-04 4.94058E-06 0.00000E+00
 -1        26 1.05830E-04 1.63980E-06 0.00000E+00
 -1        27 1.04174E-04 1.04836E-05 0.00000E+00
 -1        28 1.03703E-04 2.33805E-05 0.00000E+00
 -1        32 0.00000E+00 0.00000E+00 0.00000E+00
 -1        33 1.04215E-04 2.19732E-06 0.00000E+00
 -1        34 1.02617E-04 1.04584E-05 0.00000E+00
 -1        35 1.01109E-04 2.31138E-05 0.00000E+00
 -1        51 1.81506E-04-1.44911E-07 0.00000E+00
 -1        52 1.78446E-04-2.83859E-07 0.00000E+00
 -1        53 1.74252E-04-4.24035E-07 0.00000E+00
 -1        54 1.69211E-04-5.67142E-07 0.00000E+00
 -1        55 1.63612E-04-7.14070E-07 6.20385E-25
 -1        56 1.81550E-04-8.48030E-07 0.00000E+00
 -1        57 1.80032E-04-2.10837E-06 2.64698E-23
 -1        58 1.78620E-04-3.64284E-06 0.00000E+00
 -1        59 1.77254E-04-5.33064E-06-2.64698E-23
 -1        60 1.75892E-04-7.02967E-06-5.29396E-23
 -1        61 1.74480E-04-8.60171E-06 0.00000E+00
 -1        62 1.72972E-04-9.91822E-06-5.29396E-23
 -1        63 1.71324E-04-1.08618E-05 0.00000E+00
 -1        64 1.69503E-04-1.13456E-05-5.29396E-23
 -1        65 1.67485E-04-1.13017E-05-2.64698E-23
 -1        66 1.65260E-04-1.07059E-05-5.29396E-23
 -1        67 1.62827E-04-9.55598E-06-2.64698E-23
 -1        68 1.60203E-04-7.89657E-06-5.29396E-23
 -1        69 1.57419E-04-5.78936E-06 0.00000E+00
 -1        70 1.54503E-04-3.34023E-06 2.64698E-23
 -1        86 1.62352E-04-1.00654E-07 0.00000E+00
 -1        87 1.61352E-04-2.02262E-07 0.00000E+00
 -1        88 1.59721E-04-3.04740E-07-3.30872E-24
 -1        89 1.57498E-04-4.11635E-07 3.30872E-24
 -1        90 1.54751E-04-5.18652E-07 0.00000E+00
 -1       121 1.63247E-04-3.63492E-07 0.00000E+00
 -1       122 1.62152E-04-7.27504E-07 0.00000E+00
 -1       123 1.60329E-04-1.09255E-06 0.00000E+00
 -1       124 1.57784E-04-1.45919E-06 6.61744E-24
 -1       125 1.54522E-04-1.82781E-06 0.00000E+00
 -1       191 1.07200E-04 9.87312E-08 0.00000E+00
 -1       192 1.07178E-04 1.97461E-07 0.00000E+00
 -1       193 1.07141E-04 2.96191E-07-3.30872E-24
 -1       194 1.07090E-04 3.94919E-07 0.00000E+00
 -1       195 1.07025E-04 4.93642E-07 6.61744E-24
 -1       251 1.57351E-04 3.86194E-06 0.00000E+00
 -1       252 1.56960E-04 7.92266E-06 6.61744E-24
 -1       253 1.56573E-04 1.10106E-05 0.00000E+00
 -1       254 1.56188E-04 1.28404E-05-6.61744E-24
 -1       255 1.55805E-04 1.33630E-05 0.00000E+00
 -1       256 1.55422E-04 1.25498E-05 0.00000E+00
 -1       257 1.55037E-04 1.06230E-05 0.00000E+00
 -1       258 1.54650E-04 7.82236E-06 0.00000E+00
 -1       259 1.54261E-04 4.55153E-06-1.32349E-23
 -1       260 1.53873E-04 1.22171E-06 6.61744E-24
 -1       261 1.53485E-04-1.74487E-06 0.00000E+00
 -1       262 1.53100E-04-3.93174E-06 0.00000E+00
 -1       263 1.52715E-04-5.06880E-06 0.00000E+00
 -1       264 1.52331E-04-4.90240E-06 6.61744E-24
 -1       265 1.51945E-04-3.42377E-06 1.32349E-23
 -1       266 1.52690E-04-8.99485E-07 6.61744E-24
 -1       267 1.47637E-04-9.14305E-07 1.65436E-24
 -1       268 1.42584E-04-9.29984E-07 0.00000E+00
 -1       269 1.37531E-04-9.43116E-07 0.00000E+00
 -1       270 1.32477E-04-9.56189E-07 4.13590E-25
 -1       271 1.54721E-04 3.08638E-06 0.00000E+00
 -1       272 1.52076E-04 5.91587E-06-1.32349E-23
 -1       273 1.49822E-04 7.71762E-06 0.00000E+00
 -1       274 1.47910E-04 8.58997E-06 2.64698E-23
 -1       275 1.46302E-04 8.65378E-06 0.00000E+00
 -1       276 1.44946E-04 8.04152E-06-2.64698E-23
 -1       277 1.43789E-04 6.89878E-06-5.29396E-23
 -1       278 1.42772E-04 5.38012E-06 2.64698E-23
 -1       279 1.41835E-04 3.64712E-06-5.29396E-23
 -1       280 1.40917E-04 1.86517E-06-2.64698E-23
 -1       281 1.39955E-04 2.00431E-07 5.29396E-23
 -1       282 1.38888E-04-1.18285E-06 0.00000E+00
 -1       283 1.37658E-04-2.12587E-06 5.29396E-23
 -1       284 1.36210E-04-2.47593E-06-1.32349E-23
 -1       285 1.34486E-04-2.09481E-06 0.00000E+00
 -1       301 1.48017E-04-6.92375E-07 6.61744E-24
 -1       302 1.44512E-04-7.17658E-07 0.00000E+00
 -1       303 1.41121E-04-7.41425E-07 0.00000E+00
 -1       304 1.37927E-04-7.65349E-07 0.00000E+00
 -1       305 1.35015E-04-7.90561E-07 1.32349E-23
 -1       306 1.49631E-04-2.24830E-06 0.00000E+00
 -1       307 1.50680E-04-1.21067E-05 0.00000E+00
 -1       308 1.54121E-04-2.85547E-05 0.00000E+00
 -1       309 1.59147E-04-4.94999E-05-2.64698E-23
 -1       310 1.64684E-04-7.18897E-05 0.00000E+00
 -1       311 1.69616E-04-9.25743E-05 2.64698E-23
 -1       312 1.72945E-04-1.08766E-04 0.00000E+00
 -1       313 1.73752E-04-1.17991E-04 0.00000E+00
 -1       314 1.71608E-04-1.19250E-04-5.29396E-23
 -1       315 1.66270E-04-1.12085E-04 0.00000E+00
 -1       316 1.58174E-04-9.78006E-05-5.29396E-23
 -1       317 1.47973E-04-7.81718E-05 2.64698E-23
 -1       318 1.36790E-04-5.60807E-05 0.00000E+00
 -1       319 1.25854E-04-3.45615E-05 2.64698E-23
 -1       320 1.16303E-04-1.65466E-05 0.00000E+00
 -1       336 1.45789E-04-2.60319E-06 0.00000E+00
 -1       337 1.40154E-04-3.01179E-06-6.61744E-24
 -1       338 1.33663E-04-3.42525E-06 1.32349E-23
 -1       339 1.26335E-04-3.84361E-06 0.00000E+00
 -1       340 1.18194E-04-4.26807E-06 6.61744E-24
 -1       406 1.06850E-04 6.91063E-07-3.30872E-24
 -1       407 1.06740E-04 7.89734E-07 0.00000E+00
 -1       408 1.06617E-04 8.88344E-07-3.30872E-24
 -1       409 1.06478E-04 9.86774E-07 0.00000E+00
 -1       410 1.06325E-04 1.08483E-06 0.00000E+00
 -1       521 1.36463E-04-2.11472E-05 5.29396E-23
 -1       522 1.54164E-04-8.29830E-05 0.00000E+00
 -1       523 1.81199E-04-1.76183E-04 0.00000E+00
 -1       524 2.13157E-04-2.87707E-04 5.29396E-23
 -1       525 2.45414E-04-4.00366E-04-1.05879E-22
 -1       526 2.73345E-04-4.96862E-04 0.00000E+00
 -1       527 2.92536E-04-5.63580E-04 0.00000E+00
 -1       528 2.98442E-04-5.89643E-04 0.00000E+00
 -1       529 2.88493E-04-5.73020E-04 1.05879E-22
 -1       530 2.61375E-04-5.15314E-04 0.00000E+00
 -1       531 2.20042E-04-4.26505E-04-1.05879E-22
 -1       532 1.69448E-04-3.18803E-04-5.29396E-23
 -1       533 1.17349E-04-2.08088E-04 0.00000E+00
 -1       534 7.17607E-05-1.10416E-04-5.29396E-23
 -1       535 3.86747E-05-3.93566E-05 5.29396E-23
 -1       536 1.09053E-04 7.96473E-06 0.00000E+00
 -1       537 1.08745E-04 2.72738E-05 3.30872E-24
 -1       538 1.08360E-04 5.04234E-05-3.30872E-24
 -1       539 1.07953E-04 7.45837E-05-1.65436E-24
 -1       540 1.07591E-04 9.66603E-05-3.30872E-24
 -1       541 1.07327E-04 1.13570E-04 0.00000E+00
 -1       542 1.07149E-04 1.23557E-04 0.00000E+00
 -1       543 1.07019E-04 1.24900E-04-1.65436E-24
 -1       544 1.06868E-04 1.18069E-04-3.30872E-24
 -1       545 1.06639E-04 1.03579E-04 0.00000E+00
 -1       546 1.06326E-04 8.38904E-05 3.30872E-24
 -1       547 1.05959E-04 6.14953E-05-1.65436E-24
 -1       548 1.05602E-04 3.95823E-05 0.00000E+00
 -1       549 1.05318E-04 2.13380E-05 1.65436E-24
 -1       550 1.05117E-04 9.00736E-06 0.00000E+00
 -1       551 9.77238E-05-4.96808E-06 6.61744E-24
 -1       552 8.40288E-05-5.26272E-06-1.65436E-24
 -1       553 6.89054E-05-5.57574E-06-4.96308E-24
 -1       554 5.30905E-05-5.90082E-06-6.61744E-24
 -1       555 3.73205E-05-6.22803E-06 2.64698E-23
 -1       556 1.06137E-04 3.39216E-06 0.00000E+00
 -1       557 1.03702E-04 9.70379E-06 0.00000E+00
 -1       558 1.01887E-04 1.43961E-05 0.00000E+00
 -1       559 1.00623E-04 1.76374E-05 0.00000E+00
 -1       560 9.98453E-05 1.95956E-05 0.00000E+00
 -1       561 9.94877E-05 2.04397E-05 0.00000E+00
 -1       562 9.94853E-05 2.03391E-05 1.32349E-23
 -1       563 9.97735E-05 1.94633E-05 0.00000E+00
 -1       564 1.00288E-04 1.79822E-05-6.61744E-24
 -1       565 1.00966E-04 1.60655E-05 1.65436E-24
 -1       566 1.01742E-04 1.38835E-05 0.00000E+00
 -1       567 1.02554E-04 1.16062E-05-2.58494E-25
 -1       568 1.03338E-04 9.40365E-06 0.00000E+00
 -1       569 1.04031E-04 7.44582E-06 0.00000E+00
 -1       570 1.04569E-04 5.90264E-06 0.00000E+00
 -1       571 1.05058E-04 4.59595E-06-4.13590E-25
 -1       572 1.05131E-04 4.34464E-06-2.06795E-25
 -1       573 1.05204E-04 4.05573E-06-8.27181E-25
 -1       574 1.05277E-04 3.73862E-06-8.27181E-25
 -1       575 1.05350E-04 3.40273E-06 0.00000E+00
 -1       576 1.05424E-04 3.05755E-06 0.00000E+00
 -1       577 1.05497E-04 2.71256E-06 0.00000E+00
 -1       578 1.05570E-04 2.37728E-06 0.00000E+00
 -1       579 1.05644E-04 2.06120E-06 0.00000E+00
 -1       580 1.05717E-04 1.77381E-06 0.00000E+00
 -1       581 1.05791E-04 1.52463E-06 0.00000E+00
 -1       582 1.05864E-04 1.32313E-06 0.00000E+00
 -1       583 1.05938E-04 1.17879E-06 0.00000E+00
 -1       584 1.06011E-04 1.10101E-06-6.61744E-24
 -1       585 1.06084E-04 1.09910E-06 0.00000E+00
 -1       586 1.04932E-04 4.82554E-06-1.65436E-24
 -1       587 1.04849E-04 4.84976E-06 3.10193E-25
 -1       588 1.04771E-04 4.87372E-06 8.27181E-25
 -1       589 1.04731E-04 4.89726E-06 0.00000E+00
 -1       590 1.04760E-04 4.92009E-06 0.00000E+00
 -1       591 1.05029E-04 4.63912E-06-6.46235E-26
 -1       592 1.05081E-04 4.44428E-06 0.00000E+00
 -1       593 1.05142E-04 4.22288E-06 0.00000E+00
 -1       594 1.05211E-04 3.98084E-06 4.13590E-25
 -1       595 1.05285E-04 3.72417E-06 0.00000E+00
 -1       596 1.05363E-04 3.45884E-06 0.00000E+00
 -1       597 1.05441E-04 3.19079E-06-4.13590E-25
 -1       598 1.05518E-04 2.92600E-06 0.00000E+00
 -1       599 1.05592E-04 2.67040E-06-4.13590E-25
 -1       600 1.05660E-04 2.42994E-06 0.00000E+00
 -1       601 1.05721E-04 2.21059E-06 0.00000E+00
 -1       602 1.05771E-04 2.01830E-06 1.03398E-25
 -1       603 1.05809E-04 1.85901E-06-2.06795E-25
 -1       604 1.05832E-04 1.73876E-06 1.03398E-25
 -1       605 1.05839E-04 1.66346E-06 0.00000E+00
 -1       606 1.06170E-04 1.42937E-06 0.00000E+00
 -1       607 1.06181E-04 1.77312E-06 0.00000E+00
 -1       608 1.06190E-04 2.20725E-06 0.00000E+00
 -1       609 1.06199E-04 2.72540E-06 0.00000E+00
 -1       610 1.06208E-04 3.32118E-06 0.00000E+00
 -1       611 1.06217E-04 3.98812E-06 1.65436E-24
 -1       612 1.06226E-04 4.71973E-06 0.00000E+00
 -1       613 1.06235E-04 5.50952E-06 0.00000E+00
 -1       614 1.06244E-04 6.35102E-06 0.00000E+00
 -1       615 1.06253E-04 7.23771E-06-8.27181E-25
 -1       616 1.06261E-04 8.16312E-06 1.65436E-24
 -1       617 1.06270E-04 9.12076E-06 0.00000E+00
 -1       618 1.06279E-04 1.01041E-05 0.00000E+00
 -1       619 1.06287E-04 1.11068E-05 0.00000E+00
 -1       620 1.06296E-04 1.21221E-05 0.00000E+00
 -1       621 1.06020E-04 1.25810E-06 0.00000E+00
 -1       622 1.05929E-04 1.33489E-06 8.27181E-25
 -1       623 1.05874E-04 1.41165E-06-1.65436E-24
 -1       624 1.05846E-04 1.48829E-06 0.00000E+00
 -1       625 1.05834E-04 1.56479E-06 1.65436E-24
 -1       626 1.06149E-04 1.45476E-06 0.00000E+00
 -1       627 1.06111E-04 1.80635E-06 1.65436E-24
 -1       628 1.06047E-04 2.22880E-06-3.30872E-24
 -1       629 1.05959E-04 2.71406E-06 0.00000E+00
 -1       630 1.05851E-04 3.25405E-06 0.00000E+00
 -1       631 1.05726E-04 3.84065E-06-1.65436E-24
 -1       632 1.05586E-04 4.46573E-06 0.00000E+00
 -1       633 1.05434E-04 5.12119E-06-4.96308E-24
 -1       634 1.05274E-04 5.79890E-06 0.00000E+00
 -1       635 1.05109E-04 6.49073E-06-1.65436E-24
 -1       636 1.04942E-04 7.18858E-06 0.00000E+00
 -1       637 1.04775E-04 7.88432E-06-8.27181E-25
 -1       638 1.04612E-04 8.56983E-06-3.30872E-24
 -1       639 1.04456E-04 9.23698E-06 8.27181E-25
 -1       640 1.04310E-04 9.87765E-06 0.00000E+00
 -1       656 1.05496E-04 1.27109E-05 0.00000E+00
 -1       657 1.05062E-04 1.22608E-05-6.61744E-24
 -1       658 1.04863E-04 1.18121E-05 1.32349E-23
 -1       659 1.04758E-04 1.13638E-05-3.30872E-24
 -1       660 1.04582E-04 1.09140E-05 0.00000E+00
 -1       661 1.06006E-04 1.41367E-05 8.27181E-25
 -1       662 1.05733E-04 1.50705E-05-8.27181E-25
 -1       663 1.05482E-04 1.59473E-05 1.65436E-24
 -1       664 1.05251E-04 1.67703E-05-8.27181E-25
 -1       665 1.05039E-04 1.75423E-05 1.65436E-24
 -1       666 1.04846E-04 1.82661E-05-8.27181E-25
 -1       667 1.04670E-04 1.89442E-05 0.00000E+00
 -1       668 1.04510E-04 1.95793E-05-8.27181E-25
 -1       669 1.04365E-04 2.01737E-05-1.65436E-24
 -1       670 1.04235E-04 2.07299E-05 8.27181E-25
 -1       671 1.04118E-04 2.12501E-05 0.00000E+00
 -1       672 1.04014E-04 2.17363E-05 0.00000E+00
 -1       673 1.03922E-04 2.21907E-05-1.65436E-24
 -1       674 1.03840E-04 2.26151E-05 0.00000E+00
 -1       675 1.03769E-04 2.30116E-05 4.13590E-25
 -1       676 1.05374E-04 2.37981E-05 0.00000E+00
 -1       677 1.05039E-04 2.37141E-05 0.00000E+00
 -1       678 1.04704E-04 2.36300E-05 0.00000E+00
 -1       679 1.04369E-04 2.35462E-05 0.00000E+00
 -1       680 1.04036E-04 2.34624E-05 1.65436E-24
 -1       771 1.66088E-05 5.22889E-06-5.29396E-23
 -1       772 1.17002E-05 1.49062E-05-2.64698E-23
 -1       773 7.56530E-06 2.25721E-05 0.00000E+00
 -1       774 4.15277E-06 2.83487E-05 0.00000E+00
 -1       775 1.41199E-06 3.23612E-05-5.29396E-23
 -1       776-7.09889E-07 3.47410E-05 0.00000E+00
 -1       777-2.26625E-06 3.56223E-05-5.29396E-23
 -1       778-3.31169E-06 3.51442E-05 0.00000E+00
 -1       779-3.90115E-06 3.34486E-05 0.00000E+00
 -1       780-4.09056E-06 3.06811E-05 0.00000E+00
 -1       781-3.93601E-06 2.69895E-05 5.29396E-23
 -1       782-3.49436E-06 2.25245E-05 0.00000E+00
 -1       783-2.82251E-06 1.74382E-05 2.64698E-23
 -1       784-1.97792E-06 1.18851E-05 1.32349E-23
 -1       785-1.01803E-06 6.02026E-06 0.00000E+00
 -1       786 1.04945E-04 4.60927E-06 0.00000E+00
 -1       787 1.05004E-04 4.32260E-06-4.13590E-25
 -1       788 1.05062E-04 4.06583E-06-1.65436E-24
 -1       789 1.05121E-04 3.82429E-06-8.27181E-25
 -1       790 1.05180E-04 3.59309E-06-1.65436E-24
 -1       791 1.05239E-04 3.36734E-06-8.27181E-25
 -1       792 1.05298E-04 3.14568E-06 0.00000E+00
 -1       793 1.05357E-04 2.92677E-06 0.00000E+00
 -1       794 1.05416E-04 2.71102E-06-1.65436E-24
 -1       795 1.05476E-04 2.49885E-06 8.27181E-25
 -1       796 1.05535E-04 2.29300E-06 0.00000E+00
 -1       797 1.05594E-04 2.09622E-06 8.27181E-25
 -1       798 1.05653E-04 1.91709E-06 1.65436E-24
 -1       799 1.05712E-04 1.76426E-06 0.00000E+00
 -1       800 1.05771E-04 1.66326E-06-1.65436E-24
 -1       801 9.76281E-05 4.30753E-06 0.00000E+00
 -1       802 7.51463E-05 3.43319E-06 6.61744E-24
 -1       803 4.61821E-05 2.40991E-06-1.32349E-23
 -1       804 1.96595E-05 1.44369E-06-1.32349E-23
 -1       805 2.15547E-06 6.59117E-07-2.64698E-23
 -1       806 1.04934E-04 4.54997E-06 0.00000E+00
 -1       807 1.04970E-04 4.17163E-06-8.27181E-25
 -1       808 1.04999E-04 3.80992E-06-1.65436E-24
 -1       809 1.05020E-04 3.46838E-06 8.27181E-25
 -1       810 1.05032E-04 3.15052E-06-1.65436E-24
 -1       811 1.05034E-04 2.85977E-06-1.65436E-24
 -1       812 1.05025E-04 2.59960E-06 1.65436E-24
 -1       813 1.05003E-04 2.37341E-06-8.27181E-25
 -1       814 1.04966E-04 2.18464E-06-1.65436E-24
 -1       815 1.04915E-04 2.03669E-06-8.27181E-25
 -1       816 1.04847E-04 1.93300E-06 0.00000E+00
 -1       817 1.04761E-04 1.87696E-06-8.27181E-25
 -1       818 1.04656E-04 1.87199E-06-1.65436E-24
 -1       819 1.04530E-04 1.92148E-06 8.27181E-25
 -1       820 1.04383E-04 2.02882E-06-3.30872E-24
 -1       821 1.05732E-04 1.61563E-06 0.00000E+00
 -1       822 1.05629E-04 1.51381E-06 8.27181E-25
 -1       823 1.05526E-04 1.40556E-06-3.30872E-24
 -1       824 1.05422E-04 1.36211E-06 1.65436E-24
 -1       825 1.05317E-04 1.44079E-06 0.00000E+00
 -1       826 1.05213E-04 1.69834E-06 0.00000E+00
 -1       827 1.05108E-04 2.15317E-06 3.30872E-24
 -1       828 1.05003E-04 2.82280E-06 0.00000E+00
 -1       829 1.04899E-04 3.67868E-06 0.00000E+00
 -1       830 1.04794E-04 4.69141E-06 1.65436E-24
 -1       831 1.04689E-04 5.79800E-06-3.30872E-24
 -1       832 1.04584E-04 6.93499E-06-1.65436E-24
 -1       833 1.04479E-04 8.03240E-06 3.30872E-24
 -1       834 1.04375E-04 9.02047E-06-8.27181E-25
 -1       835 1.04272E-04 9.85277E-06 0.00000E+00
 -1       836 1.05721E-04 1.73260E-06-1.65436E-24
 -1       837 1.05496E-04 1.82748E-06 0.00000E+00
 -1       838 1.05193E-04 1.92219E-06 0.00000E+00
 -1       839 1.04853E-04 2.01630E-06 8.27181E-25
 -1       840 1.04513E-04 2.11024E-06-4.13590E-25
 -1       856 1.04148E-04 1.10730E-05 2.06795E-25
 -1       857 1.04119E-04 1.17736E-05 2.06795E-25
 -1       858 1.04090E-04 1.25680E-05 8.27181E-25
 -1       859 1.04061E-04 1.34386E-05 0.00000E+00
 -1       860 1.04031E-04 1.43677E-05 0.00000E+00
 -1       861 1.04001E-04 1.53377E-05-4.13590E-25
 -1       862 1.03971E-04 1.63308E-05 8.27181E-25
 -1       863 1.03941E-04 1.73292E-05-4.13590E-25
 -1       864 1.03911E-04 1.83151E-05 8.27181E-25
 -1       865 1.03881E-04 1.92708E-05-4.13590E-25
 -1       866 1.03852E-04 2.01784E-05 0.00000E+00
 -1       867 1.03822E-04 2.10204E-05-4.13590E-25
 -1       868 1.03792E-04 2.17790E-05 8.27181E-25
 -1       869 1.03762E-04 2.24369E-05 0.00000E+00
 -1       870 1.03733E-04 2.29765E-05 8.27181E-25
 -1       871 1.03800E-04 1.04825E-05-4.13590E-25
 -1       872 1.03535E-04 1.04791E-05 0.00000E+00
 -1       873 1.03333E-04 1.04753E-05 0.00000E+00
 -1       874 1.03145E-04 1.04710E-05-2.06795E-25
 -1       875 1.02922E-04 1.04661E-05 0.00000E+00
 -1       876 1.04052E-04 1.10828E-05 0.00000E+00
 -1       877 1.03912E-04 1.17362E-05-1.65436E-24
 -1       878 1.03754E-04 1.24372E-05 3.30872E-24
 -1       879 1.03581E-04 1.31797E-05-1.65436E-24
 -1       880 1.03394E-04 1.39577E-05-3.30872E-24
 -1       881 1.03197E-04 1.47649E-05-1.65436E-24
 -1       882 1.02991E-04 1.55954E-05 0.00000E+00
 -1       883 1.02778E-04 1.64431E-05 0.00000E+00
 -1       884 1.02561E-04 1.73019E-05 0.00000E+00
 -1       885 1.02342E-04 1.81658E-05 1.65436E-24
 -1       886 1.02124E-04 1.90288E-05 3.30872E-24
 -1       887 1.01908E-04 1.98846E-05 1.65436E-24
 -1       888 1.01697E-04 2.07273E-05 3.30872E-24
 -1       889 1.01493E-04 2.15507E-05 0.00000E+00
 -1       890 1.01297E-04 2.23487E-05 1.65436E-24
 -1       891 1.03391E-04 2.33359E-05 8.27181E-25
 -1       892 1.03060E-04 2.32911E-05 4.13590E-25
 -1       893 1.02688E-04 2.32464E-05 8.27181E-25
 -1       894 1.02253E-04 2.32017E-05-2.06795E-25
 -1       895 1.01734E-04 2.31571E-05 4.13590E-25
 -1       956 1.04117E-04 2.49114E-06 1.65436E-24
 -1       957 1.04017E-04 2.84805E-06-8.27181E-25
 -1       958 1.03917E-04 3.26126E-06 0.00000E+00
 -1       959 1.03817E-04 3.72356E-06 8.27181E-25
 -1       960 1.03717E-04 4.22772E-06-3.30872E-24
 -1       961 1.03617E-04 4.76649E-06-1.65436E-24
 -1       962 1.03517E-04 5.33259E-06 0.00000E+00
 -1       963 1.03416E-04 5.91877E-06 0.00000E+00
 -1       964 1.03316E-04 6.51774E-06 0.00000E+00
 -1       965 1.03216E-04 7.12223E-06 0.00000E+00
 -1       966 1.03115E-04 7.72497E-06-3.30872E-24
 -1       967 1.03015E-04 8.31869E-06-1.65436E-24
 -1       968 1.02915E-04 8.89611E-06 0.00000E+00
 -1       969 1.02815E-04 9.44999E-06 0.00000E+00
 -1       970 1.02715E-04 9.97309E-06 3.30872E-24
 -1       971 1.02524E-04 1.09615E-05-3.30872E-24
 -1       972 1.02429E-04 1.15468E-05 8.27181E-25
 -1       973 1.02335E-04 1.22051E-05 3.30872E-24
 -1       974 1.02240E-04 1.29271E-05 1.65436E-24
 -1       975 1.02145E-04 1.37032E-05 0.00000E+00
 -1       976 1.02051E-04 1.45242E-05-1.65436E-24
 -1       977 1.01956E-04 1.53804E-05-3.30872E-24
 -1       978 1.01861E-04 1.62625E-05-1.65436E-24
 -1       979 1.01766E-04 1.71610E-05 0.00000E+00
 -1       980 1.01671E-04 1.80664E-05 0.00000E+00
 -1       981 1.01576E-04 1.89692E-05 3.30872E-24
 -1       982 1.01482E-04 1.98600E-05-1.65436E-24
 -1       983 1.01387E-04 2.07293E-05-3.30872E-24
 -1       984 1.01293E-04 2.15676E-05 0.00000E+00
 -1       985 1.01199E-04 2.23655E-05 0.00000E+00
 -3
    1PSTEP                        12           6           1          
  100CL  106 5.39062E-01         409                     0    6           1
 -4  STRESS      6    1
 -5  SXX         1    4    1    1
 -5  SYY         1    4    2    2
 -5  SZZ         1    4    3    3
 -5  SXY         1    4    1    2
 -5  SYZ         1    4    2    3
 -5  SZX         1    4    3    1
 -1         1-2.25488E+06-9.61380E+05-4.76659E+05-1.24200E+06 2.40107E-10-2.17551E-08
 -1         2 2.61632E+03-2.84271E+05 8.52816E+03-8.14875E+02-8.89600E-11 8.62548E-09
 -1         3-2.35094E+02-1.03741E+06 2.48937E+02-5.99584E+02-1.91100E-10 6.79393E-09
 -1         5-2.25940E+00 2.82497E+05 7.29831E+00 9.45893E-02 4.69881E-11 1.76442E-08
 -1         8-1.07863E+06-3.95311E+05-1.02984E+05-5.57652E+05-2.61934E-10 4.59113E-09
 -1         9-2.17560E+06-7.10352E+05-2.71151E+05-6.72817E+05 4.67408E-09-5.35510E-09
 -1        10-9.26841E+02-1.08077E+06-1.48329E+03-4.05740E+03-5.55337E-09-2.35488E-08
 -1        12 7.34820E-01 2.82512E+05 2.36342E+02 7.48944E-01 5.19691E-11 9.15315E-09
 -1        15 2.00530E+03 1.10204E+03 6.48213E+03 4.38188E+00-1.00385E-10-3.38062E-08
 -1        16-2.84386E+06-1.24724E+06-4.62601E+05-1.32291E+06 1.07684E-08-6.88791E-09
 -1        17-1.27169E+06-7.17106E+05-2.45242E+05-6.36664E+05-5.97502E-09 3.34694E-09
 -1        18-3.99406E+04-1.46037E+04-3.18517E+04-7.37341E+04 5.70094E-09 2.56387E-09
 -1        19 8.97044E+04 1.04913E+05-6.51204E+02 1.76491E+04-4.18731E-10 7.13044E-11
 -1        20-4.20373E+04-4.23928E+05-9.38364E+04 2.87591E+04 1.47323E-09 3.96115E-09
 -1        21-3.90599E+01-2.40693E+05-7.72595E+02-5.53714E+01-7.38908E-09-5.87629E-09
 -1        24-3.10121E+06-7.88156E+05-3.53311E+05-1.12244E+06-3.83831E-08-1.75205E-08
 -1        25-4.97960E+04-3.62922E+05-6.59437E+04-1.20267E+05 7.64703E-10-7.31598E-10
 -1        26-2.60928E+04 7.01660E+04-1.55545E+04-7.45099E+03 1.24746E-09 2.13649E-09
 -1        27-6.56212E+04-2.31829E+05-8.66905E+04 5.22657E+04 6.33781E-09 1.07593E-09
 -1        28 1.85688E+04-6.70163E+04 1.36296E+04 2.04534E+04 1.81186E-09 3.43598E-09
 -1        32-1.07989E+06-1.02372E+06 1.82402E+05-5.74575E+05-2.39379E-08 4.25391E-09
 -1        33-1.33966E+05 6.74161E+04 2.39949E+04-3.63493E+04 5.35977E-10 2.75092E-09
 -1        34-1.71556E+05-1.73087E+04 4.27529E+02 5.35961E+04 3.17470E-09-7.78679E-10
 -1        35-1.89051E+04-2.66239E+04-1.04753E+03 4.19289E+04 2.50774E-09-2.24948E-09
 -1        51 2.08109E+04-3.54722E+05 5.09685E+04-9.67208E+05 7.27596E-11 5.92263E-09
 -1        52 1.13127E+04-3.51463E+05 3.19617E+04-1.12801E+06 3.49246E-10-2.99769E-09
 -1        53 7.34839E+03-3.66014E+05 2.48302E+04-9.63804E+05 7.49424E-10 1.16415E-09
 -1        54 2.03253E+04-3.64630E+05 3.69647E+04-1.13153E+06 1.23691E-10-5.27507E-09
 -1        55 3.98909E+04-3.78399E+05 6.42255E+04-9.63246E+05 2.91038E-11 1.21690E-08
 -1        56-4.31097E+06-4.82606E+05-3.50710E+05-1.66519E+06 1.87720E-09-7.56700E-09
 -1        57-4.46207E+06-7.90418E+05-2.36521E+05-1.64015E+06-5.74801E-10-1.07757E-08
 -1        58-4.38154E+06-5.93793E+05-8.24759E+04-1.64300E+06-4.29281E-10 1.01318E-08
 -1        59-4.38058E+06-6.59706E+05-4.92378E+04-1.66625E+06 2.84217E-11-4.15093E-09
 -1        60-4.39155E+06-6.09579E+05-1.92355E+04-1.64032E+06-6.00721E-10-1.81071E-08
 -1        61-4.37088E+06-6.39221E+05-1.09044E+04-1.66701E+06 1.62800E-09-7.54244E-09
 -1        62-4.39100E+06-6.13816E+05-5.20644E+03-1.64234E+06 6.02768E-10-8.36673E-09
 -1        63-4.37490E+06-6.31258E+05-4.16542E+03-1.66075E+06-1.96110E-10-5.35340E-09
 -1        64-4.38742E+06-6.17543E+05-4.68013E+03-1.64653E+06-9.77479E-10-4.89649E-09
 -1        65-4.38406E+06-6.25008E+05-9.25038E+03-1.65120E+06 4.17674E-09-2.16432E-08
 -1        66-4.38181E+06-6.20145E+05-1.62210E+04-1.65184E+06 8.31847E-10-1.86446E-10
 -1        67-4.40230E+06-6.32007E+05-4.12417E+04-1.63899E+06-4.64593E-09 3.54339E-09
 -1        68-4.36937E+06-6.10934E+05-6.91289E+04-1.65865E+06-1.32695E-09 9.81890E-09
 -1        69-4.47582E+06-7.36440E+05-1.98120E+05-1.61153E+06 2.15550E-10-8.52197E-09
 -1        70-4.30920E+06-5.18774E+05-2.93831E+05-1.67835E+06 3.28873E-09-6.69388E-09
 -1        86-1.31438E+03-2.87088E+05 9.10400E+03 4.07424E+02 1.11527E-09 7.30853E-09
 -1        87 8.69259E+03-2.81385E+05 1.90275E+04-1.57474E+03 1.81535E-09-4.36921E-09
 -1        88-7.36800E+03-2.89975E+05 2.91281E+04 1.16730E+03 2.60661E-09 2.73769E-09
 -1        89 5.48810E+04-2.60090E+05 7.85201E+04-2.88964E+03 3.91537E-09-1.28906E-08
 -1        90-4.73365E+04-3.08364E+05 1.11026E+05 1.72276E+03 3.87081E-09-1.56022E-08
 -1       121-3.44354E+02-1.03831E+06 1.26243E+02 2.99137E+02 5.88841E-10-7.56881E-09
 -1       122-1.49735E+02-1.03737E+06 5.29559E+02-1.19804E+03-2.28118E-09-1.37115E-08
 -1       123-3.95323E+02-1.03837E+06 7.41656E+02 8.95001E+02 1.74259E-09-7.76890E-09
 -1       124 8.34733E+02-1.03682E+06 2.18546E+03-2.58421E+03-4.04816E-09-4.77667E-09
 -1       125-1.01113E+03-1.03893E+06 3.23576E+03 1.68294E+03 2.82489E-09-6.60293E-10
 -1       191-2.61566E+00 2.82521E+05 8.87624E+00-4.74871E-02 7.83020E-11 7.15636E-09
 -1       192-2.92851E+00 2.82497E+05 1.54450E+01 4.27184E-01 1.10694E-10 3.15958E-09
 -1       193-4.39532E+00 2.82521E+05 2.88715E+01-3.81162E-01 9.74900E-11-2.01389E-08
 -1       194-5.08205E+00 2.82499E+05 5.84002E+01 1.01932E+00 5.08100E-11-3.99912E-08
 -1       195-7.81555E+00 2.82519E+05 1.14381E+02-6.42832E-01 1.35060E-10-1.83554E-08
 -1       251-1.09318E+06 5.00826E+03-1.19298E+04-9.27012E+03-1.23725E-09 1.07138E-08
 -1       252-1.09716E+06-5.76559E+03-8.18869E+03 1.14338E+04 5.23755E-10 9.51877E-09
 -1       253-1.09573E+06 7.17931E+02-3.22635E+03-4.71850E+03-1.48384E-09 1.78716E-10
 -1       254-1.09411E+06-8.54182E+02-1.58089E+03 7.79630E+02 6.42331E-11 3.10942E-09
 -1       255-1.09616E+06 5.93598E+01-9.23751E+02 1.38414E+03 3.00247E-10-8.51406E-09
 -1       256-1.09416E+06-8.00692E+01-1.28129E+02-1.05216E+04 4.21579E-10 1.74445E-08
 -1       257-1.09572E+06-2.12326E+01-1.06961E+02 6.58258E+03 3.59762E-10 8.06720E-09
 -1       258-1.09503E+06 1.21098E+02 3.07990E+02-1.79122E+04-6.26514E-10-4.97452E-09
 -1       259-1.09538E+06-6.93218E+01 6.10105E+02 8.77504E+03-9.44524E-10-1.01373E-08
 -1       260-1.09490E+06 5.34645E+02 1.51064E+03-1.84107E+04 3.56621E-10-1.63760E-08
 -1       261-1.09586E+06-4.26823E+02 2.51563E+03 7.08118E+03 1.60020E-09 4.78053E-09
 -1       262-1.09272E+06 3.06272E+03 6.55742E+03-1.18200E+04-3.21393E-10 1.23300E-08
 -1       263-1.09747E+06-2.65826E+03 9.97881E+03 2.18408E+03-1.59844E-10-3.42743E-09
 -1       264-1.08450E+06 1.95048E+04 2.80220E+04-8.37930E+02-1.88766E-09-4.14730E-09
 -1       265-1.10401E+06-1.68584E+04 3.90799E+04-3.90088E+03-1.72270E-09-8.67476E-09
 -1       266-3.63014E+04-1.69719E+04 8.51866E+04-9.37709E+01-9.45874E-11-3.31931E-08
 -1       267 4.20846E+04 1.97853E+04 6.02020E+04 1.08178E+02-1.33696E-10-7.16624E-08
 -1       268-5.64341E+03-2.80191E+03 2.23772E+04-1.37846E+01-1.75532E-10-5.52273E-08
 -1       269 6.66328E+03 3.35355E+03 1.45445E+04 1.60560E+01-1.60981E-10-4.20292E-08
 -1       270-1.00016E+03-5.51002E+02 7.02083E+03-2.17896E+00-9.23137E-11-3.32184E-08
 -1       271-3.41255E+06-4.27056E+05-2.59172E+05-1.32960E+06-3.81988E-10-3.39060E-09
 -1       272-3.50088E+06-6.20709E+05-1.66630E+05-1.33233E+06 3.50133E-09-1.09139E-08
 -1       273-3.46268E+06-4.90299E+05-6.12323E+04-1.31648E+06-1.00226E-09 1.92376E-08
 -1       274-3.44148E+06-5.43935E+05-3.42347E+04-1.35294E+06-1.16916E-09 2.51403E-08
 -1       275-3.47117E+06-4.95194E+05-1.42646E+04-1.31250E+06-7.19410E-10 9.95442E-09
 -1       276-3.43088E+06-5.38822E+05-7.54228E+03-1.35974E+06-1.57752E-09 4.91309E-09
 -1       277-3.47371E+06-4.94190E+05-3.71041E+03-1.31041E+06 5.00222E-10 2.39925E-09
 -1       278-3.42795E+06-5.40250E+05-2.66601E+03-1.36294E+06 2.90129E-10-1.07241E-08
 -1       279-3.47447E+06-4.93451E+05-2.84345E+03-1.30959E+06-1.09287E-09-3.06022E-09
 -1       280-3.42813E+06-5.41168E+05-5.21193E+03-1.36328E+06 4.95675E-11 3.67618E-09
 -1       281-3.47359E+06-4.93282E+05-9.48918E+03-1.31009E+06-6.02540E-10-3.28146E-09
 -1       282-3.43414E+06-5.45642E+05-2.27435E+04-1.36011E+06 1.23987E-09-8.16362E-09
 -1       283-3.46830E+06-4.89719E+05-4.05323E+04-1.31237E+06 8.70841E-11-2.16278E-09
 -1       284-3.47316E+06-5.96714E+05-1.10397E+05-1.34658E+06-5.53996E-10-7.74526E-09
 -1       285-3.43496E+06-4.48030E+05-1.71714E+05-1.32123E+06 1.51522E-09-4.97676E-09
 -1       301 2.11557E+04-5.27007E+04 1.56161E+05-1.01344E+05-6.91216E-10-1.19144E-09
 -1       302 2.22476E+04-1.31729E+04 1.03754E+05-1.49005E+05 7.88532E-10 8.35280E-09
 -1       303 1.12106E+03-3.72730E+04 8.16334E+04-1.01435E+05-9.74978E-10 8.18545E-11
 -1       304 2.77426E+04-7.48666E+03 1.22289E+05-1.48545E+05 6.03904E-10 2.57114E-09
 -1       305 2.68099E+04-5.73938E+04 1.97134E+05-1.01846E+05-6.76664E-10-1.07684E-09
 -1       306-5.67781E+06-6.12461E+05-4.29732E+05-2.14090E+06-8.84029E-10-6.19912E-09
 -1       307-5.63042E+06-1.15370E+06-2.79600E+05-2.28987E+06-1.80444E-08 1.10158E-08
 -1       308-5.82740E+06-6.63145E+05-1.00779E+05-2.00883E+06-1.68461E-09 2.02708E-08
 -1       309-5.46821E+06-1.09101E+06-5.84303E+04-2.45911E+06 1.13318E-08-1.39698E-09
 -1       310-5.85146E+06-6.63734E+05-2.27552E+04-1.98126E+06 8.83392E-09-9.70249E-09
 -1       311-5.47597E+06-1.02831E+06-9.34962E+03-2.40962E+06 1.63800E-08-3.80078E-09
 -1       312-5.81393E+06-7.29444E+05-1.23311E+04-2.05447E+06-8.96762E-10 1.23355E-08
 -1       313-5.59535E+06-8.64964E+05 4.33348E+03-2.20346E+06-8.11451E-09 2.69119E-08
 -1       314-5.71901E+06-8.36360E+05-1.60864E+04-2.17770E+06 2.62007E-08-3.60342E-09
 -1       315-5.80872E+06-6.68389E+05-6.73122E+03-1.98093E+06-1.09794E-08 1.83672E-09
 -1       316-5.60448E+06-9.23225E+05-2.96368E+04-2.27948E+06-1.41335E-08-2.40070E-08
 -1       317-5.99624E+06-5.66330E+05-6.68242E+04-1.85210E+06 1.88306E-08-3.42570E-08
 -1       318-5.54507E+06-9.29363E+05-1.12878E+05-2.31679E+06-3.48045E-08 8.18545E-09
 -1       319-6.08798E+06-7.70437E+05-3.27015E+05-1.83001E+06-1.03955E-08-6.11180E-10
 -1       320-5.51208E+06-7.23206E+05-4.88668E+05-2.29939E+06 1.57306E-08-8.46921E-09
 -1       336 5.62030E+02-1.12403E+06-6.32640E+03 2.36370E+03-1.06238E-08 2.02272E-09
 -1       337-2.33681E+03-1.12520E+06-7.00476E+03-5.83206E+03-2.02185E-08-7.38146E-09
 -1       338 3.78528E+02-1.12417E+06-9.21850E+03 3.44812E+03-1.47265E-08-6.20275E-09
 -1       339-9.52744E+03-1.12982E+06-2.01532E+04-7.95489E+03-2.63299E-08 5.72800E-09
 -1       340 6.32097E+03-1.11967E+06-3.12565E+04 4.46842E+03-1.73877E-08 1.23200E-08
 -1       406 1.89343E+01 2.82508E+05 4.66749E+02-1.12959E-01 3.13690E-10 1.33518E-08
 -1       407 1.63398E+02 2.82593E+05 9.91664E+02-4.05577E+00-2.61053E-11 9.83255E-09
 -1       408 5.11303E+02 2.82437E+05 1.98074E+03 4.26749E+00 2.18961E-10 1.22297E-08
 -1       409 2.14211E+03 2.83226E+05 4.45884E+03-4.20056E+01-7.45786E-11-1.18143E-08
 -1       410 6.15335E+03 2.81874E+05 9.10265E+03 3.95306E+01 1.80080E-10 1.99111E-09
 -1       521-8.17520E+06-7.90962E+05-7.90793E+05-2.55327E+06-1.19908E-08 1.64728E-08
 -1       522-5.66690E+06-2.10002E+06-2.02622E+05-3.95277E+06-7.71397E-08-7.13771E-09
 -1       523-8.17379E+06-3.38030E+05-1.55707E+05-1.79654E+06-2.03581E-08-5.37257E-08
 -1       524-6.03673E+06-2.27803E+06-3.55543E+04-4.96018E+06 8.81558E-08-9.77629E-08
 -1       525-8.17370E+06-3.37566E+05-4.32099E+04-1.76557E+06 8.57108E-08-7.37964E-08
 -1       526-5.58135E+06-1.94437E+06 1.34040E+05-4.10025E+06 2.41562E-08 9.67702E-10
 -1       527-8.29498E+06-9.17227E+05-2.15746E+05-2.46080E+06 1.96742E-08-2.00016E-08
 -1       528-5.75618E+06-8.97570E+05 2.71591E+05-2.31239E+06 7.50006E-08-2.13549E-09
 -1       529-7.65718E+06-1.62414E+06-2.34801E+05-3.26901E+06 2.90311E-08-1.11831E-08
 -1       530-7.76729E+06 4.03087E+05 1.58543E+05-1.32091E+06-5.77420E-08 5.92554E-08
 -1       531-6.59813E+06-1.98662E+06-6.21043E+04-3.64354E+06-1.11148E-07-1.80080E-09
 -1       532-9.30341E+06 9.99550E+05-3.02407E+04-1.23153E+06 9.57061E-08-1.30079E-07
 -1       533-6.45603E+06-1.99224E+06-1.30213E+05-3.67156E+06 2.72266E-08-1.57619E-07
 -1       534-8.31139E+06 4.04952E+05-2.06129E+05-1.23355E+06-5.60758E-08 1.14597E-07
 -1       535-7.34900E+06-1.55974E+06-7.40011E+05-3.40712E+06-6.92671E-09 7.25558E-08
 -1       536-3.89916E+05-1.90634E+04 3.33243E+04-1.33278E+04-3.27532E-09 2.11530E-08
 -1       537-3.31386E+05 2.13885E+04 3.12884E+04 3.19236E+04-3.78183E-08 2.36337E-08
 -1       538-3.61472E+05-2.07188E+03 9.96488E+03-1.94603E+04 8.26968E-09 3.48518E-08
 -1       539-3.48491E+05 3.05435E+03 8.19866E+03 3.47799E+04 4.24423E-08 3.38763E-08
 -1       540-3.73036E+05-5.37754E+02 5.58525E+01-1.61907E+04 4.75870E-09 3.13927E-08
 -1       541-3.12351E+05 1.97892E+03 1.09693E+04 1.98677E+04-1.11243E-08 2.02530E-08
 -1       542-3.96642E+05-1.80650E+03-6.82257E+03-4.52865E+03 1.83118E-08 1.09247E-08
 -1       543-2.96315E+05 2.20060E+03 1.28836E+04-5.97881E+03-3.40589E-09 6.70084E-09
 -1       544-3.88664E+05-1.12286E+03-6.17667E+03 9.63676E+03-9.81686E-10-5.50023E-09
 -1       545-3.30786E+05 1.08316E+02 4.44866E+03-2.86883E+04-4.25314E-09-1.78331E-08
 -1       546-3.63058E+05 1.02623E+03-3.09778E+03 1.81769E+04 4.60881E-09-2.66425E-08
 -1       547-3.54959E+05-3.39020E+03-5.31023E+03-3.64591E+04-3.28444E-08-3.19416E-08
 -1       548-3.65076E+05 2.88227E+03-1.17394E+04 1.74222E+04-3.35525E-08-2.52935E-08
 -1       549-3.32281E+05-1.72565E+04-2.10227E+04-2.57968E+04-1.72720E-08-1.69712E-08
 -1       550-3.84970E+05 1.42328E+04-4.79858E+04 7.49707E+03 1.65824E-09-8.34370E-09
 -1       551 1.72601E+04-5.80198E+05 2.43871E+04-9.65347E+05-4.75775E-08-3.92902E-09
 -1       552 3.91985E+04-5.91810E+05 3.18123E+04-1.37496E+06-3.47209E-08 1.86265E-08
 -1       553 2.79377E+04-5.97766E+05 4.65829E+04-9.61712E+05-5.78366E-08 8.23638E-09
 -1       554 6.58411E+04-5.87573E+05 9.75959E+04-1.37640E+06-3.66417E-08 8.10587E-09
 -1       555 5.61188E+04-6.16418E+05 1.73348E+05-9.62656E+05-5.79312E-08-2.30648E-09
 -1       556 1.00536E+05-1.86179E+05 6.21349E+04-2.35300E+05-9.45874E-09-1.54105E-08
 -1       557 1.76101E+05-2.47254E+05 3.28913E+04-2.95866E+05 6.98492E-10 1.19417E-09
 -1       558 9.87130E+04-1.93595E+05 1.29078E+04-2.29008E+05-1.42463E-08-3.12139E-09
 -1       559 1.63891E+05-2.55175E+05 6.67540E+03-3.01797E+05 5.30417E-09 7.86713E-10
 -1       560 9.51740E+04-1.91300E+05 2.53427E+03-2.31360E+05-2.32831E-10 5.69526E-09
 -1       561 1.58807E+05-2.53598E+05 1.43826E+03-3.05054E+05-1.10595E-09 4.21096E-09
 -1       562 9.23617E+04-1.89467E+05 4.35333E+02-2.33380E+05 1.04046E-09 7.17773E-09
 -1       563 1.55505E+05-2.52168E+05 3.52387E+02-3.07171E+05 2.47383E-10 3.58659E-09
 -1       564 9.05339E+04-1.88304E+05 9.64746E+01-2.34674E+05 6.86123E-09 2.60934E-09
 -1       565 1.53644E+05-2.51364E+05 1.14843E+02-3.08347E+05 2.90129E-09-4.79304E-09
 -1       566 8.97383E+04-1.87790E+05 1.87811E+01-2.35237E+05-4.52201E-09-2.14459E-09
 -1       567 1.53184E+05-2.51151E+05-5.35305E+01-3.08559E+05 9.86483E-09 3.59432E-09
 -1       568 9.00149E+04-1.87975E+05-2.84719E+02-2.35122E+05-9.42237E-10-1.01863E-09
 -1       569 1.53355E+05-2.51024E+05-6.85077E+02-3.07085E+05 2.03727E-10 1.45501E-08
 -1       570 9.20007E+04-1.89623E+05-1.61865E+03-2.34913E+05 1.41154E-09 1.85537E-09
 -1       571 2.09443E+05 7.69390E+03 1.13599E+04-5.45140E+04 1.03955E-09 3.19596E-09
 -1       572 2.11128E+05 2.69846E+03 5.56588E+03-5.97736E+04 1.21508E-09-6.33008E-09
 -1       573 2.10117E+05 6.65694E+02 2.47270E+03-5.43815E+04 1.06184E-09-4.47335E-09
 -1       574 2.10313E+05 2.41150E+02 1.23909E+03-5.99239E+04 2.75577E-10 1.42700E-09
 -1       575 2.10191E+05 5.97937E+01 5.84207E+02-5.43640E+04-5.40695E-10 7.00720E-09
 -1       576 2.10203E+05 4.24392E+01 2.97830E+02-5.99439E+04-1.85521E-09 3.55476E-09
 -1       577 2.10205E+05 2.59832E+01 1.47418E+02-5.43617E+04 7.82848E-10-1.68347E-09
 -1       578 2.10196E+05 3.00305E+01 8.19006E+01-5.99464E+04 3.58341E-10-1.11681E-08
 -1       579 2.10223E+05 2.04012E+01 5.25741E+01-5.43616E+04-1.06047E-09-8.30732E-09
 -1       580 2.10221E+05 1.94202E+01 5.35302E+01-5.99432E+04-2.16278E-09-1.13687E-09
 -1       581 2.10253E+05 8.16775E+00 7.69632E+01-5.43649E+04 1.09048E-09 3.07045E-09
 -1       582 2.10275E+05 2.11824E+01 1.50515E+02-5.99100E+04 1.15369E-09-5.44878E-09
 -1       583 2.10288E+05 5.42376E+01 2.90220E+02-5.43949E+04 8.00355E-11 2.54204E-09
 -1       584 2.10427E+05 2.82489E+02 6.52262E+02-5.96585E+04-2.72848E-11-1.31547E-09
 -1       585 2.10260E+05 8.54752E+02 1.32463E+03-5.46167E+04 7.55790E-10-6.49015E-09
 -1       586-2.52263E+03 6.90694E+04-3.19038E+03-1.87549E+05 2.85581E-10 1.85362E-08
 -1       587-5.59579E+02 6.86601E+04-1.70420E+02-2.06412E+05-1.09139E-11 3.22137E-08
 -1       588 7.25542E+02 6.87153E+04 2.72172E+03-1.87449E+05 2.38288E-10 1.98797E-08
 -1       589 3.79819E+03 7.01941E+04 7.67093E+03-2.06214E+05-1.29148E-10-7.25777E-09
 -1       590 1.10619E+04 6.78460E+04 1.63313E+04-1.87754E+05-4.22006E-10 7.59337E-09
 -1       591-4.28233E+04-1.19110E+04-1.47477E+04-2.16683E+04-4.85102E-10-2.62116E-09
 -1       592-4.44626E+04-1.52754E+04-7.98810E+03-2.52217E+04-4.10171E-09-9.06493E-09
 -1       593-4.43108E+04-1.08281E+04-3.32544E+03-2.27374E+04 1.25260E-09-7.91920E-09
 -1       594-4.24117E+04-1.31275E+04-1.65854E+03-2.53188E+04-7.77789E-10-2.95486E-09
 -1       595-4.44247E+04-1.08234E+04-7.62066E+02-2.27864E+04-3.69550E-09 1.28874E-08
 -1       596-4.22725E+04-1.30291E+04-3.88265E+02-2.53039E+04 1.00550E-09 1.39659E-08
 -1       597-4.44391E+04-1.08330E+04-2.13300E+02-2.27883E+04-3.16356E-09 3.07307E-09
 -1       598-4.22591E+04-1.30254E+04-1.74916E+02-2.52997E+04-6.14602E-09 1.46460E-08
 -1       599-4.44380E+04-1.08331E+04-2.27747E+02-2.27879E+04 2.82932E-09 1.03648E-09
 -1       600-4.22736E+04-1.30303E+04-4.26527E+02-2.53032E+04 1.28473E-08-2.49202E-10
 -1       601-4.44200E+04-1.08231E+04-8.43263E+02-2.27850E+04 4.05635E-09-1.06434E-09
 -1       602-4.24275E+04-1.31391E+04-1.83872E+03-2.53175E+04-4.38285E-09-2.97678E-09
 -1       603-4.42920E+04-1.08303E+04-3.68795E+03-2.27309E+04 6.14818E-10 5.88261E-09
 -1       604-4.47108E+04-1.55113E+04-8.85895E+03-2.51966E+04-1.07855E-09-8.67453E-09
 -1       605-4.26310E+04-1.20401E+04-1.63554E+04-2.15550E+04 9.03356E-10-4.10182E-09
 -1       606 2.76799E+04-1.00502E+04-1.80794E+04 2.68461E+04 1.70239E-08 9.58607E-10
 -1       607 2.45846E+04-3.24988E+03-9.00249E+03 3.01390E+04 3.38187E-08-7.02676E-09
 -1       608 2.63393E+04-5.55786E+02-4.03156E+03 2.66340E+04 1.95887E-08-7.20547E-10
 -1       609 2.59905E+04-1.52071E+02-2.03617E+03 3.03753E+04 2.34741E-09-7.07087E-09
 -1       610 2.61760E+04 1.74531E+01-9.72659E+02 2.66101E+04-2.47383E-10-1.35174E-09
 -1       611 2.61106E+04 3.01924E+01-4.90449E+02 3.04011E+04-2.95631E-09 5.76961E-09
 -1       612 2.61318E+04 3.40588E+01-2.34530E+02 2.66078E+04-2.47383E-10 1.55380E-08
 -1       613 2.61073E+04 3.95286E+01-1.06421E+02 3.04041E+04-1.17006E-09 5.30576E-09
 -1       614 2.61073E+04 3.52449E+01-2.87462E+01 2.66070E+04 8.01901E-09 1.07543E-08
 -1       615 2.60943E+04 4.56163E+01 3.58010E+01 3.04045E+04 1.98202E-08-2.17801E-09
 -1       616 2.60887E+04 4.15785E+01 1.15399E+02 2.66073E+04 6.43422E-09-1.12730E-08
 -1       617 2.61013E+04 7.44745E+01 2.66649E+02 3.04040E+04 3.69437E-09-4.83124E-09
 -1       618 2.60604E+04 1.21723E+02 5.38580E+02 2.66074E+04 6.42103E-10 4.56839E-09
 -1       619 2.62873E+04 4.93612E+02 1.21027E+03 3.04032E+04 1.64528E-09 1.72827E-09
 -1       620 2.58788E+04 1.40140E+03 2.43275E+03 2.66063E+04 3.07898E-09 8.75843E-09
 -1       621 2.92466E+02 2.19886E+05 2.63032E+03 1.18049E+04-9.22000E-11 3.43425E-09
 -1       622 3.46108E+02 2.20534E+05 2.35013E+03 1.72047E+04-2.74440E-10-1.34139E-09
 -1       623 1.71899E+01 2.20053E+05 2.85570E+03 1.17500E+04-2.45194E-10-5.50244E-11
 -1       624 1.33626E+03 2.21435E+05 5.55639E+03 1.72586E+04-5.64455E-11 9.06294E-09
 -1       625 1.34330E+03 2.18969E+05 9.72244E+03 1.17508E+04 1.04137E-10-5.33072E-09
 -1       626 1.88207E+05 5.07951E+04 3.91623E+03 9.98284E+04 6.74390E-10 1.57888E-09
 -1       627 1.85820E+05 5.24763E+04 1.88720E+03 1.03781E+05-2.09911E-09 5.30054E-09
 -1       628 1.88338E+05 4.89603E+04 7.97157E+02 1.00439E+05 1.88356E-09 1.24974E-08
 -1       629 1.85273E+05 5.20110E+04 3.90578E+02 1.04016E+05 1.54250E-09 8.18164E-09
 -1       630 1.88345E+05 4.88742E+04 1.80472E+02 1.00457E+05 3.01497E-09 1.43236E-08
 -1       631 1.85207E+05 5.19993E+04 9.67698E+01 1.04016E+05 1.96042E-09 9.51087E-09
 -1       632 1.88335E+05 4.88813E+04 6.30953E+01 1.00448E+05-3.35103E-09-2.05694E-09
 -1       633 1.85193E+05 5.20047E+04 6.94478E+01 1.04009E+05-2.95427E-09 2.44290E-09
 -1       634 1.88325E+05 4.88823E+04 1.11407E+02 1.00444E+05 2.20689E-09-2.75668E-09
 -1       635 1.85198E+05 5.20062E+04 2.25216E+02 1.04008E+05 2.40243E-09 1.94359E-09
 -1       636 1.88313E+05 4.88811E+04 4.54542E+02 1.00441E+05-2.63691E-09-1.12636E-08
 -1       637 1.85292E+05 5.20783E+04 9.98879E+02 1.04004E+05 3.11118E-09-5.14774E-09
 -1       638 1.88275E+05 4.91034E+04 2.05265E+03 1.00339E+05 7.19251E-09-1.74668E-09
 -1       639 1.86367E+05 5.35787E+04 4.85599E+03 1.03685E+05 1.37816E-08-1.46088E-08
 -1       640 1.88131E+05 5.35740E+04 1.00772E+04 9.84427E+04 8.46467E-09-4.46312E-09
 -1       656 5.03017E+04-1.27570E+06-1.21426E+05-4.35596E+02 6.62112E-10-1.52410E-08
 -1       657-6.64861E+04-1.33051E+06-1.00457E+05 7.58360E+03 1.97451E-09 5.44560E-11
 -1       658 1.59696E+04-1.29132E+06-6.16942E+04-1.77361E+03 1.66631E-09-4.96419E-09
 -1       659-7.14202E+04-1.33285E+06-1.06938E+05 8.51270E+03-8.57654E-10-1.64890E-09
 -1       660 5.52243E+04-1.27336E+06-1.32572E+05-1.36467E+03-1.22964E-09-7.34701E-11
 -1       661 1.68614E+05 1.82812E+04 1.63948E+04 6.59252E+04 2.32239E-09 2.17187E-09
 -1       662 1.77286E+05 3.10089E+04 1.10476E+04 6.29251E+04 5.22789E-10 6.31940E-09
 -1       663 1.71830E+05 2.35442E+04 3.86443E+03 6.49952E+04 1.44894E-09 5.87397E-09
 -1       664 1.73563E+05 2.48498E+04 2.31065E+03 6.40573E+04 3.46546E-10-8.56463E-09
 -1       665 1.72313E+05 2.42673E+04 9.11481E+02 6.48583E+04 1.21997E-09-3.63215E-09
 -1       666 1.72995E+05 2.40195E+04 5.31863E+02 6.42337E+04-4.60582E-09 1.26525E-08
 -1       667 1.72395E+05 2.43527E+04 2.80755E+02 6.48269E+04-1.40628E-09-2.73230E-09
 -1       668 1.72906E+05 2.39536E+04 2.82090E+02 6.42792E+04-1.72605E-09 4.95824E-10
 -1       669 1.72401E+05 2.43312E+04 3.78620E+02 6.48134E+04 1.16952E-09 7.49964E-09
 -1       670 1.73000E+05 2.41557E+04 8.21406E+02 6.42801E+04 6.61089E-09-1.02475E-08
 -1       671 1.72301E+05 2.41547E+04 1.45743E+03 6.48243E+04-1.98999E-09 2.72576E-09
 -1       672 1.73849E+05 2.55735E+04 3.72799E+03 6.40750E+04-2.25921E-09-4.41389E-10
 -1       673 1.71556E+05 2.29490E+04 6.24719E+03 6.50048E+04-5.68059E-09-1.37106E-10
 -1       674 1.79797E+05 3.56084E+04 1.78656E+04 6.23264E+04-4.02042E-09 8.79299E-09
 -1       675 1.66392E+05 1.44004E+04 2.65183E+04 6.64672E+04 1.90721E-09 9.12041E-09
 -1       676 2.00508E+01-2.40629E+05-9.31177E+02 2.76863E+01-3.30260E-10 2.65610E-09
 -1       677-2.47237E+02-2.40854E+05-1.70417E+03-5.53412E+01-2.25293E-09-1.55973E-08
 -1       678 1.65077E+02-2.40468E+05-3.01253E+03 2.76358E+01-4.32465E-10-1.16066E-09
 -1       679-3.01330E+03-2.42672E+05-7.15633E+03-5.51474E+01-4.90979E-09 8.31891E-09
 -1       680 1.79836E+03-2.38811E+05-1.15336E+04 2.71779E+01-1.42427E-09 5.39561E-09
 -1       771-2.56522E+06-4.90842E+05-7.15227E+04-1.10885E+06-8.65111E-09-9.85165E-09
 -1       772-2.53630E+06-5.35124E+05-3.78629E+04-1.15890E+06-5.29690E-09-2.25737E-09
 -1       773-2.57682E+06-4.81699E+05-1.72976E+04-1.11302E+06-2.29920E-09 4.13274E-09
 -1       774-2.52748E+06-5.27432E+05-8.16027E+03-1.16625E+06 9.48785E-09-2.12640E-09
 -1       775-2.58095E+06-4.78810E+05-4.79878E+03-1.11391E+06-4.05998E-09-3.27782E-09
 -1       776-2.52876E+06-5.27389E+05-2.02536E+03-1.17100E+06-3.83443E-09 2.11730E-09
 -1       777-2.58421E+06-4.76404E+05-1.68681E+03-1.11464E+06 1.00408E-09 1.69530E-09
 -1       778-2.53052E+06-5.27505E+05-5.87169E+02-1.17500E+06 1.29512E-09 9.88985E-09
 -1       779-2.58691E+06-4.74355E+05-7.66456E+02-1.11528E+06-3.05590E-09-3.68527E-09
 -1       780-2.53212E+06-5.27567E+05-2.76159E+02-1.17825E+06-5.96629E-09-1.65528E-10
 -1       781-2.58899E+06-4.72727E+05-5.20849E+02-1.11579E+06-1.35187E-08-1.41335E-09
 -1       782-2.53339E+06-5.27604E+05-5.16320E+02-1.18063E+06-1.72295E-08-3.07432E-09
 -1       783-2.59040E+06-4.71629E+05-1.06081E+03-1.11613E+06-3.49610E-09-6.73322E-09
 -1       784-2.53475E+06-5.28217E+05-2.32012E+03-1.18205E+06-6.71571E-09 3.66299E-09
 -1       785-2.59070E+06-4.71382E+05-4.32999E+03-1.11600E+06-1.56197E-08 2.78942E-09
 -1       786 1.64951E+05-9.75284E+03 2.24888E+04-7.41085E+01 2.95203E-06 2.09639E-09
 -1       787 1.74711E+05 1.12885E+04 1.59223E+04 1.53657E+01 5.88985E-06-1.61890E-09
 -1       788 1.68713E+05-1.53338E+03 5.81960E+03-4.80527E+01 4.30853E-06 3.71097E-09
 -1       789 1.70327E+05 1.77390E+03 3.65991E+03-1.92266E+01 2.72482E-06 7.73133E-09
 -1       790 1.69336E+05-2.40175E+02 1.48610E+03-3.95167E+01 1.92497E-06-5.69906E-09
 -1       791 1.69600E+05 2.78611E+02 8.70603E+02-3.10928E+01 1.12579E-06-2.60501E-09
 -1       792 1.69441E+05-3.83721E+01 3.91250E+02-3.61865E+01 9.61124E-07 8.51585E-10
 -1       793 1.69480E+05 5.11058E+01 2.45009E+02-3.69779E+01 7.96571E-07 6.90784E-09
 -1       794 1.69456E+05-1.27050E+01 1.63651E+02-3.36315E+01 1.03639E-06 6.85853E-09
 -1       795 1.69482E+05 5.85082E+01 2.11265E+02-4.46329E+01 1.27574E-06 7.18053E-09
 -1       796 1.69439E+05-4.57718E+01 3.00751E+02-2.85313E+01 1.91078E-06-4.06206E-09
 -1       797 1.69614E+05 3.32968E+02 6.96935E+02-6.39811E+01 2.54552E-06 1.09344E-08
 -1       798 1.69323E+05-2.87117E+02 1.09489E+03-1.42830E+01 3.35604E-06-5.18918E-09
 -1       799 1.70437E+05 2.11358E+03 2.98395E+03-1.20241E+02 4.16099E-06 7.64561E-09
 -1       800 1.68616E+05-1.82604E+03 4.20999E+03 2.77300E+01 2.07239E-06 2.42153E-10
 -1       801 5.11458E+04-1.87053E+06-1.69153E+05 3.42119E+04 1.50831E-08-2.22235E-09
 -1       802-5.69978E+04-1.70640E+06-6.58836E+04-6.16569E+04 4.08691E-08 2.29466E-09
 -1       803 5.18594E+03-1.78288E+06-9.89264E+03 8.72751E+04 3.20397E-08 2.58144E-08
 -1       804 5.20592E+04-1.65266E+06 7.77303E+04-4.17206E+04 3.43698E-08 3.33049E-08
 -1       805-5.86325E+04-1.92366E+06 7.68208E+04 1.42677E+04 1.29439E-08 2.36757E-08
 -1       806-2.28419E+05-4.60809E+04-1.79525E+04-9.22941E+04-4.33920E-09-3.38105E-09
 -1       807-2.29711E+05-4.32724E+04-8.81978E+03-9.67818E+04 3.98700E-09 1.29648E-09
 -1       808-2.28913E+05-3.96101E+04-3.74145E+03-9.53542E+04 3.67891E-10 2.47582E-09
 -1       809-2.27845E+05-4.08065E+04-1.82929E+03-9.70147E+04-4.09091E-09 1.54942E-08
 -1       810-2.28989E+05-3.93833E+04-8.37920E+02-9.54895E+04 3.78805E-10 3.44812E-09
 -1       811-2.27702E+05-4.07080E+04-4.16056E+02-9.69900E+04 3.76986E-10 1.25169E-09
 -1       812-2.29002E+05-3.94014E+04-2.08780E+02-9.54892E+04 1.34605E-10-1.44651E-08
 -1       813-2.27683E+05-4.07101E+04-1.33390E+02-9.69773E+04 1.21154E-08-5.64364E-09
 -1       814-2.28999E+05-3.94081E+04-1.28104E+02-9.54862E+04 6.61430E-09 2.99201E-09
 -1       815-2.27685E+05-4.07120E+04-2.03164E+02-9.69732E+04 3.11024E-09 1.14278E-08
 -1       816-2.28985E+05-3.94068E+04-3.82571E+02-9.54837E+04 8.59472E-10 1.04428E-08
 -1       817-2.27751E+05-4.07485E+04-8.20683E+02-9.69660E+04 1.85901E-09 8.34552E-09
 -1       818-2.28936E+05-3.95220E+04-1.67310E+03-9.54292E+04 5.80258E-10-2.09184E-09
 -1       819-2.28671E+05-4.17560E+04-3.93740E+03-9.67463E+04-2.79488E-09-7.96899E-09
 -1       820-2.28622E+05-4.24955E+04-8.01355E+03-9.41569E+04-1.12232E-09 4.67605E-09
 -1       821-2.91666E+05 1.60893E+04-3.72093E+04 2.52301E+02 1.02860E-09 4.82214E-09
 -1       822-3.07787E+05-1.86261E+04-2.63306E+04-9.55858E+02-1.66306E-09 3.01179E-09
 -1       823-2.97886E+05 2.52278E+03-9.63697E+03 2.62639E+02-1.43799E-10-2.73258E-09
 -1       824-3.00525E+05-2.91965E+03-6.06261E+03-7.96034E+02-2.33742E-11 4.87603E-10
 -1       825-2.98925E+05 3.94635E+02-2.49399E+03 9.24746E+01-1.43484E-09 3.71904E-09
 -1       826-2.99311E+05-4.65073E+02-1.50088E+03-3.51320E+02-3.39088E-09 6.13542E-09
 -1       827-2.99099E+05 6.95363E+01-7.82541E+02-1.82083E+02-3.25499E-09 8.83091E-10
 -1       828-2.99148E+05-1.41811E+02-6.86469E+02 1.82497E+02-5.39457E-09-4.29399E-09
 -1       829-2.99087E+05 7.16669E+01-7.95812E+02-4.41351E+02-6.94605E-10-5.27223E-11
 -1       830-2.99346E+05-4.80039E+02-1.55097E+03 5.72497E+02 1.47327E-09-1.59790E-09
 -1       831-2.98902E+05 4.08008E+02-2.57130E+03-5.72091E+02-2.69760E-09-2.94858E-09
 -1       832-3.00587E+05-3.01586E+03-6.26589E+03 6.48944E+02-1.59355E-09-4.67935E-09
 -1       833-2.97848E+05 2.60579E+03-9.95848E+03-5.17798E+02-1.93333E-09-2.53704E-09
 -1       834-3.08056E+05-1.92444E+04-2.72039E+04 3.78891E+02-1.10924E-09 1.89175E-09
 -1       835-2.91434E+05 1.66237E+04-3.84535E+04-3.02024E+02 4.96337E-09 3.65071E-09
 -1       836-9.69176E+02 2.71688E+05 1.64164E+04-2.07691E+04 7.11225E-10 1.10908E-08
 -1       837 3.59655E+03 2.76782E+05 1.40357E+04-4.17343E+04 1.38721E-09 2.04341E-09
 -1       838-3.62572E+02 2.73098E+05 1.45010E+04-2.06957E+04 1.35060E-09 2.42562E-09
 -1       839 9.30261E+03 2.81032E+05 2.76285E+04-4.17667E+04 1.89311E-09 1.10513E-08
 -1       840-2.80762E+03 2.67394E+05 4.41409E+04-2.07353E+04 1.16779E-09 1.02548E-08
 -1       856-8.04653E+04 7.45313E+03-1.96413E+04-4.31056E+02-2.20746E-09-1.20326E-09
 -1       857-8.85764E+04-8.74243E+03-1.35223E+04 4.58028E+03-4.13911E-09-1.56729E-09
 -1       858-8.36705E+04 1.04432E+03-5.09734E+03-4.52611E+02-2.83956E-09 1.14369E-10
 -1       859-8.48961E+04-1.21483E+03-3.07819E+03 4.61451E+03 1.34317E-09 6.72668E-09
 -1       860-8.41496E+04 1.45268E+02-1.29366E+03-4.65394E+02 3.69994E-10 3.99837E-10
 -1       861-8.43444E+04-1.60784E+02-7.19225E+02 4.63202E+03-5.08844E-09-1.00456E-08
 -1       862-8.42242E+04 1.91968E+01-3.14141E+02-4.70147E+02 3.00019E-09-1.35918E-09
 -1       863-8.42557E+04-1.12097E+01-1.48866E+02 4.63422E+03 8.66426E-09-5.96123E-09
 -1       864-8.42386E+04-9.98589E-01-3.36610E+01-4.67598E+02 2.96816E-09-1.27060E-08
 -1       865-8.42253E+04 2.98111E+01 6.45636E+01 4.62127E+03 2.56159E-09-3.22140E-09
 -1       866-8.42529E+04-2.22702E+01 1.69853E+02-4.57193E+02-3.14591E-09 7.72062E-10
 -1       867-8.41345E+04 1.85937E+02 4.43774E+02 4.59300E+03-3.98728E-10-1.66420E-09
 -1       868-8.43260E+04-1.55558E+02 7.43387E+02-4.39325E+02 6.11124E-10 2.79528E-10
 -1       869-8.35813E+04 1.29177E+03 1.98915E+03 4.54626E+03-3.61592E-09-1.74628E-08
 -1       870-8.48008E+04-1.09990E+03 2.88509E+03-4.10457E+02-2.67755E-09-4.00667E-09
 -1       871-4.28925E+03-9.71491E+03-1.40020E+04 9.23831E+04 1.40062E-09 3.34603E-09
 -1       872-1.84016E+03-1.28624E+04-5.72781E+03 1.19772E+05 2.63708E-09-3.48336E-09
 -1       873-1.84087E+01-1.13917E+04 7.63376E+02 9.21804E+04 1.76806E-09-4.25143E-09
 -1       874 2.15504E+03-9.38986E+03 7.82047E+03 1.19811E+05 2.93608E-09 5.61886E-09
 -1       875 5.05188E+03-1.32465E+04 1.73776E+04 9.23504E+04 1.14142E-09 7.72161E-10
 -1       876 2.26244E+05 3.88655E+04 1.20072E+04 9.16556E+04-3.27645E-09-4.50291E-09
 -1       877 2.26948E+05 4.14841E+04 6.41217E+03 9.51878E+04-4.00269E-09-6.10135E-09
 -1       878 2.27366E+05 3.75369E+04 2.68638E+03 9.26417E+04 5.94127E-10 4.93401E-10
 -1       879 2.25315E+05 3.98570E+04 1.33829E+03 9.52719E+04-2.48110E-09-2.76123E-09
 -1       880 2.27447E+05 3.75224E+04 6.23111E+02 9.26819E+04-4.73892E-09-3.79237E-09
 -1       881 2.25206E+05 3.97878E+04 3.32071E+02 9.52544E+04 2.18392E-09-7.93041E-09
 -1       882 2.27455E+05 3.75324E+04 2.11268E+02 9.26830E+04 4.49518E-09-6.74021E-11
 -1       883 2.25198E+05 3.97845E+04 2.25230E+02 9.52493E+04 1.66193E-09 1.28508E-08
 -1       884 2.27450E+05 3.75300E+04 3.56568E+02 9.26832E+04 1.15784E-09 1.81842E-10
 -1       885 2.25227E+05 3.97895E+04 7.15826E+02 9.52581E+04 5.96171E-09-8.15567E-09
 -1       886 2.27423E+05 3.75090E+04 1.44221E+03 9.26804E+04 7.67170E-09-8.71137E-09
 -1       887 2.25480E+05 3.99557E+04 3.15013E+03 9.52947E+04 5.76995E-09-1.27221E-08
 -1       888 2.27224E+05 3.75440E+04 6.34756E+03 9.25795E+04 2.24867E-09 2.51021E-09
 -1       889 2.29262E+05 4.38831E+04 1.51637E+04 9.51755E+04 4.14402E-09-2.15346E-09
 -1       890 2.24638E+05 4.06161E+04 2.84006E+04 9.01580E+04 7.76163E-09 3.30238E-09
 -1       891-1.35576E+02-1.28028E+05-1.52263E+03 2.38424E+04 3.08114E-09 7.13044E-10
 -1       892-2.37216E+02-1.28395E+05-1.65208E+03 3.60881E+04-1.59730E-09 3.88650E-09
 -1       893-3.48980E+01-1.28075E+05-2.35657E+03 2.38473E+04-5.77529E-10 3.60160E-10
 -1       894-1.27999E+03-1.29295E+05-4.88976E+03 3.59590E+04-2.53021E-09 7.91147E-09
 -1       895-1.00258E+03-1.27056E+05-8.61588E+03 2.39699E+04-1.29290E-09-4.50109E-09
 -1       956-2.85519E+05-4.07457E+03-1.02464E+04 1.92568E+04-2.60479E-09-1.08935E-09
 -1       957-2.87542E+05-1.37747E+03-5.26001E+03 2.31898E+04 5.79348E-10 1.67893E-09
 -1       958-2.86429E+05-1.12825E+02-2.36984E+03 1.91355E+04 3.02225E-09 6.42558E-09
 -1       959-2.86590E+05-2.22988E+01-1.21043E+03 2.33220E+04-3.68641E-09-1.18052E-09
 -1       960-2.86512E+05 3.15069E+01-5.90088E+02 1.91238E+04-4.72346E-09-2.30102E-10
 -1       961-2.86522E+05 2.93332E+01-3.12990E+02 2.33354E+04-5.46061E-09 1.64982E-09
 -1       962-2.86529E+05 2.78162E+01-1.79022E+02 1.91220E+04-1.97701E-09 1.86355E-09
 -1       963-2.86519E+05 3.09033E+01-1.43449E+02 2.33378E+04-5.73664E-09 1.99157E-09
 -1       964-2.86532E+05 2.99577E+01-1.73850E+02 1.91213E+04-1.94291E-10-3.76372E-09
 -1       965-2.86530E+05 3.39697E+01-3.00170E+02 2.33378E+04 2.27180E-09 8.79231E-09
 -1       966-2.86523E+05 3.78466E+01-5.63366E+02 1.91220E+04-6.55746E-10 5.97993E-11
 -1       967-2.86603E+05-1.07920E+01-1.15540E+03 2.33300E+04 3.34239E-09 2.12094E-09
 -1       968-2.86451E+05-9.56522E+01-2.26113E+03 1.91292E+04 2.18279E-10 7.14590E-09
 -1       969-2.87520E+05-1.30035E+03-5.02033E+03 2.32461E+04 2.64504E-09 8.21913E-09
 -1       970-2.85587E+05-3.87423E+03-9.77867E+03 1.92079E+04 1.09276E-09 7.57245E-09
 -1       971-2.69347E+05-1.40886E+03-7.81702E+03 1.29254E+04-9.44692E-09-4.17958E-09
 -1       972-2.71246E+05-1.01115E+03-4.25709E+03 1.80442E+04-8.17090E-09 5.21641E-09
 -1       973-2.70216E+05-1.15583E+01-1.90631E+03 1.28177E+04-6.23913E-09 8.76230E-09
 -1       974-2.70347E+05-1.19568E+01-9.87609E+02 1.81609E+04-2.57933E-09 6.02995E-09
 -1       975-2.70284E+05 2.52512E+01-4.92691E+02 1.28078E+04-7.59883E-10 1.31683E-09
 -1       976-2.70294E+05 2.91716E+01-2.82481E+02 1.81730E+04-2.24873E-09-5.69537E-09
 -1       977-2.70297E+05 2.51969E+01-2.01862E+02 1.28055E+04 2.61889E-09 8.10019E-10
 -1       978-2.70298E+05 3.38517E+01-2.31919E+02 1.81763E+04 9.85915E-09 3.67197E-09
 -1       979-2.70297E+05 3.15371E+01-3.68919E+02 1.28045E+04 4.08926E-09-1.54341E-09
 -1       980-2.70325E+05 3.61543E+01-7.10017E+02 1.81769E+04 1.09669E-08-3.58420E-09
 -1       981-2.70274E+05 4.92187E+01-1.37392E+03 1.28049E+04 4.25462E-09 3.02521E-09
 -1       982-2.70513E+05-6.52876E+01-2.83918E+03 1.81714E+04 8.04744E-09 5.28914E-09
 -1       983-2.70101E+05-3.86473E+01-5.51619E+03 1.28102E+04 6.13363E-09 3.60478E-09
 -1       984-2.73166E+05-2.94600E+03-1.23527E+04 1.80983E+04 2.42835E-10-1.32458E-08
 -1       985-2.67604E+05-4.07502E+03-2.26836E+04 1.28825E+04 1.78215E-09 3.98722E-09
 -3
    1PSTEP                        13           7           1          
  100CL  107 5.74219E-01         409                     0    7           1
 -4  DISP        4    1
 -5  D1          1    2    1    0
 -5  D2          1    2    2    0
 -5  D3          1    2    3    0
 -5  ALL         1    2    0    0    1ALL
 -1         1 5.32958E-04 0.00000E+00 0.00000E+00
 -1         2 4.92088E-04 2.09566E-29 1.32349E-23
 -1         3 2.15170E-04 2.00247E-27 0.00000E+00
 -1         5 1.29523E-04 1.54522E-28 0.00000E+00
 -1         8 5.10122E-04-7.45291E-07 0.00000E+00
 -1         9 4.92256E-04-1.89144E-06 0.00000E+00
 -1        10 1.96688E-04-2.81391E-06 0.00000E+00
 -1        12 1.29695E-04 6.38305E-07 1.65436E-24
 -1        15 4.82829E-04-8.26203E-07 2.06795E-25
 -1        16 4.89064E-04-2.33001E-06 0.00000E+00
 -1        17 1.38810E-04-6.08458E-06 0.00000E+00
 -1        18 1.28922E-04 1.10255E-05 0.00000E+00
 -1        19 1.30211E-04 1.27337E-06 0.00000E+00
 -1        20 1.30358E-04 8.45062E-06 0.00000E+00
 -1        21 1.29690E-04 1.36487E-05 0.00000E+00
 -1        24 2.47558E-05-8.58407E-06 0.00000E+00
 -1        25 1.31277E-04 1.11802E-05 0.00000E+00
 -1        26 1.32029E-04 1.76309E-06 0.00000E+00
 -1        27 1.30260E-04 5.55087E-06 0.00000E+00
 -1        28 1.29833E-04 1.31145E-05 0.00000E+00
 -1        32 0.00000E+00 0.00000E+00 0.00000E+00
 -1        33 1.32709E-04 2.36330E-06 0.00000E+00
 -1        34 1.30969E-04 5.52079E-06 0.00000E+00
 -1        35 1.29345E-04 1.28281E-05 0.00000E+00
 -1        51 5.31478E-04-1.27994E-07 0.00000E+00
 -1        52 5.28730E-04-2.47128E-07 0.00000E+00
 -1        53 5.24963E-04-3.66402E-07 0.00000E+00
 -1        54 5.20434E-04-4.87663E-07 0.00000E+00
 -1        55 5.15400E-04-6.12034E-07-4.96308E-24
 -1        56 5.30732E-04-7.27195E-07 0.00000E+00
 -1        57 5.28350E-04-1.28337E-06-2.64698E-23
 -1        58 5.25892E-04-1.62494E-06 5.29396E-23
 -1        59 5.23341E-04-1.75844E-06 0.00000E+00
 -1        60 5.20718E-04-1.70108E-06 5.29396E-23
 -1        61 5.18032E-04-1.48598E-06-2.64698E-23
 -1        62 5.15306E-04-1.16208E-06-5.29396E-23
 -1        63 5.12558E-04-7.84925E-07 2.64698E-23
 -1        64 5.09814E-04-4.15439E-07 0.00000E+00
 -1        65 5.07095E-04-1.14140E-07-2.64698E-23
 -1        66 5.04423E-04 6.56287E-08 0.00000E+00
 -1        67 5.01816E-04 7.76404E-08 2.64698E-23
 -1        68 4.99284E-04-1.07527E-07 0.00000E+00
 -1        69 4.96844E-04-5.03982E-07-2.64698E-23
 -1        70 4.94479E-04-1.11291E-06 0.00000E+00
 -1        86 4.92094E-04-3.11625E-07-1.32349E-23
 -1        87 4.92112E-04-6.23652E-07 0.00000E+00
 -1        88 4.92139E-04-9.35740E-07-1.32349E-23
 -1        89 4.92175E-04-1.25037E-06 0.00000E+00
 -1        90 4.92215E-04-1.56413E-06 1.32349E-23
 -1       121 2.14652E-04-4.62928E-07 1.32349E-23
 -1       122 2.13100E-04-9.26894E-07-6.61744E-24
 -1       123 2.10517E-04-1.39292E-06-1.32349E-23
 -1       124 2.06913E-04-1.86207E-06-6.61744E-24
 -1       125 2.02298E-04-2.33518E-06-1.32349E-23
 -1       191 1.29528E-04 1.06388E-07 0.00000E+00
 -1       192 1.29542E-04 2.12775E-07 0.00000E+00
 -1       193 1.29566E-04 3.19163E-07 3.30872E-24
 -1       194 1.29599E-04 4.25548E-07 0.00000E+00
 -1       195 1.29642E-04 5.31930E-07-3.30872E-24
 -1       251 5.09516E-04-5.40226E-06 0.00000E+00
 -1       252 5.08659E-04-2.83081E-05 6.61744E-24
 -1       253 5.07425E-04-6.48472E-05 1.32349E-23
 -1       254 5.05847E-04-1.10068E-04 0.00000E+00
 -1       255 5.04215E-04-1.56560E-04 0.00000E+00
 -1       256 5.02840E-04-1.96884E-04 0.00000E+00
 -1       257 5.01844E-04-2.25353E-04 0.00000E+00
 -1       258 5.01178E-04-2.36566E-04 6.61744E-24
 -1       259 5.00549E-04-2.29950E-04-1.32349E-23
 -1       260 4.99651E-04-2.05373E-04 6.61744E-24
 -1       261 4.98375E-04-1.67720E-04 1.32349E-23
 -1       262 4.96784E-04-1.22191E-04-6.61744E-24
 -1       263 4.95174E-04-7.62229E-05 1.32349E-23
 -1       264 4.93849E-04-3.72646E-05 0.00000E+00
 -1       265 4.92905E-04-1.07696E-05 0.00000E+00
 -1       266 5.05573E-04-7.69425E-07-3.30872E-24
 -1       267 5.01024E-04-7.81612E-07 0.00000E+00
 -1       268 4.96476E-04-7.94556E-07 0.00000E+00
 -1       269 4.91927E-04-8.05259E-07 0.00000E+00
 -1       270 4.87378E-04-8.15909E-07 0.00000E+00
 -1       271 5.07391E-04 3.02218E-06-2.64698E-23
 -1       272 5.04884E-04 6.08794E-06 1.32349E-23
 -1       273 5.02635E-04 8.47416E-06 0.00000E+00
 -1       274 5.00631E-04 1.01960E-05 1.32349E-23
 -1       275 4.98865E-04 1.12838E-05 2.64698E-23
 -1       276 4.97322E-04 1.17750E-05 0.00000E+00
 -1       277 4.95986E-04 1.17171E-05-2.64698E-23
 -1       278 4.94834E-04 1.11654E-05 1.32349E-23
 -1       279 4.93844E-04 1.01832E-05 2.64698E-23
 -1       280 4.92989E-04 8.84029E-06 0.00000E+00
 -1       281 4.92241E-04 7.21183E-06 0.00000E+00
 -1       282 4.91570E-04 5.37756E-06 0.00000E+00
 -1       283 4.90946E-04 3.42024E-06 0.00000E+00
 -1       284 4.90340E-04 1.42581E-06 0.00000E+00
 -1       285 4.89715E-04-5.22100E-07-2.64698E-23
 -1       301 4.91689E-04-1.98179E-06-6.61744E-24
 -1       302 4.90754E-04-2.04702E-06 0.00000E+00
 -1       303 4.89736E-04-2.11071E-06 0.00000E+00
 -1       304 4.88924E-04-2.17429E-06 0.00000E+00
 -1       305 4.88605E-04-2.23941E-06 0.00000E+00
 -1       306 5.06586E-04-5.28586E-05 0.00000E+00
 -1       307 5.47368E-04-2.00950E-04 0.00000E+00
 -1       308 6.02394E-04-4.21671E-04 0.00000E+00
 -1       309 6.63007E-04-6.83293E-04 2.64698E-23
 -1       310 7.23419E-04-9.43364E-04-5.29396E-23
 -1       311 7.77705E-04-1.15957E-03 2.64698E-23
 -1       312 8.16941E-04-1.30106E-03 0.00000E+00
 -1       313 8.28733E-04-1.34445E-03 0.00000E+00
 -1       314 8.02492E-04-1.28869E-03-1.05879E-22
 -1       315 7.31148E-04-1.14183E-03 0.00000E+00
 -1       316 6.21250E-04-9.29662E-04-1.05879E-22
 -1       317 4.86894E-04-6.81212E-04-2.64698E-23
 -1       318 3.51966E-04-4.31932E-04-5.29396E-23
 -1       319 2.40486E-04-2.17281E-04 0.00000E+00
 -1       320 1.67057E-04-6.65816E-05 0.00000E+00
 -1       336 1.89969E-04-3.33580E-06 0.00000E+00
 -1       337 1.82034E-04-3.86685E-06 0.00000E+00
 -1       338 1.72912E-04-4.40738E-06 0.00000E+00
 -1       339 1.62639E-04-4.95748E-06 6.61744E-24
 -1       340 1.51257E-04-5.51919E-06 0.00000E+00
 -1       406 1.29757E-04 7.44667E-07 3.30872E-24
 -1       407 1.29829E-04 8.50996E-07 1.65436E-24
 -1       408 1.29910E-04 9.57261E-07 0.00000E+00
 -1       409 1.30001E-04 1.06334E-06 0.00000E+00
 -1       410 1.30101E-04 1.16902E-06-3.30872E-24
 -1       521 5.05398E-04-6.23677E-05 0.00000E+00
 -1       522 5.50278E-04-2.33574E-04-5.29396E-23
 -1       523 6.09410E-04-4.88276E-04 0.00000E+00
 -1       524 6.73337E-04-7.89387E-04 5.29396E-23
 -1       525 7.37045E-04-1.08819E-03 0.00000E+00
 -1       526 7.95279E-04-1.33619E-03 5.29396E-23
 -1       527 8.38061E-04-1.49758E-03 1.05879E-22
 -1       528 8.50716E-04-1.54639E-03 0.00000E+00
 -1       529 8.19300E-04-1.48113E-03 0.00000E+00
 -1       530 7.34627E-04-1.31251E-03-5.29396E-23
 -1       531 6.03488E-04-1.06983E-03 0.00000E+00
 -1       532 4.42725E-04-7.86436E-04 0.00000E+00
 -1       533 2.81040E-04-5.01805E-04 0.00000E+00
 -1       534 1.47362E-04-2.55427E-04-5.29396E-23
 -1       535 5.93577E-05-8.10358E-05 0.00000E+00
 -1       536 1.38474E-04 1.37004E-05 0.00000E+00
 -1       537 1.37799E-04 4.70575E-05 0.00000E+00
 -1       538 1.36827E-04 8.88407E-05 0.00000E+00
 -1       539 1.35722E-04 1.33859E-04-1.65436E-24
 -1       540 1.34733E-04 1.76018E-04 0.00000E+00
 -1       541 1.34069E-04 2.09240E-04 0.00000E+00
 -1       542 1.33721E-04 2.29873E-04 0.00000E+00
 -1       543 1.33569E-04 2.34337E-04 1.65436E-24
 -1       544 1.33370E-04 2.23230E-04 0.00000E+00
 -1       545 1.32905E-04 1.97243E-04 0.00000E+00
 -1       546 1.32140E-04 1.60956E-04 0.00000E+00
 -1       547 1.31163E-04 1.19007E-04 0.00000E+00
 -1       548 1.30206E-04 7.75884E-05 0.00000E+00
 -1       549 1.29497E-04 4.28939E-05 0.00000E+00
 -1       550 1.29089E-04 1.92774E-05-1.65436E-24
 -1       551 1.23328E-04-6.44124E-06 6.61744E-24
 -1       552 1.05354E-04-6.83195E-06 3.30872E-24
 -1       553 8.56926E-05-7.25116E-06-3.30872E-24
 -1       554 6.51617E-05-7.68862E-06 6.61744E-24
 -1       555 4.45786E-05-8.12976E-06 2.64698E-23
 -1       556 1.34414E-04 5.24804E-06 0.00000E+00
 -1       557 1.30946E-04 1.42153E-05 0.00000E+00
 -1       558 1.28312E-04 2.10165E-05 0.00000E+00
 -1       559 1.26424E-04 2.58678E-05 0.00000E+00
 -1       560 1.25195E-04 2.89847E-05 0.00000E+00
 -1       561 1.24540E-04 3.05843E-05 0.00000E+00
 -1       562 1.24375E-04 3.08846E-05 0.00000E+00
 -1       563 1.24615E-04 3.01035E-05 0.00000E+00
 -1       564 1.25178E-04 2.84596E-05 0.00000E+00
 -1       565 1.25982E-04 2.61717E-05 0.00000E+00
 -1       566 1.26945E-04 2.34587E-05 0.00000E+00
 -1       567 1.27984E-04 2.05397E-05 0.00000E+00
 -1       568 1.29018E-04 1.76338E-05 0.00000E+00
 -1       569 1.29966E-04 1.49599E-05 0.00000E+00
 -1       570 1.30746E-04 1.27372E-05 0.00000E+00
 -1       571 1.29000E-04 1.04026E-05 8.27181E-25
 -1       572 1.29080E-04 9.73183E-06 8.27181E-25
 -1       573 1.29161E-04 9.02343E-06 1.65436E-24
 -1       574 1.29241E-04 8.28805E-06 1.65436E-24
 -1       575 1.29322E-04 7.53642E-06-1.65436E-24
 -1       576 1.29403E-04 6.77929E-06 1.65436E-24
 -1       577 1.29483E-04 6.02742E-06-3.30872E-24
 -1       578 1.29564E-04 5.29161E-06-1.65436E-24
 -1       579 1.29645E-04 4.58262E-06-3.30872E-24
 -1       580 1.29726E-04 3.91124E-06-1.65436E-24
 -1       581 1.29807E-04 3.28825E-06 0.00000E+00
 -1       582 1.29887E-04 2.72441E-06 0.00000E+00
 -1       583 1.29968E-04 2.23047E-06 0.00000E+00
 -1       584 1.30049E-04 1.81710E-06 0.00000E+00
 -1       585 1.30130E-04 1.49483E-06 0.00000E+00
 -1       586 1.29260E-04 1.10531E-05 0.00000E+00
 -1       587 1.29573E-04 1.10800E-05-1.03398E-25
 -1       588 1.29895E-04 1.11066E-05 0.00000E+00
 -1       589 1.30263E-04 1.11327E-05 0.00000E+00
 -1       590 1.30712E-04 1.11579E-05 0.00000E+00
 -1       591 1.29115E-04 1.04572E-05 0.00000E+00
 -1       592 1.29316E-04 9.86233E-06 0.00000E+00
 -1       593 1.29523E-04 9.24702E-06 0.00000E+00
 -1       594 1.29736E-04 8.61643E-06 0.00000E+00
 -1       595 1.29953E-04 7.97586E-06 8.27181E-25
 -1       596 1.30171E-04 7.33050E-06 0.00000E+00
 -1       597 1.30389E-04 6.68560E-06 8.27181E-25
 -1       598 1.30605E-04 6.04636E-06 2.06795E-25
 -1       599 1.30817E-04 5.41800E-06 4.13590E-25
 -1       600 1.31023E-04 4.80572E-06 0.00000E+00
 -1       601 1.31221E-04 4.21475E-06 4.13590E-25
 -1       602 1.31409E-04 3.65029E-06 1.03398E-25
 -1       603 1.31586E-04 3.11757E-06 2.06795E-25
 -1       604 1.31749E-04 2.62187E-06 5.16988E-26
 -1       605 1.31896E-04 2.16836E-06 0.00000E+00
 -1       606 1.30224E-04 1.23077E-06 0.00000E+00
 -1       607 1.30234E-04 1.28252E-06 0.00000E+00
 -1       608 1.30244E-04 1.42309E-06 0.00000E+00
 -1       609 1.30253E-04 1.64622E-06 1.65436E-24
 -1       610 1.30262E-04 1.94564E-06 0.00000E+00
 -1       611 1.30271E-04 2.31497E-06 0.00000E+00
 -1       612 1.30280E-04 2.74784E-06 0.00000E+00
 -1       613 1.30289E-04 3.23788E-06 0.00000E+00
 -1       614 1.30298E-04 3.77871E-06 0.00000E+00
 -1       615 1.30306E-04 4.36394E-06 0.00000E+00
 -1       616 1.30315E-04 4.98720E-06 0.00000E+00
 -1       617 1.30324E-04 5.64211E-06 0.00000E+00
 -1       618 1.30333E-04 6.32228E-06 8.27181E-25
 -1       619 1.30342E-04 7.02134E-06 0.00000E+00
 -1       620 1.30350E-04 7.73292E-06 0.00000E+00
 -1       621 1.30383E-04 1.35519E-06-3.30872E-24
 -1       622 1.30627E-04 1.43728E-06-1.65436E-24
 -1       623 1.30929E-04 1.51933E-06 1.65436E-24
 -1       624 1.31273E-04 1.60122E-06-8.27181E-25
 -1       625 1.31644E-04 1.68296E-06 1.65436E-24
 -1       626 1.30319E-04 1.25941E-06 0.00000E+00
 -1       627 1.30399E-04 1.32101E-06-1.65436E-24
 -1       628 1.30454E-04 1.45039E-06-3.30872E-24
 -1       629 1.30487E-04 1.63933E-06 0.00000E+00
 -1       630 1.30500E-04 1.87964E-06 0.00000E+00
 -1       631 1.30498E-04 2.16304E-06 1.65436E-24
 -1       632 1.30482E-04 2.48129E-06 0.00000E+00
 -1       633 1.30457E-04 2.82612E-06 4.96308E-24
 -1       634 1.30424E-04 3.18928E-06 0.00000E+00
 -1       635 1.30388E-04 3.56251E-06 0.00000E+00
 -1       636 1.30351E-04 3.93756E-06 0.00000E+00
 -1       637 1.30316E-04 4.30618E-06-8.27181E-25
 -1       638 1.30287E-04 4.66009E-06 3.30872E-24
 -1       639 1.30266E-04 4.99104E-06 8.27181E-25
 -1       640 1.30257E-04 5.29075E-06 0.00000E+00
 -1       656 1.29861E-04 7.97890E-06-6.61744E-24
 -1       657 1.29752E-04 7.48829E-06 6.61744E-24
 -1       658 1.29892E-04 6.99910E-06 0.00000E+00
 -1       659 1.30137E-04 6.51029E-06-6.61744E-24
 -1       660 1.30315E-04 6.01996E-06 0.00000E+00
 -1       661 1.30175E-04 9.13479E-06 8.27181E-25
 -1       662 1.30021E-04 9.75050E-06-8.27181E-25
 -1       663 1.29891E-04 1.03007E-05 0.00000E+00
 -1       664 1.29785E-04 1.07895E-05 0.00000E+00
 -1       665 1.29701E-04 1.12207E-05 0.00000E+00
 -1       666 1.29637E-04 1.15978E-05 0.00000E+00
 -1       667 1.29591E-04 1.19245E-05-1.65436E-24
 -1       668 1.29564E-04 1.22039E-05 0.00000E+00
 -1       669 1.29553E-04 1.24396E-05 1.65436E-24
 -1       670 1.29557E-04 1.26346E-05 0.00000E+00
 -1       671 1.29576E-04 1.27919E-05 0.00000E+00
 -1       672 1.29607E-04 1.29147E-05 8.27181E-25
 -1       673 1.29650E-04 1.30058E-05 1.65436E-24
 -1       674 1.29703E-04 1.30677E-05-8.27181E-25
 -1       675 1.29766E-04 1.31036E-05 0.00000E+00
 -1       676 1.29714E-04 1.35591E-05-3.30872E-24
 -1       677 1.29738E-04 1.34696E-05 1.65436E-24
 -1       678 1.29762E-04 1.33801E-05 0.00000E+00
 -1       679 1.29786E-04 1.32909E-05 0.00000E+00
 -1       680 1.29810E-04 1.32017E-05 0.00000E+00
 -1       771 1.72960E-05 7.44484E-06 0.00000E+00
 -1       772 1.09477E-05 2.05979E-05 0.00000E+00
 -1       773 5.65878E-06 3.10225E-05 0.00000E+00
 -1       774 1.35833E-06 3.88810E-05 0.00000E+00
 -1       775-2.02368E-06 4.43409E-05 0.00000E+00
 -1       776-4.56014E-06 4.75782E-05 0.00000E+00
 -1       777-6.32437E-06 4.87735E-05 0.00000E+00
 -1       778-7.39136E-06 4.81147E-05 0.00000E+00
 -1       779-7.83627E-06 4.57935E-05 0.00000E+00
 -1       780-7.73563E-06 4.20073E-05 2.64698E-23
 -1       781-7.16589E-06 3.69569E-05 0.00000E+00
 -1       782-6.20461E-06 3.08473E-05 2.64698E-23
 -1       783-4.92919E-06 2.38858E-05 5.29396E-23
 -1       784-3.41785E-06 1.62827E-05-2.64698E-23
 -1       785-1.74854E-06 8.24976E-06 2.64698E-23
 -1       786 1.31320E-04 1.04012E-05 0.00000E+00
 -1       787 1.31367E-04 9.69215E-06-4.13590E-25
 -1       788 1.31414E-04 9.03162E-06 8.27181E-25
 -1       789 1.31461E-04 8.39812E-06-8.27181E-25
 -1       790 1.31508E-04 7.78353E-06 0.00000E+00
 -1       791 1.31555E-04 7.17976E-06-8.27181E-25
 -1       792 1.31602E-04 6.58407E-06-1.65436E-24
 -1       793 1.31650E-04 5.99376E-06 0.00000E+00
 -1       794 1.31697E-04 5.40877E-06 0.00000E+00
 -1       795 1.31744E-04 4.82906E-06-8.27181E-25
 -1       796 1.31792E-04 4.25723E-06 1.65436E-24
 -1       797 1.31839E-04 3.69587E-06 0.00000E+00
 -1       798 1.31886E-04 3.15276E-06 0.00000E+00
 -1       799 1.31934E-04 2.63574E-06 0.00000E+00
 -1       800 1.31981E-04 2.16556E-06 0.00000E+00
 -1       801 1.13710E-04 9.70487E-06-2.64698E-23
 -1       802 5.97068E-05 6.93519E-06 0.00000E+00
 -1       803 6.00810E-06 4.18071E-06 0.00000E+00
 -1       804-1.06343E-05 2.66561E-06 0.00000E+00
 -1       805-6.71779E-06 1.34071E-06 2.64698E-23
 -1       806 1.31481E-04 1.03347E-05 1.65436E-24
 -1       807 1.31672E-04 9.51503E-06 8.27181E-25
 -1       808 1.31850E-04 8.72498E-06 0.00000E+00
 -1       809 1.32017E-04 7.96727E-06 8.27181E-25
 -1       810 1.32170E-04 7.24465E-06-1.65436E-24
 -1       811 1.32309E-04 6.55976E-06 8.27181E-25
 -1       812 1.32433E-04 5.91524E-06 1.65436E-24
 -1       813 1.32541E-04 5.31372E-06 0.00000E+00
 -1       814 1.32632E-04 4.75783E-06 0.00000E+00
 -1       815 1.32704E-04 4.25018E-06 0.00000E+00
 -1       816 1.32758E-04 3.79339E-06 1.65436E-24
 -1       817 1.32792E-04 3.39006E-06-8.27181E-25
 -1       818 1.32804E-04 3.04280E-06 3.30872E-24
 -1       819 1.32795E-04 2.75421E-06 8.27181E-25
 -1       820 1.32763E-04 2.52686E-06-1.65436E-24
 -1       821 1.31924E-04 1.32739E-06-8.27181E-25
 -1       822 1.31814E-04 7.59271E-07 0.00000E+00
 -1       823 1.31703E-04 1.55346E-07 0.00000E+00
 -1       824 1.31592E-04-3.87559E-07 0.00000E+00
 -1       825 1.31480E-04-7.86605E-07-3.30872E-24
 -1       826 1.31369E-04-9.59658E-07 1.65436E-24
 -1       827 1.31257E-04-8.76090E-07-3.30872E-24
 -1       828 1.31145E-04-5.06561E-07-1.65436E-24
 -1       829 1.31033E-04 1.13100E-07 0.00000E+00
 -1       830 1.30921E-04 9.45810E-07-1.65436E-24
 -1       831 1.30809E-04 1.90596E-06 0.00000E+00
 -1       832 1.30697E-04 2.90726E-06 0.00000E+00
 -1       833 1.30585E-04 3.85404E-06 0.00000E+00
 -1       834 1.30475E-04 4.65095E-06 0.00000E+00
 -1       835 1.30364E-04 5.23664E-06 0.00000E+00
 -1       836 1.32313E-04 1.86294E-06 0.00000E+00
 -1       837 1.32486E-04 1.96509E-06 4.96308E-24
 -1       838 1.32580E-04 2.06708E-06 0.00000E+00
 -1       839 1.32627E-04 2.16842E-06-8.27181E-25
 -1       840 1.32659E-04 2.26959E-06 0.00000E+00
 -1       856 1.30237E-04 5.79203E-06-4.13590E-25
 -1       857 1.30211E-04 6.15094E-06 0.00000E+00
 -1       858 1.30185E-04 6.60915E-06-4.13590E-25
 -1       859 1.30158E-04 7.14813E-06 4.13590E-25
 -1       860 1.30131E-04 7.74927E-06-8.27181E-25
 -1       861 1.30104E-04 8.39388E-06-4.13590E-25
 -1       862 1.30077E-04 9.06324E-06 8.27181E-25
 -1       863 1.30050E-04 9.73861E-06 0.00000E+00
 -1       864 1.30023E-04 1.04012E-05 0.00000E+00
 -1       865 1.29996E-04 1.10323E-05-4.13590E-25
 -1       866 1.29969E-04 1.16133E-05 0.00000E+00
 -1       867 1.29942E-04 1.21253E-05 0.00000E+00
 -1       868 1.29915E-04 1.25499E-05 0.00000E+00
 -1       869 1.29888E-04 1.28685E-05 0.00000E+00
 -1       870 1.29861E-04 1.30628E-05 0.00000E+00
 -1       871 1.30254E-04 5.54931E-06-4.13590E-25
 -1       872 1.30370E-04 5.54518E-06 0.00000E+00
 -1       873 1.30552E-04 5.54056E-06 4.13590E-25
 -1       874 1.30749E-04 5.53535E-06 1.03398E-25
 -1       875 1.30906E-04 5.52960E-06-2.06795E-25
 -1       876 1.30277E-04 5.80328E-06-3.30872E-24
 -1       877 1.30275E-04 6.11304E-06-1.65436E-24
 -1       878 1.30253E-04 6.47323E-06 0.00000E+00
 -1       879 1.30216E-04 6.87744E-06-1.65436E-24
 -1       880 1.30164E-04 7.31923E-06 3.30872E-24
 -1       881 1.30101E-04 7.79218E-06 0.00000E+00
 -1       882 1.30029E-04 8.28991E-06 3.30872E-24
 -1       883 1.29950E-04 8.80602E-06 0.00000E+00
 -1       884 1.29866E-04 9.33413E-06 0.00000E+00
 -1       885 1.29780E-04 9.86786E-06 1.65436E-24
 -1       886 1.29694E-04 1.04008E-05 0.00000E+00
 -1       887 1.29611E-04 1.09266E-05 0.00000E+00
 -1       888 1.29533E-04 1.14389E-05-3.30872E-24
 -1       889 1.29462E-04 1.19310E-05 0.00000E+00
 -1       890 1.29400E-04 1.23968E-05 0.00000E+00
 -1       891 1.29879E-04 1.30665E-05-1.65436E-24
 -1       892 1.29903E-04 1.30184E-05 0.00000E+00
 -1       893 1.29885E-04 1.29703E-05 8.27181E-25
 -1       894 1.29801E-04 1.29223E-05 0.00000E+00
 -1       895 1.29629E-04 1.28745E-05 4.13590E-25
 -1       956 1.32602E-04 2.33236E-06 3.30872E-24
 -1       957 1.32494E-04 2.36952E-06 8.27181E-25
 -1       958 1.32385E-04 2.46709E-06 0.00000E+00
 -1       959 1.32276E-04 2.61695E-06 1.65436E-24
 -1       960 1.32167E-04 2.81098E-06 0.00000E+00
 -1       961 1.32057E-04 3.04100E-06-1.65436E-24
 -1       962 1.31948E-04 3.29882E-06 0.00000E+00
 -1       963 1.31839E-04 3.57628E-06 0.00000E+00
 -1       964 1.31730E-04 3.86518E-06 3.30872E-24
 -1       965 1.31621E-04 4.15733E-06 0.00000E+00
 -1       966 1.31511E-04 4.44455E-06-3.30872E-24
 -1       967 1.31402E-04 4.71864E-06 0.00000E+00
 -1       968 1.31293E-04 4.97143E-06-3.30872E-24
 -1       969 1.31184E-04 5.19477E-06 0.00000E+00
 -1       970 1.31076E-04 5.38050E-06 0.00000E+00
 -1       971 1.30868E-04 5.67531E-06-1.65436E-24
 -1       972 1.30767E-04 5.91598E-06-1.65436E-24
 -1       973 1.30665E-04 6.23328E-06-1.65436E-24
 -1       974 1.30563E-04 6.61735E-06 0.00000E+00
 -1       975 1.30461E-04 7.05831E-06 0.00000E+00
 -1       976 1.30359E-04 7.54625E-06 0.00000E+00
 -1       977 1.30257E-04 8.07127E-06-3.30872E-24
 -1       978 1.30155E-04 8.62346E-06-1.65436E-24
 -1       979 1.30052E-04 9.19288E-06 0.00000E+00
 -1       980 1.29950E-04 9.76961E-06 1.65436E-24
 -1       981 1.29848E-04 1.03437E-05 0.00000E+00
 -1       982 1.29746E-04 1.09053E-05 1.65436E-24
 -1       983 1.29644E-04 1.14444E-05 3.30872E-24
 -1       984 1.29543E-04 1.19511E-05 0.00000E+00
 -1       985 1.29442E-04 1.24156E-05 0.00000E+00
 -3
    1PSTEP                        14           7           1          
  100CL  107 5.74219E-01         409                     0    7           1
 -4  STRESS      6    1
 -5  SXX         1    4    1    1
 -5  SYY         1    4    2    2
 -5  SZZ         1    4    3    3
 -5  SXY         1    4    1    2
 -5  SYZ         1    4    2    3
 -5  SZX         1    4    3    1
 -1         1-2.94130E+06-1.18348E+06-6.35033E+05-1.37274E+06 1.89175E-10 3.53757E-08
 -1         2 1.99790E+03-8.88685E+05 6.44983E+03 4.48954E+01 2.90470E-11 1.45929E-08
 -1         3-4.84023E+02-1.31973E+06 3.16824E+02-1.07916E+03-2.62467E-10-1.84300E-08
 -1         5-1.44898E+00 3.04406E+05 7.72484E+00-7.53206E-02-6.51450E-11 9.49740E-10
 -1         8-1.03730E+06-3.59083E+05-1.11394E+05-5.12759E+05 2.41926E-10-1.99980E-08
 -1         9-5.27404E+05-8.22118E+05-6.98106E+01-7.79362E+05 1.67871E-08-1.01747E-08
 -1        10-1.33734E+03-1.37499E+06-2.33428E+03-7.29948E+03-7.69069E-09-2.22851E-08
 -1        12 1.72153E+00 3.04422E+05 2.50080E+02-5.70727E-01-8.00213E-11-1.33516E-08
 -1        15 1.76437E+03 9.69625E+02 5.70331E+03 3.47065E+00 1.76840E-10 9.26896E-08
 -1        16 1.17018E+06-9.40762E+05 1.44886E+05-1.20796E+06 1.28930E-08 2.33219E-08
 -1        17-7.87603E+03 8.64798E+04 8.21158E+04 2.05015E+05-1.00117E-09 1.72062E-08
 -1        18 2.40326E+03-4.02263E+03-2.37037E+04-8.53728E+04 9.51729E-09 2.19643E-09
 -1        19 9.81306E+04 1.12619E+05-8.27035E+02 1.92647E+04 8.33097E-11-1.20293E-08
 -1        20-5.25337E+04-4.64064E+05-1.03175E+05 2.80418E+04 2.04788E-09 1.25510E-09
 -1        21-4.13216E+01-2.56389E+05-8.16030E+02 4.20383E+00-9.21244E-10-1.40151E-08
 -1        24-5.37643E+05 8.12636E+05 2.61468E+05 4.77383E+05-7.42972E-08-3.13642E-08
 -1        25-1.01297E+05-5.77235E+05-1.15342E+05-1.83655E+05 1.75669E-10 1.46374E-09
 -1        26-3.73593E+04 7.33133E+04-1.89181E+04-4.00290E+03 1.27438E-09 9.93791E-09
 -1        27-6.76501E+04-2.52505E+05-9.38115E+04 5.69434E+04 5.15926E-09 4.32495E-09
 -1        28 1.96591E+04-7.21652E+04 1.45617E+04 2.05616E+04 1.02546E-09 3.89699E-09
 -1        32-1.39726E+06-2.21033E+06-6.28403E+04-3.83302E+05-2.91893E-08-8.98166E-09
 -1        33-1.47725E+05 7.30687E+04 2.60591E+04-3.47697E+04-1.78905E-10 7.37843E-09
 -1        34-1.86126E+05-1.91898E+04 5.01926E+02 5.94482E+04 1.09254E-09 3.37574E-10
 -1        35-2.00610E+04-2.86612E+04-1.13190E+03 4.46591E+04 1.58850E-09 6.40769E-09
 -1        51 3.00829E+04-3.03828E+05 6.90655E+04-8.67112E+05 1.30967E-10 5.71745E-08
 -1        52 1.34046E+04-2.96028E+05 4.03441E+04-1.01118E+06 2.91038E-10 2.51675E-08
 -1        53 6.56305E+03-3.10767E+05 2.74947E+04-8.64031E+05 3.41970E-10-2.72121E-09
 -1        54 1.74143E+04-3.08563E+05 3.56938E+04-1.01437E+06-5.09317E-11-3.49719E-08
 -1        55 3.48970E+04-3.21027E+05 5.86820E+04-8.63555E+05 3.85626E-10 2.03290E-08
 -1        56-5.59814E+06-6.26500E+05-4.68334E+05-2.17042E+06 4.55475E-09-3.34112E-08
 -1        57-5.82664E+06-1.01170E+06-3.15999E+05-2.10656E+06-1.86265E-09 1.26638E-08
 -1        58-5.68729E+06-7.80365E+05-1.10092E+05-2.14662E+06 6.81030E-09-1.78916E-08
 -1        59-5.72478E+06-8.29681E+05-6.57267E+04-2.13311E+06-5.34055E-09-5.60212E-08
 -1        60-5.69856E+06-8.03560E+05-2.56597E+04-2.14541E+06 1.61617E-09-3.73711E-09
 -1        61-5.71243E+06-8.01778E+05-1.45594E+04-2.13362E+06-5.50335E-09-2.44197E-08
 -1        62-5.69935E+06-8.07603E+05-6.92149E+03-2.14627E+06 4.45857E-09-1.14551E-08
 -1        63-5.71145E+06-7.97680E+05-5.60939E+03-2.13289E+06 1.54769E-09-5.46322E-10
 -1        64-5.69949E+06-8.07580E+05-6.21993E+03-2.14616E+06 1.26965E-09 5.35510E-09
 -1        65-5.71170E+06-8.01460E+05-1.24739E+04-2.13405E+06-9.23831E-09-5.56159E-08
 -1        66-5.69913E+06-8.03888E+05-2.17332E+04-2.14510E+06 2.09820E-09-2.74231E-08
 -1        67-5.72144E+06-8.25646E+05-5.54857E+04-2.13437E+06-4.78849E-09-2.20944E-08
 -1        68-5.69000E+06-7.83957E+05-9.28977E+04-2.14569E+06-1.16488E-08 2.27010E-09
 -1        69-5.80665E+06-9.79899E+05-2.66576E+05-2.11280E+06-4.80759E-09 9.52059E-09
 -1        70-5.61518E+06-6.53837E+05-3.95206E+05-2.16539E+06-3.71074E-10 6.98492E-10
 -1        86-9.96478E+02-8.90412E+05 6.98545E+03-2.24484E+01-2.61480E-11-1.93336E-08
 -1        87 6.63883E+03-8.86441E+05 1.44783E+04 8.22204E+01-1.02318E-11-1.33184E-09
 -1        88-5.62271E+03-8.92650E+05 2.22770E+04-5.97759E+01 4.72937E-11 2.51088E-09
 -1        89 4.19310E+04-8.70063E+05 5.99584E+04 1.36431E+02-9.09495E-13-3.82049E-08
 -1        90-3.61691E+04-9.06749E+05 8.48498E+04-7.66646E+01-1.92813E-10-2.42767E-08
 -1       121-6.85947E+02-1.32146E+06 3.42914E+01 5.37721E+02 8.07418E-10-7.85803E-10
 -1       122-3.65708E+02-1.31970E+06 6.58715E+02-2.15592E+03-3.11391E-09-2.47383E-10
 -1       123-7.41046E+02-1.32155E+06 7.84483E+02 1.60713E+03 2.60195E-09-7.62157E-09
 -1       124 9.12803E+02-1.31907E+06 2.68517E+03-4.56410E+03-5.75619E-09 9.00582E-09
 -1       125-1.50396E+03-1.32226E+06 3.80949E+03 2.93814E+03 3.97085E-09-1.21145E-09
 -1       191-1.77956E+00 3.04433E+05 9.44265E+00 3.77614E-02-5.61953E-11-6.03950E-09
 -1       192-2.15668E+00 3.04407E+05 1.63451E+01-3.06674E-01-7.69405E-11-1.61954E-08
 -1       193-3.66208E+00 3.04433E+05 3.06002E+01 2.69733E-01-1.32069E-10-8.23275E-09
 -1       194-4.43450E+00 3.04409E+05 6.17971E+01-7.21425E-01-9.35856E-11-7.83166E-09
 -1       195-7.27991E+00 3.04431E+05 1.21080E+02 4.54541E-01-1.75703E-10-1.11263E-08
 -1       251-1.83481E+06 9.55389E+03-1.11702E+05 5.11850E+04 5.52973E-10 2.92930E-08
 -1       252-1.52056E+06-1.22516E+04-1.24001E+04-2.00138E+05-3.35785E-09 1.23732E-08
 -1       253-1.71461E+06-1.83322E+03-2.58856E+04 1.49013E+05 4.98130E-09 6.50925E-09
 -1       254-1.67412E+06 1.42296E+04-4.43767E+03-3.05836E+05 1.04765E-08-4.06671E-08
 -1       255-1.69740E+06-3.63158E+03-7.00131E+03 1.57576E+05-1.14123E-08 1.49566E-08
 -1       256-1.54835E+06 1.47799E+04 2.73203E+04-2.31381E+05 5.49880E-09 4.66762E-08
 -1       257-1.82818E+06-1.23500E+04-3.16167E+04 7.39700E+04-8.43102E-09 2.74449E-08
 -1       258-1.38936E+06 1.15959E+04 5.87770E+04-1.48404E+04-1.57561E-08 2.03784E-08
 -1       259-1.84076E+06-1.32059E+04-3.32272E+04-5.86829E+04-1.48975E-09-2.64075E-08
 -1       260-1.52049E+06 1.50701E+04 3.55125E+04 2.11388E+05-2.64163E-09 5.56838E-09
 -1       261-1.70999E+06-5.25135E+03-3.88531E+03-1.51765E+05-3.28323E-08 8.40794E-09
 -1       262-1.67187E+06 2.09186E+04 9.61365E+03 3.06737E+05 2.05545E-08 2.02227E-08
 -1       263-1.70438E+06-6.78030E+03-1.06936E+02-1.54698E+05-3.70028E-09 8.67999E-09
 -1       264-1.52713E+06 3.22010E+04 4.50989E+04 2.22181E+05-6.93624E-08-6.51357E-09
 -1       265-1.84110E+06-2.76251E+04-2.06004E+04-6.65783E+04-2.17624E-08 3.84471E-08
 -1       266-3.19403E+04-1.49338E+04 7.49482E+04-7.42675E+01 1.52795E-10 9.18899E-09
 -1       267 3.70283E+04 1.74080E+04 5.29686E+04 8.56821E+01 2.79215E-10 1.11940E-09
 -1       268-4.96539E+03-2.46532E+03 1.96884E+04-1.09178E+01 2.35559E-10 2.32761E-08
 -1       269 5.86271E+03 2.95061E+03 1.27969E+04 1.27172E+01 1.67347E-10 8.76834E-08
 -1       270-8.79997E+02-4.84801E+02 6.17727E+03-1.72583E+00 4.72937E-11 3.71319E-08
 -1       271-2.92714E+06-3.63420E+05-2.19965E+05-1.13592E+06 2.62298E-09-1.56288E-08
 -1       272-3.02093E+06-5.09819E+05-1.41541E+05-1.11777E+06 7.60588E-09-1.25947E-08
 -1       273-2.96870E+06-4.18237E+05-5.19509E+04-1.12590E+06 2.59774E-09-1.03864E-08
 -1       274-2.97155E+06-4.43223E+05-2.90953E+04-1.13331E+06 9.13587E-10 1.50139E-08
 -1       275-2.97543E+06-4.22969E+05-1.21110E+04-1.12303E+06 2.19279E-09 4.98121E-08
 -1       276-2.96261E+06-4.38551E+05-6.39276E+03-1.13841E+06-6.14818E-09 3.37968E-08
 -1       277-2.97765E+06-4.22099E+05-3.15387E+03-1.12116E+06 1.62800E-09 4.32692E-09
 -1       278-2.95928E+06-4.40498E+05-2.19051E+03-1.14187E+06 3.23189E-09 1.10726E-08
 -1       279-2.97894E+06-4.20842E+05-2.31196E+03-1.11974E+06-1.49380E-08 2.68960E-09
 -1       280-2.95772E+06-4.42999E+05-4.11691E+03-1.14429E+06-5.55974E-09 6.55499E-08
 -1       281-2.97940E+06-4.19523E+05-7.46915E+03-1.11884E+06-4.22915E-09 2.49106E-08
 -1       282-2.96008E+06-4.49109E+05-1.78883E+04-1.14505E+06-8.11951E-10 3.39789E-08
 -1       283-2.97678E+06-4.15097E+05-3.17897E+04-1.11891E+06 3.11184E-09-2.20007E-08
 -1       284-2.98775E+06-4.92563E+05-8.67466E+04-1.13861E+06 1.91130E-09-1.37761E-08
 -1       285-2.95248E+06-3.80360E+05-1.34741E+05-1.12375E+06 2.03909E-09 2.76850E-08
 -1       301 2.31871E+04-1.82028E+05 1.72476E+05-3.46474E+05 1.30967E-10 2.67355E-08
 -1       302 2.46376E+04-1.38744E+05 1.10418E+05-5.07310E+05 3.18323E-11-1.47716E-08
 -1       303 1.04252E+03-1.64910E+05 7.95358E+04-3.45818E+05-2.01908E-10-5.18485E-08
 -1       304 2.37324E+04-1.37372E+05 1.09862E+05-5.06822E+05 2.61934E-10 5.04406E-09
 -1       305 2.15912E+04-1.79968E+05 1.71017E+05-3.47029E+05-4.29281E-10 1.37916E-08
 -1       306-9.95281E+06-1.29556E+06-1.64828E+06-2.03689E+06-2.84344E-08-3.78350E-10
 -1       307 1.78618E+05-1.88272E+06 6.17691E+05-4.78541E+06-3.19131E-07 5.06261E-08
 -1       308-7.60170E+06 2.26221E+05-2.12808E+05-2.61820E+04-4.49218E-08 1.15273E-07
 -1       309-3.74035E+06-2.09371E+06 1.73340E+05-7.44144E+06 7.68664E-08 5.25970E-08
 -1       310-7.68490E+06 1.97708E+05-1.47966E+05-6.86017E+04-6.18456E-09-6.37610E-08
 -1       311 3.84027E+05-1.88887E+06 8.91648E+05-4.58402E+06 2.51224E-07-3.78095E-08
 -1       312-9.97910E+06-1.33358E+06-1.13307E+06-2.14188E+06 1.79571E-07 3.89264E-08
 -1       313 2.16782E+06 5.17312E+05 1.55408E+06 7.64730E+05 7.69505E-08 2.43745E-08
 -1       314-8.22804E+06-3.06806E+06-1.12934E+06-4.07235E+06 1.25059E-07-6.37374E-09
 -1       315-5.24385E+06 3.69569E+06 8.82787E+05 1.61379E+06-2.11250E-07-7.67614E-09
 -1       316-4.21801E+06-3.24649E+06-1.46802E+05-3.90730E+06-3.45637E-07-2.03116E-07
 -1       317-1.04087E+07 4.56482E+06 1.61401E+05-1.39402E+04 3.16657E-07-2.08605E-07
 -1       318-4.15130E+06-3.23715E+06-2.37764E+05-3.89307E+06-2.81230E-07 3.43498E-08
 -1       319-5.46262E+06 3.74201E+06 5.67668E+05 1.56116E+06-4.49072E-08 4.93455E-08
 -1       320-8.12454E+06-3.09069E+06-1.73687E+06-4.08405E+06 6.96164E-08-1.77388E-08
 -1       336 4.70560E+02-1.43054E+06-9.08336E+03 4.32981E+03-1.51549E-08-4.79486E-09
 -1       337-3.42111E+03-1.43180E+06-1.08687E+04-1.05400E+04-2.77422E-08-5.67707E-09
 -1       338 5.48581E+02-1.43051E+06-1.54212E+04 6.15738E+03-1.96010E-08-2.36105E-09
 -1       339-1.62412E+04-1.44021E+06-3.44239E+04-1.41066E+04-3.63189E-08-4.43288E-09
 -1       340 1.08447E+04-1.42277E+06-5.37097E+04 7.85447E+03-2.37233E-08 1.70512E-08
 -1       406 2.10260E+01 3.04419E+05 4.93926E+02 1.20349E-01-1.70957E-10 7.81779E-09
 -1       407 1.73834E+02 3.04509E+05 1.04929E+03 2.55223E+00-1.23705E-10 4.04416E-08
 -1       408 5.41996E+02 3.04344E+05 2.09590E+03-2.74185E+00-2.50282E-10 2.60075E-08
 -1       409 2.26745E+03 3.05178E+05 4.71794E+03 2.73962E+01 5.00222E-12-1.39129E-08
 -1       410 6.51168E+03 3.03748E+05 9.63162E+03-2.58983E+01-3.20142E-10-5.75290E-09
 -1       521-1.21713E+07-1.76269E+06-2.23647E+06-2.28169E+06-4.79631E-08 1.89757E-08
 -1       522 6.54761E+05-2.20497E+06 7.61978E+05-6.29499E+06-2.45345E-07-1.10038E-07
 -1       523-9.18251E+06 2.39603E+05-2.71898E+05 2.05283E+05 1.75205E-08-1.07786E-07
 -1       524-4.88755E+06-2.07258E+06 2.42174E+05-9.71655E+06 2.74978E-07-2.15237E-07
 -1       525-9.31900E+06 1.87749E+05-1.98647E+05 1.39774E+05 1.78581E-07-1.85559E-07
 -1       526 1.04222E+06-2.22743E+06 1.14049E+06-5.95347E+06-2.42144E-08-7.24503E-09
 -1       527-1.22197E+07-1.84135E+06-1.55934E+06-2.44977E+06 6.35628E-08 5.85133E-08
 -1       528 3.62566E+06 7.20097E+05 1.95917E+06 1.35552E+06 3.42261E-08 4.22297E-08
 -1       529-9.94330E+06-4.08884E+06-1.55062E+06-4.92889E+06-1.02504E-07 9.19681E-09
 -1       530-6.44830E+06 5.19289E+06 1.13156E+06 2.19391E+06-1.89175E-09 1.96218E-07
 -1       531-4.87023E+06-4.22774E+06-1.86597E+05-4.73798E+06-3.28495E-07 1.54396E-08
 -1       532-1.32884E+07 6.33139E+06 2.48621E+05-4.36673E+05 1.85802E-07-2.43756E-07
 -1       533-4.76450E+06-4.21484E+06-2.69712E+05-4.71311E+06 1.78989E-08-4.03583E-07
 -1       534-6.79125E+06 5.34635E+06 8.04732E+05 2.07011E+06-8.40082E-08 3.10509E-07
 -1       535-9.80668E+06-4.18761E+06-2.19754E+06-4.94072E+06 4.07454E-10 1.94219E-07
 -1       536-4.73795E+05-2.91072E+04 2.32160E+04-2.47524E+04-5.91945E-09 3.56722E-08
 -1       537-2.75312E+05 3.08808E+04 4.94148E+04 6.08745E+04-6.58318E-08 4.90945E-08
 -1       538-3.77976E+05-1.28377E+03 1.08611E+04-3.74959E+04 1.26299E-08 5.19781E-08
 -1       539-3.39693E+05 3.32549E+03 1.32583E+04 6.96574E+04 9.34715E-08 6.10768E-08
 -1       540-4.10829E+05-4.20839E+02-4.25174E+03-3.36101E+04-4.25212E-09 5.59297E-08
 -1       541-2.13684E+05 5.47444E+03 3.36653E+04 4.39990E+04-8.25480E-09 4.31014E-08
 -1       542-5.00609E+05-6.19854E+03-2.49475E+04-1.17020E+04 1.58104E-08 2.30633E-08
 -1       543-1.41840E+05 8.13369E+03 4.67937E+04-8.36153E+03-3.63528E-08-1.20172E-08
 -1       544-4.80768E+05-4.63510E+03-2.19431E+04 1.86365E+04-1.78011E-09-2.31094E-08
 -1       545-2.58721E+05 2.06168E+03 2.14387E+04-5.56046E+04 3.08903E-08-3.05274E-08
 -1       546-3.86816E+05 2.39329E+03-4.93543E+03 3.54977E+04 1.04225E-08-3.92523E-08
 -1       547-3.49310E+05-4.02017E+03-1.98569E+03-7.16292E+04-6.80127E-08-6.16719E-08
 -1       548-3.92553E+05 3.38726E+03-1.48919E+04 3.47678E+04-5.89101E-08-5.22896E-08
 -1       549-2.50828E+05-9.89860E+03-2.20167E+03-5.23216E+04-3.80644E-08-2.93826E-08
 -1       550-4.82554E+05 6.01825E+03-6.80023E+04 1.60729E+04 4.21278E-09-1.78134E-08
 -1       551 2.46674E+04-6.71205E+05 2.06657E+04-1.06810E+06-6.38101E-08 5.99539E-09
 -1       552 5.48155E+04-6.90338E+05 3.03578E+04-1.52211E+06-4.58967E-08 2.22353E-08
 -1       553 3.99064E+04-6.94751E+05 4.56734E+04-1.06367E+06-7.64194E-08 1.47120E-08
 -1       554 8.44179E+04-6.91472E+05 9.69233E+04-1.52380E+06-4.69736E-08 9.25866E-09
 -1       555 6.89556E+04-7.14718E+05 1.72156E+05-1.06439E+06-7.49424E-08-1.03355E-08
 -1       556 1.36257E+05-2.46761E+05 6.30301E+04-2.96945E+05-1.11322E-08-1.28493E-08
 -1       557 2.31455E+05-3.23389E+05 3.38603E+04-3.76250E+05-4.64206E-09-1.75341E-08
 -1       558 1.30825E+05-2.52144E+05 1.25250E+04-2.91941E+05-9.83709E-09-8.70205E-09
 -1       559 2.15025E+05-3.30709E+05 6.72026E+03-3.85812E+05 1.22818E-08-6.35191E-09
 -1       560 1.24456E+05-2.48074E+05 2.10320E+03-2.96309E+05 1.20781E-09-4.32556E-09
 -1       561 2.06459E+05-3.27695E+05 1.38346E+03-3.91424E+05 8.14907E-10 7.67159E-09
 -1       562 1.19446E+05-2.44877E+05 1.81313E+02-2.99903E+05 2.32831E-10 1.18725E-08
 -1       563 2.00577E+05-3.25135E+05 3.38316E+02-3.95215E+05-4.30373E-09-1.76965E-09
 -1       564 1.16083E+05-2.42758E+05 5.42724E+00-3.02277E+05 5.25324E-09-2.40880E-09
 -1       565 1.97055E+05-3.23605E+05 1.31831E+02-3.97450E+05 3.37241E-09-1.19362E-08
 -1       566 1.14432E+05-2.41703E+05 1.97654E+00-3.03438E+05-4.56566E-09-8.19637E-09
 -1       567 1.95863E+05-3.23073E+05-7.85184E+01-3.98110E+05 1.24992E-08 3.83807E-09
 -1       568 1.14543E+05-2.41787E+05-4.11387E+02-3.03452E+05-2.30102E-09 9.56425E-09
 -1       569 1.96061E+05-3.22996E+05-1.02597E+03-3.96345E+05-5.73345E-09 1.26383E-08
 -1       570 1.17184E+05-2.43982E+05-2.42528E+03-3.02969E+05 4.73665E-09 1.78898E-09
 -1       571 2.30971E+05 8.47648E+03 1.24398E+04-6.19268E+04 2.35968E-09 1.27677E-08
 -1       572 2.32810E+05 3.01183E+03 6.09512E+03-6.79263E+04 1.72258E-09 1.59644E-08
 -1       573 2.31708E+05 7.80836E+02 2.70798E+03-6.17916E+04 1.03482E-08 1.16815E-08
 -1       574 2.31918E+05 3.20904E+02 1.35718E+03-6.80843E+04 1.98165E-08-1.05128E-08
 -1       575 2.31791E+05 1.16253E+02 6.40169E+02-6.17735E+04 7.77140E-09-6.07542E-10
 -1       576 2.31800E+05 1.01315E+02 3.26885E+02-6.81053E+04-4.53224E-09 6.07270E-09
 -1       577 2.31811E+05 7.63224E+01 1.62647E+02-6.17711E+04-5.65706E-10 4.58658E-09
 -1       578 2.31800E+05 8.38593E+01 9.22092E+01-6.81080E+04-2.31603E-09-3.43880E-09
 -1       579 2.31838E+05 6.54593E+01 6.21592E+01-6.17709E+04 1.84809E-09-1.23109E-08
 -1       580 2.31838E+05 6.68903E+01 6.84144E+01-6.81045E+04-1.20963E-09-1.63964E-08
 -1       581 2.31881E+05 4.67917E+01 1.03047E+02-6.17747E+04 3.34512E-09-2.86445E-09
 -1       582 2.31914E+05 6.81648E+01 2.05417E+02-6.80652E+04 8.57654E-10-2.05046E-09
 -1       583 2.31930E+05 1.09529E+02 3.97799E+02-6.18103E+04 9.53150E-10-7.17296E-09
 -1       584 2.32122E+05 4.26966E+02 8.95475E+02-6.77668E+04 7.53062E-10-8.30642E-09
 -1       585 2.31891E+05 1.21004E+03 1.81906E+03-6.20734E+04-1.68802E-09-7.49060E-09
 -1       586-2.94623E+03 7.70177E+04-3.47780E+03-2.07053E+05-2.19643E-09-3.59000E-09
 -1       587-7.67438E+02 7.66020E+04-4.10030E+01-2.27906E+05-2.66846E-09 2.30875E-09
 -1       588 7.19727E+02 7.66290E+04 3.32181E+03-2.06956E+05-8.67658E-10 1.55615E-08
 -1       589 4.35636E+03 7.84288E+04 9.19558E+03-2.27666E+05-2.13549E-09 3.48746E-08
 -1       590 1.30380E+04 7.56109E+04 1.95165E+04-2.07312E+05-2.09184E-09 3.10829E-08
 -1       591-4.63245E+04-1.19257E+04-1.61474E+04-2.21386E+04 5.96458E-09 4.91218E-09
 -1       592-4.85861E+04-1.51440E+04-8.74642E+03-2.54980E+04 1.17695E-08-2.97973E-09
 -1       593-4.79460E+04-1.07473E+04-3.64095E+03-2.33162E+04 3.73217E-09-1.05231E-08
 -1       594-4.63475E+04-1.27846E+04-1.81592E+03-2.55946E+04 2.23457E-09-8.97450E-09
 -1       595-4.80698E+04-1.07428E+04-8.34125E+02-2.33699E+04-3.12446E-09 8.19871E-09
 -1       596-4.61949E+04-1.26766E+04-4.24628E+02-2.55774E+04-1.35937E-10 1.96195E-09
 -1       597-4.80854E+04-1.07535E+04-2.32477E+02-2.33719E+04 1.59503E-09 4.70681E-09
 -1       598-4.61800E+04-1.26724E+04-1.89188E+02-2.55726E+04-2.03170E-09 3.81476E-10
 -1       599-4.80843E+04-1.07538E+04-2.44536E+02-2.33715E+04 1.34162E-09-7.80290E-09
 -1       600-4.61957E+04-1.26776E+04-4.56563E+02-2.55764E+04-1.33377E-09 9.60426E-09
 -1       601-4.80654E+04-1.07429E+04-9.01887E+02-2.33686E+04 2.18097E-09-4.82805E-09
 -1       602-4.63605E+04-1.27940E+04-1.96619E+03-2.55923E+04-2.57342E-09 5.49562E-09
 -1       603-4.79292E+04-1.07500E+04-3.94335E+03-2.33108E+04-9.83391E-10 7.00538E-09
 -1       604-4.87970E+04-1.53360E+04-9.47261E+03-2.54704E+04 6.30962E-11 9.04629E-09
 -1       605-4.61585E+04-1.20386E+04-1.74881E+04-2.20488E+04-1.35395E-09 6.65295E-09
 -1       606 2.74920E+04-1.10755E+04-1.99031E+04 2.63799E+04-5.98448E-10-1.01454E-09
 -1       607 2.40865E+04-3.59197E+03-9.91089E+03 2.96203E+04-4.24188E-09-7.49924E-09
 -1       608 2.60199E+04-6.24335E+02-4.43791E+03 2.61749E+04-5.87534E-10-1.10324E-08
 -1       609 2.56395E+04-1.84023E+02-2.24153E+03 2.98529E+04-1.72804E-11 3.28248E-09
 -1       610 2.58442E+04 4.29155E+00-1.07036E+03 2.61516E+04-1.15051E-08-6.10044E-09
 -1       611 2.57761E+04 1.42317E+01-5.39643E+02 2.98783E+04-2.44263E-08-6.12499E-09
 -1       612 2.57989E+04 2.04123E+01-2.57512E+02 2.61493E+04-1.39344E-08 1.41404E-09
 -1       613 2.57760E+04 2.25006E+01-1.16194E+02 2.98813E+04-4.92582E-09-5.23505E-09
 -1       614 2.57747E+04 1.99276E+01-2.96923E+01 2.61486E+04 4.72028E-10 2.85036E-09
 -1       615 2.57647E+04 2.76313E+01 4.31574E+01 2.98817E+04 8.33234E-09 4.26348E-09
 -1       616 2.57561E+04 2.56235E+01 1.34451E+02 2.61488E+04 2.98496E-09 1.55410E-09
 -1       617 2.57755E+04 5.95511E+01 3.08942E+02 2.98812E+04-6.73936E-10 2.65140E-09
 -1       618 2.57253E+04 1.17195E+02 6.23397E+02 2.61490E+04-3.19778E-09 2.14118E-09
 -1       619 2.59923E+04 5.43615E+02 1.40044E+03 2.98804E+04-2.32831E-09-2.17642E-09
 -1       620 2.55162E+04 1.59728E+03 2.81491E+03 2.61482E+04 1.70758E-09-1.22841E-08
 -1       621 2.71969E+02 2.35149E+05 2.48575E+03 1.80491E+04 8.29914E-11 5.93991E-09
 -1       622 3.38966E+02 2.35752E+05 2.33151E+03 2.62616E+04 2.03954E-10 3.98450E-09
 -1       623 2.78301E+01 2.35283E+05 2.96839E+03 1.79641E+04 2.32035E-10 3.19142E-09
 -1       624 1.44165E+03 2.36743E+05 5.88824E+03 2.63473E+04 3.85484E-10 7.16977E-09
 -1       625 1.44585E+03 2.34120E+05 1.03544E+04 1.79623E+04 4.37012E-10 6.06747E-10
 -1       626 2.08183E+05 5.41910E+04 4.52488E+03 1.07628E+05-1.62208E-09-9.56788E-09
 -1       627 2.05809E+05 5.57513E+04 2.18049E+03 1.11763E+05-1.41972E-09 1.24242E-08
 -1       628 2.08316E+05 5.20933E+04 9.21402E+02 1.08362E+05 9.81345E-10 4.65161E-09
 -1       629 2.05208E+05 5.51863E+04 4.51105E+02 1.12008E+05 3.92447E-09 1.32876E-08
 -1       630 2.08326E+05 5.19939E+04 2.08470E+02 1.08388E+05 1.82899E-09-2.02334E-09
 -1       631 2.05138E+05 5.51689E+04 1.11324E+02 1.12009E+05-4.83851E-10 5.42008E-09
 -1       632 2.08318E+05 5.20005E+04 7.17093E+01 1.08380E+05 1.85400E-09-1.11839E-08
 -1       633 2.05125E+05 5.51735E+04 7.75541E+01 1.12002E+05-3.74598E-09-2.41382E-08
 -1       634 2.08309E+05 5.20007E+04 1.23210E+02 1.08376E+05 6.98788E-09 1.08400E-08
 -1       635 2.05132E+05 5.51743E+04 2.48163E+02 1.12003E+05-2.01226E-10 1.88268E-08
 -1       636 2.08298E+05 5.19984E+04 5.00490E+02 1.08374E+05-7.59741E-09-3.39214E-08
 -1       637 2.05237E+05 5.52530E+04 1.09976E+03 1.12000E+05 2.62389E-09 1.79398E-09
 -1       638 2.08257E+05 5.22425E+04 2.25971E+03 1.08263E+05 2.72985E-09 3.69255E-09
 -1       639 2.06423E+05 5.69036E+04 5.34598E+03 1.11648E+05-1.65903E-09-9.86074E-09
 -1       640 2.08097E+05 5.71664E+04 1.10939E+04 1.06179E+05 1.96860E-09-1.06013E-08
 -1       656 5.46785E+04-1.39070E+06-1.31994E+05-7.62765E+02 2.40107E-10 6.51076E-09
 -1       657-7.22956E+04-1.45030E+06-1.09255E+05 7.24571E+03 3.48336E-10-7.80568E-09
 -1       658 1.73872E+04-1.40766E+06-6.71698E+04-2.29566E+03 5.74573E-10-3.25286E-09
 -1       659-7.78551E+04-1.45294E+06-1.16558E+05 8.36885E+03-6.48470E-10 1.38550E-08
 -1       660 6.02252E+04-1.38807E+06-1.44552E+05-1.88588E+03-1.06229E-09 2.61639E-09
 -1       661 1.66442E+05 1.79002E+04 1.65219E+04 6.50876E+04 9.41782E-10 4.80759E-09
 -1       662 1.75355E+05 3.05555E+04 1.11335E+04 6.18677E+04-1.29967E-09-3.06011E-09
 -1       663 1.69685E+05 2.32026E+04 3.89433E+03 6.41486E+04 1.15983E-09-2.38879E-09
 -1       664 1.71600E+05 2.43517E+04 2.32882E+03 6.30122E+04 1.16813E-09-3.23726E-09
 -1       665 1.70173E+05 2.39297E+04 9.18683E+02 6.40088E+04-1.32076E-09 9.66136E-09
 -1       666 1.71024E+05 2.35179E+04 5.36541E+02 6.31931E+04-3.54299E-09 1.90514E-09
 -1       667 1.70257E+05 2.40146E+04 2.83803E+02 6.39757E+04 6.05212E-10-5.54464E-09
 -1       668 1.70933E+05 2.34538E+04 2.86449E+02 6.32410E+04-7.68210E-10-8.15970E-09
 -1       669 1.70264E+05 2.39918E+04 3.85571E+02 6.39613E+04-2.25057E-10 9.31149E-09
 -1       670 1.71028E+05 2.36608E+04 8.37502E+02 6.32427E+04-7.48983E-11 1.01637E-08
 -1       671 1.70162E+05 2.38117E+04 1.48634E+03 6.39723E+04 2.95088E-10-2.17642E-09
 -1       672 1.71894E+05 2.51068E+04 3.80221E+03 6.30334E+04-6.18527E-10-6.58110E-09
 -1       673 1.69402E+05 2.25822E+04 6.37168E+03 6.41567E+04-4.05180E-10 5.12819E-09
 -1       674 1.77960E+05 3.53418E+04 1.82216E+04 6.12500E+04-1.68882E-10 3.36354E-09
 -1       675 1.64136E+05 1.38631E+04 2.70469E+04 6.56479E+04 7.65795E-10 4.22187E-09
 -1       676 2.11712E+01-2.56321E+05-9.83529E+02-2.10197E+00 4.64439E-10 6.49379E-09
 -1       677-2.61210E+02-2.56559E+05-1.80000E+03 4.20127E+00 6.20503E-10-8.30276E-09
 -1       678 1.74358E+02-2.56152E+05-3.18193E+03-2.09787E+00-1.63482E-10-5.57756E-09
 -1       679-3.18287E+03-2.58480E+05-7.55880E+03 4.18557E+00 2.08047E-11-3.13084E-09
 -1       680 1.89954E+03-2.54402E+05-1.21822E+04-2.06260E+00 4.72937E-11-2.81575E-09
 -1       771-2.71155E+06-5.60854E+05-8.79887E+04-1.21402E+06-1.92085E-08-1.67929E-08
 -1       772-2.66796E+06-6.18117E+05-4.60656E+04-1.27936E+06-1.53668E-08 8.08723E-09
 -1       773-2.72734E+06-5.48378E+05-2.20239E+04-1.21978E+06-1.06666E-08 7.23230E-09
 -1       774-2.65919E+06-6.08876E+05-1.01422E+04-1.29084E+06 1.39116E-08-3.92902E-09
 -1       775-2.73412E+06-5.43573E+05-6.62699E+03-1.22179E+06-1.09285E-08 7.15227E-09
 -1       776-2.66266E+06-6.08354E+05-2.64107E+03-1.29877E+06-2.07219E-08 1.22054E-09
 -1       777-2.73972E+06-5.39466E+05-2.59646E+03-1.22355E+06 3.50701E-09 8.85484E-09
 -1       778-2.66657E+06-6.07986E+05-7.96081E+02-1.30549E+06 4.68572E-09 6.26824E-09
 -1       779-2.74441E+06-5.35949E+05-1.20479E+03-1.22506E+06-1.40572E-08-1.67165E-09
 -1       780-2.67002E+06-6.07598E+05-2.32534E+02-1.31094E+06-1.08412E-08 8.74934E-09
 -1       781-2.74808E+06-5.33150E+05-4.78339E+02-1.22624E+06-2.24027E-08 1.98270E-09
 -1       782-2.67267E+06-6.07233E+05 8.21400E+01-1.31495E+06-2.19297E-08-3.47336E-09
 -1       783-2.75063E+06-5.31239E+05 1.04290E+02-1.22708E+06-1.27329E-09-7.60269E-09
 -1       784-2.67417E+06-6.06791E+05 6.76641E+02-1.31740E+06-1.11977E-08 8.27640E-10
 -1       785-2.75204E+06-5.30172E+05 1.16515E+03-1.22759E+06-2.00653E-08 9.11768E-09
 -1       786 1.31646E+05-9.31767E+03 2.14844E+04-1.31807E+02 1.08294E-05 1.69339E-08
 -1       787 1.40977E+05 1.07848E+04 1.52114E+04-1.72858E+00 2.16197E-05 1.46183E-08
 -1       788 1.35242E+05-1.46485E+03 5.55877E+03-9.64713E+01 1.61175E-05-1.37784E-08
 -1       789 1.36786E+05 1.69455E+03 3.49460E+03-4.97647E+01 1.06048E-05 1.35932E-08
 -1       790 1.35837E+05-2.29267E+02 1.41602E+03-8.37722E+01 7.52127E-06-4.84505E-09
 -1       791 1.36090E+05 2.65151E+02 8.23833E+02-6.77601E+01 4.44158E-06 2.24168E-08
 -1       792 1.35938E+05-3.57158E+01 3.59008E+02-7.84759E+01 3.49718E-06 4.01218E-09
 -1       793 1.35973E+05 4.20769E+01 2.01560E+02-7.65138E+01 2.55544E-06-8.11135E-09
 -1       794 1.35955E+05-6.22627E+00 9.74790E+01-7.50184E+01 2.74023E-06-9.33367E-09
 -1       795 1.35955E+05 1.22543E+01 6.61928E+01-8.50702E+01 2.92219E-06 1.10165E-08
 -1       796 1.35956E+05-5.89565E+00 5.39549E+01-6.99193E+01 3.74074E-06 2.27386E-09
 -1       797 1.35967E+05 3.88206E+01 8.97698E+01-1.01991E+02 4.55623E-06-4.75915E-09
 -1       798 1.35943E+05-3.27879E+01 1.29617E+02-5.80971E+01 5.16518E-06-1.06869E-08
 -1       799 1.36062E+05 2.41369E+02 3.43064E+02-1.44144E+02 5.76907E-06 1.13005E-08
 -1       800 1.35861E+05-2.08414E+02 4.80523E+02-2.77655E+01 2.87720E-06-1.99543E-09
 -1       801 7.57676E+04-4.34969E+06-4.61748E+05 2.22018E+05 3.58850E-08-1.15124E-08
 -1       802-5.31294E+04-2.55900E+06 3.95581E+04-2.09106E+05 9.98880E-08-6.49538E-09
 -1       803-2.48829E+04-4.41751E+06-2.29309E+05 2.21329E+05 4.53729E-08 2.89565E-08
 -1       804-2.48955E+04-3.14720E+06 5.12115E+04 1.71762E+05-6.56291E-09 4.14104E-09
 -1       805 3.83313E+04-3.76673E+06-5.59635E+04-1.58627E+05-3.38605E-09-3.10584E-09
 -1       806-2.53208E+05-4.79286E+04-1.83797E+04-9.91252E+04-3.30283E-09 2.32012E-09
 -1       807-2.54826E+05-4.47565E+04-9.02972E+03-1.03380E+05-1.77920E-09-4.95652E-09
 -1       808-2.53698E+05-4.13198E+04-3.83079E+03-1.02275E+05-8.08996E-09-3.01543E-09
 -1       809-2.52935E+05-4.22123E+04-1.87320E+03-1.03595E+05-1.41590E-08 2.08388E-09
 -1       810-2.53774E+05-4.10894E+04-8.58476E+02-1.02415E+05-4.86489E-09 3.30056E-09
 -1       811-2.52790E+05-4.21092E+04-4.26853E+02-1.03567E+05 8.58563E-10 6.39920E-09
 -1       812-2.53787E+05-4.11085E+04-2.15590E+02-1.02415E+05-5.13637E-09 1.20103E-08
 -1       813-2.52771E+05-4.21103E+04-1.39789E+02-1.03553E+05-7.34144E-09 1.61640E-08
 -1       814-2.53784E+05-4.11151E+04-1.37805E+02-1.02413E+05-4.14639E-09 7.42148E-09
 -1       815-2.52776E+05-4.21116E+04-2.21765E+02-1.03549E+05-2.54659E-10 5.55065E-09
 -1       816-2.53769E+05-4.11130E+04-4.19761E+02-1.02411E+05-8.20364E-10 4.41241E-09
 -1       817-2.52849E+05-4.21512E+04-9.01303E+02-1.03543E+05-8.48331E-09 6.02085E-10
 -1       818-2.53718E+05-4.12384E+04-1.83796E+03-1.02352E+05-6.05723E-10 6.87123E-09
 -1       819-2.53856E+05-4.32632E+04-4.32548E+03-1.03310E+05-2.54431E-09 3.34171E-09
 -1       820-2.53379E+05-4.44992E+04-8.80345E+03-1.00950E+05-6.03904E-10-1.78954E-09
 -1       821-3.11709E+05 1.72070E+04-3.97967E+04 4.62071E+02-3.74246E-07 1.50994E-08
 -1       822-3.28942E+05-1.99199E+04-2.81600E+04-1.15974E+03-7.67900E-07-1.36879E-09
 -1       823-3.18356E+05 2.69828E+03-1.03066E+04 5.14748E+02-3.82651E-07-2.41971E-09
 -1       824-3.21173E+05-3.12213E+03-6.48279E+03-9.97717E+02-1.21072E-09 1.57279E-08
 -1       825-3.19476E+05 4.21771E+02-2.66918E+03 3.00049E+02 1.12054E-09-4.55043E-09
 -1       826-3.19857E+05-4.96540E+02-1.60106E+03-4.01309E+02 2.67258E-10 8.13250E-09
 -1       827-3.19670E+05 7.37627E+01-8.41253E+02-8.16700E+01-1.22879E-09 3.55811E-09
 -1       828-3.19682E+05-1.51507E+02-7.31789E+02 3.52483E+02-3.37032E-09 2.74901E-09
 -1       829-3.19650E+05 7.70280E+01-8.57600E+02-4.53757E+02 3.27091E-10 4.79417E-10
 -1       830-3.19912E+05-5.17100E+02-1.66786E+03 9.14170E+02 7.10486E-10 6.54782E-09
 -1       831-3.19442E+05 4.39952E+02-2.76852E+03-6.43368E+02-2.29483E-09 7.37339E-09
 -1       832-3.21252E+05-3.24803E+03-6.74649E+03 1.02321E+03-1.25101E-09 6.57644E-09
 -1       833-3.18311E+05 2.80623E+03-1.07245E+04-5.62796E+02-1.69551E-09 3.01998E-09
 -1       834-3.29281E+05-2.07223E+04-2.92905E+04 6.25806E+02-1.43436E-09 2.72848E-10
 -1       835-3.11415E+05 1.79001E+04-4.14114E+04-2.45951E+02 5.28413E-09 1.44173E-08
 -1       836-1.05938E+03 2.92468E+05 1.77498E+04-1.68801E+04-9.92259E-10 3.35831E-09
 -1       837 3.85699E+03 2.97993E+05 1.51929E+04-3.39898E+04-6.22776E-10-3.14230E-09
 -1       838-4.09898E+02 2.93993E+05 1.57227E+04-1.68135E+04-2.01453E-10 4.90286E-09
 -1       839 1.00641E+04 3.02619E+05 2.99815E+04-3.40299E+04-3.68345E-11 5.60516E-09
 -1       840-3.06070E+03 2.87797E+05 4.79135E+04-1.68398E+04-3.12866E-10-3.19767E-09
 -1       856-7.29265E+04 7.63688E+03-2.01254E+04-4.20946E+02-7.82734E-11 7.80346E-10
 -1       857-8.12338E+04-8.96083E+03-1.38552E+04 4.86705E+03-8.37730E-10-6.57747E-09
 -1       858-7.62106E+04 1.07026E+03-5.22272E+03-4.43097E+02-4.56623E-10-2.37560E-09
 -1       859-7.74635E+04-1.24762E+03-3.15328E+03 4.90173E+03-2.09852E-09 1.19682E-08
 -1       860-7.67015E+04 1.49087E+02-1.32416E+03-4.55662E+02 8.77549E-10 1.12112E-09
 -1       861-7.68984E+04-1.67335E+02-7.33973E+02 4.91893E+03-2.03524E-09 4.51905E-10
 -1       862-7.67780E+04 1.97621E+01-3.16186E+02-4.60317E+02 2.72260E-09 3.22645E-09
 -1       863-7.68066E+04-1.26458E+01-1.40340E+02 4.92122E+03 6.75269E-09-8.78046E-10
 -1       864-7.67936E+04-2.16171E+00-1.17150E+01-4.57953E+02 1.95217E-09-7.22719E-09
 -1       865-7.67692E+04 3.95736E+01 1.16852E+02 4.90891E+03 3.49780E-09 2.18291E-09
 -1       866-7.68136E+04-3.27826E+01 2.64536E+02-4.48001E+02-6.33491E-10-7.40681E-09
 -1       867-7.66368E+04 2.72965E+02 6.69898E+02 4.88183E+03 1.83738E-09 5.13660E-09
 -1       868-7.69221E+04-2.32233E+02 1.11755E+03-4.30877E+02-5.83327E-10 7.18609E-09
 -1       869-7.58117E+04 1.93152E+03 2.98276E+03 4.83684E+03-7.85207E-10-1.19294E-08
 -1       870-7.76328E+04-1.64759E+03 4.32752E+03-4.03002E+02 1.61549E-10 3.88695E-09
 -1       871-4.66416E+03-1.20163E+04-1.54756E+04 1.02917E+05 6.54836E-11-1.25601E-09
 -1       872-1.93521E+03-1.55221E+04-6.37029E+03 1.33432E+05-1.08230E-10 2.96950E-10
 -1       873 5.26548E+01-1.38723E+04 7.43795E+02 1.02691E+05-9.39508E-10 1.63207E-08
 -1       874 2.42342E+03-1.17344E+04 8.40956E+03 1.33471E+05-8.89486E-10 6.77846E-09
 -1       875 5.52648E+03-1.58695E+04 1.87565E+04 1.02880E+05-9.09495E-11 8.45830E-11
 -1       876 2.45177E+05 4.18593E+04 1.28480E+04 9.90246E+04-1.66892E-10-7.48059E-09
 -1       877 2.45968E+05 4.46233E+04 6.86121E+03 1.02764E+05 2.01931E-09-8.63838E-09
 -1       878 2.46377E+05 4.04376E+04 2.87453E+03 1.00080E+05 5.66251E-09-8.50468E-09
 -1       879 2.44221E+05 4.28815E+04 1.43211E+03 1.02853E+05 1.23559E-08-8.34166E-09
 -1       880 2.46464E+05 4.04224E+04 6.66920E+02 1.00123E+05 5.07384E-09-5.43127E-09
 -1       881 2.44105E+05 4.28073E+04 3.55723E+02 1.02834E+05 2.33752E-09-8.60294E-09
 -1       882 2.46472E+05 4.04332E+04 2.26863E+02 1.00124E+05 5.75960E-09-5.58536E-09
 -1       883 2.44097E+05 4.28036E+04 2.42730E+02 1.02828E+05-2.18506E-09-2.21678E-09
 -1       884 2.46467E+05 4.04306E+04 3.85081E+02 1.00124E+05 3.55669E-10-7.52550E-09
 -1       885 2.44127E+05 4.28091E+04 7.73576E+02 1.02838E+05 1.95664E-09-1.22918E-09
 -1       886 2.46437E+05 4.04080E+04 1.55881E+03 1.00121E+05-7.16085E-11 9.16941E-09
 -1       887 2.44401E+05 4.29887E+04 3.40491E+03 1.02877E+05-2.11924E-09 9.03424E-09
 -1       888 2.46222E+05 4.04459E+04 6.86098E+03 1.00012E+05 1.29046E-09 3.10138E-09
 -1       889 2.48488E+05 4.72347E+04 1.63900E+04 1.02750E+05 1.58918E-09-3.32216E-09
 -1       890 2.43426E+05 4.37673E+04 3.06976E+04 9.73954E+04 3.38036E-09-4.66025E-09
 -1       891-1.30348E+02-1.37809E+05-1.65720E+03 2.48500E+04-1.58138E-09 1.33377E-09
 -1       892-2.31577E+02-1.38218E+05-1.79109E+03 3.76373E+04-8.92442E-10-6.48674E-09
 -1       893-2.03672E+01-1.37861E+05-2.54763E+03 2.48555E+04 9.83164E-10 6.34554E-09
 -1       894-1.35598E+03-1.39187E+05-5.28106E+03 3.75016E+04-1.30967E-10 3.83807E-10
 -1       895-1.06532E+03-1.36761E+05-9.30326E+03 2.49847E+04-5.38023E-10 3.01407E-09
 -1       956-3.11192E+05-4.38767E+03-1.09990E+04 2.17677E+04-1.75442E-09-1.01185E-08
 -1       957-3.13361E+05-1.49442E+03-5.64625E+03 2.62078E+04-3.03407E-09-7.14772E-09
 -1       958-3.12171E+05-1.33848E+02-2.54392E+03 2.16378E+04-8.02174E-10 1.47725E-09
 -1       959-3.12341E+05-3.87339E+01-1.29934E+03 2.63514E+04 3.51065E-10-5.59942E-09
 -1       960-3.12261E+05 2.19586E+01-6.33540E+02 2.16251E+04-4.97175E-09-1.90903E-09
 -1       961-3.12269E+05 1.73283E+01-3.36251E+02 2.63661E+04-1.36260E-08 5.28962E-09
 -1       962-3.12279E+05 1.83837E+01-1.92782E+02 2.16231E+04-6.65136E-09 1.00624E-08
 -1       963-3.12267E+05 1.91514E+01-1.55318E+02 2.63687E+04-3.88025E-09 9.82027E-09
 -1       964-3.12283E+05 2.06161E+01-1.89323E+02 2.16224E+04-1.01354E-08-1.22509E-08
 -1       965-3.12278E+05 2.20851E+01-3.27812E+02 2.63684E+04-1.46731E-08-2.50361E-09
 -1       966-3.12272E+05 2.85982E+01-6.15854E+02 2.16233E+04-9.43032E-09-5.57270E-09
 -1       967-3.12356E+05-2.77771E+01-1.26330E+03 2.63590E+04-4.18629E-09 1.27086E-08
 -1       968-3.12191E+05-1.18494E+02-2.47257E+03 2.16320E+04-2.11230E-09-2.20163E-09
 -1       969-3.13355E+05-1.43913E+03-5.48967E+03 2.62586E+04 1.91812E-09-9.96263E-09
 -1       970-3.11245E+05-4.25160E+03-1.06932E+04 2.17239E+04 1.65710E-09 4.73301E-09
 -1       971-2.90751E+05-1.50084E+03-8.27360E+03 1.36327E+04-6.85213E-09 2.42849E-09
 -1       972-2.92757E+05-1.08330E+03-4.50572E+03 1.89962E+04-9.49149E-09-8.69522E-09
 -1       973-2.91671E+05-2.15714E+01-2.01780E+03 1.35202E+04-6.10180E-09 4.27076E-09
 -1       974-2.91806E+05-2.54920E+01-1.04552E+03 1.91192E+04 4.72028E-10 1.16116E-08
 -1       975-2.91744E+05 1.76977E+01-5.21968E+02 1.35095E+04-1.39789E-09 3.54055E-09
 -1       976-2.91751E+05 1.83062E+01-2.99950E+02 1.91325E+04 1.65528E-10-2.11023E-08
 -1       977-2.91758E+05 1.78776E+01-2.15588E+02 1.35069E+04 1.42245E-09 9.26320E-10
 -1       978-2.91754E+05 2.34536E+01-2.49398E+02 1.91362E+04 7.99912E-09 2.44086E-10
 -1       979-2.91758E+05 2.48310E+01-3.98228E+02 1.35058E+04 4.42532E-09-6.80188E-10
 -1       980-2.91784E+05 2.59828E+01-7.67376E+02 1.91369E+04 1.95109E-09-8.88372E-09
 -1       981-2.91733E+05 4.39661E+01-1.48542E+03 1.35062E+04-1.50919E-09 2.89731E-09
 -1       982-2.91988E+05-8.37214E+01-3.06987E+03 1.91310E+04-3.91435E-09-6.20120E-09
 -1       983-2.91546E+05-5.10791E+01-5.96454E+03 1.35118E+04 2.15618E-09 4.49359E-09
 -1       984-2.94856E+05-3.19869E+03-1.33569E+04 1.90541E+04-2.11799E-09 3.06454E-09
 -1       985-2.88846E+05-4.41556E+03-2.45276E+04 1.35855E+04-3.24690E-10-5.38421E-09
 -3
    1PSTEP                        15           8           1          
  100CL  108 6.09375E-01         409                     0    8           1
 -4  DISP        4    1
 -5  D1          1    2    1    0
 -5  D2          1    2    2    0
 -5  D3          1    2    3    0
 -5  ALL         1    2    0    0    1ALL
 -1         1 1.30195E-03 0.00000E+00 0.00000E+00
 -1         2 1.22689E-03 9.54937E-28 0.00000E+00
 -1         3 2.69061E-04-2.78877E-28 0.00000E+00
 -1         5 1.49523E-04 8.64150E-26 0.00000E+00
 -1         8 1.28242E-03-6.15931E-07 0.00000E+00
 -1         9 1.25090E-03-3.71104E-06 0.00000E+00
 -1        10 2.44806E-04-3.24213E-06 0.00000E+00
 -1        12 1.50391E-04 7.07262E-07-8.27181E-25
 -1        15 1.25899E-03-6.77739E-07 2.06795E-25
 -1        16 1.26582E-03-4.51202E-06 0.00000E+00
 -1        17 1.69326E-04-7.13628E-06 0.00000E+00
 -1        18 1.51582E-04 2.07244E-05 0.00000E+00
 -1        19 1.52998E-04 1.41041E-06 0.00000E+00
 -1        20 1.53144E-04 7.97330E-07 0.00000E+00
 -1        21 1.52391E-04-2.64596E-06 0.00000E+00
 -1        24 2.71929E-05-1.03272E-05 0.00000E+00
 -1        25 1.57436E-04 2.09094E-05 0.00000E+00
 -1        26 1.58165E-04 1.95342E-06 0.00000E+00
 -1        27 1.56221E-04-2.36674E-06 0.00000E+00
 -1        28 1.55844E-04-3.21385E-06 0.00000E+00
 -1        32 0.00000E+00 0.00000E+00 0.00000E+00
 -1        33 1.62245E-04 2.61665E-06 0.00000E+00
 -1        34 1.60355E-04-2.40623E-06 0.00000E+00
 -1        35 1.58611E-04-3.52150E-06 0.00000E+00
 -1        51 1.30069E-03-1.11078E-07 0.00000E+00
 -1        52 1.29834E-03-2.10005E-07 0.00000E+00
 -1        53 1.29512E-03-3.07835E-07 0.00000E+00
 -1        54 1.29125E-03-4.06566E-07 0.00000E+00
 -1        55 1.28694E-03-5.07568E-07-1.24077E-24
 -1        56 1.29892E-03-3.60704E-07 5.29396E-23
 -1        57 1.29530E-03 5.62344E-07 0.00000E+00
 -1        58 1.29126E-03 2.61541E-06 0.00000E+00
 -1        59 1.28687E-03 5.51829E-06-5.29396E-23
 -1        60 1.28230E-03 8.89210E-06 1.05879E-22
 -1        61 1.27771E-03 1.23191E-05-5.29396E-23
 -1        62 1.27326E-03 1.53758E-05-1.05879E-22
 -1        63 1.26911E-03 1.76621E-05 5.29396E-23
 -1        64 1.26535E-03 1.88820E-05-1.05879E-22
 -1        65 1.26208E-03 1.88104E-05 5.29396E-23
 -1        66 1.25932E-03 1.73960E-05 0.00000E+00
 -1        67 1.25705E-03 1.46780E-05 0.00000E+00
 -1        68 1.25518E-03 1.08701E-05 0.00000E+00
 -1        69 1.25363E-03 6.26540E-06 2.64698E-23
 -1        70 1.25222E-03 1.25214E-06 5.29396E-23
 -1        86 1.22796E-03-6.09230E-07 0.00000E+00
 -1        87 1.23113E-03-1.22286E-06 0.00000E+00
 -1        88 1.23577E-03-1.84185E-06 0.00000E+00
 -1        89 1.24121E-03-2.46553E-06 0.00000E+00
 -1        90 1.24655E-03-3.08844E-06 0.00000E+00
 -1       121 2.68380E-04-5.30046E-07 0.00000E+00
 -1       122 2.66340E-04-1.06188E-06-6.61744E-24
 -1       123 2.62948E-04-1.59724E-06 1.32349E-23
 -1       124 2.58217E-04-2.13794E-06 0.00000E+00
 -1       125 2.52161E-04-2.68544E-06 0.00000E+00
 -1       191 1.49547E-04 1.17894E-07 1.65436E-24
 -1       192 1.49619E-04 2.35785E-07-1.65436E-24
 -1       193 1.49740E-04 3.53671E-07-1.65436E-24
 -1       194 1.49909E-04 4.71549E-07 1.65436E-24
 -1       195 1.50126E-04 5.89414E-07 1.65436E-24
 -1       251 1.28174E-03-1.14176E-05 0.00000E+00
 -1       252 1.28034E-03-5.13077E-05 6.61744E-24
 -1       253 1.27795E-03-1.12447E-04 0.00000E+00
 -1       254 1.27471E-03-1.86469E-04 0.00000E+00
 -1       255 1.27142E-03-2.61279E-04-1.32349E-23
 -1       256 1.26888E-03-3.24766E-04 6.61744E-24
 -1       257 1.26734E-03-3.68104E-04 0.00000E+00
 -1       258 1.26660E-03-3.82961E-04-6.61744E-24
 -1       259 1.26588E-03-3.68928E-04 0.00000E+00
 -1       260 1.26437E-03-3.26346E-04 0.00000E+00
 -1       261 1.26187E-03-2.63496E-04-1.32349E-23
 -1       262 1.25861E-03-1.89156E-04-6.61744E-24
 -1       263 1.25539E-03-1.15438E-04 1.32349E-23
 -1       264 1.25300E-03-5.44396E-05 0.00000E+00
 -1       265 1.25160E-03-1.45670E-05-2.64698E-23
 -1       266 1.27851E-03-6.35178E-07-3.30872E-24
 -1       267 1.27461E-03-6.44389E-07 8.27181E-25
 -1       268 1.27071E-03-6.54236E-07 0.00000E+00
 -1       269 1.26680E-03-6.62199E-07 0.00000E+00
 -1       270 1.26290E-03-6.70119E-07 0.00000E+00
 -1       271 1.28002E-03 2.86725E-06 2.64698E-23
 -1       272 1.27765E-03 6.15169E-06 1.32349E-23
 -1       273 1.27539E-03 9.16547E-06-2.64698E-23
 -1       274 1.27326E-03 1.18255E-05-1.32349E-23
 -1       275 1.27129E-03 1.40572E-05-2.64698E-23
 -1       276 1.26951E-03 1.57895E-05 0.00000E+00
 -1       277 1.26794E-03 1.69580E-05 0.00000E+00
 -1       278 1.26661E-03 1.75054E-05 0.00000E+00
 -1       279 1.26552E-03 1.73822E-05 0.00000E+00
 -1       280 1.26471E-03 1.65474E-05 1.32349E-23
 -1       281 1.26417E-03 1.49690E-05 0.00000E+00
 -1       282 1.26392E-03 1.26245E-05 0.00000E+00
 -1       283 1.26395E-03 9.50125E-06 0.00000E+00
 -1       284 1.26429E-03 5.59714E-06 0.00000E+00
 -1       285 1.26490E-03 9.18020E-07-2.64698E-23
 -1       301 1.25357E-03-3.86442E-06 0.00000E+00
 -1       302 1.25548E-03-3.98968E-06 0.00000E+00
 -1       303 1.25715E-03-4.11244E-06 1.32349E-23
 -1       304 1.25908E-03-4.23516E-06 0.00000E+00
 -1       305 1.26180E-03-4.36134E-06 0.00000E+00
 -1       306 1.27731E-03-1.00715E-04 0.00000E+00
 -1       307 1.33744E-03-3.74762E-04 0.00000E+00
 -1       308 1.40519E-03-7.81834E-04 1.05879E-22
 -1       309 1.46961E-03-1.26157E-03 0.00000E+00
 -1       310 1.53455E-03-1.73234E-03-1.05879E-22
 -1       311 1.60219E-03-2.11341E-03-5.29396E-23
 -1       312 1.65738E-03-2.34936E-03-1.05879E-22
 -1       313 1.67103E-03-2.40370E-03 0.00000E+00
 -1       314 1.60960E-03-2.27843E-03 0.00000E+00
 -1       315 1.45067E-03-1.99967E-03 5.29396E-23
 -1       316 1.20405E-03-1.61642E-03 0.00000E+00
 -1       317 9.02149E-04-1.17998E-03-5.29396E-23
 -1       318 6.03794E-04-7.46844E-04-1.05879E-22
 -1       319 3.66868E-04-3.73815E-04 0.00000E+00
 -1       320 2.20105E-04-1.11435E-04 0.00000E+00
 -1       336 2.36005E-04-3.85193E-06 1.32349E-23
 -1       337 2.25625E-04-4.47690E-06-6.61744E-24
 -1       338 2.13709E-04-5.11794E-06 0.00000E+00
 -1       339 2.00313E-04-5.77526E-06-6.61744E-24
 -1       340 1.85496E-04-6.45192E-06 1.32349E-23
 -1       406 1.50705E-04 8.25082E-07 3.30872E-24
 -1       407 1.51067E-04 9.42849E-07 8.27181E-25
 -1       408 1.51478E-04 1.06053E-06-1.65436E-24
 -1       409 1.51936E-04 1.17797E-06-1.65436E-24
 -1       410 1.52443E-04 1.29495E-06-1.65436E-24
 -1       521 1.29346E-03-1.09979E-04 1.05879E-22
 -1       522 1.35453E-03-4.03485E-04 0.00000E+00
 -1       523 1.42090E-03-8.38429E-04 1.05879E-22
 -1       524 1.48183E-03-1.34911E-03 0.00000E+00
 -1       525 1.54362E-03-1.84959E-03 0.00000E+00
 -1       526 1.61052E-03-2.25496E-03 5.29396E-23
 -1       527 1.66657E-03-2.50495E-03 0.00000E+00
 -1       528 1.67982E-03-2.56163E-03 0.00000E+00
 -1       529 1.61189E-03-2.42643E-03 0.00000E+00
 -1       530 1.43783E-03-2.12976E-03 0.00000E+00
 -1       531 1.16735E-03-1.72364E-03 0.00000E+00
 -1       532 8.36435E-04-1.26289E-03-5.29396E-23
 -1       533 5.08895E-04-8.05076E-04 0.00000E+00
 -1       534 2.47607E-04-4.08096E-04 0.00000E+00
 -1       535 8.50927E-05-1.26276E-04 0.00000E+00
 -1       536 1.68825E-04 1.95631E-05 6.61744E-24
 -1       537 1.67642E-04 6.59119E-05 0.00000E+00
 -1       538 1.65845E-04 1.24715E-04 0.00000E+00
 -1       539 1.63743E-04 1.88712E-04 0.00000E+00
 -1       540 1.61849E-04 2.49112E-04 3.30872E-24
 -1       541 1.60602E-04 2.97144E-04-1.65436E-24
 -1       542 1.60002E-04 3.27531E-04-3.30872E-24
 -1       543 1.59820E-04 3.35108E-04-1.65436E-24
 -1       544 1.59566E-04 3.20551E-04 3.30872E-24
 -1       545 1.58795E-04 2.84688E-04 0.00000E+00
 -1       546 1.57421E-04 2.33905E-04 3.30872E-24
 -1       547 1.55599E-04 1.74679E-04 1.65436E-24
 -1       548 1.53804E-04 1.15924E-04-3.30872E-24
 -1       549 1.52498E-04 6.65512E-05-1.65436E-24
 -1       550 1.51798E-04 3.27780E-05-1.65436E-24
 -1       551 1.49747E-04-7.58059E-06 0.00000E+00
 -1       552 1.27368E-04-8.07629E-06 0.00000E+00
 -1       553 1.03050E-04-8.61303E-06 7.75482E-25
 -1       554 7.76664E-05-9.17634E-06 3.30872E-24
 -1       555 5.20909E-05-9.74668E-06 0.00000E+00
 -1       556 1.63562E-04 7.67617E-06 0.00000E+00
 -1       557 1.58953E-04 1.95619E-05 0.00000E+00
 -1       558 1.55387E-04 2.87577E-05 0.00000E+00
 -1       559 1.52758E-04 3.55194E-05 0.00000E+00
 -1       560 1.50961E-04 4.01030E-05 0.00000E+00
 -1       561 1.49893E-04 4.27664E-05 0.00000E+00
 -1       562 1.49453E-04 4.37681E-05 2.64698E-23
 -1       563 1.49540E-04 4.33674E-05 0.00000E+00
 -1       564 1.50055E-04 4.18242E-05 0.00000E+00
 -1       565 1.50900E-04 3.93986E-05 0.00000E+00
 -1       566 1.51976E-04 3.63511E-05 0.00000E+00
 -1       567 1.53187E-04 3.29426E-05 0.00000E+00
 -1       568 1.54435E-04 2.94339E-05-1.65436E-24
 -1       569 1.55624E-04 2.60856E-05 0.00000E+00
 -1       570 1.56656E-04 2.31587E-05 0.00000E+00
 -1       571 1.51668E-04 1.94771E-05 1.65436E-24
 -1       572 1.51755E-04 1.81747E-05 1.65436E-24
 -1       573 1.51844E-04 1.68295E-05-1.65436E-24
 -1       574 1.51932E-04 1.54546E-05-8.27181E-25
 -1       575 1.52021E-04 1.40632E-05 3.30872E-24
 -1       576 1.52109E-04 1.26682E-05 1.65436E-24
 -1       577 1.52198E-04 1.12827E-05 0.00000E+00
 -1       578 1.52287E-04 9.92009E-06 0.00000E+00
 -1       579 1.52375E-04 8.59331E-06 0.00000E+00
 -1       580 1.52464E-04 7.31554E-06 6.61744E-24
 -1       581 1.52553E-04 6.09995E-06 0.00000E+00
 -1       582 1.52642E-04 4.95962E-06 0.00000E+00
 -1       583 1.52731E-04 3.90768E-06 0.00000E+00
 -1       584 1.52820E-04 2.95711E-06 0.00000E+00
 -1       585 1.52909E-04 2.12076E-06 0.00000E+00
 -1       586 1.52508E-04 2.07572E-05 0.00000E+00
 -1       587 1.53403E-04 2.07893E-05-2.06795E-25
 -1       588 1.54304E-04 2.08211E-05 0.00000E+00
 -1       589 1.55251E-04 2.08523E-05 0.00000E+00
 -1       590 1.56282E-04 2.08825E-05 0.00000E+00
 -1       591 1.51998E-04 1.95480E-05-2.06795E-25
 -1       592 1.52419E-04 1.83478E-05 0.00000E+00
 -1       593 1.52847E-04 1.71300E-05 0.00000E+00
 -1       594 1.53280E-04 1.58993E-05-4.13590E-25
 -1       595 1.53715E-04 1.46609E-05-8.27181E-25
 -1       596 1.54151E-04 1.34197E-05-4.13590E-25
 -1       597 1.54586E-04 1.21808E-05-8.27181E-25
 -1       598 1.55019E-04 1.09491E-05 0.00000E+00
 -1       599 1.55447E-04 9.72953E-06 8.27181E-25
 -1       600 1.55868E-04 8.52716E-06 4.13590E-25
 -1       601 1.56281E-04 7.34693E-06 8.27181E-25
 -1       602 1.56685E-04 6.19381E-06 2.06795E-25
 -1       603 1.57076E-04 5.07280E-06 0.00000E+00
 -1       604 1.57454E-04 3.98895E-06-2.58494E-26
 -1       605 1.57816E-04 2.94717E-06 0.00000E+00
 -1       606 1.53011E-04 9.01043E-07 0.00000E+00
 -1       607 1.53021E-04 4.82176E-07 0.00000E+00
 -1       608 1.53030E-04 1.48496E-07 0.00000E+00
 -1       609 1.53039E-04-1.05987E-07 0.00000E+00
 -1       610 1.53048E-04-2.87311E-07 0.00000E+00
 -1       611 1.53057E-04-4.01580E-07 0.00000E+00
 -1       612 1.53066E-04-4.54909E-07 0.00000E+00
 -1       613 1.53075E-04-4.53419E-07 0.00000E+00
 -1       614 1.53084E-04-4.03232E-07-1.65436E-24
 -1       615 1.53092E-04-3.10471E-07 0.00000E+00
 -1       616 1.53101E-04-1.81257E-07 0.00000E+00
 -1       617 1.53110E-04-2.17130E-08 0.00000E+00
 -1       618 1.53119E-04 1.62038E-07 8.27181E-25
 -1       619 1.53127E-04 3.63877E-07 0.00000E+00
 -1       620 1.53136E-04 5.77682E-07-4.13590E-25
 -1       621 1.53664E-04 1.50123E-06 0.00000E+00
 -1       622 1.54438E-04 1.59231E-06 8.27181E-25
 -1       623 1.55298E-04 1.68331E-06 0.00000E+00
 -1       624 1.56220E-04 1.77409E-06-1.65436E-24
 -1       625 1.57184E-04 1.86467E-06 1.65436E-24
 -1       626 1.53289E-04 9.32768E-07-3.30872E-24
 -1       627 1.53554E-04 5.25220E-07-1.65436E-24
 -1       628 1.53797E-04 1.79985E-07 0.00000E+00
 -1       629 1.54019E-04-1.11100E-07-1.65436E-24
 -1       630 1.54225E-04-3.56216E-07 3.30872E-24
 -1       631 1.54416E-04-5.63569E-07-1.65436E-24
 -1       632 1.54596E-04-7.41371E-07 0.00000E+00
 -1       633 1.54768E-04-8.97833E-07 0.00000E+00
 -1       634 1.54935E-04-1.04116E-06-3.30872E-24
 -1       635 1.55100E-04-1.17957E-06 1.65436E-24
 -1       636 1.55267E-04-1.32127E-06 0.00000E+00
 -1       637 1.55437E-04-1.47447E-06-8.27181E-25
 -1       638 1.55615E-04-1.64738E-06 0.00000E+00
 -1       639 1.55804E-04-1.84822E-06 0.00000E+00
 -1       640 1.56005E-04-2.08523E-06-3.30872E-24
 -1       656 1.53149E-04 2.82816E-07 6.61744E-24
 -1       657 1.53555E-04-2.52453E-07 6.61744E-24
 -1       658 1.54222E-04-7.86309E-07 1.32349E-23
 -1       659 1.55005E-04-1.31979E-06 0.00000E+00
 -1       660 1.55729E-04-1.85491E-06 6.61744E-24
 -1       661 1.53148E-04 9.78810E-07 8.27181E-25
 -1       662 1.53184E-04 1.08228E-06 8.27181E-25
 -1       663 1.53248E-04 1.11164E-06 0.00000E+00
 -1       664 1.53339E-04 1.07205E-06 0.00000E+00
 -1       665 1.53453E-04 9.68008E-07-1.65436E-24
 -1       666 1.53590E-04 8.04145E-07 0.00000E+00
 -1       667 1.53748E-04 5.84828E-07 0.00000E+00
 -1       668 1.53925E-04 3.14374E-07 0.00000E+00
 -1       669 1.54120E-04-3.06626E-09 0.00000E+00
 -1       670 1.54331E-04-3.63425E-07 0.00000E+00
 -1       671 1.54556E-04-7.62756E-07 1.65436E-24
 -1       672 1.54794E-04-1.19722E-06-8.27181E-25
 -1       673 1.55044E-04-1.66301E-06-1.65436E-24
 -1       674 1.55304E-04-2.15669E-06 0.00000E+00
 -1       675 1.55573E-04-2.67421E-06-4.13590E-25
 -1       676 1.52968E-04-2.74116E-06-3.30872E-24
 -1       677 1.53545E-04-2.83632E-06 1.65436E-24
 -1       678 1.54122E-04-2.93144E-06 3.30872E-24
 -1       679 1.54697E-04-3.02627E-06 0.00000E+00
 -1       680 1.55272E-04-3.12108E-06 1.65436E-24
 -1       771 1.78607E-05 1.02105E-05 0.00000E+00
 -1       772 9.96686E-06 2.70708E-05 0.00000E+00
 -1       773 3.44280E-06 4.04374E-05 0.00000E+00
 -1       774-1.80428E-06 5.05142E-05 0.00000E+00
 -1       775-5.86570E-06 5.75122E-05 0.00000E+00
 -1       776-8.83645E-06 6.16542E-05 0.00000E+00
 -1       777-1.08117E-05 6.31696E-05 0.00000E+00
 -1       778-1.18889E-05 6.22975E-05 0.00000E+00
 -1       779-1.21650E-05 5.92829E-05-5.29396E-23
 -1       780-1.17389E-05 5.43783E-05 0.00000E+00
 -1       781-1.07092E-05 4.78411E-05 5.29396E-23
 -1       782-9.17560E-06 3.99348E-05 2.64698E-23
 -1       783-7.23756E-06 3.09258E-05 0.00000E+00
 -1       784-4.99548E-06 2.10848E-05 0.00000E+00
 -1       785-2.54925E-06 1.06847E-05 0.00000E+00
 -1       786 1.57477E-04 1.95241E-05 0.00000E+00
 -1       787 1.57522E-04 1.82123E-05 0.00000E+00
 -1       788 1.57567E-04 1.69513E-05 8.27181E-25
 -1       789 1.57613E-04 1.57190E-05 0.00000E+00
 -1       790 1.57659E-04 1.45068E-05-1.65436E-24
 -1       791 1.57704E-04 1.33061E-05-8.27181E-25
 -1       792 1.57750E-04 1.21141E-05 1.65436E-24
 -1       793 1.57796E-04 1.09279E-05-8.27181E-25
 -1       794 1.57842E-04 9.74739E-06 0.00000E+00
 -1       795 1.57888E-04 8.57255E-06-8.27181E-25
 -1       796 1.57934E-04 7.40606E-06 0.00000E+00
 -1       797 1.57980E-04 6.25060E-06-8.27181E-25
 -1       798 1.58026E-04 5.11423E-06 0.00000E+00
 -1       799 1.58072E-04 4.00506E-06 0.00000E+00
 -1       800 1.58118E-04 2.94432E-06 1.65436E-24
 -1       801 1.24867E-04 1.85668E-05 2.64698E-23
 -1       802 2.59254E-05 1.20071E-05 1.32349E-23
 -1       803-6.11904E-05 6.34131E-06 0.00000E+00
 -1       804-5.92738E-05 4.30221E-06 0.00000E+00
 -1       805-2.04129E-05 1.89949E-06-5.29396E-23
 -1       806 1.57858E-04 1.94512E-05-1.65436E-24
 -1       807 1.58267E-04 1.80191E-05-8.27181E-25
 -1       808 1.58664E-04 1.66174E-05 3.30872E-24
 -1       809 1.59048E-04 1.52494E-05 0.00000E+00
 -1       810 1.59419E-04 1.39184E-05 3.30872E-24
 -1       811 1.59774E-04 1.26276E-05-8.27181E-25
 -1       812 1.60113E-04 1.13800E-05-3.30872E-24
 -1       813 1.60434E-04 1.01788E-05 1.65436E-24
 -1       814 1.60737E-04 9.02724E-06-1.65436E-24
 -1       815 1.61021E-04 7.92837E-06-1.65436E-24
 -1       816 1.61283E-04 6.88534E-06-1.65436E-24
 -1       817 1.61523E-04 5.90126E-06-8.27181E-25
 -1       818 1.61741E-04 4.97926E-06-1.65436E-24
 -1       819 1.61934E-04 4.12245E-06-8.27181E-25
 -1       820 1.62102E-04 3.33390E-06 3.30872E-24
 -1       821 1.58050E-04 8.45387E-07 8.27181E-25
 -1       822 1.57927E-04-5.64261E-07-1.65436E-24
 -1       823 1.57805E-04-2.11630E-06 0.00000E+00
 -1       824 1.57682E-04-3.65067E-06 0.00000E+00
 -1       825 1.57559E-04-5.01188E-06 0.00000E+00
 -1       826 1.57436E-04-6.04536E-06 0.00000E+00
 -1       827 1.57313E-04-6.67788E-06 3.30872E-24
 -1       828 1.57191E-04-6.83843E-06-1.65436E-24
 -1       829 1.57068E-04-6.57315E-06 0.00000E+00
 -1       830 1.56945E-04-5.93051E-06 1.65436E-24
 -1       831 1.56822E-04-5.05262E-06 0.00000E+00
 -1       832 1.56700E-04-4.08291E-06 0.00000E+00
 -1       833 1.56577E-04-3.18763E-06-3.30872E-24
 -1       834 1.56456E-04-2.53258E-06 0.00000E+00
 -1       835 1.56335E-04-2.22414E-06 8.27181E-25
 -1       836 1.59033E-04 2.06361E-06-3.30872E-24
 -1       837 1.59783E-04 2.17642E-06-1.65436E-24
 -1       838 1.60448E-04 2.28912E-06 0.00000E+00
 -1       839 1.61058E-04 2.40114E-06-8.27181E-25
 -1       840 1.61646E-04 2.51300E-06 4.13590E-25
 -1       856 1.56201E-04-2.66864E-06 4.13590E-25
 -1       857 1.56178E-04-2.84570E-06 0.00000E+00
 -1       858 1.56155E-04-2.91738E-06 0.00000E+00
 -1       859 1.56131E-04-2.90323E-06 2.06795E-25
 -1       860 1.56108E-04-2.82293E-06 8.27181E-25
 -1       861 1.56084E-04-2.69615E-06 0.00000E+00
 -1       862 1.56060E-04-2.54264E-06 8.27181E-25
 -1       863 1.56036E-04-2.38218E-06 4.13590E-25
 -1       864 1.56013E-04-2.23453E-06 8.27181E-25
 -1       865 1.55989E-04-2.11945E-06 0.00000E+00
 -1       866 1.55965E-04-2.05668E-06 0.00000E+00
 -1       867 1.55941E-04-2.06591E-06 0.00000E+00
 -1       868 1.55917E-04-2.16674E-06 0.00000E+00
 -1       869 1.55893E-04-2.37874E-06 4.13590E-25
 -1       870 1.55869E-04-2.72133E-06 0.00000E+00
 -1       871 1.56779E-04-2.36947E-06-4.13590E-25
 -1       872 1.57469E-04-2.37511E-06 0.00000E+00
 -1       873 1.58231E-04-2.38131E-06 0.00000E+00
 -1       874 1.59006E-04-2.38818E-06 0.00000E+00
 -1       875 1.59734E-04-2.39559E-06-1.44757E-24
 -1       876 1.56449E-04-2.65597E-06-3.30872E-24
 -1       877 1.56657E-04-2.88409E-06 0.00000E+00
 -1       878 1.56846E-04-3.05844E-06 0.00000E+00
 -1       879 1.57017E-04-3.18580E-06-1.65436E-24
 -1       880 1.57173E-04-3.27300E-06 0.00000E+00
 -1       881 1.57316E-04-3.32684E-06 0.00000E+00
 -1       882 1.57450E-04-3.35409E-06 3.30872E-24
 -1       883 1.57576E-04-3.36152E-06 0.00000E+00
 -1       884 1.57697E-04-3.35588E-06 3.30872E-24
 -1       885 1.57816E-04-3.34394E-06 0.00000E+00
 -1       886 1.57935E-04-3.33246E-06 0.00000E+00
 -1       887 1.58056E-04-3.32822E-06-1.65436E-24
 -1       888 1.58183E-04-3.33798E-06 0.00000E+00
 -1       889 1.58317E-04-3.36867E-06-1.65436E-24
 -1       890 1.58460E-04-3.42701E-06 1.65436E-24
 -1       891 1.56438E-04-3.26544E-06 0.00000E+00
 -1       892 1.57010E-04-3.31720E-06-8.27181E-25
 -1       893 1.57538E-04-3.36889E-06-8.27181E-25
 -1       894 1.57996E-04-3.42040E-06-8.27181E-25
 -1       895 1.58361E-04-3.47174E-06-4.13590E-25
 -1       956 1.62128E-04 2.04896E-06-1.65436E-24
 -1       957 1.62010E-04 1.55885E-06-8.27181E-25
 -1       958 1.61892E-04 1.13741E-06 1.65436E-24
 -1       959 1.61774E-04 7.75203E-07 1.65436E-24
 -1       960 1.61655E-04 4.62779E-07 0.00000E+00
 -1       961 1.61537E-04 1.90641E-07 0.00000E+00
 -1       962 1.61418E-04-5.07098E-08-3.30872E-24
 -1       963 1.61300E-04-2.70789E-07 1.65436E-24
 -1       964 1.61181E-04-4.79105E-07-3.30872E-24
 -1       965 1.61063E-04-6.85172E-07-1.65436E-24
 -1       966 1.60944E-04-8.98507E-07-3.30872E-24
 -1       967 1.60826E-04-1.12862E-06 0.00000E+00
 -1       968 1.60708E-04-1.38501E-06 0.00000E+00
 -1       969 1.60589E-04-1.67717E-06 1.65436E-24
 -1       970 1.60471E-04-2.01454E-06 3.30872E-24
 -1       971 1.60247E-04-2.78945E-06-1.65436E-24
 -1       972 1.60138E-04-3.08330E-06 0.00000E+00
 -1       973 1.60029E-04-3.29761E-06 0.00000E+00
 -1       974 1.59919E-04-3.44264E-06-1.65436E-24
 -1       975 1.59809E-04-3.52864E-06 3.30872E-24
 -1       976 1.59700E-04-3.56588E-06 1.65436E-24
 -1       977 1.59590E-04-3.56465E-06 0.00000E+00
 -1       978 1.59480E-04-3.53524E-06 0.00000E+00
 -1       979 1.59371E-04-3.48795E-06 3.30872E-24
 -1       980 1.59261E-04-3.43310E-06 1.65436E-24
 -1       981 1.59152E-04-3.38097E-06 0.00000E+00
 -1       982 1.59042E-04-3.34188E-06 1.65436E-24
 -1       983 1.58933E-04-3.32613E-06-3.30872E-24
 -1       984 1.58824E-04-3.34400E-06 1.65436E-24
 -1       985 1.58715E-04-3.40578E-06 1.65436E-24
 -3
    1PSTEP                        16           8           1          
  100CL  108 6.09375E-01         409                     0    8           1
 -4  STRESS      6    1
 -5  SXX         1    4    1    1
 -5  SYY         1    4    2    2
 -5  SZZ         1    4    3    3
 -5  SXY         1    4    1    2
 -5  SYZ         1    4    2    3
 -5  SZX         1    4    3    1
 -1         1-3.72521E+06-1.43763E+06-8.15162E+05-1.51053E+06-6.03904E-10-3.57977E-08
 -1         2 8.06573E+02-1.73369E+06 2.89044E+03 1.57456E+04 5.46081E-10 1.92890E-07
 -1         3-8.47297E+02-1.50894E+06 3.67486E+02-1.62129E+03-4.13703E-10-2.08311E-08
 -1         5-1.73301E+01 3.37397E+05 8.66255E+00-4.81701E-01-2.42965E-10-7.20320E-09
 -1         8-8.02285E+05-2.74648E+05-7.58868E+04-4.52415E+05 6.62112E-10 1.78552E-08
 -1         9 3.70829E+06-6.98724E+05 6.82263E+05-7.94426E+05 2.55066E-08 4.65661E-10
 -1        10-1.76074E+03-1.57227E+06-3.20912E+03-1.09587E+04-1.02373E-08-4.33678E-08
 -1        12-1.38043E+01 3.37415E+05 2.81504E+02-3.47102E+00-3.26963E-10 1.79461E-08
 -1        15 1.48223E+03 8.14566E+02 4.79128E+03 2.50245E+00 1.78062E-11-5.46437E-08
 -1        16 9.32624E+06-3.93388E+05 1.34351E+06-1.07997E+06 1.82772E-08 4.01633E-08
 -1        17 3.21875E+06 2.11671E+06 8.83521E+05 2.18428E+06 1.12370E-08 2.19268E-08
 -1        18 6.21642E+04 1.19304E+04-1.16910E+04-9.96801E+04 1.08896E-08 4.53429E-09
 -1        19 1.07946E+05 1.24263E+05-8.79533E+02 2.03760E+04 8.00537E-10 2.98314E-10
 -1        20-6.46020E+04-5.08294E+05-1.13499E+05 2.67765E+04 1.41426E-10 8.91426E-09
 -1        21-4.32715E+01-2.72086E+05-8.58493E+02 1.07764E+02 5.86972E-09-1.70776E-08
 -1        24 5.02676E+06 4.51409E+06 1.58548E+06 4.11897E+06-1.13617E-07-4.11722E-08
 -1        25-6.87506E+03-2.22339E+05-2.50067E+04-3.69561E+05 4.82396E-10 2.20689E-08
 -1        26-4.52971E+04 8.07469E+04-2.14192E+04-1.65686E+03 1.01172E-09-2.44512E-09
 -1        27-7.14484E+04-2.75816E+05-1.01812E+05 6.17053E+04 4.71376E-09 2.83217E-09
 -1        28 2.06870E+04-7.74228E+04 1.54908E+04 2.05247E+04-1.34935E-09-9.48674E-10
 -1        32-1.53448E+06-2.69116E+06-1.39331E+05-3.12979E+04-3.35640E-08-8.12105E-09
 -1        33-1.60049E+05 8.10941E+04 2.86014E+04-3.62831E+04-1.31035E-09 3.61433E-09
 -1        34-2.01146E+05-2.15474E+04 5.78925E+02 6.59881E+04-1.83157E-09-5.43226E-09
 -1        35-2.11993E+04-3.07258E+04-1.21834E+03 4.73700E+04-1.61440E-10 3.90840E-09
 -1        51 4.06033E+04-2.52542E+05 8.95618E+04-7.37811E+05 1.16415E-10 2.07801E-08
 -1        52 1.57748E+04-2.39606E+05 4.97394E+04-8.60296E+05 2.18279E-10 4.95929E-08
 -1        53 5.65497E+03-2.54553E+05 3.02717E+04-7.35154E+05 1.52795E-10-6.75354E-08
 -1        54 1.39527E+04-2.51542E+05 3.36942E+04-8.63049E+05 2.83762E-10-1.20781E-09
 -1        55 2.87095E+04-2.62326E+05 5.12819E+04-7.34770E+05 6.69388E-10-9.62827E-08
 -1        56-7.06198E+06-7.95321E+05-6.02297E+05-2.75156E+06-7.93079E-09-9.98261E-08
 -1        57-7.39302E+06-1.25197E+06-4.06194E+05-2.62485E+06 6.42285E-09-7.80274E-08
 -1        58-7.16428E+06-1.00516E+06-1.41528E+05-2.73438E+06-6.63931E-09-2.92785E-08
 -1        59-7.27859E+06-1.00201E+06-8.44028E+04-2.64187E+06 1.42836E-09-2.48830E-07
 -1        60-7.17489E+06-1.03853E+06-3.29198E+04-2.73683E+06 6.07133E-09-1.15335E-07
 -1        61-7.26003E+06-9.68787E+05-1.86644E+04-2.64564E+06-1.04995E-08-7.84084E-08
 -1        62-7.18242E+06-1.03751E+06-8.99077E+03-2.73081E+06-5.62432E-09-6.30635E-08
 -1        63-7.23750E+06-9.83811E+05-7.11807E+03-2.66707E+06-4.19277E-09 1.09227E-07
 -1        64-7.19679E+06-1.02378E+06-8.41139E+03-2.71501E+06 2.45564E-10-7.91147E-10
 -1        65-7.20745E+06-1.01860E+06-1.62232E+04-2.70212E+06-1.52249E-08-4.66860E-08
 -1        66-7.21216E+06-1.00305E+06-2.90014E+04-2.69549E+06-1.06957E-08 1.16749E-07
 -1        67-7.19382E+06-1.07793E+06-7.33510E+04-2.73425E+06-3.30238E-09 1.08258E-07
 -1        68-7.21117E+06-9.64962E+05-1.23176E+05-2.68298E+06-1.65346E-08 4.29718E-08
 -1        69-7.29411E+06-1.29663E+06-3.53572E+05-2.72240E+06-2.23372E-09-1.17619E-07
 -1        70-7.11431E+06-7.89545E+05-5.24018E+05-2.70614E+06 1.87356E-08 1.04774E-09
 -1        86-5.02086E+02-1.74071E+06 1.75853E+03-7.87257E+03-3.55607E-09 5.93120E-08
 -1        87 2.33783E+03-1.73507E+06 5.05001E+03 2.66074E+04-5.98675E-09 8.65641E-08
 -1        88-1.85838E+03-1.73953E+06 7.01541E+03-1.87347E+04-6.22413E-09 5.46728E-08
 -1        89 1.36685E+04-1.73175E+06 1.91439E+04 3.67422E+04-9.38371E-09 1.15686E-07
 -1        90-1.16406E+04-1.74420E+06 2.67914E+04-1.80086E+04-5.39694E-09-3.34546E-09
 -1       121-1.17823E+03-1.51184E+06-1.55290E+02 8.06431E+02 1.08977E-09 3.42770E-08
 -1       122-6.95858E+02-1.50894E+06 7.40148E+02-3.24018E+03-4.04376E-09 2.35959E-08
 -1       123-1.22525E+03-1.51194E+06 6.64863E+02 2.40869E+03 3.17937E-09 1.82954E-08
 -1       124 8.09992E+02-1.50832E+06 2.96023E+03-6.79676E+03-8.07267E-09 4.18368E-09
 -1       125-2.06469E+03-1.51278E+06 3.94894E+03 4.34416E+03 4.90763E-09-1.88447E-09
 -1       191-1.84759E+01 3.37423E+05 9.79412E+00 2.44175E-01-2.73292E-10-7.56700E-10
 -1       192-1.81334E+01 3.37398E+05 1.83679E+01-1.74601E+00-3.54256E-10-9.72159E-09
 -1       193-2.06075E+01 3.37423E+05 3.36140E+01 1.52305E+00-4.76703E-10-1.43855E-08
 -1       194-2.07162E+01 3.37400E+05 6.95396E+01-4.03771E+00-2.85812E-10-2.26846E-08
 -1       195-2.47025E+01 3.37421E+05 1.35474E+02 2.56399E+00-7.01100E-10 1.21790E-08
 -1       251-2.08204E+06-2.07393E+04-1.81039E+05 1.00076E+05-1.38243E-10 5.55883E-08
 -1       252-1.25760E+06 2.29791E+04 3.83688E+04-3.50767E+05-1.86301E-08 9.25484E-08
 -1       253-1.74613E+06-1.13487E+04-3.62624E+04 2.49832E+05-1.82954E-08-2.56668E-08
 -1       254-1.65090E+06 4.66082E+04 5.72252E+03-5.02411E+05 2.18747E-08-7.20104E-09
 -1       255-1.72822E+06-1.18790E+04-1.43350E+04 2.54584E+05-8.70659E-09 8.38284E-08
 -1       256-1.28958E+06 3.96837E+04 8.18704E+04-3.70160E+05 2.96131E-08-1.81471E-08
 -1       257-2.07192E+06-3.35971E+04-8.44879E+04 1.14890E+05-6.58474E-09 4.58994E-08
 -1       258-9.05873E+05 3.05481E+04 1.55069E+05-1.33387E+03-1.13941E-08 6.59429E-08
 -1       259-2.07404E+06-3.37788E+04-8.34433E+04-1.12612E+05 3.21434E-08-5.33803E-08
 -1       260-1.28428E+06 4.06459E+04 8.68793E+04 3.68656E+05 9.82982E-09-2.28295E-08
 -1       261-1.73097E+06-1.30033E+04-7.11388E+03-2.53391E+05-5.61477E-08-1.77621E-08
 -1       262-1.64622E+06 5.52255E+04 2.46790E+04 5.02913E+05 3.67479E-08-5.85505E-08
 -1       263-1.74806E+06-1.87976E+04-5.33152E+03-2.49557E+05-5.11682E-09 6.42603E-09
 -1       264-1.23466E+06 8.11481E+04 1.20652E+05 3.54255E+05-9.54019E-08 1.14720E-07
 -1       265-2.10342E+06-7.09168E+04-6.26594E+04-1.01915E+05-3.09155E-08 9.73414E-08
 -1       266-2.68330E+04-1.25467E+04 6.29598E+04-5.35461E+01-5.45697E-11-7.94285E-08
 -1       267 3.11071E+04 1.46241E+04 4.44981E+04 6.17797E+01 1.37788E-10-1.46819E-07
 -1       268-4.17140E+03-2.07114E+03 1.65398E+04-7.87192E+00-2.24645E-10 6.38199E-08
 -1       269 4.92520E+03 2.47876E+03 1.07505E+04 9.16949E+00-2.27374E-12 9.85951E-08
 -1       270-7.39279E+02-4.07278E+02 5.18944E+03-1.24437E+00 7.86713E-11-8.83065E-09
 -1       271-2.44000E+06-2.98280E+05-1.82328E+05-9.40451E+05 1.61272E-08 5.35802E-08
 -1       272-2.54425E+06-3.93677E+05-1.17394E+05-8.96055E+05 9.68839E-09-7.63321E-08
 -1       273-2.47344E+06-3.44798E+05-4.30374E+04-9.33303E+05 5.94082E-09-9.31414E-08
 -1       274-2.50458E+06-3.36991E+05-2.41441E+04-9.07051E+05 1.60935E-09-1.79807E-08
 -1       275-2.47852E+06-3.49284E+05-1.00328E+04-9.31464E+05 2.73676E-08 6.36282E-08
 -1       276-2.49727E+06-3.32749E+05-5.28550E+03-9.10571E+05-1.12050E-09-1.09932E-07
 -1       277-2.48040E+06-3.48599E+05-2.63243E+03-9.29825E+05-5.24415E-09 1.69284E-08
 -1       278-2.49351E+06-3.35080E+05-1.74081E+03-9.13948E+05-1.39516E-08 1.64899E-07
 -1       279-2.48204E+06-3.47045E+05-1.90097E+03-9.27945E+05 6.39193E-09-1.12724E-07
 -1       280-2.49018E+06-3.38885E+05-3.14570E+03-9.17738E+05-8.81118E-09-2.03297E-08
 -1       281-2.48356E+06-3.44929E+05-5.88540E+03-9.25905E+05-1.66074E-08-5.13990E-08
 -1       282-2.48905E+06-3.46397E+05-1.37403E+04-9.21426E+05-1.87720E-09-5.79233E-08
 -1       283-2.48315E+06-3.39925E+05-2.46463E+04-9.24080E+05-3.30692E-09 2.45309E-08
 -1       284-2.50667E+06-3.83559E+05-6.68204E+04-9.20740E+05 1.36242E-09 4.78904E-08
 -1       285-2.46649E+06-3.11090E+05-1.04025E+05-9.25410E+05 7.12680E-09 3.99123E-08
 -1       301 1.94562E+04-3.44782E+05 1.73021E+05-6.24651E+05 8.14907E-10 1.65892E-08
 -1       302 2.09342E+04-3.01154E+05 1.07672E+05-9.13711E+05-5.31145E-10 2.95913E-08
 -1       303-1.88977E+03-3.28736E+05 7.12176E+04-6.23200E+05 1.38243E-10 7.73671E-08
 -1       304 1.36719E+04-3.02637E+05 8.97012E+04-9.13053E+05-5.60249E-10 5.40349E-08
 -1       305 1.02500E+04-3.35216E+05 1.32701E+05-6.25288E+05 7.27596E-12-5.96119E-08
 -1       306-1.78556E+07-3.25726E+06-4.32292E+06-1.85240E+06-5.19794E-08-1.09372E-07
 -1       307 1.10093E+07-5.64732E+05 2.59293E+06-8.08118E+06-6.09652E-07-1.16001E-07
 -1       308-8.17364E+06 1.07124E+05-4.05668E+05 2.38453E+06-1.98110E-07 2.13795E-07
 -1       309-3.22523E+06 8.15676E+05 8.27084E+05-1.32071E+07 7.24613E-08 9.38235E-08
 -1       310-9.17982E+06-5.52200E+04-6.04185E+05 2.19446E+06 8.88249E-08 2.43890E-08
 -1       311 1.33027E+07-1.25845E+06 3.09355E+06-6.50170E+06 1.14611E-07-2.39386E-07
 -1       312-1.80945E+07-3.23758E+06-3.78777E+06-2.79144E+06 6.26314E-08-9.18953E-08
 -1       313 2.00117E+07 4.42683E+06 5.02786E+06 8.37990E+06-6.79283E-08 1.06302E-07
 -1       314-1.28040E+07-7.79152E+06-3.59154E+06-7.33350E+06 2.12749E-07 6.51344E-08
 -1       315-2.25069E+06 1.24084E+07 2.79923E+06 6.61155E+06-3.71059E-07 1.44268E-07
 -1       316-1.97661E+06-6.26758E+06-3.49802E+05-4.35096E+06-6.38916E-07-1.36992E-07
 -1       317-1.45300E+07 1.20740E+07 8.06984E+05-1.42933E+06 4.14559E-07-4.10113E-07
 -1       318-2.46898E+06-6.54464E+06-6.81632E+05-4.54712E+06-5.87868E-07 2.70957E-08
 -1       319-5.28416E+05 1.27905E+07 2.81412E+06 7.16226E+06-1.15208E-07 1.65019E-07
 -1       320-1.37298E+07-8.09452E+06-4.63617E+06-7.20426E+06 1.17114E-07-2.62517E-08
 -1       336 1.41193E+02-1.63661E+06-1.16925E+04 6.54213E+03-1.98752E-08 2.13186E-09
 -1       337-4.46322E+03-1.63760E+06-1.47941E+04-1.58442E+04-3.72556E-08 1.15924E-08
 -1       338 6.26854E+02-1.63636E+06-2.21553E+04 9.18922E+03-2.60416E-08 1.21872E-09
 -1       339-2.35275E+04-1.65039E+06-5.00137E+04-2.10076E+04-4.75056E-08 2.69647E-08
 -1       340 1.57368E+04-1.62506E+06-7.83662E+04 1.16285E+04-3.23889E-08 3.42880E-08
 -1       406 7.15318E+00 3.37408E+05 5.55176E+02 9.80426E-01-8.29687E-10-3.15958E-09
 -1       407 1.80034E+02 3.37513E+05 1.18115E+03 1.21155E+01-2.57202E-10-2.97086E-09
 -1       408 5.93835E+02 3.37323E+05 2.35824E+03-1.34239E+01-1.24737E-09-3.61251E-09
 -1       409 2.53789E+03 3.38266E+05 5.31014E+03 1.37400E+02-3.69738E-10-3.05363E-09
 -1       410 7.31644E+03 3.36650E+05 1.08399E+04-1.30973E+02-1.39880E-09-2.90311E-09
 -1       521-1.98472E+07-4.07269E+06-5.22996E+06-1.80225E+06-8.10251E-08 5.23869E-09
 -1       522 1.17705E+07-5.10390E+05 2.71876E+06-1.03391E+07-3.81842E-07-2.33442E-07
 -1       523-9.39084E+06-3.89576E+04-4.57112E+05 2.78950E+06 3.80096E-08-3.30285E-07
 -1       524-5.25971E+06 1.98339E+06 9.44043E+05-1.59681E+07 4.46184E-07-4.46476E-07
 -1       525-1.05425E+07-2.84126E+05-6.96613E+05 2.57497E+06 5.01022E-07-1.85966E-07
 -1       526 1.48265E+07-1.42107E+06 3.39044E+06-8.39678E+06 3.13070E-07-1.57626E-07
 -1       527-2.01757E+07-4.16119E+06-4.50692E+06-2.88380E+06 2.44938E-07-1.74958E-07
 -1       528 2.26883E+07 4.90646E+06 5.45623E+06 9.77338E+06 1.45519E-10-1.04425E-07
 -1       529-1.42037E+07-9.30008E+06-4.26664E+06-7.96036E+06 1.38709E-07-8.57399E-08
 -1       530-3.87316E+06 1.51171E+07 3.08118E+06 7.15421E+06-3.41897E-07 3.85917E-07
 -1       531-2.28926E+06-7.44178E+06-3.84747E+05-4.89763E+06-6.57426E-07 1.41445E-08
 -1       532-1.77618E+07 1.44371E+07 9.45117E+05-3.13515E+06 3.75192E-07-4.20143E-07
 -1       533-2.76235E+06-7.71992E+06-7.37071E+05-5.06531E+06-7.11880E-08-6.78294E-07
 -1       534-2.09478E+06 1.55628E+07 3.07250E+06 7.76015E+06-1.43948E-07 5.18397E-07
 -1       535-1.51597E+07-9.68335E+06-5.42194E+06-7.80796E+06 4.80795E-08 3.13434E-07
 -1       536-5.77059E+05-3.83701E+04-3.54993E+03-3.76126E+04-3.72438E-09 4.03052E-08
 -1       537-1.80440E+05 3.86776E+04 6.72904E+04 8.98519E+04-8.66460E-08 6.77396E-08
 -1       538-3.87490E+05 4.67911E+02 8.69822E+03-5.43240E+04 8.78811E-09 8.21906E-08
 -1       539-3.12464E+05 3.11044E+03 1.85980E+04 1.02774E+05 1.11781E-07 8.67769E-08
 -1       540-4.48209E+05-2.05853E+02-1.09354E+04-5.07734E+04-1.48625E-08 7.68167E-08
 -1       541-6.30526E+04 1.02536E+04 6.45798E+04 6.88716E+04-2.94957E-08 5.90376E-08
 -1       542-6.30210E+05-1.22045E+04-5.02545E+04-2.00278E+04 5.66488E-08 3.00950E-08
 -1       543 9.02169E+04 1.64178E+04 9.43889E+04-1.05205E+04 2.29811E-08-2.48331E-08
 -1       544-5.97396E+05-9.72614E+03-4.45321E+04 2.83079E+04 6.29825E-09-3.44059E-08
 -1       545-1.38498E+05 5.12007E+03 4.62171E+04-8.24860E+04-7.70103E-09-5.51277E-08
 -1       546-4.07587E+05 4.10173E+03-7.88433E+03 5.17906E+04 7.39931E-09-6.86580E-08
 -1       547-3.25368E+05-4.52552E+03 3.19623E+03-1.05163E+05-6.68887E-08-7.37923E-08
 -1       548-4.15494E+05 4.02636E+03-1.87652E+04 5.12977E+04-8.28645E-08-6.54500E-08
 -1       549-1.23959E+05 1.11536E+03 2.47278E+04-7.96187E+04-5.64183E-08-5.91972E-08
 -1       550-6.03564E+05-6.03179E+03-9.43614E+04 2.59151E+04 5.72800E-09-2.35505E-08
 -1       551 3.11256E+04-7.30308E+05 7.46008E+03-1.13870E+06-7.93152E-08-6.31553E-09
 -1       552 6.98181E+04-7.59209E+05 2.29781E+04-1.62341E+06-5.64469E-08 1.93249E-08
 -1       553 5.22469E+04-7.60575E+05 4.07017E+04-1.13343E+06-9.46020E-08 2.35887E-08
 -1       554 1.02864E+05-7.66040E+05 9.10649E+04-1.62530E+06-5.90662E-08 2.25555E-08
 -1       555 8.16007E+04-7.81977E+05 1.63197E+05-1.13378E+06-9.74833E-08-7.95262E-09
 -1       556 1.70938E+05-3.02684E+05 5.20457E+04-3.45402E+05-1.79862E-08-1.99361E-08
 -1       557 2.81454E+05-3.91414E+05 2.87634E+04-4.41564E+05 1.51340E-09 1.85828E-08
 -1       558 1.60800E+05-3.03773E+05 9.37652E+03-3.43442E+05-1.10304E-08-5.02041E-10
 -1       559 2.61526E+05-3.96445E+05 5.44511E+03-4.55225E+05 1.73459E-08-6.37374E-09
 -1       560 1.51105E+05-2.97635E+05 9.21697E+02-3.50247E+05 5.96629E-09 6.95945E-09
 -1       561 2.48971E+05-3.91697E+05 9.93570E+02-4.63611E+05-7.05768E-10 1.26420E-08
 -1       562 1.43465E+05-2.92829E+05-3.30382E+02-3.55744E+05-1.38243E-09-7.05404E-09
 -1       563 2.39947E+05-3.87763E+05 2.20493E+02-4.69461E+05 2.69210E-09-5.89898E-09
 -1       564 1.38161E+05-2.89507E+05-2.00032E+02-3.59492E+05 4.84579E-09-2.40925E-09
 -1       565 2.34224E+05-3.85273E+05 9.67142E+01-4.73105E+05 8.43647E-09 1.33182E-08
 -1       566 1.35278E+05-2.87675E+05-9.14197E+01-3.61511E+05-8.54561E-09-2.11603E-08
 -1       567 2.31800E+05-3.84212E+05-1.98009E+02-4.74534E+05 1.14524E-08 1.55378E-08
 -1       568 1.34881E+05-2.87442E+05-7.08333E+02-3.61885E+05-2.35377E-09 1.08848E-08
 -1       569 2.31544E+05-3.84180E+05-1.78829E+03-4.72849E+05-4.26371E-09 1.04774E-09
 -1       570 1.37870E+05-2.90091E+05-4.00685E+03-3.61156E+05 4.84579E-09 2.70938E-09
 -1       571 2.55188E+05 9.27376E+03 1.34647E+04-7.56000E+04 3.96903E-09 1.33668E-08
 -1       572 2.57163E+05 3.37190E+03 6.59787E+03-8.29346E+04 7.74435E-10 5.83714E-09
 -1       573 2.55976E+05 9.48356E+02 2.93147E+03-7.54474E+04 1.15788E-08-1.90585E-09
 -1       574 2.56190E+05 4.62766E+02 1.46957E+03-8.31196E+04 2.16569E-08-3.49246E-09
 -1       575 2.56064E+05 2.30257E+02 6.93367E+02-7.54268E+04 1.85324E-08 5.75801E-09
 -1       576 2.56064E+05 2.24079E+02 3.54466E+02-8.31443E+04 1.20436E-08 1.81944E-08
 -1       577 2.56090E+05 1.83644E+02 1.76691E+02-7.54240E+04 1.31340E-08 1.19826E-08
 -1       578 2.56075E+05 1.99304E+02 1.01083E+02-8.31476E+04 1.50762E-08-5.34055E-09
 -1       579 2.56133E+05 1.63674E+02 6.89626E+01-7.54238E+04 1.60662E-08-1.16625E-08
 -1       580 2.56135E+05 1.70294E+02 7.79893E+01-8.31434E+04-9.82254E-10-2.80124E-10
 -1       581 2.56202E+05 1.30961E+02 1.18062E+02-7.54284E+04 4.66207E-09 4.83396E-09
 -1       582 2.56247E+05 1.58706E+02 2.37490E+02-8.30948E+04 3.48609E-09-2.25555E-10
 -1       583 2.56283E+05 1.89219E+02 4.58482E+02-7.54726E+04 2.26646E-09-2.45541E-09
 -1       584 2.56519E+05 5.58447E+02 1.03428E+03-8.27229E+04 4.40741E-09-7.10611E-09
 -1       585 2.56264E+05 1.44963E+03 2.09847E+03-7.58002E+04 2.31012E-10 8.98581E-10
 -1       586-3.12076E+03 9.32719E+04-3.25077E+03-2.25076E+05-1.11413E-09-5.88943E-09
 -1       587-9.75108E+02 9.29229E+04 2.95401E+02-2.47729E+05-5.65706E-09-1.28686E-08
 -1       588 6.15330E+02 9.28619E+04 3.92263E+03-2.24962E+05-3.33421E-09 1.31222E-08
 -1       589 4.69553E+03 9.49405E+04 1.05146E+04-2.47491E+05-6.16637E-09-8.07540E-09
 -1       590 1.45666E+04 9.17102E+04 2.21900E+04-2.25348E+05-4.33283E-09 1.05993E-08
 -1       591-5.75193E+04-1.34934E+04-1.87027E+04-2.59484E+04 1.92313E-09-4.93856E-09
 -1       592-6.05217E+04-1.68386E+04-1.01307E+04-2.94045E+04 8.34558E-09-1.24821E-08
 -1       593-5.93933E+04-1.21326E+04-4.21705E+03-2.73163E+04 3.26943E-09 3.18346E-09
 -1       594-5.79340E+04-1.41001E+04-2.10320E+03-2.95094E+04-7.84212E-10-9.20338E-09
 -1       595-5.95363E+04-1.21278E+04-9.65835E+02-2.73786E+04-4.35463E-10 4.11519E-09
 -1       596-5.77572E+04-1.39749E+04-4.91248E+02-2.94890E+04 4.88539E-09 5.37983E-09
 -1       597-5.95543E+04-1.21404E+04-2.68044E+02-2.73809E+04 4.59181E-10-8.42647E-10
 -1       598-5.77399E+04-1.39700E+04-2.16482E+02-2.94832E+04 1.15477E-09-2.01388E-08
 -1       599-5.95531E+04-1.21408E+04-2.77780E+02-2.73806E+04 3.27918E-09-7.81051E-09
 -1       600-5.77576E+04-1.39757E+04-5.17027E+02-2.94875E+04 6.67148E-09 6.30462E-09
 -1       601-5.95319E+04-1.21284E+04-1.02050E+03-2.73774E+04 3.70301E-09-5.43741E-09
 -1       602-5.79443E+04-1.41075E+04-2.22433E+03-2.95060E+04-6.65136E-09-1.72986E-09
 -1       603-5.93784E+04-1.21360E+04-4.46085E+03-2.73121E+04-2.33740E-09 4.78849E-09
 -1       604-6.06959E+04-1.69882E+04-1.07158E+04-2.93745E+04 7.25265E-09 1.28084E-08
 -1       605-5.73792E+04-1.35901E+04-1.97831E+04-2.58811E+04 3.51599E-09 9.14497E-09
 -1       606 2.70838E+04-1.23947E+04-2.22458E+04 2.52959E+04 1.12377E-08 5.01859E-09
 -1       607 2.32801E+04-4.03431E+03-1.10779E+04 2.84119E+04 1.50394E-08 4.25280E-09
 -1       608 2.54437E+04-7.14908E+02-4.95985E+03 2.51058E+04 1.20217E-08-9.50854E-09
 -1       609 2.50235E+04-2.28522E+02-2.50537E+03 2.86358E+04 1.87283E-08 1.29376E-08
 -1       610 2.52529E+04-1.57274E+01-1.19585E+03 2.50839E+04 5.38421E-09 9.16589E-09
 -1       611 2.51823E+04-1.03049E+01-6.02926E+02 2.86601E+04-1.34696E-08 6.08929E-09
 -1       612 2.52071E+04-7.43652E-01-2.87175E+02 2.50818E+04 4.72937E-10-8.29459E-10
 -1       613 2.51872E+04-3.87673E+00-1.29137E+02 2.86630E+04 2.03722E-08 3.10001E-09
 -1       614 2.51840E+04-3.76215E+00-3.16540E+01 2.50810E+04 9.57516E-09 1.13369E-09
 -1       615 2.51785E+04-3.36652E-01 5.10139E+01 2.86635E+04 1.53159E-09 1.55319E-09
 -1       616 2.51660E+04 7.96148E-01 1.55801E+02 2.50813E+04 2.12594E-09-1.09806E-08
 -1       617 2.51942E+04 3.47164E+01 3.56693E+02 2.86630E+04 3.53702E-09-9.58039E-09
 -1       618 2.51328E+04 1.05045E+02 7.19350E+02 2.50815E+04 3.01952E-10 1.53118E-08
 -1       619 2.54463E+04 5.92083E+02 1.61566E+03 2.86622E+04 1.54023E-09 7.02971E-09
 -1       620 2.48927E+04 1.81187E+03 3.24748E+03 2.50815E+04 2.72280E-09 1.02332E-08
 -1       621 3.56653E+02 2.61670E+05 3.02707E+03 2.77065E+04 6.05496E-10 1.42354E-08
 -1       622 4.55781E+02 2.62392E+05 2.76543E+03 4.02681E+04 7.00993E-10 1.06193E-08
 -1       623 6.25266E+01 2.61830E+05 3.42884E+03 2.75791E+04 8.04903E-10 3.68027E-09
 -1       624 1.69459E+03 2.63478E+05 6.73159E+03 4.03946E+04 6.80103E-10-3.77622E-09
 -1       625 1.68307E+03 2.60499E+05 1.18044E+04 2.75772E+04 7.96717E-10 7.30995E-09
 -1       626 2.29528E+05 5.70458E+04 4.76799E+03 1.15276E+05-7.40692E-09 2.17296E-08
 -1       627 2.27187E+05 5.85299E+04 2.29763E+03 1.19456E+05-1.59293E-08 1.09133E-08
 -1       628 2.29659E+05 5.48487E+04 9.71297E+02 1.16066E+05-3.98177E-09 1.02179E-08
 -1       629 2.26573E+05 5.79172E+04 4.75460E+02 1.19699E+05-2.80124E-09-1.64963E-08
 -1       630 2.29671E+05 5.47436E+04 2.20152E+02 1.16096E+05 7.73070E-10 1.08730E-08
 -1       631 2.26505E+05 5.78962E+04 1.18005E+02 1.19700E+05 2.46018E-09 1.75019E-08
 -1       632 2.29664E+05 5.47491E+04 7.68384E+01 1.16090E+05 5.88443E-10 5.45583E-10
 -1       633 2.26494E+05 5.78996E+04 8.43358E+01 1.19694E+05-1.53432E-09-1.62695E-08
 -1       634 2.29657E+05 5.47480E+04 1.35164E+02 1.16088E+05 1.58070E-09 6.01881E-09
 -1       635 2.26504E+05 5.78993E+04 2.72860E+02 1.19697E+05-1.94439E-09 1.52922E-08
 -1       636 2.29647E+05 5.47443E+04 5.50689E+02 1.16087E+05 2.46712E-09 6.78529E-09
 -1       637 2.26621E+05 5.79854E+04 1.21041E+03 1.19695E+05 1.68166E-09-8.69613E-09
 -1       638 2.29603E+05 5.50123E+04 2.48703E+03 1.15965E+05 5.48425E-10 6.17683E-09
 -1       639 2.27927E+05 5.98022E+04 5.88406E+03 1.19309E+05 8.39464E-10-6.62340E-10
 -1       640 2.29425E+05 6.04342E+04 1.22105E+04 1.13674E+05 6.07997E-10 6.05087E-09
 -1       656 5.94712E+04-1.51700E+06-1.43563E+05-1.42459E+03 7.27596E-12 5.93118E-09
 -1       657-7.86511E+04-1.58184E+06-1.18878E+05 6.46277E+03-7.45786E-11-2.51355E-08
 -1       658 1.89334E+04-1.53543E+06-7.31460E+04-3.16711E+03 2.71257E-10-3.45612E-09
 -1       659-8.48625E+04-1.58479E+06-1.27039E+05 7.81450E+03-1.07684E-09 3.60408E-09
 -1       660 6.56684E+04-1.51406E+06-1.57594E+05-2.77629E+03-1.33878E-09 6.85139E-09
 -1       661 1.62688E+05 1.73028E+04 1.65550E+04 6.36081E+04-1.86901E-10 3.34330E-09
 -1       662 1.71800E+05 2.98056E+04 1.11563E+04 6.01761E+04 5.28939E-09-1.59280E-08
 -1       663 1.65938E+05 2.26150E+04 3.90208E+03 6.26660E+04-3.49019E-10-1.22191E-08
 -1       664 1.68034E+05 2.35917E+04 2.33377E+03 6.13254E+04 3.83181E-10 1.07866E-08
 -1       665 1.66430E+05 2.33422E+04 9.20657E+02 6.25242E+04 2.36861E-09 2.36736E-09
 -1       666 1.67454E+05 2.27587E+04 5.38192E+02 6.15094E+04 2.16795E-09-3.11987E-09
 -1       667 1.66515E+05 2.34262E+04 2.85260E+02 6.24899E+04-5.34470E-10 1.38502E-08
 -1       668 1.67361E+05 2.26965E+04 2.89248E+02 6.15593E+04-4.62322E-10-7.87922E-09
 -1       669 1.66522E+05 2.34026E+04 3.90452E+02 6.24748E+04 2.73374E-10 9.51451E-09
 -1       670 1.67457E+05 2.29072E+04 8.49136E+02 6.15614E+04-3.30994E-09 1.70832E-08
 -1       671 1.66419E+05 2.32199E+04 1.50734E+03 6.24859E+04 1.48766E-10 2.04346E-09
 -1       672 1.68335E+05 2.43735E+04 3.85621E+03 6.13489E+04 1.31132E-09 7.12043E-09
 -1       673 1.65648E+05 2.19732E+04 6.46229E+03 6.26732E+04 3.63798E-10-7.63066E-10
 -1       674 1.74487E+05 3.47548E+04 1.84808E+04 5.95407E+04-2.61684E-09-1.64173E-08
 -1       675 1.60307E+05 1.31292E+04 2.74317E+04 6.41848E+04-1.46429E-10-6.38283E-09
 -1       676 2.22968E+01-2.72014E+05-1.03471E+03-5.38832E+01 2.82057E-10-1.29229E-08
 -1       677-2.74611E+02-2.72264E+05-1.89367E+03 1.07691E+02 3.74826E-09-2.25876E-08
 -1       678 1.83461E+02-2.71836E+05-3.34753E+03-5.37714E+01 3.29010E-10-3.64630E-09
 -1       679-3.34839E+03-2.74285E+05-7.95226E+03 1.07263E+02 3.70846E-09 8.64633E-09
 -1       680 1.99850E+03-2.69995E+05-1.28163E+04-5.28542E+01 2.99224E-10 3.27800E-09
 -1       771-2.85125E+06-6.36244E+05-1.15584E+05-1.31825E+06-2.59315E-08-2.15368E-08
 -1       772-2.79316E+06-7.07168E+05-6.00199E+04-1.39971E+06-1.77679E-08 1.23691E-08
 -1       773-2.87291E+06-6.19213E+05-2.96787E+04-1.32697E+06-1.27766E-08 1.02300E-08
 -1       774-2.78413E+06-6.94750E+05-1.34362E+04-1.41653E+06 1.67638E-08 5.90808E-09
 -1       775-2.88326E+06-6.11896E+05-9.44097E+03-1.33074E+06-4.48199E-09 1.73168E-09
 -1       776-2.79077E+06-6.93365E+05-3.63112E+03-1.42869E+06 6.98492E-10 5.54428E-09
 -1       777-2.89202E+06-6.05513E+05-3.95564E+03-1.33404E+06-2.32831E-09-2.58660E-09
 -1       778-2.79785E+06-6.92164E+05-1.15359E+03-1.43906E+06-1.16415E-09 1.07357E-08
 -1       779-2.89946E+06-6.00004E+05-1.91088E+03-1.33688E+06-1.45083E-08-2.39743E-09
 -1       780-2.80408E+06-6.91005E+05-3.25766E+02-1.44749E+06-1.98197E-08 4.82214E-09
 -1       781-2.90532E+06-5.95596E+05-7.25918E+02-1.33909E+06-2.95404E-08-7.53062E-10
 -1       782-2.80884E+06-6.89998E+05 2.66696E+02-1.45370E+06-3.18578E-08-3.45017E-09
 -1       783-2.90941E+06-5.92562E+05 4.23778E+02-1.34065E+06-1.15833E-08-1.46008E-08
 -1       784-2.81143E+06-6.88863E+05 1.72541E+03-1.45752E+06-1.46611E-08 7.73070E-10
 -1       785-2.91182E+06-5.90768E+05 3.04761E+03-1.34167E+06-2.37596E-08 1.03701E-08
 -1       786 1.28944E+05-9.55995E+03 2.20434E+04-2.11607E+02 2.14301E-05 4.62678E-08
 -1       787 1.38518E+05 1.10655E+04 1.56071E+04-7.01405E+01 4.27953E-05 5.05424E-08
 -1       788 1.32633E+05-1.50281E+03 5.70307E+03-1.72629E+02 3.19474E-05 1.78597E-08
 -1       789 1.34218E+05 1.73868E+03 3.58483E+03-1.22719E+02 2.10768E-05 3.83224E-08
 -1       790 1.33244E+05-2.35045E+02 1.45151E+03-1.59031E+02 1.49426E-05 1.46164E-08
 -1       791 1.33504E+05 2.71783E+02 8.42373E+02-1.41942E+02 8.81236E-06 2.18535E-08
 -1       792 1.33348E+05-3.61834E+01 3.62925E+02-1.53407E+02 6.90336E-06 1.29874E-08
 -1       793 1.33382E+05 4.08063E+01 1.94859E+02-1.51217E+02 4.99727E-06 1.14491E-08
 -1       794 1.33366E+05-4.10324E+00 7.83849E+01-1.49756E+02 5.25620E-06-1.35568E-09
 -1       795 1.33357E+05-3.34586E+00 1.80681E+01-1.60174E+02 5.50509E-06 1.49146E-08
 -1       796 1.33373E+05 7.96431E+00-3.04018E+01-1.44449E+02 6.81070E-06 5.86847E-09
 -1       797 1.33327E+05-6.26802E+01-1.19593E+02-1.77638E+02 8.10898E-06 2.39942E-08
 -1       798 1.33396E+05 5.52209E+01-2.03785E+02-1.32292E+02 8.67294E-06 5.68711E-09
 -1       799 1.33171E+05-4.05536E+02-5.69531E+02-2.20718E+02 9.22975E-06 2.09985E-08
 -1       800 1.33529E+05 3.50744E+02-8.08546E+02-1.01369E+02 4.60544E-06-2.13924E-08
 -1       801-1.40549E+04-6.80211E+06-8.60419E+05 6.97377E+05 6.74918E-08-2.09293E-08
 -1       802 2.63600E+05 9.82558E+05 9.35482E+05-7.96832E+05 1.85239E-07-1.80630E-08
 -1       803-2.43502E+05-8.59506E+06-9.25691E+05 4.60518E+05 5.95683E-08 1.90539E-08
 -1       804 9.61079E+04-9.31440E+05 6.57070E+05 4.19233E+05-7.40074E-08-5.56199E-08
 -1       805 1.17797E+05-4.90166E+06-1.46956E+05-5.16217E+05-3.08537E-08-3.58204E-08
 -1       806-2.75512E+05-5.26498E+04-2.00956E+04-1.08475E+05-4.79122E-09-8.10815E-10
 -1       807-2.77189E+05-4.92727E+04-9.87275E+03-1.13235E+05 7.01107E-09-3.34694E-09
 -1       808-2.76054E+05-4.54171E+04-4.18841E+03-1.11911E+05 1.65255E-09-6.40318E-09
 -1       809-2.75118E+05-4.64943E+04-2.04806E+03-1.13473E+05 3.84534E-09-1.57183E-08
 -1       810-2.76137E+05-4.51652E+04-9.38691E+02-1.12063E+05 1.02864E-08 9.07039E-09
 -1       811-2.74959E+05-4.63821E+04-4.66814E+02-1.13442E+05 3.46699E-09-1.17669E-08
 -1       812-2.76151E+05-4.51864E+04-2.36018E+02-1.12063E+05 3.45608E-10 1.92813E-10
 -1       813-2.74938E+05-4.63836E+04-1.53381E+02-1.13427E+05 1.16643E-09-1.06247E-08
 -1       814-2.76146E+05-4.51941E+04-1.51852E+02-1.12060E+05 5.81622E-09 1.25169E-08
 -1       815-2.74942E+05-4.63852E+04-2.44799E+02-1.13421E+05 7.33644E-09 1.00570E-08
 -1       816-2.76129E+05-4.51925E+04-4.63806E+02-1.12057E+05 6.48015E-09 8.54243E-09
 -1       817-2.75022E+05-4.64291E+04-9.95770E+02-1.13413E+05-3.01679E-09 2.06646E-08
 -1       818-2.76070E+05-4.53318E+04-2.03082E+03-1.11992E+05-1.48611E-09-1.83445E-09
 -1       819-2.76134E+05-4.76568E+04-4.77896E+03-1.13153E+05 1.07093E-09-1.36015E-09
 -1       820-2.75692E+05-4.89379E+04-9.72663E+03-1.10446E+05-2.10457E-09 3.42880E-09
 -1       821-3.42014E+05 1.88470E+04-4.36077E+04 8.89864E+02 6.58774E-09-5.70981E-09
 -1       822-3.60831E+05-2.18190E+04-3.08451E+04-1.70797E+03 5.00970E-10-2.54295E-09
 -1       823-3.49257E+05 2.95652E+03-1.12907E+04 1.11945E+03-4.40533E-09 2.56614E-09
 -1       824-3.52331E+05-3.41922E+03-7.09877E+03-1.65328E+03 6.42808E-10 1.87031E-08
 -1       825-3.50511E+05 4.61072E+02-2.92885E+03 8.35187E+02 6.84700E-09 9.25002E-09
 -1       826-3.50819E+05-5.40515E+02-1.73626E+03-7.14686E+02 6.66809E-09 3.82454E-09
 -1       827-3.50765E+05 7.75075E+01-9.34311E+02 1.80838E+02 2.26048E-09-2.21817E-09
 -1       828-3.50605E+05-1.62567E+02-7.79128E+02 6.34546E+02-1.09524E-09 3.75728E-09
 -1       829-3.50724E+05 8.30020E+01-9.47121E+02-5.14067E+02 5.72349E-10 1.10634E-09
 -1       830-3.50919E+05-5.66242E+02-1.81555E+03 1.71327E+03 3.02645E-10 2.59112E-09
 -1       831-3.50454E+05 4.83208E+02-3.02806E+03-8.97907E+02-3.35046E-09 7.05165E-09
 -1       832-3.52415E+05-3.55421E+03-7.37595E+03 1.97574E+03-1.40164E-09 1.89385E-08
 -1       833-3.49231E+05 3.06973E+03-1.17323E+04-7.76542E+02-2.76749E-09-8.18545E-09
 -1       834-3.61137E+05-2.26593E+04-3.20195E+04 1.27825E+03-2.22914E-09 4.06089E-10
 -1       835-3.41733E+05 1.95717E+04-4.53044E+04-2.00401E+02 4.58834E-09 7.04131E-09
 -1       836-1.20241E+03 3.23768E+05 1.98138E+04-1.66567E+04-3.54339E-09 1.30235E-08
 -1       837 4.26571E+03 3.29955E+05 1.68708E+04-3.37151E+04-3.62024E-09 8.47854E-09
 -1       838-4.70331E+02 3.25488E+05 1.73360E+04-1.65878E+04-2.82535E-09 1.04128E-08
 -1       839 1.10102E+04 3.34979E+05 3.29387E+04-3.37606E+04-2.75713E-09 3.07526E-08
 -1       840-3.37522E+03 3.18693E+05 5.25880E+04-1.66132E+04-2.83399E-09 2.17511E-10
 -1       856-6.40569E+04 7.77448E+03-2.04877E+04-4.03689E+02 1.00738E-09 6.17365E-09
 -1       857-7.25072E+04-9.12721E+03-1.41042E+04 5.17658E+03 2.87162E-09-1.14105E-08
 -1       858-6.73998E+04 1.08986E+03-5.31645E+03-4.26662E+02 6.36874E-10-1.64005E-09
 -1       859-6.86699E+04-1.27509E+03-3.20918E+03 5.21179E+03-8.63253E-10 5.30423E-09
 -1       860-6.78994E+04 1.52161E+02-1.34648E+03-4.38820E+02-1.33582E-10 4.72068E-09
 -1       861-6.80950E+04-1.75073E+02-7.43922E+02 5.22842E+03-4.96947E-09-5.43344E-09
 -1       862-6.79774E+04 2.03530E+01-3.15648E+02-4.43290E+02 6.25654E-10-1.08550E-08
 -1       863-6.80005E+04-1.60321E+01-1.29533E+02 5.23080E+03-1.08329E-09-1.09979E-08
 -1       864-6.79943E+04-3.31021E+00 1.29785E+01-4.41200E+02-1.07320E-10-5.79003E-09
 -1       865-6.79556E+04 4.82681E+01 1.74387E+02 5.21949E+03-2.17038E-09 4.40224E-10
 -1       866-6.80204E+04-4.41344E+01 3.68247E+02-4.31982E+02-1.08025E-09-1.85446E-09
 -1       867-6.77778E+04 3.66130E+02 9.17240E+02 5.19440E+03 1.92983E-11-9.75866E-09
 -1       868-6.81677E+04-3.15931E+02 1.52674E+03-4.16106E+02 2.11344E-10 2.58564E-09
 -1       869-6.66552E+04 2.62905E+03 4.06925E+03 5.15266E+03 5.63233E-10-2.25030E-08
 -1       870-6.91363E+04-2.24632E+03 5.90478E+03-3.90207E+02-2.20109E-09-1.05688E-08
 -1       871-5.02244E+03-1.58315E+04-1.70984E+04 1.14041E+05-1.84627E-09 1.11349E-08
 -1       872-1.97225E+03-1.97473E+04-7.09588E+03 1.47862E+05-4.85852E-09-7.76936E-09
 -1       873 1.81138E+02-1.78818E+04 6.77612E+02 1.13791E+05-2.50839E-09 1.69503E-08
 -1       874 2.76005E+03-1.56321E+04 8.95412E+03 1.47897E+05-5.27507E-09 2.52185E-08
 -1       875 6.04210E+03-2.00131E+04 2.00753E+04 1.14001E+05-2.34286E-09 9.22591E-09
 -1       876 2.64627E+05 4.49253E+04 1.37445E+04 1.06580E+05-3.27691E-09 1.40972E-09
 -1       877 2.65501E+05 4.78543E+04 7.34002E+03 1.10555E+05-2.58296E-10 1.56333E-08
 -1       878 2.65911E+05 4.34037E+04 3.07512E+03 1.07708E+05 1.01772E-09-9.96056E-09
 -1       879 2.63632E+05 4.59905E+04 1.53212E+03 1.10649E+05 1.66528E-09 1.02782E-08
 -1       880 2.66004E+05 4.33876E+04 7.13567E+02 1.07754E+05-5.07271E-10-5.92308E-11
 -1       881 2.63508E+05 4.59109E+04 3.80819E+02 1.10628E+05-1.91676E-09 3.08248E-09
 -1       882 2.66012E+05 4.33994E+04 2.43235E+02 1.07755E+05 3.39310E-09 4.54009E-09
 -1       883 2.63499E+05 4.59069E+04 2.60846E+02 1.10622E+05 1.26284E-08 1.97420E-08
 -1       884 2.66007E+05 4.33967E+04 4.14368E+02 1.07755E+05 1.38051E-08 2.00471E-08
 -1       885 2.63532E+05 4.59127E+04 8.32751E+02 1.10632E+05-1.11173E-09-4.86045E-09
 -1       886 2.65974E+05 4.33724E+04 1.67821E+03 1.07752E+05 5.47757E-10-4.61023E-09
 -1       887 2.63827E+05 4.61061E+04 3.66577E+03 1.10674E+05 4.39627E-09 5.01677E-09
 -1       888 2.65743E+05 4.34132E+04 7.38664E+03 1.07635E+05-2.68668E-09-6.69888E-09
 -1       889 2.68226E+05 5.06783E+04 1.76456E+04 1.10538E+05-1.24028E-09-2.46291E-09
 -1       890 2.62731E+05 4.69913E+04 3.30494E+04 1.04820E+05 8.41283E-11-2.09566E-08
 -1       891-1.14440E+02-1.47770E+05-1.79386E+03 2.57451E+04-6.84850E-10 1.27850E-08
 -1       892-2.09818E+02-1.48227E+05-1.93282E+03 3.90339E+04 1.10686E-09 8.00878E-09
 -1       893 4.94659E+00-1.47828E+05-2.74304E+03 2.57513E+04-6.26187E-10 7.21366E-09
 -1       894-1.41803E+03-1.49267E+05-5.68172E+03 3.88917E+04 1.02955E-09 1.63645E-08
 -1       895-1.11904E+03-1.46644E+05-1.00073E+04 2.58874E+04-2.74440E-10 6.68297E-09
 -1       956-3.37709E+05-4.81062E+03-1.19873E+04 2.54551E+04 3.97722E-09-1.11686E-08
 -1       957-3.40068E+05-1.66134E+03-6.15328E+03 3.06223E+04-1.82035E-09-1.14139E-08
 -1       958-3.38780E+05-1.72471E+02-2.77256E+03 2.53096E+04-1.20963E-10 4.29486E-09
 -1       959-3.38962E+05-7.27887E+01-1.41596E+03 3.07869E+04 1.53022E-09 1.20517E-08
 -1       960-3.38881E+05-6.82735E-01-6.90430E+02 2.52951E+04 1.86719E-09-5.01677E-09
 -1       961-3.38886E+05-1.00916E+01-3.66279E+02 3.08038E+04 4.23302E-09-4.62023E-09
 -1       962-3.38903E+05-3.45198E+00-2.09859E+02 2.52927E+04 4.50063E-09-3.70233E-09
 -1       963-3.38884E+05-7.40011E+00-1.68796E+02 3.08068E+04 1.18107E-08 3.59410E-09
 -1       964-3.38907E+05-7.94022E-01-2.05514E+02 2.52920E+04 4.71601E-09 2.70575E-09
 -1       965-3.38896E+05-4.42328E+00-3.55657E+02 3.08064E+04-3.58591E-09-1.06540E-08
 -1       966-3.38894E+05 7.21846E+00-6.68186E+02 2.52932E+04-1.70303E-09-3.26736E-09
 -1       967-3.38979E+05-5.96347E+01-1.37055E+03 3.07949E+04-9.45784E-09-7.07905E-09
 -1       968-3.38805E+05-1.53892E+02-2.68271E+03 2.53035E+04-1.68848E-09 1.16648E-09
 -1       969-3.40060E+05-1.59265E+03-5.95596E+03 3.06750E+04 1.28139E-08 8.84427E-09
 -1       970-3.37774E+05-4.64007E+03-1.16019E+04 2.54101E+04 6.56246E-09 3.55158E-09
 -1       971-3.12597E+05-1.58968E+03-8.68033E+03 1.43016E+04-7.66704E-10-5.37212E-09
 -1       972-3.14695E+05-1.15721E+03-4.72723E+03 1.98679E+04 2.66482E-09-1.24010E-09
 -1       973-3.13563E+05-3.73690E+01-2.11716E+03 1.41858E+04-4.17458E-10-4.61569E-10
 -1       974-3.13698E+05-4.72771E+01-1.09721E+03 1.99963E+04 8.16271E-10-6.60111E-09
 -1       975-3.13639E+05 4.07104E+00-5.48268E+02 1.41745E+04 1.84082E-09-2.66925E-09
 -1       976-3.13640E+05-1.13133E+00-3.15973E+02 2.00105E+04 4.39741E-10-4.23711E-09
 -1       977-3.13654E+05 4.45584E+00-2.28724E+02 1.41716E+04-1.11822E-09 7.29926E-09
 -1       978-3.13644E+05 4.42660E+00-2.66832E+02 2.00147E+04-1.39971E-09 8.78401E-09
 -1       979-3.13654E+05 1.20088E+01-4.28005E+02 1.41703E+04 2.25720E-09 1.28477E-09
 -1       980-3.13676E+05 7.16376E+00-8.25980E+02 2.00155E+04-2.89958E-10-8.75332E-09
 -1       981-3.13628E+05 3.26302E+01-1.59949E+03 1.41708E+04 4.54168E-09 1.24749E-09
 -1       982-3.13896E+05-1.10980E+02-3.30599E+03 2.00093E+04 4.67219E-09-3.90102E-09
 -1       983-3.13426E+05-6.97309E+01-6.42348E+03 1.41765E+04 4.49040E-09 2.68483E-09
 -1       984-3.16985E+05-3.46566E+03-1.43849E+04 1.99291E+04 2.46314E-09 1.68809E-08
 -1       985-3.10518E+05-4.77003E+03-2.64152E+04 1.42495E+04-1.87856E-09-4.11092E-10
 -3
    1PSTEP                        17           9           1          
  100CL  109 6.44531E-01         409                     0    9           1
 -4  DISP        4    1
 -5  D1          1    2    1    0
 -5  D2          1    2    2    0
 -5  D3          1    2    3    0
 -5  ALL         1    2    0    0    1ALL
 -1         1 2.12513E-03 0.00000E+00 0.00000E+00
 -1         2 1.84192E-03-1.19274E-27 2.64698E-23
 -1         3 3.16015E-04-4.10370E-27 0.00000E+00
 -1         5 1.67205E-04 1.74790E-26-3.10193E-24
 -1         8 2.10826E-03-5.15371E-07 0.00000E+00
 -1         9 2.06652E-03-1.07423E-05 0.00000E+00
 -1        10 2.86764E-04-3.50935E-06 0.00000E+00
 -1        12 1.68675E-04 7.72786E-07 5.16988E-26
 -1        15 2.08795E-03-5.63571E-07 2.06795E-25
 -1        16 2.09731E-03-1.19351E-05 0.00000E+00
 -1        17 1.96083E-04-7.86661E-06 0.00000E+00
 -1        18 1.71556E-04 2.91824E-05 0.00000E+00
 -1        19 1.73088E-04 1.54017E-06 0.00000E+00
 -1        20 1.73232E-04-5.72028E-06 0.00000E+00
 -1        21 1.72393E-04-1.65500E-05 0.00000E+00
 -1        24 2.95079E-05-1.17355E-05 0.00000E+00
 -1        25 1.80431E-04 2.93937E-05 0.00000E+00
 -1        26 1.81156E-04 2.13272E-06 0.00000E+00
 -1        27 1.79040E-04-9.13728E-06 0.00000E+00
 -1        28 1.78699E-04-1.71529E-05 0.00000E+00
 -1        32 0.00000E+00 0.00000E+00 0.00000E+00
 -1        33 1.88161E-04 2.85473E-06 0.00000E+00
 -1        34 1.86126E-04-9.18670E-06 0.00000E+00
 -1        35 1.84262E-04-1.74825E-05 0.00000E+00
 -1        51 2.12405E-03-9.81698E-08 0.00000E+00
 -1        52 2.12202E-03-1.81345E-07 0.00000E+00
 -1        53 2.11924E-03-2.62439E-07 0.00000E+00
 -1        54 2.11590E-03-3.43602E-07 0.00000E+00
 -1        55 2.11217E-03-4.26402E-07 4.13590E-25
 -1        56 2.12117E-03 5.92753E-07 0.00000E+00
 -1        57 2.11574E-03 4.64690E-06 0.00000E+00
 -1        58 2.10925E-03 1.15228E-05 0.00000E+00
 -1        59 2.10200E-03 2.02955E-05 0.00000E+00
 -1        60 2.09449E-03 2.97606E-05-1.05879E-22
 -1        61 2.08719E-03 3.86507E-05 5.29396E-23
 -1        62 2.08057E-03 4.57903E-05 1.05879E-22
 -1        63 2.07501E-03 5.01397E-05-5.29396E-23
 -1        64 2.07074E-03 5.11006E-05 0.00000E+00
 -1        65 2.06786E-03 4.83416E-05 0.00000E+00
 -1        66 2.06627E-03 4.21226E-05 1.05879E-22
 -1        67 2.06577E-03 3.29794E-05-5.29396E-23
 -1        68 2.06596E-03 2.19139E-05-1.05879E-22
 -1        69 2.06645E-03 1.00897E-05 5.29396E-23
 -1        70 2.06675E-03-1.22232E-06 0.00000E+00
 -1        86 1.85520E-03-1.09379E-06 0.00000E+00
 -1        87 1.89448E-03-2.84494E-06 0.00000E+00
 -1        88 1.94794E-03-5.19441E-06 2.64698E-23
 -1        89 2.00315E-03-7.63514E-06 0.00000E+00
 -1        90 2.04692E-03-9.55897E-06-2.64698E-23
 -1       121 3.15193E-04-5.69990E-07 0.00000E+00
 -1       122 3.12731E-04-1.14257E-06 0.00000E+00
 -1       123 3.08639E-04-1.72029E-06 1.32349E-23
 -1       124 3.02931E-04-2.30572E-06 6.61744E-24
 -1       125 2.95630E-04-2.90104E-06 0.00000E+00
 -1       191 1.67245E-04 1.28840E-07-7.23783E-25
 -1       192 1.67368E-04 2.57672E-07 1.34417E-24
 -1       193 1.67572E-04 3.86491E-07 2.48154E-24
 -1       194 1.67858E-04 5.15289E-07 6.72084E-25
 -1       195 1.68226E-04 6.44057E-07 0.00000E+00
 -1       251 2.10751E-03-1.48888E-05 1.32349E-23
 -1       252 2.10568E-03-6.43577E-05 6.61744E-24
 -1       253 2.10237E-03-1.39312E-04 0.00000E+00
 -1       254 2.09785E-03-2.29502E-04 6.61744E-24
 -1       255 2.09328E-03-3.20186E-04-1.32349E-23
 -1       256 2.08987E-03-3.96617E-04-6.61744E-24
 -1       257 2.08793E-03-4.48252E-04-1.32349E-23
 -1       258 2.08714E-03-4.65167E-04-6.61744E-24
 -1       259 2.08632E-03-4.47081E-04 1.32349E-23
 -1       260 2.08435E-03-3.94658E-04-6.61744E-24
 -1       261 2.08092E-03-3.18114E-04-1.32349E-23
 -1       262 2.07643E-03-2.28263E-04 6.61744E-24
 -1       263 2.07206E-03-1.39854E-04-2.64698E-23
 -1       264 2.06893E-03-6.76077E-05 1.32349E-23
 -1       265 2.06725E-03-2.14698E-05 0.00000E+00
 -1       266 2.10487E-03-5.31001E-07-3.30872E-24
 -1       267 2.10149E-03-5.38109E-07 8.27181E-25
 -1       268 2.09810E-03-5.45756E-07-8.27181E-25
 -1       269 2.09472E-03-5.51804E-07-2.06795E-25
 -1       270 2.09133E-03-5.57814E-07 0.00000E+00
 -1       271 2.10614E-03 2.68644E-06-1.32349E-23
 -1       272 2.10394E-03 5.99722E-06 1.32349E-23
 -1       273 2.10176E-03 9.27753E-06 2.64698E-23
 -1       274 2.09965E-03 1.23759E-05-1.32349E-23
 -1       275 2.09766E-03 1.51462E-05 0.00000E+00
 -1       276 2.09585E-03 1.74441E-05 0.00000E+00
 -1       277 2.09426E-03 1.91306E-05 0.00000E+00
 -1       278 2.09296E-03 2.00730E-05 0.00000E+00
 -1       279 2.09199E-03 2.01465E-05-2.64698E-23
 -1       280 2.09138E-03 1.92354E-05 1.32349E-23
 -1       281 2.09118E-03 1.72345E-05 0.00000E+00
 -1       282 2.09142E-03 1.40500E-05 0.00000E+00
 -1       283 2.09213E-03 9.60075E-06 0.00000E+00
 -1       284 2.09334E-03 3.81967E-06-1.32349E-23
 -1       285 2.09506E-03-3.34790E-06-2.64698E-23
 -1       301 2.07208E-03-1.09648E-05 0.00000E+00
 -1       302 2.07652E-03-1.11542E-05-3.30872E-24
 -1       303 2.08055E-03-1.13394E-05 0.00000E+00
 -1       304 2.08488E-03-1.15248E-05 0.00000E+00
 -1       305 2.09023E-03-1.17167E-05 0.00000E+00
 -1       306 2.10006E-03-1.41999E-04 1.05879E-22
 -1       307 2.16464E-03-5.05697E-04 0.00000E+00
 -1       308 2.22242E-03-1.04406E-03-1.05879E-22
 -1       309 2.26401E-03-1.67505E-03 0.00000E+00
 -1       310 2.30889E-03-2.28837E-03-1.05879E-22
 -1       311 2.37186E-03-2.77536E-03 0.00000E+00
 -1       312 2.43144E-03-3.06314E-03 0.00000E+00
 -1       313 2.44100E-03-3.11052E-03 5.29396E-23
 -1       314 2.34241E-03-2.92312E-03-1.05879E-22
 -1       315 2.09945E-03-2.54815E-03 5.29396E-23
 -1       316 1.72424E-03-2.05204E-03-1.05879E-22
 -1       317 1.26714E-03-1.49961E-03 0.00000E+00
 -1       318 8.20448E-04-9.54084E-04-1.05879E-22
 -1       319 4.73410E-04-4.80323E-04 5.29396E-23
 -1       320 2.65373E-04-1.43767E-04 0.00000E+00
 -1       336 2.76164E-04-4.17895E-06-1.32349E-23
 -1       337 2.63670E-04-4.87013E-06 0.00000E+00
 -1       338 2.49341E-04-5.58451E-06 1.32349E-23
 -1       339 2.33247E-04-6.32248E-06 6.61744E-24
 -1       340 2.15465E-04-7.08801E-06 0.00000E+00
 -1       406 1.69206E-04 9.01461E-07 0.00000E+00
 -1       407 1.69819E-04 1.03005E-06 1.13737E-24
 -1       408 1.70514E-04 1.15851E-06-1.86116E-24
 -1       409 1.71291E-04 1.28667E-06 6.20385E-25
 -1       410 1.72149E-04 1.41429E-06-2.48154E-24
 -1       521 2.13170E-03-1.52015E-04 0.00000E+00
 -1       522 2.19551E-03-5.34731E-04 0.00000E+00
 -1       523 2.24882E-03-1.09942E-03 1.05879E-22
 -1       524 2.28339E-03-1.75806E-03 5.29396E-23
 -1       525 2.32201E-03-2.39739E-03 1.05879E-22
 -1       526 2.38213E-03-2.90600E-03 0.00000E+00
 -1       527 2.44151E-03-3.20531E-03 0.00000E+00
 -1       528 2.44978E-03-3.25297E-03 0.00000E+00
 -1       529 2.34255E-03-3.05407E-03 1.05879E-22
 -1       530 2.08111E-03-2.66187E-03-5.29396E-23
 -1       531 1.67775E-03-2.14608E-03-1.05879E-22
 -1       532 1.18774E-03-1.57464E-03 0.00000E+00
 -1       533 7.08216E-04-1.00968E-03 1.05879E-22
 -1       534 3.33203E-04-5.15035E-04 5.29396E-23
 -1       535 1.07081E-04-1.59973E-04 0.00000E+00
 -1       536 1.95426E-04 2.41181E-05 0.00000E+00
 -1       537 1.93786E-04 7.96396E-05-3.30872E-24
 -1       538 1.91261E-04 1.50141E-04 3.30872E-24
 -1       539 1.88286E-04 2.26988E-04-1.65436E-24
 -1       540 1.85607E-04 2.99604E-04 0.00000E+00
 -1       541 1.83858E-04 3.57436E-04 0.00000E+00
 -1       542 1.83042E-04 3.94219E-04 0.00000E+00
 -1       543 1.82832E-04 4.03819E-04 1.65436E-24
 -1       544 1.82535E-04 3.86977E-04 3.30872E-24
 -1       545 1.81511E-04 3.44625E-04 0.00000E+00
 -1       546 1.79626E-04 2.84307E-04 0.00000E+00
 -1       547 1.77089E-04 2.13673E-04 0.00000E+00
 -1       548 1.74580E-04 1.43452E-04 3.30872E-24
 -1       549 1.72766E-04 8.43701E-05-1.65436E-24
 -1       550 1.71816E-04 4.38462E-05 1.65436E-24
 -1       551 1.72949E-04-8.39545E-06 0.00000E+00
 -1       552 1.46734E-04-8.99335E-06 0.00000E+00
 -1       553 1.18352E-04-9.64513E-06-4.96308E-24
 -1       554 8.87342E-05-1.03322E-05 0.00000E+00
 -1       555 5.88108E-05-1.10300E-05 0.00000E+00
 -1       556 1.89131E-04 9.94285E-06 0.00000E+00
 -1       557 1.83531E-04 2.43413E-05 0.00000E+00
 -1       558 1.79158E-04 3.55977E-05 0.00000E+00
 -1       559 1.75888E-04 4.40023E-05 0.00000E+00
 -1       560 1.73600E-04 4.98457E-05 0.00000E+00
 -1       561 1.72177E-04 5.34209E-05 0.00000E+00
 -1       562 1.71501E-04 5.50218E-05 0.00000E+00
 -1       563 1.71458E-04 5.49430E-05 0.00000E+00
 -1       564 1.71934E-04 5.34803E-05 0.00000E+00
 -1       565 1.72816E-04 5.09296E-05 0.00000E+00
 -1       566 1.73993E-04 4.75874E-05 0.00000E+00
 -1       567 1.75354E-04 4.37507E-05 0.00000E+00
 -1       568 1.76789E-04 3.97165E-05 0.00000E+00
 -1       569 1.78186E-04 3.57817E-05 0.00000E+00
 -1       570 1.79437E-04 3.22433E-05 0.00000E+00
 -1       571 1.71649E-04 2.73926E-05 8.27181E-25
 -1       572 1.71744E-04 2.55406E-05-8.27181E-25
 -1       573 1.71839E-04 2.36410E-05 3.30872E-24
 -1       574 1.71935E-04 2.17089E-05 8.27181E-25
 -1       575 1.72031E-04 1.97595E-05 0.00000E+00
 -1       576 1.72126E-04 1.78080E-05 0.00000E+00
 -1       577 1.72222E-04 1.58697E-05 0.00000E+00
 -1       578 1.72318E-04 1.39600E-05 0.00000E+00
 -1       579 1.72414E-04 1.20942E-05 0.00000E+00
 -1       580 1.72510E-04 1.02874E-05 0.00000E+00
 -1       581 1.72606E-04 8.55501E-06-6.61744E-24
 -1       582 1.72702E-04 6.91232E-06 0.00000E+00
 -1       583 1.72798E-04 5.37457E-06 6.61744E-24
 -1       584 1.72895E-04 3.95687E-06 0.00000E+00
 -1       585 1.72991E-04 2.67417E-06 6.61744E-24
 -1       586 1.72992E-04 2.92197E-05 1.65436E-24
 -1       587 1.74389E-04 2.92564E-05-2.06795E-25
 -1       588 1.75790E-04 2.92927E-05 0.00000E+00
 -1       589 1.77236E-04 2.93284E-05 0.00000E+00
 -1       590 1.78770E-04 2.93629E-05 0.00000E+00
 -1       591 1.72166E-04 2.74779E-05 0.00000E+00
 -1       592 1.72779E-04 2.57515E-05 2.06795E-25
 -1       593 1.73398E-04 2.40092E-05 0.00000E+00
 -1       594 1.74021E-04 2.22558E-05 4.13590E-25
 -1       595 1.74646E-04 2.04964E-05-8.27181E-25
 -1       596 1.75271E-04 1.87357E-05-4.13590E-25
 -1       597 1.75895E-04 1.69786E-05 0.00000E+00
 -1       598 1.76516E-04 1.52301E-05 0.00000E+00
 -1       599 1.77131E-04 1.34949E-05 0.00000E+00
 -1       600 1.77740E-04 1.17779E-05 0.00000E+00
 -1       601 1.78341E-04 1.00840E-05 0.00000E+00
 -1       602 1.78931E-04 8.41808E-06-4.13590E-25
 -1       603 1.79509E-04 6.78498E-06 0.00000E+00
 -1       604 1.80073E-04 5.18967E-06 1.87408E-25
 -1       605 1.80622E-04 3.63693E-06 0.00000E+00
 -1       606 1.73101E-04 6.28031E-07 0.00000E+00
 -1       607 1.73111E-04-1.96034E-07 1.65436E-24
 -1       608 1.73120E-04-9.37193E-07 0.00000E+00
 -1       609 1.73129E-04-1.60128E-06 0.00000E+00
 -1       610 1.73138E-04-2.19417E-06 0.00000E+00
 -1       611 1.73146E-04-2.72181E-06 0.00000E+00
 -1       612 1.73155E-04-3.19015E-06 0.00000E+00
 -1       613 1.73164E-04-3.60516E-06 0.00000E+00
 -1       614 1.73172E-04-3.97278E-06 0.00000E+00
 -1       615 1.73181E-04-4.29899E-06 0.00000E+00
 -1       616 1.73189E-04-4.58975E-06 0.00000E+00
 -1       617 1.73198E-04-4.85101E-06 0.00000E+00
 -1       618 1.73207E-04-5.08873E-06 0.00000E+00
 -1       619 1.73215E-04-5.30888E-06 0.00000E+00
 -1       620 1.73224E-04-5.51741E-06 2.06795E-25
 -1       621 1.74181E-04 1.63939E-06-3.30872E-24
 -1       622 1.75414E-04 1.73886E-06 1.65436E-24
 -1       623 1.76758E-04 1.83818E-06-1.65436E-24
 -1       624 1.78182E-04 1.93722E-06-8.27181E-25
 -1       625 1.79658E-04 2.03600E-06 1.65436E-24
 -1       626 1.73538E-04 6.62545E-07-3.30872E-24
 -1       627 1.73964E-04-1.48964E-07 3.30872E-24
 -1       628 1.74368E-04-9.02212E-07-6.61744E-24
 -1       629 1.74754E-04-1.60539E-06 0.00000E+00
 -1       630 1.75124E-04-2.26674E-06 3.30872E-24
 -1       631 1.75482E-04-2.89447E-06 1.65436E-24
 -1       632 1.75830E-04-3.49684E-06 0.00000E+00
 -1       633 1.76171E-04-4.08210E-06-1.65436E-24
 -1       634 1.76510E-04-4.65847E-06-3.30872E-24
 -1       635 1.76848E-04-5.23421E-06-1.65436E-24
 -1       636 1.77189E-04-5.81756E-06 3.30872E-24
 -1       637 1.77536E-04-6.41676E-06 0.00000E+00
 -1       638 1.77892E-04-7.04006E-06-1.65436E-24
 -1       639 1.78259E-04-7.69572E-06 0.00000E+00
 -1       640 1.78642E-04-8.39200E-06-1.65436E-24
 -1       656 1.73665E-04-6.27575E-06 0.00000E+00
 -1       657 1.74513E-04-6.85374E-06 6.61744E-24
 -1       658 1.75634E-04-7.43032E-06-1.32349E-23
 -1       659 1.76884E-04-8.00656E-06 0.00000E+00
 -1       660 1.78079E-04-8.58453E-06 6.61744E-24
 -1       661 1.73395E-04-5.96561E-06-8.27181E-25
 -1       662 1.73594E-04-6.29765E-06-8.27181E-25
 -1       663 1.73823E-04-6.71165E-06 1.65436E-24
 -1       664 1.74081E-04-7.20163E-06 0.00000E+00
 -1       665 1.74366E-04-7.76226E-06 0.00000E+00
 -1       666 1.74676E-04-8.38813E-06 0.00000E+00
 -1       667 1.75008E-04-9.07406E-06 0.00000E+00
 -1       668 1.75360E-04-9.81497E-06-8.27181E-25
 -1       669 1.75731E-04-1.06059E-05 0.00000E+00
 -1       670 1.76119E-04-1.14421E-05 8.27181E-25
 -1       671 1.76523E-04-1.23188E-05 0.00000E+00
 -1       672 1.76939E-04-1.32313E-05 0.00000E+00
 -1       673 1.77367E-04-1.41752E-05 1.65436E-24
 -1       674 1.77805E-04-1.51463E-05-8.27181E-25
 -1       675 1.78251E-04-1.61396E-05 4.13590E-25
 -1       676 1.73447E-04-1.66511E-05 3.30872E-24
 -1       677 1.74501E-04-1.67521E-05 0.00000E+00
 -1       678 1.75554E-04-1.68530E-05 0.00000E+00
 -1       679 1.76605E-04-1.69537E-05 0.00000E+00
 -1       680 1.77653E-04-1.70544E-05 0.00000E+00
 -1       771 1.85307E-05 1.26927E-05 0.00000E+00
 -1       772 9.27744E-06 3.27563E-05-5.29396E-23
 -1       773 1.66562E-06 4.86683E-05 0.00000E+00
 -1       774-4.41707E-06 6.06666E-05-2.64698E-23
 -1       775-9.08076E-06 6.89984E-05 0.00000E+00
 -1       776-1.24400E-05 7.39255E-05 0.00000E+00
 -1       777-1.46092E-05 7.57186E-05-5.29396E-23
 -1       778-1.57055E-05 7.46607E-05-2.64698E-23
 -1       779-1.58452E-05 7.10421E-05 0.00000E+00
 -1       780-1.51469E-05 6.51633E-05 0.00000E+00
 -1       781-1.37283E-05 5.73305E-05 5.29396E-23
 -1       782-1.17086E-05 4.78579E-05 2.64698E-23
 -1       783-9.20634E-06 3.70637E-05-5.29396E-23
 -1       784-6.34130E-06 2.52714E-05-2.64698E-23
 -1       785-3.23235E-06 1.28074E-05 5.29396E-23
 -1       786 1.80472E-04 2.74832E-05-5.16988E-26
 -1       787 1.80517E-04 2.56484E-05 4.13590E-25
 -1       788 1.80562E-04 2.38661E-05-8.27181E-25
 -1       789 1.80607E-04 2.21131E-05 0.00000E+00
 -1       790 1.80653E-04 2.03808E-05-1.65436E-24
 -1       791 1.80698E-04 1.86602E-05 0.00000E+00
 -1       792 1.80744E-04 1.69485E-05 0.00000E+00
 -1       793 1.80790E-04 1.52427E-05 0.00000E+00
 -1       794 1.80835E-04 1.35427E-05 0.00000E+00
 -1       795 1.80881E-04 1.18486E-05-8.27181E-25
 -1       796 1.80927E-04 1.01631E-05 0.00000E+00
 -1       797 1.80972E-04 8.48902E-06 0.00000E+00
 -1       798 1.81018E-04 6.83488E-06 0.00000E+00
 -1       799 1.81064E-04 5.20916E-06 8.27181E-25
 -1       800 1.81110E-04 3.63426E-06 1.65436E-24
 -1       801 1.39199E-04 2.63347E-05 2.64698E-23
 -1       802 1.43394E-05 1.65877E-05-2.64698E-23
 -1       803-9.31017E-05 8.47887E-06 0.00000E+00
 -1       804-8.39375E-05 5.85920E-06-2.64698E-23
 -1       805-2.79062E-05 2.38346E-06 0.00000E+00
 -1       806 1.81043E-04 2.74039E-05 1.65436E-24
 -1       807 1.81641E-04 2.54398E-05 0.00000E+00
 -1       808 1.82226E-04 2.35061E-05 3.30872E-24
 -1       809 1.82799E-04 2.16069E-05 0.00000E+00
 -1       810 1.83357E-04 1.97459E-05-3.30872E-24
 -1       811 1.83899E-04 1.79268E-05 0.00000E+00
 -1       812 1.84424E-04 1.61534E-05 3.30872E-24
 -1       813 1.84931E-04 1.44294E-05 0.00000E+00
 -1       814 1.85418E-04 1.27583E-05 1.65436E-24
 -1       815 1.85884E-04 1.11440E-05-8.27181E-25
 -1       816 1.86327E-04 9.59014E-06 3.30872E-24
 -1       817 1.86747E-04 8.10031E-06-1.65436E-24
 -1       818 1.87141E-04 6.67821E-06 0.00000E+00
 -1       819 1.87509E-04 5.32752E-06 1.65436E-24
 -1       820 1.87849E-04 4.05183E-06 0.00000E+00
 -1       821 1.81031E-04 2.96281E-07 0.00000E+00
 -1       822 1.80897E-04-2.27929E-06 0.00000E+00
 -1       823 1.80763E-04-5.29385E-06-3.30872E-24
 -1       824 1.80626E-04-8.44455E-06-1.65436E-24
 -1       825 1.80490E-04-1.13927E-05 0.00000E+00
 -1       826 1.80355E-04-1.38009E-05 1.65436E-24
 -1       827 1.80222E-04-1.54752E-05-3.30872E-24
 -1       828 1.80089E-04-1.62261E-05 0.00000E+00
 -1       829 1.79957E-04-1.61098E-05 0.00000E+00
 -1       830 1.79824E-04-1.51876E-05 0.00000E+00
 -1       831 1.79691E-04-1.37350E-05 3.30872E-24
 -1       832 1.79558E-04-1.20307E-05 0.00000E+00
 -1       833 1.79425E-04-1.04207E-05 0.00000E+00
 -1       834 1.79294E-04-9.24999E-06 0.00000E+00
 -1       835 1.79163E-04-8.74730E-06-8.27181E-25
 -1       836 1.82529E-04 2.25254E-06 0.00000E+00
 -1       837 1.83776E-04 2.37531E-06-1.65436E-24
 -1       838 1.84930E-04 2.49799E-06-3.30872E-24
 -1       839 1.86023E-04 2.61998E-06 0.00000E+00
 -1       840 1.87090E-04 2.74180E-06 8.27181E-25
 -1       856 1.79022E-04-9.90422E-06 0.00000E+00
 -1       857 1.79001E-04-1.05391E-05 0.00000E+00
 -1       858 1.78980E-04-1.10626E-05 0.00000E+00
 -1       859 1.78959E-04-1.14951E-05 0.00000E+00
 -1       860 1.78938E-04-1.18575E-05 0.00000E+00
 -1       861 1.78916E-04-1.21704E-05 0.00000E+00
 -1       862 1.78895E-04-1.24547E-05 0.00000E+00
 -1       863 1.78874E-04-1.27312E-05 0.00000E+00
 -1       864 1.78852E-04-1.30206E-05 8.27181E-25
 -1       865 1.78831E-04-1.33439E-05 0.00000E+00
 -1       866 1.78809E-04-1.37217E-05 0.00000E+00
 -1       867 1.78788E-04-1.41749E-05 0.00000E+00
 -1       868 1.78766E-04-1.47240E-05-8.27181E-25
 -1       869 1.78744E-04-1.53897E-05-4.13590E-25
 -1       870 1.78722E-04-1.61926E-05 0.00000E+00
 -1       871 1.80083E-04-9.14129E-06-8.27181E-25
 -1       872 1.81268E-04-9.14852E-06 0.00000E+00
 -1       873 1.82530E-04-9.15640E-06 0.00000E+00
 -1       874 1.83804E-04-9.16500E-06-5.16988E-26
 -1       875 1.85024E-04-9.17416E-06 4.13590E-25
 -1       876 1.79451E-04-9.89033E-06 0.00000E+00
 -1       877 1.79840E-04-1.05785E-05-1.65436E-24
 -1       878 1.80208E-04-1.12096E-05 3.30872E-24
 -1       879 1.80557E-04-1.17907E-05-1.65436E-24
 -1       880 1.80891E-04-1.23292E-05 3.30872E-24
 -1       881 1.81211E-04-1.28320E-05 0.00000E+00
 -1       882 1.81521E-04-1.33066E-05 3.30872E-24
 -1       883 1.81823E-04-1.37599E-05 1.65436E-24
 -1       884 1.82119E-04-1.41991E-05 0.00000E+00
 -1       885 1.82413E-04-1.46314E-05 1.65436E-24
 -1       886 1.82707E-04-1.50639E-05 0.00000E+00
 -1       887 1.83004E-04-1.55037E-05-1.65436E-24
 -1       888 1.83306E-04-1.59581E-05 3.30872E-24
 -1       889 1.83615E-04-1.64343E-05-1.65436E-24
 -1       890 1.83935E-04-1.69395E-05 0.00000E+00
 -1       891 1.79765E-04-1.72082E-05 1.65436E-24
 -1       892 1.80808E-04-1.72637E-05-8.27181E-25
 -1       893 1.81804E-04-1.73191E-05-1.65436E-24
 -1       894 1.82728E-04-1.73743E-05 0.00000E+00
 -1       895 1.83555E-04-1.74293E-05 4.13590E-25
 -1       956 1.88036E-04 1.82341E-06-1.65436E-24
 -1       957 1.87909E-04 8.78632E-07-8.27181E-25
 -1       958 1.87782E-04 1.03141E-08 0.00000E+00
 -1       959 1.87654E-04-7.92176E-07 0.00000E+00
 -1       960 1.87526E-04-1.53951E-06 0.00000E+00
 -1       961 1.87399E-04-2.24241E-06 1.65436E-24
 -1       962 1.87271E-04-2.91158E-06 0.00000E+00
 -1       963 1.87144E-04-3.55776E-06 1.65436E-24
 -1       964 1.87016E-04-4.19169E-06-3.30872E-24
 -1       965 1.86888E-04-4.82409E-06-1.65436E-24
 -1       966 1.86761E-04-5.46572E-06 0.00000E+00
 -1       967 1.86633E-04-6.12728E-06 0.00000E+00
 -1       968 1.86506E-04-6.81952E-06 3.30872E-24
 -1       969 1.86378E-04-7.55313E-06 0.00000E+00
 -1       970 1.86251E-04-8.33877E-06 3.30872E-24
 -1       971 1.86011E-04-1.00310E-05 0.00000E+00
 -1       972 1.85894E-04-1.07824E-05-1.65436E-24
 -1       973 1.85777E-04-1.14512E-05 3.30872E-24
 -1       974 1.85659E-04-1.20479E-05 1.65436E-24
 -1       975 1.85542E-04-1.25833E-05 0.00000E+00
 -1       976 1.85425E-04-1.30680E-05 1.65436E-24
 -1       977 1.85308E-04-1.35127E-05 3.30872E-24
 -1       978 1.85191E-04-1.39281E-05 0.00000E+00
 -1       979 1.85074E-04-1.43250E-05-3.30872E-24
 -1       980 1.84956E-04-1.47140E-05 0.00000E+00
 -1       981 1.84839E-04-1.51058E-05 0.00000E+00
 -1       982 1.84722E-04-1.55113E-05-1.65436E-24
 -1       983 1.84605E-04-1.59410E-05 3.30872E-24
 -1       984 1.84489E-04-1.64057E-05 0.00000E+00
 -1       985 1.84373E-04-1.69161E-05-3.30872E-24
 -3
    1PSTEP                        18           9           1          
  100CL  109 6.44531E-01         409                     0    9           1
 -4  STRESS      6    1
 -5  SXX         1    4    1    1
 -5  SYY         1    4    2    2
 -5  SZZ         1    4    3    3
 -5  SXY         1    4    1    2
 -5  SYZ         1    4    2    3
 -5  SZX         1    4    3    1
 -1         1-4.42962E+06-1.65127E+06-9.74362E+05-1.62388E+06 2.32831E-10-1.23022E-07
 -1         2 3.01973E+04-2.13494E+06 1.25886E+05 3.29439E+05 4.50473E-09 1.72437E-07
 -1         3-1.24263E+03-1.62033E+06 4.06090E+02-2.10258E+03-3.28487E-10-4.79122E-09
 -1         5-4.80815E+01 3.68845E+05 9.52357E+00-9.78498E-01-4.31121E-10-8.56744E-10
 -1         8-6.21586E+05-2.09497E+05-4.91772E+04-4.00597E+05 6.02085E-10-1.22349E-07
 -1         9 8.09546E+06-6.71752E+05 1.35485E+06-1.01666E+06 3.05707E-08 1.32946E-08
 -1        10-2.13271E+03-1.68849E+06-3.86935E+03-1.42080E+04-1.21418E-08-6.58544E-08
 -1        12-4.42761E+01 3.68865E+05 3.11455E+02-6.79503E+00-5.44475E-10 4.53038E-08
 -1        15 1.25876E+03 6.91755E+02 4.06892E+03 1.84231E+00-3.32392E-10-1.68137E-07
 -1        16 1.75964E+07-1.51073E+05 2.47683E+06-1.43395E+06 1.58325E-08 7.65237E-08
 -1        17 6.31872E+06 4.50808E+06 1.70239E+06 4.42716E+06 1.97120E-08 2.17347E-08
 -1        18 1.13109E+05 2.55782E+04-1.67615E+03-1.12411E+05 1.44435E-08 1.50112E-09
 -1        19 1.17231E+05 1.35406E+05-9.27740E+02 2.14639E+04 1.29839E-09-1.70468E-08
 -1        20-7.53529E+04-5.50193E+05-1.23233E+05 2.59078E+04-9.64368E-10 6.13848E-09
 -1        21-4.49652E+01-2.87782E+05-9.02036E+02 2.08156E+02 1.21067E-08 7.72967E-09
 -1        24 1.03403E+07 8.81589E+06 2.92709E+06 8.20056E+06-1.46732E-07-4.71288E-08
 -1        25 7.55512E+04 8.12523E+04 5.27338E+04-5.36687E+05-1.85410E-09 1.98965E-08
 -1        26-5.15117E+04 8.81299E+04-2.35129E+04 9.33828E+01 4.64934E-10-3.18852E-09
 -1        27-7.49367E+04-2.97898E+05-1.09385E+05 6.63405E+04 4.78955E-09 3.64495E-09
 -1        28 2.17229E+04-8.25573E+04 1.64113E+04 2.06827E+04-3.24695E-09-7.67677E-10
 -1        32-1.62983E+06-2.99605E+06-1.74429E+05 2.62613E+05-3.89045E-08-6.89602E-09
 -1        33-1.71752E+05 8.87116E+04 3.10236E+04-3.80999E+04-2.36048E-09 1.47611E-08
 -1        34-2.15604E+05-2.37563E+04 6.47993E+02 7.21217E+04-4.22538E-09-1.58811E-08
 -1        35-2.23440E+04-3.27472E+04-1.30242E+03 5.00794E+04-2.81943E-09-1.57197E-08
 -1        51 4.97306E+04-2.11642E+05 1.07545E+05-6.34966E+05 4.36557E-11-3.00060E-08
 -1        52 1.80157E+04-1.94472E+05 5.80826E+04-7.40303E+05 2.65572E-10-7.84348E-08
 -1        53 5.10289E+03-2.09956E+05 3.28694E+04-6.32651E+05 4.65661E-10 4.95420E-08
 -1        54 1.14770E+04-2.06411E+05 3.23186E+04-7.42701E+05 1.16415E-10 2.43293E-07
 -1        55 2.40536E+04-2.15915E+05 4.55109E+04-6.32334E+05 4.51109E-10 9.44237E-08
 -1        56-8.35201E+06-9.59369E+05-7.22398E+05-3.28204E+06 2.47383E-08-4.12983E-08
 -1        57-8.82284E+06-1.41977E+06-4.85230E+05-3.03449E+06 5.34274E-08 1.24965E-07
 -1        58-8.44552E+06-1.23574E+06-1.69595E+05-3.29028E+06 2.33922E-09 7.23812E-08
 -1        59-8.72213E+06-1.09010E+06-1.00711E+05-3.02494E+06-1.92722E-08-2.16678E-08
 -1        60-8.45394E+06-1.27871E+06-3.92517E+04-3.29670E+06 2.10302E-08-7.78709E-09
 -1        61-8.67886E+06-1.06877E+06-2.17337E+04-3.04840E+06-4.50518E-09 1.08355E-07
 -1        62-8.48678E+06-1.25698E+06-1.17368E+04-3.26594E+06 4.33101E-09 1.00583E-07
 -1        63-8.58680E+06-1.14498E+06-7.09422E+03-3.13494E+06 2.13404E-08 1.39104E-07
 -1        64-8.54137E+06-1.20547E+06-1.18909E+04-3.20682E+06-2.32831E-08-1.36706E-07
 -1        65-8.48343E+06-1.25452E+06-1.82618E+04-3.25489E+06-1.75150E-08 3.38624E-08
 -1        66-8.58997E+06-1.14774E+06-3.60800E+04-3.14586E+06 3.12084E-08 5.46097E-08
 -1        67-8.43126E+06-1.36945E+06-8.86317E+04-3.34903E+06-3.07618E-08 3.43161E-08
 -1        68-8.59857E+06-1.08840E+06-1.49506E+05-3.11579E+06-3.88536E-09-1.18016E-08
 -1        69-8.55763E+06-1.63313E+06-4.29726E+05-3.33378E+06-1.04174E-08-1.46123E-07
 -1        70-8.46795E+06-8.89565E+05-6.37514E+05-3.16061E+06-1.96014E-08 1.24797E-07
 -1        86-3.10271E+04-3.09773E+06-7.37293E+04-1.64002E+05-4.38690E-08-4.85452E-08
 -1        87 3.75638E+04-2.51613E+06 5.14098E+04 4.89010E+05-7.72302E-08-1.07044E-07
 -1        88-1.38254E+03-2.75719E+06-7.80099E+03-3.24525E+05-6.28470E-08-8.54334E-08
 -1        89 3.62837E+04-2.57019E+06 2.03819E+04 5.21249E+05-9.40554E-08-6.47553E-08
 -1        90-2.46431E+04-3.04933E+06-1.13889E+05-1.96509E+05-2.75359E-08 1.99016E-07
 -1       121-1.71137E+03-1.62448E+06-3.80158E+02 1.04390E+03 1.30507E-09 6.42103E-09
 -1       122-1.06108E+03-1.62037E+06 7.91984E+02-4.20475E+03-4.83003E-09 1.88375E-08
 -1       123-1.74340E+03-1.62461E+06 4.73847E+02 3.11688E+03 4.31612E-09 5.45697E-10
 -1       124 6.08409E+02-1.61983E+06 3.10005E+03-8.77920E+03-9.07175E-09-9.63155E-09
 -1       125-2.60774E+03-1.62553E+06 3.86966E+03 5.58414E+03 6.10271E-09-8.51651E-09
 -1       191-5.07742E+01 3.68868E+05 9.29854E+00 5.04053E-01-4.47024E-10-3.03771E-10
 -1       192-4.89840E+01 3.68846E+05 2.02649E+01-3.26352E+00-5.99260E-10-2.34195E-09
 -1       193-5.31589E+01 3.68867E+05 3.56592E+01 2.85083E+00-8.76543E-10-9.88439E-09
 -1       194-5.18817E+01 3.68849E+05 7.68964E+01-7.45041E+00-5.00840E-10-1.31404E-08
 -1       195-5.77379E+01 3.68865E+05 1.48376E+02 4.79532E+00-1.24554E-09 5.51881E-09
 -1       251-2.27309E+06-4.33704E+04-2.34163E+05 1.31199E+05 9.35688E-09-1.72586E-08
 -1       252-1.06784E+06 4.99261E+04 7.56306E+04-4.39997E+05-1.19180E-08 7.17682E-09
 -1       253-1.77391E+06-1.88506E+04-4.40956E+04 3.08649E+05-1.18453E-08-3.92301E-08
 -1       254-1.63755E+06 7.21942E+04 1.37501E+04-6.15114E+05-2.52426E-08-3.19972E-08
 -1       255-1.76011E+06-1.87949E+04-2.06914E+04 3.11393E+05-1.60726E-08 1.91167E-08
 -1       256-1.09291E+06 5.90452E+04 1.24438E+05-4.52217E+05 6.56928E-09 5.05629E-08
 -1       257-2.26480E+06-5.00359E+04-1.25163E+05 1.40839E+05 1.80808E-08-1.50571E-07
 -1       258-5.47063E+05 4.50014E+04 2.27702E+05 9.34034E+03 3.75585E-08 1.74756E-07
 -1       259-2.25194E+06-4.91511E+04-1.20492E+05-1.47042E+05 8.20728E-09-1.29483E-07
 -1       260-1.12029E+06 6.03449E+04 1.24195E+05 4.64617E+05-5.20577E-08-1.30745E-07
 -1       261-1.74849E+06-1.85854E+04-8.46664E+03-3.11636E+05-1.21354E-07-1.68845E-08
 -1       262-1.62896E+06 8.16607E+04 3.72771E+04 6.16475E+05 1.58088E-08 5.00638E-08
 -1       263-1.79394E+06-2.86196E+04-1.00032E+04-3.03521E+05-2.79542E-08-2.01871E-08
 -1       264-1.00487E+06 1.19425E+05 1.82572E+05 4.30927E+05-1.03411E-07 1.76049E-07
 -1       265-2.31308E+06-1.05243E+05-9.22646E+04-1.21037E+05-3.31966E-08 2.21948E-07
 -1       266-2.27877E+04-1.06558E+04 5.34654E+04-3.94191E+01 1.74623E-10-5.21526E-08
 -1       267 2.64172E+04 1.24192E+04 3.77891E+04 4.54826E+01 2.60570E-10-1.28768E-07
 -1       268-3.54251E+03-1.75892E+03 1.40460E+04-5.79523E+00 1.20963E-10 2.76131E-08
 -1       269 4.18265E+03 2.10503E+03 9.12971E+03 6.75062E+00 6.32099E-11 8.16718E-08
 -1       270-6.27822E+02-3.45875E+02 4.40704E+03-9.16105E-01 1.10276E-10 1.24095E-07
 -1       271-2.05174E+06-2.46687E+05-1.52385E+05-7.84897E+05 2.82853E-08 5.50062E-09
 -1       272-2.16179E+06-3.03523E+05-9.81086E+04-7.22012E+05-3.05427E-08 8.84284E-08
 -1       273-2.07917E+06-2.86052E+05-3.59559E+04-7.79534E+05-9.40645E-09 6.63204E-08
 -1       274-2.12936E+06-2.55443E+05-2.01790E+04-7.30358E+05 2.62899E-08 2.37633E-08
 -1       275-2.08321E+06-2.90032E+05-8.38097E+03-7.78216E+05 8.88167E-09 8.96898E-08
 -1       276-2.12309E+06-2.51858E+05-4.39130E+03-7.33048E+05 1.33423E-09 4.69290E-08
 -1       277-2.08489E+06-2.89430E+05-2.22043E+03-7.76695E+05-2.17124E-08 1.60890E-08
 -1       278-2.11899E+06-2.54421E+05-1.36397E+03-7.36217E+05 2.22235E-08 5.25861E-08
 -1       279-2.08665E+06-2.87832E+05-1.59490E+03-7.74603E+05-2.28265E-08-7.92425E-08
 -1       280-2.11450E+06-2.58812E+05-2.32786E+03-7.40369E+05 1.47775E-08-1.06545E-07
 -1       281-2.08865E+06-2.85517E+05-4.67117E+03-7.72023E+05-5.02405E-09 1.87811E-08
 -1       282-2.11105E+06-2.66629E+05-1.03225E+04-7.45151E+05-4.86698E-08-1.12826E-07
 -1       283-2.08946E+06-2.80710E+05-1.89916E+04-7.69252E+05 6.76664E-10-1.91767E-07
 -1       284-2.12126E+06-2.97511E+05-5.05869E+04-7.47432E+05-4.45289E-08-7.18256E-08
 -1       285-2.07829E+06-2.57512E+05-7.93715E+04-7.68477E+05 4.00178E-11 1.34918E-07
 -1       301 1.30141E+04-4.97631E+05 1.73749E+05-8.63596E+05 1.78261E-09-6.92307E-08
 -1       302 1.42533E+04-4.53146E+05 1.05707E+05-1.26237E+06-1.35333E-09 5.23414E-08
 -1       303-6.80877E+03-4.83661E+05 6.42807E+04-8.61439E+05 2.11003E-10 6.59420E-08
 -1       304 1.36524E+03-4.56915E+05 7.25907E+04-1.26160E+06-1.25874E-09-1.03857E-07
 -1       305-2.99024E+03-4.81290E+05 9.96086E+04-8.64140E+05-6.63931E-10 8.21747E-08
 -1       306-2.56807E+07-5.17943E+06-7.03794E+06-1.27220E+06-8.57981E-08-1.59198E-07
 -1       307 2.08626E+07 1.59321E+06 4.52352E+06-1.20485E+07-8.35877E-07-3.79223E-08
 -1       308-7.89510E+06-6.23153E+05-5.56770E+05 4.28134E+06-2.33966E-07 1.92151E-07
 -1       309-3.57573E+06 5.59902E+06 1.65516E+06-1.78926E+07 3.60553E-07 3.72645E-07
 -1       310-1.06951E+07-1.04640E+06-1.28011E+06 4.14138E+06 3.35858E-08 2.44181E-08
 -1       311 2.73277E+07-3.15011E+05 5.48528E+06-8.55324E+06 3.33734E-07-2.47615E-07
 -1       312-2.64887E+07-5.19175E+06-6.59298E+06-3.63006E+06-1.64146E-08 1.48852E-07
 -1       313 3.69209E+07 9.58152E+06 8.50242E+06 1.69526E+07-3.49013E-07-5.85424E-08
 -1       314-1.64433E+07-1.33303E+07-6.07567E+06-1.06300E+07 2.67755E-07 8.15489E-08
 -1       315-7.38046E+05 2.25074E+07 4.67842E+06 1.02777E+07-3.00468E-07 2.39816E-07
 -1       316-2.61866E+04-8.78637E+06-5.15068E+05-3.70934E+06-8.04765E-07-2.28203E-07
 -1       317-1.68264E+07 1.87526E+07 1.62509E+06-5.15998E+06 5.77129E-07-6.66081E-07
 -1       318-1.36888E+06-9.98193E+06-1.33723E+06-4.48163E+06-7.92556E-07 1.05560E-07
 -1       319 4.06073E+06 2.35910E+07 5.24686E+06 1.27294E+07-6.77537E-08 2.20054E-07
 -1       320-1.91327E+07-1.36762E+07-7.71921E+06-1.05256E+07 1.39698E-07-3.28291E-08
 -1       336-3.07667E+02-1.75856E+06-1.36630E+04 8.49598E+03-2.43908E-08-1.47193E-08
 -1       337-5.24227E+03-1.75898E+06-1.77459E+04-2.05482E+04-4.53738E-08 1.50540E-08
 -1       338 5.53526E+02-1.75812E+06-2.74262E+04 1.18610E+04-3.15576E-08 3.56595E-08
 -1       339-2.91242E+04-1.77536E+06-6.21185E+04-2.71139E+04-5.83686E-08 2.14204E-08
 -1       340 1.94420E+04-1.74407E+06-9.76051E+04 1.49496E+04-3.79296E-08 2.16933E-08
 -1       406-2.25170E+01 3.68851E+05 6.12749E+02 2.29231E+00-1.57654E-09 2.76304E-09
 -1       407 1.70357E+02 3.68973E+05 1.30686E+03 1.92964E+01-5.75017E-10-1.13132E-08
 -1       408 6.27036E+02 3.68756E+05 2.60732E+03-2.19974E+01-1.91585E-09-1.01318E-09
 -1       409 2.78128E+03 3.69806E+05 5.87412E+03 2.31053E+02 8.52651E-13-1.84809E-09
 -1       410 8.07026E+03 3.68009E+05 1.19899E+04-2.21923E+02-2.28647E-09-1.71785E-08
 -1       521-2.73151E+07-6.36282E+06-8.24363E+06-9.97149E+05-1.00001E-07 1.71072E-07
 -1       522 2.16495E+07 2.14523E+06 4.60933E+06-1.50111E+07-5.13188E-07-3.34228E-07
 -1       523-8.71333E+06-8.90385E+05-5.80852E+05 4.72776E+06 2.12458E-08-2.76050E-07
 -1       524-6.55974E+06 7.89234E+06 1.80266E+06-2.08044E+07 4.99454E-07-7.43610E-07
 -1       525-1.17115E+07-1.49263E+06-1.41362E+06 4.57551E+06 4.12576E-07-4.54558E-07
 -1       526 2.96854E+07-3.44599E+05 5.79402E+06-1.09537E+07 4.29369E-07-2.08383E-07
 -1       527-2.83109E+07-6.54301E+06-7.60696E+06-3.55111E+06-1.86265E-08 8.05885E-08
 -1       528 4.05041E+07 1.04971E+07 8.90828E+06 1.92363E+07 1.08848E-07-6.77537E-08
 -1       529-1.75266E+07-1.52077E+07-6.98521E+06-1.09002E+07 3.27127E-08-1.66357E-07
 -1       530-2.87704E+06 2.63729E+07 4.96577E+06 1.04107E+07-1.45374E-07 4.07454E-07
 -1       531-1.29989E+05-9.94230E+06-5.24796E+05-3.91845E+06-7.85367E-07 4.35335E-07
 -1       532-1.98715E+07 2.10801E+07 1.79509E+06-8.30420E+06 3.38172E-07-5.79690E-07
 -1       533-1.46899E+06-1.11499E+07-1.41446E+06-4.61583E+06-1.55123E-07-9.00764E-07
 -1       534 2.16407E+06 2.75534E+07 5.49264E+06 1.32609E+07-1.97178E-08 6.36064E-07
 -1       535-2.03193E+07-1.56686E+07-8.83643E+06-1.07789E+07 1.06986E-07 4.10830E-07
 -1       536-6.59709E+05-4.49827E+04-2.87169E+04-4.83340E+04-3.21461E-09 6.66096E-08
 -1       537-1.00161E+05 4.39779E+04 8.00594E+04 1.11618E+05-1.01858E-07 1.03963E-07
 -1       538-3.92342E+05 2.08442E+03 6.21461E+03-6.59798E+04 2.07073E-08 1.07791E-07
 -1       539-2.85524E+05 3.08963E+03 2.29960E+04 1.26084E+05 1.50976E-07 1.11028E-07
 -1       540-4.78932E+05-2.94321E+02-1.71735E+04-6.32174E+04-8.07222E-09 1.08125E-07
 -1       541 6.85914E+04 1.44708E+04 9.09707E+04 8.74485E+04-3.98463E-08 8.33487E-08
 -1       542-7.36931E+05-1.72267E+04-7.16560E+04-2.66634E+04 8.68272E-08 4.05711E-08
 -1       543 2.88943E+05 2.33311E+04 1.34561E+05-1.23158E+04 1.46108E-08 2.24190E-10
 -1       544-6.93389E+05-1.40284E+04-6.36527E+04 3.60216E+04-1.52763E-08-1.82654E-08
 -1       545-3.31962E+04 7.83954E+03 6.73837E+04-1.02460E+05 6.23959E-09-5.35690E-08
 -1       546-4.23417E+05 5.39960E+03-1.05793E+04 6.32151E+04 3.99934E-08-8.21631E-08
 -1       547-3.01661E+05-4.68503E+03 7.80090E+03-1.28796E+05-1.18820E-07-8.38577E-08
 -1       548-4.32115E+05 4.49015E+03-2.20004E+04 6.28962E+04-1.06049E-07-1.01229E-07
 -1       549-1.52964E+04 1.05181E+04 4.73346E+04-1.00037E+05-6.20846E-08-7.38673E-08
 -1       550-7.02110E+05-1.61960E+04-1.16299E+05 3.38947E+04 6.86578E-09-2.04091E-08
 -1       551 3.73321E+04-7.69133E+05-6.28632E+03-1.20996E+06-9.36561E-08 1.05647E-08
 -1       552 8.46328E+04-8.07941E+05 1.53709E+04-1.72546E+06-6.63858E-08 5.04660E-08
 -1       553 6.44870E+04-8.06273E+05 3.57185E+04-1.20383E+06-1.11453E-07 2.83035E-08
 -1       554 1.21233E+05-8.20305E+05 8.54194E+04-1.72742E+06-6.97473E-08 2.38269E-08
 -1       555 9.41247E+04-8.29027E+05 1.54676E+05-1.20387E+06-1.11664E-07-5.10045E-09
 -1       556 2.03349E+05-3.52854E+05 3.88906E+04-3.85297E+05-1.61235E-08-1.27184E-08
 -1       557 3.27021E+05-4.51663E+05 2.25575E+04-4.96371E+05 8.49832E-09 9.93168E-10
 -1       558 1.88448E+05-3.49377E+05 5.71712E+03-3.86839E+05-1.16124E-08-1.41881E-09
 -1       559 3.03693E+05-4.54056E+05 3.92609E+03-5.14150E+05 2.55532E-08 1.99798E-08
 -1       560 1.75368E+05-3.41147E+05-4.04642E+02-3.96179E+05 1.24564E-08 1.56942E-08
 -1       561 2.87076E+05-4.47535E+05 5.39646E+02-5.25394E+05-2.47383E-09 5.77711E-09
 -1       562 1.65032E+05-3.34697E+05-8.96747E+02-4.03645E+05-1.14960E-09-4.76030E-09
 -1       563 2.74819E+05-4.42191E+05 8.19072E+01-5.33378E+05 3.95812E-09 2.45054E-08
 -1       564 1.57719E+05-3.30132E+05-4.30998E+02-4.08822E+05 6.76664E-09 1.65369E-08
 -1       565 2.66802E+05-4.38700E+05 5.73771E+01-5.38494E+05 5.67525E-09 1.39980E-08
 -1       566 1.53537E+05-3.27483E+05-1.89490E+02-4.11748E+05-6.48288E-09-1.17871E-09
 -1       567 2.63059E+05-4.37070E+05-2.97896E+02-5.40750E+05 1.32532E-08 1.54178E-08
 -1       568 1.52566E+05-3.26892E+05-9.63576E+02-4.12524E+05 5.49517E-09 9.20045E-09
 -1       569 2.62296E+05-4.37022E+05-2.43705E+03-5.39203E+05-2.60115E-10 2.21917E-10
 -1       570 1.55825E+05-3.29912E+05-5.36582E+03-4.11607E+05 6.14091E-09 7.28505E-10
 -1       571 2.77922E+05 1.00512E+04 1.44390E+04-8.81096E+04 5.96447E-09 9.85756E-09
 -1       572 2.80024E+05 3.73617E+03 7.07592E+03-9.66620E+04 6.99856E-10 1.02996E-08
 -1       573 2.78758E+05 1.12780E+03 3.14399E+03-8.79407E+04-3.18232E-09 6.84668E-09
 -1       574 2.78972E+05 6.20161E+02 1.57648E+03-9.68728E+04-2.99497E-09 6.65204E-09
 -1       575 2.78849E+05 3.59039E+02 7.43971E+02-8.79178E+04-2.31154E-10 3.16868E-09
 -1       576 2.78840E+05 3.63173E+02 3.80710E+02-9.69009E+04-4.25962E-09 2.33922E-09
 -1       577 2.78883E+05 3.05546E+02 1.89982E+02-8.79146E+04-3.03589E-09-3.69528E-09
 -1       578 2.78862E+05 3.30509E+02 1.09400E+02-9.69048E+04-4.26326E-09 2.31739E-09
 -1       579 2.78944E+05 2.75616E+02 7.50573E+01-8.79143E+04 5.22050E-09 6.19093E-09
 -1       580 2.78947E+05 2.88303E+02 8.64034E+01-9.69002E+04-1.05501E-08-1.78698E-08
 -1       581 2.79039E+05 2.27376E+02 1.30768E+02-8.79198E+04 6.48106E-09-1.86910E-08
 -1       582 2.79098E+05 2.61471E+02 2.64867E+02-9.68432E+04 7.15227E-09-9.07039E-09
 -1       583 2.79156E+05 2.77050E+02 5.09563E+02-8.79718E+04 8.40373E-10 6.09612E-09
 -1       584 2.79433E+05 6.90838E+02 1.15172E+03-9.64052E+04 1.34423E-09 5.96629E-09
 -1       585 2.79164E+05 1.66903E+03 2.33395E+03-8.83572E+04-2.75213E-09-5.05679E-10
 -1       586-3.31840E+03 1.08233E+05-3.06589E+03-2.42032E+05-4.25598E-09-2.85763E-09
 -1       587-1.19566E+03 1.07942E+05 5.88769E+02-2.66378E+05-7.41966E-09-2.55459E-08
 -1       588 4.93811E+02 1.07800E+05 4.45898E+03-2.41902E+05-2.84308E-09 2.00362E-09
 -1       589 4.97091E+03 1.10133E+05 1.16989E+04-2.66143E+05-7.43057E-09-1.12177E-08
 -1       590 1.59134E+04 1.06530E+05 2.45934E+04-2.42316E+05-5.04951E-09 8.42010E-09
 -1       591-6.78192E+04-1.50123E+04-2.10776E+04-2.95512E+04-1.03068E-09-5.31236E-09
 -1       592-7.14720E+04-1.85135E+04-1.14172E+04-3.31402E+04-1.95556E-10-6.64761E-09
 -1       593-6.99288E+04-1.34811E+04-4.75249E+03-3.10951E+04 2.55426E-10-1.30979E-08
 -1       594-6.85594E+04-1.54232E+04-2.37020E+03-3.32537E+04-2.19359E-09-6.73197E-09
 -1       595-7.00898E+04-1.34759E+04-1.08827E+03-3.11652E+04 2.68357E-09-4.89712E-09
 -1       596-6.83601E+04-1.52819E+04-5.53210E+02-3.32302E+04 5.51569E-09-1.48705E-08
 -1       597-7.01099E+04-1.34902E+04-3.01204E+02-3.11679E+04 5.04292E-09 1.50311E-09
 -1       598-6.83405E+04-1.52764E+04-2.42073E+02-3.32237E+04-1.09153E-08 6.83366E-09
 -1       599-7.01087E+04-1.34907E+04-3.09144E+02-3.11675E+04 4.79406E-09-8.45398E-09
 -1       600-6.83603E+04-1.52826E+04-5.74228E+02-3.32284E+04 3.12076E-09-8.07768E-09
 -1       601-7.00853E+04-1.34770E+04-1.13280E+03-3.11642E+04 4.26894E-09-1.16215E-08
 -1       602-6.85676E+04-1.54288E+04-2.46879E+03-3.32492E+04-1.89789E-09-1.58634E-08
 -1       603-6.99152E+04-1.34852E+04-4.95094E+03-3.10917E+04 2.26464E-09 1.07430E-08
 -1       604-7.16181E+04-1.86299E+04-1.18932E+04-3.31079E+04 1.25056E-09 1.02746E-08
 -1       605-6.76987E+04-1.50967E+04-2.19565E+04-2.95015E+04-8.74309E-10 1.28057E-09
 -1       606 2.69881E+04-1.36294E+04-2.44417E+04 2.46107E+04-2.22644E-09-2.42380E-09
 -1       607 2.28110E+04-4.44654E+03-1.21717E+04 2.76510E+04-1.95041E-08-3.51611E-09
 -1       608 2.51898E+04-7.97716E+02-5.44913E+03 2.44326E+04-1.25729E-08-3.27418E-11
 -1       609 2.47317E+04-2.67407E+02-2.75267E+03 2.78699E+04-4.48199E-09 1.77299E-08
 -1       610 2.49842E+04-3.19465E+01-1.31354E+03 2.44118E+04-1.49066E-09 7.87281E-09
 -1       611 2.49105E+04-3.00293E+01-6.62272E+02 2.78936E+04 5.77347E-09 1.33837E-08
 -1       612 2.49373E+04-1.76248E+01-3.15059E+02 2.44097E+04 2.02090E-09 2.85331E-09
 -1       613 2.49194E+04-2.49524E+01-1.41354E+02 2.78964E+04 2.85036E-09-3.22802E-09
 -1       614 2.49146E+04-2.26896E+01-3.36733E+01 2.44089E+04 2.72303E-09 9.72204E-09
 -1       615 2.49127E+04-2.26116E+01 5.80567E+01 2.78968E+04 1.32832E-09-1.63488E-08
 -1       616 2.48969E+04-1.89569E+01 1.75172E+02 2.44092E+04 4.11319E-09-4.66343E-10
 -1       617 2.49325E+04 1.54775E+01 4.00133E+02 2.78963E+04 3.84421E-09-9.66452E-09
 -1       618 2.48612E+04 9.69770E+01 8.06677E+02 2.44095E+04 6.79029E-09 1.46474E-09
 -1       619 2.52165E+04 6.39678E+02 1.81157E+03 2.78956E+04 1.46370E-08-1.71167E-08
 -1       620 2.45928E+04 2.01025E+03 3.64123E+03 2.44104E+04 1.13419E-08 5.08953E-09
 -1       621 4.48182E+02 2.86964E+05 3.54886E+03 3.62398E+04 7.96717E-10-2.92675E-09
 -1       622 5.86462E+02 2.87794E+05 3.18124E+03 5.26345E+04 1.07912E-09 3.40879E-09
 -1       623 1.08674E+02 2.87146E+05 3.86534E+03 3.60755E+04 1.02739E-09-3.84716E-10
 -1       624 1.95442E+03 2.88962E+05 7.52724E+03 5.27961E+04 7.08496E-10-1.87138E-08
 -1       625 1.92150E+03 2.85655E+05 1.31701E+04 3.60735E+04 1.09412E-09-1.28264E-08
 -1       626 2.49549E+05 5.99255E+04 4.98913E+03 1.22722E+05 1.46474E-09-3.03407E-09
 -1       627 2.47212E+05 6.13654E+04 2.40422E+03 1.26972E+05-4.36103E-10 8.73831E-09
 -1       628 2.49679E+05 5.76364E+04 1.01664E+03 1.23562E+05-8.16635E-09-9.47307E-09
 -1       629 2.46584E+05 6.07112E+04 4.97630E+02 1.27214E+05-5.05497E-09-9.67120E-10
 -1       630 2.49692E+05 5.75262E+04 2.30760E+02 1.23596E+05-1.01563E-08 7.41721E-10
 -1       631 2.46516E+05 6.06873E+04 1.24110E+02 1.27215E+05-1.64830E-08 2.93903E-09
 -1       632 2.49687E+05 5.75308E+04 8.15559E+01 1.23591E+05-3.85899E-09-5.08157E-09
 -1       633 2.46507E+05 6.06897E+04 9.06619E+01 1.27211E+05 3.86194E-09 6.68706E-09
 -1       634 2.49682E+05 5.75287E+04 1.46346E+02 1.23589E+05-3.23280E-09 4.90945E-09
 -1       635 2.46520E+05 6.06885E+04 2.96037E+02 1.27215E+05-6.53883E-09 4.04998E-09
 -1       636 2.49672E+05 5.75237E+04 5.97795E+02 1.23589E+05 2.03613E-09-5.12091E-09
 -1       637 2.46648E+05 6.07817E+04 1.31428E+03 1.27214E+05 1.92199E-09 2.00585E-08
 -1       638 2.49625E+05 5.78142E+04 2.70040E+03 1.23457E+05 1.15283E-08-2.58465E-08
 -1       639 2.48066E+05 6.27546E+04 6.38912E+03 1.26796E+05 3.78247E-08-3.13744E-08
 -1       640 2.49430E+05 6.37037E+04 1.32586E+04 1.20973E+05 2.30984E-08 1.13969E-08
 -1       656 6.40528E+04-1.63724E+06-1.54620E+05-2.09705E+03-1.81899E-10-1.14329E-08
 -1       657-8.47257E+04-1.70710E+06-1.28071E+05 5.71966E+03-6.91216E-11-5.33280E-09
 -1       658 2.04079E+04-1.65709E+06-7.88471E+04-4.05980E+03 6.31644E-10-3.68953E-09
 -1       659-9.15406E+04-1.71034E+06-1.37026E+05 7.30884E+03-1.45337E-09 1.53401E-10
 -1       660 7.08524E+04-1.63402E+06-1.70016E+05-3.68621E+03-1.47702E-09-2.34294E-08
 -1       661 1.61040E+05 1.69620E+04 1.67368E+04 6.29554E+04 3.98813E-10 1.54314E-08
 -1       662 1.70403E+05 2.94540E+04 1.12792E+04 5.93138E+04-3.37315E-09-7.16739E-09
 -1       663 1.64327E+05 2.23318E+04 3.94487E+03 6.20018E+04 3.37752E-09-1.93768E-09
 -1       664 1.66593E+05 2.31739E+04 2.35966E+03 6.04781E+04-3.34771E-09 7.53602E-09
 -1       665 1.64825E+05 2.30657E+04 9.30868E+02 6.18570E+04-1.52511E-10 1.02651E-09
 -1       666 1.66004E+05 2.23341E+04 5.44596E+02 6.06667E+04 3.50224E-09-4.51417E-09
 -1       667 1.64912E+05 2.31496E+04 2.89130E+02 6.18211E+04 2.63523E-09 6.71213E-09
 -1       668 1.65908E+05 2.22732E+04 2.94291E+02 6.07189E+04-4.84495E-09-2.63853E-10
 -1       669 1.64920E+05 2.31249E+04 3.98171E+02 6.18052E+04-2.70066E-09 1.12810E-08
 -1       670 1.66005E+05 2.24890E+04 8.66786E+02 6.07217E+04-8.60804E-09-5.74651E-09
 -1       671 1.64815E+05 2.29383E+04 1.53896E+03 6.18164E+04-1.25813E-09-9.80378E-10
 -1       672 1.66902E+05 2.39863E+04 3.93733E+03 6.05046E+04 2.83197E-09 3.61797E-09
 -1       673 1.64027E+05 2.16655E+04 6.59832E+03 6.20078E+04 2.97769E-09 6.47515E-09
 -1       674 1.73182E+05 3.45869E+04 1.88698E+04 5.86592E+04 1.60071E-09 3.66708E-09
 -1       675 1.58575E+05 1.26345E+04 2.80093E+04 6.35503E+04-1.43427E-09 4.78030E-09
 -1       676 2.34874E+01-2.87707E+05-1.08719E+03-1.04081E+02 1.36896E-09-9.59080E-09
 -1       677-2.88049E+02-2.87970E+05-1.98974E+03 2.08002E+02 6.67055E-09-1.12431E-09
 -1       678 1.92832E+02-2.87520E+05-3.51736E+03-1.03852E+02 9.34961E-10 1.32493E-08
 -1       679-3.51784E+03-2.90093E+05-8.35576E+03 2.07129E+02 5.70628E-09 7.27644E-09
 -1       680 2.10001E+03-2.85585E+05-1.34666E+04-1.02055E+02 3.54703E-10 2.42495E-08
 -1       771-2.99237E+06-7.06352E+05-1.44445E+05-1.41457E+06-3.23344E-08-2.85800E-08
 -1       772-2.92209E+06-7.88446E+05-7.46150E+04-1.50928E+06-2.75322E-08 6.61021E-09
 -1       773-3.01986E+06-6.84831E+05-3.77163E+04-1.42659E+06-1.14669E-08 1.54978E-08
 -1       774-2.91288E+06-7.72600E+05-1.68936E+04-1.53149E+06 3.13012E-08-1.57161E-09
 -1       775-3.03387E+06-6.74966E+05-1.24213E+04-1.43228E+06-3.95812E-09 6.78119E-09
 -1       776-2.92290E+06-7.70266E+05-4.67961E+03-1.54805E+06-8.61473E-09 5.41331E-09
 -1       777-3.04593E+06-6.66231E+05-5.41025E+03-1.43730E+06 8.20728E-09 4.64934E-09
 -1       778-2.93341E+06-7.68128E+05-1.54103E+03-1.56224E+06 2.76486E-10-1.63527E-09
 -1       779-3.05625E+06-6.58633E+05-2.67915E+03-1.44158E+06-6.95582E-09-8.47649E-09
 -1       780-2.94265E+06-7.66085E+05-4.46207E+02-1.57380E+06-4.14730E-09-1.76624E-09
 -1       781-3.06443E+06-6.52525E+05-1.03307E+03-1.44494E+06-2.19006E-08 2.52476E-09
 -1       782-2.94976E+06-7.64340E+05 3.78453E+02-1.58232E+06-3.31784E-08-5.34783E-09
 -1       783-3.07018E+06-6.48295E+05 5.93505E+02-1.44730E+06-1.31404E-08-1.82504E-08
 -1       784-2.95367E+06-7.62534E+05 2.43651E+03-1.58757E+06-1.60726E-08 3.21052E-10
 -1       785-3.07357E+06-6.45778E+05 4.30279E+03-1.44880E+06-2.95659E-08 1.14269E-08
 -1       786 1.30113E+05-9.90608E+03 2.28421E+04-2.85249E+02 3.11251E-05 6.26851E-08
 -1       787 1.40035E+05 1.14665E+04 1.61725E+04-1.32811E+02 6.21607E-05 9.82866E-08
 -1       788 1.33937E+05-1.55705E+03 5.90949E+03-2.42413E+02 4.63438E-05 5.23698E-08
 -1       789 1.35579E+05 1.80179E+03 3.71424E+03-1.90073E+02 3.04892E-05 4.68283E-08
 -1       790 1.34570E+05-2.43338E+02 1.50319E+03-2.27991E+02 2.15753E-05 3.05253E-08
 -1       791 1.34839E+05 2.81543E+02 8.70935E+02-2.10344E+02 1.26759E-05 3.09485E-08
 -1       792 1.34677E+05-3.70862E+01 3.72406E+02-2.22142E+02 9.92354E-06 2.63618E-08
 -1       793 1.34712E+05 4.07795E+01 1.93835E+02-2.19975E+02 7.17652E-06 2.46297E-08
 -1       794 1.34697E+05-2.61013E+00 6.65845E+01-2.18360E+02 7.55385E-06 2.32090E-09
 -1       795 1.34681E+05-1.41450E+01-1.50178E+01-2.29311E+02 7.92078E-06 8.24397E-09
 -1       796 1.34708E+05 1.78325E+01-8.95525E+01-2.12806E+02 9.74845E-06 6.23731E-09
 -1       797 1.34621E+05-1.34238E+02-2.67221E+02-2.47721E+02 1.15692E-05 4.03473E-08
 -1       798 1.34756E+05 1.17463E+02-4.39125E+02-1.99949E+02 1.21578E-05 2.30375E-09
 -1       799 1.34288E+05-8.62232E+02-1.21390E+03-2.93642E+02 1.27367E-05 1.15580E-08
 -1       800 1.35042E+05 7.45674E+02-1.71886E+03-1.66885E+02 6.35657E-06-2.46358E-08
 -1       801-1.06263E+05-8.78923E+06-1.19029E+06 1.12869E+06 8.19273E-08-4.89781E-08
 -1       802 5.52330E+05 4.06297E+06 1.70740E+06-1.36280E+06 2.34693E-07-3.14540E-08
 -1       803-4.26901E+05-1.21176E+07-1.52368E+06 7.18565E+05 7.19774E-08 1.49139E-08
 -1       804 2.14733E+05 1.13040E+06 1.20349E+06 5.82717E+05-1.05389E-07-8.25838E-08
 -1       805 1.64526E+05-5.87182E+06-2.32653E+05-8.12214E+05-4.38231E-08-4.76402E-08
 -1       806-2.96567E+05-5.72610E+04-2.17973E+04-1.17457E+05-7.10816E-09 4.58476E-09
 -1       807-2.98292E+05-5.36928E+04-1.07088E+04-1.22733E+05 8.63793E-09 8.09580E-09
 -1       808-2.97162E+05-4.94085E+04-4.54302E+03-1.21175E+05-4.35739E-09 8.35598E-11
 -1       809-2.96042E+05-5.06830E+04-2.22144E+03-1.22995E+05-1.05592E-08-1.33858E-08
 -1       810-2.97253E+05-4.91351E+04-1.01819E+03-1.21339E+05-7.60338E-10-5.91217E-09
 -1       811-2.95868E+05-5.05620E+04-5.06376E+02-1.22961E+05-1.30058E-09 7.93261E-09
 -1       812-2.97267E+05-4.91584E+04-2.56150E+02-1.21339E+05-5.27052E-09-4.05817E-09
 -1       813-2.95844E+05-5.05640E+04-1.66620E+02-1.22944E+05-2.14504E-09 1.36324E-08
 -1       814-2.97260E+05-4.91675E+04-1.65300E+02-1.21335E+05-5.74346E-09 1.22445E-08
 -1       815-2.95848E+05-5.05660E+04-2.66610E+02-1.22937E+05 3.59250E-10 4.96220E-09
 -1       816-2.97241E+05-4.91663E+04-5.05395E+02-1.21332E+05 3.81897E-09 2.29902E-08
 -1       817-2.95934E+05-5.06141E+04-1.08485E+03-1.22926E+05-9.08449E-09 4.69822E-09
 -1       818-2.97175E+05-4.93192E+04-2.21268E+03-1.21260E+05-4.05998E-09 2.83217E-09
 -1       819-2.97146E+05-5.19506E+04-5.20649E+03-1.22640E+05-3.54521E-09 2.59934E-09
 -1       820-2.96759E+05-5.32512E+04-1.05970E+04-1.19579E+05-3.14958E-09 1.11861E-08
 -1       821-3.69096E+05 2.03177E+04-4.71187E+04 1.57405E+03 1.10703E-08 1.43118E-08
 -1       822-3.88977E+05-2.35273E+04-3.32492E+04-3.13430E+03 3.07258E-09 1.74209E-08
 -1       823-3.76694E+05 3.19343E+03-1.21872E+04 2.34626E+03-8.75751E-09 1.13873E-08
 -1       824-3.79947E+05-3.68820E+03-7.64949E+03-3.54714E+03-3.77913E-10 1.81331E-09
 -1       825-3.78126E+05 4.96398E+02-3.17664E+03 1.98695E+03 1.48087E-08 5.30292E-09
 -1       826-3.78012E+05-5.69760E+02-1.79969E+03-1.89636E+03 1.89137E-08 4.90152E-09
 -1       827-3.78617E+05 6.81446E+01-1.06794E+03 6.95408E+02 7.61591E-09-2.47178E-09
 -1       828-3.77615E+05-1.56965E+02-7.32744E+02 9.21799E+02-2.48448E-09 1.29092E-08
 -1       829-3.78517E+05 7.99820E+01-1.06890E+03-8.31246E+02 1.00719E-09 1.36848E-08
 -1       830-3.78235E+05-6.08664E+02-1.90729E+03 3.38162E+03-9.18348E-10-9.02233E-09
 -1       831-3.78008E+05 5.28143E+02-3.26620E+03-1.76445E+03-4.09385E-09 3.35285E-09
 -1       832-3.80031E+05-3.83644E+03-7.93691E+03 4.14917E+03-2.64350E-09 5.49971E-09
 -1       833-3.76728E+05 3.31042E+03-1.26550E+04-1.59881E+03-3.37229E-09 7.97991E-09
 -1       834-3.89158E+05-2.43948E+04-3.44360E+04 2.78434E+03-2.75591E-09 2.73139E-08
 -1       835-3.68874E+05 2.10629E+04-4.88849E+04-3.99574E+02 4.55242E-09-1.58616E-09
 -1       836-1.33722E+03 3.53632E+05 2.17648E+04-1.68712E+04-5.82077E-09-5.61113E-09
 -1       837 4.65366E+03 3.60442E+05 1.84607E+04-3.43299E+04-6.24573E-09-2.13063E-08
 -1       838-5.26817E+02 3.55534E+05 1.88700E+04-1.67993E+04-4.86352E-09 3.23439E-09
 -1       839 1.19139E+04 3.65849E+05 3.57561E+04-3.43798E+04-5.16411E-09 4.64752E-10
 -1       840-3.67407E+03 3.48167E+05 5.70438E+04-1.68256E+04-4.96220E-09 1.03882E-08
 -1       856-5.72784E+04 7.96333E+03-2.09852E+04-3.99212E+02 3.11468E-09 4.00087E-09
 -1       857-6.59278E+04-9.35358E+03-1.44463E+04 5.48003E+03 3.99169E-09 3.47554E-08
 -1       858-6.07023E+04 1.11660E+03-5.44532E+03-4.23163E+02 2.67016E-09-5.72800E-09
 -1       859-6.19981E+04-1.31075E+03-3.28637E+03 5.51610E+03 3.38261E-10-1.17643E-08
 -1       860-6.12139E+04 1.56190E+02-1.37793E+03-4.35083E+02 1.64533E-09 8.87434E-09
 -1       861-6.14096E+04-1.83762E+02-7.59306E+02 5.53237E+03 1.49380E-09 8.31740E-09
 -1       862-6.12939E+04 2.10573E+01-3.18202E+02-4.39420E+02 7.89491E-10-3.94959E-09
 -1       863-6.13120E+04-1.95707E+01-1.21743E+02 5.53481E+03-3.23074E-09-1.80963E-08
 -1       864-6.13119E+04-4.28381E+00 3.37146E+01-4.37523E+02 9.04762E-10-5.85598E-09
 -1       865-6.12603E+04 5.54132E+01 2.24080E+02 5.52421E+03-3.96000E-09-1.06991E-08
 -1       866-6.13435E+04-5.40188E+01 4.58315E+02-4.28820E+02 1.15153E-09-5.67232E-09
 -1       867-6.10429E+04 4.46784E+02 1.13246E+03 5.50054E+03 5.40669E-09 3.30226E-08
 -1       868-6.15247E+04-3.88802E+02 1.88281E+03-4.13855E+02-7.02642E-10 1.33946E-08
 -1       869-5.96612E+04 3.23570E+03 5.01496E+03 5.46138E+03-4.51621E-11-1.28449E-08
 -1       870-6.27178E+04-2.76750E+03 7.27755E+03-3.89587E+02-2.19484E-09-6.28097E-09
 -1       871-5.34895E+03-1.92687E+04-1.86230E+04 1.24435E+05-3.57613E-09 1.14014E-08
 -1       872-1.99203E+03-2.35740E+04-7.77295E+03 1.61346E+05-9.27321E-09 4.75166E-09
 -1       873 3.13781E+02-2.15036E+04 6.26411E+02 1.24162E+05-5.30372E-09 2.84808E-09
 -1       874 3.09746E+03-1.91459E+04 9.49122E+03 1.61377E+05-1.00399E-08 2.24372E-08
 -1       875 6.55097E+03-2.37642E+04 2.13627E+04 1.24391E+05-3.87627E-09-4.12729E-09
 -1       876 2.83418E+05 4.79034E+04 1.46276E+04 1.13898E+05 3.88241E-09 2.45473E-09
 -1       877 2.84370E+05 5.09991E+04 7.81169E+03 1.18108E+05 8.86939E-09 5.70230E-09
 -1       878 2.84786E+05 4.62835E+04 3.27271E+03 1.15097E+05-1.88675E-09 6.12613E-09
 -1       879 2.82382E+05 4.90150E+04 1.63063E+03 1.18207E+05 6.18297E-09 2.29843E-08
 -1       880 2.84884E+05 4.62666E+04 7.59495E+02 1.15146E+05-1.44996E-09-4.01371E-09
 -1       881 2.82250E+05 4.89302E+04 4.05497E+02 1.18185E+05-6.12692E-09 6.86808E-09
 -1       882 2.84893E+05 4.62793E+04 2.59269E+02 1.15147E+05 9.16771E-10-5.22490E-10
 -1       883 2.82240E+05 4.89259E+04 2.78492E+02 1.18178E+05 2.40607E-09 1.45602E-09
 -1       884 2.84887E+05 4.62766E+04 4.42803E+02 1.15147E+05 7.86304E-09 1.74036E-08
 -1       885 2.82276E+05 4.89320E+04 8.90146E+02 1.18188E+05 1.07852E-09-1.17291E-09
 -1       886 2.84852E+05 4.62506E+04 1.79399E+03 1.15144E+05 8.22762E-09-9.81140E-09
 -1       887 2.82591E+05 4.91388E+04 3.91870E+03 1.18234E+05 1.66829E-08-2.69347E-09
 -1       888 2.84605E+05 4.62942E+04 7.89629E+03 1.15018E+05 6.30504E-09 4.77348E-09
 -1       889 2.87292E+05 5.40271E+04 1.88629E+04 1.18089E+05-2.98719E-10 1.54191E-08
 -1       890 2.81383E+05 5.01213E+04 3.53296E+04 1.12012E+05 8.56744E-10-2.55568E-09
 -1       891-9.97620E+01-1.57503E+05-1.92441E+03 2.67174E+04-7.35326E-10 1.20531E-09
 -1       892-1.89920E+02-1.58005E+05-2.06929E+03 4.05467E+04 9.97261E-10-5.10408E-09
 -1       893 2.83745E+01-1.57565E+05-2.93241E+03 2.67243E+04-1.98725E-10-1.99634E-09
 -1       894-1.48009E+03-1.59114E+05-6.07081E+03 4.03975E+04 9.69521E-10-9.14588E-09
 -1       895-1.17268E+03-1.56300E+05-1.06914E+04 2.68676E+04 2.43631E-10-1.91440E-08
 -1       956-3.63083E+05-5.22319E+03-1.29418E+04 2.88634E+04 4.44106E-09 9.64997E-09
 -1       957-3.65625E+05-1.82717E+03-6.64298E+03 3.46994E+04 1.69621E-10-2.29466E-09
 -1       958-3.64243E+05-2.13565E+02-2.99342E+03 2.87035E+04-1.32786E-10-6.88624E-09
 -1       959-3.64435E+05-1.10025E+02-1.52858E+03 3.48838E+04 3.63798E-09 2.08638E-09
 -1       960-3.64355E+05-2.60845E+01-7.45378E+02 2.86872E+04 3.27327E-09-9.03697E-09
 -1       961-3.64356E+05-4.07079E+01-3.95257E+02 3.49029E+04 5.18935E-09-7.98263E-09
 -1       962-3.64381E+05-2.79200E+01-2.26317E+02 2.86845E+04 3.07045E-09-2.56478E-10
 -1       963-3.64356E+05-3.70712E+01-1.81736E+02 3.49064E+04 8.40248E-09 1.19394E-09
 -1       964-3.64386E+05-2.48028E+01-2.21014E+02 2.86837E+04 8.58788E-09-1.15001E-08
 -1       965-3.64368E+05-3.40559E+01-3.82270E+02 3.49058E+04-1.64289E-09-2.47876E-08
 -1       966-3.64371E+05-1.68222E+01-7.18198E+02 2.86851E+04 2.50066E-09-4.05294E-09
 -1       967-3.64455E+05-9.44981E+01-1.47304E+03 3.48925E+04 2.65936E-09 1.55835E-08
 -1       968-3.64272E+05-1.91503E+02-2.88353E+03 2.86969E+04 1.68120E-09-7.65260E-09
 -1       969-3.65613E+05-1.74396E+03-6.40154E+03 3.47548E+04 3.07273E-09-1.41768E-08
 -1       970-3.63162E+05-5.01532E+03-1.24703E+04 2.88165E+04-3.50974E-09 2.03272E-09
 -1       971-3.33821E+05-1.68003E+03-9.09974E+03 1.50125E+04 3.35967E-09-1.08655E-08
 -1       972-3.36015E+05-1.23153E+03-4.95562E+03 2.07991E+04 3.24508E-09-1.71199E-08
 -1       973-3.34834E+05-5.23591E+01-2.21959E+03 1.48930E+04 1.33787E-09 1.17279E-08
 -1       974-3.34970E+05-6.77757E+01-1.15046E+03 2.09333E+04 3.32875E-10 2.17360E-08
 -1       975-3.34914E+05-8.62470E+00-5.75283E+02 1.48810E+04-2.49247E-09 2.93971E-09
 -1       976-3.34910E+05-1.91587E+01-3.32271E+02 2.09486E+04-6.74845E-10-3.01247E-09
 -1       977-3.34930E+05-7.99858E+00-2.41831E+02 1.48778E+04-2.53135E-09-1.06492E-08
 -1       978-3.34915E+05-1.31558E+01-2.83910E+02 2.09532E+04-9.44056E-10-1.29019E-08
 -1       979-3.34930E+05 1.57230E-01-4.56944E+02 1.48764E+04-3.03908E-09-9.18874E-09
 -1       980-3.34949E+05-1.02062E+01-8.82797E+02 2.09541E+04 2.22155E-09-5.11409E-09
 -1       981-3.34902E+05 2.22115E+01-1.71003E+03 1.48769E+04 3.44471E-10-6.13329E-09
 -1       982-3.35184E+05-1.36551E+02-3.53475E+03 2.09476E+04 4.35375E-09-1.47012E-08
 -1       983-3.34687E+05-8.72764E+01-6.86811E+03 1.48829E+04 4.31191E-09-3.61661E-09
 -1       984-3.38487E+05-3.72354E+03-1.53808E+04 2.08637E+04 6.97514E-09 8.96694E-09
 -1       985-3.31577E+05-5.11295E+03-2.82440E+04 1.49553E+04-1.98861E-09-1.03555E-08
 -3
    1PSTEP                        19          10           1          
  100CL  110 6.53320E-01         409                     0   10           1
 -4  DISP        4    1
 -5  D1          1    2    1    0
 -5  D2          1    2    2    0
 -5  D3          1    2    3    0
 -5  ALL         1    2    0    0    1ALL
 -1         1 2.38248E-03 0.00000E+00 0.00000E+00
 -1         2 1.43631E-03-5.76380E-27 0.00000E+00
 -1         3 3.28363E-04-2.25994E-27-1.32349E-23
 -1         5 1.71804E-04 3.04449E-27 1.86116E-24
 -1         8 2.36752E-03-4.76028E-07 0.00000E+00
 -1         9 2.34909E-03-9.02436E-05 0.00000E+00
 -1        10 2.97847E-04-3.47725E-06-1.32349E-23
 -1        12 1.73446E-04 7.89926E-07-1.65436E-24
 -1        15 2.34984E-03-5.15091E-07 0.00000E+00
 -1        16 2.38778E-03-9.16171E-05 0.00000E+00
 -1        17 2.03184E-04-7.85201E-06 0.00000E+00
 -1        18 1.76813E-04 3.15758E-05 0.00000E+00
 -1        19 1.78374E-04 1.57400E-06 0.00000E+00
 -1        20 1.78516E-04-7.60432E-06 0.00000E+00
 -1        21 1.77653E-04-2.05619E-05 3.30872E-24
 -1        24 3.00358E-05-1.18866E-05 0.00000E+00
 -1        25 1.86550E-04 3.17940E-05 0.00000E+00
 -1        26 1.87269E-04 2.17919E-06 0.00000E+00
 -1        27 1.85107E-04-1.10875E-05 0.00000E+00
 -1        28 1.84776E-04-2.11738E-05 0.00000E+00
 -1        32 0.00000E+00 0.00000E+00 0.00000E+00
 -1        33 1.95111E-04 2.91629E-06 0.00000E+00
 -1        34 1.93037E-04-1.11400E-05 0.00000E+00
 -1        35 1.91141E-04-2.15094E-05 0.00000E+00
 -1        51 2.38150E-03-9.33777E-08 6.61744E-24
 -1        52 2.37969E-03-1.70596E-07 0.00000E+00
 -1        53 2.37722E-03-2.45242E-07 0.00000E+00
 -1        54 2.37425E-03-3.19496E-07 0.00000E+00
 -1        55 2.37096E-03-3.95001E-07-1.65436E-24
 -1        56 2.37805E-03 1.20269E-06 5.29396E-23
 -1        57 2.37176E-03 6.90964E-06 5.29396E-23
 -1        58 2.36431E-03 1.56558E-05-1.05879E-22
 -1        59 2.35635E-03 2.56560E-05 5.29396E-23
 -1        60 2.34867E-03 3.49383E-05 0.00000E+00
 -1        61 2.34200E-03 4.15801E-05 0.00000E+00
 -1        62 2.33690E-03 4.41000E-05-1.05879E-22
 -1        63 2.33377E-03 4.13561E-05 0.00000E+00
 -1        64 2.33270E-03 3.30894E-05 1.05879E-22
 -1        65 2.33356E-03 1.95045E-05 0.00000E+00
 -1        66 2.33595E-03 1.70533E-06-1.05879E-22
 -1        67 2.33931E-03-1.88451E-05 0.00000E+00
 -1        68 2.34297E-03-4.02168E-05 0.00000E+00
 -1        69 2.34622E-03-6.04014E-05 0.00000E+00
 -1        70 2.34841E-03-7.76065E-05 0.00000E+00
 -1        86 1.49328E-03-3.30374E-06 0.00000E+00
 -1        87 1.66007E-03-1.85125E-05 0.00000E+00
 -1        88 1.88435E-03-4.41043E-05 0.00000E+00
 -1        89 2.11113E-03-7.02610E-05-1.32349E-23
 -1        90 2.28408E-03-8.64447E-05-2.64698E-23
 -1       121 3.27506E-04-5.63344E-07-1.32349E-23
 -1       122 3.24938E-04-1.12951E-06 0.00000E+00
 -1       123 3.20669E-04-1.70126E-06 0.00000E+00
 -1       124 3.14715E-04-2.28139E-06-6.61744E-24
 -1       125 3.07097E-04-2.87229E-06-1.32349E-23
 -1       191 1.71850E-04 1.31706E-07-2.06795E-24
 -1       192 1.71987E-04 2.63402E-07 1.03398E-24
 -1       193 1.72215E-04 3.95082E-07-1.03398E-24
 -1       194 1.72534E-04 5.26737E-07 1.34417E-24
 -1       195 1.72945E-04 6.58355E-07 1.86116E-24
 -1       251 2.36688E-03-7.14445E-06 1.32349E-23
 -1       252 2.36593E-03-3.29257E-05 0.00000E+00
 -1       253 2.36452E-03-7.33760E-05 0.00000E+00
 -1       254 2.36268E-03-1.23672E-04 0.00000E+00
 -1       255 2.36074E-03-1.76082E-04 0.00000E+00
 -1       256 2.35907E-03-2.22824E-04 0.00000E+00
 -1       257 2.35785E-03-2.57799E-04 0.00000E+00
 -1       258 2.35706E-03-2.75206E-04 0.00000E+00
 -1       259 2.35643E-03-2.74371E-04-2.64698E-23
 -1       260 2.35561E-03-2.55097E-04-6.61744E-24
 -1       261 2.35448E-03-2.22562E-04 2.64698E-23
 -1       262 2.35308E-03-1.82279E-04 0.00000E+00
 -1       263 2.35167E-03-1.42063E-04 2.64698E-23
 -1       264 2.35055E-03-1.09729E-04 0.00000E+00
 -1       265 2.34974E-03-9.07447E-05 0.00000E+00
 -1       266 2.36458E-03-4.89561E-07 0.00000E+00
 -1       267 2.36163E-03-4.95215E-07 0.00000E+00
 -1       268 2.35868E-03-5.01368E-07-8.27181E-25
 -1       269 2.35574E-03-5.06044E-07 0.00000E+00
 -1       270 2.35279E-03-5.10685E-07 2.06795E-25
 -1       271 2.36593E-03 1.58846E-06 0.00000E+00
 -1       272 2.36477E-03 2.42008E-06-1.32349E-23
 -1       273 2.36407E-03 2.03308E-06 0.00000E+00
 -1       274 2.36382E-03 4.43135E-07 1.32349E-23
 -1       275 2.36401E-03-2.31953E-06 0.00000E+00
 -1       276 2.36461E-03-6.21510E-06 1.32349E-23
 -1       277 2.36562E-03-1.11922E-05-2.64698E-23
 -1       278 2.36700E-03-1.71894E-05-1.32349E-23
 -1       279 2.36873E-03-2.41354E-05 0.00000E+00
 -1       280 2.37078E-03-3.19497E-05 0.00000E+00
 -1       281 2.37312E-03-4.05435E-05 0.00000E+00
 -1       282 2.37571E-03-4.98204E-05 0.00000E+00
 -1       283 2.37851E-03-5.96775E-05 0.00000E+00
 -1       284 2.38148E-03-7.00056E-05 1.32349E-23
 -1       285 2.38458E-03-8.06924E-05 0.00000E+00
 -1       301 2.35610E-03-9.04980E-05 6.61744E-24
 -1       302 2.36181E-03-9.07167E-05-6.61744E-24
 -1       303 2.36703E-03-9.09300E-05 0.00000E+00
 -1       304 2.37257E-03-9.11438E-05 0.00000E+00
 -1       305 2.37922E-03-9.13660E-05-2.64698E-23
 -1       306 2.38439E-03-2.30947E-04-1.05879E-22
 -1       307 2.44891E-03-6.17156E-04-5.29396E-23
 -1       308 2.50206E-03-1.18652E-03 0.00000E+00
 -1       309 2.53579E-03-1.85061E-03-5.29396E-23
 -1       310 2.57444E-03-2.49174E-03 0.00000E+00
 -1       311 2.63571E-03-2.99431E-03-5.29396E-23
 -1       312 2.69471E-03-3.28166E-03-1.05879E-22
 -1       313 2.69851E-03-3.31360E-03 0.00000E+00
 -1       314 2.58176E-03-3.09838E-03 0.00000E+00
 -1       315 2.30569E-03-2.69085E-03-5.29396E-23
 -1       316 1.88492E-03-2.16229E-03 0.00000E+00
 -1       317 1.37670E-03-1.58003E-03 0.00000E+00
 -1       318 8.83485E-04-1.00667E-03 0.00000E+00
 -1       319 5.03327E-04-5.07567E-04-5.29396E-23
 -1       320 2.77714E-04-1.52106E-04 0.00000E+00
 -1       336 2.86787E-04-4.14442E-06 1.32349E-23
 -1       337 2.73748E-04-4.83504E-06 0.00000E+00
 -1       338 2.58792E-04-5.55098E-06 1.32349E-23
 -1       339 2.41991E-04-6.29281E-06 6.61744E-24
 -1       340 2.23425E-04-7.06471E-06 0.00000E+00
 -1       406 1.74040E-04 9.21433E-07 2.68834E-24
 -1       407 1.74724E-04 1.05284E-06-1.03398E-24
 -1       408 1.75500E-04 1.18410E-06 2.27475E-24
 -1       409 1.76367E-04 1.31505E-06-1.44757E-24
 -1       410 1.77326E-04 1.44543E-06 8.27181E-25
 -1       521 2.42385E-03-2.41365E-04-1.05879E-22
 -1       522 2.48719E-03-6.46767E-04 0.00000E+00
 -1       523 2.53512E-03-1.24242E-03-1.05879E-22
 -1       524 2.56107E-03-1.93368E-03 0.00000E+00
 -1       525 2.59290E-03-2.60018E-03 0.00000E+00
 -1       526 2.65106E-03-3.12387E-03 5.29396E-23
 -1       527 2.70973E-03-3.42203E-03 0.00000E+00
 -1       528 2.71187E-03-3.45344E-03 0.00000E+00
 -1       529 2.58537E-03-3.22595E-03 0.00000E+00
 -1       530 2.28914E-03-2.80114E-03 0.00000E+00
 -1       531 1.83820E-03-2.25367E-03 0.00000E+00
 -1       532 1.29524E-03-1.65372E-03-5.29396E-23
 -1       533 7.67554E-04-1.06218E-03 1.05879E-22
 -1       534 3.57899E-04-5.42751E-04-5.29396E-23
 -1       535 1.13260E-04-1.68771E-04 0.00000E+00
 -1       536 2.02482E-04 2.54962E-05 0.00000E+00
 -1       537 2.00716E-04 8.33099E-05 0.00000E+00
 -1       538 1.97990E-04 1.56700E-04 3.30872E-24
 -1       539 1.94778E-04 2.36697E-04-1.65436E-24
 -1       540 1.91885E-04 3.12292E-04 0.00000E+00
 -1       541 1.90001E-04 3.72497E-04 1.65436E-24
 -1       542 1.89126E-04 4.10818E-04-3.30872E-24
 -1       543 1.88909E-04 4.20898E-04 0.00000E+00
 -1       544 1.88601E-04 4.03493E-04-3.30872E-24
 -1       545 1.87508E-04 3.59565E-04 1.65436E-24
 -1       546 1.85486E-04 2.96931E-04-3.30872E-24
 -1       547 1.82756E-04 2.23523E-04-1.65436E-24
 -1       548 1.80054E-04 1.50510E-04-3.30872E-24
 -1       549 1.78103E-04 8.90648E-05 0.00000E+00
 -1       550 1.77085E-04 4.68916E-05 0.00000E+00
 -1       551 1.79096E-04-8.40007E-06 0.00000E+00
 -1       552 1.51851E-04-9.02234E-06 0.00000E+00
 -1       553 1.22378E-04-9.70224E-06 9.92617E-24
 -1       554 9.16226E-05-1.04200E-05-6.61744E-24
 -1       555 6.05284E-05-1.11498E-05 0.00000E+00
 -1       556 1.95911E-04 1.07629E-05 0.00000E+00
 -1       557 1.90044E-04 2.58355E-05-2.64698E-23
 -1       558 1.85454E-04 3.76435E-05 5.29396E-23
 -1       559 1.82012E-04 4.64865E-05 0.00000E+00
 -1       560 1.79594E-04 5.26646E-05 0.00000E+00
 -1       561 1.78077E-04 5.64800E-05 0.00000E+00
 -1       562 1.77340E-04 5.82363E-05 0.00000E+00
 -1       563 1.77264E-04 5.82379E-05 0.00000E+00
 -1       564 1.77732E-04 5.67899E-05 0.00000E+00
 -1       565 1.78627E-04 5.41982E-05 0.00000E+00
 -1       566 1.79834E-04 5.07691E-05 0.00000E+00
 -1       567 1.81238E-04 4.68093E-05 0.00000E+00
 -1       568 1.82726E-04 4.26255E-05 8.27181E-25
 -1       569 1.84182E-04 3.85245E-05 0.00000E+00
 -1       570 1.85495E-04 3.48133E-05 0.00000E+00
 -1       571 1.76908E-04 2.96320E-05-8.27181E-25
 -1       572 1.77005E-04 2.76242E-05 0.00000E+00
 -1       573 1.77102E-04 2.55675E-05 0.00000E+00
 -1       574 1.77199E-04 2.34776E-05 8.27181E-25
 -1       575 1.77297E-04 2.13703E-05-3.30872E-24
 -1       576 1.77394E-04 1.92614E-05-1.65436E-24
 -1       577 1.77492E-04 1.71667E-05 3.30872E-24
 -1       578 1.77589E-04 1.51023E-05 0.00000E+00
 -1       579 1.77687E-04 1.30839E-05 0.00000E+00
 -1       580 1.77785E-04 1.11275E-05 0.00000E+00
 -1       581 1.77883E-04 9.24882E-06 0.00000E+00
 -1       582 1.77981E-04 7.46384E-06 0.00000E+00
 -1       583 1.78079E-04 5.78838E-06 0.00000E+00
 -1       584 1.78177E-04 4.23811E-06 3.30872E-24
 -1       585 1.78276E-04 2.82858E-06 0.00000E+00
 -1       586 1.78394E-04 3.16143E-05 0.00000E+00
 -1       587 1.79935E-04 3.16521E-05-4.13590E-25
 -1       588 1.81478E-04 3.16897E-05-8.27181E-25
 -1       589 1.83067E-04 3.17265E-05 0.00000E+00
 -1       590 1.84744E-04 3.17622E-05 0.00000E+00
 -1       591 1.77477E-04 2.97213E-05 0.00000E+00
 -1       592 1.78145E-04 2.78456E-05 2.06795E-25
 -1       593 1.78818E-04 2.59546E-05-8.27181E-25
 -1       594 1.79495E-04 2.40532E-05 0.00000E+00
 -1       595 1.80174E-04 2.21461E-05 0.00000E+00
 -1       596 1.80853E-04 2.02384E-05 0.00000E+00
 -1       597 1.81530E-04 1.83346E-05 8.27181E-25
 -1       598 1.82204E-04 1.64398E-05 0.00000E+00
 -1       599 1.82873E-04 1.45586E-05 0.00000E+00
 -1       600 1.83535E-04 1.26960E-05-4.13590E-25
 -1       601 1.84189E-04 1.08566E-05-8.27181E-25
 -1       602 1.84832E-04 9.04535E-06 2.06795E-25
 -1       603 1.85463E-04 7.26702E-06 8.27181E-25
 -1       604 1.86080E-04 5.52654E-06 1.80946E-25
 -1       605 1.86681E-04 3.82861E-06 0.00000E+00
 -1       606 1.78388E-04 5.46806E-07 0.00000E+00
 -1       607 1.78397E-04-3.93239E-07 0.00000E+00
 -1       608 1.78406E-04-1.25124E-06 0.00000E+00
 -1       609 1.78415E-04-2.03298E-06 0.00000E+00
 -1       610 1.78424E-04-2.74426E-06 0.00000E+00
 -1       611 1.78432E-04-3.39099E-06 0.00000E+00
 -1       612 1.78441E-04-3.97903E-06 0.00000E+00
 -1       613 1.78449E-04-4.51429E-06 0.00000E+00
 -1       614 1.78458E-04-5.00268E-06 0.00000E+00
 -1       615 1.78466E-04-5.45009E-06 0.00000E+00
 -1       616 1.78475E-04-5.86242E-06 0.00000E+00
 -1       617 1.78483E-04-6.24557E-06 0.00000E+00
 -1       618 1.78492E-04-6.60543E-06 0.00000E+00
 -1       619 1.78500E-04-6.94792E-06 2.06795E-25
 -1       620 1.78509E-04-7.27891E-06 0.00000E+00
 -1       621 1.79589E-04 1.67538E-06 0.00000E+00
 -1       622 1.80953E-04 1.77700E-06 0.00000E+00
 -1       623 1.82434E-04 1.87844E-06-3.30872E-24
 -1       624 1.84002E-04 1.97958E-06-8.27181E-25
 -1       625 1.85624E-04 2.08044E-06-1.65436E-24
 -1       626 1.78869E-04 5.82054E-07 3.30872E-24
 -1       627 1.79341E-04-3.45098E-07-3.30872E-24
 -1       628 1.79791E-04-1.21531E-06 0.00000E+00
 -1       629 1.80224E-04-2.03677E-06 1.65436E-24
 -1       630 1.80641E-04-2.81770E-06-3.30872E-24
 -1       631 1.81046E-04-3.56632E-06 0.00000E+00
 -1       632 1.81443E-04-4.29086E-06-3.30872E-24
 -1       633 1.81833E-04-4.99957E-06 0.00000E+00
 -1       634 1.82220E-04-5.70067E-06 3.30872E-24
 -1       635 1.82608E-04-6.40240E-06 0.00000E+00
 -1       636 1.82999E-04-7.11300E-06 3.30872E-24
 -1       637 1.83396E-04-7.84069E-06 0.00000E+00
 -1       638 1.83803E-04-8.59373E-06-1.65436E-24
 -1       639 1.84222E-04-9.38036E-06-1.65436E-24
 -1       640 1.84656E-04-1.02088E-05 0.00000E+00
 -1       656 1.79074E-04-8.17050E-06 6.61744E-24
 -1       657 1.80048E-04-8.75967E-06 0.00000E+00
 -1       658 1.81299E-04-9.34743E-06 1.32349E-23
 -1       659 1.82681E-04-9.93486E-06 0.00000E+00
 -1       660 1.84011E-04-1.05241E-05 0.00000E+00
 -1       661 1.78726E-04-7.97337E-06 0.00000E+00
 -1       662 1.78971E-04-8.43148E-06 0.00000E+00
 -1       663 1.79248E-04-8.97369E-06 0.00000E+00
 -1       664 1.79555E-04-9.59377E-06 8.27181E-25
 -1       665 1.79889E-04-1.02862E-05 0.00000E+00
 -1       666 1.80248E-04-1.10453E-05 8.27181E-25
 -1       667 1.80629E-04-1.18657E-05 0.00000E+00
 -1       668 1.81032E-04-1.27420E-05 0.00000E+00
 -1       669 1.81454E-04-1.36692E-05 1.65436E-24
 -1       670 1.81893E-04-1.46422E-05 0.00000E+00
 -1       671 1.82347E-04-1.56561E-05 1.65436E-24
 -1       672 1.82814E-04-1.67059E-05 0.00000E+00
 -1       673 1.83293E-04-1.77871E-05-1.65436E-24
 -1       674 1.83781E-04-1.88951E-05-8.27181E-25
 -1       675 1.84278E-04-2.00249E-05-4.13590E-25
 -1       676 1.78844E-04-2.06645E-05 0.00000E+00
 -1       677 1.80035E-04-2.07670E-05 0.00000E+00
 -1       678 1.81224E-04-2.08695E-05-3.30872E-24
 -1       679 1.82411E-04-2.09717E-05 0.00000E+00
 -1       680 1.83595E-04-2.10738E-05 0.00000E+00
 -1       771 1.86125E-05 1.35939E-05 5.29396E-23
 -1       772 8.99193E-06 3.45218E-05 0.00000E+00
 -1       773 1.08776E-06 5.11181E-05 5.29396E-23
 -1       774-5.21774E-06 6.36299E-05 2.64698E-23
 -1       775-1.00399E-05 7.23138E-05 5.29396E-23
 -1       776-1.34987E-05 7.74426E-05 0.00000E+00
 -1       777-1.57141E-05 7.92980E-05 5.29396E-23
 -1       778-1.68085E-05 7.81750E-05 2.64698E-23
 -1       779-1.69037E-05 7.43764E-05-5.29396E-23
 -1       780-1.61235E-05 6.82156E-05 0.00000E+00
 -1       781-1.45911E-05 6.00123E-05-5.29396E-23
 -1       782-1.24311E-05 5.00948E-05 0.00000E+00
 -1       783-9.76710E-06 3.87952E-05 0.00000E+00
 -1       784-6.72424E-06 2.64519E-05 2.64698E-23
 -1       785-3.42661E-06 1.34057E-05 5.29396E-23
 -1       786 1.86591E-04 2.97341E-05 5.16988E-26
 -1       787 1.86635E-04 2.77507E-05 0.00000E+00
 -1       788 1.86679E-04 2.58204E-05 8.27181E-25
 -1       789 1.86724E-04 2.39197E-05 8.27181E-25
 -1       790 1.86770E-04 2.20399E-05 1.65436E-24
 -1       791 1.86815E-04 2.01721E-05 0.00000E+00
 -1       792 1.86860E-04 1.83132E-05 0.00000E+00
 -1       793 1.86905E-04 1.64603E-05 8.27181E-25
 -1       794 1.86951E-04 1.46133E-05-1.65436E-24
 -1       795 1.86996E-04 1.27722E-05 0.00000E+00
 -1       796 1.87041E-04 1.09399E-05 1.65436E-24
 -1       797 1.87087E-04 9.11917E-06 0.00000E+00
 -1       798 1.87132E-04 7.31853E-06 0.00000E+00
 -1       799 1.87178E-04 5.54659E-06 0.00000E+00
 -1       800 1.87223E-04 3.82591E-06 0.00000E+00
 -1       801 1.43177E-04 2.85335E-05 2.64698E-23
 -1       802 1.19299E-05 1.78874E-05 0.00000E+00
 -1       803-1.00580E-04 9.09023E-06 0.00000E+00
 -1       804-8.98586E-05 6.30406E-06 0.00000E+00
 -1       805-2.97644E-05 2.52103E-06 5.29396E-23
 -1       806 1.87215E-04 2.96532E-05 0.00000E+00
 -1       807 1.87867E-04 2.75380E-05 0.00000E+00
 -1       808 1.88506E-04 2.54535E-05 0.00000E+00
 -1       809 1.89132E-04 2.34037E-05 1.65436E-24
 -1       810 1.89744E-04 2.13926E-05 0.00000E+00
 -1       811 1.90339E-04 1.94239E-05 0.00000E+00
 -1       812 1.90917E-04 1.75016E-05 3.30872E-24
 -1       813 1.91477E-04 1.56295E-05-1.65436E-24
 -1       814 1.92016E-04 1.38114E-05 1.65436E-24
 -1       815 1.92534E-04 1.20510E-05-8.27181E-25
 -1       816 1.93028E-04 1.03524E-05-3.30872E-24
 -1       817 1.93499E-04 8.71915E-06-8.27181E-25
 -1       818 1.93943E-04 7.15515E-06 0.00000E+00
 -1       819 1.94361E-04 5.66419E-06-1.65436E-24
 -1       820 1.94750E-04 4.25000E-06-1.65436E-24
 -1       821 1.87142E-04 9.20074E-08 1.65436E-24
 -1       822 1.87004E-04-2.94532E-06 1.65436E-24
 -1       823 1.86866E-04-6.56761E-06 0.00000E+00
 -1       824 1.86725E-04-1.04061E-05-1.65436E-24
 -1       825 1.86585E-04-1.40341E-05-3.30872E-24
 -1       826 1.86446E-04-1.70262E-05 0.00000E+00
 -1       827 1.86310E-04-1.91287E-05 0.00000E+00
 -1       828 1.86175E-04-2.00929E-05 0.00000E+00
 -1       829 1.86041E-04-1.99776E-05 3.30872E-24
 -1       830 1.85906E-04-1.88477E-05 0.00000E+00
 -1       831 1.85770E-04-1.70418E-05 3.30872E-24
 -1       832 1.85634E-04-1.49029E-05 0.00000E+00
 -1       833 1.85498E-04-1.28636E-05 0.00000E+00
 -1       834 1.85365E-04-1.13560E-05 1.65436E-24
 -1       835 1.85232E-04-1.06693E-05 8.27181E-25
 -1       836 1.88786E-04 2.30147E-06 0.00000E+00
 -1       837 1.90175E-04 2.42679E-06 0.00000E+00
 -1       838 1.91469E-04 2.55204E-06-3.30872E-24
 -1       839 1.92701E-04 2.67659E-06 0.00000E+00
 -1       840 1.93904E-04 2.80097E-06 0.00000E+00
 -1       856 1.85090E-04-1.19882E-05-8.27181E-25
 -1       857 1.85069E-04-1.27551E-05 0.00000E+00
 -1       858 1.85049E-04-1.34089E-05 4.13590E-25
 -1       859 1.85029E-04-1.39706E-05 2.06795E-25
 -1       860 1.85008E-04-1.44612E-05 0.00000E+00
 -1       861 1.84987E-04-1.49016E-05-2.06795E-25
 -1       862 1.84967E-04-1.53128E-05 0.00000E+00
 -1       863 1.84946E-04-1.57160E-05 0.00000E+00
 -1       864 1.84925E-04-1.61322E-05 0.00000E+00
 -1       865 1.84904E-04-1.65825E-05-4.13590E-25
 -1       866 1.84883E-04-1.70879E-05-8.27181E-25
 -1       867 1.84863E-04-1.76694E-05-4.13590E-25
 -1       868 1.84842E-04-1.83479E-05 0.00000E+00
 -1       869 1.84820E-04-1.91443E-05-4.13590E-25
 -1       870 1.84799E-04-2.00794E-05 8.27181E-25
 -1       871 1.86289E-04-1.10919E-05-8.27181E-25
 -1       872 1.87616E-04-1.10997E-05 0.00000E+00
 -1       873 1.89020E-04-1.11080E-05 4.13590E-25
 -1       874 1.90437E-04-1.11172E-05-2.58494E-26
 -1       875 1.91798E-04-1.11269E-05 8.27181E-25
 -1       876 1.85569E-04-1.19740E-05-3.30872E-24
 -1       877 1.86010E-04-1.27947E-05 0.00000E+00
 -1       878 1.86430E-04-1.35574E-05 0.00000E+00
 -1       879 1.86830E-04-1.42694E-05 0.00000E+00
 -1       880 1.87215E-04-1.49382E-05 0.00000E+00
 -1       881 1.87586E-04-1.55708E-05 0.00000E+00
 -1       882 1.87947E-04-1.61746E-05 0.00000E+00
 -1       883 1.88299E-04-1.67568E-05-1.65436E-24
 -1       884 1.88646E-04-1.73247E-05 0.00000E+00
 -1       885 1.88990E-04-1.78855E-05 1.65436E-24
 -1       886 1.89335E-04-1.84464E-05 0.00000E+00
 -1       887 1.89682E-04-1.90147E-05 1.65436E-24
 -1       888 1.90034E-04-1.95976E-05 0.00000E+00
 -1       889 1.90393E-04-2.02026E-05 1.65436E-24
 -1       890 1.90764E-04-2.08368E-05 0.00000E+00
 -1       891 1.85978E-04-2.12302E-05-1.65436E-24
 -1       892 1.87156E-04-2.12867E-05 8.27181E-25
 -1       893 1.88286E-04-2.13431E-05 0.00000E+00
 -1       894 1.89344E-04-2.13993E-05 4.13590E-25
 -1       895 1.90304E-04-2.14553E-05 0.00000E+00
 -1       956 1.94983E-04 1.75264E-06 1.65436E-24
 -1       957 1.94854E-04 6.77907E-07-8.27181E-25
 -1       958 1.94724E-04-3.18303E-07 0.00000E+00
 -1       959 1.94594E-04-1.24695E-06 0.00000E+00
 -1       960 1.94464E-04-2.11904E-06 3.30872E-24
 -1       961 1.94334E-04-2.94560E-06 0.00000E+00
 -1       962 1.94204E-04-3.73769E-06 0.00000E+00
 -1       963 1.94074E-04-4.50639E-06 1.65436E-24
 -1       964 1.93944E-04-5.26274E-06 0.00000E+00
 -1       965 1.93814E-04-6.01780E-06-1.65436E-24
 -1       966 1.93684E-04-6.78266E-06 3.30872E-24
 -1       967 1.93554E-04-7.56837E-06 1.65436E-24
 -1       968 1.93424E-04-8.38598E-06 0.00000E+00
 -1       969 1.93294E-04-9.24653E-06 0.00000E+00
 -1       970 1.93165E-04-1.01610E-05 3.30872E-24
 -1       971 1.92920E-04-1.21167E-05 0.00000E+00
 -1       972 1.92801E-04-1.29998E-05 0.00000E+00
 -1       973 1.92682E-04-1.37995E-05-3.30872E-24
 -1       974 1.92563E-04-1.45265E-05 1.65436E-24
 -1       975 1.92443E-04-1.51916E-05-3.30872E-24
 -1       976 1.92324E-04-1.58056E-05-1.65436E-24
 -1       977 1.92205E-04-1.63792E-05 0.00000E+00
 -1       978 1.92086E-04-1.69233E-05-1.65436E-24
 -1       979 1.91967E-04-1.74487E-05 0.00000E+00
 -1       980 1.91848E-04-1.79662E-05 0.00000E+00
 -1       981 1.91729E-04-1.84865E-05 0.00000E+00
 -1       982 1.91610E-04-1.90206E-05 1.65436E-24
 -1       983 1.91491E-04-1.95791E-05-3.30872E-24
 -1       984 1.91373E-04-2.01730E-05 0.00000E+00
 -1       985 1.91255E-04-2.08129E-05 0.00000E+00
 -3
    1PSTEP                        20          10           1          
  100CL  110 6.53320E-01         409                     0   10           1
 -4  STRESS      6    1
 -5  SXX         1    4    1    1
 -5  SYY         1    4    2    2
 -5  SZZ         1    4    3    3
 -5  SXY         1    4    1    2
 -5  SYZ         1    4    2    3
 -5  SZX         1    4    3    1
 -1         1-4.75554E+06-1.68005E+06-1.03578E+06-1.59452E+06 2.32831E-10 2.05153E-07
 -1         2 6.12866E+05 8.39902E+06 2.31378E+06 2.77133E+06 1.74186E-08-7.03076E-08
 -1         3-1.35474E+03-1.60061E+06 4.07568E+02-2.16795E+03-6.28237E-10 1.22345E-08
 -1         5-5.97412E+01 3.77094E+05 9.74166E+00-1.14038E+00-4.32358E-10-9.53332E-09
 -1         8-7.90489E+05-2.55855E+05-9.89797E+04-3.33074E+05 4.83851E-10 1.78497E-07
 -1         9 9.58179E+06 1.32211E+06 1.96284E+06-7.20337E+05 3.46918E-09 2.07894E-07
 -1        10-2.21345E+03-1.66796E+06-3.92500E+03-1.46571E+04-1.37061E-08-2.58767E-08
 -1        12-5.58777E+01 3.77115E+05 3.19304E+02-7.84958E+00-7.29031E-10 1.00226E-08
 -1        15 1.16351E+03 6.39408E+02 3.76101E+03 1.48251E+00 4.29310E-11 1.76737E-07
 -1        16 1.99742E+07-2.08454E+05 2.77120E+06-1.73640E+06 1.43967E-08-6.11568E-08
 -1        17 7.26146E+06 5.29488E+06 1.95669E+06 5.13546E+06 1.96073E-08 3.77535E-08
 -1        18 1.26721E+05 2.92547E+04 1.00670E+03-1.15811E+05 1.40458E-08-1.15188E-09
 -1        19 1.19666E+05 1.38313E+05-9.42183E+02 2.17410E+04 1.41845E-09-2.71793E-09
 -1        20-7.83435E+04-5.61167E+05-1.25794E+05 2.55841E+04-1.07048E-09-1.79474E-10
 -1        21-4.52928E+01-2.91706E+05-9.12645E+02 2.38343E+02 1.66638E-08-1.79299E-08
 -1        24 1.19807E+07 1.02238E+07 3.34844E+06 9.49722E+06-1.63040E-07-5.51809E-08
 -1        25 9.87296E+04 1.66554E+05 7.45704E+04-5.86155E+05-1.30203E-09 8.81100E-09
 -1        26-5.29770E+04 9.01079E+04-2.40192E+04 6.04541E+02-9.96806E-11-1.29191E-09
 -1        27-7.55038E+04-3.03594E+05-1.11281E+05 6.75739E+04 4.43849E-09 1.95299E-09
 -1        28 2.19732E+04-8.38715E+04 1.66424E+04 2.06751E+04-2.74821E-09-6.06614E-09
 -1        32-1.65375E+06-3.08027E+06-1.84661E+05 3.50621E+05-4.14148E-08-1.12610E-08
 -1        33-1.74818E+05 9.07169E+04 3.16579E+04-3.84972E+04-2.56440E-09 6.12151E-09
 -1        34-2.19346E+05-2.43479E+04 6.66946E+02 7.37574E+04-3.57281E-09-1.09538E-08
 -1        35-2.26257E+04-3.32649E+04-1.32404E+03 5.07554E+04-2.95060E-09 1.10740E-08
 -1        51 5.34962E+04-1.97562E+05 1.14641E+05-5.77729E+05-5.82077E-11 4.94547E-08
 -1        52 1.89140E+04-1.78600E+05 6.13087E+04-6.73657E+05 6.07542E-10 4.28408E-08
 -1        53 4.83276E+03-1.94010E+05 3.37915E+04-5.75668E+05 2.94676E-10 4.02360E-09
 -1        54 1.02104E+04-1.90123E+05 3.15148E+04-6.75751E+05-2.54659E-10-3.87343E-07
 -1        55 2.17238E+04-1.98889E+05 4.27241E+04-5.75440E+05 1.38243E-10-2.81943E-07
 -1        56-8.84163E+06-1.03603E+06-7.69615E+05-3.50178E+06-2.16678E-08 1.29803E-08
 -1        57-9.48408E+06-1.37811E+06-5.15711E+05-3.07583E+06 4.68863E-08 2.44036E-08
 -1        58-8.93422E+06-1.33168E+06-1.79809E+05-3.51373E+06 8.18545E-10 1.51282E-07
 -1        59-9.35774E+06-1.04758E+06-1.06740E+05-3.08828E+06-3.58177E-08 8.23820E-09
 -1        60-8.96954E+06-1.35532E+06-4.25595E+04-3.49501E+06 3.30147E-08 1.09794E-08
 -1        61-9.23518E+06-1.08852E+06-2.10998E+04-3.17665E+06-2.41462E-08 2.09271E-07
 -1        62-9.04731E+06-1.29566E+06-1.53449E+04-3.41897E+06-1.87174E-08-2.11330E-08
 -1        63-9.06074E+06-1.24206E+06-5.05185E+03-3.35133E+06 4.06799E-08 1.10937E-07
 -1        64-9.13662E+06-1.20667E+06-1.46108E+04-3.31520E+06 7.54517E-09 3.05326E-08
 -1        65-8.92125E+06-1.40069E+06-1.86613E+04-3.54083E+06-1.32350E-08-1.58233E-08
 -1        66-9.19371E+06-1.13244E+06-3.81969E+04-3.23454E+06-8.62383E-09 8.15216E-08
 -1        67-8.88224E+06-1.51447E+06-9.50905E+04-3.63893E+06-6.92135E-08 1.22884E-07
 -1        68-9.18545E+06-1.08750E+06-1.60268E+05-3.22342E+06-3.87008E-08-1.09707E-07
 -1        69-9.06196E+06-1.74166E+06-4.59570E+05-3.54910E+06-7.82074E-08-1.25008E-07
 -1        70-9.01234E+06-9.15593E+05-6.86553E+05-3.31939E+06 7.87986E-09 6.52799E-08
 -1        86-6.22414E+05-8.75313E+06-1.26194E+06-1.32804E+06-1.79309E-07 2.08674E-08
 -1        87 8.96446E+05 1.44205E+06 1.04823E+06 2.93262E+06-3.10763E-07 1.38416E-08
 -1        88-1.27294E+05-2.59930E+06 8.38278E+04-1.57608E+06-2.80383E-07-2.70256E-09
 -1        89 1.21464E+06 1.31000E+06 1.05066E+06 3.00803E+06-4.08847E-07-1.03159E-07
 -1        90-9.07331E+05-8.65160E+06-1.38940E+06-1.41006E+06-9.76543E-08 8.12288E-08
 -1       121-1.86104E+03-1.60511E+06-4.54697E+02 1.07558E+03 1.29360E-09-4.43833E-09
 -1       122-1.17014E+03-1.60067E+06 7.85315E+02-4.33727E+03-5.12483E-09-4.76721E-08
 -1       123-1.88751E+03-1.60524E+06 3.82806E+02 3.21175E+03 3.89537E-09-8.35644E-09
 -1       124 4.93461E+02-1.60016E+06 3.04677E+03-9.06191E+03-9.76706E-09-1.28130E-08
 -1       125-2.73087E+03-1.60616E+06 3.70652E+03 5.76086E+03 6.12999E-09-2.31994E-08
 -1       191-6.30170E+01 3.77115E+05 8.97711E+00 5.90598E-01-5.28670E-10 1.38698E-08
 -1       192-6.06719E+01 3.77095E+05 2.07549E+01-3.73199E+00-7.36712E-10-4.51291E-09
 -1       193-6.54720E+01 3.77114E+05 3.60043E+01 3.26682E+00-9.23023E-10-3.76895E-09
 -1       194-6.36580E+01 3.77098E+05 7.88189E+01-8.49500E+00-4.81267E-10-1.23155E-08
 -1       195-7.01851E+01 3.77112E+05 1.51569E+02 5.49399E+00-1.34958E-09 3.30147E-09
 -1       251-1.92505E+06 2.15145E+04-1.47909E+05 5.15080E+04-3.05408E-09-1.77766E-07
 -1       252-1.58362E+06-2.53262E+04-2.99268E+04-1.84937E+05-1.49812E-08-4.87780E-08
 -1       253-1.80311E+06-1.60322E+03-3.63584E+04 1.62019E+05 4.22824E-09-1.57866E-07
 -1       254-1.75348E+06 1.66052E+04-8.10009E+03-3.09332E+05 7.86650E-09 4.23506E-08
 -1       255-1.77281E+06-4.44046E+03-8.11909E+03 1.76793E+05-1.11900E-08-1.17070E-08
 -1       256-1.63211E+06 1.82975E+04 2.65325E+04-2.38653E+05 1.67893E-08 6.48688E-08
 -1       257-1.91367E+06-1.38117E+04-3.31234E+04 9.06793E+04-1.23946E-08-1.03417E-07
 -1       258-1.45758E+06 1.25877E+04 6.14943E+04-1.03005E+04 2.16569E-08-6.54450E-08
 -1       259-1.93096E+06-1.33583E+04-3.46108E+04-5.14545E+04 4.58240E-08-4.15440E-08
 -1       260-1.59285E+06 1.43092E+04 3.81429E+04 2.32091E+05 7.95762E-09-5.26499E-08
 -1       261-1.79109E+06-3.18572E+03-1.25029E+03-1.51037E+05-2.35918E-08-1.13075E-07
 -1       262-1.74445E+06 2.14543E+04 1.57746E+04 3.30652E+05 2.63420E-08 3.56931E-08
 -1       263-1.79391E+06-7.03936E+03 6.85918E+03-1.50523E+05-2.39788E-09 3.14705E-07
 -1       264-1.57634E+06 4.63693E+04 7.15250E+04 2.30799E+05-6.35328E-08 2.14995E-07
 -1       265-1.94458E+06-4.18055E+04 7.02043E+03-5.06784E+04-1.57543E-08 3.53642E-07
 -1       266-2.10634E+04-9.84973E+03 4.94186E+04-3.17202E+01 1.20053E-10 6.95991E-08
 -1       267 2.44182E+04 1.14794E+04 3.49295E+04 3.66001E+01 5.86624E-11-9.33557E-08
 -1       268-3.27444E+03-1.62583E+03 1.29831E+04-4.66342E+00-1.20053E-10-3.18408E-08
 -1       269 3.86615E+03 1.94573E+03 8.43884E+03 5.43227E+00 2.91038E-11 2.31296E-07
 -1       270-5.80312E+02-3.19700E+02 4.07355E+03-7.37193E-01 1.13687E-11 7.18290E-08
 -1       271-1.83306E+06-2.25464E+05-1.35237E+05-7.06474E+05 1.04292E-08 3.40879E-08
 -1       272-1.88842E+06-3.15294E+05-8.66884E+04-6.95499E+05 3.88559E-08 8.17090E-09
 -1       273-1.85960E+06-2.57951E+05-3.21266E+04-6.99140E+05 1.74259E-09 3.14218E-07
 -1       274-1.85626E+06-2.76535E+05-1.77342E+04-7.07457E+05-1.30876E-09 2.05305E-07
 -1       275-1.86472E+06-2.59820E+05-7.63834E+03-6.96248E+05 3.52720E-08 7.35536E-08
 -1       276-1.84906E+06-2.75580E+05-3.79369E+03-7.13026E+05-3.55976E-09-1.07460E-07
 -1       277-1.86706E+06-2.58256E+05-2.05491E+03-6.93976E+05-1.86083E-09-6.84668E-08
 -1       278-1.84545E+06-2.78592E+05-1.13486E+03-7.17580E+05 3.57250E-09-2.62382E-08
 -1       279-1.86878E+06-2.56486E+05-1.28954E+03-6.92029E+05-4.69227E-08-2.14741E-08
 -1       280-1.84298E+06-2.81756E+05-1.87488E+03-7.21438E+05 3.29078E-08 1.16115E-08
 -1       281-1.87003E+06-2.54796E+05-3.53432E+03-6.90460E+05-1.23173E-08 3.15175E-07
 -1       282-1.84256E+06-2.86339E+05-8.16982E+03-7.24239E+05-2.57805E-08 3.62578E-07
 -1       283-1.86970E+06-2.51817E+05-1.46147E+04-6.89479E+05 3.30128E-08 1.25729E-08
 -1       284-1.85391E+06-3.07786E+05-3.97120E+04-7.23417E+05 3.01079E-08-1.14066E-07
 -1       285-1.85933E+06-2.35114E+05-6.17299E+04-6.90820E+05-5.52318E-08-1.29054E-07
 -1       301 8.34249E+03-5.57906E+05 1.70848E+05-9.73016E+05-2.08092E-09-1.48670E-07
 -1       302 9.35620E+03-5.13633E+05 1.03410E+05-1.42190E+06-1.64800E-08-2.32350E-07
 -1       303-9.98335E+03-5.45735E+05 6.11079E+04-9.70539E+05 6.45377E-09-1.78054E-07
 -1       304-5.21532E+03-5.17711E+05 6.61672E+04-1.42110E+06 2.99769E-09 8.15489E-08
 -1       305-9.80357E+03-5.39326E+05 8.74484E+04-9.73478E+05 8.50559E-09 1.42609E-08
 -1       306-2.77930E+07-5.67688E+06-7.78110E+06-9.85689E+05-5.80912E-08-8.92323E-08
 -1       307 2.31479E+07 2.30413E+06 5.00434E+06-1.34384E+07-8.52509E-07-1.08965E-07
 -1       308-7.55217E+06-8.14326E+05-5.30378E+05 4.73316E+06-7.50006E-08 2.81143E-07
 -1       309-3.47063E+06 7.02433E+06 1.93559E+06-1.91955E+07 2.72965E-07 2.74249E-07
 -1       310-1.14660E+07-1.43059E+06-1.59374E+06 4.63762E+06-1.82597E-07-2.30371E-07
 -1       311 3.22337E+07-1.48940E+05 6.28482E+06-8.77194E+06 8.09378E-08-4.44124E-07
 -1       312-2.89946E+07-5.88921E+06-7.47485E+06-4.20181E+06 1.47382E-07-8.12870E-08
 -1       313 4.10709E+07 1.18598E+07 9.50467E+06 1.99973E+07 1.01165E-07 3.13303E-07
 -1       314-1.69370E+07-1.53041E+07-6.75411E+06-1.15517E+07 2.42901E-07-3.78350E-09
 -1       315-1.10985E+06 2.57987E+07 5.15076E+06 1.06086E+07-5.30694E-07 1.32015E-07
 -1       316 6.41025E+05-9.34475E+06-4.94573E+05-3.23181E+06-1.24978E-06-1.57714E-07
 -1       317-1.70880E+07 2.05127E+07 1.90021E+06-6.75223E+06 5.52696E-07-6.63094E-07
 -1       318-1.20429E+06-1.12237E+07-1.63858E+06-4.39687E+06-8.55798E-07 1.12399E-07
 -1       319 5.54017E+06 2.72880E+07 6.05466E+06 1.45030E+07-3.81333E-08 1.93162E-07
 -1       320-2.07435E+07-1.54665E+07-8.69103E+06-1.15676E+07 1.73226E-07-5.14265E-08
 -1       336-4.96687E+02-1.73759E+06-1.38111E+04 8.75002E+03-2.58315E-08 1.87865E-08
 -1       337-5.33492E+03-1.73765E+06-1.79850E+04-2.11968E+04-4.72646E-08-1.10722E-08
 -1       338 4.41972E+02-1.73711E+06-2.80323E+04 1.22295E+04-3.32429E-08-1.72658E-08
 -1       339-2.97552E+04-1.75450E+06-6.34438E+04-2.79962E+04-5.95010E-08 7.97081E-09
 -1       340 1.97614E+04-1.72277E+06-9.97959E+04 1.54287E+04-3.93702E-08 2.29011E-08
 -1       406-3.40874E+01 3.77098E+05 6.27650E+02 2.75323E+00-1.73723E-09 4.29100E-09
 -1       407 1.64224E+02 3.77225E+05 1.33981E+03 2.12033E+01-3.45601E-10-3.87990E-09
 -1       408 6.31995E+02 3.77000E+05 2.67237E+03-2.43414E+01-2.15891E-09 8.85484E-09
 -1       409 2.84174E+03 3.78079E+05 6.02181E+03 2.57580E+02-1.77806E-10-9.93077E-09
 -1       410 8.26473E+03 3.76233E+05 1.22909E+04-2.47872E+02-2.31921E-09-2.67519E-08
 -1       521-2.93245E+07-6.96755E+06-9.07276E+06-6.56525E+05-1.13389E-07-1.99361E-07
 -1       522 2.38996E+07 3.03583E+06 5.08296E+06-1.66181E+07-5.18281E-07-5.18368E-07
 -1       523-8.25999E+06-1.09744E+06-5.38702E+05 5.17219E+06 1.33645E-07-5.28205E-07
 -1       524-6.68915E+06 9.61732E+06 2.09284E+06-2.21457E+07 1.13690E-06-3.50756E-07
 -1       525-1.23776E+07-1.94839E+06-1.75001E+06 5.06773E+06 3.64438E-07-3.02331E-07
 -1       526 3.49789E+07-2.03903E+05 6.59877E+06-1.12726E+07-1.19617E-07 3.36702E-07
 -1       527-3.07591E+07-7.38054E+06-8.59302E+06-4.08810E+06-1.03144E-07 1.76442E-07
 -1       528 4.48319E+07 1.30441E+07 9.90804E+06 2.26357E+07-1.08266E-07-1.24564E-07
 -1       529-1.79312E+07-1.72854E+07-7.73091E+06-1.16973E+07 2.08616E-07-4.38886E-08
 -1       530-3.41798E+06 3.00065E+07 5.44244E+06 1.04611E+07-4.04107E-07 6.75849E-07
 -1       531 5.80950E+05-1.04601E+07-4.88038E+05-3.33400E+06-9.01025E-07 2.86876E-07
 -1       532-1.99345E+07 2.26898E+07 2.07927E+06-1.03714E+07 5.22516E-07-5.18528E-07
 -1       533-1.27391E+06-1.23644E+07-1.73158E+06-4.39329E+06-2.13564E-07-9.42382E-07
 -1       534 3.56835E+06 3.16559E+07 6.29881E+06 1.50172E+07-6.65896E-08 7.20844E-07
 -1       535-2.18834E+07-1.75903E+07-9.92564E+06-1.17119E+07 9.10368E-08 4.33531E-07
 -1       536-6.81128E+05-4.59446E+04-3.73017E+04-5.12422E+04-9.77070E-09 6.63076E-08
 -1       537-7.92640E+04 4.44759E+04 8.20925E+04 1.17269E+05-1.06941E-07 7.31384E-08
 -1       538-3.93334E+05 2.64070E+03 5.08136E+03-6.88815E+04 1.80722E-08 1.04457E-07
 -1       539-2.78006E+05 2.99527E+03 2.39247E+04 1.31963E+05 1.32668E-07 1.05324E-07
 -1       540-4.87339E+05-3.48114E+02-1.90416E+04-6.64065E+04 1.88741E-08 9.43174E-08
 -1       541 1.04381E+05 1.56158E+04 9.80522E+04 9.22808E+04-1.64619E-08 8.24942E-08
 -1       542-7.65427E+05-1.85652E+04-7.74307E+04-2.84312E+04 3.79341E-08 4.62982E-08
 -1       543 3.42405E+05 2.51696E+04 1.45319E+05-1.27995E+04-1.91530E-08-3.17618E-08
 -1       544-7.18987E+05-1.51807E+04-6.87885E+04 3.80838E+04-1.61949E-08-5.49931E-08
 -1       545-4.68917E+03 8.58895E+03 7.30841E+04-1.07622E+05 3.28797E-08-9.30759E-08
 -1       546-4.27640E+05 5.72551E+03-1.13308E+04 6.60896E+04 4.12276E-08-9.01003E-08
 -1       547-2.95034E+05-4.68413E+03 9.06937E+03-1.34743E+05-1.33632E-07-1.09655E-07
 -1       548-4.36433E+05 4.60015E+03-2.28683E+04 6.58116E+04-1.07457E-07-9.11546E-08
 -1       549 1.38640E+04 1.30587E+04 5.33843E+04-1.05326E+05-6.24777E-08-4.59438E-08
 -1       550-7.28268E+05-1.89216E+04-1.22142E+05 3.60423E+04 6.67387E-09-3.80278E-08
 -1       551 3.89754E+04-7.63962E+05-1.05867E+04-1.22808E+06-9.58971E-08 1.33878E-09
 -1       552 8.86678E+04-8.05612E+05 1.29566E+04-1.75125E+06-6.82485E-08 3.05590E-08
 -1       553 6.78708E+04-8.03046E+05 3.41257E+04-1.22172E+06-1.14727E-07 2.46655E-08
 -1       554 1.26282E+05-8.19536E+05 8.35865E+04-1.75320E+06-7.15372E-08 2.53440E-08
 -1       555 9.75665E+04-8.26192E+05 1.51913E+05-1.22167E+06-1.18554E-07-1.24601E-08
 -1       556 2.12644E+05-3.67000E+05 3.32477E+04-3.95590E+05-2.51748E-08-2.78233E-08
 -1       557 3.39568E+05-4.68407E+05 1.98142E+04-5.10947E+05 8.14907E-10-4.22369E-09
 -1       558 1.96248E+05-3.61882E+05 4.24855E+03-3.98402E+05-1.86847E-08-2.35741E-09
 -1       559 3.15439E+05-4.69788E+05 3.28675E+03-5.29938E+05 2.05473E-08 3.56522E-09
 -1       560 1.82160E+05-3.53032E+05-8.86706E+02-4.08504E+05 1.07684E-08-1.46756E-08
 -1       561 2.97635E+05-4.62735E+05 3.61951E+02-5.42028E+05 1.00990E-08 1.28475E-08
 -1       562 1.71025E+05-3.46098E+05-1.08693E+03-4.16557E+05-2.40107E-09-2.09548E-09
 -1       563 2.84420E+05-4.56973E+05 3.02894E+01-5.50647E+05-1.28057E-09-5.09590E-09
 -1       564 1.63113E+05-3.41164E+05-5.06031E+02-4.22160E+05 2.45927E-09-5.99312E-09
 -1       565 2.75719E+05-4.53184E+05 4.33655E+01-5.56203E+05 7.29051E-09 1.87902E-09
 -1       566 1.58541E+05-3.38270E+05-2.19828E+02-4.25358E+05-6.89761E-09-1.45810E-08
 -1       567 2.71576E+05-4.51381E+05-3.25051E+02-5.58709E+05 1.77970E-08 8.24002E-09
 -1       568 1.57393E+05-3.37569E+05-1.03311E+03-4.26258E+05-7.83621E-09-2.90675E-09
 -1       569 2.70657E+05-4.51321E+05-2.61232E+03-5.57212E+05-6.93763E-09-2.18279E-10
 -1       570 1.60719E+05-3.40686E+05-5.73468E+03-4.25294E+05 1.67784E-08 1.27084E-08
 -1       571 2.83921E+05 1.02604E+04 1.46923E+04-9.15200E+04-5.56156E-09-2.86400E-09
 -1       572 2.86055E+05 3.83874E+03 7.20023E+03-1.00404E+05-1.06811E-08-3.44880E-09
 -1       573 2.84769E+05 1.18165E+03 3.19926E+03-9.13470E+04-3.98541E-09-1.35788E-09
 -1       574 2.84983E+05 6.69054E+02 1.60430E+03-1.00622E+05-1.29262E-09 5.13865E-10
 -1       575 2.84861E+05 3.99705E+02 7.57147E+02-9.13234E+04-4.05416E-09-2.91311E-09
 -1       576 2.84849E+05 4.07181E+02 3.87564E+02-1.00651E+05-6.80393E-09-1.04401E-08
 -1       577 2.84898E+05 3.44176E+02 1.93464E+02-9.13201E+04-5.99175E-09-6.72844E-09
 -1       578 2.84874E+05 3.72092E+02 1.11622E+02-1.00655E+05-7.64476E-09 2.08274E-09
 -1       579 2.84963E+05 3.11167E+02 7.67121E+01-9.13198E+04 7.33780E-09-3.05317E-09
 -1       580 2.84967E+05 3.25841E+02 8.87698E+01-1.00650E+05-6.30098E-09-7.55335E-09
 -1       581 2.85068E+05 2.58182E+02 1.34354E+02-9.13255E+04 5.28780E-09-3.75439E-09
 -1       582 2.85129E+05 2.94302E+02 2.72666E+02-1.00591E+05 5.44787E-10 4.23097E-09
 -1       583 2.85195E+05 3.05027E+02 5.24073E+02-9.13796E+04 5.49335E-10 1.00456E-08
 -1       584 2.85484E+05 7.31707E+02 1.18516E+03-1.00135E+05 4.33101E-09-1.48020E-10
 -1       585 2.85211E+05 1.73421E+03 2.40091E+03-9.17810E+04-5.09317E-11-9.50604E-09
 -1       586-3.37719E+03 1.12287E+05-3.01085E+03-2.46493E+05-4.90854E-09 3.05090E-09
 -1       587-1.26385E+03 1.12013E+05 6.70160E+02-2.71286E+05-5.09681E-09-8.12179E-10
 -1       588 4.52166E+02 1.11848E+05 4.60407E+03-2.46359E+05-6.85395E-09 1.28039E-08
 -1       589 5.03462E+03 1.14250E+05 1.20173E+04-2.71052E+05-6.23368E-09 2.18424E-08
 -1       590 1.62654E+04 1.10547E+05 2.52385E+04-2.46782E+05-5.24960E-09 3.65071E-09
 -1       591-7.05696E+04-1.53970E+04-2.17096E+04-3.04857E+04-2.96291E-09-9.92986E-09
 -1       592-7.44042E+04-1.89310E+04-1.17596E+04-3.41001E+04 1.10128E-09 6.74402E-09
 -1       593-7.27419E+04-1.38205E+04-4.89497E+03-3.20764E+04-1.34175E-09 1.66619E-09
 -1       594-7.14052E+04-1.57470E+04-2.44125E+03-3.42156E+04 2.88406E-09 9.05521E-09
 -1       595-7.29075E+04-1.38152E+04-1.12085E+03-3.21487E+04-4.32090E-09-1.42249E-09
 -1       596-7.12000E+04-1.56014E+04-5.69692E+02-3.41914E+04-6.05881E-09-1.03260E-08
 -1       597-7.29283E+04-1.38300E+04-3.10014E+02-3.21514E+04-7.00715E-09-2.50287E-09
 -1       598-7.11798E+04-1.55957E+04-2.48850E+02-3.41846E+04-4.99199E-09 9.91116E-09
 -1       599-7.29271E+04-1.38305E+04-3.17422E+02-3.21511E+04 1.78215E-09 1.41073E-08
 -1       600-7.12001E+04-1.56021E+04-5.89304E+02-3.41894E+04 8.90833E-09-4.92270E-09
 -1       601-7.29031E+04-1.38165E+04-1.16238E+03-3.21477E+04 3.19415E-09 6.02790E-09
 -1       602-7.14128E+04-1.57521E+04-2.53319E+03-3.42108E+04-5.07271E-09 8.36621E-09
 -1       603-7.27286E+04-1.38248E+04-5.08004E+03-3.20734E+04 1.83809E-09-5.47971E-10
 -1       604-7.45419E+04-1.90376E+04-1.22034E+04-3.40672E+04-7.24526E-10-4.82919E-09
 -1       605-7.04550E+04-1.54778E+04-2.25290E+04-3.04411E+04 1.76101E-09-6.97582E-09
 -1       606 2.68871E+04-1.39569E+04-2.50244E+04 2.43514E+04-2.19052E-08 3.67436E-10
 -1       607 2.26108E+04-4.55584E+03-1.24620E+04 2.73625E+04-5.67807E-08-5.58839E-09
 -1       608 2.50470E+04-8.19613E+02-5.57895E+03 2.41774E+04-3.28637E-08 1.24614E-08
 -1       609 2.45788E+04-2.77726E+02-2.81829E+03 2.75794E+04-2.66664E-09 1.59940E-08
 -1       610 2.48376E+04-3.62648E+01-1.34475E+03 2.41569E+04 3.97449E-10-6.49038E-09
 -1       611 2.47631E+04-3.53527E+01-6.78013E+02 2.76028E+04 6.39193E-09-4.80122E-09
 -1       612 2.47905E+04-2.21987E+01-3.22441E+02 2.41548E+04-8.61291E-10-3.63661E-09
 -1       613 2.47732E+04-3.07083E+01-1.44576E+02 2.76056E+04 1.13323E-09-1.69352E-08
 -1       614 2.47680E+04-2.78717E+01-3.41684E+01 2.41541E+04 1.10413E-09 6.27801E-09
 -1       615 2.47672E+04-2.87435E+01 5.99993E+01 2.76060E+04 1.74396E-09 7.29688E-09
 -1       616 2.47504E+04-2.44055E+01 1.80459E+02 2.41544E+04-1.47247E-09-1.17423E-08
 -1       617 2.47882E+04 1.01351E+01 4.11963E+02 2.76055E+04-1.37697E-09-2.17151E-08
 -1       618 2.47141E+04 9.46798E+01 8.30449E+02 2.41547E+04-5.32054E-10 7.11998E-09
 -1       619 2.50809E+04 6.52505E+02 1.86490E+03 2.76049E+04-5.49448E-10 1.91164E-08
 -1       620 2.44381E+04 2.06414E+03 3.74840E+03 2.41559E+04-1.48930E-09 1.79352E-09
 -1       621 4.74592E+02 2.93576E+05 3.68428E+03 3.86510E+04 8.60382E-10 3.40788E-09
 -1       622 6.25615E+02 2.94432E+05 3.28957E+03 5.61271E+04 9.12678E-10 1.44164E-08
 -1       623 1.24370E+02 2.93762E+05 3.97922E+03 3.84763E+04 1.07298E-09 5.92991E-10
 -1       624 2.02827E+03 2.95620E+05 7.73520E+03 5.62985E+04 1.12175E-09 5.07680E-09
 -1       625 1.98798E+03 2.92229E+05 1.35271E+04 3.84742E+04 1.26101E-09 1.81224E-08
 -1       626 2.54831E+05 6.06327E+04 5.04663E+03 1.24617E+05-1.93722E-09-2.05000E-08
 -1       627 2.52501E+05 6.20555E+04 2.43193E+03 1.28880E+05 3.53248E-09 1.97451E-08
 -1       628 2.54960E+05 5.83200E+04 1.02844E+03 1.25470E+05-1.32450E-08-1.77438E-08
 -1       629 2.51870E+05 6.13900E+04 5.03392E+02 1.29121E+05-4.80350E-09 2.94997E-09
 -1       630 2.54974E+05 5.82086E+04 2.33520E+02 1.25506E+05-3.59432E-09-1.12622E-08
 -1       631 2.51802E+05 6.13652E+04 1.25700E+02 1.29122E+05 4.24006E-09 7.57439E-09
 -1       632 2.54970E+05 5.82128E+04 8.27838E+01 1.25501E+05 7.81392E-09 1.27557E-09
 -1       633 2.51793E+05 6.13674E+04 9.23142E+01 1.29118E+05 2.32239E-09-1.08887E-08
 -1       634 2.54965E+05 5.82104E+04 1.49268E+02 1.25500E+05-5.58884E-09-6.40466E-09
 -1       635 2.51807E+05 6.13659E+04 3.02099E+02 1.29123E+05-4.29938E-09-9.42873E-09
 -1       636 2.54955E+05 5.82050E+04 6.10116E+02 1.25500E+05 2.86423E-09 6.25732E-09
 -1       637 2.51939E+05 6.14609E+04 1.34146E+03 1.29122E+05-1.01541E-08 2.30384E-08
 -1       638 2.54908E+05 5.85015E+04 2.75623E+03 1.25366E+05 6.79847E-10-3.90037E-09
 -1       639 2.53386E+05 6.34746E+04 6.52128E+03 1.28696E+05 2.23154E-08-1.02382E-08
 -1       640 2.54708E+05 6.45135E+04 1.35328E+04 1.22831E+05 1.26111E-08 7.40283E-09
 -1       656 6.52425E+04-1.66859E+06-1.57491E+05-2.30529E+03 1.60071E-10-7.65817E-09
 -1       657-8.63041E+04-1.73975E+06-1.30459E+05 5.47469E+03-2.20098E-10-6.37174E-09
 -1       658 2.07914E+04-1.68880E+06-8.03305E+04-4.32544E+03-2.22826E-10 5.57094E-10
 -1       659-9.32809E+04-1.74306E+06-1.39628E+05 7.12956E+03-8.66748E-10-2.00135E-08
 -1       660 7.22038E+04-1.66528E+06-1.73254E+05-3.96015E+03-1.09139E-09 8.04647E-09
 -1       661 1.60125E+05 1.68166E+04 1.67465E+04 6.25960E+04-9.52696E-10 8.18636E-09
 -1       662 1.69537E+05 2.92728E+04 1.12858E+04 5.89021E+04-1.16376E-09 1.82536E-08
 -1       663 1.63414E+05 2.21894E+04 3.94715E+03 6.16417E+04 5.84123E-10 1.47802E-08
 -1       664 1.65724E+05 2.29895E+04 2.36111E+03 6.00677E+04-2.30622E-09 9.53514E-09
 -1       665 1.63913E+05 2.29235E+04 9.31439E+02 6.14964E+04 4.70777E-10 8.06776E-09
 -1       666 1.65134E+05 2.21498E+04 5.45058E+02 6.02570E+04 8.56494E-09 6.76831E-09
 -1       667 1.64000E+05 2.30072E+04 2.89517E+02 6.14602E+04 4.79503E-10-6.76189E-09
 -1       668 1.65038E+05 2.20893E+04 2.95018E+02 6.03096E+04-3.36212E-09 3.16354E-09
 -1       669 1.64008E+05 2.29822E+04 3.99426E+02 6.14441E+04-1.86952E-09 1.49300E-08
 -1       670 1.65135E+05 2.23061E+04 8.69771E+02 6.03125E+04-6.75836E-09 4.71312E-09
 -1       671 1.63902E+05 2.27949E+04 1.54435E+03 6.14553E+04 2.54238E-09 8.53947E-09
 -1       672 1.66035E+05 2.38086E+04 3.95118E+03 6.00946E+04 4.80543E-09 2.06916E-08
 -1       673 1.63112E+05 2.15177E+04 6.62155E+03 6.16474E+04 2.30318E-09 1.29548E-08
 -1       674 1.72337E+05 3.44467E+04 1.89362E+04 5.82430E+04-1.76090E-09-8.43897E-09
 -1       675 1.57641E+05 1.24547E+04 2.81080E+04 6.31951E+04-3.10956E-09 1.32695E-08
 -1       676 2.37875E+01-2.91630E+05-1.09998E+03-1.19175E+02 1.79188E-09-1.98328E-09
 -1       677-2.91239E+02-2.91896E+05-2.01315E+03 2.38163E+02 7.60357E-09-2.24687E-08
 -1       678 1.95125E+02-2.91441E+05-3.55874E+03-1.18909E+02 3.95630E-11 3.71017E-09
 -1       679-3.55905E+03-2.94044E+05-8.45407E+03 2.37149E+02 5.12944E-09 4.19203E-09
 -1       680 2.12476E+03-2.89483E+05-1.36251E+04-1.16845E+02 7.69433E-10 2.73161E-10
 -1       771-3.02642E+06-7.25257E+05-1.53885E+05-1.43891E+06-3.11411E-08-2.86673E-08
 -1       772-2.95299E+06-8.10428E+05-7.94147E+04-1.53727E+06-1.88738E-08 9.37143E-09
 -1       773-3.05570E+06-7.02378E+05-4.03115E+04-1.45203E+06-1.08266E-08 4.56930E-09
 -1       774-2.94365E+06-7.93414E+05-1.80205E+04-1.56108E+06 3.09374E-08-9.64792E-09
 -1       775-3.07080E+06-6.91761E+05-1.33637E+04-1.45832E+06-5.99539E-09 1.38243E-10
 -1       776-2.95470E+06-7.90773E+05-5.01596E+03-1.57895E+06-7.59610E-09 1.49157E-09
 -1       777-3.08385E+06-6.82324E+05-5.86246E+03-1.46387E+06 7.91624E-09 3.63070E-09
 -1       778-2.96627E+06-7.88334E+05-1.66349E+03-1.59429E+06 8.90577E-09 9.16771E-09
 -1       779-3.09504E+06-6.74098E+05-2.91631E+03-1.46861E+06-6.53381E-09-7.98173E-09
 -1       780-2.97645E+06-7.86006E+05-4.84474E+02-1.60678E+06-1.38461E-08 7.77800E-09
 -1       781-3.10393E+06-6.67477E+05-1.12849E+03-1.47233E+06-3.49828E-08 9.09495E-11
 -1       782-2.98429E+06-7.84023E+05 4.10743E+02-1.61600E+06-3.77768E-08-5.05497E-09
 -1       783-3.11018E+06-6.62884E+05 6.41976E+02-1.47493E+06-7.23230E-09-1.54459E-08
 -1       784-2.98861E+06-7.82006E+05 2.64631E+03-1.62168E+06-1.78370E-08 1.12095E-09
 -1       785-3.11387E+06-6.60147E+05 4.67260E+03-1.47659E+06-3.47572E-08 7.02676E-09
 -1       786 1.29709E+05-9.96975E+03 2.29891E+04-3.04903E+02 3.40442E-05 8.95161E-08
 -1       787 1.39695E+05 1.15403E+04 1.62765E+04-1.49521E+02 6.79942E-05 1.19812E-07
 -1       788 1.33557E+05-1.56700E+03 5.94745E+03-2.61090E+02 5.07036E-05 8.95973E-08
 -1       789 1.35210E+05 1.81342E+03 3.73799E+03-2.07985E+02 3.33782E-05 9.04636E-08
 -1       790 1.34194E+05-2.44829E+02 1.51256E+03-2.46442E+02 2.36288E-05 3.90837E-08
 -1       791 1.34466E+05 2.83327E+02 8.75892E+02-2.28558E+02 1.38884E-05 3.59149E-08
 -1       792 1.34302E+05-3.71887E+01 3.73590E+02-2.40518E+02 1.08690E-05 2.49342E-08
 -1       793 1.34338E+05 4.05462E+01 1.92413E+02-2.38309E+02 7.85686E-06 1.77211E-08
 -1       794 1.34323E+05-2.08343E+00 6.21794E+01-2.36692E+02 8.25604E-06 9.75312E-09
 -1       795 1.34304E+05-1.77600E+01-2.62534E+01-2.47744E+02 8.64489E-06 3.92011E-08
 -1       796 1.34336E+05 2.11114E+01-1.09293E+02-2.31083E+02 1.06120E-05 1.92119E-08
 -1       797 1.34235E+05-1.57976E+02-3.16247E+02-2.66325E+02 1.25691E-05 5.17521E-08
 -1       798 1.34392E+05 1.38108E+02-5.17208E+02-2.18110E+02 1.31502E-05 3.52730E-08
 -1       799 1.33843E+05-1.01371E+03-1.42764E+03-3.12683E+02 1.37222E-05 3.81681E-08
 -1       800 1.34728E+05 8.76667E+02-2.02078E+03-1.84725E+02 6.84851E-06 3.04885E-09
 -1       801-1.35104E+05-9.34184E+06-1.28291E+06 1.25751E+06 8.63511E-08-5.13792E-08
 -1       802 6.36386E+05 4.92532E+06 1.92398E+06-1.53488E+06 2.44916E-07-3.40669E-08
 -1       803-4.77294E+05-1.31006E+07-1.69128E+06 7.98590E+05 7.33344E-08 1.95432E-08
 -1       804 2.47955E+05 1.70896E+06 1.35629E+06 6.26309E+05-1.11693E-07-9.17562E-08
 -1       805 1.76154E+05-6.14034E+06-2.57127E+05-8.98541E+05-4.64934E-08-5.47634E-08
 -1       806-3.02113E+05-5.84458E+04-2.22420E+04-1.19787E+05-1.91994E-09-5.02314E-09
 -1       807-3.03854E+05-5.48242E+04-1.09273E+04-1.25193E+05 6.73845E-09-1.78952E-08
 -1       808-3.02723E+05-5.04314E+04-4.63570E+03-1.23578E+05-9.25183E-09-2.54374E-09
 -1       809-3.01557E+05-5.17538E+04-2.26675E+03-1.25461E+05-2.03136E-08 8.85234E-09
 -1       810-3.02815E+05-5.01523E+04-1.03898E+03-1.23746E+05-1.75442E-09-8.21933E-09
 -1       811-3.01379E+05-5.16304E+04-5.16720E+02-1.25427E+05 7.78527E-10-2.99042E-09
 -1       812-3.02829E+05-5.01762E+04-2.61422E+02-1.23745E+05-5.44787E-09-1.32482E-08
 -1       813-3.01355E+05-5.16325E+04-1.70094E+02-1.25409E+05-8.54470E-10-1.14237E-08
 -1       814-3.02822E+05-5.01856E+04-1.68845E+02-1.23741E+05 3.06318E-09 1.25965E-10
 -1       815-3.01358E+05-5.16347E+04-2.72365E+02-1.25402E+05 1.14414E-09 2.29093E-08
 -1       816-3.02802E+05-5.01846E+04-5.16377E+02-1.23737E+05 4.46016E-09 1.08894E-08
 -1       817-3.01446E+05-5.16839E+04-1.10837E+03-1.25391E+05-8.05039E-09 7.33689E-09
 -1       818-3.02735E+05-5.03410E+04-2.26070E+03-1.23664E+05-1.10231E-09-1.78397E-09
 -1       819-3.02684E+05-5.30492E+04-5.31935E+03-1.25097E+05-4.18322E-09-1.85439E-08
 -1       820-3.02308E+05-5.43592E+04-1.08268E+04-1.21947E+05 4.27190E-09 9.97329E-09
 -1       821-3.74993E+05 2.06381E+04-4.79446E+04 1.85164E+03 1.24448E-08 4.58385E-10
 -1       822-3.94863E+05-2.39029E+04-3.37688E+04-3.81697E+03 4.32171E-09 8.44375E-09
 -1       823-3.82556E+05 3.24832E+03-1.23927E+04 2.89874E+03-1.09140E-08 4.97494E-10
 -1       824-3.85810E+05-3.74887E+03-7.76865E+03-4.48460E+03 5.91678E-10-3.34205E-09
 -1       825-3.84050E+05 5.04816E+02-3.23891E+03 2.51935E+03 1.75452E-08-5.94616E-09
 -1       826-3.83638E+05-5.70451E+02-1.77953E+03-2.51534E+03 2.26006E-08-1.09918E-09
 -1       827-3.84709E+05 5.85311E+01-1.12758E+03 9.29384E+02 9.12848E-09 2.22843E-08
 -1       828-3.83100E+05-1.45945E+02-6.67437E+02 1.00504E+03-1.53716E-09 3.11865E-08
 -1       829-3.84579E+05 7.37620E+01-1.12227E+03-1.00106E+03 1.83522E-09 1.17134E-08
 -1       830-3.83923E+05-6.16389E+02-1.90104E+03 4.14315E+03 2.48848E-09 2.38165E-09
 -1       831-3.83902E+05 5.41615E+02-3.32275E+03-2.20876E+03-5.67906E-09-1.13833E-08
 -1       832-3.85892E+05-3.90331E+03-8.05876E+03 5.17300E+03-4.02647E-09-1.74850E-09
 -1       833-3.82622E+05 3.36649E+03-1.28705E+04-2.03094E+03-2.51420E-09-7.50333E-10
 -1       834-3.94979E+05-2.47777E+04-3.49523E+04 3.49907E+03-4.51514E-09 5.45060E-09
 -1       835-3.74804E+05 2.13881E+04-4.97320E+04-5.34776E+02 5.62213E-09-1.09503E-08
 -1       836-1.37280E+03 3.61458E+05 2.22767E+04-1.68386E+04-6.52199E-09 2.04773E-09
 -1       837 4.75481E+03 3.68433E+05 1.88776E+04-3.43208E+04-6.65864E-09-1.02691E-08
 -1       838-5.41924E+02 3.63408E+05 1.92719E+04-1.67660E+04-5.81849E-09-6.93058E-09
 -1       839 1.21499E+04 3.73939E+05 3.64938E+04-3.43719E+04-5.84805E-09 7.10554E-09
 -1       840-3.75258E+03 3.55892E+05 5.82105E+04-1.67924E+04-5.68616E-09-1.42825E-08
 -1       856-5.51124E+04 7.99912E+03-2.10795E+04-3.98265E+02 1.74145E-09 1.94432E-08
 -1       857-6.37988E+04-9.39702E+03-1.45111E+04 5.55460E+03 6.63636E-09 4.51610E-09
 -1       858-5.85516E+04 1.12170E+03-5.46971E+03-4.22357E+02 8.85791E-10 6.00153E-09
 -1       859-5.98517E+04-1.31805E+03-3.30092E+03 5.59069E+03-1.53648E-10 1.04678E-08
 -1       860-5.90654E+04 1.56989E+02-1.38375E+03-4.34120E+02 2.78064E-09 2.28403E-09
 -1       861-5.92606E+04-1.85929E+02-7.61938E+02 5.60673E+03 4.74456E-09 3.38196E-09
 -1       862-5.91458E+04 2.12132E+01-3.18147E+02-4.38383E+02 6.21338E-10 8.03743E-09
 -1       863-5.91623E+04-2.06271E+01-1.19115E+02 5.60917E+03-5.21898E-09-9.13501E-09
 -1       864-5.91642E+04-4.56195E+00 3.97970E+01-4.36553E+02-9.80705E-10-6.08760E-09
 -1       865-5.91088E+04 5.73444E+01 2.38288E+02 5.59884E+03-3.92603E-09 3.82451E-09
 -1       866-5.91972E+04-5.68192E+01 4.83937E+02-4.28062E+02 2.17170E-09 4.66238E-09
 -1       867-5.88801E+04 4.69583E+02 1.19358E+03 5.57577E+03-2.12924E-09-1.41000E-09
 -1       868-5.93880E+04-4.09480E+02 1.98392E+03-4.13477E+02-1.32388E-09-1.49919E-09
 -1       869-5.74249E+04 3.40783E+03 5.28344E+03 5.53768E+03-7.28448E-11-3.25133E-09
 -1       870-6.06449E+04-2.91544E+03 7.66729E+03-3.89885E+02-4.27985E-09-1.33873E-08
 -1       871-5.42954E+03-2.02249E+04-1.90272E+04 1.27208E+05-4.36557E-09-5.95628E-09
 -1       872-1.98956E+03-2.46353E+04-7.95348E+03 1.64943E+05-8.98035E-09-9.24001E-09
 -1       873 3.54774E+02-2.25088E+04 6.10166E+02 1.26929E+05-4.38422E-09 1.48667E-08
 -1       874 3.19301E+03-2.01254E+04 9.62733E+03 1.64973E+05-1.07166E-08 4.05405E-08
 -1       875 6.68809E+03-2.48020E+04 2.16918E+04 1.27162E+05-4.24734E-09 7.32325E-09
 -1       876 2.88279E+05 4.86630E+04 1.48519E+04 1.15778E+05 6.16592E-09-8.40919E-09
 -1       877 2.89252E+05 5.17996E+04 7.93147E+03 1.20046E+05 1.36447E-08 3.32045E-09
 -1       878 2.89668E+05 4.70180E+04 3.32289E+03 1.16994E+05-5.65615E-09-4.45038E-09
 -1       879 2.87233E+05 4.97850E+04 1.65565E+03 1.20147E+05 2.32649E-09-6.97901E-09
 -1       880 2.89767E+05 4.70009E+04 7.71163E+02 1.17044E+05-4.98767E-09-7.58553E-09
 -1       881 2.87099E+05 4.96989E+04 4.11774E+02 1.20124E+05-4.20721E-09 1.39286E-09
 -1       882 2.89776E+05 4.70139E+04 2.63362E+02 1.17046E+05-1.11504E-09 4.01776E-09
 -1       883 2.87090E+05 4.96944E+04 2.83017E+02 1.20117E+05-4.96362E-09 1.96281E-08
 -1       884 2.89770E+05 4.70111E+04 4.50115E+02 1.17046E+05-6.64545E-09-3.78088E-09
 -1       885 2.87125E+05 4.97006E+04 9.04918E+02 1.20127E+05-1.76685E-08-7.35747E-09
 -1       886 2.89735E+05 4.69847E+04 1.82379E+03 1.17042E+05-9.39413E-09-1.73418E-09
 -1       887 2.87446E+05 4.99108E+04 3.98381E+03 1.20174E+05 1.26300E-08 1.53386E-08
 -1       888 2.89483E+05 4.70291E+04 8.02750E+03 1.16915E+05-2.81395E-09 5.80803E-09
 -1       889 2.92225E+05 5.48805E+04 1.91762E+04 1.20027E+05-1.86346E-09 2.42744E-09
 -1       890 2.86207E+05 5.09204E+04 3.59166E+04 1.13859E+05 1.44701E-09 1.07921E-08
 -1       891-9.50737E+01-1.59992E+05-1.95822E+03 2.69357E+04-1.35992E-09 2.08579E-08
 -1       892-1.83399E+02-1.60505E+05-2.10451E+03 4.08895E+04 1.14983E-09 2.68092E-08
 -1       893 3.53549E+01-1.60054E+05-2.98115E+03 2.69428E+04-6.45741E-10-6.64841E-10
 -1       894-1.49459E+03-1.61632E+05-6.17085E+03 4.07386E+04 3.16686E-09 8.77617E-09
 -1       895-1.18547E+03-1.58769E+05-1.08672E+04 2.70879E+04-1.36617E-09 1.09540E-08
 -1       956-3.69695E+05-5.33208E+03-1.31895E+04 2.97911E+04 5.83623E-09-1.36674E-09
 -1       957-3.72284E+05-1.87232E+03-6.77005E+03 3.58082E+04-1.78670E-09 4.90036E-09
 -1       958-3.70879E+05-2.25964E+02-3.05074E+03 2.96275E+04-6.24732E-09-1.30724E-08
 -1       959-3.71073E+05-1.21725E+02-1.55780E+03 3.59979E+04 5.64251E-09-1.38166E-08
 -1       960-3.70993E+05-3.43346E+01-7.59637E+02 2.96107E+04 7.31325E-09 1.09280E-08
 -1       961-3.70993E+05-5.06328E+01-4.02776E+02 3.60177E+04 1.46460E-08 1.83579E-08
 -1       962-3.71020E+05-3.58900E+01-2.30590E+02 2.96079E+04 4.38467E-09 1.20385E-08
 -1       963-3.70993E+05-4.67326E+01-1.85101E+02 3.60212E+04 6.91955E-09 4.72187E-09
 -1       964-3.71025E+05-3.26553E+01-2.25055E+02 2.96072E+04 2.50822E-10 7.70842E-09
 -1       965-3.71005E+05-4.37297E+01-3.89218E+02 3.60206E+04-6.89460E-09 8.99490E-10
 -1       966-3.71010E+05-2.47238E+01-7.31264E+02 2.96086E+04 5.28667E-09 3.78509E-09
 -1       967-3.71094E+05-1.05599E+02-1.49981E+03 3.60068E+04 6.24254E-09 7.12589E-10
 -1       968-3.70909E+05-2.03028E+02-2.93601E+03 2.96208E+04 5.35601E-09-2.51509E-09
 -1       969-3.72272E+05-1.78557E+03-6.51796E+03 3.58642E+04 3.92902E-10-1.60797E-08
 -1       970-3.69777E+05-5.11516E+03-1.26972E+04 2.97439E+04 6.79393E-10-5.86715E-09
 -1       971-3.39272E+05-1.70270E+03-9.20146E+03 1.51888E+04 1.01409E-08-7.28723E-09
 -1       972-3.41489E+05-1.25060E+03-5.01102E+03 2.10264E+04 1.63818E-08-1.51972E-08
 -1       973-3.40297E+05-5.67492E+01-2.24444E+03 1.50684E+04 6.43740E-09 2.17460E-09
 -1       974-3.40432E+05-7.38037E+01-1.16339E+03 2.11621E+04-4.16776E-10 9.04947E-10
 -1       975-3.40378E+05-1.24605E+01-5.81860E+02 1.50563E+04 7.86713E-10-3.11229E-09
 -1       976-3.40371E+05-2.45905E+01-3.36275E+02 2.11776E+04 5.21254E-09-8.09052E-09
 -1       977-3.40394E+05-1.17758E+01-2.45112E+02 1.50529E+04-2.76191E-09 2.91175E-09
 -1       978-3.40376E+05-1.84796E+01-2.88261E+02 2.11823E+04-1.14505E-09 4.96595E-09
 -1       979-3.40394E+05-3.46694E+00-4.64375E+02 1.50515E+04-1.32036E-09 1.28725E-08
 -1       980-3.40411E+05-1.54768E+01-8.97420E+02 2.11833E+04-8.36127E-09-1.59139E-09
 -1       981-3.40365E+05 1.89575E+01-1.73850E+03 1.50520E+04-1.61594E-09 1.16725E-08
 -1       982-3.40650E+05-1.43931E+02-3.59367E+03 2.11767E+04-3.49087E-09 1.83196E-08
 -1       983-3.40146E+05-9.23607E+01-6.98264E+03 1.50580E+04-9.75206E-09 2.00514E-08
 -1       984-3.44008E+05-3.79075E+03-1.56373E+04 2.10920E+04-1.29330E-08-6.38352E-09
 -1       985-3.36985E+05-5.20183E+03-2.87150E+04 1.51301E+04-6.00312E-09-1.34423E-09
 -3
    1PSTEP                        21          11           1          
  100CL  111 6.62109E-01         409                     0   11           1
 -4  DISP        4    1
 -5  D1          1    2    1    0
 -5  D2          1    2    2    0
 -5  D3          1    2    3    0
 -5  ALL         1    2    0    0    1ALL
 -1         1 2.73512E-03 0.00000E+00 0.00000E+00
 -1         2 1.26382E-03 2.83064E-26 0.00000E+00
 -1         3 3.42245E-04-1.40534E-27-1.32349E-23
 -1         5 1.76932E-04-1.16763E-27 8.27181E-25
 -1         8 2.72485E-03-3.91019E-07 0.00000E+00
 -1         9 2.71753E-03-2.21660E-04 0.00000E+00
 -1        10 3.10355E-04-3.36620E-06 0.00000E+00
 -1        12 1.78780E-04 8.08381E-07 1.24077E-24
 -1        15 2.71324E-03-4.12648E-07 1.03398E-25
 -1        16 2.79610E-03-2.23663E-04 0.00000E+00
 -1        17 2.11241E-04-7.68285E-06 0.00000E+00
 -1        18 1.82733E-04 3.44165E-05 0.00000E+00
 -1        19 1.84325E-04 1.61034E-06 0.00000E+00
 -1        20 1.84464E-04-9.89540E-06 0.00000E+00
 -1        21 1.83573E-04-2.54292E-05 3.30872E-24
 -1        24 3.05437E-05-1.18892E-05 0.00000E+00
 -1        25 1.93501E-04 3.46421E-05 0.00000E+00
 -1        26 1.94207E-04 2.22887E-06 0.00000E+00
 -1        27 1.91995E-04-1.34494E-05 0.00000E+00
 -1        28 1.91679E-04-2.60505E-05 0.00000E+00
 -1        32 0.00000E+00 0.00000E+00 0.00000E+00
 -1        33 2.03055E-04 2.98196E-06 0.00000E+00
 -1        34 2.00939E-04-1.35055E-05 0.00000E+00
 -1        35 1.99010E-04-2.63925E-05 0.00000E+00
 -1        51 2.73442E-03-8.29329E-08 0.00000E+00
 -1        52 2.73315E-03-1.47274E-07 3.30872E-24
 -1        53 2.73144E-03-2.08049E-07-3.30872E-24
 -1        54 2.72940E-03-2.67486E-07 0.00000E+00
 -1        55 2.72716E-03-3.27353E-07-8.27181E-25
 -1        56 2.72614E-03 1.16179E-05 0.00000E+00
 -1        57 2.70734E-03 4.72240E-05 0.00000E+00
 -1        58 2.68153E-03 9.93827E-05 0.00000E+00
 -1        59 2.65237E-03 1.59115E-04 0.00000E+00
 -1        60 2.62439E-03 2.16145E-04 0.00000E+00
 -1        61 2.60194E-03 2.60413E-04-5.29396E-23
 -1        62 2.58798E-03 2.84122E-04 0.00000E+00
 -1        63 2.58431E-03 2.81300E-04 0.00000E+00
 -1        64 2.59054E-03 2.50857E-04 1.05879E-22
 -1        65 2.60538E-03 1.94358E-04 5.29396E-23
 -1        66 2.62624E-03 1.18378E-04 0.00000E+00
 -1        67 2.65028E-03 3.14484E-05 0.00000E+00
 -1        68 2.67440E-03-5.57310E-05 0.00000E+00
 -1        69 2.69550E-03-1.32432E-04 0.00000E+00
 -1        70 2.71070E-03-1.89995E-04 0.00000E+00
 -1        86 1.35531E-03-6.87914E-06 5.29396E-23
 -1        87 1.61913E-03-4.37727E-05 2.64698E-23
 -1        88 1.97398E-03-1.07433E-04-5.29396E-23
 -1        89 2.33406E-03-1.73030E-04 0.00000E+00
 -1        90 2.61051E-03-2.13211E-04 0.00000E+00
 -1       121 3.41350E-04-5.43368E-07 1.32349E-23
 -1       122 3.38667E-04-1.08981E-06 6.61744E-24
 -1       123 3.34207E-04-1.64236E-06 0.00000E+00
 -1       124 3.27985E-04-2.20403E-06 0.00000E+00
 -1       125 3.20024E-04-2.77748E-06 0.00000E+00
 -1       191 1.76983E-04 1.34794E-07-3.30872E-24
 -1       192 1.77137E-04 2.69576E-07 1.24077E-24
 -1       193 1.77394E-04 4.04339E-07 2.48154E-24
 -1       194 1.77753E-04 5.39069E-07 1.24077E-24
 -1       195 1.78215E-04 6.73754E-07 1.65436E-24
 -1       251 2.72454E-03 1.61128E-06 6.61744E-24
 -1       252 2.72423E-03 3.63994E-06 3.30872E-24
 -1       253 2.72392E-03 4.53334E-06 0.00000E+00
 -1       254 2.72361E-03 3.14427E-06 0.00000E+00
 -1       255 2.72328E-03-1.32104E-06-6.61744E-24
 -1       256 2.72294E-03-9.61703E-06 6.61744E-24
 -1       257 2.72255E-03-2.19055E-05 1.32349E-23
 -1       258 2.72211E-03-3.82971E-05 0.00000E+00
 -1       259 2.72161E-03-5.82684E-05 1.32349E-23
 -1       260 2.72104E-03-8.12497E-05 0.00000E+00
 -1       261 2.72043E-03-1.06206E-04 0.00000E+00
 -1       262 2.71979E-03-1.32076E-04-6.61744E-24
 -1       263 2.71917E-03-1.57660E-04-1.32349E-23
 -1       264 2.71857E-03-1.81758E-04 0.00000E+00
 -1       265 2.71803E-03-2.03404E-04 0.00000E+00
 -1       266 2.72291E-03-4.00040E-07 0.00000E+00
 -1       267 2.72098E-03-4.02984E-07 0.00000E+00
 -1       268 2.71904E-03-4.06314E-07 4.13590E-25
 -1       269 2.71711E-03-4.08503E-07 0.00000E+00
 -1       270 2.71517E-03-4.10666E-07-2.06795E-25
 -1       271 2.72415E-03-2.26017E-07-1.32349E-23
 -1       272 2.72455E-03-3.05346E-06-6.61744E-24
 -1       273 2.72600E-03-8.68672E-06 0.00000E+00
 -1       274 2.72839E-03-1.69246E-05 0.00000E+00
 -1       275 2.73166E-03-2.75436E-05-1.32349E-23
 -1       276 2.73570E-03-4.03038E-05 0.00000E+00
 -1       277 2.74042E-03-5.49477E-05 0.00000E+00
 -1       278 2.74572E-03-7.12039E-05 0.00000E+00
 -1       279 2.75149E-03-8.87886E-05 1.32349E-23
 -1       280 2.75763E-03-1.07408E-04 6.61744E-24
 -1       281 2.76403E-03-1.26759E-04 1.32349E-23
 -1       282 2.77058E-03-1.46535E-04 6.61744E-24
 -1       283 2.77718E-03-1.66424E-04 1.32349E-23
 -1       284 2.78370E-03-1.86115E-04 0.00000E+00
 -1       285 2.79004E-03-2.05297E-04 1.32349E-23
 -1       301 2.73178E-03-2.22033E-04 0.00000E+00
 -1       302 2.74430E-03-2.22354E-04 3.30872E-24
 -1       303 2.75604E-03-2.22663E-04 1.32349E-23
 -1       304 2.76794E-03-2.22973E-04-6.61744E-24
 -1       305 2.78098E-03-2.23297E-04 0.00000E+00
 -1       306 2.75596E-03-3.78600E-04 0.00000E+00
 -1       307 2.81983E-03-7.94414E-04 0.00000E+00
 -1       308 2.86648E-03-1.40005E-03 1.05879E-22
 -1       309 2.89081E-03-2.09901E-03-5.29396E-23
 -1       310 2.92299E-03-2.76556E-03 1.05879E-22
 -1       311 2.98301E-03-3.27682E-03 0.00000E+00
 -1       312 3.04020E-03-3.55275E-03 1.05879E-22
 -1       313 3.03318E-03-3.55654E-03 0.00000E+00
 -1       314 2.88822E-03-3.30115E-03 0.00000E+00
 -1       315 2.56516E-03-2.85164E-03 0.00000E+00
 -1       316 2.08341E-03-2.28469E-03 0.00000E+00
 -1       317 1.50976E-03-1.66926E-03 5.29396E-23
 -1       318 9.58787E-04-1.06549E-03-1.05879E-22
 -1       319 5.38381E-04-5.38185E-04 0.00000E+00
 -1       320 2.91940E-04-1.61483E-04 0.00000E+00
 -1       336 2.98789E-04-4.01723E-06 1.32349E-23
 -1       337 2.85150E-04-4.69388E-06 0.00000E+00
 -1       338 2.69499E-04-5.39837E-06 1.32349E-23
 -1       339 2.51908E-04-6.13155E-06-6.61744E-24
 -1       340 2.32458E-04-6.89789E-06-1.32349E-23
 -1       406 1.79447E-04 9.42931E-07 1.65436E-24
 -1       407 1.80218E-04 1.07737E-06-8.27181E-25
 -1       408 1.81091E-04 1.21164E-06 0.00000E+00
 -1       409 1.82066E-04 1.34557E-06 1.24077E-24
 -1       410 1.83145E-04 1.47889E-06-1.24077E-24
 -1       521 2.83509E-03-3.89969E-04-1.05879E-22
 -1       522 2.89710E-03-8.26802E-04-5.29396E-23
 -1       523 2.93699E-03-1.46156E-03 1.05879E-22
 -1       524 2.95163E-03-2.19078E-03 0.00000E+00
 -1       525 2.97553E-03-2.88550E-03-1.05879E-22
 -1       526 3.03193E-03-3.41994E-03 5.29396E-23
 -1       527 3.08877E-03-3.70689E-03 0.00000E+00
 -1       528 3.07928E-03-3.70861E-03-5.29396E-23
 -1       529 2.92148E-03-3.43819E-03-2.11758E-22
 -1       530 2.57285E-03-2.96909E-03 0.00000E+00
 -1       531 2.05373E-03-2.38196E-03-1.05879E-22
 -1       532 1.43766E-03-1.74839E-03-5.29396E-23
 -1       533 8.45121E-04-1.12580E-03 1.05879E-22
 -1       534 3.89621E-04-5.76591E-04-5.29396E-23
 -1       535 1.21020E-04-1.79503E-04 0.00000E+00
 -1       536 2.10487E-04 2.72050E-05 0.00000E+00
 -1       537 2.08573E-04 8.75847E-05 0.00000E+00
 -1       538 2.05615E-04 1.64198E-04-3.30872E-24
 -1       539 2.02125E-04 2.47702E-04 0.00000E+00
 -1       540 1.98986E-04 3.26608E-04-3.30872E-24
 -1       541 1.96945E-04 3.89445E-04 0.00000E+00
 -1       542 1.96003E-04 4.29467E-04 0.00000E+00
 -1       543 1.95778E-04 4.40075E-04 0.00000E+00
 -1       544 1.95456E-04 4.22044E-04 3.30872E-24
 -1       545 1.94285E-04 3.76366E-04-1.65436E-24
 -1       546 1.92104E-04 3.11161E-04-3.30872E-24
 -1       547 1.89151E-04 2.34669E-04-1.65436E-24
 -1       548 1.86226E-04 1.58553E-04 3.30872E-24
 -1       549 1.84115E-04 9.44778E-05 1.65436E-24
 -1       550 1.83019E-04 5.04666E-05 0.00000E+00
 -1       551 1.86067E-04-8.24924E-06 0.00000E+00
 -1       552 1.57651E-04-8.89596E-06 0.00000E+00
 -1       553 1.26933E-04-9.60485E-06-9.92617E-24
 -1       554 9.48719E-05-1.03549E-05 6.61744E-24
 -1       555 6.24243E-05-1.11187E-05-1.32349E-23
 -1       556 2.03601E-04 1.18515E-05 0.00000E+00
 -1       557 1.97429E-04 2.76935E-05-2.64698E-23
 -1       558 1.92591E-04 4.01308E-05 5.29396E-23
 -1       559 1.88953E-04 4.94737E-05 0.00000E+00
 -1       560 1.86386E-04 5.60328E-05 0.00000E+00
 -1       561 1.84762E-04 6.01212E-05 0.00000E+00
 -1       562 1.83956E-04 6.20533E-05 0.00000E+00
 -1       563 1.83844E-04 6.21444E-05 0.00000E+00
 -1       564 1.84303E-04 6.07108E-05 0.00000E+00
 -1       565 1.85214E-04 5.80692E-05 0.00000E+00
 -1       566 1.86456E-04 5.45372E-05 0.00000E+00
 -1       567 1.87912E-04 5.04324E-05-3.30872E-24
 -1       568 1.89462E-04 4.60731E-05 0.00000E+00
 -1       569 1.90988E-04 4.17770E-05 0.00000E+00
 -1       570 1.92373E-04 3.78622E-05 0.00000E+00
 -1       571 1.82829E-04 3.22894E-05-2.48154E-24
 -1       572 1.82928E-04 3.00964E-05 0.00000E+00
 -1       573 1.83027E-04 2.78530E-05 0.00000E+00
 -1       574 1.83126E-04 2.55757E-05-8.27181E-25
 -1       575 1.83225E-04 2.32810E-05-3.30872E-24
 -1       576 1.83325E-04 2.09853E-05 0.00000E+00
 -1       577 1.83424E-04 1.87052E-05 3.30872E-24
 -1       578 1.83524E-04 1.64572E-05 0.00000E+00
 -1       579 1.83623E-04 1.42578E-05-6.61744E-24
 -1       580 1.83723E-04 1.21237E-05 0.00000E+00
 -1       581 1.83823E-04 1.00714E-05 0.00000E+00
 -1       582 1.83923E-04 8.11730E-06 6.61744E-24
 -1       583 1.84024E-04 6.27801E-06 6.61744E-24
 -1       584 1.84124E-04 4.56987E-06 0.00000E+00
 -1       585 1.84224E-04 3.00904E-06 0.00000E+00
 -1       586 1.84487E-04 3.44562E-05 0.00000E+00
 -1       587 1.86199E-04 3.44954E-05 0.00000E+00
 -1       588 1.87914E-04 3.45342E-05 8.27181E-25
 -1       589 1.89673E-04 3.45723E-05 0.00000E+00
 -1       590 1.91522E-04 3.46092E-05 0.00000E+00
 -1       591 1.83462E-04 3.23833E-05 0.00000E+00
 -1       592 1.84195E-04 3.03299E-05 2.06795E-25
 -1       593 1.84933E-04 2.82621E-05 8.27181E-25
 -1       594 1.85674E-04 2.61847E-05-4.13590E-25
 -1       595 1.86416E-04 2.41024E-05 0.00000E+00
 -1       596 1.87159E-04 2.20199E-05-4.13590E-25
 -1       597 1.87900E-04 1.99421E-05 0.00000E+00
 -1       598 1.88637E-04 1.78736E-05 0.00000E+00
 -1       599 1.89369E-04 1.58191E-05 8.27181E-25
 -1       600 1.90095E-04 1.37834E-05 4.13590E-25
 -1       601 1.90811E-04 1.17712E-05 0.00000E+00
 -1       602 1.91517E-04 9.78713E-06 4.13590E-25
 -1       603 1.92211E-04 7.83600E-06-8.27181E-25
 -1       604 1.92891E-04 5.92262E-06 5.16988E-26
 -1       605 1.93556E-04 4.05162E-06 0.00000E+00
 -1       606 1.84338E-04 4.45060E-07 0.00000E+00
 -1       607 1.84348E-04-6.34484E-07-1.65436E-24
 -1       608 1.84357E-04-1.63332E-06 0.00000E+00
 -1       609 1.84365E-04-2.55712E-06 0.00000E+00
 -1       610 1.84373E-04-3.41161E-06 0.00000E+00
 -1       611 1.84382E-04-4.20259E-06 0.00000E+00
 -1       612 1.84390E-04-4.93585E-06 0.00000E+00
 -1       613 1.84398E-04-5.61719E-06 0.00000E+00
 -1       614 1.84407E-04-6.25242E-06 0.00000E+00
 -1       615 1.84415E-04-6.84734E-06 0.00000E+00
 -1       616 1.84423E-04-7.40775E-06 0.00000E+00
 -1       617 1.84432E-04-7.93947E-06 0.00000E+00
 -1       618 1.84440E-04-8.44829E-06 0.00000E+00
 -1       619 1.84448E-04-8.94002E-06-2.06795E-25
 -1       620 1.84457E-04-9.42046E-06 0.00000E+00
 -1       621 1.85685E-04 1.71400E-06-3.30872E-24
 -1       622 1.87205E-04 1.81790E-06 8.27181E-25
 -1       623 1.88852E-04 1.92158E-06 1.65436E-24
 -1       624 1.90590E-04 2.02493E-06-8.27181E-25
 -1       625 1.92386E-04 2.12800E-06-1.65436E-24
 -1       626 1.84874E-04 4.81105E-07 3.30872E-24
 -1       627 1.85400E-04-5.85164E-07 0.00000E+00
 -1       628 1.85906E-04-1.59630E-06 0.00000E+00
 -1       629 1.86394E-04-2.56046E-06 1.65436E-24
 -1       630 1.86868E-04-3.48583E-06-3.30872E-24
 -1       631 1.87330E-04-4.38060E-06 0.00000E+00
 -1       632 1.87784E-04-5.25296E-06-3.30872E-24
 -1       633 1.88233E-04-6.11113E-06 0.00000E+00
 -1       634 1.88680E-04-6.96329E-06 0.00000E+00
 -1       635 1.89127E-04-7.81763E-06 1.65436E-24
 -1       636 1.89578E-04-8.68238E-06 0.00000E+00
 -1       637 1.90036E-04-9.56572E-06-1.65436E-24
 -1       638 1.90504E-04-1.04759E-05-3.30872E-24
 -1       639 1.90985E-04-1.14210E-05-8.27181E-25
 -1       640 1.91481E-04-1.24094E-05 1.65436E-24
 -1       656 1.85172E-04-1.04730E-05 6.61744E-24
 -1       657 1.86298E-04-1.10741E-05 0.00000E+00
 -1       658 1.87705E-04-1.16739E-05 0.00000E+00
 -1       659 1.89246E-04-1.22733E-05-6.61744E-24
 -1       660 1.90737E-04-1.28745E-05 6.61744E-24
 -1       661 1.84729E-04-1.04153E-05 0.00000E+00
 -1       662 1.85032E-04-1.10270E-05 0.00000E+00
 -1       663 1.85366E-04-1.17251E-05-1.65436E-24
 -1       664 1.85731E-04-1.25032E-05 0.00000E+00
 -1       665 1.86124E-04-1.33555E-05 0.00000E+00
 -1       666 1.86542E-04-1.42761E-05 8.27181E-25
 -1       667 1.86984E-04-1.52593E-05 0.00000E+00
 -1       668 1.87448E-04-1.62995E-05-8.27181E-25
 -1       669 1.87930E-04-1.73914E-05 0.00000E+00
 -1       670 1.88430E-04-1.85297E-05 0.00000E+00
 -1       671 1.88945E-04-1.97091E-05 0.00000E+00
 -1       672 1.89474E-04-2.09246E-05 8.27181E-25
 -1       673 1.90014E-04-2.21712E-05 1.65436E-24
 -1       674 1.90563E-04-2.34442E-05 4.13590E-25
 -1       675 1.91120E-04-2.47383E-05 2.06795E-25
 -1       676 1.84929E-04-2.55334E-05 3.30872E-24
 -1       677 1.86283E-04-2.56375E-05 0.00000E+00
 -1       678 1.87637E-04-2.57416E-05 0.00000E+00
 -1       679 1.88987E-04-2.58453E-05 1.65436E-24
 -1       680 1.90335E-04-2.59490E-05-3.30872E-24
 -1       771 1.85977E-05 1.48290E-05 5.29396E-23
 -1       772 8.54824E-06 3.67715E-05 0.00000E+00
 -1       773 3.04524E-07 5.41687E-05-5.29396E-23
 -1       774-6.25774E-06 6.72784E-05 2.64698E-23
 -1       775-1.12602E-05 7.63691E-05-5.29396E-23
 -1       776-1.48294E-05 8.17260E-05 0.00000E+00
 -1       777-1.70918E-05 8.36442E-05-5.29396E-23
 -1       778-1.81761E-05 8.24329E-05 0.00000E+00
 -1       779-1.82107E-05 7.84095E-05 0.00000E+00
 -1       780-1.73259E-05 7.19030E-05 0.00000E+00
 -1       781-1.56510E-05 6.32492E-05 0.00000E+00
 -1       782-1.33170E-05 5.27927E-05-2.64698E-23
 -1       783-1.04538E-05 4.08827E-05 5.29396E-23
 -1       784-7.19282E-06 2.78745E-05 0.00000E+00
 -1       785-3.66419E-06 1.41266E-05 0.00000E+00
 -1       786 1.93541E-04 3.24044E-05 0.00000E+00
 -1       787 1.93584E-04 3.02441E-05 0.00000E+00
 -1       788 1.93628E-04 2.81376E-05 8.27181E-25
 -1       789 1.93672E-04 2.60612E-05 0.00000E+00
 -1       790 1.93716E-04 2.40060E-05-1.65436E-24
 -1       791 1.93760E-04 2.19631E-05-8.27181E-25
 -1       792 1.93805E-04 1.99293E-05-1.65436E-24
 -1       793 1.93849E-04 1.79017E-05 8.27181E-25
 -1       794 1.93894E-04 1.58801E-05 0.00000E+00
 -1       795 1.93939E-04 1.38646E-05-8.27181E-25
 -1       796 1.93983E-04 1.18580E-05 0.00000E+00
 -1       797 1.94028E-04 9.86311E-06 0.00000E+00
 -1       798 1.94072E-04 7.88855E-06 0.00000E+00
 -1       799 1.94117E-04 5.94292E-06 0.00000E+00
 -1       800 1.94162E-04 4.04879E-06 1.65436E-24
 -1       801 1.47714E-04 3.11432E-05-2.64698E-23
 -1       802 9.28112E-06 1.94315E-05 0.00000E+00
 -1       803-1.08943E-04 9.81993E-06 5.29396E-23
 -1       804-9.65280E-05 6.83568E-06 0.00000E+00
 -1       805-3.18882E-05 2.68526E-06 0.00000E+00
 -1       806 1.94230E-04 3.23217E-05-3.30872E-24
 -1       807 1.94946E-04 3.00271E-05 0.00000E+00
 -1       808 1.95649E-04 2.77633E-05 0.00000E+00
 -1       809 1.96339E-04 2.55347E-05 1.65436E-24
 -1       810 1.97014E-04 2.33452E-05 0.00000E+00
 -1       811 1.97673E-04 2.11989E-05-1.65436E-24
 -1       812 1.98314E-04 1.90998E-05 0.00000E+00
 -1       813 1.98936E-04 1.70517E-05 0.00000E+00
 -1       814 1.99538E-04 1.50588E-05 3.30872E-24
 -1       815 2.00118E-04 1.31249E-05 0.00000E+00
 -1       816 2.00674E-04 1.12540E-05 0.00000E+00
 -1       817 2.01205E-04 9.45006E-06 0.00000E+00
 -1       818 2.01710E-04 7.71697E-06-1.65436E-24
 -1       819 2.02187E-04 6.05868E-06 1.65436E-24
 -1       820 2.02635E-04 4.47906E-06 3.30872E-24
 -1       821 1.94078E-04-1.70656E-07 0.00000E+00
 -1       822 1.93937E-04-3.79793E-06 1.65436E-24
 -1       823 1.93793E-04-8.20315E-06 3.30872E-24
 -1       824 1.93647E-04-1.29316E-05-1.65436E-24
 -1       825 1.93501E-04-1.74411E-05 3.30872E-24
 -1       826 1.93359E-04-2.11905E-05 0.00000E+00
 -1       827 1.93219E-04-2.38463E-05 0.00000E+00
 -1       828 1.93082E-04-2.50819E-05-1.65436E-24
 -1       829 1.92946E-04-2.49581E-05-3.30872E-24
 -1       830 1.92809E-04-2.35443E-05 0.00000E+00
 -1       831 1.92671E-04-2.12619E-05 0.00000E+00
 -1       832 1.92531E-04-1.85377E-05 0.00000E+00
 -1       833 1.92393E-04-1.59191E-05-3.30872E-24
 -1       834 1.92257E-04-1.39531E-05 1.65436E-24
 -1       835 1.92122E-04-1.30089E-05 8.27181E-25
 -1       836 1.95896E-04 2.35376E-06 0.00000E+00
 -1       837 1.97456E-04 2.48178E-06 0.00000E+00
 -1       838 1.98919E-04 2.60975E-06 0.00000E+00
 -1       839 2.00318E-04 2.73701E-06-8.27181E-25
 -1       840 2.01686E-04 2.86412E-06-8.27181E-25
 -1       856 1.91979E-04-1.45117E-05 8.27181E-25
 -1       857 1.91959E-04-1.54384E-05-2.58494E-26
 -1       858 1.91940E-04-1.62506E-05 0.00000E+00
 -1       859 1.91920E-04-1.69694E-05 2.06795E-25
 -1       860 1.91901E-04-1.76161E-05 4.13590E-25
 -1       861 1.91881E-04-1.82118E-05 0.00000E+00
 -1       862 1.91861E-04-1.87779E-05 4.13590E-25
 -1       863 1.91841E-04-1.93356E-05 4.13590E-25
 -1       864 1.91821E-04-1.99064E-05 0.00000E+00
 -1       865 1.91801E-04-2.05115E-05 4.13590E-25
 -1       866 1.91782E-04-2.11721E-05-8.27181E-25
 -1       867 1.91762E-04-2.19096E-05 0.00000E+00
 -1       868 1.91741E-04-2.27451E-05 0.00000E+00
 -1       869 1.91721E-04-2.36998E-05 0.00000E+00
 -1       870 1.91701E-04-2.47946E-05 8.27181E-25
 -1       871 1.93344E-04-1.34543E-05-8.27181E-25
 -1       872 1.94841E-04-1.34626E-05 0.00000E+00
 -1       873 1.96417E-04-1.34716E-05 0.00000E+00
 -1       874 1.98004E-04-1.34814E-05 4.13590E-25
 -1       875 1.99534E-04-1.34917E-05-2.06795E-25
 -1       876 1.92520E-04-1.44971E-05-3.30872E-24
 -1       877 1.93023E-04-1.54782E-05-1.65436E-24
 -1       878 1.93505E-04-1.64004E-05 0.00000E+00
 -1       879 1.93967E-04-1.72712E-05 0.00000E+00
 -1       880 1.94413E-04-1.80981E-05 0.00000E+00
 -1       881 1.94846E-04-1.88883E-05 0.00000E+00
 -1       882 1.95267E-04-1.96492E-05 0.00000E+00
 -1       883 1.95681E-04-2.03882E-05 1.65436E-24
 -1       884 1.96089E-04-2.11125E-05 0.00000E+00
 -1       885 1.96494E-04-2.18296E-05-1.65436E-24
 -1       886 1.96899E-04-2.25467E-05 3.30872E-24
 -1       887 1.97307E-04-2.32712E-05 1.65436E-24
 -1       888 1.97720E-04-2.40104E-05-3.30872E-24
 -1       889 1.98140E-04-2.47718E-05 0.00000E+00
 -1       890 1.98571E-04-2.55628E-05 1.65436E-24
 -1       891 1.93043E-04-2.61080E-05 0.00000E+00
 -1       892 1.94383E-04-2.61656E-05 8.27181E-25
 -1       893 1.95675E-04-2.62231E-05-8.27181E-25
 -1       894 1.96894E-04-2.62804E-05 8.27181E-25
 -1       895 1.98013E-04-2.63374E-05 0.00000E+00
 -1       956 2.02925E-04 1.65959E-06 0.00000E+00
 -1       957 2.02792E-04 4.28738E-07-8.27181E-25
 -1       958 2.02660E-04-7.21328E-07 0.00000E+00
 -1       959 2.02527E-04-1.80194E-06 0.00000E+00
 -1       960 2.02395E-04-2.82446E-06 0.00000E+00
 -1       961 2.02262E-04-3.80032E-06 0.00000E+00
 -1       962 2.02129E-04-4.74091E-06 0.00000E+00
 -1       963 2.01997E-04-5.65769E-06 0.00000E+00
 -1       964 2.01864E-04-6.56208E-06 0.00000E+00
 -1       965 2.01732E-04-7.46552E-06 0.00000E+00
 -1       966 2.01599E-04-8.37945E-06 0.00000E+00
 -1       967 2.01467E-04-9.31530E-06 1.65436E-24
 -1       968 2.01334E-04-1.02845E-05 0.00000E+00
 -1       969 2.01202E-04-1.12984E-05-3.30872E-24
 -1       970 2.01070E-04-1.23685E-05 0.00000E+00
 -1       971 2.00820E-04-1.46421E-05 0.00000E+00
 -1       972 2.00699E-04-1.56843E-05 0.00000E+00
 -1       973 2.00577E-04-1.66425E-05 3.30872E-24
 -1       974 2.00456E-04-1.75274E-05 0.00000E+00
 -1       975 2.00335E-04-1.83500E-05-3.30872E-24
 -1       976 2.00214E-04-1.91211E-05 0.00000E+00
 -1       977 2.00092E-04-1.98515E-05 0.00000E+00
 -1       978 1.99971E-04-2.05522E-05-1.65436E-24
 -1       979 1.99850E-04-2.12339E-05 3.30872E-24
 -1       980 1.99729E-04-2.19077E-05 0.00000E+00
 -1       981 1.99608E-04-2.25845E-05 0.00000E+00
 -1       982 1.99487E-04-2.32750E-05-1.65436E-24
 -1       983 1.99366E-04-2.39902E-05 3.30872E-24
 -1       984 1.99245E-04-2.47410E-05 1.65436E-24
 -1       985 1.99125E-04-2.55382E-05 0.00000E+00
 -3
    1PSTEP                        22          11           1          
  100CL  111 6.62109E-01         409                     0   11           1
 -4  STRESS      6    1
 -5  SXX         1    4    1    1
 -5  SYY         1    4    2    2
 -5  SZZ         1    4    3    3
 -5  SXY         1    4    1    2
 -5  SYZ         1    4    2    3
 -5  SZX         1    4    3    1
 -1         1-5.34089E+06-1.49696E+06-1.12537E+06-1.22996E+06-1.57161E-09 2.50671E-07
 -1         2 1.72235E+06 2.50252E+07 5.74922E+06 7.65613E+06 3.53612E-08 3.27273E-08
 -1         3-1.48183E+03-1.54275E+06 4.02476E+02-2.18522E+03-5.23773E-10 2.94895E-08
 -1         5-7.53969E+01 3.85996E+05 9.97180E+00-1.34097E+00-4.88176E-10-2.45873E-08
 -1         8-5.44073E+05-1.98764E+05-6.31896E+04-2.34574E+05 2.81943E-11-1.39487E-07
 -1         9 1.19345E+07 4.40969E+06 2.92937E+06-1.62855E+05-5.09899E-09 1.24006E-07
 -1        10-2.29462E+03-1.60765E+06-3.90697E+03-1.47891E+04-1.31895E-08-4.26314E-09
 -1        12-7.14826E+01 3.86017E+05 3.27814E+02-9.14246E+00-6.52598E-10 2.15368E-09
 -1        15 8.97420E+02 4.93177E+02 2.90088E+03 7.51018E-01-3.89335E-10 6.87453E-08
 -1        16 2.29172E+07-3.60133E+05 3.11200E+06-2.36770E+06 5.82077E-09-1.08654E-08
 -1        17 8.40596E+06 6.28605E+06 2.26862E+06 6.00965E+06 2.34751E-08 3.62867E-08
 -1        18 1.42318E+05 3.34956E+04 4.11909E+03-1.19613E+05 1.45276E-08 1.04810E-08
 -1        19 1.22287E+05 1.41431E+05-9.58922E+02 2.20221E+04 1.68366E-09-1.92122E-09
 -1        20-8.18014E+04-5.72936E+05-1.28559E+05 2.51018E+04-2.67983E-09-4.73119E-09
 -1        21-4.55203E+01-2.95631E+05-9.22843E+02 2.74876E+02 1.15817E-08 1.39356E-08
 -1        24 1.41530E+07 1.21587E+07 3.91270E+06 1.12554E+07-1.68482E-07-5.40167E-08
 -1        25 1.26044E+05 2.67316E+05 1.00323E+05-6.46035E+05 2.78578E-10 1.53983E-08
 -1        26-5.44669E+04 9.22708E+04-2.45350E+04 1.25228E+03-2.07365E-10 7.02391E-09
 -1        27-7.57669E+04-3.09614E+05-1.13222E+05 6.88946E+04 3.58993E-09 4.79001E-11
 -1        28 2.22123E+04-8.52316E+04 1.68754E+04 2.05966E+04-2.04602E-09 8.77474E-09
 -1        32-1.67873E+06-3.17978E+06-1.97821E+05 4.58910E+05-4.21278E-08-1.26954E-08
 -1        33-1.78085E+05 9.28887E+04 3.23387E+04-3.88263E+04-3.46373E-09 2.43357E-08
 -1        34-2.23284E+05-2.50006E+04 6.88502E+02 7.55487E+04-4.39332E-09-9.29883E-09
 -1        35-2.29016E+04-3.38005E+04-1.34656E+03 5.14300E+04-4.80154E-09-3.69861E-09
 -1        51 6.12659E+04-1.66442E+05 1.29380E+05-4.21052E+05-2.91038E-11 6.82267E-08
 -1        52 2.06503E+04-1.43718E+05 6.77255E+04-4.91106E+05 3.63798E-11-2.33897E-07
 -1        53 4.09519E+03-1.59014E+05 3.50016E+04-4.19624E+05 5.78439E-10 5.95610E-08
 -1        54 7.00869E+03-1.54788E+05 2.82261E+04-4.92490E+05 4.87489E-10-1.73199E-07
 -1        55 1.53139E+04-1.61544E+05 3.37052E+04-4.19556E+05 1.74623E-10 1.41139E-07
 -1        56-9.87097E+06-1.48333E+06-9.60501E+05-4.18602E+06-4.71482E-09 2.47674E-08
 -1        57-1.12914E+07-5.52922E+05-5.32104E+05-2.48718E+06-1.03319E-09-6.41812E-08
 -1        58-9.53298E+06-1.98974E+06-2.03722E+05-4.43530E+06-2.74013E-08-1.56673E-07
 -1        59-1.16485E+07 5.64589E+04-1.01969E+05-2.40657E+06-2.35086E-08 2.85072E-08
 -1        60-9.64670E+06-1.99108E+06-6.35656E+04-4.38338E+06-8.46921E-09 3.89264E-08
 -1        61-1.07409E+07-3.90262E+05 4.11402E+04-2.66493E+06 3.57395E-08 7.99228E-08
 -1        62-1.02261E+07-1.68834E+06-1.15561E+05-4.00219E+06-5.61704E-09 1.02438E-07
 -1        63-9.50828E+06-1.31993E+06 9.42090E+04-3.53118E+06 2.50875E-08-1.84289E-07
 -1        64-1.06990E+07-1.19082E+06-1.06771E+05-3.40643E+06-2.70957E-08 5.79894E-09
 -1        65-9.11350E+06-2.07938E+06 3.56307E+04-4.74643E+06-8.33097E-09-1.17807E-08
 -1        66-1.08231E+07-7.88351E+05-5.02916E+04-2.94143E+06-4.39104E-08 1.79716E-07
 -1        67-9.21477E+06-2.37551E+06-9.12814E+04-5.33611E+06-2.33158E-08 2.39597E-07
 -1        68-1.08030E+07-7.48698E+05-1.91503E+05-2.94003E+06-4.44743E-08 1.32641E-07
 -1        69-9.30757E+06-2.41560E+06-4.68624E+05-4.71717E+06-4.78030E-08-5.20304E-08
 -1        70-1.05363E+07-8.97947E+05-8.88106E+05-3.43989E+06 3.77258E-09-1.57335E-07
 -1        86-1.75834E+06-1.71932E+07-3.15136E+06-3.58459E+06-2.97878E-07 8.00501E-08
 -1        87 2.80873E+06 7.37979E+06 2.61917E+06 6.43813E+06-4.65952E-07 1.20854E-08
 -1        88-5.50955E+05-1.76066E+06 2.53038E+05-2.76700E+06-4.47088E-07-4.86043E-08
 -1        89 3.75668E+06 7.01513E+06 2.68785E+06 6.67053E+06-6.31720E-07-1.95126E-07
 -1        90-2.58979E+06-1.69201E+07-3.39500E+06-3.85576E+06-1.49194E-07-7.06932E-08
 -1       121-2.02963E+03-1.54763E+06-5.46944E+02 1.08304E+03 1.49909E-09 3.30037E-08
 -1       122-1.29822E+03-1.54281E+06 7.62416E+02-4.37478E+03-5.46321E-09 1.52359E-08
 -1       123-2.04947E+03-1.54776E+06 2.52708E+02 3.23474E+03 4.39411E-09-8.42556E-09
 -1       124 3.20621E+02-1.54237E+06 2.91969E+03-9.16012E+03-9.90440E-09 2.16442E-08
 -1       125-2.85065E+03-1.54865E+06 3.41882E+03 5.82261E+03 6.74481E-09 1.96087E-09
 -1       191-7.94533E+01 3.86014E+05 8.46828E+00 6.99305E-01-5.46430E-10-2.03054E-08
 -1       192-7.63597E+01 3.85996E+05 2.12801E+01-4.30312E+00-7.52731E-10-1.52868E-08
 -1       193-8.19878E+01 3.86013E+05 3.62188E+01 3.78028E+00-1.11342E-09-5.23505E-09
 -1       194-7.94467E+01 3.86000E+05 8.08988E+01-9.76621E+00-6.18438E-10 2.54631E-08
 -1       195-8.68523E+01 3.86011E+05 1.54872E+02 6.35618E+00-1.54244E-09 1.67602E-08
 -1       251-8.84314E+05 1.75257E+04-4.08918E+04-1.63426E+04 3.39543E-09-1.90663E-07
 -1       252-8.99708E+05-2.02886E+04-2.84365E+04 5.88756E+04-1.80762E-09-1.61192E-07
 -1       253-8.93574E+05 2.71055E+03-1.10434E+04-1.20121E+04 2.04636E-10 3.52888E-08
 -1       254-8.84124E+05-3.30172E+03-4.72008E+03 4.27931E+04 2.71962E-09-1.44970E-07
 -1       255-8.99124E+05 1.36861E+01-4.03979E+03-2.65061E+02-7.02948E-09 1.31575E-07
 -1       256-8.77034E+05-2.96094E+02 1.70921E+03 1.57757E+04 1.24455E-08 6.42376E-08
 -1       257-9.00057E+05-7.46260E+02-1.84202E+03 1.49887E+04-1.67347E-09 6.54225E-08
 -1       258-8.80434E+05 1.09861E+03 3.24333E+03-1.30703E+04-1.02509E-08 2.36335E-07
 -1       259-8.96011E+05-1.15485E+03 1.12048E+03 2.85764E+04-2.79510E-09 4.81416E-08
 -1       260-8.88961E+05 3.32815E+03 5.73926E+03-3.40560E+04 9.39423E-09-6.33745E-08
 -1       261-8.92353E+05-2.33614E+03 8.57809E+03 3.59977E+04 1.11606E-08-1.44567E-07
 -1       262-8.88658E+05 1.22030E+04 2.13776E+04-4.03106E+04 3.14315E-09-2.98745E-07
 -1       263-8.96655E+05-9.73083E+03 3.37638E+04 3.48452E+04 1.23805E-10 4.01449E-07
 -1       264-8.56900E+05 6.70122E+04 9.39142E+04-2.96566E+04 7.55347E-09 5.09754E-08
 -1       265-9.23488E+05-5.73783E+04 1.30026E+05 2.53252E+04 6.48879E-09 2.23234E-07
 -1       266-1.62465E+04-7.59772E+03 3.81148E+04-1.60680E+01 9.27685E-11-2.66735E-07
 -1       267 1.88339E+04 8.85398E+03 2.69411E+04 1.85411E+01 3.71074E-10-8.30291E-08
 -1       268-2.52560E+03-1.25404E+03 1.00138E+04-2.36236E+00-5.22959E-11 9.37760E-08
 -1       269 2.98198E+03 1.50074E+03 6.50889E+03 2.75190E+00-9.10632E-11 1.49212E-07
 -1       270-4.47595E+02-2.46583E+02 3.14193E+03-3.73448E-01-6.02540E-12 2.59534E-07
 -1       271-1.41546E+06-1.82184E+05-1.06905E+05-5.52152E+05-8.85484E-09 1.48284E-08
 -1       272-1.39881E+06-2.99726E+05-6.66271E+04-5.99940E+05 4.24770E-08 3.40297E-08
 -1       273-1.43836E+06-2.04047E+05-2.61197E+04-5.44064E+05-7.98536E-09 1.83660E-07
 -1       274-1.37346E+06-2.73170E+05-1.32887E+04-6.15850E+05-9.36780E-10-1.62709E-09
 -1       275-1.44403E+06-2.03114E+05-6.61831E+03-5.40168E+05-1.03719E-08-4.58258E-08
 -1       276-1.36841E+06-2.74403E+05-2.62474E+03-6.25208E+05 6.13072E-08-1.25056E-07
 -1       277-1.44697E+06-2.00216E+05-1.86202E+03-5.37350E+05-1.24273E-08 1.80969E-07
 -1       278-1.36666E+06-2.77642E+05-6.10495E+02-6.32060E+05 1.68366E-08 1.32697E-07
 -1       279-1.44882E+06-1.97922E+05-7.94595E+02-5.35404E+05-4.89727E-08-2.44951E-07
 -1       280-1.36594E+06-2.79976E+05-8.01365E+02-6.36471E+05 2.20093E-08 5.87524E-08
 -1       281-1.44979E+06-1.96554E+05-1.49371E+03-5.34347E+05-3.09446E-08 4.56201E-08
 -1       282-1.36632E+06-2.81838E+05-3.45683E+03-6.38167E+05 5.39297E-08-1.68936E-07
 -1       283-1.44936E+06-1.95577E+05-6.16453E+03-5.34276E+05-3.35360E-08-2.78601E-08
 -1       284-1.37189E+06-2.89664E+05-1.67696E+04-6.35937E+05 1.93795E-08-2.47790E-07
 -1       285-1.44392E+06-1.89833E+05-2.62955E+04-5.36004E+05 4.62933E-09-8.45957E-08
 -1       301-1.25495E+04-6.57439E+05 1.65944E+05-1.16235E+06 9.89530E-10 2.33267E-08
 -1       302-1.57572E+04-6.09272E+05 9.98861E+04-1.69582E+06-1.38389E-08 1.83121E-07
 -1       303-2.61878E+04-6.51223E+05 5.61511E+04-1.15908E+06 9.88075E-09 1.22001E-07
 -1       304-3.13146E+04-6.17441E+05 5.60042E+04-1.69535E+06 4.58385E-09 1.93322E-07
 -1       305-3.08054E+04-6.39741E+05 6.81863E+04-1.16215E+06-2.05546E-08 1.46931E-07
 -1       306-3.00125E+07-6.18142E+06-8.56688E+06-4.45708E+05-8.99890E-08-2.44763E-08
 -1       307 2.50028E+07 3.28814E+06 5.46421E+06-1.53244E+07-8.64195E-07 3.30358E-07
 -1       308-6.83480E+06-9.75150E+05-4.05571E+05 5.19056E+06-1.96102E-07 3.60145E-07
 -1       309-3.07406E+06 8.64391E+06 2.29555E+06-2.06954E+07 5.30021E-07 1.68817E-07
 -1       310-1.27795E+07-1.95677E+06-2.09802E+06 5.18876E+06-1.48430E-08-1.85450E-07
 -1       311 3.88901E+07-4.61866E+04 7.33991E+06-8.51939E+06 3.26050E-07 1.73110E-07
 -1       312-3.19546E+07-6.86900E+06-8.57322E+06-5.21662E+06 7.84639E-08 2.35930E-07
 -1       313 4.51384E+07 1.53664E+07 1.06772E+07 2.40409E+07 3.42552E-08 1.99012E-07
 -1       314-1.70061E+07-1.79061E+07-7.49980E+06-1.25037E+07 5.28409E-07 4.81959E-08
 -1       315-2.11619E+06 2.97901E+07 5.63346E+06 1.02636E+07-2.85727E-07 2.36265E-07
 -1       316 1.47726E+06-9.77583E+06-4.04498E+05-2.44607E+06-1.00424E-06-2.70345E-07
 -1       317-1.70459E+07 2.23980E+07 2.24624E+06-8.92124E+06 7.56467E-07-6.84056E-07
 -1       318-1.12177E+06-1.29001E+07-2.08834E+06-4.25689E+06-9.44914E-07 1.84576E-07
 -1       319 7.38736E+06 3.21125E+07 7.08742E+06 1.67418E+07-7.13335E-08 1.99798E-07
 -1       320-2.26588E+07-1.76824E+07-9.88612E+06-1.28405E+07 1.96393E-07-4.72064E-08
 -1       336-7.57064E+02-1.67536E+06-1.37167E+04 8.79740E+03-2.62535E-08 1.03828E-08
 -1       337-5.37158E+03-1.67486E+06-1.78860E+04-2.13845E+04-4.76778E-08-1.53195E-08
 -1       338 2.52930E+02-1.67485E+06-2.81878E+04 1.23368E+04-3.45262E-08-5.66070E-09
 -1       339-2.99192E+04-1.69192E+06-6.36844E+04-2.83214E+04-6.23922E-08 2.29884E-08
 -1       340 1.96748E+04-1.66045E+06-1.00335E+05 1.56041E+04-4.18368E-08 4.62896E-08
 -1       406-4.98082E+01 3.85996E+05 6.43649E+02 3.34051E+00-1.97630E-09 1.45519E-08
 -1       407 1.54564E+02 3.86131E+05 1.37554E+03 2.34488E+01-5.39323E-10 3.99359E-09
 -1       408 6.34240E+02 3.85896E+05 2.74271E+03-2.71081E+01-2.50247E-09 1.65255E-08
 -1       409 2.90452E+03 3.87007E+05 6.18183E+03 2.89308E+02-2.51816E-10 1.29876E-09
 -1       410 8.47303E+03 3.85107E+05 1.26169E+04-2.78957E+02-2.88492E-09-7.92352E-09
 -1       521-3.16775E+07-7.67294E+06-1.00640E+07-4.45973E+04-2.32831E-08-3.08501E-08
 -1       522 2.59957E+07 4.37954E+06 5.60464E+06-1.89146E+07-4.97414E-07-2.29600E-07
 -1       523-7.40466E+06-1.29785E+06-3.97081E+05 5.66092E+06 5.59085E-08-3.06900E-07
 -1       524-6.57278E+06 1.17994E+07 2.49922E+06-2.38463E+07 9.25240E-07-7.83690E-07
 -1       525-1.35934E+07-2.62368E+06-2.31970E+06 5.67083E+06 5.03787E-07-4.30533E-07
 -1       526 4.27217E+07-1.58092E+05 7.73850E+06-1.11848E+07 3.16941E-07-9.31032E-08
 -1       527-3.39366E+07-8.61015E+06-9.93367E+06-5.09578E+06 2.27476E-07 9.87202E-08
 -1       528 4.95099E+07 1.72684E+07 1.11910E+07 2.74989E+07 1.71014E-07-1.07568E-07
 -1       529-1.79780E+07-2.02254E+07-8.64330E+06-1.25664E+07 1.86265E-09 3.10829E-08
 -1       530-4.61012E+06 3.47743E+07 5.99464E+06 9.67183E+06-4.16287E-07 5.14614E-07
 -1       531 1.50223E+06-1.08709E+07-3.74901E+05-2.36213E+06-8.09392E-07 5.71366E-07
 -1       532-1.95260E+07 2.44637E+07 2.47113E+06-1.33484E+07 4.44343E-07-7.32107E-07
 -1       533-1.15586E+06-1.41125E+07-2.24050E+06-4.03631E+06-3.48897E-07-9.90694E-07
 -1       534 5.43561E+06 3.74946E+07 7.41559E+06 1.74103E+07-1.15804E-07 8.26141E-07
 -1       535-2.39203E+07-2.01889E+07-1.13943E+07-1.29570E+07 7.79983E-08 4.69794E-07
 -1       536-7.05435E+05-4.64307E+04-4.86377E+04-5.46130E+04 2.39197E-10 5.49144E-08
 -1       537-5.55916E+04 4.43360E+04 8.33908E+04 1.23720E+05-1.13511E-07 1.00832E-07
 -1       538-3.94358E+05 3.37761E+03 3.40652E+03-7.21392E+04 1.79599E-08 9.85683E-08
 -1       539-2.69260E+05 2.80198E+03 2.47859E+04 1.38609E+05 1.35093E-07 1.07320E-07
 -1       540-4.97136E+05-4.18870E+02-2.13233E+04-7.00360E+04-2.33363E-08 8.35337E-08
 -1       541 1.45817E+05 1.69358E+04 1.06194E+05 9.78176E+04-3.08855E-08 5.33947E-08
 -1       542-7.98251E+05-2.01028E+04-8.41129E+04-3.04748E+04 1.66096E-08 4.07363E-08
 -1       543 4.04088E+05 2.72812E+04 1.57711E+05-1.33522E+04-2.76464E-08-2.07433E-08
 -1       544-7.48481E+05-1.65096E+04-7.47181E+04 4.04658E+04-1.57229E-08-4.33017E-08
 -1       545 2.82907E+04 9.46504E+03 7.96723E+04-1.13507E+05 5.87261E-09-1.00265E-07
 -1       546-4.32546E+05 6.08885E+03-1.22132E+04 6.93345E+04-3.93948E-09-7.94868E-08
 -1       547-2.87294E+05-4.65864E+03 1.05519E+04-1.41452E+05-9.77085E-08-8.94062E-08
 -1       548-4.41380E+05 4.71867E+03-2.38658E+04 6.91006E+04-9.69178E-08-8.95479E-08
 -1       549 4.74557E+04 1.60048E+04 6.03616E+04-1.11365E+05-6.32991E-08-4.02176E-08
 -1       550-7.58338E+05-2.20702E+04-1.28848E+05 3.85329E+04 1.22127E-08-3.80242E-08
 -1       551 4.06243E+04-7.44949E+05-1.59553E+04-1.24502E+06-1.01514E-07 1.90339E-08
 -1       552 9.29601E+04-7.89819E+05 9.83914E+03-1.77517E+06-7.01402E-08 6.04850E-08
 -1       553 7.15476E+04-7.86261E+05 3.19321E+04-1.23838E+06-1.20490E-07 5.21832E-08
 -1       554 1.31698E+05-8.05714E+05 8.08449E+04-1.77712E+06-7.58155E-08 2.51184E-08
 -1       555 1.01257E+05-8.09908E+05 1.47671E+05-1.23821E+06-1.21305E-07-9.81890E-09
 -1       556 2.23552E+05-3.83489E+05 2.51665E+04-4.06932E+05-2.61643E-08-2.77068E-08
 -1       557 3.53905E+05-4.87753E+05 1.58410E+04-5.27359E+05-5.12227E-09 1.24382E-08
 -1       558 2.05312E+05-3.76193E+05 2.20096E+03-4.11430E+05-2.58442E-08-7.02858E-09
 -1       559 3.28993E+05-4.87752E+05 2.37788E+03-5.47784E+05 2.03727E-08 3.44153E-09
 -1       560 1.90024E+05-3.66606E+05-1.52933E+03-4.22445E+05 8.09086E-09 2.48110E-09
 -1       561 3.09794E+05-4.80063E+05 1.16803E+02-5.60877E+05 1.48430E-09 1.26711E-08
 -1       562 1.77940E+05-3.59098E+05-1.33030E+03-4.31195E+05 2.12458E-09 1.10667E-08
 -1       563 2.95441E+05-4.73806E+05-3.93783E+01-5.70251E+05 1.77533E-09 6.32281E-09
 -1       564 1.69316E+05-3.53726E+05-6.00348E+02-4.37306E+05 3.88536E-09 2.32540E-08
 -1       565 2.85923E+05-4.69660E+05 2.45738E+01-5.76332E+05 8.83301E-09 1.36797E-08
 -1       566 1.64276E+05-3.50537E+05-2.57339E+02-4.40831E+05 3.08501E-09-4.89308E-09
 -1       567 2.81298E+05-4.67648E+05-3.56783E+02-5.79141E+05 3.38550E-08-1.77606E-08
 -1       568 1.62910E+05-3.49701E+05-1.11353E+03-4.41882E+05-3.92902E-10 1.59816E-08
 -1       569 2.80187E+05-4.67569E+05-2.81401E+03-5.77710E+05-2.03909E-09 3.39096E-08
 -1       570 1.66307E+05-3.52925E+05-6.15903E+03-4.40868E+05 8.94215E-09 4.32283E-09
 -1       571 2.90423E+05 1.04887E+04 1.49605E+04-9.53962E+04 3.84898E-09-1.94495E-09
 -1       572 2.92591E+05 3.95504E+03 7.33188E+03-1.04658E+05-1.76442E-10-6.92080E-09
 -1       573 2.91284E+05 1.24571E+03 3.25780E+03-9.52188E+04 1.37970E-09 4.23825E-10
 -1       574 2.91497E+05 7.28622E+02 1.63378E+03-1.04884E+05 2.88196E-09 4.46926E-09
 -1       575 2.91377E+05 4.49788E+02 7.71120E+02-9.51946E+04-2.96133E-09 1.77351E-08
 -1       576 2.91361E+05 4.61443E+02 3.94853E+02-1.04913E+05-1.17939E-08 8.28277E-09
 -1       577 2.91416E+05 3.91855E+02 1.97182E+02-9.51913E+04-9.27866E-09 1.20708E-08
 -1       578 2.91391E+05 4.23418E+02 1.14043E+02-1.04918E+05-9.87575E-09 1.19871E-09
 -1       579 2.91489E+05 3.55107E+02 7.85548E+01-9.51909E+04 4.25462E-09-1.11331E-08
 -1       580 2.91493E+05 3.72289E+02 9.14957E+01-1.04913E+05-6.99947E-09-1.34369E-08
 -1       581 2.91603E+05 2.96419E+02 1.38519E+02-9.51969E+04-4.45652E-09-6.40102E-09
 -1       582 2.91669E+05 3.35082E+02 2.81782E+02-1.04851E+05-1.19935E-08-2.12967E-08
 -1       583 2.91743E+05 3.39794E+02 5.41024E+02-9.52535E+04-6.45377E-09 1.51706E-08
 -1       584 2.92047E+05 7.81731E+02 1.22425E+03-1.04374E+05 6.95582E-09-8.53061E-09
 -1       585 2.91769E+05 1.81242E+03 2.47920E+03-9.56731E+04-2.44654E-09-8.58927E-09
 -1       586-3.44318E+03 1.16868E+05-2.93832E+03-2.51286E+05-2.87810E-09-9.38030E-09
 -1       587-1.34605E+03 1.16616E+05 7.66355E+02-2.76557E+05-7.20138E-09-2.20130E-08
 -1       588 3.98456E+02 1.16423E+05 4.76824E+03-2.51147E+05-3.76531E-09 4.32829E-09
 -1       589 5.09723E+03 1.18903E+05 1.23734E+04-2.76325E+05-8.78390E-09-6.60657E-09
 -1       590 1.66502E+04 1.15087E+05 2.59582E+04-2.51579E+05-5.28416E-09 6.16274E-09
 -1       591-7.36518E+04-1.58028E+04-2.24088E+04-3.15004E+04 4.20187E-10-6.68479E-09
 -1       592-7.76985E+04-1.93622E+04-1.21384E+04-3.51304E+04 2.50057E-09-1.73910E-08
 -1       593-7.58933E+04-1.41764E+04-5.05262E+03-3.31431E+04 3.43763E-09-2.74940E-09
 -1       594-7.46041E+04-1.60744E+04-2.51987E+03-3.52480E+04-1.25539E-09 2.09332E-08
 -1       595-7.60642E+04-1.41710E+04-1.15689E+03-3.32178E+04-1.93394E-09 1.74316E-08
 -1       596-7.43923E+04-1.59240E+04-5.87918E+02-3.52228E+04 4.12606E-09-1.87788E-09
 -1       597-7.60856E+04-1.41863E+04-3.19739E+02-3.32206E+04 5.90148E-09-1.50564E-08
 -1       598-7.43714E+04-1.59181E+04-2.56300E+02-3.52158E+04-6.34049E-09-1.54809E-08
 -1       599-7.60844E+04-1.41868E+04-3.26479E+02-3.32203E+04-3.94687E-09-5.57623E-09
 -1       600-7.43923E+04-1.59246E+04-6.05761E+02-3.52207E+04-2.45393E-09-1.09594E-09
 -1       601-7.60598E+04-1.41724E+04-1.19466E+03-3.32168E+04-1.73281E-09-1.73459E-08
 -1       602-7.46110E+04-1.60787E+04-2.60343E+03-3.52429E+04-4.18322E-09-1.63436E-09
 -1       603-7.58806E+04-1.41808E+04-5.22085E+03-3.31405E+04 1.04433E-09 7.40056E-09
 -1       604-7.78257E+04-1.94566E+04-1.25417E+04-3.50968E+04 2.03318E-09-4.44766E-09
 -1       605-7.35447E+04-1.58789E+04-2.31535E+04-3.14623E+04 4.76160E-09 1.25492E-08
 -1       606 2.66704E+04-1.43150E+04-2.56616E+04 2.39540E+04 4.51382E-09-1.63709E-09
 -1       607 2.22857E+04-4.67537E+03-1.27794E+04 2.69193E+04 3.09228E-10-5.43332E-09
 -1       608 2.47847E+04-8.43544E+02-5.72090E+03 2.37856E+04-3.01407E-09-8.77662E-10
 -1       609 2.43057E+04-2.89125E+02-2.89005E+03 2.71330E+04 4.36103E-09 2.10937E-08
 -1       610 2.45714E+04-4.11069E+01-1.37887E+03 2.37656E+04 5.60613E-09-4.88512E-09
 -1       611 2.44962E+04-4.14181E+01-6.95218E+02 2.71561E+04 7.23639E-09 4.85261E-09
 -1       612 2.45244E+04-2.74378E+01-3.30490E+02 2.37635E+04-9.58698E-09-9.63178E-09
 -1       613 2.45078E+04-3.73555E+01-1.48074E+02 2.71588E+04-1.56765E-08-2.61518E-08
 -1       614 2.45022E+04-3.38715E+01-3.46554E+01 2.37628E+04-9.33960E-09 4.22233E-09
 -1       615 2.45026E+04-3.58864E+01 6.22211E+01 2.71593E+04-3.73848E-09 1.87551E-08
 -1       616 2.44849E+04-3.07666E+01 1.86435E+02 2.37631E+04 3.04499E-09-2.20166E-09
 -1       617 2.45250E+04 3.82820E+00 4.25299E+02 2.71588E+04 2.40743E-09-2.77169E-10
 -1       618 2.44480E+04 9.18274E+01 8.57238E+02 2.37634E+04 2.50611E-09 2.76191E-09
 -1       619 2.48277E+04 6.66637E+02 1.92498E+03 2.71582E+04-4.23040E-09 1.17741E-08
 -1       620 2.41633E+04 2.12456E+03 3.86915E+03 2.37650E+04-2.05728E-09-1.26875E-10
 -1       621 5.05574E+02 3.00703E+05 3.83193E+03 4.14983E+04 1.14051E-09 2.74486E-09
 -1       622 6.72565E+02 3.01585E+05 3.40772E+03 6.02506E+04 1.11686E-09-9.79526E-09
 -1       623 1.44500E+02 3.00892E+05 4.10309E+03 4.13114E+04 1.30944E-09-1.16088E-08
 -1       624 2.11352E+03 3.02793E+05 7.96125E+03 6.04337E+04 1.43643E-09-2.69283E-08
 -1       625 2.06371E+03 2.99311E+05 1.39150E+04 4.13092E+04 1.53568E-09 9.97034E-09
 -1       626 2.60550E+05 6.13194E+04 5.10579E+03 1.26567E+05 7.85349E-10-1.19408E-08
 -1       627 2.58236E+05 6.27157E+04 2.46044E+03 1.30832E+05-8.65384E-10-2.78910E-08
 -1       628 2.60678E+05 5.89831E+04 1.04059E+03 1.27435E+05-9.00400E-10 5.75005E-09
 -1       629 2.57602E+05 6.20377E+04 5.09321E+02 1.31072E+05-8.22729E-09-3.39853E-10
 -1       630 2.60692E+05 5.88702E+04 2.36373E+02 1.27472E+05-3.93038E-09-3.50474E-09
 -1       631 2.57535E+05 6.20119E+04 1.27353E+02 1.31074E+05 4.07704E-09 1.51613E-08
 -1       632 2.60689E+05 5.88741E+04 8.40746E+01 1.27468E+05 1.51908E-08 4.56589E-09
 -1       633 2.57527E+05 6.20137E+04 9.40756E+01 1.31070E+05 2.65045E-08 1.60148E-08
 -1       634 2.60684E+05 5.88713E+04 1.52399E+02 1.27467E+05 3.09740E-09-9.14974E-09
 -1       635 2.57541E+05 6.20120E+04 3.08607E+02 1.31075E+05-5.69617E-09-7.20775E-09
 -1       636 2.60675E+05 5.88655E+04 6.23349E+02 1.27467E+05-5.30372E-09 5.56611E-10
 -1       637 2.57676E+05 6.21089E+04 1.37066E+03 1.31075E+05-2.27919E-08-1.74668E-08
 -1       638 2.60627E+05 5.91682E+04 2.81622E+03 1.27330E+05-7.22002E-09 8.23093E-10
 -1       639 2.59156E+05 6.41665E+04 6.66332E+03 1.30639E+05 3.74030E-09-3.57886E-10
 -1       640 2.60422E+05 6.53122E+04 1.38275E+04 1.24741E+05 8.01538E-09 2.32517E-08
 -1       656 6.65035E+04-1.70198E+06-1.60535E+05-2.56216E+03-6.25732E-10-6.59782E-10
 -1       657-8.79781E+04-1.77452E+06-1.32994E+05 5.15506E+03-2.39197E-10 9.30726E-10
 -1       658 2.11987E+04-1.72258E+06-8.19071E+04-4.64103E+03-5.66843E-10-4.25744E-09
 -1       659-9.51339E+04-1.77792E+06-1.42398E+05 6.88203E+03-2.29738E-09 1.94765E-08
 -1       660 7.36433E+04-1.69859E+06-1.76703E+05-4.28911E+03-2.75031E-09 1.87072E-10
 -1       661 1.58448E+05 1.65800E+04 1.67024E+04 6.19396E+04-4.23825E-10-6.24368E-09
 -1       662 1.67890E+05 2.89501E+04 1.12562E+04 5.81934E+04-1.18831E-09 1.11759E-08
 -1       663 1.61729E+05 2.19385E+04 3.93672E+03 6.09875E+04-2.97837E-09-5.54633E-09
 -1       664 1.64086E+05 2.26838E+04 2.35498E+03 5.93564E+04 4.11859E-10 1.01513E-08
 -1       665 1.62226E+05 2.26703E+04 9.29023E+02 6.08422E+04 2.58285E-09 9.50905E-09
 -1       666 1.63497E+05 2.18469E+04 5.43804E+02 5.95458E+04 6.30547E-09 1.45028E-08
 -1       667 1.62314E+05 2.27535E+04 2.89031E+02 6.08059E+04-1.21827E-09 1.03571E-08
 -1       668 1.63401E+05 2.17871E+04 2.94937E+02 5.95987E+04-7.04165E-09 1.23286E-09
 -1       669 1.62322E+05 2.27284E+04 3.99658E+02 6.07896E+04-3.80547E-09-9.78017E-09
 -1       670 1.63498E+05 2.20041E+04 8.70593E+02 5.96016E+04-5.82716E-09-3.93823E-09
 -1       671 1.62216E+05 2.25410E+04 1.54592E+03 6.08009E+04 1.93912E-09 1.12203E-09
 -1       672 1.64399E+05 2.35081E+04 3.95528E+03 5.93833E+04 4.48786E-09 3.22365E-09
 -1       673 1.61425E+05 2.12626E+04 6.62845E+03 6.09934E+04-2.45404E-09-3.81669E-09
 -1       674 1.70708E+05 3.41575E+04 1.89560E+04 5.75299E+04-4.49097E-09-8.05358E-10
 -1       675 1.55948E+05 1.21899E+04 2.81373E+04 6.25424E+04-8.24366E-09-1.83718E-09
 -1       676 2.40862E+01-2.95553E+05-1.11227E+03-1.37442E+02-1.10242E-09-3.93933E-09
 -1       677-2.94218E+02-2.95822E+05-2.03564E+03 2.74663E+02 8.94934E-09-2.97799E-08
 -1       678 1.97339E+02-2.95362E+05-3.59851E+03-1.37131E+02-2.13822E-09-1.75746E-10
 -1       679-3.59857E+03-2.97995E+05-8.54857E+03 2.73478E+02 7.43171E-09-3.21470E-09
 -1       680 2.14856E+03-2.93382E+05-1.37774E+04-1.34742E+02 2.71575E-09-3.86444E-09
 -1       771-3.05851E+06-7.46737E+05-1.66388E+05-1.46445E+06-3.37022E-08-2.75031E-08
 -1       772-2.98149E+06-8.35663E+05-8.57984E+04-1.56725E+06-2.25991E-08 1.03537E-08
 -1       773-3.09005E+06-7.22151E+05-4.37107E+04-1.47904E+06-1.48721E-08 1.14669E-08
 -1       774-2.97191E+06-8.17054E+05-1.95075E+04-1.59302E+06 2.90893E-08-5.35147E-09
 -1       775-3.10650E+06-7.10613E+05-1.45743E+04-1.48610E+06-2.61934E-09 7.79255E-09
 -1       776-2.98426E+06-8.14008E+05-5.45315E+03-1.61251E+06-1.40426E-08 2.88128E-09
 -1       777-3.12077E+06-7.00316E+05-6.43335E+03-1.49232E+06-5.82077E-11-3.12866E-10
 -1       778-2.99716E+06-8.11178E+05-1.82001E+03-1.62925E+06 4.26371E-09 1.28057E-08
 -1       779-3.13304E+06-6.91318E+05-3.21299E+03-1.49764E+06-1.35042E-08-5.63887E-09
 -1       780-3.00852E+06-8.08481E+05-5.32870E+02-1.64289E+06-9.57516E-09 1.56251E-09
 -1       781-3.14279E+06-6.84065E+05-1.24723E+03-1.50180E+06-2.70229E-08-2.04273E-09
 -1       782-3.01727E+06-8.06191E+05 4.51416E+02-1.65296E+06-3.76895E-08-7.38601E-09
 -1       783-3.14966E+06-6.79025E+05 7.03655E+02-1.50471E+06-5.37693E-09-1.65387E-08
 -1       784-3.02212E+06-8.03903E+05 2.91074E+03-1.65917E+06-1.64837E-08 5.36602E-11
 -1       785-3.15372E+06-6.76018E+05 5.13917E+03-1.50656E+06-3.64671E-08 8.09996E-09
 -1       786 1.28407E+05-1.00054E+04 2.30715E+04-3.26236E+02 3.76207E-05 8.54416E-08
 -1       787 1.38429E+05 1.15818E+04 1.63349E+04-1.67838E+02 7.51350E-05 1.61628E-07
 -1       788 1.32269E+05-1.57253E+03 5.96868E+03-2.81485E+02 5.60962E-05 1.00256E-07
 -1       789 1.33928E+05 1.81998E+03 3.75118E+03-2.27477E+02 3.70101E-05 1.30049E-07
 -1       790 1.32909E+05-2.45611E+02 1.51757E+03-2.66602E+02 2.62237E-05 5.17747E-08
 -1       791 1.33181E+05 2.84301E+02 8.78158E+02-2.48379E+02 1.54452E-05 2.98392E-08
 -1       792 1.33017E+05-3.71434E+01 3.73290E+02-2.60583E+02 1.20883E-05 2.61506E-08
 -1       793 1.33052E+05 4.00153E+01 1.89492E+02-2.58282E+02 8.73541E-06 4.04893E-08
 -1       794 1.33038E+05-1.36122E+00 5.58633E+01-2.56700E+02 9.14063E-06 1.44830E-08
 -1       795 1.33016E+05-2.25971E+01-4.14168E+01-2.67819E+02 9.53413E-06 5.03801E-08
 -1       796 1.33052E+05 2.54622E+01-1.35612E+02-2.51045E+02 1.16448E-05 1.90396E-08
 -1       797 1.32934E+05-1.89493E+02-3.81381E+02-2.86485E+02 1.37444E-05 3.32820E-08
 -1       798 1.33120E+05 1.65506E+02-6.20875E+02-2.38034E+02 1.42904E-05 3.48386E-08
 -1       799 1.32464E+05-1.21477E+03-1.71135E+03-3.32912E+02 1.48280E-05 5.91673E-08
 -1       800 1.33523E+05 1.05053E+03-2.42150E+03-2.04618E+02 7.40110E-06 1.49508E-08
 -1       801-1.70816E+05-9.99268E+06-1.39249E+06 1.41437E+06 9.43837E-08-5.07644E-08
 -1       802 7.37488E+05 5.94413E+06 2.18012E+06-1.74579E+06 2.58391E-07-3.47272E-08
 -1       803-5.36303E+05-1.42614E+07-1.88972E+06 8.96995E+05 7.76708E-08 2.33231E-08
 -1       804 2.86996E+05 2.39297E+06 1.53640E+06 6.77247E+05-1.21359E-07-9.89144E-08
 -1       805 1.89314E+05-6.45561E+06-2.86710E+05-1.00300E+06-5.07571E-08-6.31853E-08
 -1       806-3.08069E+05-5.96954E+04-2.27145E+04-1.22262E+05 5.75255E-09 1.37015E-08
 -1       807-3.09828E+05-5.60150E+04-1.11594E+04-1.27805E+05 2.08411E-08-6.42029E-09
 -1       808-3.08693E+05-5.15087E+04-4.73417E+03-1.26131E+05 4.91309E-09 8.59495E-09
 -1       809-3.07481E+05-5.28800E+04-2.31490E+03-1.28080E+05-1.18785E-08 1.92299E-08
 -1       810-3.08787E+05-5.12237E+04-1.06106E+03-1.26302E+05 7.04176E-09-4.78576E-09
 -1       811-3.07300E+05-5.27541E+04-5.27717E+02-1.28045E+05 3.94721E-09-1.45337E-08
 -1       812-3.08801E+05-5.12483E+04-2.67039E+02-1.26301E+05-3.01407E-09-1.06529E-08
 -1       813-3.07274E+05-5.27563E+04-1.73812E+02-1.28026E+05 2.24463E-09-1.59689E-08
 -1       814-3.08793E+05-5.12580E+04-1.72667E+02-1.26297E+05-6.88124E-09-2.81370E-08
 -1       815-3.07278E+05-5.27586E+04-2.78594E+02-1.28018E+05 4.72937E-10 5.57156E-09
 -1       816-3.08772E+05-5.12572E+04-5.28280E+02-1.26293E+05 6.95036E-09 2.01740E-08
 -1       817-3.07367E+05-5.28090E+04-1.13386E+03-1.28006E+05-6.69752E-09 1.43659E-08
 -1       818-3.08703E+05-5.14174E+04-2.31275E+03-1.26218E+05-2.87764E-09 3.12139E-09
 -1       819-3.08634E+05-5.42056E+04-5.44170E+03-1.27706E+05 5.18776E-09-2.32942E-08
 -1       820-3.08266E+05-5.55290E+04-1.10759E+04-1.24463E+05 1.00499E-09 4.24598E-09
 -1       821-3.80268E+05 2.09235E+04-4.87480E+04 2.20461E+03 1.42863E-08-1.72804E-09
 -1       822-3.99854E+05-2.42411E+04-3.42262E+04-4.71007E+03 5.38118E-09-2.24327E-09
 -1       823-3.87674E+05 3.30065E+03-1.25875E+04 3.61774E+03-1.30029E-08 3.49155E-09
 -1       824-3.90885E+05-3.80532E+03-7.87396E+03-5.72273E+03 1.94514E-09 6.57440E-09
 -1       825-3.89245E+05 5.13386E+02-3.30283E+03 3.21740E+03 2.24837E-08-1.10001E-08
 -1       826-3.88351E+05-5.65233E+02-1.72579E+03-3.34256E+03 2.79796E-08 1.09736E-10
 -1       827-3.90181E+05 4.19083E+01-1.21340E+03 1.23741E+03 1.40424E-08-3.29058E-09
 -1       828-3.87572E+05-1.25456E+02-5.49364E+02 1.10112E+03 6.74547E-10 9.85468E-09
 -1       829-3.90009E+05 6.19897E+01-1.19937E+03-1.22631E+03 2.86300E-09 1.35730E-08
 -1       830-3.88720E+05-6.21381E+02-1.86624E+03 5.13749E+03 1.37060E-09 1.28778E-08
 -1       831-3.89057E+05 5.57495E+02-3.37848E+03-2.79897E+03-7.95360E-09-1.11140E-09
 -1       832-3.90962E+05-3.96867E+03-8.16683E+03 6.51915E+03-3.41566E-09 1.91112E-08
 -1       833-3.87787E+05 3.42047E+03-1.30778E+04-2.60803E+03-1.63054E-09 1.91812E-08
 -1       834-3.99877E+05-2.51240E+04-3.54014E+04 4.44149E+03-3.87953E-09 3.34344E-08
 -1       835-3.80122E+05 2.16779E+04-5.05594E+04-7.21224E+02 6.14978E-09 9.17498E-09
 -1       836-1.41150E+03 3.69892E+05 2.28308E+04-1.66969E+04-7.08405E-09 1.90212E-08
 -1       837 4.86373E+03 3.77045E+05 1.93277E+04-3.41048E+04-7.62333E-09 4.89194E-09
 -1       838-5.58495E+02 3.71895E+05 1.97042E+04-1.66239E+04-6.47151E-09-2.99815E-09
 -1       839 1.24023E+04 3.82658E+05 3.72858E+04-3.41574E+04-7.12316E-09 3.23354E-09
 -1       840-3.83709E+03 3.64218E+05 5.94621E+04-1.66502E+04-6.10089E-09-3.09889E-09
 -1       856-5.22240E+04 8.01727E+03-2.11272E+04-3.96843E+02 4.30998E-09 1.48220E-08
 -1       857-6.09279E+04-9.42007E+03-1.45438E+04 5.62798E+03 5.90379E-09 1.14740E-08
 -1       858-5.56710E+04 1.12435E+03-5.48201E+03-4.20937E+02 4.25803E-09 4.25212E-09
 -1       859-5.69721E+04-1.32279E+03-3.30814E+03 5.66382E+03 7.15332E-10 6.79910E-09
 -1       860-5.61859E+04 1.57465E+02-1.38644E+03-4.32413E+02-1.12226E-09-2.05871E-08
 -1       861-5.63798E+04-1.88019E+02-7.62698E+02 5.67945E+03 3.04030E-09 1.80634E-10
 -1       862-5.62665E+04 2.13352E+01-3.17024E+02-4.36546E+02-1.78488E-09-1.99501E-09
 -1       863-5.62810E+04-2.18789E+01-1.15440E+02 5.68185E+03-5.77446E-09-6.47498E-09
 -1       864-5.62852E+04-4.89545E+00 4.72551E+01-4.34813E+02-1.45947E-09-1.39920E-08
 -1       865-5.62253E+04 5.95647E+01 2.55225E+02 5.67195E+03 5.01643E-12-1.21388E-08
 -1       866-5.63200E+04-6.01248E+01 5.14306E+02-4.26650E+02 2.84558E-10 4.40835E-09
 -1       867-5.59834E+04 4.96481E+02 1.26588E+03 5.64979E+03 2.56159E-09 1.23147E-08
 -1       868-5.65222E+04-4.33921E+02 2.10351E+03-4.12652E+02-2.77430E-09-2.08797E-08
 -1       869-5.44413E+04 3.61133E+03 5.60093E+03 5.61333E+03 4.47176E-09-3.60446E-08
 -1       870-5.78544E+04-3.09037E+03 8.12821E+03-3.90087E+02-3.28487E-09-1.28825E-08
 -1       871-5.51120E+03-2.13345E+04-1.94668E+04 1.30245E+05-4.65297E-09 1.65710E-09
 -1       872-1.97931E+03-2.58610E+04-8.15152E+03 1.68883E+05-1.06766E-08-5.35738E-09
 -1       873 4.05022E+02-2.36714E+04 5.88398E+02 1.29959E+05-5.03451E-09 4.39582E-09
 -1       874 3.30208E+03-2.12640E+04 9.76583E+03 1.68912E+05-1.07093E-08-1.76697E-08
 -1       875 6.83763E+03-2.59981E+04 2.20315E+04 1.30197E+05-3.85626E-09-5.02587E-09
 -1       876 2.93384E+05 4.94474E+04 1.50817E+04 1.17736E+05-7.05995E-10-1.24419E-09
 -1       877 2.94380E+05 5.26243E+04 8.05420E+03 1.22063E+05 1.24226E-08-5.86078E-09
 -1       878 2.94794E+05 4.77767E+04 3.37431E+03 1.18971E+05-3.86945E-09-1.19280E-08
 -1       879 2.92330E+05 5.05783E+04 1.68129E+03 1.22165E+05 6.98401E-09-7.68568E-09
 -1       880 2.94895E+05 4.77594E+04 7.83125E+02 1.19022E+05-5.15979E-09 1.54839E-08
 -1       881 2.92194E+05 5.04908E+04 4.18220E+02 1.22141E+05-1.33819E-08 1.49641E-08
 -1       882 2.94904E+05 4.77727E+04 2.67584E+02 1.19023E+05-6.68706E-10-8.50820E-09
 -1       883 2.92184E+05 5.04863E+04 2.87717E+02 1.22134E+05-1.61481E-09 3.54420E-09
 -1       884 2.94898E+05 4.77699E+04 4.57736E+02 1.19023E+05 1.46986E-09-1.76914E-08
 -1       885 2.92221E+05 5.04926E+04 9.20332E+02 1.22145E+05-4.99710E-10-4.96368E-09
 -1       886 2.94862E+05 4.77431E+04 1.85490E+03 1.19020E+05 2.12950E-11 9.89917E-09
 -1       887 2.92547E+05 5.07064E+04 4.05178E+03 1.22192E+05 6.59429E-09 5.19401E-09
 -1       888 2.94606E+05 4.77882E+04 8.16446E+03 1.18890E+05-2.34536E-10 6.50925E-09
 -1       889 2.97407E+05 5.57611E+04 1.95034E+04 1.22043E+05-6.59436E-09 2.03886E-08
 -1       890 2.91273E+05 5.17467E+04 3.65293E+04 1.15783E+05-3.39060E-09-6.55018E-09
 -1       891-8.90903E+01-1.62563E+05-1.99390E+03 2.71184E+04-2.07456E-09 2.72394E-09
 -1       892-1.74911E+02-1.63090E+05-2.14145E+03 4.11811E+04 3.42402E-09-8.55925E-09
 -1       893 4.38088E+01-1.62627E+05-3.03201E+03 2.71258E+04-2.63458E-09 5.83714E-09
 -1       894-1.50787E+03-1.64235E+05-6.27510E+03 4.10287E+04 9.81345E-10 3.91537E-09
 -1       895-1.19753E+03-1.61320E+05-1.10504E+04 2.72726E+04 1.55978E-10 1.57161E-09
 -1       956-3.76714E+05-5.44932E+03-1.34521E+04 3.08371E+04 6.38829E-09-9.21546E-10
 -1       957-3.79354E+05-1.92228E+03-6.90474E+03 3.70579E+04-4.11092E-10-5.95855E-09
 -1       958-3.77923E+05-2.40830E+02-3.11150E+03 3.06695E+04-3.96540E-09-2.16205E-08
 -1       959-3.78120E+05-1.36164E+02-1.58877E+03 3.72534E+04 3.38696E-09 1.99584E-08
 -1       960-3.78041E+05-4.47380E+01-7.74752E+02 3.06522E+04 1.89357E-09 1.01204E-08
 -1       961-3.78039E+05-6.31411E+01-4.10743E+02 3.72738E+04 1.31768E-08 2.20566E-08
 -1       962-3.78069E+05-4.59668E+01-2.35119E+02 3.06494E+04 7.22639E-09 1.94464E-08
 -1       963-3.78040E+05-5.89495E+01-1.88670E+02 3.72775E+04 8.69659E-09 1.85423E-08
 -1       964-3.78074E+05-4.26134E+01-2.29348E+02 3.06486E+04-1.78399E-09 2.99610E-09
 -1       965-3.78052E+05-5.59845E+01-3.96603E+02 3.72768E+04-7.86866E-09-2.20007E-09
 -1       966-3.78058E+05-3.47750E+01-7.45165E+02 3.06501E+04-4.79577E-09-8.98899E-09
 -1       967-3.78141E+05-1.19431E+02-1.52829E+03 3.72624E+04-4.78190E-09 4.61705E-09
 -1       968-3.77954E+05-2.17009E+02-2.99184E+03 3.06627E+04-3.33148E-09-2.75088E-09
 -1       969-3.79340E+05-1.83194E+03-6.64181E+03 3.71142E+04-8.27640E-10-1.15111E-08
 -1       970-3.76800E+05-5.22319E+03-1.29386E+04 3.07898E+04-2.89310E-09 7.14499E-09
 -1       971-3.44943E+05-1.72530E+03-9.29822E+03 1.53596E+04 8.12361E-09-4.96652E-09
 -1       972-3.47181E+05-1.27019E+03-5.06372E+03 2.12422E+04 5.56611E-09 4.31601E-09
 -1       973-3.45979E+05-6.19618E+01-2.26809E+03 1.52386E+04 3.39423E-09 2.23988E-08
 -1       974-3.46114E+05-8.10014E+01-1.17570E+03 2.13791E+04-3.16140E-09 2.59249E-08
 -1       975-3.46061E+05-1.71550E+01-5.88155E+02 1.52263E+04-3.65617E-09-2.55084E-08
 -1       976-3.46052E+05-3.12310E+01-3.40168E+02 2.13948E+04 5.69344E-09-1.94048E-08
 -1       977-3.46077E+05-1.64181E+01-2.48397E+02 1.52229E+04-5.19321E-10-1.89769E-08
 -1       978-3.46058E+05-2.50203E+01-2.92735E+02 2.13997E+04-7.76618E-09-2.05555E-08
 -1       979-3.46077E+05-7.95460E+00-4.72102E+02 1.52215E+04-3.33318E-09-1.17062E-08
 -1       980-3.46093E+05-2.19648E+01-9.12678E+02 2.14006E+04-3.26304E-09-1.25613E-08
 -1       981-3.46048E+05 1.48584E+01-1.76822E+03 1.52220E+04 9.76002E-10-4.19084E-09
 -1       982-3.46336E+05-1.52615E+02-3.65521E+03 2.13940E+04 2.63742E-09 1.94139E-08
 -1       983-3.45825E+05-9.83613E+01-7.10226E+03 1.52280E+04-4.21460E-09-4.41355E-09
 -1       984-3.49752E+05-3.86191E+03-1.59053E+04 2.13085E+04 3.42152E-09 8.65293E-09
 -1       985-3.42609E+05-5.29535E+03-2.92070E+04 1.52993E+04-2.25373E-09 4.42196E-09
 -3
    1PSTEP                        23          12           1          
  100CL  112 6.62659E-01         409                     0   12           1
 -4  DISP        4    1
 -5  D1          1    2    1    0
 -5  D2          1    2    2    0
 -5  D3          1    2    3    0
 -5  ALL         1    2    0    0    1ALL
 -1         1 2.73120E-03 0.00000E+00 0.00000E+00
 -1         2 1.30383E-03-6.55486E-29-5.29396E-23
 -1         3 3.42610E-04-3.35296E-28 0.00000E+00
 -1         5 1.77085E-04-1.00209E-27 3.30872E-24
 -1         8 2.72068E-03-3.97029E-07 0.00000E+00
 -1         9 2.71374E-03-2.08703E-04 0.00000E+00
 -1        10 3.10672E-04-3.38374E-06-6.61744E-24
 -1        12 1.78935E-04 8.09111E-07-8.27181E-25
 -1        15 2.70873E-03-4.19482E-07 1.03398E-25
 -1        16 2.78703E-03-2.10628E-04 0.00000E+00
 -1        17 2.11438E-04-7.72082E-06 0.00000E+00
 -1        18 1.82892E-04 3.44489E-05 0.00000E+00
 -1        19 1.84485E-04 1.61180E-06 0.00000E+00
 -1        20 1.84625E-04-9.90633E-06 0.00000E+00
 -1        21 1.83733E-04-2.54555E-05 3.30872E-24
 -1        24 3.05844E-05-1.19379E-05 0.00000E+00
 -1        25 1.93669E-04 3.46748E-05 0.00000E+00
 -1        26 1.94377E-04 2.23090E-06 0.00000E+00
 -1        27 1.92163E-04-1.34632E-05 0.00000E+00
 -1        28 1.91846E-04-2.60773E-05 0.00000E+00
 -1        32 0.00000E+00 0.00000E+00 0.00000E+00
 -1        33 2.03233E-04 2.98466E-06 0.00000E+00
 -1        34 2.01116E-04-1.35194E-05 0.00000E+00
 -1        35 1.99184E-04-2.64196E-05 0.00000E+00
 -1        51 2.73049E-03-8.38116E-08-3.30872E-24
 -1        52 2.72919E-03-1.49098E-07 3.30872E-24
 -1        53 2.72744E-03-2.10851E-07 0.00000E+00
 -1        54 2.72535E-03-2.71306E-07 0.00000E+00
 -1        55 2.72305E-03-3.32227E-07-2.48154E-24
 -1        56 2.72275E-03 1.03252E-05 5.29396E-23
 -1        57 2.70550E-03 4.22453E-05-5.29396E-23
 -1        58 2.68203E-03 8.90347E-05 0.00000E+00
 -1        59 2.65562E-03 1.42568E-04-5.29396E-23
 -1        60 2.63030E-03 1.93561E-04 0.00000E+00
 -1        61 2.60994E-03 2.32937E-04 5.29396E-23
 -1        62 2.59719E-03 2.53686E-04-1.05879E-22
 -1        63 2.59370E-03 2.50454E-04 0.00000E+00
 -1        64 2.59917E-03 2.22302E-04 1.05879E-22
 -1        65 2.61248E-03 1.70668E-04 0.00000E+00
 -1        66 2.63132E-03 1.01488E-04 0.00000E+00
 -1        67 2.65309E-03 2.24473E-05 0.00000E+00
 -1        68 2.67495E-03-5.68352E-05 0.00000E+00
 -1        69 2.69402E-03-1.26708E-04-5.29396E-23
 -1        70 2.70769E-03-1.79370E-04-5.29396E-23
 -1        86 1.39253E-03-6.52975E-06 0.00000E+00
 -1        87 1.64868E-03-4.13320E-05 0.00000E+00
 -1        88 1.99316E-03-1.01280E-04-5.29396E-23
 -1        89 2.34252E-03-1.62974E-04 1.32349E-23
 -1        90 2.61046E-03-2.00747E-04 0.00000E+00
 -1       121 3.41713E-04-5.46239E-07 1.32349E-23
 -1       122 3.39026E-04-1.09556E-06-6.61744E-24
 -1       123 3.34559E-04-1.65101E-06 1.32349E-23
 -1       124 3.28328E-04-2.21561E-06 0.00000E+00
 -1       125 3.20356E-04-2.79202E-06 0.00000E+00
 -1       191 1.77136E-04 1.34916E-07 2.48154E-24
 -1       192 1.77290E-04 2.69820E-07-8.27181E-25
 -1       193 1.77547E-04 4.04704E-07 2.48154E-24
 -1       194 1.77907E-04 5.39556E-07-1.65436E-24
 -1       195 1.78370E-04 6.74363E-07 2.48154E-24
 -1       251 2.72038E-03 1.58682E-06 0.00000E+00
 -1       252 2.72007E-03 3.45486E-06 3.30872E-24
 -1       253 2.71977E-03 4.15305E-06 6.61744E-24
 -1       254 2.71946E-03 2.64186E-06 3.30872E-24
 -1       255 2.71915E-03-1.78314E-06 6.61744E-24
 -1       256 2.71881E-03-9.78997E-06 0.00000E+00
 -1       257 2.71844E-03-2.15038E-05 0.00000E+00
 -1       258 2.71802E-03-3.70035E-05 0.00000E+00
 -1       259 2.71754E-03-5.57945E-05 0.00000E+00
 -1       260 2.71701E-03-7.73410E-05 6.61744E-24
 -1       261 2.71645E-03-1.00689E-04 0.00000E+00
 -1       262 2.71586E-03-1.24864E-04 0.00000E+00
 -1       263 2.71528E-03-1.48764E-04 0.00000E+00
 -1       264 2.71472E-03-1.71292E-04 6.61744E-24
 -1       265 2.71422E-03-1.91559E-04 0.00000E+00
 -1       266 2.71869E-03-4.06276E-07 0.00000E+00
 -1       267 2.71670E-03-4.09347E-07 0.00000E+00
 -1       268 2.71470E-03-4.12809E-07 4.13590E-25
 -1       269 2.71271E-03-4.15113E-07 2.06795E-25
 -1       270 2.71072E-03-4.17390E-07 0.00000E+00
 -1       271 2.71992E-03-9.18498E-08 0.00000E+00
 -1       272 2.72019E-03-2.61534E-06 0.00000E+00
 -1       273 2.72145E-03-7.79468E-06 0.00000E+00
 -1       274 2.72362E-03-1.54435E-05 6.61744E-24
 -1       275 2.72661E-03-2.53539E-05 0.00000E+00
 -1       276 2.73035E-03-3.73019E-05 0.00000E+00
 -1       277 2.73473E-03-5.10467E-05 0.00000E+00
 -1       278 2.73967E-03-6.63339E-05 0.00000E+00
 -1       279 2.74506E-03-8.28971E-05 0.00000E+00
 -1       280 2.75081E-03-1.00460E-04 0.00000E+00
 -1       281 2.75682E-03-1.18737E-04 0.00000E+00
 -1       282 2.76298E-03-1.37439E-04 0.00000E+00
 -1       283 2.76918E-03-1.56273E-04 0.00000E+00
 -1       284 2.77532E-03-1.74944E-04-6.61744E-24
 -1       285 2.78131E-03-1.93159E-04 0.00000E+00
 -1       301 2.72705E-03-2.09061E-04-1.32349E-23
 -1       302 2.73867E-03-2.09369E-04 3.30872E-24
 -1       303 2.74952E-03-2.09666E-04 1.32349E-23
 -1       304 2.76057E-03-2.09964E-04 0.00000E+00
 -1       305 2.77276E-03-2.10276E-04 0.00000E+00
 -1       306 2.75198E-03-3.64851E-04 0.00000E+00
 -1       307 2.81584E-03-7.80320E-04 0.00000E+00
 -1       308 2.86241E-03-1.38631E-03 1.05879E-22
 -1       309 2.88640E-03-2.08642E-03 5.29396E-23
 -1       310 2.91812E-03-2.75479E-03 0.00000E+00
 -1       311 2.97789E-03-3.26835E-03-5.29396E-23
 -1       312 3.03534E-03-3.54678E-03 0.00000E+00
 -1       313 3.02916E-03-3.55287E-03-5.29396E-23
 -1       314 2.88548E-03-3.29927E-03-1.05879E-22
 -1       315 2.56378E-03-2.85096E-03 0.00000E+00
 -1       316 2.08312E-03-2.28466E-03-1.05879E-22
 -1       317 1.51007E-03-1.66951E-03 5.29396E-23
 -1       318 9.59261E-04-1.06582E-03 0.00000E+00
 -1       319 5.38773E-04-5.38449E-04-5.29396E-23
 -1       320 2.92194E-04-1.61610E-04 1.05879E-22
 -1       336 2.99091E-04-4.03805E-06 0.00000E+00
 -1       337 2.85433E-04-4.71804E-06 0.00000E+00
 -1       338 2.69762E-04-5.42593E-06 1.32349E-23
 -1       339 2.52150E-04-6.16256E-06 0.00000E+00
 -1       340 2.32678E-04-6.93240E-06 0.00000E+00
 -1       406 1.79603E-04 9.43782E-07-3.30872E-24
 -1       407 1.80374E-04 1.07834E-06 0.00000E+00
 -1       408 1.81248E-04 1.21273E-06 8.27181E-25
 -1       409 1.82225E-04 1.34678E-06 6.20385E-25
 -1       410 1.83304E-04 1.48022E-06-8.27181E-25
 -1       521 2.82585E-03-3.76103E-04 1.05879E-22
 -1       522 2.88787E-03-8.12291E-04 5.29396E-23
 -1       523 2.92779E-03-1.44690E-03 0.00000E+00
 -1       524 2.94225E-03-2.17662E-03-5.29396E-23
 -1       525 2.96582E-03-2.87254E-03 0.00000E+00
 -1       526 3.02199E-03-3.40884E-03-5.29396E-23
 -1       527 3.07905E-03-3.69811E-03-2.11758E-22
 -1       528 3.07047E-03-3.70223E-03-1.05879E-22
 -1       529 2.91425E-03-3.43393E-03 0.00000E+00
 -1       530 2.56757E-03-2.96642E-03 0.00000E+00
 -1       531 2.05037E-03-2.38033E-03-1.05879E-22
 -1       532 1.43585E-03-1.74741E-03 5.29396E-23
 -1       533 8.44365E-04-1.12527E-03 1.05879E-22
 -1       534 3.89426E-04-5.76408E-04 0.00000E+00
 -1       535 1.21023E-04-1.79502E-04-2.11758E-22
 -1       536 2.10684E-04 2.71976E-05 0.00000E+00
 -1       537 2.08766E-04 8.76250E-05-1.65436E-24
 -1       538 2.05804E-04 1.64297E-04 0.00000E+00
 -1       539 2.02310E-04 2.47864E-04 1.65436E-24
 -1       540 1.99165E-04 3.26827E-04 3.30872E-24
 -1       541 1.97121E-04 3.89711E-04 1.65436E-24
 -1       542 1.96178E-04 4.29763E-04 0.00000E+00
 -1       543 1.95953E-04 4.40381E-04 0.00000E+00
 -1       544 1.95631E-04 4.22340E-04 3.30872E-24
 -1       545 1.94459E-04 3.76632E-04 0.00000E+00
 -1       546 1.92275E-04 3.11384E-04 3.30872E-24
 -1       547 1.89319E-04 2.34839E-04-1.65436E-24
 -1       548 1.86389E-04 1.58671E-04 0.00000E+00
 -1       549 1.84276E-04 9.45520E-05 0.00000E+00
 -1       550 1.83178E-04 5.05104E-05 0.00000E+00
 -1       551 1.86240E-04-8.28884E-06 0.00000E+00
 -1       552 1.57798E-04-8.93731E-06 0.00000E+00
 -1       553 1.27052E-04-9.64803E-06-3.30872E-24
 -1       554 9.49630E-05-1.03999E-05-3.30872E-24
 -1       555 6.24891E-05-1.11656E-05 0.00000E+00
 -1       556 2.03791E-04 1.18332E-05 5.29396E-23
 -1       557 1.97612E-04 2.76918E-05 0.00000E+00
 -1       558 1.92768E-04 4.01428E-05 0.00000E+00
 -1       559 1.89126E-04 4.94967E-05 0.00000E+00
 -1       560 1.86556E-04 5.60643E-05 0.00000E+00
 -1       561 1.84930E-04 6.01590E-05 0.00000E+00
 -1       562 1.84122E-04 6.20954E-05 0.00000E+00
 -1       563 1.84008E-04 6.21892E-05 0.00000E+00
 -1       564 1.84467E-04 6.07566E-05 0.00000E+00
 -1       565 1.85378E-04 5.81150E-05 0.00000E+00
 -1       566 1.86621E-04 5.45818E-05 0.00000E+00
 -1       567 1.88077E-04 5.04752E-05 0.00000E+00
 -1       568 1.89628E-04 4.61134E-05 0.00000E+00
 -1       569 1.91155E-04 4.18147E-05 0.00000E+00
 -1       570 1.92541E-04 3.78972E-05 0.00000E+00
 -1       571 1.82988E-04 3.23199E-05 2.48154E-24
 -1       572 1.83087E-04 3.01249E-05 1.65436E-24
 -1       573 1.83186E-04 2.78794E-05 1.65436E-24
 -1       574 1.83286E-04 2.56000E-05-8.27181E-25
 -1       575 1.83385E-04 2.33031E-05-3.30872E-24
 -1       576 1.83485E-04 2.10053E-05 1.65436E-24
 -1       577 1.83584E-04 1.87230E-05 0.00000E+00
 -1       578 1.83684E-04 1.64729E-05 0.00000E+00
 -1       579 1.83783E-04 1.42715E-05 0.00000E+00
 -1       580 1.83883E-04 1.21353E-05 0.00000E+00
 -1       581 1.83983E-04 1.00810E-05 0.00000E+00
 -1       582 1.84083E-04 8.12507E-06 0.00000E+00
 -1       583 1.84184E-04 6.28401E-06 0.00000E+00
 -1       584 1.84284E-04 4.57421E-06 0.00000E+00
 -1       585 1.84385E-04 3.01187E-06 6.61744E-24
 -1       586 1.84647E-04 3.44887E-05-1.65436E-24
 -1       587 1.86362E-04 3.45279E-05 4.13590E-25
 -1       588 1.88077E-04 3.45667E-05 8.27181E-25
 -1       589 1.89839E-04 3.46049E-05 0.00000E+00
 -1       590 1.91689E-04 3.46418E-05 0.00000E+00
 -1       591 1.83622E-04 3.24139E-05 1.03398E-25
 -1       592 1.84355E-04 3.03586E-05 0.00000E+00
 -1       593 1.85094E-04 2.82889E-05 0.00000E+00
 -1       594 1.85836E-04 2.62095E-05-4.13590E-25
 -1       595 1.86579E-04 2.41252E-05 8.27181E-25
 -1       596 1.87322E-04 2.20408E-05 0.00000E+00
 -1       597 1.88064E-04 1.99610E-05 0.00000E+00
 -1       598 1.88802E-04 1.78905E-05 0.00000E+00
 -1       599 1.89535E-04 1.58341E-05 0.00000E+00
 -1       600 1.90261E-04 1.37964E-05 0.00000E+00
 -1       601 1.90978E-04 1.17823E-05 8.27181E-25
 -1       602 1.91685E-04 9.79632E-06 4.13590E-25
 -1       603 1.92379E-04 7.84333E-06 0.00000E+00
 -1       604 1.93060E-04 5.92813E-06 5.16988E-26
 -1       605 1.93725E-04 4.05536E-06 0.00000E+00
 -1       606 1.84499E-04 4.45356E-07 0.00000E+00
 -1       607 1.84508E-04-6.35269E-07 0.00000E+00
 -1       608 1.84517E-04-1.63512E-06 0.00000E+00
 -1       609 1.84526E-04-2.55986E-06 0.00000E+00
 -1       610 1.84534E-04-3.41525E-06 0.00000E+00
 -1       611 1.84542E-04-4.20707E-06 0.00000E+00
 -1       612 1.84551E-04-4.94111E-06 0.00000E+00
 -1       613 1.84559E-04-5.62319E-06 0.00000E+00
 -1       614 1.84567E-04-6.25912E-06 0.00000E+00
 -1       615 1.84576E-04-6.85470E-06 0.00000E+00
 -1       616 1.84584E-04-7.41576E-06 0.00000E+00
 -1       617 1.84592E-04-7.94809E-06 0.00000E+00
 -1       618 1.84601E-04-8.45750E-06 0.00000E+00
 -1       619 1.84609E-04-8.94981E-06 0.00000E+00
 -1       620 1.84617E-04-9.43082E-06 0.00000E+00
 -1       621 1.85847E-04 1.71555E-06 3.30872E-24
 -1       622 1.87369E-04 1.81954E-06-8.27181E-25
 -1       623 1.89017E-04 1.92332E-06-3.30872E-24
 -1       624 1.90756E-04 2.02677E-06 8.27181E-25
 -1       625 1.92555E-04 2.12993E-06-3.30872E-24
 -1       626 1.85035E-04 4.81429E-07-3.30872E-24
 -1       627 1.85561E-04-5.85914E-07 0.00000E+00
 -1       628 1.86068E-04-1.59808E-06-6.61744E-24
 -1       629 1.86556E-04-2.56322E-06-1.65436E-24
 -1       630 1.87031E-04-3.48954E-06 0.00000E+00
 -1       631 1.87494E-04-4.38524E-06 0.00000E+00
 -1       632 1.87948E-04-5.25850E-06 0.00000E+00
 -1       633 1.88397E-04-6.11755E-06 0.00000E+00
 -1       634 1.88844E-04-6.97060E-06-3.30872E-24
 -1       635 1.89292E-04-7.82583E-06-1.65436E-24
 -1       636 1.89744E-04-8.69146E-06-3.30872E-24
 -1       637 1.90202E-04-9.57571E-06-1.65436E-24
 -1       638 1.90671E-04-1.04868E-05 3.30872E-24
 -1       639 1.91152E-04-1.14329E-05 0.00000E+00
 -1       640 1.91649E-04-1.24223E-05-3.30872E-24
 -1       656 1.85333E-04-1.04844E-05 0.00000E+00
 -1       657 1.86461E-04-1.10860E-05 0.00000E+00
 -1       658 1.87869E-04-1.16863E-05 0.00000E+00
 -1       659 1.89411E-04-1.22862E-05 6.61744E-24
 -1       660 1.90904E-04-1.28879E-05 6.61744E-24
 -1       661 1.84890E-04-1.04269E-05-8.27181E-25
 -1       662 1.85193E-04-1.10392E-05 0.00000E+00
 -1       663 1.85528E-04-1.17381E-05 1.65436E-24
 -1       664 1.85893E-04-1.25170E-05 0.00000E+00
 -1       665 1.86286E-04-1.33701E-05-1.65436E-24
 -1       666 1.86705E-04-1.42916E-05 0.00000E+00
 -1       667 1.87148E-04-1.52758E-05 1.65436E-24
 -1       668 1.87611E-04-1.63170E-05-8.27181E-25
 -1       669 1.88094E-04-1.74100E-05 1.65436E-24
 -1       670 1.88595E-04-1.85493E-05 0.00000E+00
 -1       671 1.89110E-04-1.97299E-05 0.00000E+00
 -1       672 1.89639E-04-2.09465E-05 0.00000E+00
 -1       673 1.90180E-04-2.21943E-05-1.65436E-24
 -1       674 1.90729E-04-2.34685E-05-4.13590E-25
 -1       675 1.91287E-04-2.47638E-05 0.00000E+00
 -1       676 1.85090E-04-2.55597E-05 3.30872E-24
 -1       677 1.86446E-04-2.56639E-05 0.00000E+00
 -1       678 1.87800E-04-2.57681E-05 0.00000E+00
 -1       679 1.89153E-04-2.58719E-05-1.65436E-24
 -1       680 1.90501E-04-2.59757E-05 3.30872E-24
 -1       771 1.86293E-05 1.47995E-05 0.00000E+00
 -1       772 8.57188E-06 3.67585E-05 0.00000E+00
 -1       773 3.21451E-07 5.41694E-05-5.29396E-23
 -1       774-6.24644E-06 6.72902E-05 2.64698E-23
 -1       775-1.12535E-05 7.63896E-05 0.00000E+00
 -1       776-1.48264E-05 8.17528E-05 0.00000E+00
 -1       777-1.70915E-05 8.36750E-05 0.00000E+00
 -1       778-1.81779E-05 8.24657E-05 0.00000E+00
 -1       779-1.82138E-05 7.84424E-05 5.29396E-23
 -1       780-1.73297E-05 7.19345E-05 0.00000E+00
 -1       781-1.56550E-05 6.32777E-05 0.00000E+00
 -1       782-1.33207E-05 5.28170E-05-7.94093E-23
 -1       783-1.04570E-05 4.09018E-05 1.05879E-22
 -1       784-7.19506E-06 2.78876E-05 0.00000E+00
 -1       785-3.66536E-06 1.41334E-05-5.29396E-23
 -1       786 1.93709E-04 3.24352E-05 0.00000E+00
 -1       787 1.93753E-04 3.02731E-05 4.13590E-25
 -1       788 1.93796E-04 2.81647E-05 0.00000E+00
 -1       789 1.93841E-04 2.60864E-05-8.27181E-25
 -1       790 1.93885E-04 2.40294E-05 1.65436E-24
 -1       791 1.93930E-04 2.19845E-05 0.00000E+00
 -1       792 1.93974E-04 1.99488E-05 0.00000E+00
 -1       793 1.94019E-04 1.79192E-05 0.00000E+00
 -1       794 1.94063E-04 1.58957E-05 0.00000E+00
 -1       795 1.94108E-04 1.38782E-05 0.00000E+00
 -1       796 1.94153E-04 1.18696E-05 1.65436E-24
 -1       797 1.94197E-04 9.87270E-06 8.27181E-25
 -1       798 1.94242E-04 7.89614E-06 0.00000E+00
 -1       799 1.94287E-04 5.94856E-06 0.00000E+00
 -1       800 1.94332E-04 4.05255E-06 1.65436E-24
 -1       801 1.47854E-04 3.11731E-05 0.00000E+00
 -1       802 9.33260E-06 1.94482E-05 0.00000E+00
 -1       803-1.08972E-04 9.82561E-06-5.29396E-23
 -1       804-9.65665E-05 6.83964E-06-2.64698E-23
 -1       805-3.19020E-05 2.68674E-06 0.00000E+00
 -1       806 1.94399E-04 3.23524E-05-1.65436E-24
 -1       807 1.95116E-04 3.00558E-05 0.00000E+00
 -1       808 1.95820E-04 2.77901E-05 0.00000E+00
 -1       809 1.96510E-04 2.55595E-05 1.65436E-24
 -1       810 1.97186E-04 2.33680E-05 3.30872E-24
 -1       811 1.97845E-04 2.12197E-05 0.00000E+00
 -1       812 1.98487E-04 1.91186E-05 3.30872E-24
 -1       813 1.99110E-04 1.70686E-05-1.65436E-24
 -1       814 1.99712E-04 1.50737E-05 0.00000E+00
 -1       815 2.00293E-04 1.31379E-05-1.65436E-24
 -1       816 2.00849E-04 1.12651E-05-3.30872E-24
 -1       817 2.01381E-04 9.45935E-06-1.65436E-24
 -1       818 2.01887E-04 7.72450E-06-3.30872E-24
 -1       819 2.02364E-04 6.06452E-06 8.27181E-25
 -1       820 2.02813E-04 4.48329E-06-3.30872E-24
 -1       821 1.94248E-04-1.76839E-07-1.65436E-24
 -1       822 1.94106E-04-3.82535E-06 0.00000E+00
 -1       823 1.93963E-04-8.26094E-06 0.00000E+00
 -1       824 1.93816E-04-1.30250E-05 1.65436E-24
 -1       825 1.93670E-04-1.75697E-05 0.00000E+00
 -1       826 1.93528E-04-2.13487E-05 0.00000E+00
 -1       827 1.93388E-04-2.40247E-05 3.30872E-24
 -1       828 1.93251E-04-2.52673E-05 0.00000E+00
 -1       829 1.93115E-04-2.51374E-05 3.30872E-24
 -1       830 1.92978E-04-2.37046E-05-1.65436E-24
 -1       831 1.92839E-04-2.13941E-05 3.30872E-24
 -1       832 1.92700E-04-1.86364E-05 0.00000E+00
 -1       833 1.92561E-04-1.59847E-05 3.30872E-24
 -1       834 1.92425E-04-1.39909E-05-1.65436E-24
 -1       835 1.92289E-04-1.30282E-05 8.27181E-25
 -1       836 1.96068E-04 2.35590E-06-3.30872E-24
 -1       837 1.97629E-04 2.48404E-06 0.00000E+00
 -1       838 1.99093E-04 2.61212E-06 0.00000E+00
 -1       839 2.00493E-04 2.73950E-06 0.00000E+00
 -1       840 2.01862E-04 2.86672E-06 0.00000E+00
 -1       856 1.92146E-04-1.45266E-05 8.27181E-25
 -1       857 1.92127E-04-1.54542E-05-1.29247E-26
 -1       858 1.92108E-04-1.62673E-05 0.00000E+00
 -1       859 1.92088E-04-1.69868E-05-2.06795E-25
 -1       860 1.92068E-04-1.76342E-05 4.13590E-25
 -1       861 1.92049E-04-1.82305E-05 2.06795E-25
 -1       862 1.92029E-04-1.87972E-05 4.13590E-25
 -1       863 1.92009E-04-1.93556E-05 4.13590E-25
 -1       864 1.91989E-04-1.99270E-05 0.00000E+00
 -1       865 1.91969E-04-2.05327E-05 0.00000E+00
 -1       866 1.91949E-04-2.11941E-05 8.27181E-25
 -1       867 1.91929E-04-2.19323E-05 0.00000E+00
 -1       868 1.91909E-04-2.27687E-05-8.27181E-25
 -1       869 1.91889E-04-2.37243E-05 0.00000E+00
 -1       870 1.91868E-04-2.48202E-05 0.00000E+00
 -1       871 1.93514E-04-1.34682E-05 8.27181E-25
 -1       872 1.95012E-04-1.34765E-05 0.00000E+00
 -1       873 1.96589E-04-1.34855E-05-4.13590E-25
 -1       874 1.98178E-04-1.34953E-05 1.03398E-25
 -1       875 1.99709E-04-1.35056E-05-1.65436E-24
 -1       876 1.92688E-04-1.45120E-05 0.00000E+00
 -1       877 1.93192E-04-1.54940E-05 0.00000E+00
 -1       878 1.93674E-04-1.64172E-05 3.30872E-24
 -1       879 1.94137E-04-1.72889E-05-1.65436E-24
 -1       880 1.94583E-04-1.81166E-05 3.30872E-24
 -1       881 1.95016E-04-1.89076E-05 1.65436E-24
 -1       882 1.95438E-04-1.96693E-05 0.00000E+00
 -1       883 1.95852E-04-2.04090E-05 0.00000E+00
 -1       884 1.96260E-04-2.11341E-05 3.30872E-24
 -1       885 1.96666E-04-2.18520E-05 0.00000E+00
 -1       886 1.97071E-04-2.25698E-05 0.00000E+00
 -1       887 1.97480E-04-2.32950E-05 0.00000E+00
 -1       888 1.97893E-04-2.40350E-05 0.00000E+00
 -1       889 1.98314E-04-2.47973E-05 0.00000E+00
 -1       890 1.98745E-04-2.55890E-05-1.65436E-24
 -1       891 1.93212E-04-2.61348E-05 1.65436E-24
 -1       892 1.94553E-04-2.61925E-05 8.27181E-25
 -1       893 1.95847E-04-2.62500E-05-8.27181E-25
 -1       894 1.97066E-04-2.63073E-05 0.00000E+00
 -1       895 1.98187E-04-2.63644E-05 0.00000E+00
 -1       956 2.03102E-04 1.66094E-06 1.65436E-24
 -1       957 2.02970E-04 4.28832E-07 0.00000E+00
 -1       958 2.02838E-04-7.22416E-07 0.00000E+00
 -1       959 2.02705E-04-1.80414E-06 1.65436E-24
 -1       960 2.02572E-04-2.82772E-06 0.00000E+00
 -1       961 2.02439E-04-3.80458E-06 0.00000E+00
 -1       962 2.02307E-04-4.74613E-06 0.00000E+00
 -1       963 2.02174E-04-5.66385E-06 0.00000E+00
 -1       964 2.02041E-04-6.56917E-06 3.30872E-24
 -1       965 2.01909E-04-7.47352E-06 0.00000E+00
 -1       966 2.01776E-04-8.38837E-06 3.30872E-24
 -1       967 2.01643E-04-9.32516E-06-1.65436E-24
 -1       968 2.01511E-04-1.02953E-05 6.61744E-24
 -1       969 2.01378E-04-1.13102E-05 0.00000E+00
 -1       970 2.01246E-04-1.23813E-05 0.00000E+00
 -1       971 2.00996E-04-1.46572E-05-3.30872E-24
 -1       972 2.00875E-04-1.57004E-05-1.65436E-24
 -1       973 2.00753E-04-1.66595E-05 3.30872E-24
 -1       974 2.00632E-04-1.75453E-05 1.65436E-24
 -1       975 2.00511E-04-1.83687E-05 0.00000E+00
 -1       976 2.00389E-04-1.91406E-05 0.00000E+00
 -1       977 2.00268E-04-1.98717E-05 0.00000E+00
 -1       978 2.00147E-04-2.05731E-05 0.00000E+00
 -1       979 2.00025E-04-2.12556E-05-3.30872E-24
 -1       980 1.99904E-04-2.19302E-05 0.00000E+00
 -1       981 1.99783E-04-2.26076E-05 0.00000E+00
 -1       982 1.99662E-04-2.32988E-05-1.65436E-24
 -1       983 1.99541E-04-2.40148E-05-3.30872E-24
 -1       984 1.99420E-04-2.47664E-05 0.00000E+00
 -1       985 1.99300E-04-2.55644E-05 0.00000E+00
 -3
    1PSTEP                        24          12           1          
  100CL  112 6.62659E-01         409                     0   12           1
 -4  STRESS      6    1
 -5  SXX         1    4    1    1
 -5  SYY         1    4    2    2
 -5  SZZ         1    4    3    3
 -5  SXY         1    4    1    2
 -5  SYZ         1    4    2    3
 -5  SZX         1    4    3    1
 -1         1-5.34835E+06-1.54300E+06-1.13039E+06-1.28828E+06 1.67347E-09 1.30414E-07
 -1         2 1.60629E+06 2.34565E+07 5.42344E+06 7.12964E+06 2.71830E-08 8.37899E-08
 -1         3-1.48629E+03-1.55092E+06 4.04283E+02-2.20002E+03-5.37568E-10-1.61017E-08
 -1         5-7.55441E+01 3.86345E+05 9.98163E+00-1.34456E+00-4.25011E-10-9.36416E-09
 -1         8-5.47859E+05-1.99329E+05-6.25885E+04-2.39327E+05-3.09228E-11 7.89441E-09
 -1         9 1.18672E+07 4.12455E+06 2.86300E+06-2.49521E+05-1.04541E-08 1.11759E-08
 -1        10-2.30083E+03-1.61617E+06-3.92842E+03-1.48879E+04-1.38425E-08-3.01407E-09
 -1        12-7.16264E+01 3.86366E+05 3.28141E+02-9.16474E+00-5.21712E-10-1.79789E-08
 -1        15 9.12109E+02 5.01250E+02 2.94836E+03 7.85845E-01 1.90141E-11 8.32630E-08
 -1        16 2.29354E+07-3.45409E+05 3.11804E+06-2.32691E+06 1.81026E-08 1.49477E-07
 -1        17 8.40410E+06 6.29312E+06 2.26934E+06 6.01816E+06 2.42668E-08 4.12343E-08
 -1        18 1.42616E+05 3.35708E+04 4.16633E+03-1.19720E+05 1.37959E-08-4.91355E-09
 -1        19 1.22389E+05 1.41559E+05-9.59247E+02 2.20387E+04 1.76915E-09-2.79433E-09
 -1        20-8.18664E+04-5.73409E+05-1.28665E+05 2.51219E+04-2.01741E-09 1.58295E-08
 -1        21-4.55559E+01-2.95876E+05-9.23610E+02 2.75368E+02 2.23777E-08-2.65553E-08
 -1        24 1.41170E+07 1.21447E+07 3.90536E+06 1.12433E+07-1.60420E-07-6.36986E-08
 -1        25 1.26473E+05 2.68710E+05 1.00699E+05-6.46751E+05-1.89784E-09 2.80132E-08
 -1        26-5.44508E+04 9.23719E+04-2.45409E+04 1.24162E+03-2.22280E-10-1.47991E-09
 -1        27-7.58029E+04-3.09863E+05-1.13309E+05 6.89543E+04 4.03982E-09-7.59458E-09
 -1        28 2.22304E+04-8.53021E+04 1.68893E+04 2.06143E+04-2.70902E-09 1.27597E-08
 -1        32-1.67987E+06-3.18137E+06-1.97748E+05 4.59649E+05-4.25061E-08-8.80300E-09
 -1        33-1.78224E+05 9.29721E+04 3.23665E+04-3.88724E+04-2.92058E-09 1.48915E-09
 -1        34-2.23468E+05-2.50222E+04 6.89016E+02 7.56117E+04-5.50294E-09-7.39677E-09
 -1        35-2.29205E+04-3.38284E+04-1.34768E+03 5.14726E+04-5.36323E-09 5.41695E-09
 -1        51 6.10580E+04-1.68869E+05 1.29016E+05-4.28471E+05 8.73115E-11 5.74582E-08
 -1        52 2.06141E+04-1.46255E+05 6.75895E+04-4.99742E+05 2.91038E-10-2.26704E-07
 -1        53 4.13055E+03-1.61587E+05 3.50203E+04-4.27009E+05 3.85626E-10-1.10143E-07
 -1        54 7.15366E+03-1.57366E+05 2.84218E+04-5.01166E+05-1.20053E-10-1.35669E-07
 -1        55 1.56132E+04-1.64223E+05 3.41550E+04-4.26930E+05 3.05590E-10 1.38874E-07
 -1        56-9.83763E+06-1.43136E+06-9.39490E+05-4.14160E+06 6.75209E-09 1.36002E-07
 -1        57-1.11984E+07-6.81346E+05-5.40266E+05-2.59576E+06-5.91535E-09 9.85165E-08
 -1        58-9.56914E+06-1.91989E+06-2.02702E+05-4.36442E+06-5.36238E-09 1.49703E-07
 -1        59-1.14690E+07-1.06353E+05-1.05161E+05-2.51664E+06-7.43325E-08 2.42435E-08
 -1        60-9.67354E+06-1.92243E+06-6.06700E+04-4.31421E+06 2.70302E-08-2.90398E-07
 -1        61-1.06828E+07-5.02128E+05 2.88307E+04-2.77423E+06-5.21068E-08-1.77737E-07
 -1        62-1.01790E+07-1.64356E+06-9.66160E+04-3.96485E+06 2.40834E-08-1.71203E-07
 -1        63-9.60511E+06-1.33257E+06 7.48751E+04-3.56773E+06 4.70754E-09-1.35055E-07
 -1        64-1.06059E+07-1.19592E+06-8.90905E+04-3.43023E+06 2.02708E-08-7.42548E-08
 -1        65-9.21311E+06-2.02368E+06 2.45307E+04-4.64111E+06-3.40806E-08 1.91112E-08
 -1        66-1.07363E+07-8.37631E+05-4.87869E+04-3.01705E+06-1.41299E-08-7.63030E-08
 -1        67-9.26902E+06-2.30388E+06-9.44136E+04-5.15694E+06-6.08807E-08 1.12412E-07
 -1        68-1.07163E+07-7.98069E+05-1.89390E+05-3.01607E+06-5.94555E-08 1.07626E-07
 -1        69-9.40681E+06-2.36181E+06-4.78179E+05-4.60986E+06-1.89411E-08-7.32543E-08
 -1        70-1.04425E+07-9.01826E+05-8.65875E+05-3.46465E+06 5.35147E-09-1.97906E-07
 -1        86-1.63938E+06-1.64035E+07-2.97072E+06-3.34334E+06-2.74122E-07 3.49828E-08
 -1        87 2.59799E+06 6.84277E+06 2.47001E+06 6.09140E+06-4.68805E-07-3.02716E-08
 -1        88-4.99528E+05-1.85819E+06 2.36114E+05-2.66672E+06-4.07226E-07-2.57672E-07
 -1        89 3.47671E+06 6.51290E+06 2.53316E+06 6.30351E+06-5.78613E-07-5.10656E-07
 -1        90-2.41312E+06-1.61573E+07-3.20366E+06-3.58920E+06-1.41052E-07-7.17555E-08
 -1       121-2.03585E+03-1.55581E+06-5.47907E+02 1.09039E+03 1.42684E-09 6.65750E-09
 -1       122-1.30149E+03-1.55098E+06 7.66101E+02-4.40427E+03-5.51768E-09 1.78261E-10
 -1       123-2.05561E+03-1.55595E+06 2.55993E+02 3.25662E+03 4.46346E-09 1.53595E-08
 -1       124 3.26574E+02-1.55053E+06 2.93468E+03-9.21883E+03-1.00090E-08 1.97870E-08
 -1       125-2.86069E+03-1.55684E+06 3.43875E+03 5.85903E+03 6.49379E-09-3.92902E-09
 -1       191-7.96082E+01 3.86363E+05 8.47293E+00 7.01188E-01-6.06835E-10-1.05301E-08
 -1       192-7.65080E+01 3.86346E+05 2.13013E+01-4.31180E+00-8.42610E-10-1.01645E-08
 -1       193-8.21453E+01 3.86363E+05 3.62512E+01 3.78759E+00-1.03722E-09-1.26347E-08
 -1       194-7.95983E+01 3.86349E+05 8.09796E+01-9.78470E+00-5.28274E-10-2.74613E-08
 -1       195-8.70150E+01 3.86360E+05 1.55023E+02 6.36843E+00-1.57211E-09-2.83599E-08
 -1       251-8.65604E+05 1.65292E+04-3.85739E+04-1.49996E+04-8.12598E-10-1.21510E-07
 -1       252-8.80087E+05-1.91352E+04-2.68170E+04 5.34754E+04 3.02452E-09-2.18297E-08
 -1       253-8.74323E+05 2.53998E+03-1.04166E+04-1.06308E+04-2.87741E-09-1.19960E-07
 -1       254-8.65923E+05-3.09326E+03-4.53959E+03 3.82177E+04 1.97758E-08-3.36865E-07
 -1       255-8.79093E+05 3.44244E+01-3.69976E+03 2.53784E+02-1.32559E-08-4.32383E-08
 -1       256-8.60013E+05-2.76492E+02 1.38897E+03 1.34678E+04 1.92896E-08 7.93721E-08
 -1       257-8.79740E+05-6.41935E+02-1.54264E+03 1.41057E+04-9.64610E-09 2.63471E-07
 -1       258-8.63114E+05 9.86529E+02 2.90291E+03-1.26134E+04-4.88956E-09-5.89564E-08
 -1       259-8.76262E+05-1.02080E+03 1.29714E+03 2.63321E+04-3.90855E-09 2.26470E-08
 -1       260-8.70265E+05 3.09626E+03 5.65578E+03-3.14551E+04 1.81818E-08-2.17916E-07
 -1       261-8.73293E+05-2.21007E+03 8.67427E+03 3.29662E+04 6.68797E-09 5.70981E-09
 -1       262-8.69269E+05 1.19983E+04 2.15684E+04-3.69967E+04 2.97632E-08-1.31402E-07
 -1       263-8.77540E+05-9.67109E+03 3.41388E+04 3.18849E+04-5.20407E-09 1.67294E-07
 -1       264-8.38186E+05 6.73761E+04 9.46600E+04-2.73177E+04 3.92403E-08 5.67088E-08
 -1       265-9.03834E+05-5.77534E+04 1.31567E+05 2.32728E+04 5.20583E-09 3.62052E-08
 -1       266-1.65124E+04-7.72205E+03 3.87388E+04-1.68131E+01 1.14596E-10 1.87280E-07
 -1       267 1.91422E+04 8.99891E+03 2.73821E+04 1.94007E+01 1.87811E-10-1.77985E-07
 -1       268-2.56694E+03-1.27456E+03 1.01777E+04-2.47189E+00-1.15051E-10-1.64768E-07
 -1       269 3.03079E+03 1.52531E+03 6.61543E+03 2.87949E+00-5.71845E-11 2.40282E-07
 -1       270-4.54922E+02-2.50620E+02 3.19336E+03-3.90765E-01-5.87761E-11 4.82309E-08
 -1       271-1.44632E+06-1.85089E+05-1.09097E+05-5.63483E+05 1.08066E-08 3.76531E-08
 -1       272-1.43585E+06-3.00557E+05-6.82714E+04-6.06615E+05 3.09738E-08 1.71458E-08
 -1       273-1.46953E+06-2.07846E+05-2.65506E+04-5.55431E+05 4.28554E-09 2.73139E-08
 -1       274-1.40977E+06-2.73050E+05-1.36682E+04-6.22128E+05 1.42900E-08 3.62125E-07
 -1       275-1.47516E+06-2.07170E+05-6.66867E+03-5.51604E+05 3.39496E-08 6.77746E-08
 -1       276-1.40443E+06-2.74127E+05-2.73319E+03-6.31092E+05-3.00206E-08 1.87500E-07
 -1       277-1.47803E+06-2.04415E+05-1.86064E+03-5.48835E+05 2.46109E-09 1.23307E-07
 -1       278-1.40246E+06-2.77341E+05-6.61205E+02-6.37665E+05-3.35031E-08 3.70903E-08
 -1       279-1.47985E+06-2.02202E+05-8.27567E+02-5.46910E+05-1.32768E-08-2.00319E-07
 -1       280-1.40159E+06-2.79704E+05-8.93280E+02-6.41935E+05-8.21829E-08-1.00099E-07
 -1       281-1.48081E+06-2.00848E+05-1.65635E+03-5.45848E+05 4.99558E-08-7.87386E-08
 -1       282-1.40197E+06-2.81716E+05-3.84326E+03-6.43625E+05-7.08146E-08 1.22141E-07
 -1       283-1.48034E+06-1.99750E+05-6.84600E+03-5.45754E+05 5.26370E-10 1.10891E-07
 -1       284-1.40814E+06-2.90548E+05-1.86373E+04-6.41415E+05-1.53494E-08-1.11762E-07
 -1       285-1.47445E+06-1.93154E+05-2.91579E+04-5.47513E+05-2.56941E-08 1.87782E-07
 -1       301-9.93566E+03-6.53059E+05 1.66432E+05-1.15114E+06-5.26779E-09-8.51869E-08
 -1       302-1.24271E+04-6.05574E+05 1.00166E+05-1.67982E+06-1.49739E-08-7.73871E-08
 -1       303-2.40418E+04-6.46248E+05 5.64279E+04-1.14793E+06-2.22208E-08 1.17241E-07
 -1       304-2.81389E+04-6.13227E+05 5.64928E+04-1.67929E+06-3.26108E-08 1.62952E-07
 -1       305-2.85483E+04-6.34849E+05 6.90689E+04-1.15102E+06 5.52063E-09-8.18836E-08
 -1       306-3.00974E+07-6.20587E+06-8.59736E+06-4.69124E+05-6.34464E-08-1.28930E-07
 -1       307 2.51840E+07 3.29435E+06 5.49308E+06-1.53067E+07-7.94476E-07 2.47965E-08
 -1       308-6.88062E+06-9.99237E+05-4.23482E+05 5.20545E+06-2.13535E-07 3.92203E-07
 -1       309-3.14282E+06 8.71380E+06 2.29729E+06-2.07115E+07 3.94150E-07 1.54927E-07
 -1       310-1.27106E+07-1.95934E+06-2.07968E+06 5.21077E+06 3.13739E-08-1.82408E-07
 -1       311 3.87989E+07-1.90337E+04 7.33083E+06-8.64155E+06 2.55881E-07-2.29455E-07
 -1       312-3.19926E+07-6.84354E+06-8.57587E+06-5.15639E+06 2.70316E-07 6.73899E-08
 -1       313 4.53302E+07 1.52747E+07 1.06931E+07 2.40030E+07 1.81695E-07 3.07919E-07
 -1       314-1.71012E+07-1.78981E+07-7.52286E+06-1.25322E+07 4.17698E-07 8.84756E-08
 -1       315-2.01093E+06 2.98326E+07 5.65680E+06 1.03788E+07-4.41592E-07 2.85509E-08
 -1       316 1.45661E+06-9.81021E+06-4.18176E+05-2.46920E+06-1.21228E-06-3.06725E-07
 -1       317-1.70750E+07 2.24385E+07 2.24954E+06-8.91552E+06 7.82340E-07-8.20357E-07
 -1       318-1.10027E+06-1.28802E+07-2.07668E+06-4.24748E+06-1.01177E-06 1.49186E-07
 -1       319 7.34350E+06 3.21304E+07 7.08405E+06 1.67262E+07-6.55491E-08 1.87749E-07
 -1       320-2.26638E+07-1.77008E+07-9.89230E+06-1.28501E+07 1.84169E-07-6.34172E-08
 -1       336-7.53378E+02-1.68422E+06-1.37866E+04 8.85925E+03-2.65845E-08 8.92760E-09
 -1       337-5.39238E+03-1.68374E+06-1.79836E+04-2.15279E+04-4.92930E-08 7.74344E-09
 -1       338 2.62962E+02-1.68371E+06-2.83368E+04 1.24177E+04-3.34658E-08 5.89716E-09
 -1       339-3.00736E+04-1.70089E+06-6.40321E+04-2.85004E+04-6.22358E-08 2.69138E-08
 -1       340 1.97920E+04-1.66923E+06-1.00877E+05 1.57011E+04-4.18586E-08 3.10974E-08
 -1       406-4.99340E+01 3.86346E+05 6.44289E+02 3.35214E+00-1.80518E-09-1.12304E-08
 -1       407 1.54646E+02 3.86480E+05 1.37692E+03 2.34542E+01-3.18821E-10-6.88851E-09
 -1       408 6.34799E+02 3.86245E+05 2.74544E+03-2.71252E+01-2.32012E-09-2.76850E-09
 -1       409 2.90735E+03 3.87357E+05 6.18801E+03 2.89569E+02-3.63912E-10-1.96078E-08
 -1       410 8.48144E+03 3.85455E+05 1.26295E+04-2.79234E+02-2.71393E-09-1.26547E-08
 -1       521-3.17166E+07-7.68731E+06-1.00788E+07-7.04434E+04-9.95351E-08 4.80795E-08
 -1       522 2.61291E+07 4.36489E+06 5.62137E+06-1.88704E+07-5.14090E-07-3.58763E-07
 -1       523-7.45077E+06-1.31863E+06-4.14884E+05 5.66731E+06 1.32946E-07-3.12502E-07
 -1       524-6.64814E+06 1.18402E+07 2.49487E+06-2.38292E+07 9.12085E-07-5.43554E-07
 -1       525-1.35161E+07-2.61568E+06-2.29431E+06 5.68119E+06 4.80853E-07-5.09172E-07
 -1       526 4.25206E+07-1.23625E+05 7.71515E+06-1.13038E+07 3.42261E-07-1.84315E-07
 -1       527-3.39238E+07-8.57124E+06-9.91712E+06-5.02800E+06 3.10712E-07-8.60018E-08
 -1       528 4.96339E+07 1.71121E+07 1.11866E+07 2.73947E+07 4.42960E-08 3.20142E-08
 -1       529-1.80608E+07-2.01785E+07-8.65278E+06-1.25800E+07 1.45345E-07-1.22585E-07
 -1       530-4.50339E+06 3.47530E+07 6.00682E+06 9.80064E+06-1.42303E-07 4.41214E-07
 -1       531 1.47246E+06-1.08959E+07-3.89244E+05-2.39499E+06-9.34626E-07 1.43948E-07
 -1       532-1.95640E+07 2.44788E+07 2.46833E+06-1.33029E+07 3.94808E-07-8.85659E-07
 -1       533-1.13770E+06-1.40685E+07-2.22161E+06-4.03447E+06-2.37225E-07-1.00420E-06
 -1       534 5.36783E+06 3.74272E+07 7.39677E+06 1.73587E+07-5.73345E-08 7.70437E-07
 -1       535-2.38943E+07-2.01682E+07-1.13789E+07-1.29465E+07 6.15837E-08 4.88071E-07
 -1       536-7.05918E+05-4.65985E+04-4.84639E+04-5.46760E+04-3.53930E-09 5.18885E-08
 -1       537-5.51050E+04 4.45184E+04 8.36715E+04 1.23834E+05-1.18049E-07 8.23261E-08
 -1       538-3.94380E+05 3.36554E+03 3.47374E+03-7.21953E+04 3.95545E-08 9.26525E-08
 -1       539-2.69084E+05 2.82849E+03 2.48620E+04 1.38723E+05 1.71690E-07 1.06588E-07
 -1       540-4.97315E+05-4.25042E+02-2.13408E+04-7.00995E+04 4.02601E-08 1.01225E-07
 -1       541 1.46564E+05 1.69645E+04 1.06354E+05 9.79130E+04 1.63736E-08 9.28644E-08
 -1       542-7.98829E+05-2.01306E+04-8.42250E+04-3.05107E+04 7.48187E-08 5.64412E-08
 -1       543 4.05178E+05 2.73188E+04 1.57933E+05-1.33633E+04 2.19163E-08-2.23708E-08
 -1       544-7.48993E+05-1.65327E+04-7.48204E+04 4.05074E+04-1.31631E-08-5.03285E-08
 -1       545 2.88705E+04 9.48004E+03 7.97879E+04-1.13610E+05-2.95259E-08-8.31478E-08
 -1       546-4.32627E+05 6.09546E+03-1.22284E+04 6.93901E+04 2.04593E-08-8.77508E-08
 -1       547-2.87154E+05-4.65870E+03 1.05773E+04-1.41569E+05-1.29066E-07-1.03668E-07
 -1       548-4.41465E+05 4.72107E+03-2.38848E+04 6.91569E+04-1.05622E-07-9.19304E-08
 -1       549 4.80505E+04 1.60540E+04 6.04810E+04-1.11470E+05-6.13436E-08-6.47926E-08
 -1       550-7.58862E+05-2.21232E+04-1.28971E+05 3.85757E+04 3.81260E-09-2.24427E-08
 -1       551 4.07297E+04-7.47931E+05-1.59517E+04-1.24633E+06-1.01849E-07-4.88944E-09
 -1       552 9.31622E+04-7.92887E+05 9.86594E+03-1.77707E+06-7.37637E-08 3.57977E-09
 -1       553 7.16959E+04-7.89303E+05 3.19787E+04-1.23968E+06-1.20563E-07 1.61381E-08
 -1       554 1.31941E+05-8.08798E+05 8.09473E+04-1.77902E+06-7.86822E-08 2.01835E-08
 -1       555 1.01426E+05-8.12958E+05 1.47849E+05-1.23951E+06-1.22527E-07-1.74496E-08
 -1       556 2.23758E+05-3.83775E+05 2.54121E+04-4.07238E+05-2.21771E-08-3.42261E-08
 -1       557 3.54271E+05-4.88124E+05 1.59730E+04-5.27724E+05 7.79983E-09 1.17143E-09
 -1       558 2.05504E+05-3.76508E+05 2.24886E+03-4.11722E+05-2.45636E-08-2.66009E-08
 -1       559 3.29290E+05-4.88147E+05 2.40363E+03-5.48180E+05 2.01399E-08-1.66110E-08
 -1       560 1.90193E+05-3.66906E+05-1.52229E+03-4.22755E+05 1.25438E-08-6.92671E-09
 -1       561 3.10057E+05-4.80447E+05 1.21707E+02-5.61296E+05 8.14907E-10 4.58022E-09
 -1       562 1.78088E+05-3.59386E+05-1.33066E+03-4.31521E+05 9.02219E-10 8.48013E-09
 -1       563 2.95680E+05-4.74178E+05-3.85076E+01-5.70686E+05-9.77889E-09-5.67798E-09
 -1       564 1.69449E+05-3.54004E+05-6.01146E+02-4.37642E+05 2.91038E-09-3.27464E-09
 -1       565 2.86145E+05-4.70026E+05 2.47894E+01-5.76778E+05 8.48377E-09 2.56609E-08
 -1       566 1.64400E+05-3.50810E+05-2.57732E+02-4.41174E+05-1.25438E-08-8.86212E-09
 -1       567 2.81511E+05-4.68010E+05-3.57129E+02-5.79593E+05 8.37463E-09-1.31113E-08
 -1       568 1.63030E+05-3.49971E+05-1.11483E+03-4.42228E+05 1.75532E-10-3.99450E-09
 -1       569 2.80396E+05-4.67930E+05-2.81743E+03-5.78162E+05-2.65663E-09 2.04163E-08
 -1       570 1.66429E+05-3.53197E+05-6.16658E+03-4.41213E+05 9.21136E-09 3.90992E-09
 -1       571 2.90662E+05 1.04972E+04 1.49721E+04-9.54900E+04 4.23006E-09 1.38543E-08
 -1       572 2.92831E+05 3.95858E+03 7.33755E+03-1.04761E+05-1.92358E-10-3.79441E-09
 -1       573 2.91523E+05 1.24712E+03 3.26031E+03-9.53125E+04 3.53339E-09 8.74934E-09
 -1       574 2.91737E+05 7.29704E+02 1.63505E+03-1.04987E+05 1.17143E-09 1.95978E-08
 -1       575 2.91617E+05 4.50612E+02 7.71717E+02-9.52882E+04 8.49639E-09 1.33605E-08
 -1       576 2.91600E+05 4.62327E+02 3.95159E+02-1.05017E+05 1.34703E-08 2.56750E-09
 -1       577 2.91656E+05 3.92627E+02 1.97334E+02-9.52849E+04 3.11566E-08 1.86628E-08
 -1       578 2.91631E+05 4.24249E+02 1.14128E+02-1.05021E+05 4.75047E-08-8.74024E-10
 -1       579 2.91729E+05 3.55809E+02 7.86039E+01-9.52845E+04 3.50574E-08 6.07542E-09
 -1       580 2.91733E+05 3.73021E+02 9.15440E+01-1.05016E+05-5.05315E-09-7.14135E-09
 -1       581 2.91843E+05 2.97000E+02 1.38574E+02-9.52905E+04 1.44901E-08 1.22336E-08
 -1       582 2.91909E+05 3.35678E+02 2.81896E+02-1.04954E+05 8.14907E-09 2.97978E-08
 -1       583 2.91984E+05 3.40252E+02 5.41222E+02-9.53471E+04 3.49828E-08 1.29405E-08
 -1       584 2.92287E+05 7.82349E+02 1.22472E+03-1.04477E+05 6.84668E-08 5.06134E-09
 -1       585 2.92009E+05 1.81331E+03 2.48011E+03-9.57672E+04 2.77141E-08-6.86123E-09
 -1       586-3.44580E+03 1.16985E+05-2.93938E+03-2.51477E+05-2.85172E-09-1.05777E-08
 -1       587-1.34759E+03 1.16734E+05 7.67574E+02-2.76768E+05-9.79526E-09-2.10989E-08
 -1       588 3.98127E+02 1.16541E+05 4.77225E+03-2.51338E+05-3.24872E-09-1.05620E-08
 -1       589 5.10045E+03 1.19022E+05 1.23833E+04-2.76535E+05-1.11904E-08-3.72092E-08
 -1       590 1.66624E+04 1.15203E+05 2.59786E+04-2.51770E+05-7.78982E-09-4.45107E-09
 -1       591-7.37310E+04-1.58205E+04-2.24301E+04-3.15358E+04-3.42675E-09-2.29384E-08
 -1       592-7.77808E+04-1.93840E+04-1.21499E+04-3.51700E+04-2.24584E-09-1.87677E-08
 -1       593-7.59746E+04-1.41926E+04-5.05742E+03-3.31800E+04-1.35806E-10-6.26778E-09
 -1       594-7.46835E+04-1.60930E+04-2.52226E+03-3.52877E+04-7.66775E-10 6.67819E-09
 -1       595-7.61457E+04-1.41872E+04-1.15799E+03-3.32547E+04 5.98730E-09 1.45463E-08
 -1       596-7.44715E+04-1.59425E+04-5.88477E+02-3.52625E+04 1.65660E-08 1.55244E-08
 -1       597-7.61671E+04-1.42025E+04-3.20044E+02-3.32575E+04 9.96431E-09-4.25666E-09
 -1       598-7.44506E+04-1.59366E+04-2.56546E+02-3.52555E+04-8.08899E-09 6.47816E-09
 -1       599-7.61659E+04-1.42030E+04-3.26795E+02-3.32572E+04 3.83898E-09 2.52498E-10
 -1       600-7.44715E+04-1.59431E+04-6.06351E+02-3.52604E+04 3.18846E-09-2.96035E-08
 -1       601-7.61413E+04-1.41885E+04-1.19582E+03-3.32537E+04 5.80189E-09-6.80416E-09
 -1       602-7.46904E+04-1.60974E+04-2.60597E+03-3.52826E+04-3.92220E-09-7.12862E-09
 -1       603-7.59619E+04-1.41970E+04-5.22594E+03-3.31773E+04-1.24464E-09 4.38467E-09
 -1       604-7.79082E+04-1.94786E+04-1.25539E+04-3.51363E+04-5.39671E-10-1.13066E-08
 -1       605-7.36237E+04-1.58967E+04-2.31761E+04-3.14976E+04-9.08926E-11-1.29967E-09
 -1       606 2.66936E+04-1.43274E+04-2.56837E+04 2.39744E+04 6.59020E-09-2.32678E-08
 -1       607 2.23051E+04-4.67948E+03-1.27904E+04 2.69423E+04 3.56340E-09-1.58332E-08
 -1       608 2.48062E+04-8.44342E+02-5.72584E+03 2.38059E+04-7.27596E-10 3.31147E-09
 -1       609 2.43268E+04-2.89442E+02-2.89254E+03 2.71562E+04 1.66528E-09 7.04040E-09
 -1       610 2.45927E+04-4.12005E+01-1.38006E+03 2.37859E+04 4.55020E-09 1.32682E-08
 -1       611 2.45175E+04-4.15105E+01-6.95818E+02 2.71793E+04 6.95172E-09 4.43492E-09
 -1       612 2.45456E+04-2.75088E+01-3.30777E+02 2.37838E+04 2.79942E-09-7.59428E-10
 -1       613 2.45291E+04-3.74343E+01-1.48203E+02 2.71821E+04-6.51198E-10-2.07090E-08
 -1       614 2.45235E+04-3.39393E+01-3.46887E+01 2.37831E+04 2.34104E-09-3.48473E-09
 -1       615 2.45238E+04-3.59563E+01 6.22691E+01 2.71825E+04-6.83031E-10 1.98133E-09
 -1       616 2.45061E+04-3.08254E+01 1.86584E+02 2.37834E+04 5.67070E-10 6.56451E-09
 -1       617 2.45463E+04 3.79619E+00 4.25643E+02 2.71820E+04-1.15051E-10-6.55064E-09
 -1       618 2.44692E+04 9.18724E+01 8.57931E+02 2.37837E+04-9.59517E-10-1.08207E-09
 -1       619 2.48492E+04 6.67145E+02 1.92654E+03 2.71814E+04-8.16840E-10 7.21866E-09
 -1       620 2.41842E+04 2.12625E+03 3.87228E+03 2.37853E+04 2.93460E-09 3.25144E-10
 -1       621 5.06398E+02 3.00984E+05 3.83750E+03 4.15387E+04 1.03228E-09 1.52040E-08
 -1       622 6.73634E+02 3.01868E+05 3.41204E+03 6.03090E+04 1.13414E-09 9.75342E-09
 -1       623 1.44758E+02 3.01174E+05 4.10751E+03 4.13516E+04 1.34241E-09-4.56839E-09
 -1       624 2.11576E+03 3.03077E+05 7.96916E+03 6.04922E+04 1.45610E-09-2.24154E-08
 -1       625 2.06583E+03 2.99592E+05 1.39285E+04 4.13494E+04 1.40108E-09-1.08530E-08
 -1       626 2.60760E+05 6.13683E+04 5.10844E+03 1.26670E+05 5.62432E-09-1.14533E-08
 -1       627 2.58444E+05 6.27663E+04 2.46172E+03 1.30938E+05 1.10595E-09 6.05007E-09
 -1       628 2.60888E+05 5.90308E+04 1.04113E+03 1.27538E+05 2.19916E-09 4.82487E-10
 -1       629 2.57810E+05 6.20880E+04 5.09587E+02 1.31178E+05 2.19916E-08 1.48139E-08
 -1       630 2.60903E+05 5.89179E+04 2.36498E+02 1.27575E+05 8.79754E-09 2.55575E-08
 -1       631 2.57743E+05 6.20622E+04 1.27424E+02 1.31180E+05 8.16362E-09 7.73639E-09
 -1       632 2.60899E+05 5.89218E+04 8.41276E+01 1.27571E+05 7.05995E-09-4.96061E-09
 -1       633 2.57735E+05 6.20640E+04 9.41443E+01 1.31176E+05 9.71204E-09 9.41122E-09
 -1       634 2.60895E+05 5.89189E+04 1.52518E+02 1.27570E+05 9.22802E-09 1.44132E-09
 -1       635 2.57749E+05 6.20622E+04 3.08853E+02 1.31182E+05-6.13412E-09-1.62618E-09
 -1       636 2.60885E+05 5.89131E+04 6.23849E+02 1.27570E+05 1.13992E-08-9.30640E-09
 -1       637 2.57884E+05 6.21593E+04 1.37176E+03 1.31181E+05 2.66703E-08-3.89400E-08
 -1       638 2.60837E+05 5.92161E+04 2.81848E+03 1.27433E+05 1.34560E-08-2.45464E-08
 -1       639 2.59365E+05 6.42185E+04 6.66867E+03 1.30745E+05 8.51719E-09-2.06910E-11
 -1       640 2.60632E+05 6.53650E+04 1.38387E+04 1.24842E+05 3.69118E-09-2.43847E-08
 -1       656 6.65586E+04-1.70339E+06-1.60668E+05-2.56504E+03 5.09317E-11-3.55715E-09
 -1       657-8.80509E+04-1.77599E+06-1.33104E+05 5.15619E+03 5.12955E-10-2.37410E-08
 -1       658 2.12163E+04-1.72400E+06-8.19747E+04-4.64741E+03 5.17275E-10-1.96562E-09
 -1       659-9.52124E+04-1.77939E+06-1.42515E+05 6.88609E+03-1.93722E-09 8.96486E-09
 -1       660 7.37041E+04-1.70000E+06-1.76849E+05-4.29493E+03-1.92085E-09 9.42342E-09
 -1       661 1.58586E+05 1.65944E+04 1.67167E+04 6.19933E+04-1.23964E-09-4.45198E-09
 -1       662 1.68036E+05 2.89751E+04 1.12659E+04 5.82439E+04-2.79789E-09-1.35741E-08
 -1       663 1.61869E+05 2.19574E+04 3.94010E+03 6.10404E+04 9.52355E-10 1.02641E-08
 -1       664 1.64229E+05 2.27035E+04 2.35700E+03 5.94080E+04-4.35102E-09 3.20805E-08
 -1       665 1.62368E+05 2.26899E+04 9.29821E+02 6.08950E+04 2.09707E-09-5.54218E-09
 -1       666 1.63639E+05 2.18659E+04 5.44272E+02 5.95976E+04 6.29953E-09-8.79871E-10
 -1       667 1.62455E+05 2.27732E+04 2.89279E+02 6.08586E+04-7.43228E-10 5.68369E-09
 -1       668 1.63543E+05 2.18061E+04 2.95189E+02 5.96506E+04-6.39004E-09-1.61770E-08
 -1       669 1.62463E+05 2.27481E+04 3.99998E+02 6.08423E+04-1.28921E-10-3.60313E-09
 -1       670 1.63640E+05 2.20233E+04 8.71334E+02 5.96535E+04-1.14865E-08-2.73580E-08
 -1       671 1.62357E+05 2.25605E+04 1.54723E+03 6.08536E+04-6.92275E-10-1.35802E-08
 -1       672 1.64542E+05 2.35286E+04 3.95864E+03 5.94350E+04 6.11797E-09-3.42220E-08
 -1       673 1.61566E+05 2.12809E+04 6.63409E+03 6.10462E+04 3.05590E-09-3.26172E-08
 -1       674 1.70856E+05 3.41870E+04 1.89721E+04 5.75801E+04-2.94347E-09-2.09654E-08
 -1       675 1.56084E+05 1.22006E+04 2.81613E+04 6.25966E+04-2.62025E-09 9.28048E-09
 -1       676 2.41065E+01-2.95798E+05-1.11319E+03-1.37688E+02 2.72505E-09-5.96951E-09
 -1       677-2.94460E+02-2.96068E+05-2.03734E+03 2.75154E+02 7.99625E-09-3.94551E-09
 -1       678 1.97504E+02-2.95607E+05-3.60151E+03-1.37376E+02-4.23370E-10 1.37526E-09
 -1       679-3.60156E+03-2.98242E+05-8.55569E+03 2.73966E+02 6.47162E-09 7.09801E-09
 -1       680 2.15034E+03-2.93626E+05-1.37888E+04-1.34982E+02 2.09457E-09-2.23091E-09
 -1       771-3.06108E+06-7.47304E+05-1.66264E+05-1.46561E+06-3.30037E-08-3.02680E-08
 -1       772-2.98395E+06-8.36235E+05-8.57261E+04-1.56843E+06-2.44763E-08 1.22200E-08
 -1       773-3.09261E+06-7.22714E+05-4.36906E+04-1.48019E+06-1.73459E-08 1.37661E-08
 -1       774-2.97440E+06-8.17654E+05-1.94949E+04-1.59422E+06 2.10275E-08 6.18456E-11
 -1       775-3.10908E+06-7.11164E+05-1.45758E+04-1.48726E+06-1.10304E-08 1.07684E-09
 -1       776-2.98677E+06-8.14608E+05-5.45191E+03-1.61373E+06-9.53150E-09 2.90675E-09
 -1       777-3.12337E+06-7.00853E+05-6.43793E+03-1.49349E+06-4.13274E-09 3.73984E-09
 -1       778-2.99968E+06-8.11777E+05-1.82064E+03-1.63050E+06 8.42556E-09 6.49015E-09
 -1       779-3.13565E+06-6.91844E+05-3.21653E+03-1.49881E+06-6.83940E-09-1.07866E-08
 -1       780-3.01105E+06-8.09076E+05-5.33444E+02-1.64416E+06-4.53292E-09-1.26965E-09
 -1       781-3.14542E+06-6.84581E+05-1.24924E+03-1.50298E+06-3.55212E-08-4.13274E-09
 -1       782-3.01982E+06-8.06784E+05 4.51004E+02-1.65424E+06-4.27826E-08-5.84168E-09
 -1       783-3.15229E+06-6.79534E+05 7.02428E+02-1.50589E+06-1.34314E-08-1.28653E-08
 -1       784-3.02467E+06-8.04494E+05 2.90938E+03-1.66046E+06-3.04353E-08-8.57199E-10
 -1       785-3.15636E+06-6.76523E+05 5.13633E+03-1.50774E+06-4.37285E-08 1.01863E-08
 -1       786 1.28654E+05-1.00180E+04 2.31005E+04-3.27065E+02 3.76427E-05 1.09804E-07
 -1       787 1.38689E+05 1.15963E+04 1.63554E+04-1.68490E+02 7.51833E-05 1.64993E-07
 -1       788 1.32521E+05-1.57450E+03 5.97617E+03-2.82235E+02 5.61182E-05 8.26135E-08
 -1       789 1.34182E+05 1.82226E+03 3.75590E+03-2.28220E+02 3.70116E-05 6.38531E-08
 -1       790 1.33161E+05-2.45919E+02 1.51949E+03-2.67340E+02 2.62193E-05 4.80234E-08
 -1       791 1.33434E+05 2.84663E+02 8.79288E+02-2.49134E+02 1.54372E-05 5.82214E-08
 -1       792 1.33270E+05-3.71920E+01 3.73810E+02-2.61322E+02 1.20770E-05 3.13503E-08
 -1       793 1.33305E+05 4.00906E+01 1.89844E+02-2.59034E+02 8.72759E-06 2.22912E-08
 -1       794 1.33290E+05-1.38223E+00 5.61396E+01-2.57440E+02 9.13880E-06 6.60249E-09
 -1       795 1.33269E+05-2.24712E+01-4.09938E+01-2.68576E+02 9.53963E-06 2.74202E-08
 -1       796 1.33305E+05 2.53631E+01-1.34965E+02-2.51780E+02 1.16584E-05 1.55163E-08
 -1       797 1.33187E+05-1.88752E+02-3.79842E+02-2.87278E+02 1.37663E-05 2.39412E-08
 -1       798 1.33372E+05 1.64869E+02-6.18444E+02-2.38738E+02 1.43216E-05 7.75503E-09
 -1       799 1.32719E+05-1.21007E+03-1.70472E+03-3.33848E+02 1.48660E-05 3.80397E-08
 -1       800 1.33774E+05 1.04647E+03-2.41214E+03-2.05210E+02 7.42001E-06-5.59999E-09
 -1       801-1.71340E+05-1.00003E+07-1.39381E+06 1.41614E+06 9.43255E-08-5.45515E-08
 -1       802 7.38705E+05 5.95510E+06 2.18292E+06-1.74822E+06 2.62247E-07-3.17686E-08
 -1       803-5.36931E+05-1.42729E+07-1.89162E+06 8.98416E+05 7.82020E-08 1.68766E-08
 -1       804 2.87419E+05 2.39920E+06 1.53823E+06 6.77585E+05-1.21639E-07-9.98020E-08
 -1       805 1.89412E+05-6.45853E+06-2.86708E+05-1.00400E+06-5.02696E-08-6.31835E-08
 -1       806-3.08307E+05-5.97539E+04-2.27356E+04-1.22371E+05-7.04222E-09 5.77484E-09
 -1       807-3.10067E+05-5.60718E+04-1.11697E+04-1.27921E+05 1.30394E-08 2.66904E-08
 -1       808-3.08932E+05-5.15596E+04-4.73855E+03-1.26244E+05-1.32241E-09 1.10571E-08
 -1       809-3.07718E+05-5.29339E+04-2.31704E+03-1.28196E+05-9.67816E-09 1.69448E-08
 -1       810-3.09026E+05-5.12743E+04-1.06204E+03-1.26415E+05 8.26594E-09 5.13705E-09
 -1       811-3.07536E+05-5.28079E+04-5.28205E+02-1.28161E+05 3.43243E-09-2.29454E-08
 -1       812-3.09040E+05-5.12989E+04-2.67284E+02-1.26414E+05-8.71842E-09 1.19112E-08
 -1       813-3.07511E+05-5.28102E+04-1.73968E+02-1.28142E+05-2.28811E-08-9.78707E-09
 -1       814-3.09033E+05-5.13086E+04-1.72818E+02-1.26410E+05-7.87622E-10 2.71939E-09
 -1       815-3.07514E+05-5.28125E+04-2.78831E+02-1.28135E+05 7.01903E-09-7.81529E-09
 -1       816-3.09012E+05-5.13078E+04-5.28728E+02-1.26406E+05 4.19459E-09 5.48152E-09
 -1       817-3.07604E+05-5.28629E+04-1.13482E+03-1.28123E+05-3.62525E-09 3.70658E-08
 -1       818-3.08943E+05-5.14682E+04-2.31470E+03-1.26330E+05 3.63798E-12-3.35194E-09
 -1       819-3.08871E+05-5.42607E+04-5.44629E+03-1.27822E+05-5.33510E-09-1.91951E-08
 -1       820-3.08505E+05-5.55833E+04-1.10852E+04-1.24574E+05 3.11957E-10-2.76441E-09
 -1       821-3.80466E+05 2.09345E+04-4.87809E+04 2.21841E+03 1.42510E-08-8.26185E-09
 -1       822-4.00032E+05-2.42543E+04-3.42436E+04-4.75351E+03 5.85793E-09-3.50155E-11
 -1       823-3.87862E+05 3.30280E+03-1.25954E+04 3.64893E+03-1.45104E-08-8.05812E-09
 -1       824-3.91070E+05-3.80763E+03-7.87799E+03-5.78289E+03 1.38157E-09-1.15961E-10
 -1       825-3.89437E+05 5.13793E+02-3.30552E+03 3.24792E+03 2.21893E-08 1.40790E-09
 -1       826-3.88517E+05-5.64904E+02-1.72268E+03-3.38404E+03 2.73037E-08 4.56998E-09
 -1       827-3.90387E+05 4.10445E+01-1.21767E+03 1.24991E+03 1.18997E-08-8.23113E-09
 -1       828-3.87725E+05-1.24329E+02-5.42999E+02 1.10263E+03-1.64761E-09 2.82916E-09
 -1       829-3.90213E+05 6.13244E+01-1.20324E+03-1.23878E+03 1.12883E-09-8.37707E-09
 -1       830-3.88891E+05-6.21438E+02-1.86396E+03 5.18125E+03-2.09741E-09-9.93808E-09
 -1       831-3.89247E+05 5.58177E+02-3.38075E+03-2.82872E+03-6.78219E-09 7.22639E-09
 -1       832-3.91146E+05-3.97123E+03-8.17087E+03 6.57990E+03-3.75518E-09-8.53561E-10
 -1       833-3.87977E+05 3.42260E+03-1.30860E+04-2.63748E+03-2.61696E-09 1.35715E-08
 -1       834-4.00051E+05-2.51371E+04-3.54179E+04 4.48394E+03-3.48266E-09 1.61567E-08
 -1       835-3.80322E+05 2.16888E+04-5.05927E+04-7.32671E+02 5.14376E-09-5.26779E-09
 -1       836-1.41291E+03 3.70230E+05 2.28514E+04-1.67278E+04-6.77301E-09 2.72803E-09
 -1       837 4.86793E+03 3.77389E+05 1.93450E+04-3.41679E+04-7.50111E-09-3.87899E-10
 -1       838-5.59071E+02 3.72234E+05 1.97214E+04-1.66546E+04-6.42785E-09-2.12374E-08
 -1       839 1.24129E+04 3.83006E+05 3.73181E+04-3.42205E+04-6.58838E-09-1.95653E-08
 -1       840-3.84048E+03 3.64550E+05 5.95135E+04-1.66810E+04-6.17729E-09-2.04864E-08
 -1       856-5.22752E+04 8.02407E+03-2.11451E+04-3.97110E+02 5.08635E-09 1.07539E-08
 -1       857-6.09865E+04-9.42807E+03-1.45561E+04 5.63275E+03 2.90265E-09 1.82529E-08
 -1       858-5.57251E+04 1.12530E+03-5.48666E+03-4.21244E+02 4.75751E-09 8.36758E-09
 -1       859-5.70274E+04-1.32392E+03-3.31094E+03 5.66865E+03-2.41317E-09 1.38579E-08
 -1       860-5.62405E+04 1.57599E+02-1.38761E+03-4.32740E+02 2.37199E-09-6.74885E-09
 -1       861-5.64345E+04-1.88186E+02-7.63346E+02 5.68430E+03-2.71740E-10-1.94490E-08
 -1       862-5.63212E+04 2.13541E+01-3.17297E+02-4.36880E+02-2.81834E-09 1.64971E-09
 -1       863-5.63357E+04-2.19055E+01-1.15546E+02 5.68671E+03-5.92510E-09-5.23791E-09
 -1       864-5.63399E+04-4.89816E+00 4.72803E+01-4.35143E+02-1.23805E-09-2.24058E-09
 -1       865-5.62799E+04 5.95997E+01 2.55409E+02 5.67679E+03-2.36624E-09-1.65505E-08
 -1       866-5.63747E+04-6.01691E+01 5.14682E+02-4.26966E+02 7.05825E-10 1.17122E-08
 -1       867-5.60379E+04 4.96837E+02 1.26682E+03 5.65460E+03-1.17689E-09 2.62476E-08
 -1       868-5.65770E+04-4.34243E+02 2.10506E+03-4.12943E+02-3.44664E-09-6.50903E-09
 -1       869-5.44946E+04 3.61398E+03 5.60507E+03 5.61808E+03 1.36583E-09-6.44604E-09
 -1       870-5.79103E+04-3.09266E+03 8.13421E+03-3.90341E+02-3.77281E-09 7.17182E-09
 -1       871-5.51548E+03-2.13553E+04-1.94829E+04 1.30351E+05-5.12409E-09-1.45519E-08
 -1       872-1.98049E+03-2.58858E+04-8.15829E+03 1.69020E+05-1.06984E-08-2.06091E-09
 -1       873 4.05713E+02-2.36943E+04 5.88813E+02 1.30065E+05-5.09181E-09 2.50714E-09
 -1       874 3.30524E+03-2.12851E+04 9.77375E+03 1.69050E+05-1.04365E-08 1.29080E-09
 -1       875 6.84350E+03-2.60228E+04 2.20494E+04 1.30304E+05-4.21642E-09 3.09228E-11
 -1       876 2.93625E+05 4.94881E+04 1.50943E+04 1.17833E+05 7.72138E-09 5.29144E-09
 -1       877 2.94623E+05 5.26677E+04 8.06096E+03 1.22163E+05 7.89350E-09 9.92884E-09
 -1       878 2.95037E+05 4.78160E+04 3.37714E+03 1.19069E+05-3.80851E-09 5.03792E-09
 -1       879 2.92571E+05 5.06201E+04 1.68270E+03 1.22266E+05 3.02680E-09-9.09677E-09
 -1       880 2.95138E+05 4.77988E+04 7.83781E+02 1.19120E+05 3.18505E-09 6.25846E-10
 -1       881 2.92435E+05 5.05325E+04 4.18570E+02 1.22242E+05-2.52498E-10-1.04401E-08
 -1       882 2.95147E+05 4.78120E+04 2.67807E+02 1.19121E+05 5.17321E-09 9.89949E-09
 -1       883 2.92425E+05 5.05279E+04 2.87955E+02 1.22234E+05-2.28198E-09 8.51125E-09
 -1       884 2.95141E+05 4.78092E+04 4.58114E+02 1.19121E+05 8.69818E-09-1.41404E-09
 -1       885 2.92461E+05 5.05343E+04 9.21091E+02 1.22245E+05 8.62360E-09 1.10322E-08
 -1       886 2.95105E+05 4.77824E+04 1.85643E+03 1.19118E+05-2.58595E-09-1.37143E-08
 -1       887 2.92788E+05 5.07482E+04 4.05512E+03 1.22293E+05 9.01446E-09-1.52943E-09
 -1       888 2.94849E+05 4.78275E+04 8.17118E+03 1.18988E+05 3.63940E-11-1.31745E-08
 -1       889 2.97652E+05 5.58071E+04 1.95194E+04 1.22143E+05 3.50769E-09-1.17325E-08
 -1       890 2.91513E+05 5.17893E+04 3.65594E+04 1.15878E+05 2.81943E-11 3.29965E-09
 -1       891-8.90945E+01-1.62697E+05-1.99552E+03 2.71408E+04-6.62794E-10 1.07912E-08
 -1       892-1.74955E+02-1.63225E+05-2.14320E+03 4.12152E+04 1.84400E-09 5.56679E-09
 -1       893 4.38994E+01-1.62761E+05-3.03451E+03 2.71482E+04-2.20007E-09 9.55424E-10
 -1       894-1.50904E+03-1.64371E+05-6.28028E+03 4.10627E+04 5.09044E-09-8.49104E-09
 -1       895-1.19849E+03-1.61453E+05-1.10595E+04 2.72951E+04 1.45860E-09-1.07657E-08
 -1       956-3.77023E+05-5.45423E+03-1.34640E+04 3.08654E+04 8.57199E-09-3.43357E-09
 -1       957-3.79665E+05-1.92409E+03-6.91084E+03 3.70917E+04 1.59480E-09-1.50130E-08
 -1       958-3.78233E+05-2.41132E+02-3.11424E+03 3.06976E+04-4.60932E-09-4.24643E-09
 -1       959-3.78430E+05-1.36376E+02-1.59018E+03 3.72874E+04 3.21961E-10-1.88320E-08
 -1       960-3.78351E+05-4.48496E+01-7.75436E+02 3.06803E+04 2.32467E-09 1.07445E-08
 -1       961-3.78350E+05-6.32743E+01-4.11103E+02 3.73079E+04 1.40462E-08-1.09719E-08
 -1       962-3.78379E+05-4.60683E+01-2.35323E+02 3.06774E+04 4.31646E-09 1.32011E-08
 -1       963-3.78350E+05-5.90708E+01-1.88829E+02 3.73115E+04 3.65071E-09 4.40878E-10
 -1       964-3.78385E+05-4.27072E+01-2.29537E+02 3.06767E+04 3.91408E-09-1.08853E-08
 -1       965-3.78362E+05-5.61013E+01-3.96926E+02 3.73108E+04-8.77588E-09-1.14362E-08
 -1       966-3.78368E+05-3.48638E+01-7.45770E+02 3.06782E+04 5.82941E-09-1.20738E-08
 -1       967-3.78452E+05-1.19604E+02-1.52954E+03 3.72965E+04 1.25699E-08-4.86853E-09
 -1       968-3.78265E+05-2.17253E+02-2.99427E+03 3.06908E+04 7.78346E-09 4.85630E-09
 -1       969-3.79652E+05-1.83351E+03-6.64720E+03 3.71481E+04 4.46380E-09 1.69530E-09
 -1       970-3.77109E+05-5.22751E+03-1.29491E+04 3.08179E+04-1.37334E-10-6.88851E-09
 -1       971-3.45227E+05-1.72675E+03-9.30583E+03 1.53725E+04 5.74619E-09-9.57667E-09
 -1       972-3.47467E+05-1.27128E+03-5.06786E+03 2.12599E+04 6.30052E-09-8.86803E-09
 -1       973-3.46264E+05-6.20491E+01-2.26994E+03 1.52514E+04 2.64481E-09-1.44655E-08
 -1       974-3.46399E+05-8.11091E+01-1.17666E+03 2.13969E+04 2.30716E-09-1.25663E-08
 -1       975-3.46346E+05-1.71979E+01-5.88637E+02 1.52391E+04-4.67026E-10 4.33351E-09
 -1       976-3.46337E+05-3.12911E+01-3.40446E+02 2.14127E+04 6.12727E-09-2.61484E-08
 -1       977-3.46362E+05-1.64552E+01-2.48601E+02 1.52357E+04-2.33035E-09-1.39745E-08
 -1       978-3.46343E+05-2.50713E+01-2.92975E+02 2.14176E+04-9.74512E-09-3.68129E-09
 -1       979-3.46362E+05-7.98232E+00-4.72490E+02 1.52343E+04-3.94675E-09-9.27002E-09
 -1       980-3.46378E+05-2.20122E+01-9.13429E+02 2.14185E+04 2.71184E-09-5.48243E-09
 -1       981-3.46333E+05 1.48491E+01-1.76968E+03 1.52348E+04 5.37034E-09 5.88756E-09
 -1       982-3.46621E+05-1.52772E+02-3.65822E+03 2.14119E+04-6.52562E-10 1.27375E-08
 -1       983-3.46110E+05-9.84670E+01-7.10811E+03 1.52408E+04-5.44151E-09 3.44744E-09
 -1       984-3.50040E+05-3.86512E+03-1.59184E+04 2.13263E+04 6.32099E-11 1.56999E-08
 -1       985-3.42892E+05-5.29974E+03-2.92311E+04 1.53122E+04-5.13501E-09-1.61890E-10
 -3
    1PSTEP                        25          13           1          
  100CL  113 6.62796E-01         409                     0   13           1
 -4  DISP        4    1
 -5  D1          1    2    1    0
 -5  D2          1    2    2    0
 -5  D3          1    2    3    0
 -5  ALL         1    2    0    0    1ALL
 -1         1 2.72934E-03 0.00000E+00 0.00000E+00
 -1         2 1.31557E-03-3.58070E-28 5.29396E-23
 -1         3 3.42684E-04-6.25535E-28 1.32349E-23
 -1         5 1.77118E-04-2.31489E-27-8.27181E-25
 -1         8 2.71874E-03-3.98973E-07 0.00000E+00
 -1         9 2.71190E-03-2.04771E-04 0.00000E+00
 -1        10 3.10736E-04-3.38896E-06 0.00000E+00
 -1        12 1.78968E-04 8.09280E-07 4.13590E-25
 -1        15 2.70668E-03-4.21701E-07 0.00000E+00
 -1        16 2.78360E-03-2.06672E-04 0.00000E+00
 -1        17 2.11477E-04-7.73196E-06 0.00000E+00
 -1        18 1.82925E-04 3.44522E-05 0.00000E+00
 -1        19 1.84519E-04 1.61213E-06 0.00000E+00
 -1        20 1.84658E-04-9.90466E-06 0.00000E+00
 -1        21 1.83766E-04-2.54528E-05-3.30872E-24
 -1        24 3.05948E-05-1.19517E-05 0.00000E+00
 -1        25 1.93703E-04 3.46781E-05 0.00000E+00
 -1        26 1.94411E-04 2.23137E-06 0.00000E+00
 -1        27 1.92196E-04-1.34623E-05 0.00000E+00
 -1        28 1.91879E-04-2.60748E-05 0.00000E+00
 -1        32 0.00000E+00 0.00000E+00 0.00000E+00
 -1        33 2.03267E-04 2.98529E-06 0.00000E+00
 -1        34 2.01149E-04-1.35185E-05 0.00000E+00
 -1        35 1.99218E-04-2.64171E-05 0.00000E+00
 -1        51 2.72863E-03-8.40910E-08-3.30872E-24
 -1        52 2.72732E-03-1.49681E-07-3.30872E-24
 -1        53 2.72556E-03-2.11752E-07 0.00000E+00
 -1        54 2.72345E-03-2.72536E-07-1.65436E-24
 -1        55 2.72114E-03-3.33800E-07 2.48154E-24
 -1        56 2.72106E-03 9.91823E-06 0.00000E+00
 -1        57 2.70430E-03 4.06762E-05 0.00000E+00
 -1        58 2.68156E-03 8.57711E-05 1.05879E-22
 -1        59 2.65601E-03 1.37346E-04 5.29396E-23
 -1        60 2.63152E-03 1.86432E-04 0.00000E+00
 -1        61 2.61182E-03 2.24260E-04 0.00000E+00
 -1        62 2.59945E-03 2.44070E-04-1.05879E-22
 -1        63 2.59602E-03 2.40701E-04-5.29396E-23
 -1        64 2.60126E-03 2.13260E-04 0.00000E+00
 -1        65 2.61409E-03 1.63147E-04 5.29396E-23
 -1        66 2.63228E-03 9.60960E-05-1.05879E-22
 -1        67 2.65334E-03 1.95238E-05 0.00000E+00
 -1        68 2.67447E-03-5.72877E-05 1.05879E-22
 -1        69 2.69290E-03-1.25026E-04 0.00000E+00
 -1        70 2.70608E-03-1.76159E-04 5.29396E-23
 -1        86 1.40340E-03-6.42369E-06 0.00000E+00
 -1        87 1.65717E-03-4.05897E-05-2.64698E-23
 -1        88 1.99842E-03-9.94093E-05 0.00000E+00
 -1        89 2.34446E-03-1.59920E-04 1.32349E-23
 -1        90 2.60977E-03-1.96963E-04-5.29396E-23
 -1       121 3.41787E-04-5.47097E-07 1.32349E-23
 -1       122 3.39100E-04-1.09728E-06-6.61744E-24
 -1       123 3.34631E-04-1.65359E-06 0.00000E+00
 -1       124 3.28398E-04-2.21906E-06-6.61744E-24
 -1       125 3.20423E-04-2.79635E-06-1.32349E-23
 -1       191 1.77169E-04 1.34944E-07 3.30872E-24
 -1       192 1.77323E-04 2.69876E-07 0.00000E+00
 -1       193 1.77580E-04 4.04789E-07 3.30872E-24
 -1       194 1.77940E-04 5.39669E-07 0.00000E+00
 -1       195 1.78402E-04 6.74503E-07 8.27181E-25
 -1       251 2.71844E-03 1.59221E-06 0.00000E+00
 -1       252 2.71814E-03 3.44676E-06 3.30872E-24
 -1       253 2.71784E-03 4.13481E-06 6.61744E-24
 -1       254 2.71753E-03 2.64093E-06 0.00000E+00
 -1       255 2.71722E-03-1.72051E-06 0.00000E+00
 -1       256 2.71688E-03-9.59942E-06 3.30872E-24
 -1       257 2.71651E-03-2.11144E-05-6.61744E-24
 -1       258 2.71610E-03-3.63387E-05 3.30872E-24
 -1       259 2.71563E-03-5.47859E-05 6.61744E-24
 -1       260 2.71511E-03-7.59290E-05 6.61744E-24
 -1       261 2.71455E-03-9.88336E-05-1.32349E-23
 -1       262 2.71398E-03-1.22544E-04-6.61744E-24
 -1       263 2.71341E-03-1.45983E-04 0.00000E+00
 -1       264 2.71286E-03-1.68076E-04 0.00000E+00
 -1       265 2.71237E-03-1.87953E-04 0.00000E+00
 -1       266 2.71673E-03-4.08295E-07 0.00000E+00
 -1       267 2.71472E-03-4.11408E-07-4.13590E-25
 -1       268 2.71271E-03-4.14915E-07 4.13590E-25
 -1       269 2.71070E-03-4.17257E-07 0.00000E+00
 -1       270 2.70869E-03-4.19572E-07 0.00000E+00
 -1       271 2.71796E-03-4.98596E-08 0.00000E+00
 -1       272 2.71819E-03-2.47975E-06 0.00000E+00
 -1       273 2.71940E-03-7.52005E-06 1.32349E-23
 -1       274 2.72150E-03-1.49890E-05 0.00000E+00
 -1       275 2.72441E-03-2.46833E-05 0.00000E+00
 -1       276 2.72805E-03-3.63839E-05 0.00000E+00
 -1       277 2.73233E-03-4.98552E-05 0.00000E+00
 -1       278 2.73715E-03-6.48479E-05 6.61744E-24
 -1       279 2.74243E-03-8.11010E-05 1.32349E-23
 -1       280 2.74806E-03-9.83431E-05-6.61744E-24
 -1       281 2.75395E-03-1.16295E-04-1.32349E-23
 -1       282 2.75999E-03-1.34672E-04 0.00000E+00
 -1       283 2.76607E-03-1.53187E-04-1.32349E-23
 -1       284 2.77210E-03-1.71550E-04 6.61744E-24
 -1       285 2.77798E-03-1.89474E-04 0.00000E+00
 -1       301 2.72492E-03-2.05124E-04 0.00000E+00
 -1       302 2.73626E-03-2.05429E-04-6.61744E-24
 -1       303 2.74685E-03-2.05722E-04 1.32349E-23
 -1       304 2.75765E-03-2.06016E-04-6.61744E-24
 -1       305 2.76958E-03-2.06325E-04 0.00000E+00
 -1       306 2.75008E-03-3.60659E-04-1.05879E-22
 -1       307 2.81394E-03-7.75968E-04 0.00000E+00
 -1       308 2.86049E-03-1.38199E-03-1.05879E-22
 -1       309 2.88441E-03-2.08235E-03 0.00000E+00
 -1       310 2.91601E-03-2.75118E-03 1.05879E-22
 -1       311 2.97572E-03-3.26538E-03 5.29396E-23
 -1       312 3.03324E-03-3.54454E-03 1.05879E-22
 -1       313 3.02733E-03-3.55135E-03 0.00000E+00
 -1       314 2.88406E-03-3.29834E-03-1.05879E-22
 -1       315 2.56285E-03-2.85044E-03 5.29396E-23
 -1       316 2.08263E-03-2.28441E-03 1.05879E-22
 -1       317 1.50988E-03-1.66940E-03-5.29396E-23
 -1       318 9.59239E-04-1.06579E-03 0.00000E+00
 -1       319 5.38811E-04-5.38463E-04 0.00000E+00
 -1       320 2.92237E-04-1.61627E-04 1.05879E-22
 -1       336 2.99151E-04-4.04424E-06 1.32349E-23
 -1       337 2.85490E-04-4.72521E-06 0.00000E+00
 -1       338 2.69814E-04-5.43409E-06 0.00000E+00
 -1       339 2.52198E-04-6.17172E-06 0.00000E+00
 -1       340 2.32722E-04-6.94256E-06-1.32349E-23
 -1       406 1.79636E-04 9.43979E-07 0.00000E+00
 -1       407 1.80407E-04 1.07856E-06 4.13590E-25
 -1       408 1.81281E-04 1.21298E-06-2.48154E-24
 -1       409 1.82258E-04 1.34706E-06-1.03398E-24
 -1       410 1.83337E-04 1.48053E-06 0.00000E+00
 -1       521 2.82236E-03-3.71878E-04 1.05879E-22
 -1       522 2.88439E-03-8.07818E-04 0.00000E+00
 -1       523 2.92433E-03-1.44230E-03 0.00000E+00
 -1       524 2.93877E-03-2.17208E-03 0.00000E+00
 -1       525 2.96226E-03-2.86829E-03-1.05879E-22
 -1       526 3.01838E-03-3.40509E-03 0.00000E+00
 -1       527 3.07550E-03-3.69505E-03 0.00000E+00
 -1       528 3.06721E-03-3.69991E-03-5.29396E-23
 -1       529 2.91149E-03-3.43230E-03 2.11758E-22
 -1       530 2.56548E-03-2.96533E-03-5.29396E-23
 -1       531 2.04896E-03-2.37961E-03 1.05879E-22
 -1       532 1.43504E-03-1.74695E-03 5.29396E-23
 -1       533 8.43989E-04-1.12500E-03 0.00000E+00
 -1       534 3.89304E-04-5.76287E-04 5.29396E-23
 -1       535 1.21007E-04-1.79480E-04 0.00000E+00
 -1       536 2.10723E-04 2.71920E-05-6.61744E-24
 -1       537 2.08805E-04 8.76276E-05 0.00000E+00
 -1       538 2.05842E-04 1.64309E-04 0.00000E+00
 -1       539 2.02347E-04 2.47887E-04 0.00000E+00
 -1       540 1.99201E-04 3.26861E-04 3.30872E-24
 -1       541 1.97157E-04 3.89752E-04-1.65436E-24
 -1       542 1.96214E-04 4.29809E-04 0.00000E+00
 -1       543 1.95989E-04 4.40429E-04 0.00000E+00
 -1       544 1.95666E-04 4.22386E-04 3.30872E-24
 -1       545 1.94494E-04 3.76673E-04 1.65436E-24
 -1       546 1.92310E-04 3.11418E-04-3.30872E-24
 -1       547 1.89353E-04 2.34865E-04 0.00000E+00
 -1       548 1.86423E-04 1.58688E-04 0.00000E+00
 -1       549 1.84309E-04 9.45619E-05-1.65436E-24
 -1       550 1.83211E-04 5.05155E-05 0.00000E+00
 -1       551 1.86275E-04-8.30040E-06 0.00000E+00
 -1       552 1.57827E-04-8.94932E-06 0.00000E+00
 -1       553 1.27076E-04-9.66050E-06-6.61744E-24
 -1       554 9.49821E-05-1.04129E-05 6.61744E-24
 -1       555 6.25035E-05-1.11790E-05-1.32349E-23
 -1       556 2.03829E-04 1.18258E-05 0.00000E+00
 -1       557 1.97649E-04 2.76874E-05 0.00000E+00
 -1       558 1.92804E-04 4.01410E-05 0.00000E+00
 -1       559 1.89161E-04 4.94970E-05 0.00000E+00
 -1       560 1.86590E-04 5.60662E-05 0.00000E+00
 -1       561 1.84963E-04 6.01621E-05 0.00000E+00
 -1       562 1.84155E-04 6.20994E-05 0.00000E+00
 -1       563 1.84041E-04 6.21937E-05 0.00000E+00
 -1       564 1.84500E-04 6.07615E-05 0.00000E+00
 -1       565 1.85411E-04 5.81199E-05 0.00000E+00
 -1       566 1.86654E-04 5.45866E-05 0.00000E+00
 -1       567 1.88110E-04 5.04798E-05 3.30872E-24
 -1       568 1.89661E-04 4.61177E-05 1.65436E-24
 -1       569 1.91188E-04 4.18186E-05-8.27181E-25
 -1       570 1.92574E-04 3.79008E-05 0.00000E+00
 -1       571 1.83021E-04 3.23230E-05 2.48154E-24
 -1       572 1.83120E-04 3.01278E-05 8.27181E-25
 -1       573 1.83219E-04 2.78821E-05 0.00000E+00
 -1       574 1.83319E-04 2.56025E-05-8.27181E-25
 -1       575 1.83418E-04 2.33054E-05-3.30872E-24
 -1       576 1.83518E-04 2.10074E-05 0.00000E+00
 -1       577 1.83617E-04 1.87249E-05-3.30872E-24
 -1       578 1.83717E-04 1.64745E-05 0.00000E+00
 -1       579 1.83816E-04 1.42729E-05-6.61744E-24
 -1       580 1.83916E-04 1.21365E-05 0.00000E+00
 -1       581 1.84016E-04 1.00820E-05 0.00000E+00
 -1       582 1.84117E-04 8.12591E-06 0.00000E+00
 -1       583 1.84217E-04 6.28469E-06 0.00000E+00
 -1       584 1.84317E-04 4.57475E-06 0.00000E+00
 -1       585 1.84418E-04 3.01229E-06 6.61744E-24
 -1       586 1.84680E-04 3.44920E-05 0.00000E+00
 -1       587 1.86395E-04 3.45312E-05 0.00000E+00
 -1       588 1.88111E-04 3.45701E-05 0.00000E+00
 -1       589 1.89872E-04 3.46082E-05 0.00000E+00
 -1       590 1.91722E-04 3.46451E-05 0.00000E+00
 -1       591 1.83655E-04 3.24171E-05 1.03398E-25
 -1       592 1.84388E-04 3.03616E-05 2.06795E-25
 -1       593 1.85127E-04 2.82917E-05 0.00000E+00
 -1       594 1.85869E-04 2.62121E-05 0.00000E+00
 -1       595 1.86612E-04 2.41277E-05 0.00000E+00
 -1       596 1.87355E-04 2.20430E-05 0.00000E+00
 -1       597 1.88097E-04 1.99630E-05 8.27181E-25
 -1       598 1.88835E-04 1.78924E-05 0.00000E+00
 -1       599 1.89568E-04 1.58357E-05 8.27181E-25
 -1       600 1.90294E-04 1.37978E-05 0.00000E+00
 -1       601 1.91011E-04 1.17835E-05 0.00000E+00
 -1       602 1.91718E-04 9.79738E-06-2.06795E-25
 -1       603 1.92413E-04 7.84423E-06 4.13590E-25
 -1       604 1.93094E-04 5.92887E-06 5.16988E-26
 -1       605 1.93759E-04 4.05596E-06-4.13590E-25
 -1       606 1.84532E-04 4.45651E-07 0.00000E+00
 -1       607 1.84541E-04-6.34991E-07 0.00000E+00
 -1       608 1.84550E-04-1.63483E-06 0.00000E+00
 -1       609 1.84559E-04-2.55955E-06 0.00000E+00
 -1       610 1.84567E-04-3.41489E-06 0.00000E+00
 -1       611 1.84575E-04-4.20665E-06 0.00000E+00
 -1       612 1.84584E-04-4.94061E-06 0.00000E+00
 -1       613 1.84592E-04-5.62260E-06 0.00000E+00
 -1       614 1.84600E-04-6.25842E-06 0.00000E+00
 -1       615 1.84609E-04-6.85389E-06 0.00000E+00
 -1       616 1.84617E-04-7.41482E-06 0.00000E+00
 -1       617 1.84626E-04-7.94701E-06 0.00000E+00
 -1       618 1.84634E-04-8.45628E-06 0.00000E+00
 -1       619 1.84642E-04-8.94844E-06 0.00000E+00
 -1       620 1.84650E-04-9.42930E-06-2.06795E-25
 -1       621 1.85880E-04 1.71591E-06-1.65436E-24
 -1       622 1.87402E-04 1.81992E-06 1.65436E-24
 -1       623 1.89050E-04 1.92372E-06-3.30872E-24
 -1       624 1.90790E-04 2.02719E-06-8.27181E-25
 -1       625 1.92588E-04 2.13037E-06-1.65436E-24
 -1       626 1.85068E-04 4.81731E-07 0.00000E+00
 -1       627 1.85595E-04-5.85627E-07 0.00000E+00
 -1       628 1.86101E-04-1.59779E-06 0.00000E+00
 -1       629 1.86590E-04-2.56292E-06 0.00000E+00
 -1       630 1.87064E-04-3.48921E-06-3.30872E-24
 -1       631 1.87527E-04-4.38486E-06-1.65436E-24
 -1       632 1.87981E-04-5.25807E-06 3.30872E-24
 -1       633 1.88431E-04-6.11707E-06 1.65436E-24
 -1       634 1.88878E-04-6.97005E-06 0.00000E+00
 -1       635 1.89325E-04-7.82521E-06-1.65436E-24
 -1       636 1.89777E-04-8.69078E-06 0.00000E+00
 -1       637 1.90235E-04-9.57495E-06 0.00000E+00
 -1       638 1.90704E-04-1.04859E-05 1.65436E-24
 -1       639 1.91185E-04-1.14320E-05 0.00000E+00
 -1       640 1.91682E-04-1.24213E-05-1.65436E-24
 -1       656 1.85366E-04-1.04829E-05 0.00000E+00
 -1       657 1.86494E-04-1.10846E-05-6.61744E-24
 -1       658 1.87902E-04-1.16849E-05-1.32349E-23
 -1       659 1.89445E-04-1.22850E-05 0.00000E+00
 -1       660 1.90937E-04-1.28868E-05 0.00000E+00
 -1       661 1.84923E-04-1.04251E-05 8.27181E-25
 -1       662 1.85226E-04-1.10373E-05 0.00000E+00
 -1       663 1.85561E-04-1.17360E-05 0.00000E+00
 -1       664 1.85926E-04-1.25148E-05 0.00000E+00
 -1       665 1.86319E-04-1.33679E-05 1.65436E-24
 -1       666 1.86738E-04-1.42893E-05 0.00000E+00
 -1       667 1.87181E-04-1.52734E-05 1.65436E-24
 -1       668 1.87644E-04-1.63146E-05 0.00000E+00
 -1       669 1.88127E-04-1.74075E-05 0.00000E+00
 -1       670 1.88628E-04-1.85468E-05 0.00000E+00
 -1       671 1.89143E-04-1.97273E-05-1.65436E-24
 -1       672 1.89672E-04-2.09440E-05-8.27181E-25
 -1       673 1.90213E-04-2.21917E-05 1.65436E-24
 -1       674 1.90762E-04-2.34659E-05-4.13590E-25
 -1       675 1.91320E-04-2.47613E-05 2.06795E-25
 -1       676 1.85123E-04-2.55571E-05 3.30872E-24
 -1       677 1.86479E-04-2.56613E-05 0.00000E+00
 -1       678 1.87834E-04-2.57655E-05 0.00000E+00
 -1       679 1.89186E-04-2.58693E-05 0.00000E+00
 -1       680 1.90534E-04-2.59732E-05 0.00000E+00
 -1       771 1.86382E-05 1.47886E-05 0.00000E+00
 -1       772 8.57951E-06 3.67501E-05-5.29396E-23
 -1       773 3.27884E-07 5.41632E-05-5.29396E-23
 -1       774-6.24107E-06 6.72860E-05 2.64698E-23
 -1       775-1.12491E-05 7.63869E-05-5.29396E-23
 -1       776-1.48228E-05 8.17514E-05-2.64698E-23
 -1       777-1.70886E-05 8.36747E-05-5.29396E-23
 -1       778-1.81756E-05 8.24661E-05 0.00000E+00
 -1       779-1.82120E-05 7.84434E-05 0.00000E+00
 -1       780-1.73283E-05 7.19357E-05 0.00000E+00
 -1       781-1.56539E-05 6.32790E-05-5.29396E-23
 -1       782-1.33200E-05 5.28183E-05-2.64698E-23
 -1       783-1.04564E-05 4.09028E-05-5.29396E-23
 -1       784-7.19471E-06 2.78884E-05 0.00000E+00
 -1       785-3.66519E-06 1.41338E-05 0.00000E+00
 -1       786 1.93743E-04 3.24384E-05 0.00000E+00
 -1       787 1.93786E-04 3.02761E-05 0.00000E+00
 -1       788 1.93830E-04 2.81676E-05 0.00000E+00
 -1       789 1.93874E-04 2.60891E-05-8.27181E-25
 -1       790 1.93919E-04 2.40319E-05 0.00000E+00
 -1       791 1.93963E-04 2.19869E-05 0.00000E+00
 -1       792 1.94008E-04 1.99510E-05-1.65436E-24
 -1       793 1.94052E-04 1.79212E-05 0.00000E+00
 -1       794 1.94097E-04 1.58975E-05-1.65436E-24
 -1       795 1.94142E-04 1.38798E-05 0.00000E+00
 -1       796 1.94186E-04 1.18709E-05-1.65436E-24
 -1       797 1.94231E-04 9.87387E-06 8.27181E-25
 -1       798 1.94276E-04 7.89711E-06 1.65436E-24
 -1       799 1.94321E-04 5.94933E-06 8.27181E-25
 -1       800 1.94366E-04 4.05316E-06 1.65436E-24
 -1       801 1.47884E-04 3.11761E-05 0.00000E+00
 -1       802 9.35221E-06 1.94497E-05-2.64698E-23
 -1       803-1.08963E-04 9.82571E-06 0.00000E+00
 -1       804-9.65640E-05 6.83966E-06 0.00000E+00
 -1       805-3.19016E-05 2.68682E-06 5.29396E-23
 -1       806 1.94433E-04 3.23556E-05-1.65436E-24
 -1       807 1.95149E-04 3.00588E-05-1.65436E-24
 -1       808 1.95853E-04 2.77929E-05 0.00000E+00
 -1       809 1.96543E-04 2.55621E-05 0.00000E+00
 -1       810 1.97219E-04 2.33704E-05 0.00000E+00
 -1       811 1.97879E-04 2.12219E-05 0.00000E+00
 -1       812 1.98521E-04 1.91206E-05 0.00000E+00
 -1       813 1.99144E-04 1.70704E-05 0.00000E+00
 -1       814 1.99746E-04 1.50753E-05 0.00000E+00
 -1       815 2.00326E-04 1.31393E-05 1.65436E-24
 -1       816 2.00883E-04 1.12664E-05-1.65436E-24
 -1       817 2.01415E-04 9.46046E-06-8.27181E-25
 -1       818 2.01920E-04 7.72546E-06 1.65436E-24
 -1       819 2.02398E-04 6.06535E-06 8.27181E-25
 -1       820 2.02847E-04 4.48402E-06 1.65436E-24
 -1       821 1.94281E-04-1.78026E-07 1.65436E-24
 -1       822 1.94140E-04-3.83127E-06 0.00000E+00
 -1       823 1.93996E-04-8.27375E-06 3.30872E-24
 -1       824 1.93850E-04-1.30459E-05 0.00000E+00
 -1       825 1.93704E-04-1.75987E-05 0.00000E+00
 -1       826 1.93561E-04-2.13844E-05 0.00000E+00
 -1       827 1.93421E-04-2.40649E-05 3.30872E-24
 -1       828 1.93284E-04-2.53089E-05 0.00000E+00
 -1       829 1.93148E-04-2.51774E-05-3.30872E-24
 -1       830 1.93011E-04-2.37398E-05-1.65436E-24
 -1       831 1.92873E-04-2.14224E-05 0.00000E+00
 -1       832 1.92733E-04-1.86566E-05 1.65436E-24
 -1       833 1.92594E-04-1.59967E-05 0.00000E+00
 -1       834 1.92458E-04-1.39961E-05 0.00000E+00
 -1       835 1.92323E-04-1.30288E-05 8.27181E-25
 -1       836 1.96102E-04 2.35639E-06 0.00000E+00
 -1       837 1.97663E-04 2.48456E-06 1.65436E-24
 -1       838 1.99127E-04 2.61267E-06 0.00000E+00
 -1       839 2.00527E-04 2.74007E-06-8.27181E-25
 -1       840 2.01896E-04 2.86732E-06 0.00000E+00
 -1       856 1.92180E-04-1.45256E-05 0.00000E+00
 -1       857 1.92160E-04-1.54531E-05-1.29247E-26
 -1       858 1.92141E-04-1.62661E-05-2.06795E-25
 -1       859 1.92121E-04-1.69855E-05 0.00000E+00
 -1       860 1.92102E-04-1.76328E-05 4.13590E-25
 -1       861 1.92082E-04-1.82290E-05 2.06795E-25
 -1       862 1.92062E-04-1.87955E-05 0.00000E+00
 -1       863 1.92042E-04-1.93538E-05 0.00000E+00
 -1       864 1.92022E-04-1.99250E-05-8.27181E-25
 -1       865 1.92002E-04-2.05306E-05-4.13590E-25
 -1       866 1.91982E-04-2.11918E-05 0.00000E+00
 -1       867 1.91962E-04-2.19300E-05 0.00000E+00
 -1       868 1.91942E-04-2.27662E-05 8.27181E-25
 -1       869 1.91922E-04-2.37218E-05-4.13590E-25
 -1       870 1.91901E-04-2.48177E-05 0.00000E+00
 -1       871 1.93547E-04-1.34672E-05 0.00000E+00
 -1       872 1.95045E-04-1.34755E-05 0.00000E+00
 -1       873 1.96622E-04-1.34846E-05 0.00000E+00
 -1       874 1.98211E-04-1.34943E-05-3.10193E-25
 -1       875 1.99743E-04-1.35047E-05-6.20385E-25
 -1       876 1.92722E-04-1.45110E-05 3.30872E-24
 -1       877 1.93225E-04-1.54929E-05 0.00000E+00
 -1       878 1.93707E-04-1.64160E-05 0.00000E+00
 -1       879 1.94170E-04-1.72877E-05 0.00000E+00
 -1       880 1.94617E-04-1.81153E-05-3.30872E-24
 -1       881 1.95050E-04-1.89062E-05 0.00000E+00
 -1       882 1.95472E-04-1.96678E-05-3.30872E-24
 -1       883 1.95885E-04-2.04074E-05 0.00000E+00
 -1       884 1.96294E-04-2.11324E-05 0.00000E+00
 -1       885 1.96699E-04-2.18501E-05 1.65436E-24
 -1       886 1.97105E-04-2.25678E-05-3.30872E-24
 -1       887 1.97513E-04-2.32930E-05 0.00000E+00
 -1       888 1.97926E-04-2.40328E-05-3.30872E-24
 -1       889 1.98347E-04-2.47950E-05 0.00000E+00
 -1       890 1.98779E-04-2.55866E-05-1.65436E-24
 -1       891 1.93245E-04-2.61323E-05 0.00000E+00
 -1       892 1.94587E-04-2.61900E-05-8.27181E-25
 -1       893 1.95880E-04-2.62475E-05-8.27181E-25
 -1       894 1.97099E-04-2.63048E-05 0.00000E+00
 -1       895 1.98220E-04-2.63619E-05 4.13590E-25
 -1       956 2.03136E-04 1.66152E-06 1.65436E-24
 -1       957 2.03004E-04 4.29376E-07 0.00000E+00
 -1       958 2.02871E-04-7.21887E-07 0.00000E+00
 -1       959 2.02739E-04-1.80361E-06-1.65436E-24
 -1       960 2.02606E-04-2.82717E-06 0.00000E+00
 -1       961 2.02473E-04-3.80401E-06 0.00000E+00
 -1       962 2.02340E-04-4.74553E-06 3.30872E-24
 -1       963 2.02208E-04-5.66321E-06 1.65436E-24
 -1       964 2.02075E-04-6.56848E-06-3.30872E-24
 -1       965 2.01942E-04-7.47278E-06 0.00000E+00
 -1       966 2.01809E-04-8.38758E-06 3.30872E-24
 -1       967 2.01677E-04-9.32432E-06 0.00000E+00
 -1       968 2.01544E-04-1.02944E-05-6.61744E-24
 -1       969 2.01412E-04-1.13093E-05 0.00000E+00
 -1       970 2.01280E-04-1.23803E-05 0.00000E+00
 -1       971 2.01029E-04-1.46562E-05 3.30872E-24
 -1       972 2.00908E-04-1.56993E-05 0.00000E+00
 -1       973 2.00787E-04-1.66584E-05 3.30872E-24
 -1       974 2.00665E-04-1.75441E-05 0.00000E+00
 -1       975 2.00544E-04-1.83675E-05-3.30872E-24
 -1       976 2.00423E-04-1.91392E-05-1.65436E-24
 -1       977 2.00301E-04-1.98703E-05-3.30872E-24
 -1       978 2.00180E-04-2.05715E-05 0.00000E+00
 -1       979 2.00059E-04-2.12539E-05 0.00000E+00
 -1       980 1.99937E-04-2.19283E-05 1.65436E-24
 -1       981 1.99816E-04-2.26056E-05 0.00000E+00
 -1       982 1.99695E-04-2.32968E-05-1.65436E-24
 -1       983 1.99574E-04-2.40126E-05 0.00000E+00
 -1       984 1.99453E-04-2.47641E-05 1.65436E-24
 -1       985 1.99333E-04-2.55621E-05 0.00000E+00
 -3
    1PSTEP                        26          13           1          
  100CL  113 6.62796E-01         409                     0   13           1
 -4  STRESS      6    1
 -5  SXX         1    4    1    1
 -5  SYY         1    4    2    2
 -5  SZZ         1    4    3    3
 -5  SXY         1    4    1    2
 -5  SYZ         1    4    2    3
 -5  SZX         1    4    3    1
 -1         1-5.34854E+06-1.55667E+06-1.13154E+06-1.30593E+06-3.09956E-09 1.50787E-07
 -1         2 1.57137E+06 2.29777E+07 5.32409E+06 6.97167E+06 3.04717E-08 3.53612E-08
 -1         3-1.48729E+03-1.55336E+06 4.04807E+02-2.20421E+03-3.94841E-10-2.84053E-08
 -1         5-7.55514E+01 3.86425E+05 9.98394E+00-1.34515E+00-4.09459E-10-1.00590E-09
 -1         8-5.49828E+05-1.99713E+05-6.25707E+04-2.40796E+05 1.08230E-10-1.69934E-07
 -1         9 1.18432E+07 4.03751E+06 2.84218E+06-2.74669E+05 1.36206E-09-1.23773E-07
 -1        10-2.30242E+03-1.61871E+06-3.93455E+03-1.49158E+04-1.39189E-08-2.73517E-08
 -1        12-7.16329E+01 3.86447E+05 3.28217E+02-9.16830E+00-7.28971E-10 1.72085E-08
 -1        15 9.17009E+02 5.03942E+02 2.96421E+03 7.97519E-01-2.91820E-10-9.33845E-08
 -1        16 2.29343E+07-3.40894E+05 3.11903E+06-2.31390E+06 3.13351E-08 9.08040E-09
 -1        17 8.40122E+06 6.29301E+06 2.26889E+06 6.01872E+06 2.59024E-08 1.56695E-08
 -1        18 1.42668E+05 3.35834E+04 4.17329E+03-1.19742E+05 1.34853E-08 1.08071E-08
 -1        19 1.22412E+05 1.41589E+05-9.59304E+02 2.20428E+04 1.52559E-09-6.80993E-09
 -1        20-8.18776E+04-5.73518E+05-1.28689E+05 2.51286E+04-1.27829E-09-8.72387E-09
 -1        21-4.55655E+01-2.95937E+05-9.23807E+02 2.75430E+02 1.48370E-08-1.34779E-09
 -1        24 1.41023E+07 1.21366E+07 3.90210E+06 1.12361E+07-1.65426E-07-5.07377E-08
 -1        25 1.26538E+05 2.68896E+05 1.00752E+05-6.46828E+05-1.66847E-09 1.99549E-08
 -1        26-5.44434E+04 9.23960E+04-2.45416E+04 1.23727E+03-2.32831E-10-3.54316E-10
 -1        27-7.58128E+04-3.09922E+05-1.13329E+05 6.89685E+04 4.27993E-09 7.19410E-10
 -1        28 2.22350E+04-8.53192E+04 1.68928E+04 2.06194E+04-3.07787E-09 8.34251E-09
 -1        32-1.68014E+06-3.18161E+06-1.97700E+05 4.59631E+05-4.32774E-08-8.79993E-09
 -1        33-1.78256E+05 9.29912E+04 3.23730E+04-3.88848E+04-2.87878E-09 1.16048E-08
 -1        34-2.23511E+05-2.50269E+04 6.89116E+02 7.56258E+04-4.81814E-09-1.91449E-10
 -1        35-2.29253E+04-3.38352E+04-1.34795E+03 5.14832E+04-3.34934E-09 4.54747E-09
 -1        51 6.09789E+04-1.69649E+05 1.28874E+05-4.30994E+05-1.01863E-10-7.38946E-08
 -1        52 2.05992E+04-1.47075E+05 6.75341E+04-5.02679E+05 5.33873E-10-2.37196E-08
 -1        53 4.14238E+03-1.62417E+05 3.50227E+04-4.29520E+05 4.12911E-10-2.42268E-07
 -1        54 7.20295E+03-1.58198E+05 2.84864E+04-5.04117E+05-4.47471E-10-1.74687E-07
 -1        55 1.57150E+04-1.65089E+05 3.43072E+04-4.29439E+05 3.96540E-10-3.05758E-07
 -1        56-9.82585E+06-1.41529E+06-9.33098E+05-4.12694E+06-2.82889E-08-9.75560E-08
 -1        57-1.11664E+07-7.20589E+05-5.42504E+05-2.62897E+06 2.79979E-08 8.97926E-08
 -1        58-9.57846E+06-1.89777E+06-2.02357E+05-4.34116E+06 6.17729E-09 2.16824E-08
 -1        59-1.14110E+07-1.56511E+05-1.06070E+05-2.55113E+06-8.90259E-09-1.16386E-07
 -1        60-9.68004E+06-1.90071E+06-5.98103E+04-4.29151E+06-2.69429E-08 3.48664E-08
 -1        61-1.06613E+07-5.36427E+05 2.52209E+04-2.80746E+06-2.88564E-08 1.07135E-07
 -1        62-1.01630E+07-1.62962E+06-9.10527E+04-3.95241E+06-1.68511E-08-1.48619E-07
 -1        63-9.63088E+06-1.33594E+06 6.92041E+04-3.57751E+06-3.35494E-08 4.91691E-08
 -1        64-1.05754E+07-1.19770E+06-8.39028E+04-3.43697E+06-1.15397E-08 2.67246E-08
 -1        65-9.24153E+06-2.00518E+06 2.12777E+04-4.60716E+06-1.02591E-08-3.70410E-08
 -1        66-1.07068E+07-8.53155E+05-4.83408E+04-3.03989E+06 5.61704E-09-2.07634E-07
 -1        67-9.28496E+06-2.27987E+06-9.53079E+04-5.10035E+06-1.26220E-08-2.51912E-07
 -1        68-1.06869E+07-8.13621E+05-1.88723E+05-3.03902E+06-9.12223E-08-4.37722E-08
 -1        69-9.43504E+06-2.34379E+06-4.80832E+05-4.57539E+06 2.56296E-09-3.91447E-09
 -1        70-1.04118E+07-9.03303E+05-8.59123E+05-3.47162E+06-1.94268E-08-2.50293E-09
 -1        86-1.60359E+06-1.61623E+07-2.91570E+06-3.27089E+06-2.80499E-07 5.43660E-08
 -1        87 2.53493E+06 6.67777E+06 2.42451E+06 5.98632E+06-4.73774E-07 3.26690E-09
 -1        88-4.84329E+05-1.88731E+06 2.30976E+05-2.63572E+06-4.32703E-07-1.71441E-07
 -1        89 3.39296E+06 6.35817E+06 2.48598E+06 6.19242E+06-5.75208E-07-3.67938E-07
 -1        90-2.36002E+06-1.59241E+07-3.14541E+06-3.50929E+06-1.67762E-07 1.26995E-07
 -1       121-2.03726E+03-1.55826E+06-5.47986E+02 1.09248E+03 1.42498E-09-2.42071E-08
 -1       122-1.30215E+03-1.55342E+06 7.67196E+02-4.41260E+03-5.51739E-09 1.59416E-08
 -1       123-2.05701E+03-1.55839E+06 2.57202E+02 3.26281E+03 4.48085E-09 9.20409E-09
 -1       124 3.28634E+02-1.55297E+06 2.93920E+03-9.23537E+03-1.04442E-08-1.69457E-08
 -1       125-2.86328E+03-1.55929E+06 3.44502E+03 5.86929E+03 6.64113E-09-4.26262E-08
 -1       191-7.96159E+01 3.86444E+05 8.47541E+00 7.01487E-01-5.40676E-10 9.98989E-09
 -1       192-7.65155E+01 3.86426E+05 2.13062E+01-4.31305E+00-8.46764E-10 1.92331E-08
 -1       193-8.21536E+01 3.86443E+05 3.62600E+01 3.78857E+00-1.13428E-09-5.63341E-09
 -1       194-7.96065E+01 3.86429E+05 8.09982E+01-9.78725E+00-6.16916E-10-4.97676E-09
 -1       195-8.70244E+01 3.86441E+05 1.55059E+02 6.37006E+00-1.55051E-09 1.88429E-08
 -1       251-8.62639E+05 1.63221E+04-3.80959E+04-1.47046E+04 1.07189E-08-1.49430E-07
 -1       252-8.76960E+05-1.88942E+04-2.64872E+04 5.22360E+04-6.89857E-09 1.44264E-07
 -1       253-8.71220E+05 2.50530E+03-1.02820E+04-1.03633E+04 5.41149E-11 2.62621E-07
 -1       254-8.63130E+05-3.04850E+03-4.51474E+03 3.72174E+04-4.76189E-09 1.95179E-07
 -1       255-8.75819E+05 4.08618E+01-3.62213E+03 3.09945E+02 4.73369E-09-5.65341E-08
 -1       256-8.57461E+05-2.73716E+02 1.30999E+03 1.29939E+04-1.48702E-09 2.54782E-07
 -1       257-8.76419E+05-6.16806E+02-1.47589E+03 1.38475E+04-6.77574E-10 1.55494E-07
 -1       258-8.60468E+05 9.57850E+02 2.82428E+03-1.24767E+04-7.35690E-09 1.19117E-07
 -1       259-8.73075E+05-9.88011E+02 1.33348E+03 2.57780E+04 8.19932E-09-9.28891E-08
 -1       260-8.67303E+05 3.03820E+03 5.63174E+03-3.08544E+04-8.44290E-09-1.79276E-07
 -1       261-8.70259E+05-2.17685E+03 8.68546E+03 3.22431E+04 3.18870E-08 1.60571E-08
 -1       262-8.66158E+05 1.19360E+04 2.15861E+04-3.62432E+04-4.25150E-08 1.59053E-07
 -1       263-8.74489E+05-9.64404E+03 3.41822E+04 3.11772E+04 1.67560E-08 2.52541E-07
 -1       264-8.35259E+05 6.73757E+04 9.47166E+04-2.67760E+04 1.49597E-08 9.10841E-08
 -1       265-9.00636E+05-5.77678E+04 1.31755E+05 2.27624E+04 2.28733E-08 1.52722E-08
 -1       266-1.66012E+04-7.76356E+03 3.89471E+04-1.70630E+01-1.00044E-10-1.08040E-07
 -1       267 1.92451E+04 9.04729E+03 2.75293E+04 1.96891E+01 0.00000E+00 2.00395E-07
 -1       268-2.58074E+03-1.28142E+03 1.02324E+04-2.50864E+00-1.56888E-10 1.88539E-07
 -1       269 3.04708E+03 1.53350E+03 6.65100E+03 2.92229E+00-6.45741E-11 1.60941E-07
 -1       270-4.57371E+02-2.51971E+02 3.21053E+03-3.96570E-01-7.48059E-11 9.43962E-08
 -1       271-1.45620E+06-1.86039E+05-1.09797E+05-5.67116E+05-4.44597E-08 3.28946E-08
 -1       272-1.44761E+06-3.00885E+05-6.87902E+04-6.08820E+05-2.48983E-08-9.88803E-08
 -1       273-1.47950E+06-2.09074E+05-2.66906E+04-5.59075E+05 3.71074E-08 2.08220E-08
 -1       274-1.42131E+06-2.73077E+05-1.37870E+04-6.24215E+05 2.61934E-09-6.15328E-08
 -1       275-1.48511E+06-2.08476E+05-6.68669E+03-5.55269E+05-1.99725E-09-8.47967E-08
 -1       276-1.41588E+06-2.74105E+05-2.76670E+03-6.33063E+05-3.71074E-08 1.12504E-07
 -1       277-1.48797E+06-2.05764E+05-1.86124E+03-5.52516E+05-8.59654E-09-2.89519E-08
 -1       278-1.41385E+06-2.77311E+05-6.76860E+02-6.39554E+05-2.25755E-08 6.43918E-08
 -1       279-1.48978E+06-2.03575E+05-8.38356E+02-5.50596E+05-1.64346E-08-8.06194E-08
 -1       280-1.41294E+06-2.79684E+05-9.22265E+02-6.43783E+05-6.28370E-08 1.73166E-07
 -1       281-1.49073E+06-2.02224E+05-1.70790E+03-5.49532E+05 2.09429E-08 1.21332E-07
 -1       282-1.41331E+06-2.81743E+05-3.96566E+03-6.45473E+05-9.94623E-09-2.08177E-07
 -1       283-1.49026E+06-2.01087E+05-7.06207E+03-5.49430E+05-1.09260E-08-5.77070E-08
 -1       284-1.41967E+06-2.90896E+05-1.92291E+04-6.43269E+05 3.86754E-08-1.01158E-07
 -1       285-1.48422E+06-1.94222E+05-3.00658E+04-5.51199E+05-3.75312E-08-2.25118E-08
 -1       301-9.14719E+03-6.51564E+05 1.66578E+05-1.14746E+06-8.17818E-09 1.45126E-07
 -1       302-1.14294E+04-6.04280E+05 1.00250E+05-1.67456E+06-2.01035E-08 1.70494E-07
 -1       303-2.33996E+04-6.44567E+05 5.65172E+04-1.14428E+06 9.51695E-09 2.86818E-08
 -1       304-2.71838E+04-6.11772E+05 5.66560E+04-1.67402E+06-7.52334E-09 1.38098E-07
 -1       305-2.78639E+04-6.33203E+05 6.93669E+04-1.14737E+06 1.84973E-08-2.24172E-07
 -1       306-3.01170E+07-6.21177E+06-8.60440E+06-4.77015E+05-1.22469E-07-1.98110E-07
 -1       307 2.52320E+07 3.29390E+06 5.50035E+06-1.52977E+07-8.22241E-07-3.95492E-07
 -1       308-6.89531E+06-1.00575E+06-4.28878E+05 5.20879E+06-2.76166E-07 1.81375E-07
 -1       309-3.16312E+06 8.73016E+06 2.29703E+06-2.07129E+07 4.41301E-07 1.08008E-07
 -1       310-1.26882E+07-1.95892E+06-2.07336E+06 5.21580E+06 1.58499E-07-1.84897E-07
 -1       311 3.87587E+07-1.14333E+04 7.32602E+06-8.67680E+06 4.85597E-07-8.98144E-08
 -1       312-3.19972E+07-6.83428E+06-8.57431E+06-5.13703E+06 2.54833E-07 3.89351E-07
 -1       313 4.53766E+07 1.52408E+07 1.06951E+07 2.39836E+07-1.70694E-07 4.37023E-07
 -1       314-1.71284E+07-1.78902E+07-7.52786E+06-1.25384E+07 4.34171E-07 2.00991E-07
 -1       315-1.97874E+06 2.98363E+07 5.66244E+06 1.04127E+07-2.95986E-07 2.67668E-07
 -1       316 1.44908E+06-9.81926E+06-4.22276E+05-2.47753E+06-1.23256E-06-1.42609E-07
 -1       317-1.70837E+07 2.24463E+07 2.24974E+06-8.90915E+06 5.53322E-07-7.54262E-07
 -1       318-1.09429E+06-1.28710E+07-2.07239E+06-4.24519E+06-9.79577E-07 1.20781E-07
 -1       319 7.32738E+06 3.21250E+07 7.08091E+06 1.67171E+07-2.91620E-08 2.36090E-07
 -1       320-2.26613E+07-1.77013E+07-9.89154E+06-1.28502E+07 2.01282E-07-4.31901E-08
 -1       336-7.51776E+02-1.68687E+06-1.38066E+04 8.87679E+03-2.54695E-08 1.44064E-08
 -1       337-5.39820E+03-1.68639E+06-1.80115E+04-2.15684E+04-4.81068E-08-1.53123E-08
 -1       338 2.66221E+02-1.68636E+06-2.83788E+04 1.24405E+04-3.47882E-08-8.46921E-09
 -1       339-3.01171E+04-1.70357E+06-6.41304E+04-2.85508E+04-6.29980E-08 5.52518E-08
 -1       340 1.98255E+04-1.67186E+06-1.01029E+05 1.57284E+04-4.07890E-08 3.27200E-08
 -1       406-4.99350E+01 3.86426E+05 6.44437E+02 3.35415E+00-1.95028E-09 9.61154E-09
 -1       407 1.54691E+02 3.86561E+05 1.37723E+03 2.34512E+01-3.46070E-10-2.57933E-09
 -1       408 6.34954E+02 3.86326E+05 2.74607E+03-2.71243E+01-2.44131E-09 1.15288E-08
 -1       409 2.90803E+03 3.87437E+05 6.18942E+03 2.89578E+02-4.20755E-10 3.79350E-09
 -1       410 8.48338E+03 3.85535E+05 1.26323E+04-2.79248E+02-2.88492E-09 1.24746E-08
 -1       521-3.17228E+07-7.68990E+06-1.00809E+07-7.91302E+04-9.46457E-08 2.67115E-07
 -1       522 2.61628E+07 4.35775E+06 5.62504E+06-1.88530E+07-7.04546E-07-2.76574E-07
 -1       523-7.46577E+06-1.32410E+06-4.20263E+05 5.66817E+06 8.76316E-08-1.76340E-07
 -1       524-6.66967E+06 1.18471E+07 2.49277E+06-2.38208E+07 6.75471E-07-2.76188E-07
 -1       525-1.34915E+07-2.61194E+06-2.28588E+06 5.68282E+06 3.02796E-07-1.44471E-07
 -1       526 4.24470E+07-1.13843E+05 7.70611E+06-1.13376E+07-7.17118E-08 1.52504E-07
 -1       527-3.39134E+07-8.55764E+06-9.90959E+06-5.00657E+06-2.70666E-07-9.65083E-08
 -1       528 4.96596E+07 1.70584E+07 1.11827E+07 2.73547E+07 2.53320E-07-5.28322E-07
 -1       529-1.80844E+07-2.01588E+07-8.65355E+06-1.25822E+07 2.57336E-07-2.48780E-07
 -1       530-4.47044E+06 3.47368E+07 6.00912E+06 9.83927E+06-8.83301E-09 5.70668E-07
 -1       531 1.46219E+06-1.09024E+07-3.93573E+05-2.40647E+06-8.25559E-07 5.15196E-07
 -1       532-1.95761E+07 2.44797E+07 2.46669E+06-1.32835E+07 3.01516E-07-6.67598E-07
 -1       533-1.13273E+06-1.40523E+07-2.21515E+06-4.03480E+06-2.82249E-07-1.04355E-06
 -1       534 5.34491E+06 3.73954E+07 7.38907E+06 1.73391E+07-4.18513E-08 7.79750E-07
 -1       535-2.38827E+07-2.01568E+07-1.13714E+07-1.29408E+07 9.24338E-08 4.78874E-07
 -1       536-7.06005E+05-4.66452E+04-4.83909E+04-5.46869E+04 1.35969E-10 6.22313E-08
 -1       537-5.50158E+04 4.45705E+04 8.37486E+04 1.23853E+05-9.94974E-08 7.84967E-08
 -1       538-3.94384E+05 3.36057E+03 3.49633E+03-7.22045E+04 2.39114E-08 9.21129E-08
 -1       539-2.69053E+05 2.83640E+03 2.48819E+04 1.38742E+05 1.60891E-07 9.51908E-08
 -1       540-4.97345E+05-4.26620E+02-2.13410E+04-7.01101E+04 4.66548E-08 9.87995E-08
 -1       541 1.46690E+05 1.69699E+04 1.06382E+05 9.79287E+04-1.05772E-08 7.78269E-08
 -1       542-7.98924E+05-2.01353E+04-8.42430E+04-3.05167E+04 6.00971E-08 4.22716E-08
 -1       543 4.05359E+05 2.73251E+04 1.57970E+05-1.33653E+04 3.22832E-08-3.94493E-09
 -1       544-7.49077E+05-1.65365E+04-7.48371E+04 4.05142E+04-2.42881E-08-4.32393E-08
 -1       545 2.89665E+04 9.48247E+03 7.98070E+04-1.13627E+05-7.10170E-08-8.21174E-08
 -1       546-4.32640E+05 6.09660E+03-1.22308E+04 6.93992E+04 7.99741E-09-7.92551E-08
 -1       547-2.87130E+05-4.65879E+03 1.05814E+04-1.41588E+05-1.35352E-07-8.62054E-08
 -1       548-4.41478E+05 4.72151E+03-2.38881E+04 6.91661E+04-1.21910E-07-1.04769E-07
 -1       549 4.81497E+04 1.60618E+04 6.05004E+04-1.11488E+05-6.66919E-08-5.89669E-08
 -1       550-7.58948E+05-2.21318E+04-1.28992E+05 3.85827E+04 6.69297E-09-3.68873E-08
 -1       551 4.07562E+04-7.48819E+05-1.59395E+04-1.24666E+06-1.03144E-07 1.74623E-10
 -1       552 9.32106E+04-7.93792E+05 9.88006E+03-1.77756E+06-7.34290E-08 4.63915E-08
 -1       553 7.17302E+04-7.90203E+05 3.19964E+04-1.24002E+06-1.17579E-07 2.16387E-08
 -1       554 1.31999E+05-8.09704E+05 8.09820E+04-1.77951E+06-7.48114E-08 1.65819E-08
 -1       555 1.01466E+05-8.13859E+05 1.47908E+05-1.23984E+06-1.23538E-07-1.39044E-08
 -1       556 2.23793E+05-3.83822E+05 2.54989E+04-4.07302E+05-1.19908E-08-2.50293E-08
 -1       557 3.54344E+05-4.88188E+05 1.60188E+04-5.27794E+05 2.23954E-08 1.49194E-08
 -1       558 2.05540E+05-3.76567E+05 2.26678E+03-4.11778E+05-8.61473E-09-3.45608E-09
 -1       559 3.29346E+05-4.88222E+05 2.41286E+03-5.48256E+05 2.38797E-08-1.16415E-09
 -1       560 1.90224E+05-3.66963E+05-1.51893E+03-4.22815E+05 9.19681E-09 2.20971E-08
 -1       561 3.10107E+05-4.80520E+05 1.23617E+02-5.61375E+05-2.50293E-09 7.19592E-09
 -1       562 1.78115E+05-3.59441E+05-1.33025E+03-4.31583E+05-5.38421E-10-1.62981E-09
 -1       563 2.95725E+05-4.74249E+05-3.81126E+01-5.70768E+05-2.59752E-09 9.10950E-09
 -1       564 1.69474E+05-3.54057E+05-6.01171E+02-4.37706E+05 4.07454E-09 1.59207E-09
 -1       565 2.86186E+05-4.70095E+05 2.48904E+01-5.76863E+05 1.55123E-08-1.63773E-08
 -1       566 1.64423E+05-3.50861E+05-2.57764E+02-4.41239E+05-5.31145E-10-7.03403E-09
 -1       567 2.81551E+05-4.68078E+05-3.57162E+02-5.79678E+05 1.34260E-08 2.39124E-08
 -1       568 1.63052E+05-3.50022E+05-1.11503E+03-4.42294E+05 1.23055E-09 2.22644E-09
 -1       569 2.80436E+05-4.67999E+05-2.81799E+03-5.78248E+05-6.51835E-09-4.22733E-09
 -1       570 1.66452E+05-3.53249E+05-6.16785E+03-4.41278E+05 1.02009E-08 1.14933E-08
 -1       571 2.90717E+05 1.04992E+04 1.49748E+04-9.55085E+04 4.55839E-09 1.20413E-08
 -1       572 2.92886E+05 3.95934E+03 7.33888E+03-1.04781E+05 5.11773E-09-1.06529E-08
 -1       573 2.91578E+05 1.24739E+03 3.26090E+03-9.53309E+04 5.85533E-09-9.68976E-09
 -1       574 2.91791E+05 7.29884E+02 1.63535E+03-1.05007E+05 8.59109E-09-8.06449E-09
 -1       575 2.91671E+05 4.50738E+02 7.71858E+02-9.53066E+04 5.65950E-09 1.30440E-08
 -1       576 2.91655E+05 4.62462E+02 3.95231E+02-1.05037E+05 3.81556E-09 2.72812E-08
 -1       577 2.91711E+05 3.92744E+02 1.97369E+02-9.53033E+04 6.54745E-09-6.27188E-09
 -1       578 2.91685E+05 4.24375E+02 1.14146E+02-1.05041E+05 1.18616E-08-3.57250E-09
 -1       579 2.91783E+05 3.55915E+02 7.86140E+01-9.53030E+04 1.30185E-08 1.83118E-08
 -1       580 2.91788E+05 3.73130E+02 9.15521E+01-1.05036E+05-9.06857E-09 1.82181E-08
 -1       581 2.91898E+05 2.97083E+02 1.38581E+02-9.53089E+04 8.12724E-09 1.68166E-09
 -1       582 2.91964E+05 3.35759E+02 2.81909E+02-1.04975E+05 7.77891E-09-2.64663E-10
 -1       583 2.92038E+05 3.40308E+02 5.41243E+02-9.53656E+04-9.13133E-10 2.96723E-09
 -1       584 2.92342E+05 7.82418E+02 1.22477E+03-1.04497E+05-1.12668E-08-1.08112E-08
 -1       585 2.92064E+05 1.81341E+03 2.48020E+03-9.57857E+04-1.02518E-08-3.70346E-09
 -1       586-3.44640E+03 1.17009E+05-2.93983E+03-2.51521E+05-5.81167E-09-1.67529E-08
 -1       587-1.34785E+03 1.16757E+05 7.67720E+02-2.76817E+05-4.39832E-09-1.70345E-08
 -1       588 3.98148E+02 1.16564E+05 4.77304E+03-2.51382E+05-3.52338E-09 4.93856E-09
 -1       589 5.10124E+03 1.19046E+05 1.23853E+04-2.76584E+05-3.83261E-09-1.94696E-08
 -1       590 1.66651E+04 1.15226E+05 2.59829E+04-2.51815E+05-4.95402E-09-2.93039E-09
 -1       591-7.37470E+04-1.58247E+04-2.24347E+04-3.15437E+04-9.70931E-09-8.49650E-09
 -1       592-7.77973E+04-1.93893E+04-1.21524E+04-3.51790E+04-3.21043E-09-2.80615E-08
 -1       593-7.59911E+04-1.41964E+04-5.05845E+03-3.31882E+04 1.43426E-09 6.22936E-09
 -1       594-7.46994E+04-1.60977E+04-2.52278E+03-3.52968E+04 4.59309E-09 1.39903E-08
 -1       595-7.61622E+04-1.41910E+04-1.15823E+03-3.32629E+04-2.09377E-09 2.61142E-08
 -1       596-7.44873E+04-1.59471E+04-5.88598E+02-3.52716E+04-6.62499E-09 2.31203E-08
 -1       597-7.61837E+04-1.42063E+04-3.20110E+02-3.32658E+04 4.54236E-09-1.75185E-08
 -1       598-7.44664E+04-1.59412E+04-2.56601E+02-3.52646E+04 2.94546E-09-3.26153E-08
 -1       599-7.61824E+04-1.42068E+04-3.26866E+02-3.32654E+04 7.64680E-09-1.89743E-10
 -1       600-7.44873E+04-1.59477E+04-6.06483E+02-3.52695E+04 7.28772E-09-6.04587E-09
 -1       601-7.61578E+04-1.41924E+04-1.19608E+03-3.32619E+04 4.45584E-09-5.12023E-09
 -1       602-7.47063E+04-1.61021E+04-2.60654E+03-3.52917E+04-3.67572E-09-5.83816E-09
 -1       603-7.59784E+04-1.42008E+04-5.22709E+03-3.31855E+04 2.17074E-09 1.15629E-08
 -1       604-7.79248E+04-1.94840E+04-1.25567E+04-3.51454E+04 2.38515E-09 2.00180E-08
 -1       605-7.36397E+04-1.59010E+04-2.31812E+04-3.15054E+04 4.65548E-09 4.60568E-09
 -1       606 2.67006E+04-1.43302E+04-2.56887E+04 2.39810E+04 6.71480E-09-1.39503E-08
 -1       607 2.23113E+04-4.68040E+03-1.27929E+04 2.69497E+04 1.67347E-10-1.39216E-08
 -1       608 2.48129E+04-8.44519E+02-5.72694E+03 2.38125E+04-3.72165E-09 7.34553E-09
 -1       609 2.43334E+04-2.89509E+02-2.89310E+03 2.71637E+04 1.05592E-09 1.35644E-08
 -1       610 2.45993E+04-4.12172E+01-1.38033E+03 2.37924E+04 3.78168E-09 8.33757E-09
 -1       611 2.45241E+04-4.15243E+01-6.95953E+02 2.71868E+04 9.60426E-09 1.57659E-08
 -1       612 2.45522E+04-2.75183E+01-3.30841E+02 2.37904E+04 1.97997E-09 1.49880E-08
 -1       613 2.45357E+04-3.74431E+01-1.48233E+02 2.71896E+04 1.01636E-09 1.11045E-08
 -1       614 2.45301E+04-3.39463E+01-3.46971E+01 2.37897E+04 1.33696E-09-9.65883E-10
 -1       615 2.45304E+04-3.59615E+01 6.22781E+01 2.71900E+04-1.01363E-09 7.28915E-09
 -1       616 2.45127E+04-3.08291E+01 1.86614E+02 2.37900E+04-1.30058E-10-4.04566E-09
 -1       617 2.45529E+04 3.79996E+00 4.25712E+02 2.71895E+04 2.54659E-10-1.07775E-08
 -1       618 2.44757E+04 9.18908E+01 8.58072E+02 2.37903E+04 1.85082E-10 7.26254E-09
 -1       619 2.48558E+04 6.67259E+02 1.92685E+03 2.71889E+04-2.08161E-10 1.09535E-08
 -1       620 2.41907E+04 2.12661E+03 3.87292E+03 2.37918E+04 8.64020E-12 6.05223E-09
 -1       621 5.06566E+02 3.01049E+05 3.83877E+03 4.15442E+04 8.84938E-10-1.00345E-08
 -1       622 6.73836E+02 3.01933E+05 3.41302E+03 6.03170E+04 1.14960E-09-8.63110E-09
 -1       623 1.44788E+02 3.01239E+05 4.10850E+03 4.13571E+04 1.32263E-09 3.18687E-09
 -1       624 2.11622E+03 3.03142E+05 7.97093E+03 6.05002E+04 1.45832E-09 1.61624E-08
 -1       625 2.06627E+03 2.99657E+05 1.39316E+04 4.13549E+04 1.60844E-09 2.75384E-08
 -1       626 2.60808E+05 6.13808E+04 5.10907E+03 1.26695E+05 8.15771E-09-1.13869E-09
 -1       627 2.58491E+05 6.27792E+04 2.46202E+03 1.30964E+05 4.77166E-09-1.39685E-08
 -1       628 2.60936E+05 5.90429E+04 1.04126E+03 1.27563E+05 7.10315E-09 4.34738E-10
 -1       629 2.57857E+05 6.21009E+04 5.09650E+02 1.31204E+05 9.51877E-09 7.15809E-09
 -1       630 2.60950E+05 5.89300E+04 2.36527E+02 1.27600E+05-5.55201E-09-3.11394E-08
 -1       631 2.57790E+05 6.20751E+04 1.27441E+02 1.31206E+05 4.03088E-09 1.99288E-08
 -1       632 2.60947E+05 5.89339E+04 8.41400E+01 1.27596E+05 3.46699E-09-3.57620E-08
 -1       633 2.57782E+05 6.20769E+04 9.41602E+01 1.31202E+05 5.05429E-09-5.01564E-09
 -1       634 2.60942E+05 5.89311E+04 1.52546E+02 1.27595E+05-7.27084E-09 6.33509E-09
 -1       635 2.57796E+05 6.20751E+04 3.08910E+02 1.31208E+05-2.14533E-09 2.03272E-09
 -1       636 2.60933E+05 5.89253E+04 6.23964E+02 1.27595E+05-3.80442E-09-3.13867E-09
 -1       637 2.57931E+05 6.21722E+04 1.37202E+03 1.31207E+05-2.41835E-09-9.43373E-09
 -1       638 2.60885E+05 5.92283E+04 2.81900E+03 1.27458E+05 2.32922E-09-7.12907E-09
 -1       639 2.59412E+05 6.42318E+04 6.66989E+03 1.30771E+05 1.14369E-08 5.39058E-09
 -1       640 2.60680E+05 6.53783E+04 1.38412E+04 1.24867E+05 6.63704E-09-1.12650E-08
 -1       656 6.65715E+04-1.70372E+06-1.60699E+05-2.56532E+03-1.96451E-10-4.13866E-09
 -1       657-8.80681E+04-1.77633E+06-1.33130E+05 5.15718E+03 4.09273E-11-3.92134E-08
 -1       658 2.12204E+04-1.72434E+06-8.19905E+04-4.64856E+03 2.98542E-10-3.82315E-09
 -1       659-9.52308E+04-1.77973E+06-1.42543E+05 6.88777E+03-2.05182E-09-8.12886E-09
 -1       660 7.37183E+04-1.70032E+06-1.76883E+05-4.29588E+03-1.92813E-09 2.70714E-08
 -1       661 1.58628E+05 1.65990E+04 1.67209E+04 6.20099E+04 5.59794E-10-4.46744E-09
 -1       662 1.68081E+05 2.89829E+04 1.12687E+04 5.82597E+04 3.59705E-09 7.18182E-09
 -1       663 1.61913E+05 2.19633E+04 3.94108E+03 6.10568E+04 2.57432E-09-8.89827E-09
 -1       664 1.64273E+05 2.27097E+04 2.35759E+03 5.94240E+04-1.22000E-09-4.67423E-09
 -1       665 1.62411E+05 2.26960E+04 9.30052E+02 6.09113E+04-9.43260E-10 2.29053E-09
 -1       666 1.63683E+05 2.18719E+04 5.44407E+02 5.96137E+04 8.46066E-09 1.87843E-08
 -1       667 1.62498E+05 2.27793E+04 2.89350E+02 6.08749E+04-2.87059E-11 1.35698E-08
 -1       668 1.63587E+05 2.18121E+04 2.95261E+02 5.96667E+04-8.66990E-09-8.54692E-09
 -1       669 1.62506E+05 2.27542E+04 4.00094E+02 6.08586E+04-5.75682E-10-9.73472E-09
 -1       670 1.63684E+05 2.20294E+04 8.71542E+02 5.96696E+04-8.92988E-09 9.67181E-09
 -1       671 1.62401E+05 2.25665E+04 1.54760E+03 6.08699E+04 7.51520E-10 1.00132E-08
 -1       672 1.64586E+05 2.35350E+04 3.95959E+03 5.94511E+04 8.77634E-09-1.78306E-09
 -1       673 1.61609E+05 2.12866E+04 6.63567E+03 6.10625E+04 2.92300E-09-2.88492E-09
 -1       674 1.70901E+05 3.41960E+04 1.89766E+04 5.75958E+04-1.35628E-09-2.14936E-09
 -1       675 1.56126E+05 1.22041E+04 2.81680E+04 6.26133E+04-9.18590E-10-4.24006E-09
 -1       676 2.41116E+01-2.95860E+05-1.11343E+03-1.37719E+02 1.58749E-09 4.64323E-09
 -1       677-2.94523E+02-2.96129E+05-2.03777E+03 2.75217E+02 9.06812E-09 5.85673E-09
 -1       678 1.97546E+02-2.95668E+05-3.60227E+03-1.37407E+02-5.47971E-11-8.24473E-09
 -1       679-3.60233E+03-2.98304E+05-8.55751E+03 2.74028E+02 7.39465E-09-1.36723E-09
 -1       680 2.15080E+03-2.93686E+05-1.37918E+04-1.35013E+02 1.45974E-09-4.26255E-10
 -1       771-3.06174E+06-7.47420E+05-1.66202E+05-1.46589E+06-3.86499E-08-2.70957E-08
 -1       772-2.98459E+06-8.36344E+05-8.56922E+04-1.56870E+06-3.10392E-08 8.63656E-09
 -1       773-3.09327E+06-7.22833E+05-4.36777E+04-1.48046E+06-2.21771E-08 1.37661E-08
 -1       774-2.97505E+06-8.17774E+05-1.94882E+04-1.59449E+06 2.59752E-08-2.32831E-10
 -1       775-3.10974E+06-7.11280E+05-1.45737E+04-1.48753E+06-6.28643E-09 6.79574E-09
 -1       776-2.98742E+06-8.14729E+05-5.45064E+03-1.61401E+06-1.30385E-08 2.76486E-09
 -1       777-3.12403E+06-7.00968E+05-6.43801E+03-1.49376E+06 4.59841E-09 3.90719E-09
 -1       778-3.00033E+06-8.11898E+05-1.82049E+03-1.63078E+06 3.88536E-09 7.26868E-09
 -1       779-3.13631E+06-6.91957E+05-3.21690E+03-1.49908E+06-4.45289E-09-9.96806E-09
 -1       780-3.01171E+06-8.09198E+05-5.33502E+02-1.64444E+06 2.32831E-10-1.13687E-08
 -1       781-3.14608E+06-6.84692E+05-1.24956E+03-1.50325E+06-2.25700E-08-4.18368E-10
 -1       782-3.02047E+06-8.06906E+05 4.50803E+02-1.65452E+06-3.41606E-08-8.63884E-09
 -1       783-3.15296E+06-6.79644E+05 7.01956E+02-1.50617E+06-2.26282E-09-1.76424E-08
 -1       784-3.02532E+06-8.04616E+05 2.90845E+03-1.66074E+06-1.74005E-08-5.39512E-09
 -1       785-3.15703E+06-6.76633E+05 5.13456E+03-1.50802E+06-3.47463E-08 7.35781E-09
 -1       786 1.28726E+05-1.00215E+04 2.31085E+04-3.27256E+02 3.76418E-05 1.15748E-07
 -1       787 1.38765E+05 1.16003E+04 1.63611E+04-1.68637E+02 7.51801E-05 1.69770E-07
 -1       788 1.32595E+05-1.57505E+03 5.97825E+03-2.82406E+02 5.61111E-05 7.94214E-08
 -1       789 1.34257E+05 1.82289E+03 3.75721E+03-2.28390E+02 3.70000E-05 9.67218E-08
 -1       790 1.33235E+05-2.46004E+02 1.52002E+03-2.67508E+02 2.62060E-05 3.93027E-08
 -1       791 1.33508E+05 2.84764E+02 8.79603E+02-2.49307E+02 1.54307E-05 3.86862E-08
 -1       792 1.33344E+05-3.72058E+01 3.73958E+02-2.61490E+02 1.20730E-05 2.11628E-08
 -1       793 1.33379E+05 4.01130E+01 1.89950E+02-2.59206E+02 8.72110E-06-1.60787E-09
 -1       794 1.33364E+05-1.38969E+00 5.62309E+01-2.57609E+02 9.13736E-06-2.97433E-10
 -1       795 1.33343E+05-2.24255E+01-4.08425E+01-2.68749E+02 9.54065E-06 4.21978E-08
 -1       796 1.33379E+05 2.53259E+01-1.34727E+02-2.51947E+02 1.16613E-05 3.11442E-08
 -1       797 1.33262E+05-1.88476E+02-3.79271E+02-2.87461E+02 1.37711E-05 1.88708E-08
 -1       798 1.33446E+05 1.64632E+02-6.17541E+02-2.38896E+02 1.43275E-05 1.79021E-08
 -1       799 1.32794E+05-1.20832E+03-1.70225E+03-3.34071E+02 1.48747E-05 5.28693E-08
 -1       800 1.33847E+05 1.04496E+03-2.40865E+03-2.05337E+02 7.42440E-06 4.30782E-09
 -1       801-1.71412E+05-1.00012E+07-1.39396E+06 1.41632E+06 9.37725E-08-4.63333E-08
 -1       802 7.38838E+05 5.95610E+06 2.18318E+06-1.74847E+06 2.60246E-07-3.06973E-08
 -1       803-5.36987E+05-1.42738E+07-1.89175E+06 8.98609E+05 7.82093E-08 1.49994E-08
 -1       804 2.87458E+05 2.39955E+06 1.53837E+06 6.77576E+05-1.21290E-07-1.07647E-07
 -1       805 1.89413E+05-6.45871E+06-2.86647E+05-1.00406E+06-5.01677E-08-7.05131E-08
 -1       806-3.08363E+05-5.97679E+04-2.27405E+04-1.22397E+05-1.03400E-08-1.65232E-08
 -1       807-3.10122E+05-5.60854E+04-1.11722E+04-1.27949E+05 8.56335E-09 2.61882E-08
 -1       808-3.08988E+05-5.15718E+04-4.73959E+03-1.26270E+05-1.51931E-09 9.51559E-11
 -1       809-3.07773E+05-5.29469E+04-2.31755E+03-1.28224E+05 2.11912E-09-1.20904E-08
 -1       810-3.09082E+05-5.12864E+04-1.06227E+03-1.26441E+05 9.40327E-09-7.38737E-10
 -1       811-3.07591E+05-5.28209E+04-5.28320E+02-1.28188E+05 3.02725E-09 2.60479E-09
 -1       812-3.09096E+05-5.13110E+04-2.67342E+02-1.26441E+05-8.18272E-09-6.70479E-09
 -1       813-3.07565E+05-5.28231E+04-1.74005E+02-1.28170E+05-6.99174E-09-1.11686E-08
 -1       814-3.09088E+05-5.13208E+04-1.72853E+02-1.26436E+05-1.34423E-09-1.53591E-08
 -1       815-3.07569E+05-5.28254E+04-2.78885E+02-1.28162E+05 5.05179E-09-1.55694E-08
 -1       816-3.09067E+05-5.13200E+04-5.28831E+02-1.26433E+05 6.65204E-09 2.01785E-08
 -1       817-3.07658E+05-5.28759E+04-1.13504E+03-1.28150E+05-3.38514E-09 2.67330E-08
 -1       818-3.08998E+05-5.14804E+04-2.31515E+03-1.26357E+05 1.42427E-09 9.76934E-09
 -1       819-3.08926E+05-5.42738E+04-5.44734E+03-1.27849E+05 9.33142E-10-2.17506E-09
 -1       820-3.08561E+05-5.55962E+04-1.10874E+04-1.24600E+05 1.81080E-09-2.55727E-09
 -1       821-3.80512E+05 2.09371E+04-4.87886E+04 2.22154E+03 1.47052E-08-7.66158E-09
 -1       822-4.00073E+05-2.42574E+04-3.42476E+04-4.76383E+03 5.22787E-09 3.89764E-09
 -1       823-3.87906E+05 3.30331E+03-1.25972E+04 3.65617E+03-1.30827E-08 1.19703E-08
 -1       824-3.91113E+05-3.80817E+03-7.87893E+03-5.79718E+03 1.34096E-09 1.06886E-08
 -1       825-3.89481E+05 5.13891E+02-3.30615E+03 3.25503E+03 2.26128E-08-2.15312E-09
 -1       826-3.88556E+05-5.64827E+02-1.72194E+03-3.39395E+03 3.11709E-08-2.09634E-08
 -1       827-3.90435E+05 4.08403E+01-1.21868E+03 1.25277E+03 1.12486E-08 5.43412E-09
 -1       828-3.87761E+05-1.24060E+02-5.41487E+02 1.10286E+03-6.39010E-09 3.03419E-08
 -1       829-3.90261E+05 6.11654E+01-1.20415E+03-1.24180E+03 2.28312E-09 9.89667E-09
 -1       830-3.88930E+05-6.21447E+02-1.86341E+03 5.19145E+03 1.83554E-09-1.21986E-09
 -1       831-3.89291E+05 5.58336E+02-3.38129E+03-2.83583E+03-6.33334E-09-3.39514E-09
 -1       832-3.91189E+05-3.97183E+03-8.17181E+03 6.59412E+03-4.18850E-09-2.64095E-10
 -1       833-3.88021E+05 3.42310E+03-1.30879E+04-2.64453E+03-2.83261E-09-9.68703E-09
 -1       834-4.00091E+05-2.51401E+04-3.54217E+04 4.49387E+03-4.23455E-09 1.57629E-08
 -1       835-3.80369E+05 2.16913E+04-5.06005E+04-7.35489E+02 5.29906E-09 3.87081E-09
 -1       836-1.41322E+03 3.70308E+05 2.28561E+04-1.67368E+04-7.25231E-09 1.54205E-09
 -1       837 4.86889E+03 3.77468E+05 1.93489E+04-3.41863E+04-7.90243E-09 2.16505E-09
 -1       838-5.59200E+02 3.72312E+05 1.97254E+04-1.66636E+04-6.40284E-09 1.21947E-08
 -1       839 1.24153E+04 3.83087E+05 3.73256E+04-3.42389E+04-6.71662E-09 9.33875E-09
 -1       840-3.84126E+03 3.64627E+05 5.95254E+04-1.66901E+04-6.23913E-09 1.38211E-08
 -1       856-5.22958E+04 8.02596E+03-2.11501E+04-3.97188E+02 4.02474E-09-7.42966E-09
 -1       857-6.10091E+04-9.43028E+03-1.45596E+04 5.63395E+03 4.74586E-09 7.21525E-09
 -1       858-5.57465E+04 1.12556E+03-5.48795E+03-4.21333E+02 4.74711E-09 2.45677E-09
 -1       859-5.70490E+04-1.32423E+03-3.31172E+03 5.66986E+03-2.72955E-09 6.18093E-09
 -1       860-5.62620E+04 1.57636E+02-1.38794E+03-4.32835E+02-8.83404E-10 2.45984E-09
 -1       861-5.64560E+04-1.88229E+02-7.63529E+02 5.68553E+03-4.03801E-09-7.94748E-09
 -1       862-5.63426E+04 2.13592E+01-3.17376E+02-4.36977E+02-1.47689E-09 1.00411E-08
 -1       863-5.63572E+04-2.19105E+01-1.15583E+02 5.68794E+03-7.70031E-09 1.45725E-08
 -1       864-5.63613E+04-4.89824E+00 4.72719E+01-4.35240E+02-1.78829E-10 2.21357E-09
 -1       865-5.63014E+04 5.96050E+01 2.55426E+02 5.67801E+03-4.09658E-09 2.49523E-09
 -1       866-5.63962E+04-6.01748E+01 5.14726E+02-4.27058E+02 1.21850E-09-3.03334E-09
 -1       867-5.60593E+04 4.96882E+02 1.26693E+03 5.65580E+03-1.60276E-09-2.77408E-08
 -1       868-5.65985E+04-4.34283E+02 2.10525E+03-4.13026E+02-3.52958E-09-9.08290E-09
 -1       869-5.45159E+04 3.61431E+03 5.60558E+03 5.61926E+03-6.23885E-10-2.01998E-08
 -1       870-5.79319E+04-3.09294E+03 8.13495E+03-3.90412E+02-4.05805E-09-1.95851E-08
 -1       871-5.51652E+03-2.13589E+04-1.94866E+04 1.30375E+05-4.88035E-09 5.38512E-09
 -1       872-1.98085E+03-2.58903E+04-8.15980E+03 1.69051E+05-8.99399E-09-8.40919E-09
 -1       873 4.05802E+02-2.36984E+04 5.88976E+02 1.30088E+05-6.04177E-09-7.91692E-09
 -1       874 3.30590E+03-2.12887E+04 9.77570E+03 1.69080E+05-1.12886E-08 1.80198E-08
 -1       875 6.84485E+03-2.60273E+04 2.20538E+04 1.30327E+05-5.52245E-09 1.51422E-08
 -1       876 2.93683E+05 4.94980E+04 1.50974E+04 1.17856E+05 4.16969E-09-4.18186E-09
 -1       877 2.94681E+05 5.26783E+04 8.06261E+03 1.22188E+05 1.80123E-08 4.45118E-09
 -1       878 2.95095E+05 4.78256E+04 3.37783E+03 1.19093E+05-8.44011E-10-1.04158E-08
 -1       879 2.92628E+05 5.06302E+04 1.68305E+03 1.22290E+05 3.53430E-09 1.92711E-09
 -1       880 2.95196E+05 4.78083E+04 7.83942E+02 1.19143E+05-1.57615E-09 9.74887E-09
 -1       881 2.92492E+05 5.05426E+04 4.18656E+02 1.22266E+05-6.86214E-09-5.58231E-10
 -1       882 2.95205E+05 4.78216E+04 2.67861E+02 1.19145E+05-2.40129E-09-1.48016E-09
 -1       883 2.92482E+05 5.05381E+04 2.88013E+02 1.22259E+05-3.06596E-09 1.05021E-08
 -1       884 2.95199E+05 4.78188E+04 4.58206E+02 1.19145E+05-5.70594E-10-1.94152E-08
 -1       885 2.92519E+05 5.05444E+04 9.21274E+02 1.22270E+05-1.54110E-08-1.86614E-08
 -1       886 2.95163E+05 4.77919E+04 1.85680E+03 1.19141E+05-5.15666E-09 1.73713E-10
 -1       887 2.92845E+05 5.07584E+04 4.05593E+03 1.22317E+05 2.22197E-08 1.63368E-08
 -1       888 2.94907E+05 4.78371E+04 8.17280E+03 1.19012E+05 5.40767E-09-2.08092E-08
 -1       889 2.97711E+05 5.58183E+04 1.95233E+04 1.22168E+05 1.33405E-09-1.09831E-08
 -1       890 2.91571E+05 5.17996E+04 3.65667E+04 1.15902E+05 2.85945E-09 6.18456E-09
 -1       891-8.91082E+01-1.62730E+05-1.99590E+03 2.71468E+04-1.26147E-09 9.63792E-09
 -1       892-1.74985E+02-1.63257E+05-2.14362E+03 4.12242E+04 3.09478E-09 1.28766E-08
 -1       893 4.39073E+01-1.62794E+05-3.03511E+03 2.71541E+04-2.27305E-09 1.33787E-08
 -1       894-1.50934E+03-1.64404E+05-6.28153E+03 4.10717E+04 1.54432E-09 2.14013E-08
 -1       895-1.19873E+03-1.61485E+05-1.10617E+04 2.73011E+04-7.31802E-10-5.36147E-09
 -1       956-3.77096E+05-5.45538E+03-1.34668E+04 3.08712E+04-7.44876E-10-1.20497E-08
 -1       957-3.79739E+05-1.92449E+03-6.91228E+03 3.70987E+04-2.00944E-08-2.66434E-08
 -1       958-3.78306E+05-2.41186E+02-3.11490E+03 3.07034E+04-1.36124E-08-1.73031E-09
 -1       959-3.78503E+05-1.36405E+02-1.59051E+03 3.72945E+04-7.77163E-10 1.13359E-08
 -1       960-3.78425E+05-4.48589E+01-7.75598E+02 3.06861E+04 9.17044E-09 1.77895E-08
 -1       961-3.78423E+05-6.32854E+01-4.11189E+02 3.73149E+04 2.09998E-08 1.47440E-08
 -1       962-3.78452E+05-4.60755E+01-2.35371E+02 3.06832E+04 8.72615E-09 2.90265E-09
 -1       963-3.78423E+05-5.90790E+01-1.88867E+02 3.73186E+04 6.51789E-09 1.59589E-08
 -1       964-3.78458E+05-4.27125E+01-2.29581E+02 3.06824E+04-4.81472E-09 1.78438E-08
 -1       965-3.78435E+05-5.61082E+01-3.97002E+02 3.73179E+04-2.07471E-08-3.80442E-09
 -1       966-3.78442E+05-3.48674E+01-7.45913E+02 3.06839E+04-1.17025E-08 2.72348E-09
 -1       967-3.78525E+05-1.19623E+02-1.52983E+03 3.73035E+04-6.27620E-09 7.96445E-09
 -1       968-3.78338E+05-2.17293E+02-2.99485E+03 3.06966E+04-8.54925E-11-9.52593E-09
 -1       969-3.79725E+05-1.83386E+03-6.64847E+03 3.71551E+04-2.25555E-10-8.07000E-09
 -1       970-3.77182E+05-5.22851E+03-1.29516E+04 3.08238E+04-2.42562E-09 1.36297E-08
 -1       971-3.45296E+05-1.72712E+03-9.30779E+03 1.53758E+04 3.50428E-09-1.73586E-08
 -1       972-3.47536E+05-1.27154E+03-5.06892E+03 2.12645E+04 6.69161E-09 7.27437E-09
 -1       973-3.46333E+05-6.20629E+01-2.27042E+03 1.52547E+04 6.35100E-09-1.56249E-08
 -1       974-3.46468E+05-8.11246E+01-1.17691E+03 2.14015E+04 3.21052E-09-2.07388E-08
 -1       975-3.46415E+05-1.72001E+01-5.88761E+02 1.52424E+04-1.03000E-09-2.36025E-09
 -1       976-3.46406E+05-3.12942E+01-3.40517E+02 2.14173E+04 2.92698E-09-1.86762E-08
 -1       977-3.46431E+05-1.64560E+01-2.48652E+02 1.52390E+04-4.48972E-09-9.98182E-09
 -1       978-3.46412E+05-2.50720E+01-2.93034E+02 2.14222E+04-1.11971E-08-1.93328E-08
 -1       979-3.46431E+05-7.98076E+00-4.72584E+02 1.52375E+04-8.35570E-09 7.47400E-09
 -1       980-3.46447E+05-2.20121E+01-9.13610E+02 2.14232E+04 1.98861E-09 2.84081E-09
 -1       981-3.46402E+05 1.48551E+01-1.77003E+03 1.52381E+04 8.57369E-09 4.34733E-09
 -1       982-3.46690E+05-1.52798E+02-3.65894E+03 2.14165E+04 6.76494E-09 1.91426E-08
 -1       983-3.46179E+05-9.84844E+01-7.10952E+03 1.52441E+04-5.07316E-09-1.37238E-08
 -1       984-3.50109E+05-3.86589E+03-1.59216E+04 2.13309E+04-6.25550E-09-1.04581E-09
 -1       985-3.42960E+05-5.30079E+03-2.92369E+04 1.53155E+04-4.08545E-09 2.24099E-09
 -3
    1PSTEP                        27          14           1          
  100CL  114 6.62933E-01         409                     0   14           1
 -4  DISP        4    1
 -5  D1          1    2    1    0
 -5  D2          1    2    2    0
 -5  D3          1    2    3    0
 -5  ALL         1    2    0    0    1ALL
 -1         1 2.72663E-03 0.00000E+00 0.00000E+00
 -1         2 1.32893E-03-5.95615E-28 5.29396E-23
 -1         3 3.42743E-04-5.63860E-28 0.00000E+00
 -1         5 1.77145E-04-1.75878E-27-2.48154E-24
 -1         8 2.71593E-03-4.01329E-07 0.00000E+00
 -1         9 2.70918E-03-2.00166E-04 0.00000E+00
 -1        10 3.10786E-04-3.39498E-06-6.61744E-24
 -1        12 1.78995E-04 8.09435E-07 4.13590E-25
 -1        15 2.70373E-03-4.24400E-07 0.00000E+00
 -1        16 2.77904E-03-2.02040E-04 0.00000E+00
 -1        17 2.11507E-04-7.74470E-06 0.00000E+00
 -1        18 1.82951E-04 3.44508E-05 0.00000E+00
 -1        19 1.84545E-04 1.61244E-06 0.00000E+00
 -1        20 1.84684E-04-9.89873E-06 0.00000E+00
 -1        21 1.83792E-04-2.54412E-05 3.30872E-24
 -1        24 3.06056E-05-1.19672E-05 0.00000E+00
 -1        25 1.93728E-04 3.46767E-05 0.00000E+00
 -1        26 1.94436E-04 2.23180E-06 0.00000E+00
 -1        27 1.92221E-04-1.34570E-05 0.00000E+00
 -1        28 1.91904E-04-2.60633E-05 0.00000E+00
 -1        32 0.00000E+00 0.00000E+00 0.00000E+00
 -1        33 2.03290E-04 2.98588E-06 0.00000E+00
 -1        34 2.01173E-04-1.35132E-05 0.00000E+00
 -1        35 1.99241E-04-2.64057E-05 0.00000E+00
 -1        51 2.72591E-03-8.44264E-08-6.61744E-24
 -1        52 2.72460E-03-1.50385E-07-3.30872E-24
 -1        53 2.72281E-03-2.12840E-07 0.00000E+00
 -1        54 2.72069E-03-2.74025E-07 0.00000E+00
 -1        55 2.71835E-03-3.35706E-07 0.00000E+00
 -1        56 2.71855E-03 9.43323E-06 0.00000E+00
 -1        57 2.70237E-03 3.88053E-05 0.00000E+00
 -1        58 2.68050E-03 8.18788E-05 0.00000E+00
 -1        59 2.65597E-03 1.31117E-04 0.00000E+00
 -1        60 2.63247E-03 1.77926E-04-1.05879E-22
 -1        61 2.61355E-03 2.13906E-04-5.29396E-23
 -1        62 2.60164E-03 2.32591E-04 0.00000E+00
 -1        63 2.59828E-03 2.29055E-04-5.29396E-23
 -1        64 2.60324E-03 2.02458E-04 1.05879E-22
 -1        65 2.61549E-03 1.54152E-04-5.29396E-23
 -1        66 2.63292E-03 8.96307E-05 0.00000E+00
 -1        67 2.65311E-03 1.59925E-05-5.29396E-23
 -1        68 2.67337E-03-5.78832E-05 0.00000E+00
 -1        69 2.69104E-03-1.23087E-04 5.29396E-23
 -1        70 2.70365E-03-1.72406E-04-5.29396E-23
 -1        86 1.41574E-03-6.29942E-06 5.29396E-23
 -1        87 1.66668E-03-3.97193E-05-2.64698E-23
 -1        88 2.00412E-03-9.72169E-05 2.64698E-23
 -1        89 2.34622E-03-1.56342E-04 1.32349E-23
 -1        90 2.60841E-03-1.92531E-04-5.29396E-23
 -1       121 3.41845E-04-5.48091E-07 0.00000E+00
 -1       122 3.39157E-04-1.09927E-06 0.00000E+00
 -1       123 3.34687E-04-1.65658E-06 0.00000E+00
 -1       124 3.28452E-04-2.22306E-06-6.61744E-24
 -1       125 3.20475E-04-2.80136E-06-1.32349E-23
 -1       191 1.77197E-04 1.34970E-07-8.27181E-25
 -1       192 1.77351E-04 2.69928E-07-4.13590E-25
 -1       193 1.77608E-04 4.04866E-07-2.48154E-24
 -1       194 1.77967E-04 5.39772E-07-8.27181E-25
 -1       195 1.78430E-04 6.74632E-07 2.48154E-24
 -1       251 2.71563E-03 1.60711E-06 6.61744E-24
 -1       252 2.71533E-03 3.46934E-06 3.30872E-24
 -1       253 2.71503E-03 4.17812E-06 0.00000E+00
 -1       254 2.71472E-03 2.74051E-06 0.00000E+00
 -1       255 2.71441E-03-1.51259E-06 0.00000E+00
 -1       256 2.71408E-03-9.21521E-06-3.30872E-24
 -1       257 2.71371E-03-2.04813E-05-6.61744E-24
 -1       258 2.71330E-03-3.53802E-05 3.30872E-24
 -1       259 2.71284E-03-5.34342E-05-6.61744E-24
 -1       260 2.71233E-03-7.41259E-05-6.61744E-24
 -1       261 2.71178E-03-9.65400E-05-1.32349E-23
 -1       262 2.71122E-03-1.19740E-04-6.61744E-24
 -1       263 2.71066E-03-1.42672E-04 0.00000E+00
 -1       264 2.71013E-03-1.64283E-04 0.00000E+00
 -1       265 2.70964E-03-1.83723E-04 1.32349E-23
 -1       266 2.71390E-03-4.10745E-07-1.65436E-24
 -1       267 2.71186E-03-4.13911E-07 4.13590E-25
 -1       268 2.70983E-03-4.17473E-07 0.00000E+00
 -1       269 2.70780E-03-4.19862E-07-2.06795E-25
 -1       270 2.70576E-03-4.22224E-07 0.00000E+00
 -1       271 2.71512E-03 2.39368E-10 0.00000E+00
 -1       272 2.71531E-03-2.31907E-06 6.61744E-24
 -1       273 2.71645E-03-7.19561E-06 0.00000E+00
 -1       274 2.71847E-03-1.44530E-05 0.00000E+00
 -1       275 2.72128E-03-2.38935E-05 0.00000E+00
 -1       276 2.72481E-03-3.53038E-05 0.00000E+00
 -1       277 2.72897E-03-4.84544E-05 2.64698E-23
 -1       278 2.73366E-03-6.31019E-05 0.00000E+00
 -1       279 2.73881E-03-7.89916E-05 0.00000E+00
 -1       280 2.74430E-03-9.58585E-05-6.61744E-24
 -1       281 2.75004E-03-1.13430E-04 0.00000E+00
 -1       282 2.75594E-03-1.31427E-04-6.61744E-24
 -1       283 2.76189E-03-1.49569E-04 1.32349E-23
 -1       284 2.76779E-03-1.67573E-04-6.61744E-24
 -1       285 2.77354E-03-1.85156E-04 1.32349E-23
 -1       301 2.72187E-03-2.00514E-04-6.61744E-24
 -1       302 2.73290E-03-2.00814E-04-3.30872E-24
 -1       303 2.74318E-03-2.01103E-04-1.32349E-23
 -1       304 2.75367E-03-2.01393E-04 0.00000E+00
 -1       305 2.76532E-03-2.01698E-04 0.00000E+00
 -1       306 2.74729E-03-3.55733E-04-1.05879E-22
 -1       307 2.81114E-03-7.70810E-04-5.29396E-23
 -1       308 2.85771E-03-1.37680E-03 1.05879E-22
 -1       309 2.88155E-03-2.07738E-03 5.29396E-23
 -1       310 2.91303E-03-2.74669E-03 0.00000E+00
 -1       311 2.97266E-03-3.26158E-03 0.00000E+00
 -1       312 3.03027E-03-3.54158E-03-2.11758E-22
 -1       313 3.02468E-03-3.54923E-03-5.29396E-23
 -1       314 2.88193E-03-3.29696E-03 1.05879E-22
 -1       315 2.56135E-03-2.84960E-03 5.29396E-23
 -1       316 2.08172E-03-2.28392E-03 0.00000E+00
 -1       317 1.50943E-03-1.66913E-03-5.29396E-23
 -1       318 9.59080E-04-1.06566E-03 0.00000E+00
 -1       319 5.38792E-04-5.38424E-04 0.00000E+00
 -1       320 2.92259E-04-1.61629E-04 1.05879E-22
 -1       336 2.99197E-04-4.05137E-06 1.32349E-23
 -1       337 2.85533E-04-4.73346E-06-6.61744E-24
 -1       338 2.69853E-04-5.44346E-06 0.00000E+00
 -1       339 2.52233E-04-6.18222E-06 0.00000E+00
 -1       340 2.32754E-04-6.95420E-06-1.32349E-23
 -1       406 1.79663E-04 9.44160E-07-8.27181E-25
 -1       407 1.80434E-04 1.07877E-06-8.27181E-25
 -1       408 1.81308E-04 1.21322E-06-1.65436E-24
 -1       409 1.82284E-04 1.34732E-06-1.24077E-24
 -1       410 1.83364E-04 1.48081E-06 2.48154E-24
 -1       521 2.81773E-03-3.66915E-04 1.05879E-22
 -1       522 2.87977E-03-8.02522E-04-5.29396E-23
 -1       523 2.91976E-03-1.43679E-03 0.00000E+00
 -1       524 2.93419E-03-2.16659E-03 5.29396E-23
 -1       525 2.95761E-03-2.86306E-03 1.05879E-22
 -1       526 3.01366E-03-3.40041E-03 0.00000E+00
 -1       527 3.07086E-03-3.69114E-03 2.11758E-22
 -1       528 3.06290E-03-3.69689E-03-5.29396E-23
 -1       529 2.90782E-03-3.43013E-03 0.00000E+00
 -1       530 2.56264E-03-2.96383E-03 5.29396E-23
 -1       531 2.04701E-03-2.37860E-03 0.00000E+00
 -1       532 1.43388E-03-1.74627E-03 0.00000E+00
 -1       533 8.43430E-04-1.12458E-03-1.05879E-22
 -1       534 3.89112E-04-5.76093E-04 5.29396E-23
 -1       535 1.20976E-04-1.79436E-04 0.00000E+00
 -1       536 2.10752E-04 2.71827E-05 6.61744E-24
 -1       537 2.08834E-04 8.76230E-05-1.65436E-24
 -1       538 2.05870E-04 1.64310E-04 3.30872E-24
 -1       539 2.02375E-04 2.47894E-04 0.00000E+00
 -1       540 1.99229E-04 3.26872E-04 0.00000E+00
 -1       541 1.97185E-04 3.89768E-04 0.00000E+00
 -1       542 1.96241E-04 4.29828E-04 3.30872E-24
 -1       543 1.96016E-04 4.40449E-04 1.65436E-24
 -1       544 1.95694E-04 4.22405E-04-3.30872E-24
 -1       545 1.94522E-04 3.76690E-04 0.00000E+00
 -1       546 1.92337E-04 3.11431E-04-3.30872E-24
 -1       547 1.89380E-04 2.34874E-04 1.65436E-24
 -1       548 1.86449E-04 1.58693E-04-3.30872E-24
 -1       549 1.84335E-04 9.45634E-05 0.00000E+00
 -1       550 1.83237E-04 5.05147E-05 1.65436E-24
 -1       551 1.86301E-04-8.31358E-06 0.00000E+00
 -1       552 1.57849E-04-8.96295E-06 0.00000E+00
 -1       553 1.27095E-04-9.67459E-06 1.32349E-23
 -1       554 9.49976E-05-1.04274E-05 3.30872E-24
 -1       555 6.25162E-05-1.11940E-05 0.00000E+00
 -1       556 2.03857E-04 1.18155E-05 0.00000E+00
 -1       557 1.97676E-04 2.76792E-05 0.00000E+00
 -1       558 1.92831E-04 4.01346E-05 0.00000E+00
 -1       559 1.89187E-04 4.94919E-05 0.00000E+00
 -1       560 1.86616E-04 5.60623E-05 0.00000E+00
 -1       561 1.84989E-04 6.01591E-05 0.00000E+00
 -1       562 1.84180E-04 6.20971E-05 0.00000E+00
 -1       563 1.84066E-04 6.21918E-05 1.32349E-23
 -1       564 1.84525E-04 6.07599E-05 0.00000E+00
 -1       565 1.85436E-04 5.81185E-05 0.00000E+00
 -1       566 1.86679E-04 5.45853E-05 0.00000E+00
 -1       567 1.88135E-04 5.04784E-05 0.00000E+00
 -1       568 1.89685E-04 4.61163E-05 1.65436E-24
 -1       569 1.91213E-04 4.18172E-05-8.27181E-25
 -1       570 1.92599E-04 3.78994E-05 0.00000E+00
 -1       571 1.83047E-04 3.23218E-05 2.48154E-24
 -1       572 1.83146E-04 3.01266E-05-4.13590E-25
 -1       573 1.83245E-04 2.78811E-05 3.30872E-24
 -1       574 1.83345E-04 2.56016E-05-1.65436E-24
 -1       575 1.83444E-04 2.33046E-05 0.00000E+00
 -1       576 1.83544E-04 2.10066E-05-1.65436E-24
 -1       577 1.83643E-04 1.87242E-05 3.30872E-24
 -1       578 1.83743E-04 1.64740E-05 0.00000E+00
 -1       579 1.83843E-04 1.42724E-05 0.00000E+00
 -1       580 1.83943E-04 1.21361E-05 0.00000E+00
 -1       581 1.84043E-04 1.00817E-05 0.00000E+00
 -1       582 1.84143E-04 8.12569E-06 0.00000E+00
 -1       583 1.84243E-04 6.28458E-06 6.61744E-24
 -1       584 1.84344E-04 4.57477E-06 0.00000E+00
 -1       585 1.84444E-04 3.01244E-06 0.00000E+00
 -1       586 1.84706E-04 3.44906E-05-1.65436E-24
 -1       587 1.86420E-04 3.45298E-05 4.13590E-25
 -1       588 1.88136E-04 3.45687E-05-8.27181E-25
 -1       589 1.89897E-04 3.46069E-05 0.00000E+00
 -1       590 1.91747E-04 3.46438E-05 0.00000E+00
 -1       591 1.83681E-04 3.24158E-05 1.03398E-25
 -1       592 1.84414E-04 3.03605E-05 0.00000E+00
 -1       593 1.85153E-04 2.82907E-05-8.27181E-25
 -1       594 1.85895E-04 2.62112E-05 4.13590E-25
 -1       595 1.86638E-04 2.41268E-05 8.27181E-25
 -1       596 1.87381E-04 2.20423E-05-4.13590E-25
 -1       597 1.88123E-04 1.99624E-05 8.27181E-25
 -1       598 1.88861E-04 1.78918E-05-4.13590E-25
 -1       599 1.89594E-04 1.58353E-05 0.00000E+00
 -1       600 1.90320E-04 1.37975E-05 0.00000E+00
 -1       601 1.91037E-04 1.17833E-05 8.27181E-25
 -1       602 1.91744E-04 9.79725E-06-2.06795E-25
 -1       603 1.92438E-04 7.84421E-06 8.27181E-25
 -1       604 1.93119E-04 5.92899E-06 1.80946E-25
 -1       605 1.93785E-04 4.05622E-06 0.00000E+00
 -1       606 1.84558E-04 4.46162E-07 0.00000E+00
 -1       607 1.84568E-04-6.34251E-07-1.65436E-24
 -1       608 1.84577E-04-1.63383E-06 3.30872E-24
 -1       609 1.84585E-04-2.55827E-06-1.65436E-24
 -1       610 1.84593E-04-3.41331E-06 0.00000E+00
 -1       611 1.84602E-04-4.20473E-06 0.00000E+00
 -1       612 1.84610E-04-4.93835E-06 0.00000E+00
 -1       613 1.84618E-04-5.61997E-06 0.00000E+00
 -1       614 1.84627E-04-6.25542E-06 0.00000E+00
 -1       615 1.84635E-04-6.85049E-06 0.00000E+00
 -1       616 1.84644E-04-7.41101E-06-1.65436E-24
 -1       617 1.84652E-04-7.94279E-06 0.00000E+00
 -1       618 1.84660E-04-8.45164E-06-8.27181E-25
 -1       619 1.84669E-04-8.94337E-06 0.00000E+00
 -1       620 1.84677E-04-9.42380E-06 0.00000E+00
 -1       621 1.85907E-04 1.71624E-06 1.65436E-24
 -1       622 1.87428E-04 1.82028E-06 8.27181E-25
 -1       623 1.89076E-04 1.92410E-06 0.00000E+00
 -1       624 1.90816E-04 2.02759E-06-8.27181E-25
 -1       625 1.92614E-04 2.13079E-06-1.65436E-24
 -1       626 1.85094E-04 4.82247E-07 0.00000E+00
 -1       627 1.85621E-04-5.84881E-07 0.00000E+00
 -1       628 1.86127E-04-1.59679E-06 0.00000E+00
 -1       629 1.86616E-04-2.56164E-06 1.65436E-24
 -1       630 1.87090E-04-3.48764E-06 3.30872E-24
 -1       631 1.87553E-04-4.38299E-06 0.00000E+00
 -1       632 1.88007E-04-5.25588E-06 0.00000E+00
 -1       633 1.88456E-04-6.11454E-06-1.65436E-24
 -1       634 1.88903E-04-6.96718E-06 0.00000E+00
 -1       635 1.89351E-04-7.82200E-06 0.00000E+00
 -1       636 1.89802E-04-8.68722E-06 3.30872E-24
 -1       637 1.90261E-04-9.57104E-06 0.00000E+00
 -1       638 1.90729E-04-1.04817E-05 0.00000E+00
 -1       639 1.91210E-04-1.14274E-05-8.27181E-25
 -1       640 1.91707E-04-1.24164E-05-3.30872E-24
 -1       656 1.85392E-04-1.04771E-05-6.61744E-24
 -1       657 1.86520E-04-1.10789E-05-6.61744E-24
 -1       658 1.87927E-04-1.16793E-05-1.32349E-23
 -1       659 1.89470E-04-1.22794E-05 0.00000E+00
 -1       660 1.90962E-04-1.28814E-05 6.61744E-24
 -1       661 1.84949E-04-1.04187E-05 0.00000E+00
 -1       662 1.85252E-04-1.10305E-05 0.00000E+00
 -1       663 1.85587E-04-1.17288E-05 0.00000E+00
 -1       664 1.85952E-04-1.25073E-05 0.00000E+00
 -1       665 1.86345E-04-1.33599E-05 0.00000E+00
 -1       666 1.86764E-04-1.42810E-05 0.00000E+00
 -1       667 1.87206E-04-1.52647E-05 1.65436E-24
 -1       668 1.87670E-04-1.63055E-05 0.00000E+00
 -1       669 1.88153E-04-1.73981E-05 0.00000E+00
 -1       670 1.88653E-04-1.85371E-05-8.27181E-25
 -1       671 1.89168E-04-1.97173E-05-1.65436E-24
 -1       672 1.89697E-04-2.09336E-05 0.00000E+00
 -1       673 1.90238E-04-2.21811E-05 0.00000E+00
 -1       674 1.90787E-04-2.34550E-05-4.13590E-25
 -1       675 1.91345E-04-2.47500E-05 0.00000E+00
 -1       676 1.85149E-04-2.55455E-05-3.30872E-24
 -1       677 1.86505E-04-2.56497E-05-1.65436E-24
 -1       678 1.87859E-04-2.57539E-05 3.30872E-24
 -1       679 1.89211E-04-2.58578E-05 0.00000E+00
 -1       680 1.90559E-04-2.59616E-05 0.00000E+00
 -1       771 1.86483E-05 1.47742E-05 5.29396E-23
 -1       772 8.58881E-06 3.67367E-05 0.00000E+00
 -1       773 3.36453E-07 5.41509E-05-5.29396E-23
 -1       774-6.23322E-06 6.72747E-05 2.64698E-23
 -1       775-1.12419E-05 7.63767E-05 5.29396E-23
 -1       776-1.48164E-05 8.17422E-05 2.64698E-23
 -1       777-1.70829E-05 8.36665E-05-5.29396E-23
 -1       778-1.81705E-05 8.24589E-05 0.00000E+00
 -1       779-1.82076E-05 7.84372E-05-5.29396E-23
 -1       780-1.73246E-05 7.19304E-05-2.64698E-23
 -1       781-1.56509E-05 6.32747E-05 5.29396E-23
 -1       782-1.33175E-05 5.28148E-05 2.64698E-23
 -1       783-1.04546E-05 4.09003E-05-5.29396E-23
 -1       784-7.19350E-06 2.78867E-05 2.64698E-23
 -1       785-3.66458E-06 1.41329E-05-5.29396E-23
 -1       786 1.93767E-04 3.24372E-05 2.58494E-26
 -1       787 1.93811E-04 3.02751E-05 0.00000E+00
 -1       788 1.93855E-04 2.81666E-05 8.27181E-25
 -1       789 1.93899E-04 2.60883E-05 0.00000E+00
 -1       790 1.93944E-04 2.40312E-05 0.00000E+00
 -1       791 1.93988E-04 2.19863E-05 0.00000E+00
 -1       792 1.94033E-04 1.99505E-05-1.65436E-24
 -1       793 1.94077E-04 1.79208E-05 8.27181E-25
 -1       794 1.94122E-04 1.58972E-05 0.00000E+00
 -1       795 1.94167E-04 1.38796E-05 8.27181E-25
 -1       796 1.94211E-04 1.18708E-05-1.65436E-24
 -1       797 1.94256E-04 9.87384E-06 0.00000E+00
 -1       798 1.94301E-04 7.89718E-06 0.00000E+00
 -1       799 1.94346E-04 5.94949E-06 0.00000E+00
 -1       800 1.94391E-04 4.05343E-06 1.65436E-24
 -1       801 1.47909E-04 3.11749E-05 2.64698E-23
 -1       802 9.37836E-06 1.94487E-05-2.64698E-23
 -1       803-1.08940E-04 9.82453E-06 5.29396E-23
 -1       804-9.65498E-05 6.83874E-06 2.64698E-23
 -1       805-3.18975E-05 2.68661E-06 0.00000E+00
 -1       806 1.94457E-04 3.23544E-05 1.65436E-24
 -1       807 1.95174E-04 3.00577E-05 0.00000E+00
 -1       808 1.95878E-04 2.77919E-05 0.00000E+00
 -1       809 1.96568E-04 2.55612E-05-1.65436E-24
 -1       810 1.97244E-04 2.33696E-05-3.30872E-24
 -1       811 1.97903E-04 2.12212E-05 0.00000E+00
 -1       812 1.98545E-04 1.91200E-05 0.00000E+00
 -1       813 1.99168E-04 1.70699E-05 0.00000E+00
 -1       814 1.99770E-04 1.50749E-05-3.30872E-24
 -1       815 2.00351E-04 1.31390E-05-1.65436E-24
 -1       816 2.00907E-04 1.12662E-05 1.65436E-24
 -1       817 2.01439E-04 9.46040E-06 0.00000E+00
 -1       818 2.01944E-04 7.72554E-06 1.65436E-24
 -1       819 2.02422E-04 6.06558E-06 1.65436E-24
 -1       820 2.02871E-04 4.48441E-06-1.65436E-24
 -1       821 1.94306E-04-1.78859E-07 0.00000E+00
 -1       822 1.94165E-04-3.83626E-06 0.00000E+00
 -1       823 1.94022E-04-8.28493E-06 3.30872E-24
 -1       824 1.93875E-04-1.30644E-05 1.65436E-24
 -1       825 1.93729E-04-1.76245E-05 0.00000E+00
 -1       826 1.93586E-04-2.14163E-05 1.65436E-24
 -1       827 1.93446E-04-2.41007E-05 0.00000E+00
 -1       828 1.93310E-04-2.53458E-05 1.65436E-24
 -1       829 1.93173E-04-2.52125E-05 0.00000E+00
 -1       830 1.93036E-04-2.37702E-05-1.65436E-24
 -1       831 1.92897E-04-2.14460E-05 0.00000E+00
 -1       832 1.92758E-04-1.86723E-05-1.65436E-24
 -1       833 1.92619E-04-1.60045E-05 3.30872E-24
 -1       834 1.92483E-04-1.39972E-05-1.65436E-24
 -1       835 1.92348E-04-1.30253E-05-8.27181E-25
 -1       836 1.96127E-04 2.35685E-06 0.00000E+00
 -1       837 1.97688E-04 2.48505E-06-1.65436E-24
 -1       838 1.99151E-04 2.61318E-06 3.30872E-24
 -1       839 2.00551E-04 2.74061E-06 0.00000E+00
 -1       840 2.01920E-04 2.86788E-06-8.27181E-25
 -1       856 1.92205E-04-1.45199E-05 0.00000E+00
 -1       857 1.92185E-04-1.54471E-05 1.29247E-26
 -1       858 1.92166E-04-1.62597E-05 0.00000E+00
 -1       859 1.92146E-04-1.69788E-05 2.06795E-25
 -1       860 1.92126E-04-1.76255E-05 4.13590E-25
 -1       861 1.92107E-04-1.82213E-05 2.06795E-25
 -1       862 1.92087E-04-1.87875E-05-4.13590E-25
 -1       863 1.92067E-04-1.93452E-05-4.13590E-25
 -1       864 1.92047E-04-1.99160E-05 8.27181E-25
 -1       865 1.92027E-04-2.05212E-05 4.13590E-25
 -1       866 1.92007E-04-2.11820E-05 8.27181E-25
 -1       867 1.91987E-04-2.19198E-05 4.13590E-25
 -1       868 1.91967E-04-2.27557E-05-8.27181E-25
 -1       869 1.91947E-04-2.37109E-05 0.00000E+00
 -1       870 1.91926E-04-2.48064E-05-8.27181E-25
 -1       871 1.93571E-04-1.34619E-05-8.27181E-25
 -1       872 1.95069E-04-1.34702E-05 0.00000E+00
 -1       873 1.96646E-04-1.34793E-05 0.00000E+00
 -1       874 1.98235E-04-1.34890E-05-7.75482E-26
 -1       875 1.99766E-04-1.34994E-05 2.06795E-25
 -1       876 1.92746E-04-1.45054E-05 3.30872E-24
 -1       877 1.93250E-04-1.54870E-05 0.00000E+00
 -1       878 1.93732E-04-1.64097E-05 0.00000E+00
 -1       879 1.94195E-04-1.72810E-05 1.65436E-24
 -1       880 1.94641E-04-1.81082E-05 3.30872E-24
 -1       881 1.95074E-04-1.88987E-05 1.65436E-24
 -1       882 1.95496E-04-1.96599E-05 0.00000E+00
 -1       883 1.95909E-04-2.03991E-05-1.65436E-24
 -1       884 1.96317E-04-2.11237E-05 3.30872E-24
 -1       885 1.96723E-04-2.18410E-05-1.65436E-24
 -1       886 1.97128E-04-2.25583E-05 3.30872E-24
 -1       887 1.97536E-04-2.32831E-05 0.00000E+00
 -1       888 1.97949E-04-2.40225E-05 3.30872E-24
 -1       889 1.98370E-04-2.47843E-05 1.65436E-24
 -1       890 1.98802E-04-2.55756E-05 0.00000E+00
 -1       891 1.93269E-04-2.61208E-05 0.00000E+00
 -1       892 1.94611E-04-2.61785E-05 0.00000E+00
 -1       893 1.95904E-04-2.62360E-05-8.27181E-25
 -1       894 1.97123E-04-2.62934E-05 0.00000E+00
 -1       895 1.98243E-04-2.63504E-05-4.13590E-25
 -1       956 2.03160E-04 1.66233E-06 0.00000E+00
 -1       957 2.03028E-04 4.30427E-07 0.00000E+00
 -1       958 2.02895E-04-7.20579E-07 0.00000E+00
 -1       959 2.02762E-04-1.80203E-06-1.65436E-24
 -1       960 2.02629E-04-2.82531E-06 0.00000E+00
 -1       961 2.02497E-04-3.80185E-06 1.65436E-24
 -1       962 2.02364E-04-4.74307E-06 0.00000E+00
 -1       963 2.02231E-04-5.66044E-06-1.65436E-24
 -1       964 2.02098E-04-6.56540E-06 0.00000E+00
 -1       965 2.01966E-04-7.46938E-06 0.00000E+00
 -1       966 2.01833E-04-8.38386E-06 3.30872E-24
 -1       967 2.01700E-04-9.32028E-06 0.00000E+00
 -1       968 2.01567E-04-1.02901E-05-6.61744E-24
 -1       969 2.01435E-04-1.13046E-05-3.30872E-24
 -1       970 2.01303E-04-1.23754E-05 3.30872E-24
 -1       971 2.01053E-04-1.46506E-05-3.30872E-24
 -1       972 2.00931E-04-1.56934E-05 0.00000E+00
 -1       973 2.00810E-04-1.66521E-05-3.30872E-24
 -1       974 2.00689E-04-1.75375E-05 0.00000E+00
 -1       975 2.00567E-04-1.83604E-05 3.30872E-24
 -1       976 2.00446E-04-1.91318E-05 1.65436E-24
 -1       977 2.00324E-04-1.98624E-05-3.30872E-24
 -1       978 2.00203E-04-2.05633E-05 1.65436E-24
 -1       979 2.00082E-04-2.12453E-05 3.30872E-24
 -1       980 1.99960E-04-2.19192E-05 0.00000E+00
 -1       981 1.99839E-04-2.25962E-05 0.00000E+00
 -1       982 1.99718E-04-2.32869E-05 1.65436E-24
 -1       983 1.99597E-04-2.40023E-05-3.30872E-24
 -1       984 1.99476E-04-2.47534E-05-1.65436E-24
 -1       985 1.99356E-04-2.55510E-05-3.30872E-24
 -3
    1PSTEP                        28          14           1          
  100CL  114 6.62933E-01         409                     0   14           1
 -4  STRESS      6    1
 -5  SXX         1    4    1    1
 -5  SYY         1    4    2    2
 -5  SZZ         1    4    3    3
 -5  SXY         1    4    1    2
 -5  SYZ         1    4    2    3
 -5  SZX         1    4    3    1
 -1         1-5.34727E+06-1.57241E+06-1.13263E+06-1.32650E+06-5.52973E-10 1.20141E-07
 -1         2 1.53066E+06 2.24152E+07 5.20744E+06 6.78773E+06 2.90165E-08 1.05385E-07
 -1         3-1.48818E+03-1.55619E+06 4.05401E+02-2.20886E+03-6.60538E-10-1.82627E-08
 -1         5-7.55299E+01 3.86499E+05 9.98610E+00-1.34544E+00-4.96497E-10 1.96633E-09
 -1         8-5.52750E+05-2.00320E+05-6.26752E+04-2.42538E+05 2.29193E-10 4.99967E-08
 -1         9 1.18122E+07 3.93527E+06 2.81727E+06-3.03339E+05 2.10712E-08 1.13086E-07
 -1        10-2.30403E+03-1.62167E+06-3.94144E+03-1.49468E+04-1.43646E-08-1.66908E-08
 -1        12-7.16105E+01 3.86521E+05 3.28285E+02-9.16990E+00-7.21684E-10 2.30548E-08
 -1        15 9.23069E+02 5.07271E+02 2.98380E+03 8.12006E-01-3.74939E-10 2.16867E-07
 -1        16 2.29277E+07-3.35567E+05 3.11953E+06-2.29818E+06 2.65815E-09 9.67799E-08
 -1        17 8.39598E+06 6.29107E+06 2.26784E+06 6.01775E+06 2.36731E-08 1.60071E-08
 -1        18 1.42699E+05 3.35898E+04 4.17554E+03-1.19760E+05 1.29066E-08-1.13159E-08
 -1        19 1.22434E+05 1.41616E+05-9.59337E+02 2.20469E+04 1.69348E-09 2.57787E-09
 -1        20-8.18840E+04-5.73619E+05-1.28711E+05 2.51369E+04-1.73850E-09 1.01166E-08
 -1        21-4.55759E+01-2.95998E+05-9.24007E+02 2.75434E+02 1.53679E-08-1.17449E-08
 -1        24 1.40821E+07 1.21239E+07 3.89744E+06 1.12249E+07-1.67910E-07-4.83900E-08
 -1        25 1.26561E+05 2.68923E+05 1.00764E+05-6.46806E+05 5.03405E-10 1.95649E-08
 -1        26-5.44328E+04 9.24189E+04-2.45414E+04 1.23128E+03 6.18456E-12-1.66575E-08
 -1        27-7.58236E+04-3.09976E+05-1.13349E+05 6.89819E+04 4.00708E-09-3.72165E-09
 -1        28 2.22398E+04-8.53358E+04 1.68962E+04 2.06253E+04-1.69422E-09-4.06857E-09
 -1        32-1.68040E+06-3.18171E+06-1.97622E+05 4.59416E+05-4.19677E-08-1.43405E-08
 -1        33-1.78287E+05 9.30086E+04 3.23790E+04-3.88980E+04-2.95457E-09 7.46119E-09
 -1        34-2.23553E+05-2.50311E+04 6.89190E+02 7.56383E+04-5.27094E-09 5.31979E-09
 -1        35-2.29301E+04-3.38418E+04-1.34822E+03 5.14939E+04-5.24782E-09-5.92869E-09
 -1        51 6.08743E+04-1.70590E+05 1.28685E+05-4.34145E+05-1.01863E-10 2.98678E-08
 -1        52 2.05789E+04-1.48070E+05 6.74590E+04-5.06348E+05 5.82077E-11-2.49376E-07
 -1        53 4.15703E+03-1.63423E+05 3.50230E+04-4.32657E+05 1.61890E-10-1.62880E-07
 -1        54 7.26453E+03-1.59206E+05 2.85658E+04-5.07802E+05-3.92902E-10-1.33121E-07
 -1        55 1.58422E+04-1.66140E+05 3.44969E+04-4.32571E+05 1.34605E-10 7.94680E-08
 -1        56-9.81075E+06-1.39630E+06-9.25600E+05-4.10896E+06-6.95582E-09 6.86559E-08
 -1        57-1.11263E+07-7.66561E+05-5.44941E+05-2.66787E+06-1.75714E-08 3.14671E-07
 -1        58-9.58798E+06-1.87127E+06-2.01916E+05-4.31277E+06 1.71349E-08 1.00772E-07
 -1        59-1.13406E+07-2.15524E+05-1.07078E+05-2.59204E+06-4.73033E-08-2.30008E-07
 -1        60-9.68629E+06-1.87469E+06-5.88057E+04-4.26380E+06-7.48332E-09-2.44981E-08
 -1        61-1.06334E+07-5.76675E+05 2.10908E+04-2.84624E+06-2.47928E-08-4.94729E-08
 -1        62-1.01429E+07-1.61309E+06-8.46709E+04-3.93709E+06-4.02215E-08-1.71567E-08
 -1        63-9.65841E+06-1.33954E+06 6.27056E+04-3.58800E+06-5.23214E-08 2.01828E-07
 -1        64-1.05379E+07-1.19988E+06-7.79534E+04-3.44444E+06-1.44064E-09-1.70039E-08
 -1        65-9.27326E+06-1.98248E+06 1.75632E+04-4.56611E+06-1.19144E-08-3.26240E-07
 -1        66-1.06700E+07-8.71590E+05-4.78101E+04-3.06641E+06 2.41416E-08 1.12323E-08
 -1        67-9.30294E+06-2.25027E+06-9.62934E+04-5.03272E+06-1.89139E-08 1.76768E-07
 -1        68-1.06503E+07-8.32090E+05-1.87905E+05-3.06566E+06-4.33756E-08 1.76224E-08
 -1        69-9.46651E+06-2.32158E+06-4.83745E+05-4.53379E+06-1.83563E-08-2.09511E-07
 -1        70-1.03742E+07-9.05194E+05-8.51204E+05-3.47933E+06-8.74024E-09-8.83592E-08
 -1        86-1.56185E+06-1.58789E+07-2.85113E+06-3.18648E+06-2.66402E-07-7.77363E-08
 -1        87 2.46169E+06 6.48342E+06 2.37112E+06 5.86334E+06-4.60517E-07-1.93644E-07
 -1        88-4.66701E+05-1.92102E+06 2.24988E+05-2.59907E+06-4.21067E-07-6.95909E-08
 -1        89 3.29566E+06 6.17567E+06 2.43062E+06 6.06250E+06-6.05396E-07-2.15332E-07
 -1        90-2.29811E+06-1.56497E+07-3.07708E+06-3.41629E+06-1.61763E-07 2.18148E-07
 -1       121-2.03854E+03-1.56109E+06-5.47907E+02 1.09479E+03 1.51820E-09 6.78119E-09
 -1       122-1.30265E+03-1.55625E+06 7.68459E+02-4.42186E+03-5.37597E-09 4.50163E-08
 -1       123-2.05828E+03-1.56123E+06 2.58786E+02 3.26969E+03 4.12001E-09 5.46861E-08
 -1       124 3.31248E+02-1.55580E+06 2.94448E+03-9.25369E+03-1.06966E-08 2.80306E-08
 -1       125-2.86596E+03-1.56212E+06 3.45253E+03 5.88065E+03 6.17365E-09 5.25324E-09
 -1       191-7.95935E+01 3.86517E+05 8.47916E+00 7.01619E-01-6.05997E-10-1.34969E-09
 -1       192-7.64942E+01 3.86500E+05 2.13107E+01-4.31341E+00-7.22736E-10-2.54740E-08
 -1       193-8.21317E+01 3.86517E+05 3.62695E+01 3.78872E+00-1.04630E-09-1.90630E-09
 -1       194-7.95859E+01 3.86503E+05 8.10151E+01-9.78779E+00-6.83293E-10 9.42237E-09
 -1       195-8.70034E+01 3.86514E+05 1.55094E+02 6.37031E+00-1.56628E-09 6.81757E-09
 -1       251-8.61234E+05 1.61531E+04-3.77087E+04-1.44354E+04 1.31851E-09 1.42923E-07
 -1       252-8.75455E+05-1.86960E+04-2.62249E+04 5.10529E+04 1.16111E-08 4.46726E-08
 -1       253-8.69679E+05 2.47785E+03-1.01674E+04-1.01498E+04-1.48116E-08 1.37662E-07
 -1       254-8.61946E+05-3.00952E+03-4.50945E+03 3.63031E+04 2.88221E-08 3.76757E-07
 -1       255-8.74118E+05 4.94846E+01-3.54886E+03 3.10578E+02-1.21504E-08 2.04028E-07
 -1       256-8.56491E+05-2.72239E+02 1.22694E+03 1.25882E+04 1.16034E-08 1.21480E-07
 -1       257-8.74685E+05-5.90689E+02-1.41257E+03 1.35533E+04-5.97379E-09 9.16610E-08
 -1       258-8.59386E+05 9.27530E+02 2.74597E+03-1.23173E+04 5.05077E-09 2.55683E-08
 -1       259-8.71477E+05-9.54071E+02 1.36509E+03 2.52137E+04-4.00814E-09-1.41933E-08
 -1       260-8.65913E+05 2.97682E+03 5.60241E+03-3.02738E+04 3.44329E-09-1.20418E-07
 -1       261-8.68806E+05-2.14066E+03 8.68491E+03 3.15265E+04 1.69311E-08 1.53236E-07
 -1       262-8.64632E+05 1.18592E+04 2.15757E+04-3.55248E+04 2.61425E-08-2.15823E-08
 -1       263-8.73016E+05-9.60430E+03 3.41799E+04 3.04746E+04 1.31550E-08-5.82804E-08
 -1       264-8.33942E+05 6.72875E+04 9.46508E+04-2.62505E+04 3.71923E-08-5.11482E-08
 -1       265-8.98991E+05-5.77067E+04 1.31766E+05 2.22395E+04 3.28356E-08 1.86774E-08
 -1       266-1.67109E+04-7.81484E+03 3.92045E+04-1.73730E+01-2.00089E-11-1.09256E-07
 -1       267 1.93722E+04 9.10707E+03 2.77112E+04 2.00467E+01 2.74667E-10-1.99510E-07
 -1       268-2.59779E+03-1.28988E+03 1.03000E+04-2.55421E+00-5.50244E-11-1.69317E-07
 -1       269 3.06721E+03 1.54364E+03 6.69494E+03 2.97537E+00-2.62389E-10-2.28490E-07
 -1       270-4.60393E+02-2.53635E+02 3.23174E+03-4.03774E-01 2.88765E-11 9.68658E-08
 -1       271-1.46810E+06-1.87198E+05-1.10639E+05-5.71503E+05-2.49402E-08 6.82267E-08
 -1       272-1.46173E+06-3.01319E+05-6.94109E+04-6.11523E+05 9.96079E-09-2.37518E-07
 -1       273-1.49152E+06-2.10563E+05-2.68604E+04-5.63475E+05 3.21888E-08 3.75276E-08
 -1       274-1.43518E+06-2.73152E+05-1.39286E+04-6.26784E+05-9.91713E-09 4.95405E-07
 -1       275-1.49712E+06-2.10057E+05-6.70944E+03-5.59694E+05 1.24201E-08 4.77585E-08
 -1       276-1.42965E+06-2.74121E+05-2.80622E+03-6.35496E+05 2.28520E-08-1.05806E-07
 -1       277-1.49995E+06-2.07394E+05-1.86245E+03-5.56958E+05 3.86754E-08 7.43630E-08
 -1       278-1.42754E+06-2.77318E+05-6.95214E+02-6.41892E+05-7.29779E-09 1.92603E-07
 -1       279-1.50175E+06-2.05232E+05-8.51328E+02-5.55046E+05-1.65073E-08-1.01430E-07
 -1       280-1.42658E+06-2.79701E+05-9.56753E+02-6.46075E+05 2.89833E-08-4.01451E-09
 -1       281-1.50270E+06-2.03885E+05-1.76956E+03-5.53978E+05-2.08993E-08 1.16244E-07
 -1       282-1.42695E+06-2.81819E+05-4.11225E+03-6.47766E+05 2.88178E-08 7.98668E-08
 -1       283-1.50222E+06-2.02701E+05-7.32112E+03-5.53867E+05-1.06581E-11-6.78160E-08
 -1       284-1.43353E+06-2.91356E+05-1.99386E+04-6.45569E+05 5.64639E-08-2.63064E-07
 -1       285-1.49601E+06-1.95514E+05-3.11550E+04-5.55647E+05 8.41374E-09 3.37235E-07
 -1       301-8.22671E+03-6.49693E+05 1.66746E+05-1.14297E+06 9.60426E-10 9.87202E-08
 -1       302-1.02692E+04-6.02639E+05 1.00350E+05-1.66813E+06-5.66070E-09-8.33788E-08
 -1       303-2.26532E+04-6.42473E+05 5.66259E+04-1.13981E+06-4.62751E-09 3.52866E-08
 -1       304-2.60701E+04-6.09938E+05 5.68583E+04-1.66757E+06 5.41331E-09 2.29371E-07
 -1       305-2.70616E+04-6.31157E+05 6.97383E+04-1.14290E+06 5.06770E-09-1.07684E-07
 -1       306-3.01349E+07-6.21745E+06-8.61086E+06-4.86878E+05-1.14087E-07-1.65950E-07
 -1       307 2.52825E+07 3.29152E+06 5.50767E+06-1.52842E+07-9.60776E-07 2.74740E-07
 -1       308-6.91312E+06-1.01274E+06-4.35157E+05 5.21176E+06-2.48139E-07 5.80665E-07
 -1       309-3.18644E+06 8.74542E+06 2.29608E+06-2.07118E+07 4.73650E-07 3.56798E-07
 -1       310-1.26607E+07-1.95747E+06-2.06537E+06 5.22038E+06-1.06811E-07 2.56841E-08
 -1       311 3.87017E+07-3.07893E+03 7.31873E+06-8.71663E+06 2.44239E-07 1.71800E-07
 -1       312-3.19970E+07-6.82219E+06-8.57058E+06-5.11353E+06 4.92437E-08 8.93488E-08
 -1       313 4.54214E+07 1.51965E+07 1.06953E+07 2.39545E+07-4.10713E-07 2.50497E-07
 -1       314-1.71587E+07-1.78767E+07-7.53210E+06-1.25436E+07 6.04778E-07 8.09086E-09
 -1       315-1.94086E+06 2.98331E+07 5.66789E+06 1.04514E+07-1.72193E-07 3.15020E-07
 -1       316 1.43925E+06-9.82873E+06-4.27028E+05-2.48833E+06-1.13327E-06-1.72149E-07
 -1       317-1.70936E+07 2.24517E+07 2.24933E+06-8.89799E+06 6.20777E-07-7.41595E-07
 -1       318-1.08774E+06-1.28576E+07-2.06677E+06-4.24294E+06-1.10094E-06 1.73226E-07
 -1       319 7.30626E+06 3.21101E+07 7.07555E+06 1.67030E+07-1.10878E-07 2.39263E-07
 -1       320-2.26551E+07-1.76979E+07-9.88855E+06-1.28479E+07 2.05240E-07-8.60309E-08
 -1       336-7.49512E+02-1.68994E+06-1.38291E+04 8.89632E+03-2.66573E-08-1.82190E-08
 -1       337-5.40463E+03-1.68947E+06-1.80429E+04-2.16134E+04-4.94056E-08-1.79498E-08
 -1       338 2.70208E+02-1.68942E+06-2.84255E+04 1.24659E+04-3.45899E-08-6.25005E-09
 -1       339-3.01654E+04-1.70668E+06-6.42398E+04-2.86065E+04-6.23359E-08 3.72966E-08
 -1       340 1.98631E+04-1.67490E+06-1.01199E+05 1.57586E+04-4.10655E-08 2.76996E-08
 -1       406-4.99063E+01 3.86500E+05 6.44573E+02 3.35529E+00-1.87055E-09 1.54432E-09
 -1       407 1.54761E+02 3.86634E+05 1.37752E+03 2.34439E+01-3.78833E-10-2.08120E-08
 -1       408 6.35125E+02 3.86399E+05 2.74665E+03-2.71185E+01-2.26464E-09-2.19879E-08
 -1       409 2.90867E+03 3.87511E+05 6.19072E+03 2.89530E+02-2.65914E-10 4.99222E-09
 -1       410 8.48519E+03 3.85609E+05 1.26350E+04-2.79208E+02-2.99042E-09 7.35054E-09
 -1       521-3.17254E+07-7.69152E+06-1.00814E+07-8.99817E+04-5.41331E-08-8.78936E-08
 -1       522 2.61968E+07 4.34724E+06 5.62822E+06-1.88295E+07-4.43542E-07-5.72472E-08
 -1       523-7.48413E+06-1.32984E+06-4.26539E+05 5.66831E+06 1.04832E-07-2.10566E-07
 -1       524-6.69382E+06 1.18506E+07 2.48968E+06-2.38085E+07 9.27190E-07-5.68478E-07
 -1       525-1.34619E+07-2.60649E+06-2.27541E+06 5.68350E+06 7.92090E-07-3.93862E-07
 -1       526 4.23507E+07-1.02962E+05 7.69396E+06-1.13756E+07-1.84868E-07-2.78611E-07
 -1       527-3.38961E+07-8.54028E+06-9.89875E+06-4.98078E+06-1.05589E-07-2.43206E-07
 -1       528 4.96802E+07 1.69906E+07 1.11760E+07 2.73012E+07-2.30502E-07 3.37604E-09
 -1       529-1.81108E+07-2.01314E+07-8.65276E+06-1.25830E+07 1.27009E-07-7.08969E-08
 -1       530-4.43144E+06 3.47101E+07 6.01071E+06 9.88413E+06 2.11876E-07 7.92730E-07
 -1       531 1.44918E+06-1.09089E+07-3.98618E+05-2.42111E+06-1.01146E-06 4.05009E-07
 -1       532-1.95906E+07 2.44777E+07 2.46415E+06-1.32563E+07 3.10858E-07-5.89847E-07
 -1       533-1.12733E+06-1.40311E+07-2.20700E+06-4.03589E+06-3.59229E-07-9.75619E-07
 -1       534 5.31619E+06 3.73490E+07 7.37845E+06 1.73130E+07-1.70839E-08 6.91623E-07
 -1       535-2.38662E+07-2.01393E+07-1.13604E+07-1.29323E+07 1.06404E-07 4.86150E-07
 -1       536-7.06059E+05-4.66966E+04-4.82892E+04-5.46930E+04 3.23780E-10 5.75119E-08
 -1       537-5.49582E+04 4.46290E+04 8.38325E+04 1.23863E+05-1.14096E-07 9.93987E-08
 -1       538-3.94387E+05 3.35371E+03 3.52454E+03-7.22091E+04 3.43701E-08 1.11990E-07
 -1       539-2.69033E+05 2.84554E+03 2.49024E+04 1.38751E+05 1.78492E-07 9.40644E-08
 -1       540-4.97361E+05-4.28227E+02-2.13371E+04-7.01154E+04 1.69616E-08 9.76629E-08
 -1       541 1.46756E+05 1.69735E+04 1.06400E+05 9.79363E+04-5.39369E-08 8.36029E-08
 -1       542-7.98973E+05-2.01378E+04-8.42511E+04-3.05197E+04 3.03839E-08 4.20169E-08
 -1       543 4.05452E+05 2.73284E+04 1.57989E+05-1.33665E+04 1.29135E-08 1.80662E-08
 -1       544-7.49119E+05-1.65384E+04-7.48452E+04 4.05176E+04-3.86076E-08-3.45672E-08
 -1       545 2.90150E+04 9.48362E+03 7.98166E+04-1.13636E+05 2.64810E-08-7.26852E-08
 -1       546-4.32646E+05 6.09723E+03-1.22320E+04 6.94037E+04 9.63314E-09-1.02034E-07
 -1       547-2.87118E+05-4.65896E+03 1.05834E+04-1.41598E+05-1.23855E-07-1.06154E-07
 -1       548-4.41485E+05 4.72180E+03-2.38901E+04 6.91707E+04-1.07612E-07-1.03499E-07
 -1       549 4.82006E+04 1.60653E+04 6.05097E+04-1.11496E+05-6.61498E-08-7.98573E-08
 -1       550-7.58992E+05-2.21357E+04-1.29004E+05 3.85860E+04 7.60156E-09-3.33876E-08
 -1       551 4.07828E+04-7.49844E+05-1.59162E+04-1.24701E+06-1.02926E-07-1.43773E-08
 -1       552 9.32568E+04-7.94830E+05 9.90138E+03-1.77806E+06-7.25558E-08 1.67929E-08
 -1       553 7.17620E+04-7.91238E+05 3.20202E+04-1.24036E+06-1.18685E-07 2.29484E-08
 -1       554 1.32053E+05-8.10740E+05 8.10257E+04-1.78001E+06-7.40984E-08 9.31504E-09
 -1       555 1.01504E+05-8.14894E+05 1.47981E+05-1.24019E+06-1.23429E-07-1.62909E-08
 -1       556 2.23813E+05-3.83845E+05 2.56103E+04-4.07353E+05-2.11294E-08-2.65136E-08
 -1       557 3.54400E+05-4.88226E+05 1.60772E+04-5.27843E+05-5.29690E-09-3.55067E-08
 -1       558 2.05563E+05-3.76608E+05 2.29047E+03-4.11817E+05-2.32831E-08-3.92029E-08
 -1       559 3.29385E+05-4.88273E+05 2.42480E+03-5.48308E+05 1.25146E-08-1.87501E-08
 -1       560 1.90245E+05-3.67002E+05-1.51401E+03-4.22856E+05 8.29459E-09 6.98492E-10
 -1       561 3.10140E+05-4.80570E+05 1.26192E+02-5.61430E+05 7.71252E-10 1.23291E-08
 -1       562 1.78134E+05-3.59478E+05-1.32934E+03-4.31626E+05-2.86673E-09-5.70071E-09
 -1       563 2.95756E+05-4.74298E+05-3.75455E+01-5.70826E+05 1.72440E-09-8.29641E-09
 -1       564 1.69491E+05-3.54093E+05-6.01027E+02-4.37750E+05 6.59202E-09-4.91491E-09
 -1       565 2.86214E+05-4.70143E+05 2.50371E+01-5.76921E+05 3.23053E-09 2.69847E-09
 -1       566 1.64438E+05-3.50897E+05-2.57731E+02-4.41284E+05-2.19734E-09-8.34189E-09
 -1       567 2.81578E+05-4.68126E+05-3.57143E+02-5.79738E+05 1.67347E-08-1.19398E-08
 -1       568 1.63067E+05-3.50057E+05-1.11512E+03-4.42339E+05-8.51469E-09 1.28966E-08
 -1       569 2.80463E+05-4.68046E+05-2.81824E+03-5.78307E+05-1.21354E-08 1.83063E-08
 -1       570 1.66468E+05-3.53285E+05-6.16850E+03-4.41323E+05 6.78847E-09 9.64064E-10
 -1       571 2.90766E+05 1.05009E+04 1.49773E+04-9.55222E+04 1.44773E-08 1.42613E-08
 -1       572 2.92935E+05 3.95997E+03 7.34013E+03-1.04796E+05 2.25937E-08 1.27193E-08
 -1       573 2.91627E+05 1.24757E+03 3.26146E+03-9.53446E+04 1.46711E-08 2.94949E-09
 -1       574 2.91840E+05 7.29975E+02 1.63563E+03-1.05022E+05 5.17025E-09 2.29920E-08
 -1       575 2.91720E+05 4.50787E+02 7.71989E+02-9.53203E+04 2.06687E-08-9.74069E-10
 -1       576 2.91704E+05 4.62513E+02 3.95298E+02-1.05052E+05 3.10208E-08-5.09681E-09
 -1       577 2.91760E+05 3.92786E+02 1.97401E+02-9.53170E+04 3.18169E-08 1.02909E-08
 -1       578 2.91734E+05 4.24420E+02 1.14163E+02-1.05056E+05 3.52902E-08 1.27275E-08
 -1       579 2.91832E+05 3.55951E+02 7.86220E+01-9.53166E+04 3.12957E-08-2.06765E-08
 -1       580 2.91837E+05 3.73165E+02 9.15562E+01-1.05051E+05-6.44832E-10-5.97447E-09
 -1       581 2.91947E+05 2.97105E+02 1.38582E+02-9.53226E+04 1.64637E-08 2.11912E-09
 -1       582 2.92013E+05 3.35775E+02 2.81908E+02-1.04990E+05 1.67638E-08-1.46274E-08
 -1       583 2.92088E+05 3.40307E+02 5.41236E+02-9.53793E+04 1.07320E-08-1.16843E-08
 -1       584 2.92391E+05 7.82404E+02 1.22475E+03-1.04512E+05 1.03828E-08-5.73846E-09
 -1       585 2.92113E+05 1.81337E+03 2.48017E+03-9.57994E+04 1.32422E-09 2.50293E-09
 -1       586-3.44695E+03 1.17027E+05-2.94046E+03-2.51562E+05-3.82170E-09-6.42808E-09
 -1       587-1.34799E+03 1.16775E+05 7.67712E+02-2.76861E+05-1.07575E-08-3.52094E-08
 -1       588 3.98271E+02 1.16582E+05 4.77364E+03-2.51423E+05-2.90856E-09-2.06501E-08
 -1       589 5.10201E+03 1.19065E+05 1.23869E+04-2.76629E+05-6.25187E-09-1.75132E-08
 -1       590 1.66674E+04 1.15244E+05 2.59863E+04-2.51855E+05-2.81398E-09-2.53203E-09
 -1       591-7.37594E+04-1.58287E+04-2.24386E+04-3.15507E+04 3.71301E-10-1.08957E-08
 -1       592-7.78098E+04-1.93944E+04-1.21545E+04-3.51873E+04-2.37556E-10-4.46744E-09
 -1       593-7.60039E+04-1.42000E+04-5.05932E+03-3.31955E+04 1.84006E-09 2.48542E-09
 -1       594-7.47114E+04-1.61022E+04-2.52321E+03-3.53051E+04 1.44937E-09 1.65714E-08
 -1       595-7.61750E+04-1.41946E+04-1.15843E+03-3.32702E+04-6.01190E-09 6.91020E-09
 -1       596-7.44992E+04-1.59517E+04-5.88700E+02-3.52799E+04-1.57071E-09 1.63279E-08
 -1       597-7.61965E+04-1.42100E+04-3.20167E+02-3.32731E+04 2.93056E-09-4.82817E-09
 -1       598-7.44783E+04-1.59457E+04-2.56648E+02-3.52729E+04-2.21974E-09-1.33036E-08
 -1       599-7.61953E+04-1.42105E+04-3.26929E+02-3.32727E+04 2.49838E-09-2.75497E-09
 -1       600-7.44993E+04-1.59522E+04-6.06602E+02-3.52778E+04 6.79114E-09 3.10405E-09
 -1       601-7.61707E+04-1.41960E+04-1.19632E+03-3.32692E+04 1.10163E-09-3.03180E-09
 -1       602-7.47183E+04-1.61066E+04-2.60705E+03-3.53000E+04-7.85940E-09-3.03389E-08
 -1       603-7.59911E+04-1.42045E+04-5.22811E+03-3.31928E+04-3.32511E-09 3.22843E-08
 -1       604-7.79375E+04-1.94892E+04-1.25591E+04-3.51537E+04 1.02443E-09 3.62261E-08
 -1       605-7.36520E+04-1.59050E+04-2.31857E+04-3.15124E+04 5.13535E-09 1.75305E-08
 -1       606 2.67088E+04-1.43326E+04-2.56930E+04 2.39891E+04 7.30961E-09 2.43085E-09
 -1       607 2.23188E+04-4.68120E+03-1.27950E+04 2.69588E+04 1.13232E-09 2.48747E-09
 -1       608 2.48208E+04-8.44673E+02-5.72791E+03 2.38205E+04-3.15413E-09 6.92648E-09
 -1       609 2.43412E+04-2.89563E+02-2.89359E+03 2.71729E+04 4.90036E-09-1.41767E-09
 -1       610 2.46071E+04-4.12273E+01-1.38057E+03 2.38004E+04 4.81123E-09 1.00749E-08
 -1       611 2.45319E+04-4.15290E+01-6.96071E+02 2.71960E+04 5.29326E-09-7.92625E-09
 -1       612 2.45600E+04-2.75196E+01-3.30899E+02 2.37984E+04 1.58525E-09 1.60003E-09
 -1       613 2.45435E+04-3.74413E+01-1.48259E+02 2.71987E+04 3.35967E-09-5.06770E-09
 -1       614 2.45379E+04-3.39435E+01-3.47056E+01 2.37977E+04 1.16961E-09 4.19323E-09
 -1       615 2.45382E+04-3.59548E+01 6.22841E+01 2.71991E+04-3.46745E-09 7.34349E-09
 -1       616 2.45205E+04-3.08220E+01 1.86637E+02 2.37980E+04-1.39789E-09-4.02861E-09
 -1       617 2.45606E+04 3.81520E+00 4.25766E+02 2.71987E+04 1.04092E-09-1.10863E-08
 -1       618 2.44835E+04 9.19162E+01 8.58181E+02 2.37983E+04 4.05953E-09-5.74823E-09
 -1       619 2.48636E+04 6.67361E+02 1.92710E+03 2.71981E+04 1.88186E-09-7.70433E-09
 -1       620 2.41985E+04 2.12689E+03 3.87341E+03 2.37999E+04 1.69814E-09 2.24018E-08
 -1       621 5.06697E+02 3.01109E+05 3.83993E+03 4.15452E+04 9.72705E-10-5.04951E-09
 -1       622 6.73976E+02 3.01993E+05 3.41390E+03 6.03185E+04 1.05047E-09-5.95446E-09
 -1       623 1.44784E+02 3.01298E+05 4.10939E+03 4.13581E+04 1.29148E-09 8.82301E-09
 -1       624 2.11657E+03 3.03203E+05 7.97250E+03 6.05017E+04 1.26545E-09-5.70594E-09
 -1       625 2.06663E+03 2.99716E+05 1.39342E+04 4.13559E+04 1.50476E-09 7.82165E-11
 -1       626 2.60851E+05 6.13934E+04 5.10966E+03 1.26720E+05 4.23233E-09-2.00362E-09
 -1       627 2.58533E+05 6.27925E+04 2.46231E+03 1.30989E+05-3.49610E-09 1.14585E-08
 -1       628 2.60979E+05 5.90553E+04 1.04138E+03 1.27588E+05-1.29094E-08 1.45851E-08
 -1       629 2.57899E+05 6.21141E+04 5.09710E+02 1.31229E+05-2.50493E-08-3.30283E-09
 -1       630 2.60993E+05 5.89423E+04 2.36555E+02 1.27625E+05-1.38839E-08-1.78507E-08
 -1       631 2.57832E+05 6.20883E+04 1.27456E+02 1.31231E+05 5.97743E-09 1.12584E-08
 -1       632 2.60990E+05 5.89462E+04 8.41514E+01 1.27620E+05 3.01497E-09 5.04087E-09
 -1       633 2.57824E+05 6.20901E+04 9.41747E+01 1.31228E+05 2.92971E-09 2.56478E-09
 -1       634 2.60985E+05 5.89434E+04 1.52571E+02 1.27620E+05 4.33693E-09-4.45289E-09
 -1       635 2.57838E+05 6.20884E+04 3.08961E+02 1.31233E+05-8.12122E-10-2.06883E-08
 -1       636 2.60976E+05 5.89376E+04 6.24068E+02 1.27620E+05 2.18961E-09 1.39289E-09
 -1       637 2.57973E+05 6.21854E+04 1.37224E+03 1.31232E+05-2.49997E-09 1.00135E-09
 -1       638 2.60928E+05 5.92407E+04 2.81947E+03 1.27483E+05-1.29512E-09 2.15368E-09
 -1       639 2.59454E+05 6.42453E+04 6.67100E+03 1.30796E+05-7.91260E-11 3.29828E-08
 -1       640 2.60723E+05 6.53917E+04 1.38435E+04 1.24891E+05 6.80075E-09 6.29507E-09
 -1       656 6.65837E+04-1.70402E+06-1.60729E+05-2.56516E+03 2.98314E-10-2.42878E-08
 -1       657-8.80842E+04-1.77665E+06-1.33154E+05 5.15887E+03-9.18590E-10-8.73715E-09
 -1       658 2.12242E+04-1.72465E+06-8.20054E+04-4.64926E+03-9.06766E-10-4.35772E-09
 -1       659-9.52480E+04-1.78006E+06-1.42569E+05 6.89008E+03-2.55386E-09 1.56611E-10
 -1       660 7.37316E+04-1.70063E+06-1.76915E+05-4.29635E+03-8.36735E-10-8.08151E-09
 -1       661 1.58679E+05 1.66045E+04 1.67256E+04 6.20296E+04 5.53882E-10 2.11239E-08
 -1       662 1.68133E+05 2.89921E+04 1.12719E+04 5.82786E+04 8.53333E-10 2.55530E-08
 -1       663 1.61964E+05 2.19704E+04 3.94219E+03 6.10761E+04 3.25554E-09 3.02521E-09
 -1       664 1.64324E+05 2.27172E+04 2.35825E+03 5.94432E+04-2.39424E-10 2.48087E-09
 -1       665 1.62463E+05 2.27032E+04 9.30313E+02 6.09307E+04 9.63155E-10-1.13744E-10
 -1       666 1.63735E+05 2.18792E+04 5.44559E+02 5.96330E+04 7.31418E-09 1.22534E-08
 -1       667 1.62550E+05 2.27865E+04 2.89430E+02 6.08942E+04 3.31261E-09-1.06390E-08
 -1       668 1.63638E+05 2.18193E+04 2.95340E+02 5.96860E+04-8.58716E-09-3.77037E-09
 -1       669 1.62558E+05 2.27614E+04 4.00201E+02 6.08779E+04-4.49825E-09 2.22632E-08
 -1       670 1.63736E+05 2.20367E+04 8.71773E+02 5.96889E+04-1.07379E-08-1.99560E-08
 -1       671 1.62452E+05 2.25737E+04 1.54801E+03 6.08892E+04 7.75003E-10-7.65368E-09
 -1       672 1.64638E+05 2.35427E+04 3.96063E+03 5.94703E+04 4.29789E-09 2.56367E-08
 -1       673 1.61660E+05 2.12935E+04 6.63742E+03 6.10819E+04 3.99143E-09 8.17454E-09
 -1       674 1.70955E+05 3.42065E+04 1.89816E+04 5.76145E+04 7.50447E-10-7.76936E-10
 -1       675 1.56176E+05 1.22086E+04 2.81754E+04 6.26331E+04-5.64842E-09 9.43510E-09
 -1       676 2.41168E+01-2.95921E+05-1.11367E+03-1.37721E+02-5.36431E-10-1.53573E-08
 -1       677-2.94587E+02-2.96191E+05-2.03821E+03 2.75220E+02 5.76370E-09-3.04463E-09
 -1       678 1.97589E+02-2.95729E+05-3.60306E+03-1.37409E+02 6.57565E-10-3.73703E-10
 -1       679-3.60311E+03-2.98366E+05-8.55937E+03 2.74032E+02 1.13856E-08-8.96267E-09
 -1       680 2.15127E+03-2.93747E+05-1.37948E+04-1.35014E+02 1.95996E-09-5.24884E-09
 -1       771-3.06241E+06-7.47511E+05-1.66111E+05-1.46615E+06-2.82598E-08-3.03553E-08
 -1       772-2.98525E+06-8.36421E+05-8.56428E+04-1.56894E+06-1.54105E-08 8.22911E-09
 -1       773-3.09394E+06-7.22929E+05-4.36572E+04-1.48071E+06-3.57977E-09 1.46974E-09
 -1       774-2.97572E+06-8.17866E+05-1.94780E+04-1.59474E+06 4.18513E-08 6.00267E-10
 -1       775-3.11041E+06-7.11376E+05-1.45691E+04-1.48778E+06 1.19326E-09-9.53150E-10
 -1       776-2.98809E+06-8.14823E+05-5.44842E+03-1.61426E+06-1.17871E-08 6.83940E-09
 -1       777-3.12470E+06-7.01064E+05-6.43705E+03-1.49401E+06 7.85803E-09 3.83443E-09
 -1       778-3.00100E+06-8.11994E+05-1.82003E+03-1.63103E+06-2.57569E-09 9.29140E-09
 -1       779-3.13698E+06-6.92052E+05-3.21677E+03-1.49933E+06-6.70843E-09-4.95129E-09
 -1       780-3.01237E+06-8.09294E+05-5.33479E+02-1.64469E+06-4.80213E-09-2.05364E-09
 -1       781-3.14675E+06-6.84787E+05-1.24969E+03-1.50350E+06-2.79251E-08 7.72707E-09
 -1       782-3.02114E+06-8.07002E+05 4.50508E+02-1.65477E+06-3.60451E-08-4.99085E-09
 -1       783-3.15363E+06-6.79739E+05 7.01322E+02-1.50642E+06-7.64703E-09-1.64955E-08
 -1       784-3.02599E+06-8.04713E+05 2.90694E+03-1.66100E+06-2.00234E-08 3.15276E-09
 -1       785-3.15770E+06-6.76727E+05 5.13176E+03-1.50827E+06-3.63616E-08 1.12577E-08
 -1       786 1.28810E+05-1.00253E+04 2.31173E+04-3.27431E+02 3.76393E-05 9.32450E-08
 -1       787 1.38852E+05 1.16048E+04 1.63673E+04-1.68769E+02 7.51738E-05 1.76184E-07
 -1       788 1.32679E+05-1.57565E+03 5.98053E+03-2.82559E+02 5.61040E-05 1.02752E-07
 -1       789 1.34342E+05 1.82359E+03 3.75864E+03-2.28546E+02 3.69864E-05 9.81020E-08
 -1       790 1.33320E+05-2.46098E+02 1.52060E+03-2.67659E+02 2.61939E-05 3.81868E-08
 -1       791 1.33593E+05 2.84874E+02 8.79950E+02-2.49464E+02 1.54166E-05 2.20504E-08
 -1       792 1.33429E+05-3.72213E+01 3.74124E+02-2.61642E+02 1.20648E-05 2.85685E-08
 -1       793 1.33464E+05 4.01389E+01 1.90072E+02-2.59362E+02 8.71841E-06 4.18548E-08
 -1       794 1.33449E+05-1.39927E+00 5.63438E+01-2.57761E+02 9.13375E-06 3.02153E-08
 -1       795 1.33428E+05-2.23660E+01-4.06471E+01-2.68906E+02 9.53813E-06 4.07284E-08
 -1       796 1.33464E+05 2.52769E+01-1.34415E+02-2.52097E+02 1.16613E-05 2.42889E-08
 -1       797 1.33347E+05-1.88113E+02-3.78519E+02-2.87630E+02 1.37733E-05 3.30249E-08
 -1       798 1.33531E+05 1.64319E+02-6.16351E+02-2.39037E+02 1.43329E-05 3.50948E-08
 -1       799 1.32880E+05-1.20601E+03-1.69900E+03-3.34284E+02 1.48813E-05 3.25242E-08
 -1       800 1.33931E+05 1.04297E+03-2.40406E+03-2.05443E+02 7.42781E-06-1.66697E-08
 -1       801-1.71427E+05-1.00009E+07-1.39393E+06 1.41623E+06 9.22009E-08-5.04915E-08
 -1       802 7.38805E+05 5.95540E+06 2.18302E+06-1.74836E+06 2.56900E-07-4.17931E-08
 -1       803-5.36946E+05-1.42727E+07-1.89154E+06 8.98645E+05 7.62047E-08 1.22564E-08
 -1       804 2.87432E+05 2.39873E+06 1.53822E+06 6.77477E+05-1.19908E-07-1.02373E-07
 -1       805 1.89392E+05-6.45835E+06-2.86527E+05-1.00395E+06-5.00877E-08-6.54954E-08
 -1       806-3.08414E+05-5.97813E+04-2.27452E+04-1.22421E+05-3.25690E-09-1.39353E-08
 -1       807-3.10173E+05-5.60984E+04-1.11745E+04-1.27975E+05 1.73413E-08 1.20708E-08
 -1       808-3.09039E+05-5.15834E+04-4.74057E+03-1.26295E+05-5.46424E-09 1.58909E-08
 -1       809-3.07823E+05-5.29593E+04-2.31803E+03-1.28250E+05-1.87649E-08 3.22225E-08
 -1       810-3.09133E+05-5.12980E+04-1.06249E+03-1.26466E+05-1.01045E-09-1.88938E-08
 -1       811-3.07641E+05-5.28332E+04-5.28428E+02-1.28214E+05-1.25692E-09-1.21672E-08
 -1       812-3.09147E+05-5.13226E+04-2.67396E+02-1.26466E+05-9.13769E-09 3.45335E-09
 -1       813-3.07616E+05-5.28355E+04-1.74039E+02-1.28196E+05-7.15272E-09-1.10990E-08
 -1       814-3.09140E+05-5.13324E+04-1.72885E+02-1.26461E+05 2.20371E-09 2.78214E-09
 -1       815-3.07619E+05-5.28378E+04-2.78934E+02-1.28188E+05 3.91674E-09 2.14043E-08
 -1       816-3.09119E+05-5.13316E+04-5.28923E+02-1.26458E+05-1.68802E-09 1.98543E-08
 -1       817-3.07709E+05-5.28883E+04-1.13523E+03-1.28176E+05-2.47783E-08 2.44931E-08
 -1       818-3.09049E+05-5.14920E+04-2.31555E+03-1.26382E+05-8.05812E-09-8.92851E-09
 -1       819-3.08977E+05-5.42865E+04-5.44828E+03-1.27875E+05 4.05271E-09-1.05601E-08
 -1       820-3.08612E+05-5.56086E+04-1.10893E+04-1.24625E+05-1.72804E-09-2.06273E-09
 -1       821-3.80555E+05 2.09395E+04-4.87959E+04 2.22437E+03 1.45090E-08 1.17507E-09
 -1       822-4.00112E+05-2.42602E+04-3.42514E+04-4.77362E+03 5.80322E-09 1.04628E-08
 -1       823-3.87946E+05 3.30378E+03-1.25989E+04 3.66288E+03-1.31292E-08-2.22826E-10
 -1       824-3.91153E+05-3.80869E+03-7.87982E+03-5.81071E+03 9.79815E-10 4.33056E-09
 -1       825-3.89523E+05 5.13985E+02-3.30674E+03 3.26161E+03 2.01206E-08 1.26776E-08
 -1       826-3.88592E+05-5.64756E+02-1.72124E+03-3.40337E+03 2.46036E-08-1.43834E-09
 -1       827-3.90480E+05 4.06489E+01-1.21963E+03 1.25537E+03 1.18820E-08 2.47911E-09
 -1       828-3.87794E+05-1.23807E+02-5.40063E+02 1.10294E+03-1.21079E-09 1.66410E-09
 -1       829-3.90305E+05 6.10145E+01-1.20502E+03-1.24474E+03 3.28345E-09-4.36486E-09
 -1       830-3.88967E+05-6.21451E+02-1.86289E+03 5.20092E+03 1.70467E-09 7.28915E-09
 -1       831-3.89332E+05 5.58483E+02-3.38179E+03-2.84261E+03-5.20219E-09 3.12918E-08
 -1       832-3.91229E+05-3.97238E+03-8.17268E+03 6.60739E+03-3.93414E-09 1.85842E-08
 -1       833-3.88062E+05 3.42356E+03-1.30897E+04-2.65127E+03-2.05002E-09 6.42376E-09
 -1       834-4.00129E+05-2.51430E+04-3.54253E+04 4.50313E+03-1.24589E-09-3.54157E-09
 -1       835-3.80412E+05 2.16937E+04-5.06078E+04-7.38258E+02 6.21847E-09-4.43470E-09
 -1       836-1.41351E+03 3.70380E+05 2.28604E+04-1.67471E+04-7.18774E-09 1.74405E-08
 -1       837 4.86977E+03 3.77542E+05 1.93525E+04-3.42070E+04-7.62776E-09-1.00226E-08
 -1       838-5.59313E+02 3.72384E+05 1.97291E+04-1.66739E+04-6.43831E-09 1.53002E-08
 -1       839 1.24176E+04 3.83161E+05 3.73325E+04-3.42596E+04-6.69752E-09 2.56399E-08
 -1       840-3.84198E+03 3.64698E+05 5.95365E+04-1.67004E+04-5.99903E-09 1.41906E-08
 -1       856-5.23238E+04 8.02803E+03-2.11556E+04-3.97276E+02 3.87831E-09 1.00235E-08
 -1       857-6.10393E+04-9.43271E+03-1.45633E+04 5.63515E+03 6.85637E-09 1.18598E-09
 -1       858-5.57754E+04 1.12585E+03-5.48937E+03-4.21433E+02 4.51007E-09 1.39221E-09
 -1       859-5.70783E+04-1.32457E+03-3.31258E+03 5.67109E+03-6.71690E-10 1.33386E-08
 -1       860-5.62910E+04 1.57676E+02-1.38830E+03-4.32943E+02-7.95239E-10 5.63131E-09
 -1       861-5.64851E+04-1.88273E+02-7.63730E+02 5.68677E+03 1.20001E-09-9.93873E-09
 -1       862-5.63717E+04 2.13646E+01-3.17467E+02-4.37088E+02-5.19480E-09-1.24857E-08
 -1       863-5.63862E+04-2.19136E+01-1.15632E+02 5.68917E+03-3.37419E-09-2.07111E-08
 -1       864-5.63904E+04-4.89773E+00 4.72492E+01-4.35350E+02-1.74182E-09-1.43611E-08
 -1       865-5.63304E+04 5.96070E+01 2.55415E+02 5.67925E+03-1.70361E-09-2.01628E-08
 -1       866-5.64253E+04-6.01752E+01 5.14720E+02-4.27161E+02-1.61833E-10-3.17328E-10
 -1       867-5.60884E+04 4.96884E+02 1.26693E+03 5.65702E+03 2.88099E-09-5.51603E-09
 -1       868-5.66276E+04-4.34284E+02 2.10525E+03-4.13120E+02-1.56018E-09 1.03763E-08
 -1       869-5.45449E+04 3.61432E+03 5.60558E+03 5.62045E+03 2.70870E-09-6.70798E-09
 -1       870-5.79609E+04-3.09294E+03 8.13495E+03-3.90490E+02-3.69073E-09 1.00367E-08
 -1       871-5.51753E+03-2.13610E+04-1.94899E+04 1.30396E+05-4.50746E-09 3.80896E-09
 -1       872-1.98127E+03-2.58931E+04-8.16113E+03 1.69079E+05-1.09558E-08 8.90805E-09
 -1       873 4.05810E+02-2.37009E+04 5.89196E+02 1.30110E+05-5.78393E-09 1.84514E-09
 -1       874 3.30645E+03-2.12906E+04 9.77763E+03 1.69108E+05-1.16806E-08-5.96401E-10
 -1       875 6.84608E+03-2.60302E+04 2.20580E+04 1.30348E+05-4.84579E-09 4.50382E-09
 -1       876 2.93739E+05 4.95077E+04 1.51005E+04 1.17879E+05 6.45105E-09-8.43738E-09
 -1       877 2.94736E+05 5.26886E+04 8.06424E+03 1.22211E+05 1.29469E-08-2.19901E-08
 -1       878 2.95151E+05 4.78349E+04 3.37852E+03 1.19116E+05-7.26732E-09-2.81407E-08
 -1       879 2.92684E+05 5.06401E+04 1.68339E+03 1.22313E+05 3.92470E-09 9.22671E-09
 -1       880 2.95252E+05 4.78176E+04 7.84100E+02 1.19166E+05 5.66388E-10 3.84910E-09
 -1       881 2.92547E+05 5.05525E+04 4.18740E+02 1.22290E+05-5.89944E-09 1.46530E-08
 -1       882 2.95261E+05 4.78309E+04 2.67914E+02 1.19168E+05-1.13528E-09 3.81725E-10
 -1       883 2.92538E+05 5.05480E+04 2.88069E+02 1.22282E+05 3.61842E-09-1.18229E-08
 -1       884 2.95254E+05 4.78281E+04 4.58294E+02 1.19168E+05 3.67629E-09-5.02496E-09
 -1       885 2.92574E+05 5.05543E+04 9.21450E+02 1.22293E+05-2.39469E-09-9.52491E-09
 -1       886 2.95219E+05 4.78012E+04 1.85715E+03 1.19164E+05-6.20459E-09 5.94127E-09
 -1       887 2.92900E+05 5.07683E+04 4.05670E+03 1.22340E+05 8.80550E-09 7.10395E-09
 -1       888 2.94962E+05 4.78464E+04 8.17437E+03 1.19035E+05-1.91577E-09 7.74844E-09
 -1       889 2.97767E+05 5.58292E+04 1.95270E+04 1.22191E+05 5.03010E-09 9.56061E-09
 -1       890 2.91626E+05 5.18097E+04 3.65737E+04 1.15924E+05-4.31464E-09 3.74166E-09
 -1       891-8.91343E+01-1.62762E+05-1.99627E+03 2.71531E+04-8.13088E-10-2.44440E-08
 -1       892-1.75034E+02-1.63289E+05-2.14402E+03 4.12338E+04 1.77579E-10-7.99719E-09
 -1       893 4.39010E+01-1.62826E+05-3.03569E+03 2.71605E+04-1.37197E-09 8.92760E-09
 -1       894-1.50966E+03-1.64436E+05-6.28273E+03 4.10812E+04 1.44655E-09-6.39375E-09
 -1       895-1.19899E+03-1.61517E+05-1.10638E+04 2.73075E+04 1.14824E-10-5.95537E-09
 -1       956-3.77165E+05-5.45645E+03-1.34694E+04 3.08758E+04 3.06500E-09-1.19865E-08
 -1       957-3.79808E+05-1.92486E+03-6.91365E+03 3.71043E+04-3.83534E-09-7.53789E-09
 -1       958-3.78376E+05-2.41219E+02-3.11551E+03 3.07080E+04-4.62569E-09 1.19489E-08
 -1       959-3.78572E+05-1.36412E+02-1.59082E+03 3.73001E+04 1.09731E-09 3.33730E-08
 -1       960-3.78494E+05-4.48503E+01-7.75752E+02 3.06907E+04 2.66118E-09 7.80483E-09
 -1       961-3.78492E+05-6.32747E+01-4.11270E+02 3.73205E+04 8.18363E-09-6.74913E-09
 -1       962-3.78521E+05-4.60650E+01-2.35417E+02 3.06878E+04-2.21371E-09 7.01880E-09
 -1       963-3.78492E+05-5.90658E+01-1.88903E+02 3.73242E+04 1.98042E-10-4.23825E-10
 -1       964-3.78527E+05-4.27001E+01-2.29623E+02 3.06870E+04-3.45379E-09 3.51724E-09
 -1       965-3.78504E+05-5.60934E+01-3.97074E+02 3.73235E+04-1.44610E-08-3.93652E-09
 -1       966-3.78511E+05-3.48530E+01-7.46047E+02 3.06885E+04 3.14049E-09 5.51631E-09
 -1       967-3.78594E+05-1.19620E+02-1.53010E+03 3.73091E+04-1.93631E-09 2.21326E-09
 -1       968-3.78407E+05-2.17311E+02-2.99538E+03 3.07012E+04-4.12183E-09-6.40057E-10
 -1       969-3.79794E+05-1.83417E+03-6.64966E+03 3.71607E+04 3.82170E-09 1.89959E-09
 -1       970-3.77251E+05-5.22943E+03-1.29539E+04 3.08283E+04-5.73800E-09 9.06675E-09
 -1       971-3.45362E+05-1.72749E+03-9.30979E+03 1.53792E+04 7.47968E-09 9.15681E-09
 -1       972-3.47603E+05-1.27181E+03-5.07002E+03 2.12692E+04 4.42606E-09 1.87174E-09
 -1       973-3.46399E+05-6.20689E+01-2.27091E+03 1.52581E+04 5.22414E-09 4.59954E-09
 -1       974-3.46534E+05-8.11289E+01-1.17716E+03 2.14063E+04-1.14051E-09 3.30760E-09
 -1       975-3.46481E+05-1.71942E+01-5.88887E+02 1.52457E+04 2.06001E-10 1.43576E-08
 -1       976-3.46473E+05-3.12857E+01-3.40589E+02 2.14221E+04 8.25116E-09-8.28777E-10
 -1       977-3.46498E+05-1.64484E+01-2.48703E+02 1.52423E+04-2.22394E-09-1.56012E-08
 -1       978-3.46478E+05-2.50611E+01-2.93092E+02 2.14269E+04-5.52734E-09-6.24084E-09
 -1       979-3.46498E+05-7.97093E+00-4.72675E+02 1.52409E+04-8.13714E-10 6.74925E-09
 -1       980-3.46514E+05-2.20002E+01-9.13784E+02 2.14279E+04-4.43322E-09-9.72955E-09
 -1       981-3.46468E+05 1.48691E+01-1.77037E+03 1.52414E+04-2.74804E-09 1.42589E-08
 -1       982-3.46757E+05-1.52812E+02-3.65964E+03 2.14213E+04-1.38505E-09-4.53247E-09
 -1       983-3.46245E+05-9.84930E+01-7.11087E+03 1.52474E+04-5.46379E-09 1.05774E-09
 -1       984-3.50177E+05-3.86661E+03-1.59246E+04 2.13356E+04-5.91194E-09 2.26328E-09
 -1       985-3.43026E+05-5.30179E+03-2.92425E+04 1.53188E+04-3.53657E-09-1.02336E-08
 -3
    1PSTEP                        29          15           1          
  100CL  115 6.62985E-01         409                     0   15           1
 -4  DISP        4    1
 -5  D1          1    2    1    0
 -5  D2          1    2    2    0
 -5  D3          1    2    3    0
 -5  ALL         1    2    0    0    1ALL
 -1         1 2.72525E-03 0.00000E+00 0.00000E+00
 -1         2 1.33464E-03 5.18247E-28-5.29396E-23
 -1         3 3.42758E-04-5.56231E-28-1.32349E-23
 -1         5 1.77153E-04-1.84446E-27 8.27181E-25
 -1         8 2.71450E-03-4.02391E-07 0.00000E+00
 -1         9 2.70779E-03-1.98150E-04 0.00000E+00
 -1        10 3.10798E-04-3.39759E-06 0.00000E+00
 -1        12 1.79003E-04 8.09487E-07-1.65436E-24
 -1        15 2.70224E-03-4.25618E-07 0.00000E+00
 -1        16 2.77685E-03-2.00012E-04 0.00000E+00
 -1        17 2.11514E-04-7.75017E-06 0.00000E+00
 -1        18 1.82958E-04 3.44483E-05 0.00000E+00
 -1        19 1.84552E-04 1.61255E-06 0.00000E+00
 -1        20 1.84691E-04-9.89466E-06 0.00000E+00
 -1        21 1.83799E-04-2.54329E-05 0.00000E+00
 -1        24 3.06098E-05-1.19736E-05 0.00000E+00
 -1        25 1.93733E-04 3.46742E-05 0.00000E+00
 -1        26 1.94442E-04 2.23195E-06 0.00000E+00
 -1        27 1.92226E-04-1.34531E-05 0.00000E+00
 -1        28 1.91910E-04-2.60551E-05 0.00000E+00
 -1        32 0.00000E+00 0.00000E+00 0.00000E+00
 -1        33 2.03295E-04 2.98608E-06 0.00000E+00
 -1        34 2.01177E-04-1.35093E-05 0.00000E+00
 -1        35 1.99245E-04-2.63975E-05 0.00000E+00
 -1        51 2.72453E-03-8.45763E-08 3.30872E-24
 -1        52 2.72321E-03-1.50701E-07 3.30872E-24
 -1        53 2.72142E-03-2.13329E-07 0.00000E+00
 -1        54 2.71928E-03-2.74695E-07 0.00000E+00
 -1        55 2.71694E-03-3.36563E-07-8.27181E-25
 -1        56 2.71726E-03 9.21813E-06 5.29396E-23
 -1        57 2.70133E-03 3.79753E-05 0.00000E+00
 -1        58 2.67985E-03 8.01515E-05 0.00000E+00
 -1        59 2.65577E-03 1.28352E-04-5.29396E-23
 -1        60 2.63271E-03 1.74149E-04-1.05879E-22
 -1        61 2.61413E-03 2.09308E-04 5.29396E-23
 -1        62 2.60243E-03 2.27495E-04 1.05879E-22
 -1        63 2.59910E-03 2.23883E-04 0.00000E+00
 -1        64 2.60393E-03 1.97659E-04 0.00000E+00
 -1        65 2.61593E-03 1.50153E-04 5.29396E-23
 -1        66 2.63301E-03 8.67507E-05 0.00000E+00
 -1        67 2.65282E-03 1.44110E-05 0.00000E+00
 -1        68 2.67270E-03-5.81654E-05 1.05879E-22
 -1        69 2.69002E-03-1.22248E-04 5.29396E-23
 -1        70 2.70238E-03-1.70765E-04 0.00000E+00
 -1        86 1.42100E-03-6.24499E-06 0.00000E+00
 -1        87 1.67069E-03-3.93379E-05 0.00000E+00
 -1        88 2.00644E-03-9.62564E-05 0.00000E+00
 -1        89 2.34679E-03-1.54775E-04 0.00000E+00
 -1        90 2.60761E-03-1.90590E-04 0.00000E+00
 -1       121 3.41860E-04-5.48522E-07 0.00000E+00
 -1       122 3.39172E-04-1.10013E-06 0.00000E+00
 -1       123 3.34701E-04-1.65787E-06 0.00000E+00
 -1       124 3.28466E-04-2.22479E-06 0.00000E+00
 -1       125 3.20487E-04-2.80352E-06 1.32349E-23
 -1       191 1.77204E-04 1.34978E-07-2.48154E-24
 -1       192 1.77359E-04 2.69945E-07-4.13590E-25
 -1       193 1.77615E-04 4.04892E-07 2.48154E-24
 -1       194 1.77975E-04 5.39807E-07 1.24077E-24
 -1       195 1.78437E-04 6.74676E-07 2.48154E-24
 -1       251 2.71421E-03 1.61673E-06-6.61744E-24
 -1       252 2.71390E-03 3.49075E-06 0.00000E+00
 -1       253 2.71360E-03 4.22032E-06-6.61744E-24
 -1       254 2.71329E-03 2.82024E-06 0.00000E+00
 -1       255 2.71298E-03-1.37327E-06 0.00000E+00
 -1       256 2.71265E-03-8.98924E-06 0.00000E+00
 -1       257 2.71228E-03-2.01405E-05 6.61744E-24
 -1       258 2.71188E-03-3.48959E-05 0.00000E+00
 -1       259 2.71142E-03-5.27813E-05 0.00000E+00
 -1       260 2.71091E-03-7.32829E-05 0.00000E+00
 -1       261 2.71037E-03-9.54926E-05-1.32349E-23
 -1       262 2.70981E-03-1.18482E-04 6.61744E-24
 -1       263 2.70926E-03-1.41203E-04 0.00000E+00
 -1       264 2.70873E-03-1.62614E-04 6.61744E-24
 -1       265 2.70824E-03-1.81869E-04-1.32349E-23
 -1       266 2.71246E-03-4.11849E-07 0.00000E+00
 -1       267 2.71041E-03-4.15040E-07 0.00000E+00
 -1       268 2.70837E-03-4.18627E-07 0.00000E+00
 -1       269 2.70633E-03-4.21038E-07 2.06795E-25
 -1       270 2.70428E-03-4.23422E-07 0.00000E+00
 -1       271 2.71368E-03 2.25170E-08 0.00000E+00
 -1       272 2.71385E-03-2.24801E-06 0.00000E+00
 -1       273 2.71496E-03-7.05253E-06 1.32349E-23
 -1       274 2.71694E-03-1.42170E-05 0.00000E+00
 -1       275 2.71971E-03-2.35460E-05-2.64698E-23
 -1       276 2.72319E-03-3.48291E-05 0.00000E+00
 -1       277 2.72729E-03-4.78390E-05 0.00000E+00
 -1       278 2.73194E-03-6.23354E-05-1.32349E-23
 -1       279 2.73702E-03-7.80660E-05 0.00000E+00
 -1       280 2.74245E-03-9.47687E-05 0.00000E+00
 -1       281 2.74813E-03-1.12173E-04 0.00000E+00
 -1       282 2.75397E-03-1.30005E-04 0.00000E+00
 -1       283 2.75986E-03-1.47984E-04 1.32349E-23
 -1       284 2.76570E-03-1.65830E-04 6.61744E-24
 -1       285 2.77139E-03-1.83266E-04-1.32349E-23
 -1       301 2.72033E-03-1.98495E-04-6.61744E-24
 -1       302 2.73122E-03-1.98794E-04 3.30872E-24
 -1       303 2.74137E-03-1.99081E-04 1.32349E-23
 -1       304 2.75173E-03-1.99369E-04-6.61744E-24
 -1       305 2.76325E-03-1.99672E-04 0.00000E+00
 -1       306 2.74586E-03-3.53571E-04 1.05879E-22
 -1       307 2.80972E-03-7.68530E-04 0.00000E+00
 -1       308 2.85628E-03-1.37448E-03 0.00000E+00
 -1       309 2.88011E-03-2.07513E-03 0.00000E+00
 -1       310 2.91154E-03-2.74462E-03-1.05879E-22
 -1       311 2.97115E-03-3.25980E-03 0.00000E+00
 -1       312 3.02879E-03-3.54016E-03 1.05879E-22
 -1       313 3.02333E-03-3.54819E-03 5.29396E-23
 -1       314 2.88083E-03-3.29624E-03-1.05879E-22
 -1       315 2.56054E-03-2.84915E-03 0.00000E+00
 -1       316 2.08121E-03-2.28364E-03 0.00000E+00
 -1       317 1.50915E-03-1.66896E-03 0.00000E+00
 -1       318 9.58962E-04-1.06557E-03 0.00000E+00
 -1       319 5.38760E-04-5.38388E-04 1.58819E-22
 -1       320 2.92259E-04-1.61624E-04 0.00000E+00
 -1       336 2.99208E-04-4.05445E-06 0.00000E+00
 -1       337 2.85543E-04-4.73702E-06 6.61744E-24
 -1       338 2.69862E-04-5.44750E-06 0.00000E+00
 -1       339 2.52242E-04-6.18674E-06 0.00000E+00
 -1       340 2.32761E-04-6.95920E-06 0.00000E+00
 -1       406 1.79671E-04 9.44221E-07 2.48154E-24
 -1       407 1.80441E-04 1.07884E-06 8.27181E-25
 -1       408 1.81315E-04 1.21329E-06 1.65436E-24
 -1       409 1.82292E-04 1.34741E-06-6.20385E-25
 -1       410 1.83371E-04 1.48091E-06 8.27181E-25
 -1       521 2.81551E-03-3.64737E-04 0.00000E+00
 -1       522 2.87755E-03-8.00183E-04 5.29396E-23
 -1       523 2.91756E-03-1.43434E-03 1.05879E-22
 -1       524 2.93200E-03-2.16411E-03 0.00000E+00
 -1       525 2.95539E-03-2.86068E-03-1.05879E-22
 -1       526 3.01141E-03-3.39825E-03-5.29396E-23
 -1       527 3.06865E-03-3.68932E-03 2.11758E-22
 -1       528 3.06084E-03-3.69546E-03-5.29396E-23
 -1       529 2.90604E-03-3.42908E-03-2.11758E-22
 -1       530 2.56125E-03-2.96309E-03 5.29396E-23
 -1       531 2.04604E-03-2.37809E-03 0.00000E+00
 -1       532 1.43329E-03-1.74592E-03-5.29396E-23
 -1       533 8.43142E-04-1.12436E-03-1.05879E-22
 -1       534 3.89009E-04-5.75989E-04 5.29396E-23
 -1       535 1.20958E-04-1.79410E-04 2.11758E-22
 -1       536 2.10759E-04 2.71776E-05 0.00000E+00
 -1       537 2.08841E-04 8.76182E-05 1.65436E-24
 -1       538 2.05877E-04 1.64305E-04 0.00000E+00
 -1       539 2.02381E-04 2.47889E-04 1.65436E-24
 -1       540 1.99236E-04 3.26868E-04-3.30872E-24
 -1       541 1.97191E-04 3.89763E-04-1.65436E-24
 -1       542 1.96248E-04 4.29823E-04-3.30872E-24
 -1       543 1.96023E-04 4.40444E-04 0.00000E+00
 -1       544 1.95700E-04 4.22400E-04 0.00000E+00
 -1       545 1.94528E-04 3.76686E-04 1.65436E-24
 -1       546 1.92344E-04 3.11427E-04 0.00000E+00
 -1       547 1.89386E-04 2.34870E-04 0.00000E+00
 -1       548 1.86456E-04 1.58690E-04 3.30872E-24
 -1       549 1.84342E-04 9.45604E-05 0.00000E+00
 -1       550 1.83244E-04 5.05119E-05 1.65436E-24
 -1       551 1.86307E-04-8.31922E-06 0.00000E+00
 -1       552 1.57855E-04-8.96876E-06 0.00000E+00
 -1       553 1.27100E-04-9.68057E-06 3.30872E-24
 -1       554 9.50018E-05-1.04336E-05 3.30872E-24
 -1       555 6.25202E-05-1.12003E-05-1.32349E-23
 -1       556 2.03863E-04 1.18104E-05 0.00000E+00
 -1       557 1.97683E-04 2.76745E-05-2.64698E-23
 -1       558 1.92837E-04 4.01301E-05 0.00000E+00
 -1       559 1.89194E-04 4.94878E-05 2.64698E-23
 -1       560 1.86622E-04 5.60584E-05 0.00000E+00
 -1       561 1.84995E-04 6.01554E-05 0.00000E+00
 -1       562 1.84186E-04 6.20935E-05 0.00000E+00
 -1       563 1.84072E-04 6.21884E-05 0.00000E+00
 -1       564 1.84531E-04 6.07565E-05 0.00000E+00
 -1       565 1.85442E-04 5.81152E-05 0.00000E+00
 -1       566 1.86684E-04 5.45821E-05 0.00000E+00
 -1       567 1.88140E-04 5.04754E-05 0.00000E+00
 -1       568 1.89691E-04 4.61134E-05 0.00000E+00
 -1       569 1.91219E-04 4.18144E-05 0.00000E+00
 -1       570 1.92605E-04 3.78967E-05 0.00000E+00
 -1       571 1.83054E-04 3.23194E-05 1.65436E-24
 -1       572 1.83153E-04 3.01245E-05-4.13590E-25
 -1       573 1.83252E-04 2.78791E-05 1.65436E-24
 -1       574 1.83352E-04 2.55998E-05 8.27181E-25
 -1       575 1.83451E-04 2.33029E-05 0.00000E+00
 -1       576 1.83551E-04 2.10051E-05 1.65436E-24
 -1       577 1.83650E-04 1.87229E-05-3.30872E-24
 -1       578 1.83750E-04 1.64728E-05 0.00000E+00
 -1       579 1.83850E-04 1.42714E-05 0.00000E+00
 -1       580 1.83949E-04 1.21353E-05 0.00000E+00
 -1       581 1.84049E-04 1.00810E-05 6.61744E-24
 -1       582 1.84150E-04 8.12514E-06 0.00000E+00
 -1       583 1.84250E-04 6.28420E-06 6.61744E-24
 -1       584 1.84351E-04 4.57454E-06 0.00000E+00
 -1       585 1.84451E-04 3.01238E-06 0.00000E+00
 -1       586 1.84713E-04 3.44881E-05 0.00000E+00
 -1       587 1.86427E-04 3.45273E-05-8.27181E-25
 -1       588 1.88142E-04 3.45661E-05 0.00000E+00
 -1       589 1.89903E-04 3.46043E-05 0.00000E+00
 -1       590 1.91753E-04 3.46412E-05 0.00000E+00
 -1       591 1.83688E-04 3.24134E-05 1.03398E-25
 -1       592 1.84421E-04 3.03583E-05-2.06795E-25
 -1       593 1.85159E-04 2.82887E-05 0.00000E+00
 -1       594 1.85901E-04 2.62094E-05 0.00000E+00
 -1       595 1.86644E-04 2.41252E-05 8.27181E-25
 -1       596 1.87388E-04 2.20408E-05 0.00000E+00
 -1       597 1.88129E-04 1.99610E-05 0.00000E+00
 -1       598 1.88867E-04 1.78906E-05 0.00000E+00
 -1       599 1.89600E-04 1.58342E-05 0.00000E+00
 -1       600 1.90326E-04 1.37966E-05 0.00000E+00
 -1       601 1.91043E-04 1.17825E-05-8.27181E-25
 -1       602 1.91750E-04 9.79668E-06-2.06795E-25
 -1       603 1.92444E-04 7.84381E-06 4.13590E-25
 -1       604 1.93125E-04 5.92877E-06 1.55096E-25
 -1       605 1.93790E-04 4.05618E-06 0.00000E+00
 -1       606 1.84565E-04 4.46446E-07 3.30872E-24
 -1       607 1.84575E-04-6.33774E-07 0.00000E+00
 -1       608 1.84584E-04-1.63315E-06 0.00000E+00
 -1       609 1.84592E-04-2.55737E-06-1.65436E-24
 -1       610 1.84600E-04-3.41218E-06 0.00000E+00
 -1       611 1.84609E-04-4.20337E-06 0.00000E+00
 -1       612 1.84617E-04-4.93674E-06 0.00000E+00
 -1       613 1.84625E-04-5.61811E-06 0.00000E+00
 -1       614 1.84634E-04-6.25330E-06 0.00000E+00
 -1       615 1.84642E-04-6.84810E-06 0.00000E+00
 -1       616 1.84650E-04-7.40836E-06 0.00000E+00
 -1       617 1.84659E-04-7.93986E-06-4.13590E-25
 -1       618 1.84667E-04-8.44843E-06-8.27181E-25
 -1       619 1.84676E-04-8.93988E-06 2.06795E-25
 -1       620 1.84684E-04-9.42002E-06 0.00000E+00
 -1       621 1.85913E-04 1.71635E-06-3.30872E-24
 -1       622 1.87435E-04 1.82039E-06-8.27181E-25
 -1       623 1.89082E-04 1.92422E-06-1.65436E-24
 -1       624 1.90822E-04 2.02772E-06-8.27181E-25
 -1       625 1.92620E-04 2.13093E-06 0.00000E+00
 -1       626 1.85101E-04 4.82533E-07 0.00000E+00
 -1       627 1.85628E-04-5.84402E-07 0.00000E+00
 -1       628 1.86134E-04-1.59611E-06 0.00000E+00
 -1       629 1.86622E-04-2.56075E-06 3.30872E-24
 -1       630 1.87097E-04-3.48653E-06 0.00000E+00
 -1       631 1.87559E-04-4.38164E-06 0.00000E+00
 -1       632 1.88014E-04-5.25430E-06 0.00000E+00
 -1       633 1.88463E-04-6.11272E-06 1.65436E-24
 -1       634 1.88909E-04-6.96511E-06 3.30872E-24
 -1       635 1.89357E-04-7.81968E-06 0.00000E+00
 -1       636 1.89808E-04-8.68464E-06 3.30872E-24
 -1       637 1.90267E-04-9.56821E-06-1.65436E-24
 -1       638 1.90735E-04-1.04786E-05 0.00000E+00
 -1       639 1.91216E-04-1.14240E-05-1.65436E-24
 -1       640 1.91713E-04-1.24128E-05 1.65436E-24
 -1       656 1.85399E-04-1.04730E-05 0.00000E+00
 -1       657 1.86526E-04-1.10749E-05 6.61744E-24
 -1       658 1.87934E-04-1.16754E-05 0.00000E+00
 -1       659 1.89476E-04-1.22755E-05-6.61744E-24
 -1       660 1.90968E-04-1.28775E-05 0.00000E+00
 -1       661 1.84956E-04-1.04144E-05 0.00000E+00
 -1       662 1.85259E-04-1.10259E-05 0.00000E+00
 -1       663 1.85593E-04-1.17239E-05 0.00000E+00
 -1       664 1.85959E-04-1.25021E-05 0.00000E+00
 -1       665 1.86352E-04-1.33545E-05 1.65436E-24
 -1       666 1.86770E-04-1.42752E-05-8.27181E-25
 -1       667 1.87212E-04-1.52587E-05 0.00000E+00
 -1       668 1.87676E-04-1.62993E-05-8.27181E-25
 -1       669 1.88159E-04-1.73916E-05 1.65436E-24
 -1       670 1.88659E-04-1.85303E-05 8.27181E-25
 -1       671 1.89174E-04-1.97103E-05 1.65436E-24
 -1       672 1.89703E-04-2.09264E-05 8.27181E-25
 -1       673 1.90244E-04-2.21736E-05 1.65436E-24
 -1       674 1.90793E-04-2.34472E-05 0.00000E+00
 -1       675 1.91351E-04-2.47420E-05 2.06795E-25
 -1       676 1.85155E-04-2.55372E-05 0.00000E+00
 -1       677 1.86511E-04-2.56415E-05 0.00000E+00
 -1       678 1.87865E-04-2.57457E-05 3.30872E-24
 -1       679 1.89217E-04-2.58496E-05 0.00000E+00
 -1       680 1.90565E-04-2.59534E-05-1.65436E-24
 -1       771 1.86525E-05 1.47673E-05 0.00000E+00
 -1       772 8.59301E-06 3.67295E-05 0.00000E+00
 -1       773 3.40586E-07 5.41436E-05 0.00000E+00
 -1       774-6.22921E-06 6.72674E-05 2.64698E-23
 -1       775-1.12381E-05 7.63696E-05 0.00000E+00
 -1       776-1.48127E-05 8.17354E-05 2.64698E-23
 -1       777-1.70795E-05 8.36601E-05-5.29396E-23
 -1       778-1.81674E-05 8.24530E-05 0.00000E+00
 -1       779-1.82049E-05 7.84318E-05-5.29396E-23
 -1       780-1.73222E-05 7.19257E-05 0.00000E+00
 -1       781-1.56488E-05 6.32706E-05 0.00000E+00
 -1       782-1.33159E-05 5.28115E-05-7.94093E-23
 -1       783-1.04533E-05 4.08978E-05 0.00000E+00
 -1       784-7.19266E-06 2.78850E-05-2.64698E-23
 -1       785-3.66416E-06 1.41321E-05 0.00000E+00
 -1       786 1.93773E-04 3.24349E-05 0.00000E+00
 -1       787 1.93817E-04 3.02729E-05 0.00000E+00
 -1       788 1.93860E-04 2.81646E-05-8.27181E-25
 -1       789 1.93905E-04 2.60865E-05 0.00000E+00
 -1       790 1.93949E-04 2.40296E-05 0.00000E+00
 -1       791 1.93994E-04 2.19848E-05 8.27181E-25
 -1       792 1.94038E-04 1.99492E-05-1.65436E-24
 -1       793 1.94083E-04 1.79197E-05-8.27181E-25
 -1       794 1.94128E-04 1.58962E-05 1.65436E-24
 -1       795 1.94172E-04 1.38787E-05 0.00000E+00
 -1       796 1.94217E-04 1.18702E-05-1.65436E-24
 -1       797 1.94262E-04 9.87332E-06 0.00000E+00
 -1       798 1.94307E-04 7.89681E-06-1.65436E-24
 -1       799 1.94352E-04 5.94928E-06 0.00000E+00
 -1       800 1.94397E-04 4.05339E-06 1.65436E-24
 -1       801 1.47916E-04 3.11725E-05 2.64698E-23
 -1       802 9.39098E-06 1.94472E-05 0.00000E+00
 -1       803-1.08924E-04 9.82353E-06-5.29396E-23
 -1       804-9.65394E-05 6.83799E-06 0.00000E+00
 -1       805-3.18944E-05 2.68641E-06 5.29396E-23
 -1       806 1.94463E-04 3.23520E-05 3.30872E-24
 -1       807 1.95179E-04 3.00555E-05 1.65436E-24
 -1       808 1.95883E-04 2.77899E-05 0.00000E+00
 -1       809 1.96573E-04 2.55593E-05-1.65436E-24
 -1       810 1.97249E-04 2.33680E-05 0.00000E+00
 -1       811 1.97908E-04 2.12197E-05 0.00000E+00
 -1       812 1.98550E-04 1.91186E-05 0.00000E+00
 -1       813 1.99173E-04 1.70687E-05 0.00000E+00
 -1       814 1.99775E-04 1.50739E-05-3.30872E-24
 -1       815 2.00355E-04 1.31382E-05-8.27181E-25
 -1       816 2.00912E-04 1.12655E-05-3.30872E-24
 -1       817 2.01444E-04 9.45987E-06 1.65436E-24
 -1       818 2.01949E-04 7.72519E-06 0.00000E+00
 -1       819 2.02427E-04 6.06541E-06-1.65436E-24
 -1       820 2.02875E-04 4.48442E-06 3.30872E-24
 -1       821 1.94312E-04-1.79019E-07 1.65436E-24
 -1       822 1.94171E-04-3.83774E-06 0.00000E+00
 -1       823 1.94027E-04-8.28842E-06 3.30872E-24
 -1       824 1.93881E-04-1.30703E-05 0.00000E+00
 -1       825 1.93735E-04-1.76328E-05 0.00000E+00
 -1       826 1.93592E-04-2.14266E-05 0.00000E+00
 -1       827 1.93452E-04-2.41123E-05 0.00000E+00
 -1       828 1.93315E-04-2.53576E-05 0.00000E+00
 -1       829 1.93179E-04-2.52235E-05 0.00000E+00
 -1       830 1.93042E-04-2.37795E-05 0.00000E+00
 -1       831 1.92903E-04-2.14528E-05 0.00000E+00
 -1       832 1.92764E-04-1.86763E-05 1.65436E-24
 -1       833 1.92625E-04-1.60056E-05-3.30872E-24
 -1       834 1.92488E-04-1.39959E-05 0.00000E+00
 -1       835 1.92353E-04-1.30222E-05-8.27181E-25
 -1       836 1.96132E-04 2.35701E-06 3.30872E-24
 -1       837 1.97693E-04 2.48521E-06-1.65436E-24
 -1       838 1.99157E-04 2.61335E-06-3.30872E-24
 -1       839 2.00556E-04 2.74079E-06 8.27181E-25
 -1       840 2.01925E-04 2.86807E-06 8.27181E-25
 -1       856 1.92210E-04-1.45158E-05-8.27181E-25
 -1       857 1.92191E-04-1.54428E-05-1.29247E-26
 -1       858 1.92171E-04-1.62551E-05-2.06795E-25
 -1       859 1.92152E-04-1.69738E-05 2.06795E-25
 -1       860 1.92132E-04-1.76204E-05 0.00000E+00
 -1       861 1.92112E-04-1.82158E-05-2.06795E-25
 -1       862 1.92092E-04-1.87817E-05 0.00000E+00
 -1       863 1.92072E-04-1.93392E-05 0.00000E+00
 -1       864 1.92053E-04-1.99097E-05-8.27181E-25
 -1       865 1.92033E-04-2.05146E-05 0.00000E+00
 -1       866 1.92013E-04-2.11751E-05 8.27181E-25
 -1       867 1.91993E-04-2.19126E-05-4.13590E-25
 -1       868 1.91973E-04-2.27482E-05 0.00000E+00
 -1       869 1.91952E-04-2.37032E-05 4.13590E-25
 -1       870 1.91932E-04-2.47985E-05 0.00000E+00
 -1       871 1.93577E-04-1.34581E-05 0.00000E+00
 -1       872 1.95074E-04-1.34664E-05 0.00000E+00
 -1       873 1.96651E-04-1.34754E-05 0.00000E+00
 -1       874 1.98240E-04-1.34852E-05-3.61892E-25
 -1       875 1.99771E-04-1.34955E-05-1.03398E-24
 -1       876 1.92752E-04-1.45013E-05-3.30872E-24
 -1       877 1.93255E-04-1.54826E-05 0.00000E+00
 -1       878 1.93737E-04-1.64051E-05-3.30872E-24
 -1       879 1.94200E-04-1.72761E-05 0.00000E+00
 -1       880 1.94646E-04-1.81030E-05-3.30872E-24
 -1       881 1.95079E-04-1.88933E-05 0.00000E+00
 -1       882 1.95501E-04-1.96542E-05 0.00000E+00
 -1       883 1.95914E-04-2.03931E-05 1.65436E-24
 -1       884 1.96322E-04-2.11175E-05-3.30872E-24
 -1       885 1.96728E-04-2.18345E-05-1.65436E-24
 -1       886 1.97133E-04-2.25515E-05 0.00000E+00
 -1       887 1.97541E-04-2.32760E-05-1.65436E-24
 -1       888 1.97954E-04-2.40152E-05 3.30872E-24
 -1       889 1.98375E-04-2.47766E-05 1.65436E-24
 -1       890 1.98806E-04-2.55677E-05 0.00000E+00
 -1       891 1.93274E-04-2.61126E-05 1.65436E-24
 -1       892 1.94616E-04-2.61703E-05-8.27181E-25
 -1       893 1.95909E-04-2.62279E-05 0.00000E+00
 -1       894 1.97128E-04-2.62852E-05 4.13590E-25
 -1       895 1.98248E-04-2.63423E-05 8.27181E-25
 -1       956 2.03164E-04 1.66273E-06-3.30872E-24
 -1       957 2.03032E-04 4.31039E-07 8.27181E-25
 -1       958 2.02899E-04-7.19754E-07 0.00000E+00
 -1       959 2.02767E-04-1.80098E-06 0.00000E+00
 -1       960 2.02634E-04-2.82405E-06 0.00000E+00
 -1       961 2.02501E-04-3.80036E-06 0.00000E+00
 -1       962 2.02368E-04-4.74135E-06-3.30872E-24
 -1       963 2.02235E-04-5.65849E-06 1.65436E-24
 -1       964 2.02103E-04-6.56321E-06 3.30872E-24
 -1       965 2.01970E-04-7.46696E-06 1.65436E-24
 -1       966 2.01837E-04-8.38120E-06-3.30872E-24
 -1       967 2.01705E-04-9.31738E-06-1.65436E-24
 -1       968 2.01572E-04-1.02869E-05 0.00000E+00
 -1       969 2.01439E-04-1.13013E-05 3.30872E-24
 -1       970 2.01307E-04-1.23717E-05 0.00000E+00
 -1       971 2.01057E-04-1.46465E-05-3.30872E-24
 -1       972 2.00936E-04-1.56891E-05 0.00000E+00
 -1       973 2.00814E-04-1.66475E-05 0.00000E+00
 -1       974 2.00693E-04-1.75326E-05 0.00000E+00
 -1       975 2.00571E-04-1.83553E-05 0.00000E+00
 -1       976 2.00450E-04-1.91264E-05 1.65436E-24
 -1       977 2.00329E-04-1.98568E-05 0.00000E+00
 -1       978 2.00207E-04-2.05574E-05-1.65436E-24
 -1       979 2.00086E-04-2.12390E-05 0.00000E+00
 -1       980 1.99965E-04-2.19127E-05-1.65436E-24
 -1       981 1.99843E-04-2.25894E-05-3.30872E-24
 -1       982 1.99722E-04-2.32798E-05-1.65436E-24
 -1       983 1.99601E-04-2.39950E-05-3.30872E-24
 -1       984 1.99480E-04-2.47458E-05-1.65436E-24
 -1       985 1.99360E-04-2.55431E-05-3.30872E-24
 -3
    1PSTEP                        30          15           1          
  100CL  115 6.62985E-01         409                     0   15           1
 -4  STRESS      6    1
 -5  SXX         1    4    1    1
 -5  SYY         1    4    2    2
 -5  SZZ         1    4    3    3
 -5  SXY         1    4    1    2
 -5  SYZ         1    4    2    3
 -5  SZX         1    4    3    1
 -1         1-5.34617E+06-1.57919E+06-1.13300E+06-1.33546E+06 8.73115E-11 4.16767E-08
 -1         2 1.51289E+06 2.21684E+07 5.15626E+06 6.70756E+06 3.09956E-08 1.90339E-08
 -1         3-1.48846E+03-1.55742E+06 4.05654E+02-2.21080E+03-5.81146E-10 2.91984E-08
 -1         5-7.55095E+01 3.86524E+05 9.98685E+00-1.34542E+00-3.79346E-10-4.30518E-08
 -1         8-5.54262E+05-2.00646E+05-6.27682E+04-2.43310E+05-6.18456E-11-7.37782E-09
 -1         9 1.17975E+07 3.89041E+06 2.80618E+06-3.15614E+05-1.31666E-08 2.10502E-07
 -1        10-2.30465E+03-1.62295E+06-3.94434E+03-1.49598E+04-1.42027E-08-3.90306E-08
 -1        12-7.15898E+01 3.86545E+05 3.28308E+02-9.16966E+00-6.15071E-10 5.08135E-09
 -1        15 9.25839E+02 5.08794E+02 2.99275E+03 8.18648E-01-9.79554E-11 3.38690E-08
 -1        16 2.29228E+07-3.33222E+05 3.11950E+06-2.29112E+06-1.97906E-09 1.70199E-07
 -1        17 8.39301E+06 6.28956E+06 2.26718E+06 6.01673E+06 2.22295E-08 2.62866E-08
 -1        18 1.42701E+05 3.35896E+04 4.17436E+03-1.19765E+05 1.30315E-08-6.44195E-09
 -1        19 1.22441E+05 1.41626E+05-9.59339E+02 2.20484E+04 1.67638E-09 1.76202E-08
 -1        20-8.18842E+04-5.73654E+05-1.28718E+05 2.51407E+04-2.14383E-09-5.82622E-09
 -1        21-4.55801E+01-2.96021E+05-9.24084E+02 2.75410E+02 1.47703E-08-2.49604E-08
 -1        24 1.40721E+07 1.21172E+07 3.89510E+06 1.12190E+07-1.71790E-07-5.75286E-08
 -1        25 1.26552E+05 2.68864E+05 1.00752E+05-6.46755E+05-2.12149E-09 3.18594E-08
 -1        26-5.44275E+04 9.24270E+04-2.45411E+04 1.22833E+03 6.40284E-11 1.52402E-08
 -1        27-7.58281E+04-3.09994E+05-1.13356E+05 6.89866E+04 3.90704E-09-1.09191E-08
 -1        28 2.22416E+04-8.53419E+04 1.68975E+04 2.06279E+04-4.46400E-09 3.04892E-09
 -1        32-1.68049E+06-3.18168E+06-1.97581E+05 4.59250E+05-4.29718E-08-9.33801E-09
 -1        33-1.78297E+05 9.30144E+04 3.23811E+04-3.89033E+04-3.43770E-09-4.84912E-09
 -1        34-2.23568E+05-2.50324E+04 6.89206E+02 7.56423E+04-4.81771E-09-3.97191E-09
 -1        35-2.29319E+04-3.38442E+04-1.34831E+03 5.14979E+04-4.17417E-09 1.22527E-08
 -1        51 6.08241E+04-1.71012E+05 1.28593E+05-4.35598E+05-5.82077E-11 1.17914E-07
 -1        52 2.05689E+04-1.48518E+05 6.74222E+04-5.08039E+05-2.84672E-10-1.07510E-07
 -1        53 4.16375E+03-1.63875E+05 3.50222E+04-4.34103E+05 1.65528E-10-2.82271E-07
 -1        54 7.29293E+03-1.59660E+05 2.86020E+04-5.09501E+05 6.54836E-11 3.71165E-08
 -1        55 1.59009E+04-1.66613E+05 3.45842E+04-4.34016E+05 2.29193E-10-2.93876E-08
 -1        56-9.80366E+06-1.38792E+06-9.22312E+05-4.10080E+06-1.20781E-08-1.19442E-07
 -1        57-1.11078E+07-7.86674E+05-5.45940E+05-2.68487E+06 3.37968E-08 1.46414E-07
 -1        58-9.59163E+06-1.85947E+06-2.01710E+05-4.29992E+06 2.18279E-09 9.45947E-08
 -1        59-1.13090E+07-2.41432E+05-1.07499E+05-2.61011E+06-5.70344E-09-1.25980E-07
 -1        60-9.68850E+06-1.86310E+06-5.83678E+04-4.25127E+06-3.36440E-08 9.73887E-08
 -1        61-1.06202E+07-5.94304E+05 1.93181E+04-2.86314E+06-4.42960E-08 6.81539E-08
 -1        62-1.01336E+07-1.60578E+06-8.19267E+04-3.93011E+06-2.99042E-08 1.76078E-09
 -1        63-9.66948E+06-1.34098E+06 5.99137E+04-3.59222E+06-2.44981E-08-2.62133E-07
 -1        64-1.05209E+07-1.20087E+06-7.53958E+04-3.44756E+06 3.51283E-08-2.19741E-07
 -1        65-9.28657E+06-1.97218E+06 1.59712E+04-4.54769E+06-6.95691E-08-4.15720E-07
 -1        66-1.06531E+07-8.79743E+05-4.75762E+04-3.07792E+06 7.08678E-09 1.74932E-08
 -1        67-9.31052E+06-2.23681E+06-9.67040E+04-5.00264E+06-5.96847E-08 2.45809E-07
 -1        68-1.06334E+07-8.40257E+05-1.87535E+05-3.07721E+06-7.72307E-08 1.19107E-07
 -1        69-9.47968E+06-2.31147E+06-4.84949E+05-4.51515E+06-6.73826E-08-3.37604E-08
 -1        70-1.03571E+07-9.06076E+05-8.47734E+05-3.48253E+06 1.97688E-08 1.56404E-07
 -1        86-1.54363E+06-1.57544E+07-2.82281E+06-3.14968E+06-2.76177E-07 3.03407E-08
 -1        87 2.42982E+06 6.39794E+06 2.34771E+06 5.80952E+06-4.59317E-07-7.91442E-08
 -1        88-4.59046E+05-1.93565E+06 2.22374E+05-2.58291E+06-4.18147E-07 1.16485E-07
 -1        89 3.25333E+06 6.09532E+06 2.40634E+06 6.00568E+06-5.81225E-07-1.57537E-07
 -1        90-2.27110E+06-1.55293E+07-3.04712E+06-3.37578E+06-1.50401E-07 7.36618E-08
 -1       121-2.03895E+03-1.56232E+06-5.47810E+02 1.09576E+03 1.50118E-09 4.59841E-09
 -1       122-1.30277E+03-1.55748E+06 7.69005E+02-4.42572E+03-5.56560E-09 8.63292E-09
 -1       123-2.05869E+03-1.56246E+06 2.59541E+02 3.27257E+03 4.53167E-09-6.67933E-09
 -1       124 3.32467E+02-1.55703E+06 2.94679E+03-9.26133E+03-1.00877E-08-4.73665E-09
 -1       125-2.86700E+03-1.56335E+06 3.45589E+03 5.88539E+03 6.67751E-09-2.86745E-08
 -1       191-7.95721E+01 3.86542E+05 8.48112E+00 7.01596E-01-5.60245E-10-1.66110E-08
 -1       192-7.64739E+01 3.86524E+05 2.13122E+01-4.31315E+00-8.63471E-10 4.44743E-10
 -1       193-8.21104E+01 3.86542E+05 3.62734E+01 3.78842E+00-1.05315E-09-3.21961E-09
 -1       194-7.95657E+01 3.86528E+05 8.10208E+01-9.78712E+00-4.82114E-10 4.37012E-09
 -1       195-8.69825E+01 3.86539E+05 1.55106E+02 6.36980E+00-1.54811E-09 7.68705E-09
 -1       251-8.61401E+05 1.61070E+04-3.76043E+04-1.43451E+04 8.16327E-09-4.10910E-09
 -1       252-8.75610E+05-1.86411E+04-2.61570E+04 5.06314E+04-4.38587E-09-1.95960E-07
 -1       253-8.69794E+05 2.47068E+03-1.01335E+04-1.00921E+04-4.39945E-09-1.46310E-08
 -1       254-8.62218E+05-2.99760E+03-4.51632E+03 3.59950E+04 1.17816E-08 9.79262E-08
 -1       255-8.74178E+05 5.36172E+01-3.52326E+03 2.87585E+02-5.85169E-09-1.75961E-07
 -1       256-8.56833E+05-2.72323E+02 1.19355E+03 1.24640E+04 6.16467E-09 1.96561E-07
 -1       257-8.74739E+05-5.80393E+02-1.39006E+03 1.34275E+04-2.53158E-09 7.96456E-08
 -1       258-8.59678E+05 9.15360E+02 2.71626E+03-1.22479E+04-9.41782E-10-1.51532E-07
 -1       259-8.71583E+05-9.40676E+02 1.37507E+03 2.49971E+04-5.72982E-11-2.69988E-08
 -1       260-8.66091E+05 2.95217E+03 5.58889E+03-3.00635E+04-1.53157E-08-4.24177E-07
 -1       261-8.68963E+05-2.12559E+03 8.67956E+03 3.12595E+04 2.20674E-08 7.23280E-08
 -1       262-8.64763E+05 1.18238E+04 2.15593E+04-3.52690E+04-2.15941E-09 1.78950E-08
 -1       263-8.73163E+05-9.58361E+03 3.41589E+04 3.02121E+04 3.28544E-09 7.92897E-08
 -1       264-8.34165E+05 6.72155E+04 9.45720E+04-2.60593E+04 4.16876E-08-1.08235E-07
 -1       265-8.99063E+05-5.76503E+04 1.31692E+05 2.20374E+04 2.12642E-08 2.43912E-07
 -1       266-1.67610E+04-7.83829E+03 3.93222E+04-1.75151E+01-3.81988E-11 2.02337E-07
 -1       267 1.94304E+04 9.13440E+03 2.77943E+04 2.02107E+01-1.46883E-10 7.16945E-08
 -1       268-2.60559E+03-1.29375E+03 1.03309E+04-2.57510E+00-6.04814E-11-1.38178E-07
 -1       269 3.07642E+03 1.54827E+03 6.71504E+03 2.99971E+00 8.25366E-11 1.56471E-07
 -1       270-4.61774E+02-2.54396E+02 3.24144E+03-4.07077E-01 8.09450E-11 7.32382E-08
 -1       271-1.47344E+06-1.87722E+05-1.11017E+05-5.73473E+05-1.32277E-08-1.75511E-07
 -1       272-1.46804E+06-3.01527E+05-6.96874E+04-6.12751E+05 6.97582E-09-4.12642E-07
 -1       273-1.49691E+06-2.11234E+05-2.69368E+04-5.65449E+05 1.38825E-08 2.76195E-08
 -1       274-1.44137E+06-2.73201E+05-1.39914E+04-6.27954E+05-3.36877E-09 7.05068E-08
 -1       275-1.50250E+06-2.10768E+05-6.72000E+03-5.61680E+05 4.29281E-09 1.62738E-07
 -1       276-1.43580E+06-2.74144E+05-2.82363E+03-6.36607E+05-5.37220E-08 2.72507E-07
 -1       277-1.50533E+06-2.08126E+05-1.86317E+03-5.58952E+05-1.03300E-08 1.09642E-07
 -1       278-1.43367E+06-2.77336E+05-7.03263E+02-6.42962E+05 1.00845E-08 4.99549E-08
 -1       279-1.50713E+06-2.05976E+05-8.57134E+02-5.57042E+05-6.97946E-09 2.07036E-07
 -1       280-1.43268E+06-2.79725E+05-9.72058E+02-6.47126E+05-1.73277E-08 2.87915E-07
 -1       281-1.50807E+06-2.04630E+05-1.79703E+03-5.55973E+05-4.91846E-08 6.94546E-08
 -1       282-1.43305E+06-2.81869E+05-4.17763E+03-6.48817E+05 1.67408E-08 1.35790E-08
 -1       283-1.50758E+06-2.03425E+05-7.43674E+03-5.55857E+05 4.39133E-08-1.95714E-08
 -1       284-1.43973E+06-2.91577E+05-2.02553E+04-6.46623E+05 3.36574E-08-4.69907E-07
 -1       285-1.50129E+06-1.96094E+05-3.16415E+04-5.57642E+05-2.19279E-08-4.15330E-08
 -1       301-7.82480E+03-6.48829E+05 1.66819E+05-1.14093E+06 1.16852E-08 3.62634E-08
 -1       302-9.76426E+03-6.01874E+05 1.00393E+05-1.66521E+06 1.29294E-08 2.14161E-07
 -1       303-2.23284E+04-6.41510E+05 5.66750E+04-1.13778E+06 1.82627E-09 4.82469E-08
 -1       304-2.55843E+04-6.09088E+05 5.69509E+04-1.66464E+06-2.74740E-08-7.47568E-08
 -1       305-2.67100E+04-6.30218E+05 6.99091E+04-1.14088E+06-1.08557E-08 7.38801E-08
 -1       306-3.01409E+07-6.21949E+06-8.61304E+06-4.91424E+05-3.24799E-08-1.86235E-07
 -1       307 2.53025E+07 3.28979E+06 5.51043E+06-1.52772E+07-9.08505E-07 3.11993E-08
 -1       308-6.92113E+06-1.01556E+06-4.37890E+05 5.21272E+06-2.55852E-07 4.53292E-07
 -1       309-3.19648E+06 8.75066E+06 2.29543E+06-2.07104E+07 5.10452E-07 2.60727E-07
 -1       310-1.26483E+07-1.95648E+06-2.06166E+06 5.22191E+06-3.50992E-08-1.13519E-07
 -1       311 3.86732E+07 3.73911E+02 7.31493E+06-8.73352E+06-1.09692E-07 1.70956E-07
 -1       312-3.19948E+07-6.81644E+06-8.56826E+06-5.10293E+06 2.25962E-07-1.41765E-07
 -1       313 4.54375E+07 1.51754E+07 1.06946E+07 2.39394E+07-6.07979E-08-2.06055E-07
 -1       314-1.71714E+07-1.78691E+07-7.53337E+06-1.25452E+07 3.32482E-07-1.48488E-07
 -1       315-1.92422E+06 2.98290E+07 5.66985E+06 1.04680E+07-5.26401E-07-1.03901E-07
 -1       316 1.43457E+06-9.83246E+06-4.29090E+05-2.49344E+06-1.24815E-06-2.07860E-07
 -1       317-1.70979E+07 2.24528E+07 2.24892E+06-8.89175E+06 8.94826E-07-7.50704E-07
 -1       318-1.08503E+06-1.28508E+07-2.06409E+06-4.24213E+06-9.14180E-07 8.70787E-08
 -1       319 7.29618E+06 3.21004E+07 7.07258E+06 1.66956E+07-1.34751E-07 1.70781E-07
 -1       320-2.26513E+07-1.76949E+07-9.88646E+06-1.28461E+07 1.94763E-07-9.11241E-08
 -1       336-7.48378E+02-1.69127E+06-1.38387E+04 8.90450E+03-2.65882E-08 2.75977E-08
 -1       337-5.40729E+03-1.69080E+06-1.80561E+04-2.16321E+04-4.84488E-08-2.67755E-09
 -1       338 2.72016E+02-1.69075E+06-2.84449E+04 1.24764E+04-3.44689E-08-2.23008E-08
 -1       339-3.01856E+04-1.70803E+06-6.42855E+04-2.86297E+04-6.24996E-08 3.25963E-08
 -1       340 1.98789E+04-1.67622E+06-1.01270E+05 1.57711E+04-4.10073E-08 3.81224E-08
 -1       406-4.98828E+01 3.86524E+05 6.44619E+02 3.35534E+00-2.02797E-09 5.98993E-09
 -1       407 1.54797E+02 3.86659E+05 1.37761E+03 2.34393E+01-5.79092E-10-1.56069E-08
 -1       408 6.35196E+02 3.86424E+05 2.74684E+03-2.71142E+01-2.42562E-09 2.26100E-09
 -1       409 2.90889E+03 3.87536E+05 6.19115E+03 2.89489E+02-4.79304E-10-1.79352E-08
 -1       410 8.48580E+03 3.85633E+05 1.26359E+04-2.79170E+02-3.22143E-09 9.16589E-09
 -1       521-3.17249E+07-7.69171E+06-1.00810E+07-9.49808E+04-1.27824E-07-6.26314E-08
 -1       522 2.62097E+07 4.34185E+06 5.62919E+06-1.88180E+07-5.76256E-07-7.62288E-07
 -1       523-7.49246E+06-1.33210E+06-4.29278E+05 5.66805E+06-1.69966E-08-4.04019E-07
 -1       524-6.70401E+06 1.18506E+07 2.48810E+06-2.38021E+07 7.38757E-07-6.36966E-07
 -1       525-1.34486E+07-2.60372E+06-2.27061E+06 5.68336E+06 8.42498E-07-2.64932E-07
 -1       526 4.23048E+07-9.84131E+04 7.68807E+06-1.13915E+07 4.09782E-07-1.00350E-07
 -1       527-3.38866E+07-8.53215E+06-9.89326E+06-4.96923E+06 7.77654E-08-1.98837E-07
 -1       528 4.96857E+07 1.69590E+07 1.11723E+07 2.72753E+07 4.00760E-07-9.31323E-09
 -1       529-1.81218E+07-2.01179E+07-8.65180E+06-1.25828E+07-7.46222E-08 1.63447E-07
 -1       530-4.41422E+06 3.46956E+07 6.01099E+06 9.90362E+06-4.69736E-08 8.83010E-07
 -1       531 1.44312E+06-1.09115E+07-4.00817E+05-2.42796E+06-8.33883E-07 2.96335E-07
 -1       532-1.95971E+07 2.44758E+07 2.46281E+06-1.32428E+07 5.33473E-07-7.18370E-07
 -1       533-1.12513E+06-1.40209E+07-2.20322E+06-4.03663E+06-2.46655E-07-1.03866E-06
 -1       534 5.30292E+06 3.73254E+07 7.37322E+06 1.73004E+07-9.09204E-08 7.93021E-07
 -1       535-2.38579E+07-2.01301E+07-1.13547E+07-1.29278E+07 9.88366E-08 4.62984E-07
 -1       536-7.06065E+05-4.67178E+04-4.82387E+04-5.46932E+04 9.90440E-10 6.96609E-08
 -1       537-5.49502E+04 4.46537E+04 8.38669E+04 1.23863E+05-1.12234E-07 9.80722E-08
 -1       538-3.94387E+05 3.35032E+03 3.53753E+03-7.22089E+04 4.71267E-08 1.22315E-07
 -1       539-2.69031E+05 2.84951E+03 2.49105E+04 1.38750E+05 1.93388E-07 1.20354E-07
 -1       540-4.97361E+05-4.28842E+02-2.13339E+04-7.01152E+04 5.72759E-08 9.91399E-08
 -1       541 1.46756E+05 1.69741E+04 1.06401E+05 9.79358E+04-1.13432E-08 8.76652E-08
 -1       542-7.98971E+05-2.01378E+04-8.42499E+04-3.05195E+04 6.04232E-08 4.30187E-08
 -1       543 4.05449E+05 2.73283E+04 1.57989E+05-1.33666E+04-2.60775E-09-4.69950E-08
 -1       544-7.49116E+05-1.65382E+04-7.48445E+04 4.05174E+04-3.61738E-08-5.29747E-08
 -1       545 2.90126E+04 9.48349E+03 7.98161E+04-1.13636E+05-5.51623E-08-8.45257E-08
 -1       546-4.32645E+05 6.09725E+03-1.22319E+04 6.94034E+04 3.88607E-08-1.00718E-07
 -1       547-2.87118E+05-4.65906E+03 1.05832E+04-1.41598E+05-1.00991E-07-1.25461E-07
 -1       548-4.41484E+05 4.72184E+03-2.38902E+04 6.91703E+04-1.06208E-07-1.11143E-07
 -1       549 4.81990E+04 1.60648E+04 6.05088E+04-1.11496E+05-6.37723E-08-5.53719E-08
 -1       550-7.58989E+05-2.21352E+04-1.29004E+05 3.85857E+04 5.23414E-09-3.04881E-08
 -1       551 4.07928E+04-7.50287E+05-1.59027E+04-1.24714E+06-1.04585E-07-2.38651E-09
 -1       552 9.32732E+04-7.95277E+05 9.91247E+03-1.77825E+06-7.63248E-08 2.51239E-08
 -1       553 7.17728E+04-7.91684E+05 3.20317E+04-1.24049E+06-1.20795E-07 2.01107E-08
 -1       554 1.32073E+05-8.11184E+05 8.10458E+04-1.78020E+06-7.47386E-08 1.83863E-08
 -1       555 1.01518E+05-8.15340E+05 1.48015E+05-1.24032E+06-1.24201E-07-1.11977E-08
 -1       556 2.23813E+05-3.83843E+05 2.56627E+04-4.07366E+05-2.45054E-08-2.04018E-08
 -1       557 3.54414E+05-4.88229E+05 1.61044E+04-5.27852E+05-1.60071E-09-7.87622E-09
 -1       558 2.05566E+05-3.76615E+05 2.30183E+03-4.11825E+05-6.28643E-09 6.74481E-09
 -1       559 3.29391E+05-4.88282E+05 2.43044E+03-5.48318E+05 1.83936E-08 2.91038E-09
 -1       560 1.90248E+05-3.67009E+05-1.51150E+03-4.22863E+05 6.14091E-09 1.84591E-08
 -1       561 3.10146E+05-4.80579E+05 1.27443E+02-5.61441E+05-5.90808E-09 1.17216E-08
 -1       562 1.78137E+05-3.59485E+05-1.32879E+03-4.31634E+05-1.14960E-09-3.52156E-09
 -1       563 2.95761E+05-4.74307E+05-3.72588E+01-5.70836E+05-1.20490E-08-2.80697E-08
 -1       564 1.69493E+05-3.54100E+05-6.00901E+02-4.37759E+05 3.88536E-09 2.02394E-08
 -1       565 2.86219E+05-4.70152E+05 2.51117E+01-5.76932E+05-3.66708E-09 1.04046E-08
 -1       566 1.64441E+05-3.50904E+05-2.57691E+02-4.41293E+05-1.47629E-08-2.67937E-09
 -1       567 2.81583E+05-4.68134E+05-3.57113E+02-5.79748E+05 1.15106E-08 5.22050E-09
 -1       568 1.63070E+05-3.50064E+05-1.11510E+03-4.42347E+05-2.73667E-09 1.57270E-08
 -1       569 2.80468E+05-4.68055E+05-2.81821E+03-5.78318E+05-1.16306E-08 2.50657E-09
 -1       570 1.66470E+05-3.53292E+05-6.16848E+03-4.41331E+05 5.76256E-09-1.00217E-08
 -1       571 2.90782E+05 1.05015E+04 1.49782E+04-9.55253E+04 3.23689E-09-2.42289E-09
 -1       572 2.92952E+05 3.96015E+03 7.34056E+03-1.04800E+05 1.08412E-09 7.25959E-09
 -1       573 2.91643E+05 1.24760E+03 3.26165E+03-9.53477E+04-3.57613E-09 5.67525E-10
 -1       574 2.91856E+05 7.29971E+02 1.63572E+03-1.05025E+05 1.55296E-10-1.88629E-08
 -1       575 2.91736E+05 4.50772E+02 7.72034E+02-9.53234E+04-2.20067E-08 4.39286E-09
 -1       576 2.91720E+05 4.62495E+02 3.95321E+02-1.05055E+05-4.53497E-08 6.84395E-09
 -1       577 2.91776E+05 3.92770E+02 1.97412E+02-9.53200E+04-4.03534E-08 6.29825E-09
 -1       578 2.91750E+05 4.24403E+02 1.14169E+02-1.05060E+05-4.12110E-08 1.83263E-08
 -1       579 2.91848E+05 3.55935E+02 7.86241E+01-9.53197E+04-9.75888E-09-1.56542E-08
 -1       580 2.91853E+05 3.73147E+02 9.15560E+01-1.05055E+05-8.21365E-09 2.17460E-09
 -1       581 2.91963E+05 2.97087E+02 1.38579E+02-9.53256E+04 9.90258E-09 3.19569E-08
 -1       582 2.92029E+05 3.35753E+02 2.81902E+02-1.04993E+05 1.59098E-08 7.05768E-09
 -1       583 2.92104E+05 3.40281E+02 5.41222E+02-9.53823E+04 9.26229E-09-2.84035E-09
 -1       584 2.92407E+05 7.82364E+02 1.22472E+03-1.04515E+05 7.79983E-09-1.20149E-08
 -1       585 2.92129E+05 1.81329E+03 2.48010E+03-9.58025E+04 8.29459E-10 5.42423E-09
 -1       586-3.44713E+03 1.17032E+05-2.94077E+03-2.51576E+05-6.52744E-09-2.53635E-09
 -1       587-1.34800E+03 1.16780E+05 7.67642E+02-2.76877E+05-5.84259E-09 2.09208E-08
 -1       588 3.98361E+02 1.16587E+05 4.77377E+03-2.51437E+05-6.74845E-10 2.48219E-08
 -1       589 5.10229E+03 1.19069E+05 1.23874E+04-2.76644E+05-6.60475E-09-2.77687E-08
 -1       590 1.66681E+04 1.15249E+05 2.59873E+04-2.51869E+05-4.51837E-09-1.52613E-09
 -1       591-7.37625E+04-1.58300E+04-2.24397E+04-3.15529E+04-3.49928E-10-1.34651E-08
 -1       592-7.78128E+04-1.93963E+04-1.21551E+04-3.51901E+04-6.05160E-09-1.11527E-10
 -1       593-7.60071E+04-1.42013E+04-5.05958E+03-3.31978E+04 5.06866E-10-3.63525E-09
 -1       594-7.47142E+04-1.61039E+04-2.52334E+03-3.53079E+04-5.94525E-10 1.21901E-10
 -1       595-7.61783E+04-1.41959E+04-1.15848E+03-3.32726E+04-1.21162E-09 2.02831E-08
 -1       596-7.45021E+04-1.59534E+04-5.88730E+02-3.52827E+04 7.57086E-09 3.33320E-08
 -1       597-7.61997E+04-1.42113E+04-3.20184E+02-3.32754E+04-3.28532E-09-1.37277E-09
 -1       598-7.44811E+04-1.59474E+04-2.56663E+02-3.52757E+04-5.52438E-09-1.84863E-08
 -1       599-7.61985E+04-1.42118E+04-3.26949E+02-3.32750E+04 5.80110E-09-8.72819E-09
 -1       600-7.45021E+04-1.59539E+04-6.06640E+02-3.52806E+04 3.30289E-09 2.60911E-09
 -1       601-7.61739E+04-1.41973E+04-1.19639E+03-3.32716E+04 5.62068E-09 8.05539E-09
 -1       602-7.47211E+04-1.61083E+04-2.60722E+03-3.53028E+04 3.56340E-09-1.24088E-08
 -1       603-7.59944E+04-1.42058E+04-5.22845E+03-3.31951E+04-3.79782E-09-2.19225E-08
 -1       604-7.79405E+04-1.94911E+04-1.25599E+04-3.51565E+04 3.07193E-09 6.99401E-09
 -1       605-7.36551E+04-1.59064E+04-2.31872E+04-3.15146E+04 4.32402E-09 1.23782E-08
 -1       606 2.67124E+04-1.43334E+04-2.56944E+04 2.39928E+04 7.02494E-09 1.96906E-10
 -1       607 2.23221E+04-4.68146E+03-1.27957E+04 2.69629E+04 4.63479E-09-1.98936E-08
 -1       608 2.48242E+04-8.44721E+02-5.72822E+03 2.38241E+04-2.29375E-09 4.25302E-09
 -1       609 2.43446E+04-2.89578E+02-2.89375E+03 2.71770E+04 2.38379E-09 3.95630E-09
 -1       610 2.46106E+04-4.12282E+01-1.38064E+03 2.38041E+04 6.52199E-09-1.47572E-08
 -1       611 2.45353E+04-4.15269E+01-6.96109E+02 2.72001E+04 8.64884E-09 3.67731E-09
 -1       612 2.45635E+04-2.75166E+01-3.30917E+02 2.38020E+04 1.02773E-09-8.12634E-10
 -1       613 2.45469E+04-3.74360E+01-1.48268E+02 2.72029E+04 3.23598E-09-1.97117E-08
 -1       614 2.45413E+04-3.39383E+01-3.47088E+01 2.38013E+04 1.70712E-09 1.58041E-08
 -1       615 2.45416E+04-3.59471E+01 6.22851E+01 2.72033E+04-2.20416E-09 7.89532E-09
 -1       616 2.45239E+04-3.08147E+01 1.86642E+02 2.38016E+04-6.73481E-10-2.49536E-08
 -1       617 2.45641E+04 3.82587E+00 4.25780E+02 2.72028E+04 3.17414E-10-2.32349E-08
 -1       618 2.44869E+04 9.19288E+01 8.58209E+02 2.38019E+04 1.66619E-09 7.29392E-09
 -1       619 2.48670E+04 6.67393E+02 1.92716E+03 2.72022E+04-4.35648E-10 1.84409E-08
 -1       620 2.42019E+04 2.12697E+03 3.87354E+03 2.38035E+04 9.21887E-10-1.23468E-08
 -1       621 5.06729E+02 3.01129E+05 3.84031E+03 4.15437E+04 9.33596E-10-3.04572E-08
 -1       622 6.74001E+02 3.02013E+05 3.41419E+03 6.03163E+04 9.48603E-10-2.66009E-08
 -1       623 1.44767E+02 3.01319E+05 4.10967E+03 4.13566E+04 1.33855E-09 9.16498E-09
 -1       624 2.11666E+03 3.03223E+05 7.97301E+03 6.04994E+04 1.33423E-09-3.77531E-09
 -1       625 2.06673E+03 2.99736E+05 1.39351E+04 4.13544E+04 1.07138E-09-8.77412E-09
 -1       626 2.60865E+05 6.13982E+04 5.10987E+03 1.26728E+05-1.77215E-09-1.16061E-08
 -1       627 2.58547E+05 6.27976E+04 2.46241E+03 1.30999E+05 1.08048E-09-2.96313E-09
 -1       628 2.60993E+05 5.90600E+04 1.04142E+03 1.27597E+05-1.45692E-08 4.77894E-09
 -1       629 2.57912E+05 6.21192E+04 5.09731E+02 1.31239E+05-1.40212E-08 2.66940E-08
 -1       630 2.61007E+05 5.89470E+04 2.36565E+02 1.27633E+05-2.68847E-09 2.29445E-08
 -1       631 2.57846E+05 6.20934E+04 1.27462E+02 1.31240E+05 8.30528E-09 2.86200E-08
 -1       632 2.61004E+05 5.89510E+04 8.41554E+01 1.27629E+05 1.57479E-09-1.78677E-08
 -1       633 2.57837E+05 6.20952E+04 9.41796E+01 1.31237E+05-4.25007E-09-1.17648E-08
 -1       634 2.60999E+05 5.89481E+04 1.52579E+02 1.27629E+05-3.35774E-09 1.62927E-08
 -1       635 2.57852E+05 6.20934E+04 3.08978E+02 1.31242E+05-8.48962E-09 2.98814E-09
 -1       636 2.60990E+05 5.89423E+04 6.24102E+02 1.27628E+05 3.09501E-09 1.19417E-08
 -1       637 2.57987E+05 6.21905E+04 1.37232E+03 1.31242E+05-2.91584E-09-1.07957E-08
 -1       638 2.60942E+05 5.92454E+04 2.81962E+03 1.27492E+05 4.37331E-09-2.29315E-08
 -1       639 2.59468E+05 6.42506E+04 6.67137E+03 1.30806E+05 5.33873E-09-7.25413E-09
 -1       640 2.60737E+05 6.53968E+04 1.38443E+04 1.24900E+05 5.88989E-09-7.74799E-09
 -1       656 6.65880E+04-1.70413E+06-1.60739E+05-2.56491E+03-5.45697E-10-6.01375E-09
 -1       657-8.80898E+04-1.77676E+06-1.33162E+05 5.15980E+03-6.90306E-10-1.32164E-08
 -1       658 2.12256E+04-1.72476E+06-8.20106E+04-4.64933E+03-4.91127E-11-4.49631E-10
 -1       659-9.52539E+04-1.78017E+06-1.42577E+05 6.89123E+03-1.68802E-09 1.71829E-08
 -1       660 7.37362E+04-1.70074E+06-1.76926E+05-4.29632E+03-1.73168E-09 1.55454E-08
 -1       661 1.58701E+05 1.66070E+04 1.67276E+04 6.20383E+04 1.50067E-10-5.51699E-09
 -1       662 1.68157E+05 2.89962E+04 1.12732E+04 5.82870E+04 1.69757E-09 3.74609E-09
 -1       663 1.61987E+05 2.19735E+04 3.94267E+03 6.10847E+04 4.89308E-10 6.83121E-09
 -1       664 1.64347E+05 2.27205E+04 2.35853E+03 5.94518E+04 1.01991E-09-4.54574E-09
 -1       665 1.62485E+05 2.27064E+04 9.30424E+02 6.09392E+04 2.77254E-09-2.54460E-10
 -1       666 1.63757E+05 2.18824E+04 5.44624E+02 5.96416E+04 8.40259E-09 3.64845E-08
 -1       667 1.62573E+05 2.27898E+04 2.89464E+02 6.09028E+04-9.25723E-10 1.05650E-08
 -1       668 1.63661E+05 2.18225E+04 2.95374E+02 5.96946E+04-6.68223E-09-2.33858E-08
 -1       669 1.62581E+05 2.27646E+04 4.00245E+02 6.08865E+04-1.97392E-09-5.89426E-09
 -1       670 1.63758E+05 2.20399E+04 8.71869E+02 5.96975E+04-9.82080E-09 3.39071E-10
 -1       671 1.62475E+05 2.25769E+04 1.54818E+03 6.08978E+04-2.39898E-09-8.29056E-09
 -1       672 1.64661E+05 2.35461E+04 3.96107E+03 5.94789E+04 6.26991E-09 6.84622E-09
 -1       673 1.61683E+05 2.12965E+04 6.63815E+03 6.10905E+04 1.37834E-09 2.28060E-08
 -1       674 1.70978E+05 3.42111E+04 1.89837E+04 5.76229E+04-3.24064E-09 5.98084E-09
 -1       675 1.56198E+05 1.22106E+04 2.81785E+04 6.26418E+04-1.67847E-09 3.27054E-09
 -1       676 2.41188E+01-2.95944E+05-1.11377E+03-1.37709E+02-5.49960E-11-6.42721E-10
 -1       677-2.94612E+02-2.96214E+05-2.03838E+03 2.75196E+02 1.10103E-08-1.41029E-08
 -1       678 1.97605E+02-2.95752E+05-3.60336E+03-1.37397E+02 1.49726E-09-1.77189E-09
 -1       679-3.60341E+03-2.98389E+05-8.56008E+03 2.74008E+02 8.12338E-09 1.21091E-08
 -1       680 2.15145E+03-2.93770E+05-1.37959E+04-1.35002E+02 2.42835E-09-1.34384E-09
 -1       771-3.06267E+06-7.47534E+05-1.66064E+05-1.46624E+06-3.45171E-08-2.70084E-08
 -1       772-2.98551E+06-8.36436E+05-8.56176E+04-1.56903E+06-2.42144E-08 1.03464E-08
 -1       773-3.09420E+06-7.22956E+05-4.36462E+04-1.48080E+06-1.59780E-08 1.36206E-08
 -1       774-2.97598E+06-8.17888E+05-1.94727E+04-1.59482E+06 1.30967E-08-4.27463E-09
 -1       775-3.11066E+06-7.11404E+05-1.45664E+04-1.48787E+06-6.28643E-09 2.85945E-09
 -1       776-2.98835E+06-8.14846E+05-5.44718E+03-1.61434E+06-2.27446E-08 2.49929E-09
 -1       777-3.12495E+06-7.01092E+05-6.43625E+03-1.49410E+06 4.56930E-09 3.44153E-09
 -1       778-3.00126E+06-8.12018E+05-1.81973E+03-1.63111E+06 4.58385E-09 4.03816E-09
 -1       779-3.13724E+06-6.92080E+05-3.21650E+03-1.49942E+06-2.56114E-09-7.05404E-09
 -1       780-3.01263E+06-8.09319E+05-5.33434E+02-1.64477E+06-3.73984E-09-9.04765E-09
 -1       781-3.14700E+06-6.84816E+05-1.24966E+03-1.50359E+06-2.38651E-08-2.62116E-09
 -1       782-3.02139E+06-8.07028E+05 4.50357E+02-1.65485E+06-3.06245E-08-6.69343E-09
 -1       783-3.15388E+06-6.79767E+05 7.01015E+02-1.50650E+06-1.08048E-08-1.59848E-08
 -1       784-3.02625E+06-8.04739E+05 2.90613E+03-1.66108E+06-1.97761E-08 1.34605E-10
 -1       785-3.15795E+06-6.76756E+05 5.13027E+03-1.50835E+06-3.77986E-08 7.47605E-09
 -1       786 1.28845E+05-1.00268E+04 2.31209E+04-3.27489E+02 3.76296E-05 1.02803E-07
 -1       787 1.38889E+05 1.16066E+04 1.63699E+04-1.68812E+02 7.51603E-05 1.42117E-07
 -1       788 1.32716E+05-1.57590E+03 5.98146E+03-2.82610E+02 5.60903E-05 9.28194E-08
 -1       789 1.34378E+05 1.82387E+03 3.75923E+03-2.28598E+02 3.69772E-05 7.03897E-08
 -1       790 1.33356E+05-2.46137E+02 1.52085E+03-2.67708E+02 2.61895E-05 4.73569E-08
 -1       791 1.33629E+05 2.84919E+02 8.80094E+02-2.49516E+02 1.54134E-05 4.25565E-08
 -1       792 1.33465E+05-3.72278E+01 3.74193E+02-2.61692E+02 1.20617E-05 8.58417E-09
 -1       793 1.33500E+05 4.01501E+01 1.90126E+02-2.59413E+02 8.71574E-06 2.66907E-08
 -1       794 1.33486E+05-1.40378E+00 5.63955E+01-2.57811E+02 9.13118E-06 1.64621E-08
 -1       795 1.33465E+05-2.23378E+01-4.05549E+01-2.68958E+02 9.53699E-06 5.04671E-08
 -1       796 1.33500E+05 2.52533E+01-1.34266E+02-2.52147E+02 1.16603E-05 3.27690E-08
 -1       797 1.33383E+05-1.87940E+02-3.78160E+02-2.87686E+02 1.37734E-05 3.72718E-08
 -1       798 1.33567E+05 1.64170E+02-6.15781E+02-2.39083E+02 1.43333E-05 1.27426E-09
 -1       799 1.32916E+05-1.20491E+03-1.69744E+03-3.34360E+02 1.48832E-05 1.68224E-08
 -1       800 1.33967E+05 1.04202E+03-2.40187E+03-2.05474E+02 7.42853E-06-1.12182E-08
 -1       801-1.71408E+05-1.00004E+07-1.39384E+06 1.41608E+06 9.24047E-08-4.93237E-08
 -1       802 7.38721E+05 5.95441E+06 2.18278E+06-1.74817E+06 2.59897E-07-3.41715E-08
 -1       803-5.36888E+05-1.42714E+07-1.89132E+06 8.98591E+05 7.75544E-08 1.36642E-08
 -1       804 2.87395E+05 2.39792E+06 1.53803E+06 6.77401E+05-1.20508E-07-1.07277E-07
 -1       805 1.89374E+05-6.45798E+06-2.86456E+05-1.00382E+06-5.01750E-08-7.04285E-08
 -1       806-3.08431E+05-5.97860E+04-2.27469E+04-1.22429E+05-2.80716E-09-1.82827E-08
 -1       807-3.10190E+05-5.61031E+04-1.11753E+04-1.27984E+05 1.51726E-08-3.38102E-09
 -1       808-3.09056E+05-5.15875E+04-4.74092E+03-1.26304E+05-2.37605E-09-1.52954E-09
 -1       809-3.07840E+05-5.29637E+04-2.31820E+03-1.28259E+05-1.26540E-08-2.62241E-09
 -1       810-3.09150E+05-5.13021E+04-1.06257E+03-1.26475E+05 2.94904E-09-2.93721E-09
 -1       811-3.07658E+05-5.28377E+04-5.28466E+02-1.28224E+05 5.08953E-09 5.71754E-09
 -1       812-3.09164E+05-5.13267E+04-2.67415E+02-1.26474E+05-7.11952E-09-1.75100E-08
 -1       813-3.07633E+05-5.28399E+04-1.74050E+02-1.28205E+05-1.12123E-08-1.31508E-08
 -1       814-3.09157E+05-5.13365E+04-1.72896E+02-1.26470E+05-1.70803E-09-2.84354E-09
 -1       815-3.07636E+05-5.28422E+04-2.78951E+02-1.28197E+05 1.84855E-09-5.31713E-09
 -1       816-3.09136E+05-5.13357E+04-5.28954E+02-1.26466E+05 6.73845E-09 1.05933E-08
 -1       817-3.07726E+05-5.28927E+04-1.13530E+03-1.28185E+05-9.25411E-09 1.76108E-08
 -1       818-3.09067E+05-5.14961E+04-2.31568E+03-1.26391E+05-1.95996E-09-3.76576E-09
 -1       819-3.08994E+05-5.42910E+04-5.44860E+03-1.27884E+05 3.70073E-09 3.18482E-09
 -1       820-3.08629E+05-5.56129E+04-1.10899E+04-1.24634E+05 3.03226E-09-1.21731E-08
 -1       821-3.80569E+05 2.09403E+04-4.87984E+04 2.22530E+03 1.44202E-08 1.20854E-08
 -1       822-4.00125E+05-2.42612E+04-3.42528E+04-4.77705E+03 5.06484E-09-8.91714E-09
 -1       823-3.87960E+05 3.30395E+03-1.25995E+04 3.66515E+03-1.27950E-08 2.21053E-09
 -1       824-3.91167E+05-3.80887E+03-7.88012E+03-5.81545E+03 2.56087E-09 1.89957E-08
 -1       825-3.89537E+05 5.14018E+02-3.30694E+03 3.26384E+03 2.20662E-08 1.24327E-08
 -1       826-3.88604E+05-5.64732E+02-1.72100E+03-3.40670E+03 2.64084E-08-2.00319E-08
 -1       827-3.90495E+05 4.05828E+01-1.21996E+03 1.25623E+03 1.37297E-08-1.01970E-08
 -1       828-3.87805E+05-1.23718E+02-5.39568E+02 1.10291E+03-2.57710E-09-7.11731E-09
 -1       829-3.90320E+05 6.09616E+01-1.20532E+03-1.24579E+03 2.05458E-09 1.06149E-08
 -1       830-3.88980E+05-6.21451E+02-1.86270E+03 5.20414E+03 2.90146E-09 2.24842E-08
 -1       831-3.89346E+05 5.58534E+02-3.38196E+03-2.84501E+03-6.20401E-09-1.22047E-08
 -1       832-3.91243E+05-3.97257E+03-8.17298E+03 6.61194E+03-4.74741E-09-1.62518E-08
 -1       833-3.88076E+05 3.42372E+03-1.30904E+04-2.65365E+03-2.01013E-09 2.72939E-09
 -1       834-4.00142E+05-2.51439E+04-3.54265E+04 4.50630E+03-3.78049E-09-4.22779E-09
 -1       835-3.80427E+05 2.16945E+04-5.06103E+04-7.39274E+02 4.38473E-09-1.28421E-09
 -1       836-1.41360E+03 3.70404E+05 2.28618E+04-1.67515E+04-6.90579E-09 2.06974E-08
 -1       837 4.87006E+03 3.77566E+05 1.93537E+04-3.42159E+04-7.50111E-09 1.06781E-08
 -1       838-5.59350E+02 3.72409E+05 1.97303E+04-1.66783E+04-6.58611E-09 1.11256E-08
 -1       839 1.24184E+04 3.83186E+05 3.73349E+04-3.42685E+04-6.94126E-09 2.56200E-08
 -1       840-3.84223E+03 3.64722E+05 5.95403E+04-1.67048E+04-6.03541E-09-1.59116E-08
 -1       856-5.23375E+04 8.02889E+03-2.11578E+04-3.97313E+02 4.01178E-09-1.29085E-08
 -1       857-6.10540E+04-9.43372E+03-1.45649E+04 5.63561E+03 3.66092E-09-4.49745E-10
 -1       858-5.57895E+04 1.12597E+03-5.48995E+03-4.21476E+02 1.53460E-09 6.82394E-09
 -1       859-5.70925E+04-1.32470E+03-3.31293E+03 5.67155E+03-6.43871E-09 7.18092E-09
 -1       860-5.63052E+04 1.57693E+02-1.38845E+03-4.32989E+02-1.68058E-09 4.72994E-10
 -1       861-5.64993E+04-1.88290E+02-7.63814E+02 5.68724E+03-1.50106E-09-9.58391E-09
 -1       862-5.63859E+04 2.13668E+01-3.17506E+02-4.37136E+02-2.62364E-09-1.99964E-09
 -1       863-5.64004E+04-2.19141E+01-1.15654E+02 5.68964E+03-7.08729E-09-5.69635E-09
 -1       864-5.64046E+04-4.89728E+00 4.72346E+01-4.35396E+02-1.04660E-09-1.21499E-08
 -1       865-5.63446E+04 5.96064E+01 2.55398E+02 5.67971E+03-4.06061E-09-5.87048E-09
 -1       866-5.64395E+04-6.01731E+01 5.14697E+02-4.27206E+02 1.72651E-09-2.08969E-08
 -1       867-5.61025E+04 4.96866E+02 1.26688E+03 5.65748E+03 1.76999E-09-2.91678E-08
 -1       868-5.66417E+04-4.34267E+02 2.10517E+03-4.13159E+02-2.77868E-09-1.75237E-09
 -1       869-5.45592E+04 3.61418E+03 5.60537E+03 5.62090E+03 2.77555E-09-2.53265E-08
 -1       870-5.79751E+04-3.09282E+03 8.13464E+03-3.90522E+02-4.50279E-09-1.56979E-09
 -1       871-5.51790E+03-2.13611E+04-1.94910E+04 1.30403E+05-5.56611E-09-5.91535E-09
 -1       872-1.98146E+03-2.58934E+04-8.16154E+03 1.69087E+05-1.22945E-08-1.84173E-08
 -1       873 4.05777E+02-2.37011E+04 5.89303E+02 1.30116E+05-5.63250E-09-1.68941E-08
 -1       874 3.30660E+03-2.12907E+04 9.77834E+03 1.69117E+05-1.25101E-08 3.62070E-09
 -1       875 6.84649E+03-2.60306E+04 2.20596E+04 1.30355E+05-5.15865E-09-1.06111E-08
 -1       876 2.93758E+05 4.95112E+04 1.51016E+04 1.17887E+05 4.01121E-09-1.60635E-08
 -1       877 2.94756E+05 5.26924E+04 8.06484E+03 1.22220E+05 1.41176E-08 2.25793E-09
 -1       878 2.95171E+05 4.78383E+04 3.37877E+03 1.19124E+05-6.06224E-09-7.20411E-09
 -1       879 2.92703E+05 5.06438E+04 1.68351E+03 1.22322E+05 7.52038E-09 1.29201E-08
 -1       880 2.95272E+05 4.78210E+04 7.84158E+02 1.19174E+05-5.13342E-09-1.16466E-09
 -1       881 2.92567E+05 5.05561E+04 4.18771E+02 1.22298E+05-8.80402E-09 2.23127E-09
 -1       882 2.95281E+05 4.78343E+04 2.67934E+02 1.19176E+05-3.65799E-09-2.91993E-09
 -1       883 2.92557E+05 5.05516E+04 2.88089E+02 1.22291E+05-1.63254E-09-9.39916E-09
 -1       884 2.95274E+05 4.78315E+04 4.58325E+02 1.19176E+05-5.42582E-09 5.23073E-10
 -1       885 2.92594E+05 5.05579E+04 9.21514E+02 1.22302E+05-1.17577E-08 2.15138E-08
 -1       886 2.95238E+05 4.78046E+04 1.85728E+03 1.19173E+05-5.56200E-09 2.38144E-08
 -1       887 2.92920E+05 5.07719E+04 4.05698E+03 1.22349E+05 8.34461E-10 8.57119E-09
 -1       888 2.94982E+05 4.78498E+04 8.17493E+03 1.19043E+05-2.53135E-09-4.88762E-09
 -1       889 2.97787E+05 5.58331E+04 1.95284E+04 1.22200E+05-1.59572E-09-6.76664E-09
 -1       890 2.91645E+05 5.18133E+04 3.65762E+04 1.15932E+05-3.05863E-09 6.99038E-09
 -1       891-8.91495E+01-1.62773E+05-1.99640E+03 2.71556E+04-2.22235E-09-1.48868E-08
 -1       892-1.75060E+02-1.63301E+05-2.14417E+03 4.12376E+04 3.41061E-09-2.81489E-10
 -1       893 4.38925E+01-1.62837E+05-3.03590E+03 2.71630E+04-1.39721E-09 5.34192E-09
 -1       894-1.50978E+03-1.64448E+05-6.28317E+03 4.10850E+04 2.73599E-09-3.89264E-09
 -1       895-1.19908E+03-1.61528E+05-1.10646E+04 2.73100E+04-4.94651E-10-1.71167E-09
 -1       956-3.77189E+05-5.45682E+03-1.34704E+04 3.08770E+04 1.27075E-08-4.87557E-09
 -1       957-3.79832E+05-1.92497E+03-6.91414E+03 3.71057E+04 3.82352E-09-1.01327E-08
 -1       958-3.78400E+05-2.41222E+02-3.11573E+03 3.07092E+04-3.73166E-09-5.36875E-09
 -1       959-3.78596E+05-1.36404E+02-1.59093E+03 3.73015E+04 3.54203E-09 1.46149E-08
 -1       960-3.78518E+05-4.48393E+01-7.75806E+02 3.06919E+04 1.43427E-08 9.67111E-09
 -1       961-3.78516E+05-6.32614E+01-4.11298E+02 3.73220E+04 2.30557E-08-8.83210E-09
 -1       962-3.78546E+05-4.60535E+01-2.35433E+02 3.06890E+04 5.87261E-09-1.96928E-09
 -1       963-3.78516E+05-5.90515E+01-1.88915E+02 3.73257E+04 5.38546E-09-1.51658E-09
 -1       964-3.78551E+05-4.26878E+01-2.29638E+02 3.06882E+04-1.88970E-09 2.07174E-08
 -1       965-3.78529E+05-5.60785E+01-3.97099E+02 3.73250E+04-1.52877E-08 2.49031E-08
 -1       966-3.78535E+05-3.48399E+01-7.46093E+02 3.06897E+04-6.36646E-11 1.27891E-08
 -1       967-3.78618E+05-1.19609E+02-1.53020E+03 3.73106E+04 6.63931E-10 9.71204E-09
 -1       968-3.78431E+05-2.17309E+02-2.99557E+03 3.07024E+04 1.00135E-09-2.01055E-08
 -1       969-3.79819E+05-1.83426E+03-6.65008E+03 3.71622E+04 4.09273E-09-2.96569E-08
 -1       970-3.77275E+05-5.22974E+03-1.29547E+04 3.08296E+04-8.04903E-10 1.59007E-08
 -1       971-3.45386E+05-1.72762E+03-9.31056E+03 1.53805E+04 5.72163E-09-1.34368E-08
 -1       972-3.47627E+05-1.27190E+03-5.07044E+03 2.12710E+04 8.07768E-09-7.65567E-09
 -1       973-3.46423E+05-6.20678E+01-2.27110E+03 1.52593E+04 2.34286E-09-1.62674E-08
 -1       974-3.46558E+05-8.11256E+01-1.17726E+03 2.14081E+04-4.59931E-09 1.92407E-08
 -1       975-3.46505E+05-1.71885E+01-5.88936E+02 1.52470E+04-4.44743E-10-4.96914E-09
 -1       976-3.46497E+05-3.12776E+01-3.40616E+02 2.14239E+04 4.04179E-09-2.01842E-08
 -1       977-3.46522E+05-1.64420E+01-2.48722E+02 1.52436E+04-5.33828E-09 6.04132E-10
 -1       978-3.46502E+05-2.50519E+01-2.93113E+02 2.14288E+04-7.36577E-09 7.60485E-09
 -1       979-3.46522E+05-7.96368E+00-4.72707E+02 1.52422E+04-9.25922E-10 8.28788E-09
 -1       980-3.46538E+05-2.19907E+01-9.13847E+02 2.14298E+04-6.51532E-09-1.96162E-08
 -1       981-3.46492E+05 1.48778E+01-1.77049E+03 1.52427E+04-2.93653E-09-1.05649E-08
 -1       982-3.46781E+05-1.52811E+02-3.65989E+03 2.14231E+04-1.19144E-10-1.83267E-08
 -1       983-3.46269E+05-9.84924E+01-7.11136E+03 1.52487E+04 3.05135E-10-1.34287E-08
 -1       984-3.50201E+05-3.86687E+03-1.59257E+04 2.13375E+04 8.24912E-10 1.65801E-08
 -1       985-3.43050E+05-5.30214E+03-2.92445E+04 1.53201E+04-4.43197E-09 5.18412E-10
 -3
    1PSTEP                        31          16           1          
  100CL  116 6.63036E-01         409                     0   16           1
 -4  DISP        4    1
 -5  D1          1    2    1    0
 -5  D2          1    2    2    0
 -5  D3          1    2    3    0
 -5  ALL         1    2    0    0    1ALL
 -1         1 2.72350E-03 0.00000E+00 0.00000E+00
 -1         2 1.34105E-03-7.15901E-28 0.00000E+00
 -1         3 3.42766E-04-5.80938E-28 1.32349E-23
 -1         5 1.77159E-04-1.78965E-27-8.27181E-25
 -1         8 2.71270E-03-4.03628E-07 0.00000E+00
 -1         9 2.70601E-03-1.95842E-04 0.00000E+00
 -1        10 3.10803E-04-3.40054E-06-6.61744E-24
 -1        12 1.79008E-04 8.09533E-07-8.27181E-25
 -1        15 2.70036E-03-4.27040E-07-1.03398E-25
 -1        16 2.77416E-03-1.97691E-04 0.00000E+00
 -1        17 2.11516E-04-7.75632E-06 0.00000E+00
 -1        18 1.82961E-04 3.44437E-05 0.00000E+00
 -1        19 1.84556E-04 1.61264E-06 0.00000E+00
 -1        20 1.84695E-04-9.88875E-06 0.00000E+00
 -1        21 1.83803E-04-2.54208E-05 3.30872E-24
 -1        24 3.06140E-05-1.19808E-05 0.00000E+00
 -1        25 1.93735E-04 3.46696E-05 0.00000E+00
 -1        26 1.94444E-04 2.23208E-06 0.00000E+00
 -1        27 1.92228E-04-1.34474E-05 0.00000E+00
 -1        28 1.91911E-04-2.60430E-05 0.00000E+00
 -1        32 0.00000E+00 0.00000E+00 0.00000E+00
 -1        33 2.03295E-04 2.98626E-06 0.00000E+00
 -1        34 2.01177E-04-1.35036E-05 0.00000E+00
 -1        35 1.99244E-04-2.63855E-05 0.00000E+00
 -1        51 2.72277E-03-8.47498E-08 3.30872E-24
 -1        52 2.72145E-03-1.51067E-07 0.00000E+00
 -1        53 2.71965E-03-2.13897E-07 0.00000E+00
 -1        54 2.71750E-03-2.75474E-07 0.00000E+00
 -1        55 2.71514E-03-3.37562E-07-1.65436E-24
 -1        56 2.71561E-03 8.97005E-06 0.00000E+00
 -1        57 2.69997E-03 3.70177E-05 0.00000E+00
 -1        58 2.67894E-03 7.81585E-05 1.05879E-22
 -1        59 2.65538E-03 1.25162E-04-5.29396E-23
 -1        60 2.63282E-03 1.69791E-04 0.00000E+00
 -1        61 2.61465E-03 2.04003E-04 5.29396E-23
 -1        62 2.60317E-03 2.21612E-04-1.05879E-22
 -1        63 2.59989E-03 2.17914E-04-5.29396E-23
 -1        64 2.60457E-03 1.92118E-04 0.00000E+00
 -1        65 2.61628E-03 1.45533E-04 5.29396E-23
 -1        66 2.63296E-03 8.34206E-05 1.05879E-22
 -1        67 2.65233E-03 1.25768E-05 5.29396E-23
 -1        68 2.67176E-03-5.85032E-05 1.05879E-22
 -1        69 2.68869E-03-1.21294E-04 0.00000E+00
 -1        70 2.70075E-03-1.68888E-04 5.29396E-23
 -1        86 1.42688E-03-6.18270E-06 5.29396E-23
 -1        87 1.67513E-03-3.89011E-05 2.64698E-23
 -1        88 2.00894E-03-9.51566E-05-2.64698E-23
 -1        89 2.34729E-03-1.52981E-04 0.00000E+00
 -1        90 2.60653E-03-1.88369E-04 0.00000E+00
 -1       121 3.41868E-04-5.49011E-07 0.00000E+00
 -1       122 3.39179E-04-1.10111E-06-6.61744E-24
 -1       123 3.34708E-04-1.65934E-06 0.00000E+00
 -1       124 3.28472E-04-2.22675E-06 0.00000E+00
 -1       125 3.20494E-04-2.80598E-06 0.00000E+00
 -1       191 1.77210E-04 1.34986E-07 8.27181E-25
 -1       192 1.77364E-04 2.69961E-07 1.65436E-24
 -1       193 1.77621E-04 4.04915E-07 2.48154E-24
 -1       194 1.77980E-04 5.39837E-07 0.00000E+00
 -1       195 1.78443E-04 6.74714E-07-3.30872E-24
 -1       251 2.71240E-03 1.63030E-06-6.61744E-24
 -1       252 2.71209E-03 3.52479E-06 3.30872E-24
 -1       253 2.71179E-03 4.28783E-06-6.61744E-24
 -1       254 2.71149E-03 2.94141E-06 0.00000E+00
 -1       255 2.71117E-03-1.17383E-06 6.61744E-24
 -1       256 2.71084E-03-8.68277E-06 3.30872E-24
 -1       257 2.71048E-03-1.96980E-05 0.00000E+00
 -1       258 2.71007E-03-3.42882E-05 0.00000E+00
 -1       259 2.70962E-03-5.19833E-05 6.61744E-24
 -1       260 2.70911E-03-7.22737E-05 0.00000E+00
 -1       261 2.70858E-03-9.42582E-05 0.00000E+00
 -1       262 2.70802E-03-1.17015E-04 6.61744E-24
 -1       263 2.70748E-03-1.39506E-04 1.32349E-23
 -1       264 2.70695E-03-1.60694E-04 0.00000E+00
 -1       265 2.70647E-03-1.79744E-04 0.00000E+00
 -1       266 2.71064E-03-4.13137E-07 1.65436E-24
 -1       267 2.70858E-03-4.16356E-07 0.00000E+00
 -1       268 2.70653E-03-4.19973E-07 0.00000E+00
 -1       269 2.70447E-03-4.22409E-07 0.00000E+00
 -1       270 2.70241E-03-4.24819E-07 0.00000E+00
 -1       271 2.71187E-03 4.82920E-08 0.00000E+00
 -1       272 2.71201E-03-2.16612E-06-6.61744E-24
 -1       273 2.71309E-03-6.88792E-06-1.32349E-23
 -1       274 2.71502E-03-1.39457E-05 0.00000E+00
 -1       275 2.71774E-03-2.31471E-05 0.00000E+00
 -1       276 2.72117E-03-3.42843E-05-1.32349E-23
 -1       277 2.72521E-03-4.71332E-05 0.00000E+00
 -1       278 2.72979E-03-6.14564E-05 0.00000E+00
 -1       279 2.73480E-03-7.70049E-05 0.00000E+00
 -1       280 2.74016E-03-9.35197E-05 6.61744E-24
 -1       281 2.74578E-03-1.10734E-04 0.00000E+00
 -1       282 2.75154E-03-1.28375E-04-6.61744E-24
 -1       283 2.75736E-03-1.46168E-04-1.32349E-23
 -1       284 2.76313E-03-1.63835E-04-6.61744E-24
 -1       285 2.76876E-03-1.81101E-04 0.00000E+00
 -1       301 2.71840E-03-1.96185E-04-6.61744E-24
 -1       302 2.72912E-03-1.96481E-04-3.30872E-24
 -1       303 2.73912E-03-1.96767E-04 1.32349E-23
 -1       304 2.74934E-03-1.97053E-04 6.61744E-24
 -1       305 2.76071E-03-1.97353E-04 0.00000E+00
 -1       306 2.74405E-03-3.51091E-04 0.00000E+00
 -1       307 2.80791E-03-7.65902E-04-5.29396E-23
 -1       308 2.85449E-03-1.37178E-03 0.00000E+00
 -1       309 2.87829E-03-2.07250E-03 0.00000E+00
 -1       310 2.90968E-03-2.74217E-03 1.05879E-22
 -1       311 2.96925E-03-3.25766E-03 5.29396E-23
 -1       312 3.02694E-03-3.53843E-03 0.00000E+00
 -1       313 3.02164E-03-3.54689E-03 5.29396E-23
 -1       314 2.87941E-03-3.29534E-03-1.05879E-22
 -1       315 2.55948E-03-2.84855E-03-5.29396E-23
 -1       316 2.08051E-03-2.28325E-03 1.05879E-22
 -1       317 1.50876E-03-1.66872E-03 0.00000E+00
 -1       318 9.58785E-04-1.06543E-03-1.05879E-22
 -1       319 5.38703E-04-5.38329E-04-5.29396E-23
 -1       320 2.92249E-04-1.61613E-04-1.05879E-22
 -1       336 2.99213E-04-4.05794E-06 0.00000E+00
 -1       337 2.85547E-04-4.74105E-06 6.61744E-24
 -1       338 2.69866E-04-5.45207E-06 1.32349E-23
 -1       339 2.52244E-04-6.19185E-06-6.61744E-24
 -1       340 2.32764E-04-6.96484E-06 1.32349E-23
 -1       406 1.79676E-04 9.44275E-07-2.48154E-24
 -1       407 1.80446E-04 1.07890E-06-1.65436E-24
 -1       408 1.81320E-04 1.21336E-06 1.65436E-24
 -1       409 1.82296E-04 1.34749E-06 1.65436E-24
 -1       410 1.83375E-04 1.48100E-06-3.30872E-24
 -1       521 2.81278E-03-3.62239E-04 0.00000E+00
 -1       522 2.87484E-03-7.97488E-04 0.00000E+00
 -1       523 2.91488E-03-1.43150E-03-1.05879E-22
 -1       524 2.92933E-03-2.16122E-03 0.00000E+00
 -1       525 2.95270E-03-2.85787E-03 0.00000E+00
 -1       526 3.00870E-03-3.39568E-03 5.29396E-23
 -1       527 3.06597E-03-3.68713E-03 0.00000E+00
 -1       528 3.05833E-03-3.69372E-03-1.05879E-22
 -1       529 2.90387E-03-3.42779E-03 0.00000E+00
 -1       530 2.55953E-03-2.96217E-03-5.29396E-23
 -1       531 2.04484E-03-2.37745E-03 0.00000E+00
 -1       532 1.43256E-03-1.74548E-03-5.29396E-23
 -1       533 8.42775E-04-1.12409E-03-1.05879E-22
 -1       534 3.88876E-04-5.75854E-04 5.29396E-23
 -1       535 1.20932E-04-1.79375E-04 2.11758E-22
 -1       536 2.10761E-04 2.71709E-05-6.61744E-24
 -1       537 2.08843E-04 8.76102E-05 0.00000E+00
 -1       538 2.05880E-04 1.64296E-04 0.00000E+00
 -1       539 2.02384E-04 2.47877E-04 1.65436E-24
 -1       540 1.99239E-04 3.26854E-04 0.00000E+00
 -1       541 1.97194E-04 3.89748E-04 1.65436E-24
 -1       542 1.96251E-04 4.29806E-04 0.00000E+00
 -1       543 1.96026E-04 4.40427E-04 0.00000E+00
 -1       544 1.95704E-04 4.22384E-04-3.30872E-24
 -1       545 1.94532E-04 3.76671E-04 1.65436E-24
 -1       546 1.92347E-04 3.11414E-04 0.00000E+00
 -1       547 1.89390E-04 2.34859E-04 0.00000E+00
 -1       548 1.86460E-04 1.58681E-04 3.30872E-24
 -1       549 1.84346E-04 9.45537E-05 0.00000E+00
 -1       550 1.83248E-04 5.05067E-05 1.65436E-24
 -1       551 1.86309E-04-8.32555E-06 0.00000E+00
 -1       552 1.57857E-04-8.97527E-06 0.00000E+00
 -1       553 1.27102E-04-9.68725E-06 0.00000E+00
 -1       554 9.50045E-05-1.04404E-05-3.30872E-24
 -1       555 6.25234E-05-1.12073E-05-1.32349E-23
 -1       556 2.03866E-04 1.18042E-05 0.00000E+00
 -1       557 1.97685E-04 2.76682E-05-2.64698E-23
 -1       558 1.92840E-04 4.01237E-05 0.00000E+00
 -1       559 1.89196E-04 4.94813E-05-2.64698E-23
 -1       560 1.86625E-04 5.60519E-05 0.00000E+00
 -1       561 1.84997E-04 6.01489E-05 0.00000E+00
 -1       562 1.84189E-04 6.20871E-05 0.00000E+00
 -1       563 1.84075E-04 6.21821E-05 0.00000E+00
 -1       564 1.84534E-04 6.07504E-05 0.00000E+00
 -1       565 1.85444E-04 5.81092E-05 0.00000E+00
 -1       566 1.86687E-04 5.45763E-05 0.00000E+00
 -1       567 1.88143E-04 5.04698E-05 0.00000E+00
 -1       568 1.89693E-04 4.61080E-05 1.65436E-24
 -1       569 1.91221E-04 4.18092E-05-8.27181E-25
 -1       570 1.92607E-04 3.78919E-05 0.00000E+00
 -1       571 1.83058E-04 3.23152E-05 8.27181E-25
 -1       572 1.83157E-04 3.01205E-05 4.13590E-25
 -1       573 1.83256E-04 2.78755E-05 3.30872E-24
 -1       574 1.83355E-04 2.55964E-05-8.27181E-25
 -1       575 1.83455E-04 2.32999E-05-3.30872E-24
 -1       576 1.83554E-04 2.10024E-05 0.00000E+00
 -1       577 1.83654E-04 1.87204E-05 3.30872E-24
 -1       578 1.83754E-04 1.64706E-05 6.61744E-24
 -1       579 1.83853E-04 1.42695E-05 0.00000E+00
 -1       580 1.83953E-04 1.21337E-05 0.00000E+00
 -1       581 1.84053E-04 1.00797E-05-6.61744E-24
 -1       582 1.84154E-04 8.12414E-06 0.00000E+00
 -1       583 1.84254E-04 6.28347E-06 0.00000E+00
 -1       584 1.84355E-04 4.57409E-06 0.00000E+00
 -1       585 1.84455E-04 3.01220E-06 0.00000E+00
 -1       586 1.84716E-04 3.44835E-05-1.65436E-24
 -1       587 1.86430E-04 3.45227E-05-4.13590E-25
 -1       588 1.88145E-04 3.45616E-05 0.00000E+00
 -1       589 1.89906E-04 3.45998E-05 0.00000E+00
 -1       590 1.91755E-04 3.46367E-05 0.00000E+00
 -1       591 1.83691E-04 3.24092E-05 1.03398E-25
 -1       592 1.84425E-04 3.03543E-05 0.00000E+00
 -1       593 1.85163E-04 2.82850E-05 8.27181E-25
 -1       594 1.85905E-04 2.62060E-05 4.13590E-25
 -1       595 1.86648E-04 2.41221E-05 8.27181E-25
 -1       596 1.87391E-04 2.20380E-05 0.00000E+00
 -1       597 1.88132E-04 1.99585E-05 0.00000E+00
 -1       598 1.88870E-04 1.78884E-05 0.00000E+00
 -1       599 1.89603E-04 1.58323E-05 0.00000E+00
 -1       600 1.90329E-04 1.37949E-05 4.13590E-25
 -1       601 1.91046E-04 1.17812E-05-8.27181E-25
 -1       602 1.91752E-04 9.79559E-06 2.06795E-25
 -1       603 1.92447E-04 7.84302E-06 0.00000E+00
 -1       604 1.93127E-04 5.92827E-06 1.80946E-25
 -1       605 1.93793E-04 4.05600E-06 0.00000E+00
 -1       606 1.84569E-04 4.46823E-07 0.00000E+00
 -1       607 1.84579E-04-6.33098E-07 0.00000E+00
 -1       608 1.84588E-04-1.63216E-06 0.00000E+00
 -1       609 1.84596E-04-2.55606E-06 0.00000E+00
 -1       610 1.84604E-04-3.41053E-06 0.00000E+00
 -1       611 1.84613E-04-4.20137E-06 0.00000E+00
 -1       612 1.84621E-04-4.93437E-06 0.00000E+00
 -1       613 1.84629E-04-5.61538E-06 0.00000E+00
 -1       614 1.84638E-04-6.25018E-06 0.00000E+00
 -1       615 1.84646E-04-6.84460E-06 0.00000E+00
 -1       616 1.84654E-04-7.40446E-06 1.65436E-24
 -1       617 1.84663E-04-7.93557E-06 0.00000E+00
 -1       618 1.84671E-04-8.44373E-06 0.00000E+00
 -1       619 1.84680E-04-8.93478E-06 0.00000E+00
 -1       620 1.84688E-04-9.41452E-06-2.06795E-25
 -1       621 1.85917E-04 1.71645E-06-1.65436E-24
 -1       622 1.87438E-04 1.82050E-06 0.00000E+00
 -1       623 1.89085E-04 1.92434E-06 1.65436E-24
 -1       624 1.90825E-04 2.02784E-06 8.27181E-25
 -1       625 1.92622E-04 2.13106E-06 0.00000E+00
 -1       626 1.85105E-04 4.82911E-07 0.00000E+00
 -1       627 1.85631E-04-5.83725E-07 0.00000E+00
 -1       628 1.86137E-04-1.59512E-06 0.00000E+00
 -1       629 1.86626E-04-2.55944E-06 0.00000E+00
 -1       630 1.87100E-04-3.48488E-06-3.30872E-24
 -1       631 1.87563E-04-4.37965E-06-1.65436E-24
 -1       632 1.88017E-04-5.25195E-06 0.00000E+00
 -1       633 1.88466E-04-6.11002E-06 0.00000E+00
 -1       634 1.88912E-04-6.96205E-06 0.00000E+00
 -1       635 1.89360E-04-7.81624E-06 1.65436E-24
 -1       636 1.89811E-04-8.68083E-06 0.00000E+00
 -1       637 1.90269E-04-9.56402E-06-1.65436E-24
 -1       638 1.90737E-04-1.04740E-05 1.65436E-24
 -1       639 1.91218E-04-1.14191E-05 8.27181E-25
 -1       640 1.91715E-04-1.24074E-05 1.65436E-24
 -1       656 1.85403E-04-1.04671E-05-6.61744E-24
 -1       657 1.86529E-04-1.10691E-05 0.00000E+00
 -1       658 1.87937E-04-1.16696E-05 0.00000E+00
 -1       659 1.89479E-04-1.22698E-05-6.61744E-24
 -1       660 1.90970E-04-1.28717E-05 0.00000E+00
 -1       661 1.84960E-04-1.04080E-05-8.27181E-25
 -1       662 1.85262E-04-1.10191E-05 0.00000E+00
 -1       663 1.85597E-04-1.17168E-05 0.00000E+00
 -1       664 1.85962E-04-1.24945E-05 8.27181E-25
 -1       665 1.86355E-04-1.33466E-05 1.65436E-24
 -1       666 1.86773E-04-1.42669E-05-8.27181E-25
 -1       667 1.87215E-04-1.52500E-05-1.65436E-24
 -1       668 1.87679E-04-1.62902E-05 0.00000E+00
 -1       669 1.88161E-04-1.73821E-05 0.00000E+00
 -1       670 1.88661E-04-1.85205E-05 8.27181E-25
 -1       671 1.89177E-04-1.97000E-05 1.65436E-24
 -1       672 1.89706E-04-2.09158E-05 8.27181E-25
 -1       673 1.90246E-04-2.21626E-05 0.00000E+00
 -1       674 1.90795E-04-2.34359E-05 0.00000E+00
 -1       675 1.91353E-04-2.47303E-05 0.00000E+00
 -1       676 1.85159E-04-2.55251E-05 0.00000E+00
 -1       677 1.86514E-04-2.56294E-05 1.65436E-24
 -1       678 1.87868E-04-2.57336E-05 3.30872E-24
 -1       679 1.89219E-04-2.58375E-05 0.00000E+00
 -1       680 1.90567E-04-2.59413E-05 0.00000E+00
 -1       771 1.86571E-05 1.47588E-05-5.29396E-23
 -1       772 8.59793E-06 3.67202E-05 5.29396E-23
 -1       773 3.45642E-07 5.41336E-05-5.29396E-23
 -1       774-6.22414E-06 6.72572E-05 2.64698E-23
 -1       775-1.12331E-05 7.63593E-05-5.29396E-23
 -1       776-1.48079E-05 8.17252E-05 0.00000E+00
 -1       777-1.70749E-05 8.36503E-05-5.29396E-23
 -1       778-1.81632E-05 8.24438E-05 0.00000E+00
 -1       779-1.82010E-05 7.84233E-05 0.00000E+00
 -1       780-1.73188E-05 7.19181E-05 2.64698E-23
 -1       781-1.56459E-05 6.32642E-05-5.29396E-23
 -1       782-1.33135E-05 5.28062E-05 0.00000E+00
 -1       783-1.04515E-05 4.08937E-05-5.29396E-23
 -1       784-7.19145E-06 2.78823E-05 2.64698E-23
 -1       785-3.66355E-06 1.41307E-05 5.29396E-23
 -1       786 1.93775E-04 3.24306E-05 0.00000E+00
 -1       787 1.93819E-04 3.02690E-05 0.00000E+00
 -1       788 1.93862E-04 2.81610E-05 0.00000E+00
 -1       789 1.93907E-04 2.60832E-05 0.00000E+00
 -1       790 1.93951E-04 2.40266E-05 0.00000E+00
 -1       791 1.93996E-04 2.19821E-05-8.27181E-25
 -1       792 1.94040E-04 1.99467E-05 0.00000E+00
 -1       793 1.94085E-04 1.79175E-05 8.27181E-25
 -1       794 1.94130E-04 1.58943E-05-1.65436E-24
 -1       795 1.94174E-04 1.38771E-05-8.27181E-25
 -1       796 1.94219E-04 1.18689E-05 0.00000E+00
 -1       797 1.94264E-04 9.87229E-06 0.00000E+00
 -1       798 1.94309E-04 7.89606E-06 0.00000E+00
 -1       799 1.94354E-04 5.94881E-06 8.27181E-25
 -1       800 1.94399E-04 4.05321E-06 1.65436E-24
 -1       801 1.47921E-04 3.11684E-05-2.64698E-23
 -1       802 9.40642E-06 1.94445E-05 0.00000E+00
 -1       803-1.08902E-04 9.82198E-06-5.29396E-23
 -1       804-9.65239E-05 6.83683E-06-2.64698E-23
 -1       805-3.18896E-05 2.68609E-06 0.00000E+00
 -1       806 1.94465E-04 3.23478E-05-1.65436E-24
 -1       807 1.95181E-04 3.00516E-05 1.65436E-24
 -1       808 1.95885E-04 2.77863E-05 0.00000E+00
 -1       809 1.96575E-04 2.55560E-05-1.65436E-24
 -1       810 1.97250E-04 2.33649E-05 0.00000E+00
 -1       811 1.97910E-04 2.12169E-05-1.65436E-24
 -1       812 1.98551E-04 1.91161E-05-3.30872E-24
 -1       813 1.99174E-04 1.70665E-05-1.65436E-24
 -1       814 1.99776E-04 1.50720E-05 3.30872E-24
 -1       815 2.00356E-04 1.31365E-05 8.27181E-25
 -1       816 2.00913E-04 1.12642E-05 0.00000E+00
 -1       817 2.01444E-04 9.45883E-06 0.00000E+00
 -1       818 2.01949E-04 7.72444E-06 1.65436E-24
 -1       819 2.02427E-04 6.06497E-06 0.00000E+00
 -1       820 2.02875E-04 4.48429E-06 0.00000E+00
 -1       821 1.94314E-04-1.79026E-07-1.65436E-24
 -1       822 1.94173E-04-3.83881E-06 0.00000E+00
 -1       823 1.94029E-04-8.29121E-06 0.00000E+00
 -1       824 1.93883E-04-1.30752E-05-1.65436E-24
 -1       825 1.93737E-04-1.76398E-05-3.30872E-24
 -1       826 1.93594E-04-2.14352E-05 1.65436E-24
 -1       827 1.93454E-04-2.41220E-05 0.00000E+00
 -1       828 1.93317E-04-2.53674E-05-1.65436E-24
 -1       829 1.93181E-04-2.52325E-05 0.00000E+00
 -1       830 1.93044E-04-2.37867E-05 0.00000E+00
 -1       831 1.92905E-04-2.14576E-05-3.30872E-24
 -1       832 1.92766E-04-1.86783E-05 1.65436E-24
 -1       833 1.92627E-04-1.60049E-05-3.30872E-24
 -1       834 1.92490E-04-1.39927E-05 1.65436E-24
 -1       835 1.92355E-04-1.30173E-05-8.27181E-25
 -1       836 1.96134E-04 2.35715E-06 3.30872E-24
 -1       837 1.97694E-04 2.48536E-06 0.00000E+00
 -1       838 1.99158E-04 2.61351E-06 0.00000E+00
 -1       839 2.00557E-04 2.74096E-06-8.27181E-25
 -1       840 2.01925E-04 2.86825E-06-8.27181E-25
 -1       856 1.92212E-04-1.45097E-05 0.00000E+00
 -1       857 1.92193E-04-1.54363E-05 1.29247E-26
 -1       858 1.92173E-04-1.62482E-05 0.00000E+00
 -1       859 1.92154E-04-1.69666E-05-2.06795E-25
 -1       860 1.92134E-04-1.76127E-05 0.00000E+00
 -1       861 1.92114E-04-1.82077E-05 0.00000E+00
 -1       862 1.92094E-04-1.87732E-05 0.00000E+00
 -1       863 1.92074E-04-1.93302E-05 4.13590E-25
 -1       864 1.92055E-04-1.99003E-05 0.00000E+00
 -1       865 1.92035E-04-2.05048E-05-4.13590E-25
 -1       866 1.92015E-04-2.11649E-05 8.27181E-25
 -1       867 1.91995E-04-2.19020E-05 0.00000E+00
 -1       868 1.91975E-04-2.27372E-05 8.27181E-25
 -1       869 1.91954E-04-2.36918E-05 0.00000E+00
 -1       870 1.91934E-04-2.47867E-05-8.27181E-25
 -1       871 1.93578E-04-1.34523E-05 0.00000E+00
 -1       872 1.95076E-04-1.34607E-05 0.00000E+00
 -1       873 1.96652E-04-1.34697E-05 0.00000E+00
 -1       874 1.98240E-04-1.34795E-05 3.87741E-25
 -1       875 1.99771E-04-1.34898E-05-8.27181E-25
 -1       876 1.92754E-04-1.44952E-05 0.00000E+00
 -1       877 1.93257E-04-1.54761E-05 0.00000E+00
 -1       878 1.93739E-04-1.63982E-05-3.30872E-24
 -1       879 1.94201E-04-1.72688E-05 0.00000E+00
 -1       880 1.94648E-04-1.80954E-05-3.30872E-24
 -1       881 1.95080E-04-1.88852E-05 1.65436E-24
 -1       882 1.95502E-04-1.96457E-05 0.00000E+00
 -1       883 1.95915E-04-2.03843E-05-1.65436E-24
 -1       884 1.96323E-04-2.11082E-05 3.30872E-24
 -1       885 1.96728E-04-2.18248E-05-1.65436E-24
 -1       886 1.97133E-04-2.25415E-05-3.30872E-24
 -1       887 1.97541E-04-2.32655E-05-1.65436E-24
 -1       888 1.97954E-04-2.40043E-05-3.30872E-24
 -1       889 1.98375E-04-2.47654E-05-1.65436E-24
 -1       890 1.98806E-04-2.55560E-05 0.00000E+00
 -1       891 1.93276E-04-2.61005E-05 0.00000E+00
 -1       892 1.94617E-04-2.61582E-05 0.00000E+00
 -1       893 1.95909E-04-2.62158E-05 8.27181E-25
 -1       894 1.97128E-04-2.62731E-05 0.00000E+00
 -1       895 1.98248E-04-2.63302E-05 4.13590E-25
 -1       956 2.03164E-04 1.66324E-06-3.30872E-24
 -1       957 2.03032E-04 4.31869E-07 8.27181E-25
 -1       958 2.02899E-04-7.18591E-07-3.30872E-24
 -1       959 2.02767E-04-1.79949E-06 0.00000E+00
 -1       960 2.02634E-04-2.82221E-06 0.00000E+00
 -1       961 2.02501E-04-3.79818E-06 1.65436E-24
 -1       962 2.02368E-04-4.73883E-06 0.00000E+00
 -1       963 2.02235E-04-5.65562E-06 0.00000E+00
 -1       964 2.02103E-04-6.55999E-06-3.30872E-24
 -1       965 2.01970E-04-7.46338E-06 0.00000E+00
 -1       966 2.01837E-04-8.37727E-06 0.00000E+00
 -1       967 2.01704E-04-9.31309E-06 0.00000E+00
 -1       968 2.01572E-04-1.02823E-05 6.61744E-24
 -1       969 2.01439E-04-1.12963E-05 0.00000E+00
 -1       970 2.01307E-04-1.23664E-05 0.00000E+00
 -1       971 2.01057E-04-1.46404E-05 0.00000E+00
 -1       972 2.00936E-04-1.56826E-05-1.65436E-24
 -1       973 2.00814E-04-1.66407E-05-3.30872E-24
 -1       974 2.00693E-04-1.75254E-05-1.65436E-24
 -1       975 2.00571E-04-1.83477E-05 0.00000E+00
 -1       976 2.00450E-04-1.91184E-05 0.00000E+00
 -1       977 2.00328E-04-1.98483E-05 0.00000E+00
 -1       978 2.00207E-04-2.05485E-05-1.65436E-24
 -1       979 2.00086E-04-2.12298E-05-3.30872E-24
 -1       980 1.99964E-04-2.19031E-05-1.65436E-24
 -1       981 1.99843E-04-2.25793E-05-3.30872E-24
 -1       982 1.99722E-04-2.32693E-05 0.00000E+00
 -1       983 1.99601E-04-2.39841E-05-3.30872E-24
 -1       984 1.99480E-04-2.47345E-05 0.00000E+00
 -1       985 1.99360E-04-2.55314E-05 0.00000E+00
 -3
    1PSTEP                        32          16           1          
  100CL  116 6.63036E-01         409                     0   16           1
 -4  STRESS      6    1
 -5  SXX         1    4    1    1
 -5  SYY         1    4    2    2
 -5  SZZ         1    4    3    3
 -5  SXY         1    4    1    2
 -5  SYZ         1    4    2    3
 -5  SZX         1    4    3    1
 -1         1-5.34447E+06-1.58686E+06-1.13334E+06-1.34568E+06 5.96629E-10-3.36440E-08
 -1         2 1.49260E+06 2.18855E+07 5.09762E+06 6.61610E+06 2.69501E-08 3.20142E-08
 -1         3-1.48869E+03-1.55881E+06 4.05937E+02-2.21294E+03-4.01133E-10-2.73139E-08
 -1         5-7.54767E+01 3.86546E+05 9.98754E+00-1.34527E+00-5.38578E-10 5.78984E-09
 -1         8-5.56187E+05-2.01068E+05-6.29149E+04-2.44198E+05 5.72982E-11-9.08985E-08
 -1         9 1.17798E+07 3.83897E+06 2.79332E+06-3.29441E+05-5.87897E-09-2.20956E-08
 -1        10-2.30529E+03-1.62440E+06-3.94757E+03-1.49740E+04-1.34132E-08-3.35779E-08
 -1        12-7.15566E+01 3.86567E+05 3.28328E+02-9.16857E+00-7.19108E-10 3.35604E-10
 -1        15 9.29102E+02 5.10587E+02 3.00330E+03 8.26491E-01-9.47864E-11 3.14586E-07
 -1        16 2.29156E+07-3.30526E+05 3.11926E+06-2.28288E+06 1.85294E-08 1.46839E-07
 -1        17 8.38902E+06 6.28726E+06 2.26626E+06 6.01505E+06 2.83413E-08 3.00235E-08
 -1        18 1.42694E+05 3.35868E+04 4.17114E+03-1.19768E+05 1.86078E-08 7.26459E-09
 -1        19 1.22448E+05 1.41634E+05-9.59331E+02 2.20499E+04 1.69166E-09-1.93177E-10
 -1        20-8.18824E+04-5.73684E+05-1.28725E+05 2.51452E+04-2.41835E-09-7.09466E-09
 -1        21-4.55846E+01-2.96044E+05-9.24163E+02 2.75361E+02 1.80674E-08-6.23859E-09
 -1        24 1.40597E+07 1.21086E+07 3.89215E+06 1.12113E+07-1.70956E-07-5.48316E-08
 -1        25 1.26525E+05 2.68737E+05 1.00722E+05-6.46661E+05-2.72876E-09 1.85677E-08
 -1        26-5.44208E+04 9.24345E+04-2.45404E+04 1.22468E+03-2.12458E-10-9.64167E-09
 -1        27-7.58329E+04-3.10011E+05-1.13362E+05 6.89910E+04 4.15397E-09 1.19774E-08
 -1        28 2.22435E+04-8.53477E+04 1.68988E+04 2.06307E+04-5.52137E-09-4.38057E-09
 -1        32-1.68058E+06-3.18158E+06-1.97527E+05 4.59000E+05-4.26298E-08-6.73958E-09
 -1        33-1.78307E+05 9.30195E+04 3.23829E+04-3.89090E+04-3.19100E-09-9.24956E-09
 -1        34-2.23582E+05-2.50334E+04 6.89210E+02 7.56456E+04-6.28390E-09-2.16270E-08
 -1        35-2.29338E+04-3.38465E+04-1.34840E+03 5.15019E+04-3.31254E-09-5.21444E-09
 -1        51 6.07630E+04-1.71503E+05 1.28482E+05-4.37318E+05-5.82077E-11 1.36635E-07
 -1        52 2.05566E+04-1.49040E+05 6.73769E+04-5.10043E+05 2.76486E-10-5.72909E-08
 -1        53 4.17167E+03-1.64402E+05 3.50205E+04-4.35816E+05 2.54659E-10 8.72460E-08
 -1        54 7.32658E+03-1.60188E+05 2.86445E+04-5.11513E+05-1.63709E-10 8.24275E-08
 -1        55 1.59704E+04-1.67164E+05 3.46874E+04-4.35726E+05 1.81899E-11 2.23206E-07
 -1        56-9.79514E+06-1.37830E+06-9.18547E+05-4.09122E+06-3.49246E-09-3.84462E-07
 -1        57-1.10858E+07-8.09665E+05-5.47032E+05-2.70428E+06 1.24564E-08-1.88629E-07
 -1        58-9.59537E+06-1.84583E+06-2.01469E+05-4.28491E+06-1.34896E-08-2.27323E-07
 -1        59-1.12721E+07-2.71123E+05-1.07971E+05-2.63088E+06-2.37947E-08-3.03535E-07
 -1        60-9.69060E+06-1.84971E+06-5.78727E+04-4.23662E+06 9.69158E-09-1.07975E-07
 -1        61-1.06044E+07-6.14471E+05 1.73159E+04-2.88240E+06-6.38101E-08-1.51922E-07
 -1        62-1.01225E+07-1.59736E+06-7.88277E+04-3.92190E+06-1.14815E-08 4.70682E-08
 -1        63-9.68133E+06-1.34253E+06 5.67624E+04-3.59676E+06 1.90703E-08 2.32552E-07
 -1        64-1.05009E+07-1.20203E+06-7.25099E+04-3.45098E+06-1.80589E-08-8.81373E-08
 -1        65-9.30130E+06-1.96013E+06 1.41724E+04-4.52625E+06-2.39816E-08-4.13693E-07
 -1        66-1.06331E+07-8.89143E+05-4.73150E+04-3.09099E+06-1.54396E-08-1.00212E-07
 -1        67-9.31896E+06-2.22104E+06-9.71665E+04-4.96788E+06-4.91045E-08 8.08068E-08
 -1        68-1.06135E+07-8.49674E+05-1.87110E+05-3.09034E+06-4.98803E-08-8.02393E-08
 -1        69-9.49424E+06-2.29963E+06-4.86275E+05-4.49349E+06-7.13080E-08 1.97841E-07
 -1        70-1.03371E+07-9.07128E+05-8.43762E+05-3.48605E+06-1.18416E-08-1.21538E-07
 -1        86-1.52283E+06-1.56118E+07-2.79038E+06-3.10767E+06-2.64252E-07-6.25587E-08
 -1        87 2.39345E+06 6.29978E+06 2.32086E+06 5.74795E+06-4.61652E-07-1.76155E-07
 -1        88-4.50380E+05-1.95235E+06 2.19370E+05-2.56432E+06-4.23386E-07-7.86504E-08
 -1        89 3.20503E+06 6.00296E+06 2.37850E+06 5.94069E+06-6.12592E-07-1.74026E-07
 -1        90-2.24028E+06-1.53911E+07-3.01281E+06-3.32957E+06-1.41372E-07-2.49420E-08
 -1       121-2.03930E+03-1.56372E+06-5.47644E+02 1.09683E+03 1.59010E-09 1.30967E-10
 -1       122-1.30283E+03-1.55888E+06 7.69624E+02-4.42998E+03-5.34912E-09 9.95351E-09
 -1       123-2.05906E+03-1.56385E+06 2.60459E+02 3.27575E+03 4.33931E-09 4.51473E-08
 -1       124 3.33925E+02-1.55843E+06 2.94942E+03-9.26973E+03-1.01272E-08-5.56611E-09
 -1       125-2.86807E+03-1.56475E+06 3.45978E+03 5.89060E+03 7.00857E-09 9.85165E-09
 -1       191-7.95377E+01 3.86564E+05 8.48362E+00 7.01501E-01-6.10629E-10-5.94810E-09
 -1       192-7.64411E+01 3.86546E+05 2.13136E+01-4.31251E+00-8.03595E-10-1.60944E-08
 -1       193-8.20761E+01 3.86563E+05 3.62776E+01 3.78776E+00-1.01217E-09 5.43878E-10
 -1       194-7.95330E+01 3.86550E+05 8.10258E+01-9.78559E+00-4.18130E-10 7.17864E-09
 -1       195-8.69484E+01 3.86561E+05 1.55117E+02 6.36869E+00-1.41078E-09-1.18034E-08
 -1       251-8.62260E+05 1.60782E+04-3.75412E+04-1.42645E+04 7.68723E-09-1.04010E-08
 -1       252-8.76486E+05-1.86058E+04-2.61196E+04 5.02287E+04-1.01331E-08 9.63150E-08
 -1       253-8.70604E+05 2.46653E+03-1.01089E+04-1.00557E+04-5.70299E-09 4.80563E-08
 -1       254-8.63206E+05-2.98851E+03-4.53226E+03 3.57187E+04 1.25781E-08-3.08411E-07
 -1       255-8.74935E+05 5.84884E+01-3.49949E+03 2.41898E+02 6.32554E-10 1.92742E-07
 -1       256-8.57881E+05-2.73297E+02 1.15740E+03 1.23660E+04-4.24586E-09-1.39166E-08
 -1       257-8.75494E+05-5.69797E+02-1.36865E+03 1.32858E+04 2.12617E-09 1.51448E-07
 -1       258-8.60670E+05 9.01943E+02 2.68569E+03-1.21686E+04-3.53157E-09 1.08066E-08
 -1       259-8.72392E+05-9.26862E+02 1.38318E+03 2.47742E+04-1.04483E-08 6.11612E-09
 -1       260-8.66968E+05 2.92527E+03 5.57255E+03-2.98592E+04 2.67510E-08-2.90982E-07
 -1       261-8.69823E+05-2.10931E+03 8.66893E+03 3.09924E+04 1.37513E-08 1.16133E-08
 -1       262-8.65597E+05 1.17811E+04 2.15305E+04-3.50248E+04 4.18413E-09-6.16060E-08
 -1       263-8.74011E+05-9.55741E+03 3.41178E+04 2.99490E+04-1.08810E-09-9.68575E-08
 -1       264-8.35105E+05 6.71042E+04 9.44389E+04-2.58727E+04 2.85661E-08 3.48955E-07
 -1       265-8.99823E+05-5.75607E+04 1.31540E+05 2.18283E+04 6.98606E-09 3.12306E-07
 -1       266-1.68201E+04-7.86590E+03 3.94608E+04-1.76829E+01-9.09495E-11-7.94736E-08
 -1       267 1.94988E+04 9.16659E+03 2.78923E+04 2.04043E+01-3.63798E-12 2.96166E-09
 -1       268-2.61477E+03-1.29831E+03 1.03673E+04-2.59977E+00-6.32099E-11-1.09536E-08
 -1       269 3.08726E+03 1.55373E+03 6.73870E+03 3.02845E+00-1.18121E-10-1.03045E-07
 -1       270-4.63402E+02-2.55293E+02 3.25286E+03-4.10977E-01 1.31422E-10 1.26577E-07
 -1       271-1.47964E+06-1.88335E+05-1.11454E+05-5.75762E+05-1.63600E-08-1.91758E-07
 -1       272-1.47536E+06-3.01779E+05-7.00072E+04-6.14189E+05-9.54969E-10-1.64946E-07
 -1       273-1.50317E+06-2.12015E+05-2.70259E+04-5.67745E+05-1.95832E-08-1.22578E-07
 -1       274-1.44856E+06-2.73268E+05-1.40640E+04-6.29326E+05-1.31822E-08 2.17842E-08
 -1       275-1.50876E+06-2.11595E+05-6.73258E+03-5.63988E+05-1.04810E-08 2.10423E-07
 -1       276-1.44294E+06-2.74181E+05-2.84374E+03-6.37913E+05-2.10057E-08 1.04047E-07
 -1       277-1.51157E+06-2.08978E+05-1.86424E+03-5.61269E+05-3.55249E-09-2.32130E-08
 -1       278-1.44077E+06-2.77368E+05-7.12619E+02-6.44221E+05-2.22099E-08 3.56308E-08
 -1       279-1.51337E+06-2.06841E+05-8.64019E+02-5.59362E+05-5.91681E-08-1.57664E-07
 -1       280-1.43976E+06-2.79763E+05-9.89872E+02-6.48363E+05-4.90454E-08 8.85694E-08
 -1       281-1.51431E+06-2.05496E+05-1.82897E+03-5.58292E+05-3.22052E-09 5.10439E-08
 -1       282-1.44013E+06-2.81937E+05-4.25345E+03-6.50055E+05-8.29732E-09 3.72345E-08
 -1       283-1.51381E+06-2.04266E+05-7.57078E+03-5.58170E+05 3.17004E-08-5.47670E-08
 -1       284-1.44692E+06-2.91844E+05-2.06222E+04-6.47865E+05-4.34305E-08 1.90026E-07
 -1       285-1.50744E+06-1.96769E+05-3.22051E+04-5.59961E+05 1.71963E-08 1.11057E-07
 -1       301-7.36617E+03-6.47804E+05 1.66901E+05-1.13854E+06 2.88128E-09-2.01922E-07
 -1       302-9.18927E+03-6.00962E+05 1.00443E+05-1.66178E+06-1.01427E-08-1.71422E-08
 -1       303-2.19587E+04-6.40372E+05 5.67324E+04-1.13541E+06-1.04774E-08 8.40828E-08
 -1       304-2.50300E+04-6.08078E+05 5.70601E+04-1.66121E+06-1.63127E-08 2.99318E-07
 -1       305-2.63076E+04-6.29108E+05 7.01110E+04-1.13850E+06 1.04865E-08 5.72181E-08
 -1       306-3.01462E+07-6.22143E+06-8.61497E+06-4.96819E+05-1.29919E-07 5.06407E-08
 -1       307 2.53236E+07 3.28723E+06 5.51321E+06-1.52682E+07-8.32180E-07-4.40341E-08
 -1       308-6.93048E+06-1.01858E+06-4.41002E+05 5.21350E+06-2.74711E-07 2.07161E-07
 -1       309-3.20783E+06 8.75543E+06 2.29448E+06-2.07078E+07 3.36433E-07 1.73015E-07
 -1       310-1.26336E+07-1.95504E+06-2.05722E+06 5.22325E+06-5.18048E-08-2.21509E-07
 -1       311 3.86373E+07 4.14405E+03 7.31007E+06-8.75239E+06 5.88625E-07 1.48750E-07
 -1       312-3.19906E+07-6.80947E+06-8.56500E+06-5.09055E+06 7.17118E-08 5.31130E-07
 -1       313 4.54530E+07 1.51497E+07 1.06931E+07 2.39202E+07-1.72789E-07-5.98375E-08
 -1       314-1.71855E+07-1.78591E+07-7.53432E+06-1.25464E+07 4.96686E-07 2.17697E-08
 -1       315-1.90513E+06 2.98220E+07 5.67172E+06 1.04867E+07-5.96556E-07 7.77363E-08
 -1       316 1.42890E+06-9.83636E+06-4.31435E+05-2.49961E+06-1.21452E-06-1.63884E-07
 -1       317-1.71028E+07 2.24529E+07 2.24824E+06-8.88345E+06 8.16333E-07-7.35439E-07
 -1       318-1.08207E+06-1.28423E+07-2.06084E+06-4.24134E+06-8.51986E-07 1.50350E-07
 -1       319 7.28394E+06 3.20866E+07 7.06865E+06 1.66860E+07-5.95974E-08 2.53349E-07
 -1       320-2.26458E+07-1.76902E+07-9.88341E+06-1.28433E+07 1.97673E-07-5.79457E-08
 -1       336-7.46959E+02-1.69278E+06-1.38493E+04 8.91354E+03-2.67246E-08-1.11395E-08
 -1       337-5.41022E+03-1.69232E+06-1.80709E+04-2.16528E+04-4.93260E-08-1.81244E-08
 -1       338 2.74138E+02-1.69227E+06-2.84664E+04 1.24881E+04-3.50155E-08-1.85173E-09
 -1       339-3.02078E+04-1.70956E+06-6.43361E+04-2.86552E+04-6.34818E-08 5.98902E-08
 -1       340 1.98965E+04-1.67772E+06-1.01348E+05 1.57850E+04-4.12329E-08 4.78030E-08
 -1       406-4.98464E+01 3.86546E+05 6.44660E+02 3.35502E+00-2.00610E-09 2.83762E-09
 -1       407 1.54844E+02 3.86681E+05 1.37770E+03 2.34329E+01-7.06819E-10 1.46902E-08
 -1       408 6.35273E+02 3.86446E+05 2.74701E+03-2.71077E+01-2.50611E-09-4.63479E-09
 -1       409 2.90910E+03 3.87558E+05 6.19152E+03 2.89423E+02-1.21076E-10-1.67111E-08
 -1       410 8.48635E+03 3.85655E+05 1.26366E+04-2.79109E+02-2.69938E-09 6.87396E-09
 -1       521-3.17229E+07-7.69148E+06-1.00798E+07-1.00915E+05-1.97324E-07 6.31553E-08
 -1       522 2.62227E+07 4.33500E+06 5.62994E+06-1.88038E+07-6.20581E-07-1.33645E-07
 -1       523-7.50224E+06-1.33448E+06-4.32403E+05 5.66748E+06 1.43424E-07-2.47237E-08
 -1       524-6.71534E+06 1.18491E+07 2.48610E+06-2.37940E+07 8.79962E-07-3.84272E-07
 -1       525-1.34331E+07-2.60022E+06-2.26493E+06 5.68282E+06 5.20551E-07-2.04571E-07
 -1       526 4.22492E+07-9.33966E+04 7.68083E+06-1.14092E+07 1.91852E-07-5.63246E-07
 -1       527-3.38741E+07-8.52239E+06-9.88635E+06-4.95582E+06 1.63331E-07-8.10542E-09
 -1       528 4.96890E+07 1.69214E+07 1.11674E+07 2.72435E+07 1.54600E-07 6.33299E-08
 -1       529-1.81341E+07-2.01010E+07-8.65016E+06-1.25821E+07-4.94183E-08 1.05938E-07
 -1       530-4.39438E+06 3.46765E+07 6.01096E+06 9.92580E+06 3.97660E-07 5.73287E-07
 -1       531 1.43587E+06-1.09141E+07-4.03327E+05-2.43618E+06-7.00005E-07 4.42378E-07
 -1       532-1.96047E+07 2.44726E+07 2.46107E+06-1.32259E+07 4.69998E-07-7.37549E-07
 -1       533-1.12275E+06-1.40086E+07-2.19870E+06-4.03769E+06-1.72586E-07-1.03255E-06
 -1       534 5.28713E+06 3.72955E+07 7.36672E+06 1.72850E+07-7.06350E-08 8.12754E-07
 -1       535-2.38474E+07-2.01184E+07-1.13475E+07-1.29221E+07 1.04425E-07 4.81552E-07
 -1       536-7.06057E+05-4.67410E+04-4.81758E+04-5.46914E+04-5.16138E-09 6.72617E-08
 -1       537-5.49558E+04 4.46810E+04 8.39041E+04 1.23858E+05-1.15553E-07 1.05512E-07
 -1       538-3.94387E+05 3.34612E+03 3.55295E+03-7.22066E+04 3.04231E-08 1.09868E-07
 -1       539-2.69034E+05 2.85400E+03 2.49189E+04 1.38745E+05 1.38392E-07 9.05962E-08
 -1       540-4.97355E+05-4.29472E+02-2.13290E+04-7.01127E+04 1.13232E-09 1.10685E-07
 -1       541 1.46730E+05 1.69740E+04 1.06398E+05 9.79317E+04 7.73525E-10 7.20348E-08
 -1       542-7.98948E+05-2.01369E+04-8.42445E+04-3.05181E+04 4.89745E-08 5.09760E-08
 -1       543 4.05407E+05 2.73269E+04 1.57981E+05-1.33665E+04-1.37907E-08 5.83077E-09
 -1       544-7.49095E+05-1.65373E+04-7.48401E+04 4.05157E+04-2.46655E-09-1.97086E-08
 -1       545 2.89897E+04 9.48281E+03 7.98115E+04-1.13632E+05 5.98801E-08-7.23749E-08
 -1       546-4.32641E+05 6.09705E+03-1.22312E+04 6.94011E+04 3.96312E-09-9.82695E-08
 -1       547-2.87123E+05-4.65919E+03 1.05821E+04-1.41593E+05-1.13639E-07-1.29383E-07
 -1       548-4.41481E+05 4.72182E+03-2.38897E+04 6.91680E+04-1.05564E-07-8.68008E-08
 -1       549 4.81765E+04 1.60624E+04 6.05036E+04-1.11492E+05-7.20875E-08-6.57890E-08
 -1       550-7.58968E+05-2.21327E+04-1.29000E+05 3.85838E+04 2.02635E-09-5.48971E-08
 -1       551 4.08029E+04-7.50790E+05-1.58845E+04-1.24728E+06-1.03639E-07 1.03610E-08
 -1       552 9.32887E+04-7.95782E+05 9.92668E+03-1.77846E+06-7.02421E-08 2.62226E-08
 -1       553 7.17824E+04-7.92188E+05 3.20457E+04-1.24063E+06-1.20577E-07 2.75322E-08
 -1       554 1.32090E+05-8.11685E+05 8.10699E+04-1.78040E+06-7.87040E-08 1.26383E-08
 -1       555 1.01530E+05-8.15844E+05 1.48055E+05-1.24046E+06-1.23211E-07-1.56997E-08
 -1       556 2.23807E+05-3.83831E+05 2.57256E+04-4.07374E+05-2.22935E-08-4.45289E-09
 -1       557 3.54420E+05-4.88219E+05 1.61370E+04-5.27852E+05-5.52973E-10 1.72586E-08
 -1       558 2.05564E+05-3.76614E+05 2.31569E+03-4.11825E+05-2.84635E-08-1.37807E-08
 -1       559 3.29390E+05-4.88281E+05 2.43725E+03-5.48317E+05 2.34431E-08-2.20134E-08
 -1       560 1.90247E+05-3.67009E+05-1.50832E+03-4.22863E+05 1.66183E-08-2.99769E-09
 -1       561 3.10144E+05-4.80578E+05 1.28981E+02-5.61440E+05-1.14960E-09 7.57063E-09
 -1       562 1.78136E+05-3.59485E+05-1.32803E+03-4.31633E+05-1.16415E-10 1.74987E-09
 -1       563 2.95759E+05-4.74306E+05-3.68977E+01-5.70836E+05 5.69707E-09-7.89078E-09
 -1       564 1.69492E+05-3.54099E+05-6.00701E+02-4.37758E+05 3.34694E-09-5.03951E-09
 -1       565 2.86218E+05-4.70151E+05 2.52061E+01-5.76932E+05 8.62201E-09 1.42636E-08
 -1       566 1.64440E+05-3.50903E+05-2.57624E+02-4.41292E+05-6.01722E-09 5.98084E-09
 -1       567 2.81582E+05-4.68134E+05-3.57060E+02-5.79748E+05 1.93031E-08 3.35749E-08
 -1       568 1.63069E+05-3.50064E+05-1.11503E+03-4.42347E+05 2.45291E-09 4.62751E-09
 -1       569 2.80467E+05-4.68054E+05-2.81806E+03-5.78317E+05-1.71076E-09 1.99361E-09
 -1       570 1.66470E+05-3.53292E+05-6.16820E+03-4.41331E+05 1.22309E-08-5.54155E-09
 -1       571 2.90795E+05 1.05020E+04 1.49790E+04-9.55263E+04 1.19107E-08 8.40964E-09
 -1       572 2.92965E+05 3.96029E+03 7.34096E+03-1.04801E+05 2.04095E-08 4.63479E-09
 -1       573 2.91657E+05 1.24759E+03 3.26183E+03-9.53487E+04 1.24182E-08-3.65890E-09
 -1       574 2.91870E+05 7.29929E+02 1.63581E+03-1.05026E+05 3.00270E-09-1.28712E-08
 -1       575 2.91750E+05 4.50724E+02 7.72076E+02-9.53244E+04 2.18716E-09 8.07904E-09
 -1       576 2.91734E+05 4.62442E+02 3.95342E+02-1.05056E+05-6.00267E-09-9.02855E-09
 -1       577 2.91790E+05 3.92722E+02 1.97422E+02-9.53210E+04 6.67205E-09 2.06755E-08
 -1       578 2.91764E+05 4.24352E+02 1.14173E+02-1.05061E+05 1.72186E-08 2.01089E-08
 -1       579 2.91862E+05 3.55890E+02 7.86252E+01-9.53207E+04 1.46556E-08 1.48584E-08
 -1       580 2.91866E+05 3.73097E+02 9.15541E+01-1.05056E+05-9.60154E-09 6.19366E-09
 -1       581 2.91976E+05 2.97043E+02 1.38574E+02-9.53266E+04 1.58616E-08-4.52201E-09
 -1       582 2.92043E+05 3.35702E+02 2.81888E+02-1.04994E+05 1.85400E-08-2.01180E-09
 -1       583 2.92117E+05 3.40231E+02 5.41195E+02-9.53833E+04 1.00081E-08-3.80874E-09
 -1       584 2.92421E+05 7.82287E+02 1.22466E+03-1.04517E+05 5.51518E-09-1.99118E-08
 -1       585 2.92143E+05 1.81317E+03 2.47998E+03-9.58035E+04-3.81988E-10-5.05679E-09
 -1       586-3.44729E+03 1.17034E+05-2.94116E+03-2.51588E+05-6.13636E-09 4.29441E-09
 -1       587-1.34795E+03 1.16782E+05 7.67505E+02-2.76890E+05-6.28097E-09 2.70188E-09
 -1       588 3.98494E+02 1.16589E+05 4.77382E+03-2.51449E+05-3.19051E-09 1.36297E-08
 -1       589 5.10256E+03 1.19071E+05 1.23877E+04-2.76657E+05-6.77210E-09 3.75803E-09
 -1       590 1.66687E+04 1.15251E+05 2.59879E+04-2.51881E+05-4.46016E-09 2.22390E-08
 -1       591-7.37640E+04-1.58313E+04-2.24405E+04-3.15548E+04-3.59933E-10 3.39423E-09
 -1       592-7.78141E+04-1.93981E+04-1.21556E+04-3.51925E+04-3.83125E-10-1.05672E-08
 -1       593-7.60087E+04-1.42025E+04-5.05977E+03-3.31997E+04 7.11189E-10 2.47132E-09
 -1       594-7.47154E+04-1.61056E+04-2.52343E+03-3.53103E+04 1.62743E-10-3.12883E-09
 -1       595-7.61799E+04-1.41971E+04-1.15853E+03-3.32745E+04 8.33225E-09 3.78633E-08
 -1       596-7.45032E+04-1.59550E+04-5.88752E+02-3.52852E+04 1.37432E-08 1.72192E-08
 -1       597-7.62013E+04-1.42125E+04-3.20196E+02-3.32773E+04 1.36053E-08 1.99401E-09
 -1       598-7.44823E+04-1.59491E+04-2.56674E+02-3.52781E+04-1.64277E-09-1.92696E-08
 -1       599-7.62001E+04-1.42130E+04-3.26966E+02-3.32770E+04 3.85012E-09-8.56460E-09
 -1       600-7.45032E+04-1.59556E+04-6.06673E+02-3.52831E+04 6.59281E-09-1.62511E-08
 -1       601-7.61755E+04-1.41985E+04-1.19646E+03-3.32735E+04-3.03407E-09 9.56561E-10
 -1       602-7.47223E+04-1.61100E+04-2.60736E+03-3.53052E+04-1.49084E-08-8.58131E-09
 -1       603-7.59959E+04-1.42070E+04-5.22873E+03-3.31970E+04-9.75660E-10 2.22017E-08
 -1       604-7.79418E+04-1.94930E+04-1.25606E+04-3.51589E+04 5.16366E-09 1.25394E-08
 -1       605-7.36565E+04-1.59077E+04-2.31885E+04-3.15164E+04 2.41778E-09 1.27966E-09
 -1       606 2.67165E+04-1.43340E+04-2.56956E+04 2.39971E+04 4.76848E-09-9.93168E-10
 -1       607 2.23260E+04-4.68167E+03-1.27963E+04 2.69677E+04 3.26509E-10-2.14050E-08
 -1       608 2.48283E+04-8.44760E+02-5.72848E+03 2.38284E+04-6.91398E-09-1.06700E-08
 -1       609 2.43486E+04-2.89587E+02-2.89388E+03 2.71819E+04 2.47383E-10 1.61460E-08
 -1       610 2.46146E+04-4.12264E+01-1.38070E+03 2.38083E+04 5.77529E-09 4.26598E-09
 -1       611 2.45393E+04-4.15209E+01-6.96141E+02 2.72050E+04 1.28275E-08 9.09495E-09
 -1       612 2.45675E+04-2.75102E+01-3.30933E+02 2.38063E+04 4.82123E-09 1.39232E-08
 -1       613 2.45509E+04-3.74261E+01-1.48275E+02 2.72077E+04 5.29144E-09-6.02063E-09
 -1       614 2.45453E+04-3.39289E+01-3.47121E+01 2.38056E+04 6.20275E-10 1.24328E-08
 -1       615 2.45456E+04-3.59343E+01 6.22849E+01 2.72081E+04-4.65570E-09 3.34035E-08
 -1       616 2.45279E+04-3.08027E+01 1.86644E+02 2.38059E+04-2.68301E-10 1.85150E-09
 -1       617 2.45681E+04 3.84148E+00 4.25786E+02 2.72077E+04 7.75344E-11-3.90810E-09
 -1       618 2.44909E+04 9.19444E+01 8.58222E+02 2.38062E+04 3.56067E-10-9.78935E-09
 -1       619 2.48710E+04 6.67421E+02 1.92719E+03 2.72071E+04-7.01561E-10 1.50310E-08
 -1       620 2.42059E+04 2.12702E+03 3.87360E+03 2.38077E+04 2.29193E-09 5.36420E-09
 -1       621 5.06746E+02 3.01147E+05 3.84064E+03 4.15402E+04 9.41782E-10-2.39197E-10
 -1       622 6.74000E+02 3.02031E+05 3.41444E+03 6.03113E+04 1.01227E-09 6.72662E-09
 -1       623 1.44736E+02 3.01336E+05 4.10991E+03 4.13532E+04 1.31195E-09 1.06666E-08
 -1       624 2.11671E+03 3.03241E+05 7.97343E+03 6.04944E+04 1.36481E-09 1.87219E-08
 -1       625 2.06679E+03 2.99754E+05 1.39358E+04 4.13510E+04 1.53614E-09-2.44609E-09
 -1       626 2.60877E+05 6.14031E+04 5.11007E+03 1.26737E+05 4.91536E-09-5.40240E-10
 -1       627 2.58558E+05 6.28028E+04 2.46250E+03 1.31008E+05 6.76346E-09-6.82758E-09
 -1       628 2.61005E+05 5.90648E+04 1.04146E+03 1.27605E+05-3.32238E-09-4.15207E-09
 -1       629 2.57924E+05 6.21244E+04 5.09750E+02 1.31248E+05 1.20808E-08 1.54637E-08
 -1       630 2.61019E+05 5.89518E+04 2.36574E+02 1.27642E+05 4.11455E-09-1.38613E-08
 -1       631 2.57857E+05 6.20986E+04 1.27467E+02 1.31250E+05 9.65315E-09-1.23778E-08
 -1       632 2.61016E+05 5.89558E+04 8.41589E+01 1.27638E+05 9.09813E-09 1.29028E-08
 -1       633 2.57849E+05 6.21004E+04 9.41839E+01 1.31246E+05 2.07751E-09-1.08982E-08
 -1       634 2.61011E+05 5.89529E+04 1.52586E+02 1.27637E+05-1.56456E-08 2.76168E-09
 -1       635 2.57863E+05 6.20987E+04 3.08993E+02 1.31252E+05-5.88585E-09 4.33192E-09
 -1       636 2.61002E+05 5.89471E+04 6.24132E+02 1.27637E+05 2.51612E-09-1.76424E-08
 -1       637 2.57999E+05 6.21957E+04 1.37238E+03 1.31251E+05 1.27693E-09-1.66024E-08
 -1       638 2.60954E+05 5.92503E+04 2.81976E+03 1.27500E+05 8.77844E-09-2.01298E-08
 -1       639 2.59480E+05 6.42559E+04 6.67169E+03 1.30815E+05 2.97682E-08 2.66482E-10
 -1       640 2.60749E+05 6.54019E+04 1.38449E+04 1.24908E+05 1.28957E-08-1.33339E-08
 -1       656 6.65919E+04-1.70422E+06-1.60748E+05-2.56447E+03-1.81899E-10-9.34489E-09
 -1       657-8.80950E+04-1.77686E+06-1.33170E+05 5.16103E+03-1.03228E-09-2.19201E-08
 -1       658 2.12268E+04-1.72485E+06-8.20153E+04-4.64921E+03 1.40653E-09-8.62102E-10
 -1       659-9.52594E+04-1.78027E+06-1.42586E+05 6.89265E+03-7.27596E-11 1.75086E-08
 -1       660 7.37404E+04-1.70083E+06-1.76936E+05-4.29607E+03-1.99361E-09 8.98680E-09
 -1       661 1.58727E+05 1.66098E+04 1.67298E+04 6.20483E+04-5.16593E-10-7.32598E-09
 -1       662 1.68184E+05 2.90009E+04 1.12747E+04 5.82967E+04-9.18590E-11-1.48054E-09
 -1       663 1.62013E+05 2.19771E+04 3.94319E+03 6.10946E+04 3.75621E-10 2.99408E-08
 -1       664 1.64373E+05 2.27244E+04 2.35885E+03 5.94617E+04-1.55151E-09-2.07922E-09
 -1       665 1.62511E+05 2.27101E+04 9.30549E+02 6.09491E+04 1.79159E-09-2.39510E-10
 -1       666 1.63783E+05 2.18862E+04 5.44697E+02 5.96515E+04 4.89777E-09-5.79992E-09
 -1       667 1.62599E+05 2.27935E+04 2.89501E+02 6.09126E+04 3.73856E-09-9.21965E-10
 -1       668 1.63687E+05 2.18263E+04 2.95411E+02 5.97045E+04-1.79540E-09-7.99900E-09
 -1       669 1.62607E+05 2.27683E+04 4.00294E+02 6.08963E+04-6.57934E-10 9.59955E-09
 -1       670 1.63784E+05 2.20437E+04 8.71975E+02 5.97074E+04-1.29093E-08-8.76567E-09
 -1       671 1.62501E+05 2.25806E+04 1.54837E+03 6.09077E+04 1.40143E-09-1.90937E-09
 -1       672 1.64687E+05 2.35501E+04 3.96155E+03 5.94888E+04 9.71842E-09 2.07082E-08
 -1       673 1.61709E+05 2.13000E+04 6.63895E+03 6.11004E+04 2.65391E-09 3.57932E-09
 -1       674 1.71005E+05 3.42164E+04 1.89860E+04 5.76326E+04-3.04533E-09-1.34901E-09
 -1       675 1.56223E+05 1.22130E+04 2.81819E+04 6.26519E+04-5.85078E-09-2.22826E-09
 -1       676 2.41208E+01-2.95967E+05-1.11386E+03-1.37685E+02 2.85524E-10 7.24510E-09
 -1       677-2.94638E+02-2.96237E+05-2.03856E+03 2.75147E+02 6.25496E-09 4.10692E-09
 -1       678 1.97622E+02-2.95775E+05-3.60366E+03-1.37373E+02 1.55296E-10 1.68636E-08
 -1       679-3.60372E+03-2.98412E+05-8.56081E+03 2.73959E+02 9.60972E-09 1.08009E-08
 -1       680 2.15163E+03-2.93793E+05-1.37971E+04-1.34978E+02 6.60293E-10 1.09762E-08
 -1       771-3.06294E+06-7.47546E+05-1.66004E+05-1.46633E+06-3.21306E-08-2.47092E-08
 -1       772-2.98578E+06-8.36436E+05-8.55858E+04-1.56910E+06-2.46946E-08 1.06011E-08
 -1       773-3.09446E+06-7.22973E+05-4.36319E+04-1.48088E+06-1.07393E-08 1.03901E-08
 -1       774-2.97626E+06-8.17898E+05-1.94659E+04-1.59489E+06 4.01633E-08 3.27418E-10
 -1       775-3.11092E+06-7.11422E+05-1.45626E+04-1.48794E+06 1.48430E-09 1.78989E-09
 -1       776-2.98862E+06-8.14858E+05-5.44554E+03-1.61441E+06-1.56433E-08 4.09273E-09
 -1       777-3.12521E+06-7.01111E+05-6.43500E+03-1.49417E+06 1.65892E-09 4.48927E-09
 -1       778-3.00153E+06-8.12030E+05-1.81929E+03-1.63118E+06 9.42964E-09 1.23291E-08
 -1       779-3.13749E+06-6.92101E+05-3.21602E+03-1.49950E+06-9.69158E-09-5.06407E-09
 -1       780-3.01290E+06-8.09332E+05-5.33354E+02-1.64484E+06-4.54020E-09 2.11003E-10
 -1       781-3.14726E+06-6.84837E+05-1.24955E+03-1.50366E+06-2.43017E-08-2.63753E-10
 -1       782-3.02166E+06-8.07042E+05 4.50164E+02-1.65492E+06-4.11092E-08-8.19955E-09
 -1       783-3.15414E+06-6.79789E+05 7.00638E+02-1.50658E+06-4.27099E-09-1.33550E-08
 -1       784-3.02651E+06-8.04754E+05 2.90506E+03-1.66114E+06-1.98197E-08-1.85173E-09
 -1       785-3.15821E+06-6.76778E+05 5.12832E+03-1.50843E+06-3.60014E-08 6.98492E-09
 -1       786 1.28885E+05-1.00286E+04 2.31249E+04-3.27541E+02 3.76252E-05 9.93105E-08
 -1       787 1.38931E+05 1.16086E+04 1.63727E+04-1.68847E+02 7.51458E-05 1.36227E-07
 -1       788 1.32756E+05-1.57617E+03 5.98249E+03-2.82653E+02 5.60793E-05 9.66963E-08
 -1       789 1.34420E+05 1.82419E+03 3.75987E+03-2.28643E+02 3.69636E-05 9.53914E-08
 -1       790 1.33397E+05-2.46179E+02 1.52111E+03-2.67751E+02 2.61828E-05 2.63053E-08
 -1       791 1.33670E+05 2.84969E+02 8.80251E+02-2.49562E+02 1.54086E-05 2.99444E-08
 -1       792 1.33506E+05-3.72350E+01 3.74270E+02-2.61734E+02 1.20571E-05 2.37570E-08
 -1       793 1.33541E+05 4.01628E+01 1.90187E+02-2.59458E+02 8.71012E-06 1.57300E-08
 -1       794 1.33527E+05-1.40922E+00 5.64564E+01-2.57854E+02 9.12916E-06 1.30209E-08
 -1       795 1.33506E+05-2.23036E+01-4.04436E+01-2.69003E+02 9.53581E-06 3.19462E-08
 -1       796 1.33541E+05 2.52246E+01-1.34086E+02-2.52189E+02 1.16583E-05 2.14596E-08
 -1       797 1.33424E+05-1.87728E+02-3.77722E+02-2.87737E+02 1.37724E-05 4.76716E-08
 -1       798 1.33608E+05 1.63987E+02-6.15088E+02-2.39121E+02 1.43350E-05 8.92175E-09
 -1       799 1.32958E+05-1.20357E+03-1.69554E+03-3.34430E+02 1.48859E-05 1.89738E-08
 -1       800 1.34008E+05 1.04086E+03-2.39919E+03-2.05495E+02 7.43018E-06-1.47126E-08
 -1       801-1.71364E+05-9.99936E+06-1.39368E+06 1.41582E+06 9.12405E-08-6.50180E-08
 -1       802 7.38564E+05 5.95269E+06 2.18235E+06-1.74782E+06 2.59839E-07-3.52475E-08
 -1       803-5.36788E+05-1.42693E+07-1.89095E+06 8.98468E+05 7.73180E-08 1.96305E-08
 -1       804 2.87329E+05 2.39660E+06 1.53771E+06 6.77286E+05-1.19766E-07-1.00491E-07
 -1       805 1.89346E+05-6.45738E+06-2.86360E+05-1.00363E+06-4.97384E-08-5.94973E-08
 -1       806-3.08446E+05-5.97905E+04-2.27484E+04-1.22437E+05-1.00049E-08 6.30871E-09
 -1       807-3.10206E+05-5.61075E+04-1.11761E+04-1.27992E+05 7.19069E-09-4.52127E-09
 -1       808-3.09071E+05-5.15914E+04-4.74124E+03-1.26312E+05-9.30322E-09-9.12462E-09
 -1       809-3.07855E+05-5.29679E+04-2.31835E+03-1.28267E+05-6.99902E-09 8.25185E-09
 -1       810-3.09166E+05-5.13060E+04-1.06264E+03-1.26483E+05 1.18680E-08 1.26806E-09
 -1       811-3.07673E+05-5.28418E+04-5.28502E+02-1.28232E+05 3.29237E-09-3.03673E-08
 -1       812-3.09180E+05-5.13306E+04-2.67432E+02-1.26483E+05-3.01952E-10-1.47029E-08
 -1       813-3.07648E+05-5.28441E+04-1.74061E+02-1.28213E+05-4.19823E-09 1.09972E-08
 -1       814-3.09172E+05-5.13404E+04-1.72905E+02-1.26478E+05-3.32693E-09-5.06543E-09
 -1       815-3.07651E+05-5.28464E+04-2.78965E+02-1.28206E+05-2.72939E-09-2.11951E-08
 -1       816-3.09151E+05-5.13396E+04-5.28980E+02-1.26474E+05 6.48652E-09-1.34874E-08
 -1       817-3.07741E+05-5.28969E+04-1.13535E+03-1.28194E+05-9.28503E-09 2.01228E-08
 -1       818-3.09082E+05-5.15000E+04-2.31580E+03-1.26399E+05 1.79443E-09 9.06311E-10
 -1       819-3.09009E+05-5.42952E+04-5.44887E+03-1.27892E+05 3.58341E-10-1.63830E-08
 -1       820-3.08644E+05-5.56171E+04-1.10905E+04-1.24641E+05-1.38971E-09-1.11140E-09
 -1       821-3.80583E+05 2.09411E+04-4.88007E+04 2.22610E+03 1.46839E-08-4.66753E-09
 -1       822-4.00137E+05-2.42622E+04-3.42540E+04-4.78024E+03 6.09752E-09 8.73115E-10
 -1       823-3.87973E+05 3.30410E+03-1.26001E+04 3.66719E+03-1.22966E-08-1.95951E-09
 -1       824-3.91179E+05-3.80903E+03-7.88040E+03-5.81986E+03 2.64949E-09 1.28977E-08
 -1       825-3.89550E+05 5.14050E+02-3.30713E+03 3.26585E+03 2.19687E-08 1.57936E-08
 -1       826-3.88615E+05-5.64712E+02-1.72078E+03-3.40981E+03 2.52503E-08 1.59062E-08
 -1       827-3.90509E+05 4.05225E+01-1.22027E+03 1.25698E+03 1.42167E-08-1.25933E-08
 -1       828-3.87815E+05-1.23637E+02-5.39113E+02 1.10282E+03-3.48976E-10-3.44697E-09
 -1       829-3.90334E+05 6.09125E+01-1.20559E+03-1.24681E+03 2.11557E-09 2.19926E-08
 -1       830-3.88991E+05-6.21449E+02-1.86254E+03 5.20704E+03 1.89741E-09 2.23824E-08
 -1       831-3.89359E+05 5.58579E+02-3.38212E+03-2.84726E+03-7.01031E-09 2.81784E-09
 -1       832-3.91255E+05-3.97274E+03-8.17326E+03 6.61607E+03-4.01078E-09 9.58141E-09
 -1       833-3.88089E+05 3.42386E+03-1.30909E+04-2.65590E+03-2.76445E-09-1.06138E-09
 -1       834-4.00153E+05-2.51448E+04-3.54277E+04 4.50918E+03-3.05593E-09-1.24160E-08
 -1       835-3.80441E+05 2.16952E+04-5.06126E+04-7.40268E+02 5.79220E-09 3.55067E-09
 -1       836-1.41368E+03 3.70426E+05 2.28630E+04-1.67565E+04-6.90306E-09 1.95932E-08
 -1       837 4.87032E+03 3.77588E+05 1.93548E+04-3.42258E+04-7.41329E-09 5.66479E-09
 -1       838-5.59379E+02 3.72430E+05 1.97314E+04-1.66833E+04-6.32417E-09-1.17204E-08
 -1       839 1.24191E+04 3.83209E+05 3.73370E+04-3.42784E+04-7.04858E-09 1.70144E-08
 -1       840-3.84245E+03 3.64743E+05 5.95437E+04-1.67098E+04-6.11908E-09 2.46562E-09
 -1       856-5.23545E+04 8.02982E+03-2.11603E+04-3.97355E+02 3.90253E-09 4.69663E-09
 -1       857-6.10720E+04-9.43481E+03-1.45666E+04 5.63607E+03 2.88867E-09 1.05445E-08
 -1       858-5.58068E+04 1.12610E+03-5.49059E+03-4.21524E+02 6.82041E-09-1.19469E-08
 -1       859-5.71101E+04-1.32485E+03-3.31332E+03 5.67202E+03-2.65827E-09-1.67938E-09
 -1       860-5.63226E+04 1.57711E+02-1.38862E+03-4.33041E+02 1.46639E-09-1.44229E-09
 -1       861-5.65168E+04-1.88308E+02-7.63907E+02 5.68771E+03 1.02574E-09-1.35571E-08
 -1       862-5.64033E+04 2.13692E+01-3.17549E+02-4.37189E+02-2.57280E-09-1.35702E-09
 -1       863-5.64179E+04-2.19138E+01-1.15682E+02 5.69012E+03-6.67429E-09 1.59859E-09
 -1       864-5.64220E+04-4.89658E+00 4.72138E+01-4.35449E+02-3.03774E-09-2.25424E-08
 -1       865-5.63621E+04 5.96043E+01 2.55370E+02 5.68018E+03-3.09495E-09 6.94352E-09
 -1       866-5.64569E+04-6.01687E+01 5.14652E+02-4.27255E+02 2.16687E-10-1.09646E-08
 -1       867-5.61200E+04 4.96830E+02 1.26678E+03 5.65794E+03 1.79398E-09 6.44235E-09
 -1       868-5.66592E+04-4.34234E+02 2.10500E+03-4.13203E+02-7.23105E-10 4.25189E-11
 -1       869-5.45768E+04 3.61390E+03 5.60493E+03 5.62134E+03 4.69558E-09-2.29920E-08
 -1       870-5.79924E+04-3.09258E+03 8.13400E+03-3.90557E+02-4.05726E-09-2.75959E-08
 -1       871-5.51826E+03-2.13605E+04-1.94919E+04 1.30409E+05-5.27871E-09 1.02345E-08
 -1       872-1.98167E+03-2.58930E+04-8.16189E+03 1.69094E+05-1.24519E-08-9.51331E-09
 -1       873 4.05710E+02-2.37006E+04 5.89435E+02 1.30122E+05-6.57656E-09-1.33463E-08
 -1       874 3.30670E+03-2.12900E+04 9.77904E+03 1.69124E+05-1.16515E-08 1.97831E-08
 -1       875 6.84686E+03-2.60303E+04 2.20611E+04 1.30361E+05-6.10271E-09-1.07739E-08
 -1       876 2.93777E+05 4.95145E+04 1.51027E+04 1.17895E+05 9.63826E-09 6.74208E-09
 -1       877 2.94774E+05 5.26961E+04 8.06542E+03 1.22228E+05 1.15033E-08-4.59863E-09
 -1       878 2.95189E+05 4.78415E+04 3.37901E+03 1.19132E+05-3.00042E-09 1.07889E-09
 -1       879 2.92722E+05 5.06473E+04 1.68364E+03 1.22330E+05 7.75731E-09 5.55110E-09
 -1       880 2.95290E+05 4.78243E+04 7.84215E+02 1.19182E+05-1.54387E-10-3.40481E-09
 -1       881 2.92585E+05 5.05596E+04 4.18801E+02 1.22306E+05-8.80266E-09 1.18573E-08
 -1       882 2.95299E+05 4.78375E+04 2.67953E+02 1.19184E+05-1.17734E-09-8.43228E-09
 -1       883 2.92576E+05 5.05551E+04 2.88109E+02 1.22299E+05-5.64478E-09 1.15898E-08
 -1       884 2.95293E+05 4.78347E+04 4.58355E+02 1.19184E+05-1.98895E-09-4.86392E-09
 -1       885 2.92612E+05 5.05614E+04 9.21574E+02 1.22310E+05-9.46358E-09 2.79238E-09
 -1       886 2.95257E+05 4.78079E+04 1.85740E+03 1.19180E+05-7.23312E-09-8.97876E-09
 -1       887 2.92938E+05 5.07754E+04 4.05724E+03 1.22357E+05 2.82671E-09-2.21622E-08
 -1       888 2.95001E+05 4.78530E+04 8.17546E+03 1.19051E+05 3.18497E-09 2.52567E-09
 -1       889 2.97805E+05 5.58370E+04 1.95296E+04 1.22208E+05-2.02331E-09-6.75391E-09
 -1       890 2.91664E+05 5.18169E+04 3.65786E+04 1.15939E+05-3.53930E-09 1.19508E-09
 -1       891-8.91699E+01-1.62784E+05-1.99652E+03 2.71583E+04-1.61504E-09-1.40153E-09
 -1       892-1.75095E+02-1.63312E+05-2.14430E+03 4.12416E+04 1.70485E-09-2.01564E-08
 -1       893 4.38778E+01-1.62849E+05-3.03610E+03 2.71657E+04-2.10889E-09-7.98764E-09
 -1       894-1.50991E+03-1.64459E+05-6.28358E+03 4.10890E+04 4.73392E-10 5.61886E-09
 -1       895-1.19918E+03-1.61540E+05-1.10653E+04 2.73127E+04-1.55671E-09 2.97769E-09
 -1       956-3.77211E+05-5.45715E+03-1.34713E+04 3.08777E+04 3.72165E-09 1.30331E-09
 -1       957-3.79854E+05-1.92507E+03-6.91458E+03 3.71066E+04-1.17670E-08-1.92995E-08
 -1       958-3.78422E+05-2.41217E+02-3.11593E+03 3.07099E+04-1.19144E-08-1.60744E-08
 -1       959-3.78619E+05-1.36387E+02-1.59104E+03 3.73024E+04 2.47519E-09 1.72449E-08
 -1       960-3.78540E+05-4.48205E+01-7.75857E+02 3.06926E+04 7.44967E-09 1.45999E-08
 -1       961-3.78538E+05-6.32387E+01-4.11325E+02 3.73228E+04 1.22120E-08-1.66110E-08
 -1       962-3.78568E+05-4.60343E+01-2.35448E+02 3.06897E+04 5.85533E-09-1.23919E-10
 -1       963-3.78539E+05-5.90280E+01-1.88927E+02 3.73265E+04 3.10831E-09 1.04135E-08
 -1       964-3.78573E+05-4.26679E+01-2.29652E+02 3.06889E+04 3.36760E-09-9.72432E-09
 -1       965-3.78551E+05-5.60542E+01-3.97122E+02 3.73258E+04 3.07887E-09-2.04741E-08
 -1       966-3.78557E+05-3.48189E+01-7.46136E+02 3.06904E+04 4.75757E-09-3.73802E-09
 -1       967-3.78640E+05-1.19587E+02-1.53029E+03 3.73115E+04-2.92312E-09 1.10517E-08
 -1       968-3.78453E+05-2.17298E+02-2.99574E+03 3.07031E+04 7.73070E-12-7.06791E-10
 -1       969-3.79841E+05-1.83434E+03-6.65046E+03 3.71630E+04-4.16367E-09 2.73849E-08
 -1       970-3.77297E+05-5.23002E+03-1.29555E+04 3.08302E+04-4.28372E-09 2.98396E-08
 -1       971-3.45409E+05-1.72776E+03-9.31136E+03 1.53818E+04 6.06724E-09-1.15759E-08
 -1       972-3.47650E+05-1.27200E+03-5.07087E+03 2.12729E+04 2.85763E-09-2.04818E-09
 -1       973-3.46446E+05-6.20633E+01-2.27129E+03 1.52607E+04 4.89763E-09 3.28623E-09
 -1       974-3.46581E+05-8.11176E+01-1.17736E+03 2.14100E+04-1.73236E-09-6.37488E-09
 -1       975-3.46528E+05-1.71792E+01-5.88986E+02 1.52483E+04-3.05499E-09 1.90403E-09
 -1       976-3.46520E+05-3.12644E+01-3.40644E+02 2.14258E+04 3.28055E-09-6.92773E-09
 -1       977-3.46545E+05-1.64321E+01-2.48741E+02 1.52449E+04-3.30829E-09 2.25327E-10
 -1       978-3.46525E+05-2.50377E+01-2.93133E+02 2.14307E+04-7.03892E-09 2.04408E-08
 -1       979-3.46545E+05-7.95287E+00-4.72739E+02 1.52435E+04-1.60986E-09 1.49040E-08
 -1       980-3.46561E+05-2.19762E+01-9.13906E+02 2.14317E+04-3.11957E-09 1.82581E-09
 -1       981-3.46515E+05 1.48901E+01-1.77061E+03 1.52440E+04 2.59195E-09-1.58307E-08
 -1       982-3.46804E+05-1.52806E+02-3.66013E+03 2.14250E+04 3.67754E-09 8.97258E-09
 -1       983-3.46292E+05-9.84880E+01-7.11182E+03 1.52500E+04-3.65026E-09 2.21121E-09
 -1       984-3.50224E+05-3.86710E+03-1.59267E+04 2.13394E+04-6.88897E-09 1.45155E-09
 -1       985-3.43073E+05-5.30248E+03-2.92464E+04 1.53214E+04-6.51926E-09-1.31549E-08
 -3
    1PSTEP                        33          17           1          
  100CL  117 6.63114E-01         409                     0   17           1
 -4  DISP        4    1
 -5  D1          1    2    1    0
 -5  D2          1    2    2    0
 -5  D3          1    2    3    0
 -5  ALL         1    2    0    0    1ALL
 -1         1 2.71943E-03 0.00000E+00 0.00000E+00
 -1         2 1.35338E-03-4.30247E-28-5.29396E-23
 -1         3 3.42750E-04-5.70657E-28 0.00000E+00
 -1         5 1.77158E-04-2.09273E-27-8.27181E-25
 -1         8 2.70851E-03-4.06173E-07 0.00000E+00
 -1         9 2.70187E-03-1.91239E-04 0.00000E+00
 -1        10 3.10786E-04-3.40634E-06 6.61744E-24
 -1        12 1.79006E-04 8.09579E-07 8.27181E-25
 -1        15 2.69601E-03-4.29975E-07 0.00000E+00
 -1        16 2.76821E-03-1.93062E-04 0.00000E+00
 -1        17 2.11503E-04-7.76826E-06 0.00000E+00
 -1        18 1.82956E-04 3.44289E-05 0.00000E+00
 -1        19 1.84550E-04 1.61273E-06 0.00000E+00
 -1        20 1.84690E-04-9.87263E-06 0.00000E+00
 -1        21 1.83797E-04-2.53874E-05-3.30872E-24
 -1        24 3.06209E-05-1.19942E-05 0.00000E+00
 -1        25 1.93723E-04 3.46548E-05 0.00000E+00
 -1        26 1.94433E-04 2.23222E-06 0.00000E+00
 -1        27 1.92217E-04-1.34315E-05 0.00000E+00
 -1        28 1.91900E-04-2.60097E-05 0.00000E+00
 -1        32 0.00000E+00 0.00000E+00 0.00000E+00
 -1        33 2.03277E-04 2.98645E-06 0.00000E+00
 -1        34 2.01159E-04-1.34877E-05 0.00000E+00
 -1        35 1.99227E-04-2.63521E-05 0.00000E+00
 -1        51 2.71869E-03-8.51036E-08-4.96308E-24
 -1        52 2.71735E-03-1.51817E-07-3.30872E-24
 -1        53 2.71553E-03-2.15062E-07 0.00000E+00
 -1        54 2.71337E-03-2.77074E-07-1.65436E-24
 -1        55 2.71098E-03-3.39614E-07-3.30872E-24
 -1        56 2.71174E-03 8.46949E-06-5.29396E-23
 -1        57 2.69670E-03 3.50847E-05 0.00000E+00
 -1        58 2.67656E-03 7.41341E-05 0.00000E+00
 -1        59 2.65404E-03 1.18719E-04 5.29396E-23
 -1        60 2.63250E-03 1.60990E-04 0.00000E+00
 -1        61 2.61513E-03 1.93286E-04 0.00000E+00
 -1        62 2.60413E-03 2.09729E-04 0.00000E+00
 -1        63 2.60092E-03 2.05852E-04 0.00000E+00
 -1        64 2.60532E-03 1.80921E-04 0.00000E+00
 -1        65 2.61643E-03 1.36191E-04 0.00000E+00
 -1        66 2.63231E-03 7.66767E-05-1.05879E-22
 -1        67 2.65077E-03 8.84610E-06 5.29396E-23
 -1        68 2.66930E-03-5.92202E-05 1.05879E-22
 -1        69 2.68543E-03-1.19412E-04 0.00000E+00
 -1        70 2.69690E-03-1.65149E-04-5.29396E-23
 -1        86 1.43817E-03-6.05840E-06 0.00000E+00
 -1        87 1.68352E-03-3.80289E-05 0.00000E+00
 -1        88 2.01341E-03-9.29611E-05 0.00000E+00
 -1        89 2.34772E-03-1.49400E-04 0.00000E+00
 -1        90 2.60376E-03-1.83937E-04 5.29396E-23
 -1       121 3.41853E-04-5.49975E-07 0.00000E+00
 -1       122 3.39164E-04-1.10304E-06 6.61744E-24
 -1       123 3.34692E-04-1.66224E-06-1.32349E-23
 -1       124 3.28456E-04-2.23061E-06 6.61744E-24
 -1       125 3.20477E-04-2.81081E-06 0.00000E+00
 -1       191 1.77209E-04 1.34994E-07-2.48154E-24
 -1       192 1.77363E-04 2.69976E-07 8.27181E-25
 -1       193 1.77620E-04 4.04938E-07 1.65436E-24
 -1       194 1.77979E-04 5.39868E-07 8.27181E-25
 -1       195 1.78441E-04 6.74753E-07-8.27181E-25
 -1       251 2.70821E-03 1.66595E-06 6.61744E-24
 -1       252 2.70790E-03 3.62466E-06-3.30872E-24
 -1       253 2.70760E-03 4.48693E-06 0.00000E+00
 -1       254 2.70729E-03 3.28337E-06 3.30872E-24
 -1       255 2.70698E-03-6.41975E-07 0.00000E+00
 -1       256 2.70665E-03-7.91102E-06 0.00000E+00
 -1       257 2.70628E-03-1.86387E-05 0.00000E+00
 -1       258 2.70588E-03-3.28965E-05 0.00000E+00
 -1       259 2.70543E-03-5.02214E-05 6.61744E-24
 -1       260 2.70493E-03-7.01113E-05 6.61744E-24
 -1       261 2.70441E-03-9.16755E-05-1.32349E-23
 -1       262 2.70386E-03-1.14003E-04 0.00000E+00
 -1       263 2.70332E-03-1.36065E-04 1.32349E-23
 -1       264 2.70280E-03-1.56839E-04 0.00000E+00
 -1       265 2.70232E-03-1.75498E-04 0.00000E+00
 -1       266 2.70643E-03-4.15788E-07 0.00000E+00
 -1       267 2.70434E-03-4.19066E-07 0.00000E+00
 -1       268 2.70226E-03-4.22746E-07 0.00000E+00
 -1       269 2.70018E-03-4.25237E-07 0.00000E+00
 -1       270 2.69809E-03-4.27700E-07 0.00000E+00
 -1       271 2.70765E-03 1.00676E-07-1.32349E-23
 -1       272 2.70775E-03-2.00078E-06-6.61744E-24
 -1       273 2.70876E-03-6.55663E-06 0.00000E+00
 -1       274 2.71061E-03-1.34009E-05-1.32349E-23
 -1       275 2.71323E-03-2.23468E-05 2.64698E-23
 -1       276 2.71654E-03-3.31923E-05 0.00000E+00
 -1       277 2.72046E-03-4.57195E-05-2.64698E-23
 -1       278 2.72491E-03-5.96970E-05 0.00000E+00
 -1       279 2.72979E-03-7.48821E-05-2.64698E-23
 -1       280 2.73501E-03-9.10222E-05 6.61744E-24
 -1       281 2.74048E-03-1.07857E-04 1.32349E-23
 -1       282 2.74610E-03-1.25120E-04-6.61744E-24
 -1       283 2.75179E-03-1.42542E-04 0.00000E+00
 -1       284 2.75743E-03-1.59853E-04 6.61744E-24
 -1       285 2.76293E-03-1.76782E-04 1.32349E-23
 -1       301 2.71393E-03-1.91577E-04-1.32349E-23
 -1       302 2.72435E-03-1.91869E-04 6.61744E-24
 -1       303 2.73405E-03-1.92150E-04-1.32349E-23
 -1       304 2.74397E-03-1.92433E-04 0.00000E+00
 -1       305 2.75505E-03-1.92729E-04 0.00000E+00
 -1       306 2.73983E-03-3.46128E-04-1.05879E-22
 -1       307 2.80369E-03-7.60594E-04 0.00000E+00
 -1       308 2.85031E-03-1.36627E-03-1.05879E-22
 -1       309 2.87410E-03-2.06702E-03 0.00000E+00
 -1       310 2.90542E-03-2.73698E-03-1.05879E-22
 -1       311 2.96493E-03-3.25305E-03 0.00000E+00
 -1       312 3.02270E-03-3.53461E-03 0.00000E+00
 -1       313 3.01773E-03-3.54393E-03 5.29396E-23
 -1       314 2.87609E-03-3.29321E-03 0.00000E+00
 -1       315 2.55693E-03-2.84709E-03 0.00000E+00
 -1       316 2.07878E-03-2.28228E-03 0.00000E+00
 -1       317 1.50774E-03-1.66808E-03 5.29396E-23
 -1       318 9.58289E-04-1.06505E-03 1.05879E-22
 -1       319 5.38520E-04-5.38154E-04 5.29396E-23
 -1       320 2.92201E-04-1.61571E-04 1.05879E-22
 -1       336 2.99196E-04-4.06478E-06 0.00000E+00
 -1       337 2.85529E-04-4.74893E-06 0.00000E+00
 -1       338 2.69849E-04-5.46099E-06 1.32349E-23
 -1       339 2.52228E-04-6.20180E-06 0.00000E+00
 -1       340 2.32749E-04-6.97580E-06 0.00000E+00
 -1       406 1.79673E-04 9.44329E-07 0.00000E+00
 -1       407 1.80443E-04 1.07896E-06-8.27181E-25
 -1       408 1.81316E-04 1.21343E-06-2.48154E-24
 -1       409 1.82292E-04 1.34757E-06 8.27181E-25
 -1       410 1.83370E-04 1.48108E-06-8.27181E-25
 -1       521 2.80676E-03-3.57241E-04-1.05879E-22
 -1       522 2.86883E-03-7.92050E-04 5.29396E-23
 -1       523 2.90895E-03-1.42569E-03 0.00000E+00
 -1       524 2.92345E-03-2.15524E-03 0.00000E+00
 -1       525 2.94681E-03-2.85199E-03 0.00000E+00
 -1       526 3.00275E-03-3.39022E-03-5.29396E-23
 -1       527 3.06010E-03-3.68241E-03 2.11758E-22
 -1       528 3.05281E-03-3.68991E-03 0.00000E+00
 -1       529 2.89904E-03-3.42492E-03 0.00000E+00
 -1       530 2.55569E-03-2.96010E-03 5.29396E-23
 -1       531 2.04210E-03-2.37598E-03 0.00000E+00
 -1       532 1.43086E-03-1.74445E-03 0.00000E+00
 -1       533 8.41916E-04-1.12343E-03 0.00000E+00
 -1       534 3.88557E-04-5.75527E-04 0.00000E+00
 -1       535 1.20868E-04-1.79287E-04 0.00000E+00
 -1       536 2.10748E-04 2.71547E-05 0.00000E+00
 -1       537 2.08831E-04 8.75860E-05 0.00000E+00
 -1       538 2.05868E-04 1.64261E-04 0.00000E+00
 -1       539 2.02373E-04 2.47831E-04 0.00000E+00
 -1       540 1.99229E-04 3.26797E-04 0.00000E+00
 -1       541 1.97185E-04 3.89682E-04 0.00000E+00
 -1       542 1.96242E-04 4.29735E-04-3.30872E-24
 -1       543 1.96017E-04 4.40354E-04 1.65436E-24
 -1       544 1.95695E-04 4.22313E-04-3.30872E-24
 -1       545 1.94523E-04 3.76606E-04 1.65436E-24
 -1       546 1.92339E-04 3.11358E-04 0.00000E+00
 -1       547 1.89382E-04 2.34815E-04-1.65436E-24
 -1       548 1.86453E-04 1.58647E-04 0.00000E+00
 -1       549 1.84340E-04 9.45293E-05 1.65436E-24
 -1       550 1.83242E-04 5.04890E-05 0.00000E+00
 -1       551 1.86299E-04-8.33778E-06 0.00000E+00
 -1       552 1.57849E-04-8.98777E-06 0.00000E+00
 -1       553 1.27097E-04-9.70002E-06-9.92617E-24
 -1       554 9.50024E-05-1.04534E-05 3.30872E-24
 -1       555 6.25254E-05-1.12205E-05 1.32349E-23
 -1       556 2.03854E-04 1.17900E-05-5.29396E-23
 -1       557 1.97674E-04 2.76521E-05 0.00000E+00
 -1       558 1.92829E-04 4.01062E-05 0.00000E+00
 -1       559 1.89186E-04 4.94627E-05 0.00000E+00
 -1       560 1.86615E-04 5.60324E-05 0.00000E+00
 -1       561 1.84988E-04 6.01289E-05 0.00000E+00
 -1       562 1.84179E-04 6.20668E-05 0.00000E+00
 -1       563 1.84065E-04 6.21618E-05 0.00000E+00
 -1       564 1.84524E-04 6.07303E-05 0.00000E+00
 -1       565 1.85434E-04 5.80894E-05 0.00000E+00
 -1       566 1.86677E-04 5.45571E-05 0.00000E+00
 -1       567 1.88132E-04 5.04512E-05 0.00000E+00
 -1       568 1.89683E-04 4.60903E-05 1.65436E-24
 -1       569 1.91210E-04 4.17924E-05 0.00000E+00
 -1       570 1.92595E-04 3.78760E-05 0.00000E+00
 -1       571 1.83052E-04 3.23014E-05 2.48154E-24
 -1       572 1.83151E-04 3.01077E-05 0.00000E+00
 -1       573 1.83250E-04 2.78636E-05-1.65436E-24
 -1       574 1.83350E-04 2.55856E-05-8.27181E-25
 -1       575 1.83449E-04 2.32900E-05-3.30872E-24
 -1       576 1.83549E-04 2.09935E-05 0.00000E+00
 -1       577 1.83648E-04 1.87125E-05 3.30872E-24
 -1       578 1.83748E-04 1.64636E-05 0.00000E+00
 -1       579 1.83848E-04 1.42635E-05 0.00000E+00
 -1       580 1.83948E-04 1.21286E-05 0.00000E+00
 -1       581 1.84048E-04 1.00755E-05 0.00000E+00
 -1       582 1.84148E-04 8.12082E-06 3.30872E-24
 -1       583 1.84248E-04 6.28103E-06 0.00000E+00
 -1       584 1.84349E-04 4.57251E-06 0.00000E+00
 -1       585 1.84450E-04 3.01147E-06 0.00000E+00
 -1       586 1.84710E-04 3.44687E-05-1.65436E-24
 -1       587 1.86422E-04 3.45079E-05-4.13590E-25
 -1       588 1.88136E-04 3.45468E-05-8.27181E-25
 -1       589 1.89896E-04 3.45849E-05 0.00000E+00
 -1       590 1.91744E-04 3.46219E-05 0.00000E+00
 -1       591 1.83685E-04 3.23953E-05-1.03398E-25
 -1       592 1.84418E-04 3.03415E-05 0.00000E+00
 -1       593 1.85156E-04 2.82731E-05 8.27181E-25
 -1       594 1.85897E-04 2.61950E-05 0.00000E+00
 -1       595 1.86640E-04 2.41120E-05 0.00000E+00
 -1       596 1.87383E-04 2.20289E-05 0.00000E+00
 -1       597 1.88124E-04 1.99503E-05 0.00000E+00
 -1       598 1.88862E-04 1.78811E-05-4.13590E-25
 -1       599 1.89594E-04 1.58259E-05 8.27181E-25
 -1       600 1.90320E-04 1.37894E-05 0.00000E+00
 -1       601 1.91036E-04 1.17766E-05 8.27181E-25
 -1       602 1.91742E-04 9.79192E-06 0.00000E+00
 -1       603 1.92437E-04 7.84028E-06 0.00000E+00
 -1       604 1.93117E-04 5.92648E-06-1.55096E-25
 -1       605 1.93782E-04 4.05516E-06 0.00000E+00
 -1       606 1.84563E-04 4.47753E-07 0.00000E+00
 -1       607 1.84573E-04-6.31301E-07 0.00000E+00
 -1       608 1.84582E-04-1.62947E-06 0.00000E+00
 -1       609 1.84590E-04-2.55244E-06 0.00000E+00
 -1       610 1.84599E-04-3.40596E-06 0.00000E+00
 -1       611 1.84607E-04-4.19582E-06 0.00000E+00
 -1       612 1.84615E-04-4.92783E-06 0.00000E+00
 -1       613 1.84624E-04-5.60782E-06 0.00000E+00
 -1       614 1.84632E-04-6.24159E-06 0.00000E+00
 -1       615 1.84641E-04-6.83497E-06 0.00000E+00
 -1       616 1.84649E-04-7.39376E-06 0.00000E+00
 -1       617 1.84657E-04-7.92380E-06 0.00000E+00
 -1       618 1.84666E-04-8.43088E-06 0.00000E+00
 -1       619 1.84674E-04-8.92084E-06-2.06795E-25
 -1       620 1.84682E-04-9.39949E-06 0.00000E+00
 -1       621 1.85911E-04 1.71655E-06-1.65436E-24
 -1       622 1.87431E-04 1.82061E-06-8.27181E-25
 -1       623 1.89077E-04 1.92445E-06 0.00000E+00
 -1       624 1.90815E-04 2.02797E-06 0.00000E+00
 -1       625 1.92612E-04 2.13119E-06 0.00000E+00
 -1       626 1.85099E-04 4.83842E-07 0.00000E+00
 -1       627 1.85625E-04-5.81927E-07-6.61744E-24
 -1       628 1.86131E-04-1.59243E-06 0.00000E+00
 -1       629 1.86619E-04-2.55582E-06-1.65436E-24
 -1       630 1.87093E-04-3.48032E-06 0.00000E+00
 -1       631 1.87555E-04-4.37413E-06-1.65436E-24
 -1       632 1.88009E-04-5.24545E-06 3.30872E-24
 -1       633 1.88457E-04-6.10251E-06 1.65436E-24
 -1       634 1.88904E-04-6.95352E-06 0.00000E+00
 -1       635 1.89351E-04-7.80668E-06 1.65436E-24
 -1       636 1.89802E-04-8.67023E-06-3.30872E-24
 -1       637 1.90259E-04-9.55237E-06 0.00000E+00
 -1       638 1.90727E-04-1.04613E-05 1.65436E-24
 -1       639 1.91208E-04-1.14053E-05 8.27181E-25
 -1       640 1.91704E-04-1.23926E-05 0.00000E+00
 -1       656 1.85396E-04-1.04511E-05 6.61744E-24
 -1       657 1.86522E-04-1.10530E-05-6.61744E-24
 -1       658 1.87928E-04-1.16536E-05 1.32349E-23
 -1       659 1.89469E-04-1.22538E-05 6.61744E-24
 -1       660 1.90960E-04-1.28558E-05 6.61744E-24
 -1       661 1.84954E-04-1.03908E-05 8.27181E-25
 -1       662 1.85256E-04-1.10008E-05 0.00000E+00
 -1       663 1.85590E-04-1.16974E-05 1.65436E-24
 -1       664 1.85955E-04-1.24740E-05 0.00000E+00
 -1       665 1.86347E-04-1.33250E-05-1.65436E-24
 -1       666 1.86766E-04-1.42442E-05 0.00000E+00
 -1       667 1.87207E-04-1.52262E-05 0.00000E+00
 -1       668 1.87670E-04-1.62653E-05 8.27181E-25
 -1       669 1.88152E-04-1.73561E-05 1.65436E-24
 -1       670 1.88652E-04-1.84934E-05-8.27181E-25
 -1       671 1.89167E-04-1.96719E-05 0.00000E+00
 -1       672 1.89695E-04-2.08866E-05 0.00000E+00
 -1       673 1.90235E-04-2.21323E-05 0.00000E+00
 -1       674 1.90784E-04-2.34046E-05 4.13590E-25
 -1       675 1.91341E-04-2.46980E-05-2.06795E-25
 -1       676 1.85153E-04-2.54917E-05 0.00000E+00
 -1       677 1.86507E-04-2.55960E-05 0.00000E+00
 -1       678 1.87860E-04-2.57002E-05 0.00000E+00
 -1       679 1.89210E-04-2.58041E-05 0.00000E+00
 -1       680 1.90557E-04-2.59080E-05 3.30872E-24
 -1       771 1.86659E-05 1.47403E-05 0.00000E+00
 -1       772 8.60815E-06 3.66977E-05 0.00000E+00
 -1       773 3.56851E-07 5.41082E-05 5.29396E-23
 -1       774-6.21232E-06 6.72298E-05 0.00000E+00
 -1       775-1.12211E-05 7.63309E-05 5.29396E-23
 -1       776-1.47960E-05 8.16966E-05-2.64698E-23
 -1       777-1.70634E-05 8.36223E-05 5.29396E-23
 -1       778-1.81523E-05 8.24171E-05 0.00000E+00
 -1       779-1.81909E-05 7.83986E-05 0.00000E+00
 -1       780-1.73098E-05 7.18959E-05 2.64698E-23
 -1       781-1.56382E-05 6.32449E-05-5.29396E-23
 -1       782-1.33071E-05 5.27903E-05-2.64698E-23
 -1       783-1.04467E-05 4.08814E-05 5.29396E-23
 -1       784-7.18814E-06 2.78740E-05 0.00000E+00
 -1       785-3.66189E-06 1.41265E-05-5.29396E-23
 -1       786 1.93763E-04 3.24168E-05 0.00000E+00
 -1       787 1.93807E-04 3.02561E-05 0.00000E+00
 -1       788 1.93851E-04 2.81491E-05 8.27181E-25
 -1       789 1.93895E-04 2.60723E-05-8.27181E-25
 -1       790 1.93940E-04 2.40166E-05 1.65436E-24
 -1       791 1.93984E-04 2.19730E-05 0.00000E+00
 -1       792 1.94029E-04 1.99386E-05 0.00000E+00
 -1       793 1.94074E-04 1.79103E-05 8.27181E-25
 -1       794 1.94118E-04 1.58880E-05 0.00000E+00
 -1       795 1.94163E-04 1.38718E-05-8.27181E-25
 -1       796 1.94208E-04 1.18644E-05-1.65436E-24
 -1       797 1.94253E-04 9.86871E-06 0.00000E+00
 -1       798 1.94297E-04 7.89338E-06 0.00000E+00
 -1       799 1.94342E-04 5.94705E-06 0.00000E+00
 -1       800 1.94387E-04 4.05238E-06 0.00000E+00
 -1       801 1.47921E-04 3.11548E-05 0.00000E+00
 -1       802 9.44069E-06 1.94362E-05-2.64698E-23
 -1       803-1.08843E-04 9.81747E-06 0.00000E+00
 -1       804-9.64807E-05 6.83350E-06-2.64698E-23
 -1       805-3.18762E-05 2.68512E-06-5.29396E-23
 -1       806 1.94453E-04 3.23339E-05 3.30872E-24
 -1       807 1.95168E-04 3.00387E-05 0.00000E+00
 -1       808 1.95872E-04 2.77743E-05 3.30872E-24
 -1       809 1.96562E-04 2.55450E-05 0.00000E+00
 -1       810 1.97237E-04 2.33548E-05-3.30872E-24
 -1       811 1.97896E-04 2.12078E-05 0.00000E+00
 -1       812 1.98537E-04 1.91079E-05 3.30872E-24
 -1       813 1.99159E-04 1.70592E-05 0.00000E+00
 -1       814 1.99761E-04 1.50656E-05 3.30872E-24
 -1       815 2.00341E-04 1.31311E-05-1.65436E-24
 -1       816 2.00897E-04 1.12597E-05 1.65436E-24
 -1       817 2.01428E-04 9.45528E-06 0.00000E+00
 -1       818 2.01933E-04 7.72182E-06-1.65436E-24
 -1       819 2.02410E-04 6.06328E-06 8.27181E-25
 -1       820 2.02858E-04 4.48354E-06 1.65436E-24
 -1       821 1.94303E-04-1.78434E-07 0.00000E+00
 -1       822 1.94162E-04-3.83883E-06-1.65436E-24
 -1       823 1.94018E-04-8.29261E-06 0.00000E+00
 -1       824 1.93871E-04-1.30784E-05 0.00000E+00
 -1       825 1.93726E-04-1.76448E-05 0.00000E+00
 -1       826 1.93583E-04-2.14416E-05 1.65436E-24
 -1       827 1.93443E-04-2.41290E-05 3.30872E-24
 -1       828 1.93306E-04-2.53740E-05-1.65436E-24
 -1       829 1.93170E-04-2.52376E-05 3.30872E-24
 -1       830 1.93033E-04-2.37892E-05 1.65436E-24
 -1       831 1.92894E-04-2.14569E-05 0.00000E+00
 -1       832 1.92754E-04-1.86738E-05 0.00000E+00
 -1       833 1.92615E-04-1.59965E-05 0.00000E+00
 -1       834 1.92479E-04-1.39810E-05 0.00000E+00
 -1       835 1.92344E-04-1.30030E-05-8.27181E-25
 -1       836 1.96122E-04 2.35730E-06 0.00000E+00
 -1       837 1.97681E-04 2.48552E-06 0.00000E+00
 -1       838 1.99143E-04 2.61368E-06-3.30872E-24
 -1       839 2.00542E-04 2.74114E-06-8.27181E-25
 -1       840 2.01909E-04 2.86843E-06 0.00000E+00
 -1       856 1.92201E-04-1.44928E-05-8.27181E-25
 -1       857 1.92181E-04-1.54183E-05 0.00000E+00
 -1       858 1.92162E-04-1.62291E-05 2.06795E-25
 -1       859 1.92142E-04-1.69463E-05 0.00000E+00
 -1       860 1.92123E-04-1.75913E-05 0.00000E+00
 -1       861 1.92103E-04-1.81853E-05-2.06795E-25
 -1       862 1.92083E-04-1.87495E-05-4.13590E-25
 -1       863 1.92063E-04-1.93055E-05 0.00000E+00
 -1       864 1.92043E-04-1.98745E-05 8.27181E-25
 -1       865 1.92023E-04-2.04778E-05 0.00000E+00
 -1       866 1.92003E-04-2.11369E-05 0.00000E+00
 -1       867 1.91983E-04-2.18728E-05 4.13590E-25
 -1       868 1.91963E-04-2.27070E-05 8.27181E-25
 -1       869 1.91942E-04-2.36605E-05 0.00000E+00
 -1       870 1.91922E-04-2.47544E-05 0.00000E+00
 -1       871 1.93566E-04-1.34364E-05 0.00000E+00
 -1       872 1.95062E-04-1.34448E-05 0.00000E+00
 -1       873 1.96638E-04-1.34538E-05 0.00000E+00
 -1       874 1.98225E-04-1.34636E-05 3.87741E-25
 -1       875 1.99754E-04-1.34739E-05-4.13590E-25
 -1       876 1.92742E-04-1.44782E-05 0.00000E+00
 -1       877 1.93245E-04-1.54581E-05 1.65436E-24
 -1       878 1.93726E-04-1.63791E-05 0.00000E+00
 -1       879 1.94188E-04-1.72486E-05 1.65436E-24
 -1       880 1.94634E-04-1.80741E-05 0.00000E+00
 -1       881 1.95066E-04-1.88628E-05 0.00000E+00
 -1       882 1.95488E-04-1.96223E-05-3.30872E-24
 -1       883 1.95901E-04-2.03597E-05 1.65436E-24
 -1       884 1.96308E-04-2.10825E-05-3.30872E-24
 -1       885 1.96713E-04-2.17980E-05 1.65436E-24
 -1       886 1.97117E-04-2.25136E-05 0.00000E+00
 -1       887 1.97525E-04-2.32365E-05 1.65436E-24
 -1       888 1.97937E-04-2.39742E-05 0.00000E+00
 -1       889 1.98358E-04-2.47342E-05 0.00000E+00
 -1       890 1.98788E-04-2.55238E-05 0.00000E+00
 -1       891 1.93263E-04-2.60672E-05 0.00000E+00
 -1       892 1.94603E-04-2.61249E-05 0.00000E+00
 -1       893 1.95895E-04-2.61825E-05 8.27181E-25
 -1       894 1.97113E-04-2.62398E-05-4.13590E-25
 -1       895 1.98231E-04-2.62969E-05 4.13590E-25
 -1       956 2.03147E-04 1.66439E-06 3.30872E-24
 -1       957 2.03015E-04 4.33975E-07 1.65436E-24
 -1       958 2.02882E-04-7.15526E-07 3.30872E-24
 -1       959 2.02749E-04-1.79546E-06-1.65436E-24
 -1       960 2.02616E-04-2.81722E-06 3.30872E-24
 -1       961 2.02483E-04-3.79222E-06 0.00000E+00
 -1       962 2.02351E-04-4.73189E-06 3.30872E-24
 -1       963 2.02218E-04-5.64770E-06 1.65436E-24
 -1       964 2.02085E-04-6.55109E-06 3.30872E-24
 -1       965 2.01952E-04-7.45350E-06 0.00000E+00
 -1       966 2.01820E-04-8.36639E-06 0.00000E+00
 -1       967 2.01687E-04-9.30122E-06 0.00000E+00
 -1       968 2.01554E-04-1.02694E-05 0.00000E+00
 -1       969 2.01422E-04-1.12824E-05 0.00000E+00
 -1       970 2.01289E-04-1.23515E-05 3.30872E-24
 -1       971 2.01039E-04-1.46234E-05 3.30872E-24
 -1       972 2.00918E-04-1.56646E-05 1.65436E-24
 -1       973 2.00797E-04-1.66216E-05-3.30872E-24
 -1       974 2.00675E-04-1.75053E-05 0.00000E+00
 -1       975 2.00554E-04-1.83265E-05-3.30872E-24
 -1       976 2.00432E-04-1.90960E-05 0.00000E+00
 -1       977 2.00311E-04-1.98249E-05 0.00000E+00
 -1       978 2.00189E-04-2.05240E-05 0.00000E+00
 -1       979 2.00068E-04-2.12042E-05-3.30872E-24
 -1       980 1.99947E-04-2.18764E-05 0.00000E+00
 -1       981 1.99825E-04-2.25515E-05 3.30872E-24
 -1       982 1.99704E-04-2.32404E-05 0.00000E+00
 -1       983 1.99583E-04-2.39541E-05 3.30872E-24
 -1       984 1.99462E-04-2.47034E-05 1.65436E-24
 -1       985 1.99342E-04-2.54992E-05-3.30872E-24
 -3
    1PSTEP                        34          17           1          
  100CL  117 6.63114E-01         409                     0   17           1
 -4  STRESS      6    1
 -5  SXX         1    4    1    1
 -5  SYY         1    4    2    2
 -5  SZZ         1    4    3    3
 -5  SXY         1    4    1    2
 -5  SYZ         1    4    2    3
 -5  SZX         1    4    3    1
 -1         1-5.33957E+06-1.60181E+06-1.13375E+06-1.36589E+06-2.80852E-09 6.24277E-08
 -1         2 1.45227E+06 2.13198E+07 4.98039E+06 6.43452E+06 2.50002E-08-1.16997E-08
 -1         3-1.48884E+03-1.56156E+06 4.06479E+02-2.21694E+03-4.66152E-10-5.07644E-08
 -1         5-7.53787E+01 3.86567E+05 9.98833E+00-1.34452E+00-5.57199E-10 4.17040E-08
 -1         8-5.60701E+05-2.02081E+05-6.33460E+04-2.45994E+05-1.08230E-10 1.58594E-07
 -1         9 1.17413E+07 3.73610E+06 2.76711E+06-3.56293E+05 1.36904E-08-8.33999E-08
 -1        10-2.30629E+03-1.62727E+06-3.95367E+03-1.50006E+04-1.29894E-08-1.72799E-08
 -1        12-7.14581E+01 3.86589E+05 3.28347E+02-9.16360E+00-6.23459E-10 1.41881E-08
 -1        15 9.35934E+02 5.14342E+02 3.02538E+03 8.42972E-01-1.73415E-10 1.75615E-07
 -1        16 2.28956E+07-3.25108E+05 3.11806E+06-2.26592E+06 1.56191E-08-6.98492E-10
 -1        17 8.37905E+06 6.28072E+06 2.26385E+06 6.00995E+06 2.01806E-08 2.59955E-08
 -1        18 1.42646E+05 3.35722E+04 4.15830E+03-1.19766E+05 1.33311E-08 2.24568E-08
 -1        19 1.22454E+05 1.41643E+05-9.59279E+02 2.20521E+04 1.62981E-09 1.30778E-08
 -1        20-8.18714E+04-5.73716E+05-1.28731E+05 2.51548E+04-1.39244E-09 1.80498E-08
 -1        21-4.55927E+01-2.96079E+05-9.24288E+02 2.75187E+02 1.46216E-08 2.12925E-08
 -1        24 1.40317E+07 1.20880E+07 3.88537E+06 1.11928E+07-1.65096E-07-5.70241E-08
 -1        25 1.26414E+05 2.68277E+05 1.00610E+05-6.46352E+05-2.19761E-09 2.20902E-08
 -1        26-5.44054E+04 9.24438E+04-2.45380E+04 1.21641E+03-1.73168E-10 1.32920E-09
 -1        27-7.58418E+04-3.10030E+05-1.13370E+05 6.89963E+04 3.69437E-09-5.37087E-09
 -1        28 2.22464E+04-8.53557E+04 1.69006E+04 2.06362E+04-3.54231E-09 2.97156E-10
 -1        32-1.68069E+06-3.18118E+06-1.97396E+05 4.58289E+05-4.24043E-08-1.02029E-08
 -1        33-1.78318E+05 9.30242E+04 3.23849E+04-3.89188E+04-3.14594E-09 2.76668E-09
 -1        34-2.23599E+05-2.50338E+04 6.89171E+02 7.56479E+04-6.26594E-09-5.46803E-09
 -1        35-2.29367E+04-3.38497E+04-1.34852E+03 5.15079E+04-3.95640E-09 5.59279E-09
 -1        51 6.06287E+04-1.72509E+05 1.28234E+05-4.40953E+05-1.45519E-10 2.33704E-08
 -1        52 2.05291E+04-1.50113E+05 6.72758E+04-5.14276E+05 2.07365E-10-1.07626E-07
 -1        53 4.18831E+03-1.65484E+05 3.50144E+04-4.39436E+05 2.03727E-10-1.17463E-07
 -1        54 7.39773E+03-1.61274E+05 2.87331E+04-5.15765E+05-3.63798E-12-2.93645E-07
 -1        55 1.61173E+04-1.68299E+05 3.49052E+04-4.39342E+05 2.32831E-10 1.68948E-07
 -1        56-9.77673E+06-1.35898E+06-9.11024E+05-4.07133E+06-3.60305E-08-4.86907E-08
 -1        57-1.10394E+07-8.55342E+05-5.49016E+05-2.74277E+06 1.90412E-08 2.47754E-07
 -1        58-9.60123E+06-1.81814E+06-2.00950E+05-4.25390E+06 2.44181E-08 5.93282E-08
 -1        59-1.11962E+07-3.30339E+05-1.08852E+05-2.67253E+06 3.73984E-09 1.05501E-09
 -1        60-9.69321E+06-1.82255E+06-5.68869E+04-4.20637E+06 2.07583E-08-4.63260E-08
 -1        61-1.05702E+07-6.54584E+05 1.34241E+04-2.92044E+06 3.32693E-08-8.95234E-08
 -1        62-1.00991E+07-1.58040E+06-7.27864E+04-3.90478E+06-3.55794E-08 5.12737E-08
 -1        63-9.70220E+06-1.34523E+06 5.06271E+04-3.60478E+06-5.23141E-08-3.80187E-08
 -1        64-1.04594E+07-1.20439E+06-6.68856E+04-3.45731E+06 2.92930E-08 1.56815E-07
 -1        65-9.32888E+06-1.93520E+06 1.06849E+04-4.48236E+06-5.19685E-08 2.55568E-07
 -1        66-1.05911E+07-9.08014E+05-4.67843E+04-3.11667E+06 3.00279E-08-1.35478E-08
 -1        67-9.33476E+06-2.18833E+06-9.80233E+04-4.89745E+06-8.28522E-08-1.99530E-07
 -1        68-1.05716E+07-8.68578E+05-1.86224E+05-3.11610E+06-6.13927E-08-5.51081E-08
 -1        69-9.52140E+06-2.27503E+06-4.88714E+05-4.44920E+06-3.39214E-08 5.92991E-08
 -1        70-1.02957E+07-9.09334E+05-8.35827E+05-3.49251E+06-4.66571E-09-3.40107E-07
 -1        86-1.48147E+06-1.53264E+07-2.72556E+06-3.02426E+06-2.63492E-07 1.11322E-08
 -1        87 2.32143E+06 6.10304E+06 2.26722E+06 5.62519E+06-4.57112E-07 8.31224E-08
 -1        88-4.33206E+05-1.98532E+06 2.13410E+05-2.52694E+06-4.05927E-07-2.95404E-09
 -1        89 3.10936E+06 5.81766E+06 2.32288E+06 5.81120E+06-5.52864E-07-2.45180E-07
 -1        90-2.17900E+06-1.51145E+07-2.94425E+06-3.23787E+06-1.10602E-07-1.33979E-07
 -1       121-2.03959E+03-1.56647E+06-5.47126E+02 1.09883E+03 1.41191E-09-3.11484E-08
 -1       122-1.30264E+03-1.56163E+06 7.70836E+02-4.43792E+03-5.35829E-09-7.67977E-09
 -1       123-2.05937E+03-1.56660E+06 2.62474E+02 3.28168E+03 4.34261E-09 9.18226E-09
 -1       124 3.37051E+02-1.56118E+06 2.95464E+03-9.28534E+03-1.02259E-08 6.22094E-09
 -1       125-2.86982E+03-1.56750E+06 3.46774E+03 5.90028E+03 6.74299E-09-1.24201E-08
 -1       191-7.94349E+01 3.86585E+05 8.48955E+00 7.01073E-01-6.05070E-10 5.67707E-09
 -1       192-7.63431E+01 3.86568E+05 2.13150E+01-4.31003E+00-8.17227E-10-1.21254E-08
 -1       193-8.19734E+01 3.86585E+05 3.62851E+01 3.78537E+00-1.08255E-09 8.41464E-09
 -1       194-7.94351E+01 3.86571E+05 8.10306E+01-9.77986E+00-5.01160E-10 1.03919E-08
 -1       195-8.68458E+01 3.86582E+05 1.55131E+02 6.36467E+00-1.52331E-09 1.21508E-09
 -1       251-8.66270E+05 1.61030E+04-3.76080E+04-1.41805E+04 5.98462E-10 2.11572E-07
 -1       252-8.80624E+05-1.86295E+04-2.61832E+04 4.96912E+04 9.91997E-09-2.49526E-07
 -1       253-8.74542E+05 2.47242E+03-1.01083E+04-1.00831E+04-3.78407E-09 4.97703E-08
 -1       254-8.67500E+05-2.98527E+03-4.59175E+03 3.54222E+04 2.76850E-09 2.29415E-08
 -1       255-8.78805E+05 6.95143E+01-3.47033E+03 8.52023E+01-1.85878E-09-8.19268E-08
 -1       256-8.62232E+05-2.77166E+02 1.09197E+03 1.23182E+04-5.69571E-10 2.50157E-07
 -1       257-8.79382E+05-5.51330E+02-1.33982E+03 1.30102E+04 3.99041E-10 8.65545E-08
 -1       258-8.64907E+05 8.78122E+02 2.63616E+03-1.20114E+04-6.20048E-09 2.39073E-07
 -1       259-8.76367E+05-9.02757E+02 1.38894E+03 2.44125E+04-6.18684E-10 1.05950E-08
 -1       260-8.71031E+05 2.87717E+03 5.53729E+03-2.95739E+04-4.82601E-11-1.59468E-07
 -1       261-8.73870E+05-2.07825E+03 8.63291E+03 3.05879E+04 2.51728E-08 6.03859E-09
 -1       262-8.69608E+05 1.16896E+04 2.14385E+04-3.47010E+04-3.94802E-09 4.61796E-08
 -1       263-8.78031E+05-9.49464E+03 3.39775E+04 2.95485E+04-1.00159E-08-3.93957E-08
 -1       264-8.39332E+05 6.67832E+04 9.40261E+04-2.56091E+04 2.22054E-08 1.26602E-08
 -1       265-9.03663E+05-5.72941E+04 1.31008E+05 2.14846E+04 1.85846E-08 1.89102E-07
 -1       266-1.69437E+04-7.92371E+03 3.97509E+04-1.80356E+01-2.00089E-11-9.85409E-08
 -1       267 1.96422E+04 9.23399E+03 2.80974E+04 2.08113E+01 4.09273E-11-3.27183E-07
 -1       268-2.63399E+03-1.30786E+03 1.04435E+04-2.65162E+00 8.68567E-11-5.76936E-08
 -1       269 3.10996E+03 1.56515E+03 6.78824E+03 3.08885E+00-6.27551E-11 3.19617E-07
 -1       270-4.66807E+02-2.57168E+02 3.27678E+03-4.19173E-01 1.96110E-10 2.68284E-07
 -1       271-1.49234E+06-1.89600E+05-1.12347E+05-5.80455E+05 2.95677E-08-1.26813E-07
 -1       272-1.49030E+06-3.02329E+05-7.06573E+04-6.17173E+05-1.96596E-08-5.67321E-07
 -1       273-1.51600E+06-2.13621E+05-2.72089E+04-5.72450E+05 2.38433E-08 9.65883E-08
 -1       274-1.46324E+06-2.73442E+05-1.42109E+04-6.32180E+05-2.49365E-08 2.02839E-07
 -1       275-1.52157E+06-2.13293E+05-6.75910E+03-5.68719E+05-8.52378E-09-4.86907E-08
 -1       276-1.45752E+06-2.74294E+05-2.88407E+03-6.40635E+05 2.05910E-08 4.12811E-08
 -1       277-1.52436E+06-2.10725E+05-1.86674E+03-5.66016E+05 3.69255E-09-9.08294E-08
 -1       278-1.45528E+06-2.77471E+05-7.31228E+02-6.46852E+05 6.53090E-08 1.17275E-07
 -1       279-1.52614E+06-2.08613E+05-8.77980E+02-5.64116E+05-5.48789E-08 2.20378E-07
 -1       280-1.45422E+06-2.79879E+05-1.02583E+03-6.50951E+05 5.38780E-08 9.23956E-09
 -1       281-1.52709E+06-2.07269E+05-1.89378E+03-5.63041E+05-5.00540E-08 5.24295E-08
 -1       282-1.45459E+06-2.82115E+05-4.40763E+03-6.52648E+05-2.07237E-08-1.28332E-07
 -1       283-1.52658E+06-2.05990E+05-7.84368E+03-5.62909E+05-3.50737E-08-1.04967E-07
 -1       284-1.46161E+06-2.92429E+05-2.13693E+04-6.50464E+05 1.60288E-08-2.18386E-07
 -1       285-1.52002E+06-1.98154E+05-3.33536E+04-5.64711E+05 1.45337E-08 5.44587E-08
 -1       301-6.45449E+03-6.45635E+05 1.67065E+05-1.13359E+06 3.07045E-09 6.11180E-09
 -1       302-8.05060E+03-5.99013E+05 1.00543E+05-1.65468E+06-3.39714E-08 1.68615E-07
 -1       303-2.12267E+04-6.37973E+05 5.68512E+04-1.13048E+06-9.82254E-09 2.15576E-07
 -1       304-2.39288E+04-6.05931E+05 5.72894E+04-1.65408E+06-1.32422E-08 3.27371E-07
 -1       305-2.55035E+04-6.26775E+05 7.05366E+04-1.13358E+06 5.65342E-09 1.46247E-08
 -1       306-3.01513E+07-6.22400E+06-8.61690E+06-5.08242E+05-3.95812E-08-2.20374E-07
 -1       307 2.53596E+07 3.28011E+06 5.51745E+06-1.52472E+07-8.48318E-07-3.69444E-07
 -1       308-6.94976E+06-1.02389E+06-4.47153E+05 5.21404E+06-2.16096E-07 6.27333E-08
 -1       309-3.22998E+06 8.76070E+06 2.29190E+06-2.06998E+07 3.41606E-07 3.08624E-07
 -1       310-1.26032E+07-1.95113E+06-2.04773E+06 5.22451E+06 6.01867E-08-1.05632E-07
 -1       311 3.85551E+07 1.10381E+04 7.29860E+06-8.78840E+06 1.53406E-07 1.07015E-07
 -1       312-3.19762E+07-6.79423E+06-8.55645E+06-5.06497E+06 1.23749E-07 7.34290E-08
 -1       313 4.54735E+07 1.50934E+07 1.06877E+07 2.38751E+07-2.23139E-07-3.63158E-07
 -1       314-1.72120E+07-1.78345E+07-7.53447E+06-1.25467E+07 2.76079E-07-2.19210E-07
 -1       315-1.86690E+06 2.98000E+07 5.67420E+06 1.05229E+07-3.13681E-07 8.79809E-08
 -1       316 1.41650E+06-9.84291E+06-4.36051E+05-2.51304E+06-1.20155E-06-2.54484E-07
 -1       317-1.71123E+07 2.24490E+07 2.24620E+06-8.86289E+06 7.63044E-07-8.44382E-07
 -1       318-1.07666E+06-1.28225E+07-2.05371E+06-4.24024E+06-9.22999E-07 6.01867E-08
 -1       319 7.25709E+06 3.20497E+07 7.05899E+06 1.66631E+07-5.20449E-08 3.18483E-07
 -1       320-2.26314E+07-1.76764E+07-9.87503E+06-1.28352E+07 1.95927E-07-4.68863E-08
 -1       336-7.43709E+02-1.69576E+06-1.38694E+04 8.93046E+03-2.69338E-08 5.67525E-09
 -1       337-5.41564E+03-1.69531E+06-1.80988E+04-2.16914E+04-4.95240E-08 3.23780E-09
 -1       338 2.78554E+02-1.69524E+06-2.85064E+04 1.25099E+04-3.53020E-08 8.82937E-09
 -1       339-3.02492E+04-1.71258E+06-6.44305E+04-2.87026E+04-6.34427E-08 1.59998E-08
 -1       340 1.99298E+04-1.68068E+06-1.01494E+05 1.58106E+04-4.25061E-08 2.58733E-08
 -1       406-4.97416E+01 3.86568E+05 6.44702E+02 3.35305E+00-1.81333E-09 9.35506E-09
 -1       407 1.54955E+02 3.86702E+05 1.37778E+03 2.34160E+01-4.14481E-10 2.02272E-08
 -1       408 6.35416E+02 3.86467E+05 2.74717E+03-2.70896E+01-2.26487E-09-2.00980E-08
 -1       409 2.90936E+03 3.87580E+05 6.19188E+03 2.89231E+02-6.71662E-10-3.65471E-08
 -1       410 8.48692E+03 3.85677E+05 1.26374E+04-2.78925E+02-2.98132E-09-1.21745E-08
 -1       521-3.17139E+07-7.68948E+06-1.00755E+07-1.13483E+05-8.18400E-08 9.20845E-08
 -1       522 2.62428E+07 4.31900E+06 5.63022E+06-1.87720E+07-5.11180E-07-9.30158E-08
 -1       523-7.52260E+06-1.33848E+06-4.38604E+05 5.66538E+06 1.59955E-07-1.57379E-07
 -1       524-6.73681E+06 1.18413E+07 2.48141E+06-2.37752E+07 9.66713E-07-4.62074E-07
 -1       525-1.34013E+07-2.59207E+06-2.25298E+06 5.68043E+06 4.19386E-07-2.70637E-07
 -1       526 4.21274E+07-8.40445E+04 7.66470E+06-1.14426E+07-1.82830E-07-3.78350E-07
 -1       527-3.38436E+07-8.50134E+06-9.87038E+06-4.92832E+06-4.05824E-07-3.79223E-08
 -1       528 4.96853E+07 1.68410E+07 1.11554E+07 2.71730E+07-1.46509E-07-4.79020E-07
 -1       529-1.81572E+07-2.00627E+07-8.64506E+06-1.25789E+07 6.09434E-08-1.01048E-07
 -1       530-4.35438E+06 3.46301E+07 6.00970E+06 9.96958E+06-3.21146E-07 4.76430E-07
 -1       531 1.42033E+06-1.09182E+07-4.08299E+05-2.45386E+06-9.21777E-07 2.95637E-07
 -1       532-1.96201E+07 2.44629E+07 2.45693E+06-1.31874E+07 4.32759E-07-7.52450E-07
 -1       533-1.11847E+06-1.39816E+07-2.18907E+06-4.04058E+06-3.36324E-07-1.07387E-06
 -1       534 5.25358E+06 3.72261E+07 7.35205E+06 1.72509E+07-8.49832E-08 7.59901E-07
 -1       535-2.38233E+07-2.00904E+07-1.13308E+07-1.29086E+07 1.04541E-07 4.67699E-07
 -1       536-7.05988E+05-4.67835E+04-4.80329E+04-5.46806E+04-4.59431E-09 6.88096E-08
 -1       537-5.50179E+04 4.47329E+04 8.39714E+04 1.23836E+05-1.15339E-07 9.53460E-08
 -1       538-3.94385E+05 3.33661E+03 3.58559E+03-7.21953E+04 4.02480E-08 1.18278E-07
 -1       539-2.69059E+05 2.86284E+03 2.49327E+04 1.38722E+05 1.94446E-07 1.15861E-07
 -1       540-4.97323E+05-4.30465E+02-2.13146E+04-7.01002E+04-1.64428E-08 1.16991E-07
 -1       541 1.46590E+05 1.69708E+04 1.06374E+05 9.79121E+04-1.65667E-08 8.39162E-08
 -1       542-7.98834E+05-2.01318E+04-8.42198E+04-3.05110E+04 4.05207E-08 4.56856E-08
 -1       543 4.05193E+05 2.73197E+04 1.57939E+05-1.33649E+04-7.40101E-10-1.76101E-08
 -1       544-7.48991E+05-1.65326E+04-7.48190E+04 4.05073E+04-2.71484E-09-3.61312E-08
 -1       545 2.88745E+04 9.47961E+03 7.97885E+04-1.13612E+05 1.37788E-10-6.35218E-08
 -1       546-4.32622E+05 6.09590E+03-1.22280E+04 6.93897E+04 1.59582E-08-8.04054E-08
 -1       547-2.87149E+05-4.65951E+03 1.05767E+04-1.41570E+05-1.20918E-07-1.11113E-07
 -1       548-4.41463E+05 4.72153E+03-2.38867E+04 6.91564E+04-1.07523E-07-1.10927E-07
 -1       549 4.80609E+04 1.60514E+04 6.04784E+04-1.11471E+05-7.69330E-08-6.83879E-08
 -1       550-7.58862E+05-2.21211E+04-1.28978E+05 3.85748E+04 4.81759E-09-3.98049E-08
 -1       551 4.08181E+04-7.51777E+05-1.58385E+04-1.24750E+06-1.02911E-07-4.51109E-09
 -1       552 9.33083E+04-7.96766E+05 9.96019E+03-1.77878E+06-7.29342E-08 5.16375E-08
 -1       553 7.17923E+04-7.93173E+05 3.20769E+04-1.24085E+06-1.23066E-07 2.90311E-08
 -1       554 1.32112E+05-8.12656E+05 8.11210E+04-1.78073E+06-7.94389E-08 1.09158E-08
 -1       555 1.01546E+05-8.16827E+05 1.48139E+05-1.24068E+06-1.24353E-07-1.10122E-08
 -1       556 2.23772E+05-3.83772E+05 2.58618E+04-4.07364E+05-2.38360E-08 9.89530E-10
 -1       557 3.54400E+05-4.88160E+05 1.62070E+04-5.27816E+05-1.01281E-08 2.45200E-09
 -1       558 2.05541E+05-3.76581E+05 2.34625E+03-4.11797E+05-1.56870E-08 9.07312E-09
 -1       559 3.29358E+05-4.88240E+05 2.45205E+03-5.48278E+05 2.60334E-08-8.06176E-09
 -1       560 1.90227E+05-3.66978E+05-1.50092E+03-4.22833E+05 8.58563E-09 7.81438E-09
 -1       561 3.10115E+05-4.80539E+05 1.32414E+02-5.61398E+05-5.42786E-09-1.36188E-08
 -1       562 1.78118E+05-3.59455E+05-1.32606E+03-4.31601E+05-2.32831E-09 9.35688E-09
 -1       563 2.95733E+05-4.74268E+05-3.60642E+01-5.70792E+05-1.89175E-09 4.80213E-09
 -1       564 1.69477E+05-3.54071E+05-6.00113E+02-4.37724E+05 3.05590E-10-2.14368E-09
 -1       565 2.86194E+05-4.70114E+05 2.54253E+01-5.76886E+05 8.76025E-09 4.05057E-08
 -1       566 1.64426E+05-3.50876E+05-2.57413E+02-4.41257E+05-4.23461E-09-6.37738E-09
 -1       567 2.81559E+05-4.68098E+05-3.56893E+02-5.79701E+05 1.63855E-08-8.38554E-09
 -1       568 1.63056E+05-3.50037E+05-1.11471E+03-4.42311E+05-4.70664E-09 6.33736E-09
 -1       569 2.80445E+05-4.68018E+05-2.81732E+03-5.78270E+05-1.04646E-08 2.82889E-08
 -1       570 1.66457E+05-3.53265E+05-6.16675E+03-4.41296E+05 1.17871E-08 7.44512E-09
 -1       571 2.90807E+05 1.05024E+04 1.49799E+04-9.55196E+04 5.40240E-09 1.08835E-08
 -1       572 2.92977E+05 3.96027E+03 7.34141E+03-1.04793E+05 5.08953E-09-4.55657E-09
 -1       573 2.91668E+05 1.24743E+03 3.26203E+03-9.53420E+04 4.53747E-09 1.00044E-10
 -1       574 2.91881E+05 7.29715E+02 1.63591E+03-1.05019E+05-1.83945E-10 2.65482E-09
 -1       575 2.91761E+05 4.50520E+02 7.72123E+02-9.53177E+04-4.56973E-09-1.73713E-09
 -1       576 2.91745E+05 4.62218E+02 3.95365E+02-1.05049E+05-8.79163E-09-3.92811E-09
 -1       577 2.91801E+05 3.92524E+02 1.97433E+02-9.53144E+04-8.51742E-09 2.91129E-09
 -1       578 2.91776E+05 4.24139E+02 1.14176E+02-1.05053E+05-7.20684E-09-1.45174E-08
 -1       579 2.91873E+05 3.55705E+02 7.86234E+01-9.53140E+04 1.08575E-08-8.15089E-09
 -1       580 2.91878E+05 3.72899E+02 9.15447E+01-1.05049E+05-5.49244E-09 6.66932E-09
 -1       581 2.91988E+05 2.96873E+02 1.38554E+02-9.53200E+04-6.83394E-09 8.55289E-09
 -1       582 2.92054E+05 3.35515E+02 2.81844E+02-1.04987E+05-1.85901E-08 1.77452E-08
 -1       583 2.92129E+05 3.40059E+02 5.41109E+02-9.53767E+04-9.72432E-09 7.63271E-09
 -1       584 2.92432E+05 7.82031E+02 1.22446E+03-1.04509E+05 3.94357E-09 7.79664E-09
 -1       585 2.92154E+05 1.81276E+03 2.47958E+03-9.57968E+04-2.59024E-09-6.36282E-09
 -1       586-3.44744E+03 1.17028E+05-2.94206E+03-2.51601E+05-5.87443E-09 1.00868E-08
 -1       587-1.34767E+03 1.16776E+05 7.67038E+02-2.76904E+05-8.08541E-09-1.67511E-08
 -1       588 3.98866E+02 1.16583E+05 4.77355E+03-2.51461E+05-2.65754E-09 3.39696E-09
 -1       589 5.10294E+03 1.19065E+05 1.23874E+04-2.76671E+05-9.28594E-09-6.11908E-09
 -1       590 1.66688E+04 1.15245E+05 2.59875E+04-2.51894E+05-3.18505E-09 2.65391E-09
 -1       591-7.37601E+04-1.58328E+04-2.24405E+04-3.15560E+04-3.26872E-09 1.06229E-09
 -1       592-7.78093E+04-1.94005E+04-1.21556E+04-3.51948E+04 4.19845E-10 5.88898E-11
 -1       593-7.60048E+04-1.42040E+04-5.05977E+03-3.32010E+04 1.48964E-09-2.58910E-09
 -1       594-7.47105E+04-1.61080E+04-2.52343E+03-3.53126E+04-1.82752E-10 6.49413E-09
 -1       595-7.61760E+04-1.41986E+04-1.15853E+03-3.32757E+04-9.95271E-10 8.40316E-10
 -1       596-7.44984E+04-1.59574E+04-5.88754E+02-3.52875E+04 9.95709E-09-5.46237E-09
 -1       597-7.61975E+04-1.42139E+04-3.20199E+02-3.32785E+04 1.09661E-08 1.95530E-09
 -1       598-7.44775E+04-1.59515E+04-2.56680E+02-3.52804E+04-8.02834E-09 1.27328E-08
 -1       599-7.61962E+04-1.42145E+04-3.26977E+02-3.32782E+04 3.92583E-09 9.64064E-10
 -1       600-7.44984E+04-1.59580E+04-6.06697E+02-3.52854E+04 6.17592E-09 1.80518E-08
 -1       601-7.61716E+04-1.42000E+04-1.19651E+03-3.32747E+04 3.51292E-10 1.67502E-08
 -1       602-7.47175E+04-1.61124E+04-2.60747E+03-3.53075E+04-6.80745E-09-1.44546E-08
 -1       603-7.59920E+04-1.42084E+04-5.22895E+03-3.31983E+04 6.27551E-11 8.29004E-10
 -1       604-7.79372E+04-1.94955E+04-1.25611E+04-3.51612E+04 4.93856E-10 1.23994E-08
 -1       605-7.36525E+04-1.59092E+04-2.31894E+04-3.15176E+04 4.11239E-09 1.90876E-08
 -1       606 2.67247E+04-1.43345E+04-2.56963E+04 2.40060E+04 5.59885E-09-1.27661E-08
 -1       607 2.23341E+04-4.68180E+03-1.27967E+04 2.69777E+04 1.10231E-09-1.99861E-08
 -1       608 2.48364E+04-8.44779E+02-5.72865E+03 2.38372E+04-4.03270E-09-1.36199E-08
 -1       609 2.43567E+04-2.89580E+02-2.89396E+03 2.71919E+04 2.80397E-09 1.07793E-08
 -1       610 2.46227E+04-4.12124E+01-1.38074E+03 2.38172E+04 4.63751E-09 1.86219E-09
 -1       611 2.45474E+04-4.14965E+01-6.96162E+02 2.72151E+04 1.08648E-08-9.11746E-09
 -1       612 2.45755E+04-2.74867E+01-3.30944E+02 2.38151E+04 5.25961E-09-1.76144E-08
 -1       613 2.45590E+04-3.73932E+01-1.48282E+02 2.72178E+04 4.81668E-09 5.26052E-09
 -1       614 2.45533E+04-3.38982E+01-3.47172E+01 2.38144E+04 8.03266E-09 5.06770E-09
 -1       615 2.45537E+04-3.58947E+01 6.22795E+01 2.72182E+04 1.66856E-08 1.16177E-08
 -1       616 2.45359E+04-3.07666E+01 1.86635E+02 2.38147E+04 9.75479E-09-8.28823E-09
 -1       617 2.45761E+04 3.88442E+00 4.25769E+02 2.72178E+04 1.85082E-09-1.76508E-08
 -1       618 2.44990E+04 9.19797E+01 8.58189E+02 2.38150E+04 3.95175E-10-1.05501E-08
 -1       619 2.48790E+04 6.67441E+02 1.92712E+03 2.72171E+04-3.29464E-09 6.03222E-09
 -1       620 2.42139E+04 2.12698E+03 3.87345E+03 2.38166E+04 1.49726E-10 1.41595E-08
 -1       621 5.06708E+02 3.01165E+05 3.84093E+03 4.15274E+04 1.00408E-09 6.42740E-09
 -1       622 6.73890E+02 3.02049E+05 3.41464E+03 6.02928E+04 1.10504E-09-6.70116E-09
 -1       623 1.44632E+02 3.01354E+05 4.11009E+03 4.13404E+04 1.12823E-09 4.07726E-09
 -1       624 2.11660E+03 3.03259E+05 7.97371E+03 6.04759E+04 1.11771E-09-2.16496E-08
 -1       625 2.06673E+03 2.99772E+05 1.39363E+04 4.13383E+04 1.26374E-09-6.96446E-10
 -1       626 2.60887E+05 6.14108E+04 5.11031E+03 1.26749E+05 3.26099E-09-6.29734E-09
 -1       627 2.58568E+05 6.28112E+04 2.46262E+03 1.31021E+05 7.04131E-09-3.08909E-08
 -1       628 2.61015E+05 5.90724E+04 1.04151E+03 1.27617E+05-5.42514E-09 1.06270E-08
 -1       629 2.57933E+05 6.21328E+04 5.09774E+02 1.31261E+05-4.41241E-09 3.90706E-09
 -1       630 2.61029E+05 5.89594E+04 2.36584E+02 1.27654E+05 2.71848E-09 1.00301E-08
 -1       631 2.57866E+05 6.21070E+04 1.27472E+02 1.31262E+05 8.46944E-09 1.23367E-08
 -1       632 2.61026E+05 5.89633E+04 8.41628E+01 1.27650E+05 9.19545E-09 3.22916E-09
 -1       633 2.57858E+05 6.21088E+04 9.41881E+01 1.31259E+05 4.05907E-09 2.90254E-08
 -1       634 2.61021E+05 5.89605E+04 1.52593E+02 1.27649E+05 5.38648E-10 1.93024E-08
 -1       635 2.57873E+05 6.21071E+04 3.09006E+02 1.31264E+05-4.45306E-09-6.68751E-09
 -1       636 2.61012E+05 5.89547E+04 6.24159E+02 1.27649E+05 2.82216E-09-1.44328E-08
 -1       637 2.58008E+05 6.22041E+04 1.37244E+03 1.31264E+05 8.59472E-10-6.79074E-09
 -1       638 2.60964E+05 5.92578E+04 2.81988E+03 1.27512E+05 9.65838E-09 1.56060E-08
 -1       639 2.59489E+05 6.42644E+04 6.67198E+03 1.30828E+05 2.17624E-08 1.54746E-08
 -1       640 2.60759E+05 6.54097E+04 1.38455E+04 1.24920E+05 1.21495E-08 1.05410E-08
 -1       656 6.65965E+04-1.70433E+06-1.60759E+05-2.56308E+03-4.65661E-10-1.66824E-09
 -1       657-8.81010E+04-1.77697E+06-1.33179E+05 5.16406E+03-1.44883E-09-4.78716E-08
 -1       658 2.12282E+04-1.72496E+06-8.20207E+04-4.64828E+03-1.48248E-10-1.67889E-08
 -1       659-9.52654E+04-1.78038E+06-1.42595E+05 6.89587E+03-1.87356E-09 9.03185E-10
 -1       660 7.37450E+04-1.70094E+06-1.76947E+05-4.29487E+03-1.45519E-09-8.89631E-09
 -1       661 1.58779E+05 1.66158E+04 1.67342E+04 6.20685E+04-2.22371E-09 1.92813E-10
 -1       662 1.68237E+05 2.90105E+04 1.12777E+04 5.83165E+04 3.10115E-09-2.96893E-09
 -1       663 1.62066E+05 2.19844E+04 3.94421E+03 6.11146E+04 1.49635E-09-1.23746E-08
 -1       664 1.64426E+05 2.27323E+04 2.35946E+03 5.94818E+04-1.10191E-09-1.74018E-09
 -1       665 1.62564E+05 2.27176E+04 9.30788E+02 6.09690E+04 4.66844E-09-8.69917E-09
 -1       666 1.63836E+05 2.18939E+04 5.44835E+02 5.96716E+04 8.63736E-09 2.99966E-09
 -1       667 1.62652E+05 2.28010E+04 2.89573E+02 6.09326E+04-1.14750E-09 7.85998E-09
 -1       668 1.63740E+05 2.18340E+04 2.95481E+02 5.97247E+04-8.45978E-09-1.25601E-08
 -1       669 1.62660E+05 2.27758E+04 4.00386E+02 6.09163E+04-1.19510E-09-1.35086E-09
 -1       670 1.63837E+05 2.20515E+04 8.72171E+02 5.97276E+04-9.40139E-09 1.78680E-09
 -1       671 1.62554E+05 2.25880E+04 1.54871E+03 6.09276E+04-3.69447E-10-1.26876E-08
 -1       672 1.64740E+05 2.35583E+04 3.96244E+03 5.95090E+04 8.61644E-09-2.35224E-09
 -1       673 1.61762E+05 2.13072E+04 6.64044E+03 6.11203E+04-1.10879E-09-2.63663E-09
 -1       674 1.71060E+05 3.42269E+04 1.89903E+04 5.76523E+04-1.09378E-09 2.64117E-09
 -1       675 1.56275E+05 1.22182E+04 2.81883E+04 6.26722E+04-2.20371E-09 1.74587E-08
 -1       676 2.41238E+01-2.96002E+05-1.11401E+03-1.37597E+02 1.73807E-09 7.13174E-09
 -1       677-2.94680E+02-2.96271E+05-2.03883E+03 2.74973E+02 1.19627E-08-9.72990E-09
 -1       678 1.97649E+02-2.95810E+05-3.60415E+03-1.37286E+02 3.36263E-09-1.18443E-08
 -1       679-3.60421E+03-2.98447E+05-8.56197E+03 2.73785E+02 7.08235E-09-4.68062E-09
 -1       680 2.15192E+03-2.93827E+05-1.37990E+04-1.34893E+02 2.86491E-10 3.85845E-09
 -1       771-3.06338E+06-7.47522E+05-1.65864E+05-1.46643E+06-2.97732E-08-3.09665E-08
 -1       772-2.98622E+06-8.36382E+05-8.55120E+04-1.56917E+06-1.61672E-08 7.09406E-09
 -1       773-3.09488E+06-7.22962E+05-4.35975E+04-1.48097E+06-8.67294E-09 4.74392E-09
 -1       774-2.97670E+06-8.17865E+05-1.94498E+04-1.59495E+06 3.40369E-08-4.50382E-09
 -1       775-3.11133E+06-7.11415E+05-1.45527E+04-1.48803E+06-5.55883E-09-5.58066E-09
 -1       776-2.98906E+06-8.14828E+05-5.44148E+03-1.61446E+06-9.19681E-09 1.91358E-09
 -1       777-3.12561E+06-7.01108E+05-6.43137E+03-1.49426E+06 3.14321E-09 3.17959E-09
 -1       778-3.00196E+06-8.12003E+05-1.81813E+03-1.63123E+06 9.41509E-09 6.47924E-09
 -1       779-3.13789E+06-6.92101E+05-3.21445E+03-1.49958E+06-1.64437E-09-1.14524E-08
 -1       780-3.01332E+06-8.09308E+05-5.33095E+02-1.64488E+06-4.45289E-09-4.09091E-09
 -1       781-3.14766E+06-6.84840E+05-1.24908E+03-1.50374E+06-2.09839E-08 1.45519E-11
 -1       782-3.02208E+06-8.07019E+05 4.49715E+02-1.65496E+06-3.83297E-08-5.94673E-09
 -1       783-3.15453E+06-6.79794E+05 6.99799E+02-1.50665E+06-5.14410E-09-1.64569E-08
 -1       784-3.02693E+06-8.04733E+05 2.90249E+03-1.66118E+06-1.99834E-08-1.43700E-10
 -1       785-3.15860E+06-6.76784E+05 5.12366E+03-1.50850E+06-3.73620E-08 6.87942E-09
 -1       786 1.28964E+05-1.00317E+04 2.31321E+04-3.27591E+02 3.76002E-05 9.76197E-08
 -1       787 1.39012E+05 1.16122E+04 1.63778E+04-1.68874E+02 7.50982E-05 1.56254E-07
 -1       788 1.32836E+05-1.57666E+03 5.98436E+03-2.82689E+02 5.60378E-05 9.17394E-08
 -1       789 1.34499E+05 1.82476E+03 3.76105E+03-2.28684E+02 3.69347E-05 8.29205E-08
 -1       790 1.33477E+05-2.46256E+02 1.52159E+03-2.67785E+02 2.61564E-05 3.52459E-08
 -1       791 1.33750E+05 2.85059E+02 8.80541E+02-2.49604E+02 1.53941E-05 4.42405E-08
 -1       792 1.33586E+05-3.72487E+01 3.74414E+02-2.61770E+02 1.20431E-05 4.49629E-08
 -1       793 1.33621E+05 4.01878E+01 1.90307E+02-2.59498E+02 8.70003E-06 2.53205E-08
 -1       794 1.33606E+05-1.42098E+00 5.65845E+01-2.57891E+02 9.12162E-06 9.81384E-09
 -1       795 1.33585E+05-2.22289E+01-4.02018E+01-2.69044E+02 9.52908E-06 3.08655E-08
 -1       796 1.33621E+05 2.51613E+01-1.33690E+02-2.52225E+02 1.16551E-05 2.20710E-08
 -1       797 1.33504E+05-1.87263E+02-3.76760E+02-2.87787E+02 1.37703E-05 3.59304E-08
 -1       798 1.33688E+05 1.63585E+02-6.13561E+02-2.39148E+02 1.43330E-05 2.17995E-08
 -1       799 1.33039E+05-1.20061E+03-1.69137E+03-3.34519E+02 1.48863E-05 4.51124E-08
 -1       800 1.34086E+05 1.03830E+03-2.39329E+03-2.05492E+02 7.43008E-06-5.45663E-09
 -1       801-1.71201E+05-9.99605E+06-1.39313E+06 1.41498E+06 9.31614E-08-5.55265E-08
 -1       802 7.38047E+05 5.94723E+06 2.18098E+06-1.74670E+06 2.61789E-07-3.68918E-08
 -1       803-5.36472E+05-1.42629E+07-1.88982E+06 8.98017E+05 7.85985E-08 1.20126E-08
 -1       804 2.87121E+05 2.39264E+06 1.53672E+06 6.76960E+05-1.20519E-07-1.01884E-07
 -1       805 1.89267E+05-6.45558E+06-2.86116E+05-1.00302E+06-5.00586E-08-7.03531E-08
 -1       806-3.08462E+05-5.97961E+04-2.27502E+04-1.22446E+05-3.65480E-09 5.32418E-09
 -1       807-3.10221E+05-5.61131E+04-1.11770E+04-1.28002E+05 8.93851E-09 8.75389E-10
 -1       808-3.09087E+05-5.15964E+04-4.74162E+03-1.26321E+05-4.39377E-09 7.76708E-10
 -1       809-3.07871E+05-5.29733E+04-2.31854E+03-1.28277E+05-1.67020E-08-4.12797E-09
 -1       810-3.09182E+05-5.13109E+04-1.06273E+03-1.26493E+05 3.82079E-09-1.49676E-08
 -1       811-3.07689E+05-5.28472E+04-5.28543E+02-1.28242E+05 3.85990E-09-3.20324E-09
 -1       812-3.09195E+05-5.13355E+04-2.67452E+02-1.26492E+05-9.37507E-09-1.33696E-08
 -1       813-3.07663E+05-5.28495E+04-1.74073E+02-1.28223E+05-4.32237E-09-4.95811E-09
 -1       814-3.09188E+05-5.13453E+04-1.72914E+02-1.26488E+05-3.23689E-09-2.91120E-08
 -1       815-3.07667E+05-5.28518E+04-2.78978E+02-1.28216E+05 6.30826E-09 4.94015E-09
 -1       816-3.09167E+05-5.13445E+04-5.29004E+02-1.26484E+05 5.73164E-09 5.57384E-09
 -1       817-3.07756E+05-5.29022E+04-1.13540E+03-1.28204E+05-6.68661E-09 3.91374E-08
 -1       818-3.09098E+05-5.15050E+04-2.31590E+03-1.26408E+05 4.39286E-10 1.24060E-08
 -1       819-3.09024E+05-5.43007E+04-5.44910E+03-1.27902E+05 5.50381E-09 9.74183E-09
 -1       820-3.08660E+05-5.56222E+04-1.10910E+04-1.24651E+05-1.98543E-09 9.63632E-09
 -1       821-3.80598E+05 2.09420E+04-4.88034E+04 2.22676E+03 1.44474E-08 1.37661E-08
 -1       822-4.00150E+05-2.42632E+04-3.42554E+04-4.78409E+03 5.85796E-09-7.46650E-09
 -1       823-3.87988E+05 3.30429E+03-1.26007E+04 3.66930E+03-1.28246E-08-1.39607E-10
 -1       824-3.91193E+05-3.80923E+03-7.88073E+03-5.82514E+03 7.63762E-10 2.69745E-09
 -1       825-3.89564E+05 5.14091E+02-3.30734E+03 3.26795E+03 2.28743E-08-1.15926E-09
 -1       826-3.88628E+05-5.64693E+02-1.72053E+03-3.41365E+03 2.91042E-08 2.50668E-08
 -1       827-3.90525E+05 4.04549E+01-1.22061E+03 1.25764E+03 1.19430E-08 1.89453E-08
 -1       828-3.87827E+05-1.23541E+02-5.38588E+02 1.10244E+03-3.69663E-09 1.24058E-08
 -1       829-3.90350E+05 6.08538E+01-1.20591E+03-1.24817E+03 1.05038E-09-1.20568E-08
 -1       830-3.89004E+05-6.21440E+02-1.86234E+03 5.21012E+03 2.03964E-09-1.26168E-08
 -1       831-3.89373E+05 5.58626E+02-3.38230E+03-2.85005E+03-4.70591E-09 6.51971E-09
 -1       832-3.91269E+05-3.97293E+03-8.17357E+03 6.62061E+03-3.43945E-09 3.51529E-08
 -1       833-3.88103E+05 3.42402E+03-1.30916E+04-2.65871E+03-2.36059E-09 2.27519E-08
 -1       834-4.00166E+05-2.51458E+04-3.54289E+04 4.51232E+03-4.02667E-09-2.36832E-09
 -1       835-3.80456E+05 2.16960E+04-5.06152E+04-7.41670E+02 6.31883E-09 3.90355E-09
 -1       836-1.41374E+03 3.70448E+05 2.28640E+04-1.67661E+04-7.12225E-09 1.90585E-08
 -1       837 4.87057E+03 3.77611E+05 1.93557E+04-3.42448E+04-7.68932E-09 2.13468E-08
 -1       838-5.59399E+02 3.72453E+05 1.97325E+04-1.66928E+04-6.18593E-09 2.11321E-09
 -1       839 1.24199E+04 3.83231E+05 3.73393E+04-3.42974E+04-6.58474E-09 2.35400E-09
 -1       840-3.84267E+03 3.64765E+05 5.95473E+04-1.67194E+04-6.13363E-09-7.59353E-09
 -1       856-5.23927E+04 8.03153E+03-2.11648E+04-3.97437E+02 4.32146E-09 2.39343E-08
 -1       857-6.11121E+04-9.43681E+03-1.45697E+04 5.63677E+03 7.12112E-09 5.22732E-09
 -1       858-5.58458E+04 1.12634E+03-5.49177E+03-4.21617E+02 4.50359E-09-1.18587E-08
 -1       859-5.71493E+04-1.32512E+03-3.31403E+03 5.67274E+03-3.23841E-09-1.28057E-09
 -1       860-5.63617E+04 1.57743E+02-1.38892E+03-4.33142E+02 8.57852E-10 4.29100E-09
 -1       861-5.65559E+04-1.88336E+02-7.64078E+02 5.68844E+03 2.60150E-09-2.32103E-09
 -1       862-5.64424E+04 2.13733E+01-3.17634E+02-4.37293E+02-5.35060E-10-1.56393E-09
 -1       863-5.64570E+04-2.19105E+01-1.15742E+02 5.69085E+03-4.18673E-09-1.18819E-08
 -1       864-5.64611E+04-4.89453E+00 4.71584E+01-4.35551E+02-1.27778E-09-1.37208E-08
 -1       865-5.64012E+04 5.95955E+01 2.55278E+02 5.68090E+03-3.27356E-09 1.14469E-08
 -1       866-5.64960E+04-6.01532E+01 5.14501E+02-4.27350E+02 1.03330E-09 3.72358E-09
 -1       867-5.61592E+04 4.96703E+02 1.26643E+03 5.65864E+03 2.12486E-09-1.12283E-08
 -1       868-5.66982E+04-4.34118E+02 2.10443E+03-4.13286E+02 6.65068E-10 1.05426E-08
 -1       869-5.46163E+04 3.61292E+03 5.60341E+03 5.62202E+03 4.37285E-09-1.99227E-08
 -1       870-5.80310E+04-3.09175E+03 8.13179E+03-3.90621E+02-4.97687E-09-1.50785E-08
 -1       871-5.51876E+03-2.13569E+04-1.94926E+04 1.30412E+05-4.01269E-09-4.67480E-09
 -1       872-1.98209E+03-2.58896E+04-8.16209E+03 1.69099E+05-1.02000E-08 2.59211E-08
 -1       873 4.05472E+02-2.36972E+04 5.89731E+02 1.30126E+05-6.52471E-09-4.26382E-09
 -1       874 3.30664E+03-2.12863E+04 9.78005E+03 1.69129E+05-1.20826E-08 5.62432E-09
 -1       875 6.84721E+03-2.60271E+04 2.20632E+04 1.30364E+05-5.64978E-09 5.41331E-09
 -1       876 2.93800E+05 4.95192E+04 1.51042E+04 1.17905E+05 5.82372E-09 1.03246E-08
 -1       877 2.94798E+05 5.27011E+04 8.06625E+03 1.22239E+05 8.28891E-09 8.79754E-09
 -1       878 2.95213E+05 4.78460E+04 3.37936E+03 1.19142E+05-7.30142E-09 4.72755E-09
 -1       879 2.92745E+05 5.06521E+04 1.68381E+03 1.22341E+05 4.04543E-09 5.74380E-09
 -1       880 2.95314E+05 4.78287E+04 7.84295E+02 1.19193E+05-3.38582E-09 3.66390E-09
 -1       881 2.92609E+05 5.05644E+04 4.18843E+02 1.22317E+05-4.51564E-09-3.04777E-09
 -1       882 2.95323E+05 4.78420E+04 2.67978E+02 1.19194E+05-9.30640E-10-9.99716E-09
 -1       883 2.92599E+05 5.05599E+04 2.88135E+02 1.22310E+05-1.23379E-09-1.50156E-08
 -1       884 2.95317E+05 4.78392E+04 4.58395E+02 1.19194E+05 8.16044E-10-6.61765E-09
 -1       885 2.92635E+05 5.05662E+04 9.21653E+02 1.22321E+05-2.72468E-09 7.32598E-10
 -1       886 2.95281E+05 4.78123E+04 1.85756E+03 1.19191E+05-4.98105E-10-1.16249E-08
 -1       887 2.92962E+05 5.07803E+04 4.05759E+03 1.22368E+05 5.00603E-09-6.49413E-09
 -1       888 2.95024E+05 4.78575E+04 8.17616E+03 1.19061E+05 3.99241E-09-4.56112E-09
 -1       889 2.97829E+05 5.58422E+04 1.95313E+04 1.22219E+05 1.25427E-09 1.34060E-08
 -1       890 2.91687E+05 5.18216E+04 3.65817E+04 1.15949E+05 2.41835E-09 1.24983E-08
 -1       891-8.92216E+01-1.62800E+05-1.99666E+03 2.71629E+04-1.73259E-10 1.06888E-08
 -1       892-1.75178E+02-1.63327E+05-2.14447E+03 4.12486E+04 5.06452E-09 1.84846E-08
 -1       893 4.38315E+01-1.62864E+05-3.03636E+03 2.71703E+04-2.51043E-09 1.36920E-08
 -1       894-1.51012E+03-1.64474E+05-6.28413E+03 4.10959E+04 2.46473E-10-4.25280E-09
 -1       895-1.19935E+03-1.61555E+05-1.10663E+04 2.73174E+04-3.11877E-09 7.58246E-09
 -1       956-3.77237E+05-5.45751E+03-1.34723E+04 3.08767E+04 1.24146E-09-1.16588E-08
 -1       957-3.79881E+05-1.92515E+03-6.91513E+03 3.71054E+04-9.31095E-09 1.03960E-08
 -1       958-3.78448E+05-2.41172E+02-3.11618E+03 3.07089E+04-9.66247E-09-1.13841E-08
 -1       959-3.78645E+05-1.36321E+02-1.59116E+03 3.73012E+04 4.48836E-09-1.23932E-08
 -1       960-3.78566E+05-4.47617E+01-7.75918E+02 3.06916E+04 4.25098E-09 1.97626E-08
 -1       961-3.78564E+05-6.31678E+01-4.11357E+02 3.73217E+04 1.14194E-08-4.16321E-09
 -1       962-3.78594E+05-4.59755E+01-2.35467E+02 3.06887E+04 2.52976E-09-4.36557E-11
 -1       963-3.78565E+05-5.89563E+01-1.88940E+02 3.73254E+04-4.34738E-10 1.12734E-08
 -1       964-3.78600E+05-4.26080E+01-2.29668E+02 3.06879E+04-3.81583E-09-2.12458E-09
 -1       965-3.78577E+05-5.59810E+01-3.97149E+02 3.73247E+04-8.10775E-09-1.77649E-08
 -1       966-3.78583E+05-3.47568E+01-7.46186E+02 3.06894E+04 4.68390E-11-6.97673E-09
 -1       967-3.78667E+05-1.19516E+02-1.53039E+03 3.73103E+04-1.70439E-09 4.33465E-09
 -1       968-3.78479E+05-2.17246E+02-2.99594E+03 3.07021E+04-5.18776E-09-1.30425E-08
 -1       969-3.79867E+05-1.83438E+03-6.65090E+03 3.71619E+04-2.46109E-09 2.30475E-08
 -1       970-3.77323E+05-5.23029E+03-1.29564E+04 3.08292E+04 9.08585E-10 1.30440E-08
 -1       971-3.45439E+05-1.72797E+03-9.31264E+03 1.53839E+04 4.92946E-09-2.24636E-08
 -1       972-3.47681E+05-1.27213E+03-5.07157E+03 2.12760E+04 5.94991E-09-1.25701E-08
 -1       973-3.46477E+05-6.20433E+01-2.27161E+03 1.52627E+04 2.98587E-09-5.09453E-09
 -1       974-3.46612E+05-8.10865E+01-1.17752E+03 2.14131E+04 9.22682E-10 9.68248E-09
 -1       975-3.46559E+05-1.71513E+01-5.89065E+02 1.52504E+04-3.01588E-09-2.70154E-09
 -1       976-3.46551E+05-3.12249E+01-3.40688E+02 2.14289E+04 3.30510E-09 2.79272E-09
 -1       977-3.46576E+05-1.64031E+01-2.48769E+02 1.52470E+04-9.81345E-10 9.35756E-10
 -1       978-3.46556E+05-2.49965E+01-2.93162E+02 2.14338E+04-5.53143E-09-7.99855E-09
 -1       979-3.46575E+05-7.92259E+00-4.72781E+02 1.52456E+04-7.75259E-09 2.52680E-09
 -1       980-3.46592E+05-2.19345E+01-9.13985E+02 2.14347E+04-4.71130E-09 1.32536E-09
 -1       981-3.46546E+05 1.49221E+01-1.77076E+03 1.52461E+04 1.10481E-09 1.13158E-08
 -1       982-3.46835E+05-1.52776E+02-3.66044E+03 2.14281E+04 4.60750E-09 3.96791E-09
 -1       983-3.46323E+05-9.84665E+01-7.11243E+03 1.52521E+04-3.62434E-09 7.07405E-09
 -1       984-3.50255E+05-3.86739E+03-1.59281E+04 2.13424E+04-3.03521E-09-9.07244E-09
 -1       985-3.43103E+05-5.30290E+03-2.92488E+04 1.53235E+04-2.34377E-09 1.45610E-08
 -3
    1PSTEP                        35          18           1          
  100CL  118 6.63143E-01         409                     0   18           1
 -4  DISP        4    1
 -5  D1          1    2    1    0
 -5  D2          1    2    2    0
 -5  D3          1    2    3    0
 -5  ALL         1    2    0    0    1ALL
 -1         1 2.71648E-03 0.00000E+00 0.00000E+00
 -1         2 1.36067E-03 5.32308E-28-5.29396E-23
 -1         3 3.42717E-04-5.68934E-28 0.00000E+00
 -1         5 1.77149E-04-2.17105E-27-3.30872E-24
 -1         8 2.70548E-03-4.07803E-07 0.00000E+00
 -1         9 2.69887E-03-1.88390E-04 0.00000E+00
 -1        10 3.10755E-04-3.40985E-06 0.00000E+00
 -1        12 1.78995E-04 8.09574E-07-8.27181E-25
 -1        15 2.69289E-03-4.31860E-07 0.00000E+00
 -1        16 2.76409E-03-1.90197E-04 0.00000E+00
 -1        17 2.11482E-04-7.77539E-06 0.00000E+00
 -1        18 1.82942E-04 3.44155E-05 0.00000E+00
 -1        19 1.84537E-04 1.61273E-06 0.00000E+00
 -1        20 1.84676E-04-9.85946E-06 0.00000E+00
 -1        21 1.83784E-04-2.53599E-05 0.00000E+00
 -1        24 3.06240E-05-1.20019E-05 0.00000E+00
 -1        25 1.93705E-04 3.46414E-05 0.00000E+00
 -1        26 1.94415E-04 2.23222E-06 0.00000E+00
 -1        27 1.92199E-04-1.34183E-05 0.00000E+00
 -1        28 1.91881E-04-2.59822E-05 0.00000E+00
 -1        32 0.00000E+00 0.00000E+00 0.00000E+00
 -1        33 2.03254E-04 2.98645E-06 0.00000E+00
 -1        34 2.01135E-04-1.34745E-05 0.00000E+00
 -1        35 1.99203E-04-2.63246E-05 0.00000E+00
 -1        51 2.71574E-03-8.53278E-08 4.96308E-24
 -1        52 2.71439E-03-1.52294E-07-3.30872E-24
 -1        53 2.71256E-03-2.15805E-07 0.00000E+00
 -1        54 2.71038E-03-2.78096E-07-1.65436E-24
 -1        55 2.70797E-03-3.40927E-07 8.27181E-25
 -1        56 2.70892E-03 8.15638E-06-5.29396E-23
 -1        57 2.69425E-03 3.38750E-05 0.00000E+00
 -1        58 2.67466E-03 7.16150E-05 0.00000E+00
 -1        59 2.65280E-03 1.14685E-04 0.00000E+00
 -1        60 2.63189E-03 1.55479E-04-1.05879E-22
 -1        61 2.61502E-03 1.86576E-04 0.00000E+00
 -1        62 2.60432E-03 2.02289E-04 0.00000E+00
 -1        63 2.60116E-03 1.98299E-04-5.29396E-23
 -1        64 2.60537E-03 1.73907E-04 0.00000E+00
 -1        65 2.61611E-03 1.30336E-04 5.29396E-23
 -1        66 2.63149E-03 7.24446E-05-1.05879E-22
 -1        67 2.64938E-03 6.49574E-06 0.00000E+00
 -1        68 2.66735E-03-5.96890E-05-1.05879E-22
 -1        69 2.68297E-03-1.18258E-04-5.29396E-23
 -1        70 2.69407E-03-1.62838E-04-5.29396E-23
 -1        86 1.44480E-03-5.98145E-06 0.00000E+00
 -1        87 1.68834E-03-3.74885E-05-2.64698E-23
 -1        88 2.01578E-03-9.16015E-05 0.00000E+00
 -1        89 2.34756E-03-1.47184E-04 1.32349E-23
 -1        90 2.60161E-03-1.81194E-04-5.29396E-23
 -1       121 3.41820E-04-5.50562E-07 1.32349E-23
 -1       122 3.39131E-04-1.10422E-06 0.00000E+00
 -1       123 3.34660E-04-1.66400E-06 0.00000E+00
 -1       124 3.28424E-04-2.23296E-06 0.00000E+00
 -1       125 3.20445E-04-2.81374E-06 1.32349E-23
 -1       191 1.77200E-04 1.34993E-07 3.30872E-24
 -1       192 1.77354E-04 2.69974E-07 0.00000E+00
 -1       193 1.77610E-04 4.04935E-07 1.65436E-24
 -1       194 1.77969E-04 5.39864E-07 1.24077E-24
 -1       195 1.78431E-04 6.74748E-07-1.65436E-24
 -1       251 2.70518E-03 1.69426E-06 0.00000E+00
 -1       252 2.70487E-03 3.70971E-06 0.00000E+00
 -1       253 2.70457E-03 4.65702E-06-6.61744E-24
 -1       254 2.70426E-03 3.56799E-06 0.00000E+00
 -1       255 2.70394E-03-2.15218E-07-6.61744E-24
 -1       256 2.70361E-03-7.31654E-06-3.30872E-24
 -1       257 2.70325E-03-1.78545E-05-6.61744E-24
 -1       258 2.70285E-03-3.19044E-05 0.00000E+00
 -1       259 2.70240E-03-4.90070E-05-1.32349E-23
 -1       260 2.70191E-03-6.86644E-05 6.61744E-24
 -1       261 2.70138E-03-8.99895E-05 0.00000E+00
 -1       262 2.70084E-03-1.12075E-04 0.00000E+00
 -1       263 2.70030E-03-1.33897E-04 0.00000E+00
 -1       264 2.69979E-03-1.54434E-04-6.61744E-24
 -1       265 2.69931E-03-1.72865E-04 0.00000E+00
 -1       266 2.70338E-03-4.17488E-07 0.00000E+00
 -1       267 2.70128E-03-4.20806E-07 0.00000E+00
 -1       268 2.69918E-03-4.24527E-07 8.27181E-25
 -1       269 2.69708E-03-4.27053E-07 0.00000E+00
 -1       270 2.69498E-03-4.29552E-07 0.00000E+00
 -1       271 2.70461E-03 1.33796E-07 1.32349E-23
 -1       272 2.70467E-03-1.89703E-06-6.61744E-24
 -1       273 2.70564E-03-6.34950E-06 1.32349E-23
 -1       274 2.70744E-03-1.30610E-05 0.00000E+00
 -1       275 2.71000E-03-2.18482E-05 0.00000E+00
 -1       276 2.71324E-03-3.25129E-05 0.00000E+00
 -1       277 2.71709E-03-4.48406E-05 0.00000E+00
 -1       278 2.72145E-03-5.86040E-05 0.00000E+00
 -1       279 2.72625E-03-7.35643E-05 2.64698E-23
 -1       280 2.73138E-03-8.94726E-05 1.32349E-23
 -1       281 2.73677E-03-1.06072E-04 0.00000E+00
 -1       282 2.74230E-03-1.23102E-04 0.00000E+00
 -1       283 2.74790E-03-1.40296E-04-1.32349E-23
 -1       284 2.75346E-03-1.57386E-04 0.00000E+00
 -1       285 2.75889E-03-1.74108E-04 0.00000E+00
 -1       301 2.71072E-03-1.88725E-04 1.32349E-23
 -1       302 2.72095E-03-1.89014E-04 3.30872E-24
 -1       303 2.73046E-03-1.89293E-04 0.00000E+00
 -1       304 2.74021E-03-1.89573E-04 0.00000E+00
 -1       305 2.75111E-03-1.89867E-04 0.00000E+00
 -1       306 2.73677E-03-3.43044E-04 0.00000E+00
 -1       307 2.80064E-03-7.57262E-04 5.29396E-23
 -1       308 2.84729E-03-1.36276E-03-1.05879E-22
 -1       309 2.87109E-03-2.06346E-03 5.29396E-23
 -1       310 2.90237E-03-2.73356E-03 1.05879E-22
 -1       311 2.96185E-03-3.24994E-03 0.00000E+00
 -1       312 3.01968E-03-3.53197E-03-1.05879E-22
 -1       313 3.01491E-03-3.54184E-03 5.29396E-23
 -1       314 2.87366E-03-3.29166E-03 0.00000E+00
 -1       315 2.55503E-03-2.84599E-03 5.29396E-23
 -1       316 2.07744E-03-2.28152E-03 0.00000E+00
 -1       317 1.50692E-03-1.66757E-03 0.00000E+00
 -1       318 9.57875E-04-1.06473E-03 1.05879E-22
 -1       319 5.38355E-04-5.38003E-04 0.00000E+00
 -1       320 2.92148E-04-1.61531E-04 0.00000E+00
 -1       336 2.99165E-04-4.06892E-06 0.00000E+00
 -1       337 2.85500E-04-4.75369E-06 0.00000E+00
 -1       338 2.69821E-04-5.46637E-06-1.32349E-23
 -1       339 2.52202E-04-6.20777E-06 0.00000E+00
 -1       340 2.32725E-04-6.98237E-06 1.32349E-23
 -1       406 1.79663E-04 9.44322E-07-3.30872E-24
 -1       407 1.80432E-04 1.07896E-06 8.27181E-25
 -1       408 1.81305E-04 1.21343E-06 2.89513E-24
 -1       409 1.82280E-04 1.34756E-06-4.13590E-25
 -1       410 1.83358E-04 1.48107E-06-2.48154E-24
 -1       521 2.80260E-03-3.54136E-04-1.05879E-22
 -1       522 2.86468E-03-7.88639E-04 0.00000E+00
 -1       523 2.90486E-03-1.42200E-03 0.00000E+00
 -1       524 2.91941E-03-2.15139E-03 5.29396E-23
 -1       525 2.94277E-03-2.84815E-03 0.00000E+00
 -1       526 2.99868E-03-3.38660E-03 0.00000E+00
 -1       527 3.05609E-03-3.67924E-03 2.11758E-22
 -1       528 3.04901E-03-3.68731E-03 1.05879E-22
 -1       529 2.89570E-03-3.42293E-03 0.00000E+00
 -1       530 2.55300E-03-2.95864E-03 0.00000E+00
 -1       531 2.04016E-03-2.37493E-03 0.00000E+00
 -1       532 1.42965E-03-1.74371E-03 0.00000E+00
 -1       533 8.41289E-04-1.12294E-03-1.05879E-22
 -1       534 3.88319E-04-5.75282E-04 5.29396E-23
 -1       535 1.20817E-04-1.79217E-04 0.00000E+00
 -1       536 2.10727E-04 2.71424E-05 6.61744E-24
 -1       537 2.08810E-04 8.75649E-05 0.00000E+00
 -1       538 2.05848E-04 1.64229E-04 0.00000E+00
 -1       539 2.02355E-04 2.47786E-04 1.65436E-24
 -1       540 1.99211E-04 3.26740E-04-3.30872E-24
 -1       541 1.97168E-04 3.89616E-04 0.00000E+00
 -1       542 1.96225E-04 4.29663E-04 0.00000E+00
 -1       543 1.96000E-04 4.40280E-04-1.65436E-24
 -1       544 1.95678E-04 4.22242E-04-3.30872E-24
 -1       545 1.94506E-04 3.76541E-04 0.00000E+00
 -1       546 1.92323E-04 3.11302E-04-3.30872E-24
 -1       547 1.89367E-04 2.34770E-04 0.00000E+00
 -1       548 1.86439E-04 1.58614E-04 0.00000E+00
 -1       549 1.84326E-04 9.45062E-05 1.65436E-24
 -1       550 1.83229E-04 5.04727E-05 1.65436E-24
 -1       551 1.86280E-04-8.34505E-06 0.00000E+00
 -1       552 1.57834E-04-8.99515E-06 0.00000E+00
 -1       553 1.27086E-04-9.70750E-06-1.32349E-23
 -1       554 9.49956E-05-1.04610E-05 0.00000E+00
 -1       555 6.25232E-05-1.12281E-05 0.00000E+00
 -1       556 2.03834E-04 1.17800E-05 0.00000E+00
 -1       557 1.97655E-04 2.76397E-05 0.00000E+00
 -1       558 1.92810E-04 4.00919E-05-5.29396E-23
 -1       559 1.89168E-04 4.94468E-05 0.00000E+00
 -1       560 1.86597E-04 5.60155E-05 0.00000E+00
 -1       561 1.84970E-04 6.01112E-05 0.00000E+00
 -1       562 1.84162E-04 6.20486E-05 0.00000E+00
 -1       563 1.84048E-04 6.21434E-05 0.00000E+00
 -1       564 1.84507E-04 6.07120E-05 0.00000E+00
 -1       565 1.85417E-04 5.80715E-05 0.00000E+00
 -1       566 1.86660E-04 5.45396E-05 0.00000E+00
 -1       567 1.88115E-04 5.04344E-05 0.00000E+00
 -1       568 1.89665E-04 4.60742E-05-1.65436E-24
 -1       569 1.91192E-04 4.17772E-05-8.27181E-25
 -1       570 1.92577E-04 3.78617E-05 0.00000E+00
 -1       571 1.83039E-04 3.22889E-05 1.65436E-24
 -1       572 1.83138E-04 3.00961E-05 4.13590E-25
 -1       573 1.83237E-04 2.78529E-05 1.65436E-24
 -1       574 1.83336E-04 2.55758E-05-8.27181E-25
 -1       575 1.83436E-04 2.32811E-05-3.30872E-24
 -1       576 1.83535E-04 2.09854E-05 0.00000E+00
 -1       577 1.83635E-04 1.87053E-05 0.00000E+00
 -1       578 1.83735E-04 1.64573E-05 0.00000E+00
 -1       579 1.83834E-04 1.42580E-05 0.00000E+00
 -1       580 1.83934E-04 1.21239E-05 0.00000E+00
 -1       581 1.84034E-04 1.00717E-05 0.00000E+00
 -1       582 1.84135E-04 8.11779E-06 0.00000E+00
 -1       583 1.84235E-04 6.27879E-06 0.00000E+00
 -1       584 1.84336E-04 4.57104E-06 0.00000E+00
 -1       585 1.84436E-04 3.01074E-06 6.61744E-24
 -1       586 1.84695E-04 3.44553E-05 1.65436E-24
 -1       587 1.86407E-04 3.44945E-05 4.13590E-25
 -1       588 1.88120E-04 3.45334E-05 8.27181E-25
 -1       589 1.89879E-04 3.45715E-05 0.00000E+00
 -1       590 1.91726E-04 3.46085E-05 0.00000E+00
 -1       591 1.83672E-04 3.23828E-05-1.03398E-25
 -1       592 1.84404E-04 3.03298E-05 0.00000E+00
 -1       593 1.85142E-04 2.82623E-05 0.00000E+00
 -1       594 1.85883E-04 2.61851E-05-4.13590E-25
 -1       595 1.86625E-04 2.41029E-05-8.27181E-25
 -1       596 1.87368E-04 2.20206E-05 4.13590E-25
 -1       597 1.88109E-04 1.99428E-05 0.00000E+00
 -1       598 1.88846E-04 1.78744E-05 4.13590E-25
 -1       599 1.89578E-04 1.58200E-05-8.27181E-25
 -1       600 1.90303E-04 1.37844E-05 0.00000E+00
 -1       601 1.91019E-04 1.17724E-05 8.27181E-25
 -1       602 1.91725E-04 9.78854E-06 0.00000E+00
 -1       603 1.92419E-04 7.83773E-06 0.00000E+00
 -1       604 1.93099E-04 5.92477E-06 7.75482E-26
 -1       605 1.93764E-04 4.05430E-06 0.00000E+00
 -1       606 1.84550E-04 4.48461E-07 0.00000E+00
 -1       607 1.84560E-04-6.29856E-07-1.65436E-24
 -1       608 1.84568E-04-1.62727E-06 0.00000E+00
 -1       609 1.84577E-04-2.54946E-06 0.00000E+00
 -1       610 1.84585E-04-3.40219E-06 0.00000E+00
 -1       611 1.84594E-04-4.19125E-06 0.00000E+00
 -1       612 1.84602E-04-4.92244E-06 0.00000E+00
 -1       613 1.84610E-04-5.60159E-06 0.00000E+00
 -1       614 1.84619E-04-6.23452E-06-1.65436E-24
 -1       615 1.84627E-04-6.82704E-06 0.00000E+00
 -1       616 1.84635E-04-7.38498E-06 0.00000E+00
 -1       617 1.84644E-04-7.91414E-06 0.00000E+00
 -1       618 1.84652E-04-8.42035E-06 0.00000E+00
 -1       619 1.84661E-04-8.90943E-06 2.06795E-25
 -1       620 1.84669E-04-9.38720E-06 0.00000E+00
 -1       621 1.85896E-04 1.71655E-06-3.30872E-24
 -1       622 1.87416E-04 1.82060E-06-1.65436E-24
 -1       623 1.89061E-04 1.92445E-06-1.65436E-24
 -1       624 1.90799E-04 2.02796E-06 0.00000E+00
 -1       625 1.92594E-04 2.13118E-06 0.00000E+00
 -1       626 1.85085E-04 4.84549E-07-3.30872E-24
 -1       627 1.85611E-04-5.80484E-07 0.00000E+00
 -1       628 1.86117E-04-1.59023E-06 0.00000E+00
 -1       629 1.86605E-04-2.55285E-06 1.65436E-24
 -1       630 1.87078E-04-3.47656E-06 0.00000E+00
 -1       631 1.87540E-04-4.36956E-06 1.65436E-24
 -1       632 1.87993E-04-5.24006E-06-3.30872E-24
 -1       633 1.88442E-04-6.09629E-06 1.65436E-24
 -1       634 1.88888E-04-6.94646E-06-3.30872E-24
 -1       635 1.89334E-04-7.79877E-06-1.65436E-24
 -1       636 1.89785E-04-8.66145E-06 3.30872E-24
 -1       637 1.90242E-04-9.54272E-06 1.65436E-24
 -1       638 1.90710E-04-1.04508E-05 1.65436E-24
 -1       639 1.91190E-04-1.13939E-05 8.27181E-25
 -1       640 1.91686E-04-1.23803E-05 3.30872E-24
 -1       656 1.85382E-04-1.04379E-05 0.00000E+00
 -1       657 1.86507E-04-1.10398E-05 0.00000E+00
 -1       658 1.87912E-04-1.16404E-05 0.00000E+00
 -1       659 1.89453E-04-1.22406E-05 0.00000E+00
 -1       660 1.90942E-04-1.28426E-05 6.61744E-24
 -1       661 1.84940E-04-1.03768E-05 0.00000E+00
 -1       662 1.85242E-04-1.09859E-05 8.27181E-25
 -1       663 1.85576E-04-1.16815E-05-1.65436E-24
 -1       664 1.85940E-04-1.24573E-05 8.27181E-25
 -1       665 1.86332E-04-1.33073E-05 1.65436E-24
 -1       666 1.86750E-04-1.42257E-05-8.27181E-25
 -1       667 1.87192E-04-1.52067E-05 0.00000E+00
 -1       668 1.87654E-04-1.62449E-05 8.27181E-25
 -1       669 1.88136E-04-1.73349E-05 0.00000E+00
 -1       670 1.88635E-04-1.84712E-05 8.27181E-25
 -1       671 1.89150E-04-1.96488E-05 1.65436E-24
 -1       672 1.89678E-04-2.08626E-05-8.27181E-25
 -1       673 1.90218E-04-2.21075E-05 0.00000E+00
 -1       674 1.90766E-04-2.33788E-05 4.13590E-25
 -1       675 1.91323E-04-2.46714E-05 0.00000E+00
 -1       676 1.85138E-04-2.54642E-05 0.00000E+00
 -1       677 1.86492E-04-2.55685E-05 0.00000E+00
 -1       678 1.87844E-04-2.56727E-05 3.30872E-24
 -1       679 1.89193E-04-2.57766E-05 1.65436E-24
 -1       680 1.90539E-04-2.58805E-05 3.30872E-24
 -1       771 1.86710E-05 1.47276E-05 5.29396E-23
 -1       772 8.61475E-06 3.66810E-05 5.29396E-23
 -1       773 3.64618E-07 5.40884E-05 0.00000E+00
 -1       774-6.20377E-06 6.72079E-05-2.64698E-23
 -1       775-1.12120E-05 7.63076E-05 5.29396E-23
 -1       776-1.47868E-05 8.16729E-05 2.64698E-23
 -1       777-1.70543E-05 8.35988E-05 5.29396E-23
 -1       778-1.81436E-05 8.23944E-05 2.64698E-23
 -1       779-1.81829E-05 7.83774E-05 0.00000E+00
 -1       780-1.73025E-05 7.18767E-05 2.64698E-23
 -1       781-1.56319E-05 6.32282E-05 0.00000E+00
 -1       782-1.33019E-05 5.27765E-05 0.00000E+00
 -1       783-1.04427E-05 4.08708E-05 5.29396E-23
 -1       784-7.18544E-06 2.78667E-05 0.00000E+00
 -1       785-3.66052E-06 1.41228E-05 0.00000E+00
 -1       786 1.93745E-04 3.24043E-05 0.00000E+00
 -1       787 1.93788E-04 3.02445E-05 4.13590E-25
 -1       788 1.93832E-04 2.81383E-05 0.00000E+00
 -1       789 1.93876E-04 2.60623E-05 8.27181E-25
 -1       790 1.93921E-04 2.40074E-05 1.65436E-24
 -1       791 1.93966E-04 2.19647E-05 8.27181E-25
 -1       792 1.94010E-04 1.99311E-05 0.00000E+00
 -1       793 1.94055E-04 1.79037E-05 0.00000E+00
 -1       794 1.94100E-04 1.58822E-05-1.65436E-24
 -1       795 1.94145E-04 1.38668E-05 8.27181E-25
 -1       796 1.94189E-04 1.18602E-05-1.65436E-24
 -1       797 1.94234E-04 9.86537E-06 0.00000E+00
 -1       798 1.94279E-04 7.89087E-06-1.65436E-24
 -1       799 1.94324E-04 5.94536E-06 8.27181E-25
 -1       800 1.94369E-04 4.05153E-06 0.00000E+00
 -1       801 1.47913E-04 3.11425E-05 2.64698E-23
 -1       802 9.46446E-06 1.94288E-05 2.64698E-23
 -1       803-1.08796E-04 9.81364E-06 5.29396E-23
 -1       804-9.64449E-05 6.83068E-06-2.64698E-23
 -1       805-3.18649E-05 2.68429E-06 0.00000E+00
 -1       806 1.94434E-04 3.23214E-05 1.65436E-24
 -1       807 1.95149E-04 3.00270E-05 0.00000E+00
 -1       808 1.95852E-04 2.77635E-05 3.30872E-24
 -1       809 1.96542E-04 2.55350E-05 0.00000E+00
 -1       810 1.97216E-04 2.33457E-05 0.00000E+00
 -1       811 1.97875E-04 2.11995E-05-1.65436E-24
 -1       812 1.98516E-04 1.91005E-05 0.00000E+00
 -1       813 1.99138E-04 1.70526E-05 1.65436E-24
 -1       814 1.99740E-04 1.50599E-05-3.30872E-24
 -1       815 2.00319E-04 1.31262E-05 8.27181E-25
 -1       816 2.00875E-04 1.12556E-05-1.65436E-24
 -1       817 2.01406E-04 9.45199E-06 0.00000E+00
 -1       818 2.01910E-04 7.71935E-06 0.00000E+00
 -1       819 2.02387E-04 6.06163E-06 1.65436E-24
 -1       820 2.02835E-04 4.48272E-06-3.30872E-24
 -1       821 1.94285E-04-1.77620E-07-1.65436E-24
 -1       822 1.94144E-04-3.83729E-06-1.65436E-24
 -1       823 1.94000E-04-8.29040E-06-3.30872E-24
 -1       824 1.93853E-04-1.30756E-05 1.65436E-24
 -1       825 1.93707E-04-1.76414E-05 0.00000E+00
 -1       826 1.93564E-04-2.14376E-05 0.00000E+00
 -1       827 1.93425E-04-2.41243E-05-3.30872E-24
 -1       828 1.93288E-04-2.53685E-05 1.65436E-24
 -1       829 1.93151E-04-2.52313E-05 0.00000E+00
 -1       830 1.93014E-04-2.37821E-05 0.00000E+00
 -1       831 1.92875E-04-2.14487E-05-3.30872E-24
 -1       832 1.92736E-04-1.86646E-05 0.00000E+00
 -1       833 1.92597E-04-1.59863E-05 0.00000E+00
 -1       834 1.92461E-04-1.39698E-05-1.65436E-24
 -1       835 1.92325E-04-1.29907E-05-8.27181E-25
 -1       836 1.96103E-04 2.35730E-06 0.00000E+00
 -1       837 1.97661E-04 2.48552E-06 0.00000E+00
 -1       838 1.99122E-04 2.61368E-06-3.30872E-24
 -1       839 2.00520E-04 2.74114E-06 8.27181E-25
 -1       840 2.01886E-04 2.86843E-06 0.00000E+00
 -1       856 1.92182E-04-1.44787E-05 0.00000E+00
 -1       857 1.92163E-04-1.54033E-05 1.29247E-26
 -1       858 1.92144E-04-1.62132E-05 0.00000E+00
 -1       859 1.92124E-04-1.69296E-05-2.06795E-25
 -1       860 1.92104E-04-1.75736E-05-4.13590E-25
 -1       861 1.92084E-04-1.81667E-05-2.06795E-25
 -1       862 1.92064E-04-1.87301E-05 4.13590E-25
 -1       863 1.92044E-04-1.92851E-05 0.00000E+00
 -1       864 1.92025E-04-1.98532E-05 0.00000E+00
 -1       865 1.92005E-04-2.04556E-05 0.00000E+00
 -1       866 1.91985E-04-2.11138E-05-8.27181E-25
 -1       867 1.91965E-04-2.18488E-05-4.13590E-25
 -1       868 1.91944E-04-2.26821E-05-8.27181E-25
 -1       869 1.91924E-04-2.36348E-05-4.13590E-25
 -1       870 1.91903E-04-2.47278E-05 8.27181E-25
 -1       871 1.93547E-04-1.34233E-05 8.27181E-25
 -1       872 1.95042E-04-1.34316E-05 0.00000E+00
 -1       873 1.96617E-04-1.34406E-05 0.00000E+00
 -1       874 1.98203E-04-1.34504E-05-2.58494E-25
 -1       875 1.99732E-04-1.34607E-05 4.13590E-25
 -1       876 1.92723E-04-1.44642E-05 3.30872E-24
 -1       877 1.93226E-04-1.54431E-05 0.00000E+00
 -1       878 1.93707E-04-1.63633E-05 0.00000E+00
 -1       879 1.94169E-04-1.72319E-05 1.65436E-24
 -1       880 1.94614E-04-1.80564E-05 0.00000E+00
 -1       881 1.95046E-04-1.88443E-05-1.65436E-24
 -1       882 1.95467E-04-1.96028E-05 0.00000E+00
 -1       883 1.95879E-04-2.03394E-05 1.65436E-24
 -1       884 1.96287E-04-2.10613E-05 0.00000E+00
 -1       885 1.96691E-04-2.17759E-05-1.65436E-24
 -1       886 1.97095E-04-2.24906E-05 3.30872E-24
 -1       887 1.97502E-04-2.32126E-05 0.00000E+00
 -1       888 1.97915E-04-2.39494E-05-3.30872E-24
 -1       889 1.98335E-04-2.47085E-05 0.00000E+00
 -1       890 1.98765E-04-2.54972E-05-1.65436E-24
 -1       891 1.93244E-04-2.60397E-05-1.65436E-24
 -1       892 1.94583E-04-2.60974E-05 8.27181E-25
 -1       893 1.95874E-04-2.61550E-05 1.65436E-24
 -1       894 1.97091E-04-2.62123E-05 0.00000E+00
 -1       895 1.98208E-04-2.62694E-05-8.27181E-25
 -1       956 2.03123E-04 1.66520E-06 0.00000E+00
 -1       957 2.02991E-04 4.35610E-07 1.65436E-24
 -1       958 2.02858E-04-7.13076E-07 0.00000E+00
 -1       959 2.02725E-04-1.79220E-06 0.00000E+00
 -1       960 2.02593E-04-2.81314E-06-3.30872E-24
 -1       961 2.02460E-04-3.78733E-06-1.65436E-24
 -1       962 2.02327E-04-4.72619E-06-3.30872E-24
 -1       963 2.02194E-04-5.64118E-06 1.65436E-24
 -1       964 2.02061E-04-6.54375E-06 3.30872E-24
 -1       965 2.01929E-04-7.44534E-06 0.00000E+00
 -1       966 2.01796E-04-8.35742E-06 0.00000E+00
 -1       967 2.01663E-04-9.29141E-06-1.65436E-24
 -1       968 2.01531E-04-1.02588E-05 0.00000E+00
 -1       969 2.01398E-04-1.12709E-05 0.00000E+00
 -1       970 2.01266E-04-1.23392E-05 0.00000E+00
 -1       971 2.01016E-04-1.46094E-05 0.00000E+00
 -1       972 2.00894E-04-1.56497E-05-1.65436E-24
 -1       973 2.00773E-04-1.66058E-05 0.00000E+00
 -1       974 2.00651E-04-1.74886E-05 0.00000E+00
 -1       975 2.00530E-04-1.83089E-05 0.00000E+00
 -1       976 2.00409E-04-1.90775E-05 1.65436E-24
 -1       977 2.00287E-04-1.98055E-05 3.30872E-24
 -1       978 2.00166E-04-2.05037E-05-1.65436E-24
 -1       979 2.00044E-04-2.11830E-05 3.30872E-24
 -1       980 1.99923E-04-2.18543E-05 0.00000E+00
 -1       981 1.99802E-04-2.25284E-05 3.30872E-24
 -1       982 1.99680E-04-2.32165E-05 0.00000E+00
 -1       983 1.99559E-04-2.39292E-05 0.00000E+00
 -1       984 1.99439E-04-2.46776E-05 1.65436E-24
 -1       985 1.99319E-04-2.54726E-05 0.00000E+00
 -3
    1PSTEP                        36          18           1          
  100CL  118 6.63143E-01         409                     0   18           1
 -4  STRESS      6    1
 -5  SXX         1    4    1    1
 -5  SYY         1    4    2    2
 -5  SZZ         1    4    3    3
 -5  SXY         1    4    1    2
 -5  SYZ         1    4    2    3
 -5  SZX         1    4    3    1
 -1         1-5.33545E+06-1.61079E+06-1.13379E+06-1.37826E+06-3.02680E-09-2.79979E-08
 -1         2 1.42741E+06 2.09688E+07 4.90768E+06 6.32275E+06 2.95986E-08 9.48203E-08
 -1         3-1.48871E+03-1.56324E+06 4.06798E+02-2.21921E+03-5.14557E-10 5.07134E-09
 -1         5-7.52941E+01 3.86564E+05 9.98838E+00-1.34374E+00-4.71202E-10 6.29552E-09
 -1         8-5.63990E+05-2.02834E+05-6.37148E+04-2.47122E+05 4.00178E-11-1.44220E-07
 -1         9 1.17151E+07 3.67225E+06 2.75049E+06-3.72393E+05-6.15837E-09 8.95700E-08
 -1        10-2.30672E+03-1.62902E+06-3.95720E+03-1.50156E+04-1.37243E-08 1.61333E-09
 -1        12-7.13732E+01 3.86586E+05 3.28343E+02-9.15847E+00-6.90946E-10-4.26371E-09
 -1        15 9.40392E+02 5.16792E+02 3.03980E+03 8.53789E-01-3.67180E-10-1.74327E-07
 -1        16 2.28789E+07-3.21728E+05 3.11678E+06-2.25504E+06 5.97599E-09 3.23635E-08
 -1        17 8.37140E+06 6.27523E+06 2.26193E+06 6.00550E+06 2.44356E-08 3.06056E-08
 -1        18 1.42592E+05 3.35565E+04 4.14561E+03-1.19758E+05 1.38471E-08 1.31013E-09
 -1        19 1.22453E+05 1.41643E+05-9.59220E+02 2.20529E+04 1.54178E-09-2.25555E-09
 -1        20-8.18591E+04-5.73713E+05-1.28729E+05 2.51611E+04-1.97845E-09 1.46902E-08
 -1        21-4.55969E+01-2.96092E+05-9.24342E+02 2.75023E+02 1.24008E-08 1.24206E-08
 -1        24 1.40120E+07 1.20728E+07 3.88051E+06 1.11792E+07-1.62215E-07-5.84211E-08
 -1        25 1.26303E+05 2.67840E+05 1.00501E+05-6.46070E+05-6.24095E-10 2.35848E-08
 -1        26-5.43943E+04 9.24453E+04-2.45359E+04 1.21058E+03-9.56788E-11 1.08044E-08
 -1        27-7.58466E+04-3.10030E+05-1.13371E+05 6.89970E+04 4.68026E-09 4.76211E-09
 -1        28 2.22477E+04-8.53579E+04 1.69013E+04 2.06395E+04-2.06049E-09-4.67409E-10
 -1        32-1.68070E+06-3.18078E+06-1.97298E+05 4.57694E+05-4.26735E-08-9.26104E-09
 -1        33-1.78318E+05 9.30231E+04 3.23848E+04-3.89239E+04-3.14420E-09 3.81109E-09
 -1        34-2.23602E+05-2.50330E+04 6.89111E+02 7.56461E+04-5.36429E-09 4.22187E-09
 -1        35-2.29378E+04-3.38506E+04-1.34855E+03 5.15102E+04-3.76420E-09-3.95570E-09
 -1        51 6.05365E+04-1.73150E+05 1.28064E+05-4.43351E+05-1.16415E-10 1.29556E-07
 -1        52 2.05098E+04-1.50799E+05 6.72051E+04-5.17069E+05 1.81899E-10-1.83150E-07
 -1        53 4.19922E+03-1.66177E+05 3.50088E+04-4.41823E+05 3.96540E-10-2.12589E-07
 -1        54 7.44470E+03-1.61969E+05 2.87908E+04-5.18569E+05-3.63798E-11-2.73572E-07
 -1        55 1.62142E+04-1.69025E+05 3.50485E+04-4.41726E+05 1.27329E-10 1.02367E-07
 -1        56-9.76430E+06-1.34696E+06-9.06362E+05-4.05846E+06-1.53086E-08-5.43951E-08
 -1        57-1.10089E+07-8.83440E+05-5.50110E+05-2.76635E+06-1.30021E-08 4.25280E-08
 -1        58-9.60368E+06-1.80074E+06-2.00614E+05-4.23399E+06-1.81899E-09 5.68834E-08
 -1        59-1.11478E+07-3.66937E+05-1.09371E+05-2.69838E+06-7.92193E-08-2.32380E-07
 -1        60-9.69366E+06-1.80548E+06-5.62907E+04-4.18695E+06-4.77303E-08 7.83039E-08
 -1        61-1.05472E+07-6.79285E+05 1.10836E+04-2.94364E+06-8.30551E-09 2.36963E-07
 -1        62-1.00835E+07-1.56980E+06-6.91527E+04-3.89368E+06-5.73928E-08-2.54659E-08
 -1        63-9.71308E+06-1.34663E+06 4.69413E+04-3.60899E+06 2.38360E-08 2.72848E-07
 -1        64-1.04325E+07-1.20589E+06-6.35077E+04-3.46085E+06 4.31610E-08 4.88253E-08
 -1        65-9.34460E+06-1.91920E+06 8.58690E+03-4.45443E+06-6.85723E-08-8.86985E-08
 -1        66-1.05636E+07-9.19789E+05-4.64692E+04-3.13222E+06-2.54659E-09 6.00994E-08
 -1        67-9.34377E+06-2.16732E+06-9.85310E+04-4.85317E+06-7.95899E-08 1.17137E-07
 -1        68-1.05441E+07-8.80373E+05-1.85668E+05-3.13169E+06-4.30391E-08 8.89704E-08
 -1        69-9.53682E+06-2.25919E+06-4.90087E+05-4.42108E+06-3.91192E-08-7.71252E-08
 -1        70-1.02688E+07-9.10775E+05-8.30914E+05-3.49609E+06-2.71120E-09-3.22470E-08
 -1        86-1.45599E+06-1.51493E+07-2.68539E+06-2.97289E+06-2.65311E-07-3.88245E-08
 -1        87 2.27709E+06 5.98058E+06 2.23394E+06 5.54927E+06-4.44597E-07 1.66165E-08
 -1        88-4.22774E+05-2.00562E+06 2.09697E+05-2.50361E+06-4.12228E-07-1.17797E-07
 -1        89 3.05049E+06 5.70216E+06 2.28835E+06 5.73116E+06-5.88654E-07-3.40760E-07
 -1        90-2.14126E+06-1.49428E+07-2.90177E+06-3.18146E+06-1.51296E-07 1.19777E-07
 -1       121-2.03946E+03-1.56815E+06-5.46668E+02 1.09996E+03 1.56103E-09-2.40107E-09
 -1       122-1.30230E+03-1.56330E+06 7.71570E+02-4.44242E+03-5.17113E-09 1.40572E-08
 -1       123-2.05927E+03-1.56828E+06 2.63856E+02 3.28505E+03 4.45584E-09 4.45434E-08
 -1       124 3.39146E+02-1.56285E+06 2.95785E+03-9.29414E+03-1.05997E-08 3.47500E-08
 -1       125-2.87061E+03-1.56918E+06 3.47279E+03 5.90574E+03 6.54290E-09-1.85100E-08
 -1       191-7.93461E+01 3.86582E+05 8.49390E+00 7.00633E-01-5.94784E-10-4.88217E-09
 -1       192-7.62585E+01 3.86565E+05 2.13149E+01-4.30760E+00-8.51437E-10-1.88811E-08
 -1       193-8.18845E+01 3.86582E+05 3.62891E+01 3.78309E+00-1.04751E-09-8.11269E-09
 -1       194-7.93503E+01 3.86568E+05 8.10297E+01-9.77434E+00-5.53250E-10-8.80118E-09
 -1       195-8.67567E+01 3.86579E+05 1.55134E+02 6.36084E+00-1.44634E-09-4.85488E-09
 -1       251-8.70449E+05 1.61791E+04-3.77921E+04-1.41842E+04-3.91331E-10-3.50374E-08
 -1       252-8.84953E+05-1.87139E+04-2.63247E+04 4.95507E+04-2.79857E-09-1.21254E-07
 -1       253-8.78697E+05 2.48622E+03-1.01439E+04-1.01733E+04 9.97886E-09 1.98168E-07
 -1       254-8.71876E+05-2.99457E+03-4.64937E+03 3.54238E+04-1.45455E-08 2.26252E-07
 -1       255-8.82944E+05 7.68135E+01-3.46580E+03-6.04580E+01 2.47951E-09 3.47269E-07
 -1       256-8.66599E+05-2.81594E+02 1.05568E+03 1.23963E+04-1.87481E-09-1.16974E-07
 -1       257-8.83547E+05-5.42499E+02-1.33224E+03 1.28439E+04-1.17848E-09-2.47496E-07
 -1       258-8.69202E+05 8.64629E+02 2.61322E+03-1.19150E+04-7.68432E-09 4.98049E-08
 -1       259-8.80572E+05-8.91075E+02 1.38463E+03 2.42485E+04 1.84855E-10 7.65002E-08
 -1       260-8.75256E+05 2.85034E+03 5.51300E+03-2.94871E+04 1.35105E-09-2.88073E-07
 -1       261-8.78098E+05-2.06078E+03 8.59932E+03 3.04308E+04 3.09169E-08-2.33226E-07
 -1       262-8.73826E+05 1.16269E+04 2.13558E+04-3.46207E+04-2.53555E-08 1.31285E-07
 -1       263-8.82242E+05-9.44872E+03 3.38475E+04 2.93908E+04-6.82383E-09 2.61174E-07
 -1       264-8.43689E+05 6.65104E+04 9.36614E+04-2.55259E+04 4.67608E-08 9.60335E-08
 -1       265-9.07757E+05-5.70648E+04 1.30511E+05 2.13247E+04 1.41010E-08 8.52742E-08
 -1       266-1.70245E+04-7.96146E+03 3.99404E+04-1.82670E+01 1.50976E-10-1.32494E-07
 -1       267 1.97358E+04 9.27799E+03 2.82313E+04 2.10782E+01 5.68434E-11-1.17323E-07
 -1       268-2.64655E+03-1.31409E+03 1.04933E+04-2.68563E+00-2.06001E-10-1.16100E-07
 -1       269 3.12477E+03 1.57261E+03 6.82059E+03 3.12847E+00-2.12026E-10-2.34439E-07
 -1       270-4.69033E+02-2.58396E+02 3.29239E+03-4.24550E-01-4.22915E-11 1.01979E-07
 -1       271-1.50043E+06-1.90414E+05-1.12915E+05-5.83450E+05-2.36923E-08 8.09814E-09
 -1       272-1.49978E+06-3.02704E+05-7.10682E+04-6.19101E+05-6.86905E-08 2.30866E-08
 -1       273-1.52417E+06-2.14650E+05-2.73259E+04-5.75451E+05 2.37196E-08 1.63074E-07
 -1       274-1.47256E+06-2.73580E+05-1.43035E+04-6.34030E+05-2.59170E-08 9.08658E-08
 -1       275-1.52973E+06-2.14379E+05-6.77670E+03-5.71736E+05-3.67763E-08 7.15681E-08
 -1       276-1.46679E+06-2.74392E+05-2.90944E+03-6.42405E+05 1.45410E-08-8.17854E-08
 -1       277-1.53252E+06-2.11840E+05-1.86885E+03-5.69044E+05-4.07199E-08 1.64587E-07
 -1       278-1.46450E+06-2.77564E+05-7.43045E+02-6.48566E+05 6.98210E-08-3.67995E-08
 -1       279-1.53429E+06-2.09744E+05-8.87140E+02-5.67147E+05-1.20453E-08-4.56489E-08
 -1       280-1.46341E+06-2.79980E+05-1.04875E+03-6.52640E+05 3.78168E-09-7.89488E-08
 -1       281-1.53523E+06-2.08401E+05-1.93506E+03-5.66070E+05-2.71921E-08 1.60775E-07
 -1       282-1.46378E+06-2.82257E+05-4.50550E+03-6.54340E+05-2.74190E-08 9.58680E-08
 -1       283-1.53472E+06-2.07089E+05-8.01683E+03-5.65930E+05 4.11398E-08-1.50630E-07
 -1       284-1.47094E+06-2.92828E+05-2.18429E+04-6.52161E+05-4.74651E-08-4.07525E-07
 -1       285-1.52804E+06-1.99039E+05-3.40817E+04-5.67739E+05 1.18894E-08-1.62072E-07
 -1       301-5.89344E+03-6.44203E+05 1.67166E+05-1.13039E+06 1.73459E-08 1.81579E-07
 -1       302-7.35269E+03-5.97714E+05 1.00606E+05-1.65008E+06 2.88128E-09-1.95796E-07
 -1       303-2.07783E+04-6.36396E+05 5.69276E+04-1.12730E+06-2.40107E-09 1.90785E-07
 -1       304-2.32510E+04-6.04509E+05 5.74395E+04-1.64947E+06-1.33441E-08 1.42023E-07
 -1       305-2.50053E+04-6.25245E+05 7.08165E+04-1.13040E+06-3.89991E-09 7.12025E-08
 -1       306-3.01505E+07-6.22460E+06-8.61666E+06-5.15796E+05-1.23866E-07-1.95083E-07
 -1       307 2.53772E+07 3.27422E+06 5.51911E+06-1.52319E+07-8.17119E-07-1.64873E-07
 -1       308-6.96214E+06-1.02665E+06-4.50915E+05 5.21360E+06-1.27649E-07 1.02154E-08
 -1       309-3.24333E+06 8.76083E+06 2.28978E+06-2.06926E+07 2.93614E-07 1.16528E-07
 -1       310-1.25834E+07-1.94793E+06-2.04139E+06 5.22425E+06-3.83588E-08-3.19822E-07
 -1       311 3.84964E+07 1.48313E+04 7.29018E+06-8.80948E+06 3.72063E-07 1.60653E-07
 -1       312-3.19628E+07-6.78381E+06-8.54965E+06-5.04850E+06 3.32831E-07 1.45621E-07
 -1       313 4.54785E+07 1.50548E+07 1.06826E+07 2.38422E+07-1.26107E-07 4.56348E-08
 -1       314-1.72273E+07-1.78158E+07-7.53327E+06-1.25452E+07 5.54603E-07-2.56056E-07
 -1       315-1.84315E+06 2.97805E+07 5.67480E+06 1.05445E+07-3.80052E-07 1.74623E-10
 -1       316 1.40802E+06-9.84604E+06-4.38864E+05-2.52218E+06-1.03240E-06-1.60973E-07
 -1       317-1.71180E+07 2.24437E+07 2.24442E+06-8.84723E+06 6.96135E-07-8.43727E-07
 -1       318-1.07367E+06-1.28082E+07-2.04882E+06-4.23991E+06-9.32050E-07 7.81729E-08
 -1       319 7.23867E+06 3.20200E+07 7.05166E+06 1.66461E+07-5.69999E-08 2.28873E-07
 -1       320-2.26199E+07-1.76646E+07-9.86817E+06-1.28283E+07 2.08267E-07-7.20902E-08
 -1       336-7.41388E+02-1.69757E+06-1.38811E+04 8.94009E+03-2.72612E-08 5.08589E-09
 -1       337-5.41868E+03-1.69713E+06-1.81149E+04-2.17132E+04-5.06443E-08 2.01399E-08
 -1       338 2.81420E+02-1.69706E+06-2.85291E+04 1.25222E+04-3.53712E-08 1.72804E-08
 -1       339-3.02727E+04-1.71441E+06-6.44842E+04-2.87292E+04-6.32435E-08 2.74158E-08
 -1       340 1.99491E+04-1.68248E+06-1.01576E+05 1.58251E+04-4.18477E-08 2.97623E-08
 -1       406-4.96529E+01 3.86565E+05 6.44699E+02 3.35085E+00-1.93212E-09 1.13105E-08
 -1       407 1.55036E+02 3.86699E+05 1.37776E+03 2.34026E+01-4.41375E-10 3.95175E-09
 -1       408 6.35495E+02 3.86464E+05 2.74714E+03-2.70746E+01-2.56637E-09 1.72440E-08
 -1       409 2.90940E+03 3.87576E+05 6.19181E+03 2.89066E+02-2.92857E-10 4.17203E-08
 -1       410 8.48688E+03 3.85673E+05 1.26372E+04-2.78767E+02-2.85581E-09 1.73022E-08
 -1       521-3.17048E+07-7.68711E+06-1.00713E+07-1.21798E+05-1.22003E-07-9.69740E-08
 -1       522 2.62508E+07 4.30739E+06 5.62949E+06-1.87498E+07-5.36122E-07-2.81376E-07
 -1       523-7.53582E+06-1.34042E+06-4.42416E+05 5.66338E+06 1.11351E-07-2.53727E-07
 -1       524-6.74926E+06 1.18329E+07 2.47801E+06-2.37615E+07 9.89421E-07-4.65490E-07
 -1       525-1.33809E+07-2.58619E+06-2.24511E+06 5.67799E+06 8.21601E-07-2.28552E-07
 -1       526 4.20440E+07-7.87505E+04 7.65347E+06-1.14619E+07 2.84053E-07 3.77157E-07
 -1       527-3.38206E+07-8.48717E+06-9.85890E+06-4.91078E+06 5.47152E-09-2.15805E-08
 -1       528 4.96752E+07 1.67874E+07 1.11463E+07 2.71241E+07 1.89524E-07 1.42027E-08
 -1       529-1.81705E+07-2.00355E+07-8.64055E+06-1.25756E+07 1.59722E-07-1.95228E-07
 -1       530-4.32934E+06 3.45952E+07 6.00802E+06 9.99630E+06 3.80533E-08 4.82833E-07
 -1       531 1.40992E+06-1.09200E+07-4.11356E+05-2.46575E+06-8.52524E-07 1.83238E-07
 -1       532-1.96300E+07 2.44545E+07 2.45386E+06-1.31601E+07 3.66708E-07-6.90117E-07
 -1       533-1.11618E+06-1.39631E+07-2.18264E+06-4.04292E+06-1.95840E-07-9.79868E-07
 -1       534 5.23130E+06 3.71759E+07 7.34169E+06 1.72273E+07-3.32366E-08 7.76548E-07
 -1       535-2.38060E+07-2.00698E+07-1.13186E+07-1.28987E+07 1.19791E-07 4.63100E-07
 -1       536-7.05908E+05-4.68071E+04-4.79314E+04-5.46686E+04-5.48425E-10 4.18768E-08
 -1       537-5.50940E+04 4.47628E+04 8.40078E+04 1.23813E+05-1.16700E-07 8.86430E-08
 -1       538-3.94382E+05 3.32989E+03 3.60717E+03-7.21833E+04 2.06392E-08 1.03485E-07
 -1       539-2.69089E+05 2.86821E+03 2.49391E+04 1.38697E+05 1.65319E-07 1.01751E-07
 -1       540-4.97287E+05-4.30889E+02-2.13024E+04-7.00868E+04 2.46027E-08 1.12090E-07
 -1       541 1.46438E+05 1.69667E+04 1.06346E+05 9.78914E+04-2.10266E-08 7.29683E-08
 -1       542-7.98712E+05-2.01262E+04-8.41941E+04-3.05034E+04 5.23096E-09 4.13660E-08
 -1       543 4.04965E+05 2.73120E+04 1.57893E+05-1.33631E+04-1.71385E-08-1.48461E-08
 -1       544-7.48880E+05-1.65276E+04-7.47966E+04 4.04984E+04-1.52045E-08-5.11931E-08
 -1       545 2.87518E+04 9.47626E+03 7.97640E+04-1.13590E+05-1.69824E-08-7.64412E-08
 -1       546-4.32603E+05 6.09463E+03-1.22246E+04 6.93777E+04 3.34967E-08-7.19464E-08
 -1       547-2.87178E+05-4.65977E+03 1.05710E+04-1.41545E+05-1.43614E-07-1.19020E-07
 -1       548-4.41444E+05 4.72116E+03-2.38832E+04 6.91442E+04-1.11836E-07-1.14248E-07
 -1       549 4.79369E+04 1.60400E+04 6.04521E+04-1.11448E+05-6.28162E-08-8.31271E-08
 -1       550-7.58750E+05-2.21091E+04-1.28954E+05 3.85654E+04 8.49650E-09-3.00606E-08
 -1       551 4.08239E+04-7.52376E+05-1.58029E+04-1.24760E+06-1.04163E-07-2.06928E-08
 -1       552 9.33120E+04-7.97357E+05 9.98475E+03-1.77893E+06-7.27159E-08 2.26792E-08
 -1       553 7.17916E+04-7.93767E+05 3.20986E+04-1.24095E+06-1.22120E-07 2.86673E-08
 -1       554 1.32114E+05-8.13237E+05 8.11549E+04-1.78087E+06-7.50297E-08 1.70367E-08
 -1       555 1.01548E+05-8.17418E+05 1.48195E+05-1.24078E+06-1.18911E-07-1.35278E-08
 -1       556 2.23732E+05-3.83709E+05 2.59538E+04-4.07339E+05-2.84053E-08-1.97615E-08
 -1       557 3.54364E+05-4.88092E+05 1.62540E+04-5.27768E+05-3.84171E-09-3.96540E-09
 -1       558 2.05511E+05-3.76537E+05 2.36731E+03-4.11759E+05-2.42144E-08-9.73523E-09
 -1       559 3.29316E+05-4.88185E+05 2.46211E+03-5.48225E+05 2.50147E-08-1.57961E-08
 -1       560 1.90202E+05-3.66937E+05-1.49556E+03-4.22791E+05 9.89530E-09 1.64291E-08
 -1       561 3.10077E+05-4.80486E+05 1.34807E+02-5.61342E+05-1.09285E-08 1.57452E-08
 -1       562 1.78096E+05-3.59416E+05-1.32450E+03-4.31557E+05 4.77303E-09 1.30713E-08
 -1       563 2.95699E+05-4.74218E+05-3.54649E+01-5.70733E+05 1.52795E-10-2.27556E-08
 -1       564 1.69458E+05-3.54033E+05-5.99611E+02-4.37679E+05 8.03266E-09 6.47788E-09
 -1       565 2.86163E+05-4.70065E+05 2.55836E+01-5.76826E+05 1.19908E-08 1.15324E-08
 -1       566 1.64408E+05-3.50839E+05-2.57226E+02-4.41211E+05 6.27188E-09-7.74889E-09
 -1       567 2.81530E+05-4.68049E+05-3.56743E+02-5.79640E+05 2.15132E-08 2.75031E-09
 -1       568 1.63039E+05-3.50000E+05-1.11440E+03-4.42264E+05-7.39146E-09 4.79849E-09
 -1       569 2.80416E+05-4.67970E+05-2.81656E+03-5.78208E+05-4.74756E-09 8.19637E-09
 -1       570 1.66440E+05-3.53228E+05-6.16519E+03-4.41249E+05 7.02858E-09 5.71799E-09
 -1       571 2.90802E+05 1.05022E+04 1.49800E+04-9.55091E+04 1.37152E-09 2.73112E-08
 -1       572 2.92972E+05 3.96006E+03 7.34145E+03-1.04782E+05 3.40151E-09-4.28918E-09
 -1       573 2.91663E+05 1.24723E+03 3.26205E+03-9.53315E+04 6.75664E-09 1.16306E-08
 -1       574 2.91877E+05 7.29487E+02 1.63592E+03-1.05008E+05 3.14890E-09 1.46156E-08
 -1       575 2.91757E+05 4.50314E+02 7.72126E+02-9.53072E+04-3.63164E-09 1.32113E-08
 -1       576 2.91740E+05 4.61994E+02 3.95366E+02-1.05038E+05-8.36644E-09 2.21362E-08
 -1       577 2.91796E+05 3.92326E+02 1.97432E+02-9.53038E+04-8.39555E-09 6.78483E-09
 -1       578 2.91771E+05 4.23926E+02 1.14174E+02-1.05042E+05-5.48243E-09-6.22549E-09
 -1       579 2.91869E+05 3.55521E+02 7.86192E+01-9.53035E+04 6.01358E-09-3.89264E-09
 -1       580 2.91873E+05 3.72703E+02 9.15346E+01-1.05037E+05-7.27232E-09 1.56861E-08
 -1       581 2.91983E+05 2.96708E+02 1.38536E+02-9.53094E+04 2.07401E-08 2.50566E-09
 -1       582 2.92049E+05 3.35336E+02 2.81803E+02-1.04975E+05 2.47492E-08-1.38352E-08
 -1       583 2.92124E+05 3.39899E+02 5.41030E+02-9.53661E+04 7.46877E-09-3.67868E-09
 -1       584 2.92427E+05 7.81796E+02 1.22428E+03-1.04498E+05-5.54792E-10 1.26531E-08
 -1       585 2.92150E+05 1.81238E+03 2.47921E+03-9.57862E+04-2.78305E-09 9.60426E-10
 -1       586-3.44741E+03 1.17017E+05-2.94270E+03-2.51599E+05-9.02764E-09 4.49040E-09
 -1       587-1.34736E+03 1.16764E+05 7.66605E+02-2.76902E+05-3.81988E-09 6.94035E-09
 -1       588 3.99175E+02 1.16572E+05 4.77311E+03-2.51460E+05-5.20231E-10 1.86328E-08
 -1       589 5.10305E+03 1.19054E+05 1.23866E+04-2.76670E+05-3.44335E-09 1.41608E-09
 -1       590 1.66683E+04 1.15234E+05 2.59860E+04-2.51893E+05-4.39377E-09 1.93904E-08
 -1       591-7.37526E+04-1.58329E+04-2.24393E+04-3.15550E+04-3.60274E-09-1.07839E-08
 -1       592-7.78009E+04-1.94011E+04-1.21549E+04-3.51944E+04-2.49073E-09-7.39988E-10
 -1       593-7.59972E+04-1.42042E+04-5.05950E+03-3.31998E+04-6.74233E-09 2.77419E-09
 -1       594-7.47023E+04-1.61088E+04-2.52330E+03-3.53122E+04-8.69647E-10 1.11669E-09
 -1       595-7.61683E+04-1.41988E+04-1.15847E+03-3.32746E+04-4.00712E-09 1.69862E-08
 -1       596-7.44901E+04-1.59583E+04-5.88723E+02-3.52870E+04 8.08963E-09 2.03581E-08
 -1       597-7.61898E+04-1.42142E+04-3.20184E+02-3.32774E+04 6.45173E-09 6.84128E-09
 -1       598-7.44692E+04-1.59523E+04-2.56670E+02-3.52800E+04-5.75579E-09-5.45276E-09
 -1       599-7.61885E+04-1.42147E+04-3.26968E+02-3.32771E+04 4.29634E-09-1.59811E-08
 -1       600-7.44902E+04-1.59588E+04-6.06682E+02-3.52849E+04 1.92597E-09-2.05123E-08
 -1       601-7.61639E+04-1.42002E+04-1.19648E+03-3.32736E+04 4.24029E-09-1.67213E-08
 -1       602-7.47092E+04-1.61132E+04-2.60741E+03-3.53071E+04-3.86569E-09 8.11383E-10
 -1       603-7.59844E+04-1.42087E+04-5.22883E+03-3.31971E+04 1.06525E-09 1.42354E-08
 -1       604-7.79289E+04-1.94962E+04-1.25609E+04-3.51607E+04 6.69473E-09 2.31712E-08
 -1       605-7.36449E+04-1.59094E+04-2.31889E+04-3.15165E+04 2.14823E-09 1.85646E-08
 -1       606 2.67297E+04-1.43341E+04-2.56956E+04 2.40118E+04 5.89989E-09-8.38054E-09
 -1       607 2.23393E+04-4.68167E+03-1.27963E+04 2.69842E+04-6.54836E-10-1.96860E-08
 -1       608 2.48415E+04-8.44749E+02-5.72850E+03 2.38429E+04-6.99765E-09-1.07821E-09
 -1       609 2.43618E+04-2.89557E+02-2.89388E+03 2.71985E+04 3.66799E-09 1.69359E-09
 -1       610 2.46278E+04-4.11961E+01-1.38071E+03 2.38229E+04 4.67571E-09-1.38064E-08
 -1       611 2.45525E+04-4.14722E+01-6.96144E+02 2.72216E+04 5.60613E-09 2.77009E-09
 -1       612 2.45806E+04-2.74644E+01-3.30937E+02 2.38208E+04 1.18234E-11-3.91992E-09
 -1       613 2.45640E+04-3.73630E+01-1.48279E+02 2.72243E+04-1.42927E-09-4.69936E-09
 -1       614 2.45584E+04-3.38705E+01-3.47192E+01 2.38201E+04-6.47378E-09 1.00881E-08
 -1       615 2.45587E+04-3.58599E+01 6.22726E+01 2.72248E+04-1.25128E-08 4.52246E-10
 -1       616 2.45410E+04-3.07350E+01 1.86620E+02 2.38204E+04-6.46605E-09 2.80716E-09
 -1       617 2.45812E+04 3.91970E+00 4.25736E+02 2.72243E+04-3.45608E-09-9.94646E-09
 -1       618 2.45040E+04 9.20047E+01 8.58123E+02 2.38207E+04-4.42924E-10 9.35643E-10
 -1       619 2.48841E+04 6.67428E+02 1.92697E+03 2.72237E+04-2.56193E-09-2.09332E-08
 -1       620 2.42190E+04 2.12685E+03 3.87316E+03 2.38223E+04 6.75300E-11-1.68211E-09
 -1       621 5.06632E+02 3.01162E+05 3.84084E+03 4.15152E+04 9.30413E-10-7.60429E-09
 -1       622 6.73744E+02 3.02047E+05 3.41455E+03 6.02751E+04 1.07730E-09 7.46513E-09
 -1       623 1.44536E+02 3.01352E+05 4.10998E+03 4.13283E+04 1.15801E-09 1.88538E-09
 -1       624 2.11639E+03 3.03257E+05 7.97349E+03 6.04581E+04 1.29012E-09-1.31772E-08
 -1       625 2.06657E+03 2.99770E+05 1.39359E+04 4.13261E+04 1.44064E-09-4.85875E-09
 -1       626 2.60883E+05 6.14140E+04 5.11034E+03 1.26752E+05 3.55658E-09-2.49202E-09
 -1       627 2.58563E+05 6.28148E+04 2.46263E+03 1.31025E+05 1.70076E-09-6.12374E-09
 -1       628 2.61011E+05 5.90755E+04 1.04151E+03 1.27621E+05-9.42327E-09 1.31058E-09
 -1       629 2.57929E+05 6.21364E+04 5.09778E+02 1.31265E+05-9.48421E-09-1.90903E-08
 -1       630 2.61025E+05 5.89625E+04 2.36585E+02 1.27657E+05-2.04091E-09-5.89034E-09
 -1       631 2.57862E+05 6.21106E+04 1.27473E+02 1.31266E+05 8.83051E-09 3.50474E-09
 -1       632 2.61022E+05 5.89665E+04 8.41627E+01 1.27653E+05 7.66522E-09 4.60091E-09
 -1       633 2.57853E+05 6.21125E+04 9.41875E+01 1.31263E+05 1.85014E-09-3.05363E-09
 -1       634 2.61017E+05 5.89637E+04 1.52591E+02 1.27653E+05 2.85206E-09 4.64570E-09
 -1       635 2.57868E+05 6.21107E+04 3.09003E+02 1.31268E+05-5.58771E-11 1.77952E-08
 -1       636 2.61008E+05 5.89579E+04 6.24152E+02 1.27652E+05 2.20689E-09 3.65617E-10
 -1       637 2.58003E+05 6.22078E+04 1.37243E+03 1.31268E+05 1.62072E-09-1.67136E-08
 -1       638 2.60959E+05 5.92610E+04 2.81985E+03 1.27515E+05 2.98769E-09-1.19539E-08
 -1       639 2.59484E+05 6.42680E+04 6.67190E+03 1.30832E+05 7.94216E-09 2.11089E-08
 -1       640 2.60754E+05 6.54128E+04 1.38453E+04 1.24923E+05 4.00587E-09-9.96988E-09
 -1       656 6.65969E+04-1.70434E+06-1.60760E+05-2.56183E+03-1.21508E-09 2.26941E-08
 -1       657-8.81015E+04-1.77698E+06-1.33180E+05 5.16635E+03-7.20320E-10-1.08734E-08
 -1       658 2.12283E+04-1.72496E+06-8.20210E+04-4.64720E+03 4.85215E-10-6.31636E-09
 -1       659-9.52657E+04-1.78038E+06-1.42595E+05 6.89814E+03-1.30240E-09 2.23262E-08
 -1       660 7.37452E+04-1.70094E+06-1.76947E+05-4.29361E+03-2.31375E-09-6.34941E-11
 -1       661 1.58811E+05 1.66196E+04 1.67367E+04 6.20812E+04-2.16869E-09 6.56928E-09
 -1       662 1.68271E+05 2.90165E+04 1.12794E+04 5.83291E+04-5.14962E-09-1.59426E-08
 -1       663 1.62099E+05 2.19890E+04 3.94481E+03 6.11272E+04 1.11470E-09-1.57243E-08
 -1       664 1.64459E+05 2.27374E+04 2.35981E+03 5.94945E+04-4.97522E-09 1.94470E-09
 -1       665 1.62597E+05 2.27223E+04 9.30929E+02 6.09816E+04 1.98770E-09 5.73286E-09
 -1       666 1.63869E+05 2.18989E+04 5.44917E+02 5.96844E+04 6.59176E-09 6.16263E-11
 -1       667 1.62685E+05 2.28057E+04 2.89615E+02 6.09451E+04 3.49365E-09-3.41232E-09
 -1       668 1.63773E+05 2.18390E+04 2.95521E+02 5.97374E+04-1.56638E-09-8.15331E-09
 -1       669 1.62693E+05 2.27805E+04 4.00438E+02 6.09288E+04-5.11841E-09 1.25128E-08
 -1       670 1.63870E+05 2.20565E+04 8.72282E+02 5.97404E+04-1.22015E-08 2.30497E-08
 -1       671 1.62587E+05 2.25927E+04 1.54891E+03 6.09401E+04 2.28220E-09-9.11359E-09
 -1       672 1.64773E+05 2.35634E+04 3.96294E+03 5.95217E+04 3.57630E-09 6.41512E-09
 -1       673 1.61795E+05 2.13118E+04 6.64128E+03 6.11329E+04 5.30235E-09 1.31313E-08
 -1       674 1.71093E+05 3.42335E+04 1.89927E+04 5.76648E+04-3.48052E-09-9.06039E-09
 -1       675 1.56307E+05 1.22216E+04 2.81918E+04 6.26849E+04-2.17233E-09 5.48425E-09
 -1       676 2.41251E+01-2.96014E+05-1.11408E+03-1.37516E+02 6.84253E-10-1.29270E-08
 -1       677-2.94699E+02-2.96284E+05-2.03895E+03 2.74810E+02 1.30621E-08-2.22259E-08
 -1       678 1.97660E+02-2.95823E+05-3.60436E+03-1.37204E+02 1.97906E-09 1.45112E-08
 -1       679-3.60442E+03-2.98460E+05-8.56247E+03 2.73623E+02 5.03201E-09-4.44469E-09
 -1       680 2.15205E+03-2.93840E+05-1.37998E+04-1.34812E+02-1.43245E-09 2.93133E-09
 -1       771-3.06357E+06-7.47470E+05-1.65762E+05-1.46645E+06-3.30328E-08-2.73285E-08
 -1       772-2.98642E+06-8.36307E+05-8.54586E+04-1.56916E+06-2.92785E-08 6.98128E-09
 -1       773-3.09505E+06-7.22921E+05-4.35719E+04-1.48098E+06-1.91212E-08 8.11997E-09
 -1       774-2.97691E+06-8.17805E+05-1.94380E+04-1.59493E+06 2.62226E-08-2.72485E-09
 -1       775-3.11150E+06-7.11378E+05-1.45449E+04-1.48803E+06-4.48199E-09 2.28465E-09
 -1       776-2.98926E+06-8.14771E+05-5.43839E+03-1.61444E+06-1.95869E-08 2.96859E-09
 -1       777-3.12578E+06-7.01075E+05-6.42829E+03-1.49425E+06-1.45519E-09 3.71074E-10
 -1       778-3.00216E+06-8.11948E+05-1.81719E+03-1.63119E+06 8.83301E-09 6.49379E-09
 -1       779-3.13806E+06-6.92071E+05-3.21302E+03-1.49957E+06-9.93896E-09-6.60293E-09
 -1       780-3.01351E+06-8.09255E+05-5.32860E+02-1.64485E+06-1.02154E-08 3.84171E-09
 -1       781-3.14781E+06-6.84813E+05-1.24860E+03-1.50373E+06-3.47645E-08-5.49699E-09
 -1       782-3.02227E+06-8.06968E+05 4.49389E+02-1.65492E+06-3.37750E-08-8.20182E-09
 -1       783-3.15469E+06-6.79769E+05 6.99216E+02-1.50664E+06-5.46424E-09-1.69612E-08
 -1       784-3.02712E+06-8.04683E+05 2.90056E+03-1.66114E+06-2.07219E-08 3.38787E-09
 -1       785-3.15875E+06-6.76760E+05 5.12019E+03-1.50849E+06-3.79441E-08 7.71797E-09
 -1       786 1.29010E+05-1.00334E+04 2.31361E+04-3.27582E+02 3.75791E-05 9.33142E-08
 -1       787 1.39061E+05 1.16142E+04 1.63806E+04-1.68858E+02 7.50559E-05 1.61623E-07
 -1       788 1.32883E+05-1.57693E+03 5.98539E+03-2.82674E+02 5.60076E-05 1.02200E-07
 -1       789 1.34547E+05 1.82507E+03 3.76170E+03-2.28675E+02 3.69087E-05 9.86911E-08
 -1       790 1.33524E+05-2.46299E+02 1.52186E+03-2.67770E+02 2.61371E-05 5.48208E-08
 -1       791 1.33798E+05 2.85109E+02 8.80703E+02-2.49594E+02 1.53809E-05 6.80882E-08
 -1       792 1.33633E+05-3.72566E+01 3.74498E+02-2.61756E+02 1.20354E-05 3.30710E-08
 -1       793 1.33668E+05 4.02030E+01 1.90381E+02-2.59487E+02 8.69722E-06 2.90510E-08
 -1       794 1.33654E+05-1.42897E+00 5.66685E+01-2.57877E+02 9.11706E-06 2.12790E-08
 -1       795 1.33633E+05-2.21780E+01-4.00376E+01-2.69032E+02 9.52362E-06 3.89735E-08
 -1       796 1.33669E+05 2.51176E+01-1.33419E+02-2.52210E+02 1.16509E-05 1.60931E-08
 -1       797 1.33552E+05-1.86943E+02-3.76098E+02-2.87780E+02 1.37672E-05 3.15189E-08
 -1       798 1.33735E+05 1.63308E+02-6.12510E+02-2.39129E+02 1.43299E-05 1.80362E-08
 -1       799 1.33088E+05-1.19857E+03-1.68850E+03-3.34534E+02 1.48844E-05 4.44838E-08
 -1       800 1.34133E+05 1.03654E+03-2.38924E+03-2.05456E+02 7.42943E-06 6.97719E-09
 -1       801-1.71045E+05-9.99304E+06-1.39262E+06 1.41422E+06 9.43837E-08-5.54355E-08
 -1       802 7.37576E+05 5.94235E+06 2.17976E+06-1.74569E+06 2.59897E-07-3.70546E-08
 -1       803-5.36191E+05-1.42572E+07-1.88884E+06 8.97585E+05 7.87331E-08 9.38962E-09
 -1       804 2.86935E+05 2.38920E+06 1.53584E+06 6.76688E+05-1.21305E-07-9.92482E-08
 -1       805 1.89200E+05-6.45401E+06-2.85926E+05-1.00250E+06-5.04588E-08-6.05814E-08
 -1       806-3.08461E+05-5.97971E+04-2.27505E+04-1.22447E+05 1.09321E-09 1.86387E-08
 -1       807-3.10220E+05-5.61142E+04-1.11771E+04-1.28003E+05 6.03723E-09 6.71253E-09
 -1       808-3.09086E+05-5.15973E+04-4.74166E+03-1.26322E+05-8.78390E-09-1.08805E-08
 -1       809-3.07869E+05-5.29744E+04-2.31856E+03-1.28278E+05-1.41911E-08 6.63249E-09
 -1       810-3.09180E+05-5.13119E+04-1.06274E+03-1.26494E+05 8.37736E-09 1.02880E-08
 -1       811-3.07687E+05-5.28483E+04-5.28548E+02-1.28243E+05 1.75010E-08-5.82395E-09
 -1       812-3.09194E+05-5.13365E+04-2.67454E+02-1.26493E+05-2.70848E-09-6.26642E-09
 -1       813-3.07662E+05-5.28506E+04-1.74073E+02-1.28224E+05-4.06226E-09-1.31131E-08
 -1       814-3.09187E+05-5.13462E+04-1.72913E+02-1.26489E+05-6.48288E-09-1.33232E-08
 -1       815-3.07665E+05-5.28529E+04-2.78975E+02-1.28217E+05 1.91721E-09-3.13298E-09
 -1       816-3.09166E+05-5.13454E+04-5.28997E+02-1.26485E+05 6.75118E-09 6.14000E-09
 -1       817-3.07755E+05-5.29034E+04-1.13539E+03-1.28205E+05-9.41918E-09 1.89048E-08
 -1       818-3.09097E+05-5.15059E+04-2.31587E+03-1.26409E+05-5.79348E-10 8.96307E-09
 -1       819-3.09023E+05-5.43018E+04-5.44903E+03-1.27904E+05 7.65795E-09-2.19193E-08
 -1       820-3.08659E+05-5.56231E+04-1.10908E+04-1.24652E+05 3.56340E-09-5.73255E-09
 -1       821-3.80598E+05 2.09420E+04-4.88036E+04 2.22649E+03 1.45740E-08 1.24710E-08
 -1       822-4.00151E+05-2.42633E+04-3.42555E+04-4.78461E+03 6.58694E-09-7.76254E-09
 -1       823-3.87988E+05 3.30431E+03-1.26008E+04 3.66917E+03-1.25201E-08 6.90625E-09
 -1       824-3.91194E+05-3.80926E+03-7.88076E+03-5.82582E+03 2.63275E-09 8.68852E-09
 -1       825-3.89565E+05 5.14100E+02-3.30736E+03 3.26784E+03 2.39306E-08 1.18669E-08
 -1       826-3.88628E+05-5.64697E+02-1.72052E+03-3.41427E+03 2.64834E-08 1.57522E-08
 -1       827-3.90525E+05 4.04521E+01-1.22064E+03 1.25745E+03 1.21240E-08 6.10012E-09
 -1       828-3.87827E+05-1.23532E+02-5.38548E+02 1.10206E+03-3.18266E-09 2.08682E-08
 -1       829-3.90350E+05 6.08467E+01-1.20593E+03-1.24852E+03-1.08139E-09 3.11579E-09
 -1       830-3.89004E+05-6.21430E+02-1.86232E+03 5.21002E+03 1.86532E-09-1.04592E-11
 -1       831-3.89374E+05 5.58624E+02-3.38231E+03-2.85053E+03-6.84889E-09-1.25456E-08
 -1       832-3.91270E+05-3.97293E+03-8.17358E+03 6.62067E+03-4.01664E-09-2.39652E-08
 -1       833-3.88104E+05 3.42403E+03-1.30916E+04-2.65922E+03-1.11513E-10 1.38289E-08
 -1       834-4.00167E+05-2.51459E+04-3.54290E+04 4.51235E+03-2.49231E-09 7.13453E-09
 -1       835-3.80457E+05 2.16961E+04-5.06153E+04-7.42107E+02 4.79957E-09 3.66708E-09
 -1       836-1.41371E+03 3.70446E+05 2.28636E+04-1.67718E+04-7.01857E-09 4.27053E-09
 -1       837 4.87052E+03 3.77609E+05 1.93555E+04-3.42560E+04-7.70569E-09-7.86622E-09
 -1       838-5.59381E+02 3.72451E+05 1.97324E+04-1.66986E+04-6.27415E-09 6.50743E-10
 -1       839 1.24199E+04 3.83229E+05 3.73392E+04-3.43086E+04-6.68160E-09 1.84230E-09
 -1       840-3.84265E+03 3.64763E+05 5.95472E+04-1.67251E+04-6.27551E-09 3.11053E-10
 -1       856-5.24195E+04 8.03248E+03-2.11673E+04-3.97485E+02 3.81476E-09 1.14087E-08
 -1       857-6.11399E+04-9.43792E+03-1.45714E+04 5.63704E+03 5.94784E-09-1.27693E-09
 -1       858-5.58730E+04 1.12648E+03-5.49242E+03-4.21671E+02 3.65861E-09-2.70575E-11
 -1       859-5.71767E+04-1.32527E+03-3.31442E+03 5.67302E+03 5.61779E-09-7.39800E-09
 -1       860-5.63890E+04 1.57761E+02-1.38908E+03-4.33201E+02 3.90827E-10-1.93432E-09
 -1       861-5.65832E+04-1.88348E+02-7.64175E+02 5.68873E+03 9.78702E-10-9.40396E-09
 -1       862-5.64697E+04 2.13755E+01-3.17684E+02-4.37355E+02-1.49676E-09 3.99842E-09
 -1       863-5.64843E+04-2.19064E+01-1.15782E+02 5.69114E+03-8.92170E-09-2.73861E-09
 -1       864-5.64884E+04-4.89280E+00 4.71137E+01-4.35612E+02-1.56494E-09-9.75585E-09
 -1       865-5.64285E+04 5.95866E+01 2.55197E+02 5.68119E+03-8.99760E-10-1.27095E-08
 -1       866-5.65233E+04-6.01386E+01 5.14363E+02-4.27406E+02 2.16937E-09-4.26292E-09
 -1       867-5.61866E+04 4.96584E+02 1.26611E+03 5.65892E+03-1.28011E-10-4.83894E-09
 -1       868-5.67254E+04-4.34009E+02 2.10389E+03-4.13335E+02-4.26326E-10-4.83317E-09
 -1       869-5.46441E+04 3.61201E+03 5.60199E+03 5.62227E+03 2.83447E-09-1.34737E-08
 -1       870-5.80580E+04-3.09097E+03 8.12973E+03-3.90657E+02-4.19027E-09 5.65751E-09
 -1       871-5.51891E+03-2.13530E+04-1.94923E+04 1.30409E+05-4.24916E-09-1.17807E-08
 -1       872-1.98235E+03-2.58855E+04-8.16186E+03 1.69095E+05-1.26829E-08 1.66988E-08
 -1       873 4.05246E+02-2.36932E+04 5.89938E+02 1.30122E+05-5.64478E-09-2.30796E-09
 -1       874 3.30642E+03-2.12821E+04 9.78039E+03 1.69125E+05-1.27366E-08-1.02402E-08
 -1       875 6.84715E+03-2.60232E+04 2.20637E+04 1.30361E+05-6.09180E-09-9.57789E-09
 -1       876 2.93805E+05 4.95205E+04 1.51047E+04 1.17907E+05 3.22052E-09 8.66748E-09
 -1       877 2.94803E+05 5.27025E+04 8.06651E+03 1.22241E+05 4.07226E-10 4.12649E-09
 -1       878 2.95218E+05 4.78472E+04 3.37947E+03 1.19145E+05-4.42878E-09 8.93306E-09
 -1       879 2.92750E+05 5.06535E+04 1.68386E+03 1.22343E+05 4.67617E-09-5.90899E-09
 -1       880 2.95319E+05 4.78299E+04 7.84320E+02 1.19195E+05-5.62250E-09-2.36529E-08
 -1       881 2.92613E+05 5.05658E+04 4.18856E+02 1.22320E+05-4.40184E-09-1.85373E-08
 -1       882 2.95328E+05 4.78432E+04 2.67986E+02 1.19197E+05 1.87447E-09 5.37405E-10
 -1       883 2.92604E+05 5.05613E+04 2.88142E+02 1.22312E+05 1.00931E-08 8.74783E-09
 -1       884 2.95321E+05 4.78404E+04 4.58405E+02 1.19197E+05 4.73949E-09 2.41982E-09
 -1       885 2.92640E+05 5.05676E+04 9.21672E+02 1.22323E+05 1.32610E-09 1.55011E-08
 -1       886 2.95286E+05 4.78135E+04 1.85760E+03 1.19193E+05-7.52979E-09 1.65846E-09
 -1       887 2.92966E+05 5.07817E+04 4.05767E+03 1.22370E+05 3.46665E-09 3.13188E-08
 -1       888 2.95029E+05 4.78587E+04 8.17632E+03 1.19064E+05-1.95797E-10 2.45836E-09
 -1       889 2.97834E+05 5.58437E+04 1.95317E+04 1.22221E+05 5.05281E-10-9.76797E-09
 -1       890 2.91692E+05 5.18229E+04 3.65824E+04 1.15952E+05 2.66391E-09 1.36570E-08
 -1       891-8.92616E+01-1.62804E+05-1.99668E+03 2.71652E+04-4.32010E-10-3.88809E-10
 -1       892-1.75241E+02-1.63332E+05-2.14451E+03 4.12520E+04 2.19666E-09 9.76684E-09
 -1       893 4.37903E+01-1.62868E+05-3.03642E+03 2.71726E+04 9.10632E-10 2.07465E-08
 -1       894-1.51021E+03-1.64479E+05-6.28427E+03 4.10994E+04 2.82739E-09 2.99274E-08
 -1       895-1.19942E+03-1.61559E+05-1.10665E+04 2.73197E+04-1.16881E-09-1.66337E-08
 -1       956-3.77240E+05-5.45752E+03-1.34725E+04 3.08744E+04 1.34314E-08-1.13168E-08
 -1       957-3.79884E+05-1.92510E+03-6.91521E+03 3.71026E+04 4.14320E-09 6.91443E-10
 -1       958-3.78451E+05-2.41121E+02-3.11621E+03 3.07065E+04-1.58707E-09 7.02948E-09
 -1       959-3.78648E+05-1.36258E+02-1.59118E+03 3.72984E+04 6.51744E-09 3.74939E-09
 -1       960-3.78569E+05-4.47095E+01-7.75926E+02 3.06892E+04 7.08496E-09-1.60444E-08
 -1       961-3.78567E+05-6.31050E+01-4.11362E+02 3.73188E+04 1.59391E-08-4.68526E-09
 -1       962-3.78597E+05-4.59240E+01-2.35469E+02 3.06863E+04 7.08633E-09 6.29871E-09
 -1       963-3.78568E+05-5.88935E+01-1.88942E+02 3.73225E+04 7.97968E-10 3.27782E-09
 -1       964-3.78602E+05-4.25560E+01-2.29669E+02 3.06855E+04 3.80069E-09 1.35626E-08
 -1       965-3.78580E+05-5.59172E+01-3.97151E+02 3.73218E+04-9.20636E-10 6.67069E-09
 -1       966-3.78586E+05-3.47034E+01-7.46190E+02 3.06870E+04 5.40149E-09-1.88625E-08
 -1       967-3.78670E+05-1.19451E+02-1.53040E+03 3.73075E+04-5.88443E-10 9.34961E-09
 -1       968-3.78482E+05-2.17191E+02-2.99596E+03 3.06997E+04 4.46107E-10-8.43784E-10
 -1       969-3.79870E+05-1.83432E+03-6.65094E+03 3.71591E+04 3.07045E-09-4.23364E-09
 -1       970-3.77326E+05-5.23027E+03-1.29564E+04 3.08268E+04 9.08585E-10-1.06074E-08
 -1       971-3.45447E+05-1.72806E+03-9.31321E+03 1.53848E+04 6.44013E-09 7.87908E-09
 -1       972-3.47689E+05-1.27218E+03-5.07187E+03 2.12773E+04 5.27871E-09 8.22092E-09
 -1       973-3.46485E+05-6.20228E+01-2.27174E+03 1.52636E+04 2.06455E-10-1.58889E-09
 -1       974-3.46620E+05-8.10562E+01-1.17759E+03 2.14145E+04-1.99907E-09 1.48655E-08
 -1       975-3.46567E+05-1.71272E+01-5.89100E+02 1.52513E+04 1.82399E-09-4.06430E-09
 -1       976-3.46558E+05-3.11907E+01-3.40707E+02 2.14303E+04 2.87764E-09-1.83363E-08
 -1       977-3.46583E+05-1.63784E+01-2.48780E+02 1.52479E+04-7.96263E-09-1.08205E-08
 -1       978-3.46564E+05-2.49616E+01-2.93170E+02 2.14351E+04-1.16723E-08 4.29679E-09
 -1       979-3.46583E+05-7.89744E+00-4.72791E+02 1.52464E+04-7.71809E-09 7.11202E-09
 -1       980-3.46599E+05-2.18993E+01-9.14003E+02 2.14361E+04-4.86608E-09-6.81439E-09
 -1       981-3.46554E+05 1.49476E+01-1.77079E+03 1.52470E+04 2.76145E-10 1.44272E-08
 -1       982-3.46842E+05-1.52743E+02-3.66051E+03 2.14295E+04 1.76215E-09-1.19751E-08
 -1       983-3.46331E+05-9.84437E+01-7.11257E+03 1.52530E+04-2.50384E-09 4.10046E-09
 -1       984-3.50263E+05-3.86743E+03-1.59284E+04 2.13438E+04 8.59472E-10-1.52420E-09
 -1       985-3.43111E+05-5.30298E+03-2.92494E+04 1.53244E+04-5.72754E-09-1.46410E-08
 -3
    1PSTEP                        37          19           1          
  100CL  119 6.63172E-01         409                     0   19           1
 -4  DISP        4    1
 -5  D1          1    2    1    0
 -5  D2          1    2    2    0
 -5  D3          1    2    3    0
 -5  ALL         1    2    0    0    1ALL
 -1         1 2.71330E-03 0.00000E+00 0.00000E+00
 -1         2 1.36844E-03 3.31800E-27-5.29396E-23
 -1         3 3.42680E-04-5.89378E-28 0.00000E+00
 -1         5 1.77138E-04-2.80485E-27-1.65436E-24
 -1         8 2.70223E-03-4.09568E-07 0.00000E+00
 -1         9 2.69562E-03-1.85361E-04 0.00000E+00
 -1        10 3.10719E-04-3.41358E-06-6.61744E-24
 -1        12 1.78984E-04 8.09564E-07-4.13590E-25
 -1        15 2.68952E-03-4.33904E-07 1.03398E-25
 -1        16 2.75968E-03-1.87151E-04 0.00000E+00
 -1        17 2.11458E-04-7.78295E-06 0.00000E+00
 -1        18 1.82927E-04 3.44008E-05 0.00000E+00
 -1        19 1.84521E-04 1.61271E-06 0.00000E+00
 -1        20 1.84661E-04-9.84510E-06 0.00000E+00
 -1        21 1.83769E-04-2.53299E-05 0.00000E+00
 -1        24 3.06272E-05-1.20100E-05 0.00000E+00
 -1        25 1.93684E-04 3.46267E-05 0.00000E+00
 -1        26 1.94394E-04 2.23220E-06 0.00000E+00
 -1        27 1.92178E-04-1.34040E-05 0.00000E+00
 -1        28 1.91860E-04-2.59522E-05 0.00000E+00
 -1        32 0.00000E+00 0.00000E+00 0.00000E+00
 -1        33 2.03227E-04 2.98644E-06 0.00000E+00
 -1        34 2.01109E-04-1.34601E-05 0.00000E+00
 -1        35 1.99176E-04-2.62947E-05 0.00000E+00
 -1        51 2.71256E-03-8.55695E-08 6.61744E-24
 -1        52 2.71120E-03-1.52809E-07-3.30872E-24
 -1        53 2.70936E-03-2.16609E-07 0.00000E+00
 -1        54 2.70716E-03-2.79202E-07 1.65436E-24
 -1        55 2.70474E-03-3.42348E-07-8.27181E-25
 -1        56 2.70588E-03 7.82032E-06-5.29396E-23
 -1        57 2.69162E-03 3.25763E-05 5.29396E-23
 -1        58 2.67262E-03 6.89102E-05 1.05879E-22
 -1        59 2.65146E-03 1.10353E-04 0.00000E+00
 -1        60 2.63123E-03 1.49560E-04 1.05879E-22
 -1        61 2.61489E-03 1.79368E-04 0.00000E+00
 -1        62 2.60451E-03 1.94296E-04 1.05879E-22
 -1        63 2.60141E-03 1.90184E-04 5.29396E-23
 -1        64 2.60543E-03 1.66369E-04 0.00000E+00
 -1        65 2.61577E-03 1.24039E-04 5.29396E-23
 -1        66 2.63061E-03 6.78877E-05 0.00000E+00
 -1        67 2.64788E-03 3.95595E-06 0.00000E+00
 -1        68 2.66524E-03-6.02120E-05 0.00000E+00
 -1        69 2.68032E-03-1.17042E-04-5.29396E-23
 -1        70 2.69102E-03-1.60383E-04-1.05879E-22
 -1        86 1.45188E-03-5.89971E-06 5.29396E-23
 -1        87 1.69347E-03-3.69138E-05 0.00000E+00
 -1        88 2.01828E-03-9.01552E-05 0.00000E+00
 -1        89 2.34736E-03-1.44826E-04 1.32349E-23
 -1        90 2.59929E-03-1.78277E-04-5.29396E-23
 -1       121 3.41783E-04-5.51186E-07 0.00000E+00
 -1       122 3.39094E-04-1.10546E-06-6.61744E-24
 -1       123 3.34623E-04-1.66587E-06 0.00000E+00
 -1       124 3.28387E-04-2.23545E-06 0.00000E+00
 -1       125 3.20409E-04-2.81685E-06 0.00000E+00
 -1       191 1.77189E-04 1.34991E-07 2.48154E-24
 -1       192 1.77343E-04 2.69971E-07-1.24077E-24
 -1       193 1.77599E-04 4.04930E-07 1.65436E-24
 -1       194 1.77958E-04 5.39858E-07 0.00000E+00
 -1       195 1.78420E-04 6.74740E-07 1.65436E-24
 -1       251 2.70192E-03 1.72745E-06 0.00000E+00
 -1       252 2.70161E-03 3.81164E-06 0.00000E+00
 -1       253 2.70131E-03 4.86103E-06 6.61744E-24
 -1       254 2.70100E-03 3.90666E-06 0.00000E+00
 -1       255 2.70068E-03 2.86772E-07 0.00000E+00
 -1       256 2.70035E-03-6.62668E-06 3.30872E-24
 -1       257 2.69999E-03-1.69572E-05 0.00000E+00
 -1       258 2.69959E-03-3.07848E-05 0.00000E+00
 -1       259 2.69914E-03-4.76544E-05 0.00000E+00
 -1       260 2.69865E-03-6.70721E-05 0.00000E+00
 -1       261 2.69813E-03-8.81534E-05-1.32349E-23
 -1       262 2.69759E-03-1.09994E-04 0.00000E+00
 -1       263 2.69705E-03-1.31571E-04 0.00000E+00
 -1       264 2.69654E-03-1.51867E-04 0.00000E+00
 -1       265 2.69607E-03-1.70062E-04 0.00000E+00
 -1       266 2.70011E-03-4.19329E-07 0.00000E+00
 -1       267 2.69799E-03-4.22689E-07 0.00000E+00
 -1       268 2.69587E-03-4.26455E-07 0.00000E+00
 -1       269 2.69376E-03-4.29021E-07 0.00000E+00
 -1       270 2.69164E-03-4.31558E-07 2.06795E-25
 -1       271 2.70133E-03 1.69386E-07 1.32349E-23
 -1       272 2.70137E-03-1.78593E-06 0.00000E+00
 -1       273 2.70229E-03-6.12808E-06 0.00000E+00
 -1       274 2.70403E-03-1.26980E-05 0.00000E+00
 -1       275 2.70653E-03-2.13162E-05 0.00000E+00
 -1       276 2.70970E-03-3.17882E-05-1.32349E-23
 -1       277 2.71346E-03-4.39036E-05 2.64698E-23
 -1       278 2.71774E-03-5.74392E-05 0.00000E+00
 -1       279 2.72245E-03-7.21602E-05 0.00000E+00
 -1       280 2.72749E-03-8.78221E-05-1.32349E-23
 -1       281 2.73278E-03-1.04172E-04-1.32349E-23
 -1       282 2.73822E-03-1.20954E-04 0.00000E+00
 -1       283 2.74373E-03-1.37905E-04 1.32349E-23
 -1       284 2.74920E-03-1.54762E-04 6.61744E-24
 -1       285 2.75455E-03-1.71264E-04-1.32349E-23
 -1       301 2.70727E-03-1.85692E-04 6.61744E-24
 -1       302 2.71729E-03-1.85979E-04 0.00000E+00
 -1       303 2.72661E-03-1.86256E-04-1.32349E-23
 -1       304 2.73616E-03-1.86533E-04 0.00000E+00
 -1       305 2.74688E-03-1.86824E-04 0.00000E+00
 -1       306 2.73347E-03-3.39764E-04 0.00000E+00
 -1       307 2.79735E-03-7.53714E-04 0.00000E+00
 -1       308 2.84403E-03-1.35902E-03-1.05879E-22
 -1       309 2.86785E-03-2.05967E-03 0.00000E+00
 -1       310 2.89910E-03-2.72990E-03-1.05879E-22
 -1       311 2.95855E-03-3.24660E-03 5.29396E-23
 -1       312 3.01642E-03-3.52913E-03 1.05879E-22
 -1       313 3.01188E-03-3.53959E-03 0.00000E+00
 -1       314 2.87104E-03-3.28998E-03 0.00000E+00
 -1       315 2.55297E-03-2.84480E-03 5.29396E-23
 -1       316 2.07600E-03-2.28070E-03-1.05879E-22
 -1       317 1.50604E-03-1.66701E-03 5.29396E-23
 -1       318 9.57425E-04-1.06439E-03-1.05879E-22
 -1       319 5.38174E-04-5.37838E-04-5.29396E-23
 -1       320 2.92090E-04-1.61488E-04-1.05879E-22
 -1       336 2.99130E-04-4.07332E-06 0.00000E+00
 -1       337 2.85466E-04-4.75874E-06 0.00000E+00
 -1       338 2.69789E-04-5.47207E-06 1.32349E-23
 -1       339 2.52172E-04-6.21411E-06 6.61744E-24
 -1       340 2.32697E-04-6.98933E-06 1.32349E-23
 -1       406 1.79650E-04 9.44312E-07 8.27181E-25
 -1       407 1.80419E-04 1.07894E-06-1.24077E-24
 -1       408 1.81291E-04 1.21341E-06-1.24077E-24
 -1       409 1.82266E-04 1.34754E-06-1.24077E-24
 -1       410 1.83343E-04 1.48106E-06 4.13590E-25
 -1       521 2.79813E-03-3.50834E-04-1.05879E-22
 -1       522 2.86023E-03-7.85009E-04 0.00000E+00
 -1       523 2.90047E-03-1.41807E-03 1.05879E-22
 -1       524 2.91508E-03-2.14728E-03 5.29396E-23
 -1       525 2.93844E-03-2.84404E-03-1.05879E-22
 -1       526 2.99433E-03-3.38274E-03 0.00000E+00
 -1       527 3.05178E-03-3.67584E-03 2.11758E-22
 -1       528 3.04494E-03-3.68452E-03 0.00000E+00
 -1       529 2.89211E-03-3.42079E-03 2.11758E-22
 -1       530 2.55011E-03-2.95707E-03 0.00000E+00
 -1       531 2.03807E-03-2.37379E-03 0.00000E+00
 -1       532 1.42834E-03-1.74290E-03 0.00000E+00
 -1       533 8.40614E-04-1.12242E-03 1.05879E-22
 -1       534 3.88062E-04-5.75018E-04-5.29396E-23
 -1       535 1.20763E-04-1.79142E-04 0.00000E+00
 -1       536 2.10703E-04 2.71292E-05-6.61744E-24
 -1       537 2.08787E-04 8.75418E-05 1.65436E-24
 -1       538 2.05826E-04 1.64193E-04 3.30872E-24
 -1       539 2.02333E-04 2.47736E-04 0.00000E+00
 -1       540 1.99191E-04 3.26677E-04 0.00000E+00
 -1       541 1.97148E-04 3.89543E-04 0.00000E+00
 -1       542 1.96206E-04 4.29583E-04-3.30872E-24
 -1       543 1.95981E-04 4.40198E-04 1.65436E-24
 -1       544 1.95658E-04 4.22162E-04 0.00000E+00
 -1       545 1.94487E-04 3.76469E-04 1.65436E-24
 -1       546 1.92304E-04 3.11241E-04-3.30872E-24
 -1       547 1.89350E-04 2.34721E-04 0.00000E+00
 -1       548 1.86422E-04 1.58578E-04-3.30872E-24
 -1       549 1.84310E-04 9.44807E-05 1.65436E-24
 -1       550 1.83213E-04 5.04548E-05 0.00000E+00
 -1       551 1.86260E-04-8.35274E-06 0.00000E+00
 -1       552 1.57817E-04-9.00297E-06 0.00000E+00
 -1       553 1.27073E-04-9.71541E-06 6.61744E-24
 -1       554 9.49877E-05-1.04690E-05-6.61744E-24
 -1       555 6.25205E-05-1.12362E-05 0.00000E+00
 -1       556 2.03811E-04 1.17692E-05 0.00000E+00
 -1       557 1.97633E-04 2.76263E-05 0.00000E+00
 -1       558 1.92789E-04 4.00763E-05 0.00000E+00
 -1       559 1.89148E-04 4.94295E-05 0.00000E+00
 -1       560 1.86577E-04 5.59969E-05 0.00000E+00
 -1       561 1.84951E-04 6.00917E-05 0.00000E+00
 -1       562 1.84143E-04 6.20287E-05 0.00000E+00
 -1       563 1.84029E-04 6.21232E-05 0.00000E+00
 -1       564 1.84488E-04 6.06919E-05 0.00000E+00
 -1       565 1.85398E-04 5.80517E-05 6.61744E-24
 -1       566 1.86640E-04 5.45204E-05 0.00000E+00
 -1       567 1.88095E-04 5.04159E-05 0.00000E+00
 -1       568 1.89645E-04 4.60566E-05 0.00000E+00
 -1       569 1.91171E-04 4.17605E-05 0.00000E+00
 -1       570 1.92556E-04 3.78460E-05 0.00000E+00
 -1       571 1.83024E-04 3.22752E-05 8.27181E-25
 -1       572 1.83122E-04 3.00834E-05-1.24077E-24
 -1       573 1.83222E-04 2.78412E-05 0.00000E+00
 -1       574 1.83321E-04 2.55650E-05 1.65436E-24
 -1       575 1.83420E-04 2.32713E-05 0.00000E+00
 -1       576 1.83520E-04 2.09766E-05 0.00000E+00
 -1       577 1.83620E-04 1.86974E-05 0.00000E+00
 -1       578 1.83719E-04 1.64503E-05 0.00000E+00
 -1       579 1.83819E-04 1.42520E-05 0.00000E+00
 -1       580 1.83919E-04 1.21188E-05 0.00000E+00
 -1       581 1.84019E-04 1.00675E-05 0.00000E+00
 -1       582 1.84119E-04 8.11446E-06 0.00000E+00
 -1       583 1.84220E-04 6.27633E-06 0.00000E+00
 -1       584 1.84320E-04 4.56942E-06 3.30872E-24
 -1       585 1.84421E-04 3.00994E-06 0.00000E+00
 -1       586 1.84679E-04 3.44406E-05 0.00000E+00
 -1       587 1.86390E-04 3.44798E-05 0.00000E+00
 -1       588 1.88102E-04 3.45187E-05-8.27181E-25
 -1       589 1.89860E-04 3.45569E-05 0.00000E+00
 -1       590 1.91706E-04 3.45938E-05 0.00000E+00
 -1       591 1.83656E-04 3.23691E-05 1.03398E-25
 -1       592 1.84388E-04 3.03170E-05 0.00000E+00
 -1       593 1.85125E-04 2.82505E-05 0.00000E+00
 -1       594 1.85866E-04 2.61741E-05 4.13590E-25
 -1       595 1.86608E-04 2.40929E-05 0.00000E+00
 -1       596 1.87350E-04 2.20115E-05 0.00000E+00
 -1       597 1.88091E-04 1.99346E-05 8.27181E-25
 -1       598 1.88828E-04 1.78671E-05 0.00000E+00
 -1       599 1.89560E-04 1.58136E-05-8.27181E-25
 -1       600 1.90284E-04 1.37789E-05 0.00000E+00
 -1       601 1.91000E-04 1.17677E-05-8.27181E-25
 -1       602 1.91706E-04 9.78483E-06-4.13590E-25
 -1       603 1.92399E-04 7.83493E-06-4.13590E-25
 -1       604 1.93079E-04 5.92289E-06-1.29247E-25
 -1       605 1.93743E-04 4.05335E-06 0.00000E+00
 -1       606 1.84535E-04 4.49228E-07 0.00000E+00
 -1       607 1.84544E-04-6.28284E-07 0.00000E+00
 -1       608 1.84553E-04-1.62487E-06 0.00000E+00
 -1       609 1.84562E-04-2.54622E-06 0.00000E+00
 -1       610 1.84570E-04-3.39808E-06 0.00000E+00
 -1       611 1.84578E-04-4.18626E-06 0.00000E+00
 -1       612 1.84587E-04-4.91656E-06 0.00000E+00
 -1       613 1.84595E-04-5.59480E-06 0.00000E+00
 -1       614 1.84603E-04-6.22682E-06 0.00000E+00
 -1       615 1.84612E-04-6.81840E-06 0.00000E+00
 -1       616 1.84620E-04-7.37540E-06-1.65436E-24
 -1       617 1.84629E-04-7.90362E-06 0.00000E+00
 -1       618 1.84637E-04-8.40888E-06 0.00000E+00
 -1       619 1.84645E-04-8.89700E-06 0.00000E+00
 -1       620 1.84654E-04-9.37381E-06 2.06795E-25
 -1       621 1.85880E-04 1.71653E-06 0.00000E+00
 -1       622 1.87399E-04 1.82059E-06 8.27181E-25
 -1       623 1.89043E-04 1.92443E-06-3.30872E-24
 -1       624 1.90780E-04 2.02794E-06 1.65436E-24
 -1       625 1.92575E-04 2.13117E-06 3.30872E-24
 -1       626 1.85070E-04 4.85315E-07 3.30872E-24
 -1       627 1.85595E-04-5.78915E-07 0.00000E+00
 -1       628 1.86100E-04-1.58784E-06 0.00000E+00
 -1       629 1.86588E-04-2.54962E-06-1.65436E-24
 -1       630 1.87061E-04-3.47246E-06-3.30872E-24
 -1       631 1.87523E-04-4.36459E-06 0.00000E+00
 -1       632 1.87976E-04-5.23419E-06 0.00000E+00
 -1       633 1.88424E-04-6.08951E-06 1.65436E-24
 -1       634 1.88869E-04-6.93876E-06 0.00000E+00
 -1       635 1.89316E-04-7.79014E-06 1.65436E-24
 -1       636 1.89766E-04-8.65188E-06-3.30872E-24
 -1       637 1.90223E-04-9.53221E-06 1.65436E-24
 -1       638 1.90690E-04-1.04393E-05-1.65436E-24
 -1       639 1.91170E-04-1.13815E-05 8.27181E-25
 -1       640 1.91665E-04-1.23669E-05 0.00000E+00
 -1       656 1.85365E-04-1.04235E-05 6.61744E-24
 -1       657 1.86489E-04-1.10255E-05 6.61744E-24
 -1       658 1.87894E-04-1.16260E-05 0.00000E+00
 -1       659 1.89434E-04-1.22262E-05 6.61744E-24
 -1       660 1.90923E-04-1.28283E-05 0.00000E+00
 -1       661 1.84925E-04-1.03614E-05 8.27181E-25
 -1       662 1.85226E-04-1.09696E-05 0.00000E+00
 -1       663 1.85560E-04-1.16643E-05 0.00000E+00
 -1       664 1.85924E-04-1.24390E-05-8.27181E-25
 -1       665 1.86315E-04-1.32881E-05 0.00000E+00
 -1       666 1.86733E-04-1.42054E-05 0.00000E+00
 -1       667 1.87174E-04-1.51855E-05 0.00000E+00
 -1       668 1.87636E-04-1.62227E-05 0.00000E+00
 -1       669 1.88118E-04-1.73117E-05 0.00000E+00
 -1       670 1.88617E-04-1.84471E-05-8.27181E-25
 -1       671 1.89131E-04-1.96237E-05 1.65436E-24
 -1       672 1.89659E-04-2.08364E-05 8.27181E-25
 -1       673 1.90198E-04-2.20804E-05 0.00000E+00
 -1       674 1.90746E-04-2.33508E-05-4.13590E-25
 -1       675 1.91303E-04-2.46424E-05 0.00000E+00
 -1       676 1.85122E-04-2.54342E-05 3.30872E-24
 -1       677 1.86475E-04-2.55385E-05 0.00000E+00
 -1       678 1.87826E-04-2.56427E-05 0.00000E+00
 -1       679 1.89174E-04-2.57466E-05 0.00000E+00
 -1       680 1.90519E-04-2.58505E-05 0.00000E+00
 -1       771 1.86763E-05 1.47140E-05 0.00000E+00
 -1       772 8.62181E-06 3.66629E-05 0.00000E+00
 -1       773 3.72965E-07 5.40669E-05 0.00000E+00
 -1       774-6.19454E-06 6.71840E-05 0.00000E+00
 -1       775-1.12023E-05 7.62823E-05 1.05879E-22
 -1       776-1.47769E-05 8.16470E-05 2.64698E-23
 -1       777-1.70446E-05 8.35731E-05 5.29396E-23
 -1       778-1.81342E-05 8.23697E-05 0.00000E+00
 -1       779-1.81742E-05 7.83544E-05-5.29396E-23
 -1       780-1.72947E-05 7.18559E-05 0.00000E+00
 -1       781-1.56250E-05 6.32100E-05 5.29396E-23
 -1       782-1.32963E-05 5.27614E-05 2.64698E-23
 -1       783-1.04383E-05 4.08592E-05-5.29396E-23
 -1       784-7.18249E-06 2.78589E-05 0.00000E+00
 -1       785-3.65903E-06 1.41188E-05 0.00000E+00
 -1       786 1.93724E-04 3.23905E-05 0.00000E+00
 -1       787 1.93767E-04 3.02317E-05-4.13590E-25
 -1       788 1.93811E-04 2.81265E-05-8.27181E-25
 -1       789 1.93855E-04 2.60514E-05 0.00000E+00
 -1       790 1.93900E-04 2.39974E-05 0.00000E+00
 -1       791 1.93945E-04 2.19556E-05 0.00000E+00
 -1       792 1.93989E-04 1.99230E-05 0.00000E+00
 -1       793 1.94034E-04 1.78964E-05 8.27181E-25
 -1       794 1.94079E-04 1.58759E-05 0.00000E+00
 -1       795 1.94124E-04 1.38613E-05 8.27181E-25
 -1       796 1.94168E-04 1.18557E-05-1.65436E-24
 -1       797 1.94213E-04 9.86171E-06 0.00000E+00
 -1       798 1.94258E-04 7.88811E-06 0.00000E+00
 -1       799 1.94303E-04 5.94350E-06 8.27181E-25
 -1       800 1.94348E-04 4.05058E-06 1.65436E-24
 -1       801 1.47904E-04 3.11290E-05 0.00000E+00
 -1       802 9.49003E-06 1.94207E-05 2.64698E-23
 -1       803-1.08744E-04 9.80945E-06 0.00000E+00
 -1       804-9.64059E-05 6.82760E-06 2.64698E-23
 -1       805-3.18526E-05 2.68338E-06 0.00000E+00
 -1       806 1.94412E-04 3.23077E-05 3.30872E-24
 -1       807 1.95127E-04 3.00142E-05-1.65436E-24
 -1       808 1.95830E-04 2.77517E-05 3.30872E-24
 -1       809 1.96519E-04 2.55241E-05 1.65436E-24
 -1       810 1.97194E-04 2.33357E-05 0.00000E+00
 -1       811 1.97852E-04 2.11905E-05 0.00000E+00
 -1       812 1.98493E-04 1.90923E-05 0.00000E+00
 -1       813 1.99114E-04 1.70454E-05 0.00000E+00
 -1       814 1.99715E-04 1.50535E-05 3.30872E-24
 -1       815 2.00294E-04 1.31208E-05-8.27181E-25
 -1       816 2.00850E-04 1.12511E-05 3.30872E-24
 -1       817 2.01381E-04 9.44837E-06 0.00000E+00
 -1       818 2.01885E-04 7.71664E-06-1.65436E-24
 -1       819 2.02361E-04 6.05982E-06-1.65436E-24
 -1       820 2.02809E-04 4.48180E-06 1.65436E-24
 -1       821 1.94264E-04-1.76708E-07 1.65436E-24
 -1       822 1.94123E-04-3.83549E-06-1.65436E-24
 -1       823 1.93979E-04-8.28774E-06 0.00000E+00
 -1       824 1.93832E-04-1.30721E-05 0.00000E+00
 -1       825 1.93686E-04-1.76371E-05 0.00000E+00
 -1       826 1.93543E-04-2.14325E-05 0.00000E+00
 -1       827 1.93404E-04-2.41184E-05-3.30872E-24
 -1       828 1.93267E-04-2.53618E-05 0.00000E+00
 -1       829 1.93131E-04-2.52237E-05 0.00000E+00
 -1       830 1.92993E-04-2.37735E-05 0.00000E+00
 -1       831 1.92855E-04-2.14393E-05 0.00000E+00
 -1       832 1.92715E-04-1.86542E-05 0.00000E+00
 -1       833 1.92576E-04-1.59749E-05 0.00000E+00
 -1       834 1.92440E-04-1.39574E-05 1.65436E-24
 -1       835 1.92305E-04-1.29773E-05-8.27181E-25
 -1       836 1.96081E-04 2.35728E-06 3.30872E-24
 -1       837 1.97638E-04 2.48550E-06 0.00000E+00
 -1       838 1.99099E-04 2.61366E-06-3.30872E-24
 -1       839 2.00495E-04 2.74112E-06-8.27181E-25
 -1       840 2.01860E-04 2.86842E-06-8.27181E-25
 -1       856 1.92162E-04-1.44634E-05 0.00000E+00
 -1       857 1.92142E-04-1.53870E-05 0.00000E+00
 -1       858 1.92123E-04-1.61959E-05 0.00000E+00
 -1       859 1.92103E-04-1.69113E-05-2.06795E-25
 -1       860 1.92083E-04-1.75544E-05-4.13590E-25
 -1       861 1.92063E-04-1.81464E-05-2.06795E-25
 -1       862 1.92044E-04-1.87088E-05 0.00000E+00
 -1       863 1.92024E-04-1.92629E-05 0.00000E+00
 -1       864 1.92004E-04-1.98300E-05 0.00000E+00
 -1       865 1.91984E-04-2.04314E-05-4.13590E-25
 -1       866 1.91964E-04-2.10886E-05 0.00000E+00
 -1       867 1.91944E-04-2.18227E-05 4.13590E-25
 -1       868 1.91924E-04-2.26550E-05 0.00000E+00
 -1       869 1.91903E-04-2.36067E-05 0.00000E+00
 -1       870 1.91882E-04-2.46988E-05 0.00000E+00
 -1       871 1.93525E-04-1.34089E-05-8.27181E-25
 -1       872 1.95019E-04-1.34172E-05 0.00000E+00
 -1       873 1.96593E-04-1.34262E-05 4.13590E-25
 -1       874 1.98178E-04-1.34360E-05-2.32645E-25
 -1       875 1.99706E-04-1.34463E-05 1.24077E-24
 -1       876 1.92702E-04-1.44488E-05 0.00000E+00
 -1       877 1.93204E-04-1.54268E-05 0.00000E+00
 -1       878 1.93685E-04-1.63460E-05 0.00000E+00
 -1       879 1.94146E-04-1.72136E-05 0.00000E+00
 -1       880 1.94592E-04-1.80372E-05-3.30872E-24
 -1       881 1.95023E-04-1.88241E-05-1.65436E-24
 -1       882 1.95444E-04-1.95817E-05 0.00000E+00
 -1       883 1.95856E-04-2.03172E-05-1.65436E-24
 -1       884 1.96263E-04-2.10382E-05 0.00000E+00
 -1       885 1.96667E-04-2.17518E-05 0.00000E+00
 -1       886 1.97071E-04-2.24655E-05 0.00000E+00
 -1       887 1.97477E-04-2.31865E-05 0.00000E+00
 -1       888 1.97889E-04-2.39224E-05-3.30872E-24
 -1       889 1.98309E-04-2.46805E-05 0.00000E+00
 -1       890 1.98739E-04-2.54682E-05 0.00000E+00
 -1       891 1.93222E-04-2.60097E-05-1.65436E-24
 -1       892 1.94560E-04-2.60674E-05-8.27181E-25
 -1       893 1.95850E-04-2.61250E-05-8.27181E-25
 -1       894 1.97066E-04-2.61823E-05 0.00000E+00
 -1       895 1.98183E-04-2.62394E-05 8.27181E-25
 -1       956 2.03097E-04 1.66609E-06 1.65436E-24
 -1       957 2.02964E-04 4.37384E-07-8.27181E-25
 -1       958 2.02832E-04-7.10412E-07 0.00000E+00
 -1       959 2.02699E-04-1.78864E-06-1.65436E-24
 -1       960 2.02566E-04-2.80870E-06 3.30872E-24
 -1       961 2.02433E-04-3.78200E-06 0.00000E+00
 -1       962 2.02300E-04-4.71998E-06 0.00000E+00
 -1       963 2.02168E-04-5.63408E-06 0.00000E+00
 -1       964 2.02035E-04-6.53576E-06 3.30872E-24
 -1       965 2.01902E-04-7.43646E-06 1.65436E-24
 -1       966 2.01769E-04-8.34763E-06-3.30872E-24
 -1       967 2.01637E-04-9.28072E-06 0.00000E+00
 -1       968 2.01504E-04-1.02472E-05 0.00000E+00
 -1       969 2.01371E-04-1.12584E-05-3.30872E-24
 -1       970 2.01239E-04-1.23257E-05 3.30872E-24
 -1       971 2.00989E-04-1.45941E-05 3.30872E-24
 -1       972 2.00868E-04-1.56334E-05 0.00000E+00
 -1       973 2.00746E-04-1.65885E-05 3.30872E-24
 -1       974 2.00625E-04-1.74704E-05-1.65436E-24
 -1       975 2.00503E-04-1.82897E-05-3.30872E-24
 -1       976 2.00382E-04-1.90574E-05-1.65436E-24
 -1       977 2.00261E-04-1.97844E-05 0.00000E+00
 -1       978 2.00139E-04-2.04816E-05 0.00000E+00
 -1       979 2.00018E-04-2.11599E-05 3.30872E-24
 -1       980 1.99896E-04-2.18302E-05-1.65436E-24
 -1       981 1.99775E-04-2.25034E-05-3.30872E-24
 -1       982 1.99654E-04-2.31904E-05 1.65436E-24
 -1       983 1.99533E-04-2.39022E-05 3.30872E-24
 -1       984 1.99412E-04-2.46496E-05 1.65436E-24
 -1       985 1.99292E-04-2.54436E-05 0.00000E+00
 -3
    1PSTEP                        38          19           1          
  100CL  119 6.63172E-01         409                     0   19           1
 -4  FORC        4    1
 -5  F1          1    2    1    0
 -5  F2          1    2    2    0
 -5  F3          1    2    3    0
 -5  ALL         1    2    0    0    1ALL
 -1         1 2.20558E-04 0.00000E+00 0.00000E+00
 -1         2 0.00000E+00 0.00000E+00 0.00000E+00
 -1         3 0.00000E+00 0.00000E+00 0.00000E+00
 -1         5 0.00000E+00 0.00000E+00 0.00000E+00
 -1         8 1.25738E-05-1.08742E-05 0.00000E+00
 -1         9-6.05864E-04 3.81402E-05 0.00000E+00
 -1        10-1.88602E-09 1.11869E-08 0.00000E+00
 -1        12 0.00000E+00 0.00000E+00 0.00000E+00
 -1        15 0.00000E+00 0.00000E+00 0.00000E+00
 -1        16-8.66489E-05-8.59720E-04 0.00000E+00
 -1        17-1.31054E-05 7.33022E-06 0.00000E+00
 -1        18 1.22506E-07 1.01221E-07 0.00000E+00
 -1        19 3.47669E-08-7.94414E-09 0.00000E+00
 -1        20-5.75714E-08 6.39362E-09 0.00000E+00
 -1        21 0.00000E+00 2.29043E-08 0.00000E+00
 -1        24-3.54924E-05 1.14112E-05 0.00000E+00
 -1        25 6.64145E-08-6.29100E-08 0.00000E+00
 -1        26-3.63698E-08-2.65191E-08 0.00000E+00
 -1        27-1.91555E-08 3.65588E-08 0.00000E+00
 -1        28-1.78583E-08 1.08958E-08 0.00000E+00
 -1        32 0.00000E+00 0.00000E+00 0.00000E+00
 -1        33-2.47757E-09-4.68244E-08 0.00000E+00
 -1        34-1.36326E-08-4.83299E-08 0.00000E+00
 -1        35-8.10446E-08-5.21019E-08 0.00000E+00
 -1        51 0.00000E+00 0.00000E+00 0.00000E+00
 -1        52 0.00000E+00 0.00000E+00 0.00000E+00
 -1        53 0.00000E+00 0.00000E+00 0.00000E+00
 -1        54 0.00000E+00 0.00000E+00 0.00000E+00
 -1        55 0.00000E+00 0.00000E+00 0.00000E+00
 -1        56 0.00000E+00 0.00000E+00 0.00000E+00
 -1        57 0.00000E+00 0.00000E+00 0.00000E+00
 -1        58 0.00000E+00 0.00000E+00 0.00000E+00
 -1        59 0.00000E+00 0.00000E+00 0.00000E+00
 -1        60 0.00000E+00 0.00000E+00 0.00000E+00
 -1        61 0.00000E+00 0.00000E+00 0.00000E+00
 -1        62 0.00000E+00 0.00000E+00 0.00000E+00
 -1        63 0.00000E+00 0.00000E+00 0.00000E+00
 -1        64 0.00000E+00 0.00000E+00 0.00000E+00
 -1        65 0.00000E+00 0.00000E+00 0.00000E+00
 -1        66 0.00000E+00 0.00000E+00 0.00000E+00
 -1        67 0.00000E+00 0.00000E+00 0.00000E+00
 -1        68 0.00000E+00 0.00000E+00 0.00000E+00
 -1        69 0.00000E+00 0.00000E+00 0.00000E+00
 -1        70 0.00000E+00 0.00000E+00 0.00000E+00
 -1        86 0.00000E+00 0.00000E+00 0.00000E+00
 -1        87 0.00000E+00 0.00000E+00 0.00000E+00
 -1        88 0.00000E+00 0.00000E+00 0.00000E+00
 -1        89 0.00000E+00 0.00000E+00 0.00000E+00
 -1        90 0.00000E+00 0.00000E+00 0.00000E+00
 -1       121 0.00000E+00 0.00000E+00 0.00000E+00
 -1       122 0.00000E+00 0.00000E+00 0.00000E+00
 -1       123 0.00000E+00 0.00000E+00 0.00000E+00
 -1       124 0.00000E+00 0.00000E+00 0.00000E+00
 -1       125 0.00000E+00 0.00000E+00 0.00000E+00
 -1       191 0.00000E+00 0.00000E+00 0.00000E+00
 -1       192 0.00000E+00 0.00000E+00 0.00000E+00
 -1       193 0.00000E+00 0.00000E+00 0.00000E+00
 -1       194 0.00000E+00 0.00000E+00 0.00000E+00
 -1       195 0.00000E+00 0.00000E+00 0.00000E+00
 -1       251 0.00000E+00 0.00000E+00 0.00000E+00
 -1       252 0.00000E+00 0.00000E+00 0.00000E+00
 -1       253 0.00000E+00 0.00000E+00 0.00000E+00
 -1       254 0.00000E+00 0.00000E+00 0.00000E+00
 -1       255 0.00000E+00 0.00000E+00 0.00000E+00
 -1       256 0.00000E+00 0.00000E+00 0.00000E+00
 -1       257 0.00000E+00 0.00000E+00 0.00000E+00
 -1       258 0.00000E+00 0.00000E+00 0.00000E+00
 -1       259 0.00000E+00 0.00000E+00 0.00000E+00
 -1       260 0.00000E+00 0.00000E+00 0.00000E+00
 -1       261 0.00000E+00 0.00000E+00 0.00000E+00
 -1       262 0.00000E+00 0.00000E+00 0.00000E+00
 -1       263 0.00000E+00 0.00000E+00 0.00000E+00
 -1       264 0.00000E+00 0.00000E+00 0.00000E+00
 -1       265 0.00000E+00 0.00000E+00 0.00000E+00
 -1       266 0.00000E+00 0.00000E+00 0.00000E+00
 -1       267 0.00000E+00 0.00000E+00 0.00000E+00
 -1       268 0.00000E+00 0.00000E+00 0.00000E+00
 -1       269 0.00000E+00 0.00000E+00 0.00000E+00
 -1       270 0.00000E+00 0.00000E+00 0.00000E+00
 -1       271 0.00000E+00 0.00000E+00 0.00000E+00
 -1       272 0.00000E+00 0.00000E+00 0.00000E+00
 -1       273 0.00000E+00 0.00000E+00 0.00000E+00
 -1       274 0.00000E+00 0.00000E+00 0.00000E+00
 -1       275 0.00000E+00 0.00000E+00 0.00000E+00
 -1       276 0.00000E+00 0.00000E+00 0.00000E+00
 -1       277 0.00000E+00 0.00000E+00 0.00000E+00
 -1       278 0.00000E+00 0.00000E+00 0.00000E+00
 -1       279 0.00000E+00 0.00000E+00 0.00000E+00
 -1       280 0.00000E+00 0.00000E+00 0.00000E+00
 -1       281 0.00000E+00 0.00000E+00 0.00000E+00
 -1       282 0.00000E+00 0.00000E+00 0.00000E+00
 -1       283 0.00000E+00 0.00000E+00 0.00000E+00
 -1       284 0.00000E+00 0.00000E+00 0.00000E+00
 -1       285 0.00000E+00 0.00000E+00 0.00000E+00
 -1       301 0.00000E+00 0.00000E+00 0.00000E+00
 -1       302 0.00000E+00 0.00000E+00 0.00000E+00
 -1       303 0.00000E+00 0.00000E+00 0.00000E+00
 -1       304 0.00000E+00 0.00000E+00 0.00000E+00
 -1       305 0.00000E+00 0.00000E+00 0.00000E+00
 -1       306 0.00000E+00 0.00000E+00 0.00000E+00
 -1       307 0.00000E+00 0.00000E+00 0.00000E+00
 -1       308 0.00000E+00 0.00000E+00 0.00000E+00
 -1       309 0.00000E+00 0.00000E+00 0.00000E+00
 -1       310 0.00000E+00 0.00000E+00 0.00000E+00
 -1       311 0.00000E+00 0.00000E+00 0.00000E+00
 -1       312 0.00000E+00 0.00000E+00 0.00000E+00
 -1       313 0.00000E+00 0.00000E+00 0.00000E+00
 -1       314 0.00000E+00 0.00000E+00 0.00000E+00
 -1       315 0.00000E+00 0.00000E+00 0.00000E+00
 -1       316 0.00000E+00 0.00000E+00 0.00000E+00
 -1       317 0.00000E+00 0.00000E+00 0.00000E+00
 -1       318 0.00000E+00 0.00000E+00 0.00000E+00
 -1       319 0.00000E+00 0.00000E+00 0.00000E+00
 -1       320 0.00000E+00 0.00000E+00 0.00000E+00
 -1       336 0.00000E+00 0.00000E+00 0.00000E+00
 -1       337 0.00000E+00 0.00000E+00 0.00000E+00
 -1       338 0.00000E+00 0.00000E+00 0.00000E+00
 -1       339 0.00000E+00 0.00000E+00 0.00000E+00
 -1       340 0.00000E+00 0.00000E+00 0.00000E+00
 -1       406 0.00000E+00 0.00000E+00 0.00000E+00
 -1       407 0.00000E+00 0.00000E+00 0.00000E+00
 -1       408 0.00000E+00 0.00000E+00 0.00000E+00
 -1       409 0.00000E+00 0.00000E+00 0.00000E+00
 -1       410 0.00000E+00 0.00000E+00 0.00000E+00
 -1       521 0.00000E+00 0.00000E+00 0.00000E+00
 -1       522 0.00000E+00 0.00000E+00 0.00000E+00
 -1       523 0.00000E+00 0.00000E+00 0.00000E+00
 -1       524 0.00000E+00 0.00000E+00 0.00000E+00
 -1       525 0.00000E+00 0.00000E+00 0.00000E+00
 -1       526 0.00000E+00 0.00000E+00 0.00000E+00
 -1       527 0.00000E+00 0.00000E+00 0.00000E+00
 -1       528 0.00000E+00 0.00000E+00 0.00000E+00
 -1       529 0.00000E+00 0.00000E+00 0.00000E+00
 -1       530 0.00000E+00 0.00000E+00 0.00000E+00
 -1       531 0.00000E+00 0.00000E+00 0.00000E+00
 -1       532 0.00000E+00 0.00000E+00 0.00000E+00
 -1       533 0.00000E+00 0.00000E+00 0.00000E+00
 -1       534 0.00000E+00 0.00000E+00 0.00000E+00
 -1       535 0.00000E+00 0.00000E+00 0.00000E+00
 -1       536 0.00000E+00 0.00000E+00 0.00000E+00
 -1       537 0.00000E+00 0.00000E+00 0.00000E+00
 -1       538 0.00000E+00 0.00000E+00 0.00000E+00
 -1       539 0.00000E+00 0.00000E+00 0.00000E+00
 -1       540 0.00000E+00 0.00000E+00 0.00000E+00
 -1       541 0.00000E+00 0.00000E+00 0.00000E+00
 -1       542 0.00000E+00 0.00000E+00 0.00000E+00
 -1       543 0.00000E+00 0.00000E+00 0.00000E+00
 -1       544 0.00000E+00 0.00000E+00 0.00000E+00
 -1       545 0.00000E+00 0.00000E+00 0.00000E+00
 -1       546 0.00000E+00 0.00000E+00 0.00000E+00
 -1       547 0.00000E+00 0.00000E+00 0.00000E+00
 -1       548 0.00000E+00 0.00000E+00 0.00000E+00
 -1       549 0.00000E+00 0.00000E+00 0.00000E+00
 -1       550 0.00000E+00 0.00000E+00 0.00000E+00
 -1       551 0.00000E+00 0.00000E+00 0.00000E+00
 -1       552 0.00000E+00 0.00000E+00 0.00000E+00
 -1       553 0.00000E+00 0.00000E+00 0.00000E+00
 -1       554 0.00000E+00 0.00000E+00 0.00000E+00
 -1       555 0.00000E+00 0.00000E+00 0.00000E+00
 -1       556 0.00000E+00 0.00000E+00 0.00000E+00
 -1       557 0.00000E+00 0.00000E+00 0.00000E+00
 -1       558 0.00000E+00 0.00000E+00 0.00000E+00
 -1       559 0.00000E+00 0.00000E+00 0.00000E+00
 -1       560 0.00000E+00 0.00000E+00 0.00000E+00
 -1       561 0.00000E+00 0.00000E+00 0.00000E+00
 -1       562 0.00000E+00 0.00000E+00 0.00000E+00
 -1       563 0.00000E+00 0.00000E+00 0.00000E+00
 -1       564 0.00000E+00 0.00000E+00 0.00000E+00
 -1       565 0.00000E+00 0.00000E+00 0.00000E+00
 -1       566 0.00000E+00 0.00000E+00 0.00000E+00
 -1       567 0.00000E+00 0.00000E+00 0.00000E+00
 -1       568 0.00000E+00 0.00000E+00 0.00000E+00
 -1       569 0.00000E+00 0.00000E+00 0.00000E+00
 -1       570 0.00000E+00 0.00000E+00 0.00000E+00
 -1       571 0.00000E+00 0.00000E+00 0.00000E+00
 -1       572 0.00000E+00 0.00000E+00 0.00000E+00
 -1       573 0.00000E+00 0.00000E+00 0.00000E+00
 -1       574 0.00000E+00 0.00000E+00 0.00000E+00
 -1       575 0.00000E+00 0.00000E+00 0.00000E+00
 -1       576 0.00000E+00 0.00000E+00 0.00000E+00
 -1       577 0.00000E+00 0.00000E+00 0.00000E+00
 -1       578 0.00000E+00 0.00000E+00 0.00000E+00
 -1       579 0.00000E+00 0.00000E+00 0.00000E+00
 -1       580 0.00000E+00 0.00000E+00 0.00000E+00
 -1       581 0.00000E+00 0.00000E+00 0.00000E+00
 -1       582 0.00000E+00 0.00000E+00 0.00000E+00
 -1       583 0.00000E+00 0.00000E+00 0.00000E+00
 -1       584 0.00000E+00 0.00000E+00 0.00000E+00
 -1       585 0.00000E+00 0.00000E+00 0.00000E+00
 -1       586 0.00000E+00 0.00000E+00 0.00000E+00
 -1       587 0.00000E+00 0.00000E+00 0.00000E+00
 -1       588 0.00000E+00 0.00000E+00 0.00000E+00
 -1       589 0.00000E+00 0.00000E+00 0.00000E+00
 -1       590 0.00000E+00 0.00000E+00 0.00000E+00
 -1       591 0.00000E+00 0.00000E+00 0.00000E+00
 -1       592 0.00000E+00 0.00000E+00 0.00000E+00
 -1       593 0.00000E+00 0.00000E+00 0.00000E+00
 -1       594 0.00000E+00 0.00000E+00 0.00000E+00
 -1       595 0.00000E+00 0.00000E+00 0.00000E+00
 -1       596 0.00000E+00 0.00000E+00 0.00000E+00
 -1       597 0.00000E+00 0.00000E+00 0.00000E+00
 -1       598 0.00000E+00 0.00000E+00 0.00000E+00
 -1       599 0.00000E+00 0.00000E+00 0.00000E+00
 -1       600 0.00000E+00 0.00000E+00 0.00000E+00
 -1       601 0.00000E+00 0.00000E+00 0.00000E+00
 -1       602 0.00000E+00 0.00000E+00 0.00000E+00
 -1       603 0.00000E+00 0.00000E+00 0.00000E+00
 -1       604 0.00000E+00 0.00000E+00 0.00000E+00
 -1       605 0.00000E+00 0.00000E+00 0.00000E+00
 -1       606 0.00000E+00 0.00000E+00 0.00000E+00
 -1       607 0.00000E+00 0.00000E+00 0.00000E+00
 -1       608 0.00000E+00 0.00000E+00 0.00000E+00
 -1       609 0.00000E+00 0.00000E+00 0.00000E+00
 -1       610 0.00000E+00 0.00000E+00 0.00000E+00
 -1       611 0.00000E+00 0.00000E+00 0.00000E+00
 -1       612 0.00000E+00 0.00000E+00 0.00000E+00
 -1       613 0.00000E+00 0.00000E+00 0.00000E+00
 -1       614 0.00000E+00 0.00000E+00 0.00000E+00
 -1       615 0.00000E+00 0.00000E+00 0.00000E+00
 -1       616 0.00000E+00 0.00000E+00 0.00000E+00
 -1       617 0.00000E+00 0.00000E+00 0.00000E+00
 -1       618 0.00000E+00 0.00000E+00 0.00000E+00
 -1       619 0.00000E+00 0.00000E+00 0.00000E+00
 -1       620 0.00000E+00 0.00000E+00 0.00000E+00
 -1       621 0.00000E+00 0.00000E+00 0.00000E+00
 -1       622 0.00000E+00 0.00000E+00 0.00000E+00
 -1       623 0.00000E+00 0.00000E+00 0.00000E+00
 -1       624 0.00000E+00 0.00000E+00 0.00000E+00
 -1       625 0.00000E+00 0.00000E+00 0.00000E+00
 -1       626 0.00000E+00 0.00000E+00 0.00000E+00
 -1       627 0.00000E+00 0.00000E+00 0.00000E+00
 -1       628 0.00000E+00 0.00000E+00 0.00000E+00
 -1       629 0.00000E+00 0.00000E+00 0.00000E+00
 -1       630 0.00000E+00 0.00000E+00 0.00000E+00
 -1       631 0.00000E+00 0.00000E+00 0.00000E+00
 -1       632 0.00000E+00 0.00000E+00 0.00000E+00
 -1       633 0.00000E+00 0.00000E+00 0.00000E+00
 -1       634 0.00000E+00 0.00000E+00 0.00000E+00
 -1       635 0.00000E+00 0.00000E+00 0.00000E+00
 -1       636 0.00000E+00 0.00000E+00 0.00000E+00
 -1       637 0.00000E+00 0.00000E+00 0.00000E+00
 -1       638 0.00000E+00 0.00000E+00 0.00000E+00
 -1       639 0.00000E+00 0.00000E+00 0.00000E+00
 -1       640 0.00000E+00 0.00000E+00 0.00000E+00
 -1       656 0.00000E+00 0.00000E+00 0.00000E+00
 -1       657 0.00000E+00 0.00000E+00 0.00000E+00
 -1       658 0.00000E+00 0.00000E+00 0.00000E+00
 -1       659 0.00000E+00 0.00000E+00 0.00000E+00
 -1       660 0.00000E+00 0.00000E+00 0.00000E+00
 -1       661 0.00000E+00 0.00000E+00 0.00000E+00
 -1       662 0.00000E+00 0.00000E+00 0.00000E+00
 -1       663 0.00000E+00 0.00000E+00 0.00000E+00
 -1       664 0.00000E+00 0.00000E+00 0.00000E+00
 -1       665 0.00000E+00 0.00000E+00 0.00000E+00
 -1       666 0.00000E+00 0.00000E+00 0.00000E+00
 -1       667 0.00000E+00 0.00000E+00 0.00000E+00
 -1       668 0.00000E+00 0.00000E+00 0.00000E+00
 -1       669 0.00000E+00 0.00000E+00 0.00000E+00
 -1       670 0.00000E+00 0.00000E+00 0.00000E+00
 -1       671 0.00000E+00 0.00000E+00 0.00000E+00
 -1       672 0.00000E+00 0.00000E+00 0.00000E+00
 -1       673 0.00000E+00 0.00000E+00 0.00000E+00
 -1       674 0.00000E+00 0.00000E+00 0.00000E+00
 -1       675 0.00000E+00 0.00000E+00 0.00000E+00
 -1       676 0.00000E+00 0.00000E+00 0.00000E+00
 -1       677 0.00000E+00 0.00000E+00 0.00000E+00
 -1       678 0.00000E+00 0.00000E+00 0.00000E+00
 -1       679 0.00000E+00 0.00000E+00 0.00000E+00
 -1       680 0.00000E+00 0.00000E+00 0.00000E+00
 -1       771 0.00000E+00 0.00000E+00 0.00000E+00
 -1       772 0.00000E+00 0.00000E+00 0.00000E+00
 -1       773 0.00000E+00 0.00000E+00 0.00000E+00
 -1       774 0.00000E+00 0.00000E+00 0.00000E+00
 -1       775 0.00000E+00 0.00000E+00 0.00000E+00
 -1       776 0.00000E+00 0.00000E+00 0.00000E+00
 -1       777 0.00000E+00 0.00000E+00 0.00000E+00
 -1       778 0.00000E+00 0.00000E+00 0.00000E+00
 -1       779 0.00000E+00 0.00000E+00 0.00000E+00
 -1       780 0.00000E+00 0.00000E+00 0.00000E+00
 -1       781 0.00000E+00 0.00000E+00 0.00000E+00
 -1       782 0.00000E+00 0.00000E+00 0.00000E+00
 -1       783 0.00000E+00 0.00000E+00 0.00000E+00
 -1       784 0.00000E+00 0.00000E+00 0.00000E+00
 -1       785 0.00000E+00 0.00000E+00 0.00000E+00
 -1       786 0.00000E+00 0.00000E+00 0.00000E+00
 -1       787 0.00000E+00 0.00000E+00 0.00000E+00
 -1       788 0.00000E+00 0.00000E+00 0.00000E+00
 -1       789 0.00000E+00 0.00000E+00 0.00000E+00
 -1       790 0.00000E+00 0.00000E+00 0.00000E+00
 -1       791 0.00000E+00 0.00000E+00 0.00000E+00
 -1       792 0.00000E+00 0.00000E+00 0.00000E+00
 -1       793 0.00000E+00 0.00000E+00 0.00000E+00
 -1       794 0.00000E+00 0.00000E+00 0.00000E+00
 -1       795 0.00000E+00 0.00000E+00 0.00000E+00
 -1       796 0.00000E+00 0.00000E+00 0.00000E+00
 -1       797 0.00000E+00 0.00000E+00 0.00000E+00
 -1       798 0.00000E+00 0.00000E+00 0.00000E+00
 -1       799 0.00000E+00 0.00000E+00 0.00000E+00
 -1       800 0.00000E+00 0.00000E+00 0.00000E+00
 -1       801 0.00000E+00 0.00000E+00 0.00000E+00
 -1       802 0.00000E+00 0.00000E+00 0.00000E+00
 -1       803 0.00000E+00 0.00000E+00 0.00000E+00
 -1       804 0.00000E+00 0.00000E+00 0.00000E+00
 -1       805 0.00000E+00 0.00000E+00 0.00000E+00
 -1       806 0.00000E+00 0.00000E+00 0.00000E+00
 -1       807 0.00000E+00 0.00000E+00 0.00000E+00
 -1       808 0.00000E+00 0.00000E+00 0.00000E+00
 -1       809 0.00000E+00 0.00000E+00 0.00000E+00
 -1       810 0.00000E+00 0.00000E+00 0.00000E+00
 -1       811 0.00000E+00 0.00000E+00 0.00000E+00
 -1       812 0.00000E+00 0.00000E+00 0.00000E+00
 -1       813 0.00000E+00 0.00000E+00 0.00000E+00
 -1       814 0.00000E+00 0.00000E+00 0.00000E+00
 -1       815 0.00000E+00 0.00000E+00 0.00000E+00
 -1       816 0.00000E+00 0.00000E+00 0.00000E+00
 -1       817 0.00000E+00 0.00000E+00 0.00000E+00
 -1       818 0.00000E+00 0.00000E+00 0.00000E+00
 -1       819 0.00000E+00 0.00000E+00 0.00000E+00
 -1       820 0.00000E+00 0.00000E+00 0.00000E+00
 -1       821 0.00000E+00 0.00000E+00 0.00000E+00
 -1       822 0.00000E+00 0.00000E+00 0.00000E+00
 -1       823 0.00000E+00 0.00000E+00 0.00000E+00
 -1       824 0.00000E+00 0.00000E+00 0.00000E+00
 -1       825 0.00000E+00 0.00000E+00 0.00000E+00
 -1       826 0.00000E+00 0.00000E+00 0.00000E+00
 -1       827 0.00000E+00 0.00000E+00 0.00000E+00
 -1       828 0.00000E+00 0.00000E+00 0.00000E+00
 -1       829 0.00000E+00 0.00000E+00 0.00000E+00
 -1       830 0.00000E+00 0.00000E+00 0.00000E+00
 -1       831 0.00000E+00 0.00000E+00 0.00000E+00
 -1       832 0.00000E+00 0.00000E+00 0.00000E+00
 -1       833 0.00000E+00 0.00000E+00 0.00000E+00
 -1       834 0.00000E+00 0.00000E+00 0.00000E+00
 -1       835 0.00000E+00 0.00000E+00 0.00000E+00
 -1       836 0.00000E+00 0.00000E+00 0.00000E+00
 -1       837 0.00000E+00 0.00000E+00 0.00000E+00
 -1       838 0.00000E+00 0.00000E+00 0.00000E+00
 -1       839 0.00000E+00 0.00000E+00 0.00000E+00
 -1       840 0.00000E+00 0.00000E+00 0.00000E+00
 -1       856 0.00000E+00 0.00000E+00 0.00000E+00
 -1       857 0.00000E+00 0.00000E+00 0.00000E+00
 -1       858 0.00000E+00 0.00000E+00 0.00000E+00
 -1       859 0.00000E+00 0.00000E+00 0.00000E+00
 -1       860 0.00000E+00 0.00000E+00 0.00000E+00
 -1       861 0.00000E+00 0.00000E+00 0.00000E+00
 -1       862 0.00000E+00 0.00000E+00 0.00000E+00
 -1       863 0.00000E+00 0.00000E+00 0.00000E+00
 -1       864 0.00000E+00 0.00000E+00 0.00000E+00
 -1       865 0.00000E+00 0.00000E+00 0.00000E+00
 -1       866 0.00000E+00 0.00000E+00 0.00000E+00
 -1       867 0.00000E+00 0.00000E+00 0.00000E+00
 -1       868 0.00000E+00 0.00000E+00 0.00000E+00
 -1       869 0.00000E+00 0.00000E+00 0.00000E+00
 -1       870 0.00000E+00 0.00000E+00 0.00000E+00
 -1       871 0.00000E+00 0.00000E+00 0.00000E+00
 -1       872 0.00000E+00 0.00000E+00 0.00000E+00
 -1       873 0.00000E+00 0.00000E+00 0.00000E+00
 -1       874 0.00000E+00 0.00000E+00 0.00000E+00
 -1       875 0.00000E+00 0.00000E+00 0.00000E+00
 -1       876 0.00000E+00 0.00000E+00 0.00000E+00
 -1       877 0.00000E+00 0.00000E+00 0.00000E+00
 -1       878 0.00000E+00 0.00000E+00 0.00000E+00
 -1       879 0.00000E+00 0.00000E+00 0.00000E+00
 -1       880 0.00000E+00 0.00000E+00 0.00000E+00
 -1       881 0.00000E+00 0.00000E+00 0.00000E+00
 -1       882 0.00000E+00 0.00000E+00 0.00000E+00
 -1       883 0.00000E+00 0.00000E+00 0.00000E+00
 -1       884 0.00000E+00 0.00000E+00 0.00000E+00
 -1       885 0.00000E+00 0.00000E+00 0.00000E+00
 -1       886 0.00000E+00 0.00000E+00 0.00000E+00
 -1       887 0.00000E+00 0.00000E+00 0.00000E+00
 -1       888 0.00000E+00 0.00000E+00 0.00000E+00
 -1       889 0.00000E+00 0.00000E+00 0.00000E+00
 -1       890 0.00000E+00 0.00000E+00 0.00000E+00
 -1       891 0.00000E+00 0.00000E+00 0.00000E+00
 -1       892 0.00000E+00 0.00000E+00 0.00000E+00
 -1       893 0.00000E+00 0.00000E+00 0.00000E+00
 -1       894 0.00000E+00 0.00000E+00 0.00000E+00
 -1       895 0.00000E+00 0.00000E+00 0.00000E+00
 -1       956 0.00000E+00 0.00000E+00 0.00000E+00
 -1       957 0.00000E+00 0.00000E+00 0.00000E+00
 -1       958 0.00000E+00 0.00000E+00 0.00000E+00
 -1       959 0.00000E+00 0.00000E+00 0.00000E+00
 -1       960 0.00000E+00 0.00000E+00 0.00000E+00
 -1       961 0.00000E+00 0.00000E+00 0.00000E+00
 -1       962 0.00000E+00 0.00000E+00 0.00000E+00
 -1       963 0.00000E+00 0.00000E+00 0.00000E+00
 -1       964 0.00000E+00 0.00000E+00 0.00000E+00
 -1       965 0.00000E+00 0.00000E+00 0.00000E+00
 -1       966 0.00000E+00 0.00000E+00 0.00000E+00
 -1       967 0.00000E+00 0.00000E+00 0.00000E+00
 -1       968 0.00000E+00 0.00000E+00 0.00000E+00
 -1       969 0.00000E+00 0.00000E+00 0.00000E+00
 -1       970 0.00000E+00 0.00000E+00 0.00000E+00
 -1       971 0.00000E+00 0.00000E+00 0.00000E+00
 -1       972 0.00000E+00 0.00000E+00 0.00000E+00
 -1       973 0.00000E+00 0.00000E+00 0.00000E+00
 -1       974 0.00000E+00 0.00000E+00 0.00000E+00
 -1       975 0.00000E+00 0.00000E+00 0.00000E+00
 -1       976 0.00000E+00 0.00000E+00 0.00000E+00
 -1       977 0.00000E+00 0.00000E+00 0.00000E+00
 -1       978 0.00000E+00 0.00000E+00 0.00000E+00
 -1       979 0.00000E+00 0.00000E+00 0.00000E+00
 -1       980 0.00000E+00 0.00000E+00 0.00000E+00
 -1       981 0.00000E+00 0.00000E+00 0.00000E+00
 -1       982 0.00000E+00 0.00000E+00 0.00000E+00
 -1       983 0.00000E+00 0.00000E+00 0.00000E+00
 -1       984 0.00000E+00 0.00000E+00 0.00000E+00
 -1       985 0.00000E+00 0.00000E+00 0.00000E+00
 -3
