    1C
    1UUSER                                                              
    1UDATE              11.october.2022                                 
    1UTIME              17:31:20                                        
    1UHOST                                                              
    1UPGM               CalculiX                                        
    1UVERSION           Version 2.20                             
    1UCOMPILETIME       Sun Jul 31 18:08:37 CEST 2022                    
    1UDIR                                                               
    1UDBN                                                               
    1UMAT    1MESH_MATERIAL                                             
    2C                           841                                     1
 -1         1 0.00000E+00 0.00000E+00 0.00000E+00
 -1         2 1.66667E-02 0.00000E+00 0.00000E+00
 -1         3 3.33333E-02 0.00000E+00 0.00000E+00
 -1         4 5.00000E-02 0.00000E+00 0.00000E+00
 -1         5 6.66667E-02 0.00000E+00 0.00000E+00
 -1         8 0.00000E+00 6.25000E-03 0.00000E+00
 -1         9 1.66667E-02 6.25000E-03 0.00000E+00
 -1        10 3.33333E-02 6.25000E-03 0.00000E+00
 -1        11 5.00000E-02 6.25000E-03 0.00000E+00
 -1        12 6.66667E-02 6.25000E-03 0.00000E+00
 -1        15 0.00000E+00 1.25000E-02 0.00000E+00
 -1        16 1.66667E-02 1.25000E-02 0.00000E+00
 -1        17 3.33333E-02 1.25000E-02 0.00000E+00
 -1        18 5.00000E-02 1.25000E-02 0.00000E+00
 -1        19 6.66667E-02 1.25000E-02 0.00000E+00
 -1        20 8.33333E-02 1.25000E-02 0.00000E+00
 -1        21 1.00000E-01 1.25000E-02 0.00000E+00
 -1        22 0.00000E+00 1.87500E-02 0.00000E+00
 -1        23 1.66667E-02 1.87500E-02 0.00000E+00
 -1        24 3.33333E-02 1.87500E-02 0.00000E+00
 -1        25 5.00000E-02 1.87500E-02 0.00000E+00
 -1        26 6.66667E-02 1.87500E-02 0.00000E+00
 -1        27 8.33333E-02 1.87500E-02 0.00000E+00
 -1        28 1.00000E-01 1.87500E-02 0.00000E+00
 -1        29 0.00000E+00 2.50000E-02 0.00000E+00
 -1        30 1.66667E-02 2.50000E-02 0.00000E+00
 -1        31 3.33333E-02 2.50000E-02 0.00000E+00
 -1        32 5.00000E-02 2.50000E-02 0.00000E+00
 -1        33 6.66667E-02 2.50000E-02 0.00000E+00
 -1        34 8.33333E-02 2.50000E-02 0.00000E+00
 -1        35 1.00000E-01 2.50000E-02 0.00000E+00
 -1        36 1.04167E-03 0.00000E+00 0.00000E+00
 -1        37 2.08333E-03 0.00000E+00 0.00000E+00
 -1        38 3.12500E-03 0.00000E+00 0.00000E+00
 -1        39 4.16667E-03 0.00000E+00 0.00000E+00
 -1        40 5.20833E-03 0.00000E+00 0.00000E+00
 -1        41 6.25000E-03 0.00000E+00 0.00000E+00
 -1        42 7.29167E-03 0.00000E+00 0.00000E+00
 -1        43 8.33333E-03 0.00000E+00 0.00000E+00
 -1        44 9.37500E-03 0.00000E+00 0.00000E+00
 -1        45 1.04167E-02 0.00000E+00 0.00000E+00
 -1        46 1.14583E-02 0.00000E+00 0.00000E+00
 -1        47 1.25000E-02 0.00000E+00 0.00000E+00
 -1        48 1.35417E-02 0.00000E+00 0.00000E+00
 -1        49 1.45833E-02 0.00000E+00 0.00000E+00
 -1        50 1.56250E-02 0.00000E+00 0.00000E+00
 -1        51 0.00000E+00 1.04167E-03 0.00000E+00
 -1        52 0.00000E+00 2.08333E-03 0.00000E+00
 -1        53 0.00000E+00 3.12500E-03 0.00000E+00
 -1        54 0.00000E+00 4.16667E-03 0.00000E+00
 -1        55 0.00000E+00 5.20833E-03 0.00000E+00
 -1        56 1.04167E-03 3.90630E-04 0.00000E+00
 -1        57 2.08333E-03 7.81250E-04 0.00000E+00
 -1        58 3.12500E-03 1.17188E-03 0.00000E+00
 -1        59 4.16667E-03 1.56250E-03 0.00000E+00
 -1        60 5.20833E-03 1.95312E-03 0.00000E+00
 -1        61 6.25000E-03 2.34375E-03 0.00000E+00
 -1        62 7.29167E-03 2.73438E-03 0.00000E+00
 -1        63 8.33333E-03 3.12500E-03 0.00000E+00
 -1        64 9.37500E-03 3.51563E-03 0.00000E+00
 -1        65 1.04167E-02 3.90625E-03 0.00000E+00
 -1        66 1.14583E-02 4.29688E-03 0.00000E+00
 -1        67 1.25000E-02 4.68750E-03 0.00000E+00
 -1        68 1.35417E-02 5.07813E-03 0.00000E+00
 -1        69 1.45833E-02 5.46875E-03 0.00000E+00
 -1        70 1.56250E-02 5.85938E-03 0.00000E+00
 -1        71 1.77083E-02 0.00000E+00 0.00000E+00
 -1        72 1.87500E-02 0.00000E+00 0.00000E+00
 -1        73 1.97917E-02 0.00000E+00 0.00000E+00
 -1        74 2.08333E-02 0.00000E+00 0.00000E+00
 -1        75 2.18750E-02 0.00000E+00 0.00000E+00
 -1        76 2.29167E-02 0.00000E+00 0.00000E+00
 -1        77 2.39583E-02 0.00000E+00 0.00000E+00
 -1        78 2.50000E-02 0.00000E+00 0.00000E+00
 -1        79 2.60417E-02 0.00000E+00 0.00000E+00
 -1        80 2.70833E-02 0.00000E+00 0.00000E+00
 -1        81 2.81250E-02 0.00000E+00 0.00000E+00
 -1        82 2.91667E-02 0.00000E+00 0.00000E+00
 -1        83 3.02083E-02 0.00000E+00 0.00000E+00
 -1        84 3.12500E-02 0.00000E+00 0.00000E+00
 -1        85 3.22917E-02 0.00000E+00 0.00000E+00
 -1        86 1.66667E-02 1.04167E-03 0.00000E+00
 -1        87 1.66667E-02 2.08333E-03 0.00000E+00
 -1        88 1.66667E-02 3.12500E-03 0.00000E+00
 -1        89 1.66667E-02 4.16667E-03 0.00000E+00
 -1        90 1.66667E-02 5.20833E-03 0.00000E+00
 -1        91 1.77083E-02 3.90630E-04 0.00000E+00
 -1        92 1.87500E-02 7.81250E-04 0.00000E+00
 -1        93 1.97917E-02 1.17188E-03 0.00000E+00
 -1        94 2.08333E-02 1.56250E-03 0.00000E+00
 -1        95 2.18750E-02 1.95312E-03 0.00000E+00
 -1        96 2.29167E-02 2.34375E-03 0.00000E+00
 -1        97 2.39583E-02 2.73438E-03 0.00000E+00
 -1        98 2.50000E-02 3.12500E-03 0.00000E+00
 -1        99 2.60417E-02 3.51563E-03 0.00000E+00
 -1       100 2.70833E-02 3.90625E-03 0.00000E+00
 -1       101 2.81250E-02 4.29688E-03 0.00000E+00
 -1       102 2.91667E-02 4.68750E-03 0.00000E+00
 -1       103 3.02083E-02 5.07813E-03 0.00000E+00
 -1       104 3.12500E-02 5.46875E-03 0.00000E+00
 -1       105 3.22917E-02 5.85938E-03 0.00000E+00
 -1       106 3.43750E-02 0.00000E+00 0.00000E+00
 -1       107 3.54167E-02 0.00000E+00 0.00000E+00
 -1       108 3.64583E-02 0.00000E+00 0.00000E+00
 -1       109 3.75000E-02 0.00000E+00 0.00000E+00
 -1       110 3.85417E-02 0.00000E+00 0.00000E+00
 -1       111 3.95833E-02 0.00000E+00 0.00000E+00
 -1       112 4.06250E-02 0.00000E+00 0.00000E+00
 -1       113 4.16667E-02 0.00000E+00 0.00000E+00
 -1       114 4.27083E-02 0.00000E+00 0.00000E+00
 -1       115 4.37500E-02 0.00000E+00 0.00000E+00
 -1       116 4.47917E-02 0.00000E+00 0.00000E+00
 -1       117 4.58333E-02 0.00000E+00 0.00000E+00
 -1       118 4.68750E-02 0.00000E+00 0.00000E+00
 -1       119 4.79167E-02 0.00000E+00 0.00000E+00
 -1       120 4.89583E-02 0.00000E+00 0.00000E+00
 -1       121 3.33333E-02 1.04167E-03 0.00000E+00
 -1       122 3.33333E-02 2.08333E-03 0.00000E+00
 -1       123 3.33333E-02 3.12500E-03 0.00000E+00
 -1       124 3.33333E-02 4.16667E-03 0.00000E+00
 -1       125 3.33333E-02 5.20833E-03 0.00000E+00
 -1       126 3.43750E-02 3.90630E-04 0.00000E+00
 -1       127 3.54167E-02 7.81250E-04 0.00000E+00
 -1       128 3.64583E-02 1.17188E-03 0.00000E+00
 -1       129 3.75000E-02 1.56250E-03 0.00000E+00
 -1       130 3.85417E-02 1.95312E-03 0.00000E+00
 -1       131 3.95833E-02 2.34375E-03 0.00000E+00
 -1       132 4.06250E-02 2.73438E-03 0.00000E+00
 -1       133 4.16667E-02 3.12500E-03 0.00000E+00
 -1       134 4.27083E-02 3.51563E-03 0.00000E+00
 -1       135 4.37500E-02 3.90625E-03 0.00000E+00
 -1       136 4.47917E-02 4.29688E-03 0.00000E+00
 -1       137 4.58333E-02 4.68750E-03 0.00000E+00
 -1       138 4.68750E-02 5.07813E-03 0.00000E+00
 -1       139 4.79167E-02 5.46875E-03 0.00000E+00
 -1       140 4.89583E-02 5.85938E-03 0.00000E+00
 -1       141 5.10417E-02 0.00000E+00 0.00000E+00
 -1       142 5.20833E-02 0.00000E+00 0.00000E+00
 -1       143 5.31250E-02 0.00000E+00 0.00000E+00
 -1       144 5.41667E-02 0.00000E+00 0.00000E+00
 -1       145 5.52083E-02 0.00000E+00 0.00000E+00
 -1       146 5.62500E-02 0.00000E+00 0.00000E+00
 -1       147 5.72917E-02 0.00000E+00 0.00000E+00
 -1       148 5.83333E-02 0.00000E+00 0.00000E+00
 -1       149 5.93750E-02 0.00000E+00 0.00000E+00
 -1       150 6.04167E-02 0.00000E+00 0.00000E+00
 -1       151 6.14583E-02 0.00000E+00 0.00000E+00
 -1       152 6.25000E-02 0.00000E+00 0.00000E+00
 -1       153 6.35417E-02 0.00000E+00 0.00000E+00
 -1       154 6.45833E-02 0.00000E+00 0.00000E+00
 -1       155 6.56250E-02 0.00000E+00 0.00000E+00
 -1       156 5.00000E-02 1.04167E-03 0.00000E+00
 -1       157 5.00000E-02 2.08333E-03 0.00000E+00
 -1       158 5.00000E-02 3.12500E-03 0.00000E+00
 -1       159 5.00000E-02 4.16667E-03 0.00000E+00
 -1       160 5.00000E-02 5.20833E-03 0.00000E+00
 -1       161 5.10417E-02 3.90630E-04 0.00000E+00
 -1       162 5.20833E-02 7.81250E-04 0.00000E+00
 -1       163 5.31250E-02 1.17188E-03 0.00000E+00
 -1       164 5.41667E-02 1.56250E-03 0.00000E+00
 -1       165 5.52083E-02 1.95312E-03 0.00000E+00
 -1       166 5.62500E-02 2.34375E-03 0.00000E+00
 -1       167 5.72917E-02 2.73438E-03 0.00000E+00
 -1       168 5.83333E-02 3.12500E-03 0.00000E+00
 -1       169 5.93750E-02 3.51563E-03 0.00000E+00
 -1       170 6.04167E-02 3.90625E-03 0.00000E+00
 -1       171 6.14583E-02 4.29688E-03 0.00000E+00
 -1       172 6.25000E-02 4.68750E-03 0.00000E+00
 -1       173 6.35417E-02 5.07813E-03 0.00000E+00
 -1       174 6.45833E-02 5.46875E-03 0.00000E+00
 -1       175 6.56250E-02 5.85938E-03 0.00000E+00
 -1       191 6.66667E-02 1.04167E-03 0.00000E+00
 -1       192 6.66667E-02 2.08333E-03 0.00000E+00
 -1       193 6.66667E-02 3.12500E-03 0.00000E+00
 -1       194 6.66667E-02 4.16667E-03 0.00000E+00
 -1       195 6.66667E-02 5.20833E-03 0.00000E+00
 -1       251 1.04167E-03 6.25000E-03 0.00000E+00
 -1       252 2.08333E-03 6.25000E-03 0.00000E+00
 -1       253 3.12500E-03 6.25000E-03 0.00000E+00
 -1       254 4.16667E-03 6.25000E-03 0.00000E+00
 -1       255 5.20833E-03 6.25000E-03 0.00000E+00
 -1       256 6.25000E-03 6.25000E-03 0.00000E+00
 -1       257 7.29167E-03 6.25000E-03 0.00000E+00
 -1       258 8.33333E-03 6.25000E-03 0.00000E+00
 -1       259 9.37500E-03 6.25000E-03 0.00000E+00
 -1       260 1.04167E-02 6.25000E-03 0.00000E+00
 -1       261 1.14583E-02 6.25000E-03 0.00000E+00
 -1       262 1.25000E-02 6.25000E-03 0.00000E+00
 -1       263 1.35417E-02 6.25000E-03 0.00000E+00
 -1       264 1.45833E-02 6.25000E-03 0.00000E+00
 -1       265 1.56250E-02 6.25000E-03 0.00000E+00
 -1       266 0.00000E+00 7.29167E-03 0.00000E+00
 -1       267 0.00000E+00 8.33333E-03 0.00000E+00
 -1       268 0.00000E+00 9.37500E-03 0.00000E+00
 -1       269 0.00000E+00 1.04167E-02 0.00000E+00
 -1       270 0.00000E+00 1.14583E-02 0.00000E+00
 -1       271 1.04167E-03 6.64063E-03 0.00000E+00
 -1       272 2.08333E-03 7.03125E-03 0.00000E+00
 -1       273 3.12500E-03 7.42188E-03 0.00000E+00
 -1       274 4.16667E-03 7.81250E-03 0.00000E+00
 -1       275 5.20833E-03 8.20313E-03 0.00000E+00
 -1       276 6.25000E-03 8.59375E-03 0.00000E+00
 -1       277 7.29167E-03 8.98438E-03 0.00000E+00
 -1       278 8.33333E-03 9.37500E-03 0.00000E+00
 -1       279 9.37500E-03 9.76562E-03 0.00000E+00
 -1       280 1.04167E-02 1.01562E-02 0.00000E+00
 -1       281 1.14583E-02 1.05469E-02 0.00000E+00
 -1       282 1.25000E-02 1.09375E-02 0.00000E+00
 -1       283 1.35417E-02 1.13281E-02 0.00000E+00
 -1       284 1.45833E-02 1.17188E-02 0.00000E+00
 -1       285 1.56250E-02 1.21094E-02 0.00000E+00
 -1       286 1.77083E-02 6.25000E-03 0.00000E+00
 -1       287 1.87500E-02 6.25000E-03 0.00000E+00
 -1       288 1.97917E-02 6.25000E-03 0.00000E+00
 -1       289 2.08333E-02 6.25000E-03 0.00000E+00
 -1       290 2.18750E-02 6.25000E-03 0.00000E+00
 -1       291 2.29167E-02 6.25000E-03 0.00000E+00
 -1       292 2.39583E-02 6.25000E-03 0.00000E+00
 -1       293 2.50000E-02 6.25000E-03 0.00000E+00
 -1       294 2.60417E-02 6.25000E-03 0.00000E+00
 -1       295 2.70833E-02 6.25000E-03 0.00000E+00
 -1       296 2.81250E-02 6.25000E-03 0.00000E+00
 -1       297 2.91667E-02 6.25000E-03 0.00000E+00
 -1       298 3.02083E-02 6.25000E-03 0.00000E+00
 -1       299 3.12500E-02 6.25000E-03 0.00000E+00
 -1       300 3.22917E-02 6.25000E-03 0.00000E+00
 -1       301 1.66667E-02 7.29167E-03 0.00000E+00
 -1       302 1.66667E-02 8.33333E-03 0.00000E+00
 -1       303 1.66667E-02 9.37500E-03 0.00000E+00
 -1       304 1.66667E-02 1.04167E-02 0.00000E+00
 -1       305 1.66667E-02 1.14583E-02 0.00000E+00
 -1       306 1.77083E-02 6.64063E-03 0.00000E+00
 -1       307 1.87500E-02 7.03125E-03 0.00000E+00
 -1       308 1.97917E-02 7.42188E-03 0.00000E+00
 -1       309 2.08333E-02 7.81250E-03 0.00000E+00
 -1       310 2.18750E-02 8.20313E-03 0.00000E+00
 -1       311 2.29167E-02 8.59375E-03 0.00000E+00
 -1       312 2.39583E-02 8.98438E-03 0.00000E+00
 -1       313 2.50000E-02 9.37500E-03 0.00000E+00
 -1       314 2.60417E-02 9.76562E-03 0.00000E+00
 -1       315 2.70833E-02 1.01562E-02 0.00000E+00
 -1       316 2.81250E-02 1.05469E-02 0.00000E+00
 -1       317 2.91667E-02 1.09375E-02 0.00000E+00
 -1       318 3.02083E-02 1.13281E-02 0.00000E+00
 -1       319 3.12500E-02 1.17188E-02 0.00000E+00
 -1       320 3.22917E-02 1.21094E-02 0.00000E+00
 -1       321 3.43750E-02 6.25000E-03 0.00000E+00
 -1       322 3.54167E-02 6.25000E-03 0.00000E+00
 -1       323 3.64583E-02 6.25000E-03 0.00000E+00
 -1       324 3.75000E-02 6.25000E-03 0.00000E+00
 -1       325 3.85417E-02 6.25000E-03 0.00000E+00
 -1       326 3.95833E-02 6.25000E-03 0.00000E+00
 -1       327 4.06250E-02 6.25000E-03 0.00000E+00
 -1       328 4.16667E-02 6.25000E-03 0.00000E+00
 -1       329 4.27083E-02 6.25000E-03 0.00000E+00
 -1       330 4.37500E-02 6.25000E-03 0.00000E+00
 -1       331 4.47917E-02 6.25000E-03 0.00000E+00
 -1       332 4.58333E-02 6.25000E-03 0.00000E+00
 -1       333 4.68750E-02 6.25000E-03 0.00000E+00
 -1       334 4.79167E-02 6.25000E-03 0.00000E+00
 -1       335 4.89583E-02 6.25000E-03 0.00000E+00
 -1       336 3.33333E-02 7.29167E-03 0.00000E+00
 -1       337 3.33333E-02 8.33333E-03 0.00000E+00
 -1       338 3.33333E-02 9.37500E-03 0.00000E+00
 -1       339 3.33333E-02 1.04167E-02 0.00000E+00
 -1       340 3.33333E-02 1.14583E-02 0.00000E+00
 -1       341 3.43750E-02 6.64063E-03 0.00000E+00
 -1       342 3.54167E-02 7.03125E-03 0.00000E+00
 -1       343 3.64583E-02 7.42188E-03 0.00000E+00
 -1       344 3.75000E-02 7.81250E-03 0.00000E+00
 -1       345 3.85417E-02 8.20313E-03 0.00000E+00
 -1       346 3.95833E-02 8.59375E-03 0.00000E+00
 -1       347 4.06250E-02 8.98438E-03 0.00000E+00
 -1       348 4.16667E-02 9.37500E-03 0.00000E+00
 -1       349 4.27083E-02 9.76562E-03 0.00000E+00
 -1       350 4.37500E-02 1.01562E-02 0.00000E+00
 -1       351 4.47917E-02 1.05469E-02 0.00000E+00
 -1       352 4.58333E-02 1.09375E-02 0.00000E+00
 -1       353 4.68750E-02 1.13281E-02 0.00000E+00
 -1       354 4.79167E-02 1.17188E-02 0.00000E+00
 -1       355 4.89583E-02 1.21094E-02 0.00000E+00
 -1       356 5.10417E-02 6.25000E-03 0.00000E+00
 -1       357 5.20833E-02 6.25000E-03 0.00000E+00
 -1       358 5.31250E-02 6.25000E-03 0.00000E+00
 -1       359 5.41667E-02 6.25000E-03 0.00000E+00
 -1       360 5.52083E-02 6.25000E-03 0.00000E+00
 -1       361 5.62500E-02 6.25000E-03 0.00000E+00
 -1       362 5.72917E-02 6.25000E-03 0.00000E+00
 -1       363 5.83333E-02 6.25000E-03 0.00000E+00
 -1       364 5.93750E-02 6.25000E-03 0.00000E+00
 -1       365 6.04167E-02 6.25000E-03 0.00000E+00
 -1       366 6.14583E-02 6.25000E-03 0.00000E+00
 -1       367 6.25000E-02 6.25000E-03 0.00000E+00
 -1       368 6.35417E-02 6.25000E-03 0.00000E+00
 -1       369 6.45833E-02 6.25000E-03 0.00000E+00
 -1       370 6.56250E-02 6.25000E-03 0.00000E+00
 -1       371 5.00000E-02 7.29167E-03 0.00000E+00
 -1       372 5.00000E-02 8.33333E-03 0.00000E+00
 -1       373 5.00000E-02 9.37500E-03 0.00000E+00
 -1       374 5.00000E-02 1.04167E-02 0.00000E+00
 -1       375 5.00000E-02 1.14583E-02 0.00000E+00
 -1       376 5.10417E-02 6.64063E-03 0.00000E+00
 -1       377 5.20833E-02 7.03125E-03 0.00000E+00
 -1       378 5.31250E-02 7.42188E-03 0.00000E+00
 -1       379 5.41667E-02 7.81250E-03 0.00000E+00
 -1       380 5.52083E-02 8.20313E-03 0.00000E+00
 -1       381 5.62500E-02 8.59375E-03 0.00000E+00
 -1       382 5.72917E-02 8.98438E-03 0.00000E+00
 -1       383 5.83333E-02 9.37500E-03 0.00000E+00
 -1       384 5.93750E-02 9.76562E-03 0.00000E+00
 -1       385 6.04167E-02 1.01562E-02 0.00000E+00
 -1       386 6.14583E-02 1.05469E-02 0.00000E+00
 -1       387 6.25000E-02 1.09375E-02 0.00000E+00
 -1       388 6.35417E-02 1.13281E-02 0.00000E+00
 -1       389 6.45833E-02 1.17188E-02 0.00000E+00
 -1       390 6.56250E-02 1.21094E-02 0.00000E+00
 -1       406 6.66667E-02 7.29167E-03 0.00000E+00
 -1       407 6.66667E-02 8.33333E-03 0.00000E+00
 -1       408 6.66667E-02 9.37500E-03 0.00000E+00
 -1       409 6.66667E-02 1.04167E-02 0.00000E+00
 -1       410 6.66667E-02 1.14583E-02 0.00000E+00
 -1       466 1.04167E-03 1.25000E-02 0.00000E+00
 -1       467 2.08333E-03 1.25000E-02 0.00000E+00
 -1       468 3.12500E-03 1.25000E-02 0.00000E+00
 -1       469 4.16667E-03 1.25000E-02 0.00000E+00
 -1       470 5.20833E-03 1.25000E-02 0.00000E+00
 -1       471 6.25000E-03 1.25000E-02 0.00000E+00
 -1       472 7.29167E-03 1.25000E-02 0.00000E+00
 -1       473 8.33333E-03 1.25000E-02 0.00000E+00
 -1       474 9.37500E-03 1.25000E-02 0.00000E+00
 -1       475 1.04167E-02 1.25000E-02 0.00000E+00
 -1       476 1.14583E-02 1.25000E-02 0.00000E+00
 -1       477 1.25000E-02 1.25000E-02 0.00000E+00
 -1       478 1.35417E-02 1.25000E-02 0.00000E+00
 -1       479 1.45833E-02 1.25000E-02 0.00000E+00
 -1       480 1.56250E-02 1.25000E-02 0.00000E+00
 -1       481 0.00000E+00 1.35417E-02 0.00000E+00
 -1       482 0.00000E+00 1.45833E-02 0.00000E+00
 -1       483 0.00000E+00 1.56250E-02 0.00000E+00
 -1       484 0.00000E+00 1.66667E-02 0.00000E+00
 -1       485 0.00000E+00 1.77083E-02 0.00000E+00
 -1       486 1.04167E-03 1.28906E-02 0.00000E+00
 -1       487 2.08333E-03 1.32813E-02 0.00000E+00
 -1       488 3.12500E-03 1.36719E-02 0.00000E+00
 -1       489 4.16667E-03 1.40625E-02 0.00000E+00
 -1       490 5.20833E-03 1.44531E-02 0.00000E+00
 -1       491 6.25000E-03 1.48437E-02 0.00000E+00
 -1       492 7.29167E-03 1.52344E-02 0.00000E+00
 -1       493 8.33333E-03 1.56250E-02 0.00000E+00
 -1       494 9.37500E-03 1.60156E-02 0.00000E+00
 -1       495 1.04167E-02 1.64062E-02 0.00000E+00
 -1       496 1.14583E-02 1.67969E-02 0.00000E+00
 -1       497 1.25000E-02 1.71875E-02 0.00000E+00
 -1       498 1.35417E-02 1.75781E-02 0.00000E+00
 -1       499 1.45833E-02 1.79687E-02 0.00000E+00
 -1       500 1.56250E-02 1.83594E-02 0.00000E+00
 -1       501 1.77083E-02 1.25000E-02 0.00000E+00
 -1       502 1.87500E-02 1.25000E-02 0.00000E+00
 -1       503 1.97917E-02 1.25000E-02 0.00000E+00
 -1       504 2.08333E-02 1.25000E-02 0.00000E+00
 -1       505 2.18750E-02 1.25000E-02 0.00000E+00
 -1       506 2.29167E-02 1.25000E-02 0.00000E+00
 -1       507 2.39583E-02 1.25000E-02 0.00000E+00
 -1       508 2.50000E-02 1.25000E-02 0.00000E+00
 -1       509 2.60417E-02 1.25000E-02 0.00000E+00
 -1       510 2.70833E-02 1.25000E-02 0.00000E+00
 -1       511 2.81250E-02 1.25000E-02 0.00000E+00
 -1       512 2.91667E-02 1.25000E-02 0.00000E+00
 -1       513 3.02083E-02 1.25000E-02 0.00000E+00
 -1       514 3.12500E-02 1.25000E-02 0.00000E+00
 -1       515 3.22917E-02 1.25000E-02 0.00000E+00
 -1       516 1.66667E-02 1.35417E-02 0.00000E+00
 -1       517 1.66667E-02 1.45833E-02 0.00000E+00
 -1       518 1.66667E-02 1.56250E-02 0.00000E+00
 -1       519 1.66667E-02 1.66667E-02 0.00000E+00
 -1       520 1.66667E-02 1.77083E-02 0.00000E+00
 -1       521 1.77083E-02 1.28906E-02 0.00000E+00
 -1       522 1.87500E-02 1.32813E-02 0.00000E+00
 -1       523 1.97917E-02 1.36719E-02 0.00000E+00
 -1       524 2.08333E-02 1.40625E-02 0.00000E+00
 -1       525 2.18750E-02 1.44531E-02 0.00000E+00
 -1       526 2.29167E-02 1.48437E-02 0.00000E+00
 -1       527 2.39583E-02 1.52344E-02 0.00000E+00
 -1       528 2.50000E-02 1.56250E-02 0.00000E+00
 -1       529 2.60417E-02 1.60156E-02 0.00000E+00
 -1       530 2.70833E-02 1.64062E-02 0.00000E+00
 -1       531 2.81250E-02 1.67969E-02 0.00000E+00
 -1       532 2.91667E-02 1.71875E-02 0.00000E+00
 -1       533 3.02083E-02 1.75781E-02 0.00000E+00
 -1       534 3.12500E-02 1.79687E-02 0.00000E+00
 -1       535 3.22917E-02 1.83594E-02 0.00000E+00
 -1       536 3.43750E-02 1.25000E-02 0.00000E+00
 -1       537 3.54167E-02 1.25000E-02 0.00000E+00
 -1       538 3.64583E-02 1.25000E-02 0.00000E+00
 -1       539 3.75000E-02 1.25000E-02 0.00000E+00
 -1       540 3.85417E-02 1.25000E-02 0.00000E+00
 -1       541 3.95833E-02 1.25000E-02 0.00000E+00
 -1       542 4.06250E-02 1.25000E-02 0.00000E+00
 -1       543 4.16667E-02 1.25000E-02 0.00000E+00
 -1       544 4.27083E-02 1.25000E-02 0.00000E+00
 -1       545 4.37500E-02 1.25000E-02 0.00000E+00
 -1       546 4.47917E-02 1.25000E-02 0.00000E+00
 -1       547 4.58333E-02 1.25000E-02 0.00000E+00
 -1       548 4.68750E-02 1.25000E-02 0.00000E+00
 -1       549 4.79167E-02 1.25000E-02 0.00000E+00
 -1       550 4.89583E-02 1.25000E-02 0.00000E+00
 -1       551 3.33333E-02 1.35417E-02 0.00000E+00
 -1       552 3.33333E-02 1.45833E-02 0.00000E+00
 -1       553 3.33333E-02 1.56250E-02 0.00000E+00
 -1       554 3.33333E-02 1.66667E-02 0.00000E+00
 -1       555 3.33333E-02 1.77083E-02 0.00000E+00
 -1       556 3.43750E-02 1.28906E-02 0.00000E+00
 -1       557 3.54167E-02 1.32813E-02 0.00000E+00
 -1       558 3.64583E-02 1.36719E-02 0.00000E+00
 -1       559 3.75000E-02 1.40625E-02 0.00000E+00
 -1       560 3.85417E-02 1.44531E-02 0.00000E+00
 -1       561 3.95833E-02 1.48437E-02 0.00000E+00
 -1       562 4.06250E-02 1.52344E-02 0.00000E+00
 -1       563 4.16667E-02 1.56250E-02 0.00000E+00
 -1       564 4.27083E-02 1.60156E-02 0.00000E+00
 -1       565 4.37500E-02 1.64062E-02 0.00000E+00
 -1       566 4.47917E-02 1.67969E-02 0.00000E+00
 -1       567 4.58333E-02 1.71875E-02 0.00000E+00
 -1       568 4.68750E-02 1.75781E-02 0.00000E+00
 -1       569 4.79167E-02 1.79687E-02 0.00000E+00
 -1       570 4.89583E-02 1.83594E-02 0.00000E+00
 -1       571 5.10417E-02 1.25000E-02 0.00000E+00
 -1       572 5.20833E-02 1.25000E-02 0.00000E+00
 -1       573 5.31250E-02 1.25000E-02 0.00000E+00
 -1       574 5.41667E-02 1.25000E-02 0.00000E+00
 -1       575 5.52083E-02 1.25000E-02 0.00000E+00
 -1       576 5.62500E-02 1.25000E-02 0.00000E+00
 -1       577 5.72917E-02 1.25000E-02 0.00000E+00
 -1       578 5.83333E-02 1.25000E-02 0.00000E+00
 -1       579 5.93750E-02 1.25000E-02 0.00000E+00
 -1       580 6.04167E-02 1.25000E-02 0.00000E+00
 -1       581 6.14583E-02 1.25000E-02 0.00000E+00
 -1       582 6.25000E-02 1.25000E-02 0.00000E+00
 -1       583 6.35417E-02 1.25000E-02 0.00000E+00
 -1       584 6.45833E-02 1.25000E-02 0.00000E+00
 -1       585 6.56250E-02 1.25000E-02 0.00000E+00
 -1       586 5.00000E-02 1.35417E-02 0.00000E+00
 -1       587 5.00000E-02 1.45833E-02 0.00000E+00
 -1       588 5.00000E-02 1.56250E-02 0.00000E+00
 -1       589 5.00000E-02 1.66667E-02 0.00000E+00
 -1       590 5.00000E-02 1.77083E-02 0.00000E+00
 -1       591 5.10417E-02 1.28906E-02 0.00000E+00
 -1       592 5.20833E-02 1.32813E-02 0.00000E+00
 -1       593 5.31250E-02 1.36719E-02 0.00000E+00
 -1       594 5.41667E-02 1.40625E-02 0.00000E+00
 -1       595 5.52083E-02 1.44531E-02 0.00000E+00
 -1       596 5.62500E-02 1.48437E-02 0.00000E+00
 -1       597 5.72917E-02 1.52344E-02 0.00000E+00
 -1       598 5.83333E-02 1.56250E-02 0.00000E+00
 -1       599 5.93750E-02 1.60156E-02 0.00000E+00
 -1       600 6.04167E-02 1.64062E-02 0.00000E+00
 -1       601 6.14583E-02 1.67969E-02 0.00000E+00
 -1       602 6.25000E-02 1.71875E-02 0.00000E+00
 -1       603 6.35417E-02 1.75781E-02 0.00000E+00
 -1       604 6.45833E-02 1.79687E-02 0.00000E+00
 -1       605 6.56250E-02 1.83594E-02 0.00000E+00
 -1       606 6.77083E-02 1.25000E-02 0.00000E+00
 -1       607 6.87500E-02 1.25000E-02 0.00000E+00
 -1       608 6.97917E-02 1.25000E-02 0.00000E+00
 -1       609 7.08333E-02 1.25000E-02 0.00000E+00
 -1       610 7.18750E-02 1.25000E-02 0.00000E+00
 -1       611 7.29167E-02 1.25000E-02 0.00000E+00
 -1       612 7.39583E-02 1.25000E-02 0.00000E+00
 -1       613 7.50000E-02 1.25000E-02 0.00000E+00
 -1       614 7.60417E-02 1.25000E-02 0.00000E+00
 -1       615 7.70833E-02 1.25000E-02 0.00000E+00
 -1       616 7.81250E-02 1.25000E-02 0.00000E+00
 -1       617 7.91667E-02 1.25000E-02 0.00000E+00
 -1       618 8.02083E-02 1.25000E-02 0.00000E+00
 -1       619 8.12500E-02 1.25000E-02 0.00000E+00
 -1       620 8.22917E-02 1.25000E-02 0.00000E+00
 -1       621 6.66667E-02 1.35417E-02 0.00000E+00
 -1       622 6.66667E-02 1.45833E-02 0.00000E+00
 -1       623 6.66667E-02 1.56250E-02 0.00000E+00
 -1       624 6.66667E-02 1.66667E-02 0.00000E+00
 -1       625 6.66667E-02 1.77083E-02 0.00000E+00
 -1       626 6.77083E-02 1.28906E-02 0.00000E+00
 -1       627 6.87500E-02 1.32813E-02 0.00000E+00
 -1       628 6.97917E-02 1.36719E-02 0.00000E+00
 -1       629 7.08333E-02 1.40625E-02 0.00000E+00
 -1       630 7.18750E-02 1.44531E-02 0.00000E+00
 -1       631 7.29167E-02 1.48437E-02 0.00000E+00
 -1       632 7.39583E-02 1.52344E-02 0.00000E+00
 -1       633 7.50000E-02 1.56250E-02 0.00000E+00
 -1       634 7.60417E-02 1.60156E-02 0.00000E+00
 -1       635 7.70833E-02 1.64062E-02 0.00000E+00
 -1       636 7.81250E-02 1.67969E-02 0.00000E+00
 -1       637 7.91667E-02 1.71875E-02 0.00000E+00
 -1       638 8.02083E-02 1.75781E-02 0.00000E+00
 -1       639 8.12500E-02 1.79687E-02 0.00000E+00
 -1       640 8.22917E-02 1.83594E-02 0.00000E+00
 -1       641 8.43750E-02 1.25000E-02 0.00000E+00
 -1       642 8.54167E-02 1.25000E-02 0.00000E+00
 -1       643 8.64583E-02 1.25000E-02 0.00000E+00
 -1       644 8.75000E-02 1.25000E-02 0.00000E+00
 -1       645 8.85417E-02 1.25000E-02 0.00000E+00
 -1       646 8.95833E-02 1.25000E-02 0.00000E+00
 -1       647 9.06250E-02 1.25000E-02 0.00000E+00
 -1       648 9.16667E-02 1.25000E-02 0.00000E+00
 -1       649 9.27083E-02 1.25000E-02 0.00000E+00
 -1       650 9.37500E-02 1.25000E-02 0.00000E+00
 -1       651 9.47917E-02 1.25000E-02 0.00000E+00
 -1       652 9.58333E-02 1.25000E-02 0.00000E+00
 -1       653 9.68750E-02 1.25000E-02 0.00000E+00
 -1       654 9.79167E-02 1.25000E-02 0.00000E+00
 -1       655 9.89583E-02 1.25000E-02 0.00000E+00
 -1       656 8.33333E-02 1.35417E-02 0.00000E+00
 -1       657 8.33333E-02 1.45833E-02 0.00000E+00
 -1       658 8.33333E-02 1.56250E-02 0.00000E+00
 -1       659 8.33333E-02 1.66667E-02 0.00000E+00
 -1       660 8.33333E-02 1.77083E-02 0.00000E+00
 -1       661 8.43750E-02 1.28906E-02 0.00000E+00
 -1       662 8.54167E-02 1.32813E-02 0.00000E+00
 -1       663 8.64583E-02 1.36719E-02 0.00000E+00
 -1       664 8.75000E-02 1.40625E-02 0.00000E+00
 -1       665 8.85417E-02 1.44531E-02 0.00000E+00
 -1       666 8.95833E-02 1.48437E-02 0.00000E+00
 -1       667 9.06250E-02 1.52344E-02 0.00000E+00
 -1       668 9.16667E-02 1.56250E-02 0.00000E+00
 -1       669 9.27083E-02 1.60156E-02 0.00000E+00
 -1       670 9.37500E-02 1.64062E-02 0.00000E+00
 -1       671 9.47917E-02 1.67969E-02 0.00000E+00
 -1       672 9.58333E-02 1.71875E-02 0.00000E+00
 -1       673 9.68750E-02 1.75781E-02 0.00000E+00
 -1       674 9.79167E-02 1.79687E-02 0.00000E+00
 -1       675 9.89583E-02 1.83594E-02 0.00000E+00
 -1       676 1.00000E-01 1.35417E-02 0.00000E+00
 -1       677 1.00000E-01 1.45833E-02 0.00000E+00
 -1       678 1.00000E-01 1.56250E-02 0.00000E+00
 -1       679 1.00000E-01 1.66667E-02 0.00000E+00
 -1       680 1.00000E-01 1.77083E-02 0.00000E+00
 -1       681 1.04167E-03 1.87500E-02 0.00000E+00
 -1       682 2.08333E-03 1.87500E-02 0.00000E+00
 -1       683 3.12500E-03 1.87500E-02 0.00000E+00
 -1       684 4.16667E-03 1.87500E-02 0.00000E+00
 -1       685 5.20833E-03 1.87500E-02 0.00000E+00
 -1       686 6.25000E-03 1.87500E-02 0.00000E+00
 -1       687 7.29167E-03 1.87500E-02 0.00000E+00
 -1       688 8.33333E-03 1.87500E-02 0.00000E+00
 -1       689 9.37500E-03 1.87500E-02 0.00000E+00
 -1       690 1.04167E-02 1.87500E-02 0.00000E+00
 -1       691 1.14583E-02 1.87500E-02 0.00000E+00
 -1       692 1.25000E-02 1.87500E-02 0.00000E+00
 -1       693 1.35417E-02 1.87500E-02 0.00000E+00
 -1       694 1.45833E-02 1.87500E-02 0.00000E+00
 -1       695 1.56250E-02 1.87500E-02 0.00000E+00
 -1       696 0.00000E+00 1.97917E-02 0.00000E+00
 -1       697 0.00000E+00 2.08333E-02 0.00000E+00
 -1       698 0.00000E+00 2.18750E-02 0.00000E+00
 -1       699 0.00000E+00 2.29167E-02 0.00000E+00
 -1       700 0.00000E+00 2.39583E-02 0.00000E+00
 -1       701 1.04167E-03 1.91406E-02 0.00000E+00
 -1       702 2.08333E-03 1.95312E-02 0.00000E+00
 -1       703 3.12500E-03 1.99219E-02 0.00000E+00
 -1       704 4.16667E-03 2.03125E-02 0.00000E+00
 -1       705 5.20833E-03 2.07031E-02 0.00000E+00
 -1       706 6.25000E-03 2.10938E-02 0.00000E+00
 -1       707 7.29167E-03 2.14844E-02 0.00000E+00
 -1       708 8.33333E-03 2.18750E-02 0.00000E+00
 -1       709 9.37500E-03 2.22656E-02 0.00000E+00
 -1       710 1.04167E-02 2.26563E-02 0.00000E+00
 -1       711 1.14583E-02 2.30469E-02 0.00000E+00
 -1       712 1.25000E-02 2.34375E-02 0.00000E+00
 -1       713 1.35417E-02 2.38281E-02 0.00000E+00
 -1       714 1.45833E-02 2.42187E-02 0.00000E+00
 -1       715 1.56250E-02 2.46094E-02 0.00000E+00
 -1       716 1.77083E-02 1.87500E-02 0.00000E+00
 -1       717 1.87500E-02 1.87500E-02 0.00000E+00
 -1       718 1.97917E-02 1.87500E-02 0.00000E+00
 -1       719 2.08333E-02 1.87500E-02 0.00000E+00
 -1       720 2.18750E-02 1.87500E-02 0.00000E+00
 -1       721 2.29167E-02 1.87500E-02 0.00000E+00
 -1       722 2.39583E-02 1.87500E-02 0.00000E+00
 -1       723 2.50000E-02 1.87500E-02 0.00000E+00
 -1       724 2.60417E-02 1.87500E-02 0.00000E+00
 -1       725 2.70833E-02 1.87500E-02 0.00000E+00
 -1       726 2.81250E-02 1.87500E-02 0.00000E+00
 -1       727 2.91667E-02 1.87500E-02 0.00000E+00
 -1       728 3.02083E-02 1.87500E-02 0.00000E+00
 -1       729 3.12500E-02 1.87500E-02 0.00000E+00
 -1       730 3.22917E-02 1.87500E-02 0.00000E+00
 -1       731 1.66667E-02 1.97917E-02 0.00000E+00
 -1       732 1.66667E-02 2.08333E-02 0.00000E+00
 -1       733 1.66667E-02 2.18750E-02 0.00000E+00
 -1       734 1.66667E-02 2.29167E-02 0.00000E+00
 -1       735 1.66667E-02 2.39583E-02 0.00000E+00
 -1       736 1.77083E-02 1.91406E-02 0.00000E+00
 -1       737 1.87500E-02 1.95312E-02 0.00000E+00
 -1       738 1.97917E-02 1.99219E-02 0.00000E+00
 -1       739 2.08333E-02 2.03125E-02 0.00000E+00
 -1       740 2.18750E-02 2.07031E-02 0.00000E+00
 -1       741 2.29167E-02 2.10938E-02 0.00000E+00
 -1       742 2.39583E-02 2.14844E-02 0.00000E+00
 -1       743 2.50000E-02 2.18750E-02 0.00000E+00
 -1       744 2.60417E-02 2.22656E-02 0.00000E+00
 -1       745 2.70833E-02 2.26563E-02 0.00000E+00
 -1       746 2.81250E-02 2.30469E-02 0.00000E+00
 -1       747 2.91667E-02 2.34375E-02 0.00000E+00
 -1       748 3.02083E-02 2.38281E-02 0.00000E+00
 -1       749 3.12500E-02 2.42187E-02 0.00000E+00
 -1       750 3.22917E-02 2.46094E-02 0.00000E+00
 -1       751 3.43750E-02 1.87500E-02 0.00000E+00
 -1       752 3.54167E-02 1.87500E-02 0.00000E+00
 -1       753 3.64583E-02 1.87500E-02 0.00000E+00
 -1       754 3.75000E-02 1.87500E-02 0.00000E+00
 -1       755 3.85417E-02 1.87500E-02 0.00000E+00
 -1       756 3.95833E-02 1.87500E-02 0.00000E+00
 -1       757 4.06250E-02 1.87500E-02 0.00000E+00
 -1       758 4.16667E-02 1.87500E-02 0.00000E+00
 -1       759 4.27083E-02 1.87500E-02 0.00000E+00
 -1       760 4.37500E-02 1.87500E-02 0.00000E+00
 -1       761 4.47917E-02 1.87500E-02 0.00000E+00
 -1       762 4.58333E-02 1.87500E-02 0.00000E+00
 -1       763 4.68750E-02 1.87500E-02 0.00000E+00
 -1       764 4.79167E-02 1.87500E-02 0.00000E+00
 -1       765 4.89583E-02 1.87500E-02 0.00000E+00
 -1       766 3.33333E-02 1.97917E-02 0.00000E+00
 -1       767 3.33333E-02 2.08333E-02 0.00000E+00
 -1       768 3.33333E-02 2.18750E-02 0.00000E+00
 -1       769 3.33333E-02 2.29167E-02 0.00000E+00
 -1       770 3.33333E-02 2.39583E-02 0.00000E+00
 -1       771 3.43750E-02 1.91406E-02 0.00000E+00
 -1       772 3.54167E-02 1.95312E-02 0.00000E+00
 -1       773 3.64583E-02 1.99219E-02 0.00000E+00
 -1       774 3.75000E-02 2.03125E-02 0.00000E+00
 -1       775 3.85417E-02 2.07031E-02 0.00000E+00
 -1       776 3.95833E-02 2.10938E-02 0.00000E+00
 -1       777 4.06250E-02 2.14844E-02 0.00000E+00
 -1       778 4.16667E-02 2.18750E-02 0.00000E+00
 -1       779 4.27083E-02 2.22656E-02 0.00000E+00
 -1       780 4.37500E-02 2.26563E-02 0.00000E+00
 -1       781 4.47917E-02 2.30469E-02 0.00000E+00
 -1       782 4.58333E-02 2.34375E-02 0.00000E+00
 -1       783 4.68750E-02 2.38281E-02 0.00000E+00
 -1       784 4.79167E-02 2.42187E-02 0.00000E+00
 -1       785 4.89583E-02 2.46094E-02 0.00000E+00
 -1       786 5.10417E-02 1.87500E-02 0.00000E+00
 -1       787 5.20833E-02 1.87500E-02 0.00000E+00
 -1       788 5.31250E-02 1.87500E-02 0.00000E+00
 -1       789 5.41667E-02 1.87500E-02 0.00000E+00
 -1       790 5.52083E-02 1.87500E-02 0.00000E+00
 -1       791 5.62500E-02 1.87500E-02 0.00000E+00
 -1       792 5.72917E-02 1.87500E-02 0.00000E+00
 -1       793 5.83333E-02 1.87500E-02 0.00000E+00
 -1       794 5.93750E-02 1.87500E-02 0.00000E+00
 -1       795 6.04167E-02 1.87500E-02 0.00000E+00
 -1       796 6.14583E-02 1.87500E-02 0.00000E+00
 -1       797 6.25000E-02 1.87500E-02 0.00000E+00
 -1       798 6.35417E-02 1.87500E-02 0.00000E+00
 -1       799 6.45833E-02 1.87500E-02 0.00000E+00
 -1       800 6.56250E-02 1.87500E-02 0.00000E+00
 -1       801 5.00000E-02 1.97917E-02 0.00000E+00
 -1       802 5.00000E-02 2.08333E-02 0.00000E+00
 -1       803 5.00000E-02 2.18750E-02 0.00000E+00
 -1       804 5.00000E-02 2.29167E-02 0.00000E+00
 -1       805 5.00000E-02 2.39583E-02 0.00000E+00
 -1       806 5.10417E-02 1.91406E-02 0.00000E+00
 -1       807 5.20833E-02 1.95312E-02 0.00000E+00
 -1       808 5.31250E-02 1.99219E-02 0.00000E+00
 -1       809 5.41667E-02 2.03125E-02 0.00000E+00
 -1       810 5.52083E-02 2.07031E-02 0.00000E+00
 -1       811 5.62500E-02 2.10938E-02 0.00000E+00
 -1       812 5.72917E-02 2.14844E-02 0.00000E+00
 -1       813 5.83333E-02 2.18750E-02 0.00000E+00
 -1       814 5.93750E-02 2.22656E-02 0.00000E+00
 -1       815 6.04167E-02 2.26563E-02 0.00000E+00
 -1       816 6.14583E-02 2.30469E-02 0.00000E+00
 -1       817 6.25000E-02 2.34375E-02 0.00000E+00
 -1       818 6.35417E-02 2.38281E-02 0.00000E+00
 -1       819 6.45833E-02 2.42187E-02 0.00000E+00
 -1       820 6.56250E-02 2.46094E-02 0.00000E+00
 -1       821 6.77083E-02 1.87500E-02 0.00000E+00
 -1       822 6.87500E-02 1.87500E-02 0.00000E+00
 -1       823 6.97917E-02 1.87500E-02 0.00000E+00
 -1       824 7.08333E-02 1.87500E-02 0.00000E+00
 -1       825 7.18750E-02 1.87500E-02 0.00000E+00
 -1       826 7.29167E-02 1.87500E-02 0.00000E+00
 -1       827 7.39583E-02 1.87500E-02 0.00000E+00
 -1       828 7.50000E-02 1.87500E-02 0.00000E+00
 -1       829 7.60417E-02 1.87500E-02 0.00000E+00
 -1       830 7.70833E-02 1.87500E-02 0.00000E+00
 -1       831 7.81250E-02 1.87500E-02 0.00000E+00
 -1       832 7.91667E-02 1.87500E-02 0.00000E+00
 -1       833 8.02083E-02 1.87500E-02 0.00000E+00
 -1       834 8.12500E-02 1.87500E-02 0.00000E+00
 -1       835 8.22917E-02 1.87500E-02 0.00000E+00
 -1       836 6.66667E-02 1.97917E-02 0.00000E+00
 -1       837 6.66667E-02 2.08333E-02 0.00000E+00
 -1       838 6.66667E-02 2.18750E-02 0.00000E+00
 -1       839 6.66667E-02 2.29167E-02 0.00000E+00
 -1       840 6.66667E-02 2.39583E-02 0.00000E+00
 -1       841 6.77083E-02 1.91406E-02 0.00000E+00
 -1       842 6.87500E-02 1.95312E-02 0.00000E+00
 -1       843 6.97917E-02 1.99219E-02 0.00000E+00
 -1       844 7.08333E-02 2.03125E-02 0.00000E+00
 -1       845 7.18750E-02 2.07031E-02 0.00000E+00
 -1       846 7.29167E-02 2.10938E-02 0.00000E+00
 -1       847 7.39583E-02 2.14844E-02 0.00000E+00
 -1       848 7.50000E-02 2.18750E-02 0.00000E+00
 -1       849 7.60417E-02 2.22656E-02 0.00000E+00
 -1       850 7.70833E-02 2.26563E-02 0.00000E+00
 -1       851 7.81250E-02 2.30469E-02 0.00000E+00
 -1       852 7.91667E-02 2.34375E-02 0.00000E+00
 -1       853 8.02083E-02 2.38281E-02 0.00000E+00
 -1       854 8.12500E-02 2.42187E-02 0.00000E+00
 -1       855 8.22917E-02 2.46094E-02 0.00000E+00
 -1       856 8.43750E-02 1.87500E-02 0.00000E+00
 -1       857 8.54167E-02 1.87500E-02 0.00000E+00
 -1       858 8.64583E-02 1.87500E-02 0.00000E+00
 -1       859 8.75000E-02 1.87500E-02 0.00000E+00
 -1       860 8.85417E-02 1.87500E-02 0.00000E+00
 -1       861 8.95833E-02 1.87500E-02 0.00000E+00
 -1       862 9.06250E-02 1.87500E-02 0.00000E+00
 -1       863 9.16667E-02 1.87500E-02 0.00000E+00
 -1       864 9.27083E-02 1.87500E-02 0.00000E+00
 -1       865 9.37500E-02 1.87500E-02 0.00000E+00
 -1       866 9.47917E-02 1.87500E-02 0.00000E+00
 -1       867 9.58333E-02 1.87500E-02 0.00000E+00
 -1       868 9.68750E-02 1.87500E-02 0.00000E+00
 -1       869 9.79167E-02 1.87500E-02 0.00000E+00
 -1       870 9.89583E-02 1.87500E-02 0.00000E+00
 -1       871 8.33333E-02 1.97917E-02 0.00000E+00
 -1       872 8.33333E-02 2.08333E-02 0.00000E+00
 -1       873 8.33333E-02 2.18750E-02 0.00000E+00
 -1       874 8.33333E-02 2.29167E-02 0.00000E+00
 -1       875 8.33333E-02 2.39583E-02 0.00000E+00
 -1       876 8.43750E-02 1.91406E-02 0.00000E+00
 -1       877 8.54167E-02 1.95312E-02 0.00000E+00
 -1       878 8.64583E-02 1.99219E-02 0.00000E+00
 -1       879 8.75000E-02 2.03125E-02 0.00000E+00
 -1       880 8.85417E-02 2.07031E-02 0.00000E+00
 -1       881 8.95833E-02 2.10938E-02 0.00000E+00
 -1       882 9.06250E-02 2.14844E-02 0.00000E+00
 -1       883 9.16667E-02 2.18750E-02 0.00000E+00
 -1       884 9.27083E-02 2.22656E-02 0.00000E+00
 -1       885 9.37500E-02 2.26563E-02 0.00000E+00
 -1       886 9.47917E-02 2.30469E-02 0.00000E+00
 -1       887 9.58333E-02 2.34375E-02 0.00000E+00
 -1       888 9.68750E-02 2.38281E-02 0.00000E+00
 -1       889 9.79167E-02 2.42187E-02 0.00000E+00
 -1       890 9.89583E-02 2.46094E-02 0.00000E+00
 -1       891 1.00000E-01 1.97917E-02 0.00000E+00
 -1       892 1.00000E-01 2.08333E-02 0.00000E+00
 -1       893 1.00000E-01 2.18750E-02 0.00000E+00
 -1       894 1.00000E-01 2.29167E-02 0.00000E+00
 -1       895 1.00000E-01 2.39583E-02 0.00000E+00
 -1       896 1.04167E-03 2.50000E-02 0.00000E+00
 -1       897 2.08333E-03 2.50000E-02 0.00000E+00
 -1       898 3.12500E-03 2.50000E-02 0.00000E+00
 -1       899 4.16667E-03 2.50000E-02 0.00000E+00
 -1       900 5.20833E-03 2.50000E-02 0.00000E+00
 -1       901 6.25000E-03 2.50000E-02 0.00000E+00
 -1       902 7.29167E-03 2.50000E-02 0.00000E+00
 -1       903 8.33333E-03 2.50000E-02 0.00000E+00
 -1       904 9.37500E-03 2.50000E-02 0.00000E+00
 -1       905 1.04167E-02 2.50000E-02 0.00000E+00
 -1       906 1.14583E-02 2.50000E-02 0.00000E+00
 -1       907 1.25000E-02 2.50000E-02 0.00000E+00
 -1       908 1.35417E-02 2.50000E-02 0.00000E+00
 -1       909 1.45833E-02 2.50000E-02 0.00000E+00
 -1       910 1.56250E-02 2.50000E-02 0.00000E+00
 -1       911 1.77083E-02 2.50000E-02 0.00000E+00
 -1       912 1.87500E-02 2.50000E-02 0.00000E+00
 -1       913 1.97917E-02 2.50000E-02 0.00000E+00
 -1       914 2.08333E-02 2.50000E-02 0.00000E+00
 -1       915 2.18750E-02 2.50000E-02 0.00000E+00
 -1       916 2.29167E-02 2.50000E-02 0.00000E+00
 -1       917 2.39583E-02 2.50000E-02 0.00000E+00
 -1       918 2.50000E-02 2.50000E-02 0.00000E+00
 -1       919 2.60417E-02 2.50000E-02 0.00000E+00
 -1       920 2.70833E-02 2.50000E-02 0.00000E+00
 -1       921 2.81250E-02 2.50000E-02 0.00000E+00
 -1       922 2.91667E-02 2.50000E-02 0.00000E+00
 -1       923 3.02083E-02 2.50000E-02 0.00000E+00
 -1       924 3.12500E-02 2.50000E-02 0.00000E+00
 -1       925 3.22917E-02 2.50000E-02 0.00000E+00
 -1       926 3.43750E-02 2.50000E-02 0.00000E+00
 -1       927 3.54167E-02 2.50000E-02 0.00000E+00
 -1       928 3.64583E-02 2.50000E-02 0.00000E+00
 -1       929 3.75000E-02 2.50000E-02 0.00000E+00
 -1       930 3.85417E-02 2.50000E-02 0.00000E+00
 -1       931 3.95833E-02 2.50000E-02 0.00000E+00
 -1       932 4.06250E-02 2.50000E-02 0.00000E+00
 -1       933 4.16667E-02 2.50000E-02 0.00000E+00
 -1       934 4.27083E-02 2.50000E-02 0.00000E+00
 -1       935 4.37500E-02 2.50000E-02 0.00000E+00
 -1       936 4.47917E-02 2.50000E-02 0.00000E+00
 -1       937 4.58333E-02 2.50000E-02 0.00000E+00
 -1       938 4.68750E-02 2.50000E-02 0.00000E+00
 -1       939 4.79167E-02 2.50000E-02 0.00000E+00
 -1       940 4.89583E-02 2.50000E-02 0.00000E+00
 -1       941 5.10417E-02 2.50000E-02 0.00000E+00
 -1       942 5.20833E-02 2.50000E-02 0.00000E+00
 -1       943 5.31250E-02 2.50000E-02 0.00000E+00
 -1       944 5.41667E-02 2.50000E-02 0.00000E+00
 -1       945 5.52083E-02 2.50000E-02 0.00000E+00
 -1       946 5.62500E-02 2.50000E-02 0.00000E+00
 -1       947 5.72917E-02 2.50000E-02 0.00000E+00
 -1       948 5.83333E-02 2.50000E-02 0.00000E+00
 -1       949 5.93750E-02 2.50000E-02 0.00000E+00
 -1       950 6.04167E-02 2.50000E-02 0.00000E+00
 -1       951 6.14583E-02 2.50000E-02 0.00000E+00
 -1       952 6.25000E-02 2.50000E-02 0.00000E+00
 -1       953 6.35417E-02 2.50000E-02 0.00000E+00
 -1       954 6.45833E-02 2.50000E-02 0.00000E+00
 -1       955 6.56250E-02 2.50000E-02 0.00000E+00
 -1       956 6.77083E-02 2.50000E-02 0.00000E+00
 -1       957 6.87500E-02 2.50000E-02 0.00000E+00
 -1       958 6.97917E-02 2.50000E-02 0.00000E+00
 -1       959 7.08333E-02 2.50000E-02 0.00000E+00
 -1       960 7.18750E-02 2.50000E-02 0.00000E+00
 -1       961 7.29167E-02 2.50000E-02 0.00000E+00
 -1       962 7.39583E-02 2.50000E-02 0.00000E+00
 -1       963 7.50000E-02 2.50000E-02 0.00000E+00
 -1       964 7.60417E-02 2.50000E-02 0.00000E+00
 -1       965 7.70833E-02 2.50000E-02 0.00000E+00
 -1       966 7.81250E-02 2.50000E-02 0.00000E+00
 -1       967 7.91667E-02 2.50000E-02 0.00000E+00
 -1       968 8.02083E-02 2.50000E-02 0.00000E+00
 -1       969 8.12500E-02 2.50000E-02 0.00000E+00
 -1       970 8.22917E-02 2.50000E-02 0.00000E+00
 -1       971 8.43750E-02 2.50000E-02 0.00000E+00
 -1       972 8.54167E-02 2.50000E-02 0.00000E+00
 -1       973 8.64583E-02 2.50000E-02 0.00000E+00
 -1       974 8.75000E-02 2.50000E-02 0.00000E+00
 -1       975 8.85417E-02 2.50000E-02 0.00000E+00
 -1       976 8.95833E-02 2.50000E-02 0.00000E+00
 -1       977 9.06250E-02 2.50000E-02 0.00000E+00
 -1       978 9.16667E-02 2.50000E-02 0.00000E+00
 -1       979 9.27083E-02 2.50000E-02 0.00000E+00
 -1       980 9.37500E-02 2.50000E-02 0.00000E+00
 -1       981 9.47917E-02 2.50000E-02 0.00000E+00
 -1       982 9.58333E-02 2.50000E-02 0.00000E+00
 -1       983 9.68750E-02 2.50000E-02 0.00000E+00
 -1       984 9.79167E-02 2.50000E-02 0.00000E+00
 -1       985 9.89583E-02 2.50000E-02 0.00000E+00
 -3
    3C                           440                                     1
 -1         1   12    0    1
 -2         1        37        36
 -1         2   12    0    1
 -2        37        39        38
 -1         3   12    0    1
 -2        39        41        40
 -1         4   12    0    1
 -2        41        43        42
 -1         5   12    0    1
 -2        43        45        44
 -1         6   12    0    1
 -2        45        47        46
 -1         7   12    0    1
 -2        47        49        48
 -1         8   12    0    1
 -2        49         2        50
 -1         9   12    0    1
 -2         1        52        51
 -1        10   12    0    1
 -2        52        54        53
 -1        11   12    0    1
 -2        54         8        55
 -1        12   12    0    1
 -2         1        57        56
 -1        13   12    0    1
 -2        57        59        58
 -1        14   12    0    1
 -2        59        61        60
 -1        15   12    0    1
 -2        61        63        62
 -1        16   12    0    1
 -2        63        65        64
 -1        17   12    0    1
 -2        65        67        66
 -1        18   12    0    1
 -2        67        69        68
 -1        19   12    0    1
 -2        69         9        70
 -1        20   12    0    1
 -2         2        72        71
 -1        21   12    0    1
 -2        72        74        73
 -1        22   12    0    1
 -2        74        76        75
 -1        23   12    0    1
 -2        76        78        77
 -1        24   12    0    1
 -2        78        80        79
 -1        25   12    0    1
 -2        80        82        81
 -1        26   12    0    1
 -2        82        84        83
 -1        27   12    0    1
 -2        84         3        85
 -1        28   12    0    1
 -2         2        87        86
 -1        29   12    0    1
 -2        87        89        88
 -1        30   12    0    1
 -2        89         9        90
 -1        31   12    0    1
 -2         2        92        91
 -1        32   12    0    1
 -2        92        94        93
 -1        33   12    0    1
 -2        94        96        95
 -1        34   12    0    1
 -2        96        98        97
 -1        35   12    0    1
 -2        98       100        99
 -1        36   12    0    1
 -2       100       102       101
 -1        37   12    0    1
 -2       102       104       103
 -1        38   12    0    1
 -2       104        10       105
 -1        39   12    0    1
 -2         3       107       106
 -1        40   12    0    1
 -2       107       109       108
 -1        41   12    0    1
 -2       109       111       110
 -1        42   12    0    1
 -2       111       113       112
 -1        43   12    0    1
 -2       113       115       114
 -1        44   12    0    1
 -2       115       117       116
 -1        45   12    0    1
 -2       117       119       118
 -1        46   12    0    1
 -2       119         4       120
 -1        47   12    0    1
 -2         3       122       121
 -1        48   12    0    1
 -2       122       124       123
 -1        49   12    0    1
 -2       124        10       125
 -1        50   12    0    1
 -2         3       127       126
 -1        51   12    0    1
 -2       127       129       128
 -1        52   12    0    1
 -2       129       131       130
 -1        53   12    0    1
 -2       131       133       132
 -1        54   12    0    1
 -2       133       135       134
 -1        55   12    0    1
 -2       135       137       136
 -1        56   12    0    1
 -2       137       139       138
 -1        57   12    0    1
 -2       139        11       140
 -1        58   12    0    1
 -2         4       142       141
 -1        59   12    0    1
 -2       142       144       143
 -1        60   12    0    1
 -2       144       146       145
 -1        61   12    0    1
 -2       146       148       147
 -1        62   12    0    1
 -2       148       150       149
 -1        63   12    0    1
 -2       150       152       151
 -1        64   12    0    1
 -2       152       154       153
 -1        65   12    0    1
 -2       154         5       155
 -1        66   12    0    1
 -2         4       157       156
 -1        67   12    0    1
 -2       157       159       158
 -1        68   12    0    1
 -2       159        11       160
 -1        69   12    0    1
 -2         4       162       161
 -1        70   12    0    1
 -2       162       164       163
 -1        71   12    0    1
 -2       164       166       165
 -1        72   12    0    1
 -2       166       168       167
 -1        73   12    0    1
 -2       168       170       169
 -1        74   12    0    1
 -2       170       172       171
 -1        75   12    0    1
 -2       172       174       173
 -1        76   12    0    1
 -2       174        12       175
 -1        77   12    0    1
 -2         5       192       191
 -1        78   12    0    1
 -2       192       194       193
 -1        79   12    0    1
 -2       194        12       195
 -1        80   12    0    1
 -2         8       252       251
 -1        81   12    0    1
 -2       252       254       253
 -1        82   12    0    1
 -2       254       256       255
 -1        83   12    0    1
 -2       256       258       257
 -1        84   12    0    1
 -2       258       260       259
 -1        85   12    0    1
 -2       260       262       261
 -1        86   12    0    1
 -2       262       264       263
 -1        87   12    0    1
 -2       264         9       265
 -1        88   12    0    1
 -2         8       267       266
 -1        89   12    0    1
 -2       267       269       268
 -1        90   12    0    1
 -2       269        15       270
 -1        91   12    0    1
 -2         8       272       271
 -1        92   12    0    1
 -2       272       274       273
 -1        93   12    0    1
 -2       274       276       275
 -1        94   12    0    1
 -2       276       278       277
 -1        95   12    0    1
 -2       278       280       279
 -1        96   12    0    1
 -2       280       282       281
 -1        97   12    0    1
 -2       282       284       283
 -1        98   12    0    1
 -2       284        16       285
 -1        99   12    0    1
 -2         9       287       286
 -1       100   12    0    1
 -2       287       289       288
 -1       101   12    0    1
 -2       289       291       290
 -1       102   12    0    1
 -2       291       293       292
 -1       103   12    0    1
 -2       293       295       294
 -1       104   12    0    1
 -2       295       297       296
 -1       105   12    0    1
 -2       297       299       298
 -1       106   12    0    1
 -2       299        10       300
 -1       107   12    0    1
 -2         9       302       301
 -1       108   12    0    1
 -2       302       304       303
 -1       109   12    0    1
 -2       304        16       305
 -1       110   12    0    1
 -2         9       307       306
 -1       111   12    0    1
 -2       307       309       308
 -1       112   12    0    1
 -2       309       311       310
 -1       113   12    0    1
 -2       311       313       312
 -1       114   12    0    1
 -2       313       315       314
 -1       115   12    0    1
 -2       315       317       316
 -1       116   12    0    1
 -2       317       319       318
 -1       117   12    0    1
 -2       319        17       320
 -1       118   12    0    1
 -2        10       322       321
 -1       119   12    0    1
 -2       322       324       323
 -1       120   12    0    1
 -2       324       326       325
 -1       121   12    0    1
 -2       326       328       327
 -1       122   12    0    1
 -2       328       330       329
 -1       123   12    0    1
 -2       330       332       331
 -1       124   12    0    1
 -2       332       334       333
 -1       125   12    0    1
 -2       334        11       335
 -1       126   12    0    1
 -2        10       337       336
 -1       127   12    0    1
 -2       337       339       338
 -1       128   12    0    1
 -2       339        17       340
 -1       129   12    0    1
 -2        10       342       341
 -1       130   12    0    1
 -2       342       344       343
 -1       131   12    0    1
 -2       344       346       345
 -1       132   12    0    1
 -2       346       348       347
 -1       133   12    0    1
 -2       348       350       349
 -1       134   12    0    1
 -2       350       352       351
 -1       135   12    0    1
 -2       352       354       353
 -1       136   12    0    1
 -2       354        18       355
 -1       137   12    0    1
 -2        11       357       356
 -1       138   12    0    1
 -2       357       359       358
 -1       139   12    0    1
 -2       359       361       360
 -1       140   12    0    1
 -2       361       363       362
 -1       141   12    0    1
 -2       363       365       364
 -1       142   12    0    1
 -2       365       367       366
 -1       143   12    0    1
 -2       367       369       368
 -1       144   12    0    1
 -2       369        12       370
 -1       145   12    0    1
 -2        11       372       371
 -1       146   12    0    1
 -2       372       374       373
 -1       147   12    0    1
 -2       374        18       375
 -1       148   12    0    1
 -2        11       377       376
 -1       149   12    0    1
 -2       377       379       378
 -1       150   12    0    1
 -2       379       381       380
 -1       151   12    0    1
 -2       381       383       382
 -1       152   12    0    1
 -2       383       385       384
 -1       153   12    0    1
 -2       385       387       386
 -1       154   12    0    1
 -2       387       389       388
 -1       155   12    0    1
 -2       389        19       390
 -1       156   12    0    1
 -2        12       407       406
 -1       157   12    0    1
 -2       407       409       408
 -1       158   12    0    1
 -2       409        19       410
 -1       159   12    0    1
 -2        15       467       466
 -1       160   12    0    1
 -2       467       469       468
 -1       161   12    0    1
 -2       469       471       470
 -1       162   12    0    1
 -2       471       473       472
 -1       163   12    0    1
 -2       473       475       474
 -1       164   12    0    1
 -2       475       477       476
 -1       165   12    0    1
 -2       477       479       478
 -1       166   12    0    1
 -2       479        16       480
 -1       167   12    0    1
 -2        15       482       481
 -1       168   12    0    1
 -2       482       484       483
 -1       169   12    0    1
 -2       484        22       485
 -1       170   12    0    1
 -2        15       487       486
 -1       171   12    0    1
 -2       487       489       488
 -1       172   12    0    1
 -2       489       491       490
 -1       173   12    0    1
 -2       491       493       492
 -1       174   12    0    1
 -2       493       495       494
 -1       175   12    0    1
 -2       495       497       496
 -1       176   12    0    1
 -2       497       499       498
 -1       177   12    0    1
 -2       499        23       500
 -1       178   12    0    1
 -2        16       502       501
 -1       179   12    0    1
 -2       502       504       503
 -1       180   12    0    1
 -2       504       506       505
 -1       181   12    0    1
 -2       506       508       507
 -1       182   12    0    1
 -2       508       510       509
 -1       183   12    0    1
 -2       510       512       511
 -1       184   12    0    1
 -2       512       514       513
 -1       185   12    0    1
 -2       514        17       515
 -1       186   12    0    1
 -2        16       517       516
 -1       187   12    0    1
 -2       517       519       518
 -1       188   12    0    1
 -2       519        23       520
 -1       189   12    0    1
 -2        16       522       521
 -1       190   12    0    1
 -2       522       524       523
 -1       191   12    0    1
 -2       524       526       525
 -1       192   12    0    1
 -2       526       528       527
 -1       193   12    0    1
 -2       528       530       529
 -1       194   12    0    1
 -2       530       532       531
 -1       195   12    0    1
 -2       532       534       533
 -1       196   12    0    1
 -2       534        24       535
 -1       197   12    0    1
 -2        17       537       536
 -1       198   12    0    1
 -2       537       539       538
 -1       199   12    0    1
 -2       539       541       540
 -1       200   12    0    1
 -2       541       543       542
 -1       201   12    0    1
 -2       543       545       544
 -1       202   12    0    1
 -2       545       547       546
 -1       203   12    0    1
 -2       547       549       548
 -1       204   12    0    1
 -2       549        18       550
 -1       205   12    0    1
 -2        17       552       551
 -1       206   12    0    1
 -2       552       554       553
 -1       207   12    0    1
 -2       554        24       555
 -1       208   12    0    1
 -2        17       557       556
 -1       209   12    0    1
 -2       557       559       558
 -1       210   12    0    1
 -2       559       561       560
 -1       211   12    0    1
 -2       561       563       562
 -1       212   12    0    1
 -2       563       565       564
 -1       213   12    0    1
 -2       565       567       566
 -1       214   12    0    1
 -2       567       569       568
 -1       215   12    0    1
 -2       569        25       570
 -1       216   12    0    1
 -2        18       572       571
 -1       217   12    0    1
 -2       572       574       573
 -1       218   12    0    1
 -2       574       576       575
 -1       219   12    0    1
 -2       576       578       577
 -1       220   12    0    1
 -2       578       580       579
 -1       221   12    0    1
 -2       580       582       581
 -1       222   12    0    1
 -2       582       584       583
 -1       223   12    0    1
 -2       584        19       585
 -1       224   12    0    1
 -2        18       587       586
 -1       225   12    0    1
 -2       587       589       588
 -1       226   12    0    1
 -2       589        25       590
 -1       227   12    0    1
 -2        18       592       591
 -1       228   12    0    1
 -2       592       594       593
 -1       229   12    0    1
 -2       594       596       595
 -1       230   12    0    1
 -2       596       598       597
 -1       231   12    0    1
 -2       598       600       599
 -1       232   12    0    1
 -2       600       602       601
 -1       233   12    0    1
 -2       602       604       603
 -1       234   12    0    1
 -2       604        26       605
 -1       235   12    0    1
 -2        19       607       606
 -1       236   12    0    1
 -2       607       609       608
 -1       237   12    0    1
 -2       609       611       610
 -1       238   12    0    1
 -2       611       613       612
 -1       239   12    0    1
 -2       613       615       614
 -1       240   12    0    1
 -2       615       617       616
 -1       241   12    0    1
 -2       617       619       618
 -1       242   12    0    1
 -2       619        20       620
 -1       243   12    0    1
 -2        19       622       621
 -1       244   12    0    1
 -2       622       624       623
 -1       245   12    0    1
 -2       624        26       625
 -1       246   12    0    1
 -2        19       627       626
 -1       247   12    0    1
 -2       627       629       628
 -1       248   12    0    1
 -2       629       631       630
 -1       249   12    0    1
 -2       631       633       632
 -1       250   12    0    1
 -2       633       635       634
 -1       251   12    0    1
 -2       635       637       636
 -1       252   12    0    1
 -2       637       639       638
 -1       253   12    0    1
 -2       639        27       640
 -1       254   12    0    1
 -2        20       642       641
 -1       255   12    0    1
 -2       642       644       643
 -1       256   12    0    1
 -2       644       646       645
 -1       257   12    0    1
 -2       646       648       647
 -1       258   12    0    1
 -2       648       650       649
 -1       259   12    0    1
 -2       650       652       651
 -1       260   12    0    1
 -2       652       654       653
 -1       261   12    0    1
 -2       654        21       655
 -1       262   12    0    1
 -2        20       657       656
 -1       263   12    0    1
 -2       657       659       658
 -1       264   12    0    1
 -2       659        27       660
 -1       265   12    0    1
 -2        20       662       661
 -1       266   12    0    1
 -2       662       664       663
 -1       267   12    0    1
 -2       664       666       665
 -1       268   12    0    1
 -2       666       668       667
 -1       269   12    0    1
 -2       668       670       669
 -1       270   12    0    1
 -2       670       672       671
 -1       271   12    0    1
 -2       672       674       673
 -1       272   12    0    1
 -2       674        28       675
 -1       273   12    0    1
 -2        21       677       676
 -1       274   12    0    1
 -2       677       679       678
 -1       275   12    0    1
 -2       679        28       680
 -1       276   12    0    1
 -2        22       682       681
 -1       277   12    0    1
 -2       682       684       683
 -1       278   12    0    1
 -2       684       686       685
 -1       279   12    0    1
 -2       686       688       687
 -1       280   12    0    1
 -2       688       690       689
 -1       281   12    0    1
 -2       690       692       691
 -1       282   12    0    1
 -2       692       694       693
 -1       283   12    0    1
 -2       694        23       695
 -1       284   12    0    1
 -2        22       697       696
 -1       285   12    0    1
 -2       697       699       698
 -1       286   12    0    1
 -2       699        29       700
 -1       287   12    0    1
 -2        22       702       701
 -1       288   12    0    1
 -2       702       704       703
 -1       289   12    0    1
 -2       704       706       705
 -1       290   12    0    1
 -2       706       708       707
 -1       291   12    0    1
 -2       708       710       709
 -1       292   12    0    1
 -2       710       712       711
 -1       293   12    0    1
 -2       712       714       713
 -1       294   12    0    1
 -2       714        30       715
 -1       295   12    0    1
 -2        23       717       716
 -1       296   12    0    1
 -2       717       719       718
 -1       297   12    0    1
 -2       719       721       720
 -1       298   12    0    1
 -2       721       723       722
 -1       299   12    0    1
 -2       723       725       724
 -1       300   12    0    1
 -2       725       727       726
 -1       301   12    0    1
 -2       727       729       728
 -1       302   12    0    1
 -2       729        24       730
 -1       303   12    0    1
 -2        23       732       731
 -1       304   12    0    1
 -2       732       734       733
 -1       305   12    0    1
 -2       734        30       735
 -1       306   12    0    1
 -2        23       737       736
 -1       307   12    0    1
 -2       737       739       738
 -1       308   12    0    1
 -2       739       741       740
 -1       309   12    0    1
 -2       741       743       742
 -1       310   12    0    1
 -2       743       745       744
 -1       311   12    0    1
 -2       745       747       746
 -1       312   12    0    1
 -2       747       749       748
 -1       313   12    0    1
 -2       749        31       750
 -1       314   12    0    1
 -2        24       752       751
 -1       315   12    0    1
 -2       752       754       753
 -1       316   12    0    1
 -2       754       756       755
 -1       317   12    0    1
 -2       756       758       757
 -1       318   12    0    1
 -2       758       760       759
 -1       319   12    0    1
 -2       760       762       761
 -1       320   12    0    1
 -2       762       764       763
 -1       321   12    0    1
 -2       764        25       765
 -1       322   12    0    1
 -2        24       767       766
 -1       323   12    0    1
 -2       767       769       768
 -1       324   12    0    1
 -2       769        31       770
 -1       325   12    0    1
 -2        24       772       771
 -1       326   12    0    1
 -2       772       774       773
 -1       327   12    0    1
 -2       774       776       775
 -1       328   12    0    1
 -2       776       778       777
 -1       329   12    0    1
 -2       778       780       779
 -1       330   12    0    1
 -2       780       782       781
 -1       331   12    0    1
 -2       782       784       783
 -1       332   12    0    1
 -2       784        32       785
 -1       333   12    0    1
 -2        25       787       786
 -1       334   12    0    1
 -2       787       789       788
 -1       335   12    0    1
 -2       789       791       790
 -1       336   12    0    1
 -2       791       793       792
 -1       337   12    0    1
 -2       793       795       794
 -1       338   12    0    1
 -2       795       797       796
 -1       339   12    0    1
 -2       797       799       798
 -1       340   12    0    1
 -2       799        26       800
 -1       341   12    0    1
 -2        25       802       801
 -1       342   12    0    1
 -2       802       804       803
 -1       343   12    0    1
 -2       804        32       805
 -1       344   12    0    1
 -2        25       807       806
 -1       345   12    0    1
 -2       807       809       808
 -1       346   12    0    1
 -2       809       811       810
 -1       347   12    0    1
 -2       811       813       812
 -1       348   12    0    1
 -2       813       815       814
 -1       349   12    0    1
 -2       815       817       816
 -1       350   12    0    1
 -2       817       819       818
 -1       351   12    0    1
 -2       819        33       820
 -1       352   12    0    1
 -2        26       822       821
 -1       353   12    0    1
 -2       822       824       823
 -1       354   12    0    1
 -2       824       826       825
 -1       355   12    0    1
 -2       826       828       827
 -1       356   12    0    1
 -2       828       830       829
 -1       357   12    0    1
 -2       830       832       831
 -1       358   12    0    1
 -2       832       834       833
 -1       359   12    0    1
 -2       834        27       835
 -1       360   12    0    1
 -2        26       837       836
 -1       361   12    0    1
 -2       837       839       838
 -1       362   12    0    1
 -2       839        33       840
 -1       363   12    0    1
 -2        26       842       841
 -1       364   12    0    1
 -2       842       844       843
 -1       365   12    0    1
 -2       844       846       845
 -1       366   12    0    1
 -2       846       848       847
 -1       367   12    0    1
 -2       848       850       849
 -1       368   12    0    1
 -2       850       852       851
 -1       369   12    0    1
 -2       852       854       853
 -1       370   12    0    1
 -2       854        34       855
 -1       371   12    0    1
 -2        27       857       856
 -1       372   12    0    1
 -2       857       859       858
 -1       373   12    0    1
 -2       859       861       860
 -1       374   12    0    1
 -2       861       863       862
 -1       375   12    0    1
 -2       863       865       864
 -1       376   12    0    1
 -2       865       867       866
 -1       377   12    0    1
 -2       867       869       868
 -1       378   12    0    1
 -2       869        28       870
 -1       379   12    0    1
 -2        27       872       871
 -1       380   12    0    1
 -2       872       874       873
 -1       381   12    0    1
 -2       874        34       875
 -1       382   12    0    1
 -2        27       877       876
 -1       383   12    0    1
 -2       877       879       878
 -1       384   12    0    1
 -2       879       881       880
 -1       385   12    0    1
 -2       881       883       882
 -1       386   12    0    1
 -2       883       885       884
 -1       387   12    0    1
 -2       885       887       886
 -1       388   12    0    1
 -2       887       889       888
 -1       389   12    0    1
 -2       889        35       890
 -1       390   12    0    1
 -2        28       892       891
 -1       391   12    0    1
 -2       892       894       893
 -1       392   12    0    1
 -2       894        35       895
 -1       393   12    0    1
 -2        29       897       896
 -1       394   12    0    1
 -2       897       899       898
 -1       395   12    0    1
 -2       899       901       900
 -1       396   12    0    1
 -2       901       903       902
 -1       397   12    0    1
 -2       903       905       904
 -1       398   12    0    1
 -2       905       907       906
 -1       399   12    0    1
 -2       907       909       908
 -1       400   12    0    1
 -2       909        30       910
 -1       401   12    0    1
 -2        30       912       911
 -1       402   12    0    1
 -2       912       914       913
 -1       403   12    0    1
 -2       914       916       915
 -1       404   12    0    1
 -2       916       918       917
 -1       405   12    0    1
 -2       918       920       919
 -1       406   12    0    1
 -2       920       922       921
 -1       407   12    0    1
 -2       922       924       923
 -1       408   12    0    1
 -2       924        31       925
 -1       409   12    0    1
 -2        31       927       926
 -1       410   12    0    1
 -2       927       929       928
 -1       411   12    0    1
 -2       929       931       930
 -1       412   12    0    1
 -2       931       933       932
 -1       413   12    0    1
 -2       933       935       934
 -1       414   12    0    1
 -2       935       937       936
 -1       415   12    0    1
 -2       937       939       938
 -1       416   12    0    1
 -2       939        32       940
 -1       417   12    0    1
 -2        32       942       941
 -1       418   12    0    1
 -2       942       944       943
 -1       419   12    0    1
 -2       944       946       945
 -1       420   12    0    1
 -2       946       948       947
 -1       421   12    0    1
 -2       948       950       949
 -1       422   12    0    1
 -2       950       952       951
 -1       423   12    0    1
 -2       952       954       953
 -1       424   12    0    1
 -2       954        33       955
 -1       425   12    0    1
 -2        33       957       956
 -1       426   12    0    1
 -2       957       959       958
 -1       427   12    0    1
 -2       959       961       960
 -1       428   12    0    1
 -2       961       963       962
 -1       429   12    0    1
 -2       963       965       964
 -1       430   12    0    1
 -2       965       967       966
 -1       431   12    0    1
 -2       967       969       968
 -1       432   12    0    1
 -2       969        34       970
 -1       433   12    0    1
 -2        34       972       971
 -1       434   12    0    1
 -2       972       974       973
 -1       435   12    0    1
 -2       974       976       975
 -1       436   12    0    1
 -2       976       978       977
 -1       437   12    0    1
 -2       978       980       979
 -1       438   12    0    1
 -2       980       982       981
 -1       439   12    0    1
 -2       982       984       983
 -1       440   12    0    1
 -2       984        35       985
 -3
    1PSTEP                         1           1           1          
  100CL  101 1.000000000         841                     0    1           1
 -4  DISP        4    1
 -5  D1          1    2    1    0
 -5  D2          1    2    2    0
 -5  D3          1    2    3    0
 -5  ALL         1    2    0    0    1ALL
 -1         1 5.75044E-05 0.00000E+00 0.00000E+00
 -1         2 4.65473E-05 0.00000E+00 0.00000E+00
 -1         3 4.29653E-05 0.00000E+00 0.00000E+00
 -1         4 4.24156E-05 0.00000E+00 0.00000E+00
 -1         5 4.23373E-05 0.00000E+00 0.00000E+00
 -1         8 3.54583E-05-1.52805E-06 0.00000E+00
 -1         9 3.85518E-05 1.10853E-06 0.00000E+00
 -1        10 3.87339E-05-7.49225E-08 0.00000E+00
 -1        11 3.98842E-05 4.22299E-08 0.00000E+00
 -1        12 4.09148E-05 3.39308E-06 0.00000E+00
 -1        15 1.85654E-05-1.81310E-06 0.00000E+00
 -1        16 2.34546E-05 1.38441E-06 0.00000E+00
 -1        17 2.67046E-05-1.79759E-07 0.00000E+00
 -1        18 3.09701E-05-4.69534E-08 0.00000E+00
 -1        19 3.54942E-05 6.73435E-06 0.00000E+00
 -1        20 3.70274E-05 6.12730E-05 0.00000E+00
 -1        21 3.69892E-05 1.17645E-04 0.00000E+00
 -1        22 8.57764E-06-1.15555E-06 0.00000E+00
 -1        23 1.10531E-05 1.73931E-06 0.00000E+00
 -1        24 1.31092E-05-2.65287E-07 0.00000E+00
 -1        25 1.78454E-05 4.65156E-08 0.00000E+00
 -1        26 2.17257E-05 8.97362E-06 0.00000E+00
 -1        27 1.90752E-05 6.05945E-05 0.00000E+00
 -1        28 1.78453E-05 1.17026E-04 0.00000E+00
 -1        29 0.00000E+00 0.00000E+00 0.00000E+00
 -1        30 4.25723E-06 2.14180E-06 0.00000E+00
 -1        31 5.17159E-06 4.40632E-07 0.00000E+00
 -1        32 0.00000E+00 0.00000E+00 0.00000E+00
 -1        33 5.74997E-06 1.05727E-05 0.00000E+00
 -1        34 2.75021E-06 6.04198E-05 0.00000E+00
 -1        35 3.11137E-07 1.16667E-04 0.00000E+00
 -1        36 5.68219E-05 3.05064E-21 0.00000E+00
 -1        37 5.61356E-05-4.42707E-21-1.32349E-23
 -1        38 5.54490E-05-1.12364E-20 0.00000E+00
 -1        39 5.47620E-05-1.92369E-20 0.00000E+00
 -1        40 5.40748E-05-2.56955E-20 0.00000E+00
 -1        41 5.33876E-05-3.26637E-20 1.32349E-23
 -1        42 5.27004E-05-3.20880E-20 0.00000E+00
 -1        43 5.20131E-05-2.80778E-20 0.00000E+00
 -1        44 5.13259E-05-1.98590E-20 0.00000E+00
 -1        45 5.06388E-05-1.82178E-20 0.00000E+00
 -1        46 4.99518E-05-1.90252E-20-2.64698E-23
 -1        47 4.92652E-05-1.74701E-20 1.32349E-23
 -1        48 4.85792E-05-7.98726E-21 0.00000E+00
 -1        49 4.78952E-05-5.28072E-21 0.00000E+00
 -1        50 4.72125E-05-3.89106E-21 0.00000E+00
 -1        51 5.59486E-05-2.67542E-07-8.27181E-25
 -1        52 5.29713E-05-5.20883E-07-6.61744E-24
 -1        53 4.89990E-05-7.74194E-07 3.30872E-24
 -1        54 4.44667E-05-1.02723E-06 0.00000E+00
 -1        55 3.98091E-05-1.27971E-06 0.00000E+00
 -1        56 5.65120E-05-3.91563E-07-2.64698E-23
 -1        57 5.55018E-05-7.92130E-07 0.00000E+00
 -1        58 5.44861E-05-1.18095E-06 2.64698E-23
 -1        59 5.34584E-05-1.54425E-06 0.00000E+00
 -1        60 5.24151E-05-1.86729E-06 2.64698E-23
 -1        61 5.13510E-05-2.13604E-06-1.32349E-23
 -1        62 5.02611E-05-2.33655E-06 2.64698E-23
 -1        63 4.91405E-05-2.45520E-06-1.32349E-23
 -1        64 4.79841E-05-2.47852E-06-2.64698E-23
 -1        65 4.67872E-05-2.39338E-06 0.00000E+00
 -1        66 4.55450E-05-2.18688E-06 0.00000E+00
 -1        67 4.42532E-05-1.84642E-06 1.32349E-23
 -1        68 4.29076E-05-1.35975E-06 0.00000E+00
 -1        69 4.15069E-05-7.14158E-07-1.32349E-23
 -1        70 4.00447E-05 1.00901E-07 1.32349E-23
 -1        71 4.63196E-05-9.90962E-22 6.61744E-24
 -1        72 4.60947E-05 2.21684E-22 0.00000E+00
 -1        73 4.58701E-05 3.36663E-21-6.61744E-24
 -1        74 4.56457E-05 4.07800E-21 3.30872E-24
 -1        75 4.54215E-05 8.30655E-21 6.61744E-24
 -1        76 4.51973E-05 1.11769E-20 0.00000E+00
 -1        77 4.49732E-05 9.97414E-21 0.00000E+00
 -1        78 4.47490E-05 9.06259E-21 0.00000E+00
 -1        79 4.45249E-05 2.55433E-21-6.61744E-24
 -1        80 4.43008E-05-3.41129E-21 0.00000E+00
 -1        81 4.40768E-05-5.57189E-21 0.00000E+00
 -1        82 4.38529E-05-5.13017E-21-3.30872E-24
 -1        83 4.36291E-05-5.41803E-21 0.00000E+00
 -1        84 4.34059E-05-5.97224E-21 3.30872E-24
 -1        85 4.31831E-05-3.22104E-21 6.61744E-24
 -1        86 4.60830E-05 1.70130E-07 0.00000E+00
 -1        87 4.50695E-05 3.60768E-07-1.65436E-24
 -1        88 4.36574E-05 5.52006E-07 3.30872E-24
 -1        89 4.19991E-05 7.43414E-07 0.00000E+00
 -1        90 4.02467E-05 9.34178E-07 0.00000E+00
 -1        91 4.61318E-05-1.81812E-07 0.00000E+00
 -1        92 4.57187E-05-3.88975E-07 0.00000E+00
 -1        93 4.53100E-05-6.09235E-07 0.00000E+00
 -1        94 4.49018E-05-8.32593E-07-6.61744E-24
 -1        95 4.44906E-05-1.04873E-06 0.00000E+00
 -1        96 4.40728E-05-1.24750E-06 6.61744E-24
 -1        97 4.36446E-05-1.41877E-06 1.32349E-23
 -1        98 4.32023E-05-1.55249E-06 0.00000E+00
 -1        99 4.27422E-05-1.63862E-06-1.32349E-23
 -1       100 4.22605E-05-1.66720E-06-6.61744E-24
 -1       101 4.17537E-05-1.62830E-06 0.00000E+00
 -1       102 4.12181E-05-1.51208E-06 6.61744E-24
 -1       103 4.06502E-05-1.30876E-06 0.00000E+00
 -1       104 4.00476E-05-1.00836E-06 6.61744E-24
 -1       105 3.94058E-05-6.01636E-07 0.00000E+00
 -1       106 4.29271E-05-2.86928E-21 1.65436E-24
 -1       107 4.28921E-05-6.71671E-21-8.27181E-25
 -1       108 4.28574E-05-1.10445E-20 0.00000E+00
 -1       109 4.28231E-05-1.46171E-20 4.13590E-25
 -1       110 4.27888E-05-1.24830E-20-8.27181E-25
 -1       111 4.27547E-05-1.07806E-20 4.13590E-25
 -1       112 4.27206E-05-1.18183E-20-8.27181E-25
 -1       113 4.26865E-05-1.35174E-20 4.13590E-25
 -1       114 4.26524E-05-1.40794E-20-8.27181E-25
 -1       115 4.26183E-05-1.76574E-20-4.13590E-25
 -1       116 4.25842E-05-2.10950E-20 0.00000E+00
 -1       117 4.25502E-05-1.85425E-20 0.00000E+00
 -1       118 4.25162E-05-1.27673E-20 8.27181E-25
 -1       119 4.24823E-05-6.69106E-21-4.13590E-25
 -1       120 4.24484E-05-1.79333E-21 0.00000E+00
 -1       121 4.27136E-05-1.49041E-08-1.65436E-24
 -1       122 4.21685E-05-2.56349E-08 3.61892E-25
 -1       123 4.14134E-05-3.63384E-08-4.13590E-25
 -1       124 4.05329E-05-4.72491E-08 0.00000E+00
 -1       125 3.96117E-05-5.84378E-08 0.00000E+00
 -1       126 4.28099E-05-8.96617E-08-3.30872E-24
 -1       127 4.26643E-05-2.13409E-07 3.30872E-24
 -1       128 4.25274E-05-3.60658E-07 0.00000E+00
 -1       129 4.23953E-05-5.21668E-07 0.00000E+00
 -1       130 4.22645E-05-6.86566E-07-6.61744E-24
 -1       131 4.21315E-05-8.45542E-07 3.30872E-24
 -1       132 4.19926E-05-9.88792E-07 0.00000E+00
 -1       133 4.18441E-05-1.10653E-06-3.30872E-24
 -1       134 4.16823E-05-1.18897E-06 6.61744E-24
 -1       135 4.15037E-05-1.22635E-06-3.30872E-24
 -1       136 4.13046E-05-1.20892E-06 0.00000E+00
 -1       137 4.10814E-05-1.12696E-06 1.65436E-24
 -1       138 4.08306E-05-9.70759E-07 3.30872E-24
 -1       139 4.05490E-05-7.30488E-07-1.65436E-24
 -1       140 4.02327E-05-3.96663E-07 0.00000E+00
 -1       141 4.24087E-05 1.98311E-21 0.00000E+00
 -1       142 4.24021E-05 2.64481E-21 0.00000E+00
 -1       143 4.23954E-05 1.79033E-22 0.00000E+00
 -1       144 4.23888E-05-3.55429E-21 1.03398E-25
 -1       145 4.23822E-05-4.08850E-21 2.06795E-25
 -1       146 4.23757E-05-7.36568E-21 0.00000E+00
 -1       147 4.23691E-05-7.36573E-21 0.00000E+00
 -1       148 4.23626E-05-8.48584E-21 0.00000E+00
 -1       149 4.23560E-05-5.44275E-21 0.00000E+00
 -1       150 4.23496E-05-3.34160E-21 0.00000E+00
 -1       151 4.23433E-05-2.19472E-21 0.00000E+00
 -1       152 4.23373E-05-2.15615E-21 0.00000E+00
 -1       153 4.23318E-05-2.59528E-22 8.27181E-25
 -1       154 4.23281E-05-2.16540E-22 0.00000E+00
 -1       155 4.23253E-05 2.02680E-21 6.61744E-24
 -1       156 4.22879E-05 6.70089E-09 0.00000E+00
 -1       157 4.19946E-05 1.42025E-08 0.00000E+00
 -1       158 4.15714E-05 2.16805E-08 0.00000E+00
 -1       159 4.10545E-05 2.90586E-08 0.00000E+00
 -1       160 4.04801E-05 3.63364E-08 2.06795E-25
 -1       161 4.23958E-05 9.99582E-09-2.06795E-25
 -1       162 4.23648E-05 4.93465E-08-1.03398E-25
 -1       163 4.23231E-05 1.17616E-07-2.06795E-25
 -1       164 4.22706E-05 2.14241E-07-1.03398E-25
 -1       165 4.22078E-05 3.38675E-07-2.06795E-25
 -1       166 4.21347E-05 4.90361E-07 1.03398E-25
 -1       167 4.20516E-05 6.68745E-07-4.13590E-25
 -1       168 4.19587E-05 8.73268E-07 1.03398E-25
 -1       169 4.18562E-05 1.10338E-06-2.06795E-25
 -1       170 4.17445E-05 1.35853E-06 1.03398E-25
 -1       171 4.16236E-05 1.63817E-06-1.55096E-25
 -1       172 4.14941E-05 1.94182E-06 0.00000E+00
 -1       173 4.13562E-05 2.26896E-06 8.27181E-25
 -1       174 4.12116E-05 2.61951E-06 0.00000E+00
 -1       175 4.10595E-05 2.99259E-06 0.00000E+00
 -1       191 4.22823E-05 5.58118E-07 1.32349E-23
 -1       192 4.21453E-05 1.12664E-06 0.00000E+00
 -1       193 4.19329E-05 1.69624E-06 1.32349E-23
 -1       194 4.16523E-05 2.26587E-06 6.61744E-24
 -1       195 4.13106E-05 2.83447E-06 0.00000E+00
 -1       251 3.56311E-05 1.28142E-06 0.00000E+00
 -1       252 3.58224E-05 3.26675E-06-4.13590E-25
 -1       253 3.60162E-05 4.52776E-06 0.00000E+00
 -1       254 3.62126E-05 5.16640E-06 8.27181E-25
 -1       255 3.64098E-05 5.28421E-06 0.00000E+00
 -1       256 3.66073E-05 4.98252E-06 1.65436E-24
 -1       257 3.68049E-05 4.36250E-06 0.00000E+00
 -1       258 3.70025E-05 3.52516E-06 3.30872E-24
 -1       259 3.72000E-05 2.57138E-06 6.61744E-24
 -1       260 3.73973E-05 1.60201E-06 3.30872E-24
 -1       261 3.75946E-05 7.17895E-07 6.61744E-24
 -1       262 3.77917E-05 1.98875E-08-3.30872E-24
 -1       263 3.79883E-05-3.91045E-07 0.00000E+00
 -1       264 3.81829E-05-4.13865E-07 6.61744E-24
 -1       265 3.83761E-05 5.27612E-08 0.00000E+00
 -1       266 3.20415E-05-1.58360E-06 0.00000E+00
 -1       267 2.87336E-05-1.63269E-06 3.30872E-24
 -1       268 2.56333E-05-1.68063E-06 0.00000E+00
 -1       269 2.28396E-05-1.72679E-06 0.00000E+00
 -1       270 2.04512E-05-1.77161E-06 0.00000E+00
 -1       271 3.37977E-05 1.12582E-06 0.00000E+00
 -1       272 3.24027E-05 3.02106E-06-1.32349E-23
 -1       273 3.12577E-05 4.25034E-06 0.00000E+00
 -1       274 3.03272E-05 4.90318E-06 0.00000E+00
 -1       275 2.95786E-05 5.07067E-06 0.00000E+00
 -1       276 2.89773E-05 4.84452E-06 0.00000E+00
 -1       277 2.84889E-05 4.31702E-06 0.00000E+00
 -1       278 2.80785E-05 3.58106E-06 1.32349E-23
 -1       279 2.77113E-05 2.72981E-06 0.00000E+00
 -1       280 2.73524E-05 1.85669E-06-6.61744E-24
 -1       281 2.69668E-05 1.05519E-06 1.32349E-23
 -1       282 2.65199E-05 4.18649E-07-6.61744E-24
 -1       283 2.59770E-05 4.02083E-08-1.32349E-23
 -1       284 2.53053E-05 1.29848E-08 0.00000E+00
 -1       285 2.44686E-05 4.28600E-07 0.00000E+00
 -1       286 3.85529E-05 2.30946E-06 0.00000E+00
 -1       287 3.85635E-05 3.09196E-06-1.65436E-24
 -1       288 3.85750E-05 3.50823E-06 0.00000E+00
 -1       289 3.85877E-05 3.61182E-06 0.00000E+00
 -1       290 3.86006E-05 3.45617E-06 0.00000E+00
 -1       291 3.86138E-05 3.09475E-06 0.00000E+00
 -1       292 3.86269E-05 2.58104E-06 0.00000E+00
 -1       293 3.86400E-05 1.96850E-06-1.55096E-25
 -1       294 3.86532E-05 1.31060E-06-4.13590E-25
 -1       295 3.86663E-05 6.60800E-07 0.00000E+00
 -1       296 3.86793E-05 7.25610E-08 8.27181E-25
 -1       297 3.86923E-05-4.00649E-07 0.00000E+00
 -1       298 3.87052E-05-7.05356E-07 0.00000E+00
 -1       299 3.87173E-05-7.88140E-07 0.00000E+00
 -1       300 3.87289E-05-5.95477E-07 7.75482E-25
 -1       301 3.64249E-05 1.14631E-06 1.65436E-24
 -1       302 3.38523E-05 1.19406E-06 0.00000E+00
 -1       303 3.10503E-05 1.24261E-06 0.00000E+00
 -1       304 2.82379E-05 1.29164E-06 0.00000E+00
 -1       305 2.56339E-05 1.34064E-06 0.00000E+00
 -1       306 3.74386E-05 2.08497E-06-1.32349E-23
 -1       307 3.64510E-05 2.66258E-06-1.32349E-23
 -1       308 3.55898E-05 2.90036E-06 2.64698E-23
 -1       309 3.48335E-05 2.85131E-06-1.32349E-23
 -1       310 3.41637E-05 2.56989E-06 2.64698E-23
 -1       311 3.35601E-05 2.11057E-06-1.32349E-23
 -1       312 3.30026E-05 1.52810E-06 2.64698E-23
 -1       313 3.24705E-05 8.77456E-07 0.00000E+00
 -1       314 3.19433E-05 2.13751E-07-2.64698E-23
 -1       315 3.14004E-05-4.07887E-07 0.00000E+00
 -1       316 3.08214E-05-9.32415E-07 0.00000E+00
 -1       317 3.01858E-05-1.30493E-06 1.32349E-23
 -1       318 2.94736E-05-1.47077E-06-1.32349E-23
 -1       319 2.86662E-05-1.37519E-06-6.61744E-24
 -1       320 2.77422E-05-9.64947E-07 1.32349E-23
 -1       321 3.87958E-05 5.31698E-07 0.00000E+00
 -1       322 3.88668E-05 9.22576E-07 4.13590E-25
 -1       323 3.89385E-05 1.12635E-06 8.27181E-25
 -1       324 3.90113E-05 1.17231E-06-4.13590E-25
 -1       325 3.90844E-05 1.08967E-06-1.65436E-24
 -1       326 3.91578E-05 9.07644E-07 8.27181E-25
 -1       327 3.92311E-05 6.55432E-07 0.00000E+00
 -1       328 3.93045E-05 3.62219E-07 0.00000E+00
 -1       329 3.93780E-05 5.71899E-08 0.00000E+00
 -1       330 3.94514E-05-2.30485E-07 0.00000E+00
 -1       331 3.95248E-05-4.71623E-07 3.30872E-24
 -1       332 3.95981E-05-6.37034E-07 0.00000E+00
 -1       333 3.96712E-05-6.97519E-07 0.00000E+00
 -1       334 3.97439E-05-6.23880E-07 0.00000E+00
 -1       335 3.98163E-05-3.86856E-07 0.00000E+00
 -1       336 3.73694E-05-9.50247E-08 0.00000E+00
 -1       337 3.54108E-05-1.10701E-07-4.13590E-25
 -1       338 3.31104E-05-1.26745E-07 8.27181E-25
 -1       339 3.07231E-05-1.42963E-07 0.00000E+00
 -1       340 2.85035E-05-1.59081E-07 0.00000E+00
 -1       341 3.80947E-05 3.75162E-07 0.00000E+00
 -1       342 3.75241E-05 6.03393E-07 0.00000E+00
 -1       343 3.70219E-05 6.47201E-07-1.32349E-23
 -1       344 3.65746E-05 5.40143E-07-6.61744E-24
 -1       345 3.61707E-05 3.16530E-07 1.32349E-23
 -1       346 3.57973E-05 1.05223E-08 0.00000E+00
 -1       347 3.54419E-05-3.43639E-07 1.32349E-23
 -1       348 3.50917E-05-7.11668E-07-6.61744E-24
 -1       349 3.47338E-05-1.05927E-06-1.32349E-23
 -1       350 3.43555E-05-1.35217E-06 6.61744E-24
 -1       351 3.39439E-05-1.55617E-06 0.00000E+00
 -1       352 3.34866E-05-1.63712E-06 6.61744E-24
 -1       353 3.29710E-05-1.56103E-06 1.32349E-23
 -1       354 3.23858E-05-1.29367E-06 0.00000E+00
 -1       355 3.17173E-05-8.01861E-07-6.61744E-24
 -1       356 3.99428E-05 5.40121E-07 2.06795E-25
 -1       357 4.00051E-05 9.41834E-07 4.13590E-25
 -1       358 4.00678E-05 1.25953E-06 8.27181E-25
 -1       359 4.01310E-05 1.50565E-06-8.27181E-25
 -1       360 4.01943E-05 1.69261E-06 0.00000E+00
 -1       361 4.02577E-05 1.83284E-06-8.27181E-25
 -1       362 4.03212E-05 1.93873E-06 0.00000E+00
 -1       363 4.03846E-05 2.02269E-06 8.27181E-25
 -1       364 4.04482E-05 2.09713E-06 0.00000E+00
 -1       365 4.05118E-05 2.17444E-06-8.27181E-25
 -1       366 4.05755E-05 2.26702E-06 0.00000E+00
 -1       367 4.06394E-05 2.38729E-06 1.65436E-24
 -1       368 4.07038E-05 2.54764E-06-3.30872E-24
 -1       369 4.07695E-05 2.76047E-06 0.00000E+00
 -1       370 4.08361E-05 3.03823E-06 0.00000E+00
 -1       371 3.88966E-05 2.76186E-08 0.00000E+00
 -1       372 3.74824E-05 1.30629E-08 0.00000E+00
 -1       373 3.58113E-05-1.79672E-09 3.10193E-25
 -1       374 3.40549E-05-1.68007E-08 0.00000E+00
 -1       375 3.23844E-05-3.17165E-08 0.00000E+00
 -1       376 3.96165E-05 4.49890E-07 3.30872E-24
 -1       377 3.94038E-05 7.00205E-07 0.00000E+00
 -1       378 3.92370E-05 8.27736E-07 0.00000E+00
 -1       379 3.91031E-05 8.66288E-07-1.65436E-24
 -1       380 3.89897E-05 8.49826E-07-3.30872E-24
 -1       381 3.88842E-05 8.12263E-07 1.65436E-24
 -1       382 3.87738E-05 7.87517E-07 0.00000E+00
 -1       383 3.86459E-05 8.09494E-07 1.65436E-24
 -1       384 3.84878E-05 9.12089E-07 0.00000E+00
 -1       385 3.82868E-05 1.12917E-06 0.00000E+00
 -1       386 3.80302E-05 1.49458E-06 1.65436E-24
 -1       387 3.77056E-05 2.04216E-06 1.65436E-24
 -1       388 3.73003E-05 2.80567E-06 8.27181E-25
 -1       389 3.68030E-05 3.81920E-06 4.13590E-25
 -1       390 3.62001E-05 5.11604E-06 3.30872E-24
 -1       406 4.05296E-05 3.94481E-06 0.00000E+00
 -1       407 4.00021E-05 4.50602E-06-6.61744E-24
 -1       408 3.92833E-05 5.06796E-06 0.00000E+00
 -1       409 3.83246E-05 5.62927E-06 0.00000E+00
 -1       410 3.70774E-05 6.18873E-06 1.32349E-23
 -1       466 1.88572E-05-5.83172E-07 3.30872E-24
 -1       467 1.91627E-05 2.31392E-07-3.30872E-24
 -1       468 1.94694E-05 6.89691E-07 0.00000E+00
 -1       469 1.97777E-05 8.51802E-07-3.30872E-24
 -1       470 2.00865E-05 7.77539E-07 0.00000E+00
 -1       471 2.03956E-05 5.26550E-07 3.30872E-24
 -1       472 2.07047E-05 1.58378E-07 6.61744E-24
 -1       473 2.10139E-05-2.67537E-07 0.00000E+00
 -1       474 2.13231E-05-6.91799E-07 0.00000E+00
 -1       475 2.16322E-05-1.05500E-06 0.00000E+00
 -1       476 2.19412E-05-1.29770E-06-1.32349E-23
 -1       477 2.22498E-05-1.36036E-06 0.00000E+00
 -1       478 2.25578E-05-1.18331E-06 0.00000E+00
 -1       479 2.28637E-05-7.06734E-07 3.30872E-24
 -1       480 2.31680E-05 1.29475E-07 0.00000E+00
 -1       481 1.68946E-05-1.70737E-06 0.00000E+00
 -1       482 1.51154E-05-1.59728E-06-1.65436E-24
 -1       483 1.33107E-05-1.48695E-06 0.00000E+00
 -1       484 1.15639E-05-1.37619E-06 8.27181E-25
 -1       485 9.95870E-06-1.26520E-06 1.65436E-24
 -1       486 1.77467E-05-6.14274E-07 0.00000E+00
 -1       487 1.70264E-05 2.76563E-07 6.61744E-24
 -1       488 1.64055E-05 9.00558E-07 0.00000E+00
 -1       489 1.58691E-05 1.29434E-06 6.61744E-24
 -1       490 1.54046E-05 1.49545E-06 0.00000E+00
 -1       491 1.49980E-05 1.54125E-06-6.61744E-24
 -1       492 1.46355E-05 1.46926E-06-1.32349E-23
 -1       493 1.43030E-05 1.31709E-06 6.61744E-24
 -1       494 1.39865E-05 1.12240E-06 0.00000E+00
 -1       495 1.36718E-05 9.22907E-07 0.00000E+00
 -1       496 1.33448E-05 7.56340E-07 1.32349E-23
 -1       497 1.29916E-05 6.60416E-07-6.61744E-24
 -1       498 1.25983E-05 6.72794E-07 0.00000E+00
 -1       499 1.21517E-05 8.31325E-07 3.30872E-24
 -1       500 1.16371E-05 1.17315E-06 0.00000E+00
 -1       501 2.36440E-05 2.59424E-06 1.65436E-24
 -1       502 2.38469E-05 3.31467E-06-8.27181E-25
 -1       503 2.40510E-05 3.61241E-06 0.00000E+00
 -1       504 2.42566E-05 3.55552E-06 0.00000E+00
 -1       505 2.44626E-05 3.21178E-06 3.30872E-24
 -1       506 2.46688E-05 2.64886E-06 3.30872E-24
 -1       507 2.48751E-05 1.93437E-06 6.61744E-24
 -1       508 2.50813E-05 1.13578E-06 3.30872E-24
 -1       509 2.52875E-05 3.20561E-07-6.61744E-24
 -1       510 2.54937E-05-4.43826E-07 3.30872E-24
 -1       511 2.56999E-05-1.08992E-06-6.61744E-24
 -1       512 2.59058E-05-1.55018E-06-3.30872E-24
 -1       513 2.61112E-05-1.75697E-06 6.61744E-24
 -1       514 2.63150E-05-1.64260E-06 0.00000E+00
 -1       515 2.65174E-05-1.13910E-06 0.00000E+00
 -1       516 2.14697E-05 1.43880E-06 0.00000E+00
 -1       517 1.91533E-05 1.49914E-06 4.13590E-25
 -1       518 1.67288E-05 1.55961E-06-4.13590E-25
 -1       519 1.44210E-05 1.62051E-06-4.13590E-25
 -1       520 1.24549E-05 1.68188E-06 0.00000E+00
 -1       521 2.23986E-05 2.44181E-06-1.32349E-23
 -1       522 2.14739E-05 3.08128E-06 6.61744E-24
 -1       523 2.06820E-05 3.36334E-06 1.32349E-23
 -1       524 2.00012E-05 3.34205E-06-1.32349E-23
 -1       525 1.94126E-05 3.07295E-06 0.00000E+00
 -1       526 1.88956E-05 2.61153E-06 0.00000E+00
 -1       527 1.84296E-05 2.01358E-06 0.00000E+00
 -1       528 1.79938E-05 1.33508E-06-6.61744E-24
 -1       529 1.75670E-05 6.32146E-07-1.32349E-23
 -1       530 1.71284E-05-3.90580E-08 0.00000E+00
 -1       531 1.66571E-05-6.22430E-07 0.00000E+00
 -1       532 1.61323E-05-1.06198E-06 0.00000E+00
 -1       533 1.55333E-05-1.30192E-06 0.00000E+00
 -1       534 1.48409E-05-1.28643E-06 6.61744E-24
 -1       535 1.40334E-05-9.60910E-07-1.32349E-23
 -1       536 2.69519E-05 8.37042E-07-2.06795E-25
 -1       537 2.72173E-05 1.47525E-06 3.30872E-24
 -1       538 2.74842E-05 1.78670E-06 0.00000E+00
 -1       539 2.77532E-05 1.82415E-06 0.00000E+00
 -1       540 2.80228E-05 1.64013E-06 0.00000E+00
 -1       541 2.82927E-05 1.28704E-06-3.30872E-24
 -1       542 2.85628E-05 8.17209E-07-6.61744E-24
 -1       543 2.88329E-05 2.82845E-07 0.00000E+00
 -1       544 2.91030E-05-2.63852E-07 6.61744E-24
 -1       545 2.93730E-05-7.70714E-07 3.30872E-24
 -1       546 2.96430E-05-1.18554E-06-6.61744E-24
 -1       547 2.99128E-05-1.45605E-06 0.00000E+00
 -1       548 3.01821E-05-1.52990E-06 0.00000E+00
 -1       549 3.04499E-05-1.35464E-06 0.00000E+00
 -1       550 3.07167E-05-8.77582E-07 0.00000E+00
 -1       551 2.47692E-05-1.96981E-07 0.00000E+00
 -1       552 2.23990E-05-2.09435E-07 0.00000E+00
 -1       553 1.98197E-05-2.21746E-07 1.65436E-24
 -1       554 1.72598E-05-2.34134E-07 0.00000E+00
 -1       555 1.49478E-05-2.46793E-07 0.00000E+00
 -1       556 2.58615E-05 6.53753E-07 1.32349E-23
 -1       557 2.51341E-05 1.13254E-06 0.00000E+00
 -1       558 2.45174E-05 1.31131E-06 0.00000E+00
 -1       559 2.39920E-05 1.24180E-06 0.00000E+00
 -1       560 2.35397E-05 9.76187E-07 0.00000E+00
 -1       561 2.31411E-05 5.66616E-07 6.61744E-24
 -1       562 2.27767E-05 6.52924E-08-1.32349E-23
 -1       563 2.24271E-05-4.75504E-07-6.61744E-24
 -1       564 2.20727E-05-1.00347E-06 0.00000E+00
 -1       565 2.16939E-05-1.46634E-06 0.00000E+00
 -1       566 2.12713E-05-1.81185E-06 1.32349E-23
 -1       567 2.07854E-05-1.98785E-06-6.61744E-24
 -1       568 2.02170E-05-1.94225E-06 0.00000E+00
 -1       569 1.95477E-05-1.62296E-06 3.30872E-24
 -1       570 1.87584E-05-9.78343E-07-6.61744E-24
 -1       571 3.12363E-05 8.04414E-07-1.65436E-24
 -1       572 3.15165E-05 1.38901E-06-1.65436E-24
 -1       573 3.17987E-05 1.75082E-06-6.61744E-24
 -1       574 3.20825E-05 1.93506E-06 0.00000E+00
 -1       575 3.23668E-05 1.98688E-06-6.61744E-24
 -1       576 3.26514E-05 1.95146E-06 0.00000E+00
 -1       577 3.29362E-05 1.87394E-06 0.00000E+00
 -1       578 3.32210E-05 1.79945E-06 0.00000E+00
 -1       579 3.35058E-05 1.77313E-06 0.00000E+00
 -1       580 3.37906E-05 1.84014E-06 0.00000E+00
 -1       581 3.40754E-05 2.04565E-06 0.00000E+00
 -1       582 3.43601E-05 2.43492E-06 0.00000E+00
 -1       583 3.46446E-05 3.05324E-06-1.32349E-23
 -1       584 3.49288E-05 3.94592E-06 0.00000E+00
 -1       585 3.52124E-05 5.15837E-06-1.32349E-23
 -1       586 2.92792E-05-3.10717E-08 0.00000E+00
 -1       587 2.71272E-05-1.38176E-08 0.00000E+00
 -1       588 2.47097E-05 3.07368E-09 0.00000E+00
 -1       589 2.22250E-05 1.94723E-08 0.00000E+00
 -1       590 1.98715E-05 3.54353E-08 0.00000E+00
 -1       591 3.03266E-05 7.32325E-07 0.00000E+00
 -1       592 2.97511E-05 1.29082E-06 0.00000E+00
 -1       593 2.92405E-05 1.67206E-06 0.00000E+00
 -1       594 2.87798E-05 1.91651E-06 6.61744E-24
 -1       595 2.83546E-05 2.06495E-06 1.32349E-23
 -1       596 2.79500E-05 2.15803E-06-6.61744E-24
 -1       597 2.75508E-05 2.23639E-06 1.32349E-23
 -1       598 2.71418E-05 2.34064E-06 0.00000E+00
 -1       599 2.67078E-05 2.51139E-06 6.61744E-24
 -1       600 2.62338E-05 2.78922E-06-3.30872E-24
 -1       601 2.57044E-05 3.21463E-06-6.61744E-24
 -1       602 2.51047E-05 3.82810E-06 0.00000E+00
 -1       603 2.44197E-05 4.67001E-06 6.61744E-24
 -1       604 2.36355E-05 5.78089E-06-3.30872E-24
 -1       605 2.27372E-05 7.20082E-06 0.00000E+00
 -1       606 3.56021E-05 8.80117E-06 6.61744E-24
 -1       607 3.57026E-05 1.11893E-05-3.30872E-24
 -1       608 3.58015E-05 1.38694E-05 0.00000E+00
 -1       609 3.58989E-05 1.68106E-05 0.00000E+00
 -1       610 3.59954E-05 1.99823E-05 6.61744E-24
 -1       611 3.60912E-05 2.33535E-05-6.61744E-24
 -1       612 3.61863E-05 2.68934E-05 0.00000E+00
 -1       613 3.62810E-05 3.05714E-05 0.00000E+00
 -1       614 3.63753E-05 3.43566E-05-6.61744E-24
 -1       615 3.64692E-05 3.82181E-05-1.65436E-24
 -1       616 3.65630E-05 4.21255E-05-3.30872E-24
 -1       617 3.66566E-05 4.60478E-05-1.65436E-24
 -1       618 3.67502E-05 4.99543E-05 0.00000E+00
 -1       619 3.68436E-05 5.38144E-05 8.27181E-25
 -1       620 3.69369E-05 5.75974E-05-1.65436E-24
 -1       621 3.34277E-05 7.10684E-06-1.32349E-23
 -1       622 3.11820E-05 7.48418E-06 6.61744E-24
 -1       623 2.88226E-05 7.86154E-06 0.00000E+00
 -1       624 2.64159E-05 8.23788E-06 0.00000E+00
 -1       625 2.40284E-05 8.61254E-06 0.00000E+00
 -1       626 3.49312E-05 8.88498E-06 0.00000E+00
 -1       627 3.42437E-05 1.13598E-05 0.00000E+00
 -1       628 3.34460E-05 1.41256E-05 0.00000E+00
 -1       629 3.25515E-05 1.71471E-05 0.00000E+00
 -1       630 3.15734E-05 2.03892E-05 6.61744E-24
 -1       631 3.05251E-05 2.38169E-05-3.30872E-24
 -1       632 2.94198E-05 2.73949E-05 6.61744E-24
 -1       633 2.82708E-05 3.10885E-05 0.00000E+00
 -1       634 2.70912E-05 3.48625E-05 6.61744E-24
 -1       635 2.58944E-05 3.86820E-05 0.00000E+00
 -1       636 2.46934E-05 4.25121E-05-6.61744E-24
 -1       637 2.35015E-05 4.63179E-05 3.30872E-24
 -1       638 2.23318E-05 5.00643E-05 0.00000E+00
 -1       639 2.11968E-05 5.37162E-05 1.65436E-24
 -1       640 2.01096E-05 5.72387E-05-3.30872E-24
 -1       641 3.70265E-05 6.48465E-05-8.27181E-25
 -1       642 3.70244E-05 6.84329E-05-2.06795E-25
 -1       643 3.70221E-05 7.20281E-05 0.00000E+00
 -1       644 3.70196E-05 7.56278E-05-1.03398E-25
 -1       645 3.70172E-05 7.92279E-05 0.00000E+00
 -1       646 3.70147E-05 8.28240E-05 0.00000E+00
 -1       647 3.70122E-05 8.64121E-05 1.03398E-25
 -1       648 3.70097E-05 8.99879E-05-2.58494E-26
 -1       649 3.70073E-05 9.35471E-05 5.16988E-26
 -1       650 3.70050E-05 9.70856E-05 5.16988E-26
 -1       651 3.70027E-05 1.00599E-04 0.00000E+00
 -1       652 3.70005E-05 1.04083E-04 0.00000E+00
 -1       653 3.69983E-05 1.07534E-04 0.00000E+00
 -1       654 3.69960E-05 1.10948E-04 0.00000E+00
 -1       655 3.69936E-05 1.14319E-04 0.00000E+00
 -1       656 3.37065E-05 6.11634E-05-3.30872E-24
 -1       657 3.06388E-05 6.10484E-05-1.65436E-24
 -1       658 2.77335E-05 6.09336E-05 0.00000E+00
 -1       659 2.48988E-05 6.08189E-05 8.27181E-25
 -1       660 2.20432E-05 6.07043E-05-8.27181E-25
 -1       661 3.57806E-05 6.48757E-05 0.00000E+00
 -1       662 3.45355E-05 6.84830E-05 0.00000E+00
 -1       663 3.32909E-05 7.20896E-05 0.00000E+00
 -1       664 3.20485E-05 7.56915E-05 1.65436E-24
 -1       665 3.08095E-05 7.92845E-05 3.30872E-24
 -1       666 2.95756E-05 8.28643E-05 1.65436E-24
 -1       667 2.83482E-05 8.64269E-05 0.00000E+00
 -1       668 2.71290E-05 8.99682E-05 1.65436E-24
 -1       669 2.59194E-05 9.34839E-05 0.00000E+00
 -1       670 2.47210E-05 9.69699E-05 0.00000E+00
 -1       671 2.35354E-05 1.00422E-04 0.00000E+00
 -1       672 2.23641E-05 1.03836E-04 0.00000E+00
 -1       673 2.12086E-05 1.07208E-04 3.30872E-24
 -1       674 2.00700E-05 1.10533E-04 8.27181E-25
 -1       675 1.89502E-05 1.13808E-04-8.27181E-25
 -1       676 3.37234E-05 1.17543E-04 3.30872E-24
 -1       677 3.04991E-05 1.17439E-04-1.65436E-24
 -1       678 2.73078E-05 1.17334E-04 0.00000E+00
 -1       679 2.41409E-05 1.17230E-04-1.65436E-24
 -1       680 2.09896E-05 1.17126E-04 0.00000E+00
 -1       681 8.72877E-06-1.76028E-07 1.65436E-24
 -1       682 8.88379E-06 5.24868E-07 0.00000E+00
 -1       683 9.03924E-06 9.83536E-07-3.30872E-24
 -1       684 9.19519E-06 1.23714E-06 0.00000E+00
 -1       685 9.35130E-06 1.32272E-06 0.00000E+00
 -1       686 9.50749E-06 1.27727E-06 1.65436E-24
 -1       687 9.66371E-06 1.13776E-06-3.30872E-24
 -1       688 9.81994E-06 9.41106E-07 1.65436E-24
 -1       689 9.97614E-06 7.24198E-07 6.61744E-24
 -1       690 1.01323E-05 5.23931E-07 0.00000E+00
 -1       691 1.02884E-05 3.77200E-07 0.00000E+00
 -1       692 1.04443E-05 3.20922E-07 0.00000E+00
 -1       693 1.05999E-05 3.92046E-07 0.00000E+00
 -1       694 1.07545E-05 6.27542E-07-1.65436E-24
 -1       695 1.09083E-05 1.06450E-06 0.00000E+00
 -1       696 7.24057E-06-9.68418E-07-6.61744E-24
 -1       697 5.75982E-06-7.76076E-07-3.30872E-24
 -1       698 4.21512E-06-5.83362E-07 0.00000E+00
 -1       699 2.68681E-06-3.89825E-07-3.30872E-24
 -1       700 1.25521E-06-1.95857E-07 0.00000E+00
 -1       701 8.03083E-06-1.79610E-07 0.00000E+00
 -1       702 7.55163E-06 5.84045E-07 0.00000E+00
 -1       703 7.14182E-06 1.16124E-06 0.00000E+00
 -1       704 6.79223E-06 1.57454E-06 0.00000E+00
 -1       705 6.49514E-06 1.84707E-06 6.61744E-24
 -1       706 6.24206E-06 2.00176E-06 3.30872E-24
 -1       707 6.02447E-06 2.06161E-06-6.61744E-24
 -1       708 5.83379E-06 2.04965E-06 0.00000E+00
 -1       709 5.66139E-06 1.98891E-06 6.61744E-24
 -1       710 5.49866E-06 1.90249E-06 0.00000E+00
 -1       711 5.33699E-06 1.81346E-06 0.00000E+00
 -1       712 5.16784E-06 1.74496E-06 3.30872E-24
 -1       713 4.98264E-06 1.72007E-06 3.30872E-24
 -1       714 4.77360E-06 1.76215E-06-1.65436E-24
 -1       715 4.53148E-06 1.89402E-06 0.00000E+00
 -1       716 1.11741E-05 2.34954E-06-4.13590E-25
 -1       717 1.13030E-05 2.62652E-06 4.13590E-25
 -1       718 1.14325E-05 2.61999E-06-1.65436E-24
 -1       719 1.15629E-05 2.38065E-06 0.00000E+00
 -1       720 1.16936E-05 1.95903E-06 3.30872E-24
 -1       721 1.18243E-05 1.40569E-06-1.65436E-24
 -1       722 1.19551E-05 7.71122E-07 0.00000E+00
 -1       723 1.20858E-05 1.05782E-07 1.65436E-24
 -1       724 1.22166E-05-5.39864E-07-3.30872E-24
 -1       725 1.23474E-05-1.11534E-06 0.00000E+00
 -1       726 1.24781E-05-1.57018E-06 0.00000E+00
 -1       727 1.26085E-05-1.85384E-06 0.00000E+00
 -1       728 1.27386E-05-1.91575E-06 0.00000E+00
 -1       729 1.28672E-05-1.70530E-06 0.00000E+00
 -1       730 1.29946E-05-1.17171E-06 0.00000E+00
 -1       731 9.95321E-06 1.80177E-06 1.65436E-24
 -1       732 8.66387E-06 1.86911E-06 2.48154E-24
 -1       733 7.31696E-06 1.93673E-06 0.00000E+00
 -1       734 6.04523E-06 2.00496E-06 8.27181E-25
 -1       735 4.98148E-06 2.07351E-06 0.00000E+00
 -1       736 1.04512E-05 2.32455E-06-6.61744E-24
 -1       737 9.91223E-06 2.70167E-06 0.00000E+00
 -1       738 9.43985E-06 2.89913E-06 0.00000E+00
 -1       739 9.02407E-06 2.94124E-06 0.00000E+00
 -1       740 8.65674E-06 2.85306E-06 0.00000E+00
 -1       741 8.32865E-06 2.65948E-06 6.61744E-24
 -1       742 8.03061E-06 2.38546E-06 0.00000E+00
 -1       743 7.75328E-06 2.05605E-06 6.61744E-24
 -1       744 7.48731E-06 1.69631E-06 0.00000E+00
 -1       745 7.22332E-06 1.33137E-06 0.00000E+00
 -1       746 6.95195E-06 9.86324E-07 0.00000E+00
 -1       747 6.66392E-06 6.86305E-07-6.61744E-24
 -1       748 6.34993E-06 4.56391E-07 0.00000E+00
 -1       749 6.00145E-06 3.21822E-07-3.30872E-24
 -1       750 5.60857E-06 3.07299E-07 0.00000E+00
 -1       751 1.33839E-05 6.23754E-07 4.13590E-25
 -1       752 1.36790E-05 1.12533E-06 0.00000E+00
 -1       753 1.39757E-05 1.29713E-06 0.00000E+00
 -1       754 1.42748E-05 1.19779E-06 0.00000E+00
 -1       755 1.45746E-05 8.85706E-07 0.00000E+00
 -1       756 1.48747E-05 4.19126E-07 0.00000E+00
 -1       757 1.51749E-05-1.43796E-07 0.00000E+00
 -1       758 1.54753E-05-7.44984E-07 0.00000E+00
 -1       759 1.57756E-05-1.32638E-06 0.00000E+00
 -1       760 1.60759E-05-1.82992E-06 0.00000E+00
 -1       761 1.63761E-05-2.19750E-06 0.00000E+00
 -1       762 1.66760E-05-2.37086E-06 0.00000E+00
 -1       763 1.69752E-05-2.29167E-06-1.32349E-23
 -1       764 1.72723E-05-1.90140E-06 0.00000E+00
 -1       765 1.75679E-05-1.14127E-06-6.61744E-24
 -1       766 1.16951E-05-1.56378E-07-2.06795E-25
 -1       767 1.01251E-05-3.55041E-08 8.27181E-25
 -1       768 8.54327E-06 8.58903E-08-8.27181E-25
 -1       769 7.09412E-06 2.07628E-07-3.61892E-25
 -1       770 5.92246E-06 3.29285E-07 0.00000E+00
 -1       771 1.20649E-05 4.30298E-07 0.00000E+00
 -1       772 1.10975E-05 8.45730E-07 0.00000E+00
 -1       773 1.02151E-05 1.02646E-06 5.29396E-23
 -1       774 9.40330E-06 1.01156E-06 0.00000E+00
 -1       775 8.64911E-06 8.40772E-07 2.64698E-23
 -1       776 7.93809E-06 5.53595E-07 0.00000E+00
 -1       777 7.25567E-06 1.89617E-07 0.00000E+00
 -1       778 6.58710E-06-2.11519E-07 1.32349E-23
 -1       779 5.91758E-06-6.10142E-07-2.64698E-23
 -1       780 5.23233E-06-9.66598E-07-1.32349E-23
 -1       781 4.51655E-06-1.24125E-06 0.00000E+00
 -1       782 3.75571E-06-1.39454E-06 0.00000E+00
 -1       783 2.93525E-06-1.38700E-06 2.64698E-23
 -1       784 2.04209E-06-1.17898E-06-6.61744E-24
 -1       785 1.06183E-06-7.31474E-07-1.32349E-23
 -1       786 1.80708E-05 1.27641E-06 0.00000E+00
 -1       787 1.83119E-05 2.15618E-06 1.65436E-24
 -1       788 1.85544E-05 2.74110E-06 0.00000E+00
 -1       789 1.87987E-05 3.08737E-06 0.00000E+00
 -1       790 1.90436E-05 3.25097E-06 0.00000E+00
 -1       791 1.92889E-05 3.28781E-06-3.30872E-24
 -1       792 1.95343E-05 3.25374E-06 0.00000E+00
 -1       793 1.97798E-05 3.20455E-06 3.30872E-24
 -1       794 2.00253E-05 3.19603E-06-6.61744E-24
 -1       795 2.02707E-05 3.28401E-06 0.00000E+00
 -1       796 2.05161E-05 3.52433E-06 0.00000E+00
 -1       797 2.07612E-05 3.97299E-06 0.00000E+00
 -1       798 2.10059E-05 4.68604E-06 0.00000E+00
 -1       799 2.12494E-05 5.71970E-06-3.30872E-24
 -1       800 2.14918E-05 7.13045E-06-6.61744E-24
 -1       801 1.54527E-05 3.85488E-08 0.00000E+00
 -1       802 1.22695E-05 3.32356E-08 0.00000E+00
 -1       803 8.71287E-06 2.69369E-08 0.00000E+00
 -1       804 5.20284E-06 2.01757E-08 0.00000E+00
 -1       805 2.15967E-06 1.40322E-08 0.00000E+00
 -1       806 1.69328E-05 1.16902E-06-1.32349E-23
 -1       807 1.60968E-05 2.04143E-06 0.00000E+00
 -1       808 1.53366E-05 2.70680E-06-1.32349E-23
 -1       809 1.46377E-05 3.20456E-06 6.61744E-24
 -1       810 1.39863E-05 3.57457E-06 0.00000E+00
 -1       811 1.33676E-05 3.85652E-06 0.00000E+00
 -1       812 1.27669E-05 4.09016E-06 1.32349E-23
 -1       813 1.21694E-05 4.31523E-06 6.61744E-24
 -1       814 1.15602E-05 4.57149E-06 0.00000E+00
 -1       815 1.09245E-05 4.89865E-06 0.00000E+00
 -1       816 1.02473E-05 5.33640E-06 0.00000E+00
 -1       817 9.51400E-06 5.92437E-06 0.00000E+00
 -1       818 8.70997E-06 6.70210E-06 0.00000E+00
 -1       819 7.82168E-06 7.70926E-06 6.61744E-24
 -1       820 6.83451E-06 8.98506E-06 6.61744E-24
 -1       821 2.15732E-05 1.12594E-05-6.20385E-25
 -1       822 2.14101E-05 1.37940E-05-1.65436E-24
 -1       823 2.12457E-05 1.65518E-05 0.00000E+00
 -1       824 2.10796E-05 1.95063E-05 0.00000E+00
 -1       825 2.09127E-05 2.26309E-05 0.00000E+00
 -1       826 2.07451E-05 2.58991E-05-3.30872E-24
 -1       827 2.05771E-05 2.92842E-05 3.30872E-24
 -1       828 2.04087E-05 3.27595E-05-3.30872E-24
 -1       829 2.02402E-05 3.62981E-05-6.61744E-24
 -1       830 2.00715E-05 3.98734E-05 0.00000E+00
 -1       831 1.99029E-05 4.34585E-05 0.00000E+00
 -1       832 1.97344E-05 4.70267E-05 3.30872E-24
 -1       833 1.95664E-05 5.05510E-05 0.00000E+00
 -1       834 1.93995E-05 5.40049E-05 1.65436E-24
 -1       835 1.92334E-05 5.73615E-05 0.00000E+00
 -1       836 1.92570E-05 9.23604E-06 0.00000E+00
 -1       837 1.65023E-05 9.50663E-06 0.00000E+00
 -1       838 1.36175E-05 9.77707E-06-6.61744E-24
 -1       839 1.07594E-05 1.00470E-05-3.30872E-24
 -1       840 8.08495E-06 1.03166E-05 0.00000E+00
 -1       841 2.08919E-05 1.12657E-05 0.00000E+00
 -1       842 1.99624E-05 1.38051E-05 0.00000E+00
 -1       843 1.89490E-05 1.65663E-05 0.00000E+00
 -1       844 1.78618E-05 1.95224E-05 0.00000E+00
 -1       845 1.67108E-05 2.26466E-05-1.65436E-24
 -1       846 1.55064E-05 2.59119E-05 0.00000E+00
 -1       847 1.42587E-05 2.92915E-05 0.00000E+00
 -1       848 1.29779E-05 3.27586E-05 4.13590E-25
 -1       849 1.16741E-05 3.62863E-05 0.00000E+00
 -1       850 1.03575E-05 3.98477E-05-4.13590E-25
 -1       851 9.03825E-06 4.34160E-05 0.00000E+00
 -1       852 7.72645E-06 4.69645E-05-1.03398E-25
 -1       853 6.43218E-06 5.04661E-05 1.03398E-25
 -1       854 5.16528E-06 5.38939E-05 0.00000E+00
 -1       855 3.93612E-06 5.72213E-05 0.00000E+00
 -1       856 1.90031E-05 6.38145E-05 4.13590E-25
 -1       857 1.89271E-05 6.71554E-05 0.00000E+00
 -1       858 1.88506E-05 7.06002E-05 1.65436E-24
 -1       859 1.87734E-05 7.41320E-05 0.00000E+00
 -1       860 1.86958E-05 7.77334E-05 1.65436E-24
 -1       861 1.86180E-05 8.13872E-05 8.27181E-25
 -1       862 1.85400E-05 8.50764E-05 1.65436E-24
 -1       863 1.84619E-05 8.87836E-05 8.27181E-25
 -1       864 1.83839E-05 9.24916E-05 1.65436E-24
 -1       865 1.83058E-05 9.61832E-05 0.00000E+00
 -1       866 1.82280E-05 9.98413E-05 0.00000E+00
 -1       867 1.81503E-05 1.03448E-04 0.00000E+00
 -1       868 1.80729E-05 1.06988E-04 3.30872E-24
 -1       869 1.79960E-05 1.10442E-04 0.00000E+00
 -1       870 1.79196E-05 1.13793E-04 1.65436E-24
 -1       871 1.61948E-05 6.05672E-05 0.00000E+00
 -1       872 1.34929E-05 6.05390E-05 0.00000E+00
 -1       873 1.08839E-05 6.05106E-05 0.00000E+00
 -1       874 8.28134E-06 6.04819E-05 4.13590E-25
 -1       875 5.59862E-06 6.04525E-05 8.27181E-25
 -1       876 1.79947E-05 6.38394E-05 0.00000E+00
 -1       877 1.68843E-05 6.71796E-05 0.00000E+00
 -1       878 1.57436E-05 7.06007E-05 0.00000E+00
 -1       879 1.45777E-05 7.40902E-05 1.65436E-24
 -1       880 1.33909E-05 7.76352E-05 0.00000E+00
 -1       881 1.21881E-05 8.12230E-05 0.00000E+00
 -1       882 1.09739E-05 8.48409E-05 0.00000E+00
 -1       883 9.75312E-06 8.84762E-05 0.00000E+00
 -1       884 8.53046E-06 9.21164E-05 0.00000E+00
 -1       885 7.31076E-06 9.57489E-05 1.65436E-24
 -1       886 6.09872E-06 9.93608E-05 0.00000E+00
 -1       887 4.89912E-06 1.02940E-04 1.65436E-24
 -1       888 3.71661E-06 1.06473E-04-3.30872E-24
 -1       889 2.55549E-06 1.09947E-04-1.65436E-24
 -1       890 1.42088E-06 1.13350E-04 0.00000E+00
 -1       891 1.48385E-05 1.16966E-04 1.65436E-24
 -1       892 1.19545E-05 1.16906E-04 0.00000E+00
 -1       893 9.12674E-06 1.16846E-04 1.65436E-24
 -1       894 6.28822E-06 1.16786E-04-8.27181E-25
 -1       895 3.37186E-06 1.16726E-04-8.27181E-25
 -1       896 2.64902E-07 9.18378E-07 6.61744E-24
 -1       897 5.31630E-07 1.60728E-06 0.00000E+00
 -1       898 7.98605E-07 2.09322E-06 0.00000E+00
 -1       899 1.06584E-06 2.40325E-06-3.30872E-24
 -1       900 1.33317E-06 2.56429E-06 0.00000E+00
 -1       901 1.60055E-06 2.60316E-06 0.00000E+00
 -1       902 1.86794E-06 2.54662E-06 6.61744E-24
 -1       903 2.13532E-06 2.42138E-06-3.30872E-24
 -1       904 2.40269E-06 2.25407E-06 6.61744E-24
 -1       905 2.67000E-06 2.07133E-06-3.30872E-24
 -1       906 2.93723E-06 1.89975E-06 0.00000E+00
 -1       907 3.20426E-06 1.76597E-06 0.00000E+00
 -1       908 3.47099E-06 1.69661E-06 6.61744E-24
 -1       909 3.73664E-06 1.71836E-06 0.00000E+00
 -1       910 4.00159E-06 1.85797E-06 0.00000E+00
 -1       911 4.31513E-06 2.42767E-06 8.27181E-25
 -1       912 4.37320E-06 2.56054E-06 8.27181E-25
 -1       913 4.43130E-06 2.56163E-06 1.65436E-24
 -1       914 4.48941E-06 2.45266E-06 0.00000E+00
 -1       915 4.54751E-06 2.25526E-06-1.65436E-24
 -1       916 4.60560E-06 1.99112E-06-8.27181E-25
 -1       917 4.66367E-06 1.68187E-06-1.65436E-24
 -1       918 4.72173E-06 1.34917E-06 8.27181E-25
 -1       919 4.77977E-06 1.01466E-06 0.00000E+00
 -1       920 4.83778E-06 6.99986E-07-8.27181E-25
 -1       921 4.89572E-06 4.26787E-07 1.65436E-24
 -1       922 4.95350E-06 2.16720E-07 8.27181E-25
 -1       923 5.01102E-06 9.14451E-08 0.00000E+00
 -1       924 5.06762E-06 7.26130E-08 0.00000E+00
 -1       925 5.12362E-06 1.81929E-07 0.00000E+00
 -1       926 4.85791E-06 6.55649E-07-6.61744E-24
 -1       927 4.53552E-06 6.69366E-07 0.00000E+00
 -1       928 4.21249E-06 5.17235E-07 1.32349E-23
 -1       929 3.88842E-06 2.35556E-07 0.00000E+00
 -1       930 3.56404E-06-1.39346E-07 1.32349E-23
 -1       931 3.23945E-06-5.71018E-07 6.61744E-24
 -1       932 2.91477E-06-1.02299E-06 0.00000E+00
 -1       933 2.59006E-06-1.45875E-06 0.00000E+00
 -1       934 2.26537E-06-1.84181E-06 0.00000E+00
 -1       935 1.94070E-06-2.13574E-06 0.00000E+00
 -1       936 1.61609E-06-2.30414E-06 6.61744E-24
 -1       937 1.29159E-06-2.31076E-06 3.30872E-24
 -1       938 9.67212E-07-2.11942E-06 1.32349E-23
 -1       939 6.43270E-07-1.69422E-06 3.30872E-24
 -1       940 3.19507E-07-9.99289E-07 0.00000E+00
 -1       941 3.31916E-07 1.02314E-06 1.65436E-24
 -1       942 6.89665E-07 1.80519E-06-3.30872E-24
 -1       943 1.04946E-06 2.38716E-06 6.61744E-24
 -1       944 1.41229E-06 2.81061E-06-3.30872E-24
 -1       945 1.77602E-06 3.11695E-06 0.00000E+00
 -1       946 2.14034E-06 3.34750E-06 6.61744E-24
 -1       947 2.50489E-06 3.54352E-06 1.32349E-23
 -1       948 2.86955E-06 3.74621E-06 0.00000E+00
 -1       949 3.23421E-06 3.99680E-06 0.00000E+00
 -1       950 3.59878E-06 4.33659E-06-6.61744E-24
 -1       951 3.96314E-06 4.80689E-06 0.00000E+00
 -1       952 4.32700E-06 5.44920E-06 0.00000E+00
 -1       953 4.69008E-06 6.30511E-06-1.32349E-23
 -1       954 5.05081E-06 7.41642E-06 6.61744E-24
 -1       955 5.40980E-06 8.82518E-06-6.61744E-24
 -1       956 5.57131E-06 1.27133E-05 1.65436E-24
 -1       957 5.38639E-06 1.51009E-05-1.65436E-24
 -1       958 5.20016E-06 1.77116E-05 3.30872E-24
 -1       959 5.01280E-06 2.05201E-05-3.30872E-24
 -1       960 4.82476E-06 2.35014E-05-6.61744E-24
 -1       961 4.63619E-06 2.66299E-05 3.30872E-24
 -1       962 4.44720E-06 2.98802E-05-3.30872E-24
 -1       963 4.25789E-06 3.32271E-05-1.65436E-24
 -1       964 4.06834E-06 3.66450E-05-6.61744E-24
 -1       965 3.87867E-06 4.01084E-05-3.30872E-24
 -1       966 3.68896E-06 4.35919E-05 0.00000E+00
 -1       967 3.49936E-06 4.70701E-05-3.30872E-24
 -1       968 3.31001E-06 5.05173E-05-6.61744E-24
 -1       969 3.12131E-06 5.39082E-05-3.30872E-24
 -1       970 2.93345E-06 5.72173E-05-6.61744E-24
 -1       971 2.60127E-06 6.35993E-05-3.30872E-24
 -1       972 2.44930E-06 6.68982E-05 0.00000E+00
 -1       973 2.29680E-06 7.03010E-05 3.30872E-24
 -1       974 2.14371E-06 7.37916E-05 1.65436E-24
 -1       975 1.99028E-06 7.73541E-05-3.30872E-24
 -1       976 1.83662E-06 8.09721E-05 0.00000E+00
 -1       977 1.68279E-06 8.46298E-05 3.30872E-24
 -1       978 1.52887E-06 8.83109E-05 0.00000E+00
 -1       979 1.37493E-06 9.19992E-05 0.00000E+00
 -1       980 1.22105E-06 9.56787E-05 0.00000E+00
 -1       981 1.06731E-06 9.93332E-05 3.30872E-24
 -1       982 9.13824E-07 1.02947E-04 0.00000E+00
 -1       983 7.60718E-07 1.06503E-04-3.30872E-24
 -1       984 6.08479E-07 1.09986E-04 1.65436E-24
 -1       985 4.56936E-07 1.13379E-04 3.30872E-24
 -3
    1PSTEP                         2           1           1          
  100CL  101 1.000000000         841                     0    1           1
 -4  STRESS      6    1
 -5  SXX         1    4    1    1
 -5  SYY         1    4    2    2
 -5  SZZ         1    4    3    3
 -5  SXY         1    4    1    2
 -5  SYZ         1    4    2    3
 -5  SZX         1    4    3    1
 -1         1-1.44088E+06-4.54364E+05-3.83533E+04-6.30034E+05 1.72198E-10 2.82550E-09
 -1         2-8.42156E+05 2.56243E+04 1.46070E+03-1.52868E+05-8.43556E-11-5.76165E-09
 -1         3-2.72930E+05-3.83697E+04 5.06289E+02-7.02605E+04 1.00613E-10 7.27596E-12
 -1         4-3.48773E+04 1.40774E+03 1.15333E+02-1.64669E+04-4.43379E-12 1.59275E-10
 -1         5 6.70229E+04 7.03796E+05-3.46531E+04-8.36350E+03 5.49335E-10-2.87403E-09
 -1         8-2.07234E+05-2.75689E+05 6.05167E+03-4.67800E+05 7.09406E-11-1.67347E-10
 -1         9-5.48375E+05-5.22418E+04-1.03003E+04-3.90871E+05-8.63717E-10-2.00210E-09
 -1        10-2.92256E+05-8.49511E+04 8.37168E+02-2.24777E+05 2.12367E-10-4.17610E-10
 -1        11-4.11137E+04-2.63981E+04 1.88051E+02-1.03595E+05 1.31475E-09 1.35393E-09
 -1        12 1.01206E+05 7.12043E+05-3.17671E+04 3.53785E+04 4.30305E-10 5.52418E-09
 -1        15 1.76040E+04 1.14461E+04 9.11457E+02-1.60286E+05-2.98314E-10 1.81899E-10
 -1        16-2.18059E+05-5.95725E+04-5.78053E+03-3.48311E+05-4.28069E-10 4.85064E-10
 -1        17-2.21822E+05-1.00324E+05 1.22801E+04-3.53609E+05-6.16637E-10-1.79474E-10
 -1        18-3.79461E+04-5.49946E+04-2.70423E+03-2.58577E+05 2.45321E-09 7.99143E-10
 -1        19 2.67795E+05 4.07154E+05-1.16713E+04 2.24840E+04-1.72743E-09 3.07106E-09
 -1        20 1.14038E+05-5.34051E+04-5.87412E+03 7.49835E+04 1.09875E-08-3.21052E-10
 -1        21-1.21948E+04-1.26106E+05-5.30268E+02 9.82871E+03 5.20658E-08 8.08100E-10
 -1        22 3.15715E+04 1.78496E+05 4.63108E+02-1.07473E+05 4.63842E-11-9.14952E-10
 -1        23-1.26493E+05-1.62056E+03 6.94277E+02-2.07368E+05-1.99482E-10-6.58171E-10
 -1        24-2.92303E+05-5.05133E+04 2.20306E+04-3.41426E+05-4.95978E-10-1.55463E-09
 -1        25-8.88315E+04-4.88345E+04 3.12471E+04-3.52609E+05 2.63753E-10 8.05206E-10
 -1        26-2.77460E+04 2.44217E+05 5.18528E+03-1.10092E+05-2.60646E-09 5.61916E-10
 -1        27 8.37554E+03-3.13174E+04-9.19675E+03 1.20534E+05-7.24564E-10-6.41497E-10
 -1        28-1.73001E+03-8.91945E+04-4.89457E+02 5.23627E+04 3.94271E-08-1.91970E-09
 -1        29 3.71477E+05 2.91136E+05 8.99402E+02-7.98058E+04-6.81553E-11-1.20463E-09
 -1        30 1.28462E+05 3.25537E+04 6.22556E+02-1.00943E+05 9.67901E-11-2.53749E-10
 -1        31-3.68459E+05 1.82353E+04 1.21807E+03-1.51615E+05-4.51024E-10 3.63798E-12
 -1        32-3.75761E+05-6.29325E+04 3.81051E+04-3.40907E+05 2.09165E-09 1.33514E-09
 -1        33-8.67595E+04 1.39736E+05 4.09995E+04-1.59138E+05 2.33985E-09 1.64869E-09
 -1        34-2.16126E+05-1.96238E+04 2.36549E+03 7.65828E+04 3.39263E-09-2.48366E-09
 -1        35-3.80068E+04-3.14584E+04-3.90134E+02 7.51866E+04 2.15477E-08 5.54185E-10
 -1        36-1.96074E+06-1.64330E+03-2.39607E+04-1.15251E-08 3.43680E-10 1.48430E-09
 -1        37-1.96710E+06-3.72487E+03-1.35567E+04 8.68249E-09 1.64742E-09 7.60338E-10
 -1        38-1.96363E+06 8.98295E+00-5.98126E+03 6.97374E-09-2.66537E-10-7.70569E-10
 -1        39-1.96398E+06-1.63624E+02-3.14212E+03 1.47649E-09-8.38098E-10-7.15318E-10
 -1        40-1.96384E+06 2.47006E+01-1.58418E+03-1.67150E-08-5.50689E-10 2.20422E-09
 -1        41-1.96375E+06-1.40943E+00-9.67085E+02-1.68203E-08 7.04788E-10 1.69432E-09
 -1        42-1.96386E+06 1.45298E+01-7.88084E+02-1.15380E-08 5.53222E-10 4.41169E-09
 -1        43-1.96375E+06 6.14448E+00-1.04565E+03-1.13792E-08 1.54630E-10 5.33747E-09
 -1        44-1.96384E+06 3.24103E+01-1.78374E+03-7.26511E-09-1.58993E-10-2.10918E-09
 -1        45-1.96389E+06-1.38560E+01-3.51664E+03 4.91303E-09-1.48719E-09 2.97177E-10
 -1        46-1.96372E+06 1.05108E+02-6.83464E+03 2.81177E-09 5.88705E-10 1.92904E-09
 -1        47-1.96497E+06-7.55167E+02-1.42326E+04 1.46821E-09-9.36348E-10-4.93355E-09
 -1        48-1.96277E+06 3.93533E+01-2.74197E+04-6.15549E-09-2.56702E-10-6.43922E-10
 -1        49-1.97934E+06-1.71475E+04-6.23497E+04-5.71345E-09-1.53782E-10 2.58296E-10
 -1        50-1.94942E+06-7.55564E+03-1.10243E+05-9.70067E-09 3.85527E-10 1.63709E-09
 -1        51 2.45383E+04-6.97587E+05 9.90573E+04-7.66259E+05-4.36557E-11-3.49246E-10
 -1        52 1.76476E+04-6.80275E+05 5.19978E+04-1.00967E+06 7.27596E-12-4.65297E-09
 -1        53 5.68861E+03-6.97419E+05 1.97936E+04-7.63594E+05-1.09139E-10 2.13186E-09
 -1        54 7.42900E+03-7.01588E+05 2.77403E+03-1.01141E+06-5.09317E-11 2.15732E-09
 -1        55 1.68856E+03-6.96332E+05-1.31570E+04-7.64419E+05-9.90212E-11 4.34011E-09
 -1        56-2.53655E+06-3.67789E+05-1.09687E+05-9.61289E+05-5.45697E-11-1.76806E-09
 -1        57-2.56232E+06-3.91385E+05-6.09986E+04-9.72569E+05-1.76442E-10-3.04590E-09
 -1        58-2.54901E+06-3.66711E+05-2.50475E+04-9.67191E+05 3.81988E-10 2.60843E-09
 -1        59-2.54615E+06-3.73127E+05-1.26209E+04-9.73424E+05-1.59548E-09-1.66949E-09
 -1        60-2.54993E+06-3.66968E+05-5.80016E+03-9.67539E+05 5.95719E-11-3.39750E-09
 -1        61-2.54503E+06-3.72084E+05-3.05196E+03-9.73238E+05 4.25189E-11-2.89765E-09
 -1        62-2.54998E+06-3.67089E+05-1.85677E+03-9.67605E+05-2.71029E-10-1.05229E-09
 -1        63-2.54504E+06-3.71933E+05-1.85368E+03-9.73080E+05 6.58474E-10 2.83580E-09
 -1        64-2.54989E+06-3.67144E+05-2.82127E+03-9.67670E+05-3.31966E-10 2.80988E-09
 -1        65-2.54541E+06-3.71891E+05-5.60671E+03-9.72960E+05-1.12777E-09 1.24760E-09
 -1        66-2.54956E+06-3.67091E+05-1.12377E+04-9.67722E+05-5.28871E-10-2.28192E-09
 -1        67-2.54792E+06-3.73624E+05-2.47659E+04-9.72915E+05 1.89539E-09 7.58337E-09
 -1        68-2.54755E+06-3.66763E+05-4.92910E+04-9.67202E+05-1.71440E-10 2.43017E-09
 -1        69-2.58011E+06-4.09219E+05-1.20105E+05-9.70780E+05-2.46609E-09-2.95586E-09
 -1        70-2.52280E+06-3.69044E+05-2.15927E+05-9.55755E+05-2.34286E-09 3.25963E-09
 -1        71-6.43288E+05 1.22807E+03 1.78073E+04-7.24640E-09-2.75046E-10 5.06589E-10
 -1        72-6.38370E+05 2.76567E+03 1.00649E+04 8.82687E-09 6.57091E-10 2.94710E-09
 -1        73-6.41130E+05-5.97721E+00 4.42241E+03-6.02171E-09-5.80780E-10 5.08635E-10
 -1        74-6.40689E+05 1.21807E+02 2.28316E+03-3.24020E-09 2.26247E-10-6.57678E-10
 -1        75-6.40975E+05-1.63512E+01 1.07139E+03-5.45409E-09 7.27426E-10 5.33242E-09
 -1        76-6.40866E+05 2.75148E+00 4.99942E+02-5.24536E-09-3.82918E-10 4.04310E-09
 -1        77-6.40954E+05-2.70692E+00 1.52940E+02-1.05129E-08 3.10979E-12 1.99472E-09
 -1        78-6.40898E+05 6.36444E-01-1.07879E+02 5.38249E-09 6.95957E-10-2.02751E-09
 -1        79-6.40943E+05 7.54852E+00-4.18227E+02-1.01490E-08-3.70345E-10-9.27145E-10
 -1        80-6.40945E+05-4.29974E+00-9.62225E+02 2.56556E-09 1.07352E-09 1.92578E-09
 -1        81-6.40907E+05 2.97250E+01-1.93908E+03 1.22506E-08 2.00203E-11 3.87786E-10
 -1        82-6.41258E+05-2.16169E+02-4.07305E+03 1.69835E-08-8.63094E-10-3.89809E-09
 -1        83-6.40633E+05 1.08100E+01-7.86234E+03-2.10409E-09-4.86428E-10 1.09821E-09
 -1        84-6.45374E+05-4.91153E+03-1.78782E+04-6.93217E-09-2.20556E-10 8.33097E-10
 -1        85-6.36798E+05-2.17933E+03-3.16198E+04-6.29962E-09-1.55720E-10-5.91172E-10
 -1        86 8.97395E+03 5.47985E+05 1.39206E+05-1.43318E+05 9.53150E-10-2.47383E-10
 -1        87 2.19625E+04 5.85597E+05 8.88735E+04-2.26883E+05-4.48381E-10-1.79170E-09
 -1        88 2.54430E+02 5.62585E+05 5.94133E+04-1.42756E+05 1.93177E-09 5.67525E-10
 -1        89 1.84373E+04 5.81348E+05 7.72261E+04-2.27257E+05-6.22094E-10 2.11185E-09
 -1        90 7.86316E+03 5.50486E+05 1.14233E+05-1.42898E+05 2.04454E-09-1.56115E-09
 -1        91-1.07219E+06-1.57704E+05-3.73639E+04-4.09678E+05-1.04592E-10 1.48248E-09
 -1        92-1.07907E+06-1.67590E+05-2.07751E+04-4.15678E+05-4.61625E-10-3.02953E-09
 -1        93-1.07647E+06-1.57300E+05-8.53824E+03-4.11675E+05-2.25441E-10-2.92084E-09
 -1        94-1.07355E+06-1.61410E+05-4.30422E+03-4.16005E+05 4.34738E-10-4.65070E-09
 -1        95-1.07679E+06-1.57378E+05-1.98116E+03-4.11785E+05 5.75483E-10-2.48555E-09
 -1        96-1.07315E+06-1.61073E+05-1.04714E+03-4.15962E+05-2.19643E-10-7.97513E-10
 -1        97-1.07682E+06-1.57410E+05-6.44669E+02-4.11799E+05 5.68434E-10 2.88310E-10
 -1        98-1.07314E+06-1.61037E+05-6.56967E+02-4.15926E+05 1.42904E-10 2.58751E-10
 -1        99-1.07679E+06-1.57421E+05-1.01195E+03-4.11812E+05-2.27374E-10-2.98678E-09
 -1       100-1.07325E+06-1.61042E+05-2.01856E+03-4.15906E+05 7.33280E-10-5.85260E-10
 -1       101-1.07668E+06-1.57391E+05-4.04894E+03-4.11817E+05-1.64209E-09 1.75123E-09
 -1       102-1.07413E+06-1.61686E+05-8.92005E+03-4.15911E+05-3.85626E-10 4.40241E-09
 -1       103-1.07596E+06-1.57265E+05-1.77496E+04-4.11615E+05 3.29464E-09 6.65750E-09
 -1       104-1.08570E+06-1.74462E+05-4.32143E+04-4.15127E+05-1.38641E-10-9.02219E-10
 -1       105-1.06702E+06-1.58153E+05-7.77228E+04-4.07509E+05-1.90585E-09 1.44064E-09
 -1       106-1.00263E+05 1.44751E+03 2.09526E+04-9.44874E-09-1.92176E-10-1.20326E-09
 -1       107-9.45343E+04 3.25251E+03 1.18458E+04 1.62452E-08-8.02950E-10 2.40789E-10
 -1       108-9.77217E+04-7.06492E+00 5.21184E+03 3.97354E-09 2.08266E-10 1.37561E-10
 -1       109-9.72601E+04 1.43062E+02 2.70216E+03-6.83610E-09-1.23084E-10 1.60151E-09
 -1       110-9.75391E+04-1.98006E+01 1.29076E+03-8.54318E-10-4.29974E-10-2.39243E-09
 -1       111-9.74663E+04 2.74907E+00 6.48912E+02 1.97855E-08 7.26806E-10-5.12973E-09
 -1       112-9.75157E+04-5.40978E+00 2.98987E+02 2.25076E-09 1.93680E-10-1.28829E-09
 -1       113-9.74958E+04-6.84028E-01 1.15824E+02-3.57453E-09 5.76986E-10 1.54724E-09
 -1       114-9.75097E+04 2.13027E-01-1.41825E+01-1.10740E-08-6.01839E-10 6.57899E-10
 -1       115-9.75098E+04-1.09776E+00-1.52711E+02 6.22334E-09 6.80885E-10-8.85201E-10
 -1       116-9.75018E+04 5.45250E+00-3.59539E+02-3.15997E-09-3.44788E-10-2.03892E-09
 -1       117-9.75714E+04-4.19459E+01-7.81597E+02 1.32953E-08-2.16434E-09 1.75208E-09
 -1       118-9.74481E+04 1.98908E+00-1.52080E+03-5.85327E-09-8.73227E-10 3.94721E-10
 -1       119-9.83694E+04-9.51897E+02-3.46463E+03-3.83727E-09 6.37254E-10 1.12908E-09
 -1       120-9.67039E+04-4.23472E+02-6.13054E+03 1.04114E-09 1.15587E-09-5.05906E-10
 -1       121 1.82339E+03-2.98329E+04 2.93525E+04-7.90977E+04-2.16460E-10 3.65617E-09
 -1       122 4.66882E+03-2.19189E+04 1.98650E+04-1.25469E+05 9.37689E-10-4.22006E-10
 -1       123 8.05759E+01-2.69818E+04 1.52616E+04-7.87749E+04-2.15095E-10 9.49512E-10
 -1       124 5.76446E+03-2.12815E+04 2.28106E+04-1.25695E+05 1.08957E-09-2.17005E-09
 -1       125 2.49635E+03-3.09619E+04 3.57388E+04-7.88643E+04-5.63887E-11-2.64663E-09
 -1       126-4.16530E+05-6.47972E+04-1.54231E+04-1.63817E+05-8.04448E-10 9.04947E-10
 -1       127-4.17373E+05-7.08710E+04-8.57519E+03-1.68587E+05 1.46770E-10-2.16778E-09
 -1       128-4.18314E+05-6.46096E+04-3.52638E+03-1.64624E+05-5.21823E-11 9.92259E-10
 -1       129-4.15076E+05-6.83407E+04-1.77900E+03-1.68745E+05 3.73461E-10-1.86541E-09
 -1       130-4.18452E+05-6.46392E+04-8.21715E+02-1.64668E+05-1.17495E-10-1.66679E-09
 -1       131-4.14910E+05-6.82051E+04-4.39875E+02-1.68732E+05 1.62913E-10-1.33718E-09
 -1       132-4.18463E+05-6.46508E+04-2.81561E+02-1.64671E+05-6.50743E-10-1.18075E-09
 -1       133-4.14902E+05-6.81952E+04-3.04262E+02-1.68721E+05 3.07409E-10-5.57407E-09
 -1       134-4.18452E+05-6.46531E+04-4.85178E+02-1.64673E+05-2.00771E-10 1.60048E-09
 -1       135-4.14950E+05-6.82041E+04-9.78838E+02-1.68716E+05 4.91241E-10 7.18319E-09
 -1       136-4.18400E+05-6.46377E+04-1.96875E+03-1.64671E+05-6.58019E-10-8.89486E-10
 -1       137-4.15366E+05-6.85234E+04-4.33744E+03-1.68723E+05-1.61708E-09 1.09094E-09
 -1       138-4.18049E+05-6.45753E+04-8.63247E+03-1.64567E+05-6.52108E-10 2.87719E-09
 -1       139-4.21005E+05-7.47118E+04-2.10081E+04-1.68315E+05 1.21304E-09 2.40971E-09
 -1       140-4.13668E+05-6.50404E+04-3.77878E+04-1.62593E+05 9.98170E-11 3.25417E-09
 -1       141-1.90268E+04 1.02182E+02 1.47379E+03-3.38275E-09-2.75229E-10-3.53111E-10
 -1       142-1.86221E+04 2.29504E+02 8.25168E+02 5.23195E-09-4.44850E-10 1.79499E-09
 -1       143-1.88471E+04-9.19644E-02 3.46052E+02-2.78208E-09 1.85304E-10 4.17970E-10
 -1       144-1.88159E+04 1.04598E+01 1.46036E+02 1.97125E-09-4.98281E-10 5.46265E-11
 -1       145-1.88330E+04 2.59947E-01 2.93557E+00-1.24705E-09 8.30010E-10-5.51594E-10
 -1       146-1.88365E+04 1.61328E+00-1.34162E+02 5.91373E-09-1.40002E-09-1.54538E-09
 -1       147-1.88265E+04 6.24691E+00-3.33558E+02-8.26630E-09-2.08483E-10 3.22572E-09
 -1       148-1.88641E+04 4.23007E+00-7.16030E+02-8.66004E-10 7.31180E-10 1.50875E-09
 -1       149-1.88055E+04 2.58813E+01-1.42709E+03 1.35367E-09 5.19595E-10-2.63412E-10
 -1       150-1.89882E+04-1.18116E+01-2.93325E+03 1.24167E-08-2.38159E-10 2.27800E-09
 -1       151-1.87024E+04 8.84459E+01-5.75934E+03 6.65972E-09-3.55429E-10 4.31965E-09
 -1       152-1.99023E+04-6.35444E+02-1.20179E+04-4.77240E-09 1.87242E-10 4.26280E-09
 -1       153-1.78908E+04 3.16217E+01-2.31594E+04-7.19672E-09-5.70073E-10 1.54614E-10
 -1       154-3.20104E+04-1.44492E+04-5.26289E+04 9.57607E-09 3.72825E-10-3.07773E-09
 -1       155-6.58087E+03-6.42197E+03-9.30487E+04-6.27551E-09 3.13855E-10-2.29193E-09
 -1       156 3.41665E+02 2.17421E+04 5.85196E+03-3.39092E+04 5.84805E-10-8.27640E-11
 -1       157 9.26615E+02 2.33229E+04 4.14975E+03-5.36929E+04 1.81353E-09 4.36557E-10
 -1       158 1.22849E+01 2.22688E+04 3.50071E+03-3.37389E+04 1.32627E-09-2.72757E-09
 -1       159 1.46260E+03 2.36897E+04 5.64484E+03-5.38579E+04 2.74076E-09-2.56296E-09
 -1       160 6.44109E+02 2.12178E+04 9.08553E+03-3.37429E+04 1.67847E-09 1.80080E-09
 -1       161-3.58485E+04-4.70845E+03-5.96819E+02-1.29718E+04-7.41920E-10 4.63899E-09
 -1       162-3.61789E+04-4.64242E+03-3.36388E+02-1.28115E+04-1.73748E-09 4.52154E-09
 -1       163-3.58990E+04-4.71870E+03-1.48393E+02-1.30234E+04-4.44061E-10 1.69689E-09
 -1       164-3.61100E+04-4.52596E+03-9.52455E+01-1.27964E+04 1.42472E-09 4.41727E-09
 -1       165-3.59035E+04-4.72049E+03-8.69302E+01-1.30264E+04-1.40744E-10-2.65089E-09
 -1       166-3.61092E+04-4.51916E+03-1.34531E+02-1.27962E+04-1.47111E-09-5.84549E-10
 -1       167-3.58991E+04-4.71720E+03-2.52933E+02-1.30269E+04-2.21235E-10 3.55755E-09
 -1       168-3.61299E+04-4.52046E+03-5.31450E+02-1.28033E+04-4.46335E-10 3.16663E-09
 -1       169-3.58807E+04-4.70162E+03-1.08641E+03-1.30260E+04-1.42677E-10 2.02851E-09
 -1       170-3.62455E+04-4.56301E+03-2.34434E+03-1.28345E+04-1.52517E-09 1.68478E-09
 -1       171-3.57788E+04-4.63687E+03-4.78601E+03-1.30102E+04-1.68041E-09 3.97085E-09
 -1       172-3.72441E+04-5.37568E+03-1.05888E+04-1.29136E+04-7.66079E-10 5.84828E-09
 -1       173-3.49610E+04-4.44782E+03-2.10836E+04-1.27373E+04 2.71484E-10 5.40967E-09
 -1       174-5.08535E+04-2.06682E+04-5.13240E+04-1.21536E+04-5.31827E-10 9.76797E-10
 -1       175-2.44237E+04-5.41046E+03-9.22933E+04-7.73333E+03-2.31739E-09-1.14596E-09
 -1       191 1.78650E+04 1.63139E+06 7.23469E+04-1.29661E+04-5.23869E-10 2.16460E-10
 -1       192 8.88558E+03 1.64778E+06 4.44831E+04-1.68036E+04-9.69976E-10 1.23873E-09
 -1       193 6.47758E+02 1.63798E+06 3.20273E+04-1.28614E+04-1.22679E-09-4.09273E-11
 -1       194 8.55490E+03 1.64746E+06 4.33218E+04-1.69584E+04-2.30648E-09 6.64841E-09
 -1       195 1.71550E+04 1.63167E+06 6.96776E+04-1.27974E+04-1.58980E-09 5.20777E-09
 -1       251 5.54973E+05 5.73990E+03 1.04355E+05-9.51426E+04-8.07631E-10 2.92857E-10
 -1       252 5.84078E+05 1.51367E+04 5.91631E+04-1.50242E+05 8.69477E-10 8.94943E-10
 -1       253 5.66789E+05-8.32337E+02 2.59047E+04-9.43756E+04-1.05501E-10 1.76806E-09
 -1       254 5.69093E+05 2.47108E+02 1.35558E+04-1.50875E+05-4.54747E-11 4.14366E-09
 -1       255 5.67023E+05-3.70121E+02 6.51588E+03-9.44365E+04-2.72848E-10 1.95359E-09
 -1       256 5.67178E+05 1.53139E+01 3.52200E+03-1.50767E+05 5.72982E-11-2.27737E-09
 -1       257 5.66718E+05 1.67208E+01 2.02054E+03-9.44897E+04 1.18234E-10-1.69348E-09
 -1       258 5.66608E+05 2.38261E+02 1.68537E+03-1.50692E+05-2.13731E-11 4.39286E-09
 -1       259 5.66566E+05 1.33735E+02 2.08260E+03-9.45116E+04-4.49177E-10 3.66981E-09
 -1       260 5.66689E+05 2.77716E+02 3.63626E+03-1.50685E+05 1.69166E-10 2.14641E-09
 -1       261 5.66562E+05-1.92962E+01 6.79121E+03-9.44964E+04 1.04592E-09 2.54840E-09
 -1       262 5.68138E+05 7.94806E+02 1.40193E+04-1.50720E+05-7.80346E-10-2.38447E-09
 -1       263 5.65992E+05-2.40912E+02 2.68637E+04-9.44745E+04-4.40195E-10-1.01863E-09
 -1       264 5.83039E+05 1.64241E+04 6.11122E+04-1.50217E+05 2.91038E-10 4.22006E-09
 -1       265 5.53480E+05 6.80343E+03 1.07925E+05-9.50395E+04-8.25821E-10 1.46247E-09
 -1       266 3.23272E+03-1.26579E+05 3.76755E+04-9.16739E+04 5.45697E-11-1.16324E-09
 -1       267 6.71282E+03-1.16436E+05 1.99229E+04-1.46727E+05-4.36842E-11-1.52795E-10
 -1       268 3.61116E+02-1.21537E+05 5.92593E+03-9.17426E+04-1.13687E-10-4.65661E-10
 -1       269-1.37147E+03-1.22606E+05-3.25124E+03-1.46167E+05-1.20053E-10 2.90129E-09
 -1       270-1.01496E+03-1.19008E+05-1.23638E+04-9.22711E+04-3.54703E-10 2.87764E-09
 -1       271-1.44371E+06-2.62731E+05-1.10107E+05-6.14492E+05 3.16504E-10-1.81171E-09
 -1       272-1.44292E+06-3.12165E+05-6.10982E+04-6.55713E+05-2.47383E-10 1.43336E-09
 -1       273-1.45734E+06-2.60582E+05-2.52262E+04-6.20033E+05-2.54659E-11-1.67347E-10
 -1       274-1.42661E+06-2.94586E+05-1.26324E+04-6.58164E+05 8.25821E-10 6.47560E-10
 -1       275-1.45889E+06-2.60315E+05-5.82499E+03-6.20394E+05 4.83851E-10-4.37012E-10
 -1       276-1.42565E+06-2.93734E+05-2.94842E+03-6.58807E+05-7.90351E-10-4.01565E-09
 -1       277-1.45937E+06-2.60084E+05-1.65174E+03-6.20447E+05-4.76575E-10-1.25891E-09
 -1       278-1.42567E+06-2.93738E+05-1.37691E+03-6.59163E+05-4.64297E-10-2.76475E-09
 -1       279-1.45950E+06-2.59965E+05-1.85145E+03-6.20463E+05 4.54747E-11 3.09683E-10
 -1       280-1.42583E+06-2.93803E+05-3.52341E+03-6.59238E+05-3.78577E-10-4.34738E-10
 -1       281-1.45927E+06-2.59946E+05-7.00399E+03-6.20431E+05-1.02682E-09-3.55249E-09
 -1       282-1.42720E+06-2.94932E+05-1.53861E+04-6.59035E+05-6.00267E-10-2.45927E-09
 -1       283-1.45777E+06-2.59946E+05-3.06542E+04-6.20025E+05-2.58296E-10-4.91127E-10
 -1       284-1.44708E+06-3.16736E+05-7.45420E+04-6.56922E+05 6.18456E-11 2.91038E-11
 -1       285-1.44171E+06-2.62019E+05-1.34165E+05-6.13074E+05-1.06320E-09 2.45200E-09
 -1       286 3.12852E+04 3.57038E+03 5.69374E+04-5.02719E+04 1.38789E-09-9.22228E-10
 -1       287 4.69802E+04 8.59743E+03 3.22347E+04-7.91544E+04-6.54836E-11-4.16549E-10
 -1       288 3.79660E+04-2.01914E+02 1.41540E+04-4.98407E+04 4.54747E-11 1.63709E-09
 -1       289 3.92008E+04 3.04939E+02 7.37833E+03-7.95799E+04 4.00178E-11 4.03543E-09
 -1       290 3.82842E+04-9.88954E+01 3.55166E+03-4.98266E+04 7.20320E-10 7.55790E-10
 -1       291 3.84119E+04 4.42389E+01 1.88053E+03-7.95933E+04 5.82077E-11 5.37511E-10
 -1       292 3.82401E+04 1.87137E+01 1.03337E+03-4.98284E+04 2.71029E-10 2.34604E-09
 -1       293 3.82363E+04 9.19648E+01 7.69812E+02-7.95917E+04 4.06544E-10-1.29148E-09
 -1       294 3.82124E+04 4.63924E+01 8.49153E+02-4.98284E+04 6.97014E-10-1.19462E-09
 -1       295 3.82838E+04 9.59544E+01 1.39982E+03-7.95918E+04 9.05629E-10-8.52197E-10
 -1       296 3.82129E+04-1.07966E+01 2.57024E+03-4.98282E+04 5.48425E-10 7.53062E-10
 -1       297 3.88091E+04 3.01164E+02 5.28240E+03-7.95795E+04 1.64800E-09-7.22480E-10
 -1       298 3.79748E+04-7.50917E+01 1.01161E+04-4.98402E+04-1.43700E-10-1.98986E-09
 -1       299 4.43573E+04 6.21721E+03 2.30060E+04-7.92373E+04-3.81988E-10-2.38629E-10
 -1       300 3.32178E+04 2.60828E+03 4.06320E+04-5.01784E+04 1.21872E-10 1.48430E-09
 -1       301 1.94727E+04 1.48316E+05 7.23532E+04-3.87467E+05-7.23958E-10 1.14233E-09
 -1       302 1.16053E+04 1.63525E+05 4.22956E+04-5.11094E+05-6.11180E-10-1.91812E-09
 -1       303 2.58638E+03 1.54033E+05 2.62886E+04-3.86657E+05-1.50612E-09-3.93186E-09
 -1       304 8.00266E+03 1.60171E+05 2.98248E+04-5.11130E+05-2.03727E-10-3.32875E-09
 -1       305 1.17668E+04 1.51477E+05 4.36791E+04-3.87443E+05-1.42427E-09 2.16824E-09
 -1       306-1.65971E+06-2.69619E+05-1.27213E+05-6.64734E+05-1.23691E-10-3.87081E-09
 -1       307-1.67687E+06-3.09551E+05-7.07092E+04-6.92418E+05 1.23418E-09 6.39375E-10
 -1       308-1.67468E+06-2.67866E+05-2.90683E+04-6.71291E+05 4.18368E-11-1.60435E-09
 -1       309-1.65785E+06-2.88864E+05-1.46096E+04-6.94179E+05 4.18368E-10-9.57243E-10
 -1       310-1.67602E+06-2.67932E+05-6.67522E+03-6.71610E+05-1.61890E-10-1.22236E-09
 -1       311-1.65646E+06-2.87851E+05-3.39885E+03-6.94361E+05 2.10093E-10 7.08354E-10
 -1       312-1.67627E+06-2.67917E+05-1.86538E+03-6.71610E+05 5.54792E-11 3.26963E-09
 -1       313-1.65633E+06-2.87834E+05-1.52967E+03-6.94437E+05 1.51181E-09-1.92017E-09
 -1       314-1.67628E+06-2.67904E+05-2.00087E+03-6.71607E+05-2.25100E-10-1.09503E-09
 -1       315-1.65648E+06-2.87874E+05-3.76189E+03-6.94409E+05 7.03039E-10 4.86580E-09
 -1       316-1.67603E+06-2.67886E+05-7.44231E+03-6.71600E+05 7.29415E-10 1.65892E-09
 -1       317-1.65804E+06-2.89037E+05-1.63355E+04-6.94282E+05 2.77851E-10 3.94721E-10
 -1       318-1.67458E+06-2.67768E+05-3.25034E+04-6.71231E+05 3.49246E-10 3.14139E-09
 -1       319-1.67928E+06-3.12265E+05-7.91030E+04-6.92456E+05-9.64064E-11-1.13505E-09
 -1       320-1.65793E+06-2.69634E+05-1.42287E+05-6.63837E+05-1.57479E-09-2.66300E-09
 -1       321 2.02919E+05 3.86741E+03 5.73231E+04-2.74544E+04 2.91038E-10-1.61344E-09
 -1       322 2.18587E+05 8.83171E+03 3.24208E+04-4.32978E+04-9.39963E-10 1.02409E-09
 -1       323 2.09810E+05-6.60616E+01 1.42643E+04-2.72435E+04-5.82077E-11-1.53705E-09
 -1       324 2.11030E+05 3.71126E+02 7.41675E+03-4.35006E+04 3.87445E-10-1.47475E-09
 -1       325 2.10261E+05-6.41308E+01 3.57160E+03-2.72409E+04-3.43789E-10 5.71163E-10
 -1       326 2.10408E+05 1.89403E+01 1.86269E+03-4.34989E+04-2.27374E-13-1.42245E-09
 -1       327 2.10297E+05-6.57870E+00 9.86815E+02-2.72457E+04 1.92358E-10-3.34990E-09
 -1       328 2.10314E+05 2.15306E+01 6.61353E+02-4.34934E+04-7.41693E-10-6.78665E-09
 -1       329 2.10299E+05 3.17653E+00 6.36539E+02-2.72465E+04 9.60654E-11-2.18279E-11
 -1       330 2.10345E+05 2.23268E+01 9.64836E+02-4.34949E+04-1.10072E-09 5.11750E-09
 -1       331 2.10290E+05-2.54662E+01 1.72445E+03-2.72442E+04 1.16825E-09 8.65612E-10
 -1       332 2.10653E+05 1.79353E+02 3.51438E+03-4.34955E+04 1.17143E-09-5.13273E-09
 -1       333 2.10095E+05-3.87376E+01 6.72452E+03-2.72456E+04 4.32010E-10 5.47971E-10
 -1       334 2.14248E+05 4.14555E+03 1.52710E+04-4.33153E+04-8.08996E-10 5.16764E-09
 -1       335 2.06875E+05 1.79134E+03 2.69833E+04-2.74283E+04-1.16597E-09 1.50976E-09
 -1       336 2.49286E+03-3.88662E+04 3.49135E+04-2.37988E+05-5.74801E-10 2.43017E-09
 -1       337 6.93989E+03-3.02954E+04 2.31176E+04-3.78201E+05 2.69938E-09 2.26282E-09
 -1       338 1.02710E+03-3.61616E+04 1.65953E+04-2.37280E+05-4.31100E-10 1.47429E-09
 -1       339 7.22501E+03-3.07248E+04 2.32977E+04-3.78358E+05 2.71393E-09 2.52612E-09
 -1       340 2.95593E+03-3.94658E+04 3.53842E+04-2.37824E+05-3.63798E-11 2.82853E-09
 -1       341-1.04536E+06-1.69481E+05-7.67972E+04-4.18496E+05-3.47882E-10 1.51340E-09
 -1       342-1.05513E+06-1.94226E+05-4.26921E+04-4.35951E+05 3.06591E-09 4.79895E-09
 -1       343-1.05433E+06-1.68482E+05-1.75493E+04-4.22482E+05 4.12820E-09 6.11362E-09
 -1       344-1.04367E+06-1.81685E+05-8.82907E+03-4.36883E+05-2.67755E-09-3.02794E-09
 -1       345-1.05508E+06-1.68573E+05-4.03952E+03-4.22686E+05-7.11225E-10 8.10132E-10
 -1       346-1.04283E+06-1.81045E+05-2.07868E+03-4.36907E+05 1.15415E-09 4.57612E-09
 -1       347-1.05519E+06-1.68598E+05-1.17591E+03-4.22694E+05-3.20142E-10 2.60002E-10
 -1       348-1.04276E+06-1.81016E+05-1.03099E+03-4.36904E+05-3.21791E-10 4.01997E-10
 -1       349-1.05517E+06-1.68604E+05-1.42687E+03-4.22696E+05 3.35604E-10-3.66254E-09
 -1       350-1.04287E+06-1.81043E+05-2.74085E+03-4.36878E+05-6.48470E-10-3.48109E-09
 -1       351-1.05500E+06-1.68579E+05-5.45013E+03-4.22689E+05-8.86757E-11-3.15777E-09
 -1       352-1.04402E+06-1.81911E+05-1.19749E+04-4.36838E+05 2.91038E-11-2.11003E-10
 -1       353-1.05399E+06-1.68451E+05-2.38270E+04-4.22407E+05 1.80989E-10-2.48110E-09
 -1       354-1.05956E+06-1.98983E+05-5.79830E+04-4.35623E+05-1.05047E-10-6.49743E-09
 -1       355-1.04185E+06-1.69755E+05-1.04288E+05-4.16952E+05 1.73304E-09-2.03727E-09
 -1       356 1.78470E+05 1.65106E+03 2.42242E+04-1.16299E+04 4.87034E-10 3.14867E-09
 -1       357 1.85080E+05 3.73955E+03 1.36919E+04-1.83587E+04-2.74440E-10-4.50882E-10
 -1       358 1.81399E+05-2.23389E+01 6.00990E+03-1.15387E+04-1.80080E-10-1.47975E-09
 -1       359 1.81908E+05 1.53400E+02 3.09213E+03-1.84474E+04-6.77574E-11-5.47811E-09
 -1       360 1.81602E+05-2.88374E+01 1.42644E+03-1.15380E+04 4.41105E-11-5.55019E-10
 -1       361 1.81652E+05-1.60310E+00 6.16216E+02-1.84468E+04 1.21702E-09-1.90812E-09
 -1       362 1.81627E+05-4.20694E+00 8.05079E+01-1.15394E+04-2.09184E-11 2.45529E-09
 -1       363 1.81594E+05-3.96436E-01-4.07645E+02-1.84447E+04-1.44792E-09-1.40528E-09
 -1       364 1.81648E+05 1.78769E+01-1.08339E+03-1.15401E+04-3.29294E-10-1.78636E-09
 -1       365 1.81486E+05-1.32344E+01-2.36331E+03-1.84450E+04 2.22894E-09 2.26692E-09
 -1       366 1.81736E+05 6.85742E+01-4.70672E+03-1.15393E+04 7.25095E-10 2.12617E-09
 -1       367 1.80742E+05-5.28516E+02-9.85494E+03-1.84443E+04-7.10429E-10 5.35920E-10
 -1       368 1.82410E+05 1.71152E+01-1.90081E+04-1.15409E+04-6.02995E-10-2.14186E-09
 -1       369 1.70819E+05-1.18722E+04-4.31985E+04-1.83722E+04-1.77261E-09-7.61429E-09
 -1       370 1.91706E+05-5.29286E+03-7.63851E+04-1.16039E+04 1.18825E-09-1.82627E-09
 -1       371 2.77960E+02-3.85328E+04 3.00177E+03-1.60127E+05 3.25690E-09 2.46837E-09
 -1       372 1.19691E+03-3.81644E+04 2.18176E+03-2.54420E+05 7.72707E-09-2.49020E-09
 -1       373 5.06925E+02-3.87545E+04 1.74835E+03-1.59632E+05 4.71482E-09 2.41516E-09
 -1       374 1.52721E+03-3.83235E+04 2.72374E+03-2.54573E+05 8.32006E-09-2.86263E-10
 -1       375 6.50567E+02-3.90536E+04 4.22381E+03-1.59972E+05 4.22847E-09 3.16322E-09
 -1       376-2.42636E+05-5.50504E+04-2.11103E+04-1.17886E+05 1.35515E-10-3.53430E-09
 -1       377-2.36545E+05-7.06094E+04-1.17333E+04-1.32746E+05 5.14774E-10 6.89624E-09
 -1       378-2.45185E+05-5.46938E+04-4.83273E+03-1.18928E+05-3.71620E-09-1.91221E-10
 -1       379-2.33364E+05-6.72160E+04-2.44471E+03-1.33084E+05-5.19094E-10 5.03351E-09
 -1       380-2.45394E+05-5.47161E+04-1.14887E+03-1.18993E+05 1.12504E-09-1.99873E-09
 -1       381-2.33146E+05-6.70338E+04-6.55070E+02-1.33084E+05 3.51321E-09-2.02317E-09
 -1       382-2.45408E+05-5.47302E+04-4.97556E+02-1.18994E+05 2.73303E-10 1.25669E-09
 -1       383-2.33120E+05-6.70288E+04-6.56854E+02-1.33062E+05-7.13044E-10 1.27966E-09
 -1       384-2.45368E+05-5.47425E+04-1.16699E+03-1.18982E+05-1.09912E-09 7.33053E-10
 -1       385-2.33191E+05-6.70822E+04-2.41684E+03-1.33038E+05 8.18090E-10 5.50472E-10
 -1       386-2.45205E+05-5.47154E+04-4.90340E+03-1.18945E+05-1.18871E-09-2.29375E-09
 -1       387-2.34152E+05-6.79158E+04-1.08062E+04-1.33021E+05-1.58798E-09 2.91084E-09
 -1       388-2.44289E+05-5.45955E+04-2.15267E+04-1.18648E+05-1.32331E-09-2.18097E-09
 -1       389-2.48118E+05-8.33367E+04-5.23447E+04-1.31913E+05-1.43518E-09 2.91857E-09
 -1       390-2.33292E+05-5.58064E+04-9.41653E+04-1.13693E+05-1.97588E-09-3.34694E-10
 -1       406 1.64669E+04 1.61119E+06 6.84295E+04 8.45900E+04-2.59388E-09 1.12232E-09
 -1       407 8.14250E+03 1.62689E+06 4.44040E+04 1.12670E+05-4.78940E-09 3.87263E-09
 -1       408 4.42730E+02 1.61737E+06 3.59910E+04 8.46915E+04-5.10727E-09 4.11455E-09
 -1       409 1.08422E+04 1.62989E+06 5.43322E+04 1.12121E+05-8.28572E-09 1.24419E-09
 -1       410 2.22914E+04 1.60914E+06 9.12196E+04 8.52038E+04-7.11589E-09 3.78714E-09
 -1       466 8.75126E+05 5.39711E+03 8.32597E+04-5.60089E+04 2.18279E-11-1.01863E-09
 -1       467 8.97919E+05 1.26645E+04 4.71229E+04-8.86850E+04-2.18279E-10-2.37378E-10
 -1       468 8.84989E+05-2.02875E+02 2.07312E+04-5.56620E+04 3.00133E-10 1.08412E-09
 -1       469 8.86704E+05 4.87841E+02 1.08179E+04-8.89530E+04 6.36646E-12 2.18142E-09
 -1       470 8.85535E+05-1.14840E+02 5.25695E+03-5.57108E+04 8.18545E-12-7.62157E-10
 -1       471 8.85673E+05 4.56429E+01 2.85096E+03-8.88745E+04 2.23736E-10 3.77895E-10
 -1       472 8.85532E+05 5.07297E+00 1.70993E+03-5.57420E+04-1.17780E-10 1.02227E-09
 -1       473 8.85521E+05 6.61153E+01 1.52054E+03-8.88439E+04-3.09235E-10 1.76442E-09
 -1       474 8.85528E+05-1.43276E+00 2.01722E+03-5.57417E+04 3.04681E-11-1.34969E-09
 -1       475 8.85720E+05 4.71920E+01 3.63775E+03-8.88780E+04 2.00998E-10-2.84217E-10
 -1       476 8.85502E+05-1.42585E+02 6.87608E+03-5.57074E+04-9.64064E-11-1.09367E-10
 -1       477 8.87017E+05 6.64525E+02 1.42358E+04-8.89565E+04-9.59517E-10 1.23256E-09
 -1       478 8.84726E+05-2.16409E+02 2.73357E+04-5.56614E+04-1.09139E-11 4.09273E-10
 -1       479 9.01689E+05 1.67771E+04 6.21362E+04-8.86791E+04 1.63345E-09-1.20508E-09
 -1       480 8.71644E+05 7.23563E+03 1.09830E+05-5.60255E+04-5.43878E-10-2.76486E-10
 -1       481 2.23855E+03 3.18986E+05 2.94827E+04-7.85210E+04-7.45786E-11 1.80762E-09
 -1       482 5.01134E+03 3.26825E+05 1.77049E+04-1.24661E+05-2.36923E-10 4.00024E-09
 -1       483 2.49079E+02 3.22382E+05 9.84921E+03-7.83790E+04-1.74168E-10 2.77896E-09
 -1       484 2.31986E+03 3.24609E+05 9.82668E+03-1.24571E+05-1.11868E-10 1.19144E-10
 -1       485 8.98671E+02 3.21428E+05 1.24907E+04-7.86181E+04 2.32149E-10-1.40608E-09
 -1       486-8.24778E+05-1.41183E+05-9.12711E+04-3.38610E+05-8.61746E-11-1.01863E-10
 -1       487-8.37576E+05-1.69383E+05-5.07332E+04-3.57979E+05 5.45242E-10-4.84761E-10
 -1       488-8.35470E+05-1.39966E+05-2.08615E+04-3.43353E+05 7.45786E-11 1.96087E-09
 -1       489-8.23966E+05-1.54494E+05-1.04815E+04-3.59136E+05-6.73936E-10-9.11768E-11
 -1       490-8.36388E+05-1.40056E+05-4.78114E+03-3.43609E+05-1.55524E-10-4.13820E-10
 -1       491-8.22994E+05-1.53733E+05-2.41118E+03-3.59206E+05-3.34694E-10-3.70278E-10
 -1       492-8.36548E+05-1.40060E+05-1.27598E+03-3.43620E+05 1.05047E-10-1.69962E-10
 -1       493-8.22907E+05-1.53712E+05-9.58103E+02-3.59254E+05-5.00222E-11 1.52028E-09
 -1       494-8.36574E+05-1.40043E+05-1.14398E+03-3.43619E+05-7.05995E-11 1.67165E-09
 -1       495-8.22985E+05-1.53747E+05-2.06799E+03-3.59276E+05 1.63709E-10 1.44337E-09
 -1       496-8.36474E+05-1.40008E+05-4.04291E+03-3.43607E+05 1.50067E-11-6.48015E-10
 -1       497-8.23814E+05-1.54403E+05-8.85260E+03-3.59271E+05 3.63798E-12-1.88993E-09
 -1       498-8.35730E+05-1.39908E+05-1.75990E+04-3.43391E+05-1.26875E-10-5.49335E-10
 -1       499-8.35290E+05-1.66996E+05-4.28166E+04-3.58352E+05-1.60071E-10 1.79352E-09
 -1       500-8.26735E+05-1.40908E+05-7.70187E+04-3.39376E+05-4.84533E-10 1.25874E-09
 -1       501 5.81391E+05 5.14662E+03 8.13304E+04-6.37144E+04 1.48793E-09 1.04228E-09
 -1       502 6.03724E+05 1.23216E+04 4.60458E+04-1.00616E+05 9.89530E-10-2.34650E-10
 -1       503 5.90930E+05-2.45110E+02 2.02361E+04-6.32673E+04-1.63709E-10-1.26238E-09
 -1       504 5.92615E+05 4.86893E+02 1.05622E+04-1.00999E+05 2.19188E-10-3.78350E-10
 -1       505 5.91390E+05-1.02394E+02 5.11685E+03-6.33012E+04 7.53062E-10 9.92259E-10
 -1       506 5.91511E+05 1.04733E+02 2.76101E+03-1.00938E+05 4.97948E-10 1.93586E-09
 -1       507 5.91343E+05 4.97942E+01 1.62073E+03-6.33295E+04 6.02995E-10 4.01997E-10
 -1       508 5.91309E+05 1.50944E+02 1.38662E+03-1.00907E+05 9.76058E-10 5.75255E-10
 -1       509 5.91326E+05 5.83289E+01 1.77388E+03-6.33324E+04 4.67935E-10 1.14733E-09
 -1       510 5.91484E+05 1.31588E+02 3.14872E+03-1.00926E+05 2.07774E-09-2.28738E-09
 -1       511 5.91328E+05-8.07415E+01 5.91877E+03-6.33105E+04 4.00178E-11 2.57387E-10
 -1       512 5.92670E+05 6.25990E+02 1.22434E+04-1.00975E+05-1.10958E-09 2.68221E-09
 -1       513 5.90724E+05-1.92757E+02 2.34912E+04-6.32817E+04 7.09406E-11-1.74441E-09
 -1       514 6.05425E+05 1.44180E+04 5.34233E+04-1.00609E+05 2.54659E-10-2.41562E-09
 -1       515 5.79577E+05 6.13117E+03 9.43985E+04-6.37071E+04 2.29193E-10-3.05590E-10
 -1       516 3.59078E+03 1.79570E+05 4.35726E+04-2.10425E+05 2.86673E-09-2.04091E-09
 -1       517 8.33797E+03 1.90682E+05 2.76026E+04-3.34588E+05-1.23691E-09 4.56384E-09
 -1       518 9.03368E+02 1.84133E+05 1.79134E+04-2.09993E+05 2.75577E-09 3.16049E-09
 -1       519 6.35853E+03 1.89748E+05 2.24949E+04-3.34395E+05-3.34694E-10 4.43833E-10
 -1       520 2.26855E+03 1.81723E+05 3.24687E+04-2.10629E+05 1.85264E-09-1.36060E-09
 -1       521-1.47001E+06-2.43756E+05-1.35003E+05-5.94293E+05 1.40517E-10 2.35013E-09
 -1       522-1.48900E+06-2.85375E+05-7.50399E+04-6.22827E+05 1.06138E-09 1.85810E-09
 -1       523-1.48588E+06-2.41915E+05-3.08497E+04-6.01287E+05-6.33008E-10 7.63976E-11
 -1       524-1.46885E+06-2.63387E+05-1.54974E+04-6.24656E+05-6.98492E-10-1.90221E-09
 -1       525-1.48729E+06-2.41996E+05-7.06661E+03-6.01643E+05 4.59295E-10-1.89630E-10
 -1       526-1.46739E+06-2.62293E+05-3.56406E+03-6.24834E+05 1.78261E-10-1.27653E-09
 -1       527-1.48755E+06-2.41982E+05-1.88923E+03-6.01650E+05-9.04492E-10-1.52534E-09
 -1       528-1.46726E+06-2.62271E+05-1.42704E+03-6.24916E+05 3.53566E-11-1.24464E-09
 -1       529-1.48758E+06-2.41966E+05-1.71791E+03-6.01647E+05-3.04567E-10-2.80124E-10
 -1       530-1.46737E+06-2.62308E+05-3.11691E+03-6.24898E+05 9.65883E-10 1.81399E-09
 -1       531-1.48738E+06-2.41957E+05-6.10771E+03-6.01638E+05 1.81899E-12 2.41016E-10
 -1       532-1.46864E+06-2.63261E+05-1.33719E+04-6.24776E+05 4.69299E-10 1.41881E-09
 -1       533-1.48617E+06-2.41878E+05-2.65970E+04-6.01330E+05 4.09273E-10 6.69388E-10
 -1       534-1.48602E+06-2.82215E+05-6.47051E+04-6.23194E+05-5.54792E-10-2.32831E-10
 -1       535-1.47247E+06-2.43484E+05-1.16405E+05-5.95317E+05-3.89491E-10-1.81171E-09
 -1       536 7.59503E+05 7.47396E+03 1.12095E+05-4.93186E+04 1.60071E-10 3.45608E-10
 -1       537 7.90143E+05 1.71943E+04 6.34061E+04-7.79487E+04-1.44246E-09-2.03727E-09
 -1       538 7.72907E+05-1.74967E+02 2.78991E+04-4.89808E+04-1.38243E-10-2.09002E-09
 -1       539 7.75255E+05 7.11354E+02 1.45239E+04-7.82162E+04 3.63798E-12 3.02862E-10
 -1       540 7.73737E+05-1.29438E+02 7.01428E+03-4.90160E+04 3.17414E-10-1.24601E-09
 -1       541 7.73975E+05 5.80821E+01 3.70510E+03-7.81537E+04 4.12911E-10-3.74939E-09
 -1       542 7.73779E+05 2.56365E+00 2.04726E+03-4.90451E+04-8.60382E-10 1.01863E-09
 -1       543 7.73778E+05 7.37355E+01 1.53056E+03-7.81220E+04-2.59092E-10-8.42192E-10
 -1       544 7.73777E+05 1.51491E+01 1.70706E+03-4.90480E+04 3.38332E-10-4.07908E-10
 -1       545 7.73901E+05 6.82826E+01 2.83199E+03-7.81400E+04-9.49512E-10 3.21552E-09
 -1       546 7.73753E+05-8.24923E+01 5.21930E+03-4.90269E+04 7.09406E-11-5.98220E-10
 -1       547 7.74862E+05 5.39000E+02 1.07293E+04-7.81932E+04 6.54836E-10 2.25953E-11
 -1       548 7.73164E+05-1.32859E+02 2.05695E+04-4.89936E+04-1.76442E-10 1.75532E-09
 -1       549 7.85887E+05 1.26610E+04 4.67332E+04-7.79443E+04 3.45608E-10 2.09457E-09
 -1       550 7.63321E+05 5.47062E+03 8.25917E+04-4.92980E+04-1.22782E-09 2.85218E-09
 -1       551 1.05311E+04-2.63115E+04 3.80796E+04-4.03759E+05-1.02955E-09 9.34961E-10
 -1       552 7.24500E+03-1.88923E+04 2.43527E+04-5.32826E+05 6.91216E-11 3.78350E-10
 -1       553 2.33516E+03-2.40531E+04 1.87901E+04-4.02942E+05-8.03993E-10 1.62504E-09
 -1       554 8.00354E+03-1.79897E+04 2.72090E+04-5.32770E+05-9.45874E-11 1.95723E-09
 -1       555 1.21700E+04-2.68490E+04 4.46305E+04-4.03817E+05-4.52928E-10-5.74801E-10
 -1       556-1.15333E+06-2.40025E+05-9.42998E+04-5.04173E+05-5.03860E-10-3.71074E-10
 -1       557-1.15471E+06-2.54356E+05-4.90575E+04-5.35992E+05 6.85759E-10 1.92813E-09
 -1       558-1.16085E+06-2.22964E+05-2.07234E+04-5.14165E+05 5.51154E-10 4.61660E-09
 -1       559-1.14297E+06-2.42517E+05-1.02230E+04-5.36958E+05-3.54703E-11 2.11935E-09
 -1       560-1.16166E+06-2.22493E+05-4.72579E+03-5.14600E+05 1.81899E-11 5.81508E-10
 -1       561-1.14231E+06-2.42060E+05-2.39353E+03-5.37027E+05 3.60160E-10-2.34468E-09
 -1       562-1.16184E+06-2.22497E+05-1.31225E+03-5.14642E+05-1.18644E-09-1.25237E-09
 -1       563-1.14227E+06-2.42045E+05-1.06583E+03-5.37048E+05-3.78623E-09 8.94943E-10
 -1       564-1.16182E+06-2.22504E+05-1.38606E+03-5.14636E+05-2.24645E-10 1.44610E-10
 -1       565-1.14230E+06-2.42063E+05-2.58743E+03-5.36999E+05 1.92085E-09-1.35151E-09
 -1       566-1.16160E+06-2.22514E+05-5.14140E+03-5.14586E+05 1.24055E-09 9.29504E-10
 -1       567-1.14301E+06-2.42565E+05-1.11332E+04-5.36910E+05-2.61025E-10-1.17143E-09
 -1       568-1.16071E+06-2.23026E+05-2.25720E+04-5.14104E+05-1.51522E-09 1.57343E-09
 -1       569-1.15580E+06-2.55480E+05-5.34403E+04-5.35872E+05 2.03272E-09 5.13319E-09
 -1       570-1.15253E+06-2.41586E+05-1.02707E+05-5.03203E+05-1.58798E-09-1.76442E-09
 -1       571 8.05990E+05 2.28524E+04 8.95701E+04-8.00286E+04 1.00226E-09-1.86992E-09
 -1       572 8.26367E+05 1.09752E+04 4.76654E+04-1.05069E+05-6.91216E-10-3.83170E-09
 -1       573 8.14881E+05 2.92163E+02 2.13962E+04-7.95955E+04-5.27507E-10-2.97223E-09
 -1       574 8.16351E+05 2.39097E+02 1.09767E+04-1.05465E+05 1.27329E-10-2.34650E-10
 -1       575 8.15365E+05-1.49371E+02 5.30466E+03-7.95893E+04-1.66438E-10-1.75714E-09
 -1       576 8.15505E+05-2.19438E+01 2.71740E+03-1.05469E+05 4.52928E-10 3.51520E-10
 -1       577 8.15404E+05-3.23922E+01 1.35409E+03-7.95938E+04-3.48450E-10-1.76624E-09
 -1       578 8.15407E+05-6.01226E+00 7.38648E+02-1.05472E+05-1.97815E-10-1.75623E-09
 -1       579 8.15476E+05-4.27657E+01 4.50167E+02-7.95864E+04 1.50067E-10-3.05954E-09
 -1       580 8.15534E+05-7.66870E+01 4.17918E+02-1.05499E+05 9.29504E-10 2.32194E-09
 -1       581 8.15630E+05-1.52230E+02 5.55139E+02-7.95664E+04-1.07320E-09 1.76897E-09
 -1       582 8.15873E+05-1.96852E+02 1.04762E+03-1.05515E+05-1.34423E-09 3.53793E-09
 -1       583 8.15832E+05-2.80744E+02 1.95344E+03-7.95694E+04-6.22094E-10-6.65750E-10
 -1       584 8.17196E+05 5.94947E+02 4.39076E+03-1.05018E+05-5.41331E-09 2.59206E-09
 -1       585 8.15327E+05 1.59082E+03 8.17737E+03-8.00677E+04 8.14907E-10 1.82627E-09
 -1       586 4.31223E+03 5.70110E+04 1.52675E+04-3.50869E+05-3.17596E-09-9.45874E-11
 -1       587 3.82577E+03 5.93858E+04 1.15170E+04-4.62700E+05 7.63976E-11-3.93266E-09
 -1       588 1.84655E+03 5.69171E+04 1.16714E+04-3.50042E+05-3.57613E-09 9.87711E-10
 -1       589 6.68273E+03 6.12911E+04 2.05187E+04-4.62882E+05-6.54836E-11-2.17506E-09
 -1       590 1.03546E+04 5.40107E+04 3.60221E+04-3.50670E+05-2.76486E-09-1.36060E-09
 -1       591-7.65394E+05-1.69586E+05-7.98465E+04-3.42625E+05 6.82599E-09 5.48607E-09
 -1       592-7.67684E+05-1.80709E+05-4.15546E+04-3.68353E+05-3.90173E-09-3.99177E-09
 -1       593-7.71589E+05-1.55272E+05-1.75426E+04-3.51131E+05-1.87174E-09 2.95313E-09
 -1       594-7.57724E+05-1.70609E+05-8.66489E+03-3.68953E+05 1.57524E-09 1.27329E-11
 -1       595-7.72170E+05-1.54951E+05-4.00947E+03-3.51474E+05-1.01136E-09-9.52173E-09
 -1       596-7.57106E+05-1.70227E+05-2.05188E+03-3.68906E+05 1.09958E-09-8.08996E-10
 -1       597-7.72253E+05-1.55003E+05-1.16015E+03-3.51482E+05-4.98346E-10 5.98902E-10
 -1       598-7.57027E+05-1.70225E+05-1.00683E+03-3.68861E+05-1.13459E-09 3.83079E-09
 -1       599-7.72192E+05-1.55033E+05-1.38728E+03-3.51459E+05 2.93767E-10-1.56979E-09
 -1       600-7.57045E+05-1.70253E+05-2.64245E+03-3.68799E+05 4.97403E-09 2.96041E-09
 -1       601-7.71971E+05-1.55031E+05-5.27480E+03-3.51404E+05 6.60293E-10 1.00954E-09
 -1       602-7.57788E+05-1.70772E+05-1.14319E+04-3.68754E+05 1.79352E-09 1.02773E-09
 -1       603-7.71122E+05-1.55518E+05-2.31737E+04-3.50923E+05 2.12276E-09-1.04410E-09
 -1       604-7.70913E+05-1.84067E+05-5.48572E+04-3.67836E+05 9.83164E-10 2.05182E-09
 -1       605-7.62867E+05-1.74443E+05-1.05412E+05-3.39686E+05-6.31189E-10 2.59752E-09
 -1       606 2.94509E+05-1.14471E+04-4.43593E+04 5.56867E+04-1.40462E-08 2.40283E-09
 -1       607 2.84321E+05-5.36540E+03-2.35801E+04 7.23777E+04-3.31784E-09-6.18456E-10
 -1       608 2.89791E+05-9.48446E+01-1.06164E+04 5.52191E+04 1.19326E-08-3.08228E-09
 -1       609 2.88861E+05 1.50760E+02-5.42247E+03 7.28384E+04-6.04632E-09-2.05546E-09
 -1       610 2.89301E+05 2.97712E+02-2.62084E+03 5.51996E+04-1.80007E-08-4.45107E-09
 -1       611 2.89011E+05 4.28605E+02-1.29855E+03 7.28466E+04-3.30292E-08-1.02500E-09
 -1       612 2.89127E+05 3.45304E+02-5.87452E+02 5.52068E+04-1.60035E-08-2.02590E-09
 -1       613 2.88926E+05 4.95663E+02-1.81517E+02 7.28335E+04-2.34186E-08 5.80712E-10
 -1       614 2.89031E+05 3.81257E+02 1.30029E+02 5.52109E+04-2.20643E-09-2.16414E-09
 -1       615 2.88883E+05 5.30360E+02 5.20297E+02 7.28251E+04 1.77299E-08 4.20596E-09
 -1       616 2.88974E+05 3.83162E+02 1.14091E+03 5.52143E+04-1.00024E-08-1.84627E-10
 -1       617 2.89030E+05 6.11947E+02 2.42521E+03 7.28105E+04-2.04693E-09 2.34104E-09
 -1       618 2.88844E+05 4.95308E+02 4.75778E+03 5.52243E+04-1.25237E-09-4.66616E-09
 -1       619 2.91252E+05 3.00839E+03 1.06132E+04 7.26185E+04-3.49837E-09-2.13731E-09
 -1       620 2.86867E+05 5.51472E+03 1.99462E+04 5.53816E+04 7.69433E-10-3.59250E-09
 -1       621 9.65846E+03 1.08942E+06 4.00947E+04-1.20059E+05-1.01081E-08 1.13141E-09
 -1       622 5.49722E+03 1.09824E+06 2.95606E+04-1.57523E+05-1.62072E-08-5.60249E-10
 -1       623 1.14118E+03 1.09227E+06 2.97804E+04-1.19784E+05-1.13887E-08 2.74213E-09
 -1       624 1.21299E+04 1.10404E+06 5.20948E+04-1.57635E+05-1.62336E-08 3.26736E-09
 -1       625 2.38302E+04 1.08334E+06 9.19397E+04-1.19899E+05-1.11540E-08-2.21235E-09
 -1       626 4.99395E+05 1.09928E+05-1.15816E+04 2.44055E+05-1.34787E-09-7.47787E-09
 -1       627 4.84266E+05 1.23166E+05-6.00652E+03 2.57071E+05-5.42423E-09-6.07770E-10
 -1       628 4.98670E+05 1.11747E+05-2.55768E+03 2.42347E+05-2.57933E-09-3.21415E-09
 -1       629 4.85170E+05 1.25034E+05-1.23872E+03 2.57238E+05 1.13505E-09-8.75889E-09
 -1       630 4.98468E+05 1.11867E+05-5.54967E+02 2.42207E+05-6.21731E-09-3.88900E-09
 -1       631 4.85118E+05 1.25141E+05-2.12197E+02 2.57141E+05-2.16387E-08-3.01350E-09
 -1       632 4.98352E+05 1.11923E+05 7.48724E+00 2.42156E+05-4.26735E-09 3.78986E-09
 -1       633 4.85064E+05 1.25165E+05 2.41675E+02 2.57068E+05-2.46337E-09 5.50517E-09
 -1       634 4.98282E+05 1.11941E+05 5.94168E+02 2.42130E+05 1.02045E-08 2.05955E-09
 -1       635 4.85093E+05 1.25177E+05 1.32788E+03 2.57059E+05 4.31010E-09 1.53250E-09
 -1       636 4.98221E+05 1.11899E+05 2.73942E+03 2.42125E+05 9.49814E-09 6.94854E-10
 -1       637 4.85572E+05 1.25430E+05 5.99841E+03 2.57145E+05 1.81699E-08-7.73798E-09
 -1       638 4.97907E+05 1.12055E+05 1.21576E+04 2.41927E+05 9.34415E-09-1.81808E-09
 -1       639 4.92639E+05 1.32369E+05 2.88206E+04 2.56851E+05-7.70888E-09 3.04499E-09
 -1       640 4.93772E+05 1.21895E+05 5.53644E+04 2.36099E+05-1.18494E-08-2.95040E-09
 -1       641 1.15365E+04-5.01951E+02-7.65865E+03 3.98230E+03-1.79306E-08 1.11049E-09
 -1       642 9.42774E+03-1.14556E+03-4.32924E+03 6.29201E+03-2.01540E-08 1.53568E-09
 -1       643 1.06063E+04 2.99649E+01-1.90260E+03 3.96281E+03-1.17572E-08 2.06671E-09
 -1       644 1.04238E+04-8.63133E+00-9.82140E+02 6.30673E+03-3.31079E-09 8.14282E-10
 -1       645 1.05393E+04 3.44704E+01-4.60558E+02 3.96187E+03-2.03818E-09-3.44312E-09
 -1       646 1.05003E+04 4.23414E+01-2.14085E+02 6.30759E+03-5.95691E-10-1.99873E-09
 -1       647 1.05306E+04 2.82226E+01-6.37738E+01 3.96177E+03 1.87913E-09-2.55733E-09
 -1       648 1.05155E+04 4.26449E+01 5.07174E+01 6.30787E+03 2.92134E-08 4.20968E-09
 -1       649 1.05266E+04 2.29878E+01 1.88245E+02 3.96161E+03 1.97988E-08 1.35208E-09
 -1       650 1.05382E+04 4.38672E+01 4.31260E+02 6.30781E+03 2.48619E-08-1.05587E-09
 -1       651 1.05119E+04 1.20202E+01 8.67757E+02 3.96187E+03-5.62977E-10-2.98712E-10
 -1       652 1.06802E+04 1.37149E+02 1.82251E+03 6.30592E+03-7.53516E-09-2.98002E-09
 -1       653 1.03903E+04 1.91649E+01 3.51708E+03 3.96318E+03 1.54712E-08-1.70417E-09
 -1       654 1.25239E+04 2.23419E+03 7.99638E+03 6.26074E+03-1.03026E-08-1.53796E-09
 -1       655 8.67567E+03 9.99911E+02 1.41430E+04 3.99739E+03 1.22659E-08 2.07365E-09
 -1       656-3.35123E+03-3.15217E+05-4.13140E+04 8.66319E+04 1.15670E-08-4.07454E-10
 -1       657-7.20664E+03-3.26221E+05-2.64367E+04 1.37071E+05 5.87147E-09-2.17960E-09
 -1       658-4.63043E+02-3.19932E+05-1.78892E+04 8.63628E+04 1.27256E-08 1.58525E-09
 -1       659-6.17645E+03-3.25513E+05-2.35596E+04 1.37209E+05 6.65023E-09 2.82535E-09
 -1       660-2.77033E+03-3.16226E+05-3.50937E+04 8.65042E+04 1.68711E-08-2.96632E-09
 -1       661 2.48831E+05 3.86775E+04 1.82300E+04 9.73789E+04 8.52970E-09-1.14687E-09
 -1       662 2.52472E+05 4.32350E+04 1.01355E+04 9.99994E+04 2.95413E-08-5.25085E-09
 -1       663 2.50905E+05 3.84879E+04 4.16822E+03 9.83720E+04 7.29017E-09 4.38831E-11
 -1       664 2.49783E+05 4.02200E+04 2.10115E+03 1.00154E+05-2.66589E-08-4.49638E-09
 -1       665 2.51067E+05 3.85244E+04 9.65939E+02 9.84260E+04 2.06080E-09-6.63437E-09
 -1       666 2.49586E+05 4.00610E+04 5.07558E+02 1.00141E+05 1.80052E-08-3.59967E-09
 -1       667 2.51087E+05 3.85340E+04 3.05933E+02 9.84281E+04-2.77169E-10 7.99957E-10
 -1       668 2.49570E+05 4.00561E+04 3.01820E+02 1.00142E+05-1.54654E-08-4.06681E-09
 -1       669 2.51087E+05 3.85286E+04 4.53536E+02 9.84265E+04-1.16768E-08-2.56045E-09
 -1       670 2.49607E+05 4.00746E+04 8.99566E+02 1.00158E+05-8.38747E-09 2.82353E-09
 -1       671 2.51053E+05 3.85024E+04 1.79906E+03 9.84191E+04-1.45442E-08 5.31372E-10
 -1       672 2.49977E+05 4.03811E+04 3.96227E+03 1.00194E+05-2.40484E-08-5.68321E-09
 -1       673 2.50751E+05 3.84282E+04 7.88073E+03 9.83152E+04-7.46263E-09-5.36329E-09
 -1       674 2.55090E+05 4.60675E+04 1.91780E+04 9.98829E+04-2.40630E-09 2.40516E-09
 -1       675 2.46803E+05 3.88090E+04 3.44980E+04 9.64639E+04 1.91449E-09-1.12414E-09
 -1       676-1.04642E+03-2.83999E+05-1.54171E+04 8.97090E+03-1.07320E-10-8.53106E-10
 -1       677-2.47171E+03-2.88147E+05-1.05107E+04 1.37001E+04 1.88939E-08 2.56614E-09
 -1       678-4.36085E+01-2.85597E+05-8.24142E+03 8.93407E+03-5.28860E-09 1.45133E-09
 -1       679-3.14576E+03-2.88745E+05-1.25251E+04 1.37470E+04 1.08630E-08-3.50360E-09
 -1       680-1.35933E+03-2.83411E+05-1.97551E+04 8.92159E+03 4.31100E-09-2.07666E-09
 -1       681 4.44418E+05 1.42529E+03 2.31437E+04-3.46878E+04-1.40062E-10 4.18822E-10
 -1       682 4.50773E+05 3.46532E+03 1.31101E+04-5.48351E+04-1.39153E-10-4.20187E-10
 -1       683 4.47125E+05-9.94390E+01 5.76384E+03-3.44456E+04 1.14596E-10-1.57343E-10
 -1       684 4.47594E+05 1.03122E+02 3.01995E+03-5.50591E+04 1.27329E-10 2.68756E-10
 -1       685 4.47247E+05-5.22760E+01 1.48259E+03-3.44576E+04 8.00355E-11 1.07093E-09
 -1       686 4.47268E+05 8.96147E-01 8.42374E+02-5.50355E+04-3.31966E-11 2.30102E-10
 -1       687 4.47225E+05-4.92440E+00 5.72572E+02-3.44695E+04-5.27507E-11-8.25366E-11
 -1       688 4.47208E+05 1.86529E+01 6.23014E+02-5.50206E+04 4.00746E-11 5.99357E-10
 -1       689 4.47208E+05-4.27302E+00 9.54671E+02-3.44726E+04 4.30873E-11 1.47566E-09
 -1       690 4.47289E+05 2.22069E+01 1.81749E+03-5.50250E+04 1.11186E-10-1.41881E-10
 -1       691 4.47172E+05-6.04595E+01 3.49242E+03-3.44650E+04-5.00222E-11-6.25278E-11
 -1       692 4.47908E+05 3.60952E+02 7.25445E+03-5.50379E+04 6.09361E-11 1.00556E-09
 -1       693 4.46743E+05-7.26240E+01 1.39509E+04-3.44592E+04 8.18545E-12-6.53472E-10
 -1       694 4.55332E+05 8.61777E+03 3.17086E+04-5.48337E+04-5.20231E-10-7.37145E-10
 -1       695 4.40026E+05 3.75660E+03 5.60565E+04-3.46807E+04-8.13088E-10-5.45697E-11
 -1       696 2.52190E+03 5.52797E+05 3.33595E+04-7.58814E+04-1.45519E-11-2.99224E-10
 -1       697 5.53646E+03 5.61705E+05 1.79061E+04-1.20224E+05 6.84395E-11-7.06905E-10
 -1       698 2.14313E+02 5.56935E+05 5.92114E+03-7.57173E+04-1.05558E-10 1.61913E-09
 -1       699-9.36540E+02 5.56058E+05-1.35737E+03-1.20204E+05-3.41061E-10 1.73804E-09
 -1       700-5.49947E+02 5.58514E+05-8.14748E+03-7.59112E+04-2.58296E-10 1.65619E-09
 -1       701-4.08955E+05-7.31201E+04-6.35772E+04-1.71240E+05-1.89857E-10-4.91127E-10
 -1       702-4.18941E+05-9.17265E+04-3.53425E+04-1.83555E+05-4.20187E-10 8.51742E-10
 -1       703-4.16366E+05-7.23003E+04-1.45331E+04-1.74556E+05 6.27551E-11 4.57476E-10
 -1       704-4.09466E+05-8.13329E+04-7.30567E+03-1.84297E+05 7.27596E-11 2.97632E-10
 -1       705-4.16977E+05-7.23894E+04-3.33491E+03-1.74740E+05 1.31877E-10 3.70619E-11
 -1       706-4.08792E+05-8.07893E+04-1.68836E+03-1.84307E+05-2.17369E-10-3.39924E-10
 -1       707-4.17072E+05-7.24051E+04-9.04747E+02-1.74751E+05-1.51886E-10-3.01725E-10
 -1       708-4.08735E+05-8.07686E+04-6.99585E+02-1.84326E+05 1.93722E-10-4.61085E-10
 -1       709-4.17089E+05-7.23935E+04-8.61481E+02-1.74752E+05 1.79625E-10 1.95428E-10
 -1       710-4.08798E+05-8.07963E+04-1.57819E+03-1.84353E+05 4.42242E-11 1.02432E-09
 -1       711-4.17027E+05-7.23541E+04-3.09516E+03-1.74742E+05 9.50990E-11-2.04182E-10
 -1       712-4.09436E+05-8.13112E+04-6.78408E+03-1.84389E+05 9.91349E-11-2.93767E-10
 -1       713-4.16489E+05-7.22486E+04-1.34838E+04-1.74571E+05-2.35332E-10 2.79215E-10
 -1       714-4.18198E+05-9.10141E+04-3.28098E+04-1.83791E+05-6.45741E-11-2.55568E-10
 -1       715-4.09667E+05-7.29492E+04-5.90092E+04-1.71451E+05-2.80579E-10 2.69210E-10
 -1       716 3.68869E+05 3.18150E+03 4.90321E+04-4.75583E+04 6.40284E-10 9.09495E-10
 -1       717 3.82287E+05 7.50128E+03 2.77570E+04-7.50914E+04-1.16415E-10 1.00954E-10
 -1       718 3.74653E+05-9.32098E+01 1.22107E+04-4.72444E+04-1.40062E-10 1.10049E-09
 -1       719 3.75650E+05 3.39787E+02 6.37818E+03-7.53870E+04 4.72937E-11 7.21911E-10
 -1       720 3.74962E+05-3.24062E+01 3.11078E+03-4.72521E+04 6.05723E-10-4.87944E-10
 -1       721 3.75034E+05 8.38231E+01 1.70956E+03-7.53706E+04 9.34506E-10-7.46240E-10
 -1       722 3.74959E+05 3.73064E+01 1.06706E+03-4.72614E+04 5.72527E-10-1.74168E-10
 -1       723 3.74958E+05 9.01475E+01 1.01726E+03-7.53635E+04 6.21640E-10 4.85215E-10
 -1       724 3.74965E+05 2.08729E+01 1.42581E+03-4.72593E+04 2.79670E-10 1.50249E-09
 -1       725 3.75125E+05 6.60811E+01 2.63151E+03-7.53798E+04 8.54925E-10 3.34239E-10
 -1       726 3.74957E+05-9.13991E+01 5.00529E+03-4.72450E+04-2.00089E-11 1.46088E-09
 -1       727 3.76092E+05 5.08239E+02 1.03868E+04-7.54039E+04 6.91216E-10 1.04120E-09
 -1       728 3.74401E+05-1.53462E+02 1.99522E+04-4.72339E+04-5.45697E-12 4.54747E-10
 -1       729 3.86827E+05 1.22740E+04 4.53767E+04-7.50769E+04-1.01863E-10-3.89264E-10
 -1       730 3.64861E+05 5.27247E+03 8.02011E+04-4.75950E+04-2.05546E-10-1.21508E-09
 -1       731 2.44187E+03 1.94469E+05 3.22096E+04-1.24244E+05 1.54614E-09-9.48603E-10
 -1       732 5.52216E+03 2.02998E+05 1.85807E+04-1.97568E+05-2.50111E-10-4.33033E-10
 -1       733 2.89803E+02 1.98237E+05 8.84571E+03-1.23995E+05 1.49385E-09 1.43427E-09
 -1       734 1.25272E+03 1.99553E+05 6.15368E+03-1.97447E+05-4.65661E-10 8.11269E-10
 -1       735 2.83049E+02 1.98379E+05 5.39829E+03-1.24371E+05 1.16461E-09 1.16052E-09
 -1       736-8.57887E+05-1.37715E+05-7.95912E+04-3.40875E+05 1.33696E-10-9.27685E-10
 -1       737-8.71765E+05-1.59633E+05-4.42470E+04-3.54692E+05 1.18234E-10-5.43423E-10
 -1       738-8.67137E+05-1.36716E+05-1.81844E+04-3.45030E+05-3.79259E-10-2.96495E-10
 -1       739-8.59895E+05-1.46612E+05-9.13975E+03-3.55605E+05 3.45608E-10-1.31877E-10
 -1       740-8.67902E+05-1.36823E+05-4.16109E+03-3.45243E+05 1.14596E-09 3.76872E-09
 -1       741-8.59020E+05-1.45947E+05-2.09293E+03-3.55625E+05 2.16460E-10-3.06102E-10
 -1       742-8.68023E+05-1.36845E+05-1.09136E+03-3.45248E+05 3.73802E-10-4.57163E-10
 -1       743-8.58930E+05-1.45930E+05-7.90518E+02-3.55646E+05-1.52795E-10 4.39741E-10
 -1       744-8.68040E+05-1.36836E+05-9.04056E+02-3.45245E+05-3.36399E-10-2.66255E-10
 -1       745-8.58987E+05-1.45958E+05-1.60040E+03-3.55664E+05 8.32188E-11 1.25624E-10
 -1       746-8.67969E+05-1.36806E+05-3.10922E+03-3.45237E+05 5.70708E-10 6.59838E-10
 -1       747-8.59633E+05-1.46462E+05-6.79919E+03-3.55675E+05 1.28568E-09 1.29603E-09
 -1       748-8.67412E+05-1.36716E+05-1.35084E+04-3.45075E+05 3.03316E-10 7.36691E-10
 -1       749-8.68451E+05-1.56141E+05-3.28704E+04-3.55011E+05-1.35515E-10-4.09273E-10
 -1       750-8.60542E+05-1.37458E+05-5.91225E+04-3.41992E+05-4.71118E-10 9.53150E-10
 -1       751 8.44249E+05 8.51763E+03 1.27162E+05-5.48998E+04-4.72937E-11 2.03363E-09
 -1       752 8.78976E+05 1.95424E+04 7.19255E+04-8.67842E+04-1.04865E-09 4.89308E-10
 -1       753 8.59455E+05-1.64912E+02 3.16576E+04-5.45543E+04-1.25510E-10-2.14641E-10
 -1       754 8.62101E+05 8.42793E+02 1.64861E+04-8.70540E+04-4.72937E-11 3.03953E-09
 -1       755 8.60407E+05-1.21360E+02 7.97884E+03-5.45929E+04 2.21917E-10 8.46740E-10
 -1       756 8.60673E+05 9.00662E+01 4.23998E+03-8.69908E+04 1.80080E-10-4.13138E-10
 -1       757 8.60470E+05 1.41416E+01 2.39417E+03-5.46196E+04-7.41466E-10-4.85670E-10
 -1       758 8.60489E+05 8.94496E+01 1.87907E+03-8.69703E+04-3.11672E-10-8.59018E-10
 -1       759 8.60489E+05 5.79375E+00 2.21474E+03-5.46138E+04 4.84761E-10-1.16779E-09
 -1       760 8.60697E+05 6.22621E+01 3.78516E+03-8.70109E+04-1.34605E-09 2.16914E-10
 -1       761 8.60473E+05-1.41786E+02 7.03874E+03-5.45786E+04-1.09139E-11-2.03636E-09
 -1       762 8.62024E+05 6.86972E+02 1.45137E+04-8.70953E+04 1.00408E-09-5.69344E-10
 -1       763 8.59685E+05-2.18241E+02 2.78395E+04-5.45274E+04-1.49157E-10 2.61298E-09
 -1       764 8.76961E+05 1.70937E+04 6.32703E+04-8.68160E+04 8.04903E-10 7.89896E-10
 -1       765 8.46363E+05 7.37172E+03 1.11828E+05-5.48980E+04-1.46247E-09 1.92085E-09
 -1       766 5.75946E+03 3.49088E+05 8.19837E+04-1.35641E+05-5.20231E-10 3.81078E-10
 -1       767 1.33826E+04 3.71127E+05 5.28587E+04-2.15662E+05 1.92301E-09 8.82650E-10
 -1       768 3.22245E+02 3.58020E+05 3.63099E+04-1.35419E+05-1.64619E-10 2.00544E-09
 -1       769 1.17730E+04 3.70303E+05 4.86400E+04-2.15451E+05 1.26420E-09-1.13869E-09
 -1       770 4.71452E+03 3.50805E+05 7.28193E+04-1.35870E+05-6.18456E-11 1.83718E-10
 -1       771-1.74668E+06-3.19631E+05-1.50709E+05-7.02955E+05-4.98403E-10 1.16415E-10
 -1       772-1.76466E+06-3.26995E+05-7.84479E+04-7.35781E+05 3.01952E-10-3.11047E-10
 -1       773-1.75815E+06-2.92832E+05-3.30976E+04-7.19093E+05 3.32875E-10-7.47605E-10
 -1       774-1.74589E+06-3.07826E+05-1.63349E+04-7.36734E+05-3.39242E-10 2.40561E-10
 -1       775-1.75923E+06-2.92223E+05-7.52996E+03-7.19706E+05-5.07498E-10-5.77074E-10
 -1       776-1.74469E+06-3.07130E+05-3.79361E+03-7.36683E+05-4.86580E-10-1.81819E-09
 -1       777-1.75944E+06-2.92288E+05-2.02440E+03-7.19723E+05-1.31513E-09-2.27647E-09
 -1       778-1.74458E+06-3.07124E+05-1.54565E+03-7.36681E+05 5.68434E-12 1.11595E-09
 -1       779-1.75944E+06-2.92294E+05-1.87926E+03-7.19722E+05 2.76486E-10 2.27374E-11
 -1       780-1.74467E+06-3.07128E+05-3.41104E+03-7.36668E+05-1.78716E-10-1.27602E-09
 -1       781-1.75924E+06-2.92250E+05-6.71247E+03-7.19706E+05 8.07631E-10-1.70985E-10
 -1       782-1.74573E+06-3.07742E+05-1.45289E+04-7.36688E+05 3.56067E-10-6.36646E-10
 -1       783-1.75825E+06-2.92805E+05-2.94243E+04-7.19158E+05-9.47693E-10-8.03993E-10
 -1       784-1.76245E+06-3.24747E+05-6.97348E+04-7.35770E+05-6.50289E-10 1.75714E-09
 -1       785-1.74799E+06-3.16675E+05-1.33966E+05-7.04847E+05 2.76032E-10 1.67347E-09
 -1       786 6.90558E+05 6.40231E+03 9.66214E+04-5.23256E+04 7.74889E-10-2.98314E-10
 -1       787 7.16969E+05 1.47751E+04 5.46565E+04-8.29033E+04-7.93079E-10-1.97178E-09
 -1       788 7.02091E+05-1.70957E+02 2.40481E+04-5.20004E+04-6.82121E-10 1.59889E-09
 -1       789 7.04114E+05 5.75854E+02 1.25117E+04-8.31693E+04-9.82254E-11 1.12777E-09
 -1       790 7.02804E+05-1.29304E+02 6.03073E+03-5.20258E+04 5.34783E-10 5.36602E-10
 -1       791 7.03021E+05 6.78461E+00 3.15412E+03-8.31307E+04-4.17003E-10 1.84173E-11
 -1       792 7.02858E+05-2.74341E+01 1.68446E+03-5.20404E+04-2.59433E-10 5.47061E-10
 -1       793 7.02888E+05-2.00806E+00 1.15126E+03-8.31255E+04-1.05501E-10 1.39244E-09
 -1       794 7.02898E+05-4.03929E+01 1.13515E+03-5.20312E+04-4.06544E-10-2.21007E-09
 -1       795 7.03041E+05-5.05082E+01 1.75691E+03-8.31688E+04 7.34872E-10 1.04274E-09
 -1       796 7.02958E+05-1.53822E+02 3.14683E+03-5.19968E+04-1.45701E-09 7.76708E-10
 -1       797 7.03767E+05 1.53197E+02 6.44831E+03-8.32388E+04-7.80346E-10 6.09020E-10
 -1       798 7.02717E+05-2.70261E+02 1.23185E+04-5.19599E+04-2.87400E-10-2.46496E-09
 -1       799 7.10603E+05 7.32516E+03 2.80374E+04-8.29360E+04-4.93037E-09-2.29738E-09
 -1       800 6.96950E+05 2.97487E+03 4.94937E+04-5.23225E+04 1.16415E-09 1.21145E-09
 -1       801 3.05514E+03-3.53457E+02 3.13854E+04-3.92534E+05 6.83758E-09-6.98492E-10
 -1       802 9.01791E+03 5.79013E+03 2.39881E+04-6.24173E+05 1.68693E-08-3.51793E-09
 -1       803 2.59969E+03 6.97430E+02 2.22728E+04-3.91543E+05 9.42964E-09 4.16958E-09
 -1       804 1.36299E+04 1.04442E+04 3.83290E+04-6.24080E+05 1.54905E-08-3.41970E-09
 -1       805 4.93595E+03-4.09252E+03 6.22159E+04-3.92628E+05 6.69570E-09 3.70710E-09
 -1       806-1.07924E+06-2.15589E+05-9.33344E+04-4.58209E+05 1.29512E-09-1.89175E-09
 -1       807-1.08480E+06-2.25690E+05-4.85754E+04-4.84915E+05-7.39419E-10-6.30280E-10
 -1       808-1.08646E+06-1.98883E+05-2.05045E+04-4.68159E+05-1.07138E-09-4.92946E-10
 -1       809-1.07316E+06-2.13883E+05-1.01236E+04-4.85621E+05 1.76078E-09-3.67231E-09
 -1       810-1.08716E+06-1.98496E+05-4.67874E+03-4.68557E+05 3.62888E-10-1.73941E-10
 -1       811-1.07244E+06-2.13441E+05-2.37848E+03-4.85594E+05 1.60071E-10-2.62673E-09
 -1       812-1.08728E+06-1.98537E+05-1.31411E+03-4.68573E+05 7.25777E-10-1.58661E-09
 -1       813-1.07237E+06-2.13433E+05-1.08731E+03-4.85576E+05 1.56831E-09-1.43427E-09
 -1       814-1.08725E+06-1.98552E+05-1.43415E+03-4.68565E+05-9.09495E-11-9.20409E-10
 -1       815-1.07242E+06-2.13447E+05-2.69190E+03-4.85539E+05-1.63709E-10-3.76349E-09
 -1       816-1.08706E+06-1.98534E+05-5.34802E+03-4.68530E+05-2.41926E-10-2.36651E-09
 -1       817-1.07322E+06-2.13954E+05-1.15918E+04-4.85519E+05 3.27691E-09-1.53159E-09
 -1       818-1.08623E+06-1.99009E+05-2.34897E+04-4.68066E+05 2.94858E-09-9.09495E-11
 -1       819-1.08655E+06-2.27455E+05-5.56332E+04-4.84653E+05-4.97494E-10-2.83762E-09
 -1       820-1.07792E+06-2.18151E+05-1.06896E+05-4.56666E+05 6.85759E-10 2.19370E-09
 -1       821-4.56757E+05-4.35102E+03-6.33545E+04 2.37036E+04-1.42973E-08 1.77715E-09
 -1       822-4.74038E+05-9.70020E+03-3.58186E+04 3.78764E+04-1.48066E-09 5.74801E-10
 -1       823-4.64510E+05 9.17094E+01-1.57842E+04 2.34186E+04 1.07539E-08-3.95630E-10
 -1       824-4.65912E+05-2.43997E+02-8.20060E+03 3.81720E+04-8.09041E-09-1.12823E-09
 -1       825-4.65118E+05 1.75776E+02-3.97170E+03 2.33813E+04-1.62299E-08 6.27551E-11
 -1       826-4.65373E+05 2.23810E+02-2.08867E+03 3.82244E+04-3.08810E-08 4.78053E-09
 -1       827-4.65226E+05 1.66948E+02-1.15744E+03 2.33635E+04-1.69694E-08-4.76803E-10
 -1       828-4.65352E+05 2.63281E+02-8.62229E+02 3.82518E+04-2.04677E-08 2.42380E-10
 -1       829-4.65251E+05 1.80540E+02-9.67563E+02 2.33533E+04-2.94858E-09-1.91676E-09
 -1       830-4.65418E+05 2.64175E+02-1.60905E+03 3.82626E+04 1.63384E-08-1.94109E-09
 -1       831-4.65206E+05 2.11451E+02-2.97855E+03 2.33523E+04-1.38147E-08 1.62032E-09
 -1       832-4.65868E+05-5.79915E+01-6.12077E+03 3.82511E+04-3.48246E-09-9.92280E-10
 -1       833-4.64781E+05 1.70328E+02-1.17561E+04 2.33662E+04-2.30057E-09-3.60160E-10
 -1       834-4.71967E+05-7.08437E+03-2.66892E+04 3.81007E+04-9.01309E-09 2.11958E-09
 -1       835-4.59026E+05-3.12388E+03-4.71949E+04 2.35335E+04 5.80621E-09-1.08048E-09
 -1       836 4.59575E+03 7.85209E+05 6.25442E+04-1.48848E+05-6.61021E-09 2.41562E-09
 -1       837 1.09640E+04 8.01590E+05 4.40406E+04-2.35505E+05-6.87942E-09-1.54660E-09
 -1       838 7.68401E+02 7.91234E+05 3.67662E+04-1.48533E+05-6.86305E-09 2.91720E-09
 -1       839 1.58366E+04 8.06000E+05 5.87021E+04-2.35465E+05-6.42103E-09-1.56888E-09
 -1       840 6.83761E+03 7.80990E+05 9.41300E+04-1.48879E+05-5.41331E-09 9.22228E-10
 -1       841 4.40193E+04 2.22971E+04-1.13999E+04 3.84594E+04-9.85710E-09-1.92131E-09
 -1       842 3.13291E+04 2.99255E+04-6.32463E+03 4.86493E+04 1.08685E-09 6.37499E-10
 -1       843 4.28243E+04 2.22957E+04-2.60977E+03 3.76298E+04 1.77861E-08-1.64937E-09
 -1       844 3.27678E+04 3.19956E+04-1.29802E+03 4.86841E+04-1.09139E-10-2.64367E-09
 -1       845 4.26900E+04 2.22972E+04-5.79970E+02 3.75623E+04 1.71349E-09-2.01919E-09
 -1       846 3.28297E+04 3.21201E+04-2.52666E+02 4.86603E+04-5.56020E-09-4.49961E-09
 -1       847 4.26484E+04 2.23094E+04-5.97341E+01 3.75422E+04-1.43636E-08 8.27566E-09
 -1       848 3.28177E+04 3.21391E+04 9.87486E+01 4.86417E+04-1.36424E-09 8.21616E-09
 -1       849 4.26246E+04 2.23128E+04 3.05415E+02 3.75314E+04 1.01813E-08 7.48810E-09
 -1       850 3.28437E+04 3.21577E+04 7.10904E+02 4.86428E+04 9.43260E-09-4.78053E-10
 -1       851 4.25906E+04 2.22939E+04 1.47303E+03 3.75256E+04-9.73500E-10 5.43196E-09
 -1       852 3.31654E+04 3.24031E+04 3.27075E+03 4.86695E+04 1.32941E-08-1.65892E-09
 -1       853 4.23450E+04 2.22293E+04 6.51334E+03 3.74517E+04 5.09772E-10 2.62798E-09
 -1       854 3.74907E+04 3.70311E+04 1.58626E+04 4.83552E+04 1.93802E-08 1.48248E-09
 -1       855 3.90393E+04 2.25899E+04 2.85288E+04 3.60076E+04 8.63520E-09 2.98132E-09
 -1       856-2.01678E+05-1.44062E+03-2.19862E+04 1.54587E+04-2.06628E-08 6.47560E-10
 -1       857-2.07716E+05-3.26181E+03-1.24296E+04 2.47458E+04-1.03628E-08 9.20636E-10
 -1       858-2.04366E+05 1.00483E+02-5.47459E+03 1.53237E+04-1.22745E-08-1.56706E-09
 -1       859-2.04890E+05 1.66681E+01-2.84312E+03 2.48780E+04-8.07177E-09 9.79412E-10
 -1       860-2.04573E+05 1.25967E+02-1.37159E+03 1.53121E+04 2.31421E-09 1.54591E-09
 -1       861-2.04693E+05 1.74193E+02-7.14431E+02 2.48912E+04-7.28380E-09 8.88576E-10
 -1       862-2.04604E+05 1.17891E+02-3.80780E+02 1.53096E+04 2.10489E-08-1.37004E-09
 -1       863-2.04674E+05 1.81825E+02-2.58692E+02 2.48937E+04 4.45958E-08 3.44130E-10
 -1       864-2.04607E+05 1.15798E+02-2.56298E+02 1.53095E+04 2.29921E-08 2.23054E-10
 -1       865-2.04677E+05 1.76039E+02-3.95841E+02 2.48910E+04 2.10357E-08-1.50419E-09
 -1       866-2.04588E+05 1.16359E+02-7.15654E+02 1.53124E+04 4.32465E-09-3.24280E-09
 -1       867-2.04767E+05 9.08496E+01-1.45853E+03 2.48785E+04-5.77734E-09 1.48623E-09
 -1       868-2.04476E+05 9.75739E+01-2.79873E+03 1.53225E+04 7.39465E-09-3.27674E-10
 -1       869-2.06193E+05-1.58963E+03-6.34448E+03 2.47480E+04 5.59885E-09 1.70766E-09
 -1       870-2.03095E+05-6.96808E+02-1.12234E+04 1.54505E+04 1.49621E-08-3.45608E-11
 -1       871-3.36002E+03-6.98274E+04-8.71198E+03 1.53166E+05-2.99397E-08-3.09410E-09
 -1       872-2.15165E+03-7.16667E+04-2.98544E+03 2.02036E+05-1.71622E-08 3.10956E-09
 -1       873-7.30206E+02-7.11121E+04 1.92046E+03 1.52850E+05-2.63726E-08 3.62036E-10
 -1       874 1.14143E+03-6.87328E+04 8.25644E+03 2.02053E+05-1.78270E-08-8.00355E-10
 -1       875 3.66624E+03-7.28055E+04 1.71383E+04 1.53181E+05-2.47383E-08 2.63753E-10
 -1       876 3.17385E+05 5.40457E+04 3.21423E+04 1.30061E+05 7.53471E-09-3.81442E-09
 -1       877 3.21935E+05 6.39695E+04 1.78698E+04 1.36816E+05 2.08915E-08 2.20939E-09
 -1       878 3.21081E+05 5.36696E+04 7.34585E+03 1.31752E+05 3.79214E-09 8.68567E-10
 -1       879 3.17138E+05 5.87010E+04 3.69878E+03 1.37127E+05-2.75340E-08-2.63753E-11
 -1       880 3.21356E+05 5.37417E+04 1.69053E+03 1.31846E+05 6.62794E-09-5.49790E-10
 -1       881 3.16790E+05 5.84169E+04 8.68701E+02 1.37090E+05 2.85369E-08 1.00066E-09
 -1       882 3.21384E+05 5.37679E+04 4.85574E+02 1.31852E+05 1.41097E-08 4.86079E-09
 -1       883 3.16759E+05 5.84010E+04 4.15325E+02 1.37076E+05-1.44542E-08-6.61259E-10
 -1       884 3.21381E+05 5.37673E+04 5.60583E+02 1.31852E+05-1.48317E-09 4.10023E-09
 -1       885 3.16803E+05 5.84196E+04 1.06760E+03 1.37090E+05-6.50886E-09-1.64391E-09
 -1       886 3.21342E+05 5.37371E+04 2.11354E+03 1.31845E+05-5.67661E-09-4.13456E-09
 -1       887 3.17240E+05 5.87762E+04 4.64284E+03 1.37132E+05-1.33742E-08-3.33330E-09
 -1       888 3.20992E+05 5.36480E+04 9.22867E+03 1.31726E+05-7.55995E-09 3.50428E-09
 -1       889 3.23249E+05 6.54173E+04 2.24552E+04 1.36758E+05-4.45237E-09 2.20098E-09
 -1       890 3.16360E+05 5.41036E+04 4.03907E+04 1.29577E+05 1.73625E-08-1.73350E-09
 -1       891-8.59253E+02-1.59929E+05-7.45815E+03 6.30799E+04 2.22963E-09-2.55295E-09
 -1       892-1.69948E+03-1.61767E+05-5.05643E+03 1.00060E+05 1.96133E-08 2.61934E-09
 -1       893-3.37634E+02-1.60749E+05-3.93886E+03 6.29287E+04 5.85578E-09-2.83381E-09
 -1       894-2.00692E+03-1.62015E+05-5.95130E+03 1.00040E+05 2.67942E-08 1.19621E-09
 -1       895-1.01462E+03-1.59647E+05-9.38848E+03 6.30984E+04-8.78208E-09 2.65936E-09
 -1       896 7.64249E+05 5.97624E+02 1.03700E+04-2.50554E+04-1.52795E-10-1.23873E-09
 -1       897 7.67071E+05 1.51755E+03 5.88153E+03-3.97171E+04 3.00133E-11 4.97948E-11
 -1       898 7.65446E+05-7.26891E+01 2.58720E+03-2.48837E+04-1.10049E-10-6.81439E-10
 -1       899 7.65617E+05 2.32965E+01 1.36965E+03-3.98597E+04 4.77485E-11 1.81899E-12
 -1       900 7.65485E+05-3.98775E+01 6.93794E+02-2.49104E+04-8.82210E-11-2.24645E-10
 -1       901 7.65450E+05-1.07003E+01 4.42838E+02-3.98114E+04-5.91172E-12 3.14913E-10
 -1       902 7.65461E+05-1.05170E+01 3.84449E+02-2.49322E+04-1.33241E-10-4.18368E-11
 -1       903 7.65414E+05 6.09926E+00 5.42799E+02-3.97790E+04 1.10504E-10-4.57021E-11
 -1       904 7.65435E+05-9.34682E+00 9.46761E+02-2.49428E+04 3.53566E-11 3.29351E-10
 -1       905 7.65480E+05 2.11161E+01 1.87769E+03-3.97710E+04-3.26281E-11 6.82121E-12
 -1       906 7.65374E+05-5.12289E+01 3.65112E+03-2.49402E+04 8.95852E-11 3.20625E-10
 -1       907 7.66077E+05 4.03466E+02 7.59953E+03-3.97815E+04 2.58979E-10 9.68043E-11
 -1       908 7.64882E+05-3.18217E+01 1.46315E+04-2.49320E+04 8.91305E-11 6.59384E-11
 -1       909 7.73770E+05 9.09619E+03 3.32387E+04-3.96697E+04-9.82254E-11-8.42192E-10
 -1       910 7.57780E+05 4.03210E+03 5.87800E+04-2.50579E+04-3.77440E-10-2.51021E-10
 -1       911 1.66280E+05 1.40114E+01 8.47923E+02-2.03609E+04 1.52795E-10-3.30147E-10
 -1       912 1.66512E+05 1.08302E+02 4.89905E+02-3.21258E+04 2.56023E-10 4.03134E-10
 -1       913 1.66349E+05-1.79728E+01 2.20042E+02-2.02174E+04 1.51886E-10 6.16183E-11
 -1       914 1.66349E+05 5.02482E+00 1.35066E+02-3.22711E+04-3.35149E-10 3.02180E-10
 -1       915 1.66331E+05-3.97949E-02 9.98693E+01-2.02156E+04 1.78716E-10 3.04226E-10
 -1       916 1.66313E+05 1.46909E+01 1.26177E+02-3.22707E+04 8.68567E-11 1.77238E-10
 -1       917 1.66317E+05 7.59599E+00 2.07575E+02-2.02178E+04 2.49656E-10 5.42627E-10
 -1       918 1.66315E+05 1.86290E+01 4.03607E+02-3.22684E+04-3.70079E-10-4.05635E-10
 -1       919 1.66305E+05-2.34682E+00 7.83336E+02-2.02179E+04-2.45336E-10 7.41238E-11
 -1       920 1.66391E+05 2.26177E+01 1.59972E+03-3.22703E+04 3.37423E-10 3.12411E-10
 -1       921 1.66261E+05-4.52721E+01 3.13347E+03-2.02158E+04 6.95763E-11 4.77257E-10
 -1       922 1.66917E+05 3.46584E+02 6.53800E+03-3.22703E+04-3.45608E-11-8.05755E-11
 -1       923 1.65843E+05-3.25273E+01 1.25940E+04-2.02176E+04 5.45697E-12 2.13731E-11
 -1       924 1.73552E+05 7.83488E+03 2.86249E+04-3.21250E+04 1.09594E-10-9.41327E-11
 -1       925 1.59734E+05 3.46012E+03 5.06226E+04-2.03660E+04-6.82121E-11-3.34694E-10
 -1       926-9.20953E+05-3.87578E+03-5.52950E+04-3.38510E+04 4.62023E-10-3.78350E-10
 -1       927-9.35957E+05-8.61271E+03-3.12597E+04-5.35342E+04 1.65073E-10 9.24047E-10
 -1       928-9.27727E+05 6.13964E+00-1.37627E+04-3.36109E+04 8.91305E-11-4.24734E-10
 -1       929-9.28862E+05-3.54330E+02-7.14595E+03-5.38185E+04-9.72705E-10-9.54060E-10
 -1       930-9.28249E+05 7.37061E+01-3.44496E+03-3.35725E+04 1.93268E-10 2.16687E-10
 -1       931-9.28363E+05 3.97338E+01-1.79446E+03-5.38626E+04-1.03398E-10 5.89353E-10
 -1       932-9.28318E+05 4.55387E+01-9.57084E+02-3.35662E+04-5.03633E-11 5.09999E-10
 -1       933-9.28285E+05 4.36137E+01-6.52303E+02-5.38537E+04 4.72937E-11 1.15961E-11
 -1       934-9.28299E+05 2.08053E+01-6.52980E+02-3.35814E+04 2.12822E-10 1.70758E-10
 -1       935-9.28240E+05 8.11106E-01-1.00862E+03-5.37993E+04-7.27596E-10-5.28871E-10
 -1       936-9.28212E+05-8.50677E+00-1.83335E+03-3.36207E+04 4.75666E-10 2.97860E-10
 -1       937-9.28395E+05-2.56618E+02-3.72372E+03-5.36890E+04 2.72848E-10-1.02182E-09
 -1       938-9.27873E+05-9.77518E+01-7.15832E+03-3.36920E+04 1.49157E-10-9.50422E-10
 -1       939-9.31939E+05-4.59251E+03-1.61982E+04-5.32529E+04 1.30785E-09-8.68567E-10
 -1       940-9.24289E+05-2.17214E+03-2.86771E+04-3.40478E+04-6.67569E-10 3.22416E-10
 -1       941 1.02336E+06 1.11117E+04 1.62240E+05-3.84390E+04 7.47605E-10-1.03319E-09
 -1       942 1.06759E+06 2.50243E+04 9.17210E+04-6.11007E+04-6.43922E-10-1.74623E-09
 -1       943 1.04295E+06-1.31394E+02 4.03966E+04-3.82063E+04-3.51065E-10-6.82121E-10
 -1       944 1.04637E+06 1.04459E+03 2.10126E+04-6.12597E+04-3.73802E-10-9.17225E-10
 -1       945 1.04430E+06-1.85659E+02 1.01585E+04-3.82341E+04 2.01453E-10 5.45697E-12
 -1       946 1.04472E+06-6.84839E+00 5.35131E+03-6.12223E+04 7.74889E-10 1.32059E-09
 -1       947 1.04446E+06-6.87416E+01 2.94732E+03-3.82450E+04 1.76158E-10 9.97261E-10
 -1       948 1.04454E+06-4.13665E+01 2.18028E+03-6.12278E+04 6.79393E-10 6.46651E-10
 -1       949 1.04449E+06-7.88804E+01 2.40618E+03-3.82289E+04-8.07631E-10-1.88675E-09
 -1       950 1.04473E+06-5.75163E+01 3.97398E+03-6.12873E+04 2.08456E-09 1.49294E-09
 -1       951 1.04444E+06-2.02001E+02 7.31650E+03-3.81849E+04-1.89812E-09-1.66540E-09
 -1       952 1.04600E+06 6.39562E+02 1.50356E+04-6.13828E+04-1.06866E-09-9.22000E-10
 -1       953 1.04355E+06-2.16684E+02 2.88350E+04-3.81319E+04-1.63345E-09-1.06775E-09
 -1       954 1.06128E+06 1.76996E+04 6.54833E+04-6.11977E+04-6.45832E-09-7.21229E-10
 -1       955 1.02963E+06 7.74077E+03 1.15771E+05-3.84222E+04 4.16549E-10 0.00000E+00
 -1       956-5.21951E+05-9.57928E+03-3.73524E+04 4.35521E+04-1.41772E-08 7.69433E-10
 -1       957-5.30468E+05-4.48964E+03-1.98621E+04 5.71780E+04-4.02633E-09-1.42063E-09
 -1       958-5.25871E+05-5.12238E+01-8.93880E+03 4.31515E+04 1.12341E-08-1.99725E-09
 -1       959-5.26580E+05 1.28920E+02-4.58261E+03 5.75957E+04-6.97855E-09-2.54886E-09
 -1       960-5.26241E+05 2.51885E+02-2.23978E+03 4.31098E+04-2.00980E-08-1.01818E-09
 -1       961-5.26407E+05 3.37881E+02-1.17388E+03 5.76482E+04-2.90174E-08 8.50378E-11
 -1       962-5.26353E+05 2.73360E+02-6.53832E+02 4.30962E+04-1.26129E-08-6.38920E-10
 -1       963-5.26453E+05 3.78325E+02-4.85145E+02 5.76688E+04-1.75332E-08-7.43512E-10
 -1       964-5.26400E+05 3.01750E+02-5.44906E+02 4.30881E+04-7.95853E-09-2.01862E-09
 -1       965-5.26514E+05 4.02046E+02-9.03140E+02 5.76774E+04 1.07420E-08-3.73848E-09
 -1       966-5.26388E+05 3.33599E+02-1.67586E+03 4.30870E+04-1.29208E-08-1.25578E-09
 -1       967-5.26730E+05 2.94749E+02-3.42067E+03 5.76638E+04-7.18046E-10-1.84900E-09
 -1       968-5.26174E+05 1.50101E+02-6.65656E+03 4.31028E+04 1.61162E-09-1.43842E-09
 -1       969-5.29711E+05-3.11244E+03-1.48132E+04 5.74687E+04 8.66567E-09-2.93215E-09
 -1       970-5.23296E+05-6.92942E+03-2.78462E+04 4.33133E+04-1.81080E-09-2.22462E-09
 -1       971-4.19544E+05-1.09312E+03-1.68254E+04 1.36979E+04-1.79307E-08-3.31602E-09
 -1       972-4.24147E+05-2.47602E+03-9.51325E+03 2.23494E+04-9.87893E-09-1.55160E-09
 -1       973-4.21603E+05 8.80191E+01-4.19523E+03 1.35605E+04-1.32204E-08-3.96199E-09
 -1       974-4.21990E+05 3.59088E+01-2.18751E+03 2.24923E+04-7.62384E-10-1.99645E-09
 -1       975-4.21764E+05 1.10161E+02-1.07402E+03 1.35440E+04 5.78439E-09-4.66389E-09
 -1       976-4.21846E+05 1.59121E+02-5.96292E+02 2.25135E+04-7.45365E-09-9.42691E-10
 -1       977-4.21788E+05 1.07074E+02-3.89491E+02 1.35386E+04 1.35624E-08-5.45924E-09
 -1       978-4.21841E+05 1.67351E+02-3.98257E+02 2.25198E+04 3.81359E-08-3.67572E-09
 -1       979-4.21786E+05 1.11865E+02-5.90714E+02 1.35376E+04 1.48654E-08-5.81394E-09
 -1       980-4.21879E+05 1.59287E+02-1.11185E+03 2.25168E+04 2.09490E-08-2.81602E-09
 -1       981-4.21744E+05 1.29927E+02-2.13506E+03 1.35416E+04 7.67386E-10-4.47315E-09
 -1       982-4.22201E+05-7.79498E+01-4.42874E+03 2.25004E+04-1.21245E-08-1.14593E-09
 -1       983-4.21435E+05 9.97480E+01-8.52602E+03 1.35551E+04 6.98947E-10-5.08498E-09
 -1       984-4.26631E+05-5.17488E+03-1.93658E+04 2.23770E+04-1.97269E-09-1.96928E-09
 -1       985-4.17264E+05-2.28670E+03-3.42492E+04 1.36879E+04 9.76024E-09-4.90945E-09
 -3
 9999
