
 stresses (elem, integ.pnt.,sxx,syy,szz,sxy,sxz,syz) for set ELALL and time  0.1000000E+01

         1   1 -2.954740E+06 -2.304158E+05 -2.876383E+05 -8.272395E+04 -1.965430E+05  2.630778E+01
         1   2 -2.916431E+06  2.561241E+04 -1.269783E+05 -2.504196E+04 -1.283415E+05  5.200163E+00
         1   3 -2.954401E+06  1.249232E+04 -7.814867E+04  3.264482E+04 -6.014003E+04 -3.176773E+00
         1   4 -2.954748E+06 -2.304287E+05 -2.876401E+05  9.018870E-09 -1.965430E+05 -5.544285E-11
         1   5 -2.916432E+06  2.561122E+04 -1.269784E+05 -1.151305E-08 -1.283415E+05  3.984980E-11
         1   6 -2.954403E+06  1.249031E+04 -7.814895E+04  6.116186E-09 -6.014003E+04  1.755088E-11
         1   7 -2.954740E+06 -2.304158E+05 -2.876383E+05  8.272395E+04 -1.965430E+05 -2.630778E+01
         1   8 -2.916431E+06  2.561241E+04 -1.269783E+05  2.504196E+04 -1.283415E+05 -5.200163E+00
         1   9 -2.954401E+06  1.249232E+04 -7.814867E+04 -3.264482E+04 -6.014003E+04  3.176773E+00
         1  10 -2.954782E+06 -2.304262E+05 -2.877112E+05 -8.272395E+04 -5.173954E-10 -5.512168E-10
         1  11 -2.916449E+06  2.560796E+04 -1.270094E+05 -2.504196E+04  1.155757E-09 -1.157892E-09
         1  12 -2.954405E+06  1.249134E+04 -7.815550E+04  3.264482E+04 -2.586810E-09  6.627136E-10
         1  13 -2.954789E+06 -2.304391E+05 -2.877131E+05 -1.256690E-08 -1.510853E-10 -3.227153E-10
         1  14 -2.916450E+06  2.560677E+04 -1.270095E+05 -7.164787E-09 -1.636336E-11 -5.159393E-10
         1  15 -2.954406E+06  1.248933E+04 -7.815578E+04 -1.681277E-08 -4.794856E-09  4.496876E-10
         1  16 -2.954782E+06 -2.304262E+05 -2.877112E+05  8.272395E+04  9.600090E-10 -1.246279E-10
         1  17 -2.916449E+06  2.560796E+04 -1.270094E+05  2.504196E+04 -3.023693E-09 -8.187750E-11
         1  18 -2.954405E+06  1.249134E+04 -7.815550E+04 -3.264482E+04 -1.159822E-09  3.253191E-10
         1  19 -2.954740E+06 -2.304158E+05 -2.876383E+05 -8.272395E+04  1.965430E+05 -2.630778E+01
         1  20 -2.916431E+06  2.561241E+04 -1.269783E+05 -2.504196E+04  1.283415E+05 -5.200163E+00
         1  21 -2.954401E+06  1.249232E+04 -7.814867E+04  3.264482E+04  6.014003E+04  3.176773E+00
         1  22 -2.954748E+06 -2.304287E+05 -2.876401E+05  1.746631E-08  1.965430E+05 -5.462671E-10
         1  23 -2.916432E+06  2.561122E+04 -1.269784E+05 -4.978704E-09  1.283415E+05 -1.105790E-09
         1  24 -2.954403E+06  1.249031E+04 -7.814895E+04  2.163741E-09  6.014003E+04  8.664793E-10
         1  25 -2.954740E+06 -2.304158E+05 -2.876383E+05  8.272395E+04  1.965430E+05  2.630778E+01
         1  26 -2.916431E+06  2.561241E+04 -1.269783E+05  2.504196E+04  1.283415E+05  5.200163E+00
         1  27 -2.954401E+06  1.249232E+04 -7.814867E+04 -3.264482E+04  6.014003E+04 -3.176773E+00
         2   1 -2.939390E+06 -2.096991E+04 -6.340162E+04 -6.569611E+03 -4.830214E+04  5.134566E-01
         2   2 -2.935167E+06  2.497464E+03 -3.281493E+04 -1.657163E+03 -3.160167E+04  8.473676E-02
         2   3 -2.939339E+06  1.144414E+03 -1.934335E+04  3.255257E+03 -1.490094E+04 -7.848717E-02
         2   4 -2.939391E+06 -2.096999E+04 -6.340163E+04  1.168119E-08 -4.830214E+04  5.565284E-10
         2   5 -2.935167E+06  2.497459E+03 -3.281493E+04 -7.714924E-09 -3.160167E+04  5.557553E-10
         2   6 -2.939339E+06  1.144394E+03 -1.934335E+04  1.590063E-08 -1.490094E+04 -1.848116E-09
         2   7 -2.939390E+06 -2.096991E+04 -6.340162E+04  6.569611E+03 -4.830214E+04 -5.134566E-01
         2   8 -2.935167E+06  2.497464E+03 -3.281493E+04  1.657163E+03 -3.160167E+04 -8.473676E-02
         2   9 -2.939339E+06  1.144414E+03 -1.934335E+04 -3.255257E+03 -1.490094E+04  7.848716E-02
         2  10 -2.939393E+06 -2.097054E+04 -6.340602E+04 -6.569611E+03 -5.404581E-10  1.181080E-09
         2  11 -2.935168E+06  2.497194E+03 -3.281682E+04 -1.657163E+03 -6.177854E-10  4.946303E-10
         2  12 -2.939340E+06  1.144354E+03 -1.934376E+04  3.255257E+03 -3.256596E-10  4.353789E-10
         2  13 -2.939393E+06 -2.097062E+04 -6.340604E+04 -9.904272E-09 -4.370703E-09  6.832930E-10
         2  14 -2.935168E+06  2.497189E+03 -3.281682E+04 -5.615941E-09 -9.437332E-10 -9.909622E-11
         2  15 -2.939340E+06  1.144334E+03 -1.934377E+04  2.016986E-08  9.128864E-10 -3.852899E-10
         2  16 -2.939393E+06 -2.097054E+04 -6.340602E+04  6.569611E+03 -2.686501E-09  3.065410E-10
         2  17 -2.935168E+06  2.497194E+03 -3.281682E+04  1.657163E+03 -1.831161E-09 -4.334436E-10
         2  18 -2.939340E+06  1.144354E+03 -1.934376E+04 -3.255257E+03  1.503254E-09 -1.308493E-09
         2  19 -2.939390E+06 -2.096991E+04 -6.340162E+04 -6.569611E+03  4.830214E+04 -5.134566E-01
         2  20 -2.935167E+06  2.497464E+03 -3.281493E+04 -1.657163E+03  3.160167E+04 -8.473676E-02
         2  21 -2.939339E+06  1.144414E+03 -1.934335E+04  3.255257E+03  1.490094E+04  7.848717E-02
         2  22 -2.939391E+06 -2.096999E+04 -6.340163E+04  2.955972E-09  4.830214E+04  7.526606E-10
         2  23 -2.935167E+06  2.497459E+03 -3.281493E+04 -7.815656E-09  3.160167E+04 -7.031760E-10
         2  24 -2.939339E+06  1.144394E+03 -1.934335E+04  3.301959E-08  1.490094E+04  9.937642E-10
         2  25 -2.939390E+06 -2.096991E+04 -6.340162E+04  6.569611E+03  4.830214E+04  5.134566E-01
         2  26 -2.935167E+06  2.497464E+03 -3.281493E+04  1.657163E+03  3.160167E+04  8.473675E-02
         2  27 -2.939339E+06  1.144414E+03 -1.934335E+04 -3.255257E+03  1.490094E+04 -7.848717E-02
         3   1 -2.937727E+06 -1.855751E+03 -1.506512E+04 -3.417335E+02 -1.187640E+04  6.567061E-03
         3   2 -2.937163E+06  2.640285E+02 -8.394186E+03  5.893896E+00 -7.688216E+03 -7.331988E-05
         3   3 -2.937718E+06  1.036268E+02 -5.029535E+03  3.535150E+02 -3.500066E+03 -2.002086E-03
         3   4 -2.937727E+06 -1.855751E+03 -1.506512E+04 -5.109819E-09 -1.187640E+04 -1.598413E-09
         3   5 -2.937163E+06  2.640285E+02 -8.394186E+03 -1.445383E-08 -7.688216E+03  1.311559E-09
         3   6 -2.937718E+06  1.036266E+02 -5.029535E+03  1.063304E-08 -3.500066E+03  5.752216E-10
         3   7 -2.937727E+06 -1.855751E+03 -1.506512E+04  3.417335E+02 -1.187640E+04 -6.567064E-03
         3   8 -2.937163E+06  2.640285E+02 -8.394186E+03 -5.893896E+00 -7.688216E+03  7.332235E-05
         3   9 -2.937718E+06  1.036268E+02 -5.029535E+03 -3.535150E+02 -3.500066E+03  2.002087E-03
         3  10 -2.937727E+06 -1.855789E+03 -1.506539E+04 -3.417335E+02 -1.270743E-09  5.954635E-11
         3  11 -2.937163E+06  2.640125E+02 -8.394297E+03  5.893896E+00 -1.117861E-09 -4.638057E-10
         3  12 -2.937718E+06  1.036235E+02 -5.029558E+03  3.535150E+02 -3.790802E-10  5.209824E-10
         3  13 -2.937727E+06 -1.855789E+03 -1.506539E+04 -5.057372E-09 -1.015257E-10 -1.552540E-10
         3  14 -2.937163E+06  2.640125E+02 -8.394297E+03 -3.166505E-08 -1.075691E-09  5.650773E-11
         3  15 -2.937718E+06  1.036233E+02 -5.029558E+03  6.248396E-09 -1.075694E-09 -3.099566E-10
         3  16 -2.937727E+06 -1.855789E+03 -1.506539E+04  3.417335E+02  9.831188E-10 -5.337454E-10
         3  17 -2.937163E+06  2.640125E+02 -8.394297E+03 -5.893896E+00 -1.671095E-09  8.028099E-10
         3  18 -2.937718E+06  1.036235E+02 -5.029558E+03 -3.535150E+02 -1.561282E-09 -8.085184E-10
         3  19 -2.937727E+06 -1.855751E+03 -1.506512E+04 -3.417335E+02  1.187640E+04 -6.567060E-03
         3  20 -2.937163E+06  2.640285E+02 -8.394186E+03  5.893896E+00  7.688216E+03  7.331969E-05
         3  21 -2.937718E+06  1.036268E+02 -5.029535E+03  3.535150E+02  3.500066E+03  2.002087E-03
         3  22 -2.937727E+06 -1.855751E+03 -1.506512E+04  7.909832E-09  1.187640E+04  1.078124E-09
         3  23 -2.937163E+06  2.640285E+02 -8.394186E+03 -2.091433E-08  7.688216E+03 -1.201447E-09
         3  24 -2.937718E+06  1.036266E+02 -5.029535E+03  2.880243E-08  3.500066E+03 -1.172586E-09
         3  25 -2.937727E+06 -1.855751E+03 -1.506512E+04  3.417335E+02  1.187640E+04  6.567063E-03
         3  26 -2.937163E+06  2.640285E+02 -8.394186E+03 -5.893896E+00  7.688216E+03 -7.332154E-05
         3  27 -2.937718E+06  1.036268E+02 -5.029535E+03 -3.535150E+02  3.500066E+03 -2.002090E-03
         4   1 -2.937520E+06 -1.502284E+02 -3.986958E+03  2.553091E+01 -2.692279E+03 -1.112195E-04
         4   2 -2.937405E+06  3.801618E+01 -2.649206E+03  2.533887E+01 -1.380627E+03 -5.660657E-05
         4   3 -2.937519E+06 -1.414133E+00 -2.225359E+03  2.514683E+01 -6.895274E+01 -2.804320E-06
         4   4 -2.937520E+06 -1.502284E+02 -3.986958E+03  1.018186E-08 -2.692279E+03 -1.724771E-10
         4   5 -2.937405E+06  3.801618E+01 -2.649206E+03 -7.575689E-09 -1.380627E+03  3.987486E-10
         4   6 -2.937519E+06 -1.414134E+00 -2.225359E+03 -2.210823E-08 -6.895274E+01  3.064875E-10
         4   7 -2.937520E+06 -1.502284E+02 -3.986958E+03 -2.553091E+01 -2.692279E+03  1.112197E-04
         4   8 -2.937405E+06  3.801618E+01 -2.649206E+03 -2.533887E+01 -1.380627E+03  5.660654E-05
         4   9 -2.937519E+06 -1.414133E+00 -2.225359E+03 -2.514683E+01 -6.895274E+01  2.805669E-06
         4  10 -2.937520E+06 -1.502304E+02 -3.986972E+03  2.553091E+01 -9.823523E-10  1.550719E-10
         4  11 -2.937405E+06  3.801566E+01 -2.649209E+03  2.533887E+01 -2.577574E-09 -8.663381E-10
         4  12 -2.937519E+06 -1.414134E+00 -2.225359E+03  2.514683E+01 -1.385791E-09  6.165121E-10
         4  13 -2.937520E+06 -1.502304E+02 -3.986972E+03  1.020704E-08 -2.284154E-09 -3.825583E-10
         4  14 -2.937405E+06  3.801566E+01 -2.649209E+03 -5.386517E-09  1.327653E-10 -3.315235E-12
         4  15 -2.937519E+06 -1.414135E+00 -2.225359E+03 -2.743006E-08  1.762907E-09  4.045472E-10
         4  16 -2.937520E+06 -1.502304E+02 -3.986972E+03 -2.553091E+01  1.942257E-10 -9.901194E-10
         4  17 -2.937405E+06  3.801566E+01 -2.649209E+03 -2.533887E+01  9.178285E-10  1.064706E-09
         4  18 -2.937519E+06 -1.414134E+00 -2.225359E+03 -2.514683E+01  3.319775E-09 -5.790962E-11
         4  19 -2.937520E+06 -1.502284E+02 -3.986958E+03  2.553091E+01  2.692279E+03  1.112210E-04
         4  20 -2.937405E+06  3.801618E+01 -2.649206E+03  2.533887E+01  1.380627E+03  5.660517E-05
         4  21 -2.937519E+06 -1.414133E+00 -2.225359E+03  2.514683E+01  6.895274E+01  2.806523E-06
         4  22 -2.937520E+06 -1.502284E+02 -3.986958E+03  2.746440E-08  2.692279E+03 -6.275149E-10
         4  23 -2.937405E+06  3.801618E+01 -2.649206E+03 -1.180504E-08  1.380627E+03 -6.040515E-10
         4  24 -2.937519E+06 -1.414134E+00 -2.225359E+03 -9.111702E-09  6.895274E+01  4.179090E-10
         4  25 -2.937520E+06 -1.502284E+02 -3.986958E+03 -2.553091E+01  2.692279E+03 -1.112224E-04
         4  26 -2.937405E+06  3.801618E+01 -2.649206E+03 -2.533887E+01  1.380627E+03 -5.660544E-05
         4  27 -2.937519E+06 -1.414133E+00 -2.225359E+03 -2.514683E+01  6.895274E+01 -2.805622E-06
         5   1 -2.937524E+06  1.453947E+00 -2.271368E+03 -3.609426E+01  3.364067E+02 -1.964570E-05
         5   2 -2.937399E+06  4.243257E+01 -2.899132E+03 -3.429027E+01  1.772006E+03 -9.831925E-05
         5   3 -2.937526E+06 -1.747589E+02 -4.529395E+03 -3.248629E+01  3.207602E+03 -1.686087E-04
         5   4 -2.937524E+06  1.453945E+00 -2.271368E+03 -1.813242E-08  3.364067E+02  1.332719E-11
         5   5 -2.937399E+06  4.243257E+01 -2.899132E+03 -6.010067E-09  1.772006E+03 -7.926099E-10
         5   6 -2.937526E+06 -1.747589E+02 -4.529395E+03  2.060697E-08  3.207602E+03 -8.395240E-10
         5   7 -2.937524E+06  1.453947E+00 -2.271368E+03  3.609426E+01  3.364067E+02  1.964623E-05
         5   8 -2.937399E+06  4.243257E+01 -2.899132E+03  3.429027E+01  1.772006E+03  9.831732E-05
         5   9 -2.937526E+06 -1.747589E+02 -4.529395E+03  3.248629E+01  3.207602E+03  1.686072E-04
         5  10 -2.937524E+06  1.453917E+00 -2.271368E+03 -3.609426E+01 -4.777311E-10  8.947262E-10
         5  11 -2.937399E+06  4.243172E+01 -2.899138E+03 -3.429027E+01  2.884296E-09 -2.931444E-10
         5  12 -2.937526E+06 -1.747617E+02 -4.529415E+03 -3.248629E+01  1.319076E-09 -4.115569E-10
         5  13 -2.937524E+06  1.453914E+00 -2.271368E+03 -1.818908E-08  3.326772E-10  2.711666E-10
         5  14 -2.937399E+06  4.243172E+01 -2.899138E+03 -1.740843E-09  1.242034E-09 -3.705169E-10
         5  15 -2.937526E+06 -1.747617E+02 -4.529415E+03 -1.645432E-08  1.089276E-09 -3.677834E-10
         5  16 -2.937524E+06  1.453917E+00 -2.271368E+03  3.609426E+01  7.804338E-12 -6.923180E-10
         5  17 -2.937399E+06  4.243172E+01 -2.899138E+03  3.429027E+01 -1.786538E-10 -3.840750E-10
         5  18 -2.937526E+06 -1.747617E+02 -4.529415E+03  3.248629E+01  2.101284E-10 -4.407649E-10
         5  19 -2.937524E+06  1.453947E+00 -2.271368E+03 -3.609426E+01 -3.364067E+02  1.964907E-05
         5  20 -2.937399E+06  4.243257E+01 -2.899132E+03 -3.429027E+01 -1.772006E+03  9.831939E-05
         5  21 -2.937526E+06 -1.747589E+02 -4.529395E+03 -3.248629E+01 -3.207602E+03  1.686084E-04
         5  22 -2.937524E+06  1.453945E+00 -2.271368E+03  3.253554E-09 -3.364067E+02  5.101786E-10
         5  23 -2.937399E+06  4.243257E+01 -2.899132E+03 -8.216025E-09 -1.772006E+03  9.625164E-11
         5  24 -2.937526E+06 -1.747589E+02 -4.529395E+03  1.689658E-08 -3.207602E+03  7.169316E-11
         5  25 -2.937524E+06  1.453947E+00 -2.271368E+03  3.609426E+01 -3.364067E+02 -1.964793E-05
         5  26 -2.937399E+06  4.243257E+01 -2.899132E+03  3.429027E+01 -1.772006E+03 -9.831878E-05
         5  27 -2.937526E+06 -1.747589E+02 -4.529395E+03  3.248629E+01 -3.207602E+03 -1.686088E-04
         6   1 -2.937758E+06  1.202310E+02 -5.765429E+03 -4.127642E+02  4.129703E+03 -2.758161E-03
         6   2 -2.937115E+06  3.064162E+02 -9.707595E+03 -8.167538E+00  8.973505E+03 -1.185911E-04
         6   3 -2.937769E+06 -2.155934E+03 -1.747652E+04  3.964246E+02  1.381720E+04  8.862971E-03
         6   4 -2.937758E+06  1.202306E+02 -5.765429E+03  2.585879E-08  4.129703E+03 -8.400391E-11
         6   5 -2.937115E+06  3.064162E+02 -9.707595E+03  4.619687E-09  8.973505E+03  5.068797E-10
         6   6 -2.937769E+06 -2.155934E+03 -1.747652E+04  5.959795E-09  1.381720E+04 -7.116359E-10
         6   7 -2.937758E+06  1.202310E+02 -5.765429E+03  4.127642E+02  4.129703E+03  2.758161E-03
         6   8 -2.937115E+06  3.064162E+02 -9.707595E+03  8.167538E+00  8.973505E+03  1.185918E-04
         6   9 -2.937769E+06 -2.155934E+03 -1.747652E+04 -3.964246E+02  1.381720E+04 -8.862972E-03
         6  10 -2.937758E+06  1.202264E+02 -5.765461E+03 -4.127642E+02  9.612189E-10 -4.303944E-10
         6  11 -2.937115E+06  3.063945E+02 -9.707747E+03 -8.167538E+00  3.111960E-09 -3.142679E-10
         6  12 -2.937769E+06 -2.155985E+03 -1.747688E+04  3.964246E+02 -1.143202E-09 -5.662810E-11
         6  13 -2.937758E+06  1.202260E+02 -5.765461E+03  4.616675E-11 -2.316042E-09 -1.933843E-10
         6  14 -2.937115E+06  3.063945E+02 -9.707747E+03 -8.290849E-09 -2.989554E-10  1.265875E-10
         6  15 -2.937769E+06 -2.155986E+03 -1.747688E+04 -1.572223E-09 -9.720612E-10 -2.885966E-11
         6  16 -2.937758E+06  1.202264E+02 -5.765461E+03  4.127642E+02 -8.414565E-10  1.064164E-10
         6  17 -2.937115E+06  3.063945E+02 -9.707747E+03  8.167538E+00 -6.881155E-10  5.029933E-10
         6  18 -2.937769E+06 -2.155985E+03 -1.747688E+04 -3.964246E+02 -2.719327E-10 -4.977394E-11
         6  19 -2.937758E+06  1.202310E+02 -5.765429E+03 -4.127642E+02 -4.129703E+03  2.758161E-03
         6  20 -2.937115E+06  3.064162E+02 -9.707595E+03 -8.167538E+00 -8.973505E+03  1.185905E-04
         6  21 -2.937769E+06 -2.155934E+03 -1.747652E+04  3.964246E+02 -1.381720E+04 -8.862970E-03
         6  22 -2.937758E+06  1.202306E+02 -5.765429E+03  2.161894E-08 -4.129703E+03 -2.319511E-10
         6  23 -2.937115E+06  3.064162E+02 -9.707595E+03 -1.473457E-08 -8.973505E+03 -4.752610E-10
         6  24 -2.937769E+06 -2.155934E+03 -1.747652E+04 -2.687805E-09 -1.381720E+04  6.867581E-10
         6  25 -2.937758E+06  1.202310E+02 -5.765429E+03  4.127642E+02 -4.129703E+03 -2.758163E-03
         6  26 -2.937115E+06  3.064162E+02 -9.707595E+03  8.167538E+00 -8.973505E+03 -1.185910E-04
         6  27 -2.937769E+06 -2.155934E+03 -1.747652E+04 -3.964246E+02 -1.381720E+04  8.862971E-03
         7   1 -2.939642E+06  1.329446E+03 -2.245296E+04 -3.782364E+03  1.732715E+04 -1.060450E-01
         7   2 -2.934795E+06  2.901342E+03 -3.811160E+04  1.924938E+03  3.672369E+04  1.143824E-01
         7   3 -2.939701E+06 -2.436215E+04 -7.364967E+04  7.632362E+03  5.612015E+04  6.930671E-01
         7   4 -2.939642E+06  1.329419E+03 -2.245297E+04  2.205514E-09  1.732715E+04 -6.873585E-10
         7   5 -2.934795E+06  2.901335E+03 -3.811160E+04 -1.010708E-08  3.672369E+04  3.441952E-10
         7   6 -2.939701E+06 -2.436226E+04 -7.364968E+04  1.952892E-08  5.612015E+04 -3.079202E-10
         7   7 -2.939642E+06  1.329446E+03 -2.245296E+04  3.782364E+03  1.732715E+04  1.060450E-01
         7   8 -2.934795E+06  2.901342E+03 -3.811160E+04 -1.924938E+03  3.672369E+04 -1.143824E-01
         7   9 -2.939701E+06 -2.436215E+04 -7.364967E+04 -7.632362E+03  5.612015E+04 -6.930671E-01
         7  10 -2.939642E+06  1.329365E+03 -2.245353E+04 -3.782364E+03 -9.413753E-10 -1.652271E-10
         7  11 -2.934796E+06  2.900978E+03 -3.811414E+04  1.924938E+03 -1.269966E-09  9.676571E-11
         7  12 -2.939705E+06 -2.436300E+04 -7.365561E+04  7.632362E+03 -2.639069E-09  1.335216E-10
         7  13 -2.939642E+06  1.329338E+03 -2.245353E+04 -6.368664E-09  1.975457E-10 -2.148990E-11
         7  14 -2.934796E+06  2.900971E+03 -3.811415E+04  2.820415E-09  9.433174E-10  2.603966E-10
         7  15 -2.939705E+06 -2.436311E+04 -7.365563E+04  1.850725E-10 -2.086736E-09 -6.990207E-12
         7  16 -2.939642E+06  1.329365E+03 -2.245353E+04  3.782364E+03 -1.294551E-09 -3.141709E-10
         7  17 -2.934796E+06  2.900978E+03 -3.811414E+04 -1.924938E+03  1.617622E-09  3.046078E-10
         7  18 -2.939705E+06 -2.436300E+04 -7.365561E+04 -7.632362E+03 -1.783117E-09 -4.930016E-11
         7  19 -2.939642E+06  1.329446E+03 -2.245296E+04 -3.782364E+03 -1.732715E+04  1.060450E-01
         7  20 -2.934795E+06  2.901342E+03 -3.811160E+04  1.924938E+03 -3.672369E+04 -1.143824E-01
         7  21 -2.939701E+06 -2.436215E+04 -7.364967E+04  7.632362E+03 -5.612015E+04 -6.930671E-01
         7  22 -2.939642E+06  1.329419E+03 -2.245297E+04  2.228599E-09 -1.732715E+04  6.327359E-10
         7  23 -2.934795E+06  2.901335E+03 -3.811160E+04 -5.793725E-09 -3.672369E+04 -4.113712E-11
         7  24 -2.939701E+06 -2.436226E+04 -7.364968E+04  1.952262E-08 -5.612015E+04  2.680122E-10
         7  25 -2.939642E+06  1.329446E+03 -2.245296E+04  3.782364E+03 -1.732715E+04 -1.060450E-01
         7  26 -2.934795E+06  2.901342E+03 -3.811160E+04 -1.924938E+03 -3.672369E+04  1.143824E-01
         7  27 -2.939701E+06 -2.436215E+04 -7.364967E+04 -7.632362E+03 -5.612015E+04  6.930671E-01
         8   1 -2.957140E+06  1.451333E+04 -9.078278E+04 -3.792513E+04  6.987136E+04 -4.287816E+00
         8   2 -2.913028E+06  2.975542E+04 -1.475083E+05  2.909286E+04  1.491041E+05  7.018674E+00
         8   3 -2.957530E+06 -2.676835E+05 -3.341486E+05  9.610556E+04  2.283384E+05  3.550768E+01
         8   4 -2.957141E+06  1.451061E+04 -9.078317E+04  2.415768E-08  6.987136E+04  1.927643E-10
         8   5 -2.913029E+06  2.975382E+04 -1.475085E+05  5.420538E-09  1.491041E+05  1.817489E-09
         8   6 -2.957540E+06 -2.677010E+05 -3.341511E+05 -9.004096E-09  2.283384E+05  6.707224E-10
         8   7 -2.957140E+06  1.451333E+04 -9.078278E+04  3.792513E+04  6.987136E+04  4.287816E+00
         8   8 -2.913028E+06  2.975542E+04 -1.475083E+05 -2.909286E+04  1.491041E+05 -7.018674E+00
         8   9 -2.957530E+06 -2.676835E+05 -3.341486E+05 -9.610556E+04  2.283384E+05 -3.550768E+01
         8  10 -2.957145E+06  1.451201E+04 -9.079200E+04 -3.792513E+04 -5.075144E-10  7.722952E-11
         8  11 -2.913052E+06  2.974941E+04 -1.475503E+05  2.909286E+04  4.404168E-10  1.034951E-10
         8  12 -2.957586E+06 -2.676976E+05 -3.342471E+05  9.610555E+04 -3.839167E-10  6.765922E-11
         8  13 -2.957146E+06  1.450929E+04 -9.079238E+04 -1.021569E-08 -3.193240E-09  1.355907E-10
         8  14 -2.913053E+06  2.974782E+04 -1.475505E+05 -1.610614E-08 -4.171670E-09  5.056738E-10
         8  15 -2.957596E+06 -2.677151E+05 -3.342496E+05 -2.306889E-08 -2.586857E-09  2.380746E-10
         8  16 -2.957145E+06  1.451201E+04 -9.079200E+04  3.792513E+04 -7.453669E-10  1.467422E-10
         8  17 -2.913052E+06  2.974941E+04 -1.475503E+05 -2.909286E+04 -4.596733E-09  1.004599E-09
         8  18 -2.957586E+06 -2.676976E+05 -3.342471E+05 -9.610555E+04 -1.384909E-09  3.184454E-10
         8  19 -2.957140E+06  1.451333E+04 -9.078278E+04 -3.792513E+04 -6.987136E+04  4.287816E+00
         8  20 -2.913028E+06  2.975542E+04 -1.475083E+05  2.909286E+04 -1.491041E+05 -7.018674E+00
         8  21 -2.957530E+06 -2.676835E+05 -3.341486E+05  9.610556E+04 -2.283384E+05 -3.550768E+01
         8  22 -2.957141E+06  1.451061E+04 -9.078317E+04  1.567135E-08 -6.987136E+04  1.675985E-10
         8  23 -2.913029E+06  2.975382E+04 -1.475085E+05 -2.901145E-08 -1.491041E+05 -6.681579E-10
         8  24 -2.957540E+06 -2.677010E+05 -3.341511E+05 -1.773909E-08 -2.283384E+05 -2.729116E-10
         8  25 -2.957140E+06  1.451333E+04 -9.078278E+04  3.792513E+04 -6.987136E+04 -4.287816E+00
         8  26 -2.913028E+06  2.975542E+04 -1.475083E+05 -2.909286E+04 -1.491041E+05  7.018674E+00
         8  27 -2.957530E+06 -2.676835E+05 -3.341486E+05 -9.610556E+04 -2.283384E+05  3.550768E+01
         9   1  2.067193E+06  7.068565E+06  1.996031E+06 -1.255438E+06  9.494345E+04  7.074897E+05
         9   2  1.596099E+06  5.972779E+06  1.362205E+06 -1.083117E+06  3.123124E+05  3.286790E+05
         9   3  1.296610E+06  4.972837E+06  1.016909E+06 -1.120337E+06  3.519400E+05 -4.933659E+04
         9   4  2.012396E+05 -5.140413E+05  2.205346E+05 -1.112767E+06  9.637291E+04  1.523220E+05
         9   5  4.837090E+04 -5.316979E+05  1.085988E+05 -1.008328E+06  3.133502E+05  9.738585E+04
         9   6  1.218293E+04 -5.097181E+05  6.222869E+04 -1.113381E+06  3.518134E+05  4.252068E+04
         9   7 -1.668557E+06 -8.043349E+06 -1.557732E+06 -9.717627E+05  9.756300E+04 -3.961735E+05
         9   8 -1.501820E+06 -6.995604E+06 -1.146773E+06 -9.342740E+05  3.143405E+05 -1.315603E+05
         9   9 -1.273864E+06 -5.962943E+06 -8.934836E+05 -1.106433E+06  3.516880E+05  1.335949E+05
         9  10  2.067050E+06  7.068030E+06  1.995083E+06 -1.255492E+06  2.499875E-09 -5.398769E-08
         9  11  1.595966E+06  5.972637E+06  1.361819E+06 -1.083199E+06  5.105969E-09  1.139488E-09
         9  12  1.296476E+06  4.972801E+06  1.016672E+06 -1.120323E+06 -7.822846E-10  5.690250E-08
         9  13  2.012233E+05 -5.140688E+05  2.204734E+05 -1.112779E+06  2.938347E-09  1.281819E-10
         9  14  4.826288E+04 -5.317345E+05  1.083963E+05 -1.008352E+06  2.842522E-09  8.972956E-11
         9  15  1.204953E+04 -5.097532E+05  6.199263E+04 -1.113393E+06 -1.817043E-09  1.314849E-10
         9  16 -1.668610E+06 -8.043521E+06 -1.558048E+06 -9.717315E+05  6.431921E-10  5.320375E-08
         9  17 -1.501931E+06 -6.995649E+06 -1.146991E+06 -9.342407E+05  2.057061E-09 -1.091702E-09
         9  18 -1.274002E+06 -5.962995E+06 -8.937502E+05 -1.106471E+06  2.019550E-09 -5.632738E-08
         9  19  2.067193E+06  7.068565E+06  1.996031E+06 -1.255438E+06 -9.494345E+04 -7.074897E+05
         9  20  1.596099E+06  5.972779E+06  1.362205E+06 -1.083117E+06 -3.123124E+05 -3.286790E+05
         9  21  1.296610E+06  4.972837E+06  1.016909E+06 -1.120337E+06 -3.519400E+05  4.933659E+04
         9  22  2.012396E+05 -5.140413E+05  2.205346E+05 -1.112767E+06 -9.637291E+04 -1.523220E+05
         9  23  4.837090E+04 -5.316979E+05  1.085988E+05 -1.008328E+06 -3.133502E+05 -9.738585E+04
         9  24  1.218293E+04 -5.097181E+05  6.222869E+04 -1.113381E+06 -3.518134E+05 -4.252068E+04
         9  25 -1.668557E+06 -8.043349E+06 -1.557732E+06 -9.717627E+05 -9.756300E+04  3.961735E+05
         9  26 -1.501820E+06 -6.995604E+06 -1.146773E+06 -9.342740E+05 -3.143405E+05  1.315603E+05
         9  27 -1.273864E+06 -5.962943E+06 -8.934836E+05 -1.106433E+06 -3.516880E+05 -1.335949E+05
        10   1  1.137440E+06  4.281814E+06  8.733468E+05 -1.136277E+06  3.178170E+05 -4.338999E+04
        10   2  8.817372E+05  3.229759E+06  6.545141E+05 -1.019683E+06  2.669517E+05 -8.915449E+04
        10   3  6.418316E+05  2.188132E+06  4.691292E+05 -1.124529E+06  1.995906E+05 -1.350638E+05
        10   4  1.501467E+04 -5.162697E+05  4.879500E+04 -1.116011E+06  3.176572E+05  3.398957E+04
        10   5  8.972986E+03 -5.170865E+05  3.162386E+04 -1.005267E+06  2.665141E+05  1.812517E+04
        10   6  1.364809E+04 -5.136759E+05  2.727608E+04 -1.116039E+06  1.988237E+05  2.042493E+03
        10   7 -1.108638E+06 -5.291822E+06 -7.765161E+05 -1.095861E+06  3.175017E+05  1.107921E+05
        10   8 -8.645134E+05 -4.250083E+06 -5.916500E+05 -9.909116E+05  2.660797E+05  1.247813E+05
        10   9 -6.148987E+05 -3.208228E+06 -4.147156E+05 -1.107571E+06  1.980583E+05  1.385743E+05
        10  10  1.137331E+06  4.281785E+06  8.731536E+05 -1.136266E+06 -3.420451E-09  3.081815E-09
        10  11  8.816587E+05  3.229731E+06  6.543655E+05 -1.019664E+06 -8.743001E-10  1.490806E-09
        10  12  6.417841E+05  2.188102E+06  4.690204E+05 -1.124507E+06 -1.641862E-09  3.856415E-10
        10  13  1.490601E+04 -5.162981E+05  4.860316E+04 -1.116020E+06 -2.608740E-09  1.890052E-10
        10  14  8.896633E+03 -5.171059E+05  3.148976E+04 -1.005270E+06 -1.469977E-09  1.033386E-10
        10  15  1.360565E+04 -5.136865E+05  2.720180E+04 -1.116040E+06 -1.952477E-09  6.807112E-11
        10  16 -1.108749E+06 -5.291863E+06 -7.767290E+05 -1.095890E+06  2.986394E-10 -3.287010E-09
        10  17 -8.645937E+05 -4.250118E+06 -5.918127E+05 -9.909385E+05  1.048248E-10 -1.578955E-09
        10  18 -6.149461E+05 -3.208259E+06 -4.148258E+05 -1.107594E+06 -2.091969E-09 -4.050118E-10
        10  19  1.137440E+06  4.281814E+06  8.733468E+05 -1.136277E+06 -3.178170E+05  4.338999E+04
        10  20  8.817372E+05  3.229759E+06  6.545141E+05 -1.019683E+06 -2.669517E+05  8.915449E+04
        10  21  6.418316E+05  2.188132E+06  4.691292E+05 -1.124529E+06 -1.995906E+05  1.350638E+05
        10  22  1.501467E+04 -5.162697E+05  4.879500E+04 -1.116011E+06 -3.176572E+05 -3.398957E+04
        10  23  8.972986E+03 -5.170865E+05  3.162386E+04 -1.005267E+06 -2.665141E+05 -1.812517E+04
        10  24  1.364809E+04 -5.136759E+05  2.727608E+04 -1.116039E+06 -1.988237E+05 -2.042493E+03
        10  25 -1.108638E+06 -5.291822E+06 -7.765161E+05 -1.095861E+06 -3.175017E+05 -1.107921E+05
        10  26 -8.645134E+05 -4.250083E+06 -5.916500E+05 -9.909116E+05 -2.660797E+05 -1.247813E+05
        10  27 -6.148987E+05 -3.208228E+06 -4.147156E+05 -1.107571E+06 -1.980583E+05 -1.385743E+05
        11   1  4.848319E+05  1.514893E+06  3.543989E+05 -1.126833E+06  1.544993E+05 -1.390134E+05
        11   2  2.522548E+05  4.656074E+05  1.872993E+05 -9.903599E+05  8.264656E+04 -1.449846E+05
        11   3  5.367689E+04 -5.755966E+05  3.190011E+04 -1.075971E+06  1.833530E+04 -1.509712E+05
        11   4  1.437168E+04 -5.119331E+05  2.798721E+04 -1.116191E+06  1.536702E+05 -2.615846E+03
        11   5  2.620874E+04 -5.162454E+05  3.760111E+04 -1.004998E+06  8.186571E+04 -2.225802E+04
        11   6  7.446989E+04 -5.112307E+05  6.836549E+04 -1.115866E+06  1.760777E+04 -4.192280E+04
        11   7 -4.562857E+05 -2.534646E+06 -2.984656E+05 -1.105575E+06  1.528439E+05  1.333530E+05
        11   8 -1.998745E+05 -1.497100E+06 -1.120608E+05 -1.019611E+06  8.107825E+04  1.002821E+05
        11   9  9.527453E+04 -4.468332E+05  1.048760E+05 -1.155764E+06  1.686624E+04  6.713835E+04
        11  10  4.848012E+05  1.514866E+06  3.543180E+05 -1.126816E+06 -6.779546E-10  1.251725E-09
        11  11  2.522419E+05  4.655830E+05  1.872470E+05 -9.903502E+05  1.321569E-11  1.818884E-09
        11  12  5.367041E+04 -5.756212E+05  3.185663E+04 -1.075969E+06  2.237212E-10  2.125244E-09
        11  13  1.434633E+04 -5.119394E+05  2.794284E+04 -1.116191E+06 -2.482359E-09  2.002229E-10
        11  14  2.620142E+04 -5.162478E+05  3.758760E+04 -1.004997E+06 -1.343281E-09 -1.652959E-10
        11  15  7.446908E+04 -5.112326E+05  6.836160E+04 -1.115865E+06 -9.068884E-10  1.792372E-11
        11  16 -4.563157E+05 -2.534671E+06 -2.985432E+05 -1.105592E+06 -3.207884E-09 -9.889494E-10
        11  17 -1.998843E+05 -1.497113E+06 -1.120922E+05 -1.019617E+06 -3.140558E-09 -1.769244E-09
        11  18  9.527301E+04 -4.468382E+05  1.048670E+05 -1.155765E+06 -1.388746E-09 -2.057238E-09
        11  19  4.848319E+05  1.514893E+06  3.543989E+05 -1.126833E+06 -1.544993E+05  1.390134E+05
        11  20  2.522548E+05  4.656074E+05  1.872993E+05 -9.903599E+05 -8.264656E+04  1.449846E+05
        11  21  5.367689E+04 -5.755966E+05  3.190011E+04 -1.075971E+06 -1.833530E+04  1.509712E+05
        11  22  1.437168E+04 -5.119331E+05  2.798721E+04 -1.116191E+06 -1.536702E+05  2.615846E+03
        11  23  2.620874E+04 -5.162454E+05  3.760111E+04 -1.004998E+06 -8.186571E+04  2.225802E+04
        11  24  7.446989E+04 -5.112307E+05  6.836549E+04 -1.115866E+06 -1.760777E+04  4.192280E+04
        11  25 -4.562857E+05 -2.534646E+06 -2.984656E+05 -1.105575E+06 -1.528439E+05 -1.333530E+05
        11  26 -1.998745E+05 -1.497100E+06 -1.120608E+05 -1.019611E+06 -8.107825E+04 -1.002821E+05
        11  27  9.527453E+04 -4.468332E+05  1.048760E+05 -1.155764E+06 -1.686624E+04 -6.713835E+04
        12   1 -3.825285E+06 -1.089040E+06 -5.971675E+05 -1.419319E+06 -3.432220E+05 -1.256170E+05
        12   2 -3.735940E+06 -5.638980E+05 -2.742179E+05 -1.453030E+06 -2.195899E+05 -7.383490E+04
        12   3 -3.818207E+06 -5.268946E+05 -1.729979E+05 -1.390105E+06 -9.354590E+04 -2.845759E+04
        12   4 -3.684463E+06 -9.041949E+05 -5.328113E+05 -1.245569E+06 -3.387825E+05 -1.240447E+05
        12   5 -3.570869E+06 -4.628373E+05 -2.237514E+05 -1.367804E+06 -2.187317E+05 -7.353076E+04
        12   6 -3.628125E+06 -5.088648E+05 -1.335302E+05 -1.393427E+06 -9.626361E+04 -2.946590E+04
        12   7 -3.543579E+06 -7.192316E+05 -4.684489E+05 -1.071763E+06 -3.343420E+05 -1.224696E+05
        12   8 -3.405768E+06 -3.617579E+05 -1.732870E+05 -1.282553E+06 -2.178732E+05 -7.322640E+04
        12   9 -3.438001E+06 -4.908315E+05 -9.406236E+04 -1.396754E+06 -9.898224E+04 -3.047397E+04
        12  10 -3.825416E+06 -1.089089E+06 -5.974203E+05 -1.419354E+06  1.966918E-09  3.614584E-10
        12  11 -3.735993E+06 -5.639170E+05 -2.743195E+05 -1.453043E+06  3.300355E-09  5.216886E-10
        12  12 -3.818217E+06 -5.268978E+05 -1.730160E+05 -1.390107E+06  4.109285E-09 -8.951438E-10
        12  13 -3.684591E+06 -9.042426E+05 -5.330575E+05 -1.245603E+06 -3.130893E-10  4.854624E-11
        12  14 -3.570923E+06 -4.628561E+05 -2.238521E+05 -1.367817E+06 -1.086859E-09  3.381898E-11
        12  15 -3.628135E+06 -5.088682E+05 -1.335493E+05 -1.393429E+06 -1.511474E-09 -3.656549E-10
        12  16 -3.543704E+06 -7.192780E+05 -4.686886E+05 -1.071796E+06 -5.230312E-10 -9.530441E-11
        12  17 -3.405821E+06 -3.617765E+05 -1.733870E+05 -1.282566E+06 -3.134998E-09 -4.663092E-10
        12  18 -3.438011E+06 -4.908352E+05 -9.408265E+04 -1.396756E+06 -2.748930E-09 -2.667796E-10
        12  19 -3.825285E+06 -1.089040E+06 -5.971675E+05 -1.419319E+06  3.432220E+05  1.256170E+05
        12  20 -3.735940E+06 -5.638980E+05 -2.742179E+05 -1.453030E+06  2.195899E+05  7.383490E+04
        12  21 -3.818207E+06 -5.268946E+05 -1.729979E+05 -1.390105E+06  9.354590E+04  2.845759E+04
        12  22 -3.684463E+06 -9.041949E+05 -5.328113E+05 -1.245569E+06  3.387825E+05  1.240447E+05
        12  23 -3.570869E+06 -4.628373E+05 -2.237514E+05 -1.367804E+06  2.187317E+05  7.353076E+04
        12  24 -3.628125E+06 -5.088648E+05 -1.335302E+05 -1.393427E+06  9.626361E+04  2.946590E+04
        12  25 -3.543579E+06 -7.192316E+05 -4.684489E+05 -1.071763E+06  3.343420E+05  1.224696E+05
        12  26 -3.405768E+06 -3.617579E+05 -1.732870E+05 -1.282553E+06  2.178732E+05  7.322640E+04
        12  27 -3.438001E+06 -4.908315E+05 -9.406236E+04 -1.396754E+06  9.898224E+04  3.047397E+04
        13   1 -3.701015E+06 -6.070564E+05 -1.338220E+05 -1.399548E+06 -7.621727E+04 -2.431595E+04
        13   2 -3.660491E+06 -5.314755E+05 -6.680632E+04 -1.380657E+06 -4.815626E+04 -1.567529E+04
        13   3 -3.619094E+06 -5.233441E+05 -3.276288E+04 -1.375579E+06 -1.992987E+04 -7.467611E+03
        13   4 -3.610663E+06 -5.617579E+05 -1.080746E+05 -1.363234E+06 -7.701885E+04 -2.461800E+04
        13   5 -3.608387E+06 -5.089753E+05 -5.265876E+04 -1.363450E+06 -4.919670E+04 -1.606530E+04
        13   6 -3.605188E+06 -5.235913E+05 -3.001980E+04 -1.377480E+06 -2.121108E+04 -7.947212E+03
        13   7 -3.520302E+06 -5.164569E+05 -8.232805E+04 -1.326916E+06 -7.782055E+04 -2.492014E+04
        13   8 -3.556280E+06 -4.864747E+05 -3.851149E+04 -1.346241E+06 -5.023723E+04 -1.645537E+04
        13   9 -3.591282E+06 -5.238385E+05 -2.727672E+04 -1.379380E+06 -2.249231E+04 -8.426794E+03
        13  10 -3.701021E+06 -6.070586E+05 -1.338341E+05 -1.399549E+06  2.088787E-10 -3.866851E-10
        13  11 -3.660494E+06 -5.314764E+05 -6.681118E+04 -1.380658E+06  3.292900E-09  1.421253E-09
        13  12 -3.619095E+06 -5.233442E+05 -3.276373E+04 -1.375580E+06  1.179446E-09  9.646525E-10
        13  13 -3.610669E+06 -5.617602E+05 -1.080870E+05 -1.363236E+06  1.176093E-10  7.386534E-11
        13  14 -3.608390E+06 -5.089762E+05 -5.266383E+04 -1.363451E+06  3.992587E-09  1.226342E-09
        13  15 -3.605189E+06 -5.235915E+05 -3.002077E+04 -1.377480E+06  2.994149E-10  7.823971E-10
        13  16 -3.520309E+06 -5.164592E+05 -8.234068E+04 -1.326917E+06 -1.312237E-09  7.708828E-10
        13  17 -3.556283E+06 -4.864757E+05 -3.851677E+04 -1.346242E+06  1.718878E-09  7.719197E-10
        13  18 -3.591282E+06 -5.238387E+05 -2.727781E+04 -1.379380E+06 -2.256146E-09  1.965349E-10
        13  19 -3.701015E+06 -6.070564E+05 -1.338220E+05 -1.399548E+06  7.621727E+04  2.431595E+04
        13  20 -3.660491E+06 -5.314755E+05 -6.680632E+04 -1.380657E+06  4.815626E+04  1.567529E+04
        13  21 -3.619094E+06 -5.233441E+05 -3.276288E+04 -1.375579E+06  1.992987E+04  7.467611E+03
        13  22 -3.610663E+06 -5.617579E+05 -1.080746E+05 -1.363234E+06  7.701885E+04  2.461800E+04
        13  23 -3.608387E+06 -5.089753E+05 -5.265876E+04 -1.363450E+06  4.919670E+04  1.606530E+04
        13  24 -3.605188E+06 -5.235913E+05 -3.001980E+04 -1.377480E+06  2.121108E+04  7.947212E+03
        13  25 -3.520302E+06 -5.164569E+05 -8.232805E+04 -1.326916E+06  7.782055E+04  2.492014E+04
        13  26 -3.556280E+06 -4.864747E+05 -3.851149E+04 -1.346241E+06  5.023723E+04  1.645537E+04
        13  27 -3.591282E+06 -5.238385E+05 -2.727672E+04 -1.379380E+06  2.249231E+04  8.426794E+03
        14   1 -3.558834E+06 -5.126209E+05 -1.170805E+04 -1.363149E+06 -1.530593E+04 -7.201595E+03
        14   2 -3.524497E+06 -4.808108E+05  1.065221E+04 -1.339366E+06 -8.335330E+03 -6.945642E+03
        14   3 -3.471153E+06 -4.749800E+05  2.717870E+04 -1.339323E+06 -1.363473E+03 -6.690499E+03
        14   4 -3.603167E+06 -5.285167E+05 -2.328202E+04 -1.374399E+06 -1.645871E+04 -7.633366E+03
        14   5 -3.612411E+06 -5.137327E+05 -1.226075E+04 -1.363198E+06 -9.489111E+03 -7.377890E+03
        14   6 -3.602649E+06 -5.249281E+05 -7.071969E+03 -1.375737E+06 -2.518734E+03 -7.123412E+03
        14   7 -3.647498E+06 -5.444124E+05 -3.485623E+04 -1.385648E+06 -1.761142E+04 -8.065110E+03
        14   8 -3.700318E+06 -5.466542E+05 -3.517449E+04 -1.387026E+06 -1.064272E+04 -7.810073E+03
        14   9 -3.734128E+06 -5.748753E+05 -4.132424E+04 -1.412144E+06 -3.673730E+03 -7.556223E+03
        14  10 -3.558835E+06 -5.126210E+05 -1.170859E+04 -1.363149E+06  1.930322E-09  1.467157E-10
        14  11 -3.524497E+06 -4.808109E+05  1.065198E+04 -1.339366E+06  1.881601E-09 -2.180417E-10
        14  12 -3.471153E+06 -4.749800E+05  2.717861E+04 -1.339323E+06  1.128322E-09  5.647456E-10
        14  13 -3.603167E+06 -5.285168E+05 -2.328264E+04 -1.374399E+06 -3.106660E-10 -3.440475E-11
        14  14 -3.612411E+06 -5.137327E+05 -1.226103E+04 -1.363198E+06 -3.389932E-09 -1.007878E-11
        14  15 -3.602649E+06 -5.249282E+05 -7.072077E+03 -1.375737E+06  9.161140E-10  2.254890E-10
        14  16 -3.647498E+06 -5.444126E+05 -3.485694E+04 -1.385648E+06 -3.636229E-09  9.179014E-10
        14  17 -3.700318E+06 -5.466543E+05 -3.517482E+04 -1.387026E+06 -2.766025E-09  4.351574E-10
        14  18 -3.734128E+06 -5.748754E+05 -4.132437E+04 -1.412144E+06 -1.378544E-09  2.373799E-10
        14  19 -3.558834E+06 -5.126209E+05 -1.170805E+04 -1.363149E+06  1.530593E+04  7.201595E+03
        14  20 -3.524497E+06 -4.808108E+05  1.065221E+04 -1.339366E+06  8.335330E+03  6.945642E+03
        14  21 -3.471153E+06 -4.749800E+05  2.717870E+04 -1.339323E+06  1.363473E+03  6.690499E+03
        14  22 -3.603167E+06 -5.285167E+05 -2.328202E+04 -1.374399E+06  1.645871E+04  7.633366E+03
        14  23 -3.612411E+06 -5.137327E+05 -1.226075E+04 -1.363198E+06  9.489111E+03  7.377890E+03
        14  24 -3.602649E+06 -5.249281E+05 -7.071969E+03 -1.375737E+06  2.518734E+03  7.123412E+03
        14  25 -3.647498E+06 -5.444124E+05 -3.485623E+04 -1.385648E+06  1.761142E+04  8.065110E+03
        14  26 -3.700318E+06 -5.466542E+05 -3.517449E+04 -1.387026E+06  1.064272E+04  7.810073E+03
        14  27 -3.734128E+06 -5.748753E+05 -4.132424E+04 -1.412144E+06  3.673730E+03  7.556223E+03
        15   1 -3.418729E+06 -4.560287E+05  4.257369E+04 -1.325101E+06  9.464870E+01 -7.505884E+03
        15   2 -3.387013E+06 -4.298022E+05  5.528362E+04 -1.302103E+06  2.591495E+03 -8.848228E+03
        15   3 -3.335319E+06 -4.243952E+05  6.657293E+04 -1.302353E+06  5.067239E+03 -1.013095E+04
        15   4 -3.602629E+06 -5.251083E+05 -5.556394E+03 -1.375134E+06 -1.037873E+03 -7.930421E+03
        15   5 -3.612599E+06 -5.145684E+05 -3.561225E+03 -1.363559E+06  1.491603E+03 -9.260821E+03
        15   6 -3.602600E+06 -5.248552E+05 -3.012874E+03 -1.375233E+06  3.999852E+03 -1.053164E+04
        15   7 -3.786495E+06 -5.941855E+05 -5.368904E+04 -1.425154E+06 -2.170018E+03 -8.354817E+03
        15   8 -3.838135E+06 -5.993313E+05 -6.241024E+04 -1.424995E+06  3.921540E+02 -9.673248E+03
        15   9 -3.869813E+06 -6.253109E+05 -7.260486E+04 -1.448084E+06  2.932968E+03 -1.093213E+04
        15  10 -3.418729E+06 -4.560288E+05  4.257359E+04 -1.325101E+06  2.491948E-09  7.492977E-10
        15  11 -3.387013E+06 -4.298023E+05  5.528346E+04 -1.302103E+06  2.335539E-09  1.086147E-09
        15  12 -3.335319E+06 -4.243953E+05  6.657269E+04 -1.302353E+06  2.554364E-09  1.242736E-09
        15  13 -3.602629E+06 -5.251084E+05 -5.556515E+03 -1.375134E+06 -1.417237E-10  8.480794E-10
        15  14 -3.612599E+06 -5.145685E+05 -3.561391E+03 -1.363559E+06  8.514931E-10  9.822412E-10
        15  15 -3.602600E+06 -5.248553E+05 -3.013113E+03 -1.375233E+06  1.483988E-09  1.486298E-09
        15  16 -3.786495E+06 -5.941855E+05 -5.368918E+04 -1.425154E+06 -1.246425E-09 -2.944196E-11
        15  17 -3.838135E+06 -5.993314E+05 -6.241042E+04 -1.424995E+06  6.095372E-10  1.134204E-09
        15  18 -3.869813E+06 -6.253110E+05 -7.260510E+04 -1.448084E+06 -1.403061E-10  1.826176E-09
        15  19 -3.418729E+06 -4.560287E+05  4.257369E+04 -1.325101E+06 -9.464870E+01  7.505884E+03
        15  20 -3.387013E+06 -4.298022E+05  5.528362E+04 -1.302103E+06 -2.591495E+03  8.848228E+03
        15  21 -3.335319E+06 -4.243952E+05  6.657293E+04 -1.302353E+06 -5.067239E+03  1.013095E+04
        15  22 -3.602629E+06 -5.251083E+05 -5.556394E+03 -1.375134E+06  1.037873E+03  7.930421E+03
        15  23 -3.612599E+06 -5.145684E+05 -3.561225E+03 -1.363559E+06 -1.491603E+03  9.260821E+03
        15  24 -3.602600E+06 -5.248552E+05 -3.012874E+03 -1.375233E+06 -3.999852E+03  1.053164E+04
        15  25 -3.786495E+06 -5.941855E+05 -5.368904E+04 -1.425154E+06  2.170018E+03  8.354817E+03
        15  26 -3.838135E+06 -5.993313E+05 -6.241024E+04 -1.424995E+06 -3.921540E+02  9.673248E+03
        15  27 -3.869813E+06 -6.253109E+05 -7.260486E+04 -1.448084E+06 -2.932968E+03  1.093213E+04
        16   1 -3.287754E+06 -4.059238E+05  7.927147E+04 -1.288874E+06  5.958343E+03 -1.105004E+04
        16   2 -3.259399E+06 -3.826156E+05  8.776588E+04 -1.268107E+06  8.694010E+03 -1.208981E+04
        16   3 -3.213166E+06 -3.781384E+05  9.459847E+04 -1.268120E+06  1.139366E+04 -1.302922E+04
        16   4 -3.603071E+06 -5.243709E+05 -3.123365E+03 -1.374705E+06  4.917454E+03 -1.144102E+04
        16   5 -3.612039E+06 -5.151694E+05 -4.223623E+03 -1.364234E+06  7.707894E+03 -1.246064E+04
        16   6 -3.603141E+06 -5.248108E+05 -7.029888E+03 -1.374544E+06  1.046217E+04 -1.337992E+04
        16   7 -3.918290E+06 -6.428115E+05 -8.552634E+04 -1.460496E+06  3.877152E+03 -1.183178E+04
        16   8 -3.964557E+06 -6.477156E+05 -9.622364E+04 -1.460311E+06  6.722395E+03 -1.283124E+04
        16   9 -3.992968E+06 -6.714741E+05 -1.086714E+05 -1.480906E+06  9.531331E+03 -1.373039E+04
        16  10 -3.287754E+06 -4.059240E+05  7.927117E+04 -1.288874E+06  3.792378E-09  1.477062E-09
        16  11 -3.259399E+06 -3.826158E+05  8.776547E+04 -1.268107E+06 -2.445298E-09  8.123971E-10
        16  12 -3.213166E+06 -3.781386E+05  9.459790E+04 -1.268120E+06 -1.794422E-09 -1.254776E-09
        16  13 -3.603071E+06 -5.243711E+05 -3.123656E+03 -1.374705E+06  8.273016E-10  1.241771E-09
        16  14 -3.612039E+06 -5.151696E+05 -4.224026E+03 -1.364233E+06 -4.742979E-11 -1.790751E-10
        16  15 -3.603141E+06 -5.248110E+05 -7.030429E+03 -1.374543E+06  1.301620E-09 -8.122262E-10
        16  16 -3.918290E+06 -6.428117E+05 -8.552663E+04 -1.460496E+06 -3.052531E-09  1.120888E-09
        16  17 -3.964557E+06 -6.477158E+05 -9.622403E+04 -1.460310E+06 -1.236375E-09 -4.779212E-10
        16  18 -3.992968E+06 -6.714743E+05 -1.086719E+05 -1.480906E+06 -2.705716E-10  1.826309E-10
        16  19 -3.287754E+06 -4.059238E+05  7.927147E+04 -1.288874E+06 -5.958343E+03  1.105004E+04
        16  20 -3.259399E+06 -3.826156E+05  8.776588E+04 -1.268107E+06 -8.694010E+03  1.208981E+04
        16  21 -3.213166E+06 -3.781384E+05  9.459847E+04 -1.268120E+06 -1.139366E+04  1.302922E+04
        16  22 -3.603071E+06 -5.243709E+05 -3.123365E+03 -1.374705E+06 -4.917454E+03  1.144102E+04
        16  23 -3.612039E+06 -5.151694E+05 -4.223623E+03 -1.364234E+06 -7.707894E+03  1.246064E+04
        16  24 -3.603141E+06 -5.248108E+05 -7.029888E+03 -1.374544E+06 -1.046217E+04  1.337992E+04
        16  25 -3.918290E+06 -6.428115E+05 -8.552634E+04 -1.460496E+06 -3.877152E+03  1.183178E+04
        16  26 -3.964557E+06 -6.477156E+05 -9.622364E+04 -1.460311E+06 -6.722395E+03  1.283124E+04
        16  27 -3.992968E+06 -6.714741E+05 -1.086714E+05 -1.480906E+06 -9.531331E+03  1.373039E+04
        17   1 -3.172012E+06 -3.617459E+05  1.036799E+05 -1.257054E+06  1.305120E+04 -1.350307E+04
        17   2 -3.147961E+06 -3.410965E+05  1.047980E+05 -1.238687E+06  2.157996E+04 -1.204347E+04
        17   3 -3.111633E+06 -3.415367E+05  9.846049E+04 -1.236520E+06  3.003712E+04 -1.038831E+04
        17   4 -3.604147E+06 -5.235631E+05 -9.061577E+03 -1.374188E+06  1.213809E+04 -1.384716E+04
        17   5 -3.610620E+06 -5.153788E+05 -1.595517E+04 -1.365199E+06  2.077011E+04 -1.234920E+04
        17   6 -3.604841E+06 -5.283089E+05 -3.039079E+04 -1.372413E+06  2.933008E+04 -1.065580E+04
        17   7 -4.036099E+06 -6.853692E+05 -1.218188E+05 -1.491248E+06  1.122567E+04 -1.419099E+04
        17   8 -4.073070E+06 -6.896474E+05 -1.367262E+05 -1.491626E+06  1.996093E+04 -1.265468E+04
        17   9 -4.097810E+06 -7.150644E+05 -1.592623E+05 -1.508206E+06  2.862366E+04 -1.092306E+04
        17  10 -3.172013E+06 -3.617462E+05  1.036792E+05 -1.257054E+06  1.310925E-09 -1.333897E-09
        17  11 -3.147961E+06 -3.410968E+05  1.047968E+05 -1.238687E+06  2.277576E-09 -8.394223E-11
        17  12 -3.111634E+06 -3.415371E+05  9.845859E+04 -1.236520E+06  1.377595E-11  1.177401E-11
        17  13 -3.604147E+06 -5.235634E+05 -9.062214E+03 -1.374188E+06  1.286536E-09 -6.963749E-10
        17  14 -3.610621E+06 -5.153791E+05 -1.595627E+04 -1.365199E+06  1.964473E-09 -7.526889E-10
        17  15 -3.604842E+06 -5.283093E+05 -3.039263E+04 -1.372412E+06 -5.571778E-10  3.802549E-10
        17  16 -4.036099E+06 -6.853694E+05 -1.218194E+05 -1.491247E+06 -8.412544E-10  3.832738E-11
        17  17 -4.073071E+06 -6.896476E+05 -1.367273E+05 -1.491626E+06  4.601537E-09 -3.943526E-10
        17  18 -4.097811E+06 -7.150648E+05 -1.592640E+05 -1.508206E+06  2.571931E-09  9.462466E-10
        17  19 -3.172012E+06 -3.617459E+05  1.036799E+05 -1.257054E+06 -1.305120E+04  1.350307E+04
        17  20 -3.147961E+06 -3.410965E+05  1.047980E+05 -1.238687E+06 -2.157996E+04  1.204347E+04
        17  21 -3.111633E+06 -3.415367E+05  9.846049E+04 -1.236520E+06 -3.003712E+04  1.038831E+04
        17  22 -3.604147E+06 -5.235631E+05 -9.061577E+03 -1.374188E+06 -1.213809E+04  1.384716E+04
        17  23 -3.610620E+06 -5.153788E+05 -1.595517E+04 -1.365199E+06 -2.077011E+04  1.234920E+04
        17  24 -3.604841E+06 -5.283089E+05 -3.039079E+04 -1.372413E+06 -2.933008E+04  1.065580E+04
        17  25 -4.036099E+06 -6.853692E+05 -1.218188E+05 -1.491248E+06 -1.122567E+04  1.419099E+04
        17  26 -4.073070E+06 -6.896474E+05 -1.367262E+05 -1.491626E+06 -1.996093E+04  1.265468E+04
        17  27 -4.097810E+06 -7.150644E+05 -1.592623E+05 -1.508206E+06 -2.862366E+04  1.092306E+04
        18   1 -3.075824E+06 -3.275956E+05  9.849798E+04 -1.237240E+06  3.620929E+04 -9.089576E+03
        18   2 -3.056386E+06 -2.998325E+05  7.490469E+04 -1.212797E+06  7.154689E+04  2.958186E+03
        18   3 -3.052043E+06 -3.432042E+05  9.069474E+03 -1.186992E+06  1.064372E+05  1.619803E+04
        18   4 -3.608315E+06 -5.210013E+05 -3.920533E+04 -1.375462E+06  3.523979E+04 -9.455744E+03
        18   5 -3.604314E+06 -5.102730E+05 -6.886253E+04 -1.366777E+06  7.121247E+04  2.829999E+03
        18   6 -3.615558E+06 -5.708428E+05 -1.412965E+05 -1.356728E+06  1.067367E+05  1.630637E+04
        18   7 -4.140531E+06 -7.143949E+05 -1.769327E+05 -1.513579E+06  3.427119E+04 -9.821600E+03
        18   8 -4.151949E+06 -7.206919E+05 -2.126557E+05 -1.520634E+06  7.087835E+04  2.701930E+03
        18   9 -4.178761E+06 -7.984482E+05 -2.916905E+05 -1.526320E+06  1.070358E+05  1.641457E+04
        18  10 -3.075825E+06 -3.275961E+05  9.849536E+04 -1.237240E+06 -3.976506E-12  1.127531E-09
        18  11 -3.056392E+06 -2.998339E+05  7.489501E+04 -1.212797E+06  6.525440E-10 -1.599435E-09
        18  12 -3.052055E+06 -3.432076E+05  9.047575E+03 -1.186993E+06 -3.480423E-09 -3.806190E-09
        18  13 -3.608316E+06 -5.210017E+05 -3.920784E+04 -1.375462E+06  2.288139E-09  3.524661E-10
        18  14 -3.604320E+06 -5.102744E+05 -6.887213E+04 -1.366778E+06 -1.873200E-09 -2.913685E-10
        18  15 -3.615570E+06 -5.708461E+05 -1.413186E+05 -1.356730E+06 -4.679357E-09 -1.362677E-09
        18  16 -4.140532E+06 -7.143953E+05 -1.769351E+05 -1.513579E+06  5.315156E-10 -2.881921E-12
        18  17 -4.151955E+06 -7.206932E+05 -2.126652E+05 -1.520634E+06  9.584032E-10  9.610058E-10
        18  18 -4.178774E+06 -7.984516E+05 -2.917127E+05 -1.526322E+06  6.597707E-10  1.997788E-10
        18  19 -3.075824E+06 -3.275956E+05  9.849798E+04 -1.237240E+06 -3.620929E+04  9.089576E+03
        18  20 -3.056386E+06 -2.998325E+05  7.490469E+04 -1.212797E+06 -7.154689E+04 -2.958186E+03
        18  21 -3.052043E+06 -3.432042E+05  9.069474E+03 -1.186992E+06 -1.064372E+05 -1.619803E+04
        18  22 -3.608315E+06 -5.210013E+05 -3.920533E+04 -1.375462E+06 -3.523979E+04  9.455744E+03
        18  23 -3.604314E+06 -5.102730E+05 -6.886253E+04 -1.366777E+06 -7.121247E+04 -2.829999E+03
        18  24 -3.615558E+06 -5.708428E+05 -1.412965E+05 -1.356728E+06 -1.067367E+05 -1.630637E+04
        18  25 -4.140531E+06 -7.143949E+05 -1.769327E+05 -1.513579E+06 -3.427119E+04  9.821600E+03
        18  26 -4.151949E+06 -7.206919E+05 -2.126557E+05 -1.520634E+06 -7.087835E+04 -2.701930E+03
        18  27 -4.178761E+06 -7.984482E+05 -2.916905E+05 -1.526320E+06 -1.070358E+05 -1.641457E+04
        19   1 -2.989906E+06 -3.265913E+05 -1.876510E+04 -1.289603E+06  1.361866E+05  2.440245E+04
        19   2 -2.979728E+06 -1.823647E+05 -1.327570E+05 -1.163144E+06  2.866059E+05  8.160571E+04
        19   3 -3.211500E+06 -6.522790E+05 -5.256718E+05 -8.863107E+05  4.310438E+05  1.546504E+05
        19   4 -3.638905E+06 -5.011595E+05 -1.745806E+05 -1.395618E+06  1.318490E+05  2.278069E+04
        19   5 -3.554332E+06 -4.508885E+05 -2.925704E+05 -1.373526E+06  2.909587E+05  8.322020E+04
        19   6 -3.713714E+06 -1.016904E+06 -6.966065E+05 -1.200972E+06  4.441015E+05  1.594409E+05
        19   7 -4.287483E+06 -6.757378E+05 -3.304225E+05 -1.501555E+06  1.275163E+05  2.115958E+04
        19   8 -4.128603E+06 -7.193356E+05 -4.524137E+05 -1.583712E+06  2.953069E+05  8.483204E+04
        19   9 -4.215605E+06 -1.381236E+06 -8.675571E+05 -1.515337E+06  4.571477E+05  1.642176E+05
        19  10 -2.989926E+06 -3.265969E+05 -1.880127E+04 -1.289605E+06  2.990344E-09 -8.014116E-10
        19  11 -2.979819E+06 -1.823941E+05 -1.329248E+05 -1.163163E+06  1.273867E-09  2.366902E-09
        19  12 -3.211707E+06 -6.523550E+05 -5.260681E+05 -8.863645E+05  1.570960E-09  1.312060E-11
        19  13 -3.638923E+06 -5.011648E+05 -1.746145E+05 -1.395621E+06 -2.610284E-09 -1.577817E-09
        19  14 -3.554425E+06 -4.509189E+05 -2.927436E+05 -1.373545E+06 -3.388765E-09  2.356755E-09
        19  15 -3.713934E+06 -1.016985E+06 -6.970277E+05 -1.201030E+06  1.369923E-09  4.800326E-10
        19  16 -4.287500E+06 -6.757427E+05 -3.304542E+05 -1.501557E+06 -7.422443E-09 -2.793205E-09
        19  17 -4.128699E+06 -7.193670E+05 -4.525925E+05 -1.583732E+06 -8.096354E-10 -1.908577E-09
        19  18 -4.215838E+06 -1.381322E+06 -8.680039E+05 -1.515397E+06  3.808811E-10 -2.361915E-11
        19  19 -2.989906E+06 -3.265913E+05 -1.876510E+04 -1.289603E+06 -1.361866E+05 -2.440245E+04
        19  20 -2.979728E+06 -1.823647E+05 -1.327570E+05 -1.163144E+06 -2.866059E+05 -8.160571E+04
        19  21 -3.211500E+06 -6.522790E+05 -5.256718E+05 -8.863107E+05 -4.310438E+05 -1.546504E+05
        19  22 -3.638905E+06 -5.011595E+05 -1.745806E+05 -1.395618E+06 -1.318490E+05 -2.278069E+04
        19  23 -3.554332E+06 -4.508885E+05 -2.925704E+05 -1.373526E+06 -2.909587E+05 -8.322020E+04
        19  24 -3.713714E+06 -1.016904E+06 -6.966065E+05 -1.200972E+06 -4.441015E+05 -1.594409E+05
        19  25 -4.287483E+06 -6.757378E+05 -3.304225E+05 -1.501555E+06 -1.275163E+05 -2.115958E+04
        19  26 -4.128603E+06 -7.193356E+05 -4.524137E+05 -1.583712E+06 -2.953069E+05 -8.483204E+04
        19  27 -4.215605E+06 -1.381236E+06 -8.675571E+05 -1.515337E+06 -4.571477E+05 -1.642176E+05
        20   1 -1.123497E+06  3.566792E+04  4.453798E+04  1.283010E+04  3.047065E+04  6.308019E-01
        20   2 -1.129406E+06 -3.958331E+03  1.966967E+04  3.884107E+03  1.990416E+04  1.247436E-01
        20   3 -1.123519E+06 -1.933675E+03  1.210293E+04 -5.061660E+03  9.337808E+03 -7.626356E-02
        20   4 -1.123498E+06  3.566761E+04  4.453794E+04  8.472062E-09  3.047065E+04  4.308657E-10
        20   5 -1.129406E+06 -3.958359E+03  1.966966E+04 -1.003244E-10  1.990416E+04  1.210856E-09
        20   6 -1.123519E+06 -1.933723E+03  1.210292E+04  1.176905E-08  9.337808E+03  4.909192E-10
        20   7 -1.123497E+06  3.566792E+04  4.453798E+04 -1.283010E+04  3.047065E+04 -6.308019E-01
        20   8 -1.129406E+06 -3.958331E+03  1.966967E+04 -3.884107E+03  1.990416E+04 -1.247436E-01
        20   9 -1.123519E+06 -1.933675E+03  1.210293E+04  5.061660E+03  9.337808E+03  7.626356E-02
        20  10 -1.123498E+06  3.566767E+04  4.453623E+04  1.283010E+04  7.066383E-10 -2.004508E-10
        20  11 -1.129406E+06 -3.958438E+03  1.966892E+04  3.884107E+03 -2.722032E-09 -4.143666E-10
        20  12 -1.123519E+06 -1.933699E+03  1.210276E+04 -5.061660E+03 -7.956792E-10  3.058021E-10
        20  13 -1.123499E+06  3.566736E+04  4.453619E+04 -8.780291E-09  2.289001E-09 -1.530971E-10
        20  14 -1.129407E+06 -3.958466E+03  1.966892E+04  6.383707E-09 -4.130575E-27 -1.878553E-10
        20  15 -1.123519E+06 -1.933747E+03  1.210276E+04  4.324055E-09 -2.976443E-09  4.040253E-10
        20  16 -1.123498E+06  3.566767E+04  4.453623E+04 -1.283010E+04 -3.815045E-10 -5.886333E-11
        20  17 -1.129406E+06 -3.958438E+03  1.966892E+04 -3.884107E+03 -1.353681E-09  1.031873E-11
        20  18 -1.123519E+06 -1.933699E+03  1.210276E+04  5.061660E+03  3.806774E-10  4.859907E-10
        20  19 -1.123497E+06  3.566792E+04  4.453798E+04  1.283010E+04 -3.047065E+04 -6.308019E-01
        20  20 -1.129406E+06 -3.958331E+03  1.966967E+04  3.884107E+03 -1.990416E+04 -1.247436E-01
        20  21 -1.123519E+06 -1.933675E+03  1.210293E+04 -5.061660E+03 -9.337808E+03  7.626356E-02
        20  22 -1.123498E+06  3.566761E+04  4.453794E+04  1.271397E-08 -3.047065E+04 -7.565319E-10
        20  23 -1.129406E+06 -3.958359E+03  1.966966E+04 -5.303340E-11 -1.990416E+04 -1.621222E-09
        20  24 -1.123519E+06 -1.933723E+03  1.210292E+04  1.194557E-08 -9.337808E+03  3.131199E-10
        20  25 -1.123497E+06  3.566792E+04  4.453798E+04 -1.283010E+04 -3.047065E+04  6.308019E-01
        20  26 -1.129406E+06 -3.958331E+03  1.966967E+04 -3.884107E+03 -1.990416E+04  1.247436E-01
        20  27 -1.123519E+06 -1.933675E+03  1.210293E+04  5.061660E+03 -9.337808E+03 -7.626356E-02
        21   1 -1.125848E+06  3.243760E+03  9.816470E+03  1.017786E+03  7.501412E+03  1.231914E-02
        21   2 -1.126498E+06 -3.857745E+02  5.074782E+03  2.562869E+02  4.917237E+03  2.033427E-03
        21   3 -1.125851E+06 -1.769564E+02  2.977452E+03 -5.052243E+02  2.333030E+03 -1.901889E-03
        21   4 -1.125848E+06  3.243758E+03  9.816469E+03 -7.111788E-10  7.501412E+03  2.040796E-10
        21   5 -1.126498E+06 -3.857746E+02  5.074782E+03 -1.211987E-09  4.917237E+03  2.829513E-10
        21   6 -1.125851E+06 -1.769569E+02  2.977452E+03  1.334960E-08  2.333030E+03 -7.664357E-10
        21   7 -1.125848E+06  3.243760E+03  9.816470E+03 -1.017786E+03  7.501412E+03 -1.231914E-02
        21   8 -1.126498E+06 -3.857745E+02  5.074782E+03 -2.562869E+02  4.917237E+03 -2.033426E-03
        21   9 -1.125851E+06 -1.769564E+02  2.977452E+03  5.052243E+02  2.333030E+03  1.901888E-03
        21  10 -1.125848E+06  3.243745E+03  9.816364E+03  1.017786E+03 -5.526628E-10  6.872721E-10
        21  11 -1.126498E+06 -3.857810E+02  5.074736E+03  2.562869E+02 -7.133851E-10  9.845631E-11
        21  12 -1.125851E+06 -1.769579E+02  2.977442E+03 -5.052243E+02  1.618074E-09 -7.299304E-10
        21  13 -1.125848E+06  3.243743E+03  9.816363E+03 -9.314647E-09  2.374070E-10  7.394991E-10
        21  14 -1.126498E+06 -3.857812E+02  5.074736E+03 -1.273983E-09 -4.075661E-10  3.169357E-10
        21  15 -1.125851E+06 -1.769583E+02  2.977442E+03  1.386389E-09 -2.447063E-09 -7.681221E-10
        21  16 -1.125848E+06  3.243745E+03  9.816364E+03 -1.017786E+03 -1.057873E-09  8.258888E-10
        21  17 -1.126498E+06 -3.857810E+02  5.074736E+03 -2.562869E+02 -1.566959E-09  5.015452E-10
        21  18 -1.125851E+06 -1.769579E+02  2.977442E+03  5.052243E+02 -1.449731E-09 -8.546142E-10
        21  19 -1.125848E+06  3.243760E+03  9.816470E+03  1.017786E+03 -7.501412E+03 -1.231914E-02
        21  20 -1.126498E+06 -3.857745E+02  5.074782E+03  2.562869E+02 -4.917237E+03 -2.033427E-03
        21  21 -1.125851E+06 -1.769564E+02  2.977452E+03 -5.052243E+02 -2.333030E+03  1.901888E-03
        21  22 -1.125848E+06  3.243758E+03  9.816469E+03  3.604206E-09 -7.501412E+03  1.286575E-09
        21  23 -1.126498E+06 -3.857746E+02  5.074782E+03 -1.346489E-09 -4.917237E+03  4.920055E-10
        21  24 -1.125851E+06 -1.769569E+02  2.977452E+03  1.739495E-08 -2.333030E+03 -7.479240E-10
        21  25 -1.125848E+06  3.243760E+03  9.816470E+03 -1.017786E+03 -7.501412E+03  1.231914E-02
        21  26 -1.126498E+06 -3.857745E+02  5.074782E+03 -2.562869E+02 -4.917237E+03  2.033427E-03
        21  27 -1.125851E+06 -1.769564E+02  2.977452E+03  5.052243E+02 -2.333030E+03 -1.901890E-03
        22   1 -1.126101E+06  2.868650E+02  2.306950E+03  5.208403E+01  1.867915E+03  1.569790E-04
        22   2 -1.126186E+06 -4.041502E+01  1.251049E+03 -2.565690E+00  1.243073E+03 -5.145174E-06
        22   3 -1.126102E+06 -1.584784E+01  6.904663E+02 -5.721544E+01  6.182308E+02 -5.707493E-05
        22   4 -1.126101E+06  2.868650E+02  2.306950E+03  5.236485E-09  1.867915E+03 -5.497331E-10
        22   5 -1.126186E+06 -4.041502E+01  1.251049E+03  1.283756E-09  1.243073E+03  5.139371E-10
        22   6 -1.126102E+06 -1.584784E+01  6.904663E+02 -9.117380E-09  6.182308E+02 -4.417542E-10
        22   7 -1.126101E+06  2.868650E+02  2.306950E+03 -5.208403E+01  1.867915E+03 -1.569802E-04
        22   8 -1.126186E+06 -4.041502E+01  1.251049E+03  2.565690E+00  1.243073E+03  5.146196E-06
        22   9 -1.126102E+06 -1.584784E+01  6.904663E+02  5.721544E+01  6.182308E+02  5.707407E-05
        22  10 -1.126101E+06  2.868640E+02  2.306943E+03  5.208403E+01 -2.123270E-10 -1.745487E-10
        22  11 -1.126186E+06 -4.041544E+01  1.251046E+03 -2.565690E+00 -1.129000E-09  1.299901E-09
        22  12 -1.126102E+06 -1.584794E+01  6.904656E+02 -5.721544E+01  5.287137E-10  7.662326E-10
        22  13 -1.126101E+06  2.868640E+02  2.306943E+03 -3.196760E-09 -1.110112E-09 -5.641374E-10
        22  14 -1.126186E+06 -4.041544E+01  1.251046E+03 -1.158993E-08  1.381887E-09  7.297031E-10
        22  15 -1.126102E+06 -1.584794E+01  6.904656E+02 -9.209848E-09  7.263574E-10  5.119250E-10
        22  16 -1.126101E+06  2.868640E+02  2.306943E+03 -5.208403E+01  1.221102E-09 -9.545144E-10
        22  17 -1.126186E+06 -4.041544E+01  1.251046E+03  2.565690E+00 -7.632581E-10  3.121651E-10
        22  18 -1.126102E+06 -1.584794E+01  6.904656E+02  5.721544E+01  7.107446E-10  2.750452E-10
        22  19 -1.126101E+06  2.868650E+02  2.306950E+03  5.208403E+01 -1.867915E+03 -1.569795E-04
        22  20 -1.126186E+06 -4.041502E+01  1.251049E+03 -2.565690E+00 -1.243073E+03  5.147889E-06
        22  21 -1.126102E+06 -1.584784E+01  6.904663E+02 -5.721544E+01 -6.182308E+02  5.707647E-05
        22  22 -1.126101E+06  2.868650E+02  2.306950E+03  5.614767E-09 -1.867915E+03 -5.643390E-10
        22  23 -1.126186E+06 -4.041502E+01  1.251049E+03 -2.925514E-09 -1.243073E+03  9.746231E-10
        22  24 -1.126102E+06 -1.584784E+01  6.904663E+02  4.139037E-09 -6.182308E+02  1.497863E-09
        22  25 -1.126101E+06  2.868650E+02  2.306950E+03 -5.208403E+01 -1.867915E+03  1.569784E-04
        22  26 -1.126186E+06 -4.041502E+01  1.251049E+03  2.565690E+00 -1.243073E+03 -5.145775E-06
        22  27 -1.126102E+06 -1.584784E+01  6.904663E+02  5.721544E+01 -6.182308E+02 -5.707328E-05
        23   1 -1.126135E+06  2.346402E+01  4.998062E+02 -7.304148E+00  5.115983E+02 -6.030367E-06
        23   2 -1.126145E+06 -3.872012E+00  2.038082E+02 -9.610356E+00  4.104122E+02 -6.364670E-06
        23   3 -1.126135E+06 -3.353986E+00 -1.926287E+01 -1.191653E+01  3.092275E+02 -5.944564E-06
        23   4 -1.126135E+06  2.346402E+01  4.998062E+02  1.676907E-08  5.115983E+02 -9.808266E-10
        23   5 -1.126145E+06 -3.872013E+00  2.038082E+02 -4.753647E-09  4.104122E+02 -2.750915E-10
        23   6 -1.126135E+06 -3.353987E+00 -1.926287E+01 -4.449223E-10  3.092275E+02  7.559131E-10
        23   7 -1.126135E+06  2.346402E+01  4.998062E+02  7.304148E+00  5.115983E+02  6.028301E-06
        23   8 -1.126145E+06 -3.872012E+00  2.038082E+02  9.610356E+00  4.104122E+02  6.364085E-06
        23   9 -1.126135E+06 -3.353986E+00 -1.926287E+01  1.191653E+01  3.092275E+02  5.946089E-06
        23  10 -1.126135E+06  2.346395E+01  4.998057E+02 -7.304148E+00  1.394581E-09 -3.612239E-10
        23  11 -1.126145E+06 -3.872058E+00  2.038078E+02 -9.610356E+00  1.470274E-09 -8.181898E-10
        23  12 -1.126135E+06 -3.354012E+00 -1.926305E+01 -1.191653E+01 -2.235099E-09  6.170725E-10
        23  13 -1.126135E+06  2.346395E+01  4.998057E+02  8.051062E-09 -1.280043E-09 -2.767956E-10
        23  14 -1.126145E+06 -3.872058E+00  2.038078E+02  1.733636E-09 -1.411173E-09 -7.527022E-10
        23  15 -1.126135E+06 -3.354012E+00 -1.926305E+01  6.185267E-09 -1.321004E-09  3.930409E-10
        23  16 -1.126135E+06  2.346395E+01  4.998057E+02  7.304148E+00  2.009013E-09 -2.237311E-10
        23  17 -1.126145E+06 -3.872058E+00  2.038078E+02  9.610356E+00 -2.074082E-09 -5.491952E-10
        23  18 -1.126135E+06 -3.354012E+00 -1.926305E+01  1.191653E+01  1.224489E-09  2.437354E-10
        23  19 -1.126135E+06  2.346402E+01  4.998062E+02 -7.304148E+00 -5.115983E+02  6.029773E-06
        23  20 -1.126145E+06 -3.872012E+00  2.038082E+02 -9.610356E+00 -4.104122E+02  6.363019E-06
        23  21 -1.126135E+06 -3.353986E+00 -1.926287E+01 -1.191653E+01 -3.092275E+02  5.945930E-06
        23  22 -1.126135E+06  2.346402E+01  4.998062E+02  2.947044E-08 -5.115983E+02  4.448511E-10
        23  23 -1.126145E+06 -3.872013E+00  2.038082E+02 -4.693752E-09 -4.104122E+02 -1.277178E-09
        23  24 -1.126135E+06 -3.353987E+00 -1.926287E+01 -3.866916E-09 -3.092275E+02  1.139663E-11
        23  25 -1.126135E+06  2.346402E+01  4.998062E+02  7.304148E+00 -5.115983E+02 -6.028902E-06
        23  26 -1.126145E+06 -3.872012E+00  2.038082E+02  9.610356E+00 -4.104122E+02 -6.365272E-06
        23  27 -1.126135E+06 -3.353986E+00 -1.926287E+01  1.191653E+01 -3.092275E+02 -5.946016E-06
        24   1 -1.126147E+06  3.361325E+00 -1.277145E+02 -1.391103E+01  3.224988E+02 -7.238190E-06
        24   2 -1.126130E+06  6.492923E+00 -3.851110E+02 -1.156635E+01  5.135125E+02 -9.584892E-06
        24   3 -1.126148E+06 -3.401745E+01 -7.779431E+02 -9.221631E+00  7.045290E+02 -1.048199E-05
        24   4 -1.126147E+06  3.361324E+00 -1.277145E+02  8.996321E-09  3.224988E+02  2.169729E-11
        24   5 -1.126130E+06  6.492922E+00 -3.851110E+02 -3.281360E-09  5.135125E+02 -1.300111E-09
        24   6 -1.126148E+06 -3.401745E+01 -7.779431E+02 -1.548966E-09  7.045290E+02  8.354813E-10
        24   7 -1.126147E+06  3.361325E+00 -1.277145E+02  1.391103E+01  3.224988E+02  7.238545E-06
        24   8 -1.126130E+06  6.492923E+00 -3.851110E+02  1.156635E+01  5.135125E+02  9.582354E-06
        24   9 -1.126148E+06 -3.401745E+01 -7.779431E+02  9.221631E+00  7.045290E+02  1.048381E-05
        24  10 -1.126147E+06  3.361297E+00 -1.277147E+02 -1.391103E+01  5.422455E-10  6.549764E-10
        24  11 -1.126130E+06  6.492852E+00 -3.851115E+02 -1.156635E+01 -5.229134E-10 -6.412655E-10
        24  12 -1.126148E+06 -3.401758E+01 -7.779440E+02 -9.221631E+00 -2.743445E-09 -2.761939E-10
        24  13 -1.126147E+06  3.361296E+00 -1.277147E+02  4.532763E-09 -2.102533E-09  4.844678E-10
        24  14 -1.126130E+06  6.492851E+00 -3.851115E+02  3.156539E-09 -1.936838E-09 -4.792512E-10
        24  15 -1.126148E+06 -3.401758E+01 -7.779440E+02 -1.651994E-08 -4.097701E-11 -4.000210E-12
        24  16 -1.126147E+06  3.361297E+00 -1.277147E+02  1.391103E+01 -2.756681E-10  2.818834E-10
        24  17 -1.126130E+06  6.492852E+00 -3.851115E+02  1.156635E+01 -1.430728E-09 -4.381664E-10
        24  18 -1.126148E+06 -3.401758E+01 -7.779440E+02  9.221631E+00  2.359917E-09  9.273609E-11
        24  19 -1.126147E+06  3.361325E+00 -1.277145E+02 -1.391103E+01 -3.224988E+02  7.240202E-06
        24  20 -1.126130E+06  6.492923E+00 -3.851110E+02 -1.156635E+01 -5.135125E+02  9.584044E-06
        24  21 -1.126148E+06 -3.401745E+01 -7.779431E+02 -9.221631E+00 -7.045290E+02  1.048205E-05
        24  22 -1.126147E+06  3.361324E+00 -1.277145E+02  2.590696E-08 -3.224988E+02  9.354887E-10
        24  23 -1.126130E+06  6.492922E+00 -3.851110E+02 -5.474261E-09 -5.135125E+02  3.382833E-10
        24  24 -1.126148E+06 -3.401745E+01 -7.779431E+02  1.050989E-08 -7.045290E+02 -8.555398E-10
        24  25 -1.126147E+06  3.361324E+00 -1.277145E+02  1.391103E+01 -3.224988E+02 -7.238082E-06
        24  26 -1.126130E+06  6.492923E+00 -3.851110E+02  1.156635E+01 -5.135125E+02 -9.583249E-06
        24  27 -1.126148E+06 -3.401745E+01 -7.779431E+02  9.221631E+00 -7.045290E+02 -1.048409E-05
        25   1 -1.126195E+06  2.313652E+01 -1.042969E+03 -8.220680E+01  8.677419E+02 -1.150993E-04
        25   2 -1.126071E+06  5.896073E+01 -1.841901E+03 -3.074309E+00  1.787574E+03 -8.867052E-06
        25   3 -1.126196E+06 -4.173063E+02 -3.368518E+03  7.605824E+01  2.707404E+03  3.322609E-04
        25   4 -1.126195E+06  2.313650E+01 -1.042969E+03 -2.580269E-09  8.677419E+02  1.752006E-09
        25   5 -1.126071E+06  5.896073E+01 -1.841901E+03  9.672645E-09  1.787574E+03  5.103587E-10
        25   6 -1.126196E+06 -4.173063E+02 -3.368518E+03  2.302202E-08  2.707404E+03 -6.413453E-10
        25   7 -1.126195E+06  2.313652E+01 -1.042969E+03  8.220680E+01  8.677419E+02  1.151028E-04
        25   8 -1.126071E+06  5.896073E+01 -1.841901E+03  3.074309E+00  1.787574E+03  8.867922E-06
        25   9 -1.126196E+06 -4.173063E+02 -3.368518E+03 -7.605824E+01  2.707404E+03 -3.322619E-04
        25  10 -1.126195E+06  2.313631E+01 -1.042970E+03 -8.220680E+01 -2.131272E-09  1.278087E-10
        25  11 -1.126071E+06  5.895987E+01 -1.841907E+03 -3.074309E+00 -1.196402E-09 -1.239553E-11
        25  12 -1.126196E+06 -4.173082E+02 -3.368532E+03  7.605824E+01 -1.243685E-10  3.955616E-10
        25  13 -1.126195E+06  2.313630E+01 -1.042970E+03 -1.554434E-08  1.263143E-09  2.594185E-10
        25  14 -1.126071E+06  5.895987E+01 -1.841907E+03  7.528078E-09 -1.296767E-09  1.703598E-10
        25  15 -1.126196E+06 -4.173082E+02 -3.368532E+03  3.059840E-08 -1.642618E-09  4.977457E-10
        25  16 -1.126195E+06  2.313631E+01 -1.042970E+03  8.220680E+01  5.459672E-10  3.553349E-10
        25  17 -1.126071E+06  5.895987E+01 -1.841907E+03  3.074309E+00 -1.083664E-09  3.290712E-10
        25  18 -1.126196E+06 -4.173082E+02 -3.368532E+03 -7.605824E+01 -2.732343E-09  5.468142E-10
        25  19 -1.126195E+06  2.313652E+01 -1.042969E+03 -8.220680E+01 -8.677419E+02  1.150995E-04
        25  20 -1.126071E+06  5.896073E+01 -1.841901E+03 -3.074309E+00 -1.787574E+03  8.867363E-06
        25  21 -1.126196E+06 -4.173063E+02 -3.368518E+03  7.605824E+01 -2.707404E+03 -3.322600E-04
        25  22 -1.126195E+06  2.313650E+01 -1.042969E+03  5.948607E-09 -8.677419E+02 -1.215422E-09
        25  23 -1.126071E+06  5.896073E+01 -1.841901E+03  5.385613E-09 -1.787574E+03 -1.904809E-10
        25  24 -1.126196E+06 -4.173063E+02 -3.368518E+03  1.450469E-08 -2.707404E+03  1.663303E-09
        25  25 -1.126195E+06  2.313652E+01 -1.042969E+03  8.220680E+01 -8.677419E+02 -1.151023E-04
        25  26 -1.126071E+06  5.896073E+01 -1.841901E+03  3.074309E+00 -1.787574E+03 -8.867666E-06
        25  27 -1.126196E+06 -4.173063E+02 -3.368518E+03 -7.605824E+01 -2.707404E+03  3.322630E-04
        26   1 -1.126559E+06  2.574949E+02 -4.340806E+03 -7.346957E+02  3.386007E+03 -4.013988E-03
        26   2 -1.125618E+06  5.612481E+02 -7.387551E+03  3.730051E+02  7.147969E+03  4.302070E-03
        26   3 -1.126564E+06 -4.718797E+03 -1.428271E+04  1.480691E+03  1.090986E+04  2.606537E-02
        26   4 -1.126559E+06  2.574939E+02 -4.340806E+03  2.311386E-08  3.386007E+03 -2.084903E-10
        26   5 -1.125618E+06  5.612478E+02 -7.387551E+03  2.879665E-09  7.147969E+03  8.629300E-10
        26   6 -1.126564E+06 -4.718801E+03 -1.428271E+04  1.871515E-08  1.090986E+04 -6.491626E-10
        26   7 -1.126559E+06  2.574949E+02 -4.340806E+03  7.346957E+02  3.386007E+03  4.013987E-03
        26   8 -1.125618E+06  5.612481E+02 -7.387551E+03 -3.730051E+02  7.147969E+03 -4.302069E-03
        26   9 -1.126564E+06 -4.718797E+03 -1.428271E+04 -1.480691E+03  1.090986E+04 -2.606537E-02
        26  10 -1.126559E+06  2.574918E+02 -4.340828E+03 -7.346957E+02  9.392652E-10  6.150711E-10
        26  11 -1.125618E+06  5.612343E+02 -7.387647E+03  3.730051E+02  5.832878E-10  4.899438E-10
        26  12 -1.126564E+06 -4.718829E+03 -1.428293E+04  1.480691E+03 -5.500331E-10 -9.662944E-10
        26  13 -1.126559E+06  2.574908E+02 -4.340828E+03  1.873961E-08 -1.681242E-11  5.322014E-10
        26  14 -1.125618E+06  5.612341E+02 -7.387647E+03 -1.224688E-08  4.064102E-10 -4.884953E-11
        26  15 -1.126564E+06 -4.718833E+03 -1.428293E+04 -6.632733E-09 -2.464281E-09 -6.785079E-10
        26  16 -1.126559E+06  2.574918E+02 -4.340828E+03  7.346957E+02 -2.553988E-09  3.654205E-10
        26  17 -1.125618E+06  5.612343E+02 -7.387647E+03 -3.730051E+02 -3.091855E-09 -4.509827E-10
        26  18 -1.126564E+06 -4.718829E+03 -1.428293E+04 -1.480691E+03  1.676793E-09 -5.672679E-10
        26  19 -1.126559E+06  2.574949E+02 -4.340806E+03 -7.346957E+02 -3.386007E+03  4.013989E-03
        26  20 -1.125618E+06  5.612481E+02 -7.387551E+03  3.730051E+02 -7.147969E+03 -4.302070E-03
        26  21 -1.126564E+06 -4.718797E+03 -1.428271E+04  1.480691E+03 -1.090986E+04 -2.606537E-02
        26  22 -1.126559E+06  2.574939E+02 -4.340806E+03  1.436536E-08 -3.386007E+03  1.285069E-09
        26  23 -1.125618E+06  5.612478E+02 -7.387551E+03 -1.537675E-09 -7.147969E+03 -9.775945E-10
        26  24 -1.126564E+06 -4.718801E+03 -1.428271E+04  2.186056E-08 -1.090986E+04 -6.786101E-10
        26  25 -1.126559E+06  2.574949E+02 -4.340806E+03  7.346957E+02 -3.386007E+03 -4.013987E-03
        26  26 -1.125618E+06  5.612481E+02 -7.387551E+03 -3.730051E+02 -7.147969E+03  4.302068E-03
        26  27 -1.126564E+06 -4.718797E+03 -1.428271E+04 -1.480691E+03 -1.090986E+04  2.606537E-02
        27   1 -1.129951E+06  2.813243E+03 -1.760763E+04 -7.363301E+03  1.358147E+04 -1.613623E-01
        27   2 -1.121387E+06  5.758442E+03 -2.861157E+04  5.650590E+03  2.895345E+04  2.639799E-01
        27   3 -1.129981E+06 -5.188552E+04 -6.478324E+04  1.866448E+04  4.432571E+04  1.334908E+00
        27   4 -1.129951E+06  2.813141E+03 -1.760765E+04 -6.195158E-09  1.358147E+04 -9.013074E-10
        27   5 -1.121387E+06  5.758381E+03 -2.861158E+04 -2.334713E-09  2.895345E+04  5.166220E-10
        27   6 -1.129981E+06 -5.188617E+04 -6.478333E+04  7.992951E-09  4.432571E+04  2.903167E-10
        27   7 -1.129951E+06  2.813243E+03 -1.760763E+04  7.363301E+03  1.358147E+04  1.613623E-01
        27   8 -1.121387E+06  5.758442E+03 -2.861157E+04 -5.650590E+03  2.895345E+04 -2.639799E-01
        27   9 -1.129981E+06 -5.188552E+04 -6.478324E+04 -1.866448E+04  4.432571E+04 -1.334908E+00
        27  10 -1.129951E+06  2.813193E+03 -1.760798E+04 -7.363301E+03 -1.343068E-09 -6.586826E-10
        27  11 -1.121388E+06  5.758216E+03 -2.861315E+04  5.650590E+03 -9.440988E-11  7.457756E-10
        27  12 -1.129983E+06 -5.188604E+04 -6.478694E+04  1.866448E+04  1.103735E-09  4.392126E-10
        27  13 -1.129951E+06  2.813091E+03 -1.760800E+04 -1.470202E-08  1.698786E-09 -4.729003E-10
        27  14 -1.121388E+06  5.758156E+03 -2.861316E+04 -6.609221E-09 -2.758489E-09  3.292205E-10
        27  15 -1.129983E+06 -5.188670E+04 -6.478703E+04 -4.983506E-09 -2.102436E-09  1.957796E-10
        27  16 -1.129951E+06  2.813193E+03 -1.760798E+04  7.363301E+03  2.146176E-09 -1.827636E-10
        27  17 -1.121388E+06  5.758216E+03 -2.861315E+04 -5.650590E+03  2.196869E-09  4.006071E-11
        27  18 -1.129983E+06 -5.188604E+04 -6.478694E+04 -1.866448E+04  1.829387E-10  2.882043E-11
        27  19 -1.129951E+06  2.813243E+03 -1.760763E+04 -7.363301E+03 -1.358147E+04  1.613623E-01
        27  20 -1.121387E+06  5.758442E+03 -2.861157E+04  5.650590E+03 -2.895345E+04 -2.639799E-01
        27  21 -1.129981E+06 -5.188552E+04 -6.478324E+04  1.866448E+04 -4.432571E+04 -1.334908E+00
        27  22 -1.129951E+06  2.813141E+03 -1.760765E+04  2.629061E-09 -1.358147E+04 -2.493295E-11
        27  23 -1.121387E+06  5.758381E+03 -2.861158E+04  2.033290E-09 -2.895345E+04  1.082816E-10
        27  24 -1.129981E+06 -5.188617E+04 -6.478333E+04  7.884707E-09 -4.432571E+04  1.137295E-10
        27  25 -1.129951E+06  2.813243E+03 -1.760763E+04  7.363301E+03 -1.358147E+04 -1.613623E-01
        27  26 -1.121387E+06  5.758442E+03 -2.861157E+04 -5.650590E+03 -2.895345E+04  2.639799E-01
        27  27 -1.129981E+06 -5.188552E+04 -6.478324E+04 -1.866448E+04 -4.432571E+04  1.334908E+00
        28   1  5.619038E+05  1.605873E+06  6.438293E+05 -1.358399E+05  1.016407E+04  3.001463E+05
        28   2  1.801228E+05  1.522773E+06  3.995217E+05 -4.358363E+04  3.184053E+04  1.846065E+05
        28   3  1.949826E+05  1.554372E+06  3.296116E+05  3.321769E+04  3.254616E+04  6.906729E+04
        28   4  3.357704E+05  6.970896E+05  4.209569E+05 -1.409045E+04  1.022676E+04  2.805811E+05
        28   5 -3.765317E+04  6.408246E+05  1.917986E+05 -6.433811E+03  3.185856E+04  1.777668E+05
        28   6 -1.636821E+04  6.971931E+05  1.283716E+05 -1.422232E+04  3.253771E+04  7.494545E+04
        28   7  1.096315E+05 -2.109109E+05  1.980333E+05  1.074809E+05  1.028186E+04  2.610441E+05
        28   8 -2.554795E+05 -2.404063E+05 -1.597707E+04  3.066314E+04  3.187579E+04  1.709365E+05
        28   9 -2.277627E+05 -1.593057E+05 -7.291735E+04 -6.159640E+04  3.252836E+04  8.081551E+04
        28  10  5.618796E+05  1.605777E+06  6.436603E+05 -1.358424E+05  1.179073E-09  1.030831E-09
        28  11  1.801126E+05  1.522736E+06  3.994559E+05 -4.358836E+04  2.436740E-09 -2.269712E-10
        28  12  1.949802E+05  1.554367E+06  3.296006E+05  3.321588E+04  3.408102E-10 -1.510902E-09
        28  13  3.357492E+05  6.970052E+05  4.208089E+05 -1.409276E+04  5.619154E-10 -7.286688E-11
        28  14 -3.766273E+04  6.407905E+05  1.917374E+05 -6.438370E+03  1.082887E-09  1.971520E-12
        28  15 -1.637086E+04  6.971868E+05  1.283590E+05 -1.422429E+04 -6.253591E-10 -1.495540E-10
        28  16  1.096131E+05 -2.109841E+05  1.979050E+05  1.074787E+05  1.187030E-09 -1.015814E-09
        28  17 -2.554885E+05 -2.404379E+05 -1.603390E+04  3.065875E+04 -1.614729E-09 -3.717360E-11
        28  18 -2.277656E+05 -1.593130E+05 -7.293162E+04 -6.159852E+04 -2.057214E-09  1.434844E-09
        28  19  5.619038E+05  1.605873E+06  6.438293E+05 -1.358399E+05 -1.016407E+04 -3.001463E+05
        28  20  1.801228E+05  1.522773E+06  3.995217E+05 -4.358363E+04 -3.184053E+04 -1.846065E+05
        28  21  1.949826E+05  1.554372E+06  3.296116E+05  3.321769E+04 -3.254616E+04 -6.906729E+04
        28  22  3.357704E+05  6.970896E+05  4.209569E+05 -1.409045E+04 -1.022676E+04 -2.805811E+05
        28  23 -3.765317E+04  6.408246E+05  1.917986E+05 -6.433811E+03 -3.185856E+04 -1.777668E+05
        28  24 -1.636821E+04  6.971931E+05  1.283716E+05 -1.422232E+04 -3.253771E+04 -7.494545E+04
        28  25  1.096315E+05 -2.109109E+05  1.980333E+05  1.074809E+05 -1.028186E+04 -2.610441E+05
        28  26 -2.554795E+05 -2.404063E+05 -1.597707E+04  3.066314E+04 -3.187579E+04 -1.709365E+05
        28  27 -2.277627E+05 -1.593057E+05 -7.291735E+04 -6.159640E+04 -3.252836E+04 -8.081551E+04
        29   1  2.340357E+05  1.506057E+06  3.070917E+05 -2.785233E+04  2.925861E+04  5.550422E+04
        29   2  1.924215E+05  1.471468E+06  2.705579E+05 -8.285021E+03  2.953356E+04  1.283790E+04
        29   3  2.131375E+05  1.458446E+06  2.774401E+05 -3.600433E+03  2.763685E+04 -2.983157E+04
        29   4  2.925566E+04  6.768976E+05  1.115202E+05 -1.402643E+04  2.926348E+04  5.467035E+04
        29   5 -6.339105E+03  6.662243E+05  8.104531E+04 -6.587128E+03  2.953527E+04  1.335716E+04
        29   6  2.020608E+04  6.769105E+05  9.308562E+04 -1.403128E+04  2.763581E+04 -2.796081E+04
        29   7 -1.755728E+05 -1.516306E+05 -8.409853E+04 -2.188492E+02  2.926832E+04  5.383755E+04
        29   8 -2.051459E+05 -1.384237E+05 -1.085118E+05 -4.891193E+03  2.953700E+04  1.387573E+04
        29   9 -1.727685E+05 -1.040647E+05 -9.131088E+04 -2.444866E+04  2.763470E+04 -2.609238E+04
        29  10  2.340340E+05  1.506054E+06  3.070843E+05 -2.785364E+04 -8.333502E-10  7.902836E-10
        29  11  1.924205E+05  1.471467E+06  2.705559E+05 -8.285326E+03 -2.581226E-09  1.562650E-09
        29  12  2.131364E+05  1.458445E+06  2.774370E+05 -3.599770E+03 -5.230545E-10  1.408411E-09
        29  13  2.925394E+04  6.768942E+05  1.115130E+05 -1.402772E+04 -2.860513E-09 -6.735422E-10
        29  14 -6.340089E+03  6.662238E+05  8.104334E+04 -6.587446E+03 -3.830591E-09 -2.628915E-11
        29  15  2.020505E+04  6.769094E+05  9.308271E+04 -1.403066E+04  1.278294E-10 -2.200539E-10
        29  16 -1.755745E+05 -1.516340E+05 -8.410559E+04 -2.201185E+02 -1.931985E-09 -9.219527E-10
        29  17 -2.051469E+05 -1.384241E+05 -1.085138E+05 -4.891523E+03  3.778859E-10 -2.328014E-09
        29  18 -1.727695E+05 -1.040656E+05 -9.131360E+04 -2.444807E+04 -2.161117E-09 -1.537532E-09
        29  19  2.340357E+05  1.506057E+06  3.070917E+05 -2.785233E+04 -2.925861E+04 -5.550422E+04
        29  20  1.924215E+05  1.471468E+06  2.705579E+05 -8.285021E+03 -2.953356E+04 -1.283790E+04
        29  21  2.131375E+05  1.458446E+06  2.774401E+05 -3.600433E+03 -2.763685E+04  2.983157E+04
        29  22  2.925566E+04  6.768976E+05  1.115202E+05 -1.402643E+04 -2.926348E+04 -5.467035E+04
        29  23 -6.339105E+03  6.662243E+05  8.104531E+04 -6.587128E+03 -2.953527E+04 -1.335716E+04
        29  24  2.020608E+04  6.769105E+05  9.308562E+04 -1.403128E+04 -2.763581E+04  2.796081E+04
        29  25 -1.755728E+05 -1.516306E+05 -8.409853E+04 -2.188492E+02 -2.926832E+04 -5.383755E+04
        29  26 -2.051459E+05 -1.384237E+05 -1.085118E+05 -4.891193E+03 -2.953700E+04 -1.387573E+04
        29  27 -1.727685E+05 -1.040647E+05 -9.131088E+04 -2.444866E+04 -2.763470E+04  2.609238E+04
        30   1  1.762176E+05  1.445930E+06  2.793309E+05 -5.005167E+04  2.900940E+04 -4.113147E+04
        30   2  1.536800E+05  1.382721E+06  3.146693E+05  1.817492E+04  2.693876E+04 -1.267719E+05
        30   3  4.174060E+05  1.402502E+06  4.773226E+05  7.263933E+04  8.944839E+03 -2.124589E+05
        30   4 -1.041406E+04  6.902780E+05  1.019110E+05 -1.400204E+04  2.901736E+04 -4.451519E+04
        30   5 -2.715135E+04  6.495507E+05  1.420255E+05 -6.759204E+03  2.692940E+04 -1.205151E+05
        30   6  2.408669E+05  6.902181E+05  3.028584E+05 -1.328110E+04  8.926564E+03 -1.965631E+05
        30   7 -1.970816E+05 -6.484619E+04 -7.554733E+04  2.200383E+04  2.902494E+04 -4.789479E+04
        30   8 -2.080185E+05 -8.312483E+04 -3.065466E+04 -3.166344E+04  2.691954E+04 -1.142656E+05
        30   9  6.431862E+04 -2.158823E+04  1.283621E+05 -9.910263E+04  8.903898E+03 -1.806853E+05
        30  10  1.762162E+05  1.445927E+06  2.793262E+05 -5.005071E+04  1.467982E-09  7.709688E-10
        30  11  1.536749E+05  1.382704E+06  3.146378E+05  1.817767E+04  1.893549E-09  1.080706E-09
        30  12  4.173938E+05  1.402454E+06  4.772378E+05  7.264086E+04 -4.706818E-10 -2.780472E-10
        30  13 -1.041550E+04  6.902757E+05  1.019057E+05 -1.400100E+04 -1.831225E-09 -1.241314E-09
        30  14 -2.715602E+04  6.495350E+05  1.419969E+05 -6.756592E+03  2.047862E-09  5.586205E-11
        30  15  2.408565E+05  6.901766E+05  3.027857E+05 -1.327969E+04  3.775445E-11 -4.034611E-10
        30  16 -1.970831E+05 -6.484888E+04 -7.555323E+04  2.200495E+04 -1.926501E-09 -1.134563E-09
        30  17 -2.080228E+05 -8.313904E+04 -3.068055E+04 -3.166097E+04 -1.269526E-09 -2.145851E-09
        30  18  6.430977E+04 -2.162330E+04  1.283006E+05 -9.910134E+04 -1.141794E-09  1.509502E-10
        30  19  1.762176E+05  1.445930E+06  2.793309E+05 -5.005167E+04 -2.900940E+04  4.113147E+04
        30  20  1.536800E+05  1.382721E+06  3.146693E+05  1.817492E+04 -2.693876E+04  1.267719E+05
        30  21  4.174060E+05  1.402502E+06  4.773226E+05  7.263933E+04 -8.944839E+03  2.124589E+05
        30  22 -1.041406E+04  6.902780E+05  1.019110E+05 -1.400204E+04 -2.901736E+04  4.451519E+04
        30  23 -2.715135E+04  6.495507E+05  1.420255E+05 -6.759204E+03 -2.692940E+04  1.205151E+05
        30  24  2.408669E+05  6.902181E+05  3.028584E+05 -1.328110E+04 -8.926564E+03  1.965631E+05
        30  25 -1.970816E+05 -6.484619E+04 -7.554733E+04  2.200383E+04 -2.902494E+04  4.789479E+04
        30  26 -2.080185E+05 -8.312483E+04 -3.065466E+04 -3.166344E+04 -2.691954E+04  1.142656E+05
        30  27  6.431862E+04 -2.158823E+04  1.283621E+05 -9.910263E+04 -8.903898E+03  1.806853E+05
        31   1 -1.795223E+06 -3.962471E+05 -1.532661E+05 -6.676798E+05 -8.002087E+04 -2.851753E+04
        31   2 -1.769313E+06 -2.716958E+05 -7.692598E+04 -6.714065E+05 -5.135982E+04 -1.494449E+04
        31   3 -1.779246E+06 -2.622408E+05 -5.191203E+04 -6.570511E+05 -2.154165E+04 -4.456237E+03
        31   4 -1.700931E+06 -3.305520E+05 -1.217311E+05 -6.110210E+05 -7.777401E+04 -2.767993E+04
        31   5 -1.676796E+06 -2.280470E+05 -5.115728E+04 -6.369647E+05 -5.083897E+04 -1.475019E+04
        31   6 -1.688156E+06 -2.402866E+05 -3.053326E+04 -6.448287E+05 -2.274687E+04 -4.907507E+03
        31   7 -1.606629E+06 -2.648485E+05 -9.019707E+04 -5.543529E+05 -7.552681E+04 -2.684192E+04
        31   8 -1.584272E+06 -1.843963E+05 -2.538954E+04 -6.025181E+05 -5.031803E+04 -1.455583E+04
        31   9 -1.597057E+06 -2.183327E+05 -9.154976E+03 -6.326052E+05 -2.395228E+04 -5.358789E+03
        31  10 -1.795230E+06 -3.962497E+05 -1.532797E+05 -6.676816E+05 -6.382530E-10  3.168417E-10
        31  11 -1.769316E+06 -2.716968E+05 -7.693137E+04 -6.714071E+05  4.721544E-10  1.407873E-09
        31  12 -1.779247E+06 -2.622409E+05 -5.191294E+04 -6.570512E+05  1.195385E-09  3.481305E-10
        31  13 -1.700937E+06 -3.305545E+05 -1.217439E+05 -6.110227E+05 -2.261835E-09  3.845610E-10
        31  14 -1.676799E+06 -2.280479E+05 -5.116257E+04 -6.369654E+05  8.964631E-10  1.064949E-09
        31  15 -1.688156E+06 -2.402868E+05 -3.053428E+04 -6.448288E+05  4.917461E-10  9.234700E-10
        31  16 -1.606635E+06 -2.648508E+05 -9.020918E+04 -5.543545E+05  2.086583E-09  2.585750E-10
        31  17 -1.584275E+06 -1.843972E+05 -2.539471E+04 -6.025187E+05  1.813531E-09  4.439312E-10
        31  18 -1.597058E+06 -2.183329E+05 -9.156112E+03 -6.326053E+05  2.080799E-09  7.819017E-10
        31  19 -1.795223E+06 -3.962471E+05 -1.532661E+05 -6.676798E+05  8.002087E+04  2.851753E+04
        31  20 -1.769313E+06 -2.716958E+05 -7.692598E+04 -6.714065E+05  5.135982E+04  1.494449E+04
        31  21 -1.779246E+06 -2.622408E+05 -5.191203E+04 -6.570511E+05  2.154165E+04  4.456237E+03
        31  22 -1.700931E+06 -3.305520E+05 -1.217311E+05 -6.110210E+05  7.777401E+04  2.767993E+04
        31  23 -1.676796E+06 -2.280470E+05 -5.115728E+04 -6.369647E+05  5.083897E+04  1.475019E+04
        31  24 -1.688156E+06 -2.402866E+05 -3.053326E+04 -6.448287E+05  2.274687E+04  4.907507E+03
        31  25 -1.606629E+06 -2.648485E+05 -9.019707E+04 -5.543529E+05  7.552681E+04  2.684192E+04
        31  26 -1.584272E+06 -1.843963E+05 -2.538954E+04 -6.025181E+05  5.031803E+04  1.455583E+04
        31  27 -1.597057E+06 -2.183327E+05 -9.154976E+03 -6.326052E+05  2.395228E+04  5.358789E+03
        32   1 -1.743707E+06 -2.773198E+05 -4.073305E+04 -6.568571E+05 -1.789747E+04 -4.106944E+03
        32   2 -1.728925E+06 -2.555495E+05 -2.350611E+04 -6.485135E+05 -1.132459E+04 -2.332501E+03
        32   3 -1.710399E+06 -2.527312E+05 -1.385512E+04 -6.473912E+05 -4.673503E+03 -7.657781E+02
        32   4 -1.684140E+06 -2.523735E+05 -2.471390E+04 -6.379448E+05 -1.817891E+04 -4.212538E+03
        32   5 -1.685406E+06 -2.385558E+05 -1.205367E+04 -6.359629E+05 -1.172191E+04 -2.481430E+03
        32   6 -1.682905E+06 -2.436667E+05 -6.876780E+03 -6.412024E+05 -5.186929E+03 -9.581661E+02
        32   7 -1.624570E+06 -2.274267E+05 -8.694980E+03 -6.190307E+05 -1.846039E+04 -4.318146E+03
        32   8 -1.641886E+06 -2.215620E+05 -6.014216E+02 -6.234116E+05 -1.211926E+04 -2.630371E+03
        32   9 -1.655410E+06 -2.346022E+05  1.014331E+02 -6.350135E+05 -5.700376E+03 -1.150559E+03
        32  10 -1.743707E+06 -2.773199E+05 -4.073368E+04 -6.568572E+05  1.021306E-09 -7.491554E-10
        32  11 -1.728925E+06 -2.555495E+05 -2.350636E+04 -6.485135E+05  2.071950E-09 -1.573856E-09
        32  12 -1.710399E+06 -2.527312E+05 -1.385516E+04 -6.473912E+05 -1.858572E-09 -1.648263E-09
        32  13 -1.684141E+06 -2.523736E+05 -2.471456E+04 -6.379449E+05  1.107438E-09 -2.441233E-10
        32  14 -1.685406E+06 -2.385559E+05 -1.205394E+04 -6.359630E+05 -8.181929E-10 -1.691340E-09
        32  15 -1.682905E+06 -2.436667E+05 -6.876832E+03 -6.412024E+05 -9.947155E-10 -1.401063E-09
        32  16 -1.624571E+06 -2.274268E+05 -8.695658E+03 -6.190308E+05  1.606175E-09  2.945123E-11
        32  17 -1.641886E+06 -2.215621E+05 -6.017114E+02 -6.234116E+05  2.392977E-09 -1.574287E-09
        32  18 -1.655410E+06 -2.346022E+05  1.013694E+02 -6.350135E+05 -1.094030E-09 -1.253689E-09
        32  19 -1.743707E+06 -2.773198E+05 -4.073305E+04 -6.568571E+05  1.789747E+04  4.106944E+03
        32  20 -1.728925E+06 -2.555495E+05 -2.350611E+04 -6.485135E+05  1.132459E+04  2.332501E+03
        32  21 -1.710399E+06 -2.527312E+05 -1.385512E+04 -6.473912E+05  4.673503E+03  7.657781E+02
        32  22 -1.684140E+06 -2.523735E+05 -2.471390E+04 -6.379448E+05  1.817891E+04  4.212538E+03
        32  23 -1.685406E+06 -2.385558E+05 -1.205367E+04 -6.359629E+05  1.172191E+04  2.481430E+03
        32  24 -1.682905E+06 -2.436667E+05 -6.876780E+03 -6.412024E+05  5.186929E+03  9.581661E+02
        32  25 -1.624570E+06 -2.274267E+05 -8.694980E+03 -6.190307E+05  1.846039E+04  4.318146E+03
        32  26 -1.641886E+06 -2.215620E+05 -6.014216E+02 -6.234116E+05  1.211926E+04  2.630371E+03
        32  27 -1.655410E+06 -2.346022E+05  1.014331E+02 -6.350135E+05  5.700376E+03  1.150559E+03
        33   1 -1.687756E+06 -2.469766E+05 -6.696613E+03 -6.421615E+05 -3.561681E+03 -9.310374E+02
        33   2 -1.674242E+06 -2.350941E+05  3.294914E+02 -6.326010E+05 -1.825959E+03 -1.209452E+03
        33   3 -1.652754E+06 -2.327815E+05  6.014481E+03 -6.326319E+05 -8.615453E+01 -1.498555E+03
        33   4 -1.682423E+06 -2.448100E+05 -5.335995E+03 -6.405218E+05 -4.015163E+03 -1.100968E+03
        33   5 -1.686353E+06 -2.396153E+05 -2.818144E+03 -6.358793E+05 -2.285438E+03 -1.381638E+03
        33   6 -1.682306E+06 -2.439894E+05 -1.636541E+03 -6.408284E+05 -5.516684E+02 -1.673013E+03
        33   7 -1.677091E+06 -2.426435E+05 -3.975373E+03 -6.388820E+05 -4.468651E+03 -1.270902E+03
        33   8 -1.698463E+06 -2.441366E+05 -5.965816E+03 -6.391575E+05 -2.744910E+03 -1.553822E+03
        33   9 -1.711858E+06 -2.551973E+05 -9.287722E+03 -6.490246E+05 -1.017163E+03 -1.847463E+03
        33  10 -1.687756E+06 -2.469766E+05 -6.696638E+03 -6.421615E+05 -1.441326E-09 -1.202767E-09
        33  11 -1.674242E+06 -2.350941E+05  3.294824E+02 -6.326010E+05 -4.095472E-09 -1.269843E-10
        33  12 -1.652754E+06 -2.327815E+05  6.014477E+03 -6.326319E+05 -2.826812E-09  8.258052E-10
        33  13 -1.682423E+06 -2.448100E+05 -5.336028E+03 -6.405218E+05 -1.903698E-09 -1.005726E-09
        33  14 -1.686353E+06 -2.396154E+05 -2.818158E+03 -6.358793E+05  6.371180E-10 -9.186350E-11
        33  15 -1.682306E+06 -2.439894E+05 -1.636547E+03 -6.408284E+05  1.008136E-10  1.380941E-09
        33  16 -1.677091E+06 -2.426435E+05 -3.975413E+03 -6.388820E+05 -1.533305E-09 -1.208511E-09
        33  17 -1.698463E+06 -2.441366E+05 -5.965835E+03 -6.391575E+05 -1.127046E-09 -1.036222E-09
        33  18 -1.711858E+06 -2.551973E+05 -9.287731E+03 -6.490246E+05 -1.157687E-09  5.156301E-10
        33  19 -1.687756E+06 -2.469766E+05 -6.696613E+03 -6.421615E+05  3.561681E+03  9.310374E+02
        33  20 -1.674242E+06 -2.350941E+05  3.294914E+02 -6.326010E+05  1.825959E+03  1.209452E+03
        33  21 -1.652754E+06 -2.327815E+05  6.014481E+03 -6.326319E+05  8.615453E+01  1.498555E+03
        33  22 -1.682423E+06 -2.448100E+05 -5.335995E+03 -6.405218E+05  4.015163E+03  1.100968E+03
        33  23 -1.686353E+06 -2.396153E+05 -2.818144E+03 -6.358793E+05  2.285438E+03  1.381638E+03
        33  24 -1.682306E+06 -2.439894E+05 -1.636541E+03 -6.408284E+05  5.516684E+02  1.673013E+03
        33  25 -1.677091E+06 -2.426435E+05 -3.975373E+03 -6.388820E+05  4.468651E+03  1.270902E+03
        33  26 -1.698463E+06 -2.441366E+05 -5.965816E+03 -6.391575E+05  2.744910E+03  1.553822E+03
        33  27 -1.711858E+06 -2.551973E+05 -9.287722E+03 -6.490246E+05  1.017163E+03  1.847463E+03
        34   1 -1.631687E+06 -2.250768E+05  1.193553E+04 -6.269468E+05  3.287398E+02 -1.891798E+03
        34   2 -1.618574E+06 -2.143135E+05  1.680607E+04 -6.174277E+05  1.057106E+03 -2.550306E+03
        34   3 -1.597152E+06 -2.120697E+05  2.133277E+04 -6.175329E+05  1.782924E+03 -3.201677E+03
        34   4 -1.682276E+06 -2.440579E+05 -1.294515E+03 -6.407230E+05 -1.310152E+02 -2.064112E+03
        34   5 -1.686426E+06 -2.397674E+05 -8.519169E+02 -6.359223E+05  6.012992E+02 -2.721172E+03
        34   6 -1.682267E+06 -2.439971E+05 -7.562154E+02 -6.407460E+05  1.331055E+03 -3.371100E+03
        34   7 -1.732862E+06 -2.630388E+05 -1.452464E+04 -6.544981E+05 -5.907247E+02 -2.236409E+03
        34   8 -1.754273E+06 -2.652209E+05 -1.851019E+04 -6.544151E+05  1.455498E+02 -2.892017E+03
        34   9 -1.767376E+06 -2.759240E+05 -2.284578E+04 -6.639562E+05  8.792546E+02 -3.540497E+03
        34  10 -1.631687E+06 -2.250768E+05  1.193552E+04 -6.269468E+05 -3.787774E-10  1.516693E-09
        34  11 -1.618574E+06 -2.143135E+05  1.680605E+04 -6.174276E+05 -2.583511E-10 -6.776016E-10
        34  12 -1.597152E+06 -2.120697E+05  2.133275E+04 -6.175328E+05 -1.582127E-09 -5.014260E-10
        34  13 -1.682276E+06 -2.440579E+05 -1.294523E+03 -6.407230E+05  8.746445E-10  8.513546E-10
        34  14 -1.686426E+06 -2.397674E+05 -8.519315E+02 -6.359223E+05 -8.768565E-10 -3.557924E-11
        34  15 -1.682267E+06 -2.439971E+05 -7.562401E+02 -6.407460E+05  4.584044E-10 -6.948012E-10
        34  16 -1.732862E+06 -2.630388E+05 -1.452465E+04 -6.544981E+05 -2.669780E-09  8.887867E-10
        34  17 -1.754273E+06 -2.652209E+05 -1.851020E+04 -6.544151E+05  1.529303E-09 -3.312983E-10
        34  18 -1.767376E+06 -2.759240E+05 -2.284580E+04 -6.639562E+05  2.090800E-09 -1.003985E-09
        34  19 -1.631687E+06 -2.250768E+05  1.193553E+04 -6.269468E+05 -3.287398E+02  1.891798E+03
        34  20 -1.618574E+06 -2.143135E+05  1.680607E+04 -6.174277E+05 -1.057106E+03  2.550306E+03
        34  21 -1.597152E+06 -2.120697E+05  2.133277E+04 -6.175329E+05 -1.782924E+03  3.201677E+03
        34  22 -1.682276E+06 -2.440579E+05 -1.294515E+03 -6.407230E+05  1.310152E+02  2.064112E+03
        34  23 -1.686426E+06 -2.397674E+05 -8.519169E+02 -6.359223E+05 -6.012992E+02  2.721172E+03
        34  24 -1.682267E+06 -2.439971E+05 -7.562154E+02 -6.407460E+05 -1.331055E+03  3.371100E+03
        34  25 -1.732862E+06 -2.630388E+05 -1.452464E+04 -6.544981E+05  5.907247E+02  2.236409E+03
        34  26 -1.754273E+06 -2.652209E+05 -1.851019E+04 -6.544151E+05 -1.455498E+02  2.892017E+03
        34  27 -1.767376E+06 -2.759240E+05 -2.284578E+04 -6.639562E+05 -8.792546E+02  3.540497E+03
        35   1 -1.576777E+06 -2.043308E+05  2.673006E+04 -6.119211E+05  2.083052E+03 -3.622384E+03
        35   2 -1.564174E+06 -1.940322E+05  3.066665E+04 -6.027311E+05  2.931380E+03 -4.205690E+03
        35   3 -1.543606E+06 -1.919775E+05  3.415311E+04 -6.027816E+05  3.773391E+03 -4.771465E+03
        35   4 -1.682343E+06 -2.439200E+05 -8.031028E+02 -6.406673E+05  1.635144E+03 -3.790356E+03
        35   5 -1.686333E+06 -2.398546E+05 -1.122596E+03 -6.360256E+05  2.493157E+03 -4.370094E+03
        35   6 -1.682361E+06 -2.440354E+05 -1.900047E+03 -6.406248E+05  3.344836E+03 -4.932303E+03
        35   7 -1.787898E+06 -2.835087E+05 -2.833731E+04 -6.694092E+05  1.187317E+03 -3.958297E+03
        35   8 -1.808477E+06 -2.856761E+05 -3.291316E+04 -6.693142E+05  2.055028E+03 -4.534462E+03
        35   9 -1.821096E+06 -2.960921E+05 -3.795482E+04 -6.784602E+05  2.916386E+03 -5.093101E+03
        35  10 -1.576778E+06 -2.043308E+05  2.673003E+04 -6.119211E+05 -8.712604E-10  1.806658E-10
        35  11 -1.564174E+06 -1.940322E+05  3.066661E+04 -6.027311E+05  8.028346E-10  1.133299E-09
        35  12 -1.543606E+06 -1.919776E+05  3.415304E+04 -6.027816E+05  2.660366E-09  7.086303E-10
        35  13 -1.682343E+06 -2.439200E+05 -8.031348E+02 -6.406673E+05 -1.434934E-10  2.323866E-10
        35  14 -1.686333E+06 -2.398546E+05 -1.122643E+03 -6.360256E+05  2.447771E-09  1.539657E-09
        35  15 -1.682361E+06 -2.440354E+05 -1.900114E+03 -6.406247E+05 -1.709767E-11  4.424518E-10
        35  16 -1.787898E+06 -2.835087E+05 -2.833734E+04 -6.694092E+05  1.177132E-09  6.076806E-10
        35  17 -1.808477E+06 -2.856761E+05 -3.291320E+04 -6.693142E+05  1.374515E-09  1.958082E-09
        35  18 -1.821096E+06 -2.960921E+05 -3.795488E+04 -6.784602E+05 -1.957195E-09 -1.737834E-10
        35  19 -1.576777E+06 -2.043308E+05  2.673006E+04 -6.119211E+05 -2.083052E+03  3.622384E+03
        35  20 -1.564174E+06 -1.940322E+05  3.066665E+04 -6.027311E+05 -2.931380E+03  4.205690E+03
        35  21 -1.543606E+06 -1.919775E+05  3.415311E+04 -6.027816E+05 -3.773391E+03  4.771465E+03
        35  22 -1.682343E+06 -2.439200E+05 -8.031028E+02 -6.406673E+05 -1.635144E+03  3.790356E+03
        35  23 -1.686333E+06 -2.398546E+05 -1.122596E+03 -6.360256E+05 -2.493157E+03  4.370094E+03
        35  24 -1.682361E+06 -2.440354E+05 -1.900047E+03 -6.406248E+05 -3.344836E+03  4.932303E+03
        35  25 -1.787898E+06 -2.835087E+05 -2.833731E+04 -6.694092E+05 -1.187317E+03  3.958297E+03
        35  26 -1.808477E+06 -2.856761E+05 -3.291316E+04 -6.693142E+05 -2.055028E+03  4.534462E+03
        35  27 -1.821096E+06 -2.960921E+05 -3.795482E+04 -6.784602E+05 -2.916386E+03  5.093101E+03
        36   1 -1.524272E+06 -1.845678E+05  3.876105E+04 -5.976609E+05  4.300963E+03 -5.084055E+03
        36   2 -1.512343E+06 -1.745977E+05  4.087676E+04 -5.887701E+05  6.741695E+03 -5.015758E+03
        36   3 -1.493666E+06 -1.737978E+05  4.096363E+04 -5.882413E+05  9.163226E+03 -4.895330E+03
        36   4 -1.682567E+06 -2.437682E+05 -2.457742E+03 -6.406080E+05  3.869677E+03 -5.245964E+03
        36   5 -1.686030E+06 -2.398224E+05 -4.334416E+03 -6.361867E+05  6.338985E+03 -5.167029E+03
        36   6 -1.682752E+06 -2.450529E+05 -8.263040E+03 -6.401275E+05  8.789039E+03 -5.035977E+03
        36   7 -1.840837E+06 -3.029669E+05 -4.367850E+04 -6.835450E+05  3.438514E+03 -5.407828E+03
        36   8 -1.859688E+06 -3.050453E+05 -4.954813E+04 -6.835913E+05  5.936399E+03 -5.318253E+03
        36   9 -1.871804E+06 -3.163059E+05 -5.749289E+04 -6.919996E+05  8.414975E+03 -5.176577E+03
        36  10 -1.524272E+06 -1.845678E+05  3.876096E+04 -5.976609E+05 -1.087378E-09 -1.148166E-10
        36  11 -1.512343E+06 -1.745978E+05  4.087662E+04 -5.887700E+05 -1.427689E-09 -2.842214E-10
        36  12 -1.493666E+06 -1.737978E+05  4.096343E+04 -5.882413E+05  1.672599E-09  4.147942E-11
        36  13 -1.682567E+06 -2.437682E+05 -2.457822E+03 -6.406080E+05 -1.575082E-09 -6.337552E-10
        36  14 -1.686030E+06 -2.398225E+05 -4.334542E+03 -6.361866E+05  1.129127E-09 -7.863093E-10
        36  15 -1.682752E+06 -2.450529E+05 -8.263233E+03 -6.401275E+05  6.085029E-10  3.981799E-10
        36  16 -1.840837E+06 -3.029669E+05 -4.367858E+04 -6.835450E+05  1.479503E-09 -1.431309E-09
        36  17 -1.859688E+06 -3.050453E+05 -4.954825E+04 -6.835912E+05  1.248970E-09 -1.215279E-09
        36  18 -1.871804E+06 -3.163059E+05 -5.749307E+04 -6.919996E+05  1.096727E-09  5.062419E-10
        36  19 -1.524272E+06 -1.845678E+05  3.876105E+04 -5.976609E+05 -4.300963E+03  5.084055E+03
        36  20 -1.512343E+06 -1.745977E+05  4.087676E+04 -5.887701E+05 -6.741695E+03  5.015758E+03
        36  21 -1.493666E+06 -1.737978E+05  4.096363E+04 -5.882413E+05 -9.163226E+03  4.895330E+03
        36  22 -1.682567E+06 -2.437682E+05 -2.457742E+03 -6.406080E+05 -3.869677E+03  5.245964E+03
        36  23 -1.686030E+06 -2.398224E+05 -4.334416E+03 -6.361867E+05 -6.338985E+03  5.167029E+03
        36  24 -1.682752E+06 -2.450529E+05 -8.263040E+03 -6.401275E+05 -8.789039E+03  5.035977E+03
        36  25 -1.840837E+06 -3.029669E+05 -4.367850E+04 -6.835450E+05 -3.438514E+03  5.407828E+03
        36  26 -1.859688E+06 -3.050453E+05 -4.954813E+04 -6.835913E+05 -5.936399E+03  5.318253E+03
        36  27 -1.871804E+06 -3.163059E+05 -5.749289E+04 -6.919996E+05 -8.414975E+03  5.176577E+03
        37   1 -1.474984E+06 -1.667572E+05  4.332177E+04 -5.861092E+05  1.098801E+04 -4.748668E+03
        37   2 -1.463783E+06 -1.544426E+05  3.891001E+04 -5.751878E+05  2.063638E+04 -1.869300E+03
        37   3 -1.452901E+06 -1.651932E+05  2.310478E+04 -5.682615E+05  3.010303E+04  1.494863E+03
        37   4 -1.683627E+06 -2.431463E+05 -1.066140E+04 -6.410369E+05  1.048507E+04 -4.937678E+03
        37   5 -1.684403E+06 -2.383453E+05 -1.871557E+04 -6.365043E+05  2.040181E+04 -1.957697E+03
        37   6 -1.685555E+06 -2.566668E+05 -3.837946E+04 -6.359667E+05  3.013658E+04  1.506969E+03
        37   7 -1.892227E+06 -3.195332E+05 -6.464818E+04 -6.959482E+05  9.982320E+03 -5.126622E+03
        37   8 -1.904976E+06 -3.222445E+05 -7.634518E+04 -6.978008E+05  2.016733E+04 -2.046058E+03
        37   9 -1.918155E+06 -3.481354E+05 -9.986817E+04 -7.036481E+05  3.017011E+04  1.519068E+03
        37  10 -1.474984E+06 -1.667573E+05  4.332150E+04 -5.861091E+05  2.856465E-09  9.052638E-10
        37  11 -1.463783E+06 -1.544427E+05  3.890920E+04 -5.751877E+05 -2.700311E-09  9.788758E-10
        37  12 -1.452902E+06 -1.651934E+05  2.310307E+04 -5.682615E+05 -1.651360E-09  7.151798E-10
        37  13 -1.683627E+06 -2.431464E+05 -1.066165E+04 -6.410369E+05  4.521753E-09  5.020545E-10
        37  14 -1.684404E+06 -2.383454E+05 -1.871637E+04 -6.365042E+05  1.041381E-09  9.427114E-11
        37  15 -1.685556E+06 -2.566671E+05 -3.838118E+04 -6.359667E+05 -1.867944E-09  3.266204E-10
        37  16 -1.892227E+06 -3.195333E+05 -6.464841E+04 -6.959482E+05  4.118076E-10  2.675609E-10
        37  17 -1.904976E+06 -3.222446E+05 -7.634595E+04 -6.978008E+05  5.656475E-10 -1.508936E-10
        37  18 -1.918156E+06 -3.481356E+05 -9.986989E+04 -7.036481E+05  2.878327E-10 -1.172702E-10
        37  19 -1.474984E+06 -1.667572E+05  4.332177E+04 -5.861092E+05 -1.098801E+04  4.748668E+03
        37  20 -1.463783E+06 -1.544426E+05  3.891001E+04 -5.751878E+05 -2.063638E+04  1.869300E+03
        37  21 -1.452901E+06 -1.651932E+05  2.310478E+04 -5.682615E+05 -3.010303E+04 -1.494863E+03
        37  22 -1.683627E+06 -2.431463E+05 -1.066140E+04 -6.410369E+05 -1.048507E+04  4.937678E+03
        37  23 -1.684403E+06 -2.383453E+05 -1.871557E+04 -6.365043E+05 -2.040181E+04  1.957697E+03
        37  24 -1.685555E+06 -2.566668E+05 -3.837946E+04 -6.359667E+05 -3.013658E+04 -1.506969E+03
        37  25 -1.892227E+06 -3.195332E+05 -6.464818E+04 -6.959482E+05 -9.982320E+03  5.126622E+03
        37  26 -1.904976E+06 -3.222445E+05 -7.634518E+04 -6.978008E+05 -2.016733E+04  2.046058E+03
        37  27 -1.918155E+06 -3.481354E+05 -9.986817E+04 -7.036481E+05 -3.017011E+04 -1.519068E+03
        38   1 -1.426301E+06 -1.570581E+05  1.798777E+04 -5.935543E+05  3.924431E+04  3.435843E+03
        38   2 -1.417068E+06 -1.128422E+05 -1.074456E+04 -5.545125E+05  7.868353E+04  1.809551E+04
        38   3 -1.468958E+06 -2.391604E+05 -1.139328E+05 -4.795094E+05  1.155056E+05  3.971967E+04
        38   4 -1.691882E+06 -2.378018E+05 -4.741868E+04 -6.465526E+05  3.720028E+04  2.668665E+03
        38   5 -1.670894E+06 -2.221681E+05 -7.945697E+04 -6.382215E+05  8.052533E+04  1.878557E+04
        38   6 -1.711830E+06 -3.778877E+05 -1.890608E+05 -5.939217E+05  1.212331E+05  4.186332E+04
        38   7 -1.957394E+06 -3.185466E+05 -1.128304E+05 -6.995332E+05  3.515721E+04  1.901687E+03
        38   8 -1.924656E+06 -3.314842E+05 -1.481752E+05 -7.218975E+05  8.236629E+04  1.947521E+04
        38   9 -1.954639E+06 -5.165842E+05 -2.641940E+05 -7.082858E+05  1.269582E+05  4.400495E+04
        38  10 -1.426302E+06 -1.570585E+05  1.798485E+04 -5.935544E+05 -1.540260E-09  2.204296E-10
        38  11 -1.417075E+06 -1.128442E+05 -1.075684E+04 -5.545137E+05  1.267888E-09  7.367353E-10
        38  12 -1.468973E+06 -2.391656E+05 -1.139609E+05 -4.795131E+05  1.614586E-09  1.153723E-10
        38  13 -1.691883E+06 -2.378022E+05 -4.742130E+04 -6.465527E+05 -1.660921E-10  4.558753E-10
        38  14 -1.670901E+06 -2.221702E+05 -7.946986E+04 -6.382227E+05  1.708495E-09  1.439706E-09
        38  15 -1.711847E+06 -3.778936E+05 -1.890918E+05 -5.939258E+05  2.935287E-09 -2.365913E-12
        38  16 -1.957396E+06 -3.185469E+05 -1.128328E+05 -6.995333E+05  3.969561E-10  5.304948E-10
        38  17 -1.924664E+06 -3.314864E+05 -1.481887E+05 -7.218988E+05  1.856404E-09  1.469231E-09
        38  18 -1.954657E+06 -5.165907E+05 -2.642280E+05 -7.082904E+05  8.030151E-10 -1.430734E-10
        38  19 -1.426301E+06 -1.570581E+05  1.798777E+04 -5.935543E+05 -3.924431E+04 -3.435843E+03
        38  20 -1.417068E+06 -1.128422E+05 -1.074456E+04 -5.545125E+05 -7.868353E+04 -1.809551E+04
        38  21 -1.468958E+06 -2.391604E+05 -1.139328E+05 -4.795094E+05 -1.155056E+05 -3.971967E+04
        38  22 -1.691882E+06 -2.378018E+05 -4.741868E+04 -6.465526E+05 -3.720028E+04 -2.668665E+03
        38  23 -1.670894E+06 -2.221681E+05 -7.945697E+04 -6.382215E+05 -8.052533E+04 -1.878557E+04
        38  24 -1.711830E+06 -3.778877E+05 -1.890608E+05 -5.939217E+05 -1.212331E+05 -4.186332E+04
        38  25 -1.957394E+06 -3.185466E+05 -1.128304E+05 -6.995332E+05 -3.515721E+04 -1.901687E+03
        38  26 -1.924656E+06 -3.314842E+05 -1.481752E+05 -7.218975E+05 -8.236629E+04 -1.947521E+04
        38  27 -1.954639E+06 -5.165842E+05 -2.641940E+05 -7.082858E+05 -1.269582E+05 -4.400495E+04
        39   1 -2.766462E+05  8.903486E+04  1.111838E+05  3.205594E+04  7.611062E+04  3.931607E+00
        39   2 -2.913699E+05 -9.874325E+03  4.911722E+04  9.705251E+03  4.972026E+04  7.776096E-01
        39   3 -2.766621E+05 -4.827299E+03  3.022949E+04 -1.264486E+04  2.332972E+04 -4.753732E-01
        39   4 -2.766473E+05  8.903293E+04  1.111836E+05  1.293994E-08  7.611062E+04 -5.674587E-11
        39   5 -2.913700E+05 -9.874502E+03  4.911719E+04  5.102436E-09  4.972026E+04  4.012168E-10
        39   6 -2.766623E+05 -4.827600E+03  3.022945E+04  1.573502E-09  2.332972E+04  6.181053E-10
        39   7 -2.766462E+05  8.903486E+04  1.111838E+05 -3.205594E+04  7.611062E+04 -3.931607E+00
        39   8 -2.913699E+05 -9.874325E+03  4.911722E+04 -9.705251E+03  4.972026E+04 -7.776096E-01
        39   9 -2.766621E+05 -4.827299E+03  3.022949E+04  1.264486E+04  2.332972E+04  4.753732E-01
        39  10 -2.766525E+05  8.903330E+04  1.111729E+05  3.205594E+04 -4.744666E-10 -1.318598E-10
        39  11 -2.913725E+05 -9.874989E+03  4.911257E+04  9.705251E+03 -2.256666E-10 -1.798332E-10
        39  12 -2.766627E+05 -4.827446E+03  3.022847E+04 -1.264486E+04  7.228769E-10  4.317161E-10
        39  13 -2.766536E+05  8.903137E+04  1.111727E+05  8.411911E-12 -2.170648E-09 -2.749953E-11
        39  14 -2.913726E+05 -9.875166E+03  4.911254E+04  7.268674E-09 -3.678084E-10 -9.534883E-12
        39  15 -2.766629E+05 -4.827746E+03  3.022842E+04  1.129867E-08  2.708733E-10  2.772094E-10
        39  16 -2.766525E+05  8.903330E+04  1.111729E+05 -3.205594E+04 -5.940389E-10  8.471531E-11
        39  17 -2.913725E+05 -9.874989E+03  4.911257E+04 -9.705251E+03 -4.767916E-09  1.930583E-10
        39  18 -2.766627E+05 -4.827446E+03  3.022847E+04  1.264486E+04 -7.908631E-10  1.223108E-10
        39  19 -2.766462E+05  8.903486E+04  1.111838E+05  3.205594E+04 -7.611062E+04 -3.931607E+00
        39  20 -2.913699E+05 -9.874325E+03  4.911722E+04  9.705251E+03 -4.972026E+04 -7.776096E-01
        39  21 -2.766621E+05 -4.827299E+03  3.022949E+04 -1.264486E+04 -2.332972E+04  4.753732E-01
        39  22 -2.766473E+05  8.903293E+04  1.111836E+05  4.310163E-09 -7.611062E+04 -2.885414E-11
        39  23 -2.913700E+05 -9.874502E+03  4.911719E+04 -1.209879E-08 -4.972026E+04 -4.049019E-10
        39  24 -2.766623E+05 -4.827600E+03  3.022945E+04 -2.128668E-09 -2.332972E+04 -5.834160E-11
        39  25 -2.766462E+05  8.903486E+04  1.111838E+05 -3.205594E+04 -7.611062E+04  3.931607E+00
        39  26 -2.913699E+05 -9.874325E+03  4.911722E+04 -9.705251E+03 -4.972026E+04  7.776096E-01
        39  27 -2.766621E+05 -4.827299E+03  3.022949E+04  1.264486E+04 -2.332972E+04 -4.753732E-01
        40   1 -2.824804E+05  8.094773E+03  2.452298E+04  2.542144E+03  1.873934E+04  7.676613E-02
        40   2 -2.840998E+05 -9.622395E+02  1.269237E+04  6.404743E+02  1.227467E+04  1.266856E-02
        40   3 -2.824825E+05 -4.418699E+02  7.466440E+03 -1.261171E+03  5.810144E+03 -1.180798E-02
        40   4 -2.824804E+05  8.094761E+03  2.452297E+04  1.211511E-08  1.873934E+04  7.691816E-10
        40   5 -2.840998E+05 -9.622403E+02  1.269237E+04  1.036386E-08  1.227467E+04  3.792506E-10
        40   6 -2.824825E+05 -4.418729E+02  7.466440E+03  1.507486E-08  5.810144E+03 -4.043549E-10
        40   7 -2.824804E+05  8.094773E+03  2.452298E+04 -2.542144E+03  1.873934E+04 -7.676613E-02
        40   8 -2.840998E+05 -9.622395E+02  1.269237E+04 -6.404743E+02  1.227467E+04 -1.266856E-02
        40   9 -2.824825E+05 -4.418699E+02  7.466440E+03  1.261171E+03  5.810144E+03  1.180798E-02
        40  10 -2.824808E+05  8.094679E+03  2.452232E+04  2.542144E+03  9.414738E-10  7.307384E-10
        40  11 -2.841000E+05 -9.622800E+02  1.269209E+04  6.404743E+02  1.203855E-09  3.172497E-10
        40  12 -2.824825E+05 -4.418790E+02  7.466377E+03 -1.261171E+03 -1.197139E-09 -4.948344E-10
        40  13 -2.824808E+05  8.094666E+03  2.452231E+04 -5.093969E-09 -1.089487E-09  5.195458E-10
        40  14 -2.841000E+05 -9.622807E+02  1.269209E+04 -4.379785E-10 -5.384312E-10  4.780500E-10
        40  15 -2.824825E+05 -4.418820E+02  7.466376E+03  1.067546E-08 -1.138348E-09 -1.819313E-10
        40  16 -2.824808E+05  8.094679E+03  2.452232E+04 -2.542144E+03 -2.040019E-09  3.536135E-10
        40  17 -2.841000E+05 -9.622800E+02  1.269209E+04 -6.404743E+02 -3.703260E-10  6.408783E-10
        40  18 -2.824825E+05 -4.418790E+02  7.466377E+03  1.261171E+03 -1.299898E-09  1.617736E-10
        40  19 -2.824804E+05  8.094773E+03  2.452298E+04  2.542144E+03 -1.873934E+04 -7.676613E-02
        40  20 -2.840998E+05 -9.622395E+02  1.269237E+04  6.404743E+02 -1.227467E+04 -1.266856E-02
        40  21 -2.824825E+05 -4.418699E+02  7.466440E+03 -1.261171E+03 -5.810144E+03  1.180797E-02
        40  22 -2.824804E+05  8.094761E+03  2.452297E+04 -5.064268E-09 -1.873934E+04  2.666320E-10
        40  23 -2.840998E+05 -9.622403E+02  1.269237E+04 -4.776644E-09 -1.227467E+04  5.820347E-10
        40  24 -2.824825E+05 -4.418729E+02  7.466440E+03  2.351010E-08 -5.810144E+03  3.620098E-11
        40  25 -2.824804E+05  8.094773E+03  2.452298E+04 -2.542144E+03 -1.873934E+04  7.676613E-02
        40  26 -2.840998E+05 -9.622395E+02  1.269237E+04 -6.404743E+02 -1.227467E+04  1.266857E-02
        40  27 -2.824825E+05 -4.418699E+02  7.466440E+03  1.261171E+03 -5.810144E+03 -1.180797E-02
        41   1 -2.831066E+05  7.156217E+02  5.800495E+03  1.307021E+02  4.641309E+03  9.775470E-04
        41   2 -2.833204E+05 -1.012897E+02  3.190760E+03 -4.616827E+00  3.047596E+03 -2.267291E-05
        41   3 -2.831070E+05 -3.978537E+01  1.838593E+03 -1.399379E+02  1.453862E+03 -3.278486E-04
        41   4 -2.831066E+05  7.156217E+02  5.800495E+03  2.053888E-08  4.641309E+03 -3.294611E-10
        41   5 -2.833204E+05 -1.012897E+02  3.190760E+03  5.359809E-10  3.047596E+03  2.137866E-10
        41   6 -2.831070E+05 -3.978540E+01  1.838593E+03  6.380366E-09  1.453862E+03 -5.066895E-10
        41   7 -2.831066E+05  7.156217E+02  5.800495E+03 -1.307021E+02  4.641309E+03 -9.775477E-04
        41   8 -2.833204E+05 -1.012897E+02  3.190760E+03  4.616827E+00  3.047596E+03  2.267322E-05
        41   9 -2.831070E+05 -3.978537E+01  1.838593E+03  1.399379E+02  1.453862E+03  3.278476E-04
        41  10 -2.831067E+05  7.156159E+02  5.800454E+03  1.307021E+02 -2.774343E-09 -6.446891E-10
        41  11 -2.833205E+05 -1.012922E+02  3.190742E+03 -4.616827E+00 -1.781018E-10  5.885526E-11
        41  12 -2.831070E+05 -3.978594E+01  1.838589E+03 -1.399379E+02 -1.271616E-09  7.886356E-10
        41  13 -2.831067E+05  7.156159E+02  5.800454E+03  9.769332E-09 -4.324248E-09 -5.040433E-10
        41  14 -2.833205E+05 -1.012922E+02  3.190742E+03 -1.450995E-08  1.025543E-09 -3.368109E-10
        41  15 -2.831070E+05 -3.978597E+01  1.838589E+03 -5.409523E-09  1.316204E-09  1.138751E-10
        41  16 -2.831067E+05  7.156159E+02  5.800454E+03 -1.307021E+02  1.101439E-09 -3.623980E-10
        41  17 -2.833205E+05 -1.012922E+02  3.190742E+03  4.616827E+00  1.231403E-09 -7.265768E-10
        41  18 -2.831070E+05 -3.978594E+01  1.838589E+03  1.399379E+02  1.377552E-09 -5.580223E-10
        41  19 -2.831066E+05  7.156217E+02  5.800495E+03  1.307021E+02 -4.641309E+03 -9.775483E-04
        41  20 -2.833204E+05 -1.012897E+02  3.190760E+03 -4.616827E+00 -3.047596E+03  2.267294E-05
        41  21 -2.831070E+05 -3.978537E+01  1.838593E+03 -1.399379E+02 -1.453862E+03  3.278501E-04
        41  22 -2.831066E+05  7.156217E+02  5.800495E+03  3.345923E-08 -4.641309E+03 -6.752536E-10
        41  23 -2.833204E+05 -1.012897E+02  3.190760E+03  5.932889E-10 -3.047596E+03 -8.885512E-10
        41  24 -2.831070E+05 -3.978540E+01  1.838593E+03  1.079817E-08 -1.453862E+03  7.266867E-10
        41  25 -2.831066E+05  7.156217E+02  5.800495E+03 -1.307021E+02 -4.641309E+03  9.775469E-04
        41  26 -2.833204E+05 -1.012897E+02  3.190760E+03  4.616827E+00 -3.047596E+03 -2.267471E-05
        41  27 -2.831070E+05 -3.978537E+01  1.838593E+03  1.399379E+02 -1.453862E+03 -3.278487E-04
        42   1 -2.831865E+05  5.817059E+01  1.398195E+03 -1.421183E+01  1.163436E+03 -2.664512E-05
        42   2 -2.832212E+05 -1.217032E+01  7.690170E+02 -1.698966E+01  7.820628E+02 -2.141209E-05
        42   3 -2.831866E+05 -3.927635E+00  4.078607E+02 -1.976748E+01  4.006902E+02 -1.276320E-05
        42   4 -2.831865E+05  5.817059E+01  1.398195E+03  1.613391E-08  1.163436E+03 -9.796975E-10
        42   5 -2.832212E+05 -1.217032E+01  7.690170E+02  9.487214E-09  7.820628E+02 -5.973780E-10
        42   6 -2.831866E+05 -3.927636E+00  4.078607E+02  6.607134E-09  4.006902E+02  4.716157E-10
        42   7 -2.831865E+05  5.817059E+01  1.398195E+03  1.421183E+01  1.163436E+03  2.664315E-05
        42   8 -2.832212E+05 -1.217032E+01  7.690170E+02  1.698966E+01  7.820628E+02  2.141098E-05
        42   9 -2.831866E+05 -3.927635E+00  4.078607E+02  1.976748E+01  4.006902E+02  1.276415E-05
        42  10 -2.831865E+05  5.817023E+01  1.398193E+03 -1.421183E+01  1.655844E-09  3.148228E-10
        42  11 -2.832212E+05 -1.217048E+01  7.690159E+02 -1.698966E+01  5.163318E-10 -7.509313E-10
        42  12 -2.831866E+05 -3.927678E+00  4.078604E+02 -1.976748E+01 -2.677437E-09  1.726506E-10
        42  13 -2.831865E+05  5.817023E+01  1.398193E+03  9.720357E-10 -9.786405E-10 -2.294262E-11
        42  14 -2.832212E+05 -1.217048E+01  7.690159E+02  5.192166E-09  4.872170E-10 -4.302422E-10
        42  15 -2.831866E+05 -3.927679E+00  4.078604E+02  7.261224E-09 -9.892482E-10  2.268060E-10
        42  16 -2.831865E+05  5.817023E+01  1.398193E+03  1.421183E+01 -6.410838E-10 -3.731970E-10
        42  17 -2.832212E+05 -1.217048E+01  7.690159E+02  1.698966E+01 -3.106044E-09 -9.300487E-11
        42  18 -2.831866E+05 -3.927678E+00  4.078604E+02  1.976748E+01 -1.707898E-10  2.854159E-10
        42  19 -2.831865E+05  5.817059E+01  1.398195E+03 -1.421183E+01 -1.163436E+03  2.664579E-05
        42  20 -2.832212E+05 -1.217032E+01  7.690170E+02 -1.698966E+01 -7.820628E+02  2.141068E-05
        42  21 -2.831866E+05 -3.927635E+00  4.078607E+02 -1.976748E+01 -4.006902E+02  1.276357E-05
        42  22 -2.831865E+05  5.817059E+01  1.398195E+03  1.164933E-08 -1.163436E+03  9.266086E-10
        42  23 -2.832212E+05 -1.217032E+01  7.690170E+02 -1.257636E-09 -7.820628E+02 -2.680187E-10
        42  24 -2.831866E+05 -3.927636E+00  4.078607E+02  1.168114E-08 -4.006902E+02 -1.150837E-11
        42  25 -2.831865E+05  5.817059E+01  1.398195E+03  1.421183E+01 -1.163436E+03 -2.664399E-05
        42  26 -2.832212E+05 -1.217032E+01  7.690170E+02  1.698966E+01 -7.820628E+02 -2.141119E-05
        42  27 -2.831866E+05 -3.927635E+00  4.078607E+02  1.976748E+01 -4.006902E+02 -1.276366E-05
        43   1 -2.832011E+05  3.897687E+00  2.810919E+02 -1.043479E+01  3.384414E+02 -5.689501E-06
        43   2 -2.832031E+05 -7.848633E-02  8.073393E+01 -7.805573E+00  2.986724E+02 -3.755430E-06
        43   3 -2.832012E+05 -8.837632E+00 -9.492145E+01 -5.176393E+00  2.589040E+02 -2.159892E-06
        43   4 -2.832011E+05  3.897687E+00  2.810919E+02  8.586053E-09  3.384414E+02  1.280893E-09
        43   5 -2.832031E+05 -7.848645E-02  8.073393E+01 -2.622457E-09  2.986724E+02  1.404484E-09
        43   6 -2.832012E+05 -8.837632E+00 -9.492145E+01  7.709476E-09  2.589040E+02 -3.884863E-10
        43   7 -2.832011E+05  3.897687E+00  2.810919E+02  1.043479E+01  3.384414E+02  5.692031E-06
        43   8 -2.832031E+05 -7.848633E-02  8.073393E+01  7.805573E+00  2.986724E+02  3.758165E-06
        43   9 -2.832012E+05 -8.837632E+00 -9.492145E+01  5.176393E+00  2.589040E+02  2.159156E-06
        43  10 -2.832011E+05  3.897656E+00  2.810917E+02 -1.043479E+01 -1.247089E-09  8.759869E-10
        43  11 -2.832031E+05 -7.851029E-02  8.073377E+01 -7.805573E+00  9.885661E-10  5.334841E-10
        43  12 -2.832012E+05 -8.837650E+00 -9.492158E+01 -5.176393E+00 -3.127475E-10 -5.883539E-10
        43  13 -2.832011E+05  3.897656E+00  2.810917E+02  1.291948E-08 -3.115574E-09  7.601270E-10
        43  14 -2.832031E+05 -7.851040E-02  8.073377E+01 -2.688701E-09 -1.512915E-09  5.628968E-10
        43  15 -2.832012E+05 -8.837650E+00 -9.492158E+01 -4.298871E-09 -1.360794E-09 -6.879610E-10
        43  16 -2.832011E+05  3.897656E+00  2.810917E+02  1.043479E+01 -3.723948E-10  6.475176E-10
        43  17 -2.832031E+05 -7.851029E-02  8.073377E+01  7.805573E+00  1.394665E-10  6.005106E-10
        43  18 -2.832012E+05 -8.837650E+00 -9.492158E+01  5.176393E+00 -4.337240E-10 -8.070870E-10
        43  19 -2.832011E+05  3.897687E+00  2.810919E+02 -1.043479E+01 -3.384414E+02  5.691298E-06
        43  20 -2.832031E+05 -7.848632E-02  8.073393E+01 -7.805573E+00 -2.986724E+02  3.756530E-06
        43  21 -2.832012E+05 -8.837632E+00 -9.492145E+01 -5.176393E+00 -2.589040E+02  2.158729E-06
        43  22 -2.832011E+05  3.897687E+00  2.810919E+02  1.295287E-08 -3.384414E+02  2.425305E-10
        43  23 -2.832031E+05 -7.848644E-02  8.073393E+01 -2.754945E-09 -2.986724E+02 -2.782126E-10
        43  24 -2.832012E+05 -8.837632E+00 -9.492145E+01  7.384302E-09 -2.589040E+02 -9.967387E-10
        43  25 -2.832011E+05  3.897687E+00  2.810919E+02  1.043479E+01 -3.384414E+02 -5.690777E-06
        43  26 -2.832031E+05 -7.848632E-02  8.073393E+01  7.805573E+00 -2.986724E+02 -3.757021E-06
        43  27 -2.832012E+05 -8.837632E+00 -9.492145E+01  5.176393E+00 -2.589040E+02 -2.160786E-06
        44   1 -2.832154E+05  5.701599E+00 -1.869780E+02 -2.291580E+01  2.840323E+02 -1.049011E-05
        44   2 -2.831855E+05  1.459762E+01 -4.229097E+02 -2.124044E+00  4.955291E+02 -1.697775E-06
        44   3 -2.832154E+05 -1.056764E+02 -8.288722E+02  1.866802E+01  7.070290E+02  2.126891E-05
        44   4 -2.832154E+05  5.701598E+00 -1.869780E+02  7.401645E-10  2.840323E+02 -1.387444E-09
        44   5 -2.831855E+05  1.459762E+01 -4.229097E+02 -1.388742E-09  4.955291E+02 -1.125511E-09
        44   6 -2.832154E+05 -1.056764E+02 -8.288722E+02  1.586621E-08  7.070290E+02  1.794180E-10
        44   7 -2.832154E+05  5.701599E+00 -1.869780E+02  2.291580E+01  2.840323E+02  1.048732E-05
        44   8 -2.831855E+05  1.459762E+01 -4.229097E+02  2.124044E+00  4.955291E+02  1.695479E-06
        44   9 -2.832154E+05 -1.056764E+02 -8.288722E+02 -1.866802E+01  7.070290E+02 -2.126861E-05
        44  10 -2.832154E+05  5.701577E+00 -1.869782E+02 -2.291580E+01 -1.207791E-09 -8.952824E-10
        44  11 -2.831855E+05  1.459755E+01 -4.229102E+02 -2.124044E+00  1.056667E-09 -5.317234E-10
        44  12 -2.832154E+05 -1.056765E+02 -8.288731E+02  1.866802E+01 -1.167323E-09 -4.667808E-10
        44  13 -2.832154E+05  5.701576E+00 -1.869782E+02 -9.909793E-09 -2.264434E-09 -8.451199E-10
        44  14 -2.831855E+05  1.459755E+01 -4.229102E+02  8.022891E-10 -6.919065E-10  1.951308E-12
        44  15 -2.832154E+05 -1.056765E+02 -8.288731E+02  2.012919E-08 -1.307693E-09 -2.628775E-11
        44  16 -2.832154E+05  5.701577E+00 -1.869782E+02  2.291580E+01  1.330434E-09 -8.033826E-10
        44  17 -2.831855E+05  1.459755E+01 -4.229102E+02  2.124044E+00 -4.270383E-10  5.513331E-10
        44  18 -2.832154E+05 -1.056765E+02 -8.288731E+02 -1.866802E+01 -3.042706E-09  3.946357E-10
        44  19 -2.832154E+05  5.701599E+00 -1.869780E+02 -2.291580E+01 -2.840323E+02  1.048828E-05
        44  20 -2.831855E+05  1.459762E+01 -4.229097E+02 -2.124044E+00 -4.955291E+02  1.696718E-06
        44  21 -2.832154E+05 -1.056764E+02 -8.288722E+02  1.866802E+01 -7.070290E+02 -2.126983E-05
        44  22 -2.832154E+05  5.701598E+00 -1.869780E+02  9.764879E-10 -2.840323E+02 -3.099756E-10
        44  23 -2.831855E+05  1.459762E+01 -4.229097E+02 -1.854424E-08 -4.955291E+02  1.126728E-09
        44  24 -2.832154E+05 -1.056764E+02 -8.288722E+02 -1.453059E-09 -7.070290E+02 -2.415502E-10
        44  25 -2.832154E+05  5.701599E+00 -1.869780E+02  2.291580E+01 -2.840323E+02 -1.048891E-05
        44  26 -2.831855E+05  1.459762E+01 -4.229097E+02  2.124044E+00 -4.955291E+02 -1.694493E-06
        44  27 -2.832154E+05 -1.056764E+02 -8.288722E+02 -1.866802E+01 -7.070290E+02  2.126936E-05
        45   1 -2.833081E+05  6.511292E+01 -1.081607E+03 -1.868236E+02  8.752081E+02 -2.634855E-04
        45   2 -2.830697E+05  1.420139E+02 -1.862278E+03  9.419717E+01  1.823943E+03  2.768630E-04
        45   3 -2.833084E+05 -1.195265E+03 -3.614368E+03  3.752180E+02  2.772677E+03  1.676477E-03
        45   4 -2.833081E+05  6.511285E+01 -1.081607E+03  1.645816E-08  8.752081E+02  6.451048E-10
        45   5 -2.830697E+05  1.420139E+02 -1.862278E+03 -1.829987E-09  1.823943E+03  2.527273E-10
        45   6 -2.833084E+05 -1.195265E+03 -3.614368E+03  7.610281E-09  2.772677E+03 -3.852543E-10
        45   7 -2.833081E+05  6.511292E+01 -1.081607E+03  1.868236E+02  8.752081E+02  2.634868E-04
        45   8 -2.830697E+05  1.420139E+02 -1.862278E+03 -9.419717E+01  1.823943E+03 -2.768626E-04
        45   9 -2.833084E+05 -1.195265E+03 -3.614368E+03 -3.752180E+02  2.772677E+03 -1.676477E-03
        45  10 -2.833081E+05  6.511271E+01 -1.081609E+03 -1.868236E+02 -1.145107E-09  2.471728E-10
        45  11 -2.830697E+05  1.420130E+02 -1.862285E+03  9.419717E+01  1.268439E-09  9.910512E-10
        45  12 -2.833084E+05 -1.195267E+03 -3.614383E+03  3.752180E+02 -4.414051E-10 -7.071259E-10
        45  13 -2.833081E+05  6.511265E+01 -1.081609E+03 -6.849794E-10 -2.149495E-09  1.226302E-10
        45  14 -2.830697E+05  1.420130E+02 -1.862285E+03 -1.853646E-09  1.029964E-09  4.797554E-10
        45  15 -2.833084E+05 -1.195267E+03 -3.614383E+03  1.959369E-08  3.815701E-09 -3.530477E-10
        45  16 -2.833081E+05  6.511271E+01 -1.081609E+03  1.868236E+02 -2.185525E-09  3.609210E-11
        45  17 -2.830697E+05  1.420130E+02 -1.862285E+03 -9.419717E+01  8.852601E-10 -6.552650E-11
        45  18 -2.833084E+05 -1.195267E+03 -3.614383E+03 -3.752180E+02 -5.755787E-10  4.658895E-12
        45  19 -2.833081E+05  6.511292E+01 -1.081607E+03 -1.868236E+02 -8.752081E+02  2.634860E-04
        45  20 -2.830697E+05  1.420139E+02 -1.862278E+03  9.419717E+01 -1.823943E+03 -2.768610E-04
        45  21 -2.833084E+05 -1.195265E+03 -3.614368E+03  3.752180E+02 -2.772677E+03 -1.676478E-03
        45  22 -2.833081E+05  6.511285E+01 -1.081607E+03  3.710491E-09 -8.752081E+02 -3.906720E-10
        45  23 -2.830697E+05  1.420139E+02 -1.862278E+03 -6.181823E-09 -1.823943E+03  7.202420E-10
        45  24 -2.833084E+05 -1.195265E+03 -3.614368E+03  1.596459E-08 -2.772677E+03 -3.213699E-10
        45  25 -2.833081E+05  6.511292E+01 -1.081607E+03  1.868236E+02 -8.752081E+02 -2.634868E-04
        45  26 -2.830697E+05  1.420139E+02 -1.862278E+03 -9.419717E+01 -1.823943E+03  2.768625E-04
        45  27 -2.833084E+05 -1.195265E+03 -3.614368E+03 -3.752180E+02 -2.772677E+03  1.676477E-03
        46   1 -2.841676E+05  7.128447E+02 -4.458642E+03 -1.867338E+03  3.449369E+03 -1.037954E-02
        46   2 -2.819959E+05  1.458089E+03 -7.249409E+03  1.433040E+03  7.345211E+03  1.696198E-02
        46   3 -2.841695E+05 -1.314645E+04 -1.641481E+04  4.733357E+03  1.124100E+04  8.574105E-02
        46   4 -2.841676E+05  7.128382E+02 -4.458643E+03  1.670586E-08  3.449369E+03 -6.251641E-11
        46   5 -2.819959E+05  1.458085E+03 -7.249410E+03  4.042767E-09  7.345211E+03  8.972888E-10
        46   6 -2.841695E+05 -1.314649E+04 -1.641482E+04  1.076502E-08  1.124100E+04  3.996912E-10
        46   7 -2.841676E+05  7.128447E+02 -4.458642E+03  1.867338E+03  3.449369E+03  1.037954E-02
        46   8 -2.819959E+05  1.458089E+03 -7.249409E+03 -1.433040E+03  7.345211E+03 -1.696198E-02
        46   9 -2.841695E+05 -1.314645E+04 -1.641481E+04 -4.733357E+03  1.124100E+04 -8.574105E-02
        46  10 -2.841676E+05  7.128415E+02 -4.458665E+03 -1.867338E+03 -8.326995E-10 -8.864790E-10
        46  11 -2.819959E+05  1.458074E+03 -7.249511E+03  1.433040E+03 -4.301479E-10  7.133814E-10
        46  12 -2.841696E+05 -1.314649E+04 -1.641505E+04  4.733357E+03  1.536990E-09  4.334100E-10
        46  13 -2.841676E+05  7.128350E+02 -4.458666E+03  6.076121E-09  2.114155E-10 -3.323585E-10
        46  14 -2.819959E+05  1.458070E+03 -7.249511E+03  1.484077E-08  1.078598E-26  5.760835E-10
        46  15 -2.841697E+05 -1.314653E+04 -1.641505E+04 -9.778133E-09  7.026770E-10  2.998262E-10
        46  16 -2.841676E+05  7.128415E+02 -4.458665E+03  1.867338E+03  1.441854E-09  2.226753E-10
        46  17 -2.819959E+05  1.458074E+03 -7.249511E+03 -1.433040E+03 -1.916627E-09  4.484966E-10
        46  18 -2.841696E+05 -1.314649E+04 -1.641505E+04 -4.733357E+03 -9.834077E-10  1.602980E-10
        46  19 -2.841676E+05  7.128447E+02 -4.458642E+03 -1.867338E+03 -3.449369E+03  1.037953E-02
        46  20 -2.819959E+05  1.458089E+03 -7.249409E+03  1.433040E+03 -7.345211E+03 -1.696198E-02
        46  21 -2.841695E+05 -1.314645E+04 -1.641481E+04  4.733357E+03 -1.124100E+04 -8.574105E-02
        46  22 -2.841676E+05  7.128382E+02 -4.458643E+03  2.129008E-08 -3.449369E+03 -5.967472E-10
        46  23 -2.819959E+05  1.458085E+03 -7.249410E+03  8.408280E-09 -7.345211E+03  2.657683E-10
        46  24 -2.841695E+05 -1.314649E+04 -1.641482E+04  1.194941E-08 -1.124100E+04  2.080762E-10
        46  25 -2.841676E+05  7.128447E+02 -4.458642E+03  1.867338E+03 -3.449369E+03 -1.037954E-02
        46  26 -2.819959E+05  1.458089E+03 -7.249409E+03 -1.433040E+03 -7.345211E+03  1.696198E-02
        46  27 -2.841695E+05 -1.314645E+04 -1.641481E+04 -4.733357E+03 -1.124100E+04  8.574105E-02
        47   1  1.276624E+05 -3.617850E+05  1.185738E+05 -3.411191E+04  6.665731E+03 -1.201150E+04
        47   2  1.372600E+05 -4.405966E+05  1.125017E+05 -1.565653E+04  1.966892E+04 -1.285686E+04
        47   3  1.155227E+05 -5.269377E+05  9.918855E+04 -4.848646E+04  1.733292E+04 -1.370606E+04
        47   4 -2.838344E+04 -9.876090E+05 -3.539243E+04 -4.422970E+04  6.668404E+03 -2.439309E+04
        47   5  3.089389E+03 -9.830208E+05 -1.552757E+04 -1.858129E+04  1.967148E+04 -1.604529E+04
        47   6  1.615204E+03 -9.875736E+05 -9.300326E+03 -4.422164E+04  1.732941E+04 -7.701181E+03
        47   7 -1.844579E+05 -1.613076E+06 -1.893869E+05 -5.433725E+04  6.671481E+03 -3.676221E+04
        47   8 -1.311023E+05 -1.525174E+06 -1.435771E+05 -2.150344E+04  1.967408E+04 -1.923095E+04
        47   9 -1.123074E+05 -1.448014E+06 -1.178037E+05 -3.995997E+04  1.732599E+04 -1.700731E+03
        47  10  1.276623E+05 -3.617852E+05  1.185735E+05 -3.411185E+04 -4.717771E-10  3.549459E-10
        47  11  1.372595E+05 -4.405969E+05  1.125006E+05 -1.565633E+04 -8.795349E-10  5.315072E-10
        47  12  1.155223E+05 -5.269380E+05  9.918764E+04 -4.848627E+04 -2.889869E-10  1.699199E-10
        47  13 -2.838365E+04 -9.876096E+05 -3.539364E+04 -4.422957E+04 -9.807613E-10  1.385162E-10
        47  14  3.088904E+03 -9.830212E+05 -1.552878E+04 -1.858103E+04 -2.566981E-09 -1.694377E-11
        47  15  1.614866E+03 -9.875738E+05 -9.301002E+03 -4.422153E+04 -1.288048E-09  3.734620E-10
        47  16 -1.844584E+05 -1.613077E+06 -1.893896E+05 -5.433705E+04  2.435310E-11 -3.702273E-10
        47  17 -1.311028E+05 -1.525175E+06 -1.435785E+05 -2.150313E+04 -1.774569E-09 -8.578309E-10
        47  18 -1.123077E+05 -1.448014E+06 -1.178043E+05 -3.995994E+04 -1.313768E-09 -1.084479E-10
        47  19  1.276624E+05 -3.617850E+05  1.185738E+05 -3.411191E+04 -6.665731E+03  1.201150E+04
        47  20  1.372600E+05 -4.405966E+05  1.125017E+05 -1.565653E+04 -1.966892E+04  1.285686E+04
        47  21  1.155227E+05 -5.269377E+05  9.918855E+04 -4.848646E+04 -1.733292E+04  1.370606E+04
        47  22 -2.838344E+04 -9.876090E+05 -3.539243E+04 -4.422970E+04 -6.668404E+03  2.439309E+04
        47  23  3.089389E+03 -9.830208E+05 -1.552757E+04 -1.858129E+04 -1.967148E+04  1.604529E+04
        47  24  1.615204E+03 -9.875736E+05 -9.300326E+03 -4.422164E+04 -1.732941E+04  7.701181E+03
        47  25 -1.844579E+05 -1.613076E+06 -1.893869E+05 -5.433725E+04 -6.671481E+03  3.676221E+04
        47  26 -1.311023E+05 -1.525174E+06 -1.435771E+05 -2.150344E+04 -1.967408E+04  1.923095E+04
        47  27 -1.123074E+05 -1.448014E+06 -1.178037E+05 -3.995997E+04 -1.732599E+04  1.700731E+03
        48   1  8.823608E+04 -6.187239E+05  7.931674E+04 -4.399164E+04  1.312853E+04 -7.697434E+03
        48   2  7.032703E+04 -7.020613E+05  6.349896E+04 -1.818633E+04  1.042611E+04 -6.489698E+03
        48   3  5.006992E+04 -7.861913E+05  4.629525E+04 -4.494228E+04  6.935826E+03 -5.284574E+03
        48   4 -2.567241E+03 -9.857210E+05 -7.387219E+03 -4.450946E+04  1.312790E+04 -6.311672E+03
        48   5  2.727836E+02 -9.852734E+05 -3.299496E+03 -1.822659E+04  1.042465E+04 -4.632650E+03
        48   6  6.825425E+02 -9.857075E+05 -9.258197E+02 -4.450652E+04  6.933357E+03 -2.956080E+03
        48   7 -9.338022E+04 -1.352594E+06 -9.410050E+04 -4.502695E+04  1.312727E+04 -4.926725E+03
        48   8 -6.978720E+04 -1.268412E+06 -7.010348E+04 -1.826680E+04  1.042320E+04 -2.776445E+03
        48   9 -4.870769E+04 -1.185187E+06 -4.814963E+04 -4.407089E+04  6.930891E+03 -6.283297E+02
        48  10  8.823588E+04 -6.187240E+05  7.931631E+04 -4.399156E+04 -7.411975E-10  1.570319E-09
        48  11  7.032690E+04 -7.020614E+05  6.349867E+04 -1.818628E+04 -3.600595E-09 -2.913866E-09
        48  12  5.006986E+04 -7.861913E+05  4.629511E+04 -4.494225E+04  1.938386E-10 -6.455415E-09
        48  13 -2.567436E+03 -9.857211E+05 -7.387618E+03 -4.450940E+04 -2.193903E-09  8.555815E-10
        48  14  2.726612E+02 -9.852735E+05 -3.299741E+03 -1.822655E+04  1.308298E-09 -1.104166E-11
        48  15  6.824886E+02 -9.857075E+05 -9.259264E+02 -4.450650E+04 -1.453997E-09  5.255917E-10
        48  16 -9.338042E+04 -1.352594E+06 -9.410087E+04 -4.502690E+04  1.416128E-09 -1.454620E-09
        48  17 -6.978732E+04 -1.268412E+06 -7.010370E+04 -1.826678E+04  1.227884E-09  2.163641E-09
        48  18 -4.870775E+04 -1.185187E+06 -4.814972E+04 -4.407089E+04  1.172439E-09  6.455884E-09
        48  19  8.823608E+04 -6.187239E+05  7.931674E+04 -4.399164E+04 -1.312853E+04  7.697434E+03
        48  20  7.032703E+04 -7.020613E+05  6.349896E+04 -1.818633E+04 -1.042611E+04  6.489698E+03
        48  21  5.006992E+04 -7.861913E+05  4.629525E+04 -4.494228E+04 -6.935826E+03  5.284574E+03
        48  22 -2.567241E+03 -9.857210E+05 -7.387219E+03 -4.450946E+04 -1.312790E+04  6.311672E+03
        48  23  2.727836E+02 -9.852734E+05 -3.299496E+03 -1.822659E+04 -1.042465E+04  4.632650E+03
        48  24  6.825425E+02 -9.857075E+05 -9.258197E+02 -4.450652E+04 -6.933357E+03  2.956080E+03
        48  25 -9.338022E+04 -1.352594E+06 -9.410050E+04 -4.502695E+04 -1.312727E+04  4.926725E+03
        48  26 -6.978720E+04 -1.268412E+06 -7.010348E+04 -1.826680E+04 -1.042320E+04  2.776445E+03
        48  27 -4.870769E+04 -1.185187E+06 -4.814963E+04 -4.407089E+04 -6.930891E+03  6.283297E+02
        49   1  2.554612E+04 -8.801876E+05  2.455192E+04 -4.530902E+04  4.299024E+03 -5.682125E+03
        49   2  4.700594E+03 -9.649688E+05  6.836050E+03 -1.764778E+04  8.289954E+02 -5.264695E+03
        49   3 -1.085663E+04 -1.048619E+06 -9.862009E+03 -4.280070E+04 -1.684892E+02 -4.844802E+03
        49   4 -4.003344E+02 -9.851980E+05 -5.156803E+01 -4.456535E+04  4.295771E+03 -2.861553E+03
        49   5 -4.686644E+02 -9.858862E+05  1.922738E+03 -1.815521E+04  8.274515E+02 -3.926201E+03
        49   6  5.009040E+03 -9.851940E+05  5.945089E+03 -4.455915E+04 -1.683040E+02 -4.988307E+03
        49   7 -2.634757E+04 -1.090198E+06 -2.465578E+04 -4.382181E+04  4.292524E+03 -4.145641E+01
        49   8 -5.637952E+03 -1.006803E+06 -2.990597E+03 -1.866263E+04  8.259054E+02 -2.587752E+03
        49   9  2.087441E+04 -9.217652E+05  2.175189E+04 -4.631779E+04 -1.681180E+02 -5.131826E+03
        49  10  2.554609E+04 -8.801876E+05  2.455183E+04 -4.530900E+04 -3.386975E-10  4.174224E-09
        49  11  4.700586E+03 -9.649688E+05  6.835996E+03 -1.764777E+04  1.163286E-10  3.429119E-09
        49  12 -1.085663E+04 -1.048619E+06 -9.862053E+03 -4.280070E+04 -7.748160E-10  3.724500E-10
        49  13 -4.003564E+02 -9.851980E+05 -5.161810E+01 -4.456534E+04 -1.425271E-09  1.112559E-09
        49  14 -4.686693E+02 -9.858862E+05  1.922708E+03 -1.815521E+04 -2.130533E-09 -5.161141E-11
        49  15  5.009033E+03 -9.851940E+05  5.945042E+03 -4.455915E+04  5.693466E-10  6.593622E-10
        49  16 -2.634759E+04 -1.090198E+06 -2.465582E+04 -4.382181E+04 -2.224352E-09 -4.251541E-09
        49  17 -5.637955E+03 -1.006803E+06 -2.990611E+03 -1.866263E+04 -1.678267E-09 -4.433281E-09
        49  18  2.087441E+04 -9.217652E+05  2.175184E+04 -4.631779E+04 -1.649301E-10 -2.387728E-10
        49  19  2.554612E+04 -8.801876E+05  2.455192E+04 -4.530902E+04 -4.299024E+03  5.682125E+03
        49  20  4.700594E+03 -9.649688E+05  6.836050E+03 -1.764778E+04 -8.289954E+02  5.264695E+03
        49  21 -1.085663E+04 -1.048619E+06 -9.862009E+03 -4.280070E+04  1.684892E+02  4.844802E+03
        49  22 -4.003344E+02 -9.851980E+05 -5.156803E+01 -4.456535E+04 -4.295771E+03  2.861553E+03
        49  23 -4.686644E+02 -9.858862E+05  1.922738E+03 -1.815521E+04 -8.274515E+02  3.926201E+03
        49  24  5.009040E+03 -9.851940E+05  5.945089E+03 -4.455915E+04  1.683040E+02  4.988307E+03
        49  25 -2.634757E+04 -1.090198E+06 -2.465578E+04 -4.382181E+04 -4.292524E+03  4.145641E+01
        49  26 -5.637952E+03 -1.006803E+06 -2.990597E+03 -1.866263E+04 -8.259054E+02  2.587752E+03
        49  27  2.087441E+04 -9.217652E+05  2.175189E+04 -4.631779E+04  1.681180E+02  5.131826E+03
        50   1 -8.523824E+05 -1.585344E+05 -3.711591E+04 -3.174041E+05 -9.091649E+03 -2.164097E+03
        50   2 -8.405641E+05 -1.397563E+05 -2.618659E+04 -3.109629E+05 -5.981560E+03  1.384155E+03
        50   3 -8.261728E+05 -1.372961E+05 -2.078470E+04 -3.097695E+05 -1.905402E+03  2.356145E+03
        50   4 -7.568121E+05 -1.198758E+05 -1.068509E+04 -2.886906E+05 -7.197641E+03 -1.453960E+03
        50   5 -7.576834E+05 -1.078988E+05 -4.493573E+03 -2.875512E+05 -5.532778E+03  1.552364E+03
        50   6 -7.556946E+05 -1.119524E+05 -2.682864E+03 -2.916599E+05 -2.901987E+03  1.982549E+03
        50   7 -6.612340E+05 -8.121672E+04  1.574462E+04 -2.599732E+05 -5.303330E+03 -7.436892E+02
        50   8 -6.747963E+05 -7.604082E+04  1.719880E+04 -2.641368E+05 -5.083931E+03  1.720600E+03
        50   9 -6.852113E+05 -8.660842E+04  1.541866E+04 -2.735485E+05 -3.898700E+03  1.608910E+03
        50  10 -8.523825E+05 -1.585345E+05 -3.711607E+04 -3.174042E+05  8.274669E-10 -1.582002E-10
        50  11 -8.405641E+05 -1.397563E+05 -2.618666E+04 -3.109629E+05 -2.586308E-10 -3.382252E-10
        50  12 -8.261728E+05 -1.372961E+05 -2.078472E+04 -3.097695E+05  5.558587E-10 -5.295410E-11
        50  13 -7.568122E+05 -1.198759E+05 -1.068520E+04 -2.886906E+05  5.382379E-11 -1.284595E-10
        50  14 -7.576834E+05 -1.078988E+05 -4.493635E+03 -2.875512E+05  1.108334E-09 -5.702671E-10
        50  15 -7.556946E+05 -1.119524E+05 -2.682887E+03 -2.916599E+05  4.829813E-10 -5.162531E-10
        50  16 -6.612340E+05 -8.121673E+04  1.574457E+04 -2.599732E+05  7.669948E-10 -1.226823E-10
        50  17 -6.747963E+05 -7.604083E+04  1.719875E+04 -2.641367E+05 -2.433388E-09 -1.541644E-10
        50  18 -6.852113E+05 -8.660842E+04  1.541863E+04 -2.735485E+05 -2.379780E-10 -8.554849E-10
        50  19 -8.523824E+05 -1.585344E+05 -3.711591E+04 -3.174041E+05  9.091649E+03  2.164097E+03
        50  20 -8.405641E+05 -1.397563E+05 -2.618659E+04 -3.109629E+05  5.981560E+03 -1.384155E+03
        50  21 -8.261728E+05 -1.372961E+05 -2.078470E+04 -3.097695E+05  1.905402E+03 -2.356145E+03
        50  22 -7.568121E+05 -1.198758E+05 -1.068509E+04 -2.886906E+05  7.197641E+03  1.453960E+03
        50  23 -7.576834E+05 -1.078988E+05 -4.493573E+03 -2.875512E+05  5.532778E+03 -1.552364E+03
        50  24 -7.556946E+05 -1.119524E+05 -2.682864E+03 -2.916599E+05  2.901987E+03 -1.982549E+03
        50  25 -6.612340E+05 -8.121672E+04  1.574462E+04 -2.599732E+05  5.303330E+03  7.436892E+02
        50  26 -6.747963E+05 -7.604082E+04  1.719880E+04 -2.641368E+05  5.083931E+03 -1.720600E+03
        50  27 -6.852113E+05 -8.660842E+04  1.541866E+04 -2.735485E+05  3.898700E+03 -1.608910E+03
        51   1 -8.080677E+05 -1.330453E+05 -1.595171E+04 -3.057019E+05 -2.033143E+03  1.471883E+03
        51   2 -7.972861E+05 -1.233944E+05 -1.116582E+04 -2.980692E+05 -1.206597E+03  1.233784E+03
        51   3 -7.801088E+05 -1.215048E+05 -7.114404E+03 -2.980427E+05 -3.157685E+02  8.240467E+02
        51   4 -7.553165E+05 -1.130396E+05 -2.173063E+03 -2.910858E+05 -2.254670E+03  1.388833E+03
        51   5 -7.584696E+05 -1.087859E+05 -1.064348E+03 -2.874260E+05 -1.524387E+03  1.114666E+03
        51   6 -7.552082E+05 -1.122742E+05 -6.137088E+02 -2.913723E+05 -7.298443E+02  6.688622E+02
        51   7 -7.025625E+05 -9.303359E+04  1.160538E+04 -2.764685E+05 -2.476218E+03  1.305775E+03
        51   8 -7.196519E+05 -9.417732E+04  9.036942E+03 -2.767823E+05 -1.842197E+03  9.955408E+02
        51   9 -7.303073E+05 -1.030437E+05  5.886848E+03 -2.847018E+05 -1.143933E+03  5.136731E+02
        51  10 -8.080677E+05 -1.330453E+05 -1.595173E+04 -3.057019E+05  8.860830E-10 -2.136684E-10
        51  11 -7.972861E+05 -1.233944E+05 -1.116583E+04 -2.980692E+05  3.131894E-09  1.353816E-11
        51  12 -7.801088E+05 -1.215048E+05 -7.114405E+03 -2.980427E+05  7.861009E-10 -6.558155E-10
        51  13 -7.553165E+05 -1.130396E+05 -2.173076E+03 -2.910858E+05 -9.938919E-10 -1.199345E-10
        51  14 -7.584696E+05 -1.087859E+05 -1.064354E+03 -2.874260E+05  1.163232E-09  3.855017E-10
        51  15 -7.552082E+05 -1.122742E+05 -6.137107E+02 -2.913723E+05 -2.474942E-10 -9.187849E-10
        51  16 -7.025625E+05 -9.303360E+04  1.160537E+04 -2.764685E+05  8.874300E-12 -3.251050E-10
        51  17 -7.196519E+05 -9.417732E+04  9.036934E+03 -2.767823E+05 -1.637593E-09  6.931553E-10
        51  18 -7.303073E+05 -1.030437E+05  5.886845E+03 -2.847018E+05  2.434935E-09 -1.324568E-09
        51  19 -8.080677E+05 -1.330453E+05 -1.595171E+04 -3.057019E+05  2.033143E+03 -1.471883E+03
        51  20 -7.972861E+05 -1.233944E+05 -1.116582E+04 -2.980692E+05  1.206597E+03 -1.233784E+03
        51  21 -7.801088E+05 -1.215048E+05 -7.114404E+03 -2.980427E+05  3.157685E+02 -8.240467E+02
        51  22 -7.553165E+05 -1.130396E+05 -2.173063E+03 -2.910858E+05  2.254670E+03 -1.388833E+03
        51  23 -7.584696E+05 -1.087859E+05 -1.064348E+03 -2.874260E+05  1.524387E+03 -1.114666E+03
        51  24 -7.552082E+05 -1.122742E+05 -6.137088E+02 -2.913723E+05  7.298443E+02 -6.688622E+02
        51  25 -7.025625E+05 -9.303359E+04  1.160538E+04 -2.764685E+05  2.476218E+03 -1.305775E+03
        51  26 -7.196519E+05 -9.417732E+04  9.036942E+03 -2.767823E+05  1.842197E+03 -9.955408E+02
        51  27 -7.303073E+05 -1.030437E+05  5.886848E+03 -2.847018E+05  1.143933E+03 -5.136731E+02
        52   1 -7.630344E+05 -1.153384E+05 -2.483014E+03 -2.934848E+05 -1.246896E+02  4.280957E+02
        52   2 -7.523418E+05 -1.065441E+05  1.344085E+03 -2.857191E+05  2.626604E+02 -1.710860E+02
        52   3 -7.348472E+05 -1.046961E+05  5.040365E+03 -2.857951E+05  6.538648E+02 -7.804739E+02
        52   4 -7.551617E+05 -1.123799E+05 -4.818062E+02 -2.913188E+05 -4.881113E+02  2.918997E+02
        52   5 -7.585579E+05 -1.088715E+05 -2.713093E+02 -2.874112E+05 -1.064965E+02 -3.094381E+02
        52   6 -7.551514E+05 -1.123085E+05 -1.871060E+02 -2.913454E+05  2.789684E+02 -9.209823E+02
        52   7 -7.472888E+05 -1.094213E+05  1.519421E+03 -2.891527E+05 -8.515420E+02  1.557004E+02
        52   8 -7.647741E+05 -1.111990E+05 -1.886722E+03 -2.891033E+05 -4.756528E+02 -4.477899E+02
        52   9 -7.754554E+05 -1.199209E+05 -5.414652E+03 -2.968957E+05 -9.591742E+01 -1.061487E+03
        52  10 -7.630344E+05 -1.153384E+05 -2.483015E+03 -2.934848E+05 -1.818251E-09 -8.243618E-10
        52  11 -7.523418E+05 -1.065441E+05  1.344085E+03 -2.857191E+05  1.625757E-09  7.491225E-10
        52  12 -7.348472E+05 -1.046961E+05  5.040363E+03 -2.857951E+05  4.224828E-09  8.118145E-11
        52  13 -7.551617E+05 -1.123799E+05 -4.818069E+02 -2.913188E+05 -9.096120E-10 -4.063650E-10
        52  14 -7.585579E+05 -1.088715E+05 -2.713095E+02 -2.874112E+05  2.333923E-09  9.586449E-10
        52  15 -7.551514E+05 -1.123085E+05 -1.871077E+02 -2.913454E+05 -9.676539E-10 -1.061217E-09
        52  16 -7.472888E+05 -1.094213E+05  1.519419E+03 -2.891527E+05  3.067729E-09  3.317994E-10
        52  17 -7.647741E+05 -1.111990E+05 -1.886723E+03 -2.891033E+05  2.666226E-09  1.557637E-09
        52  18 -7.754554E+05 -1.199209E+05 -5.414655E+03 -2.968957E+05 -2.235466E-09 -1.956875E-09
        52  19 -7.630344E+05 -1.153384E+05 -2.483014E+03 -2.934848E+05  1.246896E+02 -4.280957E+02
        52  20 -7.523418E+05 -1.065441E+05  1.344085E+03 -2.857191E+05 -2.626604E+02  1.710860E+02
        52  21 -7.348472E+05 -1.046961E+05  5.040365E+03 -2.857951E+05 -6.538648E+02  7.804739E+02
        52  22 -7.551617E+05 -1.123799E+05 -4.818062E+02 -2.913188E+05  4.881113E+02 -2.918997E+02
        52  23 -7.585579E+05 -1.088715E+05 -2.713093E+02 -2.874112E+05  1.064965E+02  3.094381E+02
        52  24 -7.551514E+05 -1.123085E+05 -1.871060E+02 -2.913454E+05 -2.789684E+02  9.209823E+02
        52  25 -7.472888E+05 -1.094213E+05  1.519421E+03 -2.891527E+05  8.515420E+02 -1.557004E+02
        52  26 -7.647741E+05 -1.111990E+05 -1.886722E+03 -2.891033E+05  4.756528E+02  4.477899E+02
        52  27 -7.754554E+05 -1.199209E+05 -5.414652E+03 -2.968957E+05  9.591742E+01  1.061487E+03
        53   1 -7.179759E+05 -9.836527E+04  9.545682E+03 -2.811995E+05  8.248014E+02 -1.158163E+03
        53   2 -7.073636E+05 -8.970649E+04  1.312669E+04 -2.734693E+05  1.160898E+03 -1.785247E+03
        53   3 -6.899546E+05 -8.787822E+04  1.663763E+04 -2.735492E+05  1.496291E+03 -2.410256E+03
        53   4 -7.551568E+05 -1.123075E+05 -1.714161E+02 -2.913294E+05  4.536431E+02 -1.297278E+03
        53   5 -7.585550E+05 -1.088926E+05 -1.796741E+02 -2.874243E+05  7.908848E+02 -1.923952E+03
        53   6 -7.551571E+05 -1.123084E+05 -2.588893E+02 -2.913292E+05  1.127423E+03 -2.548552E+03
        53   7 -7.923359E+05 -1.262494E+05 -9.888502E+03 -3.014587E+05  8.251386E+01 -1.436382E+03
        53   8 -8.097438E+05 -1.280785E+05 -1.348621E+04 -3.013782E+05  4.209067E+02 -2.062643E+03
        53   9 -8.203559E+05 -1.367384E+05 -1.715585E+04 -3.091075E+05  7.585954E+02 -2.686834E+03
        53  10 -7.179759E+05 -9.836528E+04  9.545679E+03 -2.811995E+05 -9.319834E-10 -1.043312E-09
        53  11 -7.073636E+05 -8.970649E+04  1.312669E+04 -2.734693E+05  2.680416E-09  2.490776E-09
        53  12 -6.899546E+05 -8.787822E+04  1.663761E+04 -2.735492E+05  3.609522E-09  6.903256E-10
        53  13 -7.551568E+05 -1.123075E+05 -1.714197E+02 -2.913294E+05  1.244319E-09 -5.862331E-10
        53  14 -7.585550E+05 -1.088926E+05 -1.796822E+02 -2.874243E+05 -9.316227E-10  1.993440E-09
        53  15 -7.551571E+05 -1.123084E+05 -2.589039E+02 -2.913291E+05  8.036174E-10 -5.838152E-11
        53  16 -7.923359E+05 -1.262494E+05 -9.888506E+03 -3.014586E+05  5.879182E-10 -4.936557E-10
        53  17 -8.097438E+05 -1.280785E+05 -1.348622E+04 -3.013782E+05  3.039487E-10  2.193035E-09
        53  18 -8.203559E+05 -1.367384E+05 -1.715587E+04 -3.091075E+05 -3.569405E-09 -4.424660E-10
        53  19 -7.179759E+05 -9.836527E+04  9.545682E+03 -2.811995E+05 -8.248014E+02  1.158163E+03
        53  20 -7.073636E+05 -8.970649E+04  1.312669E+04 -2.734693E+05 -1.160898E+03  1.785247E+03
        53  21 -6.899546E+05 -8.787822E+04  1.663763E+04 -2.735492E+05 -1.496291E+03  2.410256E+03
        53  22 -7.551568E+05 -1.123075E+05 -1.714161E+02 -2.913294E+05 -4.536431E+02  1.297278E+03
        53  23 -7.585550E+05 -1.088926E+05 -1.796741E+02 -2.874243E+05 -7.908848E+02  1.923952E+03
        53  24 -7.551571E+05 -1.123084E+05 -2.588893E+02 -2.913292E+05 -1.127423E+03  2.548552E+03
        53  25 -7.923359E+05 -1.262494E+05 -9.888502E+03 -3.014587E+05 -8.251386E+01  1.436382E+03
        53  26 -8.097438E+05 -1.280785E+05 -1.348621E+04 -3.013782E+05 -4.209067E+02  2.062643E+03
        53  27 -8.203559E+05 -1.367384E+05 -1.715585E+04 -3.091075E+05 -7.585954E+02  2.686834E+03
        54   1 -6.732858E+05 -8.157990E+04  2.101436E+04 -2.689913E+05  1.686563E+03 -2.774614E+03
        54   2 -6.628411E+05 -7.305457E+04  2.430786E+04 -2.613737E+05  2.207894E+03 -3.322106E+03
        54   3 -6.457560E+05 -7.131764E+04  2.737403E+04 -2.614245E+05  2.726761E+03 -3.862641E+03
        54   4 -7.551896E+05 -1.122769E+05 -3.259766E+02 -2.913064E+05  1.319001E+03 -2.912443E+03
        54   5 -7.585145E+05 -1.089161E+05 -5.610069E+02 -2.874596E+05  1.844178E+03 -3.458531E+03
        54   6 -7.551999E+05 -1.123445E+05 -1.026396E+03 -2.912814E+05  2.366883E+03 -3.997666E+03
        54   7 -8.370868E+05 -1.429736E+05 -2.166688E+04 -3.136188E+05  9.514914E+02 -3.050251E+03
        54   8 -8.541789E+05 -1.447770E+05 -2.543059E+04 -3.135419E+05  1.480523E+03 -3.594934E+03
        54   9 -8.646318E+05 -1.533704E+05 -2.942772E+04 -3.211336E+05  2.007076E+03 -4.132663E+03
        54  10 -6.732858E+05 -8.157991E+04  2.101434E+04 -2.689913E+05 -2.133625E-09 -1.768675E-09
        54  11 -6.628411E+05 -7.305459E+04  2.430783E+04 -2.613737E+05  4.329209E-10  3.236599E-10
        54  12 -6.457560E+05 -7.131766E+04  2.737398E+04 -2.614245E+05 -3.187613E-10  9.026843E-10
        54  13 -7.551896E+05 -1.122769E+05 -3.259958E+02 -2.913064E+05 -6.878474E-10 -1.090617E-09
        54  14 -7.585145E+05 -1.089161E+05 -5.610358E+02 -2.874596E+05  8.836615E-10 -2.330078E-11
        54  15 -7.551999E+05 -1.123445E+05 -1.026436E+03 -2.912814E+05  1.137652E-10  1.078655E-09
        54  16 -8.370868E+05 -1.429736E+05 -2.166690E+04 -3.136188E+05  9.598295E-11 -5.194791E-10
        54  17 -8.541789E+05 -1.447770E+05 -2.543062E+04 -3.135419E+05  2.513876E-09  9.660738E-11
        54  18 -8.646318E+05 -1.533704E+05 -2.942776E+04 -3.211335E+05  1.876849E-09  1.027294E-09
        54  19 -6.732858E+05 -8.157990E+04  2.101436E+04 -2.689913E+05 -1.686563E+03  2.774614E+03
        54  20 -6.628411E+05 -7.305457E+04  2.430786E+04 -2.613737E+05 -2.207894E+03  3.322106E+03
        54  21 -6.457560E+05 -7.131764E+04  2.737403E+04 -2.614245E+05 -2.726761E+03  3.862641E+03
        54  22 -7.551896E+05 -1.122769E+05 -3.259766E+02 -2.913064E+05 -1.319001E+03  2.912443E+03
        54  23 -7.585145E+05 -1.089161E+05 -5.610069E+02 -2.874596E+05 -1.844178E+03  3.458531E+03
        54  24 -7.551999E+05 -1.123445E+05 -1.026396E+03 -2.912814E+05 -2.366883E+03  3.997666E+03
        54  25 -8.370868E+05 -1.429736E+05 -2.166688E+04 -3.136188E+05 -9.514914E+02  3.050251E+03
        54  26 -8.541789E+05 -1.447770E+05 -2.543059E+04 -3.135419E+05 -1.480523E+03  3.594934E+03
        54  27 -8.646318E+05 -1.533704E+05 -2.942772E+04 -3.211336E+05 -2.007076E+03  4.132663E+03
        55   1 -6.294238E+05 -6.513039E+04  3.140189E+04 -2.570862E+05  3.068124E+03 -4.164571E+03
        55   2 -6.191989E+05 -5.665960E+04  3.377336E+04 -2.495242E+05  4.505961E+03 -4.348171E+03
        55   3 -6.029159E+05 -5.559339E+04  3.501943E+04 -2.492493E+05  5.931472E+03 -4.498216E+03
        55   4 -7.552935E+05 -1.122165E+05 -1.347487E+03 -2.912968E+05  2.702876E+03 -4.301641E+03
        55   5 -7.583719E+05 -1.088714E+05 -2.410266E+03 -2.875186E+05  4.159244E+03 -4.478348E+03
        55   6 -7.553963E+05 -1.129349E+05 -4.613382E+03 -2.910279E+05  5.603254E+03 -4.621506E+03
        55   7 -8.811482E+05 -1.593019E+05 -3.409831E+04 -3.255012E+05  2.337709E+03 -4.438682E+03
        55   8 -8.975263E+05 -1.610821E+05 -3.859558E+04 -3.255054E+05  3.812611E+03 -4.608493E+03
        55   9 -9.078541E+05 -1.702750E+05 -4.424815E+04 -3.327973E+05  5.275125E+03 -4.744763E+03
        55  10 -6.294238E+05 -6.513041E+04  3.140184E+04 -2.570862E+05  2.285883E-09  1.128789E-09
        55  11 -6.191989E+05 -5.665963E+04  3.377328E+04 -2.495242E+05  3.429744E-10  9.316023E-10
        55  12 -6.029160E+05 -5.559342E+04  3.501933E+04 -2.492493E+05  3.516618E-10  3.576321E-11
        55  13 -7.552935E+05 -1.122166E+05 -1.347536E+03 -2.912967E+05  1.763872E-09  8.892402E-10
        55  14 -7.583719E+05 -1.088714E+05 -2.410336E+03 -2.875186E+05 -2.045937E-09  7.049592E-10
        55  15 -7.553963E+05 -1.129350E+05 -4.613481E+03 -2.910279E+05  5.461852E-10  4.132758E-10
        55  16 -8.811482E+05 -1.593019E+05 -3.409836E+04 -3.255012E+05  4.117039E-10  7.058484E-10
        55  17 -8.975263E+05 -1.610821E+05 -3.859565E+04 -3.255054E+05  4.825256E-10  8.666841E-11
        55  18 -9.078541E+05 -1.702751E+05 -4.424824E+04 -3.327973E+05 -1.651237E-09  7.348836E-10
        55  19 -6.294238E+05 -6.513039E+04  3.140189E+04 -2.570862E+05 -3.068124E+03  4.164571E+03
        55  20 -6.191989E+05 -5.665960E+04  3.377336E+04 -2.495242E+05 -4.505961E+03  4.348171E+03
        55  21 -6.029159E+05 -5.559339E+04  3.501943E+04 -2.492493E+05 -5.931472E+03  4.498216E+03
        55  22 -7.552935E+05 -1.122165E+05 -1.347487E+03 -2.912968E+05 -2.702876E+03  4.301641E+03
        55  23 -7.583719E+05 -1.088714E+05 -2.410266E+03 -2.875186E+05 -4.159244E+03  4.478348E+03
        55  24 -7.553963E+05 -1.129349E+05 -4.613382E+03 -2.910279E+05 -5.603254E+03  4.621506E+03
        55  25 -8.811482E+05 -1.593019E+05 -3.409831E+04 -3.255012E+05 -2.337709E+03  4.438682E+03
        55  26 -8.975263E+05 -1.610821E+05 -3.859558E+04 -3.255054E+05 -3.812611E+03  4.608493E+03
        55  27 -9.078541E+05 -1.702750E+05 -4.424815E+04 -3.327973E+05 -5.275125E+03  4.744763E+03
        56   1 -5.866604E+05 -4.951662E+04  3.786431E+04 -2.465135E+05  7.049605E+03 -4.550703E+03
        56   2 -5.766403E+05 -3.956728E+04  3.666935E+04 -2.376652E+05  1.245760E+04 -3.190611E+03
        56   3 -5.643593E+05 -4.490126E+04  2.916902E+04 -2.338151E+05  1.771674E+04 -1.433219E+03
        56   4 -7.558562E+05 -1.118992E+05 -5.956626E+03 -2.915692E+05  6.607769E+03 -4.716667E+03
        56   5 -7.574992E+05 -1.080113E+05 -1.046311E+04 -2.876533E+05  1.223718E+04 -3.273547E+03
        56   6 -7.569267E+05 -1.194523E+05 -2.145199E+04 -2.887354E+05  1.771764E+04 -1.433139E+03
        56   7 -9.250236E+05 -1.742800E+05 -4.977980E+04 -3.366138E+05  6.166067E+03 -4.882583E+03
        56   8 -9.383264E+05 -1.764531E+05 -5.759833E+04 -3.376282E+05  1.201684E+04 -3.356456E+03
        56   9 -9.494587E+05 -1.940007E+05 -7.207634E+04 -3.436402E+05  1.771853E+04 -1.433060E+03
        56  10 -5.866605E+05 -4.951665E+04  3.786418E+04 -2.465135E+05  1.215347E-09 -2.713022E-10
        56  11 -5.766404E+05 -3.956733E+04  3.666904E+04 -2.376652E+05 -2.596391E-09 -1.210220E-09
        56  12 -5.643596E+05 -4.490134E+04  2.916843E+04 -2.338151E+05 -2.966938E-09 -4.305531E-10
        56  13 -7.558562E+05 -1.118992E+05 -5.956750E+03 -2.915692E+05 -9.265508E-10 -4.250426E-10
        56  14 -7.574994E+05 -1.080113E+05 -1.046341E+04 -2.876533E+05 -7.240445E-10 -1.197667E-09
        56  15 -7.569270E+05 -1.194524E+05 -2.145258E+04 -2.887353E+05 -3.364616E-09 -4.021601E-10
        56  16 -9.250237E+05 -1.742801E+05 -4.977992E+04 -3.366138E+05 -3.422791E-09 -1.604808E-10
        56  17 -9.383265E+05 -1.764531E+05 -5.759862E+04 -3.376281E+05 -4.138278E-10 -1.128531E-09
        56  18 -9.494590E+05 -1.940008E+05 -7.207694E+04 -3.436402E+05  3.034201E-10  3.746888E-10
        56  19 -5.866604E+05 -4.951662E+04  3.786431E+04 -2.465135E+05 -7.049605E+03  4.550703E+03
        56  20 -5.766403E+05 -3.956728E+04  3.666935E+04 -2.376652E+05 -1.245760E+04  3.190611E+03
        56  21 -5.643593E+05 -4.490126E+04  2.916902E+04 -2.338151E+05 -1.771674E+04  1.433219E+03
        56  22 -7.558562E+05 -1.118992E+05 -5.956626E+03 -2.915692E+05 -6.607769E+03  4.716667E+03
        56  23 -7.574992E+05 -1.080113E+05 -1.046311E+04 -2.876533E+05 -1.223718E+04  3.273547E+03
        56  24 -7.569267E+05 -1.194523E+05 -2.145199E+04 -2.887354E+05 -1.771764E+04  1.433139E+03
        56  25 -9.250236E+05 -1.742800E+05 -4.977980E+04 -3.366138E+05 -6.166067E+03  4.882583E+03
        56  26 -9.383264E+05 -1.764531E+05 -5.759833E+04 -3.376282E+05 -1.201684E+04  3.356456E+03
        56  27 -9.494587E+05 -1.940007E+05 -7.207634E+04 -3.436402E+05 -1.771853E+04  1.433060E+03
        57   1 -5.433308E+05 -3.809535E+04  2.782845E+04 -2.463009E+05  2.359297E+04 -5.320890E+02
        57   2 -5.342287E+05 -1.016278E+04  1.315878E+04 -2.215891E+05  4.456163E+04  7.120645E+03
        57   3 -5.564894E+05 -7.980905E+04 -4.220456E+04 -1.796918E+05  6.331769E+04  2.066102E+04
        57   4 -7.604445E+05 -1.089389E+05 -2.650447E+04 -2.946782E+05  2.182477E+04 -1.196101E+03
        57   5 -7.499756E+05 -9.894667E+04 -4.440891E+04 -2.885701E+05  4.609023E+04  7.694180E+03
        57   6 -7.715366E+05 -1.872083E+05 -1.056325E+05 -2.652732E+05  6.814252E+04  2.247148E+04
        57   7 -9.775125E+05 -1.797821E+05 -8.084096E+04 -3.430414E+05  2.005724E+04 -1.859934E+03
        57   8 -9.656767E+05 -1.877248E+05 -1.019806E+05 -3.555290E+05  4.761824E+04  8.267446E+03
        57   9 -9.865365E+05 -2.945930E+05 -1.690647E+05 -3.508241E+05  7.296550E+04  2.428073E+04
        57  10 -5.433314E+05 -3.809550E+04  2.782740E+04 -2.463009E+05  2.261283E-10  5.678966E-10
        57  11 -5.342308E+05 -1.016337E+04  1.315495E+04 -2.215894E+05  6.987392E-10  2.064205E-10
        57  12 -5.564938E+05 -7.981059E+04 -4.221290E+04 -1.796929E+05  1.103576E-09  3.316082E-10
        57  13 -7.604451E+05 -1.089390E+05 -2.650537E+04 -2.946781E+05  1.375730E-09 -1.245872E-10
        57  14 -7.499779E+05 -9.894730E+04 -4.441302E+04 -2.885704E+05  4.953249E-09  8.868576E-10
        57  15 -7.715418E+05 -1.872100E+05 -1.056422E+05 -2.652745E+05 -1.571410E-10  1.718605E-10
        57  16 -9.775129E+05 -1.797822E+05 -8.084173E+04 -3.430413E+05  1.329243E-09  1.207464E-09
        57  17 -9.656792E+05 -1.877255E+05 -1.019850E+05 -3.555293E+05  9.540595E-10  1.834469E-09
        57  18 -9.865424E+05 -2.945950E+05 -1.690758E+05 -3.508255E+05  1.064684E-09  9.124129E-10
        57  19 -5.433308E+05 -3.809535E+04  2.782845E+04 -2.463009E+05 -2.359297E+04  5.320890E+02
        57  20 -5.342287E+05 -1.016278E+04  1.315878E+04 -2.215891E+05 -4.456163E+04 -7.120645E+03
        57  21 -5.564894E+05 -7.980905E+04 -4.220456E+04 -1.796918E+05 -6.331769E+04 -2.066102E+04
        57  22 -7.604445E+05 -1.089389E+05 -2.650447E+04 -2.946782E+05 -2.182477E+04  1.196101E+03
        57  23 -7.499756E+05 -9.894667E+04 -4.440891E+04 -2.885701E+05 -4.609023E+04 -7.694180E+03
        57  24 -7.715366E+05 -1.872083E+05 -1.056325E+05 -2.652732E+05 -6.814252E+04 -2.247148E+04
        57  25 -9.775125E+05 -1.797821E+05 -8.084096E+04 -3.430414E+05 -2.005724E+04  1.859934E+03
        57  26 -9.656767E+05 -1.877248E+05 -1.019806E+05 -3.555290E+05 -4.761824E+04 -8.267446E+03
        57  27 -9.865365E+05 -2.945930E+05 -1.690647E+05 -3.508241E+05 -7.296550E+04 -2.428073E+04
        58   1  7.095494E+03  3.492325E+04  4.360799E+04  1.257787E+04  2.986676E+04  6.050868E-01
        58   2  1.324461E+03 -3.872398E+03  1.926174E+04  3.808096E+03  1.951555E+04  1.197053E-01
        58   3  7.095175E+03 -1.893653E+03  1.184869E+04 -4.961716E+03  9.164157E+03 -7.323943E-02
        58   4  7.095324E+03  3.492295E+04  4.360795E+04  1.696287E-08  2.986676E+04  3.071791E-10
        58   5  1.324445E+03 -3.872425E+03  1.926174E+04  9.015988E-10  1.951555E+04  8.242933E-10
        58   6  7.095149E+03 -1.893699E+03  1.184868E+04  1.149566E-08  9.164157E+03 -1.857806E-10
        58   7  7.095494E+03  3.492325E+04  4.360799E+04 -1.257787E+04  2.986676E+04 -6.050868E-01
        58   8  1.324461E+03 -3.872398E+03  1.926174E+04 -3.808096E+03  1.951555E+04 -1.197053E-01
        58   9  7.095175E+03 -1.893653E+03  1.184869E+04  4.961716E+03  9.164157E+03  7.323943E-02
        58  10  7.094536E+03  3.492301E+04  4.360632E+04  1.257787E+04 -7.588604E-10  1.666317E-10
        58  11  1.324052E+03 -3.872500E+03  1.926103E+04  3.808096E+03 -7.432993E-10  2.431312E-10
        58  12  7.095085E+03 -1.893676E+03  1.184853E+04 -4.961716E+03  6.292520E-10 -4.184549E-10
        58  13  7.094366E+03  3.492271E+04  4.360628E+04 -2.387964E-09  1.082677E-09  1.329429E-10
        58  14  1.324036E+03 -3.872528E+03  1.926102E+04 -5.570447E-09 -1.616123E-09  2.673220E-10
        58  15  7.095059E+03 -1.893722E+03  1.184852E+04 -9.829985E-09  2.594426E-10 -9.375097E-11
        58  16  7.094536E+03  3.492301E+04  4.360632E+04 -1.257787E+04  7.616995E-10  9.563585E-11
        58  17  1.324052E+03 -3.872500E+03  1.926103E+04 -3.808096E+03  1.548408E-09  2.849343E-10
        58  18  7.095085E+03 -1.893676E+03  1.184853E+04  4.961716E+03 -1.574312E-09  2.425805E-10
        58  19  7.095494E+03  3.492325E+04  4.360799E+04  1.257787E+04 -2.986676E+04 -6.050868E-01
        58  20  1.324461E+03 -3.872398E+03  1.926174E+04  3.808096E+03 -1.951555E+04 -1.197053E-01
        58  21  7.095175E+03 -1.893653E+03  1.184869E+04 -4.961716E+03 -9.164157E+03  7.323943E-02
        58  22  7.095324E+03  3.492295E+04  4.360795E+04  1.703333E-08 -2.986676E+04 -3.676700E-11
        58  23  1.324445E+03 -3.872425E+03  1.926174E+04 -3.427033E-09 -1.951555E+04 -2.819230E-10
        58  24  7.095149E+03 -1.893699E+03  1.184868E+04  2.767361E-09 -9.164157E+03 -2.380691E-13
        58  25  7.095494E+03  3.492325E+04  4.360799E+04 -1.257787E+04 -2.986676E+04  6.050868E-01
        58  26  1.324461E+03 -3.872398E+03  1.926174E+04 -3.808096E+03 -1.951555E+04  1.197053E-01
        58  27  7.095175E+03 -1.893653E+03  1.184869E+04  4.961716E+03 -9.164157E+03 -7.323943E-02
        59   1  4.812045E+03  3.174832E+03  9.606623E+03  9.969966E+02  7.365188E+03  1.182768E-02
        59   2  4.178165E+03 -3.771821E+02  4.955018E+03  2.504701E+02  4.840774E+03  1.952960E-03
        59   3  4.812034E+03 -1.730369E+02  2.885982E+03 -4.960570E+02  2.316365E+03 -1.850806E-03
        59   4  4.812044E+03  3.174830E+03  9.606623E+03  2.975913E-08  7.365188E+03  3.918572E-10
        59   5  4.178165E+03 -3.771822E+02  4.955018E+03 -8.313963E-09  4.840774E+03  1.543403E-09
        59   6  4.812034E+03 -1.730374E+02  2.885982E+03 -3.577357E-09  2.316365E+03 -1.784716E-09
        59   7  4.812045E+03  3.174832E+03  9.606623E+03 -9.969966E+02  7.365188E+03 -1.182768E-02
        59   8  4.178165E+03 -3.771821E+02  4.955018E+03 -2.504701E+02  4.840774E+03 -1.952957E-03
        59   9  4.812034E+03 -1.730369E+02  2.885982E+03  4.960570E+02  2.316365E+03  1.850802E-03
        59  10  4.811987E+03  3.174817E+03  9.606521E+03  9.969966E+02  5.771453E-10 -3.406293E-10
        59  11  4.178140E+03 -3.771884E+02  4.954974E+03  2.504701E+02 -6.271696E-10  2.408204E-10
        59  12  4.812029E+03 -1.730383E+02  2.885972E+03 -4.960570E+02  2.521782E-10 -5.413078E-10
        59  13  4.811986E+03  3.174816E+03  9.606521E+03  8.297490E-09  1.078162E-09  4.053464E-12
        59  14  4.178140E+03 -3.771885E+02  4.954974E+03  2.427813E-09  5.407847E-10  2.764669E-10
        59  15  4.812028E+03 -1.730388E+02  2.885972E+03 -1.098071E-08 -2.422804E-09 -6.084974E-10
        59  16  4.811987E+03  3.174817E+03  9.606521E+03 -9.969966E+02  4.984590E-10  3.496891E-10
        59  17  4.178140E+03 -3.771884E+02  4.954974E+03 -2.504701E+02 -1.525286E-09  3.175286E-10
        59  18  4.812029E+03 -1.730383E+02  2.885972E+03  4.960570E+02 -5.217178E-10 -6.751444E-10
        59  19  4.812045E+03  3.174832E+03  9.606623E+03  9.969966E+02 -7.365188E+03 -1.182768E-02
        59  20  4.178165E+03 -3.771821E+02  4.955018E+03  2.504701E+02 -4.840774E+03 -1.952959E-03
        59  21  4.812034E+03 -1.730369E+02  2.885982E+03 -4.960570E+02 -2.316365E+03  1.850804E-03
        59  22  4.812044E+03  3.174830E+03  9.606623E+03  2.560684E-08 -7.365188E+03 -3.837636E-10
        59  23  4.178165E+03 -3.771822E+02  4.955018E+03  8.861548E-09 -4.840774E+03 -9.889519E-10
        59  24  4.812034E+03 -1.730374E+02  2.885982E+03  7.732417E-09 -2.316365E+03  5.675100E-10
        59  25  4.812045E+03  3.174832E+03  9.606623E+03 -9.969966E+02 -7.365188E+03  1.182768E-02
        59  26  4.178165E+03 -3.771821E+02  4.955018E+03 -2.504701E+02 -4.840774E+03  1.952957E-03
        59  27  4.812034E+03 -1.730369E+02  2.885982E+03  4.960570E+02 -2.316365E+03 -1.850803E-03
        60   1  4.566044E+03  2.806616E+02  2.218284E+03  4.992932E+01  1.866850E+03  1.501346E-04
        60   2  4.485646E+03 -3.896971E+01  1.151414E+03 -4.839479E+00  1.291135E+03 -1.006377E-05
        60   3  4.566045E+03 -1.524079E+01  5.451883E+02 -5.960750E+01  7.154294E+02 -6.868869E-05
        60   4  4.566044E+03  2.806616E+02  2.218284E+03  4.117679E-09  1.866850E+03 -2.166579E-09
        60   5  4.485646E+03 -3.896971E+01  1.151414E+03  8.780045E-09  1.291135E+03  5.877342E-10
        60   6  4.566045E+03 -1.524080E+01  5.451883E+02  1.640406E-08  7.154294E+02  4.344991E-11
        60   7  4.566044E+03  2.806616E+02  2.218284E+03 -4.992932E+01  1.866850E+03 -1.501389E-04
        60   8  4.485646E+03 -3.896971E+01  1.151414E+03  4.839479E+00  1.291135E+03  1.006496E-05
        60   9  4.566045E+03 -1.524079E+01  5.451883E+02  5.960750E+01  7.154294E+02  6.868879E-05
        60  10  4.566040E+03  2.806606E+02  2.218277E+03  4.992932E+01 -1.350801E-09 -6.150271E-10
        60  11  4.485644E+03 -3.897016E+01  1.151411E+03 -4.839479E+00 -7.571787E-10  3.863546E-10
        60  12  4.566044E+03 -1.524093E+01  5.451873E+02 -5.960750E+01 -2.931999E-10  7.579777E-10
        60  13  4.566040E+03  2.806606E+02  2.218277E+03 -1.298718E-08 -1.540720E-12 -6.375509E-10
        60  14  4.485644E+03 -3.897016E+01  1.151411E+03 -4.109921E-09  1.314671E-13  2.394660E-10
        60  15  4.566044E+03 -1.524094E+01  5.451873E+02 -6.175805E-10  2.689492E-09  9.984540E-11
        60  16  4.566040E+03  2.806606E+02  2.218277E+03 -4.992932E+01 -1.344086E-09 -6.601365E-10
        60  17  4.485644E+03 -3.897016E+01  1.151411E+03  4.839479E+00 -5.941486E-10  9.257534E-11
        60  18  4.566044E+03 -1.524093E+01  5.451873E+02  5.960750E+01  5.623217E-10 -5.582778E-10
        60  19  4.566044E+03  2.806616E+02  2.218284E+03  4.992932E+01 -1.866850E+03 -1.501358E-04
        60  20  4.485646E+03 -3.896971E+01  1.151414E+03 -4.839479E+00 -1.291135E+03  1.006456E-05
        60  21  4.566045E+03 -1.524079E+01  5.451883E+02 -5.960750E+01 -7.154294E+02  6.869023E-05
        60  22  4.566044E+03  2.806616E+02  2.218284E+03  4.371174E-09 -1.866850E+03  8.915343E-10
        60  23  4.485646E+03 -3.896971E+01  1.151414E+03 -6.230134E-09 -1.291135E+03 -1.088128E-10
        60  24  4.566045E+03 -1.524080E+01  5.451883E+02  7.669687E-09 -7.154294E+02  1.561101E-10
        60  25  4.566044E+03  2.806616E+02  2.218284E+03 -4.992932E+01 -1.866850E+03  1.501376E-04
        60  26  4.485646E+03 -3.896971E+01  1.151414E+03  4.839479E+00 -1.291135E+03 -1.006480E-05
        60  27  4.566045E+03 -1.524079E+01  5.451883E+02  5.960750E+01 -7.154294E+02 -6.868990E-05
        61   1  4.529765E+03  2.332825E+01  3.159852E+02 -1.200787E+01  6.384839E+02 -1.234891E-05
        61   2  4.530996E+03 -8.600408E-01 -1.035282E+02 -1.772642E+01  6.892711E+02 -1.967992E-05
        61   3  4.529766E+03 -8.449062E+00 -5.519527E+02 -2.344507E+01  7.400590E+02 -2.794698E-05
        61   4  4.529765E+03  2.332824E+01  3.159852E+02  2.154399E-08  6.384839E+02 -7.063111E-11
        61   5  4.530996E+03 -8.600414E-01 -1.035282E+02  9.778735E-09  6.892711E+02  9.162916E-10
        61   6  4.529766E+03 -8.449063E+00 -5.519527E+02  2.321357E-09  7.400590E+02 -1.094161E-10
        61   7  4.529765E+03  2.332825E+01  3.159852E+02  1.200787E+01  6.384839E+02  1.234875E-05
        61   8  4.530996E+03 -8.600408E-01 -1.035282E+02  1.772642E+01  6.892711E+02  1.968174E-05
        61   9  4.529766E+03 -8.449062E+00 -5.519527E+02  2.344507E+01  7.400590E+02  2.794677E-05
        61  10  4.529765E+03  2.332814E+01  3.159845E+02 -1.200787E+01  1.984930E-10  4.045951E-10
        61  11  4.530996E+03 -8.601684E-01 -1.035291E+02 -1.772642E+01  9.577144E-10 -2.230823E-10
        61  12  4.529766E+03 -8.449209E+00 -5.519537E+02 -2.344507E+01  1.381820E-09  4.536516E-12
        61  13  4.529765E+03  2.332814E+01  3.159845E+02  6.519443E-09  2.154051E-09  7.272819E-11
        61  14  4.530996E+03 -8.601690E-01 -1.035291E+02 -1.393840E-08  3.768462E-09  2.341297E-10
        61  15  4.529766E+03 -8.449210E+00 -5.519537E+02 -6.394940E-09 -1.327055E-10 -4.435140E-10
        61  16  4.529765E+03  2.332814E+01  3.159845E+02  1.200787E+01 -7.358136E-10 -2.591940E-10
        61  17  4.530996E+03 -8.601684E-01 -1.035291E+02  1.772642E+01  3.868934E-10  6.914148E-10
        61  18  4.529766E+03 -8.449209E+00 -5.519537E+02  2.344507E+01  2.329983E-10 -8.915916E-10
        61  19  4.529765E+03  2.332825E+01  3.159852E+02 -1.200787E+01 -6.384839E+02  1.234971E-05
        61  20  4.530996E+03 -8.600408E-01 -1.035282E+02 -1.772642E+01 -6.892711E+02  1.967948E-05
        61  21  4.529766E+03 -8.449062E+00 -5.519527E+02 -2.344507E+01 -7.400590E+02  2.794698E-05
        61  22  4.529765E+03  2.332824E+01  3.159852E+02  2.165024E-08 -6.384839E+02  2.161287E-10
        61  23  4.530996E+03 -8.600414E-01 -1.035282E+02 -1.180805E-08 -6.892711E+02 -4.478774E-10
        61  24  4.529766E+03 -8.449063E+00 -5.519527E+02 -2.725860E-09 -7.400590E+02 -7.778217E-10
        61  25  4.529765E+03  2.332825E+01  3.159852E+02  1.200787E+01 -6.384839E+02 -1.234929E-05
        61  26  4.530996E+03 -8.600408E-01 -1.035282E+02  1.772642E+01 -6.892711E+02 -1.968038E-05
        61  27  4.529766E+03 -8.449062E+00 -5.519527E+02  2.344507E+01 -7.400590E+02 -2.794854E-05
        62   1  4.498268E+03  8.518734E+00 -8.270940E+02 -4.211659E+01  8.646913E+02 -5.865895E-05
        62   2  4.570373E+03  2.536764E+01 -1.597307E+03 -3.611947E+01  1.656939E+03 -9.639810E-05
        62   3  4.498273E+03 -1.219797E+02 -2.924350E+03 -3.012235E+01  2.449185E+03 -1.188315E-04
        62   4  4.498268E+03  8.518731E+00 -8.270940E+02  1.463901E-08  8.646913E+02 -3.735050E-10
        62   5  4.570373E+03  2.536764E+01 -1.597307E+03 -1.431966E-08  1.656939E+03  4.923576E-10
        62   6  4.498273E+03 -1.219797E+02 -2.924350E+03  1.083976E-08  2.449185E+03  4.900967E-10
        62   7  4.498268E+03  8.518734E+00 -8.270940E+02  4.211659E+01  8.646913E+02  5.865821E-05
        62   8  4.570373E+03  2.536764E+01 -1.597307E+03  3.611947E+01  1.656939E+03  9.639906E-05
        62   9  4.498273E+03 -1.219797E+02 -2.924350E+03  3.012235E+01  2.449185E+03  1.188324E-04
        62  10  4.498267E+03  8.518533E+00 -8.270954E+02 -4.211659E+01 -1.813466E-09  2.588418E-10
        62  11  4.570370E+03  2.536691E+01 -1.597312E+03 -3.611947E+01  2.303878E-10  8.926507E-11
        62  12  4.498267E+03 -1.219813E+02 -2.924361E+03 -3.012235E+01  2.506473E-10 -4.944818E-10
        62  13  4.498267E+03  8.518530E+00 -8.270954E+02  1.044575E-08  2.157744E-09 -3.835233E-10
        62  14  4.570370E+03  2.536690E+01 -1.597312E+03 -1.389706E-09  3.234192E-09  2.768381E-10
        62  15  4.498267E+03 -1.219813E+02 -2.924361E+03  7.237362E-09 -4.030716E-10 -2.487350E-10
        62  16  4.498267E+03  8.518533E+00 -8.270954E+02  4.211659E+01  7.365183E-10 -1.026568E-09
        62  17  4.570370E+03  2.536691E+01 -1.597312E+03  3.611947E+01 -1.037138E-09  4.642598E-10
        62  18  4.498267E+03 -1.219813E+02 -2.924361E+03  3.012235E+01 -7.222364E-10 -4.265546E-12
        62  19  4.498268E+03  8.518734E+00 -8.270940E+02 -4.211659E+01 -8.646913E+02  5.865945E-05
        62  20  4.570373E+03  2.536764E+01 -1.597307E+03 -3.611947E+01 -1.656939E+03  9.639830E-05
        62  21  4.498273E+03 -1.219797E+02 -2.924350E+03 -3.012235E+01 -2.449185E+03  1.188305E-04
        62  22  4.498268E+03  8.518731E+00 -8.270940E+02  1.917609E-08 -8.646913E+02 -3.933304E-10
        62  23  4.570373E+03  2.536764E+01 -1.597307E+03 -5.691496E-09 -1.656939E+03  6.114795E-11
        62  24  4.498273E+03 -1.219797E+02 -2.924350E+03  8.750565E-09 -2.449185E+03 -9.938067E-10
        62  25  4.498268E+03  8.518734E+00 -8.270940E+02  4.211659E+01 -8.646913E+02 -5.866028E-05
        62  26  4.570373E+03  2.536764E+01 -1.597307E+03  3.611947E+01 -1.656939E+03 -9.639816E-05
        62  27  4.498273E+03 -1.219797E+02 -2.924350E+03  3.012235E+01 -2.449185E+03 -1.188325E-04
        63   1  4.331285E+03  8.343122E+01 -3.850632E+03 -2.937762E+02  3.057221E+03 -1.446657E-03
        63   2  4.779135E+03  2.123673E+02 -6.690370E+03 -9.892548E+00  6.399377E+03 -1.019692E-04
        63   3  4.331338E+03 -1.500620E+03 -1.216640E+04  2.739877E+02  9.741468E+03  4.299097E-03
        63   4  4.331285E+03  8.343106E+01 -3.850632E+03  2.265661E-08  3.057221E+03  2.762012E-11
        63   5  4.779135E+03  2.123673E+02 -6.690370E+03  4.837711E-09  6.399377E+03 -2.785453E-11
        63   6  4.331337E+03 -1.500620E+03 -1.216640E+04  6.135236E-09  9.741468E+03  1.348773E-09
        63   7  4.331285E+03  8.343122E+01 -3.850632E+03  2.937762E+02  3.057221E+03  1.446657E-03
        63   8  4.779135E+03  2.123673E+02 -6.690370E+03  9.892548E+00  6.399377E+03  1.019691E-04
        63   9  4.331338E+03 -1.500620E+03 -1.216640E+04 -2.739877E+02  9.741468E+03 -4.299094E-03
        63  10  4.331275E+03  8.342871E+01 -3.850649E+03 -2.937762E+02  7.681154E-10 -6.645120E-10
        63  11  4.779091E+03  2.123563E+02 -6.690447E+03 -9.892548E+00  1.022752E-09 -2.474628E-10
        63  12  4.331236E+03 -1.500646E+03 -1.216658E+04  2.739877E+02  5.504870E-10  4.343122E-10
        63  13  4.331275E+03  8.342855E+01 -3.850649E+03  1.165560E-09 -1.078287E-09 -4.721410E-10
        63  14  4.779091E+03  2.123563E+02 -6.690447E+03  1.134940E-08  1.075827E-09  6.318139E-11
        63  15  4.331236E+03 -1.500646E+03 -1.216658E+04 -1.185308E-08 -5.395807E-10  6.143542E-10
        63  16  4.331275E+03  8.342871E+01 -3.850649E+03  2.937762E+02  3.078911E-10 -2.743982E-10
        63  17  4.779091E+03  2.123563E+02 -6.690447E+03  9.892548E+00 -7.597016E-10  3.758955E-10
        63  18  4.331236E+03 -1.500646E+03 -1.216658E+04 -2.739877E+02  5.995367E-11  7.932605E-10
        63  19  4.331285E+03  8.343122E+01 -3.850632E+03 -2.937762E+02 -3.057221E+03  1.446655E-03
        63  20  4.779135E+03  2.123673E+02 -6.690370E+03 -9.892548E+00 -6.399377E+03  1.019689E-04
        63  21  4.331338E+03 -1.500620E+03 -1.216640E+04  2.739877E+02 -9.741468E+03 -4.299096E-03
        63  22  4.331285E+03  8.343106E+01 -3.850632E+03  2.706137E-08 -3.057221E+03 -9.716133E-10
        63  23  4.779135E+03  2.123673E+02 -6.690370E+03  4.937177E-09 -6.399377E+03  1.575790E-10
        63  24  4.331337E+03 -1.500620E+03 -1.216640E+04 -3.724784E-09 -9.741468E+03 -9.253554E-11
        63  25  4.331285E+03  8.343122E+01 -3.850632E+03  2.937762E+02 -3.057221E+03 -1.446657E-03
        63  26  4.779135E+03  2.123673E+02 -6.690370E+03  9.892548E+00 -6.399377E+03 -1.019686E-04
        63  27  4.331338E+03 -1.500620E+03 -1.216640E+04 -2.739877E+02 -9.741468E+03  4.299096E-03
        64   1  3.022232E+03  9.268071E+02 -1.566156E+04 -2.645822E+03  1.219371E+04 -5.196598E-02
        64   2  6.415881E+03  2.017727E+03 -2.662281E+04  1.343506E+03  2.575594E+04  5.573614E-02
        64   3  3.022953E+03 -1.697604E+04 -5.143358E+04  5.332911E+03  3.931819E+04  3.377371E-01
        64   4  3.022225E+03  9.267940E+02 -1.566156E+04  1.507474E-08  1.219371E+04  7.081135E-10
        64   5  6.415879E+03  2.017724E+03 -2.662281E+04  8.016996E-09  2.575594E+04 -1.198682E-09
        64   6  3.022922E+03 -1.697609E+04 -5.143359E+04  3.542314E-08  3.931819E+04  8.065819E-10
        64   7  3.022232E+03  9.268071E+02 -1.566156E+04  2.645822E+03  1.219371E+04  5.196598E-02
        64   8  6.415881E+03  2.017727E+03 -2.662281E+04 -1.343506E+03  2.575594E+04 -5.573614E-02
        64   9  3.022953E+03 -1.697604E+04 -5.143358E+04 -5.332911E+03  3.931819E+04 -3.377371E-01
        64  10  3.022073E+03  9.267672E+02 -1.566184E+04 -2.645822E+03  4.470329E-10  7.992480E-11
        64  11  6.415169E+03  2.017549E+03 -2.662406E+04  1.343506E+03 -2.211053E-10 -8.464164E-10
        64  12  3.021293E+03 -1.697646E+04 -5.143649E+04  5.332911E+03 -1.154468E-09 -5.554238E-11
        64  13  3.022065E+03  9.267540E+02 -1.566184E+04  1.061228E-08  1.078013E-09  2.239380E-10
        64  14  6.415167E+03  2.017546E+03 -2.662406E+04  5.855396E-09 -2.153906E-09 -6.512666E-10
        64  15  3.021262E+03 -1.697651E+04 -5.143649E+04  1.940758E-08 -6.668311E-10  6.787928E-11
        64  16  3.022073E+03  9.267672E+02 -1.566184E+04  2.645822E+03 -1.513006E-09  3.566245E-10
        64  17  6.415169E+03  2.017549E+03 -2.662406E+04 -1.343506E+03 -2.191797E-09 -4.783256E-10
        64  18  3.021293E+03 -1.697646E+04 -5.143649E+04 -5.332911E+03 -2.465445E-10  1.805126E-10
        64  19  3.022232E+03  9.268071E+02 -1.566156E+04 -2.645822E+03 -1.219371E+04  5.196598E-02
        64  20  6.415881E+03  2.017727E+03 -2.662281E+04  1.343506E+03 -2.575594E+04 -5.573614E-02
        64  21  3.022953E+03 -1.697604E+04 -5.143358E+04  5.332911E+03 -3.931819E+04 -3.377371E-01
        64  22  3.022225E+03  9.267940E+02 -1.566156E+04  1.045865E-08 -1.219371E+04 -2.604191E-10
        64  23  6.415879E+03  2.017724E+03 -2.662281E+04  1.231065E-08 -2.575594E+04 -1.088372E-10
        64  24  3.022922E+03 -1.697609E+04 -5.143359E+04  3.085592E-08 -3.931819E+04 -6.659005E-10
        64  25  3.022232E+03  9.268071E+02 -1.566156E+04  2.645822E+03 -1.219371E+04 -5.196598E-02
        64  26  6.415881E+03  2.017727E+03 -2.662281E+04 -1.343506E+03 -2.575594E+04  5.573614E-02
        64  27  3.022953E+03 -1.697604E+04 -5.143358E+04 -5.332911E+03 -3.931819E+04  3.377371E-01
        65   1 -9.180818E+03  1.012792E+04 -6.339815E+04 -2.652843E+04  4.894580E+04 -2.091494E+00
        65   2  2.167685E+04  2.070686E+04 -1.029854E+05  2.036496E+04  1.043092E+05  3.421482E+00
        65   3 -9.168872E+03 -1.867193E+05 -2.331064E+05  6.725578E+04  1.596734E+05  1.729741E+01
        65   4 -9.181574E+03  1.012659E+04 -6.339834E+04  2.311538E-08  4.894580E+04  1.286192E-09
        65   5  2.167641E+04  2.070608E+04 -1.029855E+05  7.550928E-09  1.043092E+05 -4.108157E-10
        65   6 -9.173730E+03 -1.867278E+05 -2.331076E+05  1.837236E-08  1.596734E+05 -1.356462E-09
        65   7 -9.180818E+03  1.012792E+04 -6.339815E+04  2.652843E+04  4.894580E+04  2.091494E+00
        65   8  2.167685E+04  2.070686E+04 -1.029854E+05 -2.036496E+04  1.043092E+05 -3.421482E+00
        65   9 -9.168872E+03 -1.867193E+05 -2.331064E+05 -6.725578E+04  1.596734E+05 -1.729741E+01
        65  10 -9.183391E+03  1.012727E+04 -6.340266E+04 -2.652843E+04  9.085447E-10  2.437646E-10
        65  11  2.166517E+04  2.070394E+04 -1.030058E+05  2.036496E+04  3.823040E-10 -2.681669E-10
        65  12 -9.196255E+03 -1.867261E+05 -2.331543E+05  6.725578E+04  2.824759E-10 -1.012918E-10
        65  13 -9.184147E+03  1.012595E+04 -6.340285E+04  1.013117E-08 -2.178328E-09  3.801919E-10
        65  14  2.166472E+04  2.070316E+04 -1.030059E+05  5.377346E-09  5.839819E-10 -3.963180E-11
        65  15 -9.201113E+03 -1.867346E+05 -2.331555E+05  1.677202E-08  5.166389E-12 -7.980220E-11
        65  16 -9.183391E+03  1.012727E+04 -6.340266E+04  2.652843E+04 -3.716080E-10  5.195475E-10
        65  17  2.166517E+04  2.070394E+04 -1.030058E+05 -2.036496E+04  9.744186E-10  1.215464E-10
        65  18 -9.196255E+03 -1.867261E+05 -2.331543E+05 -6.725578E+04 -2.345948E-10 -8.208569E-12
        65  19 -9.180818E+03  1.012792E+04 -6.339815E+04 -2.652843E+04 -4.894580E+04  2.091494E+00
        65  20  2.167685E+04  2.070686E+04 -1.029854E+05  2.036496E+04 -1.043092E+05 -3.421482E+00
        65  21 -9.168872E+03 -1.867193E+05 -2.331064E+05  6.725578E+04 -1.596734E+05 -1.729741E+01
        65  22 -9.181574E+03  1.012659E+04 -6.339834E+04  2.299867E-08 -4.894580E+04 -5.313341E-10
        65  23  2.167641E+04  2.070608E+04 -1.029855E+05 -1.106192E-09 -1.043092E+05  3.289883E-10
        65  24 -9.173730E+03 -1.867278E+05 -2.331076E+05  1.140605E-08 -1.596734E+05  7.578740E-10
        65  25 -9.180818E+03  1.012792E+04 -6.339815E+04  2.652843E+04 -4.894580E+04 -2.091494E+00
        65  26  2.167685E+04  2.070686E+04 -1.029854E+05 -2.036496E+04 -1.043092E+05  3.421482E+00
        65  27 -9.168872E+03 -1.867193E+05 -2.331064E+05 -6.725578E+04 -1.596734E+05  1.729741E+01
        66   1  9.740978E+04  1.719532E+05  9.434038E+04 -2.285768E+04  4.519036E+03  1.784183E+03
        66   2  9.271228E+04  1.254117E+05  8.430297E+04 -1.006833E+04  1.348408E+04 -2.446978E+03
        66   3  8.096686E+04  7.775287E+04  7.527787E+04 -2.646556E+04  1.227839E+04 -6.679415E+03
        66   4 -7.162851E+03 -2.477418E+05 -8.820508E+03 -2.536059E+04  4.520096E+03 -6.644410E+03
        66   5  7.467825E+02 -2.466475E+05 -3.449536E+03 -1.076602E+04  1.348528E+04 -4.772410E+03
        66   6  5.468100E+02 -2.477327E+05 -1.305315E+03 -2.535918E+04  1.227701E+04 -2.901901E+03
        66   7 -1.117485E+05 -6.672763E+05 -1.119941E+05 -2.786181E+04  4.521224E+03 -1.506731E+04
        66   8 -9.122862E+04 -6.185794E+05 -9.121157E+04 -1.146329E+04  1.348648E+04 -7.096457E+03
        66   9 -7.988079E+04 -5.731207E+05 -7.789573E+04 -2.425337E+04  1.227563E+04  8.736448E+02
        66  10  9.740975E+04  1.719532E+05  9.434034E+04 -2.285769E+04 -7.724844E-10  5.327325E-09
        66  11  9.271209E+04  1.254116E+05  8.430261E+04 -1.006830E+04 -5.541141E-10  2.922617E-09
        66  12  8.096669E+04  7.775278E+04  7.527750E+04 -2.646549E+04 -1.246206E-09 -3.138167E-09
        66  13 -7.162885E+03 -2.477418E+05 -8.820629E+03 -2.536057E+04  2.938374E-10  2.222914E-11
        66  14  7.465812E+02 -2.466476E+05 -3.449921E+03 -1.076597E+04 -5.844560E-10 -3.625466E-12
        66  15  5.466459E+02 -2.477327E+05 -1.305614E+03 -2.535915E+04 -2.227298E-09  6.576991E-11
        66  16 -1.117486E+05 -6.672765E+05 -1.119946E+05 -2.786175E+04 -7.822892E-10 -5.299882E-09
        66  17 -9.122882E+04 -6.185795E+05 -9.121201E+04 -1.146321E+04 -1.416032E-09 -2.784535E-09
        66  18 -7.988096E+04 -5.731208E+05 -7.789601E+04 -2.425338E+04 -3.079551E-09  3.071985E-09
        66  19  9.740978E+04  1.719532E+05  9.434038E+04 -2.285768E+04 -4.519036E+03 -1.784183E+03
        66  20  9.271228E+04  1.254117E+05  8.430297E+04 -1.006833E+04 -1.348408E+04  2.446978E+03
        66  21  8.096686E+04  7.775287E+04  7.527787E+04 -2.646556E+04 -1.227839E+04  6.679415E+03
        66  22 -7.162851E+03 -2.477418E+05 -8.820508E+03 -2.536059E+04 -4.520096E+03  6.644410E+03
        66  23  7.467825E+02 -2.466475E+05 -3.449536E+03 -1.076602E+04 -1.348528E+04  4.772410E+03
        66  24  5.468100E+02 -2.477327E+05 -1.305315E+03 -2.535918E+04 -1.227701E+04  2.901901E+03
        66  25 -1.117485E+05 -6.672763E+05 -1.119941E+05 -2.786181E+04 -4.521224E+03  1.506731E+04
        66  26 -9.122862E+04 -6.185794E+05 -9.121157E+04 -1.146329E+04 -1.348648E+04  7.096457E+03
        66  27 -7.988079E+04 -5.731207E+05 -7.789573E+04 -2.425337E+04 -1.227563E+04 -8.736448E+02
        67   1  6.663415E+04  2.531466E+04  6.384737E+04 -2.563148E+04  9.714385E+03 -3.439391E+03
        67   2  5.554075E+04 -2.215936E+04  5.465638E+04 -1.056893E+04  8.281689E+03 -4.620665E+03
        67   3  4.576820E+04 -6.915410E+04  4.656325E+04 -2.514099E+04  6.227394E+03 -5.803031E+03
        67   4 -7.305958E+02 -2.471487E+05 -4.821133E+02 -2.545981E+04  9.714289E+03 -2.765075E+03
        67   5 -1.183162E+02 -2.473522E+05  1.584234E+03 -1.064133E+04  8.281192E+03 -3.573194E+03
        67   6  1.750374E+03 -2.471432E+05  4.489482E+03 -2.545811E+04  6.226389E+03 -4.382492E+03
        67   7 -6.810066E+04 -5.195437E+05 -6.481673E+04 -2.528821E+04  9.714194E+03 -2.091054E+03
        67   8 -5.578101E+04 -4.724983E+05 -5.149141E+04 -1.071370E+04  8.280694E+03 -2.526101E+03
        67   9 -4.226972E+04 -4.251032E+05 -3.758647E+04 -2.577513E+04  6.225381E+03 -2.962358E+03
        67  10  6.663405E+04  2.531462E+04  6.384717E+04 -2.563145E+04 -1.902311E-10 -5.380931E-09
        67  11  5.554067E+04 -2.215940E+04  5.465621E+04 -1.056890E+04  1.252243E-10 -2.685622E-09
        67  12  4.576815E+04 -6.915415E+04  4.656311E+04 -2.514096E+04 -2.207247E-09 -1.330537E-09
        67  13 -7.306991E+02 -2.471487E+05 -4.823050E+02 -2.545979E+04  3.653574E-10  8.038425E-12
        67  14 -1.183933E+02 -2.473522E+05  1.584081E+03 -1.064131E+04  1.556582E-10  3.122535E-11
        67  15  1.750327E+03 -2.471433E+05  4.489373E+03 -2.545809E+04  1.639723E-09  1.181460E-10
        67  16 -6.810076E+04 -5.195437E+05 -6.481692E+04 -2.528819E+04 -7.405935E-10  5.682995E-09
        67  17 -5.578108E+04 -4.724983E+05 -5.149155E+04 -1.071369E+04  3.803581E-09  3.051150E-09
        67  18 -4.226977E+04 -4.251033E+05 -3.758656E+04 -2.577512E+04  3.111791E-09  1.248069E-09
        67  19  6.663415E+04  2.531466E+04  6.384737E+04 -2.563148E+04 -9.714385E+03  3.439391E+03
        67  20  5.554075E+04 -2.215936E+04  5.465638E+04 -1.056893E+04 -8.281689E+03  4.620665E+03
        67  21  4.576820E+04 -6.915410E+04  4.656325E+04 -2.514099E+04 -6.227394E+03  5.803031E+03
        67  22 -7.305958E+02 -2.471487E+05 -4.821133E+02 -2.545981E+04 -9.714289E+03  2.765075E+03
        67  23 -1.183162E+02 -2.473522E+05  1.584234E+03 -1.064133E+04 -8.281192E+03  3.573194E+03
        67  24  1.750374E+03 -2.471432E+05  4.489482E+03 -2.545811E+04 -6.226389E+03  4.382492E+03
        67  25 -6.810066E+04 -5.195437E+05 -6.481673E+04 -2.528821E+04 -9.714194E+03  2.091054E+03
        67  26 -5.578101E+04 -4.724983E+05 -5.149141E+04 -1.071370E+04 -8.280694E+03  2.526101E+03
        67  27 -4.226972E+04 -4.251032E+05 -3.758647E+04 -2.577513E+04 -6.225381E+03  2.962358E+03
        68   1  2.982208E+04 -1.210229E+05  3.511756E+04 -2.817048E+04  4.931724E+03 -6.453050E+03
        68   2  1.713787E+04 -1.713765E+05  2.824494E+04 -8.655366E+03  2.862362E+03 -1.189253E+04
        68   3  2.598298E+04 -2.156931E+05  3.028446E+04 -1.885827E+04  6.757658E+02 -1.733193E+04
        68   4 -1.022285E+03 -2.458929E+05  5.817185E+03 -2.548248E+04  4.930748E+03 -5.243552E+03
        68   5 -2.020845E+03 -2.489018E+05  9.974129E+03 -1.061503E+04  2.861314E+03 -1.061228E+04
        68   6  1.849875E+04 -2.458887E+05  2.299434E+04 -2.546543E+04  6.747126E+02 -1.598131E+04
        68   7 -3.186774E+04 -3.707486E+05 -2.348424E+04 -2.279501E+04  4.929783E+03 -4.034296E+03
        68   8 -2.117997E+04 -3.264216E+05 -8.297089E+03 -1.257445E+04  2.860259E+03 -9.332183E+03
        68   9  1.101461E+04 -2.760834E+05  1.570419E+04 -3.207227E+04  6.736306E+02 -1.463077E+04
        68  10  2.982205E+04 -1.210230E+05  3.511743E+04 -2.817046E+04 -2.522185E-09  2.888118E-10
        68  11  1.713782E+04 -1.713767E+05  2.824466E+04 -8.655339E+03 -1.121739E-09  4.062165E-10
        68  12  2.598290E+04 -2.156934E+05  3.028389E+04 -1.885826E+04  2.240423E-09 -1.063345E-09
        68  13 -1.022318E+03 -2.458930E+05  5.817088E+03 -2.548246E+04  6.828045E-10  3.895748E-11
        68  14 -2.020884E+03 -2.489020E+05  9.973902E+03 -1.061501E+04 -2.569914E-10  4.447958E-12
        68  15  1.849868E+04 -2.458890E+05  2.299386E+04 -2.546542E+04 -7.639164E-10  1.182031E-10
        68  16 -3.186777E+04 -3.707486E+05 -2.348432E+04 -2.279499E+04  1.755900E-09  1.765663E-10
        68  17 -2.118000E+04 -3.264217E+05 -8.297268E+03 -1.257442E+04  4.808365E-10  3.434989E-11
        68  18  1.101455E+04 -2.760837E+05  1.570379E+04 -3.207226E+04 -9.640478E-11  9.308123E-10
        68  19  2.982208E+04 -1.210229E+05  3.511756E+04 -2.817048E+04 -4.931724E+03  6.453050E+03
        68  20  1.713787E+04 -1.713765E+05  2.824494E+04 -8.655366E+03 -2.862362E+03  1.189253E+04
        68  21  2.598298E+04 -2.156931E+05  3.028446E+04 -1.885827E+04 -6.757658E+02  1.733193E+04
        68  22 -1.022285E+03 -2.458929E+05  5.817185E+03 -2.548248E+04 -4.930748E+03  5.243552E+03
        68  23 -2.020845E+03 -2.489018E+05  9.974129E+03 -1.061503E+04 -2.861314E+03  1.061228E+04
        68  24  1.849875E+04 -2.458887E+05  2.299434E+04 -2.546543E+04 -6.747126E+02  1.598131E+04
        68  25 -3.186774E+04 -3.707486E+05 -2.348424E+04 -2.279501E+04 -4.929783E+03  4.034296E+03
        68  26 -2.117997E+04 -3.264216E+05 -8.297089E+03 -1.257445E+04 -2.860259E+03  9.332183E+03
        68  27  1.101461E+04 -2.760834E+05  1.570419E+04 -3.207227E+04 -6.736306E+02  1.463077E+04
        69   1 -2.935810E+05 -7.194783E+04 -2.959720E+04 -1.109548E+05 -1.208421E+04 -3.986930E+03
        69   2 -2.839983E+05 -4.928922E+04 -1.633132E+04 -1.072684E+05 -7.707611E+03 -1.385896E+03
        69   3 -2.759175E+05 -4.692168E+04 -1.077030E+04 -1.052509E+05 -2.866874E+03 -2.219684E+01
        69   4 -2.518993E+05 -5.192124E+04 -1.744314E+04 -9.516368E+04 -1.126464E+04 -3.679711E+03
        69   5 -2.503072E+05 -3.537912E+04 -7.336573E+03 -9.675315E+04 -7.582666E+03 -1.339072E+03
        69   6 -2.500791E+05 -3.899006E+04 -4.384093E+03 -1.000118E+05 -3.436634E+03 -2.358130E+02
        69   7 -2.102161E+05 -3.189432E+04 -5.289330E+03 -7.937158E+04 -1.044501E+04 -3.372456E+03
        69   8 -2.166151E+05 -2.146892E+04  1.658054E+03 -8.623741E+04 -7.457714E+03 -1.292244E+03
        69   9 -2.242401E+05 -3.105843E+04  2.002082E+03 -9.477255E+04 -4.006421E+03 -4.494353E+02
        69  10 -2.935811E+05 -7.194789E+04 -2.959750E+04 -1.109549E+05  1.349463E-09  9.187192E-11
        69  11 -2.839984E+05 -4.928923E+04 -1.633143E+04 -1.072684E+05 -3.610879E-10  7.279730E-11
        69  12 -2.759175E+05 -4.692168E+04 -1.077032E+04 -1.052509E+05  6.687903E-10 -2.845488E-10
        69  13 -2.518994E+05 -5.192129E+04 -1.744341E+04 -9.516372E+04  1.060096E-09 -2.370540E-10
        69  14 -2.503073E+05 -3.537914E+04 -7.336685E+03 -9.675316E+04  9.383281E-11 -4.123622E-10
        69  15 -2.500791E+05 -3.899006E+04 -4.384115E+03 -1.000118E+05 -2.735306E-09  2.479224E-10
        69  16 -2.102162E+05 -3.189437E+04 -5.289556E+03 -7.937161E+04  7.870424E-10 -5.774901E-10
        69  17 -2.166152E+05 -2.146894E+04  1.657947E+03 -8.623742E+04  1.286695E-09 -7.192863E-10
        69  18 -2.242401E+05 -3.105843E+04  2.002052E+03 -9.477256E+04  3.160153E-10  5.028242E-10
        69  19 -2.935810E+05 -7.194783E+04 -2.959720E+04 -1.109548E+05  1.208421E+04  3.986930E+03
        69  20 -2.839983E+05 -4.928922E+04 -1.633132E+04 -1.072684E+05  7.707611E+03  1.385896E+03
        69  21 -2.759175E+05 -4.692168E+04 -1.077030E+04 -1.052509E+05  2.866874E+03  2.219684E+01
        69  22 -2.518993E+05 -5.192124E+04 -1.744314E+04 -9.516368E+04  1.126464E+04  3.679711E+03
        69  23 -2.503072E+05 -3.537912E+04 -7.336573E+03 -9.675315E+04  7.582666E+03  1.339072E+03
        69  24 -2.500791E+05 -3.899006E+04 -4.384093E+03 -1.000118E+05  3.436634E+03  2.358130E+02
        69  25 -2.102161E+05 -3.189432E+04 -5.289330E+03 -7.937158E+04  1.044501E+04  3.372456E+03
        69  26 -2.166151E+05 -2.146892E+04  1.658054E+03 -8.623741E+04  7.457714E+03  1.292244E+03
        69  27 -2.242401E+05 -3.105843E+04  2.002082E+03 -9.477255E+04  4.006421E+03  4.494353E+02
        70   1 -2.616470E+05 -4.564224E+04 -6.775071E+03 -1.027199E+05 -2.463888E+03 -3.796281E+02
        70   2 -2.537478E+05 -3.780991E+04 -2.336470E+03 -9.731575E+04 -1.369825E+03 -4.146542E+02
        70   3 -2.416100E+05 -3.640632E+04  9.882113E+02 -9.719626E+04 -2.452227E+02 -5.310791E+02
        70   4 -2.495046E+05 -4.071913E+04 -3.552121E+03 -9.902265E+04 -2.660270E+03 -4.532596E+02
        70   5 -2.515406E+05 -3.688610E+04 -1.744842E+03 -9.661392E+04 -1.611904E+03 -5.054163E+02
        70   6 -2.493292E+05 -3.947275E+04 -1.015258E+03 -9.948986E+04 -5.330185E+02 -6.389787E+02
        70   7 -2.373620E+05 -3.579602E+04 -3.291884E+02 -9.532538E+04 -2.856656E+03 -5.268928E+02
        70   8 -2.493334E+05 -3.596229E+04 -1.153216E+03 -9.591210E+04 -1.853983E+03 -5.961786E+02
        70   9 -2.570482E+05 -4.253916E+04 -3.018718E+03 -1.017834E+05 -8.208086E+02 -7.468760E+02
        70  10 -2.616470E+05 -4.564224E+04 -6.775083E+03 -1.027199E+05  1.363836E-09 -1.120418E-10
        70  11 -2.537478E+05 -3.780991E+04 -2.336474E+03 -9.731575E+04  1.598178E-09 -5.248715E-11
        70  12 -2.416100E+05 -3.640632E+04  9.882107E+02 -9.719626E+04 -3.881915E-10  4.488343E-10
        70  13 -2.495046E+05 -4.071914E+04 -3.552135E+03 -9.902265E+04 -1.521367E-10  7.688747E-11
        70  14 -2.515406E+05 -3.688610E+04 -1.744847E+03 -9.661392E+04  7.899450E-10  1.250707E-10
        70  15 -2.493292E+05 -3.947276E+04 -1.015259E+03 -9.948986E+04  1.313744E-09 -2.229282E-10
        70  16 -2.373620E+05 -3.579602E+04 -3.292043E+02 -9.532538E+04  1.490431E-10  5.255538E-10
        70  17 -2.493334E+05 -3.596229E+04 -1.153223E+03 -9.591210E+04 -2.450167E-09 -3.744992E-10
        70  18 -2.570482E+05 -4.253916E+04 -3.018720E+03 -1.017834E+05  1.144018E-09 -2.211139E-10
        70  19 -2.616470E+05 -4.564224E+04 -6.775071E+03 -1.027199E+05  2.463888E+03  3.796281E+02
        70  20 -2.537478E+05 -3.780991E+04 -2.336470E+03 -9.731575E+04  1.369825E+03  4.146542E+02
        70  21 -2.416100E+05 -3.640632E+04  9.882113E+02 -9.719626E+04  2.452227E+02  5.310791E+02
        70  22 -2.495046E+05 -4.071913E+04 -3.552121E+03 -9.902265E+04  2.660270E+03  4.532596E+02
        70  23 -2.515406E+05 -3.688610E+04 -1.744842E+03 -9.661392E+04  1.611904E+03  5.054163E+02
        70  24 -2.493292E+05 -3.947275E+04 -1.015258E+03 -9.948986E+04  5.330185E+02  6.389787E+02
        70  25 -2.373620E+05 -3.579602E+04 -3.291884E+02 -9.532538E+04  2.856656E+03  5.268928E+02
        70  26 -2.493334E+05 -3.596229E+04 -1.153216E+03 -9.591210E+04  1.853983E+03  5.961786E+02
        70  27 -2.570482E+05 -4.253916E+04 -3.018718E+03 -1.017834E+05  8.208086E+02  7.468760E+02
        71   1 -2.292450E+05 -3.215154E+04  4.428072E+03 -9.395804E+04 -1.518070E+01 -7.741416E+02
        71   2 -2.215543E+05 -2.575921E+04  7.350179E+03 -8.839569E+04  4.029142E+02 -1.154482E+03
        71   3 -2.090308E+05 -2.443447E+04  1.005306E+04 -8.844110E+04  8.227873E+02 -1.539458E+03
        71   4 -2.492638E+05 -3.963330E+04 -8.035754E+02 -9.938881E+04 -2.783294E+02 -8.728037E+02
        71   5 -2.516724E+05 -3.704175E+04 -4.735380E+02 -9.660667E+04  1.371504E+02 -1.254135E+03
        71   6 -2.492476E+05 -3.951726E+04 -3.605982E+02 -9.943234E+04  5.544035E+02 -1.640104E+03
        71   7 -2.692824E+05 -4.711510E+04 -6.035297E+03 -1.048195E+05 -5.414707E+02 -9.714630E+02
        71   8 -2.817899E+05 -4.832429E+04 -8.297377E+03 -1.048173E+05 -1.286008E+02 -1.353784E+03
        71   9 -2.894630E+05 -5.460002E+04 -1.077444E+04 -1.104230E+05  2.860377E+02 -1.740743E+03
        71  10 -2.292450E+05 -3.215154E+04  4.428071E+03 -9.395804E+04 -1.159178E-09  5.022434E-10
        71  11 -2.215543E+05 -2.575921E+04  7.350176E+03 -8.839569E+04  1.381351E-09 -4.945094E-11
        71  12 -2.090308E+05 -2.443447E+04  1.005306E+04 -8.844109E+04  5.713019E-11 -5.323685E-11
        71  13 -2.492638E+05 -3.963330E+04 -8.035770E+02 -9.938882E+04  8.910830E-10  1.543800E-10
        71  14 -2.516724E+05 -3.704175E+04 -4.735410E+02 -9.660667E+04  5.169135E-10  2.396868E-10
        71  15 -2.492476E+05 -3.951726E+04 -3.606039E+02 -9.943234E+04  2.957611E-09  4.316257E-11
        71  16 -2.692824E+05 -4.711510E+04 -6.035299E+03 -1.048195E+05  1.494001E-09  1.827125E-11
        71  17 -2.817899E+05 -4.832429E+04 -8.297381E+03 -1.048173E+05  2.696989E-09  2.887719E-10
        71  18 -2.894630E+05 -5.460002E+04 -1.077444E+04 -1.104230E+05  3.134863E-09  4.230301E-11
        71  19 -2.292450E+05 -3.215154E+04  4.428072E+03 -9.395804E+04  1.518070E+01  7.741416E+02
        71  20 -2.215543E+05 -2.575921E+04  7.350179E+03 -8.839569E+04 -4.029142E+02  1.154482E+03
        71  21 -2.090308E+05 -2.443447E+04  1.005306E+04 -8.844110E+04 -8.227873E+02  1.539458E+03
        71  22 -2.492638E+05 -3.963330E+04 -8.035754E+02 -9.938881E+04  2.783294E+02  8.728037E+02
        71  23 -2.516724E+05 -3.704175E+04 -4.735380E+02 -9.660667E+04 -1.371504E+02  1.254135E+03
        71  24 -2.492476E+05 -3.951726E+04 -3.605982E+02 -9.943234E+04 -5.544035E+02  1.640104E+03
        71  25 -2.692824E+05 -4.711510E+04 -6.035297E+03 -1.048195E+05  5.414707E+02  9.714630E+02
        71  26 -2.817899E+05 -4.832429E+04 -8.297377E+03 -1.048173E+05  1.286008E+02  1.353784E+03
        71  27 -2.894630E+05 -5.460002E+04 -1.077444E+04 -1.104230E+05 -2.860377E+02  1.740743E+03
        72   1 -1.969128E+05 -1.991014E+04  1.328018E+04 -8.514889E+04  9.838427E+02 -1.795457E+03
        72   2 -1.892755E+05 -1.367894E+04  1.578460E+04 -7.959399E+04  1.374010E+03 -2.189933E+03
        72   3 -1.767811E+05 -1.237981E+04  1.812261E+04 -7.964652E+04  1.763910E+03 -2.583493E+03
        72   4 -2.492482E+05 -3.952548E+04 -3.533131E+02 -9.941814E+04  7.173127E+02 -1.895417E+03
        72   5 -2.516771E+05 -3.706178E+04 -4.262686E+02 -9.661356E+04  1.107961E+03 -2.289730E+03
        72   6 -2.492491E+05 -3.953027E+04 -6.660622E+02 -9.941644E+04  1.498340E+03 -2.683129E+03
        72   7 -3.015807E+05 -5.914053E+04 -1.398695E+04 -1.136862E+05  4.508090E+02 -1.995367E+03
        72   8 -3.140747E+05 -6.044434E+04 -1.663743E+04 -1.136316E+05  8.419425E+02 -2.389516E+03
        72   9 -3.217122E+05 -6.668047E+04 -1.945522E+04 -1.191843E+05  1.232803E+03 -2.782753E+03
        72  10 -1.969128E+05 -1.991015E+04  1.328017E+04 -8.514889E+04  8.052182E-10  1.573744E-10
        72  11 -1.892755E+05 -1.367894E+04  1.578459E+04 -7.959399E+04  1.426064E-09  3.094243E-10
        72  12 -1.767811E+05 -1.237981E+04  1.812259E+04 -7.964651E+04  1.963228E-09 -5.915148E-10
        72  13 -2.492482E+05 -3.952549E+04 -3.533208E+02 -9.941814E+04 -4.998187E-11  1.017408E-10
        72  14 -2.516771E+05 -3.706179E+04 -4.262807E+02 -9.661356E+04 -1.594815E-09  1.734762E-10
        72  15 -2.492491E+05 -3.953028E+04 -6.660799E+02 -9.941643E+04  1.583981E-09 -4.171493E-10
        72  16 -3.015807E+05 -5.914054E+04 -1.398695E+04 -1.136862E+05  6.539984E-10  3.895400E-12
        72  17 -3.140747E+05 -6.044434E+04 -1.663744E+04 -1.136316E+05 -1.212432E-09  9.726805E-12
        72  18 -3.217122E+05 -6.668048E+04 -1.945523E+04 -1.191843E+05 -1.308894E-09 -2.351861E-10
        72  19 -1.969128E+05 -1.991014E+04  1.328018E+04 -8.514889E+04 -9.838427E+02  1.795457E+03
        72  20 -1.892755E+05 -1.367894E+04  1.578460E+04 -7.959399E+04 -1.374010E+03  2.189933E+03
        72  21 -1.767811E+05 -1.237981E+04  1.812261E+04 -7.964652E+04 -1.763910E+03  2.583493E+03
        72  22 -2.492482E+05 -3.952548E+04 -3.533131E+02 -9.941814E+04 -7.173127E+02  1.895417E+03
        72  23 -2.516771E+05 -3.706178E+04 -4.262686E+02 -9.661356E+04 -1.107961E+03  2.289730E+03
        72  24 -2.492491E+05 -3.953027E+04 -6.660622E+02 -9.941644E+04 -1.498340E+03  2.683129E+03
        72  25 -3.015807E+05 -5.914053E+04 -1.398695E+04 -1.136862E+05 -4.508090E+02  1.995367E+03
        72  26 -3.140747E+05 -6.044434E+04 -1.663743E+04 -1.136316E+05 -8.419425E+02  2.389516E+03
        72  27 -3.217122E+05 -6.668047E+04 -1.945522E+04 -1.191843E+05 -1.232803E+03  2.782753E+03
        73   1 -1.647629E+05 -7.855501E+03  2.113263E+04 -7.640221E+04  1.992891E+03 -2.811455E+03
        73   2 -1.571471E+05 -1.642065E+03  2.304520E+04 -7.085454E+04  2.919150E+03 -3.001060E+03
        73   3 -1.448493E+05 -5.216523E+02  2.434107E+04 -7.084218E+04  3.844307E+03 -3.187417E+03
        73   4 -2.492801E+05 -3.950493E+04 -8.560456E+02 -9.942363E+04  1.727502E+03 -2.911039E+03
        73   5 -2.516333E+05 -3.704534E+04 -1.499891E+03 -9.662338E+04  2.655457E+03 -3.100036E+03
        73   6 -2.493050E+05 -3.967913E+04 -2.761857E+03 -9.935845E+04  3.582300E+03 -3.285788E+03
        73   7 -3.337901E+05 -7.115381E+04 -2.284524E+04 -1.224422E+05  1.462153E+03 -3.010608E+03
        73   8 -3.461108E+05 -7.244806E+04 -2.604573E+04 -1.223887E+05  2.391809E+03 -3.198995E+03
        73   9 -3.537505E+05 -7.883606E+04 -2.986579E+04 -1.278705E+05  3.320341E+03 -3.384142E+03
        73  10 -1.647629E+05 -7.855511E+03  2.113261E+04 -7.640220E+04  3.795887E-10 -1.297737E-09
        73  11 -1.571471E+05 -1.642077E+03  2.304517E+04 -7.085453E+04 -5.846556E-10 -1.065796E-09
        73  12 -1.448494E+05 -5.216672E+02  2.434102E+04 -7.084217E+04 -5.583650E-10 -5.177201E-10
        73  13 -2.492801E+05 -3.950494E+04 -8.560671E+02 -9.942363E+04  1.144675E-09 -7.032723E-10
        73  14 -2.516333E+05 -3.704535E+04 -1.499922E+03 -9.662337E+04 -1.877199E-09 -8.198609E-10
        73  15 -2.493050E+05 -3.967915E+04 -2.761901E+03 -9.935844E+04 -1.716593E-09 -4.601890E-10
        73  16 -3.337901E+05 -7.115382E+04 -2.284526E+04 -1.224422E+05 -1.601725E-09 -1.740611E-10
        73  17 -3.461108E+05 -7.244807E+04 -2.604576E+04 -1.223887E+05  9.170912E-10 -5.179187E-10
        73  18 -3.537505E+05 -7.883607E+04 -2.986583E+04 -1.278705E+05  6.691357E-10 -6.400361E-10
        73  19 -1.647629E+05 -7.855501E+03  2.113263E+04 -7.640221E+04 -1.992891E+03  2.811455E+03
        73  20 -1.571471E+05 -1.642065E+03  2.304520E+04 -7.085454E+04 -2.919150E+03  3.001060E+03
        73  21 -1.448493E+05 -5.216523E+02  2.434107E+04 -7.084218E+04 -3.844307E+03  3.187417E+03
        73  22 -2.492801E+05 -3.950493E+04 -8.560456E+02 -9.942363E+04 -1.727502E+03  2.911039E+03
        73  23 -2.516333E+05 -3.704534E+04 -1.499891E+03 -9.662338E+04 -2.655457E+03  3.100036E+03
        73  24 -2.493050E+05 -3.967913E+04 -2.761857E+03 -9.935845E+04 -3.582300E+03  3.285788E+03
        73  25 -3.337901E+05 -7.115381E+04 -2.284524E+04 -1.224422E+05 -1.462153E+03  3.010608E+03
        73  26 -3.461108E+05 -7.244806E+04 -2.604573E+04 -1.223887E+05 -2.391809E+03  3.198995E+03
        73  27 -3.537505E+05 -7.883606E+04 -2.986579E+04 -1.278705E+05 -3.320341E+03  3.384142E+03
        74   1 -1.328703E+05  3.971120E+03  2.663863E+04 -6.801384E+04  4.477871E+03 -3.263436E+03
        74   2 -1.251627E+05  1.057463E+04  2.630121E+04 -6.213578E+04  7.924510E+03 -2.499354E+03
        74   3 -1.139478E+05  9.983821E+03  2.289304E+04 -6.127454E+04  1.136222E+04 -1.711072E+03
        74   4 -2.494668E+05 -3.943286E+04 -3.632031E+03 -9.951154E+04  4.210077E+03 -3.364000E+03
        74   5 -2.513552E+05 -3.679577E+04 -6.496288E+03 -9.664238E+04  7.669642E+03 -2.595106E+03
        74   6 -2.497392E+05 -4.135602E+04 -1.244200E+04 -9.879018E+04  1.112022E+04 -1.802036E+03
        74   7 -3.660500E+05 -8.283604E+04 -3.390382E+04 -1.310039E+05  3.942338E+03 -3.464543E+03
        74   8 -3.775321E+05 -8.416509E+04 -3.929506E+04 -1.311426E+05  7.414832E+03 -2.690836E+03
        74   9 -3.855122E+05 -9.269446E+04 -4.777846E+04 -1.362983E+05  1.087827E+04 -1.892978E+03
        74  10 -1.328703E+05  3.971103E+03  2.663857E+04 -6.801383E+04  3.673755E-11  2.959307E-10
        74  11 -1.251628E+05  1.057461E+04  2.630108E+04 -6.213576E+04  2.649262E-09  6.675983E-10
        74  12 -1.139480E+05  9.983784E+03  2.289279E+04 -6.127453E+04  2.110883E-09  6.712177E-10
        74  13 -2.494668E+05 -3.943288E+04 -3.632085E+03 -9.951152E+04 -1.073906E-09 -1.009248E-10
        74  14 -2.513553E+05 -3.679579E+04 -6.496412E+03 -9.664237E+04 -4.126036E-10  1.301121E-09
        74  15 -2.497393E+05 -4.135605E+04 -1.244224E+04 -9.879017E+04  3.232978E-09  2.908396E-10
        74  16 -3.660501E+05 -8.283606E+04 -3.390387E+04 -1.310039E+05  6.247796E-10 -5.945018E-10
        74  17 -3.775321E+05 -8.416512E+04 -3.929517E+04 -1.311426E+05  2.845195E-09 -4.626145E-10
        74  18 -3.855123E+05 -9.269449E+04 -4.777869E+04 -1.362983E+05  1.343550E-09  8.715246E-10
        74  19 -1.328703E+05  3.971120E+03  2.663863E+04 -6.801384E+04 -4.477871E+03  3.263436E+03
        74  20 -1.251627E+05  1.057463E+04  2.630121E+04 -6.213578E+04 -7.924510E+03  2.499354E+03
        74  21 -1.139478E+05  9.983821E+03  2.289304E+04 -6.127454E+04 -1.136222E+04  1.711072E+03
        74  22 -2.494668E+05 -3.943286E+04 -3.632031E+03 -9.951154E+04 -4.210077E+03  3.364000E+03
        74  23 -2.513552E+05 -3.679577E+04 -6.496288E+03 -9.664238E+04 -7.669642E+03  2.595106E+03
        74  24 -2.497392E+05 -4.135602E+04 -1.244200E+04 -9.879018E+04 -1.112022E+04  1.802036E+03
        74  25 -3.660500E+05 -8.283604E+04 -3.390382E+04 -1.310039E+05 -3.942338E+03  3.464543E+03
        74  26 -3.775321E+05 -8.416509E+04 -3.929506E+04 -1.311426E+05 -7.414832E+03  2.690836E+03
        74  27 -3.855122E+05 -9.269446E+04 -4.777846E+04 -1.362983E+05 -1.087827E+04  1.892978E+03
        75   1 -1.008602E+05  1.461707E+04  2.237839E+04 -6.247113E+04  1.386952E+04 -1.126323E+03
        75   2 -9.275014E+04  2.594809E+04  1.272822E+04 -5.245775E+04  2.843742E+04  3.847002E+03
        75   3 -9.087663E+04  8.188672E+03 -1.425735E+04 -4.197978E+04  4.288130E+04  9.151883E+03
        75   4 -2.508503E+05 -3.869943E+04 -1.606683E+04 -1.004007E+05  1.352962E+04 -1.253996E+03
        75   5 -2.491499E+05 -3.430317E+04 -2.821070E+04 -9.681371E+04  2.827997E+04  3.787648E+03
        75   6 -2.537251E+05 -5.903799E+04 -5.783805E+04 -9.276205E+04  4.290609E+04  9.160558E+03
        75   7 -4.008191E+05 -9.201528E+04 -5.451400E+04 -1.383223E+05  1.318981E+04 -1.381641E+03
        75   8 -4.055261E+05 -9.455266E+04 -6.915178E+04 -1.411595E+05  2.812256E+04  3.728311E+03
        75   9 -4.165477E+05 -1.262614E+05 -1.014211E+05 -1.435317E+05  4.293088E+04  9.169229E+03
        75  10 -1.008604E+05  1.461702E+04  2.237802E+04 -6.247112E+04  2.313332E-09  5.264613E-10
        75  11 -9.275101E+04  2.594785E+04  1.272668E+04 -5.245783E+04 -1.052621E-10  2.136528E-10
        75  12 -9.087863E+04  8.188088E+03 -1.426096E+04 -4.198010E+04  4.328257E-10  9.056692E-10
        75  13 -2.508505E+05 -3.869948E+04 -1.606717E+04 -1.004007E+05  4.270732E-09  2.917913E-10
        75  14 -2.491507E+05 -3.430340E+04 -2.821223E+04 -9.681380E+04  5.654432E-10  2.198657E-09
        75  15 -2.537271E+05 -5.903857E+04 -5.784167E+04 -9.276236E+04  1.173434E-09  9.134994E-10
        75  16 -4.008192E+05 -9.201533E+04 -5.451433E+04 -1.383223E+05  3.224127E-09  7.255975E-10
        75  17 -4.055270E+05 -9.455289E+04 -6.915329E+04 -1.411596E+05  8.790057E-10 -7.649364E-10
        75  18 -4.165497E+05 -1.262620E+05 -1.014247E+05 -1.435320E+05  2.840290E-10  1.742676E-09
        75  19 -1.008602E+05  1.461707E+04  2.237839E+04 -6.247113E+04 -1.386952E+04  1.126323E+03
        75  20 -9.275014E+04  2.594809E+04  1.272822E+04 -5.245775E+04 -2.843742E+04 -3.847002E+03
        75  21 -9.087663E+04  8.188672E+03 -1.425735E+04 -4.197978E+04 -4.288130E+04 -9.151883E+03
        75  22 -2.508503E+05 -3.869943E+04 -1.606683E+04 -1.004007E+05 -1.352962E+04  1.253996E+03
        75  23 -2.491499E+05 -3.430317E+04 -2.821070E+04 -9.681371E+04 -2.827997E+04 -3.787648E+03
        75  24 -2.537251E+05 -5.903799E+04 -5.783805E+04 -9.276205E+04 -4.290609E+04 -9.160558E+03
        75  25 -4.008191E+05 -9.201528E+04 -5.451400E+04 -1.383223E+05 -1.318981E+04  1.381641E+03
        75  26 -4.055261E+05 -9.455266E+04 -6.915178E+04 -1.411595E+05 -2.812256E+04 -3.728311E+03
        75  27 -4.165477E+05 -1.262614E+05 -1.014211E+05 -1.435317E+05 -4.293088E+04 -9.169229E+03
        76   1 -6.326640E+04  1.534748E+04 -2.506754E+04 -8.395377E+04  5.465194E+04  1.250198E+04
        76   2 -5.616946E+04  7.632849E+04 -7.078501E+04 -3.005608E+04  1.171446E+05  3.586108E+04
        76   3 -1.461270E+05 -1.157015E+05 -2.310336E+05  8.299419E+04  1.777662E+05  6.420451E+04
        76   4 -2.630012E+05 -3.092167E+04 -7.145895E+04 -1.090363E+05  5.317725E+04  1.195067E+04
        76   5 -2.291017E+05 -9.590611E+03 -1.196933E+05 -9.896559E+04  1.184471E+05  3.634566E+04
        76   6 -2.928431E+05 -2.418748E+05 -2.846853E+05 -2.973224E+04  1.818481E+05  6.571400E+04
        76   7 -4.626959E+05 -7.719190E+04 -1.178525E+05 -1.341142E+05  5.170308E+04  1.139938E+04
        76   8 -4.020027E+05 -9.550005E+04 -1.686041E+05 -1.678551E+05  1.197492E+05  3.682998E+04
        76   9 -4.395242E+05 -3.680048E+05 -3.383367E+05 -1.424247E+05  1.859289E+05  6.722191E+04
        76  10 -6.326965E+04  1.534651E+04 -2.507345E+04 -8.395432E+04  1.779215E-09 -1.576663E-10
        76  11 -5.618455E+04  7.632343E+04 -7.081322E+04 -3.005947E+04  7.668048E-10 -9.554163E-10
        76  12 -1.461620E+05 -1.157145E+05 -2.311007E+05  8.298500E+04  7.545932E-10 -1.491133E-10
        76  13 -2.630043E+05 -3.092259E+04 -7.146454E+04 -1.090368E+05  3.284414E-09 -1.280900E-09
        76  14 -2.291172E+05 -9.595799E+03 -1.197222E+05 -9.896906E+04  7.471451E-10  1.420118E-09
        76  15 -2.928798E+05 -2.418883E+05 -2.847556E+05 -2.974187E+04  2.787111E-09  6.154107E-10
        76  16 -4.626988E+05 -7.719276E+04 -1.178577E+05 -1.341146E+05 -2.033680E-09  2.151660E-09
        76  17 -4.020185E+05 -9.550536E+04 -1.686336E+05 -1.678587E+05  2.721690E-09  1.386691E-09
        76  18 -4.395625E+05 -3.680190E+05 -3.384103E+05 -1.424348E+05  7.558550E-10 -4.420603E-10
        76  19 -6.326640E+04  1.534748E+04 -2.506754E+04 -8.395377E+04 -5.465194E+04 -1.250198E+04
        76  20 -5.616946E+04  7.632849E+04 -7.078501E+04 -3.005608E+04 -1.171446E+05 -3.586108E+04
        76  21 -1.461270E+05 -1.157015E+05 -2.310336E+05  8.299419E+04 -1.777662E+05 -6.420451E+04
        76  22 -2.630012E+05 -3.092167E+04 -7.145895E+04 -1.090363E+05 -5.317725E+04 -1.195067E+04
        76  23 -2.291017E+05 -9.590611E+03 -1.196933E+05 -9.896559E+04 -1.184471E+05 -3.634566E+04
        76  24 -2.928431E+05 -2.418748E+05 -2.846853E+05 -2.973224E+04 -1.818481E+05 -6.571400E+04
        76  25 -4.626959E+05 -7.719190E+04 -1.178525E+05 -1.341142E+05 -5.170308E+04 -1.139938E+04
        76  26 -4.020027E+05 -9.550005E+04 -1.686041E+05 -1.678551E+05 -1.197492E+05 -3.682998E+04
        76  27 -4.395242E+05 -3.680048E+05 -3.383367E+05 -1.424247E+05 -1.859289E+05 -6.722191E+04
        77   1  2.355360E+05  2.149892E+06  2.314424E+05 -3.591246E+04  1.092204E+04  1.071726E+05
        77   2  1.846384E+05  2.143758E+06  1.676971E+05 -1.674035E+04  3.793605E+04  6.065617E+04
        77   3  1.713836E+05  2.153113E+06  1.435918E+05  3.977598E+03  4.861501E+04  1.414309E+04
        77   4  5.880134E+04  1.431256E+06  6.494625E+04  1.868921E+03  1.093144E+04  4.366058E+04
        77   5  1.447236E+04  1.426078E+06  3.310955E+04  1.088404E+03  3.794671E+04  2.664157E+04
        77   6  2.697349E+03  1.431292E+06  2.048611E+04  1.854849E+03  4.862128E+04  9.624417E+03
        77   7 -1.179620E+05  7.131065E+05 -1.015686E+05  3.960639E+04  1.093314E+04 -1.977874E+04
        77   8 -1.557217E+05  7.088966E+05 -1.014959E+05  1.889612E+04  3.795544E+04 -7.334815E+03
        77   9 -1.660165E+05  7.099821E+05 -1.026368E+05 -2.653280E+02  4.862759E+04  5.110817E+03
        77  10  2.355328E+05  2.149880E+06  2.314206E+05 -3.591340E+04  3.438654E-10 -9.816265E-09
        77  11  1.846359E+05  2.143754E+06  1.676875E+05 -1.674220E+04 -6.113002E-10  1.837122E-08
        77  12  1.713810E+05  2.153113E+06  1.435870E+05  3.977045E+03 -3.367382E-09  4.419304E-08
        77  13  5.880070E+04  1.431254E+06  6.494245E+04  1.868537E+03  1.869843E-09  6.245398E-11
        77  14  1.447062E+04  1.426076E+06  3.310551E+04  1.087591E+03  3.733285E-10  1.143074E-10
        77  15  2.694784E+03  1.431292E+06  2.048149E+04  1.854473E+03 -1.293159E-09  2.298938E-10
        77  16 -1.179623E+05  7.131061E+05 -1.015695E+05  3.960656E+04  3.257930E-10  9.881751E-09
        77  17 -1.557232E+05  7.088962E+05 -1.014987E+05  1.889634E+04  1.618769E-09 -1.856425E-08
        77  18 -1.660191E+05  7.099814E+05 -1.026413E+05 -2.655281E+02  1.680776E-10 -4.429980E-08
        77  19  2.355360E+05  2.149892E+06  2.314424E+05 -3.591246E+04 -1.092204E+04 -1.071726E+05
        77  20  1.846384E+05  2.143758E+06  1.676971E+05 -1.674035E+04 -3.793605E+04 -6.065617E+04
        77  21  1.713836E+05  2.153113E+06  1.435918E+05  3.977598E+03 -4.861501E+04 -1.414309E+04
        77  22  5.880134E+04  1.431256E+06  6.494625E+04  1.868921E+03 -1.093144E+04 -4.366058E+04
        77  23  1.447236E+04  1.426078E+06  3.310955E+04  1.088404E+03 -3.794671E+04 -2.664157E+04
        77  24  2.697349E+03  1.431292E+06  2.048611E+04  1.854849E+03 -4.862128E+04 -9.624417E+03
        77  25 -1.179620E+05  7.131065E+05 -1.015686E+05  3.960639E+04 -1.093314E+04  1.977874E+04
        77  26 -1.557217E+05  7.088966E+05 -1.014959E+05  1.889612E+04 -3.795544E+04  7.334815E+03
        77  27 -1.660165E+05  7.099821E+05 -1.026368E+05 -2.653280E+02 -4.862759E+04 -5.110817E+03
        78   1  1.714606E+05  2.151702E+06  1.393372E+05 -3.821145E+02  4.974950E+04  1.270772E+04
        78   2  1.696141E+05  2.152327E+06  1.353186E+05  1.172667E+03  5.147130E+04 -5.619575E+02
        78   3  1.728135E+05  2.155983E+06  1.411934E+05  3.181294E+03  5.000498E+04 -1.383314E+04
        78   4  2.925053E+03  1.429432E+06  1.744847E+04  1.612583E+03  4.975686E+04  6.726268E+03
        78   5  1.072636E+03  1.428413E+06  1.503262E+04  1.385397E+03  5.147688E+04 -7.805578E+02
        78   6  3.271218E+03  1.429431E+06  1.852227E+04  1.612085E+03  5.000701E+04 -8.288842E+03
        78   7 -1.656378E+05  7.076746E+05 -1.044568E+05  3.604934E+03  4.976418E+04  7.515212E+02
        78   8 -1.674959E+05  7.050155E+05 -1.052693E+05  1.597930E+03  5.148247E+04 -9.989120E+02
        78   9 -1.662988E+05  7.033968E+05 -1.041656E+05  4.483881E+01  5.000902E+04 -2.750796E+03
        78  10  1.714579E+05  2.151702E+06  1.393322E+05 -3.826232E+02 -2.826328E-09 -4.886449E-08
        78  11  1.696112E+05  2.152326E+06  1.353136E+05  1.172691E+03  1.500419E-09 -9.965948E-09
        78  12  1.728108E+05  2.155982E+06  1.411883E+05  3.181851E+03 -1.024839E-09  2.965903E-08
        78  13  2.922381E+03  1.429432E+06  1.744373E+04  1.612314E+03 -1.821640E-09  2.678647E-10
        78  14  1.069789E+03  1.428413E+06  1.502763E+04  1.385430E+03 -2.057727E-09  3.309179E-10
        78  15  3.268513E+03  1.429430E+06  1.851744E+04  1.612418E+03 -2.441695E-10  8.261109E-10
        78  16 -1.656405E+05  7.076740E+05 -1.044614E+05  3.604904E+03 -1.358649E-10  4.877906E-08
        78  17 -1.674988E+05  7.050148E+05 -1.052743E+05  1.597971E+03 -2.503860E-09  9.262159E-09
        78  18 -1.663015E+05  7.033962E+05 -1.041703E+05  4.494960E+01 -4.258439E-10 -2.987017E-08
        78  19  1.714606E+05  2.151702E+06  1.393372E+05 -3.821145E+02 -4.974950E+04 -1.270772E+04
        78  20  1.696141E+05  2.152327E+06  1.353186E+05  1.172667E+03 -5.147130E+04  5.619575E+02
        78  21  1.728135E+05  2.155983E+06  1.411934E+05  3.181294E+03 -5.000498E+04  1.383314E+04
        78  22  2.925053E+03  1.429432E+06  1.744847E+04  1.612583E+03 -4.975686E+04 -6.726268E+03
        78  23  1.072636E+03  1.428413E+06  1.503262E+04  1.385397E+03 -5.147688E+04  7.805578E+02
        78  24  3.271218E+03  1.429431E+06  1.852227E+04  1.612085E+03 -5.000701E+04  8.288842E+03
        78  25 -1.656378E+05  7.076746E+05 -1.044568E+05  3.604934E+03 -4.976418E+04 -7.515212E+02
        78  26 -1.674959E+05  7.050155E+05 -1.052693E+05  1.597930E+03 -5.148247E+04  9.989120E+02
        78  27 -1.662988E+05  7.033968E+05 -1.041656E+05  4.483881E+01 -5.000902E+04  2.750796E+03
        79   1  1.733606E+05  2.160422E+06  1.465663E+05 -1.597759E+03  4.903397E+04 -1.543559E+04
        79   2  1.890075E+05  2.154738E+06  1.735032E+05  2.103951E+04  3.846945E+04 -6.447584E+04
        79   3  2.461964E+05  2.165844E+06  2.426897E+05  4.303831E+04  1.119028E+04 -1.135359E+05
        79   4  3.005591E+03  1.431553E+06  2.217639E+04  1.362753E+03  4.903637E+04 -1.138201E+04
        79   5  1.617636E+04  1.425744E+06  3.665766E+04  1.704485E+03  3.844818E+04 -3.023962E+04
        79   6  6.568386E+04  1.431510E+06  7.248768E+04  1.406515E+03  1.113987E+04 -4.911504E+04
        79   7 -1.673776E+05  7.032052E+05 -1.022311E+05  4.319774E+03  4.903881E+04 -7.333033E+03
        79   8 -1.566835E+05  6.972644E+05 -1.002063E+05 -1.760725E+04  3.842477E+04  3.957522E+03
        79   9 -1.148577E+05  6.976842E+05 -9.773399E+04 -4.017573E+04  1.108082E+04  1.523046E+04
        79  10  1.733580E+05  2.160421E+06  1.465613E+05 -1.597150E+03 -6.902865E-10 -2.178745E-08
        79  11  1.890048E+05  2.154733E+06  1.734926E+05  2.104150E+04  2.021291E-09 -1.037186E-08
        79  12  2.461928E+05  2.165830E+06  2.426653E+05  4.303933E+04  7.077484E-11  1.307179E-09
        79  13  3.002972E+03  1.431552E+06  2.217163E+04  1.363202E+03 -3.133325E-10  7.317531E-10
        79  14  1.617453E+04  1.425742E+06  3.665317E+04  1.705421E+03  2.490551E-09  9.090916E-10
        79  15  6.568309E+04  1.431507E+06  7.248292E+04  1.406956E+03  1.003308E-09  1.131322E-09
        79  16 -1.673802E+05  7.032045E+05 -1.022357E+05  4.320063E+03  2.745047E-10  2.163868E-08
        79  17 -1.566851E+05  6.972639E+05 -1.002091E+05 -1.760737E+04  1.240920E-09  9.667469E-09
        79  18 -1.148579E+05  6.976839E+05 -9.773466E+04 -4.017587E+04 -6.750051E-11 -1.373019E-09
        79  19  1.733606E+05  2.160422E+06  1.465663E+05 -1.597759E+03 -4.903397E+04  1.543559E+04
        79  20  1.890075E+05  2.154738E+06  1.735032E+05  2.103951E+04 -3.846945E+04  6.447584E+04
        79  21  2.461964E+05  2.165844E+06  2.426897E+05  4.303831E+04 -1.119028E+04  1.135359E+05
        79  22  3.005591E+03  1.431553E+06  2.217639E+04  1.362753E+03 -4.903637E+04  1.138201E+04
        79  23  1.617636E+04  1.425744E+06  3.665766E+04  1.704485E+03 -3.844818E+04  3.023962E+04
        79  24  6.568386E+04  1.431510E+06  7.248768E+04  1.406515E+03 -1.113987E+04  4.911504E+04
        79  25 -1.673776E+05  7.032052E+05 -1.022311E+05  4.319774E+03 -4.903881E+04  7.333033E+03
        79  26 -1.566835E+05  6.972644E+05 -1.002063E+05 -1.760725E+04 -3.842477E+04 -3.957522E+03
        79  27 -1.148577E+05  6.976842E+05 -9.773399E+04 -4.017573E+04 -1.108082E+04 -1.523046E+04
        80   1 -2.311053E+06 -4.398521E+05 -3.985129E+05 -5.663286E+04  6.496998E+04  2.546809E+04
        80   2 -2.154668E+06 -5.373785E+05 -4.254772E+05 -3.222220E+04  5.863199E+04  7.670877E+04
        80   3 -1.955705E+06 -4.862182E+05 -4.103090E+05 -1.179030E+05  5.252445E+04  7.349136E+04
        80   4 -2.328465E+04  1.304084E+05  1.642782E+05 -9.638513E+04  1.122178E+05  2.566756E+04
        80   5 -4.724915E+04 -1.589765E+04  7.215731E+04 -4.107713E+04  7.318793E+04  7.673980E+04
        80   6 -2.312158E+04 -8.105970E+03  4.476653E+04 -9.583110E+04  3.439189E+04  7.343538E+04
        80   7  2.269268E+06  7.002876E+05  7.266931E+05 -1.362895E+05  1.596393E+05  2.586062E+04
        80   8  2.064263E+06  5.052655E+05  5.694857E+05 -4.996574E+04  8.779280E+04  7.677037E+04
        80   9  1.912907E+06  4.697411E+05  4.995865E+05 -7.369167E+04  1.620295E+04  7.337820E+04
        80  10 -2.311058E+06 -4.398539E+05 -3.985220E+05 -5.663420E+04 -2.604520E-10  9.312237E-11
        80  11 -2.154673E+06 -5.373857E+05 -4.254948E+05 -3.222582E+04  2.544747E-10  1.324166E-10
        80  12 -1.955709E+06 -4.862247E+05 -4.103244E+05 -1.179061E+05 -6.350180E-10  3.021763E-11
        80  13 -2.329835E+04  1.304043E+05  1.642533E+05 -9.638745E+04 -5.901242E-13  1.259774E-10
        80  14 -4.725648E+04 -1.590542E+04  7.213618E+04 -4.108165E+04 -8.382638E-10  3.250985E-10
        80  15 -2.312429E+04 -8.112079E+03  4.475418E+04 -9.583314E+04  1.372014E-09  1.188106E-11
        80  16  2.269241E+06  7.002801E+05  7.266442E+05 -1.362928E+05  1.937229E-09  1.164190E-10
        80  17  2.064254E+06  5.052571E+05  5.694602E+05 -4.997117E+04 -4.289382E-10  3.175904E-10
        80  18  1.912905E+06  4.697353E+05  4.995759E+05 -7.369263E+04  6.338776E-11  1.284417E-10
        80  19 -2.311053E+06 -4.398521E+05 -3.985129E+05 -5.663286E+04 -6.496998E+04 -2.546809E+04
        80  20 -2.154668E+06 -5.373785E+05 -4.254772E+05 -3.222220E+04 -5.863199E+04 -7.670877E+04
        80  21 -1.955705E+06 -4.862182E+05 -4.103090E+05 -1.179030E+05 -5.252445E+04 -7.349136E+04
        80  22 -2.328465E+04  1.304084E+05  1.642782E+05 -9.638513E+04 -1.122178E+05 -2.566756E+04
        80  23 -4.724915E+04 -1.589765E+04  7.215731E+04 -4.107713E+04 -7.318793E+04 -7.673980E+04
        80  24 -2.312158E+04 -8.105970E+03  4.476653E+04 -9.583110E+04 -3.439189E+04 -7.343538E+04
        80  25  2.269268E+06  7.002876E+05  7.266931E+05 -1.362895E+05 -1.596393E+05 -2.586062E+04
        80  26  2.064263E+06  5.052655E+05  5.694857E+05 -4.996574E+04 -8.779280E+04 -7.677037E+04
        80  27  1.912907E+06  4.697411E+05  4.995865E+05 -7.369167E+04 -1.620295E+04 -7.337820E+04
        81   1 -1.765625E+06 -4.180444E+05 -3.735523E+05 -9.495671E+04  2.915361E+04  6.164374E+04
        81   2 -1.591784E+06 -3.870015E+05 -3.484702E+05 -4.098049E+04  2.166553E+04  5.729755E+04
        81   3 -1.411231E+06 -3.421655E+05 -3.145704E+05 -9.829888E+04  1.415980E+04  4.966683E+04
        81   4 -3.205680E+04  1.099301E+04  3.624145E+04 -9.626864E+04  2.759453E+04  6.162919E+04
        81   5 -3.550210E+04 -2.024034E+03  1.860534E+04 -4.062134E+04  1.811611E+04  5.728412E+04
        81   6 -3.192969E+04 -9.187408E+02  1.115338E+04 -9.625091E+04  8.622170E+03  4.965828E+04
        81   7  1.704279E+06  4.398149E+05  4.458271E+05 -9.758528E+04  2.603102E+04  6.161467E+04
        81   8  1.523012E+06  3.827801E+05  3.855138E+05 -4.026179E+04  1.455778E+04  5.727071E+04
        81   9  1.349124E+06  3.401917E+05  3.367458E+05 -9.419833E+04  3.072266E+03  4.964970E+04
        81  10 -1.765627E+06 -4.180487E+05 -3.735610E+05 -9.495816E+04  1.411624E-10 -3.911244E-11
        81  11 -1.591786E+06 -3.870051E+05 -3.484773E+05 -4.098149E+04  6.353252E-10 -2.141908E-10
        81  12 -1.411232E+06 -3.421682E+05 -3.145755E+05 -9.829945E+04 -2.051480E-10  1.457321E-10
        81  13 -3.205864E+04  1.098872E+04  3.623288E+04 -9.627001E+04  1.080356E-09 -2.419317E-10
        81  14 -3.550333E+04 -2.027646E+03  1.859855E+04 -4.062218E+04 -3.689657E-09 -1.008852E-10
        81  15 -3.193043E+04 -9.214087E+02  1.114861E+04 -9.625126E+04 -1.747134E-09  4.219606E-10
        81  16  1.704278E+06  4.398106E+05  4.458187E+05 -9.758657E+04  2.815608E-09  9.440312E-11
        81  17  1.523011E+06  3.827765E+05  3.855073E+05 -4.026246E+04 -1.318461E-09 -6.905126E-10
        81  18  1.349123E+06  3.401891E+05  3.367411E+05 -9.419845E+04  1.153662E-09  7.409866E-10
        81  19 -1.765625E+06 -4.180444E+05 -3.735523E+05 -9.495671E+04 -2.915361E+04 -6.164374E+04
        81  20 -1.591784E+06 -3.870015E+05 -3.484702E+05 -4.098049E+04 -2.166553E+04 -5.729755E+04
        81  21 -1.411231E+06 -3.421655E+05 -3.145704E+05 -9.829888E+04 -1.415980E+04 -4.966683E+04
        81  22 -3.205680E+04  1.099301E+04  3.624145E+04 -9.626864E+04 -2.759453E+04 -6.162919E+04
        81  23 -3.550210E+04 -2.024034E+03  1.860534E+04 -4.062134E+04 -1.811611E+04 -5.728412E+04
        81  24 -3.192969E+04 -9.187408E+02  1.115338E+04 -9.625091E+04 -8.622170E+03 -4.965828E+04
        81  25  1.704279E+06  4.398149E+05  4.458271E+05 -9.758528E+04 -2.603102E+04 -6.161467E+04
        81  26  1.523012E+06  3.827801E+05  3.855138E+05 -4.026179E+04 -1.455778E+04 -5.727071E+04
        81  27  1.349124E+06  3.401917E+05  3.367458E+05 -9.419833E+04 -3.072266E+03 -4.964970E+04
        82   1 -1.213420E+06 -2.911036E+05 -2.692549E+05 -9.603072E+04  1.140945E+04  4.462903E+04
        82   2 -1.036714E+06 -2.483416E+05 -2.317426E+05 -4.016464E+04  9.162384E+03  3.693899E+04
        82   3 -8.586752E+05 -2.041625E+05 -1.922711E+05 -9.574031E+04  6.900116E+03  2.904967E+04
        82   4 -3.306017E+04  7.210563E+02  8.621263E+03 -9.628963E+04  6.870073E+03  4.462405E+04
        82   5 -3.368274E+04 -3.082700E+02  4.744616E+03 -4.057439E+04  4.498954E+03  3.693790E+04
        82   6 -3.297772E+04  1.028419E+02  2.912917E+03 -9.628981E+04  2.113267E+03  2.905274E+04
        82   7  1.148583E+06  2.924462E+05  2.864017E+05 -9.654889E+04  2.322098E+03  4.461908E+04
        82   8  9.702753E+05  2.476532E+05  2.411625E+05 -4.098463E+04 -1.719816E+02  3.693682E+04
        82   9  7.933471E+05  2.043194E+05  1.980498E+05 -9.683983E+04 -2.679921E+03  2.905581E+04
        82  10 -1.213420E+06 -2.911058E+05 -2.692589E+05 -9.603113E+04 -1.921545E-10 -3.845660E-10
        82  11 -1.036715E+06 -2.483431E+05 -2.317453E+05 -4.016491E+04  1.072521E-09 -2.163184E-10
        82  12 -8.586755E+05 -2.041635E+05 -1.922728E+05 -9.574047E+04 -9.541890E-10  4.288853E-10
        82  13 -3.306076E+04  7.189052E+02  8.617432E+03 -9.628987E+04 -1.073031E-09  1.338878E-10
        82  14 -3.368312E+04 -3.097406E+02  4.742014E+03 -4.057452E+04 -3.263251E-09 -5.925920E-10
        82  15 -3.297795E+04  1.019343E+02  2.911322E+03 -9.628986E+04 -1.194232E-09  8.458175E-10
        82  16  1.148583E+06  2.924441E+05  2.863979E+05 -9.654897E+04 -1.937156E-09  1.136951E-10
        82  17  9.702749E+05  2.476517E+05  2.411600E+05 -4.098462E+04 -3.438351E-09 -9.438611E-10
        82  18  7.933469E+05  2.043184E+05  1.980482E+05 -9.683977E+04 -8.294399E-10  6.755963E-10
        82  19 -1.213420E+06 -2.911036E+05 -2.692549E+05 -9.603072E+04 -1.140945E+04 -4.462903E+04
        82  20 -1.036714E+06 -2.483416E+05 -2.317426E+05 -4.016464E+04 -9.162384E+03 -3.693899E+04
        82  21 -8.586752E+05 -2.041625E+05 -1.922711E+05 -9.574031E+04 -6.900116E+03 -2.904967E+04
        82  22 -3.306017E+04  7.210563E+02  8.621263E+03 -9.628963E+04 -6.870073E+03 -4.462405E+04
        82  23 -3.368274E+04 -3.082700E+02  4.744616E+03 -4.057439E+04 -4.498954E+03 -3.693790E+04
        82  24 -3.297772E+04  1.028419E+02  2.912917E+03 -9.628981E+04 -2.113267E+03 -2.905274E+04
        82  25  1.148583E+06  2.924462E+05  2.864017E+05 -9.654889E+04 -2.322098E+03 -4.461908E+04
        82  26  9.702753E+05  2.476532E+05  2.411625E+05 -4.098463E+04  1.719816E+02 -3.693682E+04
        82  27  7.933471E+05  2.043194E+05  1.980498E+05 -9.683983E+04  2.679921E+03 -2.905581E+04
        83   1 -6.597608E+05 -1.545937E+05 -1.449020E+05 -9.570845E+04  6.366078E+03  2.442140E+04
        83   2 -4.822403E+05 -1.109429E+05 -1.043791E+05 -4.006565E+04  5.640483E+03  1.652855E+04
        83   3 -3.047396E+05 -6.689033E+04 -6.334020E+04 -9.592914E+04  4.908102E+03  8.623570E+03
        83   4 -3.320790E+04  2.019143E+02  2.258232E+03 -9.630540E+04  1.637982E+03  2.442633E+04
        83   5 -3.316420E+04  6.957620E+01  1.464636E+03 -4.055468E+04  9.038294E+02  1.653522E+04
        83   6 -3.317093E+04  3.419019E+02  1.193571E+03 -9.630524E+04  1.630948E+02  8.632102E+03
        83   7  5.937067E+05  1.549696E+05  1.493916E+05 -9.690281E+04 -3.094861E+03  2.443128E+04
        83   8  4.160975E+05  1.110677E+05  1.072945E+05 -4.104398E+04 -3.836233E+03  1.654190E+04
        83   9  2.384655E+05  6.756884E+04  6.572227E+04 -9.668147E+04 -4.583978E+03  8.640639E+03
        83  10 -6.597610E+05 -1.545944E+05 -1.449032E+05 -9.570857E+04  6.617961E-10  6.768132E-10
        83  11 -4.822404E+05 -1.109432E+05 -1.043797E+05 -4.006572E+04 -1.304679E-09  5.915062E-11
        83  12 -3.047397E+05 -6.689042E+04 -6.334038E+04 -9.592917E+04  2.496092E-11 -9.648545E-11
        83  13 -3.320806E+04  2.012728E+02  2.257106E+03 -9.630543E+04  1.075336E-09  5.725955E-10
        83  14 -3.316427E+04  6.928239E+01  1.464121E+03 -4.055469E+04 -6.340205E-10  2.100346E-10
        83  15 -3.317095E+04  3.418219E+02  1.193431E+03 -9.630524E+04  7.030395E-10  3.843007E-10
        83  16  5.937066E+05  1.549689E+05  1.493905E+05 -9.690275E+04  7.951743E-10  9.454044E-10
        83  17  4.160974E+05  1.110674E+05  1.072940E+05 -4.104393E+04 -3.361573E-09 -5.380408E-10
        83  18  2.384655E+05  6.756875E+04  6.572209E+04 -9.668144E+04  4.374690E-10 -1.230595E-10
        83  19 -6.597608E+05 -1.545937E+05 -1.449020E+05 -9.570845E+04 -6.366078E+03 -2.442140E+04
        83  20 -4.822403E+05 -1.109429E+05 -1.043791E+05 -4.006565E+04 -5.640483E+03 -1.652855E+04
        83  21 -3.047396E+05 -6.689033E+04 -6.334020E+04 -9.592914E+04 -4.908102E+03 -8.623570E+03
        83  22 -3.320790E+04  2.019143E+02  2.258232E+03 -9.630540E+04 -1.637982E+03 -2.442633E+04
        83  23 -3.316420E+04  6.957620E+01  1.464636E+03 -4.055468E+04 -9.038294E+02 -1.653522E+04
        83  24 -3.317093E+04  3.419019E+02  1.193571E+03 -9.630524E+04 -1.630948E+02 -8.632102E+03
        83  25  5.937067E+05  1.549696E+05  1.493916E+05 -9.690281E+04  3.094861E+03 -2.443128E+04
        83  26  4.160975E+05  1.110677E+05  1.072945E+05 -4.104398E+04  3.836233E+03 -1.654190E+04
        83  27  2.384655E+05  6.756884E+04  6.572227E+04 -9.668147E+04  4.583978E+03 -8.640639E+03
        84   1 -1.054719E+05 -1.742353E+04 -1.532433E+04 -9.621022E+04  4.683038E+03  4.019014E+03
        84   2  7.224219E+04  2.615488E+04  2.623622E+04 -4.067466E+04  3.959839E+03 -3.884092E+03
        84   3  2.497256E+05  7.016372E+04  6.826855E+04 -9.664612E+04  3.237992E+03 -1.177753E+04
        84   4 -3.319965E+04  3.315187E+02  1.171773E+03 -9.630682E+04 -6.234014E+01  4.028007E+03
        84   5 -3.307364E+04  1.292932E+02  1.422349E+03 -4.055271E+04 -7.802654E+02 -3.875586E+03
        84   6 -3.320833E+04  3.587222E+02  2.142787E+03 -9.630674E+04 -1.496638E+03 -1.176939E+04
        84   7  3.907749E+04  1.808622E+04  1.766762E+04 -9.640343E+04 -4.808266E+03  4.037001E+03
        84   8 -1.383792E+05 -2.589708E+04 -2.339220E+04 -4.043077E+04 -5.519571E+03 -3.867081E+03
        84   9 -3.160685E+05 -6.945194E+04 -6.398833E+04 -9.596748E+04 -6.229125E+03 -1.176126E+04
        84  10 -1.054719E+05 -1.742355E+04 -1.532441E+04 -9.621023E+04  1.087670E-09 -1.423995E-10
        84  11  7.224217E+04  2.615486E+04  2.623616E+04 -4.067465E+04  7.121502E-10 -3.543856E-10
        84  12  2.497256E+05  7.016357E+04  6.826827E+04 -9.664609E+04  1.494316E-10  1.507909E-10
        84  13 -3.319966E+04  3.315013E+02  1.171743E+03 -9.630682E+04  5.702479E-12  6.748191E-10
        84  14 -3.307365E+04  1.292770E+02  1.422320E+03 -4.055271E+04  4.282286E-10  3.891719E-10
        84  15 -3.320837E+04  3.585728E+02  2.142523E+03 -9.630675E+04  2.823415E-11  1.513470E-10
        84  16  3.907746E+04  1.808619E+04  1.766755E+04 -9.640341E+04 -7.840006E-10  3.127365E-10
        84  17 -1.383793E+05 -2.589710E+04 -2.339229E+04 -4.043079E+04  5.188006E-11  5.284516E-10
        84  18 -3.160685E+05 -6.945210E+04 -6.398866E+04 -9.596753E+04 -1.568653E-09 -7.697995E-10
        84  19 -1.054719E+05 -1.742353E+04 -1.532433E+04 -9.621022E+04 -4.683038E+03 -4.019014E+03
        84  20  7.224219E+04  2.615488E+04  2.623622E+04 -4.067466E+04 -3.959839E+03  3.884092E+03
        84  21  2.497256E+05  7.016372E+04  6.826855E+04 -9.664612E+04 -3.237992E+03  1.177753E+04
        84  22 -3.319965E+04  3.315187E+02  1.171773E+03 -9.630682E+04  6.234014E+01 -4.028007E+03
        84  23 -3.307364E+04  1.292932E+02  1.422349E+03 -4.055271E+04  7.802654E+02  3.875586E+03
        84  24 -3.320833E+04  3.587222E+02  2.142787E+03 -9.630674E+04  1.496638E+03  1.176939E+04
        84  25  3.907749E+04  1.808622E+04  1.766762E+04 -9.640343E+04  4.808266E+03 -4.037001E+03
        84  26 -1.383792E+05 -2.589708E+04 -2.339220E+04 -4.043077E+04  5.519571E+03  3.867081E+03
        84  27 -3.160685E+05 -6.945194E+04 -6.398833E+04 -9.596748E+04  6.229125E+03  1.176126E+04
        85   1  4.492812E+05  1.195164E+05  1.168770E+05 -9.673601E+04  2.840611E+03 -1.639983E+04
        85   2  6.265468E+05  1.629093E+05  1.599358E+05 -4.116229E+04  4.768183E+02 -2.428486E+04
        85   3  8.045294E+05  2.077753E+05  2.048935E+05 -9.706579E+04 -1.877856E+03 -3.199949E+04
        85   4 -3.304084E+04  2.469349E+02  2.731587E+03 -9.630187E+04 -1.945919E+03 -1.639263E+04
        85   5 -3.340460E+04 -1.226792E+02  4.493794E+03 -4.055917E+04 -4.205770E+03 -2.428049E+04
        85   6 -3.309505E+04  9.664898E+02  8.086731E+03 -9.630097E+04 -6.455841E+03 -3.199776E+04
        85   7 -5.151491E+05 -1.190392E+05 -1.114299E+05 -9.586797E+04 -6.728753E+03 -1.638543E+04
        85   8 -6.929555E+05 -1.631857E+05 -1.509781E+05 -3.995654E+04 -8.883412E+03 -2.427613E+04
        85   9 -8.700741E+05 -2.058923E+05 -1.887681E+05 -9.553698E+04 -1.102769E+04 -3.199604E+04
        85  10  4.492811E+05  1.195161E+05  1.168765E+05 -9.673597E+04  4.444220E-10 -2.670446E-10
        85  11  6.265467E+05  1.629086E+05  1.599347E+05 -4.116228E+04 -1.310139E-09 -5.109820E-10
        85  12  8.045291E+05  2.077742E+05  2.048916E+05 -9.706583E+04 -4.752206E-10 -7.453368E-11
        85  13 -3.304091E+04  2.466453E+02  2.731075E+03 -9.630190E+04 -2.229101E-12 -8.248552E-10
        85  14 -3.340478E+04 -1.233170E+02  4.492653E+03 -4.055925E+04 -1.159949E-09 -4.944529E-10
        85  15 -3.309537E+04  9.653791E+02  8.084728E+03 -9.630113E+04 -1.065501E-09 -3.040914E-10
        85  16 -5.151492E+05 -1.190395E+05 -1.114305E+05 -9.586806E+04  1.501695E-09 -7.072353E-10
        85  17 -6.929557E+05 -1.631864E+05 -1.509794E+05 -3.995672E+04  8.969480E-10 -2.344924E-10
        85  18 -8.700745E+05 -2.058935E+05 -1.887702E+05 -9.553726E+04 -1.842929E-09  1.718895E-10
        85  19  4.492812E+05  1.195164E+05  1.168770E+05 -9.673601E+04 -2.840611E+03  1.639983E+04
        85  20  6.265468E+05  1.629093E+05  1.599358E+05 -4.116229E+04 -4.768183E+02  2.428486E+04
        85  21  8.045294E+05  2.077753E+05  2.048935E+05 -9.706579E+04  1.877856E+03  3.199949E+04
        85  22 -3.304084E+04  2.469349E+02  2.731587E+03 -9.630187E+04  1.945919E+03  1.639263E+04
        85  23 -3.340460E+04 -1.226792E+02  4.493794E+03 -4.055917E+04  4.205770E+03  2.428049E+04
        85  24 -3.309505E+04  9.664898E+02  8.086731E+03 -9.630097E+04  6.455841E+03  3.199776E+04
        85  25 -5.151491E+05 -1.190392E+05 -1.114299E+05 -9.586797E+04  6.728753E+03  1.638543E+04
        85  26 -6.929555E+05 -1.631857E+05 -1.509781E+05 -3.995654E+04  8.883412E+03  2.427613E+04
        85  27 -8.700741E+05 -2.058923E+05 -1.887681E+05 -9.553698E+04  1.102769E+04  3.199604E+04
        86   1  1.004983E+06  2.556359E+05  2.551111E+05 -9.511187E+04 -2.663263E+03 -3.696919E+04
        86   2  1.179603E+06  2.983077E+05  3.035048E+05 -4.149985E+04 -1.329998E+04 -4.462264E+04
        86   3  1.360231E+06  3.546415E+05  3.624707E+05 -9.919852E+04 -2.392458E+04 -4.946713E+04
        86   4 -3.207826E+04 -5.854508E+02  1.044246E+04 -9.626549E+04 -8.099757E+03 -3.696931E+04
        86   5 -3.497291E+04 -1.639733E+03  1.750522E+04 -4.060507E+04 -1.703301E+04 -4.462824E+04
        86   6 -3.217734E+04  1.068870E+04  3.397347E+04 -9.626825E+04 -2.595112E+04 -4.947571E+04
        86   7 -1.068151E+06 -2.568837E+05 -2.343004E+05 -9.741693E+04 -1.352722E+04 -3.696942E+04
        86   8 -1.248193E+06 -3.016924E+05 -2.685958E+05 -3.971198E+04 -2.075877E+04 -4.463386E+04
        86   9 -1.422805E+06 -3.334027E+05 -2.946576E+05 -9.334466E+04 -2.797310E+04 -4.948432E+04
        86  10  1.004983E+06  2.556345E+05  2.551085E+05 -9.511195E+04 -8.085539E-10 -1.211439E-10
        86  11  1.179602E+06  2.983055E+05  3.035007E+05 -4.150033E+04 -1.857830E-09 -1.619461E-12
        86  12  1.360229E+06  3.546387E+05  3.624650E+05 -9.919947E+04 -1.258505E-10  4.696234E-10
        86  13 -3.207870E+04 -5.869361E+02  1.043976E+04 -9.626574E+04 -1.782350E-12  3.063774E-10
        86  14 -3.497375E+04 -1.641949E+03  1.750093E+04 -4.060568E+04 -5.384373E-10  4.890449E-10
        86  15 -3.217872E+04  1.068589E+04  3.396760E+04 -9.626928E+04 -2.030999E-09  4.347010E-10
        86  16 -1.068152E+06 -2.568853E+05 -2.343033E+05 -9.741734E+04  1.946775E-10  3.325252E-10
        86  17 -1.248194E+06 -3.016947E+05 -2.686004E+05 -3.971273E+04  1.785306E-09  9.612038E-10
        86  18 -1.422806E+06 -3.334055E+05 -2.946637E+05 -9.334578E+04  2.071875E-09  5.857307E-10
        86  19  1.004983E+06  2.556359E+05  2.551111E+05 -9.511187E+04  2.663263E+03  3.696919E+04
        86  20  1.179603E+06  2.983077E+05  3.035048E+05 -4.149985E+04  1.329998E+04  4.462264E+04
        86  21  1.360231E+06  3.546415E+05  3.624707E+05 -9.919852E+04  2.392458E+04  4.946713E+04
        86  22 -3.207826E+04 -5.854508E+02  1.044246E+04 -9.626549E+04  8.099757E+03  3.696931E+04
        86  23 -3.497291E+04 -1.639733E+03  1.750522E+04 -4.060507E+04  1.703301E+04  4.462824E+04
        86  24 -3.217734E+04  1.068870E+04  3.397347E+04 -9.626825E+04  2.595112E+04  4.947571E+04
        86  25 -1.068151E+06 -2.568837E+05 -2.343004E+05 -9.741693E+04  1.352722E+04  3.696942E+04
        86  26 -1.248193E+06 -3.016924E+05 -2.685958E+05 -3.971198E+04  2.075877E+04  4.463386E+04
        86  27 -1.422805E+06 -3.334027E+05 -2.946576E+05 -9.334466E+04  2.797310E+04  4.948432E+04
        87   1  1.568306E+06  3.858008E+05  4.161060E+05 -7.723943E+04 -1.607010E+04 -6.021505E+04
        87   2  1.722068E+06  4.219259E+05  4.842468E+05 -5.195469E+04 -8.056117E+04 -6.416808E+04
        87   3  1.924491E+06  6.071659E+05  6.321941E+05 -1.368170E+05 -1.451916E+05 -2.160015E+04
        87   4 -2.384510E+04 -7.207012E+03  4.195477E+04 -9.592391E+04 -3.233115E+04 -6.024007E+04
        87   5 -4.585820E+04 -1.455107E+04  6.774440E+04 -4.099782E+04 -6.875053E+04 -6.416011E+04
        87   6 -2.398295E+04  1.225764E+05  1.539975E+05 -9.622774E+04 -1.052886E+05 -2.150662E+04
        87   7 -1.613665E+06 -4.003940E+05 -3.323693E+05 -1.145606E+05 -4.855073E+04 -6.026415E+04
        87   8 -1.810913E+06 -4.512506E+05 -3.489727E+05 -3.007349E+04 -5.697303E+04 -6.415171E+04
        87   9 -1.968999E+06 -3.622870E+05 -3.244709E+05 -5.576785E+04 -6.550983E+04 -2.140776E+04
        87  10  1.568304E+06  3.857968E+05  4.160987E+05 -7.724020E+04  1.382808E-09  6.615450E-10
        87  11  1.722060E+06  4.219197E+05  4.842269E+05 -5.195885E+04  3.410496E-11 -3.909520E-10
        87  12  1.924468E+06  6.071598E+05  6.321537E+05 -1.368195E+05 -2.518529E-10 -6.385184E-10
        87  13 -2.384720E+04 -7.211190E+03  4.194598E+04 -9.592548E+04 -2.173123E-09  1.603179E-10
        87  14 -4.586439E+04 -1.455676E+04  6.772778E+04 -4.100137E+04  6.877770E-10 -8.914550E-10
        87  15 -2.399498E+04  1.225730E+05  1.539758E+05 -9.622957E+04  2.333377E-10 -2.324814E-10
        87  16 -1.613668E+06 -4.003985E+05 -3.323805E+05 -1.145630E+05 -6.639020E-10 -4.513869E-11
        87  17 -1.810918E+06 -4.512559E+05 -3.489866E+05 -3.007644E+04 -1.550562E-09 -1.084698E-10
        87  18 -1.969004E+06 -3.622886E+05 -3.244798E+05 -5.576898E+04  5.850631E-10 -3.141650E-10
        87  19  1.568306E+06  3.858008E+05  4.161060E+05 -7.723943E+04  1.607010E+04  6.021505E+04
        87  20  1.722068E+06  4.219259E+05  4.842468E+05 -5.195469E+04  8.056117E+04  6.416808E+04
        87  21  1.924491E+06  6.071659E+05  6.321941E+05 -1.368170E+05  1.451916E+05  2.160015E+04
        87  22 -2.384510E+04 -7.207012E+03  4.195477E+04 -9.592391E+04  3.233115E+04  6.024007E+04
        87  23 -4.585820E+04 -1.455107E+04  6.774440E+04 -4.099782E+04  6.875053E+04  6.416011E+04
        87  24 -2.398295E+04  1.225764E+05  1.539975E+05 -9.622774E+04  1.052886E+05  2.150662E+04
        87  25 -1.613665E+06 -4.003940E+05 -3.323693E+05 -1.145606E+05  4.855073E+04  6.026415E+04
        87  26 -1.810913E+06 -4.512506E+05 -3.489727E+05 -3.007349E+04  5.697303E+04  6.415171E+04
        87  27 -1.968999E+06 -3.622870E+05 -3.244709E+05 -5.576785E+04  6.550983E+04  2.140776E+04
        88   1  2.295637E+05  2.855075E+05  2.499011E+05 -1.913514E+05  3.692248E+03  9.026433E+04
        88   2  4.922546E+04 -1.893502E+04  1.082079E+05 -7.626393E+04  8.172193E+03  5.301890E+04
        88   3 -1.615874E+04 -2.920052E+05  1.902818E+04 -1.416383E+05 -2.935552E+03  1.570852E+04
        88   4  9.740476E+04 -2.426166E+05  1.194224E+05 -1.548448E+05  3.735935E+03  8.298318E+04
        88   5 -9.899231E+03 -2.574616E+05  5.184402E+04 -6.488088E+04  8.162128E+03  5.511507E+04
        88   6 -3.840580E+03 -2.426021E+05  3.030629E+04 -1.553714E+05 -2.999163E+03  2.716471E+04
        88   7 -3.477019E+04 -7.704844E+05 -1.107620E+04 -1.183690E+05  3.778787E+03  7.570820E+04
        88   8 -6.902755E+04 -4.959356E+05 -4.523689E+03 -5.350216E+04  8.152137E+03  5.721043E+04
        88   9  8.478179E+03 -1.931961E+05  4.158483E+04 -1.691056E+05 -3.063279E+03  3.862181E+04
        88  10  2.295615E+05  2.854988E+05  2.498857E+05 -1.913517E+05 -8.382583E-11  2.739202E-10
        88  11  4.922464E+04 -1.893806E+04  1.082025E+05 -7.626428E+04 -3.009714E-11 -4.240625E-10
        88  12 -1.615881E+04 -2.920055E+05  1.902770E+04 -1.416382E+05 -1.233882E-09 -5.031932E-10
        88  13  9.740289E+04 -2.426240E+05  1.194094E+05 -1.548451E+05 -2.607506E-09  4.596315E-12
        88  14 -9.900118E+03 -2.574649E+05  5.183818E+04 -6.488124E+04  3.396417E-09  1.644789E-11
        88  15 -3.840788E+03 -2.426029E+05  3.030488E+04 -1.553713E+05  1.168402E-09  2.716008E-11
        88  16 -3.477175E+04 -7.704906E+05 -1.108701E+04 -1.183692E+05 -1.693805E-09 -2.813648E-10
        88  17 -6.902850E+04 -4.959391E+05 -4.529970E+03 -5.350253E+04  1.168168E-09  5.154086E-10
        88  18  8.477768E+03 -1.931977E+05  4.158201E+04 -1.691055E+05 -2.374777E-10  4.924115E-10
        88  19  2.295637E+05  2.855075E+05  2.499011E+05 -1.913514E+05 -3.692248E+03 -9.026433E+04
        88  20  4.922546E+04 -1.893502E+04  1.082079E+05 -7.626393E+04 -8.172193E+03 -5.301890E+04
        88  21 -1.615874E+04 -2.920052E+05  1.902818E+04 -1.416383E+05  2.935552E+03 -1.570852E+04
        88  22  9.740476E+04 -2.426166E+05  1.194224E+05 -1.548448E+05 -3.735935E+03 -8.298318E+04
        88  23 -9.899231E+03 -2.574616E+05  5.184402E+04 -6.488088E+04 -8.162128E+03 -5.511507E+04
        88  24 -3.840580E+03 -2.426021E+05  3.030629E+04 -1.553714E+05  2.999163E+03 -2.716471E+04
        88  25 -3.477019E+04 -7.704844E+05 -1.107620E+04 -1.183690E+05 -3.778787E+03 -7.570820E+04
        88  26 -6.902755E+04 -4.959356E+05 -4.523689E+03 -5.350216E+04 -8.152137E+03 -5.721043E+04
        88  27  8.478179E+03 -1.931961E+05  4.158483E+04 -1.691056E+05  3.063279E+03 -3.862181E+04
        89   1 -8.194999E+04 -6.230112E+05 -6.508946E+04 -1.559777E+05 -1.286331E+04  1.511848E+04
        89   2 -1.638733E+05 -9.118511E+05 -1.477837E+05 -6.327997E+04 -2.442221E+04  1.186791E+04
        89   3 -2.378453E+05 -1.200063E+06 -2.267978E+05 -1.517091E+05 -3.415647E+04  8.641737E+03
        89   4  1.056414E+04 -2.490704E+05  2.344618E+04 -1.553225E+05 -1.290369E+04  2.261759E+04
        89   5 -7.029667E+01 -2.494886E+05  8.403198E+03 -6.479887E+04 -2.445279E+04  1.827172E+04
        89   6 -2.559064E+03 -2.491625E+05 -2.191284E+03 -1.553892E+05 -3.417837E+04  1.394882E+04
        89   7  1.030683E+05  1.249992E+05  1.119723E+05 -1.546667E+05 -1.294405E+04  3.012118E+04
        89   8  1.637013E+05  4.132781E+05  1.645600E+05 -6.631888E+04 -2.448340E+04  2.468233E+04
        89   9  2.326624E+05  7.025710E+05  2.223528E+05 -1.590739E+05 -3.420033E+04  1.926398E+04
        89  10 -8.195023E+04 -6.230115E+05 -6.509020E+04 -1.559775E+05 -1.354969E-09  3.869501E-10
        89  11 -1.638739E+05 -9.118514E+05 -1.477851E+05 -6.327974E+04 -3.237364E-10  4.035159E-10
        89  12 -2.378466E+05 -1.200064E+06 -2.268002E+05 -1.517088E+05  1.372273E-09  7.080580E-10
        89  13  1.056382E+04 -2.490710E+05  2.344490E+04 -1.553222E+05  1.885164E-09  6.922035E-11
        89  14 -7.102827E+01 -2.494891E+05  8.401447E+03 -6.479851E+04  2.475153E-09  1.112296E-11
        89  15 -2.560370E+03 -2.491630E+05 -2.193844E+03 -1.553888E+05  6.739152E-10 -8.470218E-11
        89  16  1.030678E+05  1.249982E+05  1.119703E+05 -1.546664E+05  7.662367E-10 -4.267156E-10
        89  17  1.637005E+05  4.132772E+05  1.645577E+05 -6.631839E+04 -4.564202E-10 -4.678623E-10
        89  18  2.326610E+05  7.025703E+05  2.223499E+05 -1.590734E+05 -1.140615E-09 -5.165687E-10
        89  19 -8.194999E+04 -6.230112E+05 -6.508946E+04 -1.559777E+05  1.286331E+04 -1.511848E+04
        89  20 -1.638733E+05 -9.118511E+05 -1.477837E+05 -6.327997E+04  2.442221E+04 -1.186791E+04
        89  21 -2.378453E+05 -1.200063E+06 -2.267978E+05 -1.517091E+05  3.415647E+04 -8.641737E+03
        89  22  1.056414E+04 -2.490704E+05  2.344618E+04 -1.553225E+05  1.290369E+04 -2.261759E+04
        89  23 -7.029667E+01 -2.494886E+05  8.403198E+03 -6.479887E+04  2.445279E+04 -1.827172E+04
        89  24 -2.559064E+03 -2.491625E+05 -2.191284E+03 -1.553892E+05  3.417837E+04 -1.394882E+04
        89  25  1.030683E+05  1.249992E+05  1.119723E+05 -1.546667E+05  1.294405E+04 -3.012118E+04
        89  26  1.637013E+05  4.132781E+05  1.645600E+05 -6.631888E+04  2.448340E+04 -2.468233E+04
        89  27  2.326624E+05  7.025710E+05  2.223528E+05 -1.590739E+05  3.420033E+04 -1.926398E+04
        90   1 -3.114357E+05 -1.526570E+06 -3.066787E+05 -1.457160E+05 -4.775803E+04 -4.484116E+03
        90   2 -3.823085E+05 -1.806898E+06 -3.858819E+05 -6.505435E+04 -5.665690E+04  3.239782E+04
        90   3 -4.970701E+05 -2.102549E+06 -5.000579E+05 -1.637550E+05 -1.962110E+04  6.940675E+04
        90   4  3.920177E+03 -2.518673E+05 -6.314836E+03 -1.549292E+05 -4.783619E+04  1.452353E+04
        90   5  3.786577E+03 -2.466827E+05 -1.743930E+04 -6.532198E+04 -5.661660E+04  2.393483E+04
        90   6 -3.539211E+04 -2.520803E+05 -4.439081E+04 -1.550542E+05 -1.951235E+04  3.349130E+04
        90   7  3.191602E+05  1.024334E+06  2.939384E+05 -1.641597E+05 -4.791483E+04  3.357003E+04
        90   8  3.897073E+05  1.315776E+06  3.508353E+05 -6.558817E+04 -5.657636E+04  1.545059E+04
        90   9  4.260319E+05  1.601514E+06  4.110284E+05 -1.463247E+05 -1.940479E+04 -2.531442E+03
        90  10 -3.114381E+05 -1.526571E+06 -3.066830E+05 -1.457161E+05  4.467228E-10  5.576799E-10
        90  11 -3.823123E+05 -1.806900E+06 -3.858900E+05 -6.505287E+04 -5.716143E-10 -7.758492E-11
        90  12 -4.970718E+05 -2.102554E+06 -5.000677E+05 -1.637539E+05  8.823205E-10 -3.156027E-10
        90  13  3.917663E+03 -2.518682E+05 -6.319531E+03 -1.549286E+05 -1.617900E-09 -1.163855E-10
        90  14  3.782981E+03 -2.466842E+05 -1.744640E+04 -6.532089E+04 -3.383754E-10 -1.056417E-10
        90  15 -3.539282E+04 -2.520816E+05 -4.439364E+04 -1.550536E+05 -4.211546E-10 -8.651727E-11
        90  16  3.191574E+05  1.024332E+06  2.939320E+05 -1.641584E+05 -3.749119E-10 -5.598346E-10
        90  17  3.897038E+05  1.315775E+06  3.508288E+05 -6.558747E+04  8.355005E-10  1.186626E-10
        90  18  4.260315E+05  1.601514E+06  4.110277E+05 -1.463248E+05  1.554415E-09  3.134999E-10
        90  19 -3.114357E+05 -1.526570E+06 -3.066787E+05 -1.457160E+05  4.775803E+04  4.484116E+03
        90  20 -3.823085E+05 -1.806898E+06 -3.858819E+05 -6.505435E+04  5.665690E+04 -3.239782E+04
        90  21 -4.970701E+05 -2.102549E+06 -5.000579E+05 -1.637550E+05  1.962110E+04 -6.940675E+04
        90  22  3.920177E+03 -2.518673E+05 -6.314836E+03 -1.549292E+05  4.783619E+04 -1.452353E+04
        90  23  3.786577E+03 -2.466827E+05 -1.743930E+04 -6.532198E+04  5.661660E+04 -2.393483E+04
        90  24 -3.539211E+04 -2.520803E+05 -4.439081E+04 -1.550542E+05  1.951235E+04 -3.349130E+04
        90  25  3.191602E+05  1.024334E+06  2.939384E+05 -1.641597E+05  4.791483E+04 -3.357003E+04
        90  26  3.897073E+05  1.315776E+06  3.508353E+05 -6.558817E+04  5.657636E+04 -1.545059E+04
        90  27  4.260319E+05  1.601514E+06  4.110284E+05 -1.463247E+05  1.940479E+04  2.531442E+03
        91   1 -4.482228E+06 -1.542497E+06 -9.647532E+05 -1.569480E+06 -3.645883E+05 -1.160413E+05
        91   2 -4.348921E+06 -9.978774E+05 -6.231666E+05 -1.570089E+06 -2.397060E+05 -2.243138E+04
        91   3 -4.353111E+06 -9.526626E+05 -5.095801E+05 -1.509222E+06 -9.858021E+04  2.853608E+04
        91   4 -2.907287E+06 -8.146101E+05 -5.102493E+05 -1.006843E+06 -3.307463E+05 -1.032706E+05
        91   5 -2.813561E+06 -3.788967E+05 -2.146430E+05 -1.109027E+06 -2.293953E+05 -1.855151E+04
        91   6 -2.852204E+06 -4.372389E+05 -1.278564E+05 -1.149862E+06 -1.118362E+05  2.352080E+04
        91   7 -1.329900E+06 -8.620998E+04 -5.598466E+04 -4.427889E+05 -2.968084E+05 -9.044579E+04
        91   8 -1.275890E+06  2.403253E+05  1.936739E+05 -6.468933E+05 -2.190559E+05 -1.465910E+04
        91   9 -1.349094E+06  7.823711E+04  2.536896E+05 -7.897523E+05 -1.251275E+05  1.849499E+04
        91  10 -4.482375E+06 -1.542548E+06 -9.650305E+05 -1.569515E+06  2.543433E-10  1.990051E-10
        91  11 -4.348984E+06 -9.978935E+05 -6.232763E+05 -1.570094E+06  1.012212E-09  7.778974E-10
        91  12 -4.353122E+06 -9.526660E+05 -5.096000E+05 -1.509220E+06 -1.812498E-10  3.116576E-10
        91  13 -2.907408E+06 -8.146512E+05 -5.104761E+05 -1.006870E+06  1.178403E-09  4.445676E-10
        91  14 -2.813617E+06 -3.789112E+05 -2.147430E+05 -1.109031E+06  4.225684E-09  1.020081E-09
        91  15 -2.852218E+06 -4.372428E+05 -1.278810E+05 -1.149860E+06  2.308278E-09  5.083950E-10
        91  16 -1.329997E+06 -8.624250E+04 -5.616602E+04 -4.428106E+05  1.745803E-09  4.418110E-10
        91  17 -1.275941E+06  2.403122E+05  1.935831E+05 -6.468959E+05  7.441696E-10  4.750535E-10
        91  18 -1.349111E+06  7.823253E+04  2.536594E+05 -7.897504E+05  1.542963E-09  1.308393E-10
        91  19 -4.482228E+06 -1.542497E+06 -9.647532E+05 -1.569480E+06  3.645883E+05  1.160413E+05
        91  20 -4.348921E+06 -9.978774E+05 -6.231666E+05 -1.570089E+06  2.397060E+05  2.243138E+04
        91  21 -4.353111E+06 -9.526626E+05 -5.095801E+05 -1.509222E+06  9.858021E+04 -2.853608E+04
        91  22 -2.907287E+06 -8.146101E+05 -5.102493E+05 -1.006843E+06  3.307463E+05  1.032706E+05
        91  23 -2.813561E+06 -3.788967E+05 -2.146430E+05 -1.109027E+06  2.293953E+05  1.855151E+04
        91  24 -2.852204E+06 -4.372389E+05 -1.278564E+05 -1.149862E+06  1.118362E+05 -2.352080E+04
        91  25 -1.329900E+06 -8.620998E+04 -5.598466E+04 -4.427889E+05  2.968084E+05  9.044579E+04
        91  26 -1.275890E+06  2.403253E+05  1.936739E+05 -6.468933E+05  2.190559E+05  1.465910E+04
        91  27 -1.349094E+06  7.823711E+04  2.536896E+05 -7.897523E+05  1.251275E+05 -1.849499E+04
        92   1 -4.155984E+06 -9.996153E+05 -4.517442E+05 -1.496395E+06 -9.020853E+04  2.167967E+04
        92   2 -4.060702E+06 -8.790454E+05 -3.669107E+05 -1.436055E+06 -6.149172E+04  2.966325E+04
        92   3 -3.926037E+06 -8.603352E+05 -3.144729E+05 -1.430770E+06 -3.162560E+04  3.457910E+04
        92   4 -2.834036E+06 -4.895369E+05 -1.035351E+05 -1.122846E+06 -9.085943E+04  2.142338E+04
        92   5 -2.851212E+06 -4.203611E+05 -5.060834E+04 -1.102238E+06 -6.380010E+04  2.878565E+04
        92   6 -2.828648E+06 -4.526513E+05 -2.870212E+04 -1.136693E+06 -3.559805E+04  3.308014E+04
        92   7 -1.510385E+06  2.067211E+04  2.445225E+05 -7.485650E+05 -9.151170E+04  2.116655E+04
        92   8 -1.640293E+06  3.842060E+04  2.655698E+05 -7.678288E+05 -6.611337E+04  2.790619E+04
        92   9 -1.730081E+06 -4.489897E+04  2.569684E+05 -8.421457E+05 -3.957823E+04  3.157837E+04
        92  10 -4.155993E+06 -9.996180E+05 -4.517605E+05 -1.496394E+06  6.773450E-10 -7.661245E-11
        92  11 -4.060706E+06 -8.790474E+05 -3.669195E+05 -1.436053E+06 -2.614373E-10 -8.013086E-10
        92  12 -3.926038E+06 -8.603368E+05 -3.144771E+05 -1.430769E+06 -2.187352E-10  3.460943E-10
        92  13 -2.834045E+06 -4.895396E+05 -1.035515E+05 -1.122844E+06  1.520883E-09  3.985146E-10
        92  14 -2.851216E+06 -4.203631E+05 -5.061757E+04 -1.102237E+06 -2.171990E-09 -3.465261E-10
        92  15 -2.828649E+06 -4.526529E+05 -2.870655E+04 -1.136692E+06 -2.489631E-10  2.151986E-10
        92  16 -1.510394E+06  2.066938E+04  2.445059E+05 -7.485635E+05  3.912168E-10 -5.383458E-10
        92  17 -1.640297E+06  3.841859E+04  2.655601E+05 -7.678273E+05 -3.454105E-10 -1.410845E-10
        92  18 -1.730083E+06 -4.490046E+04  2.569636E+05 -8.421446E+05  6.075779E-11  2.639983E-10
        92  19 -4.155984E+06 -9.996153E+05 -4.517442E+05 -1.496395E+06  9.020853E+04 -2.167967E+04
        92  20 -4.060702E+06 -8.790454E+05 -3.669107E+05 -1.436055E+06  6.149172E+04 -2.966325E+04
        92  21 -3.926037E+06 -8.603352E+05 -3.144729E+05 -1.430770E+06  3.162560E+04 -3.457910E+04
        92  22 -2.834036E+06 -4.895369E+05 -1.035351E+05 -1.122846E+06  9.085943E+04 -2.142338E+04
        92  23 -2.851212E+06 -4.203611E+05 -5.060834E+04 -1.102238E+06  6.380010E+04 -2.878565E+04
        92  24 -2.828648E+06 -4.526513E+05 -2.870212E+04 -1.136693E+06  3.559805E+04 -3.308014E+04
        92  25 -1.510385E+06  2.067211E+04  2.445225E+05 -7.485650E+05  9.151170E+04 -2.116655E+04
        92  26 -1.640293E+06  3.842060E+04  2.655698E+05 -7.678288E+05  6.611337E+04 -2.790619E+04
        92  27 -1.730081E+06 -4.489897E+04  2.569684E+05 -8.421457E+05  3.957823E+04 -3.157837E+04
        93   1 -3.767800E+06 -8.137947E+05 -2.678873E+05 -1.393122E+06 -2.687060E+04  3.199294E+04
        93   2 -3.668435E+06 -7.281011E+05 -2.236067E+05 -1.321351E+06 -1.851058E+04  2.840657E+04
        93   3 -3.507004E+06 -7.104137E+05 -1.849130E+05 -1.321565E+06 -1.002469E+04  2.445603E+04
        93   4 -2.825534E+06 -4.587849E+05 -2.230840E+04 -1.135306E+06 -3.007997E+04  3.078322E+04
        93   5 -2.856281E+06 -4.229104E+05 -1.179320E+04 -1.100012E+06 -2.191375E+04  2.712719E+04
        93   6 -2.824940E+06 -4.549932E+05 -6.702609E+03 -1.136702E+06 -1.362320E+04  2.310675E+04
        93   7 -1.882402E+06 -1.037187E+05  2.231956E+05 -8.771344E+05 -3.329469E+04  2.957148E+04
        93   8 -2.043485E+06 -1.176792E+05  1.999643E+05 -8.784101E+05 -2.532182E+04  2.584598E+04
        93   9 -2.142425E+06 -1.995457E+05  1.714678E+05 -9.516549E+05 -1.722605E+04  2.175585E+04
        93  10 -3.767801E+06 -8.137960E+05 -2.678906E+05 -1.393121E+06  1.608183E-09  1.010926E-10
        93  11 -3.668436E+06 -7.281021E+05 -2.236089E+05 -1.321351E+06 -1.451384E-09 -2.956942E-10
        93  12 -3.507005E+06 -7.104144E+05 -1.849143E+05 -1.321565E+06 -2.195262E-09  1.599983E-10
        93  13 -2.825536E+06 -4.587862E+05 -2.231188E+04 -1.135305E+06 -1.123659E-09  7.154087E-11
        93  14 -2.856282E+06 -4.229113E+05 -1.179549E+04 -1.100012E+06 -2.818824E-09  1.735251E-10
        93  15 -2.824940E+06 -4.549938E+05 -6.703959E+03 -1.136701E+06 -2.903959E-09  2.971954E-10
        93  16 -1.882403E+06 -1.037199E+05  2.231919E+05 -8.771336E+05 -7.814270E-11  4.522327E-10
        93  17 -2.043486E+06 -1.176801E+05  1.999618E+05 -8.784096E+05  2.184291E-11  4.814112E-10
        93  18 -2.142425E+06 -1.995463E+05  1.714664E+05 -9.516546E+05 -8.785369E-10  6.227410E-10
        93  19 -3.767800E+06 -8.137947E+05 -2.678873E+05 -1.393122E+06  2.687060E+04 -3.199294E+04
        93  20 -3.668435E+06 -7.281011E+05 -2.236067E+05 -1.321351E+06  1.851058E+04 -2.840657E+04
        93  21 -3.507004E+06 -7.104137E+05 -1.849130E+05 -1.321565E+06  1.002469E+04 -2.445603E+04
        93  22 -2.825534E+06 -4.587849E+05 -2.230840E+04 -1.135306E+06  3.007997E+04 -3.078322E+04
        93  23 -2.856281E+06 -4.229104E+05 -1.179320E+04 -1.100012E+06  2.191375E+04 -2.712719E+04
        93  24 -2.824940E+06 -4.549932E+05 -6.702609E+03 -1.136702E+06  1.362320E+04 -2.310675E+04
        93  25 -1.882402E+06 -1.037187E+05  2.231956E+05 -8.771344E+05  3.329469E+04 -2.957148E+04
        93  26 -2.043485E+06 -1.176792E+05  1.999643E+05 -8.784101E+05  2.532182E+04 -2.584598E+04
        93  27 -2.142425E+06 -1.995457E+05  1.714678E+05 -9.516549E+05  1.722605E+04 -2.175585E+04
        94   1 -3.343052E+06 -6.508479E+05 -1.400677E+05 -1.278480E+06 -7.655473E+03  2.106781E+04
        94   2 -3.238490E+06 -5.650677E+05 -1.026246E+05 -1.202395E+06 -3.522833E+03  1.524803E+04
        94   3 -3.067057E+06 -5.468937E+05 -6.656139E+04 -1.203379E+06  6.398893E+02  9.332775E+03
        94   4 -2.824012E+06 -4.562344E+05 -5.282586E+03 -1.137313E+06 -1.124400E+04  1.972393E+04
        94   5 -2.857392E+06 -4.222072E+05 -3.321884E+03 -1.098856E+06 -7.163306E+03  1.388624E+04
        94   6 -2.823916E+06 -4.557745E+05 -2.698767E+03 -1.137471E+06 -3.053005E+03  7.953046E+03
        94   7 -2.304707E+06 -2.616033E+05  1.294807E+05 -9.960391E+05 -1.483585E+04  1.837882E+04
        94   8 -2.476153E+06 -2.793382E+05  9.596848E+04 -9.952595E+05 -1.080623E+04  1.252354E+04
        94   9 -2.580719E+06 -3.646527E+05  6.115824E+04 -1.071541E+06 -6.747459E+03  6.572735E+03
        94  10 -3.343052E+06 -6.508484E+05 -1.400686E+05 -1.278480E+06 -3.750830E-10  3.144525E-10
        94  11 -3.238490E+06 -5.650680E+05 -1.026251E+05 -1.202395E+06 -2.051775E-09 -1.877533E-09
        94  12 -3.067057E+06 -5.468938E+05 -6.656155E+04 -1.203379E+06 -1.978674E-09 -1.254247E-09
        94  13 -2.824013E+06 -4.562349E+05 -5.283553E+03 -1.137313E+06 -2.219148E-09  3.770487E-10
        94  14 -2.857392E+06 -4.222075E+05 -3.322343E+03 -1.098856E+06 -1.621605E-09 -1.069900E-09
        94  15 -2.823916E+06 -4.557746E+05 -2.698903E+03 -1.137471E+06 -1.694250E-09 -3.384442E-10
        94  16 -2.304707E+06 -2.616037E+05  1.294797E+05 -9.960389E+05 -3.094201E-09 -6.662613E-11
        94  17 -2.476153E+06 -2.793384E+05  9.596796E+04 -9.952594E+05 -5.936315E-10 -4.204601E-10
        94  18 -2.580720E+06 -3.646527E+05  6.115807E+04 -1.071541E+06 -1.975166E-10  1.371221E-10
        94  19 -3.343052E+06 -6.508479E+05 -1.400677E+05 -1.278480E+06  7.655473E+03 -2.106781E+04
        94  20 -3.238490E+06 -5.650677E+05 -1.026246E+05 -1.202395E+06  3.522833E+03 -1.524803E+04
        94  21 -3.067057E+06 -5.468937E+05 -6.656139E+04 -1.203379E+06 -6.398893E+02 -9.332775E+03
        94  22 -2.824012E+06 -4.562344E+05 -5.282586E+03 -1.137313E+06  1.124400E+04 -1.972393E+04
        94  23 -2.857392E+06 -4.222072E+05 -3.321884E+03 -1.098856E+06  7.163306E+03 -1.388624E+04
        94  24 -2.823916E+06 -4.557745E+05 -2.698767E+03 -1.137471E+06  3.053005E+03 -7.953046E+03
        94  25 -2.304707E+06 -2.616033E+05  1.294807E+05 -9.960391E+05  1.483585E+04 -1.837882E+04
        94  26 -2.476153E+06 -2.793382E+05  9.596848E+04 -9.952595E+05  1.080623E+04 -1.252354E+04
        94  27 -2.580719E+06 -3.646527E+05  6.115824E+04 -1.071541E+06  6.747459E+03 -6.572735E+03
        95   1 -2.898565E+06 -4.840017E+05 -2.174255E+04 -1.158147E+06  2.540691E+03  5.651775E+03
        95   2 -2.792407E+06 -3.975036E+05  1.333908E+04 -1.080888E+06  6.812354E+03 -2.843402E+02
        95   3 -2.618685E+06 -3.795726E+05  4.692240E+04 -1.081819E+06  1.107612E+04 -6.194951E+03
        95   4 -2.823747E+06 -4.559854E+05 -2.766363E+03 -1.137717E+06 -1.164803E+03  4.267805E+03
        95   5 -2.857547E+06 -4.218819E+05 -3.622749E+03 -1.098551E+06  3.120397E+03 -1.663595E+03
        95   6 -2.823803E+06 -4.563502E+05 -5.986803E+03 -1.137583E+06  7.397237E+03 -7.569581E+03
        95   7 -2.748923E+06 -4.279686E+05  1.620951E+04 -1.117285E+06 -4.870803E+03  2.883645E+03
        95   8 -2.922683E+06 -4.462602E+05 -2.058501E+04 -1.116211E+06 -5.711606E+02 -3.042701E+03
        95   9 -3.028881E+06 -5.331261E+05 -5.890003E+04 -1.193330E+06  3.719650E+03 -8.943727E+03
        95  10 -2.898565E+06 -4.840017E+05 -2.174262E+04 -1.158147E+06 -2.435831E-09 -8.375755E-10
        95  11 -2.792407E+06 -3.975036E+05  1.333899E+04 -1.080888E+06  1.101471E-09 -1.109341E-09
        95  12 -2.618685E+06 -3.795727E+05  4.692210E+04 -1.081819E+06 -1.908280E-09 -6.014705E-10
        95  13 -2.823747E+06 -4.559854E+05 -2.766399E+03 -1.137717E+06 -6.784680E-10 -6.717775E-10
        95  14 -2.857547E+06 -4.218820E+05 -3.622773E+03 -1.098551E+06 -1.476247E-09 -1.571735E-09
        95  15 -2.823803E+06 -4.563503E+05 -5.987013E+03 -1.137583E+06 -3.030902E-09 -8.454075E-10
        95  16 -2.748923E+06 -4.279686E+05  1.620945E+04 -1.117285E+06 -2.959732E-09 -1.230591E-09
        95  17 -2.922683E+06 -4.462602E+05 -2.058503E+04 -1.116211E+06 -3.030151E-09 -1.348898E-09
        95  18 -3.028881E+06 -5.331262E+05 -5.890021E+04 -1.193330E+06 -7.993344E-10 -9.907090E-10
        95  19 -2.898565E+06 -4.840017E+05 -2.174255E+04 -1.158147E+06 -2.540691E+03 -5.651775E+03
        95  20 -2.792407E+06 -3.975036E+05  1.333908E+04 -1.080888E+06 -6.812354E+03  2.843402E+02
        95  21 -2.618685E+06 -3.795726E+05  4.692240E+04 -1.081819E+06 -1.107612E+04  6.194951E+03
        95  22 -2.823747E+06 -4.559854E+05 -2.766363E+03 -1.137717E+06  1.164803E+03 -4.267805E+03
        95  23 -2.857547E+06 -4.218819E+05 -3.622749E+03 -1.098551E+06 -3.120397E+03  1.663595E+03
        95  24 -2.823803E+06 -4.563502E+05 -5.986803E+03 -1.137583E+06 -7.397237E+03  7.569581E+03
        95  25 -2.748923E+06 -4.279686E+05  1.620951E+04 -1.117285E+06  4.870803E+03 -2.883645E+03
        95  26 -2.922683E+06 -4.462602E+05 -2.058501E+04 -1.116211E+06  5.711606E+02  3.042701E+03
        95  27 -3.028881E+06 -5.331261E+05 -5.890003E+04 -1.193330E+06 -3.719650E+03  8.943727E+03
        96   1 -2.451600E+06 -3.163701E+05  8.981142E+04 -1.036949E+06  1.365822E+04 -9.614513E+03
        96   2 -2.347930E+06 -2.310487E+05  1.190021E+05 -9.606454E+05  2.277353E+04 -1.359246E+04
        96   3 -2.180327E+06 -2.170495E+05  1.419260E+05 -9.595401E+05  3.179684E+04 -1.729916E+04
        96   4 -2.824435E+06 -4.554719E+05 -7.686349E+03 -1.137491E+06  9.952265E+03 -1.100007E+04
        96   5 -2.856700E+06 -4.219016E+05 -1.353015E+04 -1.099110E+06  1.921248E+04 -1.492597E+04
        96   6 -2.825078E+06 -4.596893E+05 -2.575880E+04 -1.135936E+06  2.837907E+04 -1.858105E+04
        96   7 -3.197131E+06 -5.945642E+05 -1.051949E+05 -1.237978E+06  6.248795E+03 -1.238472E+04
        96   8 -3.365215E+06 -6.127374E+05 -1.460835E+05 -1.237470E+06  1.565466E+04 -1.625826E+04
        96   9 -3.469424E+06 -7.023024E+05 -1.934782E+05 -1.312166E+06  2.496519E+04 -1.986147E+04
        96  10 -2.451600E+06 -3.163703E+05  8.981089E+04 -1.036949E+06 -1.901802E-09  8.295891E-11
        96  11 -2.347931E+06 -2.310491E+05  1.190008E+05 -9.606451E+05 -3.875097E-10  8.944672E-10
        96  12 -2.180328E+06 -2.170501E+05  1.419235E+05 -9.595397E+05  3.114654E-10 -1.042195E-09
        96  13 -2.824435E+06 -4.554720E+05 -7.686762E+03 -1.137491E+06 -2.995864E-09  9.435516E-11
        96  14 -2.856700E+06 -4.219019E+05 -1.353127E+04 -1.099109E+06 -3.359212E-09 -8.680886E-10
        96  15 -2.825079E+06 -4.596899E+05 -2.576096E+04 -1.135936E+06  1.325797E-11 -6.945210E-10
        96  16 -3.197131E+06 -5.945644E+05 -1.051952E+05 -1.237978E+06 -7.255263E-10 -7.265162E-10
        96  17 -3.365216E+06 -6.127378E+05 -1.460844E+05 -1.237470E+06 -1.763722E-09 -1.534001E-09
        96  18 -3.469424E+06 -7.023030E+05 -1.934802E+05 -1.312166E+06 -1.705115E-09 -5.720935E-10
        96  19 -2.451600E+06 -3.163701E+05  8.981142E+04 -1.036949E+06 -1.365822E+04  9.614513E+03
        96  20 -2.347930E+06 -2.310487E+05  1.190021E+05 -9.606454E+05 -2.277353E+04  1.359246E+04
        96  21 -2.180327E+06 -2.170495E+05  1.419260E+05 -9.595401E+05 -3.179684E+04  1.729916E+04
        96  22 -2.824435E+06 -4.554719E+05 -7.686349E+03 -1.137491E+06 -9.952265E+03  1.100007E+04
        96  23 -2.856700E+06 -4.219016E+05 -1.353015E+04 -1.099110E+06 -1.921248E+04  1.492597E+04
        96  24 -2.825078E+06 -4.596893E+05 -2.575880E+04 -1.135936E+06 -2.837907E+04  1.858105E+04
        96  25 -3.197131E+06 -5.945642E+05 -1.051949E+05 -1.237978E+06 -6.248795E+03  1.238472E+04
        96  26 -3.365215E+06 -6.127374E+05 -1.460835E+05 -1.237470E+06 -1.565466E+04  1.625826E+04
        96  27 -3.469424E+06 -7.023024E+05 -1.934782E+05 -1.312166E+06 -2.496519E+04  1.986147E+04
        97   1 -2.018334E+06 -1.553710E+05  1.770597E+05 -9.240014E+05  3.868807E+04 -1.926055E+04
        97   2 -1.920781E+06 -6.523225E+04  1.846951E+05 -8.435684E+05  6.964628E+04 -1.444284E+04
        97   3 -1.782611E+06 -8.747744E+04  1.574592E+05 -8.219603E+05  9.963145E+04 -6.982925E+03
        97   4 -2.828168E+06 -4.532124E+05 -3.318106E+04 -1.138203E+06  3.459242E+04 -2.079803E+04
        97   5 -2.851389E+06 -4.181127E+05 -5.838594E+04 -1.100829E+06  6.698348E+04 -1.544732E+04
        97   6 -2.834326E+06 -4.957444E+05 -1.196448E+05 -1.122292E+06  9.839460E+04 -7.455812E+03
        97   7 -3.637368E+06 -7.510212E+05 -2.434774E+05 -1.352155E+06  3.050262E+04 -2.233342E+04
        97   8 -3.781154E+06 -7.709357E+05 -3.015408E+05 -1.357739E+06  6.432501E+04 -1.645013E+04
        97   9 -3.884963E+06 -9.039232E+05 -3.968441E+05 -1.422154E+06  9.715994E+04 -7.927820E+03
        97  10 -2.018335E+06 -1.553718E+05  1.770562E+05 -9.240008E+05 -1.489847E-11 -1.160013E-09
        97  11 -1.920786E+06 -6.523378E+04  1.846856E+05 -8.435676E+05 -2.428263E-09 -5.053997E-10
        97  12 -1.782622E+06 -8.748016E+04  1.574404E+05 -8.219598E+05 -2.396680E-09 -6.208641E-10
        97  13 -2.828170E+06 -4.532132E+05 -3.318413E+04 -1.138203E+06 -2.776772E-09 -1.004011E-09
        97  14 -2.851394E+06 -4.181142E+05 -5.839484E+04 -1.100828E+06 -4.544361E-09 -9.766354E-10
        97  15 -2.834336E+06 -4.957471E+05 -1.196632E+05 -1.122291E+06 -1.744510E-09  1.359280E-10
        97  16 -3.637369E+06 -7.510220E+05 -2.434801E+05 -1.352155E+06 -1.207834E-09 -7.906375E-10
        97  17 -3.781159E+06 -7.709371E+05 -3.015491E+05 -1.357738E+06 -4.309151E-11 -1.282068E-09
        97  18 -3.884973E+06 -9.039258E+05 -3.968620E+05 -1.422154E+06 -1.393426E-09  4.106864E-10
        97  19 -2.018334E+06 -1.553710E+05  1.770597E+05 -9.240014E+05 -3.868807E+04  1.926055E+04
        97  20 -1.920781E+06 -6.523225E+04  1.846951E+05 -8.435684E+05 -6.964628E+04  1.444284E+04
        97  21 -1.782611E+06 -8.747744E+04  1.574592E+05 -8.219603E+05 -9.963145E+04  6.982925E+03
        97  22 -2.828168E+06 -4.532124E+05 -3.318106E+04 -1.138203E+06 -3.459242E+04  2.079803E+04
        97  23 -2.851389E+06 -4.181127E+05 -5.838594E+04 -1.100829E+06 -6.698348E+04  1.544732E+04
        97  24 -2.834326E+06 -4.957444E+05 -1.196448E+05 -1.122292E+06 -9.839460E+04  7.455812E+03
        97  25 -3.637368E+06 -7.510212E+05 -2.434774E+05 -1.352155E+06 -3.050262E+04  2.233342E+04
        97  26 -3.781154E+06 -7.709357E+05 -3.015408E+05 -1.357739E+06 -6.432501E+04  1.645013E+04
        97  27 -3.884963E+06 -9.039232E+05 -3.968441E+05 -1.422154E+06 -9.715994E+04  7.927820E+03
        98   1 -1.603763E+06 -2.461128E+04  1.665480E+05 -8.729817E+05  1.341963E+05 -3.488017E+03
        98   2 -1.520113E+06  1.600119E+05  9.627834E+04 -7.097456E+05  2.497447E+05  3.662426E+04
        98   3 -1.587409E+06 -2.206595E+05 -1.989003E+05 -4.749614E+05  3.512999E+05  1.138526E+05
        98   4 -2.854785E+06 -4.359072E+05 -1.477645E+05 -1.154194E+06  1.219565E+05 -8.089081E+03
        98   5 -2.808581E+06 -3.691927E+05 -2.478665E+05 -1.107676E+06  2.580291E+05  3.972083E+04
        98   6 -2.917867E+06 -8.725865E+05 -5.895756E+05 -9.895145E+05  3.800807E+05  1.246323E+05
        98   7 -4.104277E+06 -8.471878E+05 -4.621957E+05 -1.434931E+06  1.097438E+05 -1.268292E+04
        98   8 -4.095421E+06 -8.982033E+05 -5.921571E+05 -1.504825E+06  2.662942E+05  4.280856E+04
        98   9 -4.246552E+06 -1.524025E+06 -9.804209E+05 -1.502949E+06  4.087929E+05  1.353687E+05
        98  10 -1.603783E+06 -2.461614E+04  1.665140E+05 -8.729813E+05 -1.473235E-09 -3.313925E-10
        98  11 -1.520180E+06  1.599936E+05  9.615827E+04 -7.097530E+05 -4.016056E-09  2.050544E-12
        98  12 -1.587545E+06 -2.207067E+05 -1.991573E+05 -4.749937E+05 -2.185631E-09 -1.102935E-09
        98  13 -2.854801E+06 -4.359113E+05 -1.477927E+05 -1.154193E+06 -1.443022E-09 -1.368481E-10
        98  14 -2.808653E+06 -3.692124E+05 -2.479952E+05 -1.107684E+06 -4.501081E-09  7.571539E-10
        98  15 -2.918026E+06 -8.726423E+05 -5.898779E+05 -9.895528E+05  7.012667E-10 -2.462545E-10
        98  16 -4.104290E+06 -8.471912E+05 -4.622188E+05 -1.434930E+06 -1.267264E-09  1.623402E-10
        98  17 -4.095498E+06 -8.982245E+05 -5.922947E+05 -1.504834E+06 -4.330842E-11 -1.361652E-09
        98  18 -4.246737E+06 -1.524090E+06 -9.807721E+05 -1.502994E+06  4.360745E-10 -3.076888E-10
        98  19 -1.603763E+06 -2.461128E+04  1.665480E+05 -8.729817E+05 -1.341963E+05  3.488017E+03
        98  20 -1.520113E+06  1.600119E+05  9.627834E+04 -7.097456E+05 -2.497447E+05 -3.662426E+04
        98  21 -1.587409E+06 -2.206595E+05 -1.989003E+05 -4.749614E+05 -3.512999E+05 -1.138526E+05
        98  22 -2.854785E+06 -4.359072E+05 -1.477645E+05 -1.154194E+06 -1.219565E+05  8.089081E+03
        98  23 -2.808581E+06 -3.691927E+05 -2.478665E+05 -1.107676E+06 -2.580291E+05 -3.972083E+04
        98  24 -2.917867E+06 -8.725865E+05 -5.895756E+05 -9.895145E+05 -3.800807E+05 -1.246323E+05
        98  25 -4.104277E+06 -8.471878E+05 -4.621957E+05 -1.434931E+06 -1.097438E+05  1.268292E+04
        98  26 -4.095421E+06 -8.982033E+05 -5.921571E+05 -1.504825E+06 -2.662942E+05 -4.280856E+04
        98  27 -4.246552E+06 -1.524025E+06 -9.804209E+05 -1.502949E+06 -4.087929E+05 -1.353687E+05
        99   1 -1.644780E+06 -2.673448E+05 -2.380565E+05 -2.559636E+04  5.220636E+04  1.624772E+04
        99   2 -1.554824E+06 -3.455592E+05 -2.659397E+05 -1.639128E+04  4.434994E+04  4.915701E+04
        99   3 -1.434629E+06 -3.143115E+05 -2.610001E+05 -7.208794E+04  3.658688E+04  4.746220E+04
        99   4 -1.865454E+05  9.609985E+04  1.205520E+05 -5.724601E+04  8.241894E+04  1.632838E+04
        99   5 -2.034069E+05 -1.123497E+04  5.308644E+04 -2.467108E+04  5.378882E+04  4.916971E+04
        99   6 -1.864930E+05 -5.626461E+03  3.282075E+04 -5.698694E+04  2.525476E+04  4.743978E+04
        99   7  1.273633E+06  4.593908E+05  4.790079E+05 -8.897158E+04  1.127023E+05  1.640586E+04
        99   8  1.149693E+06  3.229588E+05  3.719868E+05 -3.296993E+04  6.324807E+04  4.918214E+04
        99   9  1.063079E+06  3.029481E+05  3.265350E+05 -4.185581E+04  1.389990E+04  4.741683E+04
        99  10 -1.644783E+06 -2.673458E+05 -2.380621E+05 -2.559704E+04  1.354281E-09  1.100607E-10
        99  11 -1.554827E+06 -3.455623E+05 -2.659480E+05 -1.639304E+04  1.493613E-09 -1.805743E-09
        99  12 -1.434631E+06 -3.143143E+05 -2.610068E+05 -7.208934E+04 -4.059123E-10 -1.186092E-09
        99  13 -1.865527E+05  9.609774E+04  1.205387E+05 -5.724710E+04 -1.073376E-09 -9.525324E-10
        99  14 -2.034106E+05 -1.123834E+04  5.307645E+04 -2.467321E+04 -3.067934E-09 -6.354568E-10
        99  15 -1.864943E+05 -5.629049E+03  3.281532E+04 -5.698790E+04 -5.740599E-11 -1.191966E-09
        99  16  1.273619E+06  4.593871E+05  4.789835E+05 -8.897307E+04 -8.909534E-10  1.164194E-09
        99  17  1.149689E+06  3.229551E+05  3.719747E+05 -3.297243E+04 -1.995940E-09 -1.102018E-09
        99  18  1.063079E+06  3.029457E+05  3.265304E+05 -4.185634E+04 -1.631314E-10 -1.121683E-09
        99  19 -1.644780E+06 -2.673448E+05 -2.380565E+05 -2.559636E+04 -5.220636E+04 -1.624772E+04
        99  20 -1.554824E+06 -3.455592E+05 -2.659397E+05 -1.639128E+04 -4.434994E+04 -4.915701E+04
        99  21 -1.434629E+06 -3.143115E+05 -2.610001E+05 -7.208794E+04 -3.658688E+04 -4.746220E+04
        99  22 -1.865454E+05  9.609985E+04  1.205520E+05 -5.724601E+04 -8.241894E+04 -1.632838E+04
        99  23 -2.034069E+05 -1.123497E+04  5.308644E+04 -2.467108E+04 -5.378882E+04 -4.916971E+04
        99  24 -1.864930E+05 -5.626461E+03  3.282075E+04 -5.698694E+04 -2.525476E+04 -4.743978E+04
        99  25  1.273633E+06  4.593908E+05  4.790079E+05 -8.897158E+04 -1.127023E+05 -1.640586E+04
        99  26  1.149693E+06  3.229588E+05  3.719868E+05 -3.296993E+04 -6.324807E+04 -4.918214E+04
        99  27  1.063079E+06  3.029481E+05  3.265350E+05 -4.185581E+04 -1.389990E+04 -4.741683E+04
       100   1 -1.322924E+06 -2.712215E+05 -2.404760E+05 -5.560400E+04  2.106968E+04  4.014296E+04
       100   2 -1.219659E+06 -2.546975E+05 -2.279072E+05 -2.408991E+04  1.535346E+04  3.771202E+04
       100   3 -1.112134E+06 -2.279916E+05 -2.088599E+05 -5.875994E+04  9.630193E+03  3.318454E+04
       100   4 -1.929315E+05  8.389011E+03  2.659992E+04 -5.735098E+04  2.027013E+04  4.013704E+04
       100   5 -1.951382E+05 -1.298906E+03  1.370815E+04 -2.425834E+04  1.328660E+04  3.770647E+04
       100   6 -1.928832E+05 -5.937433E+02  8.166803E+03 -5.734278E+04  6.296976E+03  3.318093E+04
       100   7  9.382373E+05  2.879080E+05  2.935875E+05 -5.910145E+04  1.946911E+04  4.013113E+04
       100   8  8.303495E+05  2.520246E+05  2.552511E+05 -2.442719E+04  1.121633E+04  3.770094E+04
       100   9  7.271458E+05  2.267436E+05  2.251351E+05 -5.592348E+04  2.958838E+03  3.317731E+04
       100  10 -1.322925E+06 -2.712234E+05 -2.404799E+05 -5.560468E+04 -9.988690E-10 -6.586617E-10
       100  11 -1.219660E+06 -2.546991E+05 -2.279103E+05 -2.409037E+04  3.885232E-09  5.384053E-10
       100  12 -1.112134E+06 -2.279928E+05 -2.088621E+05 -5.876020E+04  6.090837E-09  1.069480E-09
       100  13 -1.929323E+05  8.387171E+03  2.659612E+04 -5.735164E+04  1.112787E-09 -1.282096E-09
       100  14 -1.951387E+05 -1.300480E+03  1.370514E+04 -2.425874E+04 -2.322024E-11  9.913202E-10
       100  15 -1.928835E+05 -5.949361E+02  8.164660E+03 -5.734294E+04 -2.280040E-12  5.910538E-10
       100  16  9.382364E+05  2.879061E+05  2.935837E+05 -5.910208E+04  2.216010E-09 -5.391683E-10
       100  17  8.303490E+05  2.520230E+05  2.552482E+05 -2.442753E+04 -5.105979E-09 -4.362196E-10
       100  18  7.271455E+05  2.267424E+05  2.251330E+05 -5.592356E+04 -4.604300E-09  3.822059E-10
       100  19 -1.322924E+06 -2.712215E+05 -2.404760E+05 -5.560400E+04 -2.106968E+04 -4.014296E+04
       100  20 -1.219659E+06 -2.546975E+05 -2.279072E+05 -2.408991E+04 -1.535346E+04 -3.771202E+04
       100  21 -1.112134E+06 -2.279916E+05 -2.088599E+05 -5.875994E+04 -9.630193E+03 -3.318454E+04
       100  22 -1.929315E+05  8.389011E+03  2.659992E+04 -5.735098E+04 -2.027013E+04 -4.013704E+04
       100  23 -1.951382E+05 -1.298906E+03  1.370815E+04 -2.425834E+04 -1.328660E+04 -3.770647E+04
       100  24 -1.928832E+05 -5.937433E+02  8.166803E+03 -5.734278E+04 -6.296976E+03 -3.318093E+04
       100  25  9.382373E+05  2.879080E+05  2.935875E+05 -5.910145E+04 -1.946911E+04 -4.013113E+04
       100  26  8.303495E+05  2.520246E+05  2.552511E+05 -2.442719E+04 -1.121633E+04 -3.770094E+04
       100  27  7.271458E+05  2.267436E+05  2.251351E+05 -5.592348E+04 -2.958838E+03 -3.317731E+04
       101   1 -9.942459E+05 -1.973008E+05 -1.821669E+05 -5.722588E+04  7.715935E+03  3.016520E+04
       101   2 -8.887032E+05 -1.719688E+05 -1.602671E+05 -2.392552E+04  6.039949E+03  2.558445E+04
       101   3 -7.823619E+05 -1.456216E+05 -1.369535E+05 -5.718755E+04  4.357631E+03  2.087110E+04
       101   4 -1.936427E+05  6.333477E+02  6.339629E+03 -5.742941E+04  5.014620E+03  3.016299E+04
       101   5 -1.940267E+05 -1.880128E+02  3.517176E+03 -2.415060E+04  3.256902E+03  2.558386E+04
       101   6 -1.936088E+05  2.002460E+01  2.164536E+03 -5.742959E+04  1.493134E+03  2.087223E+04
       101   7  6.075510E+05  1.985217E+05  1.948020E+05 -5.763315E+04  2.309834E+03  3.016080E+04
       101   8  5.010943E+05  1.715582E+05  1.672682E+05 -2.437587E+04  4.707528E+02  2.558328E+04
       101   9  3.954633E+05  1.456369E+05  1.412586E+05 -5.767177E+04 -1.374067E+03  2.087337E+04
       101  10 -9.942463E+05 -1.973018E+05 -1.821687E+05 -5.722607E+04 -5.209830E-09  1.191669E-09
       101  11 -8.887034E+05 -1.719695E+05 -1.602684E+05 -2.392564E+04 -5.162341E-09  1.330019E-10
       101  12 -7.823621E+05 -1.456221E+05 -1.369543E+05 -5.718762E+04 -1.635639E-10 -1.090703E-09
       101  13 -1.936430E+05  6.323641E+02  6.337872E+03 -5.742953E+04 -3.435188E-13  5.928742E-10
       101  14 -1.940269E+05 -1.887185E+02  3.515926E+03 -2.415066E+04  5.665287E-10  8.332306E-10
       101  15 -1.936089E+05  1.955623E+01  2.163713E+03 -5.742961E+04 -3.338503E-10 -1.469568E-10
       101  16  6.075508E+05  1.985207E+05  1.948003E+05 -5.763321E+04  6.251004E-09  9.478458E-10
       101  17  5.010941E+05  1.715575E+05  1.672669E+05 -2.437588E+04  3.606962E-09  5.405471E-10
       101  18  3.954632E+05  1.456364E+05  1.412578E+05 -5.767175E+04 -9.278133E-10 -8.354816E-10
       101  19 -9.942459E+05 -1.973008E+05 -1.821669E+05 -5.722588E+04 -7.715935E+03 -3.016520E+04
       101  20 -8.887032E+05 -1.719688E+05 -1.602671E+05 -2.392552E+04 -6.039949E+03 -2.558445E+04
       101  21 -7.823619E+05 -1.456216E+05 -1.369535E+05 -5.718755E+04 -4.357631E+03 -2.087110E+04
       101  22 -1.936427E+05  6.333477E+02  6.339629E+03 -5.742941E+04 -5.014620E+03 -3.016299E+04
       101  23 -1.940267E+05 -1.880128E+02  3.517176E+03 -2.415060E+04 -3.256902E+03 -2.558386E+04
       101  24 -1.936088E+05  2.002460E+01  2.164536E+03 -5.742959E+04 -1.493134E+03 -2.087223E+04
       101  25  6.075510E+05  1.985217E+05  1.948020E+05 -5.763315E+04 -2.309834E+03 -3.016080E+04
       101  26  5.010943E+05  1.715582E+05  1.672682E+05 -2.437587E+04 -4.707528E+02 -2.558328E+04
       101  27  3.954633E+05  1.456369E+05  1.412586E+05 -5.767177E+04  1.374067E+03 -2.087337E+04
       102   1 -6.633450E+05 -1.159390E+05 -1.086739E+05 -5.714560E+04  3.969198E+03  1.810157E+04
       102   2 -5.570780E+05 -8.980967E+04 -8.447097E+04 -2.379455E+04  3.392076E+03  1.337714E+04
       102   3 -4.507486E+05 -6.345032E+04 -5.985342E+04 -5.721076E+04  2.811679E+03  8.641780E+03
       102   4 -1.937417E+05  1.063776E+02  1.713018E+03 -5.747550E+04  1.140196E+03  1.810352E+04
       102   5 -1.937600E+05  1.436784E+01  1.171079E+03 -2.409305E+04  5.559478E+02  1.337995E+04
       102   6 -1.937237E+05  1.547496E+02  1.049474E+03 -5.747544E+04 -3.147841E+01  8.645481E+03
       102   7  2.760648E+05  1.161360E+05  1.120848E+05 -5.780559E+04 -1.690936E+03  1.810548E+04
       102   8  1.696795E+05  8.982897E+04  8.680405E+04 -2.439169E+04 -2.281832E+03  1.338275E+04
       102   9  6.336194E+04  6.375507E+04  6.194780E+04 -5.774021E+04 -2.875807E+03  8.649184E+03
       102  10 -6.633451E+05 -1.159393E+05 -1.086746E+05 -5.714566E+04  3.440865E-10 -9.920639E-10
       102  11 -5.570780E+05 -8.980987E+04 -8.447133E+04 -2.379459E+04  6.080312E-10 -3.827417E-10
       102  12 -4.507487E+05 -6.345040E+04 -5.985357E+04 -5.721078E+04  1.577637E-09  3.522279E-10
       102  13 -1.937418E+05  1.060254E+02  1.712400E+03 -5.747551E+04 -1.113368E-09 -1.731385E-09
       102  14 -1.937601E+05  1.417553E+01  1.170742E+03 -2.409306E+04  4.995263E-10 -1.257393E-10
       102  15 -1.937237E+05  1.546693E+02  1.049333E+03 -5.747544E+04  2.688752E-10 -2.142006E-10
       102  16  2.760647E+05  1.161357E+05  1.120842E+05 -5.780556E+04  2.810803E-09 -8.763791E-10
       102  17  1.696794E+05  8.982878E+04  8.680371E+04 -2.439166E+04 -1.265981E-09 -8.497168E-10
       102  18  6.336191E+04  6.375499E+04  6.194764E+04 -5.774019E+04 -1.143642E-09 -1.098355E-09
       102  19 -6.633450E+05 -1.159390E+05 -1.086739E+05 -5.714560E+04 -3.969198E+03 -1.810157E+04
       102  20 -5.570780E+05 -8.980967E+04 -8.447097E+04 -2.379455E+04 -3.392076E+03 -1.337714E+04
       102  21 -4.507486E+05 -6.345032E+04 -5.985342E+04 -5.721076E+04 -2.811679E+03 -8.641780E+03
       102  22 -1.937417E+05  1.063776E+02  1.713018E+03 -5.747550E+04 -1.140196E+03 -1.810352E+04
       102  23 -1.937600E+05  1.436784E+01  1.171079E+03 -2.409305E+04 -5.559478E+02 -1.337995E+04
       102  24 -1.937237E+05  1.547496E+02  1.049474E+03 -5.747544E+04  3.147841E+01 -8.645481E+03
       102  25  2.760648E+05  1.161360E+05  1.120848E+05 -5.780559E+04  1.690936E+03 -1.810548E+04
       102  26  1.696795E+05  8.982897E+04  8.680405E+04 -2.439169E+04  2.281832E+03 -1.338275E+04
       102  27  6.336194E+04  6.375507E+04  6.194780E+04 -5.774021E+04  2.875807E+03 -8.649184E+03
       103   1 -3.313187E+05 -3.380206E+04 -3.101471E+04 -5.733331E+04  2.613622E+03  5.881915E+03
       103   2 -2.248502E+05 -7.648462E+03 -5.885913E+03 -2.401874E+04  1.884332E+03  1.144250E+03
       103   3 -1.184299E+05  1.879402E+04  1.973890E+04 -5.755124E+04  1.154642E+03 -3.588442E+03
       103   4 -1.937369E+05  1.441551E+02  1.091958E+03 -5.749371E+04 -2.300792E+02  5.885933E+03
       103   5 -1.937058E+05  4.998904E+01  1.454008E+03 -2.407021E+04 -9.566656E+02  1.148318E+03
       103   6 -1.937353E+05  2.446088E+02  2.310409E+03 -5.749355E+04 -1.683529E+03 -3.584283E+03
       103   7 -5.613764E+04  3.408903E+04  3.319737E+04 -5.765414E+04 -3.074407E+03  5.889952E+03
       103   8 -1.625605E+05  7.748375E+03  8.793892E+03 -2.412168E+04 -3.797805E+03  1.152386E+03
       103   9 -2.690355E+05 -1.830520E+04 -1.511843E+04 -5.743586E+04 -4.521359E+03 -3.580125E+03
       103  10 -3.313187E+05 -3.380210E+04 -3.101478E+04 -5.733332E+04 -9.531221E-10  1.339828E-09
       103  11 -2.248502E+05 -7.648464E+03 -5.885922E+03 -2.401874E+04  4.323282E-10  2.184071E-09
       103  12 -1.184299E+05  1.879401E+04  1.973887E+04 -5.755124E+04  1.565005E-09 -1.170304E-09
       103  13 -1.937369E+05  1.441178E+02  1.091893E+03 -5.749371E+04 -1.070086E-09  3.801093E-10
       103  14 -1.937058E+05  4.998738E+01  1.454004E+03 -2.407021E+04 -1.434295E-10 -5.136132E-10
       103  15 -1.937353E+05  2.445942E+02  2.310380E+03 -5.749355E+04  1.117214E-09 -5.693941E-11
       103  16 -5.613766E+04  3.408900E+04  3.319729E+04 -5.765413E+04 -7.966741E-10  2.010031E-10
       103  17 -1.625605E+05  7.748370E+03  8.793862E+03 -2.412167E+04  1.416900E-09 -3.295519E-10
       103  18 -2.690355E+05 -1.830522E+04 -1.511849E+04 -5.743587E+04 -1.807371E-09 -2.980534E-10
       103  19 -3.313187E+05 -3.380206E+04 -3.101471E+04 -5.733331E+04 -2.613622E+03 -5.881915E+03
       103  20 -2.248502E+05 -7.648462E+03 -5.885913E+03 -2.401874E+04 -1.884332E+03 -1.144250E+03
       103  21 -1.184299E+05  1.879402E+04  1.973890E+04 -5.755124E+04 -1.154642E+03  3.588442E+03
       103  22 -1.937369E+05  1.441551E+02  1.091958E+03 -5.749371E+04  2.300792E+02 -5.885933E+03
       103  23 -1.937058E+05  4.998904E+01  1.454008E+03 -2.407021E+04  9.566656E+02 -1.148318E+03
       103  24 -1.937353E+05  2.446088E+02  2.310409E+03 -5.749355E+04  1.683529E+03  3.584283E+03
       103  25 -5.613764E+04  3.408903E+04  3.319737E+04 -5.765414E+04  3.074407E+03 -5.889952E+03
       103  26 -1.625605E+05  7.748375E+03  8.793892E+03 -2.412168E+04  3.797805E+03 -1.152386E+03
       103  27 -2.690355E+05 -1.830520E+04 -1.511843E+04 -5.743586E+04  4.521359E+03  3.580125E+03
       104   1  1.203711E+03  4.830806E+04  4.918085E+04 -5.748435E+04  7.044969E+02 -6.358660E+03
       104   2  1.072921E+05  7.432094E+04  7.595146E+04 -2.435417E+04 -1.849794E+03 -1.108437E+04
       104   3  2.139737E+05  1.018411E+05  1.047309E+05 -5.801260E+04 -4.401795E+03 -1.571343E+04
       104   4 -1.936030E+05  9.868318E+01  2.958015E+03 -5.748155E+04 -2.161664E+03 -6.354678E+03
       104   5 -1.938968E+05 -1.130874E+02  4.982536E+03 -2.408561E+04 -4.657067E+03 -1.108120E+04
       104   6 -1.936175E+05  1.173482E+03  8.976523E+03 -5.748024E+04 -7.149751E+03 -1.571102E+04
       104   7 -3.883748E+05 -4.811342E+04 -4.326743E+04 -5.747874E+04 -5.026931E+03 -6.350695E+03
       104   8 -4.950022E+05 -7.455360E+04 -6.599261E+04 -2.381715E+04 -7.462986E+03 -1.107804E+04
       104   9 -6.010558E+05 -9.950599E+04 -8.678925E+04 -5.694818E+04 -9.895912E+03 -1.570862E+04
       104  10  1.203700E+03  4.830801E+04  4.918077E+04 -5.748435E+04  6.829940E-10 -1.531207E-09
       104  11  1.072921E+05  7.432081E+04  7.595122E+04 -2.435419E+04 -1.445986E-10 -1.099755E-10
       104  12  2.139736E+05  1.018408E+05  1.047304E+05 -5.801265E+04 -1.712156E-09  6.611208E-10
       104  13 -1.936030E+05  9.863856E+01  2.957930E+03 -5.748156E+04  4.081831E-11 -1.275983E-10
       104  14 -1.938968E+05 -1.132251E+02  4.982264E+03 -2.408565E+04 -1.146117E-10 -7.040046E-10
       104  15 -1.936176E+05  1.173203E+03  8.975963E+03 -5.748033E+04 -1.722372E-10  4.473699E-11
       104  16 -3.883748E+05 -4.811347E+04 -4.326755E+04 -5.747876E+04 -1.305571E-09 -1.592079E-10
       104  17 -4.950023E+05 -7.455374E+04 -6.599294E+04 -2.381722E+04  7.655058E-10  1.353140E-09
       104  18 -6.010559E+05 -9.950628E+04 -8.678990E+04 -5.694830E+04  1.043402E-09  7.432784E-10
       104  19  1.203711E+03  4.830806E+04  4.918085E+04 -5.748435E+04 -7.044969E+02  6.358660E+03
       104  20  1.072921E+05  7.432094E+04  7.595146E+04 -2.435417E+04  1.849794E+03  1.108437E+04
       104  21  2.139737E+05  1.018411E+05  1.047309E+05 -5.801260E+04  4.401795E+03  1.571343E+04
       104  22 -1.936030E+05  9.868318E+01  2.958015E+03 -5.748155E+04  2.161664E+03  6.354678E+03
       104  23 -1.938968E+05 -1.130874E+02  4.982536E+03 -2.408561E+04  4.657067E+03  1.108120E+04
       104  24 -1.936175E+05  1.173482E+03  8.976523E+03 -5.748024E+04  7.149751E+03  1.571102E+04
       104  25 -3.883748E+05 -4.811342E+04 -4.326743E+04 -5.747874E+04  5.026931E+03  6.350695E+03
       104  26 -4.950022E+05 -7.455360E+04 -6.599261E+04 -2.381715E+04  7.462986E+03  1.107804E+04
       104  27 -6.010558E+05 -9.950599E+04 -8.678925E+04 -5.694818E+04  9.895912E+03  1.570862E+04
       105   1  3.343251E+05  1.296620E+05  1.359752E+05 -5.588886E+04 -5.744181E+03 -1.867105E+04
       105   2  4.377492E+05  1.548699E+05  1.686800E+05 -2.542178E+04 -1.665112E+04 -2.325527E+04
       105   3  5.465756E+05  1.950952E+05  2.122793E+05 -6.151742E+04 -2.755408E+04 -2.628347E+04
       105   4 -1.926108E+05 -5.949123E+02  1.155210E+04 -5.743348E+04 -8.963620E+03 -1.866890E+04
       105   5 -1.952433E+05 -1.536306E+03  1.954751E+04 -2.414707E+04 -1.892734E+04 -2.325543E+04
       105   6 -1.926395E+05  1.238599E+04  3.779181E+04 -5.742715E+04 -2.888524E+04 -2.628528E+04
       105   7 -7.192913E+05 -1.308717E+05 -1.128902E+05 -5.897671E+04 -1.218034E+04 -1.866673E+04
       105   8 -8.278672E+05 -1.579712E+05 -1.296126E+05 -2.287360E+04 -2.120124E+04 -2.325559E+04
       105   9 -9.313523E+05 -1.703623E+05 -1.367334E+05 -5.334171E+04 -3.021481E+04 -2.628711E+04
       105  10  3.343250E+05  1.296617E+05  1.359745E+05 -5.588894E+04  2.762913E-09  7.631474E-10
       105  11  4.377487E+05  1.548693E+05  1.686785E+05 -2.542209E+04  4.896747E-10 -1.216615E-09
       105  12  5.465746E+05  1.950943E+05  2.122765E+05 -6.151801E+04  7.802520E-10  3.863409E-11
       105  13 -1.926109E+05 -5.953082E+02  1.155130E+04 -5.743361E+04  1.077427E-09  7.213282E-10
       105  14 -1.952438E+05 -1.536983E+03  1.954582E+04 -2.414743E+04  5.722610E-10  2.796662E-10
       105  15 -1.926406E+05  1.238502E+04  3.778894E+04 -5.742776E+04  8.072811E-10 -8.322955E-11
       105  16 -7.192916E+05 -1.308721E+05 -1.128911E+05 -5.897689E+04 -8.279116E-10  5.604728E-10
       105  17 -8.278679E+05 -1.579719E+05 -1.296144E+05 -2.287400E+04 -3.479982E-10 -4.591050E-10
       105  18 -9.313535E+05 -1.703633E+05 -1.367364E+05 -5.334235E+04  9.747544E-10 -7.991712E-11
       105  19  3.343251E+05  1.296620E+05  1.359752E+05 -5.588886E+04  5.744181E+03  1.867105E+04
       105  20  4.377492E+05  1.548699E+05  1.686800E+05 -2.542178E+04  1.665112E+04  2.325527E+04
       105  21  5.465756E+05  1.950952E+05  2.122793E+05 -6.151742E+04  2.755408E+04  2.628347E+04
       105  22 -1.926108E+05 -5.949123E+02  1.155210E+04 -5.743348E+04  8.963620E+03  1.866890E+04
       105  23 -1.952433E+05 -1.536306E+03  1.954751E+04 -2.414707E+04  1.892734E+04  2.325543E+04
       105  24 -1.926395E+05  1.238599E+04  3.779181E+04 -5.742715E+04  2.888524E+04  2.628528E+04
       105  25 -7.192913E+05 -1.308717E+05 -1.128902E+05 -5.897671E+04  1.218034E+04  1.866673E+04
       105  26 -8.278672E+05 -1.579712E+05 -1.296126E+05 -2.287360E+04  2.120124E+04  2.325559E+04
       105  27 -9.313523E+05 -1.703623E+05 -1.367334E+05 -5.334171E+04  3.021481E+04  2.628711E+04
       106   1  6.747790E+05  2.044652E+05  2.484590E+05 -3.775931E+04 -2.679436E+04 -3.242730E+04
       106   2  7.563085E+05  2.224827E+05  3.026293E+05 -3.911261E+04 -8.290268E+04 -3.491841E+04
       106   3  8.866674E+05  4.034377E+05  4.341978E+05 -1.060580E+05 -1.390418E+05 -1.171794E+04
       106   4 -1.835880E+05 -7.522031E+03  4.660822E+04 -5.719098E+04 -3.597020E+04 -3.242841E+04
       106   5 -2.067046E+05 -1.544731E+04  7.559860E+04 -2.444297E+04 -7.659360E+04 -3.492157E+04
       106   6 -1.836168E+05  1.370099E+05  1.713130E+05 -5.728537E+04 -1.172367E+05 -1.171165E+04
       106   7 -1.041276E+06 -2.195603E+05 -1.552926E+05 -7.659560E+04 -4.513342E+04 -3.242893E+04
       106   8 -1.168865E+06 -2.534428E+05 -1.514957E+05 -9.796252E+03 -7.029418E+04 -3.492443E+04
       106   9 -1.252853E+06 -1.294938E+05 -9.165304E+04 -8.597099E+03 -9.546888E+04 -1.170194E+04
       106  10  6.747780E+05  2.044639E+05  2.484557E+05 -3.776001E+04 -1.314243E-09  4.983138E-10
       106  11  7.563008E+05  2.224796E+05  3.026141E+05 -3.911494E+04  9.093263E-10 -2.063625E-10
       106  12  8.866466E+05  4.034324E+05  4.341612E+05 -1.060593E+05 -2.346887E-10 -3.021029E-10
       106  13 -1.835897E+05 -7.523508E+03  4.660381E+04 -5.719192E+04 -6.233662E-11  1.751891E-10
       106  14 -2.067112E+05 -1.545020E+04  7.558529E+04 -2.444512E+04  9.861530E-10  5.353985E-10
       106  15 -1.836315E+05  1.370060E+05  1.712869E+05 -5.728648E+04 -1.745345E-10 -1.797971E-10
       106  16 -1.041279E+06 -2.195620E+05 -1.552984E+05 -7.659678E+04 -1.029275E-09  2.745944E-11
       106  17 -1.168870E+06 -2.534455E+05 -1.515073E+05 -9.798230E+03 -3.338050E-09  2.252787E-10
       106  18 -1.252862E+06 -1.294964E+05 -9.167046E+04 -8.597999E+03  6.779255E-10 -3.686842E-10
       106  19  6.747790E+05  2.044652E+05  2.484590E+05 -3.775931E+04  2.679436E+04  3.242730E+04
       106  20  7.563085E+05  2.224827E+05  3.026293E+05 -3.911261E+04  8.290268E+04  3.491841E+04
       106  21  8.866674E+05  4.034377E+05  4.341978E+05 -1.060580E+05  1.390418E+05  1.171794E+04
       106  22 -1.835880E+05 -7.522031E+03  4.660822E+04 -5.719098E+04  3.597020E+04  3.242841E+04
       106  23 -2.067046E+05 -1.544731E+04  7.559860E+04 -2.444297E+04  7.659360E+04  3.492157E+04
       106  24 -1.836168E+05  1.370099E+05  1.713130E+05 -5.728537E+04  1.172367E+05  1.171165E+04
       106  25 -1.041276E+06 -2.195603E+05 -1.552926E+05 -7.659560E+04  4.513342E+04  3.242893E+04
       106  26 -1.168865E+06 -2.534428E+05 -1.514957E+05 -9.796252E+03  7.029418E+04  3.492443E+04
       106  27 -1.252853E+06 -1.294938E+05 -9.165304E+04 -8.597099E+03  9.546888E+04  1.170194E+04
       107   1  3.362881E+05  7.858887E+05  3.458185E+05 -2.962869E+05  6.163607E+03  1.698942E+05
       107   2  1.575346E+05  5.974818E+05  1.906394E+05 -2.191389E+05  1.965405E+04  9.197667E+04
       107   3  8.057528E+04  4.444134E+05  1.115710E+05 -1.771001E+05  1.747373E+04  1.403248E+04
       107   4  1.762996E+05  1.431149E+05  1.929792E+05 -1.827510E+05  6.326781E+03  1.319365E+05
       107   5  4.441416E+04  1.279235E+05  9.663901E+04 -1.654941E+05  1.969741E+04  8.227558E+04
       107   6  9.458917E+03  1.431763E+05  5.683921E+04 -1.833298E+05  1.740682E+04  3.256485E+04
       107   7  1.632987E+04 -4.992500E+05  4.012303E+04 -6.933288E+04  6.476184E+03  9.401784E+04
       107   8 -6.870919E+04 -3.414184E+05  2.629249E+03 -1.118905E+05  1.973912E+04  7.258165E+04
       107   9 -6.166220E+04 -1.579717E+05  2.105160E+03 -1.895564E+05  1.733953E+04  5.108847E+04
       107  10  3.362803E+05  7.858577E+05  3.457643E+05 -2.962878E+05 -6.841709E-10  2.951315E-09
       107  11  1.575319E+05  5.974726E+05  1.906228E+05 -2.191404E+05  1.759885E-09  8.013067E-10
       107  12  8.057490E+04  4.444131E+05  1.115700E+05 -1.771003E+05  1.173773E-09 -1.915453E-09
       107  13  1.762949E+05  1.430962E+05  1.929464E+05 -1.827517E+05  1.267998E-09 -1.037298E-10
       107  14  4.441193E+04  1.279161E+05  9.662556E+04 -1.654954E+05  1.307631E-09  2.760736E-11
       107  15  9.458307E+03  1.431751E+05  5.683665E+04 -1.833303E+05  7.595626E-10 -3.595361E-10
       107  16  1.632745E+04 -4.992595E+05  4.010632E+04 -6.933337E+04 -6.480944E-10 -3.439127E-09
       107  17 -6.871103E+04 -3.414242E+05  2.618610E+03 -1.118916E+05 -1.411868E-10 -1.237122E-09
       107  18 -6.166322E+04 -1.579746E+05  2.099688E+03 -1.895571E+05  9.888964E-10  1.849794E-09
       107  19  3.362881E+05  7.858887E+05  3.458185E+05 -2.962869E+05 -6.163607E+03 -1.698942E+05
       107  20  1.575346E+05  5.974818E+05  1.906394E+05 -2.191389E+05 -1.965405E+04 -9.197667E+04
       107  21  8.057528E+04  4.444134E+05  1.115710E+05 -1.771001E+05 -1.747373E+04 -1.403248E+04
       107  22  1.762996E+05  1.431149E+05  1.929792E+05 -1.827510E+05 -6.326781E+03 -1.319365E+05
       107  23  4.441416E+04  1.279235E+05  9.663901E+04 -1.654941E+05 -1.969741E+04 -8.227558E+04
       107  24  9.458917E+03  1.431763E+05  5.683921E+04 -1.833298E+05 -1.740682E+04 -3.256485E+04
       107  25  1.632987E+04 -4.992500E+05  4.012303E+04 -6.933288E+04 -6.476184E+03 -9.401784E+04
       107  26 -6.870919E+04 -3.414184E+05  2.629249E+03 -1.118905E+05 -1.973912E+04 -7.258165E+04
       107  27 -6.166220E+04 -1.579717E+05  2.105160E+03 -1.895564E+05 -1.733953E+04 -5.108847E+04
       108   1  5.522813E+04  3.276273E+05  8.087465E+04 -1.887323E+05  1.103472E+04  7.400475E+03
       108   2  8.346362E+03  1.544777E+05  3.771267E+04 -1.659239E+05  1.408324E+03 -1.002113E+04
       108   3 -2.899973E+04 -1.429466E+04  8.190530E+03 -1.793531E+05 -8.303843E+03 -2.743857E+04
       108   4  1.022741E+04  1.373805E+05  4.628273E+04 -1.835171E+05  1.097140E+04  2.476774E+04
       108   5  3.849826E+03  1.352201E+05  3.450572E+04 -1.654048E+05  1.344283E+03  7.501276E+03
       108   6  6.983157E+03  1.373828E+05  3.626341E+04 -1.835289E+05 -8.368407E+03 -9.765523E+03
       108   7 -3.477510E+04 -5.283040E+04  1.169051E+04 -1.783034E+05  1.090836E+04  4.212983E+04
       108   8 -6.465636E+02  1.159636E+05  3.129992E+04 -1.648857E+05  1.280270E+03  2.502316E+04
       108   9  4.296496E+04  2.890833E+05  6.433652E+04 -1.877057E+05 -8.433200E+03  7.911731E+03
       108  10  5.522798E+04  3.276272E+05  8.087432E+04 -1.887324E+05  2.691887E-09  1.006474E-09
       108  11  8.346333E+03  1.544776E+05  3.771248E+04 -1.659239E+05  1.243846E-09 -9.374804E-11
       108  12 -2.900001E+04 -1.429548E+04  8.188985E+03 -1.793533E+05  5.594765E-10 -2.357363E-09
       108  13  1.022711E+04  1.373798E+05  4.628135E+04 -1.835173E+05  3.641487E-09  1.937295E-10
       108  14  3.849809E+03  1.352201E+05  3.450561E+04 -1.654048E+05  3.872296E-09  1.825027E-10
       108  15  6.983056E+03  1.373827E+05  3.626310E+04 -1.835290E+05  1.865393E-09 -3.282864E-10
       108  16 -3.477571E+04 -5.283234E+04  1.168695E+04 -1.783038E+05  8.482857E-10 -1.157478E-09
       108  17 -6.467334E+02  1.159629E+05  3.129874E+04 -1.648857E+05  1.095985E-09  2.320855E-10
       108  18  4.296486E+04  2.890832E+05  6.433627E+04 -1.877056E+05 -4.948166E-10  2.440496E-09
       108  19  5.522813E+04  3.276273E+05  8.087465E+04 -1.887323E+05 -1.103472E+04 -7.400475E+03
       108  20  8.346362E+03  1.544777E+05  3.771267E+04 -1.659239E+05 -1.408324E+03  1.002113E+04
       108  21 -2.899973E+04 -1.429466E+04  8.190530E+03 -1.793531E+05  8.303843E+03  2.743857E+04
       108  22  1.022741E+04  1.373805E+05  4.628273E+04 -1.835171E+05 -1.097140E+04 -2.476774E+04
       108  23  3.849826E+03  1.352201E+05  3.450572E+04 -1.654048E+05 -1.344283E+03 -7.501276E+03
       108  24  6.983157E+03  1.373828E+05  3.626341E+04 -1.835289E+05  8.368407E+03  9.765523E+03
       108  25 -3.477510E+04 -5.283040E+04  1.169051E+04 -1.783034E+05 -1.090836E+04 -4.212983E+04
       108  26 -6.465636E+02  1.159636E+05  3.129992E+04 -1.648857E+05 -1.280270E+03 -2.502316E+04
       108  27  4.296496E+04  2.890833E+05  6.433652E+04 -1.877057E+05  8.433200E+03 -7.911731E+03
       109   1 -5.553591E+04 -1.218289E+05 -7.068986E+03 -1.867758E+05 -1.479896E+04 -3.451513E+04
       109   2 -7.537380E+04 -3.000289E+05 -2.325556E+04 -1.309556E+05 -1.781480E+04 -4.052571E+04
       109   3 -3.817375E+04 -4.634099E+05 -2.132593E+04 -1.103763E+05 -6.042295E+03 -4.648691E+04
       109   4  6.569760E+03  1.407231E+05  4.106908E+04 -1.833451E+05 -1.486716E+04 -1.575495E+04
       109   5  2.848296E+04  1.310010E+05  6.352478E+04 -1.655468E+05 -1.778359E+04 -4.839347E+04
       109   6  1.120285E+05  1.406692E+05  1.225750E+05 -1.829782E+05 -5.915663E+03 -8.098471E+04
       109   7  6.867176E+04  4.033428E+05  8.920565E+04 -1.799129E+05 -1.493513E+04  3.012958E+03
       109   8  1.323326E+05  5.622106E+05  1.502964E+05 -2.001622E+05 -1.775151E+04 -5.626657E+04
       109   9  2.622244E+05  7.450966E+05  2.664574E+05 -2.556507E+05 -5.781027E+03 -1.155159E+05
       109  10 -5.553646E+04 -1.218303E+05 -7.071637E+03 -1.867762E+05 -2.259788E-10 -6.692821E-10
       109  11 -7.537459E+04 -3.000307E+05 -2.325925E+04 -1.309562E+05  1.369355E-09 -7.515808E-10
       109  12 -3.817437E+04 -4.634122E+05 -2.133006E+04 -1.103766E+05  4.751395E-10 -1.103701E-09
       109  13  6.569456E+03  1.407228E+05  4.106819E+04 -1.833453E+05 -1.461762E-09  7.752399E-11
       109  14  2.848199E+04  1.309984E+05  6.351978E+04 -1.655475E+05  5.431888E-10  4.136418E-12
       109  15  1.120267E+05  1.406621E+05  1.225626E+05 -1.829785E+05 -7.216343E-10 -3.898027E-10
       109  16  6.867152E+04  4.033427E+05  8.920522E+04 -1.799128E+05 -2.332723E-10  2.446506E-10
       109  17  1.323314E+05  5.622071E+05  1.502899E+05 -2.001630E+05 -1.519367E-09  7.114674E-11
       109  18  2.622208E+05  7.450823E+05  2.664323E+05 -2.556512E+05 -1.293216E-10  7.592096E-10
       109  19 -5.553591E+04 -1.218289E+05 -7.068986E+03 -1.867758E+05  1.479896E+04  3.451513E+04
       109  20 -7.537380E+04 -3.000289E+05 -2.325556E+04 -1.309556E+05  1.781480E+04  4.052571E+04
       109  21 -3.817375E+04 -4.634099E+05 -2.132593E+04 -1.103763E+05  6.042295E+03  4.648691E+04
       109  22  6.569760E+03  1.407231E+05  4.106908E+04 -1.833451E+05  1.486716E+04  1.575495E+04
       109  23  2.848296E+04  1.310010E+05  6.352478E+04 -1.655468E+05  1.778359E+04  4.839347E+04
       109  24  1.120285E+05  1.406692E+05  1.225750E+05 -1.829782E+05  5.915663E+03  8.098471E+04
       109  25  6.867176E+04  4.033428E+05  8.920565E+04 -1.799129E+05  1.493513E+04 -3.012958E+03
       109  26  1.323326E+05  5.622106E+05  1.502964E+05 -2.001622E+05  1.775151E+04  5.626657E+04
       109  27  2.622244E+05  7.450966E+05  2.664574E+05 -2.556507E+05  5.781027E+03  1.155159E+05
       110   1 -4.099012E+06 -1.379194E+06 -8.620068E+05 -1.451877E+06 -3.759729E+05 -1.265976E+05
       110   2 -3.986619E+06 -8.209840E+05 -5.128441E+05 -1.474115E+06 -2.449226E+05 -4.516152E+04
       110   3 -4.040876E+06 -7.786713E+05 -4.016937E+05 -1.409178E+06 -1.027181E+05  6.839257E+03
       110   4 -3.045402E+06 -8.424577E+05 -5.481715E+05 -1.024170E+06 -3.525725E+05 -1.178501E+05
       110   5 -2.934513E+06 -3.834241E+05 -2.304013E+05 -1.144268E+06 -2.377819E+05 -4.249040E+04
       110   6 -2.986723E+06 -4.365804E+05 -1.373939E+05 -1.177283E+06 -1.118509E+05  3.402164E+03
       110   7 -1.990660E+06 -3.053573E+05 -2.344418E+05 -5.957131E+05 -3.291277E+05 -1.090727E+05
       110   8 -1.881320E+06  5.427401E+04  5.194311E+04 -8.138874E+05 -2.306275E+05 -3.981292E+04
       110   9 -1.931486E+06 -9.448507E+04  1.268205E+05 -9.450617E+05 -1.210006E+05 -3.928249E+01
       110  10 -4.099169E+06 -1.379249E+06 -8.623048E+05 -1.451916E+06 -2.102286E-10  3.328265E-11
       110  11 -3.986684E+06 -8.210024E+05 -5.129614E+05 -1.474124E+06  8.435089E-10  5.042430E-10
       110  12 -4.040888E+06 -7.786743E+05 -4.017137E+05 -1.409177E+06  1.876368E-09  5.534894E-10
       110  13 -3.045540E+06 -8.425063E+05 -5.484326E+05 -1.024204E+06  1.276443E-09 -4.503330E-10
       110  14 -2.934575E+06 -3.834413E+05 -2.305115E+05 -1.144276E+06  2.313774E-09  2.499182E-11
       110  15 -2.986736E+06 -4.365838E+05 -1.374175E+05 -1.177283E+06  4.074693E-09 -1.024272E-10
       110  16 -1.990780E+06 -3.053993E+05 -2.346685E+05 -5.957421E+05  1.820255E-09  4.462354E-10
       110  17 -1.881378E+06  5.425796E+04  5.183982E+04 -8.138949E+05  4.639741E-09 -8.557440E-11
       110  18 -1.931502E+06 -9.448901E+04  1.267929E+05 -9.450617E+05  1.687788E-09 -2.610701E-10
       110  19 -4.099012E+06 -1.379194E+06 -8.620068E+05 -1.451877E+06  3.759729E+05  1.265976E+05
       110  20 -3.986619E+06 -8.209840E+05 -5.128441E+05 -1.474115E+06  2.449226E+05  4.516152E+04
       110  21 -4.040876E+06 -7.786713E+05 -4.016937E+05 -1.409178E+06  1.027181E+05 -6.839257E+03
       110  22 -3.045402E+06 -8.424577E+05 -5.481715E+05 -1.024170E+06  3.525725E+05  1.178501E+05
       110  23 -2.934513E+06 -3.834241E+05 -2.304013E+05 -1.144268E+06  2.377819E+05  4.249040E+04
       110  24 -2.986723E+06 -4.365804E+05 -1.373939E+05 -1.177283E+06  1.118509E+05 -3.402164E+03
       110  25 -1.990660E+06 -3.053573E+05 -2.344418E+05 -5.957131E+05  3.291277E+05  1.090727E+05
       110  26 -1.881320E+06  5.427401E+04  5.194311E+04 -8.138874E+05  2.306275E+05  3.981292E+04
       110  27 -1.931486E+06 -9.448507E+04  1.268205E+05 -9.450617E+05  1.210006E+05  3.928249E+01
       111   1 -3.882154E+06 -8.484010E+05 -3.527267E+05 -1.409509E+06 -9.015612E+04  4.700525E+03
       111   2 -3.814138E+06 -7.481859E+05 -2.739711E+05 -1.370423E+06 -6.035162E+04  1.399890E+04
       111   3 -3.727334E+06 -7.347327E+05 -2.297090E+05 -1.365010E+06 -2.974870E+04  2.117243E+04
       111   4 -2.967743E+06 -4.920987E+05 -1.112273E+05 -1.147491E+06 -9.058510E+04  4.532873E+03
       111   5 -2.974413E+06 -4.291546E+05 -5.427703E+04 -1.138035E+06 -6.192728E+04  1.340260E+04
       111   6 -2.962044E+06 -4.526989E+05 -3.086717E+04 -1.162257E+06 -3.247549E+04  2.014639E+04
       111   7 -2.052513E+06 -1.357270E+05  1.302007E+05 -8.851146E+05 -9.101471E+04  4.364975E+03
       111   8 -2.133999E+06 -1.100749E+05  1.653576E+05 -9.053601E+05 -6.350526E+04  1.280542E+04
       111   9 -2.196184E+06 -1.706347E+05  1.679257E+05 -9.592799E+05 -3.520599E+04  1.911902E+04
       111  10 -3.882162E+06 -8.484032E+05 -3.527421E+05 -1.409509E+06  5.156197E-09  3.651089E-09
       111  11 -3.814142E+06 -7.481871E+05 -2.739784E+05 -1.370423E+06  1.263328E-09  2.583747E-09
       111  12 -3.727335E+06 -7.347334E+05 -2.297115E+05 -1.365009E+06 -2.655843E-09 -1.575264E-09
       111  13 -2.967752E+06 -4.921009E+05 -1.112428E+05 -1.147491E+06  1.607215E-09  1.077961E-09
       111  14 -2.974418E+06 -4.291558E+05 -5.428460E+04 -1.138035E+06  2.814397E-10  2.816952E-09
       111  15 -2.962045E+06 -4.526996E+05 -3.086992E+04 -1.162257E+06 -1.069352E-09  5.835323E-10
       111  16 -2.052522E+06 -1.357292E+05  1.301851E+05 -8.851142E+05 -1.240154E-10 -1.167038E-09
       111  17 -2.134003E+06 -1.100762E+05  1.653496E+05 -9.053595E+05  1.494444E-09  2.359148E-09
       111  18 -2.196185E+06 -1.706354E+05  1.679227E+05 -9.592793E+05  5.917119E-09  2.871977E-09
       111  19 -3.882154E+06 -8.484010E+05 -3.527267E+05 -1.409509E+06  9.015612E+04 -4.700525E+03
       111  20 -3.814138E+06 -7.481859E+05 -2.739711E+05 -1.370423E+06  6.035162E+04 -1.399890E+04
       111  21 -3.727334E+06 -7.347327E+05 -2.297090E+05 -1.365010E+06  2.974870E+04 -2.117243E+04
       111  22 -2.967743E+06 -4.920987E+05 -1.112273E+05 -1.147491E+06  9.058510E+04 -4.532873E+03
       111  23 -2.974413E+06 -4.291546E+05 -5.427703E+04 -1.138035E+06  6.192728E+04 -1.340260E+04
       111  24 -2.962044E+06 -4.526989E+05 -3.086717E+04 -1.162257E+06  3.247549E+04 -2.014639E+04
       111  25 -2.052513E+06 -1.357270E+05  1.302007E+05 -8.851146E+05  9.101471E+04 -4.364975E+03
       111  26 -2.133999E+06 -1.100749E+05  1.653576E+05 -9.053601E+05  6.350526E+04 -1.280542E+04
       111  27 -2.196184E+06 -1.706347E+05  1.679257E+05 -9.592799E+05  3.520599E+04 -1.911902E+04
       112   1 -3.616244E+06 -7.064540E+05 -1.952489E+05 -1.340120E+06 -2.489739E+04  1.999490E+04
       112   2 -3.547452E+06 -6.459766E+05 -1.607096E+05 -1.291020E+06 -1.686966E+04  1.839060E+04
       112   3 -3.437088E+06 -6.338997E+05 -1.321968E+05 -1.291130E+06 -8.750365E+03  1.652949E+04
       112   4 -2.959061E+06 -4.587834E+05 -2.395697E+04 -1.160227E+06 -2.710000E+04  1.916659E+04
       112   5 -2.979566E+06 -4.326634E+05 -1.262055E+04 -1.136338E+06 -1.920886E+04  1.751258E+04
       112   6 -2.958479E+06 -4.549116E+05 -7.196318E+03 -1.161661E+06 -1.122722E+04  1.560149E+04
       112   7 -2.301458E+06 -2.110860E+05  1.472980E+05 -9.801606E+05 -2.930516E+04  1.833732E+04
       112   8 -2.411366E+06 -2.193303E+05  1.354413E+05 -9.815282E+05 -2.155041E+04  1.663368E+04
       112   9 -2.479646E+06 -2.759093E+05  1.177852E+05 -1.032101E+06 -1.370618E+04  1.467272E+04
       112  10 -3.616245E+06 -7.064546E+05 -1.952508E+05 -1.340120E+06 -1.687139E-09 -1.219225E-09
       112  11 -3.547453E+06 -6.459770E+05 -1.607108E+05 -1.291020E+06  5.819963E-10  2.087397E-10
       112  12 -3.437088E+06 -6.339000E+05 -1.321975E+05 -1.291130E+06  2.589160E-09  6.582336E-10
       112  13 -2.959061E+06 -4.587840E+05 -2.395904E+04 -1.160226E+06  5.432329E-10  3.110750E-12
       112  14 -2.979567E+06 -4.326638E+05 -1.262182E+04 -1.136338E+06 -1.568549E-09  3.511439E-10
       112  15 -2.958480E+06 -4.549119E+05 -7.197012E+03 -1.161661E+06  1.471493E-09 -3.515373E-10
       112  16 -2.301459E+06 -2.110866E+05  1.472957E+05 -9.801602E+05  6.728161E-10 -2.359355E-11
       112  17 -2.411366E+06 -2.193307E+05  1.354399E+05 -9.815279E+05 -3.707656E-09 -6.665851E-10
       112  18 -2.479646E+06 -2.759096E+05  1.177845E+05 -1.032101E+06 -1.226565E-09 -9.521129E-10
       112  19 -3.616244E+06 -7.064540E+05 -1.952489E+05 -1.340120E+06  2.489739E+04 -1.999490E+04
       112  20 -3.547452E+06 -6.459766E+05 -1.607096E+05 -1.291020E+06  1.686966E+04 -1.839060E+04
       112  21 -3.437088E+06 -6.338997E+05 -1.321968E+05 -1.291130E+06  8.750365E+03 -1.652949E+04
       112  22 -2.959061E+06 -4.587834E+05 -2.395697E+04 -1.160227E+06  2.710000E+04 -1.916659E+04
       112  23 -2.979566E+06 -4.326634E+05 -1.262055E+04 -1.136338E+06  1.920886E+04 -1.751258E+04
       112  24 -2.958479E+06 -4.549116E+05 -7.196318E+03 -1.161661E+06  1.122722E+04 -1.560149E+04
       112  25 -2.301458E+06 -2.110860E+05  1.472980E+05 -9.801606E+05  2.930516E+04 -1.833732E+04
       112  26 -2.411366E+06 -2.193303E+05  1.354413E+05 -9.815282E+05  2.155041E+04 -1.663368E+04
       112  27 -2.479646E+06 -2.759093E+05  1.177852E+05 -1.032101E+06  1.370618E+04 -1.467272E+04
       113   1 -3.323901E+06 -5.932521E+05 -1.007451E+05 -1.261583E+06 -6.742566E+03  1.433838E+04
       113   2 -3.251727E+06 -5.339965E+05 -7.414388E+04 -1.209153E+06 -3.289465E+03  1.055540E+04
       113   3 -3.133627E+06 -5.215127E+05 -4.899384E+04 -1.209843E+06  1.872836E+02  6.701867E+03
       113   4 -2.957686E+06 -4.559472E+05 -5.634600E+03 -1.161997E+06 -9.213848E+03  1.341328E+04
       113   5 -2.980611E+06 -4.323688E+05 -3.495642E+03 -1.135506E+06 -5.799117E+03  9.616693E+03
       113   6 -2.957613E+06 -4.555527E+05 -2.776148E+03 -1.162136E+06 -2.361075E+03  5.749517E+03
       113   7 -2.591339E+06 -3.186337E+05  8.946485E+04 -1.062357E+06 -1.168674E+04  1.248757E+04
       113   8 -2.709424E+06 -3.307372E+05  6.714602E+04 -1.061830E+06 -8.309962E+03  8.677544E+03
       113   9 -2.781571E+06 -3.895918E+05  4.343831E+04 -1.114418E+06 -4.910197E+03  4.796882E+03
       113  10 -3.323901E+06 -5.932524E+05 -1.007456E+05 -1.261583E+06  5.418059E-10  6.661214E-10
       113  11 -3.251727E+06 -5.339967E+05 -7.414411E+04 -1.209153E+06  2.529874E-10  1.244987E-09
       113  12 -3.133627E+06 -5.215127E+05 -4.899392E+04 -1.209843E+06  2.075412E-10 -9.094808E-10
       113  13 -2.957686E+06 -4.559474E+05 -5.635097E+03 -1.161997E+06  9.024526E-10  1.448808E-10
       113  14 -2.980611E+06 -4.323689E+05 -3.495878E+03 -1.135506E+06  1.432627E-09  2.529829E-09
       113  15 -2.957613E+06 -4.555528E+05 -2.776221E+03 -1.162136E+06  4.132083E-10  8.763338E-11
       113  16 -2.591339E+06 -3.186339E+05  8.946430E+04 -1.062357E+06  1.280803E-10  2.496561E-10
       113  17 -2.709425E+06 -3.307373E+05  6.714574E+04 -1.061830E+06  3.662456E-10  7.860213E-10
       113  18 -2.781571E+06 -3.895918E+05  4.343822E+04 -1.114418E+06  1.046993E-09  4.998571E-10
       113  19 -3.323901E+06 -5.932521E+05 -1.007451E+05 -1.261583E+06  6.742566E+03 -1.433838E+04
       113  20 -3.251727E+06 -5.339965E+05 -7.414388E+04 -1.209153E+06  3.289465E+03 -1.055540E+04
       113  21 -3.133627E+06 -5.215127E+05 -4.899384E+04 -1.209843E+06 -1.872836E+02 -6.701867E+03
       113  22 -2.957686E+06 -4.559472E+05 -5.634600E+03 -1.161997E+06  9.213848E+03 -1.341328E+04
       113  23 -2.980611E+06 -4.323688E+05 -3.495642E+03 -1.135506E+06  5.799117E+03 -9.616693E+03
       113  24 -2.957613E+06 -4.555527E+05 -2.776148E+03 -1.162136E+06  2.361075E+03 -5.749517E+03
       113  25 -2.591339E+06 -3.186337E+05  8.946485E+04 -1.062357E+06  1.168674E+04 -1.248757E+04
       113  26 -2.709424E+06 -3.307372E+05  6.714602E+04 -1.061830E+06  8.309962E+03 -8.677544E+03
       113  27 -2.781571E+06 -3.895918E+05  4.343831E+04 -1.114418E+06  4.910197E+03 -4.796882E+03
       114   1 -3.017250E+06 -4.781186E+05 -1.801962E+04 -1.178649E+06  1.649505E+03  4.216975E+03
       114   2 -2.943925E+06 -4.183594E+05  6.018261E+03 -1.125295E+06  5.134783E+03  3.189053E+02
       114   3 -2.824071E+06 -4.060843E+05  2.858756E+04 -1.125911E+06  8.614556E+03 -3.562123E+03
       114   4 -2.957473E+06 -4.557147E+05 -2.797486E+03 -1.162322E+06 -9.082066E+02  3.261367E+03
       114   5 -2.980757E+06 -4.321372E+05 -3.572503E+03 -1.135274E+06  2.586222E+03 -6.334383E+02
       114   6 -2.957522E+06 -4.560472E+05 -5.823160E+03 -1.162199E+06  6.074824E+03 -4.511273E+03
       114   7 -2.897693E+06 -4.333103E+05  1.242456E+04 -1.145994E+06 -3.466216E+03  2.305647E+03
       114   8 -3.017588E+06 -4.459150E+05 -1.316345E+04 -1.145251E+06  3.780375E+01 -1.585729E+03
       114   9 -3.090958E+06 -5.060095E+05 -4.023561E+04 -1.198480E+06  3.535672E+03 -5.460206E+03
       114  10 -3.017250E+06 -4.781187E+05 -1.801965E+04 -1.178649E+06  9.312145E-10 -8.969296E-10
       114  11 -2.943925E+06 -4.183594E+05  6.018211E+03 -1.125295E+06 -8.040648E-10 -1.717859E-12
       114  12 -2.824071E+06 -4.060843E+05  2.858740E+04 -1.125911E+06 -3.459475E-09  1.039883E-09
       114  13 -2.957473E+06 -4.557147E+05 -2.797507E+03 -1.162322E+06  1.919014E-10 -5.021959E-10
       114  14 -2.980757E+06 -4.321372E+05 -3.572517E+03 -1.135274E+06 -3.001643E-09 -3.030176E-09
       114  15 -2.957523E+06 -4.560473E+05 -5.823268E+03 -1.162199E+06 -1.633753E-09  1.232199E-09
       114  16 -2.897693E+06 -4.333103E+05  1.242453E+04 -1.145994E+06  6.535920E-10  3.978486E-10
       114  17 -3.017588E+06 -4.459150E+05 -1.316345E+04 -1.145251E+06 -1.277097E-09 -8.029653E-10
       114  18 -3.090958E+06 -5.060095E+05 -4.023568E+04 -1.198480E+06 -7.017785E-11  4.259816E-10
       114  19 -3.017250E+06 -4.781186E+05 -1.801962E+04 -1.178649E+06 -1.649505E+03 -4.216975E+03
       114  20 -2.943925E+06 -4.183594E+05  6.018261E+03 -1.125295E+06 -5.134783E+03 -3.189053E+02
       114  21 -2.824071E+06 -4.060843E+05  2.858756E+04 -1.125911E+06 -8.614556E+03  3.562123E+03
       114  22 -2.957473E+06 -4.557147E+05 -2.797486E+03 -1.162322E+06  9.082066E+02 -3.261367E+03
       114  23 -2.980757E+06 -4.321372E+05 -3.572503E+03 -1.135274E+06 -2.586222E+03  6.334383E+02
       114  24 -2.957522E+06 -4.560472E+05 -5.823160E+03 -1.162199E+06 -6.074824E+03  4.511273E+03
       114  25 -2.897693E+06 -4.333103E+05  1.242456E+04 -1.145994E+06  3.466216E+03 -2.305647E+03
       114  26 -3.017588E+06 -4.459150E+05 -1.316345E+04 -1.145251E+06 -3.780375E+01  1.585729E+03
       114  27 -3.090958E+06 -5.060095E+05 -4.023561E+04 -1.198480E+06 -3.535672E+03  5.460206E+03
       115   1 -2.708671E+06 -3.624427E+05  5.773880E+04 -1.095182E+06  1.071357E+04 -5.805759E+03
       115   2 -2.636888E+06 -3.032379E+05  7.632198E+04 -1.042277E+06  1.889696E+04 -7.847672E+03
       115   3 -2.521774E+06 -2.946541E+05  8.878911E+04 -1.041063E+06  2.701522E+04 -9.702676E+03
       115   4 -2.958050E+06 -4.553146E+05 -7.465820E+03 -1.162235E+06  8.154918E+03 -6.762342E+03
       115   5 -2.979994E+06 -4.319732E+05 -1.307950E+04 -1.135653E+06  1.643854E+04 -8.767772E+03
       115   6 -2.958638E+06 -4.592763E+05 -2.489124E+04 -1.160768E+06  2.465597E+04 -1.058662E+04
       115   7 -3.207366E+06 -5.481816E+05 -7.267481E+04 -1.229263E+06  5.597432E+03 -7.718496E+03
       115   8 -3.322985E+06 -5.607007E+05 -1.024905E+05 -1.228983E+06  1.398161E+04 -9.687308E+03
       115   9 -3.395318E+06 -6.238872E+05 -1.385883E+05 -1.280396E+06  2.229854E+04 -1.146989E+04
       115  10 -2.708672E+06 -3.624428E+05  5.773852E+04 -1.095182E+06 -1.344786E-09  1.249744E-09
       115  11 -2.636888E+06 -3.032381E+05  7.632120E+04 -1.042277E+06  6.161167E-10  1.419039E-10
       115  12 -2.521775E+06 -2.946544E+05  8.878756E+04 -1.041063E+06 -4.329676E-10 -2.937870E-10
       115  13 -2.958050E+06 -4.553146E+05 -7.466031E+03 -1.162235E+06  3.309479E-10  1.549628E-09
       115  14 -2.979995E+06 -4.319734E+05 -1.308016E+04 -1.135653E+06 -1.072861E-09 -6.577390E-10
       115  15 -2.958639E+06 -4.592766E+05 -2.489260E+04 -1.160768E+06 -1.597639E-09 -8.327902E-11
       115  16 -3.207366E+06 -5.481817E+05 -7.267498E+04 -1.229263E+06 -1.122561E-09  1.532417E-10
       115  17 -3.322985E+06 -5.607009E+05 -1.024911E+05 -1.228983E+06 -1.222681E-09  2.031261E-10
       115  18 -3.395319E+06 -6.238875E+05 -1.385895E+05 -1.280396E+06 -9.044635E-10  1.186030E-09
       115  19 -2.708671E+06 -3.624427E+05  5.773880E+04 -1.095182E+06 -1.071357E+04  5.805759E+03
       115  20 -2.636888E+06 -3.032379E+05  7.632198E+04 -1.042277E+06 -1.889696E+04  7.847672E+03
       115  21 -2.521774E+06 -2.946541E+05  8.878911E+04 -1.041063E+06 -2.701522E+04  9.702676E+03
       115  22 -2.958050E+06 -4.553146E+05 -7.465820E+03 -1.162235E+06 -8.154918E+03  6.762342E+03
       115  23 -2.979994E+06 -4.319732E+05 -1.307950E+04 -1.135653E+06 -1.643854E+04  8.767772E+03
       115  24 -2.958638E+06 -4.592763E+05 -2.489124E+04 -1.160768E+06 -2.465597E+04  1.058662E+04
       115  25 -3.207366E+06 -5.481816E+05 -7.267481E+04 -1.229263E+06 -5.597432E+03  7.718496E+03
       115  26 -3.322985E+06 -5.607007E+05 -1.024905E+05 -1.228983E+06 -1.398161E+04  9.687308E+03
       115  27 -3.395318E+06 -6.238872E+05 -1.385883E+05 -1.280396E+06 -2.229854E+04  1.146989E+04
       116   1 -2.409276E+06 -2.519935E+05  1.109674E+05 -1.019103E+06  3.307174E+04 -1.056868E+04
       116   2 -2.341381E+06 -1.868516E+05  1.093274E+05 -9.610625E+05  6.275174E+04 -4.135404E+03
       116   3 -2.252054E+06 -2.132428E+05  7.355488E+04 -9.403501E+05  9.176231E+04  4.108435E+03
       116   4 -2.961441E+06 -4.532923E+05 -3.208470E+04 -1.163253E+06  3.025063E+04 -1.162615E+04
       116   5 -2.974988E+06 -4.278757E+05 -5.636609E+04 -1.136937E+06  6.091346E+04 -4.827010E+03
       116   6 -2.967328E+06 -4.942260E+05 -1.155901E+05 -1.147954E+06  9.090243E+04  3.781051E+03
       116   7 -3.513311E+06 -6.545769E+05 -1.751621E+05 -1.307288E+06  2.743226E+04 -1.268266E+04
       116   8 -3.608203E+06 -6.688717E+05 -2.220934E+05 -1.312648E+06  5.907722E+04 -5.517829E+03
       116   9 -3.682100E+06 -7.751637E+05 -3.047787E+05 -1.355336E+06  9.004359E+04  3.454097E+03
       116  10 -2.409277E+06 -2.519939E+05  1.109651E+05 -1.019103E+06  1.799457E-09  9.201933E-10
       116  11 -2.341385E+06 -1.868527E+05  1.093199E+05 -9.610623E+05 -9.356933E-10 -1.149119E-09
       116  12 -2.252063E+06 -2.132451E+05  7.353897E+04 -9.403504E+05 -1.665201E-09 -9.364421E-10
       116  13 -2.961443E+06 -4.532927E+05 -3.208668E+04 -1.163253E+06 -3.585591E-10  7.164720E-10
       116  14 -2.974992E+06 -4.278767E+05 -5.637314E+04 -1.136937E+06  3.287557E-09 -2.386001E-10
       116  15 -2.967337E+06 -4.942282E+05 -1.156057E+05 -1.147954E+06  7.685120E-11 -2.007991E-10
       116  16 -3.513312E+06 -6.545773E+05 -1.751638E+05 -1.307288E+06 -2.390969E-09  1.780907E-10
       116  17 -3.608207E+06 -6.688727E+05 -2.221000E+05 -1.312647E+06 -1.330604E-09 -2.820962E-13
       116  18 -3.682108E+06 -7.751659E+05 -3.047941E+05 -1.355336E+06  2.691010E-09  3.139253E-11
       116  19 -2.409276E+06 -2.519935E+05  1.109674E+05 -1.019103E+06 -3.307174E+04  1.056868E+04
       116  20 -2.341381E+06 -1.868516E+05  1.093274E+05 -9.610625E+05 -6.275174E+04  4.135404E+03
       116  21 -2.252054E+06 -2.132428E+05  7.355488E+04 -9.403501E+05 -9.176231E+04 -4.108435E+03
       116  22 -2.961441E+06 -4.532923E+05 -3.208470E+04 -1.163253E+06 -3.025063E+04  1.162615E+04
       116  23 -2.974988E+06 -4.278757E+05 -5.636609E+04 -1.136937E+06 -6.091346E+04  4.827010E+03
       116  24 -2.967328E+06 -4.942260E+05 -1.155901E+05 -1.147954E+06 -9.090243E+04 -3.781051E+03
       116  25 -3.513311E+06 -6.545769E+05 -1.751621E+05 -1.307288E+06 -2.743226E+04  1.268266E+04
       116  26 -3.608203E+06 -6.688717E+05 -2.220934E+05 -1.312648E+06 -5.907722E+04  5.517829E+03
       116  27 -3.682100E+06 -7.751637E+05 -3.047787E+05 -1.355336E+06 -9.004359E+04 -3.454097E+03
       117   1 -2.119816E+06 -1.682428E+05  7.199485E+04 -1.001514E+06  1.211798E+05  8.628952E+03
       117   2 -2.061792E+06 -9.766598E+03 -4.092937E+03 -8.613636E+05  2.382702E+05  5.027710E+04
       117   3 -2.167017E+06 -3.840610E+05 -3.024485E+05 -6.352166E+05  3.458156E+05  1.173429E+05
       117   4 -2.986797E+06 -4.368065E+05 -1.427864E+05 -1.179227E+06  1.127990E+05  5.490179E+03
       117   5 -2.933911E+06 -3.798787E+05 -2.393683E+05 -1.142917E+06  2.439331E+05  5.238416E+04
       117   6 -3.047380E+06 -8.590099E+05 -5.696383E+05 -1.020545E+06  3.655101E+05  1.246647E+05
       117   7 -3.853047E+06 -7.053763E+05 -3.576237E+05 -1.356742E+06  1.044309E+05  2.354259E+03
       117   8 -3.805279E+06 -7.498824E+05 -4.747110E+05 -1.424090E+06  2.495870E+05  5.448685E+04
       117   9 -3.926930E+06 -1.333632E+06 -8.368986E+05 -1.405295E+06  3.851734E+05  1.319633E+05
       117  10 -2.119832E+06 -1.682469E+05  7.196701E+04 -1.001514E+06 -7.161409E-09 -2.519312E-09
       117  11 -2.061854E+06 -9.784639E+03 -4.204803E+03 -8.613732E+05 -4.963888E-09  6.616779E-11
       117  12 -2.167150E+06 -3.841081E+05 -3.027001E+05 -6.352494E+05  3.201917E-09  1.596162E-09
       117  13 -2.986810E+06 -4.368100E+05 -1.428105E+05 -1.179228E+06 -1.509584E-09 -1.742506E-10
       117  14 -2.933976E+06 -3.798978E+05 -2.394859E+05 -1.142928E+06 -1.651025E-09 -1.565750E-09
       117  15 -3.047529E+06 -8.590628E+05 -5.699201E+05 -1.020582E+06  1.082702E-09 -6.733218E-10
       117  16 -3.853058E+06 -7.053792E+05 -3.576443E+05 -1.356742E+06  5.276839E-09  1.642439E-09
       117  17 -3.805347E+06 -7.499025E+05 -4.748345E+05 -1.424101E+06 -2.257061E-09 -8.938933E-12
       117  18 -3.927095E+06 -1.333691E+06 -8.372124E+05 -1.405336E+06 -4.176045E-09 -2.846110E-09
       117  19 -2.119816E+06 -1.682428E+05  7.199485E+04 -1.001514E+06 -1.211798E+05 -8.628952E+03
       117  20 -2.061792E+06 -9.766598E+03 -4.092937E+03 -8.613636E+05 -2.382702E+05 -5.027710E+04
       117  21 -2.167017E+06 -3.840610E+05 -3.024485E+05 -6.352166E+05 -3.458156E+05 -1.173429E+05
       117  22 -2.986797E+06 -4.368065E+05 -1.427864E+05 -1.179227E+06 -1.127990E+05 -5.490179E+03
       117  23 -2.933911E+06 -3.798787E+05 -2.393683E+05 -1.142917E+06 -2.439331E+05 -5.238416E+04
       117  24 -3.047380E+06 -8.590099E+05 -5.696383E+05 -1.020545E+06 -3.655101E+05 -1.246647E+05
       117  25 -3.853047E+06 -7.053763E+05 -3.576237E+05 -1.356742E+06 -1.044309E+05 -2.354259E+03
       117  26 -3.805279E+06 -7.498824E+05 -4.747110E+05 -1.424090E+06 -2.495870E+05 -5.448685E+04
       117  27 -3.926930E+06 -1.333632E+06 -8.368986E+05 -1.405295E+06 -3.851734E+05 -1.319633E+05
       118   1 -5.164256E+05  3.940475E+04  8.252382E+04  3.728055E+04  1.317933E+05  5.743380E+03
       118   2 -5.023571E+05 -1.343514E+05 -1.870152E+04  8.403779E+03  8.975077E+04  1.706438E+04
       118   3 -4.342585E+05 -1.148994E+05 -4.418157E+04 -4.592984E+04  4.771581E+04  1.625603E+04
       118   4 -6.128491E+03  1.664180E+05  2.079142E+05 -2.227534E+04  1.423290E+05  5.740824E+03
       118   5 -3.375380E+04 -1.852487E+04  9.183795E+04 -9.469675E+03  9.297443E+04  1.706337E+04
       118   6 -6.127367E+03 -9.075600E+03  5.654180E+04 -2.211909E+04  4.363092E+04  1.625497E+04
       118   7  5.044137E+05  2.934254E+05  3.332877E+05 -8.188035E+04  1.528733E+05  5.736251E+03
       118   8  4.350523E+05  9.728713E+04  2.023625E+05 -2.735674E+04  9.620048E+04  1.706216E+04
       118   9  4.221737E+05  9.673723E+04  1.572529E+05  1.708172E+03  3.954323E+04  1.625359E+04
       118  10 -5.164443E+05  3.940005E+04  8.249109E+04  3.727994E+04  4.460320E-09  7.557527E-10
       118  11 -5.023658E+05 -1.343538E+05 -1.871721E+04  8.402546E+03  7.053862E-12  4.554938E-10
       118  12 -4.342610E+05 -1.149003E+05 -4.418635E+04 -4.593047E+04 -6.089977E-09 -5.260849E-10
       118  13 -6.150250E+03  1.664126E+05  2.078761E+05 -2.227600E+04 -1.091074E-09  4.707602E-10
       118  14 -3.376316E+04 -1.852750E+04  9.182116E+04 -9.470953E+03  6.246570E-10 -3.102264E-10
       118  15 -6.129482E+03 -9.076394E+03  5.653773E+04 -2.211966E+04  1.472274E-09 -2.350140E-10
       118  16  5.043886E+05  2.934191E+05  3.332438E+05 -8.188106E+04 -3.746579E-09  1.821392E-10
       118  17  4.350422E+05  9.728434E+04  2.023445E+05 -2.735806E+04 -1.497509E-09  5.243411E-10
       118  18  4.221720E+05  9.673653E+04  1.572495E+05  1.707654E+03  6.359579E-09 -2.884866E-10
       118  19 -5.164256E+05  3.940475E+04  8.252382E+04  3.728055E+04 -1.317933E+05 -5.743380E+03
       118  20 -5.023571E+05 -1.343514E+05 -1.870152E+04  8.403779E+03 -8.975077E+04 -1.706438E+04
       118  21 -4.342585E+05 -1.148994E+05 -4.418157E+04 -4.592984E+04 -4.771581E+04 -1.625603E+04
       118  22 -6.128491E+03  1.664180E+05  2.079142E+05 -2.227534E+04 -1.423290E+05 -5.740824E+03
       118  23 -3.375380E+04 -1.852487E+04  9.183795E+04 -9.469675E+03 -9.297443E+04 -1.706337E+04
       118  24 -6.127367E+03 -9.075600E+03  5.654180E+04 -2.211909E+04 -4.363092E+04 -1.625497E+04
       118  25  5.044137E+05  2.934254E+05  3.332877E+05 -8.188035E+04 -1.528733E+05 -5.736251E+03
       118  26  4.350523E+05  9.728713E+04  2.023625E+05 -2.735674E+04 -9.620048E+04 -1.706216E+04
       118  27  4.221737E+05  9.673723E+04  1.572529E+05  1.708172E+03 -3.954323E+04 -1.625359E+04
       119   1 -3.991680E+05 -7.940781E+04 -4.438889E+04 -1.758554E+04  3.542473E+04  1.358428E+04
       119   2 -3.612762E+05 -8.615979E+04 -5.666924E+04 -8.241316E+03  2.377742E+04  1.255229E+04
       119   3 -3.172964E+05 -7.508074E+04 -5.688080E+04 -2.458088E+04  1.212888E+04  1.078886E+04
       119   4 -1.702675E+04  1.508587E+04  4.586665E+04 -2.221711E+04  3.504241E+04  1.358329E+04
       119   5 -2.010405E+04 -1.828100E+03  2.374116E+04 -9.373177E+03  2.294962E+04  1.255158E+04
       119   6 -1.702105E+04 -8.392931E+02  1.398851E+04 -2.221197E+04  1.085636E+04  1.078849E+04
       119   7  3.652489E+05  1.095692E+05  1.361121E+05 -2.685156E+04  3.465986E+04  1.358231E+04
       119   8  3.211752E+05  8.249528E+04  1.041435E+05 -1.050567E+04  2.212136E+04  1.255087E+04
       119   9  2.833372E+05  7.339572E+04  8.485160E+04 -1.984190E+04  9.583223E+03  1.078810E+04
       119  10 -3.991694E+05 -7.940835E+04 -4.439160E+04 -1.758593E+04 -2.765456E-09 -1.354699E-09
       119  11 -3.612768E+05 -8.616011E+04 -5.667060E+04 -8.241556E+03  2.231608E-10 -2.513239E-10
       119  12 -3.172966E+05 -7.508090E+04 -5.688130E+04 -2.458099E+04 -1.183229E-09  2.238226E-10
       119  13 -1.702811E+04  1.508535E+04  4.586400E+04 -2.221749E+04 -1.089195E-09 -9.524775E-10
       119  14 -2.010466E+04 -1.828410E+03  2.373987E+04 -9.373409E+03 -5.159190E-10 -4.194056E-10
       119  15 -1.702121E+04 -8.394497E+02  1.398807E+04 -2.221206E+04 -6.651063E-10  7.970747E-10
       119  16  3.652475E+05  1.095687E+05  1.361095E+05 -2.685194E+04  2.363572E-09 -4.874447E-10
       119  17  3.211746E+05  8.249498E+04  1.041423E+05 -1.050589E+04 -4.543386E-10 -6.342075E-10
       119  18  2.833371E+05  7.339557E+04  8.485121E+04 -1.984198E+04  2.377300E-11  1.449016E-09
       119  19 -3.991680E+05 -7.940781E+04 -4.438889E+04 -1.758554E+04 -3.542473E+04 -1.358428E+04
       119  20 -3.612762E+05 -8.615979E+04 -5.666924E+04 -8.241316E+03 -2.377742E+04 -1.255229E+04
       119  21 -3.172964E+05 -7.508074E+04 -5.688080E+04 -2.458088E+04 -1.212888E+04 -1.078886E+04
       119  22 -1.702675E+04  1.508587E+04  4.586665E+04 -2.221711E+04 -3.504241E+04 -1.358329E+04
       119  23 -2.010405E+04 -1.828100E+03  2.374116E+04 -9.373177E+03 -2.294962E+04 -1.255158E+04
       119  24 -1.702105E+04 -8.392931E+02  1.398851E+04 -2.221197E+04 -1.085636E+04 -1.078849E+04
       119  25  3.652489E+05  1.095692E+05  1.361121E+05 -2.685156E+04 -3.465986E+04 -1.358231E+04
       119  26  3.211752E+05  8.249528E+04  1.041435E+05 -1.050567E+04 -2.212136E+04 -1.255087E+04
       119  27  2.833372E+05  7.339572E+04  8.485160E+04 -1.984190E+04 -9.583223E+03 -1.078810E+04
       120   1 -2.725211E+05 -6.151810E+04 -4.895464E+04 -2.197512E+04  9.714144E+03  9.630158E+03
       120   2 -2.319905E+05 -5.293552E+04 -4.427242E+04 -9.353565E+03  6.739303E+03  7.854790E+03
       120   3 -1.906289E+05 -4.270897E+04 -3.723515E+04 -2.244821E+04  3.763520E+03  6.035232E+03
       120   4 -1.819814E+04  1.321310E+03  1.087495E+04 -2.222061E+04  8.664767E+03  9.629914E+03
       120   5 -1.861276E+04 -1.968060E+02  6.011243E+03 -9.362852E+03  5.662256E+03  7.854740E+03
       120   6 -1.819417E+04 -6.663011E+01  3.520938E+03 -2.222073E+04  2.658996E+03  6.035387E+03
       120   7  2.361844E+05  6.415611E+04  7.070010E+04 -2.246620E+04  7.614961E+03  9.629670E+03
       120   8  1.948069E+05  5.253866E+04  5.629177E+04 -9.372142E+03  4.584840E+03  7.854690E+03
       120   9  1.542679E+05  4.257358E+04  4.427497E+04 -2.199319E+04  1.554167E+03  6.035541E+03
       120  10 -2.725212E+05 -6.151823E+04 -4.895499E+04 -2.197520E+04 -8.172740E-10  3.119461E-10
       120  11 -2.319906E+05 -5.293560E+04 -4.427262E+04 -9.353607E+03  9.488869E-10 -7.727103E-11
       120  12 -1.906290E+05 -4.270902E+04 -3.723524E+04 -2.244823E+04 -1.818691E-09 -1.285232E-10
       120  13 -1.819824E+04  1.321191E+03  1.087463E+04 -2.222068E+04 -1.075949E-09  8.991295E-10
       120  14 -1.861281E+04 -1.968808E+02  6.011067E+03 -9.362888E+03 -2.163629E-09 -2.415453E-10
       120  15 -1.819419E+04 -6.667113E+01  3.520857E+03 -2.222074E+04 -2.015763E-09 -6.054070E-10
       120  16  2.361843E+05  6.415599E+04  7.069982E+04 -2.246626E+04 -2.980054E-10  1.484502E-09
       120  17  1.948069E+05  5.253858E+04  5.629162E+04 -9.372171E+03 -1.728645E-09 -3.118078E-10
       120  18  1.542679E+05  4.257354E+04  4.427489E+04 -2.199319E+04 -2.925717E-10 -6.963161E-10
       120  19 -2.725211E+05 -6.151810E+04 -4.895464E+04 -2.197512E+04 -9.714144E+03 -9.630158E+03
       120  20 -2.319905E+05 -5.293552E+04 -4.427242E+04 -9.353565E+03 -6.739303E+03 -7.854790E+03
       120  21 -1.906289E+05 -4.270897E+04 -3.723515E+04 -2.244821E+04 -3.763520E+03 -6.035232E+03
       120  22 -1.819814E+04  1.321310E+03  1.087495E+04 -2.222061E+04 -8.664767E+03 -9.629914E+03
       120  23 -1.861276E+04 -1.968060E+02  6.011243E+03 -9.362852E+03 -5.662256E+03 -7.854740E+03
       120  24 -1.819417E+04 -6.663011E+01  3.520938E+03 -2.222073E+04 -2.658996E+03 -6.035387E+03
       120  25  2.361844E+05  6.415611E+04  7.070010E+04 -2.246620E+04 -7.614961E+03 -9.629670E+03
       120  26  1.948069E+05  5.253866E+04  5.629177E+04 -9.372142E+03 -4.584840E+03 -7.854690E+03
       120  27  1.542679E+05  4.257358E+04  4.427497E+04 -2.199319E+04 -1.554167E+03 -6.035541E+03
       121   1 -1.448138E+05 -3.111751E+04 -2.695882E+04 -2.222051E+04  3.189464E+03  4.968037E+03
       121   2 -1.039216E+05 -2.115283E+04 -1.852845E+04 -9.369247E+03  2.387264E+03  3.147467E+03
       121   3 -6.289498E+04 -1.102319E+04 -9.537473E+03 -2.223840E+04  1.584725E+03  1.324298E+03
       121   4 -1.834613E+04  1.142556E+02  2.720113E+03 -2.222168E+04  2.098198E+03  4.968280E+03
       121   5 -1.841189E+04 -1.982706E+01  1.620726E+03 -9.361604E+03  1.294258E+03  3.147785E+03
       121   6 -1.834452E+04  1.142251E+01  1.083124E+03 -2.222172E+04  4.900289E+02  1.324699E+03
       121   7  1.081363E+05  3.134489E+04  3.239796E+04 -2.222285E+04  1.006712E+03  4.968522E+03
       121   8  6.710456E+04  2.111265E+04  2.176940E+04 -9.353959E+03  2.011010E+02  3.148104E+03
       121   9  2.620777E+04  1.104590E+04  1.170359E+04 -2.220504E+04 -6.047452E+02  1.325099E+03
       121  10 -1.448138E+05 -3.111754E+04 -2.695888E+04 -2.222052E+04 -1.113978E-09 -1.301902E-11
       121  11 -1.039216E+05 -2.115284E+04 -1.852848E+04 -9.369253E+03 -9.589049E-10  6.441592E-10
       121  12 -6.289498E+04 -1.102320E+04 -9.537481E+03 -2.223840E+04 -2.010036E-09  7.423308E-10
       121  13 -1.834614E+04  1.142279E+02  2.720059E+03 -2.222169E+04 -2.147166E-09  8.734957E-11
       121  14 -1.841190E+04 -1.983815E+01  1.620704E+03 -9.361607E+03 -5.609899E-10  2.615996E-10
       121  15 -1.834452E+04  1.142056E+01  1.083120E+03 -2.222172E+04 -1.747343E-09  8.603692E-11
       121  16  1.081363E+05  3.134486E+04  3.239791E+04 -2.222286E+04 -5.053570E-10 -5.952789E-10
       121  17  6.710455E+04  2.111264E+04  2.176938E+04 -9.353959E+03  2.081761E-09  5.361345E-10
       121  18  2.620777E+04  1.104589E+04  1.170358E+04 -2.220504E+04  1.450374E-09 -3.727051E-10
       121  19 -1.448138E+05 -3.111751E+04 -2.695882E+04 -2.222051E+04 -3.189464E+03 -4.968037E+03
       121  20 -1.039216E+05 -2.115283E+04 -1.852845E+04 -9.369247E+03 -2.387264E+03 -3.147467E+03
       121  21 -6.289498E+04 -1.102319E+04 -9.537473E+03 -2.223840E+04 -1.584725E+03 -1.324298E+03
       121  22 -1.834613E+04  1.142556E+02  2.720113E+03 -2.222168E+04 -2.098198E+03 -4.968280E+03
       121  23 -1.841189E+04 -1.982706E+01  1.620726E+03 -9.361604E+03 -1.294258E+03 -3.147785E+03
       121  24 -1.834452E+04  1.142251E+01  1.083124E+03 -2.222172E+04 -4.900289E+02 -1.324699E+03
       121  25  1.081363E+05  3.134489E+04  3.239796E+04 -2.222285E+04 -1.006712E+03 -4.968522E+03
       121  26  6.710456E+04  2.111265E+04  2.176940E+04 -9.353959E+03 -2.011010E+02 -3.148104E+03
       121  27  2.620777E+04  1.104590E+04  1.170359E+04 -2.220504E+04  6.047452E+02 -1.325099E+03
       122   1 -1.693423E+04  3.967226E+02  1.405814E+03 -2.222590E+04  1.400754E+03  2.622553E+02
       122   2  2.400072E+04  1.047053E+04  1.086905E+04 -9.371547E+03  9.623241E+02 -1.560894E+03
       122   3  6.499384E+04  2.062105E+04  2.063229E+04 -2.223838E+04  5.240154E+02 -3.381719E+03
       122   4 -1.836092E+04  1.951010E+01  9.464814E+02 -2.222195E+04  3.060515E+02  2.626689E+02
       122   5 -1.838981E+04 -5.133098E+00  8.810711E+02 -9.361304E+03 -1.309934E+02 -1.560523E+03
       122   6 -1.836172E+04  4.696361E+01  1.114944E+03 -2.222194E+04 -5.678883E+02 -3.381384E+03
       122   7 -1.978760E+04 -3.577019E+02  4.871529E+02 -2.221801E+04 -7.886486E+02  2.630824E+02
       122   8 -6.077869E+04 -1.048093E+04 -9.107032E+03 -9.351061E+03 -1.224237E+03 -1.560152E+03
       122   9 -1.017109E+05 -2.052762E+04 -1.840287E+04 -2.220551E+04 -1.659646E+03 -3.381049E+03
       122  10 -1.693423E+04  3.967220E+02  1.405810E+03 -2.222590E+04 -1.358424E-09  2.136420E-10
       122  11  2.400072E+04  1.047053E+04  1.086905E+04 -9.371546E+03 -4.349338E-10 -2.999160E-10
       122  12  6.499383E+04  2.062104E+04  2.063226E+04 -2.223837E+04  3.805098E-10  1.714376E-10
       122  13 -1.836092E+04  1.951000E+01  9.464811E+02 -2.222195E+04  1.083698E-09  3.040583E-10
       122  14 -1.838981E+04 -5.135718E+00  8.810665E+02 -9.361304E+03 -2.707093E-09  1.223230E-10
       122  15 -1.836172E+04  4.695125E+01  1.114922E+03 -2.222195E+04  1.071566E-09 -2.017225E-10
       122  16 -1.978760E+04 -3.577022E+02  4.871516E+02 -2.221801E+04  1.308176E-09 -4.292795E-10
       122  17 -6.077870E+04 -1.048093E+04 -9.107039E+03 -9.351063E+03  7.496182E-10  8.537821E-11
       122  18 -1.017109E+05 -2.052763E+04 -1.840289E+04 -2.220552E+04 -7.824480E-10  2.339107E-10
       122  19 -1.693423E+04  3.967226E+02  1.405814E+03 -2.222590E+04 -1.400754E+03 -2.622553E+02
       122  20  2.400072E+04  1.047053E+04  1.086905E+04 -9.371547E+03 -9.623241E+02  1.560894E+03
       122  21  6.499384E+04  2.062105E+04  2.063229E+04 -2.223838E+04 -5.240154E+02  3.381719E+03
       122  22 -1.836092E+04  1.951010E+01  9.464814E+02 -2.222195E+04 -3.060515E+02 -2.626689E+02
       122  23 -1.838981E+04 -5.133098E+00  8.810711E+02 -9.361304E+03  1.309934E+02  1.560523E+03
       122  24 -1.836172E+04  4.696361E+01  1.114944E+03 -2.222194E+04  5.678883E+02  3.381384E+03
       122  25 -1.978760E+04 -3.577019E+02  4.871529E+02 -2.221801E+04  7.886486E+02 -2.630824E+02
       122  26 -6.077869E+04 -1.048093E+04 -9.107032E+03 -9.351061E+03  1.224237E+03  1.560152E+03
       122  27 -1.017109E+05 -2.052762E+04 -1.840287E+04 -2.220551E+04  1.659646E+03  3.381049E+03
       123   1  1.110240E+05  3.197089E+04  3.193717E+04 -2.216599E+04  3.149307E+02 -4.448368E+03
       123   2  1.518373E+05  4.201385E+04  4.224959E+04 -9.387464E+03 -7.726687E+02 -6.268020E+03
       123   3  1.929489E+05  5.262959E+04  5.341519E+04 -2.232215E+04 -1.859781E+03 -8.046841E+03
       123   4 -1.831207E+04 -1.368834E+01  1.342657E+03 -2.222028E+04 -7.893452E+02 -4.448095E+03
       123   5 -1.845967E+04 -6.719480E+01  2.127402E+03 -9.363415E+03 -1.852220E+03 -6.267913E+03
       123   6 -1.831528E+04  4.478570E+02  3.748286E+03 -2.222019E+04 -2.914535E+03 -8.046888E+03
       123   7 -1.476328E+05 -3.199946E+04 -2.925301E+04 -2.227456E+04 -1.893392E+03 -4.447821E+03
       123   8 -1.887300E+05 -4.215031E+04 -3.799678E+04 -9.339371E+03 -2.931476E+03 -6.267805E+03
       123   9 -2.295384E+05 -5.173705E+04 -4.592168E+04 -2.211827E+04 -3.968934E+03 -8.046936E+03
       123  10  1.110240E+05  3.197087E+04  3.193713E+04 -2.216598E+04  5.909013E-11  4.501407E-10
       123  11  1.518373E+05  4.201380E+04  4.224951E+04 -9.387468E+03 -3.895842E-10 -5.147365E-10
       123  12  1.929489E+05  5.262951E+04  5.341506E+04 -2.232217E+04  7.207067E-10  5.518650E-11
       123  13 -1.831207E+04 -1.370975E+01  1.342619E+03 -2.222028E+04 -7.827258E-12 -8.090037E-12
       123  14 -1.845968E+04 -6.723790E+01  2.127321E+03 -9.363424E+03  3.209323E-09 -5.973905E-10
       123  15 -1.831531E+04  4.477852E+02  3.748148E+03 -2.222021E+04  1.889787E-09 -1.599557E-10
       123  16 -1.476328E+05 -3.199948E+04 -2.925305E+04 -2.227456E+04 -6.371869E-10  4.155275E-10
       123  17 -1.887300E+05 -4.215035E+04 -3.799687E+04 -9.339386E+03  8.976998E-10 -5.535332E-10
       123  18 -2.295384E+05 -5.173713E+04 -4.592183E+04 -2.211829E+04  5.597003E-10 -6.208762E-10
       123  19  1.110240E+05  3.197089E+04  3.193717E+04 -2.216599E+04 -3.149307E+02  4.448368E+03
       123  20  1.518373E+05  4.201385E+04  4.224959E+04 -9.387464E+03  7.726687E+02  6.268020E+03
       123  21  1.929489E+05  5.262959E+04  5.341519E+04 -2.232215E+04  1.859781E+03  8.046841E+03
       123  22 -1.831207E+04 -1.368834E+01  1.342657E+03 -2.222028E+04  7.893452E+02  4.448095E+03
       123  23 -1.845967E+04 -6.719480E+01  2.127402E+03 -9.363415E+03  1.852220E+03  6.267913E+03
       123  24 -1.831528E+04  4.478570E+02  3.748286E+03 -2.222019E+04  2.914535E+03  8.046888E+03
       123  25 -1.476328E+05 -3.199946E+04 -2.925301E+04 -2.227456E+04  1.893392E+03  4.447821E+03
       123  26 -1.887300E+05 -4.215031E+04 -3.799678E+04 -9.339371E+03  2.931476E+03  6.267805E+03
       123  27 -2.295384E+05 -5.173705E+04 -4.592168E+04 -2.211827E+04  3.968934E+03  8.046936E+03
       124   1  2.393335E+05  6.329759E+04  6.550805E+04 -2.142566E+04 -2.407917E+03 -9.197014E+03
       124   2  2.791864E+05  7.304087E+04  7.834574E+04 -9.753215E+03 -6.939363E+03 -1.096169E+04
       124   3  3.212501E+05  8.894899E+04  9.569007E+04 -2.376837E+04 -1.147033E+04 -1.205214E+04
       124   4 -1.791029E+04 -2.860132E+02  4.798629E+03 -2.221438E+04 -3.668396E+03 -9.197188E+03
       124   5 -1.898302E+04 -6.332137E+02  8.097209E+03 -9.370698E+03 -7.793395E+03 -1.096213E+04
       124   6 -1.791581E+04  5.115700E+03  1.562188E+04 -2.221531E+04 -1.191762E+04 -1.205272E+04
       124   7 -2.750932E+05 -6.387434E+04 -5.591536E+04 -2.300276E+04 -4.928356E+03 -9.197360E+03
       124   8 -3.170706E+05 -7.431365E+04 -6.215745E+04 -8.988366E+03 -8.647019E+03 -1.096258E+04
       124   9 -3.569759E+05 -7.872582E+04 -6.445425E+04 -2.066311E+04 -1.236467E+04 -1.205330E+04
       124  10  2.393334E+05  6.329749E+04  6.550789E+04 -2.142568E+04 -2.992110E-10 -1.576911E-10
       124  11  2.791863E+05  7.304073E+04  7.834543E+04 -9.753276E+03 -1.137322E-09 -8.100430E-10
       124  12  3.212499E+05  8.894880E+04  9.568955E+04 -2.376848E+04 -5.926773E-10 -3.833258E-11
       124  13 -1.791033E+04 -2.861077E+02  4.798444E+03 -2.221440E+04 -1.072765E-09 -1.987400E-10
       124  14 -1.898311E+04 -6.333591E+02  8.096870E+03 -9.370767E+03 -1.610859E-09 -2.101753E-10
       124  15 -1.791600E+04  5.115505E+03  1.562134E+04 -2.221542E+04  9.435715E-10 -8.234112E-11
       124  16 -2.750933E+05 -6.387444E+04 -5.591557E+04 -2.300279E+04  2.930121E-10 -2.606034E-10
       124  17 -3.170707E+05 -7.431380E+04 -6.215781E+04 -8.988443E+03 -5.930843E-10  2.607510E-10
       124  18 -3.569761E+05 -7.872602E+04 -6.445481E+04 -2.066323E+04  5.173537E-10 -2.686464E-11
       124  19  2.393335E+05  6.329759E+04  6.550805E+04 -2.142566E+04  2.407917E+03  9.197014E+03
       124  20  2.791864E+05  7.304087E+04  7.834574E+04 -9.753215E+03  6.939363E+03  1.096169E+04
       124  21  3.212501E+05  8.894899E+04  9.569007E+04 -2.376837E+04  1.147033E+04  1.205214E+04
       124  22 -1.791029E+04 -2.860132E+02  4.798629E+03 -2.221438E+04  3.668396E+03  9.197188E+03
       124  23 -1.898302E+04 -6.332137E+02  8.097209E+03 -9.370698E+03  7.793395E+03  1.096213E+04
       124  24 -1.791581E+04  5.115700E+03  1.562188E+04 -2.221531E+04  1.191762E+04  1.205272E+04
       124  25 -2.750932E+05 -6.387434E+04 -5.591536E+04 -2.300276E+04  4.928356E+03  9.197360E+03
       124  26 -3.170706E+05 -7.431365E+04 -6.215745E+04 -8.988366E+03  8.647019E+03  1.096258E+04
       124  27 -3.569759E+05 -7.872582E+04 -6.445425E+04 -2.066311E+04  1.236467E+04  1.205330E+04
       125   1  3.710334E+05  9.204631E+04  1.098449E+05 -1.398227E+04 -1.098597E+04 -1.458827E+04
       125   2  4.020649E+05  9.885601E+04  1.316234E+05 -1.546026E+04 -3.449142E+04 -1.545038E+04
       125   3  4.531635E+05  1.729870E+05  1.855658E+05 -4.232477E+04 -5.800652E+04 -5.147344E+03
       125   4 -1.419697E+04 -3.108355E+03  1.925463E+04 -2.213628E+04 -1.484276E+04 -1.459007E+04
       125   5 -2.365754E+04 -6.336108E+03  3.124811E+04 -9.463393E+03 -3.163555E+04 -1.544981E+04
       125   6 -1.420372E+04  5.661673E+04  7.075883E+04 -2.217709E+04 -4.843628E+04 -5.142075E+03
       125   7 -3.992906E+05 -9.827335E+04 -7.134570E+04 -3.028521E+04 -1.869718E+04 -1.459177E+04
       125   8 -4.492133E+05 -1.115410E+05 -6.913964E+04 -3.470681E+03 -2.878161E+04 -1.544918E+04
       125   9 -4.813711E+05 -5.976818E+04 -4.406360E+04 -2.044635E+03 -3.887321E+04 -5.136185E+03
       125  10  3.710332E+05  9.204605E+04  1.098442E+05 -1.398240E+04  3.679232E-10  4.191521E-10
       125  11  4.020636E+05  9.885543E+04  1.316207E+05 -1.546069E+04  1.414811E-09  9.275264E-11
       125  12  4.531599E+05  1.729861E+05  1.855594E+05 -4.232501E+04  4.934035E-10  3.700893E-10
       125  13 -1.419726E+04 -3.108643E+03  1.925382E+04 -2.213645E+04  2.523605E-11 -5.363630E-10
       125  14 -2.365868E+04 -6.336632E+03  3.124578E+04 -9.463787E+03 -1.575034E-09  2.328544E-10
       125  15 -1.420625E+04  5.661607E+04  7.075437E+04 -2.217729E+04 -1.512321E-11 -2.594984E-10
       125  16 -3.992910E+05 -9.827367E+04 -7.134675E+04 -3.028543E+04  6.858095E-10 -2.992573E-10
       125  17 -4.492142E+05 -1.115415E+05 -6.914165E+04 -3.471039E+03 -3.069120E-09 -1.709818E-10
       125  18 -4.813728E+05 -5.976862E+04 -4.406649E+04 -2.044796E+03 -1.072129E-09  7.280781E-10
       125  19  3.710334E+05  9.204631E+04  1.098449E+05 -1.398227E+04  1.098597E+04  1.458827E+04
       125  20  4.020649E+05  9.885601E+04  1.316234E+05 -1.546026E+04  3.449142E+04  1.545038E+04
       125  21  4.531635E+05  1.729870E+05  1.855658E+05 -4.232477E+04  5.800652E+04  5.147344E+03
       125  22 -1.419697E+04 -3.108355E+03  1.925463E+04 -2.213628E+04  1.484276E+04  1.459007E+04
       125  23 -2.365754E+04 -6.336108E+03  3.124811E+04 -9.463393E+03  3.163555E+04  1.544981E+04
       125  24 -1.420372E+04  5.661673E+04  7.075883E+04 -2.217709E+04  4.843628E+04  5.142075E+03
       125  25 -3.992906E+05 -9.827335E+04 -7.134570E+04 -3.028521E+04  1.869718E+04  1.459177E+04
       125  26 -4.492133E+05 -1.115410E+05 -6.913964E+04 -3.470681E+03  2.878161E+04  1.544918E+04
       125  27 -4.813711E+05 -5.976818E+04 -4.406360E+04 -2.044635E+03  3.887321E+04  5.136185E+03
       126   1  5.103295E+05  1.037815E+06  5.039762E+05 -2.424408E+05  2.037386E+04  4.223841E+04
       126   2  3.910692E+05  5.886055E+05  3.738367E+05 -1.029269E+05  5.719361E+04  1.093985E+04
       126   3  2.828637E+05  1.468897E+05  2.669326E+05 -2.409963E+05  4.215187E+04 -2.044942E+04
       126   4  3.980265E+03 -9.941855E+05  4.023947E+03 -2.385333E+05  2.044600E+04  4.573232E+03
       126   5 -4.279480E+02 -9.949830E+05  2.295637E+02 -9.972326E+04  5.721964E+04  4.444005E+03
       126   6  8.362015E+02 -9.938620E+05 -1.938366E+03 -2.385398E+05  4.207323E+04  4.201652E+03
       126   7 -5.026756E+05 -3.022426E+06 -4.962277E+05 -2.346362E+05  2.051781E+04 -3.296902E+04
       126   8 -3.921047E+05 -2.576264E+06 -3.735507E+05 -9.652626E+04  5.724565E+04 -2.035382E+03
       126   9 -2.812840E+05 -2.133414E+06 -2.708968E+05 -2.360866E+05  4.199470E+04  2.880768E+04
       126  10  5.103286E+05  1.037813E+06  5.039721E+05 -2.424415E+05 -8.354899E-11  1.078264E-09
       126  11  3.910657E+05  5.886045E+05  3.738304E+05 -1.029274E+05  9.202466E-10  7.893392E-10
       126  12  2.828616E+05  1.468887E+05  2.669284E+05 -2.409956E+05  9.857453E-10 -1.417246E-09
       126  13  3.979811E+03 -9.941856E+05  4.023122E+03 -2.385334E+05 -2.282590E-09  1.564255E-09
       126  14 -4.314675E+02 -9.949839E+05  2.233766E+02 -9.972347E+04  1.196102E-09 -5.492638E-11
       126  15  8.342967E+02 -9.938625E+05 -1.941725E+03 -2.385399E+05 -1.260535E-09  1.793877E-09
       126  16 -5.026763E+05 -3.022428E+06 -4.962305E+05 -2.346357E+05 -8.219819E-11 -1.045180E-09
       126  17 -3.921082E+05 -2.576265E+06 -3.735569E+05 -9.652616E+04  3.089606E-10 -2.567638E-09
       126  18 -2.812862E+05 -2.133416E+06 -2.709017E+05 -2.360875E+05 -2.212739E-09  1.833938E-09
       126  19  5.103295E+05  1.037815E+06  5.039762E+05 -2.424408E+05 -2.037386E+04 -4.223841E+04
       126  20  3.910692E+05  5.886055E+05  3.738367E+05 -1.029269E+05 -5.719361E+04 -1.093985E+04
       126  21  2.828637E+05  1.468897E+05  2.669326E+05 -2.409963E+05 -4.215187E+04  2.044942E+04
       126  22  3.980265E+03 -9.941855E+05  4.023947E+03 -2.385333E+05 -2.044600E+04 -4.573232E+03
       126  23 -4.279480E+02 -9.949830E+05  2.295637E+02 -9.972326E+04 -5.721964E+04 -4.444005E+03
       126  24  8.362015E+02 -9.938620E+05 -1.938366E+03 -2.385398E+05 -4.207323E+04 -4.201652E+03
       126  25 -5.026756E+05 -3.022426E+06 -4.962277E+05 -2.346362E+05 -2.051781E+04  3.296902E+04
       126  26 -3.921047E+05 -2.576264E+06 -3.735507E+05 -9.652626E+04 -5.724565E+04  2.035382E+03
       126  27 -2.812840E+05 -2.133414E+06 -2.708968E+05 -2.360866E+05 -4.199470E+04 -2.880768E+04
       127   1  1.598635E+05 -3.567994E+05  1.471732E+05 -2.402060E+05  2.330763E+04 -5.017316E+03
       127   2  4.843204E+04 -8.024671E+05  3.786791E+04 -9.973169E+04  7.017010E+03 -1.775575E+03
       127   3 -6.679399E+04 -1.251647E+06 -7.503417E+04 -2.401337E+05 -9.806307E+03  1.455782E+03
       127   4  2.045477E+03 -9.948864E+05 -3.366860E+03 -2.392540E+05  2.327406E+04  4.582388E+03
       127   5  1.294942E+03 -9.929940E+05 -7.073756E+03 -9.882298E+04  6.980964E+03  8.140018E+03
       127   6 -3.291139E+03 -9.948513E+05 -1.458399E+04 -2.392737E+05 -9.845527E+03  1.168958E+04
       127   7 -1.558017E+05 -1.632598E+06 -1.539347E+05 -2.383027E+05  2.324050E+04  1.417227E+04
       127   8 -4.584470E+04 -1.183487E+06 -5.201756E+04 -9.791451E+04  6.944941E+03  1.805258E+04
       127   9  6.020706E+04 -7.379945E+05  4.586205E+04 -2.384133E+05 -9.884708E+03  2.192760E+04
       127  10  1.598630E+05 -3.567995E+05  1.471721E+05 -2.402059E+05  8.819970E-10  4.908345E-10
       127  11  4.843199E+04 -8.024671E+05  3.786781E+04 -9.973168E+04  5.553844E-10  9.525320E-10
       127  12 -6.679409E+04 -1.251647E+06 -7.503435E+04 -2.401336E+05  1.932696E-09 -1.964413E-09
       127  13  2.044890E+03 -9.948866E+05 -3.367917E+03 -2.392541E+05  2.930644E-10  3.638299E-09
       127  14  1.294872E+03 -9.929941E+05 -7.073973E+03 -9.882303E+04  3.308657E-11  1.487514E-10
       127  15 -3.291279E+03 -9.948514E+05 -1.458443E+04 -2.392736E+05  3.869417E-10  2.377208E-09
       127  16 -1.558023E+05 -1.632599E+06 -1.539360E+05 -2.383029E+05 -2.654615E-09 -5.567166E-10
       127  17 -4.584484E+04 -1.183488E+06 -5.201826E+04 -9.791461E+04  9.447734E-10 -3.844494E-09
       127  18  6.020682E+04 -7.379951E+05  4.586096E+04 -2.384132E+05 -1.440018E-09  2.645273E-09
       127  19  1.598635E+05 -3.567994E+05  1.471732E+05 -2.402060E+05 -2.330763E+04  5.017316E+03
       127  20  4.843204E+04 -8.024671E+05  3.786791E+04 -9.973169E+04 -7.017010E+03  1.775575E+03
       127  21 -6.679399E+04 -1.251647E+06 -7.503417E+04 -2.401337E+05  9.806307E+03 -1.455782E+03
       127  22  2.045477E+03 -9.948864E+05 -3.366860E+03 -2.392540E+05 -2.327406E+04 -4.582388E+03
       127  23  1.294942E+03 -9.929940E+05 -7.073756E+03 -9.882298E+04 -6.980964E+03 -8.140018E+03
       127  24 -3.291139E+03 -9.948513E+05 -1.458399E+04 -2.392737E+05  9.845527E+03 -1.168958E+04
       127  25 -1.558017E+05 -1.632598E+06 -1.539347E+05 -2.383027E+05 -2.324050E+04 -1.417227E+04
       127  26 -4.584470E+04 -1.183487E+06 -5.201756E+04 -9.791451E+04 -6.944941E+03 -1.805258E+04
       127  27  6.020706E+04 -7.379945E+05  4.586205E+04 -2.384133E+05  9.884708E+03 -2.192760E+04
       128   1 -1.834285E+05 -1.757565E+06 -1.974911E+05 -2.289113E+05 -2.751999E+04 -8.157992E+03
       128   2 -2.915582E+05 -2.192137E+06 -3.143104E+05 -1.027575E+05 -4.355975E+04  3.380074E+04
       128   3 -4.657759E+05 -2.649281E+06 -4.752493E+05 -2.553823E+05 -1.628278E+04  7.584956E+04
       128   4  4.640588E+03 -9.981904E+05 -1.809438E+04 -2.387419E+05 -2.760103E+04  1.433365E+04
       128   5  6.289241E+03 -9.892292E+05 -3.001121E+04 -9.943949E+04 -4.354356E+04  3.040011E+04
       128   6 -5.355940E+04 -9.984678E+05 -6.797447E+04 -2.388921E+05 -1.620477E+04  4.658781E+04
       128   7  1.926688E+05 -2.382831E+05  1.612644E+05 -2.485841E+05 -2.768273E+04  3.685270E+04
       128   8  3.040329E+05  2.150133E+05  2.541878E+05 -9.611387E+04 -4.352743E+04  2.699286E+04
       128   9  3.584551E+05  6.548356E+05  3.391019E+05 -2.223559E+05 -1.612844E+04  1.724797E+04
       128  10 -1.834293E+05 -1.757565E+06 -1.974927E+05 -2.289115E+05  6.710143E-11 -7.925667E-10
       128  11 -2.915605E+05 -2.192139E+06 -3.143161E+05 -1.027564E+05 -1.171035E-09  3.187395E-10
       128  12 -4.657777E+05 -2.649288E+06 -4.752606E+05 -2.553813E+05 -2.173496E-10 -1.135806E-10
       128  13  4.639715E+03 -9.981909E+05 -1.809620E+04 -2.387416E+05 -7.086340E-10  3.738489E-09
       128  14  6.286957E+03 -9.892307E+05 -3.001651E+04 -9.943843E+04 -4.734301E-10 -8.913088E-11
       128  15 -5.356026E+04 -9.984702E+05 -6.797904E+04 -2.388915E+05  3.698140E-10  1.050252E-09
       128  16  1.926676E+05 -2.382848E+05  1.612604E+05 -2.485833E+05 -6.710008E-10  9.039041E-10
       128  17  3.040306E+05  2.150120E+05  2.541828E+05 -9.611292E+04 -4.829934E-10 -2.423656E-09
       128  18  3.584547E+05  6.548352E+05  3.391008E+05 -2.223557E+05 -6.255416E-11  3.452026E-10
       128  19 -1.834285E+05 -1.757565E+06 -1.974911E+05 -2.289113E+05  2.751999E+04  8.157992E+03
       128  20 -2.915582E+05 -2.192137E+06 -3.143104E+05 -1.027575E+05  4.355975E+04 -3.380074E+04
       128  21 -4.657759E+05 -2.649281E+06 -4.752493E+05 -2.553823E+05  1.628278E+04 -7.584956E+04
       128  22  4.640588E+03 -9.981904E+05 -1.809438E+04 -2.387419E+05  2.760103E+04 -1.433365E+04
       128  23  6.289241E+03 -9.892292E+05 -3.001121E+04 -9.943949E+04  4.354356E+04 -3.040011E+04
       128  24 -5.355940E+04 -9.984678E+05 -6.797447E+04 -2.388921E+05  1.620477E+04 -4.658781E+04
       128  25  1.926688E+05 -2.382831E+05  1.612644E+05 -2.485841E+05  2.768273E+04 -3.685270E+04
       128  26  3.040329E+05  2.150133E+05  2.541878E+05 -9.611387E+04  4.352743E+04 -2.699286E+04
       128  27  3.584551E+05  6.548356E+05  3.391019E+05 -2.223559E+05  1.612844E+04 -1.724797E+04
       129   1 -2.063202E+06 -5.645195E+05 -2.941652E+05 -7.486914E+05 -1.335633E+05 -4.543996E+04
       129   2 -2.021365E+06 -3.633477E+05 -1.691221E+05 -7.551740E+05 -8.666556E+04 -1.810183E+04
       129   3 -2.038111E+06 -3.480549E+05 -1.287804E+05 -7.319873E+05 -3.630477E+04  3.727929E+01
       129   4 -1.738669E+06 -3.931094E+05 -1.964593E+05 -6.101815E+05 -1.262696E+05 -4.270963E+04
       129   5 -1.699540E+06 -2.279139E+05 -8.257320E+04 -6.523545E+05 -8.450570E+04 -1.729284E+04
       129   6 -1.717939E+06 -2.475277E+05 -4.927768E+04 -6.648688E+05 -3.928020E+04 -1.079836E+03
       129   7 -1.414029E+06 -2.216592E+05 -9.876362E+04 -4.715964E+05 -1.189717E+05 -3.997627E+04
       129   8 -1.377613E+06 -9.246603E+04  3.966565E+03 -5.494838E+05 -8.234460E+04 -1.648326E+04
       129   9 -1.397666E+06 -1.470006E+05  3.021779E+04 -5.977221E+05 -4.225731E+04 -2.197349E+03
       129  10 -2.063221E+06 -5.645265E+05 -2.942028E+05 -7.486963E+05  2.975628E-10  1.632753E-10
       129  11 -2.021373E+06 -3.633501E+05 -1.691369E+05 -7.551753E+05  6.810536E-10  5.703568E-10
       129  12 -2.038112E+06 -3.480552E+05 -1.287829E+05 -7.319873E+05  2.778203E-09  7.736772E-11
       129  13 -1.738687E+06 -3.931157E+05 -1.964928E+05 -6.101859E+05 -3.786131E-10  6.327877E-10
       129  14 -1.699548E+06 -2.279161E+05 -8.258723E+04 -6.523556E+05 -2.496043E-10  1.622450E-09
       129  15 -1.717941E+06 -2.475281E+05 -4.928059E+04 -6.648688E+05 -1.536838E-10  2.431420E-10
       129  16 -1.414044E+06 -2.216648E+05 -9.879330E+04 -4.716003E+05  7.782843E-10  8.400993E-10
       129  17 -1.377621E+06 -9.246815E+04  3.953279E+03 -5.494849E+05 -2.870082E-09  1.650692E-09
       129  18 -1.397668E+06 -1.470010E+05  3.021442E+04 -5.977221E+05 -1.463468E-09  2.770354E-10
       129  19 -2.063202E+06 -5.645195E+05 -2.941652E+05 -7.486914E+05  1.335633E+05  4.543996E+04
       129  20 -2.021365E+06 -3.633477E+05 -1.691221E+05 -7.551740E+05  8.666556E+04  1.810183E+04
       129  21 -2.038111E+06 -3.480549E+05 -1.287804E+05 -7.319873E+05  3.630477E+04 -3.727929E+01
       129  22 -1.738669E+06 -3.931094E+05 -1.964593E+05 -6.101815E+05  1.262696E+05  4.270963E+04
       129  23 -1.699540E+06 -2.279139E+05 -8.257320E+04 -6.523545E+05  8.450570E+04  1.729284E+04
       129  24 -1.717939E+06 -2.475277E+05 -4.927768E+04 -6.648688E+05  3.928020E+04  1.079836E+03
       129  25 -1.414029E+06 -2.216592E+05 -9.876362E+04 -4.715964E+05  1.189717E+05  3.997627E+04
       129  26 -1.377613E+06 -9.246603E+04  3.966565E+03 -5.494838E+05  8.234460E+04  1.648326E+04
       129  27 -1.397666E+06 -1.470006E+05  3.021779E+04 -5.977221E+05  4.225731E+04  2.197349E+03
       130   1 -1.980329E+06 -3.724583E+05 -1.108965E+05 -7.316756E+05 -3.146667E+04 -4.426622E+02
       130   2 -1.955868E+06 -3.367314E+05 -8.274893E+04 -7.177477E+05 -2.079043E+04  2.758708E+03
       130   3 -1.924916E+06 -3.320338E+05 -6.694986E+04 -7.158974E+05 -9.875776E+03  5.324876E+03
       130   4 -1.711330E+06 -2.671739E+05 -3.988950E+04 -6.539160E+05 -3.169437E+04 -5.287952E+02
       130   5 -1.713608E+06 -2.446650E+05 -1.946580E+04 -6.505125E+05 -2.136971E+04  2.540876E+03
       130   6 -1.709323E+06 -2.531105E+05 -1.110692E+04 -6.591870E+05 -1.080719E+04  4.975151E+03
       130   7 -1.442259E+06 -1.618833E+05  3.111122E+04 -5.761252E+05 -3.192218E+04 -6.149718E+02
       130   8 -1.471291E+06 -1.525946E+05  4.381225E+04 -5.832536E+05 -2.194924E+04  2.322950E+03
       130   9 -1.493687E+06 -1.741852E+05  4.473196E+04 -6.024592E+05 -1.173896E+04  4.625302E+03
       130  10 -1.980330E+06 -3.724586E+05 -1.108983E+05 -7.316756E+05 -1.585328E-09 -7.861718E-10
       130  11 -1.955868E+06 -3.367316E+05 -8.274976E+04 -7.177476E+05 -1.216446E-09  3.916684E-10
       130  12 -1.924916E+06 -3.320338E+05 -6.695010E+04 -7.158974E+05  1.408297E-09  2.418429E-10
       130  13 -1.711331E+06 -2.671742E+05 -3.989139E+04 -6.539160E+05  1.305580E-09 -7.291399E-11
       130  14 -1.713608E+06 -2.446651E+05 -1.946667E+04 -6.505125E+05 -1.953513E-10  3.959495E-10
       130  15 -1.709323E+06 -2.531106E+05 -1.110719E+04 -6.591870E+05 -4.996859E-10 -8.828433E-11
       130  16 -1.442260E+06 -1.618836E+05  3.110930E+04 -5.761252E+05  4.589779E-10  8.564347E-10
       130  17 -1.471292E+06 -1.525948E+05  4.381133E+04 -5.832535E+05  2.333999E-09  3.079384E-10
       130  18 -1.493687E+06 -1.741853E+05  4.473166E+04 -6.024591E+05  1.578513E-09 -5.184475E-10
       130  19 -1.980329E+06 -3.724583E+05 -1.108965E+05 -7.316756E+05  3.146667E+04  4.426622E+02
       130  20 -1.955868E+06 -3.367314E+05 -8.274893E+04 -7.177477E+05  2.079043E+04 -2.758708E+03
       130  21 -1.924916E+06 -3.320338E+05 -6.694986E+04 -7.158974E+05  9.875776E+03 -5.324876E+03
       130  22 -1.711330E+06 -2.671739E+05 -3.988950E+04 -6.539160E+05  3.169437E+04  5.287952E+02
       130  23 -1.713608E+06 -2.446650E+05 -1.946580E+04 -6.505125E+05  2.136971E+04 -2.540876E+03
       130  24 -1.709323E+06 -2.531105E+05 -1.110692E+04 -6.591870E+05  1.080719E+04 -4.975151E+03
       130  25 -1.442259E+06 -1.618833E+05  3.111122E+04 -5.761252E+05  3.192218E+04  6.149718E+02
       130  26 -1.471291E+06 -1.525946E+05  4.381225E+04 -5.832536E+05  2.194924E+04 -2.322950E+03
       130  27 -1.493687E+06 -1.741852E+05  4.473196E+04 -6.024592E+05  1.173896E+04 -4.625302E+03
       131   1 -1.886547E+06 -3.222248E+05 -5.495954E+04 -7.071251E+05 -8.127155E+03  4.954045E+03
       131   2 -1.863216E+06 -3.017531E+05 -4.309374E+04 -6.905625E+05 -5.264279E+03  4.453275E+03
       131   3 -1.825986E+06 -2.977372E+05 -3.341540E+04 -6.906084E+05 -2.379759E+03  3.893938E+03
       131   4 -1.708424E+06 -2.550906E+05 -8.627074E+03 -6.582399E+05 -8.885542E+03  4.669337E+03
       131   5 -1.715279E+06 -2.461959E+05 -4.577114E+03 -6.501857E+05 -6.054825E+03  4.156633E+03
       131   6 -1.708230E+06 -2.537504E+05 -2.688641E+03 -6.587402E+05 -3.202597E+03  3.585322E+03
       131   7 -1.530270E+06 -1.879541E+05  3.770289E+04 -6.093417E+05 -9.644171E+03  4.384539E+03
       131   8 -1.567321E+06 -1.906372E+05  3.393775E+04 -6.098000E+05 -6.845580E+03  3.859913E+03
       131   9 -1.590461E+06 -2.097627E+05  2.803695E+04 -6.268665E+05 -4.025607E+03  3.276643E+03
       131  10 -1.886547E+06 -3.222249E+05 -5.495971E+04 -7.071251E+05  3.168411E-09 -6.042234E-10
       131  11 -1.863216E+06 -3.017531E+05 -4.309383E+04 -6.905625E+05 -1.319872E-09 -1.149761E-09
       131  12 -1.825986E+06 -2.977372E+05 -3.341543E+04 -6.906084E+05 -3.690432E-09  5.244850E-10
       131  13 -1.708425E+06 -2.550907E+05 -8.627263E+03 -6.582398E+05  1.320837E-09 -6.493490E-10
       131  14 -1.715279E+06 -2.461959E+05 -4.577216E+03 -6.501856E+05 -2.019382E-09 -6.831110E-10
       131  15 -1.708230E+06 -2.537504E+05 -2.688685E+03 -6.587402E+05 -1.146315E-09  3.997884E-10
       131  16 -1.530270E+06 -1.879542E+05  3.770268E+04 -6.093417E+05 -3.131409E-10 -5.385879E-10
       131  17 -1.567321E+06 -1.906372E+05  3.393763E+04 -6.098000E+05 -8.804978E-10  1.172461E-10
       131  18 -1.590461E+06 -2.097627E+05  2.803690E+04 -6.268665E+05 -4.073753E-10  5.995837E-10
       131  19 -1.886547E+06 -3.222248E+05 -5.495954E+04 -7.071251E+05  8.127155E+03 -4.954045E+03
       131  20 -1.863216E+06 -3.017531E+05 -4.309374E+04 -6.905625E+05  5.264279E+03 -4.453275E+03
       131  21 -1.825986E+06 -2.977372E+05 -3.341540E+04 -6.906084E+05  2.379759E+03 -3.893938E+03
       131  22 -1.708424E+06 -2.550906E+05 -8.627074E+03 -6.582399E+05  8.885542E+03 -4.669337E+03
       131  23 -1.715279E+06 -2.461959E+05 -4.577114E+03 -6.501857E+05  6.054825E+03 -4.156633E+03
       131  24 -1.708230E+06 -2.537504E+05 -2.688641E+03 -6.587402E+05  3.202597E+03 -3.585322E+03
       131  25 -1.530270E+06 -1.879541E+05  3.770289E+04 -6.093417E+05  9.644171E+03 -4.384539E+03
       131  26 -1.567321E+06 -1.906372E+05  3.393775E+04 -6.098000E+05  6.845580E+03 -3.859913E+03
       131  27 -1.590461E+06 -2.097627E+05  2.803695E+04 -6.268665E+05  4.025607E+03 -3.276643E+03
       132   1 -1.788622E+06 -2.842052E+05 -2.301123E+04 -6.806931E+05 -1.670493E+03  3.187398E+03
       132   2 -1.765019E+06 -2.648336E+05 -1.437146E+04 -6.635568E+05 -3.714967E+02  2.009796E+03
       132   3 -1.726448E+06 -2.607937E+05 -6.341908E+03 -6.637477E+05  9.308306E+02  8.229218E+02
       132   4 -1.708060E+06 -2.539895E+05 -2.154947E+03 -6.587161E+05 -2.485904E+03  2.881629E+03
       132   5 -1.715536E+06 -2.462715E+05 -1.492883E+03 -6.500719E+05 -1.192025E+03  1.702154E+03
       132   6 -1.708045E+06 -2.538843E+05 -1.436924E+03 -6.587551E+05  1.051393E+02  5.133969E+02
       132   7 -1.627492E+06 -2.237734E+05  1.870077E+04 -6.367366E+05 -3.301430E+03  2.575818E+03
       132   8 -1.666052E+06 -2.277094E+05  1.138544E+04 -6.365861E+05 -2.012622E+03  1.394487E+03
       132   9 -1.689641E+06 -2.469748E+05  3.468002E+03 -6.537625E+05 -7.205739E+02  2.038639E+02
       132  10 -1.788622E+06 -2.842052E+05 -2.301125E+04 -6.806931E+05 -5.195163E-10  1.286222E-09
       132  11 -1.765019E+06 -2.648336E+05 -1.437147E+04 -6.635568E+05  2.105250E-09 -6.512459E-10
       132  12 -1.726448E+06 -2.607937E+05 -6.341911E+03 -6.637477E+05 -1.678896E-09 -6.573670E-11
       132  13 -1.708060E+06 -2.539895E+05 -2.154974E+03 -6.587161E+05  5.382128E-10  6.072600E-10
       132  14 -1.715536E+06 -2.462715E+05 -1.492891E+03 -6.500719E+05  3.661232E-10 -8.058406E-10
       132  15 -1.708045E+06 -2.538843E+05 -1.436925E+03 -6.587551E+05 -2.259216E-09  5.481140E-10
       132  16 -1.627492E+06 -2.237734E+05  1.870074E+04 -6.367366E+05 -1.792023E-09 -8.315192E-10
       132  17 -1.666052E+06 -2.277094E+05  1.138543E+04 -6.365861E+05  1.290345E-09 -3.667525E-10
       132  18 -1.689641E+06 -2.469748E+05  3.468001E+03 -6.537625E+05  6.515193E-10  9.794542E-10
       132  19 -1.788622E+06 -2.842052E+05 -2.301123E+04 -6.806931E+05  1.670493E+03 -3.187398E+03
       132  20 -1.765019E+06 -2.648336E+05 -1.437146E+04 -6.635568E+05  3.714967E+02 -2.009796E+03
       132  21 -1.726448E+06 -2.607937E+05 -6.341908E+03 -6.637477E+05 -9.308306E+02 -8.229218E+02
       132  22 -1.708060E+06 -2.539895E+05 -2.154947E+03 -6.587161E+05  2.485904E+03 -2.881629E+03
       132  23 -1.715536E+06 -2.462715E+05 -1.492883E+03 -6.500719E+05  1.192025E+03 -1.702154E+03
       132  24 -1.708045E+06 -2.538843E+05 -1.436924E+03 -6.587551E+05 -1.051393E+02 -5.133969E+02
       132  25 -1.627492E+06 -2.237734E+05  1.870077E+04 -6.367366E+05  3.301430E+03 -2.575818E+03
       132  26 -1.666052E+06 -2.277094E+05  1.138544E+04 -6.365861E+05  2.012622E+03 -1.394487E+03
       132  27 -1.689641E+06 -2.469748E+05  3.468002E+03 -6.537625E+05  7.205739E+02 -2.038639E+02
       133   1 -1.688923E+06 -2.467200E+05  3.504497E+03 -6.536104E+05  1.502167E+03  5.831892E+01
       133   2 -1.665306E+06 -2.274391E+05  1.072906E+04 -6.364108E+05  3.214586E+03 -9.743277E+02
       133   3 -1.626837E+06 -2.236403E+05  1.699731E+04 -6.365133E+05  4.923613E+03 -1.997280E+03
       133   4 -1.708064E+06 -2.538706E+05 -1.585692E+03 -6.587674E+05  6.764867E+02 -2.512022E+02
       133   5 -1.715508E+06 -2.462500E+05 -2.331918E+03 -6.500712E+05  2.394209E+03 -1.281915E+03
       133   6 -1.708099E+06 -2.541125E+05 -4.038526E+03 -6.586775E+05  4.108471E+03 -2.302952E+03
       133   7 -1.727204E+06 -2.610212E+05 -6.675948E+03 -6.639243E+05 -1.491717E+02 -5.607152E+02
       133   8 -1.765707E+06 -2.650607E+05 -1.539318E+04 -6.637306E+05  1.573899E+03 -1.589477E+03
       133   9 -1.789356E+06 -2.845845E+05 -2.507500E+04 -6.808391E+05  3.293442E+03 -2.608582E+03
       133  10 -1.688923E+06 -2.467200E+05  3.504493E+03 -6.536104E+05 -5.127138E-09 -1.763257E-09
       133  11 -1.665306E+06 -2.274391E+05  1.072904E+04 -6.364108E+05  3.831751E-14 -1.702733E-09
       133  12 -1.626837E+06 -2.236403E+05  1.699726E+04 -6.365133E+05  4.102756E-09  1.004452E-09
       133  13 -1.708064E+06 -2.538706E+05 -1.585693E+03 -6.587674E+05 -3.237595E-09 -9.531520E-11
       133  14 -1.715508E+06 -2.462500E+05 -2.331932E+03 -6.500712E+05  9.191688E-11 -2.096905E-09
       133  15 -1.708099E+06 -2.541125E+05 -4.038568E+03 -6.586775E+05 -2.694917E-09 -1.213836E-09
       133  16 -1.727204E+06 -2.610212E+05 -6.675949E+03 -6.639243E+05  4.575627E-09  1.083554E-09
       133  17 -1.765707E+06 -2.650607E+05 -1.539319E+04 -6.637306E+05 -2.404969E-09 -1.793135E-09
       133  18 -1.789356E+06 -2.845845E+05 -2.507503E+04 -6.808391E+05 -8.134796E-09 -2.849230E-09
       133  19 -1.688923E+06 -2.467200E+05  3.504497E+03 -6.536104E+05 -1.502167E+03 -5.831892E+01
       133  20 -1.665306E+06 -2.274391E+05  1.072906E+04 -6.364108E+05 -3.214586E+03  9.743277E+02
       133  21 -1.626837E+06 -2.236403E+05  1.699731E+04 -6.365133E+05 -4.923613E+03  1.997280E+03
       133  22 -1.708064E+06 -2.538706E+05 -1.585692E+03 -6.587674E+05 -6.764867E+02  2.512022E+02
       133  23 -1.715508E+06 -2.462500E+05 -2.331918E+03 -6.500712E+05 -2.394209E+03  1.281915E+03
       133  24 -1.708099E+06 -2.541125E+05 -4.038526E+03 -6.586775E+05 -4.108471E+03  2.302952E+03
       133  25 -1.727204E+06 -2.610212E+05 -6.675948E+03 -6.639243E+05  1.491717E+02  5.607152E+02
       133  26 -1.765707E+06 -2.650607E+05 -1.539318E+04 -6.637306E+05 -1.573899E+03  1.589477E+03
       133  27 -1.789356E+06 -2.845845E+05 -2.507500E+04 -6.808391E+05 -3.293442E+03  2.608582E+03
       134   1 -1.589779E+06 -2.096374E+05  2.565023E+04 -6.269705E+05  6.011695E+03 -2.561111E+03
       134   2 -1.566458E+06 -1.901457E+05  2.939784E+04 -6.095941E+05  1.121365E+04 -2.250103E+03
       134   3 -1.530197E+06 -1.888553E+05  2.876216E+04 -6.084683E+05  1.639424E+04 -1.879948E+03
       134   4 -1.708385E+06 -2.537006E+05 -5.247862E+03 -6.588264E+05  5.188760E+03 -2.869764E+03
       134   5 -1.715049E+06 -2.459743E+05 -9.287937E+03 -6.501859E+05  1.042262E+04 -2.546932E+03
       134   6 -1.708782E+06 -2.564567E+05 -1.773760E+04 -6.577964E+05  1.563488E+04 -2.165038E+03
       134   7 -1.826976E+06 -2.977628E+05 -3.614694E+04 -6.906767E+05  4.366002E+03 -3.178352E+03
       134   8 -1.863619E+06 -3.018014E+05 -4.797549E+04 -6.907687E+05  9.631792E+03 -2.843681E+03
       134   9 -1.887336E+06 -3.240560E+05 -6.424014E+04 -7.071117E+05  1.487576E+04 -2.450037E+03
       134  10 -1.589779E+06 -2.096374E+05  2.565015E+04 -6.269705E+05  3.369067E-09  8.396115E-10
       134  11 -1.566458E+06 -1.901457E+05  2.939759E+04 -6.095941E+05  1.999934E-09  1.793191E-09
       134  12 -1.530197E+06 -1.888554E+05  2.876165E+04 -6.084683E+05  2.817827E-09  2.233941E-10
       134  13 -1.708385E+06 -2.537006E+05 -5.247928E+03 -6.588264E+05 -2.748616E-10  2.401117E-10
       134  14 -1.715049E+06 -2.459743E+05 -9.288154E+03 -6.501858E+05  3.690536E-09  1.038267E-09
       134  15 -1.708782E+06 -2.564567E+05 -1.773807E+04 -6.577964E+05  1.581779E-09  3.728628E-10
       134  16 -1.826976E+06 -2.977628E+05 -3.614699E+04 -6.906767E+05 -1.287554E-09 -1.375800E-10
       134  17 -1.863619E+06 -3.018015E+05 -4.797568E+04 -6.907687E+05  3.335469E-09  1.715832E-10
       134  18 -1.887336E+06 -3.240561E+05 -6.424057E+04 -7.071117E+05 -1.285992E-09 -1.358684E-11
       134  19 -1.589779E+06 -2.096374E+05  2.565023E+04 -6.269705E+05 -6.011695E+03  2.561111E+03
       134  20 -1.566458E+06 -1.901457E+05  2.939784E+04 -6.095941E+05 -1.121365E+04  2.250103E+03
       134  21 -1.530197E+06 -1.888553E+05  2.876216E+04 -6.084683E+05 -1.639424E+04  1.879948E+03
       134  22 -1.708385E+06 -2.537006E+05 -5.247862E+03 -6.588264E+05 -5.188760E+03  2.869764E+03
       134  23 -1.715049E+06 -2.459743E+05 -9.287937E+03 -6.501859E+05 -1.042262E+04  2.546932E+03
       134  24 -1.708782E+06 -2.564567E+05 -1.773760E+04 -6.577964E+05 -1.563488E+04  2.165038E+03
       134  25 -1.826976E+06 -2.977628E+05 -3.614694E+04 -6.906767E+05 -4.366002E+03  3.178352E+03
       134  26 -1.863619E+06 -3.018014E+05 -4.797549E+04 -6.907687E+05 -9.631792E+03  2.843681E+03
       134  27 -1.887336E+06 -3.240560E+05 -6.424014E+04 -7.071117E+05 -1.487576E+04  2.450037E+03
       135   1 -1.492654E+06 -1.749521E+05  3.310986E+04 -6.048544E+05  2.016672E+04 -1.490563E+03
       135   2 -1.469681E+06 -1.494428E+05  2.325177E+04 -5.822310E+05  4.108911E+04  4.835520E+03
       135   3 -1.448205E+06 -1.727974E+05 -1.126205E+04 -5.673728E+05  6.177282E+04  1.180116E+04
       135   4 -1.710489E+06 -2.525341E+05 -2.289085E+04 -6.599470E+05  1.923326E+04 -1.840942E+03
       135   5 -1.711771E+06 -2.425850E+05 -4.018657E+04 -6.506203E+05  4.050576E+04  4.616025E+03
       135   6 -1.714628E+06 -2.815792E+05 -8.242389E+04 -6.490587E+05  6.153873E+04  1.171184E+04
       135   7 -1.928276E+06 -3.301141E+05 -7.889524E+04 -7.150225E+05  1.830017E+04 -2.191201E+03
       135   8 -1.953805E+06 -3.357228E+05 -1.036299E+05 -7.189852E+05  3.992265E+04  4.396628E+03
       135   9 -1.980982E+06 -3.903534E+05 -1.535922E+05 -7.307118E+05  6.130474E+04  1.162256E+04
       135  10 -1.492654E+06 -1.749522E+05  3.310909E+04 -6.048544E+05  7.121747E-10 -4.674626E-10
       135  11 -1.469683E+06 -1.494433E+05  2.324854E+04 -5.822312E+05 -8.147217E-10  1.943537E-10
       135  12 -1.448209E+06 -1.727986E+05 -1.126950E+04 -5.673734E+05 -1.707620E-12 -3.548163E-10
       135  13 -1.710489E+06 -2.525342E+05 -2.289155E+04 -6.599470E+05  6.880491E-11 -2.001160E-10
       135  14 -1.711773E+06 -2.425855E+05 -4.018971E+04 -6.506205E+05 -2.827244E-09  1.096378E-10
       135  15 -1.714632E+06 -2.815804E+05 -8.243128E+04 -6.490593E+05  1.515807E-09  3.092759E-11
       135  16 -1.928277E+06 -3.301142E+05 -7.889588E+04 -7.150224E+05 -5.403360E-10 -7.692423E-12
       135  17 -1.953806E+06 -3.357233E+05 -1.036330E+05 -7.189853E+05 -1.973243E-10 -8.574181E-11
       135  18 -1.980986E+06 -3.903545E+05 -1.535995E+05 -7.307123E+05  7.478498E-10  1.014077E-09
       135  19 -1.492654E+06 -1.749521E+05  3.310986E+04 -6.048544E+05 -2.016672E+04  1.490563E+03
       135  20 -1.469681E+06 -1.494428E+05  2.325177E+04 -5.822310E+05 -4.108911E+04 -4.835520E+03
       135  21 -1.448205E+06 -1.727974E+05 -1.126205E+04 -5.673728E+05 -6.177282E+04 -1.180116E+04
       135  22 -1.710489E+06 -2.525341E+05 -2.289085E+04 -6.599470E+05 -1.923326E+04  1.840942E+03
       135  23 -1.711771E+06 -2.425850E+05 -4.018657E+04 -6.506203E+05 -4.050576E+04 -4.616025E+03
       135  24 -1.714628E+06 -2.815792E+05 -8.242389E+04 -6.490587E+05 -6.153873E+04 -1.171184E+04
       135  25 -1.928276E+06 -3.301141E+05 -7.889524E+04 -7.150225E+05 -1.830017E+04  2.191201E+03
       135  26 -1.953805E+06 -3.357228E+05 -1.036299E+05 -7.189852E+05 -3.992265E+04 -4.396628E+03
       135  27 -1.980982E+06 -3.903534E+05 -1.535922E+05 -7.307118E+05 -6.130474E+04 -1.162256E+04
       136   1 -1.391808E+06 -1.558151E+05 -2.217573E+04 -6.222175E+05  7.940002E+04  1.611776E+04
       136   2 -1.371728E+06 -6.070042E+04 -8.392180E+04 -5.381769E+05  1.674534E+05  4.845796E+04
       136   3 -1.483409E+06 -3.326542E+05 -3.081143E+05 -3.771145E+05  2.520316E+05  9.005804E+04
       136   4 -1.728022E+06 -2.412534E+05 -1.018341E+05 -6.720186E+05  7.640629E+04  1.499869E+04
       136   5 -1.683002E+06 -2.075883E+05 -1.706105E+05 -6.540243E+05  1.695966E+05  4.925321E+04
       136   6 -1.770853E+06 -5.421463E+05 -4.059784E+05 -5.589857E+05  2.593132E+05  9.274556E+04
       136   7 -2.064123E+06 -3.266950E+05 -1.814993E+05 -7.218021E+05  7.341433E+04  1.387979E+04
       136   8 -1.994177E+06 -3.544516E+05 -2.573075E+05 -7.698126E+05  1.717385E+05  5.004773E+04
       136   9 -2.058187E+06 -7.515370E+05 -5.038460E+05 -7.407560E+05  2.665909E+05  9.542864E+04
       136  10 -1.391815E+06 -1.558170E+05 -2.218809E+04 -6.222185E+05  4.164263E-10  3.201940E-10
       136  11 -1.371759E+06 -6.071050E+04 -8.397905E+04 -5.381835E+05 -1.482747E-09  2.025259E-09
       136  12 -1.483480E+06 -3.326801E+05 -3.082493E+05 -3.771328E+05  5.860493E-10  2.191929E-09
       136  13 -1.728028E+06 -2.412552E+05 -1.018455E+05 -6.720196E+05  1.801024E-09  2.756506E-10
       136  14 -1.683033E+06 -2.075987E+05 -1.706693E+05 -6.540310E+05 -3.586753E-10  1.687598E-10
       136  15 -1.770928E+06 -5.421737E+05 -4.061214E+05 -5.590051E+05  5.978097E-11  3.974089E-10
       136  16 -2.064129E+06 -3.266967E+05 -1.815098E+05 -7.218030E+05  2.509914E-09  1.503035E-09
       136  17 -1.994209E+06 -3.544623E+05 -2.573679E+05 -7.698196E+05  1.374409E-09  1.360716E-10
       136  18 -2.058266E+06 -7.515660E+05 -5.039972E+05 -7.407765E+05 -8.937357E-10  4.299785E-10
       136  19 -1.391808E+06 -1.558151E+05 -2.217573E+04 -6.222175E+05 -7.940002E+04 -1.611776E+04
       136  20 -1.371728E+06 -6.070042E+04 -8.392180E+04 -5.381769E+05 -1.674534E+05 -4.845796E+04
       136  21 -1.483409E+06 -3.326542E+05 -3.081143E+05 -3.771145E+05 -2.520316E+05 -9.005804E+04
       136  22 -1.728022E+06 -2.412534E+05 -1.018341E+05 -6.720186E+05 -7.640629E+04 -1.499869E+04
       136  23 -1.683002E+06 -2.075883E+05 -1.706105E+05 -6.540243E+05 -1.695966E+05 -4.925321E+04
       136  24 -1.770853E+06 -5.421463E+05 -4.059784E+05 -5.589857E+05 -2.593132E+05 -9.274556E+04
       136  25 -2.064123E+06 -3.266950E+05 -1.814993E+05 -7.218021E+05 -7.341433E+04 -1.387979E+04
       136  26 -1.994177E+06 -3.544516E+05 -2.573075E+05 -7.698126E+05 -1.717385E+05 -5.004773E+04
       136  27 -2.058187E+06 -7.515370E+05 -5.038460E+05 -7.407560E+05 -2.665909E+05 -9.542864E+04
       137   1 -2.282896E+05 -1.044475E+04  1.165742E+04  1.241370E+04  6.382786E+04  4.187097E+03
       137   2 -2.091700E+05 -9.457729E+04 -3.519083E+04  1.559978E+03  4.443492E+04  1.253589E+04
       137   3 -1.631821E+05 -8.188150E+04 -4.517579E+04 -2.944074E+04  2.504719E+04  1.186378E+04
       137   4  1.497039E+05  8.367182E+04  1.045325E+05 -1.750693E+04  7.158138E+04  4.190007E+03
       137   5  1.358130E+05 -9.317854E+03  4.616979E+04 -7.402386E+03  4.676355E+04  1.253623E+04
       137   6  1.497138E+05 -4.568344E+03  2.842142E+04 -1.744331E+04  2.195214E+04  1.186247E+04
       137   7  5.278295E+05  1.777812E+05  1.973978E+05 -4.744584E+04  7.933960E+04  4.192170E+03
       137   8  4.809056E+05  7.593338E+04  1.275223E+05 -1.636978E+04  4.909346E+04  1.253651E+04
       137   9  4.627001E+05  7.273837E+04  1.020120E+05 -5.439804E+03  1.885553E+04  1.186104E+04
       137  10 -2.282940E+05 -1.044586E+04  1.164973E+04  1.241349E+04  1.720514E-09 -1.193091E-09
       137  11 -2.091721E+05 -9.457799E+04 -3.519484E+04  1.559529E+03 -2.839312E-10 -5.951125E-10
       137  12 -1.631828E+05 -8.188182E+04 -4.517723E+04 -2.944098E+04 -2.765562E-09 -1.389304E-10
       137  13  1.496984E+05  8.367042E+04  1.045229E+05 -1.750717E+04  5.094647E-11  2.185204E-10
       137  14  1.358106E+05 -9.318610E+03  4.616539E+04 -7.402859E+03 -1.524400E-09 -7.403230E-10
       137  15  1.497133E+05 -4.568625E+03  2.842025E+04 -1.744352E+04 -8.679826E-10 -2.906279E-10
       137  16  5.278228E+05  1.777795E+05  1.973860E+05 -4.744611E+04 -2.498030E-09  2.297616E-10
       137  17  4.809029E+05  7.593257E+04  1.275174E+05 -1.637027E+04 -1.089774E-09 -5.370617E-10
       137  18  4.626997E+05  7.273812E+04  1.020111E+05 -5.439984E+03  2.752299E-09  1.130033E-09
       137  19 -2.282896E+05 -1.044475E+04  1.165742E+04  1.241370E+04 -6.382786E+04 -4.187097E+03
       137  20 -2.091700E+05 -9.457729E+04 -3.519083E+04  1.559978E+03 -4.443492E+04 -1.253589E+04
       137  21 -1.631821E+05 -8.188150E+04 -4.517579E+04 -2.944074E+04 -2.504719E+04 -1.186378E+04
       137  22  1.497039E+05  8.367182E+04  1.045325E+05 -1.750693E+04 -7.158138E+04 -4.190007E+03
       137  23  1.358130E+05 -9.317854E+03  4.616979E+04 -7.402386E+03 -4.676355E+04 -1.253623E+04
       137  24  1.497138E+05 -4.568344E+03  2.842142E+04 -1.744331E+04 -2.195214E+04 -1.186247E+04
       137  25  5.278295E+05  1.777812E+05  1.973978E+05 -4.744584E+04 -7.933960E+04 -4.192170E+03
       137  26  4.809056E+05  7.593338E+04  1.275223E+05 -1.636978E+04 -4.909346E+04 -1.253651E+04
       137  27  4.627001E+05  7.273837E+04  1.020120E+05 -5.439804E+03 -1.885553E+04 -1.186104E+04
       138   1 -1.322795E+05 -6.077798E+04 -4.223989E+04 -1.517828E+04  1.797567E+04  9.829648E+03
       138   2 -1.014981E+05 -6.126344E+04 -4.562370E+04 -6.801583E+03  1.223460E+04  8.980584E+03
       138   3 -6.767074E+04 -5.280661E+04 -4.302023E+04 -1.869191E+04  6.492853E+03  7.588931E+03
       138   4  1.442311E+05  7.580340E+03  2.304991E+04 -1.748986E+04  1.763553E+04  9.829162E+03
       138   5  1.426831E+05 -9.205379E+02  1.191362E+04 -7.355420E+03  1.156648E+04  8.980170E+03
       138   6  1.442355E+05 -4.242262E+02  6.990371E+03 -1.748741E+04  5.497048E+03  7.588655E+03
       138   7  4.208120E+05  7.593321E+04  8.833443E+04 -1.980248E+04  1.729524E+04  9.828678E+03
       138   8  3.869192E+05  5.941811E+04  6.944683E+04 -7.909479E+03  1.089810E+04  8.979757E+03
       138   9  3.561831E+05  5.195495E+04  5.699787E+04 -1.628251E+04  4.500903E+03  7.588376E+03
       138  10 -1.322799E+05 -6.077817E+04 -4.224068E+04 -1.517843E+04 -1.748261E-09  7.281127E-10
       138  11 -1.014983E+05 -6.126357E+04 -4.562414E+04 -6.801671E+03  1.801338E-10  7.645039E-10
       138  12 -6.767080E+04 -5.280668E+04 -4.302041E+04 -1.869195E+04 -5.299582E-10 -7.241807E-10
       138  13  1.442307E+05  7.580153E+03  2.304914E+04 -1.749000E+04  4.691091E-11  1.429009E-09
       138  14  1.426830E+05 -9.206604E+02  1.191321E+04 -7.355504E+03 -9.819872E-10  6.842012E-10
       138  15  1.442355E+05 -4.242962E+02  6.990206E+03 -1.748745E+04 -1.668970E-09 -6.138159E-10
       138  16  4.208117E+05  7.593303E+04  8.833369E+04 -1.980262E+04  2.098142E-10  1.117977E-09
       138  17  3.869190E+05  5.941799E+04  6.944645E+04 -7.909558E+03 -3.411796E-09  2.527778E-10
       138  18  3.561830E+05  5.195488E+04  5.699773E+04 -1.628253E+04  1.197754E-09 -2.521583E-10
       138  19 -1.322795E+05 -6.077798E+04 -4.223989E+04 -1.517828E+04 -1.797567E+04 -9.829648E+03
       138  20 -1.014981E+05 -6.126344E+04 -4.562370E+04 -6.801583E+03 -1.223460E+04 -8.980584E+03
       138  21 -6.767074E+04 -5.280661E+04 -4.302023E+04 -1.869191E+04 -6.492853E+03 -7.588931E+03
       138  22  1.442311E+05  7.580340E+03  2.304991E+04 -1.748986E+04 -1.763553E+04 -9.829162E+03
       138  23  1.426831E+05 -9.205379E+02  1.191362E+04 -7.355420E+03 -1.156648E+04 -8.980170E+03
       138  24  1.442355E+05 -4.242262E+02  6.990371E+03 -1.748741E+04 -5.497048E+03 -7.588655E+03
       138  25  4.208120E+05  7.593321E+04  8.833443E+04 -1.980248E+04 -1.729524E+04 -9.828678E+03
       138  26  3.869192E+05  5.941811E+04  6.944683E+04 -7.909479E+03 -1.089810E+04 -8.979757E+03
       138  27  3.561831E+05  5.195495E+04  5.699787E+04 -1.628251E+04 -4.500903E+03 -7.588376E+03
       139   1 -3.207322E+04 -4.274281E+04 -3.590664E+04 -1.736626E+04  5.233272E+03  6.681022E+03
       139   2 -6.753608E+01 -3.555945E+04 -3.088966E+04 -7.374941E+03  3.793516E+03  5.282011E+03
       139   3  3.234848E+04 -2.755561E+04 -2.472663E+04 -1.760575E+04  2.353335E+03  3.851239E+03
       139   4  1.436419E+05  6.616623E+02  5.410008E+03 -1.747820E+04  4.404256E+03  6.680846E+03
       139   5  1.434366E+05 -9.870298E+01  2.920394E+03 -7.367278E+03  2.945049E+03  5.281935E+03
       139   6  1.436443E+05 -3.515892E+01  1.590237E+03 -1.747819E+04  1.485491E+03  3.851270E+03
       139   7  3.193855E+05  4.406393E+04  4.672454E+04 -1.759017E+04  3.575007E+03  6.680670E+03
       139   8  2.869596E+05  3.536058E+04  3.672903E+04 -7.359614E+03  2.096387E+03  5.281858E+03
       139   9  2.549514E+05  2.748440E+04  2.790625E+04 -1.735061E+04  6.174916E+02  3.851300E+03
       139  10 -3.207327E+04 -4.274286E+04 -3.590678E+04 -1.736629E+04 -1.529644E-09 -6.051996E-10
       139  11 -6.755903E+01 -3.555949E+04 -3.088974E+04 -7.374957E+03  1.258515E-10  5.104043E-10
       139  12  3.234847E+04 -2.755562E+04 -2.472667E+04 -1.760576E+04  1.658235E-09 -1.470555E-10
       139  13  1.436419E+05  6.616092E+02  5.409887E+03 -1.747823E+04  1.022302E-09 -6.118623E-10
       139  14  1.434366E+05 -9.873527E+01  2.920325E+03 -7.367291E+03  3.329875E-12 -2.050195E-11
       139  15  1.436442E+05 -3.517544E+01  1.590205E+03 -1.747820E+04  7.106836E-10  1.526501E-10
       139  16  3.193855E+05  4.406388E+04  4.672443E+04 -1.759019E+04  9.117575E-10 -4.348872E-10
       139  17  2.869596E+05  3.536055E+04  3.672897E+04 -7.359623E+03 -5.536919E-10 -4.824612E-10
       139  18  2.549514E+05  2.748438E+04  2.790622E+04 -1.735061E+04  4.506634E-10  1.818846E-10
       139  19 -3.207322E+04 -4.274281E+04 -3.590664E+04 -1.736626E+04 -5.233272E+03 -6.681022E+03
       139  20 -6.753608E+01 -3.555945E+04 -3.088966E+04 -7.374941E+03 -3.793516E+03 -5.282011E+03
       139  21  3.234848E+04 -2.755561E+04 -2.472663E+04 -1.760575E+04 -2.353335E+03 -3.851239E+03
       139  22  1.436419E+05  6.616623E+02  5.410008E+03 -1.747820E+04 -4.404256E+03 -6.680846E+03
       139  23  1.434366E+05 -9.870298E+01  2.920394E+03 -7.367278E+03 -2.945049E+03 -5.281935E+03
       139  24  1.436443E+05 -3.515892E+01  1.590237E+03 -1.747819E+04 -1.485491E+03 -3.851270E+03
       139  25  3.193855E+05  4.406393E+04  4.672454E+04 -1.759017E+04 -3.575007E+03 -6.680670E+03
       139  26  2.869596E+05  3.536058E+04  3.672903E+04 -7.359614E+03 -2.096387E+03 -5.281858E+03
       139  27  2.549514E+05  2.748440E+04  2.790625E+04 -1.735061E+04 -6.174916E+02 -3.851300E+03
       140   1  6.838310E+04 -1.850136E+04 -1.648595E+04 -1.748599E+04  2.098969E+03  3.013062E+03
       140   2  1.005321E+05 -1.063446E+04 -9.733013E+03 -7.395140E+03  1.901033E+03  1.583002E+03
       140   3  1.327206E+05 -2.702837E+03 -2.835925E+03 -1.750211E+04  1.702970E+03  1.513750E+02
       140   4  1.435627E+05  5.596903E+01  1.129715E+03 -1.747283E+04  1.241395E+03  3.013136E+03
       140   5  1.435440E+05 -6.630134E+00  4.000517E+02 -7.373976E+03  1.042458E+03  1.583105E+03
       140   6  1.435634E+05 -4.404746E+00 -1.848756E+02 -1.747284E+04  8.434053E+02  1.515113E+02
       140   7  2.187475E+05  1.861290E+04  1.874500E+04 -1.745968E+04  3.837171E+02  3.013210E+03
       140   8  1.865575E+05  1.062107E+04  1.053299E+04 -7.352810E+03  1.838245E+02  1.583208E+03
       140   9  1.544063E+05  2.694019E+03  2.466168E+03 -1.744358E+04 -1.617451E+01  1.516476E+02
       140  10  6.838309E+04 -1.850138E+04 -1.648598E+04 -1.748599E+04  3.446202E-10 -6.180013E-10
       140  11  1.005321E+05 -1.063446E+04 -9.733024E+03 -7.395142E+03 -2.877417E-10 -3.724888E-10
       140  12  1.327206E+05 -2.702838E+03 -2.835930E+03 -1.750211E+04 -1.233312E-10  1.744613E-10
       140  13  1.435627E+05  5.595887E+01  1.129695E+03 -1.747283E+04 -2.424032E-14 -3.718650E-10
       140  14  1.435440E+05 -6.633117E+00  4.000450E+02 -7.373977E+03 -5.714487E-10 -3.043875E-10
       140  15  1.435634E+05 -4.404962E+00 -1.848770E+02 -1.747284E+04 -5.053333E-09  2.960267E-10
       140  16  2.187475E+05  1.861289E+04  1.874498E+04 -1.745968E+04 -3.196134E-10 -6.020199E-11
       140  17  1.865575E+05  1.062106E+04  1.053299E+04 -7.352810E+03 -3.242617E-09 -3.290610E-10
       140  18  1.544063E+05  2.694019E+03  2.466168E+03 -1.744358E+04 -1.353489E-09  9.000178E-10
       140  19  6.838310E+04 -1.850136E+04 -1.648595E+04 -1.748599E+04 -2.098969E+03 -3.013062E+03
       140  20  1.005321E+05 -1.063446E+04 -9.733013E+03 -7.395140E+03 -1.901033E+03 -1.583002E+03
       140  21  1.327206E+05 -2.702837E+03 -2.835925E+03 -1.750211E+04 -1.702970E+03 -1.513750E+02
       140  22  1.435627E+05  5.596903E+01  1.129715E+03 -1.747283E+04 -1.241395E+03 -3.013136E+03
       140  23  1.435440E+05 -6.630134E+00  4.000517E+02 -7.373976E+03 -1.042458E+03 -1.583105E+03
       140  24  1.435634E+05 -4.404746E+00 -1.848756E+02 -1.747284E+04 -8.434053E+02 -1.515113E+02
       140  25  2.187475E+05  1.861290E+04  1.874500E+04 -1.745968E+04 -3.837171E+02 -3.013210E+03
       140  26  1.865575E+05  1.062107E+04  1.053299E+04 -7.352810E+03 -1.838245E+02 -1.583208E+03
       140  27  1.544063E+05  2.694019E+03  2.466168E+03 -1.744358E+04  1.617451E+01 -1.516476E+02
       141   1  1.687830E+05  6.273187E+03  5.561552E+03 -1.751698E+04  1.763310E+03 -6.824015E+02
       141   2  2.010144E+05  1.421058E+04  1.230234E+04 -7.411791E+03  2.370689E+03 -2.114097E+03
       141   3  2.331323E+05  2.201590E+04  1.861406E+04 -1.750598E+04  2.978249E+03 -3.544307E+03
       141   4  1.435293E+05  1.414223E+01 -4.843205E+02 -1.747323E+04  9.036651E+02 -6.822686E+02
       141   5  1.435862E+05  2.146973E+01 -1.226211E+03 -7.373493E+03  1.511857E+03 -2.114008E+03
       141   6  1.435286E+05 -1.033758E+02 -2.397738E+03 -1.747325E+04  2.120200E+03 -3.544257E+03
       141   7  1.182762E+05 -6.244948E+03 -6.530235E+03 -1.742948E+04  4.405449E+01 -6.821359E+02
       141   8  8.616111E+04 -1.416788E+04 -1.475499E+04 -7.335198E+03  6.531035E+02 -2.113918E+03
       141   9  5.393221E+04 -2.222322E+04 -2.341008E+04 -1.744052E+04  1.262273E+03 -3.544207E+03
       141  10  1.687830E+05  6.273185E+03  5.561545E+03 -1.751698E+04 -1.937483E-10  4.407173E-10
       141  11  2.010144E+05  1.421058E+04  1.230232E+04 -7.411787E+03 -6.240135E-10  4.582760E-10
       141  12  2.331323E+05  2.201589E+04  1.861402E+04 -1.750597E+04 -1.310417E-09  3.329717E-10
       141  13  1.435293E+05  1.414151E+01 -4.843229E+02 -1.747323E+04 -9.772169E-10  4.599449E-10
       141  14  1.435862E+05  2.146432E+01 -1.226223E+03 -7.373490E+03 -3.671990E-09 -1.146785E-11
       141  15  1.435286E+05 -1.033905E+02 -2.397770E+03 -1.747324E+04 -1.066962E-09  3.541505E-11
       141  16  1.182762E+05 -6.244948E+03 -6.530236E+03 -1.742948E+04 -1.462229E-09  8.768955E-10
       141  17  8.616111E+04 -1.416788E+04 -1.475500E+04 -7.335197E+03 -4.143320E-10 -7.556982E-11
       141  18  5.393221E+04 -2.222324E+04 -2.341011E+04 -1.744052E+04  6.080662E-10 -4.889150E-11
       141  19  1.687830E+05  6.273187E+03  5.561552E+03 -1.751698E+04 -1.763310E+03  6.824015E+02
       141  20  2.010144E+05  1.421058E+04  1.230234E+04 -7.411791E+03 -2.370689E+03  2.114097E+03
       141  21  2.331323E+05  2.201590E+04  1.861406E+04 -1.750598E+04 -2.978249E+03  3.544307E+03
       141  22  1.435293E+05  1.414223E+01 -4.843205E+02 -1.747323E+04 -9.036651E+02  6.822686E+02
       141  23  1.435862E+05  2.146973E+01 -1.226211E+03 -7.373493E+03 -1.511857E+03  2.114008E+03
       141  24  1.435286E+05 -1.033758E+02 -2.397738E+03 -1.747325E+04 -2.120200E+03  3.544257E+03
       141  25  1.182762E+05 -6.244948E+03 -6.530235E+03 -1.742948E+04 -4.405449E+01  6.821359E+02
       141  26  8.616111E+04 -1.416788E+04 -1.475499E+04 -7.335198E+03 -6.531035E+02  2.113918E+03
       141  27  5.393221E+04 -2.222322E+04 -2.341008E+04 -1.744052E+04 -1.262273E+03  3.544207E+03
       142   1  2.691237E+05  3.115502E+04  2.651946E+04 -1.773648E+04  3.490781E+03 -4.382690E+03
       142   2  3.017144E+05  3.919924E+04  3.159297E+04 -7.369607E+03  6.277125E+03 -5.813189E+03
       142   3  3.335773E+05  4.569197E+04  3.446964E+04 -1.723383E+04  9.063972E+03 -7.210470E+03
       142   4  1.433893E+05  7.116602E+01 -3.194889E+03 -1.748036E+04  2.621869E+03 -4.382690E+03
       142   5  1.437543E+05  1.734683E+02 -5.616261E+03 -7.364613E+03  5.427490E+03 -5.813307E+03
       142   6  1.433873E+05 -1.279174E+03 -1.024814E+04 -1.748030E+04  8.233473E+03 -7.210700E+03
       142   7  1.766948E+04 -3.101382E+04 -3.291033E+04 -1.722429E+04  1.753132E+03 -4.382691E+03
       142   8 -1.418287E+04 -3.885409E+04 -4.282721E+04 -7.359620E+03  4.578071E+03 -5.813424E+03
       142   9 -4.676940E+04 -4.825290E+04 -5.496841E+04 -1.772668E+04  7.403226E+03 -7.210929E+03
       142  10  2.691237E+05  3.115499E+04  2.651941E+04 -1.773646E+04 -3.370625E-10  1.614456E-10
       142  11  3.017144E+05  3.919920E+04  3.159283E+04 -7.369578E+03 -7.004229E-10 -1.022079E-10
       142  12  3.335772E+05  4.569189E+04  3.446939E+04 -1.723378E+04  2.892444E-10 -7.968159E-10
       142  13  1.433893E+05  7.114355E+01 -3.194938E+03 -1.748035E+04 -1.068617E-09  1.154216E-10
       142  14  1.437543E+05  1.734241E+02 -5.616379E+03 -7.364588E+03 -1.126245E-09 -1.237694E-10
       142  15  1.433872E+05 -1.279248E+03 -1.024837E+04 -1.748025E+04  5.039380E-10 -2.760939E-10
       142  16  1.766947E+04 -3.101384E+04 -3.291038E+04 -1.722428E+04  3.847705E-10  1.452608E-12
       142  17 -1.418290E+04 -3.885413E+04 -4.282731E+04 -7.359598E+03 -6.430077E-10 -2.289673E-10
       142  18 -4.676947E+04 -4.825297E+04 -5.496861E+04 -1.772664E+04 -2.395453E-09  3.982201E-10
       142  19  2.691237E+05  3.115502E+04  2.651946E+04 -1.773648E+04 -3.490781E+03  4.382690E+03
       142  20  3.017144E+05  3.919924E+04  3.159297E+04 -7.369607E+03 -6.277125E+03  5.813189E+03
       142  21  3.335773E+05  4.569197E+04  3.446964E+04 -1.723383E+04 -9.063972E+03  7.210470E+03
       142  22  1.433893E+05  7.116602E+01 -3.194889E+03 -1.748036E+04 -2.621869E+03  4.382690E+03
       142  23  1.437543E+05  1.734683E+02 -5.616261E+03 -7.364613E+03 -5.427490E+03  5.813307E+03
       142  24  1.433873E+05 -1.279174E+03 -1.024814E+04 -1.748030E+04 -8.233473E+03  7.210700E+03
       142  25  1.766948E+04 -3.101382E+04 -3.291033E+04 -1.722429E+04 -1.753132E+03  4.382691E+03
       142  26 -1.418287E+04 -3.885409E+04 -4.282721E+04 -7.359620E+03 -4.578071E+03  5.813424E+03
       142  27 -4.676940E+04 -4.825290E+04 -5.496841E+04 -1.772668E+04 -7.403226E+03  7.210929E+03
       143   1  3.687025E+05  5.672186E+04  4.021538E+04 -1.969701E+04  1.130421E+04 -8.120182E+03
       143   2  4.038325E+05  6.559960E+04  3.848444E+04 -6.160896E+03  2.241044E+04 -9.503994E+03
       143   3  4.333680E+05  5.759035E+04  2.532039E+04 -1.288927E+04  3.351770E+04 -1.032165E+04
       143   4  1.422887E+05  7.705232E+02 -1.319894E+04 -1.748938E+04  1.029969E+04 -8.120496E+03
       143   5  1.451164E+05  1.683330E+03 -2.245985E+04 -7.354067E+03  2.174140E+04 -9.504498E+03
       143   6  1.422870E+05 -1.435330E+04 -4.339050E+04 -1.748400E+04  3.318358E+04 -1.032236E+04
       143   7 -8.407800E+04 -5.518446E+04 -6.661679E+04 -1.528256E+04  9.295528E+03 -8.120816E+03
       143   8 -1.135381E+05 -6.223772E+04 -8.340874E+04 -8.546742E+03  2.107264E+04 -9.505000E+03
       143   9 -1.487160E+05 -8.630294E+04 -1.121072E+05 -2.207658E+04  3.284961E+04 -1.032306E+04
       143  10  3.687024E+05  5.672176E+04  4.021501E+04 -1.969694E+04 -1.601089E-10 -9.155228E-10
       143  11  4.038319E+05  6.559937E+04  3.848333E+04 -6.160725E+03  7.526398E-10 -3.270116E-10
       143  12  4.333667E+05  5.758993E+04  2.531808E+04 -1.288899E+04 -1.140351E-09  2.924693E-11
       143  13  1.422886E+05  7.704239E+02 -1.319927E+04 -1.748932E+04 -1.064323E-09 -4.490844E-10
       143  14  1.451159E+05  1.683106E+03 -2.246090E+04 -7.353900E+03  1.743227E-11 -7.254008E-10
       143  15  1.422858E+05 -1.435371E+04 -4.339277E+04 -1.748373E+04  8.232225E-10 -4.326239E-10
       143  16 -8.407811E+04 -5.518456E+04 -6.661708E+04 -1.528250E+04 -8.064534E-10  1.863999E-10
       143  17 -1.135386E+05 -6.223793E+04 -8.340974E+04 -8.546580E+03 -1.552207E-09 -3.954438E-10
       143  18 -1.487172E+05 -8.630334E+04 -1.121095E+05 -2.207631E+04  2.835077E-09 -7.061081E-10
       143  19  3.687025E+05  5.672186E+04  4.021538E+04 -1.969701E+04 -1.130421E+04  8.120182E+03
       143  20  4.038325E+05  6.559960E+04  3.848444E+04 -6.160896E+03 -2.241044E+04  9.503994E+03
       143  21  4.333680E+05  5.759035E+04  2.532039E+04 -1.288927E+04 -3.351770E+04  1.032165E+04
       143  22  1.422887E+05  7.705232E+02 -1.319894E+04 -1.748938E+04 -1.029969E+04  8.120496E+03
       143  23  1.451164E+05  1.683330E+03 -2.245985E+04 -7.354067E+03 -2.174140E+04  9.504498E+03
       143  24  1.422870E+05 -1.435330E+04 -4.339050E+04 -1.748400E+04 -3.318358E+04  1.032236E+04
       143  25 -8.407800E+04 -5.518446E+04 -6.661679E+04 -1.528256E+04 -9.295528E+03  8.120816E+03
       143  26 -1.135381E+05 -6.223772E+04 -8.340874E+04 -8.546742E+03 -2.107264E+04  9.505000E+03
       143  27 -1.487160E+05 -8.630294E+04 -1.121072E+05 -2.207658E+04 -3.284961E+04  1.032306E+04
       144   1  4.595781E+05  8.937924E+04  2.353115E+04 -3.972052E+04  4.450584E+04 -1.239145E+04
       144   2  5.175582E+05  1.063008E+05 -2.120551E+03  9.966439E+03  8.561278E+04 -1.297809E+04
       144   3  5.246323E+05 -5.965078E+04 -1.001965E+05  3.969227E+04  1.267151E+05 -4.179497E+03
       144   4  1.319995E+05  8.510587E+03 -5.348319E+04 -1.745751E+04  4.130678E+04 -1.239190E+04
       144   5  1.579626E+05  1.742595E+04 -8.689941E+04 -7.410892E+03  8.802186E+04 -1.297929E+04
       144   6  1.320112E+05 -1.575681E+05 -1.966638E+05 -1.732626E+04  1.347296E+05 -4.184280E+03
       144   7 -1.954793E+05 -7.236384E+04 -1.305046E+05  4.793687E+03  3.810939E+04 -1.239259E+04
       144   8 -2.015134E+05 -7.145699E+04 -1.716870E+05 -2.477813E+04  9.042955E+04 -1.298063E+04
       144   9 -2.604626E+05 -2.554847E+05 -2.931405E+05 -7.430873E+04  1.427391E+05 -4.190538E+03
       144  10  4.595759E+05  8.937855E+04  2.352714E+04 -3.972008E+04  1.451891E-09 -4.495911E-10
       144  11  5.175503E+05  1.062986E+05 -2.134631E+03  9.967334E+03  2.715804E-09 -2.356311E-09
       144  12  5.246151E+05 -5.965511E+04 -1.002266E+05  3.969270E+04  5.866190E-10 -8.450512E-10
       144  13  1.319976E+05  8.509964E+03 -5.348668E+04 -1.745710E+04  1.981531E-09 -2.422893E-09
       144  14  1.579543E+05  1.742369E+04 -8.691429E+04 -7.409972E+03  2.927124E-09  1.181974E-09
       144  15  1.319917E+05 -1.575730E+05 -1.966979E+05 -1.732581E+04 -3.361309E-09 -2.074179E-11
       144  16 -1.954809E+05 -7.236439E+04 -1.305076E+05  4.794067E+03  7.668643E-10 -6.825374E-10
       144  17 -2.015223E+05 -7.145937E+04 -1.717027E+05 -2.477718E+04 -2.349778E-09  9.886370E-10
       144  18 -2.604845E+05 -2.554902E+05 -2.931788E+05 -7.430824E+04  5.795146E-10 -7.310658E-10
       144  19  4.595781E+05  8.937924E+04  2.353115E+04 -3.972052E+04 -4.450584E+04  1.239145E+04
       144  20  5.175582E+05  1.063008E+05 -2.120551E+03  9.966439E+03 -8.561278E+04  1.297809E+04
       144  21  5.246323E+05 -5.965078E+04 -1.001965E+05  3.969227E+04 -1.267151E+05  4.179497E+03
       144  22  1.319995E+05  8.510587E+03 -5.348319E+04 -1.745751E+04 -4.130678E+04  1.239190E+04
       144  23  1.579626E+05  1.742595E+04 -8.689941E+04 -7.410892E+03 -8.802186E+04  1.297929E+04
       144  24  1.320112E+05 -1.575681E+05 -1.966638E+05 -1.732626E+04 -1.347296E+05  4.184280E+03
       144  25 -1.954793E+05 -7.236384E+04 -1.305046E+05  4.793687E+03 -3.810939E+04  1.239259E+04
       144  26 -2.015134E+05 -7.145699E+04 -1.716870E+05 -2.477813E+04 -9.042955E+04  1.298063E+04
       144  27 -2.604626E+05 -2.554847E+05 -2.931405E+05 -7.430873E+04 -1.427391E+05  4.190538E+03
       145   1  3.596396E+05  1.131059E+06  3.605496E+05 -1.786692E+05  1.341241E+04  4.532362E+04
       145   2  2.534792E+05  8.118904E+05  2.557228E+05 -7.529670E+04  3.735485E+04  1.831133E+04
       145   3  1.781216E+05  5.040918E+05  1.761812E+05 -1.673078E+05  2.663372E+04 -8.743333E+03
       145   4  2.304357E+04 -2.202052E+05  2.818652E+04 -1.691622E+05  1.344855E+04  2.052374E+04
       145   5 -2.483246E+03 -2.239764E+05  1.145667E+04 -7.147939E+04  3.736626E+04  1.435571E+04
       145   6 -7.870494E+02 -2.200582E+05  5.577344E+03 -1.691975E+05  2.659527E+04  8.131631E+03
       145   7 -3.136876E+05 -1.569808E+06 -3.043088E+05 -1.596751E+05  1.348398E+04 -4.222358E+03
       145   8 -2.585224E+05 -1.258857E+06 -2.328834E+05 -6.766798E+04  3.737763E+04  1.040663E+04
       145   9 -1.797330E+05 -9.437254E+05 -1.650616E+05 -1.710847E+05  2.655670E+04  2.498703E+04
       145  10  3.596389E+05  1.131057E+06  3.605454E+05 -1.786697E+05  1.582437E-09  9.490781E-10
       145  11  2.534776E+05  8.118897E+05  2.557195E+05 -7.529725E+04 -1.788923E-09  1.342482E-09
       145  12  1.781208E+05  5.040915E+05  1.761798E+05 -1.673076E+05 -1.371845E-09 -2.936818E-09
       145  13  2.304327E+04 -2.202057E+05  2.818539E+04 -1.691624E+05 -9.140467E-10 -5.627409E-12
       145  14 -2.484801E+03 -2.239770E+05  1.145366E+04 -7.147982E+04  3.635232E-09  3.661549E-11
       145  15 -7.878267E+02 -2.200585E+05  5.575891E+03 -1.691977E+05 -1.713660E-09  3.135938E-10
       145  16 -3.136878E+05 -1.569808E+06 -3.043092E+05 -1.596750E+05 -7.927070E-10 -3.763368E-10
       145  17 -2.585239E+05 -1.258857E+06 -2.328862E+05 -6.766829E+04  4.557405E-10 -3.570893E-10
       145  18 -1.797339E+05 -9.437262E+05 -1.650641E+05 -1.710852E+05  4.963282E-10  2.618815E-09
       145  19  3.596396E+05  1.131059E+06  3.605496E+05 -1.786692E+05 -1.341241E+04 -4.532362E+04
       145  20  2.534792E+05  8.118904E+05  2.557228E+05 -7.529670E+04 -3.735485E+04 -1.831133E+04
       145  21  1.781216E+05  5.040918E+05  1.761812E+05 -1.673078E+05 -2.663372E+04  8.743333E+03
       145  22  2.304357E+04 -2.202052E+05  2.818652E+04 -1.691622E+05 -1.344855E+04 -2.052374E+04
       145  23 -2.483246E+03 -2.239764E+05  1.145667E+04 -7.147939E+04 -3.736626E+04 -1.435571E+04
       145  24 -7.870494E+02 -2.200582E+05  5.577344E+03 -1.691975E+05 -2.659527E+04 -8.131631E+03
       145  25 -3.136876E+05 -1.569808E+06 -3.043088E+05 -1.596751E+05 -1.348398E+04  4.222358E+03
       145  26 -2.585224E+05 -1.258857E+06 -2.328834E+05 -6.766798E+04 -3.737763E+04 -1.040663E+04
       145  27 -1.797330E+05 -9.437254E+05 -1.650616E+05 -1.710847E+05 -2.655670E+04 -2.498703E+04
       146   1  9.491235E+04  1.499605E+05  9.099064E+04 -1.702395E+05  1.364551E+04  5.135992E+02
       146   2  1.498376E+04 -1.627463E+05  1.189736E+04 -7.167179E+04  2.148078E+03  1.358891E+03
       146   3 -6.562732E+04 -4.767765E+05 -6.817955E+04 -1.697357E+05 -9.512591E+03  2.202028E+03
       146   4  2.988053E+03 -2.219827E+05  3.333281E+03 -1.694536E+05  1.362849E+04  7.360370E+03
       146   5  5.162399E+02 -2.212647E+05 -1.895357E+03 -7.114427E+04  2.130613E+03  8.303082E+03
       146   6 -2.647455E+03 -2.219753E+05 -8.167545E+03 -1.694676E+05 -9.530816E+03  9.244067E+03
       146   7 -8.894610E+04 -5.937986E+05 -8.433344E+04 -1.686680E+05  1.361148E+04  1.420306E+04
       146   8 -1.395150E+04 -2.797797E+05 -1.568812E+04 -7.061680E+04  2.113159E+03  1.524662E+04
       146   9  6.032780E+04  3.288586E+04  5.184017E+04 -1.691995E+05 -9.549031E+03  1.628898E+04
       146  10  9.491215E+04  1.499604E+05  9.099029E+04 -1.702395E+05 -2.328065E-09  1.552083E-09
       146  11  1.498376E+04 -1.627463E+05  1.189734E+04 -7.167179E+04 -9.485212E-10  3.909878E-09
       146  12 -6.562742E+04 -4.767766E+05 -6.817973E+04 -1.697357E+05 -2.080716E-09 -8.814778E-11
       146  13  2.987839E+03 -2.219828E+05  3.332830E+03 -1.694536E+05 -1.130844E-09  4.870361E-11
       146  14  5.162166E+02 -2.212647E+05 -1.895496E+03 -7.114428E+04 -5.165146E-11 -1.061082E-11
       146  15 -2.647576E+03 -2.219754E+05 -8.167876E+03 -1.694676E+05 -2.769876E-09  2.778236E-10
       146  16 -8.894636E+04 -5.937988E+05 -8.433416E+04 -1.686682E+05 -8.646613E-10 -3.671007E-10
       146  17 -1.395157E+04 -2.797800E+05 -1.568857E+04 -7.061682E+04  7.602803E-10 -2.525595E-09
       146  18  6.032763E+04  3.288555E+04  5.183950E+04 -1.691993E+05  2.753674E-10 -2.074340E-10
       146  19  9.491235E+04  1.499605E+05  9.099064E+04 -1.702395E+05 -1.364551E+04 -5.135992E+02
       146  20  1.498376E+04 -1.627463E+05  1.189736E+04 -7.167179E+04 -2.148078E+03 -1.358891E+03
       146  21 -6.562732E+04 -4.767765E+05 -6.817955E+04 -1.697357E+05  9.512591E+03 -2.202028E+03
       146  22  2.988053E+03 -2.219827E+05  3.333281E+03 -1.694536E+05 -1.362849E+04 -7.360370E+03
       146  23  5.162399E+02 -2.212647E+05 -1.895357E+03 -7.114427E+04 -2.130613E+03 -8.303082E+03
       146  24 -2.647455E+03 -2.219753E+05 -8.167545E+03 -1.694676E+05  9.530816E+03 -9.244067E+03
       146  25 -8.894610E+04 -5.937986E+05 -8.433344E+04 -1.686680E+05 -1.361148E+04 -1.420306E+04
       146  26 -1.395150E+04 -2.797797E+05 -1.568812E+04 -7.061680E+04 -2.113159E+03 -1.524662E+04
       146  27  6.032780E+04  3.288586E+04  5.184017E+04 -1.691995E+05  9.549031E+03 -1.628898E+04
       147   1 -1.471239E+05 -8.310710E+05 -1.540543E+05 -1.629202E+05 -2.213446E+04 -5.414970E+03
       147   2 -2.230160E+05 -1.136667E+06 -2.363520E+05 -7.411882E+04 -3.320093E+04  2.428687E+04
       147   3 -3.437186E+05 -1.457444E+06 -3.492818E+05 -1.809226E+05 -1.221828E+04  5.403080E+04
       147   4  2.945887E+03 -2.243837E+05 -1.093327E+04 -1.692087E+05 -2.217344E+04  1.078708E+04
       147   5  4.103419E+03 -2.184957E+05 -1.957758E+04 -7.144509E+04 -3.319162E+04  2.130098E+04
       147   6 -3.617176E+04 -2.245209E+05 -4.548912E+04 -1.692736E+05 -1.218080E+04  3.187257E+04
       147   7  1.529896E+05  3.826431E+05  1.321634E+05 -1.755031E+05 -2.221272E+04  2.700488E+04
       147   8  2.311625E+05  7.004518E+05  1.971386E+05 -6.876697E+04 -3.318234E+04  1.831067E+04
       147   9  2.712626E+05  1.009788E+06  2.581932E+05 -1.576007E+05 -1.214420E+04  9.670277E+03
       147  10 -1.471244E+05 -8.310712E+05 -1.540553E+05 -1.629203E+05 -3.520038E-09 -3.701193E-09
       147  11 -2.230174E+05 -1.136668E+06 -2.363551E+05 -7.411817E+04 -1.482639E-10 -1.429474E-09
       147  12 -3.437195E+05 -1.457447E+06 -3.492876E+05 -1.809221E+05  1.607950E-10 -1.457653E-09
       147  13  2.945328E+03 -2.243840E+05 -1.093441E+04 -1.692085E+05 -3.643489E-09 -3.307993E-12
       147  14  4.102115E+03 -2.184965E+05 -1.958050E+04 -7.144452E+04  5.331322E-10 -5.799004E-11
       147  15 -3.617219E+04 -2.245221E+05 -4.549131E+04 -1.692733E+05  2.006878E-10  1.839611E-10
       147  16  1.529889E+05  3.826422E+05  1.321611E+05 -1.755027E+05 -2.742686E-11  4.912121E-09
       147  17  2.311612E+05  7.004511E+05  1.971359E+05 -6.876648E+04  1.460841E-09  2.399534E-09
       147  18  2.712624E+05  1.009788E+06  2.581927E+05 -1.576006E+05  1.584411E-09  1.141282E-09
       147  19 -1.471239E+05 -8.310710E+05 -1.540543E+05 -1.629202E+05  2.213446E+04  5.414970E+03
       147  20 -2.230160E+05 -1.136667E+06 -2.363520E+05 -7.411882E+04  3.320093E+04 -2.428687E+04
       147  21 -3.437186E+05 -1.457444E+06 -3.492818E+05 -1.809226E+05  1.221828E+04 -5.403080E+04
       147  22  2.945887E+03 -2.243837E+05 -1.093327E+04 -1.692087E+05  2.217344E+04 -1.078708E+04
       147  23  4.103419E+03 -2.184957E+05 -1.957758E+04 -7.144509E+04  3.319162E+04 -2.130098E+04
       147  24 -3.617176E+04 -2.245209E+05 -4.548912E+04 -1.692736E+05  1.218080E+04 -3.187257E+04
       147  25  1.529896E+05  3.826431E+05  1.321634E+05 -1.755031E+05  2.221272E+04 -2.700488E+04
       147  26  2.311625E+05  7.004518E+05  1.971386E+05 -6.876697E+04  3.318234E+04 -1.831067E+04
       147  27  2.712626E+05  1.009788E+06  2.581932E+05 -1.576007E+05  1.214420E+04 -9.670277E+03
       148   1 -1.115689E+06 -3.523504E+05 -2.043566E+05 -4.017339E+05 -8.293177E+04 -2.702029E+04
       148   2 -1.078770E+06 -2.213915E+05 -1.238588E+05 -3.972519E+05 -5.394096E+04 -7.881485E+03
       148   3 -1.070039E+06 -2.101414E+05 -9.557913E+04 -3.833266E+05 -2.187073E+04  3.072088E+03
       148   4 -8.202435E+05 -2.114184E+05 -1.184479E+05 -2.910048E+05 -7.660932E+04 -2.464867E+04
       148   5 -8.003917E+05 -1.081421E+05 -4.980282E+04 -3.122092E+05 -5.219840E+04 -7.228072E+03
       148   6 -8.078017E+05 -1.236394E+05 -2.972429E+04 -3.239760E+05 -2.471006E+04  2.005957E+03
       148   7 -5.247106E+05 -7.046424E+04 -3.254712E+04 -1.802224E+05 -7.028354E+04 -2.227504E+04
       148   8 -5.219377E+05  5.116154E+03  2.424654E+04 -2.271304E+05 -5.045497E+04 -6.574271E+03
       148   9 -5.454977E+05 -3.713679E+04  3.612529E+04 -2.646045E+05 -2.755070E+04  9.394681E+02
       148  10 -1.115696E+06 -3.523530E+05 -2.043710E+05 -4.017357E+05  1.855020E-09 -4.400687E-11
       148  11 -1.078773E+06 -2.213923E+05 -1.238644E+05 -3.972522E+05 -7.510240E-10 -9.725886E-10
       148  12 -1.070039E+06 -2.101415E+05 -9.558005E+04 -3.833266E+05 -1.795581E-09 -1.221640E-10
       148  13 -8.202500E+05 -2.114206E+05 -1.184601E+05 -2.910063E+05 -2.371571E-09  5.967870E-10
       148  14 -8.003947E+05 -1.081428E+05 -4.980805E+04 -3.122095E+05  1.816383E-09 -1.762433E-10
       148  15 -8.078023E+05 -1.236396E+05 -2.972545E+04 -3.239760E+05 -9.410493E-10 -9.569699E-10
       148  16 -5.247161E+05 -7.046610E+04 -3.255735E+04 -1.802237E+05  2.248743E-10 -2.618688E-10
       148  17 -5.219405E+05  5.115423E+03  2.424167E+04 -2.271306E+05  2.364163E-09 -6.763555E-10
       148  18 -5.454986E+05 -3.713699E+04  3.612386E+04 -2.646044E+05  7.860149E-10 -1.091117E-09
       148  19 -1.115689E+06 -3.523504E+05 -2.043566E+05 -4.017339E+05  8.293177E+04  2.702029E+04
       148  20 -1.078770E+06 -2.213915E+05 -1.238588E+05 -3.972519E+05  5.394096E+04  7.881485E+03
       148  21 -1.070039E+06 -2.101414E+05 -9.557913E+04 -3.833266E+05  2.187073E+04 -3.072088E+03
       148  22 -8.202435E+05 -2.114184E+05 -1.184479E+05 -2.910048E+05  7.660932E+04  2.464867E+04
       148  23 -8.003917E+05 -1.081421E+05 -4.980282E+04 -3.122092E+05  5.219840E+04  7.228072E+03
       148  24 -8.078017E+05 -1.236394E+05 -2.972429E+04 -3.239760E+05  2.471006E+04 -2.005957E+03
       148  25 -5.247106E+05 -7.046424E+04 -3.254712E+04 -1.802224E+05  7.028354E+04  2.227504E+04
       148  26 -5.219377E+05  5.116154E+03  2.424654E+04 -2.271304E+05  5.045497E+04  6.574271E+03
       148  27 -5.454977E+05 -3.713679E+04  3.612529E+04 -2.646045E+05  2.755070E+04 -9.394681E+02
       149   1 -1.017185E+06 -2.180642E+05 -8.014621E+04 -3.781841E+05 -1.946037E+04  1.710134E+03
       149   2 -9.912075E+05 -1.873577E+05 -5.930327E+04 -3.616113E+05 -1.272624E+04  3.161528E+03
       149   3 -9.541269E+05 -1.825810E+05 -4.598016E+04 -3.605751E+05 -5.786279E+03  4.064115E+03
       149   4 -8.038473E+05 -1.354479E+05 -2.406415E+04 -3.173339E+05 -1.983991E+04  1.567324E+03
       149   5 -8.088282E+05 -1.182740E+05 -1.175057E+04 -3.111554E+05 -1.341161E+04  2.904111E+03
       149   6 -8.026442E+05 -1.269670E+05 -6.712093E+03 -3.205139E+05 -6.777837E+03  3.692001E+03
       149   7 -5.904665E+05 -5.282825E+04  3.201381E+04 -2.564647E+05 -2.021960E+04  1.424457E+03
       149   8 -6.264165E+05 -4.918799E+04  3.579933E+04 -2.606860E+05 -1.409721E+04  2.646610E+03
       149   9 -6.511388E+05 -7.135177E+04  3.255420E+04 -2.804439E+05 -7.769664E+03  3.319791E+03
       149  10 -1.017185E+06 -2.180643E+05 -8.014692E+04 -3.781841E+05 -1.761869E-09 -1.575527E-10
       149  11 -9.912077E+05 -1.873577E+05 -5.930359E+04 -3.616113E+05 -4.960374E-10 -2.477284E-10
       149  12 -9.541269E+05 -1.825810E+05 -4.598025E+04 -3.605750E+05 -1.231584E-09 -2.332957E-10
       149  13 -8.038477E+05 -1.354480E+05 -2.406490E+04 -3.173339E+05 -2.199992E-09 -1.497561E-10
       149  14 -8.088284E+05 -1.182740E+05 -1.175092E+04 -3.111553E+05  9.278493E-10 -7.645343E-10
       149  15 -8.026443E+05 -1.269671E+05 -6.712205E+03 -3.205139E+05 -2.531033E-09  4.815769E-10
       149  16 -5.904669E+05 -5.282836E+04  3.201304E+04 -2.564646E+05 -1.479752E-09 -8.951602E-10
       149  17 -6.264167E+05 -4.918805E+04  3.579894E+04 -2.606859E+05 -5.963768E-10 -3.109604E-10
       149  18 -6.511389E+05 -7.135180E+04  3.255407E+04 -2.804438E+05  2.007278E-09  9.035336E-10
       149  19 -1.017185E+06 -2.180642E+05 -8.014621E+04 -3.781841E+05  1.946037E+04 -1.710134E+03
       149  20 -9.912075E+05 -1.873577E+05 -5.930327E+04 -3.616113E+05  1.272624E+04 -3.161528E+03
       149  21 -9.541269E+05 -1.825810E+05 -4.598016E+04 -3.605751E+05  5.786279E+03 -4.064115E+03
       149  22 -8.038473E+05 -1.354479E+05 -2.406415E+04 -3.173339E+05  1.983991E+04 -1.567324E+03
       149  23 -8.088282E+05 -1.182740E+05 -1.175057E+04 -3.111554E+05  1.341161E+04 -2.904111E+03
       149  24 -8.026442E+05 -1.269670E+05 -6.712093E+03 -3.205139E+05  6.777837E+03 -3.692001E+03
       149  25 -5.904665E+05 -5.282825E+04  3.201381E+04 -2.564647E+05  2.021960E+04 -1.424457E+03
       149  26 -6.264165E+05 -4.918799E+04  3.579933E+04 -2.606860E+05  1.409721E+04 -2.646610E+03
       149  27 -6.511388E+05 -7.135177E+04  3.255420E+04 -2.804439E+05  7.769664E+03 -3.319791E+03
       150   1 -9.135324E+05 -1.700509E+05 -3.410838E+04 -3.504697E+05 -4.624532E+03  3.397256E+03
       150   2 -8.885394E+05 -1.488073E+05 -2.326679E+04 -3.325289E+05 -2.631164E+03  2.431276E+03
       150   3 -8.481636E+05 -1.444995E+05 -1.375670E+04 -3.326344E+05 -6.229330E+02  1.425031E+03
       150   4 -8.021455E+05 -1.281176E+05 -5.218881E+03 -3.198934E+05 -5.456633E+03  3.085042E+03
       150   5 -8.097809E+05 -1.192485E+05 -2.784571E+03 -3.110210E+05 -3.485597E+03  2.110760E+03
       150   6 -8.020298E+05 -1.273106E+05 -1.663708E+03 -3.201952E+05 -1.499784E+03  1.096188E+03
       150   7 -6.907467E+05 -8.618357E+04  2.366958E+04 -2.893122E+05 -6.288899E+03  2.772766E+03
       150   8 -7.310164E+05 -8.968944E+04  1.769709E+04 -2.895108E+05 -4.340147E+03  1.790199E+03
       150   9 -7.558941E+05 -1.101215E+05  1.042907E+04 -3.077552E+05 -2.376703E+03  7.673206E+02
       150  10 -9.135324E+05 -1.700509E+05 -3.410845E+04 -3.504697E+05 -1.165831E-09  1.803358E-10
       150  11 -8.885394E+05 -1.488073E+05 -2.326681E+04 -3.325289E+05  8.126856E-10 -1.203299E-10
       150  12 -8.481636E+05 -1.444995E+05 -1.375671E+04 -3.326344E+05 -3.482330E-10 -8.157922E-12
       150  13 -8.021456E+05 -1.281177E+05 -5.218955E+03 -3.198934E+05  2.346728E-09  2.646520E-10
       150  14 -8.097809E+05 -1.192485E+05 -2.784602E+03 -3.110210E+05 -8.055072E-10 -2.681148E-10
       150  15 -8.020298E+05 -1.273106E+05 -1.663714E+03 -3.201952E+05 -1.349177E-09  4.736336E-11
       150  16 -6.907467E+05 -8.618359E+04  2.366949E+04 -2.893121E+05  1.518478E-09  4.415910E-10
       150  17 -7.310165E+05 -8.968945E+04  1.769705E+04 -2.895108E+05 -1.718494E-09 -2.498074E-10
       150  18 -7.558942E+05 -1.101215E+05  1.042906E+04 -3.077552E+05  2.722731E-10  3.964454E-10
       150  19 -9.135324E+05 -1.700509E+05 -3.410838E+04 -3.504697E+05  4.624532E+03 -3.397256E+03
       150  20 -8.885394E+05 -1.488073E+05 -2.326679E+04 -3.325289E+05  2.631164E+03 -2.431276E+03
       150  21 -8.481636E+05 -1.444995E+05 -1.375670E+04 -3.326344E+05  6.229330E+02 -1.425031E+03
       150  22 -8.021455E+05 -1.281176E+05 -5.218881E+03 -3.198934E+05  5.456633E+03 -3.085042E+03
       150  23 -8.097809E+05 -1.192485E+05 -2.784571E+03 -3.110210E+05  3.485597E+03 -2.110760E+03
       150  24 -8.020298E+05 -1.273106E+05 -1.663708E+03 -3.201952E+05  1.499784E+03 -1.096188E+03
       150  25 -6.907467E+05 -8.618357E+04  2.366958E+04 -2.893122E+05  6.288899E+03 -2.772766E+03
       150  26 -7.310164E+05 -8.968944E+04  1.769709E+04 -2.895108E+05  4.340147E+03 -1.790199E+03
       150  27 -7.558941E+05 -1.101215E+05  1.042907E+04 -3.077552E+05  2.376703E+03 -7.673206E+02
       151   1 -8.085889E+05 -1.298878E+05 -2.955354E+03 -3.219621E+05 -4.558954E+01  6.083101E+02
       151   2 -7.836912E+05 -1.095157E+05  5.813561E+03 -3.038580E+05  1.033544E+03 -7.491507E+02
       151   3 -7.429292E+05 -1.052440E+05  1.417815E+04 -3.040428E+05  2.113028E+03 -2.107192E+03
       151   4 -8.019645E+05 -1.274178E+05 -1.354533E+03 -3.201395E+05 -9.123538E+02  2.832671E+02
       151   5 -8.098923E+05 -1.193406E+05 -9.983851E+02 -3.110049E+05  1.664095E+02 -1.074362E+03
       151   6 -8.019575E+05 -1.273642E+05 -1.046424E+03 -3.201599E+05  1.245487E+03 -2.432574E+03
       151   7 -7.953400E+05 -1.249478E+05  2.462973E+02 -3.183170E+05 -1.779133E+03 -4.178149E+01
       151   8 -8.360927E+05 -1.291655E+05 -7.810372E+03 -3.181516E+05 -7.006836E+02 -1.399558E+03
       151   9 -8.609819E+05 -1.494840E+05 -1.627113E+04 -3.362754E+05  3.780433E+02 -2.757919E+03
       151  10 -8.085889E+05 -1.298878E+05 -2.955354E+03 -3.219621E+05 -1.053377E-09  3.267112E-10
       151  11 -7.836912E+05 -1.095157E+05  5.813558E+03 -3.038580E+05 -8.911355E-10  1.251164E-11
       151  12 -7.429292E+05 -1.052440E+05  1.417813E+04 -3.040427E+05  5.478124E-10 -5.555605E-10
       151  13 -8.019645E+05 -1.274178E+05 -1.354535E+03 -3.201395E+05 -1.173355E-09  2.698388E-10
       151  14 -8.098923E+05 -1.193406E+05 -9.983874E+02 -3.110049E+05 -5.742540E-10 -1.229114E-10
       151  15 -8.019575E+05 -1.273642E+05 -1.046438E+03 -3.201599E+05  7.983118E-11 -4.785625E-10
       151  16 -7.953400E+05 -1.249478E+05  2.462913E+02 -3.183170E+05 -4.724088E-10  1.437830E-10
       151  17 -8.360927E+05 -1.291655E+05 -7.810376E+03 -3.181516E+05 -3.736493E-10 -5.628410E-10
       151  18 -8.609819E+05 -1.494840E+05 -1.627115E+04 -3.362754E+05 -3.330185E-10 -4.516198E-10
       151  19 -8.085889E+05 -1.298878E+05 -2.955354E+03 -3.219621E+05  4.558954E+01 -6.083101E+02
       151  20 -7.836912E+05 -1.095157E+05  5.813561E+03 -3.038580E+05 -1.033544E+03  7.491507E+02
       151  21 -7.429292E+05 -1.052440E+05  1.417815E+04 -3.040428E+05 -2.113028E+03  2.107192E+03
       151  22 -8.019645E+05 -1.274178E+05 -1.354533E+03 -3.201395E+05  9.123538E+02 -2.832671E+02
       151  23 -8.098923E+05 -1.193406E+05 -9.983851E+02 -3.110049E+05 -1.664095E+02  1.074362E+03
       151  24 -8.019575E+05 -1.273642E+05 -1.046424E+03 -3.201599E+05 -1.245487E+03  2.432574E+03
       151  25 -7.953400E+05 -1.249478E+05  2.462973E+02 -3.183170E+05  1.779133E+03  4.178149E+01
       151  26 -8.360927E+05 -1.291655E+05 -7.810372E+03 -3.181516E+05  7.006836E+02  1.399558E+03
       151  27 -8.609819E+05 -1.494840E+05 -1.627113E+04 -3.362754E+05 -3.780433E+02  2.757919E+03
       152   1 -7.036206E+05 -9.045122E+04  2.449924E+04 -2.933548E+05  2.634261E+03 -2.937714E+03
       152   2 -6.789127E+05 -7.027310E+04  3.219856E+04 -2.753367E+05  4.124549E+03 -4.132751E+03
       152   3 -6.385528E+05 -6.622344E+04  3.915053E+04 -2.754334E+05  5.610980E+03 -5.316003E+03
       152   4 -8.019994E+05 -1.273215E+05 -1.193234E+03 -3.201403E+05  1.767910E+03 -3.262701E+03
       152   5 -8.098400E+05 -1.193599E+05 -1.837339E+03 -3.110442E+05  3.264540E+03 -4.455493E+03
       152   6 -8.020303E+05 -1.275283E+05 -3.233781E+03 -3.200636E+05  4.757263E+03 -5.636516E+03
       152   7 -9.003692E+05 -1.641914E+05 -2.688664E+04 -3.469222E+05  9.017054E+02 -3.587632E+03
       152   8 -9.407516E+05 -1.684460E+05 -3.587494E+04 -3.467453E+05  2.404724E+03 -4.778163E+03
       152   9 -9.654837E+05 -1.888322E+05 -4.562079E+04 -3.646836E+05  3.903783E+03 -5.956940E+03
       152  10 -7.036206E+05 -9.045124E+04  2.449921E+04 -2.933548E+05  6.407955E-12 -5.230662E-10
       152  11 -6.789128E+05 -7.027312E+04  3.219849E+04 -2.753367E+05 -1.648172E-09  5.356781E-10
       152  12 -6.385528E+05 -6.622348E+04  3.915041E+04 -2.754334E+05 -2.335776E-09  9.258615E-10
       152  13 -8.019994E+05 -1.273215E+05 -1.193260E+03 -3.201403E+05 -1.644231E-09 -2.343888E-10
       152  14 -8.098400E+05 -1.193599E+05 -1.837396E+03 -3.110442E+05  2.412850E-09  6.972537E-10
       152  15 -8.020304E+05 -1.275283E+05 -3.233883E+03 -3.200636E+05 -2.229054E-10  8.123695E-10
       152  16 -9.003692E+05 -1.641914E+05 -2.688666E+04 -3.469222E+05  8.421423E-10  3.696555E-10
       152  17 -9.407516E+05 -1.684461E+05 -3.587499E+04 -3.467453E+05 -1.413747E-09  7.289366E-10
       152  18 -9.654837E+05 -1.888322E+05 -4.562089E+04 -3.646836E+05 -3.072279E-10  5.453167E-10
       152  19 -7.036206E+05 -9.045122E+04  2.449924E+04 -2.933548E+05 -2.634261E+03  2.937714E+03
       152  20 -6.789127E+05 -7.027310E+04  3.219856E+04 -2.753367E+05 -4.124549E+03  4.132751E+03
       152  21 -6.385528E+05 -6.622344E+04  3.915053E+04 -2.754334E+05 -5.610980E+03  5.316003E+03
       152  22 -8.019994E+05 -1.273215E+05 -1.193234E+03 -3.201403E+05 -1.767910E+03  3.262701E+03
       152  23 -8.098400E+05 -1.193599E+05 -1.837339E+03 -3.110442E+05 -3.264540E+03  4.455493E+03
       152  24 -8.020303E+05 -1.275283E+05 -3.233781E+03 -3.200636E+05 -4.757263E+03  5.636516E+03
       152  25 -9.003692E+05 -1.641914E+05 -2.688664E+04 -3.469222E+05 -9.017054E+02  3.587632E+03
       152  26 -9.407516E+05 -1.684460E+05 -3.587494E+04 -3.467453E+05 -2.404724E+03  4.778163E+03
       152  27 -9.654837E+05 -1.888322E+05 -4.562079E+04 -3.646836E+05 -3.903783E+03  5.956940E+03
       153   1 -5.997674E+05 -5.157293E+04  4.848479E+04 -2.652902E+05  6.568125E+03 -5.975322E+03
       153   2 -5.753521E+05 -3.124033E+04  5.339734E+04 -2.471484E+05  1.088399E+04 -6.075317E+03
       153   3 -5.368298E+05 -2.920923E+04  5.479561E+04 -2.462406E+05  1.517631E+04 -6.109992E+03
       153   4 -8.022640E+05 -1.271901E+05 -4.214915E+03 -3.201787E+05  5.702900E+03 -6.300272E+03
       153   5 -8.094736E+05 -1.191508E+05 -7.487094E+03 -3.111439E+05  1.005390E+04 -6.387298E+03
       153   6 -8.025844E+05 -1.294208E+05 -1.430230E+04 -3.193435E+05  1.438116E+04 -6.409072E+03
       153   7 -1.004719E+06 -2.028042E+05 -5.691753E+04 -3.750506E+05  4.837993E+03 -6.625103E+03
       153   8 -1.043541E+06 -2.070574E+05 -6.837577E+04 -3.751173E+05  9.224159E+03 -6.699150E+03
       153   9 -1.068270E+06 -2.296276E+05 -8.340604E+04 -3.924180E+05  1.358639E+04 -6.708010E+03
       153  10 -5.997674E+05 -5.157298E+04  4.848464E+04 -2.652902E+05 -1.760630E-09  9.186248E-10
       153  11 -5.753522E+05 -3.124040E+04  5.339704E+04 -2.471484E+05  1.765504E-09  5.356000E-10
       153  12 -5.368301E+05 -2.920933E+04  5.479510E+04 -2.462405E+05  1.205767E-09  4.486540E-10
       153  13 -8.022641E+05 -1.271902E+05 -4.215051E+03 -3.201787E+05 -4.319043E-10  9.113581E-10
       153  14 -8.094737E+05 -1.191509E+05 -7.487360E+03 -3.111439E+05  7.207810E-11  1.960435E-09
       153  15 -8.025846E+05 -1.294209E+05 -1.430277E+04 -3.193434E+05  2.844720E-09 -1.039796E-10
       153  16 -1.004719E+06 -2.028042E+05 -5.691766E+04 -3.750506E+05 -4.949243E-10  1.088273E-09
       153  17 -1.043541E+06 -2.070575E+05 -6.837602E+04 -3.751172E+05  1.723653E-09  7.751360E-10
       153  18 -1.068270E+06 -2.296277E+05 -8.340648E+04 -3.924179E+05  1.018855E-09  6.999767E-10
       153  19 -5.997674E+05 -5.157293E+04  4.848479E+04 -2.652902E+05 -6.568125E+03  5.975322E+03
       153  20 -5.753521E+05 -3.124033E+04  5.339734E+04 -2.471484E+05 -1.088399E+04  6.075317E+03
       153  21 -5.368298E+05 -2.920923E+04  5.479561E+04 -2.462406E+05 -1.517631E+04  6.109992E+03
       153  22 -8.022640E+05 -1.271901E+05 -4.214915E+03 -3.201787E+05 -5.702900E+03  6.300272E+03
       153  23 -8.094736E+05 -1.191508E+05 -7.487094E+03 -3.111439E+05 -1.005390E+04  6.387298E+03
       153  24 -8.025844E+05 -1.294208E+05 -1.430230E+04 -3.193435E+05 -1.438116E+04  6.409072E+03
       153  25 -1.004719E+06 -2.028042E+05 -5.691753E+04 -3.750506E+05 -4.837993E+03  6.625103E+03
       153  26 -1.043541E+06 -2.070574E+05 -6.837577E+04 -3.751173E+05 -9.224159E+03  6.699150E+03
       153  27 -1.068270E+06 -2.296276E+05 -8.340604E+04 -3.924180E+05 -1.358639E+04  6.708010E+03
       154   1 -4.975412E+05 -1.462673E+04  6.067347E+04 -2.408627E+05  1.839834E+04 -6.004506E+03
       154   2 -4.733232E+05  1.066349E+04  5.466713E+04 -2.184025E+05  3.524773E+04 -1.287026E+03
       154   3 -4.464912E+05 -7.066641E+03  2.893956E+04 -2.063939E+05  5.180060E+04  4.224550E+03
       154   4 -8.039372E+05 -1.262754E+05 -1.845760E+04 -3.210933E+05  1.737653E+04 -6.388834E+03
       154   5 -8.068619E+05 -1.164148E+05 -3.241378E+04 -3.114717E+05  3.466246E+04 -1.507785E+03
       154   6 -8.072670E+05 -1.496725E+05 -6.644609E+04 -3.123021E+05  5.165098E+04  4.166928E+03
       154   7 -1.110243E+06 -2.379201E+05 -9.759671E+04 -4.012891E+05  1.635526E+04 -6.772969E+03
       154   8 -1.140293E+06 -2.434855E+05 -1.195043E+05 -4.044955E+05  3.407752E+04 -1.728412E+03
       154   9 -1.167916E+06 -2.922665E+05 -1.618430E+05 -4.181533E+05  5.150146E+04  4.109343E+03
       154  10 -4.975416E+05 -1.462686E+04  6.067277E+04 -2.408626E+05 -5.915909E-10  1.988169E-11
       154  11 -4.733246E+05  1.066315E+04  5.466479E+04 -2.184025E+05 -5.752846E-11 -2.568008E-10
       154  12 -4.464941E+05 -7.067381E+03  2.893448E+04 -2.063941E+05  1.984514E-09  1.403332E-09
       154  13 -8.039375E+05 -1.262756E+05 -1.845824E+04 -3.210933E+05  4.317287E-09 -1.538763E-10
       154  14 -8.068632E+05 -1.164151E+05 -3.241604E+04 -3.114716E+05  1.325115E-09  3.267354E-09
       154  15 -8.072699E+05 -1.496732E+05 -6.645115E+04 -3.123023E+05  1.902860E-09  8.203791E-10
       154  16 -1.110243E+06 -2.379202E+05 -9.759730E+04 -4.012890E+05  3.369590E-09  5.953463E-10
       154  17 -1.140294E+06 -2.434858E+05 -1.195065E+05 -4.044955E+05  1.800867E-09 -7.199838E-10
       154  18 -1.167919E+06 -2.922672E+05 -1.618480E+05 -4.181534E+05  1.096660E-09  1.712287E-09
       154  19 -4.975412E+05 -1.462673E+04  6.067347E+04 -2.408627E+05 -1.839834E+04  6.004506E+03
       154  20 -4.733232E+05  1.066349E+04  5.466713E+04 -2.184025E+05 -3.524773E+04  1.287026E+03
       154  21 -4.464912E+05 -7.066641E+03  2.893956E+04 -2.063939E+05 -5.180060E+04 -4.224550E+03
       154  22 -8.039372E+05 -1.262754E+05 -1.845760E+04 -3.210933E+05 -1.737653E+04  6.388834E+03
       154  23 -8.068619E+05 -1.164148E+05 -3.241378E+04 -3.114717E+05 -3.466246E+04  1.507785E+03
       154  24 -8.072670E+05 -1.496725E+05 -6.644609E+04 -3.123021E+05 -5.165098E+04 -4.166928E+03
       154  25 -1.110243E+06 -2.379201E+05 -9.759671E+04 -4.012891E+05 -1.635526E+04  6.772969E+03
       154  26 -1.140293E+06 -2.434855E+05 -1.195043E+05 -4.044955E+05 -3.407752E+04  1.728412E+03
       154  27 -1.167916E+06 -2.922665E+05 -1.618430E+05 -4.181533E+05 -5.150146E+04 -4.109343E+03
       155   1 -3.915981E+05  1.000612E+04  2.238836E+04 -2.480275E+05  6.761900E+04  7.411762E+03
       155   2 -3.696602E+05  9.162141E+04 -2.527467E+04 -1.759404E+05  1.362329E+05  3.253725E+04
       155   3 -4.495235E+05 -1.256438E+05 -2.018416E+05 -4.597220E+04  2.004275E+05  6.940725E+04
       155   4 -8.180301E+05 -1.172287E+05 -8.209021E+04 -3.308513E+05  6.394530E+04  6.032354E+03
       155   5 -7.836937E+05 -8.822260E+04 -1.375334E+05 -3.141733E+05  1.390996E+05  3.360970E+04
       155   6 -8.525414E+05 -3.595285E+05 -3.271364E+05 -2.395936E+05  2.098333E+05  7.291968E+04
       155   7 -1.244284E+06 -2.444659E+05 -1.865815E+05 -4.136309E+05  6.027437E+04  4.653496E+03
       155   8 -1.197556E+06 -2.680379E+05 -2.498067E+05 -4.523162E+05  1.419641E+05  3.468105E+04
       155   9 -1.255381E+06 -5.933213E+05 -4.524446E+05 -4.330775E+05  2.192323E+05  7.642642E+04
       155  10 -3.916031E+05  1.000483E+04  2.237965E+04 -2.480279E+05  2.228172E-09 -4.082160E-10
       155  11 -3.696804E+05  9.161529E+04 -2.531156E+04 -1.759440E+05  2.106238E-09 -2.496907E-09
       155  12 -4.495680E+05 -1.256598E+05 -2.019262E+05 -4.598341E+04 -3.704847E-10 -8.258575E-10
       155  13 -8.180345E+05 -1.172299E+05 -8.209798E+04 -3.308516E+05  5.699068E-10 -3.142125E-09
       155  14 -7.837148E+05 -8.822902E+04 -1.375719E+05 -3.141771E+05 -1.268343E-09  1.355269E-09
       155  15 -8.525902E+05 -3.595461E+05 -3.272293E+05 -2.396059E+05 -1.511537E-09  4.766166E-10
       155  16 -1.244288E+06 -2.444669E+05 -1.865884E+05 -4.136312E+05  1.175240E-09  1.895544E-09
       155  17 -1.197578E+06 -2.680446E+05 -2.498469E+05 -4.523202E+05 -8.595788E-11  1.241358E-09
       155  18 -1.255434E+06 -5.933405E+05 -4.525461E+05 -4.330910E+05 -4.193980E-10 -8.254676E-10
       155  19 -3.915981E+05  1.000612E+04  2.238836E+04 -2.480275E+05 -6.761900E+04 -7.411762E+03
       155  20 -3.696602E+05  9.162141E+04 -2.527467E+04 -1.759404E+05 -1.362329E+05 -3.253725E+04
       155  21 -4.495235E+05 -1.256438E+05 -2.018416E+05 -4.597220E+04 -2.004275E+05 -6.940725E+04
       155  22 -8.180301E+05 -1.172287E+05 -8.209021E+04 -3.308513E+05 -6.394530E+04 -6.032354E+03
       155  23 -7.836937E+05 -8.822260E+04 -1.375334E+05 -3.141733E+05 -1.390996E+05 -3.360970E+04
       155  24 -8.525414E+05 -3.595285E+05 -3.271364E+05 -2.395936E+05 -2.098333E+05 -7.291968E+04
       155  25 -1.244284E+06 -2.444659E+05 -1.865815E+05 -4.136309E+05 -6.027437E+04 -4.653496E+03
       155  26 -1.197556E+06 -2.680379E+05 -2.498067E+05 -4.523162E+05 -1.419641E+05 -3.468105E+04
       155  27 -1.255381E+06 -5.933213E+05 -4.524446E+05 -4.330775E+05 -2.192323E+05 -7.642642E+04
       156   1  2.535973E+05  2.185305E+06  2.491838E+05 -7.984953E+04  1.125986E+04  1.070669E+05
       156   2  1.931668E+05  2.139382E+06  1.769620E+05 -5.680091E+04  3.861525E+04  5.642269E+04
       156   3  1.707571E+05  2.109566E+06  1.471674E+05 -4.045180E+04  4.770007E+04  5.767184E+03
       156   4  5.817049E+04  1.391710E+06  6.449287E+04 -4.169131E+04  1.133701E+04  4.128449E+04
       156   5  1.434856E+04  1.386533E+06  3.445099E+04 -3.837716E+04  3.865962E+04  2.363602E+04
       156   6  2.855259E+03  1.391764E+06  2.398916E+04 -4.176070E+04  4.770472E+04  5.971560E+03
       156   7 -1.372931E+05  5.987066E+05 -1.202236E+05 -3.581885E+03  1.140616E+04 -2.441466E+04
       156   8 -1.645009E+05  6.342326E+05 -1.080810E+05 -1.997606E+04  3.870207E+04 -9.111972E+03
       156   9 -1.650741E+05  6.744659E+05 -9.920645E+04 -4.306786E+04  4.770937E+04  6.175704E+03
       156  10  2.535941E+05  2.185293E+06  2.491621E+05 -7.985050E+04  1.882973E-09  5.408895E-09
       156  11  1.931643E+05  2.139378E+06  1.769533E+05 -5.680266E+04  3.132275E-09  1.267369E-10
       156  12  1.707547E+05  2.109565E+06  1.471630E+05 -4.045202E+04 -5.937287E-11 -7.092416E-09
       156  13  5.816989E+04  1.391708E+06  6.448944E+04 -4.169169E+04 -4.069285E-10  1.099480E-09
       156  14  1.434681E+04  1.386532E+06  3.444713E+04 -3.837790E+04  2.054889E-09  1.299830E-09
       156  15  2.852804E+03  1.391763E+06  2.398481E+04 -4.176093E+04 -1.152256E-09  1.495019E-09
       156  16 -1.372934E+05  5.987060E+05 -1.202250E+05 -3.581660E+03  8.356465E-10 -5.368122E-09
       156  17 -1.645025E+05  6.342321E+05 -1.080840E+05 -1.997577E+04 -1.030747E-09 -1.159791E-09
       156  18 -1.650765E+05  6.744653E+05 -9.921081E+04 -4.306810E+04 -3.506037E-10  6.989765E-09
       156  19  2.535973E+05  2.185305E+06  2.491838E+05 -7.984953E+04 -1.125986E+04 -1.070669E+05
       156  20  1.931668E+05  2.139382E+06  1.769620E+05 -5.680091E+04 -3.861525E+04 -5.642269E+04
       156  21  1.707571E+05  2.109566E+06  1.471674E+05 -4.045180E+04 -4.770007E+04 -5.767184E+03
       156  22  5.817049E+04  1.391710E+06  6.449287E+04 -4.169131E+04 -1.133701E+04 -4.128449E+04
       156  23  1.434856E+04  1.386533E+06  3.445099E+04 -3.837716E+04 -3.865962E+04 -2.363602E+04
       156  24  2.855259E+03  1.391764E+06  2.398916E+04 -4.176070E+04 -4.770472E+04 -5.971560E+03
       156  25 -1.372931E+05  5.987066E+05 -1.202236E+05 -3.581885E+03 -1.140616E+04  2.441466E+04
       156  26 -1.645009E+05  6.342326E+05 -1.080810E+05 -1.997606E+04 -3.870207E+04  9.111972E+03
       156  27 -1.650741E+05  6.744659E+05 -9.920645E+04 -4.306786E+04 -4.770937E+04 -6.175704E+03
       157   1  1.648001E+05  2.082871E+06  1.398316E+05 -4.510862E+04  4.723947E+04  3.714683E+03
       157   2  1.543915E+05  2.043429E+06  1.329946E+05 -3.819033E+04  4.658428E+04 -1.357626E+04
       157   3  1.514054E+05  2.008099E+06  1.392495E+05 -3.918341E+04  4.304557E+04 -3.087146E+04
       157   4  3.034456E+03  1.390168E+06  2.236722E+04 -4.202431E+04  4.724614E+04  2.336976E+03
       157   5  1.914315E+03  1.388568E+06  2.417240E+04 -3.806578E+04  4.658305E+04 -9.738104E+03
       157   6  7.317587E+03  1.390178E+06  3.546200E+04 -4.201894E+04  4.303506E+04 -2.181838E+04
       157   7 -1.587564E+05  6.979364E+05 -9.511274E+04 -3.894338E+04  4.725281E+04  9.607531E+02
       157   8 -1.505850E+05  7.341291E+05 -8.466275E+04 -3.794119E+04  4.658181E+04 -5.903843E+03
       157   9 -1.367901E+05  7.726331E+05 -6.833717E+04 -4.485140E+04  4.302446E+04 -1.277398E+04
       157  10  1.647977E+05  2.082870E+06  1.398274E+05 -4.510876E+04 -2.790688E-09  3.418307E-09
       157  11  1.543891E+05  2.043428E+06  1.329902E+05 -3.818983E+04 -1.823508E-09  9.093947E-10
       157  12  1.514031E+05  2.008097E+06  1.392442E+05 -3.918234E+04 -1.116157E-09 -3.659892E-09
       157  13  3.032056E+03  1.390168E+06  2.236302E+04 -4.202440E+04 -1.425275E-09  1.430823E-09
       157  14  1.911958E+03  1.388567E+06  2.416814E+04 -3.806541E+04 -9.450193E-10  1.278839E-09
       157  15  7.315469E+03  1.390177E+06  3.545763E+04 -4.201818E+04 -6.537852E-10  1.988166E-09
       157  16 -1.587588E+05  6.979358E+05 -9.511694E+04 -3.894341E+04 -1.870049E-09 -3.507878E-09
       157  17 -1.505874E+05  7.341285E+05 -8.466690E+04 -3.794097E+04  2.095827E-09 -2.583892E-09
       157  18 -1.367921E+05  7.726324E+05 -6.834095E+04 -4.485095E+04  1.299527E-09  3.282398E-09
       157  19  1.648001E+05  2.082871E+06  1.398316E+05 -4.510862E+04 -4.723947E+04 -3.714683E+03
       157  20  1.543915E+05  2.043429E+06  1.329946E+05 -3.819033E+04 -4.658428E+04  1.357626E+04
       157  21  1.514054E+05  2.008099E+06  1.392495E+05 -3.918341E+04 -4.304557E+04  3.087146E+04
       157  22  3.034456E+03  1.390168E+06  2.236722E+04 -4.202431E+04 -4.724614E+04 -2.336976E+03
       157  23  1.914315E+03  1.388568E+06  2.417240E+04 -3.806578E+04 -4.658305E+04  9.738104E+03
       157  24  7.317587E+03  1.390178E+06  3.546200E+04 -4.201894E+04 -4.303506E+04  2.181838E+04
       157  25 -1.587564E+05  6.979364E+05 -9.511274E+04 -3.894338E+04 -4.725281E+04 -9.607531E+02
       157  26 -1.505850E+05  7.341291E+05 -8.466275E+04 -3.794119E+04 -4.658181E+04  5.903843E+03
       157  27 -1.367901E+05  7.726331E+05 -6.833717E+04 -4.485140E+04 -4.302446E+04  1.277398E+04
       158   1  1.455387E+05  1.989470E+06  1.453253E+05 -4.875415E+04  4.068493E+04 -3.578854E+04
       158   2  1.666659E+05  1.938440E+06  1.807702E+05  3.989879E+03  3.056570E+04 -9.680800E+04
       158   3  2.697923E+05  1.915816E+06  2.763571E+05  4.810923E+04  8.816620E+03 -1.578490E+05
       158   4  6.702107E+03  1.394983E+06  4.459782E+04 -4.220618E+04  4.067480E+04 -2.782138E+04
       158   5  3.526673E+04  1.382555E+06  7.772299E+04 -3.778197E+04  3.052361E+04 -6.784405E+04
       158   6  1.422215E+05  1.394905E+06  1.564548E+05 -4.198139E+04  8.747252E+03 -1.078891E+05
       158   7 -1.321529E+05  8.008426E+05 -5.614084E+04 -3.566451E+04  4.066484E+04 -1.986158E+04
       158   8 -9.614304E+04  8.269738E+05 -2.533312E+04 -7.951544E+04  3.047761E+04 -3.890528E+04
       158   9  1.466375E+04  8.742671E+05  3.654827E+04 -1.319959E+05  8.663398E+03 -5.797061E+04
       158  10  1.455366E+05  1.989468E+06  1.453198E+05 -4.875298E+04 -6.940854E-10  3.557873E-09
       158  11  1.666624E+05  1.938430E+06  1.807509E+05  3.992260E+03  7.143797E-10  1.769289E-09
       158  12  2.697855E+05  1.915789E+06  2.763103E+05  4.811035E+04  1.293669E-09 -2.223247E-09
       158  13  6.700122E+03  1.394981E+06  4.459326E+04 -4.220527E+04 -5.837126E-10  1.850494E-09
       158  14  3.526450E+04  1.382550E+06  7.771261E+04 -3.778031E+04  3.784550E-09  2.173241E-09
       158  15  1.422183E+05  1.394893E+06  1.564328E+05 -4.198063E+04 -1.919198E-10  2.333862E-09
       158  16 -1.321548E+05  8.008417E+05 -5.614469E+04 -3.566386E+04  4.064046E-10 -3.426155E-09
       158  17 -9.614444E+04  8.269719E+05 -2.533771E+04 -7.951448E+04  3.741028E-09 -3.393983E-09
       158  18  1.466277E+04  8.742635E+05  3.654182E+04 -1.319955E+05 -9.012160E-10  1.790428E-09
       158  19  1.455387E+05  1.989470E+06  1.453253E+05 -4.875415E+04 -4.068493E+04  3.578854E+04
       158  20  1.666659E+05  1.938440E+06  1.807702E+05  3.989879E+03 -3.056570E+04  9.680800E+04
       158  21  2.697923E+05  1.915816E+06  2.763571E+05  4.810923E+04 -8.816620E+03  1.578490E+05
       158  22  6.702107E+03  1.394983E+06  4.459782E+04 -4.220618E+04 -4.067480E+04  2.782138E+04
       158  23  3.526673E+04  1.382555E+06  7.772299E+04 -3.778197E+04 -3.052361E+04  6.784405E+04
       158  24  1.422215E+05  1.394905E+06  1.564548E+05 -4.198139E+04 -8.747252E+03  1.078891E+05
       158  25 -1.321529E+05  8.008426E+05 -5.614084E+04 -3.566451E+04 -4.066484E+04  1.986158E+04
       158  26 -9.614304E+04  8.269738E+05 -2.533312E+04 -7.951544E+04 -3.047761E+04  3.890528E+04
       158  27  1.466375E+04  8.742671E+05  3.654827E+04 -1.319959E+05 -8.663398E+03  5.797061E+04
       159   1 -5.240734E+04 -1.147709E+05 -5.646606E+04  1.091478E+04  1.574794E+05  1.478926E+04
       159   2  3.597220E+04 -3.215083E+05 -1.645842E+05 -4.227469E+03  1.125800E+05  4.374473E+04
       159   3  1.939760E+05 -2.791202E+05 -1.808881E+05 -9.580893E+04  6.772926E+04  4.099662E+04
       159   4  1.275714E+06  2.154916E+05  2.696141E+05 -6.484344E+04  1.846911E+05  1.482336E+04
       159   5  1.239425E+06 -2.432838E+04  1.190306E+05 -2.642768E+04  1.206493E+05  4.374668E+04
       159   6  1.275914E+06 -1.197504E+04  7.339912E+04 -6.443465E+04  5.666715E+04  4.098588E+04
       159   7  2.605453E+06  5.456459E+05  5.955709E+05 -1.407647E+05  2.119605E+05  1.485081E+04
       159   8  2.444209E+06  2.727502E+05  4.025463E+05 -4.867161E+04  1.287339E+05  4.374806E+04
       159   9  2.358931E+06  2.550905E+05  3.276071E+05 -3.300556E+04  4.558581E+04  4.097404E+04
       159  10 -5.243403E+04 -1.147778E+05 -5.651307E+04  1.091290E+04  3.269983E-10  2.527989E-10
       159  11  3.595807E+04 -3.215138E+05 -1.646116E+05 -4.231436E+03  8.411763E-10  2.899005E-10
       159  12  1.939706E+05 -2.791233E+05 -1.808999E+05 -9.581117E+04  6.395095E-10 -3.074655E-10
       159  13  1.275677E+06  2.154823E+05  2.695497E+05 -6.484565E+04  8.078501E-12  1.555352E-10
       159  14  1.239408E+06 -2.433433E+04  1.189997E+05 -2.643192E+04 -9.488852E-10  2.185662E-10
       159  15  1.275910E+06 -1.197771E+04  7.338994E+04 -6.443652E+04 -5.905614E-10 -3.990882E-10
       159  16  2.605405E+06  5.456337E+05  5.954864E+05 -1.407672E+05  5.651498E-10  1.890036E-10
       159  17  2.444191E+06  2.727437E+05  4.025116E+05 -4.867614E+04  1.090158E-10  2.001633E-10
       159  18  2.358928E+06  2.550882E+05  3.276000E+05 -3.300706E+04 -9.855948E-10 -5.399693E-10
       159  19 -5.240734E+04 -1.147709E+05 -5.646606E+04  1.091478E+04 -1.574794E+05 -1.478926E+04
       159  20  3.597220E+04 -3.215083E+05 -1.645842E+05 -4.227469E+03 -1.125800E+05 -4.374473E+04
       159  21  1.939760E+05 -2.791202E+05 -1.808881E+05 -9.580893E+04 -6.772926E+04 -4.099662E+04
       159  22  1.275714E+06  2.154916E+05  2.696141E+05 -6.484344E+04 -1.846911E+05 -1.482336E+04
       159  23  1.239425E+06 -2.432838E+04  1.190306E+05 -2.642768E+04 -1.206493E+05 -4.374668E+04
       159  24  1.275914E+06 -1.197504E+04  7.339912E+04 -6.443465E+04 -5.666715E+04 -4.098588E+04
       159  25  2.605453E+06  5.456459E+05  5.955709E+05 -1.407647E+05 -2.119605E+05 -1.485081E+04
       159  26  2.444209E+06  2.727502E+05  4.025463E+05 -4.867161E+04 -1.287339E+05 -4.374806E+04
       159  27  2.358931E+06  2.550905E+05  3.276071E+05 -3.300556E+04 -4.558581E+04 -4.097404E+04
       160   1  3.148166E+05 -2.145282E+05 -1.638430E+05 -5.835606E+04  4.683370E+04  3.365588E+04
       160   2  4.292611E+05 -2.069738E+05 -1.641702E+05 -2.548354E+04  3.227140E+04  3.042472E+04
       160   3  5.519675E+05 -1.763731E+05 -1.491297E+05 -6.698100E+04  1.770000E+04  2.533508E+04
       160   4  1.261657E+06  1.934770E+04  5.952548E+04 -6.409510E+04  4.550260E+04  3.365125E+04
       160   5  1.257473E+06 -2.483669E+03  3.081089E+04 -2.690989E+04  2.980283E+04  3.042153E+04
       160   6  1.261722E+06 -1.088904E+03  1.823564E+04 -6.408768E+04  1.409672E+04  2.533427E+04
       160   7  2.209321E+06  2.531597E+05  2.828322E+05 -6.984300E+04  4.416945E+04  3.364665E+04
       160   8  2.086315E+06  2.019576E+05  2.257448E+05 -2.833816E+04  2.733098E+04  3.041835E+04
       160   9  1.971940E+06  1.741594E+05  1.855663E+05 -6.119099E+04  1.048933E+04  2.533344E+04
       160  10  3.148139E+05 -2.145300E+05 -1.638493E+05 -5.835733E+04 -3.853533E-10 -5.340720E-10
       160  11  4.292597E+05 -2.069751E+05 -1.641739E+05 -2.548433E+04  3.869859E-10 -1.502981E-11
       160  12  5.519670E+05 -1.763739E+05 -1.491315E+05 -6.698136E+04  1.391963E-09  1.328377E-10
       160  13  1.261654E+06  1.934593E+04  5.951947E+04 -6.409633E+04 -1.661114E-09 -5.663873E-10
       160  14  1.257472E+06 -2.484901E+03  3.080748E+04 -2.691062E+04 -4.236231E-10  6.067826E-12
       160  15  1.261722E+06 -1.089647E+03  1.823406E+04 -6.408797E+04 -1.476180E-10 -1.691704E-10
       160  16  2.209318E+06  2.531580E+05  2.828264E+05 -6.984420E+04  3.778398E-10 -4.133165E-10
       160  17  2.086314E+06  2.019564E+05  2.257417E+05 -2.833883E+04 -1.276406E-09 -1.864359E-11
       160  18  1.971940E+06  1.741587E+05  1.855649E+05 -6.119120E+04 -1.941565E-10 -1.760947E-10
       160  19  3.148166E+05 -2.145282E+05 -1.638430E+05 -5.835606E+04 -4.683370E+04 -3.365588E+04
       160  20  4.292611E+05 -2.069738E+05 -1.641702E+05 -2.548354E+04 -3.227140E+04 -3.042472E+04
       160  21  5.519675E+05 -1.763731E+05 -1.491297E+05 -6.698100E+04 -1.770000E+04 -2.533508E+04
       160  22  1.261657E+06  1.934770E+04  5.952548E+04 -6.409510E+04 -4.550260E+04 -3.365125E+04
       160  23  1.257473E+06 -2.483669E+03  3.081089E+04 -2.690989E+04 -2.980283E+04 -3.042153E+04
       160  24  1.261722E+06 -1.088904E+03  1.823564E+04 -6.408768E+04 -1.409672E+04 -2.533427E+04
       160  25  2.209321E+06  2.531597E+05  2.828322E+05 -6.984300E+04 -4.416945E+04 -3.364665E+04
       160  26  2.086315E+06  2.019576E+05  2.257448E+05 -2.833816E+04 -2.733098E+04 -3.041835E+04
       160  27  1.971940E+06  1.741594E+05  1.855663E+05 -6.119099E+04 -1.048933E+04 -2.533344E+04
       161   1  6.815697E+05 -1.410760E+05 -1.216847E+05 -6.323012E+04  1.423229E+04  2.205141E+04
       161   2  7.969616E+05 -1.144520E+05 -1.009611E+05 -2.714132E+04  1.032712E+04  1.700329E+04
       161   3  9.134822E+05 -8.562835E+04 -7.713565E+04 -6.381098E+04  6.416896E+03  1.187075E+04
       161   4  1.260141E+06  1.691730E+03  1.418847E+04 -6.373147E+04  1.123166E+04  2.205146E+04
       161   5  1.259592E+06 -2.527622E+02  7.921813E+03 -2.735446E+04  7.272176E+03  1.700453E+04
       161   6  1.260170E+06  1.192744E+01  4.793267E+03 -6.373253E+04  3.308355E+03  1.187326E+04
       161   7  1.839020E+06  1.444356E+05  1.500388E+05 -6.423323E+04  8.228239E+03  2.205151E+04
       161   8  1.722419E+06  1.139312E+05  1.167900E+05 -2.756772E+04  4.214965E+03  1.700577E+04
       161   9  1.606967E+06  8.564362E+04  8.671390E+04 -6.365400E+04  1.980895E+02  1.187576E+04
       161  10  6.815694E+05 -1.410766E+05 -1.216860E+05 -6.323038E+04  2.864940E-10  4.541075E-11
       161  11  7.969614E+05 -1.144524E+05 -1.009618E+05 -2.714146E+04  1.177278E-09 -1.955654E-12
       161  12  9.134822E+05 -8.562851E+04 -7.713599E+04 -6.381104E+04  1.372402E-09  1.754665E-10
       161  13  1.260141E+06  1.691174E+03  1.418731E+04 -6.373167E+04 -1.089114E-09 -8.651307E-11
       161  14  1.259592E+06 -2.530871E+02  7.921170E+03 -2.735456E+04  1.506768E-09 -5.772830E-11
       161  15  1.260170E+06  1.177303E+01  4.792982E+03 -6.373256E+04 -7.828754E-11  7.208794E-11
       161  16  1.839020E+06  1.444351E+05  1.500377E+05 -6.423337E+04 -8.585141E-10 -1.056060E-10
       161  17  1.722419E+06  1.139309E+05  1.167894E+05 -2.756778E+04 -8.667071E-10  5.963497E-11
       161  18  1.606967E+06  8.564347E+04  8.671364E+04 -6.365401E+04  1.097572E-11 -9.373719E-11
       161  19  6.815697E+05 -1.410760E+05 -1.216847E+05 -6.323012E+04 -1.423229E+04 -2.205141E+04
       161  20  7.969616E+05 -1.144520E+05 -1.009611E+05 -2.714132E+04 -1.032712E+04 -1.700329E+04
       161  21  9.134822E+05 -8.562835E+04 -7.713565E+04 -6.381098E+04 -6.416896E+03 -1.187075E+04
       161  22  1.260141E+06  1.691730E+03  1.418847E+04 -6.373147E+04 -1.123166E+04 -2.205146E+04
       161  23  1.259592E+06 -2.527622E+02  7.921813E+03 -2.735446E+04 -7.272176E+03 -1.700453E+04
       161  24  1.260170E+06  1.192744E+01  4.793267E+03 -6.373253E+04 -3.308355E+03 -1.187326E+04
       161  25  1.839020E+06  1.444356E+05  1.500388E+05 -6.423323E+04 -8.228239E+03 -2.205151E+04
       161  26  1.722419E+06  1.139312E+05  1.167900E+05 -2.756772E+04 -4.214965E+03 -1.700577E+04
       161  27  1.606967E+06  8.564362E+04  8.671390E+04 -6.365400E+04 -1.980895E+02 -1.187576E+04
       162   1  1.042373E+06 -5.339620E+04 -4.704809E+04 -6.344201E+04  5.596038E+03  8.875916E+03
       162   2  1.157156E+06 -2.534054E+04 -2.159538E+04 -2.749716E+04  4.310886E+03  3.773600E+03
       162   3  1.272035E+06  3.043294E+03  4.736899E+03 -6.359685E+04  3.024514E+03 -1.328472E+03
       162   4  1.259957E+06  2.369076E+02  3.809263E+03 -6.357406E+04  2.530281E+03  8.878862E+03
       162   5  1.259919E+06  2.061951E+01  2.585022E+03 -2.755224E+04  1.244625E+03  3.776785E+03
       162   6  1.259963E+06  1.329412E+02  2.240650E+03 -6.357420E+04 -4.201575E+01 -1.324998E+03
       162   7  1.477584E+06  5.386667E+04  5.466343E+04 -6.370615E+04 -5.365424E+02  8.881809E+03
       162   8  1.362691E+06  2.538103E+04  2.676473E+04 -2.760732E+04 -1.822139E+03  3.779971E+03
       162   9  1.247890E+06 -2.777416E+03 -2.555711E+02 -6.355156E+04 -3.108487E+03 -1.321525E+03
       162  10  1.042373E+06 -5.339629E+04 -4.704830E+04 -6.344205E+04  8.723685E-11  2.508912E-10
       162  11  1.157156E+06 -2.534056E+04 -2.159544E+04 -2.749717E+04  8.100549E-10 -2.030226E-11
       162  12  1.272035E+06  3.043290E+03  4.736879E+03 -6.359685E+04  3.752093E-10 -8.883525E-11
       162  13  1.259957E+06  2.368211E+02  3.809102E+03 -6.357408E+04 -4.648417E-10  1.752630E-10
       162  14  1.259919E+06  2.060377E+01  2.584992E+03 -2.755224E+04  7.246329E-10  5.991209E-10
       162  15  1.259963E+06  1.329393E+02  2.240647E+03 -6.357420E+04  3.637102E-11 -1.859504E-10
       162  16  1.477584E+06  5.386658E+04  5.466328E+04 -6.370614E+04 -9.461186E-11  1.207589E-10
       162  17  1.362691E+06  2.538101E+04  2.676470E+04 -2.760731E+04 -6.692545E-10  6.213871E-10
       162  18  1.247890E+06 -2.777421E+03 -2.555925E+02 -6.355156E+04 -1.295624E-09 -5.943070E-10
       162  19  1.042373E+06 -5.339620E+04 -4.704809E+04 -6.344201E+04 -5.596038E+03 -8.875916E+03
       162  20  1.157156E+06 -2.534054E+04 -2.159538E+04 -2.749716E+04 -4.310886E+03 -3.773600E+03
       162  21  1.272035E+06  3.043294E+03  4.736899E+03 -6.359685E+04 -3.024514E+03  1.328472E+03
       162  22  1.259957E+06  2.369076E+02  3.809263E+03 -6.357406E+04 -2.530281E+03 -8.878862E+03
       162  23  1.259919E+06  2.061951E+01  2.585022E+03 -2.755224E+04 -1.244625E+03 -3.776785E+03
       162  24  1.259963E+06  1.329412E+02  2.240650E+03 -6.357420E+04  4.201575E+01  1.324998E+03
       162  25  1.477584E+06  5.386667E+04  5.466343E+04 -6.370615E+04  5.365424E+02 -8.881809E+03
       162  26  1.362691E+06  2.538103E+04  2.676473E+04 -2.760732E+04  1.822139E+03 -3.779971E+03
       162  27  1.247890E+06 -2.777416E+03 -2.555711E+02 -6.355156E+04  3.108487E+03  1.321525E+03
       163   1  1.400727E+06  3.493009E+04  3.578449E+04 -6.370093E+04  2.609325E+03 -4.298573E+03
       163   2  1.515801E+06  6.314120E+04  6.324279E+04 -2.763258E+04  1.103252E+03 -9.408415E+03
       163   3  1.631069E+06  9.172423E+04  9.174631E+04 -6.380094E+04 -4.006881E+02 -1.452806E+04
       163   4  1.259980E+06  1.310963E+02  2.327978E+03 -6.361748E+04 -4.599073E+02 -4.295229E+03
       163   5  1.259881E+06 -4.418413E+00  3.037144E+03 -2.749813E+04 -1.971607E+03 -9.405746E+03
       163   6  1.259965E+06  2.339818E+02  4.796506E+03 -6.361733E+04 -3.480899E+03 -1.452602E+04
       163   7  1.119251E+06 -3.466931E+04 -3.112988E+04 -6.353404E+04 -3.528449E+03 -4.291884E+03
       163   8  1.004022E+06 -6.315469E+04 -5.717296E+04 -2.736372E+04 -5.045208E+03 -9.403077E+03
       163   9  8.889887E+05 -9.126603E+04 -8.216265E+04 -6.343379E+04 -6.559284E+03 -1.452398E+04
       163  10  1.400727E+06  3.493007E+04  3.578445E+04 -6.370092E+04 -8.586466E-10 -3.026295E-10
       163  11  1.515801E+06  6.314110E+04  6.324262E+04 -2.763257E+04 -3.709198E-10 -3.445562E-10
       163  12  1.631069E+06  9.172400E+04  9.174591E+04 -6.380095E+04 -7.774855E-10  8.600904E-10
       163  13  1.259980E+06  1.310764E+02  2.327943E+03 -6.361748E+04 -6.697160E-10 -3.412222E-10
       163  14  1.259881E+06 -4.514510E+00  3.036971E+03 -2.749815E+04  7.142590E-10  9.409816E-11
       163  15  1.259965E+06  2.337518E+02  4.796086E+03 -6.361737E+04  3.665201E-12  4.678918E-10
       163  16  1.119251E+06 -3.466934E+04 -3.112994E+04 -6.353405E+04 -2.436751E-10 -7.586446E-10
       163  17  1.004022E+06 -6.315479E+04 -5.717317E+04 -2.736376E+04 -5.750208E-10  3.423077E-10
       163  18  8.889886E+05 -9.126627E+04 -8.216313E+04 -6.343387E+04  1.985139E-10 -2.791116E-10
       163  19  1.400727E+06  3.493009E+04  3.578449E+04 -6.370093E+04 -2.609325E+03  4.298573E+03
       163  20  1.515801E+06  6.314120E+04  6.324279E+04 -2.763258E+04 -1.103252E+03  9.408415E+03
       163  21  1.631069E+06  9.172423E+04  9.174631E+04 -6.380094E+04  4.006881E+02  1.452806E+04
       163  22  1.259980E+06  1.310963E+02  2.327978E+03 -6.361748E+04  4.599073E+02  4.295229E+03
       163  23  1.259881E+06 -4.418413E+00  3.037144E+03 -2.749813E+04  1.971607E+03  9.405746E+03
       163  24  1.259965E+06  2.339818E+02  4.796506E+03 -6.361733E+04  3.480899E+03  1.452602E+04
       163  25  1.119251E+06 -3.466931E+04 -3.112988E+04 -6.353404E+04  3.528449E+03  4.291884E+03
       163  26  1.004022E+06 -6.315469E+04 -5.717296E+04 -2.736372E+04  5.045208E+03  9.403077E+03
       163  27  8.889887E+05 -9.126603E+04 -8.216265E+04 -6.343379E+04  6.559284E+03  1.452398E+04
       164   1  1.761248E+06  1.236054E+05  1.243223E+05 -6.370733E+04 -1.336267E+03 -1.753992E+04
       164   2  1.877398E+06  1.520649E+05  1.556507E+05 -2.733008E+04 -6.546744E+03 -2.270601E+04
       164   3  1.995193E+06  1.833753E+05  1.911243E+05 -6.430462E+04 -1.175224E+04 -2.778516E+04
       164   4  1.260256E+06 -5.853079E+01  6.139828E+03 -6.386600E+04 -4.468362E+03 -1.753859E+04
       164   5  1.259424E+06 -3.808864E+02  1.030217E+04 -2.718757E+04 -9.622176E+03 -2.270635E+04
       164   6  1.260218E+06  2.141088E+03  1.857488E+04 -6.386538E+04 -1.477005E+04 -2.778707E+04
       164   7  7.594949E+05 -1.237404E+05 -1.120599E+05 -6.402448E+04 -7.597948E+03 -1.753727E+04
       164   8  6.418005E+05 -1.528539E+05 -1.350725E+05 -2.704516E+04 -1.269457E+04 -2.270668E+04
       164   9  5.257394E+05 -1.791315E+05 -1.540115E+05 -6.342664E+04 -1.778430E+04 -2.778898E+04
       164  10  1.761248E+06  1.236051E+05  1.243217E+05 -6.370735E+04  2.011421E-11  4.624374E-10
       164  11  1.877398E+06  1.520643E+05  1.556496E+05 -2.733020E+04  2.613520E-10 -4.481249E-10
       164  12  1.995192E+06  1.833744E+05  1.911226E+05 -6.430488E+04  2.258388E-10 -2.932700E-10
       164  13  1.260256E+06 -5.886666E+01  6.139212E+03 -6.386606E+04  6.018790E-10 -2.585258E-11
       164  14  1.259424E+06 -3.814652E+02  1.030103E+04 -2.718774E+04 -6.157288E-10 -3.593965E-10
       164  15  1.260218E+06  2.140200E+03  1.857302E+04 -6.386571E+04  1.197033E-09 -9.856033E-11
       164  16  7.594947E+05 -1.237407E+05 -1.120606E+05 -6.402459E+04 -9.985373E-10 -3.329471E-10
       164  17  6.418002E+05 -1.528545E+05 -1.350738E+05 -2.704539E+04 -2.058040E-09 -9.231314E-12
       164  18  5.257388E+05 -1.791324E+05 -1.540135E+05 -6.342703E+04 -2.119690E-11 -5.942976E-11
       164  19  1.761248E+06  1.236054E+05  1.243223E+05 -6.370733E+04  1.336267E+03  1.753992E+04
       164  20  1.877398E+06  1.520649E+05  1.556507E+05 -2.733008E+04  6.546744E+03  2.270601E+04
       164  21  1.995193E+06  1.833753E+05  1.911243E+05 -6.430462E+04  1.175224E+04  2.778516E+04
       164  22  1.260256E+06 -5.853079E+01  6.139828E+03 -6.386600E+04  4.468362E+03  1.753859E+04
       164  23  1.259424E+06 -3.808864E+02  1.030217E+04 -2.718757E+04  9.622176E+03  2.270635E+04
       164  24  1.260218E+06  2.141088E+03  1.857488E+04 -6.386538E+04  1.477005E+04  2.778707E+04
       164  25  7.594949E+05 -1.237404E+05 -1.120599E+05 -6.402448E+04  7.597948E+03  1.753727E+04
       164  26  6.418005E+05 -1.528539E+05 -1.350725E+05 -2.704516E+04  1.269457E+04  2.270668E+04
       164  27  5.257394E+05 -1.791315E+05 -1.540115E+05 -6.342664E+04  1.778430E+04  2.778898E+04
       165   1  2.130031E+06  2.125768E+05  2.282536E+05 -6.020819E+04 -1.482529E+04 -3.113205E+04
       165   2  2.244613E+06  2.403629E+05  2.727491E+05 -2.815431E+04 -3.670121E+04 -3.627552E+04
       165   3  2.370607E+06  2.987760E+05  3.392957E+05 -7.144250E+04 -5.857522E+04 -3.934746E+04
       165   4  1.262292E+06 -1.510281E+03  2.389836E+04 -6.430185E+04 -1.852141E+04 -3.113536E+04
       165   5  1.256654E+06 -3.300670E+03  4.041691E+04 -2.663982E+04 -3.912174E+04 -3.628111E+04
       165   6  1.262211E+06  2.534337E+04  7.812855E+04 -6.432617E+04 -5.971595E+04 -3.935420E+04
       165   7  3.952425E+05 -2.156510E+05 -1.805086E+05 -6.838977E+04 -2.221240E+04 -3.113862E+04
       165   8  2.695890E+05 -2.470337E+05 -1.919822E+05 -2.512789E+04 -4.153841E+04 -3.628672E+04
       165   9  1.549407E+05 -2.481767E+05 -1.831232E+05 -5.722284E+04 -6.085459E+04 -3.936097E+04
       165  10  2.130031E+06  2.125757E+05  2.282514E+05 -6.020857E+04 -1.601831E-10 -1.374102E-10
       165  11  2.244612E+06  2.403611E+05  2.727441E+05 -2.815538E+04 -1.157643E-09  1.782132E-10
       165  12  2.370603E+06  2.987735E+05  3.392864E+05 -7.144436E+04 -1.370853E-09  8.316461E-10
       165  13  1.262291E+06 -1.511415E+03  2.389589E+04 -6.430232E+04  9.816882E-10 -2.899334E-10
       165  14  1.256652E+06 -3.302494E+03  4.041156E+04 -2.664097E+04 -1.293712E-10 -1.190894E-10
       165  15  1.262207E+06  2.534075E+04  7.811895E+04 -6.432807E+04 -6.690453E-10  4.263365E-10
       165  16  3.952417E+05 -2.156521E+05 -1.805114E+05 -6.839032E+04 -1.908082E-12 -2.944476E-10
       165  17  2.695868E+05 -2.470356E+05 -1.919879E+05 -2.512910E+04  3.296297E-10 -6.581079E-10
       165  18  1.549363E+05 -2.481793E+05 -1.831330E+05 -5.722477E+04  5.814126E-10  5.568134E-10
       165  19  2.130031E+06  2.125768E+05  2.282536E+05 -6.020819E+04  1.482529E+04  3.113205E+04
       165  20  2.244613E+06  2.403629E+05  2.727491E+05 -2.815431E+04  3.670121E+04  3.627552E+04
       165  21  2.370607E+06  2.987760E+05  3.392957E+05 -7.144250E+04  5.857522E+04  3.934746E+04
       165  22  1.262292E+06 -1.510281E+03  2.389836E+04 -6.430185E+04  1.852141E+04  3.113536E+04
       165  23  1.256654E+06 -3.300670E+03  4.041691E+04 -2.663982E+04  3.912174E+04  3.628111E+04
       165  24  1.262211E+06  2.534337E+04  7.812855E+04 -6.432617E+04  5.971595E+04  3.935420E+04
       165  25  3.952425E+05 -2.156510E+05 -1.805086E+05 -6.838977E+04  2.221240E+04  3.113862E+04
       165  26  2.695890E+05 -2.470337E+05 -1.919822E+05 -2.512789E+04  4.153841E+04  3.628672E+04
       165  27  1.549407E+05 -2.481767E+05 -1.831232E+05 -5.722284E+04  6.085459E+04  3.936097E+04
       166   1  2.526727E+06  2.914759E+05  3.887165E+05 -2.294874E+04 -6.230694E+04 -4.724060E+04
       166   2  2.602875E+06  3.057458E+05  4.785737E+05 -5.476749E+04 -1.677897E+05 -4.988932E+04
       166   3  2.778100E+06  6.543218E+05  7.208751E+05 -1.646078E+05 -2.733934E+05 -1.707906E+04
       166   4  1.280911E+06 -1.577575E+04  9.633926E+04 -6.468735E+04 -7.436661E+04 -4.726065E+04
       166   5  1.233012E+06 -3.194099E+04  1.562602E+05 -2.606250E+04 -1.583502E+05 -4.988433E+04
       166   6  1.280663E+06  2.828549E+05  3.539445E+05 -6.544961E+04 -2.424297E+05 -1.703827E+04
       166   7  3.652250E+04 -3.231312E+05 -1.961427E+05 -1.063424E+05 -8.640219E+04 -4.727910E+04
       166   8 -1.351273E+05 -3.697580E+05 -1.661814E+05  2.578118E+03 -1.489311E+05 -4.987847E+04
       166   9 -2.147150E+05 -8.873947E+04 -1.314112E+04  3.346859E+04 -2.115397E+05 -1.698762E+04
       166  10  2.526723E+06  2.914725E+05  3.887050E+05 -2.295110E+04  1.556037E-09  1.286628E-09
       166  11  2.602844E+06  3.057356E+05  4.785164E+05 -5.477422E+04 -2.983287E-10  1.331318E-10
       166  12  2.778020E+06  6.543016E+05  7.207347E+05 -1.646116E+05 -1.206980E-09 -5.067756E-10
       166  13  1.280905E+06 -1.577963E+04  9.632469E+04 -6.469018E+04 -1.078937E-09  8.082189E-10
       166  14  1.232985E+06 -3.195038E+04  1.562085E+05 -2.606885E+04 -3.927714E-10 -3.070788E-10
       166  15  1.280600E+06  2.828388E+05  3.538337E+05 -6.545293E+04  7.709164E-10 -2.336934E-11
       166  16  3.651388E+04 -3.231356E+05 -1.961609E+05 -1.063457E+05 -7.776281E-12  7.957055E-10
       166  17 -1.351518E+05 -3.697666E+05 -1.662278E+05  2.572133E+03  6.602144E-10  8.357325E-10
       166  18 -2.147632E+05 -8.875180E+04 -1.322578E+04  3.346569E+04  5.833350E-10 -7.695082E-11
       166  19  2.526727E+06  2.914759E+05  3.887165E+05 -2.294874E+04  6.230694E+04  4.724060E+04
       166  20  2.602875E+06  3.057458E+05  4.785737E+05 -5.476749E+04  1.677897E+05  4.988932E+04
       166  21  2.778100E+06  6.543218E+05  7.208751E+05 -1.646078E+05  2.733934E+05  1.707906E+04
       166  22  1.280911E+06 -1.577575E+04  9.633926E+04 -6.468735E+04  7.436661E+04  4.726065E+04
       166  23  1.233012E+06 -3.194099E+04  1.562602E+05 -2.606250E+04  1.583502E+05  4.988433E+04
       166  24  1.280663E+06  2.828549E+05  3.539445E+05 -6.544961E+04  2.424297E+05  1.703827E+04
       166  25  3.652250E+04 -3.231312E+05 -1.961427E+05 -1.063424E+05  8.640219E+04  4.727910E+04
       166  26 -1.351273E+05 -3.697580E+05 -1.661814E+05  2.578118E+03  1.489311E+05  4.987847E+04
       166  27 -2.147150E+05 -8.873947E+04 -1.314112E+04  3.346859E+04  2.115397E+05  1.698762E+04
       167   1  8.287660E+04  4.190036E+05  9.730890E+04 -6.849528E+04  3.738877E+02  5.110419E+04
       167   2 -4.749841E+03  3.239286E+05  3.503102E+04 -2.680201E+04  1.150619E+02  3.130722E+04
       167   3 -2.214365E+04  2.486727E+05  3.127702E+03 -3.837854E+04 -3.290147E+03  1.150518E+04
       167   4  5.971401E+04  3.266831E+05  7.440899E+04 -4.685140E+04  3.775222E+02  5.034237E+04
       167   5 -6.520093E+03  3.169430E+05  3.335237E+04 -2.029275E+04  1.126481E+02  3.243629E+04
       167   6 -2.847752E+03  3.266923E+05  2.136227E+04 -4.700184E+04 -3.297677E+03  1.452248E+04
       167   7  3.655253E+04  2.343713E+05  5.150869E+04 -2.521074E+04  3.811040E+02  4.958067E+04
       167   8 -8.290189E+03  3.099576E+05  3.167375E+04 -1.378357E+04  1.102580E+02  3.356535E+04
       167   9  1.644799E+04  4.047176E+05  3.959650E+04 -5.562623E+04 -3.305291E+03  1.754015E+04
       167  10  8.287590E+04  4.190008E+05  9.730400E+04 -6.849530E+04  2.179276E-10  8.586984E-10
       167  11 -4.750104E+03  3.239275E+05  3.502918E+04 -2.680201E+04 -4.317484E-11 -3.283810E-10
       167  12 -2.214369E+04  2.486725E+05  3.127433E+03 -3.837851E+04 -5.892482E-10 -1.709658E-09
       167  13  5.971333E+04  3.266804E+05  7.440423E+04 -4.685142E+04  1.676161E-09 -5.205290E-11
       167  14 -6.520375E+03  3.169419E+05  3.335039E+04 -2.029275E+04  3.690055E-10  7.383528E-13
       167  15 -2.847820E+03  3.266920E+05  2.136185E+04 -4.700180E+04 -2.899866E-10 -6.702735E-11
       167  16  3.655187E+04  2.343687E+05  5.150407E+04 -2.521076E+04  4.912829E-10 -8.235149E-10
       167  17 -8.290492E+03  3.099564E+05  3.167163E+04 -1.378357E+04  2.775913E-09  3.148306E-10
       167  18  1.644790E+04  4.047173E+05  3.959590E+04 -5.562619E+04 -5.358410E-10  1.821687E-09
       167  19  8.287660E+04  4.190036E+05  9.730890E+04 -6.849528E+04 -3.738877E+02 -5.110419E+04
       167  20 -4.749841E+03  3.239286E+05  3.503102E+04 -2.680201E+04 -1.150619E+02 -3.130722E+04
       167  21 -2.214365E+04  2.486727E+05  3.127702E+03 -3.837854E+04  3.290147E+03 -1.150518E+04
       167  22  5.971401E+04  3.266831E+05  7.440899E+04 -4.685140E+04 -3.775222E+02 -5.034237E+04
       167  23 -6.520093E+03  3.169430E+05  3.335237E+04 -2.029275E+04 -1.126481E+02 -3.243629E+04
       167  24 -2.847752E+03  3.266923E+05  2.136227E+04 -4.700184E+04  3.297677E+03 -1.452248E+04
       167  25  3.655253E+04  2.343713E+05  5.150869E+04 -2.521074E+04 -3.811040E+02 -4.958067E+04
       167  26 -8.290189E+03  3.099576E+05  3.167375E+04 -1.378357E+04 -1.102580E+02 -3.356535E+04
       167  27  1.644799E+04  4.047176E+05  3.959650E+04 -5.562623E+04  3.305291E+03 -1.754015E+04
       168   1 -3.741029E+04  1.492158E+05 -2.314056E+04 -4.867124E+04 -6.033371E+03  8.888768E+03
       168   2 -6.478052E+04  6.257350E+04 -4.985898E+04 -2.009625E+04 -9.526918E+03  3.616612E+03
       168   3 -8.344324E+04 -2.144189E+04 -7.102340E+04 -4.504764E+04 -1.231047E+04 -1.651632E+03
       168   4  5.531919E+03  3.229516E+05  1.793159E+04 -4.700663E+04 -6.038834E+03  1.120843E+04
       168   5 -7.809254E+02  3.216001E+05  1.116600E+04 -2.024881E+04 -9.530931E+03  5.508640E+03
       168   6  1.686729E+03  3.229423E+05  1.025082E+04 -4.701576E+04 -1.231316E+04 -1.879472E+02
       168   7  4.847198E+04  4.967152E+05  5.900166E+04 -4.534153E+04 -6.044283E+03  1.352874E+04
       168   8  6.321388E+04  5.806884E+05  7.218638E+04 -2.040140E+04 -9.534945E+03  7.401453E+03
       168   9  8.680823E+04  6.674356E+05  9.151687E+04 -4.898490E+04 -1.231586E+04  1.276545E+03
       168  10 -3.741035E+04  1.492157E+05 -2.314078E+04 -4.867119E+04 -1.371386E-09  3.512613E-10
       168  11 -6.478062E+04  6.257346E+04 -4.985918E+04 -2.009622E+04  4.510930E-10 -1.073035E-10
       168  12 -8.344340E+04 -2.144193E+04 -7.102369E+04 -4.504766E+04 -4.244666E-10 -7.443677E-10
       168  13  5.531846E+03  3.229515E+05  1.793128E+04 -4.700657E+04 -1.325743E-09  4.028248E-11
       168  14 -7.810311E+02  3.216000E+05  1.116577E+04 -2.024877E+04 -2.339308E-10  1.373804E-10
       168  15  1.686566E+03  3.229423E+05  1.025054E+04 -4.701576E+04 -5.813145E-10  1.001063E-10
       168  16  4.847189E+04  4.967150E+05  5.900125E+04 -4.534147E+04 -1.098595E-09 -2.956302E-10
       168  17  6.321377E+04  5.806883E+05  7.218610E+04 -2.040135E+04 -1.641276E-09  2.176420E-10
       168  18  8.680806E+04  6.674355E+05  9.151658E+04 -4.898489E+04 -1.289629E-10  7.885736E-10
       168  19 -3.741029E+04  1.492158E+05 -2.314056E+04 -4.867124E+04  6.033371E+03 -8.888768E+03
       168  20 -6.478052E+04  6.257350E+04 -4.985898E+04 -2.009625E+04  9.526918E+03 -3.616612E+03
       168  21 -8.344324E+04 -2.144189E+04 -7.102340E+04 -4.504764E+04  1.231047E+04  1.651632E+03
       168  22  5.531919E+03  3.229516E+05  1.793159E+04 -4.700663E+04  6.038834E+03 -1.120843E+04
       168  23 -7.809254E+02  3.216001E+05  1.116600E+04 -2.024881E+04  9.530931E+03 -5.508640E+03
       168  24  1.686729E+03  3.229423E+05  1.025082E+04 -4.701576E+04  1.231316E+04  1.879472E+02
       168  25  4.847198E+04  4.967152E+05  5.900166E+04 -4.534153E+04  6.044283E+03 -1.352874E+04
       168  26  6.321388E+04  5.806884E+05  7.218638E+04 -2.040140E+04  9.534945E+03 -7.401453E+03
       168  27  8.680823E+04  6.674356E+05  9.151687E+04 -4.898490E+04  1.231586E+04 -1.276545E+03
       169   1 -1.092380E+05 -1.166056E+05 -9.327862E+04 -4.922871E+04 -1.652506E+04 -7.963169E+03
       169   2 -1.321758E+05 -2.051431E+05 -1.113376E+05 -1.741676E+04 -1.901701E+04 -5.665341E+03
       169   3 -1.325066E+05 -2.883250E+05 -1.252431E+05 -3.894356E+04 -6.471586E+03 -3.343839E+03
       169   4 -4.374325E+02  3.238597E+05  1.036271E+04 -4.698240E+04 -1.653655E+04 -1.961940E+03
       169   5 -2.272093E+03  3.203937E+05  1.261052E+04 -2.029838E+04 -1.901060E+04 -8.688202E+03
       169   6  2.005656E+04  3.238360E+05  2.527312E+04 -4.694967E+04 -6.452968E+03 -1.539041E+04
       169   7  1.083494E+05  7.645037E+05  1.139908E+05 -4.473439E+04 -1.654798E+04  4.043523E+03
       169   8  1.276119E+05  8.461844E+05  1.365396E+05 -2.318233E+04 -1.900418E+04 -1.171361E+04
       169   9  1.725922E+05  9.363385E+05  1.757624E+05 -5.496354E+04 -6.434048E+03 -2.744884E+04
       169  10 -1.092383E+05 -1.166058E+05 -9.327925E+04 -4.922881E+04 -2.168860E-10  3.123244E-10
       169  11 -1.321762E+05 -2.051432E+05 -1.113384E+05 -1.741685E+04  1.021308E-09  2.527770E-10
       169  12 -1.325067E+05 -2.883250E+05 -1.252432E+05 -3.894358E+04  4.716141E-10 -3.432532E-10
       169  13 -4.377273E+02  3.238597E+05  1.036219E+04 -4.698242E+04  4.852735E-10  3.897609E-11
       169  14 -2.272501E+03  3.203935E+05  1.260969E+04 -2.029851E+04  5.689228E-10 -1.586031E-11
       169  15  2.005645E+04  3.238358E+05  2.527260E+04 -4.694975E+04  2.505577E-10  2.824698E-11
       169  16  1.083491E+05  7.645036E+05  1.139903E+05 -4.473433E+04 -1.086863E-09 -1.791447E-10
       169  17  1.276115E+05  8.461842E+05  1.365387E+05 -2.318251E+04  8.301389E-10 -2.837261E-10
       169  18  1.725920E+05  9.363377E+05  1.757609E+05 -5.496368E+04  5.174588E-10  3.235348E-10
       169  19 -1.092380E+05 -1.166056E+05 -9.327862E+04 -4.922871E+04  1.652506E+04  7.963169E+03
       169  20 -1.321758E+05 -2.051431E+05 -1.113376E+05 -1.741676E+04  1.901701E+04  5.665341E+03
       169  21 -1.325066E+05 -2.883250E+05 -1.252431E+05 -3.894356E+04  6.471586E+03  3.343839E+03
       169  22 -4.374325E+02  3.238597E+05  1.036271E+04 -4.698240E+04  1.653655E+04  1.961940E+03
       169  23 -2.272093E+03  3.203937E+05  1.261052E+04 -2.029838E+04  1.901060E+04  8.688202E+03
       169  24  2.005656E+04  3.238360E+05  2.527312E+04 -4.694967E+04  6.452968E+03  1.539041E+04
       169  25  1.083494E+05  7.645037E+05  1.139908E+05 -4.473439E+04  1.654798E+04 -4.043523E+03
       169  26  1.276119E+05  8.461844E+05  1.365396E+05 -2.318233E+04  1.900418E+04  1.171361E+04
       169  27  1.725922E+05  9.363385E+05  1.757624E+05 -5.496354E+04  6.434048E+03  2.744884E+04
       170   1 -1.896518E+06 -7.041529E+05 -4.703522E+05 -6.616306E+05 -2.011085E+05 -6.702738E+04
       170   2 -1.834446E+06 -4.058863E+05 -2.837516E+05 -6.715098E+05 -1.311939E+05 -2.245605E+04
       170   3 -1.859427E+06 -3.830382E+05 -2.239241E+05 -6.370937E+05 -5.494633E+04  5.359399E+03
       170   4 -1.288287E+06 -4.013271E+05 -2.909393E+05 -4.211495E+05 -1.876196E+05 -6.196484E+04
       170   5 -1.230321E+06 -1.569049E+05 -1.223272E+05 -4.838921E+05 -1.270371E+05 -2.089584E+04
       170   6 -1.257460E+06 -1.859059E+05 -7.298475E+04 -5.023694E+05 -6.012627E+04  3.409206E+03
       170   7 -6.796857E+05 -9.839243E+04 -1.115626E+05 -1.804291E+05 -1.741162E+05 -5.689281E+04
       170   8 -6.258400E+05  9.211979E+04  3.906490E+04 -2.961018E+05 -1.228758E+05 -1.933356E+04
       170   9 -6.551381E+05  1.122981E+04  7.792732E+04 -3.675359E+05 -6.531172E+04  1.457550E+03
       170  10 -1.896563E+06 -7.041686E+05 -4.704370E+05 -6.616415E+05  1.293374E-11  2.909825E-12
       170  11 -1.834464E+06 -4.058915E+05 -2.837850E+05 -6.715122E+05 -2.940524E-10  2.020366E-10
       170  12 -1.859430E+06 -3.830391E+05 -2.239298E+05 -6.370934E+05  1.725031E-09  3.721141E-10
       170  13 -1.288325E+06 -4.013407E+05 -2.910129E+05 -4.211588E+05  7.090530E-11  1.704911E-10
       170  14 -1.230339E+06 -1.569097E+05 -1.223584E+05 -4.838942E+05  1.798548E-09  2.125393E-10
       170  15 -1.257463E+06 -1.859069E+05 -7.299157E+04 -5.023692E+05  1.161430E-09  4.933992E-10
       170  16 -6.797192E+05 -9.840406E+04 -1.116257E+05 -1.804371E+05 -6.326224E-10  1.977941E-10
       170  17 -6.258563E+05  9.211533E+04  3.903579E+04 -2.961037E+05 -9.889962E-10  5.780395E-10
       170  18 -6.551427E+05  1.122866E+04  7.791929E+04 -3.675359E+05  9.449905E-10  5.474973E-10
       170  19 -1.896518E+06 -7.041529E+05 -4.703522E+05 -6.616306E+05  2.011085E+05  6.702738E+04
       170  20 -1.834446E+06 -4.058863E+05 -2.837516E+05 -6.715098E+05  1.311939E+05  2.245605E+04
       170  21 -1.859427E+06 -3.830382E+05 -2.239241E+05 -6.370937E+05  5.494633E+04 -5.359399E+03
       170  22 -1.288287E+06 -4.013271E+05 -2.909393E+05 -4.211495E+05  1.876196E+05  6.196484E+04
       170  23 -1.230321E+06 -1.569049E+05 -1.223272E+05 -4.838921E+05  1.270371E+05  2.089584E+04
       170  24 -1.257460E+06 -1.859059E+05 -7.298475E+04 -5.023694E+05  6.012627E+04 -3.409206E+03
       170  25 -6.796857E+05 -9.839243E+04 -1.115626E+05 -1.804291E+05  1.741162E+05  5.689281E+04
       170  26 -6.258400E+05  9.211979E+04  3.906490E+04 -2.961018E+05  1.228758E+05  1.933356E+04
       170  27 -6.551381E+05  1.122981E+04  7.792732E+04 -3.675359E+05  6.531172E+04 -1.457550E+03
       171   1 -1.773919E+06 -4.192049E+05 -1.976251E+05 -6.365058E+05 -4.856626E+04  3.879534E+03
       171   2 -1.737892E+06 -3.662571E+05 -1.558695E+05 -6.159123E+05 -3.272679E+04  8.901713E+03
       171   3 -1.692146E+06 -3.592230E+05 -1.324506E+05 -6.130668E+05 -1.645550E+04  1.277490E+04
       171   4 -1.247702E+06 -2.149772E+05 -5.908073E+04 -4.861205E+05 -4.873128E+04  3.815476E+03
       171   5 -1.251136E+06 -1.816675E+05 -2.883613E+04 -4.811611E+05 -3.352328E+04  8.600799E+03
       171   6 -1.244720E+06 -1.941325E+05 -1.641447E+04 -4.939514E+05 -1.788467E+04  1.223689E+04
       171   7 -7.212168E+05 -1.072805E+04  7.943938E+04 -3.356184E+05 -4.889644E+04  3.751362E+03
       171   8 -7.641508E+05  2.938167E+03  9.817724E+04 -3.463139E+05 -3.432044E+04  8.299626E+03
       171   9 -7.970984E+05 -2.903077E+04  9.960531E+04 -3.747587E+05 -1.931496E+04  1.169848E+04
       171  10 -1.773921E+06 -4.192056E+05 -1.976296E+05 -6.365057E+05  1.789664E-09  2.266578E-10
       171  11 -1.737893E+06 -3.662575E+05 -1.558717E+05 -6.159121E+05  1.116352E-09 -3.185824E-10
       171  12 -1.692147E+06 -3.592232E+05 -1.324514E+05 -6.130666E+05 -8.499881E-11 -4.526124E-10
       171  13 -1.247704E+06 -2.149779E+05 -5.908523E+04 -4.861204E+05 -1.865324E-10  1.866117E-10
       171  14 -1.251138E+06 -1.816678E+05 -2.883839E+04 -4.811609E+05 -3.086776E-10 -2.421222E-10
       171  15 -1.244721E+06 -1.941327E+05 -1.641536E+04 -4.939512E+05 -7.282786E-10 -1.724104E-10
       171  16 -7.212194E+05 -1.072870E+04  7.943486E+04 -3.356183E+05  3.248862E-10  2.270911E-10
       171  17 -7.641521E+05  2.937776E+03  9.817490E+04 -3.463137E+05  3.058574E-10 -1.261601E-10
       171  18 -7.970989E+05 -2.903102E+04  9.960435E+04 -3.747585E+05 -6.029178E-10 -6.347617E-11
       171  19 -1.773919E+06 -4.192049E+05 -1.976251E+05 -6.365058E+05  4.856626E+04 -3.879534E+03
       171  20 -1.737892E+06 -3.662571E+05 -1.558695E+05 -6.159123E+05  3.272679E+04 -8.901713E+03
       171  21 -1.692146E+06 -3.592230E+05 -1.324506E+05 -6.130668E+05  1.645550E+04 -1.277490E+04
       171  22 -1.247702E+06 -2.149772E+05 -5.908073E+04 -4.861205E+05  4.873128E+04 -3.815476E+03
       171  23 -1.251136E+06 -1.816675E+05 -2.883613E+04 -4.811611E+05  3.352328E+04 -8.600799E+03
       171  24 -1.244720E+06 -1.941325E+05 -1.641447E+04 -4.939514E+05  1.788467E+04 -1.223689E+04
       171  25 -7.212168E+05 -1.072805E+04  7.943938E+04 -3.356184E+05  4.889644E+04 -3.751362E+03
       171  26 -7.641508E+05  2.938167E+03  9.817724E+04 -3.463139E+05  3.432044E+04 -8.299626E+03
       171  27 -7.970984E+05 -2.903077E+04  9.960531E+04 -3.747587E+05  1.931496E+04 -1.169848E+04
       172   1 -1.635484E+06 -3.447438E+05 -1.147349E+05 -6.000888E+05 -1.392479E+04  1.217659E+04
       172   2 -1.600996E+06 -3.143646E+05 -9.711483E+04 -5.755303E+05 -9.721160E+03  1.144130E+04
       172   3 -1.545805E+06 -3.083531E+05 -8.268561E+04 -5.755299E+05 -5.479202E+03  1.059984E+04
       172   4 -1.243387E+06 -1.970803E+05 -1.273134E+04 -4.925609E+05 -1.503596E+04  1.175839E+04
       172   5 -1.253596E+06 -1.838963E+05 -6.698221E+03 -4.806578E+05 -1.088961E+04  1.100204E+04
       172   6 -1.243092E+06 -1.950666E+05 -3.808645E+03 -4.933124E+05 -6.705222E+03  1.013945E+04
       172   7 -8.511405E+05 -4.940698E+04  8.925925E+04 -3.849715E+05 -1.614791E+04  1.133989E+04
       172   8 -9.060798E+05 -5.342073E+04  8.370808E+04 -3.857374E+05 -1.205878E+04  1.056251E+04
       172   9 -9.402921E+05 -8.177499E+04  7.506034E+04 -4.110590E+05 -7.931896E+03  9.678822E+03
       172  10 -1.635484E+06 -3.447441E+05 -1.147355E+05 -6.000887E+05 -6.827993E-10  1.940948E-11
       172  11 -1.600996E+06 -3.143647E+05 -9.711525E+04 -5.755302E+05 -8.931315E-10 -4.635939E-11
       172  12 -1.545805E+06 -3.083532E+05 -8.268588E+04 -5.755298E+05  7.832161E-10  4.806961E-10
       172  13 -1.243387E+06 -1.970805E+05 -1.273202E+04 -4.925608E+05 -1.113278E-09 -4.647759E-11
       172  14 -1.253596E+06 -1.838965E+05 -6.698671E+03 -4.806577E+05 -1.343661E-09  9.148346E-11
       172  15 -1.243092E+06 -1.950667E+05 -3.808923E+03 -4.933124E+05  7.114352E-10  4.974506E-10
       172  16 -8.511408E+05 -4.940719E+04  8.925852E+04 -3.849714E+05 -4.642503E-10 -8.675796E-11
       172  17 -9.060800E+05 -5.342089E+04  8.370760E+04 -3.857373E+05 -5.150115E-11  1.334349E-10
       172  18 -9.402922E+05 -8.177511E+04  7.506004E+04 -4.110590E+05  1.855820E-09  5.163986E-10
       172  19 -1.635484E+06 -3.447438E+05 -1.147349E+05 -6.000888E+05  1.392479E+04 -1.217659E+04
       172  20 -1.600996E+06 -3.143646E+05 -9.711483E+04 -5.755303E+05  9.721160E+03 -1.144130E+04
       172  21 -1.545805E+06 -3.083531E+05 -8.268561E+04 -5.755299E+05  5.479202E+03 -1.059984E+04
       172  22 -1.243387E+06 -1.970803E+05 -1.273134E+04 -4.925609E+05  1.503596E+04 -1.175839E+04
       172  23 -1.253596E+06 -1.838963E+05 -6.698221E+03 -4.806578E+05  1.088961E+04 -1.100204E+04
       172  24 -1.243092E+06 -1.950666E+05 -3.808645E+03 -4.933124E+05  6.705222E+03 -1.013945E+04
       172  25 -8.511405E+05 -4.940698E+04  8.925925E+04 -3.849715E+05  1.614791E+04 -1.133989E+04
       172  26 -9.060798E+05 -5.342073E+04  8.370808E+04 -3.857374E+05  1.205878E+04 -1.056251E+04
       172  27 -9.402921E+05 -8.177499E+04  7.506034E+04 -4.110590E+05  7.931896E+03 -9.678822E+03
       173   1 -1.490239E+06 -2.882742E+05 -6.717434E+04 -5.608199E+05 -4.461514E+03  9.534041E+03
       173   2 -1.455023E+06 -2.593225E+05 -5.409263E+04 -5.352153E+05 -2.732332E+03  7.701754E+03
       173   3 -1.397369E+06 -2.532373E+05 -4.174931E+04 -5.354787E+05 -9.953006E+02  5.845886E+03
       173   4 -1.242805E+06 -1.954692E+05 -2.964904E+03 -4.933248E+05 -5.674760E+03  9.078702E+03
       173   5 -1.254007E+06 -1.839396E+05 -1.799853E+03 -4.804260E+05 -3.958411E+03  7.241872E+03
       173   6 -1.242772E+06 -1.952738E+05 -1.362931E+03 -4.933958E+05 -2.234294E+03  5.381447E+03
       173   7 -9.953102E+05 -1.026601E+05  6.123964E+04 -4.258052E+05 -6.888541E+03  8.623163E+03
       173   8 -1.052952E+06 -1.085541E+05  5.048964E+04 -4.256207E+05 -5.184928E+03  6.781826E+03
       173   9 -1.088153E+06 -1.373089E+05  3.902144E+04 -4.513035E+05 -3.473627E+03  4.916880E+03
       173  10 -1.490239E+06 -2.882743E+05 -6.717454E+04 -5.608199E+05  1.265259E-09  4.617640E-10
       173  11 -1.455023E+06 -2.593226E+05 -5.409276E+04 -5.352152E+05 -9.699428E-10 -6.054575E-10
       173  12 -1.397369E+06 -2.532373E+05 -4.174937E+04 -5.354787E+05 -7.032026E-10 -1.235519E-10
       173  13 -1.242805E+06 -1.954693E+05 -2.965119E+03 -4.933248E+05 -3.164992E-10  4.142096E-10
       173  14 -1.254007E+06 -1.839397E+05 -1.799981E+03 -4.804260E+05 -1.242300E-09 -2.022686E-10
       173  15 -1.242772E+06 -1.952739E+05 -1.362995E+03 -4.933958E+05 -1.409149E-09  2.625920E-13
       173  16 -9.953102E+05 -1.026602E+05  6.123941E+04 -4.258051E+05  5.431006E-10  5.242603E-11
       173  17 -1.052952E+06 -1.085541E+05  5.048950E+04 -4.256206E+05  7.481826E-11 -6.525656E-12
       173  18 -1.088153E+06 -1.373089E+05  3.902137E+04 -4.513034E+05 -5.163545E-10  9.890578E-11
       173  19 -1.490239E+06 -2.882742E+05 -6.717434E+04 -5.608199E+05  4.461514E+03 -9.534041E+03
       173  20 -1.455023E+06 -2.593225E+05 -5.409263E+04 -5.352153E+05  2.732332E+03 -7.701754E+03
       173  21 -1.397369E+06 -2.532373E+05 -4.174931E+04 -5.354787E+05  9.953006E+02 -5.845886E+03
       173  22 -1.242805E+06 -1.954692E+05 -2.964904E+03 -4.933248E+05  5.674760E+03 -9.078702E+03
       173  23 -1.254007E+06 -1.839396E+05 -1.799853E+03 -4.804260E+05  3.958411E+03 -7.241872E+03
       173  24 -1.242772E+06 -1.952738E+05 -1.362931E+03 -4.933958E+05  2.234294E+03 -5.381447E+03
       173  25 -9.953102E+05 -1.026601E+05  6.123964E+04 -4.258052E+05  6.888541E+03 -8.623163E+03
       173  26 -1.052952E+06 -1.085541E+05  5.048964E+04 -4.256207E+05  5.184928E+03 -6.781826E+03
       173  27 -1.088153E+06 -1.373089E+05  3.902144E+04 -4.513035E+05  3.473627E+03 -4.916880E+03
       174   1 -1.340961E+06 -2.321862E+05 -2.672148E+04 -5.202894E+05 -2.857765E+02  4.641836E+03
       174   2 -1.305227E+06 -2.030262E+05 -1.492495E+04 -4.942690E+05  1.356807E+03  2.728554E+03
       174   3 -1.246761E+06 -1.970162E+05 -3.792390E+03 -4.945091E+05  2.999912E+03  8.132537E+02
       174   4 -1.242705E+06 -1.953516E+05 -1.334834E+03 -4.934759E+05 -1.528660E+03  4.176061E+03
       174   5 -1.254079E+06 -1.838403E+05 -1.619211E+03 -4.803213E+05  1.128377E+02  2.262440E+03
       174   6 -1.242722E+06 -1.954788E+05 -2.566571E+03 -4.934280E+05  1.754790E+03  3.467834E+02
       174   7 -1.144440E+06 -1.585165E+05  2.405093E+04 -4.666588E+05 -2.771755E+03  3.710206E+03
       174   8 -1.202927E+06 -1.646542E+05  1.168632E+04 -4.663726E+05 -1.131244E+03  1.796285E+03
       174   9 -1.238683E+06 -1.939415E+05 -1.340743E+03 -4.923468E+05  5.096559E+02 -1.196918E+02
       174  10 -1.340961E+06 -2.321862E+05 -2.672153E+04 -5.202893E+05 -3.109572E-10  1.986242E-10
       174  11 -1.305227E+06 -2.030262E+05 -1.492497E+04 -4.942690E+05  2.743290E-10  3.800439E-10
       174  12 -1.246761E+06 -1.970162E+05 -3.792409E+03 -4.945091E+05  1.657598E-10  1.171833E-10
       174  13 -1.242705E+06 -1.953516E+05 -1.334872E+03 -4.934759E+05 -1.047236E-09  1.978848E-10
       174  14 -1.254079E+06 -1.838403E+05 -1.619221E+03 -4.803213E+05 -7.083827E-10  3.493286E-10
       174  15 -1.242722E+06 -1.954788E+05 -2.566577E+03 -4.934280E+05 -1.068096E-10  1.326386E-10
       174  16 -1.144440E+06 -1.585165E+05  2.405089E+04 -4.666588E+05 -2.355149E-10  7.480621E-14
       174  17 -1.202927E+06 -1.646542E+05  1.168631E+04 -4.663726E+05 -2.428439E-10  2.159773E-10
       174  18 -1.238683E+06 -1.939415E+05 -1.340743E+03 -4.923468E+05 -2.118917E-10  5.983212E-11
       174  19 -1.340961E+06 -2.321862E+05 -2.672148E+04 -5.202894E+05  2.857765E+02 -4.641836E+03
       174  20 -1.305227E+06 -2.030262E+05 -1.492495E+04 -4.942690E+05 -1.356807E+03 -2.728554E+03
       174  21 -1.246761E+06 -1.970162E+05 -3.792390E+03 -4.945091E+05 -2.999912E+03 -8.132537E+02
       174  22 -1.242705E+06 -1.953516E+05 -1.334834E+03 -4.934759E+05  1.528660E+03 -4.176061E+03
       174  23 -1.254079E+06 -1.838403E+05 -1.619211E+03 -4.803213E+05 -1.128377E+02 -2.262440E+03
       174  24 -1.242722E+06 -1.954788E+05 -2.566571E+03 -4.934280E+05 -1.754790E+03 -3.467834E+02
       174  25 -1.144440E+06 -1.585165E+05  2.405093E+04 -4.666588E+05  2.771755E+03 -3.710206E+03
       174  26 -1.202927E+06 -1.646542E+05  1.168632E+04 -4.663726E+05  1.131244E+03 -1.796285E+03
       174  27 -1.238683E+06 -1.939415E+05 -1.340743E+03 -4.923468E+05 -5.096559E+02  1.196918E+02
       175   1 -1.190066E+06 -1.757184E+05  1.058073E+04 -4.794681E+05  3.980397E+03 -3.038653E+02
       175   2 -1.154287E+06 -1.462674E+05  2.020602E+04 -4.531703E+05  7.657062E+03 -1.452552E+03
       175   3 -1.096785E+06 -1.417488E+05  2.715659E+04 -4.526639E+05  1.131259E+04 -2.542913E+03
       175   4 -1.242862E+06 -1.952622E+05 -3.274956E+03 -4.935543E+05  2.721383E+03 -7.755631E+02
       175   5 -1.253840E+06 -1.836326E+05 -5.693813E+03 -4.803443E+05  6.430175E+03 -1.912358E+03
       175   6 -1.243103E+06 -1.969427E+05 -1.081310E+04 -4.929269E+05  1.011759E+04 -2.990904E+03
       175   7 -1.295655E+06 -2.148058E+05 -1.713087E+04 -5.076394E+05  1.462487E+03 -1.247218E+03
       175   8 -1.353384E+06 -2.209973E+05 -3.159443E+04 -5.075143E+05  5.203507E+03 -2.372082E+03
       175   9 -1.389401E+06 -2.521349E+05 -4.878444E+04 -5.331811E+05  8.922900E+03 -3.438776E+03
       175  10 -1.190066E+06 -1.757184E+05  1.058070E+04 -4.794681E+05 -5.500191E-12 -7.664384E-11
       175  11 -1.154288E+06 -1.462674E+05  2.020591E+04 -4.531703E+05  4.587566E-10 -2.452569E-11
       175  12 -1.096785E+06 -1.417489E+05  2.715634E+04 -4.526639E+05  4.973420E-10  1.234113E-11
       175  13 -1.242862E+06 -1.952622E+05 -3.274971E+03 -4.935543E+05  2.329542E-10  6.945333E-11
       175  14 -1.253840E+06 -1.836327E+05 -5.693898E+03 -4.803443E+05  2.963327E-10  2.564089E-10
       175  15 -1.243103E+06 -1.969427E+05 -1.081331E+04 -4.929269E+05  3.630694E-10  4.581750E-11
       175  16 -1.295655E+06 -2.148058E+05 -1.713088E+04 -5.076394E+05 -5.160663E-10 -2.332303E-11
       175  17 -1.353384E+06 -2.209973E+05 -3.159449E+04 -5.075143E+05 -5.054616E-10 -2.014357E-10
       175  18 -1.389401E+06 -2.521349E+05 -4.878461E+04 -5.331811E+05  5.616195E-10  2.535980E-11
       175  19 -1.190066E+06 -1.757184E+05  1.058073E+04 -4.794681E+05 -3.980397E+03  3.038653E+02
       175  20 -1.154287E+06 -1.462674E+05  2.020602E+04 -4.531703E+05 -7.657062E+03  1.452552E+03
       175  21 -1.096785E+06 -1.417488E+05  2.715659E+04 -4.526639E+05 -1.131259E+04  2.542913E+03
       175  22 -1.242862E+06 -1.952622E+05 -3.274956E+03 -4.935543E+05 -2.721383E+03  7.755631E+02
       175  23 -1.253840E+06 -1.836326E+05 -5.693813E+03 -4.803443E+05 -6.430175E+03  1.912358E+03
       175  24 -1.243103E+06 -1.969427E+05 -1.081310E+04 -4.929269E+05 -1.011759E+04  2.990904E+03
       175  25 -1.295655E+06 -2.148058E+05 -1.713087E+04 -5.076394E+05 -1.462487E+03  1.247218E+03
       175  26 -1.353384E+06 -2.209973E+05 -3.159443E+04 -5.075143E+05 -5.203507E+03  2.372082E+03
       175  27 -1.389401E+06 -2.521349E+05 -4.878444E+04 -5.331811E+05 -8.922900E+03  3.438776E+03
       176   1 -1.039680E+06 -1.204056E+05  3.891321E+04 -4.411283E+05  1.403791E+04 -3.097258E+03
       176   2 -1.004198E+06 -8.734204E+04  4.021942E+04 -4.116708E+05  2.705070E+04 -6.500779E+02
       176   3 -9.557185E+05 -9.776181E+04  2.671141E+04 -4.027847E+05  3.977684E+04  2.567697E+03
       176   4 -1.244144E+06 -1.945462E+05 -1.393854E+04 -4.942203E+05  1.262348E+04 -3.627601E+03
       176   5 -1.251853E+06 -1.815973E+05 -2.445186E+04 -4.806231E+05  2.606314E+04 -1.020838E+03
       176   6 -1.246656E+06 -2.122239E+05 -5.012334E+04 -4.875991E+05  3.921516E+04  2.356135E+03
       176   7 -1.448569E+06 -2.686851E+05 -6.679392E+04 -5.472969E+05  1.120956E+04 -4.157770E+03
       176   8 -1.499449E+06 -2.758485E+05 -8.912844E+04 -5.495504E+05  2.507602E+04 -1.391433E+03
       176   9 -1.537511E+06 -3.266785E+05 -1.269654E+05 -5.723768E+05  3.865376E+04  2.144692E+03
       176  10 -1.039680E+06 -1.204057E+05  3.891282E+04 -4.411283E+05  3.266556E-11  1.068889E-10
       176  11 -1.004198E+06 -8.734224E+04  4.021804E+04 -4.116708E+05  2.065309E-10  9.682920E-11
       176  12 -9.557202E+05 -9.776224E+04  2.670842E+04 -4.027848E+05 -1.549097E-10  4.522893E-11
       176  13 -1.244145E+06 -1.945463E+05 -1.393886E+04 -4.942202E+05 -1.064426E-10  5.105469E-11
       176  14 -1.251854E+06 -1.815975E+05 -2.445314E+04 -4.806231E+05  2.200075E-10 -6.510958E-11
       176  15 -1.246657E+06 -2.122243E+05 -5.012624E+04 -4.875992E+05 -6.574309E-11  1.953699E-11
       176  16 -1.448569E+06 -2.686852E+05 -6.679419E+04 -5.472968E+05  4.443837E-10 -9.284393E-11
       176  17 -1.499450E+06 -2.758487E+05 -8.912963E+04 -5.495504E+05 -7.312757E-11  8.233189E-11
       176  18 -1.537512E+06 -3.266789E+05 -1.269682E+05 -5.723768E+05  4.950599E-10  9.445801E-11
       176  19 -1.039680E+06 -1.204056E+05  3.891321E+04 -4.411283E+05 -1.403791E+04  3.097258E+03
       176  20 -1.004198E+06 -8.734204E+04  4.021942E+04 -4.116708E+05 -2.705070E+04  6.500779E+02
       176  21 -9.557185E+05 -9.776181E+04  2.671141E+04 -4.027847E+05 -3.977684E+04 -2.567697E+03
       176  22 -1.244144E+06 -1.945462E+05 -1.393854E+04 -4.942203E+05 -1.262348E+04  3.627601E+03
       176  23 -1.251853E+06 -1.815973E+05 -2.445186E+04 -4.806231E+05 -2.606314E+04  1.020838E+03
       176  24 -1.246656E+06 -2.122239E+05 -5.012334E+04 -4.875991E+05 -3.921516E+04 -2.356135E+03
       176  25 -1.448569E+06 -2.686851E+05 -6.679392E+04 -5.472969E+05 -1.120956E+04  4.157770E+03
       176  26 -1.499449E+06 -2.758485E+05 -8.912844E+04 -5.495504E+05 -2.507602E+04  1.391433E+03
       176  27 -1.537511E+06 -3.266785E+05 -1.269654E+05 -5.723768E+05 -3.865376E+04 -2.144692E+03
       177   1 -8.874972E+05 -7.460434E+04  2.881577E+04 -4.267559E+05  5.281521E+04  4.284209E+03
       177   2 -8.542885E+05  3.996480E+02 -1.468398E+03 -3.602741E+05  1.035019E+05  2.176950E+04
       177   3 -8.868612E+05 -1.605632E+05 -1.279004E+05 -2.624563E+05  1.499208E+05  5.062823E+04
       177   4 -1.254874E+06 -1.876305E+05 -6.192000E+04 -5.014612E+05  4.884567E+04  2.796112E+03
       177   5 -1.234304E+06 -1.604454E+05 -1.037532E+05 -4.827915E+05  1.058773E+05  2.265727E+04
       177   6 -1.280835E+06 -3.705797E+05 -2.468167E+05 -4.327741E+05  1.586381E+05  5.388600E+04
       177   7 -1.622118E+06 -3.006573E+05 -1.526652E+05 -5.761310E+05  4.487871E+04  1.308587E+03
       177   8 -1.614178E+06 -3.212700E+05 -2.060508E+05 -6.052371E+05  1.082510E+05  2.354426E+04
       177   9 -1.674650E+06 -5.805347E+05 -3.657478E+05 -6.029792E+05  1.673494E+05  5.713930E+04
       177  10 -8.875002E+05 -7.460511E+04  2.881049E+04 -4.267561E+05 -8.373838E-10  1.248622E-10
       177  11 -8.543002E+05  3.962566E+02 -1.489453E+03 -3.602759E+05 -1.413961E-09  4.181643E-10
       177  12 -8.868861E+05 -1.605720E+05 -1.279475E+05 -2.624624E+05 -2.184275E-10  1.882875E-11
       177  13 -1.254876E+06 -1.876312E+05 -6.192451E+04 -5.014613E+05 -2.809143E-10  1.152566E-10
       177  14 -1.234316E+06 -1.604489E+05 -1.037753E+05 -4.827935E+05 -9.822682E-10  4.491870E-10
       177  15 -1.280863E+06 -3.705896E+05 -2.468695E+05 -4.327810E+05  7.893280E-10  2.438222E-10
       177  16 -1.622120E+06 -3.006579E+05 -1.526690E+05 -5.761311E+05  3.611195E-10  2.785151E-10
       177  17 -1.614191E+06 -3.212738E+05 -2.060740E+05 -6.052392E+05  6.034036E-10  2.474669E-10
       177  18 -1.674681E+06 -5.805457E+05 -3.658067E+05 -6.029870E+05  3.825887E-10  1.457022E-10
       177  19 -8.874972E+05 -7.460434E+04  2.881577E+04 -4.267559E+05 -5.281521E+04 -4.284209E+03
       177  20 -8.542885E+05  3.996480E+02 -1.468398E+03 -3.602741E+05 -1.035019E+05 -2.176950E+04
       177  21 -8.868612E+05 -1.605632E+05 -1.279004E+05 -2.624563E+05 -1.499208E+05 -5.062823E+04
       177  22 -1.254874E+06 -1.876305E+05 -6.192000E+04 -5.014612E+05 -4.884567E+04 -2.796112E+03
       177  23 -1.234304E+06 -1.604454E+05 -1.037532E+05 -4.827915E+05 -1.058773E+05 -2.265727E+04
       177  24 -1.280835E+06 -3.705797E+05 -2.468167E+05 -4.327741E+05 -1.586381E+05 -5.388600E+04
       177  25 -1.622118E+06 -3.006573E+05 -1.526652E+05 -5.761310E+05 -4.487871E+04 -1.308587E+03
       177  26 -1.614178E+06 -3.212700E+05 -2.060508E+05 -6.052371E+05 -1.082510E+05 -2.354426E+04
       177  27 -1.674650E+06 -5.805347E+05 -3.657478E+05 -6.029792E+05 -1.673494E+05 -5.713930E+04
       178   1 -1.310217E+06 -2.861843E+05 -2.467733E+05 -2.654036E+04  7.969737E+04  1.873536E+04
       178   2 -1.198453E+06 -3.986781E+05 -2.919151E+05 -1.773411E+04  6.405410E+04  5.634096E+04
       178   3 -1.044055E+06 -3.583855E+05 -2.882157E+05 -9.127200E+04  4.851411E+04  5.388180E+04
       178   4  3.744061E+05  1.334240E+05  1.673226E+05 -7.124983E+04  1.144639E+05  1.882377E+04
       178   5  3.511160E+05 -1.553268E+04  7.370779E+04 -2.991149E+04  7.473275E+04  5.635202E+04
       178   6  3.745216E+05 -7.726830E+03  4.556426E+04 -7.090035E+04  3.511036E+04  5.385823E+04
       178   7  2.061622E+06  5.528301E+05  5.812154E+05 -1.160827E+05  1.493243E+05  1.890705E+04
       178   8  1.902897E+06  3.674416E+05  4.391655E+05 -4.212056E+04  8.543776E+04  5.636266E+04
       178   9  1.794953E+06  3.427898E+05  3.792068E+05 -5.048229E+04  2.167606E+04  5.383382E+04
       178  10 -1.310224E+06 -2.861864E+05 -2.467859E+05 -2.654156E+04  1.361619E-09  1.275028E-10
       178  11 -1.198459E+06 -3.986826E+05 -2.919288E+05 -1.773702E+04 -8.819856E-10 -1.368191E-09
       178  12 -1.044058E+06 -3.583892E+05 -2.882256E+05 -9.127411E+04 -1.473446E-09  3.126050E-10
       178  13  3.743919E+05  1.334201E+05  1.672973E+05 -7.125157E+04 -3.764460E-11 -1.032032E-09
       178  14  3.511092E+05 -1.553759E+04  7.369134E+04 -2.991488E+04 -1.394804E-09 -5.070593E-10
       178  15  3.745195E+05 -7.730277E+03  4.555649E+04 -7.090187E+04 -1.197952E-10 -1.039312E-10
       178  16  2.061598E+06  5.528238E+05  5.811730E+05 -1.160850E+05  2.825858E-10  8.974636E-10
       178  17  1.902888E+06  3.674363E+05  4.391459E+05 -4.212444E+04 -6.301437E-10 -1.245575E-09
       178  18  1.794951E+06  3.427865E+05  3.792005E+05 -5.048323E+04 -2.931594E-10 -7.461298E-10
       178  19 -1.310217E+06 -2.861843E+05 -2.467733E+05 -2.654036E+04 -7.969737E+04 -1.873536E+04
       178  20 -1.198453E+06 -3.986781E+05 -2.919151E+05 -1.773411E+04 -6.405410E+04 -5.634096E+04
       178  21 -1.044055E+06 -3.583855E+05 -2.882157E+05 -9.127200E+04 -4.851411E+04 -5.388180E+04
       178  22  3.744061E+05  1.334240E+05  1.673226E+05 -7.124983E+04 -1.144639E+05 -1.882377E+04
       178  23  3.511160E+05 -1.553268E+04  7.370779E+04 -2.991149E+04 -7.473275E+04 -5.635202E+04
       178  24  3.745216E+05 -7.726830E+03  4.556426E+04 -7.090035E+04 -3.511036E+04 -5.385823E+04
       178  25  2.061622E+06  5.528301E+05  5.812154E+05 -1.160827E+05 -1.493243E+05 -1.890705E+04
       178  26  1.902897E+06  3.674416E+05  4.391655E+05 -4.212056E+04 -8.543776E+04 -5.636266E+04
       178  27  1.794953E+06  3.427898E+05  3.792068E+05 -5.048229E+04 -2.167606E+04 -5.383382E+04
       179   1 -9.050196E+05 -3.025086E+05 -2.632063E+05 -6.803458E+04  2.935746E+04  4.514283E+04
       179   2 -7.769203E+05 -2.834337E+05 -2.495461E+05 -2.921457E+04  2.110624E+04  4.191566E+04
       179   3 -6.430511E+05 -2.501323E+05 -2.267103E+05 -7.262617E+04  1.284372E+04  3.629429E+04
       179   4  3.655760E+05  1.172145E+04  3.692646E+04 -7.097907E+04  2.818356E+04  4.513543E+04
       179   5  3.626150E+05 -1.743205E+03  1.904541E+04 -2.986438E+04  1.847944E+04  4.190962E+04
       179   6  3.656486E+05 -7.432647E+02  1.133516E+04 -7.097147E+04  8.765731E+03  3.629157E+04
       179   7  1.637657E+06  3.258359E+05  3.369476E+05 -7.392986E+04  2.700722E+04  4.512805E+04
       179   8  1.503345E+06  2.798545E+05  2.875474E+05 -3.051547E+04  1.584782E+04  4.190359E+04
       179   9  1.375284E+06  2.485730E+05  2.493104E+05 -6.931394E+04  4.681135E+03  3.628883E+04
       179  10 -9.050210E+05 -3.025110E+05 -2.632118E+05 -6.803565E+04  4.110847E-11  1.833123E-10
       179  11 -7.769212E+05 -2.834357E+05 -2.495502E+05 -2.921528E+04 -1.036554E-10 -2.369849E-10
       179  12 -6.430517E+05 -2.501338E+05 -2.267130E+05 -7.262655E+04 -6.172609E-10 -1.586446E-10
       179  13  3.655746E+05  1.171905E+04  3.692114E+04 -7.098010E+04 -1.661846E-09  8.401355E-12
       179  14  3.626142E+05 -1.745183E+03  1.904147E+04 -2.986501E+04  5.567994E-10  5.332061E-10
       179  15  3.656481E+05 -7.446999E+02  1.133254E+04 -7.097173E+04  5.944299E-10 -2.769992E-11
       179  16  1.637655E+06  3.258335E+05  3.369424E+05 -7.393084E+04  8.791747E-11 -6.640865E-11
       179  17  1.503345E+06  2.798525E+05  2.875437E+05 -3.051600E+04 -5.525546E-10 -3.679247E-11
       179  18  1.375284E+06  2.485716E+05  2.493079E+05 -6.931408E+04 -3.509474E-11  8.792974E-12
       179  19 -9.050196E+05 -3.025086E+05 -2.632063E+05 -6.803458E+04 -2.935746E+04 -4.514283E+04
       179  20 -7.769203E+05 -2.834337E+05 -2.495461E+05 -2.921457E+04 -2.110624E+04 -4.191566E+04
       179  21 -6.430511E+05 -2.501323E+05 -2.267103E+05 -7.262617E+04 -1.284372E+04 -3.629429E+04
       179  22  3.655760E+05  1.172145E+04  3.692646E+04 -7.097907E+04 -2.818356E+04 -4.513543E+04
       179  23  3.626150E+05 -1.743205E+03  1.904541E+04 -2.986438E+04 -1.847944E+04 -4.190962E+04
       179  24  3.656486E+05 -7.432647E+02  1.133516E+04 -7.097147E+04 -8.765731E+03 -3.629157E+04
       179  25  1.637657E+06  3.258359E+05  3.369476E+05 -7.392986E+04 -2.700722E+04 -4.512805E+04
       179  26  1.503345E+06  2.798545E+05  2.875474E+05 -3.051547E+04 -1.584782E+04 -4.190359E+04
       179  27  1.375284E+06  2.485730E+05  2.493104E+05 -6.931394E+04 -4.681135E+03 -3.628883E+04
       180   1 -4.978463E+05 -2.121293E+05 -1.941028E+05 -7.030606E+04  1.031766E+04  3.259378E+04
       180   2 -3.684220E+05 -1.812532E+05 -1.677291E+05 -2.957689E+04  7.956035E+03  2.695977E+04
       180   3 -2.380507E+05 -1.489210E+05 -1.393980E+05 -7.043138E+04  5.586065E+03  2.119464E+04
       180   4  3.645979E+05  9.601015E+02  8.797955E+03 -7.082969E+04  6.984059E+03  3.259262E+04
       180   5  3.641479E+05 -2.102121E+02  4.885859E+03 -3.004117E+04  4.540410E+03  2.696073E+04
       180   6  3.646426E+05  8.994772E+01  2.986810E+03 -7.083035E+04  2.088906E+03  2.119785E+04
       180   7  1.227727E+06  2.139965E+05  2.116476E+05 -7.135392E+04  3.645845E+03  3.259147E+04
       180   8  1.097212E+06  1.807945E+05  1.774639E+05 -3.050587E+04  1.120773E+03  2.696169E+04
       180   9  9.676699E+05  1.490749E+05  1.453466E+05 -7.122958E+04 -1.411632E+03  2.120106E+04
       180  10 -4.978467E+05 -2.121305E+05 -1.941050E+05 -7.030633E+04 -9.345773E-10  2.753640E-10
       180  11 -3.684223E+05 -1.812540E+05 -1.677306E+05 -2.957706E+04  4.648388E-10  8.138067E-10
       180  12 -2.380508E+05 -1.489215E+05 -1.393989E+05 -7.043147E+04  6.354134E-10 -6.909029E-10
       180  13  3.645976E+05  9.589475E+02  8.795867E+03 -7.082987E+04  5.091682E-10  1.386254E-10
       180  14  3.641477E+05 -2.109983E+02  4.884454E+03 -3.004127E+04 -4.191442E-10  1.227027E-09
       180  15  3.646425E+05  8.946394E+01  2.985957E+03 -7.083039E+04  1.733997E-10  6.886586E-10
       180  16  1.227727E+06  2.139953E+05  2.116456E+05 -7.135402E+04  7.075472E-10  2.124129E-10
       180  17  1.097211E+06  1.807937E+05  1.774625E+05 -3.050590E+04  7.390005E-11 -9.446291E-11
       180  18  9.676698E+05  1.490744E+05  1.453457E+05 -7.122956E+04 -1.342095E-09 -9.448826E-10
       180  19 -4.978463E+05 -2.121293E+05 -1.941028E+05 -7.030606E+04 -1.031766E+04 -3.259378E+04
       180  20 -3.684220E+05 -1.812532E+05 -1.677291E+05 -2.957689E+04 -7.956035E+03 -2.695977E+04
       180  21 -2.380507E+05 -1.489210E+05 -1.393980E+05 -7.043138E+04 -5.586065E+03 -2.119464E+04
       180  22  3.645979E+05  9.601015E+02  8.797955E+03 -7.082969E+04 -6.984059E+03 -3.259262E+04
       180  23  3.641479E+05 -2.102121E+02  4.885859E+03 -3.004117E+04 -4.540410E+03 -2.696073E+04
       180  24  3.646426E+05  8.994772E+01  2.986810E+03 -7.083035E+04 -2.088906E+03 -2.119785E+04
       180  25  1.227727E+06  2.139965E+05  2.116476E+05 -7.135392E+04 -3.645845E+03 -3.259147E+04
       180  26  1.097212E+06  1.807945E+05  1.774639E+05 -3.050587E+04 -1.120773E+03 -2.696169E+04
       180  27  9.676699E+05  1.490749E+05  1.453466E+05 -7.122958E+04  1.411632E+03 -2.120106E+04
       181   1 -9.291256E+04 -1.127256E+05 -1.050089E+05 -7.027639E+04  5.050443E+03  1.781900E+04
       181   2  3.640429E+04 -8.100889E+04 -7.569455E+04 -2.978399E+04  4.255857E+03  1.206917E+04
       181   3  1.657040E+05 -4.894071E+04 -4.582581E+04 -7.047886E+04  3.457631E+03  6.317369E+03
       181   4  3.644664E+05  2.124093E+02  2.357533E+03 -7.074272E+04  1.601406E+03  1.782317E+04
       181   5  3.644915E+05  5.312559E+01  1.593092E+03 -3.015041E+04  8.048332E+02  1.207427E+04
       181   6  3.644861E+05  2.471792E+02  1.385439E+03 -7.074271E+04  4.783493E+00  6.323447E+03
       181   7  8.220380E+05  1.131355E+05  1.097097E+05 -7.120932E+04 -1.850157E+03  1.782735E+04
       181   8  6.926777E+05  8.110746E+04  7.887337E+04 -3.051698E+04 -2.648003E+03  1.207937E+04
       181   9  5.633045E+05  4.943223E+04  4.859398E+04 -7.100662E+04 -3.449163E+03  6.329527E+03
       181  10 -9.291267E+04 -1.127259E+05 -1.050096E+05 -7.027646E+04 -8.246281E-11 -4.904440E-10
       181  11  3.640423E+04 -8.100905E+04 -7.569486E+04 -2.978403E+04  6.177898E-10  2.126670E-10
       181  12  1.657040E+05 -4.894075E+04 -4.582591E+04 -7.047888E+04  1.392084E-09 -1.675365E-10
       181  13  3.644663E+05  2.120675E+02  2.356931E+03 -7.074274E+04  6.070863E-10 -1.251188E-09
       181  14  3.644914E+05  5.296884E+01  1.592817E+03 -3.015042E+04 -7.390837E-10  6.155935E-10
       181  15  3.644861E+05  2.471363E+02  1.385364E+03 -7.074271E+04 -2.848537E-10 -7.648505E-10
       181  16  8.220379E+05  1.131352E+05  1.097091E+05 -7.120929E+04 -2.515829E-10 -3.198648E-10
       181  17  6.926777E+05  8.110730E+04  7.887308E+04 -3.051696E+04 -5.761975E-10  3.091835E-10
       181  18  5.633045E+05  4.943218E+04  4.859388E+04 -7.100660E+04 -8.035111E-10 -1.561206E-09
       181  19 -9.291256E+04 -1.127256E+05 -1.050089E+05 -7.027639E+04 -5.050443E+03 -1.781900E+04
       181  20  3.640429E+04 -8.100889E+04 -7.569455E+04 -2.978399E+04 -4.255857E+03 -1.206917E+04
       181  21  1.657040E+05 -4.894071E+04 -4.582581E+04 -7.047886E+04 -3.457631E+03 -6.317369E+03
       181  22  3.644664E+05  2.124093E+02  2.357533E+03 -7.074272E+04 -1.601406E+03 -1.782317E+04
       181  23  3.644915E+05  5.312559E+01  1.593092E+03 -3.015041E+04 -8.048332E+02 -1.207427E+04
       181  24  3.644861E+05  2.471792E+02  1.385439E+03 -7.074271E+04 -4.783493E+00 -6.323447E+03
       181  25  8.220380E+05  1.131355E+05  1.097097E+05 -7.120932E+04  1.850157E+03 -1.782735E+04
       181  26  6.926777E+05  8.110746E+04  7.887337E+04 -3.051698E+04  2.648003E+03 -1.207937E+04
       181  27  5.633045E+05  4.943223E+04  4.859398E+04 -7.100662E+04  3.449163E+03 -6.329527E+03
       182   1  3.106300E+05 -1.298623E+04 -1.086739E+04 -7.063489E+04  3.194610E+03  2.969704E+03
       182   2  4.398726E+05  1.869017E+04  1.960303E+04 -3.024905E+04  2.260281E+03 -2.776335E+03
       182   3  5.690179E+05  5.076903E+04  5.070586E+04 -7.095641E+04  1.326556E+03 -8.516803E+03
       182   4  3.644769E+05  2.382287E+02  1.426991E+03 -7.072258E+04 -2.571818E+02  2.976025E+03
       182   5  3.645322E+05  8.003906E+01  1.859356E+03 -3.017560E+04 -1.188431E+03 -2.770267E+03
       182   6  3.644723E+05  3.244669E+02  2.922474E+03 -7.072239E+04 -2.118887E+03 -8.510929E+03
       182   7  4.183266E+05  1.346249E+04  1.372122E+04 -7.081028E+04 -3.709270E+03  2.982347E+03
       182   8  2.891970E+05 -1.853049E+04 -1.588467E+04 -3.010215E+04 -4.636728E+03 -2.764200E+03
       182   9  1.599652E+05 -5.012306E+04 -4.486371E+04 -7.048843E+04 -5.563203E+03 -8.505056E+03
       182  10  3.106300E+05 -1.298624E+04 -1.086742E+04 -7.063489E+04 -7.288786E-10  1.008756E-09
       182  11  4.398726E+05  1.869016E+04  1.960301E+04 -3.024904E+04  7.762208E-10  2.512463E-09
       182  12  5.690179E+05  5.076896E+04  5.070572E+04 -7.095640E+04  2.637493E-09 -1.661770E-09
       182  13  3.644769E+05  2.382192E+02  1.426974E+03 -7.072258E+04 -2.118078E-11 -8.391587E-11
       182  14  3.645322E+05  8.003044E+01  1.859338E+03 -3.017560E+04  2.772436E-10 -8.807404E-10
       182  15  3.644723E+05  3.243879E+02  2.922329E+03 -7.072241E+04  1.766112E-10 -3.610607E-10
       182  16  4.183265E+05  1.346247E+04  1.372118E+04 -7.081027E+04 -1.069528E-09 -3.205461E-10
       182  17  2.891969E+05 -1.853050E+04 -1.588472E+04 -3.010216E+04 -1.684036E-09 -4.523034E-10
       182  18  1.599652E+05 -5.012314E+04 -4.486390E+04 -7.048847E+04 -2.570865E-09 -6.969956E-10
       182  19  3.106300E+05 -1.298623E+04 -1.086739E+04 -7.063489E+04 -3.194610E+03 -2.969704E+03
       182  20  4.398726E+05  1.869017E+04  1.960303E+04 -3.024905E+04 -2.260281E+03  2.776335E+03
       182  21  5.690179E+05  5.076903E+04  5.070586E+04 -7.095641E+04 -1.326556E+03  8.516803E+03
       182  22  3.644769E+05  2.382287E+02  1.426991E+03 -7.072258E+04  2.571818E+02 -2.976025E+03
       182  23  3.645322E+05  8.003906E+01  1.859356E+03 -3.017560E+04  1.188431E+03  2.770267E+03
       182  24  3.644723E+05  3.244669E+02  2.922474E+03 -7.072239E+04  2.118887E+03  8.510929E+03
       182  25  4.183266E+05  1.346249E+04  1.372122E+04 -7.081028E+04  3.709270E+03 -2.982347E+03
       182  26  2.891970E+05 -1.853049E+04 -1.588467E+04 -3.010215E+04  4.636728E+03  2.764200E+03
       182  27  1.599652E+05 -5.012306E+04 -4.486371E+04 -7.048843E+04  5.563203E+03  8.505056E+03
       183   1  7.142878E+05  8.657412E+04  8.645410E+04 -7.094998E+04  7.607362E+02 -1.188001E+04
       183   2  8.434323E+05  1.181796E+05  1.190974E+05 -3.059752E+04 -2.451905E+03 -1.762352E+04
       183   3  9.734016E+05  1.516980E+05  1.542844E+05 -7.153758E+04 -5.660009E+03 -2.325245E+04
       183   4  3.646541E+05  1.477781E+02  3.739883E+03 -7.076808E+04 -2.724969E+03 -1.187460E+04
       183   5  3.642403E+05 -1.589556E+02  6.268367E+03 -3.011903E+04 -5.866915E+03 -1.761964E+04
       183   6  3.646246E+05  1.437146E+03  1.129396E+04 -7.076632E+04 -9.003666E+03 -2.325000E+04
       183   7  1.513269E+04 -8.628731E+04 -7.898276E+04 -7.058623E+04 -6.208724E+03 -1.186920E+04
       183   8 -1.147407E+05 -1.185138E+05 -1.065765E+05 -2.964083E+04 -9.279306E+03 -1.761576E+04
       183   9 -2.438118E+05 -1.488501E+05 -1.317218E+05 -6.999571E+04 -1.234406E+04 -2.324755E+04
       183  10  7.142877E+05  8.657396E+04  8.645383E+04 -7.094998E+04 -5.419003E-10 -1.979176E-09
       183  11  8.434322E+05  1.181792E+05  1.190968E+05 -3.059755E+04  3.626915E-10  7.651068E-11
       183  12  9.734015E+05  1.516974E+05  1.542833E+05 -7.153768E+04 -1.632616E-09  7.847043E-10
       183  13  3.646541E+05  1.476247E+02  3.739604E+03 -7.076811E+04 -1.139709E-09 -2.746904E-10
       183  14  3.642402E+05 -1.592983E+02  6.267718E+03 -3.011911E+04 -9.298929E-10 -2.903374E-10
       183  15  3.646243E+05  1.436544E+03  1.129279E+04 -7.076649E+04  8.017890E-12  1.732407E-11
       183  16  1.513261E+04 -8.628748E+04 -7.898310E+04 -7.058629E+04  1.234295E-10 -3.079220E-10
       183  17 -1.147408E+05 -1.185142E+05 -1.065772E+05 -2.964096E+04 -3.104717E-11  2.564562E-09
       183  18 -2.438121E+05 -1.488507E+05 -1.317231E+05 -6.999594E+04 -1.136464E-09  7.844138E-10
       183  19  7.142878E+05  8.657412E+04  8.645410E+04 -7.094998E+04 -7.607362E+02  1.188001E+04
       183  20  8.434323E+05  1.181796E+05  1.190974E+05 -3.059752E+04  2.451905E+03  1.762352E+04
       183  21  9.734016E+05  1.516980E+05  1.542844E+05 -7.153758E+04  5.660009E+03  2.325245E+04
       183  22  3.646541E+05  1.477781E+02  3.739883E+03 -7.076808E+04  2.724969E+03  1.187460E+04
       183  23  3.642403E+05 -1.589556E+02  6.268367E+03 -3.011903E+04  5.866915E+03  1.761964E+04
       183  24  3.646246E+05  1.437146E+03  1.129396E+04 -7.076632E+04  9.003666E+03  2.325000E+04
       183  25  1.513269E+04 -8.628731E+04 -7.898276E+04 -7.058623E+04  6.208724E+03  1.186920E+04
       183  26 -1.147407E+05 -1.185138E+05 -1.065765E+05 -2.964083E+04  9.279306E+03  1.761576E+04
       183  27 -2.438118E+05 -1.488501E+05 -1.317218E+05 -6.999571E+04  1.234406E+04  2.324755E+04
       184   1  1.120492E+06  1.855993E+05  1.925158E+05 -6.900054E+04 -7.310428E+03 -2.688611E+04
       184   2  1.247373E+06  2.164834E+05  2.328847E+05 -3.154135E+04 -2.107632E+04 -3.249161E+04
       184   3  1.381305E+06  2.662446E+05  2.870289E+05 -7.582758E+04 -3.483587E+04 -3.605899E+04
       184   4  3.659140E+05 -7.763221E+02  1.454150E+04 -7.087062E+04 -1.128864E+04 -2.688432E+04
       184   5  3.624688E+05 -1.998089E+03  2.456460E+04 -2.999226E+04 -2.381377E+04 -3.249336E+04
       184   6  3.658564E+05  1.545907E+04  4.751790E+04 -7.086588E+04 -3.632971E+04 -3.606307E+04
       184   7 -3.881409E+05 -1.871926E+05 -1.634720E+05 -7.273827E+04 -1.526204E+04 -2.688250E+04
       184   8 -5.217161E+05 -2.205354E+05 -1.838094E+05 -2.844528E+04 -2.654732E+04 -3.249513E+04
       184   9 -6.486454E+05 -2.354000E+05 -1.920642E+05 -6.591225E+04 -3.782110E+04 -3.606719E+04
       184  10  1.120492E+06  1.855985E+05  1.925144E+05 -6.900070E+04 -4.498674E-10  1.105849E-09
       184  11  1.247372E+06  2.164821E+05  2.328819E+05 -3.154190E+04  2.876689E-10 -5.289445E-10
       184  12  1.381303E+06  2.662429E+05  2.870242E+05 -7.582859E+04 -2.882821E-10 -6.657649E-10
       184  13  3.659136E+05 -7.771326E+02  1.453990E+04 -7.087087E+04 -1.055640E-09  7.074964E-10
       184  14  3.624679E+05 -1.999375E+03  2.456155E+04 -2.999289E+04 -2.980249E-09  3.051063E-10
       184  15  3.658546E+05  1.545732E+04  4.751297E+04 -7.086693E+04 -5.806487E-11 -7.517373E-10
       184  16 -3.881414E+05 -1.871934E+05 -1.634738E+05 -7.273860E+04 -3.015931E-10  2.228274E-10
       184  17 -5.217171E+05 -2.205367E+05 -1.838127E+05 -2.844598E+04 -6.648143E-10 -2.300145E-10
       184  18 -6.486472E+05 -2.354018E+05 -1.920694E+05 -6.591335E+04 -6.452862E-10 -9.769587E-10
       184  19  1.120492E+06  1.855993E+05  1.925158E+05 -6.900054E+04  7.310428E+03  2.688611E+04
       184  20  1.247373E+06  2.164834E+05  2.328847E+05 -3.154135E+04  2.107632E+04  3.249161E+04
       184  21  1.381305E+06  2.662446E+05  2.870289E+05 -7.582758E+04  3.483587E+04  3.605899E+04
       184  22  3.659140E+05 -7.763221E+02  1.454150E+04 -7.087062E+04  1.128864E+04  2.688432E+04
       184  23  3.624688E+05 -1.998089E+03  2.456460E+04 -2.999226E+04  2.381377E+04  3.249336E+04
       184  24  3.658564E+05  1.545907E+04  4.751790E+04 -7.086588E+04  3.632971E+04  3.606307E+04
       184  25 -3.881409E+05 -1.871926E+05 -1.634720E+05 -7.273827E+04  1.526204E+04  2.688250E+04
       184  26 -5.217161E+05 -2.205354E+05 -1.838094E+05 -2.844528E+04  2.654732E+04  3.249513E+04
       184  27 -6.486454E+05 -2.354000E+05 -1.920642E+05 -6.591225E+04  3.782110E+04  3.606719E+04
       185   1  1.540009E+06  2.773758E+05  3.317932E+05 -4.607746E+04 -3.331164E+04 -4.396604E+04
       185   2  1.641125E+06  2.996684E+05  3.996127E+05 -4.797652E+04 -1.049457E+05 -4.690444E+04
       185   3  1.804282E+06  5.269478E+05  5.655411E+05 -1.316466E+05 -1.766457E+05 -1.577432E+04
       185   4  3.772789E+05 -9.563701E+03  5.861258E+04 -7.081308E+04 -4.524424E+04 -4.397288E+04
       185   5  3.479367E+05 -1.955562E+04  9.499909E+04 -3.004180E+04 -9.630167E+04 -4.690637E+04
       185   6  3.771740E+05  1.720948E+05  2.153495E+05 -7.103985E+04 -1.474072E+05 -1.574974E+04
       185   7 -7.842077E+05 -2.965971E+05 -2.146599E+05 -9.550220E+04 -5.715461E+04 -4.397877E+04
       185   8 -9.437157E+05 -3.388976E+05 -2.097292E+05 -1.214489E+04 -8.767532E+04 -4.690781E+04
       185   9 -1.048074E+06 -1.828946E+05 -1.349863E+05 -1.057291E+04 -1.182353E+05 -1.571946E+04
       185  10  1.540007E+06  2.773734E+05  3.317875E+05 -4.607863E+04 -8.386770E-10 -2.993844E-10
       185  11  1.641113E+06  2.996630E+05  3.995880E+05 -4.798048E+04 -4.518958E-10  3.256728E-10
       185  12  1.804248E+06  5.269392E+05  5.654822E+05 -1.316489E+05  4.570303E-10 -2.023253E-10
       185  13  3.772762E+05 -9.566327E+03  5.860510E+04 -7.081468E+04 -1.501139E-09  1.111389E-10
       185  14  3.479261E+05 -1.956047E+04  9.497753E+04 -3.004544E+04 -1.157377E-09  1.587502E-09
       185  15  3.771506E+05  1.720887E+05  2.153082E+05 -7.104172E+04  7.106086E-10  1.141619E-11
       185  16 -7.842117E+05 -2.966001E+05 -2.146697E+05 -9.550423E+04 -9.154019E-11 -1.114325E-10
       185  17 -9.437246E+05 -3.389021E+05 -2.097478E+05 -1.214820E+04 -2.056182E-10  7.923290E-10
       185  18 -1.048089E+06 -1.828987E+05 -1.350131E+05 -1.057441E+04 -8.914046E-10 -1.999210E-10
       185  19  1.540009E+06  2.773758E+05  3.317932E+05 -4.607746E+04  3.331164E+04  4.396604E+04
       185  20  1.641125E+06  2.996684E+05  3.996127E+05 -4.797652E+04  1.049457E+05  4.690444E+04
       185  21  1.804282E+06  5.269478E+05  5.655411E+05 -1.316466E+05  1.766457E+05  1.577432E+04
       185  22  3.772789E+05 -9.563701E+03  5.861258E+04 -7.081308E+04  4.524424E+04  4.397288E+04
       185  23  3.479367E+05 -1.955562E+04  9.499909E+04 -3.004180E+04  9.630167E+04  4.690637E+04
       185  24  3.771740E+05  1.720948E+05  2.153495E+05 -7.103985E+04  1.474072E+05  1.574974E+04
       185  25 -7.842077E+05 -2.965971E+05 -2.146599E+05 -9.550220E+04  5.715461E+04  4.397877E+04
       185  26 -9.437157E+05 -3.388976E+05 -2.097292E+05 -1.214489E+04  8.767532E+04  4.690781E+04
       185  27 -1.048074E+06 -1.828946E+05 -1.349863E+05 -1.057291E+04  1.182353E+05  1.571946E+04
       186   1  2.028435E+05  5.981177E+05  2.290135E+05 -1.669722E+05  2.316174E+03  9.731100E+04
       186   2  2.061806E+04  3.481876E+05  9.453094E+04 -6.625860E+04  4.415275E+03  5.662754E+04
       186   3 -2.909190E+04  1.355309E+05  1.939793E+04 -1.101321E+05 -4.606976E+03  1.592113E+04
       186   4  1.118613E+05  2.345596E+05  1.391435E+05 -1.258735E+05  2.338168E+03  9.277359E+04
       186   5 -1.203263E+04  2.165253E+05  6.340802E+04 -5.378006E+04  4.409009E+03  5.878444E+04
       186   6 -4.548522E+03  2.345827E+05  4.240540E+04 -1.262645E+05 -4.638904E+03  2.475730E+04
       186   7  2.087548E+04 -1.288750E+05  4.926463E+04 -8.479887E+04  2.359569E+03  8.823881E+04
       186   8 -4.468399E+04  8.487937E+04  3.228400E+04 -4.130417E+04  4.402830E+03  6.094088E+04
       186   9  1.999517E+04  3.336443E+05  6.541263E+04 -1.423995E+05 -4.671289E+03  3.359486E+04
       186  10  2.028409E+05  5.981075E+05  2.289957E+05 -1.669723E+05  7.232080E-10  9.016774E-10
       186  11  2.061718E+04  3.481841E+05  9.452488E+04 -6.625880E+04 -1.699546E-09  1.338263E-09
       186  12 -2.909199E+04  1.355306E+05  1.939742E+04 -1.101320E+05 -4.613162E-10 -8.831124E-10
       186  13  1.118590E+05  2.345503E+05  1.391273E+05 -1.258737E+05  2.998498E-09 -1.772456E-09
       186  14 -1.203358E+04  2.165216E+05  6.340149E+04 -5.378027E+04  9.228936E-10  3.238910E-11
       186  15 -4.548709E+03  2.345820E+05  4.240420E+04 -1.262644E+05  8.299595E-11 -4.408522E-10
       186  16  2.087339E+04 -1.288833E+05  4.924998E+04 -8.479904E+04  1.270039E-09 -1.194413E-09
       186  17 -4.468501E+04  8.487538E+04  3.227698E+04 -4.130438E+04  5.071167E-09 -2.598643E-09
       186  18  1.999485E+04  3.336430E+05  6.541047E+04 -1.423994E+05 -5.364713E-11  6.918351E-10
       186  19  2.028435E+05  5.981177E+05  2.290135E+05 -1.669722E+05 -2.316174E+03 -9.731100E+04
       186  20  2.061806E+04  3.481876E+05  9.453094E+04 -6.625860E+04 -4.415275E+03 -5.662754E+04
       186  21 -2.909190E+04  1.355309E+05  1.939793E+04 -1.101321E+05  4.606976E+03 -1.592113E+04
       186  22  1.118613E+05  2.345596E+05  1.391435E+05 -1.258735E+05 -2.338168E+03 -9.277359E+04
       186  23 -1.203263E+04  2.165253E+05  6.340802E+04 -5.378006E+04 -4.409009E+03 -5.878444E+04
       186  24 -4.548522E+03  2.345827E+05  4.240540E+04 -1.262645E+05  4.638904E+03 -2.475730E+04
       186  25  2.087548E+04 -1.288750E+05  4.926463E+04 -8.479887E+04 -2.359569E+03 -8.823881E+04
       186  26 -4.468399E+04  8.487937E+04  3.228400E+04 -4.130417E+04 -4.402830E+03 -6.094088E+04
       186  27  1.999517E+04  3.336443E+05  6.541263E+04 -1.423995E+05  4.671289E+03 -3.359486E+04
       187   1 -7.815333E+04 -1.309649E+05 -4.804738E+04 -1.296060E+05 -1.237611E+04  1.192477E+04
       187   2 -1.476686E+05 -3.654858E+05 -1.123919E+05 -5.254664E+04 -2.169324E+04 -7.424485E+02
       187   3 -1.960610E+05 -5.938381E+05 -1.633961E+05 -1.207105E+05 -2.939496E+04 -1.339015E+04
       187   4  1.056893E+04  2.279253E+05  3.684637E+04 -1.262734E+05 -1.239697E+04  1.803325E+04
       187   5 -1.785041E+03  2.247517E+05  2.670725E+04 -5.367340E+04 -2.170800E+04  4.387806E+03
       187   6  7.147454E+03  2.278623E+05  3.058475E+04 -1.262865E+05 -2.940432E+04 -9.242746E+03
       187   7  9.928203E+04  5.869339E+05  1.217313E+05 -1.229388E+05 -1.241775E+04  2.414525E+04
       187   8  1.440736E+05  8.153097E+05  1.657825E+05 -5.480097E+04 -2.172277E+04  9.522911E+03
       187   9  2.103077E+05  1.050184E+06  2.245190E+05 -1.318694E+05 -2.941375E+04 -5.089868E+03
       187  10 -7.815353E+04 -1.309651E+05 -4.804793E+04 -1.296059E+05 -1.415488E-09  1.386014E-09
       187  11 -1.476691E+05 -3.654859E+05 -1.123928E+05 -5.254666E+04  6.017200E-10  1.214481E-09
       187  12 -1.960620E+05 -5.938385E+05 -1.633981E+05 -1.207108E+05 -5.293308E-12 -3.935711E-10
       187  13  1.056868E+04  2.279249E+05  3.684547E+04 -1.262732E+05 -9.813677E-10 -1.735011E-09
       187  14 -1.785552E+03  2.247515E+05  2.670633E+04 -5.367332E+04  5.375938E-10 -2.683476E-11
       187  15  7.146503E+03  2.278620E+05  3.058297E+04 -1.262867E+05 -5.886583E-10 -3.933699E-10
       187  16  9.928171E+04  5.869332E+05  1.217300E+05 -1.229385E+05 -1.405743E-09 -1.816416E-09
       187  17  1.440731E+05  8.153095E+05  1.657814E+05 -5.480081E+04 -1.618733E-09 -2.434089E-09
       187  18  2.103068E+05  1.050184E+06  2.245173E+05 -1.318695E+05  2.829475E-10  3.514884E-10
       187  19 -7.815333E+04 -1.309649E+05 -4.804738E+04 -1.296060E+05  1.237611E+04 -1.192477E+04
       187  20 -1.476686E+05 -3.654858E+05 -1.123919E+05 -5.254664E+04  2.169324E+04  7.424485E+02
       187  21 -1.960610E+05 -5.938381E+05 -1.633961E+05 -1.207105E+05  2.939496E+04  1.339015E+04
       187  22  1.056893E+04  2.279253E+05  3.684637E+04 -1.262734E+05  1.239697E+04 -1.803325E+04
       187  23 -1.785041E+03  2.247517E+05  2.670725E+04 -5.367340E+04  2.170800E+04 -4.387806E+03
       187  24  7.147454E+03  2.278623E+05  3.058475E+04 -1.262865E+05  2.940432E+04  9.242746E+03
       187  25  9.928203E+04  5.869339E+05  1.217313E+05 -1.229388E+05  1.241775E+04 -2.414525E+04
       187  26  1.440736E+05  8.153097E+05  1.657825E+05 -5.480097E+04  2.172277E+04 -9.522911E+03
       187  27  2.103077E+05  1.050184E+06  2.245190E+05 -1.318694E+05  2.941375E+04  5.089868E+03
       188   1 -2.702484E+05 -8.495769E+05 -2.212168E+05 -1.354404E+05 -4.049631E+04 -3.032966E+04
       188   2 -3.336888E+05 -1.093772E+06 -2.632667E+05 -4.337432E+04 -4.746149E+04 -3.228348E+04
       188   3 -3.065936E+05 -1.314262E+06 -2.812539E+05 -9.586172E+04 -1.622817E+04 -3.417717E+04
       188   4 -2.867628E+03  2.324657E+05  3.353264E+04 -1.261794E+05 -4.053311E+04 -1.472774E+04
       188   5 -9.081131E+03  2.186031E+05  4.644648E+04 -5.385289E+04 -4.744028E+04 -3.961047E+04
       188   6  7.912151E+04  2.323173E+05  9.930259E+04 -1.260545E+05 -1.618457E+04 -6.443430E+04
       188   7  2.644301E+05  1.315587E+06  2.882025E+05 -1.169013E+05 -4.056940E+04  9.012546E+02
       188   8  3.154037E+05  1.532564E+06  3.560409E+05 -6.435294E+04 -4.741885E+04 -4.695282E+04
       188   9  4.646624E+05  1.781080E+06  4.796866E+05 -1.563218E+05 -1.613809E+04 -9.476664E+04
       188  10 -2.702504E+05 -8.495783E+05 -2.212216E+05 -1.354414E+05 -3.463297E-12  1.115864E-09
       188  11 -3.336915E+05 -1.093774E+06 -2.632729E+05 -4.337556E+04  2.348740E-09  1.276177E-09
       188  12 -3.065942E+05 -1.314264E+06 -2.812566E+05 -9.586217E+04  6.903699E-10 -4.793381E-10
       188  13 -2.869451E+03  2.324650E+05  3.352915E+04 -1.261799E+05  8.913541E-10 -1.367359E-09
       188  14 -9.083970E+03  2.186008E+05  4.643930E+04 -5.385440E+04  1.048066E-09  5.291545E-11
       188  15  7.912011E+04  2.323127E+05  9.929429E+04 -1.260553E+05  3.856545E-10 -1.203229E-10
       188  16  2.644283E+05  1.315587E+06  2.881994E+05 -1.169013E+05 -9.142800E-10 -1.235351E-09
       188  17  3.154007E+05  1.532561E+06  3.560326E+05 -6.435473E+04  6.087964E-10 -1.979647E-09
       188  18  4.646597E+05  1.781070E+06  4.796693E+05 -1.563230E+05  8.703194E-10  2.768080E-10
       188  19 -2.702484E+05 -8.495769E+05 -2.212168E+05 -1.354404E+05  4.049631E+04  3.032966E+04
       188  20 -3.336888E+05 -1.093772E+06 -2.632667E+05 -4.337432E+04  4.746149E+04  3.228348E+04
       188  21 -3.065936E+05 -1.314262E+06 -2.812539E+05 -9.586172E+04  1.622817E+04  3.417717E+04
       188  22 -2.867628E+03  2.324657E+05  3.353264E+04 -1.261794E+05  4.053311E+04  1.472774E+04
       188  23 -9.081131E+03  2.186031E+05  4.644648E+04 -5.385289E+04  4.744028E+04  3.961047E+04
       188  24  7.912151E+04  2.323173E+05  9.930259E+04 -1.260545E+05  1.618457E+04  6.443430E+04
       188  25  2.644301E+05  1.315587E+06  2.882025E+05 -1.169013E+05  4.056940E+04 -9.012546E+02
       188  26  3.154037E+05  1.532564E+06  3.560409E+05 -6.435294E+04  4.741885E+04  4.695282E+04
       188  27  4.646624E+05  1.781080E+06  4.796866E+05 -1.563218E+05  1.613809E+04  9.476664E+04
       189   1 -3.648413E+06 -1.289582E+06 -8.284340E+05 -1.279792E+06 -3.391804E+05 -1.113230E+05
       189   2 -3.533561E+06 -7.818341E+05 -5.111040E+05 -1.288481E+06 -2.216842E+05 -3.230256E+04
       189   3 -3.556989E+06 -7.414614E+05 -4.072896E+05 -1.230805E+06 -9.199364E+04  1.453547E+04
       189   4 -2.477174E+06 -7.238331E+05 -4.858246E+05 -8.355780E+05 -3.136716E+05 -1.017575E+05
       189   5 -2.384009E+06 -3.122975E+05 -2.042809E+05 -9.365790E+05 -2.139760E+05 -2.941485E+04
       189   6 -2.425275E+06 -3.641315E+05 -1.217871E+05 -9.713035E+05 -1.021062E+05  1.072726E+04
       189   7 -1.304561E+06 -1.577276E+05 -1.433461E+05 -3.905161E+05 -2.881092E+05 -9.215912E+04
       189   8 -1.233163E+06  1.573872E+05  1.024259E+05 -5.840613E+05 -2.062517E+05 -2.651993E+04
       189   9 -1.292316E+06  1.321376E+04  1.636151E+05 -7.114031E+05 -1.122390E+05  6.913465E+03
       189  10 -3.648541E+06 -1.289627E+06 -8.286750E+05 -1.279822E+06  4.117410E-10 -1.179056E-10
       189  11 -3.533614E+06 -7.818485E+05 -5.111989E+05 -1.288487E+06 -9.824116E-10 -2.069559E-10
       189  12 -3.556999E+06 -7.414639E+05 -4.073060E+05 -1.230804E+06 -7.323202E-10 -7.873259E-10
       189  13 -2.477283E+06 -7.238708E+05 -4.860299E+05 -8.356038E+05  1.260010E-09 -1.467319E-09
       189  14 -2.384059E+06 -3.123108E+05 -2.043689E+05 -9.365841E+05 -7.413459E-10 -1.107296E-09
       189  15 -2.425287E+06 -3.641344E+05 -1.218070E+05 -9.713026E+05  8.421686E-10 -1.154149E-09
       189  16 -1.304653E+06 -1.577591E+05 -1.435184E+05 -3.905375E+05  3.501749E-10  3.904952E-10
       189  17 -1.233209E+06  1.573750E+05  1.023445E+05 -5.840658E+05  1.821506E-09  6.015515E-10
       189  18 -1.292329E+06  1.321032E+04  1.635913E+05 -7.114024E+05  1.249854E-09  5.978144E-10
       189  19 -3.648413E+06 -1.289582E+06 -8.284340E+05 -1.279792E+06  3.391804E+05  1.113230E+05
       189  20 -3.533561E+06 -7.818341E+05 -5.111040E+05 -1.288481E+06  2.216842E+05  3.230256E+04
       189  21 -3.556989E+06 -7.414614E+05 -4.072896E+05 -1.230805E+06  9.199364E+04 -1.453547E+04
       189  22 -2.477174E+06 -7.238331E+05 -4.858246E+05 -8.355780E+05  3.136716E+05  1.017575E+05
       189  23 -2.384009E+06 -3.122975E+05 -2.042809E+05 -9.365790E+05  2.139760E+05  2.941485E+04
       189  24 -2.425275E+06 -3.641315E+05 -1.217871E+05 -9.713035E+05  1.021062E+05 -1.072726E+04
       189  25 -1.304561E+06 -1.577276E+05 -1.433461E+05 -3.905161E+05  2.881092E+05  9.215912E+04
       189  26 -1.233163E+06  1.573872E+05  1.024259E+05 -5.840613E+05  2.062517E+05  2.651993E+04
       189  27 -1.292316E+06  1.321376E+04  1.636151E+05 -7.114031E+05  1.122390E+05 -6.913465E+03
       190   1 -3.392275E+06 -7.942275E+05 -3.578178E+05 -1.224527E+06 -8.216696E+04  1.057361E+04
       190   2 -3.317026E+06 -6.929739E+05 -2.827279E+05 -1.178844E+06 -5.531445E+04  1.838610E+04
       190   3 -3.215260E+06 -6.783148E+05 -2.383361E+05 -1.174072E+06 -2.760654E+04  2.391674E+04
       190   4 -2.408449E+06 -4.133567E+05 -9.860287E+04 -9.449379E+05 -8.272976E+04  1.035543E+04
       190   5 -2.419314E+06 -3.527153E+05 -4.814151E+04 -9.310329E+05 -5.711406E+04  1.770553E+04
       190   6 -2.403399E+06 -3.783786E+05 -2.735578E+04 -9.580432E+05 -3.064761E+04  2.277307E+04
       190   7 -1.423676E+06 -3.240915E+04  1.605297E+05 -6.649393E+05 -8.329347E+04  1.013689E+04
       190   8 -1.520815E+06 -1.240233E+04  1.863770E+05 -6.828949E+05 -5.891649E+04  1.702388E+04
       190   9 -1.590896E+06 -7.840725E+04  1.835694E+05 -7.417608E+05 -3.369304E+04  2.162782E+04
       190  10 -3.392282E+06 -7.942294E+05 -3.578308E+05 -1.224527E+06 -9.616431E-10 -4.006639E-10
       190  11 -3.317029E+06 -6.929751E+05 -2.827343E+05 -1.178843E+06 -3.610122E-09 -1.178825E-09
       190  12 -3.215261E+06 -6.783156E+05 -2.383386E+05 -1.174071E+06 -1.174002E-09 -1.128421E-09
       190  13 -2.408457E+06 -4.133587E+05 -9.861598E+04 -9.449372E+05 -1.455481E-09 -8.274437E-10
       190  14 -2.419318E+06 -3.527165E+05 -4.814824E+04 -9.310321E+05 -2.952866E-09 -1.435085E-09
       190  15 -2.403400E+06 -3.783794E+05 -2.735852E+04 -9.580427E+05 -9.805152E-10 -1.375161E-09
       190  16 -1.423683E+06 -3.241113E+04  1.605164E+05 -6.649387E+05 -1.579514E-09 -4.929593E-10
       190  17 -1.520819E+06 -1.240358E+04  1.863699E+05 -6.828941E+05 -3.556271E-09 -1.493698E-09
       190  18 -1.590897E+06 -7.840806E+04  1.835664E+05 -7.417603E+05 -2.016909E-10 -9.193977E-10
       190  19 -3.392275E+06 -7.942275E+05 -3.578178E+05 -1.224527E+06  8.216696E+04 -1.057361E+04
       190  20 -3.317026E+06 -6.929739E+05 -2.827279E+05 -1.178844E+06  5.531445E+04 -1.838610E+04
       190  21 -3.215260E+06 -6.783148E+05 -2.383361E+05 -1.174072E+06  2.760654E+04 -2.391674E+04
       190  22 -2.408449E+06 -4.133567E+05 -9.860287E+04 -9.449379E+05  8.272976E+04 -1.035543E+04
       190  23 -2.419314E+06 -3.527153E+05 -4.814151E+04 -9.310329E+05  5.711406E+04 -1.770553E+04
       190  24 -2.403399E+06 -3.783786E+05 -2.735578E+04 -9.580432E+05  3.064761E+04 -2.277307E+04
       190  25 -1.423676E+06 -3.240915E+04  1.605297E+05 -6.649393E+05  8.329347E+04 -1.013689E+04
       190  26 -1.520815E+06 -1.240233E+04  1.863770E+05 -6.828949E+05  5.891649E+04 -1.702388E+04
       190  27 -1.590896E+06 -7.840725E+04  1.835694E+05 -7.417608E+05  3.369304E+04 -2.162782E+04
       191   1 -3.093023E+06 -6.442779E+05 -2.014723E+05 -1.145506E+06 -2.320337E+04  2.222724E+04
       191   2 -3.017132E+06 -5.784691E+05 -1.657796E+05 -1.091089E+06 -1.574056E+04  1.990210E+04
       191   3 -2.894751E+06 -5.651252E+05 -1.354161E+05 -1.091300E+06 -8.189847E+03  1.732715E+04
       191   4 -2.400797E+06 -3.837585E+05 -2.123407E+04 -9.562249E+05 -2.565774E+04  2.130490E+04
       191   5 -2.423788E+06 -3.558037E+05 -1.117748E+04 -9.295540E+05 -1.832809E+04  1.893159E+04
       191   6 -2.400272E+06 -3.802820E+05 -6.338787E+03 -9.575106E+05 -1.091157E+04  1.630824E+04
       191   7 -1.708106E+06 -1.232096E+05  1.589632E+05 -7.667529E+05 -2.811510E+04  2.038143E+04
       191   8 -1.830102E+06 -1.331166E+05  1.433950E+05 -7.678785E+05 -2.091833E+04  1.796006E+04
       191   9 -1.905553E+06 -1.954238E+05  1.227184E+05 -8.236247E+05 -1.363568E+04  1.528844E+04
       191  10 -3.093024E+06 -6.442785E+05 -2.014742E+05 -1.145505E+06 -1.563302E-10 -8.518842E-10
       191  11 -3.017133E+06 -5.784696E+05 -1.657809E+05 -1.091089E+06 -3.042376E-10  4.843346E-10
       191  12 -2.894751E+06 -5.651256E+05 -1.354168E+05 -1.091299E+06  9.590353E-10  1.259079E-09
       191  13 -2.400798E+06 -3.837592E+05 -2.123616E+04 -9.562244E+05  1.184074E-10 -7.695712E-10
       191  14 -2.423789E+06 -3.558042E+05 -1.117878E+04 -9.295537E+05  2.413873E-09  1.085353E-09
       191  15 -2.400272E+06 -3.802824E+05 -6.339510E+03 -9.575104E+05 -1.969545E-10  1.135212E-09
       191  16 -1.708107E+06 -1.232103E+05  1.589609E+05 -7.667525E+05  1.426550E-09 -6.960725E-10
       191  17 -1.830102E+06 -1.331170E+05  1.433936E+05 -7.678782E+05 -5.937528E-10 -2.740696E-10
       191  18 -1.905554E+06 -1.954241E+05  1.227176E+05 -8.236245E+05 -6.579132E-10 -3.268975E-10
       191  19 -3.093023E+06 -6.442779E+05 -2.014723E+05 -1.145506E+06  2.320337E+04 -2.222724E+04
       191  20 -3.017132E+06 -5.784691E+05 -1.657796E+05 -1.091089E+06  1.574056E+04 -1.990210E+04
       191  21 -2.894751E+06 -5.651252E+05 -1.354161E+05 -1.091300E+06  8.189847E+03 -1.732715E+04
       191  22 -2.400797E+06 -3.837585E+05 -2.123407E+04 -9.562249E+05  2.565774E+04 -2.130490E+04
       191  23 -2.423788E+06 -3.558037E+05 -1.117748E+04 -9.295540E+05  1.832809E+04 -1.893159E+04
       191  24 -2.400272E+06 -3.802820E+05 -6.338787E+03 -9.575106E+05  1.091157E+04 -1.630824E+04
       191  25 -1.708106E+06 -1.232096E+05  1.589632E+05 -7.667529E+05  2.811510E+04 -2.038143E+04
       191  26 -1.830102E+06 -1.331166E+05  1.433950E+05 -7.678785E+05  2.091833E+04 -1.796006E+04
       191  27 -1.905553E+06 -1.954238E+05  1.227184E+05 -8.236247E+05  1.363568E+04 -1.528844E+04
       192   1 -2.770924E+06 -5.202581E+05 -1.012708E+05 -1.058703E+06 -6.224806E+03  1.483659E+04
       192   2 -2.692168E+06 -4.557449E+05 -7.265876E+04 -1.001493E+06 -2.870355E+03  1.054607E+04
       192   3 -2.563264E+06 -4.421130E+05 -4.529519E+04 -1.002257E+06  5.029540E+02  6.197045E+03
       192   4 -2.399608E+06 -3.811775E+05 -4.945324E+03 -9.577764E+05 -8.932329E+03  1.382389E+04
       192   5 -2.424645E+06 -3.555560E+05 -3.004009E+03 -9.288538E+05 -5.609665E+03  9.522289E+03
       192   6 -2.399540E+06 -3.808080E+05 -2.284546E+03 -9.579071E+05 -2.268448E+03  5.162147E+03
       192   7 -2.028157E+06 -2.420884E+05  9.136865E+04 -8.567949E+05 -1.164163E+04  1.281053E+04
       192   8 -2.157053E+06 -2.553629E+05  6.664462E+04 -8.561861E+05 -8.350268E+03  8.498028E+03
       192   9 -2.235790E+06 -3.195017E+05  4.072369E+04 -9.135466E+05 -5.040645E+03  4.126952E+03
       192  10 -2.770924E+06 -5.202584E+05 -1.012713E+05 -1.058703E+06  3.556042E-10  6.125335E-10
       192  11 -2.692168E+06 -4.557451E+05 -7.265899E+04 -1.001493E+06  3.911804E-10  1.358164E-09
       192  12 -2.563264E+06 -4.421130E+05 -4.529526E+04 -1.002257E+06  8.319267E-10 -1.478672E-09
       192  13 -2.399608E+06 -3.811777E+05 -4.945833E+03 -9.577763E+05  1.191795E-10 -1.047609E-09
       192  14 -2.424645E+06 -3.555561E+05 -3.004238E+03 -9.288538E+05 -1.222725E-09 -4.100939E-10
       192  15 -2.399540E+06 -3.808081E+05 -2.284606E+03 -9.579071E+05  4.515609E-10 -1.361274E-09
       192  16 -2.028157E+06 -2.420886E+05  9.136809E+04 -8.567948E+05  4.907620E-10 -4.413867E-10
       192  17 -2.157053E+06 -2.553630E+05  6.664436E+04 -8.561860E+05  5.175929E-11  3.611237E-10
       192  18 -2.235790E+06 -3.195017E+05  4.072361E+04 -9.135466E+05 -5.098764E-10 -1.177802E-09
       192  19 -2.770924E+06 -5.202581E+05 -1.012708E+05 -1.058703E+06  6.224806E+03 -1.483659E+04
       192  20 -2.692168E+06 -4.557449E+05 -7.265876E+04 -1.001493E+06  2.870355E+03 -1.054607E+04
       192  21 -2.563264E+06 -4.421130E+05 -4.529519E+04 -1.002257E+06 -5.029540E+02 -6.197045E+03
       192  22 -2.399608E+06 -3.811775E+05 -4.945324E+03 -9.577764E+05  8.932329E+03 -1.382389E+04
       192  23 -2.424645E+06 -3.555560E+05 -3.004009E+03 -9.288538E+05  5.609665E+03 -9.522289E+03
       192  24 -2.399540E+06 -3.808080E+05 -2.284546E+03 -9.579071E+05  2.268448E+03 -5.162147E+03
       192  25 -2.028157E+06 -2.420884E+05  9.136865E+04 -8.567949E+05  1.164163E+04 -1.281053E+04
       192  26 -2.157053E+06 -2.553629E+05  6.664462E+04 -8.561861E+05  8.350268E+03 -8.498028E+03
       192  27 -2.235790E+06 -3.195017E+05  4.072369E+04 -9.135466E+05  5.040645E+03 -4.126952E+03
       193   1 -2.436982E+06 -3.949659E+05 -1.163255E+04 -9.683017E+05  1.960432E+03  3.450949E+03
       193   2 -2.357421E+06 -3.302059E+05  1.477848E+04 -9.104288E+05  5.172926E+03 -9.909010E+02
       193   3 -2.227274E+06 -3.167600E+05  4.006427E+04 -9.111374E+05  8.378968E+03 -5.412570E+03
       193   4 -2.399440E+06 -3.809280E+05 -2.245780E+03 -9.580317E+05 -8.173531E+02  2.413884E+03
       193   5 -2.424746E+06 -3.553972E+05 -2.743523E+03 -9.286913E+05  2.405964E+03 -2.024170E+03
       193   6 -2.399480E+06 -3.811847E+05 -4.375075E+03 -9.579379E+05  5.622554E+03 -6.442086E+03
       193   7 -2.361896E+06 -3.668900E+05  7.140950E+03 -9.477610E+05 -3.595331E+03  1.376747E+03
       193   8 -2.492066E+06 -3.805883E+05 -2.026590E+04 -9.469520E+05 -3.606742E+02 -3.057317E+03
       193   9 -2.571658E+06 -4.456076E+05 -4.881685E+04 -1.004727E+06  2.866980E+03 -7.471288E+03
       193  10 -2.436982E+06 -3.949659E+05 -1.163258E+04 -9.683017E+05 -8.038395E-11 -1.951212E-09
       193  11 -2.357421E+06 -3.302059E+05  1.477842E+04 -9.104288E+05 -2.410249E-11  8.648034E-10
       193  12 -2.227274E+06 -3.167600E+05  4.006408E+04 -9.111373E+05  8.902841E-10  1.207654E-09
       193  13 -2.399440E+06 -3.809280E+05 -2.245793E+03 -9.580317E+05  6.958736E-10 -1.044432E-09
       193  14 -2.424746E+06 -3.553972E+05 -2.743541E+03 -9.286913E+05 -1.049079E-09 -2.605862E-09
       193  15 -2.399480E+06 -3.811848E+05 -4.375212E+03 -9.579379E+05 -7.689525E-10  7.289232E-10
       193  16 -2.361896E+06 -3.668900E+05  7.140922E+03 -9.477610E+05  1.073179E-09  1.802630E-10
       193  17 -2.492066E+06 -3.805883E+05 -2.026592E+04 -9.469520E+05 -2.739033E-10 -2.692414E-10
       193  18 -2.571658E+06 -4.456077E+05 -4.881697E+04 -1.004727E+06 -1.286251E-09 -8.185564E-10
       193  19 -2.436982E+06 -3.949659E+05 -1.163255E+04 -9.683017E+05 -1.960432E+03 -3.450949E+03
       193  20 -2.357421E+06 -3.302059E+05  1.477848E+04 -9.104288E+05 -5.172926E+03  9.909010E+02
       193  21 -2.227274E+06 -3.167600E+05  4.006427E+04 -9.111374E+05 -8.378968E+03  5.412570E+03
       193  22 -2.399440E+06 -3.809280E+05 -2.245780E+03 -9.580317E+05  8.173531E+02 -2.413884E+03
       193  23 -2.424746E+06 -3.553972E+05 -2.743523E+03 -9.286913E+05 -2.405964E+03  2.024170E+03
       193  24 -2.399480E+06 -3.811847E+05 -4.375075E+03 -9.579379E+05 -5.622554E+03  6.442086E+03
       193  25 -2.361896E+06 -3.668900E+05  7.140950E+03 -9.477610E+05  3.595331E+03 -1.376747E+03
       193  26 -2.492066E+06 -3.805883E+05 -2.026590E+04 -9.469520E+05  3.606742E+02  3.057317E+03
       193  27 -2.571658E+06 -4.456076E+05 -4.881685E+04 -1.004727E+06 -2.866980E+03  7.471288E+03
       194   1 -2.102068E+06 -2.694573E+05  7.225301E+04 -8.775211E+05  1.029212E+04 -7.982314E+03
       194   2 -2.024184E+06 -2.054758E+05  9.438511E+04 -8.202847E+05  1.692341E+04 -1.104364E+04
       194   3 -1.898284E+06 -1.948264E+05  1.120109E+05 -8.195608E+05  2.348653E+04 -1.390772E+04
       194   4 -2.399923E+06 -3.805696E+05 -5.576505E+03 -9.578852E+05  7.513194E+03 -9.020730E+03
       194   5 -2.424139E+06 -3.553870E+05 -9.737565E+03 -9.290727E+05  1.425100E+04 -1.204351E+04
       194   6 -2.400372E+06 -3.835624E+05 -1.849138E+04 -9.567794E+05  2.091976E+04 -1.486927E+04
       194   7 -2.697690E+06 -4.916764E+05 -8.341323E+04 -1.038214E+06  4.735747E+03 -1.005860E+04
       194   8 -2.823939E+06 -5.052885E+05 -1.138737E+05 -1.037797E+06  1.158049E+04 -1.304268E+04
       194   9 -2.902215E+06 -5.722831E+05 -1.490152E+05 -1.093898E+06  1.835526E+04 -1.582998E+04
       194  10 -2.102068E+06 -2.694574E+05  7.225269E+04 -8.775211E+05 -6.086246E-10 -1.799813E-10
       194  11 -2.024184E+06 -2.054760E+05  9.438434E+04 -8.202845E+05 -6.268431E-10  7.488051E-10
       194  12 -1.898285E+06 -1.948268E+05  1.120095E+05 -8.195606E+05 -4.226502E-10 -5.953314E-10
       194  13 -2.399923E+06 -3.805697E+05 -5.576764E+03 -9.578852E+05  4.592634E-10  1.125407E-09
       194  14 -2.424139E+06 -3.553872E+05 -9.738219E+03 -9.290726E+05 -6.980051E-10 -9.140453E-10
       194  15 -2.400372E+06 -3.835628E+05 -1.849262E+04 -9.567791E+05  3.685704E-10  4.463372E-10
       194  16 -2.697690E+06 -4.916765E+05 -8.341347E+04 -1.038214E+06  7.740686E-10 -6.218064E-11
       194  17 -2.823939E+06 -5.052887E+05 -1.138742E+05 -1.037797E+06  4.081712E-10  2.096528E-09
       194  18 -2.902216E+06 -5.722835E+05 -1.490163E+05 -1.093897E+06  8.015741E-10  1.659625E-09
       194  19 -2.102068E+06 -2.694573E+05  7.225301E+04 -8.775211E+05 -1.029212E+04  7.982314E+03
       194  20 -2.024184E+06 -2.054758E+05  9.438511E+04 -8.202847E+05 -1.692341E+04  1.104364E+04
       194  21 -1.898284E+06 -1.948264E+05  1.120109E+05 -8.195608E+05 -2.348653E+04  1.390772E+04
       194  22 -2.399923E+06 -3.805696E+05 -5.576505E+03 -9.578852E+05 -7.513194E+03  9.020730E+03
       194  23 -2.424139E+06 -3.553870E+05 -9.737565E+03 -9.290727E+05 -1.425100E+04  1.204351E+04
       194  24 -2.400372E+06 -3.835624E+05 -1.849138E+04 -9.567794E+05 -2.091976E+04  1.486927E+04
       194  25 -2.697690E+06 -4.916764E+05 -8.341323E+04 -1.038214E+06 -4.735747E+03  1.005860E+04
       194  26 -2.823939E+06 -5.052885E+05 -1.138737E+05 -1.037797E+06 -1.158049E+04  1.304268E+04
       194  27 -2.902215E+06 -5.722831E+05 -1.490152E+05 -1.093898E+06 -1.835526E+04  1.582998E+04
       195   1 -1.776396E+06 -1.485672E+05  1.386939E+05 -7.926302E+05  2.852841E+04 -1.544596E+04
       195   2 -1.702434E+06 -8.084635E+04  1.454975E+05 -7.321764E+05  5.075137E+04 -1.225240E+04
       195   3 -1.597012E+06 -9.615923E+04  1.273211E+05 -7.168511E+05  7.223471E+04 -7.058674E+03
       195   4 -2.402551E+06 -3.789848E+05 -2.381735E+04 -9.584714E+05  2.543574E+04 -1.660533E+04
       195   5 -2.420348E+06 -3.525638E+05 -4.186656E+04 -9.302151E+05  4.875361E+04 -1.300412E+04
       195   6 -2.406927E+06 -4.094275E+05 -8.578914E+04 -9.470937E+05  7.132806E+04 -7.403406E+03
       195   7 -3.028325E+06 -6.093822E+05 -1.863613E+05 -1.124163E+06  2.234649E+04 -1.776347E+04
       195   8 -3.137759E+06 -6.242465E+05 -2.292739E+05 -1.128045E+06  4.675837E+04 -1.375488E+04
       195   9 -3.216201E+06 -7.226436E+05 -2.989549E+05 -1.177059E+06  7.042267E+04 -7.747639E+03
       195  10 -1.776397E+06 -1.485677E+05  1.386919E+05 -7.926298E+05 -8.700001E-10 -8.308389E-10
       195  11 -1.702437E+06 -8.084721E+04  1.454924E+05 -7.321759E+05 -9.518918E-11 -8.217431E-10
       195  12 -1.597017E+06 -9.616069E+04  1.273112E+05 -7.168507E+05  3.491571E-10 -7.374288E-10
       195  13 -2.402552E+06 -3.789853E+05 -2.381909E+04 -9.584711E+05  2.397965E-10  5.529529E-10
       195  14 -2.420351E+06 -3.525646E+05 -4.187135E+04 -9.302146E+05  5.414385E-10  5.682120E-10
       195  15 -2.406933E+06 -4.094289E+05 -8.579884E+04 -9.470933E+05 -1.064665E-10 -6.640958E-10
       195  16 -3.028326E+06 -6.093827E+05 -1.863628E+05 -1.124162E+06  7.351882E-10  9.905254E-10
       195  17 -3.137761E+06 -6.242473E+05 -2.292784E+05 -1.128045E+06  5.960241E-10  4.160218E-10
       195  18 -3.216207E+06 -7.226450E+05 -2.989644E+05 -1.177059E+06  3.778407E-10 -4.375937E-10
       195  19 -1.776396E+06 -1.485672E+05  1.386939E+05 -7.926302E+05 -2.852841E+04  1.544596E+04
       195  20 -1.702434E+06 -8.084635E+04  1.454975E+05 -7.321764E+05 -5.075137E+04  1.225240E+04
       195  21 -1.597012E+06 -9.615923E+04  1.273211E+05 -7.168511E+05 -7.223471E+04  7.058674E+03
       195  22 -2.402551E+06 -3.789848E+05 -2.381735E+04 -9.584714E+05 -2.543574E+04  1.660533E+04
       195  23 -2.420348E+06 -3.525638E+05 -4.186656E+04 -9.302151E+05 -4.875361E+04  1.300412E+04
       195  24 -2.406927E+06 -4.094275E+05 -8.578914E+04 -9.470937E+05 -7.132806E+04  7.403406E+03
       195  25 -3.028325E+06 -6.093822E+05 -1.863613E+05 -1.124163E+06 -2.234649E+04  1.776347E+04
       195  26 -3.137759E+06 -6.242465E+05 -2.292739E+05 -1.128045E+06 -4.675837E+04  1.375488E+04
       195  27 -3.216201E+06 -7.226436E+05 -2.989549E+05 -1.177059E+06 -7.042267E+04  7.747639E+03
       196   1 -1.462209E+06 -4.872338E+04  1.354599E+05 -7.518140E+05  9.775489E+04 -4.758278E+03
       196   2 -1.397340E+06  8.710695E+04  8.668712E+04 -6.315071E+05  1.795982E+05  2.335134E+04
       196   3 -1.437729E+06 -1.852387E+05 -1.225517E+05 -4.635388E+05  2.507429E+05  7.990852E+04
       196   4 -2.421568E+06 -3.666016E+05 -1.059576E+05 -9.700245E+05  8.838907E+04 -8.273743E+03
       196   5 -2.389697E+06 -3.173451E+05 -1.776996E+05 -9.349799E+05  1.860283E+05  2.575547E+04
       196   6 -2.466476E+06 -6.798085E+05 -4.226674E+05 -8.522273E+05  2.729521E+05  8.822745E+04
       196   7 -3.380037E+06 -6.844709E+05 -3.474471E+05 -1.187952E+06  7.903905E+04 -1.178489E+04
       196   8 -3.381090E+06 -7.216867E+05 -4.421722E+05 -1.237995E+06  1.924469E+05  2.815443E+04
       196   9 -3.494159E+06 -1.174105E+06 -7.228816E+05 -1.240264E+06  2.951203E+05  9.652136E+04
       196  10 -1.462219E+06 -4.872597E+04  1.354418E+05 -7.518136E+05 -1.654044E-09 -9.331132E-10
       196  11 -1.397374E+06  8.709768E+04  8.662533E+04 -6.315105E+05 -1.762915E-09  1.245891E-09
       196  12 -1.437799E+06 -1.852625E+05 -1.226822E+05 -4.635549E+05  8.491424E-10  7.626030E-10
       196  13 -2.421577E+06 -3.666038E+05 -1.059724E+05 -9.700239E+05 -1.009323E-09  5.469361E-11
       196  14 -2.389735E+06 -3.173552E+05 -1.777662E+05 -9.349838E+05 -3.958161E-09  2.103235E-09
       196  15 -2.466558E+06 -6.798370E+05 -4.228227E+05 -8.522467E+05 -8.470726E-11  2.602310E-11
       196  16 -3.380043E+06 -6.844728E+05 -3.474592E+05 -1.187952E+06  8.965696E-10  4.224558E-10
       196  17 -3.381130E+06 -7.216975E+05 -4.422437E+05 -1.237999E+06 -1.872354E-09  2.285142E-09
       196  18 -3.494255E+06 -1.174138E+06 -7.230640E+05 -1.240287E+06 -1.182565E-09  6.002428E-11
       196  19 -1.462209E+06 -4.872338E+04  1.354599E+05 -7.518140E+05 -9.775489E+04  4.758278E+03
       196  20 -1.397340E+06  8.710695E+04  8.668712E+04 -6.315071E+05 -1.795982E+05 -2.335134E+04
       196  21 -1.437729E+06 -1.852387E+05 -1.225517E+05 -4.635388E+05 -2.507429E+05 -7.990852E+04
       196  22 -2.421568E+06 -3.666016E+05 -1.059576E+05 -9.700245E+05 -8.838907E+04  8.273743E+03
       196  23 -2.389697E+06 -3.173451E+05 -1.776996E+05 -9.349799E+05 -1.860283E+05 -2.575547E+04
       196  24 -2.466476E+06 -6.798085E+05 -4.226674E+05 -8.522273E+05 -2.729521E+05 -8.822745E+04
       196  25 -3.380037E+06 -6.844709E+05 -3.474471E+05 -1.187952E+06 -7.903905E+04  1.178489E+04
       196  26 -3.381090E+06 -7.216867E+05 -4.421722E+05 -1.237995E+06 -1.924469E+05 -2.815443E+04
       196  27 -3.494159E+06 -1.174105E+06 -7.228816E+05 -1.240264E+06 -2.951203E+05 -9.652136E+04
       197   1  2.625147E+05  8.819001E+04  1.609557E+05  6.805473E+04  2.253360E+05  8.970455E+03
       197   2  2.791964E+05 -2.084907E+05 -1.324915E+04  1.707139E+04  1.527943E+05  2.618542E+04
       197   3  3.878445E+05 -1.773542E+05 -5.815126E+04 -7.281695E+04  8.027177E+04  2.492372E+04
       197   4  1.043270E+06  2.821108E+05  3.525657E+05 -3.267901E+04  2.415109E+05  8.960014E+03
       197   5  9.964566E+05 -3.142692E+04  1.557676E+05 -1.300208E+04  1.577772E+05  2.618246E+04
       197   6  1.043425E+06 -1.543014E+04  9.592213E+04 -3.222643E+04  7.407191E+04  2.492121E+04
       197   7  1.824602E+06  4.760250E+05  5.441376E+05 -1.335398E+05  2.577059E+05  8.944352E+03
       197   8  1.714192E+06  1.456036E+05  3.247495E+05 -4.311063E+04  1.627657E+05  2.617903E+04
       197   9  1.699404E+06  1.464695E+05  2.499671E+05  8.407094E+03  6.786551E+04  2.491789E+04
       197  10  2.624602E+05  8.817630E+04  1.608602E+05  6.805310E+04 -1.073446E-09  7.134929E-10
       197  11  2.791712E+05 -2.084977E+05 -1.329429E+04  1.706817E+04 -1.661394E-10 -1.245254E-10
       197  12  3.878374E+05 -1.773566E+05 -5.816453E+04 -7.281856E+04  2.670738E-10  5.998203E-10
       197  13  1.043207E+06  2.820951E+05  3.524562E+05 -3.268075E+04 -5.477137E-10  2.106865E-10
       197  14  9.964297E+05 -3.143433E+04  1.557196E+05 -1.300541E+04  3.411952E-09 -1.470714E-09
       197  15  1.043419E+06 -1.543228E+04  9.591067E+04 -3.222792E+04 -1.627787E-09  4.009033E-10
       197  16  1.824531E+06  4.760071E+05  5.440130E+05 -1.335416E+05  1.222671E-09 -9.687123E-11
       197  17  1.714163E+06  1.455958E+05  3.246986E+05 -4.311406E+04  9.235972E-11 -3.896918E-11
       197  18  1.699399E+06  1.464676E+05  2.499573E+05  8.405733E+03 -5.930165E-10 -1.664173E-10
       197  19  2.625147E+05  8.819001E+04  1.609557E+05  6.805473E+04 -2.253360E+05 -8.970455E+03
       197  20  2.791964E+05 -2.084907E+05 -1.324915E+04  1.707139E+04 -1.527943E+05 -2.618542E+04
       197  21  3.878445E+05 -1.773542E+05 -5.815126E+04 -7.281695E+04 -8.027177E+04 -2.492372E+04
       197  22  1.043270E+06  2.821108E+05  3.525657E+05 -3.267901E+04 -2.415109E+05 -8.960014E+03
       197  23  9.964566E+05 -3.142692E+04  1.557676E+05 -1.300208E+04 -1.577772E+05 -2.618246E+04
       197  24  1.043425E+06 -1.543014E+04  9.592213E+04 -3.222643E+04 -7.407191E+04 -2.492121E+04
       197  25  1.824602E+06  4.760250E+05  5.441376E+05 -1.335398E+05 -2.577059E+05 -8.944352E+03
       197  26  1.714192E+06  1.456036E+05  3.247495E+05 -4.311063E+04 -1.627657E+05 -2.617903E+04
       197  27  1.699404E+06  1.464695E+05  2.499671E+05  8.407094E+03 -6.786551E+04 -2.491789E+04
       198   1  4.378768E+05 -1.194717E+05 -6.068790E+04 -2.440407E+04  6.001304E+04  2.086915E+04
       198   2  4.928734E+05 -1.331972E+05 -8.373607E+04 -1.141338E+04  4.015280E+04  1.937320E+04
       198   3  5.582885E+05 -1.166983E+05 -8.624355E+04 -3.617401E+04  2.028973E+04  1.679202E+04
       198   4  1.024913E+06  2.552841E+04  7.781405E+04 -3.211041E+04  5.948773E+04  2.086664E+04
       198   5  1.019670E+06 -3.119860E+03  4.029306E+04 -1.322720E+04  3.895819E+04  1.937134E+04
       198   6  1.024948E+06 -1.442395E+03  2.376299E+04 -3.209281E+04  1.842774E+04  1.679085E+04
       198   7  1.612265E+06  1.705041E+05  2.162923E+05 -3.982412E+04  5.896191E+04  2.086415E+04
       198   8  1.546721E+06  1.269378E+05  1.643031E+05 -1.504260E+04  3.776256E+04  1.936949E+04
       198   9  1.491808E+06  1.137980E+05  1.337545E+05 -2.800852E+04  1.656436E+04  1.678966E+04
       198  10  4.378728E+05 -1.194731E+05 -6.069548E+04 -2.440508E+04 -2.267759E-10 -3.613287E-10
       198  11  4.928715E+05 -1.331981E+05 -8.373981E+04 -1.141401E+04  4.771202E-11  5.844114E-11
       198  12  5.582880E+05 -1.166987E+05 -8.624485E+04 -3.617429E+04 -1.835997E-09 -6.505104E-11
       198  13  1.024909E+06  2.552699E+04  7.780659E+04 -3.211141E+04  1.607977E-09 -2.175936E-10
       198  14  1.019668E+06 -3.120670E+03  4.028951E+04 -1.322781E+04 -1.618035E-10 -5.932975E-10
       198  15  1.024948E+06 -1.442789E+03  2.376182E+04 -3.209305E+04  3.036171E-10 -7.631416E-11
       198  16  1.612261E+06  1.705027E+05  2.162849E+05 -3.982511E+04  4.993430E-10  1.194813E-10
       198  17  1.546719E+06  1.269370E+05  1.642997E+05 -1.504319E+04 -3.089479E-10 -1.334708E-09
       198  18  1.491807E+06  1.137977E+05  1.337535E+05 -2.800875E+04  6.938522E-10  3.745444E-10
       198  19  4.378768E+05 -1.194717E+05 -6.068790E+04 -2.440407E+04 -6.001304E+04 -2.086915E+04
       198  20  4.928734E+05 -1.331972E+05 -8.373607E+04 -1.141338E+04 -4.015280E+04 -1.937320E+04
       198  21  5.582885E+05 -1.166983E+05 -8.624355E+04 -3.617401E+04 -2.028973E+04 -1.679202E+04
       198  22  1.024913E+06  2.552841E+04  7.781405E+04 -3.211041E+04 -5.948773E+04 -2.086664E+04
       198  23  1.019670E+06 -3.119860E+03  4.029306E+04 -1.322720E+04 -3.895819E+04 -1.937134E+04
       198  24  1.024948E+06 -1.442395E+03  2.376299E+04 -3.209281E+04 -1.842774E+04 -1.679085E+04
       198  25  1.612265E+06  1.705041E+05  2.162923E+05 -3.982412E+04 -5.896191E+04 -2.086415E+04
       198  26  1.546721E+06  1.269378E+05  1.643031E+05 -1.504260E+04 -3.776256E+04 -1.936949E+04
       198  27  1.491808E+06  1.137980E+05  1.337545E+05 -2.800852E+04 -1.656436E+04 -1.678966E+04
       199   1  6.228597E+05 -9.653490E+04 -7.554892E+04 -3.153324E+04  1.621164E+04  1.510450E+04
       199   2  6.808862E+05 -8.461935E+04 -7.010545E+04 -1.347431E+04  1.112480E+04  1.255279E+04
       199   3  7.403668E+05 -6.992170E+04 -6.063690E+04 -3.229155E+04  6.035804E+03  9.952843E+03
       199   4  1.022946E+06  2.216983E+03  1.848267E+04 -3.190358E+04  1.470043E+04  1.510366E+04
       199   5  1.022226E+06 -3.446297E+02  1.024591E+04 -1.346611E+04  9.581539E+03  1.255239E+04
       199   6  1.022959E+06 -1.197466E+02  6.054329E+03 -3.190354E+04  4.460982E+03  9.952903E+03
       199   7  1.423180E+06  1.009575E+05  1.125033E+05 -3.227415E+04  1.318824E+04  1.510282E+04
       199   8  1.363672E+06  8.392178E+04  9.058928E+04 -1.345791E+04  8.037440E+03  1.255199E+04
       199   9  1.305625E+06  6.967651E+04  7.274005E+04 -3.151534E+04  2.885447E+03  9.952960E+03
       199  10  6.228593E+05 -9.653522E+04 -7.554984E+04 -3.153344E+04  3.619298E-10  1.197335E-10
       199  11  6.808861E+05 -8.461955E+04 -7.010598E+04 -1.347442E+04  9.668807E-10 -2.964944E-10
       199  12  7.403668E+05 -6.992182E+04 -6.063715E+04 -3.229160E+04  7.888752E-10 -2.697799E-10
       199  13  1.022946E+06  2.216680E+03  1.848184E+04 -3.190375E+04 -1.077487E-09  2.804581E-10
       199  14  1.022225E+06 -3.448236E+02  1.024544E+04 -1.346621E+04 -3.725425E-10 -3.159348E-10
       199  15  1.022959E+06 -1.198583E+02  6.054105E+03 -3.190357E+04 -3.512325E-10 -3.258985E-10
       199  16  1.423179E+06  1.009572E+05  1.125025E+05 -3.227431E+04 -4.904320E-10  4.860378E-10
       199  17  1.363672E+06  8.392160E+04  9.058886E+04 -1.345800E+04 -1.251321E-09 -2.731674E-10
       199  18  1.305625E+06  6.967640E+04  7.273985E+04 -3.151537E+04 -1.406681E-09 -1.206338E-12
       199  19  6.228597E+05 -9.653490E+04 -7.554892E+04 -3.153324E+04 -1.621164E+04 -1.510450E+04
       199  20  6.808862E+05 -8.461935E+04 -7.010545E+04 -1.347431E+04 -1.112480E+04 -1.255279E+04
       199  21  7.403668E+05 -6.992170E+04 -6.063690E+04 -3.229155E+04 -6.035804E+03 -9.952843E+03
       199  22  1.022946E+06  2.216983E+03  1.848267E+04 -3.190358E+04 -1.470043E+04 -1.510366E+04
       199  23  1.022226E+06 -3.446297E+02  1.024591E+04 -1.346611E+04 -9.581539E+03 -1.255239E+04
       199  24  1.022959E+06 -1.197466E+02  6.054329E+03 -3.190354E+04 -4.460982E+03 -9.952903E+03
       199  25  1.423180E+06  1.009575E+05  1.125033E+05 -3.227415E+04 -1.318824E+04 -1.510282E+04
       199  26  1.363672E+06  8.392178E+04  9.058928E+04 -1.345791E+04 -8.037440E+03 -1.255199E+04
       199  27  1.305625E+06  6.967651E+04  7.274005E+04 -3.151534E+04 -2.885447E+03 -9.952960E+03
       200   1  8.054231E+05 -5.342046E+04 -4.625211E+04 -3.178157E+04  5.040853E+03  8.436173E+03
       200   2  8.632303E+05 -3.937557E+04 -3.458510E+04 -1.361118E+04  3.589398E+03  5.859047E+03
       200   3  9.212910E+05 -2.504602E+04 -2.190537E+04 -3.179538E+04  2.137056E+03  3.286743E+03
       200   4  1.022700E+06  1.849705E+02  4.716423E+03 -3.178776E+04  3.492090E+03  8.436441E+03
       200   5  1.022578E+06 -3.798205E+01  2.921064E+03 -1.361079E+04  2.043015E+03  5.859514E+03
       200   6  1.022705E+06  2.341953E+01  2.136648E+03 -3.178784E+04  5.931857E+02  3.287421E+03
       200   7  1.240021E+06  5.378705E+04  5.568174E+04 -3.179395E+04  1.942789E+03  8.436709E+03
       200   8  1.181949E+06  3.929779E+04  4.042550E+04 -1.361040E+04  4.962376E+02  5.859980E+03
       200   9  1.124129E+06  2.509213E+04  2.617796E+04 -3.178029E+04 -9.509350E+02  3.288098E+03
       200  10  8.054230E+05 -5.342055E+04 -4.625229E+04 -3.178160E+04  3.869392E-10  3.156231E-11
       200  11  8.632303E+05 -3.937561E+04 -3.458519E+04 -1.361119E+04  8.410892E-10  7.228714E-10
       200  12  9.212910E+05 -2.504604E+04 -2.190540E+04 -3.179538E+04  4.861905E-10  4.005536E-10
       200  13  1.022700E+06  1.848908E+02  4.716267E+03 -3.178778E+04 -4.028784E-10  3.480329E-10
       200  14  1.022578E+06 -3.802005E+01  2.920992E+03 -1.361080E+04  1.348706E-09  1.017162E-10
       200  15  1.022705E+06  2.340782E+01  2.136627E+03 -3.178784E+04 -2.657210E-09 -3.953698E-10
       200  16  1.240021E+06  5.378697E+04  5.568160E+04 -3.179396E+04 -1.466085E-10 -6.496978E-11
       200  17  1.181949E+06  3.929776E+04  4.042543E+04 -1.361040E+04 -1.483835E-09  3.086877E-10
       200  18  1.124129E+06  2.509211E+04  2.617794E+04 -3.178029E+04 -5.400291E-10 -1.013154E-09
       200  19  8.054231E+05 -5.342046E+04 -4.625211E+04 -3.178157E+04 -5.040853E+03 -8.436173E+03
       200  20  8.632303E+05 -3.937557E+04 -3.458510E+04 -1.361118E+04 -3.589398E+03 -5.859047E+03
       200  21  9.212910E+05 -2.504602E+04 -2.190537E+04 -3.179538E+04 -2.137056E+03 -3.286743E+03
       200  22  1.022700E+06  1.849705E+02  4.716423E+03 -3.178776E+04 -3.492090E+03 -8.436441E+03
       200  23  1.022578E+06 -3.798205E+01  2.921064E+03 -1.361079E+04 -2.043015E+03 -5.859514E+03
       200  24  1.022705E+06  2.341953E+01  2.136648E+03 -3.178784E+04 -5.931857E+02 -3.287421E+03
       200  25  1.240021E+06  5.378705E+04  5.568174E+04 -3.179395E+04 -1.942789E+03 -8.436709E+03
       200  26  1.181949E+06  3.929779E+04  4.042550E+04 -1.361040E+04 -4.962376E+02 -5.859980E+03
       200  27  1.124129E+06  2.509213E+04  2.617796E+04 -3.178029E+04  9.509350E+02 -3.288098E+03
       201   1  9.860055E+05 -8.989418E+03 -6.462576E+03 -3.173364E+04  1.760420E+03  1.792013E+03
       201   2  1.043640E+06  5.174112E+03  7.122363E+03 -1.364339E+04  6.812306E+02 -7.736192E+02
       201   3  1.101429E+06  1.953566E+04  2.144955E+04 -3.176373E+04 -3.979420E+02 -3.337282E+03
       201   4  1.022686E+06  3.042533E+01  1.996969E+03 -3.175597E+04  2.182623E+02  1.792750E+03
       201   5  1.022610E+06 -1.709240E+01  2.172813E+03 -1.365062E+04 -8.597886E+02 -7.729165E+02
       201   6  1.022685E+06  1.336619E+02  3.090539E+03 -3.175592E+04 -1.937724E+03 -3.336601E+03
       201   7  1.059368E+06  9.050176E+03  1.045643E+04 -3.177831E+04 -1.323986E+03  1.793486E+03
       201   8  1.001579E+06 -5.208327E+03 -2.776758E+03 -1.365785E+04 -2.400756E+03 -7.722138E+02
       201   9  9.439466E+05 -1.926877E+04 -1.526889E+04 -3.174811E+04 -3.477312E+03 -3.335920E+03
       201  10  9.860055E+05 -8.989422E+03 -6.462588E+03 -3.173364E+04 -8.289466E-10  2.328511E-10
       201  11  1.043640E+06  5.174111E+03  7.122361E+03 -1.364339E+04  9.876324E-10  4.549784E-11
       201  12  1.101429E+06  1.953565E+04  2.144953E+04 -3.176373E+04  1.640504E-09 -5.952629E-10
       201  13  1.022686E+06  3.042187E+01  1.996963E+03 -3.175597E+04 -1.412993E-09  4.577736E-10
       201  14  1.022610E+06 -1.709324E+01  2.172811E+03 -1.365062E+04 -2.413053E-09  9.133686E-10
       201  15  1.022685E+06  1.336489E+02  3.090511E+03 -3.175592E+04 -2.847447E-10 -1.221496E-09
       201  16  1.059368E+06  9.050172E+03  1.045642E+04 -3.177831E+04  3.434998E-10 -2.176206E-10
       201  17  1.001579E+06 -5.208329E+03 -2.776770E+03 -1.365785E+04 -2.644957E-09  9.245531E-10
       201  18  9.439465E+05 -1.926879E+04 -1.526893E+04 -3.174812E+04 -1.518255E-09 -8.635499E-10
       201  19  9.860055E+05 -8.989418E+03 -6.462576E+03 -3.173364E+04 -1.760420E+03 -1.792013E+03
       201  20  1.043640E+06  5.174112E+03  7.122363E+03 -1.364339E+04 -6.812306E+02  7.736192E+02
       201  21  1.101429E+06  1.953566E+04  2.144955E+04 -3.176373E+04  3.979420E+02  3.337282E+03
       201  22  1.022686E+06  3.042533E+01  1.996969E+03 -3.175597E+04 -2.182623E+02 -1.792750E+03
       201  23  1.022610E+06 -1.709240E+01  2.172813E+03 -1.365062E+04  8.597886E+02  7.729165E+02
       201  24  1.022685E+06  1.336619E+02  3.090539E+03 -3.175592E+04  1.937724E+03  3.336601E+03
       201  25  1.059368E+06  9.050176E+03  1.045643E+04 -3.177831E+04  1.323986E+03 -1.793486E+03
       201  26  1.001579E+06 -5.208327E+03 -2.776758E+03 -1.365785E+04  2.400756E+03  7.722138E+02
       201  27  9.439466E+05 -1.926877E+04 -1.526889E+04 -3.174811E+04  3.477312E+03  3.335920E+03
       202   1  1.166403E+06  3.541782E+04  3.780261E+04 -3.159272E+04 -1.003254E+03 -4.839985E+03
       202   2  1.224064E+06  4.957572E+04  5.376977E+04 -1.362679E+04 -4.186824E+03 -7.412329E+03
       202   3  1.282577E+06  6.544363E+04  7.223470E+04 -3.209720E+04 -7.369782E+03 -9.940538E+03
       202   4  1.022835E+06 -5.188076E+01  3.845406E+03 -3.180638E+04 -2.562429E+03 -4.839391E+03
       202   5  1.022409E+06 -1.953508E+02  6.315640E+03 -1.358765E+04 -5.718630E+03 -7.412012E+03
       202   6  1.022827E+06  1.366872E+03  1.126533E+04 -3.180597E+04 -8.873925E+03 -9.940483E+03
       202   7  8.792860E+05 -3.552306E+04 -3.011322E+04 -3.201999E+04 -4.121245E+03 -4.838796E+03
       202   8  8.207919E+05 -4.996932E+04 -4.114128E+04 -1.354853E+04 -7.249942E+03 -7.411696E+03
       202   9  7.631397E+05 -6.271468E+04 -4.970864E+04 -3.151485E+04 -1.037744E+04 -9.940429E+03
       202  10  1.166403E+06  3.541780E+04  3.780257E+04 -3.159272E+04  2.112172E-10 -6.412512E-11
       202  11  1.224064E+06  4.957566E+04  5.376963E+04 -1.362681E+04  4.259465E-10  2.213843E-10
       202  12  1.282577E+06  6.544351E+04  7.223442E+04 -3.209725E+04 -5.214493E-10  1.039231E-09
       202  13  1.022835E+06 -5.190768E+01  3.845350E+03 -3.180639E+04  3.687250E-10 -9.786112E-10
       202  14  1.022409E+06 -1.954185E+02  6.315475E+03 -1.358769E+04  2.224558E-09 -1.849864E-10
       202  15  1.022827E+06  1.366745E+03  1.126500E+04 -3.180604E+04  7.315624E-10  5.181672E-10
       202  16  8.792860E+05 -3.552309E+04 -3.011330E+04 -3.202001E+04 -6.792207E-11 -5.067438E-10
       202  17  8.207919E+05 -4.996939E+04 -4.114148E+04 -1.354857E+04 -2.335046E-10 -9.811465E-11
       202  18  7.631395E+05 -6.271482E+04 -4.970903E+04 -3.151494E+04  2.978642E-10 -1.691855E-11
       202  19  1.166403E+06  3.541782E+04  3.780261E+04 -3.159272E+04  1.003254E+03  4.839985E+03
       202  20  1.224064E+06  4.957572E+04  5.376977E+04 -1.362679E+04  4.186824E+03  7.412329E+03
       202  21  1.282577E+06  6.544363E+04  7.223470E+04 -3.209720E+04  7.369782E+03  9.940538E+03
       202  22  1.022835E+06 -5.188076E+01  3.845406E+03 -3.180638E+04  2.562429E+03  4.839391E+03
       202  23  1.022409E+06 -1.953508E+02  6.315640E+03 -1.358765E+04  5.718630E+03  7.412012E+03
       202  24  1.022827E+06  1.366872E+03  1.126533E+04 -3.180597E+04  8.873925E+03  9.940483E+03
       202  25  8.792860E+05 -3.552306E+04 -3.011322E+04 -3.201999E+04  4.121245E+03  4.838796E+03
       202  26  8.207919E+05 -4.996932E+04 -4.114128E+04 -1.354853E+04  7.249942E+03  7.411696E+03
       202  27  7.631397E+05 -6.271468E+04 -4.970864E+04 -3.151485E+04  1.037744E+04  9.940429E+03
       203   1  1.349379E+06  7.946874E+04  9.115742E+04 -2.954620E+04 -9.353609E+03 -1.157449E+04
       203   2  1.405224E+06  9.297706E+04  1.149078E+05 -1.463183E+04 -2.236082E+04 -1.411276E+04
       203   3  1.467508E+06  1.249776E+05  1.517614E+05 -3.674026E+04 -3.536787E+04 -1.575899E+04
       203   4  1.024041E+06 -8.520834E+02  1.445397E+04 -3.193598E+04 -1.114370E+04 -1.157461E+04
       203   5  1.020856E+06 -1.880995E+03  2.446056E+04 -1.342538E+04 -2.360792E+04 -1.411347E+04
       203   6  1.024018E+06  1.549511E+04  4.720027E+04 -3.193866E+04 -3.607075E+04 -1.576020E+04
       203   7  6.988009E+05 -8.118044E+04 -6.225675E+04 -3.432450E+04 -1.293286E+04 -1.157472E+04
       203   8  6.366241E+05 -9.674957E+04 -6.599680E+04 -1.221967E+04 -2.485425E+04 -1.411420E+04
       203   9  5.807084E+05 -9.400135E+04 -5.737444E+04 -2.714051E+04 -3.677313E+04 -1.576141E+04
       203  10  1.349379E+06  7.946857E+04  9.115700E+04 -2.954629E+04  4.238751E-10  5.909067E-10
       203  11  1.405223E+06  9.297672E+04  1.149065E+05 -1.463208E+04 -4.791791E-10 -3.429707E-10
       203  12  1.467507E+06  1.249770E+05  1.517586E+05 -3.674071E+04 -5.273062E-10 -8.559417E-10
       203  13  1.024041E+06 -8.522606E+02  1.445349E+04 -3.193609E+04 -1.682362E-11  2.871230E-10
       203  14  1.020855E+06 -1.881359E+03  2.445914E+04 -1.342564E+04  1.751876E-09  7.744606E-11
       203  15  1.024017E+06  1.549449E+04  4.719736E+04 -3.193912E+04  4.956824E-10 -5.061765E-10
       203  16  6.988007E+05 -8.118063E+04 -6.225732E+04 -3.432462E+04 -1.489581E-09 -2.109908E-11
       203  17  6.366233E+05 -9.674995E+04 -6.599833E+04 -1.221995E+04 -1.849305E-10  1.800483E-10
       203  18  5.807069E+05 -9.400198E+04 -5.737745E+04 -2.714098E+04 -4.065699E-10  2.329115E-10
       203  19  1.349379E+06  7.946874E+04  9.115742E+04 -2.954620E+04  9.353609E+03  1.157449E+04
       203  20  1.405224E+06  9.297706E+04  1.149078E+05 -1.463183E+04  2.236082E+04  1.411276E+04
       203  21  1.467508E+06  1.249776E+05  1.517614E+05 -3.674026E+04  3.536787E+04  1.575899E+04
       203  22  1.024041E+06 -8.520834E+02  1.445397E+04 -3.193598E+04  1.114370E+04  1.157461E+04
       203  23  1.020856E+06 -1.880995E+03  2.446056E+04 -1.342538E+04  2.360792E+04  1.411347E+04
       203  24  1.024018E+06  1.549511E+04  4.720027E+04 -3.193866E+04  3.607075E+04  1.576020E+04
       203  25  6.988009E+05 -8.118044E+04 -6.225675E+04 -3.432450E+04  1.293286E+04  1.157472E+04
       203  26  6.366241E+05 -9.674957E+04 -6.599680E+04 -1.221967E+04  2.485425E+04  1.411420E+04
       203  27  5.807084E+05 -9.400135E+04 -5.737444E+04 -2.714051E+04  3.677313E+04  1.576141E+04
       204   1  1.545866E+06  1.166430E+05  1.781096E+05 -7.546454E+03 -3.957173E+04 -1.931369E+04
       204   2  1.577480E+06  1.217685E+05  2.288455E+05 -3.166266E+04 -9.946420E+04 -2.071527E+04
       204   3  1.667501E+06  3.282391E+05  3.689078E+05 -9.350041E+04 -1.593757E+05 -6.996770E+03
       204   4  1.035249E+06 -9.343213E+03  5.817815E+04 -3.204902E+04 -4.491709E+04 -1.931528E+04
       204   5  1.006761E+06 -1.905888E+04  9.445225E+04 -1.326603E+04 -9.568255E+04 -2.071693E+04
       204   6  1.035147E+06  1.710820E+05  2.137785E+05 -3.220099E+04 -1.464603E+05 -7.000602E+03
       204   7  5.248728E+05 -1.353457E+05 -6.177071E+04 -5.653138E+04 -5.025808E+04 -1.931645E+04
       204   8  4.363412E+05 -1.599082E+05 -3.996321E+04  5.113585E+03 -9.190432E+04 -2.071836E+04
       204   9  4.031644E+05  1.390954E+04  5.862242E+04  2.903596E+04 -1.335580E+05 -7.001896E+03
       204  10  1.545864E+06  1.166422E+05  1.781060E+05 -7.547069E+03 -8.827799E-10 -5.743085E-10
       204  11  1.577470E+06  1.217654E+05  2.288262E+05 -3.166432E+04  1.672467E-09  4.437547E-11
       204  12  1.667474E+06  3.282323E+05  3.688601E+05 -9.350131E+04  3.728714E-10  5.807725E-10
       204  13  1.035247E+06 -9.344154E+03  5.817367E+04 -3.204972E+04 -1.801898E-09 -1.074799E-09
       204  14  1.006751E+06 -1.906179E+04  9.443427E+04 -1.326762E+04 -1.986183E-10 -9.313442E-11
       204  15  1.035124E+06  1.710762E+05  2.137381E+05 -3.220182E+04 -6.300889E-10 -4.386252E-10
       204  16  5.248699E+05 -1.353468E+05 -6.177616E+04 -5.653216E+04 -7.984991E-10 -9.609855E-11
       204  17  4.363320E+05 -1.599109E+05 -3.997988E+04  5.112051E+03 -3.244130E-09 -6.441552E-10
       204  18  4.031453E+05  1.390470E+04  5.858883E+04  2.903520E+04 -3.414325E-10  7.023934E-10
       204  19  1.545866E+06  1.166430E+05  1.781096E+05 -7.546454E+03  3.957173E+04  1.931369E+04
       204  20  1.577480E+06  1.217685E+05  2.288455E+05 -3.166266E+04  9.946420E+04  2.071527E+04
       204  21  1.667501E+06  3.282391E+05  3.689078E+05 -9.350041E+04  1.593757E+05  6.996770E+03
       204  22  1.035249E+06 -9.343213E+03  5.817815E+04 -3.204902E+04  4.491709E+04  1.931528E+04
       204  23  1.006761E+06 -1.905888E+04  9.445225E+04 -1.326603E+04  9.568255E+04  2.071693E+04
       204  24  1.035147E+06  1.710820E+05  2.137785E+05 -3.220099E+04  1.464603E+05  7.000602E+03
       204  25  5.248728E+05 -1.353457E+05 -6.177071E+04 -5.653138E+04  5.025808E+04  1.931645E+04
       204  26  4.363412E+05 -1.599082E+05 -3.996321E+04  5.113585E+03  9.190432E+04  2.071836E+04
       204  27  4.031644E+05  1.390954E+04  5.862242E+04  2.903596E+04  1.335580E+05  7.001896E+03
       205   1  5.533810E+05  1.649075E+06  5.395272E+05 -5.699252E+05  2.013357E+04  1.728769E+05
       205   2  3.625625E+05  1.150615E+06  3.270917E+05 -4.930462E+05  6.130394E+04  6.675214E+04
       205   3  2.297174E+05  6.803256E+05  1.980834E+05 -5.158614E+05  5.602908E+04 -3.937048E+04
       205   4  7.956728E+04 -2.658652E+05  8.530026E+04 -5.165159E+05  2.047294E+04  5.721619E+04
       205   5  2.125092E+04 -2.723892E+05  4.358816E+04 -4.667742E+05  6.141255E+04  3.493910E+04
       205   6  6.461787E+03 -2.654261E+05  2.722188E+04 -5.167193E+05  5.586714E+04  1.257799E+04
       205   7 -3.944929E+05 -2.177409E+06 -3.691307E+05 -4.632683E+05  2.079310E+04 -5.809046E+04
       205   8 -3.201818E+05 -1.693457E+06 -2.400127E+05 -4.405615E+05  6.151862E+04  3.197339E+03
       205   9 -2.168425E+05 -1.210302E+06 -1.436646E+05 -5.175749E+05  5.570490E+04  6.444956E+04
       205  10  5.533725E+05  1.649043E+06  5.394704E+05 -5.699280E+05  5.234870E-10  1.794421E-09
       205  11  3.625573E+05  1.150609E+06  3.270763E+05 -4.930495E+05  4.908280E-10 -2.238088E-09
       205  12  2.297136E+05  6.803231E+05  1.980746E+05 -5.158596E+05 -8.384809E-10 -1.777081E-09
       205  13  7.956595E+04 -2.658689E+05  8.529331E+04 -5.165168E+05  4.777422E-10  2.034915E-09
       205  14  2.124654E+04 -2.723915E+05  4.357877E+04 -4.667759E+05  2.147091E-10 -2.139701E-10
       205  15  6.458393E+03 -2.654271E+05  2.721572E+04 -5.167199E+05 -1.026108E-10  1.127011E-09
       205  16 -3.944942E+05 -2.177412E+06 -3.691379E+05 -4.632674E+05 -2.759461E-10 -1.922928E-09
       205  17 -3.201859E+05 -1.693458E+06 -2.400198E+05 -4.405617E+05  1.306208E-09  4.125949E-11
       205  18 -2.168469E+05 -1.210307E+06 -1.436782E+05 -5.175778E+05 -1.617887E-09  2.439873E-09
       205  19  5.533810E+05  1.649075E+06  5.395272E+05 -5.699252E+05 -2.013357E+04 -1.728769E+05
       205  20  3.625625E+05  1.150615E+06  3.270917E+05 -4.930462E+05 -6.130394E+04 -6.675214E+04
       205  21  2.297174E+05  6.803256E+05  1.980834E+05 -5.158614E+05 -5.602908E+04  3.937048E+04
       205  22  7.956728E+04 -2.658652E+05  8.530026E+04 -5.165159E+05 -2.047294E+04 -5.721619E+04
       205  23  2.125092E+04 -2.723892E+05  4.358816E+04 -4.667742E+05 -6.141255E+04 -3.493910E+04
       205  24  6.461787E+03 -2.654261E+05  2.722188E+04 -5.167193E+05 -5.586714E+04 -1.257799E+04
       205  25 -3.944929E+05 -2.177409E+06 -3.691307E+05 -4.632683E+05 -2.079310E+04  5.809046E+04
       205  26 -3.201818E+05 -1.693457E+06 -2.400127E+05 -4.405615E+05 -6.151862E+04 -3.197339E+03
       205  27 -2.168425E+05 -1.210302E+06 -1.436646E+05 -5.175749E+05 -5.570490E+04 -6.444956E+04
       206   1  1.559618E+05  3.637398E+05  1.369829E+05 -5.211846E+05  3.787063E+04 -3.980149E+04
       206   2  3.870612E+04 -1.215179E+05  4.499783E+04 -4.662704E+05  1.067572E+04 -5.124816E+04
       206   3 -7.233066E+04 -6.040961E+05 -3.815937E+04 -5.139731E+05 -1.717033E+04 -6.269099E+04
       206   4  6.902932E+03 -2.678296E+05  2.332214E+04 -5.173502E+05  3.771189E+04  8.638412E+03
       206   5  4.307005E+03 -2.689298E+05  2.044381E+04 -4.660410E+05  1.051094E+04 -1.648622E+03
       206   6  7.739908E+03 -2.677819E+05  2.558771E+04 -5.173478E+05 -1.734154E+04 -1.194018E+04
       206   7 -1.421769E+05 -8.990055E+05 -9.034530E+04 -5.135193E+05  3.755364E+04  5.703044E+04
       206   8 -3.009192E+04 -4.163150E+05 -4.101628E+03 -4.658118E+05  1.034617E+04  4.793953E+04
       206   9  8.780527E+04  6.864694E+04  8.933946E+04 -5.207243E+05 -1.751323E+04  3.883748E+04
       206  10  1.559599E+05  3.637377E+05  1.369773E+05 -5.211834E+05  1.295059E-10  1.677294E-09
       206  11  3.870529E+04 -1.215207E+05  4.499269E+04 -4.662699E+05  5.615300E-10 -2.860272E-09
       206  12 -7.233203E+04 -6.041004E+05 -3.816732E+04 -5.139740E+05  5.709138E-11 -1.350625E-09
       206  13  6.901384E+03 -2.678301E+05  2.331933E+04 -5.173504E+05  2.852714E-10  2.603568E-09
       206  14  4.306886E+03 -2.689298E+05  2.044360E+04 -4.660410E+05 -2.122409E-09  4.593130E-11
       206  15  7.739547E+03 -2.677822E+05  2.558688E+04 -5.173480E+05 -2.524030E-10  1.508387E-09
       206  16 -1.421793E+05 -8.990093E+05 -9.035408E+04 -5.135210E+05 -1.247962E-10 -1.996304E-09
       206  17 -3.009265E+04 -4.163175E+05 -4.106152E+03 -4.658122E+05 -1.124412E-09 -1.664482E-10
       206  18  8.780454E+04  6.864524E+04  8.933605E+04 -5.207238E+05  7.815151E-10  2.414096E-09
       206  19  1.559618E+05  3.637398E+05  1.369829E+05 -5.211846E+05 -3.787063E+04  3.980149E+04
       206  20  3.870612E+04 -1.215179E+05  4.499783E+04 -4.662704E+05 -1.067572E+04  5.124816E+04
       206  21 -7.233066E+04 -6.040961E+05 -3.815937E+04 -5.139731E+05  1.717033E+04  6.269099E+04
       206  22  6.902932E+03 -2.678296E+05  2.332214E+04 -5.173502E+05 -3.771189E+04 -8.638412E+03
       206  23  4.307005E+03 -2.689298E+05  2.044381E+04 -4.660410E+05 -1.051094E+04  1.648622E+03
       206  24  7.739908E+03 -2.677819E+05  2.558771E+04 -5.173478E+05  1.734154E+04  1.194018E+04
       206  25 -1.421769E+05 -8.990055E+05 -9.034530E+04 -5.135193E+05 -3.755364E+04 -5.703044E+04
       206  26 -3.009192E+04 -4.163150E+05 -4.101628E+03 -4.658118E+05 -1.034617E+04 -4.793953E+04
       206  27  8.780527E+04  6.864694E+04  8.933946E+04 -5.207243E+05  1.751323E+04 -3.883748E+04
       207   1 -1.468346E+05 -9.146121E+05 -8.959722E+04 -5.189565E+05 -3.575074E+04 -6.992232E+04
       207   2 -2.464254E+05 -1.400042E+06 -1.771728E+05 -4.366577E+05 -4.586562E+04 -2.466548E+04
       207   3 -3.069731E+05 -1.881771E+06 -2.846028E+05 -4.545611E+05 -1.620037E+04  2.063587E+04
       207   4  7.269729E+03 -2.648148E+05  3.078086E+04 -5.168294E+05 -3.592731E+04 -1.628879E+04
       207   5  2.507528E+04 -2.729200E+05  5.107816E+04 -4.666213E+05 -4.580230E+04 -4.254080E+04
       207   6  9.431189E+04 -2.651594E+05  1.012042E+05 -5.165796E+05 -1.593501E+04 -6.871325E+04
       207   7  1.613515E+05  3.853985E+05  1.511521E+05 -5.146995E+05 -3.610339E+04  3.739949E+04
       207   8  2.965003E+05  8.554160E+05  2.792649E+05 -4.966391E+05 -4.573733E+04 -6.044797E+04
       207   9  4.954258E+05  1.353879E+06  4.868592E+05 -5.787580E+05 -1.565220E+04 -1.582943E+05
       207  10 -1.468373E+05 -9.146177E+05 -8.960883E+04 -5.189585E+05  5.884635E-10  2.822472E-09
       207  11 -2.464278E+05 -1.400043E+06 -1.771779E+05 -4.366586E+05  1.597503E-09 -1.745523E-09
       207  12 -3.069735E+05 -1.881772E+06 -2.846041E+05 -4.545609E+05  5.477289E-10 -1.110825E-09
       207  13  7.268271E+03 -2.648154E+05  3.077794E+04 -5.168299E+05  1.605037E-09  2.691161E-09
       207  14  2.507254E+04 -2.729225E+05  5.107081E+04 -4.666229E+05 -1.557965E-09 -1.725485E-10
       207  15  9.431035E+04 -2.651645E+05  1.011948E+05 -5.165805E+05  6.849308E-10  1.205752E-09
       207  16  1.613497E+05  3.853967E+05  1.511470E+05 -5.146984E+05 -6.533192E-10 -2.699045E-09
       207  17  2.964970E+05  8.554115E+05  2.792541E+05 -4.966414E+05  1.870886E-09 -8.065795E-10
       207  18  4.954188E+05  1.353852E+06  4.868118E+05 -5.787600E+05  7.843488E-10  2.093043E-09
       207  19 -1.468346E+05 -9.146121E+05 -8.959722E+04 -5.189565E+05  3.575074E+04  6.992232E+04
       207  20 -2.464254E+05 -1.400042E+06 -1.771728E+05 -4.366577E+05  4.586562E+04  2.466548E+04
       207  21 -3.069731E+05 -1.881771E+06 -2.846028E+05 -4.545611E+05  1.620037E+04 -2.063587E+04
       207  22  7.269729E+03 -2.648148E+05  3.078086E+04 -5.168294E+05  3.592731E+04  1.628879E+04
       207  23  2.507528E+04 -2.729200E+05  5.107816E+04 -4.666213E+05  4.580230E+04  4.254080E+04
       207  24  9.431189E+04 -2.651594E+05  1.012042E+05 -5.165796E+05  1.593501E+04  6.871325E+04
       207  25  1.613515E+05  3.853985E+05  1.511521E+05 -5.146995E+05  3.610339E+04 -3.739949E+04
       207  26  2.965003E+05  8.554160E+05  2.792649E+05 -4.966391E+05  4.573733E+04  6.044797E+04
       207  27  4.954258E+05  1.353879E+06  4.868592E+05 -5.787580E+05  1.565220E+04  1.582943E+05
       208   1 -2.391458E+06 -9.279411E+05 -4.925244E+05 -9.062779E+05 -1.820198E+05 -4.025545E+04
       208   2 -2.249462E+06 -7.942901E+05 -3.451403E+05 -8.546416E+05 -1.160101E+05  5.006684E+04
       208   3 -2.112731E+06 -7.272971E+05 -2.748073E+05 -8.207389E+05 -3.366650E+04  9.717936E+04
       208   4 -7.440198E+05 -2.771765E+05 -6.190869E+04 -4.225890E+05 -4.948388E+04  9.654361E+03
       208   5 -7.451589E+05 -2.272216E+05 -2.885211E+04 -4.226573E+05 -5.600025E+04  7.262855E+04
       208   6 -7.371119E+05 -2.294577E+05 -1.516140E+04 -4.404786E+05 -4.622926E+04  9.243144E+04
       208   7  9.060644E+05  3.738357E+05  3.685387E+05  6.229021E+04  8.343476E+04  5.972540E+04
       208   8  7.614667E+05  3.400683E+05  2.873248E+05  1.030653E+04  4.166284E+03  9.525279E+04
       208   9  6.405067E+05  2.685579E+05  2.444140E+05 -5.942984E+04 -5.882208E+04  8.767239E+04
       208  10 -2.391494E+06 -9.279518E+05 -4.925900E+05 -9.062838E+05  5.212659E-08  2.059426E-08
       208  11 -2.249478E+06 -7.942964E+05 -3.451704E+05 -8.546369E+05 -5.815515E-09 -5.448439E-10
       208  12 -2.112735E+06 -7.273075E+05 -2.748272E+05 -8.207363E+05 -6.040689E-08 -2.109200E-08
       208  13 -7.440224E+05 -2.771773E+05 -6.191347E+04 -4.225886E+05 -9.877744E-10  9.719936E-10
       208  14 -7.451637E+05 -2.272281E+05 -2.886791E+04 -4.226541E+05 -5.168202E-09  4.951949E-10
       208  15 -7.371165E+05 -2.294674E+05 -1.518146E+04 -4.404752E+05 -4.382129E-10  8.805841E-10
       208  16  9.060560E+05  3.738300E+05  3.685189E+05  6.228621E+04 -5.611002E-08 -1.884095E-08
       208  17  7.614642E+05  3.400586E+05  2.873077E+05  1.030622E+04 -1.455240E-09  2.150010E-09
       208  18  6.405009E+05  2.685487E+05  2.443930E+05 -5.942569E+04  5.802817E-08  2.262055E-08
       208  19 -2.391458E+06 -9.279411E+05 -4.925244E+05 -9.062779E+05  1.820198E+05  4.025545E+04
       208  20 -2.249462E+06 -7.942901E+05 -3.451403E+05 -8.546416E+05  1.160101E+05 -5.006684E+04
       208  21 -2.112731E+06 -7.272971E+05 -2.748073E+05 -8.207389E+05  3.366650E+04 -9.717936E+04
       208  22 -7.440198E+05 -2.771765E+05 -6.190869E+04 -4.225890E+05  4.948388E+04 -9.654361E+03
       208  23 -7.451589E+05 -2.272216E+05 -2.885211E+04 -4.226573E+05  5.600025E+04 -7.262855E+04
       208  24 -7.371119E+05 -2.294577E+05 -1.516140E+04 -4.404786E+05  4.622926E+04 -9.243144E+04
       208  25  9.060644E+05  3.738357E+05  3.685387E+05  6.229021E+04 -8.343476E+04 -5.972540E+04
       208  26  7.614667E+05  3.400683E+05  2.873248E+05  1.030653E+04 -4.166284E+03 -9.525279E+04
       208  27  6.405067E+05  2.685579E+05  2.444140E+05 -5.942984E+04  5.882208E+04 -8.767239E+04
       209   1 -2.009526E+06 -6.947237E+05 -2.502103E+05 -7.962244E+05 -3.568731E+04  9.065927E+04
       209   2 -1.873458E+06 -6.250725E+05 -2.112971E+05 -7.414154E+05 -2.417664E+04  8.816760E+04
       209   3 -1.715112E+06 -5.825219E+05 -1.799642E+05 -7.140378E+05 -1.128084E+04  8.197267E+04
       209   4 -7.348317E+05 -2.303373E+05 -1.143768E+04 -4.400710E+05 -4.262014E+04  8.803224E+04
       209   5 -7.463390E+05 -2.161427E+05 -6.042933E+03 -4.268010E+05 -3.732424E+04  8.321159E+04
       209   6 -7.343555E+05 -2.278103E+05 -3.288496E+03 -4.409672E+05 -3.064699E+04  7.469060E+04
       209   7  5.415655E+05  2.342016E+05  2.272709E+05 -8.323498E+04 -4.956824E+04  8.539947E+04
       209   8  3.821129E+05  1.929058E+05  1.991649E+05 -1.116544E+05 -5.049733E+04  7.824601E+04
       209   9  2.474065E+05  1.269890E+05  1.733530E+05 -1.674962E+05 -5.004566E+04  6.739636E+04
       209  10 -2.009529E+06 -6.947328E+05 -2.502281E+05 -7.962218E+05  6.620165E-09  2.287392E-09
       209  11 -1.873461E+06 -6.250810E+05 -2.113128E+05 -7.414137E+05 -1.635006E-08 -9.514086E-09
       209  12 -1.715114E+06 -5.825292E+05 -1.799771E+05 -7.140370E+05 -4.687816E-08 -2.204943E-08
       209  13 -7.348357E+05 -2.303461E+05 -1.145565E+04 -4.400680E+05  9.332393E-10 -5.249213E-10
       209  14 -7.463423E+05 -2.161505E+05 -6.058555E+03 -4.267985E+05  8.303923E-10 -1.898776E-09
       209  15 -7.343581E+05 -2.278165E+05 -3.300738E+03 -4.409654E+05 -7.059205E-09 -4.816250E-09
       209  16  5.415609E+05  2.341931E+05  2.272526E+05 -8.323157E+04 -5.580237E-09 -1.970956E-09
       209  17  3.821085E+05  1.928985E+05  1.991486E+05 -1.116512E+05  1.903376E-08  6.906475E-09
       209  18  2.474025E+05  1.269834E+05  1.733398E+05 -1.674934E+05  3.410746E-08  1.215706E-08
       209  19 -2.009526E+06 -6.947237E+05 -2.502103E+05 -7.962244E+05  3.568731E+04 -9.065927E+04
       209  20 -1.873458E+06 -6.250725E+05 -2.112971E+05 -7.414154E+05  2.417664E+04 -8.816760E+04
       209  21 -1.715112E+06 -5.825219E+05 -1.799642E+05 -7.140378E+05  1.128084E+04 -8.197267E+04
       209  22 -7.348317E+05 -2.303373E+05 -1.143768E+04 -4.400710E+05  4.262014E+04 -8.803224E+04
       209  23 -7.463390E+05 -2.161427E+05 -6.042933E+03 -4.268010E+05  3.732424E+04 -8.321159E+04
       209  24 -7.343555E+05 -2.278103E+05 -3.288496E+03 -4.409672E+05  3.064699E+04 -7.469060E+04
       209  25  5.415655E+05  2.342016E+05  2.272709E+05 -8.323498E+04  4.956824E+04 -8.539947E+04
       209  26  3.821129E+05  1.929058E+05  1.991649E+05 -1.116544E+05  5.049733E+04 -7.824601E+04
       209  27  2.474065E+05  1.269890E+05  1.733530E+05 -1.674962E+05  5.004566E+04 -6.739636E+04
       210   1 -1.618227E+06 -5.475795E+05 -1.609051E+05 -6.873359E+05 -8.745499E+03  7.520273E+04
       210   2 -1.482442E+06 -4.815352E+05 -1.331196E+05 -6.320492E+05 -3.224409E+03  6.426204E+04
       210   3 -1.322248E+06 -4.401968E+05 -1.062772E+05 -6.048231E+05  2.411638E+03  5.299494E+04
       210   4 -7.341474E+05 -2.278500E+05 -2.480854E+03 -4.409735E+05 -2.764912E+04  6.809911E+04
       210   5 -7.463340E+05 -2.154237E+05 -1.382270E+03 -4.269694E+05 -2.267635E+04  5.695917E+04
       210   6 -7.340325E+05 -2.275965E+05 -7.948398E+02 -4.410338E+05 -1.758905E+04  4.549295E+04
       210   7  1.507675E+05  9.195774E+04  1.559210E+05 -1.942805E+05 -4.658169E+04  6.098465E+04
       210   8 -9.649367E+03  5.074125E+04  1.303396E+05 -2.216612E+05 -4.215303E+04  4.964703E+04
       210   9 -1.454509E+05 -1.496296E+04  1.046776E+05 -2.770992E+05 -3.760997E+04  3.798338E+04
       210  10 -1.618229E+06 -5.475856E+05 -1.609159E+05 -6.873354E+05  3.366000E-08  8.949502E-09
       210  11 -1.482443E+06 -4.815396E+05 -1.331274E+05 -6.320490E+05  8.938644E-09  3.656805E-09
       210  12 -1.322249E+06 -4.401998E+05 -1.062825E+05 -6.048232E+05 -1.649321E-08 -3.512278E-09
       210  13 -7.341495E+05 -2.278552E+05 -2.491000E+03 -4.409719E+05 -8.778124E-09 -5.850618E-09
       210  14 -7.463354E+05 -2.154273E+05 -1.389330E+03 -4.269684E+05 -5.612961E-09 -3.133783E-09
       210  15 -7.340334E+05 -2.275988E+05 -7.993083E+02 -4.410332E+05 -1.824579E-09  9.348289E-11
       210  16  1.507641E+05  9.195316E+04  1.559100E+05 -1.942782E+05 -5.209783E-08 -2.054423E-08
       210  17 -9.651935E+03  5.073813E+04  1.303316E+05 -2.216595E+05 -2.090606E-08 -9.834537E-09
       210  18 -1.454528E+05 -1.496489E+04  1.046723E+05 -2.770981E+05  1.359744E-08  3.877357E-09
       210  19 -1.618227E+06 -5.475795E+05 -1.609051E+05 -6.873359E+05  8.745499E+03 -7.520273E+04
       210  20 -1.482442E+06 -4.815352E+05 -1.331196E+05 -6.320492E+05  3.224409E+03 -6.426204E+04
       210  21 -1.322248E+06 -4.401968E+05 -1.062772E+05 -6.048231E+05 -2.411638E+03 -5.299494E+04
       210  22 -7.341474E+05 -2.278500E+05 -2.480854E+03 -4.409735E+05  2.764912E+04 -6.809911E+04
       210  23 -7.463340E+05 -2.154237E+05 -1.382270E+03 -4.269694E+05  2.267635E+04 -5.695917E+04
       210  24 -7.340325E+05 -2.275965E+05 -7.948398E+02 -4.410338E+05  1.758905E+04 -4.549295E+04
       210  25  1.507675E+05  9.195774E+04  1.559210E+05 -1.942805E+05  4.658169E+04 -6.098465E+04
       210  26 -9.649367E+03  5.074125E+04  1.303396E+05 -2.216612E+05  4.215303E+04 -4.964703E+04
       210  27 -1.454509E+05 -1.496296E+04  1.046776E+05 -2.770992E+05  3.760997E+04 -3.798338E+04
       211   1 -1.225562E+06 -4.051194E+05 -8.805862E+04 -5.779763E+05  5.098826E+03  4.610057E+04
       211   2 -1.089514E+06 -3.392580E+05 -6.174056E+04 -5.225803E+05  9.836796E+03  3.431935E+04
       211   3 -9.288910E+05 -2.979774E+05 -3.562736E+04 -4.953346E+05  1.458246E+04  2.250743E+04
       211   4 -7.339926E+05 -2.275820E+05 -6.346274E+02 -4.410474E+05 -1.487374E+04  3.861206E+04
       211   5 -7.462507E+05 -2.152511E+05 -4.580253E+02 -4.269775E+05 -1.018878E+04  2.681414E+04
       211   6 -7.339461E+05 -2.274922E+05 -4.460276E+02 -4.410663E+05 -5.496185E+03  1.498545E+04
       211   7 -2.421719E+05 -5.002302E+04  8.678182E+04 -3.040182E+05 -3.486300E+04  3.111730E+04
       211   8 -4.028616E+05 -9.123251E+04  6.082231E+04 -3.313250E+05 -3.022618E+04  1.930450E+04
       211   9 -5.389583E+05 -1.570024E+05  3.473624E+04 -3.867812E+05 -2.558175E+04  7.460870E+03
       211  10 -1.225562E+06 -4.051217E+05 -8.806267E+04 -5.779765E+05  2.811751E-09  2.914575E-09
       211  11 -1.089515E+06 -3.392593E+05 -6.174296E+04 -5.225806E+05 -4.415621E-09 -3.554257E-09
       211  12 -9.288914E+05 -2.979780E+05 -3.562871E+04 -4.953349E+05 -2.411005E-08 -1.069775E-08
       211  13 -7.339932E+05 -2.275837E+05 -6.378433E+02 -4.410469E+05  1.365765E-09  1.598308E-09
       211  14 -7.462510E+05 -2.152519E+05 -4.595708E+02 -4.269773E+05  1.764705E-09  4.855995E-10
       211  15 -7.339462E+05 -2.274925E+05 -4.465062E+02 -4.410662E+05 -1.282319E-08 -5.479959E-09
       211  16 -2.421735E+05 -5.002439E+04  8.677772E+04 -3.040173E+05 -6.200218E-10  4.888646E-10
       211  17 -4.028627E+05 -9.123315E+04  6.081989E+04 -3.313246E+05  4.392363E-09  4.304252E-09
       211  18 -5.389590E+05 -1.570026E+05  3.473491E+04 -3.867811E+05 -1.497385E-09 -3.911613E-10
       211  19 -1.225562E+06 -4.051194E+05 -8.805862E+04 -5.779763E+05 -5.098826E+03 -4.610057E+04
       211  20 -1.089514E+06 -3.392580E+05 -6.174056E+04 -5.225803E+05 -9.836796E+03 -3.431935E+04
       211  21 -9.288910E+05 -2.979774E+05 -3.562736E+04 -4.953346E+05 -1.458246E+04 -2.250743E+04
       211  22 -7.339926E+05 -2.275820E+05 -6.346274E+02 -4.410474E+05  1.487374E+04 -3.861206E+04
       211  23 -7.462507E+05 -2.152511E+05 -4.580253E+02 -4.269775E+05  1.018878E+04 -2.681414E+04
       211  24 -7.339461E+05 -2.274922E+05 -4.460276E+02 -4.410663E+05  5.496185E+03 -1.498545E+04
       211  25 -2.421719E+05 -5.002302E+04  8.678182E+04 -3.040182E+05  3.486300E+04 -3.111730E+04
       211  26 -4.028616E+05 -9.123251E+04  6.082231E+04 -3.313250E+05  3.022618E+04 -1.930450E+04
       211  27 -5.389583E+05 -1.570024E+05  3.473624E+04 -3.867812E+05  2.558175E+04 -7.460870E+03
       212   1 -8.320930E+05 -2.628910E+05 -1.762360E+04 -4.684589E+05  1.726731E+04  1.559260E+04
       212   2 -6.959054E+05 -1.970707E+05  8.230836E+03 -4.130349E+05  2.207955E+04  3.802711E+03
       212   3 -5.351570E+05 -1.558328E+05  3.382938E+04 -3.857881E+05  2.688446E+04 -7.966583E+03
       212   4 -7.339448E+05 -2.274857E+05 -5.012232E+02 -4.410735E+05 -2.815467E+03  8.069838E+03
       212   5 -7.462128E+05 -2.151851E+05 -7.585881E+02 -4.269836E+05  2.028881E+03 -3.708464E+03
       212   6 -7.339497E+05 -2.274757E+05 -1.298432E+03 -4.410800E+05  6.865803E+03 -1.546617E+04
       212   7 -6.357854E+05 -1.920791E+05  1.662259E+04 -4.136837E+05 -2.290162E+04  5.458124E+02
       212   8 -7.965163E+05 -2.332988E+05 -9.746298E+03 -4.409309E+05 -1.801995E+04 -1.121896E+04
       212   9 -9.326977E+05 -2.991137E+05 -3.642523E+04 -4.963546E+05 -1.314583E+04 -2.296313E+04
       212  10 -8.320934E+05 -2.628914E+05 -1.762462E+04 -4.684591E+05 -2.407114E-09 -8.553364E-10
       212  11 -6.959060E+05 -1.970709E+05  8.229891E+03 -4.130350E+05  4.536022E-09  3.920178E-09
       212  12 -5.351578E+05 -1.558331E+05  3.382790E+04 -3.857879E+05  5.332840E-10  6.964834E-10
       212  13 -7.339448E+05 -2.274858E+05 -5.013604E+02 -4.410734E+05 -1.251572E-08 -5.641160E-09
       212  14 -7.462128E+05 -2.151851E+05 -7.586217E+02 -4.269836E+05  4.241974E-11 -1.336681E-10
       212  15 -7.339498E+05 -2.274760E+05 -1.298970E+03 -4.410799E+05  2.152991E-09  6.095715E-10
       212  16 -6.357860E+05 -1.920793E+05  1.662160E+04 -4.136837E+05 -2.421000E-08 -1.046898E-08
       212  17 -7.965167E+05 -2.332990E+05 -9.747146E+03 -4.409311E+05 -4.959230E-09 -4.263215E-09
       212  18 -9.326981E+05 -2.991143E+05 -3.642655E+04 -4.963549E+05  2.697879E-09  5.716914E-11
       212  19 -8.320930E+05 -2.628910E+05 -1.762360E+04 -4.684589E+05 -1.726731E+04 -1.559260E+04
       212  20 -6.959054E+05 -1.970707E+05  8.230836E+03 -4.130349E+05 -2.207955E+04 -3.802711E+03
       212  21 -5.351570E+05 -1.558328E+05  3.382938E+04 -3.857881E+05 -2.688446E+04  7.966583E+03
       212  22 -7.339448E+05 -2.274857E+05 -5.012232E+02 -4.410735E+05  2.815467E+03 -8.069838E+03
       212  23 -7.462128E+05 -2.151851E+05 -7.585881E+02 -4.269836E+05 -2.028881E+03  3.708464E+03
       212  24 -7.339497E+05 -2.274757E+05 -1.298432E+03 -4.410800E+05 -6.865803E+03  1.546617E+04
       212  25 -6.357854E+05 -1.920791E+05  1.662259E+04 -4.136837E+05  2.290162E+04 -5.458124E+02
       212  26 -7.965163E+05 -2.332988E+05 -9.746298E+03 -4.409309E+05  1.801995E+04  1.121896E+04
       212  27 -9.326977E+05 -2.991137E+05 -3.642523E+04 -4.963546E+05  1.314583E+04  2.296313E+04
       213   1 -4.383501E+05 -1.207673E+05  5.148625E+04 -3.589242E+05  2.976248E+04 -1.479532E+04
       213   2 -3.021939E+05 -5.499822E+04  7.636229E+04 -3.034933E+05  3.526845E+04 -2.615427E+04
       213   3 -1.416129E+05 -1.388587E+04  1.004077E+05 -2.761954E+05  4.067881E+04 -3.724512E+04
       213   4 -7.340020E+05 -2.274736E+05 -1.711881E+03 -4.410886E+05  9.713364E+03 -2.230765E+04
       213   5 -7.461977E+05 -2.152198E+05 -3.086862E+03 -4.269810E+05  1.566584E+04 -3.350336E+04
       213   6 -7.340832E+05 -2.277167E+05 -5.648640E+03 -4.410182E+05  2.152238E+04 -4.443092E+04
       213   7 -1.029564E+06 -3.341724E+05 -5.491212E+04 -5.232171E+05 -1.032576E+04 -2.981625E+04
       213   8 -1.189995E+06 -3.754233E+05 -8.254164E+04 -5.503866E+05 -3.921924E+03 -4.084690E+04
       213   9 -1.326183E+06 -4.415142E+05 -1.117153E+05 -6.056942E+05  2.385429E+03 -5.160943E+04
       213  10 -4.383511E+05 -1.207678E+05  5.148417E+04 -3.589238E+05 -9.391141E-10 -1.357666E-10
       213  11 -3.021955E+05 -5.499929E+04  7.635867E+04 -3.034926E+05  1.041411E-10  8.767651E-11
       213  12 -1.416151E+05 -1.388781E+04  1.004020E+05 -2.761942E+05  1.206435E-09  3.192981E-10
       213  13 -7.340022E+05 -2.274741E+05 -1.712993E+03 -4.410884E+05  1.517372E-09  6.590880E-11
       213  14 -7.461983E+05 -2.152211E+05 -3.089431E+03 -4.269805E+05  2.563353E-10  8.917051E-10
       213  15 -7.340842E+05 -2.277190E+05 -5.653218E+03 -4.410174E+05 -4.547350E-10  4.250356E-10
       213  16 -1.029564E+06 -3.341734E+05 -5.491399E+04 -5.232174E+05  6.429874E-10  5.818990E-10
       213  17 -1.189996E+06 -3.754251E+05 -8.254481E+04 -5.503868E+05 -1.024572E-09  8.332127E-10
       213  18 -1.326184E+06 -4.415171E+05 -1.117203E+05 -6.056941E+05 -1.494666E-09  1.865616E-10
       213  19 -4.383501E+05 -1.207673E+05  5.148625E+04 -3.589242E+05 -2.976248E+04  1.479532E+04
       213  20 -3.021939E+05 -5.499822E+04  7.636229E+04 -3.034933E+05 -3.526845E+04  2.615427E+04
       213  21 -1.416129E+05 -1.388587E+04  1.004077E+05 -2.761954E+05 -4.067881E+04  3.724512E+04
       213  22 -7.340020E+05 -2.274736E+05 -1.711881E+03 -4.410886E+05 -9.713364E+03  2.230765E+04
       213  23 -7.461977E+05 -2.152198E+05 -3.086862E+03 -4.269810E+05 -1.566584E+04  3.350336E+04
       213  24 -7.340832E+05 -2.277167E+05 -5.648640E+03 -4.410182E+05 -2.152238E+04  4.443092E+04
       213  25 -1.029564E+06 -3.341724E+05 -5.491212E+04 -5.232171E+05  1.032576E+04  2.981625E+04
       213  26 -1.189995E+06 -3.754233E+05 -8.254164E+04 -5.503866E+05  3.921924E+03  4.084690E+04
       213  27 -1.326183E+06 -4.415142E+05 -1.117153E+05 -6.056942E+05 -2.385429E+03  5.160943E+04
       214   1 -4.475541E+04  2.096866E+04  1.167658E+05 -2.498073E+05  4.466490E+04 -4.350840E+04
       214   2  9.028008E+04  8.716471E+04  1.386754E+05 -1.928089E+05  5.022870E+04 -5.289886E+04
       214   3  2.485530E+05  1.263098E+05  1.585467E+05 -1.630196E+05  5.464699E+04 -5.921822E+04
       214   4 -7.344658E+05 -2.276326E+05 -7.524270E+03 -4.411342E+05  2.511720E+04 -5.084421E+04
       214   5 -7.459816E+05 -2.162741E+05 -1.380081E+04 -4.265371E+05  3.584521E+04 -5.830455E+04
       214   6 -7.353073E+05 -2.329970E+05 -2.621310E+04 -4.391603E+05  4.542640E+04 -6.269166E+04
       214   7 -1.423668E+06 -4.761869E+05 -1.318273E+05 -6.322611E+05  5.592850E+03 -5.817132E+04
       214   8 -1.581508E+06 -5.196462E+05 -1.663013E+05 -6.599716E+05  2.148239E+04 -6.370245E+04
       214   9 -1.718165E+06 -5.922152E+05 -2.110137E+05 -7.148957E+05  3.622133E+04 -6.615921E+04
       214  10 -4.475806E+04  2.096609E+04  1.167585E+05 -2.498058E+05  1.127331E-09  8.836300E-11
       214  11  9.027662E+04  8.716103E+04  1.386654E+05 -1.928067E+05  4.397075E-10 -3.773627E-10
       214  12  2.485488E+05  1.263053E+05  1.585345E+05 -1.630170E+05 -2.346526E-09  5.148035E-10
       214  13 -7.344672E+05 -2.276356E+05 -7.530311E+03 -4.411332E+05 -1.732084E-09  1.541429E-11
       214  14 -7.459839E+05 -2.162781E+05 -1.380961E+04 -4.265354E+05  9.100580E-10 -2.801122E-10
       214  15 -7.353106E+05 -2.330017E+05 -2.622436E+04 -4.391580E+05  2.568880E-10 -1.186246E-13
       214  16 -1.423669E+06 -4.761905E+05 -1.318337E+05 -6.322609E+05 -1.995949E-09 -2.743243E-10
       214  17 -1.581510E+06 -5.196506E+05 -1.663098E+05 -6.599705E+05 -5.228867E-11 -2.980328E-10
       214  18 -1.718168E+06 -5.922203E+05 -2.110244E+05 -7.148938E+05  1.182461E-09 -1.155327E-10
       214  19 -4.475541E+04  2.096866E+04  1.167658E+05 -2.498073E+05 -4.466490E+04  4.350840E+04
       214  20  9.028008E+04  8.716471E+04  1.386754E+05 -1.928089E+05 -5.022870E+04  5.289886E+04
       214  21  2.485530E+05  1.263098E+05  1.585467E+05 -1.630196E+05 -5.464699E+04  5.921822E+04
       214  22 -7.344658E+05 -2.276326E+05 -7.524270E+03 -4.411342E+05 -2.511720E+04  5.084421E+04
       214  23 -7.459816E+05 -2.162741E+05 -1.380081E+04 -4.265371E+05 -3.584521E+04  5.830455E+04
       214  24 -7.353073E+05 -2.329970E+05 -2.621310E+04 -4.391603E+05 -4.542640E+04  6.269166E+04
       214  25 -1.423668E+06 -4.761869E+05 -1.318273E+05 -6.322611E+05 -5.592850E+03  5.817132E+04
       214  26 -1.581508E+06 -5.196462E+05 -1.663013E+05 -6.599716E+05 -2.148239E+04  6.370245E+04
       214  27 -1.718165E+06 -5.922152E+05 -2.110137E+05 -7.148957E+05 -3.622133E+04  6.615921E+04
       215   1  3.488650E+05  1.573764E+05  1.704131E+05 -1.448645E+05  6.529612E+04 -6.135338E+04
       215   2  4.591603E+05  2.336647E+05  1.905900E+05 -4.881157E+04  3.569895E+04 -6.140125E+04
       215   3  5.737138E+05  2.299564E+05  2.141210E+05  3.858328E+04 -7.398508E+03 -2.560428E+04
       215   4 -7.397942E+05 -2.315653E+05 -3.476711E+04 -4.409367E+05  5.137703E+04 -6.659381E+04
       215   5 -7.437236E+05 -2.403190E+05 -6.607286E+04 -4.160619E+05  8.221082E+04 -4.393869E+04
       215   6 -7.554364E+05 -3.411342E+05 -1.419535E+05 -3.998482E+05  9.953335E+04  1.460226E+04
       215   7 -1.827218E+06 -6.204090E+05 -2.399945E+05 -7.365307E+05  3.748404E+04 -7.182484E+04
       215   8 -1.945108E+06 -7.141149E+05 -3.228055E+05 -7.826299E+05  1.286254E+05 -2.651893E+04
       215   9 -2.082807E+06 -9.119352E+05 -4.981296E+05 -8.373629E+05  2.062137E+05  5.468270E+04
       215  10  3.488594E+05  1.573713E+05  1.703981E+05 -1.448613E+05 -1.618360E-09  1.293270E-09
       215  11  4.591579E+05  2.336603E+05  1.905805E+05 -4.880980E+04 -1.301304E-09 -5.919126E-10
       215  12  5.737135E+05  2.299557E+05  2.141197E+05  3.858313E+04  1.232985E-09  1.255016E-09
       215  13 -7.397982E+05 -2.315707E+05 -3.478040E+04 -4.409339E+05 -3.673170E-10  8.234851E-11
       215  14 -7.437314E+05 -2.403229E+05 -6.608919E+04 -4.160590E+05 -6.298247E-12  4.394834E-11
       215  15 -7.554471E+05 -3.411371E+05 -1.419725E+05 -3.998494E+05 -4.453521E-10  7.025968E-10
       215  16 -1.827220E+06 -6.204149E+05 -2.400068E+05 -7.365285E+05  2.782876E-09  7.922196E-11
       215  17 -1.945126E+06 -7.141201E+05 -3.228380E+05 -7.826271E+05  1.017178E-11  1.117646E-09
       215  18 -2.082854E+06 -9.119499E+05 -4.982155E+05 -8.373721E+05 -1.194883E-09  1.954808E-10
       215  19  3.488650E+05  1.573764E+05  1.704131E+05 -1.448645E+05 -6.529612E+04  6.135338E+04
       215  20  4.591603E+05  2.336647E+05  1.905900E+05 -4.881157E+04 -3.569895E+04  6.140125E+04
       215  21  5.737138E+05  2.299564E+05  2.141210E+05  3.858328E+04  7.398508E+03  2.560428E+04
       215  22 -7.397942E+05 -2.315653E+05 -3.476711E+04 -4.409367E+05 -5.137703E+04  6.659381E+04
       215  23 -7.437236E+05 -2.403190E+05 -6.607286E+04 -4.160619E+05 -8.221082E+04  4.393869E+04
       215  24 -7.554364E+05 -3.411342E+05 -1.419535E+05 -3.998482E+05 -9.953335E+04 -1.460226E+04
       215  25 -1.827218E+06 -6.204090E+05 -2.399945E+05 -7.365307E+05 -3.748404E+04  7.182484E+04
       215  26 -1.945108E+06 -7.141149E+05 -3.228055E+05 -7.826299E+05 -1.286254E+05  2.651893E+04
       215  27 -2.082807E+06 -9.119352E+05 -4.981296E+05 -8.373629E+05 -2.062137E+05 -5.468270E+04
       216   1 -5.309544E+05 -1.758280E+05 -1.436388E+05 -6.221112E+04  1.752084E+04  1.774073E+04
       216   2 -3.889887E+05 -2.441522E+05 -1.441123E+05 -9.962929E+04  3.109038E+04  5.839699E+04
       216   3 -2.296302E+05 -2.367670E+05 -1.344763E+05 -1.668908E+05  4.469786E+04  6.767459E+04
       216   4  8.081862E+05  1.545322E+05  1.702946E+05 -1.600894E+05  1.190229E+05  1.781492E+04
       216   5  7.947111E+05  3.795713E+04  8.332623E+04 -1.451315E+05  7.609680E+04  5.841223E+04
       216   6  8.083591E+05  6.804806E+03  4.565196E+04 -1.600062E+05  3.320790E+04  6.766060E+04
       216   7  2.149021E+06  4.848067E+05  4.841494E+05 -2.581804E+05  2.207425E+05  1.785705E+04
       216   8  1.979768E+06  3.199925E+05  3.107091E+05 -1.907226E+05  1.211870E+05  5.842088E+04
       216   9  1.847405E+06  2.503187E+05  2.257432E+05 -1.531097E+05  2.169929E+04  6.764637E+04
       216  10 -5.309548E+05 -1.758284E+05 -1.436400E+05 -6.221137E+04 -8.465255E-09 -5.638045E-10
       216  11 -3.889907E+05 -2.441561E+05 -1.441206E+05 -9.963075E+04  1.796252E-08  1.662443E-09
       216  12 -2.296336E+05 -2.367724E+05 -1.344887E+05 -1.668933E+05  4.272849E-08  1.560823E-09
       216  13  8.081709E+05  1.545280E+05  1.702674E+05 -1.600911E+05  1.355311E-09  1.016839E-09
       216  14  7.947040E+05  3.795191E+04  8.330894E+04 -1.451351E+05 -6.795217E-10  1.242683E-09
       216  15  8.083567E+05  6.799592E+03  4.564128E+04 -1.600080E+05  7.972471E-10  8.895445E-10
       216  16  2.148969E+06  4.847933E+05  4.840575E+05 -2.581835E+05  1.094845E-08  9.662307E-10
       216  17  1.979751E+06  3.199849E+05  3.106752E+05 -1.907283E+05 -1.857876E-08  1.242835E-09
       216  18  1.847403E+06  2.503137E+05  2.257337E+05 -1.531108E+05 -4.242897E-08  1.944100E-09
       216  19 -5.309544E+05 -1.758280E+05 -1.436388E+05 -6.221112E+04 -1.752084E+04 -1.774073E+04
       216  20 -3.889887E+05 -2.441522E+05 -1.441123E+05 -9.962929E+04 -3.109038E+04 -5.839699E+04
       216  21 -2.296302E+05 -2.367670E+05 -1.344763E+05 -1.668908E+05 -4.469786E+04 -6.767459E+04
       216  22  8.081862E+05  1.545322E+05  1.702946E+05 -1.600894E+05 -1.190229E+05 -1.781492E+04
       216  23  7.947111E+05  3.795713E+04  8.332623E+04 -1.451315E+05 -7.609680E+04 -5.841223E+04
       216  24  8.083591E+05  6.804806E+03  4.565196E+04 -1.600062E+05 -3.320790E+04 -6.766060E+04
       216  25  2.149021E+06  4.848067E+05  4.841494E+05 -2.581804E+05 -2.207425E+05 -1.785705E+04
       216  26  1.979768E+06  3.199925E+05  3.107091E+05 -1.907226E+05 -1.211870E+05 -5.842088E+04
       216  27  1.847405E+06  2.503187E+05  2.257432E+05 -1.531097E+05 -2.169929E+04 -6.764637E+04
       217   1 -1.368579E+05 -2.124777E+05 -1.262601E+05 -1.572944E+05  3.621769E+04  6.315883E+04
       217   2  1.237485E+04 -1.827277E+05 -1.118831E+05 -1.435682E+05  3.226442E+04  5.664500E+04
       217   3  1.632580E+05 -1.489182E+05 -9.389013E+04 -1.616297E+05  2.830687E+04  4.707252E+04
       217   4  8.029374E+05  7.586902E+03  3.459876E+04 -1.604554E+05  2.727806E+04  6.314751E+04
       217   5  8.016894E+05  1.239671E+03  1.898062E+04 -1.445627E+05  1.780624E+04  5.663603E+04
       217   6  8.030224E+05 -9.383271E+01  1.080118E+04 -1.604548E+05  8.331102E+03  4.706785E+04
       217   7  1.743601E+06  2.276045E+05  1.954285E+05 -1.636213E+05  1.832531E+04  6.313630E+04
       217   8  1.591620E+06  1.851749E+05  1.498264E+05 -1.455586E+05  3.330295E+03  5.662711E+04
       217   9  1.443193E+06  1.487098E+05  1.154823E+05 -1.592785E+05 -1.166454E+04  4.706311E+04
       217  10 -1.368604E+05 -2.124823E+05 -1.262701E+05 -1.572962E+05 -1.079155E-07  3.344926E-11
       217  11  1.237287E+04 -1.827314E+05 -1.118911E+05 -1.435696E+05 -9.776078E-09 -2.804730E-09
       217  12  1.632566E+05 -1.489208E+05 -9.389580E+04 -1.616308E+05  9.016289E-08 -1.581629E-09
       217  13  8.029355E+05  7.582419E+03  3.458987E+04 -1.604568E+05  2.662354E-10  6.909860E-10
       217  14  8.016881E+05  1.236140E+03  1.897400E+04 -1.445636E+05  2.102945E-09 -2.252821E-09
       217  15  8.030218E+05 -9.623128E+01  1.079689E+04 -1.604551E+05 -9.862351E-10 -1.740058E-09
       217  16  1.743599E+06  2.276002E+05  1.954203E+05 -1.636223E+05  1.088218E-07  2.382911E-10
       217  17  1.591619E+06  1.851714E+05  1.498203E+05 -1.455587E+05  1.033890E-08 -2.286795E-09
       217  18  1.443192E+06  1.487074E+05  1.154778E+05 -1.592781E+05 -8.998919E-08 -1.619976E-09
       217  19 -1.368579E+05 -2.124777E+05 -1.262601E+05 -1.572944E+05 -3.621769E+04 -6.315883E+04
       217  20  1.237485E+04 -1.827277E+05 -1.118831E+05 -1.435682E+05 -3.226442E+04 -5.664500E+04
       217  21  1.632580E+05 -1.489182E+05 -9.389013E+04 -1.616297E+05 -2.830687E+04 -4.707252E+04
       217  22  8.029374E+05  7.586902E+03  3.459876E+04 -1.604554E+05 -2.727806E+04 -6.314751E+04
       217  23  8.016894E+05  1.239671E+03  1.898062E+04 -1.445627E+05 -1.780624E+04 -5.663603E+04
       217  24  8.030224E+05 -9.383271E+01  1.080118E+04 -1.604548E+05 -8.331102E+03 -4.706785E+04
       217  25  1.743601E+06  2.276045E+05  1.954285E+05 -1.636213E+05 -1.832531E+04 -6.313630E+04
       217  26  1.591620E+06  1.851749E+05  1.498264E+05 -1.455586E+05 -3.330295E+03 -5.662711E+04
       217  27  1.443193E+06  1.487098E+05  1.154823E+05 -1.592785E+05  1.166454E+04 -4.706311E+04
       218   1  2.593528E+05 -1.261760E+05 -8.002238E+04 -1.609230E+05  2.640229E+04  4.053724E+04
       218   2  4.090558E+05 -9.152960E+04 -5.911160E+04 -1.448505E+05  2.463580E+04  2.943437E+04
       218   3  5.590877E+05 -5.669881E+04 -3.699627E+04 -1.607216E+05  2.286599E+04  1.803578E+04
       218   4  8.025599E+05  4.500039E+01  8.191663E+03 -1.604903E+05  6.680422E+03  4.053490E+04
       218   5  8.023797E+05 -1.645195E+02  4.655028E+03 -1.445192E+05  4.377423E+03  2.943472E+04
       218   6  8.026004E+05 -9.558332E+01  2.693574E+03 -1.604905E+05  2.071514E+03  1.803892E+04
       218   7  1.346060E+06  1.262512E+05  9.639895E+04 -1.600571E+05 -1.305809E+04  4.053252E+04
       218   8  1.195858E+06  9.119294E+04  6.841891E+04 -1.441876E+05 -1.589333E+04  2.943504E+04
       218   9  1.046173E+06  5.650485E+04  4.238336E+04 -1.602593E+05 -1.873083E+04  1.804205E+04
       218  10  2.593516E+05 -1.261779E+05 -8.002678E+04 -1.609238E+05  5.454248E-09  3.630758E-10
       218  11  4.090549E+05 -9.153070E+04 -5.911437E+04 -1.448510E+05 -9.182613E-09  1.534809E-09
       218  12  5.590871E+05 -5.669930E+04 -3.699786E+04 -1.607219E+05 -2.432315E-08  1.014460E-09
       218  13  8.025594E+05  4.322329E+01  8.188490E+03 -1.604905E+05 -2.360598E-10  2.199427E-10
       218  14  8.023794E+05 -1.654554E+02  4.653363E+03 -1.445193E+05 -2.124330E-09  1.534765E-09
       218  15  8.026003E+05 -9.593404E+01  2.692954E+03 -1.604905E+05 -1.114873E-09  1.113998E-09
       218  16  1.346059E+06  1.262494E+05  9.639554E+04 -1.600567E+05 -5.597589E-09  1.525511E-10
       218  17  1.195857E+06  9.119194E+04  6.841681E+04 -1.441872E+05  1.029878E-08  1.598023E-09
       218  18  1.046172E+06  5.650441E+04  4.238209E+04 -1.602590E+05  2.288938E-08  9.833214E-10
       218  19  2.593528E+05 -1.261760E+05 -8.002238E+04 -1.609230E+05 -2.640229E+04 -4.053724E+04
       218  20  4.090558E+05 -9.152960E+04 -5.911160E+04 -1.448505E+05 -2.463580E+04 -2.943437E+04
       218  21  5.590877E+05 -5.669881E+04 -3.699627E+04 -1.607216E+05 -2.286599E+04 -1.803578E+04
       218  22  8.025599E+05  4.500039E+01  8.191663E+03 -1.604903E+05 -6.680422E+03 -4.053490E+04
       218  23  8.023797E+05 -1.645195E+02  4.655028E+03 -1.445192E+05 -4.377423E+03 -2.943472E+04
       218  24  8.026004E+05 -9.558332E+01  2.693574E+03 -1.604905E+05 -2.071514E+03 -1.803892E+04
       218  25  1.346060E+06  1.262512E+05  9.639895E+04 -1.600571E+05  1.305809E+04 -4.053252E+04
       218  26  1.195858E+06  9.119294E+04  6.841891E+04 -1.441876E+05  1.589333E+04 -2.943504E+04
       218  27  1.046173E+06  5.650485E+04  4.238336E+04 -1.602593E+05  1.873083E+04 -1.804205E+04
       219   1  6.553894E+05 -3.416817E+04 -2.144050E+04 -1.606584E+05  2.241093E+04  1.130955E+04
       219   2  8.051721E+05  5.684301E+02  1.617064E+03 -1.446300E+05  2.185889E+04 -2.320403E+02
       219   3  9.550621E+05  3.530593E+04  2.503655E+04 -1.605513E+05  2.130674E+04 -1.179928E+04
       219   4  8.025388E+05 -6.307755E+01  2.056835E+03 -1.604921E+05  1.641396E+03  1.131350E+04
       219   5  8.024934E+05 -4.724448E+01  1.214339E+03 -1.445173E+05  1.040455E+03 -2.281141E+02
       219   6  8.025388E+05 -2.198394E+01  7.657367E+02 -1.604922E+05  4.395329E+02 -1.179536E+04
       219   7  9.497105E+05  3.404116E+04  2.555522E+04 -1.603258E+05 -1.913287E+04  1.131743E+04
       219   8  7.998157E+05 -6.626870E+02  8.132402E+02 -1.444046E+05 -1.977789E+04 -2.241954E+02
       219   9  6.500394E+05 -3.535082E+04 -2.350404E+04 -1.604330E+05 -2.042274E+04 -1.179145E+04
       219  10  6.553888E+05 -3.416844E+04 -2.144168E+04 -1.606586E+05 -1.923048E-09  4.892920E-10
       219  11  8.051716E+05  5.683020E+02  1.616167E+03 -1.446300E+05 -9.850030E-10  1.954948E-10
       219  12  9.550616E+05  3.530566E+04  2.503544E+04 -1.605511E+05 -1.477645E-09 -6.968000E-12
       219  13  8.025387E+05 -6.321578E+01  2.056589E+03 -1.604921E+05  1.169857E-09  4.353591E-10
       219  14  8.024934E+05 -4.724483E+01  1.214337E+03 -1.445173E+05 -6.748112E-10  2.772811E-10
       219  15  8.025387E+05 -2.213345E+01  7.654748E+02 -1.604922E+05 -3.449470E-10 -2.807253E-10
       219  16  9.497101E+05  3.404093E+04  2.555429E+04 -1.603256E+05  7.513832E-10  4.490040E-10
       219  17  7.998152E+05 -6.627919E+02  8.125059E+02 -1.444046E+05  2.547263E-11  4.168454E-10
       219  18  6.500390E+05 -3.535108E+04 -2.350509E+04 -1.604332E+05  8.884574E-10 -2.325870E-10
       219  19  6.553894E+05 -3.416817E+04 -2.144050E+04 -1.606584E+05 -2.241093E+04 -1.130955E+04
       219  20  8.051721E+05  5.684301E+02  1.617064E+03 -1.446300E+05 -2.185889E+04  2.320403E+02
       219  21  9.550621E+05  3.530593E+04  2.503655E+04 -1.605513E+05 -2.130674E+04  1.179928E+04
       219  22  8.025388E+05 -6.307755E+01  2.056835E+03 -1.604921E+05 -1.641396E+03 -1.131350E+04
       219  23  8.024934E+05 -4.724448E+01  1.214339E+03 -1.445173E+05 -1.040455E+03  2.281141E+02
       219  24  8.025388E+05 -2.198394E+01  7.657367E+02 -1.604922E+05 -4.395329E+02  1.179536E+04
       219  25  9.497105E+05  3.404116E+04  2.555522E+04 -1.603258E+05  1.913287E+04 -1.131743E+04
       219  26  7.998157E+05 -6.626870E+02  8.132402E+02 -1.444046E+05  1.977789E+04  2.241954E+02
       219  27  6.500394E+05 -3.535082E+04 -2.350404E+04 -1.604330E+05  2.042274E+04  1.179145E+04
       220   1  1.051435E+06  5.778818E+04  4.107467E+04 -1.605492E+05  2.118294E+04 -1.854093E+04
       220   2  1.201333E+06  9.247499E+04  6.483172E+04 -1.445159E+05  2.087764E+04 -3.010472E+04
       220   3  1.351326E+06  1.271665E+05  8.879575E+04 -1.604458E+05  2.057539E+04 -4.163746E+04
       220   4  8.025254E+05 -2.815255E+01  6.361249E+02 -1.604954E+05  3.107313E+02 -1.853785E+04
       220   5  8.024735E+05 -6.900113E+01  5.081368E+02 -1.445133E+05  5.911531E+01 -3.010445E+04
       220   6  8.024855E+05 -1.136988E+02  5.488335E+02 -1.604954E+05 -1.893773E+02 -4.163998E+04
       220   7  5.536783E+05 -5.784740E+04 -3.980251E+04 -1.604416E+05 -2.055341E+04 -1.853477E+04
       220   8  4.037730E+05 -9.262078E+04 -6.381814E+04 -1.445105E+05 -2.074653E+04 -3.010418E+04
       220   9  2.539441E+05 -1.274089E+05 -8.770455E+04 -1.605450E+05 -2.093647E+04 -4.164251E+04
       220  10  1.051434E+06  5.778769E+04  4.107318E+04 -1.605489E+05 -2.222204E-09  1.148047E-10
       220  11  1.201332E+06  9.247390E+04  6.482920E+04 -1.445154E+05  1.762983E-10  2.505183E-10
       220  12  1.351325E+06  1.271646E+05  8.879169E+04 -1.604451E+05  3.908403E-11 -2.962080E-10
       220  13  8.025253E+05 -2.852174E+01  6.354787E+02 -1.604954E+05  1.648785E-09 -3.078872E-10
       220  14  8.024733E+05 -6.997468E+01  5.064331E+02 -1.445133E+05  5.356807E-11 -4.968762E-11
       220  15  8.024850E+05 -1.155614E+02  5.455739E+02 -1.604954E+05  7.979695E-10  1.968197E-11
       220  16  5.536777E+05 -5.784788E+04 -3.980395E+04 -1.604419E+05  3.428920E-09 -5.318717E-10
       220  17  4.037723E+05 -9.262187E+04 -6.382066E+04 -1.445110E+05  1.575981E-09 -4.524068E-10
       220  18  2.539432E+05 -1.274108E+05 -8.770864E+04 -1.605457E+05  3.415776E-10  1.658071E-10
       220  19  1.051435E+06  5.778818E+04  4.107467E+04 -1.605492E+05 -2.118294E+04  1.854093E+04
       220  20  1.201333E+06  9.247499E+04  6.483172E+04 -1.445159E+05 -2.087764E+04  3.010472E+04
       220  21  1.351326E+06  1.271665E+05  8.879575E+04 -1.604458E+05 -2.057539E+04  4.163746E+04
       220  22  8.025254E+05 -2.815255E+01  6.361249E+02 -1.604954E+05 -3.107313E+02  1.853785E+04
       220  23  8.024735E+05 -6.900113E+01  5.081368E+02 -1.445133E+05 -5.911531E+01  3.010445E+04
       220  24  8.024855E+05 -1.136988E+02  5.488335E+02 -1.604954E+05  1.893773E+02  4.163998E+04
       220  25  5.536783E+05 -5.784740E+04 -3.980251E+04 -1.604416E+05  2.055341E+04  1.853477E+04
       220  26  4.037730E+05 -9.262078E+04 -6.381814E+04 -1.445105E+05  2.074653E+04  3.010418E+04
       220  27  2.539441E+05 -1.274089E+05 -8.770455E+04 -1.605450E+05  2.093647E+04  4.164251E+04
       221   1  1.447858E+06  1.496494E+05  1.050916E+05 -1.604073E+05  2.051077E+04 -4.836057E+04
       221   2  1.597898E+06  1.843735E+05  1.295694E+05 -1.442791E+05  1.936939E+04 -5.970759E+04
       221   3  1.748245E+06  2.192548E+05  1.548526E+05 -1.601346E+05  1.823370E+04 -7.067607E+04
       221   4  8.024865E+05 -1.479386E+02  6.316010E+02 -1.605003E+05 -2.950303E+02 -4.836557E+04
       221   5  8.023628E+05 -2.376885E+02  9.360620E+02 -1.445072E+05 -7.551997E+02 -5.971803E+04
       221   6  8.024066E+05 -2.869518E+02  1.573604E+03 -1.605002E+05 -1.209442E+03 -7.069168E+04
       221   7  1.575283E+05 -1.499661E+05 -1.038383E+05 -1.605931E+05 -2.108000E+04 -4.837057E+04
       221   8  7.454579E+03 -1.848807E+05 -1.277132E+05 -1.447349E+05 -2.085497E+04 -5.972846E+04
       221   9 -1.425455E+05 -2.198738E+05 -1.517287E+05 -1.608652E+05 -2.062406E+04 -7.070728E+04
       221  10  1.447857E+06  1.496468E+05  1.050865E+05 -1.604065E+05 -4.908254E-10 -2.890969E-10
       221  11  1.597897E+06  1.843696E+05  1.295620E+05 -1.442782E+05 -1.808435E-09 -9.109778E-10
       221  12  1.748243E+06  2.192493E+05  1.548425E+05 -1.601336E+05 -1.298718E-10  2.058076E-11
       221  13  8.024858E+05 -1.504515E+02  6.272033E+02 -1.605003E+05  1.094122E-09  9.775074E-11
       221  14  8.023619E+05 -2.415196E+02  9.293567E+02 -1.445072E+05 -3.465430E-09  4.448692E-11
       221  15  8.024053E+05 -2.923205E+02  1.564207E+03 -1.605003E+05  1.346524E-10 -5.624565E-11
       221  16  1.575272E+05 -1.499688E+05 -1.038435E+05 -1.605939E+05  1.642986E-09  4.417566E-10
       221  17  7.453154E+03 -1.848846E+05 -1.277207E+05 -1.447359E+05  1.750958E-09  5.982181E-10
       221  18 -1.425473E+05 -2.198793E+05 -1.517389E+05 -1.608663E+05  8.847682E-10  5.487888E-10
       221  19  1.447858E+06  1.496494E+05  1.050916E+05 -1.604073E+05 -2.051077E+04  4.836057E+04
       221  20  1.597898E+06  1.843735E+05  1.295694E+05 -1.442791E+05 -1.936939E+04  5.970759E+04
       221  21  1.748245E+06  2.192548E+05  1.548526E+05 -1.601346E+05 -1.823370E+04  7.067607E+04
       221  22  8.024865E+05 -1.479386E+02  6.316010E+02 -1.605003E+05  2.950303E+02  4.836557E+04
       221  23  8.023628E+05 -2.376885E+02  9.360620E+02 -1.445072E+05  7.551997E+02  5.971803E+04
       221  24  8.024066E+05 -2.869518E+02  1.573604E+03 -1.605002E+05  1.209442E+03  7.069168E+04
       221  25  1.575283E+05 -1.499661E+05 -1.038383E+05 -1.605931E+05  2.108000E+04  4.837057E+04
       221  26  7.454579E+03 -1.848807E+05 -1.277132E+05 -1.447349E+05  2.085497E+04  5.972846E+04
       221  27 -1.425455E+05 -2.198738E+05 -1.517287E+05 -1.608652E+05  2.062406E+04  7.070728E+04
       222   1  1.845259E+06  2.418478E+05  1.719259E+05 -1.598550E+05  1.826016E+04 -7.715378E+04
       222   2  1.994900E+06  2.773069E+05  2.003089E+05 -1.441269E+05  9.376427E+03 -8.614809E+04
       222   3  2.146464E+06  3.149267E+05  2.350551E+05 -1.601807E+05  4.938986E+02 -9.119832E+04
       222   4  8.024808E+05 -3.591478E+02  2.056352E+03 -1.604555E+05 -1.520197E+03 -7.717345E+04
       222   5  8.020873E+05 -2.161902E+02  3.554413E+03 -1.445629E+05 -3.283458E+03 -8.617095E+04
       222   6  8.023609E+05  8.559652E+02  6.482644E+03 -1.604561E+05 -5.043336E+03 -9.122051E+04
       222   7 -2.392214E+05 -2.426213E+05 -1.678424E+05 -1.610549E+05 -2.126856E+04 -7.719311E+04
       222   8 -3.893221E+05 -2.778125E+05 -1.932415E+05 -1.449982E+05 -1.591990E+04 -8.619382E+04
       222   9 -5.399703E+05 -3.133103E+05 -2.221489E+05 -1.607311E+05 -1.056899E+04 -9.124273E+04
       222  10  1.845257E+06  2.418414E+05  1.719141E+05 -1.598539E+05 -6.574301E-10  1.022669E-10
       222  11  1.994898E+06  2.772989E+05  2.002948E+05 -1.441262E+05  8.751353E-10 -5.960361E-10
       222  12  2.146462E+06  3.149178E+05  2.350394E+05 -1.601807E+05 -8.965844E-11 -1.593798E-09
       222  13  8.024792E+05 -3.655463E+02  2.045151E+03 -1.604556E+05 -1.060443E-09 -2.589472E-11
       222  14  8.020853E+05 -2.241698E+02  3.540434E+03 -1.445632E+05 -1.491314E-09 -8.269282E-10
       222  15  8.023586E+05  8.470194E+02  6.466953E+03 -1.604565E+05 -2.166309E-09 -1.162021E-09
       222  16 -2.392235E+05 -2.426278E+05 -1.678545E+05 -1.610562E+05 -8.766627E-10  6.575184E-12
       222  17 -3.893244E+05 -2.778205E+05 -1.932560E+05 -1.449993E+05 -2.156803E-09  1.116279E-09
       222  18 -5.399727E+05 -3.133193E+05 -2.221648E+05 -1.607318E+05  1.585258E-10 -2.554375E-10
       222  19  1.845259E+06  2.418478E+05  1.719259E+05 -1.598550E+05 -1.826016E+04  7.715378E+04
       222  20  1.994900E+06  2.773069E+05  2.003089E+05 -1.441269E+05 -9.376427E+03  8.614809E+04
       222  21  2.146464E+06  3.149267E+05  2.350551E+05 -1.601807E+05 -4.938986E+02  9.119832E+04
       222  22  8.024808E+05 -3.591478E+02  2.056352E+03 -1.604555E+05  1.520197E+03  7.717345E+04
       222  23  8.020873E+05 -2.161902E+02  3.554413E+03 -1.445629E+05  3.283458E+03  8.617095E+04
       222  24  8.023609E+05  8.559652E+02  6.482644E+03 -1.604561E+05  5.043336E+03  9.122051E+04
       222  25 -2.392214E+05 -2.426213E+05 -1.678424E+05 -1.610549E+05  2.126856E+04  7.719311E+04
       222  26 -3.893221E+05 -2.778125E+05 -1.932415E+05 -1.449982E+05  1.591990E+04  8.619382E+04
       222  27 -5.399703E+05 -3.133103E+05 -2.221489E+05 -1.607311E+05  1.056899E+04  9.124273E+04
       223   1  2.246666E+06  3.385492E+05  2.573271E+05 -1.575044E+05  2.704496E+03 -9.506708E+04
       223   2  2.389023E+06  3.840808E+05  3.185101E+05 -1.524710E+05 -7.839480E+04 -7.981979E+04
       223   3  2.549456E+06  4.584130E+05  4.396348E+05 -1.766411E+05 -1.595988E+05 -2.409698E+04
       223   4  8.033661E+05  6.463231E+02  8.555739E+03 -1.598764E+05 -6.152496E+03 -9.509510E+04
       223   5  8.005753E+05  6.420041E+03  1.556422E+04 -1.452920E+05 -1.413856E+04 -7.975959E+04
       223   6  8.032030E+05  2.836405E+04  3.186921E+04 -1.599080E+05 -2.220471E+04 -2.390368E+04
       223   7 -6.378944E+05 -3.373680E+05 -2.402867E+05 -1.622430E+05 -1.498958E+04 -9.512309E+04
       223   8 -7.854395E+05 -3.713864E+05 -2.874803E+05 -1.381323E+05  4.995770E+04 -7.969786E+04
       223   9 -9.402068E+05 -4.018893E+05 -3.760324E+05 -1.432228E+05  1.148068E+05 -2.370275E+04
       223  10  2.246663E+06  3.385395E+05  2.573101E+05 -1.575041E+05  8.191060E-10 -2.772476E-09
       223  11  2.389015E+06  3.840723E+05  3.184866E+05 -1.524760E+05 -2.228736E-09 -4.668104E-09
       223  12  2.549428E+06  4.584056E+05  4.395860E+05 -1.766442E+05 -3.825120E-09 -1.606541E-09
       223  13  8.033637E+05  6.365985E+02  8.538667E+03 -1.598769E+05 -8.482227E-10 -5.677052E-09
       223  14  8.005734E+05  6.413154E+03  1.555189E+04 -1.452929E+05 -1.669784E-11  1.994075E-09
       223  15  8.032023E+05  2.836331E+04  3.186721E+04 -1.599085E+05 -1.036241E-09 -2.105370E-10
       223  16 -6.378971E+05 -3.373778E+05 -2.403041E+05 -1.622442E+05 -1.800209E-10 -1.290812E-09
       223  17 -7.854439E+05 -3.713939E+05 -2.874969E+05 -1.381291E+05  6.800599E-10  1.002351E-09
       223  18 -9.402211E+05 -4.018935E+05 -3.760583E+05 -1.432206E+05  3.836206E-09 -1.787286E-09
       223  19  2.246666E+06  3.385492E+05  2.573271E+05 -1.575044E+05 -2.704496E+03  9.506708E+04
       223  20  2.389023E+06  3.840808E+05  3.185101E+05 -1.524710E+05  7.839480E+04  7.981979E+04
       223  21  2.549456E+06  4.584130E+05  4.396348E+05 -1.766411E+05  1.595988E+05  2.409698E+04
       223  22  8.033661E+05  6.463231E+02  8.555739E+03 -1.598764E+05  6.152496E+03  9.509510E+04
       223  23  8.005753E+05  6.420041E+03  1.556422E+04 -1.452920E+05  1.413856E+04  7.975959E+04
       223  24  8.032030E+05  2.836405E+04  3.186921E+04 -1.599080E+05  2.220471E+04  2.390368E+04
       223  25 -6.378944E+05 -3.373680E+05 -2.402867E+05 -1.622430E+05  1.498958E+04  9.512309E+04
       223  26 -7.854395E+05 -3.713864E+05 -2.874803E+05 -1.381323E+05 -4.995770E+04  7.969786E+04
       223  27 -9.402068E+05 -4.018893E+05 -3.760324E+05 -1.432228E+05 -1.148068E+05  2.370275E+04
       224   1  5.422510E+05  2.215518E+06  5.228966E+05 -5.996098E+05  2.169815E+04  1.429258E+05
       224   2  3.737518E+05  1.663688E+06  3.209854E+05 -5.336005E+05  6.502796E+04  4.343983E+04
       224   3  2.373418E+05  1.132920E+06  1.916832E+05 -5.790807E+05  5.803839E+04 -5.601104E+04
       224   4  2.993787E+04  1.430772E+05  3.126993E+04 -5.782207E+05  2.197149E+04  1.969679E+04
       224   5  8.653297E+03  1.407992E+05  1.699161E+04 -5.225002E+05  6.511762E+04  1.108707E+04
       224   6  3.773658E+03  1.436154E+05  1.238104E+04 -5.782768E+05  5.789089E+04  2.424027E+03
       224   7 -4.826742E+05 -1.925395E+06 -4.605988E+05 -5.568995E+05  2.223696E+04 -1.031241E+05
       224   8 -3.565863E+05 -1.379876E+06 -2.871148E+05 -5.114254E+05  6.520627E+04 -2.118812E+04
       224   9 -2.298476E+05 -8.447306E+05 -1.669471E+05 -5.774733E+05  5.774338E+04  6.076867E+04
       224  10  5.422451E+05  2.215496E+06  5.228574E+05 -5.996123E+05  1.689816E-10  3.136176E-09
       224  11  3.737467E+05  1.663684E+06  3.209739E+05 -5.336028E+05  9.748480E-10 -1.488833E-09
       224  12  2.373374E+05  1.132915E+06  1.916710E+05 -5.790781E+05  3.331391E-10 -3.437154E-09
       224  13  2.993725E+04  1.430767E+05  3.126829E+04 -5.782211E+05  1.237832E-09 -3.040678E-11
       224  14  8.648709E+03  1.407980E+05  1.698341E+04 -5.225007E+05  1.898560E-09  8.975791E-12
       224  15  3.770057E+03  1.436145E+05  1.237473E+04 -5.782770E+05  5.818135E-10  2.695713E-10
       224  16 -4.826776E+05 -1.925407E+06 -4.606198E+05 -5.568976E+05  7.234261E-10 -1.792439E-09
       224  17 -3.565910E+05 -1.379878E+06 -2.871236E+05 -5.114243E+05  1.425140E-09  5.372705E-10
       224  18 -2.298522E+05 -8.447355E+05 -1.669603E+05 -5.774761E+05 -1.282111E-09  4.346674E-09
       224  19  5.422510E+05  2.215518E+06  5.228966E+05 -5.996098E+05 -2.169815E+04 -1.429258E+05
       224  20  3.737518E+05  1.663688E+06  3.209854E+05 -5.336005E+05 -6.502796E+04 -4.343983E+04
       224  21  2.373418E+05  1.132920E+06  1.916832E+05 -5.790807E+05 -5.803839E+04  5.601104E+04
       224  22  2.993787E+04  1.430772E+05  3.126993E+04 -5.782207E+05 -2.197149E+04 -1.969679E+04
       224  23  8.653297E+03  1.407992E+05  1.699161E+04 -5.225002E+05 -6.511762E+04 -1.108707E+04
       224  24  3.773658E+03  1.436154E+05  1.238104E+04 -5.782768E+05 -5.789089E+04 -2.424027E+03
       224  25 -4.826742E+05 -1.925395E+06 -4.605988E+05 -5.568995E+05 -2.223696E+04  1.031241E+05
       224  26 -3.565863E+05 -1.379876E+06 -2.871148E+05 -5.114254E+05 -6.520627E+04  2.118812E+04
       224  27 -2.298476E+05 -8.447306E+05 -1.669471E+05 -5.774733E+05 -5.774338E+04 -6.076867E+04
       225   1  1.547564E+05  7.813898E+05  1.274122E+05 -5.813434E+05  3.766227E+04 -5.420308E+04
       225   2  2.619703E+04  2.399644E+05  2.973574E+04 -5.214379E+05  7.131743E+03 -6.174681E+04
       225   3 -9.818808E+04 -2.996016E+05 -6.213311E+04 -5.761189E+05 -2.382895E+04 -6.928732E+04
       225   4  4.005682E+03  1.429107E+05  1.183565E+04 -5.789586E+05  3.751555E+04  4.393843E+02
       225   5  3.397816E+03  1.422086E+05  1.345771E+04 -5.216622E+05  6.981462E+03 -6.350264E+03
       225   6  6.845499E+03  1.429454E+05  2.035888E+04 -5.789515E+05 -2.398328E+04 -1.314285E+04
       225   7 -1.467662E+05 -4.951658E+05 -1.037458E+05 -5.765759E+05  3.736914E+04  5.502725E+04
       225   8 -1.940025E+04  4.446884E+04 -2.809091E+03 -5.218865E+05  6.831125E+03  4.903785E+04
       225   9  1.118695E+05  5.856888E+05  1.028544E+05 -5.817859E+05 -2.413806E+04  4.304065E+04
       225  10  1.547541E+05  7.813863E+05  1.274040E+05 -5.813418E+05  3.021848E-10  3.180960E-09
       225  11  2.619596E+04  2.399603E+05  2.972848E+04 -5.214375E+05  1.118075E-09 -1.962978E-09
       225  12 -9.818998E+04 -2.996069E+05 -6.214321E+04 -5.761202E+05 -1.042595E-09 -2.477805E-09
       225  13  4.004171E+03  1.429103E+05  1.183300E+04 -5.789586E+05 -2.424686E-09  9.845689E-11
       225  14  3.397753E+03  1.422086E+05  1.345754E+04 -5.216622E+05 -3.845415E-10  4.113270E-11
       225  15  6.844835E+03  1.429451E+05  2.035748E+04 -5.789517E+05 -1.544774E-09  2.056066E-10
       225  16 -1.467686E+05 -4.951694E+05 -1.037541E+05 -5.765776E+05 -1.046423E-09 -1.130956E-09
       225  17 -1.940095E+04  4.446625E+04 -2.813698E+03 -5.218868E+05 -9.976462E-10  3.103157E-11
       225  18  1.118684E+05  5.856866E+05  1.028498E+05 -5.817851E+05 -4.552301E-10  3.364495E-09
       225  19  1.547564E+05  7.813898E+05  1.274122E+05 -5.813434E+05 -3.766227E+04  5.420308E+04
       225  20  2.619703E+04  2.399644E+05  2.973574E+04 -5.214379E+05 -7.131743E+03  6.174681E+04
       225  21 -9.818808E+04 -2.996016E+05 -6.213311E+04 -5.761189E+05  2.382895E+04  6.928732E+04
       225  22  4.005682E+03  1.429107E+05  1.183565E+04 -5.789586E+05 -3.751555E+04 -4.393843E+02
       225  23  3.397816E+03  1.422086E+05  1.345771E+04 -5.216622E+05 -6.981462E+03  6.350264E+03
       225  24  6.845499E+03  1.429454E+05  2.035888E+04 -5.789515E+05  2.398328E+04  1.314285E+04
       225  25 -1.467662E+05 -4.951658E+05 -1.037458E+05 -5.765759E+05 -3.736914E+04 -5.502725E+04
       225  26 -1.940025E+04  4.446884E+04 -2.809091E+03 -5.218865E+05 -6.831125E+03 -4.903785E+04
       225  27  1.118695E+05  5.856888E+05  1.028544E+05 -5.817859E+05  2.413806E+04 -4.304065E+04
       226   1 -1.813880E+05 -6.469288E+05 -1.200548E+05 -5.803156E+05 -4.448238E+04 -7.616188E+04
       226   2 -2.965496E+05 -1.187369E+06 -2.222468E+05 -4.954490E+05 -5.477907E+04 -1.676770E+04
       226   3 -3.796558E+05 -1.727440E+06 -3.552037E+05 -5.224179E+05 -1.913096E+04  4.262922E+04
       226   4  6.350819E+03  1.457452E+05  2.579082E+04 -5.783486E+05 -4.463954E+04 -1.666526E+04
       226   5  2.237833E+04  1.383069E+05  4.516039E+04 -5.223647E+05 -5.471260E+04 -3.987501E+04
       226   6  8.477649E+04  1.452720E+05  9.114152E+04 -5.781770E+05 -1.889140E+04 -6.303015E+04
       226   7  1.940558E+05  9.390369E+05  1.716239E+05 -5.763783E+05 -4.479619E+04  4.290539E+04
       226   8  3.412002E+05  1.465662E+06  3.124796E+05 -5.493375E+05 -5.464422E+04 -6.303071E+04
       226   9  5.489725E+05  2.021236E+06  5.372842E+05 -6.341024E+05 -1.863330E+04 -1.690072E+05
       226  10 -1.813917E+05 -6.469356E+05 -1.200695E+05 -5.803184E+05 -2.692189E-10  4.125266E-09
       226  11 -2.965529E+05 -1.187370E+06 -2.222530E+05 -4.954497E+05  2.734028E-09 -3.776480E-10
       226  12 -3.796567E+05 -1.727442E+06 -3.552078E+05 -5.224172E+05  4.945518E-10 -2.139769E-09
       226  13  6.348604E+03  1.457444E+05  2.578655E+04 -5.783492E+05 -1.057591E-09 -8.025255E-11
       226  14  2.237469E+04  1.383044E+05  4.515177E+04 -5.223665E+05  1.792219E-10 -1.256681E-10
       226  15  8.477504E+04  1.452676E+05  9.113338E+04 -5.781780E+05  4.616654E-10  1.393951E-10
       226  16  1.940532E+05  9.390344E+05  1.716167E+05 -5.763767E+05 -1.353712E-09 -2.001513E-09
       226  17  3.411960E+05  1.465657E+06  3.124665E+05 -5.493403E+05  1.295419E-10 -9.361172E-10
       226  18  5.489645E+05  2.021206E+06  5.372300E+05 -6.341049E+05 -4.672134E-10  2.971859E-09
       226  19 -1.813880E+05 -6.469288E+05 -1.200548E+05 -5.803156E+05  4.448238E+04  7.616188E+04
       226  20 -2.965496E+05 -1.187369E+06 -2.222468E+05 -4.954490E+05  5.477907E+04  1.676770E+04
       226  21 -3.796558E+05 -1.727440E+06 -3.552037E+05 -5.224179E+05  1.913096E+04 -4.262922E+04
       226  22  6.350819E+03  1.457452E+05  2.579082E+04 -5.783486E+05  4.463954E+04  1.666526E+04
       226  23  2.237833E+04  1.383069E+05  4.516039E+04 -5.223647E+05  5.471260E+04  3.987501E+04
       226  24  8.477649E+04  1.452720E+05  9.114152E+04 -5.781770E+05  1.889140E+04  6.303015E+04
       226  25  1.940558E+05  9.390369E+05  1.716239E+05 -5.763783E+05  4.479619E+04 -4.290539E+04
       226  26  3.412002E+05  1.465662E+06  3.124796E+05 -5.493375E+05  5.464422E+04  6.303071E+04
       226  27  5.489725E+05  2.021236E+06  5.372842E+05 -6.341024E+05  1.863330E+04  1.690072E+05
       227   1 -1.245103E+06 -5.881849E+05 -3.339324E+05 -5.105770E+05 -1.504622E+05 -4.363782E+04
       227   2 -1.169163E+06 -4.328561E+05 -2.069173E+05 -4.781935E+05 -9.391549E+04  7.074495E+03
       227   3 -1.115665E+06 -3.620046E+05 -1.486003E+05 -4.444432E+05 -2.970864E+04  3.747368E+04
       227   4 -5.123622E+05 -2.455975E+05 -1.322726E+05 -2.405749E+05 -9.000402E+04 -2.092405E+04
       227   5 -4.973022E+05 -1.557334E+05 -6.155959E+04 -2.604191E+05 -6.761132E+04  1.695265E+04
       227   6 -4.978769E+05 -1.435307E+05 -3.241010E+04 -2.789107E+05 -3.757273E+04  3.451434E+04
       227   7  2.209128E+05  9.711414E+04  6.935142E+04  2.974392E+04 -2.946882E+04  1.835338E+03
       227   8  1.750239E+05  1.214608E+05  8.377442E+04 -4.241559E+04 -4.127662E+04  2.684557E+04
       227   9  1.203131E+05  7.497413E+04  8.376606E+04 -1.132262E+05 -4.544526E+04  3.155203E+04
       227  10 -1.245128E+06 -5.881930E+05 -3.339787E+05 -5.105823E+05  8.263589E-09  1.576110E-09
       227  11 -1.169173E+06 -4.328585E+05 -2.069340E+05 -4.781930E+05 -5.963828E-09 -5.323157E-09
       227  12 -1.115666E+06 -3.620064E+05 -1.486046E+05 -4.444423E+05 -2.178002E-08 -1.001050E-08
       227  13 -5.123710E+05 -2.456002E+05 -1.322887E+05 -2.405764E+05  5.845861E-10 -4.124555E-10
       227  14 -4.973072E+05 -1.557349E+05 -6.156872E+04 -2.604182E+05  4.549180E-10 -1.457205E-09
       227  15 -4.978787E+05 -1.435324E+05 -3.241499E+04 -2.789097E+05 -4.523773E-09 -3.044733E-09
       227  16  2.209119E+05  9.711391E+04  6.934978E+04  2.974396E+04 -6.724662E-09 -2.952646E-09
       227  17  1.750219E+05  1.214596E+05  8.376987E+04 -4.241470E+04  8.834812E-09  2.595498E-09
       227  18  1.203106E+05  7.497251E+04  8.376031E+04 -1.132251E+05  1.663021E-08  6.650053E-09
       227  19 -1.245103E+06 -5.881849E+05 -3.339324E+05 -5.105770E+05  1.504622E+05  4.363782E+04
       227  20 -1.169163E+06 -4.328561E+05 -2.069173E+05 -4.781935E+05  9.391549E+04 -7.074495E+03
       227  21 -1.115665E+06 -3.620046E+05 -1.486003E+05 -4.444432E+05  2.970864E+04 -3.747368E+04
       227  22 -5.123622E+05 -2.455975E+05 -1.322726E+05 -2.405749E+05  9.000402E+04  2.092405E+04
       227  23 -4.973022E+05 -1.557334E+05 -6.155959E+04 -2.604191E+05  6.761132E+04 -1.695265E+04
       227  24 -4.978769E+05 -1.435307E+05 -3.241010E+04 -2.789107E+05  3.757273E+04 -3.451434E+04
       227  25  2.209128E+05  9.711414E+04  6.935142E+04  2.974392E+04  2.946882E+04 -1.835338E+03
       227  26  1.750239E+05  1.214608E+05  8.377442E+04 -4.241559E+04  4.127662E+04 -2.684557E+04
       227  27  1.203131E+05  7.497413E+04  8.376606E+04 -1.132262E+05  4.544526E+04 -3.155203E+04
       228   1 -1.050043E+06 -3.488393E+05 -1.290659E+05 -4.340713E+05 -2.755563E+04  3.481043E+04
       228   2 -9.725360E+05 -3.057784E+05 -9.922690E+04 -4.029991E+05 -1.667168E+04  3.438365E+04
       228   3 -8.838891E+05 -2.805711E+05 -7.744031E+04 -3.870855E+05 -5.135639E+03  3.221913E+04
       228   4 -4.938564E+05 -1.447484E+05 -2.443456E+04 -2.770707E+05 -3.276228E+04  3.285046E+04
       228   5 -4.993559E+05 -1.336764E+05 -1.286656E+04 -2.703986E+05 -2.479711E+04  3.132903E+04
       228   6 -4.931413E+05 -1.398771E+05 -7.031211E+03 -2.788875E+05 -1.618139E+04  2.807006E+04
       228   7  6.264903E+04  5.937072E+04  8.018302E+04 -1.199401E+05 -3.797387E+04  3.088859E+04
       228   8 -2.594007E+04  3.844722E+04  7.348598E+04 -1.377036E+05 -3.292916E+04  2.827191E+04
       228   9 -1.022286E+05  8.325885E+02  6.337419E+04 -1.706250E+05 -2.723468E+04  2.391820E+04
       228  10 -1.050044E+06 -3.488408E+05 -1.290696E+05 -4.340706E+05  6.903451E-08  2.725406E-08
       228  11 -9.725366E+05 -3.057797E+05 -9.922964E+04 -4.029987E+05  8.895498E-09  6.802210E-09
       228  12 -8.838894E+05 -2.805722E+05 -7.744231E+04 -3.870854E+05 -5.570978E-08 -2.025992E-08
       228  13 -4.938578E+05 -1.447498E+05 -2.443861E+04 -2.770699E+05 -4.782457E-09 -8.462664E-10
       228  14 -4.993568E+05 -1.336776E+05 -1.286956E+04 -2.703980E+05  2.430127E-09  3.888437E-09
       228  15 -4.931418E+05 -1.398780E+05 -7.033183E+03 -2.788871E+05  3.613249E-10  1.579229E-09
       228  16  6.264722E+04  5.936931E+04  8.017852E+04 -1.199391E+05 -7.607582E-08 -2.777921E-08
       228  17 -2.594145E+04  3.844608E+04  7.348245E+04 -1.377029E+05 -5.051927E-09 -1.258087E-09
       228  18 -1.022295E+05  8.317754E+02  6.337173E+04 -1.706245E+05  5.863365E-08  2.412852E-08
       228  19 -1.050043E+06 -3.488393E+05 -1.290659E+05 -4.340713E+05  2.755563E+04 -3.481043E+04
       228  20 -9.725360E+05 -3.057784E+05 -9.922690E+04 -4.029991E+05  1.667168E+04 -3.438365E+04
       228  21 -8.838891E+05 -2.805711E+05 -7.744031E+04 -3.870855E+05  5.135639E+03 -3.221913E+04
       228  22 -4.938564E+05 -1.447484E+05 -2.443456E+04 -2.770707E+05  3.276228E+04 -3.285046E+04
       228  23 -4.993559E+05 -1.336764E+05 -1.286656E+04 -2.703986E+05  2.479711E+04 -3.132903E+04
       228  24 -4.931413E+05 -1.398771E+05 -7.031211E+03 -2.788875E+05  1.618139E+04 -2.807006E+04
       228  25  6.264903E+04  5.937072E+04  8.018302E+04 -1.199401E+05  3.797387E+04 -3.088859E+04
       228  26 -2.594007E+04  3.844722E+04  7.348598E+04 -1.377036E+05  3.292916E+04 -2.827191E+04
       228  27 -1.022286E+05  8.325885E+02  6.337419E+04 -1.706250E+05  2.723468E+04 -2.391820E+04
       229   1 -8.284891E+05 -2.611383E+05 -6.538528E+04 -3.721412E+05 -2.938445E+03  2.865418E+04
       229   2 -7.514180E+05 -2.237222E+05 -4.796983E+04 -3.408667E+05  1.208225E+03  2.279010E+04
       229   3 -6.607373E+05 -2.004387E+05 -3.187643E+04 -3.255022E+05  5.409978E+03  1.677567E+04
       229   4 -4.928129E+05 -1.399596E+05 -5.285251E+03 -2.787530E+05 -1.376192E+04  2.458963E+04
       229   5 -4.996203E+05 -1.328404E+05 -2.910545E+03 -2.708227E+05 -9.867941E+03  1.863198E+04
       229   6 -4.927755E+05 -1.398037E+05 -1.657444E+03 -2.788046E+05 -5.919148E+03  1.252392E+04
       229   7 -1.570177E+05 -1.877024E+04  5.481145E+04 -1.853176E+05 -2.459163E+04  2.052275E+04
       229   8 -2.477567E+05 -4.195305E+04  4.214677E+04 -2.007525E+05 -2.094884E+04  1.447208E+04
       229   9 -3.247855E+05 -7.916667E+04  2.856065E+04 -2.320957E+05 -1.725143E+04  8.270997E+03
       229  10 -8.284894E+05 -2.611392E+05 -6.538684E+04 -3.721411E+05  2.061233E-09 -9.088982E-10
       229  11 -7.514181E+05 -2.237228E+05 -4.797081E+04 -3.408667E+05  1.530142E-09 -2.362520E-09
       229  12 -6.607374E+05 -2.004390E+05 -3.187701E+04 -3.255023E+05 -9.043774E-11 -1.641701E-09
       229  13 -4.928133E+05 -1.399603E+05 -5.286742E+03 -2.787527E+05  1.448549E-10 -3.792221E-10
       229  14 -4.996205E+05 -1.328408E+05 -2.911380E+03 -2.708226E+05 -1.286817E-09 -6.326063E-10
       229  15 -4.927756E+05 -1.398039E+05 -1.657805E+03 -2.788046E+05 -1.101092E-09 -1.269296E-09
       229  16 -1.570185E+05 -1.877085E+04  5.480952E+04 -1.853172E+05 -6.077254E-10  5.174312E-10
       229  17 -2.477573E+05 -4.195340E+04  4.214555E+04 -2.007523E+05  1.032366E-09 -1.084746E-09
       229  18 -3.247859E+05 -7.916682E+04  2.855996E+04 -2.320955E+05  1.361767E-09 -7.506915E-10
       229  19 -8.284891E+05 -2.611383E+05 -6.538528E+04 -3.721412E+05  2.938445E+03 -2.865418E+04
       229  20 -7.514180E+05 -2.237222E+05 -4.796983E+04 -3.408667E+05 -1.208225E+03 -2.279010E+04
       229  21 -6.607373E+05 -2.004387E+05 -3.187643E+04 -3.255022E+05 -5.409978E+03 -1.677567E+04
       229  22 -4.928129E+05 -1.399596E+05 -5.285251E+03 -2.787530E+05  1.376192E+04 -2.458963E+04
       229  23 -4.996203E+05 -1.328404E+05 -2.910545E+03 -2.708227E+05  9.867941E+03 -1.863198E+04
       229  24 -4.927755E+05 -1.398037E+05 -1.657444E+03 -2.788046E+05  5.919148E+03 -1.252392E+04
       229  25 -1.570177E+05 -1.877024E+04  5.481145E+04 -1.853176E+05  2.459163E+04 -2.052275E+04
       229  26 -2.477567E+05 -4.195305E+04  4.214677E+04 -2.007525E+05  2.094884E+04 -1.447208E+04
       229  27 -3.247855E+05 -7.916667E+04  2.856065E+04 -2.320957E+05  1.725143E+04 -8.270997E+03
       230   1 -6.059661E+05 -1.806274E+05 -2.129673E+04 -3.103008E+05  7.107736E+03  1.294207E+04
       230   2 -5.289784E+05 -1.434151E+05 -6.083026E+03 -2.789592E+05  1.007263E+04  6.384340E+03
       230   3 -4.381356E+05 -1.201237E+05  8.801068E+03 -2.635418E+05  1.304170E+04 -1.849438E+02
       230   4 -4.927354E+05 -1.398105E+05 -1.289886E+03 -2.787908E+05 -4.204390E+03  8.697138E+03
       230   5 -4.996596E+05 -1.328561E+05 -8.463156E+02 -2.708247E+05 -1.259743E+03  2.131928E+03
       230   6 -4.927344E+05 -1.398201E+05 -7.173238E+02 -2.787861E+05  1.689010E+03 -4.444837E+03
       230   7 -3.794896E+05 -9.899183E+04  1.871741E+04 -2.472751E+05 -1.551883E+04  4.451338E+03
       230   8 -4.703395E+05 -1.222968E+05  4.390960E+03 -2.626896E+05 -1.259275E+04 -2.120719E+03
       230   9 -5.473297E+05 -1.595162E+05 -1.023526E+04 -2.940292E+05 -9.662622E+03 -8.704333E+03
       230  10 -6.059662E+05 -1.806276E+05 -2.129714E+04 -3.103008E+05  2.017642E-10 -2.369125E-10
       230  11 -5.289785E+05 -1.434152E+05 -6.083293E+03 -2.789593E+05  3.758714E-10 -5.579507E-11
       230  12 -4.381358E+05 -1.201237E+05  8.800748E+03 -2.635418E+05  8.093181E-10  6.106478E-10
       230  13 -4.927354E+05 -1.398106E+05 -1.290061E+03 -2.787908E+05 -2.919187E-10 -5.425912E-10
       230  14 -4.996596E+05 -1.328561E+05 -8.463271E+02 -2.708247E+05 -6.594899E-11 -5.363095E-10
       230  15 -4.927344E+05 -1.398201E+05 -7.173663E+02 -2.787861E+05  6.820434E-10  4.826194E-10
       230  16 -3.794899E+05 -9.899191E+04  1.871692E+04 -2.472750E+05 -3.167518E-10 -6.815682E-10
       230  17 -4.703397E+05 -1.222969E+05  4.390653E+03 -2.626896E+05  6.485425E-10 -2.910673E-10
       230  18 -5.473298E+05 -1.595163E+05 -1.023558E+04 -2.940292E+05 -1.336895E-09 -2.764719E-10
       230  19 -6.059661E+05 -1.806274E+05 -2.129673E+04 -3.103008E+05 -7.107736E+03 -1.294207E+04
       230  20 -5.289784E+05 -1.434151E+05 -6.083026E+03 -2.789592E+05 -1.007263E+04 -6.384340E+03
       230  21 -4.381356E+05 -1.201237E+05  8.801068E+03 -2.635418E+05 -1.304170E+04  1.849438E+02
       230  22 -4.927354E+05 -1.398105E+05 -1.289886E+03 -2.787908E+05  4.204390E+03 -8.697138E+03
       230  23 -4.996596E+05 -1.328561E+05 -8.463156E+02 -2.708247E+05  1.259743E+03 -2.131928E+03
       230  24 -4.927344E+05 -1.398201E+05 -7.173238E+02 -2.787861E+05 -1.689010E+03  4.444837E+03
       230  25 -3.794896E+05 -9.899183E+04  1.871741E+04 -2.472751E+05  1.551883E+04 -4.451338E+03
       230  26 -4.703395E+05 -1.222968E+05  4.390960E+03 -2.626896E+05  1.259275E+04  2.120719E+03
       230  27 -5.473297E+05 -1.595162E+05 -1.023526E+04 -2.940292E+05  9.662622E+03  8.704333E+03
       231   1 -3.834229E+05 -1.002886E+05  1.897320E+04 -2.483264E+05  1.463660E+04 -4.062834E+03
       231   2 -3.064434E+05 -6.308359E+04  3.345122E+04 -2.169894E+05  1.764568E+04 -1.061319E+04
       231   3 -2.156148E+05 -3.979127E+04  4.757089E+04 -2.015735E+05  2.064984E+04 -1.714738E+04
       231   4 -4.927398E+05 -1.398215E+05 -7.485172E+02 -2.787859E+05  3.284054E+03 -8.322911E+03
       231   5 -4.996637E+05 -1.328639E+05 -1.021001E+03 -2.708255E+05  6.319068E+03 -1.486452E+04
       231   6 -4.927507E+05 -1.398248E+05 -1.672543E+03 -2.787893E+05  9.349117E+03 -2.139000E+04
       231   7 -6.020427E+05 -1.793529E+05 -2.046980E+04 -3.092400E+05 -8.066252E+03 -1.258215E+04
       231   8 -6.928442E+05 -2.026405E+05 -3.549391E+04 -3.246459E+05 -5.003784E+03 -1.911443E+04
       231   9 -7.698079E+05 -2.398519E+05 -5.091870E+04 -3.559735E+05 -1.946342E+03 -2.563064E+04
       231  10 -3.834232E+05 -1.002886E+05  1.897277E+04 -2.483263E+05  2.477733E-08  1.026551E-08
       231  11 -3.064438E+05 -6.308380E+04  3.345042E+04 -2.169892E+05  5.174468E-09  3.316068E-09
       231  12 -2.156154E+05 -3.979170E+04  4.756954E+04 -2.015733E+05 -2.264223E-08 -9.439783E-09
       231  13 -4.927398E+05 -1.398216E+05 -7.486675E+02 -2.787859E+05  2.582550E-09  1.896275E-09
       231  14 -4.996638E+05 -1.328641E+05 -1.021491E+03 -2.708254E+05  1.906534E-09  2.825281E-09
       231  15 -4.927509E+05 -1.398253E+05 -1.673567E+03 -2.787891E+05 -4.852910E-09 -1.441369E-09
       231  16 -6.020428E+05 -1.793530E+05 -2.047022E+04 -3.092401E+05 -1.932009E-08 -6.815139E-09
       231  17 -6.928444E+05 -2.026409E+05 -3.549464E+04 -3.246460E+05  1.618475E-09  3.865637E-09
       231  18 -7.698081E+05 -2.398526E+05 -5.091994E+04 -3.559735E+05  1.563252E-08  7.578211E-09
       231  19 -3.834229E+05 -1.002886E+05  1.897320E+04 -2.483264E+05 -1.463660E+04  4.062834E+03
       231  20 -3.064434E+05 -6.308359E+04  3.345122E+04 -2.169894E+05 -1.764568E+04  1.061319E+04
       231  21 -2.156148E+05 -3.979127E+04  4.757089E+04 -2.015735E+05 -2.064984E+04  1.714738E+04
       231  22 -4.927398E+05 -1.398215E+05 -7.485172E+02 -2.787859E+05 -3.284054E+03  8.322911E+03
       231  23 -4.996637E+05 -1.328639E+05 -1.021001E+03 -2.708255E+05 -6.319068E+03  1.486452E+04
       231  24 -4.927507E+05 -1.398248E+05 -1.672543E+03 -2.787893E+05 -9.349117E+03  2.139000E+04
       231  25 -6.020427E+05 -1.793529E+05 -2.046980E+04 -3.092400E+05  8.066252E+03  1.258215E+04
       231  26 -6.928442E+05 -2.026405E+05 -3.549391E+04 -3.246459E+05  5.003784E+03  1.911443E+04
       231  27 -7.698079E+05 -2.398519E+05 -5.091870E+04 -3.559735E+05  1.946342E+03  2.563064E+04
       232   1 -1.609507E+05 -1.998118E+04  5.726493E+04 -1.864079E+05  2.245898E+04 -2.093355E+04
       232   2 -8.395679E+04  1.721013E+04  7.040060E+04 -1.550738E+05  2.658747E+04 -2.694521E+04
       232   3  6.667181E+03  4.032314E+04  8.227679E+04 -1.396358E+05  3.065025E+04 -3.277501E+04
       232   4 -4.928111E+05 -1.398191E+05 -2.184603E+03 -2.788077E+05  1.113844E+04 -2.518455E+04
       232   5 -4.996213E+05 -1.328590E+05 -3.894869E+03 -2.708223E+05  1.557063E+04 -3.108430E+04
       232   6 -4.928686E+05 -1.400390E+05 -7.106021E+03 -2.787368E+05  1.993685E+04 -3.680218E+04
       232   7 -8.245550E+05 -2.596465E+05 -6.163727E+04 -3.711613E+05 -1.756422E+02 -2.943314E+04
       232   8 -9.151012E+05 -2.829109E+05 -7.819500E+04 -3.864980E+05  4.561721E+03 -3.522042E+04
       232   9 -9.921360E+05 -3.203755E+05 -9.649533E+04 -4.177321E+05  9.232746E+03 -4.082588E+04
       232  10 -1.609514E+05 -1.998178E+04  5.726316E+04 -1.864075E+05 -8.852952E-09 -4.974245E-09
       232  11 -8.395774E+04  1.720916E+04  7.039791E+04 -1.550732E+05 -2.680644E-09 -1.683933E-09
       232  12  6.665884E+03  4.032173E+04  8.227301E+04 -1.396350E+05 -1.630374E-09  1.576626E-11
       232  13 -4.928114E+05 -1.398198E+05 -2.186028E+03 -2.788074E+05 -4.998035E-09 -2.209235E-09
       232  14 -4.996218E+05 -1.328601E+05 -3.897139E+03 -2.708219E+05 -2.573937E-11 -5.459559E-10
       232  15 -4.928694E+05 -1.400405E+05 -7.109312E+03 -2.787362E+05 -7.678054E-10  2.140533E-10
       232  16 -8.245552E+05 -2.596474E+05 -6.163890E+04 -3.711613E+05 -1.310058E-09  1.460563E-10
       232  17 -9.151016E+05 -2.829122E+05 -7.819737E+04 -3.864978E+05  4.028583E-09 -1.531724E-10
       232  18 -9.921366E+05 -3.203773E+05 -9.649862E+04 -4.177318E+05  2.625729E-09  1.007280E-09
       232  19 -1.609507E+05 -1.998118E+04  5.726493E+04 -1.864079E+05 -2.245898E+04  2.093355E+04
       232  20 -8.395679E+04  1.721013E+04  7.040060E+04 -1.550738E+05 -2.658747E+04  2.694521E+04
       232  21  6.667181E+03  4.032314E+04  8.227679E+04 -1.396358E+05 -3.065025E+04  3.277501E+04
       232  22 -4.928111E+05 -1.398191E+05 -2.184603E+03 -2.788077E+05 -1.113844E+04  2.518455E+04
       232  23 -4.996213E+05 -1.328590E+05 -3.894869E+03 -2.708223E+05 -1.557063E+04  3.108430E+04
       232  24 -4.928686E+05 -1.400390E+05 -7.106021E+03 -2.787368E+05 -1.993685E+04  3.680218E+04
       232  25 -8.245550E+05 -2.596465E+05 -6.163727E+04 -3.711613E+05  1.756422E+02  2.943314E+04
       232  26 -9.151012E+05 -2.829109E+05 -7.819500E+04 -3.864980E+05 -4.561721E+03  3.522042E+04
       232  27 -9.921360E+05 -3.203755E+05 -9.649533E+04 -4.177321E+05 -9.232746E+03  4.082588E+04
       233   1  6.141881E+04  5.982536E+04  9.024135E+04 -1.251302E+05  3.366792E+04 -3.600656E+04
       233   2  1.374216E+05  9.754276E+04  9.854896E+04 -9.165391E+04  4.093704E+04 -3.951628E+04
       233   3  2.250908E+05  1.175245E+05  1.019272E+05 -7.306573E+04  4.742483E+04 -4.093752E+04
       233   4 -4.933055E+05 -1.399293E+05 -9.460069E+03 -2.789173E+05  2.268686E+04 -4.013579E+04
       233   5 -4.992694E+05 -1.339897E+05 -1.732512E+04 -2.702479E+05  3.346620E+04 -4.232954E+04
       233   6 -4.942736E+05 -1.464878E+05 -3.290747E+04 -2.764718E+05  4.346302E+04 -4.243389E+04
       233   7 -1.047711E+06 -3.396575E+05 -1.091731E+05 -4.325780E+05  1.171616E+04 -4.426119E+04
       233   8 -1.135537E+06 -3.654843E+05 -1.332144E+05 -4.486718E+05  2.600349E+04 -4.513972E+04
       233   9 -1.213097E+06 -4.104494E+05 -1.677625E+05 -4.796576E+05  3.950610E+04 -4.392838E+04
       233  10  6.141724E+04  5.982366E+04  9.023679E+04 -1.251293E+05  1.019382E-09  1.717195E-09
       233  11  1.374194E+05  9.754064E+04  9.854288E+04 -9.165261E+04  4.408006E-10  4.000438E-10
       233  12  2.250879E+05  1.175221E+05  1.019198E+05 -7.306417E+04 -3.725732E-09  9.483557E-10
       233  13 -4.933065E+05 -1.399312E+05 -9.464062E+03 -2.789166E+05 -1.092198E-09  2.103712E-10
       233  14 -4.992711E+05 -1.339919E+05 -1.733059E+04 -2.702467E+05 -1.381031E-09  1.057902E-09
       233  15 -4.942761E+05 -1.464903E+05 -3.291440E+04 -2.764703E+05 -1.080221E-09  1.514899E-09
       233  16 -1.047712E+06 -3.396597E+05 -1.091770E+05 -4.325776E+05 -2.510980E-09  2.075820E-10
       233  17 -1.135539E+06 -3.654867E+05 -1.332195E+05 -4.486708E+05 -6.914517E-10  1.097383E-09
       233  18 -1.213099E+06 -4.104519E+05 -1.677691E+05 -4.796562E+05  1.103150E-09  1.696356E-09
       233  19  6.141881E+04  5.982536E+04  9.024135E+04 -1.251302E+05 -3.366792E+04  3.600656E+04
       233  20  1.374216E+05  9.754276E+04  9.854896E+04 -9.165391E+04 -4.093704E+04  3.951628E+04
       233  21  2.250908E+05  1.175245E+05  1.019272E+05 -7.306573E+04 -4.742483E+04  4.093752E+04
       233  22 -4.933055E+05 -1.399293E+05 -9.460069E+03 -2.789173E+05 -2.268686E+04  4.013579E+04
       233  23 -4.992694E+05 -1.339897E+05 -1.732512E+04 -2.702479E+05 -3.346620E+04  4.232954E+04
       233  24 -4.942736E+05 -1.464878E+05 -3.290747E+04 -2.764718E+05 -4.346302E+04  4.243389E+04
       233  25 -1.047711E+06 -3.396575E+05 -1.091731E+05 -4.325780E+05 -1.171616E+04  4.426119E+04
       233  26 -1.135537E+06 -3.654843E+05 -1.332144E+05 -4.486718E+05 -2.600349E+04  4.513972E+04
       233  27 -1.213097E+06 -4.104494E+05 -1.677625E+05 -4.796576E+05 -3.950610E+04  4.392838E+04
       234   1  2.836014E+05  1.315260E+05  1.030035E+05 -6.937267E+04  5.664023E+04 -4.073493E+04
       234   2  3.307992E+05  1.810986E+05  9.579372E+04  1.543679E+04  5.576533E+04 -3.195769E+04
       234   3  3.604465E+05  1.390048E+05  6.522660E+04  1.074402E+05  4.570061E+04  1.223674E+03
       234   4 -4.996528E+05 -1.448778E+05 -4.364903E+04 -2.789869E+05  4.947727E+04 -4.343554E+04
       234   5 -4.965477E+05 -1.636384E+05 -8.290791E+04 -2.567607E+05  8.971340E+04 -1.919532E+04
       234   6 -5.191947E+05 -2.822973E+05 -1.781437E+05 -2.273361E+05  1.207502E+05  2.946406E+04
       234   7 -1.282266E+06 -4.212341E+05 -1.903254E+05 -4.883589E+05  4.232398E+04 -4.613277E+04
       234   8 -1.323170E+06 -5.082534E+05 -2.616396E+05 -5.285985E+05  1.236123E+05 -6.457153E+03
       234   9 -1.398018E+06 -7.033781E+05 -4.215512E+05 -5.616211E+05  1.956816E+05  5.763219E+04
       234  10  2.835975E+05  1.315234E+05  1.029944E+05 -6.937081E+04 -2.751832E-10  3.837948E-09
       234  11  3.307956E+05  1.810967E+05  9.578596E+04  1.543822E+04 -1.459808E-10  2.765057E-10
       234  12  3.604443E+05  1.390042E+05  6.522267E+04  1.074402E+05 -9.138673E-10  7.677161E-10
       234  13 -4.996560E+05 -1.448805E+05 -4.365718E+04 -2.789852E+05 -3.108651E-09  1.608004E-09
       234  14 -4.965565E+05 -1.636410E+05 -8.292374E+04 -2.567594E+05 -7.517965E-10  2.122127E-09
       234  15 -5.192106E+05 -2.823021E+05 -1.781727E+05 -2.273390E+05 -4.194373E-10  9.535615E-10
       234  16 -1.282269E+06 -4.212369E+05 -1.903327E+05 -4.883574E+05 -1.079485E-09  5.238185E-10
       234  17 -1.323187E+06 -5.082576E+05 -2.616684E+05 -5.285979E+05 -1.644250E-09  2.149822E-09
       234  18 -1.398061E+06 -7.033920E+05 -4.216296E+05 -5.616302E+05  1.329070E-10 -8.518510E-10
       234  19  2.836014E+05  1.315260E+05  1.030035E+05 -6.937267E+04 -5.664023E+04  4.073493E+04
       234  20  3.307992E+05  1.810986E+05  9.579372E+04  1.543679E+04 -5.576533E+04  3.195769E+04
       234  21  3.604465E+05  1.390048E+05  6.522660E+04  1.074402E+05 -4.570061E+04 -1.223674E+03
       234  22 -4.996528E+05 -1.448778E+05 -4.364903E+04 -2.789869E+05 -4.947727E+04  4.343554E+04
       234  23 -4.965477E+05 -1.636384E+05 -8.290791E+04 -2.567607E+05 -8.971340E+04  1.919532E+04
       234  24 -5.191947E+05 -2.822973E+05 -1.781437E+05 -2.273361E+05 -1.207502E+05 -2.946406E+04
       234  25 -1.282266E+06 -4.212341E+05 -1.903254E+05 -4.883589E+05 -4.232398E+04  4.613277E+04
       234  26 -1.323170E+06 -5.082534E+05 -2.616396E+05 -5.285985E+05 -1.236123E+05  6.457153E+03
       234  27 -1.398018E+06 -7.033781E+05 -4.215512E+05 -5.616211E+05 -1.956816E+05 -5.763219E+04
       235   1  1.195386E+06  1.588824E+05  1.371636E+05  1.411418E+03  1.632187E+04 -1.414797E+04
       235   2  1.148455E+06  2.014867E+05  1.315697E+05  2.571574E+04 -9.919173E+02 -4.821230E+04
       235   3  1.093913E+06  2.044278E+05  1.273714E+05  5.913052E+04 -1.834384E+04 -5.951809E+04
       235   4  2.045407E+05 -8.505473E+04 -9.368033E+04  5.420058E+04 -6.547108E+04 -1.430807E+04
       235   5  2.119230E+05 -2.103179E+04 -4.585574E+04  4.955612E+04 -4.177473E+04 -4.830453E+04
       235   6  2.045619E+05 -3.823103E+03 -2.510478E+04  5.402246E+04 -1.811740E+04 -5.952512E+04
       235   7 -7.853799E+05 -3.290469E+05 -3.245640E+05  1.069046E+05 -1.471345E+05 -1.448220E+04
       235   8 -7.237586E+05 -2.435983E+05 -2.233136E+05  7.335927E+04 -8.249757E+04 -4.839998E+04
       235   9 -6.840130E+05 -2.121162E+05 -1.776076E+05  4.892148E+04 -1.789126E+04 -5.953217E+04
       235  10  1.195386E+06  1.588821E+05  1.371628E+05  1.411604E+03  4.918953E-09 -9.839221E-10
       235  11  1.148454E+06  2.014842E+05  1.315653E+05  2.571571E+04  2.347344E-09 -4.687519E-09
       235  12  1.093912E+06  2.044239E+05  1.273641E+05  5.912965E+04  2.594990E-10 -3.948279E-09
       235  13  2.045361E+05 -8.505610E+04 -9.368876E+04  5.419983E+04  5.549164E-11  1.162027E-09
       235  14  2.119205E+05 -2.103476E+04 -4.586340E+04  4.955450E+04 -2.600535E-10 -2.889339E-09
       235  15  2.045606E+05 -3.826997E+03 -2.511206E+04  5.402159E+04 -6.310270E-10 -4.594020E-10
       235  16 -7.854032E+05 -3.290529E+05 -3.246051E+05  1.069029E+05 -3.987895E-09  1.803748E-10
       235  17 -7.237666E+05 -2.436027E+05 -2.233308E+05  7.335606E+04 -1.413996E-09 -7.388985E-09
       235  18 -6.840143E+05 -2.121201E+05 -1.776148E+05  4.892062E+04 -8.558931E-10 -6.854079E-09
       235  19  1.195386E+06  1.588824E+05  1.371636E+05  1.411418E+03 -1.632187E+04  1.414797E+04
       235  20  1.148455E+06  2.014867E+05  1.315697E+05  2.571574E+04  9.919173E+02  4.821230E+04
       235  21  1.093913E+06  2.044278E+05  1.273714E+05  5.913052E+04  1.834384E+04  5.951809E+04
       235  22  2.045407E+05 -8.505473E+04 -9.368033E+04  5.420058E+04  6.547108E+04  1.430807E+04
       235  23  2.119230E+05 -2.103179E+04 -4.585574E+04  4.955612E+04  4.177473E+04  4.830453E+04
       235  24  2.045619E+05 -3.823103E+03 -2.510478E+04  5.402246E+04  1.811740E+04  5.952512E+04
       235  25 -7.853799E+05 -3.290469E+05 -3.245640E+05  1.069046E+05  1.471345E+05  1.448220E+04
       235  26 -7.237586E+05 -2.435983E+05 -2.233136E+05  7.335927E+04  8.249757E+04  4.839998E+04
       235  27 -6.840130E+05 -2.121162E+05 -1.776076E+05  4.892148E+04  1.789126E+04  5.953217E+04
       236   1  1.063287E+06  1.957654E+05  1.257939E+05  5.400575E+04 -1.321911E+04 -5.886982E+04
       236   2  1.013255E+06  1.866853E+05  1.219391E+05  4.995716E+04 -1.199482E+04 -5.867523E+04
       236   3  9.625646E+05  1.756085E+05  1.167931E+05  5.648246E+04 -1.077723E+04 -5.626042E+04
       236   4  2.075480E+05 -4.211008E+03 -1.902954E+04  5.436830E+04 -1.485954E+04 -5.888109E+04
       236   5  2.082385E+05 -6.785027E+02 -1.044634E+04  4.907524E+04 -9.639283E+03 -5.867638E+04
       236   6  2.075737E+05  1.625346E+02 -5.929949E+03  5.435698E+04 -4.425540E+03 -5.625001E+04
       236   7 -6.474712E+05 -2.042261E+05 -1.638766E+05  5.472990E+04 -1.649778E+04 -5.889236E+04
       236   8 -5.961380E+05 -1.880756E+05 -1.428507E+05  4.819409E+04 -7.286686E+03 -5.867754E+04
       236   9 -5.468527E+05 -1.753124E+05 -1.286688E+05  5.223380E+04  1.918706E+03 -5.623963E+04
       236  10  1.063286E+06  1.957617E+05  1.257870E+05  5.400512E+04 -6.664801E-09 -4.502313E-09
       236  11  1.013254E+06  1.866815E+05  1.219324E+05  4.995659E+04 -1.368247E-09  1.580661E-09
       236  12  9.625637E+05  1.756051E+05  1.167869E+05  5.648197E+04  1.701412E-09  2.516793E-09
       236  13  2.075468E+05 -4.214790E+03 -1.903647E+04  5.436759E+04 -2.165109E-09 -3.156780E-09
       236  14  2.082375E+05 -6.822251E+02 -1.045299E+04  4.907478E+04 -7.573821E-10  1.701326E-11
       236  15  2.075728E+05  1.591314E+02 -5.935932E+03  5.435678E+04  1.192723E-09 -2.005939E-09
       236  16 -6.474724E+05 -2.042299E+05 -1.638836E+05  5.472911E+04  5.313011E-09 -2.135485E-10
       236  17 -5.961390E+05 -1.880793E+05 -1.428573E+05  4.819375E+04  1.252952E-09  2.271883E-09
       236  18 -5.468536E+05 -1.753158E+05 -1.286747E+05  5.223389E+04 -1.810824E-09  1.012552E-09
       236  19  1.063287E+06  1.957654E+05  1.257939E+05  5.400575E+04  1.321911E+04  5.886982E+04
       236  20  1.013255E+06  1.866853E+05  1.219391E+05  4.995716E+04  1.199482E+04  5.867523E+04
       236  21  9.625646E+05  1.756085E+05  1.167931E+05  5.648246E+04  1.077723E+04  5.626042E+04
       236  22  2.075480E+05 -4.211008E+03 -1.902954E+04  5.436830E+04  1.485954E+04  5.888109E+04
       236  23  2.082385E+05 -6.785027E+02 -1.044634E+04  4.907524E+04  9.639283E+03  5.867638E+04
       236  24  2.075737E+05  1.625346E+02 -5.929949E+03  5.435698E+04  4.425540E+03  5.625001E+04
       236  25 -6.474712E+05 -2.042261E+05 -1.638766E+05  5.472990E+04  1.649778E+04  5.889236E+04
       236  26 -5.961380E+05 -1.880756E+05 -1.428507E+05  4.819409E+04  7.286686E+03  5.867754E+04
       236  27 -5.468527E+05 -1.753124E+05 -1.286688E+05  5.223380E+04 -1.918706E+03  5.623963E+04
       237   1  9.303505E+05  1.679434E+05  1.125845E+05  5.609235E+04 -9.689837E+03 -5.415260E+04
       237   2  8.801571E+05  1.563395E+05  1.061007E+05  5.065217E+04 -8.820677E+03 -5.062260E+04
       237   3  8.298163E+05  1.447148E+05  9.903811E+04  5.591400E+04 -7.953874E+03 -4.687735E+04
       237   4  2.078358E+05  1.162897E+02 -4.495386E+03  5.438693E+04 -3.523389E+03 -5.414174E+04
       237   5  2.079556E+05  2.502540E+02 -2.549279E+03  4.903534E+04 -2.267839E+03 -5.060920E+04
       237   6  2.078582E+05  2.962610E+02 -1.450844E+03  5.438643E+04 -1.014578E+03 -4.686130E+04
       237   7 -5.141617E+05 -1.677373E+05 -1.215896E+05  5.268321E+04  2.636144E+03 -5.413091E+04
       237   8 -4.637980E+05 -1.558618E+05 -1.112115E+05  4.742001E+04  4.278164E+03 -5.059584E+04
       237   9 -4.137164E+05 -1.441418E+05 -1.019502E+05  5.286016E+04  5.918019E+03 -4.684529E+04
       237  10  9.303496E+05  1.679402E+05  1.125789E+05  5.609192E+04 -3.953615E-09  5.058937E-09
       237  11  8.801563E+05  1.563367E+05  1.060957E+05  5.065181E+04  6.218093E-11  3.803810E-09
       237  12  8.298156E+05  1.447124E+05  9.903386E+04  5.591370E+04  7.317236E-09 -5.876740E-10
       237  13  2.078350E+05  1.131384E+02 -4.500918E+03  5.438678E+04 -1.217507E-09 -3.368308E-09
       237  14  2.079549E+05  2.475020E+02 -2.554102E+03  4.903525E+04  8.977918E-10  3.596938E-09
       237  15  2.078576E+05  2.939024E+02 -1.454973E+03  5.438639E+04  1.387472E-09  5.920190E-09
       237  16 -5.141625E+05 -1.677404E+05 -1.215951E+05  5.268333E+04  4.048474E-09  1.976798E-09
       237  17 -4.637987E+05 -1.558646E+05 -1.112163E+05  4.742018E+04 -1.891127E-09  4.151717E-09
       237  18 -4.137171E+05 -1.441442E+05 -1.019544E+05  5.286039E+04 -9.282499E-09  8.529749E-10
       237  19  9.303505E+05  1.679434E+05  1.125845E+05  5.609235E+04  9.689837E+03  5.415260E+04
       237  20  8.801571E+05  1.563395E+05  1.061007E+05  5.065217E+04  8.820677E+03  5.062260E+04
       237  21  8.298163E+05  1.447148E+05  9.903811E+04  5.591400E+04  7.953874E+03  4.687735E+04
       237  22  2.078358E+05  1.162897E+02 -4.495386E+03  5.438693E+04  3.523389E+03  5.414174E+04
       237  23  2.079556E+05  2.502540E+02 -2.549279E+03  4.903534E+04  2.267839E+03  5.060920E+04
       237  24  2.078582E+05  2.962610E+02 -1.450844E+03  5.438643E+04  1.014578E+03  4.686130E+04
       237  25 -5.141617E+05 -1.677373E+05 -1.215896E+05  5.268321E+04 -2.636144E+03  5.413091E+04
       237  26 -4.637980E+05 -1.558618E+05 -1.112115E+05  4.742001E+04 -4.278164E+03  5.059584E+04
       237  27 -4.137164E+05 -1.441418E+05 -1.019502E+05  5.286016E+04 -5.918019E+03  4.684529E+04
       238   1  7.975291E+05  1.371655E+05  9.395398E+04  5.582705E+04 -7.709368E+03 -4.463063E+04
       238   2  7.473563E+05  1.255007E+05  8.640748E+04  5.036717E+04 -7.453305E+03 -4.078038E+04
       238   3  6.971167E+05  1.139052E+05  7.869663E+04  5.560966E+04 -7.198741E+03 -3.691041E+04
       238   4  2.078970E+05  2.944259E+02 -1.093736E+03  5.438660E+04 -7.903033E+02 -4.461381E+04
       238   5  2.079442E+05  2.710131E+02 -6.085132E+02  4.903515E+04 -4.992570E+02 -4.076219E+04
       238   6  2.079151E+05  3.107292E+02 -3.124232E+02  5.438660E+04 -2.096915E+02 -3.689084E+04
       238   7 -3.813903E+05 -1.365941E+05 -9.615069E+04  5.294731E+04  6.122430E+03 -4.459701E+04
       238   8 -3.311794E+05 -1.249733E+05 -8.763223E+04  4.770410E+04  6.448969E+03 -4.074402E+04
       238   9 -2.810492E+05 -1.132958E+05 -7.932782E+04  5.316434E+04  6.774051E+03 -3.687128E+04
       238  10  7.975285E+05  1.371633E+05  9.395012E+04  5.582677E+04  2.577813E-09  1.754606E-10
       238  11  7.473558E+05  1.254989E+05  8.640425E+04  5.036693E+04 -1.046693E-09  8.619501E-09
       238  12  6.971163E+05  1.139037E+05  7.869397E+04  5.560945E+04  5.872036E-10  5.992066E-09
       238  13  2.078964E+05  2.922882E+02 -1.097478E+03  5.438657E+04 -1.061556E-09  1.007325E-09
       238  14  2.079437E+05  2.692286E+02 -6.116364E+02  4.903513E+04 -1.068447E-09  6.922064E-09
       238  15  2.079147E+05  3.092676E+02 -3.149810E+02  5.438659E+04 -1.399381E-09  1.057676E-09
       238  16 -3.813908E+05 -1.365963E+05 -9.615450E+04  5.294753E+04 -2.285835E-09 -3.296059E-10
       238  17 -3.311798E+05 -1.249751E+05 -8.763543E+04  4.770431E+04  1.245916E-09  8.161724E-10
       238  18 -2.810496E+05 -1.132973E+05 -7.933046E+04  5.316454E+04 -1.164293E-09 -1.457971E-09
       238  19  7.975291E+05  1.371655E+05  9.395398E+04  5.582705E+04  7.709368E+03  4.463063E+04
       238  20  7.473563E+05  1.255007E+05  8.640748E+04  5.036717E+04  7.453305E+03  4.078038E+04
       238  21  6.971167E+05  1.139052E+05  7.869663E+04  5.560966E+04  7.198741E+03  3.691041E+04
       238  22  2.078970E+05  2.944259E+02 -1.093736E+03  5.438660E+04  7.903033E+02  4.461381E+04
       238  23  2.079442E+05  2.710131E+02 -6.085132E+02  4.903515E+04  4.992570E+02  4.076219E+04
       238  24  2.079151E+05  3.107292E+02 -3.124232E+02  5.438660E+04  2.096915E+02  3.689084E+04
       238  25 -3.813903E+05 -1.365941E+05 -9.615069E+04  5.294731E+04 -6.122430E+03  4.459701E+04
       238  26 -3.311794E+05 -1.249733E+05 -8.763223E+04  4.770410E+04 -6.448969E+03  4.074402E+04
       238  27 -2.810492E+05 -1.132958E+05 -7.932782E+04  5.316434E+04 -6.774051E+03  3.687128E+04
       239   1  6.648460E+05  1.063753E+05  7.338348E+04  5.554042E+04 -7.154184E+03 -3.465233E+04
       239   2  6.147139E+05  9.472400E+04  6.556371E+04  5.008422E+04 -7.145152E+03 -3.077489E+04
       239   3  5.645291E+05  8.314610E+04  5.773575E+04  5.532718E+04 -7.137191E+03 -2.689763E+04
       239   4  2.079258E+05  3.155461E+02 -2.080947E+02  5.438587E+04 -1.687042E+02 -3.463211E+04
       239   5  2.079598E+05  2.877105E+02 -4.013066E+01  4.903608E+04 -1.602292E+02 -3.075371E+04
       239   6  2.079395E+05  3.336184E+02  1.201044E+02  5.438585E+04 -1.528251E+02 -2.687550E+04
       239   7 -2.487872E+05 -1.057547E+05 -7.380512E+04  5.323203E+04  6.811822E+03 -3.461190E+04
       239   8 -1.986301E+05 -9.415691E+04 -6.564828E+04  4.798851E+04  6.820283E+03 -3.073255E+04
       239   9 -1.485240E+05 -8.248526E+04 -5.749883E+04  5.344497E+04  6.827674E+03 -2.685338E+04
       239  10  6.648457E+05  1.063740E+05  7.338112E+04  5.554022E+04  1.396514E-08  6.663766E-10
       239  11  6.147136E+05  9.472297E+04  6.556184E+04  5.008404E+04  4.608050E-09 -1.199600E-09
       239  12  5.645289E+05  8.314531E+04  5.773429E+04  5.532703E+04 -7.507574E-09 -1.446890E-09
       239  13  2.079255E+05  3.142580E+02 -2.103488E+02  5.438586E+04  1.366117E-10  8.880839E-09
       239  14  2.079595E+05  2.866948E+02 -4.190820E+01  4.903607E+04  3.202218E-09  9.674670E-10
       239  15  2.079393E+05  3.328427E+02  1.187469E+02  5.438585E+04 -4.325740E-10 -2.154806E-09
       239  16 -2.487876E+05 -1.057560E+05 -7.380746E+04  5.323222E+04 -1.336260E-08  1.030474E-09
       239  17 -1.986304E+05 -9.415794E+04 -6.565014E+04  4.798868E+04 -5.428610E-09 -3.756661E-09
       239  18 -1.485242E+05 -8.248605E+04 -5.750027E+04  5.344512E+04  5.377734E-09 -3.753848E-09
       239  19  6.648460E+05  1.063753E+05  7.338348E+04  5.554042E+04  7.154184E+03  3.465233E+04
       239  20  6.147139E+05  9.472400E+04  6.556371E+04  5.008422E+04  7.145152E+03  3.077489E+04
       239  21  5.645291E+05  8.314610E+04  5.773575E+04  5.532718E+04  7.137191E+03  2.689763E+04
       239  22  2.079258E+05  3.155461E+02 -2.080947E+02  5.438587E+04  1.687042E+02  3.463211E+04
       239  23  2.079598E+05  2.877105E+02 -4.013066E+01  4.903608E+04  1.602292E+02  3.075371E+04
       239  24  2.079395E+05  3.336184E+02  1.201044E+02  5.438585E+04  1.528251E+02  2.687550E+04
       239  25 -2.487872E+05 -1.057547E+05 -7.380512E+04  5.323203E+04 -6.811822E+03  3.461190E+04
       239  26 -1.986301E+05 -9.415691E+04 -6.564828E+04  4.798851E+04 -6.820283E+03  3.073255E+04
       239  27 -1.485240E+05 -8.248526E+04 -5.749883E+04  5.344497E+04 -6.827674E+03  2.685338E+04
       240   1  5.322868E+05  7.561997E+04  5.241194E+04  5.525615E+04 -7.173368E+03 -2.464073E+04
       240   2  4.821777E+05  6.397249E+04  4.465959E+04  4.979540E+04 -7.382813E+03 -2.077055E+04
       240   3  4.320391E+05  5.242432E+04  3.704419E+04  5.502491E+04 -7.592921E+03 -1.691315E+04
       240   4  2.079495E+05  3.365147E+02  2.089795E+02  5.438387E+04 -1.895731E+02 -2.461812E+04
       240   5  2.079681E+05  3.065258E+02  4.445800E+02  4.903855E+04 -4.222451E+02 -2.074737E+04
       240   6  2.079587E+05  3.799662E+02  8.331484E+02  5.438375E+04 -6.555957E+02 -1.688942E+04
       240   7 -1.162833E+05 -7.495222E+04 -5.199663E+04  5.351197E+04  6.790705E+03 -2.459553E+04
       240   8 -6.616683E+04 -6.336321E+04 -4.377229E+04  4.828197E+04  6.535359E+03 -2.072421E+04
       240   9 -1.607182E+04 -5.166691E+04 -3.537909E+04  5.374278E+04  6.279316E+03 -1.686569E+04
       240  10  5.322866E+05  7.561930E+04  5.241070E+04  5.525601E+04 -1.291697E-08  2.920811E-09
       240  11  4.821775E+05  6.397201E+04  4.465868E+04  4.979528E+04  1.744737E-08  2.500098E-10
       240  12  4.320390E+05  5.242400E+04  3.704355E+04  5.502481E+04  4.065804E-08  2.590085E-09
       240  13  2.079494E+05  3.358639E+02  2.078404E+02  5.438387E+04 -1.086128E-09  1.126494E-09
       240  14  2.079680E+05  3.060635E+02  4.437707E+02  4.903854E+04 -4.400167E-09  2.554446E-09
       240  15  2.079586E+05  3.796597E+02  8.326115E+02  5.438374E+04 -3.332649E-09  5.399091E-09
       240  16 -1.162835E+05 -7.495288E+04 -5.199785E+04  5.351210E+04  1.241172E-08  3.500611E-09
       240  17 -6.616699E+04 -6.336368E+04 -4.377318E+04  4.828208E+04 -1.806469E-08 -7.109552E-09
       240  18 -1.607194E+04 -5.166722E+04 -3.537970E+04  5.374287E+04 -4.535831E-08  1.680989E-09
       240  19  5.322868E+05  7.561997E+04  5.241194E+04  5.525615E+04  7.173368E+03  2.464073E+04
       240  20  4.821777E+05  6.397249E+04  4.465959E+04  4.979540E+04  7.382813E+03  2.077055E+04
       240  21  4.320391E+05  5.242432E+04  3.704419E+04  5.502491E+04  7.592921E+03  1.691315E+04
       240  22  2.079495E+05  3.365147E+02  2.089795E+02  5.438387E+04  1.895731E+02  2.461812E+04
       240  23  2.079681E+05  3.065258E+02  4.445800E+02  4.903855E+04  4.222451E+02  2.074737E+04
       240  24  2.079587E+05  3.799662E+02  8.331484E+02  5.438375E+04  6.555957E+02  1.688942E+04
       240  25 -1.162833E+05 -7.495222E+04 -5.199663E+04  5.351197E+04 -6.790705E+03  2.459553E+04
       240  26 -6.616683E+04 -6.336321E+04 -4.377229E+04  4.828197E+04 -6.535359E+03  2.072421E+04
       240  27 -1.607182E+04 -5.166691E+04 -3.537909E+04  5.374278E+04 -6.279316E+03  1.686569E+04
       241   1  3.998514E+05  4.488808E+04  3.190133E+04  5.501321E+04 -7.778804E+03 -1.466573E+04
       241   2  3.496755E+05  3.337547E+04  2.469612E+04  4.930271E+04 -8.550955E+03 -1.087422E+04
       241   3  2.996519E+05  2.242283E+04  1.810734E+04  5.426847E+04 -9.322976E+03 -7.208895E+03
       241   4  2.080093E+05  3.721225E+02  1.111234E+03  5.438102E+04 -8.321207E+02 -1.464167E+04
       241   5  2.079175E+05  4.883615E+02  1.975509E+03  4.904139E+04 -1.831640E+03 -1.085064E+04
       241   6  2.080139E+05  1.203945E+03  3.613752E+03  5.437812E+04 -2.831083E+03 -7.185806E+03
       241   7  1.620390E+04 -4.414565E+04 -2.967966E+04  5.374901E+04  6.112494E+03 -1.461762E+04
       241   8  6.617945E+04 -3.239974E+04 -2.074546E+04  4.878011E+04  4.886195E+03 -1.082706E+04
       241   9  1.163845E+05 -2.001533E+04 -1.087988E+04  5.448775E+04  3.659887E+03 -7.162712E+03
       241  10  3.998513E+05  4.488783E+04  3.190081E+04  5.501312E+04 -5.165982E-08  7.869212E-09
       241  11  3.496754E+05  3.337533E+04  2.469576E+04  4.930263E+04 -1.768018E-08  9.923286E-10
       241  12  2.996517E+05  2.242275E+04  1.810707E+04  5.426841E+04  1.978574E-08  5.119507E-09
       241  13  2.080093E+05  3.718920E+02  1.110830E+03  5.438101E+04 -3.177222E-09  7.775223E-09
       241  14  2.079174E+05  4.882341E+02  1.975281E+03  4.904137E+04 -6.228948E-10  6.168452E-09
       241  15  2.080139E+05  1.203888E+03  3.613640E+03  5.437810E+04  4.829517E-10 -2.468127E-09
       241  16  1.620380E+04 -4.414589E+04 -2.968013E+04  5.374908E+04  5.212794E-08  4.184185E-09
       241  17  6.617940E+04 -3.239987E+04 -2.074573E+04  4.878016E+04  1.589756E-08  1.893005E-09
       241  18  1.163844E+05 -2.001539E+04 -1.088001E+04  5.448777E+04 -2.244858E-08 -1.060527E-08
       241  19  3.998514E+05  4.488808E+04  3.190133E+04  5.501321E+04  7.778804E+03  1.466573E+04
       241  20  3.496755E+05  3.337547E+04  2.469612E+04  4.930271E+04  8.550955E+03  1.087422E+04
       241  21  2.996519E+05  2.242283E+04  1.810734E+04  5.426847E+04  9.322976E+03  7.208895E+03
       241  22  2.080093E+05  3.721225E+02  1.111234E+03  5.438102E+04  8.321207E+02  1.464167E+04
       241  23  2.079175E+05  4.883615E+02  1.975509E+03  4.904139E+04  1.831640E+03  1.085064E+04
       241  24  2.080139E+05  1.203945E+03  3.613752E+03  5.437812E+04  2.831083E+03  7.185806E+03
       241  25  1.620390E+04 -4.414565E+04 -2.967966E+04  5.374901E+04 -6.112494E+03  1.461762E+04
       241  26  6.617945E+04 -3.239974E+04 -2.074546E+04  4.878011E+04 -4.886195E+03  1.082706E+04
       241  27  1.163845E+05 -2.001533E+04 -1.087988E+04  5.448775E+04 -3.659887E+03  7.162712E+03
       242   1  2.679244E+05  1.479182E+04  1.373112E+04  5.520390E+04 -1.005427E+04 -5.047196E+03
       242   2  2.166921E+05  6.217799E+03  8.743645E+03  4.425585E+04 -1.223297E+04 -2.035683E+03
       242   3  1.678018E+05  6.242199E+03  7.298572E+03  4.387708E+04 -1.440715E+04 -3.128982E+02
       242   4  2.085826E+05  1.128162E+03  4.770762E+03  5.436108E+04 -3.457805E+03 -5.023613E+03
       242   5  2.072108E+05  4.357725E+03  8.716582E+03  4.904929E+04 -7.957112E+03 -2.020484E+03
       242   6  2.085815E+05  1.658859E+04  1.781584E+04  5.430640E+04 -1.245208E+04 -3.061299E+02
       242   7  1.492444E+05 -1.253564E+04 -4.189499E+03  5.351834E+04  3.138051E+03 -5.000047E+03
       242   8  1.977297E+05  2.497748E+03  8.689609E+03  5.384264E+04 -3.681311E+03 -2.005218E+03
       242   9  2.493630E+05  2.693526E+04  2.833305E+04  6.473640E+04 -1.049689E+04 -2.992962E+02
       242  10  2.679243E+05  1.479176E+04  1.373088E+04  5.520386E+04  7.985609E-10  3.235767E-09
       242  11  2.166919E+05  6.217754E+03  8.743356E+03  4.425583E+04 -4.543426E-10 -2.685873E-09
       242  12  1.678016E+05  6.242143E+03  7.298181E+03  4.387708E+04 -2.595745E-09  7.462152E-10
       242  13  2.085825E+05  1.128132E+03  4.770692E+03  5.436107E+04  1.485880E-10  3.818004E-09
       242  14  2.072107E+05  4.357704E+03  8.716455E+03  4.904927E+04 -7.344525E-10 -9.740575E-09
       242  15  2.085814E+05  1.658855E+04  1.781555E+04  5.430640E+04  8.772650E-10  3.751938E-09
       242  16  1.492443E+05 -1.253567E+04 -4.189565E+03  5.351836E+04  7.643871E-10  9.726457E-12
       242  17  1.977296E+05  2.497740E+03  8.689576E+03  5.384264E+04  1.809931E-09 -1.546001E-09
       242  18  2.493629E+05  2.693523E+04  2.833285E+04  6.473640E+04  2.585939E-09 -3.978691E-09
       242  19  2.679244E+05  1.479182E+04  1.373112E+04  5.520390E+04  1.005427E+04  5.047196E+03
       242  20  2.166921E+05  6.217799E+03  8.743645E+03  4.425585E+04  1.223297E+04  2.035683E+03
       242  21  1.678018E+05  6.242199E+03  7.298572E+03  4.387708E+04  1.440715E+04  3.128982E+02
       242  22  2.085826E+05  1.128162E+03  4.770762E+03  5.436108E+04  3.457805E+03  5.023613E+03
       242  23  2.072108E+05  4.357725E+03  8.716582E+03  4.904929E+04  7.957112E+03  2.020484E+03
       242  24  2.085815E+05  1.658859E+04  1.781584E+04  5.430640E+04  1.245208E+04  3.061299E+02
       242  25  1.492444E+05 -1.253564E+04 -4.189499E+03  5.351834E+04 -3.138051E+03  5.000047E+03
       242  26  1.977297E+05  2.497748E+03  8.689610E+03  5.384264E+04  3.681311E+03  2.005218E+03
       242  27  2.493630E+05  2.693526E+04  2.833305E+04  6.473640E+04  1.049689E+04  2.992962E+02
       243   1  8.875176E+04  1.047654E+06  9.133914E+04 -1.689735E+05  7.910289E+02  2.827743E+04
       243   2  2.815723E+04  9.089626E+05  4.049714E+04 -1.426093E+05  1.485001E+02  7.012132E+03
       243   3 -1.078398E+04  7.783356E+05  8.867412E+03 -1.444973E+05 -6.086770E+03 -1.425876E+04
       243   4  3.611894E+04  8.365700E+05  3.959978E+04 -1.456566E+05  7.999442E+02  2.447302E+04
       243   5  9.274256E+03  8.334274E+05  2.181295E+04 -1.315647E+05  1.356634E+02  1.328820E+04
       243   6  2.338345E+03  8.365893E+05  1.625008E+04 -1.457229E+05 -6.120846E+03  2.093439E+03
       243   7 -1.651517E+04  6.255280E+05 -1.214250E+04 -1.223476E+05  8.085760E+02  2.066990E+04
       243   8 -9.608668E+03  7.578977E+05  3.128551E+03 -1.205215E+05  1.230489E+02  1.956351E+04
       243   9  1.546069E+04  8.948471E+05  2.363374E+04 -1.469486E+05 -6.154986E+03  1.844710E+04
       243  10  8.875154E+04  1.047653E+06  9.133764E+04 -1.689735E+05  1.263528E-09  1.778779E-09
       243  11  2.815722E+04  9.089625E+05  4.049705E+04 -1.426093E+05  4.603910E-10  1.584656E-09
       243  12 -1.078408E+04  7.783353E+05  8.866961E+03 -1.444973E+05  8.690487E-10 -1.631209E-09
       243  13  3.611877E+04  8.365693E+05  3.959866E+04 -1.456566E+05 -3.963607E-10  1.883105E-09
       243  14  9.274209E+03  8.334272E+05  2.181262E+04 -1.315647E+05 -5.535928E-10  2.084093E-09
       243  15  2.338304E+03  8.365893E+05  1.625000E+04 -1.457229E+05  1.086424E-09  2.051141E-09
       243  16 -1.651528E+04  6.255275E+05 -1.214331E+04 -1.223477E+05 -6.980335E-11 -1.988577E-09
       243  17 -9.608771E+03  7.578973E+05  3.127833E+03 -1.205215E+05  1.661556E-09 -3.356902E-09
       243  18  1.546055E+04  8.948467E+05  2.363303E+04 -1.469485E+05 -7.491963E-10  1.725071E-09
       243  19  8.875176E+04  1.047654E+06  9.133914E+04 -1.689735E+05 -7.910289E+02 -2.827743E+04
       243  20  2.815723E+04  9.089626E+05  4.049714E+04 -1.426093E+05 -1.485001E+02 -7.012132E+03
       243  21 -1.078398E+04  7.783356E+05  8.867412E+03 -1.444973E+05  6.086770E+03  1.425876E+04
       243  22  3.611894E+04  8.365700E+05  3.959978E+04 -1.456566E+05 -7.999442E+02 -2.447302E+04
       243  23  9.274256E+03  8.334274E+05  2.181295E+04 -1.315647E+05 -1.356634E+02 -1.328820E+04
       243  24  2.338345E+03  8.365893E+05  1.625008E+04 -1.457229E+05  6.120846E+03 -2.093439E+03
       243  25 -1.651517E+04  6.255280E+05 -1.214250E+04 -1.223476E+05 -8.085760E+02 -2.066990E+04
       243  26 -9.608668E+03  7.578977E+05  3.128551E+03 -1.205215E+05 -1.230489E+02 -1.956351E+04
       243  27  1.546069E+04  8.948471E+05  2.363374E+04 -1.469486E+05  6.154986E+03 -1.844710E+04
       244   1 -3.113252E+04  6.904570E+05 -6.806964E+03 -1.472449E+05 -1.160157E+04 -1.649331E+04
       244   2 -6.327490E+04  5.547669E+05 -2.784305E+04 -1.304848E+05 -1.986821E+04 -2.361930E+04
       244   3 -9.067809E+04  4.210887E+05 -4.309162E+04 -1.422693E+05 -2.689946E+04 -3.074016E+04
       244   4  2.414675E+03  8.357126E+05  1.583733E+04 -1.457816E+05 -1.163468E+04 -4.638365E+02
       244   5  1.942120E+03  8.345088E+05  1.869796E+04 -1.315056E+05 -1.989524E+04 -9.820092E+03
       244   6  6.594763E+03  8.356839E+05  2.889074E+04 -1.457729E+05 -2.692066E+04 -1.917268E+04
       244   7  3.596098E+04  9.809898E+05  3.848209E+04 -1.443179E+05 -1.166772E+04  1.556924E+04
       244   8  6.715518E+04  1.114328E+06  6.523730E+04 -1.325269E+05 -1.992230E+04  3.985120E+03
       244   9  1.038585E+05  1.250448E+06  1.008676E+05 -1.492787E+05 -2.694198E+04 -7.597708E+03
       244  10 -3.113274E+04  6.904567E+05 -6.807728E+03 -1.472450E+05 -3.542079E-10  3.736243E-09
       244  11 -6.327547E+04  5.547662E+05 -2.784484E+04 -1.304852E+05  1.539974E-09  1.579259E-09
       244  12 -9.067912E+04  4.210875E+05 -4.309475E+04 -1.422700E+05 -2.712379E-10 -2.970383E-09
       244  13  2.414530E+03  8.357126E+05  1.583708E+04 -1.457816E+05  6.810619E-10  1.955636E-09
       244  14  1.941669E+03  8.345086E+05  1.869703E+04 -1.315058E+05  2.954321E-09  2.162780E-09
       244  15  6.593886E+03  8.356834E+05  2.888869E+04 -1.457733E+05 -2.126936E-09  1.869736E-09
       244  16  3.596077E+04  9.809895E+05  3.848138E+04 -1.443177E+05 -3.401796E-10 -4.086338E-09
       244  17  6.715475E+04  1.114328E+06  6.523652E+04 -1.325268E+05  2.852928E-10 -3.662988E-09
       244  18  1.038577E+05  1.250448E+06  1.008661E+05 -1.492789E+05 -3.073959E-10  2.446756E-09
       244  19 -3.113252E+04  6.904570E+05 -6.806964E+03 -1.472449E+05  1.160157E+04  1.649331E+04
       244  20 -6.327490E+04  5.547669E+05 -2.784305E+04 -1.304848E+05  1.986821E+04  2.361930E+04
       244  21 -9.067809E+04  4.210887E+05 -4.309162E+04 -1.422693E+05  2.689946E+04  3.074016E+04
       244  22  2.414675E+03  8.357126E+05  1.583733E+04 -1.457816E+05  1.163468E+04  4.638365E+02
       244  23  1.942120E+03  8.345088E+05  1.869796E+04 -1.315056E+05  1.989524E+04  9.820092E+03
       244  24  6.594763E+03  8.356839E+05  2.889074E+04 -1.457729E+05  2.692066E+04  1.917268E+04
       244  25  3.596098E+04  9.809898E+05  3.848209E+04 -1.443179E+05  1.166772E+04 -1.556924E+04
       244  26  6.715518E+04  1.114328E+06  6.523730E+04 -1.325269E+05  1.992230E+04 -3.985120E+03
       244  27  1.038585E+05  1.250448E+06  1.008676E+05 -1.492787E+05  2.694198E+04  7.597708E+03
       245   1 -1.120057E+05  3.374964E+05 -5.157209E+04 -1.497265E+05 -3.158972E+04 -3.710704E+04
       245   2 -1.217181E+05  1.951460E+05 -5.872341E+04 -9.531872E+04 -2.964221E+04 -3.740858E+04
       245   3 -7.122748E+04  6.784659E+04 -5.063577E+04 -6.824617E+04 -9.311460E+03 -3.768243E+04
       245   4  6.034735E+03  8.397547E+05  3.679910E+04 -1.455253E+05 -3.161298E+04 -2.408574E+04
       245   5  2.993357E+04  8.293284E+05  6.494762E+04 -1.317602E+05 -2.960105E+04 -5.750735E+04
       245   6  1.197399E+05  8.396529E+05  1.313012E+05 -1.453215E+05 -9.214431E+03 -9.090241E+04
       245   7  1.240616E+05  1.342260E+06  1.251618E+05 -1.413205E+05 -3.163606E+04 -1.105421E+04
       245   8  1.815662E+05  1.463900E+06  1.886017E+05 -1.682395E+05 -2.955755E+04 -7.762618E+04
       245   9  3.106884E+05  1.612025E+06  3.132109E+05 -2.224929E+05 -9.104265E+03 -1.441881E+05
       245  10 -1.120072E+05  3.374947E+05 -5.157656E+04 -1.497274E+05  5.644129E-10  4.339144E-09
       245  11 -1.217194E+05  1.951443E+05 -5.872769E+04 -9.531961E+04  2.788453E-09  2.137480E-09
       245  12 -7.122796E+04  6.784504E+04 -5.063860E+04 -6.824645E+04  4.649869E-10 -2.060340E-09
       245  13  6.033506E+03  8.397538E+05  3.679613E+04 -1.455259E+05  2.909080E-10  1.891050E-09
       245  14  2.993174E+04  8.293246E+05  6.493977E+04 -1.317616E+05  5.415516E-10  2.051663E-09
       245  15  1.197376E+05  8.396440E+05  1.312856E+05 -1.453222E+05  1.401280E-09  1.828190E-09
       245  16  1.240605E+05  1.342260E+06  1.251597E+05 -1.413208E+05  2.720374E-10 -4.350060E-09
       245  17  1.815637E+05  1.463893E+06  1.885887E+05 -1.682413E+05  8.357895E-10 -3.672071E-09
       245  18  3.106827E+05  1.612003E+06  3.131718E+05 -2.224939E+05  8.005175E-11  1.927792E-09
       245  19 -1.120057E+05  3.374964E+05 -5.157209E+04 -1.497265E+05  3.158972E+04  3.710704E+04
       245  20 -1.217181E+05  1.951460E+05 -5.872341E+04 -9.531872E+04  2.964221E+04  3.740858E+04
       245  21 -7.122748E+04  6.784659E+04 -5.063577E+04 -6.824617E+04  9.311460E+03  3.768243E+04
       245  22  6.034735E+03  8.397547E+05  3.679910E+04 -1.455253E+05  3.161298E+04  2.408574E+04
       245  23  2.993357E+04  8.293284E+05  6.494762E+04 -1.317602E+05  2.960105E+04  5.750735E+04
       245  24  1.197399E+05  8.396529E+05  1.313012E+05 -1.453215E+05  9.214431E+03  9.090241E+04
       245  25  1.240616E+05  1.342260E+06  1.251618E+05 -1.413205E+05  3.163606E+04  1.105421E+04
       245  26  1.815662E+05  1.463900E+06  1.886017E+05 -1.682395E+05  2.955755E+04  7.762618E+04
       245  27  3.106884E+05  1.612025E+06  3.132109E+05 -2.224929E+05  9.104265E+03  1.441881E+05
       246   1  1.333214E+06  4.300825E+05  2.103262E+05  4.754222E+05  5.848000E+04  5.355418E+03
       246   2  1.258862E+06  4.211303E+05  1.675387E+05  4.521819E+05  3.887353E+04 -4.104589E+04
       246   3  1.173646E+06  4.119745E+05  1.456779E+05  4.459847E+05  9.866461E+03 -6.249532E+04
       246   4  3.449815E+05  7.930981E+04 -3.964851E+04  2.247511E+05 -2.020888E+04 -2.433385E+04
       246   5  3.567865E+05  9.884594E+04 -1.846870E+04  2.104763E+05  2.316888E+03 -5.485275E+04
       246   6  3.493780E+05  1.098296E+05 -9.715945E+03  2.132476E+05  1.542951E+04 -6.040289E+04
       246   7 -6.422542E+05 -2.714075E+05 -2.896645E+05 -2.555881E+04 -9.875779E+04 -5.397678E+04
       246   8 -5.444375E+05 -2.233733E+05 -2.045082E+05 -3.090550E+04 -3.418187E+04 -6.863914E+04
       246   9 -4.741792E+05 -1.922491E+05 -1.651366E+05 -1.920156E+04  2.098467E+04 -5.831349E+04
       246  10  1.333210E+06  4.300815E+05  2.103198E+05  4.754220E+05 -1.020120E-08 -1.639665E-09
       246  11  1.258860E+06  4.211281E+05  1.675327E+05  4.521831E+05  8.164427E-09 -2.258110E-09
       246  12  1.173645E+06  4.119703E+05  1.456704E+05  4.459852E+05  2.786164E-08  1.340728E-08
       246  13  3.449809E+05  7.930907E+04 -3.965039E+04  2.247507E+05 -1.254687E-09  3.151428E-09
       246  14  3.567857E+05  9.884271E+04 -1.847436E+04  2.104764E+05 -1.248422E-09  1.843352E-10
       246  15  3.493767E+05  1.098256E+05 -9.723250E+03  2.132484E+05  2.229425E-09  1.287426E-09
       246  16 -6.422654E+05 -2.714133E+05 -2.896884E+05 -2.556310E+04  8.046302E-09  4.570369E-09
       246  17 -5.444400E+05 -2.233787E+05 -2.045193E+05 -3.090739E+04 -8.025531E-09 -3.824977E-09
       246  18 -4.741806E+05 -1.922528E+05 -1.651438E+05 -1.920058E+04 -2.250094E-08 -9.569855E-09
       246  19  1.333214E+06  4.300825E+05  2.103262E+05  4.754222E+05 -5.848000E+04 -5.355418E+03
       246  20  1.258862E+06  4.211303E+05  1.675387E+05  4.521819E+05 -3.887353E+04  4.104589E+04
       246  21  1.173646E+06  4.119745E+05  1.456779E+05  4.459847E+05 -9.866461E+03  6.249532E+04
       246  22  3.449815E+05  7.930981E+04 -3.964851E+04  2.247511E+05  2.020888E+04  2.433385E+04
       246  23  3.567865E+05  9.884594E+04 -1.846870E+04  2.104763E+05 -2.316888E+03  5.485275E+04
       246  24  3.493780E+05  1.098296E+05 -9.715945E+03  2.132476E+05 -1.542951E+04  6.040289E+04
       246  25 -6.422542E+05 -2.714075E+05 -2.896645E+05 -2.555881E+04  9.875779E+04  5.397678E+04
       246  26 -5.444375E+05 -2.233733E+05 -2.045082E+05 -3.090550E+04  3.418187E+04  6.863914E+04
       246  27 -4.741792E+05 -1.922491E+05 -1.651366E+05 -1.920156E+04 -2.098467E+04  5.831349E+04
       247   1  1.127585E+06  3.922195E+05  1.375349E+05  4.313545E+05  1.336968E+04 -5.852543E+04
       247   2  1.060621E+06  3.607028E+05  1.238939E+05  4.043851E+05  1.081766E+04 -5.673381E+04
       247   3  9.818249E+05  3.408494E+05  1.113921E+05  3.911955E+05  7.460128E+03 -5.281687E+04
       247   4  3.502581E+05  1.098160E+05 -7.325220E+03  2.141705E+05  1.565448E+04 -5.767020E+04
       247   5  3.566567E+05  1.051003E+05 -3.859108E+03  2.070005E+05  1.668912E+04 -5.452164E+04
       247   6  3.505080E+05  1.113378E+05 -2.095046E+03  2.136095E+05  1.691760E+04 -4.924645E+04
       247   7 -4.264458E+05 -1.725343E+05 -1.522110E+05 -2.763477E+03  1.793625E+04 -5.681612E+04
       247   8 -3.467911E+05 -1.504562E+05 -1.316305E+05  9.822973E+03  2.255351E+04 -5.231214E+04
       247   9 -2.803897E+05 -1.181349E+05 -1.155955E+05  3.619156E+04  2.636483E+04 -4.567991E+04
       247  10  1.127584E+06  3.922158E+05  1.375281E+05  4.313551E+05  6.544058E-09  4.981056E-09
       247  11  1.060620E+06  3.606993E+05  1.238876E+05  4.043856E+05 -2.357207E-09  4.429042E-09
       247  12  9.818241E+05  3.408463E+05  1.113867E+05  3.911958E+05 -1.446599E-08 -5.859466E-09
       247  13  3.502570E+05  1.098124E+05 -7.331932E+03  2.141713E+05  4.352009E-09  3.500114E-09
       247  14  3.566556E+05  1.050970E+05 -3.865218E+03  2.070012E+05  4.244582E-09 -9.172537E-09
       247  15  3.505070E+05  1.113351E+05 -2.100143E+03  2.136101E+05  1.422384E-09  1.822371E-09
       247  16 -4.264470E+05 -1.725379E+05 -1.522177E+05 -2.762656E+03  3.523565E-09  3.637382E-09
       247  17 -3.467924E+05 -1.504593E+05 -1.316366E+05  9.823924E+03  1.196343E-08  1.378730E-08
       247  18 -2.803910E+05 -1.181373E+05 -1.156007E+05  3.619253E+04  1.803115E-08  9.915331E-09
       247  19  1.127585E+06  3.922195E+05  1.375349E+05  4.313545E+05 -1.336968E+04  5.852543E+04
       247  20  1.060621E+06  3.607028E+05  1.238939E+05  4.043851E+05 -1.081766E+04  5.673381E+04
       247  21  9.818249E+05  3.408494E+05  1.113921E+05  3.911955E+05 -7.460128E+03  5.281687E+04
       247  22  3.502581E+05  1.098160E+05 -7.325220E+03  2.141705E+05 -1.565448E+04  5.767020E+04
       247  23  3.566567E+05  1.051003E+05 -3.859108E+03  2.070005E+05 -1.668912E+04  5.452164E+04
       247  24  3.505080E+05  1.113378E+05 -2.095046E+03  2.136095E+05 -1.691760E+04  4.924645E+04
       247  25 -4.264458E+05 -1.725343E+05 -1.522110E+05 -2.763477E+03 -1.793625E+04  5.681612E+04
       247  26 -3.467911E+05 -1.504562E+05 -1.316305E+05  9.822973E+03 -2.255351E+04  5.231214E+04
       247  27 -2.803897E+05 -1.181349E+05 -1.155955E+05  3.619156E+04 -2.636483E+04  4.567991E+04
       248   1  9.346395E+05  3.235045E+05  1.029705E+05  3.778855E+05  6.791249E+03 -4.930569E+04
       248   2  8.682589E+05  2.912452E+05  9.060861E+04  3.507081E+05  4.824419E+03 -4.373751E+04
       248   3  7.898415E+05  2.710561E+05  7.816881E+04  3.371969E+05  2.787806E+03 -3.799166E+04
       248   4  3.505852E+05  1.113501E+05 -1.568267E+03  2.136729E+05  1.596308E+04 -4.584175E+04
       248   5  3.566582E+05  1.053946E+05 -8.418281E+02  2.068277E+05  1.429592E+04 -4.015805E+04
       248   6  3.506278E+05  1.114501E+05 -4.318405E+02  2.136476E+05  1.255894E+04 -3.429656E+04
       248   7 -2.331040E+05 -1.007687E+05 -1.061166E+05  4.960581E+04  2.512562E+04 -4.238133E+04
       248   8 -1.546666E+05 -8.043029E+04 -9.230064E+04  6.305777E+04  2.375909E+04 -3.658174E+04
       248   9 -8.838675E+04 -4.813864E+04 -7.903975E+04  9.017851E+04  2.232281E+04 -3.060421E+04
       248  10  9.346388E+05  3.235019E+05  1.029659E+05  3.778857E+05 -4.759169E-09 -1.111381E-09
       248  11  8.682584E+05  2.912431E+05  9.060497E+04  3.507083E+05 -4.576149E-09 -7.350812E-09
       248  12  7.898411E+05  2.710546E+05  7.816608E+04  3.371970E+05 -7.582497E-09  3.199490E-09
       248  13  3.505844E+05  1.113478E+05 -1.572696E+03  2.136735E+05  2.069557E-09 -5.547712E-09
       248  14  3.566576E+05  1.053928E+05 -8.452434E+02  2.068281E+05  6.328832E-10 -3.975481E-09
       248  15  3.506274E+05  1.114488E+05 -4.343478E+02  2.136479E+05 -1.826936E-09  6.918739E-09
       248  16 -2.331052E+05 -1.007708E+05 -1.061212E+05  4.960667E+04  4.928140E-09  1.341047E-09
       248  17 -1.546675E+05 -8.043188E+04 -9.230422E+04  6.305847E+04  2.237220E-09  1.372521E-08
       248  18 -8.838754E+04 -4.813978E+04 -7.904245E+04  9.017906E+04  5.330536E-10  2.364115E-09
       248  19  9.346395E+05  3.235045E+05  1.029705E+05  3.778855E+05 -6.791249E+03  4.930569E+04
       248  20  8.682589E+05  2.912452E+05  9.060861E+04  3.507081E+05 -4.824419E+03  4.373751E+04
       248  21  7.898415E+05  2.710561E+05  7.816881E+04  3.371969E+05 -2.787806E+03  3.799166E+04
       248  22  3.505852E+05  1.113501E+05 -1.568267E+03  2.136729E+05 -1.596308E+04  4.584175E+04
       248  23  3.566582E+05  1.053946E+05 -8.418281E+02  2.068277E+05 -1.429592E+04  4.015805E+04
       248  24  3.506278E+05  1.114501E+05 -4.318405E+02  2.136476E+05 -1.255894E+04  3.429656E+04
       248  25 -2.331040E+05 -1.007687E+05 -1.061166E+05  4.960581E+04 -2.512562E+04  4.238133E+04
       248  26 -1.546666E+05 -8.043029E+04 -9.230064E+04  6.305777E+04 -2.375909E+04  3.658174E+04
       248  27 -8.838675E+04 -4.813864E+04 -7.903975E+04  9.017851E+04 -2.232281E+04  3.060421E+04
       249   1  7.427028E+05  2.538741E+05  6.949864E+04  3.239644E+05  1.600982E+03 -3.458599E+04
       249   2  6.764532E+05  2.216426E+05  5.697092E+04  2.968022E+05 -5.579425E+02 -2.879484E+04
       249   3  5.981601E+05  2.014720E+05  4.442639E+04  2.832920E+05 -2.723086E+03 -2.299143E+04
       249   4  3.506450E+05  1.114568E+05 -3.009040E+02  2.136484E+05  1.134386E+04 -3.090048E+04
       249   5  3.566817E+05  1.054429E+05 -9.747314E+01  2.068214E+05  9.205352E+03 -2.510019E+04
       249   6  3.506647E+05  1.114853E+05  7.217359E+01  2.136445E+05  7.060633E+03 -1.928764E+04
       249   7 -4.125050E+04 -3.094540E+04 -7.010506E+04  1.033974E+05  2.108017E+04 -2.721745E+04
       249   8  3.701989E+04 -1.074605E+04 -5.716839E+04  1.168844E+05  1.896324E+04 -2.140758E+04
       249   9  1.032366E+05  2.150570E+04 -4.428301E+04  1.440236E+05  1.684010E+04 -1.558547E+04
       249  10  7.427025E+05  2.538729E+05  6.949639E+04  3.239644E+05 -9.055774E-09  7.896718E-09
       249  11  6.764530E+05  2.216417E+05  5.696936E+04  2.968022E+05  8.844477E-09  8.716536E-09
       249  12  5.981600E+05  2.014714E+05  4.442538E+04  2.832920E+05  2.619524E-08  9.426420E-09
       249  13  3.506446E+05  1.114557E+05 -3.029405E+02  2.136487E+05 -3.285501E-09  4.853578E-09
       249  14  3.566815E+05  1.054422E+05 -9.881659E+01  2.068216E+05 -2.369333E-09  3.316002E-09
       249  15  3.506646E+05  1.114849E+05  7.138066E+01  2.136446E+05  3.023109E-09  2.751466E-09
       249  16 -4.125117E+04 -3.094631E+04 -7.010729E+04  1.033979E+05  2.240294E-09  3.437469E-09
       249  17  3.701938E+04 -1.074664E+04 -5.716993E+04  1.168848E+05 -1.331752E-08 -4.448720E-10
       249  18  1.032362E+05  2.150537E+04 -4.428399E+04  1.440238E+05 -2.201372E-08 -2.164518E-09
       249  19  7.427028E+05  2.538741E+05  6.949864E+04  3.239644E+05 -1.600982E+03  3.458599E+04
       249  20  6.764532E+05  2.216426E+05  5.697092E+04  2.968022E+05  5.579425E+02  2.879484E+04
       249  21  5.981601E+05  2.014720E+05  4.442639E+04  2.832920E+05  2.723086E+03  2.299143E+04
       249  22  3.506450E+05  1.114568E+05 -3.009040E+02  2.136484E+05 -1.134386E+04  3.090048E+04
       249  23  3.566817E+05  1.054429E+05 -9.747314E+01  2.068214E+05 -9.205352E+03  2.510019E+04
       249  24  3.506647E+05  1.114853E+05  7.217359E+01  2.136445E+05 -7.060633E+03  1.928764E+04
       249  25 -4.125050E+04 -3.094540E+04 -7.010506E+04  1.033974E+05 -2.108017E+04  2.721745E+04
       249  26  3.701989E+04 -1.074605E+04 -5.716839E+04  1.168844E+05 -1.896324E+04  2.140758E+04
       249  27  1.032366E+05  2.150570E+04 -4.428301E+04  1.440236E+05 -1.684010E+04  1.558547E+04
       250   1  5.510770E+05  1.843047E+05  3.572920E+04  2.700737E+05 -4.016999E+03 -1.962181E+04
       250   2  4.848732E+05  1.520824E+05  2.325867E+04  2.429393E+05 -6.389188E+03 -1.389528E+04
       250   3  4.066470E+05  1.319186E+05  1.092171E+04  2.294533E+05 -8.758853E+03 -8.177017E+03
       250   4  3.506773E+05  1.114890E+05  1.587375E+02  2.136453E+05  5.763057E+03 -1.591882E+04
       250   5  3.566917E+05  1.054567E+05  3.877417E+02  2.068236E+05  3.376579E+03 -1.019710E+04
       250   6  3.506825E+05  1.114861E+05  7.617170E+02  2.136489E+05  9.926078E+02 -4.483680E+03
       250   7  1.503181E+05  3.867652E+04 -3.541319E+04  1.572334E+05  1.553985E+04 -1.221706E+04
       250   8  2.285271E+05  5.883250E+04 -2.248351E+04  1.707148E+05  1.314025E+04 -6.499724E+03
       250   9  2.947215E+05  9.105387E+04 -9.397983E+03  1.978458E+05  1.074313E+04 -7.906988E+02
       250  10  5.510769E+05  1.843043E+05  3.572845E+04  2.700736E+05 -1.363584E-08 -4.432951E-09
       250  11  4.848731E+05  1.520822E+05  2.325823E+04  2.429392E+05 -6.059856E-09 -5.581972E-09
       250  12  4.066469E+05  1.319186E+05  1.092144E+04  2.294533E+05  4.186149E-09 -5.635995E-09
       250  13  3.506772E+05  1.114887E+05  1.581987E+02  2.136454E+05  2.979925E-09  2.787978E-09
       250  14  3.566917E+05  1.054566E+05  3.875249E+02  2.068237E+05 -1.559896E-09  4.775320E-09
       250  15  3.506825E+05  1.114860E+05  7.616774E+02  2.136489E+05 -6.325794E-10 -4.060587E-10
       250  16  1.503178E+05  3.867629E+04 -3.541392E+04  1.572335E+05  2.207528E-08  1.548440E-08
       250  17  2.285269E+05  5.883241E+04 -2.248392E+04  1.707149E+05  7.791855E-09  1.071930E-08
       250  18  2.947214E+05  9.105384E+04 -9.398201E+03  1.978459E+05 -2.299159E-09 -5.403491E-09
       250  19  5.510770E+05  1.843047E+05  3.572920E+04  2.700737E+05  4.016999E+03  1.962181E+04
       250  20  4.848732E+05  1.520824E+05  2.325867E+04  2.429393E+05  6.389188E+03  1.389528E+04
       250  21  4.066470E+05  1.319186E+05  1.092171E+04  2.294533E+05  8.758853E+03  8.177017E+03
       250  22  3.506773E+05  1.114890E+05  1.587375E+02  2.136453E+05 -5.763057E+03  1.591882E+04
       250  23  3.566917E+05  1.054567E+05  3.877417E+02  2.068236E+05 -3.376579E+03  1.019710E+04
       250  24  3.506825E+05  1.114861E+05  7.617170E+02  2.136489E+05 -9.926078E+02  4.483680E+03
       250  25  1.503181E+05  3.867652E+04 -3.541319E+04  1.572334E+05 -1.553985E+04  1.221706E+04
       250  26  2.285271E+05  5.883250E+04 -2.248351E+04  1.707148E+05 -1.314025E+04  6.499724E+03
       250  27  2.947215E+05  9.105387E+04 -9.397983E+03  1.978458E+05 -1.074313E+04  7.906988E+02
       251   1  3.595952E+05  1.147637E+05  2.405950E+03  2.162720E+05 -1.019622E+04 -4.866621E+03
       251   2  2.933405E+05  8.252561E+04 -9.496213E+03  1.891494E+05 -1.314497E+04  5.806191E+02
       251   3  2.151787E+05  6.243178E+04 -2.079925E+04  1.756759E+05 -1.605576E+04  5.928962E+03
       251   4  3.507108E+05  1.114804E+05  1.030353E+03  2.136610E+05 -4.326088E+02 -1.168606E+03
       251   5  3.566537E+05  1.054257E+05  1.890895E+03  2.068241E+05 -3.548977E+03  4.214856E+03
       251   6  3.507167E+05  1.115474E+05  3.482931E+03  2.136339E+05 -6.627502E+03  9.499419E+03
       251   7  3.418268E+05  1.081973E+05 -3.448117E+02  2.110502E+05  9.330761E+03  2.529314E+03
       251   8  4.199713E+05  1.283262E+05  1.327826E+04  2.245006E+05  6.048062E+03  7.849484E+03
       251   9  4.862756E+05  1.606655E+05  2.776524E+04  2.516000E+05  2.803047E+03  1.307074E+04
       251  10  3.595951E+05  1.147636E+05  2.405710E+03  2.162719E+05 -6.023382E-09 -1.842256E-10
       251  11  2.933403E+05  8.252557E+04 -9.496538E+03  1.891494E+05  3.054544E-09 -1.565899E-09
       251  12  2.151784E+05  6.243167E+04 -2.079980E+04  1.756760E+05  5.948295E-09  7.339177E-10
       251  13  3.507108E+05  1.114804E+05  1.030350E+03  2.136610E+05  1.618264E-09 -2.822338E-09
       251  14  3.566537E+05  1.054256E+05  1.890838E+03  2.068241E+05  9.479797E-10 -4.782509E-09
       251  15  3.507166E+05  1.115473E+05  3.482679E+03  2.136340E+05  1.872312E-09 -2.237289E-09
       251  16  3.418267E+05  1.081972E+05 -3.449873E+02  2.110502E+05  8.478928E-09 -2.732429E-09
       251  17  4.199713E+05  1.283261E+05  1.327808E+04  2.245006E+05  3.935207E-10 -1.158619E-08
       251  18  4.862756E+05  1.606653E+05  2.776490E+04  2.516000E+05 -4.478450E-09 -4.725308E-10
       251  19  3.595952E+05  1.147637E+05  2.405950E+03  2.162720E+05  1.019622E+04  4.866621E+03
       251  20  2.933405E+05  8.252561E+04 -9.496213E+03  1.891494E+05  1.314497E+04 -5.806191E+02
       251  21  2.151787E+05  6.243178E+04 -2.079925E+04  1.756759E+05  1.605576E+04 -5.928962E+03
       251  22  3.507108E+05  1.114804E+05  1.030353E+03  2.136610E+05  4.326088E+02  1.168606E+03
       251  23  3.566537E+05  1.054257E+05  1.890895E+03  2.068241E+05  3.548977E+03 -4.214856E+03
       251  24  3.507167E+05  1.115474E+05  3.482931E+03  2.136339E+05  6.627502E+03 -9.499419E+03
       251  25  3.418268E+05  1.081973E+05 -3.448117E+02  2.110502E+05 -9.330761E+03 -2.529314E+03
       251  26  4.199713E+05  1.283262E+05  1.327826E+04  2.245006E+05 -6.048062E+03 -7.849484E+03
       251  27  4.862756E+05  1.606655E+05  2.776524E+04  2.516000E+05 -2.803047E+03 -1.307074E+04
       252   1  1.680222E+05  4.541437E+04 -2.849540E+04  1.628275E+05 -1.811213E+04  8.953597E+03
       252   2  1.021348E+05  1.286267E+04 -3.816180E+04  1.346633E+05 -2.236309E+04  1.317821E+04
       252   3  2.528461E+04 -5.768463E+03 -4.558235E+04  1.196809E+05 -2.617253E+04  1.624021E+04
       252   4  3.509258E+05  1.114853E+05  4.646351E+03  2.137315E+05 -8.530660E+03  1.258169E+04
       252   5  3.564346E+05  1.059028E+05  8.511763E+03  2.065441E+05 -1.474413E+04  1.606211E+04
       252   6  3.513632E+05  1.146280E+05  1.617746E+04  2.125356E+05 -2.051645E+04  1.838009E+04
       252   7  5.338648E+05  1.775594E+05  3.778730E+04  2.646494E+05  1.053820E+03  1.621090E+04
       252   8  6.108011E+05  1.989488E+05  5.518283E+04  2.784519E+05 -7.121882E+03  1.894727E+04
       252   9  6.775496E+05  2.350338E+05  7.793215E+04  3.054350E+05 -1.485724E+04  2.052118E+04
       252  10  1.680218E+05  4.541420E+04 -2.849617E+04  1.628276E+05  8.749975E-09 -4.373539E-09
       252  11  1.021342E+05  1.286235E+04 -3.816307E+04  1.346636E+05 -7.216016E-09 -1.214924E-08
       252  12  2.528381E+04 -5.768930E+03 -4.558414E+04  1.196812E+05 -2.346248E-08 -1.204085E-08
       252  13  3.509257E+05  1.114851E+05  4.645917E+03  2.137316E+05  2.427038E-09 -4.075756E-09
       252  14  3.564343E+05  1.059025E+05  8.510869E+03  2.065443E+05  4.269454E-09  1.463934E-08
       252  15  3.513627E+05  1.146275E+05  1.617603E+04  2.125359E+05 -3.817135E-09 -5.621091E-09
       252  16  5.338647E+05  1.775591E+05  3.778680E+04  2.646494E+05 -2.804038E-09 -3.147528E-09
       252  17  6.108009E+05  1.989484E+05  5.518206E+04  2.784521E+05  1.246855E-08 -3.107706E-09
       252  18  6.775493E+05  2.350333E+05  7.793094E+04  3.054352E+05  1.860647E-08 -2.071320E-11
       252  19  1.680222E+05  4.541437E+04 -2.849540E+04  1.628275E+05  1.811213E+04 -8.953597E+03
       252  20  1.021348E+05  1.286267E+04 -3.816180E+04  1.346633E+05  2.236309E+04 -1.317821E+04
       252  21  2.528461E+04 -5.768463E+03 -4.558235E+04  1.196809E+05  2.617253E+04 -1.624021E+04
       252  22  3.509258E+05  1.114853E+05  4.646351E+03  2.137315E+05  8.530660E+03 -1.258169E+04
       252  23  3.564346E+05  1.059028E+05  8.511763E+03  2.065441E+05  1.474413E+04 -1.606211E+04
       252  24  3.513632E+05  1.146280E+05  1.617746E+04  2.125356E+05  2.051645E+04 -1.838009E+04
       252  25  5.338648E+05  1.775594E+05  3.778730E+04  2.646494E+05 -1.053820E+03 -1.621090E+04
       252  26  6.108011E+05  1.989488E+05  5.518283E+04  2.784519E+05  7.121882E+03 -1.894727E+04
       252  27  6.775496E+05  2.350338E+05  7.793215E+04  3.054350E+05  1.485724E+04 -2.052118E+04
       253   1 -2.391234E+04 -2.013209E+04 -5.001857E+04  1.121113E+05 -3.144330E+04  1.743531E+04
       253   2 -7.562296E+04 -5.874103E+04 -5.319957E+04  5.888142E+04 -2.876862E+04  1.570698E+04
       253   3 -1.242876E+05 -4.758792E+04 -4.708102E+04  7.897423E+03 -2.093723E+04  3.426503E+02
       253   4  3.540040E+05  1.138147E+05  2.146158E+04  2.137722E+05 -2.400411E+04  2.024975E+04
       253   5  3.550205E+05  1.203658E+05  4.074660E+04  1.998891E+05 -4.431799E+04  9.820077E+03
       253   6  3.636231E+05  1.812137E+05  8.754776E+04  1.882528E+05 -5.947814E+04 -1.424071E+04
       253   7  7.320746E+05  2.477746E+05  9.293762E+04  3.154911E+05 -1.655996E+04  2.306594E+04
       253   8  7.858551E+05  2.995030E+05  1.346828E+05  3.409921E+05 -5.987893E+04  3.927517E+03
       253   9  8.517660E+05  4.100687E+05  2.221588E+05  3.687472E+05 -9.805141E+04 -2.884333E+04
       253  10 -2.391348E+04 -2.013268E+04 -5.002100E+04  1.121118E+05  6.501943E-08  1.933213E-08
       253  11 -7.562392E+04 -5.874151E+04 -5.320159E+04  5.888179E+04  1.414402E-08  1.280111E-08
       253  12 -1.242881E+05 -4.758804E+04 -4.708185E+04  7.897429E+03 -4.583196E-08 -1.491146E-08
       253  13  3.540033E+05  1.138141E+05  2.145973E+04  2.137726E+05 -2.287633E-09  3.241570E-09
       253  14  3.550184E+05  1.203652E+05  4.074272E+04  1.998895E+05  8.690134E-10  4.208248E-09
       253  15  3.636192E+05  1.812125E+05  8.754073E+04  1.882521E+05  1.436730E-09  5.300036E-09
       253  16  7.320742E+05  2.477739E+05  9.293610E+04  3.154914E+05 -7.112749E-08 -2.520862E-08
       253  17  7.858513E+05  2.995020E+05  1.346760E+05  3.409922E+05 -1.131687E-08  4.457309E-09
       253  18  8.517554E+05  4.100653E+05  2.221392E+05  3.687449E+05  4.705671E-08  2.012176E-08
       253  19 -2.391234E+04 -2.013209E+04 -5.001857E+04  1.121113E+05  3.144330E+04 -1.743531E+04
       253  20 -7.562296E+04 -5.874103E+04 -5.319957E+04  5.888142E+04  2.876862E+04 -1.570698E+04
       253  21 -1.242876E+05 -4.758792E+04 -4.708102E+04  7.897423E+03  2.093723E+04 -3.426503E+02
       253  22  3.540040E+05  1.138147E+05  2.146158E+04  2.137722E+05  2.400411E+04 -2.024975E+04
       253  23  3.550205E+05  1.203658E+05  4.074660E+04  1.998891E+05  4.431799E+04 -9.820077E+03
       253  24  3.636231E+05  1.812137E+05  8.754776E+04  1.882528E+05  5.947814E+04  1.424071E+04
       253  25  7.320746E+05  2.477746E+05  9.293762E+04  3.154911E+05  1.655996E+04 -2.306594E+04
       253  26  7.858551E+05  2.995030E+05  1.346828E+05  3.409921E+05  5.987893E+04 -3.927517E+03
       253  27  8.517660E+05  4.100687E+05  2.221588E+05  3.687472E+05  9.805141E+04  2.884333E+04
       254   1  1.824238E+05  2.407792E+04  1.882432E+04  2.155581E+03 -1.250554E+04 -1.918052E+03
       254   2  1.698247E+05  4.066100E+04  2.647647E+04  1.986820E+03 -9.406593E+03 -5.693093E+03
       254   3  1.514187E+05  3.588610E+04  2.676789E+04  1.142684E+04 -6.322349E+03 -5.354666E+03
       254   4  1.059827E+04 -1.866995E+04 -2.338384E+04  8.445131E+03 -1.600888E+04 -1.930602E+03
       254   5  1.371745E+04  2.097110E+03 -1.033234E+04  3.605406E+03 -1.044261E+04 -5.696959E+03
       254   6  1.059951E+04  1.074876E+03 -6.356358E+03  8.374697E+03 -4.890952E+03 -5.349436E+03
       254   7 -1.612003E+05 -6.141984E+04 -6.559411E+04  1.473291E+04 -1.951124E+04 -1.943225E+03
       254   8 -1.423674E+05 -3.646851E+04 -4.714281E+04  5.223563E+03 -1.147837E+04 -5.700831E+03
       254   9 -1.302014E+05 -3.373773E+04 -3.948196E+04  5.323232E+03 -3.459877E+03 -5.344219E+03
       254  10  1.824236E+05  2.407787E+04  1.882402E+04  2.155562E+03 -5.212787E-09  2.699221E-09
       254  11  1.698246E+05  4.066094E+04  2.647624E+04  1.986776E+03 -2.828500E-10  1.438506E-08
       254  12  1.514187E+05  3.588606E+04  2.676776E+04  1.142681E+04  3.490012E-09  4.781734E-09
       254  13  1.059799E+04 -1.867002E+04 -2.338433E+04  8.445106E+03 -1.113809E-11 -6.550335E-09
       254  14  1.371732E+04  2.097046E+03 -1.033260E+04  3.605358E+03 -4.556650E-10 -1.083759E-08
       254  15  1.059947E+04  1.074839E+03 -6.356456E+03  8.374676E+03 -7.040435E-10 -6.809949E-11
       254  16 -1.612007E+05 -6.141995E+04 -6.559483E+04  1.473288E+04  7.366879E-09  1.242112E-09
       254  17 -1.423676E+05 -3.646858E+04 -4.714312E+04  5.223510E+03  1.408848E-09  5.320543E-09
       254  18 -1.302015E+05 -3.373777E+04 -3.948204E+04  5.323217E+03 -3.459903E-09 -1.406474E-09
       254  19  1.824238E+05  2.407792E+04  1.882432E+04  2.155581E+03  1.250554E+04  1.918052E+03
       254  20  1.698247E+05  4.066100E+04  2.647647E+04  1.986820E+03  9.406593E+03  5.693093E+03
       254  21  1.514187E+05  3.588610E+04  2.676789E+04  1.142684E+04  6.322349E+03  5.354666E+03
       254  22  1.059827E+04 -1.866995E+04 -2.338384E+04  8.445131E+03  1.600888E+04  1.930602E+03
       254  23  1.371745E+04  2.097110E+03 -1.033234E+04  3.605406E+03  1.044261E+04  5.696959E+03
       254  24  1.059951E+04  1.074876E+03 -6.356358E+03  8.374697E+03  4.890952E+03  5.349436E+03
       254  25 -1.612003E+05 -6.141984E+04 -6.559411E+04  1.473291E+04  1.951124E+04  1.943225E+03
       254  26 -1.423674E+05 -3.646851E+04 -4.714281E+04  5.223563E+03  1.147837E+04  5.700831E+03
       254  27 -1.302014E+05 -3.373773E+04 -3.948196E+04  5.323232E+03  3.459877E+03  5.344219E+03
       255   1  1.353103E+05  2.888032E+04  2.399863E+04  8.226827E+03 -4.105040E+03 -4.404096E+03
       255   2  1.202435E+05  2.692716E+04  2.279286E+04  3.746270E+03 -2.897435E+03 -3.983368E+03
       255   3  1.044593E+05  2.305980E+04  2.030528E+04  8.942276E+03 -1.690932E+03 -3.314160E+03
       255   4  1.182137E+04 -1.642989E+03 -5.155938E+03  8.415499E+03 -3.929306E+03 -4.403502E+03
       255   5  1.219368E+04  2.270059E+02 -2.665819E+03  3.573777E+03 -2.572836E+03 -3.982188E+03
       255   6  1.182218E+04  1.566944E+02 -1.561131E+03  8.408737E+03 -1.217440E+03 -3.312374E+03
       255   7 -1.116536E+05 -3.216739E+04 -3.431156E+04  8.604120E+03 -3.753606E+03 -4.402909E+03
       255   8 -9.584541E+04 -2.647398E+04 -2.812531E+04  3.401304E+03 -2.248292E+03 -3.981008E+03
       255   9 -8.080705E+04 -2.274702E+04 -2.342814E+04  7.875270E+03 -7.440189E+02 -3.310589E+03
       255  10  1.353103E+05  2.888029E+04  2.399857E+04  8.226812E+03  5.852901E-10 -3.194295E-09
       255  11  1.202435E+05  2.692714E+04  2.279282E+04  3.746261E+03  1.706312E-10  1.254112E-09
       255  12  1.044593E+05  2.305978E+04  2.030526E+04  8.942272E+03  2.778862E-09  1.108385E-08
       255  13  1.182135E+04 -1.643014E+03 -5.156003E+03  8.415485E+03  2.138971E-09  1.146058E-08
       255  14  1.219366E+04  2.269871E+02 -2.665861E+03  3.573769E+03 -4.227928E-09 -1.885710E-08
       255  15  1.182217E+04  1.566822E+02 -1.561154E+03  8.408734E+03 -1.089880E-09  7.149997E-09
       255  16 -1.116536E+05 -3.216741E+04 -3.431163E+04  8.604107E+03 -1.463051E-10 -7.390915E-09
       255  17 -9.584541E+04 -2.647400E+04 -2.812535E+04  3.401297E+03 -6.722560E-10 -5.241745E-09
       255  18 -8.080705E+04 -2.274703E+04 -2.342816E+04  7.875268E+03 -1.198944E-09  3.378062E-09
       255  19  1.353103E+05  2.888032E+04  2.399863E+04  8.226827E+03  4.105040E+03  4.404096E+03
       255  20  1.202435E+05  2.692716E+04  2.279286E+04  3.746270E+03  2.897435E+03  3.983368E+03
       255  21  1.044593E+05  2.305980E+04  2.030528E+04  8.942276E+03  1.690932E+03  3.314160E+03
       255  22  1.182137E+04 -1.642989E+03 -5.155938E+03  8.415499E+03  3.929306E+03  4.403502E+03
       255  23  1.219368E+04  2.270059E+02 -2.665819E+03  3.573777E+03  2.572836E+03  3.982188E+03
       255  24  1.182218E+04  1.566944E+02 -1.561131E+03  8.408737E+03  1.217440E+03  3.312374E+03
       255  25 -1.116536E+05 -3.216739E+04 -3.431156E+04  8.604120E+03  3.753606E+03  4.402909E+03
       255  26 -9.584541E+04 -2.647398E+04 -2.812531E+04  3.401304E+03  2.248292E+03  3.981008E+03
       255  27 -8.080705E+04 -2.274702E+04 -2.342814E+04  7.875270E+03  7.440189E+02  3.310589E+03
       256   1  8.728474E+04  1.852103E+04  1.650084E+04  8.603343E+03 -1.372765E+03 -2.880731E+03
       256   2  7.194860E+04  1.485509E+04  1.346688E+04  3.748626E+03 -1.059485E+03 -2.209561E+03
       256   3  5.645331E+04  1.108112E+04  1.018206E+04  8.573171E+03 -7.463405E+02 -1.523418E+03
       256   4  1.195252E+04 -8.706690E+01 -1.208074E+03  8.411785E+03 -9.751741E+02 -2.879218E+03
       256   5  1.203310E+04  4.838481E+01 -6.499398E+02  3.571808E+03 -6.529462E+02 -2.207994E+03
       256   6  1.195296E+04  7.432099E+01 -3.488395E+02  8.411151E+03 -3.308468E+02 -1.521794E+03
       256   7 -6.337448E+04 -1.869557E+04 -1.891737E+04  8.220245E+03 -5.776308E+02 -2.877706E+03
       256   8 -4.787910E+04 -1.475857E+04 -1.476701E+04  3.395005E+03 -2.464467E+02 -2.206427E+03
       256   9 -3.254557E+04 -1.093262E+04 -1.087987E+04  8.249142E+03  8.461721E+01 -1.520171E+03
       256  10  8.728473E+04  1.852102E+04  1.650082E+04  8.603340E+03  5.599723E-09 -4.469444E-09
       256  11  7.194860E+04  1.485508E+04  1.346687E+04  3.748624E+03 -2.016549E-09 -4.430424E-09
       256  12  5.645331E+04  1.108112E+04  1.018205E+04  8.573170E+03 -4.770912E-09 -1.035444E-09
       256  13  1.195251E+04 -8.707605E+01 -1.208092E+03  8.411783E+03 -1.068299E-09  2.420821E-10
       256  14  1.203310E+04  4.837946E+01 -6.499498E+02  3.571807E+03 -1.565305E-09 -1.205476E-08
       256  15  1.195296E+04  7.431847E+01 -3.488441E+02  8.411151E+03  7.967352E-10 -8.003536E-10
       256  16 -6.337448E+04 -1.869558E+04 -1.891739E+04  8.220244E+03 -4.022945E-09 -8.263504E-09
       256  17 -4.787910E+04 -1.475858E+04 -1.476701E+04  3.395004E+03  9.634552E-10  2.311684E-09
       256  18 -3.254557E+04 -1.093262E+04 -1.087988E+04  8.249142E+03  3.760930E-09  1.092817E-08
       256  19  8.728474E+04  1.852103E+04  1.650084E+04  8.603343E+03  1.372765E+03  2.880731E+03
       256  20  7.194860E+04  1.485509E+04  1.346688E+04  3.748626E+03  1.059485E+03  2.209561E+03
       256  21  5.645331E+04  1.108112E+04  1.018206E+04  8.573171E+03  7.463405E+02  1.523418E+03
       256  22  1.195252E+04 -8.706690E+01 -1.208074E+03  8.411785E+03  9.751741E+02  2.879218E+03
       256  23  1.203310E+04  4.838481E+01 -6.499398E+02  3.571808E+03  6.529462E+02  2.207994E+03
       256  24  1.195296E+04  7.432099E+01 -3.488395E+02  8.411151E+03  3.308468E+02  1.521794E+03
       256  25 -6.337448E+04 -1.869557E+04 -1.891737E+04  8.220245E+03  5.776308E+02  2.877706E+03
       256  26 -4.787910E+04 -1.475857E+04 -1.476701E+04  3.395005E+03  2.464467E+02  2.206427E+03
       256  27 -3.254557E+04 -1.093262E+04 -1.087987E+04  8.249142E+03 -8.461721E+01  1.520171E+03
       257   1  3.916966E+04  6.766146E+03  6.118272E+03  8.495829E+03 -6.901947E+02 -1.121833E+03
       257   2  2.379799E+04  2.942709E+03  2.701978E+03  3.612906E+03 -6.560643E+02 -4.364569E+02
       257   3  8.342364E+03 -8.186062E+02 -7.417704E+02  8.407841E+03 -6.219529E+02  2.497499E+02
       257   4  1.197028E+04  5.349694E+01 -2.443068E+02  8.411057E+03 -2.792836E+02 -1.120219E+03
       257   5  1.201245E+04  3.005264E+01 -7.491014E+01  3.572088E+03 -2.446623E+02 -4.348374E+02
       257   6  1.197037E+04  6.865953E+01  6.669913E+01  8.410987E+03 -2.100591E+02  2.513758E+02
       257   7 -1.522841E+04 -6.659204E+03 -6.606936E+03  8.326288E+03  1.316095E+02 -1.118605E+03
       257   8  2.270505E+02 -2.882613E+03 -2.851808E+03  3.531271E+03  1.667319E+02 -4.332180E+02
       257   9  1.559839E+04  9.559245E+02  8.751685E+02  8.414134E+03  2.018371E+02  2.530017E+02
       257  10  3.916966E+04  6.766144E+03  6.118269E+03  8.495828E+03 -3.845132E-09 -3.682162E-09
       257  11  2.379799E+04  2.942708E+03  2.701977E+03  3.612906E+03  1.377227E-09  7.320061E-09
       257  12  8.342364E+03 -8.186064E+02 -7.417713E+02  8.407841E+03  1.014199E-08  1.864612E-09
       257  13  1.197028E+04  5.349558E+01 -2.443093E+02  8.411057E+03 -3.638639E-11  4.876897E-09
       257  14  1.201245E+04  3.005242E+01 -7.491061E+01  3.572088E+03 -5.498125E-12 -8.611707E-09
       257  15  1.197037E+04  6.865945E+01  6.669893E+01  8.410987E+03  3.051780E-11 -3.596631E-09
       257  16 -1.522841E+04 -6.659206E+03 -6.606938E+03  8.326288E+03  5.364186E-09  6.041666E-09
       257  17  2.270504E+02 -2.882614E+03 -2.851808E+03  3.531271E+03 -2.532803E-09  1.320312E-08
       257  18  1.559839E+04  9.559244E+02  8.751683E+02  8.414134E+03 -1.187635E-08  1.013027E-09
       257  19  3.916966E+04  6.766146E+03  6.118272E+03  8.495829E+03  6.901947E+02  1.121833E+03
       257  20  2.379799E+04  2.942709E+03  2.701978E+03  3.612906E+03  6.560643E+02  4.364569E+02
       257  21  8.342364E+03 -8.186062E+02 -7.417704E+02  8.407841E+03  6.219529E+02 -2.497499E+02
       257  22  1.197028E+04  5.349694E+01 -2.443068E+02  8.411057E+03  2.792836E+02  1.120219E+03
       257  23  1.201245E+04  3.005264E+01 -7.491014E+01  3.572088E+03  2.446623E+02  4.348374E+02
       257  24  1.197037E+04  6.865953E+01  6.669913E+01  8.410987E+03  2.100591E+02 -2.513758E+02
       257  25 -1.522841E+04 -6.659204E+03 -6.606936E+03  8.326288E+03 -1.316095E+02  1.118605E+03
       257  26  2.270505E+02 -2.882613E+03 -2.851808E+03  3.531271E+03 -1.667319E+02  4.332180E+02
       257  27  1.559839E+04  9.559245E+02  8.751685E+02  8.414134E+03 -2.018371E+02 -2.530017E+02
       258   1 -8.948502E+03 -5.117073E+03 -4.835647E+03  8.359284E+03 -6.424104E+02  6.493004E+02
       258   2 -2.433983E+04 -8.958702E+03 -8.231132E+03  3.473511E+03 -8.090354E+02  1.334747E+03
       258   3 -3.977520E+04 -1.268933E+04 -1.151084E+04  8.266208E+03 -9.756042E+02  2.019239E+03
       258   4  1.197911E+04  6.410899E+01  1.416730E+02  8.411170E+03 -2.304814E+02  6.509236E+02
       258   5  1.200118E+04  2.254151E+01  3.316615E+02  3.571893E+03 -3.976965E+02  1.336355E+03
       258   6  1.197884E+04  9.203666E+01  6.377830E+02  8.411049E+03 -5.648595E+02  2.020832E+03
       258   7  3.290713E+04  5.245259E+03  5.118963E+03  8.463057E+03  1.814614E+02  6.525468E+02
       258   8  4.834340E+04  9.003691E+03  8.894365E+03  3.670279E+03  1.366627E+01  1.337963E+03
       258   9  6.373535E+04  1.287321E+04  1.278622E+04  8.555899E+03 -1.540807E+02  2.022426E+03
       258  10 -8.948503E+03 -5.117073E+03 -4.835648E+03  8.359285E+03 -3.935962E-09  2.952825E-10
       258  11 -2.433983E+04 -8.958704E+03 -8.231137E+03  3.473512E+03 -7.334548E-09 -5.351882E-09
       258  12 -3.977520E+04 -1.268933E+04 -1.151085E+04  8.266210E+03 -1.339923E-08 -3.567691E-09
       258  13  1.197911E+04  6.410852E+01  1.416721E+02  8.411170E+03  5.065637E-11  6.580562E-09
       258  14  1.200118E+04  2.253955E+01  3.316579E+02  3.571893E+03 -2.080900E-09 -2.780674E-09
       258  15  1.197884E+04  9.203219E+01  6.377748E+02  8.411050E+03 -6.543940E-10 -4.768331E-09
       258  16  3.290713E+04  5.245259E+03  5.118962E+03  8.463057E+03  4.839004E-09  7.467200E-10
       258  17  4.834340E+04  9.003689E+03  8.894362E+03  3.670279E+03  5.290329E-09 -1.717478E-08
       258  18  6.373535E+04  1.287320E+04  1.278622E+04  8.555900E+03  1.202879E-08 -1.093912E-08
       258  19 -8.948502E+03 -5.117073E+03 -4.835647E+03  8.359284E+03  6.424104E+02 -6.493004E+02
       258  20 -2.433983E+04 -8.958702E+03 -8.231132E+03  3.473511E+03  8.090354E+02 -1.334747E+03
       258  21 -3.977520E+04 -1.268933E+04 -1.151084E+04  8.266208E+03  9.756042E+02 -2.019239E+03
       258  22  1.197911E+04  6.410899E+01  1.416730E+02  8.411170E+03  2.304814E+02 -6.509236E+02
       258  23  1.200118E+04  2.254151E+01  3.316615E+02  3.571893E+03  3.976965E+02 -1.336355E+03
       258  24  1.197884E+04  9.203666E+01  6.377830E+02  8.411049E+03  5.648595E+02 -2.020832E+03
       258  25  3.290713E+04  5.245259E+03  5.118963E+03  8.463057E+03 -1.814614E+02 -6.525468E+02
       258  26  4.834340E+04  9.003691E+03  8.894365E+03  3.670279E+03 -1.366627E+01 -1.337963E+03
       258  27  6.373535E+04  1.287321E+04  1.278622E+04  8.555899E+03  1.540807E+02 -2.022426E+03
       259   1 -5.703787E+04 -1.702859E+04 -1.546921E+04  8.274717E+03 -1.115723E+03  2.420383E+03
       259   2 -7.251764E+04 -2.089744E+04 -1.841903E+04  3.330448E+03 -1.849776E+03  3.102456E+03
       259   3 -8.786847E+04 -2.428338E+04 -2.078932E+04  8.063482E+03 -2.583652E+03  3.767564E+03
       259   4  1.201719E+04  4.657735E+01  8.479563E+02  8.411268E+03 -6.997830E+02  2.421983E+03
       259   5  1.195153E+04 -2.113992E+01  1.484613E+03  3.571984E+03 -1.444107E+03  3.103986E+03
       259   6  1.201656E+04  3.958707E+02  2.707928E+03  8.409920E+03 -2.188271E+03  3.769026E+03
       259   7  8.107664E+04  1.712141E+04  1.716479E+04  8.547831E+03 -2.837974E+02  2.423583E+03
       259   8  9.642727E+04  2.085465E+04  2.138776E+04  3.813546E+03 -1.038382E+03  3.105517E+03
       259   9  1.119108E+05  2.507441E+04  2.620449E+04  8.756404E+03 -1.792827E+03  3.770489E+03
       259  10 -5.703787E+04 -1.702860E+04 -1.546922E+04  8.274719E+03 -6.230345E-09 -4.542707E-09
       259  11 -7.251765E+04 -2.089746E+04 -1.841905E+04  3.330452E+03 -1.147414E-09 -9.119317E-09
       259  12 -8.786848E+04 -2.428340E+04 -2.078936E+04  8.063490E+03  1.809536E-09  1.692890E-09
       259  13  1.201719E+04  4.657092E+01  8.479444E+02  8.411270E+03 -1.067854E-09 -2.349776E-10
       259  14  1.195153E+04 -2.115083E+01  1.484590E+03  3.571987E+03 -1.562313E-09  1.425917E-10
       259  15  1.201655E+04  3.958542E+02  2.707892E+03  8.409926E+03 -1.215136E-09  8.453850E-09
       259  16  8.107664E+04  1.712140E+04  1.716478E+04  8.547832E+03  7.322972E-09  3.730693E-09
       259  17  9.642727E+04  2.085464E+04  2.138774E+04  3.813549E+03 -6.913493E-10 -8.663191E-09
       259  18  1.119108E+05  2.507440E+04  2.620446E+04  8.756410E+03 -3.770287E-09  7.045677E-09
       259  19 -5.703787E+04 -1.702859E+04 -1.546921E+04  8.274717E+03  1.115723E+03 -2.420383E+03
       259  20 -7.251764E+04 -2.089744E+04 -1.841903E+04  3.330448E+03  1.849776E+03 -3.102456E+03
       259  21 -8.786847E+04 -2.428338E+04 -2.078932E+04  8.063482E+03  2.583652E+03 -3.767564E+03
       259  22  1.201719E+04  4.657735E+01  8.479563E+02  8.411268E+03  6.997830E+02 -2.421983E+03
       259  23  1.195153E+04 -2.113992E+01  1.484613E+03  3.571984E+03  1.444107E+03 -3.103986E+03
       259  24  1.201656E+04  3.958707E+02  2.707928E+03  8.409920E+03  2.188271E+03 -3.769026E+03
       259  25  8.107664E+04  1.712141E+04  1.716479E+04  8.547831E+03  2.837974E+02 -2.423583E+03
       259  26  9.642727E+04  2.085465E+04  2.138776E+04  3.813546E+03  1.038382E+03 -3.105517E+03
       259  27  1.119108E+05  2.507441E+04  2.620449E+04  8.756404E+03  1.792827E+03 -3.770489E+03
       260   1 -1.048856E+05 -2.911185E+04 -2.416526E+04  8.668647E+03 -3.217433E+03  4.202002E+03
       260   2 -1.210141E+05 -3.320153E+04 -2.531676E+04  2.905264E+03 -6.071318E+03  4.853505E+03
       260   3 -1.357162E+05 -3.277146E+04 -2.349647E+04  6.804696E+03 -8.923956E+03  5.223100E+03
       260   4  1.230991E+04 -1.445133E+02  3.488304E+03  8.412027E+03 -2.735967E+03  4.203768E+03
       260   5  1.158178E+04 -4.267794E+02  5.930582E+03  3.573380E+03 -5.759556E+03  4.854586E+03
       260   6  1.230897E+04  3.839628E+03  1.146203E+04  8.397399E+03 -8.781969E+03  5.223515E+03
       260   7  1.295180E+05  2.882184E+04  3.114092E+04  8.155346E+03 -2.254410E+03  4.205533E+03
       260   8  1.441939E+05  3.234672E+04  3.717671E+04  4.241626E+03 -5.447727E+03  4.855667E+03
       260   9  1.603543E+05  4.044916E+04  4.641902E+04  9.990465E+03 -8.639948E+03  5.223931E+03
       260  10 -1.048856E+05 -2.911187E+04 -2.416531E+04  8.668657E+03  3.525392E-09  1.580733E-09
       260  11 -1.210142E+05 -3.320157E+04 -2.531687E+04  2.905287E+03 -9.242588E-09  1.177191E-08
       260  12 -1.357163E+05 -3.277151E+04 -2.349667E+04  6.804734E+03 -7.992748E-09 -7.496169E-09
       260  13  1.230990E+04 -1.445343E+02  3.488257E+03  8.412036E+03 -3.215764E-09  2.216203E-09
       260  14  1.158174E+04 -4.268136E+02  5.930475E+03  3.573403E+03 -2.069886E-09  7.852576E-09
       260  15  1.230888E+04  3.839578E+03  1.146184E+04  8.397436E+03 -4.455597E-10  3.394728E-09
       260  16  1.295180E+05  2.882182E+04  3.114088E+04  8.155353E+03 -3.373494E-09  1.880350E-09
       260  17  1.441938E+05  3.234668E+04  3.717661E+04  4.241647E+03  3.933639E-09 -1.080918E-08
       260  18  1.603542E+05  4.044911E+04  4.641882E+04  9.990501E+03  6.399920E-09  6.713520E-10
       260  19 -1.048856E+05 -2.911185E+04 -2.416526E+04  8.668647E+03  3.217433E+03 -4.202002E+03
       260  20 -1.210141E+05 -3.320153E+04 -2.531676E+04  2.905264E+03  6.071318E+03 -4.853505E+03
       260  21 -1.357162E+05 -3.277146E+04 -2.349647E+04  6.804696E+03  8.923956E+03 -5.223100E+03
       260  22  1.230991E+04 -1.445133E+02  3.488304E+03  8.412027E+03  2.735967E+03 -4.203768E+03
       260  23  1.158178E+04 -4.267794E+02  5.930582E+03  3.573380E+03  5.759556E+03 -4.854586E+03
       260  24  1.230897E+04  3.839628E+03  1.146203E+04  8.397399E+03  8.781969E+03 -5.223515E+03
       260  25  1.295180E+05  2.882184E+04  3.114092E+04  8.155346E+03  2.254410E+03 -4.205533E+03
       260  26  1.441939E+05  3.234672E+04  3.717671E+04  4.241626E+03  5.447727E+03 -4.855667E+03
       260  27  1.603543E+05  4.044916E+04  4.641902E+04  9.990465E+03  8.639948E+03 -5.223931E+03
       261   1 -1.504002E+05 -4.302031E+04 -2.477085E+04  1.386332E+04 -1.249947E+04  6.226880E+03
       261   2 -1.724158E+05 -4.927832E+04 -1.964761E+04 -1.399715E+03 -2.203026E+04  6.473939E+03
       261   3 -1.811993E+05 -7.356233E+03  3.716297E+03 -7.239623E+03 -3.154459E+04  2.049821E+03
       261   4  1.503168E+04 -2.199944E+03  1.413011E+04  8.399578E+03 -1.093187E+04  6.232516E+03
       261   5  8.174091E+03 -4.596324E+03  2.295343E+04  3.612572E+03 -2.326803E+04  6.469321E+03
       261   6  1.503095E+04  4.166646E+04  5.196174E+04  8.248260E+03 -3.558798E+04  2.035230E+03
       261   7  1.804888E+05  3.861859E+04  5.302921E+04  2.934353E+03 -9.363862E+03  6.238125E+03
       261   8  1.887940E+05  4.008342E+04  6.555223E+04  8.626300E+03 -2.450615E+04  6.464684E+03
       261   9  2.112968E+05  9.068717E+04  1.002045E+05  2.374102E+04 -3.963265E+04  2.020440E+03
       261  10 -1.504004E+05 -4.302039E+04 -2.477122E+04  1.386338E+04  1.223996E-08 -5.591303E-09
       261  11 -1.724163E+05 -4.927849E+04 -1.964860E+04 -1.399600E+03  1.034411E-08 -7.229242E-09
       261  12 -1.812004E+05 -7.356505E+03  3.714419E+03 -7.239571E+03  1.701698E-09  9.163838E-09
       261  13  1.503154E+04 -2.200017E+03  1.412981E+04  8.399633E+03 -1.113150E-09 -2.261852E-10
       261  14  8.173499E+03 -4.596514E+03  2.295233E+04  3.612693E+03  2.280896E-09  2.460849E-09
       261  15  1.502959E+04  4.166611E+04  5.195935E+04  8.248319E+03 -1.241688E-09  1.454680E-09
       261  16  1.804887E+05  3.861853E+04  5.302898E+04  2.934400E+03 -1.173102E-08  3.531689E-09
       261  17  1.887934E+05  4.008322E+04  6.555103E+04  8.626427E+03 -8.996680E-09  1.078540E-08
       261  18  2.112951E+05  9.068675E+04  1.002016E+05  2.374108E+04 -2.674218E-09  3.113999E-10
       261  19 -1.504002E+05 -4.302031E+04 -2.477085E+04  1.386332E+04  1.249947E+04 -6.226880E+03
       261  20 -1.724158E+05 -4.927832E+04 -1.964761E+04 -1.399715E+03  2.203026E+04 -6.473939E+03
       261  21 -1.811993E+05 -7.356233E+03  3.716297E+03 -7.239623E+03  3.154459E+04 -2.049821E+03
       261  22  1.503168E+04 -2.199944E+03  1.413011E+04  8.399578E+03  1.093187E+04 -6.232516E+03
       261  23  8.174091E+03 -4.596324E+03  2.295343E+04  3.612572E+03  2.326803E+04 -6.469321E+03
       261  24  1.503095E+04  4.166646E+04  5.196174E+04  8.248260E+03  3.558798E+04 -2.035230E+03
       261  25  1.804888E+05  3.861859E+04  5.302921E+04  2.934353E+03  9.363862E+03 -6.238125E+03
       261  26  1.887940E+05  4.008342E+04  6.555223E+04  8.626300E+03  2.450615E+04 -6.464684E+03
       261  27  2.112968E+05  9.068717E+04  1.002045E+05  2.374102E+04  3.963265E+04 -2.020440E+03
       262   1 -3.079683E+05 -1.343420E+06 -3.339682E+05  1.209510E+05 -7.576599E+03 -1.103914E+05
       262   2 -1.426437E+05 -1.183288E+06 -2.145270E+05  4.798523E+04 -2.252513E+04 -6.329689E+04
       262   3 -1.155659E+05 -1.062895E+06 -1.601957E+05  6.219016E+04 -1.813707E+04 -1.613030E+04
       262   4 -1.159228E+05 -5.750328E+05 -1.446780E+05  7.736062E+04 -7.616041E+03 -9.580669E+04
       262   5  1.262290E+04 -5.561446E+05 -6.643190E+04  3.396504E+04 -2.253134E+04 -6.025573E+04
       262   6  5.004812E+03 -5.749601E+05 -4.521827E+04  7.774295E+04 -1.811421E+04 -2.464415E+04
       262   7  7.608564E+04  1.938971E+05  4.457027E+04  3.371655E+04 -7.657515E+03 -8.120392E+04
       262   8  1.678620E+05  7.136176E+04  8.163611E+04  1.993085E+04 -2.253769E+04 -5.721148E+04
       262   9  1.255595E+05 -8.680529E+04  6.974322E+04  9.330819E+04 -1.809178E+04 -3.316466E+04
       262  10 -3.079716E+05 -1.343434E+06 -3.339913E+05  1.209503E+05  2.433927E-09  1.996463E-09
       262  11 -1.426453E+05 -1.183293E+06 -2.145355E+05  4.798408E+04  2.242574E-10 -1.553673E-10
       262  12 -1.155664E+05 -1.062895E+06 -1.601968E+05  6.218992E+04 -2.691718E-09 -5.432334E-09
       262  13 -1.159253E+05 -5.750427E+05 -1.446954E+05  7.736004E+04  1.634949E-09  1.125851E-09
       262  14  1.262138E+04 -5.561487E+05 -6.643968E+04  3.396395E+04 -4.117915E-10 -2.805915E-09
       262  15  5.004297E+03 -5.749609E+05 -4.522002E+04  7.774259E+04  6.701509E-10  5.154224E-09
       262  16  7.608381E+04  1.938900E+05  4.455777E+04  3.371605E+04  1.381484E-09 -2.103176E-09
       262  17  1.678605E+05  7.135811E+04  8.162900E+04  1.992981E+04  2.973558E-09 -2.442525E-09
       262  18  1.255589E+05 -8.680656E+04  6.974054E+04  9.330771E+04 -3.151226E-09  1.008128E-09
       262  19 -3.079683E+05 -1.343420E+06 -3.339682E+05  1.209510E+05  7.576599E+03  1.103914E+05
       262  20 -1.426437E+05 -1.183288E+06 -2.145270E+05  4.798523E+04  2.252513E+04  6.329689E+04
       262  21 -1.155659E+05 -1.062895E+06 -1.601957E+05  6.219016E+04  1.813707E+04  1.613030E+04
       262  22 -1.159228E+05 -5.750328E+05 -1.446780E+05  7.736062E+04  7.616041E+03  9.580669E+04
       262  23  1.262290E+04 -5.561446E+05 -6.643190E+04  3.396504E+04  2.253134E+04  6.025573E+04
       262  24  5.004812E+03 -5.749601E+05 -4.521827E+04  7.774295E+04  1.811421E+04  2.464415E+04
       262  25  7.608564E+04  1.938971E+05  4.457027E+04  3.371655E+04  7.657515E+03  8.120392E+04
       262  26  1.678620E+05  7.136176E+04  8.163611E+04  1.993085E+04  2.253769E+04  5.721148E+04
       262  27  1.255595E+05 -8.680529E+04  6.974322E+04  9.330819E+04  1.809178E+04  3.316466E+04
       263   1 -9.198683E+04 -8.977587E+05 -1.176593E+05  8.329742E+04 -1.185281E+04 -1.462920E+04
       263   2 -4.444760E+04 -7.530308E+05 -7.501093E+04  3.411980E+04 -6.939131E+03  1.259691E+03
       263   3 -2.084291E+04 -6.157497E+05 -4.857673E+04  7.343114E+04 -1.500360E+03  1.715152E+04
       263   4 -1.042540E+04 -5.682012E+05 -3.983736E+04  7.791226E+04 -1.184522E+04 -1.744624E+04
       263   5  2.182275E+03 -5.644905E+05 -3.054921E+04  3.367015E+04 -6.931356E+03 -1.866461E+03
       263   6 -9.085234E+03 -5.681883E+05 -3.725455E+04  7.791644E+04 -1.492280E+03  1.371271E+04
       263   7  7.112836E+04 -2.385437E+05  3.797712E+04  7.252428E+04 -1.183759E+04 -2.026477E+04
       263   8  4.880961E+04 -3.759174E+05  1.391010E+04  3.322037E+04 -6.923578E+03 -4.993557E+03
       263   9  2.672365E+03 -5.206248E+05 -2.593248E+04  8.240209E+04 -1.484251E+03  1.027365E+04
       263  10 -9.198704E+04 -8.977589E+05 -1.176600E+05  8.329728E+04 -2.197357E-09  4.270585E-09
       263  11 -4.444765E+04 -7.530309E+05 -7.501102E+04  3.411981E+04  2.428564E-09  3.923313E-11
       263  12 -2.084299E+04 -6.157501E+05 -4.857728E+04  7.343116E+04 -2.315850E-09 -7.176732E-09
       263  13 -1.042563E+04 -5.682016E+05 -3.983820E+04  7.791210E+04 -1.871759E-09 -1.094340E-09
       263  14  2.182223E+03 -5.644905E+05 -3.054930E+04  3.367014E+04 -5.070894E-10 -3.995216E-09
       263  15 -9.085287E+03 -5.681885E+05 -3.725491E+04  7.791646E+04 -1.895080E-09  1.283006E-09
       263  16  7.112810E+04 -2.385442E+05  3.797609E+04  7.252409E+04 -3.570178E-09 -4.147314E-09
       263  17  4.880956E+04 -3.759174E+05  1.390996E+04  3.322035E+04  1.665094E-09  1.020619E-09
       263  18  2.672335E+03 -5.206249E+05 -2.593269E+04  8.240210E+04 -2.977933E-11  4.147613E-09
       263  19 -9.198683E+04 -8.977587E+05 -1.176593E+05  8.329742E+04  1.185281E+04  1.462920E+04
       263  20 -4.444760E+04 -7.530308E+05 -7.501093E+04  3.411980E+04  6.939131E+03 -1.259691E+03
       263  21 -2.084291E+04 -6.157497E+05 -4.857673E+04  7.343114E+04  1.500360E+03 -1.715152E+04
       263  22 -1.042540E+04 -5.682012E+05 -3.983736E+04  7.791226E+04  1.184522E+04  1.744624E+04
       263  23  2.182275E+03 -5.644905E+05 -3.054921E+04  3.367015E+04  6.931356E+03  1.866461E+03
       263  24 -9.085234E+03 -5.681883E+05 -3.725455E+04  7.791644E+04  1.492280E+03 -1.371271E+04
       263  25  7.112836E+04 -2.385437E+05  3.797712E+04  7.252428E+04  1.183759E+04  2.026477E+04
       263  26  4.880961E+04 -3.759174E+05  1.391010E+04  3.322037E+04  6.923578E+03  4.993557E+03
       263  27  2.672365E+03 -5.206248E+05 -2.593248E+04  8.240209E+04  1.484251E+03 -1.027365E+04
       264   1  3.166186E+04 -4.628887E+05 -1.522379E+04  9.236532E+04  3.714718E+03  2.676399E+04
       264   2  7.355985E+04 -3.056279E+05 -4.788875E+01  2.212219E+04  8.913195E+03  5.219691E+04
       264   3 -4.229803E+03 -1.809575E+05 -3.122154E+04  3.984666E+04  3.392456E+03  7.760872E+04
       264   4  4.238972E+03 -5.740373E+05 -4.153496E+04  7.789111E+04  3.728916E+03  2.039098E+04
       264   5  1.127609E+04 -5.571872E+05 -5.945065E+04  3.376614E+04  8.914275E+03  5.224006E+04
       264   6 -1.025183E+05 -5.740817E+05 -1.281906E+05  7.761570E+04  3.380615E+03  8.406199E+04
       264   7 -2.318398E+04 -6.851739E+05 -6.784671E+04  6.341951E+04  3.743414E+03  1.401910E+04
       264   8 -5.101172E+04 -8.086879E+05 -1.188577E+05  4.540537E+04  8.915357E+03  5.228319E+04
       264   9 -2.008130E+05 -9.670622E+05 -2.251703E+05  1.153609E+05  3.369557E+03  9.051117E+04
       264  10  3.166165E+04 -4.628895E+05 -1.522517E+04  9.236524E+04 -1.718746E-09  1.198069E-09
       264  11  7.355903E+04 -3.056309E+05 -5.316050E+01  2.212182E+04  5.067824E-09  1.388319E-09
       264  12 -4.231433E+03 -1.809640E+05 -3.123288E+04  3.984645E+04  1.462231E-09 -3.180595E-09
       264  13  4.238845E+03 -5.740377E+05 -4.153576E+04  7.789105E+04 -1.256711E-09  5.106350E-11
       264  14  1.127527E+04 -5.571901E+05 -5.945594E+04  3.376576E+04  8.499590E-10 -3.526534E-09
       264  15 -1.025202E+05 -5.740893E+05 -1.282039E+05  7.761547E+04  1.496723E-09  2.277454E-09
       264  16 -2.318405E+04 -6.851741E+05 -6.784710E+04  6.341947E+04 -1.857507E-09 -4.209257E-09
       264  17 -5.101254E+04 -8.086909E+05 -1.188630E+05  4.540500E+04  3.971901E-09 -1.536063E-09
       264  18 -2.008152E+05 -9.670710E+05 -2.251857E+05  1.153606E+05  1.485760E-09 -1.374347E-09
       264  19  3.166186E+04 -4.628887E+05 -1.522379E+04  9.236532E+04 -3.714718E+03 -2.676399E+04
       264  20  7.355985E+04 -3.056279E+05 -4.788875E+01  2.212219E+04 -8.913195E+03 -5.219691E+04
       264  21 -4.229803E+03 -1.809575E+05 -3.122154E+04  3.984666E+04 -3.392456E+03 -7.760872E+04
       264  22  4.238972E+03 -5.740373E+05 -4.153496E+04  7.789111E+04 -3.728916E+03 -2.039098E+04
       264  23  1.127609E+04 -5.571872E+05 -5.945065E+04  3.376614E+04 -8.914275E+03 -5.224006E+04
       264  24 -1.025183E+05 -5.740817E+05 -1.281906E+05  7.761570E+04 -3.380615E+03 -8.406199E+04
       264  25 -2.318398E+04 -6.851739E+05 -6.784671E+04  6.341951E+04 -3.743414E+03 -1.401910E+04
       264  26 -5.101172E+04 -8.086879E+05 -1.188577E+05  4.540537E+04 -8.915357E+03 -5.228319E+04
       264  27 -2.008130E+05 -9.670622E+05 -2.251703E+05  1.153609E+05 -3.369557E+03 -9.051117E+04
       265   1  6.438372E+05  2.170378E+05  1.331618E+05  2.356711E+05  6.509228E+04  2.295586E+04
       265   2  6.227272E+05  1.170249E+05  7.154684E+04  2.386764E+05  4.200098E+04  1.080716E+04
       265   3  6.302739E+05  1.092766E+05  5.139092E+04  2.272259E+05  1.762049E+04  2.061481E+03
       265   4  5.297160E+05  1.493566E+05  9.742729E+04  1.794330E+05  6.245892E+04  2.195452E+04
       265   5  5.104112E+05  6.740261E+04  4.097280E+04  2.003157E+05  4.128423E+04  1.053477E+04
       265   6  5.193894E+05  7.734178E+04  2.446420E+04  2.067410E+05  1.881993E+04  2.516566E+03
       265   7  4.156102E+05  8.168376E+04  6.169199E+04  1.232067E+05  5.982611E+04  2.095364E+04
       265   8  3.981079E+05  1.778271E+04  1.039773E+04  1.619619E+05  4.056763E+04  1.026246E+04
       265   9  4.085164E+05  4.540663E+04 -2.463480E+03  1.862588E+05  2.001915E+04  2.971611E+03
       265  10  6.438325E+05  2.170361E+05  1.331529E+05  2.356699E+05 -4.840609E-09 -2.998077E-09
       265  11  6.227252E+05  1.170243E+05  7.154331E+04  2.386760E+05 -2.164804E-09  1.004773E-08
       265  12  6.302736E+05  1.092765E+05  5.139033E+04  2.272259E+05 -3.121508E-09  6.381259E-09
       265  13  5.297117E+05  1.493550E+05  9.741907E+04  1.794319E+05 -4.447509E-10 -8.288011E-09
       265  14  5.104093E+05  6.740203E+04  4.096939E+04  2.003153E+05 -1.557014E-09 -8.763071E-09
       265  15  5.193890E+05  7.734168E+04  2.446353E+04  2.067410E+05 -4.978805E-09  3.241331E-09
       265  16  4.156062E+05  8.168233E+04  6.168444E+04  1.232057E+05  2.679817E-09  4.177408E-10
       265  17  3.981061E+05  1.778216E+04  1.039444E+04  1.619616E+05 -8.044679E-09 -2.847340E-09
       265  18  4.085159E+05  4.540651E+04 -2.464250E+03  1.862588E+05 -1.074653E-08 -3.778016E-09
       265  19  6.438372E+05  2.170378E+05  1.331618E+05  2.356711E+05 -6.509228E+04 -2.295586E+04
       265  20  6.227272E+05  1.170249E+05  7.154684E+04  2.386764E+05 -4.200098E+04 -1.080716E+04
       265  21  6.302739E+05  1.092766E+05  5.139092E+04  2.272259E+05 -1.762049E+04 -2.061481E+03
       265  22  5.297160E+05  1.493566E+05  9.742729E+04  1.794330E+05 -6.245892E+04 -2.195452E+04
       265  23  5.104112E+05  6.740261E+04  4.097280E+04  2.003157E+05 -4.128423E+04 -1.053477E+04
       265  24  5.193894E+05  7.734178E+04  2.446420E+04  2.067410E+05 -1.881993E+04 -2.516566E+03
       265  25  4.156102E+05  8.168376E+04  6.169199E+04  1.232067E+05 -5.982611E+04 -2.095364E+04
       265  26  3.981079E+05  1.778271E+04  1.039773E+04  1.619619E+05 -4.056763E+04 -1.026246E+04
       265  27  4.085164E+05  4.540663E+04 -2.463480E+03  1.862588E+05 -2.001915E+04 -2.971611E+03
       266   1  6.017728E+05  1.212832E+05  4.248460E+04  2.268342E+05  1.493498E+04  2.009536E+03
       266   2  5.900877E+05  1.039099E+05  2.871090E+04  2.202524E+05  9.660361E+03  4.811321E+02
       266   3  5.754415E+05  1.016676E+05  2.102210E+04  2.192963E+05  4.302037E+03 -8.262646E+02
       266   4  5.162636E+05  8.690259E+04  1.980205E+04  2.011085E+05  1.510351E+04  2.073353E+03
       266   5  5.172594E+05  7.588202E+04  9.667227E+03  1.996114E+05  9.953798E+03  5.923886E+02
       266   6  5.152697E+05  7.996819E+04  5.518993E+03  2.037399E+05  4.720267E+03 -6.676283E+02
       266   7  4.307616E+05  5.252276E+04 -2.881141E+03  1.753860E+05  1.527202E+04  2.137159E+03
       266   8  4.444364E+05  4.785456E+04 -9.376857E+03  1.789727E+05  1.024720E+04  7.036299E+02
       266   9  4.551015E+05  5.826904E+04 -9.984354E+03  1.881848E+05  5.138450E+03 -5.090076E+02
       266  10  6.017726E+05  1.212831E+05  4.248418E+04  2.268342E+05 -7.782165E-09  1.619191E-08
       266  11  5.900876E+05  1.039099E+05  2.871072E+04  2.202524E+05 -7.699147E-09  1.675019E-08
       266  12  5.754415E+05  1.016676E+05  2.102206E+04  2.192963E+05  2.807002E-10  1.889651E-08
       266  13  5.162634E+05  8.690253E+04  1.980161E+04  2.011084E+05 -4.611990E-09  1.230748E-08
       266  14  5.172593E+05  7.588199E+04  9.667041E+03  1.996114E+05 -5.418014E-09 -9.335677E-09
       266  15  5.152696E+05  7.996819E+04  5.518950E+03  2.037399E+05 -2.486050E-09  1.389079E-08
       266  16  4.307613E+05  5.252270E+04 -2.881588E+03  1.753860E+05 -4.652837E-09  3.493484E-09
       266  17  4.444363E+05  4.785453E+04 -9.377055E+03  1.789727E+05 -4.315759E-09 -3.353324E-09
       266  18  4.551015E+05  5.826904E+04 -9.984404E+03  1.881848E+05 -2.683626E-09 -2.013064E-09
       266  19  6.017728E+05  1.212832E+05  4.248460E+04  2.268342E+05 -1.493498E+04 -2.009536E+03
       266  20  5.900877E+05  1.039099E+05  2.871090E+04  2.202524E+05 -9.660361E+03 -4.811321E+02
       266  21  5.754415E+05  1.016676E+05  2.102210E+04  2.192963E+05 -4.302037E+03  8.262646E+02
       266  22  5.162636E+05  8.690259E+04  1.980205E+04  2.011085E+05 -1.510351E+04 -2.073353E+03
       266  23  5.172594E+05  7.588202E+04  9.667227E+03  1.996114E+05 -9.953798E+03 -5.923886E+02
       266  24  5.152697E+05  7.996819E+04  5.518993E+03  2.037399E+05 -4.720267E+03  6.676283E+02
       266  25  4.307616E+05  5.252276E+04 -2.881141E+03  1.753860E+05 -1.527202E+04 -2.137159E+03
       266  26  4.444364E+05  4.785456E+04 -9.376857E+03  1.789727E+05 -1.024720E+04 -7.036299E+02
       266  27  4.551015E+05  5.826904E+04 -9.984354E+03  1.881848E+05 -5.138450E+03  5.090076E+02
       267   1  5.577845E+05  9.717340E+04  1.541610E+04  2.151417E+05  3.428196E+03 -6.926450E+02
       267   2  5.472772E+05  8.782615E+04  9.883990E+03  2.076720E+05  2.037695E+03 -5.001877E+02
       267   3  5.305008E+05  8.602237E+04  5.428340E+03  2.076253E+05  6.420445E+02 -2.942395E+02
       267   4  5.149093E+05  8.085540E+04  4.282872E+03  2.031654E+05  3.778114E+03 -5.599148E+02
       267   5  5.179979E+05  7.675794E+04  2.265321E+03  1.995778E+05  2.395281E+03 -3.645359E+02
       267   6  5.148160E+05  8.020259E+04  1.318317E+03  2.034133E+05  1.007272E+03 -1.556757E+02
       267   7  4.720357E+05  6.453747E+04 -6.850554E+03  1.911897E+05  4.128007E+03 -4.271945E+02
       267   8  4.887194E+05  6.568977E+04 -5.353433E+03  1.914839E+05  2.752849E+03 -2.288910E+02
       267   9  4.991314E+05  7.438283E+04 -2.791727E+03  1.992013E+05  1.372489E+03 -1.711565E+01
       267  10  5.577845E+05  9.717340E+04  1.541608E+04  2.151417E+05  6.242149E-10  1.328758E-08
       267  11  5.472772E+05  8.782615E+04  9.883982E+03  2.076720E+05 -5.412927E-09  9.359092E-09
       267  12  5.305008E+05  8.602237E+04  5.428339E+03  2.076253E+05 -6.867735E-09  6.486833E-09
       267  13  5.149093E+05  8.085540E+04  4.282844E+03  2.031654E+05 -9.108487E-10  3.167887E-10
       267  14  5.179979E+05  7.675794E+04  2.265310E+03  1.995778E+05 -1.087251E-09  4.838315E-09
       267  15  5.148160E+05  8.020259E+04  1.318315E+03  2.034133E+05 -4.128771E-09 -1.439517E-09
       267  16  4.720357E+05  6.453747E+04 -6.850586E+03  1.911897E+05 -1.305810E-09 -2.033553E-09
       267  17  4.887193E+05  6.568977E+04 -5.353448E+03  1.914839E+05  1.522270E-09 -4.987326E-09
       267  18  4.991314E+05  7.438283E+04 -2.791730E+03  1.992013E+05  1.317026E-09  7.802380E-09
       267  19  5.577845E+05  9.717340E+04  1.541610E+04  2.151417E+05 -3.428196E+03  6.926450E+02
       267  20  5.472772E+05  8.782615E+04  9.883990E+03  2.076720E+05 -2.037695E+03  5.001877E+02
       267  21  5.305008E+05  8.602237E+04  5.428340E+03  2.076253E+05 -6.420445E+02  2.942395E+02
       267  22  5.149093E+05  8.085540E+04  4.282872E+03  2.031654E+05 -3.778114E+03  5.599148E+02
       267  23  5.179979E+05  7.675794E+04  2.265321E+03  1.995778E+05 -2.395281E+03  3.645359E+02
       267  24  5.148160E+05  8.020259E+04  1.318317E+03  2.034133E+05 -1.007272E+03  1.556757E+02
       267  25  4.720357E+05  6.453747E+04 -6.850554E+03  1.911897E+05 -4.128007E+03  4.271945E+02
       267  26  4.887194E+05  6.568977E+04 -5.353433E+03  1.914839E+05 -2.752849E+03  2.288910E+02
       267  27  4.991314E+05  7.438283E+04 -2.791727E+03  1.992013E+05 -1.372489E+03  1.711565E+01
       268   1  5.140035E+05  7.998511E+04  7.949987E+02  2.031500E+05  3.097704E+02  1.014854E+01
       268   2  5.036502E+05  7.139827E+04 -3.062963E+03  1.955944E+05 -2.806341E+02  5.210407E+02
       268   3  4.866594E+05  6.962108E+04 -6.639251E+03  1.956102E+05 -8.715439E+02  1.033374E+03
       268   4  5.147690E+05  8.028018E+04  1.044664E+03  2.033550E+05  6.705364E+02  1.470212E+02
       268   5  5.180842E+05  7.684942E+04  6.919620E+02  1.995792E+05  8.093285E+01  6.582103E+02
       268   6  5.147615E+05  8.022813E+04  6.203229E+02  2.033747E+05 -5.091861E+02  1.170839E+03
       268   7  5.155346E+05  8.057525E+04  1.294328E+03  2.035600E+05  1.031302E+03  2.838937E+02
       268   8  5.325183E+05  8.230058E+04  4.446870E+03  2.035641E+05  4.425090E+02  7.953835E+02
       268   9  5.428644E+05  9.083527E+04  7.879856E+03  2.111396E+05 -1.468092E+02  1.308311E+03
       268  10  5.140035E+05  7.998511E+04  7.949985E+02  2.031500E+05  4.877012E-10  1.160120E-09
       268  11  5.036502E+05  7.139827E+04 -3.062963E+03  1.955944E+05 -1.212098E-09 -5.038720E-10
       268  12  4.866594E+05  6.962107E+04 -6.639254E+03  1.956102E+05 -5.972277E-09  4.035006E-10
       268  13  5.147690E+05  8.028018E+04  1.044663E+03  2.033550E+05 -5.154063E-09 -1.034727E-09
       268  14  5.180842E+05  7.684942E+04  6.919611E+02  1.995792E+05 -2.467532E-10  1.230267E-08
       268  15  5.147615E+05  8.022813E+04  6.203198E+02  2.033747E+05 -5.161820E-09 -7.176924E-09
       268  16  5.155346E+05  8.057525E+04  1.294326E+03  2.035600E+05 -6.808989E-09  1.302580E-09
       268  17  5.325183E+05  8.230058E+04  4.446868E+03  2.035641E+05 -5.489462E-10  1.207704E-08
       268  18  5.428644E+05  9.083527E+04  7.879853E+03  2.111396E+05  2.736532E-09  3.184456E-10
       268  19  5.140035E+05  7.998511E+04  7.949987E+02  2.031500E+05 -3.097704E+02 -1.014854E+01
       268  20  5.036502E+05  7.139827E+04 -3.062963E+03  1.955944E+05  2.806341E+02 -5.210407E+02
       268  21  4.866594E+05  6.962108E+04 -6.639251E+03  1.956102E+05  8.715439E+02 -1.033374E+03
       268  22  5.147690E+05  8.028018E+04  1.044664E+03  2.033550E+05 -6.705364E+02 -1.470212E+02
       268  23  5.180842E+05  7.684942E+04  6.919620E+02  1.995792E+05 -8.093285E+01 -6.582103E+02
       268  24  5.147615E+05  8.022813E+04  6.203229E+02  2.033747E+05  5.091861E+02 -1.170839E+03
       268  25  5.155346E+05  8.057525E+04  1.294328E+03  2.035600E+05 -1.031302E+03 -2.838937E+02
       268  26  5.325183E+05  8.230058E+04  4.446870E+03  2.035641E+05 -4.425090E+02 -7.953835E+02
       268  27  5.428644E+05  9.083527E+04  7.879856E+03  2.111396E+05  1.468092E+02 -1.308311E+03
       269   1  4.702325E+05  6.343565E+04 -1.096686E+04  1.911270E+05 -1.120778E+03  1.368324E+03
       269   2  4.598160E+05  5.484741E+04 -1.422456E+04  1.835032E+05 -1.831484E+03  1.837776E+03
       269   3  4.427617E+05  5.315065E+04 -1.709936E+04  1.834897E+05 -2.542419E+03  2.308153E+03
       269   4  5.147592E+05  8.023339E+04  6.629715E+02  2.033881E+05 -7.578292E+02  1.506003E+03
       269   5  5.180844E+05  7.683114E+04  9.298778E+02  1.995665E+05 -1.468079E+03  1.975604E+03
       269   6  5.147713E+05  8.032019E+04  1.579274E+03  2.033550E+05 -2.178567E+03  2.446126E+03
       269   7  5.592878E+05  9.703125E+04  1.229264E+04  2.156500E+05 -3.948521E+02  1.643693E+03
       269   8  5.763559E+05  9.881505E+04  1.608400E+04  2.156311E+05 -1.104637E+03  2.113446E+03
       269   9  5.867857E+05  1.074900E+05  2.025741E+04  2.232222E+05 -1.814670E+03  2.584116E+03
       269  10  4.702325E+05  6.343565E+04 -1.096687E+04  1.911270E+05 -4.128692E-09  2.386239E-09
       269  11  4.598160E+05  5.484741E+04 -1.422457E+04  1.835032E+05  2.605351E-11 -3.996056E-09
       269  12  4.427617E+05  5.315065E+04 -1.709939E+04  1.834897E+05 -1.372730E-09  7.926859E-09
       269  13  5.147592E+05  8.023339E+04  6.629661E+02  2.033881E+05 -1.489302E-09  1.058946E-08
       269  14  5.180844E+05  7.683114E+04  9.298664E+02  1.995665E+05 -2.718510E-09 -1.149539E-08
       269  15  5.147713E+05  8.032018E+04  1.579253E+03  2.033550E+05  1.221496E-09  1.388875E-09
       269  16  5.592878E+05  9.703125E+04  1.229263E+04  2.156500E+05  5.046847E-10 -2.070794E-09
       269  17  5.763559E+05  9.881505E+04  1.608399E+04  2.156311E+05 -9.282060E-10  8.714525E-10
       269  18  5.867857E+05  1.074900E+05  2.025739E+04  2.232222E+05  5.829118E-10 -5.055934E-09
       269  19  4.702325E+05  6.343565E+04 -1.096686E+04  1.911270E+05  1.120778E+03 -1.368324E+03
       269  20  4.598160E+05  5.484741E+04 -1.422456E+04  1.835032E+05  1.831484E+03 -1.837776E+03
       269  21  4.427617E+05  5.315065E+04 -1.709936E+04  1.834897E+05  2.542419E+03 -2.308153E+03
       269  22  5.147592E+05  8.023339E+04  6.629715E+02  2.033881E+05  7.578292E+02 -1.506003E+03
       269  23  5.180844E+05  7.683114E+04  9.298778E+02  1.995665E+05  1.468079E+03 -1.975604E+03
       269  24  5.147713E+05  8.032019E+04  1.579274E+03  2.033550E+05  2.178567E+03 -2.446126E+03
       269  25  5.592878E+05  9.703125E+04  1.229264E+04  2.156500E+05  3.948521E+02 -1.643693E+03
       269  26  5.763559E+05  9.881505E+04  1.608400E+04  2.156311E+05  1.104637E+03 -2.113446E+03
       269  27  5.867857E+05  1.074900E+05  2.025741E+04  2.232222E+05  1.814670E+03 -2.584116E+03
       270   1  4.261344E+05  4.690549E+04 -2.104383E+04  1.791902E+05 -2.992595E+03  2.574098E+03
       270   2  4.154824E+05  3.796500E+04 -2.305764E+04  1.712586E+05 -5.048281E+03  2.540589E+03
       270   3  3.987305E+05  3.717502E+04 -2.337104E+04  1.707842E+05 -7.096696E+03  2.488363E+03
       270   4  5.148347E+05  8.021191E+04  2.045192E+03  2.034679E+05 -2.620811E+03  2.715057E+03
       270   5  5.179582E+05  7.665941E+04  3.600888E+03  1.995404E+05 -4.687334E+03  2.677397E+03
       270   6  5.149838E+05  8.125948E+04  6.865448E+03  2.030701E+05 -6.746626E+03  2.621004E+03
       270   7  6.035429E+05  1.135189E+05  2.513363E+04  2.277489E+05 -2.248968E+03  2.856039E+03
       270   8  6.204443E+05  1.153546E+05  3.025858E+04  2.278264E+05 -4.326320E+03  2.814229E+03
       270   9  6.312503E+05  1.253449E+05  3.710081E+04  2.353615E+05 -6.396484E+03  2.753672E+03
       270  10  4.261344E+05  4.690549E+04 -2.104385E+04  1.791902E+05  7.087615E-10  1.561374E-09
       270  11  4.154824E+05  3.796498E+04 -2.305770E+04  1.712586E+05  2.922470E-09 -1.129411E-08
       270  12  3.987305E+05  3.717500E+04 -2.337115E+04  1.707842E+05  2.018336E-10 -1.208932E-08
       270  13  5.148347E+05  8.021190E+04  2.045166E+03  2.034680E+05 -2.260287E-09  4.088914E-09
       270  14  5.179581E+05  7.665940E+04  3.600834E+03  1.995404E+05  5.174773E-10  2.041253E-08
       270  15  5.149838E+05  8.125946E+04  6.865349E+03  2.030701E+05  1.753160E-09 -2.726259E-09
       270  16  6.035428E+05  1.135189E+05  2.513361E+04  2.277489E+05 -1.732593E-09  1.128160E-08
       270  17  6.204442E+05  1.153546E+05  3.025853E+04  2.278265E+05 -2.799355E-09 -9.939191E-09
       270  18  6.312502E+05  1.253448E+05  3.710072E+04  2.353615E+05  1.001546E-09  6.304226E-09
       270  19  4.261344E+05  4.690549E+04 -2.104383E+04  1.791902E+05  2.992595E+03 -2.574098E+03
       270  20  4.154824E+05  3.796500E+04 -2.305764E+04  1.712586E+05  5.048281E+03 -2.540589E+03
       270  21  3.987305E+05  3.717502E+04 -2.337104E+04  1.707842E+05  7.096696E+03 -2.488363E+03
       270  22  5.148347E+05  8.021191E+04  2.045192E+03  2.034679E+05  2.620811E+03 -2.715057E+03
       270  23  5.179582E+05  7.665941E+04  3.600888E+03  1.995404E+05  4.687334E+03 -2.677397E+03
       270  24  5.149838E+05  8.125948E+04  6.865448E+03  2.030701E+05  6.746626E+03 -2.621004E+03
       270  25  6.035429E+05  1.135189E+05  2.513363E+04  2.277489E+05  2.248968E+03 -2.856039E+03
       270  26  6.204443E+05  1.153546E+05  3.025858E+04  2.278264E+05  4.326320E+03 -2.814229E+03
       270  27  6.312503E+05  1.253449E+05  3.710081E+04  2.353615E+05  6.396484E+03 -2.753672E+03
       271   1  3.811253E+05  3.075598E+04 -2.583762E+04  1.686234E+05 -8.630894E+03  2.400828E+03
       271   2  3.699869E+05  1.899085E+04 -2.280521E+04  1.582349E+05 -1.670787E+04  7.568324E+01
       271   3  3.579595E+05  2.756080E+04 -1.029413E+04  1.524736E+05 -2.465576E+04 -2.589165E+03
       271   4  5.155559E+05  7.984375E+04  8.859915E+03  2.040064E+05 -8.174524E+03  2.573752E+03
       271   5  5.167796E+05  7.523492E+04  1.553677E+04  1.995786E+05 -1.644437E+04  1.753979E+02
       271   6  5.171512E+05  9.099701E+04  3.184336E+04  1.997778E+05 -2.458535E+04 -2.562771E+03
       271   7  6.500034E+05  1.289322E+05  4.355584E+04  2.393961E+05 -7.718047E+03  2.746713E+03
       271   8  6.635932E+05  1.314806E+05  5.387692E+04  2.409312E+05 -1.618080E+04  2.751395E+02
       271   9  6.763680E+05  1.544359E+05  7.397880E+04  2.470934E+05 -2.451491E+04 -2.536368E+03
       271  10  3.811253E+05  3.075595E+04 -2.583777E+04  1.686234E+05 -9.408450E-09 -1.775731E-08
       271  11  3.699866E+05  1.899077E+04 -2.280573E+04  1.582349E+05 -3.640885E-09  1.941379E-08
       271  12  3.579588E+05  2.756063E+04 -1.029529E+04  1.524735E+05  5.494745E-09  1.181171E-08
       271  13  5.155558E+05  7.984372E+04  8.859777E+03  2.040064E+05 -4.662872E-10 -1.000570E-08
       271  14  5.167793E+05  7.523485E+04  1.553626E+04  1.995786E+05  1.922981E-09  6.399197E-09
       271  15  5.171505E+05  9.099684E+04  3.184221E+04  1.997777E+05 -1.659597E-09  8.927798E-10
       271  16  6.500034E+05  1.289322E+05  4.355572E+04  2.393961E+05  7.982067E-09  1.589577E-09
       271  17  6.635930E+05  1.314805E+05  5.387643E+04  2.409312E+05  1.956468E-09 -1.214030E-08
       271  18  6.763674E+05  1.544357E+05  7.397766E+04  2.470934E+05 -7.654706E-09 -7.096649E-09
       271  19  3.811253E+05  3.075598E+04 -2.583762E+04  1.686234E+05  8.630894E+03 -2.400828E+03
       271  20  3.699869E+05  1.899085E+04 -2.280521E+04  1.582349E+05  1.670787E+04 -7.568324E+01
       271  21  3.579595E+05  2.756080E+04 -1.029413E+04  1.524736E+05  2.465576E+04  2.589165E+03
       271  22  5.155559E+05  7.984375E+04  8.859915E+03  2.040064E+05  8.174524E+03 -2.573752E+03
       271  23  5.167796E+05  7.523492E+04  1.553677E+04  1.995786E+05  1.644437E+04 -1.753979E+02
       271  24  5.171512E+05  9.099701E+04  3.184336E+04  1.997778E+05  2.458535E+04  2.562771E+03
       271  25  6.500034E+05  1.289322E+05  4.355584E+04  2.393961E+05  7.718047E+03 -2.746713E+03
       271  26  6.635932E+05  1.314806E+05  5.387692E+04  2.409312E+05  1.618080E+04 -2.751395E+02
       271  27  6.763680E+05  1.544359E+05  7.397880E+04  2.470934E+05  2.451491E+04  2.536368E+03
       272   1  3.317533E+05  1.972353E+04 -7.085367E+03  1.726044E+05 -3.213386E+04 -4.151475E+03
       272   2  3.209696E+05 -1.972540E+04  1.564423E+04  1.379231E+05 -6.516393E+04 -1.626673E+04
       272   3  3.590114E+05  8.418797E+04  1.002907E+05  7.562379E+04 -9.620348E+04 -3.363631E+04
       272   4  5.221812E+05  7.562012E+04  3.934372E+04  2.088349E+05 -3.046936E+04 -3.520200E+03
       272   5  5.057708E+05  6.158948E+04  6.589572E+04  2.007037E+05 -6.646460E+04 -1.676090E+04
       272   6  5.387541E+05  1.914790E+05  1.567000E+05  1.649598E+05 -1.004692E+05 -3.525859E+04
       272   7  7.126450E+05  1.315163E+05  8.577040E+04  2.450739E+05 -2.880430E+04 -2.888817E+03
       272   8  6.906047E+05  1.429098E+05  1.161439E+05  2.635021E+05 -6.776568E+04 -1.725528E+04
       272   9  7.185300E+05  2.987884E+05  2.131058E+05  2.543228E+05 -1.047363E+05 -3.688204E+04
       272  10  3.317522E+05  1.972324E+04 -7.087339E+03  1.726043E+05  2.997918E-10  9.243107E-09
       272  11  3.209650E+05 -1.972683E+04  1.563576E+04  1.379223E+05 -1.576856E-09  2.071409E-08
       272  12  3.590012E+05  8.418427E+04  1.002712E+05  7.562118E+04  2.388273E-09  6.674413E-09
       272  13  5.221802E+05  7.561986E+04  3.934195E+04  2.088348E+05 -1.514381E-09  5.461802E-09
       272  14  5.057660E+05  6.158799E+04  6.588690E+04  2.007028E+05 -5.093428E-09  6.002580E-09
       272  15  5.387430E+05  1.914750E+05  1.566787E+05  1.649569E+05  2.431001E-10  7.936572E-09
       272  16  7.126441E+05  1.315161E+05  8.576883E+04  2.450738E+05 -3.332112E-09  5.815530E-10
       272  17  6.905997E+05  1.429083E+05  1.161347E+05  2.635012E+05 -2.986081E-09 -2.543296E-09
       272  18  7.185178E+05  2.987840E+05  2.130826E+05  2.543197E+05 -2.059467E-09  5.280630E-09
       272  19  3.317533E+05  1.972353E+04 -7.085367E+03  1.726044E+05  3.213386E+04  4.151475E+03
       272  20  3.209696E+05 -1.972540E+04  1.564423E+04  1.379231E+05  6.516393E+04  1.626673E+04
       272  21  3.590114E+05  8.418797E+04  1.002907E+05  7.562379E+04  9.620348E+04  3.363631E+04
       272  22  5.221812E+05  7.562012E+04  3.934372E+04  2.088349E+05  3.046936E+04  3.520200E+03
       272  23  5.057708E+05  6.158948E+04  6.589572E+04  2.007037E+05  6.646460E+04  1.676090E+04
       272  24  5.387541E+05  1.914790E+05  1.567000E+05  1.649598E+05  1.004692E+05  3.525859E+04
       272  25  7.126450E+05  1.315163E+05  8.577040E+04  2.450739E+05  2.880430E+04  2.888817E+03
       272  26  6.906047E+05  1.429098E+05  1.161439E+05  2.635021E+05  6.776568E+04  1.725528E+04
       272  27  7.185300E+05  2.987884E+05  2.131058E+05  2.543228E+05  1.047363E+05  3.688204E+04
       273   1 -9.055502E+04 -6.873159E+05 -1.007116E+05  3.146064E+04 -1.896009E+03 -3.883387E+04
       273   2 -3.594008E+04 -6.541316E+05 -6.394881E+04  1.263906E+04 -5.886844E+03 -2.259112E+04
       273   3 -3.250004E+04 -6.357115E+05 -5.054128E+04  9.767910E+03 -5.198524E+03 -6.332041E+03
       273   4 -4.293624E+04 -4.968607E+05 -5.382969E+04  1.545300E+04 -1.907453E+03 -3.507741E+04
       273   5  4.763894E+03 -4.897173E+05 -2.513842E+04  7.550990E+03 -5.889660E+03 -2.163628E+04
       273   6  1.782905E+03 -4.968479E+05 -1.785093E+04  1.559992E+04 -5.192689E+03 -8.179604E+03
       273   7  4.680784E+03 -3.063720E+05 -6.950278E+03 -5.595384E+02 -1.919090E+03 -3.131980E+04
       273   8  4.546603E+04 -3.252780E+05  1.367012E+04  2.461581E+03 -5.892491E+03 -2.068119E+04
       273   9  3.606461E+04 -3.579666E+05  1.483813E+04  2.143326E+04 -5.186889E+03 -1.002758E+04
       273  10 -9.055543E+04 -6.873175E+05 -1.007144E+05  3.146058E+04 -2.700143E-10 -4.074911E-09
       273  11 -3.594026E+04 -6.541322E+05 -6.394984E+04  1.263895E+04 -2.226598E-09 -5.579249E-09
       273  12 -3.250008E+04 -6.357115E+05 -5.054140E+04  9.767883E+03 -1.801571E-09 -1.481821E-09
       273  13 -4.293657E+04 -4.968620E+05 -5.383201E+04  1.545295E+04 -1.757840E-10 -2.120073E-09
       273  14  4.763731E+03 -4.897178E+05 -2.513937E+04  7.550887E+03 -5.194267E-09 -7.852083E-09
       273  15  1.782858E+03 -4.968480E+05 -1.785110E+04  1.559989E+04 -5.902160E-10  1.410591E-09
       273  16  4.680517E+03 -3.063730E+05 -6.952130E+03 -5.595869E+02 -1.073606E-09  2.972964E-09
       273  17  4.546587E+04 -3.252785E+05  1.366925E+04  2.461483E+03  2.696716E-10 -2.680699E-09
       273  18  3.606455E+04 -3.579667E+05  1.483789E+04  2.143322E+04 -4.125239E-10 -4.106302E-09
       273  19 -9.055502E+04 -6.873159E+05 -1.007116E+05  3.146064E+04  1.896009E+03  3.883387E+04
       273  20 -3.594008E+04 -6.541316E+05 -6.394881E+04  1.263906E+04  5.886844E+03  2.259112E+04
       273  21 -3.250004E+04 -6.357115E+05 -5.054128E+04  9.767910E+03  5.198524E+03  6.332041E+03
       273  22 -4.293624E+04 -4.968607E+05 -5.382969E+04  1.545300E+04  1.907453E+03  3.507741E+04
       273  23  4.763894E+03 -4.897173E+05 -2.513842E+04  7.550990E+03  5.889660E+03  2.163628E+04
       273  24  1.782905E+03 -4.968479E+05 -1.785093E+04  1.559992E+04  5.192689E+03  8.179604E+03
       273  25  4.680784E+03 -3.063720E+05 -6.950278E+03 -5.595384E+02  1.919090E+03  3.131980E+04
       273  26  4.546603E+04 -3.252780E+05  1.367012E+04  2.461581E+03  5.892491E+03  2.068119E+04
       273  27  3.606461E+04 -3.579666E+05  1.483813E+04  2.143326E+04  5.186889E+03  1.002758E+04
       274   1 -3.085521E+04 -6.040778E+05 -4.209136E+04  1.790333E+04 -3.906401E+03 -4.852573E+03
       274   2 -1.965777E+04 -5.763313E+05 -3.351365E+04  7.580881E+03 -3.082537E+03  2.319426E+03
       274   3 -1.915546E+04 -5.520610E+05 -3.225404E+04  1.356946E+04 -2.026553E+03  9.492271E+03
       274   4 -3.719365E+03 -4.944435E+05 -1.619414E+04  1.563303E+04 -3.904974E+03 -5.290925E+03
       274   5  1.018100E+03 -4.927171E+05 -1.379875E+04  7.475782E+03 -3.080734E+03  1.742827E+03
       274   6 -4.914710E+03 -4.944430E+05 -1.862464E+04  1.562952E+04 -2.024341E+03  8.777132E+03
       274   7  2.341563E+04 -3.847982E+05  9.702244E+03  1.336233E+04 -3.903544E+03 -5.729354E+03
       274   8  2.169347E+04 -4.090964E+05  5.915668E+03  7.370674E+03 -3.078931E+03  1.166152E+03
       274   9  9.325822E+03 -4.368219E+05 -4.995463E+03  1.768978E+04 -2.022134E+03  8.061927E+03
       274  10 -3.085523E+04 -6.040778E+05 -4.209143E+04  1.790331E+04  9.713128E-10 -9.526060E-09
       274  11 -1.965779E+04 -5.763313E+05 -3.351368E+04  7.580887E+03  2.943387E-09 -6.092694E-10
       274  12 -1.915549E+04 -5.520611E+05 -3.225422E+04  1.356948E+04  3.838675E-10  6.461619E-09
       274  13 -3.719389E+03 -4.944435E+05 -1.619423E+04  1.563301E+04  5.425604E-10 -6.473110E-09
       274  14  1.018089E+03 -4.927171E+05 -1.379878E+04  7.475786E+03 -4.105045E-09 -9.977499E-09
       274  15 -4.914735E+03 -4.944431E+05 -1.862479E+04  1.562954E+04 -6.594148E-11 -1.319973E-09
       274  16  2.341561E+04 -3.847982E+05  9.702154E+03  1.336231E+04  1.741421E-09  7.397520E-09
       274  17  2.169346E+04 -4.090964E+05  5.915648E+03  7.370677E+03  5.743144E-12 -5.670117E-09
       274  18  9.325800E+03 -4.368220E+05 -4.995593E+03  1.768979E+04  1.476517E-09 -5.724900E-09
       274  19 -3.085521E+04 -6.040778E+05 -4.209136E+04  1.790333E+04  3.906401E+03  4.852573E+03
       274  20 -1.965777E+04 -5.763313E+05 -3.351365E+04  7.580881E+03  3.082537E+03 -2.319426E+03
       274  21 -1.915546E+04 -5.520610E+05 -3.225404E+04  1.356946E+04  2.026553E+03 -9.492271E+03
       274  22 -3.719365E+03 -4.944435E+05 -1.619414E+04  1.563303E+04  3.904974E+03  5.290925E+03
       274  23  1.018100E+03 -4.927171E+05 -1.379875E+04  7.475782E+03  3.080734E+03 -1.742827E+03
       274  24 -4.914710E+03 -4.944430E+05 -1.862464E+04  1.562952E+04  2.024341E+03 -8.777132E+03
       274  25  2.341563E+04 -3.847982E+05  9.702244E+03  1.336233E+04  3.903544E+03  5.729354E+03
       274  26  2.169347E+04 -4.090964E+05  5.915668E+03  7.370674E+03  3.078931E+03 -1.166152E+03
       274  27  9.325822E+03 -4.368219E+05 -4.995463E+03  1.768978E+04  2.022134E+03 -8.061927E+03
       275   1 -4.472063E+03 -5.260258E+05 -2.796522E+04  2.365703E+04 -1.207477E+03  1.305095E+04
       275   2  5.628122E+03 -4.908694E+05 -3.222345E+04  1.428795E+03 -1.910566E+02  2.952929E+04
       275   3 -4.937080E+04 -4.740127E+05 -6.346298E+04 -4.583048E+03 -3.751446E+01  4.600551E+04
       275   4  2.567381E+03 -4.977590E+05 -2.133871E+04  1.566796E+04 -1.204932E+03  1.215299E+04
       275   5  6.149491E+03 -4.885704E+05 -3.169726E+04  7.471888E+03 -1.896177E+02  2.914831E+04
       275   6 -5.545809E+04 -4.977729E+05 -6.939674E+04  1.549234E+04 -3.643717E+01  4.614082E+04
       275   7  9.607006E+03 -4.694913E+05 -1.471222E+04  7.678537E+03 -1.202364E+03  1.125500E+04
       275   8  6.670996E+03 -4.862714E+05 -3.117104E+04  1.351500E+04 -1.881862E+02  2.876733E+04
       275   9 -6.154390E+04 -5.215318E+05 -7.533034E+04  3.556697E+04 -3.535109E+01  4.627612E+04
       275  10 -4.472110E+03 -5.260259E+05 -2.796554E+04  2.365704E+04  5.312613E-10  1.234808E-09
       275  11  5.627888E+03 -4.908704E+05 -3.222509E+04  1.428799E+03  3.228259E-09  4.858426E-09
       275  12 -4.937137E+04 -4.740150E+05 -6.346696E+04 -4.583047E+03  8.959136E-10  3.500763E-09
       275  13  2.567339E+03 -4.977591E+05 -2.133899E+04  1.566798E+04  1.500071E-09  2.203069E-09
       275  14  6.149262E+03 -4.885714E+05 -3.169886E+04  7.471893E+03 -7.097088E-11 -5.427956E-09
       275  15 -5.545866E+04 -4.977752E+05 -6.940075E+04  1.549235E+04  1.021153E-09  5.955588E-09
       275  16  9.606970E+03 -4.694914E+05 -1.471246E+04  7.678548E+03  7.915893E-10 -2.220848E-09
       275  17  6.670774E+03 -4.862723E+05 -3.117260E+04  1.351501E+04 -6.073362E-10 -2.176567E-09
       275  18 -6.154448E+04 -5.215341E+05 -7.533436E+04  3.556697E+04 -1.434545E-09  3.875366E-09
       275  19 -4.472063E+03 -5.260258E+05 -2.796522E+04  2.365703E+04  1.207477E+03 -1.305095E+04
       275  20  5.628122E+03 -4.908694E+05 -3.222345E+04  1.428795E+03  1.910566E+02 -2.952929E+04
       275  21 -4.937080E+04 -4.740127E+05 -6.346298E+04 -4.583048E+03  3.751446E+01 -4.600551E+04
       275  22  2.567381E+03 -4.977590E+05 -2.133871E+04  1.566796E+04  1.204932E+03 -1.215299E+04
       275  23  6.149491E+03 -4.885704E+05 -3.169726E+04  7.471888E+03  1.896177E+02 -2.914831E+04
       275  24 -5.545809E+04 -4.977729E+05 -6.939674E+04  1.549234E+04  3.643717E+01 -4.614082E+04
       275  25  9.607006E+03 -4.694913E+05 -1.471222E+04  7.678537E+03  1.202364E+03 -1.125500E+04
       275  26  6.670996E+03 -4.862714E+05 -3.117104E+04  1.351500E+04  1.881862E+02 -2.876733E+04
       275  27 -6.154390E+04 -5.215318E+05 -7.533034E+04  3.556697E+04  3.535109E+01 -4.627612E+04
       276   1 -3.511973E+04 -8.546639E+04 -7.076818E+04 -4.884744E+03  3.263741E+04  6.071913E+03
       276   2  2.854216E+02 -1.306519E+05 -9.081828E+04 -4.254183E+03  2.523570E+04  1.834668E+04
       276   3  5.160227E+04 -1.171433E+05 -9.132618E+04 -3.039533E+04  1.784860E+04  1.756037E+04
       276   4  5.143152E+05  5.132887E+04  6.418828E+04 -2.290206E+04  4.395209E+04  6.084432E+03
       276   5  5.056982E+05 -5.775616E+03  2.834141E+04 -9.487165E+03  2.870299E+04  1.834884E+04
       276   6  5.143384E+05 -2.850668E+03  1.747096E+04 -2.284185E+04  1.346913E+04  1.755657E+04
       276   7  1.064026E+06  1.881031E+05  1.991232E+05 -4.093543E+04  5.527675E+04  6.096289E+03
       276   8  1.011346E+06  1.190825E+05  1.474835E+05 -1.472449E+04  3.217308E+04  1.835094E+04
       276   9  9.772717E+05  1.114269E+05  1.262535E+05 -1.528275E+04  9.086417E+03  1.755267E+04
       276  10 -3.512089E+04 -8.546672E+04 -7.077025E+04 -4.884903E+03 -3.201130E-10  9.160877E-11
       276  11  2.846473E+02 -1.306524E+05 -9.082011E+04 -4.254556E+03 -3.978259E-10  1.032949E-10
       276  12  5.160185E+04 -1.171437E+05 -9.132736E+04 -3.039558E+04  4.631716E-11 -7.441556E-11
       276  13  5.143131E+05  5.132832E+04  6.418458E+04 -2.290228E+04  6.847607E-10  7.729811E-11
       276  14  5.056973E+05 -5.776198E+03  2.833923E+04 -9.487589E+03  1.306914E-10  1.231570E-10
       276  15  5.143381E+05 -2.851047E+03  1.747004E+04 -2.284204E+04  3.605192E-10 -7.373633E-11
       276  16  1.064022E+06  1.881022E+05  1.991174E+05 -4.093570E+04 -1.098457E-10  1.032155E-10
       276  17  1.011345E+06  1.190818E+05  1.474810E+05 -1.472496E+04  1.694359E-10  2.159145E-10
       276  18  9.772715E+05  1.114266E+05  1.262528E+05 -1.528287E+04 -5.418550E-10 -7.538155E-11
       276  19 -3.511973E+04 -8.546639E+04 -7.076818E+04 -4.884744E+03 -3.263741E+04 -6.071913E+03
       276  20  2.854216E+02 -1.306519E+05 -9.081828E+04 -4.254183E+03 -2.523570E+04 -1.834668E+04
       276  21  5.160227E+04 -1.171433E+05 -9.132618E+04 -3.039533E+04 -1.784860E+04 -1.756037E+04
       276  22  5.143152E+05  5.132887E+04  6.418828E+04 -2.290206E+04 -4.395209E+04 -6.084432E+03
       276  23  5.056982E+05 -5.775616E+03  2.834141E+04 -9.487165E+03 -2.870299E+04 -1.834884E+04
       276  24  5.143384E+05 -2.850668E+03  1.747096E+04 -2.284185E+04 -1.346913E+04 -1.755657E+04
       276  25  1.064026E+06  1.881031E+05  1.991232E+05 -4.093543E+04 -5.527675E+04 -6.096289E+03
       276  26  1.011346E+06  1.190825E+05  1.474835E+05 -1.472449E+04 -3.217308E+04 -1.835094E+04
       276  27  9.772717E+05  1.114269E+05  1.262535E+05 -1.528275E+04 -9.086417E+03 -1.755267E+04
       277   1  9.635108E+04 -9.785719E+04 -8.369687E+04 -2.155348E+04  1.119903E+04  1.472013E+04
       277   2  1.378718E+05 -9.251383E+04 -8.030614E+04 -9.258052E+03  7.928984E+03  1.368001E+04
       277   3  1.813187E+05 -8.173303E+04 -7.339743E+04 -2.360778E+04  4.657960E+03  1.186105E+04
       277   4  5.109572E+05  4.609665E+03  1.417313E+04 -2.283271E+04  1.081454E+04  1.471922E+04
       277   5  5.099595E+05 -5.925828E+02  7.341003E+03 -9.509438E+03  7.074879E+03  1.367910E+04
       277   6  5.109665E+05 -2.776880E+02  4.351129E+03 -2.283027E+04  3.334462E+03  1.186035E+04
       277   7  9.257212E+05  1.070642E+05  1.120313E+05 -2.411281E+04  1.042979E+04  1.471831E+04
       277   8  8.821744E+05  9.131878E+04  9.497862E+04 -9.760988E+03  6.220265E+03  1.367820E+04
       277   9  8.407141E+05  8.116989E+04  8.209220E+04 -2.205234E+04  2.010265E+03  1.185966E+04
       277  10  9.635089E+04 -9.785746E+04 -8.369751E+04 -2.155362E+04  2.612023E-10 -1.485213E-10
       277  11  1.378717E+05 -9.251405E+04 -8.030661E+04 -9.258139E+03 -3.714657E-10  3.229664E-11
       277  12  1.813186E+05 -8.173319E+04 -7.339774E+04 -2.360782E+04  2.329825E-12  1.429372E-10
       277  13  5.109570E+05  4.609401E+03  1.417251E+04 -2.283284E+04  3.456426E-10 -9.532237E-11
       277  14  5.099594E+05 -5.927972E+02  7.340558E+03 -9.509516E+03 -5.350410E-10 -8.057348E-11
       277  15  5.109664E+05 -2.778421E+02  4.350844E+03 -2.283030E+04 -8.139719E-11  1.469237E-10
       277  16  9.257211E+05  1.070640E+05  1.120307E+05 -2.411293E+04 -3.393898E-10 -1.865442E-10
       277  17  8.821743E+05  9.131857E+04  9.497820E+04 -9.761056E+03  5.871943E-11 -3.652093E-11
       277  18  8.407140E+05  8.116974E+04  8.209193E+04 -2.205236E+04  2.425807E-10  9.869431E-11
       277  19  9.635108E+04 -9.785719E+04 -8.369687E+04 -2.155348E+04 -1.119903E+04 -1.472013E+04
       277  20  1.378718E+05 -9.251383E+04 -8.030614E+04 -9.258052E+03 -7.928984E+03 -1.368001E+04
       277  21  1.813187E+05 -8.173303E+04 -7.339743E+04 -2.360778E+04 -4.657960E+03 -1.186105E+04
       277  22  5.109572E+05  4.609665E+03  1.417313E+04 -2.283271E+04 -1.081454E+04 -1.471922E+04
       277  23  5.099595E+05 -5.925828E+02  7.341003E+03 -9.509438E+03 -7.074879E+03 -1.367910E+04
       277  24  5.109665E+05 -2.776880E+02  4.351129E+03 -2.283027E+04 -3.334462E+03 -1.186035E+04
       277  25  9.257212E+05  1.070642E+05  1.120313E+05 -2.411281E+04 -1.042979E+04 -1.471831E+04
       277  26  8.821744E+05  9.131878E+04  9.497862E+04 -9.760988E+03 -6.220265E+03 -1.367820E+04
       277  27  8.407141E+05  8.116989E+04  8.209220E+04 -2.205234E+04 -2.010265E+03 -1.185966E+04
       278   1  2.282810E+05 -6.933083E+04 -6.299053E+04 -2.271820E+04  3.730258E+03  1.066360E+04
       278   2  2.701067E+05 -5.944007E+04 -5.468961E+04 -9.597476E+03  2.798837E+03  8.843547E+03
       278   3  3.122287E+05 -4.904645E+04 -4.564654E+04 -2.282230E+04  1.866548E+03  6.982419E+03
       278   4  5.105949E+05  3.865083E+02  3.394472E+03 -2.276449E+04  2.651091E+03  1.066314E+04
       278   5  5.104477E+05 -7.111916E+01  1.915667E+03 -9.592016E+03  1.694598E+03  8.843308E+03
       278   6  5.106000E+05 -2.140799E+01  1.196404E+03 -2.276447E+04  7.373001E+02  6.982410E+03
       278   7  7.929822E+05  7.009817E+04  6.977401E+04 -2.281080E+04  1.571436E+03  1.066269E+04
       278   8  7.508417E+05  5.929370E+04  5.851698E+04 -9.586553E+03  5.899341E+02  8.843068E+03
       278   9  7.090073E+05  4.900082E+04  4.803663E+04 -2.270661E+04 -3.923063E+02  6.982400E+03
       278  10  2.282809E+05 -6.933095E+04 -6.299077E+04 -2.271824E+04  1.054777E-10  2.705306E-11
       278  11  2.701066E+05 -5.944015E+04 -5.468978E+04 -9.597496E+03 -2.665212E-10 -7.450316E-11
       278  12  3.122287E+05 -4.904650E+04 -4.564664E+04 -2.282231E+04  2.730173E-10 -2.399150E-10
       278  13  5.105949E+05  3.863843E+02  3.394246E+03 -2.276451E+04  7.580973E-11  1.532278E-10
       278  14  5.104476E+05 -7.120393E+01  1.915515E+03 -9.592028E+03  2.557539E-10 -1.341182E-10
       278  15  5.105999E+05 -2.146050E+01  1.196312E+03 -2.276447E+04 -2.470976E-11 -9.460664E-11
       278  16  7.929822E+05  7.009804E+04  6.977379E+04 -2.281081E+04 -2.128605E-10  5.708570E-11
       278  17  7.508417E+05  5.929362E+04  5.851683E+04 -9.586557E+03  2.076288E-11  4.915561E-12
       278  18  7.090073E+05  4.900076E+04  4.803654E+04 -2.270660E+04 -4.952173E-10 -1.293400E-10
       278  19  2.282810E+05 -6.933083E+04 -6.299053E+04 -2.271820E+04 -3.730258E+03 -1.066360E+04
       278  20  2.701067E+05 -5.944007E+04 -5.468961E+04 -9.597476E+03 -2.798837E+03 -8.843547E+03
       278  21  3.122287E+05 -4.904645E+04 -4.564654E+04 -2.282230E+04 -1.866548E+03 -6.982419E+03
       278  22  5.105949E+05  3.865083E+02  3.394472E+03 -2.276449E+04 -2.651091E+03 -1.066314E+04
       278  23  5.104477E+05 -7.111916E+01  1.915667E+03 -9.592016E+03 -1.694598E+03 -8.843308E+03
       278  24  5.106000E+05 -2.140799E+01  1.196404E+03 -2.276447E+04 -7.373001E+02 -6.982410E+03
       278  25  7.929822E+05  7.009817E+04  6.977401E+04 -2.281080E+04 -1.571436E+03 -1.066269E+04
       278  26  7.508417E+05  5.929370E+04  5.851698E+04 -9.586553E+03 -5.899341E+02 -8.843068E+03
       278  27  7.090073E+05  4.900082E+04  4.803663E+04 -2.270661E+04  3.923063E+02 -6.982400E+03
       279   1  3.590688E+05 -3.735972E+04 -3.456940E+04 -2.271146E+04  1.653840E+03  5.893629E+03
       279   2  4.007240E+05 -2.712800E+04 -2.511269E+04 -9.625972E+03  1.284596E+03  4.039920E+03
       279   3  4.424423E+05 -1.683295E+04 -1.540061E+04 -2.270970E+04  9.149462E+02  2.186462E+03
       279   4  5.105512E+05  3.237005E+01  9.808125E+02 -2.272536E+04  5.410948E+02  5.893727E+03
       279   5  5.105218E+05 -7.953820E+00  7.447789E+02 -9.640894E+03  1.718873E+02  4.040117E+03
       279   6  5.105533E+05  1.500468E+01  7.639815E+02 -2.272536E+04 -1.977016E+02  2.186765E+03
       279   7  6.620547E+05  3.742283E+04  3.652946E+04 -2.273926E+04 -5.719199E+02  5.893825E+03
       279   8  6.203308E+05  2.711124E+04  2.660143E+04 -9.655819E+03 -9.410169E+02  4.040314E+03
       279   9  5.786686E+05  1.686263E+04  1.692825E+04 -2.274102E+04 -1.310471E+03  2.187068E+03
       279  10  3.590688E+05 -3.735975E+04 -3.456947E+04 -2.271147E+04  2.041923E-10 -1.102720E-10
       279  11  4.007240E+05 -2.712802E+04 -2.511273E+04 -9.625977E+03  1.576122E-10  8.523765E-11
       279  12  4.424423E+05 -1.683295E+04 -1.540062E+04 -2.270970E+04  2.277582E-10  1.238250E-11
       279  13  5.105512E+05  3.233266E+01  9.807467E+02 -2.272536E+04 -2.283356E-11 -1.173827E-10
       279  14  5.105218E+05 -7.971360E+00  7.447482E+02 -9.640895E+03  7.796751E-11  2.406185E-10
       279  15  5.105533E+05  1.499953E+01  7.639725E+02 -2.272536E+04  4.283118E-11  1.193638E-10
       279  16  6.620547E+05  3.742279E+04  3.652940E+04 -2.273926E+04 -4.537419E-10 -8.129129E-11
       279  17  6.203308E+05  2.711122E+04  2.660139E+04 -9.655816E+03 -7.272812E-11  2.563956E-12
       279  18  5.786686E+05  1.686262E+04  1.692824E+04 -2.274102E+04 -5.602236E-10  1.017027E-10
       279  19  3.590688E+05 -3.735972E+04 -3.456940E+04 -2.271146E+04 -1.653840E+03 -5.893629E+03
       279  20  4.007240E+05 -2.712800E+04 -2.511269E+04 -9.625972E+03 -1.284596E+03 -4.039920E+03
       279  21  4.424423E+05 -1.683295E+04 -1.540061E+04 -2.270970E+04 -9.149462E+02 -2.186462E+03
       279  22  5.105512E+05  3.237005E+01  9.808125E+02 -2.272536E+04 -5.410948E+02 -5.893727E+03
       279  23  5.105218E+05 -7.953820E+00  7.447789E+02 -9.640894E+03 -1.718873E+02 -4.040117E+03
       279  24  5.105533E+05  1.500468E+01  7.639815E+02 -2.272536E+04  1.977016E+02 -2.186765E+03
       279  25  6.620547E+05  3.742283E+04  3.652946E+04 -2.273926E+04  5.719199E+02 -5.893825E+03
       279  26  6.203308E+05  2.711124E+04  2.660143E+04 -9.655819E+03  9.410169E+02 -4.040314E+03
       279  27  5.786686E+05  1.686263E+04  1.692825E+04 -2.274102E+04  1.310471E+03 -2.187068E+03
       280   1  4.891417E+05 -5.257022E+03 -4.062657E+03 -2.268914E+04  7.673092E+02  1.108114E+03
       280   2  5.307097E+05  4.974707E+03  6.007798E+03 -9.638081E+03  1.449939E+02 -7.430878E+02
       280   3  5.723757E+05  1.533304E+04  1.651096E+04 -2.270842E+04 -4.772937E+02 -2.592579E+03
       280   4  5.105623E+05  8.575723E+00  8.565665E+02 -2.271482E+04 -3.447070E+02  1.108445E+03
       280   5  5.105139E+05 -1.325132E+01  1.252036E+03 -9.654078E+03 -9.660108E+02 -7.427796E+02
       280   6  5.105618E+05  9.148183E+01  2.079629E+03 -2.271479E+04 -1.587246E+03 -2.592287E+03
       280   7  5.319834E+05  5.274142E+03  5.775764E+03 -2.274050E+04 -1.456761E+03  1.108775E+03
       280   8  4.903184E+05 -5.001238E+03 -3.503749E+03 -9.670074E+03 -2.076979E+03 -7.424715E+02
       280   9  4.487513E+05 -1.515035E+04 -1.235195E+04 -2.272115E+04 -2.697088E+03 -2.591995E+03
       280  10  4.891417E+05 -5.257024E+03 -4.062660E+03 -2.268914E+04  1.242255E-10 -1.356717E-10
       280  11  5.307097E+05  4.974706E+03  6.007797E+03 -9.638081E+03 -3.542045E-10  1.989467E-11
       280  12  5.723757E+05  1.533304E+04  1.651094E+04 -2.270842E+04 -7.233636E-12  3.620656E-10
       280  13  5.105623E+05  8.574372E+00  8.565640E+02 -2.271482E+04 -1.924682E-10  8.623201E-11
       280  14  5.105139E+05 -1.325216E+01  1.252033E+03 -9.654078E+03 -4.291922E-10 -3.089995E-11
       280  15  5.105618E+05  9.147393E+01  2.079612E+03 -2.271479E+04 -4.869731E-11  2.288836E-10
       280  16  5.319834E+05  5.274140E+03  5.775758E+03 -2.274050E+04 -2.069923E-10 -4.073882E-11
       280  17  4.903184E+05 -5.001239E+03 -3.503758E+03 -9.670075E+03 -3.976199E-11 -1.016173E-10
       280  18  4.487513E+05 -1.515036E+04 -1.235198E+04 -2.272116E+04 -2.721998E-11  5.470388E-11
       280  19  4.891417E+05 -5.257022E+03 -4.062657E+03 -2.268914E+04 -7.673092E+02 -1.108114E+03
       280  20  5.307097E+05  4.974707E+03  6.007798E+03 -9.638081E+03 -1.449939E+02  7.430878E+02
       280  21  5.723757E+05  1.533304E+04  1.651096E+04 -2.270842E+04  4.772937E+02  2.592579E+03
       280  22  5.105623E+05  8.575723E+00  8.565665E+02 -2.271482E+04  3.447070E+02 -1.108445E+03
       280  23  5.105139E+05 -1.325132E+01  1.252036E+03 -9.654078E+03  9.660108E+02  7.427796E+02
       280  24  5.105618E+05  9.148183E+01  2.079629E+03 -2.271479E+04  1.587246E+03  2.592287E+03
       280  25  5.319834E+05  5.274142E+03  5.775764E+03 -2.274050E+04  1.456761E+03 -1.108775E+03
       280  26  4.903184E+05 -5.001238E+03 -3.503749E+03 -9.670074E+03  2.076979E+03  7.424715E+02
       280  27  4.487513E+05 -1.515035E+04 -1.235195E+04 -2.272115E+04  2.697088E+03  2.591995E+03
       281   1  6.192238E+05  2.678617E+04  2.836909E+04 -2.255889E+04 -8.926556E+02 -3.676281E+03
       281   2  6.606723E+05  3.697491E+04  3.996873E+04 -9.640619E+03 -3.201383E+03 -5.528659E+03
       281   3  7.027449E+05  4.842043E+04  5.338568E+04 -2.293207E+04 -5.509719E+03 -7.345324E+03
       281   4  5.106760E+05 -4.626344E+01  2.685509E+03 -2.273455E+04 -2.015716E+03 -3.676038E+03
       281   5  5.103643E+05 -1.453966E+02  4.576384E+03 -9.629422E+03 -4.302520E+03 -5.528565E+03
       281   6  5.106722E+05  1.008945E+03  8.270003E+03 -2.273439E+04 -6.588781E+03 -7.345369E+03
       281   7  4.021389E+05 -2.687954E+04 -2.299889E+04 -2.291018E+04 -3.138582E+03 -3.675795E+03
       281   8  3.600770E+05 -3.726732E+04 -3.081751E+04 -9.618226E+03 -5.403393E+03 -5.528470E+03
       281   9  3.186333E+05 -4.640516E+04 -3.684819E+04 -2.253678E+04 -7.667511E+03 -7.345414E+03
       281  10  6.192238E+05  2.678616E+04  2.836907E+04 -2.255889E+04  1.045239E-09  1.461815E-10
       281  11  6.606723E+05  3.697488E+04  3.996865E+04 -9.640633E+03  2.559876E-10 -1.544180E-10
       281  12  7.027449E+05  4.842036E+04  5.338552E+04 -2.293210E+04 -6.063840E-11  1.697161E-11
       281  13  5.106760E+05 -4.627905E+01  2.685476E+03 -2.273456E+04 -4.217458E-11  6.302277E-12
       281  14  5.103642E+05 -1.454344E+02  4.576292E+03 -9.629441E+03  3.963022E-10 -2.950570E-10
       281  15  5.106721E+05  1.008875E+03  8.269820E+03 -2.273443E+04  5.864737E-10  6.150834E-11
       281  16  4.021389E+05 -2.687956E+04 -2.299893E+04 -2.291019E+04 -5.939740E-10 -3.490351E-11
       281  17  3.600769E+05 -3.726736E+04 -3.081762E+04 -9.618250E+03  1.605871E-10 -2.686932E-10
       281  18  3.186332E+05 -4.640524E+04 -3.684841E+04 -2.253683E+04  5.955110E-10  1.002417E-10
       281  19  6.192238E+05  2.678617E+04  2.836909E+04 -2.255889E+04  8.926556E+02  3.676281E+03
       281  20  6.606723E+05  3.697491E+04  3.996873E+04 -9.640619E+03  3.201383E+03  5.528659E+03
       281  21  7.027449E+05  4.842043E+04  5.338568E+04 -2.293207E+04  5.509719E+03  7.345324E+03
       281  22  5.106760E+05 -4.626344E+01  2.685509E+03 -2.273455E+04  2.015716E+03  3.676038E+03
       281  23  5.103643E+05 -1.453966E+02  4.576384E+03 -9.629422E+03  4.302520E+03  5.528565E+03
       281  24  5.106722E+05  1.008945E+03  8.270003E+03 -2.273439E+04  6.588781E+03  7.345369E+03
       281  25  4.021389E+05 -2.687954E+04 -2.299889E+04 -2.291018E+04  3.138582E+03  3.675795E+03
       281  26  3.600770E+05 -3.726732E+04 -3.081751E+04 -9.618226E+03  5.403393E+03  5.528470E+03
       281  27  3.186333E+05 -4.640516E+04 -3.684819E+04 -2.253678E+04  7.667511E+03  7.345414E+03
       282   1  7.506633E+05  5.843372E+04  6.703999E+04 -2.099394E+04 -6.973036E+03 -8.517735E+03
       282   2  7.904220E+05  6.805450E+04  8.425896E+04 -1.045684E+04 -1.656329E+04 -1.033210E+04
       282   3  8.349168E+05  9.134055E+04  1.111470E+05 -2.633105E+04 -2.615364E+04 -1.149465E+04
       282   4  5.115670E+05 -6.321394E+02  1.063620E+04 -2.277874E+04 -8.256147E+03 -8.517885E+03
       282   5  5.092279E+05 -1.385002E+03  1.804812E+04 -9.573926E+03 -1.745123E+04 -1.033254E+04
       282   6  5.115568E+05  1.146243E+04  3.485818E+04 -2.278095E+04 -2.664578E+04 -1.149532E+04
       282   7  2.725232E+05 -5.970207E+04 -4.577152E+04 -2.456284E+04 -9.538766E+03 -8.518028E+03
       282   8  2.281066E+05 -7.083014E+04 -4.816815E+04 -8.691411E+03 -1.833878E+04 -1.033298E+04
       282   9  1.882929E+05 -6.842312E+04 -4.143786E+04 -1.923270E+04 -2.713766E+04 -1.149600E+04
       282  10  7.506632E+05  5.843363E+04  6.703976E+04 -2.099399E+04  7.560680E-11  4.434899E-11
       282  11  7.904217E+05  6.805431E+04  8.425824E+04 -1.045698E+04 -5.093420E-10 -7.769859E-11
       282  12  8.349160E+05  9.134022E+04  1.111455E+05 -2.633130E+04  1.686167E-10  1.265352E-10
       282  13  5.115669E+05 -6.322356E+02  1.063594E+04 -2.277879E+04  2.134100E-10  1.436636E-10
       282  14  5.092276E+05 -1.385198E+03  1.804735E+04 -9.574071E+03 -5.946531E-10 -8.549657E-11
       282  15  5.115560E+05  1.146209E+04  3.485660E+04 -2.278120E+04  1.390949E-10  4.485409E-11
       282  16  2.725231E+05 -5.970217E+04 -4.577183E+04 -2.456291E+04 -7.851115E-10  1.449495E-10
       282  17  2.281062E+05 -7.083034E+04 -4.816898E+04 -8.691563E+03 -5.537226E-10 -1.413327E-10
       282  18  1.882921E+05 -6.842346E+04 -4.143949E+04 -1.923296E+04  1.594647E-10  2.225433E-11
       282  19  7.506633E+05  5.843372E+04  6.703999E+04 -2.099394E+04  6.973036E+03  8.517735E+03
       282  20  7.904220E+05  6.805450E+04  8.425896E+04 -1.045684E+04  1.656329E+04  1.033210E+04
       282  21  8.349168E+05  9.134055E+04  1.111470E+05 -2.633105E+04  2.615364E+04  1.149465E+04
       282  22  5.115670E+05 -6.321394E+02  1.063620E+04 -2.277874E+04  8.256147E+03  8.517885E+03
       282  23  5.092279E+05 -1.385002E+03  1.804812E+04 -9.573926E+03  1.745123E+04  1.033254E+04
       282  24  5.115568E+05  1.146243E+04  3.485818E+04 -2.278095E+04  2.664578E+04  1.149532E+04
       282  25  2.725232E+05 -5.970207E+04 -4.577152E+04 -2.456284E+04  9.538766E+03  8.518028E+03
       282  26  2.281066E+05 -7.083014E+04 -4.816815E+04 -8.691411E+03  1.833878E+04  1.033298E+04
       282  27  1.882929E+05 -6.842312E+04 -4.143786E+04 -1.923270E+04  2.713766E+04  1.149600E+04
       283   1  8.908318E+05  8.469929E+04  1.301636E+05 -4.700054E+03 -2.933881E+04 -1.404035E+04
       283   2  9.121217E+05  8.797909E+04  1.671695E+05 -2.318710E+04 -7.342464E+04 -1.500602E+04
       283   3  9.764974E+05  2.400377E+05  2.700788E+05 -6.821230E+04 -1.175216E+05 -5.046639E+03
       283   4  5.198448E+05 -6.893775E+03  4.297023E+04 -2.278189E+04 -3.317583E+04 -1.404140E+04
       283   5  4.988403E+05 -1.407035E+04  6.978500E+04 -9.558996E+03 -7.067935E+04 -1.500677E+04
       283   6  5.198061E+05  1.264400E+05  1.579648E+05 -2.287198E+04 -1.081905E+05 -5.048368E+03
       283   7  1.489850E+05 -9.849541E+04 -4.423238E+04 -4.085288E+04 -3.701057E+04 -1.404222E+04
       283   8  8.571627E+04 -1.161313E+05 -2.761108E+04  4.059975E+03 -6.793587E+04 -1.500740E+04
       283   9  6.330902E+04  1.283467E+04  4.583701E+04  2.243495E+04 -9.886612E+04 -5.048739E+03
       283  10  8.908308E+05  8.469884E+04  1.301616E+05 -4.700386E+03  4.665621E-10  2.876085E-10
       283  11  9.121159E+05  8.797740E+04  1.671589E+05 -2.318799E+04 -2.651007E-10 -2.674101E-11
       283  12  9.764826E+05  2.400340E+05  2.700528E+05 -6.821278E+04  1.508815E-10 -1.237828E-10
       283  13  5.198435E+05 -6.894282E+03  4.296779E+04 -2.278226E+04 -3.241130E-10  1.376094E-10
       283  14  4.988349E+05 -1.407193E+04  6.977520E+04 -9.559850E+03 -6.098300E-10 -1.938441E-10
       283  15  5.197935E+05  1.264369E+05  1.579428E+05 -2.287242E+04 -2.310573E-10 -2.261069E-11
       283  16  1.489835E+05 -9.849599E+04 -4.423532E+04 -4.085330E+04 -2.078640E-10  7.668515E-11
       283  17  8.571125E+04 -1.161327E+05 -2.762018E+04  4.059154E+03  2.836372E-10  1.720781E-10
       283  18  6.329852E+04  1.283202E+04  4.581859E+04  2.243455E+04  4.027290E-11 -6.761578E-11
       283  19  8.908318E+05  8.469929E+04  1.301636E+05 -4.700054E+03  2.933881E+04  1.404035E+04
       283  20  9.121217E+05  8.797909E+04  1.671695E+05 -2.318710E+04  7.342464E+04  1.500602E+04
       283  21  9.764974E+05  2.400377E+05  2.700788E+05 -6.821230E+04  1.175216E+05  5.046639E+03
       283  22  5.198448E+05 -6.893775E+03  4.297023E+04 -2.278189E+04  3.317583E+04  1.404140E+04
       283  23  4.988403E+05 -1.407035E+04  6.978500E+04 -9.558996E+03  7.067935E+04  1.500677E+04
       283  24  5.198061E+05  1.264400E+05  1.579648E+05 -2.287198E+04  1.081905E+05  5.048368E+03
       283  25  1.489850E+05 -9.849541E+04 -4.423238E+04 -4.085288E+04  3.701057E+04  1.404222E+04
       283  26  8.571627E+04 -1.161313E+05 -2.761108E+04  4.059975E+03  6.793587E+04  1.500740E+04
       283  27  6.330902E+04  1.283467E+04  4.583701E+04  2.243495E+04  9.886612E+04  5.048739E+03
       284   1  1.234036E+05  8.131896E+05  1.363953E+05 -6.412681E+04  2.469909E+03  5.383065E+04
       284   2  4.019424E+04  7.247303E+05  7.493521E+04 -2.529353E+04  6.707391E+03  3.309372E+04
       284   3  2.385444E+04  6.555296E+05  4.365126E+04 -3.563042E+04  3.892686E+03  1.234856E+04
       284   4  5.683404E+04  5.462021E+05  7.068252E+04 -4.344025E+04  2.478503E+03  4.917471E+04
       284   5 -6.213613E+03  5.369498E+05  3.065930E+04 -1.889945E+04  6.708489E+03  3.267958E+04
       284   6 -3.115487E+03  5.462245E+05  1.787848E+04 -4.352792E+04  3.886296E+03  1.617355E+04
       284   7 -9.739187E+03  2.792803E+05  4.964775E+03 -2.276257E+04  2.486790E+03  4.452076E+04
       284   8 -5.262384E+04  3.492018E+05 -1.361903E+04 -1.250731E+04  6.709580E+03  3.226555E+04
       284   9 -3.008602E+04  4.369305E+05 -7.895043E+03 -5.142402E+04  3.879808E+03  1.999787E+04
       284  10  1.234028E+05  8.131865E+05  1.363899E+05 -6.412692E+04 -1.601406E-10 -2.663980E-10
       284  11  4.019390E+04  7.247291E+05  7.493307E+04 -2.529371E+04 -3.832516E-10 -8.310176E-11
       284  12  2.385438E+04  6.555294E+05  4.365095E+04 -3.563046E+04  5.982802E-10  1.692501E-10
       284  13  5.683338E+04  5.461995E+05  7.067797E+04 -4.344035E+04  1.741788E-10 -3.255200E-11
       284  14 -6.213948E+03  5.369487E+05  3.065721E+04 -1.889963E+04 -2.083570E-09  1.760870E-10
       284  15 -3.115574E+03  5.462242E+05  1.787796E+04 -4.352797E+04  2.431931E-10  2.619863E-11
       284  16 -9.739725E+03  2.792781E+05  4.961041E+03 -2.276265E+04 -1.859239E-10  2.561637E-10
       284  17 -5.262417E+04  3.492007E+05 -1.362107E+04 -1.250748E+04 -4.645609E-10  1.575776E-10
       284  18 -3.008615E+04  4.369301E+05 -7.895822E+03 -5.142408E+04  4.579478E-11 -1.926031E-10
       284  19  1.234036E+05  8.131896E+05  1.363953E+05 -6.412681E+04 -2.469909E+03 -5.383065E+04
       284  20  4.019424E+04  7.247303E+05  7.493521E+04 -2.529353E+04 -6.707391E+03 -3.309372E+04
       284  21  2.385444E+04  6.555296E+05  4.365126E+04 -3.563042E+04 -3.892686E+03 -1.234856E+04
       284  22  5.683404E+04  5.462021E+05  7.068252E+04 -4.344025E+04 -2.478503E+03 -4.917471E+04
       284  23 -6.213613E+03  5.369498E+05  3.065930E+04 -1.889945E+04 -6.708489E+03 -3.267958E+04
       284  24 -3.115487E+03  5.462245E+05  1.787848E+04 -4.352792E+04 -3.886296E+03 -1.617355E+04
       284  25 -9.739187E+03  2.792803E+05  4.964775E+03 -2.276257E+04 -2.486790E+03 -4.452076E+04
       284  26 -5.262384E+04  3.492018E+05 -1.361903E+04 -1.250731E+04 -6.709580E+03 -3.226555E+04
       284  27 -3.008602E+04  4.369305E+05 -7.895043E+03 -5.142402E+04 -3.879808E+03 -1.999787E+04
       285   1  1.057046E+04  5.632837E+05  1.867650E+04 -4.485949E+04  8.425384E+02  1.168682E+04
       285   2 -1.457437E+04  4.840535E+05 -8.744723E+03 -1.935948E+04 -2.136400E+03  9.301742E+03
       285   3 -3.587726E+04  4.059088E+05 -3.369645E+04 -4.321003E+04 -4.957783E+03  6.917551E+03
       285   4  5.402399E+03  5.423507E+05  1.378225E+04 -4.353459E+04  8.395126E+02  1.352526E+04
       285   5 -3.130797E+02  5.418028E+05  4.855354E+03 -1.886560E+04 -2.139189E+03  1.104589E+04
       285   6 -2.169685E+03  5.423519E+05 -1.535513E+03 -4.354678E+04 -4.960354E+03  8.567105E+03
       285   7  2.343110E+02  5.214182E+05  8.887984E+03 -4.220974E+04  8.364947E+02  1.536364E+04
       285   8  1.394797E+04  5.995553E+05  1.845521E+04 -1.837168E+04 -2.141974E+03  1.279019E+04
       285   9  3.153656E+04  6.788120E+05  3.062416E+04 -4.388360E+04 -4.962927E+03  1.021702E+04
       285  10  1.057043E+04  5.632835E+05  1.867624E+04 -4.485949E+04  2.904937E-10 -4.759224E-10
       285  11 -1.457440E+04  4.840534E+05 -8.744894E+03 -1.935947E+04  5.164355E-10 -2.748524E-10
       285  12 -3.587730E+04  4.059088E+05 -3.369659E+04 -4.321001E+04 -7.052310E-10  1.180129E-10
       285  13  5.402349E+03  5.423505E+05  1.378190E+04 -4.353460E+04  2.692013E-10  3.386797E-11
       285  14 -3.131173E+02  5.418027E+05  4.855116E+03 -1.886559E+04  1.066945E-09 -1.714097E-10
       285  15 -2.169731E+03  5.423518E+05 -1.535697E+03 -4.354675E+04  1.123930E-09 -1.367008E-10
       285  16  2.342470E+02  5.214179E+05  8.887540E+03 -4.220975E+04 -7.490146E-13  5.429182E-10
       285  17  1.394792E+04  5.995551E+05  1.845490E+04 -1.837166E+04 -1.351396E-09  3.064380E-10
       285  18  3.153650E+04  6.788119E+05  3.062391E+04 -4.388356E+04 -4.350971E-10  5.555250E-12
       285  19  1.057046E+04  5.632837E+05  1.867650E+04 -4.485949E+04 -8.425384E+02 -1.168682E+04
       285  20 -1.457437E+04  4.840535E+05 -8.744723E+03 -1.935948E+04  2.136400E+03 -9.301742E+03
       285  21 -3.587726E+04  4.059088E+05 -3.369645E+04 -4.321003E+04  4.957783E+03 -6.917551E+03
       285  22  5.402399E+03  5.423507E+05  1.378225E+04 -4.353459E+04 -8.395126E+02 -1.352526E+04
       285  23 -3.130797E+02  5.418028E+05  4.855354E+03 -1.886560E+04  2.139189E+03 -1.104589E+04
       285  24 -2.169685E+03  5.423519E+05 -1.535513E+03 -4.354678E+04  4.960354E+03 -8.567105E+03
       285  25  2.343110E+02  5.214182E+05  8.887984E+03 -4.220974E+04 -8.364947E+02 -1.536364E+04
       285  26  1.394797E+04  5.995553E+05  1.845521E+04 -1.837168E+04  2.141974E+03 -1.279019E+04
       285  27  3.153656E+04  6.788120E+05  3.062416E+04 -4.388360E+04  4.962927E+03 -1.021702E+04
       286   1 -5.377508E+04  3.156090E+05 -5.703797E+04 -4.018389E+04 -8.336332E+03  4.503033E+03
       286   2 -7.255025E+04  2.405850E+05 -8.224565E+04 -2.097874E+04 -1.098436E+04  1.612712E+04
       286   3 -1.175267E+05  1.574133E+05 -1.215906E+05 -5.107439E+04 -3.918590E+03  2.776224E+04
       286   4  1.785981E+03  5.405118E+05 -4.089509E+03 -4.352112E+04 -8.343115E+03  8.999594E+03
       286   5  2.427087E+03  5.440792E+05 -1.068739E+04 -1.888641E+04 -1.098210E+04  1.479651E+04
       286   6 -2.211461E+04  5.405078E+05 -2.737331E+04 -4.355184E+04 -3.909192E+03  2.060610E+04
       286   7  5.734348E+04  7.654613E+05  4.885555E+04 -4.685954E+04 -8.349945E+03  1.349777E+04
       286   8  7.739786E+04  8.476581E+05  6.086453E+04 -1.679303E+04 -1.097986E+04  1.346526E+04
       286   9  7.328679E+04  9.237359E+05  6.683338E+04 -3.602460E+04 -3.899972E+03  1.344555E+04
       286  10 -5.377516E+04  3.156089E+05 -5.703813E+04 -4.018386E+04 -5.497940E-11 -2.087871E-10
       286  11 -7.255045E+04  2.405846E+05 -8.224636E+04 -2.097859E+04  3.473774E-10 -3.444547E-11
       286  12 -1.175269E+05  1.574124E+05 -1.215921E+05 -5.107431E+04 -1.432712E-10  1.684206E-10
       286  13  1.785885E+03  5.405117E+05 -4.089792E+03 -4.352106E+04 -1.054179E-09  9.777398E-11
       286  14  2.426899E+03  5.440789E+05 -1.068803E+04 -1.888628E+04  3.418182E-10 -9.009240E-11
       286  15 -2.211474E+04  5.405073E+05 -2.737414E+04 -4.355178E+04 -3.448918E-10  5.246493E-11
       286  16  5.734336E+04  7.654610E+05  4.885508E+04 -4.685945E+04  3.475555E-10  1.230838E-10
       286  17  7.739768E+04  8.476578E+05  6.086396E+04 -1.679291E+04 -1.449169E-10 -6.959190E-11
       286  18  7.328673E+04  9.237358E+05  6.683301E+04 -3.602456E+04 -5.170530E-10 -9.805006E-11
       286  19 -5.377508E+04  3.156090E+05 -5.703797E+04 -4.018389E+04  8.336332E+03 -4.503033E+03
       286  20 -7.255025E+04  2.405850E+05 -8.224565E+04 -2.097874E+04  1.098436E+04 -1.612712E+04
       286  21 -1.175267E+05  1.574133E+05 -1.215906E+05 -5.107439E+04  3.918590E+03 -2.776224E+04
       286  22  1.785981E+03  5.405118E+05 -4.089509E+03 -4.352112E+04  8.343115E+03 -8.999594E+03
       286  23  2.427087E+03  5.440792E+05 -1.068739E+04 -1.888641E+04  1.098210E+04 -1.479651E+04
       286  24 -2.211461E+04  5.405078E+05 -2.737331E+04 -4.355184E+04  3.909192E+03 -2.060610E+04
       286  25  5.734348E+04  7.654613E+05  4.885555E+04 -4.685954E+04  8.349945E+03 -1.349777E+04
       286  26  7.739786E+04  8.476581E+05  6.086453E+04 -1.679303E+04  1.097986E+04 -1.346526E+04
       286  27  7.328679E+04  9.237359E+05  6.683338E+04 -3.602460E+04  3.899972E+03 -1.344555E+04
       287   1 -8.187350E+05 -3.473851E+05 -2.505165E+05 -2.802168E+05 -1.078771E+05 -3.594459E+04
       287   2 -7.854663E+05 -1.873666E+05 -1.504744E+05 -2.854229E+05 -7.033635E+04 -1.227646E+04
       287   3 -7.989296E+05 -1.751561E+05 -1.183829E+05 -2.669631E+05 -2.948062E+04  2.591944E+03
       287   4 -4.987965E+05 -1.876988E+05 -1.561569E+05 -1.530527E+05 -1.007547E+05 -3.327195E+04
       287   5 -4.677244E+05 -5.646482E+04 -6.566278E+04 -1.866417E+05 -6.813613E+04 -1.145077E+04
       287   6 -4.823811E+05 -7.202304E+04 -3.918986E+04 -1.965738E+05 -3.220388E+04  1.568301E+03
       287   7 -1.787567E+05 -2.798242E+04 -6.180756E+04 -2.582253E+04 -9.362823E+04 -3.059669E+04
       287   8 -1.498843E+05  7.444885E+04  1.913989E+04 -8.781297E+04 -6.593468E+04 -1.062452E+04
       287   9 -1.657345E+05  3.111088E+04  3.999574E+04 -1.261545E+05 -3.492868E+04  5.442570E+02
       287  10 -8.187479E+05 -3.473896E+05 -2.505409E+05 -2.802199E+05  1.079357E-10  7.544155E-12
       287  11 -7.854717E+05 -1.873681E+05 -1.504840E+05 -2.854236E+05 -5.680096E-10 -1.628159E-10
       287  12 -7.989305E+05 -1.751563E+05 -1.183845E+05 -2.669630E+05  4.397623E-10 -1.158468E-10
       287  13 -4.988077E+05 -1.877028E+05 -1.561781E+05 -1.530554E+05  1.943623E-10 -4.976806E-11
       287  14 -4.677294E+05 -5.646621E+04 -6.567176E+04 -1.866424E+05 -5.174310E-10 -1.823237E-10
       287  15 -4.823822E+05 -7.202333E+04 -3.919181E+04 -1.965737E+05 -4.472397E-10 -6.257516E-11
       287  16 -1.787664E+05 -2.798578E+04 -6.182580E+04 -2.582483E+04  5.213922E-10 -1.106488E-10
       287  17 -1.498890E+05  7.444756E+04  1.913151E+04 -8.781354E+04  2.392892E-10 -1.365339E-10
       287  18 -1.657358E+05  3.111055E+04  3.999345E+04 -1.261545E+05 -4.122274E-10 -1.735415E-11
       287  19 -8.187350E+05 -3.473851E+05 -2.505165E+05 -2.802168E+05  1.078771E+05  3.594459E+04
       287  20 -7.854663E+05 -1.873666E+05 -1.504744E+05 -2.854229E+05  7.033635E+04  1.227646E+04
       287  21 -7.989296E+05 -1.751561E+05 -1.183829E+05 -2.669631E+05  2.948062E+04 -2.591944E+03
       287  22 -4.987965E+05 -1.876988E+05 -1.561569E+05 -1.530527E+05  1.007547E+05  3.327195E+04
       287  23 -4.677244E+05 -5.646482E+04 -6.566278E+04 -1.866417E+05  6.813613E+04  1.145077E+04
       287  24 -4.823811E+05 -7.202304E+04 -3.918986E+04 -1.965738E+05  3.220388E+04 -1.568301E+03
       287  25 -1.787567E+05 -2.798242E+04 -6.180756E+04 -2.582253E+04  9.362823E+04  3.059669E+04
       287  26 -1.498843E+05  7.444885E+04  1.913989E+04 -8.781297E+04  6.593468E+04  1.062452E+04
       287  27 -1.657345E+05  3.111088E+04  3.999574E+04 -1.261545E+05  3.492868E+04 -5.442570E+02
       288   1 -7.538021E+05 -1.947519E+05 -1.044510E+05 -2.667781E+05 -2.601867E+04  1.852338E+03
       288   2 -7.351724E+05 -1.670038E+05 -8.230757E+04 -2.562868E+05 -1.753296E+04  4.568567E+03
       288   3 -7.118852E+05 -1.633972E+05 -7.000557E+04 -2.547866E+05 -8.826234E+03  6.696347E+03
       288   4 -4.772250E+05 -8.752360E+04 -3.172268E+04 -1.877390E+05 -2.609346E+04  1.823686E+03
       288   5 -4.787952E+05 -6.990217E+04 -1.548298E+04 -1.853406E+05 -1.793449E+04  4.417336E+03
       288   6 -4.756410E+05 -7.635380E+04 -8.822199E+03 -1.919339E+05 -9.554833E+03  6.422472E+03
       288   7 -2.005744E+05  1.971044E+04  4.099884E+04 -1.086679E+05 -2.616829E+04  1.795020E+03
       288   8 -2.223542E+05  2.720385E+04  5.133607E+04 -1.143678E+05 -1.833621E+04  4.266037E+03
       288   9 -2.393420E+05  1.069280E+04  5.235674E+04 -1.290595E+05 -1.028374E+04  6.148487E+03
       288  10 -7.538028E+05 -1.947521E+05 -1.044523E+05 -2.667781E+05  2.468230E-10 -2.392281E-11
       288  11 -7.351728E+05 -1.670039E+05 -8.230819E+04 -2.562867E+05 -5.103706E-10  2.017433E-11
       288  12 -7.118853E+05 -1.633972E+05 -7.000580E+04 -2.547866E+05  2.946114E-10 -3.945518E-11
       288  13 -4.772257E+05 -8.752379E+04 -3.172396E+04 -1.877390E+05 -2.545397E-11  1.390203E-11
       288  14 -4.787956E+05 -6.990228E+04 -1.548362E+04 -1.853405E+05  5.039765E-10  1.569669E-10
       288  15 -4.756411E+05 -7.635387E+04 -8.822448E+03 -1.919338E+05 -2.673127E-10  1.183174E-11
       288  16 -2.005751E+05  1.971026E+04  4.099754E+04 -1.086679E+05 -3.077746E-10  3.740504E-11
       288  17 -2.223546E+05  2.720374E+04  5.133540E+04 -1.143678E+05 -5.114758E-10  3.830248E-11
       288  18 -2.393421E+05  1.069274E+04  5.235647E+04 -1.290595E+05 -2.376295E-10  8.002889E-11
       288  19 -7.538021E+05 -1.947519E+05 -1.044510E+05 -2.667781E+05  2.601867E+04 -1.852338E+03
       288  20 -7.351724E+05 -1.670038E+05 -8.230757E+04 -2.562868E+05  1.753296E+04 -4.568567E+03
       288  21 -7.118852E+05 -1.633972E+05 -7.000557E+04 -2.547866E+05  8.826234E+03 -6.696347E+03
       288  22 -4.772250E+05 -8.752360E+04 -3.172268E+04 -1.877390E+05  2.609346E+04 -1.823686E+03
       288  23 -4.787952E+05 -6.990217E+04 -1.548298E+04 -1.853406E+05  1.793449E+04 -4.417336E+03
       288  24 -4.756410E+05 -7.635380E+04 -8.822199E+03 -1.919339E+05  9.554833E+03 -6.422472E+03
       288  25 -2.005744E+05  1.971044E+04  4.099884E+04 -1.086679E+05  2.616829E+04 -1.795020E+03
       288  26 -2.223542E+05  2.720385E+04  5.133607E+04 -1.143678E+05  1.833621E+04 -4.266037E+03
       288  27 -2.393420E+05  1.069280E+04  5.235674E+04 -1.290595E+05  1.028374E+04 -6.148487E+03
       289   1 -6.832448E+05 -1.562042E+05 -6.095761E+04 -2.482050E+05 -7.481179E+03  6.416523E+03
       289   2 -6.660137E+05 -1.409968E+05 -5.195157E+04 -2.359852E+05 -5.255832E+03  6.096773E+03
       289   3 -6.385523E+05 -1.380189E+05 -4.466171E+04 -2.359854E+05 -3.013988E+03  5.731943E+03
       289   4 -4.749969E+05 -7.785384E+04 -6.841889E+03 -1.910971E+05 -8.038003E+03  6.207233E+03
       289   5 -4.800378E+05 -7.120865E+04 -3.601470E+03 -1.851867E+05 -5.837318E+03  5.878347E+03
       289   6 -4.748439E+05 -7.678747E+04 -2.057142E+03 -1.914962E+05 -3.620213E+03  5.504361E+03
       289   7 -2.667070E+05  4.992530E+02  4.727019E+04 -1.339719E+05 -8.595032E+03  5.997867E+03
       289   8 -2.940288E+05 -1.418498E+03  4.474565E+04 -1.343747E+05 -6.418993E+03  5.659850E+03
       289   9 -3.111101E+05 -1.555462E+04  4.054503E+04 -1.469966E+05 -4.226612E+03  5.276714E+03
       289  10 -6.832449E+05 -1.562042E+05 -6.095779E+04 -2.482049E+05 -3.100867E-10 -8.927674E-11
       289  11 -6.660137E+05 -1.409968E+05 -5.195170E+04 -2.359852E+05 -1.785663E-10  3.043196E-10
       289  12 -6.385523E+05 -1.380189E+05 -4.466179E+04 -2.359854E+05 -1.693930E-10  4.058930E-11
       289  13 -4.749970E+05 -7.785390E+04 -6.842083E+03 -1.910971E+05 -6.502461E-10  1.758980E-10
       289  14 -4.800379E+05 -7.120869E+04 -3.601599E+03 -1.851867E+05 -2.422793E-10  1.719273E-10
       289  15 -4.748439E+05 -7.678750E+04 -2.057223E+03 -1.914962E+05  3.579759E-10  9.720382E-11
       289  16 -2.667071E+05  4.991945E+02  4.726998E+04 -1.339719E+05 -2.325482E-10  2.157911E-10
       289  17 -2.940288E+05 -1.418543E+03  4.474551E+04 -1.343746E+05  3.521984E-10  2.099134E-10
       289  18 -3.111102E+05 -1.555466E+04  4.054494E+04 -1.469966E+05  6.676062E-10  1.089970E-10
       289  19 -6.832448E+05 -1.562042E+05 -6.095761E+04 -2.482050E+05  7.481179E+03 -6.416523E+03
       289  20 -6.660137E+05 -1.409968E+05 -5.195157E+04 -2.359852E+05  5.255832E+03 -6.096773E+03
       289  21 -6.385523E+05 -1.380189E+05 -4.466171E+04 -2.359854E+05  3.013988E+03 -5.731943E+03
       289  22 -4.749969E+05 -7.785384E+04 -6.841889E+03 -1.910971E+05  8.038003E+03 -6.207233E+03
       289  23 -4.800378E+05 -7.120865E+04 -3.601470E+03 -1.851867E+05  5.837318E+03 -5.878347E+03
       289  24 -4.748439E+05 -7.678747E+04 -2.057142E+03 -1.914962E+05  3.620213E+03 -5.504361E+03
       289  25 -2.667070E+05  4.992530E+02  4.727019E+04 -1.339719E+05  8.595032E+03 -5.997867E+03
       289  26 -2.940288E+05 -1.418498E+03  4.474565E+04 -1.343747E+05  6.418993E+03 -5.659850E+03
       289  27 -3.111101E+05 -1.555462E+04  4.054503E+04 -1.469966E+05  4.226612E+03 -5.276714E+03
       290   1 -6.112054E+05 -1.281123E+05 -3.699291E+04 -2.286918E+05 -2.488827E+03  5.215955E+03
       290   2 -5.939595E+05 -1.139452E+05 -3.055108E+04 -2.161640E+05 -1.591266E+03  4.336739E+03
       290   3 -5.657551E+05 -1.109776E+05 -2.451251E+04 -2.162868E+05 -6.915296E+02  3.450993E+03
       290   4 -4.747363E+05 -7.695065E+04 -1.604680E+03 -1.914443E+05 -3.085470E+03  4.992036E+03
       290   5 -4.802079E+05 -7.130328E+04 -9.873022E+02 -1.851367E+05 -2.191460E+03  4.111563E+03
       290   6 -4.747213E+05 -7.685473E+04 -7.704082E+02 -1.914797E+05 -1.295297E+03  3.224554E+03
       290   7 -3.382487E+05 -2.578772E+04  3.378212E+04 -1.541894E+05 -3.682259E+03  4.768063E+03
       290   8 -3.664435E+05 -2.866049E+04  2.857545E+04 -1.541041E+05 -2.791776E+03  3.886341E+03
       290   9 -3.836795E+05 -4.273131E+04  2.297100E+04 -1.666692E+05 -1.899161E+03  2.998079E+03
       290  10 -6.112054E+05 -1.281123E+05 -3.699297E+04 -2.286917E+05 -1.180636E-11 -6.001166E-11
       290  11 -5.939595E+05 -1.139452E+05 -3.055112E+04 -2.161640E+05  4.556647E-10  1.984086E-10
       290  12 -5.657551E+05 -1.109777E+05 -2.451254E+04 -2.162868E+05  2.329348E-11  8.134105E-11
       290  13 -4.747363E+05 -7.695068E+04 -1.604744E+03 -1.914443E+05  1.584362E-10 -2.577706E-11
       290  14 -4.802079E+05 -7.130330E+04 -9.873430E+02 -1.851367E+05  1.413095E-10  2.285110E-11
       290  15 -4.747213E+05 -7.685474E+04 -7.704309E+02 -1.914797E+05 -1.509886E-10  7.370687E-12
       290  16 -3.382487E+05 -2.578775E+04  3.378205E+04 -1.541894E+05  5.548263E-10  1.442496E-10
       290  17 -3.664435E+05 -2.866051E+04  2.857540E+04 -1.541041E+05  4.388084E-11  1.382101E-10
       290  18 -3.836795E+05 -4.273132E+04  2.297098E+04 -1.666692E+05  2.887032E-11  3.268116E-11
       290  19 -6.112054E+05 -1.281123E+05 -3.699291E+04 -2.286918E+05  2.488827E+03 -5.215955E+03
       290  20 -5.939595E+05 -1.139452E+05 -3.055108E+04 -2.161640E+05  1.591266E+03 -4.336739E+03
       290  21 -5.657551E+05 -1.109776E+05 -2.451251E+04 -2.162868E+05  6.915296E+02 -3.450993E+03
       290  22 -4.747363E+05 -7.695065E+04 -1.604680E+03 -1.914443E+05  3.085470E+03 -4.992036E+03
       290  23 -4.802079E+05 -7.130328E+04 -9.873022E+02 -1.851367E+05  2.191460E+03 -4.111563E+03
       290  24 -4.747213E+05 -7.685473E+04 -7.704082E+02 -1.914797E+05  1.295297E+03 -3.224554E+03
       290  25 -3.382487E+05 -2.578772E+04  3.378212E+04 -1.541894E+05  3.682259E+03 -4.768063E+03
       290  26 -3.664435E+05 -2.866049E+04  2.857545E+04 -1.541041E+05  2.791776E+03 -3.886341E+03
       290  27 -3.836795E+05 -4.273131E+04  2.297100E+04 -1.666692E+05  1.899161E+03 -2.998079E+03
       291   1 -5.383350E+05 -1.007251E+05 -1.722007E+04 -2.088757E+05 -3.287841E+02  2.872298E+03
       291   2 -5.209700E+05 -8.655855E+04 -1.154948E+04 -1.962320E+05  5.551040E+02  1.975393E+03
       291   3 -4.925829E+05 -8.366021E+04 -6.270769E+03 -1.963318E+05  1.438965E+03  1.078291E+03
       291   4 -4.747064E+05 -7.687303E+04 -7.665491E+02 -1.914987E+05 -9.332873E+02  2.645620E+03
       291   5 -4.802227E+05 -7.127874E+04 -9.588274E+02 -1.851119E+05 -4.947950E+01  1.748712E+03
       291   6 -4.747174E+05 -7.695267E+04 -1.542885E+03 -1.914687E+05  8.342828E+02  8.516016E+02
       291   7 -4.110741E+05 -5.302079E+04  1.568658E+04 -1.741202E+05 -1.537856E+03  2.418917E+03
       291   8 -4.394737E+05 -5.599883E+04  9.631691E+03 -1.739911E+05 -6.541065E+02  1.522015E+03
       291   9 -4.568514E+05 -7.024510E+04  3.184988E+03 -1.866055E+05  2.295801E+02  6.249039E+02
       291  10 -5.383350E+05 -1.007251E+05 -1.722008E+04 -2.088757E+05 -9.462580E-11 -7.380703E-11
       291  11 -5.209700E+05 -8.655855E+04 -1.154949E+04 -1.962320E+05  2.981607E-10  2.139000E-10
       291  12 -4.925829E+05 -8.366021E+04 -6.270775E+03 -1.963318E+05 -6.202912E-11  1.076408E-10
       291  13 -4.747064E+05 -7.687304E+04 -7.665638E+02 -1.914987E+05  2.649854E-10  1.605845E-10
       291  14 -4.802227E+05 -7.127874E+04 -9.588332E+02 -1.851119E+05  1.912203E-10 -1.021839E-10
       291  15 -4.747174E+05 -7.695267E+04 -1.542888E+03 -1.914687E+05 -5.671793E-11  9.697298E-11
       291  16 -4.110741E+05 -5.302080E+04  1.568656E+04 -1.741202E+05  8.725758E-11 -4.465340E-11
       291  17 -4.394737E+05 -5.599883E+04  9.631685E+03 -1.739911E+05 -7.577031E-11 -1.600721E-10
       291  18 -4.568514E+05 -7.024510E+04  3.184987E+03 -1.866055E+05  5.833611E-11  1.044001E-10
       291  19 -5.383350E+05 -1.007251E+05 -1.722007E+04 -2.088757E+05  3.287841E+02 -2.872298E+03
       291  20 -5.209700E+05 -8.655855E+04 -1.154948E+04 -1.962320E+05 -5.551040E+02 -1.975393E+03
       291  21 -4.925829E+05 -8.366021E+04 -6.270769E+03 -1.963318E+05 -1.438965E+03 -1.078291E+03
       291  22 -4.747064E+05 -7.687303E+04 -7.665491E+02 -1.914987E+05  9.332873E+02 -2.645620E+03
       291  23 -4.802227E+05 -7.127874E+04 -9.588274E+02 -1.851119E+05  4.947950E+01 -1.748712E+03
       291  24 -4.747174E+05 -7.695267E+04 -1.542885E+03 -1.914687E+05 -8.342828E+02 -8.516016E+02
       291  25 -4.110741E+05 -5.302079E+04  1.568658E+04 -1.741202E+05  1.537856E+03 -2.418917E+03
       291  26 -4.394737E+05 -5.599883E+04  9.631691E+03 -1.739911E+05  6.541065E+02 -1.522015E+03
       291  27 -4.568514E+05 -7.024510E+04  3.184988E+03 -1.866055E+05 -2.295801E+02 -6.249039E+02
       292   1 -4.650534E+05 -7.333359E+04  6.096519E+02 -1.890785E+05  1.971199E+03  5.577233E+02
       292   2 -4.475906E+05 -5.893472E+04  5.005010E+03 -1.762234E+05  4.103669E+03  1.285284E+02
       292   3 -4.196825E+05 -5.692627E+04  7.778168E+03 -1.758786E+05  6.227407E+03 -2.770425E+02
       292   4 -4.747937E+05 -7.683138E+04 -1.975622E+03 -1.915561E+05  1.359722E+03  3.284882E+02
       292   5 -4.800864E+05 -7.113938E+04 -3.444249E+03 -1.851119E+05  3.505342E+03 -9.580069E+01
       292   6 -4.749367E+05 -7.784049E+04 -6.545528E+03 -1.911783E+05  5.642156E+03 -4.964902E+02
       292   7 -4.845340E+05 -8.032916E+04 -4.560901E+03 -1.940336E+05  7.482570E+02  9.925674E+01
       292   8 -5.125811E+05 -8.334395E+04 -1.189358E+04 -1.939999E+05  2.907051E+03 -3.201165E+02
       292   9 -5.301878E+05 -9.875443E+04 -2.086943E+04 -2.064766E+05  5.056964E+03 -7.159152E+02
       292  10 -4.650534E+05 -7.333359E+04  6.096441E+02 -1.890785E+05  3.371580E-10  2.070823E-10
       292  11 -4.475906E+05 -5.893473E+04  5.004978E+03 -1.762234E+05  1.826806E-10  2.756127E-10
       292  12 -4.196825E+05 -5.692629E+04  7.778095E+03 -1.758786E+05 -1.857396E-10  8.572441E-11
       292  13 -4.747937E+05 -7.683138E+04 -1.975625E+03 -1.915561E+05  2.588840E-10  1.208695E-10
       292  14 -4.800864E+05 -7.113938E+04 -3.444272E+03 -1.851119E+05  2.319395E-10  1.183186E-10
       292  15 -4.749368E+05 -7.784050E+04 -6.545588E+03 -1.911782E+05  7.374303E-11 -2.243910E-12
       292  16 -4.845340E+05 -8.032916E+04 -4.560902E+03 -1.940336E+05 -3.539720E-10  4.251283E-11
       292  17 -5.125811E+05 -8.334395E+04 -1.189359E+04 -1.939999E+05 -2.682503E-10 -5.818173E-11
       292  18 -5.301878E+05 -9.875444E+04 -2.086947E+04 -2.064766E+05  2.393166E-10  5.856290E-11
       292  19 -4.650534E+05 -7.333359E+04  6.096519E+02 -1.890785E+05 -1.971199E+03 -5.577233E+02
       292  20 -4.475906E+05 -5.893472E+04  5.005010E+03 -1.762234E+05 -4.103669E+03 -1.285284E+02
       292  21 -4.196825E+05 -5.692627E+04  7.778168E+03 -1.758786E+05 -6.227407E+03  2.770425E+02
       292  22 -4.747937E+05 -7.683138E+04 -1.975622E+03 -1.915561E+05 -1.359722E+03 -3.284882E+02
       292  23 -4.800864E+05 -7.113938E+04 -3.444249E+03 -1.851119E+05 -3.505342E+03  9.580069E+01
       292  24 -4.749367E+05 -7.784049E+04 -6.545528E+03 -1.911783E+05 -5.642156E+03  4.964902E+02
       292  25 -4.845340E+05 -8.032916E+04 -4.560901E+03 -1.940336E+05 -7.482570E+02 -9.925674E+01
       292  26 -5.125811E+05 -8.334395E+04 -1.189358E+04 -1.939999E+05 -2.907051E+03  3.201165E+02
       292  27 -5.301878E+05 -9.875443E+04 -2.086943E+04 -2.064766E+05 -5.056964E+03  7.159152E+02
       293   1 -3.915773E+05 -4.650409E+04  1.315971E+04 -1.707150E+05  7.787265E+03 -4.598390E+02
       293   2 -3.739572E+05 -2.966884E+04  1.263152E+04 -1.557246E+05  1.564171E+04  1.287112E+03
       293   3 -3.510068E+05 -3.666100E+04  3.083227E+03 -1.503321E+05  2.336670E+04  3.381055E+03
       293   4 -4.755262E+05 -7.643842E+04 -8.440544E+03 -1.920134E+05  7.099342E+03 -7.177928E+02
       293   5 -4.789250E+05 -6.984338E+04 -1.480198E+04 -1.852129E+05  1.514719E+04  1.101567E+03
       293   6 -4.770337E+05 -8.711611E+04 -3.033825E+04 -1.880108E+05  2.306529E+04  3.267773E+03
       293   7 -5.594685E+05 -1.063726E+05 -3.004145E+04 -2.133094E+05  6.411519E+03 -9.757136E+02
       293   8 -5.838822E+05 -1.100172E+05 -4.223645E+04 -2.146967E+05  1.465277E+04  9.160578E+02
       293   9 -6.030451E+05 -1.375696E+05 -6.376112E+04 -2.256823E+05  2.276395E+04  3.154520E+03
       293  10 -3.915774E+05 -4.650411E+04  1.315959E+04 -1.707150E+05  6.295493E-11  5.012736E-11
       293  11 -3.739574E+05 -2.966891E+04  1.263105E+04 -1.557246E+05  1.704460E-10 -3.489342E-11
       293  12 -3.510073E+05 -3.666116E+04  3.082178E+03 -1.503321E+05  1.109312E-10  1.527100E-11
       293  13 -4.755262E+05 -7.643844E+04 -8.440640E+03 -1.920134E+05 -1.511980E-11  1.017653E-11
       293  14 -4.789252E+05 -6.984344E+04 -1.480241E+04 -1.852129E+05  7.241547E-11 -3.587933E-11
       293  15 -4.770342E+05 -8.711626E+04 -3.033927E+04 -1.880108E+05  1.274219E-10  3.528752E-11
       293  16 -5.594686E+05 -1.063726E+05 -3.004153E+04 -2.133094E+05  1.663576E-10 -4.045256E-11
       293  17 -5.838825E+05 -1.100172E+05 -4.223686E+04 -2.146967E+05 -8.256830E-12 -4.597030E-11
       293  18 -6.030457E+05 -1.375698E+05 -6.376211E+04 -2.256824E+05 -1.410890E-10 -2.590365E-11
       293  19 -3.915773E+05 -4.650409E+04  1.315971E+04 -1.707150E+05 -7.787265E+03  4.598390E+02
       293  20 -3.739572E+05 -2.966884E+04  1.263152E+04 -1.557246E+05 -1.564171E+04 -1.287112E+03
       293  21 -3.510068E+05 -3.666100E+04  3.083227E+03 -1.503321E+05 -2.336670E+04 -3.381055E+03
       293  22 -4.755262E+05 -7.643842E+04 -8.440544E+03 -1.920134E+05 -7.099342E+03  7.177928E+02
       293  23 -4.789250E+05 -6.984338E+04 -1.480198E+04 -1.852129E+05 -1.514719E+04 -1.101567E+03
       293  24 -4.770337E+05 -8.711611E+04 -3.033825E+04 -1.880108E+05 -2.306529E+04 -3.267773E+03
       293  25 -5.594685E+05 -1.063726E+05 -3.004145E+04 -2.133094E+05 -6.411519E+03  9.757136E+02
       293  26 -5.838822E+05 -1.100172E+05 -4.223645E+04 -2.146967E+05 -1.465277E+04 -9.160578E+02
       293  27 -6.030451E+05 -1.375696E+05 -6.376112E+04 -2.256823E+05 -2.276395E+04 -3.154520E+03
       294   1 -3.154691E+05 -2.493168E+04  2.887305E+03 -1.665479E+05  3.063991E+04  4.592946E+03
       294   2 -2.985759E+05  1.775326E+04 -1.658136E+04 -1.286943E+05  6.220097E+04  1.561806E+04
       294   3 -3.238160E+05 -8.045783E+04 -9.496814E+04 -6.952156E+04  9.180481E+04  3.186337E+04
       294   4 -4.819358E+05 -7.232659E+04 -3.748062E+04 -1.964979E+05  2.876669E+04  3.890927E+03
       294   5 -4.683842E+05 -5.692579E+04 -6.278636E+04 -1.863901E+05  6.324877E+04  1.600979E+04
       294   6 -4.975618E+05 -1.830260E+05 -1.493388E+05 -1.549602E+05  9.577289E+04  3.334606E+04
       294   7 -6.483753E+05 -1.197220E+05 -7.785039E+04 -2.264419E+05  2.689403E+04  3.189002E+03
       294   8 -6.381633E+05 -1.315995E+05 -1.089937E+05 -2.440701E+05  6.429626E+04  1.640135E+04
       294   9 -6.712731E+05 -2.855754E+05 -2.037115E+05 -2.403721E+05  9.973971E+04  3.482767E+04
       294  10 -3.154701E+05 -2.493195E+04  2.885500E+03 -1.665480E+05  1.783478E-10  5.414837E-11
       294  11 -2.985801E+05  1.775196E+04 -1.658909E+04 -1.286951E+05  2.299550E-10 -5.945642E-11
       294  12 -3.238254E+05 -8.046119E+04 -9.498589E+04 -6.952392E+04  2.594656E-11 -3.951530E-11
       294  13 -4.819367E+05 -7.232683E+04 -3.748221E+04 -1.964980E+05 -1.231714E-10  1.691179E-11
       294  14 -4.683886E+05 -5.692714E+04 -6.279437E+04 -1.863909E+05  2.726887E-10  1.597758E-10
       294  15 -4.975719E+05 -1.830297E+05 -1.493581E+05 -1.549628E+05  1.266774E-10  7.382918E-11
       294  16 -6.483761E+05 -1.197222E+05 -7.785177E+04 -2.264420E+05 -1.345699E-10  7.516048E-11
       294  17 -6.381678E+05 -1.316009E+05 -1.090020E+05 -2.440710E+05 -1.417779E-11 -3.749046E-11
       294  18 -6.712841E+05 -2.855794E+05 -2.037325E+05 -2.403749E+05 -9.844954E-12  9.827264E-11
       294  19 -3.154691E+05 -2.493168E+04  2.887305E+03 -1.665479E+05 -3.063991E+04 -4.592946E+03
       294  20 -2.985759E+05  1.775326E+04 -1.658136E+04 -1.286943E+05 -6.220097E+04 -1.561806E+04
       294  21 -3.238160E+05 -8.045783E+04 -9.496814E+04 -6.952156E+04 -9.180481E+04 -3.186337E+04
       294  22 -4.819358E+05 -7.232659E+04 -3.748062E+04 -1.964979E+05 -2.876669E+04 -3.890927E+03
       294  23 -4.683842E+05 -5.692579E+04 -6.278636E+04 -1.863901E+05 -6.324877E+04 -1.600979E+04
       294  24 -4.975618E+05 -1.830260E+05 -1.493388E+05 -1.549602E+05 -9.577289E+04 -3.334606E+04
       294  25 -6.483753E+05 -1.197220E+05 -7.785039E+04 -2.264419E+05 -2.689403E+04 -3.189002E+03
       294  26 -6.381633E+05 -1.315995E+05 -1.089937E+05 -2.440701E+05 -6.429626E+04 -1.640135E+04
       294  27 -6.712731E+05 -2.855754E+05 -2.037115E+05 -2.403721E+05 -9.973971E+04 -3.482767E+04
       295   1 -4.949071E+05 -1.165716E+05 -8.677763E+04 -8.065180E+03  7.340485E+04  9.818130E+03
       295   2 -4.259808E+05 -2.125719E+05 -1.322023E+05 -8.134985E+03  5.456846E+04  2.941838E+04
       295   3 -3.232046E+05 -1.853470E+05 -1.344297E+05 -6.135516E+04  3.574127E+04  2.747715E+04
       295   4  4.032583E+05  1.071515E+05  1.339493E+05 -4.625585E+04  9.171506E+04  9.824745E+03
       295   5  3.852619E+05 -1.205311E+04  5.912909E+04 -1.965624E+04  5.992186E+04  2.941622E+04
       295   6  4.033102E+05 -5.872763E+03  3.645684E+04 -4.620057E+04  2.814144E+04  2.747706E+04
       295   7  1.302162E+06  3.308204E+05  3.546190E+05 -8.450199E+04  1.100517E+05  9.829105E+03
       295   8  1.197110E+06  1.884191E+05  2.504153E+05 -3.119268E+04  6.528217E+04  2.941386E+04
       295   9  1.130311E+06  1.735648E+05  2.073075E+05 -3.102809E+04  2.053274E+04  2.747660E+04
       295  10 -4.949129E+05 -1.165732E+05 -8.678795E+04 -8.065761E+03 -1.864991E-10  1.771716E-10
       295  11 -4.259842E+05 -2.125736E+05 -1.322096E+05 -8.136279E+03 -2.332511E-10 -1.463029E-10
       295  12 -3.232062E+05 -1.853482E+05 -1.344335E+05 -6.135595E+04  1.303287E-10 -2.459571E-10
       295  13  4.032492E+05  1.071491E+05  1.339334E+05 -4.625658E+04  3.822558E-10 -2.264053E-10
       295  14  3.852579E+05 -1.205500E+04  5.912072E+04 -1.965766E+04 -9.865173E-10  1.396872E-10
       295  15  4.033091E+05 -5.873786E+03  3.645394E+04 -4.620119E+04  1.087362E-11 -1.934836E-10
       295  16  1.302149E+06  3.308170E+05  3.545961E+05 -8.450287E+04  9.355624E-11  3.353683E-10
       295  17  1.197106E+06  1.884170E+05  2.504057E+05 -3.119422E+04  5.105018E-10  1.567496E-11
       295  18  1.130311E+06  1.735639E+05  2.073053E+05 -3.102855E+04 -5.349103E-11 -2.365892E-10
       295  19 -4.949071E+05 -1.165716E+05 -8.677763E+04 -8.065180E+03 -7.340485E+04 -9.818130E+03
       295  20 -4.259808E+05 -2.125719E+05 -1.322023E+05 -8.134985E+03 -5.456846E+04 -2.941838E+04
       295  21 -3.232046E+05 -1.853470E+05 -1.344297E+05 -6.135516E+04 -3.574127E+04 -2.747715E+04
       295  22  4.032583E+05  1.071515E+05  1.339493E+05 -4.625585E+04 -9.171506E+04 -9.824745E+03
       295  23  3.852619E+05 -1.205311E+04  5.912909E+04 -1.965624E+04 -5.992186E+04 -2.941622E+04
       295  24  4.033102E+05 -5.872763E+03  3.645684E+04 -4.620057E+04 -2.814144E+04 -2.747706E+04
       295  25  1.302162E+06  3.308204E+05  3.546190E+05 -8.450199E+04 -1.100517E+05 -9.829105E+03
       295  26  1.197110E+06  1.884191E+05  2.504153E+05 -3.119268E+04 -6.528217E+04 -2.941386E+04
       295  27  1.130311E+06  1.735648E+05  2.073075E+05 -3.102809E+04 -2.053274E+04 -2.747660E+04
       296   1 -2.345831E+05 -1.462522E+05 -1.193640E+05 -4.300450E+04  2.361398E+04  2.242388E+04
       296   2 -1.518067E+05 -1.361203E+05 -1.133399E+05 -1.862153E+04  1.659485E+04  2.006061E+04
       296   3 -6.507109E+04 -1.145000E+05 -9.983633E+04 -4.742280E+04  9.570666E+03  1.640839E+04
       296   4  3.962367E+05  9.692883E+03  2.956734E+04 -4.621896E+04  2.259659E+04  2.242260E+04
       296   5  3.942078E+05 -1.198148E+03  1.530794E+04 -1.963087E+04  1.479700E+04  2.006050E+04
       296   6  3.962612E+05 -4.712369E+02  9.063974E+03 -4.622381E+04  6.993312E+03  1.640994E+04
       296   7  1.027422E+06  1.656096E+05  1.784712E+05 -4.943666E+04  2.157816E+04  2.242132E+04
       296   8  9.404965E+05  1.337027E+05  1.439352E+05 -2.064107E+04  1.299759E+04  2.006040E+04
       296   9  8.577892E+05  1.135423E+05  1.179496E+05 -4.502386E+04  4.414052E+03  1.641147E+04
       296  10 -2.345839E+05 -1.462529E+05 -1.193660E+05 -4.300493E+04 -2.544531E-10 -3.133091E-10
       296  11 -1.518071E+05 -1.361208E+05 -1.133412E+05 -1.862180E+04 -1.627932E-10 -2.535559E-10
       296  12 -6.507126E+04 -1.145003E+05 -9.983701E+04 -4.742293E+04 -3.532028E-10  3.817963E-10
       296  13  3.962361E+05  9.692206E+03  2.956543E+04 -4.621937E+04 -2.076873E-10 -1.594980E-10
       296  14  3.942074E+05 -1.198639E+03  1.530677E+04 -1.963111E+04  9.737065E-10 -6.923415E-10
       296  15  3.962611E+05 -4.715392E+02  9.063376E+03 -4.622390E+04 -9.572750E-10  2.066732E-10
       296  16  1.027422E+06  1.656089E+05  1.784693E+05 -4.943705E+04  1.561482E-10 -3.165515E-10
       296  17  9.404962E+05  1.337022E+05  1.439342E+05 -2.064128E+04 -1.839074E-10 -2.907875E-10
       296  18  8.577891E+05  1.135420E+05  1.179491E+05 -4.502392E+04  2.552593E-10 -5.557631E-11
       296  19 -2.345831E+05 -1.462522E+05 -1.193640E+05 -4.300450E+04 -2.361398E+04 -2.242388E+04
       296  20 -1.518067E+05 -1.361203E+05 -1.133399E+05 -1.862153E+04 -1.659485E+04 -2.006061E+04
       296  21 -6.507109E+04 -1.145000E+05 -9.983633E+04 -4.742280E+04 -9.570666E+03 -1.640839E+04
       296  22  3.962367E+05  9.692883E+03  2.956734E+04 -4.621896E+04 -2.259659E+04 -2.242260E+04
       296  23  3.942078E+05 -1.198148E+03  1.530794E+04 -1.963087E+04 -1.479700E+04 -2.006050E+04
       296  24  3.962612E+05 -4.712369E+02  9.063974E+03 -4.622381E+04 -6.993312E+03 -1.640994E+04
       296  25  1.027422E+06  1.656096E+05  1.784712E+05 -4.943666E+04 -2.157816E+04 -2.242132E+04
       296  26  9.404965E+05  1.337027E+05  1.439352E+05 -2.064107E+04 -1.299759E+04 -2.006040E+04
       296  27  8.577892E+05  1.135423E+05  1.179496E+05 -4.502386E+04 -4.414052E+03 -1.641147E+04
       297   1  2.889107E+04 -8.961712E+04 -7.907595E+04 -4.572388E+04  7.745113E+03  1.404973E+04
       297   2  1.128908E+05 -6.985307E+04 -6.255095E+04 -1.948011E+04  5.808354E+03  1.038393E+04
       297   3  1.973579E+05 -4.892890E+04 -4.449348E+04 -4.612013E+04  3.869322E+03  6.645584E+03
       297   4  3.954783E+05  9.120773E+02  7.059303E+03 -4.615516E+04  5.568128E+03  1.405142E+04
       297   5  3.952501E+05 -9.371243E+01  3.960918E+03 -1.971449E+04  3.586634E+03  1.038617E+04
       297   6  3.954899E+05  6.844292E+01  2.425623E+03 -4.615612E+04  1.603127E+03  6.648426E+03
       297   7  7.621892E+05  9.143170E+04  9.318536E+04 -4.658666E+04  3.389864E+03  1.405310E+04
       297   8  6.776826E+05  6.965995E+04  7.046731E+04 -1.994897E+04  1.363910E+03  1.038841E+04
       297   9  5.936579E+05  4.906298E+04  4.934202E+04 -4.619210E+04 -6.637870E+02  6.651268E+03
       297  10  2.889096E+04 -8.961735E+04 -7.907643E+04 -4.572397E+04  1.457566E-10  1.414059E-10
       297  11  1.128908E+05 -6.985319E+04 -6.255121E+04 -1.948015E+04 -8.131049E-10  3.414085E-10
       297  12  1.973578E+05 -4.892896E+04 -4.449359E+04 -4.612015E+04 -3.321015E-10 -6.344197E-10
       297  13  3.954782E+05  9.118569E+02  7.058874E+03 -4.615522E+04 -2.597273E-10  1.915959E-10
       297  14  3.952500E+05 -9.383174E+01  3.960691E+03 -1.971452E+04 -4.641960E-10  6.981244E-10
       297  15  3.954898E+05  6.839476E+01  2.425535E+03 -4.615613E+04  4.395201E-11  9.589474E-10
       297  16  7.621891E+05  9.143149E+04  9.318497E+04 -4.658670E+04 -2.648390E-10  2.215059E-11
       297  17  6.776826E+05  6.965984E+04  7.046711E+04 -1.994898E+04 -2.122908E-10 -6.849758E-10
       297  18  5.936579E+05  4.906293E+04  4.934193E+04 -4.619210E+04  5.672383E-10 -2.345995E-10
       297  19  2.889107E+04 -8.961712E+04 -7.907595E+04 -4.572388E+04 -7.745113E+03 -1.404973E+04
       297  20  1.128908E+05 -6.985307E+04 -6.255095E+04 -1.948011E+04 -5.808354E+03 -1.038393E+04
       297  21  1.973579E+05 -4.892890E+04 -4.449348E+04 -4.612013E+04 -3.869322E+03 -6.645584E+03
       297  22  3.954783E+05  9.120773E+02  7.059303E+03 -4.615516E+04 -5.568128E+03 -1.405142E+04
       297  23  3.952501E+05 -9.371243E+01  3.960918E+03 -1.971449E+04 -3.586634E+03 -1.038617E+04
       297  24  3.954899E+05  6.844292E+01  2.425623E+03 -4.615612E+04 -1.603127E+03 -6.648426E+03
       297  25  7.621892E+05  9.143170E+04  9.318536E+04 -4.658666E+04 -3.389864E+03 -1.405310E+04
       297  26  6.776826E+05  6.965995E+04  7.046731E+04 -1.994897E+04 -1.363910E+03 -1.038841E+04
       297  27  5.936579E+05  4.906298E+04  4.934202E+04 -4.619210E+04  6.637870E+02 -6.651268E+03
       298   1  2.916031E+05 -2.540637E+04 -2.223957E+04 -4.603869E+04  3.447089E+03  4.457528E+03
       298   2  3.756665E+05 -4.839939E+03 -3.254519E+03 -1.973627E+04  2.754836E+03  7.223937E+02
       298   3  4.597126E+05  1.595774E+04  1.620028E+04 -4.619704E+04  2.062360E+03 -3.016782E+03
       298   4  3.953884E+05  1.816811E+02  1.953896E+03 -4.612927E+04  1.205856E+03  4.460527E+03
       298   5  3.953999E+05  3.458517E+01  1.393077E+03 -1.974778E+04  5.109718E+02  7.254202E+02
       298   6  3.953892E+05  1.199624E+02  1.304454E+03 -4.612936E+04 -1.840437E+02 -3.013702E+03
       298   7  4.991837E+05  2.576897E+04  2.614665E+04 -4.621986E+04 -1.035748E+03  4.463526E+03
       298   8  4.151337E+05  4.909084E+03  6.040665E+03 -1.975928E+04 -1.732963E+03  7.284467E+02
       298   9  3.310697E+05 -1.571810E+04 -1.359163E+04 -4.606169E+04 -2.430216E+03 -3.010622E+03
       298  10  2.916031E+05 -2.540639E+04 -2.223963E+04 -4.603870E+04  2.234124E-10 -8.625097E-11
       298  11  3.756665E+05 -4.839942E+03 -3.254534E+03 -1.973627E+04 -2.458321E-11  2.341411E-10
       298  12  4.597126E+05  1.595773E+04  1.620026E+04 -4.619703E+04  3.552473E-10 -2.414110E-10
       298  13  3.953884E+05  1.816594E+02  1.953856E+03 -4.612928E+04 -3.583348E-10 -9.930989E-10
       298  14  3.953999E+05  3.458453E+01  1.393075E+03 -1.974778E+04  2.156745E-10  1.832538E-10
       298  15  3.953892E+05  1.199526E+02  1.304437E+03 -4.612936E+04 -4.157767E-11 -7.523015E-10
       298  16  4.991837E+05  2.576895E+04  2.614661E+04 -4.621986E+04 -1.024345E-10  3.646360E-10
       298  17  4.151337E+05  4.909083E+03  6.040658E+03 -1.975928E+04 -5.773237E-10 -2.942200E-10
       298  18  3.310697E+05 -1.571812E+04 -1.359166E+04 -4.606170E+04 -1.264073E-10 -1.147221E-09
       298  19  2.916031E+05 -2.540637E+04 -2.223957E+04 -4.603869E+04 -3.447089E+03 -4.457528E+03
       298  20  3.756665E+05 -4.839939E+03 -3.254519E+03 -1.973627E+04 -2.754836E+03 -7.223937E+02
       298  21  4.597126E+05  1.595774E+04  1.620028E+04 -4.619704E+04 -2.062360E+03  3.016782E+03
       298  22  3.953884E+05  1.816811E+02  1.953896E+03 -4.612927E+04 -1.205856E+03 -4.460527E+03
       298  23  3.953999E+05  3.458517E+01  1.393077E+03 -1.974778E+04 -5.109718E+02 -7.254202E+02
       298  24  3.953892E+05  1.199624E+02  1.304454E+03 -4.612936E+04  1.840437E+02  3.013702E+03
       298  25  4.991837E+05  2.576897E+04  2.614665E+04 -4.621986E+04  1.035748E+03 -4.463526E+03
       298  26  4.151337E+05  4.909084E+03  6.040665E+03 -1.975928E+04  1.732963E+03 -7.284467E+02
       298  27  3.310697E+05 -1.571810E+04 -1.359163E+04 -4.606169E+04  2.430216E+03  3.010622E+03
       299   1  5.540741E+05  3.935652E+04  3.902756E+04 -4.628231E+04  1.814691E+03 -5.195025E+03
       299   2  6.382368E+05  5.999290E+04  5.914125E+04 -1.990835E+04  8.432437E+02 -8.937512E+03
       299   3  7.225009E+05  8.091890E+04  7.993472E+04 -4.638322E+04 -1.266690E+02 -1.267958E+04
       299   4  3.954094E+05  1.170872E+02  1.410968E+03 -4.614871E+04 -4.332244E+02 -5.192084E+03
       299   5  3.953579E+05  6.698025E+00  1.947939E+03 -1.972360E+04 -1.404245E+03 -8.935042E+03
       299   6  3.953998E+05  1.860796E+02  3.164653E+03 -4.614860E+04 -2.373601E+03 -1.267755E+04
       299   7  2.367679E+05 -3.912415E+04 -3.620736E+04 -4.601513E+04 -2.680569E+03 -5.189143E+03
       299   8  1.525331E+05 -5.998371E+04 -5.524942E+04 -1.953891E+04 -3.650860E+03 -8.932573E+03
       299   9  6.839709E+04 -8.055435E+04 -7.361272E+04 -4.591407E+04 -4.619357E+03 -1.267553E+04
       299  10  5.540741E+05  3.935649E+04  3.902750E+04 -4.628231E+04 -3.016435E-10  4.936658E-10
       299  11  6.382368E+05  5.999282E+04  5.914110E+04 -1.990835E+04 -6.031677E-10  1.894961E-09
       299  12  7.225008E+05  8.091872E+04  7.993442E+04 -4.638322E+04  9.132576E-10 -7.834947E-10
       299  13  3.954094E+05  1.170582E+02  1.410917E+03 -4.614871E+04 -9.692233E-10  1.517083E-11
       299  14  3.953578E+05  6.611751E+00  1.947785E+03 -1.972361E+04  3.157046E-10 -4.373668E-10
       299  15  3.953997E+05  1.859055E+02  3.164341E+03 -4.614862E+04 -1.343471E-09  3.571443E-10
       299  16  2.367679E+05 -3.912418E+04 -3.620742E+04 -4.601514E+04  6.417190E-10 -1.342833E-10
       299  17  1.525331E+05 -5.998380E+04 -5.524959E+04 -1.953894E+04 -3.542275E-10 -3.450311E-10
       299  18  6.839702E+04 -8.055452E+04 -7.361306E+04 -4.591412E+04 -1.637076E-09  5.498305E-10
       299  19  5.540741E+05  3.935652E+04  3.902756E+04 -4.628231E+04 -1.814691E+03  5.195025E+03
       299  20  6.382368E+05  5.999290E+04  5.914125E+04 -1.990835E+04 -8.432437E+02  8.937512E+03
       299  21  7.225009E+05  8.091890E+04  7.993472E+04 -4.638322E+04  1.266690E+02  1.267958E+04
       299  22  3.954094E+05  1.170872E+02  1.410968E+03 -4.614871E+04  4.332244E+02  5.192084E+03
       299  23  3.953579E+05  6.698025E+00  1.947939E+03 -1.972360E+04  1.404245E+03  8.935042E+03
       299  24  3.953998E+05  1.860796E+02  3.164653E+03 -4.614860E+04  2.373601E+03  1.267755E+04
       299  25  2.367679E+05 -3.912415E+04 -3.620736E+04 -4.601513E+04  2.680569E+03  5.189143E+03
       299  26  1.525331E+05 -5.998371E+04 -5.524942E+04 -1.953891E+04  3.650860E+03  8.932573E+03
       299  27  6.839709E+04 -8.055435E+04 -7.361272E+04 -4.591407E+04  4.619357E+03  1.267553E+04
       300   1  8.174071E+05  1.042059E+05  1.036439E+05 -4.623975E+04 -7.475076E+02 -1.487699E+04
       300   2  9.015805E+05  1.248388E+05  1.261399E+05 -1.988991E+04 -4.244817E+03 -1.862903E+04
       300   3  9.868211E+05  1.474336E+05  1.514229E+05 -4.668851E+04 -7.739065E+03 -2.229506E+04
       300   4  3.955942E+05 -1.145920E+01  4.075778E+03 -4.621587E+04 -3.027413E+03 -1.487541E+04
       300   5  3.950577E+05 -2.421637E+02  6.882033E+03 -1.963986E+04 -6.470676E+03 -1.862846E+04
       300   6  3.955734E+05  1.481177E+03  1.243998E+04 -4.621494E+04 -9.910409E+03 -2.229545E+04
       300   7 -2.605526E+04 -1.042415E+05 -9.550461E+04 -4.619196E+04 -5.305779E+03 -1.487382E+04
       300   8 -1.112294E+05 -1.253414E+05 -1.123934E+05 -1.938997E+04 -8.694730E+03 -1.862789E+04
       300   9 -1.953530E+05 -1.444961E+05 -1.265669E+05 -4.574177E+04 -1.207970E+04 -2.229585E+04
       300  10  8.174071E+05  1.042056E+05  1.036435E+05 -4.623976E+04 -2.099068E-10 -8.514152E-10
       300  11  9.015804E+05  1.248384E+05  1.261392E+05 -1.988997E+04 -1.088006E-09  3.597022E-10
       300  12  9.868209E+05  1.474331E+05  1.514218E+05 -4.668865E+04 -6.843133E-10  4.942710E-10
       300  13  3.955942E+05 -1.169932E+01  4.075345E+03 -4.621591E+04 -1.639943E-09  6.616322E-10
       300  14  3.950575E+05 -2.425476E+02  6.881302E+03 -1.963996E+04  5.553796E-10 -4.204762E-10
       300  15  3.955731E+05  1.480617E+03  1.243886E+04 -4.621512E+04 -4.182456E-10  5.587852E-10
       300  16 -2.605535E+04 -1.042418E+05 -9.550508E+04 -4.619203E+04 -1.704564E-10  6.555376E-10
       300  17 -1.112296E+05 -1.253418E+05 -1.123942E+05 -1.939010E+04  5.480117E-10  8.136527E-10
       300  18 -1.953533E+05 -1.444967E+05 -1.265681E+05 -4.574198E+04  2.753255E-10  4.755865E-10
       300  19  8.174071E+05  1.042059E+05  1.036439E+05 -4.623975E+04  7.475076E+02  1.487699E+04
       300  20  9.015805E+05  1.248388E+05  1.261399E+05 -1.988991E+04  4.244817E+03  1.862903E+04
       300  21  9.868211E+05  1.474336E+05  1.514229E+05 -4.668851E+04  7.739065E+03  2.229506E+04
       300  22  3.955942E+05 -1.145920E+01  4.075778E+03 -4.621587E+04  3.027413E+03  1.487541E+04
       300  23  3.950577E+05 -2.421637E+02  6.882033E+03 -1.963986E+04  6.470676E+03  1.862846E+04
       300  24  3.955734E+05  1.481177E+03  1.243998E+04 -4.621494E+04  9.910409E+03  2.229545E+04
       300  25 -2.605526E+04 -1.042415E+05 -9.550461E+04 -4.619196E+04  5.305779E+03  1.487382E+04
       300  26 -1.112294E+05 -1.253414E+05 -1.123934E+05 -1.938997E+04  8.694730E+03  1.862789E+04
       300  27 -1.953530E+05 -1.444961E+05 -1.265669E+05 -4.574177E+04  1.207970E+04  2.229585E+04
       301   1  1.083682E+06  1.686293E+05  1.778880E+05 -4.378543E+04 -9.751486E+03 -2.471110E+04
       301   2  1.165443E+06  1.884768E+05  2.088918E+05 -2.078780E+04 -2.453423E+04 -2.837061E+04
       301   3  1.254781E+06  2.289611E+05  2.547690E+05 -5.142026E+04 -3.931462E+04 -3.043572E+04
       301   4  3.969557E+05 -9.729583E+02  1.600870E+04 -4.632156E+04 -1.242156E+04 -2.471211E+04
       301   5  3.932308E+05 -2.185338E+03  2.709698E+04 -1.950746E+04 -2.623089E+04 -2.837324E+04
       301   6  3.969201E+05  1.708559E+04  5.239721E+04 -4.632714E+04 -4.003586E+04 -3.043924E+04
       301   7 -2.893379E+05 -1.706089E+05 -1.459031E+05 -4.885481E+04 -1.508870E+04 -2.471310E+04
       301   8 -3.784333E+05 -1.928900E+05 -1.547389E+05 -1.822873E+04 -2.792543E+04 -2.837588E+04
       301   9 -4.602656E+05 -1.948424E+05 -1.500253E+05 -4.124114E+04 -4.075607E+04 -3.044277E+04
       301  10  1.083682E+06  1.686286E+05  1.778867E+05 -4.378563E+04 -9.131320E-11  3.415362E-10
       301  11  1.165442E+06  1.884758E+05  2.088892E+05 -2.078836E+04  3.815595E-10  3.862019E-10
       301  12  1.254780E+06  2.289597E+05  2.547643E+05 -5.142123E+04 -2.845511E-10 -4.211852E-10
       301  13  3.969554E+05 -9.736556E+02  1.600726E+04 -4.632180E+04 -3.798303E-10  7.361920E-10
       301  14  3.932299E+05 -2.186387E+03  2.709417E+04 -1.950806E+04 -1.050161E-10 -4.476996E-10
       301  15  3.969181E+05  1.708417E+04  5.239246E+04 -4.632812E+04  4.362589E-10 -8.660235E-11
       301  16 -2.893383E+05 -1.706096E+05 -1.459046E+05 -4.885511E+04 -2.991004E-10  4.938345E-10
       301  17 -3.784344E+05 -1.928911E+05 -1.547419E+05 -1.822937E+04 -3.330102E-10  2.706536E-10
       301  18 -4.602676E+05 -1.948439E+05 -1.500302E+05 -4.124214E+04 -1.215030E-10 -4.197089E-11
       301  19  1.083682E+06  1.686293E+05  1.778880E+05 -4.378543E+04  9.751486E+03  2.471110E+04
       301  20  1.165443E+06  1.884768E+05  2.088918E+05 -2.078780E+04  2.453423E+04  2.837061E+04
       301  21  1.254781E+06  2.289611E+05  2.547690E+05 -5.142026E+04  3.931462E+04  3.043572E+04
       301  22  3.969557E+05 -9.729583E+02  1.600870E+04 -4.632156E+04  1.242156E+04  2.471211E+04
       301  23  3.932308E+05 -2.185338E+03  2.709698E+04 -1.950746E+04  2.623089E+04  2.837324E+04
       301  24  3.969201E+05  1.708559E+04  5.239721E+04 -4.632714E+04  4.003586E+04  3.043924E+04
       301  25 -2.893379E+05 -1.706089E+05 -1.459031E+05 -4.885481E+04  1.508870E+04  2.471310E+04
       301  26 -3.784333E+05 -1.928900E+05 -1.547389E+05 -1.822873E+04  2.792543E+04  2.837588E+04
       301  27 -4.602656E+05 -1.948424E+05 -1.500253E+05 -4.124114E+04  4.075607E+04  3.044277E+04
       302   1  1.364065E+06  2.251304E+05  2.888894E+05 -1.869454E+04 -4.094634E+04 -3.621134E+04
       302   2  1.417866E+06  2.354489E+05  3.499156E+05 -3.925433E+04 -1.134220E+05 -3.782244E+04
       302   3  1.538268E+06  4.705106E+05  5.144519E+05 -1.136680E+05 -1.859565E+05 -1.270759E+04
       302   4  4.094352E+05 -1.050904E+04  6.460747E+04 -4.628427E+04 -4.985594E+04 -3.622001E+04
       302   5  3.774486E+05 -2.137626E+04  1.048255E+05 -1.951698E+04 -1.061874E+05 -3.782109E+04
       302   6  4.093623E+05  1.898939E+05  2.374638E+05 -4.659898E+04 -1.625653E+05 -1.268740E+04
       302   7 -5.443557E+05 -2.462105E+05 -1.597363E+05 -7.383154E+04 -5.875191E+04 -3.622790E+04
       302   8 -6.619736E+05 -2.782772E+05 -1.403386E+05  1.868636E+02 -9.896474E+04 -3.781928E+04
       302   9 -7.183744E+05 -9.079969E+04 -3.961321E+04  2.034764E+04 -1.392163E+05 -1.266216E+04
       302  10  1.364063E+06  2.251286E+05  2.888838E+05 -1.869573E+04 -1.860675E-10  7.801165E-11
       302  11  1.417852E+06  2.354440E+05  3.498888E+05 -3.925778E+04 -3.159282E-10  1.529857E-10
       302  12  1.538231E+06  4.705012E+05  5.143868E+05 -1.136699E+05  3.579835E-10 -1.984354E-10
       302  13  4.094321E+05 -1.051112E+04  6.460034E+04 -4.628573E+04  3.434416E-10  8.255873E-10
       302  14  3.774361E+05 -2.138082E+04  1.048017E+05 -1.952021E+04 -2.673350E-10  2.624993E-09
       302  15  4.093339E+05  1.898867E+05  2.374139E+05 -4.660064E+04  2.341082E-10 -9.408435E-11
       302  16 -5.443597E+05 -2.462129E+05 -1.597452E+05 -7.383325E+04  2.267831E-10  4.603052E-10
       302  17 -6.619845E+05 -2.782813E+05 -1.403598E+05  1.838479E+02  4.557980E-10  3.841884E-10
       302  18 -7.183953E+05 -9.080507E+04 -3.964997E+04  2.034622E+04 -6.491208E-10 -5.296790E-10
       302  19  1.364065E+06  2.251304E+05  2.888894E+05 -1.869454E+04  4.094634E+04  3.621134E+04
       302  20  1.417866E+06  2.354489E+05  3.499156E+05 -3.925433E+04  1.134220E+05  3.782244E+04
       302  21  1.538268E+06  4.705106E+05  5.144519E+05 -1.136680E+05  1.859565E+05  1.270759E+04
       302  22  4.094352E+05 -1.050904E+04  6.460747E+04 -4.628427E+04  4.985594E+04  3.622001E+04
       302  23  3.774486E+05 -2.137626E+04  1.048255E+05 -1.951698E+04  1.061874E+05  3.782109E+04
       302  24  4.093623E+05  1.898939E+05  2.374638E+05 -4.659898E+04  1.625653E+05  1.268740E+04
       302  25 -5.443557E+05 -2.462105E+05 -1.597363E+05 -7.383154E+04  5.875191E+04  3.622790E+04
       302  26 -6.619736E+05 -2.782772E+05 -1.403386E+05  1.868636E+02  9.896474E+04  3.781928E+04
       302  27 -7.183744E+05 -9.079969E+04 -3.961321E+04  2.034764E+04  1.392163E+05  1.266216E+04
       303   1  2.248902E+05  8.079125E+05  2.415056E+05 -1.221641E+05  5.678564E+03  7.444313E+04
       303   2  9.703003E+04  6.202099E+05  1.418565E+05 -4.883104E+04  1.528227E+04  4.267153E+04
       303   3  5.854820E+04  4.588229E+05  8.518013E+04 -8.441588E+04  9.037901E+03  1.088912E+04
       303   4  7.501458E+04  2.065342E+05  9.349203E+04 -9.467966E+04  5.693877E+03  6.390334E+04
       303   5 -8.244837E+03  1.942239E+05  4.139850E+04 -4.026590E+04  1.528482E+04  4.166975E+04
       303   6 -3.742825E+03  2.065752E+05  2.568768E+04 -9.476928E+04  9.024806E+03  1.941630E+04
       303   7 -7.488506E+04 -3.945135E+05 -5.454739E+04 -6.722172E+04  5.708266E+03  5.337371E+04
       303   8 -1.135324E+05 -2.315952E+05 -5.907202E+04 -3.170661E+04  1.528735E+04  4.066865E+04
       303   9 -6.603795E+04 -4.561360E+04 -3.380883E+04 -1.051184E+05  9.011424E+03  2.794003E+04
       303  10  2.248887E+05  8.079065E+05  2.414951E+05 -1.221645E+05 -1.206205E-11  1.004778E-11
       303  11  9.702929E+04  6.202079E+05  1.418527E+05 -4.883157E+04 -3.439348E-10  5.357988E-10
       303  12  5.854808E+04  4.588228E+05  8.517975E+04 -8.441596E+04  8.100509E-10  3.625864E-10
       303  13  7.501345E+04  2.065298E+05  9.348430E+04 -9.467995E+04  1.256862E-10 -5.686655E-10
       303  14 -8.245554E+03  1.942220E+05  4.139480E+04 -4.026642E+04 -1.446448E-09 -1.285480E-11
       303  15 -3.743013E+03  2.065748E+05  2.568682E+04 -9.476942E+04  2.083038E-10 -1.662498E-10
       303  16 -7.488586E+04 -3.945166E+05 -5.455280E+04 -6.722197E+04 -1.031687E-11 -6.704508E-11
       303  17 -1.135331E+05 -2.315970E+05 -5.907557E+04 -3.170711E+04 -4.687864E-10 -9.950246E-10
       303  18 -6.603824E+04 -4.561446E+04 -3.381045E+04 -1.051186E+05 -4.176576E-11 -5.018310E-10
       303  19  2.248902E+05  8.079125E+05  2.415056E+05 -1.221641E+05 -5.678564E+03 -7.444313E+04
       303  20  9.703003E+04  6.202099E+05  1.418565E+05 -4.883104E+04 -1.528227E+04 -4.267153E+04
       303  21  5.854820E+04  4.588229E+05  8.518013E+04 -8.441588E+04 -9.037901E+03 -1.088912E+04
       303  22  7.501458E+04  2.065342E+05  9.349203E+04 -9.467966E+04 -5.693877E+03 -6.390334E+04
       303  23 -8.244837E+03  1.942239E+05  4.139850E+04 -4.026590E+04 -1.528482E+04 -4.166975E+04
       303  24 -3.742825E+03  2.065752E+05  2.568768E+04 -9.476928E+04 -9.024806E+03 -1.941630E+04
       303  25 -7.488506E+04 -3.945135E+05 -5.454739E+04 -6.722172E+04 -5.708266E+03 -5.337371E+04
       303  26 -1.135324E+05 -2.315952E+05 -5.907202E+04 -3.170661E+04 -1.528735E+04 -4.066865E+04
       303  27 -6.603795E+04 -4.561360E+04 -3.380883E+04 -1.051184E+05 -9.011424E+03 -2.794003E+04
       304   1  2.099325E+04  2.581275E+05  3.418469E+04 -9.709071E+04  2.248912E+03  1.143153E+04
       304   2 -2.986013E+04  8.254420E+04 -1.650220E+04 -4.053638E+04 -4.339235E+03  5.876704E+03
       304   3 -7.187600E+04 -9.044304E+04 -6.144961E+04 -9.331960E+04 -1.060508E+04  3.253770E+02
       304   4  7.055339E+03  2.016874E+05  2.096261E+04 -9.482781E+04  2.242523E+03  1.548764E+04
       304   5 -7.451353E+02  2.003818E+05  1.126075E+04 -4.016499E+04 -4.344911E+03  9.739590E+03
       304   6  3.273541E+02  2.016789E+05  7.435612E+03 -9.483792E+04 -1.061013E+04  3.993520E+03
       304   7 -6.882766E+03  1.452503E+05  7.740378E+03 -9.256512E+04  2.236164E+03  1.954338E+04
       304   8  2.836888E+04  3.182321E+05  3.902280E+04 -3.979352E+04 -4.350581E+03  1.360321E+04
       304   9  7.252462E+04  4.938793E+05  7.631499E+04 -9.635692E+04 -1.061520E+04  7.663380E+03
       304  10  2.099320E+04  2.581273E+05  3.418443E+04 -9.709073E+04  4.553727E-10  2.693947E-10
       304  11 -2.986016E+04  8.254416E+04 -1.650230E+04 -4.053636E+04  8.680758E-10  4.660927E-10
       304  12 -7.187612E+04 -9.044307E+04 -6.144982E+04 -9.331960E+04 -2.420775E-10 -4.756460E-11
       304  13  7.055269E+03  2.016871E+05  2.096215E+04 -9.482784E+04  1.850591E-10 -7.541863E-10
       304  14 -7.451810E+02  2.003817E+05  1.126054E+04 -4.016495E+04  1.106577E-09  1.445119E-11
       304  15  3.272290E+02  2.016788E+05  7.435370E+03 -9.483788E+04  8.206693E-10 -2.573664E-10
       304  16 -6.882874E+03  1.452499E+05  7.739651E+03 -9.256516E+04 -3.604803E-10 -4.342721E-10
       304  17  2.836881E+04  3.182319E+05  3.902242E+04 -3.979347E+04 -1.068569E-09 -1.111102E-09
       304  18  7.252449E+04  4.938792E+05  7.631467E+04 -9.635685E+04 -3.215182E-10 -1.791071E-11
       304  19  2.099325E+04  2.581275E+05  3.418469E+04 -9.709071E+04 -2.248912E+03 -1.143153E+04
       304  20 -2.986013E+04  8.254420E+04 -1.650220E+04 -4.053638E+04  4.339235E+03 -5.876704E+03
       304  21 -7.187600E+04 -9.044304E+04 -6.144961E+04 -9.331960E+04  1.060508E+04 -3.253770E+02
       304  22  7.055339E+03  2.016874E+05  2.096261E+04 -9.482781E+04 -2.242523E+03 -1.548764E+04
       304  23 -7.451353E+02  2.003818E+05  1.126075E+04 -4.016499E+04  4.344911E+03 -9.739590E+03
       304  24  3.273541E+02  2.016789E+05  7.435612E+03 -9.483792E+04  1.061013E+04 -3.993520E+03
       304  25 -6.882766E+03  1.452503E+05  7.740378E+03 -9.256512E+04 -2.236164E+03 -1.954338E+04
       304  26  2.836888E+04  3.182321E+05  3.902280E+04 -3.979352E+04  4.350581E+03 -1.360321E+04
       304  27  7.252462E+04  4.938793E+05  7.631499E+04 -9.635692E+04  1.061520E+04 -7.663380E+03
       305   1 -1.200366E+05 -2.863936E+05 -1.086380E+05 -9.509043E+04 -1.805428E+04 -7.100429E+03
       305   2 -1.642237E+05 -4.610952E+05 -1.511916E+05 -3.923171E+04 -2.390892E+04  3.099081E+03
       305   3 -2.034796E+05 -6.357485E+05 -1.991391E+05 -9.228333E+04 -8.491735E+03  1.331338E+04
       305   4  5.462569E+02  2.015565E+05  6.301168E+03 -9.473995E+04 -1.806672E+04  2.783105E+03
       305   5 -6.829189E+02  2.004135E+05  4.876551E+03 -4.028686E+04 -2.390440E+04  2.257302E+02
       305   6  5.232915E+03  2.015028E+05  6.919049E+03 -9.473662E+04 -8.480324E+03 -2.313774E+03
       305   7  1.211122E+05  6.897259E+05  1.212243E+05 -9.438910E+04 -1.807914E+04  1.267436E+04
       305   8  1.628265E+05  8.623248E+05  1.609145E+05 -4.134303E+04 -2.389987E+04 -2.650666E+03
       305   9  2.138934E+05  1.039393E+06  2.129264E+05 -9.719306E+04 -8.468798E+03 -1.796198E+04
       305  10 -1.200370E+05 -2.863937E+05 -1.086387E+05 -9.509053E+04  7.794226E-11 -6.462621E-11
       305  11 -1.642243E+05 -4.610954E+05 -1.511927E+05 -3.923165E+04  2.941912E-10  5.466663E-10
       305  12 -2.034797E+05 -6.357487E+05 -1.991396E+05 -9.228324E+04  5.373151E-11  1.504967E-10
       305  13  5.459043E+02  2.015564E+05  6.300540E+03 -9.473991E+04 -8.157129E-10 -5.687160E-10
       305  14 -6.835325E+02  2.004134E+05  4.875477E+03 -4.028685E+04  7.161493E-11 -3.605424E-11
       305  15  5.232837E+03  2.015028E+05  6.918903E+03 -9.473663E+04 -1.702573E-10 -7.135390E-11
       305  16  1.211118E+05  6.897256E+05  1.212233E+05 -9.438891E+04  3.369474E-10 -1.485398E-10
       305  17  1.628259E+05  8.623247E+05  1.609134E+05 -4.134308E+04 -2.249071E-10 -9.436399E-10
       305  18  2.138932E+05  1.039392E+06  2.129257E+05 -9.719319E+04 -2.827657E-10 -1.518529E-10
       305  19 -1.200366E+05 -2.863936E+05 -1.086380E+05 -9.509043E+04  1.805428E+04  7.100429E+03
       305  20 -1.642237E+05 -4.610952E+05 -1.511916E+05 -3.923171E+04  2.390892E+04 -3.099081E+03
       305  21 -2.034796E+05 -6.357485E+05 -1.991391E+05 -9.228333E+04  8.491735E+03 -1.331338E+04
       305  22  5.462569E+02  2.015565E+05  6.301168E+03 -9.473995E+04  1.806672E+04 -2.783105E+03
       305  23 -6.829189E+02  2.004135E+05  4.876551E+03 -4.028686E+04  2.390440E+04 -2.257302E+02
       305  24  5.232915E+03  2.015028E+05  6.919049E+03 -9.473662E+04  8.480324E+03  2.313774E+03
       305  25  1.211122E+05  6.897259E+05  1.212243E+05 -9.438910E+04  1.807914E+04 -1.267436E+04
       305  26  1.628265E+05  8.623248E+05  1.609145E+05 -4.134303E+04  2.389987E+04  2.650666E+03
       305  27  2.138934E+05  1.039393E+06  2.129264E+05 -9.719306E+04  8.468798E+03  1.796198E+04
       306   1 -1.538569E+06 -5.208901E+05 -3.296647E+05 -5.468707E+05 -1.529485E+05 -5.236412E+04
       306   2 -1.495060E+06 -2.933080E+05 -1.878182E+05 -5.575123E+05 -9.924019E+04 -2.174691E+04
       306   3 -1.521647E+06 -2.764885E+05 -1.429593E+05 -5.307892E+05 -4.187772E+04 -8.444370E+02
       306   4 -1.196670E+06 -3.357294E+05 -2.258929E+05 -3.961178E+05 -1.451533E+05 -4.945142E+04
       306   5 -1.150306E+06 -1.472088E+05 -9.496072E+04 -4.462266E+05 -9.686783E+04 -2.085957E+04
       306   6 -1.172919E+06 -1.683129E+05 -5.667238E+04 -4.589833E+05 -4.492956E+04 -1.988982E+03
       306   7 -8.546496E+05 -1.505188E+05 -1.221320E+05 -2.452774E+05 -1.373533E+05 -4.653515E+04
       306   8 -8.054351E+05 -1.093034E+03 -2.113901E+03 -3.348818E+05 -9.449401E+04 -1.997153E+04
       306   9 -8.240731E+05 -6.013822E+04  2.960535E+04 -3.871452E+05 -4.798326E+04 -3.133948E+03
       306  10 -1.538594E+06 -5.208994E+05 -3.297140E+05 -5.468771E+05  1.689828E-10  9.484856E-12
       306  11 -1.495071E+06 -2.933112E+05 -1.878377E+05 -5.575140E+05 -2.203321E-10  1.305423E-10
       306  12 -1.521649E+06 -2.764890E+05 -1.429626E+05 -5.307892E+05  1.023955E-10  1.812315E-10
       306  13 -1.196693E+06 -3.357377E+05 -2.259372E+05 -3.961236E+05  5.872251E-10 -9.568478E-11
       306  14 -1.150316E+06 -1.472118E+05 -9.497921E+04 -4.462282E+05  3.430760E-11 -1.200538E-10
       306  15 -1.172921E+06 -1.683134E+05 -5.667619E+04 -4.589833E+05 -4.343069E-10 -1.009016E-10
       306  16 -8.546704E+05 -1.505262E+05 -1.221715E+05 -2.452826E+05  1.832410E-10  2.914665E-11
       306  17 -8.054448E+05 -1.095865E+03 -2.131456E+03 -3.348833E+05  5.166207E-10 -2.864351E-10
       306  18 -8.240756E+05 -6.013885E+04  2.960100E+04 -3.871453E+05  1.064723E-10 -3.166459E-10
       306  19 -1.538569E+06 -5.208901E+05 -3.296647E+05 -5.468707E+05  1.529485E+05  5.236412E+04
       306  20 -1.495060E+06 -2.933080E+05 -1.878182E+05 -5.575123E+05  9.924019E+04  2.174691E+04
       306  21 -1.521647E+06 -2.764885E+05 -1.429593E+05 -5.307892E+05  4.187772E+04  8.444370E+02
       306  22 -1.196670E+06 -3.357294E+05 -2.258929E+05 -3.961178E+05  1.451533E+05  4.945142E+04
       306  23 -1.150306E+06 -1.472088E+05 -9.496072E+04 -4.462266E+05  9.686783E+04  2.085957E+04
       306  24 -1.172919E+06 -1.683129E+05 -5.667238E+04 -4.589833E+05  4.492956E+04  1.988982E+03
       306  25 -8.546496E+05 -1.505188E+05 -1.221320E+05 -2.452774E+05  1.373533E+05  4.653515E+04
       306  26 -8.054351E+05 -1.093034E+03 -2.113901E+03 -3.348818E+05  9.449401E+04  1.997153E+04
       306  27 -8.240731E+05 -6.013822E+04  2.960535E+04 -3.871452E+05  4.798326E+04  3.133948E+03
       307   1 -1.462931E+06 -3.073425E+05 -1.243886E+05 -5.324478E+05 -3.616914E+04 -1.010662E+03
       307   2 -1.439901E+06 -2.704448E+05 -9.377336E+04 -5.201364E+05 -2.402441E+04  2.905289E+03
       307   3 -1.412677E+06 -2.659277E+05 -7.731859E+04 -5.179722E+05 -1.163081E+04  6.158694E+03
       307   4 -1.165396E+06 -1.908158E+05 -4.587284E+04 -4.462925E+05 -3.630980E+04 -1.064217E+03
       307   5 -1.166383E+06 -1.665810E+05 -2.237911E+04 -4.442473E+05 -2.453119E+04  2.714755E+03
       307   6 -1.163101E+06 -1.746485E+05 -1.275007E+04 -4.523500E+05 -1.250428E+04  5.830952E+03
       307   7 -8.677740E+05 -7.428107E+04  3.263559E+04 -3.600987E+05 -3.645053E+04 -1.117800E+03
       307   8 -8.927919E+05 -6.271190E+04  4.900894E+04 -3.683277E+05 -2.503820E+04  2.524126E+03
       307   9 -9.134642E+05 -8.336616E+04  5.181330E+04 -3.867044E+05 -1.337814E+04  5.503074E+03
       307  10 -1.462932E+06 -3.073428E+05 -1.243911E+05 -5.324479E+05  4.967801E-11  8.854125E-11
       307  11 -1.439902E+06 -2.704449E+05 -9.377447E+04 -5.201364E+05  4.626920E-10  2.763335E-10
       307  12 -1.412678E+06 -2.659278E+05 -7.731892E+04 -5.179721E+05  5.320896E-10  1.381518E-10
       307  13 -1.165397E+06 -1.908161E+05 -4.587532E+04 -4.462925E+05  2.916577E-10 -1.282869E-10
       307  14 -1.166384E+06 -1.665811E+05 -2.238026E+04 -4.442473E+05 -9.846075E-11 -1.862295E-10
       307  15 -1.163101E+06 -1.746486E+05 -1.275042E+04 -4.523500E+05  7.481368E-10  9.216971E-11
       307  16 -8.677754E+05 -7.428143E+04  3.263309E+04 -3.600987E+05  6.876757E-11 -3.476231E-10
       307  17 -8.927926E+05 -6.271208E+04  4.900775E+04 -3.683276E+05 -2.728001E-10 -1.309285E-10
       307  18 -9.134644E+05 -8.336624E+04  5.181291E+04 -3.867043E+05  3.746254E-11 -2.498494E-12
       307  19 -1.462931E+06 -3.073425E+05 -1.243886E+05 -5.324478E+05  3.616914E+04  1.010662E+03
       307  20 -1.439901E+06 -2.704448E+05 -9.377336E+04 -5.201364E+05  2.402441E+04 -2.905289E+03
       307  21 -1.412677E+06 -2.659277E+05 -7.731859E+04 -5.179722E+05  1.163081E+04 -6.158694E+03
       307  22 -1.165396E+06 -1.908158E+05 -4.587284E+04 -4.462925E+05  3.630980E+04  1.064217E+03
       307  23 -1.166383E+06 -1.665810E+05 -2.237911E+04 -4.442473E+05  2.453119E+04 -2.714755E+03
       307  24 -1.163101E+06 -1.746485E+05 -1.275007E+04 -4.523500E+05  1.250428E+04 -5.830952E+03
       307  25 -8.677740E+05 -7.428107E+04  3.263559E+04 -3.600987E+05  3.645053E+04  1.117800E+03
       307  26 -8.927919E+05 -6.271190E+04  4.900894E+04 -3.683277E+05  2.503820E+04 -2.524126E+03
       307  27 -9.134642E+05 -8.336616E+04  5.181330E+04 -3.867044E+05  1.337814E+04 -5.503074E+03
       308   1 -1.377078E+06 -2.577927E+05 -6.578101E+04 -5.101363E+05 -9.685647E+03  5.937054E+03
       308   2 -1.355699E+06 -2.387233E+05 -5.395852E+04 -4.950670E+05 -6.557371E+03  5.679746E+03
       308   3 -1.321846E+06 -2.350430E+05 -4.461718E+04 -4.950750E+05 -3.407586E+03  5.363830E+03
       308   4 -1.162116E+06 -1.768716E+05 -9.885964E+03 -4.512003E+05 -1.037395E+04  5.678819E+03
       308   5 -1.168245E+06 -1.684096E+05 -5.195385E+03 -4.439494E+05 -7.277615E+03  5.409693E+03
       308   6 -1.161895E+06 -1.753299E+05 -2.959883E+03 -4.517760E+05 -4.159896E+03  5.081922E+03
       308   7 -9.471091E+05 -9.594778E+04  4.600501E+04 -3.922459E+05 -1.106251E+04  5.420487E+03
       308   8 -9.807573E+05 -9.809367E+04  4.356480E+04 -3.928178E+05 -7.998098E+03  5.139552E+03
       308   9 -1.001918E+06 -1.156150E+05  3.869541E+04 -4.084668E+05 -4.912422E+03  4.799934E+03
       308  10 -1.377078E+06 -2.577928E+05 -6.578125E+04 -5.101363E+05  1.325843E-10  4.841087E-11
       308  11 -1.355699E+06 -2.387233E+05 -5.395866E+04 -4.950670E+05  3.378944E-10 -1.807819E-10
       308  12 -1.321846E+06 -2.350431E+05 -4.461726E+04 -4.950750E+05 -7.365520E-10 -1.835047E-10
       308  13 -1.162116E+06 -1.768717E+05 -9.886227E+03 -4.512002E+05  4.334503E-10  1.621355E-10
       308  14 -1.168245E+06 -1.684096E+05 -5.195539E+03 -4.439494E+05  5.979994E-10  9.168513E-11
       308  15 -1.161895E+06 -1.753299E+05 -2.959964E+03 -4.517760E+05 -9.071160E-10 -7.070312E-10
       308  16 -9.471093E+05 -9.594784E+04  4.600472E+04 -3.922459E+05 -1.080772E-10 -3.717784E-11
       308  17 -9.807573E+05 -9.809371E+04  4.356463E+04 -3.928178E+05  1.102288E-10  3.574022E-11
       308  18 -1.001918E+06 -1.156151E+05  3.869532E+04 -4.084668E+05 -1.772411E-09 -9.576831E-10
       308  19 -1.377078E+06 -2.577927E+05 -6.578101E+04 -5.101363E+05  9.685647E+03 -5.937054E+03
       308  20 -1.355699E+06 -2.387233E+05 -5.395852E+04 -4.950670E+05  6.557371E+03 -5.679746E+03
       308  21 -1.321846E+06 -2.350430E+05 -4.461718E+04 -4.950750E+05  3.407586E+03 -5.363830E+03
       308  22 -1.162116E+06 -1.768716E+05 -9.885964E+03 -4.512003E+05  1.037395E+04 -5.678819E+03
       308  23 -1.168245E+06 -1.684096E+05 -5.195385E+03 -4.439494E+05  7.277615E+03 -5.409693E+03
       308  24 -1.161895E+06 -1.753299E+05 -2.959883E+03 -4.517760E+05  4.159896E+03 -5.081922E+03
       308  25 -9.471091E+05 -9.594778E+04  4.600501E+04 -3.922459E+05  1.106251E+04 -5.420487E+03
       308  26 -9.807573E+05 -9.809367E+04  4.356480E+04 -3.928178E+05  7.998098E+03 -5.139552E+03
       308  27 -1.001918E+06 -1.156150E+05  3.869541E+04 -4.084668E+05  4.912422E+03 -4.799934E+03
       309   1 -1.287705E+06 -2.227964E+05 -3.496456E+04 -4.860576E+05 -2.693379E+03  4.744046E+03
       309   2 -1.266120E+06 -2.050757E+05 -2.677033E+04 -4.704050E+05 -1.490701E+03  3.675792E+03
       309   3 -1.230876E+06 -2.013691E+05 -1.914991E+04 -4.705842E+05 -2.840746E+02  2.596162E+03
       309   4 -1.161709E+06 -1.755918E+05 -2.300908E+03 -4.517302E+05 -3.437317E+03  4.465354E+03
       309   5 -1.168528E+06 -1.685169E+05 -1.393726E+03 -4.438396E+05 -2.240863E+03  3.394850E+03
       309   6 -1.161688E+06 -1.754546E+05 -1.055226E+03 -4.517808E+05 -1.040499E+03  2.312962E+03
       309   7 -1.035698E+06 -1.283862E+05  3.036141E+04 -4.173966E+05 -4.181421E+03  4.186600E+03
       309   8 -1.070928E+06 -1.319576E+05  2.398203E+04 -4.172705E+05 -2.991153E+03  3.113861E+03
       309   9 -1.092497E+06 -1.495399E+05  1.703899E+04 -4.329756E+05 -1.797013E+03  2.029729E+03
       309  10 -1.287705E+06 -2.227964E+05 -3.496461E+04 -4.860575E+05 -1.596021E-09 -3.806274E-10
       309  11 -1.266120E+06 -2.050757E+05 -2.677036E+04 -4.704050E+05 -2.675891E-10 -2.935371E-10
       309  12 -1.230876E+06 -2.013691E+05 -1.914992E+04 -4.705842E+05  4.489558E-10 -4.803441E-10
       309  13 -1.161709E+06 -1.755918E+05 -2.300967E+03 -4.517302E+05 -9.941580E-10 -4.339601E-10
       309  14 -1.168528E+06 -1.685169E+05 -1.393757E+03 -4.438396E+05  4.504353E-10  7.782634E-10
       309  15 -1.161688E+06 -1.754546E+05 -1.055238E+03 -4.517808E+05  4.227460E-10 -4.505028E-10
       309  16 -1.035698E+06 -1.283863E+05  3.036135E+04 -4.173966E+05 -9.931950E-10 -3.413294E-10
       309  17 -1.070928E+06 -1.319576E+05  2.398200E+04 -4.172705E+05  5.246247E-10 -3.145258E-11
       309  18 -1.092497E+06 -1.495399E+05  1.703898E+04 -4.329756E+05  9.476121E-11 -3.717605E-10
       309  19 -1.287705E+06 -2.227964E+05 -3.496456E+04 -4.860576E+05  2.693379E+03 -4.744046E+03
       309  20 -1.266120E+06 -2.050757E+05 -2.677033E+04 -4.704050E+05  1.490701E+03 -3.675792E+03
       309  21 -1.230876E+06 -2.013691E+05 -1.914991E+04 -4.705842E+05  2.840746E+02 -2.596162E+03
       309  22 -1.161709E+06 -1.755918E+05 -2.300908E+03 -4.517302E+05  3.437317E+03 -4.465354E+03
       309  23 -1.168528E+06 -1.685169E+05 -1.393726E+03 -4.438396E+05  2.240863E+03 -3.394850E+03
       309  24 -1.161688E+06 -1.754546E+05 -1.055226E+03 -4.517808E+05  1.040499E+03 -2.312962E+03
       309  25 -1.035698E+06 -1.283862E+05  3.036141E+04 -4.173966E+05  4.181421E+03 -4.186600E+03
       309  26 -1.070928E+06 -1.319576E+05  2.398203E+04 -4.172705E+05  2.991153E+03 -3.113861E+03
       309  27 -1.092497E+06 -1.495399E+05  1.703899E+04 -4.329756E+05  1.797013E+03 -2.029729E+03
       310   1 -1.196461E+06 -1.885238E+05 -9.975320E+03 -4.613122E+05  1.839895E+02  1.874987E+03
       310   2 -1.174698E+06 -1.707895E+05 -2.843222E+03 -4.454786E+05  1.312400E+03  7.577630E+02
       310   3 -1.139148E+06 -1.671628E+05  3.779811E+03 -4.456264E+05  2.440248E+03 -3.579159E+02
       310   4 -1.161661E+06 -1.754852E+05 -1.030229E+03 -4.518103E+05 -5.738425E+02  1.591291E+03
       310   5 -1.168561E+06 -1.684828E+05 -1.246018E+03 -4.438000E+05  5.554186E+02  4.743866E+02
       310   6 -1.161675E+06 -1.755885E+05 -1.971661E+03 -4.517717E+05  1.684083E+03 -6.409802E+02
       310   7 -1.126859E+06 -1.624465E+05  7.914797E+03 -4.423078E+05 -1.331723E+03  1.307577E+03
       310   8 -1.162424E+06 -1.661762E+05  3.511879E+02 -4.421214E+05 -2.015723E+02  1.910066E+02
       310   9 -1.184202E+06 -1.840143E+05 -7.723171E+03 -4.579168E+05  9.279486E+02 -9.240332E+02
       310  10 -1.196461E+06 -1.885238E+05 -9.975326E+03 -4.613122E+05 -4.624524E-11 -4.379132E-10
       310  11 -1.174698E+06 -1.707895E+05 -2.843226E+03 -4.454786E+05  2.281632E-10  3.926228E-10
       310  12 -1.139148E+06 -1.671628E+05  3.779799E+03 -4.456264E+05  1.288920E-09  1.131934E-09
       310  13 -1.161661E+06 -1.754852E+05 -1.030234E+03 -4.518103E+05 -1.783115E-10 -5.984741E-10
       310  14 -1.168561E+06 -1.684828E+05 -1.246019E+03 -4.438000E+05  2.621419E-10  2.516596E-10
       310  15 -1.161675E+06 -1.755886E+05 -1.971667E+03 -4.517717E+05  1.513820E-09  7.146906E-10
       310  16 -1.126859E+06 -1.624465E+05  7.914791E+03 -4.423078E+05  4.196277E-10 -5.392029E-10
       310  17 -1.162424E+06 -1.661762E+05  3.511878E+02 -4.421214E+05 -1.338121E-10 -4.994785E-10
       310  18 -1.184202E+06 -1.840143E+05 -7.723175E+03 -4.579168E+05  1.347305E-09  4.816615E-10
       310  19 -1.196461E+06 -1.885238E+05 -9.975320E+03 -4.613122E+05 -1.839895E+02 -1.874987E+03
       310  20 -1.174698E+06 -1.707895E+05 -2.843222E+03 -4.454786E+05 -1.312400E+03 -7.577630E+02
       310  21 -1.139148E+06 -1.671628E+05  3.779811E+03 -4.456264E+05 -2.440248E+03  3.579159E+02
       310  22 -1.161661E+06 -1.754852E+05 -1.030229E+03 -4.518103E+05  5.738425E+02 -1.591291E+03
       310  23 -1.168561E+06 -1.684828E+05 -1.246018E+03 -4.438000E+05 -5.554186E+02 -4.743866E+02
       310  24 -1.161675E+06 -1.755885E+05 -1.971661E+03 -4.517717E+05 -1.684083E+03  6.409802E+02
       310  25 -1.126859E+06 -1.624465E+05  7.914797E+03 -4.423078E+05  1.331723E+03 -1.307577E+03
       310  26 -1.162424E+06 -1.661762E+05  3.511879E+02 -4.421214E+05  2.015723E+02 -1.910066E+02
       310  27 -1.184202E+06 -1.840143E+05 -7.723171E+03 -4.579168E+05 -9.279486E+02  9.240332E+02
       311   1 -1.104726E+06 -1.542276E+05  1.239071E+04 -4.365472E+05  3.112795E+03 -1.007519E+03
       311   2 -1.082997E+06 -1.363176E+05  1.783443E+04 -4.205500E+05  5.803058E+03 -1.531963E+03
       311   3 -1.048292E+06 -1.338414E+05  2.122482E+04 -4.201255E+05  8.478786E+03 -2.016573E+03
       311   4 -1.161791E+06 -1.754125E+05 -2.514414E+03 -4.518578E+05  2.347986E+03 -1.293840E+03
       311   5 -1.168368E+06 -1.683361E+05 -4.369423E+03 -4.438312E+05  5.060223E+03 -1.810132E+03
       311   6 -1.161975E+06 -1.766982E+05 -8.295424E+03 -4.513778E+05  7.757822E+03 -2.286626E+03
       311   7 -1.218853E+06 -1.965972E+05 -1.741976E+04 -4.671670E+05  1.583257E+03 -1.580132E+03
       311   8 -1.253731E+06 -2.003541E+05 -2.657389E+04 -4.671095E+05  4.317501E+03 -2.088259E+03
       311   9 -1.275645E+06 -2.195542E+05 -3.781685E+04 -4.826250E+05  7.037001E+03 -2.556625E+03
       311  10 -1.104726E+06 -1.542276E+05  1.239069E+04 -4.365472E+05  1.496325E-09  6.191291E-10
       311  11 -1.082997E+06 -1.363176E+05  1.783437E+04 -4.205500E+05 -3.643010E-10 -7.154731E-11
       311  12 -1.048293E+06 -1.338415E+05  2.122468E+04 -4.201255E+05 -7.881275E-10  2.150288E-11
       311  13 -1.161791E+06 -1.754125E+05 -2.514428E+03 -4.518578E+05  1.201070E-09  9.849561E-10
       311  14 -1.168368E+06 -1.683361E+05 -4.369477E+03 -4.438312E+05 -1.561904E-10 -9.519135E-11
       311  15 -1.161975E+06 -1.766982E+05 -8.295547E+03 -4.513778E+05 -4.885011E-10  6.406966E-10
       311  16 -1.218853E+06 -1.965972E+05 -1.741977E+04 -4.671670E+05  9.259945E-10  5.756481E-10
       311  17 -1.253732E+06 -2.003541E+05 -2.657393E+04 -4.671094E+05  2.821361E-10  1.409678E-09
       311  18 -1.275645E+06 -2.195542E+05 -3.781696E+04 -4.826249E+05 -1.414337E-10  8.083524E-10
       311  19 -1.104726E+06 -1.542276E+05  1.239071E+04 -4.365472E+05 -3.112795E+03  1.007519E+03
       311  20 -1.082997E+06 -1.363176E+05  1.783443E+04 -4.205500E+05 -5.803058E+03  1.531963E+03
       311  21 -1.048292E+06 -1.338414E+05  2.122482E+04 -4.201255E+05 -8.478786E+03  2.016573E+03
       311  22 -1.161791E+06 -1.754125E+05 -2.514414E+03 -4.518578E+05 -2.347986E+03  1.293840E+03
       311  23 -1.168368E+06 -1.683361E+05 -4.369423E+03 -4.438312E+05 -5.060223E+03  1.810132E+03
       311  24 -1.161975E+06 -1.766982E+05 -8.295424E+03 -4.513778E+05 -7.757822E+03  2.286626E+03
       311  25 -1.218853E+06 -1.965972E+05 -1.741976E+04 -4.671670E+05 -1.583257E+03  1.580132E+03
       311  26 -1.253731E+06 -2.003541E+05 -2.657389E+04 -4.671095E+05 -4.317501E+03  2.088259E+03
       311  27 -1.275645E+06 -2.195542E+05 -3.781685E+04 -4.826250E+05 -7.037001E+03  2.556625E+03
       312   1 -1.013577E+06 -1.209014E+05  2.782325E+04 -4.137675E+05  1.046348E+04 -2.232556E+03
       312   2 -9.920099E+05 -1.001852E+05  2.690292E+04 -3.953161E+05  2.036135E+04  8.116286E+00
       312   3 -9.641600E+05 -1.091804E+05  1.457726E+04 -3.884860E+05  3.007025E+04  2.755339E+03
       312   4 -1.162771E+06 -1.748687E+05 -1.069436E+04 -4.523787E+05  9.598461E+03 -2.556600E+03
       312   5 -1.166842E+06 -1.667583E+05 -1.875573E+04 -4.440325E+05  1.977767E+04 -2.107565E+02
       312   6 -1.164689E+06 -1.884187E+05 -3.844823E+04 -4.473081E+05  2.976745E+04  2.641430E+03
       312   7 -1.311943E+06 -2.288351E+05 -4.921380E+04 -4.909816E+05  8.733669E+03 -2.880565E+03
       312   8 -1.341644E+06 -2.333293E+05 -6.441688E+04 -4.927364E+05  1.919418E+04 -4.295591E+02
       312   9 -1.365177E+06 -2.676531E+05 -9.147702E+04 -5.061124E+05  2.946476E+04  2.527567E+03
       312  10 -1.013577E+06 -1.209015E+05  2.782304E+04 -4.137675E+05 -2.429497E-10  2.542743E-10
       312  11 -9.920103E+05 -1.001853E+05  2.690214E+04 -3.953161E+05 -1.760033E-10 -5.459262E-10
       312  12 -9.641609E+05 -1.091806E+05  1.457555E+04 -3.884860E+05  5.324951E-10 -3.766546E-10
       312  13 -1.162771E+06 -1.748688E+05 -1.069454E+04 -4.523787E+05 -4.280146E-10  3.471356E-10
       312  14 -1.166842E+06 -1.667585E+05 -1.875646E+04 -4.440325E+05 -9.478626E-10 -9.792434E-10
       312  15 -1.164690E+06 -1.884190E+05 -3.844991E+04 -4.473082E+05  6.457766E-11 -3.045795E-10
       312  16 -1.311943E+06 -2.288351E+05 -4.921396E+04 -4.909816E+05 -5.533171E-11  5.593352E-10
       312  17 -1.341644E+06 -2.333294E+05 -6.441757E+04 -4.927364E+05  1.512239E-10 -1.901663E-10
       312  18 -1.365178E+06 -2.676534E+05 -9.147866E+04 -5.061125E+05  2.894589E-10 -4.892617E-10
       312  19 -1.013577E+06 -1.209014E+05  2.782325E+04 -4.137675E+05 -1.046348E+04  2.232556E+03
       312  20 -9.920099E+05 -1.001852E+05  2.690292E+04 -3.953161E+05 -2.036135E+04 -8.116286E+00
       312  21 -9.641600E+05 -1.091804E+05  1.457726E+04 -3.884860E+05 -3.007025E+04 -2.755339E+03
       312  22 -1.162771E+06 -1.748687E+05 -1.069436E+04 -4.523787E+05 -9.598461E+03  2.556600E+03
       312  23 -1.166842E+06 -1.667583E+05 -1.875573E+04 -4.440325E+05 -1.977767E+04  2.107565E+02
       312  24 -1.164689E+06 -1.884187E+05 -3.844823E+04 -4.473081E+05 -2.976745E+04 -2.641430E+03
       312  25 -1.311943E+06 -2.288351E+05 -4.921380E+04 -4.909816E+05 -8.733669E+03  2.880565E+03
       312  26 -1.341644E+06 -2.333293E+05 -6.441688E+04 -4.927364E+05 -1.919418E+04  4.295591E+02
       312  27 -1.365177E+06 -2.676531E+05 -9.147702E+04 -5.061124E+05 -2.946476E+04 -2.527567E+03
       313   1 -9.207392E+05 -9.477822E+04  1.388285E+04 -4.093564E+05  3.956371E+04  4.300457E+03
       313   2 -9.006488E+05 -4.176873E+04 -1.122528E+04 -3.623502E+05  7.903632E+04  1.821276E+04
       313   3 -9.347026E+05 -1.664405E+05 -1.106508E+05 -2.873590E+05  1.157055E+05  3.960847E+04
       313   4 -1.170978E+06 -1.695773E+05 -4.749946E+04 -4.579640E+05  3.701806E+04  3.347329E+03
       313   5 -1.153400E+06 -1.504840E+05 -7.958257E+04 -4.456502E+05  8.067030E+04  1.882307E+04
       313   6 -1.190825E+06 -3.099501E+05 -1.893234E+05 -4.053462E+05  1.215178E+05  4.177823E+04
       313   7 -1.421158E+06 -2.443776E+05 -1.088865E+05 -5.065565E+05  3.447352E+04  2.394422E+03
       313   8 -1.406087E+06 -2.591893E+05 -1.479455E+05 -5.289174E+05  8.230355E+04  1.943300E+04
       313   9 -1.446876E+06 -4.534267E+05 -2.680014E+05 -5.232807E+05  1.273275E+05  4.394588E+04
       313  10 -9.207409E+05 -9.477866E+04  1.387987E+04 -4.093565E+05  1.996766E-10 -2.650768E-10
       313  11 -9.006556E+05 -4.177076E+04 -1.123766E+04 -3.623514E+05 -5.178573E-11  8.263116E-11
       313  12 -9.347174E+05 -1.664458E+05 -1.106790E+05 -2.873627E+05  2.923529E-11  1.017537E-10
       313  13 -1.170980E+06 -1.695777E+05 -4.750207E+04 -4.579641E+05 -1.442171E-10  4.799840E-11
       313  14 -1.153407E+06 -1.504861E+05 -7.959550E+04 -4.456515E+05  2.627741E-10  5.418481E-10
       313  15 -1.190841E+06 -3.099559E+05 -1.893545E+05 -4.053503E+05 -4.143157E-11  2.091344E-10
       313  16 -1.421159E+06 -2.443780E+05 -1.088888E+05 -5.065566E+05  6.728280E-10 -1.097330E-10
       313  17 -1.406095E+06 -2.591915E+05 -1.479589E+05 -5.289187E+05 -8.898849E-10  4.235983E-10
       313  18 -1.446894E+06 -4.534331E+05 -2.680356E+05 -5.232853E+05 -5.413933E-10  1.719144E-10
       313  19 -9.207392E+05 -9.477822E+04  1.388285E+04 -4.093564E+05 -3.956371E+04 -4.300457E+03
       313  20 -9.006488E+05 -4.176873E+04 -1.122528E+04 -3.623502E+05 -7.903632E+04 -1.821276E+04
       313  21 -9.347026E+05 -1.664405E+05 -1.106508E+05 -2.873590E+05 -1.157055E+05 -3.960847E+04
       313  22 -1.170978E+06 -1.695773E+05 -4.749946E+04 -4.579640E+05 -3.701806E+04 -3.347329E+03
       313  23 -1.153400E+06 -1.504840E+05 -7.958257E+04 -4.456502E+05 -8.067030E+04 -1.882307E+04
       313  24 -1.190825E+06 -3.099501E+05 -1.893234E+05 -4.053462E+05 -1.215178E+05 -4.177823E+04
       313  25 -1.421158E+06 -2.443776E+05 -1.088865E+05 -5.065565E+05 -3.447352E+04 -2.394422E+03
       313  26 -1.406087E+06 -2.591893E+05 -1.479455E+05 -5.289174E+05 -8.230355E+04 -1.943300E+04
       313  27 -1.446876E+06 -4.534267E+05 -2.680014E+05 -5.232807E+05 -1.273275E+05 -4.394588E+04
       314   1  9.648141E+05  2.103853E+05  3.182329E+05  1.151204E+05  3.440536E+05  1.006809E+04
       314   2  9.667981E+05 -2.401834E+05  4.885018E+04  3.168166E+04  2.309365E+05  2.869612E+04
       314   3  1.107051E+06 -1.992184E+05 -2.389169E+04 -9.601423E+04  1.178357E+05  2.714578E+04
       314   4  1.820217E+06  4.224037E+05  5.279419E+05 -3.608880E+04  3.618130E+05  1.001588E+04
       314   5  1.750317E+06 -4.697514E+04  2.333207E+05 -1.358592E+04  2.363987E+05  2.868465E+04
       314   6  1.820602E+06 -2.306773E+04  1.436726E+05 -3.533815E+04  1.110167E+05  2.714781E+04
       314   7  2.676335E+06  6.344547E+05  7.376110E+05 -1.875067E+05  3.795966E+05  9.955107E+03
       314   8  2.534403E+06  1.461972E+05  4.177504E+05 -5.891107E+04  2.418676E+05  2.867241E+04
       314   9  2.534629E+06  1.530605E+05  3.112041E+05  2.540785E+04  1.041898E+05  2.714850E+04
       314  10  9.646871E+05  2.103534E+05  3.180106E+05  1.151177E+05 -6.590599E-10  7.513259E-10
       314  11  9.667407E+05 -2.401986E+05  4.874858E+04  3.167633E+04 -4.449805E-10 -4.897911E-10
       314  12  1.107036E+06 -1.992229E+05 -2.391912E+04 -9.601680E+04  8.271573E-10 -4.390154E-10
       314  13  1.820077E+06  4.223686E+05  5.276964E+05 -3.609172E+04  7.865112E-10  4.091101E-10
       314  14  1.750257E+06 -4.699097E+04  2.332145E+05 -1.359138E+04 -1.459288E-09 -1.875252E-09
       314  15  1.820589E+06 -2.307181E+04  1.436481E+05 -3.534058E+04  4.627188E-10 -2.662843E-10
       314  16  2.676181E+06  6.344161E+05  7.373412E+05 -1.875097E+05 -4.226697E-10 -8.389491E-11
       314  17  2.534340E+06  1.461807E+05  4.176393E+05 -5.891665E+04 -1.290742E-10 -3.541854E-10
       314  18  2.534617E+06  1.530568E+05  3.111824E+05  2.540558E+04 -1.056538E-09 -5.661148E-10
       314  19  9.648141E+05  2.103853E+05  3.182329E+05  1.151204E+05 -3.440536E+05 -1.006809E+04
       314  20  9.667981E+05 -2.401834E+05  4.885018E+04  3.168166E+04 -2.309365E+05 -2.869612E+04
       314  21  1.107051E+06 -1.992184E+05 -2.389169E+04 -9.601423E+04 -1.178357E+05 -2.714578E+04
       314  22  1.820217E+06  4.224037E+05  5.279419E+05 -3.608880E+04 -3.618130E+05 -1.001588E+04
       314  23  1.750317E+06 -4.697514E+04  2.333207E+05 -1.358592E+04 -2.363987E+05 -2.868465E+04
       314  24  1.820602E+06 -2.306773E+04  1.436726E+05 -3.533815E+04 -1.110167E+05 -2.714781E+04
       314  25  2.676335E+06  6.344547E+05  7.376110E+05 -1.875067E+05 -3.795966E+05 -9.955107E+03
       314  26  2.534403E+06  1.461972E+05  4.177504E+05 -5.891107E+04 -2.418676E+05 -2.867241E+04
       314  27  2.534629E+06  1.530605E+05  3.112041E+05  2.540785E+04 -1.041898E+05 -2.714850E+04
       315   1  1.155786E+06 -1.189779E+05 -3.362380E+04 -2.336818E+04  8.974337E+04  2.266280E+04
       315   2  1.214594E+06 -1.453919E+05 -7.381863E+04 -1.135804E+04  5.969850E+04  2.097433E+04
       315   3  1.288957E+06 -1.265220E+05 -8.308318E+04 -4.107806E+04  2.964989E+04  1.812359E+04
       315   4  1.792873E+06  3.824485E+04  1.165568E+05 -3.500931E+04  8.915533E+04  2.265899E+04
       315   5  1.785078E+06 -4.644394E+03  6.038471E+04 -1.413094E+04  5.838301E+04  2.097195E+04
       315   6  1.792945E+06 -2.148099E+03  3.562390E+04 -3.497944E+04  2.761013E+04  1.812228E+04
       315   7  2.430331E+06  1.954392E+05  2.667095E+05 -4.666251E+04  8.856666E+04  2.265521E+04
       315   8  2.355862E+06  1.360800E+05  1.945657E+05 -1.690644E+04  5.706629E+04  2.096959E+04
       315   9  2.297166E+06  1.222078E+05  1.543135E+05 -2.887587E+04  2.556871E+04  1.812094E+04
       315  10  1.155777E+06 -1.189806E+05 -3.363987E+04 -2.336982E+04 -3.534587E-10 -9.285346E-10
       315  11  1.214590E+06 -1.453933E+05 -7.382614E+04 -1.135905E+04 -4.783685E-11  5.692383E-10
       315  12  1.288956E+06 -1.265226E+05 -8.308545E+04 -4.107849E+04  8.132238E-10 -4.032130E-10
       315  13  1.792864E+06  3.824218E+04  1.165409E+05 -3.501094E+04  1.852634E-11 -5.007760E-10
       315  14  1.785075E+06 -4.645778E+03  6.037749E+04 -1.413193E+04 -2.333128E-10 -2.064327E-10
       315  15  1.792944E+06 -2.148656E+03  3.562185E+04 -3.497985E+04 -8.488634E-10 -3.184996E-10
       315  16  2.430323E+06  1.954365E+05  2.666938E+05 -4.666413E+04  8.100960E-10  1.392918E-10
       315  17  2.355858E+06  1.360786E+05  1.945588E+05 -1.690740E+04 -9.800199E-10 -8.742560E-10
       315  18  2.297166E+06  1.222073E+05  1.543117E+05 -2.887624E+04 -5.889563E-10  2.128458E-10
       315  19  1.155786E+06 -1.189779E+05 -3.362380E+04 -2.336818E+04 -8.974337E+04 -2.266280E+04
       315  20  1.214594E+06 -1.453919E+05 -7.381863E+04 -1.135804E+04 -5.969850E+04 -2.097433E+04
       315  21  1.288957E+06 -1.265220E+05 -8.308318E+04 -4.107806E+04 -2.964989E+04 -1.812359E+04
       315  22  1.792873E+06  3.824485E+04  1.165568E+05 -3.500931E+04 -8.915533E+04 -2.265899E+04
       315  23  1.785078E+06 -4.644394E+03  6.038471E+04 -1.413094E+04 -5.838301E+04 -2.097195E+04
       315  24  1.792945E+06 -2.148099E+03  3.562390E+04 -3.497944E+04 -2.761013E+04 -1.812228E+04
       315  25  2.430331E+06  1.954392E+05  2.667095E+05 -4.666251E+04 -8.856666E+04 -2.265521E+04
       315  26  2.355862E+06  1.360800E+05  1.945657E+05 -1.690644E+04 -5.706629E+04 -2.096959E+04
       315  27  2.297166E+06  1.222078E+05  1.543135E+05 -2.887587E+04 -2.556871E+04 -1.812094E+04
       316   1  1.358804E+06 -1.029988E+05 -7.352070E+04 -3.405692E+04  2.366548E+04  1.627603E+04
       316   2  1.421572E+06 -9.112199E+04 -7.098588E+04 -1.461339E+04  1.599351E+04  1.349726E+04
       316   3  1.486493E+06 -7.508285E+04 -6.239936E+04 -3.521903E+04  8.318837E+03  1.068066E+04
       316   4  1.789955E+06  3.331031E+03  2.772288E+04 -3.461484E+04  2.201745E+04  1.627499E+04
       316   5  1.788890E+06 -5.091212E+02  1.540830E+04 -1.459093E+04  1.431780E+04  1.349674E+04
       316   6  1.789976E+06 -1.839554E+02  9.161178E+03 -3.461465E+04  6.616216E+03  1.068067E+04
       316   7  2.221276E+06  1.096476E+05  1.289538E+05 -3.517315E+04  2.036829E+04  1.627394E+04
       316   8  2.156331E+06  9.009415E+04  1.017932E+05 -1.456844E+04  1.264111E+04  1.349622E+04
       316   9  2.093543E+06  7.470837E+04  8.071538E+04 -3.400997E+04  4.912769E+03  1.068069E+04
       316  10  1.358803E+06 -1.029992E+05 -7.352225E+04 -3.405723E+04  5.894750E-10 -3.419325E-10
       316  11  1.421572E+06 -9.112225E+04 -7.098670E+04 -1.461357E+04 -3.633441E-10  2.352922E-10
       316  12  1.486493E+06 -7.508299E+04 -6.239971E+04 -3.521911E+04 -8.442807E-10  1.541073E-10
       316  13  1.789954E+06  3.330616E+03  2.772147E+04 -3.461513E+04  1.051758E-10 -6.395120E-11
       316  14  1.788890E+06 -5.093718E+02  1.540758E+04 -1.459108E+04 -5.079003E-10  3.909165E-11
       316  15  1.789976E+06 -1.840897E+02  9.160881E+03 -3.461471E+04  4.690074E-10  1.374230E-10
       316  16  2.221276E+06  1.096472E+05  1.289525E+05 -3.517342E+04 -9.047760E-10  6.524240E-11
       316  17  2.156331E+06  9.009391E+04  1.017926E+05 -1.456858E+04  4.956992E-10  2.416276E-10
       316  18  2.093543E+06  7.470824E+04  8.071512E+04 -3.401001E+04 -1.496197E-10  3.299011E-10
       316  19  1.358804E+06 -1.029988E+05 -7.352070E+04 -3.405692E+04 -2.366548E+04 -1.627603E+04
       316  20  1.421572E+06 -9.112199E+04 -7.098588E+04 -1.461339E+04 -1.599351E+04 -1.349726E+04
       316  21  1.486493E+06 -7.508285E+04 -6.239936E+04 -3.521903E+04 -8.318837E+03 -1.068066E+04
       316  22  1.789955E+06  3.331031E+03  2.772288E+04 -3.461484E+04 -2.201745E+04 -1.627499E+04
       316  23  1.788890E+06 -5.091212E+02  1.540830E+04 -1.459093E+04 -1.431780E+04 -1.349674E+04
       316  24  1.789976E+06 -1.839554E+02  9.161178E+03 -3.461465E+04 -6.616216E+03 -1.068067E+04
       316  25  2.221276E+06  1.096476E+05  1.289538E+05 -3.517315E+04 -2.036829E+04 -1.627394E+04
       316  26  2.156331E+06  9.009415E+04  1.017932E+05 -1.456844E+04 -1.264111E+04 -1.349622E+04
       316  27  2.093543E+06  7.470837E+04  8.071538E+04 -3.400997E+04 -4.912769E+03 -1.068069E+04
       317   1  1.556584E+06 -5.716482E+04 -4.742517E+04 -3.440715E+04  6.814608E+03  9.044535E+03
       317   2  1.618684E+06 -4.217038E+04 -3.556689E+04 -1.487600E+04  4.535285E+03  6.271736E+03
       317   3  1.681182E+06 -2.675194E+04 -2.212356E+04 -3.441717E+04  2.254874E+03  3.510976E+03
       317   4  1.789595E+06  2.735652E+02  7.185991E+03 -3.439776E+04  5.144946E+03  9.044788E+03
       317   5  1.789402E+06 -6.133207E+01  4.581655E+03 -1.486199E+04  2.872035E+03  6.272217E+03
       317   6  1.789602E+06  2.675807E+01  3.557619E+03 -3.439787E+04  5.982611E+02  3.511697E+03
       317   7  2.022656E+06  5.770810E+04  6.179346E+04 -3.438836E+04  3.474661E+03  9.045041E+03
       317   8  1.960147E+06  4.204565E+04  4.472821E+04 -1.484797E+04  1.208331E+03  6.272697E+03
       317   9  1.898034E+06  2.680461E+04  2.923799E+04 -3.437857E+04 -1.058639E+03  3.512418E+03
       317  10  1.556584E+06 -5.716492E+04 -4.742541E+04 -3.440720E+04 -4.631468E-11  4.706354E-11
       317  11  1.618684E+06 -4.217043E+04 -3.556700E+04 -1.487603E+04 -1.310399E-09  3.222794E-10
       317  12  1.681182E+06 -2.675195E+04 -2.212359E+04 -3.441717E+04 -4.503547E-10  3.169409E-10
       317  13  1.789595E+06  2.734702E+02  7.185787E+03 -3.439780E+04  3.114659E-10  2.660091E-10
       317  14  1.789402E+06 -6.137656E+01  4.581565E+03 -1.486200E+04  1.297851E-09 -5.794863E-10
       317  15  1.789602E+06  2.674472E+01  3.557595E+03 -3.439787E+04  5.125512E-10 -2.229753E-10
       317  16  2.022656E+06  5.770801E+04  6.179328E+04 -3.438839E+04  1.371578E-09 -4.569492E-10
       317  17  1.960147E+06  4.204560E+04  4.472813E+04 -1.484798E+04 -6.336120E-11 -4.267566E-10
       317  18  1.898034E+06  2.680460E+04  2.923796E+04 -3.437857E+04  7.635654E-10 -7.192659E-10
       317  19  1.556584E+06 -5.716482E+04 -4.742517E+04 -3.440715E+04 -6.814608E+03 -9.044535E+03
       317  20  1.618684E+06 -4.217038E+04 -3.556689E+04 -1.487600E+04 -4.535285E+03 -6.271736E+03
       317  21  1.681182E+06 -2.675194E+04 -2.212356E+04 -3.441717E+04 -2.254874E+03 -3.510976E+03
       317  22  1.789595E+06  2.735652E+02  7.185991E+03 -3.439776E+04 -5.144946E+03 -9.044788E+03
       317  23  1.789402E+06 -6.133207E+01  4.581655E+03 -1.486199E+04 -2.872035E+03 -6.272217E+03
       317  24  1.789602E+06  2.675807E+01  3.557619E+03 -3.439787E+04 -5.982611E+02 -3.511697E+03
       317  25  2.022656E+06  5.770810E+04  6.179346E+04 -3.438836E+04 -3.474661E+03 -9.045041E+03
       317  26  1.960147E+06  4.204565E+04  4.472821E+04 -1.484797E+04 -1.208331E+03 -6.272697E+03
       317  27  1.898034E+06  2.680461E+04  2.923799E+04 -3.437857E+04  1.058639E+03 -3.512418E+03
       318   1  1.750544E+06 -9.561727E+03 -5.534604E+03 -3.429105E+04  1.615385E+03  1.909621E+03
       318   2  1.812264E+06  5.588232E+03  9.437660E+03 -1.490605E+04 -4.038418E+02 -8.387335E+02
       318   3  1.874300E+06  2.110381E+04  2.580352E+04 -3.432497E+04 -2.423123E+03 -3.585818E+03
       318   4  1.789588E+06  3.086962E+01  3.460934E+03 -3.433840E+04 -3.811268E+01  1.910409E+03
       318   5  1.789430E+06 -4.329015E+01  4.068285E+03 -1.493634E+04 -2.056606E+03 -8.379847E+02
       318   6  1.789586E+06  2.485635E+02  6.069236E+03 -3.433828E+04 -4.074956E+03 -3.585094E+03
       318   7  1.828633E+06  9.623361E+03  1.245638E+04 -3.438576E+04 -1.691713E+03  1.911197E+03
       318   8  1.766596E+06 -5.674848E+03 -1.301115E+03 -1.496662E+04 -3.709310E+03 -8.372356E+02
       318   9  1.704877E+06 -2.060719E+04 -1.366552E+04 -3.435159E+04 -5.726565E+03 -3.584369E+03
       318  10  1.750544E+06 -9.561732E+03 -5.534616E+03 -3.429105E+04  6.853960E-11 -3.877466E-11
       318  11  1.812264E+06  5.588232E+03  9.437659E+03 -1.490605E+04 -1.526027E-10 -2.319023E-10
       318  12  1.874300E+06  2.110380E+04  2.580349E+04 -3.432498E+04  9.913323E-12 -3.330190E-10
       318  13  1.789588E+06  3.086569E+01  3.460927E+03 -3.433840E+04  2.407200E-10  6.359280E-10
       318  14  1.789430E+06 -4.329203E+01  4.068276E+03 -1.493634E+04 -1.522101E-09  4.931623E-10
       318  15  1.789585E+06  2.485452E+02  6.069181E+03 -3.433830E+04  5.190072E-10 -4.595793E-10
       318  16  1.828633E+06  9.623357E+03  1.245637E+04 -3.438575E+04  3.459848E-10  8.487026E-11
       318  17  1.766596E+06 -5.674853E+03 -1.301142E+03 -1.496662E+04 -1.052216E-09  6.229209E-10
       318  18  1.704877E+06 -2.060721E+04 -1.366561E+04 -3.435161E+04 -1.139699E-09 -2.397353E-11
       318  19  1.750544E+06 -9.561727E+03 -5.534604E+03 -3.429105E+04 -1.615385E+03 -1.909621E+03
       318  20  1.812264E+06  5.588232E+03  9.437660E+03 -1.490605E+04  4.038418E+02  8.387335E+02
       318  21  1.874300E+06  2.110381E+04  2.580352E+04 -3.432497E+04  2.423123E+03  3.585818E+03
       318  22  1.789588E+06  3.086962E+01  3.460934E+03 -3.433840E+04  3.811268E+01 -1.910409E+03
       318  23  1.789430E+06 -4.329015E+01  4.068285E+03 -1.493634E+04  2.056606E+03  8.379847E+02
       318  24  1.789586E+06  2.485635E+02  6.069236E+03 -3.433828E+04  4.074956E+03  3.585094E+03
       318  25  1.828633E+06  9.623361E+03  1.245638E+04 -3.438576E+04  1.691713E+03 -1.911197E+03
       318  26  1.766596E+06 -5.674848E+03 -1.301115E+03 -1.496662E+04  3.709310E+03  8.372356E+02
       318  27  1.704877E+06 -2.060719E+04 -1.366552E+04 -3.435159E+04  5.726565E+03  3.584369E+03
       319   1  1.944141E+06  3.794771E+04  4.409445E+04 -3.395157E+04 -3.634714E+03 -5.197234E+03
       319   2  2.005865E+06  5.307543E+04  6.369239E+04 -1.484970E+04 -1.001306E+04 -7.961768E+03
       319   3  2.069291E+06  7.163728E+04  8.829301E+04 -3.497989E+04 -1.639108E+04 -1.068716E+04
       319   4  1.789888E+06 -1.286965E+02  7.642392E+03 -3.443388E+04 -5.309580E+03 -5.196607E+03
       319   5  1.789033E+06 -3.955312E+02  1.271080E+04 -1.481706E+04 -1.166247E+04 -7.961461E+03
       319   6  1.789873E+06  2.768305E+03  2.276577E+04 -3.443308E+04 -1.801439E+04 -1.068716E+04
       319   7  1.635657E+06 -3.820680E+04 -2.881130E+04 -3.491608E+04 -6.984033E+03 -5.195978E+03
       319   8  1.572245E+06 -5.386983E+04 -3.827400E+04 -1.478443E+04 -1.331131E+04 -7.961155E+03
       319   9  1.510526E+06 -6.610620E+04 -4.276680E+04 -3.388652E+04 -1.963699E+04 -1.068717E+04
       319  10  1.944141E+06  3.794768E+04  4.409438E+04 -3.395158E+04 -1.304455E-10  3.768049E-10
       319  11  2.005865E+06  5.307533E+04  6.369209E+04 -1.484976E+04  1.278014E-09 -2.788810E-10
       319  12  2.069291E+06  7.163708E+04  8.829229E+04 -3.498003E+04  2.338322E-10 -1.145325E-12
       319  13  1.789888E+06 -1.287331E+02  7.642289E+03 -3.443391E+04 -5.314744E-11 -2.679224E-10
       319  14  1.789033E+06 -3.956357E+02  1.271043E+04 -1.481713E+04  2.941277E-10 -6.851779E-10
       319  15  1.789873E+06  2.768095E+03  2.276494E+04 -3.443324E+04 -5.566466E-10 -1.249284E-10
       319  16  1.635657E+06 -3.820684E+04 -2.881145E+04 -3.491610E+04 -1.563141E-09  4.516583E-10
       319  17  1.572245E+06 -5.386995E+04 -3.827445E+04 -1.478451E+04  1.605240E-10 -6.734269E-10
       319  18  1.510526E+06 -6.610643E+04 -4.276773E+04 -3.388669E+04  2.361464E-10 -6.772282E-10
       319  19  1.944141E+06  3.794771E+04  4.409445E+04 -3.395157E+04  3.634714E+03  5.197234E+03
       319  20  2.005865E+06  5.307543E+04  6.369239E+04 -1.484970E+04  1.001306E+04  7.961768E+03
       319  21  2.069291E+06  7.163728E+04  8.829301E+04 -3.497989E+04  1.639108E+04  1.068716E+04
       319  22  1.789888E+06 -1.286965E+02  7.642392E+03 -3.443388E+04  5.309580E+03  5.196607E+03
       319  23  1.789033E+06 -3.955312E+02  1.271080E+04 -1.481706E+04  1.166247E+04  7.961461E+03
       319  24  1.789873E+06  2.768305E+03  2.276577E+04 -3.443308E+04  1.801439E+04  1.068716E+04
       319  25  1.635657E+06 -3.820680E+04 -2.881130E+04 -3.491608E+04  6.984033E+03  5.195978E+03
       319  26  1.572245E+06 -5.386983E+04 -3.827400E+04 -1.478443E+04  1.331131E+04  7.961155E+03
       319  27  1.510526E+06 -6.610620E+04 -4.276680E+04 -3.388652E+04  1.963699E+04  1.068717E+04
       320   1  2.142696E+06  8.470323E+04  1.117625E+05 -2.980188E+04 -2.066574E+04 -1.245582E+04
       320   2  2.200681E+06  9.849304E+04  1.470285E+05 -1.695914E+04 -4.648804E+04 -1.521743E+04
       320   3  2.271488E+06  1.495891E+05  2.084213E+05 -4.447434E+04 -7.231181E+04 -1.702772E+04
       320   4  1.792318E+06 -1.724121E+03  2.922851E+04 -3.468201E+04 -2.260501E+04 -1.245591E+04
       320   5  1.785925E+06 -3.775374E+03  4.951614E+04 -1.450609E+04 -4.784016E+04 -1.521845E+04
       320   6  1.792260E+06  3.139272E+04  9.553741E+04 -3.468908E+04 -7.307415E+04 -1.702998E+04
       320   7  1.442052E+06 -8.816013E+04 -5.331385E+04 -3.955938E+04 -2.454318E+04 -1.245597E+04
       320   8  1.371327E+06 -1.060560E+05 -4.800801E+04 -1.205470E+04 -4.919138E+04 -1.521948E+04
       320   9  1.313243E+06 -8.681968E+04 -1.736226E+04 -2.491141E+04 -7.383589E+04 -1.703226E+04
       320  10  2.142695E+06  8.470295E+04  1.117614E+05 -2.980208E+04 -1.242834E-10  1.231076E-10
       320  11  2.200678E+06  9.849221E+04  1.470240E+05 -1.695970E+04 -4.457872E-10  1.280476E-10
       320  12  2.271482E+06  1.495874E+05  2.084110E+05 -4.447533E+04 -5.209944E-10 -4.507089E-10
       320  13  1.792317E+06 -1.724424E+03  2.922727E+04 -3.468224E+04 -1.137071E-09  4.691964E-12
       320  14  1.785923E+06 -3.776235E+03  4.951142E+04 -1.450668E+04  1.042192E-09 -4.896894E-11
       320  15  1.792254E+06  3.139098E+04  9.552686E+04 -3.469008E+04 -3.846574E-10 -1.803768E-10
       320  16  1.442052E+06 -8.816045E+04 -5.331527E+04 -3.955963E+04 -1.020803E-09 -3.952778E-10
       320  17  1.371325E+06 -1.060569E+05 -4.801298E+04 -1.205530E+04  3.430878E-10 -2.075831E-10
       320  18  1.313237E+06 -8.682145E+04 -1.737303E+04 -2.491242E+04 -4.857134E-10  3.882530E-10
       320  19  2.142696E+06  8.470323E+04  1.117625E+05 -2.980188E+04  2.066574E+04  1.245582E+04
       320  20  2.200681E+06  9.849304E+04  1.470285E+05 -1.695914E+04  4.648804E+04  1.521743E+04
       320  21  2.271488E+06  1.495891E+05  2.084213E+05 -4.447434E+04  7.231181E+04  1.702772E+04
       320  22  1.792318E+06 -1.724121E+03  2.922851E+04 -3.468201E+04  2.260501E+04  1.245591E+04
       320  23  1.785925E+06 -3.775374E+03  4.951614E+04 -1.450609E+04  4.784016E+04  1.521845E+04
       320  24  1.792260E+06  3.139272E+04  9.553741E+04 -3.468908E+04  7.307415E+04  1.702998E+04
       320  25  1.442052E+06 -8.816013E+04 -5.331385E+04 -3.955938E+04  2.454318E+04  1.245597E+04
       320  26  1.371327E+06 -1.060560E+05 -4.800801E+04 -1.205470E+04  4.919138E+04  1.521948E+04
       320  27  1.313243E+06 -8.681968E+04 -1.736226E+04 -2.491141E+04  7.383589E+04  1.703226E+04
       321   1  2.367920E+06  1.174831E+05  2.475124E+05  1.452888E+04 -8.516940E+04 -2.092659E+04
       321   2  2.377291E+06  1.143211E+05  3.370517E+05 -5.159748E+04 -1.979034E+05 -2.253887E+04
       321   3  2.503036E+06  5.169978E+05  6.013405E+05 -1.598215E+05 -3.106640E+05 -7.719043E+03
       321   4  1.814981E+06 -1.885821E+04  1.177554E+05 -3.497140E+04 -9.099267E+04 -2.092374E+04
       321   5  1.757445E+06 -3.846132E+04  1.912248E+05 -1.410281E+04 -1.937658E+05 -2.254916E+04
       321   6  1.814661E+06  3.462404E+05  4.326591E+05 -3.531755E+04 -2.965513E+05 -7.766712E+03
       321   7  1.262328E+06 -1.552120E+05 -1.202101E+04 -8.442751E+04 -9.681077E+04 -2.091996E+04
       321   8  1.137954E+06 -1.912658E+05  4.537246E+04  2.335427E+04 -1.896322E+05 -2.255896E+04
       321   9  1.126750E+06  1.755063E+05  2.639521E+05  8.904849E+04 -2.824541E+05 -7.808792E+03
       321  10  2.367912E+06  1.174806E+05  2.474980E+05  1.452745E+04  2.357120E-10 -3.778277E-10
       321  11  2.377249E+06  1.143101E+05  3.369774E+05 -5.160107E+04  8.378510E-10 -1.731742E-10
       321  12  2.502933E+06  5.169720E+05  6.011598E+05 -1.598234E+05  5.986147E-10  4.704315E-10
       321  13  1.814972E+06 -1.886089E+04  1.177391E+05 -3.497294E+04 -1.521284E-09 -9.779553E-10
       321  14  1.757405E+06 -3.847191E+04  1.911535E+05 -1.410633E+04 -4.668080E-10 -2.239192E-10
       321  15  1.814567E+06  3.462168E+05  4.324942E+05 -3.531941E+04  8.571718E-10 -5.133508E-10
       321  16  1.262318E+06 -1.552150E+05 -1.203941E+04 -8.442914E+04 -9.627305E-10  3.778402E-12
       321  17  1.137915E+06 -1.912760E+05  4.530406E+04  2.335083E+04 -6.897846E-10 -6.692417E-10
       321  18  1.126664E+06  1.754849E+05  2.638023E+05  8.904671E+04 -1.124941E-09  8.014368E-10
       321  19  2.367920E+06  1.174831E+05  2.475124E+05  1.452888E+04  8.516940E+04  2.092659E+04
       321  20  2.377291E+06  1.143211E+05  3.370517E+05 -5.159748E+04  1.979034E+05  2.253887E+04
       321  21  2.503036E+06  5.169978E+05  6.013405E+05 -1.598215E+05  3.106640E+05  7.719043E+03
       321  22  1.814981E+06 -1.885821E+04  1.177554E+05 -3.497140E+04  9.099267E+04  2.092374E+04
       321  23  1.757445E+06 -3.846132E+04  1.912248E+05 -1.410281E+04  1.937658E+05  2.254916E+04
       321  24  1.814661E+06  3.462404E+05  4.326591E+05 -3.531755E+04  2.965513E+05  7.766712E+03
       321  25  1.262328E+06 -1.552120E+05 -1.202101E+04 -8.442751E+04  9.681077E+04  2.091996E+04
       321  26  1.137954E+06 -1.912658E+05  4.537246E+04  2.335427E+04  1.896322E+05  2.255896E+04
       321  27  1.126750E+06  1.755063E+05  2.639521E+05  8.904849E+04  2.824541E+05  7.808792E+03
       322   1  1.566200E+05  3.059917E+05  2.092630E+05 -1.084466E+05 -3.080753E+03  1.667551E+05
       322   2 -8.771047E+04  2.101739E+05  5.603096E+04 -3.723650E+04 -9.777980E+03  1.058631E+05
       322   3 -9.006453E+04  1.826476E+05  2.900201E+03 -4.672149E+03 -1.267218E+04  4.498361E+04
       322   4  2.062316E+05  5.069596E+05  2.583447E+05 -3.418525E+04 -3.071630E+03  1.720481E+05
       322   5 -2.297204E+04  4.726441E+05  1.178621E+05 -1.507958E+04 -9.779606E+03  1.088504E+05
       322   6 -9.859248E+03  5.069946E+05  7.906106E+04 -3.461093E+04 -1.267509E+04  4.565958E+04
       322   7  2.558610E+05  7.079762E+05  3.074266E+05  4.010022E+04 -3.061245E+03  1.773429E+05
       322   8  4.176336E+04  7.351788E+05  1.796888E+05  7.086789E+03 -9.781018E+03  1.118388E+05
       322   9  7.034187E+04  8.314404E+05  1.552152E+05 -6.456540E+04 -1.267807E+04  4.633589E+04
       322  10  1.566125E+05  3.059619E+05  2.092107E+05 -1.084462E+05 -7.206501E-10 -4.552173E-10
       322  11 -8.771358E+04  2.101618E+05  5.600973E+04 -3.723567E+04 -2.627219E-09  9.473239E-10
       322  12 -9.006525E+04  1.826454E+05  2.896098E+03 -4.671690E+03  9.642710E-10  9.323352E-10
       322  13  2.062236E+05  5.069278E+05  2.582891E+05 -3.418483E+04  2.006815E-10  2.078242E-09
       322  14 -2.297532E+04  4.726314E+05  1.178397E+05 -1.507872E+04 -8.743836E-10  5.649555E-11
       322  15 -9.859979E+03  5.069924E+05  7.905685E+04 -3.461046E+04  6.614976E-10  1.086814E-09
       322  16  2.558525E+05  7.079425E+05  3.073676E+05  4.010065E+04 -5.230289E-10  4.193063E-10
       322  17  4.175990E+04  7.351653E+05  1.796652E+05  7.087670E+03 -3.956274E-10 -2.342382E-09
       322  18  7.034113E+04  8.314381E+05  1.552109E+05 -6.456493E+04 -2.857098E-10 -4.320236E-10
       322  19  1.566200E+05  3.059917E+05  2.092630E+05 -1.084466E+05  3.080753E+03 -1.667551E+05
       322  20 -8.771047E+04  2.101739E+05  5.603096E+04 -3.723650E+04  9.777980E+03 -1.058631E+05
       322  21 -9.006453E+04  1.826476E+05  2.900201E+03 -4.672149E+03  1.267218E+04 -4.498361E+04
       322  22  2.062316E+05  5.069596E+05  2.583447E+05 -3.418525E+04  3.071630E+03 -1.720481E+05
       322  23 -2.297204E+04  4.726441E+05  1.178621E+05 -1.507958E+04  9.779606E+03 -1.088504E+05
       322  24 -9.859248E+03  5.069946E+05  7.906106E+04 -3.461093E+04  1.267509E+04 -4.565958E+04
       322  25  2.558610E+05  7.079762E+05  3.074266E+05  4.010022E+04  3.061245E+03 -1.773429E+05
       322  26  4.176336E+04  7.351788E+05  1.796888E+05  7.086789E+03  9.781018E+03 -1.118388E+05
       322  27  7.034187E+04  8.314404E+05  1.552152E+05 -6.456540E+04  1.267807E+04 -4.633589E+04
       323   1 -7.932085E+04  1.004137E+05 -2.427369E+04 -4.214707E+04 -1.389543E+04  3.101580E+04
       323   2 -1.166841E+05  3.146897E+04 -5.713676E+04 -1.490061E+04 -1.678502E+04  6.065643E+03
       323   3 -1.154470E+05 -2.454508E+04 -6.410165E+04 -2.683191E+04 -1.843414E+04 -1.887812E+04
       323   4  1.808274E+04  4.946117E+05  6.882878E+04 -3.459221E+04 -1.389808E+04  3.316315E+04
       323   5 -3.872613E+03  4.880808E+05  5.042978E+04 -1.501020E+04 -1.678620E+04  7.453061E+03
       323   6  1.288907E+04  4.946002E+05  5.844519E+04 -3.460341E+04 -1.843366E+04 -1.825308E+04
       323   7  1.154754E+05  8.889527E+05  1.619206E+05 -2.703246E+04 -1.390069E+04  3.531184E+04
       323   8  1.089240E+05  9.448843E+05  1.579820E+05 -1.511980E+04 -1.678738E+04  8.841492E+03
       323   9  1.412060E+05  1.013993E+06  1.809734E+05 -4.238136E+04 -1.843319E+04 -1.762753E+04
       323  10 -7.932132E+04  1.004126E+05 -2.427586E+04 -4.214673E+04  2.796322E-10 -1.461019E-09
       323  11 -1.166844E+05  3.146885E+04 -5.713736E+04 -1.490053E+04 -1.660722E-10 -2.202925E-10
       323  12 -1.154474E+05 -2.454555E+04 -6.410296E+04 -2.683219E+04 -4.754927E-10 -1.070344E-10
       323  13  1.808223E+04  4.946105E+05  6.882635E+04 -3.459184E+04  4.313926E-10  2.026633E-09
       323  14 -3.872930E+03  4.880806E+05  5.042915E+04 -1.501010E+04  9.253171E-10  7.211314E-11
       323  15  1.288861E+04  4.945997E+05  5.844392E+04 -3.460368E+04  8.312354E-10  5.811025E-10
       323  16  1.154749E+05  8.889513E+05  1.619179E+05 -2.703207E+04  3.942795E-10  1.620373E-09
       323  17  1.089237E+05  9.448841E+05  1.579813E+05 -1.511968E+04 -4.990233E-10 -7.822386E-10
       323  18  1.412056E+05  1.013993E+06  1.809722E+05 -4.238162E+04 -6.944308E-10  3.212288E-10
       323  19 -7.932085E+04  1.004137E+05 -2.427369E+04 -4.214707E+04  1.389543E+04 -3.101580E+04
       323  20 -1.166841E+05  3.146897E+04 -5.713676E+04 -1.490061E+04  1.678502E+04 -6.065643E+03
       323  21 -1.154470E+05 -2.454508E+04 -6.410165E+04 -2.683191E+04  1.843414E+04  1.887812E+04
       323  22  1.808274E+04  4.946117E+05  6.882878E+04 -3.459221E+04  1.389808E+04 -3.316315E+04
       323  23 -3.872613E+03  4.880808E+05  5.042978E+04 -1.501020E+04  1.678620E+04 -7.453061E+03
       323  24  1.288907E+04  4.946002E+05  5.844519E+04 -3.460341E+04  1.843366E+04  1.825308E+04
       323  25  1.154754E+05  8.889527E+05  1.619206E+05 -2.703246E+04  1.390069E+04 -3.531184E+04
       323  26  1.089240E+05  9.448843E+05  1.579820E+05 -1.511980E+04  1.678738E+04 -8.841492E+03
       323  27  1.412060E+05  1.013993E+06  1.809734E+05 -4.238136E+04  1.843319E+04  1.762753E+04
       324   1 -1.522408E+05 -8.673519E+04 -7.452138E+04 -5.615261E+04 -2.228014E+04 -3.459412E+04
       324   2 -1.785149E+05 -1.751939E+05 -6.405329E+04  2.076087E+03 -2.359625E+04 -7.234764E+04
       324   3 -2.598646E+04 -2.137396E+05  1.576980E+04  2.108117E+04 -7.790673E+03 -1.100871E+05
       324   4 -6.598168E+03  5.031630E+05  6.418888E+04 -3.464698E+04 -2.228631E+04 -2.866576E+04
       324   5 -1.722577E+04  4.773164E+05  8.981502E+04 -1.499350E+04 -2.358942E+04 -7.673548E+04
       324   6  1.526329E+05  5.031107E+05  1.919045E+05 -3.455872E+04 -7.774134E+03 -1.247958E+05
       324   7  1.390214E+05  1.093382E+06  2.028757E+05 -1.312070E+04 -2.229206E+04 -2.273179E+04
       324   8  1.440340E+05  1.130219E+06  2.436542E+05 -3.208105E+04 -2.358236E+04 -8.112788E+04
       324   9  3.312257E+05  1.220436E+06  3.680039E+05 -9.026293E+04 -7.754974E+03 -1.395213E+05
       324  10 -1.522416E+05 -8.673661E+04 -7.452456E+04 -5.615323E+04  2.772525E-10 -6.709303E-10
       324  11 -1.785169E+05 -1.751997E+05 -6.406417E+04  2.074712E+03  2.280578E-10 -1.154044E-10
       324  12 -2.598978E+04 -2.137527E+05  1.574691E+04  2.108048E+04 -4.851898E-11  1.069277E-10
       324  13 -6.598922E+03  5.031620E+05  6.418641E+04 -3.464749E+04 -5.138176E-10  1.056064E-09
       324  14 -1.722794E+04  4.773100E+05  8.980291E+04 -1.499496E+04  2.411269E-10  5.120364E-11
       324  15  1.526286E+05  5.030940E+05  1.918751E+05 -3.455950E+04 -1.094941E-10  1.388009E-10
       324  16  1.390208E+05  1.093382E+06  2.028738E+05 -1.312111E+04  3.602786E-10  4.047227E-10
       324  17  1.440317E+05  1.130212E+06  2.436408E+05 -3.208259E+04  2.269852E-10 -8.385899E-10
       324  18  3.312204E+05  1.220415E+06  3.679672E+05 -9.026380E+04 -9.766676E-11  3.414368E-11
       324  19 -1.522408E+05 -8.673519E+04 -7.452138E+04 -5.615261E+04  2.228014E+04  3.459412E+04
       324  20 -1.785149E+05 -1.751939E+05 -6.405329E+04  2.076087E+03  2.359625E+04  7.234764E+04
       324  21 -2.598646E+04 -2.137396E+05  1.576980E+04  2.108117E+04  7.790673E+03  1.100871E+05
       324  22 -6.598168E+03  5.031630E+05  6.418888E+04 -3.464698E+04  2.228631E+04  2.866576E+04
       324  23 -1.722577E+04  4.773164E+05  8.981502E+04 -1.499350E+04  2.358942E+04  7.673548E+04
       324  24  1.526329E+05  5.031107E+05  1.919045E+05 -3.455872E+04  7.774134E+03  1.247958E+05
       324  25  1.390214E+05  1.093382E+06  2.028757E+05 -1.312070E+04  2.229206E+04  2.273179E+04
       324  26  1.440340E+05  1.130219E+06  2.436542E+05 -3.208105E+04  2.358236E+04  8.112788E+04
       324  27  3.312257E+05  1.220436E+06  3.680039E+05 -9.026293E+04  7.754974E+03  1.395213E+05
       325   1 -2.836845E+06 -1.066165E+06 -5.739409E+05 -1.086573E+06 -2.745835E+05 -8.202388E+04
       325   2 -2.768496E+06 -8.041268E+05 -3.577296E+05 -1.054472E+06 -1.758255E+05  5.677589E+03
       325   3 -2.754966E+06 -6.904635E+05 -2.647567E+05 -1.003981E+06 -6.512757E+04  6.182719E+04
       325   4 -1.705178E+06 -5.085199E+05 -2.578728E+05 -6.410425E+05 -1.740427E+05 -4.418519E+04
       325   5 -1.668849E+06 -3.402319E+05 -1.199754E+05 -6.876262E+05 -1.281891E+05  2.359773E+04
       325   6 -1.676719E+06 -3.096740E+05 -6.314821E+04 -7.158542E+05 -7.042077E+04  5.981992E+04
       325   7 -5.722110E+05  4.950129E+04  5.811569E+04 -1.946849E+05 -7.330357E+04 -6.217693E+03
       325   8 -5.679422E+05  1.238788E+05  1.177186E+05 -3.201390E+05 -8.046187E+04  4.156374E+04
       325   9 -5.972385E+05  7.121056E+04  1.384187E+05 -4.272635E+05 -7.572389E+04  5.780919E+04
       325  10 -2.836928E+06 -1.066193E+06 -5.740960E+05 -1.086592E+06 -4.028875E-10 -3.281608E-10
       325  11 -2.768529E+06 -8.041352E+05 -3.577880E+05 -1.054471E+06 -1.641552E-09 -3.851569E-10
       325  12 -2.754972E+06 -6.904687E+05 -2.647718E+05 -1.003978E+06  2.385119E-10 -5.886410E-10
       325  13 -1.705211E+06 -5.085301E+05 -2.579336E+05 -6.410487E+05  9.782840E-10  9.765473E-10
       325  14 -1.668867E+06 -3.402369E+05 -1.200074E+05 -6.876237E+05  4.623510E-10 -2.913562E-09
       325  15 -1.676725E+06 -3.096791E+05 -6.316425E+04 -7.158508E+05 -5.777456E-10  3.877335E-10
       325  16 -5.722168E+05  4.949981E+04  5.810551E+04 -1.946853E+05 -1.482582E-10  1.088667E-09
       325  17 -5.679496E+05  1.238752E+05  1.177032E+05 -3.201363E+05  5.678899E-10  1.296888E-09
       325  18 -5.972455E+05  7.120544E+04  1.384016E+05 -4.272600E+05 -2.417583E-11 -1.034270E-10
       325  19 -2.836845E+06 -1.066165E+06 -5.739409E+05 -1.086573E+06  2.745835E+05  8.202388E+04
       325  20 -2.768496E+06 -8.041268E+05 -3.577296E+05 -1.054472E+06  1.758255E+05 -5.677589E+03
       325  21 -2.754966E+06 -6.904635E+05 -2.647567E+05 -1.003981E+06  6.512757E+04 -6.182719E+04
       325  22 -1.705178E+06 -5.085199E+05 -2.578728E+05 -6.410425E+05  1.740427E+05  4.418519E+04
       325  23 -1.668849E+06 -3.402319E+05 -1.199754E+05 -6.876262E+05  1.281891E+05 -2.359773E+04
       325  24 -1.676719E+06 -3.096740E+05 -6.314821E+04 -7.158542E+05  7.042077E+04 -5.981992E+04
       325  25 -5.722110E+05  4.950129E+04  5.811569E+04 -1.946849E+05  7.330357E+04  6.217693E+03
       325  26 -5.679422E+05  1.238788E+05  1.177186E+05 -3.201390E+05  8.046187E+04 -4.156374E+04
       325  27 -5.972385E+05  7.121056E+04  1.384187E+05 -4.272635E+05  7.572389E+04 -5.780919E+04
       326   1 -2.682738E+06 -6.849743E+05 -2.375150E+05 -9.990669E+05 -6.122978E+04  6.063699E+04
       326   2 -2.609235E+06 -6.386563E+05 -1.955642E+05 -9.698988E+05 -4.330840E+04  6.505433E+04
       326   3 -2.527674E+06 -6.129703E+05 -1.683970E+05 -9.543174E+05 -2.436574E+04  6.675553E+04
       326   4 -1.668953E+06 -3.120038E+05 -4.760639E+04 -7.121838E+05 -6.241177E+04  6.017792E+04
       326   5 -1.672727E+06 -2.974035E+05 -2.506480E+04 -7.071568E+05 -4.902916E+04  6.288943E+04
       326   6 -1.667539E+06 -3.025231E+05 -1.368279E+04 -7.157172E+05 -3.462852E+04  6.288602E+04
       326   7 -6.540875E+05  6.106877E+04  1.422618E+05 -4.248606E+05 -6.359581E+04  5.971809E+04
       326   8 -7.352980E+05  4.393289E+04  1.454021E+05 -4.440444E+05 -5.475913E+04  6.072104E+04
       326   9 -8.066311E+05  7.990024E+03  1.410041E+05 -4.768104E+05 -4.490643E+04  5.901089E+04
       326  10 -2.682743E+06 -6.849793E+05 -2.375289E+05 -9.990639E+05 -6.798504E-11 -1.454026E-10
       326  11 -2.609238E+06 -6.386614E+05 -1.955756E+05 -9.698965E+05 -2.206824E-10 -1.100416E-10
       326  12 -2.527675E+06 -6.129753E+05 -1.684065E+05 -9.543161E+05  1.304224E-09 -8.192763E-10
       326  13 -1.668958E+06 -3.120087E+05 -4.762051E+04 -7.121808E+05  2.160503E-10 -1.021827E-09
       326  14 -1.672731E+06 -2.974084E+05 -2.507674E+04 -7.071543E+05 -1.179988E-09 -9.793890E-10
       326  15 -1.667541E+06 -3.025276E+05 -1.369247E+04 -7.157155E+05  1.843033E-10 -5.423540E-10
       326  16 -6.540928E+05  6.106386E+04  1.422475E+05 -4.248575E+05  2.382769E-10 -1.356506E-10
       326  17 -7.353022E+05  4.392813E+04  1.453896E+05 -4.440418E+05  2.074795E-11  2.480547E-10
       326  18 -8.066342E+05  7.985748E+03  1.409938E+05 -4.768083E+05 -1.035003E-09 -6.051842E-10
       326  19 -2.682738E+06 -6.849743E+05 -2.375150E+05 -9.990669E+05  6.122978E+04 -6.063699E+04
       326  20 -2.609235E+06 -6.386563E+05 -1.955642E+05 -9.698988E+05  4.330840E+04 -6.505433E+04
       326  21 -2.527674E+06 -6.129703E+05 -1.683970E+05 -9.543174E+05  2.436574E+04 -6.675553E+04
       326  22 -1.668953E+06 -3.120038E+05 -4.760639E+04 -7.121838E+05  6.241177E+04 -6.017792E+04
       326  23 -1.672727E+06 -2.974035E+05 -2.506480E+04 -7.071568E+05  4.902916E+04 -6.288943E+04
       326  24 -1.667539E+06 -3.025231E+05 -1.368279E+04 -7.157172E+05  3.462852E+04 -6.288602E+04
       326  25 -6.540875E+05  6.106877E+04  1.422618E+05 -4.248606E+05  6.359581E+04 -5.971809E+04
       326  26 -7.352980E+05  4.393289E+04  1.454021E+05 -4.440444E+05  5.475913E+04 -6.072104E+04
       326  27 -8.066311E+05  7.990024E+03  1.410041E+05 -4.768104E+05  4.490643E+04 -5.901089E+04
       327   1 -2.474505E+06 -5.949343E+05 -1.551401E+05 -9.404187E+05 -2.143650E+04  6.374399E+04
       327   2 -2.401181E+06 -5.590890E+05 -1.359947E+05 -9.107164E+05 -1.593101E+04  5.891834E+04
       327   3 -2.315125E+06 -5.369096E+05 -1.193448E+05 -8.961496E+05 -1.033506E+04  5.384241E+04
       327   4 -1.666890E+06 -3.026993E+05 -1.028097E+04 -7.154764E+05 -3.137746E+04  5.999779E+04
       327   5 -1.673246E+06 -2.957414E+05 -5.647848E+03 -7.079601E+05 -2.628846E+04  5.501901E+04
       327   6 -1.666797E+06 -3.023663E+05 -3.178554E+03 -7.155810E+05 -2.110953E+04  4.978995E+04
       327   7 -8.585766E+05 -1.039899E+04  1.345588E+05 -4.902578E+05 -4.133236E+04  5.624638E+04
       327   8 -9.447471E+05 -3.234179E+04  1.246827E+05 -5.049802E+05 -3.665897E+04  5.111479E+04
       327   9 -1.018024E+06 -6.778283E+04  1.129741E+05 -5.348358E+05 -3.189606E+04  4.573299E+04
       327  10 -2.474507E+06 -5.949388E+05 -1.551486E+05 -9.404176E+05  1.020507E-09 -1.914002E-09
       327  11 -2.401182E+06 -5.590928E+05 -1.360017E+05 -9.107157E+05 -5.587497E-10 -5.019155E-10
       327  12 -2.315125E+06 -5.369127E+05 -1.193505E+05 -8.961492E+05 -1.313851E-09 -2.524002E-10
       327  13 -1.666892E+06 -3.027034E+05 -1.028958E+04 -7.154748E+05  6.217673E-10 -1.252347E-09
       327  14 -1.673248E+06 -2.957448E+05 -5.654828E+03 -7.079590E+05  7.167449E-10 -9.784137E-10
       327  15 -1.666798E+06 -3.023691E+05 -3.184045E+03 -7.155802E+05 -6.815700E-10  3.661961E-10
       327  16 -8.585793E+05 -1.040284E+04  1.345497E+05 -4.902559E+05  9.223397E-10 -4.403930E-10
       327  17 -9.447493E+05 -3.234495E+04  1.246753E+05 -5.049787E+05  1.142586E-10  5.083088E-10
       327  18 -1.018026E+06 -6.778535E+04  1.129683E+05 -5.348346E+05  4.848462E-10  6.038234E-10
       327  19 -2.474505E+06 -5.949343E+05 -1.551401E+05 -9.404187E+05  2.143650E+04 -6.374399E+04
       327  20 -2.401181E+06 -5.590890E+05 -1.359947E+05 -9.107164E+05  1.593101E+04 -5.891834E+04
       327  21 -2.315125E+06 -5.369096E+05 -1.193448E+05 -8.961496E+05  1.033506E+04 -5.384241E+04
       327  22 -1.666890E+06 -3.026993E+05 -1.028097E+04 -7.154764E+05  3.137746E+04 -5.999779E+04
       327  23 -1.673246E+06 -2.957414E+05 -5.647848E+03 -7.079601E+05  2.628846E+04 -5.501901E+04
       327  24 -1.666797E+06 -3.023663E+05 -3.178554E+03 -7.155810E+05  2.110953E+04 -4.978995E+04
       327  25 -8.585766E+05 -1.039899E+04  1.345588E+05 -4.902578E+05  4.133236E+04 -5.624638E+04
       327  26 -9.447471E+05 -3.234179E+04  1.246827E+05 -5.049802E+05  3.665897E+04 -5.111479E+04
       327  27 -1.018024E+06 -6.778283E+04  1.129741E+05 -5.348358E+05  3.189606E+04 -4.573299E+04
       328   1 -2.262806E+06 -5.180007E+05 -1.088433E+05 -8.816688E+05 -8.468917E+03  5.027420E+04
       328   2 -2.189133E+06 -4.823069E+05 -9.373823E+04 -8.516787E+05 -5.236510E+03  4.415424E+04
       328   3 -2.102204E+06 -4.599636E+05 -7.923541E+04 -8.369516E+05 -1.994297E+03  3.800014E+04
       328   4 -1.666692E+06 -3.023865E+05 -2.445955E+03 -7.155751E+05 -1.923823E+04  4.622552E+04
       328   5 -1.673306E+06 -2.956964E+05 -1.529768E+03 -7.079443E+05 -1.606241E+04  4.008689E+04
       328   6 -1.666659E+06 -3.023459E+05 -1.171299E+03 -7.155786E+05 -1.287689E+04  3.391406E+04
       328   7 -1.070207E+06 -8.674050E+04  1.039385E+05 -5.493337E+05 -3.001851E+04  4.217274E+04
       328   8 -1.157196E+06 -1.090604E+05  9.067032E+04 -5.640980E+05 -2.689794E+04  3.601593E+04
       328   9 -1.230909E+06 -1.447084E+05  7.688810E+04 -5.941246E+05 -2.376774E+04  2.982488E+04
       328  10 -2.262807E+06 -5.180034E+05 -1.088482E+05 -8.816684E+05 -6.662411E-10  4.871439E-11
       328  11 -2.189134E+06 -4.823090E+05 -9.374194E+04 -8.516785E+05  2.113838E-11 -6.947744E-11
       328  12 -2.102205E+06 -4.599651E+05 -7.923813E+04 -8.369515E+05 -3.642966E-11  1.191878E-11
       328  13 -1.666693E+06 -3.023889E+05 -2.450661E+03 -7.155744E+05  1.097023E-10  1.527900E-10
       328  14 -1.673306E+06 -2.956982E+05 -1.533269E+03 -7.079438E+05 -2.487477E-10  3.242319E-11
       328  15 -1.666660E+06 -3.023472E+05 -1.173770E+03 -7.155782E+05 -6.590054E-11 -1.250343E-10
       328  16 -1.070208E+06 -8.674265E+04  1.039334E+05 -5.493327E+05 -2.217600E-10  6.646587E-10
       328  17 -1.157197E+06 -1.090620E+05  9.066653E+04 -5.640972E+05  1.187669E-09  1.430225E-11
       328  18 -1.230909E+06 -1.447095E+05  7.688537E+04 -5.941241E+05 -1.214234E-10 -2.870037E-10
       328  19 -2.262806E+06 -5.180007E+05 -1.088433E+05 -8.816688E+05  8.468917E+03 -5.027420E+04
       328  20 -2.189133E+06 -4.823069E+05 -9.373823E+04 -8.516787E+05  5.236510E+03 -4.415424E+04
       328  21 -2.102204E+06 -4.599636E+05 -7.923541E+04 -8.369516E+05  1.994297E+03 -3.800014E+04
       328  22 -1.666692E+06 -3.023865E+05 -2.445955E+03 -7.155751E+05  1.923823E+04 -4.622552E+04
       328  23 -1.673306E+06 -2.956964E+05 -1.529768E+03 -7.079443E+05  1.606241E+04 -4.008689E+04
       328  24 -1.666659E+06 -3.023459E+05 -1.171299E+03 -7.155786E+05  1.287689E+04 -3.391406E+04
       328  25 -1.070207E+06 -8.674050E+04  1.039385E+05 -5.493337E+05  3.001851E+04 -4.217274E+04
       328  26 -1.157196E+06 -1.090604E+05  9.067032E+04 -5.640980E+05  2.689794E+04 -3.601593E+04
       328  27 -1.230909E+06 -1.447084E+05  7.688810E+04 -5.941246E+05  2.376774E+04 -2.982488E+04
       329   1 -2.049666E+06 -4.408986E+05 -6.940498E+04 -8.223747E+05 -3.690086E+02  3.430541E+04
       329   2 -1.975586E+06 -4.050482E+05 -5.546715E+04 -7.922640E+05  2.788024E+03  2.809010E+04
       329   3 -1.888197E+06 -3.826018E+05 -4.206508E+04 -7.775012E+05  5.944679E+03  2.187096E+04
       329   4 -1.666638E+06 -3.023479E+05 -1.156918E+03 -7.155974E+05 -1.126647E+04  3.021495E+04
       329   5 -1.673275E+06 -2.956097E+05 -1.440068E+03 -7.079327E+05 -8.115730E+03  2.399880E+04
       329   6 -1.666610E+06 -3.022744E+05 -2.254516E+03 -7.156176E+05 -4.965477E+03  1.777879E+04
       329   7 -1.283454E+06 -1.637832E+05  6.708678E+04 -6.087584E+05 -2.217111E+04  2.612179E+04
       329   8 -1.370870E+06 -1.861630E+05  5.258404E+04 -6.235632E+05 -1.902510E+04  1.990539E+04
       329   9 -1.444974E+06 -2.219431E+05  3.755427E+04 -6.537140E+05 -1.587969E+04  1.368510E+04
       329  10 -2.049666E+06 -4.408998E+05 -6.940720E+04 -8.223747E+05 -7.653026E-10 -1.238604E-10
       329  11 -1.975586E+06 -4.050490E+05 -5.546865E+04 -7.922641E+05 -3.023708E-10  1.018924E-10
       329  12 -1.888197E+06 -3.826023E+05 -4.206605E+04 -7.775013E+05  3.658031E-10 -2.022450E-10
       329  13 -1.666638E+06 -3.023489E+05 -1.158870E+03 -7.155972E+05 -5.846461E-12 -1.578670E-10
       329  14 -1.673276E+06 -2.956104E+05 -1.441273E+03 -7.079325E+05 -1.657697E-10 -1.161471E-10
       329  15 -1.666610E+06 -3.022748E+05 -2.255155E+03 -7.156176E+05  2.998973E-10 -4.103529E-10
       329  16 -1.283455E+06 -1.637840E+05  6.708458E+04 -6.087579E+05  9.857895E-10 -9.270371E-11
       329  17 -1.370870E+06 -1.861636E+05  5.258262E+04 -6.235629E+05  9.295027E-11 -1.360579E-10
       329  18 -1.444974E+06 -2.219434E+05  3.755344E+04 -6.537138E+05 -6.357886E-10 -7.282246E-10
       329  19 -2.049666E+06 -4.408986E+05 -6.940498E+04 -8.223747E+05  3.690086E+02 -3.430541E+04
       329  20 -1.975586E+06 -4.050482E+05 -5.546715E+04 -7.922640E+05 -2.788024E+03 -2.809010E+04
       329  21 -1.888197E+06 -3.826018E+05 -4.206508E+04 -7.775012E+05 -5.944679E+03 -2.187096E+04
       329  22 -1.666638E+06 -3.023479E+05 -1.156918E+03 -7.155974E+05  1.126647E+04 -3.021495E+04
       329  23 -1.673275E+06 -2.956097E+05 -1.440068E+03 -7.079327E+05  8.115730E+03 -2.399880E+04
       329  24 -1.666610E+06 -3.022744E+05 -2.254516E+03 -7.156176E+05  4.965477E+03 -1.777879E+04
       329  25 -1.283454E+06 -1.637832E+05  6.708678E+04 -6.087584E+05  2.217111E+04 -2.612179E+04
       329  26 -1.370870E+06 -1.861630E+05  5.258404E+04 -6.235632E+05  1.902510E+04 -1.990539E+04
       329  27 -1.444974E+06 -2.219431E+05  3.755427E+04 -6.537140E+05  1.587969E+04 -1.368510E+04
       330   1 -1.835467E+06 -3.634976E+05 -3.287063E+04 -7.629480E+05  7.810625E+03  1.825400E+04
       330   2 -1.761012E+06 -3.275673E+05 -2.080471E+04 -7.327518E+05  1.267094E+04  1.270603E+04
       330   3 -1.673556E+06 -3.053643E+05 -1.062650E+04 -7.179540E+05  1.750142E+04  7.237161E+03
       330   4 -1.666670E+06 -3.022617E+05 -2.918799E+03 -7.156619E+05 -3.118136E+03  1.415544E+04
       330   5 -1.673164E+06 -2.954818E+05 -5.152668E+03 -7.079240E+05  1.874603E+03  8.657538E+03
       330   6 -1.666694E+06 -3.024570E+05 -9.380593E+03 -7.155877E+05  6.837161E+03  3.238627E+03
       330   7 -1.497840E+06 -2.410223E+05  2.703310E+04 -6.683633E+05 -1.405018E+04  1.005564E+04
       330   8 -1.585308E+06 -2.633952E+05  1.049975E+04 -6.830927E+05 -8.923423E+03  4.608400E+03
       330   9 -1.659832E+06 -2.995496E+05 -8.134197E+03 -7.132213E+05 -3.827228E+03 -7.599741E+02
       330  10 -1.835467E+06 -3.634980E+05 -3.287138E+04 -7.629481E+05 -2.325790E-10 -3.964078E-10
       330  11 -1.761012E+06 -3.275675E+05 -2.080532E+04 -7.327520E+05 -1.290715E-10 -4.007104E-10
       330  12 -1.673557E+06 -3.053644E+05 -1.062718E+04 -7.179541E+05  3.680861E-10 -6.815009E-11
       330  13 -1.666670E+06 -3.022619E+05 -2.919194E+03 -7.156619E+05 -4.723236E-10 -4.191000E-10
       330  14 -1.673164E+06 -2.954819E+05 -5.152816E+03 -7.079241E+05  8.774762E-10  2.402343E-10
       330  15 -1.666694E+06 -3.024570E+05 -9.380701E+03 -7.155877E+05 -1.065875E-10  2.952712E-11
       330  16 -1.497841E+06 -2.410224E+05  2.703254E+04 -6.683632E+05  8.609170E-10 -1.194490E-10
       330  17 -1.585308E+06 -2.633953E+05  1.049956E+04 -6.830927E+05 -6.092848E-10 -1.826254E-10
       330  18 -1.659832E+06 -2.995496E+05 -8.134226E+03 -7.132213E+05 -1.355707E-09 -6.157912E-10
       330  19 -1.835467E+06 -3.634976E+05 -3.287063E+04 -7.629480E+05 -7.810625E+03 -1.825400E+04
       330  20 -1.761012E+06 -3.275673E+05 -2.080471E+04 -7.327518E+05 -1.267094E+04 -1.270603E+04
       330  21 -1.673556E+06 -3.053643E+05 -1.062650E+04 -7.179540E+05 -1.750142E+04 -7.237161E+03
       330  22 -1.666670E+06 -3.022617E+05 -2.918799E+03 -7.156619E+05  3.118136E+03 -1.415544E+04
       330  23 -1.673164E+06 -2.954818E+05 -5.152668E+03 -7.079240E+05 -1.874603E+03 -8.657538E+03
       330  24 -1.666694E+06 -3.024570E+05 -9.380593E+03 -7.155877E+05 -6.837161E+03 -3.238627E+03
       330  25 -1.497840E+06 -2.410223E+05  2.703310E+04 -6.683633E+05  1.405018E+04 -1.005564E+04
       330  26 -1.585308E+06 -2.633952E+05  1.049975E+04 -6.830927E+05  8.923423E+03 -4.608400E+03
       330  27 -1.659832E+06 -2.995496E+05 -8.134197E+03 -7.132213E+05  3.827228E+03  7.599741E+02
       331   1 -1.620606E+06 -2.866943E+05 -3.807296E+03 -7.042983E+05  2.076357E+04  4.182470E+03
       331   2 -1.547044E+06 -2.501095E+05  7.455144E+02 -6.710556E+05  3.287187E+04  1.954494E+03
       331   3 -1.463553E+06 -2.327670E+05 -3.625240E+03 -6.520448E+05  4.461967E+04  6.922435E+02
       331   4 -1.667242E+06 -3.023184E+05 -1.248711E+04 -7.158651E+05  9.972628E+03  1.364346E+02
       331   5 -1.672655E+06 -2.968164E+05 -2.285437E+04 -7.071475E+05  2.370086E+04 -1.484799E+03
       331   6 -1.668471E+06 -3.108807E+05 -4.343388E+04 -7.126651E+05  3.706733E+04 -2.140770E+03
       331   7 -1.713875E+06 -3.179422E+05 -2.116639E+04 -7.274310E+05 -8.173369E+02 -3.909295E+03
       331   8 -1.798250E+06 -3.435216E+05 -4.645451E+04 -7.432325E+05  1.453184E+04 -4.923304E+03
       331   9 -1.873346E+06 -3.889902E+05 -8.324467E+04 -7.732669E+05  2.951759E+04 -4.972697E+03
       331  10 -1.620607E+06 -2.866945E+05 -3.808142E+03 -7.042984E+05  5.784410E-10  3.874618E-11
       331  11 -1.547045E+06 -2.501098E+05  7.434715E+02 -6.710557E+05  1.102931E-09  6.140134E-10
       331  12 -1.463555E+06 -2.327675E+05 -3.628991E+03 -6.520448E+05  7.638066E-10  6.179673E-10
       331  13 -1.667242E+06 -3.023185E+05 -1.248730E+04 -7.158651E+05 -1.607734E-10 -1.249790E-10
       331  14 -1.672656E+06 -2.968166E+05 -2.285543E+04 -7.071475E+05 -4.929426E-10 -2.130115E-11
       331  15 -1.668472E+06 -3.108811E+05 -4.343648E+04 -7.126650E+05  1.752830E-10  1.674691E-10
       331  16 -1.713875E+06 -3.179422E+05 -2.116642E+04 -7.274310E+05 -5.309622E-10 -2.585424E-10
       331  17 -1.798250E+06 -3.435217E+05 -4.645495E+04 -7.432324E+05 -8.359951E-10  6.318542E-11
       331  18 -1.873347E+06 -3.889905E+05 -8.324636E+04 -7.732668E+05 -1.497707E-09 -4.922304E-10
       331  19 -1.620606E+06 -2.866943E+05 -3.807296E+03 -7.042983E+05 -2.076357E+04 -4.182470E+03
       331  20 -1.547044E+06 -2.501095E+05  7.455144E+02 -6.710556E+05 -3.287187E+04 -1.954494E+03
       331  21 -1.463553E+06 -2.327670E+05 -3.625240E+03 -6.520448E+05 -4.461967E+04 -6.922435E+02
       331  22 -1.667242E+06 -3.023184E+05 -1.248711E+04 -7.158651E+05 -9.972628E+03 -1.364346E+02
       331  23 -1.672655E+06 -2.968164E+05 -2.285437E+04 -7.071475E+05 -2.370086E+04  1.484799E+03
       331  24 -1.668471E+06 -3.108807E+05 -4.343388E+04 -7.126651E+05 -3.706733E+04  2.140770E+03
       331  25 -1.713875E+06 -3.179422E+05 -2.116639E+04 -7.274310E+05  8.173369E+02  3.909295E+03
       331  26 -1.798250E+06 -3.435216E+05 -4.645451E+04 -7.432325E+05 -1.453184E+04  4.923304E+03
       331  27 -1.873346E+06 -3.889902E+05 -8.324467E+04 -7.732669E+05 -2.951759E+04  4.972697E+03
       332   1 -1.406369E+06 -2.220846E+05 -7.196581E+03 -6.531399E+05  5.385081E+04  3.844909E+02
       332   2 -1.368707E+06 -1.710181E+05 -3.679259E+04 -5.498265E+05  9.180638E+04  1.496396E+04
       332   3 -1.365163E+06 -2.445184E+05 -1.253073E+05 -4.327863E+05  1.255231E+05  4.085834E+04
       332   4 -1.675344E+06 -3.089354E+05 -5.761708E+04 -7.162527E+05  4.481722E+04 -3.003236E+03
       332   5 -1.669262E+06 -3.355900E+05 -1.094470E+05 -6.890746E+05  1.017663E+05  1.868977E+04
       332   6 -1.701114E+06 -4.906453E+05 -2.352980E+05 -6.481731E+05  1.544704E+05  5.168852E+04
       332   7 -1.944246E+06 -3.957839E+05 -1.080405E+05 -7.793420E+05  3.578778E+04 -6.389814E+03
       332   8 -1.969709E+06 -5.001123E+05 -1.821040E+05 -8.282468E+05  1.117209E+05  2.241137E+04
       332   9 -2.036902E+06 -7.366221E+05 -3.452861E+05 -8.634136E+05  1.833996E+05  6.249774E+04
       332  10 -1.406372E+06 -2.220854E+05 -7.202042E+03 -6.531400E+05 -1.702147E-10  2.379475E-10
       332  11 -1.368716E+06 -1.710206E+05 -3.680889E+04 -5.498276E+05  5.483201E-11  5.444484E-10
       332  12 -1.365180E+06 -2.445245E+05 -1.253401E+05 -4.327904E+05 -2.959116E-11  4.268353E-10
       332  13 -1.675347E+06 -3.089359E+05 -5.762088E+04 -7.162526E+05 -8.933853E-10  1.123751E-10
       332  14 -1.669273E+06 -3.355932E+05 -1.094672E+05 -6.890762E+05  2.049798E-10  4.526074E-10
       332  15 -1.701141E+06 -4.906546E+05 -2.353480E+05 -6.481795E+05 -2.836793E-10  1.661015E-10
       332  16 -1.944247E+06 -3.957843E+05 -1.080430E+05 -7.793418E+05  1.633042E-10  2.548791E-10
       332  17 -1.969723E+06 -5.001162E+05 -1.821285E+05 -8.282489E+05 -7.723837E-10  2.126438E-10
       332  18 -2.036939E+06 -7.366354E+05 -3.453569E+05 -8.634229E+05 -1.292062E-09 -1.345651E-10
       332  19 -1.406369E+06 -2.220846E+05 -7.196581E+03 -6.531399E+05 -5.385081E+04 -3.844909E+02
       332  20 -1.368707E+06 -1.710181E+05 -3.679259E+04 -5.498265E+05 -9.180638E+04 -1.496396E+04
       332  21 -1.365163E+06 -2.445184E+05 -1.253073E+05 -4.327863E+05 -1.255231E+05 -4.085834E+04
       332  22 -1.675344E+06 -3.089354E+05 -5.761708E+04 -7.162527E+05 -4.481722E+04  3.003236E+03
       332  23 -1.669262E+06 -3.355900E+05 -1.094470E+05 -6.890746E+05 -1.017663E+05 -1.868977E+04
       332  24 -1.701114E+06 -4.906453E+05 -2.352980E+05 -6.481731E+05 -1.544704E+05 -5.168852E+04
       332  25 -1.944246E+06 -3.957839E+05 -1.080405E+05 -7.793420E+05 -3.578778E+04  6.389814E+03
       332  26 -1.969709E+06 -5.001123E+05 -1.821040E+05 -8.282468E+05 -1.117209E+05 -2.241137E+04
       332  27 -2.036902E+06 -7.366221E+05 -3.452861E+05 -8.634136E+05 -1.833996E+05 -6.249774E+04
       333   1  6.291715E+05  1.139404E+05  1.711299E+05  5.944941E+04  1.827151E+05  5.059119E+03
       333   2  6.330746E+05 -1.242453E+05  2.887457E+04  1.590157E+04  1.226071E+05  1.469358E+04
       333   3  7.101564E+05 -1.017704E+05 -9.055196E+03 -5.278999E+04  6.250398E+04  1.376664E+04
       333   4  1.072705E+06  2.240936E+05  2.799713E+05 -2.097083E+04  1.918174E+05  5.045494E+03
       333   5  1.035652E+06 -2.488832E+04  1.237187E+05 -8.275560E+03  1.253191E+05  1.469067E+04
       333   6  1.072827E+06 -1.220555E+04  7.617136E+04 -2.072233E+04  5.883027E+04  1.376662E+04
       333   7  1.516432E+06  3.342567E+05  3.888020E+05 -1.014486E+05  2.009261E+05  5.029525E+03
       333   8  1.438380E+06  7.445930E+04  2.185520E+05 -3.246848E+04  1.280327E+05  1.468756E+04
       333   9  1.435620E+06  7.735378E+04  1.613895E+05  1.136413E+04  5.515442E+04  1.376621E+04
       333  10  6.291356E+05  1.139314E+05  1.710672E+05  5.944866E+04  7.082987E-10 -1.434677E-09
       333  11  6.330584E+05 -1.242495E+05  2.884595E+04  1.590012E+04 -2.785454E-10 -3.262910E-10
       333  12  7.101522E+05 -1.017716E+05 -9.062886E+03 -5.279068E+04 -2.218519E-09 -8.365586E-10
       333  13  1.072666E+06  2.240837E+05  2.799022E+05 -2.097161E+04  4.597713E-10  6.126903E-10
       333  14  1.035636E+06 -2.489276E+04  1.236888E+05 -8.277042E+03 -6.798939E-10 -4.829755E-10
       333  15  1.072823E+06 -1.220668E+04  7.616451E+04 -2.072298E+04 -4.666460E-10 -9.803014E-10
       333  16  1.516389E+06  3.342459E+05  3.887263E+05 -1.014494E+05 -1.295371E-09  6.470160E-10
       333  17  1.438363E+06  7.445468E+04  2.185209E+05 -3.246999E+04  9.286254E-10  4.403897E-11
       333  18  1.435616E+06  7.735276E+04  1.613834E+05  1.136352E+04  2.640153E-09  1.377082E-09
       333  19  6.291715E+05  1.139404E+05  1.711299E+05  5.944941E+04 -1.827151E+05 -5.059119E+03
       333  20  6.330746E+05 -1.242453E+05  2.887457E+04  1.590157E+04 -1.226071E+05 -1.469358E+04
       333  21  7.101564E+05 -1.017704E+05 -9.055196E+03 -5.278999E+04 -6.250398E+04 -1.376664E+04
       333  22  1.072705E+06  2.240936E+05  2.799713E+05 -2.097083E+04 -1.918174E+05 -5.045494E+03
       333  23  1.035652E+06 -2.488832E+04  1.237187E+05 -8.275560E+03 -1.253191E+05 -1.469067E+04
       333  24  1.072827E+06 -1.220555E+04  7.617136E+04 -2.072233E+04 -5.883027E+04 -1.376662E+04
       333  25  1.516432E+06  3.342567E+05  3.888020E+05 -1.014486E+05 -2.009261E+05 -5.029525E+03
       333  26  1.438380E+06  7.445930E+04  2.185520E+05 -3.246848E+04 -1.280327E+05 -1.468756E+04
       333  27  1.435620E+06  7.735378E+04  1.613895E+05  1.136413E+04 -5.515442E+04 -1.376621E+04
       334   1  7.398781E+05 -5.827294E+04 -1.327265E+04 -1.441279E+04  4.767838E+04  1.133089E+04
       334   2  7.748772E+05 -7.136203E+04 -3.370387E+04 -6.896264E+03  3.175041E+04  1.026851E+04
       334   3  8.180479E+05 -6.043351E+04 -3.774795E+04 -2.388768E+04  1.582124E+04  8.584088E+03
       334   4  1.058142E+06  2.032125E+04  6.179671E+04 -2.066068E+04  4.724941E+04  1.132974E+04
       334   5  1.054038E+06 -2.444750E+03  3.200989E+04 -8.401093E+03  3.094011E+04  1.026771E+04
       334   6  1.058165E+06 -1.133505E+03  1.886840E+04 -2.064844E+04  1.463062E+04  8.583529E+03
       334   7  1.376500E+06  9.890835E+04  1.368591E+05 -2.691179E+04  4.682021E+04  1.132860E+04
       334   8  1.333270E+06  6.646698E+04  9.771830E+04 -9.906610E+03  3.012945E+04  1.026691E+04
       334   9  1.298335E+06  5.816242E+04  7.548078E+04 -1.740795E+04  1.343954E+04  8.582957E+03
       334  10  7.398756E+05 -5.827369E+04 -1.327716E+04 -1.441322E+04  4.573197E-10 -4.165804E-10
       334  11  7.748761E+05 -7.136241E+04 -3.370596E+04 -6.896526E+03 -1.444796E-10  1.370975E-10
       334  12  8.180476E+05 -6.043365E+04 -3.774856E+04 -2.388779E+04 -5.882328E-10 -5.377168E-10
       334  13  1.058140E+06  2.032051E+04  6.179228E+04 -2.066111E+04 -8.586111E-10  1.088200E-09
       334  14  1.054037E+06 -2.445120E+03  3.200789E+04 -8.401349E+03 -7.959783E-10  4.283393E-10
       334  15  1.058165E+06 -1.133641E+03  1.886786E+04 -2.064854E+04 -2.311236E-09 -7.069487E-10
       334  16  1.376497E+06  9.890763E+04  1.368548E+05 -2.691222E+04 -4.230409E-10  7.227985E-10
       334  17  1.333269E+06  6.646663E+04  9.771640E+04 -9.906859E+03 -3.029165E-10  3.560483E-12
       334  18  1.298335E+06  5.816229E+04  7.548031E+04 -1.740804E+04 -8.790736E-10 -3.816472E-10
       334  19  7.398781E+05 -5.827294E+04 -1.327265E+04 -1.441279E+04 -4.767838E+04 -1.133089E+04
       334  20  7.748772E+05 -7.136203E+04 -3.370387E+04 -6.896264E+03 -3.175041E+04 -1.026851E+04
       334  21  8.180479E+05 -6.043351E+04 -3.774795E+04 -2.388768E+04 -1.582124E+04 -8.584088E+03
       334  22  1.058142E+06  2.032125E+04  6.179671E+04 -2.066068E+04 -4.724941E+04 -1.132974E+04
       334  23  1.054038E+06 -2.444750E+03  3.200989E+04 -8.401093E+03 -3.094011E+04 -1.026771E+04
       334  24  1.058165E+06 -1.133505E+03  1.886840E+04 -2.064844E+04 -1.463062E+04 -8.583529E+03
       334  25  1.376500E+06  9.890835E+04  1.368591E+05 -2.691179E+04 -4.682021E+04 -1.132860E+04
       334  26  1.333270E+06  6.646698E+04  9.771830E+04 -9.906610E+03 -3.012945E+04 -1.026691E+04
       334  27  1.298335E+06  5.816242E+04  7.548078E+04 -1.740795E+04 -1.343954E+04 -8.582957E+03
       335   1  8.597847E+05 -4.678624E+04 -3.154077E+04 -2.026544E+04  1.266191E+04  7.498057E+03
       335   2  8.975547E+05 -3.938577E+04 -2.915679E+04 -8.564258E+03  8.612608E+03  5.829198E+03
       335   3  9.364354E+05 -2.979053E+04 -2.358320E+04 -2.090823E+04  4.562658E+03  4.130797E+03
       335   4  1.056586E+06  1.776375E+03  1.467968E+04 -2.054960E+04  1.167145E+04  7.497606E+03
       335   5  1.056033E+06 -2.642475E+02  8.143502E+03 -8.526995E+03  7.603194E+03  5.828880E+03
       335   6  1.056592E+06 -1.070217E+02  4.809444E+03 -2.054915E+04  3.534538E+03  4.130616E+03
       335   7  1.253423E+06  5.033623E+04  6.089748E+04 -2.083385E+04  1.068067E+04  7.497156E+03
       335   8  1.214534E+06  3.885549E+04  4.544208E+04 -8.489724E+03  6.593523E+03  5.828561E+03
       335   9  1.176762E+06  2.957545E+04  3.320109E+04 -2.019000E+04  2.506220E+03  4.130433E+03
       335  10  8.597845E+05 -4.678634E+04 -3.154118E+04 -2.026552E+04 -6.596516E-10 -4.751853E-10
       335  11  8.975546E+05 -3.938583E+04 -2.915700E+04 -8.564299E+03 -1.886962E-09 -2.463356E-10
       335  12  9.364354E+05 -2.979055E+04 -2.358327E+04 -2.090824E+04  2.037338E-11 -2.068600E-10
       335  13  1.056586E+06  1.776278E+03  1.467932E+04 -2.054967E+04 -1.544100E-10 -4.394140E-10
       335  14  1.056033E+06 -2.642995E+02  8.143329E+03 -8.527031E+03 -4.022730E-10  9.471444E-11
       335  15  1.056592E+06 -1.070434E+02  4.809389E+03 -2.054916E+04 -5.599044E-10 -1.950749E-10
       335  16  1.253423E+06  5.033614E+04  6.089717E+04 -2.083392E+04  2.963171E-10 -1.340318E-10
       335  17  1.214534E+06  3.885544E+04  4.544193E+04 -8.489755E+03  1.729983E-10 -2.608792E-10
       335  18  1.176762E+06  2.957543E+04  3.320105E+04 -2.019001E+04 -5.202455E-10  5.155643E-11
       335  19  8.597847E+05 -4.678624E+04 -3.154077E+04 -2.026544E+04 -1.266191E+04 -7.498057E+03
       335  20  8.975547E+05 -3.938577E+04 -2.915679E+04 -8.564258E+03 -8.612608E+03 -5.829198E+03
       335  21  9.364354E+05 -2.979053E+04 -2.358320E+04 -2.090823E+04 -4.562658E+03 -4.130797E+03
       335  22  1.056586E+06  1.776375E+03  1.467968E+04 -2.054960E+04 -1.167145E+04 -7.497606E+03
       335  23  1.056033E+06 -2.642475E+02  8.143502E+03 -8.526995E+03 -7.603194E+03 -5.828880E+03
       335  24  1.056592E+06 -1.070217E+02  4.809444E+03 -2.054915E+04 -3.534538E+03 -4.130616E+03
       335  25  1.253423E+06  5.033623E+04  6.089748E+04 -2.083385E+04 -1.068067E+04 -7.497156E+03
       335  26  1.214534E+06  3.885549E+04  4.544208E+04 -8.489724E+03 -6.593523E+03 -5.828561E+03
       335  27  1.176762E+06  2.957545E+04  3.320109E+04 -2.019000E+04 -2.506220E+03 -4.130433E+03
       336   1  9.789495E+05 -1.895605E+04 -1.436159E+04 -2.054006E+04  3.779176E+03  3.139760E+03
       336   2  1.016833E+06 -9.775527E+03 -6.956074E+03 -8.620462E+03  2.624133E+03  1.451168E+03
       336   3  1.054927E+06 -3.921123E+02  1.252951E+03 -2.053691E+04  1.468882E+03 -2.374273E+02
       336   4  1.056393E+06  1.378232E+02  3.751175E+03 -2.050290E+04  2.765069E+03  3.139634E+03
       336   5  1.056290E+06 -3.597383E+01  2.330038E+03 -8.584918E+03  1.609860E+03  1.451072E+03
       336   6  1.056395E+06 -6.935976E+00  1.712343E+03 -2.050289E+04  4.545118E+02 -2.374864E+02
       336   7  1.133843E+06  1.923127E+04  2.186354E+04 -2.046573E+04  1.750836E+03  3.139508E+03
       336   8  1.095748E+06  9.703469E+03  1.161605E+04 -8.549371E+03  5.955222E+02  1.450977E+03
       336   9  1.057863E+06  3.782407E+02  2.171739E+03 -2.046888E+04 -5.598611E+02 -2.375455E+02
       336  10  9.789495E+05 -1.895607E+04 -1.436164E+04 -2.054007E+04 -2.394649E-10 -1.622761E-10
       336  11  1.016833E+06 -9.775531E+03 -6.956091E+03 -8.620465E+03  9.578420E-11  1.541129E-10
       336  12  1.054927E+06 -3.921129E+02  1.252947E+03 -2.053691E+04 -7.119186E-10 -4.981737E-11
       336  13  1.056393E+06  1.378106E+02  3.751142E+03 -2.050291E+04 -4.477263E-10  2.140748E-12
       336  14  1.056290E+06 -3.597679E+01  2.330029E+03 -8.584920E+03  1.521417E-11 -2.202055E-10
       336  15  1.056395E+06 -6.936092E+00  1.712343E+03 -2.050289E+04  8.866170E-10  4.555848E-11
       336  16  1.133843E+06  1.923126E+04  2.186351E+04 -2.046573E+04 -3.689080E-10  4.739261E-11
       336  17  1.095748E+06  9.703466E+03  1.161604E+04 -8.549372E+03  7.693005E-10 -1.555867E-10
       336  18  1.057863E+06  3.782405E+02  2.171738E+03 -2.046888E+04  3.495612E-10  4.881195E-11
       336  19  9.789495E+05 -1.895605E+04 -1.436159E+04 -2.054006E+04 -3.779176E+03 -3.139760E+03
       336  20  1.016833E+06 -9.775527E+03 -6.956074E+03 -8.620462E+03 -2.624133E+03 -1.451168E+03
       336  21  1.054927E+06 -3.921123E+02  1.252951E+03 -2.053691E+04 -1.468882E+03  2.374273E+02
       336  22  1.056393E+06  1.378232E+02  3.751175E+03 -2.050290E+04 -2.765069E+03 -3.139634E+03
       336  23  1.056290E+06 -3.597383E+01  2.330038E+03 -8.584918E+03 -1.609860E+03 -1.451072E+03
       336  24  1.056395E+06 -6.935976E+00  1.712343E+03 -2.050289E+04 -4.545118E+02  2.374864E+02
       336  25  1.133843E+06  1.923127E+04  2.186354E+04 -2.046573E+04 -1.750836E+03 -3.139508E+03
       336  26  1.095748E+06  9.703469E+03  1.161605E+04 -8.549371E+03 -5.955222E+02 -1.450977E+03
       336  27  1.057863E+06  3.782407E+02  2.171739E+03 -2.046888E+04  5.598611E+02  2.375455E+02
       337   1  1.097481E+06  1.016650E+04  1.139374E+04 -2.050103E+04  1.169000E+03 -1.220272E+03
       337   2  1.135460E+06  1.951020E+04  2.039178E+04 -8.553390E+03  2.960016E+02 -2.910646E+03
       337   3  1.173599E+06  2.898724E+04  2.999330E+04 -2.048373E+04 -5.768021E+02 -4.603074E+03
       337   4  1.056383E+06 -2.547893E-01  1.608352E+03 -2.051228E+04  1.540574E+02 -1.220342E+03
       337   5  1.056302E+06 -2.749975E+01  1.763691E+03 -8.573194E+03 -7.201174E+02 -2.910786E+03
       337   6  1.056382E+06  7.891889E+01  2.523453E+03 -2.051229E+04 -1.594045E+03 -4.603279E+03
       337   7  1.015287E+06 -1.016713E+04 -8.177154E+03 -2.052352E+04 -8.608181E+02 -1.220413E+03
       337   8  9.771511E+05 -1.956565E+04 -1.686483E+04 -8.592996E+03 -1.736108E+03 -2.910927E+03
       337   9  9.391768E+05 -2.883038E+04 -2.494733E+04 -2.054083E+04 -2.611098E+03 -4.603484E+03
       337  10  1.097481E+06  1.016650E+04  1.139374E+04 -2.050103E+04 -1.017265E-09 -1.049949E-10
       337  11  1.135460E+06  1.951019E+04  2.039177E+04 -8.553390E+03  7.382098E-10  2.819963E-10
       337  12  1.173599E+06  2.898722E+04  2.999326E+04 -2.048374E+04 -7.834202E-11  6.941595E-11
       337  13  1.056383E+06 -2.563956E-01  1.608349E+03 -2.051228E+04  8.693803E-10  3.900033E-10
       337  14  1.056302E+06 -2.750899E+01  1.763674E+03 -8.573196E+03  9.550259E-10  2.528137E-10
       337  15  1.056382E+06  7.889545E+01  2.523408E+03 -2.051229E+04 -1.099333E-09  2.441206E-10
       337  16  1.015287E+06 -1.016713E+04 -8.177158E+03 -2.052352E+04  6.075735E-10  3.445965E-10
       337  17  9.771511E+05 -1.956566E+04 -1.686485E+04 -8.593000E+03  6.936258E-10  1.904254E-10
       337  18  9.391768E+05 -2.883040E+04 -2.494738E+04 -2.054084E+04 -8.220330E-10 -1.040622E-11
       337  19  1.097481E+06  1.016650E+04  1.139374E+04 -2.050103E+04 -1.169000E+03  1.220272E+03
       337  20  1.135460E+06  1.951020E+04  2.039178E+04 -8.553390E+03 -2.960016E+02  2.910646E+03
       337  21  1.173599E+06  2.898724E+04  2.999330E+04 -2.048373E+04  5.768021E+02  4.603074E+03
       337  22  1.056383E+06 -2.547893E-01  1.608352E+03 -2.051228E+04 -1.540574E+02  1.220342E+03
       337  23  1.056302E+06 -2.749975E+01  1.763691E+03 -8.573194E+03  7.201174E+02  2.910786E+03
       337  24  1.056382E+06  7.891889E+01  2.523453E+03 -2.051229E+04  1.594045E+03  4.603279E+03
       337  25  1.015287E+06 -1.016713E+04 -8.177154E+03 -2.052352E+04  8.608181E+02  1.220413E+03
       337  26  9.771511E+05 -1.956565E+04 -1.686483E+04 -8.592996E+03  1.736108E+03  2.910927E+03
       337  27  9.391768E+05 -2.883038E+04 -2.494733E+04 -2.054083E+04  2.611098E+03  4.603484E+03
       338   1  1.216597E+06  3.946176E+04  4.093007E+04 -2.034250E+04 -1.070326E+03 -5.597931E+03
       338   2  1.254766E+06  4.884857E+04  5.191220E+04 -8.440107E+03 -3.673350E+03 -7.303451E+03
       338   3  1.293667E+06  5.960756E+04  6.493985E+04 -2.071387E+04 -6.275890E+03 -8.978081E+03
       338   4  1.056505E+06 -7.318272E+01  3.144562E+03 -2.057848E+04 -2.103732E+03 -5.598218E+03
       338   5  1.056138E+06 -1.736468E+02  5.172123E+03 -8.490365E+03 -4.687474E+03 -7.303907E+03
       338   6  1.056499E+06  1.095296E+03  9.232597E+03 -2.057887E+04 -7.270573E+03 -8.978696E+03
       338   7  8.964365E+05 -3.960996E+04 -3.464271E+04 -2.081441E+04 -3.136873E+03 -5.598504E+03
       338   8  8.575464E+05 -4.919867E+04 -4.157066E+04 -8.540608E+03 -5.701275E+03 -7.304362E+03
       338   9  8.193840E+05 -5.742097E+04 -4.647851E+04 -2.044392E+04 -8.264878E+03 -8.979313E+03
       338  10  1.216597E+06  3.946173E+04  4.093001E+04 -2.034250E+04 -4.892449E-10  3.227646E-10
       338  11  1.254765E+06  4.884850E+04  5.191207E+04 -8.440129E+03 -1.290976E-09 -4.701521E-10
       338  12  1.293667E+06  5.960746E+04  6.493963E+04 -2.071392E+04 -3.497540E-10  9.377698E-11
       338  13  1.056505E+06 -7.321758E+01  3.144495E+03 -2.057849E+04  1.376440E-10  2.913162E-10
       338  14  1.056138E+06 -1.737100E+02  5.171982E+03 -8.490392E+03 -1.902926E-09 -1.712971E-10
       338  15  1.056499E+06  1.095195E+03  9.232346E+03 -2.057892E+04 -1.013897E-09  8.066828E-11
       338  16  8.964365E+05 -3.960999E+04 -3.464279E+04 -2.081442E+04 -1.268999E-10 -5.163952E-12
       338  17  8.575464E+05 -4.919874E+04 -4.157082E+04 -8.540642E+03 -8.596094E-10  3.679346E-11
       338  18  8.193839E+05 -5.742107E+04 -4.647879E+04 -2.044398E+04 -2.960141E-10  1.558440E-10
       338  19  1.216597E+06  3.946176E+04  4.093007E+04 -2.034250E+04  1.070326E+03  5.597931E+03
       338  20  1.254766E+06  4.884857E+04  5.191220E+04 -8.440107E+03  3.673350E+03  7.303451E+03
       338  21  1.293667E+06  5.960756E+04  6.493985E+04 -2.071387E+04  6.275890E+03  8.978081E+03
       338  22  1.056505E+06 -7.318272E+01  3.144562E+03 -2.057848E+04  2.103732E+03  5.598218E+03
       338  23  1.056138E+06 -1.736468E+02  5.172123E+03 -8.490365E+03  4.687474E+03  7.303907E+03
       338  24  1.056499E+06  1.095296E+03  9.232597E+03 -2.057887E+04  7.270573E+03  8.978696E+03
       338  25  8.964365E+05 -3.960996E+04 -3.464271E+04 -2.081441E+04  3.136873E+03  5.598504E+03
       338  26  8.575464E+05 -4.919867E+04 -4.157066E+04 -8.540608E+03  5.701275E+03  7.304362E+03
       338  27  8.193840E+05 -5.742097E+04 -4.647851E+04 -2.044392E+04  8.264878E+03  8.979313E+03
       339   1  1.338302E+06  6.859851E+04  7.801861E+04 -1.861044E+04 -7.915672E+03 -1.007833E+04
       339   2  1.375090E+06  7.747676E+04  9.540213E+04 -9.198135E+03 -1.854560E+04 -1.176914E+04
       339   3  1.417162E+06  1.014831E+05  1.235027E+05 -2.449848E+04 -2.917600E+04 -1.277993E+04
       339   4  1.057491E+06 -7.250044E+02  1.184574E+04 -2.069508E+04 -9.130092E+03 -1.007917E+04
       339   5  1.054876E+06 -1.547400E+03  2.005183E+04 -8.343235E+03 -1.934665E+04 -1.177009E+04
       339   6  1.057475E+06  1.269108E+04  3.869235E+04 -2.070461E+04 -2.956301E+04 -1.278092E+04
       339   7  7.767535E+05 -7.005413E+04 -5.433256E+04 -2.277878E+04 -1.034397E+04 -1.008001E+04
       339   8  7.347565E+05 -8.057886E+04 -5.530551E+04 -7.488793E+03 -2.014728E+04 -1.177103E+04
       339   9  6.979057E+05 -7.611009E+04 -4.612690E+04 -1.691297E+04 -2.994978E+04 -1.278191E+04
       339  10  1.338302E+06  6.859839E+04  7.801830E+04 -1.861050E+04  9.541841E-10 -3.466295E-10
       339  11  1.375089E+06  7.747652E+04  9.540122E+04 -9.198310E+03 -6.442016E-11 -1.100686E-09
       339  12  1.417161E+06  1.014827E+05  1.235008E+05 -2.449878E+04  5.637347E-10 -9.337629E-10
       339  13  1.057491E+06 -7.251359E+02  1.184539E+04 -2.069515E+04  2.531565E-10 -1.057147E-10
       339  14  1.054876E+06 -1.547649E+03  2.005087E+04 -8.343419E+03 -1.433897E-09 -7.985464E-10
       339  15  1.057474E+06  1.269067E+04  3.869040E+04 -2.070491E+04 -1.142422E-10 -7.349534E-10
       339  16  7.767534E+05 -7.005427E+04 -5.433295E+04 -2.277886E+04 -1.023164E-09 -6.090286E-11
       339  17  7.347560E+05 -8.057912E+04 -5.530653E+04 -7.488984E+03  3.703327E-10  1.329939E-09
       339  18  6.979047E+05 -7.611050E+04 -4.612889E+04 -1.691327E+04  1.480801E-10  2.254054E-10
       339  19  1.338302E+06  6.859851E+04  7.801861E+04 -1.861044E+04  7.915672E+03  1.007833E+04
       339  20  1.375090E+06  7.747676E+04  9.540213E+04 -9.198135E+03  1.854560E+04  1.176914E+04
       339  21  1.417162E+06  1.014831E+05  1.235027E+05 -2.449848E+04  2.917600E+04  1.277993E+04
       339  22  1.057491E+06 -7.250044E+02  1.184574E+04 -2.069508E+04  9.130092E+03  1.007917E+04
       339  23  1.054876E+06 -1.547400E+03  2.005183E+04 -8.343235E+03  1.934665E+04  1.177009E+04
       339  24  1.057475E+06  1.269108E+04  3.869235E+04 -2.070461E+04  2.956301E+04  1.278092E+04
       339  25  7.767535E+05 -7.005413E+04 -5.433256E+04 -2.277878E+04  1.034397E+04  1.008001E+04
       339  26  7.347565E+05 -8.057886E+04 -5.530551E+04 -7.488793E+03  2.014728E+04  1.177103E+04
       339  27  6.979057E+05 -7.611009E+04 -4.612690E+04 -1.691297E+04  2.994978E+04  1.278191E+04
       340   1  1.471290E+06  9.218810E+04  1.427200E+05 -5.523825E+02 -3.287596E+04 -1.535222E+04
       340   2  1.488310E+06  9.417120E+04  1.822109E+05 -2.315002E+04 -8.146668E+04 -1.619552E+04
       340   3  1.553082E+06  2.611000E+05  2.945670E+05 -7.110001E+04 -1.300759E+05 -5.479290E+03
       340   4  1.066673E+06 -7.670802E+03  4.768877E+04 -2.078663E+04 -3.681294E+04 -1.535536E+04
       340   5  1.043345E+06 -1.561137E+04  7.743141E+04 -8.203964E+03 -7.843166E+04 -1.619488E+04
       340   6  1.066591E+06  1.402443E+05  1.752389E+05 -2.097102E+04 -1.200651E+05 -5.476691E+03
       340   7  6.622073E+05 -1.075398E+05 -4.735344E+04 -4.100767E+04 -4.074737E+04 -1.535825E+04
       340   8  5.985618E+05 -1.254072E+05 -2.736155E+04  6.731286E+03 -7.539878E+04 -1.619409E+04
       340   9  5.803205E+05  1.938069E+04  5.589523E+04  2.911864E+04 -1.100620E+05 -5.472481E+03
       340  10  1.471289E+06  9.218755E+04  1.427176E+05 -5.527887E+02  1.348585E-09 -1.571182E-09
       340  11  1.488303E+06  9.416914E+04  1.821980E+05 -2.315108E+04 -1.796990E-09 -3.696313E-09
       340  12  1.553064E+06  2.610954E+05  2.945353E+05 -7.110059E+04 -1.192196E-09 -1.217414E-09
       340  13  1.066672E+06 -7.671418E+03  4.768579E+04 -2.078708E+04 -1.139772E-09 -4.474803E-09
       340  14  1.043338E+06 -1.561330E+04  7.741938E+04 -8.204987E+03  4.922194E-10  1.616589E-09
       340  15  1.066575E+06  1.402404E+05  1.752118E+05 -2.097155E+04  4.034982E-10 -3.162380E-10
       340  16  6.622055E+05 -1.075405E+05 -4.735700E+04 -4.100817E+04 -7.938587E-10 -1.029772E-09
       340  17  5.985556E+05 -1.254090E+05 -2.737271E+04  6.730303E+03  5.524366E-10  8.958711E-10
       340  18  5.803075E+05  1.937741E+04  5.587243E+04  2.911815E+04  1.222634E-09 -1.829514E-09
       340  19  1.471290E+06  9.218810E+04  1.427200E+05 -5.523825E+02  3.287596E+04  1.535222E+04
       340  20  1.488310E+06  9.417120E+04  1.822109E+05 -2.315002E+04  8.146668E+04  1.619552E+04
       340  21  1.553082E+06  2.611000E+05  2.945670E+05 -7.110001E+04  1.300759E+05  5.479290E+03
       340  22  1.066673E+06 -7.670802E+03  4.768877E+04 -2.078663E+04  3.681294E+04  1.535536E+04
       340  23  1.043345E+06 -1.561137E+04  7.743141E+04 -8.203964E+03  7.843166E+04  1.619488E+04
       340  24  1.066591E+06  1.402443E+05  1.752389E+05 -2.097102E+04  1.200651E+05  5.476691E+03
       340  25  6.622073E+05 -1.075398E+05 -4.735344E+04 -4.100767E+04  4.074737E+04  1.535825E+04
       340  26  5.985618E+05 -1.254072E+05 -2.736155E+04  6.731286E+03  7.539878E+04  1.619409E+04
       340  27  5.803205E+05  1.938069E+04  5.589523E+04  2.911864E+04  1.100620E+05  5.472481E+03
       341   1  1.010388E+06  4.003637E+06  1.027358E+06 -5.524140E+05  3.480906E+04  1.562295E+05
       341   2  6.449972E+05  3.047312E+06  6.954759E+05 -2.338890E+05  9.573652E+04  6.376521E+04
       341   3  4.296197E+05  2.142329E+06  4.611971E+05 -4.948135E+05  6.347514E+04 -2.886561E+04
       341   4  1.145388E+05  4.007610E+05  1.427374E+05 -5.040595E+05  3.500092E+04  9.125937E+04
       341   5 -1.292296E+04  3.808156E+05  6.768703E+04 -2.144387E+05  9.579718E+04  5.519672E+04
       341   6  2.825483E+02  4.019226E+05  5.152092E+04 -5.043788E+05  6.323583E+04  1.882703E+04
       341   7 -7.822627E+05 -3.190338E+06 -7.428206E+05 -4.559725E+05  3.518342E+04  2.666257E+04
       341   8 -6.713491E+05 -2.279162E+06 -5.605906E+05 -1.950650E+05  9.585748E+04  4.666429E+04
       341   9 -4.292687E+05 -1.335699E+06 -3.583549E+05 -5.139125E+05  6.299468E+04  6.638703E+04
       341  10  1.010380E+06  4.003610E+06  1.027310E+06 -5.524184E+05  1.169291E-09  7.423116E-10
       341  11  6.449863E+05  3.047305E+06  6.954510E+05 -2.338939E+05  1.172698E-09  2.285330E-09
       341  12  4.296152E+05  2.142327E+06  4.611880E+05 -4.948121E+05 -5.687538E-11 -3.865133E-09
       341  13  1.145353E+05  4.007518E+05  1.427195E+05 -5.040620E+05  6.718861E-10 -7.599323E-11
       341  14 -1.293364E+04  3.808099E+05  6.766405E+04 -2.144429E+05 -3.264064E-09  1.603158E-10
       341  15  2.781572E+02  4.019211E+05  5.151274E+04 -5.043797E+05  3.798762E-10  5.772111E-10
       341  16 -7.822642E+05 -3.190339E+06 -7.428243E+05 -4.559732E+05 -6.717166E-10  1.801563E-10
       341  17 -6.713595E+05 -2.279166E+06 -5.606120E+05 -1.950686E+05  1.583718E-09 -7.851787E-11
       341  18 -4.292742E+05 -1.335705E+06 -3.583707E+05 -5.139158E+05  6.754706E-11  2.807304E-09
       341  19  1.010388E+06  4.003637E+06  1.027358E+06 -5.524140E+05 -3.480906E+04 -1.562295E+05
       341  20  6.449972E+05  3.047312E+06  6.954759E+05 -2.338890E+05 -9.573652E+04 -6.376521E+04
       341  21  4.296197E+05  2.142329E+06  4.611971E+05 -4.948135E+05 -6.347514E+04  2.886561E+04
       341  22  1.145388E+05  4.007610E+05  1.427374E+05 -5.040595E+05 -3.500092E+04 -9.125937E+04
       341  23 -1.292296E+04  3.808156E+05  6.768703E+04 -2.144387E+05 -9.579718E+04 -5.519672E+04
       341  24  2.825483E+02  4.019226E+05  5.152092E+04 -5.043788E+05 -6.323583E+04 -1.882703E+04
       341  25 -7.822627E+05 -3.190338E+06 -7.428206E+05 -4.559725E+05 -3.518342E+04 -2.666257E+04
       341  26 -6.713491E+05 -2.279162E+06 -5.605906E+05 -1.950650E+05 -9.585748E+04 -4.666429E+04
       341  27 -4.292687E+05 -1.335699E+06 -3.583549E+05 -5.139125E+05 -6.299468E+04 -6.638703E+04
       342   1  1.865238E+05  1.092936E+06  2.122147E+05 -5.133280E+05  2.617544E+04 -1.086743E+04
       342   2 -5.766509E+04  1.630087E+05 -8.427809E+03 -2.125028E+05 -8.225297E+03 -3.378884E+04
       342   3 -2.630556E+05 -7.601742E+05 -2.060614E+05 -4.928838E+05 -4.199226E+04 -5.665859E+04
       342   4  1.408109E+04  3.947957E+05  4.801691E+04 -5.046274E+05  2.605928E+04  1.004947E+04
       342   5 -1.141661E+03  3.917415E+05  4.545536E+04 -2.140162E+05 -8.333714E+03 -1.326349E+04
       342   6  2.255194E+04  3.946954E+05  6.621776E+04 -5.045841E+05 -4.209511E+04 -3.655811E+04
       342   7 -1.583960E+05 -3.028959E+05 -1.162127E+05 -4.959359E+05  2.594363E+04  3.094301E+04
       342   8  5.537827E+04  6.205232E+05  9.933650E+04 -2.155302E+05 -8.442210E+03  7.269378E+03
       342   9  3.080647E+05  1.550793E+06  3.384065E+05 -5.163042E+05 -4.219862E+04 -1.642037E+04
       342  10  1.865231E+05  1.092936E+06  2.122132E+05 -5.133277E+05 -1.252025E-09  1.172520E-09
       342  11 -5.766547E+04  1.630075E+05 -8.430082E+03 -2.125030E+05  2.439082E-09  3.568238E-09
       342  12 -2.630584E+05 -7.601781E+05 -2.060707E+05 -4.928858E+05 -2.430073E-09 -3.913140E-09
       342  13  1.408034E+04  3.947954E+05  4.801544E+04 -5.046276E+05 -7.032541E-10 -1.011875E-12
       342  14 -1.141783E+03  3.917413E+05  4.545490E+04 -2.140163E+05  2.957552E-09 -2.391704E-11
       342  15  2.254967E+04  3.946935E+05  6.621191E+04 -5.045853E+05  4.276898E-09  5.263485E-10
       342  16 -1.583969E+05 -3.028972E+05 -1.162157E+05 -4.959365E+05 -8.431772E-10  1.548093E-09
       342  17  5.537818E+04  6.205232E+05  9.933627E+04 -2.155302E+05 -4.279251E-09 -8.136057E-10
       342  18  3.080627E+05  1.550793E+06  3.384026E+05 -5.163047E+05  1.379106E-10  3.250170E-09
       342  19  1.865238E+05  1.092936E+06  2.122147E+05 -5.133280E+05 -2.617544E+04  1.086743E+04
       342  20 -5.766509E+04  1.630087E+05 -8.427809E+03 -2.125028E+05  8.225297E+03  3.378884E+04
       342  21 -2.630556E+05 -7.601742E+05 -2.060614E+05 -4.928838E+05  4.199226E+04  5.665859E+04
       342  22  1.408109E+04  3.947957E+05  4.801691E+04 -5.046274E+05 -2.605928E+04 -1.004947E+04
       342  23 -1.141661E+03  3.917415E+05  4.545536E+04 -2.140162E+05  8.333714E+03  1.326349E+04
       342  24  2.255194E+04  3.946954E+05  6.621776E+04 -5.045841E+05  4.209511E+04  3.655811E+04
       342  25 -1.583960E+05 -3.028959E+05 -1.162127E+05 -4.959359E+05 -2.594363E+04 -3.094301E+04
       342  26  5.537827E+04  6.205232E+05  9.933650E+04 -2.155302E+05  8.442210E+03 -7.269378E+03
       342  27  3.080647E+05  1.550793E+06  3.384065E+05 -5.163042E+05  4.219862E+04  1.642037E+04
       343   1 -5.486180E+05 -1.785741E+06 -4.397223E+05 -5.260656E+05 -8.033591E+04 -9.912816E+04
       343   2 -7.959017E+05 -2.745888E+06 -6.196267E+05 -1.850277E+05 -1.123484E+05 -9.949868E+04
       343   3 -8.036502E+05 -3.640944E+06 -7.386315E+05 -4.238797E+05 -4.036582E+04 -9.960019E+04
       343   4 -6.058913E+03  4.090636E+05  7.779857E+04 -5.044456E+05 -8.056789E+04 -4.902058E+04
       343   5 -2.412859E+04  3.710054E+05  1.167365E+05 -2.144014E+05 -1.122683E+05 -1.118425E+05
       343   6  2.075851E+05  4.076915E+05  2.596841E+05 -5.039970E+05 -4.020467E+04 -1.744004E+05
       343   7  5.361595E+05  2.608313E+06  5.949972E+05 -4.827414E+05 -8.079591E+04  1.263750E+03
       343   8  7.469508E+05  3.496855E+06  8.524287E+05 -2.439156E+05 -1.121872E+05 -1.242470E+05
       343   9  1.217623E+06  4.471312E+06  1.256812E+06 -5.846276E+05 -4.002490E+04 -2.496868E+05
       343  10 -5.486276E+05 -1.785753E+06 -4.397529E+05 -5.260720E+05 -1.078409E-09 -6.163617E-10
       343  11 -7.959179E+05 -2.745902E+06 -6.196691E+05 -1.850367E+05  1.046188E-09  2.007858E-09
       343  12 -8.036546E+05 -3.640955E+06 -7.386533E+05 -4.238829E+05  2.997481E-10 -5.867837E-10
       343  13 -6.066534E+03  4.090593E+05  7.778184E+04 -5.044488E+05 -2.838101E-09  1.141203E-10
       343  14 -2.414549E+04  3.709886E+05  1.166893E+05 -2.144115E+05  1.094567E-09 -5.175051E-11
       343  15  2.075752E+05  4.076584E+05  2.596239E+05 -5.040026E+05 -3.815716E-10  1.326391E-10
       343  16  5.361525E+05  2.608311E+06  5.949850E+05 -4.827413E+05  3.022781E-09  2.736759E-09
       343  17  7.469332E+05  3.496835E+06  8.523761E+05 -2.439268E+05 -2.381322E-10 -8.400096E-10
       343  18  1.217605E+06  4.471245E+06  1.256692E+06 -5.846357E+05 -1.076743E-09  4.019200E-10
       343  19 -5.486180E+05 -1.785741E+06 -4.397223E+05 -5.260656E+05  8.033591E+04  9.912816E+04
       343  20 -7.959017E+05 -2.745888E+06 -6.196267E+05 -1.850277E+05  1.123484E+05  9.949868E+04
       343  21 -8.036502E+05 -3.640944E+06 -7.386315E+05 -4.238797E+05  4.036582E+04  9.960019E+04
       343  22 -6.058913E+03  4.090636E+05  7.779857E+04 -5.044456E+05  8.056789E+04  4.902058E+04
       343  23 -2.412859E+04  3.710054E+05  1.167365E+05 -2.144014E+05  1.122683E+05  1.118425E+05
       343  24  2.075851E+05  4.076915E+05  2.596841E+05 -5.039970E+05  4.020467E+04  1.744004E+05
       343  25  5.361595E+05  2.608313E+06  5.949972E+05 -4.827414E+05  8.079591E+04 -1.263750E+03
       343  26  7.469508E+05  3.496855E+06  8.524287E+05 -2.439156E+05  1.121872E+05  1.242470E+05
       343  27  1.217623E+06  4.471312E+06  1.256812E+06 -5.846276E+05  4.002490E+04  2.496868E+05
       344   1 -1.590287E+06 -6.680254E+05 -3.575043E+05 -6.540794E+05 -1.721917E+05 -5.330217E+04
       344   2 -1.520873E+06 -4.778778E+05 -2.115334E+05 -6.220066E+05 -1.071810E+05 -2.904110E+03
       344   3 -1.483609E+06 -3.930470E+05 -1.456182E+05 -5.823610E+05 -3.531305E+04  2.932790E+04
       344   4 -9.587631E+05 -3.401831E+05 -1.774241E+05 -3.880289E+05 -1.187353E+05 -3.322377E+04
       344   5 -9.360014E+05 -2.221223E+05 -8.255469E+04 -4.175254E+05 -8.425688E+04  5.705637E+03
       344   6 -9.392927E+05 -2.032765E+05 -4.346281E+04 -4.394646E+05 -4.293478E+04  2.645939E+04
       344   7 -3.268118E+05 -1.218608E+04  2.635225E+03 -1.216913E+05 -6.521894E+04 -1.310304E+04
       344   8 -3.507667E+05  3.370759E+04  4.640764E+04 -2.128497E+05 -6.130939E+04  1.432803E+04
       344   9 -3.946666E+05 -1.348521E+04  5.868098E+04 -2.964541E+05 -5.056369E+04  2.358845E+04
       344  10 -1.590319E+06 -6.680364E+05 -3.575655E+05 -6.540868E+05 -2.942485E-10 -4.408457E-10
       344  11 -1.520886E+06 -4.778809E+05 -2.115550E+05 -6.220069E+05 -5.380539E-10 -7.497414E-10
       344  12 -1.483611E+06 -3.930482E+05 -1.456221E+05 -5.823601E+05 -6.061624E-10 -2.157430E-10
       344  13 -9.587785E+05 -3.401881E+05 -1.774528E+05 -3.880321E+05 -5.417325E-10  6.316743E-11
       344  14 -9.360091E+05 -2.221242E+05 -8.256810E+04 -4.175250E+05  1.955635E-10  1.919981E-10
       344  15 -9.392948E+05 -2.032778E+05 -4.346759E+04 -4.394637E+05 -2.184151E-10 -1.028202E-09
       344  16 -3.268164E+05 -1.218741E+04  2.626905E+03 -1.216919E+05  3.445017E-10  1.195755E-09
       344  17 -3.507708E+05  3.370636E+04  4.640019E+04 -2.128490E+05  3.621152E-10  1.366108E-09
       344  18 -3.946695E+05 -1.348650E+04  5.867513E+04 -2.964531E+05 -2.220866E-10  1.359737E-09
       344  19 -1.590287E+06 -6.680254E+05 -3.575043E+05 -6.540794E+05  1.721917E+05  5.330217E+04
       344  20 -1.520873E+06 -4.778778E+05 -2.115334E+05 -6.220066E+05  1.071810E+05  2.904110E+03
       344  21 -1.483609E+06 -3.930470E+05 -1.456182E+05 -5.823610E+05  3.531305E+04 -2.932790E+04
       344  22 -9.587631E+05 -3.401831E+05 -1.774241E+05 -3.880289E+05  1.187353E+05  3.322377E+04
       344  23 -9.360014E+05 -2.221223E+05 -8.255469E+04 -4.175254E+05  8.425688E+04 -5.705637E+03
       344  24 -9.392927E+05 -2.032765E+05 -4.346281E+04 -4.394646E+05  4.293478E+04 -2.645939E+04
       344  25 -3.268118E+05 -1.218608E+04  2.635225E+03 -1.216913E+05  6.521894E+04  1.310304E+04
       344  26 -3.507667E+05  3.370759E+04  4.640764E+04 -2.128497E+05  6.130939E+04 -1.432803E+04
       344  27 -3.946666E+05 -1.348521E+04  5.868098E+04 -2.964541E+05  5.056369E+04 -2.358845E+04
       345   1 -1.417726E+06 -3.834142E+05 -1.240578E+05 -5.744504E+05 -3.167498E+04  2.735779E+04
       345   2 -1.344266E+06 -3.406587E+05 -9.142998E+04 -5.450598E+05 -1.892042E+04  2.771263E+04
       345   3 -1.261069E+06 -3.161605E+05 -6.857385E+04 -5.297799E+05 -5.581094E+03  2.651161E+04
       345   4 -9.340014E+05 -2.048289E+05 -3.276596E+04 -4.368825E+05 -3.692069E+04  2.538299E+04
       345   5 -9.386554E+05 -1.927122E+05 -1.724795E+04 -4.310403E+05 -2.677689E+04  2.475809E+04
       345   6 -9.330562E+05 -1.983323E+05 -9.424143E+03 -4.393111E+05 -1.604995E+04  2.257728E+04
       345   7 -4.500364E+05 -2.622177E+04  5.851527E+04 -2.992152E+05 -4.217073E+04  2.340651E+04
       345   8 -5.328711E+05 -4.474959E+04  5.692837E+04 -3.169510E+05 -3.463884E+04  2.180147E+04
       345   9 -6.049269E+05 -8.049293E+04  4.972319E+04 -3.487969E+05 -2.652481E+04  1.864073E+04
       345  10 -1.417727E+06 -3.834153E+05 -1.240611E+05 -5.744497E+05  8.331764E-10  2.601113E-10
       345  11 -1.344267E+06 -3.406597E+05 -9.143209E+04 -5.450594E+05  8.116804E-11 -1.026524E-09
       345  12 -1.261069E+06 -3.161613E+05 -6.857522E+04 -5.297798E+05 -1.315650E-09 -9.023878E-10
       345  13 -9.340030E+05 -2.048299E+05 -3.276973E+04 -4.368817E+05  2.399909E-10 -7.462539E-10
       345  14 -9.386563E+05 -1.927131E+05 -1.725045E+04 -4.310398E+05 -7.184054E-10  7.923587E-10
       345  15 -9.330566E+05 -1.983329E+05 -9.425584E+03 -4.393108E+05  9.624221E-10 -2.284016E-10
       345  16 -4.500384E+05 -2.622284E+04  5.851090E+04 -2.992144E+05 -1.386488E-09 -3.058184E-10
       345  17 -5.328725E+05 -4.475042E+04  5.692522E+04 -3.169504E+05 -7.166400E-11 -2.702063E-10
       345  18 -6.049278E+05 -8.049349E+04  4.972121E+04 -3.487965E+05  7.456333E-10  1.456992E-09
       345  19 -1.417726E+06 -3.834142E+05 -1.240578E+05 -5.744504E+05  3.167498E+04 -2.735779E+04
       345  20 -1.344266E+06 -3.406587E+05 -9.142998E+04 -5.450598E+05  1.892042E+04 -2.771263E+04
       345  21 -1.261069E+06 -3.161605E+05 -6.857385E+04 -5.297799E+05  5.581094E+03 -2.651161E+04
       345  22 -9.340014E+05 -2.048289E+05 -3.276596E+04 -4.368825E+05  3.692069E+04 -2.538299E+04
       345  23 -9.386554E+05 -1.927122E+05 -1.724795E+04 -4.310403E+05  2.677689E+04 -2.475809E+04
       345  24 -9.330562E+05 -1.983323E+05 -9.424143E+03 -4.393111E+05  1.604995E+04 -2.257728E+04
       345  25 -4.500364E+05 -2.622177E+04  5.851527E+04 -2.992152E+05  4.217073E+04 -2.340651E+04
       345  26 -5.328711E+05 -4.474959E+04  5.692837E+04 -3.169510E+05  3.463884E+04 -2.180147E+04
       345  27 -6.049269E+05 -8.049293E+04  4.972319E+04 -3.487969E+05  2.652481E+04 -1.864073E+04
       346   1 -1.208366E+06 -2.979341E+05 -5.647254E+04 -5.157338E+05 -3.101614E+03  2.328122E+04
       346   2 -1.135339E+06 -2.624481E+05 -3.905091E+04 -4.861385E+05  1.385673E+03  1.792360E+04
       346   3 -1.049516E+06 -2.404295E+05 -2.331312E+04 -4.716169E+05  5.922887E+03  1.243066E+04
       346   4 -9.326260E+05 -1.984419E+05 -7.081327E+03 -4.391202E+05 -1.337399E+04  1.942154E+04
       346   5 -9.390242E+05 -1.916380E+05 -3.892494E+03 -4.316144E+05 -9.113943E+03  1.397950E+04
       346   6 -9.325877E+05 -1.982564E+05 -2.206916E+03 -4.391844E+05 -4.804277E+03  8.402085E+03
       346   7 -6.568053E+05 -9.894261E+04  4.230775E+04 -3.624748E+05 -2.365124E+04  1.556004E+04
       346   8 -7.426694E+05 -1.208246E+05  3.126481E+04 -3.770745E+05 -1.961705E+04  1.003411E+04
       346   9 -8.156463E+05 -1.560825E+05  1.889898E+04 -4.067464E+05 -1.553349E+04  4.372748E+03
       346  10 -1.208367E+06 -2.979347E+05 -5.647358E+04 -5.157337E+05  1.170302E-09  3.128542E-10
       346  11 -1.135339E+06 -2.624484E+05 -3.905151E+04 -4.861385E+05 -1.249115E-10 -3.502818E-10
       346  12 -1.049516E+06 -2.404297E+05 -2.331347E+04 -4.716170E+05 -7.748661E-10 -4.522875E-10
       346  13 -9.326263E+05 -1.984424E+05 -7.082371E+03 -4.391200E+05 -2.432133E-10 -1.245195E-10
       346  14 -9.390244E+05 -1.916382E+05 -3.893017E+03 -4.316143E+05 -5.532520E-10  1.372679E-09
       346  15 -9.325877E+05 -1.982565E+05 -2.207092E+03 -4.391844E+05  9.232235E-10 -4.594681E-10
       346  16 -6.568059E+05 -9.894302E+04  4.230624E+04 -3.624746E+05 -5.009025E-10 -9.092646E-11
       346  17 -7.426699E+05 -1.208248E+05  3.126390E+04 -3.770743E+05  1.931486E-09 -3.036788E-10
       346  18 -8.156466E+05 -1.560826E+05  1.889849E+04 -4.067464E+05  8.750054E-10 -6.367393E-10
       346  19 -1.208366E+06 -2.979341E+05 -5.647254E+04 -5.157338E+05  3.101614E+03 -2.328122E+04
       346  20 -1.135339E+06 -2.624481E+05 -3.905091E+04 -4.861385E+05 -1.385673E+03 -1.792360E+04
       346  21 -1.049516E+06 -2.404295E+05 -2.331312E+04 -4.716169E+05 -5.922887E+03 -1.243066E+04
       346  22 -9.326260E+05 -1.984419E+05 -7.081327E+03 -4.391202E+05  1.337399E+04 -1.942154E+04
       346  23 -9.390242E+05 -1.916380E+05 -3.892494E+03 -4.316144E+05  9.113943E+03 -1.397950E+04
       346  24 -9.325877E+05 -1.982564E+05 -2.206916E+03 -4.391844E+05  4.804277E+03 -8.402085E+03
       346  25 -6.568053E+05 -9.894261E+04  4.230775E+04 -3.624748E+05  2.365124E+04 -1.556004E+04
       346  26 -7.426694E+05 -1.208246E+05  3.126481E+04 -3.770745E+05  1.961705E+04 -1.003411E+04
       346  27 -8.156463E+05 -1.560825E+05  1.889898E+04 -4.067464E+05  1.553349E+04 -4.372748E+03
       347   1 -9.976208E+05 -2.216710E+05 -1.313729E+04 -4.572206E+05  7.626481E+03  8.834307E+03
       347   2 -9.247175E+05 -1.864244E+05  1.466844E+03 -4.275420E+05  1.058136E+04  2.675817E+03
       347   3 -8.387039E+05 -1.643758E+05  1.565051E+04 -4.129469E+05  1.353998E+04 -3.492281E+03
       347   4 -9.325348E+05 -1.982675E+05 -1.708281E+03 -4.391631E+05 -3.085900E+03  4.811549E+03
       347   5 -9.390891E+05 -1.916811E+05 -1.096220E+03 -4.316155E+05 -1.479988E+02 -1.353417E+03
       347   6 -9.325382E+05 -1.982908E+05 -8.920357E+02 -4.391544E+05  2.793553E+03 -7.528002E+03
       347   7 -8.674433E+05 -1.748632E+05  9.721271E+03 -4.211036E+05 -1.379959E+04  7.883065E+02
       347   8 -9.534602E+05 -1.969376E+05 -3.658818E+03 -4.356887E+05 -1.087715E+04 -5.382569E+03
       347   9 -1.026363E+06 -2.322048E+05 -1.743438E+04 -4.653583E+05 -7.951148E+03 -1.156307E+04
       347  10 -9.976209E+05 -2.216711E+05 -1.313755E+04 -4.572207E+05 -1.141053E-09 -5.250102E-10
       347  11 -9.247177E+05 -1.864245E+05  1.466620E+03 -4.275421E+05 -4.357794E-10 -2.537036E-11
       347  12 -8.387041E+05 -1.643758E+05  1.565015E+04 -4.129468E+05 -7.248381E-10 -5.507748E-12
       347  13 -9.325348E+05 -1.982675E+05 -1.708342E+03 -4.391631E+05 -3.206592E-10 -3.898909E-10
       347  14 -9.390891E+05 -1.916811E+05 -1.096224E+03 -4.316155E+05  6.393707E-10 -7.307535E-10
       347  15 -9.325383E+05 -1.982908E+05 -8.921568E+02 -4.391544E+05  4.494478E-10  4.505555E-10
       347  16 -8.674435E+05 -1.748633E+05  9.720912E+03 -4.211036E+05  4.869437E-10 -1.231347E-10
       347  17 -9.534603E+05 -1.969377E+05 -3.659095E+03 -4.356888E+05  7.232580E-10  1.142067E-09
       347  18 -1.026363E+06 -2.322050E+05 -1.743475E+04 -4.653583E+05  8.044977E-10  5.426495E-10
       347  19 -9.976208E+05 -2.216710E+05 -1.313729E+04 -4.572206E+05 -7.626481E+03 -8.834307E+03
       347  20 -9.247175E+05 -1.864244E+05  1.466844E+03 -4.275420E+05 -1.058136E+04 -2.675817E+03
       347  21 -8.387039E+05 -1.643758E+05  1.565051E+04 -4.129469E+05 -1.353998E+04  3.492281E+03
       347  22 -9.325348E+05 -1.982675E+05 -1.708281E+03 -4.391631E+05  3.085900E+03 -4.811549E+03
       347  23 -9.390891E+05 -1.916811E+05 -1.096220E+03 -4.316155E+05  1.479988E+02  1.353417E+03
       347  24 -9.325382E+05 -1.982908E+05 -8.920357E+02 -4.391544E+05 -2.793553E+03  7.528002E+03
       347  25 -8.674433E+05 -1.748632E+05  9.721271E+03 -4.211036E+05  1.379959E+04 -7.883065E+02
       347  26 -9.534602E+05 -1.969376E+05 -3.658818E+03 -4.356887E+05  1.087715E+04  5.382569E+03
       347  27 -1.026363E+06 -2.322048E+05 -1.743438E+04 -4.653583E+05  7.951148E+03  1.156307E+04
       348   1 -7.869042E+05 -1.455828E+05  2.529948E+04 -3.985336E+05  1.508466E+04 -7.152429E+03
       348   2 -7.140556E+05 -1.103511E+05  3.897777E+04 -3.688734E+05  1.804652E+04 -1.331245E+04
       348   3 -6.281019E+05 -8.830088E+04  5.223433E+04 -3.542836E+05  2.100292E+04 -1.945448E+04
       348   4 -9.325445E+05 -1.982919E+05 -9.101302E+02 -4.391517E+05  4.339906E+03 -1.118786E+04
       348   5 -9.390972E+05 -1.917000E+05 -1.198678E+03 -4.316169E+05  7.330749E+03 -1.733808E+04
       348   6 -9.325567E+05 -1.982961E+05 -1.932062E+03 -4.391552E+05  1.031607E+04 -2.347036E+04
       348   7 -1.078161E+06 -2.509983E+05 -2.711957E+04 -4.797605E+05 -6.402054E+03 -1.522224E+04
       348   8 -1.164085E+06 -2.730440E+05 -4.137632E+04 -4.943392E+05 -3.380881E+03 -2.136216E+04
       348   9 -1.236916E+06 -3.082835E+05 -5.610184E+04 -5.239888E+05 -3.653021E+02 -2.748418E+04
       348  10 -7.869045E+05 -1.455830E+05  2.529895E+04 -3.985336E+05 -4.728280E-10  3.898158E-10
       348  11 -7.140560E+05 -1.103514E+05  3.897682E+04 -3.688732E+05 -1.512713E-09  1.066651E-09
       348  12 -6.281025E+05 -8.830140E+04  5.223279E+04 -3.542832E+05 -1.108434E-09 -3.557352E-10
       348  13 -9.325446E+05 -1.982920E+05 -9.104006E+02 -4.391517E+05  4.904123E-10  4.992900E-10
       348  14 -9.390973E+05 -1.917004E+05 -1.199344E+03 -4.316168E+05  1.238957E-09 -4.639266E-11
       348  15 -9.325570E+05 -1.982967E+05 -1.933296E+03 -4.391550E+05 -9.814892E-11  5.811966E-11
       348  16 -1.078161E+06 -2.509986E+05 -2.712009E+04 -4.797606E+05 -1.013202E-10  8.615518E-11
       348  17 -1.164085E+06 -2.730445E+05 -4.137719E+04 -4.943392E+05 -4.278522E-11  1.398556E-09
       348  18 -1.236917E+06 -3.082843E+05 -5.610326E+04 -5.239888E+05 -3.962562E-10  1.337170E-09
       348  19 -7.869042E+05 -1.455828E+05  2.529948E+04 -3.985336E+05 -1.508466E+04  7.152429E+03
       348  20 -7.140556E+05 -1.103511E+05  3.897777E+04 -3.688734E+05 -1.804652E+04  1.331245E+04
       348  21 -6.281019E+05 -8.830088E+04  5.223433E+04 -3.542836E+05 -2.100292E+04  1.945448E+04
       348  22 -9.325445E+05 -1.982919E+05 -9.101302E+02 -4.391517E+05 -4.339906E+03  1.118786E+04
       348  23 -9.390972E+05 -1.917000E+05 -1.198678E+03 -4.316169E+05 -7.330749E+03  1.733808E+04
       348  24 -9.325567E+05 -1.982961E+05 -1.932062E+03 -4.391552E+05 -1.031607E+04  2.347036E+04
       348  25 -1.078161E+06 -2.509983E+05 -2.711957E+04 -4.797605E+05  6.402054E+03  1.522224E+04
       348  26 -1.164085E+06 -2.730440E+05 -4.137632E+04 -4.943392E+05  3.380881E+03  2.136216E+04
       348  27 -1.236916E+06 -3.082835E+05 -5.610184E+04 -5.239888E+05  3.653021E+02  2.748418E+04
       349   1 -5.764013E+05 -6.954758E+04  6.131353E+04 -3.399386E+05  2.277907E+04 -2.301301E+04
       349   2 -5.036041E+05 -3.436424E+04  7.340424E+04 -3.103120E+05  2.705719E+04 -2.855388E+04
       349   3 -4.179732E+05 -1.254898E+04  8.401509E+04 -2.957148E+05  3.126919E+04 -3.391188E+04
       349   4 -9.326277E+05 -1.982860E+05 -2.514707E+03 -4.391736E+05  1.207626E+04 -2.703585E+04
       349   5 -9.390419E+05 -1.916922E+05 -4.468298E+03 -4.316176E+05  1.665945E+04 -3.246418E+04
       349   6 -9.326890E+05 -1.985286E+05 -8.144536E+03 -4.390945E+05  2.117620E+04 -3.770964E+04
       349   7 -1.288720E+06 -3.270122E+05 -6.634670E+04 -5.383555E+05  1.380019E+03 -3.105623E+04
       349   8 -1.374277E+06 -3.490013E+05 -8.234610E+04 -5.528432E+05  6.269536E+03 -3.637154E+04
       349   9 -1.447120E+06 -3.844810E+05 -1.003112E+05 -5.823618E+05  1.109223E+04 -4.150404E+04
       349  10 -5.764020E+05 -6.954829E+04  6.131156E+04 -3.399381E+05 -8.326006E-10 -1.799114E-10
       349  11 -5.036051E+05 -3.436531E+04  7.340134E+04 -3.103114E+05 -8.532986E-10  1.497635E-10
       349  12 -4.179745E+05 -1.255047E+04  8.401109E+04 -2.957140E+05 -1.527975E-09  7.619917E-10
       349  13 -9.326280E+05 -1.982868E+05 -2.516353E+03 -4.391734E+05 -1.540955E-09  9.308825E-10
       349  14 -9.390425E+05 -1.916934E+05 -4.470799E+03 -4.316172E+05 -3.672205E-10  2.541565E-09
       349  15 -9.326899E+05 -1.985302E+05 -8.148049E+03 -4.390938E+05 -9.862054E-10  1.045815E-10
       349  16 -1.288720E+06 -3.270132E+05 -6.634852E+04 -5.383554E+05  2.149878E-10  1.991222E-09
       349  17 -1.374277E+06 -3.490027E+05 -8.234866E+04 -5.528430E+05  1.702658E-09  7.615902E-10
       349  18 -1.447121E+06 -3.844829E+05 -1.003147E+05 -5.823614E+05 -2.465824E-10  2.030230E-09
       349  19 -5.764013E+05 -6.954758E+04  6.131353E+04 -3.399386E+05 -2.277907E+04  2.301301E+04
       349  20 -5.036041E+05 -3.436424E+04  7.340424E+04 -3.103120E+05 -2.705719E+04  2.855388E+04
       349  21 -4.179732E+05 -1.254898E+04  8.401509E+04 -2.957148E+05 -3.126919E+04  3.391188E+04
       349  22 -9.326277E+05 -1.982860E+05 -2.514707E+03 -4.391736E+05 -1.207626E+04  2.703585E+04
       349  23 -9.390419E+05 -1.916922E+05 -4.468298E+03 -4.316176E+05 -1.665945E+04  3.246418E+04
       349  24 -9.326890E+05 -1.985286E+05 -8.144536E+03 -4.390945E+05 -2.117620E+04  3.770964E+04
       349  25 -1.288720E+06 -3.270122E+05 -6.634670E+04 -5.383555E+05 -1.380019E+03  3.105623E+04
       349  26 -1.374277E+06 -3.490013E+05 -8.234610E+04 -5.528432E+05 -6.269536E+03  3.637154E+04
       349  27 -1.447120E+06 -3.844810E+05 -1.003112E+05 -5.823618E+05 -1.109223E+04  4.150404E+04
       350   1 -3.662463E+05  5.817538E+03  9.107769E+04 -2.821535E+05  3.438978E+04 -3.685960E+04
       350   2 -2.946542E+05  4.153645E+04  9.739675E+04 -2.500892E+05  4.283211E+04 -3.951658E+04
       350   3 -2.125895E+05  5.959705E+04  9.762874E+04 -2.318985E+05  5.050006E+04 -4.010534E+04
       350   4 -9.331896E+05 -1.983994E+05 -1.084115E+04 -4.393019E+05  2.403749E+04 -4.075632E+04
       350   5 -9.386289E+05 -1.929712E+05 -1.985143E+04 -4.309630E+05  3.595239E+04 -4.211018E+04
       350   6 -9.342952E+05 -2.058969E+05 -3.770974E+04 -4.365025E+05  4.709156E+04 -4.139497E+04
       350   7 -1.499800E+06 -4.025888E+05 -1.127721E+05 -5.963182E+05  1.369519E+04 -4.464935E+04
       350   8 -1.582171E+06 -4.274399E+05 -1.371152E+05 -6.116623E+05  2.908024E+04 -4.470091E+04
       350   9 -1.655455E+06 -4.713391E+05 -1.730688E+05 -6.408838E+05  4.368729E+04 -4.268298E+04
       350  10 -3.662480E+05  5.815763E+03  9.107292E+04 -2.821525E+05  9.667182E-10  1.896208E-09
       350  11 -2.946566E+05  4.153428E+04  9.739037E+04 -2.500878E+05 -8.918515E-10  1.523358E-10
       350  12 -2.125926E+05  5.959464E+04  9.762093E+04 -2.318969E+05 -3.659811E-09  6.654705E-10
       350  13 -9.331907E+05 -1.984014E+05 -1.084536E+04 -4.393011E+05  1.423481E-09 -6.229238E-11
       350  14 -9.386308E+05 -1.929735E+05 -1.985719E+04 -4.309617E+05  5.668679E-11  1.307532E-09
       350  15 -9.342980E+05 -2.058993E+05 -3.771713E+04 -4.365009E+05 -5.602475E-11  1.680993E-09
       350  16 -1.499801E+06 -4.025910E+05 -1.127762E+05 -5.963177E+05 -1.061682E-09  5.294788E-10
       350  17 -1.582172E+06 -4.274423E+05 -1.371205E+05 -6.116612E+05  7.795255E-10  1.269263E-09
       350  18 -1.655458E+06 -4.713415E+05 -1.730758E+05 -6.408823E+05  2.384645E-09  1.690098E-09
       350  19 -3.662463E+05  5.817538E+03  9.107769E+04 -2.821535E+05 -3.438978E+04  3.685960E+04
       350  20 -2.946542E+05  4.153645E+04  9.739675E+04 -2.500892E+05 -4.283211E+04  3.951658E+04
       350  21 -2.125895E+05  5.959705E+04  9.762874E+04 -2.318985E+05 -5.050006E+04  4.010534E+04
       350  22 -9.331896E+05 -1.983994E+05 -1.084115E+04 -4.393019E+05 -2.403749E+04  4.075632E+04
       350  23 -9.386289E+05 -1.929712E+05 -1.985143E+04 -4.309630E+05 -3.595239E+04  4.211018E+04
       350  24 -9.342952E+05 -2.058969E+05 -3.770974E+04 -4.365025E+05 -4.709156E+04  4.139497E+04
       350  25 -1.499800E+06 -4.025888E+05 -1.127721E+05 -5.963182E+05 -1.369519E+04  4.464935E+04
       350  26 -1.582171E+06 -4.274399E+05 -1.371152E+05 -6.116623E+05 -2.908024E+04  4.470091E+04
       350  27 -1.655455E+06 -4.713391E+05 -1.730688E+05 -6.408838E+05 -4.368729E+04  4.268298E+04
       351   1 -1.567816E+05  7.147911E+04  9.653768E+04 -2.308428E+05  6.031374E+04 -3.943670E+04
       351   2 -1.180179E+05  1.205569E+05  8.252716E+04 -1.396168E+05  6.614967E+04 -2.788454E+04
       351   3 -1.033258E+05  6.588106E+04  3.659021E+04 -3.711914E+04  6.289260E+04  7.798543E+03
       351   4 -9.404212E+05 -2.040790E+05 -5.001981E+04 -4.394316E+05  5.374488E+04 -4.191600E+04
       351   5 -9.355573E+05 -2.268699E+05 -9.501347E+04 -4.154534E+05  1.001959E+05 -1.507514E+04
       351   6 -9.628836E+05 -3.615673E+05 -2.041892E+05 -3.801969E+05  1.375435E+05  3.590933E+04
       351   7 -1.723419E+06 -4.795906E+05 -1.966011E+05 -6.477794E+05  4.718489E+04 -4.439223E+04
       351   8 -1.752386E+06 -5.741661E+05 -2.725832E+05 -6.909263E+05  1.341935E+05 -2.290654E+03
       351   9 -1.821651E+06 -7.887690E+05 -4.450030E+05 -7.227749E+05  2.120794E+05  6.394512E+04
       351  10 -1.567859E+05  7.147647E+04  9.652792E+04 -2.308409E+05  1.786124E-09  2.502019E-09
       351  11 -1.180228E+05  1.205549E+05  8.251748E+04 -1.396153E+05  1.604950E-10 -1.454246E-09
       351  12 -1.033301E+05  6.587993E+04  3.658266E+04 -3.711954E+04 -1.296830E-09 -3.429146E-10
       351  13 -9.404247E+05 -2.040817E+05 -5.002854E+04 -4.394297E+05 -5.477866E-10  7.328968E-10
       351  14 -9.355681E+05 -2.268728E+05 -9.503279E+04 -4.154522E+05 -1.713947E-09  7.633594E-10
       351  15 -9.629043E+05 -3.615738E+05 -2.042272E+05 -3.802009E+05 -8.411496E-10  6.836351E-10
       351  16 -1.723422E+06 -4.795933E+05 -1.966089E+05 -6.477777E+05 -3.211629E-09 -3.379395E-10
       351  17 -1.752405E+06 -5.741709E+05 -2.726172E+05 -6.909261E+05 -3.680147E-09  1.776578E-09
       351  18 -1.821700E+06 -7.887855E+05 -4.450955E+05 -7.227858E+05  7.555731E-10 -9.585388E-10
       351  19 -1.567816E+05  7.147911E+04  9.653768E+04 -2.308428E+05 -6.031374E+04  3.943670E+04
       351  20 -1.180179E+05  1.205569E+05  8.252716E+04 -1.396168E+05 -6.614967E+04  2.788454E+04
       351  21 -1.033258E+05  6.588106E+04  3.659021E+04 -3.711914E+04 -6.289260E+04 -7.798543E+03
       351  22 -9.404212E+05 -2.040790E+05 -5.001981E+04 -4.394316E+05 -5.374488E+04  4.191600E+04
       351  23 -9.355573E+05 -2.268699E+05 -9.501347E+04 -4.154534E+05 -1.001959E+05  1.507514E+04
       351  24 -9.628836E+05 -3.615673E+05 -2.041892E+05 -3.801969E+05 -1.375435E+05 -3.590933E+04
       351  25 -1.723419E+06 -4.795906E+05 -1.966011E+05 -6.477794E+05 -4.718489E+04  4.439223E+04
       351  26 -1.752386E+06 -5.741661E+05 -2.725832E+05 -6.909263E+05 -1.341935E+05  2.290654E+03
       351  27 -1.821651E+06 -7.887690E+05 -4.450030E+05 -7.227749E+05 -2.120794E+05 -6.394512E+04
       352   1 -1.809341E+05 -2.204661E+04 -6.119198E+04 -3.779765E+04 -1.181770E+05 -5.919196E+03
       352   2 -1.882813E+05  1.365906E+05  3.123801E+04 -9.748645E+03 -8.074516E+04 -1.775663E+04
       352   3 -2.440512E+05  1.205814E+05  5.567913E+04  3.775835E+04 -4.333627E+04 -1.736170E+04
       352   4 -6.982948E+05 -1.508010E+05 -1.883117E+05  1.590261E+04 -1.289031E+05 -5.946517E+03
       352   5 -6.733986E+05  1.670444E+04 -8.320564E+04  6.040265E+03 -8.416862E+04 -1.776583E+04
       352   6 -6.982375E+05  8.215635E+03 -5.120308E+04  1.563756E+04 -3.945454E+04 -1.735312E+04
       352   7 -1.215405E+06 -2.795643E+05 -3.154491E+05  6.955793E+04 -1.396203E+05 -5.975710E+03
       352   8 -1.158299E+06 -1.031976E+05 -1.976654E+05  2.181667E+04 -8.758940E+04 -1.777522E+04
       352   9 -1.152233E+06 -1.041631E+05 -1.580992E+05 -6.467028E+03 -3.557561E+04 -1.734482E+04
       352  10 -1.809491E+05 -2.205040E+04 -6.121829E+04 -3.779821E+04 -1.105310E-11  3.570057E-10
       352  11 -1.882884E+05  1.365885E+05  3.122516E+04 -9.749799E+03  1.147822E-09 -1.748227E-09
       352  12 -2.440533E+05  1.205806E+05  5.567503E+04  3.775774E+04  1.994241E-09 -3.533415E-09
       352  13 -6.983127E+05 -1.508055E+05 -1.883430E+05  1.590199E+04  1.121306E-09  1.886237E-09
       352  14 -6.734063E+05  1.670220E+04 -8.321957E+04  6.039061E+03 -1.390815E-10 -3.294192E-10
       352  15 -6.982392E+05  8.214893E+03 -5.120657E+04  1.563701E+04  1.035864E-09  2.421023E-10
       352  16 -1.215426E+06 -2.795696E+05 -3.154859E+05  6.955726E+04  4.249595E-10  1.089880E-09
       352  17 -1.158307E+06 -1.032000E+05 -1.976804E+05  2.181541E+04  7.805074E-10 -3.794186E-09
       352  18 -1.152234E+06 -1.041637E+05 -1.581021E+05 -6.467526E+03 -1.112660E-09 -5.178534E-09
       352  19 -1.809341E+05 -2.204661E+04 -6.119198E+04 -3.779765E+04  1.181770E+05  5.919196E+03
       352  20 -1.882813E+05  1.365906E+05  3.123801E+04 -9.748645E+03  8.074516E+04  1.775663E+04
       352  21 -2.440512E+05  1.205814E+05  5.567913E+04  3.775835E+04  4.333627E+04  1.736170E+04
       352  22 -6.982948E+05 -1.508010E+05 -1.883117E+05  1.590261E+04  1.289031E+05  5.946517E+03
       352  23 -6.733986E+05  1.670444E+04 -8.320564E+04  6.040265E+03  8.416862E+04  1.776583E+04
       352  24 -6.982375E+05  8.215635E+03 -5.120308E+04  1.563756E+04  3.945454E+04  1.735312E+04
       352  25 -1.215405E+06 -2.795643E+05 -3.154491E+05  6.955793E+04  1.396203E+05  5.975710E+03
       352  26 -1.158299E+06 -1.031976E+05 -1.976654E+05  2.181667E+04  8.758940E+04  1.777522E+04
       352  27 -1.152233E+06 -1.041631E+05 -1.580992E+05 -6.467028E+03  3.557561E+04  1.734482E+04
       353   1 -2.700175E+05  8.979240E+04  5.730659E+04  1.229497E+04 -3.185262E+04 -1.490442E+04
       353   2 -2.996296E+05  9.707638E+04  6.948646E+04  5.364837E+03 -2.133798E+04 -1.425526E+04
       353   3 -3.346195E+05  8.832394E+04  7.081110E+04  1.871163E+04 -1.082624E+04 -1.285192E+04
       353   4 -6.884021E+05 -1.367749E+04 -4.154583E+04  1.592380E+04 -3.168863E+04 -1.490496E+04
       353   5 -6.856655E+05  1.630443E+03 -2.152504E+04  5.768464E+03 -2.072835E+04 -1.425446E+04
       353   6 -6.883887E+05  8.187991E+02 -1.267436E+04  1.589097E+04 -9.770398E+03 -1.284967E+04
       353   7 -1.106626E+06 -1.171599E+05 -1.404104E+05  1.955008E+04 -3.152475E+04 -1.490550E+04
       353   8 -1.071564E+06 -9.382615E+04 -1.125468E+05  6.171756E+03 -2.011908E+04 -1.425365E+04
       353   9 -1.042043E+06 -8.669528E+04 -9.616847E+04  1.307185E+04 -8.715157E+03 -1.284743E+04
       353  10 -2.700187E+05  8.979189E+04  5.730427E+04  1.229458E+04 -1.773022E-09 -5.667139E-09
       353  11 -2.996302E+05  9.707603E+04  6.948522E+04  5.364593E+03 -1.989253E-09  1.305522E-09
       353  12 -3.346197E+05  8.832373E+04  7.081057E+04  1.871152E+04 -2.039128E-09  3.533436E-09
       353  13 -6.884032E+05 -1.367800E+04 -4.154814E+04  1.592342E+04  6.016454E-10 -4.545176E-09
       353  14 -6.856660E+05  1.630109E+03 -2.152623E+04  5.768226E+03 -4.464294E-10 -1.133737E-09
       353  15 -6.883888E+05  8.185962E+02 -1.267485E+04  1.589086E+04  8.333642E-10 -2.529715E-09
       353  16 -1.106627E+06 -1.171604E+05 -1.404127E+05  1.954970E+04  1.210464E-09 -1.346879E-09
       353  17 -1.071565E+06 -9.382648E+04 -1.125480E+05  6.171525E+03  1.249099E-09 -8.761656E-10
       353  18 -1.042043E+06 -8.669548E+04 -9.616892E+04  1.307176E+04  5.128026E-10  1.499266E-10
       353  19 -2.700175E+05  8.979240E+04  5.730659E+04  1.229497E+04  3.185262E+04  1.490442E+04
       353  20 -2.996296E+05  9.707638E+04  6.948646E+04  5.364837E+03  2.133798E+04  1.425526E+04
       353  21 -3.346195E+05  8.832394E+04  7.081110E+04  1.871163E+04  1.082624E+04  1.285192E+04
       353  22 -6.884021E+05 -1.367749E+04 -4.154583E+04  1.592380E+04  3.168863E+04  1.490496E+04
       353  23 -6.856655E+05  1.630443E+03 -2.152504E+04  5.768464E+03  2.072835E+04  1.425446E+04
       353  24 -6.883887E+05  8.187991E+02 -1.267436E+04  1.589097E+04  9.770398E+03  1.284967E+04
       353  25 -1.106626E+06 -1.171599E+05 -1.404104E+05  1.955008E+04  3.152475E+04  1.490550E+04
       353  26 -1.071564E+06 -9.382615E+04 -1.125468E+05  6.171756E+03  2.011908E+04  1.425365E+04
       353  27 -1.042043E+06 -8.669528E+04 -9.616847E+04  1.307185E+04  8.715157E+03  1.284743E+04
       354   1 -3.702890E+05  7.723593E+04  6.480097E+04  1.641525E+04 -8.623677E+03 -1.190218E+04
       354   2 -4.029300E+05  7.042433E+04  6.147352E+04  6.233911E+03 -5.919348E+03 -1.047835E+04
       354   3 -4.363434E+05  6.224945E+04  5.602636E+04  1.679537E+04 -3.216067E+03 -8.999137E+03
       354   4 -6.873430E+05 -1.145639E+03 -9.868215E+03  1.600691E+04 -7.788051E+03 -1.190037E+04
       354   5 -6.869504E+05  1.923161E+02 -5.487715E+03  5.633409E+03 -5.051788E+03 -1.047624E+04
       354   6 -6.873372E+05  1.610159E+02 -3.249889E+03  1.600331E+04 -2.316432E+03 -8.996726E+03
       354   7 -1.004304E+06 -7.953439E+04 -8.454432E+04  1.559871E+04 -6.952848E+03 -1.189856E+04
       354   8 -9.708965E+05 -7.004547E+04 -7.245451E+04  5.033131E+03 -4.184623E+03 -1.047414E+04
       354   9 -9.382730E+05 -6.193193E+04 -6.253050E+04  1.521153E+04 -1.417159E+03 -8.994317E+03
       354  10 -3.702891E+05  7.723576E+04  6.480056E+04  1.641517E+04  4.359977E-09  6.227860E-09
       354  11 -4.029301E+05  7.042420E+04  6.147324E+04  6.233861E+03 -9.653398E-10  4.036535E-09
       354  12 -4.363434E+05  6.224936E+04  5.602619E+04  1.679535E+04 -3.847310E-09 -8.788549E-10
       354  13 -6.873431E+05 -1.145808E+03 -9.868595E+03  1.600683E+04  1.387441E-09 -1.841403E-09
       354  14 -6.869504E+05  1.921915E+02 -5.487969E+03  5.633366E+03 -2.830855E-09  4.420604E-09
       354  15 -6.873372E+05  1.609276E+02 -3.250051E+03  1.600329E+04  6.552621E-10  6.860193E-09
       354  16 -1.004304E+06 -7.953456E+04 -8.454467E+04  1.559864E+04 -6.171255E-09  2.988953E-09
       354  17 -9.708965E+05 -7.004559E+04 -7.245475E+04  5.033096E+03  9.629410E-10  6.691885E-09
       354  18 -9.382730E+05 -6.193202E+04 -6.253065E+04  1.521152E+04  4.116903E-09  4.323654E-09
       354  19 -3.702890E+05  7.723593E+04  6.480097E+04  1.641525E+04  8.623677E+03  1.190218E+04
       354  20 -4.029300E+05  7.042433E+04  6.147352E+04  6.233911E+03  5.919348E+03  1.047835E+04
       354  21 -4.363434E+05  6.224945E+04  5.602636E+04  1.679537E+04  3.216067E+03  8.999137E+03
       354  22 -6.873430E+05 -1.145639E+03 -9.868215E+03  1.600691E+04  7.788051E+03  1.190037E+04
       354  23 -6.869504E+05  1.923161E+02 -5.487715E+03  5.633409E+03  5.051788E+03  1.047624E+04
       354  24 -6.873372E+05  1.610159E+02 -3.249889E+03  1.600331E+04  2.316432E+03  8.996726E+03
       354  25 -1.004304E+06 -7.953439E+04 -8.454432E+04  1.559871E+04  6.952848E+03  1.189856E+04
       354  26 -9.708965E+05 -7.004547E+04 -7.245451E+04  5.033131E+03  4.184623E+03  1.047414E+04
       354  27 -9.382730E+05 -6.193193E+04 -6.253050E+04  1.521153E+04  1.417159E+03  8.994317E+03
       355   1 -4.736410E+05  5.278764E+04  4.770396E+04  1.657754E+04 -2.688252E+03 -8.127947E+03
       355   2 -5.070602E+05  4.457879E+04  4.082114E+04  5.981705E+03 -1.892416E+03 -6.638072E+03
       355   3 -5.407217E+05  3.635672E+04  3.338680E+04  1.645026E+04 -1.097160E+03 -5.138938E+03
       355   4 -6.872139E+05 -7.158667E+00 -2.551907E+03  1.607604E+04 -1.798650E+03 -8.125450E+03
       355   5 -6.870899E+05  5.818454E+01 -1.625537E+03  5.543454E+03 -9.975342E+02 -6.635425E+03
       355   6 -6.872108E+05  1.092770E+02 -1.254592E+03  1.607564E+04 -1.969542E+02 -5.136136E+03
       355   7 -9.007447E+05 -5.280521E+04 -5.281091E+04  1.557468E+04 -9.093535E+02 -8.122953E+03
       355   8 -8.670897E+05 -4.446474E+04 -4.407445E+04  5.105308E+03 -1.029103E+02 -6.632780E+03
       355   9 -8.336802E+05 -3.613971E+04 -3.589747E+04  1.570108E+04  7.030397E+02 -5.133336E+03
       355  10 -4.736411E+05  5.278756E+04  4.770382E+04  1.657752E+04  2.399586E-09 -7.911329E-10
       355  11 -5.070602E+05  4.457875E+04  4.082105E+04  5.981695E+03 -1.988903E-09  8.571597E-09
       355  12 -5.407217E+05  3.635669E+04  3.338674E+04  1.645026E+04 -2.698868E-09  6.717142E-09
       355  13 -6.872139E+05 -7.230411E+00 -2.552037E+03  1.607603E+04  2.143481E-11  8.807528E-10
       355  14 -6.870899E+05  5.813701E+01 -1.625622E+03  5.543449E+03 -1.901475E-09  6.492492E-09
       355  15 -6.872108E+05  1.092487E+02 -1.254642E+03  1.607563E+04 -1.130426E-09  1.991486E-09
       355  16 -9.007447E+05 -5.280528E+04 -5.281103E+04  1.557467E+04 -2.963972E-09  1.002894E-09
       355  17 -8.670897E+05 -4.446479E+04 -4.407453E+04  5.105308E+03  1.786266E-09 -8.027808E-10
       355  18 -8.336802E+05 -3.613974E+04 -3.589752E+04  1.570109E+04  1.344127E-09 -1.238540E-09
       355  19 -4.736410E+05  5.278764E+04  4.770396E+04  1.657754E+04  2.688252E+03  8.127947E+03
       355  20 -5.070602E+05  4.457879E+04  4.082114E+04  5.981705E+03  1.892416E+03  6.638072E+03
       355  21 -5.407217E+05  3.635672E+04  3.338680E+04  1.645026E+04  1.097160E+03  5.138938E+03
       355  22 -6.872139E+05 -7.158667E+00 -2.551907E+03  1.607604E+04  1.798650E+03  8.125450E+03
       355  23 -6.870899E+05  5.818454E+01 -1.625537E+03  5.543454E+03  9.975342E+02  6.635425E+03
       355  24 -6.872108E+05  1.092770E+02 -1.254592E+03  1.607564E+04  1.969542E+02  5.136136E+03
       355  25 -9.007447E+05 -5.280521E+04 -5.281091E+04  1.557468E+04  9.093535E+02  8.122953E+03
       355  26 -8.670897E+05 -4.446474E+04 -4.407445E+04  5.105308E+03  1.029103E+02  6.632780E+03
       355  27 -8.336802E+05 -3.613971E+04 -3.589747E+04  1.570108E+04 -7.030397E+02  5.133336E+03
       356   1 -5.785903E+05  2.694810E+04  2.428924E+04  1.636667E+04 -8.781036E+02 -4.263393E+03
       356   2 -6.122826E+05  1.856146E+04  1.620525E+04  5.663220E+03 -1.742526E+02 -2.756343E+03
       356   3 -6.462310E+05  1.018958E+04  7.629424E+03  1.620530E+04  5.293574E+02 -1.247816E+03
       356   4 -6.872109E+05  1.058280E+02 -1.220868E+03  1.611586E+04  2.366730E+01 -4.260522E+03
       356   5 -6.870820E+05  6.280595E+01 -1.431731E+03  5.493115E+03  7.283071E+02 -2.753415E+03
       356   6 -6.872099E+05  3.459287E+01 -2.134824E+03  1.611606E+04  1.432744E+03 -1.244826E+03
       356   7 -7.958206E+05 -2.673729E+04 -2.673178E+04  1.586508E+04  9.252812E+02 -4.257652E+03
       356   8 -7.618762E+05 -1.843625E+04 -1.906910E+04  5.323026E+03  1.630759E+03 -2.750487E+03
       356   9 -7.281871E+05 -1.012051E+04 -1.189919E+04  1.602682E+04  2.336071E+03 -1.241836E+03
       356  10 -5.785903E+05  2.694808E+04  2.428920E+04  1.636666E+04  4.504721E-09  1.788613E-09
       356  11 -6.122826E+05  1.856146E+04  1.620524E+04  5.663220E+03  1.074567E-09 -4.641415E-10
       356  12 -6.462310E+05  1.018957E+04  7.629420E+03  1.620530E+04 -1.142159E-09 -2.192006E-09
       356  13 -6.872109E+05  1.058085E+02 -1.220902E+03  1.611586E+04  7.140780E-10  1.030945E-08
       356  14 -6.870820E+05  6.279767E+01 -1.431746E+03  5.493117E+03 -2.800367E-09  1.998791E-09
       356  15 -6.872099E+05  3.459065E+01 -2.134831E+03  1.611606E+04  1.638140E-10 -3.755960E-09
       356  16 -7.958206E+05 -2.673731E+04 -2.673182E+04  1.586508E+04 -6.164372E-09  5.190923E-09
       356  17 -7.618762E+05 -1.843626E+04 -1.906912E+04  5.323030E+03 -1.622190E-09 -1.923532E-09
       356  18 -7.281871E+05 -1.012051E+04 -1.189920E+04  1.602682E+04  1.256578E-09 -5.713253E-09
       356  19 -5.785903E+05  2.694810E+04  2.428924E+04  1.636667E+04  8.781036E+02  4.263393E+03
       356  20 -6.122826E+05  1.856146E+04  1.620525E+04  5.663220E+03  1.742526E+02  2.756343E+03
       356  21 -6.462310E+05  1.018958E+04  7.629424E+03  1.620530E+04 -5.293574E+02  1.247816E+03
       356  22 -6.872109E+05  1.058280E+02 -1.220868E+03  1.611586E+04 -2.366730E+01  4.260522E+03
       356  23 -6.870820E+05  6.280595E+01 -1.431731E+03  5.493115E+03 -7.283071E+02  2.753415E+03
       356  24 -6.872099E+05  3.459287E+01 -2.134824E+03  1.611606E+04 -1.432744E+03  1.244826E+03
       356  25 -7.958206E+05 -2.673729E+04 -2.673178E+04  1.586508E+04 -9.252812E+02  4.257652E+03
       356  26 -7.618762E+05 -1.843625E+04 -1.906910E+04  5.323026E+03 -1.630759E+03  2.750487E+03
       356  27 -7.281871E+05 -1.012051E+04 -1.189919E+04  1.602682E+04 -2.336071E+03  1.241836E+03
       357   1 -6.843869E+05  8.712250E+02 -2.098799E+03  1.594059E+04  9.514590E+02 -3.645102E+02
       357   2 -7.178888E+05 -7.468409E+03 -1.177009E+04  5.405132E+03  3.195738E+03  1.149963E+03
       357   3 -7.521249E+05 -1.688201E+04 -2.321043E+04  1.614659E+04  5.440057E+03  2.638967E+03
       357   4 -6.873151E+05  1.688494E+02 -2.687503E+03  1.612175E+04  1.862580E+03 -3.614831E+02
       357   5 -6.869497E+05  1.837501E+02 -4.474248E+03  5.485033E+03  4.091676E+03  1.152914E+03
       357   6 -6.873168E+05 -8.725280E+02 -8.019286E+03  1.612518E+04  6.320934E+03  2.641845E+03
       357   7 -6.902434E+05 -5.335261E+02 -3.276205E+03  1.630290E+04  2.773697E+03 -3.584555E+02
       357   8 -6.560097E+05  7.835841E+03  2.821533E+03  5.564938E+03  4.987659E+03  1.155865E+03
       357   9 -6.225048E+05  1.513665E+04  7.171571E+03  1.610376E+04  7.201903E+03  2.644724E+03
       357  10 -6.843869E+05  8.712246E+02 -2.098801E+03  1.594059E+04 -4.207498E-09  1.916024E-09
       357  11 -7.178888E+05 -7.468413E+03 -1.177011E+04  5.405129E+03 -3.518270E-09  1.208214E-10
       357  12 -7.521249E+05 -1.688202E+04 -2.321050E+04  1.614658E+04 -9.231141E-10  2.731356E-09
       357  13 -6.873151E+05  1.688484E+02 -2.687510E+03  1.612175E+04  3.414506E-09 -1.477723E-09
       357  14 -6.869497E+05  1.837441E+02 -4.474282E+03  5.485030E+03 -1.505835E-09  8.774336E-11
       357  15 -6.873168E+05 -8.725462E+02 -8.019374E+03  1.612517E+04  7.235762E-10  2.065742E-09
       357  16 -6.902434E+05 -5.335283E+02 -3.276220E+03  1.630290E+04  3.966882E-09 -5.973084E-11
       357  17 -6.560098E+05  7.835833E+03  2.821484E+03  5.564934E+03  3.702723E-09 -9.152039E-09
       357  18 -6.225048E+05  1.513663E+04  7.171461E+03  1.610375E+04  1.763941E-09 -7.559052E-10
       357  19 -6.843869E+05  8.712250E+02 -2.098799E+03  1.594059E+04 -9.514590E+02  3.645102E+02
       357  20 -7.178888E+05 -7.468409E+03 -1.177009E+04  5.405132E+03 -3.195738E+03 -1.149963E+03
       357  21 -7.521249E+05 -1.688201E+04 -2.321043E+04  1.614659E+04 -5.440057E+03 -2.638967E+03
       357  22 -6.873151E+05  1.688494E+02 -2.687503E+03  1.612175E+04 -1.862580E+03  3.614831E+02
       357  23 -6.869497E+05  1.837501E+02 -4.474248E+03  5.485033E+03 -4.091676E+03 -1.152914E+03
       357  24 -6.873168E+05 -8.725280E+02 -8.019286E+03  1.612518E+04 -6.320934E+03 -2.641845E+03
       357  25 -6.902434E+05 -5.335261E+02 -3.276205E+03  1.630290E+04 -2.773697E+03  3.584555E+02
       357  26 -6.560097E+05  7.835841E+03  2.821533E+03  5.564938E+03 -4.987659E+03 -1.155865E+03
       357  27 -6.225048E+05  1.513665E+04  7.171571E+03  1.610376E+04 -7.201903E+03 -2.644724E+03
       358   1 -7.909415E+05 -2.473274E+04 -3.462322E+04  1.410493E+04  6.927600E+03  3.573943E+03
       358   2 -8.223380E+05 -3.238169E+04 -4.963509E+04  6.074781E+03  1.605640E+04  5.070367E+03
       358   3 -8.583459E+05 -5.310195E+04 -7.389739E+04  1.921893E+04  2.518614E+04  6.157103E+03
       358   4 -6.881703E+05  7.190354E+02 -1.029322E+04  1.608884E+04  7.930626E+03  3.577199E+03
       358   5 -6.858900E+05  1.361334E+03 -1.745563E+04  5.520272E+03  1.681558E+04  5.072690E+03
       358   6 -6.881788E+05 -1.102360E+04 -3.369736E+04  1.612588E+04  2.570197E+04  6.158462E+03
       358   7 -5.853894E+05  2.617006E+04  1.403606E+04  1.807308E+04  8.933818E+03  3.580461E+03
       358   8 -5.494249E+05  3.510303E+04  1.472255E+04  4.965626E+03  1.757493E+04  5.075011E+03
       358   9 -5.179851E+05  3.105272E+04  6.500668E+03  1.303195E+04  2.621794E+04  6.159816E+03
       358  10 -7.909416E+05 -2.473276E+04 -3.462334E+04  1.410491E+04 -4.834664E-09  1.035907E-08
       358  11 -8.223383E+05 -3.238179E+04 -4.963562E+04  6.074716E+03 -1.279370E-09  4.717413E-09
       358  12 -8.583466E+05 -5.310216E+04 -7.389866E+04  1.921881E+04  4.339435E-09  4.501175E-09
       358  13 -6.881704E+05  7.190047E+02 -1.029336E+04  1.608882E+04  1.707624E-09  4.614274E-09
       358  14 -6.858903E+05  1.361230E+03 -1.745621E+04  5.520203E+03 -2.261124E-09  3.273891E-09
       358  15 -6.881795E+05 -1.102381E+04 -3.369868E+04  1.612575E+04  1.316760E-09 -1.770373E-09
       358  16 -5.853895E+05  2.617003E+04  1.403589E+04  1.807305E+04  3.170673E-09  2.274203E-09
       358  17 -5.494252E+05  3.510292E+04  1.472192E+04  4.965554E+03  2.511278E-09  3.801880E-10
       358  18 -5.179858E+05  3.105249E+04  6.499304E+03  1.303182E+04 -5.414146E-09 -6.785040E-09
       358  19 -7.909415E+05 -2.473274E+04 -3.462322E+04  1.410493E+04 -6.927600E+03 -3.573943E+03
       358  20 -8.223380E+05 -3.238169E+04 -4.963509E+04  6.074781E+03 -1.605640E+04 -5.070367E+03
       358  21 -8.583459E+05 -5.310195E+04 -7.389739E+04  1.921893E+04 -2.518614E+04 -6.157103E+03
       358  22 -6.881703E+05  7.190354E+02 -1.029322E+04  1.608884E+04 -7.930626E+03 -3.577199E+03
       358  23 -6.858900E+05  1.361334E+03 -1.745563E+04  5.520272E+03 -1.681558E+04 -5.072690E+03
       358  24 -6.881788E+05 -1.102360E+04 -3.369736E+04  1.612588E+04 -2.570197E+04 -6.158462E+03
       358  25 -5.853894E+05  2.617006E+04  1.403606E+04  1.807308E+04 -8.933818E+03 -3.580461E+03
       358  26 -5.494249E+05  3.510303E+04  1.472255E+04  4.965626E+03 -1.757493E+04 -5.075011E+03
       358  27 -5.179851E+05  3.105272E+04  6.500668E+03  1.303195E+04 -2.621794E+04 -6.159816E+03
       359   1 -9.039058E+05 -4.477319E+04 -9.048201E+04 -1.901136E+03  2.944631E+04  7.920250E+03
       359   2 -9.168230E+05 -4.590193E+04 -1.243179E+05  1.844025E+04  6.970644E+04  8.941367E+03
       359   3 -9.709657E+05 -1.904517E+05 -2.202691E+05  5.974456E+04  1.099842E+05  3.261583E+03
       359   4 -6.961606E+05  6.732498E+03 -4.152966E+04  1.594224E+04  3.200044E+04  7.928744E+03
       359   5 -6.759265E+05  1.359730E+04 -6.746921E+04  5.645269E+03  6.825485E+04  8.935368E+03
       359   6 -6.962066E+05 -1.222357E+05 -1.527232E+05  1.631299E+04  1.045293E+05  3.238261E+03
       359   7 -4.883750E+05  5.823627E+04  7.419900E+03  3.379159E+04  3.455542E+04  7.937383E+03
       359   8 -4.349761E+05  7.309303E+04 -1.062447E+04 -7.154748E+03  6.680270E+04  8.929431E+03
       359   9 -4.213744E+05 -5.401813E+04 -8.518181E+04 -2.713790E+04  9.907200E+04  3.215710E+03
       359  10 -9.039067E+05 -4.477349E+04 -9.048376E+04 -1.901323E+03 -5.880967E-10  3.392538E-09
       359  11 -9.168282E+05 -4.590333E+04 -1.243272E+05  1.843975E+04  8.831351E-10  2.866378E-10
       359  12 -9.709787E+05 -1.904550E+05 -2.202918E+05  5.974427E+04  8.440146E-10 -8.700124E-10
       359  13 -6.961617E+05  6.732156E+03 -4.153171E+04  1.594203E+04  1.684357E-09  3.851442E-09
       359  14 -6.759315E+05  1.359597E+04 -6.747813E+04  5.644777E+03 -8.118820E-10 -5.790885E-09
       359  15 -6.962183E+05 -1.222387E+05 -1.527438E+05  1.631272E+04 -2.140496E-10  2.338090E-09
       359  16 -4.883763E+05  5.823588E+04  7.417536E+03  3.379137E+04 -3.108260E-10  2.874148E-09
       359  17 -4.349809E+05  7.309174E+04 -1.063301E+04 -7.155228E+03 -8.877607E-10  3.422760E-09
       359  18 -4.213850E+05 -5.402078E+04 -8.520028E+04 -2.713815E+04 -1.904710E-09 -2.262673E-09
       359  19 -9.039058E+05 -4.477319E+04 -9.048201E+04 -1.901136E+03 -2.944631E+04 -7.920250E+03
       359  20 -9.168230E+05 -4.590193E+04 -1.243179E+05  1.844025E+04 -6.970644E+04 -8.941367E+03
       359  21 -9.709657E+05 -1.904517E+05 -2.202691E+05  5.974456E+04 -1.099842E+05 -3.261583E+03
       359  22 -6.961606E+05  6.732498E+03 -4.152966E+04  1.594224E+04 -3.200044E+04 -7.928744E+03
       359  23 -6.759265E+05  1.359730E+04 -6.746921E+04  5.645269E+03 -6.825485E+04 -8.935368E+03
       359  24 -6.962066E+05 -1.222357E+05 -1.527232E+05  1.631299E+04 -1.045293E+05 -3.238261E+03
       359  25 -4.883750E+05  5.823627E+04  7.419900E+03  3.379159E+04 -3.455542E+04 -7.937383E+03
       359  26 -4.349761E+05  7.309303E+04 -1.062447E+04 -7.154748E+03 -6.680270E+04 -8.929431E+03
       359  27 -4.213744E+05 -5.401813E+04 -8.518181E+04 -2.713790E+04 -9.907200E+04 -3.215710E+03
       360   1  6.205767E+05  3.191063E+06  6.752919E+05 -2.856627E+05  1.490470E+04  2.216705E+05
       360   2  2.661785E+05  2.790442E+06  4.168661E+05 -1.142810E+05  4.235750E+04  1.239488E+05
       360   3  1.947536E+05  2.473059E+06  2.925367E+05 -1.663098E+05  3.032917E+04  2.619245E+04
       360   4  2.357644E+05  1.644340E+06  2.956347E+05 -1.977361E+05  1.499464E+04  1.930910E+05
       360   5 -2.629528E+04  1.604937E+06  1.378835E+05 -8.629707E+04  4.237969E+04  1.193123E+05
       360   6 -9.219673E+03  1.644717E+06  9.787084E+04 -1.982567E+05  3.026904E+04  4.544066E+04
       360   7 -1.491962E+05  9.980102E+04 -8.419106E+04 -1.100266E+05  1.507667E+04  1.645818E+05
       360   8 -3.188663E+05  4.207202E+05 -1.411953E+05 -5.836576E+04  4.240149E+04  1.146844E+05
       360   9 -2.132374E+05  8.170078E+05 -9.684003E+04 -2.301603E+05  3.020690E+04  6.466338E+04
       360  10  6.205633E+05  3.191011E+06  6.751996E+05 -2.856654E+05  3.938230E-10  1.721953E-09
       360  11  2.661724E+05  2.790425E+06  4.168340E+05 -1.142853E+05  1.502299E-09  3.588844E-09
       360  12  1.947524E+05  2.473058E+06  2.925337E+05 -1.663105E+05  2.143106E-09  5.863001E-09
       360  13  2.357542E+05  1.644300E+06  2.955644E+05 -1.977385E+05  2.498623E-09  1.454066E-09
       360  14 -2.630102E+04  1.604921E+06  1.378534E+05 -8.630114E+04 -2.140388E-09 -1.892712E-09
       360  15 -9.221211E+03  1.644715E+06  9.786525E+04 -1.982578E+05  8.547912E-10  3.578338E-09
       360  16 -1.492037E+05  9.977188E+04 -8.424238E+04 -1.100286E+05  1.570849E-10 -2.541102E-09
       360  17 -3.188718E+05  4.207056E+05 -1.412233E+05 -5.836968E+04 -2.094640E-10 -2.483393E-09
       360  18 -2.132396E+05  8.170031E+05 -9.684959E+04 -2.301618E+05 -8.239240E-10 -8.137182E-09
       360  19  6.205767E+05  3.191063E+06  6.752919E+05 -2.856627E+05 -1.490470E+04 -2.216705E+05
       360  20  2.661785E+05  2.790442E+06  4.168661E+05 -1.142810E+05 -4.235750E+04 -1.239488E+05
       360  21  1.947536E+05  2.473059E+06  2.925367E+05 -1.663098E+05 -3.032917E+04 -2.619245E+04
       360  22  2.357644E+05  1.644340E+06  2.956347E+05 -1.977361E+05 -1.499464E+04 -1.930910E+05
       360  23 -2.629528E+04  1.604937E+06  1.378835E+05 -8.629707E+04 -4.237969E+04 -1.193123E+05
       360  24 -9.219673E+03  1.644717E+06  9.787084E+04 -1.982567E+05 -3.026904E+04 -4.544066E+04
       360  25 -1.491962E+05  9.980102E+04 -8.419106E+04 -1.100266E+05 -1.507667E+04 -1.645818E+05
       360  26 -3.188663E+05  4.207202E+05 -1.411953E+05 -5.836576E+04 -4.240149E+04 -1.146844E+05
       360  27 -2.132374E+05  8.170078E+05 -9.684003E+04 -2.301603E+05 -3.020690E+04 -6.466338E+04
       361   1  1.267913E+05  2.059536E+06  1.893330E+05 -2.098962E+05  1.559472E+04  2.180165E+04
       361   2  1.279804E+04  1.695135E+06  9.222799E+04 -8.630572E+04  2.728772E+03 -1.664384E+04
       361   3 -4.265205E+04  1.348759E+06  3.434897E+04 -1.853486E+05 -1.033092E+04 -5.507050E+04
       361   4  2.105607E+04  1.631189E+06  8.857564E+04 -1.979028E+05  1.556969E+04  2.954768E+04
       361   5 -5.178364E+03  1.622247E+06  7.508498E+04 -8.657837E+04  2.702653E+03 -8.771087E+03
       361   6  2.712094E+04  1.631194E+06  1.007472E+05 -1.978820E+05 -1.035706E+04 -4.709251E+04
       361   7 -8.469168E+04  1.203010E+06 -1.219404E+04 -1.859175E+05  1.554494E+04  3.728840E+04
       361   8 -2.315511E+04  1.549365E+06  5.794184E+04 -8.685098E+04  2.676526E+03 -8.992476E+02
       361   9  9.688885E+04  1.913702E+06  1.671402E+05 -2.104210E+05 -1.038352E+04 -3.911092E+04
       361  10  1.267909E+05  2.059535E+06  1.893317E+05 -2.098965E+05  7.839588E-10  5.784452E-09
       361  11  1.279795E+04  1.695134E+06  9.222746E+04 -8.630569E+04 -1.905366E-10  4.642796E-09
       361  12 -4.265298E+04  1.348755E+06  3.434308E+04 -1.853490E+05 -3.156459E-10  7.287332E-09
       361  13  2.105558E+04  1.631188E+06  8.857355E+04 -1.979031E+05  2.617974E-10  3.271330E-09
       361  14 -5.178393E+03  1.622247E+06  7.508482E+04 -8.657835E+04  1.195916E-09 -3.981339E-09
       361  15  2.712023E+04  1.631191E+06  1.007428E+05 -1.978824E+05  2.267445E-09  2.893257E-09
       361  16 -8.469231E+04  1.203009E+06 -1.219710E+04 -1.859179E+05 -8.087645E-10 -7.141437E-09
       361  17 -2.315512E+04  1.549365E+06  5.794182E+04 -8.685098E+04 -2.505813E-09 -2.704894E-09
       361  18  9.688833E+04  1.913700E+06  1.671372E+05 -2.104213E+05  5.043397E-11 -9.258913E-09
       361  19  1.267913E+05  2.059536E+06  1.893330E+05 -2.098962E+05 -1.559472E+04 -2.180165E+04
       361  20  1.279804E+04  1.695135E+06  9.222799E+04 -8.630572E+04 -2.728772E+03  1.664384E+04
       361  21 -4.265205E+04  1.348759E+06  3.434897E+04 -1.853486E+05  1.033092E+04  5.507050E+04
       361  22  2.105607E+04  1.631189E+06  8.857564E+04 -1.979028E+05 -1.556969E+04 -2.954768E+04
       361  23 -5.178364E+03  1.622247E+06  7.508498E+04 -8.657837E+04 -2.702653E+03  8.771087E+03
       361  24  2.712094E+04  1.631194E+06  1.007472E+05 -1.978820E+05  1.035706E+04  4.709251E+04
       361  25 -8.469168E+04  1.203010E+06 -1.219404E+04 -1.859175E+05 -1.554494E+04 -3.728840E+04
       361  26 -2.315511E+04  1.549365E+06  5.794184E+04 -8.685098E+04 -2.676526E+03  8.992476E+02
       361  27  9.688885E+04  1.913702E+06  1.671402E+05 -2.104210E+05  1.038352E+04  3.911092E+04
       362   1 -1.809383E+05  9.676065E+05 -4.507231E+04 -2.392122E+05 -2.455295E+04 -8.378998E+04
       362   2 -2.894232E+05  5.619619E+05 -7.373360E+04 -5.177207E+04 -3.695001E+04 -1.535528E+05
       362   3 -4.975984E+04  2.521163E+05  2.995767E+04 -8.725964E+04 -1.322417E+04 -2.231785E+05
       362   4 -1.305925E+04  1.649219E+06  1.153111E+05 -1.982019E+05 -2.461758E+04 -6.543442E+04
       362   5 -3.305392E+04  1.599404E+06  1.707605E+05 -8.640142E+04 -3.692841E+04 -1.570309E+05
       362   6  2.985423E+05  1.648818E+06  3.735150E+05 -1.974683E+05 -1.312613E+04 -2.485326E+05
       362   7  1.547935E+05  2.331263E+06  2.756648E+05 -1.571461E+05 -2.467974E+04 -4.705881E+04
       362   8  2.232428E+05  2.637837E+06  4.151811E+05 -1.210882E+05 -3.690646E+04 -1.605146E+05
       362   9  6.467447E+05  3.047319E+06  7.169375E+05 -3.079240E+05 -1.301925E+04 -2.739431E+05
       362  10 -1.809409E+05  9.675988E+05 -4.508662E+04 -2.392139E+05  1.110869E-09  4.099823E-09
       362  11 -2.894310E+05  5.619362E+05 -7.378043E+04 -5.177664E+04 -2.043592E-10  2.889330E-09
       362  12 -4.977339E+04  2.520628E+05  2.986378E+04 -8.726201E+04 -1.167869E-09  2.560217E-09
       362  13 -1.306105E+04  1.649214E+06  1.153019E+05 -1.982032E+05 -2.206742E-09  3.179160E-09
       362  14 -3.306198E+04  1.599377E+06  1.707117E+05 -8.640608E+04 -7.191004E-10 -3.290663E-09
       362  15  2.985256E+05  1.648752E+06  3.733989E+05 -1.974710E+05 -1.346850E-09  2.614865E-09
       362  16  1.547923E+05  2.331260E+06  2.756595E+05 -1.571470E+05  1.703971E-09 -5.981935E-09
       362  17  2.232345E+05  2.637809E+06  4.151303E+05 -1.210929E+05 -1.875867E-09 -1.762873E-09
       362  18  6.467245E+05  3.047239E+06  7.167968E+05 -3.079269E+05 -9.652499E-10 -3.462889E-09
       362  19 -1.809383E+05  9.676065E+05 -4.507231E+04 -2.392122E+05  2.455295E+04  8.378998E+04
       362  20 -2.894232E+05  5.619619E+05 -7.373360E+04 -5.177207E+04  3.695001E+04  1.535528E+05
       362  21 -4.975984E+04  2.521163E+05  2.995767E+04 -8.725964E+04  1.322417E+04  2.231785E+05
       362  22 -1.305925E+04  1.649219E+06  1.153111E+05 -1.982019E+05  2.461758E+04  6.543442E+04
       362  23 -3.305392E+04  1.599404E+06  1.707605E+05 -8.640142E+04  3.692841E+04  1.570309E+05
       362  24  2.985423E+05  1.648818E+06  3.735150E+05 -1.974683E+05  1.312613E+04  2.485326E+05
       362  25  1.547935E+05  2.331263E+06  2.756648E+05 -1.571461E+05  2.467974E+04  4.705881E+04
       362  26  2.232428E+05  2.637837E+06  4.151811E+05 -1.210882E+05  3.690646E+04  1.605146E+05
       362  27  6.467447E+05  3.047319E+06  7.169375E+05 -3.079240E+05  1.301925E+04  2.739431E+05
       363   1  2.696224E+05  8.197241E+04  3.749749E+04  7.310859E+04 -4.546289E+04 -2.340792E+04
       363   2  2.551327E+05  1.462978E+05  7.639224E+04  4.710771E+04 -2.728680E+04 -2.939665E+04
       363   3  1.954250E+05  1.478549E+05  8.375475E+04  5.793421E+04 -1.359158E+04 -2.349853E+04
       363   4 -2.171573E+05 -7.948429E+04 -8.994148E+04 -3.694522E+04 -5.508683E+04 -2.703663E+04
       363   5 -1.891381E+05 -1.412554E+04 -3.783824E+04 -6.790985E+04 -3.024493E+04 -3.051354E+04
       363   6 -2.076825E+05 -1.288891E+04 -2.256996E+04 -6.204008E+04 -9.884041E+03 -2.209994E+04
       363   7 -7.037037E+05 -2.409375E+05 -2.173980E+05 -1.469260E+05 -6.470232E+04 -3.066304E+04
       363   8 -6.332148E+05 -1.745392E+05 -1.520841E+05 -1.828541E+05 -3.320071E+04 -3.162962E+04
       363   9 -6.106313E+05 -1.736167E+05 -1.289085E+05 -1.819419E+05 -6.179143E+03 -2.070248E+04
       363  10  2.696200E+05  8.197127E+04  3.749258E+04  7.310773E+04  1.504789E-09 -6.076681E-11
       363  11  2.551316E+05  1.462967E+05  7.638921E+04  4.710706E+04 -1.173752E-09 -7.674348E-11
       363  12  1.954246E+05  1.478542E+05  8.375336E+04  5.793396E+04  4.063221E-10 -1.050397E-09
       363  13 -2.171608E+05 -7.948589E+04 -8.994856E+04 -3.694642E+04  8.710488E-10  1.210499E-09
       363  14 -1.891393E+05 -1.412679E+04 -3.784171E+04 -6.791059E+04  1.174470E-09 -5.049825E-09
       363  15 -2.076827E+05 -1.288946E+04 -2.257106E+04 -6.204026E+04 -1.034673E-09  3.639135E-09
       363  16 -7.037085E+05 -2.409396E+05 -2.174076E+05 -1.469276E+05 -6.987123E-10 -2.713718E-10
       363  17 -6.332163E+05 -1.745406E+05 -1.520880E+05 -1.828549E+05 -5.345556E-10 -4.279758E-09
       363  18 -6.106315E+05 -1.736171E+05 -1.289094E+05 -1.819420E+05  1.197233E-09  6.925536E-10
       363  19  2.696224E+05  8.197241E+04  3.749749E+04  7.310859E+04  4.546289E+04  2.340792E+04
       363  20  2.551327E+05  1.462978E+05  7.639224E+04  4.710771E+04  2.728680E+04  2.939665E+04
       363  21  1.954250E+05  1.478549E+05  8.375475E+04  5.793421E+04  1.359158E+04  2.349853E+04
       363  22 -2.171573E+05 -7.948429E+04 -8.994148E+04 -3.694522E+04  5.508683E+04  2.703663E+04
       363  23 -1.891381E+05 -1.412554E+04 -3.783824E+04 -6.790985E+04  3.024493E+04  3.051354E+04
       363  24 -2.076825E+05 -1.288891E+04 -2.256996E+04 -6.204008E+04  9.884041E+03  2.209994E+04
       363  25 -7.037037E+05 -2.409375E+05 -2.173980E+05 -1.469260E+05  6.470232E+04  3.066304E+04
       363  26 -6.332148E+05 -1.745392E+05 -1.520841E+05 -1.828541E+05  3.320071E+04  3.162962E+04
       363  27 -6.106313E+05 -1.736167E+05 -1.289085E+05 -1.819419E+05  6.179143E+03  2.070248E+04
       364   1  1.697878E+05  1.174719E+05  7.902495E+04  4.409772E+04 -7.796988E+03 -1.851800E+04
       364   2  1.478060E+05  1.066626E+05  8.021507E+04  2.636809E+04 -3.852962E+03 -1.634631E+04
       364   3  1.076643E+05  1.031430E+05  7.625860E+04  2.741361E+04 -2.070818E+02 -1.338828E+04
       364   4 -2.048838E+05 -2.165138E+04 -1.827044E+04 -5.676889E+04 -7.676278E+03 -1.847318E+04
       364   5 -1.952966E+05 -2.202917E+04 -8.921545E+03 -6.737253E+04 -3.292975E+03 -1.613539E+04
       364   6 -2.039594E+05 -1.520649E+04 -5.069912E+03 -5.920033E+04  7.923332E+02 -1.301099E+04
       364   7 -5.794206E+05 -1.607672E+05 -1.155779E+05 -1.575813E+05 -7.555645E+03 -1.842838E+04
       364   8 -5.382857E+05 -1.507139E+05 -9.806819E+04 -1.610667E+05 -2.733325E+03 -1.592460E+04
       364   9 -5.154889E+05 -1.335494E+05 -8.640663E+04 -1.457749E+05  1.791198E+03 -1.263391E+04
       364  10  1.697876E+05  1.174715E+05  7.902419E+04  4.409760E+04  1.463058E-09 -1.995210E-09
       364  11  1.478059E+05  1.066623E+05  8.021454E+04  2.636804E+04 -2.303382E-10  4.928273E-09
       364  12  1.076643E+05  1.031428E+05  7.625826E+04  2.741361E+04 -1.026998E-09  1.787958E-09
       364  13 -2.048840E+05 -2.165176E+04 -1.827119E+04 -5.676900E+04 -2.092923E-09  4.948870E-09
       364  14 -1.952967E+05 -2.202945E+04 -8.922055E+03 -6.737258E+04  7.521241E-10 -1.084071E-08
       364  15 -2.039594E+05 -1.520667E+04 -5.070231E+03 -5.920033E+04 -2.657324E-10 -1.636727E-09
       364  16 -5.794208E+05 -1.607676E+05 -1.155787E+05 -1.575814E+05 -1.239900E-09  1.201595E-09
       364  17 -5.382858E+05 -1.507142E+05 -9.806868E+04 -1.610667E+05  1.472520E-09 -3.678237E-09
       364  18 -5.154889E+05 -1.335496E+05 -8.640694E+04 -1.457749E+05  6.905700E-10  1.215392E-09
       364  19  1.697878E+05  1.174719E+05  7.902495E+04  4.409772E+04  7.796988E+03  1.851800E+04
       364  20  1.478060E+05  1.066626E+05  8.021507E+04  2.636809E+04  3.852962E+03  1.634631E+04
       364  21  1.076643E+05  1.031430E+05  7.625860E+04  2.741361E+04  2.070818E+02  1.338828E+04
       364  22 -2.048838E+05 -2.165138E+04 -1.827044E+04 -5.676889E+04  7.676278E+03  1.847318E+04
       364  23 -1.952966E+05 -2.202917E+04 -8.921545E+03 -6.737253E+04  3.292975E+03  1.613539E+04
       364  24 -2.039594E+05 -1.520649E+04 -5.069912E+03 -5.920033E+04 -7.923332E+02  1.301099E+04
       364  25 -5.794206E+05 -1.607672E+05 -1.155779E+05 -1.575813E+05  7.555645E+03  1.842838E+04
       364  26 -5.382857E+05 -1.507139E+05 -9.806819E+04 -1.610667E+05  2.733325E+03  1.592460E+04
       364  27 -5.154889E+05 -1.335494E+05 -8.640663E+04 -1.457749E+05 -1.791198E+03  1.263391E+04
       365   1  7.209515E+04  8.773705E+04  6.768474E+04  1.703448E+04  3.931442E+02 -1.208336E+04
       365   2  4.907245E+04  6.948507E+04  6.167850E+04  7.376487E+00  8.760629E+02 -1.031578E+04
       365   3  1.067844E+04  6.551182E+04  5.473568E+04  1.620611E+02  1.337418E+03 -8.493552E+03
       365   4 -2.036553E+05 -1.601459E+04 -3.928934E+03 -5.865295E+04  1.157920E+03 -1.179459E+04
       365   5 -1.959188E+05 -2.283643E+04 -2.054014E+03 -6.736213E+04  1.671157E+03 -1.001533E+04
       365   6 -2.035613E+05 -1.538528E+04 -1.140075E+03 -5.888920E+04  2.162882E+03 -8.181384E+03
       365   7 -4.793310E+05 -1.197611E+05 -7.554873E+04 -1.343098E+05  1.922320E+03 -1.150597E+04
       365   8 -4.408517E+05 -1.151541E+05 -6.579157E+04 -1.347076E+05  2.465907E+03 -9.715006E+03
       365   9 -4.177571E+05 -9.627967E+04 -5.701989E+04 -1.179222E+05  2.988036E+03 -7.869333E+03
       365  10  7.209511E+04  8.773689E+04  6.768446E+04  1.703448E+04  1.767992E-09  3.997940E-09
       365  11  4.907242E+04  6.948496E+04  6.167830E+04  7.383764E+00  1.274608E-10 -2.828156E-09
       365  12  1.067842E+04  6.551174E+04  5.473554E+04  1.620702E+02 -3.750914E-09  3.886053E-09
       365  13 -2.036553E+05 -1.601474E+04 -3.929198E+03 -5.865294E+04 -3.167674E-10 -4.007737E-09
       365  14 -1.959188E+05 -2.283654E+04 -2.054208E+03 -6.736212E+04  2.608759E-09 -6.642648E-09
       365  15 -2.035613E+05 -1.538535E+04 -1.140210E+03 -5.888918E+04  1.559435E-09  7.266279E-09
       365  16 -4.793311E+05 -1.197612E+05 -7.554898E+04 -1.343098E+05 -3.648890E-09 -2.404671E-10
       365  17 -4.408517E+05 -1.151542E+05 -6.579176E+04 -1.347076E+05  8.235109E-10  2.551325E-09
       365  18 -4.177571E+05 -9.627973E+04 -5.702002E+04 -1.179222E+05  4.733074E-09  3.200888E-09
       365  19  7.209515E+04  8.773705E+04  6.768474E+04  1.703448E+04 -3.931442E+02  1.208336E+04
       365  20  4.907245E+04  6.948507E+04  6.167850E+04  7.376487E+00 -8.760629E+02  1.031578E+04
       365  21  1.067844E+04  6.551182E+04  5.473568E+04  1.620611E+02 -1.337418E+03  8.493552E+03
       365  22 -2.036553E+05 -1.601459E+04 -3.928934E+03 -5.865295E+04 -1.157920E+03  1.179459E+04
       365  23 -1.959188E+05 -2.283643E+04 -2.054014E+03 -6.736213E+04 -1.671157E+03  1.001533E+04
       365  24 -2.035613E+05 -1.538528E+04 -1.140075E+03 -5.888920E+04 -2.162882E+03  8.181384E+03
       365  25 -4.793310E+05 -1.197611E+05 -7.554873E+04 -1.343098E+05 -1.922320E+03  1.150597E+04
       365  26 -4.408517E+05 -1.151541E+05 -6.579157E+04 -1.347076E+05 -2.465907E+03  9.715006E+03
       365  27 -4.177571E+05 -9.627967E+04 -5.701989E+04 -1.179222E+05 -2.988036E+03  7.869333E+03
       366   1 -2.607953E+04  5.145086E+04  4.519339E+04 -9.970266E+03  1.194643E+03 -7.576509E+03
       366   2 -4.930973E+04  3.238700E+04  3.769725E+04 -2.700715E+04  8.768578E+02 -6.043862E+03
       366   3 -8.768325E+04  2.835512E+04  3.001505E+04 -2.694061E+04  5.566157E+02 -4.506072E+03
       366   4 -2.035382E+05 -1.544559E+04 -8.667878E+02 -5.881848E+04  2.005555E+03 -7.269725E+03
       366   5 -1.959596E+05 -2.292672E+04 -4.641624E+02 -6.738271E+04  1.690620E+03 -5.735867E+03
       366   6 -2.035262E+05 -1.537644E+04 -2.499513E+02 -5.884377E+04  1.373240E+03 -4.196859E+03
       366   7 -3.809663E+05 -8.234001E+04 -4.692959E+04 -1.076541E+05  2.816212E+03 -6.963038E+03
       366   8 -3.425883E+05 -7.823895E+04 -3.862731E+04 -1.077496E+05  2.504171E+03 -5.427953E+03
       366   9 -3.193558E+05 -5.910699E+04 -3.051597E+04 -9.074145E+04  2.189694E+03 -3.887710E+03
       366  10 -2.607955E+04  5.145080E+04  4.519328E+04 -9.970259E+03  2.517885E-09  9.893827E-09
       366  11 -4.930974E+04  3.238696E+04  3.769718E+04 -2.700715E+04  1.617463E-09  9.967615E-09
       366  12 -8.768326E+04  2.835510E+04  3.001501E+04 -2.694061E+04 -9.823153E-10 -2.785456E-09
       366  13 -2.035382E+05 -1.544565E+04 -8.668946E+02 -5.881847E+04 -1.460359E-09  4.611703E-09
       366  14 -1.959596E+05 -2.292675E+04 -4.642296E+02 -6.738271E+04  4.778271E-10  1.344244E-09
       366  15 -2.035262E+05 -1.537646E+04 -2.499880E+02 -5.884377E+04  2.579982E-09 -5.096149E-10
       366  16 -3.809663E+05 -8.234006E+04 -4.692969E+04 -1.076541E+05 -4.749961E-09  2.357490E-09
       366  17 -3.425884E+05 -7.823898E+04 -3.862738E+04 -1.077496E+05  3.519329E-10  2.297075E-09
       366  18 -3.193558E+05 -5.910701E+04 -3.051601E+04 -9.074145E+04 -7.707120E-10 -6.221116E-10
       366  19 -2.607953E+04  5.145086E+04  4.519339E+04 -9.970266E+03 -1.194643E+03  7.576509E+03
       366  20 -4.930973E+04  3.238700E+04  3.769725E+04 -2.700715E+04 -8.768578E+02  6.043862E+03
       366  21 -8.768325E+04  2.835512E+04  3.001505E+04 -2.694061E+04 -5.566157E+02  4.506072E+03
       366  22 -2.035382E+05 -1.544559E+04 -8.667878E+02 -5.881848E+04 -2.005555E+03  7.269725E+03
       366  23 -1.959596E+05 -2.292672E+04 -4.641624E+02 -6.738271E+04 -1.690620E+03  5.735867E+03
       366  24 -2.035262E+05 -1.537644E+04 -2.499513E+02 -5.884377E+04 -1.373240E+03  4.196859E+03
       366  25 -3.809663E+05 -8.234001E+04 -4.692959E+04 -1.076541E+05 -2.816212E+03  6.963038E+03
       366  26 -3.425883E+05 -7.823895E+04 -3.862731E+04 -1.077496E+05 -2.504171E+03  5.427953E+03
       366  27 -3.193558E+05 -5.910699E+04 -3.051597E+04 -9.074145E+04 -2.189694E+03  3.887710E+03
       367   1 -1.246598E+05  1.436203E+04  2.022497E+04 -3.709829E+04  2.718621E+02 -3.646203E+03
       367   2 -1.479482E+05 -4.827973E+03  1.240476E+04 -5.417281E+04 -2.337368E+02 -2.175952E+03
       367   3 -1.863915E+05 -8.876842E+03  4.549434E+03 -5.411872E+04 -7.390472E+02 -7.068863E+02
       367   4 -2.035295E+05 -1.537514E+04 -1.849499E+02 -5.882841E+04  1.088498E+03 -3.336925E+03
       367   5 -1.959509E+05 -2.294037E+04 -8.847772E+01 -6.739462E+04  5.822298E+02 -1.866883E+03
       367   6 -2.035274E+05 -1.536410E+04 -2.636530E+01 -5.883235E+04  7.625138E+01 -3.980227E+02
       367   7 -2.823935E+05 -4.511200E+04 -2.059546E+04 -8.055610E+04  1.905023E+03 -3.027688E+03
       367   8 -2.439514E+05 -4.105266E+04 -1.258192E+04 -8.061553E+04  1.398129E+03 -1.557840E+03
       367   9 -2.206630E+05 -2.185134E+04 -4.602188E+03 -6.354586E+04  8.915253E+02 -8.916859E+01
       367  10 -1.246598E+05  1.436201E+04  2.022494E+04 -3.709829E+04  1.602681E-09 -1.963024E-09
       367  11 -1.479482E+05 -4.827978E+03  1.240475E+04 -5.417281E+04  8.878530E-10  6.394485E-12
       367  12 -1.863915E+05 -8.876843E+03  4.549432E+03 -5.411872E+04 -7.977835E-10 -2.877559E-09
       367  13 -2.035295E+05 -1.537515E+04 -1.849730E+02 -5.882840E+04 -1.560269E-09  7.088951E-09
       367  14 -1.959509E+05 -2.294038E+04 -8.848491E+01 -6.739462E+04  5.921863E-10  2.146130E-09
       367  15 -2.035274E+05 -1.536410E+04 -2.636561E+01 -5.883235E+04  1.183069E-09 -1.427186E-09
       367  16 -2.823935E+05 -4.511201E+04 -2.059548E+04 -8.055610E+04 -1.789288E-09  3.086572E-09
       367  17 -2.439514E+05 -4.105266E+04 -1.258193E+04 -8.061553E+04  9.135753E-10  1.185629E-09
       367  18 -2.206630E+05 -2.185134E+04 -4.602189E+03 -6.354586E+04  1.175696E-09 -4.724581E-09
       367  19 -1.246598E+05  1.436203E+04  2.022497E+04 -3.709829E+04 -2.718621E+02  3.646203E+03
       367  20 -1.479482E+05 -4.827973E+03  1.240476E+04 -5.417281E+04  2.337368E+02  2.175952E+03
       367  21 -1.863915E+05 -8.876842E+03  4.549434E+03 -5.411872E+04  7.390472E+02  7.068863E+02
       367  22 -2.035295E+05 -1.537514E+04 -1.849499E+02 -5.882841E+04 -1.088498E+03  3.336925E+03
       367  23 -1.959509E+05 -2.294037E+04 -8.847772E+01 -6.739462E+04 -5.822298E+02  1.866883E+03
       367  24 -2.035274E+05 -1.536410E+04 -2.636530E+01 -5.883235E+04 -7.625138E+01  3.980227E+02
       367  25 -2.823935E+05 -4.511200E+04 -2.059546E+04 -8.055610E+04 -1.905023E+03  3.027688E+03
       367  26 -2.439514E+05 -4.105266E+04 -1.258192E+04 -8.061553E+04 -1.398129E+03  1.557840E+03
       367  27 -2.206630E+05 -2.185134E+04 -4.602188E+03 -6.354586E+04 -8.915253E+02  8.916859E+01
       368   1 -2.234096E+05 -2.288590E+04 -5.292274E+03 -6.429461E+04 -1.068433E+03  1.413997E+02
       368   2 -2.467026E+05 -4.208942E+04 -1.315701E+04 -8.136836E+04 -1.626231E+03  1.590807E+03
       368   3 -2.851287E+05 -4.612524E+04 -2.100976E+04 -8.131956E+04 -2.171761E+03  3.008360E+03
       368   4 -2.035232E+05 -1.536720E+04 -1.650457E+00 -5.883011E+04 -2.438364E+02  4.537839E+02
       368   5 -1.959573E+05 -2.294438E+04  5.028615E+01 -6.739447E+04 -8.195655E+02  1.896349E+03
       368   6 -2.035216E+05 -1.535046E+04  1.285238E+02 -5.883680E+04 -1.383031E+03  3.307066E+03
       368   7 -1.836365E+05 -7.848500E+03  5.288924E+03 -5.336546E+04  5.807867E+02  7.661781E+02
       368   8 -1.452094E+05 -3.799162E+03  1.325737E+04 -5.341956E+04 -1.282777E+01  2.201917E+03
       368   9 -1.219078E+05  1.542486E+04  2.126632E+04 -3.635131E+04 -5.941837E+02  3.605816E+03
       368  10 -2.234096E+05 -2.288590E+04 -5.292277E+03 -6.429461E+04 -2.255033E-09  2.730312E-09
       368  11 -2.467026E+05 -4.208943E+04 -1.315702E+04 -8.136836E+04 -6.896471E-10  2.380969E-09
       368  12 -2.851287E+05 -4.612525E+04 -2.100978E+04 -8.131955E+04  2.709807E-09 -4.285240E-09
       368  13 -2.035232E+05 -1.536720E+04 -1.650956E+00 -5.883011E+04  6.328441E-10 -6.073249E-10
       368  14 -1.959573E+05 -2.294438E+04  5.027813E+01 -6.739447E+04 -9.845842E-10 -6.954125E-10
       368  15 -2.035216E+05 -1.535047E+04  1.284997E+02 -5.883680E+04  1.600127E-10 -3.243833E-09
       368  16 -1.836365E+05 -7.848501E+03  5.288923E+03 -5.336546E+04  1.859003E-09 -2.590152E-10
       368  17 -1.452094E+05 -3.799168E+03  1.325736E+04 -5.341956E+04 -8.662667E-11 -1.370927E-09
       368  18 -1.219078E+05  1.542485E+04  2.126630E+04 -3.635131E+04  6.861045E-10 -3.046501E-09
       368  19 -2.234096E+05 -2.288590E+04 -5.292274E+03 -6.429461E+04  1.068433E+03 -1.413997E+02
       368  20 -2.467026E+05 -4.208942E+04 -1.315701E+04 -8.136836E+04  1.626231E+03 -1.590807E+03
       368  21 -2.851287E+05 -4.612524E+04 -2.100976E+04 -8.131956E+04  2.171761E+03 -3.008360E+03
       368  22 -2.035232E+05 -1.536720E+04 -1.650457E+00 -5.883011E+04  2.438364E+02 -4.537839E+02
       368  23 -1.959573E+05 -2.294438E+04  5.028615E+01 -6.739447E+04  8.195655E+02 -1.896349E+03
       368  24 -2.035216E+05 -1.535046E+04  1.285238E+02 -5.883680E+04  1.383031E+03 -3.307066E+03
       368  25 -1.836365E+05 -7.848500E+03  5.288924E+03 -5.336546E+04 -5.807867E+02 -7.661781E+02
       368  26 -1.452094E+05 -3.799162E+03  1.325737E+04 -5.341956E+04  1.282777E+01 -2.201917E+03
       368  27 -1.219078E+05  1.542486E+04  2.126632E+04 -3.635131E+04  5.941837E+02 -3.605816E+03
       369   1 -3.221040E+05 -6.011935E+04 -3.079325E+04 -9.144551E+04 -2.683919E+03  3.855240E+03
       369   2 -3.453541E+05 -7.931616E+04 -3.855849E+04 -1.085056E+05 -3.116454E+03  5.315719E+03
       369   3 -3.835980E+05 -8.318944E+04 -4.633318E+04 -1.085460E+05 -3.368018E+03  6.299473E+03
       369   4 -2.034937E+05 -1.538852E+04  1.749436E+02 -5.882894E+04 -1.752330E+03  4.207988E+03
       369   5 -1.960083E+05 -2.296836E+04  3.134852E+02 -6.737983E+04 -2.452655E+03  5.566925E+03
       369   6 -2.034646E+05 -1.517195E+04  6.550398E+02 -5.891175E+04 -2.972024E+03  6.449201E+03
       369   7 -8.486986E+04  2.934320E+04  3.114195E+04 -2.620675E+04 -8.205464E+02  4.560810E+03
       369   8 -4.664118E+04  3.338078E+04  3.918352E+04 -2.624523E+04 -1.788682E+03  5.818198E+03
       369   9 -2.330026E+04  5.284742E+04  4.764035E+04 -9.264673E+03 -2.575905E+03  6.598976E+03
       369  10 -3.221040E+05 -6.011937E+04 -3.079329E+04 -9.144551E+04  1.749718E-09 -4.499640E-09
       369  11 -3.453541E+05 -7.931619E+04 -3.855856E+04 -1.085056E+05  1.243451E-09 -1.181958E-08
       369  12 -3.835981E+05 -8.318949E+04 -4.633327E+04 -1.085460E+05  1.309700E-09 -5.596349E-09
       369  13 -2.034937E+05 -1.538854E+04  1.749045E+02 -5.882894E+04 -1.934543E-10  4.506752E-09
       369  14 -1.960083E+05 -2.296840E+04  3.134156E+02 -6.737982E+04 -9.745388E-10  3.968983E-09
       369  15 -2.034646E+05 -1.517199E+04  6.549450E+02 -5.891173E+04  3.422686E-09 -4.887679E-09
       369  16 -8.486986E+04  2.934318E+04  3.114191E+04 -2.620674E+04  7.868688E-10 -2.047083E-10
       369  17 -4.664119E+04  3.338075E+04  3.918345E+04 -2.624522E+04 -5.980852E-10  1.441275E-08
       369  18 -2.330028E+04  5.284737E+04  4.764026E+04 -9.264659E+03  1.076018E-09 -2.219418E-09
       369  19 -3.221040E+05 -6.011935E+04 -3.079325E+04 -9.144551E+04  2.683919E+03 -3.855240E+03
       369  20 -3.453541E+05 -7.931616E+04 -3.855849E+04 -1.085056E+05  3.116454E+03 -5.315719E+03
       369  21 -3.835980E+05 -8.318944E+04 -4.633318E+04 -1.085460E+05  3.368018E+03 -6.299473E+03
       369  22 -2.034937E+05 -1.538852E+04  1.749436E+02 -5.882894E+04  1.752330E+03 -4.207988E+03
       369  23 -1.960083E+05 -2.296836E+04  3.134852E+02 -6.737983E+04  2.452655E+03 -5.566925E+03
       369  24 -2.034646E+05 -1.517195E+04  6.550398E+02 -5.891175E+04  2.972024E+03 -6.449201E+03
       369  25 -8.486986E+04  2.934320E+04  3.114195E+04 -2.620675E+04  8.205464E+02 -4.560810E+03
       369  26 -4.664118E+04  3.338078E+04  3.918352E+04 -2.624523E+04  1.788682E+03 -5.818198E+03
       369  27 -2.330026E+04  5.284742E+04  4.764035E+04 -9.264673E+03  2.575905E+03 -6.598976E+03
       370   1 -4.206139E+05 -9.714297E+04 -5.559988E+04 -1.182431E+05 -6.351384E+03  7.257426E+03
       370   2 -4.435940E+05 -1.166548E+05 -6.303465E+04 -1.355345E+05 -3.400928E+03  9.487848E+03
       370   3 -4.809943E+05 -1.192578E+05 -7.234143E+04 -1.367193E+05  2.281794E+03  4.492645E+03
       370   4 -2.033015E+05 -1.553936E+04  8.135414E+02 -5.878119E+04 -3.776152E+03  8.231748E+03
       370   5 -1.963241E+05 -2.320296E+04  1.352976E+03 -6.728602E+04 -4.882258E+03  8.927194E+03
       370   6 -2.029627E+05 -1.315352E+04  3.238755E+03 -5.968449E+04 -3.256551E+03  2.398478E+03
       370   7  1.405785E+04  6.606760E+04  5.722333E+04  6.997997E+02 -1.199918E+03  9.206447E+03
       370   8  5.100485E+04  7.025284E+04  6.573540E+04  9.869424E+02 -6.364235E+03  8.366294E+03
       370   9  7.514123E+04  9.295505E+04  7.881160E+04  1.738101E+04 -8.797593E+03  3.032723E+02
       370  10 -4.206140E+05 -9.714304E+04 -5.560005E+04 -1.182431E+05 -2.850864E-09 -8.521797E-10
       370  11 -4.435940E+05 -1.166549E+05 -6.303484E+04 -1.355344E+05 -7.227587E-10 -7.951697E-10
       370  12 -4.809943E+05 -1.192579E+05 -7.234147E+04 -1.367193E+05  1.517914E-09  6.643356E-10
       370  13 -2.033015E+05 -1.553944E+04  8.133873E+02 -5.878116E+04  2.323371E-09  3.762204E-09
       370  14 -1.963242E+05 -2.320305E+04  1.352781E+03 -6.728599E+04  1.310931E-09  2.459457E-09
       370  15 -2.029627E+05 -1.315353E+04  3.238724E+03 -5.968449E+04 -1.632875E-09  4.639176E-09
       370  16  1.405783E+04  6.606750E+04  5.722316E+04  6.998086E+02  4.082174E-09 -5.033550E-09
       370  17  5.100478E+04  7.025276E+04  6.573520E+04  9.869853E+02 -1.767104E-09  7.555809E-09
       370  18  7.514115E+04  9.295503E+04  7.881145E+04  1.738101E+04 -5.629636E-09  1.849853E-09
       370  19 -4.206139E+05 -9.714297E+04 -5.559988E+04 -1.182431E+05  6.351384E+03 -7.257426E+03
       370  20 -4.435940E+05 -1.166548E+05 -6.303465E+04 -1.355345E+05  3.400928E+03 -9.487848E+03
       370  21 -4.809943E+05 -1.192578E+05 -7.234143E+04 -1.367193E+05 -2.281794E+03 -4.492645E+03
       370  22 -2.033015E+05 -1.553936E+04  8.135414E+02 -5.878119E+04  3.776152E+03 -8.231748E+03
       370  23 -1.963241E+05 -2.320296E+04  1.352976E+03 -6.728602E+04  4.882258E+03 -8.927194E+03
       370  24 -2.029627E+05 -1.315352E+04  3.238755E+03 -5.968449E+04  3.256551E+03 -2.398478E+03
       370  25  1.405785E+04  6.606760E+04  5.722333E+04  6.997997E+02  1.199918E+03 -9.206447E+03
       370  26  5.100485E+04  7.025284E+04  6.573540E+04  9.869424E+02  6.364235E+03 -8.366294E+03
       370  27  7.514123E+04  9.295505E+04  7.881160E+04  1.738101E+04  8.797593E+03 -3.032723E+02
       371   1 -9.444467E+03  3.314902E+04  8.696755E+03 -1.225522E+04 -6.813623E+04 -5.707349E+03
       371   2 -3.407477E+04  1.243299E+05  5.833102E+04 -1.494400E+03 -4.804449E+04 -1.691005E+04
       371   3 -8.774139E+04  1.098441E+05  6.849353E+04  3.352072E+04 -2.798924E+04 -1.615768E+04
       371   4 -5.112378E+05 -9.167544E+04 -1.145874E+05  1.971026E+04 -7.843412E+04 -5.740781E+03
       371   5 -4.960697E+05  1.018261E+04 -5.063914E+04  7.438554E+03 -5.118920E+04 -1.692138E+04
       371   6 -5.112060E+05  5.086843E+03 -3.115516E+04  1.942304E+04 -2.397912E+04 -1.614446E+04
       371   7 -1.012799E+06 -2.165146E+05 -2.378891E+05  5.164968E+04 -8.872368E+04 -5.775289E+03
       371   8 -9.578680E+05 -1.039796E+05 -1.596239E+05  1.636467E+04 -5.433157E+04 -1.693281E+04
       371   9 -9.345050E+05 -9.968250E+04 -1.308160E+05  5.334899E+03 -1.997171E+04 -1.613142E+04
       371  10 -9.449461E+03  3.314774E+04  8.687970E+03 -1.225553E+04 -4.174532E-09  2.653185E-09
       371  11 -3.407733E+04  1.243290E+05  5.832614E+04 -1.495055E+03 -2.933383E-09  9.926841E-09
       371  12 -8.774230E+04  1.098436E+05  6.849157E+04  3.352036E+04 -8.585678E-10  7.396937E-10
       371  13 -5.112444E+05 -9.167713E+04 -1.145991E+05  1.970989E+04  7.957005E-10 -3.356388E-09
       371  14 -4.960726E+05  1.018160E+04 -5.064460E+04  7.437857E+03 -2.220690E-10 -9.823096E-09
       371  15 -5.112067E+05  5.086409E+03 -3.115673E+04  1.942273E+04 -6.323952E-11 -5.228668E-09
       371  16 -1.012808E+06 -2.165168E+05 -2.379040E+05  5.164927E+04  3.556110E-09 -4.775658E-10
       371  17 -9.578712E+05 -1.039807E+05 -1.596300E+05  1.636393E+04  2.734699E-09  7.513191E-09
       371  18 -9.345055E+05 -9.968289E+04 -1.308173E+05  5.334640E+03  1.558803E-10 -3.084527E-09
       371  19 -9.444467E+03  3.314902E+04  8.696755E+03 -1.225522E+04  6.813623E+04  5.707349E+03
       371  20 -3.407477E+04  1.243299E+05  5.833102E+04 -1.494400E+03  4.804449E+04  1.691005E+04
       371  21 -8.774139E+04  1.098441E+05  6.849353E+04  3.352072E+04  2.798924E+04  1.615768E+04
       371  22 -5.112378E+05 -9.167544E+04 -1.145874E+05  1.971026E+04  7.843412E+04  5.740781E+03
       371  23 -4.960697E+05  1.018261E+04 -5.063914E+04  7.438554E+03  5.118920E+04  1.692138E+04
       371  24 -5.112060E+05  5.086843E+03 -3.115516E+04  1.942304E+04  2.397912E+04  1.614446E+04
       371  25 -1.012799E+06 -2.165146E+05 -2.378891E+05  5.164968E+04  8.872368E+04  5.775289E+03
       371  26 -9.578680E+05 -1.039796E+05 -1.596239E+05  1.636467E+04  5.433157E+04  1.693281E+04
       371  27 -9.345050E+05 -9.968250E+04 -1.308160E+05  5.334899E+03  1.997171E+04  1.613142E+04
       372   1 -1.258724E+05  8.556685E+04  6.432555E+04  1.801731E+04 -1.962995E+04 -1.353823E+04
       372   2 -1.637652E+05  8.501545E+04  6.698692E+04  7.489064E+03 -1.339781E+04 -1.254612E+04
       372   3 -2.049996E+05  7.485795E+04  6.316242E+04  2.178596E+04 -7.169682E+03 -1.082234E+04
       372   4 -5.052282E+05 -8.233248E+03 -2.528051E+04  1.965836E+04 -1.925927E+04 -1.353758E+04
       372   5 -5.035125E+05  1.026681E+03 -1.309838E+04  7.229697E+03 -1.259190E+04 -1.254368E+04
       372   6 -5.052183E+05  6.016579E+02 -7.707603E+03  1.962717E+04 -5.928166E+03 -1.081796E+04
       372   7 -8.844516E+05 -1.020436E+05 -1.148965E+05  2.129828E+04 -1.888881E+04 -1.353694E+04
       372   8 -8.431535E+05 -8.297034E+04 -9.319164E+04  6.970377E+03 -1.178643E+04 -1.254125E+04
       372   9 -8.053541E+05 -7.366108E+04 -7.858385E+04  1.746936E+04 -4.687247E+03 -1.081359E+04
       372  10 -1.258728E+05  8.556655E+04  6.432448E+04  1.801710E+04  3.497654E-09 -5.864050E-09
       372  11 -1.637654E+05  8.501523E+04  6.698629E+04  7.488928E+03  1.170919E-09  7.071264E-10
       372  12 -2.049997E+05  7.485781E+04  6.316210E+04  2.178589E+04  9.501904E-10  1.259591E-08
       372  13 -5.052286E+05 -8.233544E+03 -2.528155E+04  1.965815E+04  3.373890E-10  6.389303E-09
       372  14 -5.035127E+05  1.026470E+03 -1.309898E+04  7.229570E+03 -1.084569E-09 -2.421228E-08
       372  15 -5.052184E+05  6.015228E+02 -7.707889E+03  1.962712E+04 -1.143174E-09  1.264663E-08
       372  16 -8.844520E+05 -1.020439E+05 -1.148975E+05  2.129808E+04 -2.800808E-09 -8.420158E-09
       372  17 -8.431537E+05 -8.297055E+04 -9.319220E+04  6.970258E+03 -2.044573E-09 -3.254062E-09
       372  18 -8.053542E+05 -7.366121E+04 -7.858411E+04  1.746932E+04 -2.079483E-09  2.103832E-09
       372  19 -1.258724E+05  8.556685E+04  6.432555E+04  1.801731E+04  1.962995E+04  1.353823E+04
       372  20 -1.637652E+05  8.501545E+04  6.698692E+04  7.489064E+03  1.339781E+04  1.254612E+04
       372  21 -2.049996E+05  7.485795E+04  6.316242E+04  2.178596E+04  7.169682E+03  1.082234E+04
       372  22 -5.052282E+05 -8.233248E+03 -2.528051E+04  1.965836E+04  1.925927E+04  1.353758E+04
       372  23 -5.035125E+05  1.026681E+03 -1.309838E+04  7.229697E+03  1.259190E+04  1.254368E+04
       372  24 -5.052183E+05  6.016579E+02 -7.707603E+03  1.962717E+04  5.928166E+03  1.081796E+04
       372  25 -8.844516E+05 -1.020436E+05 -1.148965E+05  2.129828E+04  1.888881E+04  1.353694E+04
       372  26 -8.431535E+05 -8.297034E+04 -9.319164E+04  6.970377E+03  1.178643E+04  1.254125E+04
       372  27 -8.053541E+05 -7.366108E+04 -7.858385E+04  1.746936E+04  4.687247E+03  1.081359E+04
       373   1 -2.490582E+05  6.256036E+04  5.413192E+04  2.031022E+04 -5.749675E+03 -9.690526E+03
       373   2 -2.887510E+05  5.344923E+04  4.747656E+04  7.788690E+03 -4.122734E+03 -7.953928E+03
       373   3 -3.290420E+05  4.363652E+04  3.954002E+04  2.038481E+04 -2.496768E+03 -6.167812E+03
       373   4 -5.045862E+05 -5.946152E+02 -6.000112E+03  1.970365E+04 -4.725423E+03 -9.686825E+03
       373   5 -5.042816E+05  1.602554E+02 -3.329487E+03  7.142954E+03 -3.069425E+03 -7.949926E+03
       373   6 -5.045814E+05  2.085011E+02 -1.960433E+03  1.970045E+04 -1.414298E+03 -6.163495E+03
       373   7 -7.600540E+05 -6.375425E+04 -6.613663E+04  1.909727E+04 -3.701589E+03 -9.683126E+03
       373   8 -7.197694E+05 -5.313204E+04 -5.413873E+04  6.497401E+03 -2.016480E+03 -7.945925E+03
       373   9 -6.800925E+05 -4.322173E+04 -4.346301E+04  1.901626E+04 -3.321330E+02 -6.159180E+03
       373  10 -2.490583E+05  6.256025E+04  5.413168E+04  2.031017E+04  3.278524E-09 -3.561868E-10
       373  11 -2.887511E+05  5.344916E+04  4.747641E+04  7.788663E+03 -1.492035E-09 -6.147109E-09
       373  12 -3.290420E+05  4.363648E+04  3.953993E+04  2.038480E+04 -7.573238E-10 -2.827992E-09
       373  13 -5.045862E+05 -5.947219E+02 -6.000331E+03  1.970361E+04  9.715397E-10 -9.884451E-10
       373  14 -5.042816E+05  1.601850E+02 -3.329624E+03  7.142934E+03 -2.749931E-09 -3.104827E-09
       373  15 -5.045814E+05  2.084597E+02 -1.960508E+03  1.970044E+04  2.380644E-10 -1.196493E-09
       373  16 -7.600540E+05 -6.375435E+04 -6.613683E+04  1.909724E+04 -5.028545E-09 -4.172210E-09
       373  17 -7.197694E+05 -5.313211E+04 -5.413886E+04  6.497388E+03  3.475150E-10  7.324625E-09
       373  18 -6.800925E+05 -4.322177E+04 -4.346308E+04  1.901625E+04  8.758061E-11  1.546561E-08
       373  19 -2.490582E+05  6.256036E+04  5.413192E+04  2.031022E+04  5.749675E+03  9.690526E+03
       373  20 -2.887510E+05  5.344923E+04  4.747656E+04  7.788690E+03  4.122734E+03  7.953928E+03
       373  21 -3.290420E+05  4.363652E+04  3.954002E+04  2.038481E+04  2.496768E+03  6.167812E+03
       373  22 -5.045862E+05 -5.946152E+02 -6.000112E+03  1.970365E+04  4.725423E+03  9.686825E+03
       373  23 -5.042816E+05  1.602554E+02 -3.329487E+03  7.142954E+03  3.069425E+03  7.949926E+03
       373  24 -5.045814E+05  2.085011E+02 -1.960433E+03  1.970045E+04  1.414298E+03  6.163495E+03
       373  25 -7.600540E+05 -6.375425E+04 -6.613663E+04  1.909727E+04  3.701589E+03  9.683126E+03
       373  26 -7.197694E+05 -5.313204E+04 -5.413873E+04  6.497401E+03  2.016480E+03  7.945925E+03
       373  27 -6.800925E+05 -4.322173E+04 -4.346301E+04  1.901626E+04  3.321330E+02  6.159180E+03
       374   1 -3.740502E+05  3.233864E+04  2.910318E+04  2.015243E+04 -2.176388E+03 -5.120041E+03
       374   2 -4.141451E+05  2.238905E+04  2.031870E+04  7.395158E+03 -1.715836E+03 -3.330251E+03
       374   3 -4.545249E+05  1.256037E+04  1.120842E+04  1.990961E+04 -1.255632E+03 -1.535565E+03
       374   4 -5.045072E+05  1.057220E+02 -1.530817E+03  1.973576E+04 -1.105503E+03 -5.115679E+03
       374   5 -5.043629E+05  8.118343E+01 -9.494411E+02  7.099618E+03 -6.421339E+02 -3.325799E+03
       374   6 -5.045054E+05  1.771658E+02 -6.957949E+02  1.973542E+04 -1.790831E+02 -1.531017E+03
       374   7 -6.349485E+05 -3.212841E+04 -3.216598E+04  1.931915E+04 -3.484208E+01 -5.111319E+03
       374   8 -5.945731E+05 -2.222726E+04 -2.221814E+04  6.804113E+03  4.314129E+02 -3.321348E+03
       374   9 -5.544836E+05 -1.220622E+04 -1.260018E+04  1.956125E+04  8.973796E+02 -1.526469E+03
       374  10 -3.740502E+05  3.233861E+04  2.910312E+04  2.015242E+04  4.672555E-09 -1.070349E-08
       374  11 -4.141451E+05  2.238903E+04  2.031867E+04  7.395154E+03 -8.251881E-09 -2.784901E-09
       374  12 -4.545249E+05  1.256037E+04  1.120841E+04  1.990961E+04 -1.351073E-08  1.018121E-09
       374  13 -5.045072E+05  1.056936E+02 -1.530868E+03  1.973575E+04  1.662810E-09  3.463883E-09
       374  14 -5.043629E+05  8.117145E+01 -9.494626E+02  7.099616E+03 -2.127803E-09 -8.551065E-09
       374  15 -5.045054E+05  1.771632E+02 -6.957994E+02  1.973542E+04 -8.850715E-10 -7.593734E-09
       374  16 -6.349486E+05 -3.212844E+04 -3.216603E+04  1.931915E+04 -5.659550E-09  9.228917E-09
       374  17 -5.945731E+05 -2.222727E+04 -2.221816E+04  6.804114E+03  6.760084E-09  1.388175E-08
       374  18 -5.544836E+05 -1.220622E+04 -1.260018E+04  1.956126E+04  1.219996E-08 -6.700888E-10
       374  19 -3.740502E+05  3.233864E+04  2.910318E+04  2.015243E+04  2.176388E+03  5.120041E+03
       374  20 -4.141451E+05  2.238905E+04  2.031870E+04  7.395158E+03  1.715836E+03  3.330251E+03
       374  21 -4.545249E+05  1.256037E+04  1.120842E+04  1.990961E+04  1.255632E+03  1.535565E+03
       374  22 -5.045072E+05  1.057220E+02 -1.530817E+03  1.973576E+04  1.105503E+03  5.115679E+03
       374  23 -5.043629E+05  8.118343E+01 -9.494411E+02  7.099618E+03  6.421339E+02  3.325799E+03
       374  24 -5.045054E+05  1.771658E+02 -6.957949E+02  1.973542E+04  1.790831E+02  1.531017E+03
       374  25 -6.349485E+05 -3.212841E+04 -3.216598E+04  1.931915E+04  3.484208E+01  5.111319E+03
       374  26 -5.945731E+05 -2.222726E+04 -2.221814E+04  6.804113E+03 -4.314129E+02  3.321348E+03
       374  27 -5.544836E+05 -1.220622E+04 -1.260018E+04  1.956125E+04 -8.973796E+02  1.526469E+03
       375   1 -4.997630E+05  1.321602E+03  3.425372E+02  1.975186E+04 -1.138532E+03 -4.897913E+02
       375   2 -5.399059E+05 -8.709437E+03 -9.095045E+03  6.974764E+03 -7.893156E+02  1.305827E+03
       375   3 -5.803194E+05 -1.859059E+04 -1.878048E+04  1.949785E+04 -4.399967E+02  3.098280E+03
       375   4 -5.045015E+05  1.741797E+02 -6.533164E+02  1.974171E+04 -6.178200E+01 -4.852256E+02
       375   5 -5.043657E+05  7.916690E+01 -7.160569E+02  7.091756E+03  2.855101E+02  1.310349E+03
       375   6 -5.045022E+05  1.343338E+02 -1.025372E+03  1.974188E+04  6.329277E+02  3.102766E+03
       375   7 -5.092399E+05 -9.732434E+02 -1.649167E+03  1.973157E+04  1.014960E+03 -4.806599E+02
       375   8 -4.688243E+05  8.867681E+03  7.662849E+03  7.208754E+03  1.360397E+03  1.314872E+03
       375   9 -4.286798E+05  1.885885E+04  1.672935E+04  1.998594E+04  1.705982E+03  3.107252E+03
       375  10 -4.997630E+05  1.321601E+03  3.425343E+02  1.975186E+04  7.889546E-10  2.954955E-10
       375  11 -5.399059E+05 -8.709439E+03 -9.095050E+03  6.974765E+03  4.719148E-10 -7.012748E-09
       375  12 -5.803194E+05 -1.859060E+04 -1.878050E+04  1.949785E+04 -8.913060E-09  4.694585E-11
       375  13 -5.045015E+05  1.741794E+02 -6.533169E+02  1.974171E+04  7.709985E-10  9.871460E-09
       375  14 -5.043657E+05  7.916503E+01 -7.160602E+02  7.091756E+03 -2.229697E-09 -6.996352E-10
       375  15 -5.045022E+05  1.343233E+02 -1.025391E+03  1.974188E+04  2.172289E-09 -2.137503E-09
       375  16 -5.092399E+05 -9.732439E+02 -1.649169E+03  1.973157E+04 -2.358451E-09  5.225927E-10
       375  17 -4.688243E+05  8.867678E+03  7.662842E+03  7.208753E+03  8.567579E-10 -1.552833E-08
       375  18 -4.286798E+05  1.885884E+04  1.672932E+04  1.998593E+04  8.730276E-09 -1.063294E-08
       375  19 -4.997630E+05  1.321602E+03  3.425372E+02  1.975186E+04  1.138532E+03  4.897913E+02
       375  20 -5.399059E+05 -8.709437E+03 -9.095045E+03  6.974764E+03  7.893156E+02 -1.305827E+03
       375  21 -5.803194E+05 -1.859059E+04 -1.878048E+04  1.949785E+04  4.399967E+02 -3.098280E+03
       375  22 -5.045015E+05  1.741797E+02 -6.533164E+02  1.974171E+04  6.178200E+01  4.852256E+02
       375  23 -5.043657E+05  7.916690E+01 -7.160569E+02  7.091756E+03 -2.855101E+02 -1.310349E+03
       375  24 -5.045022E+05  1.343338E+02 -1.025372E+03  1.974188E+04 -6.329277E+02 -3.102766E+03
       375  25 -5.092399E+05 -9.732434E+02 -1.649167E+03  1.973157E+04 -1.014960E+03  4.806599E+02
       375  26 -4.688243E+05  8.867681E+03  7.662849E+03  7.208754E+03 -1.360397E+03 -1.314872E+03
       375  27 -4.286798E+05  1.885885E+04  1.672935E+04  1.998594E+04 -1.705982E+03 -3.107252E+03
       376   1 -6.255359E+05 -2.974694E+04 -2.992222E+04  1.925016E+04 -2.487131E+02  4.147454E+03
       376   2 -6.654193E+05 -3.971374E+04 -4.008972E+04  6.626530E+03  8.207164E+02  5.937522E+03
       376   3 -7.057687E+05 -5.004673E+04 -5.109756E+04  1.920039E+04  1.890796E+03  7.684008E+03
       376   4 -5.045468E+05  1.983494E+02 -1.275631E+03  1.971827E+04  8.349880E+02  4.151925E+03
       376   5 -5.043174E+05  1.272116E+02 -2.105161E+03  7.120757E+03  1.878513E+03  5.941737E+03
       376   6 -5.045502E+05 -3.052555E+02 -3.756597E+03  1.972033E+04  2.922757E+03  7.687980E+03
       376   7 -3.835442E+05  3.014259E+04  2.736995E+04  2.018645E+04  1.918899E+03  4.156397E+03
       376   8 -3.431916E+05  3.996630E+04  3.587762E+04  7.615089E+03  2.936583E+03  5.945954E+03
       376   9 -3.032944E+05  4.943333E+04  4.358159E+04  2.024040E+04  3.955050E+03  7.691952E+03
       376  10 -6.255359E+05 -2.974696E+04 -2.992225E+04  1.925016E+04 -1.517665E-08  1.408899E-09
       376  11 -6.654193E+05 -3.971377E+04 -4.008979E+04  6.626526E+03 -4.354107E-09 -1.175843E-08
       376  12 -7.057687E+05 -5.004680E+04 -5.109768E+04  1.920038E+04  7.262595E-09 -3.403371E-09
       376  13 -5.045468E+05  1.983307E+02 -1.275665E+03  1.971826E+04  2.223307E-09 -1.764205E-09
       376  14 -5.043174E+05  1.271728E+02 -2.105234E+03  7.120748E+03 -2.502029E-09  2.993347E-09
       376  15 -5.045503E+05 -3.053213E+02 -3.756724E+03  1.972031E+04  5.541171E-10  3.493993E-09
       376  16 -3.835442E+05  3.014257E+04  2.736991E+04  2.018645E+04  1.426173E-08  9.251599E-09
       376  17 -3.431916E+05  3.996626E+04  3.587753E+04  7.615075E+03  5.704253E-09 -1.472182E-09
       376  18 -3.032945E+05  4.943326E+04  4.358145E+04  2.024038E+04 -8.288903E-09  4.956257E-09
       376  19 -6.255359E+05 -2.974694E+04 -2.992222E+04  1.925016E+04  2.487131E+02 -4.147454E+03
       376  20 -6.654193E+05 -3.971374E+04 -4.008972E+04  6.626530E+03 -8.207164E+02 -5.937522E+03
       376  21 -7.057687E+05 -5.004673E+04 -5.109756E+04  1.920039E+04 -1.890796E+03 -7.684008E+03
       376  22 -5.045468E+05  1.983494E+02 -1.275631E+03  1.971827E+04 -8.349880E+02 -4.151925E+03
       376  23 -5.043174E+05  1.272116E+02 -2.105161E+03  7.120757E+03 -1.878513E+03 -5.941737E+03
       376  24 -5.045502E+05 -3.052555E+02 -3.756597E+03  1.972033E+04 -2.922757E+03 -7.687980E+03
       376  25 -3.835442E+05  3.014259E+04  2.736995E+04  2.018645E+04 -1.918899E+03 -4.156397E+03
       376  26 -3.431916E+05  3.996630E+04  3.587762E+04  7.615089E+03 -2.936583E+03 -5.945954E+03
       376  27 -3.032944E+05  4.943333E+04  4.358159E+04  2.024040E+04 -3.955050E+03 -7.691952E+03
       377   1 -7.510315E+05 -6.044960E+04 -6.294725E+04  1.812014E+04  2.445774E+03  8.808093E+03
       377   2 -7.896607E+05 -7.002175E+04 -7.556888E+04  6.788749E+03  6.991558E+03  1.054309E+04
       377   3 -8.305597E+05 -8.562139E+04 -9.269760E+04  2.042237E+04  1.154033E+04  1.162097E+04
       377   4 -5.049418E+05  4.407622E+02 -4.815509E+03  1.966106E+04  3.673100E+03  8.812704E+03
       377   5 -5.038448E+05  6.630016E+02 -8.170172E+03  7.189132E+03  7.826711E+03  1.054592E+04
       377   6 -5.049495E+05 -5.072302E+03 -1.575775E+04  1.968158E+04  1.198359E+04  1.162215E+04
       377   7 -2.587965E+05  6.132679E+04  5.331205E+04  2.120254E+04  4.900910E+03  8.817321E+03
       377   8 -2.179536E+05  7.134191E+04  5.922290E+04  7.589630E+03  8.662245E+03  1.054876E+04
       377   9 -1.792417E+05  7.546919E+04  6.117477E+04  1.894030E+04  1.242709E+04  1.162333E+04
       377  10 -7.510315E+05 -6.044968E+04 -6.294741E+04  1.812012E+04  8.106170E-09  4.038329E-09
       377  11 -7.896608E+05 -7.002189E+04 -7.556918E+04  6.788690E+03 -3.769878E-10  8.712911E-09
       377  12 -8.305598E+05 -8.562157E+04 -9.269811E+04  2.042226E+04 -5.501977E-10 -5.372911E-09
       377  13 -5.049419E+05  4.406752E+02 -4.815680E+03  1.966103E+04  3.007569E-09 -1.600560E-08
       377  14 -5.038449E+05  6.628657E+02 -8.170496E+03  7.189066E+03 -2.582807E-09  4.265138E-09
       377  15 -5.049496E+05 -5.072486E+03 -1.575827E+04  1.968146E+04  1.329413E-09  5.358568E-09
       377  16 -2.587965E+05  6.132670E+04  5.331186E+04  2.120250E+04 -8.021450E-09 -7.589916E-09
       377  17 -2.179537E+05  7.134177E+04  5.922255E+04  7.589557E+03 -5.083459E-10 -2.684978E-08
       377  18 -1.792419E+05  7.546900E+04  6.117423E+04  1.894019E+04  6.986533E-10  7.214094E-10
       377  19 -7.510315E+05 -6.044960E+04 -6.294725E+04  1.812014E+04 -2.445774E+03 -8.808093E+03
       377  20 -7.896607E+05 -7.002175E+04 -7.556888E+04  6.788749E+03 -6.991558E+03 -1.054309E+04
       377  21 -8.305597E+05 -8.562139E+04 -9.269760E+04  2.042237E+04 -1.154033E+04 -1.162097E+04
       377  22 -5.049418E+05  4.407622E+02 -4.815509E+03  1.966106E+04 -3.673100E+03 -8.812704E+03
       377  23 -5.038448E+05  6.630016E+02 -8.170172E+03  7.189132E+03 -7.826711E+03 -1.054592E+04
       377  24 -5.049495E+05 -5.072302E+03 -1.575775E+04  1.968158E+04 -1.198359E+04 -1.162215E+04
       377  25 -2.587965E+05  6.132679E+04  5.331205E+04  2.120254E+04 -4.900910E+03 -8.817321E+03
       377  26 -2.179536E+05  7.134191E+04  5.922290E+04  7.589630E+03 -8.662245E+03 -1.054876E+04
       377  27 -1.792417E+05  7.546919E+04  6.117477E+04  1.894030E+04 -1.242709E+04 -1.162333E+04
       378   1 -8.786757E+05 -8.832770E+04 -1.065302E+05  1.038232E+04  1.120781E+04  1.406016E+04
       378   2 -9.080415E+05 -9.472006E+04 -1.280447E+05  1.257875E+04  3.459868E+04  1.495223E+04
       378   3 -9.574601E+05 -1.688203E+05 -1.817457E+05  3.920046E+04  5.802169E+04  5.091376E+03
       378   4 -5.086701E+05  3.227675E+03 -1.941623E+04  1.948888E+04  1.492182E+04  1.407294E+04
       378   5 -4.992197E+05  6.360397E+03 -3.156090E+04  7.373377E+03  3.187790E+04  1.494214E+04
       378   6 -5.086927E+05 -5.707333E+04 -7.140645E+04  1.968355E+04  4.886795E+04  5.060472E+03
       378   7 -1.385381E+05  9.477356E+04  6.768842E+04  2.860078E+04  1.863803E+04  1.408583E+04
       378   8 -9.024389E+04  1.074290E+05  6.491141E+04  2.164429E+03  2.915534E+04  1.493210E+04
       378   9 -5.974077E+04  5.466026E+04  3.891847E+04  1.523484E+02  3.970758E+04  5.030155E+03
       378  10 -8.786759E+05 -8.832794E+04 -1.065308E+05  1.038220E+04  4.039702E-09 -2.517071E-09
       378  11 -9.080428E+05 -9.472063E+04 -1.280474E+05  1.257833E+04  4.600243E-09  1.399407E-09
       378  12 -9.574637E+05 -1.688213E+05 -1.817521E+05  3.920022E+04  4.975339E-09  9.831081E-09
       378  13 -5.086704E+05  3.227403E+03 -1.941702E+04  1.948871E+04  2.420279E-09  3.991125E-09
       378  14 -4.992208E+05  6.359884E+03 -3.156323E+04  7.372993E+03 -1.530242E-09  1.113233E-08
       378  15 -5.086953E+05 -5.707400E+04 -7.141099E+04  1.968335E+04 -2.841243E-10  2.246158E-09
       378  16 -1.385385E+05  9.477325E+04  6.768740E+04  2.860057E+04 -4.248490E-09  1.230168E-08
       378  17 -9.024486E+04  1.074285E+05  6.490940E+04  2.164078E+03 -4.536401E-09  1.559705E-08
       378  18 -5.974247E+04  5.465981E+04  3.891546E+04  1.521875E+02 -6.340980E-09 -6.781149E-10
       378  19 -8.786757E+05 -8.832770E+04 -1.065302E+05  1.038232E+04 -1.120781E+04 -1.406016E+04
       378  20 -9.080415E+05 -9.472006E+04 -1.280447E+05  1.257875E+04 -3.459868E+04 -1.495223E+04
       378  21 -9.574601E+05 -1.688203E+05 -1.817457E+05  3.920046E+04 -5.802169E+04 -5.091376E+03
       378  22 -5.086701E+05  3.227675E+03 -1.941623E+04  1.948888E+04 -1.492182E+04 -1.407294E+04
       378  23 -4.992197E+05  6.360397E+03 -3.156090E+04  7.373377E+03 -3.187790E+04 -1.494214E+04
       378  24 -5.086927E+05 -5.707333E+04 -7.140645E+04  1.968355E+04 -4.886795E+04 -5.060472E+03
       378  25 -1.385381E+05  9.477356E+04  6.768842E+04  2.860078E+04 -1.863803E+04 -1.408583E+04
       378  26 -9.024389E+04  1.074290E+05  6.491141E+04  2.164429E+03 -2.915534E+04 -1.493210E+04
       378  27 -5.974077E+04  5.466026E+04  3.891847E+04  1.523484E+02 -3.970758E+04 -5.030155E+03
       379   1 -1.744402E+05 -6.743759E+05 -1.683555E+05  1.718485E+05 -6.921892E+03 -5.280283E+04
       379   2 -1.207589E+05 -5.205772E+05 -1.037485E+05  1.507125E+05 -2.129187E+04 -2.112029E+04
       379   3 -8.078570E+04 -3.740888E+05 -6.319238E+04  1.604272E+05 -2.025700E+04  1.061362E+04
       379   4 -1.688474E+04 -3.808834E+04 -1.746742E+04  1.605605E+05 -7.018147E+03 -1.324999E+04
       379   5 -4.746386E+03 -3.680649E+04 -7.769348E+03  1.451540E+05 -2.131879E+04 -9.266280E+03
       379   6 -1.497579E+03 -3.804064E+04 -2.870156E+03  1.605982E+05 -2.021952E+04 -5.239772E+03
       379   7  1.406428E+05  5.985749E+05  1.333984E+05  1.492611E+05 -7.115794E+03  2.634321E+04
       379   8  1.112520E+05  4.471885E+05  8.819879E+04  1.395911E+05 -2.134592E+04  2.596787E+03
       379   9  7.778439E+04  2.981182E+05  5.744866E+04  1.607693E+05 -2.018206E+04 -2.110150E+04
       379  10 -1.744410E+05 -6.743789E+05 -1.683608E+05  1.718482E+05 -9.487499E-11 -5.825465E-08
       379  11 -1.207595E+05 -5.205778E+05 -1.037502E+05  1.507122E+05  4.899813E-10 -5.023914E-10
       379  12 -8.078617E+04 -3.740891E+05 -6.319336E+04  1.604273E+05  4.041589E-09  6.132010E-08
       379  13 -1.688484E+04 -3.808855E+04 -1.746784E+04  1.605604E+05  1.659089E-09  2.134812E-09
       379  14 -4.746897E+03 -3.680670E+04 -7.770364E+03  1.451538E+05 -2.107443E-09  3.847365E-09
       379  15 -1.498026E+03 -3.804078E+04 -2.870975E+03  1.605981E+05  3.600665E-09  2.214967E-09
       379  16  1.406426E+05  5.985742E+05  1.333970E+05  1.492612E+05 -6.518957E-10  6.267507E-08
       379  17  1.112515E+05  4.471884E+05  8.819792E+04  1.395911E+05  2.666391E-10  7.841026E-09
       379  18  7.778383E+04  2.981176E+05  5.744706E+04  1.607690E+05  2.129246E-09 -6.762894E-08
       379  19 -1.744402E+05 -6.743759E+05 -1.683555E+05  1.718485E+05  6.921892E+03  5.280283E+04
       379  20 -1.207589E+05 -5.205772E+05 -1.037485E+05  1.507125E+05  2.129187E+04  2.112029E+04
       379  21 -8.078570E+04 -3.740888E+05 -6.319238E+04  1.604272E+05  2.025700E+04 -1.061362E+04
       379  22 -1.688474E+04 -3.808834E+04 -1.746742E+04  1.605605E+05  7.018147E+03  1.324999E+04
       379  23 -4.746386E+03 -3.680649E+04 -7.769348E+03  1.451540E+05  2.131879E+04  9.266280E+03
       379  24 -1.497579E+03 -3.804064E+04 -2.870156E+03  1.605982E+05  2.021952E+04  5.239772E+03
       379  25  1.406428E+05  5.985749E+05  1.333984E+05  1.492611E+05  7.115794E+03 -2.634321E+04
       379  26  1.112520E+05  4.471885E+05  8.819879E+04  1.395911E+05  2.134592E+04 -2.596787E+03
       379  27  7.778439E+04  2.981182E+05  5.744866E+04  1.607693E+05  2.018206E+04  2.110150E+04
       380   1 -5.782541E+04 -2.759993E+05 -4.354140E+04  1.613142E+05 -1.468155E+04  9.684480E+03
       380   2 -2.114181E+04 -1.261029E+05 -1.210478E+04  1.454508E+05 -6.327175E+03  9.096399E+03
       380   3  1.596620E+04  2.420728E+04  1.987372E+04  1.614187E+05  2.418338E+03  8.508632E+03
       380   4 -1.587611E+03 -3.735659E+04 -1.048364E+03  1.608103E+05 -1.464767E+04 -4.995518E+03
       380   5 -4.916425E+02 -3.760952E+04  2.630764E+03  1.448980E+05 -6.292148E+03 -6.288976E+03
       380   6  1.152429E+03 -3.734762E+04  7.342108E+03  1.608166E+05  2.454449E+03 -7.581987E+03
       380   7  5.464715E+04  2.013422E+05  4.144334E+04  1.603062E+05 -1.461378E+04 -1.968100E+04
       380   8  2.015825E+04  5.089212E+04  1.736696E+04  1.443451E+05 -6.257096E+03 -2.167647E+04
       380   9 -1.366144E+04 -9.889837E+04 -5.188731E+03  1.602146E+05  2.490594E+03 -2.367104E+04
       380  10 -5.782566E+04 -2.759995E+05 -4.354198E+04  1.613143E+05  5.860754E-09 -5.386079E-08
       380  11 -2.114188E+04 -1.261030E+05 -1.210501E+04  1.454509E+05  3.610524E-09  1.926873E-09
       380  12  1.596618E+04  2.420720E+04  1.987358E+04  1.614187E+05 -3.982227E-10  5.796443E-08
       380  13 -1.587848E+03 -3.735667E+04 -1.048814E+03  1.608103E+05  5.507709E-09 -1.094453E-09
       380  14 -4.916957E+02 -3.760957E+04  2.630615E+03  1.448979E+05  4.990860E-09  3.209504E-09
       380  15  1.152407E+03 -3.734769E+04  7.341989E+03  1.608167E+05  1.431689E-09  6.732735E-10
       380  16  5.464682E+04  2.013417E+05  4.144221E+04  1.603060E+05  3.215897E-09  5.956064E-08
       380  17  2.015808E+04  5.089161E+04  1.736601E+04  1.443450E+05  2.246678E-09  7.458975E-09
       380  18 -1.366160E+04 -9.889897E+04 -5.189796E+03  1.602147E+05  3.209071E-10 -6.164396E-08
       380  19 -5.782541E+04 -2.759993E+05 -4.354140E+04  1.613142E+05  1.468155E+04 -9.684480E+03
       380  20 -2.114181E+04 -1.261029E+05 -1.210478E+04  1.454508E+05  6.327175E+03 -9.096399E+03
       380  21  1.596620E+04  2.420728E+04  1.987372E+04  1.614187E+05 -2.418338E+03 -8.508632E+03
       380  22 -1.587611E+03 -3.735659E+04 -1.048364E+03  1.608103E+05  1.464767E+04  4.995518E+03
       380  23 -4.916425E+02 -3.760952E+04  2.630764E+03  1.448980E+05  6.292148E+03  6.288976E+03
       380  24  1.152429E+03 -3.734762E+04  7.342108E+03  1.608166E+05 -2.454449E+03  7.581987E+03
       380  25  5.464715E+04  2.013422E+05  4.144334E+04  1.603062E+05  1.461378E+04  1.968100E+04
       380  26  2.015825E+04  5.089212E+04  1.736696E+04  1.443451E+05  6.257096E+03  2.167647E+04
       380  27 -1.366144E+04 -9.889837E+04 -5.188731E+03  1.602146E+05 -2.490594E+03  2.367104E+04
       381   1  3.872224E+04  1.228144E+05  4.034122E+04  1.587409E+05  8.250459E+03  8.055035E+03
       381   2  8.258442E+04  2.679466E+05  8.271128E+04  1.557447E+05  1.203752E+04 -2.265182E+04
       381   3  1.506409E+05  4.233552E+05  1.511628E+05  1.839511E+05  4.476840E+03 -5.339616E+04
       381   4  9.551268E+02 -3.597345E+04  1.033423E+04  1.606649E+05  8.288777E+03 -8.850326E+03
       381   5  8.645619E+03 -3.934650E+04  1.995854E+04  1.451078E+05  1.203021E+04 -1.912232E+04
       381   6  3.699189E+04 -3.600265E+04  4.148111E+04  1.607515E+05  4.422562E+03 -2.942437E+04
       381   7 -3.681329E+04 -1.947363E+05 -1.967280E+04  1.625883E+05  8.326995E+03 -2.575147E+04
       381   8 -6.529864E+04 -3.465495E+05 -4.279907E+04  1.344763E+05  1.202277E+04 -1.559455E+04
       381   9 -7.667001E+04 -4.951647E+05 -6.821292E+04  1.375692E+05  4.366475E+03 -5.470230E+03
       381  10  3.872215E+04  1.228143E+05  4.034097E+04  1.587408E+05 -1.848379E-09  3.221690E-08
       381  11  8.258413E+04  2.679460E+05  8.271004E+04  1.557449E+05 -4.207469E-09  5.819214E-10
       381  12  1.506401E+05  4.233522E+05  1.511574E+05  1.839513E+05 -2.374665E-09 -2.769715E-08
       381  13  9.550320E+02 -3.597356E+04  1.033395E+04  1.606649E+05 -3.902058E-09  4.502222E-13
       381  14  8.645366E+03 -3.934693E+04  1.995758E+04  1.451080E+05 -2.882705E-09  3.885151E-09
       381  15  3.699164E+04 -3.600359E+04  4.147944E+04  1.607516E+05 -2.093123E-09  4.180869E-09
       381  16 -3.681354E+04 -1.947371E+05 -1.967418E+04  1.625885E+05 -2.552414E-09 -2.704404E-08
       381  17 -6.529886E+04 -3.465498E+05 -4.279980E+04  1.344765E+05 -4.679737E-09  6.739728E-09
       381  18 -7.667003E+04 -4.951647E+05 -6.821302E+04  1.375692E+05 -2.328318E-09  2.142122E-08
       381  19  3.872224E+04  1.228144E+05  4.034122E+04  1.587409E+05 -8.250459E+03 -8.055035E+03
       381  20  8.258442E+04  2.679466E+05  8.271128E+04  1.557447E+05 -1.203752E+04  2.265182E+04
       381  21  1.506409E+05  4.233552E+05  1.511628E+05  1.839511E+05 -4.476840E+03  5.339616E+04
       381  22  9.551268E+02 -3.597345E+04  1.033423E+04  1.606649E+05 -8.288777E+03  8.850326E+03
       381  23  8.645619E+03 -3.934650E+04  1.995854E+04  1.451078E+05 -1.203021E+04  1.912232E+04
       381  24  3.699189E+04 -3.600265E+04  4.148111E+04  1.607515E+05 -4.422562E+03  2.942437E+04
       381  25 -3.681329E+04 -1.947363E+05 -1.967280E+04  1.625883E+05 -8.326995E+03  2.575147E+04
       381  26 -6.529864E+04 -3.465495E+05 -4.279907E+04  1.344763E+05 -1.202277E+04  1.559455E+04
       381  27 -7.667001E+04 -4.951647E+05 -6.821292E+04  1.375692E+05 -4.366475E+03  5.470230E+03
       382   1  9.330686E+05  3.463706E+05  2.269739E+05  3.283246E+05  9.194985E+04  3.008340E+04
       382   2  8.980149E+05  2.064768E+05  1.400277E+05  3.278197E+05  6.006335E+04  8.513402E+03
       382   3  8.980197E+05  1.950302E+05  1.107585E+05  3.124814E+05  2.477607E+04 -4.060850E+03
       382   4  6.019640E+05  1.883069E+05  1.308706E+05  2.040548E+05  8.471066E+04  2.733899E+04
       382   5  5.780175E+05  7.618068E+04  5.502743E+04  2.297897E+05  5.789886E+04  7.692581E+03
       382   6  5.881471E+05  9.153133E+04  3.286375E+04  2.406852E+05  2.768421E+04 -2.959497E+03
       382   7  2.709715E+05  3.027185E+04  3.475797E+04  7.985248E+04  7.747578E+04  2.459715E+04
       382   8  2.581207E+05 -5.410369E+04 -2.998149E+04  1.318073E+05  5.573559E+04  6.872306E+03
       382   9  2.783660E+05 -1.196661E+04 -4.503873E+04  1.689187E+05  3.059076E+04 -1.858586E+03
       382  10  9.330593E+05  3.463673E+05  2.269564E+05  3.283224E+05 -1.650061E-09  1.158739E-09
       382  11  8.980110E+05  2.064758E+05  1.400208E+05  3.278193E+05 -1.456027E-09  1.354272E-08
       382  12  8.980191E+05  1.950300E+05  1.107573E+05  3.124815E+05 -4.772890E-09  5.143597E-09
       382  13  6.019562E+05  1.883041E+05  1.308558E+05  2.040530E+05  9.487191E-10 -5.891163E-09
       382  14  5.780139E+05  7.617972E+04  5.502102E+04  2.297893E+05 -6.048821E-09 -3.457256E-09
       382  15  5.881462E+05  9.153111E+04  3.286229E+04  2.406852E+05 -3.762349E-09  2.370312E-09
       382  16  2.709649E+05  3.026959E+04  3.474556E+04  7.985095E+04  5.447351E-10 -1.333817E-09
       382  17  2.581174E+05 -5.410457E+04 -2.998741E+04  1.318070E+05 -2.368951E-09 -2.386891E-09
       382  18  2.783650E+05 -1.196687E+04 -4.504050E+04  1.689187E+05 -1.656229E-09  1.821995E-09
       382  19  9.330686E+05  3.463706E+05  2.269739E+05  3.283246E+05 -9.194985E+04 -3.008340E+04
       382  20  8.980149E+05  2.064768E+05  1.400277E+05  3.278197E+05 -6.006335E+04 -8.513402E+03
       382  21  8.980197E+05  1.950302E+05  1.107585E+05  3.124814E+05 -2.477607E+04  4.060850E+03
       382  22  6.019640E+05  1.883069E+05  1.308706E+05  2.040548E+05 -8.471066E+04 -2.733899E+04
       382  23  5.780175E+05  7.618068E+04  5.502743E+04  2.297897E+05 -5.789886E+04 -7.692581E+03
       382  24  5.881471E+05  9.153133E+04  3.286375E+04  2.406852E+05 -2.768421E+04  2.959497E+03
       382  25  2.709715E+05  3.027185E+04  3.475797E+04  7.985248E+04 -7.747578E+04 -2.459715E+04
       382  26  2.581207E+05 -5.410369E+04 -2.998149E+04  1.318073E+05 -5.573559E+04 -6.872306E+03
       382  27  2.783660E+05 -1.196661E+04 -4.503873E+04  1.689187E+05 -3.059076E+04  1.858586E+03
       383   1  8.500165E+05  2.075142E+05  9.645707E+04  3.092694E+05  2.219824E+04 -2.794151E+03
       383   2  8.282940E+05  1.792706E+05  7.579579E+04  2.960764E+05  1.492922E+04 -4.839750E+03
       383   3  7.988113E+05  1.752529E+05  6.344390E+04  2.948301E+05  7.440082E+03 -6.304812E+03
       383   4  5.839589E+05  1.043530E+05  2.659810E+04  2.330943E+05  2.237751E+04 -2.726706E+03
       383   5  5.872072E+05  8.762035E+04  1.297858E+04  2.288849E+05  1.543785E+04 -4.647319E+03
       383   6  5.826310E+05  9.505144E+04  7.410263E+03  2.366217E+05  8.277728E+03 -5.987454E+03
       383   7  3.179701E+05  1.197365E+03 -4.326691E+04  1.569491E+05  2.255670E+04 -2.659295E+03
       383   8  3.461771E+05 -4.025697E+03 -4.984340E+04  1.617171E+05  1.594626E+04 -4.454972E+03
       383   9  3.664968E+05  1.485287E+04 -4.862707E+04  1.784315E+05  9.115051E+03 -5.670215E+03
       383  10  8.500159E+05  2.075141E+05  9.645613E+04  3.092695E+05 -4.014062E-09  1.688217E-08
       383  11  8.282938E+05  1.792705E+05  7.579533E+04  2.960765E+05 -3.156234E-09  1.573108E-08
       383  12  7.988112E+05  1.752528E+05  6.344372E+04  2.948302E+05  1.730339E-09  1.786632E-08
       383  13  5.839584E+05  1.043528E+05  2.659715E+04  2.330944E+05 -6.156046E-09  1.590818E-08
       383  14  5.872069E+05  8.762026E+04  1.297810E+04  2.288850E+05 -4.852211E-09 -9.787980E-09
       383  15  5.826310E+05  9.505138E+04  7.410067E+03  2.366217E+05 -8.084830E-10  1.279530E-08
       383  16  3.179695E+05  1.197221E+03 -4.326787E+04  1.569491E+05 -4.263603E-09  4.344850E-09
       383  17  3.461768E+05 -4.025786E+03 -4.984392E+04  1.617171E+05 -1.574901E-09 -6.525551E-09
       383  18  3.664967E+05  1.485282E+04 -4.862728E+04  1.784316E+05 -4.093236E-09 -8.116784E-09
       383  19  8.500165E+05  2.075142E+05  9.645707E+04  3.092694E+05 -2.219824E+04  2.794151E+03
       383  20  8.282940E+05  1.792706E+05  7.579579E+04  2.960764E+05 -1.492922E+04  4.839750E+03
       383  21  7.988113E+05  1.752529E+05  6.344390E+04  2.948301E+05 -7.440082E+03  6.304812E+03
       383  22  5.839589E+05  1.043530E+05  2.659810E+04  2.330943E+05 -2.237751E+04  2.726706E+03
       383  23  5.872072E+05  8.762035E+04  1.297858E+04  2.288849E+05 -1.543785E+04  4.647319E+03
       383  24  5.826310E+05  9.505144E+04  7.410263E+03  2.366217E+05 -8.277728E+03  5.987454E+03
       383  25  3.179701E+05  1.197365E+03 -4.326691E+04  1.569491E+05 -2.255670E+04  2.659295E+03
       383  26  3.461771E+05 -4.025697E+03 -4.984340E+04  1.617171E+05 -1.594626E+04  4.454972E+03
       383  27  3.664968E+05  1.485287E+04 -4.862707E+04  1.784315E+05 -9.115051E+03  5.670215E+03
       384   1  7.658783E+05  1.656940E+05  5.346769E+04  2.866717E+05  6.261900E+03 -5.839891E+03
       384   2  7.460464E+05  1.484519E+05  4.408678E+04  2.724635E+05  4.265595E+03 -5.243590E+03
       384   3  7.141088E+05  1.450548E+05  3.615762E+04  2.724200E+05  2.256888E+03 -4.615669E+03
       384   4  5.821773E+05  9.620550E+04  5.745774E+03  2.358096E+05  6.917557E+03 -5.591441E+03
       384   5  5.881709E+05  8.885193E+04  3.027541E+03  2.288918E+05  4.939516E+03 -4.988092E+03
       384   6  5.820553E+05  9.534037E+04  1.747116E+03  2.361388E+05  2.949004E+03 -4.353144E+03
       384   7  3.985083E+05  2.671903E+04 -4.197913E+04  1.849609E+05  7.573002E+03 -5.343071E+03
       384   8  4.303194E+05  2.925352E+04 -3.803386E+04  1.853300E+05  5.613250E+03 -4.732666E+03
       384   9  4.500186E+05  4.562700E+04 -3.266486E+04  1.998646E+05  3.640959E+03 -4.090681E+03
       384  10  7.658783E+05  1.656939E+05  5.346755E+04  2.866718E+05  9.150667E-10  1.671904E-08
       384  11  7.460463E+05  1.484518E+05  4.408669E+04  2.724635E+05 -4.372447E-09  1.233419E-08
       384  12  7.141088E+05  1.450548E+05  3.615757E+04  2.724200E+05 -1.169610E-08  2.398375E-09
       384  13  5.821772E+05  9.620545E+04  5.745625E+03  2.358096E+05 -1.066286E-09  4.545737E-09
       384  14  5.881709E+05  8.885190E+04  3.027448E+03  2.288918E+05  2.958616E-09  5.705008E-09
       384  15  5.820552E+05  9.534035E+04  1.747064E+03  2.361388E+05 -3.449118E-09 -3.313488E-09
       384  16  3.985082E+05  2.671898E+04 -4.197930E+04  1.849609E+05 -1.587585E-10 -6.305003E-09
       384  17  4.303194E+05  2.925348E+04 -3.803396E+04  1.853300E+05  6.204741E-09 -6.701093E-09
       384  18  4.500186E+05  4.562698E+04 -3.266492E+04  1.998646E+05  4.112997E-09  8.518186E-09
       384  19  7.658783E+05  1.656940E+05  5.346769E+04  2.866717E+05 -6.261900E+03  5.839891E+03
       384  20  7.460464E+05  1.484519E+05  4.408678E+04  2.724635E+05 -4.265595E+03  5.243590E+03
       384  21  7.141088E+05  1.450548E+05  3.615762E+04  2.724200E+05 -2.256888E+03  4.615669E+03
       384  22  5.821773E+05  9.620550E+04  5.745774E+03  2.358096E+05 -6.917557E+03  5.591441E+03
       384  23  5.881709E+05  8.885193E+04  3.027541E+03  2.288918E+05 -4.939516E+03  4.988092E+03
       384  24  5.820553E+05  9.534037E+04  1.747116E+03  2.361388E+05 -2.949004E+03  4.353144E+03
       384  25  3.985083E+05  2.671903E+04 -4.197913E+04  1.849609E+05 -7.573002E+03  5.343071E+03
       384  26  4.303194E+05  2.925352E+04 -3.803386E+04  1.853300E+05 -5.613250E+03  4.732666E+03
       384  27  4.500186E+05  4.562700E+04 -3.266486E+04  1.998646E+05 -3.640959E+03  4.090681E+03
       385   1  6.830970E+05  1.335569E+05  2.756237E+04  2.639297E+05  1.744663E+03 -3.996846E+03
       385   2  6.636942E+05  1.174910E+05  2.048605E+04  2.497484E+05  8.532166E+02 -2.954788E+03
       385   3  6.317909E+05  1.141492E+05  1.376360E+04  2.497739E+05 -3.804616E+01 -1.913701E+03
       385   4  5.820165E+05  9.541387E+04  1.369428E+03  2.360269E+05  2.423336E+03 -3.739363E+03
       385   5  5.882629E+05  8.901914E+04  8.683047E+02  2.289362E+05  1.531416E+03 -2.697430E+03
       385   6  5.820082E+05  9.534889E+04  7.215097E+02  2.360521E+05  6.396571E+02 -1.656471E+03
       385   7  4.809461E+05  5.727160E+04 -2.482427E+04  2.081283E+05  3.101887E+03 -3.481926E+03
       385   8  5.128371E+05  6.054769E+04 -1.874992E+04  2.081262E+05  2.209526E+03 -2.440105E+03
       385   9  5.322277E+05  7.654866E+04 -1.232083E+04  2.223313E+05  1.317303E+03 -1.399262E+03
       385  10  6.830970E+05  1.335569E+05  2.756233E+04  2.639297E+05  4.506813E-09 -1.433969E-09
       385  11  6.636942E+05  1.174909E+05  2.048604E+04  2.497484E+05  2.905991E-09  8.965235E-09
       385  12  6.317909E+05  1.141492E+05  1.376359E+04  2.497739E+05 -3.711346E-09  2.168633E-09
       385  13  5.820164E+05  9.541385E+04  1.369391E+03  2.360269E+05 -2.759751E-09  1.862045E-09
       385  14  5.882629E+05  8.901913E+04  8.682866E+02  2.289362E+05  3.643649E-10  1.579844E-08
       385  15  5.820082E+05  9.534889E+04  7.215037E+02  2.360521E+05 -1.149616E-09 -5.668074E-09
       385  16  4.809461E+05  5.727158E+04 -2.482431E+04  2.081283E+05 -1.138800E-08  1.335023E-09
       385  17  5.128371E+05  6.054768E+04 -1.874994E+04  2.081262E+05 -5.961627E-09  3.762035E-09
       385  18  5.322277E+05  7.654865E+04 -1.232084E+04  2.223313E+05  2.308085E-09 -4.661808E-09
       385  19  6.830970E+05  1.335569E+05  2.756237E+04  2.639297E+05 -1.744663E+03  3.996846E+03
       385  20  6.636942E+05  1.174910E+05  2.048605E+04  2.497484E+05 -8.532166E+02  2.954788E+03
       385  21  6.317909E+05  1.141492E+05  1.376360E+04  2.497739E+05  3.804616E+01  1.913701E+03
       385  22  5.820165E+05  9.541387E+04  1.369428E+03  2.360269E+05 -2.423336E+03  3.739363E+03
       385  23  5.882629E+05  8.901914E+04  8.683047E+02  2.289362E+05 -1.531416E+03  2.697430E+03
       385  24  5.820082E+05  9.534889E+04  7.215097E+02  2.360521E+05 -6.396571E+02  1.656471E+03
       385  25  4.809461E+05  5.727160E+04 -2.482427E+04  2.081283E+05 -3.101887E+03  3.481926E+03
       385  26  5.128371E+05  6.054769E+04 -1.874992E+04  2.081262E+05 -2.209526E+03  2.440105E+03
       385  27  5.322277E+05  7.654866E+04 -1.232083E+04  2.223313E+05 -1.317303E+03  1.399262E+03
       386   1  6.011431E+05  1.025593E+05  5.622131E+03  2.413462E+05 -4.244704E+02 -1.258284E+03
       386   2  5.818174E+05  8.660923E+04 -6.916662E+02  2.271821E+05 -1.370337E+03 -2.407598E+02
       386   3  5.500433E+05  8.336217E+04 -6.605857E+03  2.271716E+05 -2.315552E+03  7.752406E+02
       386   4  5.820193E+05  9.533744E+04  7.409107E+02  2.360430E+05  2.524806E+02 -1.001320E+03
       386   5  5.882501E+05  8.903017E+04  9.800521E+02  2.289496E+05 -6.942731E+02  1.585985E+01
       386   6  5.820319E+05  9.542590E+04  1.619488E+03  2.360094E+05 -1.640398E+03  1.031510E+03
       386   7  5.628959E+05  8.811563E+04 -4.140337E+03  2.307400E+05  9.294087E+02 -7.443652E+02
       386   8  5.946829E+05  9.145110E+04  2.651766E+03  2.307171E+05 -1.820314E+01  2.724820E+02
       386   9  6.140215E+05  1.074897E+05  9.844722E+03  2.448475E+05 -9.652083E+02  1.287793E+03
       386  10  6.011431E+05  1.025593E+05  5.622128E+03  2.413462E+05 -8.630293E-10  1.836704E-09
       386  11  5.818174E+05  8.660923E+04 -6.916698E+02  2.271821E+05 -2.049531E-09 -7.985162E-09
       386  12  5.500432E+05  8.336217E+04 -6.605869E+03  2.271716E+05 -4.131484E-09  3.883642E-09
       386  13  5.820193E+05  9.533743E+04  7.409087E+02  2.360430E+05 -7.264770E-10  9.154517E-09
       386  14  5.882501E+05  8.903017E+04  9.800512E+02  2.289496E+05  2.131009E-09 -5.856738E-09
       386  15  5.820319E+05  9.542590E+04  1.619481E+03  2.360094E+05  4.446093E-10 -7.583518E-09
       386  16  5.628959E+05  8.811563E+04 -4.140339E+03  2.307400E+05  1.452835E-09 -7.811604E-11
       386  17  5.946829E+05  9.145110E+04  2.651766E+03  2.307171E+05  4.641043E-09  2.389318E-09
       386  18  6.140215E+05  1.074897E+05  9.844717E+03  2.448475E+05  5.310224E-09 -2.626951E-09
       386  19  6.011431E+05  1.025593E+05  5.622131E+03  2.413462E+05  4.244704E+02  1.258284E+03
       386  20  5.818174E+05  8.660923E+04 -6.916662E+02  2.271821E+05  1.370337E+03  2.407598E+02
       386  21  5.500433E+05  8.336217E+04 -6.605857E+03  2.271716E+05  2.315552E+03 -7.752406E+02
       386  22  5.820193E+05  9.533744E+04  7.409107E+02  2.360430E+05 -2.524806E+02  1.001320E+03
       386  23  5.882501E+05  8.903017E+04  9.800521E+02  2.289496E+05  6.942731E+02 -1.585985E+01
       386  24  5.820319E+05  9.542590E+04  1.619488E+03  2.360094E+05  1.640398E+03 -1.031510E+03
       386  25  5.628959E+05  8.811563E+04 -4.140337E+03  2.307400E+05 -9.294087E+02  7.443652E+02
       386  26  5.946829E+05  9.145110E+04  2.651766E+03  2.307171E+05  1.820314E+01 -2.724820E+02
       386  27  6.140215E+05  1.074897E+05  9.844722E+03  2.448475E+05  9.652083E+02 -1.287793E+03
       387   1  5.193218E+05  7.176872E+04 -1.430585E+04  2.189779E+05 -2.897486E+03  1.361266E+03
       387   2  4.998036E+05  5.549810E+04 -1.932218E+04  2.045357E+05 -5.184769E+03  1.872180E+03
       387   3  4.684084E+05  5.317312E+04 -2.261945E+04  2.040606E+05 -7.461376E+03  2.355803E+03
       387   4  5.821023E+05  9.531028E+04  2.085875E+03  2.361165E+05 -2.212245E+03  1.621340E+03
       387   5  5.881145E+05  8.886443E+04  3.653428E+03  2.289321E+05 -4.515177E+03  2.126247E+03
       387   6  5.822525E+05  9.636724E+04  6.952422E+03  2.357145E+05 -6.807513E+03  2.603835E+03
       387   7  6.448868E+05  1.188522E+05  1.847733E+04  2.532567E+05 -1.526926E+03  1.881444E+03
       387   8  6.764331E+05  1.222313E+05  2.662843E+04  2.533316E+05 -3.845479E+03  2.380354E+03
       387   9  6.961093E+05  1.395622E+05  3.652321E+04  2.673737E+05 -6.153518E+03  2.851917E+03
       387  10  5.193217E+05  7.176872E+04 -1.430587E+04  2.189779E+05  3.243649E-09  3.818111E-09
       387  11  4.998035E+05  5.549809E+04 -1.932224E+04  2.045358E+05  5.301969E-09 -8.369999E-09
       387  12  4.684083E+05  5.317310E+04 -2.261956E+04  2.040606E+05  1.348524E-09 -1.799045E-08
       387  13  5.821023E+05  9.531028E+04  2.085860E+03  2.361165E+05 -3.517124E-09 -6.094599E-09
       387  14  5.881145E+05  8.886442E+04  3.653382E+03  2.289321E+05  3.911981E-11  2.478837E-08
       387  15  5.822525E+05  9.636722E+04  6.952322E+03  2.357145E+05  1.311567E-09 -6.670390E-09
       387  16  6.448868E+05  1.188522E+05  1.847731E+04  2.532567E+05  2.461870E-10  9.052188E-09
       387  17  6.764331E+05  1.222313E+05  2.662839E+04  2.533316E+05  2.906964E-10 -2.052490E-08
       387  18  6.961092E+05  1.395622E+05  3.652313E+04  2.673737E+05  1.413373E-09 -2.408278E-10
       387  19  5.193218E+05  7.176872E+04 -1.430585E+04  2.189779E+05  2.897486E+03 -1.361266E+03
       387  20  4.998036E+05  5.549810E+04 -1.932218E+04  2.045357E+05  5.184769E+03 -1.872180E+03
       387  21  4.684084E+05  5.317312E+04 -2.261945E+04  2.040606E+05  7.461376E+03 -2.355803E+03
       387  22  5.821023E+05  9.531028E+04  2.085875E+03  2.361165E+05  2.212245E+03 -1.621340E+03
       387  23  5.881145E+05  8.886443E+04  3.653428E+03  2.289321E+05  4.515177E+03 -2.126247E+03
       387  24  5.822525E+05  9.636724E+04  6.952422E+03  2.357145E+05  6.807513E+03 -2.603835E+03
       387  25  6.448868E+05  1.188522E+05  1.847733E+04  2.532567E+05  1.526926E+03 -1.881444E+03
       387  26  6.764331E+05  1.222313E+05  2.662843E+04  2.533316E+05  3.845479E+03 -2.380354E+03
       387  27  6.961093E+05  1.395622E+05  3.652321E+04  2.673737E+05  6.153518E+03 -2.851917E+03
       388   1  4.366961E+05  4.142232E+04 -2.881042E+04  1.980475E+05 -9.179807E+03  2.586735E+03
       388   2  4.166450E+05  2.226857E+04 -2.873062E+04  1.811013E+05 -1.748883E+04  7.966636E+02
       388   3  3.899723E+05  2.939563E+04 -1.911193E+04  1.752845E+05 -2.562010E+04 -1.460058E+03
       388   4  5.828285E+05  9.494061E+04  8.970432E+03  2.366678E+05 -8.380424E+03  2.889934E+03
       388   5  5.869210E+05  8.741355E+04  1.572410E+04  2.289637E+05 -1.695409E+04  9.992935E+02
       388   6  5.844423E+05  1.062167E+05  3.222426E+04  2.323884E+05 -2.535038E+04 -1.358146E+03
       388   7  7.289812E+05  1.484598E+05  4.674940E+04  2.752962E+05 -7.580837E+03  3.193206E+03
       388   8  7.572252E+05  1.525606E+05  6.017638E+04  2.768380E+05 -1.641919E+04  1.201987E+03
       388   9  7.789496E+05  1.830415E+05  8.355737E+04  2.895090E+05 -2.508058E+04 -1.256195E+03
       388  10  4.366960E+05  4.142229E+04 -2.881059E+04  1.980475E+05 -5.766717E-09 -2.112443E-08
       388  11  4.166447E+05  2.226848E+04 -2.873119E+04  1.811013E+05 -4.653270E-09  1.164380E-08
       388  12  3.899716E+05  2.939545E+04 -1.911317E+04  1.752844E+05  2.966823E-09  1.169611E-08
       388  13  5.828285E+05  9.494058E+04  8.970285E+03  2.366679E+05  5.922187E-11 -7.544462E-09
       388  14  5.869207E+05  8.741347E+04  1.572356E+04  2.289637E+05 -6.201218E-10  4.460328E-09
       388  15  5.844416E+05  1.062165E+05  3.222305E+04  2.323884E+05  1.506566E-09 -3.761254E-10
       388  16  7.289811E+05  1.484598E+05  4.674927E+04  2.752962E+05  7.864439E-09  4.776812E-09
       388  17  7.572249E+05  1.525606E+05  6.017587E+04  2.768380E+05  2.517924E-09 -7.843442E-09
       388  18  7.789490E+05  1.830413E+05  8.355619E+04  2.895090E+05 -4.926102E-09 -8.822726E-10
       388  19  4.366961E+05  4.142232E+04 -2.881042E+04  1.980475E+05  9.179807E+03 -2.586735E+03
       388  20  4.166450E+05  2.226857E+04 -2.873062E+04  1.811013E+05  1.748883E+04 -7.966636E+02
       388  21  3.899723E+05  2.939563E+04 -1.911193E+04  1.752845E+05  2.562010E+04  1.460058E+03
       388  22  5.828285E+05  9.494061E+04  8.970432E+03  2.366678E+05  8.380424E+03 -2.889934E+03
       388  23  5.869210E+05  8.741355E+04  1.572410E+04  2.289637E+05  1.695409E+04 -9.992935E+02
       388  24  5.844423E+05  1.062167E+05  3.222426E+04  2.323884E+05  2.535038E+04  1.358146E+03
       388  25  7.289812E+05  1.484598E+05  4.674940E+04  2.752962E+05  7.580837E+03 -3.193206E+03
       388  26  7.572252E+05  1.525606E+05  6.017638E+04  2.768380E+05  1.641919E+04 -1.201987E+03
       388  27  7.789496E+05  1.830415E+05  8.355737E+04  2.895090E+05  2.508058E+04  1.256195E+03
       389   1  3.494143E+05  1.619862E+04 -1.949222E+04  1.917954E+05 -3.398211E+04 -2.681870E+03
       389   2  3.296448E+05 -3.103102E+04  4.475779E+02  1.502385E+05 -6.649769E+04 -1.411311E+04
       389   3  3.533701E+05  7.235141E+04  8.220572E+04  8.721773E+04 -9.627958E+04 -3.275542E+04
       389   4  5.895251E+05  9.067072E+04  3.981529E+04  2.415683E+05 -3.152494E+04 -1.749695E+03
       389   5  5.757770E+05  7.358806E+04  6.667806E+04  2.300894E+05 -6.810905E+04 -1.472547E+04
       389   6  6.063045E+05  2.078844E+05  1.585640E+05  1.971524E+05 -1.019604E+05 -3.491459E+04
       389   7  8.296924E+05  1.651427E+05  9.911875E+04  2.913567E+05 -2.906671E+04 -8.172816E+02
       389   8  8.219672E+05  1.782153E+05  1.329028E+05  3.099702E+05 -6.972109E+04 -1.533817E+04
       389   9  8.593018E+05  3.434416E+05  2.349153E+05  3.071326E+05 -1.076437E+05 -3.707560E+04
       389  10  3.494131E+05  1.619831E+04 -1.949440E+04  1.917954E+05 -1.172429E-08  7.943433E-09
       389  11  3.296400E+05 -3.103242E+04  4.388995E+02  1.502377E+05 -6.627374E-09  1.104803E-08
       389  12  3.533599E+05  7.234777E+04  8.218629E+04  8.721520E+04  4.188044E-09  8.206576E-09
       389  13  5.895240E+05  9.067045E+04  3.981342E+04  2.415683E+05 -1.007411E-10  5.260331E-09
       389  14  5.757719E+05  7.358658E+04  6.666894E+04  2.300886E+05 -1.884570E-09  3.148486E-09
       389  15  6.062930E+05  2.078803E+05  1.585422E+05  1.971496E+05 -2.036947E-09  1.152561E-08
       389  16  8.296915E+05  1.651425E+05  9.911716E+04  2.913567E+05  7.113162E-09  5.745380E-09
       389  17  8.219619E+05  1.782137E+05  1.328933E+05  3.099693E+05 -2.040699E-09  7.543677E-09
       389  18  8.592890E+05  3.434370E+05  2.348910E+05  3.071294E+05 -9.468603E-09  2.634753E-09
       389  19  3.494143E+05  1.619862E+04 -1.949222E+04  1.917954E+05  3.398211E+04  2.681870E+03
       389  20  3.296448E+05 -3.103102E+04  4.475779E+02  1.502385E+05  6.649769E+04  1.411311E+04
       389  21  3.533701E+05  7.235141E+04  8.220572E+04  8.721773E+04  9.627958E+04  3.275542E+04
       389  22  5.895251E+05  9.067072E+04  3.981529E+04  2.415683E+05  3.152494E+04  1.749695E+03
       389  23  5.757770E+05  7.358806E+04  6.667806E+04  2.300894E+05  6.810905E+04  1.472547E+04
       389  24  6.063045E+05  2.078844E+05  1.585640E+05  1.971524E+05  1.019604E+05  3.491459E+04
       389  25  8.296924E+05  1.651427E+05  9.911875E+04  2.913567E+05  2.906671E+04  8.172816E+02
       389  26  8.219672E+05  1.782153E+05  1.329028E+05  3.099702E+05  6.972109E+04  1.533817E+04
       389  27  8.593018E+05  3.434416E+05  2.349153E+05  3.071326E+05  1.076437E+05  3.707560E+04
       390   1 -1.637069E+05 -8.506499E+05 -1.657508E+05  9.013351E+04 -5.685203E+03 -2.414871E+04
       390   2 -1.057193E+05 -6.957892E+05 -1.126094E+05  3.820173E+04 -1.564577E+04 -9.619498E+03
       390   3 -6.979136E+04 -5.475233E+05 -7.431378E+04  8.087209E+04 -1.033769E+04  4.954874E+03
       390   4 -1.738626E+04 -2.641455E+05 -2.126636E+04  8.275292E+04 -5.714254E+03 -1.363429E+04
       390   5  1.674417E+03 -2.616179E+05 -1.012440E+04  3.547781E+04 -1.564861E+04 -8.251421E+03
       390   6  2.743901E+02 -2.641128E+05 -7.464219E+03  8.280196E+04 -1.031883E+04 -2.827160E+03
       390   7  1.289090E+05  3.226725E+05  1.231931E+05  7.536554E+04 -5.743542E+03 -3.109942E+03
       390   8  1.090547E+05  1.727269E+05  9.234757E+04  3.275208E+04 -1.565146E+04 -6.882390E+03
       390   9  7.033444E+04  1.937185E+04  5.938003E+04  8.473276E+04 -1.030003E+04 -1.061273E+04
       390  10 -1.637071E+05 -8.506505E+05 -1.657519E+05  9.013340E+04 -1.385815E-10 -3.185760E-09
       390  11 -1.057196E+05 -6.957893E+05 -1.126100E+05  3.820161E+04 -1.239103E-10 -2.318317E-09
       390  12 -6.979148E+04 -5.475233E+05 -7.431403E+04  8.087213E+04  1.666120E-09 -3.989282E-09
       390  13 -1.738634E+04 -2.641457E+05 -2.126677E+04  8.275285E+04 -5.638767E-11  3.456511E-11
       390  14  1.674135E+03 -2.616180E+05 -1.012499E+04  3.547771E+04 -2.730771E-09 -5.222900E-09
       390  15  2.742736E+02 -2.641128E+05 -7.464434E+03  8.280194E+04  2.282088E-09 -1.742226E-09
       390  16  1.289090E+05  3.226725E+05  1.231930E+05  7.536552E+04 -6.932001E-10  2.082720E-09
       390  17  1.090544E+05  1.727268E+05  9.234702E+04  3.275199E+04 -9.516173E-10 -1.400538E-09
       390  18  7.033430E+04  1.937170E+04  5.937962E+04  8.473267E+04  1.162522E-09  2.859815E-09
       390  19 -1.637069E+05 -8.506499E+05 -1.657508E+05  9.013351E+04  5.685203E+03  2.414871E+04
       390  20 -1.057193E+05 -6.957892E+05 -1.126094E+05  3.820173E+04  1.564577E+04  9.619498E+03
       390  21 -6.979136E+04 -5.475233E+05 -7.431378E+04  8.087209E+04  1.033769E+04 -4.954874E+03
       390  22 -1.738626E+04 -2.641455E+05 -2.126636E+04  8.275292E+04  5.714254E+03  1.363429E+04
       390  23  1.674417E+03 -2.616179E+05 -1.012440E+04  3.547781E+04  1.564861E+04  8.251421E+03
       390  24  2.743901E+02 -2.641128E+05 -7.464219E+03  8.280196E+04  1.031883E+04  2.827160E+03
       390  25  1.289090E+05  3.226725E+05  1.231931E+05  7.536554E+04  5.743542E+03  3.109942E+03
       390  26  1.090547E+05  1.727269E+05  9.234757E+04  3.275208E+04  1.565146E+04  6.882390E+03
       390  27  7.033444E+04  1.937185E+04  5.938003E+04  8.473276E+04  1.030003E+04  1.061273E+04
       391   1 -2.974319E+04 -3.762813E+05 -3.358014E+04  8.401983E+04 -4.241583E+03  1.835333E+03
       391   2  9.876612E+03 -2.240395E+05  2.641160E+03  3.517176E+04  1.407477E+03  5.077614E+03
       391   3  4.405346E+04 -7.296548E+04  3.551348E+04  8.148362E+04  6.949995E+03  8.320830E+03
       391   4 -1.799287E+03 -2.632462E+05 -6.965013E+03  8.291189E+04 -4.233584E+03 -1.589459E+03
       391   5  3.321861E+02 -2.626475E+05 -6.459134E+03  3.533015E+04  1.415480E+03  1.716428E+03
       391   6 -2.988974E+03 -2.632491E+05 -9.345238E+03  8.290901E+04  6.957939E+03  5.022477E+03
       391   7  2.614372E+04 -1.501992E+05  1.964928E+04  8.180374E+04 -4.225573E+03 -5.014872E+03
       391   8 -9.212341E+03 -3.012541E+05 -1.555949E+04  3.548853E+04  1.423481E+03 -1.644551E+03
       391   9 -5.003399E+04 -4.534994E+05 -5.420641E+04  8.433397E+04  6.965868E+03  1.725129E+03
       391  10 -2.974321E+04 -3.762813E+05 -3.358018E+04  8.401984E+04  1.051935E-09  1.707853E-09
       391  11  9.876603E+03 -2.240395E+05  2.641108E+03  3.517176E+04  9.991843E-10  4.648967E-10
       391  12  4.405339E+04 -7.296556E+04  3.551325E+04  8.148357E+04 -2.253297E-10  2.274025E-09
       391  13 -1.799306E+03 -2.632462E+05 -6.965051E+03  8.291188E+04  2.729044E-09 -4.309304E-09
       391  14  3.321831E+02 -2.626475E+05 -6.459143E+03  3.533015E+04  2.321521E-09 -9.081721E-09
       391  15 -2.989033E+03 -2.632492E+05 -9.345376E+03  8.290898E+04  3.700502E-09  1.584118E-09
       391  16  2.614369E+04 -1.501993E+05  1.964920E+04  8.180372E+04  1.658323E-09 -2.824981E-09
       391  17 -9.212344E+03 -3.012541E+05 -1.555950E+04  3.548853E+04 -9.755436E-10 -6.115811E-09
       391  18 -5.003404E+04 -4.534994E+05 -5.420650E+04  8.433396E+04  2.091924E-09 -2.823877E-09
       391  19 -2.974319E+04 -3.762813E+05 -3.358014E+04  8.401983E+04  4.241583E+03 -1.835333E+03
       391  20  9.876612E+03 -2.240395E+05  2.641160E+03  3.517176E+04 -1.407477E+03 -5.077614E+03
       391  21  4.405346E+04 -7.296548E+04  3.551348E+04  8.148362E+04 -6.949995E+03 -8.320830E+03
       391  22 -1.799287E+03 -2.632462E+05 -6.965013E+03  8.291189E+04  4.233584E+03  1.589459E+03
       391  23  3.321861E+02 -2.626475E+05 -6.459134E+03  3.533015E+04 -1.415480E+03 -1.716428E+03
       391  24 -2.988974E+03 -2.632491E+05 -9.345238E+03  8.290901E+04 -6.957939E+03 -5.022477E+03
       391  25  2.614372E+04 -1.501992E+05  1.964928E+04  8.180374E+04  4.225573E+03  5.014872E+03
       391  26 -9.212341E+03 -3.012541E+05 -1.555949E+04  3.548853E+04 -1.423481E+03  1.644551E+03
       391  27 -5.003399E+04 -4.534994E+05 -5.420641E+04  8.433397E+04 -6.965868E+03 -1.725129E+03
       392   1  9.015186E+04  9.573402E+04  7.412538E+04  8.628290E+04  1.323837E+04  1.496649E+04
       392   2  1.294356E+05  2.508951E+05  1.040970E+05  3.125349E+04  1.843326E+04  1.364440E+04
       392   3  1.358627E+05  3.989188E+05  1.268991E+05  7.068679E+04  6.603803E+03  1.227389E+04
       392   4  1.024009E+03 -2.649925E+05 -1.087358E+04  8.278481E+04  1.325888E+04  6.738759E+03
       392   5  2.996027E+03 -2.605430E+05 -1.655118E+04  3.550577E+04  1.842892E+04  1.562853E+04
       392   6 -2.967482E+04 -2.650323E+05 -3.649616E+04  8.269592E+04  6.568383E+03  2.446993E+04
       392   7 -8.811305E+04 -6.255991E+05 -9.588123E+04  7.928882E+04  1.327949E+04 -1.484220E+03
       392   8 -1.234622E+05 -7.717405E+05 -1.372173E+05  3.975469E+04  1.842461E+04  1.761104E+04
       392   9 -1.952445E+05 -9.285819E+05 -1.999234E+05  9.469246E+04  6.533416E+03  3.665295E+04
       392  10  9.015161E+04  9.573373E+04  7.412463E+04  8.628275E+04  4.351254E-10  2.098138E-09
       392  11  1.294352E+05  2.508949E+05  1.040960E+05  3.125328E+04  3.539894E-11 -9.611939E-10
       392  12  1.358626E+05  3.989186E+05  1.268988E+05  7.068672E+04 -8.559347E-10 -1.040772E-09
       392  13  1.023808E+03 -2.649926E+05 -1.087399E+04  8.278473E+04 -4.751998E-11  2.109428E-09
       392  14  2.995597E+03 -2.605433E+05 -1.655228E+04  3.550554E+04  5.507523E-10 -3.034277E-09
       392  15 -2.967502E+04 -2.650330E+05 -3.649737E+04  8.269579E+04 -1.106250E-09  1.067436E-11
       392  16 -8.811324E+04 -6.255991E+05 -9.588157E+04  7.928883E+04  3.249965E-09  2.269643E-09
       392  17 -1.234626E+05 -7.717410E+05 -1.372186E+05  3.975442E+04 -1.651366E-09 -9.341056E-09
       392  18 -1.952449E+05 -9.285833E+05 -1.999260E+05  9.469227E+04 -1.796937E-09  5.051316E-10
       392  19  9.015186E+04  9.573402E+04  7.412538E+04  8.628290E+04 -1.323837E+04 -1.496649E+04
       392  20  1.294356E+05  2.508951E+05  1.040970E+05  3.125349E+04 -1.843326E+04 -1.364440E+04
       392  21  1.358627E+05  3.989188E+05  1.268991E+05  7.068679E+04 -6.603803E+03 -1.227389E+04
       392  22  1.024009E+03 -2.649925E+05 -1.087358E+04  8.278481E+04 -1.325888E+04 -6.738759E+03
       392  23  2.996027E+03 -2.605430E+05 -1.655118E+04  3.550577E+04 -1.842892E+04 -1.562853E+04
       392  24 -2.967482E+04 -2.650323E+05 -3.649616E+04  8.269592E+04 -6.568383E+03 -2.446993E+04
       392  25 -8.811305E+04 -6.255991E+05 -9.588123E+04  7.928882E+04 -1.327949E+04  1.484220E+03
       392  26 -1.234622E+05 -7.717405E+05 -1.372173E+05  3.975469E+04 -1.842461E+04 -1.761104E+04
       392  27 -1.952445E+05 -9.285819E+05 -1.999234E+05  9.469246E+04 -6.533416E+03 -3.665295E+04
       393   1  4.066905E+05 -7.875999E+04 -7.148865E+04 -7.377954E+03  1.158203E+04  4.530650E+03
       393   2  4.333231E+05 -9.647611E+04 -7.659841E+04 -3.925388E+03  1.045978E+04  1.377767E+04
       393   3  4.668544E+05 -8.780033E+04 -7.435285E+04 -1.900118E+04  9.347165E+03  1.330030E+04
       393   4  8.171762E+05  2.341841E+04  2.929506E+04 -1.551884E+04  2.006138E+04  4.539024E+03
       393   5  8.132309E+05 -2.644036E+03  1.293448E+04 -6.243477E+03  1.309820E+04  1.377929E+04
       393   6  8.171914E+05 -1.310191E+03  7.977967E+03 -1.549551E+04  6.144701E+03  1.329777E+04
       393   7  1.227815E+06  1.255846E+05  1.300667E+05 -2.366515E+04  2.854632E+04  4.547172E+03
       393   8  1.193271E+06  9.117776E+04  1.024574E+05 -8.563018E+03  1.573823E+04  1.378089E+04
       393   9  1.167641E+06  8.517126E+04  9.030041E+04 -1.198786E+04  2.940441E+03  1.329521E+04
       393  10  4.066903E+05 -7.876004E+04 -7.148894E+04 -7.377996E+03 -5.960793E-10 -1.513172E-11
       393  11  4.333229E+05 -9.647634E+04 -7.659897E+04 -3.925504E+03  5.075037E-10 -4.528801E-11
       393  12  4.668543E+05 -8.780054E+04 -7.435335E+04 -1.900128E+04 -1.563827E-10 -4.633622E-11
       393  13  8.171757E+05  2.341828E+04  2.929427E+04 -1.551891E+04  2.528303E-11 -1.738271E-11
       393  14  8.132306E+05 -2.644286E+03  1.293380E+04 -6.243622E+03  4.652249E-10  4.990440E-11
       393  15  8.171914E+05 -1.310391E+03  7.977563E+03 -1.549557E+04  3.332431E-11 -3.441658E-11
       393  16  1.227815E+06  1.255844E+05  1.300651E+05 -2.366526E+04  5.763735E-10 -9.783647E-12
       393  17  1.193271E+06  9.117749E+04  1.024566E+05 -8.563193E+03 -2.800892E-10 -1.304612E-10
       393  18  1.167641E+06  8.517107E+04  9.030006E+04 -1.198789E+04 -3.022808E-11 -1.402002E-10
       393  19  4.066905E+05 -7.875999E+04 -7.148865E+04 -7.377954E+03 -1.158203E+04 -4.530650E+03
       393  20  4.333231E+05 -9.647611E+04 -7.659841E+04 -3.925388E+03 -1.045978E+04 -1.377767E+04
       393  21  4.668544E+05 -8.780033E+04 -7.435285E+04 -1.900118E+04 -9.347165E+03 -1.330030E+04
       393  22  8.171762E+05  2.341841E+04  2.929506E+04 -1.551884E+04 -2.006138E+04 -4.539024E+03
       393  23  8.132309E+05 -2.644036E+03  1.293448E+04 -6.243477E+03 -1.309820E+04 -1.377929E+04
       393  24  8.171914E+05 -1.310191E+03  7.977967E+03 -1.549551E+04 -6.144701E+03 -1.329777E+04
       393  25  1.227815E+06  1.255846E+05  1.300667E+05 -2.366515E+04 -2.854632E+04 -4.547172E+03
       393  26  1.193271E+06  9.117776E+04  1.024574E+05 -8.563018E+03 -1.573823E+04 -1.378089E+04
       393  27  1.167641E+06  8.517126E+04  9.030041E+04 -1.198786E+04 -2.940441E+03 -1.329521E+04
       394   1  4.984774E+05 -7.626118E+04 -6.836892E+04 -1.490321E+04  5.155054E+03  1.124824E+04
       394   2  5.271340E+05 -7.140815E+04 -6.446762E+04 -6.240751E+03  3.791279E+03  1.058586E+04
       394   3  5.566682E+05 -6.409997E+04 -5.904688E+04 -1.581883E+04  2.427111E+03  9.348035E+03
       394   4  8.156464E+05  2.094902E+03  6.473469E+03 -1.543903E+04  4.932275E+03  1.124772E+04
       394   5  8.151808E+05 -2.762296E+02  3.356687E+03 -6.318501E+03  3.222245E+03  1.058530E+04
       394   6  8.156517E+05 -1.327367E+02  1.999037E+03 -1.543796E+04  1.511883E+03  9.347539E+03
       394   7  1.132908E+06  8.044379E+04  8.130891E+04 -1.597514E+04  4.709383E+03  1.124721E+04
       394   8  1.103304E+06  7.084978E+04  7.117528E+04 -6.396295E+03  2.652948E+03  1.058473E+04
       394   9  1.074697E+06  6.382971E+04  6.304033E+04 -1.505694E+04  5.962764E+02  9.347041E+03
       394  10  4.984773E+05 -7.626132E+04 -6.836920E+04 -1.490325E+04 -3.652784E-10  1.620015E-11
       394  11  5.271340E+05 -7.140828E+04 -6.446785E+04 -6.240784E+03  1.858309E-10  6.945772E-11
       394  12  5.566682E+05 -6.410006E+04 -5.904705E+04 -1.581885E+04 -1.328594E-10  2.096245E-10
       394  13  8.156463E+05  2.094759E+03  6.473186E+03 -1.543908E+04 -2.681349E-11 -1.975467E-11
       394  14  8.151808E+05 -2.763527E+02  3.356457E+03 -6.318529E+03  1.954599E-10 -6.118515E-11
       394  15  8.156516E+05 -1.328312E+02  1.998869E+03 -1.543797E+04  3.234355E-11  1.698224E-10
       394  16  1.132908E+06  8.044365E+04  8.130863E+04 -1.597519E+04  3.400929E-10 -7.660985E-11
       394  17  1.103304E+06  7.084966E+04  7.117506E+04 -6.396317E+03 -1.166751E-10  2.337131E-11
       394  18  1.074697E+06  6.382961E+04  6.304017E+04 -1.505694E+04 -5.381755E-12 -2.569903E-11
       394  19  4.984774E+05 -7.626118E+04 -6.836892E+04 -1.490321E+04 -5.155054E+03 -1.124824E+04
       394  20  5.271340E+05 -7.140815E+04 -6.446762E+04 -6.240751E+03 -3.791279E+03 -1.058586E+04
       394  21  5.566682E+05 -6.409997E+04 -5.904688E+04 -1.581883E+04 -2.427111E+03 -9.348035E+03
       394  22  8.156464E+05  2.094902E+03  6.473469E+03 -1.543903E+04 -4.932275E+03 -1.124772E+04
       394  23  8.151808E+05 -2.762296E+02  3.356687E+03 -6.318501E+03 -3.222245E+03 -1.058530E+04
       394  24  8.156517E+05 -1.327367E+02  1.999037E+03 -1.543796E+04 -1.511883E+03 -9.347539E+03
       394  25  1.132908E+06  8.044379E+04  8.130891E+04 -1.597514E+04 -4.709383E+03 -1.124721E+04
       394  26  1.103304E+06  7.084978E+04  7.117528E+04 -6.396295E+03 -2.652948E+03 -1.058473E+04
       394  27  1.074697E+06  6.382971E+04  6.304033E+04 -1.505694E+04 -5.962764E+02 -9.347041E+03
       395   1  5.887254E+05 -5.580913E+04 -5.174902E+04 -1.535143E+04  1.928486E+03  8.526336E+03
       395   2  6.171010E+05 -4.900397E+04 -4.578636E+04 -6.441382E+03  1.494795E+03  7.294464E+03
       395   3  6.456264E+05 -4.197202E+04 -3.947714E+04 -1.538364E+04  1.060636E+03  6.035675E+03
       395   4  8.154813E+05  1.700969E+02  1.565804E+03 -1.535206E+04  1.197249E+03  8.525990E+03
       395   5  8.154066E+05 -3.645415E+01  9.016533E+02 -6.426065E+03  7.472405E+02  7.294237E+03
       395   6  8.154841E+05 -1.327613E+01  5.954416E+02 -1.535203E+04  2.967834E+02  6.035575E+03
       395   7  1.042285E+06  5.614566E+04  5.487710E+04 -1.535269E+04  4.657462E+02  8.525644E+03
       395   8  1.013748E+06  4.892826E+04  4.758696E+04 -6.410744E+03 -5.517100E-01  7.294010E+03
       395   9  9.853684E+05  4.194341E+04  4.066603E+04 -1.532041E+04 -4.672773E+02  6.035474E+03
       395  10  5.887254E+05 -5.580921E+04 -5.174916E+04 -1.535144E+04 -1.684325E-10  1.993498E-10
       395  11  6.171010E+05 -4.900403E+04 -4.578646E+04 -6.441391E+03  1.408428E-10  2.100509E-10
       395  12  6.456264E+05 -4.197206E+04 -3.947721E+04 -1.538365E+04  4.809524E-11 -1.776388E-10
       395  13  8.154813E+05  1.700184E+02  1.565665E+03 -1.535206E+04 -1.605887E-12  9.772613E-11
       395  14  8.154066E+05 -3.651146E+01  9.015522E+02 -6.426070E+03  3.702841E-11 -3.390195E-11
       395  15  8.154841E+05 -1.331529E+01  5.953730E+02 -1.535203E+04 -5.365191E-11 -1.346954E-10
       395  16  1.042285E+06  5.614558E+04  5.487696E+04 -1.535269E+04  9.353015E-11 -2.104874E-11
       395  17  1.013748E+06  4.892820E+04  4.758686E+04 -6.410744E+03 -1.172137E-10 -6.716967E-11
       395  18  9.853684E+05  4.194337E+04  4.066596E+04 -1.532041E+04 -9.981519E-11  1.855914E-12
       395  19  5.887254E+05 -5.580913E+04 -5.174902E+04 -1.535143E+04 -1.928486E+03 -8.526336E+03
       395  20  6.171010E+05 -4.900397E+04 -4.578636E+04 -6.441382E+03 -1.494795E+03 -7.294464E+03
       395  21  6.456264E+05 -4.197202E+04 -3.947714E+04 -1.538364E+04 -1.060636E+03 -6.035675E+03
       395  22  8.154813E+05  1.700969E+02  1.565804E+03 -1.535206E+04 -1.197249E+03 -8.525990E+03
       395  23  8.154066E+05 -3.645415E+01  9.016533E+02 -6.426065E+03 -7.472405E+02 -7.294237E+03
       395  24  8.154841E+05 -1.327613E+01  5.954416E+02 -1.535203E+04 -2.967834E+02 -6.035575E+03
       395  25  1.042285E+06  5.614566E+04  5.487710E+04 -1.535269E+04 -4.657462E+02 -8.525644E+03
       395  26  1.013748E+06  4.892826E+04  4.758696E+04 -6.410744E+03  5.517100E-01 -7.294010E+03
       395  27  9.853684E+05  4.194341E+04  4.066603E+04 -1.532041E+04  4.672773E+02 -6.035474E+03
       396   1  6.772441E+05 -3.410117E+04 -3.194332E+04 -1.529164E+04  9.470644E+02  5.300656E+03
       396   2  7.052661E+05 -2.721075E+04 -2.548593E+04 -6.485511E+03  7.217451E+02  4.052708E+03
       396   3  7.333325E+05 -2.028812E+04 -1.887268E+04 -1.528108E+04  4.961588E+02  2.807468E+03
       396   4  8.154624E+05  1.083443E+01  5.121980E+02 -1.529638E+04  1.968927E+02  5.300620E+03
       396   5  8.154417E+05 -6.633543E+00  4.516753E+02 -6.495627E+03 -2.686073E+01  4.052740E+03
       396   6  8.154638E+05  7.773983E+00  5.458418E+02 -1.529638E+04 -2.508710E+02  2.807570E+03
       396   7  9.536982E+05  3.412148E+04  3.296641E+04 -1.530112E+04 -5.534449E+02  5.300585E+03
       396   8  9.256283E+05  2.719661E+04  2.638845E+04 -6.505745E+03 -7.755985E+02  4.052772E+03
       396   9  8.976012E+05  2.030318E+04  1.996390E+04 -1.531168E+04 -9.979989E+02  2.807672E+03
       396  10  6.772440E+05 -3.410120E+04 -3.194338E+04 -1.529165E+04 -1.062674E-10 -1.839365E-10
       396  11  7.052661E+05 -2.721076E+04 -2.548596E+04 -6.485513E+03 -8.325970E-11  3.000485E-10
       396  12  7.333325E+05 -2.028813E+04 -1.887270E+04 -1.528108E+04 -3.640697E-13 -4.294796E-11
       396  13  8.154624E+05  1.080423E+01  5.121451E+02 -1.529638E+04 -7.259042E-11 -2.094751E-10
       396  14  8.154416E+05 -6.651187E+00  4.516444E+02 -6.495627E+03 -1.501817E-10  1.121909E-10
       396  15  8.154638E+05  7.765499E+00  5.458269E+02 -1.529638E+04 -9.300362E-11  1.417930E-10
       396  16  9.536982E+05  3.412145E+04  3.296636E+04 -1.530112E+04 -4.628599E-11  4.321551E-11
       396  17  9.256283E+05  2.719659E+04  2.638842E+04 -6.505743E+03  3.225423E-11 -1.200128E-10
       396  18  8.976012E+05  2.030317E+04  1.996388E+04 -1.531168E+04 -1.521582E-11 -2.394175E-11
       396  19  6.772441E+05 -3.410117E+04 -3.194332E+04 -1.529164E+04 -9.470644E+02 -5.300656E+03
       396  20  7.052661E+05 -2.721075E+04 -2.548593E+04 -6.485511E+03 -7.217451E+02 -4.052708E+03
       396  21  7.333325E+05 -2.028812E+04 -1.887268E+04 -1.528108E+04 -4.961588E+02 -2.807468E+03
       396  22  8.154624E+05  1.083443E+01  5.121980E+02 -1.529638E+04 -1.968927E+02 -5.300620E+03
       396  23  8.154417E+05 -6.633543E+00  4.516753E+02 -6.495627E+03  2.686073E+01 -4.052740E+03
       396  24  8.154638E+05  7.773983E+00  5.458418E+02 -1.529638E+04  2.508710E+02 -2.807570E+03
       396  25  9.536982E+05  3.412148E+04  3.296641E+04 -1.530112E+04  5.534449E+02 -5.300585E+03
       396  26  9.256283E+05  2.719661E+04  2.638845E+04 -6.505745E+03  7.755985E+02 -4.052772E+03
       396  27  8.976012E+05  2.030318E+04  1.996390E+04 -1.531168E+04  9.979989E+02 -2.807672E+03
       397   1  7.646586E+05 -1.252926E+04 -1.122855E+04 -1.524461E+04  3.863526E+02  2.084266E+03
       397   2  7.924869E+05 -5.678264E+03 -4.379855E+03 -6.505128E+03 -1.218776E+02  8.440479E+02
       397   3  8.204004E+05  1.275591E+03  2.823406E+03 -1.525601E+04 -6.301828E+02 -3.938454E+02
       397   4  8.154741E+05  6.332954E-01  6.499769E+02 -1.527168E+04 -3.592376E+02  2.084396E+03
       397   5  8.154319E+05 -1.305508E+01  1.021587E+03 -6.526506E+03 -8.661020E+02  8.441903E+02
       397   6  8.154741E+05  7.592754E+01  1.746858E+03 -1.527166E+04 -1.373019E+03 -3.936876E+02
       397   7  8.662919E+05  1.253035E+04  1.252833E+04 -1.529875E+04 -1.104888E+03  2.084526E+03
       397   8  8.383774E+05  5.652117E+03  6.422995E+03 -6.547885E+03 -1.610354E+03  8.443328E+02
       397   9  8.105478E+05 -1.123737E+03  6.703109E+02 -1.528730E+04 -2.115849E+03 -3.935296E+02
       397  10  7.646586E+05 -1.252927E+04 -1.122856E+04 -1.524461E+04  1.314687E-13  1.279492E-11
       397  11  7.924869E+05 -5.678265E+03 -4.379856E+03 -6.505128E+03 -5.499850E-11 -3.986622E-11
       397  12  8.204004E+05  1.275590E+03  2.823405E+03 -1.525601E+04 -8.142298E-11  2.132396E-11
       397  13  8.154741E+05  6.285936E-01  6.499684E+02 -1.527168E+04 -9.889859E-11 -3.621279E-11
       397  14  8.154319E+05 -1.305604E+01  1.021584E+03 -6.526505E+03 -2.859044E-11  5.495053E-11
       397  15  8.154741E+05  7.592686E+01  1.746854E+03 -1.527166E+04 -1.172045E-10 -7.851588E-11
       397  16  8.662919E+05  1.253034E+04  1.252832E+04 -1.529874E+04 -1.097530E-10 -3.370645E-11
       397  17  8.383774E+05  5.652115E+03  6.422989E+03 -6.547884E+03  5.806522E-11 -1.577100E-10
       397  18  8.105478E+05 -1.123738E+03  6.703022E+02 -1.528730E+04  3.063003E-11 -1.038843E-10
       397  19  7.646586E+05 -1.252926E+04 -1.122855E+04 -1.524461E+04 -3.863526E+02 -2.084266E+03
       397  20  7.924869E+05 -5.678264E+03 -4.379855E+03 -6.505128E+03  1.218776E+02 -8.440479E+02
       397  21  8.204004E+05  1.275591E+03  2.823406E+03 -1.525601E+04  6.301828E+02  3.938454E+02
       397  22  8.154741E+05  6.332954E-01  6.499769E+02 -1.527168E+04  3.592376E+02 -2.084396E+03
       397  23  8.154319E+05 -1.305508E+01  1.021587E+03 -6.526506E+03  8.661020E+02 -8.441903E+02
       397  24  8.154741E+05  7.592754E+01  1.746858E+03 -1.527166E+04  1.373019E+03  3.936876E+02
       397  25  8.662919E+05  1.253035E+04  1.252833E+04 -1.529875E+04  1.104888E+03 -2.084526E+03
       397  26  8.383774E+05  5.652117E+03  6.422995E+03 -6.547885E+03  1.610354E+03 -8.443328E+02
       397  27  8.105478E+05 -1.123737E+03  6.703109E+02 -1.528730E+04  2.115849E+03  3.935296E+02
       398   1  8.517466E+05  8.906044E+03  1.086778E+04 -1.511664E+04 -9.835616E+02 -1.118080E+03
       398   2  8.794134E+05  1.570512E+04  1.898062E+04 -6.519376E+03 -2.940608E+03 -2.356774E+03
       398   3  9.075987E+05  2.357300E+04  2.863243E+04 -1.544619E+04 -4.897569E+03 -3.574534E+03
       398   4  8.155697E+05 -4.232443E+01  2.268815E+03 -1.527924E+04 -1.733980E+03 -1.117928E+03
       398   5  8.153106E+05 -1.212657E+02  3.890916E+03 -6.517069E+03 -3.678277E+03 -2.356667E+03
       398   6  8.155677E+05  8.666499E+02  7.043460E+03 -1.527909E+04 -5.622401E+03 -3.574468E+03
       398   7  7.793941E+05 -8.990787E+03 -6.330235E+03 -1.544182E+04 -2.484355E+03 -1.117777E+03
       398   8  7.512116E+05 -1.594794E+04 -1.119906E+04 -6.514762E+03 -4.415869E+03 -2.356560E+03
       398   9  7.235444E+05 -2.184031E+04 -1.454609E+04 -1.511201E+04 -6.347126E+03 -3.574403E+03
       398  10  8.517466E+05  8.906043E+03  1.086777E+04 -1.511664E+04  6.836389E-11 -3.546410E-11
       398  11  8.794134E+05  1.570511E+04  1.898059E+04 -6.519382E+03 -1.743295E-10 -1.033319E-10
       398  12  9.075987E+05  2.357298E+04  2.863236E+04 -1.544620E+04  1.724092E-10  9.087905E-13
       398  13  8.155697E+05 -4.232657E+01  2.268807E+03 -1.527924E+04 -8.634153E-11 -9.443970E-11
       398  14  8.153106E+05 -1.212753E+02  3.890881E+03 -6.517076E+03 -3.840548E-11  1.736342E-11
       398  15  8.155677E+05  8.666277E+02  7.043377E+03 -1.527910E+04 -1.039371E-10 -1.556172E-10
       398  16  7.793941E+05 -8.990790E+03 -6.330249E+03 -1.544182E+04 -1.493780E-10  6.737829E-12
       398  17  7.512116E+05 -1.594795E+04 -1.119911E+04 -6.514771E+03 -1.137088E-10 -1.484986E-10
       398  18  7.235444E+05 -2.184033E+04 -1.454619E+04 -1.511203E+04 -1.898477E-10  4.158499E-12
       398  19  8.517466E+05  8.906044E+03  1.086778E+04 -1.511664E+04  9.835616E+02  1.118080E+03
       398  20  8.794134E+05  1.570512E+04  1.898062E+04 -6.519376E+03  2.940608E+03  2.356774E+03
       398  21  9.075987E+05  2.357300E+04  2.863243E+04 -1.544619E+04  4.897569E+03  3.574534E+03
       398  22  8.155697E+05 -4.232443E+01  2.268815E+03 -1.527924E+04  1.733980E+03  1.117928E+03
       398  23  8.153106E+05 -1.212657E+02  3.890916E+03 -6.517069E+03  3.678277E+03  2.356667E+03
       398  24  8.155677E+05  8.666499E+02  7.043460E+03 -1.527909E+04  5.622401E+03  3.574468E+03
       398  25  7.793941E+05 -8.990787E+03 -6.330235E+03 -1.544182E+04  2.484355E+03  1.117777E+03
       398  26  7.512116E+05 -1.594794E+04 -1.119906E+04 -6.514762E+03  4.415869E+03  2.356560E+03
       398  27  7.235444E+05 -2.184031E+04 -1.454609E+04 -1.511201E+04  6.347126E+03  3.574403E+03
       399   1  9.398036E+05  2.996551E+04  3.819898E+04 -1.379826E+04 -6.196165E+03 -4.351900E+03
       399   2  9.660301E+05  3.627765E+04  5.108968E+04 -7.249094E+03 -1.426823E+04 -5.569538E+03
       399   3  9.962309E+05  5.421974E+04  7.214075E+04 -1.838888E+04 -2.234052E+04 -6.401547E+03
       399   4  8.163261E+05 -5.331168E+02  9.060355E+03 -1.531583E+04 -7.042814E+03 -4.351849E+03
       399   5  8.143548E+05 -1.168281E+03  1.538471E+04 -6.471337E+03 -1.488154E+04 -5.569631E+03
       399   6  8.163176E+05  9.787660E+03  2.970908E+04 -1.531594E+04 -2.272012E+04 -6.401798E+03
       399   7  6.928627E+05 -3.103282E+04 -2.007932E+04 -1.683309E+04 -7.889296E+03 -4.351794E+03
       399   8  6.627007E+05 -3.861585E+04 -2.032184E+04 -5.693771E+03 -1.549470E+04 -5.569725E+03
       399   9  6.364340E+05 -3.464669E+04 -1.272481E+04 -1.224389E+04 -2.309962E+04 -6.402053E+03
       399  10  9.398036E+05  2.996548E+04  3.819888E+04 -1.379829E+04 -2.383722E-11 -1.582946E-10
       399  11  9.660298E+05  3.627756E+04  5.108924E+04 -7.249158E+03  5.739506E-11  1.210909E-11
       399  12  9.962304E+05  5.421956E+04  7.213974E+04 -1.838900E+04 -2.300152E-10  5.602434E-11
       399  13  8.163261E+05 -5.331504E+02  9.060226E+03 -1.531585E+04 -2.248203E-10  1.600018E-11
       399  14  8.143546E+05 -1.168374E+03  1.538424E+04 -6.471404E+03 -3.324974E-11 -2.075139E-12
       399  15  8.163170E+05  9.787478E+03  2.970804E+04 -1.531606E+04 -4.099030E-11  8.476974E-11
       399  16  6.928626E+05 -3.103286E+04 -2.007948E+04 -1.683312E+04 -1.697558E-10 -4.912196E-11
       399  17  6.627004E+05 -3.861595E+04 -2.032235E+04 -5.693841E+03 -2.261941E-10  9.890690E-12
       399  18  6.364334E+05 -3.464688E+04 -1.272589E+04 -1.224401E+04  2.103085E-10  8.505528E-11
       399  19  9.398036E+05  2.996551E+04  3.819898E+04 -1.379826E+04  6.196165E+03  4.351900E+03
       399  20  9.660301E+05  3.627765E+04  5.108968E+04 -7.249094E+03  1.426823E+04  5.569538E+03
       399  21  9.962309E+05  5.421974E+04  7.214075E+04 -1.838888E+04  2.234052E+04  6.401547E+03
       399  22  8.163261E+05 -5.331168E+02  9.060355E+03 -1.531583E+04  7.042814E+03  4.351849E+03
       399  23  8.143548E+05 -1.168281E+03  1.538471E+04 -6.471337E+03  1.488154E+04  5.569631E+03
       399  24  8.163176E+05  9.787660E+03  2.970908E+04 -1.531594E+04  2.272012E+04  6.401798E+03
       399  25  6.928627E+05 -3.103282E+04 -2.007932E+04 -1.683309E+04  7.889296E+03  4.351794E+03
       399  26  6.627007E+05 -3.861585E+04 -2.032184E+04 -5.693771E+03  1.549470E+04  5.569725E+03
       399  27  6.364340E+05 -3.464669E+04 -1.272481E+04 -1.224389E+04  2.309962E+04  6.402053E+03
       400   1  1.035239E+06  4.643559E+04  8.640824E+04  5.380383E-01 -2.591755E+04 -7.998009E+03
       400   2  1.045862E+06  4.737627E+04  1.161053E+05 -1.815852E+04 -6.179726E+04 -8.711591E+03
       400   3  1.092817E+06  1.748161E+05  2.007706E+05 -5.417554E+04 -9.768067E+04 -2.933588E+03
       400   4  8.233757E+05 -5.854840E+03  3.662084E+04 -1.534394E+04 -2.828671E+04 -7.997790E+03
       400   5  8.055189E+05 -1.196124E+04  5.948260E+04 -6.432450E+03 -6.025725E+04 -8.712635E+03
       400   6  8.233287E+05  1.077775E+05  1.346152E+05 -1.537724E+04 -9.222956E+04 -2.937909E+03
       400   7  6.115544E+05 -5.814758E+04 -1.316949E+04 -3.068316E+04 -3.065507E+04 -7.997455E+03
       400   8  5.652289E+05 -7.130235E+04  2.856032E+03  5.289062E+03 -5.871782E+04 -8.713622E+03
       400   9  5.539092E+05  4.073918E+04  6.845532E+04  2.340422E+04 -8.678081E+04 -2.941552E+03
       400  10  1.035238E+06  4.643535E+04  8.640686E+04  3.711713E-01 -1.491607E-10  5.385322E-11
       400  11  1.045858E+06  4.737516E+04  1.160980E+05 -1.815896E+04 -8.806283E-11  4.121367E-12
       400  12  1.092807E+06  1.748136E+05  2.007527E+05 -5.417577E+04  7.339861E-11 -6.854484E-11
       400  13  8.233748E+05 -5.855123E+03  3.661922E+04 -1.534412E+04 -5.893897E-11  1.082020E-10
       400  14  8.055150E+05 -1.196230E+04  5.947564E+04 -6.432873E+03 -3.562905E-11  7.958860E-11
       400  15  8.233195E+05  1.077752E+05  1.345992E+05 -1.537746E+04  3.400981E-11  4.488126E-11
       400  16  6.115534E+05 -5.814790E+04 -1.317137E+04 -3.068336E+04  2.083303E-10  1.917347E-10
       400  17  5.652252E+05 -7.130336E+04  2.849416E+03  5.288650E+03 -1.701972E-12  3.807597E-10
       400  18  5.539011E+05  4.073715E+04  6.844116E+04  2.340401E+04 -1.646162E-10  1.225615E-10
       400  19  1.035239E+06  4.643559E+04  8.640824E+04  5.380383E-01  2.591755E+04  7.998009E+03
       400  20  1.045862E+06  4.737627E+04  1.161053E+05 -1.815852E+04  6.179726E+04  8.711591E+03
       400  21  1.092817E+06  1.748161E+05  2.007706E+05 -5.417554E+04  9.768067E+04  2.933588E+03
       400  22  8.233757E+05 -5.854840E+03  3.662084E+04 -1.534394E+04  2.828671E+04  7.997790E+03
       400  23  8.055189E+05 -1.196124E+04  5.948260E+04 -6.432450E+03  6.025725E+04  8.712635E+03
       400  24  8.233287E+05  1.077775E+05  1.346152E+05 -1.537724E+04  9.222956E+04  2.937909E+03
       400  25  6.115544E+05 -5.814758E+04 -1.316949E+04 -3.068316E+04  3.065507E+04  7.997455E+03
       400  26  5.652289E+05 -7.130235E+04  2.856032E+03  5.289062E+03  5.871782E+04  8.713622E+03
       400  27  5.539092E+05  4.073918E+04  6.845532E+04  2.340422E+04  8.678081E+04  2.941552E+03
       401   1 -1.632650E+05 -8.825873E+04 -8.430699E+04 -1.375180E+04  7.319780E+02  4.339429E+03
       401   2 -1.322124E+05 -9.089431E+04 -7.988962E+04 -6.331294E+03  3.319707E+03  1.316250E+04
       401   3 -9.859400E+04 -8.237415E+04 -7.434613E+04 -1.885298E+04  5.910278E+03  1.255224E+04
       401   4  2.325349E+05  1.034697E+04  1.294511E+04 -1.739345E+04  8.857638E+03  4.341851E+03
       401   5  2.307652E+05 -1.181967E+03  5.709671E+03 -7.421416E+03  5.785293E+03  1.316233E+04
       401   6  2.325416E+05 -5.759288E+02  3.529360E+03 -1.739082E+04  2.715765E+03  1.255195E+04
       401   7  6.284776E+05  1.089411E+05  1.101859E+05 -2.103744E+04  1.698847E+04  4.344178E+03
       401   8  5.938640E+05  8.852096E+04  9.129989E+04 -8.512182E+03  8.252312E+03  1.316215E+04
       401   9  5.637781E+05  8.121449E+04  8.139736E+04 -1.592787E+04 -4.804411E+02  1.255165E+04
       401  10 -1.632650E+05 -8.825875E+04 -8.430703E+04 -1.375181E+04 -1.290426E-10 -3.242465E-11
       401  11 -1.322124E+05 -9.089450E+04 -7.988996E+04 -6.331330E+03  4.023845E-11 -1.231844E-10
       401  12 -9.859408E+04 -8.237433E+04 -7.434650E+04 -1.885304E+04 -1.169150E-10 -8.596591E-11
       401  13  2.325348E+05  1.034692E+04  1.294493E+04 -1.739348E+04  1.054721E-10 -1.482157E-10
       401  14  2.307652E+05 -1.182162E+03  5.709283E+03 -7.421477E+03  1.591913E-10  6.515943E-12
       401  15  2.325415E+05 -5.761000E+02  3.529050E+03 -1.739085E+04 -2.386652E-11 -3.852026E-11
       401  16  6.284773E+05  1.089410E+05  1.101854E+05 -2.103750E+04  5.930071E-11  4.580849E-11
       401  17  5.938639E+05  8.852076E+04  9.129944E+04 -8.512270E+03 -1.850901E-10 -1.977885E-10
       401  18  5.637780E+05  8.121432E+04  8.139707E+04 -1.592786E+04  1.737949E-10  5.991916E-12
       401  19 -1.632650E+05 -8.825873E+04 -8.430699E+04 -1.375180E+04 -7.319780E+02 -4.339429E+03
       401  20 -1.322124E+05 -9.089431E+04 -7.988962E+04 -6.331294E+03 -3.319707E+03 -1.316250E+04
       401  21 -9.859400E+04 -8.237415E+04 -7.434613E+04 -1.885298E+04 -5.910278E+03 -1.255224E+04
       401  22  2.325349E+05  1.034697E+04  1.294511E+04 -1.739345E+04 -8.857638E+03 -4.341851E+03
       401  23  2.307652E+05 -1.181967E+03  5.709671E+03 -7.421416E+03 -5.785293E+03 -1.316233E+04
       401  24  2.325416E+05 -5.759288E+02  3.529360E+03 -1.739082E+04 -2.715765E+03 -1.255195E+04
       401  25  6.284776E+05  1.089411E+05  1.101859E+05 -2.103744E+04 -1.698847E+04 -4.344178E+03
       401  26  5.938640E+05  8.852096E+04  9.129989E+04 -8.512182E+03 -8.252312E+03 -1.316215E+04
       401  27  5.637781E+05  8.121449E+04  8.139736E+04 -1.592787E+04  4.804411E+02 -1.255165E+04
       402   1 -6.315857E+04 -7.199998E+04 -6.679101E+04 -1.709836E+04  2.491759E+03  1.047486E+04
       402   2 -3.133638E+04 -6.510612E+04 -6.047288E+04 -7.258225E+03  2.073552E+03  9.668049E+03
       402   3  8.526797E+02 -5.713997E+04 -5.360503E+04 -1.749709E+04  1.654587E+03  8.294545E+03
       402   4  2.318535E+05  9.288602E+02  2.864169E+03 -1.742179E+04  2.178369E+03  1.047457E+04
       402   5  2.316434E+05 -1.229740E+02  1.488721E+03 -7.382651E+03  1.419850E+03  9.667944E+03
       402   6  2.318576E+05 -4.376025E+01  8.989889E+02 -1.742198E+04  6.605875E+02  8.294739E+03
       402   7  5.269456E+05  7.385147E+04  7.251334E+04 -1.774536E+04  1.864831E+03  1.047427E+04
       402   8  4.946868E+05  6.485523E+04  6.344556E+04 -7.507126E+03  7.658717E+02  9.667840E+03
       402   9  4.629116E+05  5.704864E+04  5.539933E+04 -1.734683E+04 -3.337793E+02  8.294932E+03
       402  10 -6.315861E+04 -7.200010E+04 -6.679123E+04 -1.709838E+04  7.266631E-11 -1.601068E-10
       402  11 -3.133641E+04 -6.510622E+04 -6.047307E+04 -7.258241E+03 -2.719322E-10 -1.737256E-10
       402  12  8.526583E+02 -5.714005E+04 -5.360516E+04 -1.749710E+04 -5.719638E-11  1.129564E-10
       402  13  2.318535E+05  9.287411E+02  2.863954E+03 -1.742181E+04 -3.173797E-10 -1.970077E-11
       402  14  2.316434E+05 -1.230750E+02  1.488541E+03 -7.382663E+03 -2.485156E-10 -3.271443E-10
       402  15  2.318576E+05 -4.383426E+01  8.988587E+02 -1.742198E+04 -1.710935E-10  7.840886E-12
       402  16  5.269456E+05  7.385135E+04  7.251312E+04 -1.774538E+04 -1.421519E-10 -1.603643E-10
       402  17  4.946867E+05  6.485513E+04  6.344538E+04 -7.507132E+03 -9.216341E-11 -2.614360E-10
       402  18  4.629116E+05  5.704856E+04  5.539920E+04 -1.734683E+04  1.229432E-11 -8.255150E-11
       402  19 -6.315857E+04 -7.199998E+04 -6.679101E+04 -1.709836E+04 -2.491759E+03 -1.047486E+04
       402  20 -3.133638E+04 -6.510612E+04 -6.047288E+04 -7.258225E+03 -2.073552E+03 -9.668049E+03
       402  21  8.526797E+02 -5.713997E+04 -5.360503E+04 -1.749709E+04 -1.654587E+03 -8.294545E+03
       402  22  2.318535E+05  9.288602E+02  2.864169E+03 -1.742179E+04 -2.178369E+03 -1.047457E+04
       402  23  2.316434E+05 -1.229740E+02  1.488721E+03 -7.382651E+03 -1.419850E+03 -9.667944E+03
       402  24  2.318576E+05 -4.376025E+01  8.989889E+02 -1.742198E+04 -6.605875E+02 -8.294739E+03
       402  25  5.269456E+05  7.385147E+04  7.251334E+04 -1.774536E+04 -1.864831E+03 -1.047427E+04
       402  26  4.946868E+05  6.485523E+04  6.344556E+04 -7.507126E+03 -7.658717E+02 -9.667840E+03
       402  27  4.629116E+05  5.704864E+04  5.539933E+04 -1.734683E+04  3.337793E+02 -8.294932E+03
       403   1  3.658791E+04 -4.812447E+04 -4.519191E+04 -1.732065E+04  1.336843E+03  7.392631E+03
       403   2  6.840546E+04 -4.037065E+04 -3.804989E+04 -7.340654E+03  1.140180E+03  6.011427E+03
       403   3  1.002749E+05 -3.249621E+04 -3.075082E+04 -1.735317E+04  9.430656E+02  4.597839E+03
       403   4  2.317794E+05  8.901299E+01  7.111139E+02 -1.740271E+04  5.178515E+02  7.392856E+03
       403   5  2.317534E+05 -9.815327E+00  4.321342E+02 -7.406637E+03  3.016783E+02  6.011774E+03
       403   6  2.317818E+05  1.541674E+01  3.237577E+02 -1.740275E+04  8.506436E+01  4.598316E+03
       403   7  4.270059E+05  4.829978E+04  4.661153E+04 -1.748480E+04 -3.013960E+02  7.393081E+03
       403   8  3.951259E+05  4.034911E+04  3.891232E+04 -7.472635E+03 -5.370424E+02  6.012121E+03
       403   9  3.633045E+05  3.252580E+04  3.139715E+04 -1.745234E+04 -7.731176E+02  4.598792E+03
       403  10  3.658789E+04 -4.812453E+04 -4.519202E+04 -1.732066E+04  3.556431E-10  2.482898E-11
       403  11  6.840545E+04 -4.037069E+04 -3.804996E+04 -7.340659E+03 -2.760125E-10  1.977434E-10
       403  12  1.002749E+05 -3.249623E+04 -3.075087E+04 -1.735318E+04  7.996901E-11 -4.411605E-10
       403  13  2.317793E+05  8.895422E+01  7.110107E+02 -1.740272E+04  6.342500E-12  3.805518E-11
       403  14  2.317534E+05 -9.854165E+00  4.320661E+02 -7.406639E+03 -5.424480E-10  3.564504E-10
       403  15  2.317818E+05  1.539403E+01  3.237180E+02 -1.740275E+04 -2.271026E-10  3.788600E-10
       403  16  4.270059E+05  4.829972E+04  4.661142E+04 -1.748480E+04 -5.980544E-10 -7.120513E-11
       403  17  3.951259E+05  4.034908E+04  3.891226E+04 -7.472632E+03  3.606242E-11 -3.533504E-10
       403  18  3.633045E+05  3.252578E+04  3.139711E+04 -1.745233E+04  1.741358E-12 -1.556556E-10
       403  19  3.658791E+04 -4.812447E+04 -4.519191E+04 -1.732065E+04 -1.336843E+03 -7.392631E+03
       403  20  6.840546E+04 -4.037065E+04 -3.804989E+04 -7.340654E+03 -1.140180E+03 -6.011427E+03
       403  21  1.002749E+05 -3.249621E+04 -3.075082E+04 -1.735317E+04 -9.430656E+02 -4.597839E+03
       403  22  2.317794E+05  8.901299E+01  7.111139E+02 -1.740271E+04 -5.178515E+02 -7.392856E+03
       403  23  2.317534E+05 -9.815327E+00  4.321342E+02 -7.406637E+03 -3.016783E+02 -6.011774E+03
       403  24  2.317818E+05  1.541674E+01  3.237577E+02 -1.740275E+04 -8.506436E+01 -4.598316E+03
       403  25  4.270059E+05  4.829978E+04  4.661153E+04 -1.748480E+04  3.013960E+02 -7.393081E+03
       403  26  3.951259E+05  4.034911E+04  3.891232E+04 -7.472635E+03  5.370424E+02 -6.012121E+03
       403  27  3.633045E+05  3.252580E+04  3.139715E+04 -1.745234E+04  7.731176E+02 -4.598792E+03
       404   1  1.359378E+05 -2.363390E+04 -2.217548E+04 -1.734193E+04  8.746484E+02  3.769762E+03
       404   2  1.676967E+05 -1.582541E+04 -1.475598E+04 -7.384176E+03  7.072251E+02  2.357919E+03
       404   3  1.994583E+05 -7.974509E+03 -7.223686E+03 -1.736533E+04  5.396278E+02  9.449056E+02
       404   4  2.317724E+05  2.542651E+01  3.055805E+02 -1.739087E+04  2.767635E+01  3.770286E+03
       404   5  2.317716E+05  5.606746E+00  3.380013E+02 -7.421476E+03 -1.404794E+02  2.358487E+03
       404   6  2.317733E+05  2.850096E+01  4.838925E+02 -1.739087E+04 -3.088007E+02  9.455213E+02
       404   7  3.276154E+05  2.368410E+04  2.278601E+04 -1.743981E+04 -8.194256E+02  3.770809E+03
       404   8  2.958504E+05  1.583633E+04  1.543170E+04 -7.458780E+03 -9.882709E+02  2.359055E+03
       404   9  2.640893E+05  8.031436E+03  8.191400E+03 -1.741641E+04 -1.157273E+03  9.461371E+02
       404  10  1.359378E+05 -2.363392E+04 -2.217551E+04 -1.734194E+04  4.816560E-10 -1.010765E-10
       404  11  1.676967E+05 -1.582541E+04 -1.475599E+04 -7.384177E+03 -6.269701E-10  1.355256E-10
       404  12  1.994583E+05 -7.974510E+03 -7.223688E+03 -1.736533E+04  1.846364E-10 -5.636669E-11
       404  13  2.317724E+05  2.541124E+01  3.055538E+02 -1.739087E+04  3.532766E-11 -5.603563E-10
       404  14  2.317716E+05  5.600767E+00  3.379908E+02 -7.421476E+03 -1.975496E-10  1.926914E-10
       404  15  2.317733E+05  2.849997E+01  4.838906E+02 -1.739087E+04 -4.603891E-11 -2.744263E-10
       404  16  3.276154E+05  2.368409E+04  2.278598E+04 -1.743981E+04 -3.595785E-10  7.581347E-11
       404  17  2.958504E+05  1.583632E+04  1.543169E+04 -7.458778E+03  1.316940E-10 -1.729188E-10
       404  18  2.640893E+05  8.031435E+03  8.191396E+03 -1.741641E+04 -1.812984E-10 -5.108878E-10
       404  19  1.359378E+05 -2.363390E+04 -2.217548E+04 -1.734193E+04 -8.746484E+02 -3.769762E+03
       404  20  1.676967E+05 -1.582541E+04 -1.475598E+04 -7.384176E+03 -7.072251E+02 -2.357919E+03
       404  21  1.994583E+05 -7.974509E+03 -7.223686E+03 -1.736533E+04 -5.396278E+02 -9.449056E+02
       404  22  2.317724E+05  2.542651E+01  3.055805E+02 -1.739087E+04 -2.767635E+01 -3.770286E+03
       404  23  2.317716E+05  5.606746E+00  3.380013E+02 -7.421476E+03  1.404794E+02 -2.358487E+03
       404  24  2.317733E+05  2.850096E+01  4.838925E+02 -1.739087E+04  3.088007E+02 -9.455213E+02
       404  25  3.276154E+05  2.368410E+04  2.278601E+04 -1.743981E+04  8.194256E+02 -3.770809E+03
       404  26  2.958504E+05  1.583633E+04  1.543170E+04 -7.458780E+03  9.882709E+02 -2.359055E+03
       404  27  2.640893E+05  8.031436E+03  8.191400E+03 -1.741641E+04  1.157273E+03 -9.461371E+02
       405   1  2.350939E+05  8.568076E+02  1.481150E+03 -1.736983E+04  4.402299E+02  1.221744E+02
       405   2  2.668132E+05  8.655965E+03  9.264285E+03 -7.422253E+03 -6.063211E+01 -1.290241E+03
       405   3  2.985967E+05  1.657933E+04  1.739706E+04 -1.740689E+04 -5.614348E+02 -2.701271E+03
       405   4  2.317870E+05  2.074952E+01  6.067814E+02 -1.738944E+04 -4.080928E+02  1.227969E+02
       405   5  2.317553E+05 -5.228072E+00  1.006296E+03 -7.423273E+03 -9.081225E+02 -1.289646E+03
       405   6  2.317864E+05  9.281610E+01  1.754832E+03 -1.738939E+04 -1.408068E+03 -2.700700E+03
       405   7  2.284800E+05 -8.153091E+02 -2.675852E+02 -1.740905E+04 -1.256411E+03  1.234195E+02
       405   8  1.966986E+05 -8.666509E+03 -7.251774E+03 -7.424293E+03 -1.755565E+03 -1.289051E+03
       405   9  1.649802E+05 -1.639401E+04 -1.388770E+04 -1.737189E+04 -2.254610E+03 -2.700128E+03
       405  10  2.350939E+05  8.568076E+02  1.481150E+03 -1.736983E+04  3.894830E-10  3.748060E-10
       405  11  2.668132E+05  8.655963E+03  9.264282E+03 -7.422253E+03 -3.665896E-10  1.031013E-09
       405  12  2.985967E+05  1.657932E+04  1.739705E+04 -1.740689E+04  7.369417E-10 -5.565730E-10
       405  13  2.317870E+05  2.074946E+01  6.067811E+02 -1.738944E+04  1.265367E-11  7.841780E-11
       405  14  2.317553E+05 -5.230080E+00  1.006292E+03 -7.423274E+03 -7.763491E-10 -3.848302E-10
       405  15  2.317864E+05  9.280774E+01  1.754815E+03 -1.738939E+04 -2.813649E-10  4.886825E-11
       405  16  2.284800E+05 -8.153095E+02 -2.675882E+02 -1.740905E+04 -4.143126E-10  1.054901E-10
       405  17  1.966986E+05 -8.666511E+03 -7.251783E+03 -7.424295E+03  1.240781E-10 -2.024637E-10
       405  18  1.649802E+05 -1.639402E+04 -1.388772E+04 -1.737189E+04 -9.334495E-10  1.337634E-12
       405  19  2.350939E+05  8.568076E+02  1.481150E+03 -1.736983E+04 -4.402299E+02 -1.221744E+02
       405  20  2.668132E+05  8.655965E+03  9.264285E+03 -7.422253E+03  6.063211E+01  1.290241E+03
       405  21  2.985967E+05  1.657933E+04  1.739706E+04 -1.740689E+04  5.614348E+02  2.701271E+03
       405  22  2.317870E+05  2.074952E+01  6.067814E+02 -1.738944E+04  4.080928E+02 -1.227969E+02
       405  23  2.317553E+05 -5.228072E+00  1.006296E+03 -7.423273E+03  9.081225E+02  1.289646E+03
       405  24  2.317864E+05  9.281610E+01  1.754832E+03 -1.738939E+04  1.408068E+03  2.700700E+03
       405  25  2.284800E+05 -8.153091E+02 -2.675852E+02 -1.740905E+04  1.256411E+03 -1.234195E+02
       405  26  1.966986E+05 -8.666509E+03 -7.251774E+03 -7.424293E+03  1.755565E+03  1.289051E+03
       405  27  1.649802E+05 -1.639401E+04 -1.388770E+04 -1.737189E+04  2.254610E+03  2.700128E+03
       406   1  3.343507E+05  2.530551E+04  2.651892E+04 -1.727923E+04 -9.150953E+02 -3.528201E+03
       406   2  3.659069E+05  3.305338E+04  3.556835E+04 -7.465869E+03 -2.902703E+03 -4.939524E+03
       406   3  3.979844E+05  4.190651E+04  4.618404E+04 -1.762375E+04 -4.890051E+03 -6.320693E+03
       406   4  2.318858E+05 -2.657628E+01  2.289425E+03 -1.739830E+04 -1.771853E+03 -3.527663E+03
       406   5  2.316260E+05 -1.194768E+02  3.939739E+03 -7.412283E+03 -3.740994E+03 -4.939095E+03
       406   6  2.318835E+05  8.899298E+02  7.143829E+03 -1.739777E+04 -5.709774E+03 -6.320367E+03
       406   7  1.294306E+05 -2.535941E+04 -2.194080E+04 -1.751735E+04 -2.628470E+03 -3.527125E+03
       406   8  9.736169E+04 -3.329362E+04 -2.769011E+04 -7.358707E+03 -4.579104E+03 -4.938666E+03
       406   9  6.580797E+04 -4.012862E+04 -3.189827E+04 -1.717184E+04 -6.529279E+03 -6.320043E+03
       406  10  3.343507E+05  2.530550E+04  2.651890E+04 -1.727923E+04  5.470202E-10 -7.639565E-10
       406  11  3.659069E+05  3.305335E+04  3.556829E+04 -7.465881E+03 -6.023955E-10  2.789476E-11
       406  12  3.979844E+05  4.190646E+04  4.618392E+04 -1.762378E+04 -3.061499E-10  4.416369E-10
       406  13  2.318858E+05 -2.659049E+01  2.289396E+03 -1.739831E+04 -1.806658E-10  4.169209E-11
       406  14  2.316260E+05 -1.195068E+02  3.939666E+03 -7.412298E+03 -5.380589E-10 -3.171014E-10
       406  15  2.318835E+05  8.898781E+02  7.143693E+03 -1.739780E+04 -1.175836E-10 -1.429024E-10
       406  16  1.294306E+05 -2.535943E+04 -2.194083E+04 -1.751736E+04 -4.719963E-10  2.483617E-11
       406  17  9.736166E+04 -3.329365E+04 -2.769020E+04 -7.358725E+03  2.178131E-10  7.357423E-10
       406  18  6.580791E+04 -4.012867E+04 -3.189842E+04 -1.717188E+04  1.049171E-10  2.163407E-10
       406  19  3.343507E+05  2.530551E+04  2.651892E+04 -1.727923E+04  9.150953E+02  3.528201E+03
       406  20  3.659069E+05  3.305338E+04  3.556835E+04 -7.465869E+03  2.902703E+03  4.939524E+03
       406  21  3.979844E+05  4.190651E+04  4.618404E+04 -1.762375E+04  4.890051E+03  6.320693E+03
       406  22  2.318858E+05 -2.657628E+01  2.289425E+03 -1.739830E+04  1.771853E+03  3.527663E+03
       406  23  2.316260E+05 -1.194768E+02  3.939739E+03 -7.412283E+03  3.740994E+03  4.939095E+03
       406  24  2.318835E+05  8.899298E+02  7.143829E+03 -1.739777E+04  5.709774E+03  6.320367E+03
       406  25  1.294306E+05 -2.535941E+04 -2.194080E+04 -1.751735E+04  2.628470E+03  3.527125E+03
       406  26  9.736169E+04 -3.329362E+04 -2.769011E+04 -7.358707E+03  4.579104E+03  4.938666E+03
       406  27  6.580797E+04 -4.012862E+04 -3.189827E+04 -1.717184E+04  6.529279E+03  6.320043E+03
       407   1  4.345349E+05  4.935373E+04  5.682307E+04 -1.593808E+04 -6.168423E+03 -7.215650E+03
       407   2  4.644621E+05  5.657059E+04  7.068428E+04 -8.240170E+03 -1.443980E+04 -8.587800E+03
       407   3  4.984522E+05  7.563001E+04  9.289347E+04 -2.058564E+04 -2.271082E+04 -9.435076E+03
       407   4  2.326562E+05 -5.309816E+02  9.192954E+03 -1.741520E+04 -7.150338E+03 -7.215318E+03
       407   5  2.306490E+05 -1.188859E+03  1.561120E+04 -7.391742E+03 -1.510394E+04 -8.587799E+03
       407   6  2.326510E+05  9.943456E+03  3.015938E+04 -1.741205E+04 -2.305677E+04 -9.435377E+03
       407   7  3.081497E+04 -5.041860E+04 -3.843997E+04 -1.889183E+04 -8.131936E+03 -7.214981E+03
       407   8 -3.113799E+03 -5.895221E+04 -3.946564E+04 -6.543629E+03 -1.576783E+04 -8.587800E+03
       407   9 -3.308525E+04 -5.574812E+04 -3.257959E+04 -1.423982E+04 -2.340257E+04 -9.435681E+03
       407  10  4.345349E+05  4.935367E+04  5.682290E+04 -1.593811E+04  4.632083E-10  3.224714E-10
       407  11  4.644619E+05  5.657046E+04  7.068375E+04 -8.240270E+03 -4.284025E-10 -4.561609E-10
       407  12  4.984517E+05  7.562978E+04  9.289234E+04 -2.058582E+04 -3.944097E-11 -2.683356E-10
       407  13  2.326562E+05 -5.310512E+02  9.192760E+03 -1.741524E+04 -2.607091E-10  3.307296E-10
       407  14  2.306488E+05 -1.188999E+03  1.561063E+04 -7.391846E+03 -2.634749E-10  2.920697E-10
       407  15  2.326504E+05  9.943217E+03  3.015822E+04 -1.741223E+04 -8.714999E-11 -1.282973E-10
       407  16  3.081488E+04 -5.041868E+04 -3.844019E+04 -1.889188E+04 -6.902411E-10  2.762423E-10
       407  17 -3.114086E+03 -5.895236E+04 -3.946625E+04 -6.543738E+03  3.237631E-10  3.966630E-11
       407  18 -3.308586E+04 -5.574836E+04 -3.258078E+04 -1.424000E+04  2.702529E-10 -5.873870E-11
       407  19  4.345349E+05  4.935373E+04  5.682307E+04 -1.593808E+04  6.168423E+03  7.215650E+03
       407  20  4.644621E+05  5.657059E+04  7.068428E+04 -8.240170E+03  1.443980E+04  8.587800E+03
       407  21  4.984522E+05  7.563001E+04  9.289347E+04 -2.058564E+04  2.271082E+04  9.435076E+03
       407  22  2.326562E+05 -5.309816E+02  9.192954E+03 -1.741520E+04  7.150338E+03  7.215318E+03
       407  23  2.306490E+05 -1.188859E+03  1.561120E+04 -7.391742E+03  1.510394E+04  8.587799E+03
       407  24  2.326510E+05  9.943456E+03  3.015938E+04 -1.741205E+04  2.305677E+04  9.435377E+03
       407  25  3.081497E+04 -5.041860E+04 -3.843997E+04 -1.889183E+04  8.131936E+03  7.214981E+03
       407  26 -3.113799E+03 -5.895221E+04 -3.946564E+04 -6.543629E+03  1.576783E+04  8.587800E+03
       407  27 -3.308525E+04 -5.574812E+04 -3.257959E+04 -1.423982E+04  2.340257E+04  9.435681E+03
       408   1  5.416769E+05  6.859012E+04  1.081436E+05 -1.866308E+03 -2.568656E+04 -1.142275E+04
       408   2  5.553545E+05  7.027718E+04  1.390458E+05 -1.936542E+04 -6.340327E+04 -1.209020E+04
       408   3  6.061969E+05  2.006705E+05  2.266837E+05 -5.679997E+04 -1.011239E+05 -4.010716E+03
       408   4  2.398174E+05 -5.942608E+03  3.717860E+04 -1.738750E+04 -2.870641E+04 -1.142198E+04
       408   5  2.216751E+05 -1.216092E+04  6.038828E+04 -7.426599E+03 -6.115758E+04 -1.209183E+04
       408   6  2.398016E+05  1.094477E+05  1.366985E+05 -1.739908E+04 -9.361024E+04 -4.015989E+03
       408   7 -6.195788E+04 -8.048092E+04 -3.379247E+04 -3.290110E+04 -3.172480E+04 -1.142107E+04
       408   8 -1.119016E+05 -9.460644E+04 -1.827684E+04  4.505771E+03 -5.891308E+04 -1.209338E+04
       408   9 -1.264681E+05  1.822093E+04  4.670447E+04  2.197854E+04 -8.610101E+04 -4.020313E+03
       408  10  5.416762E+05  6.858980E+04  1.081421E+05 -1.866544E+03 -2.210674E-11  4.055533E-13
       408  11  5.553502E+05  7.027594E+04  1.390380E+05 -1.936603E+04  1.866770E-11 -7.911874E-11
       408  12  6.061859E+05  2.006677E+05  2.266645E+05 -5.680029E+04 -8.646817E-11  4.142064E-11
       408  13  2.398164E+05 -5.942969E+03  3.717681E+04 -1.738776E+04 -2.084274E-10 -3.186196E-10
       408  14  2.216711E+05 -1.216208E+04  6.038098E+04 -7.427194E+03  4.075705E-10 -3.627455E-11
       408  15  2.397922E+05  1.094454E+05  1.366820E+05 -1.739938E+04  5.583662E-11 -2.035700E-10
       408  16 -6.195900E+04 -8.048133E+04 -3.379460E+04 -3.290139E+04 -7.360629E-11 -1.586651E-11
       408  17 -1.119054E+05 -9.460753E+04 -1.828364E+04  4.505197E+03 -1.306793E-10 -6.856314E-12
       408  18 -1.264761E+05  1.821892E+04  4.669050E+04  2.197826E+04  4.143823E-11 -8.117757E-11
       408  19  5.416769E+05  6.859012E+04  1.081436E+05 -1.866308E+03  2.568656E+04  1.142275E+04
       408  20  5.553545E+05  7.027718E+04  1.390458E+05 -1.936542E+04  6.340327E+04  1.209020E+04
       408  21  6.061969E+05  2.006705E+05  2.266837E+05 -5.679997E+04  1.011239E+05  4.010716E+03
       408  22  2.398174E+05 -5.942608E+03  3.717860E+04 -1.738750E+04  2.870641E+04  1.142198E+04
       408  23  2.216751E+05 -1.216092E+04  6.038828E+04 -7.426599E+03  6.115758E+04  1.209183E+04
       408  24  2.398016E+05  1.094477E+05  1.366985E+05 -1.739908E+04  9.361024E+04  4.015989E+03
       408  25 -6.195788E+04 -8.048092E+04 -3.379247E+04 -3.290110E+04  3.172480E+04  1.142107E+04
       408  26 -1.119016E+05 -9.460644E+04 -1.827684E+04  4.505771E+03  5.891308E+04  1.209338E+04
       408  27 -1.264681E+05  1.822093E+04  4.670447E+04  2.197854E+04  8.610101E+04  4.020313E+03
       409   1 -1.079425E+06 -1.108455E+05 -1.364313E+05 -3.912969E+04 -8.896413E+04  3.041344E+02
       409   2 -1.059140E+06  4.924674E+03 -6.328627E+04 -1.223800E+04 -5.788713E+04  9.479915E+02
       409   3 -1.073132E+06 -1.663942E+02 -4.061168E+04  1.273588E+04 -2.681000E+04  8.763219E+02
       409   4 -1.049810E+06 -1.034367E+05 -1.291390E+05 -1.913620E+03 -8.836799E+04  2.989402E+02
       409   5 -1.032680E+06  1.147856E+04 -5.703749E+04 -9.674778E+02 -5.771996E+04  9.469759E+02
       409   6 -1.049755E+06  5.607396E+03 -3.510682E+04 -1.940047E+03 -2.707199E+04  8.768967E+02
       409   7 -1.020190E+06 -9.602268E+04 -1.218460E+05  3.530423E+04 -8.777182E+04  2.938178E+02
       409   8 -1.006220E+06  1.803287E+04 -5.078868E+04  1.030353E+04 -5.755279E+04  9.459664E+02
       409   9 -1.026377E+06  1.138196E+04 -2.960188E+04 -1.661653E+04 -2.733400E+04  8.774838E+02
       409  10 -1.079434E+06 -1.108477E+05 -1.364462E+05 -3.912967E+04  5.539003E-11  1.057725E-10
       409  11 -1.059143E+06  4.923772E+03 -6.329258E+04 -1.223796E+04  6.225773E-10 -3.193659E-10
       409  12 -1.073133E+06 -1.665884E+02 -4.061303E+04  1.273590E+04 -4.252711E-10  2.025601E-10
       409  13 -1.049818E+06 -1.034388E+05 -1.291537E+05 -1.913599E+03 -9.671321E-11  8.117817E-11
       409  14 -1.032684E+06  1.147766E+04 -5.704376E+04 -9.674338E+02  4.139075E-10 -5.436127E-10
       409  15 -1.049756E+06  5.607198E+03 -3.510820E+04 -1.940027E+03 -2.519365E-10  4.194822E-11
       409  16 -1.020198E+06 -9.602476E+04 -1.218605E+05  3.530425E+04 -7.041857E-12  3.672336E-11
       409  17 -1.006224E+06  1.803197E+04 -5.079492E+04  1.030358E+04 -1.976817E-10 -1.746829E-11
       409  18 -1.026377E+06  1.138176E+04 -2.960329E+04 -1.661651E+04  2.304177E-10 -4.206068E-12
       409  19 -1.079425E+06 -1.108455E+05 -1.364313E+05 -3.912969E+04  8.896413E+04 -3.041344E+02
       409  20 -1.059140E+06  4.924674E+03 -6.328627E+04 -1.223800E+04  5.788713E+04 -9.479915E+02
       409  21 -1.073132E+06 -1.663942E+02 -4.061168E+04  1.273588E+04  2.681000E+04 -8.763219E+02
       409  22 -1.049810E+06 -1.034367E+05 -1.291390E+05 -1.913620E+03  8.836799E+04 -2.989402E+02
       409  23 -1.032680E+06  1.147856E+04 -5.703749E+04 -9.674778E+02  5.771996E+04 -9.469759E+02
       409  24 -1.049755E+06  5.607396E+03 -3.510682E+04 -1.940047E+03  2.707199E+04 -8.768967E+02
       409  25 -1.020190E+06 -9.602268E+04 -1.218460E+05  3.530423E+04  8.777182E+04 -2.938178E+02
       409  26 -1.006220E+06  1.803287E+04 -5.078868E+04  1.030353E+04  5.755279E+04 -9.459664E+02
       409  27 -1.026377E+06  1.138196E+04 -2.960188E+04 -1.661653E+04  2.733400E+04 -8.774838E+02
       410   1 -1.062807E+06 -1.431118E+04 -3.316259E+04 -4.905585E+03 -2.170096E+04  7.016115E+02
       410   2 -1.057722E+06 -2.990362E+03 -1.865955E+04 -1.694979E+03 -1.416754E+04  6.082444E+02
       410   3 -1.056405E+06 -2.806267E+03 -1.185091E+04 -4.902524E+02 -6.634136E+03  4.706638E+02
       410   4 -1.043002E+06 -9.407796E+03 -2.848110E+04 -1.950169E+03 -2.174501E+04  7.014971E+02
       410   5 -1.041117E+06  1.118472E+03 -1.474198E+04 -9.482919E+02 -1.423790E+04  6.082117E+02
       410   6 -1.042994E+06  5.127733E+02 -8.678767E+03 -1.952264E+03 -6.730834E+03  4.706596E+02
       410   7 -1.023197E+06 -4.504412E+03 -2.379962E+04  1.005342E+03 -2.178906E+04  7.013824E+02
       410   8 -1.024511E+06  5.227288E+03 -1.082443E+04 -2.015845E+02 -1.430825E+04  6.081788E+02
       410   9 -1.029583E+06  3.831809E+03 -5.506636E+03 -3.414307E+03 -6.827534E+03  4.706559E+02
       410  10 -1.062807E+06 -1.431130E+04 -3.316348E+04 -4.905573E+03 -6.142790E-11  3.165234E-10
       410  11 -1.057723E+06 -2.990416E+03 -1.865993E+04 -1.694972E+03 -1.765413E-10  1.227933E-10
       410  12 -1.056405E+06 -2.806279E+03 -1.185099E+04 -4.902498E+02  2.686049E-10 -3.934202E-10
       410  13 -1.043003E+06 -9.407924E+03 -2.848199E+04 -1.950157E+03  1.678797E-11  4.956250E-11
       410  14 -1.041117E+06  1.118417E+03 -1.474236E+04 -9.482850E+02 -1.562636E-10  3.696201E-11
       410  15 -1.042994E+06  5.127609E+02 -8.678852E+03 -1.952261E+03  2.397969E-10 -4.193685E-10
       410  16 -1.023198E+06 -4.504540E+03 -2.380052E+04  1.005354E+03 -2.513014E-10  7.354076E-12
       410  17 -1.024512E+06  5.227233E+03 -1.082481E+04 -2.015775E+02  1.533209E-10 -2.436201E-10
       410  18 -1.029583E+06  3.831796E+03 -5.506725E+03 -3.414304E+03 -2.276603E-10 -1.546740E-10
       410  19 -1.062807E+06 -1.431118E+04 -3.316259E+04 -4.905585E+03  2.170096E+04 -7.016115E+02
       410  20 -1.057722E+06 -2.990362E+03 -1.865955E+04 -1.694979E+03  1.416754E+04 -6.082444E+02
       410  21 -1.056405E+06 -2.806267E+03 -1.185091E+04 -4.902524E+02  6.634136E+03 -4.706638E+02
       410  22 -1.043002E+06 -9.407796E+03 -2.848110E+04 -1.950169E+03  2.174501E+04 -7.014971E+02
       410  23 -1.041117E+06  1.118472E+03 -1.474198E+04 -9.482919E+02  1.423790E+04 -6.082117E+02
       410  24 -1.042994E+06  5.127733E+02 -8.678767E+03 -1.952264E+03  6.730834E+03 -4.706596E+02
       410  25 -1.023197E+06 -4.504412E+03 -2.379962E+04  1.005342E+03  2.178906E+04 -7.013824E+02
       410  26 -1.024511E+06  5.227288E+03 -1.082443E+04 -2.015845E+02  1.430825E+04 -6.081788E+02
       410  27 -1.029583E+06  3.831809E+03 -5.506636E+03 -3.414307E+03  6.827534E+03 -4.706559E+02
       411   1 -1.052059E+06 -3.253078E+03 -9.049211E+03 -2.111472E+03 -5.288761E+03  3.816459E+02
       411   2 -1.048573E+06 -1.503713E+03 -5.275197E+03 -9.375128E+02 -3.424873E+03  2.408281E+02
       411   3 -1.045585E+06 -7.769122E+02 -2.971619E+03 -1.797065E+03 -1.560943E+03  9.703388E+01
       411   4 -1.042269E+06 -8.325903E+02 -6.748361E+03 -1.957667E+03 -5.372518E+03  3.816279E+02
       411   5 -1.042020E+06  1.176670E+02 -3.729276E+03 -9.409944E+02 -3.510387E+03  2.408116E+02
       411   6 -1.042268E+06  4.566538E+01 -2.179395E+03 -1.957835E+03 -1.648224E+03  9.701786E+01
       411   7 -1.032479E+06  1.587890E+03 -4.447516E+03 -1.803859E+03 -5.456276E+03  3.816098E+02
       411   8 -1.035466E+06  1.739044E+03 -2.183358E+03 -9.444760E+02 -3.595902E+03  2.407950E+02
       411   9 -1.038951E+06  8.682422E+02 -1.387171E+03 -2.118607E+03 -1.735506E+03  9.700188E+01
       411  10 -1.052059E+06 -3.253085E+03 -9.049264E+03 -2.111471E+03 -4.446821E-10 -1.197080E-10
       411  11 -1.048573E+06 -1.503716E+03 -5.275219E+03 -9.375121E+02  1.234285E-11 -1.033380E-11
       411  12 -1.045585E+06 -7.769128E+02 -2.971624E+03 -1.797065E+03  4.272153E-11  1.509597E-10
       411  13 -1.042269E+06 -8.325982E+02 -6.748415E+03 -1.957665E+03 -1.679966E-11 -2.779624E-10
       411  14 -1.042020E+06  1.176636E+02 -3.729299E+03 -9.409937E+02  1.183516E-10  6.910900E-12
       411  15 -1.042268E+06  4.566464E+01 -2.179400E+03 -1.957835E+03 -9.806220E-11  9.878830E-11
       411  16 -1.032479E+06  1.587882E+03 -4.447573E+03 -1.803857E+03  1.335480E-10 -1.305245E-10
       411  17 -1.035466E+06  1.739040E+03 -2.183382E+03 -9.444753E+02 -1.712714E-10 -3.244553E-11
       411  18 -1.038951E+06  8.682414E+02 -1.387177E+03 -2.118607E+03  9.144537E-11 -1.317796E-10
       411  19 -1.052059E+06 -3.253078E+03 -9.049211E+03 -2.111472E+03  5.288761E+03 -3.816459E+02
       411  20 -1.048573E+06 -1.503713E+03 -5.275197E+03 -9.375128E+02  3.424873E+03 -2.408281E+02
       411  21 -1.045585E+06 -7.769122E+02 -2.971619E+03 -1.797065E+03  1.560943E+03 -9.703388E+01
       411  22 -1.042269E+06 -8.325903E+02 -6.748361E+03 -1.957667E+03  5.372518E+03 -3.816279E+02
       411  23 -1.042020E+06  1.176670E+02 -3.729276E+03 -9.409944E+02  3.510387E+03 -2.408116E+02
       411  24 -1.042268E+06  4.566538E+01 -2.179395E+03 -1.957835E+03  1.648224E+03 -9.701786E+01
       411  25 -1.032479E+06  1.587890E+03 -4.447516E+03 -1.803859E+03  5.456276E+03 -3.816098E+02
       411  26 -1.035466E+06  1.739044E+03 -2.183358E+03 -9.444760E+02  3.595902E+03 -2.407950E+02
       411  27 -1.038951E+06  8.682422E+02 -1.387171E+03 -2.118607E+03  1.735506E+03 -9.700188E+01
       412   1 -1.041849E+06  1.485624E+01 -1.595962E+03 -1.943714E+03 -1.215265E+03  1.257559E+01
       412   2 -1.038564E+06  8.979482E+02 -1.557939E+02 -9.227933E+02 -7.207378E+02 -1.316894E+02
       412   3 -1.035366E+06  1.685151E+03  9.382508E+02 -1.938675E+03 -2.262072E+02 -2.758968E+02
       412   4 -1.042177E+06 -6.817611E+01 -1.682990E+03 -1.958505E+03 -1.301785E+03  1.255941E+01
       412   5 -1.042133E+06  1.489123E+01 -9.977345E+02 -9.401099E+02 -8.072235E+02 -1.317058E+02
       412   6 -1.042176E+06  2.064665E+00 -6.586243E+02 -1.958518E+03 -3.126611E+02 -2.759136E+02
       412   7 -1.042504E+06 -1.512085E+02 -1.770017E+03 -1.973296E+03 -1.388305E+03  1.254323E+01
       412   8 -1.045702E+06 -8.681667E+02 -1.839676E+03 -9.574265E+02 -8.937088E+02 -1.317223E+02
       412   9 -1.048987E+06 -1.681025E+03 -2.255503E+03 -1.978360E+03 -3.991141E+02 -2.759303E+02
       412  10 -1.041849E+06  1.485584E+01 -1.595965E+03 -1.943714E+03  1.143123E-10  7.364901E-11
       412  11 -1.038564E+06  8.979480E+02 -1.557949E+02 -9.227934E+02  5.378833E-10 -1.119005E-10
       412  12 -1.035366E+06  1.685151E+03  9.382506E+02 -1.938675E+03  2.234469E-10 -5.611954E-12
       412  13 -1.042177E+06 -6.817657E+01 -1.682993E+03 -1.958505E+03  4.439454E-10 -2.443264E-10
       412  14 -1.042133E+06  1.489103E+01 -9.977357E+02 -9.401100E+02 -1.519664E-10  2.809869E-11
       412  15 -1.042176E+06  2.064557E+00 -6.586246E+02 -1.958518E+03 -1.837040E-10  2.600189E-10
       412  16 -1.042504E+06 -1.512090E+02 -1.770021E+03 -1.973296E+03 -3.226241E-10  1.874411E-10
       412  17 -1.045702E+06 -8.681669E+02 -1.839677E+03 -9.574266E+02 -1.010065E-10  1.507847E-10
       412  18 -1.048987E+06 -1.681025E+03 -2.255503E+03 -1.978361E+03 -3.776092E-10  3.997326E-10
       412  19 -1.041849E+06  1.485624E+01 -1.595962E+03 -1.943714E+03  1.215265E+03 -1.257559E+01
       412  20 -1.038564E+06  8.979482E+02 -1.557939E+02 -9.227933E+02  7.207378E+02  1.316894E+02
       412  21 -1.035366E+06  1.685151E+03  9.382508E+02 -1.938675E+03  2.262072E+02  2.758968E+02
       412  22 -1.042177E+06 -6.817611E+01 -1.682990E+03 -1.958505E+03  1.301785E+03 -1.255941E+01
       412  23 -1.042133E+06  1.489123E+01 -9.977345E+02 -9.401099E+02  8.072235E+02  1.317058E+02
       412  24 -1.042176E+06  2.064665E+00 -6.586243E+02 -1.958518E+03  3.126611E+02  2.759136E+02
       412  25 -1.042504E+06 -1.512085E+02 -1.770017E+03 -1.973296E+03  1.388305E+03 -1.254323E+01
       412  26 -1.045702E+06 -8.681667E+02 -1.839676E+03 -9.574265E+02  8.937088E+02  1.317223E+02
       412  27 -1.048987E+06 -1.681025E+03 -2.255503E+03 -1.978360E+03  3.991141E+02  2.759303E+02
       413   1 -1.031724E+06  2.582011E+03  1.902667E+03 -1.950786E+03 -1.154058E+02 -3.597923E+02
       413   2 -1.028491E+06  3.384583E+03  2.702704E+03 -9.426249E+02  1.406379E+02 -5.032186E+02
       413   3 -1.025300E+06  4.149532E+03  3.326678E+03 -1.953113E+03  3.966825E+02 -6.456580E+02
       413   4 -1.042166E+06 -3.389693E+00 -5.703053E+02 -1.954481E+03 -2.016782E+02 -3.598094E+02
       413   5 -1.042145E+06  6.399853E+00 -5.182141E+02 -9.451529E+02  5.495292E+01 -5.032366E+02
       413   6 -1.042166E+06 -2.152220E+01 -6.425837E+02 -1.954477E+03  3.115836E+02 -6.456769E+02
       413   7 -1.052608E+06 -2.588798E+03 -3.043285E+03 -1.958176E+03 -2.879492E+02 -3.598265E+02
       413   8 -1.055799E+06 -3.371796E+03 -3.739145E+03 -9.476809E+02 -3.073021E+01 -5.032546E+02
       413   9 -1.059033E+06 -4.192597E+03 -4.611865E+03 -1.955841E+03  2.264871E+02 -6.456957E+02
       413  10 -1.031724E+06  2.582011E+03  1.902667E+03 -1.950786E+03 -1.002899E-11  2.265341E-10
       413  11 -1.028491E+06  3.384582E+03  2.702704E+03 -9.426248E+02 -9.260121E-11 -3.830893E-11
       413  12 -1.025300E+06  4.149532E+03  3.326677E+03 -1.953113E+03 -1.378678E-10 -6.070503E-11
       413  13 -1.042166E+06 -3.389843E+00 -5.703057E+02 -1.954481E+03  5.112528E-10 -9.212287E-11
       413  14 -1.042145E+06  6.399580E+00 -5.182146E+02 -9.451529E+02  6.041782E-10 -4.266362E-10
       413  15 -1.042166E+06 -2.152267E+01 -6.425847E+02 -1.954477E+03 -4.667780E-10  2.445201E-10
       413  16 -1.052608E+06 -2.588799E+03 -3.043286E+03 -1.958176E+03 -4.695008E-11  1.250998E-10
       413  17 -1.055799E+06 -3.371796E+03 -3.739146E+03 -9.476809E+02  2.853584E-10 -1.713284E-10
       413  18 -1.059033E+06 -4.192597E+03 -4.611866E+03 -1.955841E+03 -7.115622E-11  2.336946E-10
       413  19 -1.031724E+06  2.582011E+03  1.902667E+03 -1.950786E+03  1.154058E+02  3.597923E+02
       413  20 -1.028491E+06  3.384583E+03  2.702704E+03 -9.426249E+02 -1.406379E+02  5.032186E+02
       413  21 -1.025300E+06  4.149532E+03  3.326678E+03 -1.953113E+03 -3.966825E+02  6.456580E+02
       413  22 -1.042166E+06 -3.389693E+00 -5.703053E+02 -1.954481E+03  2.016782E+02  3.598094E+02
       413  23 -1.042145E+06  6.399853E+00 -5.182141E+02 -9.451529E+02 -5.495292E+01  5.032366E+02
       413  24 -1.042166E+06 -2.152220E+01 -6.425837E+02 -1.954477E+03 -3.115836E+02  6.456769E+02
       413  25 -1.052608E+06 -2.588798E+03 -3.043285E+03 -1.958176E+03  2.879492E+02  3.598265E+02
       413  26 -1.055799E+06 -3.371796E+03 -3.739145E+03 -9.476809E+02  3.073021E+01  5.032546E+02
       413  27 -1.059033E+06 -4.192597E+03 -4.611865E+03 -1.955841E+03 -2.264871E+02  6.456957E+02
       414   1 -1.021746E+06  5.074261E+03  4.064749E+03 -1.990021E+03  5.241527E+02 -7.288176E+02
       414   2 -1.018518E+06  5.874297E+03  4.355004E+03 -9.520966E+02  1.125430E+03 -8.693143E+02
       414   3 -1.015447E+06  6.355925E+03  4.174071E+03 -1.892670E+03  1.726724E+03 -1.004561E+03
       414   4 -1.042192E+06  1.380852E+01 -7.679345E+02 -1.945578E+03  4.382978E+02 -7.288375E+02
       414   5 -1.042114E+06  3.660249E+01 -1.210953E+03 -9.562943E+02  1.042700E+03 -8.693352E+02
       414   6 -1.042192E+06 -2.595755E+02 -2.127358E+03 -1.945515E+03  1.647115E+03 -1.004583E+03
       414   7 -1.062638E+06 -5.046674E+03 -5.600647E+03 -1.901135E+03  3.524458E+02 -7.288573E+02
       414   8 -1.065709E+06 -5.801132E+03 -6.776949E+03 -9.604919E+02  9.599730E+02 -8.693561E+02
       414   9 -1.068937E+06 -6.875127E+03 -8.428837E+03 -1.998357E+03  1.567511E+03 -1.004605E+03
       414  10 -1.021746E+06  5.074260E+03  4.064747E+03 -1.990021E+03  3.487386E-10 -2.389713E-10
       414  11 -1.018518E+06  5.874296E+03  4.355001E+03 -9.520958E+02  2.302325E-10 -1.888575E-11
       414  12 -1.015447E+06  6.355923E+03  4.174064E+03 -1.892668E+03  2.123951E-10 -8.741997E-11
       414  13 -1.042192E+06  1.380790E+01 -7.679358E+02 -1.945577E+03 -3.766635E-10  2.591663E-10
       414  14 -1.042114E+06  3.660139E+01 -1.210957E+03 -9.562936E+02 -4.758144E-10  2.653184E-10
       414  15 -1.042192E+06 -2.595773E+02 -2.127365E+03 -1.945513E+03  2.162837E-10 -1.885578E-10
       414  16 -1.062638E+06 -5.046674E+03 -5.600648E+03 -1.901135E+03  1.453620E-10  1.588204E-11
       414  17 -1.065709E+06 -5.801133E+03 -6.776952E+03 -9.604912E+02 -6.949536E-10  3.086127E-10
       414  18 -1.068937E+06 -6.875129E+03 -8.428844E+03 -1.998356E+03 -3.057419E-10  1.909103E-10
       414  19 -1.021746E+06  5.074261E+03  4.064749E+03 -1.990021E+03 -5.241527E+02  7.288176E+02
       414  20 -1.018518E+06  5.874297E+03  4.355004E+03 -9.520966E+02 -1.125430E+03  8.693143E+02
       414  21 -1.015447E+06  6.355925E+03  4.174071E+03 -1.892670E+03 -1.726724E+03  1.004561E+03
       414  22 -1.042192E+06  1.380852E+01 -7.679345E+02 -1.945578E+03 -4.382978E+02  7.288375E+02
       414  23 -1.042114E+06  3.660249E+01 -1.210953E+03 -9.562943E+02 -1.042700E+03  8.693352E+02
       414  24 -1.042192E+06 -2.595755E+02 -2.127358E+03 -1.945515E+03 -1.647115E+03  1.004583E+03
       414  25 -1.062638E+06 -5.046674E+03 -5.600647E+03 -1.901135E+03 -3.524458E+02  7.288573E+02
       414  26 -1.065709E+06 -5.801132E+03 -6.776949E+03 -9.604919E+02 -9.599730E+02  8.693561E+02
       414  27 -1.068937E+06 -6.875127E+03 -8.428837E+03 -1.998357E+03 -1.567511E+03  1.004605E+03
       415   1 -1.012181E+06  7.640732E+03  4.420042E+03 -2.380786E+03  2.172837E+03 -1.093635E+03
       415   2 -1.008548E+06  8.582739E+03  3.256940E+03 -7.352225E+02  4.472768E+03 -1.224290E+03
       415   3 -1.006076E+06  6.070699E+03 -2.683562E+02 -1.005478E+03  6.772694E+03 -1.287948E+03
       415   4 -1.042417E+06  1.588005E+02 -2.720194E+03 -1.931879E+03  2.074051E+03 -1.093661E+03
       415   5 -1.041834E+06  3.472437E+02 -4.595492E+03 -9.735469E+02  4.414016E+03 -1.224312E+03
       415   6 -1.042420E+06 -2.925428E+03 -8.860915E+03 -1.931044E+03  6.753965E+03 -1.287968E+03
       415   7 -1.072652E+06 -7.323196E+03 -9.860494E+03 -1.482994E+03  1.975270E+03 -1.093687E+03
       415   8 -1.075119E+06 -7.888331E+03 -1.244800E+04 -1.211858E+03  4.355267E+03 -1.224333E+03
       415   9 -1.078762E+06 -1.192165E+04 -1.745356E+04 -2.856555E+03  6.735237E+03 -1.287988E+03
       415  10 -1.012181E+06  7.640729E+03  4.420031E+03 -2.380784E+03 -2.237818E-10  6.601278E-11
       415  11 -1.008548E+06  8.582732E+03  3.256900E+03 -7.352181E+02  1.617559E-10 -1.340458E-10
       415  12 -1.006076E+06  6.070684E+03 -2.684456E+02 -1.005471E+03 -3.370267E-10  2.989242E-10
       415  13 -1.042417E+06  1.587981E+02 -2.720205E+03 -1.931877E+03  4.872011E-14 -1.389100E-10
       415  14 -1.041834E+06  3.472368E+02 -4.595532E+03 -9.735425E+02 -1.168359E-11 -1.240227E-11
       415  15 -1.042420E+06 -2.925442E+03 -8.861004E+03 -1.931037E+03  1.390203E-10  2.058530E-10
       415  16 -1.072652E+06 -7.323198E+03 -9.860504E+03 -1.482992E+03 -1.650635E-10 -2.705107E-10
       415  17 -1.075119E+06 -7.888338E+03 -1.244804E+04 -1.211854E+03 -8.852193E-11 -2.026563E-10
       415  18 -1.078762E+06 -1.192166E+04 -1.745365E+04 -2.856548E+03  2.925082E-10  4.417341E-10
       415  19 -1.012181E+06  7.640732E+03  4.420042E+03 -2.380786E+03 -2.172837E+03  1.093635E+03
       415  20 -1.008548E+06  8.582739E+03  3.256940E+03 -7.352225E+02 -4.472768E+03  1.224290E+03
       415  21 -1.006076E+06  6.070699E+03 -2.683562E+02 -1.005478E+03 -6.772694E+03  1.287948E+03
       415  22 -1.042417E+06  1.588005E+02 -2.720194E+03 -1.931879E+03 -2.074051E+03  1.093661E+03
       415  23 -1.041834E+06  3.472437E+02 -4.595492E+03 -9.735469E+02 -4.414016E+03  1.224312E+03
       415  24 -1.042420E+06 -2.925428E+03 -8.860915E+03 -1.931044E+03 -6.753965E+03  1.287968E+03
       415  25 -1.072652E+06 -7.323196E+03 -9.860494E+03 -1.482994E+03 -1.975270E+03  1.093687E+03
       415  26 -1.075119E+06 -7.888331E+03 -1.244800E+04 -1.211858E+03 -4.355267E+03  1.224333E+03
       415  27 -1.078762E+06 -1.192165E+04 -1.745356E+04 -2.856555E+03 -6.735237E+03  1.287988E+03
       416   1 -1.004796E+06  1.156287E+04 -1.567288E+03 -6.462781E+03  8.757506E+03 -1.507274E+03
       416   2 -9.966149E+05  1.411067E+04 -7.677361E+03  2.507368E+03  1.763932E+04 -1.541882E+03
       416   3 -9.989511E+05 -2.077566E+04 -2.893445E+04  9.682188E+03  2.652072E+04 -4.965032E+02
       416   4 -1.044519E+06  1.742173E+03 -1.091887E+04 -1.908030E+03  8.411188E+03 -1.507316E+03
       416   5 -1.039212E+06  3.567465E+03 -1.773484E+04 -1.004961E+03  1.793951E+04 -1.541895E+03
       416   6 -1.044536E+06 -3.215536E+04 -4.014810E+04 -1.897069E+03  2.746735E+04 -4.966849E+02
       416   7 -1.084240E+06 -8.078557E+03 -2.027054E+04  2.646428E+03  8.064892E+03 -1.507364E+03
       416   8 -1.081807E+06 -6.975820E+03 -2.779244E+04 -4.517047E+03  1.823968E+04 -1.541911E+03
       416   9 -1.090119E+06 -4.353472E+04 -5.136183E+04 -1.347547E+04  2.841391E+04 -4.969020E+02
       416  10 -1.004796E+06  1.156284E+04 -1.567436E+03 -6.462771E+03  8.556960E-11  4.005800E-10
       416  11 -9.966152E+05  1.411058E+04 -7.677951E+03  2.507390E+03  3.108735E-10  9.199444E-12
       416  12 -9.989518E+05 -2.077585E+04 -2.893577E+04  9.682198E+03 -1.488741E-10  1.984476E-10
       416  13 -1.044519E+06  1.742151E+03 -1.091900E+04 -1.908020E+03  7.660621E-10 -1.655331E-10
       416  14 -1.039212E+06  3.567376E+03 -1.773545E+04 -1.004938E+03  1.862460E-10  1.302409E-10
       416  15 -1.044537E+06 -3.215557E+04 -4.014952E+04 -1.897058E+03  1.463194E-10 -1.190316E-10
       416  16 -1.084240E+06 -8.078577E+03 -2.027067E+04  2.646438E+03 -2.104397E-12  3.460137E-10
       416  17 -1.081808E+06 -6.975912E+03 -2.779308E+04 -4.517024E+03  5.827587E-11  2.469045E-11
       416  18 -1.090120E+06 -4.353494E+04 -5.136335E+04 -1.347546E+04 -3.625993E-10  2.980222E-10
       416  19 -1.004796E+06  1.156287E+04 -1.567288E+03 -6.462781E+03 -8.757506E+03  1.507274E+03
       416  20 -9.966149E+05  1.411067E+04 -7.677361E+03  2.507368E+03 -1.763932E+04  1.541882E+03
       416  21 -9.989511E+05 -2.077566E+04 -2.893445E+04  9.682188E+03 -2.652072E+04  4.965032E+02
       416  22 -1.044519E+06  1.742173E+03 -1.091887E+04 -1.908030E+03 -8.411188E+03  1.507316E+03
       416  23 -1.039212E+06  3.567465E+03 -1.773484E+04 -1.004961E+03 -1.793951E+04  1.541895E+03
       416  24 -1.044536E+06 -3.215536E+04 -4.014810E+04 -1.897069E+03 -2.746735E+04  4.966849E+02
       416  25 -1.084240E+06 -8.078557E+03 -2.027054E+04  2.646428E+03 -8.064892E+03  1.507364E+03
       416  26 -1.081807E+06 -6.975820E+03 -2.779244E+04 -4.517047E+03 -1.823968E+04  1.541911E+03
       416  27 -1.090119E+06 -4.353472E+04 -5.136183E+04 -1.347547E+04 -2.841391E+04  4.969020E+02
       417   1  2.263846E+06  5.077836E+05  6.386449E+05  1.810931E+05  4.479493E+05  9.475404E+02
       417   2  2.193878E+06 -7.064768E+04  2.776121E+05  5.430053E+04  2.933492E+05  1.958255E+03
       417   3  2.296882E+06 -3.715426E+04  1.700428E+05 -8.269563E+04  1.387368E+05  1.303364E+03
       417   4  2.331460E+06  5.243791E+05  6.552102E+05 -8.210155E+03  4.492034E+05  8.118009E+02
       417   5  2.245200E+06 -5.804051E+04  2.896804E+05 -3.014365E+03  2.935460E+05  1.931307E+03
       417   6  2.332037E+06 -2.844692E+04  1.783171E+05 -8.036998E+03  1.378805E+05  1.319754E+03
       417   7  2.399155E+06  5.411084E+05  6.717944E+05 -1.975340E+05  4.504577E+05  6.753120E+02
       417   8  2.296531E+06 -4.542122E+04  3.017502E+05 -6.033401E+04  2.937429E+05  1.904325E+03
       417   9  2.367204E+06 -1.971879E+04  1.865943E+05  6.662587E+04  1.370242E+05  1.335938E+03
       417  10  2.263631E+06  5.077300E+05  6.382691E+05  1.810927E+05  5.135679E-11 -6.422096E-10
       417  11  2.193786E+06 -7.067067E+04  2.774509E+05  5.430007E+04  9.151861E-10 -1.154004E-10
       417  12  2.296861E+06 -3.715941E+04  1.700068E+05 -8.269578E+04 -1.664418E-09 -3.039853E-10
       417  13  2.331244E+06  5.243252E+05  6.548324E+05 -8.210449E+03  7.841181E-10 -3.663647E-12
       417  14  2.245107E+06 -5.806353E+04  2.895190E+05 -3.014821E+03  9.024456E-10 -2.841306E-10
       417  15  2.332016E+06 -2.845200E+04  1.782815E+05 -8.037145E+03 -8.830626E-10 -1.695547E-11
       417  16  2.398938E+06  5.410542E+05  6.714145E+05 -1.975342E+05  4.338895E-10 -2.098714E-10
       417  17  2.296438E+06 -4.544427E+04  3.015887E+05 -6.033446E+04  1.110543E-09 -4.484987E-10
       417  18  2.367184E+06 -1.972381E+04  1.865592E+05  6.662573E+04  2.425527E-09  9.631616E-10
       417  19  2.263846E+06  5.077836E+05  6.386449E+05  1.810931E+05 -4.479493E+05 -9.475404E+02
       417  20  2.193878E+06 -7.064768E+04  2.776121E+05  5.430053E+04 -2.933492E+05 -1.958255E+03
       417  21  2.296882E+06 -3.715426E+04  1.700428E+05 -8.269563E+04 -1.387368E+05 -1.303364E+03
       417  22  2.331460E+06  5.243791E+05  6.552102E+05 -8.210155E+03 -4.492034E+05 -8.118009E+02
       417  23  2.245200E+06 -5.804051E+04  2.896804E+05 -3.014365E+03 -2.935460E+05 -1.931307E+03
       417  24  2.332037E+06 -2.844692E+04  1.783171E+05 -8.036998E+03 -1.378805E+05 -1.319754E+03
       417  25  2.399155E+06  5.411084E+05  6.717944E+05 -1.975340E+05 -4.504577E+05 -6.753120E+02
       417  26  2.296531E+06 -4.542122E+04  3.017502E+05 -6.033401E+04 -2.937429E+05 -1.904325E+03
       417  27  2.367204E+06 -1.971879E+04  1.865943E+05  6.662587E+04 -1.370242E+05 -1.335938E+03
       418   1  2.280384E+06  4.337760E+04  1.406197E+05  6.940341E+03  1.110572E+05  6.717466E+02
       418   2  2.286879E+06 -5.975631E+03  7.468137E+04  7.385284E+02  7.290150E+04  6.543585E+01
       418   3  2.312401E+06  9.897286E+02  4.760545E+04 -1.547419E+04  3.474626E+04 -6.454199E+02
       418   4  2.297667E+06  4.762699E+04  1.446769E+05 -8.050977E+03  1.107328E+05  6.689884E+02
       418   5  2.288192E+06 -5.654292E+03  7.499028E+04 -3.039097E+03  7.251223E+04  6.489160E+01
       418   6  2.297754E+06 -2.606771E+03  4.420960E+04 -8.037688E+03  3.429307E+04 -6.451229E+02
       418   7  2.314950E+06  5.187720E+04  1.487341E+05 -2.304271E+04  1.104084E+05  6.662459E+02
       418   8  2.289505E+06 -5.332899E+03  7.529920E+04 -6.816731E+03  7.212297E+04  6.435208E+01
       418   9  2.283108E+06 -6.203078E+03  4.081376E+04 -6.013643E+02  3.383990E+04 -6.448367E+02
       418  10  2.280371E+06  4.337430E+04  1.405967E+05  6.940281E+03 -5.015753E-10  4.514678E-11
       418  11  2.286873E+06 -5.977052E+03  7.467142E+04  7.385246E+02  7.386885E-10  4.788835E-10
       418  12  2.312400E+06  9.894056E+02  4.760319E+04 -1.547417E+04 -2.703241E-10 -3.793682E-10
       418  13  2.297653E+06  4.762371E+04  1.446539E+05 -8.051036E+03  9.225820E-10  7.497862E-10
       418  14  2.288186E+06 -5.655697E+03  7.498044E+04 -3.039101E+03  1.380582E-09  3.222880E-10
       418  15  2.297753E+06 -2.607086E+03  4.420739E+04 -8.037670E+03 -9.167063E-10 -4.388949E-10
       418  16  2.314937E+06  5.187394E+04  1.487113E+05 -2.304277E+04  9.920516E-11  9.063302E-10
       418  17  2.289500E+06 -5.334290E+03  7.528946E+04 -6.816735E+03  4.244807E-10 -5.446514E-10
       418  18  2.283107E+06 -6.203384E+03  4.081161E+04 -6.013467E+02 -1.528810E-10 -1.380183E-10
       418  19  2.280384E+06  4.337760E+04  1.406197E+05  6.940341E+03 -1.110572E+05 -6.717466E+02
       418  20  2.286879E+06 -5.975631E+03  7.468137E+04  7.385284E+02 -7.290150E+04 -6.543585E+01
       418  21  2.312401E+06  9.897286E+02  4.760545E+04 -1.547419E+04 -3.474626E+04  6.454199E+02
       418  22  2.297667E+06  4.762699E+04  1.446769E+05 -8.050977E+03 -1.107328E+05 -6.689884E+02
       418  23  2.288192E+06 -5.654292E+03  7.499028E+04 -3.039097E+03 -7.251223E+04 -6.489160E+01
       418  24  2.297754E+06 -2.606771E+03  4.420960E+04 -8.037688E+03 -3.429307E+04  6.451229E+02
       418  25  2.314950E+06  5.187720E+04  1.487341E+05 -2.304271E+04 -1.104084E+05 -6.662459E+02
       418  26  2.289505E+06 -5.332899E+03  7.529920E+04 -6.816731E+03 -7.212297E+04 -6.435208E+01
       418  27  2.283108E+06 -6.203078E+03  4.081376E+04 -6.013643E+02 -3.383990E+04  6.448367E+02
       419   1  2.326629E+06  1.223543E+04  4.210773E+04 -7.288809E+03  2.777281E+04 -1.073479E+03
       419   2  2.341503E+06  1.140115E+04  3.057209E+04 -3.018337E+03  1.821856E+04 -1.782599E+03
       419   3  2.358914E+06  1.572468E+04  2.653123E+04 -8.862321E+03  8.664397E+03 -2.504604E+03
       419   4  2.294079E+06  4.202496E+03  3.441305E+04 -8.065730E+03  2.735036E+04 -1.073629E+03
       419   5  2.292817E+06 -5.992938E+02  1.913045E+04 -3.007874E+03  1.778872E+04 -1.782734E+03
       419   6  2.294095E+06 -2.417882E+02  1.134786E+04 -8.064508E+03  8.227425E+03 -2.504748E+03
       419   7  2.261529E+06 -3.830511E+03  2.671829E+04 -8.842611E+03  2.692792E+04 -1.073778E+03
       419   8  2.244134E+06 -1.259991E+04  7.688643E+03 -2.997412E+03  1.735892E+04 -1.782869E+03
       419   9  2.229279E+06 -1.620855E+04 -3.835786E+03 -7.266779E+03  7.790497E+03 -2.504892E+03
       419  10  2.326629E+06  1.223522E+04  4.210628E+04 -7.288785E+03 -6.149296E-10 -7.636584E-10
       419  11  2.341503E+06  1.140106E+04  3.057146E+04 -3.018311E+03 -1.589562E-09 -8.369388E-10
       419  12  2.358914E+06  1.572465E+04  2.653108E+04 -8.862304E+03 -1.959364E-10 -1.206044E-10
       419  13  2.294078E+06  4.202294E+03  3.441164E+04 -8.065706E+03 -9.952900E-10 -3.188963E-10
       419  14  2.292817E+06 -5.993817E+02  1.912985E+04 -3.007848E+03  2.659142E-10  4.374414E-12
       419  15  2.294095E+06 -2.418131E+02  1.134773E+04 -8.064491E+03 -1.513436E-09 -7.297589E-10
       419  16  2.261528E+06 -3.830706E+03  2.671693E+04 -8.842587E+03 -4.571121E-10  2.349468E-10
       419  17  2.244133E+06 -1.259999E+04  7.688073E+03 -2.997387E+03 -7.833576E-10 -2.209562E-10
       419  18  2.229279E+06 -1.620858E+04 -3.835912E+03 -7.266763E+03  2.057200E-12  1.232651E-10
       419  19  2.326629E+06  1.223543E+04  4.210773E+04 -7.288809E+03 -2.777281E+04  1.073479E+03
       419  20  2.341503E+06  1.140115E+04  3.057209E+04 -3.018337E+03 -1.821856E+04  1.782599E+03
       419  21  2.358914E+06  1.572468E+04  2.653123E+04 -8.862321E+03 -8.664397E+03  2.504604E+03
       419  22  2.294079E+06  4.202496E+03  3.441305E+04 -8.065730E+03 -2.735036E+04  1.073629E+03
       419  23  2.292817E+06 -5.992938E+02  1.913045E+04 -3.007874E+03 -1.778872E+04  1.782734E+03
       419  24  2.294095E+06 -2.417882E+02  1.134786E+04 -8.064508E+03 -8.227425E+03  2.504748E+03
       419  25  2.261529E+06 -3.830511E+03  2.671829E+04 -8.842611E+03 -2.692792E+04  1.073778E+03
       419  26  2.244134E+06 -1.259991E+04  7.688643E+03 -2.997412E+03 -1.735892E+04  1.782869E+03
       419  27  2.229279E+06 -1.620855E+04 -3.835786E+03 -7.266779E+03 -7.790497E+03  2.504892E+03
       420   1  2.376773E+06  2.083370E+04  2.848113E+04 -8.187984E+03  6.844787E+03 -2.928199E+03
       420   2  2.393206E+06  2.451572E+04  2.909971E+04 -2.954100E+03  4.052961E+03 -3.663823E+03
       420   3  2.410142E+06  2.868786E+04  3.165729E+04 -8.176322E+03  1.261169E+03 -4.412081E+03
       420   4  2.293642E+06  3.337678E+02  8.897005E+03 -8.140936E+03  6.405865E+03 -2.928372E+03
       420   5  2.293390E+06 -8.674469E+01  5.642700E+03 -2.912777E+03  3.606754E+03 -3.664035E+03
       420   6  2.293644E+06 -1.588202E+01  4.332505E+03 -8.140829E+03  8.077508E+02 -4.412333E+03
       420   7  2.210516E+06 -2.016666E+04 -1.068759E+04 -8.093894E+03  5.967000E+03 -2.928545E+03
       420   8  2.193584E+06 -2.468992E+04 -1.781499E+04 -2.871462E+03  3.160617E+03 -3.664248E+03
       420   9  2.177157E+06 -2.872058E+04 -2.299320E+04 -8.105343E+03  3.544166E+02 -4.412586E+03
       420  10  2.376773E+06  2.083368E+04  2.848102E+04 -8.187968E+03 -8.076752E-11 -5.150771E-10
       420  11  2.393206E+06  2.451570E+04  2.909966E+04 -2.954088E+03 -2.280556E-10 -2.617596E-10
       420  12  2.410142E+06  2.868783E+04  3.165725E+04 -8.176317E+03 -9.664191E-10 -5.110779E-10
       420  13  2.293641E+06  3.337476E+02  8.896912E+03 -8.140920E+03 -2.358593E-10 -1.799983E-10
       420  14  2.293390E+06 -8.676260E+01  5.642650E+03 -2.912766E+03 -3.990081E-10 -4.906893E-10
       420  15  2.293644E+06 -1.590312E+01  4.332467E+03 -8.140826E+03  5.745412E-10  3.264762E-10
       420  16  2.210516E+06 -2.016667E+04 -1.068767E+04 -8.093880E+03  4.281585E-10  8.067412E-11
       420  17  2.193584E+06 -2.468993E+04 -1.781504E+04 -2.871453E+03 -9.622406E-10 -6.699111E-10
       420  18  2.177157E+06 -2.872060E+04 -2.299324E+04 -8.105342E+03  5.736794E-10  2.489627E-11
       420  19  2.376773E+06  2.083370E+04  2.848113E+04 -8.187984E+03 -6.844787E+03  2.928199E+03
       420  20  2.393206E+06  2.451572E+04  2.909971E+04 -2.954100E+03 -4.052961E+03  3.663823E+03
       420  21  2.410142E+06  2.868786E+04  3.165729E+04 -8.176322E+03 -1.261169E+03  4.412081E+03
       420  22  2.293642E+06  3.337678E+02  8.897005E+03 -8.140936E+03 -6.405865E+03  2.928372E+03
       420  23  2.293390E+06 -8.674469E+01  5.642700E+03 -2.912777E+03 -3.606754E+03  3.664035E+03
       420  24  2.293644E+06 -1.588202E+01  4.332505E+03 -8.140829E+03 -8.077508E+02  4.412333E+03
       420  25  2.210516E+06 -2.016666E+04 -1.068759E+04 -8.093894E+03 -5.967000E+03  2.928545E+03
       420  26  2.193584E+06 -2.468992E+04 -1.781499E+04 -2.871462E+03 -3.160617E+03  3.664248E+03
       420  27  2.177157E+06 -2.872058E+04 -2.299320E+04 -8.105343E+03 -3.544166E+02  4.412586E+03
       421   1  2.429268E+06  3.343516E+04  3.611397E+04 -8.183235E+03  4.965683E+02 -4.854084E+03
       421   2  2.446664E+06  3.769708E+04  4.087663E+04 -2.641863E+03 -1.904687E+03 -5.628785E+03
       421   3  2.464503E+06  4.235164E+04  4.730350E+04 -8.143800E+03 -4.305784E+03 -6.420450E+03
       421   4  2.293629E+06 -6.393652E+00  4.189513E+03 -8.271332E+03  3.616788E+01 -4.854372E+03
       421   5  2.293405E+06 -7.705830E+01  4.861328E+03 -2.749670E+03 -2.374794E+03 -5.629138E+03
       421   6  2.293626E+06  2.467044E+02  7.204361E+03 -8.271487E+03 -4.785529E+03 -6.420868E+03
       421   7  2.158007E+06 -3.344926E+04 -2.773621E+04 -8.359410E+03 -4.241328E+02 -4.854660E+03
       421   8  2.140168E+06 -3.785287E+04 -3.115558E+04 -2.857454E+03 -2.844785E+03 -5.629491E+03
       421   9  2.122776E+06 -4.186030E+04 -3.289677E+04 -8.399142E+03 -5.265144E+03 -6.421287E+03
       421  10  2.429268E+06  3.343514E+04  3.611393E+04 -8.183233E+03 -1.301340E-09 -4.730298E-10
       421  11  2.446664E+06  3.769705E+04  4.087656E+04 -2.641871E+03  1.268121E-09  1.381824E-09
       421  12  2.464503E+06  4.235159E+04  4.730338E+04 -8.143822E+03 -7.419001E-11 -1.909440E-10
       421  13  2.293629E+06 -6.418985E+00  4.189469E+03 -8.271331E+03  1.689478E-09  1.189447E-09
       421  14  2.293405E+06 -7.709387E+01  4.861258E+03 -2.749681E+03  1.759149E-09  1.767858E-09
       421  15  2.293626E+06  2.466540E+02  7.204241E+03 -8.271511E+03  2.022548E-10  2.899811E-10
       421  16  2.158007E+06 -3.344928E+04 -2.773625E+04 -8.359412E+03  1.522834E-09  8.550655E-10
       421  17  2.140168E+06 -3.785290E+04 -3.115566E+04 -2.857467E+03 -4.320101E-10 -2.042867E-10
       421  18  2.122776E+06 -4.186035E+04 -3.289690E+04 -8.399169E+03 -8.003725E-10 -3.119967E-10
       421  19  2.429268E+06  3.343516E+04  3.611397E+04 -8.183235E+03 -4.965683E+02  4.854084E+03
       421  20  2.446664E+06  3.769708E+04  4.087663E+04 -2.641863E+03  1.904687E+03  5.628785E+03
       421  21  2.464503E+06  4.235164E+04  4.730350E+04 -8.143800E+03  4.305784E+03  6.420450E+03
       421  22  2.293629E+06 -6.393652E+00  4.189513E+03 -8.271332E+03 -3.616788E+01  4.854372E+03
       421  23  2.293405E+06 -7.705830E+01  4.861328E+03 -2.749670E+03  2.374794E+03  5.629138E+03
       421  24  2.293626E+06  2.467044E+02  7.204361E+03 -8.271487E+03  4.785529E+03  6.420868E+03
       421  25  2.158007E+06 -3.344926E+04 -2.773621E+04 -8.359410E+03  4.241328E+02  4.854660E+03
       421  26  2.140168E+06 -3.785287E+04 -3.115558E+04 -2.857454E+03  2.844785E+03  5.629491E+03
       421  27  2.122776E+06 -4.186030E+04 -3.289677E+04 -8.399142E+03  5.265144E+03  6.421287E+03
       422   1  2.485268E+06  4.695727E+04  5.405647E+04 -7.732004E+03 -5.750038E+03 -6.896440E+03
       422   2  2.503206E+06  5.133915E+04  6.444069E+04 -2.375763E+03 -1.326826E+04 -7.729923E+03
       422   3  2.523180E+06  5.973542E+04  8.072129E+04 -8.907843E+03 -2.078635E+04 -8.558780E+03
       422   4  2.293978E+06 -2.007062E+02  9.053533E+03 -8.458304E+03 -6.248536E+03 -6.896915E+03
       422   5  2.292953E+06 -4.807739E+02  1.503361E+04 -2.515458E+03 -1.376173E+04 -7.730488E+03
       422   6  2.293964E+06  3.253698E+03  2.690813E+04 -8.461177E+03 -2.127457E+04 -8.559446E+03
       422   7  2.102722E+06 -4.736129E+04 -3.595191E+04 -9.184384E+03 -6.746882E+03 -6.897388E+03
       422   8  2.082741E+06 -5.230383E+04 -3.437650E+04 -2.655114E+03 -1.425504E+04 -7.731052E+03
       422   9  2.064796E+06 -5.323175E+04 -2.690862E+04 -8.014686E+03 -2.176261E+04 -8.560113E+03
       422  10  2.485268E+06  4.695721E+04  5.405632E+04 -7.732036E+03 -3.385163E-10  7.604155E-10
       422  11  2.503205E+06  5.133903E+04  6.444025E+04 -2.375845E+03 -1.417987E-09 -7.894814E-10
       422  12  2.523179E+06  5.973522E+04  8.072035E+04 -8.907987E+03  7.085947E-10  1.358268E-09
       422  13  2.293978E+06 -2.007677E+02  9.053371E+03 -8.458338E+03 -1.995894E-13  4.172396E-10
       422  14  2.292953E+06 -4.808887E+02  1.503314E+04 -2.515544E+03  1.108848E-10  2.857745E-10
       422  15  2.293963E+06  3.253499E+03  2.690714E+04 -8.461323E+03 -3.264494E-11  2.417860E-10
       422  16  2.102722E+06 -4.736135E+04 -3.595209E+04 -9.184422E+03 -2.305946E-11 -5.541749E-10
       422  17  2.082740E+06 -5.230395E+04 -3.437699E+04 -2.655203E+03 -8.496230E-10 -9.771502E-11
       422  18  2.064796E+06 -5.323195E+04 -2.690965E+04 -8.014836E+03 -4.892183E-10  5.688929E-10
       422  19  2.485268E+06  4.695727E+04  5.405647E+04 -7.732004E+03  5.750038E+03  6.896440E+03
       422  20  2.503206E+06  5.133915E+04  6.444069E+04 -2.375763E+03  1.326826E+04  7.729923E+03
       422  21  2.523180E+06  5.973542E+04  8.072129E+04 -8.907843E+03  2.078635E+04  8.558780E+03
       422  22  2.293978E+06 -2.007062E+02  9.053533E+03 -8.458304E+03  6.248536E+03  6.896915E+03
       422  23  2.292953E+06 -4.807739E+02  1.503361E+04 -2.515458E+03  1.376173E+04  7.730488E+03
       422  24  2.293964E+06  3.253698E+03  2.690813E+04 -8.461177E+03  2.127457E+04  8.559446E+03
       422  25  2.102722E+06 -4.736129E+04 -3.595191E+04 -9.184384E+03  6.746882E+03  6.897388E+03
       422  26  2.082741E+06 -5.230383E+04 -3.437650E+04 -2.655114E+03  1.425504E+04  7.731052E+03
       422  27  2.064796E+06 -5.323175E+04 -2.690862E+04 -8.014686E+03  2.176261E+04  8.560113E+03
       423   1  2.548198E+06  5.991627E+04  9.364606E+04 -2.713935E+03 -2.604298E+04 -9.144386E+03
       423   2  2.561441E+06  6.262432E+04  1.224563E+05 -4.930951E+03 -5.616405E+04 -1.003987E+04
       423   3  2.589665E+06  1.092940E+05  1.818313E+05 -2.016794E+04 -8.628756E+04 -1.045699E+04
       423   4  2.296835E+06 -2.056768E+03  3.453520E+04 -8.697161E+03 -2.670066E+04 -9.145022E+03
       423   5  2.289331E+06 -4.432006E+03  5.851398E+04 -2.210040E+03 -5.652266E+04 -1.004082E+04
       423   6  2.296763E+06  3.711326E+04  1.128599E+05 -8.742908E+03 -8.634609E+04 -1.045901E+04
       423   7  2.045530E+06 -6.403417E+04 -2.457996E+04 -1.467797E+04 -2.735808E+04 -9.145645E+03
       423   8  2.017290E+06 -7.149356E+04 -5.433427E+03  5.096585E+02 -5.688111E+04 -1.004178E+04
       423   9  2.003940E+06 -3.507304E+04  4.388269E+04  2.676697E+03 -8.640459E+04 -1.046103E+04
       423  10  2.548197E+06  5.991600E+04  9.364463E+04 -2.714126E+03  1.123233E-09  3.504924E-10
       423  11  2.561438E+06  6.262337E+04  1.224502E+05 -4.931405E+03 -1.792815E-09 -1.375969E-09
       423  12  2.589657E+06  1.092919E+05  1.818172E+05 -2.016866E+04 -4.539533E-09 -2.291229E-09
       423  13  2.296834E+06 -2.057049E+03  3.453371E+04 -8.697358E+03  2.363768E-10  6.419481E-11
       423  14  2.289328E+06 -4.432968E+03  5.850781E+04 -2.210496E+03  4.688690E-10 -9.607388E-10
       423  15  2.296755E+06  3.711115E+04  1.128457E+05 -8.743634E+03  8.289328E-10 -1.929770E-09
       423  16  2.045529E+06 -6.403446E+04 -2.458152E+04 -1.467818E+04 -8.346894E-10  3.558236E-10
       423  17  2.017286E+06 -7.149453E+04 -5.439677E+03  5.091987E+02  3.490088E-09  2.176709E-09
       423  18  2.003932E+06 -3.507516E+04  4.386850E+04  2.675970E+03  5.143547E-09 -3.451156E-10
       423  19  2.548198E+06  5.991627E+04  9.364606E+04 -2.713935E+03  2.604298E+04  9.144386E+03
       423  20  2.561441E+06  6.262432E+04  1.224563E+05 -4.930951E+03  5.616405E+04  1.003987E+04
       423  21  2.589665E+06  1.092940E+05  1.818313E+05 -2.016794E+04  8.628756E+04  1.045699E+04
       423  22  2.296835E+06 -2.056768E+03  3.453520E+04 -8.697161E+03  2.670066E+04  9.145022E+03
       423  23  2.289331E+06 -4.432006E+03  5.851398E+04 -2.210040E+03  5.652266E+04  1.004082E+04
       423  24  2.296763E+06  3.711326E+04  1.128599E+05 -8.742908E+03  8.634609E+04  1.045901E+04
       423  25  2.045530E+06 -6.403417E+04 -2.457996E+04 -1.467797E+04  2.735808E+04  9.145645E+03
       423  26  2.017290E+06 -7.149356E+04 -5.433427E+03  5.096585E+02  5.688111E+04  1.004178E+04
       423  27  2.003940E+06 -3.507304E+04  4.388269E+04  2.676697E+03  8.640459E+04  1.046103E+04
       424   1  2.640760E+06  5.610683E+04  2.134978E+05  4.966780E+04 -1.048325E+05 -1.219129E+04
       424   2  2.595945E+06  3.838332E+04  3.058859E+05 -4.621539E+04 -2.314203E+05 -1.262115E+04
       424   3  2.687121E+06  4.988206E+05  6.000453E+05 -1.568513E+05 -3.580244E+05 -4.523547E+03
       424   4  2.323577E+06 -2.222794E+04  1.390930E+05 -8.893947E+03 -1.075199E+05 -1.218546E+04
       424   5  2.255772E+06 -4.530743E+04  2.259144E+05 -1.867421E+03 -2.289415E+05 -1.263450E+04
       424   6  2.323115E+06  4.089803E+05  5.109988E+05 -9.578128E+03 -3.503732E+05 -4.595821E+03
       424   7  2.006494E+06 -1.005571E+05  6.468313E+04 -6.742573E+04 -1.102060E+05 -1.217911E+04
       424   8  1.915709E+06 -1.289990E+05  1.459362E+05  4.245616E+04 -2.264640E+05 -1.264750E+04
       424   9  1.959276E+06  3.192116E+05  4.219544E+05  1.376089E+05 -3.427265E+05 -4.664518E+03
       424  10  2.640748E+06  5.610374E+04  2.134770E+05  4.966677E+04  4.649508E-09 -3.072498E-09
       424  11  2.595888E+06  3.836885E+04  3.057853E+05 -4.621774E+04  2.355919E-09 -4.345960E-09
       424  12  2.686983E+06  4.987864E+05  5.998054E+05 -1.568526E+05 -2.056704E-09 -1.136473E-09
       424  13  2.323565E+06 -2.223119E+04  1.390711E+05 -8.895001E+03 -2.169739E-09 -7.039457E-09
       424  14  2.255716E+06 -4.532160E+04  2.258160E+05 -1.869748E+03  4.031202E-09  3.124769E-09
       424  15  2.322983E+06  4.089475E+05  5.107689E+05 -9.579424E+03  3.656627E-10 -1.056284E-10
       424  16  2.006481E+06 -1.005605E+05  6.466010E+04 -6.742681E+04 -3.930503E-09 -1.917771E-09
       424  17  1.915654E+06 -1.290129E+05  1.458398E+05  4.245386E+04 -1.459693E-09  1.999693E-09
       424  18  1.959150E+06  3.191802E+05  4.217343E+05  1.376076E+05  1.320953E-09 -1.542399E-09
       424  19  2.640760E+06  5.610683E+04  2.134978E+05  4.966780E+04  1.048325E+05  1.219129E+04
       424  20  2.595945E+06  3.838332E+04  3.058859E+05 -4.621539E+04  2.314203E+05  1.262115E+04
       424  21  2.687121E+06  4.988206E+05  6.000453E+05 -1.568513E+05  3.580244E+05  4.523547E+03
       424  22  2.323577E+06 -2.222794E+04  1.390930E+05 -8.893947E+03  1.075199E+05  1.218546E+04
       424  23  2.255772E+06 -4.530743E+04  2.259144E+05 -1.867421E+03  2.289415E+05  1.263450E+04
       424  24  2.323115E+06  4.089803E+05  5.109988E+05 -9.578128E+03  3.503732E+05  4.595821E+03
       424  25  2.006494E+06 -1.005571E+05  6.468313E+04 -6.742573E+04  1.102060E+05  1.217911E+04
       424  26  1.915709E+06 -1.289990E+05  1.459362E+05  4.245616E+04  2.264640E+05  1.264750E+04
       424  27  1.959276E+06  3.192116E+05  4.219544E+05  1.376089E+05  3.427265E+05  4.664518E+03
       425   1  5.882200E+05  1.932254E+05  1.782560E+05  4.877151E+04  4.983421E+04 -1.255612E+04
       425   2  5.243823E+05  1.920630E+05  1.433192E+05  5.291342E+04  2.052547E+04 -4.257492E+04
       425   3  4.619284E+05  1.810979E+05  1.250426E+05  6.894255E+04 -8.813950E+03 -5.168831E+04
       425   4 -3.157710E+05 -2.968129E+04 -3.286473E+04  6.647621E+04 -2.294837E+04 -1.269340E+04
       425   5 -3.131717E+05 -7.264540E+03 -1.609065E+04  6.050279E+04 -1.459694E+04 -4.265065E+04
       425   6 -3.157332E+05 -1.195799E+03 -8.804790E+03  6.641687E+04 -6.280009E+03 -5.168859E+04
       425   7 -1.218997E+06 -2.526418E+05 -2.440209E+05  8.415461E+04 -9.562573E+04 -1.283493E+04
       425   8 -1.150047E+06 -2.066323E+05 -1.755274E+05  6.808132E+04 -4.967312E+04 -4.272729E+04
       425   9 -1.092801E+06 -1.835219E+05 -1.426727E+05  6.389412E+04 -3.749139E+03 -5.168889E+04
       425  10  5.882173E+05  1.932246E+05  1.782510E+05  4.877202E+04  4.652519E-09 -5.004204E-10
       425  11  5.243813E+05  1.920609E+05  1.433150E+05  5.291413E+04  1.617539E-09 -4.306597E-09
       425  12  4.619276E+05  1.810950E+05  1.250374E+05  6.894218E+04  1.075293E-10 -3.256956E-09
       425  13 -3.157716E+05 -2.968160E+04 -3.286602E+04  6.647598E+04  1.590192E-10  1.493639E-09
       425  14 -3.131724E+05 -7.266550E+03 -1.609447E+04  6.050229E+04  1.712002E-09 -3.199183E-09
       425  15 -3.157340E+05 -1.198678E+03 -8.809884E+03  6.641661E+04  4.642534E-10 -4.673832E-11
       425  16 -1.219007E+06 -2.526444E+05 -2.440384E+05  8.415362E+04 -2.702088E-09  1.519820E-10
       425  17 -1.150050E+06 -2.066349E+05 -1.755355E+05  6.807961E+04  4.347602E-10 -6.956801E-09
       425  18 -1.092802E+06 -1.835248E+05 -1.426778E+05  6.389397E+04  1.080102E-10 -6.484375E-09
       425  19  5.882200E+05  1.932254E+05  1.782560E+05  4.877151E+04 -4.983421E+04  1.255612E+04
       425  20  5.243823E+05  1.920630E+05  1.433192E+05  5.291342E+04 -2.052547E+04  4.257492E+04
       425  21  4.619284E+05  1.810979E+05  1.250426E+05  6.894255E+04  8.813950E+03  5.168831E+04
       425  22 -3.157710E+05 -2.968129E+04 -3.286473E+04  6.647621E+04  2.294837E+04  1.269340E+04
       425  23 -3.131717E+05 -7.264540E+03 -1.609065E+04  6.050279E+04  1.459694E+04  4.265065E+04
       425  24 -3.157332E+05 -1.195799E+03 -8.804790E+03  6.641687E+04  6.280009E+03  5.168859E+04
       425  25 -1.218997E+06 -2.526418E+05 -2.440209E+05  8.415461E+04  9.562573E+04  1.283493E+04
       425  26 -1.150047E+06 -2.066323E+05 -1.755274E+05  6.808132E+04  4.967312E+04  4.272729E+04
       425  27 -1.092801E+06 -1.835219E+05 -1.426727E+05  6.389412E+04  3.749139E+03  5.168889E+04
       426   1  4.213345E+05  1.708723E+05  1.183359E+05  6.732121E+04 -5.967612E+03 -5.034172E+04
       426   2  3.582116E+05  1.566174E+05  1.072380E+05  6.105684E+04 -7.813179E+03 -4.886804E+04
       426   3  2.952355E+05  1.421060E+05  9.727175E+04  6.809061E+04 -9.664722E+03 -4.535197E+04
       426   4 -3.146850E+05 -1.320439E+03 -6.675506E+03  6.673738E+04 -5.140445E+03 -5.034527E+04
       426   5 -3.144233E+05 -8.595517E+01 -3.668135E+03  6.008597E+04 -3.309180E+03 -4.886230E+04
       426   6 -3.146564E+05  2.537143E+02 -2.082564E+03  6.673360E+04 -1.484012E+03 -4.533580E+04
       426   7 -1.050171E+06 -1.735418E+05 -1.317045E+05  6.615396E+04 -4.314224E+03 -5.034882E+04
       426   8 -9.866108E+05 -1.568126E+05 -1.145876E+05  5.911591E+04  1.190108E+03 -4.885656E+04
       426   9 -9.241795E+05 -1.416175E+05 -1.014471E+05  6.537773E+04  6.688944E+03 -4.531966E+04
       426  10  4.213338E+05  1.708695E+05  1.183310E+05  6.732096E+04 -5.987966E-09 -4.283620E-09
       426  11  3.582109E+05  1.566148E+05  1.072334E+05  6.105654E+04 -3.154058E-09  1.196009E-09
       426  12  2.952348E+05  1.421038E+05  9.726771E+04  6.809026E+04 -1.261216E-09  3.047755E-09
       426  13 -3.146857E+05 -1.323167E+03 -6.680318E+03  6.673717E+04  2.201234E-11 -1.931984E-09
       426  14 -3.144240E+05 -8.852151E+01 -3.672642E+03  6.008584E+04  9.482854E-10  4.529152E-10
       426  15 -3.146569E+05  2.515070E+02 -2.086430E+03  6.673355E+04  5.617634E-10 -2.055191E-09
       426  16 -1.050172E+06 -1.735446E+05 -1.317093E+05  6.615378E+04  7.613949E-09  1.950405E-11
       426  17 -9.866114E+05 -1.568152E+05 -1.145920E+05  5.911595E+04  4.878428E-09  2.176161E-09
       426  18 -9.241801E+05 -1.416197E+05 -1.014511E+05  6.537798E+04  5.044332E-10  1.186164E-09
       426  19  4.213345E+05  1.708723E+05  1.183359E+05  6.732121E+04  5.967612E+03  5.034172E+04
       426  20  3.582116E+05  1.566174E+05  1.072380E+05  6.105684E+04  7.813179E+03  4.886804E+04
       426  21  2.952355E+05  1.421060E+05  9.727175E+04  6.809061E+04  9.664722E+03  4.535197E+04
       426  22 -3.146850E+05 -1.320439E+03 -6.675506E+03  6.673738E+04  5.140445E+03  5.034527E+04
       426  23 -3.144233E+05 -8.595517E+01 -3.668135E+03  6.008597E+04  3.309180E+03  4.886230E+04
       426  24 -3.146564E+05  2.537143E+02 -2.082564E+03  6.673360E+04  1.484012E+03  4.533580E+04
       426  25 -1.050171E+06 -1.735418E+05 -1.317045E+05  6.615396E+04  4.314224E+03  5.034882E+04
       426  26 -9.866108E+05 -1.568126E+05 -1.145876E+05  5.911591E+04 -1.190108E+03  4.885656E+04
       426  27 -9.241795E+05 -1.416175E+05 -1.014471E+05  6.537773E+04 -6.688944E+03  4.531966E+04
       427   1  2.546418E+05  1.325610E+05  9.076301E+04  6.793394E+04 -9.187913E+03 -4.265575E+04
       427   2  1.915589E+05  1.178832E+05  8.099264E+04  6.110418E+04 -9.110938E+03 -3.810352E+04
       427   3  1.284292E+05  1.032866E+05  7.117551E+04  6.772248E+04 -9.036099E+03 -3.335042E+04
       427   4 -3.145625E+05  2.461103E+02 -1.581619E+03  6.676735E+04 -1.171346E+03 -4.263902E+04
       427   5 -3.144950E+05  2.844890E+02 -9.041226E+02  6.004290E+04 -7.333973E+02 -3.808444E+04
       427   6 -3.145411E+05  3.414280E+02 -5.244200E+02  6.676714E+04 -2.975778E+02 -3.332891E+04
       427   7 -8.834454E+05 -1.320852E+05 -9.393499E+04  6.560167E+04  6.838133E+03 -4.262231E+04
       427   8 -8.202946E+05 -1.173272E+05 -8.280766E+04  5.898234E+04  7.637556E+03 -3.806539E+04
       427   9 -7.573165E+05 -1.026136E+05 -7.222945E+04  6.581237E+04  8.434929E+03 -3.330742E+04
       427  10  2.546412E+05  1.325590E+05  9.075943E+04  6.793362E+04 -4.226785E-09  4.030340E-09
       427  11  1.915585E+05  1.178816E+05  8.098976E+04  6.110390E+04 -1.291026E-09  3.348688E-09
       427  12  1.284288E+05  1.032853E+05  7.117326E+04  6.772223E+04  2.353631E-09  4.139809E-10
       427  13 -3.145630E+05  2.441580E+02 -1.585037E+03  6.676731E+04 -5.577914E-10 -2.888124E-09
       427  14 -3.144953E+05  2.829316E+02 -9.068488E+02  6.004287E+04  1.081442E-09  3.031449E-09
       427  15 -3.145414E+05  3.402353E+02 -5.265073E+02  6.676713E+04  2.360267E-11  5.093895E-09
       427  16 -8.834459E+05 -1.320871E+05 -9.393849E+04  6.560190E+04  6.319820E-09  1.176571E-09
       427  17 -8.202951E+05 -1.173287E+05 -8.281049E+04  5.898258E+04  2.780183E-09  4.230667E-09
       427  18 -7.573169E+05 -1.026148E+05 -7.223167E+04  6.581259E+04 -3.683130E-09  8.557039E-10
       427  19  2.546418E+05  1.325610E+05  9.076301E+04  6.793394E+04  9.187913E+03  4.265575E+04
       427  20  1.915589E+05  1.178832E+05  8.099264E+04  6.110418E+04  9.110938E+03  3.810352E+04
       427  21  1.284292E+05  1.032866E+05  7.117551E+04  6.772248E+04  9.036099E+03  3.335042E+04
       427  22 -3.145625E+05  2.461103E+02 -1.581619E+03  6.676735E+04  1.171346E+03  4.263902E+04
       427  23 -3.144950E+05  2.844890E+02 -9.041226E+02  6.004290E+04  7.333973E+02  3.808444E+04
       427  24 -3.145411E+05  3.414280E+02 -5.244200E+02  6.676714E+04  2.975778E+02  3.332891E+04
       427  25 -8.834454E+05 -1.320852E+05 -9.393499E+04  6.560167E+04 -6.838133E+03  4.262231E+04
       427  26 -8.202946E+05 -1.173272E+05 -8.280766E+04  5.898234E+04 -7.637556E+03  3.806539E+04
       427  27 -7.573165E+05 -1.026136E+05 -7.222945E+04  6.581237E+04 -8.434929E+03  3.330742E+04
       428   1  8.781747E+04  9.379984E+04  6.445670E+04  6.764146E+04 -8.945099E+03 -3.052004E+04
       428   2  2.469550E+04  7.912422E+04  5.451077E+04  6.077424E+04 -8.868351E+03 -2.566380E+04
       428   3 -3.849281E+04  6.452762E+04  4.451163E+04  6.737909E+04 -8.792789E+03 -2.078769E+04
       428   4 -3.145264E+05  3.466204E+02 -4.050954E+02  6.677246E+04 -2.207906E+02 -3.049783E+04
       428   5 -3.144805E+05  3.237360E+02 -2.515261E+02  6.003619E+04 -1.088179E+02 -2.564049E+04
       428   6 -3.145121E+05  3.736124E+02 -1.761638E+02  6.677241E+04  1.976780E+00 -2.076328E+04
       428   7 -7.167094E+05 -9.311473E+04 -6.527099E+04  6.590392E+04  8.498065E+03 -3.047564E+04
       428   8 -6.535421E+05 -7.848253E+04 -5.501667E+04  5.929847E+04  8.646099E+03 -2.561720E+04
       428   9 -5.904555E+05 -6.378422E+04 -4.486576E+04  6.616596E+04  8.792970E+03 -2.073887E+04
       428  10  8.781713E+04  9.379882E+04  6.445480E+04  6.764124E+04  1.096176E-08  6.023761E-10
       428  11  2.469524E+04  7.912349E+04  5.450939E+04  6.077405E+04 -2.066166E-08  6.447463E-09
       428  12 -3.849301E+04  6.452713E+04  4.451067E+04  6.737894E+04 -5.006763E-08  3.689806E-09
       428  13 -3.145267E+05  3.456217E+02 -4.068431E+02  6.677245E+04  1.219689E-11  1.901232E-10
       428  14 -3.144807E+05  3.230301E+02 -2.527613E+02  6.003619E+04  8.158024E-10  5.484397E-09
       428  15 -3.145122E+05  3.731496E+02 -1.769738E+02  6.677241E+04  3.099295E-10 -8.653691E-10
       428  16 -7.167097E+05 -9.311575E+04 -6.527287E+04  6.590413E+04 -9.193549E-09  4.202432E-10
       428  17 -6.535424E+05 -7.848325E+04 -5.501804E+04  5.929865E+04  2.239451E-08  1.340707E-09
       428  18 -5.904557E+05 -6.378470E+04 -4.486671E+04  6.616611E+04  4.886270E-08 -9.358742E-10
       428  19  8.781747E+04  9.379984E+04  6.445670E+04  6.764146E+04  8.945099E+03  3.052004E+04
       428  20  2.469550E+04  7.912422E+04  5.451077E+04  6.077424E+04  8.868351E+03  2.566380E+04
       428  21 -3.849281E+04  6.452762E+04  4.451163E+04  6.737909E+04  8.792789E+03  2.078769E+04
       428  22 -3.145264E+05  3.466204E+02 -4.050954E+02  6.677246E+04  2.207906E+02  3.049783E+04
       428  23 -3.144805E+05  3.237360E+02 -2.515261E+02  6.003619E+04  1.088179E+02  2.564049E+04
       428  24 -3.145121E+05  3.736124E+02 -1.761638E+02  6.677241E+04 -1.976780E+00  2.076328E+04
       428  25 -7.167094E+05 -9.311473E+04 -6.527099E+04  6.590392E+04 -8.498065E+03  3.047564E+04
       428  26 -6.535421E+05 -7.848253E+04 -5.501667E+04  5.929847E+04 -8.646099E+03  2.561720E+04
       428  27 -5.904555E+05 -6.378422E+04 -4.486576E+04  6.616596E+04 -8.792970E+03  2.073887E+04
       429   1 -7.913171E+04  5.503841E+04  3.769932E+04  6.729306E+04 -8.770226E+03 -1.794280E+04
       429   2 -1.422732E+05  4.035556E+04  2.761660E+04  6.040734E+04 -8.688963E+03 -1.305904E+04
       429   3 -2.054969E+05  2.574569E+04  1.747209E+04  6.700439E+04 -8.608262E+03 -8.181446E+03
       429   4 -3.145094E+05  3.787960E+02 -1.615302E+02  6.677474E+04  2.474949E+01 -1.791794E+04
       429   5 -3.144640E+05  3.503118E+02 -1.687748E+02  6.003323E+04  9.452277E+01 -1.303370E+04
       429   6 -3.145021E+05  3.971692E+02 -2.297484E+02  6.677471E+04  1.637426E+02 -8.155624E+03
       429   7 -5.498318E+05 -5.428357E+04 -3.802358E+04  6.625658E+04  8.816509E+03 -1.789308E+04
       429   8 -4.866253E+05 -3.965640E+04 -2.795466E+04  5.965921E+04  8.875658E+03 -1.300836E+04
       429   9 -4.234953E+05 -2.495191E+04 -1.793162E+04  6.654506E+04  8.934261E+03 -8.129805E+03
       429  10 -7.913188E+04  5.503804E+04  3.769857E+04  6.729294E+04  5.841293E-08 -3.248631E-10
       429  11 -1.422733E+05  4.035536E+04  2.761614E+04  6.040725E+04  2.178032E-08 -1.534384E-09
       429  12 -2.054970E+05  2.574560E+04  1.747182E+04  6.700434E+04 -1.709964E-08 -1.519363E-09
       429  13 -3.145094E+05  3.784513E+02 -1.621334E+02  6.677474E+04  2.490150E-10  5.096475E-09
       429  14 -3.144641E+05  3.501294E+02 -1.690940E+02  6.003323E+04  1.276545E-09 -6.639475E-10
       429  15 -3.145021E+05  3.970978E+02 -2.298734E+02  6.677471E+04  4.322758E-10 -2.952747E-09
       429  16 -5.498320E+05 -5.428394E+04 -3.802433E+04  6.625671E+04 -5.598353E-08  1.560498E-09
       429  17 -4.866255E+05 -3.965660E+04 -2.795513E+04  5.965930E+04 -1.936936E-08 -2.278957E-09
       429  18 -4.234954E+05 -2.495200E+04 -1.793190E+04  6.654511E+04  1.568786E-08 -2.431408E-09
       429  19 -7.913171E+04  5.503841E+04  3.769932E+04  6.729306E+04  8.770226E+03  1.794280E+04
       429  20 -1.422732E+05  4.035556E+04  2.761660E+04  6.040734E+04  8.688963E+03  1.305904E+04
       429  21 -2.054969E+05  2.574569E+04  1.747209E+04  6.700439E+04  8.608262E+03  8.181446E+03
       429  22 -3.145094E+05  3.787960E+02 -1.615302E+02  6.677474E+04 -2.474949E+01  1.791794E+04
       429  23 -3.144640E+05  3.503118E+02 -1.687748E+02  6.003323E+04 -9.452277E+01  1.303370E+04
       429  24 -3.145021E+05  3.971692E+02 -2.297484E+02  6.677471E+04 -1.637426E+02  8.155624E+03
       429  25 -5.498318E+05 -5.428357E+04 -3.802358E+04  6.625658E+04 -8.816509E+03  1.789308E+04
       429  26 -4.866253E+05 -3.965640E+04 -2.795466E+04  5.965921E+04 -8.875658E+03  1.300836E+04
       429  27 -4.234953E+05 -2.495191E+04 -1.793162E+04  6.654506E+04 -8.934261E+03  8.129805E+03
       430   1 -2.461542E+05  1.624969E+04  1.058055E+04  6.690435E+04 -8.577404E+03 -5.339700E+03
       430   2 -3.092743E+05  1.546898E+03  2.614374E+02  6.001515E+04 -8.198038E+03 -5.039450E+02
       430   3 -3.725317E+05 -1.313481E+04 -1.032766E+04  6.660502E+04 -7.818480E+03  4.243000E+03
       430   4 -3.145074E+05  4.011021E+02 -2.857796E+02  6.677381E+04  2.019090E+02 -5.313699E+03
       430   5 -3.144506E+05  3.649758E+02 -4.710706E+02  6.003432E+04  4.210516E+02 -4.784043E+02
       430   6 -3.145072E+05  3.778942E+02 -8.152192E+02  6.677388E+04  6.404242E+02  4.268083E+03
       430   7 -3.828557E+05 -1.544768E+04 -1.115193E+04  6.664328E+04  8.980290E+03 -5.287701E+03
       430   8 -3.196266E+05 -8.169076E+02 -1.203300E+03  6.005349E+04  9.040072E+03 -4.528629E+02
       430   9 -2.564792E+05  1.389047E+04  8.697394E+03  6.694276E+04  9.100092E+03  4.293169E+03
       430  10 -2.461543E+05  1.624964E+04  1.058035E+04  6.690431E+04 -6.006105E-09  5.198398E-09
       430  11 -3.092744E+05  1.546880E+03  2.613105E+02  6.001515E+04  7.153352E-09  3.634229E-09
       430  12 -3.725317E+05 -1.313485E+04 -1.032781E+04  6.660504E+04  1.946207E-08  3.383612E-09
       430  13 -3.145074E+05  4.010718E+02 -2.858327E+02  6.677381E+04  6.833509E-12  9.648006E-10
       430  14 -3.144506E+05  3.649755E+02 -4.710714E+02  6.003432E+04  1.661690E-09  2.854847E-09
       430  15 -3.145072E+05  3.778746E+02 -8.152542E+02  6.677388E+04  9.545827E-11  4.186652E-09
       430  16 -3.828558E+05 -1.544773E+04 -1.115214E+04  6.664332E+04  8.511199E-09  3.041064E-09
       430  17 -3.196267E+05 -8.169298E+02 -1.203454E+03  6.005349E+04 -4.772386E-09 -5.047057E-09
       430  18 -2.564793E+05  1.389042E+04  8.697204E+03  6.694273E+04 -2.050930E-08  1.567923E-09
       430  19 -2.461542E+05  1.624969E+04  1.058055E+04  6.690435E+04  8.577404E+03  5.339700E+03
       430  20 -3.092743E+05  1.546898E+03  2.614374E+02  6.001515E+04  8.198038E+03  5.039450E+02
       430  21 -3.725317E+05 -1.313481E+04 -1.032766E+04  6.660502E+04  7.818480E+03 -4.243000E+03
       430  22 -3.145074E+05  4.011021E+02 -2.857796E+02  6.677381E+04 -2.019090E+02  5.313699E+03
       430  23 -3.144506E+05  3.649758E+02 -4.710706E+02  6.003432E+04 -4.210516E+02  4.784043E+02
       430  24 -3.145072E+05  3.778942E+02 -8.152192E+02  6.677388E+04 -6.404242E+02 -4.268083E+03
       430  25 -3.828557E+05 -1.544768E+04 -1.115193E+04  6.664328E+04 -8.980290E+03  5.287701E+03
       430  26 -3.196266E+05 -8.169076E+02 -1.203300E+03  6.005349E+04 -9.040072E+03  4.528629E+02
       430  27 -2.564792E+05  1.389047E+04  8.697394E+03  6.694276E+04 -9.100092E+03 -4.293169E+03
       431   1 -4.132680E+05 -2.265155E+04 -1.749938E+04  6.642851E+04 -7.736712E+03  7.026408E+03
       431   2 -4.761478E+05 -3.759887E+04 -2.905225E+04  5.981016E+04 -5.167701E+03  1.132047E+04
       431   3 -5.396267E+05 -5.325111E+04 -4.248098E+04  6.660909E+04 -2.595992E+03  1.470151E+04
       431   4 -3.145540E+05  3.867154E+02 -1.071209E+03  6.675978E+04  7.960673E+02  7.051576E+03
       431   5 -3.143983E+05  2.006421E+02 -1.880190E+03  6.005240E+04  1.722431E+03  1.134038E+04
       431   6 -3.145611E+05 -4.049776E+02 -3.423900E+03  6.676209E+04  2.651766E+03  1.471628E+04
       431   7 -2.158303E+05  2.342451E+04  1.535694E+04  6.709110E+04  9.330158E+03  7.076751E+03
       431   8 -1.526229E+05  3.799881E+04  2.529123E+04  6.029468E+04  8.614300E+03  1.136030E+04
       431   9 -8.944570E+04  5.243843E+04  3.563151E+04  6.691510E+04  7.901370E+03  1.473106E+04
       431  10 -4.132680E+05 -2.265162E+04 -1.749958E+04  6.642856E+04 -2.681559E-08  6.192304E-09
       431  11 -4.761478E+05 -3.759902E+04 -2.905254E+04  5.981021E+04 -7.452475E-09  9.312432E-10
       431  12 -5.396267E+05 -5.325134E+04 -4.248140E+04  6.660912E+04  1.165864E-08  5.081927E-09
       431  13 -3.145540E+05  3.866618E+02 -1.071304E+03  6.675978E+04  1.525023E-11  5.528270E-09
       431  14 -3.143983E+05  2.005032E+02 -1.880437E+03  6.005238E+04  1.515102E-09  2.957540E-09
       431  15 -3.145611E+05 -4.052120E+02 -3.424320E+03  6.676205E+04  7.553526E-10 -3.437936E-09
       431  16 -2.158304E+05  2.342443E+04  1.535668E+04  6.709105E+04  2.908861E-08  3.967300E-09
       431  17 -1.526230E+05  3.799865E+04  2.529085E+04  6.029461E+04  1.096150E-08  1.290538E-10
       431  18 -8.944583E+04  5.243818E+04  3.563099E+04  6.691501E+04 -1.249335E-08 -8.016920E-09
       431  19 -4.132680E+05 -2.265155E+04 -1.749938E+04  6.642851E+04  7.736712E+03 -7.026408E+03
       431  20 -4.761478E+05 -3.759887E+04 -2.905225E+04  5.981016E+04  5.167701E+03 -1.132047E+04
       431  21 -5.396267E+05 -5.325111E+04 -4.248098E+04  6.660909E+04  2.595992E+03 -1.470151E+04
       431  22 -3.145540E+05  3.867154E+02 -1.071209E+03  6.675978E+04 -7.960673E+02 -7.051576E+03
       431  23 -3.143983E+05  2.006421E+02 -1.880190E+03  6.005240E+04 -1.722431E+03 -1.134038E+04
       431  24 -3.145611E+05 -4.049776E+02 -3.423900E+03  6.676209E+04 -2.651766E+03 -1.471628E+04
       431  25 -2.158303E+05  2.342451E+04  1.535694E+04  6.709110E+04 -9.330158E+03 -7.076751E+03
       431  26 -1.526229E+05  3.799881E+04  2.529123E+04  6.029468E+04 -8.614300E+03 -1.136030E+04
       431  27 -8.944570E+04  5.243843E+04  3.563151E+04  6.691510E+04 -7.901370E+03 -1.473106E+04
       432   1 -5.812817E+05 -6.296702E+04 -5.130831E+04  6.539710E+04 -2.778896E+03  1.687932E+04
       432   2 -6.417014E+05 -8.183447E+04 -7.205300E+04  6.409958E+04  1.829499E+04  1.560411E+04
       432   3 -7.077644E+05 -1.119925E+05 -1.093625E+05  7.559798E+04  3.939131E+04  4.975804E+03
       432   4 -3.150987E+05 -3.379720E+02 -4.516300E+03  6.661909E+04  3.231152E+03  1.689600E+04
       432   5 -3.137459E+05 -3.474734E+03 -8.250048E+03  6.024158E+04  7.485180E+03  1.557281E+04
       432   6 -3.151145E+05 -1.497658E+04 -1.685881E+04  6.666020E+04  1.176382E+04  4.898453E+03
       432   7 -4.884627E+04  6.228722E+04  4.227328E+04  6.784156E+04  9.243703E+03  1.691269E+04
       432   8  1.431322E+04  7.487869E+04  5.554826E+04  5.638143E+04 -3.330220E+03  1.554166E+04
       432   9  7.767924E+04  8.202906E+04  7.563721E+04  5.771663E+04 -1.588107E+04  4.821924E+03
       432  10 -5.812817E+05 -6.296732E+04 -5.130886E+04  6.539714E+04 -4.721209E-09  2.384646E-09
       432  11 -6.417018E+05 -8.183482E+04 -7.205409E+04  6.409935E+04 -3.082198E-09 -3.610731E-09
       432  12 -7.077661E+05 -1.119930E+05 -1.093655E+05  7.559782E+04 -1.571866E-09 -7.633775E-10
       432  13 -3.150988E+05 -3.382813E+02 -4.516856E+03  6.661904E+04 -2.393588E-10  3.756678E-09
       432  14 -3.137460E+05 -3.475010E+03 -8.250609E+03  6.024149E+04  1.834641E-09 -7.830059E-09
       432  15 -3.151147E+05 -1.497665E+04 -1.685912E+04  6.666015E+04  4.193011E-11  2.719987E-09
       432  16 -4.884644E+04  6.228689E+04  4.227258E+04  6.784144E+04  6.327761E-09 -1.916767E-09
       432  17  1.431314E+04  7.487843E+04  5.554779E+04  5.638147E+04  4.713564E-09  1.689883E-10
       432  18  7.767896E+04  8.202897E+04  7.563669E+04  5.771669E+04  1.713187E-10 -8.447268E-10
       432  19 -5.812817E+05 -6.296702E+04 -5.130831E+04  6.539710E+04  2.778896E+03 -1.687932E+04
       432  20 -6.417014E+05 -8.183447E+04 -7.205300E+04  6.409958E+04 -1.829499E+04 -1.560411E+04
       432  21 -7.077644E+05 -1.119925E+05 -1.093625E+05  7.559798E+04 -3.939131E+04 -4.975804E+03
       432  22 -3.150987E+05 -3.379720E+02 -4.516300E+03  6.661909E+04 -3.231152E+03 -1.689600E+04
       432  23 -3.137459E+05 -3.474734E+03 -8.250048E+03  6.024158E+04 -7.485180E+03 -1.557281E+04
       432  24 -3.151145E+05 -1.497658E+04 -1.685881E+04  6.666020E+04 -1.176382E+04 -4.898453E+03
       432  25 -4.884627E+04  6.228722E+04  4.227328E+04  6.784156E+04 -9.243703E+03 -1.691269E+04
       432  26  1.431322E+04  7.487869E+04  5.554826E+04  5.638143E+04  3.330220E+03 -1.554166E+04
       432  27  7.767924E+04  8.202906E+04  7.563721E+04  5.771663E+04  1.588107E+04 -4.821924E+03
       433   1 -1.952736E+05  4.860906E+04  2.797488E+04 -8.658598E+03 -5.485361E+04 -5.678901E+03
       433   2 -2.198603E+05  1.232087E+05  6.743371E+04 -9.224280E+02 -3.933437E+04 -1.696729E+04
       433   3 -2.683580E+05  1.101935E+05  7.491047E+04  2.941198E+04 -2.384957E+04 -1.633796E+04
       433   4 -6.967387E+05 -7.620443E+04 -9.525611E+04  1.777042E+04 -6.518823E+04 -5.710005E+03
       433   5 -6.841354E+05  8.458715E+03 -4.209890E+04  6.355844E+03 -4.253611E+04 -1.697819E+04
       433   6 -6.967036E+05  4.230915E+03 -2.589912E+04  1.754118E+04 -1.991720E+04 -1.632565E+04
       433   7 -1.197973E+06 -2.010338E+05 -2.185048E+05  4.417789E+04 -7.551449E+04 -5.742003E+03
       433   8 -1.148212E+06 -1.063065E+05 -1.516463E+05  1.362849E+04 -4.573546E+04 -1.698917E+04
       433   9 -1.124880E+06 -1.017442E+05 -1.267212E+05  5.678479E+03 -1.598752E+04 -1.631349E+04
       433  10 -1.952769E+05  4.860822E+04  2.796916E+04 -8.658848E+03 -5.259441E-09  1.664036E-09
       433  11 -2.198620E+05  1.232080E+05  6.743026E+04 -9.229655E+02  1.582263E-09  8.342156E-09
       433  12 -2.683587E+05  1.101930E+05  7.490890E+04  2.941166E+04  6.186716E-10  4.153351E-09
       433  13 -6.967433E+05 -7.620560E+04 -9.526417E+04  1.777012E+04 -1.993535E-11 -5.295911E-09
       433  14 -6.841374E+05  8.457919E+03 -4.210285E+04  6.355262E+03  2.677849E-09 -7.112524E-09
       433  15 -6.967041E+05  4.230523E+03 -2.590037E+04  1.754091E+04 -1.345154E-10 -6.119314E-10
       433  16 -1.197979E+06 -2.010354E+05 -2.185156E+05  4.417754E+04  5.195625E-09 -5.285183E-10
       433  17 -1.148214E+06 -1.063074E+05 -1.516508E+05  1.362787E+04 -1.725777E-09  3.202716E-09
       433  18 -1.124880E+06 -1.017446E+05 -1.267222E+05  5.678269E+03 -1.369487E-09 -1.422297E-09
       433  19 -1.952736E+05  4.860906E+04  2.797488E+04 -8.658598E+03  5.485361E+04  5.678901E+03
       433  20 -2.198603E+05  1.232087E+05  6.743371E+04 -9.224280E+02  3.933437E+04  1.696729E+04
       433  21 -2.683580E+05  1.101935E+05  7.491047E+04  2.941198E+04  2.384957E+04  1.633796E+04
       433  22 -6.967387E+05 -7.620443E+04 -9.525611E+04  1.777042E+04  6.518823E+04  5.710005E+03
       433  23 -6.841354E+05  8.458715E+03 -4.209890E+04  6.355844E+03  4.253611E+04  1.697819E+04
       433  24 -6.967036E+05  4.230915E+03 -2.589912E+04  1.754118E+04  1.991720E+04  1.632565E+04
       433  25 -1.197973E+06 -2.010338E+05 -2.185048E+05  4.417789E+04  7.551449E+04  5.742003E+03
       433  26 -1.148212E+06 -1.063065E+05 -1.516463E+05  1.362849E+04  4.573546E+04  1.698917E+04
       433  27 -1.124880E+06 -1.017442E+05 -1.267212E+05  5.678479E+03  1.598752E+04  1.631349E+04
       434   1 -3.047885E+05  8.886082E+04  7.040446E+04  1.658664E+04 -1.630301E+04 -1.379018E+04
       434   2 -3.406516E+05  8.730870E+04  7.154309E+04  6.470941E+03 -1.119385E+04 -1.290464E+04
       434   3 -3.792734E+05  7.780096E+04  6.734417E+04  1.972334E+04 -6.088507E+03 -1.128624E+04
       434   4 -6.917379E+05 -6.841448E+03 -2.101734E+04  1.779906E+04 -1.599518E+04 -1.378979E+04
       434   5 -6.903137E+05  8.503652E+02 -1.089596E+04  6.101980E+03 -1.044960E+04 -1.290253E+04
       434   6 -6.917277E+05  5.079556E+02 -6.418009E+03  1.777394E+04 -4.907544E+03 -1.128225E+04
       434   7 -1.078550E+06 -1.025544E+05 -1.124495E+05  1.901060E+04 -1.568753E+04 -1.378939E+04
       434   8 -1.039863E+06 -8.561671E+04 -9.334345E+04  5.733129E+03 -9.705768E+03 -1.290042E+04
       434   9 -1.004092E+06 -7.679203E+04 -8.018693E+04  1.582545E+04 -3.727172E+03 -1.127827E+04
       434  10 -3.047888E+05  8.886054E+04  7.040360E+04  1.658646E+04 -2.994939E-09 -2.131414E-09
       434  11 -3.406518E+05  8.730848E+04  7.154255E+04  6.470824E+03  1.402799E-09 -1.883440E-09
       434  12 -3.792734E+05  7.780081E+04  6.734386E+04  1.972328E+04  1.900373E-09  8.979844E-09
       434  13 -6.917382E+05 -6.841721E+03 -2.101818E+04  1.779888E+04 -5.465510E-10  1.079456E-08
       434  14 -6.903139E+05  8.501571E+02 -1.089648E+04  6.101871E+03  3.259808E-09 -2.552280E-08
       434  15 -6.917278E+05  5.078125E+02 -6.418294E+03  1.777390E+04 -6.886963E-10  8.982425E-09
       434  16 -1.078550E+06 -1.025547E+05 -1.124503E+05  1.901043E+04  3.778843E-09 -9.414163E-09
       434  17 -1.039863E+06 -8.561692E+04 -9.334394E+04  5.733029E+03 -9.218262E-10 -5.617974E-09
       434  18 -1.004092E+06 -7.679217E+04 -8.018720E+04  1.582542E+04 -2.979658E-09  4.558140E-09
       434  19 -3.047885E+05  8.886082E+04  7.040446E+04  1.658664E+04  1.630301E+04  1.379018E+04
       434  20 -3.406516E+05  8.730870E+04  7.154309E+04  6.470941E+03  1.119385E+04  1.290464E+04
       434  21 -3.792734E+05  7.780096E+04  6.734417E+04  1.972334E+04  6.088507E+03  1.128624E+04
       434  22 -6.917379E+05 -6.841448E+03 -2.101734E+04  1.779906E+04  1.599518E+04  1.378979E+04
       434  23 -6.903137E+05  8.503652E+02 -1.089596E+04  6.101980E+03  1.044960E+04  1.290253E+04
       434  24 -6.917277E+05  5.079556E+02 -6.418009E+03  1.777394E+04  4.907544E+03  1.128225E+04
       434  25 -1.078550E+06 -1.025544E+05 -1.124495E+05  1.901060E+04  1.568753E+04  1.378939E+04
       434  26 -1.039863E+06 -8.561671E+04 -9.334345E+04  5.733129E+03  9.705768E+03  1.290042E+04
       434  27 -1.004092E+06 -7.679203E+04 -8.018693E+04  1.582545E+04  3.727172E+03  1.127827E+04
       435   1 -4.209688E+05  6.631912E+04  5.861491E+04  1.852806E+04 -4.871864E+03 -1.021264E+04
       435   2 -4.585886E+05  5.759397E+04  5.198608E+04  6.659065E+03 -3.512027E+03 -8.572604E+03
       435   3 -4.967127E+05  4.830619E+04  4.428993E+04  1.857928E+04 -2.153168E+03 -6.880443E+03
       435   4 -6.912045E+05 -4.868907E+02 -5.003560E+03  1.787678E+04 -3.905957E+03 -1.020929E+04
       435   5 -6.909467E+05  1.332619E+02 -2.797427E+03  5.980573E+03 -2.515428E+03 -8.568949E+03
       435   6 -6.911996E+05  1.854818E+02 -1.680103E+03  1.787414E+04 -1.125794E+03 -6.876466E+03
       435   7 -9.613729E+05 -6.729812E+04 -6.862705E+04  1.722571E+04 -2.940467E+03 -1.020595E+04
       435   8 -9.232551E+05 -5.733131E+04 -5.758466E+04  5.302289E+03 -1.519199E+03 -8.565295E+03
       435   9 -8.856517E+05 -4.793794E+04 -4.765275E+04  1.716918E+04 -9.874053E+01 -6.872490E+03
       435  10 -4.209689E+05  6.631900E+04  5.861467E+04  1.852802E+04  4.958878E-09 -2.632365E-09
       435  11 -4.585886E+05  5.759389E+04  5.198592E+04  6.659040E+03 -2.566221E-10 -4.268436E-09
       435  12 -4.967127E+05  4.830614E+04  4.428983E+04  1.857927E+04 -7.746858E-09 -4.365020E-09
       435  13 -6.912045E+05 -4.870067E+02 -5.003785E+03  1.787674E+04  6.324431E-11  9.879867E-10
       435  14 -6.909467E+05  1.331814E+02 -2.797577E+03  5.980556E+03  1.941276E-09 -7.256814E-09
       435  15 -6.911996E+05  1.854307E+02 -1.680195E+03  1.787413E+04  8.629972E-10 -5.165286E-09
       435  16 -9.613729E+05 -6.729823E+04 -6.862726E+04  1.722569E+04 -4.445543E-09 -4.293052E-09
       435  17 -9.232551E+05 -5.733139E+04 -5.758480E+04  5.302279E+03  7.195102E-10  3.075157E-09
       435  18 -8.856517E+05 -4.793799E+04 -4.765284E+04  1.716918E+04  7.025860E-09  1.183706E-08
       435  19 -4.209688E+05  6.631912E+04  5.861491E+04  1.852806E+04  4.871864E+03  1.021264E+04
       435  20 -4.585886E+05  5.759397E+04  5.198608E+04  6.659065E+03  3.512027E+03  8.572604E+03
       435  21 -4.967127E+05  4.830619E+04  4.428993E+04  1.857928E+04  2.153168E+03  6.880443E+03
       435  22 -6.912045E+05 -4.868907E+02 -5.003560E+03  1.787678E+04  3.905957E+03  1.020929E+04
       435  23 -6.909467E+05  1.332619E+02 -2.797427E+03  5.980573E+03  2.515428E+03  8.568949E+03
       435  24 -6.911996E+05  1.854818E+02 -1.680103E+03  1.787414E+04  1.125794E+03  6.876466E+03
       435  25 -9.613729E+05 -6.729812E+04 -6.862705E+04  1.722571E+04  2.940467E+03  1.020595E+04
       435  26 -9.232551E+05 -5.733131E+04 -5.758466E+04  5.302289E+03  1.519199E+03  8.565295E+03
       435  27 -8.856517E+05 -4.793794E+04 -4.765275E+04  1.716918E+04  9.874053E+01  6.872490E+03
       436   1 -5.394519E+05  3.759093E+04  3.431235E+04  1.839831E+04 -1.875749E+03 -5.885583E+03
       436   2 -5.775761E+05  2.812427E+04  2.583816E+04  6.270539E+03 -1.436673E+03 -4.184849E+03
       436   3 -6.159625E+05  1.877651E+04  1.705612E+04  1.817238E+04 -9.980071E+02 -2.477454E+03
       436   4 -6.911409E+05  9.976188E+01 -1.340074E+03  1.792841E+04 -8.589349E+02 -5.881549E+03
       436   5 -6.910077E+05  7.109517E+01 -9.076218E+02  5.913325E+03 -4.159861E+02 -4.180704E+03
       436   6 -6.911387E+05  1.607453E+02 -7.857080E+02  1.792811E+04  2.657867E+01 -2.473193E+03
       436   7 -8.428087E+05 -3.739305E+04 -3.699407E+04  1.745861E+04  1.576326E+02 -5.877516E+03
       436   8 -8.044274E+05 -2.798300E+04 -2.765429E+04  5.556164E+03  6.045149E+02 -4.176560E+03
       436   9 -7.663098E+05 -1.845542E+04 -1.862792E+04  1.768386E+04  1.051041E+03 -2.468932E+03
       436  10 -5.394520E+05  3.759090E+04  3.431227E+04  1.839830E+04  1.156374E-08 -8.452573E-09
       436  11 -5.775761E+05  2.812425E+04  2.583813E+04  6.270535E+03  1.786309E-09  2.953944E-09
       436  12 -6.159625E+05  1.877650E+04  1.705610E+04  1.817238E+04 -1.388007E-08  8.966467E-10
       436  13 -6.911409E+05  9.972455E+01 -1.340141E+03  1.792841E+04  2.171398E-10  2.352942E-09
       436  14 -6.910077E+05  7.107637E+01 -9.076550E+02  5.913323E+03  2.742467E-09 -2.838787E-09
       436  15 -6.911387E+05  1.607387E+02 -7.857195E+02  1.792811E+04  5.933882E-10 -5.928841E-09
       436  16 -8.428087E+05 -3.739309E+04 -3.699413E+04  1.745862E+04 -1.068948E-08  9.763444E-09
       436  17 -8.044274E+05 -2.798301E+04 -2.765432E+04  5.556166E+03 -1.256431E-09  1.426132E-08
       436  18 -7.663098E+05 -1.845543E+04 -1.862794E+04  1.768387E+04  1.301311E-08  7.251568E-09
       436  19 -5.394519E+05  3.759093E+04  3.431235E+04  1.839831E+04  1.875749E+03  5.885583E+03
       436  20 -5.775761E+05  2.812427E+04  2.583816E+04  6.270539E+03  1.436673E+03  4.184849E+03
       436  21 -6.159625E+05  1.877651E+04  1.705612E+04  1.817238E+04  9.980071E+02  2.477454E+03
       436  22 -6.911409E+05  9.976188E+01 -1.340074E+03  1.792841E+04  8.589349E+02  5.881549E+03
       436  23 -6.910077E+05  7.109518E+01 -9.076218E+02  5.913325E+03  4.159861E+02  4.180704E+03
       436  24 -6.911387E+05  1.607453E+02 -7.857080E+02  1.792811E+04 -2.657867E+01  2.473193E+03
       436  25 -8.428087E+05 -3.739305E+04 -3.699407E+04  1.745861E+04 -1.576326E+02  5.877516E+03
       436  26 -8.044274E+05 -2.798300E+04 -2.765429E+04  5.556164E+03 -6.045149E+02  4.176560E+03
       436  27 -7.663098E+05 -1.845542E+04 -1.862792E+04  1.768386E+04 -1.051041E+03  2.468932E+03
       437   1 -6.590451E+05  8.077731E+03  6.636892E+03  1.803060E+04 -8.582487E+02 -1.481569E+03
       437   2 -6.972706E+05 -1.473955E+03 -2.549923E+03  5.859127E+03 -3.333733E+02  2.297020E+02
       437   3 -7.357887E+05 -1.092455E+04 -1.210833E+04  1.779262E+04  1.914903E+02  1.938805E+03
       437   4 -6.911442E+05  1.620285E+02 -8.166591E+02  1.794476E+04  1.670022E+02 -1.477274E+03
       437   5 -6.909972E+05  7.780923E+01 -1.070570E+03  5.892425E+03  6.905440E+02  2.339833E+02
       437   6 -6.911445E+05  9.487416E+01 -1.695208E+03  1.794503E+04  1.214106E+03  1.943078E+03
       437   7 -7.232423E+05 -7.753746E+03 -8.270275E+03  1.785892E+04  1.192200E+03 -1.472980E+03
       437   8 -6.847237E+05  1.629571E+03  4.087838E+02  5.925724E+03  1.714472E+03  2.382647E+02
       437   9 -6.464984E+05  1.111416E+04  8.717786E+03  1.809746E+04  2.236796E+03  1.947352E+03
       437  10 -6.590451E+05  8.077729E+03  6.636886E+03  1.803060E+04 -4.332365E-09 -2.969615E-10
       437  11 -6.972706E+05 -1.473955E+03 -2.549923E+03  5.859127E+03  1.834608E-09 -5.372937E-09
       437  12 -7.357887E+05 -1.092455E+04 -1.210834E+04  1.779262E+04 -7.672651E-09 -1.915123E-09
       437  13 -6.911442E+05  1.620261E+02 -8.166633E+02  1.794476E+04 -2.705156E-10  1.030628E-08
       437  14 -6.909972E+05  7.780904E+01 -1.070571E+03  5.892425E+03  1.986351E-09 -6.925778E-10
       437  15 -6.911445E+05  9.486971E+01 -1.695218E+03  1.794503E+04  2.628115E-10 -5.034910E-10
       437  16 -7.232423E+05 -7.753749E+03 -8.270282E+03  1.785892E+04  3.615796E-09  3.584377E-09
       437  17 -6.847237E+05  1.629570E+03  4.087782E+02  5.925724E+03 -1.970953E-10 -1.598328E-08
       437  18 -6.464984E+05  1.111415E+04  8.717770E+03  1.809746E+04  6.692196E-09 -1.162599E-08
       437  19 -6.590451E+05  8.077731E+03  6.636892E+03  1.803060E+04  8.582487E+02  1.481569E+03
       437  20 -6.972706E+05 -1.473955E+03 -2.549923E+03  5.859127E+03  3.333733E+02 -2.297020E+02
       437  21 -7.357887E+05 -1.092455E+04 -1.210833E+04  1.779262E+04 -1.914903E+02 -1.938805E+03
       437  22 -6.911442E+05  1.620285E+02 -8.166591E+02  1.794476E+04 -1.670022E+02  1.477274E+03
       437  23 -6.909972E+05  7.780923E+01 -1.070570E+03  5.892425E+03 -6.905440E+02 -2.339833E+02
       437  24 -6.911445E+05  9.487416E+01 -1.695208E+03  1.794503E+04 -1.214106E+03 -1.943078E+03
       437  25 -7.232423E+05 -7.753746E+03 -8.270275E+03  1.785892E+04 -1.192200E+03  1.472980E+03
       437  26 -6.847237E+05  1.629571E+03  4.087838E+02  5.925724E+03 -1.714472E+03 -2.382647E+02
       437  27 -6.464984E+05  1.111416E+04  8.717786E+03  1.809746E+04 -2.236796E+03 -1.947352E+03
       438   1 -7.789301E+05 -2.151059E+04 -2.296013E+04  1.749159E+04  5.238868E+02  2.939192E+03
       438   2 -8.168170E+05 -3.097414E+04 -3.335030E+04  5.528969E+03  2.365359E+03  4.648743E+03
       438   3 -8.553770E+05 -4.124198E+04 -4.519277E+04  1.757820E+04  4.207297E+03  6.318607E+03
       438   4 -6.912294E+05  2.062430E+02 -2.163536E+03  1.792301E+04  1.556100E+03  2.943467E+03
       438   5 -6.908962E+05  1.722665E+02 -3.655127E+03  5.919016E+03  3.374100E+03  4.652810E+03
       438   6 -6.912326E+05 -6.615103E+02 -6.582213E+03  1.792658E+04  5.192678E+03  6.322475E+03
       438   7 -6.035215E+05  2.192252E+04  1.863253E+04  1.835448E+04  2.588457E+03  2.947744E+03
       438   8 -5.649608E+05  3.131754E+04  2.603896E+04  6.309128E+03  4.383045E+03  4.656878E+03
       438   9 -5.270635E+05  3.991704E+04  3.202650E+04  1.827503E+04  6.178319E+03  6.326343E+03
       438  10 -7.789301E+05 -2.151060E+04 -2.296015E+04  1.749159E+04 -9.055001E-09  2.381100E-10
       438  11 -8.168170E+05 -3.097417E+04 -3.335035E+04  5.528960E+03 -4.828414E-09 -1.123821E-08
       438  12 -8.553770E+05 -4.124203E+04 -4.519288E+04  1.757817E+04 -8.316928E-09 -5.879795E-10
       438  13 -6.912294E+05  2.062330E+02 -2.163557E+03  1.792300E+04 -1.349915E-10  2.190521E-10
       438  14 -6.908962E+05  1.722402E+02 -3.655189E+03  5.919003E+03  2.182486E-09  2.487433E-09
       438  15 -6.912327E+05 -6.615605E+02 -6.582339E+03  1.792655E+04 -5.068733E-13  3.115519E-09
       438  16 -6.035216E+05  2.192251E+04  1.863250E+04  1.835447E+04  8.191436E-09  5.773873E-09
       438  17 -5.649609E+05  3.131751E+04  2.603888E+04  6.309111E+03  6.691777E-09 -8.449925E-09
       438  18 -5.270635E+05  3.991698E+04  3.202635E+04  1.827499E+04  7.300079E-09  4.704036E-09
       438  19 -7.789301E+05 -2.151059E+04 -2.296013E+04  1.749159E+04 -5.238868E+02 -2.939192E+03
       438  20 -8.168170E+05 -3.097414E+04 -3.335030E+04  5.528969E+03 -2.365359E+03 -4.648743E+03
       438  21 -8.553770E+05 -4.124198E+04 -4.519277E+04  1.757820E+04 -4.207297E+03 -6.318607E+03
       438  22 -6.912294E+05  2.062430E+02 -2.163536E+03  1.792301E+04 -1.556100E+03 -2.943467E+03
       438  23 -6.908962E+05  1.722665E+02 -3.655127E+03  5.919016E+03 -3.374100E+03 -4.652810E+03
       438  24 -6.912326E+05 -6.615103E+02 -6.582213E+03  1.792658E+04 -5.192678E+03 -6.322475E+03
       438  25 -6.035215E+05  2.192252E+04  1.863253E+04  1.835448E+04 -2.588457E+03 -2.947744E+03
       438  26 -5.649608E+05  3.131754E+04  2.603896E+04  6.309128E+03 -4.383045E+03 -4.656878E+03
       438  27 -5.270635E+05  3.991704E+04  3.202650E+04  1.827503E+04 -6.178319E+03 -6.326343E+03
       439   1 -8.988046E+05 -5.055787E+04 -5.734648E+04  1.581176E+04  5.353224E+03  7.386492E+03
       439   2 -9.347064E+05 -5.938375E+04 -7.206287E+04  6.013142E+03  1.300860E+04  9.053875E+03
       439   3 -9.744632E+05 -7.891432E+04 -9.448482E+04  1.997499E+04  2.066640E+04  1.013212E+04
       439   4 -6.919305E+05  6.488696E+02 -8.454936E+03  1.785720E+04  6.512484E+03  7.390960E+03
       439   5 -6.900385E+05  1.132280E+03 -1.435715E+04  5.995549E+03  1.381735E+04  9.056736E+03
       439   6 -6.919402E+05 -9.025467E+03 -2.771889E+04  1.789391E+04  2.112510E+04  1.013343E+04
       439   7 -4.850169E+05  5.185255E+04  4.043365E+04  1.990329E+04  7.672127E+03  7.395434E+03
       439   8 -4.453155E+05  6.164403E+04  4.334443E+04  5.977896E+03  1.462642E+04  9.059595E+03
       439   9 -4.093436E+05  6.085769E+04  3.904152E+04  1.581180E+04  2.158401E+04  1.013474E+04
       439  10 -8.988047E+05 -5.055794E+04 -5.734664E+04  1.581173E+04  1.061016E-08  3.644270E-09
       439  11 -9.347066E+05 -5.938388E+04 -7.206334E+04  6.013047E+03  6.153641E-09  8.272262E-09
       439  12 -9.744637E+05 -7.891455E+04 -9.448582E+04  1.997482E+04 -3.059151E-09 -3.959727E-09
       439  13 -6.919305E+05  6.487996E+02 -8.455119E+03  1.785716E+04  1.615786E-10 -8.937291E-09
       439  14 -6.900387E+05  1.132140E+03 -1.435766E+04  5.995448E+03  1.027428E-09  3.891074E-09
       439  15 -6.919407E+05 -9.025697E+03 -2.771992E+04  1.789373E+04  4.986261E-11 -1.030606E-09
       439  16 -4.850169E+05  5.185248E+04  4.043344E+04  1.990324E+04 -1.039904E-08 -5.953102E-09
       439  17 -4.453158E+05  6.164388E+04  4.334388E+04  5.977789E+03 -5.796697E-09 -2.046867E-08
       439  18 -4.093441E+05  6.085745E+04  3.904045E+04  1.581162E+04  1.908812E-09  3.143863E-09
       439  19 -8.988046E+05 -5.055787E+04 -5.734648E+04  1.581176E+04 -5.353224E+03 -7.386492E+03
       439  20 -9.347064E+05 -5.938375E+04 -7.206287E+04  6.013142E+03 -1.300860E+04 -9.053875E+03
       439  21 -9.744632E+05 -7.891432E+04 -9.448482E+04  1.997499E+04 -2.066640E+04 -1.013212E+04
       439  22 -6.919305E+05  6.488696E+02 -8.454936E+03  1.785720E+04 -6.512484E+03 -7.390960E+03
       439  23 -6.900385E+05  1.132280E+03 -1.435715E+04  5.995549E+03 -1.381735E+04 -9.056736E+03
       439  24 -6.919402E+05 -9.025467E+03 -2.771889E+04  1.789391E+04 -2.112510E+04 -1.013343E+04
       439  25 -4.850169E+05  5.185255E+04  4.043365E+04  1.990329E+04 -7.672127E+03 -7.395434E+03
       439  26 -4.453155E+05  6.164403E+04  4.334443E+04  5.977896E+03 -1.462642E+04 -9.059595E+03
       439  27 -4.093436E+05  6.085769E+04  3.904152E+04  1.581180E+04 -2.158401E+04 -1.013474E+04
       440   1 -1.023129E+06 -7.482828E+04 -1.106241E+05  2.484428E+03  2.292396E+04  1.237628E+04
       440   2 -1.043377E+06 -7.816473E+04 -1.408392E+05  1.621137E+04  5.849251E+04  1.332323E+04
       440   3 -1.097959E+06 -1.998459E+05 -2.238453E+05  5.323397E+04  9.409010E+04  4.667057E+03
       440   4 -6.984998E+05  5.581236E+03 -3.416154E+04  1.765828E+04  2.630141E+04  1.238870E+04
       440   5 -6.818615E+05  1.118630E+04 -5.551317E+04  6.187747E+03  5.612950E+04  1.331351E+04
       440   6 -6.985418E+05 -1.005207E+05 -1.256451E+05  1.801465E+04  8.598923E+04  4.634788E+03
       440   7 -3.737736E+05  8.598405E+04  4.229387E+04  3.284003E+04  2.968061E+04  1.240127E+04
       440   8 -3.202256E+05  1.005284E+05  2.980396E+04 -3.841856E+03  5.376512E+04  1.330387E+04
       440   9 -2.989761E+05 -1.202612E+03 -2.745570E+04 -1.722752E+04  7.788314E+04  4.603450E+03
       440  10 -1.023129E+06 -7.482859E+04 -1.106253E+05  2.484199E+03  3.042862E-09 -3.960853E-09
       440  11 -1.043381E+06 -7.816584E+04 -1.408460E+05  1.621074E+04  7.732233E-09  1.258683E-09
       440  12 -1.097969E+06 -1.998483E+05 -2.238620E+05  5.323361E+04  2.018964E-09  9.971123E-09
       440  13 -6.985006E+05  5.580885E+03 -3.416313E+04  1.765801E+04 -2.988547E-10 -7.489758E-10
       440  14 -6.818650E+05  1.118527E+04 -5.551943E+04  6.187145E+03  1.765850E-09  1.807604E-10
       440  15 -6.985498E+05 -1.005227E+05 -1.256591E+05  1.801433E+04 -9.718109E-11  6.004319E-09
       440  16 -3.737745E+05  8.598365E+04  4.229193E+04  3.283973E+04 -3.082992E-09  7.416552E-09
       440  17 -3.202288E+05  1.005274E+05  2.979819E+04 -3.842432E+03 -6.733631E-09  4.209164E-09
       440  18 -2.989826E+05 -1.204264E+03 -2.746714E+04 -1.722781E+04 -3.276223E-09 -7.012797E-10
       440  19 -1.023129E+06 -7.482828E+04 -1.106241E+05  2.484428E+03 -2.292396E+04 -1.237628E+04
       440  20 -1.043377E+06 -7.816473E+04 -1.408392E+05  1.621137E+04 -5.849251E+04 -1.332323E+04
       440  21 -1.097959E+06 -1.998459E+05 -2.238453E+05  5.323397E+04 -9.409010E+04 -4.667057E+03
       440  22 -6.984998E+05  5.581236E+03 -3.416154E+04  1.765828E+04 -2.630141E+04 -1.238870E+04
       440  23 -6.818615E+05  1.118630E+04 -5.551317E+04  6.187747E+03 -5.612950E+04 -1.331351E+04
       440  24 -6.985418E+05 -1.005207E+05 -1.256451E+05  1.801465E+04 -8.598923E+04 -4.634788E+03
       440  25 -3.737736E+05  8.598405E+04  4.229387E+04  3.284003E+04 -2.968061E+04 -1.240127E+04
       440  26 -3.202256E+05  1.005284E+05  2.980396E+04 -3.841856E+03 -5.376512E+04 -1.330387E+04
       440  27 -2.989761E+05 -1.202612E+03 -2.745570E+04 -1.722752E+04 -7.788314E+04 -4.603450E+03
