    1C
    1UUSER                                                              
    1UDATE              11.october.2022                                 
    1UTIME              17:33:45                                        
    1UHOST                                                              
    1UPGM               CalculiX                                        
    1UVERSION           Version 2.20                             
    1UCOMPILETIME       Sun Jul 31 18:08:37 CEST 2022                    
    1UDIR                                                               
    1UDBN                                                               
    1UMAT    1MESH_MATERIAL                                             
    2C                           841                                     1
 -1         1 0.00000E+00 0.00000E+00 0.00000E+00
 -1         2 1.66667E-02 0.00000E+00 0.00000E+00
 -1         3 3.33333E-02 0.00000E+00 0.00000E+00
 -1         4 5.00000E-02 0.00000E+00 0.00000E+00
 -1         5 6.66667E-02 0.00000E+00 0.00000E+00
 -1         8 0.00000E+00 6.25000E-03 0.00000E+00
 -1         9 1.66667E-02 6.25000E-03 0.00000E+00
 -1        10 3.33333E-02 6.25000E-03 0.00000E+00
 -1        11 5.00000E-02 6.25000E-03 0.00000E+00
 -1        12 6.66667E-02 6.25000E-03 0.00000E+00
 -1        15 0.00000E+00 1.25000E-02 0.00000E+00
 -1        16 1.66667E-02 1.25000E-02 0.00000E+00
 -1        17 3.33333E-02 1.25000E-02 0.00000E+00
 -1        18 5.00000E-02 1.25000E-02 0.00000E+00
 -1        19 6.66667E-02 1.25000E-02 0.00000E+00
 -1        20 8.33333E-02 1.25000E-02 0.00000E+00
 -1        21 1.00000E-01 1.25000E-02 0.00000E+00
 -1        22 0.00000E+00 1.87500E-02 0.00000E+00
 -1        23 1.66667E-02 1.87500E-02 0.00000E+00
 -1        24 3.33333E-02 1.87500E-02 0.00000E+00
 -1        25 5.00000E-02 1.87500E-02 0.00000E+00
 -1        26 6.66667E-02 1.87500E-02 0.00000E+00
 -1        27 8.33333E-02 1.87500E-02 0.00000E+00
 -1        28 1.00000E-01 1.87500E-02 0.00000E+00
 -1        29 0.00000E+00 2.50000E-02 0.00000E+00
 -1        30 1.66667E-02 2.50000E-02 0.00000E+00
 -1        31 3.33333E-02 2.50000E-02 0.00000E+00
 -1        32 5.00000E-02 2.50000E-02 0.00000E+00
 -1        33 6.66667E-02 2.50000E-02 0.00000E+00
 -1        34 8.33333E-02 2.50000E-02 0.00000E+00
 -1        35 1.00000E-01 2.50000E-02 0.00000E+00
 -1        36 1.04167E-03 0.00000E+00 0.00000E+00
 -1        37 2.08333E-03 0.00000E+00 0.00000E+00
 -1        38 3.12500E-03 0.00000E+00 0.00000E+00
 -1        39 4.16667E-03 0.00000E+00 0.00000E+00
 -1        40 5.20833E-03 0.00000E+00 0.00000E+00
 -1        41 6.25000E-03 0.00000E+00 0.00000E+00
 -1        42 7.29167E-03 0.00000E+00 0.00000E+00
 -1        43 8.33333E-03 0.00000E+00 0.00000E+00
 -1        44 9.37500E-03 0.00000E+00 0.00000E+00
 -1        45 1.04167E-02 0.00000E+00 0.00000E+00
 -1        46 1.14583E-02 0.00000E+00 0.00000E+00
 -1        47 1.25000E-02 0.00000E+00 0.00000E+00
 -1        48 1.35417E-02 0.00000E+00 0.00000E+00
 -1        49 1.45833E-02 0.00000E+00 0.00000E+00
 -1        50 1.56250E-02 0.00000E+00 0.00000E+00
 -1        51 0.00000E+00 1.04167E-03 0.00000E+00
 -1        52 0.00000E+00 2.08333E-03 0.00000E+00
 -1        53 0.00000E+00 3.12500E-03 0.00000E+00
 -1        54 0.00000E+00 4.16667E-03 0.00000E+00
 -1        55 0.00000E+00 5.20833E-03 0.00000E+00
 -1        56 1.04167E-03 3.90630E-04 0.00000E+00
 -1        57 2.08333E-03 7.81250E-04 0.00000E+00
 -1        58 3.12500E-03 1.17188E-03 0.00000E+00
 -1        59 4.16667E-03 1.56250E-03 0.00000E+00
 -1        60 5.20833E-03 1.95312E-03 0.00000E+00
 -1        61 6.25000E-03 2.34375E-03 0.00000E+00
 -1        62 7.29167E-03 2.73438E-03 0.00000E+00
 -1        63 8.33333E-03 3.12500E-03 0.00000E+00
 -1        64 9.37500E-03 3.51563E-03 0.00000E+00
 -1        65 1.04167E-02 3.90625E-03 0.00000E+00
 -1        66 1.14583E-02 4.29688E-03 0.00000E+00
 -1        67 1.25000E-02 4.68750E-03 0.00000E+00
 -1        68 1.35417E-02 5.07813E-03 0.00000E+00
 -1        69 1.45833E-02 5.46875E-03 0.00000E+00
 -1        70 1.56250E-02 5.85938E-03 0.00000E+00
 -1        71 1.77083E-02 0.00000E+00 0.00000E+00
 -1        72 1.87500E-02 0.00000E+00 0.00000E+00
 -1        73 1.97917E-02 0.00000E+00 0.00000E+00
 -1        74 2.08333E-02 0.00000E+00 0.00000E+00
 -1        75 2.18750E-02 0.00000E+00 0.00000E+00
 -1        76 2.29167E-02 0.00000E+00 0.00000E+00
 -1        77 2.39583E-02 0.00000E+00 0.00000E+00
 -1        78 2.50000E-02 0.00000E+00 0.00000E+00
 -1        79 2.60417E-02 0.00000E+00 0.00000E+00
 -1        80 2.70833E-02 0.00000E+00 0.00000E+00
 -1        81 2.81250E-02 0.00000E+00 0.00000E+00
 -1        82 2.91667E-02 0.00000E+00 0.00000E+00
 -1        83 3.02083E-02 0.00000E+00 0.00000E+00
 -1        84 3.12500E-02 0.00000E+00 0.00000E+00
 -1        85 3.22917E-02 0.00000E+00 0.00000E+00
 -1        86 1.66667E-02 1.04167E-03 0.00000E+00
 -1        87 1.66667E-02 2.08333E-03 0.00000E+00
 -1        88 1.66667E-02 3.12500E-03 0.00000E+00
 -1        89 1.66667E-02 4.16667E-03 0.00000E+00
 -1        90 1.66667E-02 5.20833E-03 0.00000E+00
 -1        91 1.77083E-02 3.90630E-04 0.00000E+00
 -1        92 1.87500E-02 7.81250E-04 0.00000E+00
 -1        93 1.97917E-02 1.17188E-03 0.00000E+00
 -1        94 2.08333E-02 1.56250E-03 0.00000E+00
 -1        95 2.18750E-02 1.95312E-03 0.00000E+00
 -1        96 2.29167E-02 2.34375E-03 0.00000E+00
 -1        97 2.39583E-02 2.73438E-03 0.00000E+00
 -1        98 2.50000E-02 3.12500E-03 0.00000E+00
 -1        99 2.60417E-02 3.51563E-03 0.00000E+00
 -1       100 2.70833E-02 3.90625E-03 0.00000E+00
 -1       101 2.81250E-02 4.29688E-03 0.00000E+00
 -1       102 2.91667E-02 4.68750E-03 0.00000E+00
 -1       103 3.02083E-02 5.07813E-03 0.00000E+00
 -1       104 3.12500E-02 5.46875E-03 0.00000E+00
 -1       105 3.22917E-02 5.85938E-03 0.00000E+00
 -1       106 3.43750E-02 0.00000E+00 0.00000E+00
 -1       107 3.54167E-02 0.00000E+00 0.00000E+00
 -1       108 3.64583E-02 0.00000E+00 0.00000E+00
 -1       109 3.75000E-02 0.00000E+00 0.00000E+00
 -1       110 3.85417E-02 0.00000E+00 0.00000E+00
 -1       111 3.95833E-02 0.00000E+00 0.00000E+00
 -1       112 4.06250E-02 0.00000E+00 0.00000E+00
 -1       113 4.16667E-02 0.00000E+00 0.00000E+00
 -1       114 4.27083E-02 0.00000E+00 0.00000E+00
 -1       115 4.37500E-02 0.00000E+00 0.00000E+00
 -1       116 4.47917E-02 0.00000E+00 0.00000E+00
 -1       117 4.58333E-02 0.00000E+00 0.00000E+00
 -1       118 4.68750E-02 0.00000E+00 0.00000E+00
 -1       119 4.79167E-02 0.00000E+00 0.00000E+00
 -1       120 4.89583E-02 0.00000E+00 0.00000E+00
 -1       121 3.33333E-02 1.04167E-03 0.00000E+00
 -1       122 3.33333E-02 2.08333E-03 0.00000E+00
 -1       123 3.33333E-02 3.12500E-03 0.00000E+00
 -1       124 3.33333E-02 4.16667E-03 0.00000E+00
 -1       125 3.33333E-02 5.20833E-03 0.00000E+00
 -1       126 3.43750E-02 3.90630E-04 0.00000E+00
 -1       127 3.54167E-02 7.81250E-04 0.00000E+00
 -1       128 3.64583E-02 1.17188E-03 0.00000E+00
 -1       129 3.75000E-02 1.56250E-03 0.00000E+00
 -1       130 3.85417E-02 1.95312E-03 0.00000E+00
 -1       131 3.95833E-02 2.34375E-03 0.00000E+00
 -1       132 4.06250E-02 2.73438E-03 0.00000E+00
 -1       133 4.16667E-02 3.12500E-03 0.00000E+00
 -1       134 4.27083E-02 3.51563E-03 0.00000E+00
 -1       135 4.37500E-02 3.90625E-03 0.00000E+00
 -1       136 4.47917E-02 4.29688E-03 0.00000E+00
 -1       137 4.58333E-02 4.68750E-03 0.00000E+00
 -1       138 4.68750E-02 5.07813E-03 0.00000E+00
 -1       139 4.79167E-02 5.46875E-03 0.00000E+00
 -1       140 4.89583E-02 5.85938E-03 0.00000E+00
 -1       141 5.10417E-02 0.00000E+00 0.00000E+00
 -1       142 5.20833E-02 0.00000E+00 0.00000E+00
 -1       143 5.31250E-02 0.00000E+00 0.00000E+00
 -1       144 5.41667E-02 0.00000E+00 0.00000E+00
 -1       145 5.52083E-02 0.00000E+00 0.00000E+00
 -1       146 5.62500E-02 0.00000E+00 0.00000E+00
 -1       147 5.72917E-02 0.00000E+00 0.00000E+00
 -1       148 5.83333E-02 0.00000E+00 0.00000E+00
 -1       149 5.93750E-02 0.00000E+00 0.00000E+00
 -1       150 6.04167E-02 0.00000E+00 0.00000E+00
 -1       151 6.14583E-02 0.00000E+00 0.00000E+00
 -1       152 6.25000E-02 0.00000E+00 0.00000E+00
 -1       153 6.35417E-02 0.00000E+00 0.00000E+00
 -1       154 6.45833E-02 0.00000E+00 0.00000E+00
 -1       155 6.56250E-02 0.00000E+00 0.00000E+00
 -1       156 5.00000E-02 1.04167E-03 0.00000E+00
 -1       157 5.00000E-02 2.08333E-03 0.00000E+00
 -1       158 5.00000E-02 3.12500E-03 0.00000E+00
 -1       159 5.00000E-02 4.16667E-03 0.00000E+00
 -1       160 5.00000E-02 5.20833E-03 0.00000E+00
 -1       161 5.10417E-02 3.90630E-04 0.00000E+00
 -1       162 5.20833E-02 7.81250E-04 0.00000E+00
 -1       163 5.31250E-02 1.17188E-03 0.00000E+00
 -1       164 5.41667E-02 1.56250E-03 0.00000E+00
 -1       165 5.52083E-02 1.95312E-03 0.00000E+00
 -1       166 5.62500E-02 2.34375E-03 0.00000E+00
 -1       167 5.72917E-02 2.73438E-03 0.00000E+00
 -1       168 5.83333E-02 3.12500E-03 0.00000E+00
 -1       169 5.93750E-02 3.51563E-03 0.00000E+00
 -1       170 6.04167E-02 3.90625E-03 0.00000E+00
 -1       171 6.14583E-02 4.29688E-03 0.00000E+00
 -1       172 6.25000E-02 4.68750E-03 0.00000E+00
 -1       173 6.35417E-02 5.07813E-03 0.00000E+00
 -1       174 6.45833E-02 5.46875E-03 0.00000E+00
 -1       175 6.56250E-02 5.85938E-03 0.00000E+00
 -1       191 6.66667E-02 1.04167E-03 0.00000E+00
 -1       192 6.66667E-02 2.08333E-03 0.00000E+00
 -1       193 6.66667E-02 3.12500E-03 0.00000E+00
 -1       194 6.66667E-02 4.16667E-03 0.00000E+00
 -1       195 6.66667E-02 5.20833E-03 0.00000E+00
 -1       251 1.04167E-03 6.25000E-03 0.00000E+00
 -1       252 2.08333E-03 6.25000E-03 0.00000E+00
 -1       253 3.12500E-03 6.25000E-03 0.00000E+00
 -1       254 4.16667E-03 6.25000E-03 0.00000E+00
 -1       255 5.20833E-03 6.25000E-03 0.00000E+00
 -1       256 6.25000E-03 6.25000E-03 0.00000E+00
 -1       257 7.29167E-03 6.25000E-03 0.00000E+00
 -1       258 8.33333E-03 6.25000E-03 0.00000E+00
 -1       259 9.37500E-03 6.25000E-03 0.00000E+00
 -1       260 1.04167E-02 6.25000E-03 0.00000E+00
 -1       261 1.14583E-02 6.25000E-03 0.00000E+00
 -1       262 1.25000E-02 6.25000E-03 0.00000E+00
 -1       263 1.35417E-02 6.25000E-03 0.00000E+00
 -1       264 1.45833E-02 6.25000E-03 0.00000E+00
 -1       265 1.56250E-02 6.25000E-03 0.00000E+00
 -1       266 0.00000E+00 7.29167E-03 0.00000E+00
 -1       267 0.00000E+00 8.33333E-03 0.00000E+00
 -1       268 0.00000E+00 9.37500E-03 0.00000E+00
 -1       269 0.00000E+00 1.04167E-02 0.00000E+00
 -1       270 0.00000E+00 1.14583E-02 0.00000E+00
 -1       271 1.04167E-03 6.64063E-03 0.00000E+00
 -1       272 2.08333E-03 7.03125E-03 0.00000E+00
 -1       273 3.12500E-03 7.42188E-03 0.00000E+00
 -1       274 4.16667E-03 7.81250E-03 0.00000E+00
 -1       275 5.20833E-03 8.20313E-03 0.00000E+00
 -1       276 6.25000E-03 8.59375E-03 0.00000E+00
 -1       277 7.29167E-03 8.98438E-03 0.00000E+00
 -1       278 8.33333E-03 9.37500E-03 0.00000E+00
 -1       279 9.37500E-03 9.76562E-03 0.00000E+00
 -1       280 1.04167E-02 1.01562E-02 0.00000E+00
 -1       281 1.14583E-02 1.05469E-02 0.00000E+00
 -1       282 1.25000E-02 1.09375E-02 0.00000E+00
 -1       283 1.35417E-02 1.13281E-02 0.00000E+00
 -1       284 1.45833E-02 1.17188E-02 0.00000E+00
 -1       285 1.56250E-02 1.21094E-02 0.00000E+00
 -1       286 1.77083E-02 6.25000E-03 0.00000E+00
 -1       287 1.87500E-02 6.25000E-03 0.00000E+00
 -1       288 1.97917E-02 6.25000E-03 0.00000E+00
 -1       289 2.08333E-02 6.25000E-03 0.00000E+00
 -1       290 2.18750E-02 6.25000E-03 0.00000E+00
 -1       291 2.29167E-02 6.25000E-03 0.00000E+00
 -1       292 2.39583E-02 6.25000E-03 0.00000E+00
 -1       293 2.50000E-02 6.25000E-03 0.00000E+00
 -1       294 2.60417E-02 6.25000E-03 0.00000E+00
 -1       295 2.70833E-02 6.25000E-03 0.00000E+00
 -1       296 2.81250E-02 6.25000E-03 0.00000E+00
 -1       297 2.91667E-02 6.25000E-03 0.00000E+00
 -1       298 3.02083E-02 6.25000E-03 0.00000E+00
 -1       299 3.12500E-02 6.25000E-03 0.00000E+00
 -1       300 3.22917E-02 6.25000E-03 0.00000E+00
 -1       301 1.66667E-02 7.29167E-03 0.00000E+00
 -1       302 1.66667E-02 8.33333E-03 0.00000E+00
 -1       303 1.66667E-02 9.37500E-03 0.00000E+00
 -1       304 1.66667E-02 1.04167E-02 0.00000E+00
 -1       305 1.66667E-02 1.14583E-02 0.00000E+00
 -1       306 1.77083E-02 6.64063E-03 0.00000E+00
 -1       307 1.87500E-02 7.03125E-03 0.00000E+00
 -1       308 1.97917E-02 7.42188E-03 0.00000E+00
 -1       309 2.08333E-02 7.81250E-03 0.00000E+00
 -1       310 2.18750E-02 8.20313E-03 0.00000E+00
 -1       311 2.29167E-02 8.59375E-03 0.00000E+00
 -1       312 2.39583E-02 8.98438E-03 0.00000E+00
 -1       313 2.50000E-02 9.37500E-03 0.00000E+00
 -1       314 2.60417E-02 9.76562E-03 0.00000E+00
 -1       315 2.70833E-02 1.01562E-02 0.00000E+00
 -1       316 2.81250E-02 1.05469E-02 0.00000E+00
 -1       317 2.91667E-02 1.09375E-02 0.00000E+00
 -1       318 3.02083E-02 1.13281E-02 0.00000E+00
 -1       319 3.12500E-02 1.17188E-02 0.00000E+00
 -1       320 3.22917E-02 1.21094E-02 0.00000E+00
 -1       321 3.43750E-02 6.25000E-03 0.00000E+00
 -1       322 3.54167E-02 6.25000E-03 0.00000E+00
 -1       323 3.64583E-02 6.25000E-03 0.00000E+00
 -1       324 3.75000E-02 6.25000E-03 0.00000E+00
 -1       325 3.85417E-02 6.25000E-03 0.00000E+00
 -1       326 3.95833E-02 6.25000E-03 0.00000E+00
 -1       327 4.06250E-02 6.25000E-03 0.00000E+00
 -1       328 4.16667E-02 6.25000E-03 0.00000E+00
 -1       329 4.27083E-02 6.25000E-03 0.00000E+00
 -1       330 4.37500E-02 6.25000E-03 0.00000E+00
 -1       331 4.47917E-02 6.25000E-03 0.00000E+00
 -1       332 4.58333E-02 6.25000E-03 0.00000E+00
 -1       333 4.68750E-02 6.25000E-03 0.00000E+00
 -1       334 4.79167E-02 6.25000E-03 0.00000E+00
 -1       335 4.89583E-02 6.25000E-03 0.00000E+00
 -1       336 3.33333E-02 7.29167E-03 0.00000E+00
 -1       337 3.33333E-02 8.33333E-03 0.00000E+00
 -1       338 3.33333E-02 9.37500E-03 0.00000E+00
 -1       339 3.33333E-02 1.04167E-02 0.00000E+00
 -1       340 3.33333E-02 1.14583E-02 0.00000E+00
 -1       341 3.43750E-02 6.64063E-03 0.00000E+00
 -1       342 3.54167E-02 7.03125E-03 0.00000E+00
 -1       343 3.64583E-02 7.42188E-03 0.00000E+00
 -1       344 3.75000E-02 7.81250E-03 0.00000E+00
 -1       345 3.85417E-02 8.20313E-03 0.00000E+00
 -1       346 3.95833E-02 8.59375E-03 0.00000E+00
 -1       347 4.06250E-02 8.98438E-03 0.00000E+00
 -1       348 4.16667E-02 9.37500E-03 0.00000E+00
 -1       349 4.27083E-02 9.76562E-03 0.00000E+00
 -1       350 4.37500E-02 1.01562E-02 0.00000E+00
 -1       351 4.47917E-02 1.05469E-02 0.00000E+00
 -1       352 4.58333E-02 1.09375E-02 0.00000E+00
 -1       353 4.68750E-02 1.13281E-02 0.00000E+00
 -1       354 4.79167E-02 1.17188E-02 0.00000E+00
 -1       355 4.89583E-02 1.21094E-02 0.00000E+00
 -1       356 5.10417E-02 6.25000E-03 0.00000E+00
 -1       357 5.20833E-02 6.25000E-03 0.00000E+00
 -1       358 5.31250E-02 6.25000E-03 0.00000E+00
 -1       359 5.41667E-02 6.25000E-03 0.00000E+00
 -1       360 5.52083E-02 6.25000E-03 0.00000E+00
 -1       361 5.62500E-02 6.25000E-03 0.00000E+00
 -1       362 5.72917E-02 6.25000E-03 0.00000E+00
 -1       363 5.83333E-02 6.25000E-03 0.00000E+00
 -1       364 5.93750E-02 6.25000E-03 0.00000E+00
 -1       365 6.04167E-02 6.25000E-03 0.00000E+00
 -1       366 6.14583E-02 6.25000E-03 0.00000E+00
 -1       367 6.25000E-02 6.25000E-03 0.00000E+00
 -1       368 6.35417E-02 6.25000E-03 0.00000E+00
 -1       369 6.45833E-02 6.25000E-03 0.00000E+00
 -1       370 6.56250E-02 6.25000E-03 0.00000E+00
 -1       371 5.00000E-02 7.29167E-03 0.00000E+00
 -1       372 5.00000E-02 8.33333E-03 0.00000E+00
 -1       373 5.00000E-02 9.37500E-03 0.00000E+00
 -1       374 5.00000E-02 1.04167E-02 0.00000E+00
 -1       375 5.00000E-02 1.14583E-02 0.00000E+00
 -1       376 5.10417E-02 6.64063E-03 0.00000E+00
 -1       377 5.20833E-02 7.03125E-03 0.00000E+00
 -1       378 5.31250E-02 7.42188E-03 0.00000E+00
 -1       379 5.41667E-02 7.81250E-03 0.00000E+00
 -1       380 5.52083E-02 8.20313E-03 0.00000E+00
 -1       381 5.62500E-02 8.59375E-03 0.00000E+00
 -1       382 5.72917E-02 8.98438E-03 0.00000E+00
 -1       383 5.83333E-02 9.37500E-03 0.00000E+00
 -1       384 5.93750E-02 9.76562E-03 0.00000E+00
 -1       385 6.04167E-02 1.01562E-02 0.00000E+00
 -1       386 6.14583E-02 1.05469E-02 0.00000E+00
 -1       387 6.25000E-02 1.09375E-02 0.00000E+00
 -1       388 6.35417E-02 1.13281E-02 0.00000E+00
 -1       389 6.45833E-02 1.17188E-02 0.00000E+00
 -1       390 6.56250E-02 1.21094E-02 0.00000E+00
 -1       406 6.66667E-02 7.29167E-03 0.00000E+00
 -1       407 6.66667E-02 8.33333E-03 0.00000E+00
 -1       408 6.66667E-02 9.37500E-03 0.00000E+00
 -1       409 6.66667E-02 1.04167E-02 0.00000E+00
 -1       410 6.66667E-02 1.14583E-02 0.00000E+00
 -1       466 1.04167E-03 1.25000E-02 0.00000E+00
 -1       467 2.08333E-03 1.25000E-02 0.00000E+00
 -1       468 3.12500E-03 1.25000E-02 0.00000E+00
 -1       469 4.16667E-03 1.25000E-02 0.00000E+00
 -1       470 5.20833E-03 1.25000E-02 0.00000E+00
 -1       471 6.25000E-03 1.25000E-02 0.00000E+00
 -1       472 7.29167E-03 1.25000E-02 0.00000E+00
 -1       473 8.33333E-03 1.25000E-02 0.00000E+00
 -1       474 9.37500E-03 1.25000E-02 0.00000E+00
 -1       475 1.04167E-02 1.25000E-02 0.00000E+00
 -1       476 1.14583E-02 1.25000E-02 0.00000E+00
 -1       477 1.25000E-02 1.25000E-02 0.00000E+00
 -1       478 1.35417E-02 1.25000E-02 0.00000E+00
 -1       479 1.45833E-02 1.25000E-02 0.00000E+00
 -1       480 1.56250E-02 1.25000E-02 0.00000E+00
 -1       481 0.00000E+00 1.35417E-02 0.00000E+00
 -1       482 0.00000E+00 1.45833E-02 0.00000E+00
 -1       483 0.00000E+00 1.56250E-02 0.00000E+00
 -1       484 0.00000E+00 1.66667E-02 0.00000E+00
 -1       485 0.00000E+00 1.77083E-02 0.00000E+00
 -1       486 1.04167E-03 1.28906E-02 0.00000E+00
 -1       487 2.08333E-03 1.32813E-02 0.00000E+00
 -1       488 3.12500E-03 1.36719E-02 0.00000E+00
 -1       489 4.16667E-03 1.40625E-02 0.00000E+00
 -1       490 5.20833E-03 1.44531E-02 0.00000E+00
 -1       491 6.25000E-03 1.48437E-02 0.00000E+00
 -1       492 7.29167E-03 1.52344E-02 0.00000E+00
 -1       493 8.33333E-03 1.56250E-02 0.00000E+00
 -1       494 9.37500E-03 1.60156E-02 0.00000E+00
 -1       495 1.04167E-02 1.64062E-02 0.00000E+00
 -1       496 1.14583E-02 1.67969E-02 0.00000E+00
 -1       497 1.25000E-02 1.71875E-02 0.00000E+00
 -1       498 1.35417E-02 1.75781E-02 0.00000E+00
 -1       499 1.45833E-02 1.79687E-02 0.00000E+00
 -1       500 1.56250E-02 1.83594E-02 0.00000E+00
 -1       501 1.77083E-02 1.25000E-02 0.00000E+00
 -1       502 1.87500E-02 1.25000E-02 0.00000E+00
 -1       503 1.97917E-02 1.25000E-02 0.00000E+00
 -1       504 2.08333E-02 1.25000E-02 0.00000E+00
 -1       505 2.18750E-02 1.25000E-02 0.00000E+00
 -1       506 2.29167E-02 1.25000E-02 0.00000E+00
 -1       507 2.39583E-02 1.25000E-02 0.00000E+00
 -1       508 2.50000E-02 1.25000E-02 0.00000E+00
 -1       509 2.60417E-02 1.25000E-02 0.00000E+00
 -1       510 2.70833E-02 1.25000E-02 0.00000E+00
 -1       511 2.81250E-02 1.25000E-02 0.00000E+00
 -1       512 2.91667E-02 1.25000E-02 0.00000E+00
 -1       513 3.02083E-02 1.25000E-02 0.00000E+00
 -1       514 3.12500E-02 1.25000E-02 0.00000E+00
 -1       515 3.22917E-02 1.25000E-02 0.00000E+00
 -1       516 1.66667E-02 1.35417E-02 0.00000E+00
 -1       517 1.66667E-02 1.45833E-02 0.00000E+00
 -1       518 1.66667E-02 1.56250E-02 0.00000E+00
 -1       519 1.66667E-02 1.66667E-02 0.00000E+00
 -1       520 1.66667E-02 1.77083E-02 0.00000E+00
 -1       521 1.77083E-02 1.28906E-02 0.00000E+00
 -1       522 1.87500E-02 1.32813E-02 0.00000E+00
 -1       523 1.97917E-02 1.36719E-02 0.00000E+00
 -1       524 2.08333E-02 1.40625E-02 0.00000E+00
 -1       525 2.18750E-02 1.44531E-02 0.00000E+00
 -1       526 2.29167E-02 1.48437E-02 0.00000E+00
 -1       527 2.39583E-02 1.52344E-02 0.00000E+00
 -1       528 2.50000E-02 1.56250E-02 0.00000E+00
 -1       529 2.60417E-02 1.60156E-02 0.00000E+00
 -1       530 2.70833E-02 1.64062E-02 0.00000E+00
 -1       531 2.81250E-02 1.67969E-02 0.00000E+00
 -1       532 2.91667E-02 1.71875E-02 0.00000E+00
 -1       533 3.02083E-02 1.75781E-02 0.00000E+00
 -1       534 3.12500E-02 1.79687E-02 0.00000E+00
 -1       535 3.22917E-02 1.83594E-02 0.00000E+00
 -1       536 3.43750E-02 1.25000E-02 0.00000E+00
 -1       537 3.54167E-02 1.25000E-02 0.00000E+00
 -1       538 3.64583E-02 1.25000E-02 0.00000E+00
 -1       539 3.75000E-02 1.25000E-02 0.00000E+00
 -1       540 3.85417E-02 1.25000E-02 0.00000E+00
 -1       541 3.95833E-02 1.25000E-02 0.00000E+00
 -1       542 4.06250E-02 1.25000E-02 0.00000E+00
 -1       543 4.16667E-02 1.25000E-02 0.00000E+00
 -1       544 4.27083E-02 1.25000E-02 0.00000E+00
 -1       545 4.37500E-02 1.25000E-02 0.00000E+00
 -1       546 4.47917E-02 1.25000E-02 0.00000E+00
 -1       547 4.58333E-02 1.25000E-02 0.00000E+00
 -1       548 4.68750E-02 1.25000E-02 0.00000E+00
 -1       549 4.79167E-02 1.25000E-02 0.00000E+00
 -1       550 4.89583E-02 1.25000E-02 0.00000E+00
 -1       551 3.33333E-02 1.35417E-02 0.00000E+00
 -1       552 3.33333E-02 1.45833E-02 0.00000E+00
 -1       553 3.33333E-02 1.56250E-02 0.00000E+00
 -1       554 3.33333E-02 1.66667E-02 0.00000E+00
 -1       555 3.33333E-02 1.77083E-02 0.00000E+00
 -1       556 3.43750E-02 1.28906E-02 0.00000E+00
 -1       557 3.54167E-02 1.32813E-02 0.00000E+00
 -1       558 3.64583E-02 1.36719E-02 0.00000E+00
 -1       559 3.75000E-02 1.40625E-02 0.00000E+00
 -1       560 3.85417E-02 1.44531E-02 0.00000E+00
 -1       561 3.95833E-02 1.48437E-02 0.00000E+00
 -1       562 4.06250E-02 1.52344E-02 0.00000E+00
 -1       563 4.16667E-02 1.56250E-02 0.00000E+00
 -1       564 4.27083E-02 1.60156E-02 0.00000E+00
 -1       565 4.37500E-02 1.64062E-02 0.00000E+00
 -1       566 4.47917E-02 1.67969E-02 0.00000E+00
 -1       567 4.58333E-02 1.71875E-02 0.00000E+00
 -1       568 4.68750E-02 1.75781E-02 0.00000E+00
 -1       569 4.79167E-02 1.79687E-02 0.00000E+00
 -1       570 4.89583E-02 1.83594E-02 0.00000E+00
 -1       571 5.10417E-02 1.25000E-02 0.00000E+00
 -1       572 5.20833E-02 1.25000E-02 0.00000E+00
 -1       573 5.31250E-02 1.25000E-02 0.00000E+00
 -1       574 5.41667E-02 1.25000E-02 0.00000E+00
 -1       575 5.52083E-02 1.25000E-02 0.00000E+00
 -1       576 5.62500E-02 1.25000E-02 0.00000E+00
 -1       577 5.72917E-02 1.25000E-02 0.00000E+00
 -1       578 5.83333E-02 1.25000E-02 0.00000E+00
 -1       579 5.93750E-02 1.25000E-02 0.00000E+00
 -1       580 6.04167E-02 1.25000E-02 0.00000E+00
 -1       581 6.14583E-02 1.25000E-02 0.00000E+00
 -1       582 6.25000E-02 1.25000E-02 0.00000E+00
 -1       583 6.35417E-02 1.25000E-02 0.00000E+00
 -1       584 6.45833E-02 1.25000E-02 0.00000E+00
 -1       585 6.56250E-02 1.25000E-02 0.00000E+00
 -1       586 5.00000E-02 1.35417E-02 0.00000E+00
 -1       587 5.00000E-02 1.45833E-02 0.00000E+00
 -1       588 5.00000E-02 1.56250E-02 0.00000E+00
 -1       589 5.00000E-02 1.66667E-02 0.00000E+00
 -1       590 5.00000E-02 1.77083E-02 0.00000E+00
 -1       591 5.10417E-02 1.28906E-02 0.00000E+00
 -1       592 5.20833E-02 1.32813E-02 0.00000E+00
 -1       593 5.31250E-02 1.36719E-02 0.00000E+00
 -1       594 5.41667E-02 1.40625E-02 0.00000E+00
 -1       595 5.52083E-02 1.44531E-02 0.00000E+00
 -1       596 5.62500E-02 1.48437E-02 0.00000E+00
 -1       597 5.72917E-02 1.52344E-02 0.00000E+00
 -1       598 5.83333E-02 1.56250E-02 0.00000E+00
 -1       599 5.93750E-02 1.60156E-02 0.00000E+00
 -1       600 6.04167E-02 1.64062E-02 0.00000E+00
 -1       601 6.14583E-02 1.67969E-02 0.00000E+00
 -1       602 6.25000E-02 1.71875E-02 0.00000E+00
 -1       603 6.35417E-02 1.75781E-02 0.00000E+00
 -1       604 6.45833E-02 1.79687E-02 0.00000E+00
 -1       605 6.56250E-02 1.83594E-02 0.00000E+00
 -1       606 6.77083E-02 1.25000E-02 0.00000E+00
 -1       607 6.87500E-02 1.25000E-02 0.00000E+00
 -1       608 6.97917E-02 1.25000E-02 0.00000E+00
 -1       609 7.08333E-02 1.25000E-02 0.00000E+00
 -1       610 7.18750E-02 1.25000E-02 0.00000E+00
 -1       611 7.29167E-02 1.25000E-02 0.00000E+00
 -1       612 7.39583E-02 1.25000E-02 0.00000E+00
 -1       613 7.50000E-02 1.25000E-02 0.00000E+00
 -1       614 7.60417E-02 1.25000E-02 0.00000E+00
 -1       615 7.70833E-02 1.25000E-02 0.00000E+00
 -1       616 7.81250E-02 1.25000E-02 0.00000E+00
 -1       617 7.91667E-02 1.25000E-02 0.00000E+00
 -1       618 8.02083E-02 1.25000E-02 0.00000E+00
 -1       619 8.12500E-02 1.25000E-02 0.00000E+00
 -1       620 8.22917E-02 1.25000E-02 0.00000E+00
 -1       621 6.66667E-02 1.35417E-02 0.00000E+00
 -1       622 6.66667E-02 1.45833E-02 0.00000E+00
 -1       623 6.66667E-02 1.56250E-02 0.00000E+00
 -1       624 6.66667E-02 1.66667E-02 0.00000E+00
 -1       625 6.66667E-02 1.77083E-02 0.00000E+00
 -1       626 6.77083E-02 1.28906E-02 0.00000E+00
 -1       627 6.87500E-02 1.32813E-02 0.00000E+00
 -1       628 6.97917E-02 1.36719E-02 0.00000E+00
 -1       629 7.08333E-02 1.40625E-02 0.00000E+00
 -1       630 7.18750E-02 1.44531E-02 0.00000E+00
 -1       631 7.29167E-02 1.48437E-02 0.00000E+00
 -1       632 7.39583E-02 1.52344E-02 0.00000E+00
 -1       633 7.50000E-02 1.56250E-02 0.00000E+00
 -1       634 7.60417E-02 1.60156E-02 0.00000E+00
 -1       635 7.70833E-02 1.64062E-02 0.00000E+00
 -1       636 7.81250E-02 1.67969E-02 0.00000E+00
 -1       637 7.91667E-02 1.71875E-02 0.00000E+00
 -1       638 8.02083E-02 1.75781E-02 0.00000E+00
 -1       639 8.12500E-02 1.79687E-02 0.00000E+00
 -1       640 8.22917E-02 1.83594E-02 0.00000E+00
 -1       641 8.43750E-02 1.25000E-02 0.00000E+00
 -1       642 8.54167E-02 1.25000E-02 0.00000E+00
 -1       643 8.64583E-02 1.25000E-02 0.00000E+00
 -1       644 8.75000E-02 1.25000E-02 0.00000E+00
 -1       645 8.85417E-02 1.25000E-02 0.00000E+00
 -1       646 8.95833E-02 1.25000E-02 0.00000E+00
 -1       647 9.06250E-02 1.25000E-02 0.00000E+00
 -1       648 9.16667E-02 1.25000E-02 0.00000E+00
 -1       649 9.27083E-02 1.25000E-02 0.00000E+00
 -1       650 9.37500E-02 1.25000E-02 0.00000E+00
 -1       651 9.47917E-02 1.25000E-02 0.00000E+00
 -1       652 9.58333E-02 1.25000E-02 0.00000E+00
 -1       653 9.68750E-02 1.25000E-02 0.00000E+00
 -1       654 9.79167E-02 1.25000E-02 0.00000E+00
 -1       655 9.89583E-02 1.25000E-02 0.00000E+00
 -1       656 8.33333E-02 1.35417E-02 0.00000E+00
 -1       657 8.33333E-02 1.45833E-02 0.00000E+00
 -1       658 8.33333E-02 1.56250E-02 0.00000E+00
 -1       659 8.33333E-02 1.66667E-02 0.00000E+00
 -1       660 8.33333E-02 1.77083E-02 0.00000E+00
 -1       661 8.43750E-02 1.28906E-02 0.00000E+00
 -1       662 8.54167E-02 1.32813E-02 0.00000E+00
 -1       663 8.64583E-02 1.36719E-02 0.00000E+00
 -1       664 8.75000E-02 1.40625E-02 0.00000E+00
 -1       665 8.85417E-02 1.44531E-02 0.00000E+00
 -1       666 8.95833E-02 1.48437E-02 0.00000E+00
 -1       667 9.06250E-02 1.52344E-02 0.00000E+00
 -1       668 9.16667E-02 1.56250E-02 0.00000E+00
 -1       669 9.27083E-02 1.60156E-02 0.00000E+00
 -1       670 9.37500E-02 1.64062E-02 0.00000E+00
 -1       671 9.47917E-02 1.67969E-02 0.00000E+00
 -1       672 9.58333E-02 1.71875E-02 0.00000E+00
 -1       673 9.68750E-02 1.75781E-02 0.00000E+00
 -1       674 9.79167E-02 1.79687E-02 0.00000E+00
 -1       675 9.89583E-02 1.83594E-02 0.00000E+00
 -1       676 1.00000E-01 1.35417E-02 0.00000E+00
 -1       677 1.00000E-01 1.45833E-02 0.00000E+00
 -1       678 1.00000E-01 1.56250E-02 0.00000E+00
 -1       679 1.00000E-01 1.66667E-02 0.00000E+00
 -1       680 1.00000E-01 1.77083E-02 0.00000E+00
 -1       681 1.04167E-03 1.87500E-02 0.00000E+00
 -1       682 2.08333E-03 1.87500E-02 0.00000E+00
 -1       683 3.12500E-03 1.87500E-02 0.00000E+00
 -1       684 4.16667E-03 1.87500E-02 0.00000E+00
 -1       685 5.20833E-03 1.87500E-02 0.00000E+00
 -1       686 6.25000E-03 1.87500E-02 0.00000E+00
 -1       687 7.29167E-03 1.87500E-02 0.00000E+00
 -1       688 8.33333E-03 1.87500E-02 0.00000E+00
 -1       689 9.37500E-03 1.87500E-02 0.00000E+00
 -1       690 1.04167E-02 1.87500E-02 0.00000E+00
 -1       691 1.14583E-02 1.87500E-02 0.00000E+00
 -1       692 1.25000E-02 1.87500E-02 0.00000E+00
 -1       693 1.35417E-02 1.87500E-02 0.00000E+00
 -1       694 1.45833E-02 1.87500E-02 0.00000E+00
 -1       695 1.56250E-02 1.87500E-02 0.00000E+00
 -1       696 0.00000E+00 1.97917E-02 0.00000E+00
 -1       697 0.00000E+00 2.08333E-02 0.00000E+00
 -1       698 0.00000E+00 2.18750E-02 0.00000E+00
 -1       699 0.00000E+00 2.29167E-02 0.00000E+00
 -1       700 0.00000E+00 2.39583E-02 0.00000E+00
 -1       701 1.04167E-03 1.91406E-02 0.00000E+00
 -1       702 2.08333E-03 1.95312E-02 0.00000E+00
 -1       703 3.12500E-03 1.99219E-02 0.00000E+00
 -1       704 4.16667E-03 2.03125E-02 0.00000E+00
 -1       705 5.20833E-03 2.07031E-02 0.00000E+00
 -1       706 6.25000E-03 2.10938E-02 0.00000E+00
 -1       707 7.29167E-03 2.14844E-02 0.00000E+00
 -1       708 8.33333E-03 2.18750E-02 0.00000E+00
 -1       709 9.37500E-03 2.22656E-02 0.00000E+00
 -1       710 1.04167E-02 2.26563E-02 0.00000E+00
 -1       711 1.14583E-02 2.30469E-02 0.00000E+00
 -1       712 1.25000E-02 2.34375E-02 0.00000E+00
 -1       713 1.35417E-02 2.38281E-02 0.00000E+00
 -1       714 1.45833E-02 2.42187E-02 0.00000E+00
 -1       715 1.56250E-02 2.46094E-02 0.00000E+00
 -1       716 1.77083E-02 1.87500E-02 0.00000E+00
 -1       717 1.87500E-02 1.87500E-02 0.00000E+00
 -1       718 1.97917E-02 1.87500E-02 0.00000E+00
 -1       719 2.08333E-02 1.87500E-02 0.00000E+00
 -1       720 2.18750E-02 1.87500E-02 0.00000E+00
 -1       721 2.29167E-02 1.87500E-02 0.00000E+00
 -1       722 2.39583E-02 1.87500E-02 0.00000E+00
 -1       723 2.50000E-02 1.87500E-02 0.00000E+00
 -1       724 2.60417E-02 1.87500E-02 0.00000E+00
 -1       725 2.70833E-02 1.87500E-02 0.00000E+00
 -1       726 2.81250E-02 1.87500E-02 0.00000E+00
 -1       727 2.91667E-02 1.87500E-02 0.00000E+00
 -1       728 3.02083E-02 1.87500E-02 0.00000E+00
 -1       729 3.12500E-02 1.87500E-02 0.00000E+00
 -1       730 3.22917E-02 1.87500E-02 0.00000E+00
 -1       731 1.66667E-02 1.97917E-02 0.00000E+00
 -1       732 1.66667E-02 2.08333E-02 0.00000E+00
 -1       733 1.66667E-02 2.18750E-02 0.00000E+00
 -1       734 1.66667E-02 2.29167E-02 0.00000E+00
 -1       735 1.66667E-02 2.39583E-02 0.00000E+00
 -1       736 1.77083E-02 1.91406E-02 0.00000E+00
 -1       737 1.87500E-02 1.95312E-02 0.00000E+00
 -1       738 1.97917E-02 1.99219E-02 0.00000E+00
 -1       739 2.08333E-02 2.03125E-02 0.00000E+00
 -1       740 2.18750E-02 2.07031E-02 0.00000E+00
 -1       741 2.29167E-02 2.10938E-02 0.00000E+00
 -1       742 2.39583E-02 2.14844E-02 0.00000E+00
 -1       743 2.50000E-02 2.18750E-02 0.00000E+00
 -1       744 2.60417E-02 2.22656E-02 0.00000E+00
 -1       745 2.70833E-02 2.26563E-02 0.00000E+00
 -1       746 2.81250E-02 2.30469E-02 0.00000E+00
 -1       747 2.91667E-02 2.34375E-02 0.00000E+00
 -1       748 3.02083E-02 2.38281E-02 0.00000E+00
 -1       749 3.12500E-02 2.42187E-02 0.00000E+00
 -1       750 3.22917E-02 2.46094E-02 0.00000E+00
 -1       751 3.43750E-02 1.87500E-02 0.00000E+00
 -1       752 3.54167E-02 1.87500E-02 0.00000E+00
 -1       753 3.64583E-02 1.87500E-02 0.00000E+00
 -1       754 3.75000E-02 1.87500E-02 0.00000E+00
 -1       755 3.85417E-02 1.87500E-02 0.00000E+00
 -1       756 3.95833E-02 1.87500E-02 0.00000E+00
 -1       757 4.06250E-02 1.87500E-02 0.00000E+00
 -1       758 4.16667E-02 1.87500E-02 0.00000E+00
 -1       759 4.27083E-02 1.87500E-02 0.00000E+00
 -1       760 4.37500E-02 1.87500E-02 0.00000E+00
 -1       761 4.47917E-02 1.87500E-02 0.00000E+00
 -1       762 4.58333E-02 1.87500E-02 0.00000E+00
 -1       763 4.68750E-02 1.87500E-02 0.00000E+00
 -1       764 4.79167E-02 1.87500E-02 0.00000E+00
 -1       765 4.89583E-02 1.87500E-02 0.00000E+00
 -1       766 3.33333E-02 1.97917E-02 0.00000E+00
 -1       767 3.33333E-02 2.08333E-02 0.00000E+00
 -1       768 3.33333E-02 2.18750E-02 0.00000E+00
 -1       769 3.33333E-02 2.29167E-02 0.00000E+00
 -1       770 3.33333E-02 2.39583E-02 0.00000E+00
 -1       771 3.43750E-02 1.91406E-02 0.00000E+00
 -1       772 3.54167E-02 1.95312E-02 0.00000E+00
 -1       773 3.64583E-02 1.99219E-02 0.00000E+00
 -1       774 3.75000E-02 2.03125E-02 0.00000E+00
 -1       775 3.85417E-02 2.07031E-02 0.00000E+00
 -1       776 3.95833E-02 2.10938E-02 0.00000E+00
 -1       777 4.06250E-02 2.14844E-02 0.00000E+00
 -1       778 4.16667E-02 2.18750E-02 0.00000E+00
 -1       779 4.27083E-02 2.22656E-02 0.00000E+00
 -1       780 4.37500E-02 2.26563E-02 0.00000E+00
 -1       781 4.47917E-02 2.30469E-02 0.00000E+00
 -1       782 4.58333E-02 2.34375E-02 0.00000E+00
 -1       783 4.68750E-02 2.38281E-02 0.00000E+00
 -1       784 4.79167E-02 2.42187E-02 0.00000E+00
 -1       785 4.89583E-02 2.46094E-02 0.00000E+00
 -1       786 5.10417E-02 1.87500E-02 0.00000E+00
 -1       787 5.20833E-02 1.87500E-02 0.00000E+00
 -1       788 5.31250E-02 1.87500E-02 0.00000E+00
 -1       789 5.41667E-02 1.87500E-02 0.00000E+00
 -1       790 5.52083E-02 1.87500E-02 0.00000E+00
 -1       791 5.62500E-02 1.87500E-02 0.00000E+00
 -1       792 5.72917E-02 1.87500E-02 0.00000E+00
 -1       793 5.83333E-02 1.87500E-02 0.00000E+00
 -1       794 5.93750E-02 1.87500E-02 0.00000E+00
 -1       795 6.04167E-02 1.87500E-02 0.00000E+00
 -1       796 6.14583E-02 1.87500E-02 0.00000E+00
 -1       797 6.25000E-02 1.87500E-02 0.00000E+00
 -1       798 6.35417E-02 1.87500E-02 0.00000E+00
 -1       799 6.45833E-02 1.87500E-02 0.00000E+00
 -1       800 6.56250E-02 1.87500E-02 0.00000E+00
 -1       801 5.00000E-02 1.97917E-02 0.00000E+00
 -1       802 5.00000E-02 2.08333E-02 0.00000E+00
 -1       803 5.00000E-02 2.18750E-02 0.00000E+00
 -1       804 5.00000E-02 2.29167E-02 0.00000E+00
 -1       805 5.00000E-02 2.39583E-02 0.00000E+00
 -1       806 5.10417E-02 1.91406E-02 0.00000E+00
 -1       807 5.20833E-02 1.95312E-02 0.00000E+00
 -1       808 5.31250E-02 1.99219E-02 0.00000E+00
 -1       809 5.41667E-02 2.03125E-02 0.00000E+00
 -1       810 5.52083E-02 2.07031E-02 0.00000E+00
 -1       811 5.62500E-02 2.10938E-02 0.00000E+00
 -1       812 5.72917E-02 2.14844E-02 0.00000E+00
 -1       813 5.83333E-02 2.18750E-02 0.00000E+00
 -1       814 5.93750E-02 2.22656E-02 0.00000E+00
 -1       815 6.04167E-02 2.26563E-02 0.00000E+00
 -1       816 6.14583E-02 2.30469E-02 0.00000E+00
 -1       817 6.25000E-02 2.34375E-02 0.00000E+00
 -1       818 6.35417E-02 2.38281E-02 0.00000E+00
 -1       819 6.45833E-02 2.42187E-02 0.00000E+00
 -1       820 6.56250E-02 2.46094E-02 0.00000E+00
 -1       821 6.77083E-02 1.87500E-02 0.00000E+00
 -1       822 6.87500E-02 1.87500E-02 0.00000E+00
 -1       823 6.97917E-02 1.87500E-02 0.00000E+00
 -1       824 7.08333E-02 1.87500E-02 0.00000E+00
 -1       825 7.18750E-02 1.87500E-02 0.00000E+00
 -1       826 7.29167E-02 1.87500E-02 0.00000E+00
 -1       827 7.39583E-02 1.87500E-02 0.00000E+00
 -1       828 7.50000E-02 1.87500E-02 0.00000E+00
 -1       829 7.60417E-02 1.87500E-02 0.00000E+00
 -1       830 7.70833E-02 1.87500E-02 0.00000E+00
 -1       831 7.81250E-02 1.87500E-02 0.00000E+00
 -1       832 7.91667E-02 1.87500E-02 0.00000E+00
 -1       833 8.02083E-02 1.87500E-02 0.00000E+00
 -1       834 8.12500E-02 1.87500E-02 0.00000E+00
 -1       835 8.22917E-02 1.87500E-02 0.00000E+00
 -1       836 6.66667E-02 1.97917E-02 0.00000E+00
 -1       837 6.66667E-02 2.08333E-02 0.00000E+00
 -1       838 6.66667E-02 2.18750E-02 0.00000E+00
 -1       839 6.66667E-02 2.29167E-02 0.00000E+00
 -1       840 6.66667E-02 2.39583E-02 0.00000E+00
 -1       841 6.77083E-02 1.91406E-02 0.00000E+00
 -1       842 6.87500E-02 1.95312E-02 0.00000E+00
 -1       843 6.97917E-02 1.99219E-02 0.00000E+00
 -1       844 7.08333E-02 2.03125E-02 0.00000E+00
 -1       845 7.18750E-02 2.07031E-02 0.00000E+00
 -1       846 7.29167E-02 2.10938E-02 0.00000E+00
 -1       847 7.39583E-02 2.14844E-02 0.00000E+00
 -1       848 7.50000E-02 2.18750E-02 0.00000E+00
 -1       849 7.60417E-02 2.22656E-02 0.00000E+00
 -1       850 7.70833E-02 2.26563E-02 0.00000E+00
 -1       851 7.81250E-02 2.30469E-02 0.00000E+00
 -1       852 7.91667E-02 2.34375E-02 0.00000E+00
 -1       853 8.02083E-02 2.38281E-02 0.00000E+00
 -1       854 8.12500E-02 2.42187E-02 0.00000E+00
 -1       855 8.22917E-02 2.46094E-02 0.00000E+00
 -1       856 8.43750E-02 1.87500E-02 0.00000E+00
 -1       857 8.54167E-02 1.87500E-02 0.00000E+00
 -1       858 8.64583E-02 1.87500E-02 0.00000E+00
 -1       859 8.75000E-02 1.87500E-02 0.00000E+00
 -1       860 8.85417E-02 1.87500E-02 0.00000E+00
 -1       861 8.95833E-02 1.87500E-02 0.00000E+00
 -1       862 9.06250E-02 1.87500E-02 0.00000E+00
 -1       863 9.16667E-02 1.87500E-02 0.00000E+00
 -1       864 9.27083E-02 1.87500E-02 0.00000E+00
 -1       865 9.37500E-02 1.87500E-02 0.00000E+00
 -1       866 9.47917E-02 1.87500E-02 0.00000E+00
 -1       867 9.58333E-02 1.87500E-02 0.00000E+00
 -1       868 9.68750E-02 1.87500E-02 0.00000E+00
 -1       869 9.79167E-02 1.87500E-02 0.00000E+00
 -1       870 9.89583E-02 1.87500E-02 0.00000E+00
 -1       871 8.33333E-02 1.97917E-02 0.00000E+00
 -1       872 8.33333E-02 2.08333E-02 0.00000E+00
 -1       873 8.33333E-02 2.18750E-02 0.00000E+00
 -1       874 8.33333E-02 2.29167E-02 0.00000E+00
 -1       875 8.33333E-02 2.39583E-02 0.00000E+00
 -1       876 8.43750E-02 1.91406E-02 0.00000E+00
 -1       877 8.54167E-02 1.95312E-02 0.00000E+00
 -1       878 8.64583E-02 1.99219E-02 0.00000E+00
 -1       879 8.75000E-02 2.03125E-02 0.00000E+00
 -1       880 8.85417E-02 2.07031E-02 0.00000E+00
 -1       881 8.95833E-02 2.10938E-02 0.00000E+00
 -1       882 9.06250E-02 2.14844E-02 0.00000E+00
 -1       883 9.16667E-02 2.18750E-02 0.00000E+00
 -1       884 9.27083E-02 2.22656E-02 0.00000E+00
 -1       885 9.37500E-02 2.26563E-02 0.00000E+00
 -1       886 9.47917E-02 2.30469E-02 0.00000E+00
 -1       887 9.58333E-02 2.34375E-02 0.00000E+00
 -1       888 9.68750E-02 2.38281E-02 0.00000E+00
 -1       889 9.79167E-02 2.42187E-02 0.00000E+00
 -1       890 9.89583E-02 2.46094E-02 0.00000E+00
 -1       891 1.00000E-01 1.97917E-02 0.00000E+00
 -1       892 1.00000E-01 2.08333E-02 0.00000E+00
 -1       893 1.00000E-01 2.18750E-02 0.00000E+00
 -1       894 1.00000E-01 2.29167E-02 0.00000E+00
 -1       895 1.00000E-01 2.39583E-02 0.00000E+00
 -1       896 1.04167E-03 2.50000E-02 0.00000E+00
 -1       897 2.08333E-03 2.50000E-02 0.00000E+00
 -1       898 3.12500E-03 2.50000E-02 0.00000E+00
 -1       899 4.16667E-03 2.50000E-02 0.00000E+00
 -1       900 5.20833E-03 2.50000E-02 0.00000E+00
 -1       901 6.25000E-03 2.50000E-02 0.00000E+00
 -1       902 7.29167E-03 2.50000E-02 0.00000E+00
 -1       903 8.33333E-03 2.50000E-02 0.00000E+00
 -1       904 9.37500E-03 2.50000E-02 0.00000E+00
 -1       905 1.04167E-02 2.50000E-02 0.00000E+00
 -1       906 1.14583E-02 2.50000E-02 0.00000E+00
 -1       907 1.25000E-02 2.50000E-02 0.00000E+00
 -1       908 1.35417E-02 2.50000E-02 0.00000E+00
 -1       909 1.45833E-02 2.50000E-02 0.00000E+00
 -1       910 1.56250E-02 2.50000E-02 0.00000E+00
 -1       911 1.77083E-02 2.50000E-02 0.00000E+00
 -1       912 1.87500E-02 2.50000E-02 0.00000E+00
 -1       913 1.97917E-02 2.50000E-02 0.00000E+00
 -1       914 2.08333E-02 2.50000E-02 0.00000E+00
 -1       915 2.18750E-02 2.50000E-02 0.00000E+00
 -1       916 2.29167E-02 2.50000E-02 0.00000E+00
 -1       917 2.39583E-02 2.50000E-02 0.00000E+00
 -1       918 2.50000E-02 2.50000E-02 0.00000E+00
 -1       919 2.60417E-02 2.50000E-02 0.00000E+00
 -1       920 2.70833E-02 2.50000E-02 0.00000E+00
 -1       921 2.81250E-02 2.50000E-02 0.00000E+00
 -1       922 2.91667E-02 2.50000E-02 0.00000E+00
 -1       923 3.02083E-02 2.50000E-02 0.00000E+00
 -1       924 3.12500E-02 2.50000E-02 0.00000E+00
 -1       925 3.22917E-02 2.50000E-02 0.00000E+00
 -1       926 3.43750E-02 2.50000E-02 0.00000E+00
 -1       927 3.54167E-02 2.50000E-02 0.00000E+00
 -1       928 3.64583E-02 2.50000E-02 0.00000E+00
 -1       929 3.75000E-02 2.50000E-02 0.00000E+00
 -1       930 3.85417E-02 2.50000E-02 0.00000E+00
 -1       931 3.95833E-02 2.50000E-02 0.00000E+00
 -1       932 4.06250E-02 2.50000E-02 0.00000E+00
 -1       933 4.16667E-02 2.50000E-02 0.00000E+00
 -1       934 4.27083E-02 2.50000E-02 0.00000E+00
 -1       935 4.37500E-02 2.50000E-02 0.00000E+00
 -1       936 4.47917E-02 2.50000E-02 0.00000E+00
 -1       937 4.58333E-02 2.50000E-02 0.00000E+00
 -1       938 4.68750E-02 2.50000E-02 0.00000E+00
 -1       939 4.79167E-02 2.50000E-02 0.00000E+00
 -1       940 4.89583E-02 2.50000E-02 0.00000E+00
 -1       941 5.10417E-02 2.50000E-02 0.00000E+00
 -1       942 5.20833E-02 2.50000E-02 0.00000E+00
 -1       943 5.31250E-02 2.50000E-02 0.00000E+00
 -1       944 5.41667E-02 2.50000E-02 0.00000E+00
 -1       945 5.52083E-02 2.50000E-02 0.00000E+00
 -1       946 5.62500E-02 2.50000E-02 0.00000E+00
 -1       947 5.72917E-02 2.50000E-02 0.00000E+00
 -1       948 5.83333E-02 2.50000E-02 0.00000E+00
 -1       949 5.93750E-02 2.50000E-02 0.00000E+00
 -1       950 6.04167E-02 2.50000E-02 0.00000E+00
 -1       951 6.14583E-02 2.50000E-02 0.00000E+00
 -1       952 6.25000E-02 2.50000E-02 0.00000E+00
 -1       953 6.35417E-02 2.50000E-02 0.00000E+00
 -1       954 6.45833E-02 2.50000E-02 0.00000E+00
 -1       955 6.56250E-02 2.50000E-02 0.00000E+00
 -1       956 6.77083E-02 2.50000E-02 0.00000E+00
 -1       957 6.87500E-02 2.50000E-02 0.00000E+00
 -1       958 6.97917E-02 2.50000E-02 0.00000E+00
 -1       959 7.08333E-02 2.50000E-02 0.00000E+00
 -1       960 7.18750E-02 2.50000E-02 0.00000E+00
 -1       961 7.29167E-02 2.50000E-02 0.00000E+00
 -1       962 7.39583E-02 2.50000E-02 0.00000E+00
 -1       963 7.50000E-02 2.50000E-02 0.00000E+00
 -1       964 7.60417E-02 2.50000E-02 0.00000E+00
 -1       965 7.70833E-02 2.50000E-02 0.00000E+00
 -1       966 7.81250E-02 2.50000E-02 0.00000E+00
 -1       967 7.91667E-02 2.50000E-02 0.00000E+00
 -1       968 8.02083E-02 2.50000E-02 0.00000E+00
 -1       969 8.12500E-02 2.50000E-02 0.00000E+00
 -1       970 8.22917E-02 2.50000E-02 0.00000E+00
 -1       971 8.43750E-02 2.50000E-02 0.00000E+00
 -1       972 8.54167E-02 2.50000E-02 0.00000E+00
 -1       973 8.64583E-02 2.50000E-02 0.00000E+00
 -1       974 8.75000E-02 2.50000E-02 0.00000E+00
 -1       975 8.85417E-02 2.50000E-02 0.00000E+00
 -1       976 8.95833E-02 2.50000E-02 0.00000E+00
 -1       977 9.06250E-02 2.50000E-02 0.00000E+00
 -1       978 9.16667E-02 2.50000E-02 0.00000E+00
 -1       979 9.27083E-02 2.50000E-02 0.00000E+00
 -1       980 9.37500E-02 2.50000E-02 0.00000E+00
 -1       981 9.47917E-02 2.50000E-02 0.00000E+00
 -1       982 9.58333E-02 2.50000E-02 0.00000E+00
 -1       983 9.68750E-02 2.50000E-02 0.00000E+00
 -1       984 9.79167E-02 2.50000E-02 0.00000E+00
 -1       985 9.89583E-02 2.50000E-02 0.00000E+00
 -3
    3C                           440                                     1
 -1         1   12    0    1
 -2         1        37        36
 -1         2   12    0    1
 -2        37        39        38
 -1         3   12    0    1
 -2        39        41        40
 -1         4   12    0    1
 -2        41        43        42
 -1         5   12    0    1
 -2        43        45        44
 -1         6   12    0    1
 -2        45        47        46
 -1         7   12    0    1
 -2        47        49        48
 -1         8   12    0    1
 -2        49         2        50
 -1         9   12    0    1
 -2         1        52        51
 -1        10   12    0    1
 -2        52        54        53
 -1        11   12    0    1
 -2        54         8        55
 -1        12   12    0    1
 -2         1        57        56
 -1        13   12    0    1
 -2        57        59        58
 -1        14   12    0    1
 -2        59        61        60
 -1        15   12    0    1
 -2        61        63        62
 -1        16   12    0    1
 -2        63        65        64
 -1        17   12    0    1
 -2        65        67        66
 -1        18   12    0    1
 -2        67        69        68
 -1        19   12    0    1
 -2        69         9        70
 -1        20   12    0    1
 -2         2        72        71
 -1        21   12    0    1
 -2        72        74        73
 -1        22   12    0    1
 -2        74        76        75
 -1        23   12    0    1
 -2        76        78        77
 -1        24   12    0    1
 -2        78        80        79
 -1        25   12    0    1
 -2        80        82        81
 -1        26   12    0    1
 -2        82        84        83
 -1        27   12    0    1
 -2        84         3        85
 -1        28   12    0    1
 -2         2        87        86
 -1        29   12    0    1
 -2        87        89        88
 -1        30   12    0    1
 -2        89         9        90
 -1        31   12    0    1
 -2         2        92        91
 -1        32   12    0    1
 -2        92        94        93
 -1        33   12    0    1
 -2        94        96        95
 -1        34   12    0    1
 -2        96        98        97
 -1        35   12    0    1
 -2        98       100        99
 -1        36   12    0    1
 -2       100       102       101
 -1        37   12    0    1
 -2       102       104       103
 -1        38   12    0    1
 -2       104        10       105
 -1        39   12    0    1
 -2         3       107       106
 -1        40   12    0    1
 -2       107       109       108
 -1        41   12    0    1
 -2       109       111       110
 -1        42   12    0    1
 -2       111       113       112
 -1        43   12    0    1
 -2       113       115       114
 -1        44   12    0    1
 -2       115       117       116
 -1        45   12    0    1
 -2       117       119       118
 -1        46   12    0    1
 -2       119         4       120
 -1        47   12    0    1
 -2         3       122       121
 -1        48   12    0    1
 -2       122       124       123
 -1        49   12    0    1
 -2       124        10       125
 -1        50   12    0    1
 -2         3       127       126
 -1        51   12    0    1
 -2       127       129       128
 -1        52   12    0    1
 -2       129       131       130
 -1        53   12    0    1
 -2       131       133       132
 -1        54   12    0    1
 -2       133       135       134
 -1        55   12    0    1
 -2       135       137       136
 -1        56   12    0    1
 -2       137       139       138
 -1        57   12    0    1
 -2       139        11       140
 -1        58   12    0    1
 -2         4       142       141
 -1        59   12    0    1
 -2       142       144       143
 -1        60   12    0    1
 -2       144       146       145
 -1        61   12    0    1
 -2       146       148       147
 -1        62   12    0    1
 -2       148       150       149
 -1        63   12    0    1
 -2       150       152       151
 -1        64   12    0    1
 -2       152       154       153
 -1        65   12    0    1
 -2       154         5       155
 -1        66   12    0    1
 -2         4       157       156
 -1        67   12    0    1
 -2       157       159       158
 -1        68   12    0    1
 -2       159        11       160
 -1        69   12    0    1
 -2         4       162       161
 -1        70   12    0    1
 -2       162       164       163
 -1        71   12    0    1
 -2       164       166       165
 -1        72   12    0    1
 -2       166       168       167
 -1        73   12    0    1
 -2       168       170       169
 -1        74   12    0    1
 -2       170       172       171
 -1        75   12    0    1
 -2       172       174       173
 -1        76   12    0    1
 -2       174        12       175
 -1        77   12    0    1
 -2         5       192       191
 -1        78   12    0    1
 -2       192       194       193
 -1        79   12    0    1
 -2       194        12       195
 -1        80   12    0    1
 -2         8       252       251
 -1        81   12    0    1
 -2       252       254       253
 -1        82   12    0    1
 -2       254       256       255
 -1        83   12    0    1
 -2       256       258       257
 -1        84   12    0    1
 -2       258       260       259
 -1        85   12    0    1
 -2       260       262       261
 -1        86   12    0    1
 -2       262       264       263
 -1        87   12    0    1
 -2       264         9       265
 -1        88   12    0    1
 -2         8       267       266
 -1        89   12    0    1
 -2       267       269       268
 -1        90   12    0    1
 -2       269        15       270
 -1        91   12    0    1
 -2         8       272       271
 -1        92   12    0    1
 -2       272       274       273
 -1        93   12    0    1
 -2       274       276       275
 -1        94   12    0    1
 -2       276       278       277
 -1        95   12    0    1
 -2       278       280       279
 -1        96   12    0    1
 -2       280       282       281
 -1        97   12    0    1
 -2       282       284       283
 -1        98   12    0    1
 -2       284        16       285
 -1        99   12    0    1
 -2         9       287       286
 -1       100   12    0    1
 -2       287       289       288
 -1       101   12    0    1
 -2       289       291       290
 -1       102   12    0    1
 -2       291       293       292
 -1       103   12    0    1
 -2       293       295       294
 -1       104   12    0    1
 -2       295       297       296
 -1       105   12    0    1
 -2       297       299       298
 -1       106   12    0    1
 -2       299        10       300
 -1       107   12    0    1
 -2         9       302       301
 -1       108   12    0    1
 -2       302       304       303
 -1       109   12    0    1
 -2       304        16       305
 -1       110   12    0    1
 -2         9       307       306
 -1       111   12    0    1
 -2       307       309       308
 -1       112   12    0    1
 -2       309       311       310
 -1       113   12    0    1
 -2       311       313       312
 -1       114   12    0    1
 -2       313       315       314
 -1       115   12    0    1
 -2       315       317       316
 -1       116   12    0    1
 -2       317       319       318
 -1       117   12    0    1
 -2       319        17       320
 -1       118   12    0    1
 -2        10       322       321
 -1       119   12    0    1
 -2       322       324       323
 -1       120   12    0    1
 -2       324       326       325
 -1       121   12    0    1
 -2       326       328       327
 -1       122   12    0    1
 -2       328       330       329
 -1       123   12    0    1
 -2       330       332       331
 -1       124   12    0    1
 -2       332       334       333
 -1       125   12    0    1
 -2       334        11       335
 -1       126   12    0    1
 -2        10       337       336
 -1       127   12    0    1
 -2       337       339       338
 -1       128   12    0    1
 -2       339        17       340
 -1       129   12    0    1
 -2        10       342       341
 -1       130   12    0    1
 -2       342       344       343
 -1       131   12    0    1
 -2       344       346       345
 -1       132   12    0    1
 -2       346       348       347
 -1       133   12    0    1
 -2       348       350       349
 -1       134   12    0    1
 -2       350       352       351
 -1       135   12    0    1
 -2       352       354       353
 -1       136   12    0    1
 -2       354        18       355
 -1       137   12    0    1
 -2        11       357       356
 -1       138   12    0    1
 -2       357       359       358
 -1       139   12    0    1
 -2       359       361       360
 -1       140   12    0    1
 -2       361       363       362
 -1       141   12    0    1
 -2       363       365       364
 -1       142   12    0    1
 -2       365       367       366
 -1       143   12    0    1
 -2       367       369       368
 -1       144   12    0    1
 -2       369        12       370
 -1       145   12    0    1
 -2        11       372       371
 -1       146   12    0    1
 -2       372       374       373
 -1       147   12    0    1
 -2       374        18       375
 -1       148   12    0    1
 -2        11       377       376
 -1       149   12    0    1
 -2       377       379       378
 -1       150   12    0    1
 -2       379       381       380
 -1       151   12    0    1
 -2       381       383       382
 -1       152   12    0    1
 -2       383       385       384
 -1       153   12    0    1
 -2       385       387       386
 -1       154   12    0    1
 -2       387       389       388
 -1       155   12    0    1
 -2       389        19       390
 -1       156   12    0    1
 -2        12       407       406
 -1       157   12    0    1
 -2       407       409       408
 -1       158   12    0    1
 -2       409        19       410
 -1       159   12    0    1
 -2        15       467       466
 -1       160   12    0    1
 -2       467       469       468
 -1       161   12    0    1
 -2       469       471       470
 -1       162   12    0    1
 -2       471       473       472
 -1       163   12    0    1
 -2       473       475       474
 -1       164   12    0    1
 -2       475       477       476
 -1       165   12    0    1
 -2       477       479       478
 -1       166   12    0    1
 -2       479        16       480
 -1       167   12    0    1
 -2        15       482       481
 -1       168   12    0    1
 -2       482       484       483
 -1       169   12    0    1
 -2       484        22       485
 -1       170   12    0    1
 -2        15       487       486
 -1       171   12    0    1
 -2       487       489       488
 -1       172   12    0    1
 -2       489       491       490
 -1       173   12    0    1
 -2       491       493       492
 -1       174   12    0    1
 -2       493       495       494
 -1       175   12    0    1
 -2       495       497       496
 -1       176   12    0    1
 -2       497       499       498
 -1       177   12    0    1
 -2       499        23       500
 -1       178   12    0    1
 -2        16       502       501
 -1       179   12    0    1
 -2       502       504       503
 -1       180   12    0    1
 -2       504       506       505
 -1       181   12    0    1
 -2       506       508       507
 -1       182   12    0    1
 -2       508       510       509
 -1       183   12    0    1
 -2       510       512       511
 -1       184   12    0    1
 -2       512       514       513
 -1       185   12    0    1
 -2       514        17       515
 -1       186   12    0    1
 -2        16       517       516
 -1       187   12    0    1
 -2       517       519       518
 -1       188   12    0    1
 -2       519        23       520
 -1       189   12    0    1
 -2        16       522       521
 -1       190   12    0    1
 -2       522       524       523
 -1       191   12    0    1
 -2       524       526       525
 -1       192   12    0    1
 -2       526       528       527
 -1       193   12    0    1
 -2       528       530       529
 -1       194   12    0    1
 -2       530       532       531
 -1       195   12    0    1
 -2       532       534       533
 -1       196   12    0    1
 -2       534        24       535
 -1       197   12    0    1
 -2        17       537       536
 -1       198   12    0    1
 -2       537       539       538
 -1       199   12    0    1
 -2       539       541       540
 -1       200   12    0    1
 -2       541       543       542
 -1       201   12    0    1
 -2       543       545       544
 -1       202   12    0    1
 -2       545       547       546
 -1       203   12    0    1
 -2       547       549       548
 -1       204   12    0    1
 -2       549        18       550
 -1       205   12    0    1
 -2        17       552       551
 -1       206   12    0    1
 -2       552       554       553
 -1       207   12    0    1
 -2       554        24       555
 -1       208   12    0    1
 -2        17       557       556
 -1       209   12    0    1
 -2       557       559       558
 -1       210   12    0    1
 -2       559       561       560
 -1       211   12    0    1
 -2       561       563       562
 -1       212   12    0    1
 -2       563       565       564
 -1       213   12    0    1
 -2       565       567       566
 -1       214   12    0    1
 -2       567       569       568
 -1       215   12    0    1
 -2       569        25       570
 -1       216   12    0    1
 -2        18       572       571
 -1       217   12    0    1
 -2       572       574       573
 -1       218   12    0    1
 -2       574       576       575
 -1       219   12    0    1
 -2       576       578       577
 -1       220   12    0    1
 -2       578       580       579
 -1       221   12    0    1
 -2       580       582       581
 -1       222   12    0    1
 -2       582       584       583
 -1       223   12    0    1
 -2       584        19       585
 -1       224   12    0    1
 -2        18       587       586
 -1       225   12    0    1
 -2       587       589       588
 -1       226   12    0    1
 -2       589        25       590
 -1       227   12    0    1
 -2        18       592       591
 -1       228   12    0    1
 -2       592       594       593
 -1       229   12    0    1
 -2       594       596       595
 -1       230   12    0    1
 -2       596       598       597
 -1       231   12    0    1
 -2       598       600       599
 -1       232   12    0    1
 -2       600       602       601
 -1       233   12    0    1
 -2       602       604       603
 -1       234   12    0    1
 -2       604        26       605
 -1       235   12    0    1
 -2        19       607       606
 -1       236   12    0    1
 -2       607       609       608
 -1       237   12    0    1
 -2       609       611       610
 -1       238   12    0    1
 -2       611       613       612
 -1       239   12    0    1
 -2       613       615       614
 -1       240   12    0    1
 -2       615       617       616
 -1       241   12    0    1
 -2       617       619       618
 -1       242   12    0    1
 -2       619        20       620
 -1       243   12    0    1
 -2        19       622       621
 -1       244   12    0    1
 -2       622       624       623
 -1       245   12    0    1
 -2       624        26       625
 -1       246   12    0    1
 -2        19       627       626
 -1       247   12    0    1
 -2       627       629       628
 -1       248   12    0    1
 -2       629       631       630
 -1       249   12    0    1
 -2       631       633       632
 -1       250   12    0    1
 -2       633       635       634
 -1       251   12    0    1
 -2       635       637       636
 -1       252   12    0    1
 -2       637       639       638
 -1       253   12    0    1
 -2       639        27       640
 -1       254   12    0    1
 -2        20       642       641
 -1       255   12    0    1
 -2       642       644       643
 -1       256   12    0    1
 -2       644       646       645
 -1       257   12    0    1
 -2       646       648       647
 -1       258   12    0    1
 -2       648       650       649
 -1       259   12    0    1
 -2       650       652       651
 -1       260   12    0    1
 -2       652       654       653
 -1       261   12    0    1
 -2       654        21       655
 -1       262   12    0    1
 -2        20       657       656
 -1       263   12    0    1
 -2       657       659       658
 -1       264   12    0    1
 -2       659        27       660
 -1       265   12    0    1
 -2        20       662       661
 -1       266   12    0    1
 -2       662       664       663
 -1       267   12    0    1
 -2       664       666       665
 -1       268   12    0    1
 -2       666       668       667
 -1       269   12    0    1
 -2       668       670       669
 -1       270   12    0    1
 -2       670       672       671
 -1       271   12    0    1
 -2       672       674       673
 -1       272   12    0    1
 -2       674        28       675
 -1       273   12    0    1
 -2        21       677       676
 -1       274   12    0    1
 -2       677       679       678
 -1       275   12    0    1
 -2       679        28       680
 -1       276   12    0    1
 -2        22       682       681
 -1       277   12    0    1
 -2       682       684       683
 -1       278   12    0    1
 -2       684       686       685
 -1       279   12    0    1
 -2       686       688       687
 -1       280   12    0    1
 -2       688       690       689
 -1       281   12    0    1
 -2       690       692       691
 -1       282   12    0    1
 -2       692       694       693
 -1       283   12    0    1
 -2       694        23       695
 -1       284   12    0    1
 -2        22       697       696
 -1       285   12    0    1
 -2       697       699       698
 -1       286   12    0    1
 -2       699        29       700
 -1       287   12    0    1
 -2        22       702       701
 -1       288   12    0    1
 -2       702       704       703
 -1       289   12    0    1
 -2       704       706       705
 -1       290   12    0    1
 -2       706       708       707
 -1       291   12    0    1
 -2       708       710       709
 -1       292   12    0    1
 -2       710       712       711
 -1       293   12    0    1
 -2       712       714       713
 -1       294   12    0    1
 -2       714        30       715
 -1       295   12    0    1
 -2        23       717       716
 -1       296   12    0    1
 -2       717       719       718
 -1       297   12    0    1
 -2       719       721       720
 -1       298   12    0    1
 -2       721       723       722
 -1       299   12    0    1
 -2       723       725       724
 -1       300   12    0    1
 -2       725       727       726
 -1       301   12    0    1
 -2       727       729       728
 -1       302   12    0    1
 -2       729        24       730
 -1       303   12    0    1
 -2        23       732       731
 -1       304   12    0    1
 -2       732       734       733
 -1       305   12    0    1
 -2       734        30       735
 -1       306   12    0    1
 -2        23       737       736
 -1       307   12    0    1
 -2       737       739       738
 -1       308   12    0    1
 -2       739       741       740
 -1       309   12    0    1
 -2       741       743       742
 -1       310   12    0    1
 -2       743       745       744
 -1       311   12    0    1
 -2       745       747       746
 -1       312   12    0    1
 -2       747       749       748
 -1       313   12    0    1
 -2       749        31       750
 -1       314   12    0    1
 -2        24       752       751
 -1       315   12    0    1
 -2       752       754       753
 -1       316   12    0    1
 -2       754       756       755
 -1       317   12    0    1
 -2       756       758       757
 -1       318   12    0    1
 -2       758       760       759
 -1       319   12    0    1
 -2       760       762       761
 -1       320   12    0    1
 -2       762       764       763
 -1       321   12    0    1
 -2       764        25       765
 -1       322   12    0    1
 -2        24       767       766
 -1       323   12    0    1
 -2       767       769       768
 -1       324   12    0    1
 -2       769        31       770
 -1       325   12    0    1
 -2        24       772       771
 -1       326   12    0    1
 -2       772       774       773
 -1       327   12    0    1
 -2       774       776       775
 -1       328   12    0    1
 -2       776       778       777
 -1       329   12    0    1
 -2       778       780       779
 -1       330   12    0    1
 -2       780       782       781
 -1       331   12    0    1
 -2       782       784       783
 -1       332   12    0    1
 -2       784        32       785
 -1       333   12    0    1
 -2        25       787       786
 -1       334   12    0    1
 -2       787       789       788
 -1       335   12    0    1
 -2       789       791       790
 -1       336   12    0    1
 -2       791       793       792
 -1       337   12    0    1
 -2       793       795       794
 -1       338   12    0    1
 -2       795       797       796
 -1       339   12    0    1
 -2       797       799       798
 -1       340   12    0    1
 -2       799        26       800
 -1       341   12    0    1
 -2        25       802       801
 -1       342   12    0    1
 -2       802       804       803
 -1       343   12    0    1
 -2       804        32       805
 -1       344   12    0    1
 -2        25       807       806
 -1       345   12    0    1
 -2       807       809       808
 -1       346   12    0    1
 -2       809       811       810
 -1       347   12    0    1
 -2       811       813       812
 -1       348   12    0    1
 -2       813       815       814
 -1       349   12    0    1
 -2       815       817       816
 -1       350   12    0    1
 -2       817       819       818
 -1       351   12    0    1
 -2       819        33       820
 -1       352   12    0    1
 -2        26       822       821
 -1       353   12    0    1
 -2       822       824       823
 -1       354   12    0    1
 -2       824       826       825
 -1       355   12    0    1
 -2       826       828       827
 -1       356   12    0    1
 -2       828       830       829
 -1       357   12    0    1
 -2       830       832       831
 -1       358   12    0    1
 -2       832       834       833
 -1       359   12    0    1
 -2       834        27       835
 -1       360   12    0    1
 -2        26       837       836
 -1       361   12    0    1
 -2       837       839       838
 -1       362   12    0    1
 -2       839        33       840
 -1       363   12    0    1
 -2        26       842       841
 -1       364   12    0    1
 -2       842       844       843
 -1       365   12    0    1
 -2       844       846       845
 -1       366   12    0    1
 -2       846       848       847
 -1       367   12    0    1
 -2       848       850       849
 -1       368   12    0    1
 -2       850       852       851
 -1       369   12    0    1
 -2       852       854       853
 -1       370   12    0    1
 -2       854        34       855
 -1       371   12    0    1
 -2        27       857       856
 -1       372   12    0    1
 -2       857       859       858
 -1       373   12    0    1
 -2       859       861       860
 -1       374   12    0    1
 -2       861       863       862
 -1       375   12    0    1
 -2       863       865       864
 -1       376   12    0    1
 -2       865       867       866
 -1       377   12    0    1
 -2       867       869       868
 -1       378   12    0    1
 -2       869        28       870
 -1       379   12    0    1
 -2        27       872       871
 -1       380   12    0    1
 -2       872       874       873
 -1       381   12    0    1
 -2       874        34       875
 -1       382   12    0    1
 -2        27       877       876
 -1       383   12    0    1
 -2       877       879       878
 -1       384   12    0    1
 -2       879       881       880
 -1       385   12    0    1
 -2       881       883       882
 -1       386   12    0    1
 -2       883       885       884
 -1       387   12    0    1
 -2       885       887       886
 -1       388   12    0    1
 -2       887       889       888
 -1       389   12    0    1
 -2       889        35       890
 -1       390   12    0    1
 -2        28       892       891
 -1       391   12    0    1
 -2       892       894       893
 -1       392   12    0    1
 -2       894        35       895
 -1       393   12    0    1
 -2        29       897       896
 -1       394   12    0    1
 -2       897       899       898
 -1       395   12    0    1
 -2       899       901       900
 -1       396   12    0    1
 -2       901       903       902
 -1       397   12    0    1
 -2       903       905       904
 -1       398   12    0    1
 -2       905       907       906
 -1       399   12    0    1
 -2       907       909       908
 -1       400   12    0    1
 -2       909        30       910
 -1       401   12    0    1
 -2        30       912       911
 -1       402   12    0    1
 -2       912       914       913
 -1       403   12    0    1
 -2       914       916       915
 -1       404   12    0    1
 -2       916       918       917
 -1       405   12    0    1
 -2       918       920       919
 -1       406   12    0    1
 -2       920       922       921
 -1       407   12    0    1
 -2       922       924       923
 -1       408   12    0    1
 -2       924        31       925
 -1       409   12    0    1
 -2        31       927       926
 -1       410   12    0    1
 -2       927       929       928
 -1       411   12    0    1
 -2       929       931       930
 -1       412   12    0    1
 -2       931       933       932
 -1       413   12    0    1
 -2       933       935       934
 -1       414   12    0    1
 -2       935       937       936
 -1       415   12    0    1
 -2       937       939       938
 -1       416   12    0    1
 -2       939        32       940
 -1       417   12    0    1
 -2        32       942       941
 -1       418   12    0    1
 -2       942       944       943
 -1       419   12    0    1
 -2       944       946       945
 -1       420   12    0    1
 -2       946       948       947
 -1       421   12    0    1
 -2       948       950       949
 -1       422   12    0    1
 -2       950       952       951
 -1       423   12    0    1
 -2       952       954       953
 -1       424   12    0    1
 -2       954        33       955
 -1       425   12    0    1
 -2        33       957       956
 -1       426   12    0    1
 -2       957       959       958
 -1       427   12    0    1
 -2       959       961       960
 -1       428   12    0    1
 -2       961       963       962
 -1       429   12    0    1
 -2       963       965       964
 -1       430   12    0    1
 -2       965       967       966
 -1       431   12    0    1
 -2       967       969       968
 -1       432   12    0    1
 -2       969        34       970
 -1       433   12    0    1
 -2        34       972       971
 -1       434   12    0    1
 -2       972       974       973
 -1       435   12    0    1
 -2       974       976       975
 -1       436   12    0    1
 -2       976       978       977
 -1       437   12    0    1
 -2       978       980       979
 -1       438   12    0    1
 -2       980       982       981
 -1       439   12    0    1
 -2       982       984       983
 -1       440   12    0    1
 -2       984        35       985
 -3
    1PSTEP                         1           1           1          
  100CL  101 1.000000000         841                     0    1           1
 -4  DISP        4    1
 -5  D1          1    2    1    0
 -5  D2          1    2    2    0
 -5  D3          1    2    3    0
 -5  ALL         1    2    0    0    1ALL
 -1         1 7.79232E-05 0.00000E+00 0.00000E+00
 -1         2 6.15427E-05 0.00000E+00 0.00000E+00
 -1         3 5.52425E-05 0.00000E+00 0.00000E+00
 -1         4 5.36462E-05 0.00000E+00 0.00000E+00
 -1         5 5.36957E-05 0.00000E+00 0.00000E+00
 -1         8 5.14438E-05-1.17503E-06 0.00000E+00
 -1         9 5.11894E-05 1.30845E-06 0.00000E+00
 -1        10 5.00561E-05-2.06700E-06 0.00000E+00
 -1        11 4.99164E-05-5.21655E-07 0.00000E+00
 -1        12 5.07297E-05 2.97244E-06 0.00000E+00
 -1        15 2.26416E-05-1.77377E-06 0.00000E+00
 -1        16 2.95912E-05 1.51149E-06 0.00000E+00
 -1        17 3.15647E-05-4.17214E-06 0.00000E+00
 -1        18 3.72049E-05-9.97147E-07 0.00000E+00
 -1        19 4.16547E-05 5.84381E-06 0.00000E+00
 -1        20 4.27534E-05 5.60264E-05 0.00000E+00
 -1        21 4.26984E-05 1.18858E-04 0.00000E+00
 -1        22 9.31382E-06-1.12441E-06 0.00000E+00
 -1        23 1.21381E-05 1.93185E-06 0.00000E+00
 -1        24 1.42936E-05-4.78283E-06 0.00000E+00
 -1        25 2.41641E-05-7.27126E-07 0.00000E+00
 -1        26 3.00068E-05 7.55855E-06 0.00000E+00
 -1        27 2.61366E-05 5.48485E-05 0.00000E+00
 -1        28 2.32184E-05 1.17807E-04 0.00000E+00
 -1        29 0.00000E+00 0.00000E+00 0.00000E+00
 -1        30 4.53630E-06 2.33657E-06 0.00000E+00
 -1        31 5.81140E-06-3.81411E-06 0.00000E+00
 -1        32 0.00000E+00 0.00000E+00 0.00000E+00
 -1        33 1.26551E-05 1.08616E-05 0.00000E+00
 -1        34 1.08467E-05 5.47458E-05 0.00000E+00
 -1        35 6.89004E-06 1.17241E-04 0.00000E+00
 -1        36 7.69192E-05-4.30134E-21 0.00000E+00
 -1        37 7.58948E-05-1.20835E-20 1.32349E-23
 -1        38 7.48705E-05-3.36828E-21 2.64698E-23
 -1        39 7.38432E-05 1.46643E-20 0.00000E+00
 -1        40 7.28154E-05 1.27452E-20 0.00000E+00
 -1        41 7.17871E-05 1.93031E-20 0.00000E+00
 -1        42 7.07586E-05 2.58080E-20-2.64698E-23
 -1        43 6.97300E-05 2.47162E-20 0.00000E+00
 -1        44 6.87015E-05 2.23802E-20 0.00000E+00
 -1        45 6.76730E-05 1.45584E-20-1.32349E-23
 -1        46 6.66448E-05 1.47040E-20-2.64698E-23
 -1        47 6.56171E-05 1.51275E-20 0.00000E+00
 -1        48 6.45901E-05 1.71524E-20 0.00000E+00
 -1        49 6.35665E-05 1.98126E-20 1.32349E-23
 -1        50 6.25427E-05 1.07666E-20 0.00000E+00
 -1        51 7.61874E-05-2.05639E-07 0.00000E+00
 -1        52 7.29649E-05-3.96805E-07 0.00000E+00
 -1        53 6.85618E-05-5.87511E-07 0.00000E+00
 -1        54 6.32953E-05-7.79832E-07 0.00000E+00
 -1        55 5.74832E-05-9.74697E-07-4.13590E-24
 -1        56 7.65622E-05-6.32583E-07 0.00000E+00
 -1        57 7.52211E-05-1.43527E-06 2.64698E-23
 -1        58 7.39184E-05-2.33812E-06 5.29396E-23
 -1        59 7.26266E-05-3.28669E-06 2.64698E-23
 -1        60 7.13290E-05-4.22190E-06-5.29396E-23
 -1        61 7.00039E-05-5.08676E-06 0.00000E+00
 -1        62 6.86311E-05-5.82475E-06 5.29396E-23
 -1        63 6.71901E-05-6.38124E-06 0.00000E+00
 -1        64 6.56612E-05-6.70355E-06 0.00000E+00
 -1        65 6.40260E-05-6.74200E-06 0.00000E+00
 -1        66 6.22671E-05-6.45011E-06 5.29396E-23
 -1        67 6.03692E-05-5.78534E-06-2.64698E-23
 -1        68 5.83177E-05-4.70971E-06 0.00000E+00
 -1        69 5.61062E-05-3.18812E-06 0.00000E+00
 -1        70 5.37158E-05-1.19562E-06 0.00000E+00
 -1        71 6.11450E-05-9.26939E-21-1.32349E-23
 -1        72 6.07504E-05-2.54391E-20 6.61744E-24
 -1        73 6.03558E-05-4.40540E-20 0.00000E+00
 -1        74 5.99616E-05-4.92834E-20-6.61744E-24
 -1        75 5.95676E-05-5.78447E-20 0.00000E+00
 -1        76 5.91736E-05-6.14992E-20 0.00000E+00
 -1        77 5.87796E-05-5.79010E-20 0.00000E+00
 -1        78 5.83857E-05-6.58171E-20 6.61744E-24
 -1        79 5.79918E-05-6.70926E-20-1.32349E-23
 -1        80 5.75979E-05-6.05248E-20 0.00000E+00
 -1        81 5.72040E-05-5.01354E-20 0.00000E+00
 -1        82 5.68103E-05-3.34082E-20 0.00000E+00
 -1        83 5.64167E-05-1.79250E-20 0.00000E+00
 -1        84 5.60238E-05-3.35670E-21-6.61744E-24
 -1        85 5.56308E-05-1.39628E-21 1.32349E-23
 -1        86 6.12274E-05 1.98589E-07 0.00000E+00
 -1        87 6.03135E-05 4.25923E-07-8.27181E-25
 -1        88 5.88274E-05 6.51850E-07-3.30872E-24
 -1        89 5.67950E-05 8.78101E-07 1.65436E-24
 -1        90 5.42409E-05 1.10414E-06 6.20385E-25
 -1        91 6.08982E-05-3.00367E-07 0.00000E+00
 -1        92 6.02747E-05-6.83463E-07 0.00000E+00
 -1        93 5.96730E-05-1.12409E-06 0.00000E+00
 -1        94 5.90832E-05-1.60048E-06 0.00000E+00
 -1        95 5.84981E-05-2.08978E-06-2.64698E-23
 -1        96 5.79092E-05-2.56946E-06 1.32349E-23
 -1        97 5.73081E-05-3.01698E-06 0.00000E+00
 -1        98 5.66866E-05-3.41009E-06 0.00000E+00
 -1        99 5.60365E-05-3.72675E-06-2.64698E-23
 -1       100 5.53497E-05-3.94540E-06 0.00000E+00
 -1       101 5.46183E-05-4.04500E-06-2.64698E-23
 -1       102 5.38349E-05-4.00512E-06 0.00000E+00
 -1       103 5.29921E-05-3.80619E-06 0.00000E+00
 -1       104 5.20846E-05-3.42893E-06 0.00000E+00
 -1       105 5.11034E-05-2.85640E-06-1.32349E-23
 -1       106 5.51339E-05-3.94565E-22 0.00000E+00
 -1       107 5.50332E-05-2.25614E-21 0.00000E+00
 -1       108 5.49325E-05-1.10900E-20-3.30872E-24
 -1       109 5.48329E-05-1.02169E-20 0.00000E+00
 -1       110 5.47336E-05-1.00651E-20-3.30872E-24
 -1       111 5.46344E-05-1.28854E-20-1.65436E-24
 -1       112 5.45353E-05-1.93271E-20 0.00000E+00
 -1       113 5.44363E-05-2.58622E-20 0.00000E+00
 -1       114 5.43372E-05-3.49422E-20 0.00000E+00
 -1       115 5.42382E-05-3.76016E-20-1.65436E-24
 -1       116 5.41392E-05-4.27313E-20 3.30872E-24
 -1       117 5.40403E-05-3.62566E-20 0.00000E+00
 -1       118 5.39413E-05-2.73859E-20-3.30872E-24
 -1       119 5.38426E-05-1.04465E-20 0.00000E+00
 -1       120 5.37438E-05-6.38170E-22 0.00000E+00
 -1       121 5.50065E-05-3.41710E-07-1.32349E-23
 -1       122 5.44015E-05-6.86080E-07 0.00000E+00
 -1       123 5.35150E-05-1.03063E-06 0.00000E+00
 -1       124 5.24359E-05-1.37580E-06 6.61744E-24
 -1       125 5.12531E-05-1.72113E-06 0.00000E+00
 -1       126 5.49561E-05-1.56498E-07 6.61744E-24
 -1       127 5.46941E-05-3.80131E-07-3.30872E-24
 -1       128 5.44505E-05-6.52845E-07 6.61744E-24
 -1       129 5.42184E-05-9.56728E-07-3.30872E-24
 -1       130 5.39912E-05-1.27371E-06-6.61744E-24
 -1       131 5.37622E-05-1.58572E-06 0.00000E+00
 -1       132 5.35245E-05-1.87471E-06 6.61744E-24
 -1       133 5.32714E-05-2.12270E-06-3.30872E-24
 -1       134 5.29963E-05-2.31180E-06-6.61744E-24
 -1       135 5.26925E-05-2.42425E-06-3.30872E-24
 -1       136 5.23534E-05-2.44251E-06-6.61744E-24
 -1       137 5.19727E-05-2.34921E-06 3.30872E-24
 -1       138 5.15439E-05-2.12735E-06 6.61744E-24
 -1       139 5.10616E-05-1.75987E-06-3.30872E-24
 -1       140 5.05185E-05-1.23086E-06 0.00000E+00
 -1       141 5.36441E-05-1.66847E-21 8.27181E-25
 -1       142 5.36450E-05-2.11849E-21 0.00000E+00
 -1       143 5.36459E-05 3.09664E-21 0.00000E+00
 -1       144 5.36473E-05 1.95460E-21 5.16988E-26
 -1       145 5.36487E-05-1.63487E-21 0.00000E+00
 -1       146 5.36503E-05-4.94122E-21 1.29247E-26
 -1       147 5.36518E-05-8.94054E-21 0.00000E+00
 -1       148 5.36534E-05-2.10996E-20 0.00000E+00
 -1       149 5.36551E-05-2.64689E-20 0.00000E+00
 -1       150 5.36568E-05-3.06596E-20 0.00000E+00
 -1       151 5.36587E-05-3.04968E-20 0.00000E+00
 -1       152 5.36611E-05-3.33015E-20 4.13590E-25
 -1       153 5.36638E-05-2.91971E-20 0.00000E+00
 -1       154 5.36690E-05-1.62478E-20-1.65436E-24
 -1       155 5.36741E-05-7.88096E-21 0.00000E+00
 -1       156 5.34903E-05-8.57026E-08-3.30872E-24
 -1       157 5.30816E-05-1.72153E-07-8.27181E-25
 -1       158 5.24697E-05-2.58737E-07 3.30872E-24
 -1       159 5.17048E-05-3.45754E-07 0.00000E+00
 -1       160 5.08369E-05-4.32854E-07 3.30872E-24
 -1       161 5.35546E-05-5.82304E-08-3.30872E-24
 -1       162 5.34721E-05-1.44641E-07 0.00000E+00
 -1       163 5.33952E-05-2.45836E-07 3.30872E-24
 -1       164 5.33188E-05-3.48921E-07 1.65436E-24
 -1       165 5.32382E-05-4.40869E-07 3.30872E-24
 -1       166 5.31485E-05-5.08728E-07 1.65436E-24
 -1       167 5.30449E-05-5.39552E-07 0.00000E+00
 -1       168 5.29227E-05-5.20435E-07-1.65436E-24
 -1       169 5.27769E-05-4.38508E-07 0.00000E+00
 -1       170 5.26028E-05-2.80941E-07 1.65436E-24
 -1       171 5.23957E-05-3.49760E-08 0.00000E+00
 -1       172 5.21512E-05 3.12196E-07 8.27181E-25
 -1       173 5.18644E-05 7.73114E-07-1.65436E-24
 -1       174 5.15331E-05 1.36121E-06 0.00000E+00
 -1       175 5.11495E-05 2.08767E-06-3.30872E-24
 -1       191 5.36156E-05 4.92452E-07 0.00000E+00
 -1       192 5.33713E-05 9.89409E-07-6.61744E-24
 -1       193 5.29611E-05 1.48709E-06 1.32349E-23
 -1       194 5.23843E-05 1.98463E-06 6.61744E-24
 -1       195 5.16404E-05 2.48115E-06-1.32349E-23
 -1       251 5.14086E-05 3.15025E-06 0.00000E+00
 -1       252 5.13902E-05 6.04218E-06 1.65436E-24
 -1       253 5.13745E-05 7.68753E-06 0.00000E+00
 -1       254 5.13618E-05 8.27456E-06 8.27181E-25
 -1       255 5.13495E-05 7.99140E-06 1.65436E-24
 -1       256 5.13373E-05 7.02633E-06-4.13590E-25
 -1       257 5.13246E-05 5.56766E-06 0.00000E+00
 -1       258 5.13115E-05 3.80378E-06 0.00000E+00
 -1       259 5.12982E-05 1.92304E-06-4.13590E-25
 -1       260 5.12850E-05 1.13867E-07-1.03398E-25
 -1       261 5.12721E-05-1.43533E-06-3.61892E-25
 -1       262 5.12594E-05-2.53622E-06-5.16988E-26
 -1       263 5.12469E-05-3.00043E-06 6.20385E-25
 -1       264 5.12327E-05-2.63976E-06 8.27181E-25
 -1       265 5.12177E-05-1.26581E-06 3.30872E-24
 -1       266 4.60283E-05-1.28608E-06 0.00000E+00
 -1       267 4.04507E-05-1.38936E-06 0.00000E+00
 -1       268 3.50170E-05-1.49187E-06 0.00000E+00
 -1       269 3.00336E-05-1.59047E-06 0.00000E+00
 -1       270 2.58070E-05-1.68566E-06 0.00000E+00
 -1       271 4.86599E-05 2.85627E-06-2.64698E-23
 -1       272 4.63163E-05 5.61574E-06 0.00000E+00
 -1       273 4.43979E-05 7.25266E-06 0.00000E+00
 -1       274 4.28414E-05 7.91287E-06 1.32349E-23
 -1       275 4.15919E-05 7.75462E-06 0.00000E+00
 -1       276 4.05863E-05 6.94288E-06 1.32349E-23
 -1       277 3.97612E-05 5.64880E-06 2.64698E-23
 -1       278 3.90505E-05 4.04835E-06 0.00000E+00
 -1       279 3.83875E-05 2.32021E-06 0.00000E+00
 -1       280 3.77051E-05 6.44472E-07 0.00000E+00
 -1       281 3.69363E-05-7.99344E-07 0.00000E+00
 -1       282 3.60155E-05-1.83391E-06-1.32349E-23
 -1       283 3.48772E-05-2.28586E-06-2.64698E-23
 -1       284 3.34635E-05-1.98586E-06 0.00000E+00
 -1       285 3.17063E-05-7.75582E-07 2.64698E-23
 -1       286 5.11074E-05 4.06885E-06-6.61744E-24
 -1       287 5.10361E-05 5.91021E-06 0.00000E+00
 -1       288 5.09659E-05 6.94301E-06-6.61744E-24
 -1       289 5.08975E-05 7.27911E-06 1.65436E-24
 -1       290 5.08293E-05 7.03051E-06 0.00000E+00
 -1       291 5.07611E-05 6.30959E-06-1.65436E-24
 -1       292 5.06928E-05 5.22892E-06 3.30872E-24
 -1       293 5.06242E-05 3.90125E-06 0.00000E+00
 -1       294 5.05554E-05 2.43947E-06 0.00000E+00
 -1       295 5.04865E-05 9.56531E-07-8.27181E-25
 -1       296 5.04176E-05-4.34635E-07 0.00000E+00
 -1       297 5.03487E-05-1.62111E-06-8.27181E-25
 -1       298 5.02797E-05-2.49006E-06 3.30872E-24
 -1       299 5.02093E-05-2.92890E-06-1.65436E-24
 -1       300 5.01389E-05-2.82507E-06 0.00000E+00
 -1       301 4.76868E-05 1.33103E-06 0.00000E+00
 -1       302 4.40767E-05 1.36693E-06 3.10193E-25
 -1       303 4.04103E-05 1.40524E-06 0.00000E+00
 -1       304 3.67394E-05 1.44412E-06 0.00000E+00
 -1       305 3.31160E-05 1.48187E-06-3.30872E-24
 -1       306 4.89862E-05 3.67654E-06 0.00000E+00
 -1       307 4.70722E-05 5.15951E-06 0.00000E+00
 -1       308 4.54522E-05 5.86431E-06 2.64698E-23
 -1       309 4.40812E-05 5.88971E-06 0.00000E+00
 -1       310 4.29235E-05 5.34474E-06 0.00000E+00
 -1       311 4.19359E-05 4.34266E-06 1.32349E-23
 -1       312 4.10750E-05 3.00134E-06 2.64698E-23
 -1       313 4.02955E-05 1.44199E-06 1.32349E-23
 -1       314 3.95514E-05-2.12056E-07 0.00000E+00
 -1       315 3.87964E-05-1.83643E-06-1.32349E-23
 -1       316 3.79843E-05-3.30720E-06 2.64698E-23
 -1       317 3.70699E-05-4.50176E-06 0.00000E+00
 -1       318 3.60081E-05-5.30043E-06 2.64698E-23
 -1       319 3.47606E-05-5.58580E-06-1.32349E-23
 -1       320 3.32786E-05-5.24942E-06 2.64698E-23
 -1       321 5.00314E-05-1.10049E-06 0.00000E+00
 -1       322 5.00216E-05-4.52441E-07-1.65436E-24
 -1       323 5.00119E-05-7.97310E-08 0.00000E+00
 -1       324 5.00044E-05 6.11123E-08 4.13590E-25
 -1       325 4.99973E-05 1.35011E-08 8.27181E-25
 -1       326 4.99906E-05-1.79118E-07 0.00000E+00
 -1       327 4.99840E-05-4.73300E-07 0.00000E+00
 -1       328 4.99774E-05-8.25591E-07 1.03398E-25
 -1       329 4.99709E-05-1.19253E-06 2.06795E-25
 -1       330 4.99643E-05-1.53067E-06 1.03398E-25
 -1       331 4.99578E-05-1.79655E-06-2.06795E-25
 -1       332 4.99511E-05-1.94671E-06 0.00000E+00
 -1       333 4.99443E-05-1.93772E-06-4.13590E-25
 -1       334 4.99368E-05-1.72614E-06 0.00000E+00
 -1       335 4.99292E-05-1.26850E-06 0.00000E+00
 -1       336 4.80878E-05-2.41687E-06 6.61744E-24
 -1       337 4.50428E-05-2.76865E-06 0.00000E+00
 -1       338 4.13929E-05-3.12206E-06 0.00000E+00
 -1       339 3.76134E-05-3.47515E-06 6.61744E-24
 -1       340 3.41796E-05-3.82716E-06 1.32349E-23
 -1       341 4.90111E-05-1.31956E-06 1.32349E-23
 -1       342 4.80523E-05-8.44140E-07 1.32349E-23
 -1       343 4.71807E-05-6.00344E-07 2.64698E-23
 -1       344 4.63804E-05-5.52335E-07 0.00000E+00
 -1       345 4.56388E-05-6.61787E-07-2.64698E-23
 -1       346 4.49415E-05-8.90081E-07 0.00000E+00
 -1       347 4.42738E-05-1.19786E-06-2.64698E-23
 -1       348 4.36211E-05-1.54535E-06 1.32349E-23
 -1       349 4.29682E-05-1.89255E-06 0.00000E+00
 -1       350 4.23004E-05-2.19944E-06-1.32349E-23
 -1       351 4.16027E-05-2.42627E-06 0.00000E+00
 -1       352 4.08610E-05-2.53358E-06 0.00000E+00
 -1       353 4.00606E-05-2.48283E-06 0.00000E+00
 -1       354 3.91910E-05-2.23498E-06 0.00000E+00
 -1       355 3.82336E-05-1.75514E-06 0.00000E+00
 -1       356 4.99573E-05 2.57943E-07 1.65436E-24
 -1       357 5.00057E-05 8.03155E-07 5.16988E-26
 -1       358 5.00542E-05 1.14815E-06 8.27181E-25
 -1       359 5.01039E-05 1.32723E-06-4.13590E-25
 -1       360 5.01537E-05 1.37464E-06 1.65436E-24
 -1       361 5.02038E-05 1.32454E-06-8.27181E-25
 -1       362 5.02539E-05 1.21110E-06 0.00000E+00
 -1       363 5.03040E-05 1.06845E-06-8.27181E-25
 -1       364 5.03542E-05 9.30681E-07 0.00000E+00
 -1       365 5.04046E-05 8.31930E-07 8.27181E-25
 -1       366 5.04550E-05 8.06322E-07 0.00000E+00
 -1       367 5.05058E-05 8.88018E-07 0.00000E+00
 -1       368 5.05569E-05 1.11121E-06 0.00000E+00
 -1       369 5.06101E-05 1.51014E-06 1.65436E-24
 -1       370 5.06630E-05 2.11916E-06 0.00000E+00
 -1       371 4.84507E-05-6.02568E-07-1.65436E-24
 -1       372 4.62813E-05-6.82483E-07 8.27181E-25
 -1       373 4.37396E-05-7.63088E-07 0.00000E+00
 -1       374 4.11581E-05-8.43010E-07 0.00000E+00
 -1       375 3.88694E-05-9.22275E-07 1.65436E-24
 -1       376 4.93083E-05 1.41004E-07-6.61744E-24
 -1       377 4.87774E-05 5.72324E-07-3.30872E-24
 -1       378 4.83171E-05 8.15992E-07 0.00000E+00
 -1       379 4.79107E-05 9.12704E-07 0.00000E+00
 -1       380 4.75434E-05 9.04396E-07 0.00000E+00
 -1       381 4.71997E-05 8.32907E-07-6.61744E-24
 -1       382 4.68637E-05 7.40311E-07 1.32349E-23
 -1       383 4.65199E-05 6.68698E-07 6.61744E-24
 -1       384 4.61525E-05 6.60112E-07 1.32349E-23
 -1       385 4.57459E-05 7.56430E-07-6.61744E-24
 -1       386 4.52844E-05 9.99234E-07 6.61744E-24
 -1       387 4.47531E-05 1.42982E-06 0.00000E+00
 -1       388 4.41364E-05 2.08882E-06 0.00000E+00
 -1       389 4.34222E-05 3.01730E-06 0.00000E+00
 -1       390 4.25918E-05 4.25326E-06-1.65436E-24
 -1       406 4.96117E-05 3.45055E-06 0.00000E+00
 -1       407 4.83215E-05 3.93279E-06-6.61744E-24
 -1       408 4.68693E-05 4.41534E-06 1.32349E-23
 -1       409 4.52664E-05 4.89690E-06 0.00000E+00
 -1       410 4.35242E-05 5.37604E-06-1.32349E-23
 -1       466 2.30565E-05 1.95577E-07-6.61744E-24
 -1       467 2.34918E-05 1.34835E-06 0.00000E+00
 -1       468 2.39275E-05 1.81269E-06 0.00000E+00
 -1       469 2.43662E-05 1.71511E-06 0.00000E+00
 -1       470 2.48052E-05 1.18041E-06 0.00000E+00
 -1       471 2.52445E-05 3.31871E-07 0.00000E+00
 -1       472 2.56839E-05-7.08094E-07-1.32349E-23
 -1       473 2.61232E-05-1.81775E-06-6.61744E-24
 -1       474 2.65626E-05-2.87558E-06 0.00000E+00
 -1       475 2.70020E-05-3.75986E-06-6.61744E-24
 -1       476 2.74414E-05-4.34838E-06 0.00000E+00
 -1       477 2.78803E-05-4.51791E-06 0.00000E+00
 -1       478 2.83184E-05-4.14400E-06-1.32349E-23
 -1       479 2.87524E-05-3.10035E-06 0.00000E+00
 -1       480 2.91854E-05-1.25860E-06 0.00000E+00
 -1       481 2.01309E-05-1.67047E-06 1.65436E-24
 -1       482 1.76155E-05-1.56197E-06 1.65436E-24
 -1       483 1.51856E-05-1.45335E-06 0.00000E+00
 -1       484 1.29316E-05-1.34383E-06 0.00000E+00
 -1       485 1.09442E-05-1.23362E-06-3.30872E-24
 -1       486 2.13444E-05 2.23160E-07-6.61744E-24
 -1       487 2.02138E-05 1.71508E-06 6.61744E-24
 -1       488 1.92513E-05 2.76167E-06 0.00000E+00
 -1       489 1.84331E-05 3.41582E-06 6.61744E-24
 -1       490 1.77406E-05 3.73411E-06 0.00000E+00
 -1       491 1.71522E-05 3.77362E-06-6.61744E-24
 -1       492 1.66464E-05 3.59271E-06 1.32349E-23
 -1       493 1.62009E-05 3.25062E-06 0.00000E+00
 -1       494 1.57934E-05 2.80721E-06 0.00000E+00
 -1       495 1.54013E-05 2.32282E-06 6.61744E-24
 -1       496 1.50020E-05 1.85793E-06 1.32349E-23
 -1       497 1.45733E-05 1.47302E-06 0.00000E+00
 -1       498 1.40924E-05 1.22812E-06 1.32349E-23
 -1       499 1.35393E-05 1.18348E-06-6.61744E-24
 -1       500 1.28890E-05 1.39673E-06 0.00000E+00
 -1       501 2.97004E-05 4.21407E-06-1.65436E-24
 -1       502 2.98238E-05 5.86366E-06 4.13590E-25
 -1       503 2.99482E-05 6.59952E-06 0.00000E+00
 -1       504 3.00747E-05 6.56108E-06 1.65436E-24
 -1       505 3.02013E-05 5.88694E-06 0.00000E+00
 -1       506 3.03278E-05 4.71513E-06-1.65436E-24
 -1       507 3.04540E-05 3.18324E-06 3.30872E-24
 -1       508 3.05798E-05 1.42850E-06 0.00000E+00
 -1       509 3.07055E-05-4.12043E-07-3.30872E-24
 -1       510 3.08313E-05-2.20140E-06-1.65436E-24
 -1       511 3.09572E-05-3.80261E-06 3.30872E-24
 -1       512 3.10831E-05-5.07846E-06 1.65436E-24
 -1       513 3.12090E-05-5.89146E-06 0.00000E+00
 -1       514 3.13330E-05-6.10375E-06 0.00000E+00
 -1       515 3.14570E-05-5.57677E-06-4.13590E-25
 -1       516 2.60884E-05 1.57303E-06 8.27181E-25
 -1       517 2.24961E-05 1.64388E-06 5.16988E-26
 -1       518 1.90594E-05 1.71499E-06-4.13590E-25
 -1       519 1.60238E-05 1.78773E-06-2.58494E-25
 -1       520 1.36349E-05 1.86235E-06 1.65436E-24
 -1       521 2.76119E-05 3.94179E-06 0.00000E+00
 -1       522 2.59546E-05 5.41378E-06-1.32349E-23
 -1       523 2.46136E-05 6.04771E-06-2.64698E-23
 -1       524 2.35394E-05 5.95671E-06 0.00000E+00
 -1       525 2.26905E-05 5.26290E-06 0.00000E+00
 -1       526 2.20192E-05 4.09202E-06 0.00000E+00
 -1       527 2.14777E-05 2.57375E-06-2.64698E-23
 -1       528 2.10163E-05 8.40550E-07 0.00000E+00
 -1       529 2.05851E-05-9.73407E-07 2.64698E-23
 -1       530 2.01338E-05-2.73325E-06 0.00000E+00
 -1       531 1.96122E-05-4.30460E-06-2.64698E-23
 -1       532 1.89713E-05-5.55448E-06-1.32349E-23
 -1       533 1.81619E-05-6.35263E-06 2.64698E-23
 -1       534 1.71402E-05-6.57134E-06 0.00000E+00
 -1       535 1.58551E-05-6.09032E-06 2.64698E-23
 -1       536 3.18904E-05-2.52825E-06 0.00000E+00
 -1       537 3.22416E-05-1.37106E-06 3.30872E-24
 -1       538 3.25932E-05-6.35628E-07 6.61744E-24
 -1       539 3.29485E-05-2.57678E-07-3.30872E-24
 -1       540 3.33046E-05-1.73879E-07 1.32349E-23
 -1       541 3.36613E-05-3.21699E-07 0.00000E+00
 -1       542 3.40182E-05-6.39147E-07 1.32349E-23
 -1       543 3.43752E-05-1.06471E-06 0.00000E+00
 -1       544 3.47322E-05-1.53713E-06 1.32349E-23
 -1       545 3.50892E-05-1.99529E-06-6.61744E-24
 -1       546 3.54460E-05-2.37802E-06-1.32349E-23
 -1       547 3.58025E-05-2.62395E-06-6.61744E-24
 -1       548 3.61587E-05-2.67138E-06 1.32349E-23
 -1       549 3.65126E-05-2.45808E-06-3.30872E-24
 -1       550 3.68665E-05-1.92115E-06 6.61744E-24
 -1       551 2.90144E-05-4.27719E-06 3.51552E-24
 -1       552 2.61387E-05-4.37694E-06-1.24077E-24
 -1       553 2.30819E-05-4.47609E-06 0.00000E+00
 -1       554 1.99912E-05-4.57545E-06 0.00000E+00
 -1       555 1.70134E-05-4.67585E-06 0.00000E+00
 -1       556 3.06430E-05-2.72290E-06 0.00000E+00
 -1       557 2.98712E-05-1.68577E-06-6.61744E-24
 -1       558 2.92344E-05-1.00948E-06-1.32349E-23
 -1       559 2.87126E-05-6.40888E-07 6.61744E-24
 -1       560 2.82862E-05-5.26736E-07 0.00000E+00
 -1       561 2.79352E-05-6.13496E-07 0.00000E+00
 -1       562 2.76394E-05-8.47586E-07 0.00000E+00
 -1       563 2.73787E-05-1.17535E-06-6.61744E-24
 -1       564 2.71330E-05-1.54309E-06 0.00000E+00
 -1       565 2.68823E-05-1.89711E-06-6.61744E-24
 -1       566 2.66063E-05-2.18369E-06 6.61744E-24
 -1       567 2.62851E-05-2.34916E-06 0.00000E+00
 -1       568 2.58987E-05-2.33984E-06 6.61744E-24
 -1       569 2.54278E-05-2.10212E-06-1.65436E-24
 -1       570 2.48531E-05-1.58250E-06 1.65436E-24
 -1       571 3.74675E-05-1.20053E-07 8.27181E-25
 -1       572 3.77426E-05 4.85997E-07-2.48154E-24
 -1       573 3.80204E-05 8.64628E-07-6.61744E-24
 -1       574 3.82998E-05 1.06132E-06 1.65436E-24
 -1       575 3.85796E-05 1.12160E-06-6.61744E-24
 -1       576 3.88598E-05 1.09115E-06-3.30872E-24
 -1       577 3.91400E-05 1.01564E-06 0.00000E+00
 -1       578 3.94203E-05 9.40753E-07-6.61744E-24
 -1       579 3.97007E-05 9.12162E-07 0.00000E+00
 -1       580 3.99810E-05 9.75562E-07 0.00000E+00
 -1       581 4.02612E-05 1.17665E-06 0.00000E+00
 -1       582 4.05413E-05 1.56117E-06 6.61744E-24
 -1       583 4.08212E-05 2.17484E-06 0.00000E+00
 -1       584 4.11006E-05 3.06323E-06 0.00000E+00
 -1       585 4.13791E-05 4.27186E-06 0.00000E+00
 -1       586 3.53594E-05-9.51809E-07 0.00000E+00
 -1       587 3.31659E-05-9.04830E-07 0.00000E+00
 -1       588 3.07858E-05-8.57923E-07 0.00000E+00
 -1       589 2.83831E-05-8.11563E-07 0.00000E+00
 -1       590 2.61221E-05-7.66284E-07 0.00000E+00
 -1       591 3.66297E-05-9.75510E-08 0.00000E+00
 -1       592 3.61154E-05 6.10522E-07 0.00000E+00
 -1       593 3.56591E-05 1.15874E-06-6.61744E-24
 -1       594 3.52503E-05 1.57750E-06-3.30872E-24
 -1       595 3.48784E-05 1.89719E-06 0.00000E+00
 -1       596 3.45320E-05 2.14820E-06 0.00000E+00
 -1       597 3.42000E-05 2.36086E-06 0.00000E+00
 -1       598 3.38709E-05 2.56552E-06 0.00000E+00
 -1       599 3.35335E-05 2.79253E-06 6.61744E-24
 -1       600 3.31763E-05 3.07223E-06 0.00000E+00
 -1       601 3.27880E-05 3.43496E-06 3.30872E-24
 -1       602 3.23574E-05 3.91106E-06 0.00000E+00
 -1       603 3.18733E-05 4.53086E-06-4.96308E-24
 -1       604 3.13253E-05 5.32478E-06 1.86116E-24
 -1       605 3.07032E-05 6.32324E-06-3.30872E-24
 -1       606 4.17349E-05 7.89526E-06 0.00000E+00
 -1       607 4.18079E-05 1.01612E-05 0.00000E+00
 -1       608 4.18790E-05 1.26280E-05 0.00000E+00
 -1       609 4.19489E-05 1.52804E-05 0.00000E+00
 -1       610 4.20181E-05 1.81032E-05 0.00000E+00
 -1       611 4.20868E-05 2.10812E-05 0.00000E+00
 -1       612 4.21549E-05 2.41990E-05 0.00000E+00
 -1       613 4.22227E-05 2.74413E-05 0.00000E+00
 -1       614 4.22901E-05 3.07928E-05-3.30872E-24
 -1       615 4.23572E-05 3.42382E-05 0.00000E+00
 -1       616 4.24240E-05 3.77623E-05 0.00000E+00
 -1       617 4.24906E-05 4.13496E-05 0.00000E+00
 -1       618 4.25570E-05 4.49849E-05 3.30872E-24
 -1       619 4.26231E-05 4.86530E-05 0.00000E+00
 -1       620 4.26889E-05 5.23386E-05 0.00000E+00
 -1       621 3.96204E-05 6.12975E-06 0.00000E+00
 -1       622 3.75690E-05 6.41822E-06 0.00000E+00
 -1       623 3.55412E-05 6.70695E-06 0.00000E+00
 -1       624 3.35778E-05 6.99502E-06 0.00000E+00
 -1       625 3.17198E-05 7.28137E-06 3.30872E-24
 -1       626 4.10341E-05 7.99542E-06 0.00000E+00
 -1       627 4.03192E-05 1.03878E-05 0.00000E+00
 -1       628 3.95217E-05 1.29976E-05 0.00000E+00
 -1       629 3.86516E-05 1.57987E-05 3.30872E-24
 -1       630 3.77187E-05 1.87652E-05-6.61744E-24
 -1       631 3.67332E-05 2.18711E-05 3.30872E-24
 -1       632 3.57048E-05 2.50902E-05 0.00000E+00
 -1       633 3.46434E-05 2.83963E-05-3.30872E-24
 -1       634 3.35589E-05 3.17635E-05 0.00000E+00
 -1       635 3.24612E-05 3.51656E-05 0.00000E+00
 -1       636 3.13601E-05 3.85765E-05 0.00000E+00
 -1       637 3.02654E-05 4.19702E-05 1.65436E-24
 -1       638 2.91868E-05 4.53205E-05-3.30872E-24
 -1       639 2.81338E-05 4.86013E-05 8.27181E-25
 -1       640 2.71156E-05 5.17863E-05-1.65436E-24
 -1       641 4.27530E-05 5.97298E-05 0.00000E+00
 -1       642 4.27506E-05 6.35394E-05 2.06795E-25
 -1       643 4.27478E-05 6.74386E-05 4.13590E-25
 -1       644 4.27446E-05 7.14114E-05 3.10193E-25
 -1       645 4.27411E-05 7.54411E-05-2.06795E-25
 -1       646 4.27374E-05 7.95116E-05-1.03398E-25
 -1       647 4.27335E-05 8.36065E-05 0.00000E+00
 -1       648 4.27297E-05 8.77093E-05 0.00000E+00
 -1       649 4.27258E-05 9.18038E-05 0.00000E+00
 -1       650 4.27220E-05 9.58736E-05 2.58494E-26
 -1       651 4.27184E-05 9.99024E-05-5.16988E-26
 -1       652 4.27148E-05 1.03874E-04 0.00000E+00
 -1       653 4.27115E-05 1.07771E-04 0.00000E+00
 -1       654 4.27079E-05 1.11579E-04 0.00000E+00
 -1       655 4.27048E-05 1.15280E-04 0.00000E+00
 -1       656 3.94146E-05 5.58352E-05 0.00000E+00
 -1       657 3.65026E-05 5.56354E-05-1.65436E-24
 -1       658 3.38685E-05 5.54367E-05 0.00000E+00
 -1       659 3.13626E-05 5.52381E-05 0.00000E+00
 -1       660 2.88351E-05 5.50392E-05 0.00000E+00
 -1       661 4.15595E-05 5.97971E-05-3.30872E-24
 -1       662 4.03370E-05 6.36646E-05-3.30872E-24
 -1       663 3.90855E-05 6.76082E-05 0.00000E+00
 -1       664 3.78128E-05 7.16108E-05-3.30872E-24
 -1       665 3.65246E-05 7.56544E-05 0.00000E+00
 -1       666 3.52277E-05 7.97215E-05-3.30872E-24
 -1       667 3.39286E-05 8.37946E-05 0.00000E+00
 -1       668 3.26340E-05 8.78561E-05 0.00000E+00
 -1       669 3.13503E-05 9.18885E-05 6.61744E-24
 -1       670 3.00842E-05 9.58744E-05 3.30872E-24
 -1       671 2.88425E-05 9.97960E-05 0.00000E+00
 -1       672 2.76315E-05 1.03635E-04 0.00000E+00
 -1       673 2.64582E-05 1.07375E-04 0.00000E+00
 -1       674 2.53280E-05 1.10996E-04-1.65436E-24
 -1       675 2.42496E-05 1.14481E-04 1.65436E-24
 -1       676 3.92638E-05 1.18685E-04 3.30872E-24
 -1       677 3.59411E-05 1.18508E-04 1.65436E-24
 -1       678 3.27027E-05 1.18331E-04 0.00000E+00
 -1       679 2.95213E-05 1.18155E-04-1.65436E-24
 -1       680 2.63691E-05 1.17979E-04-3.30872E-24
 -1       681 9.48599E-06 7.48296E-08 0.00000E+00
 -1       682 9.66306E-06 9.30847E-07 0.00000E+00
 -1       683 9.84030E-06 1.48896E-06 0.00000E+00
 -1       684 1.00183E-05 1.79438E-06 0.00000E+00
 -1       685 1.01965E-05 1.89200E-06 6.61744E-24
 -1       686 1.03748E-05 1.82642E-06 0.00000E+00
 -1       687 1.05531E-05 1.64204E-06-6.61744E-24
 -1       688 1.07315E-05 1.38310E-06-3.30872E-24
 -1       689 1.09098E-05 1.09377E-06 0.00000E+00
 -1       690 1.10880E-05 8.18151E-07 0.00000E+00
 -1       691 1.12662E-05 6.00373E-07 0.00000E+00
 -1       692 1.14440E-05 4.84641E-07 0.00000E+00
 -1       693 1.16216E-05 5.15289E-07 0.00000E+00
 -1       694 1.17976E-05 7.36834E-07 0.00000E+00
 -1       695 1.19735E-05 1.19408E-06-1.65436E-24
 -1       696 7.80238E-06-9.42109E-07-3.30872E-24
 -1       697 6.16346E-06-7.54907E-07-3.30872E-24
 -1       698 4.48033E-06-5.67751E-07 0.00000E+00
 -1       699 2.83641E-06-3.79501E-07 3.30872E-24
 -1       700 1.31518E-06-1.90951E-07 0.00000E+00
 -1       701 8.66390E-06 6.00888E-08 0.00000E+00
 -1       702 8.10103E-06 9.79176E-07-1.65436E-24
 -1       703 7.62627E-06 1.66452E-06 6.61744E-24
 -1       704 7.22724E-06 2.14344E-06 0.00000E+00
 -1       705 6.89468E-06 2.44476E-06 0.00000E+00
 -1       706 6.61774E-06 2.59705E-06 0.00000E+00
 -1       707 6.38580E-06 2.62920E-06 0.00000E+00
 -1       708 6.18798E-06 2.57027E-06-3.30872E-24
 -1       709 6.01337E-06 2.44943E-06-6.61744E-24
 -1       710 5.85103E-06 2.29598E-06 0.00000E+00
 -1       711 5.69000E-06 2.13926E-06 0.00000E+00
 -1       712 5.51946E-06 2.00866E-06-3.30872E-24
 -1       713 5.32837E-06 1.93346E-06 0.00000E+00
 -1       714 5.10712E-06 1.94335E-06 1.65436E-24
 -1       715 4.84305E-06 2.06677E-06 0.00000E+00
 -1       716 1.22645E-05 2.50732E-06 4.13590E-25
 -1       717 1.24007E-05 2.53170E-06-1.65436E-24
 -1       718 1.25367E-05 2.09505E-06 0.00000E+00
 -1       719 1.26739E-05 1.28752E-06-1.65436E-24
 -1       720 1.28110E-05 1.98791E-07 3.30872E-24
 -1       721 1.29483E-05-1.08172E-06 1.65436E-24
 -1       722 1.30854E-05-2.46474E-06 0.00000E+00
 -1       723 1.32226E-05-3.86118E-06 0.00000E+00
 -1       724 1.33599E-05-5.18190E-06-3.30872E-24
 -1       725 1.34972E-05-6.33769E-06-1.65436E-24
 -1       726 1.36347E-05-7.23922E-06 0.00000E+00
 -1       727 1.37719E-05-7.79686E-06-1.65436E-24
 -1       728 1.39089E-05-7.92064E-06 0.00000E+00
 -1       729 1.40433E-05-7.52021E-06 0.00000E+00
 -1       730 1.41773E-05-6.50458E-06 0.00000E+00
 -1       731 1.09788E-05 1.99350E-06 0.00000E+00
 -1       732 9.53025E-06 2.06143E-06 0.00000E+00
 -1       733 7.97687E-06 2.12917E-06-1.65436E-24
 -1       734 6.50355E-06 2.19793E-06-8.27181E-25
 -1       735 5.29520E-06 2.26718E-06 0.00000E+00
 -1       736 1.14102E-05 2.50763E-06-6.61744E-24
 -1       737 1.07735E-05 2.79121E-06-6.61744E-24
 -1       738 1.02323E-05 2.82118E-06-1.32349E-23
 -1       739 9.77138E-06 2.63028E-06 6.61744E-24
 -1       740 9.37970E-06 2.25373E-06 0.00000E+00
 -1       741 9.04395E-06 1.72676E-06 0.00000E+00
 -1       742 8.75098E-06 1.08526E-06-1.32349E-23
 -1       743 8.48723E-06 3.65524E-07-6.61744E-24
 -1       744 8.23908E-06-3.95873E-07 0.00000E+00
 -1       745 7.99282E-06-1.16217E-06 6.61744E-24
 -1       746 7.73473E-06-1.89662E-06 0.00000E+00
 -1       747 7.45133E-06-2.56250E-06 0.00000E+00
 -1       748 7.12893E-06-3.12348E-06 0.00000E+00
 -1       749 6.75574E-06-3.54302E-06 6.61744E-24
 -1       750 6.31626E-06-3.78646E-06-1.32349E-23
 -1       751 1.48714E-05-2.96295E-06 0.00000E+00
 -1       752 1.54875E-05-1.67410E-06 0.00000E+00
 -1       753 1.61038E-05-8.43240E-07 1.32349E-23
 -1       754 1.67259E-05-3.99077E-07 0.00000E+00
 -1       755 1.73489E-05-2.71969E-07-1.32349E-23
 -1       756 1.79730E-05-3.93822E-07 6.61744E-24
 -1       757 1.85973E-05-6.97555E-07 1.32349E-23
 -1       758 1.92218E-05-1.11699E-06 6.61744E-24
 -1       759 1.98463E-05-1.58640E-06 1.32349E-23
 -1       760 2.04706E-05-2.04035E-06 0.00000E+00
 -1       761 2.10948E-05-2.41330E-06 1.32349E-23
 -1       762 2.17181E-05-2.63932E-06 6.61744E-24
 -1       763 2.23408E-05-2.65189E-06 0.00000E+00
 -1       764 2.29589E-05-2.38345E-06 0.00000E+00
 -1       765 2.35770E-05-1.76523E-06 6.61744E-24
 -1       766 1.22143E-05-4.63526E-06 1.65436E-24
 -1       767 1.03131E-05-4.46952E-06 0.00000E+00
 -1       768 8.65601E-06-4.30385E-06 3.30872E-24
 -1       769 7.30899E-06-4.13704E-06 0.00000E+00
 -1       770 6.33860E-06-3.96925E-06 0.00000E+00
 -1       771 1.29175E-05-3.13687E-06 0.00000E+00
 -1       772 1.16394E-05-1.80829E-06 0.00000E+00
 -1       773 1.04649E-05-7.65417E-07 2.64698E-23
 -1       774 9.38481E-06 2.05781E-08 0.00000E+00
 -1       775 8.38974E-06 5.78619E-07-2.64698E-23
 -1       776 7.46914E-06 9.37601E-07 0.00000E+00
 -1       777 6.61228E-06 1.12650E-06 2.64698E-23
 -1       778 5.80831E-06 1.17439E-06 0.00000E+00
 -1       779 5.04634E-06 1.11042E-06 0.00000E+00
 -1       780 4.31542E-06 9.63827E-07-1.32349E-23
 -1       781 3.60465E-06 7.63893E-07 0.00000E+00
 -1       782 2.90322E-06 5.39995E-07-1.32349E-23
 -1       783 2.20038E-06 3.21538E-07-2.64698E-23
 -1       784 1.48645E-06 1.38244E-07-6.61744E-24
 -1       785 7.51813E-07 1.98337E-08 0.00000E+00
 -1       786 2.45085E-05 4.01402E-07 0.00000E+00
 -1       787 2.48729E-05 1.25681E-06 3.30872E-24
 -1       788 2.52374E-05 1.88115E-06 6.61744E-24
 -1       789 2.56049E-05 2.31609E-06 0.00000E+00
 -1       790 2.59730E-05 2.60277E-06 1.32349E-23
 -1       791 2.63415E-05 2.78192E-06-6.61744E-24
 -1       792 2.67103E-05 2.89403E-06 0.00000E+00
 -1       793 2.70792E-05 2.97937E-06-6.61744E-24
 -1       794 2.74481E-05 3.07816E-06-1.32349E-23
 -1       795 2.78169E-05 3.23065E-06 0.00000E+00
 -1       796 2.81856E-05 3.47721E-06 0.00000E+00
 -1       797 2.85539E-05 3.85852E-06 0.00000E+00
 -1       798 2.89219E-05 4.41555E-06-1.32349E-23
 -1       799 2.92879E-05 5.18978E-06 0.00000E+00
 -1       800 2.96538E-05 6.22328E-06-6.61744E-24
 -1       801 2.13851E-05-6.05706E-07 0.00000E+00
 -1       802 1.67975E-05-4.80419E-07-1.65436E-24
 -1       803 1.13825E-05-3.59150E-07 1.65436E-24
 -1       804 6.12294E-06-2.38374E-07 0.00000E+00
 -1       805 2.00158E-06-1.12797E-07 0.00000E+00
 -1       806 2.33628E-05 2.58411E-07 0.00000E+00
 -1       807 2.26110E-05 1.07255E-06 0.00000E+00
 -1       808 2.19092E-05 1.74649E-06 1.32349E-23
 -1       809 2.12477E-05 2.30913E-06 6.61744E-24
 -1       810 2.06166E-05 2.78937E-06 0.00000E+00
 -1       811 2.00055E-05 3.21601E-06 6.61744E-24
 -1       812 1.94035E-05 3.61780E-06 1.32349E-23
 -1       813 1.88001E-05 4.02351E-06 0.00000E+00
 -1       814 1.81843E-05 4.46190E-06 0.00000E+00
 -1       815 1.75456E-05 4.96171E-06 0.00000E+00
 -1       816 1.68731E-05 5.55166E-06 0.00000E+00
 -1       817 1.61562E-05 6.26047E-06 3.30872E-24
 -1       818 1.53843E-05 7.11683E-06 1.32349E-23
 -1       819 1.45479E-05 8.14955E-06 0.00000E+00
 -1       820 1.36374E-05 9.38740E-06-3.30872E-24
 -1       821 2.97813E-05 9.25392E-06-1.65436E-24
 -1       822 2.95419E-05 1.12791E-05 0.00000E+00
 -1       823 2.93019E-05 1.36010E-05 0.00000E+00
 -1       824 2.90593E-05 1.61853E-05 3.30872E-24
 -1       825 2.88159E-05 1.89978E-05 6.61744E-24
 -1       826 2.85715E-05 2.20034E-05 3.30872E-24
 -1       827 2.83266E-05 2.51670E-05 6.61744E-24
 -1       828 2.80812E-05 2.84530E-05 3.30872E-24
 -1       829 2.78356E-05 3.18258E-05 0.00000E+00
 -1       830 2.75898E-05 3.52494E-05-3.30872E-24
 -1       831 2.73441E-05 3.86880E-05 6.61744E-24
 -1       832 2.70987E-05 4.21056E-05 3.30872E-24
 -1       833 2.68538E-05 4.54661E-05 0.00000E+00
 -1       834 2.66107E-05 4.87339E-05-3.30872E-24
 -1       835 2.63680E-05 5.18731E-05 3.30872E-24
 -1       836 2.78666E-05 8.09918E-06 0.00000E+00
 -1       837 2.49232E-05 8.65799E-06 6.61744E-24
 -1       838 2.15539E-05 9.21478E-06 0.00000E+00
 -1       839 1.81351E-05 9.77060E-06 0.00000E+00
 -1       840 1.50433E-05 1.03281E-05 0.00000E+00
 -1       841 2.92959E-05 9.24034E-06 0.00000E+00
 -1       842 2.84460E-05 1.12714E-05-4.13590E-25
 -1       843 2.74779E-05 1.36158E-05 1.65436E-24
 -1       844 2.64054E-05 1.62341E-05 0.00000E+00
 -1       845 2.52437E-05 1.90877E-05 0.00000E+00
 -1       846 2.40077E-05 2.21374E-05 8.27181E-25
 -1       847 2.27123E-05 2.53439E-05 1.65436E-24
 -1       848 2.13724E-05 2.86677E-05 8.27181E-25
 -1       849 2.00030E-05 3.20696E-05 0.00000E+00
 -1       850 1.86190E-05 3.55098E-05 8.27181E-25
 -1       851 1.72354E-05 3.89490E-05 0.00000E+00
 -1       852 1.58673E-05 4.23475E-05 0.00000E+00
 -1       853 1.45294E-05 4.56658E-05 0.00000E+00
 -1       854 1.32369E-05 4.88646E-05 0.00000E+00
 -1       855 1.20044E-05 5.19043E-05 3.30872E-24
 -1       856 2.59656E-05 5.79026E-05-1.65436E-24
 -1       857 2.57855E-05 6.12708E-05-1.65436E-24
 -1       858 2.56045E-05 6.49118E-05 0.00000E+00
 -1       859 2.54215E-05 6.87838E-05-3.30872E-24
 -1       860 2.52376E-05 7.28448E-05 0.00000E+00
 -1       861 2.50530E-05 7.70522E-05 3.30872E-24
 -1       862 2.48678E-05 8.13637E-05-6.61744E-24
 -1       863 2.46823E-05 8.57366E-05 3.30872E-24
 -1       864 2.44968E-05 9.01280E-05 0.00000E+00
 -1       865 2.43113E-05 9.44953E-05-3.30872E-24
 -1       866 2.41262E-05 9.87957E-05 0.00000E+00
 -1       867 2.39417E-05 1.02986E-04 0.00000E+00
 -1       868 2.37579E-05 1.07025E-04 0.00000E+00
 -1       869 2.35755E-05 1.10870E-04 0.00000E+00
 -1       870 2.33940E-05 1.14477E-04-3.30872E-24
 -1       871 2.34619E-05 5.48334E-05 0.00000E+00
 -1       872 2.08979E-05 5.48173E-05 0.00000E+00
 -1       873 1.83999E-05 5.48009E-05 0.00000E+00
 -1       874 1.59224E-05 5.47841E-05 0.00000E+00
 -1       875 1.34197E-05 5.47666E-05 1.65436E-24
 -1       876 2.52237E-05 5.79553E-05 0.00000E+00
 -1       877 2.42214E-05 6.13272E-05 0.00000E+00
 -1       878 2.31327E-05 6.49262E-05-6.61744E-24
 -1       879 2.19723E-05 6.87189E-05 0.00000E+00
 -1       880 2.07515E-05 7.26713E-05 6.61744E-24
 -1       881 1.94831E-05 7.67499E-05 0.00000E+00
 -1       882 1.81793E-05 8.09218E-05 0.00000E+00
 -1       883 1.68527E-05 8.51540E-05 0.00000E+00
 -1       884 1.55156E-05 8.94138E-05-6.61744E-24
 -1       885 1.41805E-05 9.36684E-05-3.30872E-24
 -1       886 1.28596E-05 9.78852E-05 0.00000E+00
 -1       887 1.15653E-05 1.02031E-04 0.00000E+00
 -1       888 1.03100E-05 1.06073E-04 0.00000E+00
 -1       889 9.10496E-06 1.09979E-04 0.00000E+00
 -1       890 7.96459E-06 1.13714E-04 0.00000E+00
 -1       891 2.02947E-05 1.17713E-04 0.00000E+00
 -1       892 1.76661E-05 1.17618E-04 0.00000E+00
 -1       893 1.51723E-05 1.17523E-04 0.00000E+00
 -1       894 1.26522E-05 1.17429E-04 0.00000E+00
 -1       895 9.94491E-06 1.17334E-04 0.00000E+00
 -1       896 2.81870E-07 1.01463E-06 6.61744E-24
 -1       897 5.66039E-07 1.77140E-06 0.00000E+00
 -1       898 8.50340E-07 2.30162E-06-6.61744E-24
 -1       899 1.13503E-06 2.63632E-06 0.00000E+00
 -1       900 1.41981E-06 2.80614E-06 6.61744E-24
 -1       901 1.70465E-06 2.84137E-06 3.30872E-24
 -1       902 1.98951E-06 2.77204E-06 0.00000E+00
 -1       903 2.27436E-06 2.62793E-06 3.30872E-24
 -1       904 2.55919E-06 2.43869E-06 6.61744E-24
 -1       905 2.84397E-06 2.23388E-06-3.30872E-24
 -1       906 3.12866E-06 2.04303E-06 0.00000E+00
 -1       907 3.41311E-06 1.89567E-06 3.30872E-24
 -1       908 3.69732E-06 1.82146E-06-6.61744E-24
 -1       909 3.98014E-06 1.85017E-06 0.00000E+00
 -1       910 4.26302E-06 2.01183E-06 6.61744E-24
 -1       911 4.61615E-06 2.61735E-06-1.65436E-24
 -1       912 4.69695E-06 2.65156E-06-8.27181E-25
 -1       913 4.77774E-06 2.47308E-06 3.30872E-24
 -1       914 4.85861E-06 2.11595E-06 0.00000E+00
 -1       915 4.93945E-06 1.61405E-06 1.65436E-24
 -1       916 5.02026E-06 1.00118E-06 0.00000E+00
 -1       917 5.10102E-06 3.11098E-07 0.00000E+00
 -1       918 5.18174E-06-4.22515E-07 0.00000E+00
 -1       919 5.26244E-06-1.16598E-06-3.30872E-24
 -1       920 5.34309E-06-1.88563E-06 0.00000E+00
 -1       921 5.42370E-06-2.54779E-06 0.00000E+00
 -1       922 5.50411E-06-3.11874E-06 8.27181E-25
 -1       923 5.58433E-06-3.56472E-06 1.65436E-24
 -1       924 5.66319E-06-3.85190E-06 0.00000E+00
 -1       925 5.74215E-06-3.94631E-06 0.00000E+00
 -1       926 5.45793E-06-3.55947E-06-6.61744E-24
 -1       927 5.09529E-06-3.32284E-06 0.00000E+00
 -1       928 4.73273E-06-3.10091E-06 0.00000E+00
 -1       929 4.36882E-06-2.89027E-06 6.61744E-24
 -1       930 4.00469E-06-2.68752E-06 0.00000E+00
 -1       931 3.64032E-06-2.48924E-06-6.61744E-24
 -1       932 3.27588E-06-2.29197E-06 0.00000E+00
 -1       933 2.91138E-06-2.09227E-06 0.00000E+00
 -1       934 2.54687E-06-1.88671E-06-1.32349E-23
 -1       935 2.18235E-06-1.67185E-06 0.00000E+00
 -1       936 1.81786E-06-1.44430E-06 0.00000E+00
 -1       937 1.45343E-06-1.20069E-06-6.61744E-24
 -1       938 1.08907E-06-9.37689E-07 1.32349E-23
 -1       939 7.25118E-07-6.52038E-07 0.00000E+00
 -1       940 3.61140E-07-3.40516E-07-1.32349E-23
 -1       941 7.44274E-07 3.29623E-07 0.00000E+00
 -1       942 1.53499E-06 6.24523E-07 0.00000E+00
 -1       943 2.32541E-06 9.01651E-07-2.64698E-23
 -1       944 3.12262E-06 1.17789E-06 0.00000E+00
 -1       945 3.92096E-06 1.47012E-06-2.64698E-23
 -1       946 4.72053E-06 1.79532E-06 0.00000E+00
 -1       947 5.52046E-06 2.17063E-06 0.00000E+00
 -1       948 6.32057E-06 2.61353E-06 0.00000E+00
 -1       949 7.12068E-06 3.14183E-06-2.64698E-23
 -1       950 7.92058E-06 3.77392E-06-1.32349E-23
 -1       951 8.72010E-06 4.52866E-06-2.64698E-23
 -1       952 9.51856E-06 5.42578E-06-1.32349E-23
 -1       953 1.03160E-05 6.48567E-06 0.00000E+00
 -1       954 1.11079E-05 7.72979E-06 0.00000E+00
 -1       955 1.18998E-05 9.18059E-06 0.00000E+00
 -1       956 1.25467E-05 1.28264E-05-8.27181E-25
 -1       957 1.24355E-05 1.49833E-05-4.13590E-25
 -1       958 1.23235E-05 1.73144E-05 0.00000E+00
 -1       959 1.22109E-05 1.98007E-05-1.29247E-24
 -1       960 1.20978E-05 2.24232E-05-2.06795E-24
 -1       961 1.19844E-05 2.51626E-05-4.13590E-25
 -1       962 1.18707E-05 2.79996E-05 1.65436E-24
 -1       963 1.17568E-05 3.09150E-05 1.65436E-24
 -1       964 1.16428E-05 3.38895E-05 3.30872E-24
 -1       965 1.15286E-05 3.69038E-05 0.00000E+00
 -1       966 1.14144E-05 3.99385E-05 0.00000E+00
 -1       967 1.13002E-05 4.29745E-05 1.65436E-24
 -1       968 1.11861E-05 4.59923E-05 0.00000E+00
 -1       969 1.10722E-05 4.89729E-05 0.00000E+00
 -1       970 1.09588E-05 5.18970E-05 0.00000E+00
 -1       971 1.06091E-05 5.76771E-05 0.00000E+00
 -1       972 1.03638E-05 6.09240E-05-3.30872E-24
 -1       973 1.01177E-05 6.44480E-05 6.61744E-24
 -1       974 9.86973E-06 6.82099E-05 0.00000E+00
 -1       975 9.62087E-06 7.21699E-05 6.61744E-24
 -1       976 9.37123E-06 7.62879E-05-3.30872E-24
 -1       977 9.12106E-06 8.05237E-05 0.00000E+00
 -1       978 8.87055E-06 8.48366E-05-3.30872E-24
 -1       979 8.61990E-06 8.91860E-05-6.61744E-24
 -1       980 8.36930E-06 9.35311E-05 0.00000E+00
 -1       981 8.11896E-06 9.78312E-05 6.61744E-24
 -1       982 7.86921E-06 1.02046E-04 0.00000E+00
 -1       983 7.62018E-06 1.06134E-04-6.61744E-24
 -1       984 7.37309E-06 1.10056E-04 0.00000E+00
 -1       985 7.12668E-06 1.13771E-04 0.00000E+00
 -3
    1PSTEP                         2           1           1          
  100CL  101 1.000000000         841                     0    1           1
 -4  STRESS      6    1
 -5  SXX         1    4    1    1
 -5  SYY         1    4    2    2
 -5  SZZ         1    4    3    3
 -5  SXY         1    4    1    2
 -5  SYZ         1    4    2    3
 -5  SZX         1    4    3    1
 -1         1-2.15507E+06-6.44502E+05-2.52012E+05-7.91922E+05-3.90476E-10-1.02834E-09
 -1         2-1.32561E+06-1.13115E+03 2.35465E+03-1.54859E+05 1.27329E-11 1.30058E-09
 -1         3-5.50554E+05-2.64841E+05 6.49202E+01-8.78271E+04-9.10063E-11-9.36666E-10
 -1         4-1.34568E+05-6.88111E+04 2.16677E+02-3.25244E+04 1.09935E-10 5.79735E-09
 -1         5 2.40386E+04 5.73522E+05-1.05066E+05 1.17242E+03 7.96717E-10-3.63116E-10
 -1         8-6.78746E+05-3.93233E+05-5.08874E+04-6.25577E+05 6.00267E-11-1.80444E-09
 -1         9-1.08120E+06-1.93279E+05-1.01206E+05-4.19749E+05 3.28631E-10 3.48882E-09
 -1        10-6.06168E+05-4.06299E+05 1.58510E+02-2.78293E+05-2.85885E-10 3.02862E-09
 -1        11-2.33242E+05-1.23106E+05 1.41856E+02-1.43801E+05-3.18854E-10 4.10485E-10
 -1        12-1.27423E+04 5.57817E+05-1.08425E+05-1.62670E+04 4.00064E-10 3.84832E-09
 -1        15 4.58682E+03-2.76946E+04 1.77170E+03-1.91069E+05-6.73026E-11-1.16415E-10
 -1        16-5.79730E+05-1.69859E+05-6.28936E+04-3.82156E+05 1.59586E-09-1.84991E-09
 -1        17-3.92548E+05-3.26609E+05-1.08763E+04-4.03158E+05 3.66223E-10-1.53523E-09
 -1        18-8.06898E+04-1.00870E+05-3.61305E+04-3.02658E+05-5.31751E-10 2.04091E-09
 -1        19 1.15105E+05 2.90727E+05-4.91814E+04-4.77969E+04-1.04622E-09 2.80246E-09
 -1        20 1.44934E+05-1.00897E+05-1.60694E+04 8.66072E+04 2.36655E-08-3.52247E-09
 -1        21-2.33518E+04-2.18652E+05-1.00291E+03 1.60575E+04 4.82178E-08-1.89408E-09
 -1        22 3.06596E+04 1.76156E+05 7.79916E+02-7.37923E+04 7.36691E-11-7.98536E-10
 -1        23-2.23634E+05-1.45385E+04 1.55365E+03-1.97949E+05 2.71636E-10-1.49385E-09
 -1        24-2.48233E+05-3.80537E+04 9.09289E+04-3.59122E+05-2.66785E-11-1.04531E-09
 -1        25 2.51810E+05 1.12940E+05 1.29427E+05-3.60940E+05-8.63110E-10-1.21266E-12
 -1        26 2.10781E+04 3.42922E+05 2.94615E+04-1.11974E+05-1.94965E-09-5.83289E-10
 -1        27-7.13376E+04-8.32777E+04-3.99695E+04 1.18014E+05 4.61872E-09-4.09394E-09
 -1        28-1.74011E+04-1.50281E+05-1.15851E+03 7.80926E+04 2.23820E-08-3.06061E-09
 -1        29 3.92957E+05 2.87183E+05 1.02759E+03-4.08433E+04 8.36167E-11 3.09228E-10
 -1        30 1.40826E+05 3.46931E+04 1.09862E+03-7.95514E+04 2.59821E-10 2.88310E-10
 -1        31-4.46290E+05 3.50398E+04 2.37116E+03-1.15647E+05 9.50062E-10 6.96673E-10
 -1        32-1.38172E+04 1.61470E+05 1.98491E+05-3.36326E+05-1.20119E-09 1.37516E-09
 -1        33 3.84065E+05 4.63390E+05 2.00977E+05-1.45873E+05-4.08409E-09 5.28416E-10
 -1        34-2.94765E+05-4.44831E+04-2.09898E+04 5.32489E+04 6.41279E-10 3.08319E-10
 -1        35-4.38891E+04-4.90943E+04-8.99699E+02 1.07846E+05 9.98843E-09-1.16658E-09
 -1        36-2.91656E+06 2.56198E+04-1.26958E+05-1.69848E-08-4.39683E-10-8.06176E-09
 -1        37-2.96087E+06-3.71713E+04-8.02290E+04-1.26247E-08 9.10566E-10-9.48603E-10
 -1        38-2.93531E+06 2.49760E+03-3.28151E+04-2.08390E-08-1.46814E-10 5.74801E-10
 -1        39-2.94000E+06-3.40606E+03-1.81318E+04-1.43357E-08-3.35917E-10 3.01657E-09
 -1        40-2.93731E+06 2.64033E+02-8.39454E+03-3.57960E-08 1.02152E-11 2.03590E-09
 -1        41-2.93773E+06-3.09549E+02-4.60944E+03 1.79302E-08-6.91415E-10 4.50672E-09
 -1        42-2.93755E+06 3.80165E+01-2.64934E+03-4.61214E-08 5.94711E-11 5.89910E-09
 -1        43-2.93748E+06-5.73074E+01-2.27522E+03-4.95364E-08 8.36467E-10 3.12929E-09
 -1        44-2.93755E+06 4.24330E+01-2.89928E+03-3.55843E-09-2.75322E-10 2.27988E-09
 -1        45-2.93778E+06-3.58933E+02-5.26430E+03 2.14498E-08-4.01058E-10 4.56748E-09
 -1        46-2.93726E+06 3.06424E+02-9.70799E+03 4.55467E-10 9.23015E-11-1.69075E-09
 -1        47-2.94043E+06-3.95698E+03-2.10422E+04-2.65844E-08-1.50821E-10-2.60115E-09
 -1        48-2.93494E+06 2.90155E+03-3.81115E+04-3.56173E-08-5.82764E-11-1.61708E-09
 -1        49-2.96468E+06-4.31839E+04-9.31997E+04 1.38252E-08-3.21795E-10 4.72937E-10
 -1        50-2.91315E+06 2.97656E+04-1.47480E+05-2.82416E-08 5.80438E-11 1.25146E-09
 -1        51 4.62901E+04-4.97614E+05 1.07242E+05-1.00902E+06-2.03727E-10 2.34286E-09
 -1        52 2.01568E+04-4.84398E+05 5.80813E+04-1.18648E+06 4.29281E-10 1.38243E-09
 -1        53 8.39826E+03-5.05208E+05 3.13756E+04-1.00537E+06 5.31145E-10-3.05590E-09
 -1        54 1.72165E+04-5.06263E+05 2.87812E+04-1.19005E+06-3.92902E-10 3.87081E-09
 -1        55 2.61701E+04-5.15077E+05 3.76413E+04-1.00504E+06 2.47383E-10 2.69210E-10
 -1        56-3.57097E+06-4.62819E+05-2.23676E+05-1.36784E+06-3.27418E-11 3.66708E-09
 -1        57-3.64385E+06-6.01774E+05-1.39372E+05-1.37420E+06-5.64796E-10-3.31784E-09
 -1        58-3.60856E+06-5.09000E+05-5.26576E+04-1.36352E+06 9.89530E-10-3.52884E-10
 -1        59-3.60035E+06-5.39081E+05-2.85855E+04-1.38308E+06 2.79442E-10 3.99723E-10
 -1        60-3.61258E+06-5.13758E+05-1.22619E+04-1.36326E+06 7.07587E-10 7.24185E-09
 -1        61-3.59594E+06-5.32554E+05-6.53438E+03-1.38329E+06-4.85898E-10-3.80994E-09
 -1        62-3.61274E+06-5.14592E+05-3.56484E+03-1.36361E+06 5.54337E-10 1.26329E-09
 -1        63-3.59631E+06-5.31149E+05-3.12990E+03-1.38224E+06 1.83718E-09 4.56123E-09
 -1        64-3.61212E+06-5.15189E+05-4.23238E+03-1.36426E+06-5.37966E-10-1.14596E-09
 -1        65-3.59830E+06-5.30504E+05-8.33091E+03-1.38054E+06-9.67248E-10 3.30783E-09
 -1        66-3.61062E+06-5.15393E+05-1.59702E+04-1.36520E+06-2.48292E-10 4.54111E-09
 -1        67-3.60624E+06-5.36744E+05-3.73257E+04-1.37751E+06 1.15324E-09-4.54202E-09
 -1        68-3.60425E+06-5.10280E+05-6.88799E+04-1.36674E+06-1.50180E-10 2.11003E-10
 -1        69-3.66506E+06-6.16690E+05-1.82221E+05-1.36354E+06-2.81852E-09 2.29193E-09
 -1        70-3.55414E+06-4.50803E+05-2.92458E+05-1.37341E+06 9.64064E-10 7.85803E-09
 -1        71-1.12946E+06-3.95790E+03 1.96715E+04-8.20637E-09-9.76121E-11 1.57343E-10
 -1        72-1.12246E+06 5.74967E+03 1.24212E+04-5.80053E-08 7.02870E-10-3.68118E-10
 -1        73-1.12655E+06-3.85749E+02 5.07510E+03-4.62936E-09 3.10284E-10-5.38353E-09
 -1        74-1.12569E+06 5.26466E+02 2.78539E+03 3.28747E-09-1.33832E-09 6.03563E-10
 -1        75-1.12624E+06-4.04132E+01 1.25112E+03-6.70049E-09 8.11990E-10-9.18590E-10
 -1        76-1.12604E+06 4.70186E+01 6.09974E+02 6.07078E-09 2.08968E-10-1.86850E-09
 -1        77-1.12620E+06-3.87190E+00 2.03819E+02-3.68096E-08-7.36136E-10-5.75321E-09
 -1        78-1.12610E+06-1.85929E+00-7.43608E+01-7.03037E-09 1.14566E-09-2.41971E-09
 -1        79-1.12619E+06 6.49286E+00-3.85131E+02-1.92751E-08-3.97740E-10-1.31399E-09
 -1        80-1.12617E+06-6.87374E+01-9.32379E+02-1.17832E-08 2.23030E-10 5.25573E-09
 -1        81-1.12613E+06 5.89593E+01-1.84200E+03-1.77029E-08 1.04996E-10 3.32454E-09
 -1        82-1.12669E+06-7.65877E+02-4.06305E+03-6.14210E-09 6.51758E-10 1.37749E-09
 -1        83-1.12567E+06 5.61234E+02-7.38788E+03 3.90378E-09-1.13323E-10 4.03816E-10
 -1        84-1.13138E+06-8.36407E+03-1.80716E+04-2.19416E-10-8.95213E-10 4.83874E-09
 -1        85-1.12144E+06 5.75857E+03-2.86119E+04-2.75481E-08 2.92993E-10 2.25555E-10
 -1        86-3.76765E+04 6.41490E+05 1.91820E+05-6.47799E+03 3.85626E-10 4.06362E-09
 -1        87 5.75828E+04 7.09898E+05 1.34656E+05-1.91535E+04 1.25874E-09 6.42740E-09
 -1        88-6.37626E+03 6.66756E+05 8.10160E+04-6.58917E+03 1.05410E-09-3.22143E-09
 -1        89 4.37373E+04 7.01147E+05 1.08700E+05-1.88641E+04 1.96178E-09 4.02179E-09
 -1        90-2.71713E+04 6.50014E+05 1.42030E+05-6.73636E+03 1.73168E-09 5.52245E-09
 -1        91-1.67687E+06-2.28056E+05-5.11564E+04-6.36992E+05 9.57698E-10 1.55342E-09
 -1        92-1.69052E+06-2.62666E+05-3.18579E+04-6.41773E+05-5.97993E-11-5.74937E-09
 -1        93-1.68549E+06-2.38568E+05-1.20543E+04-6.35994E+05-7.74207E-10 5.89807E-10
 -1        94-1.68056E+06-2.48404E+05-6.54751E+03-6.43853E+05-3.10934E-10 5.45242E-10
 -1        95-1.68644E+06-2.39627E+05-2.81833E+03-6.35911E+05-5.27280E-10 7.27027E-10
 -1        96-1.67950E+06-2.46973E+05-1.51608E+03-6.43973E+05 1.00425E-09 5.32219E-09
 -1        97-1.68651E+06-2.39779E+05-8.52204E+02-6.35953E+05-4.27690E-10 1.10049E-10
 -1        98-1.67952E+06-2.46730E+05-7.95443E+02-6.43827E+05-5.62977E-10-2.87764E-09
 -1        99-1.68641E+06-2.39866E+05-1.12372E+03-6.36053E+05 1.53887E-09 3.50815E-09
 -1       100-1.67992E+06-2.46710E+05-2.25597E+03-6.43549E+05-1.53068E-09-2.13095E-09
 -1       101-1.68609E+06-2.39833E+05-4.33669E+03-6.36209E+05-9.61336E-10-2.82853E-10
 -1       102-1.68190E+06-2.48581E+05-1.01473E+04-6.42938E+05 1.16233E-09 2.08615E-09
 -1       103-1.68445E+06-2.38354E+05-1.87193E+04-6.36519E+05-1.48248E-10-4.04179E-09
 -1       104-1.69767E+06-2.70429E+05-4.94762E+04-6.39350E+05-2.40618E-10 3.24508E-09
 -1       105-1.67092E+06-2.22169E+05-7.94552E+04-6.38224E+05-1.64528E-09 3.28509E-09
 -1       106-2.91381E+05-9.87247E+03 4.91242E+04-7.45058E-09-4.70534E-10-1.52613E-09
 -1       107-2.74117E+05 1.43478E+04 3.10231E+04 8.53106E-09 3.89344E-10 8.81755E-10
 -1       108-2.84114E+05-9.62152E+02 1.26933E+04-1.37190E-08 4.31523E-10-1.08139E-09
 -1       109-2.82173E+05 1.31337E+03 6.99082E+03-4.72949E-09-5.30186E-10 4.56225E-10
 -1       110-2.83335E+05-1.01284E+02 3.19095E+03-3.62232E-09-3.79495E-10 5.23482E-09
 -1       111-2.83053E+05 1.18250E+02 1.65639E+03-1.25381E-08 2.68345E-10 1.34375E-09
 -1       112-2.83235E+05-1.21700E+01 7.69059E+02-1.38651E-08-4.19552E-10-6.85418E-10
 -1       113-2.83170E+05 8.69373E+00 3.48553E+02-8.06935E-10 6.13319E-10-2.70293E-09
 -1       114-2.83217E+05-7.85217E-02 8.07383E+01 3.89360E-09 5.59456E-10 2.73246E-10
 -1       115-2.83206E+05-1.67167E+01-1.45820E+02 3.82606E-08-1.27235E-09 4.77931E-09
 -1       116-2.83200E+05 1.45971E+01-4.22932E+02-1.97777E-08-2.25727E-11 3.93305E-09
 -1       117-2.83340E+05-1.93910E+02-1.00787E+03-3.96159E-08-2.25393E-10-1.26204E-09
 -1       118-2.83084E+05 1.42008E+02-1.86238E+03-4.13640E-08 4.67005E-10 7.56017E-10
 -1       119-2.84530E+05-2.11856E+03-4.57507E+03 4.71221E-09-8.30811E-10-4.10864E-09
 -1       120-2.82010E+05 1.45804E+03-7.24975E+03 2.12743E-08 5.98106E-10 1.51203E-09
 -1       121 3.07158E+03-9.82842E+05-1.55451E+04-1.85803E+04 9.41327E-11 1.03682E-09
 -1       122-4.43577E+03-9.88148E+05-9.48289E+03-6.16744E+04 1.07821E-09 7.07951E-09
 -1       123 2.67899E+02-9.85259E+05-3.30428E+03-1.82280E+04 4.40650E-10-1.29376E-09
 -1       124 5.02127E+02-9.85314E+05-4.00259E+02-6.20977E+04 1.83127E-09-3.91265E-09
 -1       125-4.68816E+02-9.85933E+05 1.92271E+03-1.81567E+04 4.70664E-10-1.52738E-10
 -1       126-7.57716E+05-1.07904E+05-4.49436E+03-2.87563E+05-4.16833E-10-1.46565E-09
 -1       127-7.53853E+05-1.15933E+05-2.79908E+03-2.93698E+05-9.06766E-10 6.14818E-10
 -1       128-7.58506E+05-1.08791E+05-1.06455E+03-2.87440E+05 6.98890E-10 8.56630E-10
 -1       129-7.52945E+05-1.14720E+05-5.86491E+02-2.93927E+05-1.07904E-09 1.42251E-09
 -1       130-7.58596E+05-1.08877E+05-2.71342E+02-2.87426E+05 9.58579E-10 4.27613E-09
 -1       131-7.52856E+05-1.14594E+05-1.84328E+02-2.93936E+05-3.04678E-09 6.49550E-10
 -1       132-7.58591E+05-1.08898E+05-1.79834E+02-2.87438E+05 1.45099E-09-2.51532E-10
 -1       133-7.52899E+05-1.14553E+05-2.98463E+02-2.93886E+05-1.64994E-09-2.17142E-10
 -1       134-7.58545E+05-1.08921E+05-5.61622E+02-2.87471E+05 3.47882E-11-6.56087E-10
 -1       135-7.53083E+05-1.14594E+05-1.22962E+03-2.93783E+05 9.57243E-11-1.07804E-09
 -1       136-7.58394E+05-1.08876E+05-2.41176E+03-2.87527E+05 6.63931E-11 2.72644E-09
 -1       137-7.54126E+05-1.15704E+05-5.66713E+03-2.93513E+05 5.84805E-10 1.15961E-10
 -1       138-7.57510E+05-1.08015E+05-1.04658E+04-2.87657E+05-1.49487E-09-1.46883E-10
 -1       139-7.62861E+05-1.27976E+05-2.76510E+04-2.91585E+05 9.96295E-10-4.10637E-09
 -1       140-7.49973E+05-9.89466E+04-4.44113E+04-2.88566E+05-1.59707E-09 2.48656E-09
 -1       141 1.32506E+03-3.87198E+03 1.92635E+04 7.94512E-09 3.82700E-10 1.75078E-09
 -1       142 8.08826E+03 5.62722E+03 1.21581E+04 7.40044E-09-1.96156E-10-2.12253E-09
 -1       143 4.17841E+03-3.77157E+02 4.95533E+03-2.12818E-08 3.08852E-10 1.03091E-09
 -1       144 4.92695E+03 5.15016E+02 2.69198E+03-4.17194E-08-1.08775E-09-5.28593E-09
 -1       145 4.48587E+03-3.89679E+01 1.15148E+03-3.02573E-08 2.47770E-10-2.50100E-09
 -1       146 4.57411E+03 4.48203E+01 4.43943E+02 1.14901E-08-1.32789E-10-3.55023E-09
 -1       147 4.53122E+03-8.59832E-01-1.03533E+02-2.16870E-08 2.30666E-10-9.96749E-11
 -1       148 4.48939E+03-1.73822E+01-6.97676E+02-3.19372E-08-7.99431E-10 1.68620E-09
 -1       149 4.57060E+03 2.53679E+01-1.59739E+03-1.63329E-08 2.57846E-10-1.32445E-10
 -1       150 4.24128E+03-2.47873E+02-3.46710E+03 5.36886E-08-6.51295E-10-3.47973E-09
 -1       151 4.77940E+03 2.12369E+02-6.69067E+03 2.09367E-08 4.53290E-11 4.66753E-09
 -1       152 2.39615E+03-2.75406E+03-1.46635E+04 8.75275E-10 7.63499E-10 2.47746E-09
 -1       153 6.41675E+03 2.01780E+03-2.66232E+04-1.33610E-08-3.22009E-10-5.67525E-10
 -1       154-1.44961E+04-3.00876E+04-6.50673E+04-7.54881E-09 5.33483E-10-1.25874E-09
 -1       155 2.16892E+04 2.07115E+04-1.02973E+05-1.28603E-08 6.79949E-10 2.18279E-09
 -1       156 7.38428E+02-2.46553E+05-3.45767E+03-1.07665E+04 4.42583E-10 4.97494E-10
 -1       157-8.58774E+02-2.47657E+05-1.11139E+03-3.52130E+04-2.28965E-10-2.68665E-09
 -1       158-1.21336E+02-2.47325E+05 1.58146E+03-1.06422E+04 1.44587E-09 9.99080E-10
 -1       159 2.91876E+03-2.45419E+05 5.88090E+03-3.53630E+04-6.02995E-10-6.20730E-10
 -1       160-2.02107E+03-2.48909E+05 9.97452E+03-1.06158E+04 1.95132E-09 3.89730E-09
 -1       161-2.50319E+05-3.53810E+04-7.33702E+03-9.67575E+04-5.66843E-10 1.60071E-10
 -1       162-2.49181E+05-4.34317E+04-4.57436E+03-1.00991E+05 1.78865E-10 5.31372E-09
 -1       163-2.51553E+05-3.68880E+04-1.74494E+03-9.66188E+04-1.77678E-10 1.82405E-09
 -1       164-2.47761E+05-4.13837E+04-9.72852E+02-1.01282E+05 1.90823E-10 3.27061E-10
 -1       165-2.51684E+05-3.70437E+04-4.73665E+02-9.66113E+04 1.54614E-10 6.07548E-09
 -1       166-2.47620E+05-4.11774E+04-3.66062E+02-1.01293E+05 1.45803E-10 4.07769E-09
 -1       167-2.51686E+05-3.70634E+04-4.26533E+02-9.66171E+04 1.62117E-10 1.02449E-09
 -1       168-2.47658E+05-4.11743E+04-7.76341E+02-1.01276E+05-8.04164E-10 3.12775E-09
 -1       169-2.51639E+05-3.70468E+04-1.50058E+03-9.66253E+04-1.00385E-09-6.77915E-10
 -1       170-2.47984E+05-4.14751E+04-3.31196E+03-1.01234E+05-3.57204E-10-2.38856E-10
 -1       171-2.51355E+05-3.67968E+04-6.49761E+03-9.66419E+04-3.40265E-10 2.65800E-09
 -1       172-2.50541E+05-4.47404E+04-1.52846E+04-1.00847E+05 1.53642E-09-1.42722E-09
 -1       173-2.49142E+05-3.43034E+04-2.82128E+04-9.68100E+04-1.00749E-09-1.40062E-10
 -1       174-2.73683E+05-7.82362E+04-7.45493E+04-9.61664E+04 2.76714E-10 2.01362E-09
 -1       175-2.29073E+05-9.57696E+03-1.19677E+05-9.89502E+04 2.29193E-09 4.48199E-09
 -1       191 1.44512E+04 1.42657E+06 3.30999E+04 1.07132E+03 0.00000E+00-2.06637E-09
 -1       192 4.78379E+03 1.43281E+06 1.98290E+04 2.06916E+03-1.48407E-09 3.02043E-09
 -1       193 1.05179E+03 1.42892E+06 1.50231E+04 1.38529E+03-8.39236E-10 1.62981E-09
 -1       194 5.31309E+03 1.43314E+06 2.12971E+04 1.44914E+03-3.40333E-09-2.17551E-09
 -1       195 1.61549E+04 1.42625E+06 3.66481E+04 1.72359E+03-1.37152E-09 1.85537E-09
 -1       251-4.38266E+04-1.61600E+04 7.19161E+04-4.11098E+04 1.89175E-10 1.00044E-09
 -1       252-1.58291E+04 2.00752E+04 4.59342E+04-1.32857E+05 4.36557E-11 8.86575E-09
 -1       253-3.36338E+04-2.16697E+03 1.84707E+04-4.06237E+04-5.31145E-10-4.73847E-09
 -1       254-2.98544E+04 1.57827E+03 1.04248E+04-1.33381E+05 1.22964E-09-4.64252E-09
 -1       255-3.29023E+04-3.67954E+02 4.68822E+03-4.05778E+04-6.36646E-11-7.74435E-10
 -1       256-3.24834E+04 3.74739E+02 2.64700E+03-1.33450E+05 1.89175E-09 4.12592E-09
 -1       257-3.30014E+04 5.70788E+01 1.45292E+03-4.05580E+04-3.20142E-10 1.80535E-10
 -1       258-3.32226E+04 4.83473E+02 1.19914E+03-1.33471E+05 3.20142E-10 1.68620E-09
 -1       259-3.30570E+04 1.27968E+02 1.42125E+03-4.05559E+04-5.08180E-10 5.08180E-10
 -1       260-3.29517E+04 5.59862E+02 2.49427E+03-1.33467E+05-7.59428E-11 4.99313E-09
 -1       261-3.30627E+04-1.48858E+02 4.46924E+03-4.05627E+04 1.12323E-09 2.00771E-10
 -1       262-3.08609E+04 1.84577E+03 9.76659E+03-1.33413E+05-1.20053E-10-1.52978E-09
 -1       263-3.38347E+04-1.72681E+03 1.74236E+04-4.06094E+04-2.91038E-10-4.32919E-10
 -1       264-1.80493E+04 1.93000E+04 4.30465E+04-1.32956E+05-9.05857E-10 5.23869E-09
 -1       265-4.34549E+04-1.47346E+04 6.75775E+04-4.10297E+04-2.32103E-09-3.82715E-09
 -1       266-9.90228E+03-2.57402E+05 5.18467E+04-6.48933E+04-2.29193E-10-3.10592E-10
 -1       267 1.72018E+04-2.40743E+05 3.06717E+04-2.15635E+05-8.57199E-11-3.56363E-09
 -1       268-9.78206E+01-2.49138E+05 8.37790E+03-6.48053E+04 9.64064E-11-2.98132E-09
 -1       269-2.63268E+03-2.51216E+05-5.30849E+03-2.15238E+05 2.73758E-10 4.53565E-09
 -1       270 3.63865E+03-2.44802E+05-1.75813E+04-6.53248E+04-1.87356E-10 4.91491E-09
 -1       271-2.81173E+06-3.78691E+05-2.14745E+05-1.10818E+06 5.25688E-10-7.56700E-10
 -1       272-2.85318E+06-5.37800E+05-1.33427E+05-1.14407E+06-1.65528E-10 6.64295E-09
 -1       273-2.85016E+06-4.20300E+05-5.07083E+04-1.10180E+06-2.34650E-10-1.69894E-09
 -1       274-2.80881E+06-4.81479E+05-2.73395E+04-1.15770E+06 1.22964E-09-2.62253E-09
 -1       275-2.85588E+06-4.22897E+05-1.18394E+04-1.09985E+06 1.27329E-11-4.05089E-09
 -1       276-2.80255E+06-4.77927E+05-6.19594E+03-1.16178E+06 9.69976E-10 5.09317E-10
 -1       277-2.85741E+06-4.22221E+05-3.33246E+03-1.09886E+06-1.23691E-09-2.71029E-10
 -1       278-2.80130E+06-4.78496E+05-2.78574E+03-1.16344E+06 5.86624E-11-4.83578E-09
 -1       279-2.85768E+06-4.21903E+05-3.62380E+03-1.09860E+06-5.12500E-10-6.20275E-10
 -1       280-2.80200E+06-4.78931E+05-7.07608E+03-1.16314E+06-2.65572E-10 1.41517E-09
 -1       281-2.85662E+06-4.21909E+05-1.35481E+04-1.09908E+06-4.01997E-10-1.18234E-10
 -1       282-2.80832E+06-4.84304E+05-3.16021E+04-1.16024E+06-1.41335E-09-3.23598E-09
 -1       283-2.85082E+06-4.18085E+05-5.84441E+04-1.10059E+06-6.18456E-10-8.84029E-10
 -1       284-2.85840E+06-5.50922E+05-1.54218E+05-1.14652E+06 6.76437E-10 4.83124E-09
 -1       285-2.80730E+06-3.69016E+05-2.47892E+05-1.10706E+06-1.32786E-10-2.93949E-09
 -1       286-2.02009E+05-1.13420E+04 5.29899E+04-2.46894E+04 2.91948E-09 1.91358E-09
 -1       287-1.82249E+05 1.51080E+04 3.36814E+04-7.89756E+04 7.21229E-10 1.58798E-09
 -1       288-1.94338E+05-1.36076E+03 1.36502E+04-2.42604E+04-2.00089E-11 1.89902E-09
 -1       289-1.91814E+05 1.27163E+03 7.64471E+03-7.95049E+04 2.63753E-11-1.88584E-09
 -1       290-1.93662E+05-2.16558E+02 3.49026E+03-2.41526E+04 9.60426E-10-2.89219E-10
 -1       291-1.93313E+05 2.09263E+02 1.98293E+03-7.96713E+04-4.11092E-10 5.25006E-10
 -1       292-1.93665E+05 6.38636E+00 1.16358E+03-2.40950E+04 7.78527E-10 6.75527E-10
 -1       293-1.93697E+05 2.30567E+02 1.08433E+03-7.97514E+04 1.89266E-09 5.17048E-10
 -1       294-1.93711E+05 4.96909E+01 1.45383E+03-2.40721E+04 1.46099E-09 2.79886E-09
 -1       295-1.93565E+05 3.97865E+02 2.69480E+03-7.97587E+04 2.09991E-09-4.39741E-10
 -1       296-1.93833E+05-1.18636E+02 4.97758E+03-2.40875E+04 1.01454E-09 5.77893E-09
 -1       297-1.91974E+05 2.13760E+03 1.08172E+04-7.96807E+04 2.99087E-09 2.78595E-09
 -1       298-1.94942E+05-1.55991E+03 1.95265E+04-2.41499E+04 1.48248E-10 1.61799E-09
 -1       299-1.79048E+05 2.20321E+04 4.78280E+04-7.93097E+04 4.40195E-10 1.23327E-09
 -1       300-2.05994E+05-1.54986E+04 7.55596E+04-2.44652E+04-1.56433E-10-2.91038E-09
 -1       301 4.44200E+04 1.28128E+05 9.66487E+04-1.65542E+05-2.94676E-10 3.27418E-11
 -1       302 1.56760E+04 1.46106E+05 5.40599E+04-1.95338E+05 5.19094E-10 3.69619E-09
 -1       303 3.84985E+03 1.35238E+05 3.45088E+04-1.65414E+05-5.64796E-10-2.74241E-09
 -1       304 1.07226E+04 1.43025E+05 4.03598E+04-1.95364E+05 3.16504E-10-2.74667E-10
 -1       305 2.84805E+04 1.31170E+05 6.35254E+04-1.65579E+05-3.96540E-10 2.17369E-10
 -1       306-2.93370E+06-3.83300E+05-2.30401E+05-1.14387E+06 2.32103E-09 1.44064E-09
 -1       307-2.99647E+06-5.37428E+05-1.43389E+05-1.16324E+06 2.21826E-09-1.25874E-09
 -1       308-2.97398E+06-4.29135E+05-5.43238E+04-1.13785E+06 3.17596E-09 5.08953E-09
 -1       309-2.94955E+06-4.75592E+05-2.93941E+04-1.17582E+06-5.11136E-10 1.06229E-09
 -1       310-2.97945E+06-4.32668E+05-1.26433E+04-1.13629E+06-3.30147E-10 1.06411E-10
 -1       311-2.94320E+06-4.71004E+05-6.63724E+03-1.17887E+06-9.13587E-10 1.10049E-10
 -1       312-2.98070E+06-4.32387E+05-3.50131E+03-1.13554E+06 2.26555E-09 3.92220E-11
 -1       313-2.94200E+06-4.71271E+05-2.84197E+03-1.18005E+06 4.88490E-09 5.45060E-09
 -1       314-2.98090E+06-4.32159E+05-3.57304E+03-1.13533E+06 4.14673E-11-4.41810E-09
 -1       315-2.94263E+06-4.71752E+05-6.87741E+03-1.17987E+06-2.63299E-10-3.56863E-09
 -1       316-2.98004E+06-4.31989E+05-1.30880E+04-1.13567E+06-5.54792E-10-6.82121E-10
 -1       317-2.94859E+06-4.77302E+05-3.05530E+04-1.17773E+06 2.32831E-09 5.54792E-10
 -1       318-2.97480E+06-4.27873E+05-5.63918E+04-1.13686E+06-5.27280E-10 1.35333E-09
 -1       319-2.99664E+06-5.42400E+05-1.49024E+05-1.16570E+06 5.77529E-11 1.10049E-09
 -1       320-2.93337E+06-3.79777E+05-2.39335E+05-1.14264E+06-9.84073E-10-2.85218E-09
 -1       321-3.35764E+04-1.85318E+04 9.18451E+04-9.48224E+03 4.77485E-10-2.94676E-09
 -1       322-1.21631E+03 2.67688E+04 5.80237E+04-3.06695E+04-2.11639E-09 2.02817E-10
 -1       323-2.00147E+04-1.83474E+03 2.37368E+04-9.37435E+03-4.87034E-10-3.77077E-09
 -1       324-1.63849E+04 2.43740E+03 1.31003E+04-3.07809E+04 1.54978E-09 3.30147E-09
 -1       325-1.85782E+04-1.99497E+02 6.00905E+03-9.36356E+03-8.73115E-11 2.50884E-09
 -1       326-1.80917E+04 2.31324E+02 3.19244E+03-3.07931E+04-6.32099E-10-2.79078E-09
 -1       327-1.84067E+04-2.02909E+01 1.62038E+03-9.36233E+03 2.88878E-10-2.80431E-09
 -1       328-1.83204E+04 4.63534E+01 1.02693E+03-3.07947E+04-6.25278E-12-1.37084E-09
 -1       329-1.83888E+04-5.27436E+00 8.80989E+02-9.36203E+03 1.59162E-11-8.00696E-10
 -1       330-1.82698E+04 9.19905E+01 1.25463E+03-3.07929E+04 4.12683E-11-3.19289E-10
 -1       331-1.84378E+04-6.89271E+01 2.12588E+03-9.36414E+03-4.65661E-10-2.35801E-09
 -1       332-1.76652E+04 8.29113E+02 4.50154E+03-3.07833E+04 3.63798E-11 2.70296E-09
 -1       333-1.89152E+04-6.38423E+02 8.09275E+03-9.37156E+03 3.50155E-11-7.82620E-10
 -1       334-1.24465E+04 9.08991E+03 1.97611E+04-3.06816E+04 2.91948E-10 9.80435E-10
 -1       335-2.35181E+04-6.34601E+03 3.12412E+04-9.46776E+03-8.30369E-10-4.27644E-09
 -1       336-5.83401E+02-9.93052E+05 8.03586E+01-9.97366E+04 7.96717E-10-2.38288E-09
 -1       337 1.86765E+03-9.94089E+05-2.66811E+03-3.31974E+05 4.66025E-09-3.80896E-09
 -1       338 1.28831E+03-9.92954E+05-7.08002E+03-9.88309E+04 1.44360E-09 1.84173E-10
 -1       339-6.37595E+03-9.99997E+05-1.85068E+04-3.32272E+05 5.82804E-09 3.67618E-09
 -1       340 6.19720E+03-9.88107E+05-3.01001E+04-9.94380E+04 1.40972E-09 2.08092E-09
 -1       341-1.69953E+06-2.27911E+05-8.25735E+04-6.52343E+05 1.18052E-09 7.16682E-10
 -1       342-1.72163E+06-2.83732E+05-5.14166E+04-6.60009E+05-1.09515E-09-7.84348E-09
 -1       343-1.71365E+06-2.44674E+05-1.94704E+04-6.50525E+05-3.30829E-11-3.90355E-09
 -1       344-1.70523E+06-2.61064E+05-1.05782E+04-6.63803E+05-4.82828E-10 1.56797E-09
 -1       345-1.71535E+06-2.46207E+05-4.57878E+03-6.50211E+05-1.07298E-09-6.30962E-10
 -1       346-1.70324E+06-2.59066E+05-2.50380E+03-6.64388E+05 5.93900E-10-2.97476E-09
 -1       347-1.71562E+06-2.46284E+05-1.49318E+03-6.50104E+05-5.20004E-10 1.46644E-09
 -1       348-1.70301E+06-2.58978E+05-1.54162E+03-6.64516E+05 1.93899E-09-8.44466E-10
 -1       349-1.71559E+06-2.46262E+05-2.33229E+03-6.50103E+05-1.27369E-09-2.59524E-09
 -1       350-1.70351E+06-2.59328E+05-4.80834E+03-6.64383E+05-1.96803E-09-5.40012E-09
 -1       351-1.71512E+06-2.45986E+05-9.28978E+03-6.50211E+05 8.78799E-11 3.74303E-09
 -1       352-1.70737E+06-2.63763E+05-2.17853E+04-6.63554E+05-2.77396E-10 2.14231E-09
 -1       353-1.71181E+06-2.42593E+05-4.01903E+04-6.50632E+05-2.48065E-10-1.02409E-09
 -1       354-1.74077E+06-3.11160E+05-1.06261E+05-6.56382E+05 9.63155E-10 3.04499E-09
 -1       355-1.68297E+06-2.07564E+05-1.70575E+05-6.54000E+05-2.21917E-10 3.79077E-09
 -1       356 1.35914E+05-9.32316E+03 4.61693E+04-7.40735E+03-1.00499E-10-3.98359E-10
 -1       357 1.52182E+05 1.34528E+04 2.91651E+04-2.41932E+04 1.53705E-10 8.87212E-09
 -1       358 1.42736E+05-9.23981E+02 1.19111E+04-7.35615E+03 2.05091E-10 4.62478E-10
 -1       359 1.44547E+05 1.22172E+03 6.53608E+03-2.42299E+04-5.76392E-10 3.63798E-10
 -1       360 1.43460E+05-9.99266E+01 2.91940E+03-7.36784E+03-1.84855E-10 2.81489E-10
 -1       361 1.43679E+05 1.11743E+02 1.39456E+03-2.42115E+04-3.92447E-10-7.32825E-10
 -1       362 1.43553E+05-6.76047E+00 3.99953E+02-7.37454E+03-7.81085E-10 2.25077E-09
 -1       363 1.43528E+05-2.17166E+00-3.38472E+02-2.42053E+04 5.40894E-10 2.23139E-09
 -1       364 1.43596E+05 2.12543E+01-1.22647E+03-7.37407E+03 6.80870E-10 8.12065E-10
 -1       365 1.43321E+05-2.08245E+02-2.86288E+03-2.42148E+04-2.16005E-12 1.67165E-09
 -1       366 1.43781E+05 1.71985E+02-5.61793E+03-7.36520E+03-3.03544E-10 1.04819E-09
 -1       367 1.41800E+05-2.33879E+03-1.23554E+04-2.42346E+04-1.90994E-10 3.76826E-09
 -1       368 1.45176E+05 1.67942E+03-2.24641E+04-7.35428E+03-4.10637E-10 4.15275E-09
 -1       369 1.27614E+05-2.54202E+04-5.48898E+04-2.41909E+04-2.08001E-09-1.51158E-09
 -1       370 1.58078E+05 1.74219E+04-8.68991E+04-7.40266E+03 1.37607E-09 3.08864E-09
 -1       371-2.54979E+03-2.23137E+05 1.13935E+04-7.14906E+04 3.50792E-09-2.18097E-09
 -1       372 4.18462E+03-2.19766E+05 5.26903E+03-2.34658E+05-1.55887E-09-5.43696E-09
 -1       373 5.13850E+02-2.21243E+05-1.89749E+03-7.11499E+04 5.59743E-09 1.50158E-09
 -1       374-4.44280E+03-2.25280E+05-1.09306E+04-2.34704E+05-1.90630E-09 1.33059E-09
 -1       375 4.05030E+03-2.17830E+05-1.96290E+04-7.14456E+04 4.80486E-09 4.21278E-09
 -1       376-8.00366E+05-1.08140E+05-4.98068E+04-3.12194E+05-2.76486E-10-1.84446E-09
 -1       377-8.07611E+05-1.47876E+05-3.10115E+04-3.23811E+05-7.57154E-10-1.46065E-09
 -1       378-8.08841E+05-1.18278E+05-1.17533E+04-3.11160E+05 5.68434E-12 1.07457E-09
 -1       379-7.97844E+05-1.34111E+05-6.39392E+03-3.25992E+05 5.43537E-10 2.21496E-09
 -1       380-8.09816E+05-1.19254E+05-2.78518E+03-3.11035E+05-3.36513E-10 2.91016E-09
 -1       381-7.96749E+05-1.32810E+05-1.55912E+03-3.26231E+05 3.85398E-10 3.74984E-09
 -1       382-8.09932E+05-1.19347E+05-9.98475E+02-3.11020E+05-4.35676E-10 2.19808E-09
 -1       383-7.96687E+05-1.32690E+05-1.14199E+03-3.26210E+05-6.26244E-10-3.48632E-09
 -1       384-8.09867E+05-1.19365E+05-1.83885E+03-3.11054E+05 8.38781E-10 2.41266E-09
 -1       385-7.97109E+05-1.32945E+05-3.85684E+03-3.26044E+05 5.59794E-10 7.18364E-09
 -1       386-8.09468E+05-1.19154E+05-7.49089E+03-3.11141E+05 1.32786E-10 3.51429E-09
 -1       387-8.00174E+05-1.36538E+05-1.75640E+04-3.25373E+05 2.76123E-09 5.01586E-10
 -1       388-8.06811E+05-1.16414E+05-3.24217E+04-3.11449E+05-1.62061E-09 1.10049E-09
 -1       389-8.26997E+05-1.74759E+05-8.56470E+04-3.19619E+05-6.99742E-10 3.20870E-09
 -1       390-7.83571E+05-8.81945E+04-1.37520E+05-3.14109E+05 2.59752E-09-2.98314E-09
 -1       406 1.43244E+04 1.38706E+06 3.44385E+04-3.83981E+04-1.93540E-09 1.78625E-09
 -1       407 5.06383E+03 1.39359E+06 2.41106E+04-4.43290E+04-5.51609E-09-3.59796E-09
 -1       408 1.89736E+03 1.38899E+06 2.41655E+04-3.80680E+04-2.50839E-09 2.45927E-09
 -1       409 1.15972E+04 1.39750E+06 4.20159E+04-4.48897E+04-6.82485E-09 2.82671E-09
 -1       410 3.52649E+04 1.38288E+06 7.77295E+04-3.77537E+04-3.76895E-09 6.22640E-09
 -1       466 1.24062E+06-2.44050E+04 1.18979E+05-2.64683E+04 3.45608E-11 4.22006E-10
 -1       467 1.28306E+06 3.44651E+04 7.53125E+04-8.93316E+04-9.24047E-10-4.11092E-10
 -1       468 1.25807E+06-2.52380E+03 3.07755E+04-2.69134E+04-2.05546E-10-3.28146E-09
 -1       469 1.26279E+06 3.15219E+03 1.70811E+04-8.84245E+04-2.34650E-10-5.59112E-09
 -1       470 1.25982E+06-2.65536E+02 7.91019E+03-2.73566E+04 5.82077E-11 1.31331E-09
 -1       471 1.26027E+06 4.28471E+02 4.39725E+03-8.77844E+04 5.13182E-10 1.66665E-09
 -1       472 1.25999E+06 1.97216E+01 2.58435E+03-2.75543E+04 6.35964E-10-2.93994E-10
 -1       473 1.25997E+06 2.34094E+02 2.31220E+03-8.76409E+04-9.47978E-10-9.67475E-10
 -1       474 1.26000E+06-8.52430E+00 3.03345E+03-2.75002E+04-2.43745E-10 1.00295E-09
 -1       475 1.26050E+06 4.60856E+02 5.59272E+03-8.80053E+04 5.69344E-10-2.66311E-09
 -1       476 1.25978E+06-4.03439E+02 1.02814E+04-2.71896E+04-4.00178E-11 9.55424E-10
 -1       477 1.26383E+06 4.03117E+03 2.23768E+04-8.88604E+04 2.76486E-10 8.12861E-10
 -1       478 1.25747E+06-3.35749E+03 4.03670E+04-2.66436E+04-5.27507E-10-5.34783E-10
 -1       479 1.29037E+06 4.51645E+04 9.88486E+04-8.99611E+04-1.58616E-09-3.80169E-10
 -1       480 1.23454E+06-3.20363E+04 1.56204E+05-2.61208E+04-1.92267E-09 4.36557E-10
 -1       481-6.51923E+03 3.16963E+05 3.33559E+04-2.02951E+04 3.14685E-10-6.89937E-11
 -1       482 1.01839E+04 3.28517E+05 2.21641E+04-6.48119E+04 2.05546E-10 5.18116E-09
 -1       483-7.84963E+02 3.21670E+05 1.11628E+04-2.02505E+04 1.31763E-10 3.22507E-09
 -1       484 4.33580E+03 3.25105E+05 1.13654E+04-6.48098E+04-1.46429E-10 1.06911E-09
 -1       485-2.28857E+03 3.20624E+05 1.25954E+04-2.03021E+04 2.15550E-10-1.88902E-09
 -1       486-1.23007E+06-1.56870E+05-1.22334E+05-4.83768E+05 4.14730E-10 9.31323E-10
 -1       487-1.26278E+06-2.39473E+05-7.61487E+04-4.95058E+05 6.57792E-10 1.38425E-09
 -1       488-1.25101E+06-1.81663E+05-2.88527E+04-4.81105E+05-3.87899E-10-2.32831E-10
 -1       489-1.23857E+06-2.05908E+05-1.56234E+04-5.00746E+05-1.21872E-10-1.12777E-09
 -1       490-1.25356E+06-1.83900E+05-6.70691E+03-4.80642E+05-2.33285E-10-1.14323E-09
 -1       491-1.23563E+06-2.02994E+05-3.50438E+03-5.01728E+05 1.69166E-10 1.73532E-09
 -1       492-1.25404E+06-1.83947E+05-1.80265E+03-4.80437E+05-2.63753E-10-1.88948E-10
 -1       493-1.23515E+06-2.02950E+05-1.37558E+03-5.02108E+05-2.19984E-10-8.07944E-10
 -1       494-1.25414E+06-1.83850E+05-1.61954E+03-4.80344E+05 1.26875E-10 4.69299E-10
 -1       495-1.23532E+06-2.03265E+05-3.02235E+03-5.02190E+05 1.42620E-10 8.19682E-10
 -1       496-1.25389E+06-1.83641E+05-5.69475E+03-4.80365E+05-3.30544E-10 9.23137E-11
 -1       497-1.23761E+06-2.05991E+05-1.32696E+04-5.01709E+05-9.78844E-11-9.41554E-10
 -1       498-1.25186E+06-1.81603E+05-2.44566E+04-4.80626E+05 2.02220E-10-5.56611E-10
 -1       499-1.25795E+06-2.34712E+05-6.46062E+04-4.97204E+05 2.48406E-10 2.02454E-09
 -1       500-1.23424E+06-1.60432E+05-1.03751E+05-4.82752E+05 1.09139E-10 1.71713E-09
 -1       501 3.52986E+05-1.56723E+04 7.35841E+04-2.99414E+04 1.98270E-09-2.06273E-09
 -1       502 3.80200E+05 2.10684E+04 4.67549E+04-9.83098E+04 3.69255E-10-1.95905E-09
 -1       503 3.63635E+05-1.81966E+03 1.89741E+04-2.98675E+04 6.73026E-11-7.11225E-10
 -1       504 3.66932E+05 1.87001E+03 1.06095E+04-9.81960E+04 4.58385E-10 1.36788E-09
 -1       505 3.64583E+05-2.42002E+02 4.85596E+03-3.00438E+04 1.34241E-09-2.01680E-09
 -1       506 3.64903E+05 3.73352E+02 2.73312E+03-9.79115E+04 1.16734E-09 6.97810E-10
 -1       507 3.64597E+05 4.64673E+01 1.58689E+03-3.01529E+04 1.96178E-09 1.51431E-09
 -1       508 3.64450E+05 3.64494E+02 1.42412E+03-9.77768E+04 1.07218E-09-1.39107E-09
 -1       509 3.64560E+05 7.93522E+01 1.85885E+03-3.01779E+04 1.40403E-09-5.54110E-10
 -1       510 3.64716E+05 5.28818E+02 3.40774E+03-9.78081E+04 2.29852E-09 1.89999E-09
 -1       511 3.64440E+05-1.72737E+02 6.25568E+03-3.01215E+04 1.54978E-09 1.50976E-10
 -1       512 3.66878E+05 2.64665E+03 1.36134E+04-9.79897E+04 2.38060E-09 3.83579E-10
 -1       513 3.63092E+05-2.04411E+03 2.45228E+04-2.99961E+04 6.36646E-10 7.05768E-10
 -1       514 3.83360E+05 2.75646E+04 6.01426E+04-9.80461E+04-4.36557E-10 2.40107E-10
 -1       515 3.49249E+05-1.96491E+04 9.49244E+04-3.00774E+04 2.80124E-10 1.02591E-09
 -1       516-1.20320E+04 2.16570E+05 6.34155E+04-5.37899E+04 2.48110E-09-2.67255E-09
 -1       517 2.02323E+04 2.38332E+05 4.44978E+04-1.74590E+05 2.75350E-09 8.96398E-09
 -1       518-1.80652E+03 2.25047E+05 2.66884E+04-5.36787E+04 2.15914E-09 4.63297E-09
 -1       519 1.51590E+04 2.36479E+05 3.57619E+04-1.74520E+05 2.60115E-09-6.59384E-10
 -1       520-9.18386E+03 2.19953E+05 4.63520E+04-5.38769E+04 1.47520E-09-1.90812E-09
 -1       521-2.38301E+06-3.12168E+05-2.04315E+05-9.36101E+05 1.22600E-09 2.83762E-09
 -1       522-2.43038E+06-4.56697E+05-1.27089E+05-9.62462E+05 1.55160E-09 8.80391E-10
 -1       523-2.41877E+06-3.52687E+05-4.81958E+04-9.30806E+05-1.54432E-09-1.83354E-09
 -1       524-2.38900E+06-4.01859E+05-2.60484E+04-9.73698E+05-8.18545E-10 3.57841E-09
 -1       525-2.42362E+06-3.55803E+05-1.12022E+04-9.29483E+05 4.18368E-11 1.18871E-09
 -1       526-2.38355E+06-3.97697E+05-5.83720E+03-9.76396E+05-6.33008E-10 3.09342E-10
 -1       527-2.42470E+06-3.55570E+05-3.00936E+03-9.28876E+05 1.25465E-09 7.41352E-10
 -1       528-2.38260E+06-3.97839E+05-2.30957E+03-9.77373E+05 4.73619E-10 1.18530E-09
 -1       529-2.42486E+06-3.55415E+05-2.74422E+03-9.28735E+05 2.09610E-10-2.62662E-09
 -1       530-2.38311E+06-3.98107E+05-5.14857E+03-9.77115E+05-9.75888E-10-2.42903E-09
 -1       531-2.42413E+06-3.55397E+05-9.74912E+03-9.29066E+05 1.38243E-09-1.93086E-09
 -1       532-2.38762E+06-4.02022E+05-2.26837E+04-9.75177E+05 1.80080E-09-2.31012E-10
 -1       533-2.42004E+06-3.52552E+05-4.19014E+04-9.30087E+05 3.76531E-10-4.29281E-10
 -1       534-2.42346E+06-4.49917E+05-1.10575E+05-9.65619E+05 9.93623E-11 4.42560E-09
 -1       535-2.38898E+06-3.17252E+05-1.77725E+05-9.34635E+05-8.85848E-10 2.32831E-09
 -1       536 9.96930E+05-3.14410E+04 1.55789E+05-1.30336E+04-1.58252E-10 2.61934E-10
 -1       537 1.05181E+06 4.53188E+04 9.84249E+04-4.48851E+04-1.95359E-09-4.92582E-09
 -1       538 1.01994E+06-3.13564E+03 4.02822E+04-1.32293E+04-8.34916E-10-1.76806E-09
 -1       539 1.02605E+06 4.10287E+03 2.22558E+04-4.44313E+04 1.00681E-09-2.30875E-09
 -1       540 1.02237E+06-3.51482E+02 1.02401E+04-1.34671E+04-4.12456E-10-7.61247E-10
 -1       541 1.02312E+06 3.82614E+02 5.50790E+03-4.40493E+04-6.03904E-10-7.85690E-10
 -1       542 1.02265E+06-3.95364E+01 2.91976E+03-1.36118E+04 1.60526E-10-1.31877E-10
 -1       543 1.02272E+06 8.79127E+01 2.09142E+03-4.38650E+04-6.33520E-10 4.01997E-10
 -1       544 1.02266E+06-1.71891E+01 2.17285E+03-1.36517E+04 4.92463E-10-1.18291E-10
 -1       545 1.02289E+06 2.61881E+02 3.54383E+03-4.38881E+04-1.64994E-09 4.04083E-09
 -1       546 1.02249E+06-1.97785E+02 6.31371E+03-1.35887E+04 3.89718E-10 8.97444E-10
 -1       547 1.02466E+06 2.51816E+03 1.35472E+04-4.41124E+04 6.56655E-10-2.18051E-09
 -1       548 1.02102E+06-1.88948E+03 2.44545E+04-1.34270E+04 1.86446E-10-6.93944E-10
 -1       549 1.04031E+06 2.75024E+04 5.96996E+04-4.44267E+04-8.73115E-11-4.41105E-10
 -1       550 1.00707E+06-1.90718E+04 9.44544E+04-1.32821E+04-1.65073E-09 2.13913E-09
 -1       551 2.11447E+04-2.70719E+05 4.35113E+04-4.66854E+05-2.40834E-09 3.38696E-09
 -1       552 9.54444E+03-2.63562E+05 2.64401E+04-5.50738E+05 2.91038E-10 4.51109E-10
 -1       553 4.30373E+03-2.68845E+05 2.04506E+04-4.66066E+05-3.49610E-09-1.89902E-09
 -1       554 1.08070E+04-2.63146E+05 2.95405E+04-5.50874E+05 5.38421E-10 1.05956E-09
 -1       555 2.50082E+04-2.71849E+05 5.10287E+04-4.66698E+05-3.65344E-09-3.10501E-09
 -1       556-7.43257E+05-2.27048E+05-2.89376E+04-4.21860E+05-7.47605E-10-7.26141E-09
 -1       557-7.28479E+05-2.39466E+05-1.41976E+04-4.48422E+05 6.03904E-10 4.22915E-11
 -1       558-7.45256E+05-2.16049E+05-6.07267E+03-4.26378E+05-1.21508E-09-3.66526E-10
 -1       559-7.25443E+05-2.35994E+05-2.95456E+03-4.49966E+05-5.23141E-09-1.16717E-08
 -1       560-7.45881E+05-2.15387E+05-1.39051E+03-4.26798E+05-3.04135E-09-7.82529E-09
 -1       561-7.25560E+05-2.35741E+05-7.23112E+02-4.50301E+05 1.14960E-09-1.30080E-09
 -1       562-7.46176E+05-2.15251E+05-4.58923E+02-4.26955E+05 1.02591E-09 8.94943E-10
 -1       563-7.25721E+05-2.35667E+05-4.74931E+02-4.50441E+05-6.99674E-09-1.83772E-08
 -1       564-7.46239E+05-2.15195E+05-7.57044E+02-4.27001E+05 6.57110E-10 2.42471E-09
 -1       565-7.25758E+05-2.35667E+05-1.52122E+03-4.50444E+05 2.45791E-10 1.49521E-09
 -1       566-7.46054E+05-2.15214E+05-3.08992E+03-4.26931E+05 4.55657E-10 5.18412E-10
 -1       567-7.26084E+05-2.36064E+05-6.73836E+03-4.50286E+05-4.82942E-10-1.44610E-10
 -1       568-7.45398E+05-2.16227E+05-1.38168E+04-4.26312E+05-7.20320E-10-1.27693E-09
 -1       569-7.33111E+05-2.44642E+05-3.25299E+04-4.48505E+05 1.57161E-09-2.21553E-09
 -1       570-7.42503E+05-2.40170E+05-6.61233E+04-4.15509E+05-3.81988E-10-4.89308E-10
 -1       571 7.95895E+05 3.79024E+04 8.32981E+04-1.45216E+05 2.12822E-09-1.61072E-09
 -1       572 8.11365E+05 1.20387E+04 4.22201E+04-1.70471E+05 4.65661E-10-5.16957E-09
 -1       573 8.02250E+05 1.21474E+03 1.89706E+04-1.44571E+05-3.00497E-09-2.81943E-10
 -1       574 8.03538E+05 2.96369E+02 9.66292E+03-1.71086E+05-5.90262E-10-1.97542E-09
 -1       575 8.02556E+05-1.70544E+02 4.65412E+03-1.44526E+05 1.55342E-09-2.23736E-10
 -1       576 8.02644E+05-4.53827E+01 2.39811E+03-1.71134E+05 3.14685E-10 1.65528E-09
 -1       577 8.02542E+05-4.73183E+01 1.21582E+03-1.44525E+05 1.01949E-10 2.45200E-09
 -1       578 8.02552E+05-1.58271E+01 7.07951E+02-1.71140E+05-4.59295E-10 1.68438E-09
 -1       579 8.02653E+05-7.51178E+01 5.07113E+02-1.44521E+05-5.27507E-11-2.61934E-09
 -1       580 8.02780E+05-1.33708E+02 5.94928E+02-1.71150E+05 5.94810E-10 5.89716E-09
 -1       581 8.02934E+05-2.61946E+02 9.27331E+02-1.44514E+05-9.09495E-10 1.29421E-09
 -1       582 8.03360E+05-2.96828E+02 1.84131E+03-1.71099E+05-4.43833E-10-5.17775E-09
 -1       583 8.03305E+05-2.72753E+02 3.52817E+03-1.44570E+05-8.07631E-10 2.20098E-10
 -1       584 8.05432E+05 1.59638E+03 7.89138E+03-1.70316E+05-5.64614E-09 3.85717E-09
 -1       585 8.02648E+05 6.29898E+03 1.54907E+04-1.45316E+05 1.30240E-09 4.16549E-09
 -1       586 8.52657E+03 1.42737E+05 1.68979E+04-5.22551E+05-8.18545E-10-8.91305E-10
 -1       587 5.17321E+03 1.44794E+05 1.26058E+04-6.16278E+05-4.93310E-09 3.79441E-09
 -1       588 3.39428E+03 1.42324E+05 1.34658E+04-5.21690E+05-1.18234E-09 5.37148E-09
 -1       589 9.49746E+03 1.47198E+05 2.42625E+04-6.16359E+05-4.28554E-09-3.37968E-09
 -1       590 2.22835E+04 1.39802E+05 4.50902E+04-5.22447E+05-5.96629E-10-1.24055E-09
 -1       591-4.96935E+05-1.55679E+05-6.15755E+04-2.60239E+05 3.75394E-10 3.83443E-09
 -1       592-4.95196E+05-1.52864E+05-3.03135E+04-2.82828E+05-2.46018E-09-6.56746E-09
 -1       593-4.99182E+05-1.33664E+05-1.28720E+04-2.70333E+05 1.98452E-09 4.26826E-09
 -1       594-4.88565E+05-1.44784E+05-6.29946E+03-2.84072E+05-4.00178E-10 1.88271E-09
 -1       595-4.99588E+05-1.32842E+05-2.91174E+03-2.70814E+05-1.14323E-09 4.25189E-11
 -1       596-4.88136E+05-1.44455E+05-1.49061E+03-2.84092E+05-9.10404E-10 1.43154E-09
 -1       597-4.99681E+05-1.32862E+05-8.45823E+02-2.70837E+05 2.83308E-10 6.81212E-10
 -1       598-4.88099E+05-1.44455E+05-7.39068E+02-2.84082E+05-2.36469E-11-2.43199E-09
 -1       599-4.99653E+05-1.32867E+05-1.02136E+03-2.70825E+05 2.80625E-09 6.15910E-09
 -1       600-4.88114E+05-1.44470E+05-1.95267E+03-2.84066E+05-2.16278E-09-7.02084E-09
 -1       601-4.99489E+05-1.32850E+05-3.89741E+03-2.70775E+05-1.72076E-09-1.16415E-09
 -1       602-4.88673E+05-1.44925E+05-8.47601E+03-2.84027E+05 1.09139E-10-1.34605E-10
 -1       603-4.98938E+05-1.33963E+05-1.73353E+04-2.70120E+05 7.31234E-10-4.22006E-10
 -1       604-4.97561E+05-1.55845E+05-4.08282E+04-2.82399E+05 2.40107E-09 6.49379E-10
 -1       605-4.95961E+05-1.63539E+05-8.29243E+04-2.56471E+05-8.36735E-10 6.62112E-10
 -1       606 2.12645E+05-2.10716E+04-4.58793E+04 4.95276E+04-1.42372E-08 2.95586E-11
 -1       607 2.03987E+05-6.70653E+03-2.32364E+04 5.74708E+04-3.78532E-09-5.14410E-09
 -1       608 2.08784E+05-7.04078E+02-1.04586E+04 4.90787E+04 9.96079E-09 7.38964E-10
 -1       609 2.07885E+05-3.94129E+01-5.30836E+03 5.79173E+04-5.54792E-09-3.48268E-09
 -1       610 2.08341E+05 2.33020E+02-2.55641E+03 4.90392E+04-1.69330E-08-2.04182E-09
 -1       611 2.08123E+05 2.89231E+02-1.28588E+03 5.79530E+04-3.14731E-08-6.12863E-09
 -1       612 2.08196E+05 2.59961E+02-6.12896E+02 4.90385E+04-1.22982E-08-5.24324E-10
 -1       613 2.08075E+05 3.27378E+02-2.63383E+02 5.79518E+04-1.85028E-08-9.36780E-10
 -1       614 2.08108E+05 2.81432E+02-4.25306E+01 4.90391E+04-6.39739E-09-3.19687E-10
 -1       615 2.08018E+05 3.58402E+02 1.65583E+02 5.79481E+04 1.55678E-08 1.26511E-09
 -1       616 2.08042E+05 3.03679E+02 4.43604E+02 4.90413E+04-9.11587E-09 6.18911E-10
 -1       617 2.08037E+05 4.34228E+02 9.89479E+02 5.79418E+04 1.08366E-09-1.28830E-09
 -1       618 2.07945E+05 4.87627E+02 1.97547E+03 4.90440E+04-1.63209E-09 2.14050E-09
 -1       619 2.08782E+05 1.70162E+03 4.41302E+03 5.79121E+04-5.52154E-09-3.87240E-09
 -1       620 2.07222E+05 4.35813E+03 8.71725E+03 4.90519E+04 1.32673E-10-1.56524E-09
 -1       621 9.27481E+03 8.33480E+05 2.18142E+04-1.31574E+05-3.55521E-09 3.63650E-09
 -1       622 3.78697E+03 8.37569E+05 1.66548E+04-1.55217E+05-8.61655E-09-2.11730E-09
 -1       623 1.93896E+03 8.34621E+05 1.86981E+04-1.31513E+05-3.74894E-09 2.89492E-09
 -1       624 1.01755E+04 8.41710E+05 3.45024E+04-1.54962E+05-6.97219E-09 3.88354E-10
 -1       625 2.99220E+04 8.29704E+05 6.49435E+04-1.31801E+05-3.58341E-09 3.71074E-10
 -1       626 3.57516E+05 9.89054E+04-1.84929E+04 2.10757E+05-3.69437E-09-8.20364E-10
 -1       627 3.45364E+05 1.12382E+05-9.09481E+03 2.18266E+05 1.46902E-08 6.21799E-09
 -1       628 3.57107E+05 1.05146E+05-3.87109E+03 2.07184E+05 2.09002E-08 7.68341E-09
 -1       629 3.46765E+05 1.15303E+05-1.87583E+03 2.18297E+05 1.54541E-08-2.82262E-09
 -1       630 3.56908E+05 1.05423E+05-8.46528E+02 2.06931E+05-3.76531E-09-2.98053E-09
 -1       631 3.46745E+05 1.15479E+05-3.72762E+02 2.18249E+05-1.83882E-08 2.36670E-09
 -1       632 3.56793E+05 1.05458E+05-9.87048E+01 2.06869E+05-1.34551E-08-4.04680E-09
 -1       633 3.46687E+05 1.15509E+05 1.16737E+02 2.18202E+05 4.89854E-09 5.36340E-09
 -1       634 3.56725E+05 1.05464E+05 3.87622E+02 2.06840E+05 1.36088E-08 4.67253E-09
 -1       635 3.46697E+05 1.15513E+05 9.07884E+02 2.18197E+05 2.02072E-08 5.06179E-09
 -1       636 3.56677E+05 1.05432E+05 1.89133E+03 2.06837E+05 7.61736E-09 4.16003E-09
 -1       637 3.47053E+05 1.15704E+05 4.15937E+03 2.18238E+05-9.37234E-09-3.81624E-09
 -1       638 3.56510E+05 1.05914E+05 8.51063E+03 2.06578E+05 2.46246E-09 7.29415E-10
 -1       639 3.51612E+05 1.20983E+05 2.00661E+04 2.17526E+05-1.18434E-08-4.05635E-10
 -1       640 3.55200E+05 1.20399E+05 4.07435E+04 1.99980E+05-7.47787E-09 1.04683E-09
 -1       641 1.37369E+04 2.09560E+03-1.03342E+04 3.60530E+03-1.33166E-08-5.75255E-09
 -1       642 1.00598E+04-2.93437E+03-6.52304E+03 1.16049E+04-1.34885E-08-9.84528E-10
 -1       643 1.22033E+04 2.26309E+02-2.66661E+03 3.57407E+03-1.58166E-08-4.90672E-09
 -1       644 1.17415E+04-1.88034E+02-1.45964E+03 1.16356E+04 4.83453E-10-1.36066E-09
 -1       645 1.20365E+04 4.81708E+01-6.50179E+02 3.57210E+03-2.76066E-09-1.27642E-09
 -1       646 1.19212E+04 6.65665E+01-3.04208E+02 1.16370E+04-1.99276E-08 2.28738E-10
 -1       647 1.20132E+04 3.00415E+01-7.49260E+01 3.57236E+03 1.43329E-08-3.41393E-09
 -1       648 1.19529E+04 9.43037E+01 1.05437E+02 1.16369E+04 3.40424E-08-3.49496E-09
 -1       649 1.20029E+04 2.24613E+01 3.31602E+02 3.57217E+03 1.90659E-08-2.37054E-09
 -1       650 1.20146E+04 1.45015E+02 7.60543E+02 1.16369E+04 1.21292E-08 5.30918E-11
 -1       651 1.19577E+04-2.15588E+01 1.48429E+03 3.57228E+03-7.82677E-09-4.98483E-09
 -1       652 1.24361E+04 6.99436E+02 3.26515E+03 1.16349E+04 3.99268E-09-3.28151E-09
 -1       653 1.15960E+04-4.27783E+02 5.92997E+03 3.57375E+03 5.40240E-09-2.61934E-10
 -1       654 1.62169E+04 6.78472E+03 1.45008E+04 1.15882E+04-1.51904E-08-1.16052E-09
 -1       655 8.20031E+03-4.59768E+03 2.29538E+04 3.61409E+03 1.29589E-08-1.48793E-09
 -1       656 1.26006E+04-5.55861E+05-6.64525E+04 3.39540E+04 2.30502E-08-3.65253E-09
 -1       657-2.06916E+04-5.78952E+05-4.76579E+04 1.07138E+05 2.22260E-08-2.28283E-09
 -1       658 2.17968E+03-5.64485E+05-3.05530E+04 3.36723E+04 2.59523E-08 4.37149E-09
 -1       659-1.86755E+04-5.77952E+05-4.40369E+04 1.07335E+05 3.14026E-08-1.41615E-09
 -1       660 1.12730E+04-5.57158E+05-5.94534E+04 3.37629E+04 2.83580E-08 4.20641E-10
 -1       661 5.10449E+05 6.74100E+04 4.09774E+04 2.00332E+05 1.32281E-08-1.91176E-09
 -1       662 5.21351E+05 9.52169E+04 2.55173E+04 2.04242E+05 8.84617E-09-3.17732E-09
 -1       663 5.17290E+05 7.58864E+04 9.66758E+03 1.99623E+05-8.64512E-09-6.08361E-09
 -1       664 5.13463E+05 8.37265E+04 5.25323E+03 2.05793E+05-3.19865E-08-3.70130E-09
 -1       665 5.18024E+05 7.67619E+04 2.26538E+03 1.99588E+05-2.46238E-08-2.34627E-09
 -1       666 5.12614E+05 8.25864E+04 1.22189E+03 2.05892E+05-1.35933E-08 5.76115E-10
 -1       667 5.18110E+05 7.68534E+04 6.91986E+02 1.99589E+05 2.49867E-09 3.54606E-09
 -1       668 5.12527E+05 8.25010E+04 6.54602E+02 2.05908E+05 9.14474E-09-6.18979E-09
 -1       669 5.18113E+05 7.68352E+04 9.29669E+02 1.99578E+05 1.76794E-08 2.78612E-09
 -1       670 5.12655E+05 8.27006E+04 1.87625E+03 2.05943E+05 2.11219E-08-1.55018E-09
 -1       671 5.17993E+05 7.66640E+04 3.60043E+03 1.99554E+05 5.99300E-09-1.59571E-09
 -1       672 5.13998E+05 8.45677E+04 8.42946E+03 2.05828E+05 6.30735E-09-2.40630E-09
 -1       673 5.16823E+05 7.52403E+04 1.55365E+04 1.99596E+05-1.03011E-08-6.12454E-09
 -1       674 5.26672E+05 1.03069E+05 4.10369E+04 2.03359E+05 8.36002E-09-1.58889E-09
 -1       675 5.05828E+05 6.16012E+04 6.59047E+04 2.00729E+05 7.65976E-09 1.26238E-09
 -1       676 4.76233E+03-4.89720E+05-2.51406E+04 7.55029E+03-1.98388E-08-2.40539E-09
 -1       677-7.85376E+03-4.98568E+05-1.89991E+04 2.10046E+04 1.87447E-09 4.44152E-09
 -1       678 1.01763E+03-4.92736E+05-1.37999E+04 7.47628E+03-1.14129E-08 5.24642E-09
 -1       679-9.68231E+03-4.99720E+05-2.24218E+04 2.10820E+04 5.11295E-09 3.50781E-10
 -1       680 6.14969E+03-4.88594E+05-3.16977E+04 7.47224E+03-5.21140E-09-1.46073E-09
 -1       681 5.05921E+05-5.79008E+03 2.83298E+04-9.49168E+03 1.96451E-10-1.71713E-09
 -1       682 5.15985E+05 8.20656E+03 1.79296E+04-3.17313E+04-1.70985E-10-1.92358E-10
 -1       683 5.10092E+05-6.00701E+02 7.33372E+03-9.51029E+03-2.44654E-10-6.10271E-10
 -1       684 5.11216E+05 7.27168E+02 4.07976E+03-3.16277E+04-1.95541E-11-5.39330E-10
 -1       685 5.10518E+05-7.45356E+01 1.91253E+03-9.59275E+03 1.45519E-11-7.17364E-11
 -1       686 5.10638E+05 7.04313E+01 1.11189E+03-3.14965E+04-1.79625E-10 3.15140E-10
 -1       687 5.10557E+05-8.69662E+00 7.44117E+02-9.64164E+03 8.70841E-11 5.11363E-10
 -1       688 5.10565E+05 3.60680E+01 8.19974E+02-3.14344E+04-7.54881E-11 9.38826E-10
 -1       689 5.10540E+05-1.33120E+01 1.25205E+03-9.65482E+03-1.25993E-10 6.63022E-10
 -1       690 5.10723E+05 1.81500E+02 2.43726E+03-3.14459E+04 2.50111E-10 3.68097E-11
 -1       691 5.10408E+05-1.46747E+02 4.57537E+03-9.63016E+03-1.22554E-10-8.47422E-10
 -1       692 5.12016E+05 1.85819E+03 9.96095E+03-3.15256E+04 2.21917E-10-1.00226E-09
 -1       693 5.09315E+05-1.38953E+03 1.80452E+04-9.57496E+03-2.37378E-10 1.03682E-10
 -1       694 5.23547E+05 2.03379E+04 4.40951E+04-3.15924E+04-3.74484E-10 8.82210E-10
 -1       695 4.99003E+05-1.40768E+04 6.97876E+04-9.56779E+03-5.54792E-10 1.23691E-10
 -1       696-6.21492E+03 5.37007E+05 3.06606E+04-1.89031E+04 8.91305E-11-6.24368E-10
 -1       697 9.00010E+03 5.47539E+05 1.80654E+04-5.99541E+04 1.88720E-10-5.88955E-10
 -1       698-3.13367E+02 5.41834E+05 4.85548E+03-1.88670E+04-2.13277E-10 1.50465E-09
 -1       699-2.55949E+03 5.40426E+05-3.49297E+03-5.99738E+04-2.50338E-10 2.09207E-09
 -1       700 2.42138E+03 5.44179E+05-1.06931E+04-1.88868E+04-1.71894E-10 1.68575E-09
 -1       701-4.67662E+05-5.64566E+04-6.56664E+04-1.86610E+05-1.59616E-10 1.38971E-09
 -1       702-4.85467E+05-1.00643E+05-4.08840E+04-1.92542E+05 1.97133E-10 1.23691E-10
 -1       703-4.78766E+05-6.99021E+04-1.54880E+04-1.85328E+05-6.48015E-11-2.18279E-10
 -1       704-4.72662E+05-8.24128E+04-8.39607E+03-1.95303E+05-1.70985E-10 1.10003E-09
 -1       705-4.80034E+05-7.12106E+04-3.60408E+03-1.85185E+05-8.02629E-11 2.75804E-10
 -1       706-4.71211E+05-8.06981E+04-1.89436E+03-1.95627E+05-3.39696E-10 5.55247E-10
 -1       707-4.80221E+05-7.13062E+04-9.88195E+02-1.85142E+05 3.84034E-10-8.34461E-11
 -1       708-4.71025E+05-8.05924E+04-7.83730E+02-1.95717E+05 1.95087E-10-4.53973E-10
 -1       709-4.80245E+05-7.12823E+04-9.59009E+02-1.85121E+05-2.13731E-11-3.28271E-11
 -1       710-4.71150E+05-8.07650E+04-1.82055E+03-1.95739E+05 1.80023E-10 5.68775E-10
 -1       711-4.80109E+05-7.11430E+04-3.44449E+03-1.85121E+05-3.96412E-11-3.53566E-10
 -1       712-4.72487E+05-8.24764E+04-8.03360E+03-1.95535E+05 2.29363E-11-6.20275E-10
 -1       713-4.78940E+05-6.98464E+04-1.48033E+04-1.85218E+05-6.08793E-11 2.63753E-10
 -1       714-4.84661E+05-1.00003E+05-3.91017E+04-1.93019E+05-1.47793E-10-6.18456E-11
 -1       715-4.68379E+05-5.69230E+04-6.27850E+04-1.86385E+05 1.62800E-10 3.27418E-10
 -1       716 3.85792E+05-1.20897E+04 5.91008E+04-1.96712E+04 2.78305E-10 5.45697E-11
 -1       717 4.06798E+05 1.72338E+04 3.74112E+04-6.39140E+04-1.81899E-10 1.50794E-09
 -1       718 3.94458E+05-1.21569E+03 1.52923E+04-1.96330E+04-4.01087E-10 3.83807E-10
 -1       719 3.96742E+05 1.66347E+03 8.49376E+03-6.38649E+04-6.43922E-10 1.88447E-09
 -1       720 3.95333E+05-9.85246E+01 3.95659E+03-1.97161E+04 1.30967E-09 1.32786E-09
 -1       721 3.95513E+05 3.00445E+02 2.23793E+03-6.37488E+04 1.72304E-09 1.81399E-09
 -1       722 3.95422E+05 3.44128E+01 1.39301E+03-1.97493E+04 1.47881E-09 1.50953E-09
 -1       723 3.95403E+05 1.95529E+02 1.37430E+03-6.37398E+04 1.15142E-09 2.26851E-09
 -1       724 3.95425E+05 3.09660E+00 1.94464E+03-1.97252E+04 6.71662E-10 1.94666E-09
 -1       725 3.95777E+05 3.49708E+02 3.70341E+03-6.38477E+04 2.06637E-09 2.23326E-09
 -1       726 3.95276E+05-2.57311E+02 6.86807E+03-1.96414E+04 7.98536E-10 1.70280E-09
 -1       727 3.97971E+05 2.76477E+03 1.49895E+04-6.40621E+04 2.01908E-09-4.91355E-10
 -1       728 3.93710E+05-2.22016E+03 2.70662E+04-1.95101E+04 6.67569E-10-8.25821E-10
 -1       729 4.15676E+05 3.04115E+04 6.62972E+04-6.41703E+04-8.51287E-10-1.30512E-09
 -1       730 3.78311E+05-2.14330E+04 1.04789E+05-1.95475E+04 1.00044E-10-3.04135E-09
 -1       731-8.25497E+03 1.94384E+05 4.13926E+04-4.02755E+04 9.07676E-10-7.32143E-10
 -1       732 1.25211E+04 2.08677E+05 2.64181E+04-1.31173E+05 1.41154E-09-6.23572E-10
 -1       733-7.46557E+02 2.00412E+05 1.12602E+04-4.01682E+04 9.61563E-10 2.32467E-09
 -1       734 2.26826E+03 2.02524E+05 7.38920E+03-1.31160E+05 1.04819E-09 2.10275E-09
 -1       735-7.09869E+02 2.00768E+05 4.85094E+03-4.02909E+04 4.72255E-10 9.32232E-10
 -1       736-1.15026E+06-1.47199E+05-9.49590E+04-4.46197E+05 4.83851E-10 4.91127E-10
 -1       737-1.17825E+06-2.08874E+05-5.91282E+04-4.52193E+05-1.34264E-10-2.04273E-09
 -1       738-1.16638E+06-1.66585E+05-2.23846E+04-4.44244E+05 2.78192E-10 1.37697E-09
 -1       739-1.15958E+06-1.82634E+05-1.21353E+04-4.56343E+05 7.43512E-11 1.18780E-09
 -1       740-1.16827E+06-1.68416E+05-5.19804E+03-4.43960E+05-1.72804E-10 2.36923E-10
 -1       741-1.15737E+06-1.80250E+05-2.72224E+03-4.56918E+05-8.82778E-10-1.29978E-09
 -1       742-1.16858E+06-1.68525E+05-1.39450E+03-4.43859E+05 3.88809E-10 2.98598E-10
 -1       743-1.15705E+06-1.80132E+05-1.06348E+03-4.57086E+05 7.78755E-10-3.85953E-10
 -1       744-1.16862E+06-1.68491E+05-1.24610E+03-4.43822E+05 4.04782E-10 1.41597E-10
 -1       745-1.15721E+06-1.80332E+05-2.32103E+03-4.57088E+05-8.37019E-11 1.99742E-09
 -1       746-1.16842E+06-1.68344E+05-4.37016E+03-4.43851E+05 9.95328E-11 1.69734E-09
 -1       747-1.15899E+06-1.82419E+05-1.01808E+04-4.56722E+05 1.65301E-09 8.97899E-10
 -1       748-1.16687E+06-1.66765E+05-1.87583E+04-4.44044E+05 5.15399E-10 1.17416E-09
 -1       749-1.17457E+06-2.04487E+05-4.95586E+04-4.53338E+05-2.20496E-10 1.02682E-09
 -1       750-1.15340E+06-1.50481E+05-7.95806E+04-4.45643E+05 9.15861E-10 1.01863E-09
 -1       751 1.75094E+06-4.69758E+04 2.33392E+05-1.36372E+04-8.14907E-10-1.04774E-09
 -1       752 1.83301E+06 6.78709E+04 1.47406E+05-4.94087E+04-3.18641E-09-3.29965E-09
 -1       753 1.78542E+06-4.66239E+03 6.03753E+04-1.41339E+04-2.76486E-10-7.82165E-10
 -1       754 1.79452E+06 6.15425E+03 3.33683E+04-4.84199E+04 2.16005E-10 2.37378E-09
 -1       755 1.78908E+06-5.17016E+02 1.54019E+04-1.45919E+04 1.22782E-10 7.15772E-10
 -1       756 1.79019E+06 5.67667E+02 8.35746E+03-4.76914E+04-4.66116E-10-1.81626E-09
 -1       757 1.78952E+06-6.31120E+01 4.58023E+03-1.48631E+04-5.42968E-10 9.67248E-10
 -1       758 1.78964E+06 1.26312E+02 3.55081E+03-4.73463E+04-2.81943E-10 1.58411E-09
 -1       759 1.78952E+06-4.34006E+01 4.06842E+03-1.49375E+04 2.29818E-10 4.18908E-10
 -1       760 1.79001E+06 4.97057E+02 7.00762E+03-4.73911E+04-7.30779E-10 3.39469E-09
 -1       761 1.78916E+06-3.98311E+02 1.27090E+04-1.48182E+04-3.45608E-10 8.81300E-10
 -1       762 1.79350E+06 5.09276E+03 2.73864E+04-4.78194E+04-1.03682E-10 1.51977E-09
 -1       763 1.78615E+06-3.78472E+03 4.95129E+04-1.45084E+04 4.01087E-10 2.54659E-11
 -1       764 1.82501E+06 5.56869E+04 1.20820E+05-4.85181E+04 1.20053E-10-9.09495E-10
 -1       765 1.75787E+06-3.84596E+04 1.91276E+05-1.41372E+04-2.07820E-09 2.40107E-10
 -1       766-2.29671E+04 4.72737E+05 1.17886E+05-1.50749E+04 7.27596E-10-2.98314E-09
 -1       767 3.55994E+04 5.14502E+05 8.29927E+04-4.76061E+04 2.63753E-09-8.82210E-10
 -1       768-3.88454E+03 4.88267E+05 5.04218E+04-1.50116E+04 2.17597E-10 1.12414E-09
 -1       769 2.76988E+04 5.09880E+05 6.83943E+04-4.76862E+04 1.64437E-09 1.12050E-09
 -1       770-1.72461E+04 4.77676E+05 8.98066E+04-1.50105E+04-2.21917E-10 1.43064E-09
 -1       771-1.66787E+06-3.40058E+05-1.20005E+05-6.87123E+05-1.80762E-09 1.54978E-09
 -1       772-1.67569E+06-3.23220E+05-5.90745E+04-7.18023E+05 3.49246E-10 1.77442E-09
 -1       773-1.67204E+06-2.97346E+05-2.50857E+04-7.06884E+05 8.14907E-10 9.36780E-10
 -1       774-1.66281E+06-3.07427E+05-1.22635E+04-7.20365E+05 1.98816E-09-2.59706E-09
 -1       775-1.67286E+06-2.95710E+05-5.65705E+03-7.07809E+05 1.02955E-09-1.96360E-09
 -1       776-1.66199E+06-3.06799E+05-2.84958E+03-7.20491E+05 3.27418E-11-5.80144E-10
 -1       777-1.67315E+06-2.95689E+05-1.53455E+03-7.07886E+05 1.76442E-10-6.89852E-10
 -1       778-1.66201E+06-3.06780E+05-1.17501E+03-7.20603E+05 6.63931E-11 2.68324E-09
 -1       779-1.67328E+06-2.95617E+05-1.44177E+03-7.07936E+05-1.27329E-10 1.30467E-09
 -1       780-1.66216E+06-3.06760E+05-2.61747E+03-7.20731E+05-5.72982E-11 1.43882E-09
 -1       781-1.67324E+06-2.95495E+05-5.15247E+03-7.07956E+05-2.13731E-10 2.35559E-10
 -1       782-1.66306E+06-3.07321E+05-1.11858E+04-7.20866E+05-1.02045E-09-1.75169E-09
 -1       783-1.67272E+06-2.96830E+05-2.28551E+04-7.07176E+05 4.74529E-10 7.60338E-10
 -1       784-1.67473E+06-3.21965E+05-5.38909E+04-7.19226E+05-2.52328E-10-6.82121E-11
 -1       785-1.66924E+06-3.35555E+05-1.09436E+05-6.89041E+05-7.11225E-10-1.59707E-09
 -1       786 1.03585E+06-2.48872E+04 1.23743E+05-8.29010E+03 7.88532E-10-3.20142E-09
 -1       787 1.07928E+06 3.60441E+04 7.81605E+04-2.89372E+04-1.25692E-09-2.91766E-09
 -1       788 1.05415E+06-2.44897E+03 3.20088E+04-8.40225E+03-4.39741E-10 5.67525E-10
 -1       789 1.05893E+06 3.27394E+03 1.76733E+04-2.86887E+04-5.11363E-10 6.65295E-10
 -1       790 1.05611E+06-2.65725E+02 8.14261E+03-8.52763E+03 5.30918E-10 2.81170E-09
 -1       791 1.05668E+06 2.88490E+02 4.37742E+03-2.85054E+04 3.48678E-10 2.99826E-09
 -1       792 1.05634E+06-3.60952E+01 2.33006E+03-8.58558E+03 8.06040E-11 3.74109E-09
 -1       793 1.05641E+06 3.62142E+01 1.68002E+03-2.84593E+04 7.91971E-11-8.15760E-10
 -1       794 1.05636E+06-2.78970E+01 1.76341E+03-8.57386E+03-3.07296E-10 1.67205E-10
 -1       795 1.05656E+06 1.73047E+02 2.89605E+03-2.85538E+04 5.80712E-10-1.63828E-09
 -1       796 1.05622E+06-1.75973E+02 5.17022E+03-8.49100E+03-1.46247E-09-3.62570E-09
 -1       797 1.05800E+06 2.02857E+03 1.11026E+04-2.87834E+04-9.20181E-10 1.68939E-10
 -1       798 1.05501E+06-1.55326E+03 2.00478E+04-8.34422E+03-1.31331E-09-3.34694E-10
 -1       799 1.07078E+06 2.25258E+04 4.89366E+04-2.90682E+04-4.04134E-09-1.99134E-09
 -1       800 1.04356E+06-1.56187E+04 7.74349E+04-8.21405E+03 1.40062E-10-6.00267E-10
 -1       801-1.33667E+04 3.86526E+05 6.72672E+04-2.14532E+05 6.65386E-09 1.49885E-09
 -1       802 2.81273E+04 4.07077E+05 5.54592E+04-6.97942E+05-2.77396E-09-9.34051E-10
 -1       803-1.16357E+03 3.92066E+05 4.54390E+04-2.14037E+05 1.18271E-08 4.32237E-09
 -1       804 4.13034E+04 4.17230E+05 8.11978E+04-6.97935E+05-4.42742E-09-2.66846E-09
 -1       805-2.47244E+04 3.78755E+05 1.16183E+05-2.14557E+05 7.90533E-09 2.01544E-09
 -1       806-9.35738E+05-2.22066E+05-8.25612E+04-4.17381E+05 1.32127E-09-6.76664E-10
 -1       807-9.37665E+05-2.14037E+05-4.06517E+04-4.42734E+05 1.53523E-09-2.63663E-09
 -1       808-9.38555E+05-1.92708E+05-1.72522E+04-4.31003E+05-1.63891E-09 1.41972E-09
 -1       809-9.28811E+05-2.03106E+05-8.44244E+03-4.44205E+05-1.17507E-09 2.40806E-09
 -1       810-9.39035E+05-1.91645E+05-3.89323E+03-4.31622E+05 5.66615E-10 1.31877E-11
 -1       811-9.28194E+05-2.02675E+05-1.98054E+03-4.44187E+05-1.28443E-09-2.30557E-10
 -1       812-9.39133E+05-1.91690E+05-1.09583E+03-4.31636E+05 5.82986E-10 4.43833E-10
 -1       813-9.28127E+05-2.02681E+05-9.09022E+02-4.44157E+05 5.34101E-10 1.51567E-09
 -1       814-9.39097E+05-1.91705E+05-1.19935E+03-4.31620E+05 3.23780E-10-1.20963E-10
 -1       815-9.28150E+05-2.02694E+05-2.25139E+03-4.44134E+05 3.07637E-09-3.33239E-09
 -1       816-9.38917E+05-1.91685E+05-4.47122E+03-4.31572E+05-5.11136E-10-4.72937E-11
 -1       817-9.28815E+05-2.03202E+05-9.71415E+03-4.44098E+05-3.92902E-10-4.72937E-10
 -1       818-9.38311E+05-1.92947E+05-1.98619E+04-4.30839E+05 7.00311E-10 1.03682E-10
 -1       819-9.39003E+05-2.15745E+05-4.67885E+04-4.42308E+05-8.11269E-10 9.53150E-10
 -1       820-9.35002E+05-2.26765E+05-9.50265E+04-4.15168E+05-5.42968E-09 7.20320E-10
 -1       821-6.73244E+05 1.66937E+04-8.32122E+04 6.03011E+03-8.76571E-09 2.72121E-09
 -1       822-7.02343E+05-2.42459E+04-5.25543E+04 2.23958E+04-4.45834E-09-3.75712E-09
 -1       823-6.85585E+05 1.62170E+03-2.15339E+04 5.76878E+03 7.89987E-09-6.49197E-09
 -1       824-6.88792E+05-2.12516E+03-1.18768E+04 2.27842E+04-1.07343E-09-3.99450E-09
 -1       825-6.86922E+05 1.87562E+02-5.49249E+03 5.63411E+03-1.34614E-08-3.01088E-09
 -1       826-6.87378E+05-7.01977E+01-2.96630E+03 2.30072E+04-2.64868E-08-6.40284E-10
 -1       827-6.87099E+05 5.62618E+01-1.62745E+03 5.54403E+03-1.64050E-08-4.65559E-09
 -1       828-6.87255E+05 1.20374E+02-1.25228E+03 2.31470E+04-1.75069E-08-6.14074E-09
 -1       829-6.87112E+05 6.24562E+01-1.43214E+03 5.49362E+03-3.60569E-09-2.65624E-09
 -1       830-6.87400E+05-3.75593E+00-2.46472E+03 2.32053E+04 7.76504E-09-6.13637E-09
 -1       831-6.86983E+05 1.83671E+02-4.47454E+03 5.48553E+03-1.33261E-08-3.20460E-09
 -1       832-6.88594E+05-1.64828E+03-9.64763E+03 2.31794E+04 2.02391E-09-4.56657E-09
 -1       833-6.85909E+05 1.36023E+03-1.74572E+04 5.52065E+03-5.74346E-10-4.17913E-09
 -1       834-6.99626E+05-1.95727E+04-4.26260E+04 2.30361E+04-2.00816E-09-7.46786E-09
 -1       835-6.75911E+05 1.35958E+04-6.74688E+04 5.64118E+03 5.21732E-09-7.22503E-09
 -1       836-2.63707E+04 1.60615E+06 1.37833E+05-8.63578E+04-9.16771E-10 1.96451E-09
 -1       837 4.39128E+04 1.65434E+06 1.04073E+05-2.72420E+05-1.32782E-08 3.66163E-09
 -1       838-5.18074E+03 1.62237E+06 7.50883E+04-8.65870E+04-8.35826E-10 1.85173E-09
 -1       839 5.31466E+04 1.65981E+06 1.21187E+05-2.72302E+05-1.45010E-08 3.63798E-12
 -1       840-3.31031E+04 1.60038E+06 1.70748E+05-8.64689E+04-5.45697E-10 3.94721E-10
 -1       841-1.88984E+05-1.41181E+04-3.78507E+04-6.78515E+04-3.51247E-09 8.42192E-10
 -1       842-2.16335E+05-2.23691E+04-2.35441E+04-5.17288E+04 5.21914E-09-1.48589E-09
 -1       843-1.95212E+05-2.20242E+04-8.93008E+03-6.73368E+04 3.05045E-09 2.64731E-09
 -1       844-2.09274E+05-1.16027E+04-4.82378E+03-5.30619E+04-1.12482E-09 3.41601E-10
 -1       845-1.95880E+05-2.28341E+04-2.05821E+03-6.73452E+04-4.99540E-09-8.03482E-11
 -1       846-2.08593E+05-1.04880E+04-1.03961E+03-5.31400E+04-1.75635E-08-3.96170E-09
 -1       847-1.95952E+05-2.29264E+04-4.65616E+02-6.73786E+04-1.17832E-08-1.46798E-09
 -1       848-2.08562E+05-1.03415E+04-2.21829E+02-5.31269E+04-7.67102E-09-1.90993E-09
 -1       849-1.95959E+05-2.29413E+04-8.86832E+01-6.73969E+04 7.96194E-09-4.67469E-09
 -1       850-2.08565E+05-1.03133E+04-1.32614E+01-5.31203E+04 2.25557E-08-4.72653E-10
 -1       851-1.95965E+05-2.29452E+04 5.01022E+01-6.73967E+04 8.74746E-09-1.02017E-08
 -1       852-2.08506E+05-1.02915E+04 1.63884E+02-5.31315E+04 8.56971E-09-7.13226E-09
 -1       853-1.96000E+05-2.29682E+04 3.11893E+02-6.73755E+04-2.57842E-10-7.31143E-09
 -1       854-2.08125E+05-9.99565E+03 8.48467E+02-5.32504E+04-4.43106E-09 3.34694E-10
 -1       855-1.96285E+05-2.32007E+04 1.34870E+03-6.72687E+04 2.06091E-09 3.14628E-09
 -1       856-4.95928E+05 1.01708E+04-5.06500E+04 7.43322E+03-1.75869E-08-5.04406E-09
 -1       857-5.13693E+05-1.46249E+04-3.19766E+04 2.77076E+04-1.38334E-08-6.42467E-09
 -1       858-5.03448E+05 1.01986E+03-1.31053E+04 7.23039E+03-1.35210E-08-7.55608E-09
 -1       859-5.05494E+05-1.14852E+03-7.22202E+03 2.79874E+04 1.78488E-10-9.81390E-09
 -1       860-5.04271E+05 1.57500E+02-3.33227E+03 7.14373E+03 7.75799E-10-8.77162E-09
 -1       861-5.04655E+05 1.11330E+02-1.78520E+03 2.81157E+04-9.41327E-09-5.06736E-09
 -1       862-5.04381E+05 8.06763E+01-9.49974E+02 7.10026E+03 1.30040E-08-6.86555E-09
 -1       863-5.04576E+05 2.28884E+02-6.82418E+02 2.81666E+04 3.98683E-08-7.51680E-09
 -1       864-5.04389E+05 7.90630E+01-7.16194E+02 7.09237E+03 2.26850E-08-6.56900E-09
 -1       865-5.04620E+05 1.64365E+02-1.17559E+03 2.81456E+04 2.70566E-08-9.24733E-09
 -1       866-5.04322E+05 1.25658E+02-2.10675E+03 7.12146E+03 5.76028E-09-4.89348E-09
 -1       867-5.05132E+05-6.23810E+02-4.51547E+03 2.80493E+04-1.52454E-09-6.99475E-09
 -1       868-5.03807E+05 6.58154E+02-8.17513E+03 7.18986E+03 6.87123E-09-8.55653E-09
 -1       869-5.10217E+05-9.03040E+03-1.99287E+04 2.78069E+04-7.44558E-09-7.69523E-09
 -1       870-4.99115E+05 6.35062E+03-3.15706E+04 7.37083E+03 2.20771E-08-4.96220E-09
 -1       871-4.75919E+03-3.66148E+04-7.77883E+03 1.45158E+05-5.22050E-10-7.66704E-10
 -1       872-2.01513E+03-3.79702E+04-2.13603E+03 1.71148E+05-1.35205E-08 2.25009E-09
 -1       873-4.92229E+02-3.75972E+04 2.63138E+03 1.44906E+05 2.09457E-09 5.97311E-10
 -1       874 2.16535E+03-3.54512E+04 9.33826E+03 1.71233E+05-1.99216E-08 6.41194E-10
 -1       875 8.64131E+03-3.92661E+04 1.99560E+04 1.45121E+05-4.99222E-09-3.55021E-09
 -1       876 5.78134E+05 7.61976E+04 5.50290E+04 2.29842E+05 8.29641E-09 1.30967E-10
 -1       877 5.89563E+05 1.16849E+05 3.42774E+04 2.38830E+05 2.73337E-09-1.42018E-09
 -1       878 5.87284E+05 8.76285E+04 1.29757E+04 2.28916E+05-1.29114E-08-3.36149E-09
 -1       879 5.79003E+05 1.01347E+05 7.05144E+03 2.40804E+05-3.62618E-08-3.67982E-09
 -1       880 5.88220E+05 8.88578E+04 3.02595E+03 2.28912E+05-1.78861E-08-3.21143E-09
 -1       881 5.77913E+05 9.97437E+04 1.61226E+03 2.40829E+05-2.25655E-08-1.57426E-08
 -1       882 5.88297E+05 8.90241E+04 8.67960E+02 2.28950E+05-1.84048E-09 1.11265E-09
 -1       883 5.77831E+05 9.95662E+04 7.45802E+02 2.40769E+05 1.49334E-08 6.73576E-09
 -1       884 5.88280E+05 8.90348E+04 9.80083E+02 2.28961E+05 1.76012E-08 2.69620E-09
 -1       885 5.77981E+05 9.97360E+04 1.91762E+03 2.40768E+05 1.52902E-08-7.62554E-10
 -1       886 5.88150E+05 8.88695E+04 3.65314E+03 2.28946E+05 1.45142E-08-3.20051E-09
 -1       887 5.79350E+05 1.01620E+05 8.53505E+03 2.40652E+05 8.92010E-09-3.85444E-09
 -1       888 5.86974E+05 8.74201E+04 1.57234E+04 2.28985E+05-1.20214E-08-9.54969E-11
 -1       889 5.92181E+05 1.20351E+05 4.15284E+04 2.38179E+05 1.04674E-08 6.41012E-09
 -1       890 5.75859E+05 7.36028E+04 6.66852E+04 2.30127E+05 1.68602E-08-4.00178E-11
 -1       891 1.66245E+03-2.61480E+05-1.01363E+04 3.54787E+04-1.09785E-08 6.36646E-11
 -1       892-3.71132E+03-2.64682E+05-8.01716E+03 1.14485E+05 2.75350E-09 1.84650E-09
 -1       893 3.31545E+02-2.62652E+05-6.46001E+03 3.53328E+04-7.09952E-09 1.41318E-09
 -1       894-5.52166E+03-2.65748E+05-1.13644E+04 1.14457E+05 1.14887E-08 1.12141E-09
 -1       895 2.97974E+03-2.60349E+05-1.65674E+04 3.55051E+04-1.07002E-08 2.35559E-10
 -1       896 8.13382E+05-2.65240E+03 1.29273E+04-6.24523E+03-8.73115E-11-1.77351E-10
 -1       897 8.17946E+05 3.73401E+03 8.18779E+03-2.15919E+04-7.27596E-11 2.01453E-10
 -1       898 8.15285E+05-2.81094E+02 3.35224E+03-6.31902E+03-1.17780E-10-1.28466E-10
 -1       899 8.15760E+05 3.23922E+02 1.87700E+03-2.14097E+04 2.15550E-10 1.01181E-10
 -1       900 8.15478E+05-3.87704E+01 8.99501E+02-6.42656E+03-1.09594E-10 2.37605E-11
 -1       901 8.15491E+05 2.78986E+01 5.64890E+02-2.12326E+04 3.13776E-11-1.46883E-10
 -1       902 8.15492E+05-7.36019E+00 4.51011E+02-6.49613E+03 2.80352E-10 7.26459E-11
 -1       903 8.15461E+05 2.06917E+01 6.05027E+02-2.11322E+04 2.05034E-10 1.33412E-10
 -1       904 8.15473E+05-1.31022E+01 1.02160E+03-6.52701E+03-7.92966E-11-1.47331E-10
 -1       905 8.15590E+05 1.51065E+02 2.05418E+03-2.11107E+04 8.71978E-11-4.45766E-10
 -1       906 8.15355E+05-1.21515E+02 3.89091E+03-6.51757E+03 1.02318E-10 2.70575E-11
 -1       907 8.16665E+05 1.59101E+03 8.48438E+03-2.11656E+04-1.46315E-10-1.99861E-10
 -1       908 8.14414E+05-1.16953E+03 1.53846E+04-6.47198E+03 8.68567E-11-1.78261E-10
 -1       909 8.26446E+05 1.73538E+04 3.75789E+04-2.12480E+04 2.14868E-10-3.13321E-10
 -1       910 8.05608E+05-1.19619E+04 5.94888E+04-6.43703E+03-8.91305E-11-1.85537E-10
 -1       911 2.30878E+05-1.18976E+03 5.70253E+03-7.42255E+03 1.42791E-10 1.78488E-10
 -1       912 2.32925E+05 1.65788E+03 3.62270E+03-2.40751E+04-1.49157E-10-1.90994E-11
 -1       913 2.31708E+05-1.27049E+02 1.48492E+03-7.38326E+03-2.00089E-10 9.35643E-11
 -1       914 2.31924E+05 1.63776E+02 8.47113E+02-2.40902E+04-4.37240E-10-1.74850E-10
 -1       915 2.31786E+05-1.13991E+01 4.30653E+02-7.40722E+03 6.60066E-10-1.56319E-10
 -1       916 2.31787E+05 4.19117E+01 3.20154E+02-2.40514E+04 8.25366E-10-8.83119E-10
 -1       917 2.31787E+05 5.34515E+00 3.37773E+02-7.42205E+03 7.82848E-10-1.42677E-10
 -1       918 2.31782E+05 4.74111E+01 5.51857E+02-2.40348E+04 5.99684E-10-5.38591E-10
 -1       919 2.31768E+05-5.32079E+00 1.00627E+03-7.42384E+03 4.92321E-10-1.55637E-10
 -1       920 2.31929E+05 1.75679E+02 2.06914E+03-2.40439E+04 1.19394E-09-6.44469E-10
 -1       921 2.31652E+05-1.20546E+02 3.93895E+03-7.41285E+03 4.42924E-10 1.18575E-10
 -1       922 2.33041E+05 1.63088E+03 8.60786E+03-2.40750E+04 1.19667E-09 3.85057E-10
 -1       923 2.30703E+05-1.19197E+03 1.56094E+04-7.39254E+03 5.22959E-11-2.63753E-11
 -1       924 2.43000E+05 1.76321E+04 3.81526E+04-2.40564E+04 8.41283E-12-7.69887E-10
 -1       925 2.21776E+05-1.21647E+04 6.03917E+04-7.43282E+03 1.02773E-10 4.80213E-10
 -1       926-1.03273E+06 1.14799E+04-5.70353E+04-9.67113E+02 4.24109E-10 2.00089E-10
 -1       927-1.05266E+06-1.66747E+04-3.60334E+04-2.60125E+03-1.95314E-10 9.14042E-11
 -1       928-1.04117E+06 1.11845E+03-1.47425E+04-9.48344E+02 1.43245E-11-3.92902E-10
 -1       929-1.04330E+06-1.52774E+03-8.12912E+03-2.62829E+03 2.97177E-10-6.83031E-10
 -1       930-1.04207E+06 1.17663E+02-3.72946E+03-9.41062E+02 1.08273E-10 4.89081E-10
 -1       931-1.04228E+06-1.38826E+02-1.97578E+03-2.63650E+03 1.90184E-10-2.14300E-10
 -1       932-1.04218E+06 1.48902E+01-9.97788E+02-9.40177E+02 8.20890E-11-1.17382E-10
 -1       933-1.04215E+06-1.65046E+01-6.21755E+02-2.63234E+03 1.23102E-10 1.79853E-10
 -1       934-1.04220E+06 6.38863E+00-5.18252E+02-9.45220E+02-9.03242E-11 9.40332E-11
 -1       935-1.04217E+06-4.47532E+01-7.19908E+02-2.61616E+03 3.51591E-10-3.36968E-10
 -1       936-1.04217E+06 3.65685E+01-1.21105E+03-9.56362E+02-2.68869E-10 1.90880E-10
 -1       937-1.04248E+06-4.75943E+02-2.55310E+03-2.58776E+03 3.01725E-10-7.93534E-10
 -1       938-1.04189E+06 3.47166E+02-4.59578E+03-9.73606E+02 2.57046E-10-8.34689E-10
 -1       939-1.04539E+06-5.18471E+03-1.12076E+04-2.53888E+03 6.00039E-10-4.29736E-11
 -1       940-1.03926E+06 3.56735E+03-1.77355E+04-1.00482E+03-4.00007E-10 4.61114E-10
 -1       941 2.24541E+06-5.79858E+04 2.89840E+05-3.01957E+03 1.43541E-09 2.38651E-09
 -1       942 2.34682E+06 8.44163E+04 1.82939E+05-1.14005E+04 1.34139E-09-2.44108E-09
 -1       943 2.28831E+06-5.65262E+03 7.50028E+04-3.03944E+03 1.85427E-10-4.18368E-10
 -1       944 2.29943E+06 7.71437E+03 4.14119E+04-1.14048E+04-6.71292E-10-1.07593E-09
 -1       945 2.29293E+06-5.99342E+02 1.91319E+04-3.00815E+03 6.60066E-10 1.79807E-09
 -1       946 2.29429E+06 6.89544E+02 1.03496E+04-1.15309E+04 1.45275E-09 3.46813E-09
 -1       947 2.29351E+06-8.73264E+01 5.64247E+03-2.91304E+03 7.68978E-10 2.45655E-09
 -1       948 2.29372E+06 9.17269E+01 4.31105E+03-1.17891E+04 7.58178E-10 1.30433E-09
 -1       949 2.29354E+06-7.84302E+01 4.86030E+03-2.74989E+03-1.89880E-09-3.09910E-09
 -1       950 2.29415E+06 5.23016E+02 8.30802E+03-1.21863E+04 2.71029E-09 3.21779E-09
 -1       951 2.29310E+06-4.83295E+02 1.50323E+04-2.51562E+03-2.46200E-09-2.25918E-09
 -1       952 2.29818E+06 5.98576E+03 3.23608E+04-1.27257E+04-1.15847E-09-9.45874E-10
 -1       953 2.28951E+06-4.43527E+03 5.85182E+04-2.21108E+03-1.06957E-09 7.23958E-10
 -1       954 2.33519E+06 6.57970E+04 1.42706E+05-1.33803E+04-6.29552E-09-1.81899E-12
 -1       955 2.25603E+06-4.52804E+04 2.26008E+05-1.88844E+03-6.70298E-10-2.32831E-10
 -1       956-3.12621E+05-7.29839E+03-1.61113E+04 6.04968E+04-1.42609E-08 6.32463E-09
 -1       957-3.15669E+05-2.19659E+03-8.15398E+03 7.07716E+04-2.60479E-09 3.08864E-09
 -1       958-3.14065E+05-1.03917E+02-3.67670E+03 6.00899E+04 9.58062E-09 5.43014E-09
 -1       959-3.14412E+05 1.98322E+02-1.86656E+03 7.12065E+04-3.80078E-09 3.55203E-09
 -1       960-3.14297E+05 2.74691E+02-9.08016E+02 6.00467E+04-1.40681E-08 6.84986E-09
 -1       961-3.14406E+05 3.57515E+02-4.69647E+02 7.12545E+04-2.57915E-08 6.67205E-09
 -1       962-3.14399E+05 3.19359E+02-2.53076E+02 6.00396E+04-1.33041E-08 8.10724E-09
 -1       963-3.14472E+05 3.99123E+02-1.69956E+02 7.12637E+04-2.06928E-08 5.60931E-09
 -1       964-3.14454E+05 3.49189E+02-1.68989E+02 6.00364E+04-6.65113E-09 6.89624E-09
 -1       965-3.14520E+05 4.22690E+02-2.59481E+02 7.12654E+04 1.41854E-08 4.97084E-09
 -1       966-3.14465E+05 3.64978E+02-4.70854E+02 6.00375E+04-8.94190E-09 6.90579E-09
 -1       967-3.14586E+05 3.76339E+02-9.59271E+02 7.12468E+04-2.89583E-09 5.07089E-09
 -1       968-3.14391E+05 1.99541E+02-1.88071E+03 6.00556E+04 1.36060E-09 7.70888E-09
 -1       969-3.15276E+05-8.30390E+02-4.17925E+03 7.10547E+04 1.09139E-10 3.53521E-09
 -1       970-3.13674E+05-3.48036E+03-8.25409E+03 6.02428E+04 6.59929E-09 6.50562E-09
 -1       971-6.84002E+05 8.44642E+03-4.21107E+04 6.35152E+03-1.20972E-08 1.67347E-09
 -1       972-6.98732E+05-1.21515E+04-2.65827E+04 2.53211E+04-1.01900E-08 1.26238E-09
 -1       973-6.90254E+05 8.43140E+02-1.09033E+04 6.10265E+03-1.14942E-08 4.93856E-10
 -1       974-6.91932E+05-9.42301E+02-6.01689E+03 2.56836E+04 3.84966E-09 1.26738E-09
 -1       975-6.90939E+05 1.30066E+02-2.80061E+03 5.98129E+03 6.06224E-09-8.95625E-10
 -1       976-6.91249E+05 1.10447E+02-1.54341E+03 2.58706E+04-1.39178E-08 2.18972E-09
 -1       977-6.91032E+05 7.03133E+01-9.08414E+02 5.91391E+03 2.12490E-08-6.07542E-10
 -1       978-6.91205E+05 2.07178E+02-8.10559E+02 2.59583E+04 4.25121E-08-8.45546E-10
 -1       979-6.91031E+05 7.77798E+01-1.07065E+03 5.89296E+03 2.43109E-08-1.75314E-09
 -1       980-6.91317E+05 9.21679E+01-1.97296E+03 2.59527E+04 2.28459E-08-2.66848E-10
 -1       981-6.90918E+05 1.71307E+02-3.65622E+03 5.91961E+03-9.32232E-12-1.79057E-10
 -1       982-6.92271E+05-1.27439E+03-7.92256E+03 2.58513E+04-1.63866E-08 1.99725E-09
 -1       983-6.90026E+05 1.12873E+03-1.43610E+04 5.99606E+03 1.27611E-08-1.76260E-09
 -1       984-7.01305E+05-1.60371E+04-3.50631E+04 2.56000E+04 1.58270E-08 1.32013E-09
 -1       985-6.81792E+05 1.11797E+04-5.55187E+04 6.18300E+03 1.95623E-08-7.38510E-10
 -3
 9999
