
 stresses (elem, integ.pnt.,sxx,syy,szz,sxy,sxz,syz) for set ELALL and time  0.1000000E+01

         1   1 -2.034292E+06 -5.651147E+04 -6.726464E+04 -2.798621E+04 -4.622832E+04  2.090449E+00
         1   2 -2.026753E+06 -1.218477E+03 -3.084643E+04 -1.005946E+04 -2.994439E+04  4.867153E-01
         1   3 -2.034235E+06  2.540066E+03 -1.793871E+04  7.867867E+03 -1.366026E+04 -1.736626E-01
         1   4 -2.034293E+06 -5.651295E+04 -6.726486E+04  1.070689E-08 -4.622832E+04 -2.761925E-10
         1   5 -2.026753E+06 -1.218667E+03 -3.084646E+04  6.980104E-09 -2.994439E+04 -6.196352E-10
         1   6 -2.034235E+06  2.539949E+03 -1.793872E+04 -7.760180E-09 -1.366026E+04  4.907126E-11
         1   7 -2.034292E+06 -5.651147E+04 -6.726464E+04  2.798621E+04 -4.622832E+04 -2.090449E+00
         1   8 -2.026753E+06 -1.218477E+03 -3.084643E+04  1.005946E+04 -2.994439E+04 -4.867153E-01
         1   9 -2.034235E+06  2.540066E+03 -1.793871E+04 -7.867867E+03 -1.366026E+04  1.736626E-01
         1  10 -2.034295E+06 -5.651205E+04 -6.726867E+04 -2.798621E+04  9.534995E-10 -4.649050E-10
         1  11 -2.026754E+06 -1.218718E+03 -3.084812E+04 -1.005946E+04 -1.788509E-09 -1.187511E-09
         1  12 -2.034235E+06  2.540016E+03 -1.793906E+04  7.867867E+03 -5.761751E-10 -2.331674E-10
         1  13 -2.034296E+06 -5.651353E+04 -6.726888E+04  8.437135E-09 -2.051314E-09 -1.469487E-10
         1  14 -2.026754E+06 -1.218909E+03 -3.084815E+04  5.887182E-09 -1.087482E-09 -4.225715E-10
         1  15 -2.034235E+06  2.539899E+03 -1.793908E+04 -2.598299E-09  1.903104E-09 -2.961048E-10
         1  16 -2.034295E+06 -5.651205E+04 -6.726867E+04  2.798621E+04  1.063259E-10  2.046523E-10
         1  17 -2.026754E+06 -1.218718E+03 -3.084812E+04  1.005946E+04 -3.043797E-09  4.764320E-10
         1  18 -2.034235E+06  2.540016E+03 -1.793906E+04 -7.867867E+03  1.075618E-09 -1.960373E-10
         1  19 -2.034292E+06 -5.651147E+04 -6.726464E+04 -2.798621E+04  4.622832E+04 -2.090449E+00
         1  20 -2.026753E+06 -1.218477E+03 -3.084643E+04 -1.005946E+04  2.994439E+04 -4.867153E-01
         1  21 -2.034235E+06  2.540066E+03 -1.793871E+04  7.867867E+03  1.366026E+04  1.736626E-01
         1  22 -2.034293E+06 -5.651295E+04 -6.726486E+04  1.049268E-08  4.622832E+04 -2.207423E-12
         1  23 -2.026753E+06 -1.218667E+03 -3.084646E+04 -1.660270E-09  2.994439E+04 -2.322895E-10
         1  24 -2.034235E+06  2.539949E+03 -1.793872E+04 -3.348681E-09  1.366026E+04 -6.617053E-10
         1  25 -2.034292E+06 -5.651147E+04 -6.726464E+04  2.798621E+04  4.622832E+04  2.090449E+00
         1  26 -2.026753E+06 -1.218477E+03 -3.084643E+04  1.005946E+04  2.994439E+04  4.867153E-01
         1  27 -2.034235E+06  2.540066E+03 -1.793871E+04 -7.867867E+03  1.366026E+04 -1.736626E-01
         2   1 -2.031169E+06 -2.791348E+03 -1.419533E+04 -9.571897E+02 -1.115406E+04  1.725121E-02
         2   2 -2.030573E+06  4.155973E+01 -7.735688E+03 -2.065836E+02 -7.280579E+03  2.430245E-03
         2   3 -2.031162E+06  1.611650E+02 -4.482300E+03  5.440205E+02 -3.407076E+03 -2.994922E-03
         2   4 -2.031169E+06 -2.791350E+03 -1.419533E+04  4.641068E-10 -1.115406E+04  1.926828E-11
         2   5 -2.030573E+06  4.155965E+01 -7.735688E+03  2.723401E-09 -7.280579E+03 -1.409638E-10
         2   6 -2.031162E+06  1.611644E+02 -4.482300E+03  8.746913E-09 -3.407076E+03  1.317354E-09
         2   7 -2.031169E+06 -2.791348E+03 -1.419533E+04  9.571897E+02 -1.115406E+04 -1.725121E-02
         2   8 -2.030573E+06  4.155973E+01 -7.735688E+03  2.065836E+02 -7.280579E+03 -2.430246E-03
         2   9 -2.031162E+06  1.611650E+02 -4.482300E+03 -5.440205E+02 -3.407076E+03  2.994925E-03
         2  10 -2.031169E+06 -2.791381E+03 -1.419557E+04 -9.571897E+02 -1.972310E-10  6.493305E-11
         2  11 -2.030573E+06  4.154544E+01 -7.735787E+03 -2.065836E+02 -2.186953E-09  8.096264E-11
         2  12 -2.031162E+06  1.611619E+02 -4.482322E+03  5.440205E+02 -2.468283E-09  1.534584E-09
         2  13 -2.031169E+06 -2.791383E+03 -1.419557E+04 -3.926379E-09 -2.106310E-09 -3.802405E-10
         2  14 -2.030573E+06  4.154536E+01 -7.735787E+03 -1.396181E-09 -4.761355E-09 -2.308570E-10
         2  15 -2.031162E+06  1.611613E+02 -4.482322E+03  2.193308E-09 -4.128097E-10  1.078626E-09
         2  16 -2.031169E+06 -2.791381E+03 -1.419557E+04  9.571897E+02 -1.879332E-09 -7.069332E-10
         2  17 -2.030573E+06  4.154544E+01 -7.735787E+03  2.065836E+02  7.275761E-10 -4.712540E-10
         2  18 -2.031162E+06  1.611619E+02 -4.482322E+03 -5.440205E+02  5.728764E-10  6.898939E-10
         2  19 -2.031169E+06 -2.791348E+03 -1.419533E+04 -9.571897E+02  1.115406E+04 -1.725121E-02
         2  20 -2.030573E+06  4.155973E+01 -7.735688E+03 -2.065836E+02  7.280579E+03 -2.430245E-03
         2  21 -2.031162E+06  1.611650E+02 -4.482300E+03  5.440205E+02  3.407076E+03  2.994925E-03
         2  22 -2.031169E+06 -2.791350E+03 -1.419533E+04  4.560581E-09  1.115406E+04 -7.392057E-10
         2  23 -2.030573E+06  4.155965E+01 -7.735688E+03 -1.240780E-09  7.280579E+03 -2.188381E-10
         2  24 -2.031162E+06  1.611644E+02 -4.482300E+03  1.392491E-08  3.407076E+03  8.017118E-10
         2  25 -2.031169E+06 -2.791348E+03 -1.419533E+04  9.571897E+02  1.115406E+04  1.725121E-02
         2  26 -2.030573E+06  4.155973E+01 -7.735688E+03  2.065836E+02  7.280579E+03  2.430244E-03
         2  27 -2.031162E+06  1.611650E+02 -4.482300E+03 -5.440205E+02  3.407076E+03 -2.994924E-03
         3   1 -2.030936E+06 -1.053755E+02 -3.451579E+03  7.317743E+01 -2.708761E+03 -3.202834E-04
         3   2 -2.030852E+06  3.001049E+01 -2.024603E+03  6.321849E+01 -1.706566E+03 -1.743235E-04
         3   3 -2.030935E+06  1.803485E+01 -1.288523E+03  5.325971E+01 -7.043839E+02 -6.061753E-05
         3   4 -2.030936E+06 -1.053755E+02 -3.451579E+03  2.695894E-11 -2.708761E+03  1.516986E-09
         3   5 -2.030852E+06  3.001049E+01 -2.024603E+03 -8.060098E-09 -1.706566E+03  6.595342E-12
         3   6 -2.030935E+06  1.803484E+01 -1.288523E+03  1.072436E-09 -7.043839E+02 -7.588445E-10
         3   7 -2.030936E+06 -1.053755E+02 -3.451579E+03 -7.317743E+01 -2.708761E+03  3.202863E-04
         3   8 -2.030852E+06  3.001049E+01 -2.024603E+03 -6.321849E+01 -1.706566E+03  1.743234E-04
         3   9 -2.030935E+06  1.803485E+01 -1.288523E+03 -5.325971E+01 -7.043839E+02  6.061603E-05
         3  10 -2.030936E+06 -1.053774E+02 -3.451592E+03  7.317743E+01 -7.701387E-10  1.381145E-09
         3  11 -2.030852E+06  3.000971E+01 -2.024608E+03  6.321849E+01 -3.117529E-09 -2.624128E-11
         3  12 -2.030935E+06  1.803471E+01 -1.288524E+03  5.325971E+01 -2.121824E-09 -1.336266E-10
         3  13 -2.030936E+06 -1.053774E+02 -3.451592E+03 -6.799205E-09 -9.630038E-10  1.179673E-09
         3  14 -2.030852E+06  3.000970E+01 -2.024608E+03 -5.016620E-09  1.042490E-09  7.648188E-11
         3  15 -2.030935E+06  1.803471E+01 -1.288524E+03 -5.522036E-10 -1.345114E-10 -2.979220E-10
         3  16 -2.030936E+06 -1.053774E+02 -3.451592E+03 -7.317743E+01 -2.416760E-09  1.042420E-09
         3  17 -2.030852E+06  3.000971E+01 -2.024608E+03 -6.321849E+01 -1.680991E-10  2.920664E-10
         3  18 -2.030935E+06  1.803471E+01 -1.288524E+03 -5.325971E+01 -9.111213E-10 -5.138769E-10
         3  19 -2.030936E+06 -1.053755E+02 -3.451579E+03  7.317743E+01  2.708761E+03  3.202860E-04
         3  20 -2.030852E+06  3.001049E+01 -2.024603E+03  6.321849E+01  1.706566E+03  1.743238E-04
         3  21 -2.030935E+06  1.803485E+01 -1.288523E+03  5.325971E+01  7.043839E+02  6.061769E-05
         3  22 -2.030936E+06 -1.053755E+02 -3.451579E+03  1.010539E-08  2.708761E+03  8.488247E-10
         3  23 -2.030852E+06  3.001049E+01 -2.024603E+03 -1.964741E-09  1.706566E+03  1.675245E-10
         3  24 -2.030935E+06  1.803484E+01 -1.288523E+03  7.501694E-09  7.043839E+02  1.190760E-10
         3  25 -2.030936E+06 -1.053755E+02 -3.451579E+03 -7.317743E+01  2.708761E+03 -3.202842E-04
         3  26 -2.030852E+06  3.001049E+01 -2.024603E+03 -6.321849E+01  1.706566E+03 -1.743233E-04
         3  27 -2.030935E+06  1.803485E+01 -1.288523E+03 -5.325971E+01  7.043839E+02 -6.061757E-05
         4   1 -2.030912E+06  6.429637E+00 -1.082987E+03  2.535786E+01 -4.903844E+02 -2.009276E-05
         4   2 -2.030881E+06  1.531027E+01 -9.083185E+02  9.832421E-01 -4.188127E+01 -6.614575E-08
         4   3 -2.030912E+06  1.235256E+01 -1.029324E+03 -2.339174E+01  4.066285E+02 -1.536885E-05
         4   4 -2.030912E+06  6.429635E+00 -1.082987E+03 -8.476032E-09 -4.903844E+02 -3.370026E-10
         4   5 -2.030881E+06  1.531027E+01 -9.083185E+02 -6.927976E-09 -4.188127E+01  3.975910E-10
         4   6 -2.030912E+06  1.235256E+01 -1.029324E+03  1.102840E-08  4.066285E+02 -1.731718E-10
         4   7 -2.030912E+06  6.429637E+00 -1.082987E+03 -2.535787E+01 -4.903844E+02  2.009200E-05
         4   8 -2.030881E+06  1.531027E+01 -9.083185E+02 -9.832421E-01 -4.188127E+01  6.683056E-08
         4   9 -2.030912E+06  1.235256E+01 -1.029324E+03  2.339174E+01  4.066285E+02  1.536852E-05
         4  10 -2.030912E+06  6.429572E+00 -1.082987E+03  2.535786E+01 -1.241183E-09  1.417182E-10
         4  11 -2.030881E+06  1.531027E+01 -9.083185E+02  9.832421E-01  1.794289E-09 -1.207242E-10
         4  12 -2.030912E+06  1.235252E+01 -1.029324E+03 -2.339174E+01  1.259485E-10 -2.165352E-10
         4  13 -2.030912E+06  6.429571E+00 -1.082987E+03 -1.059252E-08 -1.235072E-09 -2.348793E-10
         4  14 -2.030881E+06  1.531027E+01 -9.083185E+02 -9.082262E-09 -4.462649E-10 -2.298799E-10
         4  15 -2.030912E+06  1.235252E+01 -1.029324E+03  2.667675E-09 -1.006438E-09 -3.500160E-10
         4  16 -2.030912E+06  6.429572E+00 -1.082987E+03 -2.535786E+01 -1.456825E-09 -5.116081E-10
         4  17 -2.030881E+06  1.531027E+01 -9.083185E+02 -9.832421E-01 -2.292764E-09 -1.371366E-10
         4  18 -2.030912E+06  1.235252E+01 -1.029324E+03  2.339174E+01 -1.413678E-09 -4.045532E-10
         4  19 -2.030912E+06  6.429637E+00 -1.082987E+03  2.535786E+01  4.903844E+02  2.009292E-05
         4  20 -2.030881E+06  1.531027E+01 -9.083185E+02  9.832421E-01  4.188127E+01  6.610374E-08
         4  21 -2.030912E+06  1.235256E+01 -1.029324E+03 -2.339174E+01 -4.066285E+02  1.536850E-05
         4  22 -2.030912E+06  6.429635E+00 -1.082987E+03 -1.958574E-09  4.903844E+02 -1.397027E-10
         4  23 -2.030881E+06  1.531027E+01 -9.083185E+02 -1.555982E-08  4.188127E+01 -8.157742E-10
         4  24 -2.030912E+06  1.235256E+01 -1.029324E+03  6.358399E-09 -4.066285E+02 -4.842095E-10
         4  25 -2.030912E+06  6.429637E+00 -1.082987E+03 -2.535786E+01  4.903844E+02 -2.009331E-05
         4  26 -2.030881E+06  1.531027E+01 -9.083185E+02 -9.832421E-01  4.188127E+01 -6.758833E-08
         4  27 -2.030912E+06  1.235256E+01 -1.029324E+03  2.339174E+01 -4.066285E+02 -1.536962E-05
         5   1 -2.030926E+06  1.186889E+01 -1.205115E+03 -3.271052E+01  6.090355E+02 -3.219023E-05
         5   2 -2.030863E+06  3.099051E+01 -1.857410E+03 -7.914368E+01  1.526379E+03 -1.951946E-04
         5   3 -2.030927E+06  1.660425E+01 -3.116777E+03 -1.255769E+02  2.443722E+03 -4.958489E-04
         5   4 -2.030926E+06  1.186889E+01 -1.205115E+03  7.965122E-09  6.090355E+02 -5.248341E-10
         5   5 -2.030863E+06  3.099050E+01 -1.857410E+03  6.974127E-10  1.526379E+03 -1.537536E-10
         5   6 -2.030927E+06  1.660422E+01 -3.116777E+03  6.069601E-09  2.443722E+03  6.045835E-10
         5   7 -2.030926E+06  1.186889E+01 -1.205115E+03  3.271052E+01  6.090355E+02  3.218940E-05
         5   8 -2.030863E+06  3.099051E+01 -1.857410E+03  7.914368E+01  1.526379E+03  1.951943E-04
         5   9 -2.030927E+06  1.660425E+01 -3.116777E+03  1.255769E+02  2.443722E+03  4.958501E-04
         5  10 -2.030926E+06  1.186879E+01 -1.205116E+03 -3.271052E+01 -6.392439E-10 -3.727652E-10
         5  11 -2.030863E+06  3.098988E+01 -1.857414E+03 -7.914368E+01  1.908182E-09 -3.553572E-10
         5  12 -2.030927E+06  1.660264E+01 -3.116788E+03 -1.255769E+02 -1.126538E-09  2.638093E-10
         5  13 -2.030926E+06  1.186879E+01 -1.205116E+03 -7.072879E-09  1.499429E-10 -3.600986E-10
         5  14 -2.030863E+06  3.098987E+01 -1.857414E+03 -2.476266E-09 -4.462739E-10 -1.723859E-10
         5  15 -2.030927E+06  1.660261E+01 -3.116788E+03 -4.344614E-09 -5.004846E-10  1.631791E-10
         5  16 -2.030926E+06  1.186879E+01 -1.205116E+03  3.271052E+01 -1.037579E-09 -4.329510E-10
         5  17 -2.030863E+06  3.098988E+01 -1.857414E+03  7.914368E+01 -2.423285E-09  1.055786E-10
         5  18 -2.030927E+06  1.660264E+01 -3.116788E+03  1.255769E+02 -1.669753E-11  8.559067E-12
         5  19 -2.030926E+06  1.186889E+01 -1.205115E+03 -3.271052E+01 -6.090355E+02  3.218944E-05
         5  20 -2.030863E+06  3.099051E+01 -1.857410E+03 -7.914368E+01 -1.526379E+03  1.951943E-04
         5  21 -2.030927E+06  1.660425E+01 -3.116777E+03 -1.255769E+02 -2.443722E+03  4.958496E-04
         5  22 -2.030926E+06  1.186889E+01 -1.205115E+03  1.594666E-09 -6.090355E+02 -1.964289E-10
         5  23 -2.030863E+06  3.099050E+01 -1.857410E+03 -7.789532E-09 -1.526379E+03 -1.740140E-10
         5  24 -2.030927E+06  1.660422E+01 -3.116777E+03  4.112715E-09 -2.443722E+03 -2.672710E-10
         5  25 -2.030926E+06  1.186889E+01 -1.205115E+03  3.271052E+01 -6.090355E+02 -3.219015E-05
         5  26 -2.030863E+06  3.099051E+01 -1.857410E+03  7.914368E+01 -1.526379E+03 -1.951942E-04
         5  27 -2.030927E+06  1.660425E+01 -3.116777E+03  1.255769E+02 -2.443722E+03 -4.958501E-04
         6   1 -2.031030E+06  5.655487E+01 -4.070425E+03 -2.243324E+02  3.091568E+03 -1.120622E-03
         6   2 -2.030738E+06  1.033525E+02 -7.029211E+03 -2.497824E+02  6.571658E+03 -2.652316E-03
         6   3 -2.031035E+06 -3.863763E+02 -1.239332E+04 -2.752321E+02  1.005168E+04 -4.470192E-03
         6   4 -2.031030E+06  5.655478E+01 -4.070425E+03 -1.058412E-09  3.091568E+03  2.319544E-10
         6   5 -2.030738E+06  1.033524E+02 -7.029211E+03 -3.265416E-09  6.571658E+03 -8.322703E-10
         6   6 -2.031035E+06 -3.863765E+02 -1.239332E+04  7.722378E-09  1.005168E+04  7.084309E-11
         6   7 -2.031030E+06  5.655487E+01 -4.070425E+03  2.243324E+02  3.091568E+03  1.120623E-03
         6   8 -2.030738E+06  1.033525E+02 -7.029211E+03  2.497824E+02  6.571658E+03  2.652314E-03
         6   9 -2.031035E+06 -3.863763E+02 -1.239332E+04  2.752321E+02  1.005168E+04  4.470192E-03
         6  10 -2.031030E+06  5.655230E+01 -4.070443E+03 -2.243324E+02 -6.495447E-10  4.568230E-10
         6  11 -2.030738E+06  1.033408E+02 -7.029292E+03 -2.497824E+02 -3.887026E-10 -4.085485E-10
         6  12 -2.031035E+06 -3.864036E+02 -1.239351E+04 -2.752321E+02 -1.615147E-10 -9.117305E-10
         6  13 -2.031030E+06  5.655220E+01 -4.070443E+03  3.161963E-09 -2.369218E-09  1.176194E-10
         6  14 -2.030738E+06  1.033407E+02 -7.029292E+03 -7.912494E-11 -4.521384E-09 -2.813544E-10
         6  15 -2.031035E+06 -3.864037E+02 -1.239351E+04  6.356255E-09 -1.886210E-09 -3.250775E-10
         6  16 -2.031030E+06  5.655230E+01 -4.070443E+03  2.243324E+02 -7.262088E-11 -2.405533E-10
         6  17 -2.030738E+06  1.033408E+02 -7.029292E+03  2.497824E+02 -8.708224E-10 -1.470264E-10
         6  18 -2.031035E+06 -3.864036E+02 -1.239351E+04  2.752321E+02 -5.354945E-10  1.813388E-10
         6  19 -2.031030E+06  5.655487E+01 -4.070425E+03 -2.243324E+02 -3.091568E+03  1.120623E-03
         6  20 -2.030738E+06  1.033525E+02 -7.029211E+03 -2.497824E+02 -6.571658E+03  2.652316E-03
         6  21 -2.031035E+06 -3.863763E+02 -1.239332E+04 -2.752321E+02 -1.005168E+04  4.470190E-03
         6  22 -2.031030E+06  5.655478E+01 -4.070425E+03  5.209150E-09 -3.091568E+03 -2.778332E-11
         6  23 -2.030738E+06  1.033524E+02 -7.029211E+03 -3.374614E-09 -6.571658E+03  2.879164E-10
         6  24 -2.031035E+06 -3.863765E+02 -1.239332E+04  7.402958E-09 -1.005168E+04 -7.325674E-10
         6  25 -2.031030E+06  5.655487E+01 -4.070425E+03  2.243324E+02 -3.091568E+03 -1.120623E-03
         6  26 -2.030738E+06  1.033525E+02 -7.029211E+03  2.497824E+02 -6.571658E+03 -2.652315E-03
         6  27 -2.031035E+06 -3.863763E+02 -1.239332E+04  2.752321E+02 -1.005168E+04 -4.470191E-03
         7   1 -2.031863E+06  5.860673E+02 -1.620681E+04 -1.993622E+03  1.256815E+04 -4.048581E-02
         7   2 -2.029716E+06  1.501925E+02 -2.815122E+04  7.495208E+02  2.666545E+04  3.229384E-02
         7   3 -2.031888E+06 -1.019134E+04 -5.177123E+04  3.492729E+03  4.076271E+04  2.300465E-01
         7   4 -2.031863E+06  5.860598E+02 -1.620681E+04  9.207990E-09  1.256815E+04  1.035991E-09
         7   5 -2.029716E+06  1.501914E+02 -2.815122E+04  4.605771E-09  2.666545E+04  1.198141E-09
         7   6 -2.031888E+06 -1.019137E+04 -5.177123E+04  9.156678E-09  4.076271E+04 -1.327014E-10
         7   7 -2.031863E+06  5.860673E+02 -1.620681E+04  1.993622E+03  1.256815E+04  4.048581E-02
         7   8 -2.029716E+06  1.501925E+02 -2.815122E+04 -7.495208E+02  2.666545E+04 -3.229384E-02
         7   9 -2.031888E+06 -1.019134E+04 -5.177123E+04 -3.492729E+03  4.076271E+04 -2.300465E-01
         7  10 -2.031863E+06  5.860247E+02 -1.620711E+04 -1.993622E+03 -5.633664E-10 -2.197066E-10
         7  11 -2.029716E+06  1.500008E+02 -2.815256E+04  7.495208E+02 -1.615829E-10  7.894747E-10
         7  12 -2.031889E+06 -1.019179E+04 -5.177436E+04  3.492729E+03  1.867090E-09 -2.592425E-10
         7  13 -2.031863E+06  5.860172E+02 -1.620711E+04  5.157686E-09 -9.603164E-10  1.224225E-10
         7  14 -2.029716E+06  1.499998E+02 -2.815256E+04  2.467225E-10 -5.959149E-10  6.120080E-10
         7  15 -2.031889E+06 -1.019182E+04 -5.177436E+04 -4.100994E-09  1.344320E-11 -2.231286E-10
         7  16 -2.031863E+06  5.860247E+02 -1.620711E+04  1.993622E+03  9.166058E-10  4.321720E-10
         7  17 -2.029716E+06  1.500008E+02 -2.815256E+04 -7.495208E+02  6.593019E-10  4.380244E-10
         7  18 -2.031889E+06 -1.019179E+04 -5.177436E+04 -3.492729E+03 -1.896352E-09 -1.589245E-10
         7  19 -2.031863E+06  5.860673E+02 -1.620681E+04 -1.993622E+03 -1.256815E+04  4.048581E-02
         7  20 -2.029716E+06  1.501925E+02 -2.815122E+04  7.495208E+02 -2.666545E+04 -3.229384E-02
         7  21 -2.031888E+06 -1.019134E+04 -5.177123E+04  3.492729E+03 -4.076271E+04 -2.300465E-01
         7  22 -2.031863E+06  5.860598E+02 -1.620681E+04  3.263799E-09 -1.256815E+04 -8.197246E-10
         7  23 -2.029716E+06  1.501914E+02 -2.815122E+04 -1.054583E-08 -2.666545E+04  1.813720E-11
         7  24 -2.031888E+06 -1.019137E+04 -5.177123E+04  1.717014E-09 -4.076271E+04 -3.299048E-10
         7  25 -2.031863E+06  5.860673E+02 -1.620681E+04  1.993622E+03 -1.256815E+04 -4.048581E-02
         7  26 -2.029716E+06  1.501925E+02 -2.815122E+04 -7.495208E+02 -2.666545E+04  3.229384E-02
         7  27 -2.031888E+06 -1.019134E+04 -5.177123E+04 -3.492729E+03 -4.076271E+04  2.300465E-01
         8   1 -2.043078E+06  9.274374E+03 -6.544812E+04 -2.872622E+04  4.990291E+04 -2.316325E+00
         8   2 -2.015765E+06 -4.447009E+03 -1.125761E+05  3.672521E+04  1.093464E+05  6.488496E+00
         8   3 -2.043278E+06 -2.062928E+05 -2.455182E+05  1.021726E+05  1.687905E+05  2.786544E+01
         8   4 -2.043079E+06  9.272819E+03 -6.544834E+04  1.430751E-09  4.990291E+04 -8.081702E-10
         8   5 -2.015767E+06 -4.449551E+03 -1.125764E+05  1.658229E-11  1.093464E+05 -6.419706E-10
         8   6 -2.043289E+06 -2.063125E+05 -2.455211E+05  1.125443E-08  1.687905E+05 -2.379190E-10
         8   7 -2.043078E+06  9.274374E+03 -6.544812E+04  2.872622E+04  4.990291E+04  2.316325E+00
         8   8 -2.015765E+06 -4.447009E+03 -1.125761E+05 -3.672521E+04  1.093464E+05 -6.488496E+00
         8   9 -2.043278E+06 -2.062928E+05 -2.455182E+05 -1.021726E+05  1.687905E+05 -2.786544E+01
         8  10 -2.043081E+06  9.273703E+03 -6.545282E+04 -2.872622E+04  4.022231E-10 -7.094920E-10
         8  11 -2.015778E+06 -4.450231E+03 -1.125986E+05  3.672521E+04  9.548678E-10 -1.978849E-11
         8  12 -2.043308E+06 -2.063005E+05 -2.455720E+05  1.021726E+05  3.605625E-10  9.643655E-11
         8  13 -2.043081E+06  9.272147E+03 -6.545304E+04 -1.132939E-08  1.136519E-26 -5.157455E-10
         8  14 -2.015779E+06 -4.452774E+03 -1.125990E+05  3.316475E-09 -4.311642E-10 -5.197136E-11
         8  15 -2.043320E+06 -2.063201E+05 -2.455748E+05  9.369342E-09  5.994719E-10  5.123238E-11
         8  16 -2.043081E+06  9.273703E+03 -6.545282E+04  2.872622E+04 -4.428280E-11 -4.202665E-10
         8  17 -2.015778E+06 -4.450231E+03 -1.125986E+05 -3.672521E+04 -3.376986E-09 -8.091280E-11
         8  18 -2.043308E+06 -2.063005E+05 -2.455720E+05 -1.021726E+05 -1.595867E-09 -2.106377E-11
         8  19 -2.043078E+06  9.274374E+03 -6.544812E+04 -2.872622E+04 -4.990291E+04  2.316325E+00
         8  20 -2.015765E+06 -4.447009E+03 -1.125761E+05  3.672521E+04 -1.093464E+05 -6.488496E+00
         8  21 -2.043278E+06 -2.062928E+05 -2.455182E+05  1.021726E+05 -1.687905E+05 -2.786544E+01
         8  22 -2.043079E+06  9.272819E+03 -6.544834E+04 -2.579693E-09 -4.990291E+04 -2.127592E-10
         8  23 -2.015767E+06 -4.449551E+03 -1.125764E+05 -1.060204E-08 -1.093464E+05  5.836434E-10
         8  24 -2.043289E+06 -2.063125E+05 -2.455211E+05  6.920962E-09 -1.687905E+05  3.437163E-10
         8  25 -2.043078E+06  9.274374E+03 -6.544812E+04  2.872622E+04 -4.990291E+04 -2.316325E+00
         8  26 -2.015765E+06 -4.447009E+03 -1.125761E+05 -3.672521E+04 -1.093464E+05  6.488496E+00
         8  27 -2.043278E+06 -2.062928E+05 -2.455182E+05 -1.021726E+05 -1.687905E+05  2.786544E+01
         9   1  1.669765E+06  5.310654E+06  1.639455E+06 -1.046360E+06  7.421885E+04  4.880179E+05
         9   2  1.207726E+06  4.206393E+06  1.108798E+06 -8.435389E+05  2.331645E+05  2.146222E+05
         9   3  9.204564E+05  3.184741E+06  7.993587E+05 -9.164490E+05  2.378714E+05 -5.830893E+04
         9   4  1.922118E+05 -6.706128E+05  2.175096E+05 -9.243491E+05  7.498385E+04  1.516923E+05
         9   5  2.882356E+04 -6.910065E+05  1.025927E+05 -7.867325E+05  2.336496E+05  9.884076E+04
         9   6  2.885887E+03 -6.673919E+05  5.695940E+04 -9.248422E+05  2.375792E+05  4.594909E+04
         9   7 -1.287804E+06 -6.618934E+06 -1.206511E+06 -8.034739E+05  7.562319E+04 -1.814346E+05
         9   8 -1.151571E+06 -5.565692E+06 -9.048463E+05 -7.303513E+05  2.341163E+05 -1.605031E+04
         9   9 -9.155587E+05 -4.505270E+06 -6.860878E+05 -9.331589E+05  2.372830E+05  1.495768E+05
         9  10  1.669695E+06  5.310399E+06  1.639001E+06 -1.046389E+06  1.485567E-09 -4.375058E-09
         9  11  1.207655E+06  4.206329E+06  1.108610E+06 -8.435792E+05  1.039906E-09  1.837854E-08
         9  12  9.203948E+05  3.184722E+06  7.992462E+05 -9.164379E+05 -2.160976E-09  3.802104E-08
         9  13  1.921996E+05 -6.706391E+05  2.174557E+05 -9.243583E+05  1.474832E-09 -1.859801E-11
         9  14  2.876229E+04 -6.910317E+05  1.024717E+05 -7.867511E+05  2.368300E-10 -1.895383E-11
         9  15  2.824705E+03 -6.674094E+05  5.684932E+04 -9.248510E+05 -4.482720E-09 -7.776954E-11
         9  16 -1.287819E+06 -6.618971E+06 -1.206584E+06 -8.034628E+05  1.457573E-09  4.292818E-09
         9  17 -1.151630E+06 -5.565707E+06 -9.049497E+05 -7.303483E+05 -2.597534E-10 -1.834459E-08
         9  18 -9.156253E+05 -4.505309E+06 -6.862362E+05 -9.331876E+05 -1.086991E-09 -3.787171E-08
         9  19  1.669765E+06  5.310654E+06  1.639455E+06 -1.046360E+06 -7.421885E+04 -4.880179E+05
         9  20  1.207726E+06  4.206393E+06  1.108798E+06 -8.435389E+05 -2.331645E+05 -2.146222E+05
         9  21  9.204564E+05  3.184741E+06  7.993587E+05 -9.164490E+05 -2.378714E+05  5.830893E+04
         9  22  1.922118E+05 -6.706128E+05  2.175096E+05 -9.243491E+05 -7.498385E+04 -1.516923E+05
         9  23  2.882356E+04 -6.910065E+05  1.025927E+05 -7.867325E+05 -2.336496E+05 -9.884076E+04
         9  24  2.885887E+03 -6.673919E+05  5.695940E+04 -9.248422E+05 -2.375792E+05 -4.594909E+04
         9  25 -1.287804E+06 -6.618934E+06 -1.206511E+06 -8.034739E+05 -7.562319E+04  1.814346E+05
         9  26 -1.151571E+06 -5.565692E+06 -9.048463E+05 -7.303513E+05 -2.341163E+05  1.605031E+04
         9  27 -9.155587E+05 -4.505270E+06 -6.860878E+05 -9.331589E+05 -2.372830E+05 -1.495768E+05
        10   1  7.560628E+05  2.446083E+06  6.435199E+05 -9.380546E+05  1.944775E+05 -3.824662E+04
        10   2  4.950523E+05  1.381793E+06  4.096484E+05 -7.912104E+05  1.371103E+05 -5.914935E+04
        10   3  2.429625E+05  3.219935E+05  1.910968E+05 -9.293166E+05  7.270973E+04 -8.015328E+04
        10   4  1.224150E+04 -6.757832E+05  4.306453E+04 -9.268297E+05  1.942194E+05  3.823953E+04
        10   5  6.061991E+03 -6.759338E+05  2.159788E+04 -7.843451E+05  1.367368E+05  2.731654E+04
        10   6  7.151384E+03 -6.743815E+05  8.589288E+03 -9.268637E+05  7.220690E+04  1.625800E+04
        10   7 -7.321541E+05 -3.788279E+06 -5.578189E+05 -9.156460E+05  1.939632E+05  1.143507E+05
        10   8 -4.831708E+05 -2.729559E+06 -3.666108E+05 -7.774960E+05  1.363646E+05  1.135032E+05
        10   9 -2.287110E+05 -1.669772E+06 -1.739238E+05 -9.244130E+05  7.170432E+04  1.125187E+05
        10  10  7.560219E+05  2.446071E+06  6.434461E+05 -9.380486E+05 -3.074123E-09 -1.688707E-08
        10  11  4.950312E+05  1.381784E+06  4.096066E+05 -7.912039E+05 -1.949624E-09 -8.530986E-09
        10  12  2.429551E+05  3.219852E+05  1.910749E+05 -9.293119E+05  4.067830E-10  1.396395E-09
        10  13  1.220060E+04 -6.757949E+05  4.299087E+04 -9.268357E+05 -4.501319E-09 -3.370130E-11
        10  14  6.041712E+03 -6.759396E+05  2.156133E+04 -7.843481E+05 -2.833344E-09 -5.238384E-12
        10  15  7.145713E+03 -6.743832E+05  8.578987E+03 -9.268647E+05 -1.417521E-09 -1.244590E-10
        10  16 -7.321981E+05 -3.788303E+06 -5.579145E+05 -9.156639E+05 -1.102418E-09  1.688144E-08
        10  17 -4.831943E+05 -2.729577E+06 -3.666701E+05 -7.775085E+05 -1.266393E-09  8.378602E-09
        10  18 -2.287200E+05 -1.669787E+06 -1.739573E+05 -9.244195E+05 -3.408856E-09 -1.598908E-09
        10  19  7.560628E+05  2.446083E+06  6.435199E+05 -9.380546E+05 -1.944775E+05  3.824662E+04
        10  20  4.950523E+05  1.381793E+06  4.096484E+05 -7.912104E+05 -1.371103E+05  5.914935E+04
        10  21  2.429625E+05  3.219935E+05  1.910968E+05 -9.293166E+05 -7.270973E+04  8.015328E+04
        10  22  1.224150E+04 -6.757832E+05  4.306453E+04 -9.268297E+05 -1.942194E+05 -3.823953E+04
        10  23  6.061991E+03 -6.759338E+05  2.159788E+04 -7.843451E+05 -1.367368E+05 -2.731654E+04
        10  24  7.151384E+03 -6.743815E+05  8.589288E+03 -9.268637E+05 -7.220690E+04 -1.625800E+04
        10  25 -7.321541E+05 -3.788279E+06 -5.578189E+05 -9.156460E+05 -1.939632E+05 -1.143507E+05
        10  26 -4.831708E+05 -2.729559E+06 -3.666108E+05 -7.774960E+05 -1.363646E+05 -1.135032E+05
        10  27 -2.287110E+05 -1.669772E+06 -1.739238E+05 -9.244130E+05 -7.170432E+04 -1.125187E+05
        11   1  7.124905E+04 -4.044980E+05  4.505180E+04 -9.244612E+05  2.893246E+04 -8.959437E+04
        11   2 -1.891826E+05 -1.456342E+06 -1.864210E+05 -7.872720E+05 -1.847977E+04 -9.970523E+03
        11   3 -4.756437E+05 -2.526327E+06 -4.770248E+05 -9.326634E+05 -1.232325E+04  6.969197E+04
        11   4  8.630519E+03 -6.759112E+05  3.375582E+03 -9.262976E+05  2.837046E+04  1.476928E+04
        11   5  3.386835E+03 -6.731751E+05 -7.478864E+03 -7.850702E+05 -1.862453E+04  1.861463E+04
        11   6 -1.463035E+04 -6.764517E+05 -2.474479E+04 -9.264020E+05 -1.208109E+04  2.263503E+04
        11   7 -5.398570E+04 -9.472272E+05 -3.826128E+04 -9.281332E+05  2.780768E+04  1.190890E+05
        11   8  1.959141E+05  1.105629E+05  1.714262E+05 -7.828645E+05 -1.876897E+04  4.723559E+04
        11   9  4.461311E+05  1.176558E+06  4.272936E+05 -9.201157E+05 -1.184032E+04 -2.456234E+04
        11  10  7.124600E+04 -4.045068E+05  4.503515E+04 -9.244591E+05  3.970166E-10 -2.177132E-08
        11  11 -1.891830E+05 -1.456342E+06 -1.864218E+05 -7.872721E+05  8.133408E-10 -1.065757E-08
        11  12 -4.756452E+05 -2.526332E+06 -4.770342E+05 -9.326627E+05  5.148044E-10  2.233469E-09
        11  13  8.629595E+03 -6.759116E+05  3.373657E+03 -9.262980E+05  1.391208E-10 -3.974770E-11
        11  14  3.386370E+03 -6.731756E+05 -7.480165E+03 -7.850699E+05  1.554509E-09  3.449871E-11
        11  15 -1.463064E+04 -6.764522E+05 -2.474603E+04 -9.264018E+05  3.499172E-10  2.494903E-12
        11  16 -5.399036E+04 -9.472426E+05 -3.828945E+04 -9.281359E+05 -1.201150E-09  2.170890E-08
        11  17  1.959132E+05  1.105604E+05  1.714213E+05 -7.828638E+05  2.676458E-09  1.070724E-08
        11  18  4.461308E+05  1.176557E+06  4.272922E+05 -9.201160E+05  9.236818E-10 -2.300899E-09
        11  19  7.124905E+04 -4.044980E+05  4.505180E+04 -9.244612E+05 -2.893246E+04  8.959437E+04
        11  20 -1.891826E+05 -1.456342E+06 -1.864210E+05 -7.872720E+05  1.847977E+04  9.970523E+03
        11  21 -4.756437E+05 -2.526327E+06 -4.770248E+05 -9.326634E+05  1.232325E+04 -6.969197E+04
        11  22  8.630519E+03 -6.759112E+05  3.375582E+03 -9.262976E+05 -2.837046E+04 -1.476928E+04
        11  23  3.386835E+03 -6.731751E+05 -7.478864E+03 -7.850702E+05  1.862453E+04 -1.861463E+04
        11  24 -1.463035E+04 -6.764517E+05 -2.474479E+04 -9.264020E+05  1.208109E+04 -2.263503E+04
        11  25 -5.398570E+04 -9.472272E+05 -3.826128E+04 -9.281332E+05 -2.780768E+04 -1.190890E+05
        11  26  1.959141E+05  1.105629E+05  1.714262E+05 -7.828645E+05  1.876897E+04 -4.723559E+04
        11  27  4.461311E+05  1.176558E+06  4.272936E+05 -9.201157E+05  1.184032E+04  2.456234E+04
        12   1 -2.656375E+06 -6.776837E+05 -2.868608E+05 -1.031488E+06 -1.756768E+05 -6.527669E+04
        12   2 -2.625056E+06 -4.127756E+05 -1.254713E+05 -1.031991E+06 -1.106392E+05 -4.023784E+04
        12   3 -2.669875E+06 -3.549002E+05 -6.737764E+04 -9.902099E+05 -4.496733E+04 -1.688030E+04
        12   4 -2.676946E+06 -5.868143E+05 -2.730801E+05 -9.355152E+05 -1.743476E+05 -6.481358E+04
        12   5 -2.624050E+06 -3.779766E+05 -1.190031E+05 -9.961365E+05 -1.108718E+05 -4.033279E+04
        12   6 -2.646982E+06 -3.758786E+05 -6.698337E+04 -1.014478E+06 -4.675858E+04 -1.754920E+04
        12   7 -2.697493E+06 -4.958967E+05 -2.592934E+05 -8.395409E+05 -1.730184E+05 -6.434996E+04
        12   8 -2.623041E+06 -3.431713E+05 -1.125342E+05 -9.602809E+05 -1.111043E+05 -4.042778E+04
        12   9 -2.624087E+06 -3.968534E+05 -6.658850E+04 -1.038746E+06 -4.854992E+04 -1.821791E+04
        12  10 -2.656409E+06 -6.776966E+05 -2.869271E+05 -1.031498E+06 -1.447821E-08 -6.376588E-09
        12  11 -2.625070E+06 -4.127807E+05 -1.254974E+05 -1.031995E+06 -1.754584E-09 -1.907695E-09
        12  12 -2.669877E+06 -3.549011E+05 -6.738200E+04 -9.902105E+05  9.009939E-09  5.707051E-09
        12  13 -2.676980E+06 -5.868270E+05 -2.731454E+05 -9.355244E+05  2.968159E-10 -8.667141E-10
        12  14 -2.624064E+06 -3.779817E+05 -1.190294E+05 -9.961401E+05 -5.976019E-09 -2.468790E-09
        12  15 -2.646985E+06 -3.758796E+05 -6.698808E+04 -1.014478E+06 -7.376645E-09 -1.511784E-09
        12  16 -2.697527E+06 -4.959092E+05 -2.593578E+05 -8.395499E+05  1.362176E-08  4.594638E-09
        12  17 -2.623055E+06 -3.431764E+05 -1.125606E+05 -9.602846E+05 -7.417020E-09 -2.772577E-09
        12  18 -2.624090E+06 -3.968543E+05 -6.659358E+04 -1.038747E+06 -2.506444E-08 -8.663991E-09
        12  19 -2.656375E+06 -6.776837E+05 -2.868608E+05 -1.031488E+06  1.756768E+05  6.527669E+04
        12  20 -2.625056E+06 -4.127756E+05 -1.254713E+05 -1.031991E+06  1.106392E+05  4.023784E+04
        12  21 -2.669875E+06 -3.549002E+05 -6.737764E+04 -9.902099E+05  4.496733E+04  1.688030E+04
        12  22 -2.676946E+06 -5.868143E+05 -2.730801E+05 -9.355152E+05  1.743476E+05  6.481358E+04
        12  23 -2.624050E+06 -3.779766E+05 -1.190031E+05 -9.961365E+05  1.108718E+05  4.033279E+04
        12  24 -2.646982E+06 -3.758786E+05 -6.698337E+04 -1.014478E+06  4.675858E+04  1.754920E+04
        12  25 -2.697493E+06 -4.958967E+05 -2.592934E+05 -8.395409E+05  1.730184E+05  6.434996E+04
        12  26 -2.623041E+06 -3.431713E+05 -1.125342E+05 -9.602809E+05  1.111043E+05  4.042778E+04
        12  27 -2.624087E+06 -3.968534E+05 -6.658850E+04 -1.038746E+06  4.854992E+04  1.821791E+04
        13   1 -2.616681E+06 -3.908169E+05 -4.837197E+04 -1.000588E+06 -3.666839E+04 -1.495892E+04
        13   2 -2.593934E+06 -3.642192E+05 -1.694367E+04 -9.903836E+05 -2.223073E+04 -1.119363E+04
        13   3 -2.569864E+06 -3.565541E+05  1.022154E+03 -9.862765E+05 -7.765391E+03 -7.498975E+03
        13   4 -2.638437E+06 -3.949437E+05 -5.286525E+04 -1.002451E+06 -3.796044E+04 -1.544367E+04
        13   5 -2.638280E+06 -3.797385E+05 -2.730340E+04 -1.001550E+06 -2.358847E+04 -1.170279E+04
        13   6 -2.636788E+06 -3.834533E+05 -1.515164E+04 -1.006745E+06 -9.189412E+03 -8.032946E+03
        13   7 -2.660192E+06 -3.990706E+05 -5.735853E+04 -1.004315E+06 -3.925244E+04 -1.592842E+04
        13   8 -2.682623E+06 -3.952576E+05 -3.766319E+04 -1.012715E+06 -2.494609E+04 -1.221192E+04
        13   9 -2.703706E+06 -4.103517E+05 -3.132557E+04 -1.027211E+06 -1.061325E+04 -8.566837E+03
        13  10 -2.616683E+06 -3.908175E+05 -4.837493E+04 -1.000588E+06 -7.810676E-09  1.127514E-09
        13  11 -2.593935E+06 -3.642194E+05 -1.694484E+04 -9.903838E+05 -8.745093E-10  1.674948E-09
        13  12 -2.569864E+06 -3.565542E+05  1.021934E+03 -9.862766E+05  2.848016E-09  5.565084E-10
        13  13 -2.638439E+06 -3.949444E+05 -5.286842E+04 -1.002452E+06 -8.631983E-09 -1.359505E-10
        13  14 -2.638281E+06 -3.797388E+05 -2.730471E+04 -1.001550E+06 -1.237095E-09  5.143973E-10
        13  15 -2.636788E+06 -3.834534E+05 -1.515192E+04 -1.006745E+06 -7.417676E-10 -4.323932E-10
        13  16 -2.660194E+06 -3.990713E+05 -5.736192E+04 -1.004316E+06 -5.003493E-09 -1.459238E-09
        13  17 -2.682624E+06 -3.952580E+05 -3.766465E+04 -1.012715E+06  1.941734E-09 -4.086055E-10
        13  18 -2.703706E+06 -4.103518E+05 -3.132592E+04 -1.027212E+06  1.112283E-09 -1.303328E-09
        13  19 -2.616681E+06 -3.908169E+05 -4.837197E+04 -1.000588E+06  3.666839E+04  1.495892E+04
        13  20 -2.593934E+06 -3.642192E+05 -1.694367E+04 -9.903836E+05  2.223073E+04  1.119363E+04
        13  21 -2.569864E+06 -3.565541E+05  1.022154E+03 -9.862765E+05  7.765391E+03  7.498975E+03
        13  22 -2.638437E+06 -3.949437E+05 -5.286525E+04 -1.002451E+06  3.796044E+04  1.544367E+04
        13  23 -2.638280E+06 -3.797385E+05 -2.730340E+04 -1.001550E+06  2.358847E+04  1.170279E+04
        13  24 -2.636788E+06 -3.834533E+05 -1.515164E+04 -1.006745E+06  9.189412E+03  8.032946E+03
        13  25 -2.660192E+06 -3.990706E+05 -5.735853E+04 -1.004315E+06  3.925244E+04  1.592842E+04
        13  26 -2.682623E+06 -3.952576E+05 -3.766319E+04 -1.012715E+06  2.494609E+04  1.221192E+04
        13  27 -2.703706E+06 -4.103517E+05 -3.132557E+04 -1.027211E+06  1.061325E+04  8.566837E+03
        14   1 -2.547684E+06 -3.514171E+05  9.598505E+03 -9.815934E+05 -5.326535E+03 -7.608104E+03
        14   2 -2.526589E+06 -3.380714E+05  2.050738E+04 -9.708065E+05 -1.608437E+03 -7.943250E+03
        14   3 -2.498851E+06 -3.327196E+05  2.889288E+04 -9.683504E+05  2.106719E+03 -8.269482E+03
        14   4 -2.636088E+06 -3.844234E+05 -1.151813E+04 -1.005968E+06 -6.721558E+03 -8.131290E+03
        14   5 -2.639369E+06 -3.801536E+05 -6.321370E+03 -1.001904E+06 -2.995802E+03 -8.463691E+03
        14   6 -2.636008E+06 -3.838794E+05 -3.654013E+03 -1.006171E+06  7.268693E+02 -8.787227E+03
        14   7 -2.724486E+06 -4.174296E+05 -3.263562E+04 -1.030340E+06 -8.116381E+03 -8.654399E+03
        14   8 -2.752137E+06 -4.222353E+05 -3.315131E+04 -1.032996E+06 -4.382905E+03 -8.984032E+03
        14   9 -2.773147E+06 -4.350382E+05 -3.620249E+04 -1.043983E+06 -6.526567E+02 -9.304849E+03
        14  10 -2.547684E+06 -3.514171E+05  9.598342E+03 -9.815935E+05  1.133255E-09 -1.109415E-09
        14  11 -2.526589E+06 -3.380714E+05  2.050725E+04 -9.708065E+05  2.692872E-09 -3.067507E-10
        14  12 -2.498851E+06 -3.327197E+05  2.889274E+04 -9.683504E+05  1.820575E-09  5.065263E-10
        14  13 -2.636088E+06 -3.844235E+05 -1.151834E+04 -1.005968E+06  1.923158E-10 -8.342269E-10
        14  14 -2.639369E+06 -3.801537E+05 -6.321522E+03 -1.001904E+06  1.572162E-09  1.249435E-11
        14  15 -2.636008E+06 -3.838795E+05 -3.654159E+03 -1.006170E+06 -1.513127E-09  6.547950E-10
        14  16 -2.724486E+06 -4.174297E+05 -3.263589E+04 -1.030340E+06  1.283061E-09 -5.997762E-10
        14  17 -2.752137E+06 -4.222354E+05 -3.315150E+04 -1.032996E+06 -9.124752E-10 -1.310271E-11
        14  18 -2.773147E+06 -4.350383E+05 -3.620266E+04 -1.043983E+06  6.535037E-10  6.810964E-10
        14  19 -2.547684E+06 -3.514171E+05  9.598505E+03 -9.815934E+05  5.326535E+03  7.608104E+03
        14  20 -2.526589E+06 -3.380714E+05  2.050738E+04 -9.708065E+05  1.608437E+03  7.943250E+03
        14  21 -2.498851E+06 -3.327196E+05  2.889288E+04 -9.683504E+05 -2.106719E+03  8.269482E+03
        14  22 -2.636088E+06 -3.844234E+05 -1.151813E+04 -1.005968E+06  6.721558E+03  8.131290E+03
        14  23 -2.639369E+06 -3.801536E+05 -6.321370E+03 -1.001904E+06  2.995802E+03  8.463691E+03
        14  24 -2.636008E+06 -3.838794E+05 -3.654013E+03 -1.006171E+06 -7.268693E+02  8.787227E+03
        14  25 -2.724486E+06 -4.174296E+05 -3.263562E+04 -1.030340E+06  8.116381E+03  8.654399E+03
        14  26 -2.752137E+06 -4.222353E+05 -3.315131E+04 -1.032996E+06  4.382905E+03  8.984032E+03
        14  27 -2.773147E+06 -4.350382E+05 -3.620249E+04 -1.043983E+06  6.526567E+02  9.304849E+03
        15   1 -2.479122E+06 -3.254763E+05  3.448922E+04 -9.629671E+05  2.959326E+03 -8.943211E+03
        15   2 -2.458858E+06 -3.131247E+05  4.092839E+04 -9.524128E+05  4.490351E+03 -1.005708E+04
        15   3 -2.431637E+06 -3.079174E+05  4.663232E+04 -9.500071E+05  6.015289E+03 -1.115348E+04
        15   4 -2.635966E+06 -3.838732E+05 -2.884209E+03 -1.006063E+06  1.592903E+03 -9.456011E+03
        15   5 -2.639443E+06 -3.802958E+05 -1.992512E+03 -1.001990E+06  3.139602E+03 -1.056418E+04
        15   6 -2.635966E+06 -3.838660E+05 -1.848649E+03 -1.006066E+06  4.680180E+03 -1.165489E+04
        15   7 -2.792784E+06 -4.422677E+05 -4.025897E+04 -1.049148E+06  2.268711E+02 -9.968664E+03
        15   8 -2.819995E+06 -4.474643E+05 -4.491558E+04 -1.051553E+06  1.789286E+03 -1.107112E+04
        15   9 -2.840255E+06 -4.598119E+05 -5.033279E+04 -1.062108E+06  3.345546E+03 -1.215612E+04
        15  10 -2.479122E+06 -3.254764E+05  3.448905E+04 -9.629671E+05  1.977683E-09  6.761526E-10
        15  11 -2.458858E+06 -3.131248E+05  4.092816E+04 -9.524127E+05  3.324040E-09  1.286453E-10
        15  12 -2.431637E+06 -3.079176E+05  4.663202E+04 -9.500071E+05  1.727844E-09  6.189499E-10
        15  13 -2.635966E+06 -3.838733E+05 -2.884382E+03 -1.006063E+06  2.097982E-09  5.954567E-10
        15  14 -2.639443E+06 -3.802959E+05 -1.992740E+03 -1.001990E+06  5.294791E-10  1.094746E-10
        15  15 -2.635966E+06 -3.838662E+05 -1.848945E+03 -1.006066E+06  3.197286E-09  5.933113E-10
        15  16 -2.792784E+06 -4.422678E+05 -4.025916E+04 -1.049148E+06 -2.154083E-09  1.297324E-10
        15  17 -2.819995E+06 -4.474645E+05 -4.491581E+04 -1.051553E+06 -2.604251E-09  1.322775E-10
        15  18 -2.840255E+06 -4.598120E+05 -5.033309E+04 -1.062108E+06  1.854723E-09  4.985366E-10
        15  19 -2.479122E+06 -3.254763E+05  3.448922E+04 -9.629671E+05 -2.959326E+03  8.943211E+03
        15  20 -2.458858E+06 -3.131247E+05  4.092839E+04 -9.524128E+05 -4.490351E+03  1.005708E+04
        15  21 -2.431637E+06 -3.079174E+05  4.663232E+04 -9.500071E+05 -6.015289E+03  1.115348E+04
        15  22 -2.635966E+06 -3.838732E+05 -2.884209E+03 -1.006063E+06 -1.592903E+03  9.456011E+03
        15  23 -2.639443E+06 -3.802958E+05 -1.992512E+03 -1.001990E+06 -3.139602E+03  1.056418E+04
        15  24 -2.635966E+06 -3.838660E+05 -1.848649E+03 -1.006066E+06 -4.680180E+03  1.165489E+04
        15  25 -2.792784E+06 -4.422677E+05 -4.025897E+04 -1.049148E+06 -2.268711E+02  9.968664E+03
        15  26 -2.819995E+06 -4.474643E+05 -4.491558E+04 -1.051553E+06 -1.789286E+03  1.107112E+04
        15  27 -2.840255E+06 -4.598119E+05 -5.033279E+04 -1.062108E+06 -3.345546E+03  1.215612E+04
        16   1 -2.412765E+06 -3.007943E+05  5.112795E+04 -9.447624E+05  6.633973E+03 -1.188053E+04
        16   2 -2.393307E+06 -2.889596E+05  5.552520E+04 -9.346403E+05  8.604996E+03 -1.276275E+04
        16   3 -2.367245E+06 -2.840145E+05  5.883785E+04 -9.323400E+05  1.056709E+04 -1.361960E+04
        16   4 -2.636047E+06 -3.838033E+05 -2.016277E+03 -1.005997E+06  5.316810E+03 -1.237533E+04
        16   5 -2.639351E+06 -3.803721E+05 -2.933511E+03 -1.002081E+06  7.310440E+03 -1.324930E+04
        16   6 -2.636056E+06 -3.838349E+05 -4.953584E+03 -1.005987E+06  9.295088E+03 -1.409792E+04
        16   7 -2.859278E+06 -4.668084E+05 -5.516375E+04 -1.067211E+06  4.000171E+03 -1.286994E+04
        16   8 -2.885335E+06 -4.717802E+05 -6.139655E+04 -1.069497E+06  6.016444E+03 -1.373565E+04
        16   9 -2.904796E+06 -4.836508E+05 -6.875056E+04 -1.079605E+06  8.023682E+03 -1.457602E+04
        16  10 -2.412765E+06 -3.007944E+05  5.112760E+04 -9.447624E+05  9.326601E-10  1.878241E-10
        16  11 -2.393307E+06 -2.889598E+05  5.552475E+04 -9.346402E+05  1.003412E-08  3.507243E-09
        16  12 -2.367245E+06 -2.840147E+05  5.883729E+04 -9.323399E+05  1.568403E-08  8.173336E-09
        16  13 -2.636047E+06 -3.838035E+05 -2.016617E+03 -1.005997E+06  4.620300E-09  6.217951E-10
        16  14 -2.639351E+06 -3.803723E+05 -2.933941E+03 -1.002081E+06  4.713230E-09  6.261850E-10
        16  15 -2.636056E+06 -3.838352E+05 -4.954119E+03 -1.005987E+06  9.283486E-10  2.024898E-09
        16  16 -2.859278E+06 -4.668086E+05 -5.516409E+04 -1.067211E+06  5.799944E-09  9.395338E-10
        16  17 -2.885335E+06 -4.717804E+05 -6.139697E+04 -1.069497E+06 -2.719679E-09 -2.281347E-09
        16  18 -2.904797E+06 -4.836510E+05 -6.875108E+04 -1.079605E+06 -1.278574E-08 -4.129898E-09
        16  19 -2.412765E+06 -3.007943E+05  5.112795E+04 -9.447624E+05 -6.633973E+03  1.188053E+04
        16  20 -2.393307E+06 -2.889596E+05  5.552520E+04 -9.346403E+05 -8.604996E+03  1.276275E+04
        16  21 -2.367245E+06 -2.840145E+05  5.883785E+04 -9.323400E+05 -1.056709E+04  1.361960E+04
        16  22 -2.636047E+06 -3.838033E+05 -2.016277E+03 -1.005997E+06 -5.316810E+03  1.237533E+04
        16  23 -2.639351E+06 -3.803721E+05 -2.933511E+03 -1.002081E+06 -7.310440E+03  1.324930E+04
        16  24 -2.636056E+06 -3.838349E+05 -4.953584E+03 -1.005987E+06 -9.295088E+03  1.409792E+04
        16  25 -2.859278E+06 -4.668084E+05 -5.516375E+04 -1.067211E+06 -4.000171E+03  1.286994E+04
        16  26 -2.885335E+06 -4.717802E+05 -6.139655E+04 -1.069497E+06 -6.016444E+03  1.373565E+04
        16  27 -2.904796E+06 -4.836508E+05 -6.875056E+04 -1.079605E+06 -8.023682E+03  1.457602E+04
        17   1 -2.349349E+06 -2.772764E+05  6.172546E+04 -9.275751E+05  1.179551E+04 -1.407258E+04
        17   2 -2.330677E+06 -2.659160E+05  6.160762E+04 -9.177835E+05  1.805756E+04 -1.324684E+04
        17   3 -2.306764E+06 -2.622657E+05  5.687710E+04 -9.152692E+05  2.429951E+04 -1.236553E+04
        17   4 -2.636315E+06 -3.836799E+05 -6.499005E+03 -1.005995E+06  1.054020E+04 -1.454479E+04
        17   5 -2.639011E+06 -3.803383E+05 -1.162916E+04 -1.002164E+06  1.685031E+04 -1.370127E+04
        17   6 -2.636477E+06 -3.847174E+05 -2.141191E+04 -1.005612E+06  2.314007E+04 -1.280227E+04
        17   7 -2.923199E+06 -4.900775E+05 -7.472935E+04 -1.084381E+06  9.285526E+03 -1.501676E+04
        17   8 -2.947250E+06 -4.947536E+05 -8.487250E+04 -1.086506E+06  1.564371E+04 -1.415546E+04
        17   9 -2.966081E+06 -5.071607E+05 -9.970819E+04 -1.095910E+06  2.198130E+04 -1.323875E+04
        17  10 -2.349349E+06 -2.772766E+05  6.172483E+04 -9.275749E+05  5.318775E-09  4.591982E-09
        17  11 -2.330677E+06 -2.659162E+05  6.160667E+04 -9.177833E+05 -2.933845E-09 -2.671753E-10
        17  12 -2.306764E+06 -2.622660E+05  5.687570E+04 -9.152690E+05 -1.198730E-08 -5.050462E-09
        17  13 -2.636315E+06 -3.836801E+05 -6.499611E+03 -1.005995E+06  1.187559E-09  3.019856E-09
        17  14 -2.639012E+06 -3.803386E+05 -1.163005E+04 -1.002164E+06 -1.363051E-09  3.234788E-09
        17  15 -2.636478E+06 -3.847177E+05 -2.141323E+04 -1.005611E+06 -1.736964E-10  5.073223E-10
        17  16 -2.923199E+06 -4.900778E+05 -7.472994E+04 -1.084381E+06 -3.064358E-09  1.618846E-09
        17  17 -2.947250E+06 -4.947539E+05 -8.487333E+04 -1.086506E+06  5.085744E-09  6.365056E-09
        17  18 -2.966081E+06 -5.071611E+05 -9.970943E+04 -1.095909E+06  1.309609E-08  5.767403E-09
        17  19 -2.349349E+06 -2.772764E+05  6.172546E+04 -9.275751E+05 -1.179551E+04  1.407258E+04
        17  20 -2.330677E+06 -2.659160E+05  6.160762E+04 -9.177835E+05 -1.805756E+04  1.324684E+04
        17  21 -2.306764E+06 -2.622657E+05  5.687710E+04 -9.152692E+05 -2.429951E+04  1.236553E+04
        17  22 -2.636315E+06 -3.836799E+05 -6.499005E+03 -1.005995E+06 -1.054020E+04  1.454479E+04
        17  23 -2.639011E+06 -3.803383E+05 -1.162916E+04 -1.002164E+06 -1.685031E+04  1.370127E+04
        17  24 -2.636477E+06 -3.847174E+05 -2.141191E+04 -1.005612E+06 -2.314007E+04  1.280227E+04
        17  25 -2.923199E+06 -4.900775E+05 -7.472935E+04 -1.084381E+06 -9.285526E+03  1.501676E+04
        17  26 -2.947250E+06 -4.947536E+05 -8.487250E+04 -1.086506E+06 -1.564371E+04  1.415546E+04
        17  27 -2.966081E+06 -5.071607E+05 -9.970819E+04 -1.095910E+06 -2.198130E+04  1.323875E+04
        18   1 -2.288756E+06 -2.565922E+05  5.419273E+04 -9.148687E+05  2.869820E+04 -1.161990E+04
        18   2 -2.271933E+06 -2.421096E+05  3.618861E+04 -8.995444E+05  5.438408E+04 -3.221697E+03
        18   3 -2.260350E+06 -2.549256E+05 -6.393914E+03 -8.865110E+05  7.984765E+04  5.770752E+03
        18   4 -2.637931E+06 -3.827556E+05 -2.821901E+04 -1.006886E+06  2.740419E+04 -1.210725E+04
        18   5 -2.636807E+06 -3.797780E+05 -5.094868E+04 -1.001720E+06  5.362014E+04 -3.510352E+03
        18   6 -2.641035E+06 -4.042142E+05 -9.868954E+04 -9.988455E+05  7.961295E+04  5.680107E+03
        18   7 -2.986986E+06 -5.089128E+05 -1.106399E+05 -1.098858E+06  2.611097E+04 -1.259433E+04
        18   8 -3.001549E+06 -5.174361E+05 -1.380959E+05 -1.103841E+06  5.285668E+04 -3.798821E+03
        18   9 -3.021576E+06 -5.534881E+05 -1.909959E+05 -1.111115E+06  7.937840E+04  5.589524E+03
        18  10 -2.288756E+06 -2.565925E+05  5.419092E+04 -9.148684E+05 -1.246928E-09 -1.006631E-09
        18  11 -2.271936E+06 -2.421104E+05  3.618301E+04 -8.995443E+05 -4.929679E-10 -9.479205E-10
        18  12 -2.260357E+06 -2.549274E+05 -6.406003E+03 -8.865114E+05  2.032330E-09 -1.422348E-09
        18  13 -2.637932E+06 -3.827559E+05 -2.822070E+04 -1.006886E+06  9.626566E-11 -6.255565E-10
        18  14 -2.636810E+06 -3.797787E+05 -5.095413E+04 -1.001720E+06 -2.149858E-09 -8.219315E-10
        18  15 -2.641042E+06 -4.042159E+05 -9.870156E+04 -9.988458E+05  1.043998E-10 -1.266421E-09
        18  16 -2.986987E+06 -5.089131E+05 -1.106414E+05 -1.098858E+06  1.170436E-09 -5.986811E-10
        18  17 -3.001552E+06 -5.174369E+05 -1.381012E+05 -1.103841E+06 -9.225077E-10 -1.026347E-09
        18  18 -3.021582E+06 -5.534898E+05 -1.910079E+05 -1.111116E+06 -1.044834E-09 -2.113641E-10
        18  19 -2.288756E+06 -2.565922E+05  5.419273E+04 -9.148687E+05 -2.869820E+04  1.161990E+04
        18  20 -2.271933E+06 -2.421096E+05  3.618861E+04 -8.995444E+05 -5.438408E+04  3.221697E+03
        18  21 -2.260350E+06 -2.549256E+05 -6.393914E+03 -8.865110E+05 -7.984765E+04 -5.770752E+03
        18  22 -2.637931E+06 -3.827556E+05 -2.821901E+04 -1.006886E+06 -2.740419E+04  1.210725E+04
        18  23 -2.636807E+06 -3.797780E+05 -5.094868E+04 -1.001720E+06 -5.362014E+04  3.510352E+03
        18  24 -2.641035E+06 -4.042142E+05 -9.868954E+04 -9.988455E+05 -7.961295E+04 -5.680107E+03
        18  25 -2.986986E+06 -5.089128E+05 -1.106399E+05 -1.098858E+06 -2.611097E+04  1.259433E+04
        18  26 -3.001549E+06 -5.174361E+05 -1.380959E+05 -1.103841E+06 -5.285668E+04  3.798821E+03
        18  27 -3.021576E+06 -5.534881E+05 -1.909959E+05 -1.111115E+06 -7.937840E+04 -5.589524E+03
        19   1 -2.215003E+06 -2.590776E+05 -2.959728E+04 -9.565096E+05  9.980020E+04  1.125107E+04
        19   2 -2.238021E+06 -1.732988E+05 -1.205794E+05 -8.231427E+05  2.065668E+05  5.385179E+04
        19   3 -2.409192E+06 -4.620126E+05 -3.929727E+05 -6.004675E+05  3.086428E+05  1.089271E+05
        19   4 -2.657129E+06 -3.684730E+05 -1.250521E+05 -1.021139E+06  9.596033E+04  9.814786E+03
        19   5 -2.610029E+06 -3.767230E+05 -2.221703E+05 -9.918590E+05  2.140782E+05  5.665260E+04
        19   6 -2.713482E+06 -7.619276E+05 -5.098101E+05 -8.732259E+05  3.275147E+05  1.159208E+05
        19   7 -3.099054E+06 -4.778721E+05 -2.205159E+05 -1.085738E+06  9.212346E+04  8.378770E+03
        19   8 -2.981886E+06 -5.800811E+05 -3.237713E+05 -1.160466E+06  2.215846E+05  5.944958E+04
        19   9 -3.017594E+06 -1.061579E+06 -6.266410E+05 -1.145811E+06  3.463767E+05  1.228965E+05
        19  10 -2.215014E+06 -2.590804E+05 -2.961631E+04 -9.565105E+05  7.517042E-10 -1.044973E-09
        19  11 -2.238068E+06 -1.733135E+05 -1.206654E+05 -8.231516E+05  8.261684E-10 -2.304063E-10
        19  12 -2.409298E+06 -4.620511E+05 -3.931748E+05 -6.004947E+05 -1.492164E-09  1.447599E-10
        19  13 -2.657139E+06 -3.684756E+05 -1.250697E+05 -1.021140E+06  2.092361E-11 -5.053687E-10
        19  14 -2.610079E+06 -3.767388E+05 -2.222629E+05 -9.918688E+05  8.748568E-10 -3.284247E-10
        19  15 -2.713601E+06 -7.619710E+05 -5.100380E+05 -8.732566E+05 -2.632185E-10 -4.109841E-10
        19  16 -3.099063E+06 -4.778745E+05 -2.205320E+05 -1.085739E+06 -7.960198E-10 -1.393114E-10
        19  17 -2.981940E+06 -5.800981E+05 -3.238707E+05 -1.160477E+06  4.890871E-10 -1.111704E-09
        19  18 -3.017728E+06 -1.061627E+06 -6.268963E+05 -1.145845E+06 -9.562335E-10 -1.747215E-10
        19  19 -2.215003E+06 -2.590776E+05 -2.959728E+04 -9.565096E+05 -9.980020E+04 -1.125107E+04
        19  20 -2.238021E+06 -1.732988E+05 -1.205794E+05 -8.231427E+05 -2.065668E+05 -5.385179E+04
        19  21 -2.409192E+06 -4.620126E+05 -3.929727E+05 -6.004675E+05 -3.086428E+05 -1.089271E+05
        19  22 -2.657129E+06 -3.684730E+05 -1.250521E+05 -1.021139E+06 -9.596033E+04 -9.814786E+03
        19  23 -2.610029E+06 -3.767230E+05 -2.221703E+05 -9.918590E+05 -2.140782E+05 -5.665260E+04
        19  24 -2.713482E+06 -7.619276E+05 -5.098101E+05 -8.732259E+05 -3.275147E+05 -1.159208E+05
        19  25 -3.099054E+06 -4.778721E+05 -2.205159E+05 -1.085738E+06 -9.212346E+04 -8.378770E+03
        19  26 -2.981886E+06 -5.800811E+05 -3.237713E+05 -1.160466E+06 -2.215846E+05 -5.944958E+04
        19  27 -3.017594E+06 -1.061579E+06 -6.266410E+05 -1.145811E+06 -3.463767E+05 -1.228965E+05
        20   1 -6.722095E+05  3.313648E+04  3.944313E+04  1.643221E+04  2.714050E+04  7.191044E-01
        20   2 -6.766150E+05  7.210023E+02  1.809119E+04  5.907190E+03  1.758699E+04  1.675143E-01
        20   3 -6.722214E+05 -1.488046E+03  1.051583E+04 -4.617572E+03  8.033602E+03 -5.981362E-02
        20   4 -6.722098E+05  3.313597E+04  3.944306E+04  7.263873E-09  2.714050E+04  4.568720E-10
        20   5 -6.766151E+05  7.209366E+02  1.809118E+04  5.122226E-10  1.758699E+04  1.257840E-09
        20   6 -6.722215E+05 -1.488086E+03  1.051583E+04 -8.538262E-10  8.033602E+03  7.632076E-10
        20   7 -6.722095E+05  3.313648E+04  3.944313E+04 -1.643221E+04  2.714050E+04 -7.191044E-01
        20   8 -6.766150E+05  7.210023E+02  1.809119E+04 -5.907190E+03  1.758699E+04 -1.675143E-01
        20   9 -6.722214E+05 -1.488046E+03  1.051583E+04  4.617572E+03  8.033602E+03  5.981362E-02
        20  10 -6.722103E+05  3.313628E+04  3.944174E+04  1.643221E+04 -2.158103E-09  5.009113E-10
        20  11 -6.766153E+05  7.209191E+02  1.809061E+04  5.907190E+03 -2.425094E-09  1.117611E-09
        20  12 -6.722215E+05 -1.488063E+03  1.051571E+04 -4.617572E+03  1.531549E-09  2.696588E-10
        20  13 -6.722106E+05  3.313578E+04  3.944167E+04 -1.086900E-09  7.830261E-11  3.662063E-10
        20  14 -6.766154E+05  7.208535E+02  1.809060E+04  1.608850E-09  5.383480E-10  9.800649E-10
        20  15 -6.722215E+05 -1.488103E+03  1.051571E+04  5.404407E-10 -5.580610E-10  5.424131E-10
        20  16 -6.722103E+05  3.313628E+04  3.944174E+04 -1.643221E+04  1.412694E-09  2.277463E-10
        20  17 -6.766153E+05  7.209191E+02  1.809061E+04 -5.907190E+03 -6.624503E-10  7.746140E-10
        20  18 -6.722215E+05 -1.488063E+03  1.051571E+04  4.617572E+03 -9.646313E-10  8.108161E-10
        20  19 -6.722095E+05  3.313648E+04  3.944313E+04  1.643221E+04 -2.714050E+04 -7.191043E-01
        20  20 -6.766150E+05  7.210023E+02  1.809119E+04  5.907190E+03 -1.758699E+04 -1.675143E-01
        20  21 -6.722214E+05 -1.488046E+03  1.051583E+04 -4.617572E+03 -8.033602E+03  5.981362E-02
        20  22 -6.722098E+05  3.313597E+04  3.944306E+04  3.483712E-09 -2.714050E+04  2.710867E-10
        20  23 -6.766151E+05  7.209366E+02  1.809118E+04  5.531899E-10 -1.758699E+04  6.918493E-10
        20  24 -6.722215E+05 -1.488086E+03  1.051583E+04  8.506756E-10 -8.033602E+03  3.261525E-10
        20  25 -6.722095E+05  3.313648E+04  3.944313E+04 -1.643221E+04 -2.714050E+04  7.191044E-01
        20  26 -6.766150E+05  7.210023E+02  1.809119E+04 -5.907190E+03 -1.758699E+04  1.675143E-01
        20  27 -6.722214E+05 -1.488046E+03  1.051583E+04  4.617572E+03 -8.033602E+03 -5.981362E-02
        21   1 -6.740211E+05  1.635623E+03  8.316407E+03  5.607020E+02  6.563050E+03  5.933557E-03
        21   2 -6.743680E+05 -2.375301E+01  4.517898E+03  1.197408E+02  4.299676E+03  8.301449E-04
        21   3 -6.740225E+05 -9.384770E+01  2.591521E+03 -3.212276E+02  2.036274E+03 -1.054692E-03
        21   4 -6.740211E+05  1.635622E+03  8.316407E+03  2.689911E-09  6.563050E+03 -7.609670E-10
        21   5 -6.743680E+05 -2.375304E+01  4.517898E+03 -4.443084E-09  4.299676E+03 -2.118590E-09
        21   6 -6.740225E+05 -9.384789E+01  2.591521E+03  5.386783E-10  2.036274E+03  4.794789E-10
        21   7 -6.740211E+05  1.635623E+03  8.316407E+03 -5.607020E+02  6.563050E+03 -5.933558E-03
        21   8 -6.743680E+05 -2.375301E+01  4.517898E+03 -1.197408E+02  4.299676E+03 -8.301493E-04
        21   9 -6.740225E+05 -9.384770E+01  2.591521E+03  3.212276E+02  2.036274E+03  1.054693E-03
        21  10 -6.740211E+05  1.635611E+03  8.316326E+03  5.607020E+02  2.161302E-09 -1.594185E-09
        21  11 -6.743680E+05 -2.375798E+01  4.517863E+03  1.197408E+02  7.580198E-10 -2.954251E-09
        21  12 -6.740225E+05 -9.384881E+01  2.591513E+03 -3.212276E+02 -2.568519E-09  3.878526E-10
        21  13 -6.740211E+05  1.635611E+03  8.316326E+03  1.852142E-09 -2.056564E-09 -9.783801E-10
        21  14 -6.743680E+05 -2.375801E+01  4.517863E+03 -1.139457E-09 -7.908338E-10 -2.593155E-09
        21  15 -6.740225E+05 -9.384900E+01  2.591513E+03 -1.167413E-08 -1.193303E-10 -3.901803E-10
        21  16 -6.740211E+05  1.635611E+03  8.316326E+03 -5.607020E+02 -3.309469E-09 -3.730865E-10
        21  17 -6.743680E+05 -2.375798E+01  4.517863E+03 -1.197408E+02 -1.107671E-09 -2.235607E-09
        21  18 -6.740225E+05 -9.384881E+01  2.591513E+03  3.212276E+02  2.567737E-09 -1.203789E-09
        21  19 -6.740211E+05  1.635623E+03  8.316407E+03  5.607020E+02 -6.563050E+03 -5.933560E-03
        21  20 -6.743680E+05 -2.375301E+01  4.517898E+03  1.197408E+02 -4.299676E+03 -8.301508E-04
        21  21 -6.740225E+05 -9.384770E+01  2.591521E+03 -3.212276E+02 -2.036274E+03  1.054693E-03
        21  22 -6.740211E+05  1.635622E+03  8.316407E+03  1.030142E-09 -6.563050E+03 -1.187622E-09
        21  23 -6.743680E+05 -2.375304E+01  4.517898E+03 -8.611032E-09 -4.299676E+03 -3.055802E-09
        21  24 -6.740225E+05 -9.384789E+01  2.591521E+03 -1.259125E-08 -2.036274E+03 -1.259971E-09
        21  25 -6.740211E+05  1.635623E+03  8.316407E+03 -5.607020E+02 -6.563050E+03  5.933557E-03
        21  26 -6.743680E+05 -2.375301E+01  4.517898E+03 -1.197408E+02 -4.299676E+03  8.301447E-04
        21  27 -6.740225E+05 -9.384770E+01  2.591521E+03  3.212276E+02 -2.036274E+03 -1.054695E-03
        22   1 -6.741558E+05  6.206427E+01  1.973486E+03 -4.521994E+01  1.634242E+03 -1.191557E-04
        22   2 -6.742021E+05 -1.602084E+01  1.096251E+03 -4.210341E+01  1.091200E+03 -7.407885E-05
        22   3 -6.741561E+05 -8.203502E+00  5.943239E+02 -3.898689E+01  5.481590E+02 -3.445709E-05
        22   4 -6.741558E+05  6.206427E+01  1.973486E+03 -6.766460E-08  1.634242E+03  1.808874E-09
        22   5 -6.742021E+05 -1.602084E+01  1.096251E+03 -2.444533E-09  1.091200E+03  1.427339E-09
        22   6 -6.741561E+05 -8.203505E+00  5.943239E+02  6.976034E-08  5.481590E+02  1.502161E-09
        22   7 -6.741558E+05  6.206427E+01  1.973486E+03  4.521994E+01  1.634242E+03  1.191592E-04
        22   8 -6.742021E+05 -1.602084E+01  1.096251E+03  4.210341E+01  1.091200E+03  7.408148E-05
        22   9 -6.741561E+05 -8.203502E+00  5.943239E+02  3.898689E+01  5.481590E+02  3.446011E-05
        22  10 -6.741558E+05  6.206356E+01  1.973481E+03 -4.521994E+01  1.901763E-08  1.861734E-09
        22  11 -6.742021E+05 -1.602116E+01  1.096248E+03 -4.210341E+01  3.917810E-10  1.208496E-09
        22  12 -6.741561E+05 -8.203583E+00  5.943234E+02 -3.898689E+01 -2.034966E-08  1.903314E-09
        22  13 -6.741558E+05  6.206355E+01  1.973481E+03 -7.191108E-09 -2.161776E-09  1.255678E-09
        22  14 -6.742021E+05 -1.602116E+01  1.096248E+03 -2.585856E-10 -1.970535E-09  1.775169E-09
        22  15 -6.741561E+05 -8.203585E+00  5.943234E+02  6.148214E-09 -1.568164E-10  1.573732E-09
        22  16 -6.741558E+05  6.206356E+01  1.973481E+03  4.521994E+01 -1.899344E-08  6.633161E-10
        22  17 -6.742021E+05 -1.602116E+01  1.096248E+03  4.210341E+01 -3.917809E-10  2.380723E-09
        22  18 -6.741561E+05 -8.203583E+00  5.943234E+02  3.898689E+01  2.025587E-08  1.276318E-09
        22  19 -6.741558E+05  6.206427E+01  1.973486E+03 -4.521994E+01 -1.634242E+03  1.191594E-04
        22  20 -6.742021E+05 -1.602084E+01  1.096251E+03 -4.210341E+01 -1.091200E+03  7.408130E-05
        22  21 -6.741561E+05 -8.203502E+00  5.943239E+02 -3.898689E+01 -5.481590E+02  3.446087E-05
        22  22 -6.741558E+05  6.206427E+01  1.973486E+03  6.833175E-08 -1.634242E+03  7.104681E-10
        22  23 -6.742021E+05 -1.602084E+01  1.096251E+03 -2.373057E-09 -1.091200E+03  2.117269E-09
        22  24 -6.741561E+05 -8.203505E+00  5.943239E+02 -4.670971E-08 -5.481590E+02  1.660858E-09
        22  25 -6.741558E+05  6.206427E+01  1.973486E+03  4.521994E+01 -1.634242E+03 -1.191579E-04
        22  26 -6.742021E+05 -1.602084E+01  1.096251E+03  4.210341E+01 -1.091200E+03 -7.407705E-05
        22  27 -6.741561E+05 -8.203502E+00  5.943239E+02  3.898689E+01 -5.481590E+02 -3.445773E-05
        23   1 -6.741741E+05 -2.029801E+00  4.213823E+02 -2.341684E+01  4.565717E+02 -1.723748E-05
        23   2 -6.741798E+05 -2.600208E+00  1.591504E+02 -2.001623E+01  3.779000E+02 -1.219704E-05
        23   3 -6.741741E+05  1.275233E+00 -5.071206E+01 -1.661568E+01  2.992295E+02 -8.016999E-06
        23   4 -6.741741E+05 -2.029802E+00  4.213823E+02 -1.113577E-08  4.565717E+02  9.412515E-10
        23   5 -6.741798E+05 -2.600209E+00  1.591504E+02 -7.670150E-09  3.779000E+02 -5.270733E-10
        23   6 -6.741741E+05  1.275233E+00 -5.071206E+01 -2.052215E-09  2.992295E+02 -6.438121E-10
        23   7 -6.741741E+05 -2.029801E+00  4.213823E+02  2.341684E+01  4.565717E+02  1.723936E-05
        23   8 -6.741798E+05 -2.600208E+00  1.591504E+02  2.001623E+01  3.779000E+02  1.219590E-05
        23   9 -6.741741E+05  1.275234E+00 -5.071206E+01  1.661568E+01  2.992295E+02  8.015884E-06
        23  10 -6.741741E+05 -2.029857E+00  4.213819E+02 -2.341684E+01 -5.089347E-10  1.340644E-09
        23  11 -6.741798E+05 -2.600246E+00  1.591501E+02 -2.001623E+01 -2.592413E-11 -8.958892E-10
        23  12 -6.741741E+05  1.275209E+00 -5.071223E+01 -1.661568E+01 -1.547708E-09 -6.381126E-10
        23  13 -6.741741E+05 -2.029858E+00  4.213819E+02  3.396420E-09 -1.134412E-10  6.584562E-10
        23  14 -6.741798E+05 -2.600247E+00  1.591501E+02 -4.629314E-09 -2.031514E-09 -8.873341E-10
        23  15 -6.741741E+05  1.275209E+00 -5.071223E+01 -5.116177E-09  2.318865E-10 -9.685279E-10
        23  16 -6.741741E+05 -2.029857E+00  4.213819E+02  2.341684E+01  1.741104E-09  5.272636E-11
        23  17 -6.741798E+05 -2.600246E+00  1.591501E+02  2.001623E+01 -1.256015E-10 -8.772108E-10
        23  18 -6.741741E+05  1.275209E+00 -5.071223E+01  1.661568E+01 -1.663166E-10 -1.309295E-09
        23  19 -6.741741E+05 -2.029801E+00  4.213823E+02 -2.341684E+01 -4.565717E+02  1.724017E-05
        23  20 -6.741798E+05 -2.600208E+00  1.591504E+02 -2.001623E+01 -3.779000E+02  1.219549E-05
        23  21 -6.741741E+05  1.275234E+00 -5.071206E+01 -1.661568E+01 -2.992295E+02  8.015834E-06
        23  22 -6.741741E+05 -2.029802E+00  4.213823E+02  1.362925E-08 -4.565717E+02  3.683909E-10
        23  23 -6.741798E+05 -2.600209E+00  1.591504E+02 -9.130505E-09 -3.779000E+02 -1.266371E-09
        23  24 -6.741741E+05  1.275233E+00 -5.071206E+01  7.146809E-09 -2.992295E+02 -1.316855E-09
        23  25 -6.741741E+05 -2.029801E+00  4.213823E+02  2.341684E+01 -4.565717E+02 -1.723938E-05
        23  26 -6.741798E+05 -2.600208E+00  1.591504E+02  2.001623E+01 -3.779000E+02 -1.219797E-05
        23  27 -6.741741E+05  1.275234E+00 -5.071206E+01  1.661568E+01 -2.992295E+02 -8.018526E-06
        24   1 -6.741831E+05  9.822873E-01 -1.573947E+02 -1.748377E+01  3.181041E+02 -8.967582E-06
        24   2 -6.741687E+05  6.911112E+00 -4.166839E+02 -2.748459E+01  5.240176E+02 -2.322245E-05
        24   3 -6.741832E+05  4.186883E+00 -8.123017E+02 -3.748557E+01  7.299340E+02 -4.411831E-05
        24   4 -6.741831E+05  9.822867E-01 -1.573947E+02  1.739791E-09  3.181041E+02 -2.320577E-10
        24   5 -6.741687E+05  6.911111E+00 -4.166839E+02  2.011749E-09  5.240176E+02  1.764423E-10
        24   6 -6.741832E+05  4.186881E+00 -8.123017E+02  1.358677E-08  7.299340E+02  4.446693E-10
        24   7 -6.741831E+05  9.822873E-01 -1.573947E+02  1.748377E+01  3.181041E+02  8.967076E-06
        24   8 -6.741687E+05  6.911112E+00 -4.166839E+02  2.748459E+01  5.240176E+02  2.322268E-05
        24   9 -6.741832E+05  4.186883E+00 -8.123017E+02  3.748557E+01  7.299340E+02  4.411921E-05
        24  10 -6.741831E+05  9.822601E-01 -1.573949E+02 -1.748377E+01 -1.091901E-09 -1.398667E-10
        24  11 -6.741687E+05  6.911038E+00 -4.166845E+02 -2.748459E+01 -1.472805E-09  1.672475E-10
        24  12 -6.741832E+05  4.186740E+00 -8.123027E+02 -3.748557E+01  1.322780E-09  4.959184E-10
        24  13 -6.741831E+05  9.822595E-01 -1.573949E+02  1.901670E-09  1.681858E-11 -5.027266E-10
        24  14 -6.741687E+05  6.911037E+00 -4.166845E+02  3.179882E-09 -1.797762E-09  4.286770E-11
        24  15 -6.741832E+05  4.186737E+00 -8.123027E+02  1.219640E-09  1.097795E-10  2.972152E-10
        24  16 -6.741831E+05  9.822601E-01 -1.573949E+02  1.748377E+01  1.580691E-10 -8.844854E-10
        24  17 -6.741687E+05  6.911038E+00 -4.166845E+02  2.748459E+01  1.590427E-09  2.746198E-11
        24  18 -6.741832E+05  4.186740E+00 -8.123027E+02  3.748557E+01 -2.144929E-10  8.379498E-11
        24  19 -6.741831E+05  9.822873E-01 -1.573947E+02 -1.748377E+01 -3.181041E+02  8.967401E-06
        24  20 -6.741687E+05  6.911112E+00 -4.166839E+02 -2.748459E+01 -5.240176E+02  2.322275E-05
        24  21 -6.741832E+05  4.186883E+00 -8.123017E+02 -3.748557E+01 -7.299340E+02  4.411924E-05
        24  22 -6.741831E+05  9.822867E-01 -1.573947E+02  2.080367E-09 -3.181041E+02 -7.683942E-10
        24  23 -6.741687E+05  6.911111E+00 -4.166839E+02 -2.105769E-09 -5.240176E+02 -6.804859E-11
        24  24 -6.741832E+05  4.186881E+00 -8.123017E+02  6.907960E-09 -7.299340E+02  1.469463E-10
        24  25 -6.741831E+05  9.822873E-01 -1.573947E+02  1.748377E+01 -3.181041E+02 -8.968928E-06
        24  26 -6.741687E+05  6.911112E+00 -4.166839E+02  2.748459E+01 -5.240176E+02 -2.322294E-05
        24  27 -6.741832E+05  4.186883E+00 -8.123017E+02  3.748557E+01 -7.299340E+02 -4.411903E-05
        25   1 -6.742129E+05  1.514060E+01 -1.093076E+03 -6.482574E+01  9.018310E+02 -9.426449E-05
        25   2 -6.741319E+05  2.842085E+01 -1.938588E+03 -7.128599E+01  1.862088E+03 -2.140341E-04
        25   3 -6.742134E+05 -1.076246E+02 -3.447105E+03 -7.774624E+01  2.822344E+03 -3.538073E-04
        25   4 -6.742129E+05  1.514059E+01 -1.093076E+03  1.080713E-09  9.018310E+02  3.098392E-10
        25   5 -6.741319E+05  2.842084E+01 -1.938588E+03  2.510468E-09  1.862088E+03 -7.858747E-11
        25   6 -6.742134E+05 -1.076246E+02 -3.447105E+03  7.176581E-09  2.822344E+03  9.604342E-11
        25   7 -6.742129E+05  1.514060E+01 -1.093076E+03  6.482574E+01  9.018310E+02  9.426515E-05
        25   8 -6.741319E+05  2.842085E+01 -1.938588E+03  7.128599E+01  1.862088E+03  2.140338E-04
        25   9 -6.742134E+05 -1.076246E+02 -3.447105E+03  7.774624E+01  2.822344E+03  3.538074E-04
        25  10 -6.742129E+05  1.514038E+01 -1.093078E+03 -6.482574E+01  9.590743E-10  1.659471E-10
        25  11 -6.741319E+05  2.841991E+01 -1.938595E+03 -7.128599E+01  1.715552E-10 -7.212914E-10
        25  12 -6.742134E+05 -1.076267E+02 -3.447120E+03 -7.774624E+01 -2.209753E-09 -9.723010E-11
        25  13 -6.742129E+05  1.514037E+01 -1.093078E+03  9.493177E-10  2.258309E-09  1.222878E-10
        25  14 -6.741319E+05  2.841990E+01 -1.938595E+03  3.601867E-09  9.549141E-10 -1.297604E-10
        25  15 -6.742134E+05 -1.076267E+02 -3.447120E+03  4.654110E-09 -7.698458E-10  2.662111E-10
        25  16 -6.742129E+05  1.514038E+01 -1.093078E+03  6.482574E+01 -9.254371E-10  9.851099E-11
        25  17 -6.741319E+05  2.841991E+01 -1.938595E+03  7.128599E+01 -1.971933E-10  4.340364E-10
        25  18 -6.742134E+05 -1.076267E+02 -3.447120E+03  7.774624E+01  1.515212E-09  6.052821E-10
        25  19 -6.742129E+05  1.514060E+01 -1.093076E+03 -6.482574E+01 -9.018310E+02  9.426474E-05
        25  20 -6.741319E+05  2.842085E+01 -1.938588E+03 -7.128599E+01 -1.862088E+03  2.140328E-04
        25  21 -6.742134E+05 -1.076246E+02 -3.447105E+03 -7.774624E+01 -2.822344E+03  3.538072E-04
        25  22 -6.742129E+05  1.514059E+01 -1.093076E+03 -1.340698E-09 -9.018310E+02 -5.963205E-11
        25  23 -6.741319E+05  2.842084E+01 -1.938588E+03  2.540952E-09 -1.862088E+03 -1.585527E-10
        25  24 -6.742134E+05 -1.076246E+02 -3.447105E+03  1.181968E-08 -2.822344E+03  4.370739E-10
        25  25 -6.742129E+05  1.514060E+01 -1.093076E+03  6.482574E+01 -9.018310E+02 -9.426492E-05
        25  26 -6.741319E+05  2.842085E+01 -1.938588E+03  7.128599E+01 -1.862088E+03 -2.140330E-04
        25  27 -6.742134E+05 -1.076246E+02 -3.447105E+03  7.774624E+01 -2.822344E+03 -3.538063E-04
        26   1 -6.744446E+05  1.632124E+02 -4.515488E+03 -5.571369E+02  3.523690E+03 -3.165460E-03
        26   2 -6.738441E+05  4.140394E+01 -7.854158E+03  2.084222E+02  7.458564E+03  2.506547E-03
        26   3 -6.744468E+05 -2.840465E+03 -1.444662E+04  9.739720E+02  1.139336E+04  1.789267E-02
        26   4 -6.744446E+05  1.632119E+02 -4.515488E+03  3.273029E-09  3.523690E+03 -2.815078E-10
        26   5 -6.738441E+05  4.140386E+01 -7.854158E+03  2.741433E-09  7.458564E+03 -9.605078E-10
        26   6 -6.744468E+05 -2.840467E+03 -1.444662E+04  9.459601E-09  1.139336E+04  2.190465E-10
        26   7 -6.744446E+05  1.632124E+02 -4.515488E+03  5.571369E+02  3.523690E+03  3.165460E-03
        26   8 -6.738441E+05  4.140394E+01 -7.854158E+03 -2.084222E+02  7.458564E+03 -2.506549E-03
        26   9 -6.744468E+05 -2.840465E+03 -1.444662E+04 -9.739720E+02  1.139336E+04 -1.789267E-02
        26  10 -6.744446E+05  1.632091E+02 -4.515511E+03 -5.571369E+02 -7.673982E-10  3.087120E-10
        26  11 -6.738442E+05  4.138899E+01 -7.854262E+03  2.084222E+02 -6.148714E-10  2.772391E-10
        26  12 -6.744470E+05 -2.840500E+03 -1.444686E+04  9.739720E+02 -5.417974E-10  1.481826E-10
        26  13 -6.744446E+05  1.632085E+02 -4.515511E+03  4.156299E-09 -1.059859E-09  2.218428E-10
        26  14 -6.738442E+05  4.138890E+01 -7.854262E+03 -3.746003E-09  7.813371E-10 -2.790067E-10
        26  15 -6.744470E+05 -2.840502E+03 -1.444686E+04  2.352801E-09 -6.881062E-10 -2.066958E-11
        26  16 -6.744446E+05  1.632091E+02 -4.515511E+03  5.571369E+02 -1.390162E-09  1.279201E-10
        26  17 -6.738442E+05  4.138899E+01 -7.854262E+03 -2.084222E+02 -9.478014E-10 -7.626872E-10
        26  18 -6.744470E+05 -2.840500E+03 -1.444686E+04 -9.739720E+02 -4.491310E-10 -2.191793E-10
        26  19 -6.744446E+05  1.632124E+02 -4.515488E+03 -5.571369E+02 -3.523690E+03  3.165461E-03
        26  20 -6.738441E+05  4.140394E+01 -7.854158E+03  2.084222E+02 -7.458564E+03 -2.506547E-03
        26  21 -6.744468E+05 -2.840465E+03 -1.444662E+04  9.739720E+02 -1.139336E+04 -1.789267E-02
        26  22 -6.744446E+05  1.632119E+02 -4.515488E+03  3.946064E-09 -3.523690E+03  7.203955E-10
        26  23 -6.738441E+05  4.140386E+01 -7.854158E+03 -5.926707E-09 -7.458564E+03  4.460225E-10
        26  24 -6.744468E+05 -2.840467E+03 -1.444662E+04  6.269417E-09 -1.139336E+04 -2.747072E-10
        26  25 -6.744446E+05  1.632124E+02 -4.515488E+03  5.571369E+02 -3.523690E+03 -3.165460E-03
        26  26 -6.738441E+05  4.140394E+01 -7.854158E+03 -2.084222E+02 -7.458564E+03  2.506548E-03
        26  27 -6.744468E+05 -2.840465E+03 -1.444662E+04 -9.739720E+02 -1.139336E+04  1.789267E-02
        27   1 -6.775717E+05  2.584527E+03 -1.826446E+04 -8.018894E+03  1.394760E+04 -1.803404E-01
        27   2 -6.699416E+05 -1.251778E+03 -3.141565E+04  1.025903E+04  3.053939E+04  5.051727E-01
        27   3 -6.775905E+05 -5.754242E+04 -6.849008E+04  2.853690E+04  4.713146E+04  2.168670E+00
        27   4 -6.775718E+05  2.584406E+03 -1.826448E+04  1.187353E-08  1.394760E+04  5.066270E-10
        27   5 -6.699417E+05 -1.251976E+03 -3.141568E+04 -1.829456E-09  3.053939E+04 -3.044738E-10
        27   6 -6.775913E+05 -5.754395E+04 -6.849030E+04  2.104544E-09  4.713146E+04 -2.553343E-10
        27   7 -6.775717E+05  2.584527E+03 -1.826446E+04  8.018894E+03  1.394760E+04  1.803404E-01
        27   8 -6.699416E+05 -1.251778E+03 -3.141565E+04 -1.025903E+04  3.053939E+04 -5.051727E-01
        27   9 -6.775905E+05 -5.754242E+04 -6.849008E+04 -2.853690E+04  4.713146E+04 -2.168670E+00
        27  10 -6.775719E+05  2.584475E+03 -1.826483E+04 -8.018894E+03 -1.357319E-10  2.396067E-10
        27  11 -6.699426E+05 -1.252028E+03 -3.141740E+04  1.025903E+04  1.271223E-10  3.055074E-10
        27  12 -6.775928E+05 -5.754302E+04 -6.849426E+04  2.853690E+04  3.070052E-10  1.058660E-10
        27  13 -6.775720E+05  2.584354E+03 -1.826484E+04  5.435458E-09 -2.818322E-10  2.289337E-10
        27  14 -6.699427E+05 -1.252226E+03 -3.141743E+04 -5.075304E-09  7.169770E-10  2.743389E-10
        27  15 -6.775937E+05 -5.754455E+04 -6.849448E+04 -8.040640E-09  4.337154E-10  8.518038E-11
        27  16 -6.775719E+05  2.584475E+03 -1.826483E+04  8.018894E+03 -5.445976E-10  2.891790E-10
        27  17 -6.699426E+05 -1.252028E+03 -3.141740E+04 -1.025903E+04 -1.570948E-10  2.066664E-10
        27  18 -6.775928E+05 -5.754302E+04 -6.849426E+04 -2.853690E+04 -1.051104E-09  5.517486E-11
        27  19 -6.775717E+05  2.584527E+03 -1.826446E+04 -8.018894E+03 -1.394760E+04  1.803404E-01
        27  20 -6.699416E+05 -1.251778E+03 -3.141565E+04  1.025903E+04 -3.053939E+04 -5.051727E-01
        27  21 -6.775905E+05 -5.754242E+04 -6.849008E+04  2.853690E+04 -4.713146E+04 -2.168670E+00
        27  22 -6.775718E+05  2.584406E+03 -1.826448E+04  9.756936E-09 -1.394760E+04 -4.735367E-11
        27  23 -6.699417E+05 -1.251976E+03 -3.141568E+04 -6.169890E-09 -3.053939E+04  8.169831E-10
        27  24 -6.775913E+05 -5.754395E+04 -6.849030E+04  1.852225E-09 -4.713146E+04  4.257106E-10
        27  25 -6.775717E+05  2.584527E+03 -1.826446E+04  8.018894E+03 -1.394760E+04 -1.803404E-01
        27  26 -6.699416E+05 -1.251778E+03 -3.141565E+04 -1.025903E+04 -3.053939E+04  5.051727E-01
        27  27 -6.775905E+05 -5.754242E+04 -6.849008E+04 -2.853690E+04 -4.713146E+04  2.168670E+00
        28   1  6.563703E+05  2.215304E+06  6.950519E+05 -3.001578E+05  2.020946E+04  2.649435E+05
        28   2  3.381747E+05  1.919754E+06  4.441744E+05 -1.714070E+05  6.195850E+04  1.461611E+05
        28   3  2.587692E+05  1.699723E+06  3.302287E+05 -1.396032E+05  5.994122E+04  2.741978E+04
        28   4  2.528908E+05  5.886993E+05  3.021105E+05 -1.734626E+05  2.029352E+04  2.019380E+05
        28   5  5.285316E+03  5.547723E+05  1.431976E+05 -1.250921E+05  6.199499E+04  1.265037E+05
        28   6 -1.076329E+04  5.889728E+05  9.136490E+04 -1.736423E+05  5.991762E+04  5.105529E+04
        28   7 -1.507200E+05 -1.035451E+06 -9.099721E+04 -4.709889E+04  2.035211E+04  1.390961E+05
        28   8 -3.277210E+05 -8.084671E+05 -1.578911E+05 -7.887949E+04  6.202861E+04  1.068886E+05
        28   9 -2.803719E+05 -5.206170E+05 -1.475684E+05 -2.076192E+05  5.989142E+04  7.464913E+04
        28  10  6.563511E+05  2.215229E+06  6.949197E+05 -3.001621E+05 -1.136725E-11  2.525686E-11
        28  11  3.381649E+05  1.919730E+06  4.441271E+05 -1.714143E+05  1.793381E-09  7.029754E-10
        28  12  2.587652E+05  1.699722E+06  3.302205E+05 -1.396045E+05 -3.176485E-10  4.634565E-10
        28  13  2.528794E+05  5.886554E+05  3.020331E+05 -1.734659E+05 -4.273720E-11 -7.241058E-11
        28  14  5.276895E+03  5.547541E+05  1.431603E+05 -1.250985E+05  2.000356E-09 -1.607823E-10
        28  15 -1.076785E+04  5.889691E+05  9.135325E+04 -1.736447E+05 -1.361087E-10 -6.203683E-10
        28  16 -1.507256E+05 -1.035472E+06 -9.103441E+04 -4.710117E+04  9.952400E-10 -3.861922E-11
        28  17 -3.277282E+05 -8.084804E+05 -1.579199E+05 -7.888483E+04  6.625676E-10  5.467242E-11
        28  18 -2.803773E+05 -5.206240E+05 -1.475857E+05 -2.076228E+05 -3.890940E-10 -1.917237E-10
        28  19  6.563703E+05  2.215304E+06  6.950519E+05 -3.001578E+05 -2.020946E+04 -2.649435E+05
        28  20  3.381747E+05  1.919754E+06  4.441744E+05 -1.714070E+05 -6.195850E+04 -1.461611E+05
        28  21  2.587692E+05  1.699723E+06  3.302287E+05 -1.396032E+05 -5.994122E+04 -2.741978E+04
        28  22  2.528908E+05  5.886993E+05  3.021105E+05 -1.734626E+05 -2.029352E+04 -2.019380E+05
        28  23  5.285316E+03  5.547723E+05  1.431976E+05 -1.250921E+05 -6.199499E+04 -1.265037E+05
        28  24 -1.076329E+04  5.889728E+05  9.136490E+04 -1.736423E+05 -5.991762E+04 -5.105529E+04
        28  25 -1.507200E+05 -1.035451E+06 -9.099721E+04 -4.709889E+04 -2.035211E+04 -1.390961E+05
        28  26 -3.277210E+05 -8.084671E+05 -1.578911E+05 -7.887949E+04 -6.202861E+04 -1.068886E+05
        28  27 -2.803719E+05 -5.206170E+05 -1.475684E+05 -2.076192E+05 -5.989142E+04 -7.464913E+04
        29   1  2.328333E+05  1.484010E+06  2.745767E+05 -1.811490E+05  4.775388E+04  2.600379E+04
        29   2  1.580701E+05  1.222509E+06  2.012772E+05 -1.255802E+05  3.535219E+04 -6.255187E+03
        29   3  1.056480E+05  9.706439E+05  1.544825E+05 -1.685992E+05  2.144641E+04 -3.851394E+04
        29   4  1.219787E+04  5.759821E+05  7.846295E+04 -1.739643E+05  4.774261E+04  3.749916E+04
        29   5 -2.013127E+01  5.713709E+05  6.130666E+04 -1.246704E+05  3.533395E+04  6.755759E+03
        29   6  9.859373E+03  5.760834E+05  6.962946E+04 -1.739682E+05  2.142086E+04 -2.400030E+04
        29   7 -2.084916E+05 -3.312729E+05 -1.176990E+05 -1.667898E+05  4.773161E+04  4.897795E+04
        29   8 -1.581380E+05 -7.936877E+04 -7.868808E+04 -1.237614E+05  3.531573E+04  1.975327E+04
        29   9 -8.593923E+04  1.816696E+05 -1.523191E+04 -1.793337E+05  2.139505E+04 -9.495753E+03
        29  10  2.328307E+05  1.484009E+06  2.745711E+05 -1.811500E+05 -3.246676E-10  2.281757E-09
        29  11  1.580687E+05  1.222508E+06  2.012748E+05 -1.255800E+05 -1.737675E-10  1.036570E-09
        29  12  1.056471E+05  9.706422E+05  1.544789E+05 -1.685986E+05 -5.141707E-10 -2.050403E-09
        29  13  1.219505E+04  5.759799E+05  7.845603E+04 -1.739657E+05 -7.397884E-10 -6.786572E-10
        29  14 -2.148451E+01  5.713705E+05  6.130423E+04 -1.246706E+05 -8.724816E-10 -4.057990E-10
        29  15  9.858726E+03  5.760827E+05  6.962752E+04 -1.739678E+05 -5.976132E-10 -9.783739E-10
        29  16 -2.084947E+05 -3.312761E+05 -1.177078E+05 -1.667916E+05  7.489406E-10 -2.323564E-09
        29  17 -1.581395E+05 -7.936952E+04 -7.869116E+04 -1.237620E+05  6.014474E-10  7.721799E-10
        29  18 -8.593975E+04  1.816694E+05 -1.523294E+04 -1.793335E+05 -9.170610E-10  2.480992E-09
        29  19  2.328333E+05  1.484010E+06  2.745767E+05 -1.811490E+05 -4.775388E+04 -2.600379E+04
        29  20  1.580701E+05  1.222509E+06  2.012772E+05 -1.255802E+05 -3.535219E+04  6.255187E+03
        29  21  1.056480E+05  9.706439E+05  1.544825E+05 -1.685992E+05 -2.144641E+04  3.851394E+04
        29  22  1.219787E+04  5.759821E+05  7.846295E+04 -1.739643E+05 -4.774261E+04 -3.749916E+04
        29  23 -2.013127E+01  5.713709E+05  6.130666E+04 -1.246704E+05 -3.533395E+04 -6.755759E+03
        29  24  9.859373E+03  5.760834E+05  6.962946E+04 -1.739682E+05 -2.142086E+04  2.400030E+04
        29  25 -2.084916E+05 -3.312729E+05 -1.176990E+05 -1.667898E+05 -4.773161E+04 -4.897795E+04
        29  26 -1.581380E+05 -7.936877E+04 -7.868808E+04 -1.237614E+05 -3.531573E+04 -1.975327E+04
        29  27 -8.593923E+04  1.816696E+05 -1.523191E+04 -1.793337E+05 -2.139505E+04  9.495753E+03
        30   1  3.888740E+04  7.791790E+05  1.189796E+05 -2.020025E+05  1.168014E+04 -5.282361E+04
        30   2 -1.088441E+04  4.968212E+05  1.015952E+05 -8.814066E+04 -1.259352E+02 -1.039720E+05
        30   3  1.229342E+05  2.667289E+05  1.633160E+05 -7.221650E+04 -1.346824E+03 -1.550822E+05
        30   4 -8.007636E+03  5.860397E+05  7.812548E+04 -1.739074E+05  1.164574E+04 -3.589346E+04
        30   5  4.781013E+03  5.590258E+05  1.169646E+05 -1.247679E+05 -1.318193E+02 -9.748389E+04
        30   6  2.029392E+05  5.859776E+05  2.421340E+05 -1.735416E+05 -1.314154E+03 -1.590567E+05
        30   7 -5.490199E+04  3.929378E+05  3.727078E+04 -1.458212E+05  1.161287E+04 -1.896850E+04
        30   8  2.045120E+04  6.212368E+05  1.323346E+05 -1.613988E+05 -1.384683E+02 -9.099513E+04
        30   9  2.829750E+05  9.053409E+05  3.209499E+05 -2.749187E+05 -1.280202E+03 -1.630333E+05
        30  10  3.888650E+04  7.791760E+05  1.189741E+05 -2.020020E+05  2.258657E-10  1.790948E-09
        30  11 -1.088731E+04  4.968096E+05  1.015749E+05 -8.814067E+04 -8.383014E-10  1.590005E-09
        30  12  1.229278E+05  2.667031E+05  1.632709E+05 -7.221667E+04  6.065138E-10 -1.207625E-09
        30  13 -8.008127E+03  5.860383E+05  7.812281E+04 -1.739071E+05 -7.716657E-11 -9.118481E-10
        30  14  4.778465E+03  5.590156E+05  1.169468E+05 -1.247679E+05  8.607562E-10 -4.506616E-10
        30  15  2.029324E+05  5.859505E+05  2.420865E+05 -1.735417E+05  8.010073E-10 -9.943889E-10
        30  16 -5.490223E+04  3.929374E+05  3.726985E+04 -1.458211E+05 -6.887040E-10 -1.787452E-09
        30  17  2.044898E+04  6.212279E+05  1.323191E+05 -1.613988E+05  5.235644E-10  6.453443E-10
        30  18  2.829679E+05  9.053123E+05  3.209000E+05 -2.749189E+05  1.082149E-09  1.662370E-09
        30  19  3.888740E+04  7.791790E+05  1.189796E+05 -2.020025E+05 -1.168014E+04  5.282361E+04
        30  20 -1.088441E+04  4.968212E+05  1.015952E+05 -8.814066E+04  1.259352E+02  1.039720E+05
        30  21  1.229342E+05  2.667289E+05  1.633160E+05 -7.221650E+04  1.346824E+03  1.550822E+05
        30  22 -8.007636E+03  5.860397E+05  7.812548E+04 -1.739074E+05 -1.164574E+04  3.589346E+04
        30  23  4.781013E+03  5.590258E+05  1.169646E+05 -1.247679E+05  1.318193E+02  9.748389E+04
        30  24  2.029392E+05  5.859776E+05  2.421340E+05 -1.735416E+05  1.314154E+03  1.590567E+05
        30  25 -5.490199E+04  3.929378E+05  3.727078E+04 -1.458212E+05 -1.161287E+04  1.896850E+04
        30  26  2.045120E+04  6.212368E+05  1.323346E+05 -1.613988E+05  1.384683E+02  9.099513E+04
        30  27  2.829750E+05  9.053409E+05  3.209499E+05 -2.749187E+05  1.280202E+03  1.630333E+05
        31   1 -1.184170E+06 -2.826511E+05 -1.080193E+05 -4.556281E+05 -5.985706E+04 -2.142508E+04
        31   2 -1.167268E+06 -1.918292E+05 -5.211539E+04 -4.524350E+05 -3.770453E+04 -1.118968E+04
        31   3 -1.173273E+06 -1.711524E+05 -3.108881E+04 -4.379860E+05 -1.475638E+04 -3.075178E+03
        31   4 -1.137384E+06 -2.327768E+05 -8.924854E+04 -4.096410E+05 -5.732601E+04 -2.047991E+04
        31   5 -1.121258E+06 -1.634398E+05 -3.891449E+04 -4.281804E+05 -3.712456E+04 -1.097308E+04
        31   6 -1.127651E+06 -1.638588E+05 -2.190805E+04 -4.354647E+05 -1.612738E+04 -3.588936E+03
        31   7 -1.090593E+06 -1.828957E+05 -7.047792E+04 -3.636502E+05 -5.479481E+04 -1.953434E+04
        31   8 -1.075247E+06 -1.350492E+05 -2.571388E+04 -4.039240E+05 -3.654456E+04 -1.075645E+04
        31   9 -1.082026E+06 -1.565653E+05 -1.272734E+04 -4.329434E+05 -1.749850E+04 -4.102680E+03
        31  10 -1.184174E+06 -2.826526E+05 -1.080269E+05 -4.556291E+05  5.927465E-10  1.122152E-10
        31  11 -1.167270E+06 -1.918297E+05 -5.211830E+04 -4.524354E+05  6.586461E-10  3.940782E-10
        31  12 -1.173273E+06 -1.711524E+05 -3.108924E+04 -4.379861E+05  1.168532E-09  1.453064E-09
        31  13 -1.137387E+06 -2.327781E+05 -8.925552E+04 -4.096419E+05 -1.957002E-09 -1.645723E-10
        31  14 -1.121260E+06 -1.634404E+05 -3.891731E+04 -4.281807E+05 -2.454160E-09 -2.779160E-10
        31  15 -1.127651E+06 -1.638589E+05 -2.190856E+04 -4.354648E+05 -9.861531E-10  3.306610E-10
        31  16 -1.090597E+06 -1.828969E+05 -7.048429E+04 -3.636510E+05 -5.028182E-10 -6.068980E-10
        31  17 -1.075248E+06 -1.350497E+05 -2.571661E+04 -4.039243E+05 -6.276570E-10 -1.210476E-09
        31  18 -1.082026E+06 -1.565654E+05 -1.272795E+04 -4.329435E+05 -9.059849E-10 -7.995173E-10
        31  19 -1.184170E+06 -2.826511E+05 -1.080193E+05 -4.556281E+05  5.985706E+04  2.142508E+04
        31  20 -1.167268E+06 -1.918292E+05 -5.211539E+04 -4.524350E+05  3.770453E+04  1.118968E+04
        31  21 -1.173273E+06 -1.711524E+05 -3.108881E+04 -4.379860E+05  1.475638E+04  3.075178E+03
        31  22 -1.137384E+06 -2.327768E+05 -8.924854E+04 -4.096410E+05  5.732601E+04  2.047991E+04
        31  23 -1.121258E+06 -1.634398E+05 -3.891449E+04 -4.281804E+05  3.712456E+04  1.097308E+04
        31  24 -1.127651E+06 -1.638588E+05 -2.190805E+04 -4.354647E+05  1.612738E+04  3.588936E+03
        31  25 -1.090593E+06 -1.828957E+05 -7.047792E+04 -3.636502E+05  5.479481E+04  1.953434E+04
        31  26 -1.075247E+06 -1.350492E+05 -2.571388E+04 -4.039240E+05  3.654456E+04  1.075645E+04
        31  27 -1.082026E+06 -1.565653E+05 -1.272734E+04 -4.329434E+05  1.749850E+04  4.102680E+03
        32   1 -1.149556E+06 -1.805754E+05 -2.342058E+04 -4.396721E+05 -1.233891E+04 -3.031165E+03
        32   2 -1.135528E+06 -1.678551E+05 -1.127905E+04 -4.328903E+05 -7.399373E+03 -2.162842E+03
        32   3 -1.118771E+06 -1.636357E+05 -3.587955E+03 -4.307452E+05 -2.423881E+03 -1.389600E+03
        32   4 -1.124836E+06 -1.700992E+05 -1.729129E+04 -4.315539E+05 -1.308868E+04 -3.312305E+03
        32   5 -1.125942E+06 -1.639816E+05 -8.936073E+03 -4.299376E+05 -8.236510E+03 -2.476704E+03
        32   6 -1.124303E+06 -1.663477E+05 -4.961838E+03 -4.329582E+05 -3.348556E+03 -1.736262E+03
        32   7 -1.100115E+06 -1.596227E+05 -1.116197E+04 -4.234353E+05 -1.383850E+04 -3.593464E+03
        32   8 -1.116357E+06 -1.601081E+05 -6.593112E+03 -4.269848E+05 -9.073658E+03 -2.790572E+03
        32   9 -1.129836E+06 -1.690595E+05 -6.335693E+03 -4.351712E+05 -4.273209E+03 -2.082913E+03
        32  10 -1.149556E+06 -1.805754E+05 -2.342089E+04 -4.396721E+05  1.636742E-08  8.326658E-09
        32  11 -1.135528E+06 -1.678552E+05 -1.127916E+04 -4.328903E+05  3.790726E-09  3.160416E-09
        32  12 -1.118771E+06 -1.636357E+05 -3.587969E+03 -4.307452E+05 -1.173357E-08 -5.467500E-09
        32  13 -1.124836E+06 -1.700992E+05 -1.729163E+04 -4.315539E+05  1.584276E-09  1.900085E-09
        32  14 -1.125942E+06 -1.639816E+05 -8.936212E+03 -4.299376E+05  5.776600E-09  3.377960E-09
        32  15 -1.124303E+06 -1.663477E+05 -4.961864E+03 -4.329582E+05  3.063475E-09  6.406974E-10
        32  16 -1.100115E+06 -1.596228E+05 -1.116236E+04 -4.234353E+05 -1.393808E-08 -4.442463E-09
        32  17 -1.116357E+06 -1.601081E+05 -6.593282E+03 -4.269849E+05  6.169772E-09  3.307075E-09
        32  18 -1.129836E+06 -1.690595E+05 -6.335736E+03 -4.351712E+05  1.661829E-08  6.514549E-09
        32  19 -1.149556E+06 -1.805754E+05 -2.342058E+04 -4.396721E+05  1.233891E+04  3.031165E+03
        32  20 -1.135528E+06 -1.678551E+05 -1.127905E+04 -4.328903E+05  7.399373E+03  2.162842E+03
        32  21 -1.118771E+06 -1.636357E+05 -3.587955E+03 -4.307452E+05  2.423881E+03  1.389600E+03
        32  22 -1.124836E+06 -1.700992E+05 -1.729129E+04 -4.315539E+05  1.308868E+04  3.312305E+03
        32  23 -1.125942E+06 -1.639816E+05 -8.936073E+03 -4.299376E+05  8.236510E+03  2.476704E+03
        32  24 -1.124303E+06 -1.663477E+05 -4.961838E+03 -4.329582E+05  3.348556E+03  1.736262E+03
        32  25 -1.100115E+06 -1.596227E+05 -1.116197E+04 -4.234353E+05  1.383850E+04  3.593464E+03
        32  26 -1.116357E+06 -1.601081E+05 -6.593112E+03 -4.269848E+05  9.073658E+03  2.790572E+03
        32  27 -1.129836E+06 -1.690595E+05 -6.335693E+03 -4.351712E+05  4.273209E+03  2.082913E+03
        33   1 -1.105180E+06 -1.596071E+05  7.653065E+02 -4.274888E+05 -1.535169E+03 -1.718010E+03
        33   2 -1.091608E+06 -1.511735E+05  6.164566E+03 -4.204696E+05 -1.305630E+02 -2.304425E+03
        33   3 -1.073530E+06 -1.476908E+05  1.073324E+04 -4.188535E+05  1.274983E+03 -2.893102E+03
        33   4 -1.124068E+06 -1.666712E+05 -3.773235E+03 -4.327130E+05 -2.431751E+03 -2.054146E+03
        33   5 -1.126309E+06 -1.641070E+05 -2.074281E+03 -4.300445E+05 -1.029288E+03 -2.641394E+03
        33   6 -1.124042E+06 -1.664932E+05 -1.204137E+03 -4.327793E+05  3.740915E+02 -3.230913E+03
        33   7 -1.142956E+06 -1.737354E+05 -8.311834E+03 -4.379371E+05 -3.328309E+03 -2.390273E+03
        33   8 -1.161008E+06 -1.770406E+05 -1.031333E+04 -4.396191E+05 -1.927969E+03 -2.978346E+03
        33   9 -1.174553E+06 -1.852958E+05 -1.314194E+04 -4.467044E+05 -5.267352E+02 -3.568700E+03
        33  10 -1.105180E+06 -1.596071E+05  7.652965E+02 -4.274888E+05 -7.871223E-10 -1.831749E-09
        33  11 -1.091608E+06 -1.511735E+05  6.164556E+03 -4.204696E+05  3.237352E-09  1.028087E-09
        33  12 -1.073530E+06 -1.476908E+05  1.073322E+04 -4.188535E+05  1.772189E-09  3.779569E-10
        33  13 -1.124068E+06 -1.666712E+05 -3.773254E+03 -4.327130E+05  9.462772E-10 -4.681538E-10
        33  14 -1.126309E+06 -1.641070E+05 -2.074296E+03 -4.300445E+05  4.461854E-09  1.327596E-09
        33  15 -1.124042E+06 -1.664933E+05 -1.204157E+03 -4.327793E+05  1.152926E-09  4.419785E-10
        33  16 -1.142956E+06 -1.737354E+05 -8.311866E+03 -4.379371E+05  4.100180E-09  1.151893E-09
        33  17 -1.161008E+06 -1.770406E+05 -1.031335E+04 -4.396191E+05  3.480562E-09  9.195350E-10
        33  18 -1.174553E+06 -1.852958E+05 -1.314196E+04 -4.467044E+05  1.582634E-09  7.189342E-10
        33  19 -1.105180E+06 -1.596071E+05  7.653065E+02 -4.274888E+05  1.535169E+03  1.718010E+03
        33  20 -1.091608E+06 -1.511735E+05  6.164566E+03 -4.204696E+05  1.305630E+02  2.304425E+03
        33  21 -1.073530E+06 -1.476908E+05  1.073324E+04 -4.188535E+05 -1.274983E+03  2.893102E+03
        33  22 -1.124068E+06 -1.666712E+05 -3.773235E+03 -4.327130E+05  2.431751E+03  2.054146E+03
        33  23 -1.126309E+06 -1.641070E+05 -2.074281E+03 -4.300445E+05  1.029288E+03  2.641394E+03
        33  24 -1.124042E+06 -1.664932E+05 -1.204137E+03 -4.327793E+05 -3.740915E+02  3.230913E+03
        33  25 -1.142956E+06 -1.737354E+05 -8.311834E+03 -4.379371E+05  3.328309E+03  2.390273E+03
        33  26 -1.161008E+06 -1.770406E+05 -1.031333E+04 -4.396191E+05  1.927969E+03  2.978346E+03
        33  27 -1.174553E+06 -1.852958E+05 -1.314194E+04 -4.467044E+05  5.267352E+02  3.568700E+03
        34   1 -1.060672E+06 -1.429487E+05  1.413022E+04 -4.153500E+05  1.663351E+03 -3.396582E+03
        34   2 -1.047279E+06 -1.347841E+05  1.808452E+04 -4.083588E+05  2.359314E+03 -4.246803E+03
        34   3 -1.029247E+06 -1.313267E+05  2.178915E+04 -4.067500E+05  3.054315E+03 -5.094169E+03
        34   4 -1.124022E+06 -1.664986E+05 -9.543885E+02 -4.327528E+05  7.658302E+02 -3.733154E+03
        34   5 -1.126342E+06 -1.641433E+05 -6.692121E+02 -4.300624E+05  1.464359E+03 -4.582458E+03
        34   6 -1.124022E+06 -1.664956E+05 -6.356687E+02 -4.327542E+05  2.161920E+03 -5.428913E+03
        34   7 -1.187367E+06 -1.900478E+05 -1.603901E+04 -4.501537E+05 -1.315770E+02 -4.069682E+03
        34   8 -1.205397E+06 -1.935018E+05 -1.942319E+04 -4.517631E+05  5.695366E+02 -4.918063E+03
        34   9 -1.218788E+06 -2.016638E+05 -2.306107E+04 -4.587547E+05  1.269676E+03 -5.763600E+03
        34  10 -1.060672E+06 -1.429487E+05  1.413019E+04 -4.153500E+05 -9.951541E-11 -5.279164E-10
        34  11 -1.047279E+06 -1.347841E+05  1.808448E+04 -4.083588E+05  1.112578E-09 -3.807454E-10
        34  12 -1.029247E+06 -1.313268E+05  2.178909E+04 -4.067500E+05 -1.058963E-09 -3.682654E-10
        34  13 -1.124022E+06 -1.664986E+05 -9.544158E+02 -4.327528E+05  9.724106E-10 -1.167675E-10
        34  14 -1.126342E+06 -1.641433E+05 -6.692556E+02 -4.300623E+05 -5.192927E-10 -3.265977E-10
        34  15 -1.124022E+06 -1.664956E+05 -6.357329E+02 -4.327542E+05  1.467565E-09 -1.809130E-10
        34  16 -1.187367E+06 -1.900478E+05 -1.603904E+04 -4.501537E+05 -9.561640E-10  3.822713E-10
        34  17 -1.205397E+06 -1.935018E+05 -1.942324E+04 -4.517631E+05  6.909012E-10 -5.208495E-10
        34  18 -1.218788E+06 -2.016638E+05 -2.306113E+04 -4.587547E+05  1.785853E-10  2.717139E-11
        34  19 -1.060672E+06 -1.429487E+05  1.413022E+04 -4.153500E+05 -1.663351E+03  3.396582E+03
        34  20 -1.047279E+06 -1.347841E+05  1.808452E+04 -4.083588E+05 -2.359314E+03  4.246803E+03
        34  21 -1.029247E+06 -1.313267E+05  2.178915E+04 -4.067500E+05 -3.054315E+03  5.094169E+03
        34  22 -1.124022E+06 -1.664986E+05 -9.543885E+02 -4.327528E+05 -7.658302E+02  3.733154E+03
        34  23 -1.126342E+06 -1.641433E+05 -6.692121E+02 -4.300624E+05 -1.464359E+03  4.582458E+03
        34  24 -1.124022E+06 -1.664956E+05 -6.356687E+02 -4.327542E+05 -2.161920E+03  5.428913E+03
        34  25 -1.187367E+06 -1.900478E+05 -1.603901E+04 -4.501537E+05  1.315770E+02  4.069682E+03
        34  26 -1.205397E+06 -1.935018E+05 -1.942319E+04 -4.517631E+05 -5.695366E+02  4.918063E+03
        34  27 -1.218788E+06 -2.016638E+05 -2.306107E+04 -4.587547E+05 -1.269676E+03  5.763600E+03
        35   1 -1.016554E+06 -1.265823E+05  2.484674E+04 -4.032614E+05  3.373209E+03 -5.617312E+03
        35   2 -1.003318E+06 -1.185244E+05  2.813602E+04 -3.963583E+05  4.243268E+03 -6.389519E+03
        35   3 -9.855252E+05 -1.151263E+05  3.104147E+04 -3.947711E+05  5.111304E+03 -7.155784E+03
        35   4 -1.124041E+06 -1.664830E+05 -7.002974E+02 -4.327405E+05  2.484436E+03 -5.950740E+03
        35   5 -1.126320E+06 -1.641577E+05 -1.032422E+03 -4.300808E+05  3.359809E+03 -6.721037E+03
        35   6 -1.124044E+06 -1.664936E+05 -1.752740E+03 -4.327372E+05  4.233144E+03 -7.485394E+03
        35   7 -1.231517E+06 -2.063830E+05 -2.624832E+04 -4.622151E+05  1.595825E+03 -6.284106E+03
        35   8 -1.249307E+06 -2.097900E+05 -3.020204E+04 -4.637973E+05  2.476538E+03 -7.052483E+03
        35   9 -1.262544E+06 -2.178595E+05 -3.454831E+04 -4.706957E+05  3.355197E+03 -7.814924E+03
        35  10 -1.016554E+06 -1.265824E+05  2.484666E+04 -4.032614E+05 -1.023026E-09 -1.225679E-10
        35  11 -1.003318E+06 -1.185244E+05  2.813591E+04 -3.963583E+05 -5.849892E-10  4.437784E-10
        35  12 -9.855253E+05 -1.151264E+05  3.104132E+04 -3.947710E+05  4.680682E-10  6.250183E-10
        35  13 -1.124041E+06 -1.664830E+05 -7.003755E+02 -4.327405E+05 -2.415023E-09  1.018471E-10
        35  14 -1.126320E+06 -1.641577E+05 -1.032528E+03 -4.300808E+05 -2.143331E-09  5.073212E-10
        35  15 -1.124044E+06 -1.664936E+05 -1.752879E+03 -4.327372E+05  1.610417E-09  3.499506E-10
        35  16 -1.231517E+06 -2.063830E+05 -2.624840E+04 -4.622151E+05 -1.118373E-09  4.752293E-10
        35  17 -1.249307E+06 -2.097900E+05 -3.020215E+04 -4.637973E+05 -8.502590E-10  4.250057E-10
        35  18 -1.262544E+06 -2.178596E+05 -3.454845E+04 -4.706957E+05  3.528360E-09 -1.168617E-10
        35  19 -1.016554E+06 -1.265823E+05  2.484674E+04 -4.032614E+05 -3.373209E+03  5.617312E+03
        35  20 -1.003318E+06 -1.185244E+05  2.813602E+04 -3.963583E+05 -4.243268E+03  6.389519E+03
        35  21 -9.855252E+05 -1.151263E+05  3.104147E+04 -3.947711E+05 -5.111304E+03  7.155784E+03
        35  22 -1.124041E+06 -1.664830E+05 -7.002974E+02 -4.327405E+05 -2.484436E+03  5.950740E+03
        35  23 -1.126320E+06 -1.641577E+05 -1.032422E+03 -4.300808E+05 -3.359809E+03  6.721037E+03
        35  24 -1.124044E+06 -1.664936E+05 -1.752740E+03 -4.327372E+05 -4.233144E+03  7.485394E+03
        35  25 -1.231517E+06 -2.063830E+05 -2.624832E+04 -4.622151E+05 -1.595825E+03  6.284106E+03
        35  26 -1.249307E+06 -2.097900E+05 -3.020204E+04 -4.637973E+05 -2.476538E+03  7.052483E+03
        35  27 -1.262544E+06 -2.178595E+05 -3.454831E+04 -4.706957E+05 -3.355197E+03  7.814924E+03
        36   1 -9.730523E+05 -1.104748E+05  3.356294E+04 -3.914215E+05  5.653896E+03 -7.586208E+03
        36   2 -9.599440E+05 -1.024936E+05  3.530035E+04 -3.845569E+05  8.047407E+03 -7.763143E+03
        36   3 -9.427086E+05 -9.951402E+04  3.540683E+04 -3.828761E+05  1.043292E+04 -7.917992E+03
        36   4 -1.124124E+06 -1.664505E+05 -2.301975E+03 -4.327533E+05  4.776498E+03 -7.915589E+03
        36   5 -1.126213E+06 -1.641309E+05 -4.121339E+03 -4.300931E+05  7.189719E+03 -8.085233E+03
        36   6 -1.124179E+06 -1.668171E+05 -7.587592E+03 -4.326169E+05  9.594895E+03 -8.232806E+03
        36   7 -1.275173E+06 -2.224242E+05 -3.816830E+04 -4.740756E+05  3.899337E+03 -8.244881E+03
        36   8 -1.292454E+06 -2.257663E+05 -4.354500E+04 -4.756182E+05  6.332281E+03 -8.407230E+03
        36   9 -1.305617E+06 -2.341181E+05 -5.058462E+04 -4.823447E+05  8.757136E+03 -8.547522E+03
        36  10 -9.730523E+05 -1.104749E+05  3.356277E+04 -3.914215E+05  3.619303E-09  3.074410E-10
        36  11 -9.599441E+05 -1.024937E+05  3.530012E+04 -3.845568E+05  1.254962E-09 -5.551013E-10
        36  12 -9.427087E+05 -9.951411E+04  3.540650E+04 -3.828761E+05 -4.563996E-10 -3.078565E-10
        36  13 -1.124124E+06 -1.664505E+05 -2.302135E+03 -4.327532E+05  4.359939E-09 -9.300009E-11
        36  14 -1.126213E+06 -1.641310E+05 -4.121559E+03 -4.300931E+05 -2.102775E-09 -3.122335E-10
        36  15 -1.124179E+06 -1.668172E+05 -7.587893E+03 -4.326169E+05 -1.868006E-09  4.922948E-10
        36  16 -1.275173E+06 -2.224243E+05 -3.816845E+04 -4.740756E+05  1.977539E-09 -3.752677E-10
        36  17 -1.292454E+06 -2.257664E+05 -4.354520E+04 -4.756182E+05 -1.470222E-09 -2.165298E-11
        36  18 -1.305617E+06 -2.341182E+05 -5.058490E+04 -4.823446E+05 -1.915267E-09  1.392446E-09
        36  19 -9.730523E+05 -1.104748E+05  3.356294E+04 -3.914215E+05 -5.653896E+03  7.586208E+03
        36  20 -9.599440E+05 -1.024936E+05  3.530035E+04 -3.845569E+05 -8.047407E+03  7.763143E+03
        36  21 -9.427086E+05 -9.951402E+04  3.540683E+04 -3.828761E+05 -1.043292E+04  7.917992E+03
        36  22 -1.124124E+06 -1.664505E+05 -2.301975E+03 -4.327533E+05 -4.776498E+03  7.915589E+03
        36  23 -1.126213E+06 -1.641309E+05 -4.121339E+03 -4.300931E+05 -7.189719E+03  8.085233E+03
        36  24 -1.124179E+06 -1.668171E+05 -7.587592E+03 -4.326169E+05 -9.594895E+03  8.232806E+03
        36  25 -1.275173E+06 -2.224242E+05 -3.816830E+04 -4.740756E+05 -3.899337E+03  8.244881E+03
        36  26 -1.292454E+06 -2.257663E+05 -4.354500E+04 -4.756182E+05 -6.332281E+03  8.407230E+03
        36  27 -1.305617E+06 -2.341181E+05 -5.058462E+04 -4.823447E+05 -8.757136E+03  8.547522E+03
        37   1 -9.300562E+05 -9.518633E+04  3.598282E+04 -3.810302E+05  1.214685E+04 -7.926911E+03
        37   2 -9.174516E+05 -8.600829E+04  3.145341E+04 -3.721299E+05  2.129359E+04 -5.447703E+03
        37   3 -9.043466E+05 -8.878395E+04  1.832888E+04 -3.667130E+05  3.031149E+04 -2.624520E+03
        37   4 -1.124683E+06 -1.661356E+05 -9.999784E+03 -4.330803E+05  1.121732E+04 -8.276129E+03
        37   5 -1.125442E+06 -1.639193E+05 -1.804804E+04 -4.299171E+05  2.067746E+04 -5.679428E+03
        37   6 -1.125764E+06 -1.737209E+05 -3.494231E+04 -4.302375E+05  3.000852E+04 -2.738851E+03
        37   7 -1.319272E+06 -2.370825E+05 -5.598505E+04 -4.851156E+05  1.028811E+04 -8.625234E+03
        37   8 -1.333389E+06 -2.418268E+05 -6.755244E+04 -4.876864E+05  2.006156E+04 -5.911066E+03
        37   9 -1.347132E+06 -2.586531E+05 -8.821676E+04 -4.937407E+05  2.970567E+04 -2.853135E+03
        37  10 -9.300564E+05 -9.518644E+04  3.598242E+04 -3.810302E+05  1.810096E-09  3.770399E-10
        37  11 -9.174521E+05 -8.600844E+04  3.145250E+04 -3.721298E+05 -5.774370E-09 -1.586746E-09
        37  12 -9.043476E+05 -8.878421E+04  1.832714E+04 -3.667129E+05 -3.851510E-09 -1.550778E-09
        37  13 -1.124683E+06 -1.661357E+05 -1.000015E+04 -4.330802E+05 -3.326831E-09  1.339498E-10
        37  14 -1.125442E+06 -1.639195E+05 -1.804891E+04 -4.299170E+05 -2.228449E-09 -1.564107E-09
        37  15 -1.125765E+06 -1.737212E+05 -3.494402E+04 -4.302374E+05 -3.964881E-09 -1.470613E-09
        37  16 -1.319272E+06 -2.370826E+05 -5.598539E+04 -4.851156E+05 -4.553868E-09 -2.803079E-10
        37  17 -1.333389E+06 -2.418270E+05 -6.755326E+04 -4.876863E+05 -2.290170E-09 -1.383471E-09
        37  18 -1.347133E+06 -2.586534E+05 -8.821843E+04 -4.937406E+05  6.363444E-10 -1.491964E-09
        37  19 -9.300562E+05 -9.518633E+04  3.598282E+04 -3.810302E+05 -1.214685E+04  7.926911E+03
        37  20 -9.174516E+05 -8.600829E+04  3.145341E+04 -3.721299E+05 -2.129359E+04  5.447703E+03
        37  21 -9.043466E+05 -8.878395E+04  1.832888E+04 -3.667130E+05 -3.031149E+04  2.624520E+03
        37  22 -1.124683E+06 -1.661356E+05 -9.999784E+03 -4.330803E+05 -1.121732E+04  8.276129E+03
        37  23 -1.125442E+06 -1.639193E+05 -1.804804E+04 -4.299171E+05 -2.067746E+04  5.679428E+03
        37  24 -1.125764E+06 -1.737209E+05 -3.494231E+04 -4.302375E+05 -3.000852E+04  2.738851E+03
        37  25 -1.319272E+06 -2.370825E+05 -5.598505E+04 -4.851156E+05 -1.028811E+04  8.625234E+03
        37  26 -1.333389E+06 -2.418268E+05 -6.755244E+04 -4.876864E+05 -2.006156E+04  5.911066E+03
        37  27 -1.347132E+06 -2.586531E+05 -8.821676E+04 -4.937407E+05 -2.970567E+04  2.853135E+03
        38   1 -8.818459E+05 -8.784585E+04  1.152553E+04 -3.896910E+05  3.851098E+04 -8.947562E+02
        38   2 -8.832802E+05 -5.342331E+04 -1.831710E+04 -3.390032E+05  7.334549E+04  1.339046E+04
        38   3 -9.341924E+05 -1.532031E+05 -1.100371E+05 -2.593951E+05  1.053645E+05  3.517441E+04
        38   4 -1.131489E+06 -1.610714E+05 -4.427553E+04 -4.380994E+05  3.601853E+04 -1.830062E+03
        38   5 -1.115926E+06 -1.628825E+05 -7.865215E+04 -4.264255E+05  7.773418E+04  1.503566E+04
        38   6 -1.151232E+06 -3.003014E+05 -1.803835E+05 -3.858254E+05  1.166342E+05  3.939571E+04
        38   7 -1.381072E+06 -2.342977E+05 -1.000806E+05 -4.864928E+05  3.352716E+04 -2.765161E+03
        38   8 -1.348518E+06 -2.723280E+05 -1.389916E+05 -5.138149E+05  8.212109E+04  1.667979E+04
        38   9 -1.368214E+06 -4.473544E+05 -2.507326E+05 -5.122050E+05  1.278996E+05  4.361239E+04
        38  10 -8.818475E+05 -8.784625E+04  1.152273E+04 -3.896910E+05 -6.062341E-10 -7.447854E-10
        38  11 -8.832860E+05 -5.342495E+04 -1.832756E+04 -3.390040E+05 -2.058511E-11 -1.484367E-10
        38  12 -9.342046E+05 -1.532075E+05 -1.100604E+05 -2.593981E+05 -7.392103E-10  1.881983E-10
        38  13 -1.131491E+06 -1.610717E+05 -4.427797E+04 -4.380993E+05 -5.209375E-11 -6.625885E-10
        38  14 -1.115933E+06 -1.628844E+05 -7.866395E+04 -4.264265E+05  1.048466E-09  4.053280E-10
        38  15 -1.151247E+06 -3.003067E+05 -1.804120E+05 -3.858291E+05  6.012967E-10  4.905165E-11
        38  16 -1.381073E+06 -2.342980E+05 -1.000827E+05 -4.864927E+05  1.797183E-09 -8.997185E-10
        38  17 -1.348525E+06 -2.723301E+05 -1.390048E+05 -5.138160E+05  2.360352E-09 -5.710348E-10
        38  18 -1.368232E+06 -4.473608E+05 -2.507670E+05 -5.122095E+05  7.434072E-10 -1.694801E-10
        38  19 -8.818459E+05 -8.784585E+04  1.152553E+04 -3.896910E+05 -3.851098E+04  8.947562E+02
        38  20 -8.832802E+05 -5.342331E+04 -1.831710E+04 -3.390032E+05 -7.334549E+04 -1.339046E+04
        38  21 -9.341924E+05 -1.532031E+05 -1.100371E+05 -2.593951E+05 -1.053645E+05 -3.517441E+04
        38  22 -1.131489E+06 -1.610714E+05 -4.427553E+04 -4.380994E+05 -3.601853E+04  1.830062E+03
        38  23 -1.115926E+06 -1.628825E+05 -7.865215E+04 -4.264255E+05 -7.773418E+04 -1.503566E+04
        38  24 -1.151232E+06 -3.003014E+05 -1.803835E+05 -3.858254E+05 -1.166342E+05 -3.939571E+04
        38  25 -1.381072E+06 -2.342977E+05 -1.000806E+05 -4.864928E+05 -3.352716E+04  2.765161E+03
        38  26 -1.348518E+06 -2.723280E+05 -1.389916E+05 -5.138149E+05 -8.212109E+04 -1.667979E+04
        38  27 -1.368214E+06 -4.473544E+05 -2.507326E+05 -5.122050E+05 -1.278996E+05 -4.361239E+04
        39   1 -1.045468E+05  4.242295E+04  5.049746E+04  2.104946E+04  3.476102E+04  1.178776E+00
        39   2 -1.101787E+05  9.261931E+02  2.316644E+04  7.567807E+03  2.252536E+04  2.746258E-01
        39   3 -1.045498E+05 -1.904608E+03  1.346943E+04 -5.913674E+03  1.028967E+04 -9.802895E-02
        39   4 -1.045473E+05  4.242212E+04  5.049735E+04 -1.281695E-09  3.476102E+04 -6.501214E-12
        39   5 -1.101788E+05  9.260855E+02  2.316643E+04  4.139110E-10  2.252536E+04 -9.523537E-11
        39   6 -1.045499E+05 -1.904674E+03  1.346942E+04  6.821637E-09  1.028967E+04 -5.348954E-10
        39   7 -1.045468E+05  4.242295E+04  5.049746E+04 -2.104946E+04  3.476102E+04 -1.178776E+00
        39   8 -1.101787E+05  9.261931E+02  2.316644E+04 -7.567807E+03  2.252536E+04 -2.746258E-01
        39   9 -1.045498E+05 -1.904608E+03  1.346943E+04  5.913674E+03  1.028967E+04  9.802895E-02
        39  10 -1.045481E+05  4.242263E+04  5.049519E+04  2.104946E+04  1.169673E-12  1.481377E-10
        39  11 -1.101793E+05  9.260569E+02  2.316549E+04  7.567807E+03  7.156717E-10  1.641752E-10
        39  12 -1.045499E+05 -1.904637E+03  1.346923E+04 -5.913674E+03  1.861214E-09 -5.868243E-10
        39  13 -1.045486E+05  4.242180E+04  5.049507E+04 -5.524268E-09 -1.085367E-09  9.830875E-11
        39  14 -1.101793E+05  9.259493E+02  2.316547E+04 -1.770945E-09  5.966098E-10  1.695727E-10
        39  15 -1.045500E+05 -1.904702E+03  1.346922E+04  9.022605E-10  6.704907E-10 -1.719221E-10
        39  16 -1.045481E+05  4.242263E+04  5.049519E+04 -2.104946E+04 -1.092845E-09  2.588205E-11
        39  17 -1.101793E+05  9.260569E+02  2.316549E+04 -7.567807E+03 -1.478727E-09  1.505154E-10
        39  18 -1.045499E+05 -1.904637E+03  1.346923E+04  5.913674E+03 -1.249556E-09  2.561906E-10
        39  19 -1.045468E+05  4.242295E+04  5.049746E+04  2.104946E+04 -3.476102E+04 -1.178776E+00
        39  20 -1.101787E+05  9.261931E+02  2.316644E+04  7.567807E+03 -2.252536E+04 -2.746258E-01
        39  21 -1.045498E+05 -1.904608E+03  1.346943E+04 -5.913674E+03 -1.028967E+04  9.802895E-02
        39  22 -1.045473E+05  4.242212E+04  5.049735E+04 -5.454866E-09 -3.476102E+04  2.057809E-10
        39  23 -1.101788E+05  9.260855E+02  2.316643E+04 -8.265582E-09 -2.252536E+04  4.373431E-10
        39  24 -1.045499E+05 -1.904674E+03  1.346942E+04  4.406465E-09 -1.028967E+04  1.912408E-10
        39  25 -1.045468E+05  4.242295E+04  5.049746E+04 -2.104946E+04 -3.476102E+04  1.178776E+00
        39  26 -1.101787E+05  9.261931E+02  2.316644E+04 -7.567807E+03 -2.252536E+04  2.746258E-01
        39  27 -1.045498E+05 -1.904608E+03  1.346943E+04  5.913674E+03 -1.028967E+04 -9.802895E-02
        40   1 -1.068548E+05  2.093390E+03  1.065442E+04  7.180703E+02  8.404964E+03  9.722989E-03
        40   2 -1.072983E+05 -3.041744E+01  5.794614E+03  1.536591E+02  5.501458E+03  1.361863E-03
        40   3 -1.068551E+05 -1.203397E+02  3.333832E+03 -4.107448E+02  2.598006E+03 -1.719130E-03
        40   4 -1.068548E+05  2.093389E+03  1.065442E+04  9.855142E-10  8.404964E+03 -3.681215E-10
        40   5 -1.072983E+05 -3.041748E+01  5.794614E+03 -5.003180E-09  5.501458E+03  3.702128E-10
        40   6 -1.068551E+05 -1.203400E+02  3.333831E+03  1.391708E-09  2.598006E+03  5.477861E-10
        40   7 -1.068548E+05  2.093390E+03  1.065442E+04 -7.180703E+02  8.404964E+03 -9.722990E-03
        40   8 -1.072983E+05 -3.041744E+01  5.794614E+03 -1.536591E+02  5.501458E+03 -1.361862E-03
        40   9 -1.068551E+05 -1.203397E+02  3.333832E+03  4.107448E+02  2.598006E+03  1.719131E-03
        40  10 -1.068549E+05  2.093371E+03  1.065428E+04  7.180703E+02 -1.530350E-09 -4.710786E-10
        40  11 -1.072983E+05 -3.042556E+01  5.794557E+03  1.536591E+02 -1.424439E-09  3.200402E-10
        40  12 -1.068551E+05 -1.203415E+02  3.333819E+03 -4.107448E+02 -2.514798E-09 -3.870399E-10
        40  13 -1.068549E+05  2.093370E+03  1.065428E+04  1.171525E-09  1.051646E-11 -8.618394E-11
        40  14 -1.072983E+05 -3.042561E+01  5.794557E+03  3.936690E-10  1.076933E-09  3.357749E-10
        40  15 -1.068551E+05 -1.203418E+02  3.333819E+03  2.846063E-09 -9.199207E-10  1.868909E-11
        40  16 -1.068549E+05  2.093371E+03  1.065428E+04 -7.180703E+02 -9.485404E-11  2.937714E-10
        40  17 -1.072983E+05 -3.042556E+01  5.794557E+03 -1.536591E+02  1.702419E-09  3.532757E-10
        40  18 -1.068551E+05 -1.203415E+02  3.333819E+03  4.107448E+02 -1.993636E-09  4.364657E-10
        40  19 -1.068548E+05  2.093390E+03  1.065442E+04  7.180703E+02 -8.404964E+03 -9.722990E-03
        40  20 -1.072983E+05 -3.041744E+01  5.794614E+03  1.536591E+02 -5.501458E+03 -1.361862E-03
        40  21 -1.068551E+05 -1.203397E+02  3.333832E+03 -4.107448E+02 -2.598006E+03  1.719129E-03
        40  22 -1.068548E+05  2.093389E+03  1.065442E+04  9.974379E-09 -8.404964E+03  1.962179E-10
        40  23 -1.072983E+05 -3.041748E+01  5.794614E+03  2.560663E-09 -5.501458E+03  3.056862E-10
        40  24 -1.068551E+05 -1.203400E+02  3.333831E+03  8.338238E-09 -2.598006E+03 -5.099427E-10
        40  25 -1.068548E+05  2.093390E+03  1.065442E+04 -7.180703E+02 -8.404964E+03  9.722990E-03
        40  26 -1.072983E+05 -3.041744E+01  5.794614E+03 -1.536591E+02 -5.501458E+03  1.361863E-03
        40  27 -1.068551E+05 -1.203397E+02  3.333832E+03  4.107448E+02 -2.598006E+03 -1.719130E-03
        41   1 -1.070254E+05  7.923182E+01  2.546816E+03 -5.728224E+01  2.079714E+03 -1.919194E-04
        41   2 -1.070856E+05 -2.108253E+01  1.437279E+03 -5.226783E+01  1.367655E+03 -1.151596E-04
        41   3 -1.070255E+05 -1.134836E+01  8.189063E+02 -4.725334E+01  6.555864E+02 -4.990614E-05
        41   4 -1.070254E+05  7.923182E+01  2.546816E+03  3.321014E-09  2.079714E+03  9.735469E-10
        41   5 -1.070856E+05 -2.108254E+01  1.437279E+03 -3.004143E-09  1.367655E+03  1.513118E-09
        41   6 -1.070255E+05 -1.134836E+01  8.189063E+02  2.921269E-09  6.555864E+02  3.294122E-10
        41   7 -1.070254E+05  7.923182E+01  2.546816E+03  5.728224E+01  2.079714E+03  1.919213E-04
        41   8 -1.070856E+05 -2.108253E+01  1.437279E+03  5.226783E+01  1.367655E+03  1.151626E-04
        41   9 -1.070255E+05 -1.134836E+01  8.189063E+02  4.725334E+01  6.555864E+02  4.990682E-05
        41  10 -1.070254E+05  7.923066E+01  2.546808E+03 -5.728224E+01 -1.225247E-09 -1.105174E-10
        41  11 -1.070856E+05 -2.108304E+01  1.437275E+03 -5.226783E+01 -3.135262E-10  1.213451E-09
        41  12 -1.070255E+05 -1.134848E+01  8.189055E+02 -4.725334E+01  6.030021E-10  4.765062E-10
        41  13 -1.070254E+05  7.923066E+01  2.546808E+03  3.280348E-10 -1.076930E-09  1.215713E-10
        41  14 -1.070856E+05 -2.108304E+01  1.437275E+03 -2.993234E-09  1.595991E-09  6.533424E-10
        41  15 -1.070255E+05 -1.134848E+01  8.189055E+02 -6.314505E-09 -8.195007E-10  2.181188E-10
        41  16 -1.070254E+05  7.923066E+01  2.546808E+03  5.728224E+01  2.010388E-09  3.568860E-10
        41  17 -1.070856E+05 -2.108304E+01  1.437275E+03  5.226783E+01 -5.038717E-10  9.684080E-11
        41  18 -1.070255E+05 -1.134848E+01  8.189055E+02  4.725334E+01 -1.505501E-09 -3.980209E-11
        41  19 -1.070254E+05  7.923182E+01  2.546816E+03 -5.728224E+01 -2.079714E+03  1.919191E-04
        41  20 -1.070856E+05 -2.108253E+01  1.437279E+03 -5.226783E+01 -1.367655E+03  1.151620E-04
        41  21 -1.070255E+05 -1.134836E+01  8.189063E+02 -4.725334E+01 -6.555864E+02  4.990712E-05
        41  22 -1.070254E+05  7.923182E+01  2.546816E+03  1.026015E-08 -2.079714E+03 -7.293085E-10
        41  23 -1.070856E+05 -2.108254E+01  1.437279E+03 -1.905133E-09 -1.367655E+03 -2.079742E-10
        41  24 -1.070255E+05 -1.134836E+01  8.189063E+02  2.490227E-09 -6.555864E+02  1.070897E-10
        41  25 -1.070254E+05  7.923182E+01  2.546816E+03  5.728224E+01 -2.079714E+03 -1.919206E-04
        41  26 -1.070856E+05 -2.108253E+01  1.437279E+03  5.226783E+01 -1.367655E+03 -1.151624E-04
        41  27 -1.070255E+05 -1.134836E+01  8.189063E+02  4.725334E+01 -6.555864E+02 -4.990690E-05
        42   1 -1.070470E+05 -3.232305E+00  6.157308E+02 -2.703255E+01  5.260798E+02 -2.291069E-05
        42   2 -1.070587E+05 -5.585841E+00  3.359923E+02 -1.881620E+01  3.600143E+02 -1.091314E-05
        42   3 -1.070470E+05 -1.374243E+00  1.660250E+02 -1.059984E+01  1.939489E+02 -3.312942E-06
        42   4 -1.070470E+05 -3.232306E+00  6.157308E+02 -3.030561E-09  5.260798E+02 -2.406019E-10
        42   5 -1.070587E+05 -5.585842E+00  3.359923E+02  2.089444E-08  3.600143E+02 -2.561375E-10
        42   6 -1.070470E+05 -1.374243E+00  1.660250E+02  5.464589E-08  1.939489E+02 -8.210521E-10
        42   7 -1.070470E+05 -3.232305E+00  6.157308E+02  2.703255E+01  5.260798E+02  2.291019E-05
        42   8 -1.070587E+05 -5.585841E+00  3.359923E+02  1.881620E+01  3.600143E+02  1.091263E-05
        42   9 -1.070470E+05 -1.374243E+00  1.660250E+02  1.059984E+01  1.939489E+02  3.311297E-06
        42  10 -1.070470E+05 -3.232379E+00  6.157303E+02 -2.703255E+01  3.102864E-09 -1.198079E-10
        42  11 -1.070587E+05 -5.585876E+00  3.359920E+02 -1.881620E+01 -7.257220E-09 -3.345346E-10
        42  12 -1.070470E+05 -1.374253E+00  1.660249E+02 -1.059984E+01 -1.655353E-08 -8.844021E-10
        42  13 -1.070470E+05 -3.232381E+00  6.157303E+02  1.921426E-09  1.113541E-09 -2.255008E-10
        42  14 -1.070587E+05 -5.585877E+00  3.359920E+02 -3.169138E-09  2.134498E-09 -5.609727E-10
        42  15 -1.070470E+05 -1.374253E+00  1.660249E+02 -7.206840E-10 -1.100492E-09 -6.920344E-10
        42  16 -1.070470E+05 -3.232379E+00  6.157303E+02  2.703255E+01 -2.591333E-09 -3.326540E-10
        42  17 -1.070587E+05 -5.585876E+00  3.359920E+02  1.881620E+01  6.219008E-09 -7.888643E-10
        42  18 -1.070470E+05 -1.374253E+00  1.660249E+02  1.059984E+01  1.613653E-08 -4.985415E-10
        42  19 -1.070470E+05 -3.232305E+00  6.157308E+02 -2.703255E+01 -5.260798E+02  2.291045E-05
        42  20 -1.070587E+05 -5.585841E+00  3.359923E+02 -1.881620E+01 -3.600143E+02  1.091248E-05
        42  21 -1.070470E+05 -1.374243E+00  1.660250E+02 -1.059984E+01 -1.939489E+02  3.311192E-06
        42  22 -1.070470E+05 -3.232306E+00  6.157308E+02  2.194908E-08 -5.260798E+02 -2.114039E-10
        42  23 -1.070587E+05 -5.585842E+00  3.359923E+02 -1.646371E-08 -3.600143E+02 -8.671260E-10
        42  24 -1.070470E+05 -1.374243E+00  1.660250E+02 -5.366601E-08 -1.939489E+02 -5.601875E-10
        42  25 -1.070470E+05 -3.232305E+00  6.157308E+02  2.703255E+01 -5.260798E+02 -2.291086E-05
        42  26 -1.070587E+05 -5.585841E+00  3.359923E+02  1.881620E+01 -3.600143E+02 -1.091419E-05
        42  27 -1.070470E+05 -1.374243E+00  1.660250E+02  1.059984E+01 -1.939489E+02 -3.312309E-06
        43   1 -1.070523E+05 -1.546669E+00  1.032555E+02 -9.476677E+00  1.695158E+02 -2.588846E-06
        43   2 -1.070521E+05  9.525453E-03 -2.784128E+00 -9.149331E+00  1.709142E+02 -2.518543E-06
        43   3 -1.070523E+05  4.355519E-01 -1.100178E+02 -8.821991E+00  1.723127E+02 -2.447929E-06
        43   4 -1.070523E+05 -1.546669E+00  1.032555E+02 -5.998407E-08  1.695158E+02 -4.729725E-10
        43   5 -1.070521E+05  9.525294E-03 -2.784128E+00 -2.393989E-08  1.709142E+02  8.331240E-10
        43   6 -1.070523E+05  4.355518E-01 -1.100178E+02  2.085459E-08  1.723127E+02  8.828306E-10
        43   7 -1.070523E+05 -1.546669E+00  1.032555E+02  9.476676E+00  1.695158E+02  2.587878E-06
        43   8 -1.070521E+05  9.525455E-03 -2.784128E+00  9.149331E+00  1.709142E+02  2.520196E-06
        43   9 -1.070523E+05  4.355519E-01 -1.100178E+02  8.821991E+00  1.723127E+02  2.449696E-06
        43  10 -1.070523E+05 -1.546677E+00  1.032555E+02 -9.476676E+00  1.408788E-08 -9.644826E-10
        43  11 -1.070521E+05  9.517614E-03 -2.784183E+00 -9.149331E+00  7.696092E-09 -2.342412E-10
        43  12 -1.070523E+05  4.355440E-01 -1.100179E+02 -8.821991E+00 -3.425501E-09  8.785857E-10
        43  13 -1.070523E+05 -1.546677E+00  1.032555E+02 -5.740836E-09  4.079305E-11 -5.895240E-10
        43  14 -1.070521E+05  9.517455E-03 -2.784183E+00 -8.509640E-10 -1.038238E-09 -6.160858E-11
        43  15 -1.070523E+05  4.355438E-01 -1.100179E+02  2.701867E-10 -5.954459E-10  7.389797E-10
        43  16 -1.070523E+05 -1.546677E+00  1.032555E+02  9.476676E+00 -1.543930E-08 -2.232058E-10
        43  17 -1.070521E+05  9.517608E-03 -2.784183E+00  9.149331E+00 -5.791597E-09  1.065362E-10
        43  18 -1.070523E+05  4.355440E-01 -1.100179E+02  8.821991E+00  3.871950E-09  5.986462E-10
        43  19 -1.070523E+05 -1.546669E+00  1.032555E+02 -9.476676E+00 -1.695158E+02  2.586931E-06
        43  20 -1.070521E+05  9.525460E-03 -2.784128E+00 -9.149331E+00 -1.709142E+02  2.518092E-06
        43  21 -1.070523E+05  4.355519E-01 -1.100178E+02 -8.821991E+00 -1.723127E+02  2.449693E-06
        43  22 -1.070523E+05 -1.546669E+00  1.032555E+02  6.142396E-08 -1.695158E+02 -7.037837E-10
        43  23 -1.070521E+05  9.525297E-03 -2.784128E+00  1.362281E-08 -1.709142E+02 -9.572645E-10
        43  24 -1.070523E+05  4.355518E-01 -1.100178E+02 -8.197860E-09 -1.723127E+02  5.977974E-10
        43  25 -1.070523E+05 -1.546669E+00  1.032555E+02  9.476677E+00 -1.695158E+02 -2.588332E-06
        43  26 -1.070521E+05  9.525457E-03 -2.784128E+00  9.149331E+00 -1.709142E+02 -2.519991E-06
        43  27 -1.070523E+05  4.355519E-01 -1.100178E+02  8.821991E+00 -1.723127E+02 -2.448495E-06
        44   1 -1.070588E+05  2.379244E+00 -1.737314E+02 -1.382795E+01  1.978822E+02 -4.407625E-06
        44   2 -1.070440E+05  5.050246E+00 -3.478052E+02 -1.448945E+01  3.702230E+02 -8.641945E-06
        44   3 -1.070588E+05 -2.040973E+01 -6.411257E+02 -1.515097E+01  5.425663E+02 -1.324272E-05
        44   4 -1.070588E+05  2.379244E+00 -1.737314E+02  9.724580E-09  1.978822E+02  3.526758E-10
        44   5 -1.070440E+05  5.050245E+00 -3.478052E+02 -1.019227E-09  3.702230E+02 -4.439173E-11
        44   6 -1.070588E+05 -2.040973E+01 -6.411257E+02 -7.186354E-09  5.425663E+02  5.502090E-10
        44   7 -1.070588E+05  2.379244E+00 -1.737314E+02  1.382795E+01  1.978822E+02  4.408322E-06
        44   8 -1.070440E+05  5.050246E+00 -3.478052E+02  1.448945E+01  3.702230E+02  8.641834E-06
        44   9 -1.070588E+05 -2.040973E+01 -6.411257E+02  1.515097E+01  5.425663E+02  1.324380E-05
        44  10 -1.070588E+05  2.379233E+00 -1.737315E+02 -1.382795E+01  5.749199E-10  9.570312E-10
        44  11 -1.070440E+05  5.050209E+00 -3.478054E+02 -1.448945E+01  1.113457E-09  1.819585E-10
        44  12 -1.070588E+05 -2.040981E+01 -6.411263E+02 -1.515097E+01 -1.371166E-09 -1.219356E-10
        44  13 -1.070588E+05  2.379233E+00 -1.737315E+02  4.128561E-09 -1.115589E-09  7.418945E-10
        44  14 -1.070440E+05  5.050208E+00 -3.478054E+02  1.051549E-09  4.804708E-10  1.190179E-10
        44  15 -1.070588E+05 -2.040981E+01 -6.411263E+02 -3.640592E-09  5.487554E-10  3.819271E-11
        44  16 -1.070588E+05  2.379233E+00 -1.737315E+02  1.382795E+01  2.768964E-10  5.169155E-10
        44  17 -1.070440E+05  5.050209E+00 -3.478054E+02  1.448945E+01 -3.728945E-10  5.499986E-11
        44  18 -1.070588E+05 -2.040981E+01 -6.411263E+02  1.515097E+01  6.749625E-10  2.024197E-10
        44  19 -1.070588E+05  2.379244E+00 -1.737314E+02 -1.382795E+01 -1.978822E+02  4.409553E-06
        44  20 -1.070440E+05  5.050246E+00 -3.478052E+02 -1.448945E+01 -3.702230E+02  8.642327E-06
        44  21 -1.070588E+05 -2.040973E+01 -6.411257E+02 -1.515097E+01 -5.425663E+02  1.324248E-05
        44  22 -1.070588E+05  2.379244E+00 -1.737314E+02  9.301819E-09 -1.978822E+02  1.130175E-09
        44  23 -1.070440E+05  5.050245E+00 -3.478052E+02 -5.493098E-09 -3.702230E+02  2.904469E-10
        44  24 -1.070588E+05 -2.040973E+01 -6.411257E+02  1.519774E-09 -5.425663E+02 -4.745844E-10
        44  25 -1.070588E+05  2.379244E+00 -1.737314E+02  1.382795E+01 -1.978822E+02 -4.407280E-06
        44  26 -1.070440E+05  5.050246E+00 -3.478052E+02  1.448945E+01 -3.702230E+02 -8.641741E-06
        44  27 -1.070588E+05 -2.040973E+01 -6.411257E+02  1.515097E+01 -5.425663E+02 -1.324344E-05
        45   1 -1.071027E+05  3.072086E+01 -8.458083E+02 -1.057440E+02  6.735519E+02 -1.147417E-04
        45   2 -1.069892E+05  7.715180E+00 -1.480618E+03  3.912252E+01  1.415492E+03  8.921382E-05
        45   3 -1.071027E+05 -5.367605E+02 -2.728890E+03  1.839891E+02  2.157430E+03  6.394782E-04
        45   4 -1.071027E+05  3.072084E+01 -8.458083E+02 -1.310485E-09  6.735519E+02  5.377932E-10
        45   5 -1.069892E+05  7.715177E+00 -1.480618E+03 -9.166403E-09  1.415492E+03 -1.209610E-10
        45   6 -1.071027E+05 -5.367606E+02 -2.728890E+03 -1.404755E-09  2.157430E+03  1.827362E-10
        45   7 -1.071027E+05  3.072086E+01 -8.458083E+02  1.057440E+02  6.735519E+02  1.147428E-04
        45   8 -1.069892E+05  7.715180E+00 -1.480618E+03 -3.912252E+01  1.415492E+03 -8.921410E-05
        45   9 -1.071027E+05 -5.367605E+02 -2.728890E+03 -1.839891E+02  2.157430E+03 -6.394778E-04
        45  10 -1.071027E+05  3.072074E+01 -8.458092E+02 -1.057440E+02 -8.484383E-11 -2.537183E-11
        45  11 -1.069892E+05  7.714642E+00 -1.480622E+03  3.912252E+01 -1.530195E-09  9.420632E-11
        45  12 -1.071027E+05 -5.367618E+02 -2.728899E+03  1.839891E+02 -1.866628E-09 -1.119861E-10
        45  13 -1.071027E+05  3.072072E+01 -8.458092E+02  1.798834E-09  1.051641E-12 -5.179495E-11
        45  14 -1.069892E+05  7.714639E+00 -1.480622E+03 -1.644599E-09 -1.928021E-11 -3.440020E-10
        45  15 -1.071027E+05 -5.367618E+02 -2.728899E+03 -5.087244E-09  2.436491E-09 -1.957657E-10
        45  16 -1.071027E+05  3.072074E+01 -8.458092E+02  1.057440E+02  5.879018E-10 -7.725192E-11
        45  17 -1.069892E+05  7.714642E+00 -1.480622E+03 -3.912252E+01  7.219742E-10 -7.758049E-10
        45  18 -1.071027E+05 -5.367618E+02 -2.728899E+03 -1.839891E+02  2.270169E-09 -2.757442E-10
        45  19 -1.071027E+05  3.072086E+01 -8.458083E+02 -1.057440E+02 -6.735519E+02  1.147417E-04
        45  20 -1.069892E+05  7.715180E+00 -1.480618E+03  3.912252E+01 -1.415492E+03 -8.921368E-05
        45  21 -1.071027E+05 -5.367605E+02 -2.728890E+03  1.839891E+02 -2.157430E+03 -6.394784E-04
        45  22 -1.071027E+05  3.072084E+01 -8.458083E+02  1.029240E-08 -6.735519E+02 -6.434031E-10
        45  23 -1.069892E+05  7.715177E+00 -1.480618E+03  8.030668E-09 -1.415492E+03 -5.684921E-10
        45  24 -1.071027E+05 -5.367606E+02 -2.728890E+03  7.114437E-09 -2.157430E+03 -5.749066E-10
        45  25 -1.071027E+05  3.072086E+01 -8.458083E+02  1.057440E+02 -6.735519E+02 -1.147430E-04
        45  26 -1.069892E+05  7.715180E+00 -1.480618E+03 -3.912252E+01 -1.415492E+03  8.921253E-05
        45  27 -1.071027E+05 -5.367605E+02 -2.728890E+03 -1.839891E+02 -2.157430E+03  6.394773E-04
        46   1 -1.076938E+05  4.883409E+02 -3.451367E+03 -1.516391E+03  2.640185E+03 -6.449745E-03
        46   2 -1.062505E+05 -2.374503E+02 -5.938451E+03  1.940328E+03  5.776959E+03  1.805803E-02
        46   3 -1.076943E+05 -1.087678E+04 -1.294634E+04  5.396983E+03  8.913689E+03  7.750058E-02
        46   4 -1.076938E+05  4.883366E+02 -3.451367E+03  2.549943E-09  2.640185E+03  1.520984E-11
        46   5 -1.062505E+05 -2.374573E+02 -5.938452E+03  3.593789E-09  5.776959E+03 -7.474992E-10
        46   6 -1.076943E+05 -1.087683E+04 -1.294634E+04  3.156953E-09  8.913689E+03 -3.480039E-10
        46   7 -1.076938E+05  4.883409E+02 -3.451367E+03  1.516391E+03  2.640185E+03  6.449745E-03
        46   8 -1.062505E+05 -2.374503E+02 -5.938451E+03 -1.940328E+03  5.776959E+03 -1.805803E-02
        46   9 -1.076943E+05 -1.087678E+04 -1.294634E+04 -5.396983E+03  8.913689E+03 -7.750059E-02
        46  10 -1.076938E+05  4.883390E+02 -3.451380E+03 -1.516391E+03  1.076461E-09 -4.746951E-10
        46  11 -1.062506E+05 -2.374592E+02 -5.938514E+03  1.940328E+03  2.138132E-09 -7.766230E-10
        46  12 -1.076944E+05 -1.087680E+04 -1.294649E+04  5.396983E+03  9.975428E-10 -2.864885E-10
        46  13 -1.076938E+05  4.883347E+02 -3.451380E+03 -2.967737E-09  7.275243E-11 -2.589977E-10
        46  14 -1.062506E+05 -2.374663E+02 -5.938515E+03 -1.784813E-09 -1.615385E-09 -5.252000E-10
        46  15 -1.076944E+05 -1.087685E+04 -1.294649E+04 -4.372182E-09  8.187682E-10 -2.033451E-10
        46  16 -1.076938E+05  4.883390E+02 -3.451380E+03  1.516391E+03  1.996616E-11 -4.390017E-11
        46  17 -1.062506E+05 -2.374592E+02 -5.938514E+03 -1.940328E+03  5.826402E-10 -2.706884E-10
        46  18 -1.076944E+05 -1.087680E+04 -1.294649E+04 -5.396983E+03 -1.652424E-10 -1.226432E-10
        46  19 -1.076938E+05  4.883409E+02 -3.451367E+03 -1.516391E+03 -2.640185E+03  6.449744E-03
        46  20 -1.062505E+05 -2.374503E+02 -5.938451E+03  1.940328E+03 -5.776959E+03 -1.805803E-02
        46  21 -1.076943E+05 -1.087678E+04 -1.294634E+04  5.396983E+03 -8.913689E+03 -7.750059E-02
        46  22 -1.076938E+05  4.883366E+02 -3.451367E+03  2.286245E-09 -2.640185E+03 -5.331542E-10
        46  23 -1.062505E+05 -2.374573E+02 -5.938452E+03 -5.009293E-09 -5.776959E+03 -3.042644E-10
        46  24 -1.076943E+05 -1.087683E+04 -1.294634E+04  1.291522E-09 -8.913689E+03 -6.032139E-11
        46  25 -1.076938E+05  4.883409E+02 -3.451367E+03  1.516391E+03 -2.640185E+03 -6.449745E-03
        46  26 -1.062505E+05 -2.374503E+02 -5.938451E+03 -1.940328E+03 -5.776959E+03  1.805803E-02
        46  27 -1.076943E+05 -1.087678E+04 -1.294634E+04 -5.396983E+03 -8.913689E+03  7.750059E-02
        47   1  2.661308E+05  8.022741E+05  2.694958E+05 -1.247727E+05  1.098594E+04  6.975045E+04
        47   2  1.800592E+05  6.425250E+05  1.885500E+05 -8.173407E+04  3.328060E+04  3.211131E+04
        47   3  1.401305E+05  4.993399E+05  1.436477E+05 -9.574075E+04  3.153233E+04 -5.522357E+03
        47   4  4.579259E+04 -8.507419E+04  5.480519E+04 -1.017440E+05  1.099782E+04  3.593227E+04
        47   5  9.303259E+02 -9.126871E+04  2.649412E+04 -7.323011E+04  3.328843E+04  2.199568E+04
        47   6 -1.869741E+03 -8.501057E+04  1.779878E+04 -1.017618E+05  3.152510E+04  8.054996E+03
        47   7 -1.746006E+05 -9.716999E+05 -1.599374E+05 -7.874814E+04  1.100721E+04  2.162186E+03
        47   8 -1.782344E+05 -8.245593E+05 -1.355945E+05 -6.473623E+04  3.329598E+04  1.189184E+04
        47   9 -1.438922E+05 -6.690399E+05 -1.080695E+05 -1.077770E+05  3.151761E+04  2.161975E+04
        47  10  2.661293E+05  8.022688E+05  2.694864E+05 -1.247733E+05  2.639361E-10  5.082080E-11
        47  11  1.800577E+05  6.425236E+05  1.885460E+05 -8.173493E+04  1.380864E-09 -2.303330E-10
        47  12  1.401294E+05  4.993396E+05  1.436458E+05 -9.574061E+04 -9.551174E-10 -3.089706E-10
        47  13  4.579211E+04 -8.507561E+04  5.480253E+04 -1.017443E+05 -3.915337E-12 -9.969969E-12
        47  14  9.290060E+02 -9.126953E+04  2.649113E+04 -7.323070E+04  1.643160E-09 -3.581824E-10
        47  15 -1.870825E+03 -8.501090E+04  1.779679E+04 -1.017620E+05  4.059511E-10 -6.190222E-10
        47  16 -1.746008E+05 -9.716999E+05 -1.599377E+05 -7.874816E+04 -5.184692E-10 -1.167954E-11
        47  17 -1.782357E+05 -8.245597E+05 -1.355969E+05 -6.473655E+04 -1.830858E-09 -1.916182E-10
        47  18 -1.438934E+05 -6.690406E+05 -1.080723E+05 -1.077776E+05 -4.041291E-10 -4.519920E-11
        47  19  2.661308E+05  8.022741E+05  2.694958E+05 -1.247727E+05 -1.098594E+04 -6.975045E+04
        47  20  1.800592E+05  6.425250E+05  1.885500E+05 -8.173407E+04 -3.328060E+04 -3.211131E+04
        47  21  1.401305E+05  4.993399E+05  1.436477E+05 -9.574075E+04 -3.153233E+04  5.522357E+03
        47  22  4.579259E+04 -8.507419E+04  5.480519E+04 -1.017440E+05 -1.099782E+04 -3.593227E+04
        47  23  9.303259E+02 -9.126871E+04  2.649412E+04 -7.323011E+04 -3.328843E+04 -2.199568E+04
        47  24 -1.869741E+03 -8.501057E+04  1.779878E+04 -1.017618E+05 -3.152510E+04 -8.054996E+03
        47  25 -1.746006E+05 -9.716999E+05 -1.599374E+05 -7.874814E+04 -1.100721E+04 -2.162186E+03
        47  26 -1.782344E+05 -8.245593E+05 -1.355945E+05 -6.473623E+04 -3.329598E+04 -1.189184E+04
        47  27 -1.438922E+05 -6.690399E+05 -1.080695E+05 -1.077770E+05 -3.151761E+04 -2.161975E+04
        48   1  1.153113E+05  3.778108E+05  1.164800E+05 -1.036160E+05  2.447375E+04 -1.608782E+03
        48   2  7.626326E+04  2.253848E+05  8.165485E+04 -7.306685E+04  1.705355E+04 -9.430427E+03
        48   3  4.246433E+04  7.523896E+04  5.321401E+04 -1.006693E+05  8.900814E+03 -1.725382E+04
        48   4  2.193717E+03 -8.727594E+04  1.590773E+04 -1.020033E+05  2.446959E+04  5.338748E+03
        48   5  2.586756E+01 -8.832860E+04  1.415371E+04 -7.292643E+04  1.704753E+04 -1.758718E+03
        48   6  2.984355E+03 -8.724739E+04  1.828420E+04 -1.020026E+05  8.892731E+03 -8.859778E+03
        48   7 -1.109381E+05 -5.521595E+05 -8.467713E+04 -1.003918E+05  2.446547E+04  1.228115E+04
        48   8 -7.621795E+04 -4.019494E+05 -5.335299E+04 -7.278606E+04  1.704152E+04  5.909169E+03
        48   9 -3.649730E+04 -2.497088E+05 -1.664689E+04 -1.033356E+05  8.884610E+03 -4.678991E+02
        48  10  1.153106E+05  3.778106E+05  1.164788E+05 -1.036159E+05  1.244043E-09  1.045131E-09
        48  11  7.626292E+04  2.253846E+05  8.165414E+04 -7.306672E+04  1.494909E-09 -2.203742E-10
        48  12  4.246416E+04  7.523862E+04  5.321330E+04 -1.006692E+05 -8.058424E-10 -6.800072E-10
        48  13  2.193066E+03 -8.727613E+04  1.590655E+04 -1.020034E+05 -1.391985E-09 -5.167194E-13
        48  14  2.555468E+01 -8.832868E+04  1.415316E+04 -7.292641E+04  2.072846E-09 -8.167383E-10
        48  15  2.984249E+03 -8.724750E+04  1.828390E+04 -1.020026E+05  6.929809E-10 -9.623773E-10
        48  16 -1.109388E+05 -5.521598E+05 -8.467854E+04 -1.003920E+05  1.733509E-10 -5.649678E-10
        48  17 -7.621828E+04 -4.019495E+05 -5.335360E+04 -7.278614E+04 -4.056537E-10 -7.017410E-10
        48  18 -3.649739E+04 -2.497088E+05 -1.664704E+04 -1.033356E+05  1.937867E-09  1.129718E-10
        48  19  1.153113E+05  3.778108E+05  1.164800E+05 -1.036160E+05 -2.447375E+04  1.608782E+03
        48  20  7.626326E+04  2.253848E+05  8.165485E+04 -7.306685E+04 -1.705355E+04  9.430427E+03
        48  21  4.246433E+04  7.523896E+04  5.321401E+04 -1.006693E+05 -8.900814E+03  1.725382E+04
        48  22  2.193717E+03 -8.727594E+04  1.590773E+04 -1.020033E+05 -2.446959E+04 -5.338748E+03
        48  23  2.586756E+01 -8.832860E+04  1.415371E+04 -7.292643E+04 -1.704753E+04  1.758718E+03
        48  24  2.984355E+03 -8.724739E+04  1.828420E+04 -1.020026E+05 -8.892731E+03  8.859778E+03
        48  25 -1.109381E+05 -5.521595E+05 -8.467713E+04 -1.003918E+05 -2.446547E+04 -1.228115E+04
        48  26 -7.621795E+04 -4.019494E+05 -5.335299E+04 -7.278606E+04 -1.704152E+04 -5.909169E+03
        48  27 -3.649730E+04 -2.497088E+05 -1.664689E+04 -1.033356E+05 -8.884610E+03  4.678991E+02
        49   1  8.154857E+03 -4.058456E+04  3.034429E+04 -1.101728E+05  2.992233E+03 -2.236900E+04
        49   2 -2.491616E+04 -1.990860E+05  9.065821E+03 -6.227347E+04 -3.493272E+03 -3.213935E+04
        49   3 -5.048477E+03 -3.431588E+05  7.359758E+03 -7.218829E+04 -1.928201E+03 -4.190074E+04
        49   4 -2.392318E+03 -8.421158E+04  2.133516E+04 -1.019399E+05  2.981531E+03 -1.201962E+04
        49   5  1.407731E+03 -9.210105E+04  3.356323E+04 -7.300812E+04 -3.494983E+03 -2.971435E+04
        49   6  5.951529E+04 -8.421816E+04  7.086231E+04 -1.018853E+05 -1.920979E+03 -4.740241E+04
        49   7 -1.293930E+04 -1.278364E+05  1.232637E+04 -9.370753E+04  2.971104E+03 -1.670961E+03
        49   8  2.773126E+04  1.489474E+04  5.805996E+04 -8.374464E+04 -3.496778E+03 -2.728894E+04
        49   9  1.240774E+05  1.747855E+05  1.343605E+05 -1.315946E+05 -1.913233E+03 -5.290638E+04
        49  10  8.154713E+03 -4.058510E+04  3.034333E+04 -1.101728E+05  9.962405E-11  3.826281E-10
        49  11 -2.491645E+04 -1.990871E+05  9.063857E+03 -6.227356E+04 -3.151594E-10 -9.253525E-10
        49  12 -5.048953E+03 -3.431606E+05  7.356450E+03 -7.218836E+04  5.213502E-10 -1.135552E-09
        49  13 -2.392367E+03 -8.421174E+04  2.133487E+04 -1.019398E+05  7.450974E-11 -1.154806E-11
        49  14  1.407481E+03 -9.210200E+04  3.356154E+04 -7.300821E+04  1.890843E-09 -9.177992E-10
        49  15  5.951469E+04 -8.422057E+04  7.085808E+04 -1.018853E+05  3.426067E-10 -8.752673E-10
        49  16 -1.293931E+04 -1.278364E+05  1.232635E+04 -9.370752E+04  2.478933E-09  2.633561E-10
        49  17  2.773105E+04  1.489394E+04  5.805854E+04 -8.374472E+04  2.492666E-10 -5.349117E-11
        49  18  1.240767E+05  1.747825E+05  1.343553E+05 -1.315947E+05  1.301211E-09  6.387289E-10
        49  19  8.154857E+03 -4.058456E+04  3.034429E+04 -1.101728E+05 -2.992233E+03  2.236900E+04
        49  20 -2.491616E+04 -1.990860E+05  9.065821E+03 -6.227347E+04  3.493272E+03  3.213935E+04
        49  21 -5.048477E+03 -3.431588E+05  7.359758E+03 -7.218829E+04  1.928201E+03  4.190074E+04
        49  22 -2.392318E+03 -8.421158E+04  2.133516E+04 -1.019399E+05 -2.981531E+03  1.201962E+04
        49  23  1.407731E+03 -9.210105E+04  3.356323E+04 -7.300812E+04  3.494983E+03  2.971435E+04
        49  24  5.951529E+04 -8.421816E+04  7.086231E+04 -1.018853E+05  1.920979E+03  4.740241E+04
        49  25 -1.293930E+04 -1.278364E+05  1.232637E+04 -9.370753E+04 -2.971104E+03  1.670961E+03
        49  26  2.773126E+04  1.489474E+04  5.805996E+04 -8.374464E+04  3.496778E+03  2.728894E+04
        49  27  1.240774E+05  1.747855E+05  1.343605E+05 -1.315946E+05  1.913233E+03  5.290638E+04
        50   1 -5.278661E+05 -1.383772E+05 -5.811676E+04 -2.025501E+05 -2.591651E+04 -8.378801E+03
        50   2 -5.134965E+05 -9.821994E+04 -3.277567E+04 -1.974219E+05 -1.631533E+04 -2.097334E+03
        50   3 -5.057274E+05 -8.818298E+04 -2.225656E+04 -1.909094E+05 -5.736448E+03  1.577560E+03
        50   4 -4.487890E+05 -9.612522E+04 -3.460934E+04 -1.681139E+05 -2.255370E+04 -7.118494E+03
        50   5 -4.438452E+05 -6.794186E+04 -1.509451E+04 -1.738144E+05 -1.535162E+04 -1.736174E+03
        50   6 -4.450251E+05 -6.940181E+04 -8.498834E+03 -1.781312E+05 -7.172013E+03  1.039360E+03
        50   7 -3.697067E+05 -5.387135E+04 -1.110285E+04 -1.336736E+05 -1.919048E+04 -5.857860E+03
        50   8 -3.741894E+05 -3.766306E+04  2.586194E+03 -1.502043E+05 -1.438781E+04 -1.374954E+03
        50   9 -3.843187E+05 -5.062047E+04  5.258798E+03 -1.653518E+05 -8.607742E+03  5.011203E+02
        50  10 -5.278668E+05 -1.383775E+05 -5.811815E+04 -2.025503E+05  8.818207E-10  1.691708E-10
        50  11 -5.134968E+05 -9.822001E+04 -3.277618E+04 -1.974219E+05 -7.482227E-10  5.863797E-10
        50  12 -5.057275E+05 -8.818299E+04 -2.225663E+04 -1.909094E+05 -6.801281E-10 -2.376436E-10
        50  13 -4.487896E+05 -9.612541E+04 -3.461039E+04 -1.681140E+05 -1.230937E-09 -3.220254E-11
        50  14 -4.438455E+05 -6.794193E+04 -1.509496E+04 -1.738144E+05 -1.367699E-09  4.250722E-10
        50  15 -4.450252E+05 -6.940182E+04 -8.498933E+03 -1.781312E+05 -9.440682E-10  2.055867E-10
        50  16 -3.697071E+05 -5.387148E+04 -1.110360E+04 -1.336737E+05 -1.740411E-09 -5.145121E-11
        50  17 -3.741896E+05 -3.766312E+04  2.585802E+03 -1.502044E+05 -7.830070E-10 -2.215667E-11
        50  18 -3.843188E+05 -5.062049E+04  5.258658E+03 -1.653518E+05  5.699344E-10  5.813454E-10
        50  19 -5.278661E+05 -1.383772E+05 -5.811676E+04 -2.025501E+05  2.591651E+04  8.378801E+03
        50  20 -5.134965E+05 -9.821994E+04 -3.277567E+04 -1.974219E+05  1.631533E+04  2.097334E+03
        50  21 -5.057274E+05 -8.818298E+04 -2.225656E+04 -1.909094E+05  5.736448E+03 -1.577560E+03
        50  22 -4.487890E+05 -9.612522E+04 -3.460934E+04 -1.681139E+05  2.255370E+04  7.118494E+03
        50  23 -4.438452E+05 -6.794186E+04 -1.509451E+04 -1.738144E+05  1.535162E+04  1.736174E+03
        50  24 -4.450251E+05 -6.940181E+04 -8.498834E+03 -1.781312E+05  7.172013E+03 -1.039360E+03
        50  25 -3.697067E+05 -5.387135E+04 -1.110285E+04 -1.336736E+05  1.919048E+04  5.857860E+03
        50  26 -3.741894E+05 -3.766306E+04  2.586194E+03 -1.502043E+05  1.438781E+04  1.374954E+03
        50  27 -3.843187E+05 -5.062047E+04  5.258798E+03 -1.653518E+05  8.607742E+03 -5.011203E+02
        51   1 -4.892182E+05 -8.915225E+04 -1.759744E+04 -1.895753E+05 -5.142190E+03  9.210064E+02
        51   2 -4.761619E+05 -7.956363E+04 -1.073195E+04 -1.829661E+05 -2.981048E+03  8.333887E+02
        51   3 -4.593981E+05 -7.594755E+04 -5.650613E+03 -1.812072E+05 -7.759908E+02  6.286581E+02
        51   4 -4.439186E+05 -7.183435E+04 -6.708273E+03 -1.766306E+05 -5.813297E+03  6.693881E+02
        51   5 -4.456801E+05 -6.813138E+04 -3.468560E+03 -1.744780E+05 -3.759846E+03  5.414187E+02
        51   6 -4.437130E+05 -7.037946E+04 -1.927504E+03 -1.771755E+05 -1.662554E+03  2.963175E+02
        51   7 -3.986167E+05 -5.451621E+04  4.180785E+03 -1.636849E+05 -6.484458E+03  4.177477E+02
        51   8 -4.151976E+05 -5.669916E+04  3.794692E+03 -1.659895E+05 -4.538679E+03  2.494352E+02
        51   9 -4.280280E+05 -6.481148E+04  1.795502E+03 -1.731439E+05 -2.549123E+03 -3.602430E+01
        51  10 -4.892182E+05 -8.915226E+04 -1.759749E+04 -1.895753E+05  9.933765E-10 -4.525426E-10
        51  11 -4.761620E+05 -7.956363E+04 -1.073197E+04 -1.829661E+05 -1.822102E-09 -1.885906E-09
        51  12 -4.593981E+05 -7.594755E+04 -5.650615E+03 -1.812072E+05 -4.391374E-10 -1.827072E-09
        51  13 -4.439186E+05 -7.183436E+04 -6.708337E+03 -1.766306E+05 -8.691679E-10 -5.953976E-10
        51  14 -4.456801E+05 -6.813138E+04 -3.468587E+03 -1.744780E+05 -2.057341E-09 -1.837991E-09
        51  15 -4.437130E+05 -7.037946E+04 -1.927510E+03 -1.771755E+05 -1.736370E-09 -1.222009E-09
        51  16 -3.986168E+05 -5.451622E+04  4.180706E+03 -1.636849E+05 -2.448520E-09 -6.754925E-10
        51  17 -4.151976E+05 -5.669916E+04  3.794653E+03 -1.659895E+05 -3.492841E-09 -1.944130E-09
        51  18 -4.280280E+05 -6.481148E+04  1.795489E+03 -1.731439E+05 -4.944662E-10 -1.989870E-10
        51  19 -4.892182E+05 -8.915225E+04 -1.759744E+04 -1.895753E+05  5.142190E+03 -9.210064E+02
        51  20 -4.761619E+05 -7.956363E+04 -1.073195E+04 -1.829661E+05  2.981048E+03 -8.333887E+02
        51  21 -4.593981E+05 -7.594755E+04 -5.650613E+03 -1.812072E+05  7.759908E+02 -6.286581E+02
        51  22 -4.439186E+05 -7.183435E+04 -6.708273E+03 -1.766306E+05  5.813297E+03 -6.693881E+02
        51  23 -4.456801E+05 -6.813138E+04 -3.468560E+03 -1.744780E+05  3.759846E+03 -5.414187E+02
        51  24 -4.437130E+05 -7.037946E+04 -1.927504E+03 -1.771755E+05  1.662554E+03 -2.963175E+02
        51  25 -3.986167E+05 -5.451621E+04  4.180785E+03 -1.636849E+05  6.484458E+03 -4.177477E+02
        51  26 -4.151976E+05 -5.669916E+04  3.794692E+03 -1.659895E+05  4.538679E+03 -2.494352E+02
        51  27 -4.280280E+05 -6.481148E+04  1.795502E+03 -1.731439E+05  2.549123E+03  3.602430E+01
        52   1 -4.468486E+05 -7.167864E+04 -2.182056E+03 -1.779535E+05 -3.302068E+02  1.635070E+02
        52   2 -4.339639E+05 -6.375722E+04  2.003286E+03 -1.712417E+05  4.270678E+02 -6.113151E+02
        52   3 -4.166627E+05 -6.042597E+04  5.861846E+03 -1.696858E+05  1.186180E+03 -1.390895E+03
        52   4 -4.436205E+05 -7.050649E+04 -1.467036E+03 -1.770825E+05 -1.182721E+03 -1.560659E+02
        52   5 -4.458241E+05 -6.817726E+04 -8.100165E+02 -1.745173E+05 -4.298514E+02 -9.325557E+02
        52   6 -4.436106E+05 -7.043749E+04 -4.763106E+02 -1.771082E+05  3.248439E+02 -1.713806E+03
        52   7 -4.403924E+05 -6.933432E+04 -7.519976E+02 -1.762114E+05 -2.035256E+03 -4.756461E+02
        52   8 -4.576843E+05 -7.259736E+04 -3.623374E+03 -1.777929E+05 -1.286766E+03 -1.253794E+03
        52   9 -4.705580E+05 -8.044908E+04 -6.814607E+03 -1.845305E+05 -5.364624E+02 -2.036705E+03
        52  10 -4.468486E+05 -7.167864E+04 -2.182057E+03 -1.779535E+05  9.624101E-10 -5.270889E-10
        52  11 -4.339639E+05 -6.375722E+04  2.003284E+03 -1.712417E+05  1.365433E-09  5.997135E-10
        52  12 -4.166627E+05 -6.042597E+04  5.861840E+03 -1.696857E+05  1.714626E-09  1.295991E-09
        52  13 -4.436205E+05 -7.050649E+04 -1.467039E+03 -1.770825E+05  1.267745E-09 -4.295206E-10
        52  14 -4.458241E+05 -6.817726E+04 -8.100185E+02 -1.745173E+05 -2.273115E-09  1.739568E-11
        52  15 -4.436106E+05 -7.043749E+04 -4.763163E+02 -1.771082E+05  2.463227E-09  1.196398E-09
        52  16 -4.403924E+05 -6.933432E+04 -7.520058E+02 -1.762114E+05  1.060388E-10 -4.569780E-10
        52  17 -4.576843E+05 -7.259736E+04 -3.623381E+03 -1.777930E+05  1.449546E-09 -4.941644E-10
        52  18 -4.705580E+05 -8.044909E+04 -6.814615E+03 -1.845305E+05  3.594438E-09  1.208037E-09
        52  19 -4.468486E+05 -7.167864E+04 -2.182056E+03 -1.779535E+05  3.302068E+02 -1.635070E+02
        52  20 -4.339639E+05 -6.375722E+04  2.003286E+03 -1.712417E+05 -4.270678E+02  6.113151E+02
        52  21 -4.166627E+05 -6.042597E+04  5.861846E+03 -1.696858E+05 -1.186180E+03  1.390895E+03
        52  22 -4.436205E+05 -7.050649E+04 -1.467036E+03 -1.770825E+05  1.182721E+03  1.560659E+02
        52  23 -4.458241E+05 -6.817726E+04 -8.100165E+02 -1.745173E+05  4.298514E+02  9.325557E+02
        52  24 -4.436106E+05 -7.043749E+04 -4.763106E+02 -1.771082E+05 -3.248439E+02  1.713806E+03
        52  25 -4.403924E+05 -6.933432E+04 -7.519976E+02 -1.762114E+05  2.035256E+03  4.756461E+02
        52  26 -4.576843E+05 -7.259736E+04 -3.623374E+03 -1.777929E+05  1.286766E+03  1.253794E+03
        52  27 -4.705580E+05 -8.044908E+04 -6.814607E+03 -1.845305E+05  5.364624E+02  2.036705E+03
        53   1 -4.043886E+05 -5.587649E+04  8.963597E+03 -1.663340E+05  1.459216E+03 -1.909018E+03
        53   2 -3.915556E+05 -4.804930E+04  1.258268E+04 -1.596235E+05  1.948571E+03 -2.789714E+03
        53   3 -3.742489E+05 -4.472410E+04  1.609645E+04 -1.580682E+05  2.437758E+03 -3.669774E+03
        53   4 -4.436019E+05 -7.044098E+04 -3.823594E+02 -1.770997E+05  5.997947E+02 -2.231222E+03
        53   5 -4.458385E+05 -6.818966E+04 -2.813000E+02 -1.745223E+05  1.089700E+03 -3.111739E+03
        53   6 -4.436019E+05 -7.044029E+04 -2.859232E+02 -1.771000E+05  1.579438E+03 -3.991628E+03
        53   7 -4.828128E+05 -8.500506E+04 -9.728199E+03 -1.878645E+05 -2.595494E+02 -2.553398E+03
        53   8 -5.001182E+05 -8.832969E+04 -1.314539E+04 -1.894198E+05  2.309160E+02 -3.433732E+03
        53   9 -5.129508E+05 -9.615636E+04 -1.666880E+04 -1.961300E+05  7.212142E+02 -4.313445E+03
        53  10 -4.043886E+05 -5.587650E+04  8.963586E+03 -1.663340E+05  5.753086E-09  1.660051E-09
        53  11 -3.915556E+05 -4.804931E+04  1.258265E+04 -1.596235E+05  7.733579E-10 -4.474958E-10
        53  12 -3.742489E+05 -4.472412E+04  1.609642E+04 -1.580682E+05 -2.154294E-10 -6.117956E-10
        53  13 -4.436019E+05 -7.044099E+04 -3.823694E+02 -1.770997E+05  2.856884E-09  1.155705E-09
        53  14 -4.458385E+05 -6.818967E+04 -2.813204E+02 -1.745223E+05  1.147264E-09 -2.827313E-10
        53  15 -4.436019E+05 -7.044031E+04 -2.859579E+02 -1.771000E+05 -7.242550E-10 -6.636093E-10
        53  16 -4.828128E+05 -8.500506E+04 -9.728211E+03 -1.878645E+05  6.063639E-10  6.763420E-10
        53  17 -5.001182E+05 -8.832970E+04 -1.314541E+04 -1.894198E+05  8.212604E-10 -2.123271E-10
        53  18 -5.129508E+05 -9.615638E+04 -1.666884E+04 -1.961300E+05 -1.588087E-09 -7.124652E-10
        53  19 -4.043886E+05 -5.587649E+04  8.963597E+03 -1.663340E+05 -1.459216E+03  1.909018E+03
        53  20 -3.915556E+05 -4.804930E+04  1.258268E+04 -1.596235E+05 -1.948571E+03  2.789714E+03
        53  21 -3.742489E+05 -4.472410E+04  1.609645E+04 -1.580682E+05 -2.437758E+03  3.669774E+03
        53  22 -4.436019E+05 -7.044098E+04 -3.823594E+02 -1.770997E+05 -5.997947E+02  2.231222E+03
        53  23 -4.458385E+05 -6.818966E+04 -2.813000E+02 -1.745223E+05 -1.089700E+03  3.111739E+03
        53  24 -4.436019E+05 -7.044029E+04 -2.859232E+02 -1.771000E+05 -1.579438E+03  3.991628E+03
        53  25 -4.828128E+05 -8.500506E+04 -9.728199E+03 -1.878645E+05  2.595494E+02  2.553398E+03
        53  26 -5.001182E+05 -8.832969E+04 -1.314539E+04 -1.894198E+05 -2.309160E+02  3.433732E+03
        53  27 -5.129508E+05 -9.615636E+04 -1.666880E+04 -1.961300E+05 -7.212142E+02  4.313445E+03
        54   1 -3.620281E+05 -4.016923E+04  1.905935E+04 -1.547190E+05  2.690812E+03 -4.193296E+03
        54   2 -3.492387E+05 -3.237343E+04  2.239130E+04 -1.480343E+05  3.284450E+03 -5.031254E+03
        54   3 -3.320076E+05 -2.907059E+04  2.553824E+04 -1.464865E+05  3.877397E+03 -5.867025E+03
        54   4 -4.436094E+05 -7.043698E+04 -3.241642E+02 -1.770967E+05  1.833556E+03 -4.514782E+03
        54   5 -4.458310E+05 -6.819331E+04 -4.956192E+02 -1.745274E+05  2.429145E+03 -5.352069E+03
        54   6 -4.436114E+05 -7.044305E+04 -8.535998E+02 -1.770950E+05  3.024035E+03 -6.187169E+03
        54   7 -5.251841E+05 -1.007043E+05 -1.970815E+04 -1.994718E+05  9.764234E+02 -4.836222E+03
        54   8 -5.424137E+05 -1.040124E+05 -2.338312E+04 -2.010166E+05  1.573987E+03 -5.672828E+03
        54   9 -5.552022E+05 -1.118144E+05 -2.724615E+04 -2.076983E+05  2.170844E+03 -6.507249E+03
        54  10 -3.620281E+05 -4.016925E+04  1.905930E+04 -1.547190E+05 -1.266772E-09 -3.180292E-10
        54  11 -3.492387E+05 -3.237346E+04  2.239123E+04 -1.480343E+05  3.568334E-09  1.994843E-09
        54  12 -3.320077E+05 -2.907063E+04  2.553815E+04 -1.464865E+05  1.765066E-09  1.366504E-09
        54  13 -4.436094E+05 -7.043700E+04 -3.242088E+02 -1.770967E+05  2.024870E-09  2.847339E-10
        54  14 -4.458310E+05 -6.819334E+04 -4.956841E+02 -1.745274E+05  1.623452E-09  1.972628E-09
        54  15 -4.436114E+05 -7.044310E+04 -8.536889E+02 -1.770950E+05  1.667363E-09  1.102933E-09
        54  16 -5.251841E+05 -1.007043E+05 -1.970819E+04 -1.994718E+05  3.547534E-09  1.026553E-09
        54  17 -5.424138E+05 -1.040125E+05 -2.338318E+04 -2.010166E+05  3.720354E-09  1.974676E-09
        54  18 -5.552022E+05 -1.118144E+05 -2.724624E+04 -2.076983E+05  1.068552E-09  8.064519E-10
        54  19 -3.620281E+05 -4.016923E+04  1.905935E+04 -1.547190E+05 -2.690812E+03  4.193296E+03
        54  20 -3.492387E+05 -3.237343E+04  2.239130E+04 -1.480343E+05 -3.284450E+03  5.031254E+03
        54  21 -3.320076E+05 -2.907059E+04  2.553824E+04 -1.464865E+05 -3.877397E+03  5.867025E+03
        54  22 -4.436094E+05 -7.043698E+04 -3.241642E+02 -1.770967E+05 -1.833556E+03  4.514782E+03
        54  23 -4.458310E+05 -6.819331E+04 -4.956192E+02 -1.745274E+05 -2.429145E+03  5.352069E+03
        54  24 -4.436114E+05 -7.044305E+04 -8.535998E+02 -1.770950E+05 -3.024035E+03  6.187169E+03
        54  25 -5.251841E+05 -1.007043E+05 -1.970815E+04 -1.994718E+05 -9.764234E+02  4.836222E+03
        54  26 -5.424137E+05 -1.040124E+05 -2.338312E+04 -2.010166E+05 -1.573987E+03  5.672828E+03
        54  27 -5.552022E+05 -1.118144E+05 -2.724615E+04 -2.076983E+05 -2.170844E+03  6.507249E+03
        55   1 -3.198516E+05 -2.454526E+04  2.825367E+04 -1.431926E+05  4.245845E+03 -6.345400E+03
        55   2 -3.070869E+05 -1.676347E+04  3.084325E+04 -1.365065E+05  5.585753E+03 -6.893471E+03
        55   3 -2.900746E+05 -1.365164E+04  3.263928E+04 -1.349050E+05  6.919947E+03 -7.425660E+03
        55   4 -4.436473E+05 -7.042467E+04 -1.124018E+03 -1.771054E+05  3.390243E+03 -6.666430E+03
        55   5 -4.457830E+05 -6.817855E+04 -2.017923E+03 -1.745294E+05  4.744493E+03 -7.209211E+03
        55   6 -4.436745E+05 -7.060556E+04 -3.716960E+03 -1.770384E+05  6.093001E+03 -7.736115E+03
        55   7 -5.674284E+05 -1.163033E+05 -3.050298E+04 -2.110123E+05  2.534821E+03 -6.987393E+03
        55   8 -5.844604E+05 -1.195924E+05 -3.488057E+04 -2.125447E+05  3.903435E+03 -7.524874E+03
        55   9 -5.972509E+05 -1.275578E+05 -4.007488E+04 -2.191622E+05  5.266276E+03 -8.046487E+03
        55  10 -3.198516E+05 -2.454531E+04  2.825356E+04 -1.431926E+05  5.642412E-10 -8.932634E-11
        55  11 -3.070870E+05 -1.676353E+04  3.084310E+04 -1.365064E+05  2.174394E-09 -7.728713E-11
        55  12 -2.900747E+05 -1.365171E+04  3.263909E+04 -1.349049E+05 -1.701032E-10 -5.147796E-10
        55  13 -4.436473E+05 -7.042472E+04 -1.124123E+03 -1.771054E+05 -1.166043E-09  2.198273E-10
        55  14 -4.457831E+05 -6.817862E+04 -2.018063E+03 -1.745294E+05  8.422972E-10 -6.430922E-12
        55  15 -4.436745E+05 -7.060563E+04 -3.717142E+03 -1.770383E+05 -1.028685E-09 -4.079164E-10
        55  16 -5.674285E+05 -1.163033E+05 -3.050308E+04 -2.110123E+05 -9.050783E-11  5.499692E-10
        55  17 -5.844604E+05 -1.195925E+05 -3.488071E+04 -2.125447E+05 -1.347670E-09 -1.348871E-11
        55  18 -5.972509E+05 -1.275579E+05 -4.007506E+04 -2.191622E+05  1.125003E-10 -3.936564E-10
        55  19 -3.198516E+05 -2.454526E+04  2.825367E+04 -1.431926E+05 -4.245845E+03  6.345400E+03
        55  20 -3.070869E+05 -1.676347E+04  3.084325E+04 -1.365065E+05 -5.585753E+03  6.893471E+03
        55  21 -2.900746E+05 -1.365164E+04  3.263928E+04 -1.349050E+05 -6.919947E+03  7.425660E+03
        55  22 -4.436473E+05 -7.042467E+04 -1.124018E+03 -1.771054E+05 -3.390243E+03  6.666430E+03
        55  23 -4.457830E+05 -6.817855E+04 -2.017923E+03 -1.745294E+05 -4.744493E+03  7.209211E+03
        55  24 -4.436745E+05 -7.060556E+04 -3.716960E+03 -1.770384E+05 -6.093001E+03  7.736115E+03
        55  25 -5.674284E+05 -1.163033E+05 -3.050298E+04 -2.110123E+05 -2.534821E+03  6.987393E+03
        55  26 -5.844604E+05 -1.195924E+05 -3.488057E+04 -2.125447E+05 -3.903435E+03  7.524874E+03
        55  27 -5.972509E+05 -1.275578E+05 -4.007488E+04 -2.191622E+05 -5.266276E+03  8.046487E+03
        56   1 -2.777893E+05 -9.270338E+03  3.440528E+04 -1.323353E+05  7.906902E+03 -7.695945E+03
        56   2 -2.652300E+05 -8.726263E+02  3.396106E+04 -1.246302E+05  1.242588E+04 -6.957233E+03
        56   3 -2.501582E+05 -5.372928E+02  2.940880E+04 -1.211926E+05  1.683126E+04 -5.915016E+03
        56   4 -4.439185E+05 -7.027518E+04 -4.899102E+03 -1.772684E+05  6.993985E+03 -8.038713E+03
        56   5 -4.454099E+05 -6.807353E+04 -8.842534E+03 -1.744383E+05  1.179113E+04 -7.195735E+03
        56   6 -4.444448E+05 -7.399012E+04 -1.711540E+04 -1.758755E+05  1.647457E+04 -6.049255E+03
        56   7 -6.100194E+05 -1.312779E+05 -4.420520E+04 -2.221904E+05  6.081338E+03 -8.381382E+03
        56   8 -6.255575E+05 -1.352720E+05 -5.164845E+04 -2.242331E+05  1.115657E+04 -7.434161E+03
        56   9 -6.386949E+05 -1.474403E+05 -6.364263E+04 -2.305431E+05  1.611800E+04 -6.183447E+03
        56  10 -2.777893E+05 -9.270418E+03  3.440505E+04 -1.323353E+05 -2.551068E-09 -8.527472E-10
        56  11 -2.652302E+05 -8.727197E+02  3.396068E+04 -1.246302E+05  1.004712E-09 -4.101473E-10
        56  12 -2.501585E+05 -5.374064E+02  2.940820E+04 -1.211925E+05  9.010407E-10  1.428265E-10
        56  13 -4.439185E+05 -7.027526E+04 -4.899316E+03 -1.772684E+05 -2.024816E-09 -4.164999E-10
        56  14 -4.454100E+05 -6.807362E+04 -8.842893E+03 -1.744382E+05 -7.632459E-10  1.344156E-10
        56  15 -4.444451E+05 -7.399023E+04 -1.711598E+04 -1.758755E+05  8.324550E-10 -3.900277E-10
        56  16 -6.100195E+05 -1.312780E+05 -4.420540E+04 -2.221904E+05 -2.938671E-10  1.042026E-11
        56  17 -6.255577E+05 -1.352721E+05 -5.164879E+04 -2.242331E+05 -7.806963E-10  4.156347E-10
        56  18 -6.386952E+05 -1.474404E+05 -6.364319E+04 -2.305430E+05 -3.557005E-10 -3.507614E-10
        56  19 -2.777893E+05 -9.270338E+03  3.440528E+04 -1.323353E+05 -7.906902E+03  7.695945E+03
        56  20 -2.652300E+05 -8.726263E+02  3.396106E+04 -1.246302E+05 -1.242588E+04  6.957233E+03
        56  21 -2.501582E+05 -5.372928E+02  2.940880E+04 -1.211926E+05 -1.683126E+04  5.915016E+03
        56  22 -4.439185E+05 -7.027518E+04 -4.899102E+03 -1.772684E+05 -6.993985E+03  8.038713E+03
        56  23 -4.454099E+05 -6.807353E+04 -8.842534E+03 -1.744383E+05 -1.179113E+04  7.195735E+03
        56  24 -4.444448E+05 -7.399012E+04 -1.711540E+04 -1.758755E+05 -1.647457E+04  6.049255E+03
        56  25 -6.100194E+05 -1.312779E+05 -4.420520E+04 -2.221904E+05 -6.081338E+03  8.381382E+03
        56  26 -6.255575E+05 -1.352720E+05 -5.164845E+04 -2.242331E+05 -1.115657E+04  7.434161E+03
        56  27 -6.386949E+05 -1.474403E+05 -6.364263E+04 -2.305431E+05 -1.611800E+04  6.183447E+03
        57   1 -2.329639E+05  2.217504E+03  2.741775E+04 -1.307136E+05  2.194842E+04 -5.268683E+03
        57   2 -2.273742E+05  2.297185E+04  1.505308E+04 -1.026470E+05  3.608429E+04  9.944085E+02
        57   3 -2.432746E+05 -2.357900E+04 -2.537508E+04 -6.289929E+04  4.769815E+04  1.397372E+04
        57   4 -4.472703E+05 -6.778131E+04 -2.168685E+04 -1.797038E+05  1.962268E+04 -6.141830E+03
        57   5 -4.407243E+05 -6.759572E+04 -3.852256E+04 -1.727492E+05  3.993750E+04  2.440233E+03
        57   6 -4.569028E+05 -1.359553E+05 -8.832673E+04 -1.541111E+05  5.772950E+04  1.773833E+04
        57   7 -6.615310E+05 -1.377792E+05 -7.079440E+04 -2.286797E+05  1.729782E+04 -7.014740E+03
        57   8 -6.540281E+05 -1.581558E+05 -9.210150E+04 -2.428278E+05  4.378926E+04  3.885336E+03
        57   9 -6.704824E+05 -2.483133E+05 -1.512818E+05 -2.452896E+05  6.775702E+04  2.150019E+04
        57  10 -2.329645E+05  2.217345E+03  2.741679E+04 -1.307135E+05 -1.664752E-10  4.793636E-12
        57  11 -2.273756E+05  2.297150E+04  1.505063E+04 -1.026470E+05  5.134260E-10  1.186451E-09
        57  12 -2.432771E+05 -2.357982E+04 -2.537972E+04 -6.289983E+04  7.485348E-11  1.032318E-09
        57  13 -4.472707E+05 -6.778146E+04 -2.168764E+04 -1.797037E+05  1.978680E-10 -3.778845E-10
        57  14 -4.407260E+05 -6.759615E+04 -3.852557E+04 -1.727492E+05  3.097205E-10  4.364183E-10
        57  15 -4.569065E+05 -1.359566E+05 -8.833359E+04 -1.541119E+05  1.947821E-09  1.482894E-10
        57  16 -6.615314E+05 -1.377794E+05 -7.079506E+04 -2.286796E+05  6.133259E-10 -2.852943E-10
        57  17 -6.540302E+05 -1.581563E+05 -9.210514E+04 -2.428279E+05 -1.376253E-10 -4.978016E-10
        57  18 -6.704874E+05 -2.483151E+05 -1.512913E+05 -2.452908E+05 -6.009057E-10 -6.554645E-10
        57  19 -2.329639E+05  2.217504E+03  2.741775E+04 -1.307136E+05 -2.194842E+04  5.268683E+03
        57  20 -2.273742E+05  2.297185E+04  1.505308E+04 -1.026470E+05 -3.608429E+04 -9.944085E+02
        57  21 -2.432746E+05 -2.357900E+04 -2.537508E+04 -6.289929E+04 -4.769815E+04 -1.397372E+04
        57  22 -4.472703E+05 -6.778131E+04 -2.168685E+04 -1.797038E+05 -1.962268E+04  6.141830E+03
        57  23 -4.407243E+05 -6.759572E+04 -3.852256E+04 -1.727492E+05 -3.993750E+04 -2.440233E+03
        57  24 -4.569028E+05 -1.359553E+05 -8.832673E+04 -1.541111E+05 -5.772950E+04 -1.773833E+04
        57  25 -6.615310E+05 -1.377792E+05 -7.079440E+04 -2.286797E+05 -1.729782E+04  7.014740E+03
        57  26 -6.540281E+05 -1.581558E+05 -9.210150E+04 -2.428278E+05 -4.378926E+04 -3.885336E+03
        57  27 -6.704824E+05 -2.483133E+05 -1.512818E+05 -2.452896E+05 -6.775702E+04 -2.150019E+04
        58   1 -1.481082E+04  5.320584E+03  6.332340E+03  2.640052E+03  4.364578E+03  1.856051E-02
        58   2 -1.551680E+04  1.162883E+02  2.901307E+03  9.489148E+02  2.831953E+03  4.328613E-03
        58   3 -1.481087E+04 -2.387397E+02  1.680442E+03 -7.422451E+02  1.299306E+03 -1.553437E-03
        58   4 -1.481083E+04  5.320571E+03  6.332338E+03  8.224789E-09  4.364578E+03  9.789432E-11
        58   5 -1.551680E+04  1.162866E+02  2.901306E+03  1.876227E-09  2.831953E+03  2.595221E-10
        58   6 -1.481087E+04 -2.387408E+02  1.680442E+03  2.797149E-09  1.299306E+03  9.047676E-11
        58   7 -1.481082E+04  5.320584E+03  6.332340E+03 -2.640052E+03  4.364578E+03 -1.856051E-02
        58   8 -1.551680E+04  1.162883E+02  2.901307E+03 -9.489148E+02  2.831953E+03 -4.328613E-03
        58   9 -1.481087E+04 -2.387397E+02  1.680442E+03  7.422451E+02  1.299306E+03  1.553438E-03
        58  10 -1.481084E+04  5.320579E+03  6.332304E+03  2.640052E+03  6.599832E-11  8.332509E-11
        58  11 -1.551681E+04  1.162862E+02  2.901292E+03  9.489148E+02  2.254035E-09  1.150733E-10
        58  12 -1.481087E+04 -2.387402E+02  1.680439E+03 -7.422451E+02 -8.886907E-10 -2.876547E-10
        58  13 -1.481085E+04  5.320566E+03  6.332302E+03 -5.723099E-09 -5.825898E-12  7.904882E-11
        58  14 -1.551681E+04  1.162845E+02  2.901291E+03 -4.613639E-09 -5.825936E-12  1.308591E-10
        58  15 -1.481087E+04 -2.387412E+02  1.680438E+03  6.189030E-09 -2.621622E-10 -1.565139E-10
        58  16 -1.481084E+04  5.320579E+03  6.332304E+03 -2.640052E+03 -3.392057E-10  6.901915E-11
        58  17 -1.551681E+04  1.162862E+02  2.901292E+03 -9.489148E+02 -1.191630E-09  1.470457E-10
        58  18 -1.481087E+04 -2.387402E+02  1.680439E+03  7.422451E+02 -2.180191E-09 -2.514571E-11
        58  19 -1.481082E+04  5.320584E+03  6.332340E+03  2.640052E+03 -4.364578E+03 -1.856051E-02
        58  20 -1.551680E+04  1.162883E+02  2.901307E+03  9.489148E+02 -2.831953E+03 -4.328613E-03
        58  21 -1.481087E+04 -2.387397E+02  1.680442E+03 -7.422451E+02 -1.299306E+03  1.553437E-03
        58  22 -1.481083E+04  5.320571E+03  6.332338E+03  4.022148E-09 -4.364578E+03  6.027645E-11
        58  23 -1.551680E+04  1.162866E+02  2.901306E+03 -6.795310E-09 -2.831953E+03  3.051348E-12
        58  24 -1.481087E+04 -2.387408E+02  1.680442E+03  1.234287E-09 -1.299306E+03 -4.034081E-10
        58  25 -1.481082E+04  5.320584E+03  6.332340E+03 -2.640052E+03 -4.364578E+03  1.856051E-02
        58  26 -1.551680E+04  1.162883E+02  2.901307E+03 -9.489148E+02 -2.831953E+03  4.328613E-03
        58  27 -1.481087E+04 -2.387397E+02  1.680442E+03  7.422451E+02 -1.299306E+03 -1.553438E-03
        59   1 -1.510023E+04  2.626349E+02  1.324074E+03  8.953333E+01  1.064833E+03  1.535683E-04
        59   2 -1.515511E+04 -3.435412E+00  7.047582E+02  1.807470E+01  7.115285E+02  2.071606E-05
        59   3 -1.510024E+04 -1.450770E+01  3.792137E+02 -5.338395E+01  3.582239E+02 -3.080316E-05
        59   4 -1.510023E+04  2.626349E+02  1.324074E+03 -6.319348E-10  1.064833E+03  1.474064E-10
        59   5 -1.515511E+04 -3.435412E+00  7.047582E+02 -7.798108E-09  7.115285E+02  3.266534E-10
        59   6 -1.510024E+04 -1.450770E+01  3.792137E+02  1.594320E-09  3.582239E+02 -1.281258E-10
        59   7 -1.510023E+04  2.626349E+02  1.324074E+03 -8.953333E+01  1.064833E+03 -1.535680E-04
        59   8 -1.515511E+04 -3.435412E+00  7.047582E+02 -1.807470E+01  7.115285E+02 -2.071542E-05
        59   9 -1.510024E+04 -1.450770E+01  3.792137E+02  5.338395E+01  3.582239E+02  3.080291E-05
        59  10 -1.510024E+04  2.626346E+02  1.324072E+03  8.953333E+01 -1.845729E-09 -1.646443E-10
        59  11 -1.515511E+04 -3.435548E+00  7.047573E+02  1.807470E+01 -1.381142E-09  5.150366E-10
        59  12 -1.510024E+04 -1.450773E+01  3.792134E+02 -5.338395E+01  1.151433E-09  5.320663E-10
        59  13 -1.510024E+04  2.626346E+02  1.324072E+03  2.796706E-09 -1.081445E-09 -2.689978E-11
        59  14 -1.515511E+04 -3.435548E+00  7.047573E+02 -2.405861E-09  5.301924E-10  4.078216E-10
        59  15 -1.510024E+04 -1.450774E+01  3.792134E+02  5.853730E-09  1.393600E-10  3.677499E-11
        59  16 -1.510024E+04  2.626346E+02  1.324072E+03 -8.953333E+01  2.331712E-10  1.091887E-10
        59  17 -1.515511E+04 -3.435548E+00  7.047573E+02 -1.807470E+01  1.103740E-09  3.006243E-10
        59  18 -1.510024E+04 -1.450773E+01  3.792134E+02  5.338395E+01 -1.148736E-09 -4.580650E-10
        59  19 -1.510023E+04  2.626349E+02  1.324074E+03  8.953333E+01 -1.064833E+03 -1.535686E-04
        59  20 -1.515511E+04 -3.435412E+00  7.047582E+02  1.807470E+01 -7.115285E+02 -2.071503E-05
        59  21 -1.510024E+04 -1.450770E+01  3.792137E+02 -5.338395E+01 -3.582239E+02  3.080422E-05
        59  22 -1.510023E+04  2.626349E+02  1.324074E+03  4.071824E-09 -1.064833E+03 -2.007127E-10
        59  23 -1.515511E+04 -3.435412E+00  7.047582E+02 -7.783056E-09 -7.115285E+02  4.879616E-10
        59  24 -1.510024E+04 -1.450770E+01  3.792137E+02  7.017038E-09 -3.582239E+02  2.018794E-10
        59  25 -1.510023E+04  2.626349E+02  1.324074E+03 -8.953333E+01 -1.064833E+03  1.535682E-04
        59  26 -1.515511E+04 -3.435412E+00  7.047582E+02 -1.807470E+01 -7.115285E+02  2.071602E-05
        59  27 -1.510024E+04 -1.450770E+01  3.792137E+02  5.338395E+01 -3.582239E+02 -3.080382E-05
        60   1 -1.512258E+04  1.034792E+01  2.679022E+02 -9.204362E+00  3.014356E+02 -4.468599E-06
        60   2 -1.512719E+04 -1.100890E+00  9.031828E+01 -1.128556E+01  2.565541E+02 -4.662870E-06
        60   3 -1.512259E+04  8.821938E-01 -5.468896E+01 -1.336672E+01  2.116733E+02 -4.557178E-06
        60   4 -1.512258E+04  1.034792E+01  2.679022E+02  4.588479E-09  3.014356E+02  2.568855E-10
        60   5 -1.512719E+04 -1.100890E+00  9.031828E+01 -2.014937E-09  2.565541E+02  1.402803E-09
        60   6 -1.512259E+04  8.821934E-01 -5.468896E+01 -3.233696E-09  2.116733E+02  9.366986E-10
        60   7 -1.512258E+04  1.034792E+01  2.679022E+02  9.204362E+00  3.014356E+02  4.469115E-06
        60   8 -1.512719E+04 -1.100890E+00  9.031828E+01  1.128556E+01  2.565541E+02  4.665674E-06
        60   9 -1.512259E+04  8.821937E-01 -5.468896E+01  1.336672E+01  2.116733E+02  4.559053E-06
        60  10 -1.512258E+04  1.034790E+01  2.679020E+02 -9.204362E+00 -2.227918E-09  4.696118E-10
        60  11 -1.512719E+04 -1.100908E+00  9.031816E+01 -1.128556E+01 -1.213264E-09  3.886508E-10
        60  12 -1.512259E+04  8.821817E-01 -5.468904E+01 -1.336672E+01 -1.696151E-09 -1.184544E-10
        60  13 -1.512258E+04  1.034790E+01  2.679020E+02  5.961160E-09  6.262276E-12  1.878257E-10
        60  14 -1.512719E+04 -1.100908E+00  9.031816E+01 -9.005350E-10  5.387468E-10  8.915472E-10
        60  15 -1.512259E+04  8.821814E-01 -5.468904E+01  7.315316E-09  4.148096E-10  5.037562E-10
        60  16 -1.512258E+04  1.034790E+01  2.679020E+02  9.204362E+00  1.428205E-09 -9.445572E-11
        60  17 -1.512719E+04 -1.100908E+00  9.031816E+01  1.128556E+01  1.540852E-10  1.394400E-09
        60  18 -1.512259E+04  8.821817E-01 -5.468904E+01  1.336672E+01  1.428475E-09  1.124788E-09
        60  19 -1.512258E+04  1.034792E+01  2.679022E+02 -9.204362E+00 -3.014356E+02  4.469541E-06
        60  20 -1.512719E+04 -1.100890E+00  9.031828E+01 -1.128556E+01 -2.565541E+02  4.663651E-06
        60  21 -1.512259E+04  8.821938E-01 -5.468896E+01 -1.336672E+01 -2.116733E+02  4.556946E-06
        60  22 -1.512258E+04  1.034792E+01  2.679022E+02  1.271863E-08 -3.014356E+02  1.187059E-10
        60  23 -1.512719E+04 -1.100890E+00  9.031828E+01  3.444704E-09 -2.565541E+02  3.803683E-10
        60  24 -1.512259E+04  8.821934E-01 -5.468896E+01  1.651797E-08 -2.116733E+02  7.093842E-11
        60  25 -1.512258E+04  1.034792E+01  2.679022E+02  9.204362E+00 -3.014356E+02 -4.469299E-06
        60  26 -1.512719E+04 -1.100890E+00  9.031828E+01  1.128556E+01 -2.565541E+02 -4.662892E-06
        60  27 -1.512259E+04  8.821938E-01 -5.468896E+01  1.336672E+01 -2.116733E+02 -4.556803E-06
        61   1 -1.512929E+04  1.303188E+00 -1.306525E+02 -1.160723E+01  2.286105E+02 -4.275272E-06
        61   2 -1.511881E+04  5.480405E+00 -3.200010E+02 -2.115055E+01  3.866792E+02 -1.317617E-05
        61   3 -1.512929E+04  8.078060E+00 -6.126539E+02 -3.069402E+01  5.447501E+02 -2.693400E-05
        61   4 -1.512929E+04  1.303188E+00 -1.306525E+02  6.861241E-08  2.286105E+02 -7.839576E-10
        61   5 -1.511881E+04  5.480404E+00 -3.200010E+02  5.057484E-09  3.866792E+02 -2.698382E-09
        61   6 -1.512929E+04  8.078058E+00 -6.126539E+02 -5.917138E-08  5.447501E+02 -7.570446E-10
        61   7 -1.512929E+04  1.303188E+00 -1.306525E+02  1.160723E+01  2.286105E+02  4.273701E-06
        61   8 -1.511881E+04  5.480405E+00 -3.200010E+02  2.115055E+01  3.866792E+02  1.317076E-05
        61   9 -1.512929E+04  8.078060E+00 -6.126539E+02  3.069402E+01  5.447501E+02  2.693249E-05
        61  10 -1.512929E+04  1.303174E+00 -1.306526E+02 -1.160723E+01 -1.686840E-08 -1.117062E-09
        61  11 -1.511881E+04  5.480365E+00 -3.200013E+02 -2.115055E+01  1.670416E-09 -2.278312E-09
        61  12 -1.512929E+04  8.077980E+00 -6.126545E+02 -3.069402E+01  1.687377E-08 -1.131869E-09
        61  13 -1.512929E+04  1.303174E+00 -1.306526E+02 -1.048630E-09 -1.077230E-09 -8.786247E-10
        61  14 -1.511881E+04  5.480364E+00 -3.200013E+02  2.890534E-09  1.079556E-09 -2.506524E-09
        61  15 -1.512929E+04  8.077978E+00 -6.126545E+02  4.137411E-09 -1.352725E-09 -9.888855E-10
        61  16 -1.512929E+04  1.303174E+00 -1.306526E+02  1.160723E+01  1.605921E-08 -6.407156E-10
        61  17 -1.511881E+04  5.480365E+00 -3.200013E+02  2.115055E+01 -5.880078E-10 -2.735168E-09
        61  18 -1.512929E+04  8.077980E+00 -6.126545E+02  3.069402E+01 -1.690671E-08 -8.464271E-10
        61  19 -1.512929E+04  1.303188E+00 -1.306525E+02 -1.160723E+01 -2.286105E+02  4.273038E-06
        61  20 -1.511881E+04  5.480405E+00 -3.200010E+02 -2.115055E+01 -3.866792E+02  1.317162E-05
        61  21 -1.512929E+04  8.078060E+00 -6.126539E+02 -3.069402E+01 -5.447501E+02  2.693173E-05
        61  22 -1.512929E+04  1.303188E+00 -1.306525E+02 -5.778605E-08 -2.286105E+02 -9.732203E-10
        61  23 -1.511881E+04  5.480404E+00 -3.200010E+02 -3.584369E-09 -3.866792E+02 -2.314268E-09
        61  24 -1.512929E+04  8.078058E+00 -6.126539E+02  7.013861E-08 -5.447501E+02 -1.220780E-09
        61  25 -1.512929E+04  1.303188E+00 -1.306525E+02  1.160723E+01 -2.286105E+02 -4.274985E-06
        61  26 -1.511881E+04  5.480405E+00 -3.200010E+02  2.115055E+01 -3.866792E+02 -1.317625E-05
        61  27 -1.512929E+04  8.078060E+00 -6.126539E+02  3.069402E+01 -5.447501E+02 -2.693418E-05
        62   1 -1.514699E+04  7.499805E+00 -8.232876E+02 -3.668369E+01  6.750500E+02 -3.988741E-05
        62   2 -1.509669E+04  2.425629E+01 -1.456804E+03 -7.270156E+01  1.395086E+03 -1.633713E-04
        62   3 -1.514700E+04  1.361563E+01 -2.565949E+03 -1.087195E+02  2.115121E+03 -3.704056E-04
        62   4 -1.514699E+04  7.499803E+00 -8.232876E+02  1.382577E-08  6.750500E+02  1.099709E-09
        62   5 -1.509669E+04  2.425628E+01 -1.456804E+03  7.960250E-09  1.395086E+03  1.672100E-09
        62   6 -1.514700E+04  1.361561E+01 -2.565949E+03  1.152342E-09  2.115121E+03  9.638353E-11
        62   7 -1.514699E+04  7.499805E+00 -8.232876E+02  3.668369E+01  6.750500E+02  3.988962E-05
        62   8 -1.509669E+04  2.425629E+01 -1.456804E+03  7.270156E+01  1.395086E+03  1.633746E-04
        62   9 -1.514700E+04  1.361563E+01 -2.565949E+03  1.087195E+02  2.115121E+03  3.704058E-04
        62  10 -1.514699E+04  7.499683E+00 -8.232885E+02 -3.668369E+01 -1.978083E-09  3.396760E-10
        62  11 -1.509669E+04  2.425577E+01 -1.456807E+03 -7.270156E+01  1.115767E-09  1.246855E-09
        62  12 -1.514700E+04  1.361443E+01 -2.565957E+03 -1.087195E+02  3.162586E-10 -1.831340E-10
        62  13 -1.514699E+04  7.499680E+00 -8.232885E+02  2.418430E-09 -1.070485E-11  6.765122E-10
        62  14 -1.509669E+04  2.425576E+01 -1.456807E+03  5.727104E-09 -5.493195E-10  1.437188E-09
        62  15 -1.514700E+04  1.361441E+01 -2.565957E+03 -2.272325E-09 -2.021317E-09  6.202354E-12
        62  16 -1.514699E+04  7.499683E+00 -8.232885E+02  3.668369E+01 -4.480973E-10  1.013909E-09
        62  17 -1.509669E+04  2.425577E+01 -1.456807E+03  7.270156E+01 -8.493327E-10  1.627790E-09
        62  18 -1.514700E+04  1.361443E+01 -2.565957E+03  1.087195E+02 -3.409189E-09  1.956925E-10
        62  19 -1.514699E+04  7.499805E+00 -8.232876E+02 -3.668369E+01 -6.750500E+02  3.988808E-05
        62  20 -1.509669E+04  2.425629E+01 -1.456804E+03 -7.270156E+01 -1.395086E+03  1.633738E-04
        62  21 -1.514700E+04  1.361563E+01 -2.565949E+03 -1.087195E+02 -2.115121E+03  3.704053E-04
        62  22 -1.514699E+04  7.499803E+00 -8.232876E+02  7.037189E-10 -6.750500E+02  2.532890E-10
        62  23 -1.509669E+04  2.425628E+01 -1.456804E+03 -8.140461E-10 -1.395086E+03  1.202005E-09
        62  24 -1.514700E+04  1.361561E+01 -2.565949E+03  7.764805E-09 -2.115121E+03 -8.751825E-11
        62  25 -1.514699E+04  7.499805E+00 -8.232876E+02  3.668369E+01 -6.750500E+02 -3.988760E-05
        62  26 -1.509669E+04  2.425629E+01 -1.456804E+03  7.270156E+01 -1.395086E+03 -1.633714E-04
        62  27 -1.514700E+04  1.361563E+01 -2.565949E+03  1.087195E+02 -2.115121E+03 -3.704055E-04
        63   1 -1.523422E+04  4.694653E+01 -3.385529E+03 -1.916069E+02  2.652458E+03 -8.186435E-04
        63   2 -1.498766E+04  8.658756E+01 -5.899455E+03 -2.127467E+02  5.575328E+03 -1.910592E-03
        63   3 -1.523422E+04 -3.239315E+02 -1.042882E+04 -2.338864E+02  8.498141E+03 -3.201576E-03
        63   4 -1.523422E+04  4.694646E+01 -3.385529E+03 -1.311675E-09  2.652458E+03 -5.104086E-10
        63   5 -1.498766E+04  8.658747E+01 -5.899455E+03 -2.232727E-09  5.575328E+03  1.532531E-10
        63   6 -1.523422E+04 -3.239316E+02 -1.042882E+04  2.231373E-09  8.498141E+03  4.504878E-10
        63   7 -1.523422E+04  4.694653E+01 -3.385529E+03  1.916069E+02  2.652458E+03  8.186425E-04
        63   8 -1.498766E+04  8.658756E+01 -5.899455E+03  2.127467E+02  5.575328E+03  1.910593E-03
        63   9 -1.523422E+04 -3.239315E+02 -1.042882E+04  2.338864E+02  8.498141E+03  3.201577E-03
        63  10 -1.523423E+04  4.694464E+01 -3.385542E+03 -1.916069E+02 -6.982494E-11 -5.597375E-10
        63  11 -1.498769E+04  8.657921E+01 -5.899514E+03 -2.127467E+02  2.035977E-09  4.030996E-10
        63  12 -1.523430E+04 -3.239509E+02 -1.042896E+04 -2.338864E+02 -1.405071E-09  3.074223E-10
        63  13 -1.523423E+04  4.694457E+01 -3.385542E+03 -3.379272E-09  1.075432E-09 -7.310053E-10
        63  14 -1.498769E+04  8.657913E+01 -5.899514E+03 -9.844253E-10  5.432353E-10 -1.866377E-10
        63  15 -1.523430E+04 -3.239510E+02 -1.042896E+04 -1.820225E-09  2.713886E-10  7.177470E-10
        63  16 -1.523423E+04  4.694464E+01 -3.385542E+03  1.916069E+02 -1.987801E-10 -9.025669E-10
        63  17 -1.498769E+04  8.657921E+01 -5.899514E+03  2.127467E+02  1.328565E-10 -7.775524E-10
        63  18 -1.523430E+04 -3.239509E+02 -1.042896E+04  2.338864E+02  2.008636E-09  1.124940E-09
        63  19 -1.523422E+04  4.694653E+01 -3.385529E+03 -1.916069E+02 -2.652458E+03  8.186424E-04
        63  20 -1.498766E+04  8.658756E+01 -5.899455E+03 -2.127467E+02 -5.575328E+03  1.910593E-03
        63  21 -1.523422E+04 -3.239315E+02 -1.042882E+04 -2.338864E+02 -8.498141E+03  3.201576E-03
        63  22 -1.523422E+04  4.694646E+01 -3.385529E+03  8.553302E-09 -2.652458E+03 -9.518045E-10
        63  23 -1.498766E+04  8.658747E+01 -5.899455E+03 -6.197745E-09 -5.575328E+03 -5.266313E-10
        63  24 -1.523422E+04 -3.239316E+02 -1.042882E+04  7.321439E-09 -8.498141E+03  9.986990E-10
        63  25 -1.523422E+04  4.694653E+01 -3.385529E+03  1.916069E+02 -2.652458E+03 -8.186443E-04
        63  26 -1.498766E+04  8.658756E+01 -5.899455E+03  2.127467E+02 -5.575328E+03 -1.910594E-03
        63  27 -1.523422E+04 -3.239315E+02 -1.042882E+04  2.338864E+02 -8.498141E+03 -3.201574E-03
        64   1 -1.593042E+04  4.923606E+02 -1.364486E+04 -1.679693E+03  1.062009E+04 -2.873384E-02
        64   2 -1.411725E+04  1.244637E+02 -2.370484E+04  6.287953E+02  2.249881E+04  2.278781E-02
        64   3 -1.593007E+04 -8.561867E+03 -4.357716E+04  2.937336E+03  3.437753E+04  1.626531E-01
        64   4 -1.593042E+04  4.923553E+02 -1.364486E+04  3.278723E-09  1.062009E+04 -2.911676E-11
        64   5 -1.411725E+04  1.244629E+02 -2.370484E+04 -3.277886E-09  2.249881E+04 -6.249615E-10
        64   6 -1.593008E+04 -8.561884E+03 -4.357716E+04  5.512317E-09  3.437753E+04  4.227263E-10
        64   7 -1.593042E+04  4.923606E+02 -1.364486E+04  1.679693E+03  1.062009E+04  2.873384E-02
        64   8 -1.411725E+04  1.244637E+02 -2.370484E+04 -6.287953E+02  2.249881E+04 -2.278781E-02
        64   9 -1.593007E+04 -8.561867E+03 -4.357716E+04 -2.937336E+03  3.437753E+04 -1.626531E-01
        64  10 -1.593054E+04  4.923303E+02 -1.364507E+04 -1.679693E+03  8.109471E-10  1.173561E-10
        64  11 -1.411779E+04  1.243278E+02 -2.370579E+04  6.287953E+02  7.057131E-10  1.787191E-10
        64  12 -1.593134E+04 -8.562185E+03 -4.357938E+04  2.937336E+03 -5.313468E-10  1.543080E-10
        64  13 -1.593054E+04  4.923250E+02 -1.364508E+04 -6.688671E-09  1.082740E-09  6.682926E-10
        64  14 -1.411779E+04  1.243270E+02 -2.370580E+04 -9.783261E-09 -5.258553E-13 -4.279394E-12
        64  15 -1.593135E+04 -8.562201E+03 -4.357938E+04  4.613204E-11 -1.373671E-10  2.989241E-10
        64  16 -1.593054E+04  4.923303E+02 -1.364507E+04  1.679693E+03 -5.391987E-10  1.219562E-09
        64  17 -1.411779E+04  1.243278E+02 -2.370579E+04 -6.287953E+02  3.616888E-10 -1.898674E-10
        64  18 -1.593134E+04 -8.562185E+03 -4.357938E+04 -2.937336E+03  1.033064E-09  4.435153E-10
        64  19 -1.593042E+04  4.923606E+02 -1.364486E+04 -1.679693E+03 -1.062009E+04  2.873384E-02
        64  20 -1.411725E+04  1.244637E+02 -2.370484E+04  6.287953E+02 -2.249881E+04 -2.278781E-02
        64  21 -1.593007E+04 -8.561867E+03 -4.357716E+04  2.937336E+03 -3.437753E+04 -1.626531E-01
        64  22 -1.593042E+04  4.923553E+02 -1.364486E+04  4.883000E-09 -1.062009E+04  1.364446E-09
        64  23 -1.411725E+04  1.244629E+02 -2.370484E+04 -3.364982E-09 -2.249881E+04  6.112329E-10
        64  24 -1.593008E+04 -8.561884E+03 -4.357716E+04  1.019568E-08 -3.437753E+04  1.748290E-10
        64  25 -1.593042E+04  4.923606E+02 -1.364486E+04  1.679693E+03 -1.062009E+04 -2.873383E-02
        64  26 -1.411725E+04  1.244637E+02 -2.370484E+04 -6.287953E+02 -2.249881E+04  2.278781E-02
        64  27 -1.593007E+04 -8.561867E+03 -4.357716E+04 -2.937336E+03 -3.437753E+04  1.626531E-01
        65   1 -2.535562E+04  7.791698E+03 -5.508690E+04 -2.418903E+04  4.208531E+04 -1.639795E+00
        65   2 -2.330400E+03 -3.788132E+03 -9.472887E+04  3.095818E+04  9.213521E+04  4.594357E+00
        65   3 -2.534582E+04 -1.734876E+05 -2.064772E+05  8.610251E+04  1.421855E+05  1.971978E+01
        65   4 -2.535625E+04  7.790598E+03 -5.508705E+04  5.535040E-09  4.208531E+04  6.292770E-10
        65   5 -2.331429E+03 -3.789933E+03 -9.472912E+04 -1.724644E-09  9.213521E+04 -2.239710E-10
        65   6 -2.535379E+04 -1.735015E+05 -2.064792E+05  5.823335E-09  1.421855E+05 -7.313285E-10
        65   7 -2.535562E+04  7.791698E+03 -5.508690E+04  2.418903E+04  4.208531E+04  1.639795E+00
        65   8 -2.330400E+03 -3.788132E+03 -9.472887E+04 -3.095818E+04  9.213521E+04 -4.594357E+00
        65   9 -2.534582E+04 -1.734876E+05 -2.064772E+05 -8.610251E+04  1.421855E+05 -1.971978E+01
        65  10 -2.535753E+04  7.791222E+03 -5.509023E+04 -2.418903E+04 -4.231636E-10 -2.300036E-11
        65  11 -2.339517E+03 -3.790411E+03 -9.474482E+04  3.095818E+04  1.947205E-10 -3.093624E-10
        65  12 -2.536754E+04 -1.734930E+05 -2.065152E+05  8.610251E+04 -1.332321E-09 -1.600091E-10
        65  13 -2.535815E+04  7.790123E+03 -5.509038E+04 -2.233883E-09 -4.406946E-11  2.483311E-10
        65  14 -2.340546E+03 -3.792212E+03 -9.474508E+04 -2.854793E-09  1.097825E-09 -3.483201E-10
        65  15 -2.537550E+04 -1.735069E+05 -2.065172E+05  2.450039E-09 -3.909517E-10 -1.964218E-10
        65  16 -2.535753E+04  7.791222E+03 -5.509023E+04  2.418903E+04 -3.582346E-10  5.216138E-10
        65  17 -2.339517E+03 -3.790411E+03 -9.474482E+04 -3.095818E+04  8.288712E-11 -5.059041E-10
        65  18 -2.536754E+04 -1.734930E+05 -2.065152E+05 -8.610251E+04 -5.313815E-10 -1.995143E-10
        65  19 -2.535562E+04  7.791698E+03 -5.508690E+04 -2.418903E+04 -4.208531E+04  1.639795E+00
        65  20 -2.330400E+03 -3.788132E+03 -9.472887E+04  3.095818E+04 -9.213521E+04 -4.594357E+00
        65  21 -2.534582E+04 -1.734876E+05 -2.064772E+05  8.610251E+04 -1.421855E+05 -1.971978E+01
        65  22 -2.535625E+04  7.790598E+03 -5.508705E+04  9.379740E-09 -4.208531E+04 -1.334106E-10
        65  23 -2.331429E+03 -3.789933E+03 -9.472912E+04  3.242218E-10 -9.213521E+04 -4.945061E-10
        65  24 -2.535379E+04 -1.735015E+05 -2.064792E+05  8.099482E-09 -1.421855E+05  1.066192E-10
        65  25 -2.535562E+04  7.791698E+03 -5.508690E+04  2.418903E+04 -4.208531E+04 -1.639795E+00
        65  26 -2.330400E+03 -3.788132E+03 -9.472887E+04 -3.095818E+04 -9.213521E+04  4.594357E+00
        65  27 -2.534582E+04 -1.734876E+05 -2.064772E+05 -8.610251E+04 -1.421855E+05  1.971978E+01
        66   1  1.295180E+05  4.896857E+05  1.278678E+05 -4.902815E+04  6.270833E+03  2.531430E+04
        66   2  1.031331E+05  4.203474E+05  9.771886E+04 -3.398885E+04  1.935341E+04  9.941877E+03
        66   3  8.618703E+04  3.554146E+05  7.994196E+04 -4.410767E+04  1.930507E+04 -5.429901E+03
        66   4  7.795352E+03 -5.623481E+02  9.360600E+03 -4.507722E+04  6.273586E+03  5.968718E+03
        66   5  1.435160E+02 -1.634265E+03  4.649907E+03 -3.249865E+04  1.935591E+04  3.527983E+03
        66   6 -3.098093E+02 -5.456126E+02  3.337259E+03 -4.507887E+04  1.930344E+04  1.086301E+03
        66   7 -1.139446E+05 -4.905900E+05 -1.091624E+05 -4.112941E+04  6.276094E+03 -1.336164E+04
        66   8 -1.028580E+05 -4.234495E+05 -8.842984E+04 -3.100947E+04  1.935839E+04 -2.881606E+03
        66   9 -8.681494E+04 -3.563867E+05 -7.327472E+04 -4.604948E+04  1.930179E+04  7.598821E+03
        66  10  1.295178E+05  4.896850E+05  1.278665E+05 -4.902828E+04 -7.234791E-11 -1.662642E-08
        66  11  1.031327E+05  4.203472E+05  9.771797E+04 -3.398900E+04  1.148133E-09  1.430462E-09
        66  12  8.618662E+04  3.554144E+05  7.994120E+04 -4.410759E+04  1.780981E-09  1.960223E-08
        66  13  7.795301E+03 -5.623969E+02  9.360459E+03 -4.507725E+04  1.799112E-09 -5.070221E-11
        66  14  1.431104E+02 -1.634379E+03  4.649180E+03 -3.249871E+04  8.732966E-10  1.961350E-10
        66  15 -3.102098E+02 -5.457139E+02  3.336557E+03 -4.507888E+04  1.306875E-09 -8.711450E-10
        66  16 -1.139447E+05 -4.905902E+05 -1.091628E+05 -4.112934E+04  4.561286E-10  1.661363E-08
        66  17 -1.028584E+05 -4.234496E+05 -8.843056E+04 -3.100942E+04  3.561326E-09 -1.834906E-09
        66  18 -8.681536E+04 -3.563868E+05 -7.327553E+04 -4.604960E+04  7.191671E-10 -1.943814E-08
        66  19  1.295180E+05  4.896857E+05  1.278678E+05 -4.902815E+04 -6.270833E+03 -2.531430E+04
        66  20  1.031331E+05  4.203474E+05  9.771886E+04 -3.398885E+04 -1.935341E+04 -9.941877E+03
        66  21  8.618703E+04  3.554146E+05  7.994196E+04 -4.410767E+04 -1.930507E+04  5.429901E+03
        66  22  7.795352E+03 -5.623481E+02  9.360600E+03 -4.507722E+04 -6.273586E+03 -5.968718E+03
        66  23  1.435160E+02 -1.634265E+03  4.649907E+03 -3.249865E+04 -1.935591E+04 -3.527983E+03
        66  24 -3.098093E+02 -5.456126E+02  3.337259E+03 -4.507887E+04 -1.930344E+04 -1.086301E+03
        66  25 -1.139446E+05 -4.905900E+05 -1.091624E+05 -4.112941E+04 -6.276094E+03  1.336164E+04
        66  26 -1.028580E+05 -4.234495E+05 -8.842984E+04 -3.100947E+04 -1.935839E+04  2.881606E+03
        66  27 -8.681494E+04 -3.563867E+05 -7.327472E+04 -4.604948E+04 -1.930179E+04 -7.598821E+03
        67   1  7.406522E+04  3.021665E+05  6.862878E+04 -4.559079E+04  1.600092E+04 -2.295024E+03
        67   2  5.735561E+04  2.348672E+05  5.393256E+04 -3.238850E+04  1.282575E+04 -4.419186E+03
        67   3  4.188800E+04  1.681485E+05  4.092667E+04 -4.494342E+04  9.098986E+03 -6.544386E+03
        67   4  3.592979E+02 -9.109681E+02  3.123188E+03 -4.521157E+04  1.600025E+04  5.597201E+02
        67   5  3.321896E+00 -1.147300E+03  3.152403E+03 -3.233257E+04  1.282441E+04 -1.021040E+03
        67   6  7.955481E+02 -9.014866E+02  4.495150E+03 -4.521136E+04  9.096872E+03 -2.603060E+03
        67   7 -7.335268E+04 -3.039022E+05 -6.238781E+04 -4.483253E+04  1.599958E+04  3.413090E+03
        67   8 -5.735262E+04 -2.371095E+05 -4.763098E+04 -3.227666E+04  1.282307E+04  2.375833E+03
        67   9 -4.029877E+04 -1.699246E+05 -3.193799E+04 -4.547921E+04  9.094754E+03  1.337209E+03
        67  10  7.406494E+04  3.021665E+05  6.862829E+04 -4.559076E+04 -4.277018E-10  2.675410E-09
        67  11  5.735543E+04  2.348672E+05  5.393221E+04 -3.238845E+04 -2.771930E-11  6.978508E-10
        67  12  4.188790E+04  1.681484E+05  4.092643E+04 -4.494338E+04 -8.588299E-10 -1.238019E-09
        67  13  3.590229E+02 -9.110372E+02  3.122707E+03 -4.521158E+04  2.833867E-09 -3.899714E-10
        67  14  3.145011E+00 -1.147345E+03  3.152092E+03 -3.233256E+04 -3.773619E-09  4.942807E-10
        67  15  7.954574E+02 -9.015161E+02  4.494982E+03 -4.521134E+04 -1.627769E-09 -1.448781E-09
        67  16 -7.335296E+04 -3.039023E+05 -6.238831E+04 -4.483258E+04  1.105642E-10 -2.670164E-09
        67  17 -5.735280E+04 -2.371095E+05 -4.763130E+04 -3.227669E+04  2.385841E-09 -1.663656E-09
        67  18 -4.029886E+04 -1.699246E+05 -3.193815E+04 -4.547922E+04  8.627113E-10  1.475922E-09
        67  19  7.406522E+04  3.021665E+05  6.862878E+04 -4.559079E+04 -1.600092E+04  2.295024E+03
        67  20  5.735561E+04  2.348672E+05  5.393256E+04 -3.238850E+04 -1.282575E+04  4.419186E+03
        67  21  4.188800E+04  1.681485E+05  4.092667E+04 -4.494342E+04 -9.098986E+03  6.544386E+03
        67  22  3.592979E+02 -9.109681E+02  3.123188E+03 -4.521157E+04 -1.600025E+04 -5.597201E+02
        67  23  3.321896E+00 -1.147300E+03  3.152403E+03 -3.233257E+04 -1.282441E+04  1.021040E+03
        67  24  7.955481E+02 -9.014866E+02  4.495150E+03 -4.521136E+04 -9.096872E+03  2.603060E+03
        67  25 -7.335268E+04 -3.039022E+05 -6.238781E+04 -4.483253E+04 -1.599958E+04 -3.413090E+03
        67  26 -5.735262E+04 -2.371095E+05 -4.763098E+04 -3.227666E+04 -1.282307E+04 -2.375833E+03
        67  27 -4.029877E+04 -1.699246E+05 -3.193799E+04 -4.547921E+04 -9.094754E+03 -1.337209E+03
        68   1  2.762804E+04  1.163872E+05  3.023674E+04 -4.742520E+04  6.657416E+03 -7.470564E+03
        68   2  1.237176E+04  4.740785E+04  1.916661E+04 -2.955888E+04  3.053420E+03 -1.100610E+04
        68   3  1.122051E+04 -1.761317E+04  1.391646E+04 -3.742119E+04  5.375895E+02 -1.454089E+04
        68   4 -6.389994E+02 -8.565193E+01  5.381977E+03 -4.520721E+04  6.654993E+03 -3.386035E+03
        68   5  3.762257E+02 -2.153896E+03  8.729058E+03 -3.233835E+04  3.051635E+03 -7.992430E+03
        68   6  1.568269E+04 -8.361824E+01  1.863952E+04 -4.519765E+04  5.365262E+02 -1.259841E+04
        68   7 -2.890690E+04 -1.165457E+05 -1.947350E+04 -4.298963E+04  6.652598E+03  6.977390E+02
        68   8 -1.161943E+04 -5.171328E+04 -1.708593E+03 -3.511759E+04  3.049823E+03 -4.978992E+03
        68   9  2.014508E+04  1.744634E+04  2.336261E+04 -5.297432E+04  5.354142E+02 -1.065588E+04
        68  10  2.762798E+04  1.163871E+05  3.023655E+04 -4.742516E+04 -1.129612E-09  1.482747E-09
        68  11  1.237171E+04  4.740771E+04  1.916637E+04 -2.955885E+04  3.720746E-11  1.103119E-09
        68  12  1.122046E+04 -1.761339E+04  1.391606E+04 -3.742119E+04  1.789564E-10 -3.112552E-10
        68  13 -6.390501E+02 -8.567612E+01  5.381872E+03 -4.520719E+04 -3.418804E-10 -5.743161E-10
        68  14  3.761986E+02 -2.153967E+03  8.728921E+03 -3.233833E+04 -1.273566E-09  6.088835E-10
        68  15  1.568265E+04 -8.378875E+01  1.863922E+04 -4.519764E+04 -1.024984E-09 -1.597615E-09
        68  16 -2.890694E+04 -1.165457E+05 -1.947359E+04 -4.298963E+04 -9.230785E-11 -1.497318E-09
        68  17 -1.161944E+04 -5.171331E+04 -1.708657E+03 -3.511758E+04  5.822160E-10 -2.309324E-09
        68  18  2.014505E+04  1.744622E+04  2.336239E+04 -5.297431E+04  1.434204E-09  5.990725E-10
        68  19  2.762804E+04  1.163872E+05  3.023674E+04 -4.742520E+04 -6.657416E+03  7.470564E+03
        68  20  1.237176E+04  4.740785E+04  1.916661E+04 -2.955888E+04 -3.053420E+03  1.100610E+04
        68  21  1.122051E+04 -1.761317E+04  1.391646E+04 -3.742119E+04 -5.375895E+02  1.454089E+04
        68  22 -6.389994E+02 -8.565193E+01  5.381977E+03 -4.520721E+04 -6.654993E+03  3.386035E+03
        68  23  3.762257E+02 -2.153896E+03  8.729058E+03 -3.233835E+04 -3.051635E+03  7.992430E+03
        68  24  1.568269E+04 -8.361824E+01  1.863952E+04 -4.519765E+04 -5.365262E+02  1.259841E+04
        68  25 -2.890690E+04 -1.165457E+05 -1.947350E+04 -4.298963E+04 -6.652598E+03 -6.977390E+02
        68  26 -1.161943E+04 -5.171328E+04 -1.708593E+03 -3.511759E+04 -3.049823E+03  4.978992E+03
        68  27  2.014508E+04  1.744634E+04  2.336261E+04 -5.297432E+04 -5.354142E+02  1.065588E+04
        69   1 -5.785158E+02  8.311082E+03  1.043775E+04 -6.077013E+03  1.017705E+03 -4.700935E+02
        69   2  1.975977E+02  1.071330E+04  1.078930E+04 -5.649419E+03  9.837774E+02 -2.442599E+03
        69   3  8.719821E+02  1.134933E+04  1.125083E+04 -5.199910E+03  4.572222E+02 -3.101460E+03
        69   4 -4.915739E+04 -9.112944E+03 -2.272697E+03 -1.846554E+04 -1.170371E+03 -1.290645E+03
        69   5 -4.886321E+04 -7.233069E+03 -9.934722E+02 -1.880536E+04  5.996077E+00 -2.809310E+03
        69   6 -4.891053E+04 -7.359085E+03 -5.630192E+02 -1.912321E+04  6.897372E+02 -3.014278E+03
        69   7 -9.773349E+04 -2.653670E+04 -1.498319E+04 -3.085309E+04 -3.358236E+03 -2.111125E+03
        69   8 -9.792147E+04 -2.517923E+04 -1.277638E+04 -3.196032E+04 -9.716980E+02 -3.175989E+03
        69   9 -9.869075E+04 -2.606738E+04 -1.237710E+04 -3.304553E+04  9.222326E+02 -2.927103E+03
        69  10 -5.785170E+02  8.311081E+03  1.043774E+04 -6.077012E+03 -2.182110E-09  2.889728E-11
        69  11  1.975950E+02  1.071329E+04  1.078929E+04 -5.649417E+03 -1.074546E-09  6.482580E-10
        69  12  8.719793E+02  1.134932E+04  1.125081E+04 -5.199909E+03 -1.308867E-09 -5.165206E-10
        69  13 -4.915739E+04 -9.112946E+03 -2.272703E+03 -1.846554E+04 -1.212110E-09  3.742383E-10
        69  14 -4.886321E+04 -7.233078E+03 -9.934870E+02 -1.880536E+04 -1.950508E-09  9.172999E-10
        69  15 -4.891053E+04 -7.359095E+03 -5.630371E+02 -1.912321E+04 -1.416217E-09  1.849935E-10
        69  16 -9.773351E+04 -2.653671E+04 -1.498322E+04 -3.085310E+04  1.927664E-09  7.271828E-10
        69  17 -9.792148E+04 -2.517924E+04 -1.277640E+04 -3.196032E+04 -6.717126E-10  1.195322E-09
        69  18 -9.869076E+04 -2.606738E+04 -1.237711E+04 -3.304553E+04  1.367129E-09  9.821726E-10
        69  19 -5.785158E+02  8.311082E+03  1.043775E+04 -6.077013E+03 -1.017705E+03  4.700935E+02
        69  20  1.975977E+02  1.071330E+04  1.078930E+04 -5.649419E+03 -9.837774E+02  2.442599E+03
        69  21  8.719821E+02  1.134933E+04  1.125083E+04 -5.199910E+03 -4.572222E+02  3.101460E+03
        69  22 -4.915739E+04 -9.112944E+03 -2.272697E+03 -1.846554E+04  1.170371E+03  1.290645E+03
        69  23 -4.886321E+04 -7.233069E+03 -9.934722E+02 -1.880536E+04 -5.996077E+00  2.809310E+03
        69  24 -4.891053E+04 -7.359085E+03 -5.630192E+02 -1.912321E+04 -6.897372E+02  3.014278E+03
        69  25 -9.773349E+04 -2.653670E+04 -1.498319E+04 -3.085309E+04  3.358236E+03  2.111125E+03
        69  26 -9.792147E+04 -2.517923E+04 -1.277638E+04 -3.196032E+04  9.716980E+02  3.175989E+03
        69  27 -9.869075E+04 -2.606738E+04 -1.237710E+04 -3.304553E+04 -9.222326E+02  2.927103E+03
        70   1  1.933993E+03  1.130774E+04  1.163941E+04 -5.108343E+03  8.849837E+02 -2.851903E+03
        70   2  2.805327E+03  1.194015E+04  1.203148E+04 -4.658872E+03  1.003980E+03 -2.963533E+03
        70   3  3.941684E+03  1.218231E+04  1.235033E+04 -4.539366E+03  1.100921E+03 -3.016343E+03
        70   4 -4.884928E+04 -7.507640E+03 -4.473098E+02 -1.901200E+04  7.316996E+02 -2.909415E+03
        70   5 -4.896979E+04 -7.259361E+03 -2.404488E+02 -1.886495E+04  9.048798E+02 -3.000726E+03
        70   6 -4.883598E+04 -7.412094E+03 -1.497412E+02 -1.904790E+04  1.056003E+03 -3.033215E+03
        70   7 -9.962990E+04 -2.632280E+04 -1.253418E+04 -3.291460E+04  5.784294E+02 -2.966922E+03
        70   8 -1.007419E+05 -2.645856E+04 -1.251248E+04 -3.306986E+04  8.057891E+02 -3.037916E+03
        70   9 -1.016103E+05 -2.700609E+04 -1.264986E+04 -3.355517E+04  1.011091E+03 -3.050086E+03
        70  10  1.933990E+03  1.130773E+04  1.163939E+04 -5.108341E+03 -1.863966E-08 -7.771379E-09
        70  11  2.805323E+03  1.194014E+04  1.203146E+04 -4.658869E+03 -2.221282E-09 -2.913559E-09
        70  12  3.941680E+03  1.218230E+04  1.235031E+04 -4.539363E+03  1.709566E-08  4.945496E-09
        70  13 -4.884928E+04 -7.507649E+03 -4.473267E+02 -1.901200E+04 -8.195092E-10 -1.200785E-09
        70  14 -4.896979E+04 -7.259370E+03 -2.404672E+02 -1.886495E+04 -3.129945E-09 -2.987388E-09
        70  15 -4.883599E+04 -7.412104E+03 -1.497606E+02 -1.904790E+04  1.996746E-09 -1.552426E-09
        70  16 -9.962990E+04 -2.632281E+04 -1.253420E+04 -3.291459E+04  1.755125E-08  5.376785E-09
        70  17 -1.007419E+05 -2.645857E+04 -1.251250E+04 -3.306986E+04 -2.499198E-09 -2.762415E-09
        70  18 -1.016104E+05 -2.700610E+04 -1.264988E+04 -3.355517E+04 -1.864794E-08 -7.860858E-09
        70  19  1.933993E+03  1.130774E+04  1.163941E+04 -5.108343E+03 -8.849837E+02  2.851903E+03
        70  20  2.805327E+03  1.194015E+04  1.203148E+04 -4.658872E+03 -1.003980E+03  2.963533E+03
        70  21  3.941684E+03  1.218231E+04  1.235033E+04 -4.539366E+03 -1.100921E+03  3.016343E+03
        70  22 -4.884928E+04 -7.507640E+03 -4.473098E+02 -1.901200E+04 -7.316996E+02  2.909415E+03
        70  23 -4.896979E+04 -7.259361E+03 -2.404488E+02 -1.886495E+04 -9.048798E+02  3.000726E+03
        70  24 -4.883598E+04 -7.412094E+03 -1.497412E+02 -1.904790E+04 -1.056003E+03  3.033215E+03
        70  25 -9.962990E+04 -2.632280E+04 -1.253418E+04 -3.291460E+04 -5.784294E+02  2.966922E+03
        70  26 -1.007419E+05 -2.645856E+04 -1.251248E+04 -3.306986E+04 -8.057891E+02  3.037916E+03
        70  27 -1.016103E+05 -2.700609E+04 -1.264986E+04 -3.355517E+04 -1.011091E+03  3.050086E+03
        71   1  4.781528E+03  1.247038E+04  1.257834E+04 -4.320040E+03  1.152258E+03 -3.032934E+03
        71   2  5.646481E+03  1.300135E+04  1.282987E+04 -3.869727E+03  1.229112E+03 -3.079413E+03
        71   3  6.806821E+03  1.322457E+04  1.304185E+04 -3.766455E+03  1.304943E+03 -3.123147E+03
        71   4 -4.883066E+04 -7.419860E+03 -1.271617E+02 -1.904092E+04  1.090178E+03 -3.056245E+03
        71   5 -4.897778E+04 -7.262922E+03 -1.094798E+02 -1.886846E+04  1.169557E+03 -3.101780E+03
        71   6 -4.882997E+04 -7.414245E+03 -1.333497E+02 -1.904307E+04  1.247911E+03 -3.144571E+03
        71   7 -1.024406E+05 -2.731014E+04 -1.283304E+04 -3.376082E+04  1.028104E+03 -3.079555E+03
        71   8 -1.035996E+05 -2.752717E+04 -1.304918E+04 -3.386614E+04  1.110006E+03 -3.124146E+03
        71   9 -1.044641E+05 -2.805298E+04 -1.330887E+04 -3.431854E+04  1.190884E+03 -3.165992E+03
        71  10  4.781524E+03  1.247037E+04  1.257832E+04 -4.320037E+03  3.104957E-09  4.479554E-10
        71  11  5.646476E+03  1.300133E+04  1.282985E+04 -3.869724E+03 -1.377976E-09  5.718105E-10
        71  12  6.806816E+03  1.322456E+04  1.304183E+04 -3.766451E+03 -1.887370E-09  8.218393E-10
        71  13 -4.883067E+04 -7.419871E+03 -1.271815E+02 -1.904092E+04 -2.032094E-09 -3.832247E-10
        71  14 -4.897779E+04 -7.262932E+03 -1.095005E+02 -1.886846E+04 -8.145499E-09  1.902061E-10
        71  15 -4.882998E+04 -7.414256E+03 -1.333712E+02 -1.904307E+04  5.670872E-10  3.501798E-10
        71  16 -1.024406E+05 -2.731015E+04 -1.283306E+04 -3.376082E+04 -4.683297E-09 -1.302081E-09
        71  17 -1.035996E+05 -2.752718E+04 -1.304920E+04 -3.386614E+04 -5.728842E-09 -2.944807E-10
        71  18 -1.044641E+05 -2.805299E+04 -1.330889E+04 -3.431854E+04 -1.952439E-09  6.830150E-10
        71  19  4.781528E+03  1.247038E+04  1.257834E+04 -4.320040E+03 -1.152258E+03  3.032934E+03
        71  20  5.646481E+03  1.300135E+04  1.282987E+04 -3.869727E+03 -1.229112E+03  3.079413E+03
        71  21  6.806821E+03  1.322457E+04  1.304185E+04 -3.766455E+03 -1.304943E+03  3.123147E+03
        71  22 -4.883066E+04 -7.419860E+03 -1.271617E+02 -1.904092E+04 -1.090178E+03  3.056245E+03
        71  23 -4.897778E+04 -7.262922E+03 -1.094798E+02 -1.886846E+04 -1.169557E+03  3.101780E+03
        71  24 -4.882997E+04 -7.414245E+03 -1.333497E+02 -1.904307E+04 -1.247911E+03  3.144571E+03
        71  25 -1.024406E+05 -2.731014E+04 -1.283304E+04 -3.376082E+04 -1.028104E+03  3.079555E+03
        71  26 -1.035996E+05 -2.752717E+04 -1.304918E+04 -3.386614E+04 -1.110006E+03  3.124146E+03
        71  27 -1.044641E+05 -2.805298E+04 -1.330887E+04 -3.431854E+04 -1.190884E+03  3.165992E+03
        72   1  7.624866E+03  1.352875E+04  1.321502E+04 -3.542426E+03  1.343780E+03 -3.149805E+03
        72   2  8.495697E+03  1.405146E+04  1.334528E+04 -3.097020E+03  1.499655E+03 -3.162674E+03
        72   3  9.649322E+03  1.426937E+04  1.337677E+04 -3.000858E+03  1.655449E+03 -3.175310E+03
        72   4 -4.883318E+04 -7.415000E+03 -1.616769E+02 -1.904309E+04  1.286051E+03 -3.171491E+03
        72   5 -4.897417E+04 -7.260678E+03 -2.663712E+02 -1.886919E+04  1.442126E+03 -3.184287E+03
        72   6 -4.883247E+04 -7.411137E+03 -4.699933E+02 -1.904447E+04  1.598121E+03 -3.196851E+03
        72   7 -1.052875E+05 -2.835831E+04 -1.353844E+04 -3.454231E+04  1.228328E+03 -3.193175E+03
        72   8 -1.064406E+05 -2.857251E+04 -1.387820E+04 -3.463997E+04  1.384602E+03 -3.205898E+03
        72   9 -1.073111E+05 -2.909148E+04 -1.431706E+04 -3.508676E+04  1.540798E+03 -3.218389E+03
        72  10  7.624861E+03  1.352874E+04  1.321500E+04 -3.542423E+03 -3.508523E-10  1.014027E-09
        72  11  8.495692E+03  1.405145E+04  1.334525E+04 -3.097016E+03  1.692020E-10 -1.920511E-10
        72  12  9.649316E+03  1.426936E+04  1.337675E+04 -3.000854E+03  7.724068E-10 -1.409591E-09
        72  13 -4.883318E+04 -7.415011E+03 -1.616989E+02 -1.904308E+04  8.153571E-10  7.552630E-10
        72  14 -4.897417E+04 -7.260689E+03 -2.663942E+02 -1.886918E+04 -8.991250E-11  9.083315E-11
        72  15 -4.883248E+04 -7.411149E+03 -4.700173E+02 -1.904446E+04  3.523665E-12 -4.440612E-11
        72  16 -1.052875E+05 -2.835833E+04 -1.353847E+04 -3.454231E+04  1.162096E-09  5.697173E-10
        72  17 -1.064406E+05 -2.857252E+04 -1.387822E+04 -3.463997E+04 -1.438259E-09  7.509053E-10
        72  18 -1.073111E+05 -2.909149E+04 -1.431708E+04 -3.508675E+04  1.539683E-09  4.066920E-10
        72  19  7.624866E+03  1.352875E+04  1.321502E+04 -3.542426E+03 -1.343780E+03  3.149805E+03
        72  20  8.495697E+03  1.405146E+04  1.334528E+04 -3.097020E+03 -1.499655E+03  3.162674E+03
        72  21  9.649322E+03  1.426937E+04  1.337677E+04 -3.000858E+03 -1.655449E+03  3.175310E+03
        72  22 -4.883318E+04 -7.415000E+03 -1.616769E+02 -1.904309E+04 -1.286051E+03  3.171491E+03
        72  23 -4.897417E+04 -7.260678E+03 -2.663712E+02 -1.886919E+04 -1.442126E+03  3.184287E+03
        72  24 -4.883247E+04 -7.411137E+03 -4.699933E+02 -1.904447E+04 -1.598121E+03  3.196851E+03
        72  25 -1.052875E+05 -2.835831E+04 -1.353844E+04 -3.454231E+04 -1.228328E+03  3.193175E+03
        72  26 -1.064406E+05 -2.857251E+04 -1.387820E+04 -3.463997E+04 -1.384602E+03  3.205898E+03
        72  27 -1.073111E+05 -2.909148E+04 -1.431706E+04 -3.508676E+04 -1.540798E+03  3.218389E+03
        73   1  1.045513E+04  1.456836E+04  1.342301E+04 -2.786252E+03  1.760165E+03 -3.177317E+03
        73   2  1.136628E+04  1.508969E+04  1.315464E+04 -2.348253E+03  2.344411E+03 -3.028866E+03
        73   3  1.249243E+04  1.527131E+04  1.246143E+04 -2.271462E+03  2.928546E+03 -2.880106E+03
        73   4 -4.884682E+04 -7.412693E+03 -6.241171E+02 -1.904953E+04  1.702839E+03 -3.198858E+03
        73   5 -4.895464E+04 -7.245825E+03 -1.126401E+03 -1.886780E+04  2.287314E+03 -3.050323E+03
        73   6 -4.884755E+04 -7.418663E+03 -2.053735E+03 -1.904724E+04  2.871681E+03 -2.901479E+03
        73   7 -1.081450E+05 -2.939338E+04 -1.467140E+04 -3.531130E+04  1.645518E+03 -3.220397E+03
        73   8 -1.092719E+05 -2.958108E+04 -1.540770E+04 -3.538589E+04  2.230223E+03 -3.071779E+03
        73   9 -1.101841E+05 -3.010850E+04 -1.656925E+04 -3.582159E+04  2.814821E+03 -2.922849E+03
        73  10  1.045513E+04  1.456835E+04  1.342298E+04 -2.786248E+03 -2.279812E-09 -1.132348E-09
        73  11  1.136627E+04  1.508967E+04  1.315461E+04 -2.348248E+03 -4.066861E-09  1.446027E-09
        73  12  1.249241E+04  1.527130E+04  1.246140E+04 -2.271455E+03 -3.633009E-09 -3.749158E-11
        73  13 -4.884683E+04 -7.412705E+03 -6.241418E+02 -1.904952E+04 -1.129746E-09  2.963288E-10
        73  14 -4.895464E+04 -7.245836E+03 -1.126429E+03 -1.886780E+04 -1.541726E-09  1.084112E-09
        73  15 -4.884756E+04 -7.418674E+03 -2.053766E+03 -1.904723E+04 -2.565247E-09  5.379487E-10
        73  16 -1.081450E+05 -2.939339E+04 -1.467143E+04 -3.531130E+04  1.112069E-09  1.339127E-09
        73  17 -1.092719E+05 -2.958109E+04 -1.540773E+04 -3.538589E+04 -1.870481E-09  1.511762E-09
        73  18 -1.101841E+05 -3.010851E+04 -1.656929E+04 -3.582159E+04  8.562870E-10  1.735935E-09
        73  19  1.045513E+04  1.456836E+04  1.342301E+04 -2.786252E+03 -1.760165E+03  3.177317E+03
        73  20  1.136628E+04  1.508969E+04  1.315464E+04 -2.348253E+03 -2.344411E+03  3.028866E+03
        73  21  1.249243E+04  1.527131E+04  1.246143E+04 -2.271462E+03 -2.928546E+03  2.880106E+03
        73  22 -4.884682E+04 -7.412693E+03 -6.241171E+02 -1.904953E+04 -1.702839E+03  3.198858E+03
        73  23 -4.895464E+04 -7.245825E+03 -1.126401E+03 -1.886780E+04 -2.287314E+03  3.050323E+03
        73  24 -4.884755E+04 -7.418663E+03 -2.053735E+03 -1.904724E+04 -2.871681E+03  2.901479E+03
        73  25 -1.081450E+05 -2.939338E+04 -1.467140E+04 -3.531130E+04 -1.645518E+03  3.220397E+03
        73  26 -1.092719E+05 -2.958108E+04 -1.540770E+04 -3.538589E+04 -2.230223E+03  3.071779E+03
        73  27 -1.101841E+05 -3.010850E+04 -1.656925E+04 -3.582159E+04 -2.814821E+03  2.922849E+03
        74   1  1.329234E+04  1.553991E+04  1.197856E+04 -2.167028E+03  3.339123E+03 -2.767475E+03
        74   2  1.434972E+04  1.613848E+04  9.989861E+03 -1.630100E+03  5.836954E+03 -1.899274E+03
        74   3  1.518892E+04  1.588082E+04  6.021751E+03 -1.414930E+03  8.333238E+03 -1.026997E+03
        74   4 -4.892371E+04 -7.389124E+03 -2.735755E+03 -1.909277E+04  3.281181E+03 -2.789253E+03
        74   5 -4.884495E+04 -7.177850E+03 -4.957714E+03 -1.885039E+04  5.782534E+03 -1.919732E+03
        74   6 -4.898511E+04 -7.823591E+03 -9.162030E+03 -1.892979E+04  8.282330E+03 -1.046140E+03
        74   7 -1.111359E+05 -3.031790E+04 -1.745034E+04 -3.601697E+04  3.223246E+03 -2.811029E+03
        74   8 -1.120355E+05 -3.049384E+04 -1.990552E+04 -3.606903E+04  5.728121E+03 -1.940188E+03
        74   9 -1.131547E+05 -3.152758E+04 -2.434601E+04 -3.644291E+04  8.231427E+03 -1.065280E+03
        74  10  1.329233E+04  1.553990E+04  1.197852E+04 -2.167020E+03 -1.937423E-08 -7.539088E-09
        74  11  1.434968E+04  1.613847E+04  9.989790E+03 -1.630091E+03 -1.714644E-09 -2.306133E-09
        74  12  1.518884E+04  1.588080E+04  6.021619E+03 -1.414923E+03  1.855852E-08  5.793578E-09
        74  13 -4.892372E+04 -7.389135E+03 -2.735790E+03 -1.909276E+04 -3.117466E-09 -4.614888E-10
        74  14 -4.884499E+04 -7.177863E+03 -4.957783E+03 -1.885038E+04 -5.099315E-10 -2.936211E-09
        74  15 -4.898519E+04 -7.823610E+03 -9.162161E+03 -1.892978E+04  1.863722E-09 -1.165955E-09
        74  16 -1.111359E+05 -3.031791E+04 -1.745037E+04 -3.601696E+04  1.651146E-08  5.702886E-09
        74  17 -1.120355E+05 -3.049386E+04 -1.990559E+04 -3.606903E+04 -1.243095E-09 -3.381117E-09
        74  18 -1.131548E+05 -3.152760E+04 -2.434614E+04 -3.644291E+04 -1.181949E-08 -7.106388E-09
        74  19  1.329234E+04  1.553991E+04  1.197856E+04 -2.167028E+03 -3.339123E+03  2.767475E+03
        74  20  1.434972E+04  1.613848E+04  9.989861E+03 -1.630100E+03 -5.836954E+03  1.899274E+03
        74  21  1.518892E+04  1.588082E+04  6.021751E+03 -1.414930E+03 -8.333238E+03  1.026997E+03
        74  22 -4.892371E+04 -7.389124E+03 -2.735755E+03 -1.909277E+04 -3.281181E+03  2.789253E+03
        74  23 -4.884495E+04 -7.177850E+03 -4.957714E+03 -1.885039E+04 -5.782534E+03  1.919732E+03
        74  24 -4.898511E+04 -7.823591E+03 -9.162030E+03 -1.892979E+04 -8.282330E+03  1.046140E+03
        74  25 -1.111359E+05 -3.031790E+04 -1.745034E+04 -3.601697E+04 -3.223246E+03  2.811029E+03
        74  26 -1.120355E+05 -3.049384E+04 -1.990552E+04 -3.606903E+04 -5.728121E+03  1.940188E+03
        74  27 -1.131547E+05 -3.152758E+04 -2.434601E+04 -3.644291E+04 -8.231427E+03  1.065280E+03
        75   1  1.653037E+04  1.586385E+04  3.294285E+03 -3.057273E+03  1.007772E+04 -4.216633E+02
        75   2  1.738759E+04  1.813795E+04 -6.191715E+03  1.498473E+02  2.107184E+04  3.661257E+03
        75   3  1.372881E+04  1.096705E+04 -2.629716E+04  4.921100E+03  3.203325E+04  7.831603E+03
        75   4 -4.956250E+04 -7.032403E+03 -1.208313E+04 -1.952541E+04  1.000130E+04 -4.503562E+02
        75   5 -4.794112E+04 -6.875643E+03 -2.181417E+04 -1.859045E+04  2.107472E+04  3.662269E+03
        75   6 -5.085193E+04 -1.618039E+04 -4.222831E+04 -1.609138E+04  3.211541E+04  7.862214E+03
        75   7 -1.156514E+05 -2.992861E+04 -2.746095E+04 -3.599211E+04  9.924888E+03 -4.790464E+02
        75   8 -1.132658E+05 -3.188893E+04 -3.743699E+04 -3.732898E+04  2.107760E+04  3.663281E+03
        75   9 -1.154285E+05 -4.332720E+04 -5.815978E+04 -3.710176E+04  3.219756E+04  7.892820E+03
        75  10  1.653026E+04  1.586382E+04  3.294094E+03 -3.057270E+03  4.284082E-09  1.948201E-09
        75  11  1.738711E+04  1.813782E+04 -6.192574E+03  1.497852E+02  2.736973E-09  1.477976E-09
        75  12  1.372769E+04  1.096671E+04 -2.629921E+04  4.920898E+03 -1.461728E-09  1.050164E-09
        75  13 -4.956260E+04 -7.032430E+03 -1.208332E+04 -1.952541E+04  3.000455E-09  2.383742E-10
        75  14 -4.794160E+04 -6.875777E+03 -2.181503E+04 -1.859051E+04 -1.943603E-09  5.387439E-10
        75  15 -5.085306E+04 -1.618073E+04 -4.223037E+04 -1.609159E+04 -2.606626E-09  5.154890E-10
        75  16 -1.156515E+05 -2.992864E+04 -2.746113E+04 -3.599211E+04  4.027188E-10 -6.126736E-10
        75  17 -1.132662E+05 -3.188907E+04 -3.743785E+04 -3.732904E+04 -3.355326E-09  5.004047E-12
        75  18 -1.154296E+05 -4.332755E+04 -5.816185E+04 -3.710196E+04 -5.511186E-09  3.316192E-10
        75  19  1.653037E+04  1.586385E+04  3.294285E+03 -3.057273E+03 -1.007772E+04  4.216633E+02
        75  20  1.738759E+04  1.813795E+04 -6.191715E+03  1.498473E+02 -2.107184E+04 -3.661257E+03
        75  21  1.372881E+04  1.096705E+04 -2.629716E+04  4.921100E+03 -3.203325E+04 -7.831603E+03
        75  22 -4.956250E+04 -7.032403E+03 -1.208313E+04 -1.952541E+04 -1.000130E+04  4.503562E+02
        75  23 -4.794112E+04 -6.875643E+03 -2.181417E+04 -1.859045E+04 -2.107472E+04 -3.662269E+03
        75  24 -5.085193E+04 -1.618039E+04 -4.222831E+04 -1.609138E+04 -3.211541E+04 -7.862214E+03
        75  25 -1.156514E+05 -2.992861E+04 -2.746095E+04 -3.599211E+04 -9.924888E+03  4.790464E+02
        75  26 -1.132658E+05 -3.188893E+04 -3.743699E+04 -3.732898E+04 -2.107760E+04 -3.663281E+03
        75  27 -1.154285E+05 -4.332720E+04 -5.815978E+04 -3.710176E+04 -3.219756E+04 -7.892820E+03
        76   1  2.725077E+04  6.935671E+03 -3.748188E+04 -2.676114E+04  3.941692E+04  1.036763E+04
        76   2  1.197736E+04  4.008039E+04 -7.846812E+04  2.758183E+04  8.836650E+04  2.925897E+04
        76   3 -6.898615E+04 -8.553310E+04 -1.993554E+05  1.221448E+05  1.365848E+05  5.010134E+04
        76   4 -5.769430E+04 -9.953709E+02 -5.350777E+04 -2.568842E+04  3.892779E+04  1.018578E+04
        76   5 -3.652031E+04 -5.523570E+03 -9.502907E+04 -1.422709E+04  8.966366E+04  2.974110E+04
        76   6 -8.140486E+04 -1.691827E+05 -2.178723E+05  3.745902E+04  1.396709E+05  5.123831E+04
        76   7 -1.426310E+05 -8.925742E+03 -6.953361E+04 -2.461661E+04  3.843873E+04  1.000390E+04
        76   8 -8.501323E+04 -5.112105E+04 -1.115897E+05 -5.603146E+04  9.096071E+04  3.022303E+04
        76   9 -9.380797E+04 -2.527965E+05 -2.363852E+05 -4.721949E+04  1.427569E+05  5.237426E+04
        76  10  2.724907E+04  6.935138E+03 -3.748500E+04 -2.676147E+04 -1.316656E-09  1.075768E-09
        76  11  1.196874E+04  4.007737E+04 -7.848440E+04  2.757975E+04 -8.145764E-10  5.427468E-10
        76  12 -6.900686E+04 -8.554080E+04 -1.993952E+05  1.221393E+05  1.126024E-09  1.168817E-10
        76  13 -5.769595E+04 -9.958892E+02 -5.351082E+04 -2.568874E+04 -3.347913E-09 -1.674777E-11
        76  14 -3.652918E+04 -5.526679E+03 -9.504584E+04 -1.422924E+04 -2.153656E-09 -1.776144E-10
        76  15 -8.142652E+04 -1.691907E+05 -2.179139E+05  3.745325E+04 -2.233052E-09  6.303959E-10
        76  16 -1.426326E+05 -8.926246E+03 -6.953657E+04 -2.461692E+04 -4.544961E-09 -1.396314E-10
        76  17 -8.502236E+04 -5.112425E+04 -1.116070E+05 -5.603368E+04 -2.077535E-09  3.884465E-11
        76  18 -9.383060E+04 -2.528049E+05 -2.364287E+05 -4.722551E+04  6.223718E-10 -6.524795E-10
        76  19  2.725077E+04  6.935671E+03 -3.748188E+04 -2.676114E+04 -3.941692E+04 -1.036763E+04
        76  20  1.197736E+04  4.008039E+04 -7.846812E+04  2.758183E+04 -8.836650E+04 -2.925897E+04
        76  21 -6.898615E+04 -8.553310E+04 -1.993554E+05  1.221448E+05 -1.365848E+05 -5.010134E+04
        76  22 -5.769430E+04 -9.953709E+02 -5.350777E+04 -2.568842E+04 -3.892779E+04 -1.018578E+04
        76  23 -3.652031E+04 -5.523570E+03 -9.502907E+04 -1.422709E+04 -8.966366E+04 -2.974110E+04
        76  24 -8.140486E+04 -1.691827E+05 -2.178723E+05  3.745902E+04 -1.396709E+05 -5.123831E+04
        76  25 -1.426310E+05 -8.925742E+03 -6.953361E+04 -2.461661E+04 -3.843873E+04 -1.000390E+04
        76  26 -8.501323E+04 -5.112105E+04 -1.115897E+05 -5.603146E+04 -9.096071E+04 -3.022303E+04
        76  27 -9.380797E+04 -2.527965E+05 -2.363852E+05 -4.721949E+04 -1.427569E+05 -5.237426E+04
        77   1  1.962165E+05  1.931071E+06  2.095989E+05 -8.160662E+04  4.568259E+03  1.119676E+05
        77   2  8.979156E+04  1.904837E+06  1.275449E+05 -3.949947E+04  1.533021E+04  6.603199E+04
        77   3  6.772504E+04  1.905655E+06  9.642754E+04 -3.261907E+02  1.834648E+04  2.009779E+04
        77   4  1.192198E+05  1.619125E+06  1.359908E+05 -1.115115E+04  4.581858E+03  9.118626E+04
        77   5  1.819900E+04  1.606594E+06  6.727309E+04 -9.692138E+03  1.533493E+04  5.625185E+04
        77   6 -3.533063E+02  1.619219E+06  4.188040E+04 -1.116537E+04  1.834663E+04  2.131705E+04
        77   7  4.223501E+04  1.307279E+06  6.238023E+04  5.926882E+04  4.590758E+03  7.041529E+04
        77   8 -5.339569E+04  1.308438E+06  6.997555E+03  2.010065E+04  1.533872E+04  4.647630E+04
        77   9 -6.843601E+04  1.332863E+06 -1.267036E+04 -2.199944E+04  1.834673E+04  2.253575E+04
        77  10  1.962131E+05  1.931057E+06  2.095754E+05 -8.160703E+04 -1.428590E-10 -5.589939E-10
        77  11  8.979014E+04  1.904832E+06  1.275363E+05 -3.950029E+04  1.707495E-09 -4.909148E-10
        77  12  6.772457E+04  1.905654E+06  9.642615E+04 -3.264874E+02 -5.578222E-10  1.216837E-10
        77  13  1.192176E+05  1.619116E+06  1.359752E+05 -1.115149E+04 -1.323572E-10 -1.395701E-15
        77  14  1.819790E+04  1.606591E+06  6.726672E+04 -9.692832E+03  1.308240E-09 -1.699840E-10
        77  15 -3.537896E+02  1.619218E+06  4.187892E+04 -1.116569E+04 -2.301733E-10 -2.909306E-10
        77  16  4.223366E+04  1.307274E+06  6.237089E+04  5.926856E+04 -3.536980E-10  5.989883E-10
        77  17 -5.339653E+04  1.308436E+06  6.993063E+03  2.010008E+04  5.180774E-10  2.431454E-10
        77  18 -6.843651E+04  1.332862E+06 -1.267195E+04 -2.199977E+04 -1.617083E-09 -1.886161E-10
        77  19  1.962165E+05  1.931071E+06  2.095989E+05 -8.160662E+04 -4.568259E+03 -1.119676E+05
        77  20  8.979156E+04  1.904837E+06  1.275449E+05 -3.949947E+04 -1.533021E+04 -6.603199E+04
        77  21  6.772504E+04  1.905655E+06  9.642754E+04 -3.261907E+02 -1.834648E+04 -2.009779E+04
        77  22  1.192198E+05  1.619125E+06  1.359908E+05 -1.115115E+04 -4.581858E+03 -9.118626E+04
        77  23  1.819900E+04  1.606594E+06  6.727309E+04 -9.692138E+03 -1.533493E+04 -5.625185E+04
        77  24 -3.533063E+02  1.619219E+06  4.188040E+04 -1.116537E+04 -1.834663E+04 -2.131705E+04
        77  25  4.223501E+04  1.307279E+06  6.238023E+04  5.926882E+04 -4.590758E+03 -7.041529E+04
        77  26 -5.339569E+04  1.308438E+06  6.997555E+03  2.010065E+04 -1.533872E+04 -4.647630E+04
        77  27 -6.843601E+04  1.332863E+06 -1.267036E+04 -2.199944E+04 -1.834673E+04 -2.253575E+04
        78   1  7.032791E+04  1.892049E+06  8.854284E+04 -1.372960E+04  1.786089E+04  1.560002E+04
        78   2  6.360945E+04  1.877688E+06  7.962951E+04 -9.647825E+03  1.760370E+04 -5.124286E+02
        78   3  6.425121E+04  1.867267E+06  8.302604E+04 -8.888975E+03  1.644714E+04 -1.662495E+04
        78   4  4.357879E+03  1.614446E+06  3.574986E+04 -1.125015E+04  1.786167E+04  1.532686E+04
        78   5  7.113196E+02  1.612588E+06  2.971518E+04 -9.588821E+03  1.760407E+04  4.965699E+02
        78   6  4.204834E+03  1.614449E+06  3.510516E+04 -1.125046E+04  1.644704E+04 -1.433410E+04
        78   7 -6.161664E+04  1.336918E+06 -1.704658E+04 -8.771830E+03  1.786244E+04  1.505381E+04
        78   8 -6.219088E+04  1.347556E+06 -2.020222E+04 -9.529839E+03  1.760444E+04  1.505149E+03
        78   9 -5.584525E+04  1.361692E+06 -1.281855E+04 -1.361095E+04  1.644692E+04 -1.204415E+04
        78  10  7.032750E+04  1.892048E+06  8.854179E+04 -1.372982E+04 -5.795093E-10  1.499565E-09
        78  11  6.360911E+04  1.877688E+06  7.962892E+04 -9.647817E+03  1.007868E-09 -4.535000E-10
        78  12  6.425085E+04  1.867267E+06  8.302501E+04 -8.888755E+03 -5.635951E-10 -1.095805E-09
        78  13  4.357473E+03  1.614446E+06  3.574882E+04 -1.125037E+04 -1.402040E-09  8.673502E-11
        78  14  7.109865E+02  1.612588E+06  2.971460E+04 -9.588828E+03  6.098810E-10 -7.258897E-10
        78  15  4.204488E+03  1.614448E+06  3.510426E+04 -1.125027E+04  7.552484E-10 -4.740647E-10
        78  16 -6.161704E+04  1.336918E+06 -1.704761E+04 -8.772047E+03 -7.309362E-10 -1.712673E-09
        78  17 -6.219121E+04  1.347556E+06 -2.020280E+04 -9.529860E+03 -2.160596E-09 -2.517115E-10
        78  18 -5.584558E+04  1.361692E+06 -1.281933E+04 -1.361079E+04 -7.472632E-10  9.921045E-10
        78  19  7.032791E+04  1.892049E+06  8.854284E+04 -1.372960E+04 -1.786089E+04 -1.560002E+04
        78  20  6.360945E+04  1.877688E+06  7.962951E+04 -9.647825E+03 -1.760370E+04  5.124286E+02
        78  21  6.425121E+04  1.867267E+06  8.302604E+04 -8.888975E+03 -1.644714E+04  1.662495E+04
        78  22  4.357879E+03  1.614446E+06  3.574986E+04 -1.125015E+04 -1.786167E+04 -1.532686E+04
        78  23  7.113196E+02  1.612588E+06  2.971518E+04 -9.588821E+03 -1.760407E+04 -4.965699E+02
        78  24  4.204834E+03  1.614449E+06  3.510516E+04 -1.125046E+04 -1.644704E+04  1.433410E+04
        78  25 -6.161664E+04  1.336918E+06 -1.704658E+04 -8.771830E+03 -1.786244E+04 -1.505381E+04
        78  26 -6.219088E+04  1.347556E+06 -2.020222E+04 -9.529839E+03 -1.760444E+04 -1.505149E+03
        78  27 -5.584525E+04  1.361692E+06 -1.281855E+04 -1.361095E+04 -1.644692E+04  1.204415E+04
        79   1  5.779256E+04  1.863715E+06  8.726412E+04 -2.186188E+04  1.591910E+04 -2.142347E+04
        79   2  7.316604E+04  1.838813E+06  1.116588E+05  1.923234E+04  1.242107E+04 -6.283810E+04
        79   3  1.695576E+05  1.839537E+06  1.832183E+05  5.675947E+04  3.604100E+03 -1.042547E+05
        79   4 -3.315563E+02  1.619038E+06  4.088350E+04 -1.131254E+04  1.591884E+04 -2.020796E+04
        79   5  1.759734E+04  1.606834E+06  6.521297E+04 -9.507741E+03  1.242088E+04 -5.407082E+04
        79   6  1.152460E+05  1.618951E+06  1.314808E+05 -1.127012E+04  3.608299E+03 -8.793573E+04
        79   7 -5.845875E+04  1.374418E+06 -5.499727E+03 -7.674352E+02  1.591862E+04 -1.899291E+04
        79   8 -3.797152E+04  1.374907E+06  1.876514E+04 -3.823690E+04  1.241988E+04 -4.530674E+04
        79   9  6.094843E+04  1.398420E+06  7.974338E+04 -7.927546E+04  3.608933E+03 -7.162256E+04
        79  10  5.779217E+04  1.863714E+06  8.726278E+04 -2.186161E+04 -1.600860E-09 -1.024629E-09
        79  11  7.316482E+04  1.838809E+06  1.116511E+05  1.923297E+04 -1.768922E-09 -9.273503E-10
        79  12  1.695547E+05  1.839525E+06  1.831979E+05  5.675977E+04  9.513744E-10  8.302977E-10
        79  13 -3.319378E+02  1.619037E+06  4.088225E+04 -1.131228E+04 -2.699551E-10 -1.370990E-10
        79  14  1.759639E+04  1.606831E+06  6.520720E+04 -9.507201E+03  3.016278E-10 -8.837690E-10
        79  15  1.152439E+05  1.618942E+06  1.314663E+05 -1.126987E+04  2.186064E-10 -6.185479E-10
        79  16 -5.845912E+04  1.374418E+06 -5.500880E+03 -7.671918E+02 -1.332847E-10  4.250203E-10
        79  17 -3.797223E+04  1.374905E+06  1.876100E+04 -3.823644E+04  7.855513E-10 -1.231366E-10
        79  18  6.094704E+04  1.398414E+06  7.973373E+04 -7.927526E+04  7.243565E-10 -8.932148E-10
        79  19  5.779256E+04  1.863715E+06  8.726412E+04 -2.186188E+04 -1.591910E+04  2.142347E+04
        79  20  7.316604E+04  1.838813E+06  1.116588E+05  1.923234E+04 -1.242107E+04  6.283810E+04
        79  21  1.695576E+05  1.839537E+06  1.832183E+05  5.675947E+04 -3.604100E+03  1.042547E+05
        79  22 -3.315563E+02  1.619038E+06  4.088350E+04 -1.131254E+04 -1.591884E+04  2.020796E+04
        79  23  1.759734E+04  1.606834E+06  6.521297E+04 -9.507741E+03 -1.242088E+04  5.407082E+04
        79  24  1.152460E+05  1.618951E+06  1.314808E+05 -1.127012E+04 -3.608299E+03  8.793573E+04
        79  25 -5.845875E+04  1.374418E+06 -5.499727E+03 -7.674352E+02 -1.591862E+04  1.899291E+04
        79  26 -3.797152E+04  1.374907E+06  1.876514E+04 -3.823690E+04 -1.241988E+04  4.530674E+04
        79  27  6.094843E+04  1.398420E+06  7.974338E+04 -7.927546E+04 -3.608933E+03  7.162256E+04
        80   1 -1.811268E+06 -3.948002E+05 -3.421835E+05 -4.021776E+04  5.660805E+04  3.172755E+04
        80   2 -1.638655E+06 -5.217935E+05 -3.704422E+05 -6.282122E+04  6.273397E+04  1.003108E+05
        80   3 -1.424323E+06 -4.864197E+05 -3.618175E+05 -1.571328E+05  6.905892E+04  1.072562E+05
        80   4  5.359928E+05  1.877017E+05  2.247388E+05 -1.286764E+05  1.545833E+05  3.200704E+04
        80   5  5.101097E+05  2.763362E+03  1.029189E+05 -9.258839E+04  1.000506E+05  1.003710E+05
        80   6  5.362815E+05 -9.588494E+03  5.998797E+04 -1.281834E+05  4.571976E+04  1.071944E+05
        80   7  2.888338E+06  7.698370E+05  7.913072E+05 -2.174747E+05  2.529277E+05  3.225808E+04
        80   8  2.663201E+06  5.270147E+05  5.760029E+05 -1.224623E+05  1.374947E+05  1.004276E+05
        80   9  2.500506E+06  4.669935E+05  4.815706E+05 -9.914230E+04  2.230761E+04  1.071305E+05
        80  10 -1.811272E+06 -3.948021E+05 -3.421914E+05 -4.021921E+04  1.192358E-11  9.803941E-11
        80  11 -1.638662E+06 -5.218053E+05 -3.704685E+05 -6.282630E+04  3.189631E-09  2.603820E-10
        80  12 -1.424332E+06 -4.864334E+05 -3.618482E+05 -1.571388E+05  1.144064E-09  4.146254E-10
        80  13  5.359669E+05  1.876942E+05  2.246920E+05 -1.286804E+05  1.074618E-09 -7.432902E-11
        80  14  5.100962E+05  2.749856E+03  1.028812E+05 -9.259647E+04  1.627116E-09  3.091176E-11
        80  15  5.362762E+05 -9.601398E+03  5.996244E+04 -1.281874E+05  1.309724E-09 -1.449601E-10
        80  16  2.888269E+06  7.698188E+05  7.911855E+05 -2.174813E+05 -2.087804E-10 -1.233384E-10
        80  17  2.663178E+06  5.269988E+05  5.759485E+05 -1.224734E+05 -9.665263E-10 -3.855943E-10
        80  18  2.500502E+06  4.669810E+05  4.815481E+05 -9.914423E+04  5.131286E-10 -5.183482E-10
        80  19 -1.811268E+06 -3.948002E+05 -3.421835E+05 -4.021776E+04 -5.660805E+04 -3.172755E+04
        80  20 -1.638655E+06 -5.217935E+05 -3.704422E+05 -6.282122E+04 -6.273397E+04 -1.003108E+05
        80  21 -1.424323E+06 -4.864197E+05 -3.618175E+05 -1.571328E+05 -6.905892E+04 -1.072562E+05
        80  22  5.359928E+05  1.877017E+05  2.247388E+05 -1.286764E+05 -1.545833E+05 -3.200704E+04
        80  23  5.101097E+05  2.763362E+03  1.029189E+05 -9.258839E+04 -1.000506E+05 -1.003710E+05
        80  24  5.362815E+05 -9.588494E+03  5.998797E+04 -1.281834E+05 -4.571976E+04 -1.071944E+05
        80  25  2.888338E+06  7.698370E+05  7.913072E+05 -2.174747E+05 -2.529277E+05 -3.225808E+04
        80  26  2.663201E+06  5.270147E+05  5.760029E+05 -1.224623E+05 -1.374947E+05 -1.004276E+05
        80  27  2.500506E+06  4.669935E+05  4.815706E+05 -9.914230E+04 -2.230761E+04 -1.071305E+05
        81   1 -1.282905E+06 -4.318116E+05 -3.435623E+05 -1.275090E+05  4.345243E+04  9.595078E+04
        81   2 -1.093782E+06 -3.940360E+05 -3.222399E+05 -9.244620E+04  3.336356E+04  8.822887E+04
        81   3 -9.001713E+05 -3.476883E+05 -2.919626E+05 -1.309753E+05  2.325553E+04  7.770451E+04
        81   4  5.259252E+05  8.329437E+03  4.742957E+04 -1.287309E+05  3.733005E+04  9.592151E+04
        81   5  5.235578E+05 -8.431123E+02  2.574393E+04 -9.193684E+04  2.445342E+04  8.820383E+04
        81   6  5.261161E+05 -9.718213E+02  1.492903E+04 -1.287224E+05  1.156070E+04  7.768716E+04
        81   7  2.337830E+06  4.482547E+05  4.382280E+05 -1.299572E+05  3.118992E+04  9.589233E+04
        81   8  2.143358E+06  3.921780E+05  3.735747E+05 -9.142648E+04  1.552030E+04  8.817882E+04
        81   9  1.954317E+06  3.456111E+05  3.217019E+05 -1.264642E+05 -1.606732E+02  7.766976E+04
        81  10 -1.282909E+06 -4.318220E+05 -3.435831E+05 -1.275124E+05 -5.353383E-10 -1.331858E-10
        81  11 -1.093786E+06 -3.940446E+05 -3.222566E+05 -9.244858E+04 -9.582852E-10 -5.218661E-10
        81  12 -9.001735E+05 -3.476949E+05 -2.919750E+05 -1.309768E+05  1.145545E-10 -1.890997E-10
        81  13  5.259213E+05  8.319180E+03  4.740965E+04 -1.287338E+05 -7.439330E-12 -2.036461E-10
        81  14  5.235551E+05 -8.516292E+02  2.572818E+04 -9.193857E+04  5.050544E-10  8.698950E-11
        81  15  5.261144E+05 -9.783398E+02  1.491744E+04 -1.287231E+05  4.009651E-10  4.725969E-11
        81  16  2.337826E+06  4.482445E+05  4.382089E+05 -1.299596E+05  2.324394E-09 -4.255303E-11
        81  17  2.143356E+06  3.921696E+05  3.735596E+05 -9.142759E+04  1.165752E-09  3.740128E-10
        81  18  1.954315E+06  3.456046E+05  3.216906E+05 -1.264642E+05 -7.767633E-10  2.338515E-10
        81  19 -1.282905E+06 -4.318116E+05 -3.435623E+05 -1.275090E+05 -4.345243E+04 -9.595078E+04
        81  20 -1.093782E+06 -3.940360E+05 -3.222399E+05 -9.244620E+04 -3.336356E+04 -8.822887E+04
        81  21 -9.001713E+05 -3.476883E+05 -2.919626E+05 -1.309753E+05 -2.325553E+04 -7.770451E+04
        81  22  5.259252E+05  8.329437E+03  4.742957E+04 -1.287309E+05 -3.733005E+04 -9.592151E+04
        81  23  5.235578E+05 -8.431123E+02  2.574393E+04 -9.193684E+04 -2.445342E+04 -8.820383E+04
        81  24  5.261161E+05 -9.718213E+02  1.492903E+04 -1.287224E+05 -1.156070E+04 -7.768716E+04
        81  25  2.337830E+06  4.482547E+05  4.382280E+05 -1.299572E+05 -3.118992E+04 -9.589233E+04
        81  26  2.143358E+06  3.921780E+05  3.735747E+05 -9.142648E+04 -1.552030E+04 -8.817882E+04
        81  27  1.954317E+06  3.456111E+05  3.217019E+05 -1.264642E+05  1.606732E+02 -7.766976E+04
        82   1 -7.514009E+05 -3.101924E+05 -2.624055E+05 -1.291182E+05  2.013251E+04  7.089309E+04
        82   2 -5.614172E+05 -2.642614E+05 -2.268234E+05 -9.215143E+04  1.704023E+04  5.974469E+04
        82   3 -3.705107E+05 -2.178146E+05 -1.890135E+05 -1.285139E+05  1.393249E+04  4.848253E+04
        82   4  5.253128E+05 -3.827762E+01  1.141425E+04 -1.286674E+05  9.241374E+03  7.088103E+04
        82   5  5.249202E+05 -3.137522E+02  6.501838E+03 -9.200681E+04  6.029775E+03  5.973909E+04
        82   6  5.254381E+05 -5.091096E+01  3.897997E+03 -1.286676E+05  2.803656E+03  4.848362E+04
        82   7  1.803560E+06  3.100092E+05  2.851394E+05 -1.282157E+05 -1.671875E+03  7.086896E+04
        82   8  1.612368E+06  2.635566E+05  2.397585E+05 -9.186179E+04 -4.999691E+03  5.973350E+04
        82   9  1.422141E+06  2.176601E+05  1.967628E+05 -1.288215E+05 -8.341028E+03  4.848472E+04
        82  10 -7.514026E+05 -3.101979E+05 -2.624157E+05 -1.291193E+05 -5.069247E-10 -1.216444E-10
        82  11 -5.614185E+05 -2.642653E+05 -2.268306E+05 -9.215226E+04  1.761732E-10  2.251638E-11
        82  12 -3.705115E+05 -2.178172E+05 -1.890183E+05 -1.285144E+05 -1.127145E-09  3.580347E-10
        82  13  5.253114E+05 -4.369703E+01  1.140464E+04 -1.286680E+05  1.065371E-09  3.864922E-11
        82  14  5.249192E+05 -3.175951E+02  6.495061E+03 -9.200710E+04 -2.154421E-09  2.651916E-10
        82  15  5.254374E+05 -5.343792E+01  3.893564E+03 -1.286678E+05 -1.067143E-09  4.637560E-10
        82  16  1.803559E+06  3.100038E+05  2.851300E+05 -1.282156E+05 -1.697042E-09 -1.660294E-10
        82  17  1.612367E+06  2.635527E+05  2.397518E+05 -9.186155E+04 -5.710584E-10  8.333269E-10
        82  18  1.422141E+06  2.176576E+05  1.967583E+05 -1.288212E+05 -6.980625E-10  7.331310E-10
        82  19 -7.514009E+05 -3.101924E+05 -2.624055E+05 -1.291182E+05 -2.013251E+04 -7.089309E+04
        82  20 -5.614172E+05 -2.642614E+05 -2.268234E+05 -9.215143E+04 -1.704023E+04 -5.974469E+04
        82  21 -3.705107E+05 -2.178146E+05 -1.890135E+05 -1.285139E+05 -1.393249E+04 -4.848253E+04
        82  22  5.253128E+05 -3.827762E+01  1.141425E+04 -1.286674E+05 -9.241374E+03 -7.088103E+04
        82  23  5.249202E+05 -3.137522E+02  6.501838E+03 -9.200681E+04 -6.029775E+03 -5.973909E+04
        82  24  5.254381E+05 -5.091096E+01  3.897997E+03 -1.286676E+05 -2.803656E+03 -4.848362E+04
        82  25  1.803560E+06  3.100092E+05  2.851394E+05 -1.282157E+05  1.671875E+03 -7.086896E+04
        82  26  1.612368E+06  2.635566E+05  2.397585E+05 -9.186179E+04  4.999691E+03 -5.973350E+04
        82  27  1.422141E+06  2.176601E+05  1.967628E+05 -1.288215E+05  8.341028E+03 -4.848472E+04
        83   1 -2.216473E+05 -1.813347E+05 -1.568182E+05 -1.283834E+05  1.325542E+04  4.190466E+04
        83   2 -3.181386E+04 -1.352662E+05 -1.175907E+05 -9.180297E+04  1.225710E+04  3.063836E+04
        83   3  1.581951E+05 -8.906771E+04 -7.768844E+04 -1.283416E+05  1.125098E+04  1.937431E+04
        83   4  5.253204E+05  1.137551E+01  3.046135E+03 -1.286218E+05  2.171965E+03  4.190880E+04
        83   5  5.252831E+05  4.617494E+01  2.013573E+03 -9.206420E+04  1.173189E+03  3.064581E+04
        83   6  5.253840E+05  2.123297E+02  1.655576E+03 -1.286217E+05  1.669031E+02  1.938520E+04
        83   7  1.272813E+06  1.813210E+05  1.628785E+05 -1.288603E+05 -8.924636E+03  4.191295E+04
        83   8  1.082672E+06  1.353383E+05  1.216002E+05 -9.232559E+04 -9.920528E+03  3.065327E+04
        83   9  8.926998E+05  8.948355E+04  8.099208E+04 -1.289020E+05 -1.092363E+04  1.939610E+04
        83  10 -2.216480E+05 -1.813366E+05 -1.568218E+05 -1.283838E+05 -2.055994E-10  3.746148E-10
        83  11 -3.181427E+04 -1.352673E+05 -1.175928E+05 -9.180327E+04  2.673339E-10 -2.032359E-10
        83  12  1.581949E+05 -8.906814E+04 -7.768938E+04 -1.283418E+05 -9.416382E-10 -9.579517E-10
        83  13  5.253199E+05  9.487746E+00  3.042825E+03 -1.286218E+05 -1.036516E-09 -2.684590E-11
        83  14  5.252829E+05  4.516582E+01  2.011805E+03 -9.206423E+04 -5.624336E-10  2.019292E-11
        83  15  5.253839E+05  2.119261E+02  1.654869E+03 -1.286217E+05 -1.233402E-09 -7.216265E-10
        83  16  1.272813E+06  1.813191E+05  1.628751E+05 -1.288600E+05 -1.339806E-11  2.046338E-10
        83  17  1.082672E+06  1.353373E+05  1.215982E+05 -9.232534E+04 -8.734078E-10 -6.194174E-10
        83  18  8.926995E+05  8.948311E+04  8.099115E+04 -1.289018E+05 -4.044787E-10 -5.426805E-10
        83  19 -2.216473E+05 -1.813347E+05 -1.568182E+05 -1.283834E+05 -1.325542E+04 -4.190466E+04
        83  20 -3.181386E+04 -1.352662E+05 -1.175907E+05 -9.180297E+04 -1.225710E+04 -3.063836E+04
        83  21  1.581951E+05 -8.906771E+04 -7.768844E+04 -1.283416E+05 -1.125098E+04 -1.937431E+04
        83  22  5.253204E+05  1.137551E+01  3.046135E+03 -1.286218E+05 -2.171965E+03 -4.190880E+04
        83  23  5.252831E+05  4.617494E+01  2.013573E+03 -9.206420E+04 -1.173189E+03 -3.064581E+04
        83  24  5.253840E+05  2.123297E+02  1.655576E+03 -1.286217E+05 -1.669031E+02 -1.938520E+04
        83  25  1.272813E+06  1.813210E+05  1.628785E+05 -1.288603E+05  8.924636E+03 -4.191295E+04
        83  26  1.082672E+06  1.353383E+05  1.216002E+05 -9.232559E+04  9.920528E+03 -3.065327E+04
        83  27  8.926998E+05  8.948355E+04  8.099208E+04 -1.289020E+05  1.092363E+04 -1.939610E+04
        84   1  3.069238E+05 -5.272243E+04 -4.471139E+04 -1.284340E+05  1.093899E+04  1.282127E+04
        84   2  4.966796E+05 -6.815117E+03 -4.101436E+03 -9.200611E+04  9.909365E+03  1.568547E+03
        84   3  6.864803E+05  3.924114E+04  3.717271E+04 -1.286094E+05  8.879054E+03 -9.679486E+03
        84   4  5.253748E+05  2.212715E+02  1.654754E+03 -1.286030E+05 -1.421113E+02  1.283325E+04
        84   5  5.253712E+05  1.515195E+02  2.055462E+03 -9.208753E+04 -1.168737E+03  1.580634E+03
        84   6  5.253779E+05  2.322755E+02  3.119232E+03 -1.286030E+05 -2.195746E+03 -9.667164E+03
        84   7  7.438710E+05  5.316194E+04  4.801864E+04 -1.287721E+05 -1.122705E+04  1.284524E+04
        84   8  5.540639E+05  7.118168E+03  8.212772E+03 -9.216896E+04 -1.224734E+04  1.592725E+03
        84   9  3.643002E+05 -3.877820E+04 -3.093525E+04 -1.285965E+05 -1.326772E+04 -9.654841E+03
        84  10  3.069236E+05 -5.272264E+04 -4.471193E+04 -1.284341E+05 -2.063940E-09 -7.019205E-10
        84  11  4.966795E+05 -6.815146E+03 -4.101625E+03 -9.200612E+04  6.427318E-10  3.462356E-10
        84  12  6.864801E+05  3.924102E+04  3.717238E+04 -1.286093E+05 -9.518989E-11  4.889479E-10
        84  13  5.253747E+05  2.210946E+02  1.654444E+03 -1.286030E+05 -2.193719E-09 -2.248163E-10
        84  14  5.253712E+05  1.515165E+02  2.055454E+03 -9.208753E+04  5.066671E-10  3.748073E-10
        84  15  5.253778E+05  2.321738E+02  3.119048E+03 -1.286030E+05  2.318573E-10  4.968312E-10
        84  16  7.438709E+05  5.316173E+04  4.801809E+04 -1.287720E+05  2.484014E-10 -4.049196E-10
        84  17  5.540637E+05  7.118125E+03  8.212485E+03 -9.216894E+04 -1.965047E-09  9.521301E-11
        84  18  3.643000E+05 -3.877835E+04 -3.093576E+04 -1.285966E+05  1.878685E-10 -1.123644E-10
        84  19  3.069238E+05 -5.272243E+04 -4.471139E+04 -1.284340E+05 -1.093899E+04 -1.282127E+04
        84  20  4.966796E+05 -6.815117E+03 -4.101436E+03 -9.200611E+04 -9.909365E+03 -1.568547E+03
        84  21  6.864803E+05  3.924114E+04  3.717271E+04 -1.286094E+05 -8.879054E+03  9.679486E+03
        84  22  5.253748E+05  2.212715E+02  1.654754E+03 -1.286030E+05  1.421113E+02 -1.283325E+04
        84  23  5.253712E+05  1.515195E+02  2.055462E+03 -9.208753E+04  1.168737E+03 -1.580634E+03
        84  24  5.253779E+05  2.322755E+02  3.119232E+03 -1.286030E+05  2.195746E+03  9.667164E+03
        84  25  7.438710E+05  5.316194E+04  4.801864E+04 -1.287721E+05  1.122705E+04 -1.284524E+04
        84  26  5.540639E+05  7.118168E+03  8.212772E+03 -9.216896E+04  1.224734E+04 -1.592725E+03
        84  27  3.643002E+05 -3.877820E+04 -3.093525E+04 -1.285965E+05  1.326772E+04  9.654841E+03
        85   1  8.353785E+05  7.552273E+04  7.100160E+04 -1.286608E+05  8.260135E+03 -1.623613E+04
        85   2  1.025098E+06  1.213513E+05  1.139744E+05 -9.214087E+04  4.839777E+03 -2.746231E+04
        85   3  1.215396E+06  1.677980E+05  1.593055E+05 -1.287117E+05  1.425190E+03 -3.859781E+04
        85   4  5.254784E+05  1.871415E+02  3.982295E+03 -1.286172E+05 -2.846188E+03 -1.622466E+04
        85   5  5.251832E+05  2.170932E+00  6.697727E+03 -9.206975E+04 -6.176196E+03 -2.745401E+04
        85   6  5.254204E+05  4.230643E+02  1.171227E+04 -1.286167E+05 -9.499419E+03 -3.859252E+04
        85   7  2.156687E+05 -7.515471E+04 -6.304224E+04 -1.285735E+05 -1.394705E+04 -1.621318E+04
        85   8  2.550345E+04 -1.213633E+05 -1.005931E+05 -9.199862E+04 -1.718343E+04 -2.744571E+04
        85   9 -1.641073E+05 -1.669829E+05 -1.359081E+05 -1.285217E+05 -2.041208E+04 -3.858723E+04
        85  10  8.353783E+05  7.552243E+04  7.100098E+04 -1.286607E+05 -8.572686E-10  1.581538E-10
        85  11  1.025098E+06  1.213505E+05  1.139730E+05 -9.214076E+04  1.247738E-09  2.090726E-10
        85  12  1.215395E+06  1.677964E+05  1.593027E+05 -1.287116E+05 -2.263322E-10  6.010461E-11
        85  13  5.254784E+05  1.868566E+02  3.981785E+03 -1.286172E+05  5.574440E-11 -2.261887E-10
        85  14  5.251829E+05  1.351102E+00  6.696238E+03 -9.206989E+04  5.774663E-10 -1.800254E-10
        85  15  5.254199E+05  4.214402E+02  1.170930E+04 -1.286170E+05  1.778297E-09 -3.268910E-10
        85  16  2.156685E+05 -7.515505E+04 -6.304310E+04 -1.285737E+05  6.358258E-10 -1.473756E-10
        85  17  2.550293E+04 -1.213641E+05 -1.005951E+05 -9.199900E+04 -5.192166E-10 -3.553742E-10
        85  18 -1.641081E+05 -1.669846E+05 -1.359117E+05 -1.285223E+05  1.696490E-10 -2.508412E-10
        85  19  8.353785E+05  7.552273E+04  7.100160E+04 -1.286608E+05 -8.260135E+03  1.623613E+04
        85  20  1.025098E+06  1.213513E+05  1.139744E+05 -9.214087E+04 -4.839777E+03  2.746231E+04
        85  21  1.215396E+06  1.677980E+05  1.593055E+05 -1.287117E+05 -1.425190E+03  3.859781E+04
        85  22  5.254784E+05  1.871415E+02  3.982295E+03 -1.286172E+05  2.846188E+03  1.622466E+04
        85  23  5.251832E+05  2.170932E+00  6.697727E+03 -9.206975E+04  6.176196E+03  2.745401E+04
        85  24  5.254204E+05  4.230643E+02  1.171227E+04 -1.286167E+05  9.499419E+03  3.859252E+04
        85  25  2.156687E+05 -7.515471E+04 -6.304224E+04 -1.285735E+05  1.394705E+04  1.621318E+04
        85  26  2.550345E+04 -1.213633E+05 -1.005931E+05 -9.199862E+04  1.718343E+04  2.744571E+04
        85  27 -1.641073E+05 -1.669829E+05 -1.359081E+05 -1.285217E+05  2.041208E+04  3.858723E+04
        86   1  1.365404E+06  2.032434E+05  1.958359E+05 -1.271414E+05 -3.561913E+02 -4.531765E+04
        86   2  1.553655E+06  2.496245E+05  2.477151E+05 -9.289753E+04 -1.572648E+04 -5.596093E+04
        86   3  1.746665E+06  3.057118E+05  3.120709E+05 -1.318421E+05 -3.108909E+04 -6.448969E+04
        86   4  5.262225E+05 -5.131917E+02  1.530443E+04 -1.286398E+05 -1.188745E+04 -4.531482E+04
        86   5  5.239777E+05 -3.139178E+02  2.646360E+04 -9.204074E+04 -2.515410E+04 -5.596510E+04
        86   6  5.260996E+05  9.238750E+03  4.865588E+04 -1.286369E+05 -3.840843E+04 -6.449922E+04
        86   7 -3.122978E+05 -2.043159E+05 -1.652678E+05 -1.301359E+05 -2.340335E+04 -4.531193E+04
        86   8 -5.047051E+05 -2.503217E+05 -1.948496E+05 -9.118525E+04 -3.456630E+04 -5.596930E+04
        86   9 -6.930698E+05 -2.873322E+05 -2.148468E+05 -1.254379E+05 -4.571356E+04 -6.450884E+04
        86  10  1.365403E+06  2.032412E+05  1.958320E+05 -1.271414E+05 -2.513745E-09 -3.915179E-10
        86  11  1.553654E+06  2.496210E+05  2.477088E+05 -9.289824E+04  7.717101E-09 -2.580261E-10
        86  12  1.746663E+06  3.057071E+05  3.120613E+05 -1.318438E+05  1.275615E-08  1.556667E-09
        86  13  5.262218E+05 -5.154353E+02  1.530031E+04 -1.286402E+05 -5.906930E-11 -3.616955E-10
        86  14  5.239762E+05 -3.174519E+02  2.645652E+04 -9.204187E+04 -5.151953E-10 -2.450858E-10
        86  15  5.260969E+05  9.233885E+03  4.864529E+04 -1.286389E+05 -5.657571E-10  1.552851E-09
        86  16 -3.122990E+05 -2.043182E+05 -1.652727E+05 -1.301368E+05  3.060584E-09 -5.942573E-10
        86  17 -5.047072E+05 -2.503254E+05 -1.948578E+05 -9.118681E+04 -7.764559E-09 -1.441196E-10
        86  18 -6.930732E+05 -2.873373E+05 -2.148586E+05 -1.254403E+05 -1.430803E-08  1.597641E-09
        86  19  1.365404E+06  2.032434E+05  1.958359E+05 -1.271414E+05  3.561913E+02  4.531765E+04
        86  20  1.553655E+06  2.496245E+05  2.477151E+05 -9.289753E+04  1.572648E+04  5.596093E+04
        86  21  1.746665E+06  3.057118E+05  3.120709E+05 -1.318421E+05  3.108909E+04  6.448969E+04
        86  22  5.262225E+05 -5.131917E+02  1.530443E+04 -1.286398E+05  1.188745E+04  4.531482E+04
        86  23  5.239777E+05 -3.139178E+02  2.646360E+04 -9.204074E+04  2.515410E+04  5.596510E+04
        86  24  5.260996E+05  9.238750E+03  4.865588E+04 -1.286369E+05  3.840843E+04  6.449922E+04
        86  25 -3.122978E+05 -2.043159E+05 -1.652678E+05 -1.301359E+05  2.340335E+04  4.531193E+04
        86  26 -5.047051E+05 -2.503217E+05 -1.948496E+05 -9.118525E+04  3.456630E+04  5.596930E+04
        86  27 -6.930698E+05 -2.873322E+05 -2.148468E+05 -1.254379E+05  4.571356E+04  6.450884E+04
        87   1  1.908201E+06  3.237722E+05  3.561442E+05 -1.008729E+05 -2.668758E+04 -7.456362E+04
        87   2  2.070171E+06  3.836758E+05  4.488594E+05 -1.262319E+05 -1.283609E+05 -7.209730E+04
        87   3  2.292338E+06  6.281083E+05  6.539451E+05 -2.232135E+05 -2.301355E+05 -2.323558E+04
        87   4  5.366865E+05 -9.085016E+03  6.152555E+04 -1.282435E+05 -4.702811E+04 -7.457941E+04
        87   5  5.103988E+05  3.612210E+03  1.056623E+05 -9.252391E+04 -1.028135E+05 -7.209866E+04
        87   6  5.364630E+05  1.931245E+05  2.304964E+05 -1.284139E+05 -1.586624E+05 -2.319015E+04
        87   7 -8.330611E+05 -3.420625E+05 -2.332011E+05 -1.555528E+05 -6.732436E+04 -7.459342E+04
        87   8 -1.047100E+06 -3.766097E+05 -2.376806E+05 -5.890165E+04 -7.732909E+04 -7.209728E+04
        87   9 -1.216569E+06 -2.420472E+05 -1.931487E+05 -3.388312E+04 -8.738971E+04 -2.312293E+04
        87  10  1.908198E+06  3.237661E+05  3.561324E+05 -1.008745E+05 -1.250232E-08  1.631843E-09
        87  11  2.070152E+06  3.836659E+05  4.488187E+05 -1.262393E+05 -5.596362E-09 -2.199214E-10
        87  12  2.292281E+06  6.280936E+05  6.538449E+05 -2.232178E+05  2.320326E-09 -4.981345E-10
        87  13  5.366826E+05 -9.091584E+03  6.151094E+04 -1.282463E+05 -1.073482E-09  1.652352E-09
        87  14  5.103860E+05  3.603791E+03  1.056327E+05 -9.252988E+04  5.166156E-10 -8.975055E-11
        87  15  5.364358E+05  1.931172E+05  2.304481E+05 -1.284169E+05 -4.366152E-10 -1.617728E-10
        87  16 -8.330675E+05 -3.420696E+05 -2.332201E+05 -1.555568E+05  1.248205E-08  1.778909E-09
        87  17 -1.047108E+06 -3.766169E+05 -2.377016E+05 -5.890615E+04  6.981782E-09  6.207899E-10
        87  18 -1.216578E+06 -2.420499E+05 -1.931641E+05 -3.388475E+04 -1.951887E-09 -8.148197E-11
        87  19  1.908201E+06  3.237722E+05  3.561442E+05 -1.008729E+05  2.668758E+04  7.456362E+04
        87  20  2.070171E+06  3.836758E+05  4.488594E+05 -1.262319E+05  1.283609E+05  7.209730E+04
        87  21  2.292338E+06  6.281083E+05  6.539451E+05 -2.232135E+05  2.301355E+05  2.323558E+04
        87  22  5.366865E+05 -9.085016E+03  6.152555E+04 -1.282435E+05  4.702811E+04  7.457941E+04
        87  23  5.103988E+05  3.612210E+03  1.056623E+05 -9.252391E+04  1.028135E+05  7.209866E+04
        87  24  5.364630E+05  1.931245E+05  2.304964E+05 -1.284139E+05  1.586624E+05  2.319015E+04
        87  25 -8.330611E+05 -3.420625E+05 -2.332011E+05 -1.555528E+05  6.732436E+04  7.459342E+04
        87  26 -1.047100E+06 -3.766097E+05 -2.376806E+05 -5.890165E+04  7.732909E+04  7.209728E+04
        87  27 -1.216569E+06 -2.420472E+05 -1.931487E+05 -3.388312E+04  8.738971E+04  2.312293E+04
        88   1  3.236479E+04 -2.988696E+05  4.737523E+04 -1.502058E+05 -4.605796E+03  4.614492E+04
        88   2 -8.056421E+04 -4.783415E+05 -3.431466E+04 -9.386553E+04 -1.803114E+04  2.798580E+04
        88   3 -1.267971E+05 -6.392613E+05 -8.764131E+04 -1.030965E+05 -2.875619E+04  9.843900E+03
        88   4  7.407732E+04 -1.284844E+05  8.707923E+04 -1.143691E+05 -4.655834E+03  6.076083E+04
        88   5  2.145252E+03 -1.379992E+05  3.929176E+04 -8.171874E+04 -1.807144E+04  3.993958E+04
        88   6 -2.643925E+03 -1.285260E+05  2.171628E+04 -1.146307E+05 -2.878618E+04  1.913115E+04
        88   7  1.157928E+05  4.193095E+04  1.267828E+05 -7.852246E+04 -4.704177E+03  7.538072E+04
        88   8  8.484774E+04  2.024525E+05  1.128919E+05 -6.956511E+04 -1.811126E+04  5.189983E+04
        88   9  1.214926E+05  3.824554E+05  1.310591E+05 -1.261743E+05 -2.881651E+04  2.842593E+04
        88  10  3.236419E+04 -2.988719E+05  4.737118E+04 -1.502057E+05  3.681986E-10  9.796371E-10
        88  11 -8.056477E+04 -4.783425E+05 -3.431674E+04 -9.386512E+04 -5.124818E-10 -1.538207E-10
        88  12 -1.267980E+05 -6.392616E+05 -8.764304E+04 -1.030963E+05  4.055709E-10 -1.387560E-09
        88  13  7.407631E+04 -1.284884E+05  8.707225E+04 -1.143689E+05 -1.212282E-10  3.587575E-11
        88  14  2.144474E+03 -1.380010E+05  3.928814E+04 -8.171816E+04  2.389591E-09  4.371763E-11
        88  15 -2.644913E+03 -1.285266E+05  2.171403E+04 -1.146303E+05  1.779616E-09  6.383724E-11
        88  16  1.157913E+05  4.192485E+04  1.267721E+05 -7.852217E+04 -6.664146E-10 -1.004918E-09
        88  17  8.484666E+04  2.024496E+05  1.128863E+05 -6.956435E+04  1.614161E-09  2.451944E-10
        88  18  1.214915E+05  3.824543E+05  1.310560E+05 -1.261736E+05  5.325183E-10  1.429378E-09
        88  19  3.236479E+04 -2.988696E+05  4.737523E+04 -1.502058E+05  4.605796E+03 -4.614492E+04
        88  20 -8.056421E+04 -4.783415E+05 -3.431466E+04 -9.386553E+04  1.803114E+04 -2.798580E+04
        88  21 -1.267971E+05 -6.392613E+05 -8.764131E+04 -1.030965E+05  2.875619E+04 -9.843900E+03
        88  22  7.407732E+04 -1.284844E+05  8.707923E+04 -1.143691E+05  4.655834E+03 -6.076083E+04
        88  23  2.145252E+03 -1.379992E+05  3.929176E+04 -8.171874E+04  1.807144E+04 -3.993958E+04
        88  24 -2.643925E+03 -1.285260E+05  2.171628E+04 -1.146307E+05  2.878618E+04 -1.913115E+04
        88  25  1.157928E+05  4.193095E+04  1.267828E+05 -7.852246E+04  4.704177E+03 -7.538072E+04
        88  26  8.484774E+04  2.024525E+05  1.128919E+05 -6.956511E+04  1.811126E+04 -5.189983E+04
        88  27  1.214926E+05  3.824554E+05  1.310591E+05 -1.261743E+05  2.881651E+04 -2.842593E+04
        89   1 -1.523647E+05 -7.769013E+05 -1.227164E+05 -1.139263E+05 -3.456411E+04  5.659246E+03
        89   2 -1.977296E+05 -9.473870E+05 -1.691320E+05 -8.035255E+04 -4.429316E+04  4.388575E+03
        89   3 -2.407899E+05 -1.117372E+06 -2.142162E+05 -1.122673E+05 -5.211614E+04  3.132619E+03
        89   4  4.369280E+03 -1.326009E+05  1.631358E+04 -1.145425E+05 -3.459612E+04  1.617603E+04
        89   5  3.176636E+02 -1.330430E+05  6.218231E+03 -8.180913E+04 -4.431491E+04  1.302904E+04
        89   6 -1.102270E+03 -1.326851E+05 -1.240497E+03 -1.145588E+05 -5.212889E+04  9.896453E+03
        89   7  1.610760E+05  5.120900E+05  1.553195E+05 -1.151590E+05 -3.462814E+04  2.670358E+04
        89   8  1.983214E+05  6.819250E+05  1.815298E+05 -8.326714E+04 -4.433668E+04  2.168068E+04
        89   9  2.385214E+05  8.529137E+05  2.116779E+05 -1.168533E+05 -5.214167E+04  1.667088E+04
        89  10 -1.523660E+05 -7.769016E+05 -1.227187E+05 -1.139261E+05 -2.188121E-10 -8.089106E-10
        89  11 -1.977318E+05 -9.473875E+05 -1.691357E+05 -8.035240E+04  1.185100E-09  9.484828E-11
        89  12 -2.407928E+05 -1.117373E+06 -2.142213E+05 -1.122672E+05  2.117571E-10  8.029269E-10
        89  13  4.367924E+03 -1.326015E+05  1.631084E+04 -1.145420E+05  5.646199E-10  8.400628E-11
        89  14  3.155095E+02 -1.330437E+05  6.214223E+03 -8.180867E+04 -4.388738E-10  7.443287E-11
        89  15 -1.105214E+03 -1.326859E+05 -1.245787E+03 -1.145584E+05 -2.552476E-10  1.353059E-11
        89  16  1.610745E+05  5.120890E+05  1.553159E+05 -1.151582E+05 -4.215755E-10  9.506335E-10
        89  17  1.983192E+05  6.819240E+05  1.815252E+05 -8.326637E+04 -3.357654E-10 -2.603611E-10
        89  18  2.385184E+05  8.529127E+05  2.116723E+05 -1.168526E+05 -1.491359E-09 -6.723084E-10
        89  19 -1.523647E+05 -7.769013E+05 -1.227164E+05 -1.139263E+05  3.456411E+04 -5.659246E+03
        89  20 -1.977296E+05 -9.473870E+05 -1.691320E+05 -8.035255E+04  4.429316E+04 -4.388575E+03
        89  21 -2.407899E+05 -1.117372E+06 -2.142162E+05 -1.122673E+05  5.211614E+04 -3.132619E+03
        89  22  4.369280E+03 -1.326009E+05  1.631358E+04 -1.145425E+05  3.459612E+04 -1.617603E+04
        89  23  3.176636E+02 -1.330430E+05  6.218231E+03 -8.180913E+04  4.431491E+04 -1.302904E+04
        89  24 -1.102270E+03 -1.326851E+05 -1.240497E+03 -1.145588E+05  5.212889E+04 -9.896453E+03
        89  25  1.610760E+05  5.120900E+05  1.553195E+05 -1.151590E+05  3.462814E+04 -2.670358E+04
        89  26  1.983214E+05  6.819250E+05  1.815298E+05 -8.326714E+04  4.433668E+04 -2.168068E+04
        89  27  2.385214E+05  8.529137E+05  2.116779E+05 -1.168533E+05  5.214167E+04 -1.667088E+04
        90   1 -2.704977E+05 -1.253423E+06 -2.454429E+05 -1.081380E+05 -6.087914E+04 -7.436845E+03
        90   2 -3.147712E+05 -1.417193E+06 -2.966370E+05 -8.491471E+04 -5.949625E+04  3.765384E+04
        90   3 -3.894664E+05 -1.594252E+06 -3.847907E+05 -1.253531E+05 -1.919989E+04  8.279465E+04
        90   4  1.717405E+03 -1.344035E+05 -4.462835E+03 -1.141335E+05 -6.091685E+04  1.021899E+04
        90   5 -5.929046E+02 -1.311414E+05 -1.289244E+04 -8.233426E+04 -5.944220E+04  1.710856E+04
        90   6 -2.665106E+04 -1.345349E+05 -3.170295E+04 -1.141927E+05 -1.908906E+04  2.406245E+04
        90   7  2.738504E+05  9.857949E+05  2.364448E+05 -1.201392E+05 -6.095487E+04  2.790624E+04
        90   8  3.134744E+05  1.156459E+06  2.707521E+05 -7.974747E+04 -5.938839E+04 -3.478890E+03
        90   9  3.360105E+05  1.327141E+06  3.212448E+05 -1.030050E+05 -1.898049E+04 -3.480773E+04
        90  10 -2.705017E+05 -1.253424E+06 -2.454499E+05 -1.081384E+05 -8.416233E-11 -5.184187E-10
        90  11 -3.147754E+05 -1.417195E+06 -2.966464E+05 -8.491291E+04 -9.213553E-10  1.467248E-10
        90  12 -3.894686E+05 -1.594260E+06 -3.848043E+05 -1.253518E+05 -9.729849E-12  9.696058E-10
        90  13  1.713392E+03 -1.344046E+05 -4.470004E+03 -1.141330E+05 -1.054108E-09  5.826736E-11
        90  14 -5.967771E+02 -1.311427E+05 -1.289963E+04 -8.233344E+04 -2.161566E-09  8.522467E-11
        90  15 -2.665161E+04 -1.345356E+05 -3.170472E+04 -1.141924E+05 -5.204820E-10 -5.351893E-12
        90  16  2.738462E+05  9.857931E+05  2.364364E+05 -1.201378E+05 -1.164183E-09  4.506520E-10
        90  17  3.134706E+05  1.156458E+06  2.707454E+05 -7.974763E+04 -1.620701E-09 -2.262769E-10
        90  18  3.360098E+05  1.327140E+06  3.212419E+05 -1.030055E+05 -1.113046E-10 -9.712655E-10
        90  19 -2.704977E+05 -1.253423E+06 -2.454429E+05 -1.081380E+05  6.087914E+04  7.436845E+03
        90  20 -3.147712E+05 -1.417193E+06 -2.966370E+05 -8.491471E+04  5.949625E+04 -3.765384E+04
        90  21 -3.894664E+05 -1.594252E+06 -3.847907E+05 -1.253531E+05  1.919989E+04 -8.279465E+04
        90  22  1.717405E+03 -1.344035E+05 -4.462835E+03 -1.141335E+05  6.091685E+04 -1.021899E+04
        90  23 -5.929046E+02 -1.311414E+05 -1.289244E+04 -8.233426E+04  5.944220E+04 -1.710856E+04
        90  24 -2.665106E+04 -1.345349E+05 -3.170295E+04 -1.141927E+05  1.908906E+04 -2.406245E+04
        90  25  2.738504E+05  9.857949E+05  2.364448E+05 -1.201392E+05  6.095487E+04 -2.790624E+04
        90  26  3.134744E+05  1.156459E+06  2.707521E+05 -7.974747E+04  5.938839E+04  3.478890E+03
        90  27  3.360105E+05  1.327141E+06  3.212448E+05 -1.030050E+05  1.898049E+04  3.480773E+04
        91   1 -3.295522E+06 -1.240176E+06 -7.451280E+05 -1.178545E+06 -2.534936E+05 -6.610897E+04
        91   2 -3.162970E+06 -9.156748E+05 -5.181209E+05 -1.130991E+06 -1.659101E+05  3.147771E+04
        91   3 -3.079821E+06 -8.323201E+05 -4.272498E+05 -1.078752E+06 -5.871969E+04  7.740732E+04
        91   4 -1.563783E+06 -4.881238E+05 -2.642222E+05 -6.052668E+05 -1.784105E+05 -3.774114E+04
        91   5 -1.529181E+06 -2.705804E+05 -1.153507E+05 -6.459992E+05 -1.380344E+05  4.198122E+04
        91   6 -1.534378E+06 -2.844799E+05 -6.482717E+04 -6.821115E+05 -7.810396E+04  7.007789E+04
        91   7  1.708940E+05  2.643918E+05  2.164248E+05 -3.044267E+04 -1.030964E+05 -9.256474E+03
        91   8  1.072653E+05  3.747873E+05  2.872170E+05 -1.598087E+05 -1.100782E+05  5.251905E+04
        91   9  1.345230E+04  2.634784E+05  2.974325E+05 -2.845897E+05 -9.754099E+04  6.273085E+04
        91  10 -3.295592E+06 -1.240198E+06 -7.452578E+05 -1.178558E+06 -5.595110E-10 -8.004460E-12
        91  11 -3.163000E+06 -9.156833E+05 -5.181747E+05 -1.130987E+06  2.522157E-09 -2.289332E-10
        91  12 -3.079827E+06 -8.323274E+05 -4.272675E+05 -1.078748E+06  7.018312E-10 -4.601421E-10
        91  13 -1.563818E+06 -4.881339E+05 -2.642848E+05 -6.052723E+05 -1.488466E-09 -6.388013E-11
        91  14 -1.529202E+06 -2.705874E+05 -1.153899E+05 -6.459945E+05 -8.775449E-10 -3.336202E-10
        91  15 -1.534385E+06 -2.844868E+05 -6.484786E+04 -6.821071E+05 -3.374397E-10 -7.238152E-10
        91  16  1.708826E+05  2.643888E+05  2.164047E+05 -3.044344E+04 -1.516711E-09 -1.240279E-10
        91  17  1.072516E+05  3.747810E+05  2.871890E+05 -1.598041E+05 -2.226893E-09 -4.618576E-10
        91  18  1.344104E+04  2.634716E+05  2.974073E+05 -2.845848E+05 -7.936028E-11 -7.631407E-10
        91  19 -3.295522E+06 -1.240176E+06 -7.451280E+05 -1.178545E+06  2.534936E+05  6.610897E+04
        91  20 -3.162970E+06 -9.156748E+05 -5.181209E+05 -1.130991E+06  1.659101E+05 -3.147771E+04
        91  21 -3.079821E+06 -8.323201E+05 -4.272498E+05 -1.078752E+06  5.871969E+04 -7.740732E+04
        91  22 -1.563783E+06 -4.881238E+05 -2.642222E+05 -6.052668E+05  1.784105E+05  3.774114E+04
        91  23 -1.529181E+06 -2.705804E+05 -1.153507E+05 -6.459992E+05  1.380344E+05 -4.198122E+04
        91  24 -1.534378E+06 -2.844799E+05 -6.482717E+04 -6.821115E+05  7.810396E+04 -7.007789E+04
        91  25  1.708940E+05  2.643918E+05  2.164248E+05 -3.044267E+04  1.030964E+05  9.256474E+03
        91  26  1.072653E+05  3.747873E+05  2.872170E+05 -1.598087E+05  1.100782E+05 -5.251905E+04
        91  27  1.345230E+04  2.634784E+05  2.974325E+05 -2.845897E+05  9.754099E+04 -6.273085E+04
        92   1 -2.932497E+06 -8.321119E+05 -3.882578E+05 -1.062637E+06 -6.201408E+04  6.523573E+04
        92   2 -2.810565E+06 -7.439818E+05 -3.282437E+05 -1.000012E+06 -4.420876E+04  6.523700E+04
        92   3 -2.651787E+06 -7.097149E+05 -2.827787E+05 -9.833131E+05 -2.551474E+04  6.284775E+04
        92   4 -1.525553E+06 -3.034450E+05 -5.118628E+04 -6.712113E+05 -6.636425E+04  6.357978E+04
        92   5 -1.543311E+06 -2.710036E+05 -2.650838E+04 -6.503760E+05 -5.072029E+04  6.277295E+04
        92   6 -1.523801E+06 -2.919751E+05 -1.463650E+04 -6.754716E+05 -3.419232E+04  5.957654E+04
        92   7 -1.166433E+05  2.253698E+05  2.857394E+05 -2.789725E+05 -7.072510E+04  6.191977E+04
        92   8 -2.744554E+05  2.020923E+05  2.751117E+05 -3.000864E+05 -5.724631E+04  6.030344E+04
        92   9 -3.945408E+05  1.258552E+05  2.534165E+05 -3.671179E+05 -4.288718E+04  5.629892E+04
        92  10 -2.932502E+06 -8.321175E+05 -3.882731E+05 -1.062634E+06 -1.277374E-09 -6.840263E-10
        92  11 -2.810569E+06 -7.439869E+05 -3.282553E+05 -1.000009E+06  1.292453E-09  1.666434E-10
        92  12 -2.651789E+06 -7.097193E+05 -2.827874E+05 -9.833118E+05  2.585807E-10  1.429051E-10
        92  13 -1.525559E+06 -3.034506E+05 -5.120215E+04 -6.712079E+05  1.398891E-10 -5.848424E-10
        92  14 -1.543315E+06 -2.710086E+05 -2.652061E+04 -6.503735E+05 -9.816223E-10  3.430069E-10
        92  15 -1.523803E+06 -2.919792E+05 -1.464536E+04 -6.754699E+05 -7.770804E-11  3.124048E-11
        92  16 -1.166497E+05  2.253643E+05  2.857228E+05 -2.789690E+05  6.612792E-10 -2.314149E-10
        92  17 -2.744598E+05  2.020875E+05  2.750987E+05 -3.000837E+05  2.074979E-10  1.729329E-11
        92  18 -3.945436E+05  1.258513E+05  2.534071E+05 -3.671159E+05  1.092728E-10  3.935770E-11
        92  19 -2.932497E+06 -8.321119E+05 -3.882578E+05 -1.062637E+06  6.201408E+04 -6.523573E+04
        92  20 -2.810565E+06 -7.439818E+05 -3.282437E+05 -1.000012E+06  4.420876E+04 -6.523700E+04
        92  21 -2.651787E+06 -7.097149E+05 -2.827787E+05 -9.833131E+05  2.551474E+04 -6.284775E+04
        92  22 -1.525553E+06 -3.034450E+05 -5.118628E+04 -6.712113E+05  6.636425E+04 -6.357978E+04
        92  23 -1.543311E+06 -2.710036E+05 -2.650838E+04 -6.503760E+05  5.072029E+04 -6.277295E+04
        92  24 -1.523801E+06 -2.919751E+05 -1.463650E+04 -6.754716E+05  3.419232E+04 -5.957654E+04
        92  25 -1.166433E+05  2.253698E+05  2.857394E+05 -2.789725E+05  7.072510E+04 -6.191977E+04
        92  26 -2.744554E+05  2.020923E+05  2.751117E+05 -3.000864E+05  5.724631E+04 -6.030344E+04
        92  27 -3.945408E+05  1.258552E+05  2.534165E+05 -3.671179E+05  4.288718E+04 -5.629892E+04
        93   1 -2.532773E+06 -6.684691E+05 -2.506232E+05 -9.522332E+05 -2.204869E+04  5.799483E+04
        93   2 -2.409385E+06 -5.920752E+05 -2.115362E+05 -8.876057E+05 -1.553250E+04  5.034841E+04
        93   3 -2.242980E+06 -5.596619E+05 -1.749211E+05 -8.724754E+05 -8.968471E+03  4.254347E+04
        93   4 -1.522924E+06 -2.931304E+05 -1.113550E+04 -6.750125E+05 -3.010547E+04  5.496088E+04
        93   5 -1.544338E+06 -2.707532E+05 -6.108049E+03 -6.503957E+05 -2.372894E+04  4.726722E+04
        93   6 -1.522729E+06 -2.923246E+05 -3.438406E+03 -6.752790E+05 -1.730544E+04  3.941495E+04
        93   7 -5.120576E+05  8.228142E+04  2.282797E+05 -3.973794E+05 -3.817656E+04  5.192158E+04
        93   8 -6.785462E+05  5.062120E+04  1.992662E+05 -4.128841E+05 -3.193782E+04  4.418138E+04
        93   9 -8.019651E+05 -2.495218E+04  1.680062E+05 -4.778745E+05 -2.565293E+04  3.628249E+04
        93  10 -2.532774E+06 -6.684728E+05 -2.506304E+05 -9.522321E+05 -3.917097E-10 -1.934458E-10
        93  11 -2.409386E+06 -5.920780E+05 -2.115414E+05 -8.876051E+05  7.543775E-10  4.457342E-10
        93  12 -2.242980E+06 -5.596638E+05 -1.749246E+05 -8.724751E+05  2.148968E-12  1.910002E-11
        93  13 -1.522926E+06 -2.931339E+05 -1.114287E+04 -6.750112E+05 -1.245896E-10  1.361155E-10
        93  14 -1.544339E+06 -2.707557E+05 -6.113302E+03 -6.503948E+05  1.122975E-09  5.372565E-10
        93  15 -1.522730E+06 -2.923263E+05 -3.441885E+03 -6.752784E+05  1.429086E-09  1.492052E-10
        93  16 -5.120598E+05  8.227814E+04  2.282719E+05 -3.973778E+05  1.786949E-09  2.052748E-10
        93  17 -6.785478E+05  5.061883E+04  1.992606E+05 -4.128830E+05  5.272745E-10  3.163968E-10
        93  18 -8.019662E+05 -2.495376E+04  1.680025E+05 -4.778738E+05 -1.232972E-10  3.545507E-10
        93  19 -2.532773E+06 -6.684691E+05 -2.506232E+05 -9.522332E+05  2.204869E+04 -5.799483E+04
        93  20 -2.409385E+06 -5.920752E+05 -2.115362E+05 -8.876057E+05  1.553250E+04 -5.034841E+04
        93  21 -2.242980E+06 -5.596619E+05 -1.749211E+05 -8.724754E+05  8.968471E+03 -4.254347E+04
        93  22 -1.522924E+06 -2.931304E+05 -1.113550E+04 -6.750125E+05  3.010547E+04 -5.496088E+04
        93  23 -1.544338E+06 -2.707532E+05 -6.108049E+03 -6.503957E+05  2.372894E+04 -4.726722E+04
        93  24 -1.522729E+06 -2.923246E+05 -3.438406E+03 -6.752790E+05  1.730544E+04 -3.941495E+04
        93  25 -5.120576E+05  8.228142E+04  2.282797E+05 -3.973794E+05  3.817656E+04 -5.192158E+04
        93  26 -6.785462E+05  5.062120E+04  1.992662E+05 -4.128841E+05  3.193782E+04 -4.418138E+04
        93  27 -8.019651E+05 -2.495218E+04  1.680062E+05 -4.778745E+05  2.565293E+04 -3.628249E+04
        94   1 -2.123822E+06 -5.155258E+05 -1.449091E+05 -8.401156E+05 -6.477613E+03  3.744456E+04
        94   2 -1.998797E+06 -4.390347E+05 -1.095705E+05 -7.746818E+05 -2.176127E+03  2.868263E+04
        94   3 -1.829947E+06 -4.064375E+05 -7.488767E+04 -7.595571E+05  2.131478E+03  1.988725E+04
        94   4 -1.522544E+06 -2.924766E+05 -2.681978E+03 -6.753827E+05 -1.481962E+04  3.431668E+04
        94   5 -1.544411E+06 -2.704523E+05 -1.730996E+03 -6.502454E+05 -1.054809E+04  2.554627E+04
        94   6 -1.522477E+06 -2.923162E+05 -1.412869E+03 -6.754235E+05 -6.270746E+03  1.674248E+04
        94   7 -9.208995E+05 -6.939965E+04  1.395213E+05 -5.105025E+05 -2.317051E+04  3.118548E+04
        94   8 -1.089821E+06 -1.018558E+05  1.060936E+05 -5.257261E+05 -1.892672E+04  2.240742E+04
        94   9 -1.214918E+06 -1.781901E+05  7.205410E+04 -5.912531E+05 -1.467738E+04  1.359605E+04
        94  10 -2.123823E+06 -5.155273E+05 -1.449118E+05 -8.401154E+05  1.367325E-09 -3.150479E-11
        94  11 -1.998797E+06 -4.390356E+05 -1.095720E+05 -7.746818E+05 -3.544381E-10 -4.084168E-10
        94  12 -1.829947E+06 -4.064379E+05 -7.488842E+04 -7.595571E+05 -3.564017E-10 -1.958427E-10
        94  13 -1.522544E+06 -2.924779E+05 -2.684601E+03 -6.753823E+05  5.244403E-10  3.433921E-12
        94  14 -1.544412E+06 -2.704530E+05 -1.732430E+03 -6.502452E+05  1.221138E-09  8.629931E-11
        94  15 -1.522477E+06 -2.923165E+05 -1.413469E+03 -6.754234E+05 -3.841166E-10 -2.262338E-11
        94  16 -9.209003E+05 -6.940083E+04  1.395184E+05 -5.105019E+05 -1.029937E-09  2.891298E-10
        94  17 -1.089822E+06 -1.018564E+05  1.060920E+05 -5.257258E+05 -8.386886E-10 -2.462545E-11
        94  18 -1.214918E+06 -1.781904E+05  7.205335E+04 -5.912529E+05 -2.066040E-10  1.019673E-10
        94  19 -2.123822E+06 -5.155258E+05 -1.449091E+05 -8.401156E+05  6.477613E+03 -3.744456E+04
        94  20 -1.998797E+06 -4.390347E+05 -1.095705E+05 -7.746818E+05  2.176127E+03 -2.868263E+04
        94  21 -1.829947E+06 -4.064375E+05 -7.488767E+04 -7.595571E+05 -2.131478E+03 -1.988725E+04
        94  22 -1.522544E+06 -2.924766E+05 -2.681978E+03 -6.753827E+05  1.481962E+04 -3.431668E+04
        94  23 -1.544411E+06 -2.704523E+05 -1.730996E+03 -6.502454E+05  1.054809E+04 -2.554627E+04
        94  24 -1.522477E+06 -2.923162E+05 -1.412869E+03 -6.754235E+05  6.270746E+03 -1.674248E+04
        94  25 -9.208995E+05 -6.939965E+04  1.395213E+05 -5.105025E+05  2.317051E+04 -3.118548E+04
        94  26 -1.089821E+06 -1.018558E+05  1.060936E+05 -5.257261E+05  1.892672E+04 -2.240742E+04
        94  27 -1.214918E+06 -1.781901E+05  7.205410E+04 -5.912531E+05  1.467738E+04 -1.359605E+04
        95   1 -1.709863E+06 -3.617982E+05 -4.542347E+04 -7.268475E+05  4.375909E+03  1.465435E+04
        95   2 -1.584084E+06 -2.850861E+05 -1.137799E+04 -6.611108E+05  8.773767E+03  5.862596E+03
        95   3 -1.414404E+06 -2.524772E+05  2.192506E+04 -6.459639E+05  1.317098E+04 -2.927891E+03
        95   4 -1.522447E+06 -2.923585E+05 -1.460775E+03 -6.754835E+05 -4.040090E+03  1.150539E+04
        95   5 -1.544385E+06 -2.703068E+05 -1.950400E+03 -6.501827E+05  3.580232E+02  2.713883E+03
        95   6 -1.522442E+06 -2.923601E+05 -3.181651E+03 -6.754807E+05  4.755221E+03 -6.076387E+03
        95   7 -1.334994E+06 -2.229157E+05  4.250013E+04 -6.241049E+05 -1.245891E+04  8.355376E+03
        95   8 -1.504683E+06 -2.555272E+05  7.477519E+03 -6.392539E+05 -8.058408E+03 -4.350895E+02
        95   9 -1.630471E+06 -3.322427E+05 -2.828937E+04 -7.049933E+05 -3.659088E+03 -9.224344E+03
        95  10 -1.709864E+06 -3.617984E+05 -4.542391E+04 -7.268475E+05  1.261662E-09  1.092417E-10
        95  11 -1.584084E+06 -2.850862E+05 -1.137820E+04 -6.611108E+05 -4.046952E-11 -6.907305E-11
        95  12 -1.414404E+06 -2.524773E+05  2.192471E+04 -6.459639E+05 -8.466044E-10  6.491710E-10
        95  13 -1.522447E+06 -2.923586E+05 -1.461055E+03 -6.754834E+05 -5.539296E-10 -2.155713E-10
        95  14 -1.544385E+06 -2.703068E+05 -1.950414E+03 -6.501827E+05 -1.088548E-09 -3.131446E-11
        95  15 -1.522442E+06 -2.923601E+05 -3.181763E+03 -6.754807E+05 -9.369913E-10 -7.060777E-11
        95  16 -1.334994E+06 -2.229158E+05  4.249971E+04 -6.241048E+05 -1.557140E-10  1.872081E-10
        95  17 -1.504683E+06 -2.555272E+05  7.477396E+03 -6.392539E+05  4.874672E-10  1.081570E-10
        95  18 -1.630471E+06 -3.322428E+05 -2.828956E+04 -7.049933E+05  2.897795E-10 -3.324575E-11
        95  19 -1.709863E+06 -3.617982E+05 -4.542347E+04 -7.268475E+05 -4.375909E+03 -1.465435E+04
        95  20 -1.584084E+06 -2.850861E+05 -1.137799E+04 -6.611108E+05 -8.773767E+03 -5.862596E+03
        95  21 -1.414404E+06 -2.524772E+05  2.192506E+04 -6.459639E+05 -1.317098E+04  2.927891E+03
        95  22 -1.522447E+06 -2.923585E+05 -1.460775E+03 -6.754835E+05  4.040090E+03 -1.150539E+04
        95  23 -1.544385E+06 -2.703068E+05 -1.950400E+03 -6.501827E+05 -3.580232E+02 -2.713883E+03
        95  24 -1.522442E+06 -2.923601E+05 -3.181651E+03 -6.754807E+05 -4.755221E+03  6.076387E+03
        95  25 -1.334994E+06 -2.229157E+05  4.250013E+04 -6.241049E+05  1.245891E+04 -8.355376E+03
        95  26 -1.504683E+06 -2.555272E+05  7.477519E+03 -6.392539E+05  8.058408E+03  4.350895E+02
        95  27 -1.630471E+06 -3.322427E+05 -2.828937E+04 -7.049933E+05  3.659088E+03  9.224344E+03
        96   1 -1.294302E+06 -2.077936E+05  5.047983E+04 -6.132934E+05  1.578543E+04 -8.031344E+03
        96   2 -1.168762E+06 -1.312275E+05  8.167172E+04 -5.475452E+05  2.279457E+04 -1.580107E+04
        96   3 -1.000008E+06 -9.936981E+04  1.099902E+05 -5.321329E+05  2.977225E+04 -2.347018E+04
        96   4 -1.522580E+06 -2.922870E+05 -4.141664E+03 -6.755085E+05  7.354701E+03 -1.118609E+04
        96   5 -1.544241E+06 -2.703058E+05 -7.373140E+03 -6.502009E+05  1.445208E+04 -1.892510E+04
        96   6 -1.522726E+06 -2.930533E+05 -1.354805E+04 -6.752387E+05  2.151707E+04 -2.656375E+04
        96   7 -1.750802E+06 -3.767754E+05 -5.876565E+04 -7.377019E+05 -1.072518E+03 -1.433953E+04
        96   8 -1.919577E+06 -4.093730E+05 -9.642684E+04 -7.527991E+05  6.115158E+03 -2.204706E+04
        96   9 -2.045170E+06 -4.867169E+05 -1.371051E+05 -8.182343E+05  1.326947E+04 -2.965448E+04
        96  10 -1.294302E+06 -2.077937E+05  5.047924E+04 -6.132933E+05 -4.410218E-10  1.057766E-09
        96  11 -1.168763E+06 -1.312279E+05  8.167028E+04 -5.475449E+05 -8.219377E-10  9.876989E-10
        96  12 -1.000009E+06 -9.937064E+04  1.099875E+05 -5.321324E+05  2.379827E-10  2.499956E-10
        96  13 -1.522580E+06 -2.922871E+05 -4.142001E+03 -6.755085E+05 -6.229264E-10  5.461476E-10
        96  14 -1.544242E+06 -2.703062E+05 -7.374205E+03 -6.502007E+05 -5.571845E-11  1.759499E-10
        96  15 -1.522726E+06 -2.930542E+05 -1.355024E+04 -6.752383E+05 -3.800470E-10 -6.265781E-11
        96  16 -1.750802E+06 -3.767756E+05 -5.876604E+04 -7.377019E+05  6.782066E-12  4.503417E-10
        96  17 -1.919577E+06 -4.093735E+05 -9.642782E+04 -7.527990E+05  7.763653E-10  1.981102E-10
        96  18 -2.045170E+06 -4.867179E+05 -1.371071E+05 -8.182339E+05  4.323032E-10  1.455647E-10
        96  19 -1.294302E+06 -2.077936E+05  5.047983E+04 -6.132934E+05 -1.578543E+04  8.031344E+03
        96  20 -1.168762E+06 -1.312275E+05  8.167172E+04 -5.475452E+05 -2.279457E+04  1.580107E+04
        96  21 -1.000008E+06 -9.936981E+04  1.099902E+05 -5.321329E+05 -2.977225E+04  2.347018E+04
        96  22 -1.522580E+06 -2.922870E+05 -4.141664E+03 -6.755085E+05 -7.354701E+03  1.118609E+04
        96  23 -1.544241E+06 -2.703058E+05 -7.373140E+03 -6.502009E+05 -1.445208E+04  1.892510E+04
        96  24 -1.522726E+06 -2.930533E+05 -1.354805E+04 -6.752387E+05 -2.151707E+04  2.656375E+04
        96  25 -1.750802E+06 -3.767754E+05 -5.876565E+04 -7.377019E+05  1.072518E+03  1.433953E+04
        96  26 -1.919577E+06 -4.093730E+05 -9.642684E+04 -7.527991E+05 -6.115158E+03  2.204706E+04
        96  27 -2.045170E+06 -4.867169E+05 -1.371051E+05 -8.182343E+05 -1.326947E+04  2.965448E+04
        97   1 -8.799670E+05 -5.526615E+04  1.349261E+05 -5.020544E+05  3.480099E+04 -2.778931E+04
        97   2 -7.564054E+05  2.298692E+04  1.548210E+05 -4.330128E+05  5.274022E+04 -3.086578E+04
        97   3 -5.959901E+05  4.467715E+04  1.602720E+05 -4.107918E+05  7.002515E+04 -3.215961E+04
        97   4 -1.523678E+06 -2.917708E+05 -1.783534E+04 -6.759674E+05  2.606599E+04 -3.106476E+04
        97   5 -1.542946E+06 -2.702068E+05 -3.223133E+04 -6.499876E+05  4.562155E+04 -3.354036E+04
        97   6 -1.525711E+06 -3.055472E+05 -6.236975E+04 -6.708431E+05  6.451869E+04 -3.423367E+04
        97   7 -2.166982E+06 -5.282495E+05 -1.706270E+05 -8.497176E+05  1.734081E+04 -3.433662E+04
        97   8 -2.328873E+06 -5.633561E+05 -2.193284E+05 -8.667116E+05  3.851267E+04 -3.621124E+04
        97   9 -2.454573E+06 -6.557040E+05 -2.850743E+05 -9.305368E+05  5.902116E+04 -3.630427E+04
        97  10 -8.799685E+05 -5.526731E+04  1.349223E+05 -5.020536E+05 -4.340597E-10 -7.853487E-10
        97  11 -7.564086E+05  2.298515E+04  1.548140E+05 -4.330115E+05  8.791986E-10 -3.055787E-10
        97  12 -5.959956E+05  4.467473E+04  1.602608E+05 -4.107900E+05 -8.035629E-10  5.067914E-10
        97  13 -1.523679E+06 -2.917720E+05 -1.783842E+04 -6.759667E+05  6.354650E-11 -1.245384E-10
        97  14 -1.542948E+06 -2.702086E+05 -3.223736E+04 -6.499863E+05 -9.305637E-10  3.584292E-10
        97  15 -1.525716E+06 -3.055496E+05 -6.237978E+04 -6.708414E+05  5.888920E-10  1.081120E-10
        97  16 -2.166982E+06 -5.282509E+05 -1.706297E+05 -8.497171E+05  1.170438E-09  6.850733E-10
        97  17 -2.328874E+06 -5.633579E+05 -2.193337E+05 -8.667105E+05 -4.633225E-10  1.004293E-09
        97  18 -2.454578E+06 -6.557064E+05 -2.850833E+05 -9.305351E+05  1.777228E-10 -1.775759E-10
        97  19 -8.799670E+05 -5.526615E+04  1.349261E+05 -5.020544E+05 -3.480099E+04  2.778931E+04
        97  20 -7.564054E+05  2.298692E+04  1.548210E+05 -4.330128E+05 -5.274022E+04  3.086578E+04
        97  21 -5.959901E+05  4.467715E+04  1.602720E+05 -4.107918E+05 -7.002515E+04  3.215961E+04
        97  22 -1.523678E+06 -2.917708E+05 -1.783534E+04 -6.759674E+05 -2.606599E+04  3.106476E+04
        97  23 -1.542946E+06 -2.702068E+05 -3.223133E+04 -6.499876E+05 -4.562155E+04  3.354036E+04
        97  24 -1.525711E+06 -3.055472E+05 -6.236975E+04 -6.708431E+05 -6.451869E+04  3.423367E+04
        97  25 -2.166982E+06 -5.282495E+05 -1.706270E+05 -8.497176E+05 -1.734081E+04  3.433662E+04
        97  26 -2.328873E+06 -5.633561E+05 -2.193284E+05 -8.667116E+05 -3.851267E+04  3.621124E+04
        97  27 -2.454573E+06 -6.557040E+05 -2.850743E+05 -9.305368E+05 -5.902116E+04  3.630427E+04
        98   1 -4.592839E+05  8.261498E+04  1.704666E+05 -4.246404E+05  9.449501E+04 -3.277689E+04
        98   2 -3.641124E+05  2.047414E+05  1.484361E+05 -2.829867E+05  1.337164E+05 -1.668988E+04
        98   3 -3.178482E+05  5.838596E+04  3.465467E+04 -1.285185E+05  1.583660E+05  3.813759E+04
        98   4 -1.536211E+06 -2.826792E+05 -7.900877E+04 -6.844837E+05  7.766586E+04 -3.910064E+04
        98   5 -1.525872E+06 -2.690522E+05 -1.404543E+05 -6.442166E+05  1.524335E+05 -9.671505E+03
        98   6 -1.571695E+06 -5.312731E+05 -3.220045E+05 -5.911118E+05  2.126043E+05  5.851862E+04
        98   7 -2.611979E+06 -6.479350E+05 -3.285595E+05 -9.439349E+05  6.086856E+04 -4.541483E+04
        98   8 -2.686284E+06 -7.426754E+05 -4.294477E+05 -1.004803E+06  1.711124E+05 -2.670697E+03
        98   9 -2.823978E+06 -1.120563E+06 -6.788005E+05 -1.052772E+06  2.667222E+05  7.882857E+04
        98  10 -4.592938E+05  8.261143E+04  1.704478E+05 -4.246379E+05 -1.754931E-09  4.059068E-10
        98  11 -3.641317E+05  2.047363E+05  1.484019E+05 -2.829849E+05  3.214282E-09  1.128290E-09
        98  12 -3.178756E+05  5.837766E+04  3.460478E+04 -1.285234E+05  3.007795E-09  9.910656E-10
        98  13 -1.536218E+06 -2.826825E+05 -7.902299E+04 -6.844813E+05  2.231963E-10  5.337461E-10
        98  14 -1.525897E+06 -2.690585E+05 -1.404983E+05 -6.442154E+05  2.848588E-09  1.262556E-09
        98  15 -1.571745E+06 -5.312889E+05 -3.220961E+05 -5.911219E+05  1.803874E-09  1.611087E-10
        98  16 -2.611984E+06 -6.479382E+05 -3.285704E+05 -9.439327E+05  3.072768E-09  5.523903E-10
        98  17 -2.686316E+06 -7.426833E+05 -4.295030E+05 -1.004802E+06  3.861827E-09  9.012954E-10
        98  18 -2.824056E+06 -1.120589E+06 -6.789466E+05 -1.052789E+06  5.842992E-10  8.223959E-11
        98  19 -4.592839E+05  8.261498E+04  1.704666E+05 -4.246404E+05 -9.449501E+04  3.277689E+04
        98  20 -3.641124E+05  2.047414E+05  1.484361E+05 -2.829867E+05 -1.337164E+05  1.668988E+04
        98  21 -3.178482E+05  5.838596E+04  3.465467E+04 -1.285185E+05 -1.583660E+05 -3.813759E+04
        98  22 -1.536211E+06 -2.826792E+05 -7.900877E+04 -6.844837E+05 -7.766586E+04  3.910064E+04
        98  23 -1.525872E+06 -2.690522E+05 -1.404543E+05 -6.442166E+05 -1.524335E+05  9.671505E+03
        98  24 -1.571695E+06 -5.312731E+05 -3.220045E+05 -5.911118E+05 -2.126043E+05 -5.851862E+04
        98  25 -2.611979E+06 -6.479350E+05 -3.285595E+05 -9.439349E+05 -6.086856E+04  4.541483E+04
        98  26 -2.686284E+06 -7.426754E+05 -4.294477E+05 -1.004803E+06 -1.711124E+05  2.670697E+03
        98  27 -2.823978E+06 -1.120563E+06 -6.788005E+05 -1.052772E+06 -2.667222E+05 -7.882857E+04
        99   1 -1.164775E+06 -1.922958E+05 -1.634890E+05 -1.550978E+04  3.756642E+04  1.623671E+04
        99   2 -1.075898E+06 -2.669905E+05 -1.842285E+05 -3.056613E+04  3.780504E+04  5.138610E+04
        99   3 -9.634297E+05 -2.491696E+05 -1.819177E+05 -8.283978E+04  3.808879E+04  5.486565E+04
        99   4  4.030601E+04  1.069107E+05  1.275769E+05 -6.748874E+04  8.778076E+04  1.629881E+04
        99   5  2.586509E+04  1.998211E+03  5.847849E+04 -4.882314E+04  5.685715E+04  5.139764E+04
        99   6  4.037133E+04 -5.078645E+03  3.404071E+04 -6.736853E+04  2.598080E+04  5.485194E+04
        99   7  1.246728E+06  4.060227E+05  4.185496E+05 -1.195695E+05  1.380923E+05  1.635244E+04
        99   8  1.128765E+06  2.709069E+05  3.011127E+05 -6.711323E+04  7.594264E+04  5.140805E+04
        99   9  1.045121E+06  2.389470E+05  2.499407E+05 -5.187200E+04  1.385347E+04  5.483765E+04
        99  10 -1.164777E+06 -1.922965E+05 -1.634921E+05 -1.551027E+04  9.276514E-10 -1.812275E-10
        99  11 -1.075900E+06 -2.669937E+05 -1.842362E+05 -3.056770E+04  2.478530E-10 -1.274620E-09
        99  12 -9.634320E+05 -2.491732E+05 -1.819261E+05 -8.284146E+04 -1.927619E-09 -3.625363E-10
        99  13  4.029767E+04  1.069083E+05  1.275619E+05 -6.748989E+04  1.059540E-09 -6.016336E-10
        99  14  2.586091E+04  1.994507E+03  5.846745E+04 -4.882550E+04 -5.378596E-10 -7.264145E-10
        99  15  4.036980E+04 -5.082058E+03  3.403378E+04 -6.736968E+04 -3.640126E-09 -1.932253E-10
        99  16  1.246708E+06  4.060173E+05  4.185133E+05 -1.195713E+05 -2.024729E-09  3.981891E-10
        99  17  1.128758E+06  2.709025E+05  3.010969E+05 -6.711638E+04 -8.073368E-10 -4.373066E-10
        99  18  1.045120E+06  2.389437E+05  2.499347E+05 -5.187261E+04  7.488780E-10  1.346089E-10
        99  19 -1.164775E+06 -1.922958E+05 -1.634890E+05 -1.550978E+04 -3.756642E+04 -1.623671E+04
        99  20 -1.075898E+06 -2.669905E+05 -1.842285E+05 -3.056613E+04 -3.780504E+04 -5.138610E+04
        99  21 -9.634297E+05 -2.491696E+05 -1.819177E+05 -8.283978E+04 -3.808879E+04 -5.486565E+04
        99  22  4.030601E+04  1.069107E+05  1.275769E+05 -6.748874E+04 -8.778076E+04 -1.629881E+04
        99  23  2.586509E+04  1.998211E+03  5.847849E+04 -4.882314E+04 -5.685715E+04 -5.139764E+04
        99  24  4.037133E+04 -5.078645E+03  3.404071E+04 -6.736853E+04 -2.598080E+04 -5.485194E+04
        99  25  1.246728E+06  4.060227E+05  4.185496E+05 -1.195695E+05 -1.380923E+05 -1.635244E+04
        99  26  1.128765E+06  2.709069E+05  3.011127E+05 -6.711323E+04 -7.594264E+04 -5.140805E+04
        99  27  1.045121E+06  2.389470E+05  2.499407E+05 -5.187200E+04 -1.385347E+04 -5.483765E+04
       100   1 -8.898907E+05 -2.198872E+05 -1.729068E+05 -6.625788E+04  2.448254E+04  4.901308E+04
       100   2 -7.907242E+05 -2.005880E+05 -1.626814E+05 -4.821359E+04  1.859349E+04  4.494109E+04
       100   3 -6.893114E+05 -1.763830E+05 -1.473343E+05 -6.873375E+04  1.269881E+04  3.941751E+04
       100   4  3.452295E+04  5.055912E+03  2.692180E+04 -6.769888E+04  2.121770E+04  4.900599E+04
       100   5  3.330728E+04 -2.427581E+02  1.463209E+04 -4.841765E+04  1.389175E+04  4.493547E+04
       100   6  3.457253E+04 -3.901705E+02  8.455826E+03 -6.769751E+04  6.561101E+03  3.941425E+04
       100   7  9.597397E+05  2.299426E+05  2.266998E+05 -6.914212E+04  1.794804E+04  4.899893E+04
       100   8  8.579775E+05  2.000579E+05  1.919058E+05 -4.862200E+04  9.183853E+03  4.492985E+04
       100   9  7.589494E+05  1.755683E+05  1.642154E+05 -6.666002E+04  4.163293E+02  3.941098E+04
       100  10 -8.898920E+05 -2.198899E+05 -1.729124E+05 -6.625885E+04 -1.114640E-09 -1.254264E-10
       100  11 -7.907251E+05 -2.005903E+05 -1.626858E+05 -4.821426E+04  3.284390E-09  2.135391E-11
       100  12 -6.893120E+05 -1.763847E+05 -1.473375E+05 -6.873415E+04  8.275899E-10  6.110195E-10
       100  13  3.452182E+04  5.053212E+03  2.691644E+04 -6.769972E+04 -2.154262E-09 -2.784433E-10
       100  14  3.330654E+04 -2.449782E+02  1.462793E+04 -4.841815E+04 -1.063879E-09 -2.735713E-12
       100  15  3.457207E+04 -3.918503E+02  8.452825E+03 -6.769772E+04 -1.503346E-13 -6.024931E-11
       100  16  9.597387E+05  2.299399E+05  2.266947E+05 -6.914283E+04 -1.075756E-09  3.871073E-10
       100  17  8.579768E+05  2.000557E+05  1.919019E+05 -4.862233E+04 -1.964304E-09 -4.898308E-10
       100  18  7.589490E+05  1.755666E+05  1.642124E+05 -6.666003E+04 -7.861300E-10 -9.733401E-10
       100  19 -8.898907E+05 -2.198872E+05 -1.729068E+05 -6.625788E+04 -2.448254E+04 -4.901308E+04
       100  20 -7.907242E+05 -2.005880E+05 -1.626814E+05 -4.821359E+04 -1.859349E+04 -4.494109E+04
       100  21 -6.893114E+05 -1.763830E+05 -1.473343E+05 -6.873375E+04 -1.269881E+04 -3.941751E+04
       100  22  3.452295E+04  5.055912E+03  2.692180E+04 -6.769888E+04 -2.121770E+04 -4.900599E+04
       100  23  3.330728E+04 -2.427581E+02  1.463209E+04 -4.841765E+04 -1.389175E+04 -4.493547E+04
       100  24  3.457253E+04 -3.901705E+02  8.455826E+03 -6.769751E+04 -6.561101E+03 -3.941425E+04
       100  25  9.597397E+05  2.299426E+05  2.266998E+05 -6.914212E+04 -1.794804E+04 -4.899893E+04
       100  26  8.579775E+05  2.000579E+05  1.919058E+05 -4.862200E+04 -9.183853E+03 -4.492985E+04
       100  27  7.589494E+05  1.755683E+05  1.642154E+05 -6.666002E+04 -4.163293E+02 -3.941098E+04
       101   1 -6.111208E+05 -1.566508E+05 -1.319382E+05 -6.780459E+04  1.097807E+04  3.584289E+04
       101   2 -5.110471E+05 -1.325385E+05 -1.134020E+05 -4.843114E+04  9.222423E+03  2.997671E+04
       101   3 -4.105900E+05 -1.081328E+05 -9.363186E+04 -6.766734E+04  7.462636E+03  2.404450E+04
       101   4  3.413046E+04  1.262294E+02  6.467745E+03 -6.770823E+04  5.245870E+03  3.584095E+04
       101   5  3.395447E+04 -8.953340E+01  3.682053E+03 -4.840449E+04  3.423143E+03  2.997650E+04
       101   6  3.416330E+04  8.792934E-03  2.176028E+03 -6.770834E+04  1.596555E+03  2.404607E+04
       101   7  6.797737E+05  1.568760E+05  1.448496E+05 -6.761174E+04 -4.922119E+02  3.583901E+04
       101   8  5.792355E+05  1.323399E+05  1.207489E+05 -4.837778E+04 -2.381161E+03  2.997628E+04
       101   9  4.791026E+05  1.081198E+05  9.797242E+04 -6.774935E+04 -4.273673E+03  2.404764E+04
       101  10 -6.111213E+05 -1.566522E+05 -1.319409E+05 -6.780491E+04  1.727973E-09  7.529492E-10
       101  11 -5.110474E+05 -1.325395E+05 -1.134039E+05 -4.843136E+04  1.960703E-09  1.710557E-10
       101  12 -4.105902E+05 -1.081334E+05 -9.363306E+04 -6.766748E+04  3.120376E-10  1.886319E-10
       101  13  3.413008E+04  1.248425E+02  6.465279E+03 -6.770838E+04 -2.349440E-13  1.473234E-10
       101  14  3.395421E+04 -9.050150E+01  3.680342E+03 -4.840457E+04 -1.085947E-09  6.009091E-10
       101  15  3.416314E+04 -6.128070E-01  2.174937E+03 -6.770837E+04  6.685304E-10  4.373097E-10
       101  16  6.797733E+05  1.568746E+05  1.448471E+05 -6.761173E+04 -6.654897E-10 -4.941065E-10
       101  17  5.792352E+05  1.323390E+05  1.207472E+05 -4.837772E+04 -8.784904E-10  3.842941E-10
       101  18  4.791024E+05  1.081192E+05  9.797130E+04 -6.774926E+04  7.840726E-10 -3.764262E-10
       101  19 -6.111208E+05 -1.566508E+05 -1.319382E+05 -6.780459E+04 -1.097807E+04 -3.584289E+04
       101  20 -5.110471E+05 -1.325385E+05 -1.134020E+05 -4.843114E+04 -9.222423E+03 -2.997671E+04
       101  21 -4.105900E+05 -1.081328E+05 -9.363186E+04 -6.766734E+04 -7.462636E+03 -2.404450E+04
       101  22  3.413046E+04  1.262294E+02  6.467745E+03 -6.770823E+04 -5.245870E+03 -3.584095E+04
       101  23  3.395447E+04 -8.953340E+01  3.682053E+03 -4.840449E+04 -3.423143E+03 -2.997650E+04
       101  24  3.416330E+04  8.792931E-03  2.176028E+03 -6.770834E+04 -1.596555E+03 -2.404607E+04
       101  25  6.797737E+05  1.568760E+05  1.448496E+05 -6.761174E+04  4.922119E+02 -3.583901E+04
       101  26  5.792355E+05  1.323399E+05  1.207489E+05 -4.837778E+04  2.381161E+03 -2.997628E+04
       101  27  4.791026E+05  1.081198E+05  9.797242E+04 -6.774935E+04  4.273673E+03 -2.404764E+04
       102   1 -3.320525E+05 -8.889165E+04 -7.668214E+04 -6.762972E+04  7.093256E+03  2.057579E+04
       102   2 -2.318199E+05 -6.458519E+04 -5.603037E+04 -4.832690E+04  6.561100E+03  1.462923E+04
       102   3 -1.315239E+05 -4.022199E+04 -3.502569E+04 -6.762603E+04  6.026978E+03  8.679926E+03
       102   4  3.410423E+04  2.752262E+01  1.689721E+03 -6.770685E+04  1.245562E+03  2.057815E+04
       102   5  3.408434E+04  2.413642E+01  1.079226E+03 -4.840637E+04  7.100333E+02  1.463243E+04
       102   6  3.412025E+04  7.898940E+01  8.244637E+02 -6.770684E+04  1.726222E+02  8.683993E+03
       102   7  4.003872E+05  8.893795E+04  8.005393E+04 -6.778400E+04 -4.605534E+03  2.058051E+04
       102   8  3.000551E+05  6.462884E+04  5.818482E+04 -4.848586E+04 -5.143505E+03  1.463562E+04
       102   9  1.997902E+05  4.037818E+04  3.667312E+04 -6.778767E+04 -5.683274E+03  8.688062E+03
       102  10 -3.320527E+05 -8.889212E+04 -7.668303E+04 -6.762983E+04 -1.008115E-09  3.586191E-10
       102  11 -2.318200E+05 -6.458543E+04 -5.603086E+04 -4.832698E+04  1.646049E-09 -1.598867E-11
       102  12 -1.315239E+05 -4.022208E+04 -3.502590E+04 -6.762607E+04 -3.503199E-10  1.209441E-10
       102  13  3.410412E+04  2.706747E+01  1.688922E+03 -6.770687E+04  1.082449E-09 -4.194348E-10
       102  14  3.408428E+04  2.390636E+01  1.078823E+03 -4.840638E+04  2.686395E-09  2.223067E-10
       102  15  3.412023E+04  7.890841E+01  8.243219E+02 -6.770684E+04  1.474989E-10 -3.049124E-10
       102  16  4.003871E+05  8.893749E+04  8.005309E+04 -6.778392E+04  2.646274E-09 -3.834276E-10
       102  17  3.000550E+05  6.462861E+04  5.818437E+04 -4.848580E+04  2.651683E-09  1.774241E-10
       102  18  1.997901E+05  4.037809E+04  3.667291E+04 -6.778763E+04  9.533780E-10 -8.387791E-10
       102  19 -3.320525E+05 -8.889165E+04 -7.668214E+04 -6.762972E+04 -7.093256E+03 -2.057579E+04
       102  20 -2.318199E+05 -6.458519E+04 -5.603037E+04 -4.832690E+04 -6.561100E+03 -1.462923E+04
       102  21 -1.315239E+05 -4.022199E+04 -3.502569E+04 -6.762603E+04 -6.026978E+03 -8.679926E+03
       102  22  3.410423E+04  2.752262E+01  1.689721E+03 -6.770685E+04 -1.245562E+03 -2.057815E+04
       102  23  3.408434E+04  2.413642E+01  1.079226E+03 -4.840637E+04 -7.100333E+02 -1.463243E+04
       102  24  3.412025E+04  7.898940E+01  8.244637E+02 -6.770684E+04 -1.726222E+02 -8.683993E+03
       102  25  4.003872E+05  8.893795E+04  8.005393E+04 -6.778400E+04  4.605534E+03 -2.058051E+04
       102  26  3.000551E+05  6.462884E+04  5.818482E+04 -4.848586E+04  5.143505E+03 -1.463562E+04
       102  27  1.997902E+05  4.037818E+04  3.667312E+04 -6.778767E+04  5.683274E+03 -8.688062E+03
       103   1 -5.292056E+04 -2.100942E+04 -1.762260E+04 -6.766463E+04  5.877432E+03  5.216736E+03
       103   2  4.734256E+04  3.266312E+03  3.756305E+03 -4.839131E+04  5.420057E+03 -7.315457E+02
       103   3  1.476314E+05  2.760080E+04  2.543241E+04 -6.771865E+04  4.962700E+03 -6.677520E+03
       103   4  3.411542E+04  8.095637E+01  7.918671E+02 -6.770679E+04  2.298664E+01  5.221054E+03
       103   5  3.410783E+04  5.104178E+01  9.138581E+02 -4.840643E+04 -4.325957E+02 -7.272902E+02
       103   6  3.411461E+04  7.976313E+01  1.331666E+03 -6.770678E+04 -8.880896E+02 -6.673290E+03
       103   7  1.211586E+05  2.117087E+04  1.920603E+04 -6.774895E+04 -5.832267E+03  5.225372E+03
       103   8  2.087335E+04 -3.164222E+03 -1.928470E+03 -4.842155E+04 -6.285126E+03 -7.230343E+02
       103   9 -7.938996E+04 -2.744209E+04 -2.276968E+04 -6.769491E+04 -6.737826E+03 -6.669060E+03
       103  10 -5.292061E+04 -2.100946E+04 -1.762271E+04 -6.766466E+04  2.456730E-10  4.234408E-10
       103  11  4.734253E+04  3.266304E+03  3.756249E+03 -4.839131E+04 -5.337565E-10  2.679283E-10
       103  12  1.476314E+05  2.760075E+04  2.543228E+04 -6.771863E+04 -7.031200E-10 -5.523377E-10
       103  13  3.411541E+04  8.092710E+01  7.918159E+02 -6.770679E+04  1.076785E-09 -3.502086E-10
       103  14  3.410783E+04  5.104116E+01  9.138567E+02 -4.840643E+04  1.085826E-09 -8.960946E-10
       103  15  3.411460E+04  7.971509E+01  1.331580E+03 -6.770678E+04 -8.020292E-10  4.152465E-10
       103  16  1.211586E+05  2.117083E+04  1.920591E+04 -6.774893E+04  1.408274E-09 -7.217612E-10
       103  17  2.087330E+04 -3.164233E+03 -1.928545E+03 -4.842155E+04  8.108863E-10 -5.925568E-10
       103  18 -7.939002E+04 -2.744215E+04 -2.276985E+04 -6.769494E+04  8.037780E-10  7.548499E-10
       103  19 -5.292056E+04 -2.100942E+04 -1.762260E+04 -6.766463E+04 -5.877432E+03 -5.216736E+03
       103  20  4.734256E+04  3.266312E+03  3.756305E+03 -4.839131E+04 -5.420057E+03  7.315457E+02
       103  21  1.476314E+05  2.760080E+04  2.543241E+04 -6.771865E+04 -4.962700E+03  6.677520E+03
       103  22  3.411542E+04  8.095637E+01  7.918671E+02 -6.770679E+04 -2.298664E+01 -5.221054E+03
       103  23  3.410783E+04  5.104178E+01  9.138581E+02 -4.840643E+04  4.325957E+02  7.272902E+02
       103  24  3.411461E+04  7.976313E+01  1.331666E+03 -6.770678E+04  8.880896E+02  6.673290E+03
       103  25  1.211586E+05  2.117087E+04  1.920603E+04 -6.774895E+04  5.832267E+03 -5.225372E+03
       103  26  2.087335E+04 -3.164222E+03 -1.928470E+03 -4.842155E+04  6.285126E+03  7.230343E+02
       103  27 -7.938996E+04 -2.744209E+04 -2.276968E+04 -6.769491E+04  6.737826E+03  6.669060E+03
       104   1  2.263007E+05  4.679099E+04  4.321550E+04 -6.772359E+04  4.702718E+03 -1.014367E+04
       104   2  3.264825E+05  7.103226E+04  6.560355E+04 -4.843225E+04  3.256949E+03 -1.607589E+04
       104   3  4.269042E+05  9.553117E+04  8.898951E+04 -6.774124E+04  1.813044E+03 -2.195528E+04
       104   4  3.415536E+04  6.135531E+01  1.682740E+03 -6.770697E+04 -1.163296E+03 -1.013974E+04
       104   5  3.403578E+04 -4.183473E+00  2.805032E+03 -4.840619E+04 -2.556898E+03 -1.607294E+04
       104   6  3.413774E+04  1.795825E+02  4.889705E+03 -6.770684E+04 -3.948409E+03 -2.195327E+04
       104   7 -1.579553E+05 -4.667070E+04 -3.985208E+04 -6.769036E+04 -7.027519E+03 -1.013580E+04
       104   8 -2.583305E+05 -7.104622E+04 -5.999836E+04 -4.838013E+04 -8.368046E+03 -1.606999E+04
       104   9 -3.584836E+05 -9.518208E+04 -7.921894E+04 -6.767244E+04 -9.706271E+03 -2.195126E+04
       104  10  2.263007E+05  4.679087E+04  4.321527E+04 -6.772355E+04 -9.211348E-12 -4.434709E-10
       104  11  3.264824E+05  7.103198E+04  6.560305E+04 -4.843221E+04  6.729690E-11 -1.400575E-10
       104  12  4.269041E+05  9.553065E+04  8.898860E+04 -6.774121E+04 -1.085293E-09  5.524973E-10
       104  13  3.415533E+04  6.124453E+01  1.682545E+03 -6.770698E+04  1.069736E-09  4.347495E-10
       104  14  3.403570E+04 -4.462648E+00  2.804534E+03 -4.840622E+04 -1.071414E-09 -6.130065E-10
       104  15  3.413759E+04  1.790608E+02  4.888770E+03 -6.770691E+04  1.364404E-09  1.917958E-10
       104  16 -1.579554E+05 -4.667082E+04 -3.985237E+04 -6.769041E+04 -9.296562E-10  6.449370E-10
       104  17 -2.583307E+05 -7.104651E+04 -5.999898E+04 -4.838023E+04  8.650298E-10  1.102620E-10
       104  18 -3.584838E+05 -9.518262E+04 -7.922003E+04 -6.767261E+04  8.546712E-10  4.301103E-10
       104  19  2.263007E+05  4.679099E+04  4.321550E+04 -6.772359E+04 -4.702718E+03  1.014367E+04
       104  20  3.264825E+05  7.103226E+04  6.560355E+04 -4.843225E+04 -3.256949E+03  1.607589E+04
       104  21  4.269042E+05  9.553117E+04  8.898951E+04 -6.774124E+04 -1.813044E+03  2.195528E+04
       104  22  3.415536E+04  6.135531E+01  1.682740E+03 -6.770697E+04  1.163296E+03  1.013974E+04
       104  23  3.403578E+04 -4.183473E+00  2.805032E+03 -4.840619E+04  2.556898E+03  1.607294E+04
       104  24  3.413774E+04  1.795825E+02  4.889705E+03 -6.770684E+04  3.948409E+03  2.195327E+04
       104  25 -1.579553E+05 -4.667070E+04 -3.985208E+04 -6.769036E+04  7.027519E+03  1.013580E+04
       104  26 -2.583305E+05 -7.104622E+04 -5.999836E+04 -4.838013E+04  8.368046E+03  1.606999E+04
       104  27 -3.584836E+05 -9.518208E+04 -7.921894E+04 -6.767244E+04  9.706271E+03  2.195126E+04
       105   1  5.059250E+05  1.143493E+05  1.078704E+05 -6.706908E+04  1.141641E+03 -2.550429E+04
       105   2  6.052804E+05  1.387861E+05  1.339853E+05 -4.880134E+04 -5.534932E+03 -3.110638E+04
       105   3  7.066195E+05  1.673203E+05  1.654848E+05 -6.909180E+04 -1.220866E+04 -3.555240E+04
       105   4  3.446907E+04 -2.081180E+02  6.383437E+03 -6.769797E+04 -4.944008E+03 -2.550298E+04
       105   5  3.356193E+04 -1.033058E+02  1.103978E+04 -4.841731E+04 -1.047772E+04 -3.110724E+04
       105   6  3.443464E+04  3.904091E+03  2.029159E+04 -6.769689E+04 -1.600754E+04 -3.555491E+04
       105   7 -4.367781E+05 -1.147801E+05 -9.511646E+04 -6.832634E+04 -1.102510E+04 -2.550166E+04
       105   8 -5.378495E+05 -1.390141E+05 -1.119248E+05 -4.803362E+04 -1.541601E+04 -3.110810E+04
       105   9 -6.373263E+05 -1.595419E+05 -1.249283E+05 -6.630348E+04 -1.980237E+04 -3.555745E+04
       105  10  5.059249E+05  1.143486E+05  1.078692E+05 -6.706905E+04  7.828975E-10  8.716326E-10
       105  11  6.052801E+05  1.387850E+05  1.339835E+05 -4.880147E+04  1.427615E-09 -2.358262E-10
       105  12  7.066190E+05  1.673189E+05  1.654821E+05 -6.909215E+04  5.097195E-10 -7.735604E-10
       105  13  3.446887E+04 -2.088230E+02  6.382169E+03 -6.769807E+04  1.075582E-09  8.798396E-10
       105  14  3.356155E+04 -1.043744E+02  1.103776E+04 -4.841757E+04 -1.224861E-11  2.969258E-10
       105  15  3.443403E+04  3.902665E+03  2.028873E+04 -6.769735E+04  1.749411E-09 -7.154321E-10
       105  16 -4.367784E+05 -1.147809E+05 -9.511791E+04 -6.832657E+04  5.013475E-10  8.499279E-10
       105  17 -5.378500E+05 -1.390152E+05 -1.119271E+05 -4.803400E+04  5.904535E-10  8.029805E-11
       105  18 -6.373270E+05 -1.595434E+05 -1.249314E+05 -6.630405E+04  6.922961E-10 -6.331038E-10
       105  19  5.059250E+05  1.143493E+05  1.078704E+05 -6.706908E+04 -1.141641E+03  2.550429E+04
       105  20  6.052804E+05  1.387861E+05  1.339853E+05 -4.880134E+04  5.534932E+03  3.110638E+04
       105  21  7.066195E+05  1.673203E+05  1.654848E+05 -6.909180E+04  1.220866E+04  3.555240E+04
       105  22  3.446907E+04 -2.081180E+02  6.383437E+03 -6.769797E+04  4.944008E+03  2.550298E+04
       105  23  3.356193E+04 -1.033058E+02  1.103978E+04 -4.841731E+04  1.047772E+04  3.110724E+04
       105  24  3.443464E+04  3.904091E+03  2.029159E+04 -6.769689E+04  1.600754E+04  3.555491E+04
       105  25 -4.367781E+05 -1.147801E+05 -9.511646E+04 -6.832634E+04  1.102510E+04  2.550166E+04
       105  26 -5.378495E+05 -1.390141E+05 -1.119248E+05 -4.803362E+04  1.541601E+04  3.110810E+04
       105  27 -6.373263E+05 -1.595419E+05 -1.249283E+05 -6.630348E+04  1.980237E+04  3.555745E+04
       106   1  7.903722E+05  1.788194E+05  1.872351E+05 -5.612860E+04 -8.744835E+03 -4.090898E+04
       106   2  8.780086E+05  2.089342E+05  2.312691E+05 -6.295045E+04 -5.687164E+04 -3.934987E+04
       106   3  9.916512E+05  3.170288E+05  3.261568E+05 -1.072141E+05 -1.050250E+05 -1.258842E+04
       106   4  3.884056E+04 -3.730585E+03  2.565493E+04 -6.744072E+04 -1.960021E+04 -4.091285E+04
       106   5  2.795708E+04  1.588024E+03  4.407515E+04 -4.873639E+04 -4.287224E+04 -3.935079E+04
       106   6  3.878965E+04  8.062952E+04  9.613165E+04 -6.747130E+04 -6.616113E+04 -1.257483E+04
       106   7 -7.121602E+05 -1.863171E+05 -1.359578E+05 -7.873895E+04 -3.044264E+04 -4.091633E+04
       106   8 -8.214187E+05 -2.058058E+05 -1.431623E+05 -3.454202E+04 -2.889173E+04 -3.935107E+04
       106   9 -9.132359E+05 -1.558293E+05 -1.339520E+05 -2.778969E+04 -2.735657E+04 -1.255627E+04
       106  10  7.903717E+05  1.788176E+05  1.872318E+05 -5.612889E+04 -1.008546E-09 -4.988510E-10
       106  11  8.780047E+05  2.089317E+05  2.312601E+05 -6.295225E+04  3.899750E-10  1.478777E-10
       106  12  9.916393E+05  3.170257E+05  3.261358E+05 -1.072152E+05 -5.730843E-10  1.705816E-11
       106  13  3.883970E+04 -3.732486E+03  2.565106E+04 -6.744137E+04  3.626594E-11 -4.230498E-10
       106  14  2.795469E+04  1.585867E+03  4.406878E+04 -4.873774E+04  1.092254E-09  7.956674E-10
       106  15  3.878491E+04  8.062817E+04  9.612313E+04 -6.747197E+04 -1.491136E-09  8.538943E-11
       106  16 -7.121616E+05 -1.863192E+05 -1.359627E+05 -7.873995E+04  2.007404E-09 -4.632004E-10
       106  17 -8.214200E+05 -2.058077E+05 -1.431667E+05 -3.454294E+04 -5.775945E-10  3.203135E-10
       106  18 -9.132367E+05 -1.558297E+05 -1.339537E+05 -2.778997E+04 -1.778868E-09 -5.600910E-11
       106  19  7.903722E+05  1.788194E+05  1.872351E+05 -5.612860E+04  8.744835E+03  4.090898E+04
       106  20  8.780086E+05  2.089342E+05  2.312691E+05 -6.295045E+04  5.687164E+04  3.934987E+04
       106  21  9.916512E+05  3.170288E+05  3.261568E+05 -1.072141E+05  1.050250E+05  1.258842E+04
       106  22  3.884056E+04 -3.730585E+03  2.565493E+04 -6.744072E+04  1.960021E+04  4.091285E+04
       106  23  2.795708E+04  1.588024E+03  4.407515E+04 -4.873639E+04  4.287224E+04  3.935079E+04
       106  24  3.878965E+04  8.062952E+04  9.613165E+04 -6.747130E+04  6.616113E+04  1.257483E+04
       106  25 -7.121602E+05 -1.863171E+05 -1.359578E+05 -7.873895E+04  3.044264E+04  4.091633E+04
       106  26 -8.214187E+05 -2.058058E+05 -1.431623E+05 -3.454202E+04  2.889173E+04  3.935107E+04
       106  27 -9.132359E+05 -1.558293E+05 -1.339520E+05 -2.778969E+04  2.735657E+04  1.255627E+04
       107   1  6.018867E+05  2.033742E+06  6.029426E+05 -5.210316E+05  2.058825E+04  1.964023E+05
       107   2  3.536823E+05  1.511597E+06  3.607388E+05 -4.088178E+05  6.103192E+04  8.691047E+04
       107   3  2.112530E+05  1.029974E+06  2.160453E+05 -4.284073E+05  5.154566E+04 -2.257487E+04
       107   4  1.356759E+05  1.526513E+05  1.526340E+05 -4.386674E+05  2.083840E+04  1.037981E+05
       107   5  2.190639E+04  1.388215E+05  7.433349E+04 -3.729391E+05  6.110379E+04  6.528974E+04
       107   6  1.761393E+03  1.530976E+05  4.445621E+04 -4.389936E+05  5.140525E+04  2.669553E+04
       107   7 -3.307622E+05 -1.725172E+06 -2.978892E+05 -3.565502E+05  2.106452E+04  1.147227E+04
       107   8 -3.099851E+05 -1.232170E+06 -2.121736E+05 -3.371393E+05  6.117328E+04  4.371582E+04
       107   9 -2.077747E+05 -7.230370E+05 -1.271606E+05 -4.495638E+05  5.126304E+04  7.589792E+04
       107  10  6.018759E+05  2.033701E+06  6.028695E+05 -5.210349E+05 -4.185116E-11  3.316755E-10
       107  11  3.536763E+05  1.511588E+06  3.607177E+05 -4.088220E+05  4.664143E-10 -1.720236E-09
       107  12  2.112501E+05  1.029973E+06  2.160394E+05 -4.284063E+05  5.095485E-10 -1.505297E-09
       107  13  1.356726E+05  1.526397E+05  1.526129E+05 -4.386691E+05 -2.059999E-10 -8.810127E-10
       107  14  2.190124E+04  1.388159E+05  7.431845E+04 -3.729423E+05  2.344127E-09 -2.181153E-11
       107  15  1.758363E+03  1.530961E+05  4.444990E+04 -4.389947E+05  9.630848E-10 -3.315034E-10
       107  16 -3.307627E+05 -1.725173E+06 -2.978903E+05 -3.565504E+05  2.252656E-10 -8.097926E-10
       107  17 -3.099896E+05 -1.232174E+06 -2.121842E+05 -3.371415E+05  1.178328E-09  5.850370E-10
       107  18 -2.077791E+05 -7.230439E+05 -1.271764E+05 -4.495670E+05 -7.079180E-10  1.613571E-09
       107  19  6.018867E+05  2.033742E+06  6.029426E+05 -5.210316E+05 -2.058825E+04 -1.964023E+05
       107  20  3.536823E+05  1.511597E+06  3.607388E+05 -4.088178E+05 -6.103192E+04 -8.691047E+04
       107  21  2.112530E+05  1.029974E+06  2.160453E+05 -4.284073E+05 -5.154566E+04  2.257487E+04
       107  22  1.356759E+05  1.526513E+05  1.526340E+05 -4.386674E+05 -2.083840E+04 -1.037981E+05
       107  23  2.190639E+04  1.388215E+05  7.433349E+04 -3.729391E+05 -6.110379E+04 -6.528974E+04
       107  24  1.761393E+03  1.530976E+05  4.445621E+04 -4.389936E+05 -5.140525E+04 -2.669553E+04
       107  25 -3.307622E+05 -1.725172E+06 -2.978892E+05 -3.565502E+05 -2.106452E+04 -1.147227E+04
       107  26 -3.099851E+05 -1.232170E+06 -2.121736E+05 -3.371393E+05 -6.117328E+04 -4.371582E+04
       107  27 -2.077747E+05 -7.230370E+05 -1.271606E+05 -4.495638E+05 -5.126304E+04 -7.589792E+04
       108   1  1.349172E+05  6.809945E+05  1.413894E+05 -4.429818E+05  3.095798E+04 -2.023296E+04
       108   2  1.026334E+04  1.782077E+05  3.288597E+04 -3.724562E+05  2.232056E+03 -3.384790E+04
       108   3 -1.072969E+05 -3.215375E+05 -6.520337E+04 -4.365380E+05 -2.660417E+04 -4.745342E+04
       108   4  7.300932E+03  1.475633E+05  3.657819E+04 -4.395672E+05  3.083524E+04  2.043977E+04
       108   5  2.649577E+03  1.461804E+05  2.684219E+04 -3.722679E+05  2.108706E+03  6.973388E+03
       108   6  5.080757E+03  1.475739E+05  2.742534E+04 -4.395740E+05 -2.672867E+04 -6.494012E+03
       108   7 -1.203316E+05 -3.855920E+05 -6.824064E+04 -4.361553E+05  3.071288E+04  6.107833E+04
       108   8 -4.963348E+03  1.141577E+05  2.080461E+04 -3.720797E+05  1.985378E+03  4.779262E+04
       108   9  1.174459E+05  6.168995E+05  1.200496E+05 -4.426123E+05 -2.685351E+04  3.449570E+04
       108  10  1.349161E+05  6.809938E+05  1.413869E+05 -4.429813E+05  1.608593E-09 -2.315882E-08
       108  11  1.026303E+04  1.782065E+05  3.288381E+04 -3.724561E+05  1.027217E-09 -1.402404E-09
       108  12 -1.072982E+05 -3.215401E+05 -6.520894E+04 -4.365390E+05  9.515417E-10  2.377089E-08
       108  13  7.299798E+03  1.475626E+05  3.657562E+04 -4.395677E+05  2.008406E-09 -1.308563E-09
       108  14  2.649560E+03  1.461804E+05  2.684209E+04 -3.722679E+05  2.058665E-09 -3.637897E-11
       108  15  5.079978E+03  1.475736E+05  2.742392E+04 -4.395742E+05  2.314002E-09 -2.784974E-10
       108  16 -1.203337E+05 -3.855963E+05 -6.824943E+04 -4.361568E+05  4.822480E-10  2.245951E-08
       108  17 -4.963966E+03  1.141552E+05  2.080032E+04 -3.720797E+05  2.189871E-09  1.276446E-10
       108  18  1.174448E+05  6.168980E+05  1.200460E+05 -4.426115E+05  1.017929E-09 -2.381437E-08
       108  19  1.349172E+05  6.809945E+05  1.413894E+05 -4.429818E+05 -3.095798E+04  2.023296E+04
       108  20  1.026334E+04  1.782077E+05  3.288597E+04 -3.724562E+05 -2.232056E+03  3.384790E+04
       108  21 -1.072969E+05 -3.215375E+05 -6.520337E+04 -4.365380E+05  2.660417E+04  4.745342E+04
       108  22  7.300932E+03  1.475633E+05  3.657819E+04 -4.395672E+05 -3.083524E+04 -2.043977E+04
       108  23  2.649577E+03  1.461804E+05  2.684219E+04 -3.722679E+05 -2.108706E+03 -6.973388E+03
       108  24  5.080757E+03  1.475739E+05  2.742534E+04 -4.395740E+05  2.672867E+04  6.494012E+03
       108  25 -1.203316E+05 -3.855920E+05 -6.824064E+04 -4.361553E+05 -3.071288E+04 -6.107833E+04
       108  26 -4.963348E+03  1.141577E+05  2.080461E+04 -3.720797E+05 -1.985378E+03 -4.779262E+04
       108  27  1.174459E+05  6.168995E+05  1.200496E+05 -4.426123E+05  2.685351E+04 -3.449570E+04
       109   1 -1.922925E+05 -6.615293E+05 -1.290976E+05 -4.442028E+05 -4.716757E+04 -6.032563E+04
       109   2 -3.031741E+05 -1.165053E+06 -2.285251E+05 -3.510341E+05 -5.789566E+04 -1.514741E+04
       109   3 -3.713127E+05 -1.663875E+06 -3.468152E+05 -3.898205E+05 -2.017623E+04  3.007958E+04
       109   4  2.005987E+03  1.504991E+05  3.030820E+04 -4.390064E+05 -4.731096E+04 -1.110102E+04
       109   5  1.327378E+04  1.421235E+05  4.508139E+04 -3.729526E+05 -5.783434E+04 -3.445469E+04
       109   6  7.914467E+04  1.500764E+05  8.858904E+04 -4.388162E+05 -1.996055E+04 -5.772300E+04
       109   7  1.962661E+05  9.631649E+05  1.896912E+05 -4.338024E+05 -4.745341E+04  3.818665E+04
       109   8  3.296140E+05  1.450919E+06  3.185946E+05 -3.949166E+05 -5.777174E+04 -5.380197E+04
       109   9  5.293754E+05  1.967067E+06  5.237900E+05 -4.879531E+05 -1.973138E+04 -1.457814E+05
       109  10 -1.922958E+05 -6.615338E+05 -1.291086E+05 -4.442051E+05  6.045305E-10  1.249009E-09
       109  11 -3.031777E+05 -1.165054E+06 -2.285318E+05 -3.510348E+05  7.882971E-10 -5.250364E-10
       109  12 -3.713134E+05 -1.663876E+06 -3.468177E+05 -3.898200E+05  7.970816E-10  8.713898E-10
       109  13  2.003549E+03  1.504983E+05  3.030376E+04 -4.390068E+05 -2.028103E-09 -1.240351E-09
       109  14  1.326987E+04  1.421214E+05  4.507287E+04 -3.729542E+05 -2.256266E-09  4.418698E-11
       109  15  7.914335E+04  1.500727E+05  8.858202E+04 -4.388171E+05 -3.606793E-10 -1.578071E-10
       109  16  1.962632E+05  9.631627E+05  1.896843E+05 -4.338010E+05 -4.726467E-10 -1.857563E-09
       109  17  3.296096E+05  1.450915E+06  3.185829E+05 -3.949191E+05 -2.048948E-10 -5.414919E-10
       109  18  5.293693E+05  1.967044E+06  5.237494E+05 -4.879555E+05  6.713899E-10 -7.544845E-10
       109  19 -1.922925E+05 -6.615293E+05 -1.290976E+05 -4.442028E+05  4.716757E+04  6.032563E+04
       109  20 -3.031741E+05 -1.165053E+06 -2.285251E+05 -3.510341E+05  5.789566E+04  1.514741E+04
       109  21 -3.713127E+05 -1.663875E+06 -3.468152E+05 -3.898205E+05  2.017623E+04 -3.007958E+04
       109  22  2.005987E+03  1.504991E+05  3.030820E+04 -4.390064E+05  4.731096E+04  1.110102E+04
       109  23  1.327378E+04  1.421235E+05  4.508139E+04 -3.729526E+05  5.783434E+04  3.445469E+04
       109  24  7.914467E+04  1.500764E+05  8.858904E+04 -4.388162E+05  1.996055E+04  5.772300E+04
       109  25  1.962661E+05  9.631649E+05  1.896912E+05 -4.338024E+05  4.745341E+04 -3.818665E+04
       109  26  3.296140E+05  1.450919E+06  3.185946E+05 -3.949166E+05  5.777174E+04  5.380197E+04
       109  27  5.293754E+05  1.967067E+06  5.237900E+05 -4.879531E+05  1.973138E+04  1.457814E+05
       110   1 -2.679475E+06 -9.631058E+05 -5.628115E+05 -9.927143E+05 -2.402440E+05 -7.462647E+04
       110   2 -2.595095E+06 -6.334804E+05 -3.464589E+05 -9.705872E+05 -1.546882E+05 -8.515713E+03
       110   3 -2.585183E+06 -5.556810E+05 -2.645734E+05 -9.183295E+05 -5.868579E+04  2.991612E+04
       110   4 -1.797074E+06 -5.191575E+05 -3.059981E+05 -6.379299E+05 -2.004480E+05 -5.969582E+04
       110   5 -1.745563E+06 -2.777705E+05 -1.334352E+05 -6.973469E+05 -1.402205E+05 -3.089513E+03
       110   6 -1.763364E+06 -2.830042E+05 -7.508310E+04 -7.266721E+05 -6.956337E+04  2.582538E+04
       110   7 -9.138755E+05 -7.495970E+04 -4.925107E+04 -2.826253E+05 -1.605897E+05 -4.472366E+04
       110   8 -8.953102E+05  7.804372E+04  7.953239E+04 -4.237460E+05 -1.257311E+05  2.347150E+03
       110   9 -9.408768E+05 -1.031308E+04  1.143617E+05 -5.347984E+05 -8.045661E+04  2.173023E+04
       110  10 -2.679539E+06 -9.631274E+05 -5.629310E+05 -9.927288E+05 -5.527781E-10  5.651720E-10
       110  11 -2.595120E+06 -6.334869E+05 -3.465042E+05 -9.705883E+05 -2.334036E-10  4.446768E-10
       110  12 -2.585187E+06 -5.556829E+05 -2.645815E+05 -9.183281E+05  6.334913E-10  1.252916E-11
       110  13 -1.797118E+06 -5.191722E+05 -3.060806E+05 -6.379395E+05 -1.271391E-10 -3.456118E-10
       110  14 -1.745585E+06 -2.777758E+05 -1.334722E+05 -6.973473E+05  8.984308E-10 -1.278872E-10
       110  15 -1.763369E+06 -2.830062E+05 -7.509346E+04 -7.266707E+05 -2.739115E-10  1.092026E-10
       110  16 -9.139038E+05 -7.496879E+04 -4.930338E+04 -2.826311E+05  4.082656E-11  1.614336E-10
       110  17 -8.953272E+05  7.803946E+04  7.950263E+04 -4.237458E+05 -1.334748E-09  5.268510E-10
       110  18 -9.408838E+05 -1.031533E+04  1.143486E+05 -5.347970E+05 -1.207658E-09  3.015010E-10
       110  19 -2.679475E+06 -9.631058E+05 -5.628115E+05 -9.927143E+05  2.402440E+05  7.462647E+04
       110  20 -2.595095E+06 -6.334804E+05 -3.464589E+05 -9.705872E+05  1.546882E+05  8.515713E+03
       110  21 -2.585183E+06 -5.556810E+05 -2.645734E+05 -9.183295E+05  5.868579E+04 -2.991612E+04
       110  22 -1.797074E+06 -5.191575E+05 -3.059981E+05 -6.379299E+05  2.004480E+05  5.969582E+04
       110  23 -1.745563E+06 -2.777705E+05 -1.334352E+05 -6.973469E+05  1.402205E+05  3.089513E+03
       110  24 -1.763364E+06 -2.830042E+05 -7.508310E+04 -7.266721E+05  6.956337E+04 -2.582538E+04
       110  25 -9.138755E+05 -7.495970E+04 -4.925107E+04 -2.826253E+05  1.605897E+05  4.472366E+04
       110  26 -8.953102E+05  7.804372E+04  7.953239E+04 -4.237460E+05  1.257311E+05 -2.347150E+03
       110  27 -9.408768E+05 -1.031308E+04  1.143617E+05 -5.347984E+05  8.045661E+04 -2.173023E+04
       111   1 -2.479431E+06 -5.793180E+05 -2.334933E+05 -9.175432E+05 -5.527996E+04  2.500146E+04
       111   2 -2.405688E+06 -5.196304E+05 -1.839519E+05 -8.808063E+05 -3.722676E+04  2.759631E+04
       111   3 -2.313554E+06 -4.982719E+05 -1.503227E+05 -8.702209E+05 -1.869367E+04  2.890961E+04
       111   4 -1.753465E+06 -3.046719E+05 -5.926490E+04 -7.135961E+05 -5.809539E+04  2.393909E+04
       111   5 -1.761830E+06 -2.791391E+05 -3.062588E+04 -7.029419E+05 -4.120099E+04  2.610083E+04
       111   6 -1.751576E+06 -2.916943E+05 -1.696388E+04 -7.184413E+05 -2.382941E+04  2.698057E+04
       111   7 -1.026970E+06 -2.998204E+04  1.149262E+05 -5.094279E+05 -6.091440E+04  2.287533E+04
       111   8 -1.117557E+06 -3.861644E+04  1.226709E+05 -5.249079E+05 -4.517972E+04  2.460364E+04
       111   9 -1.189282E+06 -8.509598E+04  1.163725E+05 -5.665367E+05 -2.897023E+04  2.504967E+04
       111  10 -2.479435E+06 -5.793195E+05 -2.335003E+05 -9.175421E+05  2.538187E-09  6.481718E-10
       111  11 -2.405690E+06 -5.196316E+05 -1.839559E+05 -8.808054E+05 -7.774876E-09 -2.308689E-09
       111  12 -2.313555E+06 -4.982729E+05 -1.503249E+05 -8.702205E+05 -1.475539E-08 -5.977399E-09
       111  13 -1.753469E+06 -3.046734E+05 -5.927233E+04 -7.135950E+05  2.557371E-10  3.435269E-10
       111  14 -1.761832E+06 -2.791403E+05 -3.063035E+04 -7.029410E+05  6.548773E-10  1.248850E-10
       111  15 -1.751576E+06 -2.916953E+05 -1.696631E+04 -7.184408E+05 -4.574610E-09 -2.288495E-09
       111  16 -1.026974E+06 -2.998360E+04  1.149182E+05 -5.094268E+05 -1.584896E-09  1.131066E-10
       111  17 -1.117560E+06 -3.861764E+04  1.226659E+05 -5.249070E+05  3.760729E-09  2.527100E-09
       111  18 -1.189283E+06 -8.509688E+04  1.163698E+05 -5.665362E+05  8.167357E-09  1.497927E-09
       111  19 -2.479431E+06 -5.793180E+05 -2.334933E+05 -9.175432E+05  5.527996E+04 -2.500146E+04
       111  20 -2.405688E+06 -5.196304E+05 -1.839519E+05 -8.808063E+05  3.722676E+04 -2.759631E+04
       111  21 -2.313554E+06 -4.982719E+05 -1.503227E+05 -8.702209E+05  1.869367E+04 -2.890961E+04
       111  22 -1.753465E+06 -3.046719E+05 -5.926490E+04 -7.135961E+05  5.809539E+04 -2.393909E+04
       111  23 -1.761830E+06 -2.791391E+05 -3.062588E+04 -7.029419E+05  4.120099E+04 -2.610083E+04
       111  24 -1.751576E+06 -2.916943E+05 -1.696388E+04 -7.184413E+05  2.382941E+04 -2.698057E+04
       111  25 -1.026970E+06 -2.998204E+04  1.149262E+05 -5.094279E+05  6.091440E+04 -2.287533E+04
       111  26 -1.117557E+06 -3.861644E+04  1.226709E+05 -5.249079E+05  4.517972E+04 -2.460364E+04
       111  27 -1.189282E+06 -8.509598E+04  1.163725E+05 -5.665367E+05  2.897023E+04 -2.504967E+04
       112   1 -2.241526E+06 -4.750841E+05 -1.291947E+05 -8.522321E+05 -1.543990E+04  2.648441E+04
       112   2 -2.167859E+06 -4.294402E+05 -1.031094E+05 -8.139090E+05 -9.875289E+03  2.256463E+04
       112   3 -2.069119E+06 -4.103291E+05 -7.988246E+04 -8.050453E+05 -4.282404E+03  1.856175E+04
       112   4 -1.750658E+06 -2.929195E+05 -1.288771E+04 -7.177441E+05 -2.024338E+04  2.468115E+04
       112   5 -1.763138E+06 -2.793151E+05 -7.036425E+03 -7.031375E+05 -1.475225E+04  2.073526E+04
       112   6 -1.750536E+06 -2.922280E+05 -3.983134E+03 -7.179923E+05 -9.233384E+03  1.670612E+04
       112   7 -1.259553E+06 -1.107388E+05  1.034015E+05 -5.831596E+05 -2.505097E+04  2.287635E+04
       112   8 -1.358253E+06 -1.291785E+05  8.902495E+04 -5.923000E+05 -1.963268E+04  1.890460E+04
       112   9 -1.431851E+06 -1.741193E+05  7.190946E+04 -6.308979E+05 -1.418716E+04  1.484945E+04
       112  10 -2.241526E+06 -4.750849E+05 -1.291964E+05 -8.522317E+05  7.432650E-09  3.003766E-09
       112  11 -2.167860E+06 -4.294408E+05 -1.031105E+05 -8.139088E+05  8.961609E-09  3.655180E-09
       112  12 -2.069119E+06 -4.103294E+05 -7.988314E+04 -8.050453E+05 -1.570183E-10  4.533275E-10
       112  13 -1.750659E+06 -2.929203E+05 -1.288962E+04 -7.177437E+05 -2.551543E-09 -2.066929E-09
       112  14 -1.763138E+06 -2.793156E+05 -7.037641E+03 -7.031373E+05  3.802673E-09  1.280970E-09
       112  15 -1.750536E+06 -2.922283E+05 -3.983818E+03 -7.179921E+05  3.663741E-09  1.741460E-09
       112  16 -1.259554E+06 -1.107395E+05  1.033993E+05 -5.831591E+05 -1.302693E-08 -6.897858E-09
       112  17 -1.358254E+06 -1.291790E+05  8.902356E+04 -5.922997E+05 -3.243361E-09 -1.269575E-09
       112  18 -1.431851E+06 -1.741195E+05  7.190867E+04 -6.308978E+05  3.935397E-09  2.195337E-09
       112  19 -2.241526E+06 -4.750841E+05 -1.291947E+05 -8.522321E+05  1.543990E+04 -2.648441E+04
       112  20 -2.167859E+06 -4.294402E+05 -1.031094E+05 -8.139090E+05  9.875289E+03 -2.256463E+04
       112  21 -2.069119E+06 -4.103291E+05 -7.988246E+04 -8.050453E+05  4.282404E+03 -1.856175E+04
       112  22 -1.750658E+06 -2.929195E+05 -1.288771E+04 -7.177441E+05  2.024338E+04 -2.468115E+04
       112  23 -1.763138E+06 -2.793151E+05 -7.036425E+03 -7.031375E+05  1.475225E+04 -2.073526E+04
       112  24 -1.750536E+06 -2.922280E+05 -3.983134E+03 -7.179923E+05  9.233384E+03 -1.670612E+04
       112  25 -1.259553E+06 -1.107388E+05  1.034015E+05 -5.831596E+05  2.505097E+04 -2.287635E+04
       112  26 -1.358253E+06 -1.291785E+05  8.902495E+04 -5.923000E+05  1.963268E+04 -1.890460E+04
       112  27 -1.431851E+06 -1.741193E+05  7.190946E+04 -6.308979E+05  1.418716E+04 -1.484945E+04
       113   1 -1.998262E+06 -3.841982E+05 -6.161879E+04 -7.858473E+05 -2.523305E+03  1.564114E+04
       113   2 -1.924048E+06 -3.388877E+05 -4.010949E+04 -7.470693E+05  4.876642E+02  1.061671E+04
       113   3 -1.823967E+06 -3.196366E+05 -1.934812E+04 -7.381440E+05  3.502534E+03  5.578343E+03
       113   4 -1.750381E+06 -2.923270E+05 -3.086069E+03 -7.179998E+05 -7.474621E+03  1.378603E+04
       113   5 -1.763303E+06 -2.792759E+05 -1.962278E+03 -7.030789E+05 -4.476199E+03  8.757476E+03
       113   6 -1.750365E+06 -2.922813E+05 -1.576172E+03 -7.180127E+05 -1.474062E+03  3.714992E+03
       113   7 -1.502438E+06 -2.004512E+05  5.544263E+04 -6.501272E+05 -1.242811E+04  1.193010E+04
       113   8 -1.602534E+06 -2.196627E+05  3.618280E+04 -6.590784E+05 -9.441419E+03  6.897731E+03
       113   9 -1.676759E+06 -2.649262E+05  1.619506E+04 -6.978797E+05 -6.451198E+03  1.851439E+03
       113  10 -1.998262E+06 -3.841984E+05 -6.161927E+04 -7.858473E+05  3.489701E-10  2.001039E-10
       113  11 -1.924048E+06 -3.388878E+05 -4.010970E+04 -7.470693E+05  2.166883E-09  1.458194E-10
       113  12 -1.823967E+06 -3.196366E+05 -1.934820E+04 -7.381440E+05  1.192242E-09 -5.839406E-10
       113  13 -1.750381E+06 -2.923272E+05 -3.086531E+03 -7.179997E+05  1.102593E-09  4.551399E-10
       113  14 -1.763304E+06 -2.792760E+05 -1.962460E+03 -7.030788E+05  1.946420E-09  8.396769E-10
       113  15 -1.750365E+06 -2.922813E+05 -1.576202E+03 -7.180127E+05  1.461271E-09  3.864596E-10
       113  16 -1.502438E+06 -2.004514E+05  5.544207E+04 -6.501271E+05  7.737342E-10  9.694868E-10
       113  17 -1.602535E+06 -2.196628E+05  3.618254E+04 -6.590784E+05  1.274923E-09  4.899893E-10
       113  18 -1.676759E+06 -2.649262E+05  1.619497E+04 -6.978797E+05 -1.069138E-09 -1.604286E-10
       113  19 -1.998262E+06 -3.841982E+05 -6.161879E+04 -7.858473E+05  2.523305E+03 -1.564114E+04
       113  20 -1.924048E+06 -3.388877E+05 -4.010949E+04 -7.470693E+05 -4.876642E+02 -1.061671E+04
       113  21 -1.823967E+06 -3.196366E+05 -1.934812E+04 -7.381440E+05 -3.502534E+03 -5.578343E+03
       113  22 -1.750381E+06 -2.923270E+05 -3.086069E+03 -7.179998E+05  7.474621E+03 -1.378603E+04
       113  23 -1.763303E+06 -2.792759E+05 -1.962278E+03 -7.030789E+05  4.476199E+03 -8.757476E+03
       113  24 -1.750365E+06 -2.922813E+05 -1.576172E+03 -7.180127E+05  1.474062E+03 -3.714992E+03
       113  25 -1.502438E+06 -2.004512E+05  5.544263E+04 -6.501272E+05  1.242811E+04 -1.193010E+04
       113  26 -1.602534E+06 -2.196627E+05  3.618280E+04 -6.590784E+05  9.441419E+03 -6.897731E+03
       113  27 -1.676759E+06 -2.649262E+05  1.619506E+04 -6.978797E+05  6.451198E+03 -1.851439E+03
       114   1 -1.752859E+06 -2.931792E+05 -1.891807E+03 -7.187439E+05  4.949222E+03  2.524699E+03
       114   2 -1.678519E+06 -2.478511E+05  1.802351E+04 -6.798988E+05  8.008535E+03 -2.501571E+03
       114   3 -1.578293E+06 -2.286184E+05  3.715664E+04 -6.709517E+05  1.106555E+04 -7.518942E+03
       114   4 -1.750361E+06 -2.922892E+05 -1.599661E+03 -7.180235E+05 -2.987608E+01  6.605024E+02
       114   5 -1.763303E+06 -2.792559E+05 -2.088200E+03 -7.030673E+05  3.036931E+03 -4.363340E+03
       114   6 -1.750369E+06 -2.923211E+05 -3.364957E+03 -7.180133E+05  6.101264E+03 -9.378304E+03
       114   7 -1.747862E+06 -2.913993E+05 -1.307397E+03 -7.173030E+05 -5.009082E+03 -1.203735E+03
       114   8 -1.848081E+06 -3.106606E+05 -2.220067E+04 -7.262333E+05 -1.934006E+03 -6.224860E+03
       114   9 -1.922418E+06 -3.560225E+05 -4.388912E+04 -7.650636E+05  1.138419E+03 -1.123713E+04
       114  10 -1.752860E+06 -2.931792E+05 -1.891865E+03 -7.187439E+05 -2.840662E-10 -9.605599E-10
       114  11 -1.678519E+06 -2.478511E+05  1.802338E+04 -6.798987E+05  9.162284E-11  2.235875E-10
       114  12 -1.578294E+06 -2.286185E+05  3.715630E+04 -6.709516E+05  1.132185E-10  3.712525E-10
       114  13 -1.750361E+06 -2.922892E+05 -1.599662E+03 -7.180235E+05  1.259202E-09 -4.058432E-10
       114  14 -1.763303E+06 -2.792559E+05 -2.088253E+03 -7.030673E+05 -1.376383E-09  5.569741E-10
       114  15 -1.750369E+06 -2.923212E+05 -3.365193E+03 -7.180133E+05 -6.817387E-11 -1.794709E-10
       114  16 -1.747862E+06 -2.913993E+05 -1.307447E+03 -7.173030E+05  6.755084E-10  9.132642E-10
       114  17 -1.848081E+06 -3.106607E+05 -2.220075E+04 -7.262333E+05  8.343358E-10  6.135136E-10
       114  18 -1.922418E+06 -3.560226E+05 -4.388936E+04 -7.650636E+05 -1.475187E-09 -1.040469E-09
       114  19 -1.752859E+06 -2.931792E+05 -1.891807E+03 -7.187439E+05 -4.949222E+03 -2.524699E+03
       114  20 -1.678519E+06 -2.478511E+05  1.802351E+04 -6.798988E+05 -8.008535E+03  2.501571E+03
       114  21 -1.578293E+06 -2.286184E+05  3.715664E+04 -6.709517E+05 -1.106555E+04  7.518942E+03
       114  22 -1.750361E+06 -2.922892E+05 -1.599661E+03 -7.180235E+05  2.987608E+01 -6.605024E+02
       114  23 -1.763303E+06 -2.792559E+05 -2.088200E+03 -7.030673E+05 -3.036931E+03  4.363340E+03
       114  24 -1.750369E+06 -2.923211E+05 -3.364957E+03 -7.180133E+05 -6.101264E+03  9.378304E+03
       114  25 -1.747862E+06 -2.913993E+05 -1.307397E+03 -7.173030E+05  5.009082E+03  1.203735E+03
       114  26 -1.848081E+06 -3.106606E+05 -2.220067E+04 -7.262333E+05  1.934006E+03  6.224860E+03
       114  27 -1.922418E+06 -3.560225E+05 -4.388912E+04 -7.650636E+05 -1.138419E+03  1.123713E+04
       115   1 -1.507526E+06 -2.022499E+05  5.355885E+04 -6.517226E+05  1.288557E+04 -1.042468E+04
       115   2 -1.433561E+06 -1.571200E+05  7.043235E+04 -6.129691E+05  1.870342E+04 -1.436415E+04
       115   3 -1.334502E+06 -1.386853E+05  8.426453E+04 -6.038064E+05  2.449689E+04 -1.822976E+04
       115   4 -1.750526E+06 -2.922332E+05 -4.368861E+03 -7.180326E+05  7.917583E+03 -1.228589E+04
       115   5 -1.763125E+06 -2.792493E+05 -7.749408E+03 -7.031015E+05  1.380032E+04 -1.620223E+04
       115   6 -1.750650E+06 -2.929742E+05 -1.422360E+04 -7.177641E+05  1.965817E+04 -2.004489E+04
       115   7 -1.993461E+06 -3.822105E+05 -6.229933E+04 -7.843176E+05  2.951817E+03 -1.414627E+04
       115   8 -2.092578E+06 -4.013701E+05 -8.593827E+04 -7.931896E+05  8.900092E+03 -1.803924E+04
       115   9 -2.166629E+06 -4.472522E+05 -1.127249E+05 -8.316531E+05  1.482294E+04 -2.185871E+04
       115  10 -1.507526E+06 -2.022501E+05  5.355834E+04 -6.517225E+05 -1.264222E-09 -2.572420E-10
       115  11 -1.433561E+06 -1.571203E+05  7.043131E+04 -6.129689E+05 -6.038029E-10 -2.782380E-10
       115  12 -1.334503E+06 -1.386858E+05  8.426278E+04 -6.038060E+05 -1.682709E-10 -1.715393E-10
       115  13 -1.750526E+06 -2.922334E+05 -4.369263E+03 -7.180325E+05  5.747780E-10 -3.416089E-10
       115  14 -1.763125E+06 -2.792496E+05 -7.750259E+03 -7.031013E+05 -2.630683E-09  1.318856E-10
       115  15 -1.750651E+06 -2.929748E+05 -1.422508E+04 -7.177638E+05  9.826766E-10 -8.613090E-11
       115  16 -1.993462E+06 -3.822107E+05 -6.229973E+04 -7.843176E+05  1.495533E-09  7.580925E-11
       115  17 -2.092578E+06 -4.013705E+05 -8.593903E+04 -7.931895E+05  1.180262E-09  5.902482E-10
       115  18 -2.166630E+06 -4.472528E+05 -1.127262E+05 -8.316528E+05 -8.955563E-11  3.074500E-10
       115  19 -1.507526E+06 -2.022499E+05  5.355885E+04 -6.517226E+05 -1.288557E+04  1.042468E+04
       115  20 -1.433561E+06 -1.571200E+05  7.043235E+04 -6.129691E+05 -1.870342E+04  1.436415E+04
       115  21 -1.334502E+06 -1.386853E+05  8.426453E+04 -6.038064E+05 -2.449689E+04  1.822976E+04
       115  22 -1.750526E+06 -2.922332E+05 -4.368861E+03 -7.180326E+05 -7.917583E+03  1.228589E+04
       115  23 -1.763125E+06 -2.792493E+05 -7.749408E+03 -7.031015E+05 -1.380032E+04  1.620223E+04
       115  24 -1.750650E+06 -2.929742E+05 -1.422360E+04 -7.177641E+05 -1.965817E+04  2.004489E+04
       115  25 -1.993461E+06 -3.822105E+05 -6.229933E+04 -7.843176E+05 -2.951817E+03  1.414627E+04
       115  26 -2.092578E+06 -4.013701E+05 -8.593827E+04 -7.931896E+05 -8.900092E+03  1.803924E+04
       115  27 -2.166629E+06 -4.472522E+05 -1.127249E+05 -8.316531E+05 -1.482294E+04  2.185871E+04
       116   1 -1.263751E+06 -1.129722E+05  9.690526E+04 -5.873882E+05  2.864626E+04 -2.032833E+04
       116   2 -1.191458E+06 -6.594691E+04  1.019108E+05 -5.451098E+05  4.657711E+04 -1.930475E+04
       116   3 -1.100911E+06 -5.831392E+04  9.122654E+04 -5.289294E+05  6.406796E+04 -1.709158E+04
       116   4 -1.751640E+06 -2.916484E+05 -1.872988E+04 -7.185682E+05  2.349567E+04 -2.226132E+04
       116   5 -1.761690E+06 -2.789945E+05 -3.381153E+04 -7.028451E+05  4.250345E+04 -2.083599E+04
       116   6 -1.753714E+06 -3.059591E+05 -6.544966E+04 -7.132250E+05  6.106866E+04 -1.822161E+04
       116   7 -2.239291E+06 -4.703093E+05 -1.343818E+05 -8.496548E+05  1.834949E+04 -2.419271E+04
       116   8 -2.331597E+06 -4.920174E+05 -1.695567E+05 -8.604474E+05  3.843387E+04 -2.236568E+04
       116   9 -2.406089E+06 -5.535679E+05 -2.221559E+05 -8.973409E+05  5.807278E+04 -1.935029E+04
       116  10 -1.263752E+06 -1.129729E+05  9.690294E+04 -5.873878E+05  1.080383E-09 -2.803175E-10
       116  11 -1.191461E+06 -6.594789E+04  1.019060E+05 -5.451091E+05  1.585643E-09 -3.957921E-10
       116  12 -1.100916E+06 -5.831534E+04  9.121827E+04 -5.289285E+05 -3.536275E-10 -3.918735E-11
       116  13 -1.751640E+06 -2.916490E+05 -1.873185E+04 -7.185678E+05 -3.461338E-10 -2.821443E-10
       116  14 -1.761693E+06 -2.789955E+05 -3.381575E+04 -7.028444E+05 -2.237480E-10 -4.648700E-10
       116  15 -1.753718E+06 -3.059604E+05 -6.545731E+04 -7.132241E+05 -2.055888E-10 -2.010265E-10
       116  16 -2.239292E+06 -4.703100E+05 -1.343836E+05 -8.496544E+05 -3.434575E-10 -4.631508E-11
       116  17 -2.331599E+06 -4.920183E+05 -1.695604E+05 -8.604467E+05  7.836531E-10 -3.435103E-10
       116  18 -2.406093E+06 -5.535692E+05 -2.221630E+05 -8.973400E+05  8.246509E-10 -4.084420E-10
       116  19 -1.263751E+06 -1.129722E+05  9.690526E+04 -5.873882E+05 -2.864626E+04  2.032833E+04
       116  20 -1.191458E+06 -6.594691E+04  1.019108E+05 -5.451098E+05 -4.657711E+04  1.930475E+04
       116  21 -1.100911E+06 -5.831392E+04  9.122654E+04 -5.289294E+05 -6.406796E+04  1.709158E+04
       116  22 -1.751640E+06 -2.916484E+05 -1.872988E+04 -7.185682E+05 -2.349567E+04  2.226132E+04
       116  23 -1.761690E+06 -2.789945E+05 -3.381153E+04 -7.028451E+05 -4.250345E+04  2.083599E+04
       116  24 -1.753714E+06 -3.059591E+05 -6.544966E+04 -7.132250E+05 -6.106866E+04  1.822161E+04
       116  25 -2.239291E+06 -4.703093E+05 -1.343818E+05 -8.496548E+05 -1.834949E+04  2.419271E+04
       116  26 -2.331597E+06 -4.920174E+05 -1.695567E+05 -8.604474E+05 -3.843387E+04  2.236568E+04
       116  27 -2.406089E+06 -5.535679E+05 -2.221559E+05 -8.973409E+05 -5.807278E+04  1.935029E+04
       117   1 -1.012406E+06 -3.908852E+04  8.925374E+04 -5.589079E+05  8.396926E+04 -1.565032E+04
       117   2 -9.682782E+05  5.445004E+04  4.823649E+04 -4.394983E+05  1.387184E+05  6.647451E+03
       117   3 -9.981228E+05 -1.173954E+05 -1.001208E+05 -2.844883E+05  1.838003E+05  5.467678E+04
       117   4 -1.764590E+06 -2.820868E+05 -8.292169E+04 -7.277399E+05  7.346643E+04 -1.959431E+04
       117   5 -1.743778E+06 -2.773721E+05 -1.473474E+05 -6.965735E+05  1.517893E+05  1.154552E+04
       117   6 -1.801765E+06 -5.429523E+05 -3.379367E+05 -6.297848E+05  2.204321E+05  6.841304E+04
       117   7 -2.516217E+06 -5.250784E+05 -2.551349E+05 -8.964013E+05  6.297737E+04 -2.353469E+04
       117   8 -2.518672E+06 -6.090949E+05 -3.429775E+05 -9.533353E+05  1.648422E+05  1.643456E+04
       117   9 -2.604725E+06 -9.682485E+05 -5.758040E+05 -9.746083E+05  2.570113E+05  8.211125E+04
       117  10 -1.012414E+06 -3.909068E+04  8.924001E+04 -5.589068E+05  6.796289E-10  2.211743E-10
       117  11 -9.682989E+05  5.444482E+04  4.820019E+04 -4.394991E+05  4.189119E-10  2.808191E-10
       117  12 -9.981599E+05 -1.174077E+05 -1.001900E+05 -2.844964E+05  1.795374E-09  5.209117E-10
       117  13 -1.764596E+06 -2.820887E+05 -8.293257E+04 -7.277388E+05  3.463553E-10  4.141926E-10
       117  14 -1.743803E+06 -2.773784E+05 -1.473911E+05 -6.965749E+05 -5.073386E-10  1.337759E-09
       117  15 -1.801818E+06 -5.429704E+05 -3.380372E+05 -6.297969E+05 -6.231780E-10  2.773662E-10
       117  16 -2.516221E+06 -5.250801E+05 -2.551435E+05 -8.964001E+05 -7.663701E-10  2.174189E-10
       117  17 -2.518701E+06 -6.091025E+05 -3.430293E+05 -9.533375E+05 -4.605712E-10  5.082783E-10
       117  18 -2.604798E+06 -9.682736E+05 -5.759415E+05 -9.746254E+05  9.968514E-11 -7.924124E-11
       117  19 -1.012406E+06 -3.908852E+04  8.925374E+04 -5.589079E+05 -8.396926E+04  1.565032E+04
       117  20 -9.682782E+05  5.445004E+04  4.823649E+04 -4.394983E+05 -1.387184E+05 -6.647451E+03
       117  21 -9.981228E+05 -1.173954E+05 -1.001208E+05 -2.844883E+05 -1.838003E+05 -5.467678E+04
       117  22 -1.764590E+06 -2.820868E+05 -8.292169E+04 -7.277399E+05 -7.346643E+04  1.959431E+04
       117  23 -1.743778E+06 -2.773721E+05 -1.473474E+05 -6.965735E+05 -1.517893E+05 -1.154552E+04
       117  24 -1.801765E+06 -5.429523E+05 -3.379367E+05 -6.297848E+05 -2.204321E+05 -6.841304E+04
       117  25 -2.516217E+06 -5.250784E+05 -2.551349E+05 -8.964013E+05 -6.297737E+04  2.353469E+04
       117  26 -2.518672E+06 -6.090949E+05 -3.429775E+05 -9.533353E+05 -1.648422E+05 -1.643456E+04
       117  27 -2.604725E+06 -9.682485E+05 -5.758040E+05 -9.746083E+05 -2.570113E+05 -8.211125E+04
       118   1 -3.871265E+05 -3.742765E+04 -1.239827E+04  1.899693E+04  6.561741E+04  7.988040E+03
       118   2 -3.475919E+05 -1.294978E+05 -5.881835E+04 -6.097898E+03  4.924690E+04  2.515098E+04
       118   3 -2.813499E+05 -1.237750E+05 -7.010494E+04 -5.078755E+04  3.288492E+04  2.667808E+04
       118   4  2.072791E+05  1.100755E+05  1.311150E+05 -3.537238E+04  9.025980E+04  7.997547E+03
       118   5  1.926166E+05  2.325484E+03  6.014505E+04 -2.554679E+04  5.848443E+04  2.515227E+04
       118   6  2.073056E+05 -5.008217E+03  3.498179E+04 -3.531363E+04  2.671998E+04  2.667544E+04
       118   7  8.020154E+05  2.575643E+05  2.746069E+05 -8.979399E+04  1.149257E+05  8.002735E+03
       118   8  7.330990E+05  1.341307E+05  1.790911E+05 -4.501284E+04  6.772989E+04  2.515298E+04
       118   9  6.961862E+05  1.137438E+05  1.400548E+05 -1.982736E+04  2.055024E+04  2.667249E+04
       118  10 -3.871311E+05 -3.742888E+04 -1.240648E+04  1.899651E+04 -5.633782E-10  6.660988E-11
       118  11 -3.475947E+05 -1.294991E+05 -5.882410E+04 -6.098895E+03  8.256098E-11 -4.964011E-10
       118  12 -2.813512E+05 -1.237760E+05 -7.010831E+04 -5.078825E+04 -6.919261E-10  1.589335E-10
       118  13  2.072703E+05  1.100733E+05  1.310996E+05 -3.537296E+04  1.068773E-09 -8.842454E-11
       118  14  1.926128E+05  2.323887E+03  6.013744E+04 -2.554797E+04 -6.316539E-10 -1.012186E-09
       118  15  2.073047E+05 -5.009173E+03  3.497911E+04 -3.531420E+04 -4.018494E-10  5.663465E-11
       118  16  8.020012E+05  2.575607E+05  2.745819E+05 -8.979473E+04 -5.462939E-10 -2.370864E-10
       118  17  7.330939E+05  1.341288E+05  1.790813E+05 -4.501421E+04  6.109131E-10 -5.123688E-10
       118  18  6.961856E+05  1.137429E+05  1.400527E+05 -1.982780E+04  7.212909E-10 -2.961938E-10
       118  19 -3.871265E+05 -3.742765E+04 -1.239827E+04  1.899693E+04 -6.561741E+04 -7.988040E+03
       118  20 -3.475919E+05 -1.294978E+05 -5.881835E+04 -6.097898E+03 -4.924690E+04 -2.515098E+04
       118  21 -2.813499E+05 -1.237750E+05 -7.010494E+04 -5.078755E+04 -3.288492E+04 -2.667808E+04
       118  22  2.072791E+05  1.100755E+05  1.311150E+05 -3.537238E+04 -9.025980E+04 -7.997547E+03
       118  23  1.926166E+05  2.325484E+03  6.014505E+04 -2.554679E+04 -5.848443E+04 -2.515227E+04
       118  24  2.073056E+05 -5.008217E+03  3.498179E+04 -3.531363E+04 -2.671998E+04 -2.667544E+04
       118  25  8.020154E+05  2.575643E+05  2.746069E+05 -8.979399E+04 -1.149257E+05 -8.002735E+03
       118  26  7.330990E+05  1.341307E+05  1.790911E+05 -4.501284E+04 -6.772989E+04 -2.515298E+04
       118  27  6.961862E+05  1.137438E+05  1.400548E+05 -1.982736E+04 -2.055024E+04 -2.667249E+04
       119   1 -2.456978E+05 -1.033439E+05 -6.891578E+04 -3.368455E+04  2.361542E+04  2.368335E+04
       119   2 -1.942262E+05 -9.595691E+04 -6.977166E+04 -2.500177E+04  1.678193E+04  2.149197E+04
       119   3 -1.405163E+05 -8.340899E+04 -6.487393E+04 -3.652781E+04  9.946862E+03  1.858538E+04
       119   4  2.013135E+05  5.378914E+03  2.767138E+04 -3.546523E+04  2.182356E+04  2.368162E+04
       119   5  2.001415E+05 -1.171068E+02  1.505358E+04 -2.536096E+04  1.428148E+04  2.149067E+04
       119   6  2.013270E+05 -3.310847E+02  8.678391E+03 -3.546461E+04  6.738409E+03  1.858470E+04
       119   7  6.485124E+05  1.140886E+05  1.242467E+05 -3.724721E+04  2.003041E+04  2.367989E+04
       119   8  5.946555E+05  9.571248E+04  9.986972E+04 -2.572038E+04  1.177947E+04  2.148938E+04
       119   9  5.432802E+05  8.273916E+04  8.222389E+04 -3.440081E+04  3.528213E+03  1.858402E+04
       119  10 -2.456985E+05 -1.033446E+05 -6.891789E+04 -3.368500E+04  2.751970E-10 -2.857892E-11
       119  11 -1.942266E+05 -9.595748E+04 -6.977306E+04 -2.500206E+04  1.244786E-09 -2.270022E-10
       119  12 -1.405165E+05 -8.340939E+04 -6.487476E+04 -3.652796E+04 -7.065658E-10 -2.998038E-10
       119  13  2.013128E+05  5.378184E+03  2.766943E+04 -3.546564E+04 -1.055860E-12 -2.431328E-12
       119  14  2.001412E+05 -1.176575E+02  1.505232E+04 -2.536121E+04  1.725647E-14 -1.537934E-10
       119  15  2.013269E+05 -3.314678E+02  8.677656E+03 -3.546471E+04 -3.139458E-10  8.535329E-11
       119  16  6.485118E+05  1.140879E+05  1.242449E+05 -3.724759E+04  8.940218E-10  1.054569E-10
       119  17  5.946552E+05  9.571195E+04  9.986859E+04 -2.572058E+04 -1.226315E-09 -2.013605E-11
       119  18  5.432801E+05  8.273878E+04  8.222322E+04 -3.440087E+04 -6.815811E-11  4.770320E-10
       119  19 -2.456978E+05 -1.033439E+05 -6.891578E+04 -3.368455E+04 -2.361542E+04 -2.368335E+04
       119  20 -1.942262E+05 -9.595691E+04 -6.977166E+04 -2.500177E+04 -1.678193E+04 -2.149197E+04
       119  21 -1.405163E+05 -8.340899E+04 -6.487393E+04 -3.652781E+04 -9.946862E+03 -1.858538E+04
       119  22  2.013135E+05  5.378914E+03  2.767138E+04 -3.546523E+04 -2.182356E+04 -2.368162E+04
       119  23  2.001415E+05 -1.171068E+02  1.505358E+04 -2.536096E+04 -1.428148E+04 -2.149067E+04
       119  24  2.013270E+05 -3.310847E+02  8.678391E+03 -3.546461E+04 -6.738409E+03 -1.858470E+04
       119  25  6.485124E+05  1.140886E+05  1.242467E+05 -3.724721E+04 -2.003041E+04 -2.367989E+04
       119  26  5.946555E+05  9.571248E+04  9.986972E+04 -2.572038E+04 -1.177947E+04 -2.148938E+04
       119  27  5.432802E+05  8.273916E+04  8.222389E+04 -3.440081E+04 -3.528213E+03 -1.858402E+04
       120   1 -9.976220E+04 -7.282593E+04 -5.780935E+04 -3.560141E+04  8.394539E+03  1.671687E+04
       120   2 -4.742568E+04 -6.034536E+04 -4.951710E+04 -2.547079E+04  6.557135E+03  1.364371E+04
       120   3  5.239250E+03 -4.757830E+04 -3.995338E+04 -3.555207E+04  4.718637E+03  1.053902E+04
       120   4  2.008824E+05  1.899798E+02  6.638500E+03 -3.546557E+04  5.387971E+03  1.671651E+04
       120   5  2.007212E+05 -6.154608E+01  3.773661E+03 -2.535989E+04  3.518583E+03  1.364375E+04
       120   6  2.008904E+05 -2.124458E+01  2.201814E+03 -3.546564E+04  1.648251E+03  1.053949E+04
       120   7  5.016120E+05  7.319998E+04  7.108112E+04 -3.532966E+04  2.379968E+03  1.671614E+04
       120   8  4.489261E+05  6.021823E+04  5.706086E+04 -2.524895E+04  4.788332E+02  1.364380E+04
       120   9  3.965776E+05  4.753330E+04  4.435479E+04 -3.537917E+04 -1.423089E+03  1.053996E+04
       120  10 -9.976235E+04 -7.282625E+04 -5.781001E+04 -3.560152E+04  2.839605E-10 -3.004739E-10
       120  11 -4.742578E+04 -6.034557E+04 -4.951753E+04 -2.547086E+04  2.426686E-09 -1.182411E-10
       120  12  5.239197E+03 -4.757842E+04 -3.995363E+04 -3.555211E+04 -1.820928E-09  1.162655E-09
       120  13  2.008823E+05  1.896719E+02  6.637920E+03 -3.546564E+04 -1.070756E-09  3.815375E-11
       120  14  2.007212E+05 -6.174932E+01  3.773288E+03 -2.535993E+04  1.113188E-09 -1.776435E-10
       120  15  2.008904E+05 -2.136460E+01  2.201600E+03 -3.546565E+04  1.499899E-09  5.545494E-10
       120  16  5.016119E+05  7.319968E+04  7.108058E+04 -3.532969E+04 -8.366848E-10  3.443123E-10
       120  17  4.489260E+05  6.021803E+04  5.706051E+04 -2.524896E+04 -1.308421E-09 -2.070544E-10
       120  18  3.965775E+05  4.753318E+04  4.435458E+04 -3.537916E+04  1.431422E-09  3.379006E-10
       120  19 -9.976220E+04 -7.282593E+04 -5.780935E+04 -3.560141E+04 -8.394539E+03 -1.671687E+04
       120  20 -4.742568E+04 -6.034536E+04 -4.951710E+04 -2.547079E+04 -6.557135E+03 -1.364371E+04
       120  21  5.239250E+03 -4.757830E+04 -3.995338E+04 -3.555207E+04 -4.718637E+03 -1.053902E+04
       120  22  2.008824E+05  1.899798E+02  6.638500E+03 -3.546557E+04 -5.387971E+03 -1.671651E+04
       120  23  2.007212E+05 -6.154608E+01  3.773661E+03 -2.535989E+04 -3.518583E+03 -1.364375E+04
       120  24  2.008904E+05 -2.124458E+01  2.201814E+03 -3.546564E+04 -1.648251E+03 -1.053949E+04
       120  25  5.016120E+05  7.319998E+04  7.108112E+04 -3.532966E+04 -2.379968E+03 -1.671614E+04
       120  26  4.489261E+05  6.021823E+04  5.706086E+04 -2.524895E+04 -4.788332E+02 -1.364380E+04
       120  27  3.965776E+05  4.753330E+04  4.435479E+04 -3.537917E+04  1.423089E+03 -1.053996E+04
       121   1  4.631704E+04 -3.750472E+04 -3.133799E+04 -3.550022E+04  4.356140E+03  8.724589E+03
       121   2  9.874149E+04 -2.479787E+04 -2.087318E+04 -2.538516E+04  3.842193E+03  5.614052E+03
       121   3  1.512337E+05 -1.206424E+04 -1.006935E+04 -3.546309E+04  3.327825E+03  2.502612E+03
       121   4  2.008347E+05  1.590827E+00  1.696336E+03 -3.546149E+04  1.295672E+03  8.725239E+03
       121   5  2.008037E+05 -5.954525E+00  1.040949E+03 -2.536510E+04  7.806021E+02  5.614868E+03
       121   6  2.008380E+05  1.362142E+01  7.253454E+02 -3.546149E+04  2.651530E+02  2.503604E+03
       121   7  3.553749E+05  3.750634E+04  3.472931E+04 -3.542274E+04 -1.765547E+03  8.725889E+03
       121   8  3.028757E+05  2.478528E+04  2.295450E+04 -2.534503E+04 -2.281485E+03  5.615684E+03
       121   9  2.504446E+05  1.209132E+04  1.151992E+04 -3.545990E+04 -2.797760E+03  2.504596E+03
       121  10  4.631700E+04 -3.750480E+04 -3.133817E+04 -3.550025E+04  1.539355E-09  7.816492E-10
       121  11  9.874146E+04 -2.479791E+04 -2.087326E+04 -2.538518E+04 -4.631484E-10 -4.081413E-10
       121  12  1.512337E+05 -1.206425E+04 -1.006938E+04 -3.546309E+04 -1.124284E-09  3.151971E-10
       121  13  2.008347E+05  1.508617E+00  1.696190E+03 -3.546149E+04 -1.151572E-09  5.942564E-10
       121  14  2.008037E+05 -5.988546E+00  1.040889E+03 -2.536510E+04  1.113154E-09 -8.148271E-10
       121  15  2.008380E+05  1.361467E+01  7.253335E+02 -3.546149E+04 -1.309778E-09 -1.892788E-12
       121  16  3.553749E+05  3.750626E+04  3.472916E+04 -3.542272E+04 -1.406580E-09 -2.698741E-10
       121  17  3.028757E+05  2.478525E+04  2.295443E+04 -2.534502E+04  6.676214E-10 -6.306244E-10
       121  18  2.504446E+05  1.209131E+04  1.151990E+04 -3.545989E+04  1.121552E-09 -7.389106E-11
       121  19  4.631704E+04 -3.750472E+04 -3.133799E+04 -3.550022E+04 -4.356140E+03 -8.724589E+03
       121  20  9.874149E+04 -2.479787E+04 -2.087318E+04 -2.538516E+04 -3.842193E+03 -5.614052E+03
       121  21  1.512337E+05 -1.206424E+04 -1.006935E+04 -3.546309E+04 -3.327825E+03 -2.502612E+03
       121  22  2.008347E+05  1.590827E+00  1.696336E+03 -3.546149E+04 -1.295672E+03 -8.725239E+03
       121  23  2.008037E+05 -5.954525E+00  1.040949E+03 -2.536510E+04 -7.806021E+02 -5.614868E+03
       121  24  2.008380E+05  1.362142E+01  7.253454E+02 -3.546149E+04 -2.651530E+02 -2.503604E+03
       121  25  3.553749E+05  3.750634E+04  3.472931E+04 -3.542274E+04  1.765547E+03 -8.725889E+03
       121  26  3.028757E+05  2.478528E+04  2.295450E+04 -2.534503E+04  2.281485E+03 -5.615684E+03
       121  27  2.504446E+05  1.209132E+04  1.151992E+04 -3.545990E+04  2.797760E+03 -2.504596E+03
       122   1  1.923438E+05 -2.019122E+03 -1.022157E+03 -3.546786E+04  3.201699E+03  6.915345E+02
       122   2  2.447801E+05  1.068217E+04  1.010575E+04 -2.536611E+04  2.870593E+03 -2.419395E+03
       122   3  2.972539E+05  2.340238E+04  2.145038E+04 -3.545417E+04  2.539628E+03 -5.529287E+03
       122   4  2.008319E+05  1.367647E+01  6.556695E+02 -3.546085E+04  1.390951E+02  6.925567E+02
       122   5  2.008134E+05  3.141064E+00  6.661865E+02 -2.536590E+04 -1.910728E+02 -2.418452E+03
       122   6  2.008305E+05  1.172072E+01  8.930750E+02 -3.546085E+04 -5.210723E+02 -5.528413E+03
       122   7  2.093200E+05  2.046475E+03  2.333528E+03 -3.545385E+04 -2.923550E+03  6.935789E+02
       122   8  1.568486E+05 -1.067601E+04 -8.773452E+03 -2.536569E+04 -3.252525E+03 -2.417509E+03
       122   9  1.044159E+05 -2.337954E+04 -1.966473E+04 -3.546753E+04 -3.581305E+03 -5.527539E+03
       122  10  1.923438E+05 -2.019125E+03 -1.022177E+03 -3.546786E+04  5.407542E-10  6.439458E-10
       122  11  2.447801E+05  1.068216E+04  1.010572E+04 -2.536610E+04  3.884918E-10 -1.077288E-11
       122  12  2.972539E+05  2.340234E+04  2.145031E+04 -3.545416E+04  8.653418E-10 -5.974042E-10
       122  13  2.008319E+05  1.367595E+01  6.556686E+02 -3.546085E+04 -7.862228E-11  1.127932E-09
       122  14  2.008134E+05  3.134773E+00  6.661754E+02 -2.536590E+04 -1.151559E-09  7.220582E-10
       122  15  2.008305E+05  1.168783E+01  8.930171E+02 -3.546085E+04 -4.279238E-10 -1.114622E-09
       122  16  2.093200E+05  2.046472E+03  2.333511E+03 -3.545385E+04  2.763660E-10  9.422892E-10
       122  17  1.568486E+05 -1.067602E+04 -8.773483E+03 -2.536570E+04  1.226881E-10  9.702242E-10
       122  18  1.044158E+05 -2.337957E+04 -1.966482E+04 -3.546754E+04 -1.624409E-09 -9.054603E-10
       122  19  1.923438E+05 -2.019122E+03 -1.022157E+03 -3.546786E+04 -3.201699E+03 -6.915345E+02
       122  20  2.447801E+05  1.068217E+04  1.010575E+04 -2.536611E+04 -2.870593E+03  2.419395E+03
       122  21  2.972539E+05  2.340238E+04  2.145038E+04 -3.545417E+04 -2.539628E+03  5.529287E+03
       122  22  2.008319E+05  1.367647E+01  6.556695E+02 -3.546085E+04 -1.390951E+02 -6.925567E+02
       122  23  2.008134E+05  3.141064E+00  6.661865E+02 -2.536590E+04  1.910728E+02  2.418452E+03
       122  24  2.008305E+05  1.172072E+01  8.930750E+02 -3.546085E+04  5.210723E+02  5.528413E+03
       122  25  2.093200E+05  2.046475E+03  2.333528E+03 -3.545385E+04  2.923550E+03 -6.935789E+02
       122  26  1.568486E+05 -1.067601E+04 -8.773452E+03 -2.536569E+04  3.252525E+03  2.417509E+03
       122  27  1.044159E+05 -2.337954E+04 -1.966473E+04 -3.546753E+04  3.581305E+03  5.527539E+03
       123   1  3.384109E+05  3.343824E+04  3.077773E+04 -3.543981E+04  2.367639E+03 -7.342666E+03
       123   2  3.908222E+05  4.613339E+04  4.260218E+04 -2.533110E+04  1.447372E+03 -1.044637E+04
       123   3  4.433956E+05  5.897393E+04  5.506202E+04 -3.542096E+04  5.277230E+02 -1.352130E+04
       123   4  2.008547E+05  5.058345E-01  1.102748E+03 -3.546287E+04 -7.020716E+02 -7.341910E+03
       123   5  2.007747E+05 -2.391011E+01  1.798514E+03 -2.536338E+04 -1.593897E+03 -1.044595E+04
       123   6  2.008486E+05  9.214851E+01  3.109935E+03 -3.546283E+04 -2.485029E+03 -1.352119E+04
       123   7  6.331625E+04 -3.343847E+04 -2.857331E+04 -3.548592E+04 -3.771111E+03 -7.341154E+03
       123   8  1.076116E+04 -4.618357E+04 -3.900723E+04 -2.539564E+04 -4.634249E+03 -1.044552E+04
       123   9 -4.164310E+04 -5.879347E+04 -4.884553E+04 -3.550468E+04 -5.496621E+03 -1.352108E+04
       123  10  3.384109E+05  3.343818E+04  3.077761E+04 -3.543979E+04  6.121206E-10 -2.497413E-10
       123  11  3.908221E+05  4.613327E+04  4.260198E+04 -2.533109E+04  2.179045E-09  2.202824E-11
       123  12  4.433955E+05  5.897373E+04  5.506167E+04 -3.542095E+04  1.955274E-10  4.269550E-10
       123  13  2.008547E+05  4.478133E-01  1.102646E+03 -3.546287E+04  2.224270E-09 -1.203191E-09
       123  14  2.007747E+05 -2.402798E+01  1.798304E+03 -2.536339E+04  1.185648E-09 -5.748676E-10
       123  15  2.008485E+05  9.195051E+01  3.109580E+03 -3.546286E+04  7.908601E-10  4.051555E-10
       123  16  6.331622E+04 -3.343853E+04 -2.857344E+04 -3.548594E+04 -1.892176E-10 -1.231879E-09
       123  17  1.076110E+04 -4.618369E+04 -3.900748E+04 -2.539568E+04 -7.471249E-10 -9.246219E-10
       123  18 -4.164318E+04 -5.879368E+04 -4.884593E+04 -3.550474E+04  5.388275E-10  2.304016E-10
       123  19  3.384109E+05  3.343824E+04  3.077773E+04 -3.543981E+04 -2.367639E+03  7.342666E+03
       123  20  3.908222E+05  4.613339E+04  4.260218E+04 -2.533110E+04 -1.447372E+03  1.044637E+04
       123  21  4.433956E+05  5.897393E+04  5.506202E+04 -3.542096E+04 -5.277230E+02  1.352130E+04
       123  22  2.008547E+05  5.058345E-01  1.102748E+03 -3.546287E+04  7.020716E+02  7.341910E+03
       123  23  2.007747E+05 -2.391011E+01  1.798514E+03 -2.536338E+04  1.593897E+03  1.044595E+04
       123  24  2.008486E+05  9.214851E+01  3.109935E+03 -3.546283E+04  2.485029E+03  1.352119E+04
       123  25  6.331625E+04 -3.343847E+04 -2.857331E+04 -3.548592E+04  3.771111E+03  7.341154E+03
       123  26  1.076116E+04 -4.618357E+04 -3.900723E+04 -2.539564E+04  4.634249E+03  1.044552E+04
       123  27 -4.164310E+04 -5.879347E+04 -4.884553E+04 -3.550468E+04  5.496621E+03  1.352108E+04
       124   1  4.847966E+05  6.878495E+04  6.510403E+04 -3.499144E+04  7.905395E+01 -1.538289E+04
       124   2  5.367607E+05  8.162422E+04  7.930536E+04 -2.554503E+04 -4.069441E+03 -1.830542E+04
       124   3  5.899449E+05  9.703059E+04  9.685536E+04 -3.629657E+04 -8.217203E+03 -2.058031E+04
       124   4  2.010557E+05 -1.510457E+02  4.051795E+03 -3.546274E+04 -3.116782E+03 -1.538303E+04
       124   5  2.004964E+05 -6.049286E+01  7.002534E+03 -2.536345E+04 -6.625916E+03 -1.830614E+04
       124   6  2.010446E+05  2.487291E+03  1.285952E+04 -3.546272E+04 -1.013397E+04 -2.058145E+04
       124   7 -8.260944E+04 -6.909233E+04 -5.700512E+04 -3.593383E+04 -6.311179E+03 -1.538316E+04
       124   8 -1.356616E+05 -8.175262E+04 -6.530689E+04 -2.518197E+04 -9.181026E+03 -1.830686E+04
       124   9 -1.877139E+05 -9.206597E+04 -7.114525E+04 -3.462940E+04 -1.204956E+04 -2.058259E+04
       124  10  4.847965E+05  6.878470E+04  6.510358E+04 -3.499144E+04  2.828950E-11  3.490846E-10
       124  11  5.367605E+05  8.162385E+04  7.930470E+04 -2.554509E+04  7.806146E-10  3.944932E-10
       124  12  5.899448E+05  9.703012E+04  9.685444E+04 -3.629671E+04 -1.380252E-09  1.031168E-10
       124  13  2.010557E+05 -1.513025E+02  4.051332E+03 -3.546278E+04 -1.050488E-11  4.662789E-10
       124  14  2.004963E+05 -6.086454E+01  7.001822E+03 -2.536355E+04  3.596096E-11  3.142730E-10
       124  15  2.010444E+05  2.486808E+03  1.285853E+04 -3.546289E+04  5.005608E-10  2.334103E-10
       124  16 -8.260955E+04 -6.909259E+04 -5.700564E+04 -3.593391E+04  6.018746E-10  4.998082E-10
       124  17 -1.356618E+05 -8.175300E+04 -6.530768E+04 -2.518210E+04  1.528636E-09  2.438683E-10
       124  18 -1.877141E+05 -9.206647E+04 -7.114632E+04 -3.462960E+04  8.630219E-10  5.468493E-10
       124  19  4.847966E+05  6.878495E+04  6.510403E+04 -3.499144E+04 -7.905395E+01  1.538289E+04
       124  20  5.367607E+05  8.162422E+04  7.930536E+04 -2.554503E+04  4.069441E+03  1.830542E+04
       124  21  5.899449E+05  9.703059E+04  9.685536E+04 -3.629657E+04  8.217203E+03  2.058031E+04
       124  22  2.010557E+05 -1.510457E+02  4.051795E+03 -3.546274E+04  3.116782E+03  1.538303E+04
       124  23  2.004964E+05 -6.049286E+01  7.002534E+03 -2.536345E+04  6.625916E+03  1.830614E+04
       124  24  2.010446E+05  2.487291E+03  1.285952E+04 -3.546272E+04  1.013397E+04  2.058145E+04
       124  25 -8.260944E+04 -6.909233E+04 -5.700512E+04 -3.593383E+04  6.311179E+03  1.538316E+04
       124  26 -1.356616E+05 -8.175262E+04 -6.530689E+04 -2.518197E+04  9.181026E+03  1.830686E+04
       124  27 -1.877139E+05 -9.206597E+04 -7.114525E+04 -3.462940E+04  1.204956E+04  2.058259E+04
       125   1  6.343482E+05  1.022335E+05  1.088034E+05 -2.813037E+04 -6.530111E+03 -2.345869E+04
       125   2  6.791324E+05  1.186595E+05  1.340855E+05 -3.454757E+04 -3.522717E+04 -2.236642E+04
       125   3  7.399990E+05  1.841453E+05  1.903204E+05 -6.057716E+04 -6.393408E+04 -7.125729E+03
       125   4  2.038303E+05 -2.341209E+03  1.625435E+04 -3.532773E+04 -1.240954E+04 -2.346077E+04
       125   5  1.969839E+05  1.055643E+03  2.793407E+04 -2.553113E+04 -2.716278E+04 -2.236563E+04
       125   6  2.038104E+05  5.111280E+04  6.090071E+04 -3.534629E+04 -4.192311E+04 -7.118625E+03
       125   7 -2.265133E+05 -1.069278E+05 -7.630544E+04 -4.252004E+04 -1.828494E+04 -2.346273E+04
       125   8 -2.849471E+05 -1.165634E+05 -7.823126E+04 -1.652179E+04 -1.910456E+04 -2.236461E+04
       125   9 -3.321132E+05 -8.193798E+04 -6.853738E+04 -1.013728E+04 -1.993104E+04 -7.109732E+03
       125  10  6.343480E+05  1.022329E+05  1.088023E+05 -2.813049E+04  1.627632E-09 -1.068753E-10
       125  11  6.791310E+05  1.186586E+05  1.340822E+05 -3.454820E+04  2.208487E-09 -2.289442E-10
       125  12  7.399946E+05  1.841441E+05  1.903126E+05 -6.057752E+04 -8.882342E-10  1.283552E-10
       125  13  2.038300E+05 -2.341841E+03  1.625302E+04 -3.532797E+04 -1.380619E-10 -2.902115E-10
       125  14  1.969830E+05  1.054907E+03  2.793175E+04 -2.553162E+04 -1.615511E-09 -3.552015E-10
       125  15  2.038085E+05  5.111228E+04  6.089731E+04 -3.534653E+04 -3.080644E-10 -3.590051E-10
       125  16 -2.265138E+05 -1.069285E+05 -7.630710E+04 -4.252039E+04 -6.759105E-10  2.181266E-10
       125  17 -2.849476E+05 -1.165641E+05 -7.823289E+04 -1.652213E+04 -6.157028E-10 -7.236383E-10
       125  18 -3.321136E+05 -8.193814E+04 -6.853822E+04 -1.013740E+04  7.102270E-10  1.432236E-10
       125  19  6.343482E+05  1.022335E+05  1.088034E+05 -2.813037E+04  6.530111E+03  2.345869E+04
       125  20  6.791324E+05  1.186595E+05  1.340855E+05 -3.454757E+04  3.522717E+04  2.236642E+04
       125  21  7.399990E+05  1.841453E+05  1.903204E+05 -6.057716E+04  6.393408E+04  7.125729E+03
       125  22  2.038303E+05 -2.341209E+03  1.625435E+04 -3.532773E+04  1.240954E+04  2.346077E+04
       125  23  1.969839E+05  1.055643E+03  2.793407E+04 -2.553113E+04  2.716278E+04  2.236563E+04
       125  24  2.038104E+05  5.111280E+04  6.090071E+04 -3.534629E+04  4.192311E+04  7.118625E+03
       125  25 -2.265133E+05 -1.069278E+05 -7.630544E+04 -4.252004E+04  1.828494E+04  2.346273E+04
       125  26 -2.849471E+05 -1.165634E+05 -7.823126E+04 -1.652179E+04  1.910456E+04  2.236461E+04
       125  27 -3.321132E+05 -8.193798E+04 -6.853738E+04 -1.013728E+04  1.993104E+04  7.109732E+03
       126   1  5.506071E+05  1.888098E+06  5.492605E+05 -3.439023E+05  2.295982E+04  1.158143E+05
       126   2  3.712954E+05  1.409251E+06  3.678431E+05 -2.373428E+05  6.702234E+04  4.448844E+04
       126   3  2.545567E+05  9.555889E+05  2.484296E+05 -3.072482E+05  5.612135E+04 -2.684996E+04
       126   4  5.759149E+04 -9.762628E+04  6.817034E+04 -3.132893E+05  2.307145E+04  4.528681E+04
       126   5  1.521935E+03 -1.052433E+05  3.250598E+04 -2.250986E+05  6.706476E+04  2.823602E+04
       126   6 -1.281925E+03 -9.721030E+04  2.128911E+04 -3.133847E+05  5.603854E+04  1.111794E+04
       126   7 -4.357071E+05 -2.079743E+06 -4.131847E+05 -2.827721E+05  2.317637E+04 -2.501652E+04
       126   8 -3.684055E+05 -1.617598E+06 -3.029721E+05 -2.128833E+05  6.710661E+04  1.202266E+04
       126   9 -2.571925E+05 -1.148966E+06 -2.059113E+05 -3.195098E+05  5.595491E+04  4.902241E+04
       126  10  5.506029E+05  1.888084E+06  5.492343E+05 -3.439045E+05  1.184805E-09  1.563337E-10
       126  11  3.712900E+05  1.409247E+06  3.678309E+05 -2.373452E+05 -3.514405E-10 -1.709282E-09
       126  12  2.545531E+05  9.555873E+05  2.484223E+05 -3.072470E+05 -8.357126E-11 -2.165235E-09
       126  13  5.759037E+04 -9.762863E+04  6.816549E+04 -3.132901E+05 -2.365685E-10  7.457768E-12
       126  14  1.516891E+03 -1.052453E+05  3.249603E+04 -2.251001E+05 -6.640785E-11 -1.585743E-09
       126  15 -1.285331E+03 -9.721127E+04  2.128298E+04 -3.133852E+05 -2.075031E-10 -2.122134E-09
       126  16 -4.357079E+05 -2.079744E+06 -4.131869E+05 -2.827716E+05  1.252024E-09  5.333488E-10
       126  17 -3.684104E+05 -1.617599E+06 -3.029808E+05 -2.128839E+05  1.123778E-09 -7.146223E-11
       126  18 -2.571966E+05 -1.148970E+06 -2.059217E+05 -3.195120E+05 -1.622206E-09  9.302662E-10
       126  19  5.506071E+05  1.888098E+06  5.492605E+05 -3.439023E+05 -2.295982E+04 -1.158143E+05
       126  20  3.712954E+05  1.409251E+06  3.678431E+05 -2.373428E+05 -6.702234E+04 -4.448844E+04
       126  21  2.545567E+05  9.555889E+05  2.484296E+05 -3.072482E+05 -5.612135E+04  2.684996E+04
       126  22  5.759149E+04 -9.762628E+04  6.817034E+04 -3.132893E+05 -2.307145E+04 -4.528681E+04
       126  23  1.521935E+03 -1.052433E+05  3.250598E+04 -2.250986E+05 -6.706476E+04 -2.823602E+04
       126  24 -1.281925E+03 -9.721030E+04  2.128911E+04 -3.133847E+05 -5.603854E+04 -1.111794E+04
       126  25 -4.357071E+05 -2.079743E+06 -4.131847E+05 -2.827721E+05 -2.317637E+04  2.501652E+04
       126  26 -3.684055E+05 -1.617598E+06 -3.029721E+05 -2.128833E+05 -6.710661E+04 -1.202266E+04
       126  27 -2.571925E+05 -1.148966E+06 -2.059113E+05 -3.195098E+05 -5.595491E+04 -4.902241E+04
       127   1  1.708609E+05  5.858730E+05  1.671570E+05 -3.166167E+05  3.573900E+04 -1.524126E+04
       127   2  5.450386E+04  1.193192E+05  6.275717E+04 -2.248119E+05  1.202990E+04 -2.348764E+04
       127   3 -5.562810E+04 -3.452838E+05 -3.495480E+04 -3.119810E+05 -1.219308E+04 -3.173573E+04
       127   4  3.961693E+03 -1.001790E+05  1.856552E+04 -3.139155E+05  3.568335E+04  7.863041E+03
       127   5  9.632570E+02 -1.009783E+05  1.535184E+04 -2.244272E+05  1.197049E+04  1.198229E+02
       127   6  4.117089E+03 -1.001175E+05  1.848702E+04 -3.139153E+05 -1.225702E+04 -7.631069E+03
       127   7 -1.629683E+05 -7.857885E+05 -1.300519E+05 -3.112169E+05  3.562786E+04  3.094217E+04
       127   8 -5.258024E+04 -3.212290E+05 -3.205424E+04 -2.240427E+05  1.191110E+04  2.371903E+04
       127   9  6.385860E+04  1.451064E+05  7.192742E+04 -3.158503E+05 -1.232110E+04  1.648300E+04
       127  10  1.708595E+05  5.858725E+05  1.671541E+05 -3.166163E+05  1.743890E-10  3.869497E-09
       127  11  5.450356E+04  1.193185E+05  6.275587E+04 -2.248116E+05  1.703013E-09 -9.400954E-09
       127  12 -5.562853E+04 -3.452849E+05 -3.495697E+04 -3.119813E+05  2.130572E-09 -1.663142E-08
       127  13  3.960309E+03 -1.001794E+05  1.856301E+04 -3.139157E+05  2.425422E-09  3.192681E-11
       127  14  9.631032E+02 -1.009783E+05  1.535157E+04 -2.244272E+05  3.964825E-10 -2.353043E-09
       127  15  4.116912E+03 -1.001176E+05  1.848663E+04 -3.139154E+05  8.648993E-10 -2.436178E-09
       127  16 -1.629700E+05 -7.857898E+05 -1.300561E+05 -3.112178E+05 -7.733018E-10 -2.294366E-09
       127  17 -5.258054E+04 -3.212296E+05 -3.205556E+04 -2.240430E+05 -3.910296E-10  6.748430E-09
       127  18  6.385836E+04  1.451060E+05  7.192662E+04 -3.158502E+05  1.309853E-09  1.530325E-08
       127  19  1.708609E+05  5.858730E+05  1.671570E+05 -3.166167E+05 -3.573900E+04  1.524126E+04
       127  20  5.450386E+04  1.193192E+05  6.275717E+04 -2.248119E+05 -1.202990E+04  2.348764E+04
       127  21 -5.562810E+04 -3.452838E+05 -3.495480E+04 -3.119810E+05  1.219308E+04  3.173573E+04
       127  22  3.961693E+03 -1.001790E+05  1.856552E+04 -3.139155E+05 -3.568335E+04 -7.863041E+03
       127  23  9.632570E+02 -1.009783E+05  1.535184E+04 -2.244272E+05 -1.197049E+04 -1.198229E+02
       127  24  4.117089E+03 -1.001175E+05  1.848702E+04 -3.139153E+05  1.225702E+04  7.631069E+03
       127  25 -1.629683E+05 -7.857885E+05 -1.300519E+05 -3.112169E+05 -3.562786E+04 -3.094217E+04
       127  26 -5.258024E+04 -3.212290E+05 -3.205424E+04 -2.240427E+05 -1.191110E+04 -2.371903E+04
       127  27  6.385860E+04  1.451064E+05  7.192742E+04 -3.158503E+05  1.232110E+04 -1.648300E+04
       128   1 -1.497695E+05 -7.084408E+05 -1.113231E+05 -3.201749E+05 -3.171832E+04 -4.652574E+04
       128   2 -2.606742E+05 -1.177764E+06 -2.065436E+05 -2.131070E+05 -4.616873E+04 -2.046863E+04
       128   3 -3.263771E+05 -1.639348E+06 -3.075629E+05 -2.830876E+05 -1.680100E+04  5.643195E+03
       128   4 -1.017295E+03 -9.722563E+04  2.114401E+04 -3.135090E+05 -3.180904E+04 -1.086780E+04
       128   5  1.892521E+03 -1.048655E+05  3.228741E+04 -2.249431E+05 -4.614639E+04 -2.788972E+04
       128   6  5.745324E+04 -9.752013E+04  6.755244E+04 -3.133934E+05 -1.670118E+04 -4.483736E+04
       128   7  1.477111E+05  5.143432E+05  1.535937E+05 -3.068362E+05 -3.189893E+04  2.482481E+04
       128   8  2.643817E+05  9.691081E+05  2.710468E+05 -2.367993E+05 -4.612378E+04 -3.532348E+04
       128   9  4.411131E+05  1.446488E+06  4.425055E+05 -3.437732E+05 -1.659658E+04 -9.544308E+04
       128  10 -1.497712E+05 -7.084434E+05 -1.113290E+05 -3.201761E+05  7.102726E-10  1.441630E-08
       128  11 -2.606766E+05 -1.177765E+06 -2.065484E+05 -2.131077E+05 -5.052049E-10  5.646427E-09
       128  12 -3.263774E+05 -1.639348E+06 -3.075635E+05 -2.830875E+05 -2.961200E-10 -2.682137E-09
       128  13 -1.018413E+03 -9.722603E+04  2.114189E+04 -3.135093E+05  7.766513E-11  3.457738E-11
       128  14  1.890025E+03 -1.048669E+05  3.228194E+04 -2.249442E+05 -1.580453E-09 -2.047595E-09
       128  15  5.745240E+04 -9.752237E+04  6.754813E+04 -3.133940E+05  8.923660E-11 -1.611203E-09
       128  16  1.477098E+05  5.143423E+05  1.535906E+05 -3.068356E+05  1.330154E-09 -1.270683E-08
       128  17  2.643791E+05  9.691061E+05  2.710404E+05 -2.368006E+05 -3.266365E-10 -7.865765E-09
       128  18  4.411103E+05  1.446478E+06  4.424879E+05 -3.437745E+05 -3.867613E-10  1.657626E-09
       128  19 -1.497695E+05 -7.084408E+05 -1.113231E+05 -3.201749E+05  3.171832E+04  4.652574E+04
       128  20 -2.606742E+05 -1.177764E+06 -2.065436E+05 -2.131070E+05  4.616873E+04  2.046863E+04
       128  21 -3.263771E+05 -1.639348E+06 -3.075629E+05 -2.830876E+05  1.680100E+04 -5.643195E+03
       128  22 -1.017295E+03 -9.722563E+04  2.114401E+04 -3.135090E+05  3.180904E+04  1.086780E+04
       128  23  1.892521E+03 -1.048655E+05  3.228741E+04 -2.249431E+05  4.614639E+04  2.788972E+04
       128  24  5.745324E+04 -9.752013E+04  6.755244E+04 -3.133934E+05  1.670118E+04  4.483736E+04
       128  25  1.477111E+05  5.143432E+05  1.535937E+05 -3.068362E+05  3.189893E+04 -2.482481E+04
       128  26  2.643817E+05  9.691081E+05  2.710468E+05 -2.367993E+05  4.612378E+04  3.532348E+04
       128  27  4.411131E+05  1.446488E+06  4.425055E+05 -3.437732E+05  1.659658E+04  9.544308E+04
       129   1 -1.583520E+06 -5.507974E+05 -3.127563E+05 -5.927871E+05 -1.370347E+05 -4.327622E+04
       129   2 -1.533300E+06 -3.585888E+05 -1.879229E+05 -5.790513E+05 -8.784918E+04 -7.361518E+03
       129   3 -1.525625E+06 -3.130968E+05 -1.401796E+05 -5.484865E+05 -3.317914E+04  1.397709E+04
       129   4 -1.124381E+06 -3.134286E+05 -1.779725E+05 -4.013076E+05 -1.163353E+05 -3.551690E+04
       129   5 -1.094716E+06 -1.727272E+05 -7.761126E+04 -4.354966E+05 -8.052735E+04 -4.616968E+03
       129   6 -1.104903E+06 -1.760380E+05 -4.368509E+04 -4.528695E+05 -3.923980E+04  1.170174E+04
       129   7 -6.650257E+05 -7.598508E+04 -4.320728E+04 -2.096817E+05 -9.561925E+04 -2.774587E+04
       129   8 -6.559382E+05  1.316434E+04  3.268557E+04 -2.918436E+05 -7.319986E+04 -1.869619E+03
       129   9 -6.840029E+05 -3.897522E+04  5.279864E+04 -3.571971E+05 -4.530496E+04  9.425168E+03
       129  10 -1.583541E+06 -5.508044E+05 -3.127952E+05 -5.927919E+05  2.825045E-10 -4.141832E-14
       129  11 -1.533308E+06 -3.585909E+05 -1.879376E+05 -5.790518E+05  1.453776E-09 -2.157513E-10
       129  12 -1.525626E+06 -3.130973E+05 -1.401821E+05 -5.484862E+05 -3.430302E-10  8.495950E-10
       129  13 -1.124396E+06 -3.134336E+05 -1.780004E+05 -4.013109E+05  9.845678E-10 -4.373814E-11
       129  14 -1.094723E+06 -1.727290E+05 -7.762351E+04 -4.354969E+05 -1.709861E-09 -5.602377E-10
       129  15 -1.104905E+06 -1.760385E+05 -4.368825E+04 -4.528691E+05  4.872640E-10  9.322516E-10
       129  16 -6.650357E+05 -7.598837E+04 -4.322593E+04 -2.096838E+05 -5.988621E-10  4.908363E-11
       129  17 -6.559439E+05  1.316290E+04  3.267549E+04 -2.918437E+05  2.023259E-10  1.582020E-10
       129  18 -6.840051E+05 -3.897587E+04  5.279462E+04 -3.571968E+05 -4.608800E-10  1.103754E-09
       129  19 -1.583520E+06 -5.507974E+05 -3.127563E+05 -5.927871E+05  1.370347E+05  4.327622E+04
       129  20 -1.533300E+06 -3.585888E+05 -1.879229E+05 -5.790513E+05  8.784918E+04  7.361518E+03
       129  21 -1.525625E+06 -3.130968E+05 -1.401796E+05 -5.484865E+05  3.317914E+04 -1.397709E+04
       129  22 -1.124381E+06 -3.134286E+05 -1.779725E+05 -4.013076E+05  1.163353E+05  3.551690E+04
       129  23 -1.094716E+06 -1.727272E+05 -7.761126E+04 -4.354966E+05  8.052735E+04  4.616968E+03
       129  24 -1.104903E+06 -1.760380E+05 -4.368509E+04 -4.528695E+05  3.923980E+04 -1.170174E+04
       129  25 -6.650257E+05 -7.598508E+04 -4.320728E+04 -2.096817E+05  9.561925E+04  2.774587E+04
       129  26 -6.559382E+05  1.316434E+04  3.268557E+04 -2.918436E+05  7.319986E+04  1.869619E+03
       129  27 -6.840029E+05 -3.897522E+04  5.279864E+04 -3.571971E+05  4.530496E+04 -9.425168E+03
       130   1 -1.463203E+06 -3.264752E+05 -1.217975E+05 -5.477777E+05 -3.079661E+04  1.137114E+04
       130   2 -1.419469E+06 -2.913635E+05 -9.284085E+04 -5.260173E+05 -2.030450E+04  1.270829E+04
       130   3 -1.364819E+06 -2.787957E+05 -7.309262E+04 -5.197962E+05 -9.563278E+03  1.338031E+04
       130   4 -1.099182E+06 -1.885892E+05 -3.448010E+04 -4.452018E+05 -3.259669E+04  1.069441E+04
       130   5 -1.104162E+06 -1.736230E+05 -1.781920E+04 -4.388367E+05 -2.271088E+04  1.180469E+04
       130   6 -1.098105E+06 -1.810770E+05 -9.881034E+03 -4.480114E+05 -1.257688E+04  1.224965E+04
       130   7 -7.350285E+05 -5.069239E+04  5.282768E+04 -3.425704E+05 -3.439791E+04  1.001723E+04
       130   8 -7.887561E+05 -5.587545E+04  5.719510E+04 -3.516159E+05 -2.511859E+04  1.090060E+04
       130   9 -8.313217E+05 -8.335418E+04  5.332512E+04 -3.761991E+05 -1.559188E+04  1.111848E+04
       130  10 -1.463204E+06 -3.264756E+05 -1.217996E+05 -5.477774E+05  5.343395E-10  1.540488E-09
       130  11 -1.419470E+06 -2.913637E+05 -9.284193E+04 -5.260170E+05 -2.834996E-09  2.489385E-10
       130  12 -1.364819E+06 -2.787960E+05 -7.309313E+04 -5.197961E+05 -5.762615E-11 -3.444504E-10
       130  13 -1.099183E+06 -1.885896E+05 -3.448232E+04 -4.452015E+05 -3.177945E-10  9.920852E-10
       130  14 -1.104162E+06 -1.736233E+05 -1.782043E+04 -4.388365E+05  1.591813E-09  1.767362E-10
       130  15 -1.098105E+06 -1.810772E+05 -9.881614E+03 -4.480113E+05  7.150007E-10 -1.209481E-10
       130  16 -7.350298E+05 -5.069282E+04  5.282527E+04 -3.425702E+05 -1.722488E-09  3.829708E-10
       130  17 -7.887568E+05 -5.587574E+04  5.719369E+04 -3.516157E+05  2.119688E-09  1.771876E-10
       130  18 -8.313220E+05 -8.335437E+04  5.332443E+04 -3.761990E+05  1.603744E-09  4.108261E-10
       130  19 -1.463203E+06 -3.264752E+05 -1.217975E+05 -5.477777E+05  3.079661E+04 -1.137114E+04
       130  20 -1.419469E+06 -2.913635E+05 -9.284085E+04 -5.260173E+05  2.030450E+04 -1.270829E+04
       130  21 -1.364819E+06 -2.787957E+05 -7.309262E+04 -5.197962E+05  9.563278E+03 -1.338031E+04
       130  22 -1.099182E+06 -1.885892E+05 -3.448010E+04 -4.452018E+05  3.259669E+04 -1.069441E+04
       130  23 -1.104162E+06 -1.736230E+05 -1.781920E+04 -4.388367E+05  2.271088E+04 -1.180469E+04
       130  24 -1.098105E+06 -1.810770E+05 -9.881034E+03 -4.480114E+05  1.257688E+04 -1.224965E+04
       130  25 -7.350285E+05 -5.069239E+04  5.282768E+04 -3.425704E+05  3.439791E+04 -1.001723E+04
       130  26 -7.887561E+05 -5.587545E+04  5.719510E+04 -3.516159E+05  2.511859E+04 -1.090060E+04
       130  27 -8.313217E+05 -8.335418E+04  5.332512E+04 -3.761991E+05  1.559188E+04 -1.111848E+04
       131   1 -1.322417E+06 -2.651043E+05 -6.068158E+04 -5.091607E+05 -7.650451E+03  1.195892E+04
       131   2 -1.279167E+06 -2.383683E+05 -4.542825E+04 -4.866810E+05 -4.403697E+03  9.645711E+03
       131   3 -1.221236E+06 -2.271917E+05 -3.184086E+04 -4.814847E+05 -1.143925E+03  7.296099E+03
       131   4 -1.097602E+06 -1.817596E+05 -7.509099E+03 -4.475690E+05 -1.048171E+04  1.089694E+04
       131   5 -1.104913E+06 -1.737949E+05 -4.108386E+03 -4.389957E+05 -7.267754E+03  8.571794E+03
       131   6 -1.097541E+06 -1.813833E+05 -2.347314E+03 -4.477068E+05 -4.040972E+03  6.210189E+03
       131   7 -8.727354E+05 -9.841091E+04  4.566017E+04 -3.859567E+05 -1.331411E+04  9.834544E+03
       131   8 -9.306291E+05 -1.092193E+05  3.720948E+04 -3.912981E+05 -1.013269E+04  7.497547E+03
       131   9 -9.738311E+05 -1.355739E+05  2.714517E+04 -4.139227E+05 -6.938648E+03  5.124044E+03
       131  10 -1.322417E+06 -2.651044E+05 -6.068196E+04 -5.091606E+05  1.783536E-09 -4.103568E-10
       131  11 -1.279167E+06 -2.383684E+05 -4.542846E+04 -4.866809E+05 -1.397678E-10 -9.991234E-10
       131  12 -1.221237E+06 -2.271918E+05 -3.184096E+04 -4.814847E+05  1.902558E-09 -9.461326E-10
       131  13 -1.097602E+06 -1.817598E+05 -7.509528E+03 -4.475689E+05  6.408433E-11 -2.518373E-10
       131  14 -1.104913E+06 -1.737950E+05 -4.108623E+03 -4.389957E+05  1.390110E-09 -3.968518E-10
       131  15 -1.097541E+06 -1.813834E+05 -2.347417E+03 -4.477068E+05 -4.770836E-10 -1.080674E-09
       131  16 -8.727356E+05 -9.841106E+04  4.565966E+04 -3.859566E+05 -2.317614E-10 -1.347864E-10
       131  17 -9.306293E+05 -1.092194E+05  3.720918E+04 -3.912981E+05 -7.675462E-11 -7.742522E-10
       131  18 -9.738312E+05 -1.355739E+05  2.714503E+04 -4.139227E+05 -9.124900E-10 -7.054628E-10
       131  19 -1.322417E+06 -2.651043E+05 -6.068158E+04 -5.091607E+05  7.650451E+03 -1.195892E+04
       131  20 -1.279167E+06 -2.383683E+05 -4.542825E+04 -4.866810E+05  4.403697E+03 -9.645711E+03
       131  21 -1.221236E+06 -2.271917E+05 -3.184086E+04 -4.814847E+05  1.143925E+03 -7.296099E+03
       131  22 -1.097602E+06 -1.817596E+05 -7.509099E+03 -4.475690E+05  1.048171E+04 -1.089694E+04
       131  23 -1.104913E+06 -1.737949E+05 -4.108386E+03 -4.389957E+05  7.267754E+03 -8.571794E+03
       131  24 -1.097541E+06 -1.813833E+05 -2.347314E+03 -4.477068E+05  4.040972E+03 -6.210189E+03
       131  25 -8.727354E+05 -9.841091E+04  4.566017E+04 -3.859567E+05  1.331411E+04 -9.834544E+03
       131  26 -9.306291E+05 -1.092193E+05  3.720948E+04 -3.912981E+05  1.013269E+04 -7.497547E+03
       131  27 -9.738311E+05 -1.355739E+05  2.714517E+04 -4.139227E+05  6.938648E+03 -5.124044E+03
       132   1 -1.179851E+06 -2.119111E+05 -2.118879E+04 -4.702358E+05 -1.165163E+02  5.590745E+03
       132   2 -1.136570E+06 -1.855066E+05 -8.688960E+03 -4.476207E+05  1.665821E+03  2.671097E+03
       132   3 -1.078220E+06 -1.742968E+05  3.354186E+03 -4.424017E+05  3.449064E+03 -2.513384E+02
       132   4 -1.097471E+06 -1.814214E+05 -1.832367E+03 -4.476867E+05 -3.008938E+03  4.506706E+03
       132   5 -1.105003E+06 -1.738177E+05 -1.206224E+03 -4.389904E+05 -1.229197E+03  1.586154E+03
       132   6 -1.097468E+06 -1.814083E+05 -1.034710E+03 -4.476912E+05  5.513890E+02 -1.337190E+03
       132   7 -1.015083E+06 -1.509313E+05  1.752357E+04 -4.251350E+05 -5.901772E+03  3.422514E+03
       132   8 -1.073434E+06 -1.621288E+05  6.276425E+03 -4.303598E+05 -4.124357E+03  5.011577E+02
       132   9 -1.116715E+06 -1.885198E+05 -5.423541E+03 -4.529806E+05 -2.346160E+03 -2.422993E+03
       132  10 -1.179851E+06 -2.119112E+05 -2.118884E+04 -4.702358E+05 -1.606906E-09 -1.399570E-09
       132  11 -1.136570E+06 -1.855067E+05 -8.688978E+03 -4.476207E+05  6.891528E-09  2.014798E-09
       132  12 -1.078220E+06 -1.742968E+05  3.354164E+03 -4.424017E+05  1.333803E-08  8.235435E-09
       132  13 -1.097471E+06 -1.814214E+05 -1.832422E+03 -4.476867E+05 -6.063415E-11 -1.287188E-09
       132  14 -1.105003E+06 -1.738177E+05 -1.206231E+03 -4.389904E+05  8.032353E-10 -7.409288E-10
       132  15 -1.097468E+06 -1.814083E+05 -1.034714E+03 -4.476912E+05  2.943158E-09  2.750356E-09
       132  16 -1.015084E+06 -1.509313E+05  1.752348E+04 -4.251349E+05 -9.855684E-10 -7.905152E-10
       132  17 -1.073434E+06 -1.621288E+05  6.276392E+03 -4.303598E+05 -6.883504E-09 -3.986958E-09
       132  18 -1.116715E+06 -1.885198E+05 -5.423563E+03 -4.529806E+05 -1.161504E-08 -2.871066E-09
       132  19 -1.179851E+06 -2.119111E+05 -2.118879E+04 -4.702358E+05  1.165163E+02 -5.590745E+03
       132  20 -1.136570E+06 -1.855066E+05 -8.688960E+03 -4.476207E+05 -1.665821E+03 -2.671097E+03
       132  21 -1.078220E+06 -1.742968E+05  3.354186E+03 -4.424017E+05 -3.449064E+03  2.513384E+02
       132  22 -1.097471E+06 -1.814214E+05 -1.832367E+03 -4.476867E+05  3.008938E+03 -4.506706E+03
       132  23 -1.105003E+06 -1.738177E+05 -1.206224E+03 -4.389904E+05  1.229197E+03 -1.586154E+03
       132  24 -1.097468E+06 -1.814083E+05 -1.034710E+03 -4.476912E+05 -5.513890E+02  1.337190E+03
       132  25 -1.015083E+06 -1.509313E+05  1.752357E+04 -4.251350E+05  5.901772E+03 -3.422514E+03
       132  26 -1.073434E+06 -1.621288E+05  6.276425E+03 -4.303598E+05  4.124357E+03 -5.011577E+02
       132  27 -1.116715E+06 -1.885198E+05 -5.423541E+03 -4.529806E+05  2.346160E+03  2.422993E+03
       133   1 -1.036887E+06 -1.589051E+05  1.345735E+04 -4.310983E+05  4.310879E+03 -2.018826E+03
       133   2 -9.936654E+05 -1.325558E+05  2.489821E+04 -4.085103E+05  6.228935E+03 -4.886461E+03
       133   3 -9.354141E+05 -1.213873E+05  3.578018E+04 -4.032930E+05  8.145186E+03 -7.747551E+03
       133   4 -1.097477E+06 -1.814039E+05 -1.086127E+03 -4.476865E+05  1.414589E+03 -3.104211E+03
       133   5 -1.104994E+06 -1.738241E+05 -1.496181E+03 -4.389971E+05  3.338339E+03 -5.969975E+03
       133   6 -1.097484E+06 -1.814266E+05 -2.469362E+03 -4.476795E+05  5.260210E+03 -8.829202E+03
       133   7 -1.158064E+06 -2.039026E+05 -1.563003E+04 -4.642735E+05 -1.481427E+03 -4.189495E+03
       133   8 -1.216311E+06 -2.150919E+05 -2.789170E+04 -4.694792E+05  4.482803E+02 -7.053288E+03
       133   9 -1.259528E+06 -2.414644E+05 -4.072102E+04 -4.920559E+05  2.376035E+03 -9.910555E+03
       133  10 -1.036887E+06 -1.589052E+05  1.345731E+04 -4.310983E+05  8.360084E-09  7.328027E-09
       133  11 -9.936654E+05 -1.325559E+05  2.489809E+04 -4.085103E+05 -8.770838E-09 -2.693576E-09
       133  12 -9.354142E+05 -1.213874E+05  3.577994E+04 -4.032929E+05 -2.960875E-08 -1.355764E-08
       133  13 -1.097477E+06 -1.814039E+05 -1.086148E+03 -4.476865E+05  9.370791E-10  4.356961E-09
       133  14 -1.104994E+06 -1.738242E+05 -1.496269E+03 -4.389971E+05  3.732034E-10  2.921821E-09
       133  15 -1.097484E+06 -1.814267E+05 -2.469560E+03 -4.476795E+05 -9.771465E-10 -1.977516E-09
       133  16 -1.158064E+06 -2.039027E+05 -1.563007E+04 -4.642735E+05 -4.871741E-09  1.566602E-09
       133  17 -1.216311E+06 -2.150920E+05 -2.789180E+04 -4.694792E+05  1.234182E-08  7.974456E-09
       133  18 -1.259528E+06 -2.414645E+05 -4.072121E+04 -4.920558E+05  2.400096E-08  9.325212E-09
       133  19 -1.036887E+06 -1.589051E+05  1.345735E+04 -4.310983E+05 -4.310879E+03  2.018826E+03
       133  20 -9.936654E+05 -1.325558E+05  2.489821E+04 -4.085103E+05 -6.228935E+03  4.886461E+03
       133  21 -9.354141E+05 -1.213873E+05  3.578018E+04 -4.032930E+05 -8.145186E+03  7.747551E+03
       133  22 -1.097477E+06 -1.814039E+05 -1.086127E+03 -4.476865E+05 -1.414589E+03  3.104211E+03
       133  23 -1.104994E+06 -1.738241E+05 -1.496181E+03 -4.389971E+05 -3.338339E+03  5.969975E+03
       133  24 -1.097484E+06 -1.814266E+05 -2.469362E+03 -4.476795E+05 -5.260210E+03  8.829202E+03
       133  25 -1.158064E+06 -2.039026E+05 -1.563003E+04 -4.642735E+05  1.481427E+03  4.189495E+03
       133  26 -1.216311E+06 -2.150919E+05 -2.789170E+04 -4.694792E+05 -4.482803E+02  7.053288E+03
       133  27 -1.259528E+06 -2.414644E+05 -4.072102E+04 -4.920559E+05 -2.376035E+03  9.910555E+03
       134   1 -8.943130E+05 -1.060771E+05  4.512955E+04 -3.921391E+05  9.303626E+03 -9.397158E+03
       134   2 -8.512554E+05 -7.981268E+04  5.438045E+04 -3.695788E+05  1.330258E+04 -1.145223E+04
       134   3 -7.937344E+05 -6.920738E+04  6.137189E+04 -3.642046E+05  1.728645E+04 -1.346297E+04
       134   4 -1.097593E+06 -1.813687E+05 -3.223132E+03 -4.477027E+05  6.415254E+03 -1.048032E+04
       134   5 -1.104861E+06 -1.737997E+05 -5.741916E+03 -4.390118E+05  1.045341E+04 -1.252123E+04
       134   6 -1.097677E+06 -1.818985E+05 -1.055207E+04 -4.475082E+05  1.447625E+04 -1.451787E+04
       134   7 -1.300829E+06 -2.566566E+05 -5.157818E+04 -5.032492E+05  3.527942E+03 -1.156309E+04
       134   8 -1.358401E+06 -2.677819E+05 -6.586861E+04 -5.084187E+05  7.605522E+03 -1.358974E+04
       134   9 -1.401528E+06 -2.945835E+05 -8.248285E+04 -5.307750E+05  1.166754E+04 -1.557222E+04
       134  10 -8.943131E+05 -1.060772E+05  4.512922E+04 -3.921390E+05  7.524708E-09 -2.795222E-10
       134  11 -8.512556E+05 -7.981287E+04  5.437987E+04 -3.695787E+05  2.217374E-09 -2.285061E-10
       134  12 -7.937348E+05 -6.920765E+04  6.137099E+04 -3.642044E+05 -6.567833E-09 -1.320614E-09
       134  13 -1.097593E+06 -1.813688E+05 -3.223415E+03 -4.477027E+05 -5.156656E-09 -4.207218E-09
       134  14 -1.104861E+06 -1.737999E+05 -5.742416E+03 -4.390117E+05 -1.662410E-09 -2.173247E-09
       134  15 -1.097677E+06 -1.818988E+05 -1.055286E+04 -4.475080E+05 -2.207686E-09 -1.247666E-10
       134  16 -1.300829E+06 -2.566567E+05 -5.157846E+04 -5.032492E+05 -1.662418E-08 -7.778566E-09
       134  17 -1.358401E+06 -2.677821E+05 -6.586906E+04 -5.084186E+05 -9.470333E-09 -5.105728E-09
       134  18 -1.401528E+06 -2.945838E+05 -8.248356E+04 -5.307748E+05  4.530559E-09  1.334376E-09
       134  19 -8.943130E+05 -1.060771E+05  4.512955E+04 -3.921391E+05 -9.303626E+03  9.397158E+03
       134  20 -8.512554E+05 -7.981268E+04  5.438045E+04 -3.695788E+05 -1.330258E+04  1.145223E+04
       134  21 -7.937344E+05 -6.920738E+04  6.137189E+04 -3.642046E+05 -1.728645E+04  1.346297E+04
       134  22 -1.097593E+06 -1.813687E+05 -3.223132E+03 -4.477027E+05 -6.415254E+03  1.048032E+04
       134  23 -1.104861E+06 -1.737997E+05 -5.741916E+03 -4.390118E+05 -1.045341E+04  1.252123E+04
       134  24 -1.097677E+06 -1.818985E+05 -1.055207E+04 -4.475082E+05 -1.447625E+04  1.451787E+04
       134  25 -1.300829E+06 -2.566566E+05 -5.157818E+04 -5.032492E+05 -3.527942E+03  1.156309E+04
       134  26 -1.358401E+06 -2.677819E+05 -6.586861E+04 -5.084187E+05 -7.605522E+03  1.358974E+04
       134  27 -1.401528E+06 -2.945835E+05 -8.248285E+04 -5.307750E+05 -1.166754E+04  1.557222E+04
       135   1 -7.524183E+05 -5.433715E+04  6.799104E+04 -3.551192E+05  2.015399E+04 -1.452166E+04
       135   2 -7.102045E+05 -2.645855E+04  6.853436E+04 -3.297723E+05  3.325956E+04 -1.290453E+04
       135   3 -6.585243E+05 -2.380366E+04  5.735019E+04 -3.191848E+05  4.608076E+04 -1.052286E+04
       135   4 -1.098385E+06 -1.809429E+05 -1.390043E+04 -4.481394E+05  1.713579E+04 -1.565498E+04
       135   5 -1.103803E+06 -1.735464E+05 -2.508836E+04 -4.387798E+05  3.093633E+04 -1.377793E+04
       135   6 -1.099899E+06 -1.915171E+05 -4.856107E+04 -4.441808E+05  4.445147E+04 -1.113658E+04
       135   7 -1.444230E+06 -3.075404E+05 -9.579986E+04 -5.411122E+05  1.411944E+04 -1.678762E+04
       135   8 -1.497247E+06 -3.206227E+05 -1.187222E+05 -5.477240E+05  2.861470E+04 -1.465072E+04
       135   9 -1.541082E+06 -3.592152E+05 -1.544872E+05 -5.690956E+05  4.282343E+04 -1.174981E+04
       135  10 -7.524188E+05 -5.433748E+04  6.798988E+04 -3.551190E+05  1.051159E-09  1.406729E-09
       135  11 -7.102057E+05 -2.645902E+04  6.853197E+04 -3.297719E+05  7.850162E-10 -1.782822E-10
       135  12 -6.585266E+05 -2.380435E+04  5.734599E+04 -3.191844E+05 -1.136967E-09 -3.953979E-10
       135  13 -1.098385E+06 -1.809433E+05 -1.390144E+04 -4.481392E+05 -3.831380E-10  6.680648E-10
       135  14 -1.103804E+06 -1.735469E+05 -2.509051E+04 -4.387794E+05  5.588250E-10  2.628583E-10
       135  15 -1.099901E+06 -1.915177E+05 -4.856502E+04 -4.441804E+05  6.124237E-10 -3.574040E-10
       135  16 -1.444230E+06 -3.075407E+05 -9.580077E+04 -5.411120E+05 -7.865835E-10 -2.383917E-11
       135  17 -1.497248E+06 -3.206231E+05 -1.187241E+05 -5.477237E+05  3.512158E-10 -2.721803E-10
       135  18 -1.541084E+06 -3.592158E+05 -1.544909E+05 -5.690952E+05  7.866642E-10 -2.190420E-10
       135  19 -7.524183E+05 -5.433715E+04  6.799104E+04 -3.551192E+05 -2.015399E+04  1.452166E+04
       135  20 -7.102045E+05 -2.645855E+04  6.853436E+04 -3.297723E+05 -3.325956E+04  1.290453E+04
       135  21 -6.585243E+05 -2.380366E+04  5.735019E+04 -3.191848E+05 -4.608076E+04  1.052286E+04
       135  22 -1.098385E+06 -1.809429E+05 -1.390043E+04 -4.481394E+05 -1.713579E+04  1.565498E+04
       135  23 -1.103803E+06 -1.735464E+05 -2.508836E+04 -4.387798E+05 -3.093633E+04  1.377793E+04
       135  24 -1.099899E+06 -1.915171E+05 -4.856107E+04 -4.441808E+05 -4.445147E+04  1.113658E+04
       135  25 -1.444230E+06 -3.075404E+05 -9.579986E+04 -5.411122E+05 -1.411944E+04  1.678762E+04
       135  26 -1.497247E+06 -3.206227E+05 -1.187222E+05 -5.477240E+05 -2.861470E+04  1.465072E+04
       135  27 -1.541082E+06 -3.592152E+05 -1.544872E+05 -5.690956E+05 -4.282343E+04  1.174981E+04
       136   1 -6.036094E+05 -1.364836E+04  5.335534E+04 -3.444941E+05  5.991629E+04 -9.021584E+03
       136   2 -5.815219E+05  4.912168E+04  1.959100E+04 -2.614877E+05  1.026206E+05  8.517792E+03
       136   3 -6.185528E+05 -8.173632E+04 -9.553419E+04 -1.478500E+05  1.390464E+05  4.276914E+04
       136   4 -1.107916E+06 -1.738799E+05 -6.152820E+04 -4.550298E+05  5.340073E+04 -1.146825E+04
       136   5 -1.090536E+06 -1.722255E+05 -1.093071E+05 -4.340196E+05  1.114394E+05  1.182426E+04
       136   6 -1.135387E+06 -3.673519E+05 -2.506638E+05 -3.823654E+05  1.631939E+05  5.182414E+04
       136   7 -1.611972E+06 -3.341092E+05 -1.764282E+05 -5.654913E+05  4.689091E+04 -1.391349E+04
       136   8 -1.599285E+06 -3.935243E+05 -2.382238E+05 -6.064113E+05  1.202502E+05  1.512658E+04
       136   9 -1.651927E+06 -6.528363E+05 -4.058117E+05 -6.166679E+05  1.873188E+05  6.086173E+04
       136  10 -6.036133E+05 -1.364942E+04  5.334844E+04 -3.444937E+05 -1.876860E-10  3.062506E-10
       136  11 -5.815332E+05  4.911877E+04  1.957106E+04 -2.614884E+05  2.005259E-09  6.117397E-10
       136  12 -6.185741E+05 -8.174349E+04 -9.557400E+04 -1.478548E+05  1.890988E-09  1.043031E-09
       136  13 -1.107919E+06 -1.738808E+05 -6.153381E+04 -4.550293E+05 -1.401813E-10 -1.175028E-10
       136  14 -1.090550E+06 -1.722290E+05 -1.093307E+05 -4.340206E+05  3.930202E-11  6.919656E-10
       136  15 -1.135417E+06 -3.673620E+05 -2.507190E+05 -3.823722E+05 -1.005586E-09  1.981148E-10
       136  16 -1.611974E+06 -3.341100E+05 -1.764327E+05 -5.654908E+05  2.005552E-09  1.718174E-11
       136  17 -1.599301E+06 -3.935285E+05 -2.382515E+05 -6.064127E+05  9.537140E-10  5.291338E-10
       136  18 -1.651966E+06 -6.528497E+05 -4.058849E+05 -6.166771E+05 -3.167920E-10 -4.307180E-10
       136  19 -6.036094E+05 -1.364836E+04  5.335534E+04 -3.444941E+05 -5.991629E+04  9.021584E+03
       136  20 -5.815219E+05  4.912168E+04  1.959100E+04 -2.614877E+05 -1.026206E+05 -8.517792E+03
       136  21 -6.185528E+05 -8.173632E+04 -9.553419E+04 -1.478500E+05 -1.390464E+05 -4.276914E+04
       136  22 -1.107916E+06 -1.738799E+05 -6.152820E+04 -4.550298E+05 -5.340073E+04  1.146825E+04
       136  23 -1.090536E+06 -1.722255E+05 -1.093071E+05 -4.340196E+05 -1.114394E+05 -1.182426E+04
       136  24 -1.135387E+06 -3.673519E+05 -2.506638E+05 -3.823654E+05 -1.631939E+05 -5.182414E+04
       136  25 -1.611972E+06 -3.341092E+05 -1.764282E+05 -5.654913E+05 -4.689091E+04  1.391349E+04
       136  26 -1.599285E+06 -3.935243E+05 -2.382238E+05 -6.064113E+05 -1.202502E+05 -1.512658E+04
       136  27 -1.651927E+06 -6.528363E+05 -4.058117E+05 -6.166679E+05 -1.873188E+05 -6.086173E+04
       137   1 -9.164686E+04 -2.135782E+04 -1.004200E+04  7.772545E+03  2.855347E+04  3.819847E+03
       137   2 -7.274016E+04 -6.212380E+04 -3.012570E+04 -3.252411E+03  2.171235E+04  1.205805E+04
       137   3 -4.200694E+04 -5.928013E+04 -3.484760E+04 -2.345888E+04  1.487470E+04  1.281854E+04
       137   4  1.927385E+05  4.921421E+04  5.860743E+04 -1.655306E+04  4.035424E+04  3.824661E+03
       137   5  1.861937E+05  1.052879E+03  2.688349E+04 -1.195110E+04  2.615039E+04  1.205931E+04
       137   6  1.927468E+05 -2.231628E+03  1.562853E+04 -1.652990E+04  1.195037E+04  1.281731E+04
       137   7  4.771994E+05  1.197826E+05  1.272519E+05 -4.088986E+04  5.216039E+04  3.828550E+03
       137   8  4.451905E+05  6.422536E+04  8.388868E+04 -2.065347E+04  3.059025E+04  1.206045E+04
       137   9  4.275524E+05  5.481344E+04  6.610149E+04 -9.598269E+03  9.024954E+03  1.281602E+04
       137  10 -9.164774E+04 -2.135806E+04 -1.004356E+04  7.772457E+03  6.258017E-10 -5.606195E-10
       137  11 -7.274070E+04 -6.212408E+04 -3.012686E+04 -3.252621E+03  1.402519E-10  2.935780E-11
       137  12 -4.200722E+04 -5.928037E+04 -3.484832E+04 -2.345903E+04 -4.746110E-10 -4.647215E-10
       137  13  1.927368E+05  4.921375E+04  5.860434E+04 -1.655319E+04 -1.006559E-09  3.379721E-10
       137  14  1.861930E+05  1.052540E+03  2.688193E+04 -1.195136E+04  6.039185E-10 -4.162955E-11
       137  15  1.927466E+05 -2.231843E+03  1.562796E+04 -1.653002E+04 -3.479228E-10 -4.597657E-10
       137  16  4.771965E+05  1.197819E+05  1.272468E+05 -4.089002E+04 -1.585451E-09  3.503372E-10
       137  17  4.451895E+05  6.422495E+04  8.388665E+04 -2.065377E+04  2.333310E-10  1.507712E-10
       137  18  4.275523E+05  5.481324E+04  6.610103E+04 -9.598363E+03 -1.930492E-10  7.452341E-10
       137  19 -9.164686E+04 -2.135782E+04 -1.004200E+04  7.772545E+03 -2.855347E+04 -3.819847E+03
       137  20 -7.274016E+04 -6.212380E+04 -3.012570E+04 -3.252411E+03 -2.171235E+04 -1.205805E+04
       137  21 -4.200694E+04 -5.928013E+04 -3.484760E+04 -2.345888E+04 -1.487470E+04 -1.281854E+04
       137  22  1.927385E+05  4.921421E+04  5.860743E+04 -1.655306E+04 -4.035424E+04 -3.824661E+03
       137  23  1.861937E+05  1.052879E+03  2.688349E+04 -1.195110E+04 -2.615039E+04 -1.205931E+04
       137  24  1.927468E+05 -2.231628E+03  1.562853E+04 -1.652990E+04 -1.195037E+04 -1.281731E+04
       137  25  4.771994E+05  1.197826E+05  1.272519E+05 -4.088986E+04 -5.216039E+04 -3.828550E+03
       137  26  4.451905E+05  6.422536E+04  8.388868E+04 -2.065347E+04 -3.059025E+04 -1.206045E+04
       137  27  4.275524E+05  5.481344E+04  6.610149E+04 -9.598269E+03 -9.024954E+03 -1.281602E+04
       138   1 -2.513383E+04 -4.992529E+04 -3.413502E+04 -1.582302E+04  1.059580E+04  1.140267E+04
       138   2 -9.469528E+02 -4.633784E+04 -3.425966E+04 -1.172267E+04  7.571927E+03  1.038277E+04
       138   3  2.422677E+04 -4.045177E+04 -3.183670E+04 -1.710587E+04  4.547756E+03  9.020628E+03
       138   4  1.900694E+05  2.409829E+03  1.235813E+04 -1.660321E+04  9.763833E+03  1.140210E+04
       138   5  1.895488E+05 -4.867056E+01  6.709216E+03 -1.186121E+04  6.402128E+03  1.038223E+04
       138   6  1.900727E+05 -1.503646E+02  3.841785E+03 -1.660255E+04  3.040238E+03  9.020159E+03
       138   7  4.053161E+05  5.474190E+04  5.884854E+04 -1.738367E+04  8.931585E+03  1.140154E+04
       138   8  3.800787E+05  4.623811E+04  4.767597E+04 -1.199980E+04  5.231975E+03  1.038169E+04
       138   9  3.559445E+05  4.014924E+04  3.951866E+04 -1.609910E+04  1.532324E+03  9.019687E+03
       138  10 -2.513399E+04 -4.992546E+04 -3.413547E+04 -1.582312E+04  3.911192E-10 -5.526233E-10
       138  11 -9.470433E+02 -4.633797E+04 -3.425997E+04 -1.172274E+04 -4.483489E-10 -1.750269E-10
       138  12  2.422672E+04 -4.045186E+04 -3.183689E+04 -1.710590E+04 -1.699101E-09  5.719798E-10
       138  13  1.900692E+05  2.409664E+03  1.235770E+04 -1.660330E+04 -1.000640E-09  2.467687E-10
       138  14  1.895487E+05 -4.879732E+01  6.708936E+03 -1.186127E+04 -1.513490E-09 -1.195265E-10
       138  15  1.900727E+05 -1.504545E+02  3.841615E+03 -1.660257E+04 -2.634017E-09 -1.553082E-11
       138  16  4.053160E+05  5.474174E+04  5.884814E+04 -1.738375E+04 -1.500971E-09  1.405787E-10
       138  17  3.800786E+05  4.623799E+04  4.767571E+04 -1.199984E+04 -2.452258E-09 -4.022932E-10
       138  18  3.559445E+05  4.014915E+04  3.951851E+04 -1.609911E+04 -1.672345E-10 -1.218015E-10
       138  19 -2.513383E+04 -4.992529E+04 -3.413502E+04 -1.582302E+04 -1.059580E+04 -1.140267E+04
       138  20 -9.469528E+02 -4.633784E+04 -3.425966E+04 -1.172267E+04 -7.571927E+03 -1.038277E+04
       138  21  2.422677E+04 -4.045177E+04 -3.183670E+04 -1.710587E+04 -4.547756E+03 -9.020628E+03
       138  22  1.900694E+05  2.409829E+03  1.235813E+04 -1.660321E+04 -9.763833E+03 -1.140210E+04
       138  23  1.895488E+05 -4.867056E+01  6.709216E+03 -1.186121E+04 -6.402128E+03 -1.038223E+04
       138  24  1.900727E+05 -1.503646E+02  3.841785E+03 -1.660255E+04 -3.040238E+03 -9.020159E+03
       138  25  4.053161E+05  5.474190E+04  5.884854E+04 -1.738367E+04 -8.931585E+03 -1.140154E+04
       138  26  3.800787E+05  4.623811E+04  4.767597E+04 -1.199980E+04 -5.231975E+03 -1.038169E+04
       138  27  3.559445E+05  4.014924E+04  3.951866E+04 -1.609910E+04 -1.532324E+03 -9.019687E+03
       139   1  4.336208E+04 -3.549834E+04 -2.848854E+04 -1.669035E+04  3.855542E+03  8.143339E+03
       139   2  6.792961E+04 -2.963533E+04 -2.456991E+04 -1.193904E+04  3.077477E+03  6.701556E+03
       139   3  9.263755E+04 -2.365005E+04 -2.011232E+04 -1.666997E+04  2.299185E+03  5.244643E+03
       139   4  1.898737E+05  8.175349E+01  2.918321E+03 -1.660247E+04  2.444685E+03  8.142961E+03
       139   5  1.898032E+05 -2.971986E+01  1.601295E+03 -1.186141E+04  1.651544E+03  6.701269E+03
       139   6  1.898756E+05 -1.622064E+01  8.337063E+02 -1.660246E+04  8.582069E+02  5.244452E+03
       139   7  3.364054E+05  3.566044E+04  3.432394E+04 -1.651457E+04  1.033500E+03  8.142583E+03
       139   8  3.116908E+05  2.957491E+04  2.777164E+04 -1.178375E+04  2.253353E+02  6.700983E+03
       139   9  2.871225E+05  2.361699E+04  2.177919E+04 -1.653494E+04 -5.829940E+02  5.244260E+03
       139  10  4.336205E+04 -3.549841E+04 -2.848869E+04 -1.669037E+04 -6.986647E-11  6.478216E-10
       139  11  6.792959E+04 -2.963538E+04 -2.457002E+04 -1.193906E+04  9.085027E-10 -2.706487E-10
       139  12  9.263754E+04 -2.365008E+04 -2.011238E+04 -1.666998E+04  3.588514E-10 -5.267646E-10
       139  13  1.898736E+05  8.168068E+01  2.918185E+03 -1.660248E+04 -1.151963E-09  4.705634E-10
       139  14  1.898032E+05 -2.976882E+01  1.601206E+03 -1.186142E+04 -1.615635E-09  2.674923E-10
       139  15  1.898756E+05 -1.625037E+01  8.336532E+02 -1.660247E+04 -8.183833E-10 -4.989715E-10
       139  16  3.364054E+05  3.566037E+04  3.432381E+04 -1.651457E+04 -3.302783E-10  4.106840E-10
       139  17  3.116908E+05  2.957487E+04  2.777156E+04 -1.178375E+04 -2.204736E-09  4.532826E-10
       139  18  2.871225E+05  2.361696E+04  2.177913E+04 -1.653494E+04 -1.453151E-09 -8.040737E-12
       139  19  4.336208E+04 -3.549834E+04 -2.848854E+04 -1.669035E+04 -3.855542E+03 -8.143339E+03
       139  20  6.792961E+04 -2.963533E+04 -2.456991E+04 -1.193904E+04 -3.077477E+03 -6.701556E+03
       139  21  9.263755E+04 -2.365005E+04 -2.011232E+04 -1.666997E+04 -2.299185E+03 -5.244643E+03
       139  22  1.898737E+05  8.175349E+01  2.918321E+03 -1.660247E+04 -2.444685E+03 -8.142961E+03
       139  23  1.898032E+05 -2.971986E+01  1.601295E+03 -1.186141E+04 -1.651544E+03 -6.701269E+03
       139  24  1.898756E+05 -1.622064E+01  8.337063E+02 -1.660246E+04 -8.582069E+02 -5.244452E+03
       139  25  3.364054E+05  3.566044E+04  3.432394E+04 -1.651457E+04 -1.033500E+03 -8.142583E+03
       139  26  3.116908E+05  2.957491E+04  2.777164E+04 -1.178375E+04 -2.253353E+02 -6.700983E+03
       139  27  2.871225E+05  2.361699E+04  2.177919E+04 -1.653494E+04  5.829940E+02 -5.244260E+03
       140   1  1.119126E+05 -1.892447E+04 -1.610628E+04 -1.664374E+04  2.168765E+03  4.393199E+03
       140   2  1.365221E+05 -1.295582E+04 -1.132846E+04 -1.190217E+04  2.110125E+03  2.933588E+03
       140   3  1.611443E+05 -6.983101E+03 -6.510699E+03 -1.663620E+04  2.051388E+03  1.473551E+03
       140   4  1.898472E+05 -6.897365E+00  5.598384E+02 -1.660101E+04  7.325825E+02  4.393050E+03
       140   5  1.898418E+05 -4.161902E+00  1.197839E+02 -1.186323E+04  6.734719E+02  2.933480E+03
       140   6  1.898480E+05  2.655730E+00 -2.801014E+02 -1.660101E+04  6.142675E+02  1.473486E+03
       140   7  2.677875E+05  1.891028E+04  1.722562E+04 -1.655827E+04 -7.037779E+02  4.392902E+03
       140   8  2.431641E+05  1.294731E+04  1.156787E+04 -1.182430E+04 -7.633026E+02  2.933373E+03
       140   9  2.185526E+05  6.988359E+03  5.950455E+03 -1.656583E+04 -8.229188E+02  1.473422E+03
       140  10  1.119126E+05 -1.892449E+04 -1.610633E+04 -1.664375E+04 -1.735010E-09 -6.119475E-11
       140  11  1.365221E+05 -1.295583E+04 -1.132849E+04 -1.190217E+04 -1.433413E-09  7.349410E-10
       140  12  1.611443E+05 -6.983105E+03 -6.510711E+03 -1.663620E+04 -1.669948E-10 -3.191447E-10
       140  13  1.898472E+05 -6.918235E+00  5.598012E+02 -1.660101E+04 -2.158307E-09 -1.294648E-10
       140  14  1.898418E+05 -4.171266E+00  1.197668E+02 -1.186324E+04 -5.728573E-10  2.287550E-10
       140  15  1.898480E+05  2.653297E+00 -2.801062E+02 -1.660101E+04 -1.672135E-09  3.223335E-11
       140  16  2.677875E+05  1.891026E+04  1.722558E+04 -1.655827E+04  1.763904E-09 -1.748461E-10
       140  17  2.431641E+05  1.294730E+04  1.156786E+04 -1.182430E+04  1.101363E-09 -2.963412E-11
       140  18  2.185526E+05  6.988357E+03  5.950450E+03 -1.656583E+04  7.529760E-10  1.415220E-10
       140  19  1.119126E+05 -1.892447E+04 -1.610628E+04 -1.664374E+04 -2.168765E+03 -4.393199E+03
       140  20  1.365221E+05 -1.295582E+04 -1.132846E+04 -1.190217E+04 -2.110125E+03 -2.933588E+03
       140  21  1.611443E+05 -6.983101E+03 -6.510699E+03 -1.663620E+04 -2.051388E+03 -1.473551E+03
       140  22  1.898472E+05 -6.897365E+00  5.598384E+02 -1.660101E+04 -7.325825E+02 -4.393050E+03
       140  23  1.898418E+05 -4.161902E+00  1.197839E+02 -1.186323E+04 -6.734719E+02 -2.933480E+03
       140  24  1.898480E+05  2.655730E+00 -2.801014E+02 -1.660101E+04 -6.142675E+02 -1.473486E+03
       140  25  2.677875E+05  1.891028E+04  1.722562E+04 -1.655827E+04  7.037779E+02 -4.392902E+03
       140  26  2.431641E+05  1.294731E+04  1.156787E+04 -1.182430E+04  7.633026E+02 -2.933373E+03
       140  27  2.185526E+05  6.988359E+03  5.950455E+03 -1.656583E+04  8.229188E+02 -1.473422E+03
       141   1  1.804185E+05 -2.270148E+03 -2.457164E+03 -1.663857E+04  2.122512E+03  6.237224E+02
       141   2  2.050675E+05  3.709082E+03  2.172815E+03 -1.192726E+04  2.661449E+03 -8.360594E+02
       141   3  2.296430E+05  9.665117E+03  6.446582E+03 -1.668928E+04  3.200432E+03 -2.295344E+03
       141   4  1.898291E+05  2.115628E+00 -5.045250E+02 -1.660052E+04  6.854870E+02  6.236669E+02
       141   5  1.898661E+05  1.672968E+01 -1.091010E+03 -1.186386E+04  1.224871E+03 -8.361278E+02
       141   6  1.898290E+05  8.097499E+00 -2.034027E+03 -1.660053E+04  1.764280E+03 -2.295423E+03
       141   7  1.992398E+05  2.274375E+03  1.448117E+03 -1.656248E+04 -7.515592E+02  6.236112E+02
       141   8  1.746650E+05 -3.675637E+03 -4.354841E+03 -1.180045E+04 -2.116729E+02 -8.361964E+02
       141   9  1.500165E+05 -9.649024E+03 -1.051472E+04 -1.651178E+04  3.282184E+02 -2.295503E+03
       141  10  1.804185E+05 -2.270150E+03 -2.457173E+03 -1.663857E+04 -1.373104E-09 -4.609218E-10
       141  11  2.050675E+05  3.709079E+03  2.172801E+03 -1.192726E+04  3.279208E-10  5.607444E-10
       141  12  2.296430E+05  9.665109E+03  6.446553E+03 -1.668928E+04  1.165367E-09  1.565423E-10
       141  13  1.898291E+05  2.115084E+00 -5.045267E+02 -1.660052E+04  1.352880E-10 -5.197590E-11
       141  14  1.898661E+05  1.672853E+01 -1.091014E+03 -1.186385E+04 -4.032659E-10  1.912059E-10
       141  15  1.898290E+05  8.091006E+00 -2.034042E+03 -1.660052E+04  1.635814E-09  2.587674E-10
       141  16  1.992398E+05  2.274374E+03  1.448115E+03 -1.656247E+04  3.018421E-10  5.157972E-11
       141  17  1.746650E+05 -3.675637E+03 -4.354843E+03 -1.180045E+04  5.128044E-10 -1.118345E-10
       141  18  1.500165E+05 -9.649030E+03 -1.051473E+04 -1.651178E+04  1.643356E-09  4.169973E-10
       141  19  1.804185E+05 -2.270148E+03 -2.457164E+03 -1.663857E+04 -2.122512E+03 -6.237224E+02
       141  20  2.050675E+05  3.709082E+03  2.172815E+03 -1.192726E+04 -2.661449E+03  8.360594E+02
       141  21  2.296430E+05  9.665117E+03  6.446582E+03 -1.668928E+04 -3.200432E+03  2.295344E+03
       141  22  1.898291E+05  2.115628E+00 -5.045250E+02 -1.660052E+04 -6.854870E+02 -6.236669E+02
       141  23  1.898661E+05  1.672968E+01 -1.091010E+03 -1.186386E+04 -1.224871E+03  8.361278E+02
       141  24  1.898290E+05  8.097499E+00 -2.034027E+03 -1.660053E+04 -1.764280E+03  2.295423E+03
       141  25  1.992398E+05  2.274375E+03  1.448117E+03 -1.656248E+04  7.515592E+02 -6.236112E+02
       141  26  1.746650E+05 -3.675637E+03 -4.354841E+03 -1.180045E+04  2.116729E+02  8.361964E+02
       141  27  1.500165E+05 -9.649024E+03 -1.051472E+04 -1.651178E+04 -3.282184E+02  2.295503E+03
       142   1  2.488691E+05  1.440600E+04  1.004455E+04 -1.675679E+04  3.633305E+03 -3.146177E+03
       142   2  2.736916E+05  2.040534E+04  1.320203E+04 -1.203067E+04  5.988115E+03 -4.602422E+03
       142   3  2.981214E+05  2.603876E+04  1.473645E+04 -1.678268E+04  8.343115E+03 -6.045375E+03
       142   4  1.897572E+05  3.485566E+01 -2.714122E+03 -1.660162E+04  2.193020E+03 -3.146280E+03
       142   5  1.899544E+05  6.634493E+01 -4.778074E+03 -1.186252E+04  4.560604E+03 -4.602589E+03
       142   6  1.897563E+05 -2.702481E+02 -8.474037E+03 -1.660161E+04  6.928288E+03 -6.045605E+03
       142   7  1.306486E+05 -1.433652E+04 -1.547300E+04 -1.644646E+04  7.528699E+02 -3.146384E+03
       142   8  1.062238E+05 -2.027311E+04 -2.275858E+04 -1.169438E+04  3.133283E+03 -4.602758E+03
       142   9  8.140221E+04 -2.658002E+04 -3.168520E+04 -1.642058E+04  5.513704E+03 -6.045836E+03
       142  10  2.488690E+05  1.440598E+04  1.004451E+04 -1.675678E+04 -4.130396E-10  2.273020E-10
       142  11  2.736916E+05  2.040531E+04  1.320192E+04 -1.203065E+04  7.927355E-10  3.007209E-11
       142  12  2.981213E+05  2.603870E+04  1.473625E+04 -1.678263E+04 -2.728574E-11 -8.183338E-10
       142  13  1.897572E+05  3.484374E+01 -2.714150E+03 -1.660161E+04  2.141459E-09  2.998259E-10
       142  14  1.899544E+05  6.631660E+01 -4.778153E+03 -1.186250E+04 -1.146028E-09 -1.684063E-10
       142  15  1.897562E+05 -2.703002E+02 -8.474196E+03 -1.660158E+04 -4.931911E-11 -7.555283E-10
       142  16  1.306486E+05 -1.433653E+04 -1.547302E+04 -1.644646E+04  1.498317E-09  2.566245E-10
       142  17  1.062238E+05 -2.027314E+04 -2.275863E+04 -1.169437E+04  1.366018E-09 -4.240731E-10
       142  18  8.140216E+04 -2.658007E+04 -3.168532E+04 -1.642056E+04 -1.309673E-09 -6.457215E-10
       142  19  2.488691E+05  1.440600E+04  1.004455E+04 -1.675679E+04 -3.633305E+03  3.146177E+03
       142  20  2.736916E+05  2.040534E+04  1.320203E+04 -1.203067E+04 -5.988115E+03  4.602422E+03
       142  21  2.981214E+05  2.603876E+04  1.473645E+04 -1.678268E+04 -8.343115E+03  6.045375E+03
       142  22  1.897572E+05  3.485566E+01 -2.714122E+03 -1.660162E+04 -2.193020E+03  3.146280E+03
       142  23  1.899544E+05  6.634493E+01 -4.778074E+03 -1.186252E+04 -4.560604E+03  4.602589E+03
       142  24  1.897563E+05 -2.702481E+02 -8.474037E+03 -1.660161E+04 -6.928288E+03  6.045605E+03
       142  25  1.306486E+05 -1.433652E+04 -1.547300E+04 -1.644646E+04 -7.528699E+02  3.146384E+03
       142  26  1.062238E+05 -2.027311E+04 -2.275858E+04 -1.169438E+04 -3.133283E+03  4.602758E+03
       142  27  8.140221E+04 -2.658002E+04 -3.168520E+04 -1.642058E+04 -5.513704E+03  6.045836E+03
       143   1  3.168795E+05  3.141937E+04  1.638623E+04 -1.795531E+04  1.015278E+04 -6.918070E+03
       143   2  3.429839E+05  3.709905E+04  1.347111E+04 -1.133008E+04  1.952660E+04 -8.289219E+03
       143   3  3.662025E+05  3.606046E+04  2.779680E+03 -1.417782E+04  2.890098E+04 -9.361870E+03
       143   4  1.891901E+05  3.932619E+02 -1.109429E+04 -1.660090E+04  8.653480E+03 -6.918348E+03
       143   5  1.906591E+05  9.178719E+01 -1.928639E+04 -1.186361E+04  1.831890E+04 -8.289605E+03
       143   6  1.891898E+05 -6.979755E+03 -3.545886E+04 -1.659957E+04  2.798452E+04 -9.362385E+03
       143   7  6.151604E+04 -3.063391E+04 -3.857576E+04 -1.524677E+04  7.154480E+03 -6.918633E+03
       143   8  3.835619E+04 -3.691700E+04 -5.204524E+04 -1.239702E+04  1.711149E+04 -8.289989E+03
       143   9  1.220652E+04 -5.002201E+04 -7.369924E+04 -1.902062E+04  2.706832E+04 -9.362893E+03
       143  10  3.168794E+05  3.141929E+04  1.638595E+04 -1.795525E+04 -1.715499E-09 -8.871635E-10
       143  11  3.429835E+05  3.709888E+04  1.347027E+04 -1.132995E+04 -7.762395E-10  5.350213E-11
       143  12  3.662016E+05  3.606014E+04  2.777947E+03 -1.417760E+04 -3.004089E-10 -2.201521E-10
       143  13  1.891900E+05  3.931904E+02 -1.109452E+04 -1.660085E+04  8.506666E-12 -6.011649E-10
       143  14  1.906588E+05  9.162334E+01 -1.928715E+04 -1.186349E+04 -2.154165E-09  4.679182E-10
       143  15  1.891890E+05 -6.980059E+03 -3.546049E+04 -1.659936E+04 -2.665941E-09  1.309143E-10
       143  16  6.151598E+04 -3.063397E+04 -3.857595E+04 -1.524673E+04  1.764777E-09 -1.657857E-10
       143  17  3.835585E+04 -3.691715E+04 -5.204592E+04 -1.239691E+04  1.163881E-09  1.326231E-09
       143  18  1.220571E+04 -5.002230E+04 -7.370079E+04 -1.902042E+04 -1.780799E-09  7.055065E-10
       143  19  3.168795E+05  3.141937E+04  1.638623E+04 -1.795531E+04 -1.015278E+04  6.918070E+03
       143  20  3.429839E+05  3.709905E+04  1.347111E+04 -1.133008E+04 -1.952660E+04  8.289219E+03
       143  21  3.662025E+05  3.606046E+04  2.779680E+03 -1.417782E+04 -2.890098E+04  9.361870E+03
       143  22  1.891901E+05  3.932619E+02 -1.109429E+04 -1.660090E+04 -8.653480E+03  6.918348E+03
       143  23  1.906591E+05  9.178719E+01 -1.928639E+04 -1.186361E+04 -1.831890E+04  8.289605E+03
       143  24  1.891898E+05 -6.979755E+03 -3.545886E+04 -1.659957E+04 -2.798452E+04  9.362385E+03
       143  25  6.151604E+04 -3.063391E+04 -3.857576E+04 -1.524677E+04 -7.154480E+03  6.918633E+03
       143  26  3.835619E+04 -3.691700E+04 -5.204524E+04 -1.239702E+04 -1.711149E+04  8.289989E+03
       143  27  1.220652E+04 -5.002201E+04 -7.369924E+04 -1.902062E+04 -2.706832E+04  9.362893E+03
       144   1  3.780650E+05  5.405883E+04 -2.567145E+03 -3.618958E+04  3.699804E+04 -1.070116E+04
       144   2  4.209760E+05  5.076814E+04 -2.847572E+04  1.331624E+04  7.133131E+04 -1.020779E+04
       144   3  4.275766E+05 -8.003797E+04 -1.085939E+05  5.366771E+04  1.056640E+05 -3.199369E+03
       144   4  1.815196E+05  6.322909E+03 -4.482559E+04 -1.654193E+04  3.425792E+04 -1.070094E+04
       144   5  2.002457E+05 -3.105536E+03 -7.708793E+04 -1.193949E+04  7.498823E+04 -1.020974E+04
       144   6  1.815327E+05 -1.411920E+05 -1.680146E+05 -1.649134E+04  1.157160E+05 -3.207411E+03
       144   7 -1.498872E+04 -4.141409E+04 -8.708607E+04  3.099414E+03  3.151866E+04 -1.070090E+04
       144   8 -2.043766E+04 -5.698008E+04 -1.257027E+05 -3.718614E+04  7.864386E+04 -1.021199E+04
       144   9 -6.444521E+04 -2.023318E+05 -2.274368E+05 -8.662252E+04  1.257641E+05 -3.217727E+03
       144  10  3.780635E+05  5.405834E+04 -2.569931E+03 -3.618926E+04  3.771100E-10 -7.089563E-10
       144  11  4.209705E+05  5.076666E+04 -2.848547E+04  1.331683E+04 -2.689179E-10 -1.128501E-09
       144  12  4.275646E+05 -8.004097E+04 -1.086148E+05  5.366798E+04 -1.403487E-09 -3.446282E-10
       144  13  1.815183E+05  6.322471E+03 -4.482801E+04 -1.654163E+04 -1.302731E-09 -1.374294E-09
       144  14  2.002397E+05 -3.107157E+03 -7.709869E+04 -1.193887E+04  1.315704E-09  3.811793E-10
       144  15  1.815183E+05 -1.411956E+05 -1.680398E+05 -1.649104E+04 -7.770436E-10 -2.688449E-10
       144  16 -1.498981E+04 -4.141448E+04 -8.708815E+04  3.099686E+03 -8.853182E-10 -1.013411E-10
       144  17 -2.044433E+04 -5.698185E+04 -1.257145E+05 -3.718549E+04  8.440039E-11  1.224251E-11
       144  18 -6.446220E+04 -2.023361E+05 -2.274665E+05 -8.662219E+04 -5.545851E-10 -5.839517E-10
       144  19  3.780650E+05  5.405883E+04 -2.567145E+03 -3.618958E+04 -3.699804E+04  1.070116E+04
       144  20  4.209760E+05  5.076814E+04 -2.847572E+04  1.331624E+04 -7.133131E+04  1.020779E+04
       144  21  4.275766E+05 -8.003797E+04 -1.085939E+05  5.366771E+04 -1.056640E+05  3.199369E+03
       144  22  1.815196E+05  6.322909E+03 -4.482559E+04 -1.654193E+04 -3.425792E+04  1.070094E+04
       144  23  2.002457E+05 -3.105536E+03 -7.708793E+04 -1.193949E+04 -7.498823E+04  1.020974E+04
       144  24  1.815327E+05 -1.411920E+05 -1.680146E+05 -1.649134E+04 -1.157160E+05  3.207411E+03
       144  25 -1.498872E+04 -4.141409E+04 -8.708607E+04  3.099414E+03 -3.151866E+04  1.070090E+04
       144  26 -2.043766E+04 -5.698008E+04 -1.257027E+05 -3.718614E+04 -7.864386E+04  1.021199E+04
       144  27 -6.444521E+04 -2.023318E+05 -2.274368E+05 -8.662252E+04 -1.257641E+05  3.217727E+03
       145   1  3.535367E+05  1.343707E+06  3.460709E+05 -2.165620E+05  1.636466E+04  5.520470E+04
       145   2  2.634491E+05  1.023613E+06  2.421284E+05 -1.547067E+05  4.791678E+04  1.534199E+04
       145   3  1.863002E+05  7.120820E+05  1.673513E+05 -2.123347E+05  4.088787E+04 -2.453472E+04
       145   4  6.624451E+03 -5.342115E+04  7.578041E+03 -2.122993E+05  1.641923E+04  5.135146E+03
       145   5  2.754534E+02 -5.426478E+04  3.526730E+03 -1.525558E+05  4.793873E+04  3.312388E+03
       145   6  2.872691E+02 -5.321920E+04  2.269601E+03 -2.123069E+05  4.084740E+04  1.455439E+03
       145   7 -3.404294E+05 -1.448763E+06 -3.310460E+05 -2.080454E+05  1.647320E+04 -4.482227E+04
       145   8 -2.629764E+05 -1.131059E+06 -2.351462E+05 -1.504083E+05  4.796062E+04 -8.696595E+03
       145   9 -1.857638E+05 -8.179692E+05 -1.628441E+05 -2.122787E+05  4.080690E+04  2.741403E+04
       145  10  3.535356E+05  1.343703E+06  3.460647E+05 -2.165627E+05 -6.799549E-10  5.674622E-11
       145  11  2.634465E+05  1.023612E+06  2.421236E+05 -1.547073E+05 -2.395814E-10  1.347043E-09
       145  12  1.862982E+05  7.120809E+05  1.673470E+05 -2.123339E+05  8.297432E-10  2.350649E-10
       145  13  6.624154E+03 -5.342125E+04  7.577485E+03 -2.122993E+05  1.653490E-09 -7.332416E-10
       145  14  2.729826E+02 -5.426541E+04  3.522391E+03 -1.525560E+05 -1.171269E-09  1.161245E-09
       145  15  2.854769E+02 -5.321965E+04  2.266461E+03 -2.123069E+05  8.376153E-11 -3.844955E-09
       145  16 -3.404303E+05 -1.448765E+06 -3.310503E+05 -2.080449E+05 -1.499655E-09 -3.309745E-11
       145  17 -2.629789E+05 -1.131059E+06 -2.351507E+05 -1.504080E+05 -2.316889E-09 -3.629217E-09
       145  18 -1.857658E+05 -8.179705E+05 -1.628486E+05 -2.122796E+05 -1.219439E-09  3.592891E-10
       145  19  3.535367E+05  1.343707E+06  3.460709E+05 -2.165620E+05 -1.636466E+04 -5.520470E+04
       145  20  2.634491E+05  1.023613E+06  2.421284E+05 -1.547067E+05 -4.791678E+04 -1.534199E+04
       145  21  1.863002E+05  7.120820E+05  1.673513E+05 -2.123347E+05 -4.088787E+04  2.453472E+04
       145  22  6.624451E+03 -5.342115E+04  7.578041E+03 -2.122993E+05 -1.641923E+04 -5.135146E+03
       145  23  2.754534E+02 -5.426478E+04  3.526730E+03 -1.525558E+05 -4.793873E+04 -3.312388E+03
       145  24  2.872691E+02 -5.321920E+04  2.269601E+03 -2.123069E+05 -4.084740E+04 -1.455439E+03
       145  25 -3.404294E+05 -1.448763E+06 -3.310460E+05 -2.080454E+05 -1.647320E+04  4.482227E+04
       145  26 -2.629764E+05 -1.131059E+06 -2.351462E+05 -1.504083E+05 -4.796062E+04  8.696595E+03
       145  27 -1.857638E+05 -8.179692E+05 -1.628441E+05 -2.122787E+05 -4.080690E+04 -2.741403E+04
       146   1  1.266817E+05  4.633328E+05  1.138336E+05 -2.134796E+05  2.698638E+04 -1.443973E+04
       146   2  4.946688E+04  1.479626E+05  4.475550E+04 -1.523408E+05  1.097647E+04 -1.562690E+04
       146   3 -2.683049E+04 -1.673658E+05 -2.343526E+04 -2.124255E+05 -5.504397E+03 -1.681831E+04
       146   4  9.338432E+02 -5.359853E+04  1.904119E+03 -2.126895E+05  2.695980E+04  1.090632E+03
       146   5  5.030983E+02 -5.351353E+04  1.402562E+03 -1.520767E+05  1.094743E+04  3.638730E+02
       146   6  9.159099E+02 -5.356045E+04  1.472205E+03 -2.126896E+05 -5.536300E+03 -3.676963E+02
       146   7 -1.248315E+05 -5.702787E+05 -1.100403E+05 -2.118999E+05  2.693323E+04  1.660824E+04
       146   8 -4.846321E+04 -2.549510E+05 -4.195180E+04 -1.518127E+05  1.091840E+04  1.634953E+04
       146   9  2.866159E+04  6.025761E+04  2.637991E+04 -2.129538E+05 -5.568213E+03  1.608589E+04
       146  10  1.266808E+05  4.633324E+05  1.138318E+05 -2.134793E+05  8.137447E-10 -9.517733E-11
       146  11  4.946668E+04  1.479623E+05  4.475481E+04 -1.523406E+05  4.430285E-10  1.721214E-10
       146  12 -2.683060E+04 -1.673661E+05 -2.343585E+04 -2.124256E+05 -8.357244E-10 -2.217270E-09
       146  13  9.330624E+02 -5.359872E+04  1.902751E+03 -2.126895E+05  1.577816E-09 -1.584682E-09
       146  14  5.029695E+02 -5.351356E+04  1.402336E+03 -1.520767E+05 -6.766502E-10  1.719996E-09
       146  15  9.158770E+02 -5.356046E+04  1.472147E+03 -2.126896E+05 -1.220423E-09 -4.521720E-09
       146  16 -1.248323E+05 -5.702792E+05 -1.100422E+05 -2.119003E+05 -1.956666E-09  6.532235E-11
       146  17 -4.846341E+04 -2.549513E+05 -4.195252E+04 -1.518128E+05 -1.820092E-10 -3.578486E-09
       146  18  2.866148E+04  6.025732E+04  2.637936E+04 -2.129537E+05 -4.927738E-10  2.994043E-09
       146  19  1.266817E+05  4.633328E+05  1.138336E+05 -2.134796E+05 -2.698638E+04  1.443973E+04
       146  20  4.946688E+04  1.479626E+05  4.475550E+04 -1.523408E+05 -1.097647E+04  1.562690E+04
       146  21 -2.683049E+04 -1.673658E+05 -2.343526E+04 -2.124255E+05  5.504397E+03  1.681831E+04
       146  22  9.338432E+02 -5.359853E+04  1.904119E+03 -2.126895E+05 -2.695980E+04 -1.090632E+03
       146  23  5.030983E+02 -5.351353E+04  1.402562E+03 -1.520767E+05 -1.094743E+04 -3.638730E+02
       146  24  9.159099E+02 -5.356045E+04  1.472205E+03 -2.126896E+05  5.536300E+03  3.676963E+02
       146  25 -1.248315E+05 -5.702787E+05 -1.100403E+05 -2.118999E+05 -2.693323E+04 -1.660824E+04
       146  26 -4.846321E+04 -2.549510E+05 -4.195180E+04 -1.518127E+05 -1.091840E+04 -1.634953E+04
       146  27  2.866159E+04  6.025761E+04  2.637991E+04 -2.129538E+05  5.568213E+03 -1.608589E+04
       147   1 -8.750663E+04 -4.150821E+05 -7.687366E+04 -2.124509E+05 -1.864490E+04 -2.454388E+04
       147   2 -1.646076E+05 -7.285642E+05 -1.480373E+05 -1.509294E+05 -2.882401E+04  2.126987E+03
       147   3 -2.425643E+05 -1.045890E+06 -2.368630E+05 -2.094124E+05 -1.066123E+04  2.882113E+04
       147   4  5.536717E+02 -5.335678E+04  1.607280E+03 -2.124178E+05 -1.868953E+04 -6.493522E+02
       147   5  4.563677E+02 -5.387068E+04  2.252389E+03 -1.524170E+05 -2.881522E+04 -1.843655E+03
       147   6  4.348723E+03 -5.348355E+04  4.599324E+03 -2.124119E+05 -1.061301E+04 -3.000669E+03
       147   7  8.860562E+04  3.084926E+05  8.008257E+04 -2.123845E+05 -1.873414E+04  2.325892E+04
       147   8  1.654895E+05  6.212477E+05  1.525137E+05 -1.539060E+05 -2.880643E+04 -5.818568E+03
       147   9  2.511898E+05  9.398252E+05  2.459941E+05 -2.154158E+05 -1.056453E+04 -3.487326E+04
       147  10 -8.750717E+04 -4.150829E+05 -7.687545E+04 -2.124513E+05 -1.183358E-09  2.170443E-09
       147  11 -1.646085E+05 -7.285644E+05 -1.480389E+05 -1.509293E+05  1.108228E-09  1.825042E-09
       147  12 -2.425646E+05 -1.045891E+06 -2.368648E+05 -2.094122E+05  1.538842E-09 -1.074559E-09
       147  13  5.532965E+02 -5.335688E+04  1.606623E+03 -2.124178E+05 -8.127553E-10 -1.680663E-09
       147  14  4.554752E+02 -5.387091E+04  2.250822E+03 -1.524170E+05 -8.049430E-10  1.518530E-09
       147  15  4.348599E+03 -5.348359E+04  4.599095E+03 -2.124120E+05  1.812202E-09 -3.235376E-09
       147  16  8.860510E+04  3.084919E+05  8.008090E+04 -2.123842E+05 -6.361166E-10 -2.204073E-09
       147  17  1.654886E+05  6.212474E+05  1.525121E+05 -1.539061E+05  1.166100E-09 -4.849860E-09
       147  18  2.511893E+05  9.398239E+05  2.459916E+05 -2.154161E+05  3.978707E-10  1.642083E-09
       147  19 -8.750663E+04 -4.150821E+05 -7.687366E+04 -2.124509E+05  1.864490E+04  2.454388E+04
       147  20 -1.646076E+05 -7.285642E+05 -1.480373E+05 -1.509294E+05  2.882401E+04 -2.126987E+03
       147  21 -2.425643E+05 -1.045890E+06 -2.368630E+05 -2.094124E+05  1.066123E+04 -2.882113E+04
       147  22  5.536717E+02 -5.335678E+04  1.607280E+03 -2.124178E+05  1.868953E+04  6.493522E+02
       147  23  4.563677E+02 -5.387068E+04  2.252389E+03 -1.524170E+05  2.881522E+04  1.843655E+03
       147  24  4.348723E+03 -5.348355E+04  4.599324E+03 -2.124119E+05  1.061301E+04  3.000669E+03
       147  25  8.860562E+04  3.084926E+05  8.008257E+04 -2.123845E+05  1.873414E+04 -2.325892E+04
       147  26  1.654895E+05  6.212477E+05  1.525137E+05 -1.539060E+05  2.880643E+04  5.818568E+03
       147  27  2.511898E+05  9.398252E+05  2.459941E+05 -2.154158E+05  1.056453E+04  3.487326E+04
       148   1 -6.642073E+05 -2.669730E+05 -1.572071E+05 -2.503385E+05 -5.238784E+04 -1.364100E+04
       148   2 -6.182265E+05 -1.882701E+05 -1.045525E+05 -2.308884E+05 -3.336585E+04  6.006573E+03
       148   3 -5.764172E+05 -1.663224E+05 -8.059481E+04 -2.178677E+05 -1.014720E+04  1.448879E+04
       148   4 -2.952491E+05 -1.081900E+05 -5.507526E+04 -1.292067E+05 -3.717400E+04 -7.930050E+03
       148   5 -2.911790E+05 -5.957584E+04 -2.402833E+04 -1.339684E+05 -2.842249E+04  7.861147E+03
       148   6 -2.892376E+05 -6.566860E+04 -1.352586E+04 -1.451632E+05 -1.547767E+04  1.248785E+04
       148   7  7.384457E+04  5.061456E+04  4.704554E+04 -8.004837E+03 -2.195014E+04 -2.214104E+03
       148   8  3.597565E+04  6.912974E+04  5.648802E+04 -3.700035E+04 -2.347628E+04  9.716934E+03
       148   9 -1.976021E+03  3.498887E+04  5.353754E+04 -7.242893E+04 -2.081082E+04  1.048604E+04
       148  10 -6.642103E+05 -2.669740E+05 -1.572126E+05 -2.503391E+05  1.911583E-09  2.520503E-10
       148  11 -6.182277E+05 -1.882705E+05 -1.045546E+05 -2.308882E+05 -1.886457E-09 -7.386747E-10
       148  12 -5.764173E+05 -1.663226E+05 -8.059539E+04 -2.178676E+05  6.608833E-10  1.245664E-11
       148  13 -2.952506E+05 -1.081904E+05 -5.507798E+04 -1.292069E+05  7.963106E-11 -4.345957E-10
       148  14 -2.911799E+05 -5.957612E+04 -2.402996E+04 -1.339682E+05  1.487000E-09 -8.222706E-10
       148  15 -2.892379E+05 -6.566883E+04 -1.352660E+04 -1.451630E+05 -3.077958E-10 -1.259819E-09
       148  16  7.384405E+04  5.061442E+04  4.704462E+04 -8.004876E+03 -4.842583E-10 -9.681227E-10
       148  17  3.597503E+04  6.912949E+04  5.648681E+04 -3.700016E+04  6.404945E-10 -7.930522E-10
       148  18 -1.976515E+03  3.498864E+04  5.353652E+04 -7.242876E+04 -1.386667E-10 -1.495582E-09
       148  19 -6.642073E+05 -2.669730E+05 -1.572071E+05 -2.503385E+05  5.238784E+04  1.364100E+04
       148  20 -6.182265E+05 -1.882701E+05 -1.045525E+05 -2.308884E+05  3.336585E+04 -6.006573E+03
       148  21 -5.764172E+05 -1.663224E+05 -8.059481E+04 -2.178677E+05  1.014720E+04 -1.448879E+04
       148  22 -2.952491E+05 -1.081900E+05 -5.507526E+04 -1.292067E+05  3.717400E+04  7.930050E+03
       148  23 -2.911790E+05 -5.957584E+04 -2.402833E+04 -1.339684E+05  2.842249E+04 -7.861147E+03
       148  24 -2.892376E+05 -6.566860E+04 -1.352586E+04 -1.451632E+05  1.547767E+04 -1.248785E+04
       148  25  7.384457E+04  5.061456E+04  4.704554E+04 -8.004837E+03  2.195014E+04  2.214104E+03
       148  26  3.597565E+04  6.912974E+04  5.648802E+04 -3.700035E+04  2.347628E+04 -9.716934E+03
       148  27 -1.976021E+03  3.498887E+04  5.353754E+04 -7.242893E+04  2.081082E+04 -1.048604E+04
       149   1 -5.286551E+05 -1.599836E+05 -6.832767E+04 -2.098873E+05 -1.067521E+04  1.111412E+04
       149   2 -4.855421E+05 -1.310192E+05 -5.100049E+04 -1.876925E+05 -6.481983E+03  9.856757E+03
       149   3 -4.287479E+05 -1.194345E+05 -3.674067E+04 -1.821589E+05 -2.101164E+03  8.097835E+03
       149   4 -2.874250E+05 -6.959053E+04 -1.067866E+04 -1.428405E+05 -1.273079E+04  1.034239E+04
       149   5 -2.941430E+05 -5.978013E+04 -5.526309E+03 -1.349458E+05 -8.998246E+03  8.912539E+03
       149   6 -2.870905E+05 -6.725740E+04 -3.075172E+03 -1.437130E+05 -5.078404E+03  6.981106E+03
       149   7 -4.613839E+04  2.080641E+04  4.696581E+04 -7.577031E+04 -1.478723E+04  9.570331E+03
       149   8 -1.027074E+05  1.146165E+04  3.994528E+04 -8.218418E+04 -1.151535E+04  7.968002E+03
       149   9 -1.454124E+05 -1.507873E+04  3.058914E+04 -1.052590E+05 -8.056399E+03  5.864098E+03
       149  10 -5.286553E+05 -1.599837E+05 -6.832812E+04 -2.098872E+05  1.768809E-08  7.560014E-09
       149  11 -4.855421E+05 -1.310194E+05 -5.100075E+04 -1.876924E+05  5.136143E-09  4.207368E-09
       149  12 -4.287479E+05 -1.194345E+05 -3.674080E+04 -1.821589E+05 -1.598558E-08 -4.803743E-09
       149  13 -2.874252E+05 -6.959069E+04 -1.067916E+04 -1.428404E+05  1.951457E-09  1.021483E-09
       149  14 -2.941431E+05 -5.978024E+04 -5.526611E+03 -1.349457E+05  2.764575E-09  3.620667E-09
       149  15 -2.870905E+05 -6.725746E+04 -3.075312E+03 -1.437130E+05  2.066922E-09  1.561768E-09
       149  16 -4.613864E+04  2.080625E+04  4.696523E+04 -7.577019E+04 -1.377991E-08 -5.523307E-09
       149  17 -1.027076E+05  1.146154E+04  3.994491E+04 -8.218411E+04  5.887014E-09  2.851505E-09
       149  18 -1.454125E+05 -1.507878E+04  3.058895E+04 -1.052590E+05  1.815392E-08  7.979981E-09
       149  19 -5.286551E+05 -1.599836E+05 -6.832767E+04 -2.098873E+05  1.067521E+04 -1.111412E+04
       149  20 -4.855421E+05 -1.310192E+05 -5.100049E+04 -1.876925E+05  6.481983E+03 -9.856757E+03
       149  21 -4.287479E+05 -1.194345E+05 -3.674067E+04 -1.821589E+05  2.101164E+03 -8.097835E+03
       149  22 -2.874250E+05 -6.959053E+04 -1.067866E+04 -1.428405E+05  1.273079E+04 -1.034239E+04
       149  23 -2.941430E+05 -5.978013E+04 -5.526309E+03 -1.349458E+05  8.998246E+03 -8.912539E+03
       149  24 -2.870905E+05 -6.725740E+04 -3.075172E+03 -1.437130E+05  5.078404E+03 -6.981106E+03
       149  25 -4.613839E+04  2.080641E+04  4.696581E+04 -7.577031E+04  1.478723E+04 -9.570331E+03
       149  26 -1.027074E+05  1.146165E+04  3.994528E+04 -8.218418E+04  1.151535E+04 -7.968002E+03
       149  27 -1.454124E+05 -1.507873E+04  3.058914E+04 -1.052590E+05  8.056399E+03 -5.864098E+03
       150   1 -3.874399E+05 -1.047013E+05 -2.600633E+04 -1.711420E+05 -1.116092E+03  6.350279E+03
       150   2 -3.445716E+05 -7.842831E+04 -1.320502E+04 -1.487486E+05  7.176807E+02  3.517206E+03
       150   3 -2.868326E+05 -6.730749E+04 -9.431188E+02 -1.435402E+05  2.559824E+03  6.611525E+02
       150   4 -2.869391E+05 -6.746471E+04 -2.346280E+03 -1.435721E+05 -3.948058E+03  5.288187E+03
       150   5 -2.943663E+05 -5.983241E+04 -1.310391E+03 -1.350008E+05 -2.135397E+03  2.447299E+03
       150   6 -2.869211E+05 -6.734801E+04 -7.969445E+02 -1.436152E+05 -3.144311E+02 -4.165764E+02
       150   7 -1.864282E+05 -3.022740E+04  2.131309E+04 -1.159982E+05 -6.780523E+03  4.225910E+03
       150   8 -2.441587E+05 -4.123637E+04  1.058405E+04 -1.212520E+05 -4.988718E+03  1.377302E+03
       150   9 -2.870095E+05 -6.738852E+04 -6.507345E+02 -1.436902E+05 -3.188671E+03 -1.494299E+03
       150  10 -3.874399E+05 -1.047013E+05 -2.600641E+04 -1.711420E+05 -1.323717E-09 -1.327681E-09
       150  11 -3.445716E+05 -7.842833E+04 -1.320504E+04 -1.487486E+05  3.258833E-10 -1.714185E-09
       150  12 -2.868326E+05 -6.730749E+04 -9.431319E+02 -1.435403E+05 -2.359428E-10 -9.453171E-10
       150  13 -2.869391E+05 -6.746474E+04 -2.346361E+03 -1.435721E+05 -9.142893E-10 -4.722460E-10
       150  14 -2.943663E+05 -5.983242E+04 -1.310411E+03 -1.350008E+05  2.091071E-09 -1.417118E-09
       150  15 -2.869211E+05 -6.734801E+04 -7.969450E+02 -1.436152E+05  8.443368E-11 -8.594298E-12
       150  16 -1.864282E+05 -3.022743E+04  2.131297E+04 -1.159982E+05  2.261228E-09  4.054223E-10
       150  17 -2.441587E+05 -4.123638E+04  1.058400E+04 -1.212520E+05 -8.539427E-10 -1.061115E-09
       150  18 -2.870095E+05 -6.738852E+04 -6.507578E+02 -1.436902E+05  2.085182E-09  5.823594E-10
       150  19 -3.874399E+05 -1.047013E+05 -2.600633E+04 -1.711420E+05  1.116092E+03 -6.350279E+03
       150  20 -3.445716E+05 -7.842831E+04 -1.320502E+04 -1.487486E+05 -7.176807E+02 -3.517206E+03
       150  21 -2.868326E+05 -6.730749E+04 -9.431188E+02 -1.435402E+05 -2.559824E+03 -6.611525E+02
       150  22 -2.869391E+05 -6.746471E+04 -2.346280E+03 -1.435721E+05  3.948058E+03 -5.288187E+03
       150  23 -2.943663E+05 -5.983241E+04 -1.310391E+03 -1.350008E+05  2.135397E+03 -2.447299E+03
       150  24 -2.869211E+05 -6.734801E+04 -7.969445E+02 -1.436152E+05  3.144311E+02  4.165764E+02
       150  25 -1.864282E+05 -3.022740E+04  2.131309E+04 -1.159982E+05  6.780523E+03 -4.225910E+03
       150  26 -2.441587E+05 -4.123637E+04  1.058405E+04 -1.212520E+05  4.988718E+03 -1.377302E+03
       150  27 -2.870095E+05 -6.738852E+04 -6.507345E+02 -1.436902E+05  3.188671E+03  1.494299E+03
       151   1 -2.459022E+05 -5.210313E+04  9.229637E+03 -1.323490E+05  3.354291E+03 -1.111342E+03
       151   2 -2.030871E+05 -2.597483E+04  2.108893E+04 -1.099419E+05  4.792872E+03 -4.123078E+03
       151   3 -1.453023E+05 -1.486360E+04  3.274463E+04 -1.047285E+05  6.231825E+03 -7.134574E+03
       151   4 -2.869057E+05 -6.735594E+04 -6.607408E+02 -1.436036E+05  4.867191E+02 -2.186594E+03
       151   5 -2.943908E+05 -5.984907E+04 -5.441977E+02 -1.350059E+05  1.925282E+03 -5.198540E+03
       151   6 -2.869099E+05 -6.736031E+04 -6.315722E+02 -1.436036E+05  3.364178E+03 -8.210228E+03
       151   7 -3.279078E+05 -8.260876E+04 -1.055131E+04 -1.548577E+05 -2.380671E+03 -3.261778E+03
       151   8 -3.856858E+05 -9.372260E+04 -2.217780E+04 -1.600665E+05 -9.418408E+02 -6.273827E+03
       151   9 -4.284953E+05 -1.198548E+05 -3.400855E+04 -1.824699E+05  4.972857E+02 -9.285599E+03
       151  10 -2.459022E+05 -5.210314E+04  9.229613E+03 -1.323490E+05 -4.097125E-10  4.272935E-10
       151  11 -2.030872E+05 -2.597486E+04  2.108885E+04 -1.099419E+05  4.591905E-10  4.019021E-10
       151  12 -1.453024E+05 -1.486366E+04  3.274446E+04 -1.047285E+05 -1.515224E-09  9.535313E-11
       151  13 -2.869057E+05 -6.735595E+04 -6.607503E+02 -1.436036E+05 -2.050450E-10  5.228581E-10
       151  14 -2.943908E+05 -5.984910E+04 -5.442554E+02 -1.350059E+05 -2.769347E-10  3.665694E-10
       151  15 -2.869099E+05 -6.736038E+04 -6.317201E+02 -1.436035E+05  2.199171E-09 -5.811262E-11
       151  16 -3.279078E+05 -8.260878E+04 -1.055134E+04 -1.548577E+05 -4.919913E-10  7.032844E-10
       151  17 -3.856858E+05 -9.372264E+04 -2.217788E+04 -1.600665E+05 -2.382479E-10  2.883605E-10
       151  18 -4.284953E+05 -1.198549E+05 -3.400871E+04 -1.824699E+05 -1.253830E-09 -2.928624E-10
       151  19 -2.459022E+05 -5.210313E+04  9.229637E+03 -1.323490E+05 -3.354291E+03  1.111342E+03
       151  20 -2.030871E+05 -2.597483E+04  2.108893E+04 -1.099419E+05 -4.792872E+03  4.123078E+03
       151  21 -1.453023E+05 -1.486360E+04  3.274463E+04 -1.047285E+05 -6.231825E+03  7.134574E+03
       151  22 -2.869057E+05 -6.735594E+04 -6.607408E+02 -1.436036E+05 -4.867191E+02  2.186594E+03
       151  23 -2.943908E+05 -5.984907E+04 -5.441977E+02 -1.350059E+05 -1.925282E+03  5.198540E+03
       151  24 -2.869099E+05 -6.736031E+04 -6.315722E+02 -1.436036E+05 -3.364178E+03  8.210228E+03
       151  25 -3.279078E+05 -8.260876E+04 -1.055131E+04 -1.548577E+05  2.380671E+03  3.261778E+03
       151  26 -3.856858E+05 -9.372260E+04 -2.217780E+04 -1.600665E+05  9.418408E+02  6.273827E+03
       151  27 -4.284953E+05 -1.198548E+05 -3.400855E+04 -1.824699E+05 -4.972857E+02  9.285599E+03
       152   1 -1.044510E+05  3.531680E+02  4.265296E+04 -9.353610E+04  7.024887E+03 -8.903450E+03
       152   2 -6.170042E+04  2.644031E+04  5.390422E+04 -7.115415E+04  8.794869E+03 -1.178607E+04
       152   3 -4.030910E+03  3.750924E+04  6.470491E+04 -6.593735E+04  1.056425E+04 -1.466373E+04
       152   4 -2.869228E+05 -6.735668E+04 -7.504084E+02 -1.435997E+05  4.158589E+03 -9.978805E+03
       152   5 -2.943863E+05 -5.986363E+04 -1.219751E+03 -1.350115E+05  5.932584E+03 -1.286043E+04
       152   6 -2.869334E+05 -6.738997E+04 -2.142626E+03 -1.435898E+05  7.705924E+03 -1.573711E+04
       152   7 -4.693627E+05 -1.350646E+05 -4.415648E+04 -1.936502E+05  1.293188E+03 -1.105382E+04
       152   8 -5.270212E+05 -1.461648E+05 -5.634831E+04 -1.988478E+05  3.071430E+03 -1.393436E+04
       152   9 -5.697613E+05 -1.722853E+05 -6.899715E+04 -2.212114E+05  4.848967E+03 -1.680999E+04
       152  10 -1.044511E+05  3.530696E+02  4.265272E+04 -9.353605E+04 -1.879608E-09 -1.871594E-10
       152  11 -6.170054E+04  2.644014E+04  5.390381E+04 -7.115406E+04 -1.727081E-09  3.035035E-10
       152  12 -4.031088E+03  3.750898E+04  6.470429E+04 -6.593723E+04  1.193852E-10  3.625713E-10
       152  13 -2.869228E+05 -6.735679E+04 -7.506280E+02 -1.435996E+05  9.821829E-10  6.338628E-12
       152  14 -2.943864E+05 -5.986381E+04 -1.220128E+03 -1.350114E+05  2.625878E-09  1.623062E-10
       152  15 -2.869335E+05 -6.739026E+04 -2.143203E+03 -1.435897E+05  1.807795E-09  1.906844E-10
       152  16 -4.693627E+05 -1.350648E+05 -4.415671E+04 -1.936502E+05  2.199943E-09  1.030259E-10
       152  17 -5.270213E+05 -1.461650E+05 -5.634870E+04 -1.988478E+05 -8.382419E-11  5.393278E-10
       152  18 -5.697614E+05 -1.722857E+05 -6.899772E+04 -2.212113E+05 -1.845502E-10  3.235616E-10
       152  19 -1.044510E+05  3.531680E+02  4.265296E+04 -9.353610E+04 -7.024887E+03  8.903450E+03
       152  20 -6.170042E+04  2.644031E+04  5.390422E+04 -7.115415E+04 -8.794869E+03  1.178607E+04
       152  21 -4.030910E+03  3.750924E+04  6.470491E+04 -6.593735E+04 -1.056425E+04  1.466373E+04
       152  22 -2.869228E+05 -6.735668E+04 -7.504084E+02 -1.435997E+05 -4.158589E+03  9.978805E+03
       152  23 -2.943863E+05 -5.986363E+04 -1.219751E+03 -1.350115E+05 -5.932584E+03  1.286043E+04
       152  24 -2.869334E+05 -6.738997E+04 -2.142626E+03 -1.435898E+05 -7.705924E+03  1.573711E+04
       152  25 -4.693627E+05 -1.350646E+05 -4.415648E+04 -1.936502E+05 -1.293188E+03  1.105382E+04
       152  26 -5.270212E+05 -1.461648E+05 -5.634831E+04 -1.988478E+05 -3.071430E+03  1.393436E+04
       152  27 -5.697613E+05 -1.722853E+05 -6.899715E+04 -2.212114E+05 -4.848967E+03  1.680999E+04
       153   1  3.669541E+04  5.267399E+04  7.401358E+04 -5.486494E+04  1.166371E+04 -1.631569E+04
       153   2  7.941831E+04  7.877841E+04  8.342213E+04 -3.242930E+04  1.533905E+04 -1.846010E+04
       153   3  1.366079E+05  8.938357E+04  9.083132E+04 -2.704561E+04  1.899939E+04 -2.055932E+04
       153   4 -2.870232E+05 -6.735073E+04 -2.833303E+03 -1.436237E+05  8.796499E+03 -1.739281E+04
       153   5 -2.942916E+05 -5.984079E+04 -5.111627E+03 -1.350082E+05  1.251152E+04 -1.952309E+04
       153   6 -2.871032E+05 -6.783836E+04 -9.421301E+03 -1.434456E+05  1.621133E+04 -2.160824E+04
       153   7 -6.106327E+05 -1.873661E+05 -7.968624E+04 -2.323391E+05  5.930960E+03 -1.846930E+04
       153   8 -6.678594E+05 -1.984488E+05 -9.365437E+04 -2.375300E+05  9.685869E+03 -2.058537E+04
       153   9 -7.106350E+05 -2.250471E+05 -1.096864E+05 -2.597730E+05  1.342536E+04 -2.265638E+04
       153  10  3.669520E+04  5.267367E+04  7.401282E+04 -5.486479E+04  7.932077E-10  4.358485E-11
       153  11  7.941796E+04  7.877798E+04  8.342105E+04 -3.242907E+04 -1.670681E-09 -6.475284E-10
       153  12  1.366074E+05  8.938301E+04  9.082985E+04 -2.704530E+04 -2.781280E-10  2.221882E-10
       153  13 -2.870234E+05 -6.735108E+04 -2.834017E+03 -1.436236E+05 -2.572178E-10  6.376060E-10
       153  14 -2.942918E+05 -5.984124E+04 -5.112637E+03 -1.350080E+05  9.595064E-10  4.116070E-10
       153  15 -2.871036E+05 -6.783893E+04 -9.422672E+03 -1.434453E+05  1.561950E-09  3.153712E-10
       153  16 -6.106328E+05 -1.873665E+05 -7.968694E+04 -2.323390E+05 -4.291863E-10  3.931436E-10
       153  17 -6.678596E+05 -1.984493E+05 -9.365534E+04 -2.375299E+05  7.906246E-10 -2.526792E-10
       153  18 -7.106354E+05 -2.250477E+05 -1.096877E+05 -2.597728E+05  1.180517E-09  4.424443E-10
       153  19  3.669541E+04  5.267399E+04  7.401358E+04 -5.486494E+04 -1.166371E+04  1.631569E+04
       153  20  7.941831E+04  7.877841E+04  8.342213E+04 -3.242930E+04 -1.533905E+04  1.846010E+04
       153  21  1.366079E+05  8.938357E+04  9.083132E+04 -2.704561E+04 -1.899939E+04  2.055932E+04
       153  22 -2.870232E+05 -6.735073E+04 -2.833303E+03 -1.436237E+05 -8.796499E+03  1.739281E+04
       153  23 -2.942916E+05 -5.984079E+04 -5.111627E+03 -1.350082E+05 -1.251152E+04  1.952309E+04
       153  24 -2.871032E+05 -6.783836E+04 -9.421301E+03 -1.434456E+05 -1.621133E+04  2.160824E+04
       153  25 -6.106327E+05 -1.873661E+05 -7.968624E+04 -2.323391E+05 -5.930960E+03  1.846930E+04
       153  26 -6.678594E+05 -1.984488E+05 -9.365437E+04 -2.375300E+05 -9.685869E+03  2.058537E+04
       153  27 -7.106350E+05 -2.250471E+05 -1.096864E+05 -2.597730E+05 -1.342536E+04  2.265638E+04
       154   1  1.777325E+05  1.042240E+05  9.774911E+04 -1.776299E+04  2.171406E+04 -2.168084E+04
       154   2  2.199439E+05  1.319472E+05  9.950279E+04  7.302585E+03  3.332922E+04 -2.056824E+04
       154   3  2.723114E+05  1.355999E+05  9.095990E+04  1.740132E+04  4.460742E+04 -1.855083E+04
       154   4 -2.877119E+05 -6.700523E+04 -1.241673E+04 -1.440287E+05  1.866646E+04 -2.282783E+04
       154   5 -2.933826E+05 -5.961012E+04 -2.242784E+04 -1.347714E+05  3.110545E+04 -2.140666E+04
       154   6 -2.890674E+05 -7.645630E+04 -4.339546E+04 -1.404834E+05  4.320643E+04 -1.908073E+04
       154   7 -7.529439E+05 -2.382210E+05 -1.225986E+05 -2.702094E+05  1.562133E+04 -2.397391E+04
       154   8 -8.064488E+05 -2.511485E+05 -1.443777E+05 -2.767387E+05  2.888367E+04 -2.224433E+04
       154   9 -8.501335E+05 -2.884873E+05 -1.777737E+05 -2.982372E+05  4.180681E+04 -1.961010E+04
       154  10  1.777319E+05  1.042233E+05  9.774734E+04 -1.776261E+04  2.777011E-10  6.683530E-10
       154  11  2.199426E+05  1.319465E+05  9.949991E+04  7.303137E+03  6.332919E-10  1.387427E-09
       154  12  2.723091E+05  1.355990E+05  9.095551E+04  1.740198E+04 -5.346669E-11  2.970006E-10
       154  13 -2.877124E+05 -6.700588E+04 -1.241836E+04 -1.440284E+05  1.397278E-09 -5.474467E-10
       154  14 -2.933837E+05 -5.961087E+04 -2.243052E+04 -1.347709E+05  2.227738E-09 -2.360788E-11
       154  15 -2.890695E+05 -7.645719E+04 -4.339965E+04 -1.404828E+05 -2.076255E-09 -1.298061E-09
       154  16 -7.529443E+05 -2.382216E+05 -1.226001E+05 -2.702091E+05  1.180745E-09 -6.495270E-11
       154  17 -8.064498E+05 -2.511493E+05 -1.443802E+05 -2.767382E+05  9.824286E-10 -1.090022E-09
       154  18 -8.501355E+05 -2.884882E+05 -1.777777E+05 -2.982366E+05 -3.984101E-09 -2.254010E-09
       154  19  1.777325E+05  1.042240E+05  9.774911E+04 -1.776299E+04 -2.171406E+04  2.168084E+04
       154  20  2.199439E+05  1.319472E+05  9.950279E+04  7.302585E+03 -3.332922E+04  2.056824E+04
       154  21  2.723114E+05  1.355999E+05  9.095990E+04  1.740132E+04 -4.460742E+04  1.855083E+04
       154  22 -2.877119E+05 -6.700523E+04 -1.241673E+04 -1.440287E+05 -1.866646E+04  2.282783E+04
       154  23 -2.933826E+05 -5.961012E+04 -2.242784E+04 -1.347714E+05 -3.110545E+04  2.140666E+04
       154  24 -2.890674E+05 -7.645630E+04 -4.339546E+04 -1.404834E+05 -4.320643E+04  1.908073E+04
       154  25 -7.529439E+05 -2.382210E+05 -1.225986E+05 -2.702094E+05 -1.562133E+04  2.397391E+04
       154  26 -8.064488E+05 -2.511485E+05 -1.443777E+05 -2.767387E+05 -2.888367E+04  2.224433E+04
       154  27 -8.501335E+05 -2.884873E+05 -1.777737E+05 -2.982372E+05 -4.180681E+04  1.961010E+04
       155   1  3.260422E+05  1.463190E+05  8.822043E+04 -3.861822E+03  5.874054E+04 -1.727377E+04
       155   2  3.503386E+05  2.055000E+05  6.022013E+04  7.270508E+04  9.181009E+04 -2.367751E+03
       155   3  3.244145E+05  9.122972E+04 -3.665758E+04  1.749344E+05  1.173301E+05  3.258337E+04
       155   4 -2.962275E+05 -6.072080E+04 -5.498242E+04 -1.501810E+05  5.145398E+04 -2.001691E+04
       155   5 -2.815312E+05 -5.846492E+04 -9.767857E+04 -1.305034E+05  1.029494E+05  1.819782E+03
       155   6 -3.207786E+05 -2.334285E+05 -2.239112E+05 -8.514901E+04  1.468883E+05  4.370347E+04
       155   7 -9.181125E+05 -2.677507E+05 -1.982105E+05 -2.963748E+05  4.417537E+04 -2.275778E+04
       155   8 -9.129969E+05 -3.223699E+05 -2.556064E+05 -3.335115E+05  1.140762E+05  6.001330E+03
       155   9 -9.655380E+05 -5.579484E+05 -4.111971E+05 -3.449512E+05  1.764124E+05  5.480095E+04
       155  10  3.260385E+05  1.463178E+05  8.821339E+04 -3.861005E+03 -4.225204E-09 -1.546760E-10
       155  11  3.503295E+05  2.054977E+05  6.020429E+04  7.270525E+04  4.527002E-10  1.493995E-09
       155  12  3.243994E+05  9.122489E+04 -3.668543E+04  1.749314E+05  4.396590E-10  1.741722E-09
       155  13 -2.962305E+05 -6.072194E+04 -5.498815E+04 -1.501802E+05 -3.807258E-09 -2.061255E-09
       155  14 -2.815425E+05 -5.846777E+04 -9.769851E+04 -1.305035E+05 -1.862757E-09  4.859581E-10
       155  15 -3.208023E+05 -2.334364E+05 -2.239554E+05 -8.515418E+04 -1.830021E-10  2.999729E-09
       155  16 -9.181147E+05 -2.677518E+05 -1.982151E+05 -2.963740E+05 -1.747591E-09 -1.078031E-09
       155  17 -9.130109E+05 -3.223734E+05 -2.556309E+05 -3.335121E+05 -2.310627E-09  1.438912E-09
       155  18 -9.655723E+05 -5.579600E+05 -4.112613E+05 -3.449590E+05 -3.705516E-10 -2.060321E-09
       155  19  3.260422E+05  1.463190E+05  8.822043E+04 -3.861822E+03 -5.874054E+04  1.727377E+04
       155  20  3.503386E+05  2.055000E+05  6.022013E+04  7.270508E+04 -9.181009E+04  2.367751E+03
       155  21  3.244145E+05  9.122972E+04 -3.665758E+04  1.749344E+05 -1.173301E+05 -3.258337E+04
       155  22 -2.962275E+05 -6.072080E+04 -5.498242E+04 -1.501810E+05 -5.145398E+04  2.001691E+04
       155  23 -2.815312E+05 -5.846492E+04 -9.767857E+04 -1.305034E+05 -1.029494E+05 -1.819782E+03
       155  24 -3.207786E+05 -2.334285E+05 -2.239112E+05 -8.514901E+04 -1.468883E+05 -4.370347E+04
       155  25 -9.181125E+05 -2.677507E+05 -1.982105E+05 -2.963748E+05 -4.417537E+04  2.275778E+04
       155  26 -9.129969E+05 -3.223699E+05 -2.556064E+05 -3.335115E+05 -1.140762E+05 -6.001330E+03
       155  27 -9.655380E+05 -5.579484E+05 -4.111971E+05 -3.449512E+05 -1.764124E+05 -5.480095E+04
       156   1  2.123019E+05  2.007622E+06  2.222878E+05  2.577688E+04  7.913518E+03  1.202442E+05
       156   2  1.403816E+05  2.099881E+06  1.657535E+05  4.896587E+04  2.926317E+04  7.390560E+04
       156   3  1.473834E+05  2.217977E+06  1.590838E+05  1.010505E+05  4.127396E+04  2.755931E+04
       156   4  1.106581E+05  1.594578E+06  1.265555E+05  9.146119E+04  7.938365E+03  8.330637E+04
       156   5  1.675947E+04  1.582836E+06  6.376428E+04  7.698429E+04  2.927892E+04  5.023476E+04
       156   6 -4.889308E+02  1.594626E+06  4.165440E+04  9.139910E+04  4.128263E+04  1.716150E+04
       156   7  9.019205E+03  1.181703E+06  3.081925E+04  1.571016E+05  7.955428E+03  4.639284E+04
       156   8 -1.068756E+05  1.066048E+06 -3.823550E+04  1.049790E+05  2.929255E+04  2.658314E+04
       156   9 -1.483834E+05  9.716487E+05 -7.579163E+04  8.175763E+04  4.129163E+04  6.773841E+03
       156  10  2.122980E+05  2.007606E+06  2.222606E+05  2.577611E+04  8.278735E-10 -1.283580E-10
       156  11  1.403792E+05  2.099875E+06  1.657417E+05  4.896413E+04 -1.219880E-09 -1.922722E-09
       156  12  1.473814E+05  2.217975E+06  1.590792E+05  1.010496E+05 -3.951423E-10 -1.245334E-09
       156  13  1.106562E+05  1.594570E+06  1.265424E+05  9.146066E+04 -1.059829E-09 -8.090938E-11
       156  14  1.675787E+04  1.582833E+06  6.375794E+04  7.698311E+04 -3.315029E-10 -1.623050E-09
       156  15 -4.908408E+02  1.594625E+06  4.165064E+04  9.139853E+04 -6.886410E-10 -1.217022E-09
       156  16  9.018561E+03  1.181700E+06  3.081509E+04  1.571013E+05 -6.732585E-10 -4.987395E-10
       156  17 -1.068767E+05  1.066047E+06 -3.823844E+04  1.049783E+05 -1.320779E-09  6.781384E-10
       156  18 -1.483852E+05  9.716482E+05 -7.579492E+04  8.175740E+04 -8.524352E-10  1.295539E-09
       156  19  2.123019E+05  2.007622E+06  2.222878E+05  2.577688E+04 -7.913518E+03 -1.202442E+05
       156  20  1.403816E+05  2.099881E+06  1.657535E+05  4.896587E+04 -2.926317E+04 -7.390560E+04
       156  21  1.473834E+05  2.217977E+06  1.590838E+05  1.010505E+05 -4.127396E+04 -2.755931E+04
       156  22  1.106581E+05  1.594578E+06  1.265555E+05  9.146119E+04 -7.938365E+03 -8.330637E+04
       156  23  1.675947E+04  1.582836E+06  6.376428E+04  7.698429E+04 -2.927892E+04 -5.023476E+04
       156  24 -4.889308E+02  1.594626E+06  4.165440E+04  9.139910E+04 -4.128263E+04 -1.716150E+04
       156  25  9.019205E+03  1.181703E+06  3.081925E+04  1.571016E+05 -7.955428E+03 -4.639284E+04
       156  26 -1.068756E+05  1.066048E+06 -3.823550E+04  1.049790E+05 -2.929255E+04 -2.658314E+04
       156  27 -1.483834E+05  9.716487E+05 -7.579163E+04  8.175763E+04 -4.129163E+04 -6.773841E+03
       157   1  1.686501E+05  2.285129E+06  1.681492E+05  8.823506E+04  4.568201E+04  2.351942E+04
       157   2  1.904149E+05  2.388480E+06  1.850365E+05  7.667274E+04  5.312875E+04  2.496955E+03
       157   3  2.210726E+05  2.496955E+06  2.178381E+05  9.351040E+04  5.786240E+04 -1.852726E+04
       157   4  3.762374E+03  1.590357E+06  3.696910E+04  9.130100E+04  4.569419E+04  1.102773E+04
       157   5  5.715647E+02  1.588103E+06  3.438122E+04  7.710042E+04  5.314145E+04 -6.123282E+03
       157   6  5.610539E+03  1.590298E+06  4.503681E+04  9.130162E+04  5.787408E+04 -2.327261E+04
       157   7 -1.611533E+05  8.960491E+05 -9.423169E+04  9.436348E+04  4.570626E+04 -1.450360E+03
       157   8 -1.893089E+05  7.883423E+05 -1.163018E+05  7.752763E+04  5.315416E+04 -1.473271E+04
       157   9 -2.098996E+05  6.844302E+05 -1.278015E+05  8.909626E+04  5.788581E+04 -2.801121E+04
       157  10  1.686477E+05  2.285128E+06  1.681442E+05  8.823420E+04 -4.865941E-11  1.582331E-09
       157  11  1.904119E+05  2.388480E+06  1.850312E+05  7.667263E+04 -5.968709E-10 -1.903268E-09
       157  12  2.210689E+05  2.496954E+06  2.178312E+05  9.351126E+04 -9.510155E-10 -2.024698E-09
       157  13  3.760098E+03  1.590356E+06  3.696495E+04  9.130060E+04 -8.659143E-10 -1.017477E-10
       157  14  5.685200E+02  1.588102E+06  3.437584E+04  7.710068E+04  3.179984E-09 -2.449679E-09
       157  15  5.606795E+03  1.590297E+06  4.502949E+04  9.130270E+04 -1.181466E-09 -1.916864E-09
       157  16 -1.611555E+05  8.960485E+05 -9.423562E+04  9.436354E+04 -2.024824E-09 -2.494004E-09
       157  17 -1.893120E+05  7.883413E+05 -1.163075E+05  7.752826E+04 -3.849201E-10 -8.909123E-10
       157  18 -2.099034E+05  6.844284E+05 -1.278093E+05  8.909757E+04 -1.016489E-09  1.215816E-09
       157  19  1.686501E+05  2.285129E+06  1.681492E+05  8.823506E+04 -4.568201E+04 -2.351942E+04
       157  20  1.904149E+05  2.388480E+06  1.850365E+05  7.667274E+04 -5.312875E+04 -2.496955E+03
       157  21  2.210726E+05  2.496955E+06  2.178381E+05  9.351040E+04 -5.786240E+04  1.852726E+04
       157  22  3.762374E+03  1.590357E+06  3.696910E+04  9.130100E+04 -4.569419E+04 -1.102773E+04
       157  23  5.715647E+02  1.588103E+06  3.438122E+04  7.710042E+04 -5.314145E+04  6.123282E+03
       157  24  5.610539E+03  1.590298E+06  4.503681E+04  9.130162E+04 -5.787408E+04  2.327261E+04
       157  25 -1.611533E+05  8.960491E+05 -9.423169E+04  9.436348E+04 -4.570626E+04  1.450360E+03
       157  26 -1.893089E+05  7.883423E+05 -1.163018E+05  7.752763E+04 -5.315416E+04  1.473271E+04
       157  27 -2.098996E+05  6.844302E+05 -1.278015E+05  8.909626E+04 -5.788581E+04  2.801121E+04
       158   1  2.321877E+05  2.577031E+06  2.413295E+05  7.529069E+04  6.213721E+04 -2.046127E+04
       158   2  2.842743E+05  2.663564E+06  3.096445E+05  1.164835E+05  5.455865E+04 -1.097301E+05
       158   3  4.547826E+05  2.791523E+06  4.655756E+05  1.846954E+05  1.692467E+04 -1.990730E+05
       158   4 -8.576394E+02  1.596869E+06  5.413570E+04  9.095099E+04  6.215615E+04 -3.086273E+04
       158   5  2.414107E+04  1.579733E+06  8.954267E+04  7.755159E+04  5.453000E+04 -7.737770E+04
       158   6  1.602604E+05  1.596674E+06  1.830146E+05  9.116168E+04  1.684023E+04 -1.239466E+05
       158   7 -2.339585E+05  6.176290E+05 -1.331012E+05  1.065863E+05  6.217460E+04 -4.124819E+04
       158   8 -2.360587E+05  4.970200E+05 -1.306157E+05  3.868895E+04  5.449728E+04 -4.508048E+04
       158   9 -1.343277E+05  4.031632E+05 -9.961942E+04 -2.191369E+03  1.673317E+04 -4.896342E+04
       158  10  2.321834E+05  2.577030E+06  2.413215E+05  7.529171E+04 -8.692521E-10  2.773172E-09
       158  11  2.842679E+05  2.663550E+06  3.096163E+05  1.164883E+05  1.209929E-09 -1.824647E-09
       158  12  4.547717E+05  2.791480E+06  4.655009E+05  1.846981E+05  1.826246E-09 -2.073487E-10
       158  13 -8.620462E+02  1.596867E+06  5.412665E+04  9.095253E+04 -1.501602E-09  2.230884E-10
       158  14  2.413627E+04  1.579725E+06  8.952586E+04  7.755498E+04 -3.121413E-10 -3.469861E-09
       158  15  1.602560E+05  1.596658E+06  1.829852E+05  9.116336E+04  5.473940E-10 -2.483782E-09
       158  16 -2.339631E+05  6.176261E+05 -1.331116E+05  1.065883E+05 -1.596036E-09 -4.416333E-09
       158  17 -2.360625E+05  4.970170E+05 -1.306251E+05  3.869092E+04 -1.842144E-09 -2.577991E-09
       158  18 -1.343286E+05  4.031605E+05 -9.962444E+04 -2.190709E+03  2.320438E-10 -1.601964E-10
       158  19  2.321877E+05  2.577031E+06  2.413295E+05  7.529069E+04 -6.213721E+04  2.046127E+04
       158  20  2.842743E+05  2.663564E+06  3.096445E+05  1.164835E+05 -5.455865E+04  1.097301E+05
       158  21  4.547826E+05  2.791523E+06  4.655756E+05  1.846954E+05 -1.692467E+04  1.990730E+05
       158  22 -8.576394E+02  1.596869E+06  5.413570E+04  9.095099E+04 -6.215615E+04  3.086273E+04
       158  23  2.414107E+04  1.579733E+06  8.954267E+04  7.755159E+04 -5.453000E+04  7.737770E+04
       158  24  1.602604E+05  1.596674E+06  1.830146E+05  9.116168E+04 -1.684023E+04  1.239466E+05
       158  25 -2.339585E+05  6.176290E+05 -1.331012E+05  1.065863E+05 -6.217460E+04  4.124819E+04
       158  26 -2.360587E+05  4.970200E+05 -1.306157E+05  3.868895E+04 -5.449728E+04  4.508048E+04
       158  27 -1.343277E+05  4.031632E+05 -9.961942E+04 -2.191369E+03 -1.673317E+04  4.896342E+04
       159   1 -2.441682E+05 -1.328395E+05 -9.465386E+04  2.853424E+03  8.149309E+04  1.567756E+04
       159   2 -1.502088E+05 -2.548935E+05 -1.464755E+05 -2.616101E+04  6.626044E+04  4.914855E+04
       159   3 -1.896842E+04 -2.376764E+05 -1.534781E+05 -9.704349E+04  5.106487E+04  5.171115E+04
       159   4  9.289609E+05  1.580749E+05  1.885033E+05 -7.466259E+04  1.298112E+05  1.572627E+04
       159   5  9.077925E+05  3.149656E+03  8.646034E+04 -5.364983E+04  8.410445E+04  4.915643E+04
       159   6  9.291025E+05 -7.356118E+03  5.031966E+04 -7.449492E+04  3.843970E+04  5.169940E+04
       159   7  2.103366E+06  4.489130E+05  4.715741E+05 -1.523259E+05  1.782202E+05  1.576289E+04
       159   8  1.966842E+06  2.611209E+05  3.193292E+05 -8.118626E+04  1.019784E+05  4.916272E+04
       159   9  1.878019E+06  2.229072E+05  2.540657E+05 -5.191152E+04  2.579548E+04  5.168675E+04
       159  10 -2.441754E+05 -1.328416E+05 -9.466681E+04  2.852395E+03  1.916166E-10 -8.476788E-11
       159  11 -1.502141E+05 -2.548973E+05 -1.464883E+05 -2.616363E+04  2.469236E-10 -1.976140E-10
       159  12 -1.897194E+04 -2.376800E+05 -1.534881E+05 -9.704562E+04 -5.055639E-11  1.872259E-10
       159  13  9.289428E+05  1.580701E+05  1.884712E+05 -7.466424E+04 -1.358202E-11 -1.021100E-10
       159  14  9.077843E+05  3.145165E+03  8.644252E+04 -5.365316E+04 -1.399028E-10 -2.082018E-10
       159  15  9.291002E+05 -7.359386E+03  5.031186E+04 -7.449652E+04 -3.069952E-10 -2.798900E-11
       159  16  2.103332E+06  4.489042E+05  4.715142E+05 -1.523282E+05 -4.265430E-10 -4.591108E-11
       159  17  1.966830E+06  2.611155E+05  3.193052E+05 -8.119029E+04  2.196927E-11 -1.739365E-10
       159  18  1.878018E+06  2.229041E+05  2.540594E+05 -5.191260E+04 -4.299985E-10 -1.993490E-10
       159  19 -2.441682E+05 -1.328395E+05 -9.465386E+04  2.853424E+03 -8.149309E+04 -1.567756E+04
       159  20 -1.502088E+05 -2.548935E+05 -1.464755E+05 -2.616101E+04 -6.626044E+04 -4.914855E+04
       159  21 -1.896842E+04 -2.376764E+05 -1.534781E+05 -9.704349E+04 -5.106487E+04 -5.171115E+04
       159  22  9.289609E+05  1.580749E+05  1.885033E+05 -7.466259E+04 -1.298112E+05 -1.572627E+04
       159  23  9.077925E+05  3.149656E+03  8.646034E+04 -5.364983E+04 -8.410445E+04 -4.915643E+04
       159  24  9.291025E+05 -7.356118E+03  5.031966E+04 -7.449492E+04 -3.843970E+04 -5.169940E+04
       159  25  2.103366E+06  4.489130E+05  4.715741E+05 -1.523259E+05 -1.782202E+05 -1.576289E+04
       159  26  1.966842E+06  2.611209E+05  3.193292E+05 -8.118626E+04 -1.019784E+05 -4.916272E+04
       159  27  1.878019E+06  2.229072E+05  2.540657E+05 -5.191152E+04 -2.579548E+04 -5.168675E+04
       160   1  6.055492E+04 -2.014392E+05 -1.459020E+05 -7.236661E+04  3.535535E+04  4.552877E+04
       160   2  1.700165E+05 -1.821062E+05 -1.392954E+05 -5.296390E+04  2.589554E+04  4.076738E+04
       160   3  2.827686E+05 -1.554198E+05 -1.246427E+05 -7.625717E+04  1.642944E+04  3.460600E+04
       160   4  9.204666E+05  7.593933E+03  3.980396E+04 -7.472289E+04  3.139185E+04  4.552218E+04
       160   5  9.187384E+05 -2.565139E+02  2.166160E+04 -5.337572E+04  2.054033E+04  4.076246E+04
       160   6  9.205247E+05 -5.175983E+02  1.252230E+04 -7.472100E+04  9.684181E+03  3.460351E+04
       160   7  1.781072E+06  2.165784E+05  2.254663E+05 -7.708252E+04  2.742291E+04  4.551562E+04
       160   8  1.667987E+06  1.815564E+05  1.825859E+05 -5.378804E+04  1.517874E+04  4.075754E+04
       160   9  1.558663E+06  1.543579E+05  1.496637E+05 -7.318321E+04  2.932092E+03  3.460099E+04
       160  10  6.055302E+04 -2.014418E+05 -1.459082E+05 -7.236791E+04 -4.044641E-10  3.510319E-10
       160  11  1.700154E+05 -1.821081E+05 -1.392998E+05 -5.296476E+04  9.005241E-10  1.725707E-10
       160  12  2.827680E+05 -1.554211E+05 -1.246455E+05 -7.625763E+04  5.931171E-10 -3.223118E-10
       160  13  9.204650E+05  7.591442E+03  3.979821E+04 -7.472404E+04 -5.594259E-10  8.858989E-11
       160  14  9.187375E+05 -2.584120E+02  2.165769E+04 -5.337639E+04  4.488651E-10  4.515562E-11
       160  15  9.205243E+05 -5.189098E+02  1.251988E+04 -7.472127E+04  5.761952E-11  2.991030E-12
       160  16  1.781071E+06  2.165760E+05  2.254610E+05 -7.708352E+04  3.141365E-10 -1.263814E-10
       160  17  1.667986E+06  1.815546E+05  1.825824E+05 -5.378854E+04 -8.962033E-10 -2.204154E-11
       160  18  1.558662E+06  1.543566E+05  1.496614E+05 -7.318329E+04 -3.903161E-10  2.234159E-10
       160  19  6.055492E+04 -2.014392E+05 -1.459020E+05 -7.236661E+04 -3.535535E+04 -4.552877E+04
       160  20  1.700165E+05 -1.821062E+05 -1.392954E+05 -5.296390E+04 -2.589554E+04 -4.076738E+04
       160  21  2.827686E+05 -1.554198E+05 -1.246427E+05 -7.625717E+04 -1.642944E+04 -3.460600E+04
       160  22  9.204666E+05  7.593933E+03  3.980396E+04 -7.472289E+04 -3.139185E+04 -4.552218E+04
       160  23  9.187384E+05 -2.565139E+02  2.166160E+04 -5.337572E+04 -2.054033E+04 -4.076246E+04
       160  24  9.205247E+05 -5.175983E+02  1.252230E+04 -7.472100E+04 -9.684181E+03 -3.460351E+04
       160  25  1.781072E+06  2.165784E+05  2.254663E+05 -7.708252E+04 -2.742291E+04 -4.551562E+04
       160  26  1.667987E+06  1.815564E+05  1.825859E+05 -5.378804E+04 -1.517874E+04 -4.075754E+04
       160  27  1.558663E+06  1.543579E+05  1.496637E+05 -7.318321E+04 -2.932092E+03 -3.460099E+04
       161   1  3.688607E+05 -1.334890E+05 -1.084095E+05 -7.485479E+04  1.406888E+04  3.067838E+04
       161   2  4.789801E+05 -1.070778E+05 -8.906679E+04 -5.356546E+04  1.139965E+04  2.421119E+04
       161   3  5.896074E+05 -8.024958E+04 -6.787268E+04 -7.474393E+04  8.726577E+03  1.768989E+04
       161   4  9.198788E+05  2.384574E+02  9.593417E+03 -7.467125E+04  7.732906E+03  3.067714E+04
       161   5  9.196407E+05 -9.937520E+01  5.501565E+03 -5.343834E+04  5.007730E+03  2.421146E+04
       161   6  9.199096E+05 -9.727314E+00  3.299154E+03 -7.467142E+04  2.279171E+03  1.769175E+04
       161   7  1.471182E+06  1.339461E+05  1.275789E+05 -7.448751E+04  1.391391E+03  3.067589E+04
       161   8  1.360484E+06  1.068664E+05  1.000587E+05 -5.331111E+04 -1.388662E+03  2.421174E+04
       161   9  1.250314E+06  8.022298E+04  7.446473E+04 -7.459885E+04 -4.171614E+03  1.769361E+04
       161  10  3.688603E+05 -1.334900E+05 -1.084117E+05 -7.485514E+04 -3.294868E-10 -3.950316E-10
       161  11  4.789798E+05 -1.070785E+05 -8.906813E+04 -5.356568E+04  7.021070E-10 -6.143829E-11
       161  12  5.896073E+05 -8.024994E+04 -6.787341E+04 -7.474406E+04 -1.223457E-09  2.536026E-10
       161  13  9.198785E+05  2.374304E+02  9.591535E+03 -7.467144E+04 -5.594264E-10 -1.260236E-10
       161  14  9.196405E+05 -1.000117E+02  5.500416E+03 -5.343843E+04 -7.990307E-10 -4.897842E-11
       161  15  9.199095E+05 -1.006496E+01  3.298556E+03 -7.467145E+04 -5.465322E-10  1.064962E-10
       161  16  1.471182E+06  1.339451E+05  1.275771E+05 -7.448754E+04  3.108081E-10  1.969542E-10
       161  17  1.360484E+06  1.068658E+05  1.000576E+05 -5.331108E+04  2.945576E-10 -4.112906E-11
       161  18  1.250314E+06  8.022264E+04  7.446411E+04 -7.459880E+04  1.955098E-10 -2.252715E-11
       161  19  3.688607E+05 -1.334890E+05 -1.084095E+05 -7.485479E+04 -1.406888E+04 -3.067838E+04
       161  20  4.789801E+05 -1.070778E+05 -8.906679E+04 -5.356546E+04 -1.139965E+04 -2.421119E+04
       161  21  5.896074E+05 -8.024958E+04 -6.787268E+04 -7.474393E+04 -8.726577E+03 -1.768989E+04
       161  22  9.198788E+05  2.384574E+02  9.593417E+03 -7.467125E+04 -7.732906E+03 -3.067714E+04
       161  23  9.196407E+05 -9.937520E+01  5.501565E+03 -5.343834E+04 -5.007730E+03 -2.421146E+04
       161  24  9.199096E+05 -9.727314E+00  3.299154E+03 -7.467142E+04 -2.279171E+03 -1.769175E+04
       161  25  1.471182E+06  1.339461E+05  1.275789E+05 -7.448751E+04 -1.391391E+03 -3.067589E+04
       161  26  1.360484E+06  1.068664E+05  1.000587E+05 -5.331111E+04  1.388662E+03 -2.421174E+04
       161  27  1.250314E+06  8.022298E+04  7.446473E+04 -7.459885E+04  4.171614E+03 -1.769361E+04
       162   1  6.758287E+05 -5.914038E+04 -4.943975E+04 -7.466057E+04  8.166125E+03  1.388398E+04
       162   2  7.858086E+05 -3.250671E+04 -2.695474E+04 -5.347567E+04  7.280156E+03  7.362206E+03
       162   3  8.958991E+05 -5.818591E+03 -3.888222E+03 -7.462709E+04  6.392978E+03  8.409021E+02
       162   4  9.198295E+05  2.651065E+01  2.609584E+03 -7.464246E+04  1.743024E+03  1.388646E+04
       162   5  9.197854E+05  1.193330E+01  1.788909E+03 -5.347458E+04  8.566658E+02  7.365125E+03
       162   6  9.198386E+05  5.207653E+01  1.549661E+03 -7.464248E+04 -3.074867E+01  8.443130E+02
       162   7  1.163886E+06  5.918955E+04  5.465564E+04 -7.462433E+04 -4.682561E+03  1.388893E+04
       162   8  1.053779E+06  3.252942E+04  3.053167E+04 -5.347348E+04 -5.568189E+03  7.368045E+03
       162   9  9.437787E+05  5.922727E+03  6.987662E+03 -7.465786E+04 -6.454721E+03  8.477241E+02
       162  10  6.758285E+05 -5.914061E+04 -4.944023E+04 -7.466067E+04 -6.231058E-10  1.167828E-10
       162  11  7.858086E+05 -3.250678E+04 -2.695494E+04 -5.347571E+04 -1.863945E-10 -2.893520E-10
       162  12  8.958990E+05 -5.818603E+03 -3.888300E+03 -7.462710E+04  8.396911E-11 -2.747343E-11
       162  13  9.198294E+05  2.630268E+01  2.609216E+03 -7.464248E+04 -1.018997E-09  9.913489E-12
       162  14  9.197854E+05  1.187482E+01  1.788806E+03 -5.347458E+04 -2.625451E-10 -5.762601E-11
       162  15  9.198386E+05  5.207576E+01  1.549660E+03 -7.464248E+04 -3.867511E-10  3.297791E-11
       162  16  1.163886E+06  5.918934E+04  5.465523E+04 -7.462428E+04 -5.438716E-10 -2.606072E-11
       162  17  1.053779E+06  3.252936E+04  3.053151E+04 -5.347345E+04 -3.134694E-10 -9.823574E-11
       162  18  9.437787E+05  5.922715E+03  6.987582E+03 -7.465786E+04 -2.391491E-10 -8.175462E-11
       162  19  6.758287E+05 -5.914038E+04 -4.943975E+04 -7.466057E+04 -8.166125E+03 -1.388398E+04
       162  20  7.858086E+05 -3.250671E+04 -2.695474E+04 -5.347567E+04 -7.280156E+03 -7.362206E+03
       162  21  8.958991E+05 -5.818591E+03 -3.888222E+03 -7.462709E+04 -6.392978E+03 -8.409021E+02
       162  22  9.198295E+05  2.651065E+01  2.609584E+03 -7.464246E+04 -1.743024E+03 -1.388646E+04
       162  23  9.197854E+05  1.193330E+01  1.788909E+03 -5.347458E+04 -8.566658E+02 -7.365125E+03
       162  24  9.198386E+05  5.207653E+01  1.549661E+03 -7.464248E+04  3.074867E+01 -8.443130E+02
       162  25  1.163886E+06  5.918955E+04  5.465564E+04 -7.462433E+04  4.682561E+03 -1.388893E+04
       162  26  1.053779E+06  3.252942E+04  3.053167E+04 -5.347348E+04  5.568189E+03 -7.368045E+03
       162  27  9.437787E+05  5.922727E+03  6.987662E+03 -7.465786E+04  6.454721E+03 -8.477241E+02
       163   1  9.820963E+05  1.522030E+04  1.526621E+04 -7.465454E+04  6.104364E+03 -2.954137E+03
       163   2  1.092109E+06  4.182333E+04  3.907930E+04 -5.345428E+04  5.058145E+03 -9.475231E+03
       163   3  1.202258E+06  6.848672E+04  6.357931E+04 -7.459757E+04  4.013087E+03 -1.599771E+04
       163   4  9.198440E+05  5.190485E+01  1.610111E+03 -7.464437E+04 -3.202413E+02 -2.950767E+03
       163   5  9.197757E+05  2.558040E+00  2.113352E+03 -5.347221E+04 -1.368103E+03 -9.472487E+03
       163   6  9.198322E+05  1.458748E+01  3.305148E+03 -7.464434E+04 -2.414624E+03 -1.599555E+04
       163   7  8.575954E+05 -1.511673E+04 -1.204607E+04 -7.463419E+04 -6.744211E+03 -2.947397E+03
       163   8  7.474700E+05 -4.182014E+04 -3.485417E+04 -5.349014E+04 -7.792595E+03 -9.469742E+03
       163   9  6.374812E+05 -6.846272E+04 -5.697346E+04 -7.469108E+04 -8.839457E+03 -1.599339E+04
       163  10  9.820963E+05  1.522028E+04  1.526613E+04 -7.465453E+04  4.999269E-10  6.365816E-11
       163  11  1.092109E+06  4.182323E+04  3.907908E+04 -5.345424E+04 -2.133368E-10 -2.818871E-10
       163  12  1.202258E+06  6.848644E+04  6.357879E+04 -7.459752E+04  1.199405E-09 -5.527560E-10
       163  13  9.198440E+05  5.189547E+01  1.610094E+03 -7.464437E+04  4.472578E-10  2.216110E-10
       163  14  9.197756E+05  2.461143E+00  2.113180E+03 -5.347222E+04  8.043565E-10 -9.966745E-11
       163  15  9.198321E+05  1.431104E+01  3.304656E+03 -7.464437E+04  3.862948E-10 -6.548637E-10
       163  16  8.575954E+05 -1.511675E+04 -1.204617E+04 -7.463421E+04 -3.719787E-10  3.986032E-11
       163  17  7.474699E+05 -4.182025E+04 -3.485445E+04 -5.349020E+04  4.768417E-12  7.737395E-11
       163  18  6.374810E+05 -6.846301E+04 -5.697409E+04 -7.469119E+04 -1.900248E-09 -7.955890E-10
       163  19  9.820963E+05  1.522030E+04  1.526621E+04 -7.465454E+04 -6.104364E+03  2.954137E+03
       163  20  1.092109E+06  4.182333E+04  3.907930E+04 -5.345428E+04 -5.058145E+03  9.475231E+03
       163  21  1.202258E+06  6.848672E+04  6.357931E+04 -7.459757E+04 -4.013087E+03  1.599771E+04
       163  22  9.198440E+05  5.190485E+01  1.610111E+03 -7.464437E+04  3.202413E+02  2.950767E+03
       163  23  9.197757E+05  2.558040E+00  2.113352E+03 -5.347221E+04  1.368103E+03  9.472487E+03
       163  24  9.198322E+05  1.458748E+01  3.305148E+03 -7.464434E+04  2.414624E+03  1.599555E+04
       163  25  8.575954E+05 -1.511673E+04 -1.204607E+04 -7.463419E+04  6.744211E+03  2.947397E+03
       163  26  7.474700E+05 -4.182014E+04 -3.485417E+04 -5.349014E+04  7.792595E+03  9.469742E+03
       163  27  6.374812E+05 -6.846272E+04 -5.697346E+04 -7.469108E+04  8.839457E+03  1.599339E+04
       164   1  1.288753E+06  8.951845E+04  8.365243E+04 -7.454908E+04  3.354920E+03 -1.980408E+04
       164   2  1.398918E+06  1.161642E+05  1.100200E+05 -5.322596E+04 -2.770167E+02 -2.632516E+04
       164   3  1.509766E+06  1.433757E+05  1.389007E+05 -7.440166E+04 -3.905815E+03 -3.279129E+04
       164   4  9.199398E+05 -3.194640E+01  4.251053E+03 -7.467915E+04 -3.099364E+03 -1.980262E+04
       164   5  9.195903E+05 -1.364957E+02  7.211357E+03 -5.342863E+04 -6.675113E+03 -2.632541E+04
       164   6  9.199060E+05  3.164724E+02  1.264819E+04 -7.467893E+04 -1.024710E+04 -3.279320E+04
       164   7  5.512544E+05 -8.959125E+04 -7.515815E+04 -7.480913E+04 -9.549873E+03 -1.980115E+04
       164   8  4.404788E+05 -1.164522E+05 -9.561055E+04 -5.363113E+04 -1.306835E+04 -2.632566E+04
       164   9  3.303725E+05 -1.427654E+05 -1.136244E+05 -7.495592E+04 -1.658245E+04 -3.279509E+04
       164  10  1.288753E+06  8.951803E+04  8.365167E+04 -7.454902E+04 -3.081737E-09 -6.213648E-10
       164  11  1.398917E+06  1.161635E+05  1.100187E+05 -5.322597E+04  6.455403E-09  2.146997E-10
       164  12  1.509766E+06  1.433745E+05  1.388986E+05 -7.440176E+04  1.416649E-08  1.425662E-09
       164  13  9.199397E+05 -3.237026E+01  4.250298E+03 -7.467920E+04 -4.807939E-10 -7.970328E-10
       164  14  9.195901E+05 -1.372521E+02  7.209971E+03 -5.342878E+04 -1.667353E-10  2.391765E-10
       164  15  9.199056E+05  3.152889E+02  1.264597E+04 -7.467920E+04 -3.099561E-10  1.632791E-09
       164  16  5.512542E+05 -8.959169E+04 -7.515906E+04 -7.480928E+04  2.555995E-09 -7.504772E-10
       164  17  4.404784E+05 -1.164530E+05 -9.561218E+04 -5.363141E+04 -6.236196E-09  3.431357E-10
       164  18  3.303719E+05 -1.427666E+05 -1.136269E+05 -7.495636E+04 -1.440795E-08  1.746534E-09
       164  19  1.288753E+06  8.951845E+04  8.365243E+04 -7.454908E+04 -3.354920E+03  1.980408E+04
       164  20  1.398918E+06  1.161642E+05  1.100200E+05 -5.322596E+04  2.770167E+02  2.632516E+04
       164  21  1.509766E+06  1.433757E+05  1.389007E+05 -7.440166E+04  3.905815E+03  3.279129E+04
       164  22  9.199398E+05 -3.194640E+01  4.251053E+03 -7.467915E+04  3.099364E+03  1.980262E+04
       164  23  9.195903E+05 -1.364957E+02  7.211357E+03 -5.342863E+04  6.675113E+03  2.632541E+04
       164  24  9.199060E+05  3.164724E+02  1.264819E+04 -7.467893E+04  1.024710E+04  3.279320E+04
       164  25  5.512544E+05 -8.959125E+04 -7.515815E+04 -7.480913E+04  9.549873E+03  1.980115E+04
       164  26  4.404788E+05 -1.164522E+05 -9.561055E+04 -5.363113E+04  1.306835E+04  2.632566E+04
       164  27  3.303725E+05 -1.427654E+05 -1.136244E+05 -7.495592E+04  1.658245E+04  3.279509E+04
       165   1  1.597534E+06  1.635658E+05  1.619512E+05 -7.266278E+04 -6.055827E+03 -3.672336E+04
       165   2  1.706431E+06  1.908996E+05  1.978696E+05 -5.390782E+04 -2.184193E+04 -4.287505E+04
       165   3  1.820187E+06  2.285046E+05  2.466640E+05 -7.788116E+04 -3.762638E+04 -4.758459E+04
       165   4  9.207576E+05 -6.800984E+02  1.652778E+04 -7.472913E+04 -1.282093E+04 -3.672664E+04
       165   5  9.184235E+05 -3.129898E+02  2.862997E+04 -5.336523E+04 -2.716886E+04 -4.288076E+04
       165   6  9.206943E+05  1.008466E+04  5.262274E+04 -7.473247E+04 -4.151234E+04 -4.759198E+04
       165   7  2.444111E+05 -1.649559E+05 -1.289223E+05 -7.679319E+04 -1.957878E+04 -3.672988E+04
       165   8  1.309989E+05 -1.915662E+05 -1.406459E+05 -5.282336E+04 -3.248911E+04 -4.288649E+04
       165   9  2.195959E+04 -2.083884E+05 -1.414661E+05 -7.158844E+04 -4.539272E+04 -4.759943E+04
       165  10  1.597533E+06  1.635643E+05  1.619486E+05 -7.266296E+04 -1.531184E-08  1.375737E-09
       165  11  1.706430E+06  1.908975E+05  1.978653E+05 -5.390857E+04 -7.622017E-09  2.728524E-10
       165  12  1.820185E+06  2.285018E+05  2.466570E+05 -7.788261E+04  2.525326E-09 -1.134412E-09
       165  13  9.207570E+05 -6.815915E+02  1.652494E+04 -7.472951E+04 -6.365221E-10  1.547003E-09
       165  14  9.184222E+05 -3.151631E+02  2.862512E+04 -5.336617E+04  2.536166E-10  4.789004E-11
       165  15  9.206918E+05  1.008176E+04  5.261525E+04 -7.473406E+04 -1.042100E-09 -1.182666E-09
       165  16  2.444103E+05 -1.649575E+05 -1.289255E+05 -7.679377E+04  1.419568E-08  1.705258E-09
       165  17  1.309973E+05 -1.915685E+05 -1.406513E+05 -5.282448E+04  5.982271E-09 -3.792402E-10
       165  18  2.195677E+04 -2.083914E+05 -1.414742E+05 -7.159018E+04 -2.402377E-09 -1.160447E-09
       165  19  1.597534E+06  1.635658E+05  1.619512E+05 -7.266278E+04  6.055827E+03  3.672336E+04
       165  20  1.706431E+06  1.908996E+05  1.978696E+05 -5.390782E+04  2.184193E+04  4.287505E+04
       165  21  1.820187E+06  2.285046E+05  2.466640E+05 -7.788116E+04  3.762638E+04  4.758459E+04
       165  22  9.207576E+05 -6.800984E+02  1.652778E+04 -7.472913E+04  1.282093E+04  3.672664E+04
       165  23  9.184235E+05 -3.129898E+02  2.862997E+04 -5.336523E+04  2.716886E+04  4.288076E+04
       165  24  9.206943E+05  1.008466E+04  5.262274E+04 -7.473247E+04  4.151234E+04  4.759198E+04
       165  25  2.444111E+05 -1.649559E+05 -1.289223E+05 -7.679319E+04  1.957878E+04  3.672988E+04
       165  26  1.309989E+05 -1.915662E+05 -1.406459E+05 -5.282336E+04  3.248911E+04  4.288649E+04
       165  27  2.195959E+04 -2.083884E+05 -1.414661E+05 -7.158844E+04  4.539272E+04  4.759943E+04
       166   1  1.920025E+06  2.300637E+05  2.786322E+05 -4.469439E+04 -3.799260E+04 -5.383799E+04
       166   2  2.002196E+06  2.717111E+05  3.557776E+05 -9.018929E+04 -1.298939E+05 -5.104909E+04
       166   3  2.145791E+06  5.095654E+05  5.417820E+05 -1.776285E+05 -2.218645E+05 -1.639262E+04
       166   4  9.321065E+05 -9.672853E+03  6.652741E+04 -7.449246E+04 -5.083010E+04 -5.385161E+04
       166   5  9.039983E+05  4.242237E+03  1.143367E+05 -5.364915E+04 -1.112156E+05 -5.104365E+04
       166   6  9.319406E+05  2.090749E+05  2.492596E+05 -7.473783E+04 -1.716489E+05 -1.636240E+04
       166   7 -5.489477E+04 -2.494700E+05 -1.456333E+05 -1.042427E+05 -6.364747E+04 -5.386402E+04
       166   8 -1.930709E+05 -2.633020E+05 -1.271759E+05 -1.717449E+04 -9.256965E+04 -5.103602E+04
       166   9 -2.805375E+05 -9.148143E+04 -4.335273E+04  2.795116E+04 -1.215307E+05 -1.631558E+04
       166  10  1.920023E+06  2.300602E+05  2.786240E+05 -4.469604E+04 -8.679922E-10 -7.045564E-10
       166  11  2.002177E+06  2.717038E+05  3.557411E+05 -9.019462E+04 -5.249103E-10  1.707945E-11
       166  12  2.145738E+06  5.095519E+05  5.416893E+05 -1.776314E+05  2.149320E-10 -8.040116E-11
       166  13  9.321029E+05 -9.676661E+03  6.651711E+04 -7.449466E+04 -5.378704E-10 -1.022019E-09
       166  14  9.039844E+05  4.236124E+03  1.143086E+05 -5.365372E+04 -2.061144E-10 -4.067309E-10
       166  15  9.319089E+05  2.090667E+05  2.492038E+05 -7.474009E+04 -3.609895E-10  5.717535E-11
       166  16 -5.489990E+04 -2.494742E+05 -1.456464E+05 -1.042454E+05  1.039074E-09 -1.058476E-09
       166  17 -1.930808E+05 -2.633071E+05 -1.271969E+05 -1.717830E+04 -5.322724E-10 -7.861052E-11
       166  18 -2.805534E+05 -9.148568E+04 -4.338100E+04  2.794956E+04  9.422692E-10 -6.434931E-11
       166  19  1.920025E+06  2.300637E+05  2.786322E+05 -4.469439E+04  3.799260E+04  5.383799E+04
       166  20  2.002196E+06  2.717111E+05  3.557776E+05 -9.018929E+04  1.298939E+05  5.104909E+04
       166  21  2.145791E+06  5.095654E+05  5.417820E+05 -1.776285E+05  2.218645E+05  1.639262E+04
       166  22  9.321065E+05 -9.672853E+03  6.652741E+04 -7.449246E+04  5.083010E+04  5.385161E+04
       166  23  9.039983E+05  4.242237E+03  1.143367E+05 -5.364915E+04  1.112156E+05  5.104365E+04
       166  24  9.319406E+05  2.090749E+05  2.492596E+05 -7.473783E+04  1.716489E+05  1.636240E+04
       166  25 -5.489477E+04 -2.494700E+05 -1.456333E+05 -1.042427E+05  6.364747E+04  5.386402E+04
       166  26 -1.930709E+05 -2.633020E+05 -1.271759E+05 -1.717449E+04  9.256965E+04  5.103602E+04
       166  27 -2.805375E+05 -9.148143E+04 -4.335273E+04  2.795116E+04  1.215307E+05  1.631558E+04
       167   1  1.569373E+05  7.397121E+05  1.644570E+05 -1.279511E+05  4.175155E+03  5.535355E+04
       167   2  6.677970E+04  5.821176E+05  8.889651E+04 -8.261439E+04  1.110195E+04  2.803167E+04
       167   3  2.689613E+04  4.404543E+05  4.363781E+04 -9.420160E+04  5.952338E+03  6.967538E+02
       167   4  5.294520E+04  3.217341E+05  6.274277E+04 -1.012563E+05  4.199214E+03  4.261700E+04
       167   5  1.376925E+03  3.148205E+05  2.924344E+04 -7.284177E+04  1.110418E+04  2.719760E+04
       167   6 -1.967449E+03  3.217660E+05  1.779922E+04 -1.013487E+05  5.931876E+03  1.175856E+04
       167   7 -5.105708E+04 -9.608277E+04 -3.898316E+04 -7.457936E+04  4.222188E+03  2.988899E+04
       167   8 -6.403036E+04  4.759008E+04 -3.041406E+04 -6.307337E+04  1.110638E+04  2.636388E+04
       167   9 -3.083170E+04  2.030913E+05 -8.039724E+03 -1.084944E+05  5.911157E+03  2.281827E+04
       167  10  1.569365E+05  7.397088E+05  1.644512E+05 -1.279513E+05  1.829892E-10  8.637531E-10
       167  11  6.677936E+04  5.821168E+05  8.889480E+04 -8.261464E+04  4.411341E-10 -4.341127E-10
       167  12  2.689609E+04  4.404543E+05  4.363775E+04 -9.420160E+04 -1.309507E-10 -1.859499E-09
       167  13  5.294469E+04  3.217322E+05  6.273932E+04 -1.012564E+05  7.734165E-10 -3.368187E-11
       167  14  1.376594E+03  3.148197E+05  2.924182E+04 -7.284202E+04  9.457380E-10  3.078913E-11
       167  15 -1.967524E+03  3.217658E+05  1.779890E+04 -1.013487E+05 -1.019559E-10  3.233935E-11
       167  16 -5.105734E+04 -9.608373E+04 -3.898487E+04 -7.457946E+04  1.860419E-10 -8.749102E-10
       167  17 -6.403068E+04  4.758930E+04 -3.041559E+04 -6.307361E+04  1.925889E-09  5.259077E-10
       167  18 -3.083188E+04  2.030907E+05 -8.040768E+03 -1.084945E+05  4.830599E-11  1.832740E-09
       167  19  1.569373E+05  7.397121E+05  1.644570E+05 -1.279511E+05 -4.175155E+03 -5.535355E+04
       167  20  6.677970E+04  5.821176E+05  8.889651E+04 -8.261439E+04 -1.110195E+04 -2.803167E+04
       167  21  2.689613E+04  4.404543E+05  4.363781E+04 -9.420160E+04 -5.952338E+03 -6.967538E+02
       167  22  5.294520E+04  3.217341E+05  6.274277E+04 -1.012563E+05 -4.199214E+03 -4.261700E+04
       167  23  1.376925E+03  3.148205E+05  2.924344E+04 -7.284177E+04 -1.110418E+04 -2.719760E+04
       167  24 -1.967449E+03  3.217660E+05  1.779922E+04 -1.013487E+05 -5.931876E+03 -1.175856E+04
       167  25 -5.105708E+04 -9.608277E+04 -3.898316E+04 -7.457936E+04 -4.222188E+03 -2.988899E+04
       167  26 -6.403036E+04  4.759008E+04 -3.041406E+04 -6.307337E+04 -1.110638E+04 -2.636388E+04
       167  27 -3.083170E+04  2.030913E+05 -8.039724E+03 -1.084944E+05 -5.911157E+03 -2.281827E+04
       168   1  3.210403E+03  3.201063E+05  1.508888E+04 -1.025317E+05 -1.868974E+02  1.258422E+03
       168   2 -3.585292E+04  1.699379E+05 -2.210287E+04 -7.263169E+04 -8.054690E+03 -3.335125E+03
       168   3 -7.129677E+04  2.106410E+04 -5.545780E+04 -1.002068E+05 -1.557705E+04 -7.925595E+03
       168   4  2.901324E+03  3.189841E+05  1.468940E+04 -1.014470E+05 -2.016928E+02  9.181643E+03
       168   5  1.976491E+02  3.183113E+05  9.816497E+03 -7.271156E+04 -8.068184E+03  4.247109E+03
       168   6  1.173756E+03  3.189714E+05  9.018166E+03 -1.014501E+05 -1.558934E+04 -6.854126E+02
       168   7  2.592283E+03  3.178620E+05  1.429016E+04 -1.003624E+05 -2.164605E+02  1.710485E+04
       168   8  3.624680E+04  4.667055E+05  4.173479E+04 -7.279144E+04 -8.081679E+03  1.183113E+04
       168   9  7.363846E+04  6.169621E+05  7.348906E+04 -1.026940E+05 -1.560166E+04  6.558197E+03
       168  10  3.210402E+03  3.201063E+05  1.508887E+04 -1.025317E+05 -1.016318E-09  2.929952E-10
       168  11 -3.585299E+04  1.699379E+05 -2.210301E+04 -7.263171E+04 -2.366002E-10 -1.825688E-10
       168  12 -7.129705E+04  2.106396E+04 -5.545837E+04 -1.002069E+05  3.124519E-10 -6.398730E-10
       168  13  2.901301E+03  3.189840E+05  1.468924E+04 -1.014470E+05 -5.130933E-10  2.861887E-11
       168  14  1.975743E+02  3.183113E+05  9.816340E+03 -7.271153E+04  4.993644E-11  5.313571E-11
       168  15  1.173495E+03  3.189713E+05  9.017708E+03 -1.014501E+05 -1.061718E-09  9.187143E-11
       168  16  2.592205E+03  3.178617E+05  1.428961E+04 -1.003624E+05 -4.670151E-10 -2.153368E-10
       168  17  3.624670E+04  4.667053E+05  4.173440E+04 -7.279136E+04 -1.978312E-09  2.706710E-10
       168  18  7.363819E+04  6.169620E+05  7.348853E+04 -1.026939E+05 -4.700424E-10  5.870244E-10
       168  19  3.210403E+03  3.201063E+05  1.508888E+04 -1.025317E+05  1.868974E+02 -1.258422E+03
       168  20 -3.585292E+04  1.699379E+05 -2.210287E+04 -7.263169E+04  8.054690E+03  3.335125E+03
       168  21 -7.129677E+04  2.106410E+04 -5.545780E+04 -1.002068E+05  1.557705E+04  7.925595E+03
       168  22  2.901324E+03  3.189841E+05  1.468940E+04 -1.014470E+05  2.016928E+02 -9.181643E+03
       168  23  1.976491E+02  3.183113E+05  9.816497E+03 -7.271156E+04  8.068184E+03 -4.247109E+03
       168  24  1.173756E+03  3.189714E+05  9.018166E+03 -1.014501E+05  1.558934E+04  6.854126E+02
       168  25  2.592283E+03  3.178620E+05  1.429016E+04 -1.003624E+05  2.164605E+02 -1.710485E+04
       168  26  3.624680E+04  4.667055E+05  4.173479E+04 -7.279144E+04  8.081679E+03 -1.183113E+04
       168  27  7.363846E+04  6.169621E+05  7.348906E+04 -1.026940E+05  1.560166E+04 -6.558197E+03
       169   1 -1.015413E+05 -9.577898E+04 -8.029377E+04 -1.034975E+05 -2.224866E+04 -1.479304E+04
       169   2 -1.371438E+05 -2.466401E+05 -1.123807E+05 -6.860730E+04 -2.523942E+04 -1.947174E+03
       169   3 -1.572742E+05 -3.953771E+05 -1.489866E+05 -9.036694E+04 -8.565145E+03  1.092082E+04
       169   4 -5.045684E+02  3.198696E+05  9.335114E+03 -1.012731E+05 -2.226916E+04 -2.200700E+03
       169   5  5.738287E+02  3.171153E+05  1.238735E+04 -7.293530E+04 -2.522752E+04 -8.702429E+03
       169   6  2.047577E+04  3.198164E+05  2.435269E+04 -1.012428E+05 -8.529116E+03 -1.517871E+04
       169   7  1.005209E+05  7.356808E+05  9.895442E+04 -9.904706E+04 -2.228956E+04  1.039995E+04
       169   8  1.382701E+05  8.811677E+05  1.371359E+05 -7.726714E+04 -2.521553E+04 -1.546375E+04
       169   9  1.981890E+05  1.035479E+06  1.976577E+05 -1.121310E+05 -8.492196E+03 -4.130823E+04
       169  10 -1.015418E+05 -9.577935E+04 -8.029511E+04 -1.034977E+05  1.986336E-10  2.838589E-10
       169  11 -1.371445E+05 -2.466403E+05 -1.123819E+05 -6.860734E+04  1.119531E-09  1.704467E-10
       169  12 -1.572743E+05 -3.953773E+05 -1.489869E+05 -9.036686E+04  8.097497E-11 -3.297720E-10
       169  13 -5.051023E+02  3.198695E+05  9.334173E+03 -1.012731E+05 -1.322754E-10  9.748385E-12
       169  14  5.731248E+02  3.171151E+05  1.238602E+04 -7.293547E+04  2.650557E-11  8.456196E-11
       169  15  2.047563E+04  3.198162E+05  2.435212E+04 -1.012429E+05  2.616827E-10 -1.814424E-11
       169  16  1.005203E+05  7.356806E+05  9.895329E+04 -9.904687E+04 -7.150655E-10 -1.527911E-10
       169  17  1.382693E+05  8.811673E+05  1.371343E+05 -7.726745E+04  5.480898E-10 -2.509770E-10
       169  18  1.981885E+05  1.035477E+06  1.976544E+05 -1.121313E+05  1.857057E-10  2.439723E-10
       169  19 -1.015413E+05 -9.577898E+04 -8.029377E+04 -1.034975E+05  2.224866E+04  1.479304E+04
       169  20 -1.371438E+05 -2.466401E+05 -1.123807E+05 -6.860730E+04  2.523942E+04  1.947174E+03
       169  21 -1.572742E+05 -3.953771E+05 -1.489866E+05 -9.036694E+04  8.565145E+03 -1.092082E+04
       169  22 -5.045684E+02  3.198696E+05  9.335114E+03 -1.012731E+05  2.226916E+04  2.200700E+03
       169  23  5.738287E+02  3.171153E+05  1.238735E+04 -7.293530E+04  2.522752E+04  8.702429E+03
       169  24  2.047577E+04  3.198164E+05  2.435269E+04 -1.012428E+05  8.529116E+03  1.517871E+04
       169  25  1.005209E+05  7.356808E+05  9.895442E+04 -9.904706E+04  2.228956E+04 -1.039995E+04
       169  26  1.382701E+05  8.811677E+05  1.371359E+05 -7.726714E+04  2.521553E+04  1.546375E+04
       169  27  1.981890E+05  1.035479E+06  1.976577E+05 -1.121310E+05  8.492196E+03  4.130823E+04
       170   1 -1.523507E+06 -6.259850E+05 -3.978343E+05 -5.584833E+05 -1.690837E+05 -5.227092E+04
       170   2 -1.467351E+06 -3.972809E+05 -2.470540E+05 -5.444920E+05 -1.091245E+05 -5.149160E+03
       170   3 -1.464331E+06 -3.436185E+05 -1.905309E+05 -5.083159E+05 -4.171444E+04  2.221901E+04
       170   4 -8.890744E+05 -3.091361E+05 -2.138779E+05 -3.054805E+05 -1.403185E+05 -4.146635E+04
       170   5 -8.526014E+05 -1.409468E+05 -9.328501E+04 -3.475939E+05 -9.848087E+04 -1.152398E+03
       170   6 -8.656053E+05 -1.441173E+05 -5.250389E+04 -3.675439E+05 -4.920050E+04  1.940256E+04
       170   7 -2.542375E+05  7.834771E+03 -2.995750E+04 -5.221473E+04 -1.115213E+05 -3.064063E+04
       170   8 -2.374750E+05  1.154405E+05  6.045448E+04 -1.505087E+05 -8.782577E+04  2.849872E+03
       170   9 -2.665211E+05  5.539374E+04  8.550012E+04 -2.266551E+05 -5.669446E+04  1.658385E+04
       170  10 -1.523539E+06 -6.259956E+05 -3.978933E+05 -5.584904E+05  1.109416E-11 -1.811015E-11
       170  11 -1.467364E+06 -3.972842E+05 -2.470765E+05 -5.444924E+05  5.494991E-10 -1.826799E-10
       170  12 -1.464333E+06 -3.436195E+05 -1.905351E+05 -5.083151E+05 -1.216333E-10 -9.783981E-11
       170  13 -8.890961E+05 -3.091433E+05 -2.139182E+05 -3.054851E+05  4.068403E-10 -3.664410E-12
       170  14 -8.526119E+05 -1.409494E+05 -9.330326E+04 -3.475940E+05  1.013674E-09 -1.400554E-10
       170  15 -8.656080E+05 -1.441183E+05 -5.250915E+04 -3.675431E+05  9.821761E-10 -2.652990E-11
       170  16 -2.542511E+05  7.830421E+03 -2.998264E+04 -5.221748E+04  2.483596E-10 -6.216659E-12
       170  17 -2.374833E+05  1.154385E+05  6.043997E+04 -1.505085E+05  8.878328E-10 -3.830180E-11
       170  18 -2.665246E+05  5.539258E+04  8.549356E+04 -2.266543E+05  8.832211E-12  3.962690E-11
       170  19 -1.523507E+06 -6.259850E+05 -3.978343E+05 -5.584833E+05  1.690837E+05  5.227092E+04
       170  20 -1.467351E+06 -3.972809E+05 -2.470540E+05 -5.444920E+05  1.091245E+05  5.149160E+03
       170  21 -1.464331E+06 -3.436185E+05 -1.905309E+05 -5.083159E+05  4.171444E+04 -2.221901E+04
       170  22 -8.890744E+05 -3.091361E+05 -2.138779E+05 -3.054805E+05  1.403185E+05  4.146635E+04
       170  23 -8.526014E+05 -1.409468E+05 -9.328501E+04 -3.475939E+05  9.848087E+04  1.152398E+03
       170  24 -8.656053E+05 -1.441173E+05 -5.250389E+04 -3.675439E+05  4.920050E+04 -1.940256E+04
       170  25 -2.542375E+05  7.834771E+03 -2.995750E+04 -5.221473E+04  1.115213E+05  3.064063E+04
       170  26 -2.374750E+05  1.154405E+05  6.045448E+04 -1.505087E+05  8.782577E+04 -2.849872E+03
       170  27 -2.665211E+05  5.539374E+04  8.550012E+04 -2.266551E+05  5.669446E+04 -1.658385E+04
       171   1 -1.393509E+06 -3.612779E+05 -1.696016E+05 -5.085521E+05 -3.950391E+04  1.883541E+04
       171   2 -1.345448E+06 -3.217350E+05 -1.359356E+05 -4.847114E+05 -2.697164E+04  2.093488E+04
       171   3 -1.285788E+06 -3.077435E+05 -1.133960E+05 -4.777247E+05 -1.410196E+04  2.213395E+04
       171   4 -8.587255E+05 -1.591997E+05 -4.144046E+04 -3.583343E+05 -4.121198E+04  1.819080E+04
       171   5 -8.639567E+05 -1.419886E+05 -2.141808E+04 -3.515995E+05 -2.949839E+04  1.998359E+04
       171   6 -8.574257E+05 -1.501610E+05 -1.186488E+04 -3.617198E+05 -1.744854E+04  2.087585E+04
       171   7 -3.236598E+05  4.290019E+04  8.669915E+04 -2.079983E+05 -4.292163E+04  1.754558E+04
       171   8 -3.822346E+05  3.777491E+04  9.308290E+04 -2.183932E+05 -3.202726E+04  1.903150E+04
       171   9 -4.288785E+05  7.434437E+03  8.965386E+04 -2.456416E+05 -2.079765E+04  1.961681E+04
       171  10 -1.393511E+06 -3.612787E+05 -1.696052E+05 -5.085515E+05  3.447355E-10  4.775150E-11
       171  11 -1.345449E+06 -3.217356E+05 -1.359378E+05 -4.847109E+05 -1.750066E-11 -4.988238E-11
       171  12 -1.285789E+06 -3.077441E+05 -1.133973E+05 -4.777244E+05 -4.177141E-10  2.340902E-11
       171  13 -8.587274E+05 -1.592005E+05 -4.144427E+04 -3.583337E+05 -5.051942E-10 -1.180369E-10
       171  14 -8.639577E+05 -1.419893E+05 -2.142046E+04 -3.515990E+05 -1.421513E-10 -2.093776E-10
       171  15 -8.574262E+05 -1.501616E+05 -1.186627E+04 -3.617195E+05 -1.652483E-10 -4.890139E-11
       171  16 -3.236619E+05  4.289936E+04  8.669510E+04 -2.079977E+05 -1.083146E-09 -2.388374E-10
       171  17 -3.822358E+05  3.777425E+04  9.308029E+04 -2.183927E+05 -1.045338E-09 -2.428836E-10
       171  18 -4.288790E+05  7.433907E+03  8.965232E+04 -2.456413E+05  1.944269E-10  1.547695E-11
       171  19 -1.393509E+06 -3.612779E+05 -1.696016E+05 -5.085521E+05  3.950391E+04 -1.883541E+04
       171  20 -1.345448E+06 -3.217350E+05 -1.359356E+05 -4.847114E+05  2.697164E+04 -2.093488E+04
       171  21 -1.285788E+06 -3.077435E+05 -1.133960E+05 -4.777247E+05  1.410196E+04 -2.213395E+04
       171  22 -8.587255E+05 -1.591997E+05 -4.144046E+04 -3.583343E+05  4.121198E+04 -1.819080E+04
       171  23 -8.639567E+05 -1.419886E+05 -2.141808E+04 -3.515995E+05  2.949839E+04 -1.998359E+04
       171  24 -8.574257E+05 -1.501610E+05 -1.186488E+04 -3.617198E+05  1.744854E+04 -2.087585E+04
       171  25 -3.236598E+05  4.290019E+04  8.669915E+04 -2.079983E+05  4.292163E+04 -1.754558E+04
       171  26 -3.822346E+05  3.777491E+04  9.308290E+04 -2.183932E+05  3.202726E+04 -1.903150E+04
       171  27 -4.288785E+05  7.434437E+03  8.965386E+04 -2.456416E+05  2.079765E+04 -1.961681E+04
       172   1 -1.239108E+06 -2.928635E+05 -9.953145E+04 -4.660892E+05 -1.190041E+04  2.059516E+04
       172   2 -1.191581E+06 -2.633922E+05 -8.239590E+04 -4.413660E+05 -8.127375E+03  1.814209E+04
       172   3 -1.127917E+06 -2.510746E+05 -6.724803E+04 -4.356169E+05 -4.336836E+03  1.563814E+04
       172   4 -8.568176E+05 -1.509822E+05 -9.009844E+03 -3.611905E+05 -1.499914E+04  1.943069E+04
       172   5 -8.648499E+05 -1.421763E+05 -4.911167E+03 -3.517882E+05 -1.127127E+04  1.696141E+04
       172   6 -8.567387E+05 -1.505142E+05 -2.763246E+03 -3.613603E+05 -7.526147E+03  1.444120E+04
       172   7 -4.743822E+05 -9.090512E+03  8.150139E+04 -2.562328E+05 -1.809995E+04  1.826543E+04
       172   8 -5.380134E+05 -2.095322E+04  7.256574E+04 -2.621677E+05 -1.441695E+04  1.578006E+04
       172   9 -5.854888E+05 -4.994919E+04  6.171591E+04 -2.870746E+05 -1.071696E+04  1.324369E+04
       172  10 -1.239108E+06 -2.928640E+05 -9.953251E+04 -4.660890E+05  1.832999E-10  1.702151E-10
       172  11 -1.191581E+06 -2.633926E+05 -8.239664E+04 -4.413659E+05 -4.620120E-10  9.687475E-11
       172  12 -1.127917E+06 -2.510749E+05 -6.724853E+04 -4.356168E+05 -5.604255E-10 -1.356448E-10
       172  13 -8.568179E+05 -1.509827E+05 -9.010976E+03 -3.611902E+05  4.644018E-10  1.318852E-10
       172  14 -8.648501E+05 -1.421767E+05 -4.911946E+03 -3.517881E+05  2.604799E-10  9.446600E-11
       172  15 -8.567388E+05 -1.505144E+05 -2.763744E+03 -3.613603E+05 -3.097662E-10  1.863675E-10
       172  16 -4.743826E+05 -9.090958E+03  8.150015E+04 -2.562325E+05 -3.773104E-10 -4.735703E-12
       172  17 -5.380137E+05 -2.095354E+04  7.256488E+04 -2.621675E+05 -9.669488E-11  3.481585E-12
       172  18 -5.854889E+05 -4.994941E+04  6.171536E+04 -2.870745E+05 -9.024900E-11  5.163227E-10
       172  19 -1.239108E+06 -2.928635E+05 -9.953145E+04 -4.660892E+05  1.190041E+04 -2.059516E+04
       172  20 -1.191581E+06 -2.633922E+05 -8.239590E+04 -4.413660E+05  8.127375E+03 -1.814209E+04
       172  21 -1.127917E+06 -2.510746E+05 -6.724803E+04 -4.356169E+05  4.336836E+03 -1.563814E+04
       172  22 -8.568176E+05 -1.509822E+05 -9.009844E+03 -3.611905E+05  1.499914E+04 -1.943069E+04
       172  23 -8.648499E+05 -1.421763E+05 -4.911167E+03 -3.517882E+05  1.127127E+04 -1.696141E+04
       172  24 -8.567387E+05 -1.505142E+05 -2.763246E+03 -3.613603E+05  7.526147E+03 -1.444120E+04
       172  25 -4.743822E+05 -9.090512E+03  8.150139E+04 -2.562328E+05  1.809995E+04 -1.826543E+04
       172  26 -5.380134E+05 -2.095322E+04  7.256574E+04 -2.621677E+05  1.441695E+04 -1.578006E+04
       172  27 -5.854888E+05 -4.994919E+04  6.171591E+04 -2.870746E+05  1.071696E+04 -1.324369E+04
       173   1 -1.082352E+06 -2.342621E+05 -5.545405E+04 -4.232374E+05 -3.180593E+03  1.376988E+04
       173   2 -1.034656E+06 -2.051297E+05 -4.154870E+04 -3.982971E+05 -1.221121E+03  1.055190E+04
       173   3 -9.703262E+05 -1.927560E+05 -2.813973E+04 -3.925242E+05  7.402518E+02  7.326490E+03
       173   4 -8.566455E+05 -1.505689E+05 -2.126241E+03 -3.613487E+05 -6.365539E+03  1.257493E+04
       173   5 -8.649556E+05 -1.421751E+05 -1.310983E+03 -3.517686E+05 -4.412698E+03  9.354849E+03
       173   6 -8.566347E+05 -1.505391E+05 -9.870263E+02 -3.613571E+05 -2.458030E+03  6.127334E+03
       173   7 -6.308869E+05 -6.687167E+04  5.119835E+04 -2.994393E+05 -9.551763E+03  1.137951E+04
       173   8 -6.952258E+05 -7.921833E+04  3.892486E+04 -3.052284E+05 -7.605235E+03  8.157443E+03
       173   9 -7.429304E+05 -1.083212E+05  2.616480E+04 -3.301847E+05 -5.656950E+03  4.927938E+03
       173  10 -1.082352E+06 -2.342623E+05 -5.545443E+04 -4.232373E+05  4.320305E-10 -3.727722E-11
       173  11 -1.034656E+06 -2.051298E+05 -4.154891E+04 -3.982971E+05 -5.941974E-10 -2.219855E-10
       173  12 -9.703262E+05 -1.927561E+05 -2.813984E+04 -3.925242E+05 -7.738955E-10 -1.945649E-10
       173  13 -8.566456E+05 -1.505691E+05 -2.126614E+03 -3.613487E+05  1.160184E-10  6.424392E-11
       173  14 -8.649557E+05 -1.421752E+05 -1.311184E+03 -3.517686E+05 -2.900398E-10 -1.910040E-10
       173  15 -8.566348E+05 -1.505391E+05 -9.871082E+02 -3.613571E+05 -5.499770E-10 -1.562780E-10
       173  16 -6.308870E+05 -6.687183E+04  5.119793E+04 -2.994392E+05 -2.165489E-10  9.172917E-11
       173  17 -6.952258E+05 -7.921842E+04  3.892463E+04 -3.052283E+05 -1.829051E-10 -4.548323E-10
       173  18 -7.429305E+05 -1.083213E+05  2.616469E+04 -3.301847E+05  2.445213E-10  8.063973E-11
       173  19 -1.082352E+06 -2.342621E+05 -5.545405E+04 -4.232374E+05  3.180593E+03 -1.376988E+04
       173  20 -1.034656E+06 -2.051297E+05 -4.154870E+04 -3.982971E+05  1.221121E+03 -1.055190E+04
       173  21 -9.703262E+05 -1.927560E+05 -2.813973E+04 -3.925242E+05 -7.402518E+02 -7.326490E+03
       173  22 -8.566455E+05 -1.505689E+05 -2.126241E+03 -3.613487E+05  6.365539E+03 -1.257493E+04
       173  23 -8.649556E+05 -1.421751E+05 -1.310983E+03 -3.517686E+05  4.412698E+03 -9.354849E+03
       173  24 -8.566347E+05 -1.505391E+05 -9.870263E+02 -3.613571E+05  2.458030E+03 -6.127334E+03
       173  25 -6.308869E+05 -6.687167E+04  5.119835E+04 -2.994393E+05  9.551763E+03 -1.137951E+04
       173  26 -6.952258E+05 -7.921833E+04  3.892486E+04 -3.052284E+05  7.605235E+03 -8.157443E+03
       173  27 -7.429304E+05 -1.083212E+05  2.616480E+04 -3.301847E+05  5.656950E+03 -4.927938E+03
       174   1 -9.246806E+05 -1.757738E+05 -1.690838E+04 -3.800547E+05  1.663961E+03  5.364085E+03
       174   2 -8.768494E+05 -1.465952E+05 -4.000276E+03 -3.550474E+05  3.553270E+03  2.105190E+03
       174   3 -8.123477E+05 -1.342102E+05  8.464404E+03 -3.492597E+05  5.442220E+03 -1.152888E+03
       174   4 -8.566248E+05 -1.505477E+05 -9.640870E+02 -3.613676E+05 -1.537052E+03  4.164042E+03
       174   5 -8.649588E+05 -1.421542E+05 -1.176209E+03 -3.517558E+05  3.528828E+02  9.054074E+02
       174   6 -8.566256E+05 -1.505548E+05 -1.832165E+03 -3.613649E+05  2.242402E+03 -2.352427E+03
       174   7 -7.885647E+05 -1.253213E+05  1.497983E+04 -3.426788E+05 -4.738429E+03  2.963862E+03
       174   8 -8.530681E+05 -1.377132E+05  1.647891E+03 -3.484642E+05 -2.847571E+03 -2.944009E+02
       174   9 -9.009019E+05 -1.668993E+05 -1.212889E+04 -3.734694E+05 -9.571843E+02 -3.551879E+03
       174  10 -9.246807E+05 -1.757738E+05 -1.690844E+04 -3.800547E+05  3.145133E-10  1.160069E-10
       174  11 -8.768494E+05 -1.465952E+05 -4.000308E+03 -3.550474E+05  2.023276E-10 -1.365158E-11
       174  12 -8.123477E+05 -1.342102E+05  8.464346E+03 -3.492597E+05 -6.056241E-10  2.407887E-10
       174  13 -8.566248E+05 -1.505477E+05 -9.641240E+02 -3.613676E+05 -2.274282E-10  6.533270E-11
       174  14 -8.649588E+05 -1.421542E+05 -1.176211E+03 -3.517558E+05  2.548858E-10  5.771471E-12
       174  15 -8.566256E+05 -1.505548E+05 -1.832185E+03 -3.613649E+05 -1.775773E-10  2.185834E-10
       174  16 -7.885648E+05 -1.253213E+05  1.497977E+04 -3.426788E+05 -3.622330E-10 -1.093588E-10
       174  17 -8.530681E+05 -1.377132E+05  1.647876E+03 -3.484642E+05 -2.623376E-10  1.285148E-10
       174  18 -9.009019E+05 -1.668993E+05 -1.212892E+04 -3.734694E+05  3.505323E-10  2.654245E-10
       174  19 -9.246806E+05 -1.757738E+05 -1.690838E+04 -3.800547E+05 -1.663961E+03 -5.364085E+03
       174  20 -8.768494E+05 -1.465952E+05 -4.000276E+03 -3.550474E+05 -3.553270E+03 -2.105190E+03
       174  21 -8.123477E+05 -1.342102E+05  8.464404E+03 -3.492597E+05 -5.442220E+03  1.152888E+03
       174  22 -8.566248E+05 -1.505477E+05 -9.640870E+02 -3.613676E+05  1.537052E+03 -4.164042E+03
       174  23 -8.649588E+05 -1.421542E+05 -1.176209E+03 -3.517558E+05 -3.528828E+02 -9.054074E+02
       174  24 -8.566256E+05 -1.505548E+05 -1.832165E+03 -3.613649E+05 -2.242402E+03  2.352427E+03
       174  25 -7.885647E+05 -1.253213E+05  1.497983E+04 -3.426788E+05  4.738429E+03 -2.963862E+03
       174  26 -8.530681E+05 -1.377132E+05  1.647891E+03 -3.484642E+05  2.847571E+03  2.944009E+02
       174  27 -9.009019E+05 -1.668993E+05 -1.212889E+04 -3.734694E+05  9.571843E+02  3.551879E+03
       175   1 -7.667092E+05 -1.172284E+05  1.914538E+04 -3.368543E+05  6.555309E+03 -3.047476E+03
       175   2 -7.188611E+05 -8.803887E+04  3.044935E+04 -3.117989E+05  9.900661E+03 -5.747161E+03
       175   3 -6.547064E+05 -7.603128E+04  4.011765E+04 -3.058867E+05  1.323397E+04 -8.412215E+03
       175   4 -8.566924E+05 -1.505232E+05 -2.361372E+03 -3.613933E+05  3.348637E+03 -4.249686E+03
       175   5 -8.648713E+05 -1.421184E+05 -4.154737E+03 -3.517514E+05  6.725080E+03 -6.938061E+03
       175   6 -8.567524E+05 -1.509024E+05 -7.608582E+03 -3.612541E+05  1.008926E+04 -9.591860E+03
       175   7 -9.466675E+05 -1.838173E+05 -2.386866E+04 -3.859291E+05  1.424725E+02 -5.451707E+03
       175   8 -1.010860E+06 -1.961963E+05 -3.876018E+04 -3.916952E+05  3.550321E+03 -8.128654E+03
       175   9 -1.058757E+06 -2.257701E+05 -5.533735E+04 -4.166049E+05  6.945692E+03 -1.077108E+04
       175  10 -7.667092E+05 -1.172285E+05  1.914528E+04 -3.368543E+05  3.605576E-10  4.183160E-10
       175  11 -7.188613E+05 -8.803893E+04  3.044910E+04 -3.117989E+05  1.903321E-10 -1.797103E-10
       175  12 -6.547066E+05 -7.603141E+04  4.011718E+04 -3.058866E+05  7.789883E-10 -2.068134E-10
       175  13 -8.566924E+05 -1.505232E+05 -2.361427E+03 -3.613933E+05 -7.957746E-11  1.532751E-10
       175  14 -8.648713E+05 -1.421185E+05 -4.154912E+03 -3.517514E+05  1.010202E-10  1.888655E-12
       175  15 -8.567526E+05 -1.509025E+05 -7.608946E+03 -3.612541E+05  3.911351E-10 -8.700812E-11
       175  16 -9.466675E+05 -1.838173E+05 -2.386872E+04 -3.859291E+05 -4.801777E-10  1.001399E-11
       175  17 -1.010860E+06 -1.961964E+05 -3.876033E+04 -3.916952E+05 -2.013665E-11 -1.020130E-10
       175  18 -1.058757E+06 -2.257703E+05 -5.533766E+04 -4.166048E+05 -3.248449E-10 -2.551584E-11
       175  19 -7.667092E+05 -1.172284E+05  1.914538E+04 -3.368543E+05 -6.555309E+03  3.047476E+03
       175  20 -7.188611E+05 -8.803887E+04  3.044935E+04 -3.117989E+05 -9.900661E+03  5.747161E+03
       175  21 -6.547064E+05 -7.603128E+04  4.011765E+04 -3.058867E+05 -1.323397E+04  8.412215E+03
       175  22 -8.566924E+05 -1.505232E+05 -2.361372E+03 -3.613933E+05 -3.348637E+03  4.249686E+03
       175  23 -8.648713E+05 -1.421184E+05 -4.154737E+03 -3.517514E+05 -6.725080E+03  6.938061E+03
       175  24 -8.567524E+05 -1.509024E+05 -7.608582E+03 -3.612541E+05 -1.008926E+04  9.591860E+03
       175  25 -9.466675E+05 -1.838173E+05 -2.386866E+04 -3.859291E+05 -1.424725E+02  5.451707E+03
       175  26 -1.010860E+06 -1.961963E+05 -3.876018E+04 -3.916952E+05 -3.550321E+03  8.128654E+03
       175  27 -1.058757E+06 -2.257701E+05 -5.533735E+04 -4.166049E+05 -6.945692E+03  1.077108E+04
       176   1 -6.088024E+05 -5.932196E+04  4.884330E+04 -2.949323E+05  1.561251E+04 -9.885960E+03
       176   2 -5.614761E+05 -2.892072E+04  5.390826E+04 -2.678273E+05  2.538201E+04 -9.964589E+03
       176   3 -5.013832E+05 -2.258424E+04  5.062222E+04 -2.581450E+05  3.490028E+04 -9.367064E+03
       176   4 -8.572543E+05 -1.502203E+05 -1.001546E+04 -3.617135E+05  1.227857E+04 -1.113688E+04
       176   5 -8.641186E+05 -1.419321E+05 -1.806424E+04 -3.515762E+05  2.266539E+04 -1.098468E+04
       176   6 -8.583446E+05 -1.578355E+05 -3.495734E+04 -3.588641E+05  3.280010E+04 -1.015652E+04
       176   7 -1.105646E+06 -2.411152E+05 -6.887892E+04 -4.284709E+05  8.946059E+03 -1.238729E+04
       176   8 -1.166671E+06 -2.549371E+05 -9.004352E+04 -4.352880E+05  1.995020E+04 -1.200423E+04
       176   9 -1.215179E+06 -2.930765E+05 -1.205462E+05 -4.595299E+05  3.070123E+04 -1.094546E+04
       176  10 -6.088027E+05 -5.932213E+04  4.884265E+04 -2.949322E+05  4.955972E-10 -2.313698E-11
       176  11 -5.614768E+05 -2.892100E+04  5.390687E+04 -2.678271E+05  7.342605E-11 -3.163134E-10
       176  12 -5.013845E+05 -2.258466E+04  5.061977E+04 -2.581447E+05 -1.261655E-10 -2.647842E-10
       176  13 -8.572545E+05 -1.502205E+05 -1.001597E+04 -3.617134E+05  1.891977E-10 -1.157662E-10
       176  14 -8.641191E+05 -1.419324E+05 -1.806544E+04 -3.515760E+05  7.150567E-11 -3.569851E-10
       176  15 -8.583458E+05 -1.578359E+05 -3.495955E+04 -3.588638E+05  5.229060E-10 -3.653887E-10
       176  16 -1.105646E+06 -2.411154E+05 -6.887936E+04 -4.284708E+05 -4.173288E-10 -2.578829E-10
       176  17 -1.166671E+06 -2.549373E+05 -9.004454E+04 -4.352878E+05  6.381893E-10 -3.382192E-10
       176  18 -1.215181E+06 -2.930769E+05 -1.205482E+05 -4.595296E+05 -1.899106E-10 -2.574239E-10
       176  19 -6.088024E+05 -5.932196E+04  4.884330E+04 -2.949323E+05 -1.561251E+04  9.885960E+03
       176  20 -5.614761E+05 -2.892072E+04  5.390826E+04 -2.678273E+05 -2.538201E+04  9.964589E+03
       176  21 -5.013832E+05 -2.258424E+04  5.062222E+04 -2.581450E+05 -3.490028E+04  9.367064E+03
       176  22 -8.572543E+05 -1.502203E+05 -1.001546E+04 -3.617135E+05 -1.227857E+04  1.113688E+04
       176  23 -8.641186E+05 -1.419321E+05 -1.806424E+04 -3.515762E+05 -2.266539E+04  1.098468E+04
       176  24 -8.583446E+05 -1.578355E+05 -3.495734E+04 -3.588641E+05 -3.280010E+04  1.015652E+04
       176  25 -1.105646E+06 -2.411152E+05 -6.887892E+04 -4.284709E+05 -8.946059E+03  1.238729E+04
       176  26 -1.166671E+06 -2.549371E+05 -9.004352E+04 -4.352880E+05 -1.995020E+04  1.200423E+04
       176  27 -1.215179E+06 -2.930765E+05 -1.205462E+05 -4.595299E+05 -3.070123E+04  1.094546E+04
       177   1 -4.455950E+05 -9.218774E+03  5.157625E+04 -2.718746E+05  4.606695E+04 -8.940276E+03
       177   2 -4.128325E+05  4.628320E+04  3.238971E+04 -2.033521E+05  7.435478E+04  2.192942E+03
       177   3 -4.162077E+05 -4.292281E+04 -4.325948E+04 -1.195138E+05  9.705213E+04  2.821375E+04
       177   4 -8.641349E+05 -1.451263E+05 -4.428998E+04 -3.666506E+05  3.960781E+04 -1.136503E+04
       177   5 -8.545545E+05 -1.410175E+05 -7.868177E+04 -3.481699E+05  8.157371E+04  4.899854E+03
       177   6 -8.838690E+05 -2.843980E+05 -1.804156E+05 -3.143664E+05  1.179449E+05  3.605206E+04
       177   7 -1.282499E+06 -2.810301E+05 -1.401668E+05 -4.613722E+05  3.315345E+04 -1.378850E+04
       177   8 -1.296081E+06 -3.282876E+05 -1.897683E+05 -4.928879E+05  8.878704E+04  7.603987E+03
       177   9 -1.351307E+06 -5.257961E+05 -3.175910E+05 -5.090677E+05  1.388204E+05  4.387837E+04
       177  10 -4.455973E+05 -9.219430E+03  5.157211E+04 -2.718742E+05 -1.079183E-10 -9.500242E-11
       177  11 -4.128384E+05  4.628171E+04  3.237931E+04 -2.033523E+05  4.841795E-10 -1.401242E-11
       177  12 -4.162181E+05 -4.292620E+04 -4.327869E+04 -1.195160E+05  3.877987E-10 -1.569422E-10
       177  13 -8.641366E+05 -1.451269E+05 -4.429317E+04 -3.666502E+05  2.731287E-10 -1.701473E-10
       177  14 -8.545617E+05 -1.410193E+05 -7.869434E+04 -3.481703E+05 -1.125298E-10 -9.785903E-11
       177  15 -8.838843E+05 -2.844032E+05 -1.804443E+05 -3.143699E+05  2.627851E-10 -2.341860E-10
       177  16 -1.282500E+06 -2.810306E+05 -1.401693E+05 -4.613719E+05 -1.887837E-10 -2.994877E-10
       177  17 -1.296089E+06 -3.282898E+05 -1.897832E+05 -4.928884E+05  2.064700E-10 -4.281814E-10
       177  18 -1.351329E+06 -5.258034E+05 -3.176309E+05 -5.090726E+05 -6.233944E-10 -2.252432E-11
       177  19 -4.455950E+05 -9.218774E+03  5.157625E+04 -2.718746E+05 -4.606695E+04  8.940276E+03
       177  20 -4.128325E+05  4.628320E+04  3.238971E+04 -2.033521E+05 -7.435478E+04 -2.192942E+03
       177  21 -4.162077E+05 -4.292281E+04 -4.325948E+04 -1.195138E+05 -9.705213E+04 -2.821375E+04
       177  22 -8.641349E+05 -1.451263E+05 -4.428998E+04 -3.666506E+05 -3.960781E+04  1.136503E+04
       177  23 -8.545545E+05 -1.410175E+05 -7.868177E+04 -3.481699E+05 -8.157371E+04 -4.899854E+03
       177  24 -8.838690E+05 -2.843980E+05 -1.804156E+05 -3.143664E+05 -1.179449E+05 -3.605206E+04
       177  25 -1.282499E+06 -2.810301E+05 -1.401668E+05 -4.613722E+05 -3.315345E+04  1.378850E+04
       177  26 -1.296081E+06 -3.282876E+05 -1.897683E+05 -4.928879E+05 -8.878704E+04 -7.603987E+03
       177  27 -1.351307E+06 -5.257961E+05 -3.175910E+05 -5.090677E+05 -1.388204E+05 -4.387837E+04
       178   1 -8.434455E+05 -2.048260E+05 -1.671491E+05 -1.411932E+04  6.143556E+04  1.895104E+04
       178   2 -7.319809E+05 -3.103042E+05 -2.026348E+05 -3.638626E+04  5.584512E+04  5.969396E+04
       178   3 -5.872683E+05 -2.883502E+05 -2.025091E+05 -1.061647E+05  5.030660E+04  6.321688E+04
       178   4  5.705780E+05  1.460653E+05  1.742911E+05 -8.538125E+04  1.199749E+05  1.901987E+04
       178   5  5.508868E+05  2.758075E+03  7.990606E+04 -6.155117E+04  7.772492E+04  5.970383E+04
       178   6  5.707139E+05 -6.903257E+03  4.652005E+04 -8.522205E+04  3.553143E+04  6.320155E+04
       178   7  1.986449E+06  4.968319E+05  5.156039E+05 -1.568067E+05  1.786469E+05  1.907518E+04
       178   8  1.835296E+06  3.157127E+05  3.623483E+05 -8.676905E+04  9.964929E+04  5.971192E+04
       178   9  1.729958E+06  2.744575E+05  2.954717E+05 -6.423981E+04  2.072902E+04  6.318525E+04
       178  10 -8.434497E+05 -2.048274E+05 -1.671569E+05 -1.412026E+04  4.741600E-10  5.498384E-11
       178  11 -7.319852E+05 -3.103089E+05 -2.026474E+05 -3.638895E+04  7.211313E-11 -7.828250E-10
       178  12 -5.872721E+05 -2.883552E+05 -2.025214E+05 -1.061673E+05 -3.828501E-10 -2.888393E-10
       178  13  5.705624E+05  1.460611E+05  1.742634E+05 -8.538309E+04 -5.866328E-10 -5.491084E-10
       178  14  5.508794E+05  2.752626E+03  7.988801E+04 -6.155491E+04 -4.173359E-10 -2.399261E-10
       178  15  5.707115E+05 -6.907886E+03  4.651017E+04 -8.522385E+04 -4.515901E-10 -2.040341E-10
       178  16  1.986415E+06  4.968230E+05  5.155434E+05 -1.568094E+05  4.949624E-10  5.769374E-10
       178  17  1.835285E+06  3.157062E+05  3.623230E+05 -8.677384E+04 -2.436536E-10 -3.139281E-10
       178  18  1.729957E+06  2.744531E+05  2.954634E+05 -6.424086E+04  1.090609E-09 -2.406999E-10
       178  19 -8.434455E+05 -2.048260E+05 -1.671491E+05 -1.411932E+04 -6.143556E+04 -1.895104E+04
       178  20 -7.319809E+05 -3.103042E+05 -2.026348E+05 -3.638626E+04 -5.584512E+04 -5.969396E+04
       178  21 -5.872683E+05 -2.883502E+05 -2.025091E+05 -1.061647E+05 -5.030660E+04 -6.321688E+04
       178  22  5.705780E+05  1.460653E+05  1.742911E+05 -8.538125E+04 -1.199749E+05 -1.901987E+04
       178  23  5.508868E+05  2.758075E+03  7.990606E+04 -6.155117E+04 -7.772492E+04 -5.970383E+04
       178  24  5.707139E+05 -6.903257E+03  4.652005E+04 -8.522205E+04 -3.553143E+04 -6.320155E+04
       178  25  1.986449E+06  4.968319E+05  5.156039E+05 -1.568067E+05 -1.786469E+05 -1.907518E+04
       178  26  1.835296E+06  3.157127E+05  3.623483E+05 -8.676905E+04 -9.964929E+04 -5.971192E+04
       178  27  1.729958E+06  2.744575E+05  2.954717E+05 -6.423981E+04 -2.072902E+04 -6.318525E+04
       179   1 -4.946974E+05 -2.502378E+05 -1.916774E+05 -8.339399E+04  3.338031E+04  5.601952E+04
       179   2 -3.694021E+05 -2.264069E+05 -1.801154E+05 -6.073530E+04  2.504095E+04  5.069911E+04
       179   3 -2.410220E+05 -1.958154E+05 -1.613615E+05 -8.684029E+04  1.669285E+04  4.368540E+04
       179   4  5.627191E+05  6.939922E+03  3.679329E+04 -8.554121E+04  2.901695E+04  5.601075E+04
       179   5  5.610800E+05 -2.974638E+02  2.000888E+04 -6.116148E+04  1.899649E+04  5.069291E+04
       179   6  5.627944E+05 -4.887385E+02  1.157343E+04 -8.554055E+04  8.968946E+03  4.368293E+04
       179   7  1.621185E+06  2.640439E+05  2.651980E+05 -8.769217E+04  2.464623E+04  5.600203E+04
       179   8  1.492376E+06  2.257552E+05  2.200826E+05 -6.158828E+04  1.294309E+04  5.068671E+04
       179   9  1.367218E+06  1.947955E+05  1.844707E+05 -8.423904E+04  1.235172E+03  4.368044E+04
       179  10 -4.946994E+05 -2.502414E+05 -1.916854E+05 -8.339549E+04 -4.175844E-10 -1.949073E-10
       179  11 -3.694035E+05 -2.264099E+05 -1.801214E+05 -6.073633E+04  9.254462E-10 -4.792189E-11
       179  12 -2.410228E+05 -1.958175E+05 -1.613656E+05 -8.684088E+04  2.216963E-10  4.420181E-10
       179  13  5.627173E+05  6.936326E+03  3.678581E+04 -8.554252E+04 -6.307252E-10 -4.819003E-10
       179  14  5.610789E+05 -3.003209E+02  2.000338E+04 -6.116225E+04  4.498900E-10  7.061086E-11
       179  15  5.627938E+05 -4.908098E+02  1.156969E+04 -8.554087E+04 -1.222049E-09  3.672541E-10
       179  16  1.621184E+06  2.640404E+05  2.651909E+05 -8.769329E+04  1.321888E-09 -2.068464E-10
       179  17  1.492375E+06  2.257524E+05  2.200775E+05 -6.158880E+04  5.558892E-10 -3.977655E-10
       179  18  1.367217E+06  1.947935E+05  1.844671E+05 -8.423908E+04 -9.374413E-10  3.220935E-10
       179  19 -4.946974E+05 -2.502378E+05 -1.916774E+05 -8.339399E+04 -3.338031E+04 -5.601952E+04
       179  20 -3.694021E+05 -2.264069E+05 -1.801154E+05 -6.073530E+04 -2.504095E+04 -5.069911E+04
       179  21 -2.410220E+05 -1.958154E+05 -1.613615E+05 -8.684029E+04 -1.669285E+04 -4.368540E+04
       179  22  5.627191E+05  6.939922E+03  3.679329E+04 -8.554121E+04 -2.901695E+04 -5.601075E+04
       179  23  5.610800E+05 -2.974638E+02  2.000888E+04 -6.116148E+04 -1.899649E+04 -5.069291E+04
       179  24  5.627944E+05 -4.887385E+02  1.157343E+04 -8.554055E+04 -8.968946E+03 -4.368293E+04
       179  25  1.621185E+06  2.640439E+05  2.651980E+05 -8.769217E+04 -2.464623E+04 -5.600203E+04
       179  26  1.492376E+06  2.257552E+05  2.200826E+05 -6.158828E+04 -1.294309E+04 -5.068671E+04
       179  27  1.367218E+06  1.947955E+05  1.844707E+05 -8.423904E+04 -1.235172E+03 -4.368044E+04
       180   1 -1.424532E+05 -1.708867E+05 -1.421554E+05 -8.554649E+04  1.440331E+04  3.918721E+04
       180   2 -1.642097E+04 -1.405686E+05 -1.191154E+05 -6.118154E+04  1.196296E+04  3.179169E+04
       180   3  1.101038E+05 -1.098342E+05 -9.436975E+04 -8.542612E+04  9.516954E+03  2.432677E+04
       180   4  5.621906E+05  2.166569E+02  8.860755E+03 -8.550698E+04  7.165943E+03  3.918647E+04
       180   5  5.619685E+05 -8.595647E+01  5.070206E+03 -6.120369E+04  4.654018E+03  3.179327E+04
       180   6  5.622353E+05  4.057070E+01  3.033729E+03 -8.550720E+04  2.136929E+03  2.433073E+04
       180   7  1.267301E+06  1.712875E+05  1.598482E+05 -8.546735E+04 -7.953097E+01  3.918574E+04
       180   8  1.140672E+06  1.403748E+05  1.292365E+05 -6.122580E+04 -2.661636E+03  3.179484E+04
       180   9  1.014559E+06  1.099019E+05  1.004254E+05 -8.558830E+04 -5.248395E+03  2.433470E+04
       180  10 -1.424539E+05 -1.708884E+05 -1.421587E+05 -8.554695E+04  1.129414E-09  2.690387E-10
       180  11 -1.642139E+04 -1.405697E+05 -1.191176E+05 -6.118184E+04 -3.284463E-10 -1.533866E-10
       180  12  1.101036E+05 -1.098348E+05 -9.437103E+04 -8.542631E+04 -1.106932E-10 -3.070705E-10
       180  13  5.621902E+05  2.149937E+02  8.857772E+03 -8.550721E+04 -5.884516E-11  4.206010E-10
       180  14  5.619682E+05 -8.704801E+01  5.068265E+03 -6.120381E+04  4.387487E-10  4.603781E-10
       180  15  5.622352E+05  3.993361E+01  3.032607E+03 -8.550725E+04  7.925649E-10  3.261655E-10
       180  16  1.267301E+06  1.712859E+05  1.598454E+05 -8.546735E+04 -5.966944E-10  7.580705E-10
       180  17  1.140672E+06  1.403737E+05  1.292346E+05 -6.122574E+04  9.433846E-10  1.957527E-10
       180  18  1.014559E+06  1.099013E+05  1.004242E+05 -8.558820E+04  3.116358E-10 -4.246359E-10
       180  19 -1.424532E+05 -1.708867E+05 -1.421554E+05 -8.554649E+04 -1.440331E+04 -3.918721E+04
       180  20 -1.642097E+04 -1.405686E+05 -1.191154E+05 -6.118154E+04 -1.196296E+04 -3.179169E+04
       180  21  1.101038E+05 -1.098342E+05 -9.436975E+04 -8.542612E+04 -9.516954E+03 -2.432677E+04
       180  22  5.621906E+05  2.166569E+02  8.860755E+03 -8.550698E+04 -7.165943E+03 -3.918647E+04
       180  23  5.619685E+05 -8.595647E+01  5.070206E+03 -6.120369E+04 -4.654018E+03 -3.179327E+04
       180  24  5.622353E+05  4.057070E+01  3.033729E+03 -8.550720E+04 -2.136929E+03 -2.433073E+04
       180  25  1.267301E+06  1.712875E+05  1.598482E+05 -8.546735E+04  7.953097E+01 -3.918574E+04
       180  26  1.140672E+06  1.403748E+05  1.292365E+05 -6.122580E+04  2.661636E+03 -3.179484E+04
       180  27  1.014559E+06  1.099019E+05  1.004254E+05 -8.558830E+04  5.248395E+03 -2.433470E+04
       181   1  2.088417E+05 -8.565528E+04 -7.310775E+04 -8.537225E+04  8.996623E+03  1.996726E+04
       181   2  3.348055E+05 -5.514431E+04 -4.718379E+04 -6.114545E+04  8.197019E+03  1.249669E+04
       181   3  4.608399E+05 -2.454388E+04 -2.073540E+04 -8.540967E+04  7.395241E+03  5.026079E+03
       181   4  5.621570E+05  7.751475E+01  2.387921E+03 -8.548119E+04  1.643383E+03  1.997220E+04
       181   5  5.621369E+05  5.855749E+01  1.610802E+03 -6.123622E+04  8.427194E+02  1.250252E+04
       181   6  5.621743E+05  1.305628E+02  1.359481E+03 -8.548119E+04  4.003911E+01  5.032853E+03
       181   7  9.155898E+05  8.580219E+04  7.787657E+04 -8.559017E+04 -5.713979E+03  1.997715E+04
       181   8  7.895170E+05  5.525807E+04  5.040258E+04 -6.132701E+04 -6.514234E+03  1.250836E+04
       181   9  6.635185E+05  2.480435E+04  2.345395E+04 -8.555272E+04 -7.316347E+03  5.039627E+03
       181  10  2.088415E+05 -8.565573E+04 -7.310865E+04 -8.537239E+04  2.355558E-10 -9.536782E-11
       181  11  3.348054E+05 -5.514449E+04 -4.718421E+04 -6.114553E+04  1.197263E-10 -3.813977E-10
       181  12  4.608399E+05 -2.454392E+04 -2.073555E+04 -8.540970E+04  1.484298E-10 -3.687240E-10
       181  13  5.621569E+05  7.708557E+01  2.387167E+03 -8.548122E+04  1.186786E-09 -8.347453E-10
       181  14  5.621369E+05  5.838940E+01  1.610507E+03 -6.123622E+04  5.408335E-10  5.709737E-12
       181  15  5.621743E+05  1.305356E+02  1.359433E+03 -8.548119E+04 -1.711631E-09 -4.407167E-10
       181  16  9.155897E+05  8.580176E+04  7.787576E+04 -8.559007E+04 -1.857202E-10 -4.771082E-10
       181  17  7.895169E+05  5.525789E+04  5.040221E+04 -6.132694E+04  5.783262E-10 -1.226969E-10
       181  18  6.635184E+05  2.480431E+04  2.345380E+04 -8.555269E+04  3.049401E-10 -4.878908E-10
       181  19  2.088417E+05 -8.565528E+04 -7.310775E+04 -8.537225E+04 -8.996623E+03 -1.996726E+04
       181  20  3.348055E+05 -5.514431E+04 -4.718379E+04 -6.114545E+04 -8.197019E+03 -1.249669E+04
       181  21  4.608399E+05 -2.454388E+04 -2.073540E+04 -8.540967E+04 -7.395241E+03 -5.026079E+03
       181  22  5.621570E+05  7.751475E+01  2.387921E+03 -8.548119E+04 -1.643383E+03 -1.997220E+04
       181  23  5.621369E+05  5.855749E+01  1.610802E+03 -6.123622E+04 -8.427194E+02 -1.250252E+04
       181  24  5.621743E+05  1.305628E+02  1.359481E+03 -8.548119E+04 -4.003911E+01 -5.032853E+03
       181  25  9.155898E+05  8.580219E+04  7.787657E+04 -8.559017E+04  5.713979E+03 -1.997715E+04
       181  26  7.895170E+05  5.525807E+04  5.040258E+04 -6.132701E+04  6.514234E+03 -1.250836E+04
       181  27  6.635185E+05  2.480435E+04  2.345395E+04 -8.555272E+04  7.316347E+03 -5.039627E+03
       182   1  5.595550E+05 -4.352675E+02  1.174574E+03 -8.546995E+04  7.140601E+03  6.786913E+02
       182   2  6.855069E+05  3.001806E+04  2.825537E+04 -6.126010E+04  6.252657E+03 -6.788860E+03
       182   3  8.115299E+05  6.056803E+04  5.591548E+04 -8.552519E+04  5.365625E+03 -1.425510E+04
       182   4  5.621758E+05  1.316992E+02  1.390181E+03 -8.547798E+04 -2.143618E+02  6.855933E+02
       182   5  5.621440E+05  6.822137E+01  1.781929E+03 -6.124022E+04 -1.101608E+03 -6.782484E+03
       182   6  5.621663E+05  1.017250E+02  2.752523E+03 -8.547797E+04 -1.987766E+03 -1.424919E+04
       182   7  5.647967E+05  6.986948E+02  1.605991E+03 -8.548602E+04 -7.569354E+03  6.924955E+02
       182   8  4.387956E+05 -2.988258E+04 -2.469219E+04 -6.122033E+04 -8.454433E+03 -6.776107E+03
       182   9  3.128613E+05 -6.036859E+04 -5.041381E+04 -8.543075E+04 -9.338251E+03 -1.424328E+04
       182  10  5.595550E+05 -4.352817E+02  1.174477E+03 -8.546996E+04 -6.927146E-10  4.969080E-10
       182  11  6.855069E+05  3.001800E+04  2.825521E+04 -6.126007E+04 -5.571484E-10  1.185625E-09
       182  12  8.115298E+05  6.056780E+04  5.591504E+04 -8.552513E+04  1.858604E-09 -9.243265E-10
       182  13  5.621758E+05  1.316987E+02  1.390180E+03 -8.547798E+04 -1.085607E-09  7.684798E-11
       182  14  5.621440E+05  6.817163E+01  1.781840E+03 -6.124022E+04 -2.853871E-10 -4.614112E-10
       182  15  5.621662E+05  1.015059E+02  2.752134E+03 -8.547799E+04 -7.550544E-10 -2.716505E-10
       182  16  5.647967E+05  6.986789E+02  1.605883E+03 -8.548601E+04 -6.320109E-10  3.832614E-11
       182  17  4.387955E+05 -2.988265E+04 -2.469241E+04 -6.122037E+04 -6.649099E-10 -2.883380E-10
       182  18  3.128612E+05 -6.036883E+04 -5.041436E+04 -8.543085E+04 -2.531996E-09 -3.763306E-10
       182  19  5.595550E+05 -4.352675E+02  1.174574E+03 -8.546995E+04 -7.140601E+03 -6.786913E+02
       182  20  6.855069E+05  3.001806E+04  2.825537E+04 -6.126010E+04 -6.252657E+03  6.788860E+03
       182  21  8.115299E+05  6.056803E+04  5.591548E+04 -8.552519E+04 -5.365625E+03  1.425510E+04
       182  22  5.621758E+05  1.316992E+02  1.390181E+03 -8.547798E+04  2.143618E+02 -6.855933E+02
       182  23  5.621440E+05  6.822137E+01  1.781929E+03 -6.124022E+04  1.101608E+03  6.782484E+03
       182  24  5.621663E+05  1.017250E+02  2.752523E+03 -8.547797E+04  1.987766E+03  1.424919E+04
       182  25  5.647967E+05  6.986948E+02  1.605991E+03 -8.548602E+04  7.569354E+03 -6.924955E+02
       182  26  4.387956E+05 -2.988258E+04 -2.469219E+04 -6.122033E+04  8.454433E+03  6.776107E+03
       182  27  3.128613E+05 -6.036859E+04 -5.041381E+04 -8.543075E+04  9.338251E+03  1.424328E+04
       183   1  9.104389E+05  8.465037E+04  7.858364E+04 -8.551841E+04  4.818640E+03 -1.860963E+04
       183   2  1.036411E+06  1.150981E+05  1.077705E+05 -6.121423E+04  1.789783E+03 -2.606500E+04
       183   3  1.162926E+06  1.460607E+05  1.390533E+05 -8.546905E+04 -1.235435E+03 -3.345511E+04
       183   4  5.622563E+05  6.187215E+01  3.530553E+03 -8.549709E+04 -2.559636E+03 -1.860444E+04
       183   5  5.619789E+05 -6.154939E+01  5.968773E+03 -6.121630E+04 -5.522803E+03 -2.606179E+04
       183   6  5.622194E+05  3.197632E+02  1.045914E+04 -8.549677E+04 -8.481733E+03 -3.345380E+04
       183   7  2.141876E+05 -8.453457E+04 -7.152946E+04 -8.547575E+04 -9.933835E+03 -1.859925E+04
       183   8  8.775856E+04 -1.152360E+05 -9.584590E+04 -6.121832E+04 -1.282989E+04 -2.605858E+04
       183   9 -3.814836E+04 -1.454447E+05 -1.181558E+05 -8.552440E+04 -1.572113E+04 -3.345249E+04
       183  10  9.104388E+05  8.464999E+04  7.858294E+04 -8.551834E+04 -1.314994E-09 -8.343088E-10
       183  11  1.036411E+06  1.150974E+05  1.077692E+05 -6.121419E+04 -9.591647E-10  6.248333E-10
       183  12  1.162926E+06  1.460595E+05  1.390512E+05 -8.546908E+04 -1.831193E-10  5.105850E-10
       183  13  5.622562E+05  6.149861E+01  3.529890E+03 -8.549713E+04 -6.233450E-10 -1.671606E-10
       183  14  5.619787E+05 -6.228714E+01  5.967439E+03 -6.121642E+04 -1.176201E-09  1.492644E-10
       183  15  5.622190E+05  3.185418E+02  1.045690E+04 -8.549700E+04  1.181116E-10  2.311984E-10
       183  16  2.141874E+05 -8.453496E+04 -7.153030E+04 -8.547590E+04 -2.222577E-10 -2.638459E-10
       183  17  8.775820E+04 -1.152367E+05 -9.584749E+04 -6.121859E+04  1.054307E-09  8.272830E-10
       183  18 -3.814893E+04 -1.454460E+05 -1.181584E+05 -8.552482E+04 -9.013964E-11  7.064644E-10
       183  19  9.104389E+05  8.465037E+04  7.858364E+04 -8.551841E+04 -4.818640E+03  1.860963E+04
       183  20  1.036411E+06  1.150981E+05  1.077705E+05 -6.121423E+04 -1.789783E+03  2.606500E+04
       183  21  1.162926E+06  1.460607E+05  1.390533E+05 -8.546905E+04  1.235435E+03  3.345511E+04
       183  22  5.622563E+05  6.187215E+01  3.530553E+03 -8.549709E+04  2.559636E+03  1.860444E+04
       183  23  5.619789E+05 -6.154939E+01  5.968773E+03 -6.121630E+04  5.522803E+03  2.606179E+04
       183  24  5.622194E+05  3.197632E+02  1.045914E+04 -8.549677E+04  8.481733E+03  3.345380E+04
       183  25  2.141876E+05 -8.453457E+04 -7.152946E+04 -8.547575E+04  9.933835E+03  1.859925E+04
       183  26  8.775856E+04 -1.152360E+05 -9.584590E+04 -6.121832E+04  1.282989E+04  2.605858E+04
       183  27 -3.814836E+04 -1.454447E+05 -1.181558E+05 -8.552440E+04  1.572113E+04  3.345249E+04
       184   1  1.262810E+06  1.694157E+05  1.641491E+05 -8.404264E+04 -2.913021E+03 -3.793493E+04
       184   2  1.387529E+06  2.003902E+05  2.012561E+05 -6.184630E+04 -1.633299E+04 -4.496492E+04
       184   3  1.516358E+06  2.399606E+05  2.492783E+05 -8.833314E+04 -2.974899E+04 -5.042572E+04
       184   4  5.629279E+05 -5.087098E+02  1.366715E+04 -8.552492E+04 -1.061136E+04 -3.793505E+04
       184   5  5.609774E+05 -2.537044E+02  2.366074E+04 -6.118099E+04 -2.247061E+04 -4.496864E+04
       184   6  5.628599E+05  8.335320E+03  4.349858E+04 -8.552383E+04 -3.432324E+04 -5.043212E+04
       184   7 -1.364947E+05 -1.704652E+05 -1.368433E+05 -8.700543E+04 -1.830115E+04 -3.793512E+04
       184   8 -2.649335E+05 -2.009424E+05 -1.539744E+05 -6.051654E+04 -2.860017E+04 -4.497238E+04
       184   9 -3.897865E+05 -2.233497E+05 -1.623347E+05 -8.271886E+04 -3.889054E+04 -5.043857E+04
       184  10  1.262810E+06  1.694141E+05  1.641464E+05 -8.404273E+04 -6.036584E-11  2.857247E-10
       184  11  1.387529E+06  2.003880E+05  2.012518E+05 -6.184689E+04  1.866709E-11 -2.451031E-10
       184  12  1.516357E+06  2.399576E+05  2.492718E+05 -8.833435E+04 -5.868295E-10 -3.115103E-10
       184  13  5.629274E+05 -5.102858E+02  1.366423E+04 -8.552524E+04 -5.722263E-10  3.113498E-10
       184  14  5.609763E+05 -2.560120E+02  2.365599E+04 -6.118181E+04 -2.021360E-10 -2.987188E-10
       184  15  5.628579E+05  8.332272E+03  4.349158E+04 -8.552523E+04 -1.981849E-10 -4.310617E-10
       184  16 -1.364955E+05 -1.704668E+05 -1.368467E+05 -8.700599E+04 -3.793405E-10  3.360265E-10
       184  17 -2.649349E+05 -2.009448E+05 -1.539798E+05 -6.051758E+04  9.959910E-10 -4.686780E-10
       184  18 -3.897888E+05 -2.233529E+05 -1.623423E+05 -8.272044E+04  4.467654E-10 -4.578606E-10
       184  19  1.262810E+06  1.694157E+05  1.641491E+05 -8.404264E+04  2.913021E+03  3.793493E+04
       184  20  1.387529E+06  2.003902E+05  2.012561E+05 -6.184630E+04  1.633299E+04  4.496492E+04
       184  21  1.516358E+06  2.399606E+05  2.492783E+05 -8.833314E+04  2.974899E+04  5.042572E+04
       184  22  5.629279E+05 -5.087098E+02  1.366715E+04 -8.552492E+04  1.061136E+04  3.793505E+04
       184  23  5.609774E+05 -2.537044E+02  2.366074E+04 -6.118099E+04  2.247061E+04  4.496864E+04
       184  24  5.628599E+05  8.335320E+03  4.349858E+04 -8.552383E+04  3.432324E+04  5.043212E+04
       184  25 -1.364947E+05 -1.704652E+05 -1.368433E+05 -8.700543E+04  1.830115E+04  3.793512E+04
       184  26 -2.649335E+05 -2.009424E+05 -1.539744E+05 -6.051654E+04  2.860017E+04  4.497238E+04
       184  27 -3.897865E+05 -2.233497E+05 -1.623347E+05 -8.271886E+04  3.889054E+04  5.043857E+04
       185   1  1.626318E+06  2.478197E+05  2.813933E+05 -6.078304E+04 -2.777808E+04 -5.740096E+04
       185   2  1.728073E+06  2.907595E+05  3.538647E+05 -9.185948E+04 -1.117537E+05 -5.469540E+04
       185   3  1.882144E+06  4.973933E+05  5.219409E+05 -1.704611E+05 -1.957921E+05 -1.751166E+04
       185   4  5.723020E+05 -8.015939E+03  5.499635E+04 -8.523052E+04 -4.202641E+04 -5.741133E+04
       185   5  5.489932E+05  3.430760E+03  9.449847E+04 -6.154064E+04 -9.192639E+04 -5.469506E+04
       185   6  5.721673E+05  1.728217E+05  2.060677E+05 -8.536561E+04 -1.418670E+05 -1.748598E+04
       185   7 -4.806701E+05 -2.639220E+05 -1.714645E+05 -1.096360E+05 -5.625088E+04 -5.742060E+04
       185   8 -6.287871E+05 -2.839873E+05 -1.649508E+05 -3.128009E+04 -7.213605E+04 -5.469280E+04
       185   9 -7.362215E+05 -1.518460E+05 -1.099133E+05 -4.501596E+02 -8.805487E+04 -1.744556E+04
       185  10  1.626316E+06  2.478159E+05  2.813857E+05 -6.078433E+04 -8.898420E-10  7.861703E-11
       185  11  1.728059E+06  2.907529E+05  3.538357E+05 -9.186440E+04 -3.452450E-10  2.308185E-10
       185  12  1.882103E+06  4.973827E+05  5.218685E+05 -1.704638E+05  9.446941E-10 -1.219166E-10
       185  13  5.722992E+05 -8.019954E+03  5.498683E+04 -8.523246E+04 -3.476031E-10  2.685132E-10
       185  14  5.489833E+05  3.425280E+03  9.447698E+04 -6.154469E+04  4.466962E-10  1.395518E-09
       185  15  5.721456E+05  1.728160E+05  2.060293E+05 -8.536761E+04  6.687686E-10 -3.802530E-11
       185  16 -4.806743E+05 -2.639264E+05 -1.714766E+05 -1.096386E+05 -1.046225E-10 -2.101929E-11
       185  17 -6.287935E+05 -2.839919E+05 -1.649663E+05 -3.128327E+04  9.016835E-10  1.753823E-10
       185  18 -7.362300E+05 -1.518484E+05 -1.099284E+05 -4.513973E+02 -2.427113E-10 -3.065466E-10
       185  19  1.626318E+06  2.478197E+05  2.813933E+05 -6.078304E+04  2.777808E+04  5.740096E+04
       185  20  1.728073E+06  2.907595E+05  3.538647E+05 -9.185948E+04  1.117537E+05  5.469540E+04
       185  21  1.882144E+06  4.973933E+05  5.219409E+05 -1.704611E+05  1.957921E+05  1.751166E+04
       185  22  5.723020E+05 -8.015939E+03  5.499635E+04 -8.523052E+04  4.202641E+04  5.741133E+04
       185  23  5.489932E+05  3.430760E+03  9.449847E+04 -6.154064E+04  9.192639E+04  5.469506E+04
       185  24  5.721673E+05  1.728217E+05  2.060677E+05 -8.536561E+04  1.418670E+05  1.748598E+04
       185  25 -4.806701E+05 -2.639220E+05 -1.714645E+05 -1.096360E+05  5.625088E+04  5.742060E+04
       185  26 -6.287871E+05 -2.839873E+05 -1.649508E+05 -3.128009E+04  7.213605E+04  5.469280E+04
       185  27 -7.362215E+05 -1.518460E+05 -1.099133E+05 -4.501596E+02  8.805487E+04  1.744556E+04
       186   1  3.664545E+05  1.336989E+06  3.747250E+05 -3.056486E+05  1.173214E+04  9.994357E+04
       186   2  1.866945E+05  9.319826E+05  2.130887E+05 -2.052323E+05  3.163626E+04  4.364452E+04
       186   3  8.641958E+04  5.537506E+05  1.078070E+05 -2.537314E+05  1.857804E+04 -1.268259E+04
       186   4  8.104010E+04  1.889836E+05  9.560647E+04 -2.639479E+05  1.181677E+04  6.414611E+04
       186   5  2.441512E+03  1.785507E+05  4.517499E+04 -1.895819E+05  3.164761E+04  4.037444E+04
       186   6 -2.243528E+03  1.891657E+05  2.859397E+04 -2.641262E+05  1.850277E+04  1.653881E+04
       186   7 -2.044643E+05 -9.578147E+05 -1.836019E+05 -2.223236E+05  1.189670E+04  2.841447E+04
       186   8 -1.818491E+05 -5.743520E+05 -1.227741E+05 -1.739504E+05  3.165881E+04  3.710827E+04
       186   9 -9.091455E+04 -1.752926E+05 -5.062375E+04 -2.745148E+05  1.842649E+04  4.574328E+04
       186  10  3.664517E+05  1.336978E+06  3.747060E+05 -3.056495E+05 -6.019507E-11  4.462303E-10
       186  11  1.866929E+05  9.319802E+05  2.130832E+05 -2.052334E+05 -7.687555E-10  1.099813E-09
       186  12  8.641916E+04  5.537503E+05  1.078061E+05 -2.537312E+05  2.191487E-10 -1.404686E-09
       186  13  8.103885E+04  1.889792E+05  9.559847E+04 -2.639486E+05  7.824801E-10 -9.872333E-10
       186  14  2.439998E+03  1.785487E+05  4.517005E+04 -1.895830E+05 -7.175924E-10 -5.534051E-10
       186  15 -2.243969E+03  1.891653E+05  2.859282E+04 -2.641265E+05  4.765047E-11 -1.423967E-09
       186  16 -2.044646E+05 -9.578156E+05 -1.836036E+05 -2.223239E+05  2.030920E-10 -4.446276E-10
       186  17 -1.818506E+05 -5.743538E+05 -1.227786E+05 -1.739513E+05  1.992286E-09  1.818889E-09
       186  18 -9.091547E+04 -1.752949E+05 -5.062832E+04 -2.745155E+05 -7.890611E-10  1.931680E-09
       186  19  3.664545E+05  1.336989E+06  3.747250E+05 -3.056486E+05 -1.173214E+04 -9.994357E+04
       186  20  1.866945E+05  9.319826E+05  2.130887E+05 -2.052323E+05 -3.163626E+04 -4.364452E+04
       186  21  8.641958E+04  5.537506E+05  1.078070E+05 -2.537314E+05 -1.857804E+04  1.268259E+04
       186  22  8.104010E+04  1.889836E+05  9.560647E+04 -2.639479E+05 -1.181677E+04 -6.414611E+04
       186  23  2.441512E+03  1.785507E+05  4.517499E+04 -1.895819E+05 -3.164761E+04 -4.037444E+04
       186  24 -2.243528E+03  1.891657E+05  2.859397E+04 -2.641262E+05 -1.850277E+04 -1.653881E+04
       186  25 -2.044643E+05 -9.578147E+05 -1.836019E+05 -2.223236E+05 -1.189670E+04 -2.841447E+04
       186  26 -1.818491E+05 -5.743520E+05 -1.227741E+05 -1.739504E+05 -3.165881E+04 -3.710827E+04
       186  27 -9.091455E+04 -1.752926E+05 -5.062375E+04 -2.745148E+05 -1.842649E+04 -4.574328E+04
       187   1  1.900152E+04  2.419257E+05  3.707622E+04 -2.663989E+05  2.408047E+03 -8.331676E+03
       187   2 -8.046015E+04 -1.503513E+05 -5.338147E+04 -1.887200E+05 -1.811796E+04 -1.689706E+04
       187   3 -1.728682E+05 -5.403433E+05 -1.366981E+05 -2.614271E+05 -3.786523E+04 -2.544717E+04
       187   4  5.072087E+03  1.850210E+05  2.438011E+04 -2.644069E+05  2.353437E+03  1.227360E+04
       187   5  7.628576E+02  1.838446E+05  1.853239E+04 -1.892188E+05 -1.816653E+04  2.935188E+03
       187   6  3.649224E+03  1.849429E+05  2.036765E+04 -2.644103E+05 -3.790842E+04 -6.393146E+03
       187   7 -8.857328E+03  1.281202E+05  1.168539E+04 -2.624152E+05  2.298957E+03  3.287700E+04
       187   8  8.197874E+04  5.181464E+05  9.044117E+04 -1.897178E+05 -1.821512E+04  2.277796E+04
       187   9  1.801321E+05  9.107237E+05  1.774035E+05 -2.673965E+05 -3.795177E+04  1.268285E+04
       187  10  1.900150E+04  2.419257E+05  3.707608E+04 -2.663989E+05 -6.101576E-10  6.423054E-10
       187  11 -8.046058E+04 -1.503517E+05 -5.338262E+04 -1.887202E+05 -9.743686E-10  1.234293E-09
       187  12 -1.728700E+05 -5.403444E+05 -1.367020E+05 -2.614279E+05 -2.508062E-10 -1.170889E-09
       187  13  5.072040E+03  1.850209E+05  2.437982E+04 -2.644070E+05 -2.860627E-10 -1.214265E-09
       187  14  7.625009E+02  1.838445E+05  1.853175E+04 -1.892187E+05 -5.781172E-10 -4.992466E-10
       187  15  3.647669E+03  1.849424E+05  2.036487E+04 -2.644104E+05 -9.030932E-10 -1.218861E-09
       187  16 -8.857624E+03  1.281191E+05  1.168335E+04 -2.624152E+05 -1.013621E-09 -5.710564E-10
       187  17  8.197824E+04  5.181457E+05  9.043957E+04 -1.897175E+05 -7.068456E-10  1.750234E-09
       187  18  1.801306E+05  9.107232E+05  1.774005E+05 -2.673961E+05 -3.279306E-10  1.813162E-09
       187  19  1.900152E+04  2.419257E+05  3.707622E+04 -2.663989E+05 -2.408047E+03  8.331676E+03
       187  20 -8.046015E+04 -1.503513E+05 -5.338147E+04 -1.887200E+05  1.811796E+04  1.689706E+04
       187  21 -1.728682E+05 -5.403433E+05 -1.366981E+05 -2.614271E+05  3.786523E+04  2.544717E+04
       187  22  5.072087E+03  1.850210E+05  2.438011E+04 -2.644069E+05 -2.353437E+03 -1.227360E+04
       187  23  7.628576E+02  1.838446E+05  1.853239E+04 -1.892188E+05  1.816653E+04 -2.935188E+03
       187  24  3.649224E+03  1.849429E+05  2.036765E+04 -2.644103E+05  3.790842E+04  6.393146E+03
       187  25 -8.857328E+03  1.281202E+05  1.168539E+04 -2.624152E+05 -2.298957E+03 -3.287700E+04
       187  26  8.197874E+04  5.181464E+05  9.044117E+04 -1.897178E+05  1.821512E+04 -2.277796E+04
       187  27  1.801321E+05  9.107237E+05  1.774035E+05 -2.673965E+05  3.795177E+04 -1.268285E+04
       188   1 -2.527419E+05 -8.453051E+05 -2.003016E+05 -2.701571E+05 -5.521575E+04 -4.254510E+04
       188   2 -3.457632E+05 -1.240462E+06 -2.813973E+05 -1.776521E+05 -6.346559E+04 -1.078904E+04
       188   3 -3.939427E+05 -1.628279E+06 -3.719736E+05 -2.333934E+05 -2.162351E+04  2.100801E+04
       188   4 -1.481704E+03  1.878117E+05  2.263678E+04 -2.639533E+05 -5.528396E+04 -9.911264E+03
       188   5  1.446679E+03  1.797864E+05  3.323195E+04 -1.897982E+05 -6.342524E+04 -2.739319E+04
       188   6  5.771891E+04  1.874761E+05  6.853933E+04 -2.638586E+05 -2.152788E+04 -4.481404E+04
       188   7  2.497090E+05  1.221934E+06  2.455163E+05 -2.577382E+05 -5.535146E+04  2.277620E+04
       188   8  3.485210E+05  1.601922E+06  3.477374E+05 -2.019713E+05 -6.338430E+04 -4.403489E+04
       188   9  5.091440E+05  2.006257E+06  5.088311E+05 -2.944116E+05 -2.142596E+04 -1.108283E+05
       188  10 -2.527457E+05 -8.453079E+05 -2.003108E+05 -2.701590E+05 -1.004942E-09  3.041145E-10
       188  11 -3.457675E+05 -1.240464E+06 -2.814051E+05 -1.776527E+05  4.659072E-10  1.443214E-09
       188  12 -3.939433E+05 -1.628279E+06 -3.719753E+05 -2.333931E+05  1.048891E-10  3.767359E-11
       188  13 -1.485013E+03  1.878107E+05  2.263085E+04 -2.639537E+05  3.294203E-10 -1.035823E-09
       188  14  1.442157E+03  1.797845E+05  3.322298E+04 -1.897996E+05  1.871640E-10 -3.738016E-10
       188  15  5.771787E+04  1.874738E+05  6.853468E+04 -2.638593E+05  5.341691E-10 -6.742752E-10
       188  16  2.497056E+05  1.221933E+06  2.455095E+05 -2.577372E+05 -5.091127E-10 -1.212748E-10
       188  17  3.485162E+05  1.601918E+06  3.477262E+05 -2.019735E+05  2.892445E-10  3.495026E-10
       188  18  5.091402E+05  2.006244E+06  5.088072E+05 -2.944135E+05  2.916193E-10  8.307148E-11
       188  19 -2.527419E+05 -8.453051E+05 -2.003016E+05 -2.701571E+05  5.521575E+04  4.254510E+04
       188  20 -3.457632E+05 -1.240462E+06 -2.813973E+05 -1.776521E+05  6.346559E+04  1.078904E+04
       188  21 -3.939427E+05 -1.628279E+06 -3.719736E+05 -2.333934E+05  2.162351E+04 -2.100801E+04
       188  22 -1.481704E+03  1.878117E+05  2.263678E+04 -2.639533E+05  5.528396E+04  9.911264E+03
       188  23  1.446679E+03  1.797864E+05  3.323195E+04 -1.897982E+05  6.342524E+04  2.739319E+04
       188  24  5.771891E+04  1.874761E+05  6.853933E+04 -2.638586E+05  2.152788E+04  4.481404E+04
       188  25  2.497090E+05  1.221934E+06  2.455163E+05 -2.577382E+05  5.535146E+04 -2.277620E+04
       188  26  3.485210E+05  1.601922E+06  3.477374E+05 -2.019713E+05  6.338430E+04  4.403489E+04
       188  27  5.091440E+05  2.006257E+06  5.088311E+05 -2.944116E+05  2.142596E+04  1.108283E+05
       189   1 -2.513080E+06 -9.657775E+05 -5.886137E+05 -9.284598E+05 -2.510685E+05 -7.793191E+04
       189   2 -2.425771E+06 -6.221432E+05 -3.629040E+05 -9.057537E+05 -1.617277E+05 -8.683207E+03
       189   3 -2.416458E+06 -5.410959E+05 -2.776148E+05 -8.512778E+05 -6.143991E+04  3.156704E+04
       189   4 -1.587502E+06 -5.006606E+05 -3.194016E+05 -5.568203E+05 -2.093002E+05 -6.226138E+04
       189   5 -1.533626E+06 -2.488537E+05 -1.392924E+05 -6.190074E+05 -1.464974E+05 -2.971159E+03
       189   6 -1.552337E+06 -2.541728E+05 -7.837973E+04 -6.494673E+05 -7.276607E+04  2.730721E+04
       189   7 -6.610479E+05 -3.527061E+04 -5.026226E+04 -1.846096E+05 -1.674633E+05 -4.654526E+04
       189   8 -6.406852E+05  1.245506E+05  8.425737E+04 -3.318638E+05 -1.312431E+05  2.752444E+03
       189   9 -6.874781E+05  3.276640E+04  1.208050E+05 -4.474173E+05 -8.410935E+04  2.304254E+04
       189  10 -2.513149E+06 -9.658011E+05 -5.887442E+05 -9.284757E+05 -8.064993E-10  3.953345E-10
       189  11 -2.425799E+06 -6.221503E+05 -3.629535E+05 -9.057549E+05 -1.986621E-10  6.600740E-10
       189  12 -2.416462E+06 -5.410980E+05 -2.776237E+05 -8.512762E+05  1.473004E-10  7.201955E-10
       189  13 -1.587550E+06 -5.006766E+05 -3.194914E+05 -5.568308E+05 -7.872603E-11 -2.133530E-10
       189  14 -1.533649E+06 -2.488595E+05 -1.393328E+05 -6.190077E+05  7.133959E-10  3.720551E-10
       189  15 -1.552343E+06 -2.541751E+05 -7.839109E+04 -6.494657E+05  6.100991E-11  3.501869E-10
       189  16 -6.610787E+05 -3.528047E+04 -5.031910E+04 -1.846159E+05 -3.805455E-10  4.221245E-10
       189  17 -6.407038E+05  1.245460E+05  8.422495E+04 -3.318635E+05  1.202198E-10  6.973194E-10
       189  18 -6.874858E+05  3.276393E+04  1.207907E+05 -4.474157E+05 -2.288631E-10  5.399585E-10
       189  19 -2.513080E+06 -9.657775E+05 -5.886137E+05 -9.284598E+05  2.510685E+05  7.793191E+04
       189  20 -2.425771E+06 -6.221432E+05 -3.629040E+05 -9.057537E+05  1.617277E+05  8.683207E+03
       189  21 -2.416458E+06 -5.410959E+05 -2.776148E+05 -8.512778E+05  6.143991E+04 -3.156704E+04
       189  22 -1.587502E+06 -5.006606E+05 -3.194016E+05 -5.568203E+05  2.093002E+05  6.226138E+04
       189  23 -1.533626E+06 -2.488537E+05 -1.392924E+05 -6.190074E+05  1.464974E+05  2.971159E+03
       189  24 -1.552337E+06 -2.541728E+05 -7.837973E+04 -6.494673E+05  7.276607E+04 -2.730721E+04
       189  25 -6.610479E+05 -3.527061E+04 -5.026226E+04 -1.846096E+05  1.674633E+05  4.654526E+04
       189  26 -6.406852E+05  1.245506E+05  8.425737E+04 -3.318638E+05  1.312431E+05 -2.752444E+03
       189  27 -6.874781E+05  3.276640E+04  1.208050E+05 -4.474173E+05  8.410935E+04 -2.304254E+04
       190   1 -2.306929E+06 -5.660653E+05 -2.453885E+05 -8.506636E+05 -5.793192E+04  2.645184E+04
       190   2 -2.230940E+06 -5.043599E+05 -1.939441E+05 -8.128232E+05 -3.911330E+04  2.923777E+04
       190   3 -2.136088E+06 -4.823111E+05 -1.591043E+05 -8.018812E+05 -1.979361E+04  3.068530E+04
       190   4 -1.542020E+06 -2.767687E+05 -6.186688E+04 -6.357990E+05 -6.080314E+04  2.536797E+04
       190   5 -1.550586E+06 -2.502920E+05 -3.197107E+04 -6.248783E+05 -4.319401E+04  2.770193E+04
       190   6 -1.540049E+06 -2.632197E+05 -1.770309E+04 -6.408582E+05 -2.508673E+04  2.869702E+04
       190   7 -7.765244E+05  1.257645E+04  1.216133E+05 -4.206892E+05 -6.367821E+04  2.428261E+04
       190   8 -8.697689E+05  3.810916E+03  1.299693E+05 -4.367442E+05 -4.727960E+04  2.616424E+04
       190   9 -9.436567E+05 -4.410489E+04  1.236729E+05 -4.796947E+05 -3.038540E+04  2.670671E+04
       190  10 -2.306933E+06 -5.660670E+05 -2.453961E+05 -8.506624E+05 -7.499363E-10  4.648180E-10
       190  11 -2.230942E+06 -5.043613E+05 -1.939486E+05 -8.128222E+05 -4.888919E-10  4.143967E-11
       190  12 -2.136088E+06 -4.823122E+05 -1.591068E+05 -8.018807E+05  5.085011E-10 -4.089120E-11
       190  13 -1.542024E+06 -2.767704E+05 -6.187504E+04 -6.357977E+05 -1.256091E-09  2.495601E-10
       190  14 -1.550588E+06 -2.502933E+05 -3.197602E+04 -6.248773E+05 -4.595420E-10 -4.437883E-11
       190  15 -1.540050E+06 -2.632207E+05 -1.770582E+04 -6.408576E+05 -1.017513E-10 -2.265327E-10
       190  16 -7.765289E+05  1.257473E+04  1.216045E+05 -4.206879E+05 -2.514298E-10  1.612868E-10
       190  17 -8.697715E+05  3.809582E+03  1.299638E+05 -4.367432E+05 -4.886915E-10 -1.730647E-10
       190  18 -9.436579E+05 -4.410590E+04  1.236699E+05 -4.796940E+05 -4.017940E-10 -3.366566E-10
       190  19 -2.306929E+06 -5.660653E+05 -2.453885E+05 -8.506636E+05  5.793192E+04 -2.645184E+04
       190  20 -2.230940E+06 -5.043599E+05 -1.939441E+05 -8.128232E+05  3.911330E+04 -2.923777E+04
       190  21 -2.136088E+06 -4.823111E+05 -1.591043E+05 -8.018812E+05  1.979361E+04 -3.068530E+04
       190  22 -1.542020E+06 -2.767687E+05 -6.186688E+04 -6.357990E+05  6.080314E+04 -2.536797E+04
       190  23 -1.550586E+06 -2.502920E+05 -3.197107E+04 -6.248783E+05  4.319401E+04 -2.770193E+04
       190  24 -1.540049E+06 -2.632197E+05 -1.770309E+04 -6.408582E+05  2.508673E+04 -2.869702E+04
       190  25 -7.765244E+05  1.257645E+04  1.216133E+05 -4.206892E+05  6.367821E+04 -2.428261E+04
       190  26 -8.697689E+05  3.810916E+03  1.299693E+05 -4.367442E+05  4.727960E+04 -2.616424E+04
       190  27 -9.436567E+05 -4.410489E+04  1.236729E+05 -4.796947E+05  3.038540E+04 -2.670671E+04
       191   1 -2.061943E+06 -4.584805E+05 -1.373043E+05 -7.833692E+05 -1.641957E+04  2.819716E+04
       191   2 -1.986176E+06 -4.115285E+05 -1.103812E+05 -7.439539E+05 -1.065237E+04  2.418341E+04
       191   3 -1.884627E+06 -3.918688E+05 -8.643095E+04 -7.348318E+05 -4.856714E+03  2.008519E+04
       191   4 -1.539103E+06 -2.644863E+05 -1.344489E+04 -6.401175E+05 -2.136099E+04  2.634205E+04
       191   5 -1.551933E+06 -2.504853E+05 -7.327573E+03 -6.251000E+05 -1.566823E+04  2.230199E+04
       191   6 -1.538975E+06 -2.637606E+05 -4.121842E+03 -6.403777E+05 -9.947579E+03  1.817729E+04
       191   7 -1.015994E+06 -7.047377E+04  1.103945E+05 -4.967564E+05 -2.630692E+04  2.448525E+04
       191   8 -1.117503E+06 -8.942871E+04  9.571272E+04 -5.061702E+05 -2.068791E+04  2.041914E+04
       191   9 -1.193201E+06 -1.356435E+05  7.817929E+04 -5.458751E+05 -1.504156E+04  1.626823E+04
       191  10 -2.061944E+06 -4.584814E+05 -1.373063E+05 -7.833688E+05 -1.013294E-09 -9.835496E-11
       191  11 -1.986176E+06 -4.115292E+05 -1.103825E+05 -7.439537E+05 -1.011390E-10  4.248703E-11
       191  12 -1.884627E+06 -3.918692E+05 -8.643175E+04 -7.348317E+05 -9.109060E-11  2.342740E-11
       191  13 -1.539104E+06 -2.644872E+05 -1.344705E+04 -6.401171E+05  8.709358E-10  3.269125E-11
       191  14 -1.551934E+06 -2.504859E+05 -7.328968E+03 -6.250997E+05 -1.924355E-10  1.916461E-10
       191  15 -1.538975E+06 -2.637610E+05 -4.122648E+03 -6.403775E+05 -3.114798E-10  5.659626E-11
       191  16 -1.015995E+06 -7.047460E+04  1.103920E+05 -4.967558E+05  4.346932E-10 -1.630567E-10
       191  17 -1.117503E+06 -8.942927E+04  9.571113E+04 -5.061699E+05  3.397067E-10  3.318155E-10
       191  18 -1.193202E+06 -1.356438E+05  7.817837E+04 -5.458749E+05  3.088418E-11  1.557576E-10
       191  19 -2.061943E+06 -4.584805E+05 -1.373043E+05 -7.833692E+05  1.641957E+04 -2.819716E+04
       191  20 -1.986176E+06 -4.115285E+05 -1.103812E+05 -7.439539E+05  1.065237E+04 -2.418341E+04
       191  21 -1.884627E+06 -3.918688E+05 -8.643095E+04 -7.348318E+05  4.856714E+03 -2.008519E+04
       191  22 -1.539103E+06 -2.644863E+05 -1.344489E+04 -6.401175E+05  2.136099E+04 -2.634205E+04
       191  23 -1.551933E+06 -2.504853E+05 -7.327573E+03 -6.251000E+05  1.566823E+04 -2.230199E+04
       191  24 -1.538975E+06 -2.637606E+05 -4.121842E+03 -6.403777E+05  9.947579E+03 -1.817729E+04
       191  25 -1.015994E+06 -7.047377E+04  1.103945E+05 -4.967564E+05  2.630692E+04 -2.448525E+04
       191  26 -1.117503E+06 -8.942871E+04  9.571272E+04 -5.061702E+05  2.068791E+04 -2.041914E+04
       191  27 -1.193201E+06 -1.356435E+05  7.817929E+04 -5.458751E+05  1.504156E+04 -1.626823E+04
       192   1 -1.811797E+06 -3.650129E+05 -6.763651E+04 -7.150947E+05 -3.047595E+03  1.708367E+04
       192   2 -1.735515E+06 -3.184483E+05 -4.547425E+04 -6.752374E+05  1.736940E+01  1.190925E+04
       192   3 -1.632647E+06 -2.986603E+05 -2.405838E+04 -6.660600E+05  3.085940E+03  6.721008E+03
       192   4 -1.538817E+06 -2.638589E+05 -3.172944E+03 -6.403800E+05 -8.137564E+03  1.517683E+04
       192   5 -1.552098E+06 -2.504469E+05 -1.959028E+03 -6.250460E+05 -5.084978E+03  9.998446E+03
       192   6 -1.538799E+06 -2.638088E+05 -1.481122E+03 -6.403941E+05 -2.028958E+03  4.806232E+03
       192   7 -1.265762E+06 -1.626996E+05  6.128544E+04 -5.656354E+05 -1.322997E+04  1.326907E+04
       192   8 -1.368648E+06 -1.824433E+05  4.155376E+04 -5.748411E+05 -1.018895E+04  8.087036E+03
       192   9 -1.444943E+06 -2.289569E+05  2.109546E+04 -6.147247E+05 -7.144671E+03  2.891150E+03
       192  10 -1.811797E+06 -3.650132E+05 -6.763707E+04 -7.150947E+05  7.932890E-12  3.933707E-10
       192  11 -1.735515E+06 -3.184484E+05 -4.547452E+04 -6.752374E+05 -1.286623E-10 -2.776089E-10
       192  12 -1.632647E+06 -2.986603E+05 -2.405848E+04 -6.660600E+05 -4.356822E-10 -5.311930E-10
       192  13 -1.538817E+06 -2.638592E+05 -3.173501E+03 -6.403799E+05  1.247525E-10 -5.575908E-11
       192  14 -1.552098E+06 -2.504470E+05 -1.959264E+03 -6.250459E+05  1.711569E-09  4.024526E-10
       192  15 -1.538799E+06 -2.638088E+05 -1.481173E+03 -6.403940E+05  9.655011E-10  2.657832E-10
       192  16 -1.265763E+06 -1.626998E+05  6.128478E+04 -5.656352E+05 -6.892235E-10  1.271126E-10
       192  17 -1.368648E+06 -1.824434E+05  4.155344E+04 -5.748411E+05 -7.130260E-10  1.623414E-10
       192  18 -1.444943E+06 -2.289569E+05  2.109535E+04 -6.147247E+05 -6.925147E-10 -4.605715E-10
       192  19 -1.811797E+06 -3.650129E+05 -6.763651E+04 -7.150947E+05  3.047595E+03 -1.708367E+04
       192  20 -1.735515E+06 -3.184483E+05 -4.547425E+04 -6.752374E+05 -1.736940E+01 -1.190925E+04
       192  21 -1.632647E+06 -2.986603E+05 -2.405838E+04 -6.660600E+05 -3.085940E+03 -6.721008E+03
       192  22 -1.538817E+06 -2.638589E+05 -3.172944E+03 -6.403800E+05  8.137564E+03 -1.517683E+04
       192  23 -1.552098E+06 -2.504469E+05 -1.959028E+03 -6.250460E+05  5.084978E+03 -9.998446E+03
       192  24 -1.538799E+06 -2.638088E+05 -1.481122E+03 -6.403941E+05  2.028958E+03 -4.806232E+03
       192  25 -1.265762E+06 -1.626996E+05  6.128544E+04 -5.656354E+05  1.322997E+04 -1.326907E+04
       192  26 -1.368648E+06 -1.824433E+05  4.155376E+04 -5.748411E+05  1.018895E+04 -8.087036E+03
       192  27 -1.444943E+06 -2.289569E+05  2.109546E+04 -6.147247E+05  7.144671E+03 -2.891150E+03
       193   1 -1.559588E+06 -2.714879E+05 -6.075656E+03 -6.461312E+05  4.545282E+03  3.573149E+03
       193   2 -1.483154E+06 -2.248898E+05  1.457067E+04 -6.061888E+05  7.509690E+03 -1.660630E+03
       193   3 -1.380088E+06 -2.051043E+05  3.454882E+04 -5.969837E+05  1.047239E+04 -6.887885E+03
       193   4 -1.538788E+06 -2.638188E+05 -1.450596E+03 -6.404061E+05 -5.727987E+02  1.657316E+03
       193   5 -1.552103E+06 -2.504246E+05 -1.780489E+03 -6.250313E+05  2.396990E+03 -3.574740E+03
       193   6 -1.538796E+06 -2.638457E+05 -2.783153E+03 -6.403979E+05  5.364918E+03 -8.800284E+03
       193   7 -1.517988E+06 -2.561497E+05  3.174582E+03 -6.346808E+05 -5.691093E+03 -2.585972E+02
       193   8 -1.621047E+06 -2.759591E+05 -1.813192E+04 -6.438720E+05 -2.715105E+03 -5.488625E+03
       193   9 -1.697479E+06 -3.225853E+05 -4.011679E+04 -6.838020E+05  2.588656E+02 -1.071215E+04
       193  10 -1.559588E+06 -2.714879E+05 -6.075719E+03 -6.461312E+05  7.522318E-10 -2.232562E-10
       193  11 -1.483155E+06 -2.248899E+05  1.457055E+04 -6.061888E+05  2.654832E-10  1.507321E-10
       193  12 -1.380088E+06 -2.051044E+05  3.454852E+04 -5.969836E+05 -7.603984E-10  2.321614E-11
       193  13 -1.538788E+06 -2.638188E+05 -1.450602E+03 -6.404061E+05  4.764552E-10 -8.976780E-10
       193  14 -1.552103E+06 -2.504246E+05 -1.780524E+03 -6.250313E+05 -4.681402E-10 -1.331734E-10
       193  15 -1.538796E+06 -2.638458E+05 -2.783353E+03 -6.403979E+05  3.462188E-11  3.606254E-10
       193  16 -1.517988E+06 -2.561497E+05  3.174521E+03 -6.346808E+05 -7.119064E-10 -6.616131E-10
       193  17 -1.621047E+06 -2.759592E+05 -1.813200E+04 -6.438720E+05  1.104446E-10 -7.908617E-10
       193  18 -1.697479E+06 -3.225854E+05 -4.011700E+04 -6.838020E+05  9.247804E-11 -1.096243E-11
       193  19 -1.559588E+06 -2.714879E+05 -6.075656E+03 -6.461312E+05 -4.545282E+03 -3.573149E+03
       193  20 -1.483154E+06 -2.248898E+05  1.457067E+04 -6.061888E+05 -7.509690E+03  1.660630E+03
       193  21 -1.380088E+06 -2.051043E+05  3.454882E+04 -5.969837E+05 -1.047239E+04  6.887885E+03
       193  22 -1.538788E+06 -2.638188E+05 -1.450596E+03 -6.404061E+05  5.727987E+02 -1.657316E+03
       193  23 -1.552103E+06 -2.504246E+05 -1.780489E+03 -6.250313E+05 -2.396990E+03  3.574740E+03
       193  24 -1.538796E+06 -2.638457E+05 -2.783153E+03 -6.403979E+05 -5.364918E+03  8.800284E+03
       193  25 -1.517988E+06 -2.561497E+05  3.174582E+03 -6.346808E+05  5.691093E+03  2.585972E+02
       193  26 -1.621047E+06 -2.759591E+05 -1.813192E+04 -6.438720E+05  2.715105E+03  5.488625E+03
       193  27 -1.697479E+06 -3.225853E+05 -4.011679E+04 -6.838020E+05 -2.588656E+02  1.071215E+04
       194   1 -1.307249E+06 -1.779756E+05  5.165079E+04 -5.771683E+05  1.221570E+04 -9.925455E+03
       194   2 -1.231139E+06 -1.315449E+05  6.976611E+04 -5.372972E+05  1.738222E+04 -1.428882E+04
       194   3 -1.129029E+06 -1.124054E+05  8.540972E+04 -5.279042E+05  2.252516E+04 -1.858054E+04
       194   4 -1.538921E+06 -2.637735E+05 -3.588010E+03 -6.404113E+05  7.102543E+03 -1.184043E+04
       194   5 -1.551964E+06 -2.504282E+05 -6.325008E+03 -6.250596E+05  1.233236E+04 -1.618130E+04
       194   6 -1.539027E+06 -2.643884E+05 -1.158467E+04 -6.401900E+05  1.753811E+04 -2.045067E+04
       194   7 -1.770538E+06 -3.495673E+05 -5.883022E+04 -7.036325E+05  1.991487E+03 -1.375463E+04
       194   8 -1.872686E+06 -3.693042E+05 -8.242336E+04 -7.127806E+05  7.285333E+03 -1.807273E+04
       194   9 -1.948860E+06 -4.163602E+05 -1.085915E+05 -7.524087E+05  1.255463E+04 -2.231947E+04
       194  10 -1.307249E+06 -1.779758E+05  5.165032E+04 -5.771682E+05  4.767213E-10  6.463359E-10
       194  11 -1.231139E+06 -1.315452E+05  6.976516E+04 -5.372970E+05 -3.679262E-10  7.078814E-10
       194  12 -1.129030E+06 -1.124059E+05  8.540812E+04 -5.279038E+05 -1.202421E-09 -2.757850E-10
       194  13 -1.538921E+06 -2.637737E+05 -3.588368E+03 -6.404112E+05  4.998563E-10  4.263995E-10
       194  14 -1.551964E+06 -2.504285E+05 -6.325785E+03 -6.250594E+05 -2.071749E-09 -1.063326E-10
       194  15 -1.539028E+06 -2.643889E+05 -1.158603E+04 -6.401897E+05 -1.469540E-10 -2.652586E-10
       194  16 -1.770538E+06 -3.495675E+05 -5.883059E+04 -7.036325E+05 -1.043950E-09  2.989113E-10
       194  17 -1.872686E+06 -3.693046E+05 -8.242408E+04 -7.127805E+05  2.109207E-12 -2.698177E-10
       194  18 -1.948860E+06 -4.163608E+05 -1.085927E+05 -7.524085E+05 -1.509245E-10 -1.352735E-10
       194  19 -1.307249E+06 -1.779756E+05  5.165079E+04 -5.771683E+05 -1.221570E+04  9.925455E+03
       194  20 -1.231139E+06 -1.315449E+05  6.976611E+04 -5.372972E+05 -1.738222E+04  1.428882E+04
       194  21 -1.129029E+06 -1.124054E+05  8.540972E+04 -5.279042E+05 -2.252516E+04  1.858054E+04
       194  22 -1.538921E+06 -2.637735E+05 -3.588010E+03 -6.404113E+05 -7.102543E+03  1.184043E+04
       194  23 -1.551964E+06 -2.504282E+05 -6.325008E+03 -6.250596E+05 -1.233236E+04  1.618130E+04
       194  24 -1.539027E+06 -2.643884E+05 -1.158467E+04 -6.401900E+05 -1.753811E+04  2.045067E+04
       194  25 -1.770538E+06 -3.495673E+05 -5.883022E+04 -7.036325E+05 -1.991487E+03  1.375463E+04
       194  26 -1.872686E+06 -3.693042E+05 -8.242336E+04 -7.127806E+05 -7.285333E+03  1.807273E+04
       194  27 -1.948860E+06 -4.163602E+05 -1.085915E+05 -7.524087E+05 -1.255463E+04  2.231947E+04
       195   1 -1.056264E+06 -8.582064E+04  9.941644E+04 -5.103743E+05  2.622841E+04 -2.095650E+04
       195   2 -9.816183E+05 -3.788565E+04  1.078751E+05 -4.676690E+05  4.102305E+04 -2.129838E+04
       195   3 -8.865046E+05 -2.749931E+04  1.037407E+05 -4.525555E+05  5.537466E+04 -2.044271E+04
       195   4 -1.539837E+06 -2.633039E+05 -1.524791E+04 -6.408345E+05  2.092241E+04 -2.294715E+04
       195   5 -1.550804E+06 -2.502480E+05 -2.751975E+04 -6.248603E+05  3.680468E+04 -2.288339E+04
       195   6 -1.541531E+06 -2.749670E+05 -5.325715E+04 -6.364828E+05  5.224173E+04 -2.162239E+04
       195   7 -2.023178E+06 -4.407720E+05 -1.299288E+05 -7.712025E+05  1.562091E+04 -2.493617E+04
       195   8 -2.119666E+06 -4.625859E+05 -1.629373E+05 -7.819192E+05  3.259052E+04 -2.446681E+04
       195   9 -2.196127E+06 -5.223990E+05 -2.102852E+05 -8.202307E+05  4.911241E+04 -2.280067E+04
       195  10 -1.056264E+06 -8.582129E+04  9.941432E+04 -5.103738E+05 -3.970475E-10 -4.476325E-11
       195  11 -9.816202E+05 -3.788659E+04  1.078711E+05 -4.676683E+05  5.215061E-11 -1.997797E-10
       195  12 -8.865080E+05 -2.750058E+04  1.037341E+05 -4.525545E+05  9.014491E-10 -3.897436E-10
       195  13 -1.539838E+06 -2.633046E+05 -1.524972E+04 -6.408341E+05  5.790726E-11 -4.256913E-11
       195  14 -1.550806E+06 -2.502489E+05 -2.752328E+04 -6.248596E+05 -3.662364E-10 -2.889532E-10
       195  15 -1.541534E+06 -2.749682E+05 -5.326316E+04 -6.364819E+05  3.284532E-10 -4.102027E-10
       195  16 -2.023179E+06 -4.407727E+05 -1.299304E+05 -7.712022E+05  2.483564E-10 -4.657713E-11
       195  17 -2.119667E+06 -4.625868E+05 -1.629404E+05 -7.819186E+05  7.175148E-10 -3.712333E-10
       195  18 -2.196130E+06 -5.224003E+05 -2.102907E+05 -8.202298E+05  5.578411E-10 -2.940180E-10
       195  19 -1.056264E+06 -8.582064E+04  9.941644E+04 -5.103743E+05 -2.622841E+04  2.095650E+04
       195  20 -9.816183E+05 -3.788565E+04  1.078751E+05 -4.676690E+05 -4.102305E+04  2.129838E+04
       195  21 -8.865046E+05 -2.749931E+04  1.037407E+05 -4.525555E+05 -5.537466E+04  2.044271E+04
       195  22 -1.539837E+06 -2.633039E+05 -1.524791E+04 -6.408345E+05 -2.092241E+04  2.294715E+04
       195  23 -1.550804E+06 -2.502480E+05 -2.751975E+04 -6.248603E+05 -3.680468E+04  2.288339E+04
       195  24 -1.541531E+06 -2.749670E+05 -5.325715E+04 -6.364828E+05 -5.224173E+04  2.162239E+04
       195  25 -2.023178E+06 -4.407720E+05 -1.299288E+05 -7.712025E+05 -1.562091E+04  2.493617E+04
       195  26 -2.119666E+06 -4.625859E+05 -1.629373E+05 -7.819192E+05 -3.259052E+04  2.446681E+04
       195  27 -2.196127E+06 -5.223990E+05 -2.102852E+05 -8.202307E+05 -4.911241E+04  2.280067E+04
       196   1 -7.993352E+05 -6.182067E+03  1.055744E+05 -4.726872E+05  7.347647E+04 -1.982420E+04
       196   2 -7.480097E+05  7.945277E+04  7.730585E+04 -3.675154E+05  1.132892E+05 -3.270968E+03
       196   3 -7.505151E+05 -5.519522E+04 -3.455812E+04 -2.394945E+05  1.433292E+05  3.929154E+04
       196   4 -1.550428E+06 -2.555025E+05 -6.747116E+04 -6.482310E+05  6.274967E+04 -2.385273E+04
       196   5 -1.536194E+06 -2.490235E+05 -1.199000E+05 -6.198219E+05  1.264217E+05  1.652556E+03
       196   6 -1.580644E+06 -4.677487E+05 -2.749475E+05 -5.685494E+05  1.803085E+05  5.317108E+04
       196   7 -2.300965E+06 -5.048116E+05 -2.405552E+05 -8.235944E+05  5.203692E+04 -2.787729E+04
       196   8 -2.323755E+06 -5.774106E+05 -3.171531E+05 -8.718198E+05  1.395358E+05  6.567340E+03
       196   9 -2.410062E+06 -8.800879E+05 -5.153929E+05 -8.971501E+05  2.172330E+05  6.701501E+04
       196  10 -7.993411E+05 -6.183938E+03  1.055635E+05 -4.726860E+05  4.322311E-11 -3.488047E-10
       196  11 -7.480235E+05  7.944931E+04  7.728168E+04 -3.675151E+05 -3.336126E-10  2.241886E-10
       196  12 -7.505376E+05 -5.520241E+04 -3.459968E+04 -2.394991E+05 -1.947209E-10  4.851263E-10
       196  13 -1.550432E+06 -2.555042E+05 -6.747964E+04 -6.482298E+05  6.099103E-11 -5.572954E-12
       196  14 -1.536211E+06 -2.490278E+05 -1.199301E+05 -6.198221E+05 -7.761992E-11 -6.824490E-11
       196  15 -1.580679E+06 -4.677605E+05 -2.750141E+05 -5.685571E+05 -2.763695E-10  2.266878E-10
       196  16 -2.300968E+06 -5.048131E+05 -2.405618E+05 -8.235933E+05 -4.395929E-10  2.221388E-10
       196  17 -2.323776E+06 -5.774159E+05 -3.171899E+05 -8.718206E+05  1.294743E-10  5.515959E-11
       196  18 -2.410114E+06 -8.801055E+05 -5.154905E+05 -8.971618E+05 -3.931228E-11 -1.319846E-10
       196  19 -7.993352E+05 -6.182067E+03  1.055744E+05 -4.726872E+05 -7.347647E+04  1.982420E+04
       196  20 -7.480097E+05  7.945277E+04  7.730585E+04 -3.675154E+05 -1.132892E+05  3.270968E+03
       196  21 -7.505151E+05 -5.519522E+04 -3.455812E+04 -2.394945E+05 -1.433292E+05 -3.929154E+04
       196  22 -1.550428E+06 -2.555025E+05 -6.747116E+04 -6.482310E+05 -6.274967E+04  2.385273E+04
       196  23 -1.536194E+06 -2.490235E+05 -1.199000E+05 -6.198219E+05 -1.264217E+05 -1.652556E+03
       196  24 -1.580644E+06 -4.677487E+05 -2.749475E+05 -5.685494E+05 -1.803085E+05 -5.317108E+04
       196  25 -2.300965E+06 -5.048116E+05 -2.405552E+05 -8.235944E+05 -5.203692E+04  2.787729E+04
       196  26 -2.323755E+06 -5.774106E+05 -3.171531E+05 -8.718198E+05 -1.395358E+05 -6.567340E+03
       196  27 -2.410062E+06 -8.800879E+05 -5.153929E+05 -8.971501E+05 -2.172330E+05 -6.701501E+04
       197   1 -2.297943E+05 -4.340004E+04  4.500345E+03  4.269600E+04  1.327782E+05  1.401580E+04
       197   2 -1.613961E+05 -2.253927E+05 -9.033050E+04 -7.546920E+03  9.784826E+04  4.386349E+04
       197   3 -4.030605E+04 -2.163421E+05 -1.145815E+05 -9.298018E+04  6.294181E+04  4.639299E+04
       197   4  8.096084E+05  2.142734E+05  2.553406E+05 -6.292588E+04  1.758295E+05  1.403812E+04
       197   5  7.810429E+05  4.455804E+03  1.171369E+05 -4.523847E+04  1.139336E+05  4.386557E+04
       197   6  8.097428E+05 -9.815443E+03  6.814384E+04 -6.273363E+04  5.206996E+04  4.638585E+04
       197   7  1.850027E+06  4.719111E+05  5.061167E+05 -1.687254E+05  2.189524E+05  1.404579E+04
       197   8  1.724316E+06  2.342503E+05  3.245518E+05 -8.298807E+04  1.300430E+05  4.386571E+04
       197   9  1.660473E+06  1.966674E+05  2.508279E+05 -3.244515E+04  4.118340E+04  4.637765E+04
       197  10 -2.298133E+05 -4.340498E+04  4.466835E+03  4.269450E+04 -3.322189E-10  3.210577E-10
       197  11 -1.614069E+05 -2.253974E+05 -9.035211E+04 -7.550378E+03  1.298286E-09 -4.705883E-10
       197  12 -4.031088E+04 -2.163455E+05 -1.145930E+05 -9.298253E+04 -6.607121E-10 -2.258909E-10
       197  13  8.095752E+05  2.142649E+05  2.552822E+05 -6.292786E+04 -1.277202E-11  1.154945E-10
       197  14  7.810285E+05  4.450258E+03  1.171090E+05 -4.524250E+04 -1.869682E-09 -1.184767E-09
       197  15  8.097393E+05 -9.818482E+03  6.813471E+04 -6.273558E+04 -7.483556E-10 -1.226189E-10
       197  16  1.849976E+06  4.718981E+05  5.060264E+05 -1.687279E+05  2.218723E-10 -1.013882E-10
       197  17  1.724297E+06  2.342438E+05  3.245165E+05 -8.299266E+04 -1.583735E-10 -1.806446E-10
       197  18  1.660470E+06  1.966646E+05  2.508206E+05 -3.244668E+04 -1.152409E-09 -2.739322E-10
       197  19 -2.297943E+05 -4.340004E+04  4.500345E+03  4.269600E+04 -1.327782E+05 -1.401580E+04
       197  20 -1.613961E+05 -2.253927E+05 -9.033050E+04 -7.546920E+03 -9.784826E+04 -4.386349E+04
       197  21 -4.030605E+04 -2.163421E+05 -1.145815E+05 -9.298018E+04 -6.294181E+04 -4.639299E+04
       197  22  8.096084E+05  2.142734E+05  2.553406E+05 -6.292588E+04 -1.758295E+05 -1.403812E+04
       197  23  7.810429E+05  4.455804E+03  1.171369E+05 -4.523847E+04 -1.139336E+05 -4.386557E+04
       197  24  8.097428E+05 -9.815443E+03  6.814384E+04 -6.273363E+04 -5.206996E+04 -4.638585E+04
       197  25  1.850027E+06  4.719111E+05  5.061167E+05 -1.687254E+05 -2.189524E+05 -1.404579E+04
       197  26  1.724316E+06  2.342503E+05  3.245518E+05 -8.298807E+04 -1.300430E+05 -4.386571E+04
       197  27  1.660473E+06  1.966674E+05  2.508279E+05 -3.244515E+04 -4.118340E+04 -4.637765E+04
       198   1  2.221213E+04 -1.781990E+05 -1.136563E+05 -5.955159E+04  4.574385E+04  4.109197E+04
       198   2  1.135034E+05 -1.659873E+05 -1.173472E+05 -4.431181E+04  3.228406E+04  3.716152E+04
       198   3  2.092394E+05 -1.436985E+05 -1.097165E+05 -6.500044E+04  1.881906E+04  3.199256E+04
       198   4  7.980613E+05  1.041408E+04  5.390318E+04 -6.294715E+04  4.252580E+04  4.108675E+04
       198   5  7.957625E+05 -2.652424E+02  2.932928E+04 -4.498348E+04  2.783030E+04  3.715773E+04
       198   6  7.981090E+05 -6.597573E+02  1.692389E+04 -6.294540E+04  1.313158E+04  3.199075E+04
       198   7  1.574475E+06  1.989876E+05  2.214271E+05 -6.634703E+04  3.930377E+04  4.108157E+04
       198   8  1.478459E+06  1.654263E+05  1.759786E+05 -4.565590E+04  2.337169E+04  3.715396E+04
       198   9  1.387304E+06  1.423562E+05  1.435441E+05 -6.088837E+04  7.438773E+03  3.198890E+04
       198  10  2.220943E+04 -1.782014E+05 -1.136634E+05 -5.955311E+04 -9.760617E-10 -2.908006E-10
       198  11  1.135019E+05 -1.659891E+05 -1.173518E+05 -4.431278E+04  1.057809E-10  4.823623E-10
       198  12  2.092388E+05 -1.436997E+05 -1.097191E+05 -6.500092E+04  2.956068E-10 -7.025798E-10
       198  13  7.980589E+05  1.041178E+04  5.389661E+04 -6.294856E+04  4.218758E-11 -2.089046E-10
       198  14  7.957613E+05 -2.669332E+02  2.932523E+04 -4.498431E+04 -1.650212E-09 -9.760102E-11
       198  15  7.981086E+05 -6.609029E+02  1.692164E+04 -6.294574E+04 -1.374939E-09 -5.833585E-10
       198  16  1.574473E+06  1.989854E+05  2.214211E+05 -6.634833E+04  1.302420E-09 -9.393957E-12
       198  17  1.478458E+06  1.654247E+05  1.759750E+05 -4.565660E+04 -1.828810E-09 -6.574445E-10
       198  18  1.387304E+06  1.423551E+05  1.435421E+05 -6.088856E+04 -9.963455E-10 -5.599536E-10
       198  19  2.221213E+04 -1.781990E+05 -1.136563E+05 -5.955159E+04 -4.574385E+04 -4.109197E+04
       198  20  1.135034E+05 -1.659873E+05 -1.173472E+05 -4.431181E+04 -3.228406E+04 -3.716152E+04
       198  21  2.092394E+05 -1.436985E+05 -1.097165E+05 -6.500044E+04 -1.881906E+04 -3.199256E+04
       198  22  7.980613E+05  1.041408E+04  5.390318E+04 -6.294715E+04 -4.252580E+04 -4.108675E+04
       198  23  7.957625E+05 -2.652424E+02  2.932928E+04 -4.498348E+04 -2.783030E+04 -3.715773E+04
       198  24  7.981090E+05 -6.597573E+02  1.692389E+04 -6.294540E+04 -1.313158E+04 -3.199075E+04
       198  25  1.574475E+06  1.989876E+05  2.214271E+05 -6.634703E+04 -3.930377E+04 -4.108157E+04
       198  26  1.478459E+06  1.654263E+05  1.759786E+05 -4.565590E+04 -2.337169E+04 -3.715396E+04
       198  27  1.387304E+06  1.423562E+05  1.435441E+05 -6.088837E+04 -7.438773E+03 -3.198890E+04
       199   1  2.813977E+05 -1.248527E+05 -9.755701E+04 -6.315044E+04  1.582296E+04  2.868148E+04
       199   2  3.739859E+05 -1.028118E+05 -8.339423E+04 -4.521355E+04  1.221633E+04  2.324045E+04
       199   3  4.672331E+05 -8.020338E+04 -6.673309E+04 -6.303750E+04  8.606353E+03  1.775120E+04
       199   4  7.972403E+05  3.576186E+02  1.295167E+04 -6.290898E+04  1.049593E+04  2.868059E+04
       199   5  7.969243E+05 -1.228538E+02  7.381707E+03 -4.502942E+04  6.838636E+03  2.324080E+04
       199   6  7.972657E+05 -2.751046E+01  4.343241E+03 -6.290922E+04  3.178530E+03  1.775283E+04
       199   7  1.313333E+06  1.255506E+05  1.234450E+05 -6.266731E+04  5.164533E+03  2.867971E+04
       199   8  1.220031E+06  1.025544E+05  9.814731E+04 -4.484515E+04  1.457335E+03  2.324114E+04
       199   9  1.127401E+06  8.014122E+04  7.541329E+04 -6.278087E+04 -2.252136E+03  1.775445E+04
       199  10  2.813972E+05 -1.248537E+05 -9.755903E+04 -6.315080E+04 -4.460878E-10 -8.679262E-10
       199  11  3.739856E+05 -1.028124E+05 -8.339552E+04 -4.521378E+04 -2.974836E-10  3.094875E-10
       199  12  4.672330E+05 -8.020374E+04 -6.673383E+04 -6.303762E+04 -6.649867E-10  1.222642E-09
       199  13  7.972399E+05  3.567054E+02  1.294992E+04 -6.290923E+04 -1.094178E-09 -6.670922E-10
       199  14  7.969241E+05 -1.234466E+02  7.380604E+03 -4.502955E+04 -6.390176E-10 -1.493723E-10
       199  15  7.972656E+05 -2.785173E+01  4.342630E+03 -6.290927E+04  9.076247E-10  6.818188E-10
       199  16  1.313333E+06  1.255497E+05  1.234434E+05 -6.266742E+04  1.051942E-09 -5.421705E-10
       199  17  1.220031E+06  1.025538E+05  9.814629E+04 -4.484517E+04  4.338392E-10 -4.486150E-10
       199  18  1.127400E+06  8.014088E+04  7.541269E+04 -6.278083E+04  3.458637E-10  8.578121E-10
       199  19  2.813977E+05 -1.248527E+05 -9.755701E+04 -6.315044E+04 -1.582296E+04 -2.868148E+04
       199  20  3.739859E+05 -1.028118E+05 -8.339423E+04 -4.521355E+04 -1.221633E+04 -2.324045E+04
       199  21  4.672331E+05 -8.020338E+04 -6.673309E+04 -6.303750E+04 -8.606353E+03 -1.775120E+04
       199  22  7.972403E+05  3.576186E+02  1.295167E+04 -6.290898E+04 -1.049593E+04 -2.868059E+04
       199  23  7.969243E+05 -1.228538E+02  7.381707E+03 -4.502942E+04 -6.838636E+03 -2.324080E+04
       199  24  7.972657E+05 -2.751046E+01  4.343241E+03 -6.290922E+04 -3.178530E+03 -1.775283E+04
       199  25  1.313333E+06  1.255506E+05  1.234450E+05 -6.266731E+04 -5.164533E+03 -2.867971E+04
       199  26  1.220031E+06  1.025544E+05  9.814731E+04 -4.484515E+04 -1.457335E+03 -2.324114E+04
       199  27  1.127401E+06  8.014122E+04  7.541329E+04 -6.278087E+04  2.252136E+03 -1.775445E+04
       200   1  5.397802E+05 -6.241371E+04 -5.160206E+04 -6.292504E+04  7.885902E+03  1.454673E+04
       200   2  6.323294E+05 -3.999710E+04 -3.321113E+04 -4.507763E+04  6.823734E+03  9.056571E+03
       200   3  7.250122E+05 -1.751653E+04 -1.412077E+04 -6.286760E+04  5.760334E+03  3.567421E+03
       200   4  7.971570E+05  1.859638E+01  3.372967E+03 -6.288195E+04  2.479556E+03  1.454888E+04
       200   5  7.970991E+05  1.739895E+00  2.144329E+03 -4.506356E+04  1.417620E+03  9.059195E+03
       200   6  7.971665E+05  4.921592E+01  1.614884E+03 -6.288197E+04  3.546066E+02  3.570546E+03
       200   7  1.054596E+06  6.244660E+04  5.834428E+04 -6.283884E+04 -2.928998E+03  1.455103E+04
       200   8  9.618943E+05  3.999882E+04  3.749831E+04 -4.504947E+04 -3.989907E+03  9.061819E+03
       200   9  8.693257E+05  1.761464E+04  1.735034E+04 -6.289634E+04 -5.051740E+03  3.573671E+03
       200  10  5.397801E+05 -6.241395E+04 -5.160258E+04 -6.292513E+04  1.735714E-09  7.510455E-10
       200  11  6.323294E+05 -3.999720E+04 -3.321137E+04 -4.507768E+04  5.289888E-10 -6.277176E-11
       200  12  7.250122E+05 -1.751656E+04 -1.412086E+04 -6.286762E+04 -1.250333E-09 -1.156026E-10
       200  13  7.971569E+05  1.836734E+01  3.372558E+03 -6.288198E+04  2.931474E-10  1.040473E-09
       200  14  7.970991E+05  1.651195E+00  2.144171E+03 -4.506357E+04  1.277902E-09 -8.369154E-10
       200  15  7.971665E+05  4.920219E+01  1.614860E+03 -6.288197E+04 -4.240992E-11 -9.065045E-10
       200  16  1.054596E+06  6.244637E+04  5.834386E+04 -6.283880E+04 -1.309064E-09  3.462270E-11
       200  17  9.618942E+05  3.999873E+04  3.749813E+04 -4.504944E+04 -1.140246E-09 -5.471298E-10
       200  18  8.693256E+05  1.761461E+04  1.735027E+04 -6.289633E+04  5.272168E-10 -1.234439E-09
       200  19  5.397802E+05 -6.241371E+04 -5.160206E+04 -6.292504E+04 -7.885902E+03 -1.454673E+04
       200  20  6.323294E+05 -3.999710E+04 -3.321113E+04 -4.507763E+04 -6.823734E+03 -9.056571E+03
       200  21  7.250122E+05 -1.751653E+04 -1.412077E+04 -6.286760E+04 -5.760334E+03 -3.567421E+03
       200  22  7.971570E+05  1.859638E+01  3.372967E+03 -6.288195E+04 -2.479556E+03 -1.454888E+04
       200  23  7.970991E+05  1.739895E+00  2.144329E+03 -4.506356E+04 -1.417620E+03 -9.059195E+03
       200  24  7.971665E+05  4.921592E+01  1.614884E+03 -6.288197E+04 -3.546066E+02 -3.570546E+03
       200  25  1.054596E+06  6.244660E+04  5.834428E+04 -6.283884E+04  2.928998E+03 -1.455103E+04
       200  26  9.618943E+05  3.999882E+04  3.749831E+04 -4.504947E+04  3.989907E+03 -9.061819E+03
       200  27  8.693257E+05  1.761464E+04  1.735034E+04 -6.289634E+04  5.051740E+03 -3.573671E+03
       201   1  7.975376E+05  1.921836E+02  1.878343E+03 -6.288627E+04  5.470942E+03  3.734355E+02
       201   2  8.900807E+05  2.257972E+04  2.170311E+04 -4.506209E+04  4.599333E+03 -5.113474E+03
       201   3  9.827210E+05  4.502305E+04  4.209822E+04 -6.285991E+04  3.728221E+03 -1.060009E+04
       201   4  7.971599E+05  4.954939E+01  1.542628E+03 -6.287875E+04  6.564304E+01  3.766254E+02
       201   5  7.971120E+05  1.446804E+01  1.757181E+03 -4.506759E+04 -8.059164E+02 -5.110575E+03
       201   6  7.971545E+05  3.603467E+01  2.542713E+03 -6.287874E+04 -1.676854E+03 -1.059745E+04
       201   7  7.967822E+05 -9.306923E+01  1.207024E+03 -6.287123E+04 -5.339651E+03  3.798153E+02
       201   8  7.041514E+05 -2.255133E+04 -1.818914E+04 -4.507308E+04 -6.210369E+03 -5.107675E+03
       201   9  6.116205E+05 -4.495321E+04 -3.701467E+04 -6.289756E+04 -7.080339E+03 -1.059481E+04
       201  10  7.975376E+05  1.921755E+02  1.878286E+03 -6.288627E+04 -8.543555E-10 -4.376217E-11
       201  11  8.900807E+05  2.257969E+04  2.170302E+04 -4.506208E+04  7.823196E-10  5.816690E-11
       201  12  9.827209E+05  4.502293E+04  4.209799E+04 -6.285987E+04  3.174729E-10 -8.538107E-11
       201  13  7.971599E+05  4.954923E+01  1.542628E+03 -6.287875E+04  2.339848E-10  4.967515E-10
       201  14  7.971120E+05  1.443981E+01  1.757131E+03 -4.506759E+04 -1.573437E-09  1.123589E-09
       201  15  7.971545E+05  3.591328E+01  2.542497E+03 -6.287875E+04 -1.767977E-10 -4.611037E-10
       201  16  7.967822E+05 -9.307703E+01  1.206970E+03 -6.287123E+04  1.317278E-09 -7.748933E-11
       201  17  7.041514E+05 -2.255137E+04 -1.818926E+04 -4.507310E+04 -5.568024E-10  1.353161E-09
       201  18  6.116204E+05 -4.495334E+04 -3.701498E+04 -6.289762E+04 -1.089162E-09  4.780029E-10
       201  19  7.975376E+05  1.921836E+02  1.878343E+03 -6.288627E+04 -5.470942E+03 -3.734355E+02
       201  20  8.900807E+05  2.257972E+04  2.170311E+04 -4.506209E+04 -4.599333E+03  5.113474E+03
       201  21  9.827210E+05  4.502305E+04  4.209822E+04 -6.285991E+04 -3.728221E+03  1.060009E+04
       201  22  7.971599E+05  4.954939E+01  1.542628E+03 -6.287875E+04 -6.564304E+01 -3.766254E+02
       201  23  7.971120E+05  1.446804E+01  1.757181E+03 -4.506759E+04  8.059164E+02  5.110575E+03
       201  24  7.971545E+05  3.603467E+01  2.542713E+03 -6.287874E+04  1.676854E+03  1.059745E+04
       201  25  7.967822E+05 -9.306923E+01  1.207024E+03 -6.287123E+04  5.339651E+03 -3.798153E+02
       201  26  7.041514E+05 -2.255133E+04 -1.818914E+04 -4.507308E+04  6.210369E+03  5.107675E+03
       201  27  6.116205E+05 -4.495321E+04 -3.701467E+04 -6.289756E+04  7.080339E+03  1.059481E+04
       202   1  1.055428E+06  6.271602E+04  5.884829E+04 -6.283013E+04  3.226237E+03 -1.380071E+04
       202   2  1.148035E+06  8.512007E+04  8.065253E+04 -4.494596E+04  5.308732E+02 -1.928272E+04
       202   3  1.241122E+06  1.079530E+05  1.043177E+05 -6.276912E+04 -2.162625E+03 -2.471874E+04
       202   4  7.972301E+05  2.483903E+00  3.206781E+03 -6.289794E+04 -2.198517E+03 -1.379846E+04
       202   5  7.969883E+05 -7.391991E+01  5.340996E+03 -4.504356E+04 -4.847616E+03 -1.928154E+04
       202   6  7.972092E+05  2.709935E+02  9.304827E+03 -6.289774E+04 -7.494459E+03 -2.471860E+04
       202   7  5.390952E+05 -6.271542E+04 -5.243854E+04 -6.296571E+04 -7.621048E+03 -1.379622E+04
       202   8  4.460575E+05 -8.527595E+04 -6.997762E+04 -4.514109E+04 -1.022311E+04 -1.928037E+04
       202   9  3.534818E+05 -1.074239E+05 -8.571939E+04 -6.302626E+04 -1.282254E+04 -2.471844E+04
       202  10  1.055428E+06  6.271581E+04  5.884792E+04 -6.283009E+04  2.857451E-10  2.457851E-10
       202  11  1.148035E+06  8.511967E+04  8.065183E+04 -4.494595E+04 -6.310178E-10 -4.222613E-11
       202  12  1.241122E+06  1.079524E+05  1.043165E+05 -6.276916E+04 -1.381928E-09  1.679181E-10
       202  13  7.972301E+05  2.278073E+00  3.206414E+03 -6.289796E+04  2.622923E-10 -5.430007E-10
       202  14  7.969882E+05 -7.432559E+01  5.340253E+03 -4.504364E+04 -6.091236E-10 -7.064497E-10
       202  15  7.972090E+05  2.703220E+02  9.303573E+03 -6.289789E+04 -9.102044E-10  5.028413E-10
       202  16  5.390951E+05 -6.271564E+04 -5.243901E+04 -6.296580E+04 -1.994172E-10  1.972707E-10
       202  17  4.460573E+05 -8.527638E+04 -6.997851E+04 -4.514125E+04  9.681778E-10 -7.216696E-10
       202  18  3.534814E+05 -1.074246E+05 -8.572085E+04 -6.302651E+04  1.860389E-09  8.602935E-10
       202  19  1.055428E+06  6.271602E+04  5.884829E+04 -6.283013E+04 -3.226237E+03  1.380071E+04
       202  20  1.148035E+06  8.512007E+04  8.065253E+04 -4.494596E+04 -5.308732E+02  1.928272E+04
       202  21  1.241122E+06  1.079530E+05  1.043177E+05 -6.276912E+04  2.162625E+03  2.471874E+04
       202  22  7.972301E+05  2.483903E+00  3.206781E+03 -6.289794E+04  2.198517E+03  1.379846E+04
       202  23  7.969883E+05 -7.391991E+01  5.340996E+03 -4.504356E+04  4.847616E+03  1.928154E+04
       202  24  7.972092E+05  2.709935E+02  9.304827E+03 -6.289774E+04  7.494459E+03  2.471860E+04
       202  25  5.390952E+05 -6.271542E+04 -5.243854E+04 -6.296571E+04  7.621048E+03  1.379622E+04
       202  26  4.460575E+05 -8.527595E+04 -6.997762E+04 -4.514109E+04  1.022311E+04  1.928037E+04
       202  27  3.534818E+05 -1.074239E+05 -8.571939E+04 -6.302626E+04  1.282254E+04  2.471844E+04
       203   1  1.314717E+06  1.250163E+05  1.232581E+05 -6.151017E+04 -3.718749E+03 -2.801593E+04
       203   2  1.406336E+06  1.479127E+05  1.521000E+05 -4.553144E+04 -1.539681E+04 -3.319335E+04
       203   3  1.501491E+06  1.783735E+05  1.904494E+05 -6.540982E+04 -2.707326E+04 -3.721600E+04
       203   4  7.978320E+05 -4.588863E+02  1.214182E+04 -6.293111E+04 -9.387101E+03 -2.801658E+04
       203   5  7.961446E+05 -1.900497E+02  2.101061E+04 -4.500167E+04 -1.991775E+04 -3.319585E+04
       203   6  7.977910E+05  7.449656E+03  3.859843E+04 -6.293122E+04 -3.044507E+04 -3.721987E+04
       203   7  2.811980E+05 -1.259516E+05 -9.899003E+04 -6.435083E+04 -1.505081E+04 -2.801721E+04
       203   8  1.863029E+05 -1.483171E+05 -1.101004E+05 -4.447242E+04 -2.443432E+04 -3.319837E+04
       203   9  9.455521E+04 -1.635067E+05 -1.132817E+05 -6.045546E+04 -3.381310E+04 -3.722377E+04
       203  10  1.314717E+06  1.250155E+05  1.232566E+05 -6.151025E+04  1.359540E-10  1.497833E-10
       203  11  1.406335E+06  1.479114E+05  1.520974E+05 -4.553185E+04  1.163862E-09  1.520218E-10
       203  12  1.501490E+06  1.783718E+05  1.904454E+05 -6.541063E+04  7.463962E-10 -4.014621E-10
       203  13  7.978317E+05 -4.597531E+02  1.214018E+04 -6.293132E+04 -5.554819E-10  5.859396E-10
       203  14  7.961439E+05 -1.913398E+02  2.100779E+04 -4.500220E+04 -1.410739E-10 -3.242575E-11
       203  15  7.977896E+05  7.447919E+03  3.859408E+04 -6.293213E+04  4.888442E-10 -7.538026E-10
       203  16  2.811976E+05 -1.259525E+05 -9.899193E+04 -6.435117E+04 -6.721119E-10  1.015758E-09
       203  17  1.863020E+05 -1.483185E+05 -1.101036E+05 -4.447307E+04  6.425586E-10 -3.338819E-10
       203  18  9.455361E+04 -1.635085E+05 -1.132865E+05 -6.045647E+04 -3.372239E-10 -8.389967E-10
       203  19  1.314717E+06  1.250163E+05  1.232581E+05 -6.151017E+04  3.718749E+03  2.801593E+04
       203  20  1.406336E+06  1.479127E+05  1.521000E+05 -4.553144E+04  1.539681E+04  3.319335E+04
       203  21  1.501491E+06  1.783735E+05  1.904494E+05 -6.540982E+04  2.707326E+04  3.721600E+04
       203  22  7.978320E+05 -4.588863E+02  1.214182E+04 -6.293111E+04  9.387101E+03  2.801658E+04
       203  23  7.961446E+05 -1.900497E+02  2.101061E+04 -4.500167E+04  1.991775E+04  3.319585E+04
       203  24  7.977910E+05  7.449656E+03  3.859843E+04 -6.293122E+04  3.044507E+04  3.721987E+04
       203  25  2.811980E+05 -1.259516E+05 -9.899003E+04 -6.435083E+04  1.505081E+04  2.801721E+04
       203  26  1.863029E+05 -1.483171E+05 -1.101004E+05 -4.447242E+04  2.443432E+04  3.319837E+04
       203  27  9.455521E+04 -1.635067E+05 -1.132817E+05 -6.045546E+04  3.381310E+04  3.722377E+04
       204   1  1.583966E+06  1.817401E+05  2.158446E+05 -4.108854E+04 -2.676297E+04 -4.236154E+04
       204   2  1.655739E+06  2.151918E+05  2.752520E+05 -7.227658E+04 -9.619336E+04 -4.036354E+04
       204   3  1.772863E+06  3.929224E+05  4.159117E+05 -1.385721E+05 -1.656603E+05 -1.291618E+04
       204   4  8.061574E+05 -7.038639E+03  4.879260E+04 -6.273670E+04 -3.727959E+04 -4.236794E+04
       204   5  7.855811E+05  3.163030E+03  8.385485E+04 -4.523871E+04 -8.156869E+04 -4.036306E+04
       204   6  8.060493E+05  1.533871E+05  1.827968E+05 -6.284180E+04 -1.258814E+05 -1.290366E+04
       204   7  2.891772E+04 -1.958552E+05 -1.182941E+05 -8.435743E+04 -4.778322E+04 -4.237363E+04
       204   8 -8.386885E+04 -2.089135E+05 -1.075874E+05 -1.823917E+04 -6.696417E+04 -4.036130E+04
       204   9 -1.598960E+05 -8.619381E+04 -5.037590E+04  1.277026E+04 -8.616403E+04 -1.288145E+04
       204  10  1.583965E+06  1.817379E+05  2.158399E+05 -4.108946E+04  3.782464E-10 -5.838567E-10
       204  11  1.655729E+06  2.151876E+05  2.752316E+05 -7.227971E+04  2.048186E-09 -1.553780E-10
       204  12  1.772834E+06  3.929149E+05  4.158600E+05 -1.385738E+05  7.549462E-10  3.687101E-10
       204  13  8.061555E+05 -7.040940E+03  4.878662E+04 -6.273797E+04 -5.628139E-10 -1.329665E-09
       204  14  7.855735E+05  3.159496E+03  8.383930E+04 -4.524136E+04 -3.637242E-10 -5.544830E-11
       204  15  8.060322E+05  1.533827E+05  1.827667E+05 -6.284311E+04  6.208705E-10 -3.101379E-10
       204  16  2.891478E+04 -1.958577E+05 -1.183018E+05 -8.435906E+04  1.964946E-10 -7.150546E-10
       204  17 -8.387410E+04 -2.089165E+05 -1.075988E+05 -1.824135E+04 -5.726858E-10 -3.448740E-10
       204  18 -1.599040E+05 -8.619598E+04 -5.039017E+04  1.276937E+04 -1.317909E-09  8.940123E-10
       204  19  1.583966E+06  1.817401E+05  2.158446E+05 -4.108854E+04  2.676297E+04  4.236154E+04
       204  20  1.655739E+06  2.151918E+05  2.752520E+05 -7.227658E+04  9.619336E+04  4.036354E+04
       204  21  1.772863E+06  3.929224E+05  4.159117E+05 -1.385721E+05  1.656603E+05  1.291618E+04
       204  22  8.061574E+05 -7.038639E+03  4.879260E+04 -6.273670E+04  3.727959E+04  4.236794E+04
       204  23  7.855811E+05  3.163030E+03  8.385485E+04 -4.523871E+04  8.156869E+04  4.036306E+04
       204  24  8.060493E+05  1.533871E+05  1.827968E+05 -6.284180E+04  1.258814E+05  1.290366E+04
       204  25  2.891772E+04 -1.958552E+05 -1.182941E+05 -8.435743E+04  4.778322E+04  4.237363E+04
       204  26 -8.386885E+04 -2.089135E+05 -1.075874E+05 -1.823917E+04  6.696417E+04  4.036130E+04
       204  27 -1.598960E+05 -8.619381E+04 -5.037590E+04  1.277026E+04  8.616403E+04  1.288145E+04
       205   1  5.572003E+05  1.915150E+06  5.490555E+05 -5.226387E+05  2.137177E+04  1.465457E+05
       205   2  3.532817E+05  1.352516E+06  3.340185E+05 -4.266928E+05  6.226198E+04  5.212787E+04
       205   3  2.100963E+05  8.173172E+05  1.954491E+05 -4.750603E+05  5.070988E+04 -4.228019E+04
       205   4  6.939431E+04 -5.349898E+04  7.740908E+04 -4.794131E+05  2.159271E+04  5.152867E+04
       205   5  1.172745E+04 -6.041345E+04  3.856687E+04 -4.073313E+05  6.232401E+04  3.161449E+04
       205   6  1.980419E+03 -5.300777E+04  2.461497E+04 -4.795620E+05  5.056578E+04  1.162473E+04
       205   7 -4.186814E+05 -2.018582E+06 -3.944769E+05 -4.363217E+05  2.180090E+04 -4.318918E+04
       205   8 -3.299530E+05 -1.471456E+06 -2.569938E+05 -3.880128E+05  6.238485E+04  1.114691E+04
       205   9 -2.061796E+05 -9.226012E+05 -1.462449E+05 -4.840566E+05  5.042077E+04  6.545577E+04
       205  10  5.571940E+05  1.915127E+06  5.490144E+05 -5.226412E+05  4.102268E-10  1.276145E-10
       205  11  3.532768E+05  1.352512E+06  3.340061E+05 -4.266954E+05 -6.760382E-10 -2.535030E-09
       205  12  2.100931E+05  8.173146E+05  1.954410E+05 -4.750586E+05  4.379681E-10 -2.316814E-10
       205  13  6.939309E+04 -5.350196E+04  7.740321E+04 -4.794140E+05  1.796382E-09  1.894350E-11
       205  14  1.172301E+04 -6.041557E+04  3.855768E+04 -4.073329E+05  1.005498E-09  9.397033E-10
       205  15  1.977637E+03 -5.300860E+04  2.460991E+04 -4.795625E+05  7.813217E-10 -3.043524E-11
       205  16 -4.186824E+05 -2.018584E+06 -3.944813E+05 -4.363209E+05  6.974036E-10 -4.251186E-10
       205  17 -3.299572E+05 -1.471457E+06 -2.570013E+05 -3.880134E+05  2.966114E-09  1.620431E-09
       205  18 -2.061834E+05 -9.226065E+05 -1.462578E+05 -4.840592E+05 -1.503486E-09 -4.081750E-10
       205  19  5.572003E+05  1.915150E+06  5.490555E+05 -5.226387E+05 -2.137177E+04 -1.465457E+05
       205  20  3.532817E+05  1.352516E+06  3.340185E+05 -4.266928E+05 -6.226198E+04 -5.212787E+04
       205  21  2.100963E+05  8.173172E+05  1.954491E+05 -4.750603E+05 -5.070988E+04  4.228019E+04
       205  22  6.939431E+04 -5.349898E+04  7.740908E+04 -4.794131E+05 -2.159271E+04 -5.152867E+04
       205  23  1.172745E+04 -6.041345E+04  3.856687E+04 -4.073313E+05 -6.232401E+04 -3.161449E+04
       205  24  1.980419E+03 -5.300777E+04  2.461497E+04 -4.795620E+05 -5.056578E+04 -1.162473E+04
       205  25 -4.186814E+05 -2.018582E+06 -3.944769E+05 -4.363217E+05 -2.180090E+04  4.318918E+04
       205  26 -3.299530E+05 -1.471456E+06 -2.569938E+05 -3.880128E+05 -6.238485E+04 -1.114691E+04
       205  27 -2.061796E+05 -9.226012E+05 -1.462449E+05 -4.840566E+05 -5.042077E+04 -6.545577E+04
       206   1  1.233032E+05  4.391578E+05  1.191879E+05 -4.826176E+05  2.817144E+04 -3.693857E+04
       206   2 -1.026697E+04 -1.100224E+05  8.634242E+03 -4.064463E+05 -3.425771E+03 -4.607372E+04
       206   3 -1.387954E+05 -6.571653E+05 -9.492450E+04 -4.775083E+05 -3.483942E+04 -5.519933E+04
       206   4  4.782425E+03 -5.568985E+04  2.137515E+04 -4.801870E+05  2.804402E+04  7.978527E+03
       206   5  2.435868E+03 -5.659617E+04  1.871134E+04 -4.065712E+05 -3.550937E+03 -1.432088E+03
       206   6  5.193860E+03 -5.570870E+04  2.323663E+04 -4.801858E+05 -3.496306E+04 -1.084083E+04
       206   7 -1.137521E+05 -5.502989E+05 -7.644209E+04 -4.777582E+05  2.791689E+04  5.286059E+04
       206   8  1.513961E+04 -3.162929E+03  2.879581E+04 -4.066960E+05 -3.676113E+03  4.321329E+04
       206   9  1.491623E+05  5.460990E+05  1.413876E+05 -4.828655E+05 -3.508701E+04  3.355977E+04
       206  10  1.233020E+05  4.391561E+05  1.191839E+05 -4.826168E+05 -2.753451E-10 -7.351972E-11
       206  11 -1.026755E+04 -1.100247E+05  8.630230E+03 -4.064465E+05  1.272886E-09 -3.745217E-09
       206  12 -1.387975E+05 -6.571689E+05 -9.493252E+04 -4.775099E+05  5.578324E-10 -4.918324E-10
       206  13  4.781564E+03 -5.569013E+04  2.137355E+04 -4.801872E+05 -7.482041E-10  7.880798E-11
       206  14  2.435854E+03 -5.659618E+04  1.871132E+04 -4.065712E+05 -1.568947E-09  1.125733E-09
       206  15  5.192515E+03 -5.570915E+04  2.323411E+04 -4.801861E+05 -6.088955E-10 -6.187384E-11
       206  16 -1.137537E+05 -5.503021E+05 -7.644882E+04 -4.777594E+05 -2.106750E-12 -3.232528E-10
       206  17  1.513909E+04 -3.164938E+03  2.879228E+04 -4.066959E+05 -1.687191E-09  1.911361E-09
       206  18  1.491607E+05  5.460974E+05  1.413832E+05 -4.828646E+05 -2.500953E-10 -3.564576E-10
       206  19  1.233032E+05  4.391578E+05  1.191879E+05 -4.826176E+05 -2.817144E+04  3.693857E+04
       206  20 -1.026697E+04 -1.100224E+05  8.634242E+03 -4.064463E+05  3.425771E+03  4.607372E+04
       206  21 -1.387954E+05 -6.571653E+05 -9.492450E+04 -4.775083E+05  3.483942E+04  5.519933E+04
       206  22  4.782425E+03 -5.568985E+04  2.137515E+04 -4.801870E+05 -2.804402E+04 -7.978527E+03
       206  23  2.435868E+03 -5.659617E+04  1.871134E+04 -4.065712E+05  3.550937E+03  1.432088E+03
       206  24  5.193860E+03 -5.570870E+04  2.323663E+04 -4.801858E+05  3.496306E+04  1.084083E+04
       206  25 -1.137521E+05 -5.502989E+05 -7.644209E+04 -4.777582E+05 -2.791689E+04 -5.286059E+04
       206  26  1.513961E+04 -3.162929E+03  2.879581E+04 -4.066960E+05  3.676113E+03 -4.321329E+04
       206  27  1.491623E+05  5.460990E+05  1.413876E+05 -4.828655E+05  3.508701E+04 -3.355977E+04
       207   1 -2.317659E+05 -1.028999E+06 -1.637440E+05 -4.849682E+05 -5.733139E+04 -6.864083E+04
       207   2 -3.539491E+05 -1.578733E+06 -2.725703E+05 -3.851284E+05 -6.797790E+04 -1.370027E+04
       207   3 -4.337441E+05 -2.124912E+06 -4.066924E+05 -4.294770E+05 -2.343838E+04  4.126635E+04
       207   4  1.871502E+03 -5.249481E+04  2.749593E+04 -4.795269E+05 -5.747293E+04 -1.482246E+04
       207   5  1.339635E+04 -6.115121E+04  4.451451E+04 -4.073697E+05 -6.790740E+04 -3.790336E+04
       207   6  8.081697E+04 -5.302265E+04  9.044643E+04 -4.793565E+05 -2.322212E+04 -6.090953E+04
       207   7  2.354532E+05  9.249311E+05  2.187009E+05 -4.740759E+05 -5.761339E+04  3.907884E+04
       207   8  3.805963E+05  1.458615E+06  3.614743E+05 -4.296644E+05 -6.783528E+04 -6.216466E+04
       207   9  5.950802E+05  2.022835E+06  5.873212E+05 -5.294002E+05 -2.298986E+04 -1.634256E+05
       207  10 -2.317707E+05 -1.029005E+06 -1.637590E+05 -4.849714E+05  1.599020E-09 -1.403074E-10
       207  11 -3.539541E+05 -1.578734E+06 -2.725793E+05 -3.851292E+05  6.861623E-10 -2.737339E-09
       207  12 -4.337451E+05 -2.124914E+06 -4.066966E+05 -4.294762E+05 -9.255563E-11 -4.610962E-10
       207  13  1.867895E+03 -5.249594E+04  2.748931E+04 -4.795276E+05  5.239038E-10  8.665471E-11
       207  14  1.339101E+04 -6.115400E+04  4.450314E+04 -4.073718E+05 -2.302845E-09  9.609554E-10
       207  15  8.081540E+04 -5.302678E+04  9.043844E+04 -4.793577E+05 -4.521232E-10 -5.977408E-11
       207  16  2.354492E+05  9.249286E+05  2.186918E+05 -4.740741E+05 -5.728197E-10  1.433695E-11
       207  17  3.805904E+05  1.458609E+06  3.614584E+05 -4.296678E+05  6.539175E-10  1.417581E-09
       207  18  5.950725E+05  2.022806E+06  5.872702E+05 -5.294032E+05  1.136039E-10 -3.258859E-10
       207  19 -2.317659E+05 -1.028999E+06 -1.637440E+05 -4.849682E+05  5.733139E+04  6.864083E+04
       207  20 -3.539491E+05 -1.578733E+06 -2.725703E+05 -3.851284E+05  6.797790E+04  1.370027E+04
       207  21 -4.337441E+05 -2.124912E+06 -4.066924E+05 -4.294770E+05  2.343838E+04 -4.126635E+04
       207  22  1.871502E+03 -5.249481E+04  2.749593E+04 -4.795269E+05  5.747293E+04  1.482246E+04
       207  23  1.339635E+04 -6.115121E+04  4.451451E+04 -4.073697E+05  6.790740E+04  3.790336E+04
       207  24  8.081697E+04 -5.302265E+04  9.044643E+04 -4.793565E+05  2.322212E+04  6.090953E+04
       207  25  2.354532E+05  9.249311E+05  2.187009E+05 -4.740759E+05  5.761339E+04 -3.907884E+04
       207  26  3.805963E+05  1.458615E+06  3.614743E+05 -4.296644E+05  6.783528E+04  6.216466E+04
       207  27  5.950802E+05  2.022835E+06  5.873212E+05 -5.294002E+05  2.298986E+04  1.634256E+05
       208   1 -2.228802E+06 -8.812101E+05 -4.950223E+05 -8.540528E+05 -2.029123E+05 -5.653939E+04
       208   2 -2.125779E+06 -6.499856E+05 -3.193988E+05 -8.120032E+05 -1.288429E+05  1.546675E+04
       208   3 -2.057729E+06 -5.625646E+05 -2.428952E+05 -7.664772E+05 -4.259537E+04  5.519401E+04
       208   4 -1.137085E+06 -3.831233E+05 -1.928599E+05 -4.658613E+05 -1.305750E+05 -2.936523E+04
       208   5 -1.113149E+06 -2.402016E+05 -8.733370E+04 -4.958551E+05 -9.910651E+04  2.662700E+04
       208   6 -1.115643E+06 -2.325125E+05 -4.700003E+04 -5.224024E+05 -5.548656E+04  5.034325E+04
       208   7 -4.419490E+04  1.152038E+05  1.092095E+05 -7.699889E+04 -5.809941E+04 -2.113317E+03
       208   8 -9.947917E+04  1.697188E+05  1.446661E+05 -1.792127E+05 -6.931761E+04  3.781133E+04
       208   9 -1.726395E+05  9.759638E+04  1.488513E+05 -2.779913E+05 -6.839903E+04  4.548535E+04
       208  10 -2.228847E+06 -8.812246E+05 -4.951060E+05 -8.540621E+05  1.652802E-10  1.503912E-10
       208  11 -2.125796E+06 -6.499903E+05 -3.194305E+05 -8.120016E+05  1.626804E-09  5.058023E-11
       208  12 -2.057732E+06 -5.625683E+05 -2.429043E+05 -7.664753E+05  6.055519E-10 -3.651914E-10
       208  13 -1.137103E+06 -3.831288E+05 -1.928936E+05 -4.658644E+05 -4.738273E-10  1.011292E-09
       208  14 -1.113160E+06 -2.402050E+05 -8.735351E+04 -4.958529E+05 -7.249685E-10  2.993857E-10
       208  15 -1.115647E+06 -2.325161E+05 -4.701057E+04 -5.224002E+05  1.590048E-10 -1.601868E-10
       208  16 -4.419853E+04  1.152029E+05  1.092031E+05 -7.699899E+04 -8.029548E-10  1.149125E-10
       208  17 -9.948471E+04  1.697160E+05  1.446544E+05 -1.792106E+05 -1.340009E-10 -2.933717E-10
       208  18 -1.726451E+05  9.759291E+04  1.488386E+05 -2.779888E+05 -4.617569E-10  2.111052E-10
       208  19 -2.228802E+06 -8.812101E+05 -4.950223E+05 -8.540528E+05  2.029123E+05  5.653939E+04
       208  20 -2.125779E+06 -6.499856E+05 -3.193988E+05 -8.120032E+05  1.288429E+05 -1.546675E+04
       208  21 -2.057729E+06 -5.625646E+05 -2.428952E+05 -7.664772E+05  4.259537E+04 -5.519401E+04
       208  22 -1.137085E+06 -3.831233E+05 -1.928599E+05 -4.658613E+05  1.305750E+05  2.936523E+04
       208  23 -1.113149E+06 -2.402016E+05 -8.733370E+04 -4.958551E+05  9.910651E+04 -2.662700E+04
       208  24 -1.115643E+06 -2.325125E+05 -4.700003E+04 -5.224024E+05  5.548656E+04 -5.034325E+04
       208  25 -4.419490E+04  1.152038E+05  1.092095E+05 -7.699889E+04  5.809941E+04  2.113317E+03
       208  26 -9.947917E+04  1.697188E+05  1.446661E+05 -1.792127E+05  6.931761E+04 -3.781133E+04
       208  27 -1.726395E+05  9.759638E+04  1.488513E+05 -2.779913E+05  6.839903E+04 -4.548535E+04
       209   1 -1.959551E+06 -5.536060E+05 -2.154534E+05 -7.544629E+05 -4.205608E+04  4.922386E+04
       209   2 -1.857812E+06 -4.934590E+05 -1.726242E+05 -7.102123E+05 -2.776666E+04  4.835500E+04
       209   3 -1.736094E+06 -4.622654E+05 -1.403343E+05 -6.919161E+05 -1.272748E+04  4.548008E+04
       209   4 -1.109543E+06 -2.395466E+05 -3.610678E+04 -5.173594E+05 -4.797733E+04  4.699260E+04
       209   5 -1.119335E+06 -2.223341E+05 -1.907155E+04 -5.054922E+05 -3.632677E+04  4.513657E+04
       209   6 -1.108632E+06 -2.335446E+05 -1.047026E+04 -5.195819E+05 -2.392934E+04  4.127485E+04
       209   7 -2.587960E+05  7.457489E+04  1.432000E+05 -2.799552E+05 -5.390732E+04  4.475802E+04
       209   8 -3.803017E+05  4.883569E+04  1.344515E+05 -3.005476E+05 -4.489783E+04  4.191403E+04
       209   9 -4.807715E+05 -4.793657E+03  1.193722E+05 -3.470883E+05 -3.514333E+04  3.706512E+04
       209  10 -1.959554E+06 -5.536091E+05 -2.154613E+05 -7.544612E+05 -9.342543E-10 -4.702985E-11
       209  11 -1.857814E+06 -4.934617E+05 -1.726300E+05 -7.102112E+05 -1.194747E-09  3.129959E-10
       209  12 -1.736094E+06 -4.622677E+05 -1.403385E+05 -6.919157E+05  2.471210E-09  6.832218E-10
       209  13 -1.109547E+06 -2.395496E+05 -3.611525E+04 -5.173576E+05  5.193557E-10 -4.485904E-10
       209  14 -1.119337E+06 -2.223367E+05 -1.907785E+04 -5.054909E+05 -6.914131E-10 -1.470690E-10
       209  15 -1.108633E+06 -2.335466E+05 -1.047454E+04 -5.195811E+05  4.432928E-09  1.139247E-09
       209  16 -2.587996E+05  7.457196E+04  1.431908E+05 -2.799532E+05 -1.229093E-09 -2.054189E-10
       209  17 -3.803043E+05  4.883327E+04  1.344444E+05 -3.005461E+05  1.162972E-09 -3.134964E-10
       209  18 -4.807732E+05 -4.795462E+03  1.193673E+05 -3.470873E+05  8.907125E-09  1.606356E-09
       209  19 -1.959551E+06 -5.536060E+05 -2.154534E+05 -7.544629E+05  4.205608E+04 -4.922386E+04
       209  20 -1.857812E+06 -4.934590E+05 -1.726242E+05 -7.102123E+05  2.776666E+04 -4.835500E+04
       209  21 -1.736094E+06 -4.622654E+05 -1.403343E+05 -6.919161E+05  1.272748E+04 -4.548008E+04
       209  22 -1.109543E+06 -2.395466E+05 -3.610678E+04 -5.173594E+05  4.797733E+04 -4.699260E+04
       209  23 -1.119335E+06 -2.223341E+05 -1.907155E+04 -5.054922E+05  3.632677E+04 -4.513657E+04
       209  24 -1.108632E+06 -2.335446E+05 -1.047026E+04 -5.195819E+05  2.392934E+04 -4.127485E+04
       209  25 -2.587960E+05  7.457489E+04  1.432000E+05 -2.799552E+05  5.390732E+04 -4.475802E+04
       209  26 -3.803017E+05  4.883569E+04  1.344515E+05 -3.005476E+05  4.489783E+04 -4.191403E+04
       209  27 -4.807715E+05 -4.793657E+03  1.193722E+05 -3.470883E+05  3.514333E+04 -3.706512E+04
       210   1 -1.656608E+06 -4.342992E+05 -1.209059E+05 -6.706994E+05 -9.822675E+03  4.096141E+04
       210   2 -1.555115E+06 -3.809081E+05 -9.418329E+04 -6.259268E+05 -4.394953E+03  3.361765E+04
       210   3 -1.430313E+06 -3.514398E+05 -6.925908E+04 -6.082873E+05  1.079643E+03  2.613920E+04
       210   4 -1.108169E+06 -2.338392E+05 -7.892220E+03 -5.193481E+05 -2.061316E+04  3.691256E+04
       210   5 -1.119800E+06 -2.217888E+05 -4.346289E+03 -5.058111E+05 -1.536205E+04  2.950517E+04
       210   6 -1.108103E+06 -2.336269E+05 -2.458663E+03 -5.194116E+05 -1.006456E+04  2.196301E+04
       210   7 -5.594165E+05 -3.335252E+04  1.051074E+05 -3.678719E+05 -3.141401E+04  3.285984E+04
       210   8 -6.842880E+05 -6.265305E+04  8.548180E+04 -3.856170E+05 -2.633748E+04  2.538957E+04
       210   9 -7.857859E+05 -1.158054E+05  6.433682E+04 -4.304933E+05 -2.121500E+04  1.778448E+04
       210  10 -1.656608E+06 -4.343010E+05 -1.209092E+05 -6.706991E+05  6.278099E-09  1.469631E-09
       210  11 -1.555116E+06 -3.809093E+05 -9.418545E+04 -6.259267E+05  2.104951E-09 -1.013544E-09
       210  12 -1.430314E+06 -3.514405E+05 -6.926037E+04 -6.082873E+05  6.418570E-11 -9.650684E-10
       210  13 -1.108170E+06 -2.338408E+05 -7.895577E+03 -5.193474E+05  5.174272E-09  1.098834E-09
       210  14 -1.119801E+06 -2.217898E+05 -4.348367E+03 -5.058107E+05  3.300299E-10 -6.357115E-10
       210  15 -1.108103E+06 -2.336275E+05 -2.459759E+03 -5.194115E+05  1.368371E-10 -1.522444E-09
       210  16 -5.594179E+05 -3.335394E+04  1.051036E+05 -3.678711E+05  4.031395E-09  4.961353E-10
       210  17 -6.842890E+05 -6.265393E+04  8.547929E+04 -3.856164E+05 -1.007830E-09 -7.855049E-11
       210  18 -7.857864E+05 -1.158059E+05  6.433538E+04 -4.304930E+05 -1.826264E-10 -5.171957E-10
       210  19 -1.656608E+06 -4.342992E+05 -1.209059E+05 -6.706994E+05  9.822675E+03 -4.096141E+04
       210  20 -1.555115E+06 -3.809081E+05 -9.418329E+04 -6.259268E+05  4.394953E+03 -3.361765E+04
       210  21 -1.430313E+06 -3.514398E+05 -6.925908E+04 -6.082873E+05 -1.079643E+03 -2.613920E+04
       210  22 -1.108169E+06 -2.338392E+05 -7.892220E+03 -5.193481E+05  2.061316E+04 -3.691256E+04
       210  23 -1.119800E+06 -2.217888E+05 -4.346289E+03 -5.058111E+05  1.536205E+04 -2.950517E+04
       210  24 -1.108103E+06 -2.336269E+05 -2.458663E+03 -5.194116E+05  1.006456E+04 -2.196301E+04
       210  25 -5.594165E+05 -3.335252E+04  1.051074E+05 -3.678719E+05  3.141401E+04 -3.285984E+04
       210  26 -6.842880E+05 -6.265305E+04  8.548180E+04 -3.856170E+05  2.633748E+04 -2.538957E+04
       210  27 -7.857859E+05 -1.158054E+05  6.433682E+04 -4.304933E+05  2.121500E+04 -1.778448E+04
       211   1 -1.351500E+06 -3.225676E+05 -5.177805E+04 -5.866172E+05  3.261716E+03  2.136513E+04
       211   2 -1.249860E+06 -2.692882E+05 -2.802739E+04 -5.416820E+05  7.034864E+03  1.318350E+04
       211   3 -1.124581E+06 -2.397369E+05 -4.741191E+03 -5.239517E+05  1.081084E+04  4.991006E+03
       211   4 -1.108033E+06 -2.336387E+05 -1.902521E+03 -5.194055E+05 -7.866148E+03  1.719610E+04
       211   5 -1.119842E+06 -2.217697E+05 -1.216394E+03 -5.058007E+05 -4.107957E+03  9.009667E+03
       211   6 -1.108022E+06 -2.336268E+05 -9.829944E+02 -5.194057E+05 -3.470518E+02  8.123265E+02
       211   7 -8.645073E+05 -1.447054E+05  4.796998E+04 -4.521698E+05 -1.899863E+04  1.302535E+04
       211   8 -9.898059E+05 -1.742496E+05  2.559425E+04 -4.699123E+05 -1.525329E+04  4.834896E+03
       211   9 -1.091462E+06 -2.275164E+05  2.775754E+03 -5.148595E+05 -1.150535E+04 -3.366506E+03
       211  10 -1.351500E+06 -3.225681E+05 -5.177892E+04 -5.866173E+05 -4.644570E-09 -1.624042E-09
       211  11 -1.249860E+06 -2.692884E+05 -2.802781E+04 -5.416821E+05  9.417228E-09  3.848131E-09
       211  12 -1.124581E+06 -2.397370E+05 -4.741458E+03 -5.239517E+05  1.867054E-08  7.698663E-09
       211  13 -1.108034E+06 -2.336390E+05 -1.903192E+03 -5.194054E+05 -1.989592E-10 -9.870695E-10
       211  14 -1.119842E+06 -2.217698E+05 -1.216579E+03 -5.058007E+05 -2.980141E-10  1.344372E-10
       211  15 -1.108022E+06 -2.336268E+05 -9.829959E+02 -5.194057E+05 -1.920308E-09  5.789801E-11
       211  16 -8.645077E+05 -1.447057E+05  4.796898E+04 -4.521696E+05  5.139122E-09  9.906332E-10
       211  17 -9.898061E+05 -1.742497E+05  2.559377E+04 -4.699123E+05 -8.905751E-09 -2.363312E-09
       211  18 -1.091463E+06 -2.275165E+05  2.775483E+03 -5.148595E+05 -2.211943E-08 -6.427896E-09
       211  19 -1.351500E+06 -3.225676E+05 -5.177805E+04 -5.866172E+05 -3.261716E+03 -2.136513E+04
       211  20 -1.249860E+06 -2.692882E+05 -2.802739E+04 -5.416820E+05 -7.034864E+03 -1.318350E+04
       211  21 -1.124581E+06 -2.397369E+05 -4.741191E+03 -5.239517E+05 -1.081084E+04 -4.991006E+03
       211  22 -1.108033E+06 -2.336387E+05 -1.902521E+03 -5.194055E+05  7.866148E+03 -1.719610E+04
       211  23 -1.119842E+06 -2.217697E+05 -1.216394E+03 -5.058007E+05  4.107957E+03 -9.009667E+03
       211  24 -1.108022E+06 -2.336268E+05 -9.829944E+02 -5.194057E+05  3.470518E+02 -8.123265E+02
       211  25 -8.645073E+05 -1.447054E+05  4.796998E+04 -4.521698E+05  1.899863E+04 -1.302535E+04
       211  26 -9.898059E+05 -1.742496E+05  2.559425E+04 -4.699123E+05  1.525329E+04 -4.834896E+03
       211  27 -1.091462E+06 -2.275164E+05  2.775754E+03 -5.148595E+05  1.150535E+04  3.366506E+03
       212   1 -1.045744E+06 -2.107991E+05  1.218582E+04 -5.022310E+05  1.281368E+04  1.463477E+02
       212   2 -9.441049E+05 -1.575456E+05  3.491679E+04 -4.572915E+05  1.660860E+04 -8.035616E+03
       212   3 -8.188352E+05 -1.280114E+05  5.716962E+04 -4.395515E+05  2.040052E+04 -1.620518E+04
       212   4 -1.108025E+06 -2.336268E+05 -1.000663E+03 -5.194047E+05  1.655765E+03 -4.032436E+03
       212   5 -1.119842E+06 -2.217735E+05 -1.315344E+03 -5.058021E+05  5.465564E+03 -1.220991E+04
       212   6 -1.108042E+06 -2.336440E+05 -2.119912E+03 -5.194046E+05  9.272225E+03 -2.037498E+04
       212   7 -1.170303E+06 -2.564540E+05 -1.418682E+04 -5.365767E+05 -9.500938E+03 -8.210766E+03
       212   8 -1.295545E+06 -2.859984E+05 -3.754836E+04 -5.542997E+05 -5.674026E+03 -1.638291E+04
       212   9 -1.397161E+06 -3.392686E+05 -6.141258E+04 -5.992227E+05 -1.850402E+03 -2.454266E+04
       212  10 -1.045744E+06 -2.107992E+05  1.218551E+04 -5.022310E+05 -2.101701E-08 -6.829967E-09
       212  11 -9.441052E+05 -1.575457E+05  3.491615E+04 -4.572914E+05 -8.719279E-09 -2.260628E-09
       212  12 -8.188357E+05 -1.280118E+05  5.716834E+04 -4.395513E+05  4.587522E-09  1.162276E-09
       212  13 -1.108025E+06 -2.336268E+05 -1.000699E+03 -5.194047E+05 -1.811727E-09  7.087643E-10
       212  14 -1.119842E+06 -2.217736E+05 -1.315680E+03 -5.058020E+05 -7.114033E-10  5.145969E-10
       212  15 -1.108043E+06 -2.336444E+05 -2.120854E+03 -5.194045E+05  1.467633E-10 -2.954417E-10
       212  16 -1.170303E+06 -2.564541E+05 -1.418712E+04 -5.365768E+05  1.712298E-08  8.335638E-09
       212  17 -1.295546E+06 -2.859987E+05 -3.754893E+04 -5.542998E+05  8.681449E-09  3.598895E-09
       212  18 -1.397161E+06 -3.392692E+05 -6.141372E+04 -5.992227E+05 -3.769864E-09 -1.985364E-09
       212  19 -1.045744E+06 -2.107991E+05  1.218582E+04 -5.022310E+05 -1.281368E+04 -1.463477E+02
       212  20 -9.441049E+05 -1.575456E+05  3.491679E+04 -4.572915E+05 -1.660860E+04  8.035616E+03
       212  21 -8.188352E+05 -1.280114E+05  5.716962E+04 -4.395515E+05 -2.040052E+04  1.620518E+04
       212  22 -1.108025E+06 -2.336268E+05 -1.000663E+03 -5.194047E+05 -1.655765E+03  4.032436E+03
       212  23 -1.119842E+06 -2.217735E+05 -1.315344E+03 -5.058021E+05 -5.465564E+03  1.220991E+04
       212  24 -1.108042E+06 -2.336440E+05 -2.119912E+03 -5.194046E+05 -9.272225E+03  2.037498E+04
       212  25 -1.170303E+06 -2.564540E+05 -1.418682E+04 -5.365767E+05  9.500938E+03  8.210766E+03
       212  26 -1.295545E+06 -2.859984E+05 -3.754836E+04 -5.542997E+05  5.674026E+03  1.638291E+04
       212  27 -1.397161E+06 -3.392686E+05 -6.141258E+04 -5.992227E+05  1.850402E+03  2.454266E+04
       213   1 -7.401490E+05 -9.912026E+04  7.344861E+04 -4.178814E+05  2.265892E+04 -2.094623E+04
       213   2 -6.386927E+05 -4.599938E+04  9.432043E+04 -3.730281E+05  2.805011E+04 -2.844262E+04
       213   3 -5.139187E+05 -1.673960E+04  1.134670E+05 -3.552853E+05  3.339344E+04 -3.579799E+04
       213   4 -1.108122E+06 -2.336299E+05 -2.757420E+03 -5.194096E+05  1.151317E+04 -2.512377E+04
       213   5 -1.119792E+06 -2.217977E+05 -4.904119E+03 -5.058147E+05  1.708693E+04 -3.255470E+04
       213   6 -1.108194E+06 -2.338668E+05 -8.922434E+03 -5.193380E+05  2.261235E+04 -3.984468E+04
       213   7 -1.475959E+06 -3.681293E+05 -7.897088E+04 -6.208831E+05  3.744480E+02 -2.929869E+04
       213   8 -1.600654E+06 -3.975775E+05 -1.041408E+05 -6.385069E+05  6.132855E+03 -3.666339E+04
       213   9 -1.702107E+06 -4.509647E+05 -1.313299E+05 -6.832458E+05  1.184238E+04 -4.388722E+04
       213  10 -7.401496E+05 -9.912087E+04  7.344682E+04 -4.178810E+05 -2.888631E-10 -1.190015E-09
       213  11 -6.386938E+05 -4.600046E+04  9.431743E+04 -3.730275E+05  1.385231E-09 -4.464055E-10
       213  12 -5.139202E+05 -1.674127E+04  1.134625E+05 -3.552843E+05 -2.138924E-09 -7.825471E-10
       213  13 -1.108122E+06 -2.336306E+05 -2.758854E+03 -5.194094E+05  1.416145E-10 -6.066572E-10
       213  14 -1.119792E+06 -2.217989E+05 -4.906658E+03 -5.058143E+05 -1.633799E-09 -4.737403E-10
       213  15 -1.108195E+06 -2.338687E+05 -8.926376E+03 -5.193373E+05 -6.092039E-09 -1.754127E-09
       213  16 -1.475959E+06 -3.681302E+05 -7.897250E+04 -6.208831E+05  2.955385E-09  7.646338E-10
       213  17 -1.600655E+06 -3.975789E+05 -1.041434E+05 -6.385067E+05 -2.320790E-10  2.326764E-10
       213  18 -1.702108E+06 -4.509668E+05 -1.313337E+05 -6.832454E+05 -7.748050E-09 -2.519785E-09
       213  19 -7.401490E+05 -9.912026E+04  7.344861E+04 -4.178814E+05 -2.265892E+04  2.094623E+04
       213  20 -6.386927E+05 -4.599938E+04  9.432043E+04 -3.730281E+05 -2.805011E+04  2.844262E+04
       213  21 -5.139187E+05 -1.673960E+04  1.134670E+05 -3.552853E+05 -3.339344E+04  3.579799E+04
       213  22 -1.108122E+06 -2.336299E+05 -2.757420E+03 -5.194096E+05 -1.151317E+04  2.512377E+04
       213  23 -1.119792E+06 -2.217977E+05 -4.904119E+03 -5.058147E+05 -1.708693E+04  3.255470E+04
       213  24 -1.108194E+06 -2.338668E+05 -8.922434E+03 -5.193380E+05 -2.261235E+04  3.984468E+04
       213  25 -1.475959E+06 -3.681293E+05 -7.897088E+04 -6.208831E+05 -3.744480E+02  2.929869E+04
       213  26 -1.600654E+06 -3.975775E+05 -1.041408E+05 -6.385069E+05 -6.132855E+03  3.666339E+04
       213  27 -1.702107E+06 -4.509647E+05 -1.313299E+05 -6.832458E+05 -1.184238E+04  4.388722E+04
       214   1 -4.353261E+05  1.175650E+04  1.273738E+05 -3.346404E+05  3.732999E+04 -3.992195E+04
       214   2 -3.349791E+05  6.543763E+04  1.413298E+05 -2.878760E+05  4.823031E+04 -4.429200E+04
       214   3 -2.140092E+05  9.060899E+04  1.479207E+05 -2.669167E+05  5.835713E+04 -4.658120E+04
       214   4 -1.108721E+06 -2.335387E+05 -1.184322E+04 -5.196113E+05  2.612062E+04 -4.413151E+04
       214   5 -1.119263E+06 -2.223979E+05 -2.157358E+04 -5.054480E+05  3.976238E+04 -4.747740E+04
       214   6 -1.109743E+06 -2.403185E+05 -4.085138E+04 -5.170967E+05  5.262861E+04 -4.874164E+04
       214   7 -1.781646E+06 -4.787951E+05 -1.510822E+05 -7.043961E+05  1.492442E+04 -4.833618E+04
       214   8 -1.902917E+06 -5.101813E+05 -1.845094E+05 -7.227660E+05  3.130596E+04 -5.065847E+04
       214   9 -2.004663E+06 -5.711795E+05 -2.296695E+05 -7.669448E+05  4.690894E+04 -5.089872E+04
       214  10 -4.353280E+05  1.175442E+04  1.273682E+05 -3.346392E+05 -7.217773E-09 -2.608247E-09
       214  11 -3.349822E+05  6.543490E+04  1.413218E+05 -2.878743E+05 -1.246089E-09 -4.940517E-10
       214  12 -2.140135E+05  9.060575E+04  1.479102E+05 -2.669145E+05  1.165521E-09 -1.514993E-11
       214  13 -1.108722E+06 -2.335409E+05 -1.184816E+04 -5.196104E+05 -3.941054E-09 -1.800916E-09
       214  14 -1.119266E+06 -2.224007E+05 -2.158078E+04 -5.054465E+05  1.932040E-09 -4.850433E-10
       214  15 -1.109746E+06 -2.403218E+05 -4.086105E+04 -5.170947E+05  1.665175E-09 -3.445126E-10
       214  16 -1.781647E+06 -4.787977E+05 -1.510870E+05 -7.043955E+05 -1.084191E-09 -7.582318E-10
       214  17 -1.902918E+06 -5.101844E+05 -1.845161E+05 -7.227647E+05  2.168806E-09 -4.642095E-10
       214  18 -2.004666E+06 -5.711828E+05 -2.296785E+05 -7.669429E+05  1.103734E-09 -1.126929E-09
       214  19 -4.353261E+05  1.175650E+04  1.273738E+05 -3.346404E+05 -3.732999E+04  3.992195E+04
       214  20 -3.349791E+05  6.543763E+04  1.413298E+05 -2.878760E+05 -4.823031E+04  4.429200E+04
       214  21 -2.140092E+05  9.060899E+04  1.479207E+05 -2.669167E+05 -5.835713E+04  4.658120E+04
       214  22 -1.108721E+06 -2.335387E+05 -1.184322E+04 -5.196113E+05 -2.612062E+04  4.413151E+04
       214  23 -1.119263E+06 -2.223979E+05 -2.157358E+04 -5.054480E+05 -3.976238E+04  4.747740E+04
       214  24 -1.109743E+06 -2.403185E+05 -4.085138E+04 -5.170967E+05 -5.262861E+04  4.874164E+04
       214  25 -1.781646E+06 -4.787951E+05 -1.510822E+05 -7.043961E+05 -1.492442E+04  4.833618E+04
       214  26 -1.902917E+06 -5.101813E+05 -1.845094E+05 -7.227660E+05 -3.130596E+04  5.065847E+04
       214  27 -2.004663E+06 -5.711795E+05 -2.296695E+05 -7.669448E+05 -4.690894E+04  5.089872E+04
       215   1 -1.269529E+05  1.127891E+05  1.521108E+05 -2.676196E+05  7.383982E+04 -4.695255E+04
       215   2 -5.721629E+04  1.873990E+05  1.431035E+05 -1.614969E+05  7.899143E+04 -3.704066E+04
       215   3 -1.151022E+04  1.208941E+05  9.552759E+04 -4.808802E+04  7.154722E+04  6.335590E+03
       215   4 -1.116611E+06 -2.323896E+05 -5.317690E+04 -5.228404E+05  6.086466E+04 -5.183604E+04
       215   5 -1.112292E+06 -2.425540E+05 -9.880474E+04 -4.944997E+05  1.103167E+05 -2.527703E+04
       215   6 -1.140888E+06 -4.027719E+05 -2.182022E+05 -4.588623E+05  1.471560E+05  3.477163E+04
       215   7 -2.105270E+06 -5.775112E+05 -2.585159E+05 -7.776962E+05  4.791180E+04 -5.671213E+04
       215   8 -2.166227E+06 -6.723482E+05 -3.407805E+05 -8.269561E+05  1.415842E+05 -1.354031E+04
       215   9 -2.268971E+06 -9.261421E+05 -5.320204E+05 -8.688860E+05  2.226135E+05  6.312030E+04
       215  10 -1.269593E+05  1.127852E+05  1.520964E+05 -2.676168E+05 -1.052191E-09 -1.476921E-10
       215  11 -5.722335E+04  1.873959E+05  1.430892E+05 -1.614946E+05  3.493956E-10  8.234784E-10
       215  12 -1.151572E+04  1.208927E+05  9.551789E+04 -4.808839E+04  9.420865E-10  5.276792E-10
       215  13 -1.116616E+06 -2.323935E+05 -5.318891E+04 -5.228378E+05  6.702023E-10  4.513425E-10
       215  14 -1.112305E+06 -2.425580E+05 -9.882884E+04 -4.944975E+05 -1.724545E-09  1.176851E-09
       215  15 -1.140911E+06 -4.027790E+05 -2.182453E+05 -4.588665E+05  7.559910E-10  2.293323E-10
       215  16 -2.105273E+06 -5.775153E+05 -2.585263E+05 -7.776940E+05  2.086719E-09 -5.070492E-10
       215  17 -2.166249E+06 -6.723538E+05 -3.408186E+05 -8.269546E+05  2.389416E-10 -1.392074E-10
       215  18 -2.269026E+06 -9.261598E+05 -5.321215E+05 -8.688973E+05 -1.923645E-09  4.443403E-10
       215  19 -1.269529E+05  1.127891E+05  1.521108E+05 -2.676196E+05 -7.383982E+04  4.695255E+04
       215  20 -5.721629E+04  1.873990E+05  1.431035E+05 -1.614969E+05 -7.899143E+04  3.704066E+04
       215  21 -1.151022E+04  1.208941E+05  9.552759E+04 -4.808802E+04 -7.154722E+04 -6.335590E+03
       215  22 -1.116611E+06 -2.323896E+05 -5.317690E+04 -5.228404E+05 -6.086466E+04  5.183604E+04
       215  23 -1.112292E+06 -2.425540E+05 -9.880474E+04 -4.944997E+05 -1.103167E+05  2.527703E+04
       215  24 -1.140888E+06 -4.027719E+05 -2.182022E+05 -4.588623E+05 -1.471560E+05 -3.477163E+04
       215  25 -2.105270E+06 -5.775112E+05 -2.585159E+05 -7.776962E+05 -4.791180E+04  5.671213E+04
       215  26 -2.166227E+06 -6.723482E+05 -3.407805E+05 -8.269561E+05 -1.415842E+05  1.354031E+04
       215  27 -2.268971E+06 -9.261421E+05 -5.320204E+05 -8.688860E+05 -2.226135E+05 -6.312030E+04
       216   1 -2.319425E+05 -9.580882E+04 -6.269472E+04 -5.943492E+03  6.560478E+04  1.441766E+04
       216   2 -1.281615E+05 -1.994798E+05 -1.010356E+05 -4.688941E+04  5.709482E+04  4.643965E+04
       216   3  3.814036E+03 -1.956846E+05 -1.069384E+05 -1.179211E+05  4.860829E+04  5.170720E+04
       216   4  8.217828E+05  1.646662E+05  1.873847E+05 -1.022234E+05  1.300359E+05  1.445836E+04
       216   5  8.044977E+05  2.497979E+04  8.925462E+04 -8.713389E+04  8.359334E+04  4.644705E+04
       216   6  8.219166E+05 -7.602704E+02  4.984508E+04 -1.021208E+05  3.717833E+04  5.169805E+04
       216   7  1.876556E+06  4.250986E+05  4.374073E+05 -1.986677E+05  1.945758E+05  1.447906E+04
       216   8  1.737988E+06  2.493915E+05  2.795026E+05 -1.274400E+05  1.101309E+05  4.645102E+04
       216   9  1.640664E+06  1.941255E+05  2.065985E+05 -8.629924E+04  2.573364E+04  5.168833E+04
       216  10 -2.319471E+05 -9.581020E+04 -6.270320E+04 -5.944254E+03  8.250824E-10 -8.563835E-10
       216  11 -1.281656E+05 -1.994830E+05 -1.010458E+05 -4.689154E+04 -2.196795E-09  4.367583E-10
       216  12  3.810780E+03 -1.956881E+05 -1.069478E+05 -1.179231E+05 -2.491361E-09 -2.685906E-10
       216  13  8.217646E+05  1.646614E+05  1.873525E+05 -1.022249E+05 -8.003737E-10  7.214094E-10
       216  14  8.044896E+05  2.497559E+04  8.923745E+04 -8.713702E+04 -3.602138E-10  1.625667E-10
       216  15  8.219144E+05 -7.635123E+02  4.983746E+04 -1.021224E+05 -1.640050E-09 -7.305706E-10
       216  16  1.876516E+06  4.250883E+05  4.373360E+05 -1.986699E+05  4.431495E-10  7.174678E-10
       216  17  1.737975E+06  2.493860E+05  2.794758E+05 -1.274441E+05  1.510469E-09  3.383871E-10
       216  18  1.640662E+06  1.941225E+05  2.065923E+05 -8.630031E+04  2.047103E-09  5.790657E-10
       216  19 -2.319425E+05 -9.580882E+04 -6.269472E+04 -5.943492E+03 -6.560478E+04 -1.441766E+04
       216  20 -1.281615E+05 -1.994798E+05 -1.010356E+05 -4.688941E+04 -5.709482E+04 -4.643965E+04
       216  21  3.814036E+03 -1.956846E+05 -1.069384E+05 -1.179211E+05 -4.860829E+04 -5.170720E+04
       216  22  8.217828E+05  1.646662E+05  1.873847E+05 -1.022234E+05 -1.300359E+05 -1.445836E+04
       216  23  8.044977E+05  2.497979E+04  8.925462E+04 -8.713389E+04 -8.359334E+04 -4.644705E+04
       216  24  8.219166E+05 -7.602704E+02  4.984508E+04 -1.021208E+05 -3.717833E+04 -5.169805E+04
       216  25  1.876556E+06  4.250986E+05  4.374073E+05 -1.986677E+05 -1.945758E+05 -1.447906E+04
       216  26  1.737988E+06  2.493915E+05  2.795026E+05 -1.274400E+05 -1.101309E+05 -4.645102E+04
       216  27  1.640664E+06  1.941255E+05  2.065985E+05 -8.629924E+04 -2.573364E+04 -5.168833E+04
       217   1  7.757005E+04 -1.694699E+05 -1.025269E+05 -1.005876E+05  3.709891E+04  4.694921E+04
       217   2  1.936054E+05 -1.468843E+05 -9.552379E+04 -8.646692E+04  2.916925E+04  4.139648E+04
       217   3  3.119153E+05 -1.197413E+05 -8.219586E+04 -1.037963E+05  2.123523E+04  3.398603E+04
       217   4  8.148254E+05  6.100424E+03  3.842376E+04 -1.024474E+05  3.057886E+04  4.694241E+04
       217   5  8.134944E+05  3.719502E+02  2.120395E+04 -8.672315E+04  2.000635E+04  4.139122E+04
       217   6  8.148790E+05 -3.436792E+02  1.213593E+04 -1.024466E+05  9.430944E+03  3.398320E+04
       217   7  1.552604E+06  1.816388E+05  1.793499E+05 -1.043095E+05  2.405123E+04  4.693566E+04
       217   8  1.433755E+06  1.476059E+05  1.379152E+05 -8.697964E+04  1.083452E+04  4.138597E+04
       217   9  1.318087E+06  1.190394E+05  1.064573E+05 -1.010958E+05 -2.382664E+03  3.398033E+04
       217  10  7.756798E+04 -1.694726E+05 -1.025336E+05 -1.005890E+05 -2.664515E-10 -1.701812E-10
       217  11  1.936040E+05 -1.468864E+05 -9.552861E+04 -8.646789E+04 -1.407083E-09 -1.089711E-10
       217  12  3.119145E+05 -1.197426E+05 -8.219888E+04 -1.037969E+05 -1.291466E-09 -3.526019E-10
       217  13  8.148238E+05  6.097806E+03  3.841787E+04 -1.024486E+05 -1.958771E-10  4.378603E-10
       217  14  8.134935E+05  3.700024E+02  2.119998E+04 -8.672382E+04 -1.233648E-09  8.527523E-11
       217  15  8.148786E+05 -3.449437E+02  1.213359E+04 -1.024469E+05 -1.698799E-09 -5.354987E-10
       217  16  1.552603E+06  1.816363E+05  1.793447E+05 -1.043105E+05  1.044929E-10  7.972621E-11
       217  17  1.433754E+06  1.476041E+05  1.379117E+05 -8.698000E+04  1.253175E-09 -2.255057E-10
       217  18  1.318087E+06  1.190381E+05  1.064551E+05 -1.010958E+05  3.503505E-10 -3.257078E-10
       217  19  7.757005E+04 -1.694699E+05 -1.025269E+05 -1.005876E+05 -3.709891E+04 -4.694921E+04
       217  20  1.936054E+05 -1.468843E+05 -9.552379E+04 -8.646692E+04 -2.916925E+04 -4.139648E+04
       217  21  3.119153E+05 -1.197413E+05 -8.219586E+04 -1.037963E+05 -2.123523E+04 -3.398603E+04
       217  22  8.148254E+05  6.100424E+03  3.842376E+04 -1.024474E+05 -3.057886E+04 -4.694241E+04
       217  23  8.134944E+05  3.719502E+02  2.120395E+04 -8.672315E+04 -2.000635E+04 -4.139122E+04
       217  24  8.148790E+05 -3.436792E+02  1.213593E+04 -1.024466E+05 -9.430944E+03 -3.398320E+04
       217  25  1.552604E+06  1.816388E+05  1.793499E+05 -1.043095E+05 -2.405123E+04 -4.693566E+04
       217  26  1.433755E+06  1.476059E+05  1.379152E+05 -8.697964E+04 -1.083452E+04 -4.138597E+04
       217  27  1.318087E+06  1.190394E+05  1.064573E+05 -1.010958E+05  2.382664E+03 -3.398033E+04
       218   1  3.910566E+05 -1.004013E+05 -6.967802E+04 -1.029259E+05  1.900483E+04  2.913232E+04
       218   2  5.077785E+05 -7.282935E+04 -5.194977E+04 -8.704771E+04  1.658807E+04  2.098036E+04
       218   3  6.248993E+05 -4.506503E+04 -3.259501E+04 -1.026553E+05  1.416879E+04  1.270229E+04
       218   4  8.143832E+05 -1.140818E+01  9.225488E+03 -1.024553E+05  7.548433E+03  2.913078E+04
       218   5  8.141864E+05 -1.522311E+02  5.252871E+03 -8.671291E+04  4.950438E+03  2.098025E+04
       218   6  8.144077E+05 -6.856451E+01  3.031642E+03 -1.024555E+05  2.350359E+03  1.270367E+04
       218   7  1.237883E+06  1.003683E+05  8.812184E+04 -1.019843E+05 -3.915576E+03  2.912923E+04
       218   8  1.120685E+06  7.251955E+04  6.245200E+04 -8.637793E+04 -6.692791E+03  2.098012E+04
       218   9  1.003951E+06  4.492589E+04  3.865725E+04 -1.022555E+05 -9.471588E+03  1.270504E+04
       218  10  3.910560E+05 -1.004024E+05 -6.968029E+04 -1.029264E+05 -1.999923E-10 -7.936596E-14
       218  11  5.077781E+05 -7.282990E+04 -5.195112E+04 -8.704799E+04  9.980157E-10  3.725415E-10
       218  12  6.248991E+05 -4.506526E+04 -3.259569E+04 -1.026555E+05  7.583020E-10 -3.907617E-10
       218  13  8.143829E+05 -1.233510E+01  9.223786E+03 -1.024555E+05 -8.072412E-10  5.707304E-11
       218  14  8.141862E+05 -1.527106E+02  5.251997E+03 -8.671299E+04  5.257002E-10  3.706725E-10
       218  15  8.144076E+05 -6.873937E+01  3.031328E+03 -1.024555E+05 -9.849363E-11  2.625441E-10
       218  16  1.237883E+06  1.003674E+05  8.812022E+04 -1.019842E+05  2.458236E-10 -6.294755E-11
       218  17  1.120685E+06  7.251907E+04  6.245109E+04 -8.637782E+04 -1.780521E-09  4.329269E-10
       218  18  1.003951E+06  4.492570E+04  3.865678E+04 -1.022554E+05 -1.846444E-09  4.358267E-10
       218  19  3.910566E+05 -1.004013E+05 -6.967802E+04 -1.029259E+05 -1.900483E+04 -2.913232E+04
       218  20  5.077785E+05 -7.282935E+04 -5.194977E+04 -8.704771E+04 -1.658807E+04 -2.098036E+04
       218  21  6.248993E+05 -4.506503E+04 -3.259501E+04 -1.026553E+05 -1.416879E+04 -1.270229E+04
       218  22  8.143832E+05 -1.140818E+01  9.225488E+03 -1.024553E+05 -7.548433E+03 -2.913078E+04
       218  23  8.141864E+05 -1.522311E+02  5.252871E+03 -8.671291E+04 -4.950438E+03 -2.098025E+04
       218  24  8.144077E+05 -6.856451E+01  3.031642E+03 -1.024555E+05 -2.350359E+03 -1.270367E+04
       218  25  1.237883E+06  1.003683E+05  8.812184E+04 -1.019843E+05  3.915576E+03 -2.912923E+04
       218  26  1.120685E+06  7.251955E+04  6.245200E+04 -8.637793E+04  6.692791E+03 -2.098012E+04
       218  27  1.003951E+06  4.492589E+04  3.865725E+04 -1.022555E+05  9.471588E+03 -1.270504E+04
       219   1  7.043086E+05 -2.608211E+04 -1.793905E+04 -1.026003E+05  1.365886E+04  7.848701E+03
       219   2  8.211158E+05  1.583381E+03  2.610443E+03 -8.681590E+04  1.300743E+04 -4.764594E+02
       219   3  9.380286E+05  2.925702E+04  2.358598E+04 -1.025033E+05  1.235593E+04 -8.810056E+03
       219   4  8.143402E+05 -4.532372E+01  2.307383E+03 -1.024526E+05  1.865775E+03  7.850504E+03
       219   5  8.142938E+05 -3.308884E+01  1.343696E+03 -8.671664E+04  1.201143E+03 -4.747041E+02
       219   6  8.143400E+05 -1.032855E+01  8.143653E+02 -1.024526E+05  5.365524E+02 -8.808318E+03
       219   7  9.243837E+05  2.599085E+04  2.255384E+04 -1.023047E+05 -9.929344E+03  7.852302E+03
       219   8  8.074721E+05 -1.649487E+03  7.747087E+01 -8.661738E+04 -1.060502E+04 -4.729526E+02
       219   9  6.906665E+05 -2.927847E+04 -2.195736E+04 -1.024019E+05 -1.128054E+04 -8.806581E+03
       219  10  7.043084E+05 -2.608222E+04 -1.793952E+04 -1.026004E+05 -7.934098E-10 -5.502503E-10
       219  11  8.211157E+05  1.583335E+03  2.610125E+03 -8.681590E+04 -5.020486E-10 -2.989512E-10
       219  12  9.380284E+05  2.925690E+04  2.358555E+04 -1.025032E+05 -6.874596E-10 -4.321512E-10
       219  13  8.143402E+05 -4.539086E+01  2.307260E+03 -1.024526E+05  8.423626E-12 -5.095768E-11
       219  14  8.142938E+05 -3.308946E+01  1.343693E+03 -8.671664E+04 -1.487129E-10  3.206631E-10
       219  15  8.143400E+05 -1.041197E+01  8.142190E+02 -1.024526E+05 -1.183656E-09  1.343388E-10
       219  16  9.243836E+05  2.599075E+04  2.255354E+04 -1.023047E+05  1.567674E-10  5.248364E-10
       219  17  8.074720E+05 -1.649517E+03  7.725937E+01 -8.661738E+04  2.363024E-09  8.621333E-10
       219  18  6.906663E+05 -2.927859E+04 -2.195774E+04 -1.024020E+05  8.867681E-10  8.887538E-10
       219  19  7.043086E+05 -2.608211E+04 -1.793905E+04 -1.026003E+05 -1.365886E+04 -7.848701E+03
       219  20  8.211158E+05  1.583381E+03  2.610443E+03 -8.681590E+04 -1.300743E+04  4.764594E+02
       219  21  9.380286E+05  2.925702E+04  2.358598E+04 -1.025033E+05 -1.235593E+04  8.810056E+03
       219  22  8.143402E+05 -4.532372E+01  2.307383E+03 -1.024526E+05 -1.865775E+03 -7.850504E+03
       219  23  8.142938E+05 -3.308884E+01  1.343696E+03 -8.671664E+04 -1.201143E+03  4.747041E+02
       219  24  8.143400E+05 -1.032855E+01  8.143653E+02 -1.024526E+05 -5.365524E+02  8.808318E+03
       219  25  9.243837E+05  2.599085E+04  2.255384E+04 -1.023047E+05  9.929344E+03 -7.852302E+03
       219  26  8.074721E+05 -1.649487E+03  7.747087E+01 -8.661738E+04  1.060502E+04  4.729526E+02
       219  27  6.906665E+05 -2.927847E+04 -2.195736E+04 -1.024019E+05  1.128054E+04  8.806581E+03
       220   1  1.017512E+06  4.820995E+04  3.880143E+04 -1.025073E+05  1.222557E+04 -1.366345E+04
       220   2  1.134452E+06  7.585587E+04  6.013535E+04 -8.672012E+04  1.198811E+04 -2.199877E+04
       220   3  1.251462E+06  1.035006E+05  8.162835E+04 -1.024286E+05  1.175288E+04 -3.032742E+04
       220   4  8.143265E+05 -1.445161E+01  6.523402E+02 -1.024581E+05  4.022034E+02 -1.366218E+04
       220   5  8.142869E+05 -4.025484E+01  4.625545E+02 -8.670979E+04  1.732330E+02 -2.199905E+04
       220   6  8.143023E+05 -6.813832E+01  4.257973E+02 -1.024581E+05 -5.346543E+01 -3.032922E+04
       220   7  6.111814E+05 -4.824117E+04 -3.749802E+04 -1.024089E+05 -1.141739E+04 -1.366092E+04
       220   8  4.942212E+05 -7.594220E+04 -5.921409E+04 -8.669946E+04 -1.163572E+04 -2.199933E+04
       220   9  3.773276E+05 -1.036477E+05 -8.078432E+04 -1.024875E+05 -1.185173E+04 -3.033102E+04
       220  10  1.017511E+06  4.820971E+04  3.880080E+04 -1.025071E+05 -1.188063E-09 -2.608475E-10
       220  11  1.134452E+06  7.585531E+04  6.013417E+04 -8.671991E+04 -1.188905E-10  3.585551E-10
       220  12  1.251462E+06  1.034996E+05  8.162636E+04 -1.024283E+05 -3.888799E-10  1.182568E-10
       220  13  8.143264E+05 -1.465216E+01  6.519890E+02 -1.024581E+05  8.339000E-11  5.199815E-11
       220  14  8.142868E+05 -4.077473E+01  4.616447E+02 -8.670979E+04  3.576708E-11  8.105409E-11
       220  15  8.143021E+05 -6.912647E+01  4.240681E+02 -1.024581E+05 -9.864139E-10 -1.293576E-10
       220  16  6.111812E+05 -4.824141E+04 -3.749862E+04 -1.024091E+05  7.938259E-10  5.204102E-10
       220  17  4.942209E+05 -7.594275E+04 -5.921526E+04 -8.669966E+04  2.798825E-10 -1.955537E-10
       220  18  3.773272E+05 -1.036488E+05 -8.078631E+04 -1.024878E+05  5.560155E-10 -4.234102E-10
       220  19  1.017512E+06  4.820995E+04  3.880143E+04 -1.025073E+05 -1.222557E+04  1.366345E+04
       220  20  1.134452E+06  7.585587E+04  6.013535E+04 -8.672012E+04 -1.198811E+04  2.199877E+04
       220  21  1.251462E+06  1.035006E+05  8.162835E+04 -1.024286E+05 -1.175288E+04  3.032742E+04
       220  22  8.143265E+05 -1.445161E+01  6.523402E+02 -1.024581E+05 -4.022034E+02  1.366218E+04
       220  23  8.142869E+05 -4.025484E+01  4.625545E+02 -8.670979E+04 -1.732330E+02  2.199905E+04
       220  24  8.143023E+05 -6.813832E+01  4.257973E+02 -1.024581E+05  5.346543E+01  3.032922E+04
       220  25  6.111814E+05 -4.824117E+04 -3.749802E+04 -1.024089E+05  1.141739E+04  1.366092E+04
       220  26  4.942212E+05 -7.594220E+04 -5.921409E+04 -8.669946E+04  1.163572E+04  2.199933E+04
       220  27  3.773276E+05 -1.036477E+05 -8.078432E+04 -1.024875E+05  1.185173E+04  3.033102E+04
       221   1  1.331113E+06  1.224686E+05  9.706290E+04 -1.024142E+05  1.171323E+04 -3.518668E+04
       221   2  1.448286E+06  1.501522E+05  1.188636E+05 -8.652454E+04  1.118323E+04 -4.345771E+04
       221   3  1.565643E+06  1.778859E+05  1.410425E+05 -1.021946E+05  1.065752E+04 -5.156821E+04
       221   4  8.143046E+05 -8.651493E+01  4.581879E+02 -1.024725E+05 -1.329409E+02 -3.518986E+04
       221   5  8.142138E+05 -1.462334E+02  6.167477E+02 -8.669172E+04 -4.358707E+02 -4.346389E+04
       221   6  8.142565E+05 -1.940726E+02  9.964350E+02 -1.024725E+05 -7.344055E+02 -5.157729E+04
       221   7  2.977542E+05 -1.226569E+05 -9.615748E+04 -1.025308E+05 -1.196952E+04 -3.519303E+04
       221   8  1.805301E+05 -1.504677E+05 -1.176468E+05 -8.685871E+04 -1.204343E+04 -4.347007E+04
       221   9  6.341515E+04 -1.783064E+05 -1.390732E+05 -1.027501E+05 -1.211292E+04 -5.158636E+04
       221  10  1.331113E+06  1.224672E+05  9.706031E+04 -1.024139E+05 -1.581822E-09  2.127074E-10
       221  11  1.448285E+06  1.501501E+05  1.188599E+05 -8.652415E+04 -1.605544E-09 -5.133930E-10
       221  12  1.565642E+06  1.778830E+05  1.410372E+05 -1.021942E+05 -6.755541E-10 -6.921154E-10
       221  13  8.143043E+05 -8.784519E+01  4.558599E+02 -1.024726E+05  5.218808E-10 -2.059906E-10
       221  14  8.142133E+05 -1.482628E+02  6.131959E+02 -8.669173E+04 -8.909567E-10 -5.695414E-10
       221  15  8.142558E+05 -1.969305E+02  9.914330E+02 -1.024726E+05  9.896053E-10 -4.568712E-10
       221  16  2.977537E+05 -1.226583E+05 -9.616008E+04 -1.025312E+05  7.318120E-10 -7.190792E-10
       221  17  1.805294E+05 -1.504698E+05 -1.176507E+05 -8.685913E+04 -5.437795E-11 -7.686968E-10
       221  18  6.341428E+04 -1.783093E+05 -1.390785E+05 -1.027506E+05  2.580883E-10  3.814615E-10
       221  19  1.331113E+06  1.224686E+05  9.706290E+04 -1.024142E+05 -1.171323E+04  3.518668E+04
       221  20  1.448286E+06  1.501522E+05  1.188636E+05 -8.652454E+04 -1.118323E+04  4.345771E+04
       221  21  1.565643E+06  1.778859E+05  1.410425E+05 -1.021946E+05 -1.065752E+04  5.156821E+04
       221  22  8.143046E+05 -8.651493E+01  4.581879E+02 -1.024725E+05  1.329409E+02  3.518986E+04
       221  23  8.142138E+05 -1.462334E+02  6.167477E+02 -8.669172E+04  4.358707E+02  4.346389E+04
       221  24  8.142565E+05 -1.940726E+02  9.964350E+02 -1.024725E+05  7.344055E+02  5.157729E+04
       221  25  2.977542E+05 -1.226569E+05 -9.615748E+04 -1.025308E+05  1.196952E+04  3.519303E+04
       221  26  1.805301E+05 -1.504677E+05 -1.176468E+05 -8.685871E+04  1.204343E+04  4.347007E+04
       221  27  6.341515E+04 -1.783064E+05 -1.390732E+05 -1.027501E+05  1.211292E+04  5.158636E+04
       222   1  1.645700E+06  1.968929E+05  1.568160E+05 -1.020193E+05  1.092002E+04 -5.643099E+04
       222   2  1.762913E+06  2.248892E+05  1.804387E+05 -8.621697E+04  6.405291E+03 -6.357748E+04
       222   3  1.881200E+06  2.539794E+05  2.073167E+05 -1.019397E+05  1.893193E+03 -6.830722E+04
       222   4  8.143051E+05 -2.550623E+02  1.289229E+03 -1.024649E+05 -9.324200E+02 -5.644249E+04
       222   5  8.140359E+05 -2.532743E+02  2.187870E+03 -8.670111E+04 -2.016157E+03 -6.359112E+04
       222   6  8.142325E+05  2.489509E+02  3.964300E+03 -1.024653E+05 -3.096387E+03 -6.832117E+04
       222   7 -1.642297E+04 -1.974429E+05 -1.542668E+05 -1.029100E+05 -1.276942E+04 -5.645399E+04
       222   8 -1.339728E+05 -2.254478E+05 -1.761019E+05 -8.718457E+04 -1.042508E+04 -6.360476E+04
       222   9 -2.516402E+05 -2.535483E+05 -1.994394E+05 -1.029900E+05 -8.077612E+03 -6.833512E+04
       222  10  1.645699E+06  1.968895E+05  1.568098E+05 -1.020188E+05  8.190023E-10 -7.679640E-10
       222  11  1.762912E+06  2.248848E+05  1.804310E+05 -8.621665E+04  4.304052E-10 -6.202937E-10
       222  12  1.881198E+06  2.539744E+05  2.073079E+05 -1.019396E+05 -1.139391E-09 -1.020376E-09
       222  13  8.143042E+05 -2.584848E+02  1.283239E+03 -1.024650E+05 -5.721710E-10 -3.686221E-10
       222  14  8.140349E+05 -2.576194E+02  2.180260E+03 -8.670121E+04 -2.263812E-09 -3.181804E-10
       222  15  8.142313E+05  2.439340E+02  3.955507E+03 -1.024654E+05 -1.863501E-09 -2.588966E-10
       222  16 -1.642400E+04 -1.974463E+05 -1.542731E+05 -1.029106E+05 -5.510693E-10  4.151575E-10
       222  17 -1.339740E+05 -2.254522E+05 -1.761097E+05 -8.718510E+04 -2.456868E-09  1.587041E-09
       222  18 -2.516416E+05 -2.535534E+05 -1.994483E+05 -1.029905E+05 -6.533142E-10  1.030956E-09
       222  19  1.645700E+06  1.968929E+05  1.568160E+05 -1.020193E+05 -1.092002E+04  5.643099E+04
       222  20  1.762913E+06  2.248892E+05  1.804387E+05 -8.621697E+04 -6.405291E+03  6.357748E+04
       222  21  1.881200E+06  2.539794E+05  2.073167E+05 -1.019397E+05 -1.893193E+03  6.830722E+04
       222  22  8.143051E+05 -2.550623E+02  1.289229E+03 -1.024649E+05  9.324200E+02  5.644249E+04
       222  23  8.140359E+05 -2.532743E+02  2.187870E+03 -8.670111E+04  2.016157E+03  6.359112E+04
       222  24  8.142325E+05  2.489509E+02  3.964300E+03 -1.024653E+05  3.096387E+03  6.832117E+04
       222  25 -1.642297E+04 -1.974429E+05 -1.542668E+05 -1.029100E+05  1.276942E+04  5.645399E+04
       222  26 -1.339728E+05 -2.254478E+05 -1.761019E+05 -8.718457E+04  1.042508E+04  6.360476E+04
       222  27 -2.516402E+05 -2.535483E+05 -1.994394E+05 -1.029900E+05  8.077612E+03  6.833512E+04
       223   1  1.963659E+06  2.727426E+05  2.245134E+05 -9.951443E+04  7.639746E+03 -7.303953E+04
       223   2  2.076078E+06  3.055979E+05  2.657186E+05 -9.021523E+04 -4.657948E+04 -6.372289E+04
       223   3  2.200990E+06  3.588796E+05  3.473227E+05 -1.105723E+05 -1.008750E+05 -1.957504E+04
       223   4  8.149665E+05 -5.042336E+02  5.143123E+03 -1.020450E+05 -3.774242E+03 -7.306197E+04
       223   5  8.129542E+05  2.096055E+03  9.157368E+03 -8.722754E+04 -8.523724E+03 -6.368512E+04
       223   6  8.148666E+05  1.657108E+04  1.929428E+04 -1.020662E+05 -1.333725E+04 -1.944582E+04
       223   7 -3.324576E+05 -2.738285E+05 -2.142865E+05 -1.045709E+05 -1.516766E+04 -7.308434E+04
       223   8 -4.486529E+05 -3.015042E+05 -2.474818E+05 -8.424639E+04  2.945627E+04 -6.364696E+04
       223   9 -5.694798E+05 -3.258706E+05 -3.088386E+05 -9.357960E+04  7.400670E+04 -1.931408E+04
       223  10  1.963657E+06  2.727369E+05  2.245032E+05 -9.951398E+04 -1.008121E-09 -1.932279E-09
       223  11  2.076075E+06  3.055930E+05  2.657069E+05 -9.021762E+04 -1.342820E-09 -3.751302E-09
       223  12  2.200979E+06  3.588765E+05  3.473029E+05 -1.105738E+05 -3.447360E-09 -1.242301E-09
       223  13  8.149650E+05 -5.099718E+02  5.133061E+03 -1.020452E+05 -2.010254E-09 -4.521692E-09
       223  14  8.129531E+05  2.091679E+03  9.149606E+03 -8.722798E+04  1.762332E-09  2.414385E-09
       223  15  8.148663E+05  1.657062E+04  1.929323E+04 -1.020664E+05 -1.100773E-10 -1.543998E-10
       223  16 -3.324593E+05 -2.738343E+05 -2.142970E+05 -1.045718E+05 -1.056788E-09 -1.294573E-10
       223  17 -4.486549E+05 -3.015088E+05 -2.474910E+05 -8.424488E+04  1.040660E-09  1.729001E-09
       223  18 -5.694858E+05 -3.258725E+05 -3.088496E+05 -9.357845E+04  2.493775E-09 -1.565995E-09
       223  19  1.963659E+06  2.727426E+05  2.245134E+05 -9.951443E+04 -7.639746E+03  7.303953E+04
       223  20  2.076078E+06  3.055979E+05  2.657186E+05 -9.021523E+04  4.657948E+04  6.372289E+04
       223  21  2.200990E+06  3.588796E+05  3.473227E+05 -1.105723E+05  1.008750E+05  1.957504E+04
       223  22  8.149665E+05 -5.042336E+02  5.143123E+03 -1.020450E+05  3.774242E+03  7.306197E+04
       223  23  8.129542E+05  2.096055E+03  9.157368E+03 -8.722754E+04  8.523724E+03  6.368512E+04
       223  24  8.148666E+05  1.657108E+04  1.929428E+04 -1.020662E+05  1.333725E+04  1.944582E+04
       223  25 -3.324576E+05 -2.738285E+05 -2.142865E+05 -1.045709E+05  1.516766E+04  7.308434E+04
       223  26 -4.486529E+05 -3.015042E+05 -2.474818E+05 -8.424639E+04 -2.945627E+04  6.364696E+04
       223  27 -5.694798E+05 -3.258706E+05 -3.088386E+05 -9.357960E+04 -7.400670E+04  1.931408E+04
       224   1  5.278298E+05  2.089155E+06  5.133900E+05 -4.476674E+05  2.312661E+04  1.225179E+05
       224   2  3.720932E+05  1.588664E+06  3.321342E+05 -3.736706E+05  6.916670E+04  3.862975E+04
       224   3  2.490244E+05  1.107348E+06  2.135245E+05 -4.282997E+05  6.199563E+04 -4.525453E+04
       224   4  2.815151E+04  7.088057E+04  3.098137E+04 -4.288171E+05  2.332703E+04  1.960215E+04
       224   5  5.075991E+03  6.816872E+04  1.622246E+04 -3.645252E+05  6.923878E+04  1.130443E+04
       224   6  1.628260E+03  7.135542E+04  1.175610E+04 -4.288698E+05  6.188261E+04  2.943051E+03
       224   7 -4.718147E+05 -1.943645E+06 -4.516746E+05 -4.100252E+05  2.352163E+04 -8.298141E+04
       224   8 -3.620875E+05 -1.450140E+06 -2.998130E+05 -3.554008E+05  6.931016E+04 -1.595524E+04
       224   9 -2.458309E+05 -9.636035E+05 -1.900546E+05 -4.294379E+05  6.176940E+04  5.106208E+04
       224  10  5.278253E+05  2.089139E+06  5.133609E+05 -4.476696E+05 -7.221981E-10 -1.585471E-09
       224  11  3.720877E+05  1.588662E+06  3.321224E+05 -3.736727E+05 -2.156714E-09  2.352392E-09
       224  12  2.490197E+05  1.107345E+06  2.135134E+05 -4.282975E+05 -4.076859E-10 -1.973698E-11
       224  13  2.815082E+04  7.088001E+04  3.097963E+04 -4.288174E+05  5.858135E-10  1.263176E-09
       224  14  5.070808E+03  6.816729E+04  1.621321E+04 -3.645258E+05 -3.140651E-09  7.980604E-10
       224  15  1.624145E+03  7.135438E+04  1.174889E+04 -4.288699E+05 -1.342927E-09  1.296802E-09
       224  16 -4.718172E+05 -1.943653E+06 -4.516886E+05 -4.100237E+05 -4.536750E-10  3.510756E-09
       224  17 -3.620928E+05 -1.450141E+06 -2.998225E+05 -3.553999E+05 -1.810421E-09 -2.949763E-09
       224  18 -2.458357E+05 -9.636074E+05 -1.900667E+05 -4.294405E+05 -1.499364E-09  1.789605E-09
       224  19  5.278298E+05  2.089155E+06  5.133900E+05 -4.476674E+05 -2.312661E+04 -1.225179E+05
       224  20  3.720932E+05  1.588664E+06  3.321342E+05 -3.736706E+05 -6.916670E+04 -3.862975E+04
       224  21  2.490244E+05  1.107348E+06  2.135245E+05 -4.282997E+05 -6.199563E+04  4.525453E+04
       224  22  2.815151E+04  7.088057E+04  3.098137E+04 -4.288171E+05 -2.332703E+04 -1.960215E+04
       224  23  5.075991E+03  6.816872E+04  1.622246E+04 -3.645252E+05 -6.923878E+04 -1.130443E+04
       224  24  1.628260E+03  7.135542E+04  1.175610E+04 -4.288698E+05 -6.188261E+04 -2.943051E+03
       224  25 -4.718147E+05 -1.943645E+06 -4.516746E+05 -4.100252E+05 -2.352163E+04  8.298141E+04
       224  26 -3.620875E+05 -1.450140E+06 -2.998130E+05 -3.554008E+05 -6.931016E+04  1.595524E+04
       224  27 -2.458309E+05 -9.636035E+05 -1.900546E+05 -4.294379E+05 -6.176940E+04 -5.106208E+04
       225   1  1.700077E+05  7.704533E+05  1.475727E+05 -4.316542E+05  4.187188E+04 -3.786525E+04
       225   2  5.180590E+04  2.796138E+05  5.175544E+04 -3.639968E+05  1.406909E+04 -4.500977E+04
       225   3 -6.278525E+04 -2.097550E+05 -3.868395E+04 -4.279415E+05 -1.444796E+04 -5.215566E+04
       225   4  2.774397E+03  7.039617E+04  1.115230E+04 -4.295214E+05  4.177317E+04  1.051467E+03
       225   5  1.959442E+03  6.989761E+04  1.219521E+04 -3.637174E+05  1.396464E+04 -5.092628E+03
       225   6  4.593600E+03  7.046240E+04  1.792301E+04 -4.295168E+05 -1.455884E+04 -1.124344E+04
       225   7 -1.644874E+05 -6.291879E+05 -1.252857E+05 -4.273906E+05  4.167466E+04  3.992531E+04
       225   8 -4.788872E+04 -1.397727E+05 -2.736097E+04 -3.634380E+05  1.386021E+04  3.481137E+04
       225   9  7.196848E+04  3.507583E+05  7.453221E+04 -4.310929E+05 -1.466991E+04  2.968689E+04
       225  10  1.700054E+05  7.704513E+05  1.475667E+05 -4.316529E+05 -1.155848E-09 -2.581205E-09
       225  11  5.180515E+04  2.796116E+05  5.175127E+04 -3.639963E+05 -1.224400E-09  2.476770E-09
       225  12 -6.278620E+04 -2.097580E+05 -3.868946E+04 -4.279421E+05  3.823620E-10  4.555050E-10
       225  13  2.772522E+03  7.039570E+04  1.114902E+04 -4.295214E+05 -8.545077E-10  2.168586E-09
       225  14  1.959226E+03  6.989753E+04  1.219480E+04 -3.637173E+05 -3.022277E-10  1.065284E-09
       225  15  4.593339E+03  7.046221E+04  1.792237E+04 -4.295170E+05 -4.756975E-10  1.515698E-09
       225  16 -1.644897E+05 -6.291900E+05 -1.252920E+05 -4.273919E+05 -9.060525E-10  5.861167E-09
       225  17 -4.788926E+04 -1.397741E+05 -2.736361E+04 -3.634384E+05  1.313669E-09 -4.052946E-09
       225  18  7.196802E+04  3.507573E+05  7.453015E+04 -4.310925E+05 -2.811284E-10  1.530197E-09
       225  19  1.700077E+05  7.704533E+05  1.475727E+05 -4.316542E+05 -4.187188E+04  3.786525E+04
       225  20  5.180590E+04  2.796138E+05  5.175544E+04 -3.639968E+05 -1.406909E+04  4.500977E+04
       225  21 -6.278525E+04 -2.097550E+05 -3.868395E+04 -4.279415E+05  1.444796E+04  5.215566E+04
       225  22  2.774397E+03  7.039617E+04  1.115230E+04 -4.295214E+05 -4.177317E+04 -1.051467E+03
       225  23  1.959442E+03  6.989761E+04  1.219521E+04 -3.637174E+05 -1.396464E+04  5.092628E+03
       225  24  4.593600E+03  7.046240E+04  1.792301E+04 -4.295168E+05  1.455884E+04  1.124344E+04
       225  25 -1.644874E+05 -6.291879E+05 -1.252857E+05 -4.273906E+05 -4.167466E+04 -3.992531E+04
       225  26 -4.788872E+04 -1.397727E+05 -2.736097E+04 -3.634380E+05 -1.386021E+04 -3.481137E+04
       225  27  7.196848E+04  3.507583E+05  7.453221E+04 -4.310929E+05  1.466991E+04 -2.968689E+04
       226   1 -1.457293E+05 -5.419950E+05 -9.962791E+04 -4.342801E+05 -3.457963E+04 -6.248905E+04
       226   2 -2.546926E+05 -1.033956E+06 -1.936995E+05 -3.454436E+05 -4.724777E+04 -2.137967E+04
       226   3 -3.258564E+05 -1.521905E+06 -3.052090E+05 -3.858858E+05 -1.695217E+04  1.976305E+04
       226   4  1.706796E+03  7.334638E+04  2.220574E+04 -4.290176E+05 -3.470593E+04 -1.435355E+04
       226   5  1.184305E+04  6.601980E+04  3.786614E+04 -3.643202E+05 -4.721070E+04 -3.402817E+04
       226   6  7.030517E+04  7.300052E+04  7.830370E+04 -4.288687E+05 -1.678958E+04 -5.363699E+04
       226   7  1.491212E+05  6.890552E+05  1.440295E+05 -4.237493E+05 -3.483134E+04  3.382870E+04
       226   8  2.783020E+05  1.167140E+06  2.693645E+05 -3.832299E+05 -4.717291E+04 -4.669871E+04
       226   9  4.662909E+05  1.670254E+06  4.616565E+05 -4.719606E+05 -1.661708E+04 -1.272251E+05
       226  10 -1.457316E+05 -5.419995E+05 -9.963751E+04 -4.342819E+05  9.684261E-10 -1.516575E-09
       226  11 -2.546951E+05 -1.033957E+06 -1.937045E+05 -3.454444E+05  3.868407E-11  1.964243E-09
       226  12 -3.258568E+05 -1.521906E+06 -3.052102E+05 -3.858856E+05  9.898908E-11 -1.136088E-10
       226  13  1.705447E+03  7.334584E+04  2.220309E+04 -4.290180E+05  1.495340E-09  2.240234E-09
       226  14  1.184035E+04  6.601796E+04  3.785977E+04 -3.643215E+05 -2.372101E-09  9.611264E-10
       226  15  7.030409E+04  7.299736E+04  7.829776E+04 -4.288694E+05  7.595868E-10  1.015576E-09
       226  16  1.491196E+05  6.890536E+05  1.440250E+05 -4.237484E+05 -4.625617E-10  5.019496E-09
       226  17  2.782991E+05  1.167137E+06  2.693562E+05 -3.832316E+05  1.234509E-09 -3.475234E-09
       226  18  4.662863E+05  1.670236E+06  4.616256E+05 -4.719623E+05  1.274358E-09  1.355589E-09
       226  19 -1.457293E+05 -5.419950E+05 -9.962791E+04 -4.342801E+05  3.457963E+04  6.248905E+04
       226  20 -2.546926E+05 -1.033956E+06 -1.936995E+05 -3.454436E+05  4.724777E+04  2.137967E+04
       226  21 -3.258564E+05 -1.521905E+06 -3.052090E+05 -3.858858E+05  1.695217E+04 -1.976305E+04
       226  22  1.706796E+03  7.334638E+04  2.220574E+04 -4.290176E+05  3.470593E+04  1.435355E+04
       226  23  1.184305E+04  6.601980E+04  3.786614E+04 -3.643202E+05  4.721070E+04  3.402817E+04
       226  24  7.030517E+04  7.300052E+04  7.830370E+04 -4.288687E+05  1.678958E+04  5.363699E+04
       226  25  1.491212E+05  6.890552E+05  1.440295E+05 -4.237493E+05  3.483134E+04 -3.382870E+04
       226  26  2.783020E+05  1.167140E+06  2.693645E+05 -3.832299E+05  4.717291E+04  4.669871E+04
       226  27  4.662909E+05  1.670254E+06  4.616565E+05 -4.719606E+05  1.661708E+04  1.272251E+05
       227   1 -1.419433E+06 -6.216516E+05 -3.593949E+05 -5.671048E+05 -1.582511E+05 -4.752441E+04
       227   2 -1.341989E+06 -4.247398E+05 -2.184460E+05 -5.345998E+05 -9.926821E+04  8.982316E+02
       227   3 -1.296173E+06 -3.511753E+05 -1.568024E+05 -4.960384E+05 -3.269366E+04  2.918232E+04
       227   4 -7.596000E+05 -2.956433E+05 -1.718971E+05 -3.066508E+05 -1.145514E+05 -3.111896E+04
       227   5 -7.369224E+05 -1.695141E+05 -7.783279E+04 -3.348778E+05 -8.218895E+04  7.307989E+03
       227   6 -7.405489E+05 -1.613966E+05 -4.190238E+04 -3.570663E+05 -4.224766E+04  2.559078E+04
       227   7 -9.932946E+04  3.049270E+04  1.556650E+04 -4.591606E+04 -7.080136E+04 -1.468071E+04
       227   8 -1.314834E+05  8.577188E+04  6.275655E+04 -1.349661E+05 -6.509171E+04  1.372672E+04
       227   9 -1.846067E+05  2.839830E+04  7.298256E+04 -2.179833E+05 -5.181095E+04  2.199631E+04
       227  10 -1.419460E+06 -6.216608E+05 -3.594464E+05 -5.671109E+05 -3.251606E-10  4.326149E-10
       227  11 -1.341999E+06 -4.247425E+05 -2.184646E+05 -5.345997E+05  1.610085E-11 -4.922017E-10
       227  12 -1.296174E+06 -3.511765E+05 -1.568060E+05 -4.960376E+05 -1.042441E-09 -6.330945E-10
       227  13 -7.596143E+05 -2.956479E+05 -1.719236E+05 -3.066536E+05  2.910609E-10 -8.741423E-11
       227  14 -7.369297E+05 -1.695160E+05 -7.784559E+04 -3.348773E+05 -2.465171E-10 -1.672597E-11
       227  15 -7.405510E+05 -1.613978E+05 -4.190697E+04 -3.570655E+05  5.409012E-10 -4.817247E-10
       227  16 -9.933491E+04  3.049112E+04  1.555667E+04 -4.591690E+04 -3.138052E-10 -7.256743E-10
       227  17 -1.314880E+05  8.577054E+04  6.274823E+04 -1.349654E+05 -3.340241E-10  1.822060E-09
       227  18 -1.846097E+05  2.839706E+04  7.297661E+04 -2.179824E+05  6.032053E-10  1.892474E-09
       227  19 -1.419433E+06 -6.216516E+05 -3.593949E+05 -5.671048E+05  1.582511E+05  4.752441E+04
       227  20 -1.341989E+06 -4.247398E+05 -2.184460E+05 -5.345998E+05  9.926821E+04 -8.982316E+02
       227  21 -1.296173E+06 -3.511753E+05 -1.568024E+05 -4.960384E+05  3.269366E+04 -2.918232E+04
       227  22 -7.596000E+05 -2.956433E+05 -1.718971E+05 -3.066508E+05  1.145514E+05  3.111896E+04
       227  23 -7.369224E+05 -1.695141E+05 -7.783279E+04 -3.348778E+05  8.218895E+04 -7.307989E+03
       227  24 -7.405489E+05 -1.613966E+05 -4.190238E+04 -3.570663E+05  4.224766E+04 -2.559078E+04
       227  25 -9.932946E+04  3.049270E+04  1.556650E+04 -4.591606E+04  7.080136E+04  1.468071E+04
       227  26 -1.314834E+05  8.577188E+04  6.275655E+04 -1.349661E+05  6.509171E+04 -1.372672E+04
       227  27 -1.846067E+05  2.839830E+04  7.298256E+04 -2.179833E+05  5.181095E+04 -2.199631E+04
       228   1 -1.219192E+06 -3.469929E+05 -1.344795E+05 -4.881479E+05 -3.064933E+04  2.534483E+04
       228   2 -1.141793E+06 -3.005730E+05 -1.001053E+05 -4.545576E+05 -1.874724E+04  2.463527E+04
       228   3 -1.049594E+06 -2.767645E+05 -7.457641E+04 -4.405869E+05 -6.377886E+03  2.267947E+04
       228   4 -7.352147E+05 -1.675776E+05 -3.218891E+04 -3.524458E+05 -3.584449E+04  2.339113E+04
       228   5 -7.423899E+05 -1.537976E+05 -1.699768E+04 -3.436194E+05 -2.558557E+04  2.206603E+04
       228   6 -7.344441E+05 -1.623007E+05 -9.342716E+03 -3.544149E+05 -1.486096E+04  1.949455E+04
       228   7 -2.510013E+05  1.185690E+04  7.008781E+04 -2.166468E+05 -4.104397E+04  2.143577E+04
       228   8 -3.428232E+05 -7.008744E+03  6.610167E+04 -2.326152E+05 -3.242864E+04  1.949501E+04
       228   9 -4.191896E+05 -4.782811E+04  5.588670E+04 -2.682020E+05 -2.334874E+04  1.630790E+04
       228  10 -1.219193E+06 -3.469938E+05 -1.344825E+05 -4.881472E+05  8.083072E-10  2.708314E-10
       228  11 -1.141793E+06 -3.005737E+05 -1.001071E+05 -4.545573E+05 -9.769568E-10  5.795863E-11
       228  12 -1.049594E+06 -2.767651E+05 -7.457745E+04 -4.405868E+05 -8.958393E-10 -3.215706E-10
       228  13 -7.352162E+05 -1.675785E+05 -3.219235E+04 -3.524452E+05 -1.663776E-09  3.302847E-10
       228  14 -7.423907E+05 -1.537983E+05 -1.699982E+04 -3.436190E+05 -9.596179E-10 -1.232787E-12
       228  15 -7.344444E+05 -1.623012E+05 -9.343845E+03 -3.544147E+05  1.259623E-10  2.239369E-10
       228  16 -2.510032E+05  1.185596E+04  7.008378E+04 -2.166461E+05 -2.666993E-09  7.617907E-10
       228  17 -3.428244E+05 -7.009434E+03  6.609898E+04 -2.326147E+05 -1.032478E-10  1.626895E-11
       228  18 -4.191902E+05 -4.782854E+04  5.588518E+04 -2.682017E+05  2.007877E-10  5.043845E-10
       228  19 -1.219192E+06 -3.469929E+05 -1.344795E+05 -4.881479E+05  3.064933E+04 -2.534483E+04
       228  20 -1.141793E+06 -3.005730E+05 -1.001053E+05 -4.545576E+05  1.874724E+04 -2.463527E+04
       228  21 -1.049594E+06 -2.767645E+05 -7.457641E+04 -4.405869E+05  6.377886E+03 -2.267947E+04
       228  22 -7.352147E+05 -1.675776E+05 -3.218891E+04 -3.524458E+05  3.584449E+04 -2.339113E+04
       228  23 -7.423899E+05 -1.537976E+05 -1.699768E+04 -3.436194E+05  2.558557E+04 -2.206603E+04
       228  24 -7.344441E+05 -1.623007E+05 -9.342716E+03 -3.544149E+05  1.486096E+04 -1.949455E+04
       228  25 -2.510013E+05  1.185690E+04  7.008781E+04 -2.166468E+05  4.104397E+04 -2.143577E+04
       228  26 -3.428232E+05 -7.008744E+03  6.610167E+04 -2.326152E+05  3.242864E+04 -1.949501E+04
       228  27 -4.191896E+05 -4.782811E+04  5.588670E+04 -2.682020E+05  2.334874E+04 -1.630790E+04
       229   1 -9.892163E+05 -2.556889E+05 -5.951137E+04 -4.245332E+05 -3.930223E+03  1.935388E+04
       229   2 -9.123216E+05 -2.152761E+05 -3.884074E+04 -3.906310E+05  4.550270E+02  1.387205E+04
       229   3 -8.178418E+05 -1.930179E+05 -1.974231E+04 -3.772659E+05  4.869093E+03  8.310751E+03
       229   4 -7.340508E+05 -1.625510E+05 -7.041813E+03 -3.541750E+05 -1.215077E+04  1.626826E+04
       229   5 -7.428353E+05 -1.534174E+05 -3.882204E+03 -3.439280E+05 -7.870267E+03  1.074789E+04
       229   6 -7.340213E+05 -1.624176E+05 -2.211178E+03 -3.542203E+05 -3.561267E+03  5.147982E+03
       229   7 -4.788183E+05 -6.940767E+04  4.542464E+04 -2.837902E+05 -2.037496E+04  1.318129E+04
       229   8 -5.733200E+05 -9.155655E+04  3.107493E+04 -2.972134E+05 -1.619798E+04  7.622829E+03
       229   9 -6.501942E+05 -1.318169E+05  1.531969E+04 -3.311721E+05 -1.199279E+04  1.984783E+03
       229  10 -9.892164E+05 -2.556893E+05 -5.951211E+04 -4.245331E+05  1.809795E-09  7.214797E-10
       229  11 -9.123216E+05 -2.152763E+05 -3.884110E+04 -3.906310E+05  2.826389E-09 -9.103862E-11
       229  12 -8.178419E+05 -1.930179E+05 -1.974248E+04 -3.772659E+05  3.485153E-09 -1.002147E-09
       229  13 -7.340510E+05 -1.625513E+05 -7.042588E+03 -3.541749E+05 -4.352797E-10  1.973668E-10
       229  14 -7.428354E+05 -1.534175E+05 -3.882537E+03 -3.439279E+05  7.616331E-10 -5.347282E-10
       229  15 -7.340214E+05 -1.624176E+05 -2.211252E+03 -3.542203E+05  4.636815E-10 -1.550608E-09
       229  16 -4.788188E+05 -6.940797E+04  4.542353E+04 -2.837900E+05 -5.979577E-10 -3.477794E-10
       229  17 -5.733203E+05 -9.155668E+04  3.107433E+04 -2.972133E+05  3.937956E-10 -1.122877E-09
       229  18 -6.501943E+05 -1.318169E+05  1.531942E+04 -3.311720E+05 -1.229811E-09 -2.172763E-09
       229  19 -9.892163E+05 -2.556889E+05 -5.951137E+04 -4.245332E+05  3.930223E+03 -1.935388E+04
       229  20 -9.123216E+05 -2.152761E+05 -3.884074E+04 -3.906310E+05 -4.550270E+02 -1.387205E+04
       229  21 -8.178418E+05 -1.930179E+05 -1.974231E+04 -3.772659E+05 -4.869093E+03 -8.310751E+03
       229  22 -7.340508E+05 -1.625510E+05 -7.041813E+03 -3.541750E+05  1.215077E+04 -1.626826E+04
       229  23 -7.428353E+05 -1.534174E+05 -3.882204E+03 -3.439280E+05  7.870267E+03 -1.074789E+04
       229  24 -7.340213E+05 -1.624176E+05 -2.211178E+03 -3.542203E+05  3.561267E+03 -5.147982E+03
       229  25 -4.788183E+05 -6.940767E+04  4.542464E+04 -2.837902E+05  2.037496E+04 -1.318129E+04
       229  26 -5.733200E+05 -9.155655E+04  3.107493E+04 -2.972134E+05  1.619798E+04 -7.622829E+03
       229  27 -6.501942E+05 -1.318169E+05  1.531969E+04 -3.311721E+05  1.199279E+04 -1.984783E+03
       230   1 -7.582459E+05 -1.711844E+05 -6.460104E+03 -3.608491E+05  6.570111E+03  4.722672E+03
       230   2 -6.814683E+05 -1.309334E+05  1.154478E+04 -3.268777E+05  9.519040E+03 -1.421057E+03
       230   3 -5.868351E+05 -1.086241E+05  2.912763E+04 -3.134392E+05  1.246955E+04 -7.567674E+03
       230   4 -7.339719E+05 -1.624250E+05 -1.718938E+03 -3.542005E+05 -1.845309E+03  1.565659E+03
       230   5 -7.428987E+05 -1.534654E+05 -1.124372E+03 -3.439284E+05  1.099018E+03 -4.580112E+03
       230   6 -7.339783E+05 -1.624483E+05 -9.487647E+02 -3.541931E+05  4.044831E+03 -1.072877E+04
       230   7 -7.096970E+05 -1.536655E+05  3.022560E+03 -3.475514E+05 -1.026115E+04 -1.591509E+03
       230   8 -8.043253E+05 -1.759972E+05 -1.379348E+04 -3.609776E+05 -7.320140E+03 -7.738841E+03
       230   9 -8.810992E+05 -2.162706E+05 -3.102598E+04 -3.949381E+05 -4.377742E+03 -1.388906E+04
       230  10 -7.582459E+05 -1.711844E+05 -6.460227E+03 -3.608492E+05 -6.922332E-09 -4.548014E-09
       230  11 -6.814684E+05 -1.309334E+05  1.154460E+04 -3.268777E+05  1.610587E-08  6.717648E-09
       230  12 -5.868353E+05 -1.086242E+05  2.912723E+04 -3.134391E+05  3.720305E-08  1.674346E-08
       230  13 -7.339719E+05 -1.624250E+05 -1.718949E+03 -3.542005E+05 -2.924195E-10 -1.448264E-09
       230  14 -7.428987E+05 -1.534655E+05 -1.124414E+03 -3.439284E+05  7.337354E-10  5.403117E-10
       230  15 -7.339784E+05 -1.624484E+05 -9.490116E+02 -3.541930E+05  3.147448E-10  3.612440E-09
       230  16 -7.096971E+05 -1.536656E+05  3.022357E+03 -3.475514E+05  6.849940E-09  1.720565E-09
       230  17 -8.043254E+05 -1.759973E+05 -1.379370E+04 -3.609777E+05 -1.775515E-08 -5.228148E-09
       230  18 -8.810992E+05 -2.162708E+05 -3.102638E+04 -3.949381E+05 -3.376071E-08 -9.797927E-09
       230  19 -7.582459E+05 -1.711844E+05 -6.460104E+03 -3.608491E+05 -6.570111E+03 -4.722672E+03
       230  20 -6.814683E+05 -1.309334E+05  1.154478E+04 -3.268777E+05 -9.519040E+03  1.421057E+03
       230  21 -5.868351E+05 -1.086241E+05  2.912763E+04 -3.134392E+05 -1.246955E+04  7.567674E+03
       230  22 -7.339719E+05 -1.624250E+05 -1.718938E+03 -3.542005E+05  1.845309E+03 -1.565659E+03
       230  23 -7.428987E+05 -1.534654E+05 -1.124372E+03 -3.439284E+05 -1.099018E+03  4.580112E+03
       230  24 -7.339783E+05 -1.624483E+05 -9.487647E+02 -3.541931E+05 -4.044831E+03  1.072877E+04
       230  25 -7.096970E+05 -1.536655E+05  3.022560E+03 -3.475514E+05  1.026115E+04  1.591509E+03
       230  26 -8.043253E+05 -1.759972E+05 -1.379348E+04 -3.609776E+05  7.320140E+03  7.738841E+03
       230  27 -8.810992E+05 -2.162706E+05 -3.102598E+04 -3.949381E+05  4.377742E+03  1.388906E+04
       231   1 -5.273507E+05 -8.676745E+04  4.187123E+04 -2.970088E+05  1.401706E+04 -1.120921E+04
       231   2 -4.506826E+05 -4.656026E+04  5.889313E+04 -2.630689E+05  1.705464E+04 -1.731437E+04
       231   3 -3.561801E+05 -2.427161E+04  7.543003E+04 -2.496295E+05  2.008964E+04 -2.340699E+04
       231   4 -7.339891E+05 -1.624478E+05 -9.869818E+02 -3.541866E+05  5.595230E+03 -1.436971E+04
       231   5 -7.429109E+05 -1.534990E+05 -1.343940E+03 -3.439334E+05  8.648012E+03 -2.047051E+04
       231   6 -7.340085E+05 -1.624727E+05 -2.197869E+03 -3.541842E+05  1.169813E+04 -2.655880E+04
       231   7 -9.405820E+05 -2.381238E+05 -4.384672E+04 -4.113463E+05 -2.823520E+03 -1.752905E+04
       231   8 -1.035052E+06 -2.604305E+05 -6.158516E+04 -4.247628E+05  2.456460E+02 -2.362504E+04
       231   9 -1.111693E+06 -3.006628E+05 -7.983365E+04 -4.586809E+05  3.312054E+03 -2.970857E+04
       231  10 -5.273510E+05 -8.676763E+04  4.187063E+04 -2.970087E+05 -3.197516E-08 -9.797721E-09
       231  11 -4.506830E+05 -4.656066E+04  5.889202E+04 -2.630686E+05 -1.627698E-08 -5.934092E-09
       231  12 -3.561807E+05 -2.427231E+04  7.542824E+04 -2.496291E+05  6.469570E-09  1.685660E-09
       231  13 -7.339892E+05 -1.624480E+05 -9.874284E+02 -3.541865E+05  6.805822E-10  3.403285E-09
       231  14 -7.429111E+05 -1.534994E+05 -1.344868E+03 -3.439333E+05 -1.593382E-09 -2.773478E-11
       231  15 -7.340089E+05 -1.624735E+05 -2.199451E+03 -3.541839E+05 -4.315945E-10 -7.596576E-10
       231  16 -9.405821E+05 -2.381242E+05 -4.384731E+04 -4.113463E+05  3.584799E-08  1.638480E-08
       231  17 -1.035052E+06 -2.604311E+05 -6.158621E+04 -4.247628E+05  1.591851E-08  6.710748E-09
       231  18 -1.111693E+06 -3.006638E+05 -7.983533E+04 -4.586809E+05 -7.055971E-09 -2.830980E-09
       231  19 -5.273507E+05 -8.676745E+04  4.187123E+04 -2.970088E+05 -1.401706E+04  1.120921E+04
       231  20 -4.506826E+05 -4.656026E+04  5.889313E+04 -2.630689E+05 -1.705464E+04  1.731437E+04
       231  21 -3.561801E+05 -2.427161E+04  7.543003E+04 -2.496295E+05 -2.008964E+04  2.340699E+04
       231  22 -7.339891E+05 -1.624478E+05 -9.869818E+02 -3.541866E+05 -5.595230E+03  1.436971E+04
       231  23 -7.429109E+05 -1.534990E+05 -1.343940E+03 -3.439334E+05 -8.648012E+03  2.047051E+04
       231  24 -7.340085E+05 -1.624727E+05 -2.197869E+03 -3.541842E+05 -1.169813E+04  2.655880E+04
       231  25 -9.405820E+05 -2.381238E+05 -4.384672E+04 -4.113463E+05  2.823520E+03  1.752905E+04
       231  26 -1.035052E+06 -2.604305E+05 -6.158516E+04 -4.247628E+05 -2.456460E+02  2.362504E+04
       231  27 -1.111693E+06 -3.006628E+05 -7.983365E+04 -4.586809E+05 -3.312054E+03  2.970857E+04
       232   1 -2.968715E+05 -2.471641E+03  8.750926E+04 -2.332702E+05  2.191360E+04 -2.693598E+04
       232   2 -2.203262E+05  3.764459E+04  1.026249E+05 -1.994021E+05  2.666563E+04 -3.231999E+04
       232   3 -1.262730E+05  5.966259E+04  1.159165E+05 -1.859700E+05  3.137563E+04 -3.758157E+04
       232   4 -7.340901E+05 -1.624618E+05 -2.868909E+03 -3.541964E+05  1.350622E+04 -3.009488E+04
       232   5 -7.428571E+05 -1.535077E+05 -5.114773E+03 -3.439415E+05  1.841692E+04 -3.542169E+04
       232   6 -7.341544E+05 -1.626852E+05 -9.311371E+03 -3.541270E+05  2.328521E+04 -4.062612E+04
       232   7 -1.171113E+06 -3.224359E+05 -9.325680E+04 -4.750440E+05  5.105220E+03 -3.325140E+04
       232   8 -1.265106E+06 -3.446362E+05 -1.128678E+05 -4.883681E+05  1.017572E+04 -3.852058E+04
       232   9 -1.341652E+06 -3.850003E+05 -1.345569E+05 -5.221307E+05  1.520338E+04 -4.366745E+04
       232  10 -2.968722E+05 -2.472549E+03  8.750700E+04 -2.332697E+05 -9.871257E-10 -1.101708E-09
       232  11 -2.203272E+05  3.764328E+04  1.026216E+05 -1.994014E+05 -2.568176E-10 -5.801849E-11
       232  12 -1.262745E+05  5.966081E+04  1.159120E+05 -1.859691E+05  1.562732E-09 -3.523510E-10
       232  13 -7.340906E+05 -1.624628E+05 -2.870953E+03 -3.541961E+05  6.612197E-10 -2.724903E-10
       232  14 -7.428578E+05 -1.535091E+05 -5.117767E+03 -3.439410E+05  2.155508E-09  7.010594E-10
       232  15 -7.341554E+05 -1.626872E+05 -9.315489E+03 -3.541262E+05 -1.639931E-11 -8.962856E-10
       232  16 -1.171113E+06 -3.224370E+05 -9.325892E+04 -4.750439E+05  2.322818E-09  2.893515E-10
       232  17 -1.265106E+06 -3.446378E+05 -1.128708E+05 -4.883678E+05  2.568693E-09 -8.578390E-10
       232  18 -1.341652E+06 -3.850024E+05 -1.345609E+05 -5.221302E+05 -5.219026E-10 -1.057240E-09
       232  19 -2.968715E+05 -2.471641E+03  8.750926E+04 -2.332702E+05 -2.191360E+04  2.693598E+04
       232  20 -2.203262E+05  3.764459E+04  1.026249E+05 -1.994021E+05 -2.666563E+04  3.231999E+04
       232  21 -1.262730E+05  5.966259E+04  1.159165E+05 -1.859700E+05 -3.137563E+04  3.758157E+04
       232  22 -7.340901E+05 -1.624618E+05 -2.868909E+03 -3.541964E+05 -1.350622E+04  3.009488E+04
       232  23 -7.428571E+05 -1.535077E+05 -5.114773E+03 -3.439415E+05 -1.841692E+04  3.542169E+04
       232  24 -7.341544E+05 -1.626852E+05 -9.311371E+03 -3.541270E+05 -2.328521E+04  4.062612E+04
       232  25 -1.171113E+06 -3.224359E+05 -9.325680E+04 -4.750440E+05 -5.105220E+03  3.325140E+04
       232  26 -1.265106E+06 -3.446362E+05 -1.128678E+05 -4.883681E+05 -1.017572E+04  3.852058E+04
       232  27 -1.341652E+06 -3.850003E+05 -1.345569E+05 -5.221307E+05 -1.520338E+04  4.366745E+04
       233   1 -6.694561E+04  8.107612E+04  1.255515E+05 -1.706740E+05  3.489143E+04 -4.048982E+04
       233   2  8.709011E+03  1.218760E+05  1.333821E+05 -1.347245E+05  4.586229E+04 -4.260912E+04
       233   3  9.901974E+04  1.395972E+05  1.331755E+05 -1.179216E+05  5.614914E+04 -4.289456E+04
       233   4 -7.346837E+05 -1.623489E+05 -1.236059E+04 -3.544273E+05  2.641842E+04 -4.367986E+04
       233   5 -7.422877E+05 -1.540741E+05 -2.251247E+04 -3.435432E+05  3.980536E+04 -4.489392E+04
       233   6 -7.357271E+05 -1.693656E+05 -4.262612E+04 -3.518115E+05  5.250652E+04 -4.427343E+04
       233   7 -1.401970E+06 -4.057397E+05 -1.502972E+05 -5.380003E+05  1.795515E+04 -4.686629E+04
       233   8 -1.492709E+06 -4.299773E+05 -1.784377E+05 -5.521295E+05  3.375628E+04 -4.717575E+04
       233   9 -1.569762E+06 -4.782677E+05 -2.184661E+05 -5.854105E+05  4.886916E+04 -4.565030E+04
       233  10 -6.694736E+04  8.107404E+04  1.255461E+05 -1.706728E+05 -9.355115E-10 -1.315415E-09
       233  11  8.706266E+03  1.218734E+05  1.333747E+05 -1.347229E+05 -2.071703E-09 -4.787607E-10
       233  12  9.901586E+04  1.395944E+05  1.331661E+05 -1.179197E+05 -8.459304E-10 -4.120645E-10
       233  13 -7.346849E+05 -1.623512E+05 -1.236549E+04 -3.544264E+05  8.790689E-11 -2.541656E-09
       233  14 -7.422899E+05 -1.540767E+05 -2.251923E+04 -3.435418E+05 -6.991594E-10 -1.264218E-09
       233  15 -7.357306E+05 -1.693685E+05 -4.263498E+04 -3.518096E+05 -8.829173E-10  1.504171E-09
       233  16 -1.401971E+06 -4.057421E+05 -1.503020E+05 -5.379996E+05  7.299927E-10  4.099135E-10
       233  17 -1.492711E+06 -4.299800E+05 -1.784440E+05 -5.521283E+05 -1.002501E-09  1.572784E-09
       233  18 -1.569765E+06 -4.782706E+05 -2.184745E+05 -5.854087E+05 -4.179120E-10  7.340689E-10
       233  19 -6.694561E+04  8.107612E+04  1.255515E+05 -1.706740E+05 -3.489143E+04  4.048982E+04
       233  20  8.709011E+03  1.218760E+05  1.333821E+05 -1.347245E+05 -4.586229E+04  4.260912E+04
       233  21  9.901974E+04  1.395972E+05  1.331755E+05 -1.179216E+05 -5.614914E+04  4.289456E+04
       233  22 -7.346837E+05 -1.623489E+05 -1.236059E+04 -3.544273E+05 -2.641842E+04  4.367986E+04
       233  23 -7.422877E+05 -1.540741E+05 -2.251247E+04 -3.435432E+05 -3.980536E+04  4.489392E+04
       233  24 -7.357271E+05 -1.693656E+05 -4.262612E+04 -3.518115E+05 -5.250652E+04  4.427343E+04
       233  25 -1.401970E+06 -4.057397E+05 -1.502972E+05 -5.380003E+05 -1.795515E+04  4.686629E+04
       233  26 -1.492709E+06 -4.299773E+05 -1.784377E+05 -5.521295E+05 -3.375628E+04  4.717575E+04
       233  27 -1.569762E+06 -4.782677E+05 -2.184661E+05 -5.854105E+05 -4.886916E+04  4.565030E+04
       234   1  1.672985E+05  1.543338E+05  1.327531E+05 -1.249859E+05  7.059797E+04 -4.221266E+04
       234   2  2.117383E+05  2.171624E+05  1.146326E+05 -2.655723E+04  8.305320E+04 -2.925402E+04
       234   3  2.231537E+05  1.378138E+05  5.065268E+04  8.692025E+04  8.436342E+04  1.326573E+04
       234   4 -7.428149E+05 -1.611618E+05 -5.548858E+04 -3.578973E+05  6.054573E+04 -4.600421E+04
       234   5 -7.350483E+05 -1.749348E+05 -1.030795E+05 -3.320005E+05  1.121401E+05 -1.830930E+04
       234   6 -7.681570E+05 -3.387900E+05 -2.276281E+05 -2.910417E+05  1.525753E+05  3.896397E+04
       234   7 -1.652082E+06 -4.766108E+05 -2.437732E+05 -5.905036E+05  5.050938E+04 -4.979057E+04
       234   8 -1.680908E+06 -5.668899E+05 -3.208437E+05 -6.369887E+05  1.411786E+05 -7.387798E+03
       234   9 -1.758447E+06 -8.151188E+05 -5.059719E+05 -6.683836E+05  2.206664E+05  6.458806E+04
       234  10  1.672927E+05  1.543306E+05  1.327404E+05 -1.249835E+05  4.348380E-10  6.804503E-10
       234  11  2.117307E+05  2.171596E+05  1.146180E+05 -2.655527E+04  4.000140E-10  2.551804E-09
       234  12  2.231460E+05  1.378117E+05  5.063898E+04  8.691935E+04  4.613547E-10  8.235968E-10
       234  13 -7.428194E+05 -1.611650E+05 -5.549945E+04 -3.578951E+05 -3.695961E-10 -6.942235E-10
       234  14 -7.350619E+05 -1.749386E+05 -1.031038E+05 -3.319988E+05 -9.504941E-10 -1.739705E-09
       234  15 -7.681824E+05 -3.387979E+05 -2.276748E+05 -2.910465E+05 -7.059542E-10  4.350583E-09
       234  16 -1.652085E+06 -4.766142E+05 -2.437827E+05 -5.905015E+05 -1.808194E-09 -1.143748E-09
       234  17 -1.680929E+06 -5.668953E+05 -3.208813E+05 -6.369879E+05 -2.902384E-09  1.470626E-09
       234  18 -1.758501E+06 -8.151364E+05 -5.060716E+05 -6.683951E+05 -8.188353E-10 -1.347268E-09
       234  19  1.672985E+05  1.543338E+05  1.327531E+05 -1.249859E+05 -7.059797E+04  4.221266E+04
       234  20  2.117383E+05  2.171624E+05  1.146326E+05 -2.655723E+04 -8.305320E+04  2.925402E+04
       234  21  2.231537E+05  1.378138E+05  5.065268E+04  8.692025E+04 -8.436342E+04 -1.326573E+04
       234  22 -7.428149E+05 -1.611618E+05 -5.548858E+04 -3.578973E+05 -6.054573E+04  4.600421E+04
       234  23 -7.350483E+05 -1.749348E+05 -1.030795E+05 -3.320005E+05 -1.121401E+05  1.830930E+04
       234  24 -7.681570E+05 -3.387900E+05 -2.276281E+05 -2.910417E+05 -1.525753E+05 -3.896397E+04
       234  25 -1.652082E+06 -4.766108E+05 -2.437732E+05 -5.905036E+05 -5.050938E+04  4.979057E+04
       234  26 -1.680908E+06 -5.668899E+05 -3.208437E+05 -6.369887E+05 -1.411786E+05  7.387798E+03
       234  27 -1.758447E+06 -8.151188E+05 -5.059719E+05 -6.683836E+05 -2.206664E+05 -6.458806E+04
       235   1  1.400519E+06  1.959905E+05  1.728456E+05  1.760686E+04  7.923582E+03 -1.614345E+04
       235   2  1.332169E+06  2.396525E+05  1.682242E+05  3.666742E+04 -8.706285E+03 -5.352367E+04
       235   3  1.253654E+06  2.336198E+05  1.620573E+05  7.366751E+04 -2.538332E+04 -6.274064E+04
       235   4  2.738613E+05 -8.220023E+04 -9.360529E+04  6.433974E+04 -6.494837E+04 -1.628724E+04
       235   5  2.824389E+05 -1.256189E+04 -4.461669E+04  5.527707E+04 -4.165089E+04 -5.360270E+04
       235   6  2.738974E+05  4.068416E+02 -2.489296E+04  6.415637E+04 -1.840192E+04 -6.273173E+04
       235   7 -8.516154E+05 -3.604706E+05 -3.601229E+05  1.109869E+05 -1.376889E+05 -1.644213E+04
       235   8 -7.662408E+05 -2.648427E+05 -2.575106E+05  7.385413E+04 -7.454089E+04 -5.368378E+04
       235   9 -7.049353E+05 -2.328623E+05 -2.118865E+05  5.465998E+04 -1.143123E+04 -6.272303E+04
       235  10  1.400519E+06  1.959902E+05  1.728450E+05  1.760696E+04 -1.944365E-08 -9.320377E-10
       235  11  1.332168E+06  2.396494E+05  1.682187E+05  3.666705E+04  8.309316E-10 -5.268143E-09
       235  12  1.253652E+06  2.336154E+05  1.620487E+05  7.366623E+04  2.690554E-08 -4.898549E-09
       235  13  2.738567E+05 -8.220165E+04 -9.361371E+04  6.433889E+04  9.508986E-11  9.934601E-10
       235  14  2.824363E+05 -1.256544E+04 -4.462535E+04  5.527527E+04 -1.917898E-09 -3.749692E-09
       235  15  2.738959E+05  4.025244E+02 -2.490099E+04  6.415544E+04 -5.484300E-10 -4.401218E-10
       235  16 -8.516359E+05 -3.604760E+05 -3.601591E+05  1.109851E+05  2.027204E-08 -2.143342E-10
       235  17 -7.662476E+05 -2.648473E+05 -2.575265E+05  7.385090E+04 -1.855877E-09 -8.319187E-09
       235  18 -7.049365E+05 -2.328665E+05 -2.118941E+05  5.465940E+04 -2.668135E-08 -6.708482E-09
       235  19  1.400519E+06  1.959905E+05  1.728456E+05  1.760686E+04 -7.923582E+03  1.614345E+04
       235  20  1.332169E+06  2.396525E+05  1.682242E+05  3.666742E+04  8.706285E+03  5.352367E+04
       235  21  1.253654E+06  2.336198E+05  1.620573E+05  7.366751E+04  2.538332E+04  6.274064E+04
       235  22  2.738613E+05 -8.220023E+04 -9.360529E+04  6.433974E+04  6.494837E+04  1.628724E+04
       235  23  2.824389E+05 -1.256189E+04 -4.461669E+04  5.527707E+04  4.165089E+04  5.360270E+04
       235  24  2.738974E+05  4.068416E+02 -2.489296E+04  6.415637E+04  1.840192E+04  6.273173E+04
       235  25 -8.516154E+05 -3.604706E+05 -3.601229E+05  1.109869E+05  1.376889E+05  1.644213E+04
       235  26 -7.662408E+05 -2.648427E+05 -2.575106E+05  7.385413E+04  7.454089E+04  5.368378E+04
       235  27 -7.049353E+05 -2.328623E+05 -2.118865E+05  5.465998E+04  1.143123E+04  6.272303E+04
       236   1  1.206426E+06  2.180465E+05  1.577510E+05  6.525970E+04 -1.690814E+04 -5.981654E+04
       236   2  1.133954E+06  2.030787E+05  1.501429E+05  5.632565E+04 -1.439255E+04 -5.757710E+04
       236   3  1.060667E+06  1.862141E+05  1.404244E+05  6.689147E+04 -1.188521E+04 -5.337810E+04
       236   4  2.774322E+05 -2.976952E+03 -1.919302E+04  6.453617E+04 -1.511477E+04 -5.981947E+04
       236   5  2.781024E+05 -1.017964E+02 -1.060175E+04  5.478070E+04 -9.827093E+03 -5.757142E+04
       236   6  2.774711E+05  3.939978E+02 -6.047464E+03  6.452683E+04 -4.547320E+03 -5.336250E+04
       236   7 -6.507311E+05 -2.240510E+05 -1.961759E+05  6.381320E+04 -1.332400E+04 -5.982241E+04
       236   8 -5.770420E+05 -2.033248E+05 -1.713782E+05  5.323745E+04 -5.267757E+03 -5.756576E+04
       236   9 -5.051319E+05 -1.854615E+05 -1.525456E+05  6.216481E+04  2.781556E+03 -5.334694E+04
       236  10  1.206425E+06  2.180425E+05  1.577437E+05  6.525889E+04 -4.542159E-09 -5.411555E-09
       236  11  1.133953E+06  2.030751E+05  1.501362E+05  5.632498E+04 -1.554882E-09  3.061847E-09
       236  12  1.060666E+06  1.862110E+05  1.404188E+05  6.689096E+04  1.783851E-09  3.462846E-09
       236  13  2.774310E+05 -2.980856E+03 -1.920017E+04  6.453544E+04  1.078758E-09 -2.479517E-09
       236  14  2.781014E+05 -1.053819E+02 -1.060816E+04  5.478025E+04 -3.583967E-10  1.584584E-09
       236  15  2.774703E+05  3.909341E+02 -6.052855E+03  6.452664E+04 -1.931287E-09 -1.779563E-09
       236  16 -6.507322E+05 -2.240549E+05 -1.961829E+05  6.381255E+04  4.348406E-09  6.778969E-10
       236  17 -5.770429E+05 -2.033283E+05 -1.713844E+05  5.323720E+04  7.425180E-10  3.046022E-09
       236  18 -5.051326E+05 -1.854645E+05 -1.525509E+05  6.216493E+04 -3.310335E-09  1.646058E-09
       236  19  1.206426E+06  2.180465E+05  1.577510E+05  6.525970E+04  1.690814E+04  5.981654E+04
       236  20  1.133954E+06  2.030787E+05  1.501429E+05  5.632565E+04  1.439255E+04  5.757710E+04
       236  21  1.060667E+06  1.862141E+05  1.404244E+05  6.689147E+04  1.188521E+04  5.337810E+04
       236  22  2.774322E+05 -2.976952E+03 -1.919302E+04  6.453617E+04  1.511477E+04  5.981947E+04
       236  23  2.781024E+05 -1.017964E+02 -1.060175E+04  5.478070E+04  9.827093E+03  5.757142E+04
       236  24  2.774711E+05  3.939978E+02 -6.047464E+03  6.452683E+04  4.547320E+03  5.336250E+04
       236  25 -6.507311E+05 -2.240510E+05 -1.961759E+05  6.381320E+04  1.332400E+04  5.982241E+04
       236  26 -5.770420E+05 -2.033248E+05 -1.713782E+05  5.323745E+04  5.267757E+03  5.756576E+04
       236  27 -5.051319E+05 -1.854615E+05 -1.525456E+05  6.216481E+04 -2.781556E+03  5.334694E+04
       237   1  1.011324E+06  1.742433E+05  1.322714E+05  6.641880E+04 -1.058821E+04 -5.036186E+04
       237   2  9.387246E+05  1.570575E+05  1.206878E+05  5.647895E+04 -9.497015E+03 -4.537672E+04
       237   3  8.659162E+05  1.399220E+05  1.083854E+05  6.610853E+04 -8.409214E+03 -4.025788E+04
       237   4  2.777205E+05  2.533428E+02 -4.594999E+03  6.454402E+04 -3.616674E+03 -5.034601E+04
       237   5  2.778592E+05  3.128689E+02 -2.608457E+03  5.475850E+04 -2.337637E+03 -4.535840E+04
       237   6  2.777514E+05  3.900417E+02 -1.471848E+03  6.454364E+04 -1.061874E+03 -4.023699E+04
       237   7 -4.553632E+05 -1.737676E+05 -1.414842E+05  6.267110E+04  3.346848E+03 -5.033019E+04
       237   8 -3.825839E+05 -1.564569E+05 -1.259232E+05  5.303959E+04  4.814322E+03 -4.534010E+04
       237   9 -3.100790E+05 -1.391618E+05 -1.113437E+05  6.297998E+04  6.278688E+03 -4.021613E+04
       237  10  1.011324E+06  1.742406E+05  1.322664E+05  6.641837E+04 -2.518301E-09  4.805336E-09
       237  11  9.387239E+05  1.570553E+05  1.206837E+05  5.647860E+04  2.994224E-10  3.668493E-09
       237  12  8.659157E+05  1.399202E+05  1.083822E+05  6.610825E+04  4.769739E-09 -1.452958E-09
       237  13  2.777198E+05  2.506171E+02 -4.599788E+03  6.454387E+04 -3.426769E-09 -3.494691E-09
       237  14  2.778587E+05  3.106579E+02 -2.612334E+03  5.475842E+04 -9.662095E-10  4.314378E-09
       237  15  2.777509E+05  3.883026E+02 -1.474893E+03  6.454360E+04 -8.885260E-10  5.760991E-09
       237  16 -4.553639E+05 -1.737703E+05 -1.414890E+05  6.267124E+04  1.926551E-09  3.427391E-09
       237  17 -3.825845E+05 -1.564591E+05 -1.259271E+05  5.303977E+04 -1.048606E-09  5.715884E-09
       237  18 -3.100795E+05 -1.391635E+05 -1.113468E+05  6.298019E+04 -6.109207E-09  7.914530E-10
       237  19  1.011324E+06  1.742433E+05  1.322714E+05  6.641880E+04  1.058821E+04  5.036186E+04
       237  20  9.387246E+05  1.570575E+05  1.206878E+05  5.647895E+04  9.497015E+03  4.537672E+04
       237  21  8.659162E+05  1.399220E+05  1.083854E+05  6.610853E+04  8.409214E+03  4.025788E+04
       237  22  2.777205E+05  2.533428E+02 -4.594999E+03  6.454402E+04  3.616674E+03  5.034601E+04
       237  23  2.778592E+05  3.128689E+02 -2.608457E+03  5.475850E+04  2.337637E+03  4.535840E+04
       237  24  2.777514E+05  3.900417E+02 -1.471848E+03  6.454364E+04  1.061874E+03  4.023699E+04
       237  25 -4.553632E+05 -1.737676E+05 -1.414842E+05  6.267110E+04 -3.346848E+03  5.033019E+04
       237  26 -3.825839E+05 -1.564569E+05 -1.259232E+05  5.303959E+04 -4.814322E+03  4.534010E+04
       237  27 -3.100790E+05 -1.391618E+05 -1.113437E+05  6.297998E+04 -6.278688E+03  4.021613E+04
       238   1  8.165303E+05  1.281377E+05  9.919360E+04  6.597645E+04 -8.156388E+03 -3.724139E+04
       238   2  7.440080E+05  1.109081E+05  8.633724E+04  5.602869E+04 -7.891143E+03 -3.207415E+04
       238   3  6.713582E+05  9.381139E+04  7.330684E+04  6.562695E+04 -7.628010E+03 -2.689983E+04
       238   4  2.777872E+05  3.933488E+02 -1.100909E+03  6.453846E+04 -8.378386E+02 -3.721959E+04
       238   5  2.778658E+05  3.452149E+02 -5.869436E+02  5.476500E+04 -5.632203E+02 -3.205094E+04
       238   6  2.778091E+05  4.282439E+02 -2.540546E+02  6.453841E+04 -2.906841E+02 -2.687519E+04
       238   7 -2.606751E+05 -1.273677E+05 -1.014076E+05  6.310150E+04  6.474529E+03 -3.719782E+04
       238   8 -1.880661E+05 -1.102302E+05 -8.752020E+04  5.350209E+04  6.759345E+03 -3.202775E+04
       238   9 -1.155903E+05 -9.296381E+04 -7.382140E+04  6.345044E+04  7.042112E+03 -2.685057E+04
       238  10  8.165298E+05  1.281362E+05  9.919087E+04  6.597621E+04  2.935811E-09 -5.957985E-10
       238  11  7.440076E+05  1.109070E+05  8.633518E+04  5.602849E+04  1.363485E-09  7.293042E-09
       238  12  6.713579E+05  9.381060E+04  7.330537E+04  6.562678E+04 -2.136862E-09  7.220884E-09
       238  13  2.777868E+05  3.918608E+02 -1.103514E+03  6.453843E+04 -1.090204E-09 -3.949134E-10
       238  14  2.778656E+05  3.441116E+02 -5.888749E+02  5.476498E+04 -2.609521E-10  8.837844E-09
       238  15  2.778089E+05  4.274682E+02 -2.554122E+02  6.453840E+04 -1.395925E-09  1.432041E-09
       238  16 -2.606755E+05 -1.273692E+05 -1.014102E+05  6.310169E+04 -3.390335E-09 -3.900391E-10
       238  17 -1.880664E+05 -1.102313E+05 -8.752222E+04  5.350227E+04  1.453962E-10  6.465054E-11
       238  18 -1.155905E+05 -9.296460E+04 -7.382285E+04  6.345060E+04  1.814099E-09 -5.098982E-10
       238  19  8.165303E+05  1.281377E+05  9.919360E+04  6.597645E+04  8.156388E+03  3.724139E+04
       238  20  7.440080E+05  1.109081E+05  8.633724E+04  5.602869E+04  7.891143E+03  3.207415E+04
       238  21  6.713582E+05  9.381139E+04  7.330684E+04  6.562695E+04  7.628010E+03  2.689983E+04
       238  22  2.777872E+05  3.933488E+02 -1.100909E+03  6.453846E+04  8.378386E+02  3.721959E+04
       238  23  2.778658E+05  3.452149E+02 -5.869436E+02  5.476500E+04  5.632203E+02  3.205094E+04
       238  24  2.778091E+05  4.282439E+02 -2.540546E+02  6.453841E+04  2.906841E+02  2.687519E+04
       238  25 -2.606751E+05 -1.273677E+05 -1.014076E+05  6.310150E+04 -6.474529E+03  3.719782E+04
       238  26 -1.880661E+05 -1.102302E+05 -8.752020E+04  5.350209E+04 -6.759345E+03  3.202775E+04
       238  27 -1.155903E+05 -9.296381E+04 -7.382140E+04  6.345044E+04 -7.042112E+03  2.685057E+04
       239   1  6.220205E+05  8.204544E+04  6.388383E+04  6.549858E+04 -7.600074E+03 -2.388684E+04
       239   2  5.495726E+05  6.482072E+04  5.077287E+04  5.554965E+04 -7.665387E+03 -1.871386E+04
       239   3  4.770087E+05  4.773704E+04  3.769588E+04  6.513280E+04 -7.731877E+03 -1.354497E+04
       239   4  2.778200E+05  4.350284E+02 -1.269639E+02  6.453524E+04 -2.663570E+02 -2.386156E+04
       239   5  2.778859E+05  3.731344E+02  1.088296E+02  5.476895E+04 -3.377900E+02 -1.868780E+04
       239   6  2.778328E+05  4.538450E+02  3.830638E+02  6.453522E+04 -4.104068E+02 -1.351811E+04
       239   7 -6.626570E+04 -8.118216E+04 -6.414258E+04  6.357235E+04  7.063402E+03 -2.383629E+04
       239   8  6.270637E+03 -6.407867E+04 -5.055816E+04  5.398853E+04  6.986684E+03 -1.866174E+04
       239   9  7.869522E+04 -4.683162E+04 -3.693127E+04  6.393780E+04  6.908775E+03 -1.349126E+04
       239  10  6.220203E+05  8.204481E+04  6.388265E+04  6.549843E+04  1.109600E-08  1.968721E-09
       239  11  5.495724E+05  6.482033E+04  5.077210E+04  5.554954E+04  1.706485E-09 -1.713500E-10
       239  12  4.770086E+05  4.773683E+04  3.769542E+04  6.513272E+04 -4.996104E-09 -1.667540E-09
       239  13  2.778199E+05  4.344169E+02 -1.280342E+02  6.453524E+04  1.269083E-09  1.164021E-08
       239  14  2.778858E+05  3.727593E+02  1.081730E+02  5.476894E+04  1.240329E-09  1.005568E-09
       239  15  2.778327E+05  4.536487E+02  3.827201E+02  6.453522E+04 -1.896501E-09 -3.093446E-09
       239  16 -6.626591E+04 -8.118278E+04 -6.414374E+04  6.357249E+04 -9.757993E-09  2.342616E-09
       239  17  6.270491E+03 -6.407906E+04 -5.055891E+04  5.398864E+04 -8.035421E-10 -4.166602E-09
       239  18  7.869512E+04 -4.683182E+04 -3.693170E+04  6.393788E+04  6.191614E-09 -4.884821E-09
       239  19  6.220205E+05  8.204544E+04  6.388383E+04  6.549858E+04  7.600074E+03  2.388684E+04
       239  20  5.495726E+05  6.482072E+04  5.077287E+04  5.554965E+04  7.665387E+03  1.871386E+04
       239  21  4.770087E+05  4.773704E+04  3.769588E+04  6.513280E+04  7.731877E+03  1.354497E+04
       239  22  2.778200E+05  4.350284E+02 -1.269639E+02  6.453524E+04  2.663570E+02  2.386156E+04
       239  23  2.778859E+05  3.731344E+02  1.088296E+02  5.476895E+04  3.377900E+02  1.868780E+04
       239  24  2.778328E+05  4.538450E+02  3.830638E+02  6.453522E+04  4.104068E+02  1.351811E+04
       239  25 -6.626570E+04 -8.118216E+04 -6.414258E+04  6.357235E+04 -7.063402E+03  2.383629E+04
       239  26  6.270637E+03 -6.407867E+04 -5.055816E+04  5.398853E+04 -6.986684E+03  1.866174E+04
       239  27  7.869522E+04 -4.683162E+04 -3.693127E+04  6.393780E+04 -6.908775E+03  1.349126E+04
       240   1  4.277205E+05  3.597195E+04  2.832508E+04  6.500388E+04 -7.835525E+03 -1.053446E+04
       240   2  3.552901E+05  1.873415E+04  1.545744E+04  5.506330E+04 -8.303949E+03 -5.387426E+03
       240   3  2.827916E+05  1.673701E+03  2.891327E+03  6.464199E+04 -8.772487E+03 -2.894089E+02
       240   4  2.778490E+05  4.537476E+02  5.562115E+02  6.453235E+04 -5.065647E+02 -1.050727E+04
       240   5  2.778814E+05  3.748522E+02  1.049624E+03  5.477259E+04 -1.044785E+03 -5.360265E+03
       240   6  2.778526E+05  4.856261E+02  1.892930E+03  6.453223E+04 -1.583171E+03 -2.622763E+02
       240   7  1.279994E+05 -3.506571E+04 -2.721340E+04  6.406091E+04  6.820673E+03 -1.048008E+04
       240   8  2.004786E+05 -1.798477E+04 -1.335825E+04  5.448190E+04  6.213497E+03 -5.333110E+03
       240   9  2.729137E+05 -7.024227E+02  8.947248E+02  6.442246E+04  5.606090E+03 -2.351460E+02
       240  10  4.277205E+05  3.597181E+04  2.832476E+04  6.500382E+04 -3.498595E-09  3.619552E-09
       240  11  3.552900E+05  1.873410E+04  1.545725E+04  5.506326E+04 -4.621651E-09  8.385242E-10
       240  12  2.827915E+05  1.673680E+03  2.891182E+03  6.464199E+04 -2.932528E-09  1.353060E-09
       240  13  2.778490E+05  4.536289E+02  5.560035E+02  6.453235E+04 -7.198065E-12  8.336404E-10
       240  14  2.778814E+05  3.748211E+02  1.049568E+03  5.477258E+04 -1.038013E-09  1.147191E-09
       240  15  2.778526E+05  4.856253E+02  1.892925E+03  6.453223E+04 -2.207638E-11  1.357387E-09
       240  16  1.279993E+05 -3.506584E+04 -2.721369E+04  6.406097E+04  5.093566E-09  3.777585E-09
       240  17  2.004785E+05 -1.798481E+04 -1.335837E+04  5.448193E+04  3.102680E-09 -1.051554E-08
       240  18  2.729136E+05 -7.024312E+02  8.946657E+02  6.442246E+04  1.865416E-09 -1.962595E-09
       240  19  4.277205E+05  3.597195E+04  2.832508E+04  6.500388E+04  7.835525E+03  1.053446E+04
       240  20  3.552901E+05  1.873415E+04  1.545744E+04  5.506330E+04  8.303949E+03  5.387426E+03
       240  21  2.827916E+05  1.673701E+03  2.891327E+03  6.464199E+04  8.772487E+03  2.894089E+02
       240  22  2.778490E+05  4.537476E+02  5.562115E+02  6.453235E+04  5.065647E+02  1.050727E+04
       240  23  2.778814E+05  3.748522E+02  1.049624E+03  5.477259E+04  1.044785E+03  5.360265E+03
       240  24  2.778526E+05  4.856261E+02  1.892930E+03  6.453223E+04  1.583171E+03  2.622763E+02
       240  25  1.279994E+05 -3.506571E+04 -2.721340E+04  6.406091E+04 -6.820673E+03  1.048008E+04
       240  26  2.004786E+05 -1.798477E+04 -1.335825E+04  5.448190E+04 -6.213497E+03  5.333110E+03
       240  27  2.729137E+05 -7.024227E+02  8.947248E+02  6.442246E+04 -5.606090E+03  2.351460E+02
       241   1  2.335824E+05 -1.016160E+04 -6.050623E+03  6.467030E+04 -9.298923E+03  2.716322E+03
       241   2  1.609993E+05 -2.728608E+04 -1.780791E+04  5.437528E+04 -1.052078E+04  7.529527E+03
       241   3  8.865876E+04 -4.339647E+04 -2.856266E+04  6.355839E+04 -1.173952E+04  1.164547E+04
       241   4  2.779563E+05  4.194464E+02  2.502717E+03  6.452404E+04 -1.981787E+03  2.743906E+03
       241   5  2.777496E+05  5.011190E+02  4.395263E+03  5.478258E+04 -4.191990E+03  7.553066E+03
       241   6  2.779504E+05  1.768205E+03  7.975825E+03  6.451894E+04 -6.399198E+03  1.166503E+04
       241   7  3.223323E+05  1.100040E+04  1.105617E+04  6.437777E+04  5.335859E+03  2.771484E+03
       241   8  3.945131E+05  2.828754E+04  2.659798E+04  5.518994E+04  2.137961E+03  7.576610E+03
       241   9  4.672765E+05  4.693077E+04  4.451275E+04  6.547976E+04 -1.057285E+03  1.168462E+04
       241  10  2.335823E+05 -1.016163E+04 -6.050799E+03  6.467032E+04 -1.212765E-08  5.581506E-09
       241  11  1.609992E+05 -2.728617E+04 -1.780823E+04  5.437534E+04  8.553194E-09  2.027747E-09
       241  12  8.865858E+04 -4.339665E+04 -2.856317E+04  6.355850E+04  2.940091E-08  7.037541E-09
       241  13  2.779563E+05  4.194373E+02  2.502695E+03  6.452404E+04 -1.089600E-09  5.781813E-09
       241  14  2.777496E+05  5.010530E+02  4.395123E+03  5.478260E+04 -3.741825E-09  4.085000E-09
       241  15  2.779503E+05  1.768048E+03  7.975492E+03  6.451900E+04 -1.095783E-09 -5.674264E-10
       241  16  3.223323E+05  1.100039E+04  1.105610E+04  6.437775E+04  1.360821E-08  3.134211E-09
       241  17  3.945131E+05  2.828748E+04  2.659786E+04  5.518993E+04 -1.098612E-08  8.733259E-10
       241  18  4.672764E+05  4.693062E+04  4.451249E+04  6.547977E+04 -3.216704E-08 -8.762456E-09
       241  19  2.335824E+05 -1.016160E+04 -6.050623E+03  6.467030E+04  9.298923E+03 -2.716322E+03
       241  20  1.609993E+05 -2.728608E+04 -1.780791E+04  5.437528E+04  1.052078E+04 -7.529527E+03
       241  21  8.865876E+04 -4.339647E+04 -2.856266E+04  6.355839E+04  1.173952E+04 -1.164547E+04
       241  22  2.779563E+05  4.194464E+02  2.502717E+03  6.452404E+04  1.981787E+03 -2.743906E+03
       241  23  2.777496E+05  5.011190E+02  4.395263E+03  5.478258E+04  4.191990E+03 -7.553066E+03
       241  24  2.779504E+05  1.768205E+03  7.975825E+03  6.451894E+04  6.399198E+03 -1.166503E+04
       241  25  3.223323E+05  1.100040E+04  1.105617E+04  6.437777E+04 -5.335859E+03 -2.771484E+03
       241  26  3.945131E+05  2.828754E+04  2.659798E+04  5.518994E+04 -2.137961E+03 -7.576610E+03
       241  27  4.672765E+05  4.693077E+04  4.451275E+04  6.547976E+04  1.057285E+03 -1.168462E+04
       242   1  4.040350E+04 -5.667385E+04 -3.587863E+04  6.695695E+04 -1.495745E+04  1.460085E+04
       242   2 -3.439404E+04 -6.930987E+04 -4.546682E+04  4.561647E+04 -1.042040E+04  1.468313E+04
       242   3 -1.045893E+05 -6.059166E+04 -5.270040E+04  4.311870E+04 -5.849072E+03  4.754102E+03
       242   4  2.794239E+05  3.422318E+02  1.034932E+04  6.440043E+04 -7.779954E+03  1.462698E+04
       242   5  2.758870E+05  5.616430E+03  1.853862E+04  5.491793E+04 -1.742112E+04  1.465708E+04
       242   6  2.794054E+05  3.469985E+04  3.892436E+04  6.427664E+04 -2.702787E+04  4.678325E+03
       242   7  5.184993E+05  5.735497E+04  5.657479E+04  6.184285E+04 -5.997538E+02  1.465304E+04
       242   8  5.862596E+05  8.053697E+04  8.253910E+04  6.422404E+04 -2.442527E+04  1.463083E+04
       242   9  6.635371E+05  1.299826E+05  1.305407E+05  8.544760E+04 -4.821971E+04  4.601130E+03
       242  10  4.040320E+04 -5.667414E+04 -3.587946E+04  6.695713E+04 -2.344447E-08  6.471617E-09
       242  11 -3.439422E+04 -6.931013E+04 -4.546743E+04  4.561660E+04 -8.668720E-09 -2.517985E-09
       242  12 -1.045893E+05 -6.059169E+04 -5.270051E+04  4.311872E+04  3.960110E-09 -1.597837E-09
       242  13  2.794238E+05  3.419858E+02  1.034880E+04  6.440052E+04 -1.932819E-09  5.562709E-09
       242  14  2.758866E+05  5.616118E+03  1.853765E+04  5.491814E+04 -2.272023E-09 -7.733134E-09
       242  15  2.794046E+05  3.469963E+04  3.892295E+04  6.427674E+04 -1.117158E-09  5.466154E-09
       242  16  5.184992E+05  5.735474E+04  5.657439E+04  6.184286E+04  2.408598E-08  7.297888E-10
       242  17  5.862589E+05  8.053658E+04  8.253757E+04  6.422432E+04  9.650352E-09  4.768541E-11
       242  18  6.635346E+05  1.299819E+05  1.305363E+05  8.544778E+04 -5.014595E-09 -1.151090E-09
       242  19  4.040350E+04 -5.667385E+04 -3.587863E+04  6.695695E+04  1.495745E+04 -1.460085E+04
       242  20 -3.439404E+04 -6.930987E+04 -4.546682E+04  4.561647E+04  1.042040E+04 -1.468313E+04
       242  21 -1.045893E+05 -6.059166E+04 -5.270040E+04  4.311870E+04  5.849072E+03 -4.754102E+03
       242  22  2.794239E+05  3.422318E+02  1.034932E+04  6.440043E+04  7.779954E+03 -1.462698E+04
       242  23  2.758870E+05  5.616430E+03  1.853862E+04  5.491793E+04  1.742112E+04 -1.465708E+04
       242  24  2.794054E+05  3.469985E+04  3.892436E+04  6.427664E+04  2.702787E+04 -4.678325E+03
       242  25  5.184993E+05  5.735497E+04  5.657479E+04  6.184285E+04  5.997538E+02 -1.465304E+04
       242  26  5.862596E+05  8.053697E+04  8.253910E+04  6.422404E+04  2.442527E+04 -1.463083E+04
       242  27  6.635371E+05  1.299826E+05  1.305407E+05  8.544760E+04  4.821971E+04 -4.601130E+03
       243   1  2.391740E+05  1.772927E+06  2.415321E+05 -1.812791E+05  8.232787E+03  8.237423E+04
       243   2  1.420470E+05  1.602663E+06  1.510749E+05 -1.387627E+05  2.516654E+04  3.641622E+04
       243   3  9.307820E+04  1.450265E+06  1.025035E+05 -1.384210E+05  2.344020E+04 -9.563854E+03
       243   4  6.302072E+04  1.061719E+06  7.172909E+04 -1.430366E+05  8.314659E+03  4.521785E+04
       243   5  9.938721E+03  1.055127E+06  3.765718E+04 -1.220168E+05  2.519215E+04  2.575834E+04
       243   6  4.486422E+02  1.061806E+06  2.712315E+04 -1.431680E+05  2.340524E+04  6.264337E+03
       243   7 -1.131630E+05  3.509805E+05 -9.810361E+04 -1.048378E+05  8.392017E+03  8.103718E+03
       243   8 -1.221874E+05  5.078745E+05 -7.577633E+04 -1.052856E+05  2.521720E+04  1.510966E+04
       243   9 -9.218968E+04  6.734914E+05 -4.826335E+04 -1.479119E+05  2.337003E+04  2.208286E+04
       243  10  2.391721E+05  1.772920E+06  2.415193E+05 -1.812796E+05  9.874127E-10  2.150922E-09
       243  11  1.420459E+05  1.602662E+06  1.510713E+05 -1.387635E+05  2.652086E-09 -3.880210E-09
       243  12  9.307758E+04  1.450265E+06  1.025023E+05 -1.384208E+05  4.616767E-10 -2.567036E-09
       243  13  6.302009E+04  1.061717E+06  7.172512E+04 -1.430369E+05  2.134618E-10 -2.694002E-10
       243  14  9.937861E+03  1.055126E+06  3.765474E+04 -1.220173E+05  1.516043E-09 -4.655396E-09
       243  15  4.480431E+02  1.061806E+06  2.712204E+04 -1.431681E+05  4.801234E-10 -3.139854E-09
       243  16 -1.131631E+05  3.509804E+05 -9.810386E+04 -1.048378E+05 -1.979984E-11 -4.185381E-09
       243  17 -1.221882E+05  5.078741E+05 -7.577796E+04 -1.052859E+05  2.477333E-09 -1.230940E-09
       243  18 -9.219040E+04  6.734908E+05 -4.826530E+04 -1.479123E+05 -1.247537E-10  1.998047E-09
       243  19  2.391740E+05  1.772927E+06  2.415321E+05 -1.812791E+05 -8.232787E+03 -8.237423E+04
       243  20  1.420470E+05  1.602663E+06  1.510749E+05 -1.387627E+05 -2.516654E+04 -3.641622E+04
       243  21  9.307820E+04  1.450265E+06  1.025035E+05 -1.384210E+05 -2.344020E+04  9.563854E+03
       243  22  6.302072E+04  1.061719E+06  7.172909E+04 -1.430366E+05 -8.314659E+03 -4.521785E+04
       243  23  9.938721E+03  1.055127E+06  3.765718E+04 -1.220168E+05 -2.519215E+04 -2.575834E+04
       243  24  4.486422E+02  1.061806E+06  2.712315E+04 -1.431680E+05 -2.340524E+04 -6.264337E+03
       243  25 -1.131630E+05  3.509805E+05 -9.810361E+04 -1.048378E+05 -8.392017E+03 -8.103718E+03
       243  26 -1.221874E+05  5.078745E+05 -7.577633E+04 -1.052856E+05 -2.521720E+04 -1.510966E+04
       243  27 -9.218968E+04  6.734914E+05 -4.826335E+04 -1.479119E+05 -2.337003E+04 -2.208286E+04
       244   1  6.907974E+04  1.337680E+06  7.970856E+04 -1.459494E+05  1.684689E+04 -1.051556E+04
       244   2  2.899875E+04  1.174929E+06  5.036185E+04 -1.217576E+05  7.833415E+03 -2.522970E+04
       244   3 -3.999409E+03  1.015663E+06  3.229447E+04 -1.407670E+05 -1.576945E+03 -3.994216E+04
       244   4  2.746540E+03  1.059614E+06  2.579344E+04 -1.433761E+05  1.681821E+04  2.033506E+03
       244   5  1.221873E+03  1.057937E+06  2.831772E+04 -1.217710E+05  7.802863E+03 -1.211639E+04
       244   6  6.683976E+03  1.059621E+06  4.173095E+04 -1.433669E+05 -1.609353E+03 -2.626823E+04
       244   7 -6.359116E+04  7.816236E+05 -2.812473E+04 -1.408039E+05  1.678962E+04  1.457709E+04
       244   8 -2.655570E+04  9.409589E+05  6.273645E+03 -1.217844E+05  7.772308E+03  9.945115E+02
       244   9  1.736736E+04  1.103581E+06  5.116801E+04 -1.459670E+05 -1.641874E+03 -1.259334E+04
       244  10  6.907941E+04  1.337680E+06  7.970782E+04 -1.459492E+05  8.154063E-10  2.660993E-09
       244  11  2.899851E+04  1.174929E+06  5.036054E+04 -1.217575E+05  4.799309E-10 -4.530288E-09
       244  12 -3.999840E+03  1.015662E+06  3.229147E+04 -1.407671E+05 -1.119784E-09 -2.389848E-09
       244  13  2.746235E+03  1.059614E+06  2.579290E+04 -1.433761E+05  1.122786E-09 -2.862382E-10
       244  14  1.221768E+03  1.057937E+06  2.831733E+04 -1.217709E+05  1.639150E-09 -4.744801E-09
       244  15  6.683788E+03  1.059621E+06  4.172965E+04 -1.433670E+05 -1.766760E-09 -3.526398E-09
       244  16 -6.359152E+04  7.816233E+05 -2.812566E+04 -1.408041E+05  1.197366E-10 -4.538290E-09
       244  17 -2.655577E+04  9.409589E+05  6.273530E+03 -1.217844E+05  2.508480E-09 -1.431755E-09
       244  18  1.736731E+04  1.103581E+06  5.116771E+04 -1.459670E+05  1.085943E-09  1.829813E-09
       244  19  6.907974E+04  1.337680E+06  7.970856E+04 -1.459494E+05 -1.684689E+04  1.051556E+04
       244  20  2.899875E+04  1.174929E+06  5.036185E+04 -1.217576E+05 -7.833415E+03  2.522970E+04
       244  21 -3.999409E+03  1.015663E+06  3.229447E+04 -1.407670E+05  1.576945E+03  3.994216E+04
       244  22  2.746540E+03  1.059614E+06  2.579344E+04 -1.433761E+05 -1.681821E+04 -2.033506E+03
       244  23  1.221873E+03  1.057937E+06  2.831772E+04 -1.217710E+05 -7.802863E+03  1.211639E+04
       244  24  6.683976E+03  1.059621E+06  4.173095E+04 -1.433669E+05  1.609353E+03  2.626823E+04
       244  25 -6.359116E+04  7.816236E+05 -2.812473E+04 -1.408039E+05 -1.678962E+04 -1.457709E+04
       244  26 -2.655570E+04  9.409589E+05  6.273645E+03 -1.217844E+05 -7.772308E+03 -9.945115E+02
       244  27  1.736736E+04  1.103581E+06  5.116801E+04 -1.459670E+05  1.641874E+03  1.259334E+04
       245   1 -3.672545E+04  9.122826E+05  2.093831E+04 -1.579368E+05 -8.171078E+03 -4.918671E+04
       245   2 -5.095794E+04  7.360984E+05  2.226779E+04 -8.143113E+04 -1.282731E+04 -7.694317E+04
       245   3  4.310778E+04  5.904368E+05  6.868813E+04 -4.732666E+04 -4.589561E+03 -1.046651E+05
       245   4  1.348379E+02  1.066353E+06  5.175297E+04 -1.432497E+05 -8.209576E+03 -3.337241E+04
       245   5  2.513597E+04  1.049480E+06  8.859238E+04 -1.218775E+05 -1.281619E+04 -7.943042E+04
       245   6  1.615645E+05  1.066240E+06  1.831949E+05 -1.428928E+05 -4.526880E+03 -1.254617E+05
       245   7  3.699463E+04  1.220448E+06  8.256749E+04 -1.285588E+05 -8.247322E+03 -1.755426E+04
       245   8  1.012296E+05  1.362957E+06  1.549123E+05 -1.623445E+05 -1.280476E+04 -8.191890E+04
       245   9  2.800390E+05  1.542270E+06  2.976919E+05 -2.385323E+05 -4.457835E+03 -1.462741E+05
       245  10 -3.672617E+04  9.122800E+05  2.093364E+04 -1.579372E+05 -4.491857E-11  2.651588E-09
       245  11 -5.095970E+04  7.360920E+05  2.225637E+04 -8.143192E+04  1.759373E-09 -3.921733E-09
       245  12  4.310482E+04  5.904251E+05  6.866753E+04 -4.732705E+04  1.024145E-09 -1.709020E-09
       245  13  1.344671E+02  1.066352E+06  5.175075E+04 -1.432499E+05 -4.415693E-11  2.191181E-10
       245  14  2.513410E+04  1.049473E+06  8.858023E+04 -1.218783E+05 -3.297812E-10 -4.068275E-09
       245  15  1.615603E+05  1.066223E+06  1.831653E+05 -1.428932E+05  1.031004E-09 -2.599197E-09
       245  16  3.699447E+04  1.220447E+06  8.256679E+04 -1.285589E+05 -6.467826E-10 -4.931385E-09
       245  17  1.012276E+05  1.362950E+06  1.548994E+05 -1.623454E+05  3.136389E-09 -1.598315E-09
       245  18  2.800333E+05  1.542247E+06  2.976518E+05 -2.385328E+05  1.425071E-09  1.497676E-09
       245  19 -3.672545E+04  9.122826E+05  2.093831E+04 -1.579368E+05  8.171078E+03  4.918671E+04
       245  20 -5.095794E+04  7.360984E+05  2.226779E+04 -8.143113E+04  1.282731E+04  7.694317E+04
       245  21  4.310778E+04  5.904368E+05  6.868813E+04 -4.732666E+04  4.589561E+03  1.046651E+05
       245  22  1.348379E+02  1.066353E+06  5.175297E+04 -1.432497E+05  8.209576E+03  3.337241E+04
       245  23  2.513597E+04  1.049480E+06  8.859238E+04 -1.218775E+05  1.281619E+04  7.943042E+04
       245  24  1.615645E+05  1.066240E+06  1.831949E+05 -1.428928E+05  4.526880E+03  1.254617E+05
       245  25  3.699463E+04  1.220448E+06  8.256749E+04 -1.285588E+05  8.247322E+03  1.755426E+04
       245  26  1.012296E+05  1.362957E+06  1.549123E+05 -1.623445E+05  1.280476E+04  8.191890E+04
       245  27  2.800390E+05  1.542270E+06  2.976919E+05 -2.385323E+05  4.457835E+03  1.462741E+05
       246   1  1.472829E+06  4.623029E+05  2.318069E+05  5.165472E+05  5.222077E+04  2.347511E+03
       246   2  1.400927E+06  4.437241E+05  1.912875E+05  4.895904E+05  3.531540E+04 -4.342836E+04
       246   3  1.315290E+06  4.308188E+05  1.704624E+05  4.828955E+05  8.077874E+03 -6.178370E+04
       246   4  4.695405E+05  9.735506E+04 -2.718974E+04  2.538514E+05 -1.179335E+04 -2.180284E+04
       246   5  4.815488E+05  1.087126E+05 -1.233867E+04  2.397323E+05  7.733877E+03 -5.384751E+04
       246   6  4.726036E+05  1.185271E+05 -6.628186E+03  2.458779E+05  1.691625E+04 -5.845287E+04
       246   7 -5.327381E+05 -2.675318E+05 -2.862440E+05 -8.459490E+03 -7.569230E+04 -4.591294E+04
       246   8 -4.369633E+05 -2.262328E+05 -2.160101E+05 -9.786012E+03 -1.980305E+04 -6.425040E+04
       246   9 -3.693568E+05 -1.937014E+05 -1.837569E+05  9.157487E+03  2.574172E+04 -5.512701E+04
       246  10  1.472827E+06  4.623022E+05  2.318017E+05  5.165471E+05 -2.111248E-08 -9.778699E-09
       246  11  1.400925E+06  4.437218E+05  1.912816E+05  4.895916E+05 -2.421819E-09 -9.136527E-09
       246  12  1.315289E+06  4.308147E+05  1.704551E+05  4.828959E+05  2.224287E-08  4.543466E-09
       246  13  4.695403E+05  9.735451E+04 -2.719090E+04  2.538512E+05  7.347519E-10  1.122358E-09
       246  14  4.815480E+05  1.087095E+05 -1.234423E+04  2.397327E+05  1.734795E-09 -4.416197E-09
       246  15  4.726023E+05  1.185233E+05 -6.635147E+03  2.458787E+05  2.455521E-09 -1.440449E-09
       246  16 -5.327448E+05 -2.675356E+05 -2.862587E+05 -8.462291E+03  2.225912E-08  5.266445E-09
       246  17 -4.369648E+05 -2.262374E+05 -2.160186E+05 -9.787037E+03  4.553695E-09 -5.954166E-09
       246  18 -3.693584E+05 -1.937048E+05 -1.837638E+05  9.158630E+03 -2.001547E-08 -1.235368E-08
       246  19  1.472829E+06  4.623029E+05  2.318069E+05  5.165472E+05 -5.222077E+04 -2.347511E+03
       246  20  1.400927E+06  4.437241E+05  1.912875E+05  4.895904E+05 -3.531540E+04  4.342836E+04
       246  21  1.315290E+06  4.308188E+05  1.704624E+05  4.828955E+05 -8.077874E+03  6.178370E+04
       246  22  4.695405E+05  9.735506E+04 -2.718974E+04  2.538514E+05  1.179335E+04  2.180284E+04
       246  23  4.815488E+05  1.087126E+05 -1.233867E+04  2.397323E+05 -7.733877E+03  5.384751E+04
       246  24  4.726036E+05  1.185271E+05 -6.628186E+03  2.458779E+05 -1.691625E+04  5.845287E+04
       246  25 -5.327381E+05 -2.675318E+05 -2.862440E+05 -8.459490E+03  7.569230E+04  4.591294E+04
       246  26 -4.369633E+05 -2.262328E+05 -2.160101E+05 -9.786012E+03  1.980305E+04  6.425040E+04
       246  27 -3.693568E+05 -1.937014E+05 -1.837569E+05  9.157487E+03 -2.574172E+04  5.512701E+04
       247   1  1.265363E+06  4.091352E+05  1.611721E+05  4.673150E+05  1.344051E+04 -5.558458E+04
       247   2  1.199227E+06  3.749644E+05  1.461622E+05  4.381678E+05  1.143810E+04 -5.291797E+04
       247   3  1.117806E+06  3.559611E+05  1.317539E+05  4.266237E+05  8.797435E+03 -4.857213E+04
       247   4  4.731730E+05  1.178528E+05 -5.092652E+03  2.469146E+05  1.630962E+04 -5.450743E+04
       247   5  4.811209E+05  1.109478E+05 -2.694874E+03  2.379473E+05  1.653704E+04 -5.099615E+04
       247   6  4.733370E+05  1.187693E+05 -1.461832E+03  2.465825E+05  1.612573E+04 -4.580460E+04
       247   7 -3.183836E+05 -1.733793E+05 -1.713934E+05  2.677075E+04  1.917481E+04 -5.343177E+04
       247   8 -2.364610E+05 -1.530259E+05 -1.515800E+05  3.793905E+04  2.162965E+04 -4.907672E+04
       247   9 -1.707073E+05 -1.183867E+05 -1.346992E+05  6.671342E+04  2.344585E+04 -4.304018E+04
       247  10  1.265362E+06  4.091318E+05  1.611660E+05  4.673156E+05  2.318260E-09 -1.513763E-09
       247  11  1.199226E+06  3.749614E+05  1.461567E+05  4.381683E+05 -6.632308E-10  8.202720E-10
       247  12  1.117806E+06  3.559585E+05  1.317493E+05  4.266241E+05 -9.082287E-09 -2.378153E-09
       247  13  4.731719E+05  1.178495E+05 -5.098736E+03  2.469153E+05 -7.885041E-10 -5.529100E-09
       247  14  4.811199E+05  1.109449E+05 -2.700276E+03  2.379480E+05  3.922564E-09  1.220206E-08
       247  15  4.733361E+05  1.187669E+05 -1.466264E+03  2.465831E+05 -2.289445E-10 -8.485888E-09
       247  16 -3.183848E+05 -1.733825E+05 -1.713995E+05  2.677158E+04  5.085301E-10 -3.190323E-09
       247  17 -2.364622E+05 -1.530286E+05 -1.515854E+05  3.793991E+04  5.310467E-09  7.345068E-10
       247  18 -1.707084E+05 -1.183888E+05 -1.347037E+05  6.671423E+04  8.092778E-09  4.515558E-09
       247  19  1.265363E+06  4.091352E+05  1.611721E+05  4.673150E+05 -1.344051E+04  5.558458E+04
       247  20  1.199227E+06  3.749644E+05  1.461622E+05  4.381678E+05 -1.143810E+04  5.291797E+04
       247  21  1.117806E+06  3.559611E+05  1.317539E+05  4.266237E+05 -8.797435E+03  4.857213E+04
       247  22  4.731730E+05  1.178528E+05 -5.092652E+03  2.469146E+05 -1.630962E+04  5.450743E+04
       247  23  4.811209E+05  1.109478E+05 -2.694874E+03  2.379473E+05 -1.653704E+04  5.099615E+04
       247  24  4.733370E+05  1.187693E+05 -1.461832E+03  2.465825E+05 -1.612573E+04  4.580460E+04
       247  25 -3.183836E+05 -1.733793E+05 -1.713934E+05  2.677075E+04 -1.917481E+04  5.343177E+04
       247  26 -2.364610E+05 -1.530259E+05 -1.515800E+05  3.793905E+04 -2.162965E+04  4.907672E+04
       247  27 -1.707073E+05 -1.183867E+05 -1.346992E+05  6.671342E+04 -2.344585E+04  4.304018E+04
       248   1  1.066908E+06  3.370582E+05  1.211938E+05  4.123840E+05  8.170706E+03 -4.515676E+04
       248   2  1.001326E+06  3.024970E+05  1.066872E+05  3.832043E+05  6.334378E+03 -3.981235E+04
       248   3  9.203567E+05  2.833601E+05  9.207449E+04  3.714869E+05  4.458285E+03 -3.437118E+04
       248   4  4.733943E+05  1.187480E+05 -1.095173E+03  2.466212E+05  1.512280E+04 -4.253013E+04
       248   5  4.811242E+05  1.110921E+05 -5.808321E+02  2.378800E+05  1.341501E+04 -3.713508E+04
       248   6  4.734344E+05  1.188353E+05 -2.752989E+02  2.466004E+05  1.166744E+04 -3.164318E+04
       248   7 -1.197540E+05 -9.952988E+04 -1.234011E+05  8.100559E+04  2.206769E+04 -3.990622E+04
       248   8 -3.880014E+04 -8.028943E+04 -1.078628E+05  9.266794E+04  2.048925E+04 -3.446023E+04
       248   9  2.671349E+04 -4.567344E+04 -9.263630E+04  1.217957E+05  1.887107E+04 -2.891728E+04
       248  10  1.066908E+06  3.370560E+05  1.211899E+05  4.123843E+05  7.999612E-10  5.386944E-09
       248  11  1.001325E+06  3.024953E+05  1.066842E+05  3.832045E+05  4.697270E-09  6.923283E-09
       248  12  9.203563E+05  2.833589E+05  9.207223E+04  3.714870E+05  9.482216E-09  5.788890E-10
       248  13  4.733936E+05  1.187460E+05 -1.099002E+03  2.466217E+05 -5.842080E-10  2.418049E-09
       248  14  4.811236E+05  1.110905E+05 -5.837625E+02  2.378804E+05  4.317785E-09  1.191588E-08
       248  15  4.734340E+05  1.188342E+05 -2.774369E+02  2.466006E+05  6.095173E-10 -1.141811E-08
       248  16 -1.197550E+05 -9.953172E+04 -1.234050E+05  8.100630E+04 -2.170104E-09 -1.521971E-09
       248  17 -3.880091E+04 -8.029082E+04 -1.078659E+05  9.266851E+04 -3.649954E-09 -1.191529E-08
       248  18  2.671288E+04 -4.567443E+04 -9.263854E+04  1.217961E+05 -5.169155E-09 -1.144001E-08
       248  19  1.066908E+06  3.370582E+05  1.211938E+05  4.123840E+05 -8.170706E+03  4.515676E+04
       248  20  1.001326E+06  3.024970E+05  1.066872E+05  3.832043E+05 -6.334378E+03  3.981235E+04
       248  21  9.203567E+05  2.833601E+05  9.207449E+04  3.714869E+05 -4.458285E+03  3.437118E+04
       248  22  4.733943E+05  1.187480E+05 -1.095173E+03  2.466212E+05 -1.512280E+04  4.253013E+04
       248  23  4.811242E+05  1.110921E+05 -5.808321E+02  2.378800E+05 -1.341501E+04  3.713508E+04
       248  24  4.734344E+05  1.188353E+05 -2.752989E+02  2.466004E+05 -1.166744E+04  3.164318E+04
       248  25 -1.197540E+05 -9.952988E+04 -1.234011E+05  8.100559E+04 -2.206769E+04  3.990622E+04
       248  26 -3.880014E+04 -8.028943E+04 -1.078628E+05  9.266794E+04 -2.048925E+04  3.446023E+04
       248  27  2.671349E+04 -4.567344E+04 -9.263630E+04  1.217957E+05 -1.887107E+04  2.891728E+04
       249   1  8.696032E+05  2.646159E+05  8.127396E+04  3.573321E+05  3.329146E+03 -3.118835E+04
       249   2  8.042447E+05  2.301074E+05  6.660784E+04  3.282105E+05  1.279816E+03 -2.577918E+04
       249   3  7.235185E+05  2.109930E+05  5.194735E+04  3.164975E+05 -7.720789E+02 -2.036825E+04
       249   4  4.734526E+05  1.188354E+05 -1.750136E+02  2.465912E+05  1.050921E+04 -2.847037E+04
       249   5  4.811503E+05  1.111571E+05 -2.110077E+00  2.378843E+05  8.462171E+03 -2.305908E+04
       249   6  4.734734E+05  1.188720E+05  1.740698E+02  2.465842E+05  6.412563E+03 -1.764601E+04
       249   7  7.746322E+04 -2.693130E+04 -8.163187E+04  1.359154E+05  1.768435E+04 -2.575426E+04
       249   8  1.581643E+05 -7.783544E+03 -6.661692E+04  1.476019E+05  1.564047E+04 -2.034051E+04
       249   9  2.234944E+05  2.675731E+04 -5.160174E+04  1.766973E+05  1.359403E+04 -1.492498E+04
       249  10  8.696029E+05  2.646149E+05  8.127211E+04  3.573322E+05 -1.697931E-08 -1.164849E-08
       249  11  8.042446E+05  2.301066E+05  6.660659E+04  3.282105E+05  1.978523E-08  9.105122E-09
       249  12  7.235184E+05  2.109925E+05  5.194657E+04  3.164975E+05  6.254886E-08  2.237822E-08
       249  13  4.734523E+05  1.188345E+05 -1.767448E+02  2.465914E+05  2.133889E-09 -5.442945E-09
       249  14  4.811501E+05  1.111565E+05 -3.244162E+00  2.378845E+05 -1.269253E-09  3.734444E-09
       249  15  4.734733E+05  1.188717E+05  1.734072E+02  2.465843E+05  3.357070E-09  3.379800E-09
       249  16  7.746270E+04 -2.693210E+04 -8.163371E+04  1.359158E+05  1.887673E-08  1.239051E-09
       249  17  1.581639E+05 -7.784055E+03 -6.661816E+04  1.476021E+05 -1.797552E-08  3.842240E-09
       249  18  2.234942E+05  2.675702E+04 -5.160250E+04  1.766975E+05 -5.244835E-08 -1.503216E-08
       249  19  8.696032E+05  2.646159E+05  8.127396E+04  3.573321E+05 -3.329146E+03  3.118835E+04
       249  20  8.042447E+05  2.301074E+05  6.660784E+04  3.282105E+05 -1.279816E+03  2.577918E+04
       249  21  7.235185E+05  2.109930E+05  5.194735E+04  3.164975E+05  7.720789E+02  2.036825E+04
       249  22  4.734526E+05  1.188354E+05 -1.750136E+02  2.465912E+05 -1.050921E+04  2.847037E+04
       249  23  4.811503E+05  1.111571E+05 -2.110077E+00  2.378843E+05 -8.462171E+03  2.305908E+04
       249  24  4.734734E+05  1.188720E+05  1.740698E+02  2.465842E+05 -6.412563E+03  1.764601E+04
       249  25  7.746322E+04 -2.693130E+04 -8.163187E+04  1.359154E+05 -1.768435E+04  2.575426E+04
       249  26  1.581643E+05 -7.783544E+03 -6.661692E+04  1.476019E+05 -1.564047E+04  2.034051E+04
       249  27  2.234944E+05  2.675731E+04 -5.160174E+04  1.766973E+05 -1.359403E+04  1.492498E+04
       250   1  6.728817E+05  1.922777E+05  4.116696E+04  3.023699E+05 -1.999169E+03 -1.723120E+04
       250   2  6.076184E+05  1.577926E+05  2.664875E+04  2.732944E+05 -4.324868E+03 -1.192784E+04
       250   3  5.270249E+05  1.386928E+05  1.233726E+04  2.616074E+05 -6.649380E+03 -6.629466E+03
       250   4  4.734888E+05  1.188735E+05  2.754523E+02  2.465813E+05  5.181141E+03 -1.451008E+04
       250   5  4.811582E+05  1.111805E+05  5.693803E+02  2.378888E+05  2.848641E+03 -9.208783E+03
       250   6  4.734945E+05  1.188744E+05  1.075698E+03  2.465834E+05  5.172942E+02 -3.912489E+03
       250   7  2.741353E+05  4.547230E+04 -4.061832E+04  1.908087E+05  1.235903E+04 -1.178987E+04
       250   8  3.547139E+05  6.456966E+04 -2.551075E+04  2.024897E+05  1.002061E+04 -6.490314E+03
       250   9  4.199671E+05  9.905627E+04 -1.018580E+04  2.315606E+05  7.683304E+03 -1.195766E+03
       250  10  6.728816E+05  1.922774E+05  4.116639E+04  3.023699E+05 -4.483212E-08 -1.580719E-08
       250  11  6.076183E+05  1.577924E+05  2.664845E+04  2.732943E+05 -2.225975E-08 -5.014938E-09
       250  12  5.270248E+05  1.386927E+05  1.233709E+04  2.616074E+05  1.165929E-08 -5.409164E-09
       250  13  4.734887E+05  1.188733E+05  2.750060E+02  2.465813E+05  6.645543E-09  2.826833E-09
       250  14  4.811581E+05  1.111804E+05  5.692057E+02  2.378888E+05 -7.023185E-10 -9.986929E-10
       250  15  4.734945E+05  1.188744E+05  1.075668E+03  2.465834E+05  3.791610E-10 -1.028159E-08
       250  16  2.741351E+05  4.547211E+04 -4.061887E+04  1.908088E+05  5.777591E-08  2.974139E-08
       250  17  3.547138E+05  6.456958E+04 -2.551101E+04  2.024898E+05  2.261470E-08  9.863004E-09
       250  18  4.199670E+05  9.905625E+04 -1.018592E+04  2.315606E+05 -1.146062E-08 -5.902268E-09
       250  19  6.728817E+05  1.922777E+05  4.116696E+04  3.023699E+05  1.999169E+03  1.723120E+04
       250  20  6.076184E+05  1.577926E+05  2.664875E+04  2.732944E+05  4.324868E+03  1.192784E+04
       250  21  5.270249E+05  1.386928E+05  1.233726E+04  2.616074E+05  6.649380E+03  6.629466E+03
       250  22  4.734888E+05  1.188735E+05  2.754523E+02  2.465813E+05 -5.181141E+03  1.451008E+04
       250  23  4.811582E+05  1.111805E+05  5.693803E+02  2.378888E+05 -2.848641E+03  9.208783E+03
       250  24  4.734945E+05  1.188744E+05  1.075698E+03  2.465834E+05 -5.172942E+02  3.912489E+03
       250  25  2.741353E+05  4.547230E+04 -4.061832E+04  1.908087E+05 -1.235903E+04  1.178987E+04
       250  26  3.547139E+05  6.456966E+04 -2.551075E+04  2.024897E+05 -1.002061E+04  6.490314E+03
       250  27  4.199671E+05  9.905627E+04 -1.018580E+04  2.315606E+05 -7.683304E+03  1.195766E+03
       251   1  4.764499E+05  1.200030E+05  1.834798E+03  2.475306E+05 -8.063972E+03 -3.565037E+03
       251   2  4.111042E+05  8.550184E+04 -1.180983E+04  2.184711E+05 -1.134082E+04  1.348474E+03
       251   3  3.306010E+05  6.651072E+04 -2.450313E+04  2.068108E+05 -1.459552E+04  6.205367E+03
       251   4  4.735313E+05  1.188700E+05  1.445061E+03  2.465991E+05 -8.856093E+02 -8.435695E+02
       251   5  4.811077E+05  1.111384E+05  2.634739E+03  2.378882E+05 -4.238335E+03  4.040882E+03
       251   6  4.735359E+05  1.189309E+05  4.835611E+03  2.465741E+05 -7.569100E+03  8.868693E+03
       251   7  4.706129E+05  1.177371E+05  1.055552E+03  2.456676E+05  6.292664E+03  1.877862E+03
       251   8  5.511164E+05  1.367753E+05  1.707927E+04  2.573074E+05  2.865007E+03  6.733614E+03
       251   9  6.164930E+05  1.713533E+05  3.417381E+04  2.863462E+05 -5.408857E+02  1.153269E+04
       251  10  4.764498E+05  1.200030E+05  1.834652E+03  2.475306E+05 -5.553236E-09 -4.479952E-09
       251  11  4.111040E+05  8.550180E+04 -1.181008E+04  2.184711E+05 -9.969461E-10 -3.649931E-09
       251  12  3.306008E+05  6.651062E+04 -2.450360E+04  2.068108E+05 -7.333462E-10  2.008651E-09
       251  13  4.735313E+05  1.188700E+05  1.445059E+03  2.465991E+05  6.548295E-11 -3.682756E-09
       251  14  4.811077E+05  1.111383E+05  2.634675E+03  2.378882E+05 -4.380619E-10 -9.087385E-10
       251  15  4.735359E+05  1.189308E+05  4.835355E+03  2.465742E+05 -2.058523E-09 -6.624614E-10
       251  16  4.706129E+05  1.177371E+05  1.055471E+03  2.456676E+05  6.420370E-09  4.240574E-09
       251  17  5.511164E+05  1.367753E+05  1.707917E+04  2.573074E+05  5.926026E-10  1.190905E-08
       251  18  6.164930E+05  1.713532E+05  3.417356E+04  2.863462E+05 -1.913879E-09  9.825710E-10
       251  19  4.764499E+05  1.200030E+05  1.834798E+03  2.475306E+05  8.063972E+03  3.565037E+03
       251  20  4.111042E+05  8.550184E+04 -1.180983E+04  2.184711E+05  1.134082E+04 -1.348474E+03
       251  21  3.306010E+05  6.651072E+04 -2.450313E+04  2.068108E+05  1.459552E+04 -6.205367E+03
       251  22  4.735313E+05  1.188700E+05  1.445061E+03  2.465991E+05  8.856093E+02  8.435695E+02
       251  23  4.811077E+05  1.111384E+05  2.634739E+03  2.378882E+05  4.238335E+03 -4.040882E+03
       251  24  4.735359E+05  1.189309E+05  4.835611E+03  2.465741E+05  7.569100E+03 -8.868693E+03
       251  25  4.706129E+05  1.177371E+05  1.055552E+03  2.456676E+05 -6.292664E+03 -1.877862E+03
       251  26  5.511164E+05  1.367753E+05  1.707927E+04  2.573074E+05 -2.865007E+03 -6.733614E+03
       251  27  6.164930E+05  1.713533E+05  3.417381E+04  2.863462E+05  5.408857E+02 -1.153269E+04
       252   1  2.798483E+05  4.799062E+04 -3.377962E+04  1.932861E+05 -1.690359E+04  8.950304E+03
       252   2  2.146335E+05  1.300411E+04 -4.372251E+04  1.630742E+05 -2.344335E+04  1.217508E+04
       252   3  1.357458E+05 -3.802002E+03 -4.944640E+04  1.496917E+05 -2.962849E+04  1.446954E+04
       252   4  4.737963E+05  1.187603E+05  6.431206E+03  2.467546E+05 -9.672820E+03  1.169072E+04
       252   5  4.807608E+05  1.113218E+05  1.170874E+04  2.376660E+05 -1.744998E+04  1.444550E+04
       252   6  4.742909E+05  1.223066E+05  2.218428E+04  2.454040E+05 -2.487317E+04  1.626996E+04
       252   7  6.677829E+05  1.895330E+05  4.664025E+04  3.002384E+05 -2.439613E+03  1.443203E+04
       252   8  7.469596E+05  2.096453E+05  6.713605E+04  3.122871E+05 -1.145387E+04  1.671696E+04
       252   9  8.129505E+05  2.484246E+05  9.380793E+04  3.411638E+05 -2.011508E+04  1.807145E+04
       252  10  2.798480E+05  4.799046E+04 -3.378031E+04  1.932862E+05  1.128918E-08  2.554021E-09
       252  11  2.146328E+05  1.300380E+04 -4.372382E+04  1.630744E+05 -7.161383E-09 -6.211838E-09
       252  12  1.357448E+05 -3.802463E+03 -4.944844E+04  1.496920E+05 -2.539769E-08 -1.389036E-08
       252  13  4.737962E+05  1.187601E+05  6.430773E+03  2.467547E+05  5.503549E-10 -2.466925E-09
       252  14  4.807604E+05  1.113215E+05  1.170778E+04  2.376662E+05  3.449460E-09  2.295175E-09
       252  15  4.742902E+05  1.223062E+05  2.218262E+04  2.454043E+05 -8.176095E-10 -1.029195E-08
       252  16  6.677828E+05  1.895328E+05  4.663984E+04  3.002384E+05 -8.627584E-09 -2.138206E-09
       252  17  7.469594E+05  2.096450E+05  6.713528E+04  3.122873E+05  1.090860E-08  3.246795E-09
       252  18  8.129500E+05  2.484241E+05  9.380656E+04  3.411641E+05  2.315562E-08  3.094298E-09
       252  19  2.798483E+05  4.799062E+04 -3.377962E+04  1.932861E+05  1.690359E+04 -8.950304E+03
       252  20  2.146335E+05  1.300411E+04 -4.372251E+04  1.630742E+05  2.344335E+04 -1.217508E+04
       252  21  1.357458E+05 -3.802002E+03 -4.944640E+04  1.496917E+05  2.962849E+04 -1.446954E+04
       252  22  4.737963E+05  1.187603E+05  6.431206E+03  2.467546E+05  9.672820E+03 -1.169072E+04
       252  23  4.807608E+05  1.113218E+05  1.170874E+04  2.376660E+05  1.744998E+04 -1.444550E+04
       252  24  4.742909E+05  1.223066E+05  2.218428E+04  2.454040E+05  2.487317E+04 -1.626996E+04
       252  25  6.677829E+05  1.895330E+05  4.664025E+04  3.002384E+05  2.439613E+03 -1.443203E+04
       252  26  7.469596E+05  2.096453E+05  6.713605E+04  3.122871E+05  1.145387E+04 -1.671696E+04
       252  27  8.129505E+05  2.484246E+05  9.380793E+04  3.411638E+05  2.011508E+04 -1.807145E+04
       253   1  8.000645E+04 -1.885091E+04 -5.355138E+04  1.477748E+05 -3.758527E+04  1.535934E+04
       253   2  3.060827E+04 -6.559818E+04 -5.005338E+04  8.491752E+04 -4.512243E+04  1.078497E+04
       253   3 -7.541508E+03 -3.194404E+04 -2.243880E+04  2.119024E+04 -4.691981E+04 -8.951845E+03
       253   4  4.779408E+05  1.180615E+05  2.888426E+04  2.486235E+05 -2.954037E+04  1.840585E+04
       253   5  4.769267E+05  1.220057E+05  5.362604E+04  2.315832E+05 -5.719823E+04  6.208600E+03
       253   6  4.911225E+05  2.103016E+05  1.184188E+05  2.136752E+05 -7.912054E+04 -2.114713E+04
       253   7  8.760410E+05  2.549838E+05  1.113130E+05  3.495307E+05 -2.148981E+04  2.145418E+04
       253   8  9.234476E+05  3.096417E+05  1.572925E+05  3.783512E+05 -6.928339E+04  1.627609E+03
       253   9  9.900316E+05  4.526130E+05  2.592560E+05  4.063142E+05 -1.113491E+05 -3.335996E+04
       253  10  8.000487E+04 -1.885154E+04 -5.355448E+04  1.477753E+05  6.943400E-09  3.404985E-09
       253  11  3.060605E+04 -6.559885E+04 -5.005742E+04  8.491791E+04  1.207133E-08  1.458334E-08
       253  12 -7.543894E+03 -3.194472E+04 -2.244309E+04  2.118990E+04  4.287765E-09  4.793777E-09
       253  13  4.779397E+05  1.180609E+05  2.888199E+04  2.486240E+05 -4.938893E-10 -8.260991E-09
       253  14  4.769232E+05  1.220047E+05  5.361982E+04  2.315835E+05  4.129983E-09  7.799231E-09
       253  15  4.911156E+05  2.102994E+05  1.184062E+05  2.136738E+05  4.661254E-09  8.727633E-10
       253  16  8.760404E+05  2.549831E+05  1.113113E+05  3.495311E+05 -8.457279E-09 -1.963571E-09
       253  17  9.234425E+05  3.096404E+05  1.572835E+05  3.783513E+05  1.785868E-09 -3.843255E-09
       253  18  9.900180E+05  4.526085E+05  2.592306E+05  4.063113E+05  2.583795E-09 -2.843684E-09
       253  19  8.000645E+04 -1.885091E+04 -5.355138E+04  1.477748E+05  3.758527E+04 -1.535934E+04
       253  20  3.060827E+04 -6.559818E+04 -5.005338E+04  8.491752E+04  4.512243E+04 -1.078497E+04
       253  21 -7.541508E+03 -3.194404E+04 -2.243880E+04  2.119024E+04  4.691981E+04  8.951845E+03
       253  22  4.779408E+05  1.180615E+05  2.888426E+04  2.486235E+05  2.954037E+04 -1.840585E+04
       253  23  4.769267E+05  1.220057E+05  5.362604E+04  2.315832E+05  5.719823E+04 -6.208600E+03
       253  24  4.911225E+05  2.103016E+05  1.184188E+05  2.136752E+05  7.912054E+04  2.114713E+04
       253  25  8.760410E+05  2.549838E+05  1.113130E+05  3.495307E+05  2.148981E+04 -2.145418E+04
       253  26  9.234476E+05  3.096417E+05  1.572925E+05  3.783512E+05  6.928339E+04 -1.627609E+03
       253  27  9.900316E+05  4.526130E+05  2.592560E+05  4.063142E+05  1.113491E+05  3.335996E+04
       254   1  4.870773E+04 -4.939410E+03 -7.960973E+03 -1.927147E+03 -1.056997E+04 -5.116161E+02
       254   2  4.285376E+04  7.369488E+03 -1.055095E+03  1.222675E+03 -7.391962E+03 -1.440609E+03
       254   3  3.326969E+04  6.509789E+03  4.869521E+02  7.308093E+03 -4.217700E+03 -1.294840E+03
       254   4  9.424754E+03 -1.463681E+04 -1.746447E+04  5.252813E+03 -1.202313E+04 -5.167481E+02
       254   5  1.138188E+04 -2.946937E+02 -8.011846E+03  3.758554E+03 -7.787779E+03 -1.442012E+03
       254   6  9.424986E+03  6.948033E+02 -4.657555E+03  5.199936E+03 -3.556131E+03 -1.292538E+03
       254   7 -2.985670E+04 -2.433413E+04 -2.696804E+04  1.243232E+04 -1.347619E+04 -5.219140E+02
       254   8 -2.008907E+04 -7.958917E+03 -1.496865E+04  6.294302E+03 -8.183577E+03 -1.443419E+03
       254   9 -1.441918E+04 -5.120203E+03 -9.802092E+03  3.091861E+03 -2.894587E+03 -1.290240E+03
       254  10  4.870761E+04 -4.939440E+03 -7.961183E+03 -1.927151E+03 -1.119453E-08  3.702202E-10
       254  11  4.285371E+04  7.369471E+03 -1.055202E+03  1.222666E+03  7.792523E-09  1.068988E-08
       254  12  3.326967E+04  6.509782E+03  4.869155E+02  7.308088E+03  1.838251E-08  8.377809E-09
       254  13  9.424599E+03 -1.463685E+04 -1.746474E+04  5.252808E+03 -8.720751E-12 -5.461774E-09
       254  14  1.138181E+04 -2.947122E+02 -8.011963E+03  3.758545E+03 -3.174038E-09 -1.092342E-08
       254  15  9.424972E+03  6.947981E+02 -4.657582E+03  5.199932E+03 -1.176718E-09  3.940637E-09
       254  16 -2.985689E+04 -2.433418E+04 -2.696838E+04  1.243231E+04  1.054192E-08  1.469714E-09
       254  17 -2.008914E+04 -7.958937E+03 -1.496878E+04  6.294293E+03 -6.961096E-09  1.022820E-08
       254  18 -1.441919E+04 -5.120207E+03 -9.802111E+03  3.091858E+03 -1.728047E-08  2.868199E-09
       254  19  4.870773E+04 -4.939410E+03 -7.960973E+03 -1.927147E+03  1.056997E+04  5.116161E+02
       254  20  4.285376E+04  7.369488E+03 -1.055095E+03  1.222675E+03  7.391962E+03  1.440609E+03
       254  21  3.326969E+04  6.509789E+03  4.869521E+02  7.308093E+03  4.217700E+03  1.294840E+03
       254  22  9.424754E+03 -1.463681E+04 -1.746447E+04  5.252813E+03  1.202313E+04  5.167481E+02
       254  23  1.138188E+04 -2.946937E+02 -8.011846E+03  3.758554E+03  7.787779E+03  1.442012E+03
       254  24  9.424986E+03  6.948033E+02 -4.657555E+03  5.199936E+03  3.556131E+03  1.292538E+03
       254  25 -2.985670E+04 -2.433413E+04 -2.696804E+04  1.243232E+04  1.347619E+04  5.219140E+02
       254  26 -2.008907E+04 -7.958917E+03 -1.496865E+04  6.294302E+03  8.183577E+03  1.443419E+03
       254  27 -1.441918E+04 -5.120203E+03 -9.802092E+03  3.091861E+03  2.894587E+03  1.290240E+03
       255   1  2.803673E+04  3.644024E+03  1.710108E+02  5.016832E+03 -3.266581E+03 -9.457944E+02
       255   2  2.051817E+04  2.499660E+03  1.838022E+02  3.713849E+03 -2.313556E+03 -5.511022E+02
       255   3  1.268139E+04  6.807906E+02 -5.984131E+02  5.364565E+03 -1.360731E+03 -1.070760E+02
       255   4  1.022214E+04 -6.878477E+02 -3.683520E+03  5.218430E+03 -2.905670E+03 -9.445460E+02
       255   5  1.038558E+04  3.648321E+01 -2.001332E+03  3.740246E+03 -1.904132E+03 -5.496823E+02
       255   6  1.022219E+04  7.784813E+01 -1.147893E+03  5.215770E+03 -9.027838E+02 -1.054846E+02
       255   7 -7.592146E+03 -5.019740E+03 -7.538070E+03  5.420023E+03 -2.544770E+03 -9.432973E+02
       255   8  2.530935E+02 -2.426700E+03 -4.186471E+03  3.766644E+03 -1.494716E+03 -5.482624E+02
       255   9  7.762994E+03 -5.250946E+02 -1.697373E+03  5.066975E+03 -4.448388E+02 -1.038934E+02
       255  10  2.803672E+04  3.644020E+03  1.709891E+02  5.016830E+03 -1.461410E-08  4.247282E-10
       255  11  2.051817E+04  2.499658E+03  1.837915E+02  3.713848E+03 -5.551968E-09  5.120470E-09
       255  12  1.268138E+04  6.807901E+02 -5.984166E+02  5.364565E+03  3.711023E-09  4.452384E-09
       255  13  1.022213E+04 -6.878509E+02 -3.683538E+03  5.218428E+03  1.697375E-11  1.324526E-08
       255  14  1.038558E+04  3.648191E+01 -2.001339E+03  3.740246E+03 -2.609424E-09 -2.104325E-08
       255  15  1.022219E+04  7.784789E+01 -1.147895E+03  5.215770E+03 -1.067761E-09  7.678496E-09
       255  16 -7.592153E+03 -5.019743E+03 -7.538084E+03  5.420021E+03  1.405892E-08 -6.749146E-09
       255  17  2.530910E+02 -2.426701E+03 -4.186476E+03  3.766643E+03  2.829770E-09 -2.631834E-09
       255  18  7.762994E+03 -5.250947E+02 -1.697373E+03  5.066975E+03 -6.402534E-09  5.709910E-10
       255  19  2.803673E+04  3.644024E+03  1.710108E+02  5.016832E+03  3.266581E+03  9.457944E+02
       255  20  2.051817E+04  2.499660E+03  1.838022E+02  3.713849E+03  2.313556E+03  5.511022E+02
       255  21  1.268139E+04  6.807906E+02 -5.984131E+02  5.364565E+03  1.360731E+03  1.070760E+02
       255  22  1.022214E+04 -6.878477E+02 -3.683520E+03  5.218430E+03  2.905670E+03  9.445460E+02
       255  23  1.038558E+04  3.648321E+01 -2.001332E+03  3.740246E+03  1.904132E+03  5.496823E+02
       255  24  1.022219E+04  7.784813E+01 -1.147893E+03  5.215770E+03  9.027838E+02  1.054846E+02
       255  25 -7.592146E+03 -5.019740E+03 -7.538070E+03  5.420023E+03  2.544770E+03  9.432973E+02
       255  26  2.530935E+02 -2.426700E+03 -4.186471E+03  3.766644E+03  1.494716E+03  5.482624E+02
       255  27  7.762994E+03 -5.250946E+02 -1.697373E+03  5.066975E+03  4.448388E+02  1.038934E+02
       256   1  6.722064E+03 -8.594670E+02 -1.657102E+03  5.227451E+03 -1.169675E+03  1.623535E+02
       256   2 -9.232217E+02 -2.696316E+03 -2.897235E+03  3.728613E+03 -9.331517E+02  6.156811E+02
       256   3 -8.629391E+03 -4.550379E+03 -4.301816E+03  5.184361E+03 -6.966288E+02  1.071270E+03
       256   4  1.028121E+04  8.855611E+00 -8.739615E+02  5.216715E+03 -7.255344E+02  1.638966E+02
       256   5  1.031179E+04  3.309003E+01 -4.849957E+02  3.739368E+03 -4.867846E+02  6.172291E+02
       256   6  1.028116E+04  3.975618E+01 -2.619929E+02  5.216603E+03 -2.480328E+02  1.072823E+03
       256   7  1.384037E+04  8.771775E+02 -9.082122E+01  5.205978E+03 -2.813910E+02  1.654397E+02
       256   8  2.154692E+04  2.762488E+03  1.927237E+03  3.750122E+03 -4.040956E+01  6.187770E+02
       256   9  2.919204E+04  4.629868E+03  3.777810E+03  5.248845E+03  2.005767E+02  1.074376E+03
       256  10  6.722062E+03 -8.594674E+02 -1.657104E+03  5.227451E+03  4.634398E-09 -7.546692E-09
       256  11 -9.232228E+02 -2.696317E+03 -2.897238E+03  3.728614E+03  4.564883E-10 -5.410031E-09
       256  12 -8.629391E+03 -4.550380E+03 -4.301819E+03  5.184362E+03 -5.000051E-09 -6.960528E-09
       256  13  1.028121E+04  8.855440E+00 -8.739625E+02  5.216715E+03 -2.148192E-09 -5.978139E-09
       256  14  1.031179E+04  3.308956E+01 -4.849969E+02  3.739368E+03 -2.607038E-09 -8.854818E-09
       256  15  1.028115E+04  3.975492E+01 -2.619952E+02  5.216603E+03 -2.474931E-10 -1.092603E-09
       256  16  1.384037E+04  8.771774E+02 -9.082142E+01  5.205978E+03 -4.958600E-09 -6.491592E-09
       256  17  2.154692E+04  2.762488E+03  1.927236E+03  3.750122E+03 -8.684420E-10  5.362975E-09
       256  18  2.919204E+04  4.629867E+03  3.777808E+03  5.248845E+03  5.112311E-09  9.968411E-09
       256  19  6.722064E+03 -8.594670E+02 -1.657102E+03  5.227451E+03  1.169675E+03 -1.623535E+02
       256  20 -9.232217E+02 -2.696316E+03 -2.897235E+03  3.728613E+03  9.331517E+02 -6.156811E+02
       256  21 -8.629391E+03 -4.550379E+03 -4.301816E+03  5.184361E+03  6.966288E+02 -1.071270E+03
       256  22  1.028121E+04  8.855611E+00 -8.739615E+02  5.216715E+03  7.255344E+02 -1.638966E+02
       256  23  1.031179E+04  3.309003E+01 -4.849957E+02  3.739368E+03  4.867846E+02 -6.172291E+02
       256  24  1.028116E+04  3.975618E+01 -2.619929E+02  5.216603E+03  2.480328E+02 -1.072823E+03
       256  25  1.384037E+04  8.771775E+02 -9.082122E+01  5.205978E+03  2.813910E+02 -1.654397E+02
       256  26  2.154692E+04  2.762488E+03  1.927237E+03  3.750122E+03  4.040956E+01 -6.187770E+02
       256  27  2.919204E+04  4.629868E+03  3.777810E+03  5.248845E+03 -2.005767E+02 -1.074376E+03
       257   1 -1.463912E+04 -6.023738E+03 -5.559272E+03  5.161858E+03 -6.565989E+02  1.336647E+03
       257   2 -2.230264E+04 -7.894733E+03 -7.069083E+03  3.663195E+03 -6.249527E+02  1.792082E+03
       257   3 -2.999093E+04 -9.747275E+03 -8.600930E+03  5.119454E+03 -5.932894E+02  2.247614E+03
       257   4  1.028918E+04  3.700207E+01 -1.848781E+02  5.216712E+03 -2.086319E+02  1.338195E+03
       257   5  1.030152E+04  2.677696E+01 -6.734633E+01  3.739256E+03 -1.768916E+02  1.793622E+03
       257   6  1.028902E+04  3.499212E+01  2.808526E+01  5.216714E+03 -1.451338E+02  2.249146E+03
       257   7  3.521806E+04  6.097702E+03  5.189480E+03  5.271568E+03  2.393529E+02  1.339742E+03
       257   8  4.290669E+04  7.948218E+03  6.934329E+03  3.815321E+03  2.711928E+02  1.795161E+03
       257   9  5.057050E+04  9.817153E+03  8.657007E+03  5.313979E+03  3.030504E+02  2.250678E+03
       257  10 -1.463912E+04 -6.023741E+03 -5.559276E+03  5.161859E+03  4.399091E-09 -1.093838E-08
       257  11 -2.230264E+04 -7.894737E+03 -7.069090E+03  3.663195E+03 -1.269316E-08 -2.065831E-10
       257  12 -2.999094E+04 -9.747280E+03 -8.600940E+03  5.119455E+03 -2.815662E-08 -1.868618E-09
       257  13  1.028918E+04  3.700014E+01 -1.848816E+02  5.216712E+03 -2.149636E-09  8.283635E-10
       257  14  1.030152E+04  2.677350E+01 -6.735244E+01  3.739257E+03  8.885746E-11 -6.729736E-09
       257  15  1.028902E+04  3.498668E+01  2.807571E+01  5.216714E+03 -1.084780E-09 -6.903968E-09
       257  16  3.521806E+04  6.097700E+03  5.189476E+03  5.271568E+03 -5.535091E-09  4.088682E-09
       257  17  4.290668E+04  7.948214E+03  6.934323E+03  3.815321E+03  1.146911E-08  8.441625E-09
       257  18  5.057050E+04  9.817148E+03  8.656998E+03  5.313978E+03  2.867816E-08  1.615818E-09
       257  19 -1.463912E+04 -6.023738E+03 -5.559272E+03  5.161858E+03  6.565989E+02 -1.336647E+03
       257  20 -2.230264E+04 -7.894733E+03 -7.069083E+03  3.663195E+03  6.249527E+02 -1.792082E+03
       257  21 -2.999093E+04 -9.747275E+03 -8.600930E+03  5.119454E+03  5.932894E+02 -2.247614E+03
       257  22  1.028918E+04  3.700207E+01 -1.848781E+02  5.216712E+03  2.086319E+02 -1.338195E+03
       257  23  1.030152E+04  2.677696E+01 -6.734633E+01  3.739256E+03  1.768916E+02 -1.793622E+03
       257  24  1.028902E+04  3.499212E+01  2.808526E+01  5.216714E+03  1.451338E+02 -2.249146E+03
       257  25  3.521806E+04  6.097702E+03  5.189480E+03  5.271568E+03 -2.393529E+02 -1.339742E+03
       257  26  4.290669E+04  7.948218E+03  6.934329E+03  3.815321E+03 -2.711928E+02 -1.795161E+03
       257  27  5.057050E+04  9.817153E+03  8.657007E+03  5.313979E+03 -3.030504E+02 -2.250678E+03
       258   1 -3.600484E+04 -1.121787E+04 -9.886575E+03  5.104599E+03 -6.038147E+02  2.512696E+03
       258   2 -4.367846E+04 -1.309203E+04 -1.139377E+04  3.612422E+03 -7.026501E+02  2.967754E+03
       258   3 -5.135748E+04 -1.494187E+04 -1.283636E+04  5.075839E+03 -8.014526E+02  3.422516E+03
       258   4  1.029320E+04  3.507186E+01  7.719812E+01  5.216865E+03 -1.555918E+02  2.514222E+03
       258   5  1.029583E+04  2.175864E+01  1.974412E+02  3.739076E+03 -2.547317E+02  2.969265E+03
       258   6  1.029294E+04  3.279421E+01  3.824573E+02  5.216867E+03 -3.538399E+02  3.424014E+03
       258   7  5.659325E+04  1.128788E+04  1.004085E+04  5.329136E+03  2.926641E+02  2.515748E+03
       258   8  6.427286E+04  1.313536E+04  1.178848E+04  3.865739E+03  1.932251E+02  2.970777E+03
       258   9  7.194693E+04  1.500721E+04  1.360105E+04  5.357906E+03  9.381662E+01  3.425511E+03
       258  10 -3.600485E+04 -1.121788E+04 -9.886588E+03  5.104601E+03  1.338506E-08 -9.244347E-10
       258  11 -4.367846E+04 -1.309204E+04 -1.139378E+04  3.612423E+03  5.420638E-09 -7.171754E-09
       258  12 -5.135748E+04 -1.494189E+04 -1.283638E+04  5.075841E+03 -1.057046E-08 -6.685772E-09
       258  13  1.029320E+04  3.506507E+01  7.718620E+01  5.216865E+03 -1.108593E-09  4.204421E-09
       258  14  1.029583E+04  2.174915E+01  1.974246E+02  3.739077E+03 -4.369031E-10 -8.680571E-09
       258  15  1.029294E+04  3.278158E+01  3.824350E+02  5.216868E+03 -7.647641E-10 -2.028401E-09
       258  16  5.659325E+04  1.128787E+04  1.004083E+04  5.329136E+03 -1.323074E-08 -3.851472E-09
       258  17  6.427286E+04  1.313535E+04  1.178846E+04  3.865739E+03 -7.673114E-09 -1.637527E-08
       258  18  7.194693E+04  1.500720E+04  1.360103E+04  5.357905E+03  1.059378E-08 -8.330229E-09
       258  19 -3.600484E+04 -1.121787E+04 -9.886575E+03  5.104599E+03  6.038147E+02 -2.512696E+03
       258  20 -4.367846E+04 -1.309203E+04 -1.139377E+04  3.612422E+03  7.026501E+02 -2.967754E+03
       258  21 -5.135748E+04 -1.494187E+04 -1.283636E+04  5.075839E+03  8.014526E+02 -3.422516E+03
       258  22  1.029320E+04  3.507186E+01  7.719812E+01  5.216865E+03  1.555918E+02 -2.514222E+03
       258  23  1.029583E+04  2.175864E+01  1.974412E+02  3.739076E+03  2.547317E+02 -2.969265E+03
       258  24  1.029294E+04  3.279421E+01  3.824573E+02  5.216867E+03  3.538399E+02 -3.424014E+03
       258  25  5.659325E+04  1.128788E+04  1.004085E+04  5.329136E+03 -2.926641E+02 -2.515748E+03
       258  26  6.427286E+04  1.313536E+04  1.178848E+04  3.865739E+03 -1.932251E+02 -2.970777E+03
       258  27  7.194693E+04  1.500721E+04  1.360105E+04  5.357906E+03 -9.381662E+01 -3.425511E+03
       259   1 -5.736235E+04 -1.641783E+04 -1.403938E+04  5.073527E+03 -8.852249E+02  3.687870E+03
       259   2 -6.506817E+04 -1.829590E+04 -1.527192E+04  3.581048E+03 -1.330928E+03  4.139868E+03
       259   3 -7.271707E+04 -2.008508E+04 -1.619762E+04  5.043158E+03 -1.776569E+03  4.584980E+03
       259   4  1.030691E+04  2.757276E+01  5.140676E+02  5.216707E+03 -4.356644E+02  3.689364E+03
       259   5  1.027766E+04  1.073393E+01  9.103189E+02  3.739325E+03 -8.881900E+02  4.141320E+03
       259   6  1.030655E+04  8.399468E+01  1.618135E+03  5.216510E+03 -1.340659E+03  4.586392E+03
       259   7  7.798049E+04  1.647267E+04  1.506725E+04  5.359899E+03  1.394442E+01  3.690858E+03
       259   8  8.562883E+04  1.831699E+04  1.709222E+04  3.897616E+03 -4.453987E+02  4.142773E+03
       259   9  9.333666E+04  2.025261E+04  1.943349E+04  5.389879E+03 -9.046907E+02  4.587804E+03
       259  10 -5.736236E+04 -1.641784E+04 -1.403941E+04  5.073529E+03 -1.028840E-08 -1.968528E-09
       259  11 -6.506818E+04 -1.829592E+04 -1.527195E+04  3.581053E+03 -2.485478E-09 -1.424905E-08
       259  12 -7.271708E+04 -2.008510E+04 -1.619767E+04  5.043165E+03  2.976009E-09 -6.424908E-09
       259  13  1.030691E+04  2.755809E+01  5.140417E+02  5.216708E+03  6.722335E-12 -1.951193E-09
       259  14  1.027765E+04  1.071530E+01  9.102852E+02  3.739328E+03 -2.071924E-09 -3.038368E-09
       259  15  1.030655E+04  8.397161E+01  1.618092E+03  5.216515E+03 -1.055821E-09 -3.363384E-09
       259  16  7.798048E+04  1.647266E+04  1.506723E+04  5.359898E+03  1.053391E-08  4.233711E-09
       259  17  8.562883E+04  1.831698E+04  1.709219E+04  3.897618E+03  2.899288E-09 -5.433193E-09
       259  18  9.333666E+04  2.025259E+04  1.943345E+04  5.389883E+03 -1.809897E-09  4.582199E-09
       259  19 -5.736235E+04 -1.641783E+04 -1.403938E+04  5.073527E+03  8.852249E+02 -3.687870E+03
       259  20 -6.506817E+04 -1.829590E+04 -1.527192E+04  3.581048E+03  1.330928E+03 -4.139868E+03
       259  21 -7.271707E+04 -2.008508E+04 -1.619762E+04  5.043158E+03  1.776569E+03 -4.584980E+03
       259  22  1.030691E+04  2.757276E+01  5.140676E+02  5.216707E+03  4.356644E+02 -3.689364E+03
       259  23  1.027766E+04  1.073393E+01  9.103189E+02  3.739325E+03  8.881900E+02 -4.141320E+03
       259  24  1.030655E+04  8.399468E+01  1.618135E+03  5.216510E+03  1.340659E+03 -4.586392E+03
       259  25  7.798049E+04  1.647267E+04  1.506725E+04  5.359899E+03 -1.394442E+01 -3.690858E+03
       259  26  8.562883E+04  1.831699E+04  1.709222E+04  3.897616E+03  4.453987E+02 -4.142773E+03
       259  27  9.333666E+04  2.025261E+04  1.943349E+04  5.389879E+03  9.046907E+02 -4.587804E+03
       260   1 -7.863297E+04 -2.168116E+04 -1.702503E+04  5.253162E+03 -2.148996E+03  4.860209E+03
       260   2 -8.657123E+04 -2.350128E+04 -1.711285E+04  3.401731E+03 -3.848739E+03  5.265324E+03
       260   3 -9.398760E+04 -2.403327E+04 -1.577697E+04  4.496667E+03 -5.547926E+03  5.519932E+03
       260   4  1.041506E+04 -4.307840E+01  2.119502E+03  5.215995E+03 -1.670979E+03  4.861748E+03
       260   5  1.014109E+04  3.491126E+00  3.685472E+03  3.740506E+03 -3.519066E+03  5.266349E+03
       260   6  1.041461E+04  1.363838E+03  6.777993E+03  5.211351E+03 -5.366617E+03  5.520451E+03
       260   7  9.947054E+04  2.159448E+04  2.126357E+04  5.178817E+03 -1.192895E+03  4.863288E+03
       260   8  1.068622E+05  2.350765E+04  2.448324E+04  4.079327E+03 -3.189342E+03  5.267374E+03
       260   9  1.148271E+05  2.676023E+04  2.933231E+04  5.926148E+03 -5.185278E+03  5.520971E+03
       260  10 -7.863298E+04 -2.168118E+04 -1.702508E+04  5.253171E+03  5.785062E-09 -4.375474E-09
       260  11 -8.657125E+04 -2.350132E+04 -1.711293E+04  3.401747E+03  3.577532E-09  3.543050E-09
       260  12 -9.398764E+04 -2.403331E+04 -1.577708E+04  4.496692E+03 -1.484527E-09 -2.278480E-09
       260  13  1.041505E+04 -4.310454E+01  2.119453E+03  5.216002E+03 -1.063224E-09 -1.579411E-08
       260  14  1.014107E+04  3.458020E+00  3.685397E+03  3.740521E+03  6.408636E-10  8.549948E-09
       260  15  1.041457E+04  1.363798E+03  6.777881E+03  5.211375E+03 -1.184091E-09 -7.220036E-10
       260  16  9.947053E+04  2.159445E+04  2.126352E+04  5.178822E+03 -5.082645E-09 -4.722190E-09
       260  17  1.068622E+05  2.350762E+04  2.448317E+04  4.079340E+03 -2.892250E-09 -1.042306E-08
       260  18  1.148270E+05  2.676019E+04  2.933220E+04  5.926171E+03  2.264242E-09 -2.515814E-09
       260  19 -7.863297E+04 -2.168116E+04 -1.702503E+04  5.253162E+03  2.148996E+03 -4.860209E+03
       260  20 -8.657123E+04 -2.350128E+04 -1.711285E+04  3.401731E+03  3.848739E+03 -5.265324E+03
       260  21 -9.398760E+04 -2.403327E+04 -1.577697E+04  4.496667E+03  5.547926E+03 -5.519932E+03
       260  22  1.041506E+04 -4.307840E+01  2.119502E+03  5.215995E+03  1.670979E+03 -4.861748E+03
       260  23  1.014109E+04  3.491126E+00  3.685472E+03  3.740506E+03  3.519066E+03 -5.266349E+03
       260  24  1.041461E+04  1.363838E+03  6.777993E+03  5.211351E+03  5.366617E+03 -5.520451E+03
       260  25  9.947054E+04  2.159448E+04  2.126357E+04  5.178817E+03  1.192895E+03 -4.863288E+03
       260  26  1.068622E+05  2.350765E+04  2.448324E+04  4.079327E+03  3.189342E+03 -5.267374E+03
       260  27  1.148271E+05  2.676023E+04  2.933231E+04  5.926148E+03  5.185278E+03 -5.520971E+03
       261   1 -9.865310E+04 -2.801065E+04 -1.518459E+04  8.681991E+03 -7.666053E+03  6.024474E+03
       261   2 -1.096046E+05 -2.820007E+04 -1.120941E+04 -1.327125E+03 -1.222020E+04  5.487307E+03
       261   3 -1.139649E+05 -4.329409E+03  1.744025E+03 -8.591882E+03 -1.676380E+04  1.670148E+03
       261   4  1.188153E+04 -1.180047E+03  8.569116E+03  5.191271E+03 -6.567396E+03  6.028009E+03
       261   5  8.306324E+03  6.111520E+02  1.473760E+04  3.773957E+03 -1.434993E+04  5.480297E+03
       261   6  1.188122E+04  2.702018E+04  3.212510E+04  5.100835E+03 -2.212197E+04  1.652746E+03
       261   7  1.224277E+05  2.564981E+04  3.232212E+04  1.699911E+03 -5.468546E+03  6.031531E+03
       261   8  1.262303E+05  2.942154E+04  4.068378E+04  8.876010E+03 -1.648005E+04  5.473252E+03
       261   9  1.377422E+05  5.836931E+04  6.250525E+04  1.879633E+04 -2.748122E+04  1.635111E+03
       261  10 -9.865317E+04 -2.801071E+04 -1.518477E+04  8.682028E+03  2.909450E-10 -1.418762E-09
       261  11 -1.096047E+05 -2.820015E+04 -1.120974E+04 -1.327071E+03  5.557599E-09 -4.311633E-10
       261  12 -1.139652E+05 -4.329487E+03  1.743492E+03 -8.591859E+03  6.956933E-09  6.662763E-09
       261  13  1.188148E+04 -1.180098E+03  8.568967E+03  5.191303E+03 -1.044523E-11  5.059191E-09
       261  14  8.306094E+03  6.110645E+02  1.473715E+04  3.774021E+03 -9.858533E-10  8.185590E-09
       261  15  1.188070E+04  2.702004E+04  3.212418E+04  5.100865E+03  1.787357E-11  5.375277E-09
       261  16  1.224276E+05  2.564976E+04  3.232200E+04  1.699938E+03  8.968124E-10  5.378530E-10
       261  17  1.262300E+05  2.942144E+04  4.068322E+04  8.876083E+03 -5.815551E-09  1.206471E-08
       261  18  1.377414E+05  5.836911E+04  6.250382E+04  1.879636E+04 -7.633556E-09 -9.910441E-10
       261  19 -9.865310E+04 -2.801065E+04 -1.518459E+04  8.681991E+03  7.666053E+03 -6.024474E+03
       261  20 -1.096046E+05 -2.820007E+04 -1.120941E+04 -1.327125E+03  1.222020E+04 -5.487307E+03
       261  21 -1.139649E+05 -4.329409E+03  1.744025E+03 -8.591882E+03  1.676380E+04 -1.670148E+03
       261  22  1.188153E+04 -1.180047E+03  8.569116E+03  5.191271E+03  6.567396E+03 -6.028009E+03
       261  23  8.306324E+03  6.111520E+02  1.473760E+04  3.773957E+03  1.434993E+04 -5.480297E+03
       261  24  1.188122E+04  2.702018E+04  3.212510E+04  5.100835E+03  2.212197E+04 -1.652746E+03
       261  25  1.224277E+05  2.564981E+04  3.232212E+04  1.699911E+03  5.468546E+03 -6.031531E+03
       261  26  1.262303E+05  2.942154E+04  4.068378E+04  8.876010E+03  1.648005E+04 -5.473252E+03
       261  27  1.377422E+05  5.836931E+04  6.250525E+04  1.879633E+04  2.748122E+04 -1.635111E+03
       262   1 -2.853295E+05 -1.178510E+06 -2.938564E+05  1.552707E+05 -9.807452E+03 -9.119497E+04
       262   2 -1.650587E+05 -9.962947E+05 -1.904484E+05  9.868178E+04 -2.977219E+04 -4.597145E+04
       262   3 -1.183364E+05 -8.377159E+05 -1.348273E+05  1.064155E+05 -2.669772E+04 -6.589321E+02
       262   4 -7.661398E+04 -3.404754E+05 -9.056186E+04  1.155767E+05 -9.898528E+03 -6.044251E+04
       262   5 -2.225622E+03 -3.305826E+05 -4.302689E+04  8.353512E+04 -2.979320E+04 -3.782830E+04
       262   6  2.588242E+03 -3.403950E+05 -2.752893E+04  1.158199E+05 -2.665619E+04 -1.513886E+04
       262   7  1.320561E+05  4.982063E+05  1.126863E+05  7.582921E+04 -9.993485E+03 -2.964856E+04
       262   8  1.605783E+05  3.355445E+05  1.043675E+05  6.837228E+04 -2.981460E+04 -2.967648E+04
       262   9  1.234970E+05  1.571592E+05  7.975572E+04  1.252320E+05 -2.661512E+04 -2.963023E+04
       262  10 -2.853318E+05 -1.178518E+06 -2.938723E+05  1.552700E+05  8.184183E-10  8.637503E-09
       262  11 -1.650602E+05 -9.962972E+05 -1.904540E+05  9.868068E+04  5.225656E-10  1.578705E-09
       262  12 -1.183371E+05 -8.377161E+05 -1.348287E+05  1.064154E+05  3.914454E-09 -1.372958E-09
       262  13 -7.661507E+04 -3.404793E+05 -9.056892E+04  1.155762E+05  3.012308E-09  1.112209E-09
       262  14 -2.226959E+03 -3.305844E+05 -4.303125E+04  8.353421E+04  3.961704E-09 -6.289885E-09
       262  15  2.587418E+03 -3.403954E+05 -2.753070E+04  1.158195E+05  2.553904E-09  4.831590E-09
       262  16  1.320558E+05  4.982054E+05  1.126845E+05  7.582897E+04  2.454282E-09  9.764317E-10
       262  17  1.605772E+05  3.355433E+05  1.043642E+05  6.837156E+04  7.272472E-09 -5.282081E-09
       262  18  1.234960E+05  1.571581E+05  7.975274E+04  1.252314E+05  1.518710E-09 -8.792951E-09
       262  19 -2.853295E+05 -1.178510E+06 -2.938564E+05  1.552707E+05  9.807452E+03  9.119497E+04
       262  20 -1.650587E+05 -9.962947E+05 -1.904484E+05  9.868178E+04  2.977219E+04  4.597145E+04
       262  21 -1.183364E+05 -8.377159E+05 -1.348273E+05  1.064155E+05  2.669772E+04  6.589321E+02
       262  22 -7.661398E+04 -3.404754E+05 -9.056186E+04  1.155767E+05  9.898528E+03  6.044251E+04
       262  23 -2.225622E+03 -3.305826E+05 -4.302689E+04  8.353512E+04  2.979320E+04  3.782830E+04
       262  24  2.588242E+03 -3.403950E+05 -2.752893E+04  1.158199E+05  2.665619E+04  1.513886E+04
       262  25  1.320561E+05  4.982063E+05  1.126863E+05  7.582921E+04  9.993485E+03  2.964856E+04
       262  26  1.605783E+05  3.355445E+05  1.043675E+05  6.837228E+04  2.981460E+04  2.967648E+04
       262  27  1.234970E+05  1.571592E+05  7.975572E+04  1.252320E+05  2.661512E+04  2.963023E+04
       263   1 -9.261443E+04 -6.995318E+05 -1.023514E+05  1.187045E+05 -1.902367E+04 -2.829352E+03
       263   2 -4.714919E+04 -5.276934E+05 -6.021138E+04  8.368381E+04 -1.048017E+04  7.052121E+03
       263   3 -8.833273E+03 -3.584225E+05 -2.618841E+04  1.142506E+05 -1.484308E+03  1.693538E+04
       263   4 -4.238005E+03 -3.365523E+05 -2.373961E+04  1.160362E+05 -1.900083E+04 -1.103687E+04
       263   5 -3.618457E+02 -3.352840E+05 -1.878645E+04  8.324369E+04 -1.045703E+04 -1.597286E+03
       263   6 -3.554974E+03 -3.365324E+05 -2.163960E+04  1.160380E+05 -1.460962E+03  7.841463E+03
       263   7  8.412977E+04  2.655104E+04  5.486456E+04  1.133664E+05 -1.897793E+04 -1.924912E+04
       263   8  4.642310E+04 -1.428395E+05  2.263658E+04  8.280345E+04 -1.043388E+04 -1.024934E+04
       263   9  1.723351E+03 -3.146417E+05 -1.709050E+04  1.178254E+05 -1.437669E+03 -1.252772E+03
       263  10 -9.261482E+04 -6.995319E+05 -1.023520E+05  1.187044E+05  3.038239E-09  8.352995E-09
       263  11 -4.714932E+04 -5.276935E+05 -6.021168E+04  8.368387E+04 -5.028644E-10  6.336959E-09
       263  12 -8.833353E+03 -3.584228E+05 -2.618896E+04  1.142506E+05 -7.445151E-11  3.869152E-09
       263  13 -4.238426E+03 -3.365526E+05 -2.374052E+04  1.160361E+05  1.296077E-09 -1.072974E-09
       263  14 -3.619638E+02 -3.352840E+05 -1.878666E+04  8.324367E+04 -4.730025E-09 -4.040138E-09
       263  15 -3.554993E+03 -3.365325E+05 -2.163972E+04  1.160380E+05 -2.088502E-09  1.627610E-09
       263  16  8.412928E+04  2.655055E+04  5.486319E+04  1.133662E+05 -1.732915E-09 -2.461408E-11
       263  17  4.642296E+04 -1.428397E+05  2.263618E+04  8.280336E+04 -1.225388E-09 -3.381555E-09
       263  18  1.723348E+03 -3.146417E+05 -1.709051E+04  1.178254E+05 -4.986055E-10 -1.071830E-08
       263  19 -9.261443E+04 -6.995318E+05 -1.023514E+05  1.187045E+05  1.902367E+04  2.829352E+03
       263  20 -4.714919E+04 -5.276934E+05 -6.021138E+04  8.368381E+04  1.048017E+04 -7.052121E+03
       263  21 -8.833273E+03 -3.584225E+05 -2.618841E+04  1.142506E+05  1.484308E+03 -1.693538E+04
       263  22 -4.238005E+03 -3.365523E+05 -2.373961E+04  1.160362E+05  1.900083E+04  1.103687E+04
       263  23 -3.618457E+02 -3.352840E+05 -1.878645E+04  8.324369E+04  1.045703E+04  1.597286E+03
       263  24 -3.554974E+03 -3.365324E+05 -2.163960E+04  1.160380E+05  1.460962E+03 -7.841463E+03
       263  25  8.412977E+04  2.655104E+04  5.486456E+04  1.133664E+05  1.897793E+04  1.924912E+04
       263  26  4.642310E+04 -1.428395E+05  2.263658E+04  8.280345E+04  1.043388E+04  1.024934E+04
       263  27  1.723351E+03 -3.146417E+05 -1.709050E+04  1.178254E+05  1.437669E+03  1.252772E+03
       264   1  2.942801E+04 -2.273687E+05  1.355917E+02  1.245019E+05  5.465594E+03  2.405522E+04
       264   2  6.721376E+04 -4.956039E+04  2.624159E+04  7.129244E+04  1.155506E+04  3.045694E+04
       264   3  4.853204E+04  1.138228E+05  3.417101E+04  8.298438E+04  4.440900E+03  3.682299E+04
       264   4  2.103752E+03 -3.396890E+05 -2.440163E+04  1.159351E+05  5.497465E+03  1.154880E+04
       264   5 -1.836880E+03 -3.313496E+05 -3.678255E+04  8.338901E+04  1.155472E+04  3.093354E+04
       264   6 -6.451436E+04 -3.397285E+05 -7.636651E+04  1.157512E+05  4.406076E+03  5.028044E+04
       264   7 -2.522098E+04 -4.519970E+05 -4.893898E+04  1.073698E+05  5.529683E+03 -9.553958E+02
       264   8 -7.089240E+04 -6.130646E+05 -9.981161E+04  9.548008E+04  1.155441E+04  3.140991E+04
       264   9 -1.775719E+05 -7.930895E+05 -1.869178E+05  1.484941E+05  4.372661E+03  6.372808E+04
       264  10  2.942782E+04 -2.273694E+05  1.344479E+02  1.245018E+05  4.390069E-10  9.398607E-09
       264  11  6.721337E+04 -4.956142E+04  2.623959E+04  7.129216E+04 -1.664045E-09  2.748189E-09
       264  12  4.853165E+04  1.138213E+05  3.416843E+04  8.298424E+04 -1.174426E-09 -3.134372E-09
       264  13  2.103684E+03 -3.396892E+05 -2.440194E+04  1.159350E+05 -4.986417E-10  1.105758E-09
       264  14 -1.837281E+03 -3.313507E+05 -3.678460E+04  8.338872E+04 -4.357447E-09 -6.286658E-09
       264  15 -6.451506E+04 -3.397312E+05 -7.637130E+04  1.157510E+05 -9.602941E-10  3.874018E-09
       264  16 -2.522102E+04 -4.519970E+05 -4.893904E+04  1.073698E+05 -2.588238E-09 -2.009722E-09
       264  17 -7.089281E+04 -6.130657E+05 -9.981372E+04  9.547978E+04 -3.686511E-10 -6.732861E-09
       264  18 -1.775730E+05 -7.930938E+05 -1.869254E+05  1.484938E+05  7.190900E-10 -5.304248E-09
       264  19  2.942801E+04 -2.273687E+05  1.355917E+02  1.245019E+05 -5.465594E+03 -2.405522E+04
       264  20  6.721376E+04 -4.956039E+04  2.624159E+04  7.129244E+04 -1.155506E+04 -3.045694E+04
       264  21  4.853204E+04  1.138228E+05  3.417101E+04  8.298438E+04 -4.440900E+03 -3.682299E+04
       264  22  2.103752E+03 -3.396890E+05 -2.440163E+04  1.159351E+05 -5.497465E+03 -1.154880E+04
       264  23 -1.836880E+03 -3.313496E+05 -3.678255E+04  8.338901E+04 -1.155472E+04 -3.093354E+04
       264  24 -6.451436E+04 -3.397285E+05 -7.636651E+04  1.157512E+05 -4.406076E+03 -5.028044E+04
       264  25 -2.522098E+04 -4.519970E+05 -4.893898E+04  1.073698E+05 -5.529683E+03  9.553958E+02
       264  26 -7.089240E+04 -6.130646E+05 -9.981161E+04  9.548008E+04 -1.155441E+04 -3.140991E+04
       264  27 -1.775719E+05 -7.930895E+05 -1.869178E+05  1.484941E+05 -4.372661E+03 -6.372808E+04
       265   1  2.753906E+05  9.193479E+04  4.837379E+04  1.112736E+05  2.908484E+04  1.088753E+04
       265   2  2.683577E+05  4.710023E+04  2.116009E+04  1.104665E+05  1.825301E+04  6.627930E+03
       265   3  2.732396E+05  3.698372E+04  1.103905E+04  1.033851E+05  7.262644E+03  2.787301E+03
       265   4  2.747464E+05  7.523873E+04  4.498439E+04  9.433399E+04  2.876755E+04  1.076633E+04
       265   5  2.663431E+05  4.059986E+04  1.962375E+04  1.040349E+05  1.832146E+04  6.653657E+03
       265   6  2.697780E+05  4.060194E+04  1.105008E+04  1.074614E+05  7.716732E+03  2.959444E+03
       265   7  2.741029E+05  5.854437E+04  4.159520E+04  7.739485E+04  2.845027E+04  1.064516E+04
       265   8  2.643285E+05  3.409971E+04  1.808744E+04  9.760334E+04  1.838991E+04  6.679381E+03
       265   9  2.663165E+05  4.422030E+04  1.106113E+04  1.115377E+05  8.170820E+03  3.131595E+03
       265  10  2.753896E+05  9.193444E+04  4.837198E+04  1.112733E+05 -4.800465E-09  7.809192E-09
       265  11  2.683574E+05  4.710009E+04  2.115938E+04  1.104664E+05 -5.347801E-09  1.142795E-10
       265  12  2.732395E+05  3.698369E+04  1.103894E+04  1.033851E+05 -7.012196E-10  5.011287E-09
       265  13  2.747455E+05  7.523838E+04  4.498261E+04  9.433374E+04 -1.124109E-09 -3.277241E-09
       265  14  2.663427E+05  4.059972E+04  1.962304E+04  1.040348E+05 -2.260503E-09 -1.299411E-09
       265  15  2.697779E+05  4.060192E+04  1.104995E+04  1.074614E+05 -3.415227E-09  1.198902E-08
       265  16  2.741020E+05  5.854403E+04  4.159347E+04  7.739461E+04  5.028707E-09  1.921479E-09
       265  17  2.643281E+05  3.409957E+04  1.808672E+04  9.760324E+04 -2.365486E-09  2.855697E-09
       265  18  2.663164E+05  4.422027E+04  1.106098E+04  1.115377E+05 -4.462005E-09  5.076008E-09
       265  19  2.753906E+05  9.193479E+04  4.837379E+04  1.112736E+05 -2.908484E+04 -1.088753E+04
       265  20  2.683577E+05  4.710023E+04  2.116009E+04  1.104665E+05 -1.825301E+04 -6.627930E+03
       265  21  2.732396E+05  3.698372E+04  1.103905E+04  1.033851E+05 -7.262644E+03 -2.787301E+03
       265  22  2.747464E+05  7.523873E+04  4.498439E+04  9.433399E+04 -2.876755E+04 -1.076633E+04
       265  23  2.663431E+05  4.059986E+04  1.962375E+04  1.040349E+05 -1.832146E+04 -6.653657E+03
       265  24  2.697780E+05  4.060194E+04  1.105008E+04  1.074614E+05 -7.716732E+03 -2.959444E+03
       265  25  2.741029E+05  5.854437E+04  4.159520E+04  7.739485E+04 -2.845027E+04 -1.064516E+04
       265  26  2.643285E+05  3.409971E+04  1.808744E+04  9.760334E+04 -1.838991E+04 -6.679381E+03
       265  27  2.663165E+05  4.422030E+04  1.106113E+04  1.115377E+05 -8.170820E+03 -3.131595E+03
       266   1  2.626252E+05  4.223340E+04  7.468222E+03  1.045466E+05  5.894837E+03  2.571956E+03
       266   2  2.569690E+05  3.666348E+04  1.757986E+03  1.018548E+05  3.454208E+03  2.068822E+03
       266   3  2.504080E+05  3.489412E+04 -1.731280E+03  1.009239E+05  1.006482E+03  1.584590E+03
       266   4  2.683769E+05  4.372345E+04  8.721689E+03  1.054665E+05  6.226092E+03  2.697473E+03
       266   5  2.686961E+05  4.088308E+04  4.509430E+03  1.049430E+05  3.802837E+03  2.200925E+03
       266   6  2.681070E+05  4.183978E+04  2.504360E+03  1.061805E+05  1.372467E+03  1.723268E+03
       266   7  2.741286E+05  4.521350E+04  9.975155E+03  1.063864E+05  6.557351E+03  2.822990E+03
       266   8  2.804233E+05  4.510267E+04  7.260856E+03  1.080313E+05  4.151472E+03  2.333031E+03
       266   9  2.858063E+05  4.878543E+04  6.739950E+03  1.114373E+05  1.738461E+03  1.861951E+03
       266  10  2.626252E+05  4.223338E+04  7.468145E+03  1.045466E+05  2.423448E-08  1.276318E-08
       266  11  2.569690E+05  3.666347E+04  1.757955E+03  1.018548E+05  2.173924E-09  8.445419E-09
       266  12  2.504080E+05  3.489412E+04 -1.731286E+03  1.009239E+05 -2.694278E-08 -1.091287E-08
       266  13  2.683769E+05  4.372343E+04  8.721603E+03  1.054665E+05 -5.223057E-10  9.346126E-09
       266  14  2.686961E+05  4.088307E+04  4.509394E+03  1.049430E+05  2.639877E-09 -1.368341E-08
       266  15  2.681070E+05  4.183978E+04  2.504351E+03  1.061805E+05  1.246792E-09 -2.410978E-09
       266  16  2.741286E+05  4.521348E+04  9.975059E+03  1.063864E+05 -2.309490E-08 -8.323416E-09
       266  17  2.804233E+05  4.510266E+04  7.260813E+03  1.080313E+05  8.374629E-09 -2.110696E-09
       266  18  2.858063E+05  4.878543E+04  6.739938E+03  1.114373E+05  3.123790E-08  1.173333E-08
       266  19  2.626252E+05  4.223340E+04  7.468222E+03  1.045466E+05 -5.894837E+03 -2.571956E+03
       266  20  2.569690E+05  3.666348E+04  1.757986E+03  1.018548E+05 -3.454208E+03 -2.068822E+03
       266  21  2.504080E+05  3.489412E+04 -1.731280E+03  1.009239E+05 -1.006482E+03 -1.584590E+03
       266  22  2.683769E+05  4.372345E+04  8.721689E+03  1.054665E+05 -6.226092E+03 -2.697473E+03
       266  23  2.686961E+05  4.088308E+04  4.509430E+03  1.049430E+05 -3.802837E+03 -2.200925E+03
       266  24  2.681070E+05  4.183978E+04  2.504360E+03  1.061805E+05 -1.372467E+03 -1.723268E+03
       266  25  2.741286E+05  4.521350E+04  9.975155E+03  1.063864E+05 -6.557351E+03 -2.822990E+03
       266  26  2.804233E+05  4.510267E+04  7.260856E+03  1.080313E+05 -4.151472E+03 -2.333031E+03
       266  27  2.858063E+05  4.878543E+04  6.739950E+03  1.114373E+05 -1.738461E+03 -1.861951E+03
       267   1  2.449052E+05  3.335629E+04 -3.596649E+03  9.963590E+04  5.714637E+02  1.682953E+03
       267   2  2.394560E+05  2.992881E+04 -5.939338E+03  9.681091E+04 -1.003133E+02  1.876510E+03
       267   3  2.322052E+05  2.852763E+04 -7.863661E+03  9.614180E+04 -7.724972E+02  2.071185E+03
       267   4  2.679882E+05  4.200283E+04  1.904237E+03  1.060573E+05  9.321421E+02  1.819617E+03
       267   5  2.688826E+05  4.094462E+04  1.045970E+03  1.049965E+05  2.613768E+02  2.013550E+03
       267   6  2.679753E+05  4.191256E+04  6.053016E+02  1.060915E+05 -4.097997E+02  2.208599E+03
       267   7  2.910719E+05  5.064946E+04  7.405120E+03  1.124790E+05  1.292837E+03  1.956286E+03
       267   8  2.983102E+05  5.196052E+04  8.031240E+03  1.131824E+05  6.230866E+02  2.150597E+03
       267   9  3.037466E+05  5.529759E+04  9.074176E+03  1.160418E+05 -4.707935E+01  2.346022E+03
       267  10  2.449052E+05  3.335629E+04 -3.596655E+03  9.963590E+04  1.081746E-08 -1.853538E-09
       267  11  2.394560E+05  2.992880E+04 -5.939345E+03  9.681091E+04  2.816451E-09 -1.698344E-09
       267  12  2.322052E+05  2.852763E+04 -7.863670E+03  9.614180E+04 -9.481888E-09 -1.091445E-08
       267  13  2.679882E+05  4.200283E+04  1.904229E+03  1.060573E+05  1.164883E-10 -1.552605E-09
       267  14  2.688826E+05  4.094461E+04  1.045963E+03  1.049965E+05 -3.144803E-09 -9.416230E-10
       267  15  2.679753E+05  4.191255E+04  6.052921E+02  1.060915E+05 -6.850182E-09 -2.103686E-10
       267  16  2.910719E+05  5.064946E+04  7.405110E+03  1.124790E+05 -1.309896E-08 -7.626428E-09
       267  17  2.983102E+05  5.196051E+04  8.031231E+03  1.131824E+05 -9.697715E-09  7.481126E-09
       267  18  3.037466E+05  5.529758E+04  9.074166E+03  1.160418E+05  2.194230E-09  8.685440E-09
       267  19  2.449052E+05  3.335629E+04 -3.596649E+03  9.963590E+04 -5.714637E+02 -1.682953E+03
       267  20  2.394560E+05  2.992881E+04 -5.939338E+03  9.681091E+04  1.003133E+02 -1.876510E+03
       267  21  2.322052E+05  2.852763E+04 -7.863661E+03  9.614180E+04  7.724972E+02 -2.071185E+03
       267  22  2.679882E+05  4.200283E+04  1.904237E+03  1.060573E+05 -9.321421E+02 -1.819617E+03
       267  23  2.688826E+05  4.094462E+04  1.045970E+03  1.049965E+05 -2.613768E+02 -2.013550E+03
       267  24  2.679753E+05  4.191256E+04  6.053016E+02  1.060915E+05  4.097997E+02 -2.208599E+03
       267  25  2.910719E+05  5.064946E+04  7.405120E+03  1.124790E+05 -1.292837E+03 -1.956286E+03
       267  26  2.983102E+05  5.196052E+04  8.031240E+03  1.131824E+05 -6.230866E+02 -2.150597E+03
       267  27  3.037466E+05  5.529759E+04  9.074176E+03  1.160418E+05  4.707935E+01 -2.346022E+03
       268   1  2.270137E+05  2.661381E+04 -9.259374E+03  9.472173E+04 -9.489477E+02  2.266301E+03
       268   2  2.215872E+05  2.328177E+04 -1.089555E+04  9.187706E+04 -1.262887E+03  2.597799E+03
       268   3  2.142702E+05  2.187657E+04 -1.240690E+04  9.120490E+04 -1.576981E+03  2.929805E+03
       268   4  2.679598E+05  4.192018E+04  4.780760E+02  1.060839E+05 -5.861286E+02  2.403754E+03
       268   5  2.689047E+05  4.095517E+04  3.301267E+02  1.049983E+05 -8.996172E+02  2.735409E+03
       268   6  2.679590E+05  4.191685E+04  3.066509E+02  1.060851E+05 -1.213264E+03  3.067573E+03
       268   7  3.089073E+05  5.722660E+04  1.021535E+04  1.174468E+05 -2.232854E+02  2.541217E+03
       268   8  3.162243E+05  5.862873E+04  1.155565E+04  1.181204E+05 -5.363175E+02  2.873031E+03
       268   9  3.216509E+05  6.195745E+04  1.302008E+04  1.209665E+05 -8.495107E+02  3.205355E+03
       268  10  2.270137E+05  2.661381E+04 -9.259385E+03  9.472174E+04 -4.766292E-09  4.762227E-09
       268  11  2.215872E+05  2.328176E+04 -1.089557E+04  9.187706E+04  6.507585E-09  1.267413E-08
       268  12  2.142702E+05  2.187656E+04 -1.240692E+04  9.120490E+04  5.793946E-09  1.105087E-09
       268  13  2.679598E+05  4.192018E+04  4.780645E+02  1.060839E+05 -2.664065E-09  4.507309E-09
       268  14  2.689047E+05  4.095516E+04  3.301112E+02  1.049983E+05  2.273992E-09 -4.289797E-09
       268  15  2.679590E+05  4.191684E+04  3.066304E+02  1.060851E+05 -2.644692E-09 -3.812957E-09
       268  16  3.089073E+05  5.722659E+04  1.021533E+04  1.174468E+05  1.284822E-09  1.000012E-08
       268  17  3.162243E+05  5.862872E+04  1.155563E+04  1.181204E+05 -2.605062E-09  1.162114E-08
       268  18  3.216509E+05  6.195744E+04  1.302006E+04  1.209665E+05 -1.109884E-08 -1.550769E-09
       268  19  2.270137E+05  2.661381E+04 -9.259374E+03  9.472173E+04  9.489477E+02 -2.266301E+03
       268  20  2.215872E+05  2.328177E+04 -1.089555E+04  9.187706E+04  1.262887E+03 -2.597799E+03
       268  21  2.142702E+05  2.187657E+04 -1.240690E+04  9.120490E+04  1.576981E+03 -2.929805E+03
       268  22  2.679598E+05  4.192018E+04  4.780760E+02  1.060839E+05  5.861286E+02 -2.403754E+03
       268  23  2.689047E+05  4.095517E+04  3.301267E+02  1.049983E+05  8.996172E+02 -2.735409E+03
       268  24  2.679590E+05  4.191685E+04  3.066509E+02  1.060851E+05  1.213264E+03 -3.067573E+03
       268  25  3.089073E+05  5.722660E+04  1.021535E+04  1.174468E+05  2.232854E+02 -2.541217E+03
       268  26  3.162243E+05  5.862873E+04  1.155565E+04  1.181204E+05  5.363175E+02 -2.873031E+03
       268  27  3.216509E+05  6.195745E+04  1.302008E+04  1.209665E+05  8.495107E+02 -3.205355E+03
       269   1  2.090879E+05  1.993948E+04 -1.365199E+04  8.977817E+04 -1.717974E+03  3.139239E+03
       269   2  2.036302E+05  1.659590E+04 -1.499558E+04  8.692258E+04 -2.109634E+03  3.443036E+03
       269   3  1.962877E+05  1.519396E+04 -1.615515E+04  8.625160E+04 -2.501383E+03  3.747210E+03
       269   4  2.679600E+05  4.191900E+04  3.346100E+02  1.060882E+05 -1.353711E+03  3.277205E+03
       269   5  2.689025E+05  4.094922E+04  4.854094E+02  1.049954E+05 -1.745062E+03  3.581101E+03
       269   6  2.679601E+05  4.192101E+04  8.199558E+02  1.060873E+05 -2.136504E+03  3.885373E+03
       269   7  3.268356E+05  6.389877E+04  1.432096E+04  1.223995E+05 -9.894106E+02  3.415185E+03
       269   8  3.341789E+05  6.530278E+04  1.596604E+04  1.230700E+05 -1.380450E+03  3.719181E+03
       269   9  3.396372E+05  6.864828E+04  1.779459E+04  1.259250E+05 -1.771582E+03  4.023552E+03
       269  10  2.090879E+05  1.993947E+04 -1.365201E+04  8.977818E+04  5.730507E-09  5.318575E-09
       269  11  2.036302E+05  1.659589E+04 -1.499561E+04  8.692258E+04 -1.056567E-08 -4.262635E-09
       269  12  1.962877E+05  1.519395E+04 -1.615519E+04  8.625161E+04 -2.119969E-08 -7.539524E-09
       269  13  2.679600E+05  4.191898E+04  3.345864E+02  1.060882E+05 -4.551798E-09  4.044374E-09
       269  14  2.689025E+05  4.094920E+04  4.853796E+02  1.049954E+05 -1.086094E-08  2.670972E-09
       269  15  2.679601E+05  4.192099E+04  8.199188E+02  1.060873E+05 -4.538322E-09  1.514488E-08
       269  16  3.268355E+05  6.389875E+04  1.432093E+04  1.223995E+05 -1.547898E-08 -2.595569E-09
       269  17  3.341789E+05  6.530276E+04  1.596601E+04  1.230700E+05 -3.913697E-09  7.342219E-09
       269  18  3.396372E+05  6.864827E+04  1.779456E+04  1.259250E+05  1.531191E-08  1.070810E-08
       269  19  2.090879E+05  1.993948E+04 -1.365199E+04  8.977817E+04  1.717974E+03 -3.139239E+03
       269  20  2.036302E+05  1.659590E+04 -1.499558E+04  8.692258E+04  2.109634E+03 -3.443036E+03
       269  21  1.962877E+05  1.519396E+04 -1.615515E+04  8.625160E+04  2.501383E+03 -3.747210E+03
       269  22  2.679600E+05  4.191900E+04  3.346100E+02  1.060882E+05  1.353711E+03 -3.277205E+03
       269  23  2.689025E+05  4.094922E+04  4.854094E+02  1.049954E+05  1.745062E+03 -3.581101E+03
       269  24  2.679601E+05  4.192101E+04  8.199558E+02  1.060873E+05  2.136504E+03 -3.885373E+03
       269  25  3.268356E+05  6.389877E+04  1.432096E+04  1.223995E+05  9.894106E+02 -3.415185E+03
       269  26  3.341789E+05  6.530278E+04  1.596604E+04  1.230700E+05  1.380450E+03 -3.719181E+03
       269  27  3.396372E+05  6.864828E+04  1.779459E+04  1.259250E+05  1.771582E+03 -4.023552E+03
       270   1  1.910809E+05  1.325853E+04 -1.717872E+04  8.486032E+04 -2.748438E+03  3.918462E+03
       270   2  1.855361E+05  9.866146E+03 -1.783645E+04  8.195093E+04 -3.852111E+03  3.953037E+03
       270   3  1.782600E+05  8.622032E+03 -1.773009E+04  8.122188E+04 -4.953361E+03  3.981328E+03
       270   4  2.679862E+05  4.191173E+04  1.075604E+03  1.061072E+05 -2.380816E+03  4.057652E+03
       270   5  2.688629E+05  4.091988E+04  1.921672E+03  1.049855E+05 -3.490411E+03  4.089962E+03
       270   6  2.680095E+05  4.207753E+04  3.536477E+03  1.060442E+05 -4.597590E+03  4.115986E+03
       270   7  3.448978E+05  7.056552E+04  1.932963E+04  1.273566E+05 -2.013143E+03  4.196861E+03
       270   8  3.521968E+05  7.197422E+04  2.167936E+04  1.280230E+05 -3.128657E+03  4.226908E+03
       270   9  3.577670E+05  7.553362E+04  2.480248E+04  1.308698E+05 -4.241764E+03  4.250665E+03
       270  10  1.910809E+05  1.325851E+04 -1.717877E+04  8.486033E+04 -7.689883E-09 -2.804890E-09
       270  11  1.855361E+05  9.866125E+03 -1.783650E+04  8.195094E+04 -5.044975E-09  1.236334E-08
       270  12  1.782600E+05  8.622008E+03 -1.773017E+04  8.122190E+04  3.841073E-10 -2.357531E-09
       270  13  2.679862E+05  4.191171E+04  1.075562E+03  1.061072E+05 -3.522245E-09  5.569473E-09
       270  14  2.688629E+05  4.091986E+04  1.921617E+03  1.049855E+05  2.136599E-10 -4.238033E-09
       270  15  2.680095E+05  4.207750E+04  3.536406E+03  1.060442E+05 -6.945545E-10 -9.695305E-09
       270  16  3.448977E+05  7.056550E+04  1.932959E+04  1.273566E+05  8.523053E-10  1.398999E-08
       270  17  3.521968E+05  7.197420E+04  2.167931E+04  1.280230E+05  1.654860E-09  2.909699E-09
       270  18  3.577670E+05  7.553359E+04  2.480241E+04  1.308698E+05 -2.412167E-09 -2.429402E-09
       270  19  1.910809E+05  1.325853E+04 -1.717872E+04  8.486032E+04  2.748438E+03 -3.918462E+03
       270  20  1.855361E+05  9.866146E+03 -1.783645E+04  8.195093E+04  3.852111E+03 -3.953037E+03
       270  21  1.782600E+05  8.622032E+03 -1.773009E+04  8.122188E+04  4.953361E+03 -3.981328E+03
       270  22  2.679862E+05  4.191173E+04  1.075604E+03  1.061072E+05  2.380816E+03 -4.057652E+03
       270  23  2.688629E+05  4.091988E+04  1.921672E+03  1.049855E+05  3.490411E+03 -4.089962E+03
       270  24  2.680095E+05  4.207753E+04  3.536477E+03  1.060442E+05  4.597590E+03 -4.115986E+03
       270  25  3.448978E+05  7.056552E+04  1.932963E+04  1.273566E+05  2.013143E+03 -4.196861E+03
       270  26  3.521968E+05  7.197422E+04  2.167936E+04  1.280230E+05  3.128657E+03 -4.226908E+03
       270  27  3.577670E+05  7.553362E+04  2.480248E+04  1.308698E+05  4.241764E+03 -4.250665E+03
       271   1  1.728065E+05  6.789501E+03 -1.788470E+04  8.049345E+04 -5.750741E+03  3.961058E+03
       271   2  1.673096E+05  2.723465E+03 -1.567717E+04  7.654324E+04 -9.997408E+03  2.763490E+03
       271   3  1.617101E+05  4.098328E+03 -9.468354E+03  7.405575E+04 -1.418408E+04  1.407680E+03
       271   4  2.682286E+05  4.177659E+04  4.660464E+03  1.062780E+05 -5.347340E+03  4.113740E+03
       271   5  2.685165E+05  4.079856E+04  8.406302E+03  1.048812E+05 -9.740538E+03  2.860654E+03
       271   6  2.687306E+05  4.528994E+04  1.626909E+04  1.049470E+05 -1.407381E+04  1.449300E+03
       271   7  3.636593E+05  7.676408E+04  2.720484E+04  1.320659E+05 -4.943875E+03  4.266447E+03
       271   8  3.697336E+05  7.887445E+04  3.248904E+04  1.332233E+05 -9.483623E+03  2.957835E+03
       271   9  3.757630E+05  8.648282E+04  4.200585E+04  1.358433E+05 -1.396352E+04  1.490928E+03
       271  10  1.728065E+05  6.789475E+03 -1.788479E+04  8.049347E+04 -1.865999E-08 -1.355309E-08
       271  11  1.673095E+05  2.723430E+03 -1.567737E+04  7.654326E+04  9.110522E-09 -1.854913E-09
       271  12  1.617099E+05  4.098271E+03 -9.468735E+03  7.405577E+04  3.439006E-08  2.715406E-08
       271  13  2.682286E+05  4.177656E+04  4.660379E+03  1.062780E+05 -1.478089E-09 -1.014033E-08
       271  14  2.685164E+05  4.079852E+04  8.406108E+03  1.048812E+05  1.727558E-09  5.816634E-09
       271  15  2.687303E+05  4.528989E+04  1.626871E+04  1.049470E+05 -7.690519E-10  1.190685E-08
       271  16  3.636593E+05  7.676405E+04  2.720476E+04  1.320660E+05  1.857095E-08 -6.702873E-10
       271  17  3.697335E+05  7.887442E+04  3.248885E+04  1.332233E+05 -1.175407E-08 -1.394772E-08
       271  18  3.757628E+05  8.648276E+04  4.200548E+04  1.358433E+05 -3.706420E-08 -1.338251E-08
       271  19  1.728065E+05  6.789501E+03 -1.788470E+04  8.049345E+04  5.750741E+03 -3.961058E+03
       271  20  1.673096E+05  2.723465E+03 -1.567717E+04  7.654324E+04  9.997408E+03 -2.763490E+03
       271  21  1.617101E+05  4.098328E+03 -9.468354E+03  7.405575E+04  1.418408E+04 -1.407680E+03
       271  22  2.682286E+05  4.177659E+04  4.660464E+03  1.062780E+05  5.347340E+03 -4.113740E+03
       271  23  2.685165E+05  4.079856E+04  8.406302E+03  1.048812E+05  9.740538E+03 -2.860654E+03
       271  24  2.687306E+05  4.528994E+04  1.626909E+04  1.049470E+05  1.407381E+04 -1.449300E+03
       271  25  3.636593E+05  7.676408E+04  2.720484E+04  1.320659E+05  4.943875E+03 -4.266447E+03
       271  26  3.697336E+05  7.887445E+04  3.248904E+04  1.332233E+05  9.483623E+03 -2.957835E+03
       271  27  3.757630E+05  8.648282E+04  4.200585E+04  1.358433E+05  1.396352E+04 -1.490928E+03
       272   1  1.514219E+05  3.847358E+03 -6.229468E+03  8.481930E+04 -1.803304E+04  5.745169E+02
       272   2  1.523296E+05 -1.220675E+04  7.677994E+03  6.133291E+04 -3.413385E+04 -6.116957E+03
       272   3  1.763667E+05  3.405457E+04  5.030597E+04  2.424598E+04 -4.888599E+04 -1.637136E+04
       272   4  2.713643E+05  3.944707E+04  2.061464E+04  1.086478E+05 -1.687444E+04  1.013292E+03
       272   5  2.641026E+05  4.028985E+04  3.661219E+04  1.032117E+05 -3.626301E+04 -6.923654E+03
       272   6  2.806158E+05  1.040907E+05  8.393278E+04  8.417718E+04 -5.430275E+04 -1.842434E+04
       272   7  3.913215E+05  7.504685E+04  4.745800E+04  1.324800E+05 -1.571560E+04  1.452118E+03
       272   8  3.758873E+05  9.278918E+04  6.554512E+04  1.450978E+05 -3.839256E+04 -7.730592E+03
       272   9  3.848758E+05  1.741354E+05  1.175582E+05  1.441186E+05 -5.972038E+04 -2.047832E+04
       272  10  1.514215E+05  3.847270E+03 -6.230080E+03  8.481931E+04 -1.791323E-08  7.668165E-09
       272  11  1.523284E+05 -1.220710E+04  7.675735E+03  6.133274E+04 -1.335262E-08  2.205425E-09
       272  12  1.763641E+05  3.405364E+04  5.030098E+04  2.424534E+04  6.665661E-10  1.127683E-08
       272  13  2.713640E+05  3.944699E+04  2.061411E+04  1.086478E+05  4.803272E-10 -3.932200E-10
       272  14  2.641012E+05  4.028945E+04  3.660963E+04  1.032115E+05 -5.727940E-10  3.647067E-09
       272  15  2.806125E+05  1.040895E+05  8.392661E+04  8.417637E+04  1.699126E-10 -1.036106E-09
       272  16  3.913212E+05  7.504678E+04  4.745753E+04  1.324800E+05  1.596415E-08  3.544387E-09
       272  17  3.758857E+05  9.278872E+04  6.554224E+04  1.450975E+05  1.190914E-08 -8.568131E-09
       272  18  3.848719E+05  1.741340E+05  1.175507E+05  1.441176E+05 -5.366969E-10 -3.196461E-09
       272  19  1.514219E+05  3.847358E+03 -6.229468E+03  8.481930E+04  1.803304E+04 -5.745169E+02
       272  20  1.523296E+05 -1.220675E+04  7.677994E+03  6.133291E+04  3.413385E+04  6.116957E+03
       272  21  1.763667E+05  3.405457E+04  5.030597E+04  2.424598E+04  4.888599E+04  1.637136E+04
       272  22  2.713643E+05  3.944707E+04  2.061464E+04  1.086478E+05  1.687444E+04 -1.013292E+03
       272  23  2.641026E+05  4.028985E+04  3.661219E+04  1.032117E+05  3.626301E+04  6.923654E+03
       272  24  2.806158E+05  1.040907E+05  8.393278E+04  8.417718E+04  5.430275E+04  1.842434E+04
       272  25  3.913215E+05  7.504685E+04  4.745800E+04  1.324800E+05  1.571560E+04 -1.452118E+03
       272  26  3.758873E+05  9.278918E+04  6.554512E+04  1.450978E+05  3.839256E+04  7.730592E+03
       272  27  3.848758E+05  1.741354E+05  1.175582E+05  1.441186E+05  5.972038E+04  2.047832E+04
       273   1 -5.839411E+04 -4.245555E+05 -6.288319E+04  2.567256E+04 -1.499051E+03 -2.663115E+04
       273   2 -2.668325E+04 -4.046838E+05 -3.957149E+04  1.390225E+04 -4.852531E+03 -1.495305E+04
       273   3 -2.095659E+04 -3.927823E+05 -3.035937E+04  8.042564E+03 -4.923065E+03 -3.264124E+03
       273   4 -2.781822E+04 -3.019292E+05 -3.320535E+04  1.155473E+04 -1.513683E+03 -2.175675E+04
       273   5 -6.451414E+02 -2.982222E+05 -1.607559E+04  8.644132E+03 -4.857450E+03 -1.330610E+04
       273   6  1.106469E+03 -3.019239E+05 -1.080162E+04  1.164454E+04 -4.918190E+03 -4.845026E+03
       273   7  2.757319E+03 -1.792887E+05 -3.528408E+03 -2.565889E+03 -1.528536E+03 -1.688139E+04
       273   8  2.539230E+04 -1.917499E+05  7.419630E+03  3.385105E+03 -4.862397E+03 -1.165887E+04
       273   9  2.316904E+04 -2.110577E+05  8.755672E+03  1.524705E+04 -4.913335E+03 -6.426156E+03
       273  10 -5.839431E+04 -4.245563E+05 -6.288453E+04  2.567253E+04  3.353258E-09  1.391779E-08
       273  11 -2.668333E+04 -4.046841E+05 -3.957195E+04  1.390220E+04 -3.137762E-12 -4.709060E-09
       273  12 -2.095662E+04 -3.927824E+05 -3.035944E+04  8.042551E+03 -5.566634E-09 -4.713479E-09
       273  13 -2.781835E+04 -3.019297E+05 -3.320625E+04  1.155471E+04  3.370842E-09  2.186214E-09
       273  14 -6.452143E+02 -2.982224E+05 -1.607597E+04  8.644080E+03  1.444715E-09 -1.425004E-08
       273  15  1.106437E+03 -3.019239E+05 -1.080171E+04  1.164452E+04 -2.271729E-09 -1.427909E-08
       273  16  2.757240E+03 -1.792890E+05 -3.528948E+03 -2.565910E+03  9.261179E-10 -7.261529E-09
       273  17  2.539224E+04 -1.917501E+05  7.419330E+03  3.385060E+03  4.677010E-09 -1.327037E-09
       273  18  2.316900E+04 -2.110577E+05  8.755549E+03  1.524702E+04 -6.242449E-10 -3.172515E-09
       273  19 -5.839411E+04 -4.245555E+05 -6.288319E+04  2.567256E+04  1.499051E+03  2.663115E+04
       273  20 -2.668325E+04 -4.046838E+05 -3.957149E+04  1.390225E+04  4.852531E+03  1.495305E+04
       273  21 -2.095659E+04 -3.927823E+05 -3.035937E+04  8.042564E+03  4.923065E+03  3.264124E+03
       273  22 -2.781822E+04 -3.019292E+05 -3.320535E+04  1.155473E+04  1.513683E+03  2.175675E+04
       273  23 -6.451414E+02 -2.982222E+05 -1.607559E+04  8.644132E+03  4.857450E+03  1.330610E+04
       273  24  1.106469E+03 -3.019239E+05 -1.080162E+04  1.164454E+04  4.918190E+03  4.845026E+03
       273  25  2.757319E+03 -1.792887E+05 -3.528408E+03 -2.565889E+03  1.528536E+03  1.688139E+04
       273  26  2.539230E+04 -1.917499E+05  7.419630E+03  3.385105E+03  4.862397E+03  1.165887E+04
       273  27  2.316904E+04 -2.110577E+05  8.755672E+03  1.524705E+04  4.913335E+03  6.426156E+03
       274   1 -2.038641E+04 -3.788209E+05 -2.659325E+04  1.267730E+04 -4.128272E+03 -2.532736E+03
       274   2 -1.515484E+04 -3.622236E+05 -2.204822E+04  8.718536E+03 -3.392982E+03  1.940822E+03
       274   3 -1.306262E+04 -3.469455E+05 -2.119062E+04  1.088533E+04 -2.511428E+03  6.414869E+03
       274   4 -1.337939E+03 -3.005655E+05 -9.669957E+03  1.166924E+04 -4.126205E+03 -3.197658E+03
       274   5 -6.276599E+00 -2.999180E+05 -8.635715E+03  8.605787E+03 -3.390507E+03  1.132455E+03
       274   6 -1.788843E+03 -3.005650E+05 -1.118899E+04  1.166788E+04 -2.508541E+03  5.462946E+03
       274   7  1.771013E+04 -2.223042E+05  7.252974E+03  1.066107E+04 -4.124135E+03 -3.862664E+03
       274   8  1.514203E+04 -2.376087E+05  4.776560E+03  8.493029E+03 -3.388032E+03  3.240071E+02
       274   9  9.484792E+03 -2.541825E+05 -1.187479E+03  1.245048E+04 -2.505658E+03  4.510953E+03
       274  10 -2.038643E+04 -3.788210E+05 -2.659329E+04  1.267729E+04 -4.073328E-09  1.432260E-08
       274  11 -1.515486E+04 -3.622236E+05 -2.204824E+04  8.718542E+03  2.736518E-09 -6.080641E-09
       274  12 -1.306263E+04 -3.469456E+05 -2.119071E+04  1.088535E+04 -3.730043E-09 -1.858361E-10
       274  13 -1.337960E+03 -3.005655E+05 -9.670008E+03  1.166923E+04 -3.127948E-09  2.141505E-09
       274  14 -6.289286E+00 -2.999180E+05 -8.635739E+03  8.605790E+03  9.288056E-10 -7.613307E-09
       274  15 -1.788857E+03 -3.005651E+05 -1.118905E+04  1.166789E+04 -3.499010E-09 -1.356203E-08
       274  16  1.771011E+04 -2.223043E+05  7.252914E+03  1.066105E+04 -1.065624E-09 -1.532127E-08
       274  17  1.514202E+04 -2.376087E+05  4.776538E+03  8.493030E+03 -1.264916E-09 -7.983456E-09
       274  18  9.484780E+03 -2.541825E+05 -1.187529E+03  1.245049E+04 -2.196088E-09  6.840051E-10
       274  19 -2.038641E+04 -3.788209E+05 -2.659325E+04  1.267730E+04  4.128272E+03  2.532736E+03
       274  20 -1.515484E+04 -3.622236E+05 -2.204822E+04  8.718536E+03  3.392982E+03 -1.940822E+03
       274  21 -1.306262E+04 -3.469455E+05 -2.119062E+04  1.088533E+04  2.511428E+03 -6.414869E+03
       274  22 -1.337939E+03 -3.005655E+05 -9.669957E+03  1.166924E+04  4.126205E+03  3.197658E+03
       274  23 -6.276599E+00 -2.999180E+05 -8.635715E+03  8.605787E+03  3.390507E+03 -1.132455E+03
       274  24 -1.788843E+03 -3.005650E+05 -1.118899E+04  1.166788E+04  2.508541E+03 -5.462946E+03
       274  25  1.771013E+04 -2.223042E+05  7.252974E+03  1.066107E+04  4.124135E+03  3.862664E+03
       274  26  1.514203E+04 -2.376087E+05  4.776560E+03  8.493029E+03  3.388032E+03 -3.240071E+02
       274  27  9.484792E+03 -2.541825E+05 -1.187479E+03  1.245048E+04  2.505658E+03 -4.510953E+03
       275   1 -6.737365E+03 -3.362600E+05 -2.030753E+04  1.679931E+04 -1.946409E+03  8.335050E+03
       275   2 -5.142953E+03 -3.155333E+05 -2.441686E+04  2.092317E+03 -1.073623E+03  1.908883E+04
       275   3 -3.684516E+04 -3.044858E+05 -4.384276E+04 -6.546594E+03 -3.041325E+02  2.984239E+04
       275   4  1.514800E+03 -3.024311E+05 -1.307048E+04  1.168525E+04 -1.943645E+03  7.394136E+03
       275   5 -8.335783E+02 -2.975853E+05 -2.058912E+04  8.594128E+03 -1.070903E+03  1.824937E+04
       275   6 -3.649623E+04 -3.024366E+05 -4.349473E+04  1.157107E+04 -3.010538E+02  2.910413E+04
       275   7  9.766989E+03 -2.686010E+05 -5.833493E+03  6.570916E+03 -1.940866E+03  6.453170E+03
       275   8  3.475936E+03 -2.796368E+05 -1.676137E+04  1.509613E+04 -1.068201E+03  1.740988E+04
       275   9 -3.614606E+04 -3.003867E+05 -4.314652E+04  2.968879E+04 -2.980183E+02  2.836586E+04
       275  10 -6.737388E+03 -3.362601E+05 -2.030766E+04  1.679932E+04 -3.306947E-09  1.981432E-08
       275  11 -5.143053E+03 -3.155337E+05 -2.441755E+04  2.092334E+03  6.879469E-09  2.052618E-11
       275  12 -3.684540E+04 -3.044868E+05 -4.384444E+04 -6.546586E+03  3.971701E-09  3.377368E-09
       275  13  1.514782E+03 -3.024311E+05 -1.307059E+04  1.168526E+04 -1.553590E-09  2.170035E-09
       275  14 -8.336690E+02 -2.975856E+05 -2.058975E+04  8.594143E+03  4.143330E-09 -8.633250E-09
       275  15 -3.649646E+04 -3.024375E+05 -4.349632E+04  1.157108E+04  2.985676E-09 -1.535871E-08
       275  16  9.766974E+03 -2.686011E+05 -5.833578E+03  6.570926E+03 -2.998575E-09 -1.126215E-08
       275  17  3.475853E+03 -2.796371E+05 -1.676194E+04  1.509614E+04  2.029805E-09 -8.025849E-09
       275  18 -3.614628E+04 -3.003876E+05 -4.314803E+04  2.968880E+04  2.979502E-10 -5.835012E-09
       275  19 -6.737365E+03 -3.362600E+05 -2.030753E+04  1.679931E+04  1.946409E+03 -8.335050E+03
       275  20 -5.142953E+03 -3.155333E+05 -2.441686E+04  2.092317E+03  1.073623E+03 -1.908883E+04
       275  21 -3.684516E+04 -3.044858E+05 -4.384276E+04 -6.546594E+03  3.041325E+02 -2.984239E+04
       275  22  1.514800E+03 -3.024311E+05 -1.307048E+04  1.168525E+04  1.943645E+03 -7.394136E+03
       275  23 -8.335783E+02 -2.975853E+05 -2.058912E+04  8.594128E+03  1.070903E+03 -1.824937E+04
       275  24 -3.649623E+04 -3.024366E+05 -4.349473E+04  1.157107E+04  3.010538E+02 -2.910413E+04
       275  25  9.766989E+03 -2.686010E+05 -5.833493E+03  6.570916E+03  1.940866E+03 -6.453170E+03
       275  26  3.475936E+03 -2.796368E+05 -1.676137E+04  1.509613E+04  1.068201E+03 -1.740988E+04
       275  27 -3.614606E+04 -3.003867E+05 -4.314652E+04  2.968879E+04  2.980183E+02 -2.836586E+04
       276   1 -2.989100E+05 -1.432744E+05 -1.298136E+05 -2.281631E+04  4.314381E+03  1.004871E+04
       276   2 -2.372443E+05 -1.660147E+05 -1.269036E+05 -2.425232E+04  1.126028E+04  3.181686E+04
       276   3 -1.672478E+05 -1.526074E+05 -1.194511E+05 -5.003669E+04  1.822800E+04  3.382672E+04
       276   4  4.522771E+05  4.316888E+04  5.152627E+04 -4.375595E+04  3.546589E+04  1.007876E+04
       276   5  4.464506E+05  8.036564E+02  2.362394E+04 -3.156425E+04  2.296796E+04  3.182345E+04
       276   6  4.523133E+05 -2.061282E+03  1.375541E+04 -4.371838E+04  1.049119E+04  3.381995E+04
       276   7  1.203983E+06  2.295732E+05  2.328297E+05 -6.472114E+04  6.665495E+04  1.010670E+04
       276   8  1.130583E+06  1.675909E+05  1.741234E+05 -3.888440E+04  3.468838E+04  3.182977E+04
       276   9  1.072235E+06  1.484599E+05  1.469397E+05 -3.739371E+04  2.746775E+03  3.381302E+04
       276  10 -2.989101E+05 -1.432745E+05 -1.298139E+05 -2.281634E+04 -2.329038E-10  8.762878E-11
       276  11 -2.372447E+05 -1.660158E+05 -1.269057E+05 -2.425260E+04  1.517736E-10  2.042196E-10
       276  12 -1.672485E+05 -1.526088E+05 -1.194539E+05 -5.003719E+04 -2.757994E-10  1.191297E-10
       276  13  4.522757E+05  4.316843E+04  5.152372E+04 -4.375624E+04  7.207615E-10  5.626414E-11
       276  14  4.464497E+05  8.024271E+02  2.362105E+04 -3.156484E+04 -3.642701E-10  2.015757E-10
       276  15  4.523129E+05 -2.062540E+03  1.375306E+04 -4.371866E+04  1.015947E-10  8.344253E-11
       276  16  1.203978E+06  2.295719E+05  2.328212E+05 -6.472168E+04 -1.528873E-10  7.036492E-11
       276  17  1.130581E+06  1.675895E+05  1.741192E+05 -3.888529E+04  3.477254E-10  2.459652E-10
       276  18  1.072235E+06  1.484586E+05  1.469375E+05 -3.739378E+04 -2.615280E-10  9.859563E-12
       276  19 -2.989100E+05 -1.432744E+05 -1.298136E+05 -2.281631E+04 -4.314381E+03 -1.004871E+04
       276  20 -2.372443E+05 -1.660147E+05 -1.269036E+05 -2.425232E+04 -1.126028E+04 -3.181686E+04
       276  21 -1.672478E+05 -1.526074E+05 -1.194511E+05 -5.003669E+04 -1.822800E+04 -3.382672E+04
       276  22  4.522771E+05  4.316888E+04  5.152627E+04 -4.375595E+04 -3.546589E+04 -1.007876E+04
       276  23  4.464506E+05  8.036564E+02  2.362394E+04 -3.156425E+04 -2.296796E+04 -3.182345E+04
       276  24  4.523133E+05 -2.061282E+03  1.375541E+04 -4.371838E+04 -1.049119E+04 -3.381995E+04
       276  25  1.203983E+06  2.295732E+05  2.328297E+05 -6.472114E+04 -6.665495E+04 -1.010670E+04
       276  26  1.130583E+06  1.675909E+05  1.741234E+05 -3.888440E+04 -3.468838E+04 -3.182977E+04
       276  27  1.072235E+06  1.484599E+05  1.469397E+05 -3.739371E+04 -2.746775E+03 -3.381302E+04
       277   1 -1.178407E+05 -1.360396E+05 -1.117758E+05 -4.337125E+04  1.077219E+04  3.008012E+04
       277   2 -5.299715E+04 -1.221852E+05 -1.021271E+05 -3.132741E+04  8.696094E+03  2.738112E+04
       277   3  1.270110E+04 -1.064141E+05 -9.062388E+04 -4.436502E+04  6.618080E+03  2.378114E+04
       277   4  4.499506E+05  2.031183E+03  1.088131E+04 -4.389122E+04  8.566276E+03  3.007704E+04
       277   5  4.494590E+05 -1.041863E+02  5.921998E+03 -3.135078E+04  5.601226E+03  2.737847E+04
       277   6  4.499714E+05 -1.693628E+02  3.433066E+03 -4.389050E+04  2.634477E+03  2.377928E+04
       277   7  1.018045E+06  1.400807E+05  1.335194E+05 -4.441169E+04  6.358366E+03  3.007396E+04
       277   8  9.521524E+05  1.219602E+05  1.139564E+05 -3.137419E+04  2.503887E+03  2.737583E+04
       277   9  8.874213E+05  1.060628E+05  9.747887E+04 -4.341565E+04 -1.351893E+03  2.377741E+04
       277  10 -1.178411E+05 -1.360406E+05 -1.117777E+05 -4.337151E+04 -3.683851E-10  1.281204E-11
       277  11 -5.299743E+04 -1.221860E+05 -1.021287E+05 -3.132760E+04 -5.855508E-10 -3.367894E-11
       277  12  1.270090E+04 -1.064147E+05 -9.062503E+04 -4.436514E+04 -4.692214E-10  4.866660E-11
       277  13  4.499503E+05  2.030191E+03  1.087947E+04 -4.389143E+04  2.985691E-11 -2.482069E-11
       277  14  4.494588E+05 -1.049998E+02  5.920530E+03 -3.135090E+04 -6.682440E-10  6.047452E-11
       277  15  4.499712E+05 -1.699720E+02  3.431990E+03 -4.389055E+04 -5.496465E-10  1.519360E-10
       277  16  1.018044E+06  1.400797E+05  1.335176E+05 -4.441184E+04  1.124011E-10 -3.782935E-12
       277  17  9.521522E+05  1.219594E+05  1.139550E+05 -3.137424E+04  2.196197E-10  1.619717E-10
       277  18  8.874212E+05  1.060622E+05  9.747780E+04 -4.341563E+04  8.202451E-11  2.080581E-10
       277  19 -1.178407E+05 -1.360396E+05 -1.117758E+05 -4.337125E+04 -1.077219E+04 -3.008012E+04
       277  20 -5.299715E+04 -1.221852E+05 -1.021271E+05 -3.132741E+04 -8.696094E+03 -2.738112E+04
       277  21  1.270110E+04 -1.064141E+05 -9.062388E+04 -4.436502E+04 -6.618080E+03 -2.378114E+04
       277  22  4.499506E+05  2.031183E+03  1.088131E+04 -4.389122E+04 -8.566276E+03 -3.007704E+04
       277  23  4.494590E+05 -1.041863E+02  5.921998E+03 -3.135078E+04 -5.601226E+03 -2.737847E+04
       277  24  4.499714E+05 -1.693628E+02  3.433066E+03 -4.389050E+04 -2.634477E+03 -2.377928E+04
       277  25  1.018045E+06  1.400807E+05  1.335194E+05 -4.441169E+04 -6.358366E+03 -3.007396E+04
       277  26  9.521524E+05  1.219602E+05  1.139564E+05 -3.137419E+04 -2.503887E+03 -2.737583E+04
       277  27  8.874213E+05  1.060628E+05  9.747887E+04 -4.341565E+04  1.351893E+03 -2.377741E+04
       278   1  6.358203E+04 -9.373765E+04 -8.014129E+04 -4.396823E+04  5.825292E+03  2.146399E+04
       278   2  1.285217E+05 -7.805659E+04 -6.743578E+04 -3.142330E+04  5.108030E+03  1.765836E+04
       278   3  1.936197E+05 -6.226910E+04 -5.422873E+04 -4.390094E+04  4.389238E+03  1.381502E+04
       278   4  4.497934E+05  3.904678E+01  2.635134E+03 -4.387774E+04  2.099713E+03  2.146270E+04
       278   5  4.497190E+05 -4.465371E+01  1.526103E+03 -3.136685E+04  1.344766E+03  1.765772E+04
       278   6  4.498062E+05 -1.496786E+01  9.448696E+02 -4.387775E+04  5.883622E+02  1.381505E+04
       278   7  8.361451E+05  9.380600E+04  8.540293E+04 -4.378718E+04 -1.628151E+03  2.146140E+04
       278   8  7.710132E+05  7.796053E+04  7.048201E+04 -3.131037E+04 -2.420417E+03  1.765707E+04
       278   9  7.060543E+05  6.223486E+04  5.611467E+04 -4.385455E+04 -3.214060E+03  1.381508E+04
       278  10  6.358187E+04 -9.373816E+04 -8.014222E+04 -4.396833E+04 -1.320499E-10  6.539911E-11
       278  11  1.285216E+05 -7.805694E+04 -6.743641E+04 -3.142338E+04 -2.184080E-10  9.018167E-11
       278  12  1.936196E+05 -6.226931E+04 -5.422912E+04 -4.390099E+04 -4.020647E-10  2.977573E-10
       278  13  4.497933E+05  3.855083E+01  2.634260E+03 -4.387777E+04 -7.458190E-10  6.753398E-11
       278  14  4.497189E+05 -4.498908E+01  1.525514E+03 -3.136687E+04 -1.502804E-10  1.876034E-13
       278  15  4.498061E+05 -1.517294E+01  9.445102E+02 -4.387776E+04 -1.257108E-11  1.621391E-10
       278  16  8.361450E+05  9.380550E+04  8.540206E+04 -4.378715E+04 -5.152370E-10  1.187054E-11
       278  17  7.710131E+05  7.796020E+04  7.048142E+04 -3.131033E+04 -3.569257E-10 -8.928405E-11
       278  18  7.060543E+05  6.223465E+04  5.611429E+04 -4.385451E+04  2.130162E-10  1.651113E-11
       278  19  6.358203E+04 -9.373765E+04 -8.014129E+04 -4.396823E+04 -5.825292E+03 -2.146399E+04
       278  20  1.285217E+05 -7.805659E+04 -6.743578E+04 -3.142330E+04 -5.108030E+03 -1.765836E+04
       278  21  1.936197E+05 -6.226910E+04 -5.422873E+04 -4.390094E+04 -4.389238E+03 -1.381502E+04
       278  22  4.497934E+05  3.904678E+01  2.635134E+03 -4.387774E+04 -2.099713E+03 -2.146270E+04
       278  23  4.497190E+05 -4.465371E+01  1.526103E+03 -3.136685E+04 -1.344766E+03 -1.765772E+04
       278  24  4.498062E+05 -1.496786E+01  9.448696E+02 -4.387775E+04 -5.883622E+02 -1.381505E+04
       278  25  8.361451E+05  9.380600E+04  8.540293E+04 -4.378718E+04  1.628151E+03 -2.146140E+04
       278  26  7.710132E+05  7.796053E+04  7.048201E+04 -3.131037E+04  2.420417E+03 -1.765707E+04
       278  27  7.060543E+05  6.223486E+04  5.611467E+04 -4.385455E+04  3.214060E+03 -1.381508E+04
       279   1  2.444913E+05 -4.982508E+04 -4.312174E+04 -4.386964E+04  4.219788E+03  1.157001E+04
       279   2  3.093534E+05 -3.410256E+04 -2.955386E+04 -3.137013E+04  3.929889E+03  7.722735E+03
       279   3  3.742601E+05 -1.836606E+04 -1.579433E+04 -4.384416E+04  3.639311E+03  3.875361E+03
       279   4  4.497842E+05 -3.855740E+00  7.694535E+02 -4.386696E+04  4.330161E+02  1.157033E+04
       279   5  4.497671E+05 -3.423230E+00  5.869554E+02 -3.138036E+04  1.427321E+02  7.723338E+03
       279   6  4.497897E+05  1.104337E+01  5.961536E+02 -4.386696E+04 -1.482017E+02  3.876262E+03
       279   7  6.551169E+05  4.981463E+04  4.465826E+04 -4.386427E+04 -3.354989E+03  1.157065E+04
       279   8  5.901994E+05  3.409443E+04  3.072667E+04 -3.139059E+04 -3.645269E+03  7.723941E+03
       279   9  5.253247E+05  1.838778E+04  1.698636E+04 -4.388976E+04 -3.936169E+03  3.877163E+03
       279  10  2.444912E+05 -4.982523E+04 -4.312203E+04 -4.386968E+04 -1.600919E-10  2.804725E-10
       279  11  3.093534E+05 -3.410263E+04 -2.955400E+04 -3.137016E+04 -4.500202E-12 -2.965727E-11
       279  12  3.742601E+05 -1.836608E+04 -1.579439E+04 -4.384417E+04  2.773306E-10 -1.602156E-10
       279  13  4.497842E+05 -3.999577E+00  7.692015E+02 -4.386696E+04 -5.755988E-10  1.578638E-10
       279  14  4.497671E+05 -3.487303E+00  5.868432E+02 -3.138036E+04  1.484040E-10 -2.022884E-11
       279  15  4.497897E+05  1.102722E+01  5.961254E+02 -4.386696E+04 -8.665203E-11 -1.345720E-10
       279  16  6.551168E+05  4.981448E+04  4.465799E+04 -4.386424E+04  2.748854E-11  9.977219E-11
       279  17  5.901994E+05  3.409437E+04  3.072653E+04 -3.139056E+04 -4.930491E-10 -3.764909E-11
       279  18  5.253247E+05  1.838776E+04  1.698630E+04 -4.388974E+04 -3.420477E-10 -2.142699E-10
       279  19  2.444913E+05 -4.982508E+04 -4.312174E+04 -4.386964E+04 -4.219788E+03 -1.157001E+04
       279  20  3.093534E+05 -3.410256E+04 -2.955386E+04 -3.137013E+04 -3.929889E+03 -7.722735E+03
       279  21  3.742601E+05 -1.836606E+04 -1.579433E+04 -4.384416E+04 -3.639311E+03 -3.875361E+03
       279  22  4.497842E+05 -3.855740E+00  7.694535E+02 -4.386696E+04 -4.330161E+02 -1.157033E+04
       279  23  4.497671E+05 -3.423230E+00  5.869554E+02 -3.138036E+04 -1.427321E+02 -7.723338E+03
       279  24  4.497897E+05  1.104337E+01  5.961536E+02 -4.386696E+04  1.482017E+02 -3.876262E+03
       279  25  6.551169E+05  4.981463E+04  4.465826E+04 -4.386427E+04  3.354989E+03 -1.157065E+04
       279  26  5.901994E+05  3.409443E+04  3.072667E+04 -3.139059E+04  3.645269E+03 -7.723941E+03
       279  27  5.253247E+05  1.838778E+04  1.698636E+04 -4.388976E+04  3.936169E+03 -3.877163E+03
       280   1  4.250986E+05 -5.949560E+03 -4.454839E+03 -4.384694E+04  3.523369E+03  1.636431E+03
       280   2  4.899288E+05  9.749089E+03  9.594503E+03 -3.135137E+04  3.040308E+03 -2.209397E+03
       280   3  5.548222E+05  2.547152E+04  2.396119E+04 -4.381624E+04  2.557382E+03 -6.054132E+03
       280   4  4.497952E+05  1.176273E+01  6.673208E+02 -4.386415E+04 -2.636396E+02  1.637396E+03
       280   5  4.497648E+05 -3.612634E+00  9.737270E+02 -3.138387E+04 -7.457776E+02 -2.208523E+03
       280   6  4.497935E+05  4.885388E+00  1.596979E+03 -4.386414E+04 -1.227731E+03 -6.053334E+03
       280   7  4.744923E+05  5.973055E+03  5.789501E+03 -4.388135E+04 -4.050796E+03  1.638361E+03
       280   8  4.096022E+05 -9.756412E+03 -7.647089E+03 -3.141637E+04 -4.531622E+03 -2.207648E+03
       280   9  3.447751E+05 -2.546246E+04 -2.076781E+04 -4.391202E+04 -5.012215E+03 -6.052535E+03
       280  10  4.250986E+05 -5.949566E+03 -4.454867E+03 -4.384695E+04 -1.924168E-11 -5.754541E-11
       280  11  4.899288E+05  9.749081E+03  9.594476E+03 -3.135137E+04  1.245701E-10  6.405107E-11
       280  12  5.548222E+05  2.547148E+04  2.396111E+04 -4.381623E+04  2.757776E-10  6.872666E-12
       280  13  4.497952E+05  1.175983E+01  6.673156E+02 -4.386414E+04 -1.412489E-10 -4.404437E-11
       280  14  4.497648E+05 -3.618023E+00  9.737168E+02 -3.138387E+04  2.456244E-11  1.238484E-10
       280  15  4.497935E+05  4.845626E+00  1.596907E+03 -4.386414E+04  1.496184E-11  1.481872E-10
       280  16  4.744922E+05  5.973047E+03  5.789465E+03 -4.388134E+04  8.210618E-11 -1.851226E-10
       280  17  4.096022E+05 -9.756423E+03 -7.647137E+03 -3.141637E+04 -3.872444E-10  7.269410E-11
       280  18  3.447751E+05 -2.546251E+04 -2.076793E+04 -4.391205E+04  1.138260E-10  9.982047E-11
       280  19  4.250986E+05 -5.949560E+03 -4.454839E+03 -4.384694E+04 -3.523369E+03 -1.636431E+03
       280  20  4.899288E+05  9.749089E+03  9.594503E+03 -3.135137E+04 -3.040308E+03  2.209397E+03
       280  21  5.548222E+05  2.547152E+04  2.396119E+04 -4.381624E+04 -2.557382E+03  6.054132E+03
       280  22  4.497952E+05  1.176273E+01  6.673208E+02 -4.386415E+04  2.636396E+02 -1.637396E+03
       280  23  4.497648E+05 -3.612634E+00  9.737270E+02 -3.138387E+04  7.457776E+02  2.208523E+03
       280  24  4.497935E+05  4.885388E+00  1.596979E+03 -4.386414E+04  1.227731E+03  6.053334E+03
       280  25  4.744923E+05  5.973055E+03  5.789501E+03 -4.388135E+04  4.050796E+03 -1.638361E+03
       280  26  4.096022E+05 -9.756412E+03 -7.647089E+03 -3.141637E+04  4.531622E+03  2.207648E+03
       280  27  3.447751E+05 -2.546246E+04 -2.076781E+04 -4.391202E+04  5.012215E+03  6.052535E+03
       281   1  6.057367E+05  3.786979E+04  3.571066E+04 -4.378104E+04  2.236645E+03 -8.296107E+03
       281   2  6.705260E+05  5.356395E+04  5.096281E+04 -3.126479E+04  4.375300E+02 -1.213485E+04
       281   3  7.356332E+05  6.953714E+04  6.745654E+04 -4.373904E+04 -1.360733E+03 -1.594017E+04
       281   4  4.498461E+05 -1.661496E+01  2.075768E+03 -4.387092E+04 -1.560156E+03 -8.295473E+03
       281   5  4.496869E+05 -5.582496E+01  3.562195E+03 -3.137537E+04 -3.325933E+03 -1.213469E+04
       281   6  4.498370E+05  1.788251E+02  6.267855E+03 -4.387085E+04 -5.090676E+03 -1.594046E+04
       281   7  2.939784E+05 -3.790461E+04 -3.156051E+04 -4.396077E+04 -5.356017E+03 -8.294838E+03
       281   8  2.288937E+05 -5.367879E+04 -4.384121E+04 -3.148590E+04 -7.088077E+03 -1.213452E+04
       281   9  1.641176E+05 -6.918482E+04 -5.492553E+04 -4.400260E+04 -8.818927E+03 -1.594074E+04
       281  10  6.057367E+05  3.786972E+04  3.571053E+04 -4.378103E+04 -1.057495E-10  3.822736E-11
       281  11  6.705260E+05  5.356379E+04  5.096253E+04 -3.126479E+04 -1.688837E-10  2.697027E-11
       281  12  7.356331E+05  6.953686E+04  6.745606E+04 -4.373906E+04  2.988836E-11 -2.691952E-10
       281  13  4.498461E+05 -1.668952E+01  2.075634E+03 -4.387093E+04 -3.820182E-11  6.173131E-12
       281  14  4.496869E+05 -5.598609E+01  3.561897E+03 -3.137540E+04  4.612639E-10 -2.968424E-11
       281  15  4.498369E+05  1.785452E+02  6.267329E+03 -4.387092E+04  3.472439E-10 -1.373814E-10
       281  16  2.939783E+05 -3.790469E+04 -3.156069E+04 -4.396081E+04  2.172432E-10  6.356642E-11
       281  17  2.288936E+05 -5.367896E+04 -4.384158E+04 -3.148597E+04 -8.565303E-11 -1.199488E-10
       281  18  1.641175E+05 -6.918511E+04 -5.492615E+04 -4.400271E+04 -2.651002E-10  3.244625E-11
       281  19  6.057367E+05  3.786979E+04  3.571066E+04 -4.378104E+04 -2.236645E+03  8.296107E+03
       281  20  6.705260E+05  5.356395E+04  5.096281E+04 -3.126479E+04 -4.375300E+02  1.213485E+04
       281  21  7.356332E+05  6.953714E+04  6.745654E+04 -4.373904E+04  1.360733E+03  1.594017E+04
       281  22  4.498461E+05 -1.661496E+01  2.075768E+03 -4.387092E+04  1.560156E+03  8.295473E+03
       281  23  4.496869E+05 -5.582496E+01  3.562195E+03 -3.137537E+04  3.325933E+03  1.213469E+04
       281  24  4.498370E+05  1.788251E+02  6.267855E+03 -4.387085E+04  5.090676E+03  1.594046E+04
       281  25  2.939784E+05 -3.790461E+04 -3.156051E+04 -4.396077E+04  5.356017E+03  8.294838E+03
       281  26  2.288937E+05 -5.367879E+04 -4.384121E+04 -3.148590E+04  7.088077E+03  1.213452E+04
       281  27  1.641176E+05 -6.918482E+04 -5.492553E+04 -4.400260E+04  8.818927E+03  1.594074E+04
       282   1  7.870497E+05  8.148730E+04  8.064583E+04 -4.287078E+04 -2.412373E+03 -1.824318E+04
       282   2  8.510167E+05  9.747806E+04  1.006001E+05 -3.169714E+04 -1.030985E+04 -2.186864E+04
       282   3  9.173539E+05  1.185843E+05  1.269828E+05 -4.554648E+04 -1.820679E+04 -2.471168E+04
       282   4  4.502576E+05 -3.137363E+02  8.194830E+03 -4.387794E+04 -6.366168E+03 -1.824385E+04
       282   5  4.491320E+05 -1.163189E+02  1.421353E+04 -3.136634E+04 -1.348890E+04 -2.187008E+04
       282   6  4.502393E+05  5.064363E+03  2.612609E+04 -4.387858E+04 -2.061028E+04 -2.471367E+04
       282   7  1.135720E+05 -8.212220E+04 -6.426276E+04 -4.488454E+04 -1.031785E+04 -1.824451E+04
       282   8  4.739889E+04 -9.772128E+04 -7.218245E+04 -3.103577E+04 -1.666592E+04 -2.187152E+04
       282   9 -1.667070E+04 -1.084699E+05 -7.474353E+04 -4.221195E+04 -2.301199E+04 -2.471568E+04
       282  10  7.870496E+05  8.148694E+04  8.064520E+04 -4.287082E+04 -1.600302E-10 -2.624903E-10
       282  11  8.510165E+05  9.747752E+04  1.005990E+05 -3.169732E+04  3.218083E-10  1.283788E-10
       282  12  9.173534E+05  1.185836E+05  1.269811E+05 -4.554685E+04  1.012275E-10 -4.760734E-11
       282  13  4.502574E+05 -3.141046E+02  8.194129E+03 -4.387803E+04  1.626496E-12 -1.083399E-10
       282  14  4.491316E+05 -1.168814E+02  1.421229E+04 -3.136658E+04 -3.430431E-11 -2.013014E-11
       282  15  4.502386E+05  5.063593E+03  2.612414E+04 -4.387899E+04  1.596530E-10 -3.324277E-11
       282  16  1.135718E+05 -8.212259E+04 -6.426359E+04 -4.488469E+04  1.726390E-10  8.892518E-12
       282  17  4.739847E+04 -9.772187E+04 -7.218387E+04 -3.103606E+04  4.503362E-11 -2.694490E-10
       282  18 -1.667144E+04 -1.084707E+05 -7.474567E+04 -4.221241E+04 -4.209405E-10 -1.361526E-11
       282  19  7.870497E+05  8.148730E+04  8.064583E+04 -4.287078E+04  2.412373E+03  1.824318E+04
       282  20  8.510167E+05  9.747806E+04  1.006001E+05 -3.169714E+04  1.030985E+04  2.186864E+04
       282  21  9.173539E+05  1.185843E+05  1.269828E+05 -4.554648E+04  1.820679E+04  2.471168E+04
       282  22  4.502576E+05 -3.137363E+02  8.194830E+03 -4.387794E+04  6.366168E+03  1.824385E+04
       282  23  4.491320E+05 -1.163189E+02  1.421353E+04 -3.136634E+04  1.348890E+04  2.187008E+04
       282  24  4.502393E+05  5.064363E+03  2.612609E+04 -4.387858E+04  2.061028E+04  2.471367E+04
       282  25  1.135720E+05 -8.212220E+04 -6.426276E+04 -4.488454E+04  1.031785E+04  1.824451E+04
       282  26  4.739889E+04 -9.772128E+04 -7.218245E+04 -3.103577E+04  1.666592E+04  2.187152E+04
       282  27 -1.667070E+04 -1.084699E+05 -7.474353E+04 -4.221195E+04  2.301199E+04  2.471568E+04
       283   1  9.746165E+05  1.212230E+05  1.445059E+05 -2.908037E+04 -1.802276E+04 -2.825284E+04
       283   2  1.024926E+06  1.443000E+05  1.850845E+05 -4.989439E+04 -6.493446E+04 -2.702842E+04
       283   3  1.105884E+06  2.650641E+05  2.806220E+05 -9.511727E+04 -1.118651E+05 -8.650582E+03
       283   4  4.558993E+05 -4.743226E+03  3.302887E+04 -4.372609E+04 -2.523436E+04 -2.825650E+04
       283   5  4.420090E+05  2.176552E+03  5.678086E+04 -3.155305E+04 -5.522412E+04 -2.702723E+04
       283   6  4.558542E+05  1.038943E+05  1.237782E+05 -4.378558E+04 -8.522668E+04 -8.642278E+03
       283   7 -6.256466E+04 -1.307262E+05 -7.846362E+04 -5.835942E+04 -3.244001E+04 -2.825983E+04
       283   8 -1.405901E+05 -1.399683E+05 -7.154307E+04 -1.322915E+04 -4.552276E+04 -2.702546E+04
       283   9 -1.937825E+05 -5.729596E+04 -3.309169E+04  7.492206E+03 -5.861593E+04 -8.629574E+03
       283  10  9.746159E+05  1.212220E+05  1.445038E+05 -2.908078E+04  5.745660E-10 -2.763951E-11
       283  11  1.024922E+06  1.442981E+05  1.850752E+05 -4.989580E+04 -2.356320E-10 -1.191284E-10
       283  12  1.105870E+06  2.650607E+05  2.805984E+05 -9.511805E+04 -5.897919E-10 -1.338645E-10
       283  13  4.558984E+05 -4.744255E+03  3.302617E+04 -4.372666E+04  2.194767E-10  2.120633E-11
       283  14  4.420056E+05  2.174949E+03  5.677376E+04 -3.155426E+04  9.793026E-11 -3.209823E-11
       283  15  4.558464E+05  1.038923E+05  1.237644E+05 -4.378618E+04  4.318934E-10 -6.768389E-11
       283  16 -6.256600E+04 -1.307274E+05 -7.846710E+04 -5.836016E+04 -3.200499E-10  1.243962E-10
       283  17 -1.405926E+05 -1.399697E+05 -7.154834E+04 -1.323014E+04  7.643037E-11  3.094484E-10
       283  18 -1.937862E+05 -5.729697E+04 -3.309829E+04  7.491799E+03 -6.411355E-11 -1.247214E-11
       283  19  9.746165E+05  1.212230E+05  1.445059E+05 -2.908037E+04  1.802276E+04  2.825284E+04
       283  20  1.024926E+06  1.443000E+05  1.850845E+05 -4.989439E+04  6.493446E+04  2.702842E+04
       283  21  1.105884E+06  2.650641E+05  2.806220E+05 -9.511727E+04  1.118651E+05  8.650582E+03
       283  22  4.558993E+05 -4.743226E+03  3.302887E+04 -4.372609E+04  2.523436E+04  2.825650E+04
       283  23  4.420090E+05  2.176552E+03  5.678086E+04 -3.155305E+04  5.522412E+04  2.702723E+04
       283  24  4.558542E+05  1.038943E+05  1.237782E+05 -4.378558E+04  8.522668E+04  8.642278E+03
       283  25 -6.256466E+04 -1.307262E+05 -7.846362E+04 -5.835942E+04  3.244001E+04  2.825983E+04
       283  26 -1.405901E+05 -1.399683E+05 -7.154307E+04 -1.322915E+04  4.552276E+04  2.702546E+04
       283  27 -1.937825E+05 -5.729596E+04 -3.309169E+04  7.492206E+03  5.861593E+04  8.629574E+03
       284   1  1.806820E+05  1.034294E+06  1.891986E+05 -1.248432E+05  5.200860E+03  6.659599E+04
       284   2  8.468601E+04  8.863928E+05  1.084675E+05 -7.901491E+04  1.467898E+04  3.586692E+04
       284   3  4.676978E+04  7.568827E+05  6.221481E+04 -8.582747E+04  1.060608E+04  5.127482E+03
       284   4  6.130120E+04  5.540155E+05  7.261059E+04 -9.406247E+04  5.225630E+03  5.060384E+04
       284   5  1.506320E+03  5.460015E+05  3.286957E+04 -6.778645E+04  1.468390E+04  3.323734E+04
       284   6 -2.506527E+03  5.540604E+05  1.835317E+04 -9.414861E+04  1.058976E+04  1.585346E+04
       284   7 -5.809287E+04  7.394960E+04 -4.399266E+04 -6.330555E+04  5.248829E+03  3.462399E+04
       284   8 -8.168074E+04  2.057185E+05 -4.273552E+04 -5.656416E+04  1.468873E+04  3.060917E+04
       284   9 -5.178521E+04  3.512772E+05 -2.551043E+04 -1.024670E+05  1.057314E+04  2.657598E+04
       284  10  1.806808E+05  1.034289E+06  1.891903E+05 -1.248434E+05 -1.009945E-10 -3.550271E-10
       284  11  8.468544E+04  8.863914E+05  1.084647E+05 -7.901534E+04 -4.284092E-10 -4.654188E-11
       284  12  4.676965E+04  7.568826E+05  6.221455E+04 -8.582751E+04  6.805294E-10  3.138165E-10
       284  13  6.130048E+04  5.540127E+05  7.260573E+04 -9.406268E+04  5.022975E-10 -5.502050E-11
       284  14  1.505792E+03  5.460003E+05  3.286709E+04 -6.778684E+04 -1.750807E-09  1.601363E-10
       284  15 -2.506715E+03  5.540601E+05  1.835249E+04 -9.414875E+04  3.493903E-10 -3.502371E-11
       284  16 -5.809322E+04  7.394830E+04 -4.399497E+04 -6.330569E+04 -1.102104E-10  3.705070E-10
       284  17 -8.168122E+04  2.057174E+05 -4.273769E+04 -5.656452E+04 -5.987883E-10  1.072912E-10
       284  18 -5.178552E+04  3.512764E+05 -2.551197E+04 -1.024672E+05 -3.646828E-10 -3.702068E-10
       284  19  1.806820E+05  1.034294E+06  1.891986E+05 -1.248432E+05 -5.200860E+03 -6.659599E+04
       284  20  8.468601E+04  8.863928E+05  1.084675E+05 -7.901491E+04 -1.467898E+04 -3.586692E+04
       284  21  4.676978E+04  7.568827E+05  6.221481E+04 -8.582747E+04 -1.060608E+04 -5.127482E+03
       284  22  6.130120E+04  5.540155E+05  7.261059E+04 -9.406247E+04 -5.225630E+03 -5.060384E+04
       284  23  1.506320E+03  5.460015E+05  3.286957E+04 -6.778645E+04 -1.468390E+04 -3.323734E+04
       284  24 -2.506527E+03  5.540604E+05  1.835317E+04 -9.414861E+04 -1.058976E+04 -1.585346E+04
       284  25 -5.809287E+04  7.394960E+04 -4.399266E+04 -6.330555E+04 -5.248829E+03 -3.462399E+04
       284  26 -8.168074E+04  2.057185E+05 -4.273552E+04 -5.656416E+04 -1.468873E+04 -3.060917E+04
       284  27 -5.178521E+04  3.512772E+05 -2.551043E+04 -1.024670E+05 -1.057314E+04 -2.657598E+04
       285   1  2.618107E+04  6.445122E+05  3.432062E+04 -9.521218E+04  4.750147E+03  6.219112E+03
       285   2 -1.067615E+04  5.056325E+05 -3.813066E+03 -6.787335E+04 -2.430424E+03  3.407689E+03
       285   3 -4.534896E+04  3.674984E+05 -3.961841E+04 -9.376416E+04 -9.507847E+03  5.974326E+02
       285   4  3.339952E+03  5.506588E+05  1.392213E+04 -9.425624E+04  4.739046E+03  1.334447E+04
       285   5  1.687440E+02  5.502852E+05  5.789814E+03 -6.764478E+04 -2.441165E+03  1.043164E+04
       285   6 -7.988860E+02  5.506577E+05  5.822033E+01 -9.426258E+04 -9.518292E+03  7.519382E+03
       285   7 -1.950171E+04  4.568138E+05 -6.476696E+03 -9.330044E+04  4.727966E+03  2.046876E+04
       285   8  1.101353E+04  5.949398E+05  1.539276E+04 -6.741620E+04 -2.451901E+03  1.745609E+04
       285   9  4.374899E+04  7.338486E+05  3.973304E+04 -9.476113E+04 -9.528746E+03  1.444334E+04
       285  10  2.618103E+04  6.445121E+05  3.432051E+04 -9.521220E+04  9.474518E-11 -5.271733E-10
       285  11 -1.067616E+04  5.056325E+05 -3.813099E+03 -6.787334E+04  2.514963E-10 -4.621475E-10
       285  12 -4.534905E+04  3.674984E+05 -3.961858E+04 -9.376415E+04 -6.062786E-10 -2.187394E-10
       285  13  3.339880E+03  5.506586E+05  1.392176E+04 -9.425629E+04 -3.948623E-11 -2.912599E-11
       285  14  1.687084E+02  5.502851E+05  5.789598E+03 -6.764476E+04  1.131247E-09 -1.314088E-10
       285  15 -7.989984E+02  5.506576E+05  5.794393E+01 -9.426252E+04  8.292985E-10 -1.731314E-10
       285  16 -1.950185E+04  4.568134E+05 -6.477525E+03 -9.330051E+04  1.743131E-10  5.453102E-10
       285  17  1.101344E+04  5.949395E+05  1.539218E+04 -6.741616E+04 -7.506622E-10  4.312090E-10
       285  18  4.374884E+04  7.338483E+05  3.973247E+04 -9.476102E+04 -4.681174E-10  1.992925E-10
       285  19  2.618107E+04  6.445122E+05  3.432062E+04 -9.521218E+04 -4.750147E+03 -6.219112E+03
       285  20 -1.067615E+04  5.056325E+05 -3.813066E+03 -6.787335E+04  2.430424E+03 -3.407689E+03
       285  21 -4.534896E+04  3.674984E+05 -3.961841E+04 -9.376416E+04  9.507847E+03 -5.974326E+02
       285  22  3.339952E+03  5.506588E+05  1.392213E+04 -9.425624E+04 -4.739046E+03 -1.334447E+04
       285  23  1.687440E+02  5.502852E+05  5.789814E+03 -6.764478E+04  2.441165E+03 -1.043164E+04
       285  24 -7.988860E+02  5.506577E+05  5.822033E+01 -9.426258E+04  9.518292E+03 -7.519382E+03
       285  25 -1.950171E+04  4.568138E+05 -6.476696E+03 -9.330044E+04 -4.727966E+03 -2.046876E+04
       285  26  1.101353E+04  5.949398E+05  1.539276E+04 -6.741620E+04  2.451901E+03 -1.745609E+04
       285  27  4.374899E+04  7.338486E+05  3.973304E+04 -9.476113E+04  9.528746E+03 -1.444334E+04
       286   1 -6.984074E+04  2.572881E+05 -6.541005E+04 -9.117802E+04 -1.552136E+04 -3.582394E+03
       286   2 -1.051998E+05  1.221867E+05 -1.035310E+05 -7.053158E+04 -1.899619E+04  1.645578E+04
       286   3 -1.594499E+05 -2.032926E+04 -1.594430E+05 -1.024983E+05 -6.626835E+03  3.650741E+04
       286   4  1.183442E+03  5.494300E+05 -2.351393E+03 -9.411762E+04 -1.553755E+04  7.608943E+03
       286   5 -2.813593E+02  5.517769E+05 -8.328649E+03 -6.782364E+04 -1.898926E+04  1.205750E+04
       286   6 -1.792362E+04  5.494002E+05 -2.126986E+04 -9.414204E+04 -6.601328E+03  1.652443E+04
       286   7  7.220211E+04  8.416524E+05  6.070270E+04 -9.705860E+04 -1.555383E+04  1.880547E+04
       286   8  1.046247E+05  9.815394E+05  8.686234E+04 -6.511374E+04 -1.898236E+04  7.656215E+03
       286   9  1.235793E+05  1.119427E+06  1.168814E+05 -8.577796E+04 -6.576372E+03 -3.476833E+03
       286  10 -6.984101E+04  2.572880E+05 -6.541052E+04 -9.117806E+04 -5.738640E-11  3.695171E-12
       286  11 -1.052003E+05  1.221863E+05 -1.035322E+05 -7.053132E+04  3.497179E-10  7.123339E-11
       286  12 -1.594503E+05 -2.033071E+04 -1.594456E+05 -1.024981E+05 -1.972974E-10  5.435669E-11
       286  13  1.183167E+03  5.494299E+05 -2.351955E+03 -9.411753E+04 -1.022687E-09  8.248411E-11
       286  14 -2.817855E+02  5.517767E+05 -8.329600E+03 -6.782345E+04  5.160808E-10 -1.082146E-10
       286  15 -1.792374E+04  5.493999E+05 -2.127045E+04 -9.414195E+04 -2.788050E-10  3.838883E-11
       286  16  7.220175E+04  8.416519E+05  6.070158E+04 -9.705836E+04  1.770971E-10 -1.236778E-10
       286  17  1.046243E+05  9.815393E+05  8.686155E+04 -6.511362E+04  5.587359E-11 -1.575672E-10
       286  18  1.235793E+05  1.119427E+06  1.168813E+05 -8.577798E+04 -3.919344E-10  9.608181E-12
       286  19 -6.984074E+04  2.572881E+05 -6.541005E+04 -9.117802E+04  1.552136E+04  3.582394E+03
       286  20 -1.051998E+05  1.221867E+05 -1.035310E+05 -7.053158E+04  1.899619E+04 -1.645578E+04
       286  21 -1.594499E+05 -2.032926E+04 -1.594430E+05 -1.024983E+05  6.626835E+03 -3.650741E+04
       286  22  1.183442E+03  5.494300E+05 -2.351393E+03 -9.411762E+04  1.553755E+04 -7.608943E+03
       286  23 -2.813593E+02  5.517769E+05 -8.328649E+03 -6.782364E+04  1.898926E+04 -1.205750E+04
       286  24 -1.792362E+04  5.494002E+05 -2.126986E+04 -9.414204E+04  6.601328E+03 -1.652443E+04
       286  25  7.220211E+04  8.416524E+05  6.070270E+04 -9.705860E+04  1.555383E+04 -1.880547E+04
       286  26  1.046247E+05  9.815394E+05  8.686234E+04 -6.511374E+04  1.898236E+04 -7.656215E+03
       286  27  1.235793E+05  1.119427E+06  1.168814E+05 -8.577796E+04  6.576372E+03  3.476833E+03
       287   1 -8.698937E+05 -3.996903E+05 -2.700159E+05 -3.148551E+05 -1.150878E+05 -3.553653E+04
       287   2 -8.346184E+05 -2.460157E+05 -1.683925E+05 -3.068133E+05 -7.441414E+04 -3.429121E+03
       287   3 -8.364645E+05 -2.103072E+05 -1.307745E+05 -2.825707E+05 -2.871648E+04  1.533881E+04
       287   4 -4.397488E+05 -1.849135E+05 -1.454002E+05 -1.431925E+05 -9.543851E+04 -2.815698E+04
       287   5 -4.144681E+05 -7.106934E+04 -6.342293E+04 -1.723763E+05 -6.702196E+04 -6.533855E+02
       287   6 -4.238499E+05 -7.272144E+04 -3.570218E+04 -1.853695E+05 -3.358483E+04  1.350838E+04
       287   7 -9.419651E+03  2.991884E+04 -2.080143E+04  2.859027E+04 -7.577451E+04 -2.076767E+04
       287   8  5.857363E+03  1.039016E+05  4.153277E+04 -3.785228E+04 -5.962434E+04  2.124951E+03
       287   9 -1.106478E+04  6.486917E+04  5.935932E+04 -8.811252E+04 -3.845672E+04  1.167692E+04
       287  10 -8.699083E+05 -3.996952E+05 -2.700432E+05 -3.148584E+05  2.698447E-11 -6.509597E-12
       287  11 -8.346244E+05 -2.460172E+05 -1.684029E+05 -3.068135E+05 -9.272027E-11 -5.320881E-11
       287  12 -8.364654E+05 -2.103077E+05 -1.307765E+05 -2.825704E+05  5.585331E-10 -1.051878E-10
       287  13 -4.397588E+05 -1.849168E+05 -1.454188E+05 -1.431947E+05  3.419696E-10  6.445601E-11
       287  14 -4.144730E+05 -7.107054E+04 -6.343138E+04 -1.723763E+05  2.791186E-10 -3.752661E-11
       287  15 -4.238512E+05 -7.272193E+04 -3.570465E+04 -1.853691E+05 -4.214758E-10 -2.037473E-10
       287  16 -9.425933E+03  2.991684E+04 -2.081303E+04  2.858900E+04  1.436391E-11 -1.241065E-11
       287  17  5.853544E+03  1.039006E+05  4.152608E+04 -3.785218E+04  3.010474E-10 -6.946642E-11
       287  18 -1.106641E+04  6.486863E+04  5.935629E+04 -8.811216E+04 -3.705392E-10 -2.594639E-10
       287  19 -8.698937E+05 -3.996903E+05 -2.700159E+05 -3.148551E+05  1.150878E+05  3.553653E+04
       287  20 -8.346184E+05 -2.460157E+05 -1.683925E+05 -3.068133E+05  7.441414E+04  3.429121E+03
       287  21 -8.364645E+05 -2.103072E+05 -1.307745E+05 -2.825707E+05  2.871648E+04 -1.533881E+04
       287  22 -4.397488E+05 -1.849135E+05 -1.454002E+05 -1.431925E+05  9.543851E+04  2.815698E+04
       287  23 -4.144681E+05 -7.106934E+04 -6.342293E+04 -1.723763E+05  6.702196E+04  6.533855E+02
       287  24 -4.238499E+05 -7.272144E+04 -3.570218E+04 -1.853695E+05  3.358483E+04 -1.350838E+04
       287  25 -9.419651E+03  2.991884E+04 -2.080143E+04  2.859027E+04  7.577451E+04  2.076767E+04
       287  26  5.857363E+03  1.039016E+05  4.153277E+04 -3.785228E+04  5.962434E+04 -2.124951E+03
       287  27 -1.106478E+04  6.486917E+04  5.935932E+04 -8.811252E+04  3.845672E+04 -1.167692E+04
       288   1 -7.912174E+05 -2.233889E+05 -1.172571E+05 -2.835231E+05 -2.724304E+04  1.318275E+04
       288   2 -7.616578E+05 -1.984505E+05 -9.524039E+04 -2.689625E+05 -1.880959E+04  1.483016E+04
       288   3 -7.253343E+05 -1.897754E+05 -8.078419E+04 -2.646046E+05 -1.015011E+04  1.587480E+04
       288   4 -4.191863E+05 -8.295510E+04 -2.817863E+04 -1.790856E+05 -2.820123E+04  1.282147E+04
       288   5 -4.221864E+05 -7.181465E+04 -1.456520E+04 -1.751331E+05 -2.031813E+04  1.426255E+04
       288   6 -4.183126E+05 -7.682599E+04 -8.072384E+03 -1.813839E+05 -1.220948E+04  1.510081E+04
       288   7 -4.701965E+04  5.748897E+04  6.088925E+04 -7.459121E+04 -2.916005E+04  1.245996E+04
       288   8 -8.260049E+04  5.482965E+04  6.610176E+04 -8.125684E+04 -2.182758E+04  1.369459E+04
       288   9 -1.111955E+05  3.613026E+04  6.463319E+04 -9.812540E+04 -1.426998E+04  1.432640E+04
       288  10 -7.912182E+05 -2.233893E+05 -1.172588E+05 -2.835228E+05 -2.298904E-10 -1.581605E-10
       288  11 -7.616582E+05 -1.984508E+05 -9.524147E+04 -2.689622E+05  2.457852E-10  1.947346E-11
       288  12 -7.253345E+05 -1.897757E+05 -8.078486E+04 -2.646045E+05  1.108114E-10 -3.736063E-11
       288  13 -4.191872E+05 -8.295549E+04 -2.818044E+04 -1.790853E+05  8.790346E-11 -2.081083E-10
       288  14 -4.221869E+05 -7.181498E+04 -1.456635E+04 -1.751328E+05 -9.363803E-11  1.464994E-10
       288  15 -4.183128E+05 -7.682628E+04 -8.073092E+03 -1.813837E+05 -1.464365E-10  1.272315E-10
       288  16 -4.702061E+04  5.748858E+04  6.088736E+04 -7.459092E+04  1.128825E-10 -1.108443E-10
       288  17 -8.260106E+04  5.482932E+04  6.610052E+04 -8.125660E+04 -3.679217E-10  3.852044E-11
       288  18 -1.111958E+05  3.612998E+04  6.463242E+04 -9.812524E+04 -8.697825E-11  2.640122E-10
       288  19 -7.912174E+05 -2.233889E+05 -1.172571E+05 -2.835231E+05  2.724304E+04 -1.318275E+04
       288  20 -7.616578E+05 -1.984505E+05 -9.524039E+04 -2.689625E+05  1.880959E+04 -1.483016E+04
       288  21 -7.253343E+05 -1.897754E+05 -8.078419E+04 -2.646046E+05  1.015011E+04 -1.587480E+04
       288  22 -4.191863E+05 -8.295510E+04 -2.817863E+04 -1.790856E+05  2.820123E+04 -1.282147E+04
       288  23 -4.221864E+05 -7.181465E+04 -1.456520E+04 -1.751331E+05  2.031813E+04 -1.426255E+04
       288  24 -4.183126E+05 -7.682599E+04 -8.072384E+03 -1.813839E+05  1.220948E+04 -1.510081E+04
       288  25 -4.701965E+04  5.748897E+04  6.088925E+04 -7.459121E+04  2.916005E+04 -1.245996E+04
       288  26 -8.260049E+04  5.482965E+04  6.610176E+04 -8.125684E+04  2.182758E+04 -1.369459E+04
       288  27 -1.111955E+05  3.613026E+04  6.463319E+04 -9.812540E+04  1.426998E+04 -1.432640E+04
       289   1 -6.967059E+05 -1.808084E+05 -7.212350E+04 -2.575280E+05 -8.706391E+03  1.496643E+04
       289   2 -6.676960E+05 -1.628086E+05 -6.138987E+04 -2.424536E+05 -6.231654E+03  1.353897E+04
       289   3 -6.288852E+05 -1.553054E+05 -5.200742E+04 -2.389465E+05 -3.746041E+03  1.208052E+04
       289   4 -4.179114E+05 -7.737106E+04 -6.130238E+03 -1.810079E+05 -1.059461E+04  1.425695E+04
       289   5 -4.227893E+05 -7.197129E+04 -3.344255E+03 -1.752810E+05 -8.147562E+03  1.281943E+04
       289   6 -4.178620E+05 -7.706204E+04 -1.886966E+03 -1.811213E+05 -5.689749E+03  1.135091E+04
       289   7 -1.390396E+05  2.607181E+04  5.985751E+04 -1.044565E+05 -1.248375E+04  1.354712E+04
       289   8 -1.778237E+05  1.887006E+04  5.469691E+04 -1.080844E+05 -1.006429E+04  1.209959E+04
       289   9 -2.067957E+05  1.184060E+03  4.823000E+04 -1.232785E+05 -7.634166E+03  1.062103E+04
       289  10 -6.967060E+05 -1.808087E+05 -7.212407E+04 -2.575279E+05  5.548964E-11 -8.093855E-11
       289  11 -6.676961E+05 -1.628089E+05 -6.139028E+04 -2.424535E+05  5.862230E-11  4.451999E-11
       289  12 -6.288853E+05 -1.553056E+05 -5.200772E+04 -2.389465E+05  4.275830E-10 -1.393970E-10
       289  13 -4.179116E+05 -7.737131E+04 -6.130831E+03 -1.810078E+05 -1.827914E-11  1.348406E-10
       289  14 -4.227894E+05 -7.197148E+04 -3.344688E+03 -1.752809E+05 -4.777946E-10  2.227423E-11
       289  15 -4.178621E+05 -7.706218E+04 -1.887269E+03 -1.811213E+05 -3.959770E-10 -8.424671E-11
       289  16 -1.390398E+05  2.607157E+04  5.985687E+04 -1.044564E+05  7.044000E-11  2.481330E-10
       289  17 -1.778239E+05  1.886987E+04  5.469644E+04 -1.080843E+05 -1.774182E-10  2.725149E-12
       289  18 -2.067958E+05  1.183923E+03  4.822967E+04 -1.232785E+05  1.398270E-10 -5.988313E-12
       289  19 -6.967059E+05 -1.808084E+05 -7.212350E+04 -2.575280E+05  8.706391E+03 -1.496643E+04
       289  20 -6.676960E+05 -1.628086E+05 -6.138987E+04 -2.424536E+05  6.231654E+03 -1.353897E+04
       289  21 -6.288852E+05 -1.553054E+05 -5.200742E+04 -2.389465E+05  3.746041E+03 -1.208052E+04
       289  22 -4.179114E+05 -7.737106E+04 -6.130238E+03 -1.810079E+05  1.059461E+04 -1.425695E+04
       289  23 -4.227893E+05 -7.197129E+04 -3.344255E+03 -1.752810E+05  8.147562E+03 -1.281943E+04
       289  24 -4.178620E+05 -7.706204E+04 -1.886966E+03 -1.811213E+05  5.689749E+03 -1.135091E+04
       289  25 -1.390396E+05  2.607181E+04  5.985751E+04 -1.044565E+05  1.248375E+04 -1.354712E+04
       289  26 -1.778237E+05  1.887006E+04  5.469691E+04 -1.080844E+05  1.006429E+04 -1.209959E+04
       289  27 -2.067957E+05  1.184060E+03  4.823000E+04 -1.232785E+05  7.634166E+03 -1.062103E+04
       290   1 -6.011452E+05 -1.450750E+05 -4.478865E+04 -2.314028E+05 -3.014093E+03  1.095390E+04
       290   2 -5.721237E+05 -1.273555E+05 -3.628221E+04 -2.162285E+05 -1.768015E+03  9.017142E+03
       290   3 -5.329904E+05 -1.198321E+05 -2.811755E+04 -2.127122E+05 -5.210423E+02  7.076719E+03
       290   4 -4.178057E+05 -7.709224E+04 -1.455267E+03 -1.811048E+05 -4.952770E+03  1.022635E+04
       290   5 -4.228579E+05 -7.198569E+04 -9.076843E+02 -1.752780E+05 -3.709932E+03  8.288582E+03
       290   6 -4.177997E+05 -7.707480E+04 -6.994484E+02 -1.811098E+05 -2.466231E+03  6.347146E+03
       290   7 -2.344317E+05 -9.106741E+03  4.187603E+04 -1.307929E+05 -6.892081E+03  9.498559E+03
       290   8 -2.735695E+05 -1.661417E+04  3.446539E+04 -1.343184E+05 -5.652363E+03  7.559828E+03
       290   9 -3.025957E+05 -3.431654E+04  2.671772E+04 -1.495019E+05 -4.411812E+03  5.617426E+03
       290  10 -6.011452E+05 -1.450751E+05 -4.478889E+04 -2.314028E+05 -3.986391E-11 -2.463434E-10
       290  11 -5.721237E+05 -1.273556E+05 -3.628237E+04 -2.162285E+05 -5.029492E-10 -8.857618E-11
       290  12 -5.329904E+05 -1.198322E+05 -2.811764E+04 -2.127122E+05 -3.092785E-10 -5.033972E-11
       290  13 -4.178057E+05 -7.709236E+04 -1.455509E+03 -1.811047E+05  2.217592E-11 -6.889053E-11
       290  14 -4.228579E+05 -7.198576E+04 -9.078393E+02 -1.752780E+05  2.225188E-11  1.950652E-12
       290  15 -4.177997E+05 -7.707484E+04 -6.995355E+02 -1.811098E+05  1.813806E-10  1.739705E-11
       290  16 -2.344318E+05 -9.106851E+03  4.187577E+04 -1.307929E+05  1.075644E-11 -2.017815E-11
       290  17 -2.735695E+05 -1.661423E+04  3.446522E+04 -1.343184E+05  1.280848E-11 -1.157890E-10
       290  18 -3.025957E+05 -3.431658E+04  2.671762E+04 -1.495019E+05  2.022375E-10  9.266375E-11
       290  19 -6.011452E+05 -1.450750E+05 -4.478865E+04 -2.314028E+05  3.014093E+03 -1.095390E+04
       290  20 -5.721237E+05 -1.273555E+05 -3.628221E+04 -2.162285E+05  1.768015E+03 -9.017142E+03
       290  21 -5.329904E+05 -1.198321E+05 -2.811755E+04 -2.127122E+05  5.210423E+02 -7.076719E+03
       290  22 -4.178057E+05 -7.709224E+04 -1.455267E+03 -1.811048E+05  4.952770E+03 -1.022635E+04
       290  23 -4.228579E+05 -7.198569E+04 -9.076843E+02 -1.752780E+05  3.709932E+03 -8.288582E+03
       290  24 -4.177997E+05 -7.707480E+04 -6.994484E+02 -1.811098E+05  2.466231E+03 -6.347146E+03
       290  25 -2.344317E+05 -9.106741E+03  4.187603E+04 -1.307929E+05  6.892081E+03 -9.498559E+03
       290  26 -2.735695E+05 -1.661417E+04  3.446539E+04 -1.343184E+05  5.652363E+03 -7.559828E+03
       290  27 -3.025957E+05 -3.431654E+04  2.671772E+04 -1.495019E+05  4.411812E+03 -5.617426E+03
       291   1 -5.052457E+05 -1.095103E+05 -2.130153E+04 -2.051286E+05  5.750830E+01  5.890439E+03
       291   2 -4.761470E+05 -9.176627E+04 -1.349968E+04 -1.899194E+05  1.282462E+03  3.938075E+03
       291   3 -4.369216E+05 -8.423859E+04 -6.024284E+03 -1.863978E+05  2.507337E+03  1.985431E+03
       291   4 -4.177949E+05 -7.707942E+04 -6.929098E+02 -1.811157E+05 -1.889077E+03  5.160435E+03
       291   5 -4.228574E+05 -7.197226E+04 -8.668396E+02 -1.752711E+05 -6.643710E+02  3.208055E+03
       291   6 -4.177943E+05 -7.708152E+04 -1.366994E+03 -1.811145E+05  5.602339E+02  1.255385E+03
       291   7 -3.303370E+05 -4.464811E+04  1.991506E+04 -1.570999E+05 -3.835949E+03  4.430322E+03
       291   8 -3.695650E+05 -5.217804E+04  1.176581E+04 -1.606217E+05 -2.611385E+03  2.477966E+03
       291   9 -3.986666E+05 -6.992439E+04  3.290313E+03 -1.758311E+05 -1.386945E+03  5.253105E+02
       291  10 -5.052457E+05 -1.095104E+05 -2.130159E+04 -2.051286E+05  4.702435E-11  6.086553E-11
       291  11 -4.761470E+05 -9.176629E+04 -1.349971E+04 -1.899194E+05 -4.216390E-10  1.830291E-10
       291  12 -4.369216E+05 -8.423859E+04 -6.024303E+03 -1.863978E+05 -8.471433E-10  4.001906E-10
       291  13 -4.177949E+05 -7.707945E+04 -6.929665E+02 -1.811157E+05 -2.574333E-10  6.606570E-11
       291  14 -4.228574E+05 -7.197227E+04 -8.668598E+02 -1.752711E+05  1.635268E-10  2.861901E-10
       291  15 -4.177943E+05 -7.708153E+04 -1.366997E+03 -1.811145E+05 -6.333048E-11  6.107826E-10
       291  16 -3.303370E+05 -4.464814E+04  1.991499E+04 -1.570999E+05  2.288086E-11  2.291282E-12
       291  17 -3.695650E+05 -5.217805E+04  1.176579E+04 -1.606217E+05  5.796944E-10  2.831357E-10
       291  18 -3.986666E+05 -6.992439E+04  3.290309E+03 -1.758311E+05  3.018058E-10  7.442828E-10
       291  19 -5.052457E+05 -1.095103E+05 -2.130153E+04 -2.051286E+05 -5.750830E+01 -5.890439E+03
       291  20 -4.761470E+05 -9.176627E+04 -1.349968E+04 -1.899194E+05 -1.282462E+03 -3.938075E+03
       291  21 -4.369216E+05 -8.423859E+04 -6.024284E+03 -1.863978E+05 -2.507337E+03 -1.985431E+03
       291  22 -4.177949E+05 -7.707942E+04 -6.929098E+02 -1.811157E+05  1.889077E+03 -5.160435E+03
       291  23 -4.228574E+05 -7.197226E+04 -8.668396E+02 -1.752711E+05  6.643710E+02 -3.208055E+03
       291  24 -4.177943E+05 -7.708152E+04 -1.366994E+03 -1.811145E+05 -5.602339E+02 -1.255385E+03
       291  25 -3.303370E+05 -4.464811E+04  1.991506E+04 -1.570999E+05  3.835949E+03 -4.430322E+03
       291  26 -3.695650E+05 -5.217804E+04  1.176581E+04 -1.606217E+05  2.611385E+03 -2.477966E+03
       291  27 -3.986666E+05 -6.992439E+04  3.290313E+03 -1.758311E+05  1.386945E+03 -5.253105E+02
       292   1 -4.091544E+05 -7.391798E+04  3.919935E+02 -1.788680E+05  3.233261E+03  8.514480E+02
       292   2 -3.799644E+05 -5.612468E+04  7.020922E+03 -1.635922E+05  5.568022E+03 -6.813938E+02
       292   3 -3.409061E+05 -4.886534E+04  1.241573E+04 -1.599786E+05  7.896874E+03 -2.197967E+03
       292   4 -4.178396E+05 -7.706296E+04 -1.767317E+03 -1.811425E+05  1.281479E+03  1.196509E+02
       292   5 -4.227918E+05 -7.193149E+04 -3.116292E+03 -1.752601E+05  3.631032E+03 -1.407707E+03
       292   6 -4.178797E+05 -7.733701E+04 -5.711134E+03 -1.810405E+05  5.974577E+03 -2.918823E+03
       292   7 -4.265247E+05 -8.020793E+04 -3.926616E+03 -1.834170E+05 -6.702722E+02 -6.121357E+02
       292   8 -4.656172E+05 -8.773811E+04 -1.325359E+04 -1.869273E+05  1.694193E+03 -2.133964E+03
       292   9 -4.948469E+05 -1.058081E+05 -2.383828E+04 -2.020998E+05  4.052549E+03 -3.639579E+03
       292  10 -4.091544E+05 -7.391799E+04  3.919725E+02 -1.788680E+05  2.202160E-09  1.579040E-09
       292  11 -3.799644E+05 -5.612469E+04  7.020863E+03 -1.635922E+05 -6.891793E-09 -2.501812E-09
       292  12 -3.409062E+05 -4.886536E+04  1.241560E+04 -1.599786E+05 -1.240142E-08 -6.207034E-09
       292  13 -4.178396E+05 -7.706296E+04 -1.767320E+03 -1.811425E+05 -2.190940E-10  6.448417E-10
       292  14 -4.227918E+05 -7.193149E+04 -3.116321E+03 -1.752601E+05  2.280153E-10 -3.668173E-11
       292  15 -4.178797E+05 -7.733702E+04 -5.711217E+03 -1.810405E+05  2.187440E-09 -8.818026E-10
       292  16 -4.265247E+05 -8.020793E+04 -3.926618E+03 -1.834170E+05 -2.923547E-09 -3.986720E-10
       292  17 -4.656172E+05 -8.773812E+04 -1.325360E+04 -1.869273E+05  7.085443E-09  2.427538E-09
       292  18 -4.948469E+05 -1.058081E+05 -2.383834E+04 -2.020998E+05  1.601977E-08  4.366214E-09
       292  19 -4.091544E+05 -7.391798E+04  3.919935E+02 -1.788680E+05 -3.233261E+03 -8.514480E+02
       292  20 -3.799644E+05 -5.612468E+04  7.020922E+03 -1.635922E+05 -5.568022E+03  6.813938E+02
       292  21 -3.409061E+05 -4.886534E+04  1.241573E+04 -1.599786E+05 -7.896874E+03  2.197967E+03
       292  22 -4.178396E+05 -7.706296E+04 -1.767317E+03 -1.811425E+05 -1.281479E+03 -1.196509E+02
       292  23 -4.227918E+05 -7.193149E+04 -3.116292E+03 -1.752601E+05 -3.631032E+03  1.407707E+03
       292  24 -4.178797E+05 -7.733701E+04 -5.711134E+03 -1.810405E+05 -5.974577E+03  2.918823E+03
       292  25 -4.265247E+05 -8.020793E+04 -3.926616E+03 -1.834170E+05  6.702722E+02  6.121357E+02
       292  26 -4.656172E+05 -8.773811E+04 -1.325359E+04 -1.869273E+05 -1.694193E+03  2.133964E+03
       292  27 -4.948469E+05 -1.058081E+05 -2.383828E+04 -2.020998E+05 -4.052549E+03  3.639579E+03
       293   1 -3.128238E+05 -3.872108E+04  1.740005E+04 -1.535261E+05  9.531323E+03 -3.023138E+03
       293   2 -2.838364E+05 -1.992369E+04  1.937389E+04 -1.366287E+05  1.684057E+04 -2.587035E+03
       293   3 -2.476189E+05 -1.691594E+04  1.496372E+04 -1.301833E+05  2.401864E+04 -1.798757E+03
       293   4 -4.182442E+05 -7.683862E+04 -7.519893E+03 -1.814022E+05  7.507498E+03 -3.782133E+03
       293   5 -4.222296E+05 -7.175960E+04 -1.355966E+04 -1.751085E+05  1.513924E+04 -3.225312E+03
       293   6 -4.190514E+05 -8.253585E+04 -2.624050E+04 -1.792678E+05  2.263941E+04 -2.316454E+03
       293   7 -5.236542E+05 -1.149557E+05 -3.244077E+04 -2.092742E+05  5.484036E+03 -4.541001E+03
       293   8 -5.606042E+05 -1.235942E+05 -4.649468E+04 -2.135806E+05  1.343832E+04 -3.863434E+03
       293   9 -5.904547E+05 -1.481532E+05 -6.744688E+04 -2.283399E+05  2.126059E+04 -2.833984E+03
       293  10 -3.128239E+05 -3.872112E+04  1.739987E+04 -1.535260E+05  1.609570E-08  4.200734E-09
       293  11 -2.838367E+05 -1.992377E+04  1.937334E+04 -1.366286E+05  7.283999E-09  2.256889E-09
       293  12 -2.476195E+05 -1.691610E+04  1.496263E+04 -1.301833E+05 -3.014673E-09 -4.357284E-10
       293  13 -4.182443E+05 -7.683865E+04 -7.520026E+03 -1.814022E+05  1.958366E-09 -1.007230E-09
       293  14 -4.222299E+05 -7.175967E+04 -1.356011E+04 -1.751085E+05  3.350658E-10 -1.782186E-10
       293  15 -4.190520E+05 -8.253599E+04 -2.624148E+04 -1.792678E+05 -5.281396E-10  4.668134E-10
       293  16 -5.236542E+05 -1.149558E+05 -3.244086E+04 -2.092742E+05 -1.214909E-08 -6.255625E-09
       293  17 -5.606044E+05 -1.235943E+05 -4.649505E+04 -2.135805E+05 -7.101078E-09 -2.569350E-09
       293  18 -5.904552E+05 -1.481533E+05 -6.744774E+04 -2.283398E+05  2.242027E-09  1.485792E-09
       293  19 -3.128238E+05 -3.872108E+04  1.740005E+04 -1.535261E+05 -9.531323E+03  3.023138E+03
       293  20 -2.838364E+05 -1.992369E+04  1.937389E+04 -1.366287E+05 -1.684057E+04  2.587035E+03
       293  21 -2.476189E+05 -1.691594E+04  1.496372E+04 -1.301833E+05 -2.401864E+04  1.798757E+03
       293  22 -4.182442E+05 -7.683862E+04 -7.519893E+03 -1.814022E+05 -7.507498E+03  3.782133E+03
       293  23 -4.222296E+05 -7.175960E+04 -1.355966E+04 -1.751085E+05 -1.513924E+04  3.225312E+03
       293  24 -4.190514E+05 -8.253585E+04 -2.624050E+04 -1.792678E+05 -2.263941E+04  2.316454E+03
       293  25 -5.236542E+05 -1.149557E+05 -3.244077E+04 -2.092742E+05 -5.484036E+03  4.541001E+03
       293  26 -5.606042E+05 -1.235942E+05 -4.649468E+04 -2.135806E+05 -1.343832E+04  3.863434E+03
       293  27 -5.904547E+05 -1.481532E+05 -6.744688E+04 -2.283399E+05 -2.126059E+04  2.833984E+03
       294   1 -2.119677E+05 -9.237643E+03  1.433310E+04 -1.422872E+05  3.121329E+04 -1.278888E+03
       294   2 -1.934455E+05  2.857516E+04 -2.318029E+03 -9.399769E+04  5.567524E+04  7.819734E+03
       294   3 -2.047922E+05 -4.077020E+04 -6.379662E+04 -3.184460E+04  7.720342E+04  2.474119E+04
       294   4 -4.233599E+05 -7.303979E+04 -3.324718E+04 -1.851613E+05  2.753957E+04 -2.656653E+03
       294   5 -4.150796E+05 -7.100198E+04 -5.905334E+04 -1.724855E+05  5.919417E+04  9.138054E+03
       294   6 -4.381118E+05 -1.775756E+05 -1.354005E+05 -1.459443E+05  8.791342E+04  2.875343E+04
       294   7 -6.347074E+05 -1.368419E+05 -8.083007E+04 -2.280238E+05  2.386721E+04 -4.034125E+03
       294   8 -6.366622E+05 -1.705680E+05 -1.157920E+05 -2.509449E+05  6.271170E+04  1.045560E+04
       294   9 -6.713683E+05 -3.143472E+05 -2.070075E+05 -2.599958E+05  9.861887E+04  3.276182E+04
       294  10 -2.119688E+05 -9.237907E+03  1.433126E+04 -1.422871E+05  4.627505E-10  9.509142E-10
       294  11 -1.934489E+05  2.857426E+04 -2.323972E+03 -9.399804E+04  5.341592E-10  1.114282E-10
       294  12 -2.047988E+05 -4.077246E+04 -6.380897E+04 -3.184614E+04 -1.257265E-11 -8.061835E-11
       294  13 -4.233608E+05 -7.304000E+04 -3.324862E+04 -1.851613E+05 -4.864763E-10  4.860137E-10
       294  14 -4.150834E+05 -7.100301E+04 -5.906009E+04 -1.724859E+05  3.318902E-10 -3.405237E-11
       294  15 -4.381203E+05 -1.775786E+05 -1.354165E+05 -1.459464E+05  1.398456E-10 -1.147042E-10
       294  16 -6.347080E+05 -1.368421E+05 -8.083117E+04 -2.280237E+05 -9.996512E-10  1.289508E-10
       294  17 -6.366665E+05 -1.705692E+05 -1.157996E+05 -2.509454E+05 -3.858584E-10 -2.209505E-11
       294  18 -6.713791E+05 -3.143509E+05 -2.070278E+05 -2.599984E+05  5.414436E-11 -4.483617E-11
       294  19 -2.119677E+05 -9.237643E+03  1.433310E+04 -1.422872E+05 -3.121329E+04  1.278888E+03
       294  20 -1.934455E+05  2.857516E+04 -2.318029E+03 -9.399769E+04 -5.567524E+04 -7.819734E+03
       294  21 -2.047922E+05 -4.077020E+04 -6.379662E+04 -3.184460E+04 -7.720342E+04 -2.474119E+04
       294  22 -4.233599E+05 -7.303979E+04 -3.324718E+04 -1.851613E+05 -2.753957E+04  2.656653E+03
       294  23 -4.150796E+05 -7.100198E+04 -5.905334E+04 -1.724855E+05 -5.919417E+04 -9.138054E+03
       294  24 -4.381118E+05 -1.775756E+05 -1.354005E+05 -1.459443E+05 -8.791342E+04 -2.875343E+04
       294  25 -6.347074E+05 -1.368419E+05 -8.083007E+04 -2.280238E+05 -2.386721E+04  4.034125E+03
       294  26 -6.366622E+05 -1.705680E+05 -1.157920E+05 -2.509449E+05 -6.271170E+04 -1.045560E+04
       294  27 -6.713683E+05 -3.143472E+05 -2.070075E+05 -2.599958E+05 -9.861887E+04 -3.276182E+04
       295   1 -5.519900E+05 -1.412096E+05 -1.172923E+05 -1.734068E+04  3.679358E+04  1.244470E+04
       295   2 -4.688235E+05 -2.038775E+05 -1.355429E+05 -2.898823E+04  3.470248E+04  3.910313E+04
       295   3 -3.652003E+05 -1.868963E+05 -1.324706E+05 -7.534661E+04  3.262791E+04  4.097100E+04
       295   4  3.863379E+05  9.172848E+04  1.093464E+05 -6.249990E+04  7.527619E+04  1.246487E+04
       295   5  3.740427E+05  1.833465E+03  5.014431E+04 -4.512637E+04  4.877756E+04  3.910369E+04
       295   6  3.864011E+05 -4.236927E+03  2.918587E+04 -6.245860E+04  2.229730E+04  4.096688E+04
       295   7  1.325479E+06  3.246107E+05  3.359287E+05 -1.077277E+05  1.138167E+05  1.247943E+04
       295   8  1.217574E+06  2.074978E+05  2.357889E+05 -6.128674E+04  6.287151E+04  3.910352E+04
       295   9  1.138534E+06  1.783861E+05  1.908097E+05 -4.955476E+04  1.195434E+04  4.096234E+04
       295  10 -5.519915E+05 -1.412101E+05 -1.172951E+05 -1.734105E+04  6.255844E-10 -3.905880E-11
       295  11 -4.688252E+05 -2.038794E+05 -1.355480E+05 -2.898932E+04 -2.598078E-10 -3.536585E-10
       295  12 -3.652019E+05 -1.868984E+05 -1.324757E+05 -7.534769E+04 -2.637617E-10  6.289356E-11
       295  13  3.863317E+05  9.172679E+04  1.093355E+05 -6.250066E+04  6.269881E-10 -2.992208E-10
       295  14  3.740397E+05  1.831185E+03  5.013697E+04 -4.512791E+04 -2.627245E-10 -8.554609E-11
       295  15  3.864001E+05 -4.238863E+03  2.918178E+04 -6.245934E+04 -3.074804E-10 -4.320236E-11
       295  16  1.325465E+06  3.246071E+05  3.359041E+05 -1.077289E+05 -3.212081E-10  2.977168E-10
       295  17  1.217569E+06  2.074951E+05  2.357786E+05 -6.128872E+04 -3.785664E-10 -1.917980E-10
       295  18  1.138534E+06  1.783842E+05  1.908063E+05 -4.955516E+04 -5.598286E-11 -1.269602E-10
       295  19 -5.519900E+05 -1.412096E+05 -1.172923E+05 -1.734068E+04 -3.679358E+04 -1.244470E+04
       295  20 -4.688235E+05 -2.038775E+05 -1.355429E+05 -2.898823E+04 -3.470248E+04 -3.910313E+04
       295  21 -3.652003E+05 -1.868963E+05 -1.324706E+05 -7.534661E+04 -3.262791E+04 -4.097100E+04
       295  22  3.863379E+05  9.172848E+04  1.093464E+05 -6.249990E+04 -7.527619E+04 -1.246487E+04
       295  23  3.740427E+05  1.833465E+03  5.014431E+04 -4.512637E+04 -4.877756E+04 -3.910369E+04
       295  24  3.864011E+05 -4.236927E+03  2.918587E+04 -6.245860E+04 -2.229730E+04 -4.096688E+04
       295  25  1.325479E+06  3.246107E+05  3.359287E+05 -1.077277E+05 -1.138167E+05 -1.247943E+04
       295  26  1.217574E+06  2.074978E+05  2.357889E+05 -6.128674E+04 -6.287151E+04 -3.910352E+04
       295  27  1.138534E+06  1.783861E+05  1.908097E+05 -4.955476E+04 -1.195434E+04 -4.096234E+04
       296   1 -2.967514E+05 -1.604921E+05 -1.234459E+05 -6.113722E+04  2.160535E+04  3.589898E+04
       296   2 -2.048853E+05 -1.423489E+05 -1.133275E+05 -4.445084E+04  1.643080E+04  3.186734E+04
       296   3 -1.111796E+05 -1.199680E+05 -9.875630E+04 -6.343576E+04  1.125190E+04  2.670398E+04
       296   4  3.813918E+05  4.440939E+03  2.308663E+04 -6.268244E+04  1.820941E+04  3.589609E+04
       296   5  3.803982E+05 -1.218683E+02  1.256456E+04 -4.484836E+04  1.191514E+04  3.186595E+04
       296   6  3.814263E+05 -2.552447E+02  7.268392E+03 -6.268334E+04  5.617271E+03  2.670459E+04
       296   7  1.059967E+06  1.693436E+05  1.695920E+05 -6.422935E+04  1.480981E+04  3.589323E+04
       296   8  9.660036E+05  1.420827E+05  1.384366E+05 -4.524624E+04  7.395284E+03  3.186456E+04
       296   9  8.742603E+05  1.194416E+05  1.132790E+05 -6.193028E+04 -2.177241E+01  2.670519E+04
       296  10 -2.967523E+05 -1.604936E+05 -1.234492E+05 -6.113784E+04  2.147432E-10  1.035554E-10
       296  11 -2.048858E+05 -1.423500E+05 -1.133299E+05 -4.445126E+04 -7.188808E-10 -9.930387E-11
       296  12 -1.111800E+05 -1.199688E+05 -9.875787E+04 -6.343600E+04  2.744603E-11  4.533627E-10
       296  13  3.813911E+05  4.439466E+03  2.308358E+04 -6.268296E+04 -2.615193E-10 -1.364673E-12
       296  14  3.803978E+05 -1.229971E+02  1.256239E+04 -4.484867E+04 -7.804246E-10 -1.305868E-10
       296  15  3.814261E+05 -2.560191E+02  7.266992E+03 -6.268346E+04 -1.027782E-09  2.296206E-10
       296  16  1.059966E+06  1.693422E+05  1.695892E+05 -6.422978E+04 -5.328654E-10 -4.284892E-11
       296  17  9.660033E+05  1.420816E+05  1.384346E+05 -4.524643E+04  4.045758E-11 -6.011485E-11
       296  18  8.742601E+05  1.194408E+05  1.132776E+05 -6.193028E+04  5.603348E-10 -9.410866E-11
       296  19 -2.967514E+05 -1.604921E+05 -1.234459E+05 -6.113722E+04 -2.160535E+04 -3.589898E+04
       296  20 -2.048853E+05 -1.423489E+05 -1.133275E+05 -4.445084E+04 -1.643080E+04 -3.186734E+04
       296  21 -1.111796E+05 -1.199680E+05 -9.875630E+04 -6.343576E+04 -1.125190E+04 -2.670398E+04
       296  22  3.813918E+05  4.440939E+03  2.308663E+04 -6.268244E+04 -1.820941E+04 -3.589609E+04
       296  23  3.803982E+05 -1.218683E+02  1.256456E+04 -4.484836E+04 -1.191514E+04 -3.186595E+04
       296  24  3.814263E+05 -2.552447E+02  7.268392E+03 -6.268334E+04 -5.617271E+03 -2.670459E+04
       296  25  1.059967E+06  1.693436E+05  1.695920E+05 -6.422935E+04 -1.480981E+04 -3.589323E+04
       296  26  9.660036E+05  1.420827E+05  1.384366E+05 -4.524624E+04 -7.395284E+03 -3.186456E+04
       296  27  8.742603E+05  1.194416E+05  1.132790E+05 -6.193028E+04  2.177241E+01 -2.670519E+04
       297   1 -3.891636E+04 -1.017880E+05 -8.439542E+04 -6.266197E+04  9.796403E+03  2.341923E+04
       297   2  5.350716E+04 -7.955274E+04 -6.709920E+04 -4.484364E+04  8.255963E+03  1.799416E+04
       297   3  1.461978E+05 -5.705251E+04 -4.873614E+04 -6.265241E+04  6.713144E+03  1.252025E+04
       297   4  3.810510E+05  1.843519E+02  5.571846E+03 -6.267353E+04  4.483588E+03  2.342053E+04
       297   5  3.809266E+05 -2.278579E+01  3.206203E+03 -4.486062E+04  2.893743E+03  1.799643E+04
       297   6  3.810695E+05  4.387589E+01  1.941230E+03 -6.267367E+04  1.301744E+03  1.252353E+04
       297   7  8.011842E+05  1.021452E+05  9.552896E+04 -6.268506E+04 -8.327709E+02  2.342184E+04
       297   8  7.084469E+05  7.950016E+04  7.350545E+04 -4.487758E+04 -2.471264E+03  1.799870E+04
       297   9  6.159931E+05  5.713665E+04  5.261546E+04 -6.269492E+04 -4.111675E+03  1.252681E+04
       297  10 -3.891661E+04 -1.017886E+05 -8.439663E+04 -6.266216E+04  4.524589E-10  3.598337E-10
       297  11  5.350700E+04 -7.955310E+04 -6.709993E+04 -4.484376E+04 -3.363405E-11 -5.752805E-11
       297  12  1.461977E+05 -5.705270E+04 -4.873652E+04 -6.265248E+04  6.412335E-10 -6.083769E-10
       297  13  3.810508E+05  1.837574E+02  5.570777E+03 -6.267361E+04 -1.929109E-10  2.083638E-10
       297  14  3.809265E+05 -2.313589E+01  3.205579E+03 -4.486066E+04  2.077075E-11  4.091171E-10
       297  15  3.810695E+05  4.370698E+01  1.940932E+03 -6.267368E+04 -3.682507E-10  3.468916E-10
       297  16  8.011840E+05  1.021446E+05  9.552793E+04 -6.268504E+04 -7.709458E-10  5.952743E-12
       297  17  7.084468E+05  7.949981E+04  7.350483E+04 -4.487755E+04 -3.253260E-10 -7.873345E-11
       297  18  6.159930E+05  5.713648E+04  5.261513E+04 -6.269488E+04  2.225835E-11 -1.085218E-10
       297  19 -3.891636E+04 -1.017880E+05 -8.439542E+04 -6.266197E+04 -9.796403E+03 -2.341923E+04
       297  20  5.350716E+04 -7.955274E+04 -6.709920E+04 -4.484364E+04 -8.255963E+03 -1.799416E+04
       297  21  1.461978E+05 -5.705251E+04 -4.873614E+04 -6.265241E+04 -6.713144E+03 -1.252025E+04
       297  22  3.810510E+05  1.843519E+02  5.571846E+03 -6.267353E+04 -4.483588E+03 -2.342053E+04
       297  23  3.809266E+05 -2.278579E+01  3.206203E+03 -4.486062E+04 -2.893743E+03 -1.799643E+04
       297  24  3.810695E+05  4.387589E+01  1.941230E+03 -6.267367E+04 -1.301744E+03 -1.252353E+04
       297  25  8.011842E+05  1.021452E+05  9.552896E+04 -6.268506E+04  8.327709E+02 -2.342184E+04
       297  26  7.084469E+05  7.950016E+04  7.350545E+04 -4.487758E+04  2.471264E+03 -1.799870E+04
       297  27  6.159931E+05  5.713665E+04  5.261546E+04 -6.269492E+04  4.111675E+03 -1.252681E+04
       298   1  2.186463E+05 -3.932083E+04 -3.305490E+04 -6.263548E+04  6.379033E+03  9.323100E+03
       298   2  3.110957E+05 -1.693798E+04 -1.390585E+04 -4.485762E+04  5.832907E+03  3.841176E+03
       298   3  4.035842E+05  5.501427E+03  5.598872E+03 -6.266797E+04  5.286250E+03 -1.642366E+03
       298   4  3.810237E+05  6.503771E+01  1.550494E+03 -6.266519E+04  9.837094E+02  9.326732E+03
       298   5  3.810094E+05  4.101482E+01  1.102345E+03 -4.487121E+04  4.355521E+02  3.844999E+03
       298   6  3.810277E+05  7.471118E+01  1.011789E+03 -6.266520E+04 -1.130558E+02 -1.638320E+03
       298   7  5.434261E+05  3.944921E+04  3.615447E+04 -6.269490E+04 -4.413004E+03  9.330363E+03
       298   8  4.509277E+05  1.701970E+04  1.611037E+04 -4.488480E+04 -4.962401E+03  3.848822E+03
       298   9  3.584717E+05 -5.352021E+03 -3.575212E+03 -6.266242E+04 -5.512169E+03 -1.634273E+03
       298  10  2.186462E+05 -3.932094E+04 -3.305513E+04 -6.263553E+04  1.435142E-10 -2.161389E-10
       298  11  3.110957E+05 -1.693800E+04 -1.390594E+04 -4.485764E+04  4.099358E-10  1.130170E-10
       298  12  4.035842E+05  5.501417E+03  5.598815E+03 -6.266796E+04 -1.784211E-10  2.000518E-10
       298  13  3.810237E+05  6.494403E+01  1.550329E+03 -6.266520E+04 -1.052318E-09 -4.894754E-10
       298  14  3.810094E+05  4.099889E+01  1.102317E+03 -4.487121E+04 -4.407081E-10  3.943608E-10
       298  15  3.810277E+05  7.470830E+01  1.011784E+03 -6.266520E+04 -3.097050E-10 -1.213672E-10
       298  16  5.434260E+05  3.944911E+04  3.615427E+04 -6.269487E+04  6.806283E-12  1.586430E-10
       298  17  4.509277E+05  1.701968E+04  1.611029E+04 -4.488479E+04 -7.599744E-10  2.236445E-10
       298  18  3.584716E+05 -5.352032E+03 -3.575274E+03 -6.266243E+04 -3.431524E-10 -4.798764E-10
       298  19  2.186463E+05 -3.932083E+04 -3.305490E+04 -6.263548E+04 -6.379033E+03 -9.323100E+03
       298  20  3.110957E+05 -1.693798E+04 -1.390585E+04 -4.485762E+04 -5.832907E+03 -3.841176E+03
       298  21  4.035842E+05  5.501427E+03  5.598872E+03 -6.266797E+04 -5.286250E+03  1.642366E+03
       298  22  3.810237E+05  6.503771E+01  1.550494E+03 -6.266519E+04 -9.837094E+02 -9.326732E+03
       298  23  3.810094E+05  4.101482E+01  1.102345E+03 -4.487121E+04 -4.355521E+02 -3.844999E+03
       298  24  3.810277E+05  7.471118E+01  1.011789E+03 -6.266520E+04  1.130558E+02  1.638320E+03
       298  25  5.434261E+05  3.944921E+04  3.615447E+04 -6.269490E+04  4.413004E+03 -9.330363E+03
       298  26  4.509277E+05  1.701970E+04  1.611037E+04 -4.488480E+04  4.962401E+03 -3.848822E+03
       298  27  3.584717E+05 -5.352021E+03 -3.575212E+03 -6.266242E+04  5.512169E+03  1.634273E+03
       299   1  4.760751E+05  2.320376E+04  2.173762E+04 -6.270505E+04  5.094246E+03 -4.834338E+03
       299   2  5.685490E+05  4.556626E+04  4.174045E+04 -4.490262E+04  4.355992E+03 -1.031812E+04
       299   3  6.611045E+05  6.799329E+04  6.222894E+04 -6.269826E+04  3.618848E+03 -1.580128E+04
       299   4  3.810346E+05  7.403194E+01  1.083542E+03 -6.266759E+04 -3.060132E+02 -4.830399E+03
       299   5  3.809932E+05  2.432330E+01  1.485041E+03 -4.486822E+04 -1.043860E+03 -1.031475E+04
       299   6  3.810241E+05  3.923756E+01  2.371892E+03 -6.266758E+04 -1.780488E+03 -1.579845E+04
       299   7  2.860026E+05 -2.305628E+04 -1.957097E+04 -6.263013E+04 -5.705457E+03 -4.826459E+03
       299   8  1.934706E+05 -4.551991E+04 -3.877231E+04 -4.483383E+04 -6.442104E+03 -1.031138E+04
       299   9  1.010174E+05 -6.791992E+04 -5.748959E+04 -6.263690E+04 -7.177426E+03 -1.579562E+04
       299  10  4.760751E+05  2.320373E+04  2.173753E+04 -6.270503E+04 -4.352373E-10  6.221266E-10
       299  11  5.685489E+05  4.556614E+04  4.174021E+04 -4.490258E+04 -3.165946E-10  9.091075E-10
       299  12  6.611044E+05  6.799302E+04  6.222844E+04 -6.269821E+04  4.464715E-10 -5.366250E-10
       299  13  3.810346E+05  7.400685E+01  1.083498E+03 -6.266759E+04 -1.151151E-09  1.805565E-11
       299  14  3.809932E+05  2.420874E+01  1.484839E+03 -4.486823E+04  1.181516E-10 -4.477829E-10
       299  15  3.810240E+05  3.896864E+01  2.371417E+03 -6.266760E+04 -5.968917E-10  1.098266E-10
       299  16  2.860025E+05 -2.305631E+04 -1.957107E+04 -6.263015E+04 -2.240125E-10 -2.374925E-10
       299  17  1.934705E+05 -4.552003E+04 -3.877259E+04 -4.483388E+04 -9.791818E-10 -3.719887E-10
       299  18  1.010173E+05 -6.792020E+04 -5.749015E+04 -6.263699E+04 -1.709755E-10  1.611297E-10
       299  19  4.760751E+05  2.320376E+04  2.173762E+04 -6.270505E+04 -5.094246E+03  4.834338E+03
       299  20  5.685490E+05  4.556626E+04  4.174045E+04 -4.490262E+04 -4.355992E+03  1.031812E+04
       299  21  6.611045E+05  6.799329E+04  6.222894E+04 -6.269826E+04 -3.618848E+03  1.580128E+04
       299  22  3.810346E+05  7.403194E+01  1.083542E+03 -6.266759E+04  3.060132E+02  4.830399E+03
       299  23  3.809932E+05  2.432330E+01  1.485041E+03 -4.486822E+04  1.043860E+03  1.031475E+04
       299  24  3.810241E+05  3.923756E+01  2.371892E+03 -6.266758E+04  1.780488E+03  1.579845E+04
       299  25  2.860026E+05 -2.305628E+04 -1.957097E+04 -6.263013E+04  5.705457E+03  4.826459E+03
       299  26  1.934706E+05 -4.551991E+04 -3.877231E+04 -4.483383E+04  6.442104E+03  1.031138E+04
       299  27  1.010174E+05 -6.791992E+04 -5.748959E+04 -6.263690E+04  7.177426E+03  1.579562E+04
       300   1  7.337607E+05  8.567856E+04  7.900321E+04 -6.266291E+04  3.145051E+03 -1.900005E+04
       300   2  8.262083E+05  1.080419E+05  1.008070E+05 -4.478973E+04  4.992476E+02 -2.447436E+04
       300   3  9.191477E+05  1.308386E+05  1.244451E+05 -6.257577E+04 -2.144026E+03 -2.989495E+04
       300   4  3.811034E+05  4.933364E+00  3.066203E+03 -6.268141E+04 -2.273799E+03 -1.899778E+04
       300   5  3.808533E+05 -8.348987E+01  5.224766E+03 -4.485092E+04 -4.865377E+03 -2.447344E+04
       300   6  3.810780E+05  2.528504E+02  9.181421E+03 -6.268121E+04 -7.454042E+03 -2.989534E+04
       300   7  2.856287E+04 -8.567685E+04 -7.287800E+04 -6.269988E+04 -7.689616E+03 -1.899552E+04
       300   8 -6.431542E+04 -1.082219E+05 -9.036891E+04 -4.491204E+04 -1.022621E+04 -2.447253E+04
       300   9 -1.567196E+05 -1.303518E+05 -1.060990E+05 -6.278653E+04 -1.275952E+04 -2.989574E+04
       300  10  7.337606E+05  8.567817E+04  7.900251E+04 -6.266286E+04  2.523003E-10 -6.438567E-10
       300  11  8.262081E+05  1.080413E+05  1.008058E+05 -4.478972E+04 -3.333225E-10 -3.374922E-10
       300  12  9.191475E+05  1.308377E+05  1.244435E+05 -6.257582E+04 -5.750941E-10 -1.006968E-10
       300  13  3.811033E+05  4.544342E+00  3.065515E+03 -6.268145E+04 -1.996288E-11  8.574741E-11
       300  14  3.808531E+05 -8.413952E+01  5.223596E+03 -4.485101E+04 -2.495610E-10 -3.992924E-10
       300  15  3.810777E+05  2.518756E+02  9.179637E+03 -6.268139E+04 -2.321655E-10 -3.197465E-10
       300  16  2.856271E+04 -8.567725E+04 -7.287879E+04 -6.269999E+04  2.370996E-10  3.323027E-10
       300  17 -6.431569E+04 -1.082225E+05 -9.037023E+04 -4.491224E+04 -3.323003E-10  5.293230E-10
       300  18 -1.567200E+05 -1.303528E+05 -1.061010E+05 -6.278684E+04  1.174256E-10 -3.058960E-11
       300  19  7.337607E+05  8.567856E+04  7.900321E+04 -6.266291E+04 -3.145051E+03  1.900005E+04
       300  20  8.262083E+05  1.080419E+05  1.008070E+05 -4.478973E+04 -4.992476E+02  2.447436E+04
       300  21  9.191477E+05  1.308386E+05  1.244451E+05 -6.257577E+04  2.144026E+03  2.989495E+04
       300  22  3.811034E+05  4.933364E+00  3.066203E+03 -6.268141E+04  2.273799E+03  1.899778E+04
       300  23  3.808533E+05 -8.348987E+01  5.224766E+03 -4.485092E+04  4.865377E+03  2.447344E+04
       300  24  3.810780E+05  2.528504E+02  9.181421E+03 -6.268121E+04  7.454042E+03  2.989534E+04
       300  25  2.856287E+04 -8.567685E+04 -7.287800E+04 -6.269988E+04  7.689616E+03  1.899552E+04
       300  26 -6.431542E+04 -1.082219E+05 -9.036891E+04 -4.491204E+04  1.022621E+04  2.447253E+04
       300  27 -1.567196E+05 -1.303518E+05 -1.060990E+05 -6.278653E+04  1.275952E+04  2.989574E+04
       301   1  9.925748E+05  1.478718E+05  1.433341E+05 -6.129731E+04 -3.650336E+03 -3.319293E+04
       301   2  1.083804E+06  1.706737E+05  1.720465E+05 -4.533716E+04 -1.533123E+04 -3.832120E+04
       301   3  1.178599E+06  2.010007E+05  2.102705E+05 -6.509809E+04 -2.700986E+04 -4.218275E+04
       301   4  3.816978E+05 -4.723185E+02  1.200221E+04 -6.269499E+04 -9.322383E+03 -3.319430E+04
       301   5  3.800036E+05 -2.168730E+02  2.079734E+04 -4.483352E+04 -1.974458E+04 -3.832465E+04
       301   6  3.816555E+05  7.351729E+03  3.823906E+04 -6.269535E+04 -3.016284E+04 -4.218766E+04
       301   7 -2.288288E+05 -1.488409E+05 -1.193514E+05 -6.409125E+04 -1.498893E+04 -3.319563E+04
       301   8 -3.233317E+05 -1.711399E+05 -1.304808E+05 -4.433044E+04 -2.415301E+04 -3.832811E+04
       301   9 -4.146925E+05 -1.863390E+05 -1.338299E+05 -6.029574E+04 -3.331181E+04 -4.219260E+04
       301  10  9.925745E+05  1.478706E+05  1.433320E+05 -6.129741E+04 -4.168965E-10  9.461372E-11
       301  11  1.083803E+06  1.706720E+05  1.720433E+05 -4.533764E+04  1.888442E-10  2.056201E-10
       301  12  1.178598E+06  2.009986E+05  2.102658E+05 -6.509901E+04 -7.446089E-10  3.314581E-11
       301  13  3.816974E+05 -4.735253E+02  1.199998E+04 -6.269524E+04 -8.494187E-10  8.291573E-11
       301  14  3.800027E+05 -2.185551E+02  2.079385E+04 -4.483413E+04 -5.734686E-10  1.708905E-10
       301  15  3.816541E+05  7.349573E+03  3.823401E+04 -6.269637E+04  1.608219E-10  7.789917E-11
       301  16 -2.288294E+05 -1.488421E+05 -1.193539E+05 -6.409165E+04  4.443967E-11  4.190661E-11
       301  17 -3.233327E+05 -1.711416E+05 -1.304846E+05 -4.433119E+04 -3.473417E-10  2.227760E-10
       301  18 -4.146941E+05 -1.863412E+05 -1.338353E+05 -6.029687E+04  1.014542E-10  8.626278E-11
       301  19  9.925748E+05  1.478718E+05  1.433341E+05 -6.129731E+04  3.650336E+03  3.319293E+04
       301  20  1.083804E+06  1.706737E+05  1.720465E+05 -4.533716E+04  1.533123E+04  3.832120E+04
       301  21  1.178599E+06  2.010007E+05  2.102705E+05 -6.509809E+04  2.700986E+04  4.218275E+04
       301  22  3.816978E+05 -4.723185E+02  1.200221E+04 -6.269499E+04  9.322383E+03  3.319430E+04
       301  23  3.800036E+05 -2.168730E+02  2.079734E+04 -4.483352E+04  1.974458E+04  3.832465E+04
       301  24  3.816555E+05  7.351729E+03  3.823906E+04 -6.269535E+04  3.016284E+04  4.218766E+04
       301  25 -2.288288E+05 -1.488409E+05 -1.193514E+05 -6.409125E+04  1.498893E+04  3.319563E+04
       301  26 -3.233317E+05 -1.711399E+05 -1.304808E+05 -4.433044E+04  2.415301E+04  3.832811E+04
       301  27 -4.146925E+05 -1.863390E+05 -1.338299E+05 -6.029574E+04  3.331181E+04  4.219260E+04
       302   1  1.260654E+06  2.043933E+05  2.353973E+05 -4.090851E+04 -2.599175E+04 -4.748590E+04
       302   2  1.331677E+06  2.376053E+05  2.947364E+05 -7.181220E+04 -9.730277E+04 -4.476752E+04
       302   3  1.448161E+06  4.142855E+05  4.363793E+05 -1.374329E+05 -1.686594E+05 -1.427119E+04
       302   4  3.899476E+05 -7.014887E+03  4.834500E+04 -6.244002E+04 -3.693180E+04 -4.749434E+04
       302   5  3.695285E+05  3.082371E+03  8.309161E+04 -4.514580E+04 -8.081022E+04 -4.476511E+04
       302   6  3.898680E+05  1.520022E+05  1.811770E+05 -6.256113E+04 -1.247200E+05 -1.424964E+04
       302   7 -4.800462E+05 -2.184710E+05 -1.387510E+05 -8.394100E+04 -4.785672E+04 -4.750202E+04
       302   8 -5.917537E+05 -2.314997E+05 -1.286084E+05 -1.852127E+04 -6.434280E+04 -4.476129E+04
       302   9 -6.673865E+05 -1.103406E+05 -7.409510E+04  1.218265E+04 -8.085495E+04 -1.421752E+04
       302  10  1.260653E+06  2.043907E+05  2.353918E+05 -4.090950E+04 -3.919829E-10  3.383810E-10
       302  11  1.331666E+06  2.376006E+05  2.947149E+05 -7.181570E+04 -2.896859E-10  1.855391E-10
       302  12  1.448131E+06  4.142777E+05  4.363256E+05 -1.374349E+05 -4.789827E-10 -1.358662E-10
       302  13  3.899455E+05 -7.017675E+03  4.833819E+04 -6.244143E+04 -1.503941E-10  4.963297E-10
       302  14  3.695209E+05  3.078467E+03  8.307557E+04 -4.514871E+04 -2.916843E-10  1.169910E-09
       302  15  3.898512E+05  1.519978E+05  1.811474E+05 -6.256256E+04 -6.653131E-11 -1.338796E-10
       302  16 -4.800492E+05 -2.184740E+05 -1.387596E+05 -8.394283E+04  3.322598E-10  1.377824E-10
       302  17 -5.917587E+05 -2.315029E+05 -1.286200E+05 -1.852359E+04 -2.530816E-11 -2.180275E-11
       302  18 -6.673936E+05 -1.103426E+05 -7.410778E+04  1.218172E+04 -3.994845E-10 -4.756625E-10
       302  19  1.260654E+06  2.043933E+05  2.353973E+05 -4.090851E+04  2.599175E+04  4.748590E+04
       302  20  1.331677E+06  2.376053E+05  2.947364E+05 -7.181220E+04  9.730277E+04  4.476752E+04
       302  21  1.448161E+06  4.142855E+05  4.363793E+05 -1.374329E+05  1.686594E+05  1.427119E+04
       302  22  3.899476E+05 -7.014887E+03  4.834500E+04 -6.244002E+04  3.693180E+04  4.749434E+04
       302  23  3.695285E+05  3.082371E+03  8.309161E+04 -4.514580E+04  8.081022E+04  4.476511E+04
       302  24  3.898680E+05  1.520022E+05  1.811770E+05 -6.256113E+04  1.247200E+05  1.424964E+04
       302  25 -4.800462E+05 -2.184710E+05 -1.387510E+05 -8.394100E+04  4.785672E+04  4.750202E+04
       302  26 -5.917537E+05 -2.314997E+05 -1.286084E+05 -1.852127E+04  6.434280E+04  4.476129E+04
       302  27 -6.673865E+05 -1.103406E+05 -7.409510E+04  1.218265E+04  8.085495E+04  1.421752E+04
       303   1  2.363253E+05  9.106730E+05  2.435227E+05 -1.891203E+05  7.379184E+03  7.108424E+04
       303   2  1.169472E+05  6.653171E+05  1.378854E+05 -1.251957E+05  1.994519E+04  3.377922E+04
       303   3  5.563863E+04  4.392145E+05  7.099210E+04 -1.509093E+05  1.219022E+04 -3.532243E+03
       303   4  5.992686E+04  2.011054E+05  7.101504E+04 -1.589017E+05  7.408504E+03  4.871208E+04
       303   5  1.521393E+03  1.932651E+05  3.273207E+04 -1.141195E+05  1.994976E+04  3.144275E+04
       303   6 -2.259486E+03  2.011772E+05  1.931662E+04 -1.589724E+05  1.216539E+04  1.415269E+04
       303   7 -1.165049E+05 -5.080002E+05 -1.015267E+05 -1.287176E+05  7.435670E+03  2.636537E+04
       303   8 -1.139191E+05 -2.785790E+05 -7.243511E+04 -1.030516E+05  1.995426E+04  2.910804E+04
       303   9 -6.016094E+04 -3.680613E+04 -3.236103E+04 -1.670323E+05  1.214009E+04  3.183093E+04
       303  10  2.363238E+05  9.106675E+05  2.435131E+05 -1.891207E+05 -2.461253E-11 -1.435352E-10
       303  11  1.169465E+05  6.653157E+05  1.378825E+05 -1.251963E+05 -4.624685E-10  9.046184E-10
       303  12  5.563847E+04  4.392144E+05  7.099180E+04 -1.509093E+05  1.113834E-09  1.859053E-10
       303  13  5.992616E+04  2.011028E+05  7.101048E+04 -1.589020E+05  3.257549E-10 -4.938798E-10
       303  14  1.520700E+03  1.932639E+05  3.272946E+04 -1.141200E+05 -6.583842E-10 -2.194569E-10
       303  15 -2.259699E+03  2.011769E+05  1.931596E+04 -1.589725E+05  5.468337E-10 -7.322519E-10
       303  16 -1.165052E+05 -5.080009E+05 -1.015281E+05 -1.287177E+05  1.141066E-10  9.237088E-11
       303  17 -1.139198E+05 -2.785800E+05 -7.243745E+04 -1.030521E+05  9.026219E-11  5.740887E-10
       303  18 -6.016137E+04 -3.680726E+04 -3.236322E+04 -1.670326E+05 -3.797473E-10  8.056134E-11
       303  19  2.363253E+05  9.106730E+05  2.435227E+05 -1.891203E+05 -7.379184E+03 -7.108424E+04
       303  20  1.169472E+05  6.653171E+05  1.378854E+05 -1.251957E+05 -1.994519E+04 -3.377922E+04
       303  21  5.563863E+04  4.392145E+05  7.099210E+04 -1.509093E+05 -1.219022E+04  3.532243E+03
       303  22  5.992686E+04  2.011054E+05  7.101504E+04 -1.589017E+05 -7.408504E+03 -4.871208E+04
       303  23  1.521393E+03  1.932651E+05  3.273207E+04 -1.141195E+05 -1.994976E+04 -3.144275E+04
       303  24 -2.259486E+03  2.011772E+05  1.931662E+04 -1.589724E+05 -1.216539E+04 -1.415269E+04
       303  25 -1.165049E+05 -5.080002E+05 -1.015267E+05 -1.287176E+05 -7.435670E+03 -2.636537E+04
       303  26 -1.139191E+05 -2.785790E+05 -7.243511E+04 -1.030516E+05 -1.995426E+04 -2.910804E+04
       303  27 -6.016094E+04 -3.680613E+04 -3.236103E+04 -1.670323E+05 -1.214009E+04 -3.183093E+04
       304   1  1.623969E+04  2.507956E+05  2.713881E+04 -1.602732E+05  2.425335E+03 -9.538746E+02
       304   2 -4.413955E+04  1.473521E+04 -3.025562E+04 -1.139033E+05 -9.915024E+03 -5.078026E+03
       304   3 -1.011874E+05 -2.201425E+05 -8.419864E+04 -1.580586E+05 -2.183011E+04 -9.197401E+03
       304   4  3.339668E+03  1.979551E+05  1.548453E+04 -1.591510E+05  2.407389E+03  1.140682E+04
       304   5  2.350784E+02  1.973403E+05  9.034116E+03 -1.138914E+05 -9.931046E+03  6.862560E+03
       304   6  5.381768E+02  1.979299E+05  6.329870E+03 -1.591548E+05 -2.184444E+04  2.321575E+03
       304   7 -9.560455E+03  1.451176E+05  3.830655E+03 -1.580290E+05  2.389488E+03  2.376647E+04
       304   8  4.460759E+04  3.799771E+05  4.832244E+04 -1.138794E+05 -9.947065E+03  1.880661E+04
       304   9  1.022523E+05  6.161666E+05  9.684850E+04 -1.602517E+05 -2.185881E+04  1.384821E+04
       304  10  1.623968E+04  2.507956E+05  2.713880E+04 -1.602731E+05  4.227007E-10 -6.524576E-10
       304  11 -4.413966E+04  1.473515E+04 -3.025586E+04 -1.139034E+05  2.069321E-10  6.676297E-10
       304  12 -1.011880E+05 -2.201427E+05 -8.419970E+04 -1.580588E+05 -7.959818E-10 -4.620532E-12
       304  13  3.339626E+03  1.979549E+05  1.548428E+04 -1.591511E+05  4.013428E-10 -5.997197E-10
       304  14  2.349599E+02  1.973403E+05  9.033842E+03 -1.138913E+05  9.803949E-10 -3.848183E-10
       304  15  5.376630E+02  1.979298E+05  6.328963E+03 -1.591548E+05  1.053351E-09 -7.308901E-10
       304  16 -9.560612E+03  1.451169E+05  3.829583E+03 -1.580291E+05 -2.201912E-10  7.073462E-10
       304  17  4.460739E+04  3.799767E+05  4.832159E+04 -1.138793E+05 -3.621304E-10  1.002978E-09
       304  18  1.022517E+05  6.161663E+05  9.684724E+04 -1.602514E+05 -4.399255E-10  2.453987E-10
       304  19  1.623969E+04  2.507956E+05  2.713881E+04 -1.602732E+05 -2.425335E+03  9.538746E+02
       304  20 -4.413955E+04  1.473521E+04 -3.025562E+04 -1.139033E+05  9.915024E+03  5.078026E+03
       304  21 -1.011874E+05 -2.201425E+05 -8.419864E+04 -1.580586E+05  2.183011E+04  9.197401E+03
       304  22  3.339668E+03  1.979551E+05  1.548453E+04 -1.591510E+05 -2.407389E+03 -1.140682E+04
       304  23  2.350784E+02  1.973403E+05  9.034116E+03 -1.138914E+05  9.931046E+03 -6.862560E+03
       304  24  5.381768E+02  1.979299E+05  6.329870E+03 -1.591548E+05  2.184444E+04 -2.321575E+03
       304  25 -9.560455E+03  1.451176E+05  3.830655E+03 -1.580290E+05 -2.389488E+03 -2.376647E+04
       304  26  4.460759E+04  3.799771E+05  4.832244E+04 -1.138794E+05  9.947065E+03 -1.880661E+04
       304  27  1.022523E+05  6.161666E+05  9.684850E+04 -1.602517E+05  2.185881E+04 -1.384821E+04
       305   1 -1.466510E+05 -4.052933E+05 -1.245407E+05 -1.592858E+05 -3.225157E+04 -1.827366E+04
       305   2 -2.042364E+05 -6.396755E+05 -1.797768E+05 -1.122665E+05 -3.734039E+04  8.036750E+03
       305   3 -2.597113E+05 -8.768479E+05 -2.516203E+05 -1.545134E+05 -1.275551E+04  3.435488E+04
       305   4  8.531102E+01  1.981148E+05  5.655669E+03 -1.588745E+05 -3.227367E+04  1.289778E+03
       305   5  1.989103E+02  1.969445E+05  5.521478E+03 -1.142423E+05 -3.732760E+04 -1.575260E+03
       305   6  7.490323E+03  1.979969E+05  9.048879E+03 -1.588683E+05 -1.272598E+04 -4.421996E+03
       305   7  1.467978E+05  8.018657E+05  1.358320E+05 -1.584628E+05 -3.229572E+04  2.087198E+04
       305   8  2.045870E+05  1.034219E+06  1.907768E+05 -1.162206E+05 -3.731476E+04 -1.120008E+04
       305   9  2.746080E+05  1.273901E+06  2.696405E+05 -1.632306E+05 -1.269593E+04 -4.326587E+04
       305  10 -1.466522E+05 -4.052939E+05 -1.245433E+05 -1.592862E+05 -1.952971E-10  1.128268E-10
       305  11 -2.042379E+05 -6.396760E+05 -1.797796E+05 -1.122662E+05  1.076053E-10  7.524354E-10
       305  12 -2.597118E+05 -8.768492E+05 -2.516229E+05 -1.545130E+05 -1.820267E-10  3.934367E-11
       305  13  8.419201E+01  1.981145E+05  5.653708E+03 -1.588745E+05 -9.584376E-10 -5.555042E-10
       305  14  1.974133E+02  1.969441E+05  5.518854E+03 -1.142423E+05  3.131566E-10 -1.905206E-10
       305  15  7.490143E+03  1.979968E+05  9.048538E+03 -1.588684E+05 -2.413223E-10 -2.427330E-10
       305  16  1.467966E+05  8.018649E+05  1.358292E+05 -1.584622E+05  2.052120E-10 -1.286052E-10
       305  17  2.045855E+05  1.034218E+06  1.907740E+05 -1.162209E+05  1.584753E-10  2.756099E-10
       305  18  2.746074E+05  1.273899E+06  2.696366E+05 -1.632310E+05 -2.776929E-10  9.454406E-11
       305  19 -1.466510E+05 -4.052933E+05 -1.245407E+05 -1.592858E+05  3.225157E+04  1.827366E+04
       305  20 -2.042364E+05 -6.396755E+05 -1.797768E+05 -1.122665E+05  3.734039E+04 -8.036750E+03
       305  21 -2.597113E+05 -8.768479E+05 -2.516203E+05 -1.545134E+05  1.275551E+04 -3.435488E+04
       305  22  8.531102E+01  1.981148E+05  5.655669E+03 -1.588745E+05  3.227367E+04 -1.289778E+03
       305  23  1.989103E+02  1.969445E+05  5.521478E+03 -1.142423E+05  3.732760E+04  1.575260E+03
       305  24  7.490323E+03  1.979969E+05  9.048879E+03 -1.588683E+05  1.272598E+04  4.421996E+03
       305  25  1.467978E+05  8.018657E+05  1.358320E+05 -1.584628E+05  3.229572E+04 -2.087198E+04
       305  26  2.045870E+05  1.034219E+06  1.907768E+05 -1.162206E+05  3.731476E+04  1.120008E+04
       305  27  2.746080E+05  1.273901E+06  2.696405E+05 -1.632306E+05  1.269593E+04  4.326587E+04
       306   1 -1.328195E+06 -5.051518E+05 -3.085819E+05 -4.924175E+05 -1.398620E+05 -4.488474E+04
       306   2 -1.289019E+06 -3.137808E+05 -1.841565E+05 -4.847292E+05 -8.997612E+04 -9.602719E+03
       306   3 -1.298062E+06 -2.699135E+05 -1.383891E+05 -4.545433E+05 -3.508468E+04  1.237645E+04
       306   4 -9.112815E+05 -2.812425E+05 -1.846751E+05 -3.098915E+05 -1.204639E+05 -3.761355E+04
       306   5 -8.783017E+05 -1.374534E+05 -8.053833E+04 -3.478941E+05 -8.279142E+04 -6.909023E+03
       306   6 -8.910835E+05 -1.386969E+05 -4.533429E+04 -3.634103E+05 -4.011689E+04  1.048679E+04
       306   7 -4.941856E+05 -5.726013E+04 -6.078266E+04 -1.272361E+05 -1.010515E+05 -3.033170E+04
       306   8 -4.674161E+05  3.890176E+04  2.306647E+04 -2.109711E+05 -7.560155E+04 -4.212696E+03
       306   9 -4.839424E+05 -7.478482E+03  4.770937E+04 -2.722276E+05 -4.515267E+04  8.596192E+03
       306  10 -1.328217E+06 -5.051592E+05 -3.086226E+05 -4.924225E+05 -8.760287E-11  2.238696E-10
       306  11 -1.289027E+06 -3.137830E+05 -1.841719E+05 -4.847299E+05 -4.873626E-10  2.652487E-10
       306  12 -1.298063E+06 -2.699140E+05 -1.383917E+05 -4.545429E+05 -5.013659E-10  9.143627E-11
       306  13 -9.112975E+05 -2.812479E+05 -1.847051E+05 -3.098951E+05  8.036769E-10 -3.569123E-11
       306  14 -8.783091E+05 -1.374553E+05 -8.055132E+04 -3.478946E+05  1.828880E-10  5.489793E-13
       306  15 -8.910853E+05 -1.386974E+05 -4.533752E+04 -3.634099E+05  4.173377E-10  1.741337E-10
       306  16 -4.941968E+05 -5.726387E+04 -6.080359E+04 -1.272386E+05 -1.236904E-10  5.109926E-11
       306  17 -4.674223E+05  3.890020E+04  2.305569E+04 -2.109714E+05  3.394769E-11  3.928577E-10
       306  18 -4.839446E+05 -7.479109E+03  4.770539E+04 -2.722273E+05  2.192308E-10  9.950024E-11
       306  19 -1.328195E+06 -5.051518E+05 -3.085819E+05 -4.924175E+05  1.398620E+05  4.488474E+04
       306  20 -1.289019E+06 -3.137808E+05 -1.841565E+05 -4.847292E+05  8.997612E+04  9.602719E+03
       306  21 -1.298062E+06 -2.699135E+05 -1.383891E+05 -4.545433E+05  3.508468E+04 -1.237645E+04
       306  22 -9.112815E+05 -2.812425E+05 -1.846751E+05 -3.098915E+05  1.204639E+05  3.761355E+04
       306  23 -8.783017E+05 -1.374534E+05 -8.053833E+04 -3.478941E+05  8.279142E+04  6.909023E+03
       306  24 -8.910835E+05 -1.386969E+05 -4.533429E+04 -3.634103E+05  4.011689E+04 -1.048679E+04
       306  25 -4.941856E+05 -5.726013E+04 -6.078266E+04 -1.272361E+05  1.010515E+05  3.033170E+04
       306  26 -4.674161E+05  3.890176E+04  2.306647E+04 -2.109711E+05  7.560155E+04  4.212696E+03
       306  27 -4.839424E+05 -7.478482E+03  4.770937E+04 -2.722276E+05  4.515267E+04 -8.596192E+03
       307   1 -1.245564E+06 -2.883310E+05 -1.222206E+05 -4.571415E+05 -3.234389E+04  1.057421E+04
       307   2 -1.213047E+06 -2.597711E+05 -9.577652E+04 -4.412847E+05 -2.184722E+04  1.276706E+04
       307   3 -1.173695E+06 -2.500838E+05 -7.882408E+04 -4.363906E+05 -1.112307E+04  1.435382E+04
       307   4 -8.851722E+05 -1.516950E+05 -3.578026E+04 -3.554240E+05 -3.348439E+04  1.014487E+04
       307   5 -8.880891E+05 -1.384231E+05 -1.848754E+04 -3.513994E+05 -2.353991E+04  1.213095E+04
       307   6 -8.840603E+05 -1.439112E+05 -1.024419E+04 -3.583380E+05 -1.336866E+04  1.351079E+04
       307   7 -5.246492E+05 -1.504752E+04  5.065117E+04 -2.536517E+05 -3.462562E+04  9.715243E+03
       307   8 -5.630249E+05 -1.706690E+04  5.879413E+04 -2.614709E+05 -2.523357E+04  1.149448E+04
       307   9 -5.943425E+05 -3.773314E+04  5.832979E+04 -2.802524E+05 -1.561539E+04  1.266735E+04
       307  10 -1.245565E+06 -2.883314E+05 -1.222228E+05 -4.571412E+05  1.135759E-10 -2.457317E-11
       307  11 -1.213048E+06 -2.597714E+05 -9.577772E+04 -4.412844E+05  1.293465E-10 -1.679492E-10
       307  12 -1.173695E+06 -2.500840E+05 -7.882470E+04 -4.363905E+05  2.614534E-11 -1.738606E-10
       307  13 -8.851735E+05 -1.516954E+05 -3.578257E+04 -3.554238E+05 -5.975763E-11 -2.699318E-11
       307  14 -8.880897E+05 -1.384234E+05 -1.848886E+04 -3.513992E+05  6.472846E-10 -2.923725E-10
       307  15 -8.840606E+05 -1.439114E+05 -1.024486E+04 -3.583379E+05  5.070850E-11 -2.670253E-10
       307  16 -5.246506E+05 -1.504794E+04  5.064874E+04 -2.536514E+05 -2.274812E-10 -1.068446E-10
       307  17 -5.630256E+05 -1.706722E+04  5.879268E+04 -2.614707E+05 -6.330883E-11 -2.217360E-10
       307  18 -5.943428E+05 -3.773338E+04  5.832903E+04 -2.802523E+05 -6.292357E-11 -1.528653E-10
       307  19 -1.245564E+06 -2.883310E+05 -1.222206E+05 -4.571415E+05  3.234389E+04 -1.057421E+04
       307  20 -1.213047E+06 -2.597711E+05 -9.577652E+04 -4.412847E+05  2.184722E+04 -1.276706E+04
       307  21 -1.173695E+06 -2.500838E+05 -7.882408E+04 -4.363906E+05  1.112307E+04 -1.435382E+04
       307  22 -8.851722E+05 -1.516950E+05 -3.578026E+04 -3.554240E+05  3.348439E+04 -1.014487E+04
       307  23 -8.880891E+05 -1.384231E+05 -1.848754E+04 -3.513994E+05  2.353991E+04 -1.213095E+04
       307  24 -8.840603E+05 -1.439112E+05 -1.024419E+04 -3.583380E+05  1.336866E+04 -1.351079E+04
       307  25 -5.246492E+05 -1.504752E+04  5.065117E+04 -2.536517E+05  3.462562E+04 -9.715243E+03
       307  26 -5.630249E+05 -1.706690E+04  5.879413E+04 -2.614709E+05  2.523357E+04 -1.149448E+04
       307  27 -5.943425E+05 -3.773314E+04  5.832979E+04 -2.802524E+05  1.561539E+04 -1.266735E+04
       308   1 -1.142048E+06 -2.404698E+05 -6.897170E+04 -4.287213E+05 -9.325092E+03  1.344153E+04
       308   2 -1.110087E+06 -2.206144E+05 -5.668173E+04 -4.121509E+05 -6.324670E+03  1.197140E+04
       308   3 -1.067414E+06 -2.123709E+05 -4.610422E+04 -4.083184E+05 -3.312098E+03  1.046705E+04
       308   4 -8.835410E+05 -1.446133E+05 -7.776999E+03 -3.578708E+05 -1.140404E+04  1.266127E+04
       308   5 -8.888696E+05 -1.386164E+05 -4.234347E+03 -3.515731E+05 -8.434194E+03  1.118001E+04
       308   6 -8.834807E+05 -1.442253E+05 -2.379304E+03 -3.580138E+05 -5.452324E+03  9.664497E+03
       308   7 -6.249691E+05 -4.875253E+04  5.341259E+04 -2.869938E+05 -1.348393E+04  1.188065E+04
       308   8 -6.676035E+05 -5.661501E+04  4.820957E+04 -2.909756E+05 -1.054454E+04  1.038832E+04
       308   9 -6.995132E+05 -7.607690E+04  4.134347E+04 -3.076953E+05 -7.593252E+03  8.861682E+03
       308  10 -1.142048E+06 -2.404700E+05 -6.897220E+04 -4.287212E+05 -1.776764E-10 -5.508191E-11
       308  11 -1.110087E+06 -2.206145E+05 -5.668208E+04 -4.121508E+05 -3.013659E-10  9.052066E-11
       308  12 -1.067414E+06 -2.123710E+05 -4.610444E+04 -4.083184E+05  3.229034E-10 -1.083137E-10
       308  13 -8.835412E+05 -1.446135E+05 -7.777545E+03 -3.578707E+05 -6.085799E-11  1.959807E-11
       308  14 -8.888697E+05 -1.386166E+05 -4.234715E+03 -3.515730E+05 -2.765942E-10 -1.262612E-11
       308  15 -8.834807E+05 -1.442254E+05 -2.379535E+03 -3.580137E+05  2.425767E-10  1.633665E-10
       308  16 -6.249693E+05 -4.875273E+04  5.341198E+04 -2.869937E+05  1.150632E-10 -8.359316E-11
       308  17 -6.676036E+05 -5.661516E+04  4.820916E+04 -2.909756E+05 -9.094320E-12  1.667397E-10
       308  18 -6.995132E+05 -7.607700E+04  4.134322E+04 -3.076952E+05  2.751696E-10 -2.812906E-12
       308  19 -1.142048E+06 -2.404698E+05 -6.897170E+04 -4.287213E+05  9.325092E+03 -1.344153E+04
       308  20 -1.110087E+06 -2.206144E+05 -5.668173E+04 -4.121509E+05  6.324670E+03 -1.197140E+04
       308  21 -1.067414E+06 -2.123709E+05 -4.610422E+04 -4.083184E+05  3.312098E+03 -1.046705E+04
       308  22 -8.835410E+05 -1.446133E+05 -7.776999E+03 -3.578708E+05  1.140404E+04 -1.266127E+04
       308  23 -8.888696E+05 -1.386164E+05 -4.234347E+03 -3.515731E+05  8.434194E+03 -1.118001E+04
       308  24 -8.834807E+05 -1.442253E+05 -2.379304E+03 -3.580138E+05  5.452324E+03 -9.664497E+03
       308  25 -6.249691E+05 -4.875253E+04  5.341259E+04 -2.869938E+05  1.348393E+04 -1.188065E+04
       308  26 -6.676035E+05 -5.661501E+04  4.820957E+04 -2.909756E+05  1.054454E+04 -1.038832E+04
       308  27 -6.995132E+05 -7.607690E+04  4.134347E+04 -3.076953E+05  7.593252E+03 -8.861682E+03
       309   1 -1.036811E+06 -2.011147E+05 -3.806581E+04 -4.000225E+05 -2.460256E+03  9.241998E+03
       309   2 -1.004781E+06 -1.815745E+05 -2.856866E+04 -3.832912E+05 -1.029737E+03  7.125978E+03
       309   3 -9.616153E+05 -1.732819E+05 -1.949297E+04 -3.794309E+05  4.022969E+02  5.004744E+03
       309   4 -8.834022E+05 -1.442677E+05 -1.825292E+03 -3.579962E+05 -4.597584E+03  8.440694E+03
       309   5 -8.889672E+05 -1.386358E+05 -1.112632E+03 -3.515632E+05 -3.171710E+03  6.323114E+03
       309   6 -8.833968E+05 -1.442505E+05 -8.175848E+02 -3.580013E+05 -1.744364E+03  4.200315E+03
       309   7 -7.299695E+05 -8.741897E+04  3.441357E+04 -3.159605E+05 -6.735486E+03  7.639175E+03
       309   8 -7.731401E+05 -9.569637E+04  2.634237E+04 -3.198298E+05 -5.314113E+03  5.520090E+03
       309   9 -8.051726E+05 -1.152189E+05  1.785726E+04 -3.365694E+05 -3.891307E+03  3.395781E+03
       309  10 -1.036811E+06 -2.011148E+05 -3.806598E+04 -4.000225E+05 -6.507416E-11 -1.967891E-10
       309  11 -1.004781E+06 -1.815746E+05 -2.856876E+04 -3.832912E+05 -2.462015E-10 -1.706057E-10
       309  12 -9.616153E+05 -1.732820E+05 -1.949302E+04 -3.794309E+05 -2.334169E-10 -1.479141E-10
       309  13 -8.834022E+05 -1.442677E+05 -1.825465E+03 -3.579962E+05  3.332501E-10 -5.306227E-11
       309  14 -8.889673E+05 -1.386359E+05 -1.112726E+03 -3.515632E+05  4.275729E-10  3.794731E-10
       309  15 -8.833968E+05 -1.442506E+05 -8.176237E+02 -3.580013E+05 -2.050575E-10 -1.976681E-10
       309  16 -7.299696E+05 -8.741904E+04  3.441337E+04 -3.159604E+05  5.434750E-10  2.263069E-11
       309  17 -7.731401E+05 -9.569641E+04  2.634226E+04 -3.198298E+05  2.021572E-10 -4.927007E-11
       309  18 -8.051726E+05 -1.152189E+05  1.785721E+04 -3.365694E+05 -2.950328E-10 -3.017503E-10
       309  19 -1.036811E+06 -2.011147E+05 -3.806581E+04 -4.000225E+05  2.460256E+03 -9.241998E+03
       309  20 -1.004781E+06 -1.815745E+05 -2.856866E+04 -3.832912E+05  1.029737E+03 -7.125978E+03
       309  21 -9.616153E+05 -1.732819E+05 -1.949297E+04 -3.794309E+05 -4.022969E+02 -5.004744E+03
       309  22 -8.834022E+05 -1.442677E+05 -1.825292E+03 -3.579962E+05  4.597584E+03 -8.440694E+03
       309  23 -8.889672E+05 -1.386358E+05 -1.112632E+03 -3.515632E+05  3.171710E+03 -6.323114E+03
       309  24 -8.833968E+05 -1.442505E+05 -8.175848E+02 -3.580013E+05  1.744364E+03 -4.200315E+03
       309  25 -7.299695E+05 -8.741897E+04  3.441357E+04 -3.159605E+05  6.735486E+03 -7.639175E+03
       309  26 -7.731401E+05 -9.569637E+04  2.634237E+04 -3.198298E+05  5.314113E+03 -5.520090E+03
       309  27 -8.051726E+05 -1.152189E+05  1.785726E+04 -3.365694E+05  3.891307E+03 -3.395781E+03
       310   1 -9.309690E+05 -1.618864E+05 -1.193696E+04 -3.710646E+05  1.046477E+03  3.696752E+03
       310   2 -8.988560E+05 -1.423117E+05 -3.276489E+03 -3.542853E+05  2.384096E+03  1.535578E+03
       310   3 -8.555699E+05 -1.340062E+05  5.033988E+03 -3.504115E+05  3.721490E+03 -6.250291E+02
       310   4 -8.833884E+05 -1.442568E+05 -7.855958E+02 -3.580084E+05 -1.101984E+03  2.891710E+03
       310   5 -8.889741E+05 -1.386251E+05 -9.301190E+02 -3.515540E+05  2.360876E+02  7.307125E+02
       310   6 -8.833890E+05 -1.442630E+05 -1.425186E+03 -3.580060E+05  1.573898E+03 -1.429721E+03
       310   7 -8.358052E+05 -1.266269E+05  1.036570E+04 -3.449512E+05 -3.250636E+03  2.086597E+03
       310   8 -8.790921E+05 -1.349383E+05  1.416271E+03 -3.488228E+05 -1.911965E+03 -7.416904E+01
       310   9 -9.112074E+05 -1.545197E+05 -7.884394E+03 -3.656002E+05 -5.735888E+02 -2.234374E+03
       310  10 -9.309690E+05 -1.618864E+05 -1.193698E+04 -3.710646E+05  1.552300E-10 -1.987513E-10
       310  11 -8.988560E+05 -1.423117E+05 -3.276504E+03 -3.542853E+05  4.470396E-10  5.647291E-11
       310  12 -8.555699E+05 -1.340062E+05  5.033961E+03 -3.504115E+05  8.107478E-11  9.325899E-12
       310  13 -8.833884E+05 -1.442568E+05 -7.856137E+02 -3.580084E+05 -7.838667E-11 -4.098847E-10
       310  14 -8.889741E+05 -1.386251E+05 -9.301201E+02 -3.515540E+05  4.350538E-10  1.297919E-10
       310  15 -8.833890E+05 -1.442630E+05 -1.425194E+03 -3.580060E+05  4.570308E-11  5.799727E-11
       310  16 -8.358053E+05 -1.266269E+05  1.036567E+04 -3.449512E+05  3.437474E-10 -1.547261E-10
       310  17 -8.790921E+05 -1.349383E+05  1.416264E+03 -3.488228E+05 -7.979446E-11 -1.806448E-10
       310  18 -9.112074E+05 -1.545198E+05 -7.884404E+03 -3.656002E+05 -3.665902E-10 -2.513206E-10
       310  19 -9.309690E+05 -1.618864E+05 -1.193696E+04 -3.710646E+05 -1.046477E+03 -3.696752E+03
       310  20 -8.988560E+05 -1.423117E+05 -3.276489E+03 -3.542853E+05 -2.384096E+03 -1.535578E+03
       310  21 -8.555699E+05 -1.340062E+05  5.033988E+03 -3.504115E+05 -3.721490E+03  6.250291E+02
       310  22 -8.833884E+05 -1.442568E+05 -7.855958E+02 -3.580084E+05  1.101984E+03 -2.891710E+03
       310  23 -8.889741E+05 -1.386251E+05 -9.301190E+02 -3.515540E+05 -2.360876E+02 -7.307125E+02
       310  24 -8.833890E+05 -1.442630E+05 -1.425186E+03 -3.580060E+05 -1.573898E+03  1.429721E+03
       310  25 -8.358052E+05 -1.266269E+05  1.036570E+04 -3.449512E+05  3.250636E+03 -2.086597E+03
       310  26 -8.790921E+05 -1.349383E+05  1.416271E+03 -3.488228E+05  1.911965E+03  7.416904E+01
       310  27 -9.112074E+05 -1.545197E+05 -7.884394E+03 -3.656002E+05  5.735888E+02  2.234374E+03
       311   1 -8.249378E+05 -1.226142E+05  1.215320E+04 -3.420992E+05  4.504920E+03 -1.883073E+03
       311   2 -7.927959E+05 -1.030213E+05  1.956729E+04 -3.252787E+05  6.959204E+03 -3.617239E+03
       311   3 -7.497594E+05 -9.500208E+04  2.571605E+04 -3.213113E+05  9.405245E+03 -5.328257E+03
       311   4 -8.834395E+05 -1.442393E+05 -1.829988E+03 -3.580292E+05  2.352611E+03 -2.689571E+03
       311   5 -8.889056E+05 -1.385936E+05 -3.207268E+03 -3.515493E+05  4.827795E+03 -4.416058E+03
       311   6 -8.834827E+05 -1.445260E+05 -5.866578E+03 -3.579231E+05  7.294641E+03 -6.119429E+03
       311   7 -9.419376E+05 -1.658641E+05 -1.581332E+04 -3.739578E+05  2.005346E+02 -3.495984E+03
       311   8 -9.850061E+05 -1.741653E+05 -2.598246E+04 -3.778162E+05  2.696745E+03 -5.214742E+03
       311   9 -1.017189E+06 -1.940490E+05 -3.745064E+04 -3.945279E+05  5.184520E+03 -6.910420E+03
       311  10 -8.249378E+05 -1.226142E+05  1.215316E+04 -3.420992E+05 -2.168050E-10  8.322094E-11
       311  11 -7.927959E+05 -1.030213E+05  1.956717E+04 -3.252787E+05 -2.154806E-11  5.106048E-10
       311  12 -7.497595E+05 -9.500213E+04  2.571583E+04 -3.213112E+05 -9.843978E-11  4.007078E-11
       311  13 -8.834395E+05 -1.442393E+05 -1.830012E+03 -3.580292E+05 -3.113605E-10  1.701480E-10
       311  14 -8.889056E+05 -1.385937E+05 -3.207349E+03 -3.515493E+05 -1.695380E-10  1.850636E-10
       311  15 -8.834828E+05 -1.445261E+05 -5.866748E+03 -3.579231E+05 -1.353505E-10 -1.946416E-11
       311  16 -9.419376E+05 -1.658641E+05 -1.581334E+04 -3.739578E+05  1.501511E-11  2.747338E-10
       311  17 -9.850062E+05 -1.741654E+05 -2.598253E+04 -3.778162E+05  3.583652E-11  1.812523E-10
       311  18 -1.017189E+06 -1.940490E+05 -3.745078E+04 -3.945279E+05 -2.744646E-10  2.285539E-10
       311  19 -8.249378E+05 -1.226142E+05  1.215320E+04 -3.420992E+05 -4.504920E+03  1.883073E+03
       311  20 -7.927959E+05 -1.030213E+05  1.956729E+04 -3.252787E+05 -6.959204E+03  3.617239E+03
       311  21 -7.497594E+05 -9.500208E+04  2.571605E+04 -3.213113E+05 -9.405245E+03  5.328257E+03
       311  22 -8.834395E+05 -1.442393E+05 -1.829988E+03 -3.580292E+05 -2.352611E+03  2.689571E+03
       311  23 -8.889056E+05 -1.385936E+05 -3.207268E+03 -3.515493E+05 -4.827795E+03  4.416058E+03
       311  24 -8.834827E+05 -1.445260E+05 -5.866578E+03 -3.579231E+05 -7.294641E+03  6.119429E+03
       311  25 -9.419376E+05 -1.658641E+05 -1.581332E+04 -3.739578E+05 -2.005346E+02  3.495984E+03
       311  26 -9.850061E+05 -1.741653E+05 -2.598246E+04 -3.778162E+05 -2.696745E+03  5.214742E+03
       311  27 -1.017189E+06 -1.940490E+05 -3.745064E+04 -3.945279E+05 -5.184520E+03  6.910420E+03
       312   1 -7.189101E+05 -8.381886E+04  3.133223E+04 -3.141212E+05  1.114134E+04 -6.265101E+03
       312   2 -6.871294E+05 -6.327806E+04  3.393382E+04 -2.957098E+05  1.861125E+04 -5.978108E+03
       312   3 -6.471956E+05 -5.964558E+04  3.004408E+04 -2.888485E+05  2.591305E+04 -5.240099E+03
       312   4 -8.838687E+05 -1.440030E+05 -7.721620E+03 -3.582816E+05  8.904605E+03 -7.103683E+03
       312   5 -8.883205E+05 -1.384363E+05 -1.392121E+04 -3.514103E+05  1.678712E+04 -6.662353E+03
       312   6 -8.847032E+05 -1.498616E+05 -2.694104E+04 -3.560899E+05  2.450107E+04 -5.770131E+03
       312   7 -1.048800E+06 -2.041855E+05 -4.677738E+04 -4.024313E+05  6.668516E+03 -7.942031E+03
       312   8 -1.089471E+06 -2.135914E+05 -6.177897E+04 -4.070940E+05  1.496364E+04 -7.346350E+03
       312   9 -1.122153E+06 -2.400724E+05 -8.392990E+04 -4.233072E+05  2.308967E+04 -6.299928E+03
       312  10 -7.189102E+05 -8.381894E+04  3.133193E+04 -3.141212E+05  1.797917E-10 -4.379725E-11
       312  11 -6.871298E+05 -6.327819E+04  3.393310E+04 -2.957097E+05  5.812342E-11 -5.681478E-11
       312  12 -6.471963E+05 -5.964579E+04  3.004276E+04 -2.888484E+05 -1.548011E-10 -4.055862E-11
       312  13 -8.838688E+05 -1.440031E+05 -7.721864E+03 -3.582815E+05  1.853526E-10  5.312416E-11
       312  14 -8.883209E+05 -1.384365E+05 -1.392182E+04 -3.514102E+05  2.305590E-10 -6.600189E-11
       312  15 -8.847039E+05 -1.498618E+05 -2.694223E+04 -3.560898E+05  3.166521E-11 -1.885517E-10
       312  16 -1.048800E+06 -2.041856E+05 -4.677758E+04 -4.024313E+05  2.328607E-10  2.236892E-10
       312  17 -1.089471E+06 -2.135915E+05 -6.177949E+04 -4.070939E+05  2.956929E-10 -2.162420E-11
       312  18 -1.122154E+06 -2.400726E+05 -8.393098E+04 -4.233071E+05  1.775106E-10 -2.647939E-10
       312  19 -7.189101E+05 -8.381886E+04  3.133223E+04 -3.141212E+05 -1.114134E+04  6.265101E+03
       312  20 -6.871294E+05 -6.327806E+04  3.393382E+04 -2.957098E+05 -1.861125E+04  5.978108E+03
       312  21 -6.471956E+05 -5.964558E+04  3.004408E+04 -2.888485E+05 -2.591305E+04  5.240099E+03
       312  22 -8.838687E+05 -1.440030E+05 -7.721620E+03 -3.582816E+05 -8.904605E+03  7.103683E+03
       312  23 -8.883205E+05 -1.384363E+05 -1.392121E+04 -3.514103E+05 -1.678712E+04  6.662353E+03
       312  24 -8.847032E+05 -1.498616E+05 -2.694104E+04 -3.560899E+05 -2.450107E+04  5.770131E+03
       312  25 -1.048800E+06 -2.041855E+05 -4.677738E+04 -4.024313E+05 -6.668516E+03  7.942031E+03
       312  26 -1.089471E+06 -2.135914E+05 -6.177897E+04 -4.070940E+05 -1.496364E+04  7.346350E+03
       312  27 -1.122153E+06 -2.400724E+05 -8.392990E+04 -4.233072E+05 -2.308967E+04  6.299928E+03
       313   1 -6.087184E+05 -5.102390E+04  2.975832E+04 -3.007070E+05  3.394391E+04 -4.749591E+03
       313   2 -5.879955E+05 -1.112500E+04  1.345339E+04 -2.502806E+05  5.717522E+04  4.290391E+03
       313   3 -5.970177E+05 -8.148601E+04 -4.749895E+04 -1.862698E+05  7.667957E+04  2.326903E+04
       313   4 -8.891549E+05 -1.400752E+05 -3.413397E+04 -3.621027E+05  2.962318E+04 -6.369826E+03
       313   5 -8.809526E+05 -1.377007E+05 -6.063580E+04 -3.487680E+05  6.198759E+04  6.093378E+03
       313   6 -9.043299E+05 -2.474343E+05 -1.390448E+05 -3.218470E+05  9.062291E+04  2.849407E+04
       313   7 -1.169515E+06 -2.291264E+05 -9.803180E+04 -4.234758E+05  2.530454E+04 -7.989541E+03
       313   8 -1.173823E+06 -2.642613E+05 -1.347315E+05 -4.472098E+05  6.679747E+04  7.895088E+03
       313   9 -1.211539E+06 -4.133402E+05 -2.305974E+05 -4.573517E+05  1.045585E+05  3.371336E+04
       313  10 -6.087196E+05 -5.102423E+04  2.975611E+04 -3.007069E+05 -3.369614E-10 -8.362953E-12
       313  11 -5.879990E+05 -1.112590E+04  1.344720E+04 -2.502808E+05  9.634822E-11 -4.413063E-12
       313  12 -5.970242E+05 -8.148818E+04 -4.751103E+04 -1.862712E+05 -1.636548E-10  1.360601E-10
       313  13 -8.891558E+05 -1.400755E+05 -3.413570E+04 -3.621025E+05 -4.573109E-10 -1.726269E-10
       313  14 -8.809567E+05 -1.377018E+05 -6.064310E+04 -3.487683E+05  3.875141E-10  2.456494E-11
       313  15 -9.043389E+05 -2.474374E+05 -1.390618E+05 -3.218490E+05 -6.334163E-10  4.479339E-11
       313  16 -1.169516E+06 -2.291267E+05 -9.803312E+04 -4.234756E+05  8.691882E-11 -2.089308E-10
       313  17 -1.173828E+06 -2.642626E+05 -1.347400E+05 -4.472102E+05  7.007295E-11  5.870425E-11
       313  18 -1.211552E+06 -4.133444E+05 -2.306202E+05 -4.573546E+05 -3.268501E-10 -1.121189E-11
       313  19 -6.087184E+05 -5.102390E+04  2.975832E+04 -3.007070E+05 -3.394391E+04  4.749591E+03
       313  20 -5.879955E+05 -1.112500E+04  1.345339E+04 -2.502806E+05 -5.717522E+04 -4.290391E+03
       313  21 -5.970177E+05 -8.148601E+04 -4.749895E+04 -1.862698E+05 -7.667957E+04 -2.326903E+04
       313  22 -8.891549E+05 -1.400752E+05 -3.413397E+04 -3.621027E+05 -2.962318E+04  6.369826E+03
       313  23 -8.809526E+05 -1.377007E+05 -6.063580E+04 -3.487680E+05 -6.198759E+04 -6.093378E+03
       313  24 -9.043299E+05 -2.474343E+05 -1.390448E+05 -3.218470E+05 -9.062291E+04 -2.849407E+04
       313  25 -1.169515E+06 -2.291264E+05 -9.803180E+04 -4.234758E+05 -2.530454E+04  7.989541E+03
       313  26 -1.173823E+06 -2.642613E+05 -1.347315E+05 -4.472098E+05 -6.679747E+04 -7.895088E+03
       313  27 -1.211539E+06 -4.133402E+05 -2.305974E+05 -4.573517E+05 -1.045585E+05 -3.371336E+04
       314   1 -1.283418E+05 -1.710609E+04  3.740886E+04  5.326198E+04  1.595373E+05  1.436665E+04
       314   2 -5.499130E+04 -2.298039E+05 -7.651605E+04 -5.952564E+03  1.157021E+05  4.476859E+04
       314   3  7.991386E+04 -2.207190E+05 -1.063708E+05 -1.039339E+05  7.188561E+04  4.699701E+04
       314   4  9.417047E+05  2.481238E+05  2.956578E+05 -6.923012E+04  2.036100E+05  1.437657E+04
       314   5  9.086622E+05  5.198303E+03  1.356430E+05 -4.975352E+04  1.319430E+05  4.476663E+04
       314   6  9.418742E+05 -1.132805E+04  7.890872E+04 -6.903432E+04  6.030621E+04  4.699170E+04
       314   7  2.012834E+06  5.133279E+05  5.538403E+05 -1.919342E+05  2.477583E+05  1.436912E+04
       314   8  1.873188E+06  2.401457E+05  3.477472E+05 -9.362338E+04  1.482088E+05  4.476237E+04
       314   9  1.804535E+06  1.980188E+05  2.641459E+05 -3.408565E+04  4.871092E+04  4.698510E+04
       314  10 -1.283692E+05 -1.711314E+04  3.736064E+04  5.326013E+04 -3.869208E-10  2.831516E-10
       314  11 -5.500621E+04 -2.298097E+05 -7.654497E+04 -5.956736E+03 -2.059845E-10 -3.097549E-10
       314  12  7.990772E+04 -2.207228E+05 -1.063846E+05 -1.039366E+05 -1.760141E-10  5.046206E-11
       314  13  9.416602E+05  2.481125E+05  2.955796E+05 -6.923248E+04  3.332219E-10  1.419362E-10
       314  14  9.086430E+05  5.191485E+03  1.356065E+05 -4.975827E+04 -2.897993E-10 -9.225946E-10
       314  15  9.418697E+05 -1.133139E+04  7.889774E+04 -6.903661E+04 -2.227281E-10 -9.685421E-11
       314  16  2.012769E+06  5.133112E+05  5.537249E+05 -1.919371E+05  2.365384E-10 -7.715296E-12
       314  17  1.873164E+06  2.401377E+05  3.477023E+05 -9.362872E+04  7.579710E-10 -2.191939E-11
       314  18  1.804532E+06  1.980158E+05  2.641373E+05 -3.408749E+04 -6.243930E-10 -5.499193E-10
       314  19 -1.283418E+05 -1.710609E+04  3.740886E+04  5.326198E+04 -1.595373E+05 -1.436665E+04
       314  20 -5.499130E+04 -2.298039E+05 -7.651605E+04 -5.952564E+03 -1.157021E+05 -4.476859E+04
       314  21  7.991386E+04 -2.207190E+05 -1.063708E+05 -1.039339E+05 -7.188561E+04 -4.699701E+04
       314  22  9.417047E+05  2.481238E+05  2.956578E+05 -6.923012E+04 -2.036100E+05 -1.437657E+04
       314  23  9.086622E+05  5.198303E+03  1.356430E+05 -4.975352E+04 -1.319430E+05 -4.476663E+04
       314  24  9.418742E+05 -1.132805E+04  7.890872E+04 -6.903432E+04 -6.030621E+04 -4.699170E+04
       314  25  2.012834E+06  5.133279E+05  5.538403E+05 -1.919342E+05 -2.477583E+05 -1.436912E+04
       314  26  1.873188E+06  2.401457E+05  3.477472E+05 -9.362338E+04 -1.482088E+05 -4.476237E+04
       314  27  1.804535E+06  1.980188E+05  2.641459E+05 -3.408565E+04 -4.871092E+04 -4.698510E+04
       315   1  1.478724E+05 -1.776220E+05 -1.061227E+05 -6.520735E+04  5.293418E+04  4.131341E+04
       315   2  2.480352E+05 -1.648634E+05 -1.117057E+05 -4.865557E+04  3.718704E+04  3.688829E+04
       315   3  3.533378E+05 -1.404067E+05 -1.040760E+05 -7.157479E+04  2.143374E+04  3.118746E+04
       315   4  9.283483E+05  1.209105E+04  6.241995E+04 -6.924098E+04  4.925175E+04  4.130833E+04
       315   5  9.257034E+05 -2.788830E+02  3.397082E+04 -4.950678E+04  3.222915E+04  3.688502E+04
       315   6  9.284028E+05 -7.372993E+02  1.960673E+04 -6.924043E+04  1.520296E+04  3.118652E+04
       315   7  1.709396E+06  2.017641E+05  2.309267E+05 -7.327975E+04  4.556473E+04  4.130330E+04
       315   8  1.603803E+06  1.642756E+05  1.796206E+05 -5.035893E+04  2.726592E+04  3.688177E+04
       315   9  1.503778E+06  1.389104E+05  1.432702E+05 -6.690384E+04  8.966493E+03  3.118554E+04
       315  10  1.478690E+05 -1.776246E+05 -1.061312E+05 -6.520911E+04 -8.079310E-10 -5.605065E-11
       315  11  2.480334E+05 -1.648653E+05 -1.117109E+05 -4.865667E+04 -5.233308E-10  2.312041E-10
       315  12  3.533370E+05 -1.404078E+05 -1.040786E+05 -7.157533E+04  6.009299E-10 -1.572372E-10
       315  13  9.283452E+05  1.208857E+04  6.241219E+04 -6.924262E+04  4.378077E-10 -1.221715E-10
       315  14  9.257019E+05 -2.806231E+02  3.396631E+04 -4.950774E+04 -3.191812E-11  8.476056E-11
       315  15  9.284023E+05 -7.384061E+02  1.960447E+04 -6.924081E+04 -3.964199E-10  6.211401E-11
       315  16  1.709393E+06  2.017617E+05  2.309196E+05 -7.328127E+04  1.404030E-09 -2.073251E-10
       315  17  1.603802E+06  1.642739E+05  1.796166E+05 -5.035973E+04 -5.003233E-10  3.643941E-11
       315  18  1.503778E+06  1.389094E+05  1.432682E+05 -6.690407E+04 -3.549991E-10  1.428321E-10
       315  19  1.478724E+05 -1.776220E+05 -1.061227E+05 -6.520735E+04 -5.293418E+04 -4.131341E+04
       315  20  2.480352E+05 -1.648634E+05 -1.117057E+05 -4.865557E+04 -3.718704E+04 -3.688829E+04
       315  21  3.533378E+05 -1.404067E+05 -1.040760E+05 -7.157479E+04 -2.143374E+04 -3.118746E+04
       315  22  9.283483E+05  1.209105E+04  6.241995E+04 -6.924098E+04 -4.925175E+04 -4.130833E+04
       315  23  9.257034E+05 -2.788830E+02  3.397082E+04 -4.950678E+04 -3.222915E+04 -3.688502E+04
       315  24  9.284028E+05 -7.372993E+02  1.960673E+04 -6.924043E+04 -1.520296E+04 -3.118652E+04
       315  25  1.709396E+06  2.017641E+05  2.309267E+05 -7.327975E+04 -4.556473E+04 -4.130330E+04
       315  26  1.603803E+06  1.642756E+05  1.796206E+05 -5.035893E+04 -2.726592E+04 -3.688177E+04
       315  27  1.503778E+06  1.389104E+05  1.432702E+05 -6.690384E+04 -8.966493E+03 -3.118554E+04
       316   1  4.325402E+05 -1.196515E+05 -9.095384E+04 -6.944650E+04  1.800615E+04  2.755774E+04
       316   2  5.342327E+05 -9.548160E+04 -7.572557E+04 -4.976180E+04  1.381105E+04  2.157775E+04
       316   3  6.366683E+05 -7.065015E+04 -5.759722E+04 -6.935299E+04  9.612403E+03  1.554838E+04
       316   4  9.273981E+05  4.396893E+02  1.501034E+04 -6.919765E+04  1.214804E+04  2.755773E+04
       316   5  9.270415E+05 -1.236472E+02  8.570585E+03 -4.956063E+04  7.900718E+03  2.157901E+04
       316   6  9.274246E+05 -1.684494E+01  5.064858E+03 -6.919799E+04  3.650519E+03  1.555095E+04
       316   7  1.422486E+06  1.205149E+05  1.209604E+05 -6.894857E+04  6.285333E+03  2.755772E+04
       316   8  1.319995E+06  9.522423E+04  9.285786E+04 -4.935930E+04  1.986702E+03  2.158026E+04
       316   9  1.218260E+06  7.061093E+04  6.772210E+04 -6.904291E+04 -2.314116E+03  1.555352E+04
       316  10  4.325397E+05 -1.196524E+05 -9.095588E+04 -6.944690E+04 -4.407945E-10 -3.382709E-10
       316  11  5.342324E+05 -9.548215E+04 -7.572680E+04 -4.976204E+04 -1.585377E-10  1.522115E-10
       316  12  6.366682E+05 -7.065043E+04 -5.759785E+04 -6.935311E+04 -5.962903E-12  3.830275E-10
       316  13  9.273977E+05  4.388339E+02  1.500864E+04 -6.919792E+04  4.712211E-10  7.119437E-12
       316  14  9.270413E+05 -1.241642E+02  8.569592E+03 -4.956076E+04  3.768233E-10  1.142101E-10
       316  15  9.274246E+05 -1.710832E+01  5.064378E+03 -6.919804E+04  2.133386E-10  1.431074E-10
       316  16  1.422486E+06  1.205141E+05  1.209589E+05 -6.894871E+04  2.745179E-10  2.336811E-10
       316  17  1.319995E+06  9.522373E+04  9.285698E+04 -4.935934E+04  4.627420E-11  4.634148E-10
       316  18  1.218260E+06  7.061066E+04  6.772163E+04 -6.904288E+04 -5.891243E-10  6.047767E-10
       316  19  4.325402E+05 -1.196515E+05 -9.095384E+04 -6.944650E+04 -1.800615E+04 -2.755774E+04
       316  20  5.342327E+05 -9.548160E+04 -7.572557E+04 -4.976180E+04 -1.381105E+04 -2.157775E+04
       316  21  6.366683E+05 -7.065015E+04 -5.759722E+04 -6.935299E+04 -9.612403E+03 -1.554838E+04
       316  22  9.273981E+05  4.396893E+02  1.501034E+04 -6.919765E+04 -1.214804E+04 -2.755773E+04
       316  23  9.270415E+05 -1.236472E+02  8.570585E+03 -4.956063E+04 -7.900718E+03 -2.157901E+04
       316  24  9.274246E+05 -1.684494E+01  5.064858E+03 -6.919799E+04 -3.650519E+03 -1.555095E+04
       316  25  1.422486E+06  1.205149E+05  1.209604E+05 -6.894857E+04 -6.285333E+03 -2.755772E+04
       316  26  1.319995E+06  9.522423E+04  9.285786E+04 -4.935930E+04 -1.986702E+03 -2.158026E+04
       316  27  1.218260E+06  7.061093E+04  6.772210E+04 -6.904291E+04  2.314116E+03 -1.555352E+04
       317   1  7.163539E+05 -5.111089E+04 -4.102578E+04 -6.923540E+04  8.773197E+03  1.202921E+04
       317   2  8.180455E+05 -2.649306E+04 -2.085988E+04 -4.963053E+04  7.503221E+03  5.998233E+03
       317   3  9.198887E+05 -1.799373E+03  1.399047E+02 -6.917912E+04  6.232259E+03 -3.267596E+01
       317   4  9.273007E+05  3.569316E+01  3.953176E+03 -6.917096E+04  2.833170E+03  1.203227E+04
       317   5  9.272334E+05  8.197646E+00  2.564981E+03 -4.959446E+04  1.562447E+03  6.001625E+03
       317   6  9.273078E+05  5.718877E+01  2.011138E+03 -6.917099E+04  2.909388E+02 -2.891187E+01
       317   7  1.138289E+06  5.117940E+04  4.892970E+04 -6.910650E+04 -3.108844E+03  1.203533E+04
       317   8  1.036433E+06  2.650869E+04  2.598928E+04 -4.955838E+04 -4.379357E+03  6.005016E+03
       317   9  9.347271E+05  1.913766E+03  3.882500E+03 -6.916287E+04 -5.650452E+03 -2.514796E+01
       317  10  7.163538E+05 -5.111107E+04 -4.102620E+04 -6.923548E+04  3.035744E-10  7.990566E-11
       317  11  8.180454E+05 -2.649311E+04 -2.086005E+04 -4.963057E+04 -1.102776E-09  3.576239E-10
       317  12  9.198886E+05 -1.799384E+03  1.398318E+02 -6.917912E+04 -1.110571E-09  6.366338E-10
       317  13  9.273006E+05  3.553547E+01  3.952888E+03 -6.917099E+04 -2.966910E-10  4.654474E-10
       317  14  9.272334E+05  8.158295E+00  2.564909E+03 -4.959447E+04  2.961030E-10 -7.777477E-10
       317  15  9.273078E+05  5.718875E+01  2.011138E+03 -6.917099E+04  4.706294E-11 -1.863650E-10
       317  16  1.138289E+06  5.117924E+04  4.892941E+04 -6.910647E+04 -3.899587E-10 -6.986070E-10
       317  17  1.036433E+06  2.650865E+04  2.598917E+04 -4.955836E+04 -3.361491E-10 -5.782445E-10
       317  18  9.347271E+05  1.913757E+03  3.882440E+03 -6.916287E+04  1.468242E-09 -5.970802E-10
       317  19  7.163539E+05 -5.111089E+04 -4.102578E+04 -6.923540E+04 -8.773197E+03 -1.202921E+04
       317  20  8.180455E+05 -2.649306E+04 -2.085988E+04 -4.963053E+04 -7.503221E+03 -5.998233E+03
       317  21  9.198887E+05 -1.799373E+03  1.399047E+02 -6.917912E+04 -6.232259E+03  3.267596E+01
       317  22  9.273007E+05  3.569316E+01  3.953176E+03 -6.917096E+04 -2.833170E+03 -1.203227E+04
       317  23  9.272334E+05  8.197646E+00  2.564981E+03 -4.959446E+04 -1.562447E+03 -6.001625E+03
       317  24  9.273078E+05  5.718877E+01  2.011138E+03 -6.917099E+04 -2.909388E+02  2.891187E+01
       317  25  1.138289E+06  5.117940E+04  4.892970E+04 -6.910650E+04  3.108844E+03 -1.203533E+04
       317  26  1.036433E+06  2.650869E+04  2.598928E+04 -4.955838E+04  4.379357E+03 -6.005016E+03
       317  27  9.347271E+05  1.913766E+03  3.882500E+03 -6.916287E+04  5.650452E+03  2.514796E+01
       318   1  9.996075E+05  1.765917E+04  1.776233E+04 -6.920775E+04  5.868945E+03 -3.542645E+03
       318   2  1.101361E+06  4.226145E+04  3.970938E+04 -4.959334E+04  4.701251E+03 -9.574196E+03
       318   3  1.203258E+06  6.693313E+04  6.242264E+04 -6.914802E+04  3.534641E+03 -1.560744E+04
       318   4  9.273052E+05  5.655665E+01  1.973410E+03 -6.917471E+04 -7.357993E+01 -3.538945E+03
       318   5  9.272322E+05  5.304149E+00  2.358641E+03 -4.958982E+04 -1.243081E+03 -9.571079E+03
       318   6  9.272942E+05  2.478810E+01  3.512194E+03 -6.917469E+04 -2.411312E+03 -1.560487E+04
       318   7  8.550079E+05 -1.754639E+04 -1.381569E+04 -6.914167E+04 -6.015422E+03 -3.535246E+03
       318   8  7.531314E+05 -4.225281E+04 -3.499373E+04 -4.958630E+04 -7.185772E+03 -9.567962E+03
       318   9  6.514016E+05 -6.688849E+04 -5.540252E+04 -6.920134E+04 -8.354664E+03 -1.560230E+04
       318  10  9.996074E+05  1.765915E+04  1.776224E+04 -6.920773E+04 -1.233936E-10  4.263121E-10
       318  11  1.101361E+06  4.226135E+04  3.970916E+04 -4.959330E+04  3.995108E-10 -1.328570E-10
       318  12  1.203258E+06  6.693286E+04  6.242216E+04 -6.914797E+04  6.419925E-10 -2.382662E-10
       318  13  9.273052E+05  5.654320E+01  1.973386E+03 -6.917471E+04 -1.104114E-09  1.085004E-09
       318  14  9.272322E+05  5.205322E+00  2.358466E+03 -4.958983E+04 -2.127125E-10  7.992353E-10
       318  15  9.272941E+05  2.452493E+01  3.511725E+03 -6.917472E+04  4.635856E-10 -9.563408E-10
       318  16  8.550079E+05 -1.754641E+04 -1.381578E+04 -6.914169E+04  2.560460E-10  4.078486E-10
       318  17  7.531313E+05 -4.225292E+04 -3.499400E+04 -4.958635E+04 -1.535413E-09  8.894500E-10
       318  18  6.514014E+05 -6.688877E+04 -5.540311E+04 -6.920144E+04 -7.979582E-10 -3.721944E-10
       318  19  9.996075E+05  1.765917E+04  1.776233E+04 -6.920775E+04 -5.868945E+03  3.542645E+03
       318  20  1.101361E+06  4.226145E+04  3.970938E+04 -4.959334E+04 -4.701251E+03  9.574196E+03
       318  21  1.203258E+06  6.693313E+04  6.242264E+04 -6.914802E+04 -3.534641E+03  1.560744E+04
       318  22  9.273052E+05  5.655665E+01  1.973410E+03 -6.917471E+04  7.357993E+01  3.538945E+03
       318  23  9.272322E+05  5.304149E+00  2.358641E+03 -4.958982E+04  1.243081E+03  9.571079E+03
       318  24  9.272942E+05  2.478810E+01  3.512194E+03 -6.917469E+04  2.411312E+03  1.560487E+04
       318  25  8.550079E+05 -1.754639E+04 -1.381569E+04 -6.914167E+04  6.015422E+03  3.535246E+03
       318  26  7.531314E+05 -4.225281E+04 -3.499373E+04 -4.958630E+04  7.185772E+03  9.567962E+03
       318  27  6.514016E+05 -6.688849E+04 -5.540252E+04 -6.920134E+04  8.354664E+03  1.560230E+04
       319   1  1.283284E+06  8.638524E+04  8.106784E+04 -6.909756E+04  2.836917E+03 -1.912871E+04
       319   2  1.385179E+06  1.110307E+05  1.057471E+05 -4.937798E+04 -9.273531E+02 -2.516117E+04
       319   3  1.487766E+06  1.362678E+05  1.330290E+05 -6.897122E+04 -4.688996E+03 -3.114247E+04
       319   4  9.274024E+05 -2.273823E+01  4.462681E+03 -6.920691E+04 -3.134222E+03 -1.912676E+04
       319   5  9.270511E+05 -1.267340E+02  7.485265E+03 -4.954949E+04 -6.846057E+03 -2.516075E+04
       319   6  9.273721E+05  3.524707E+02  1.307556E+04 -6.920666E+04 -1.055466E+04 -3.114351E+04
       319   7  5.716398E+05 -8.643901E+04 -7.214978E+04 -6.931619E+04 -9.101991E+03 -1.912480E+04
       319   8  4.691202E+05 -1.112979E+05 -9.078871E+04 -4.972085E+04 -1.276046E+04 -2.516032E+04
       319   9  3.672728E+05 -1.355833E+05 -1.068960E+05 -6.944185E+04 -1.641512E+04 -3.114455E+04
       319  10  1.283284E+06  8.638485E+04  8.106714E+04 -6.909752E+04 -1.377189E-11  2.558264E-10
       319  11  1.385179E+06  1.110301E+05  1.057459E+05 -4.937800E+04  2.437868E-10  8.681612E-12
       319  12  1.487766E+06  1.362668E+05  1.330271E+05 -6.897133E+04 -1.250440E-10  3.818956E-10
       319  13  9.274023E+05 -2.313389E+01  4.461975E+03 -6.920696E+04  3.942463E-10 -6.958488E-10
       319  14  9.270509E+05 -1.274266E+02  7.483987E+03 -4.954963E+04  2.163206E-09 -4.205393E-10
       319  15  9.273717E+05  3.513988E+02  1.307352E+04 -6.920692E+04  6.539902E-10  9.608152E-11
       319  16  5.716396E+05 -8.643943E+04 -7.215062E+04 -6.931633E+04  6.140150E-10 -2.952623E-10
       319  17  4.691198E+05 -1.112986E+05 -9.079020E+04 -4.972111E+04  2.286277E-10 -5.305191E-10
       319  18  3.672722E+05 -1.355845E+05 -1.068983E+05 -6.944226E+04  2.376411E-10 -2.782028E-10
       319  19  1.283284E+06  8.638524E+04  8.106784E+04 -6.909756E+04 -2.836917E+03  1.912871E+04
       319  20  1.385179E+06  1.110307E+05  1.057471E+05 -4.937798E+04  9.273531E+02  2.516117E+04
       319  21  1.487766E+06  1.362678E+05  1.330290E+05 -6.897122E+04  4.688996E+03  3.114247E+04
       319  22  9.274024E+05 -2.273823E+01  4.462681E+03 -6.920691E+04  3.134222E+03  1.912676E+04
       319  23  9.270511E+05 -1.267340E+02  7.485265E+03 -4.954949E+04  6.846057E+03  2.516075E+04
       319  24  9.273721E+05  3.524707E+02  1.307556E+04 -6.920666E+04  1.055466E+04  3.114351E+04
       319  25  5.716398E+05 -8.643901E+04 -7.214978E+04 -6.931619E+04  9.101991E+03  1.912480E+04
       319  26  4.691202E+05 -1.112979E+05 -9.078871E+04 -4.972085E+04  1.276046E+04  2.516032E+04
       319  27  3.672728E+05 -1.355833E+05 -1.068960E+05 -6.944185E+04  1.641512E+04  3.114455E+04
       320   1  1.569062E+06  1.548444E+05  1.547621E+05 -6.718943E+04 -6.951669E+03 -3.478193E+04
       320   2  1.669609E+06  1.801873E+05  1.892882E+05 -5.014207E+04 -2.311138E+04 -4.046794E+04
       320   3  1.775101E+06  2.161145E+05  2.370032E+05 -7.264136E+04 -3.926955E+04 -4.480309E+04
       320   4  9.282484E+05 -6.739349E+02  1.707106E+04 -6.925819E+04 -1.321452E+04 -3.478413E+04
       320   5  9.258651E+05 -2.878023E+02  2.955387E+04 -4.948460E+04 -2.802649E+04 -4.047243E+04
       320   6  9.281913E+05  1.045775E+04  5.430290E+04 -6.926013E+04 -4.283428E+04 -4.480922E+04
       320   7  2.878196E+05 -1.562192E+05 -1.206439E+05 -7.132477E+04 -1.947101E+04 -3.478629E+04
       320   8  1.826400E+05 -1.807991E+05 -1.302128E+05 -4.882793E+04 -3.293578E+04 -4.047693E+04
       320   9  8.195324E+04 -1.952461E+05 -1.284396E+05 -6.588360E+04 -4.639420E+04 -4.481541E+04
       320  10  1.569062E+06  1.548431E+05  1.547598E+05 -6.718963E+04  6.827673E-10  9.833679E-11
       320  11  1.669608E+06  1.801854E+05  1.892842E+05 -5.014282E+04 -6.621760E-10 -4.442665E-10
       320  12  1.775099E+06  2.161119E+05  2.369965E+05 -7.264277E+04 -1.301550E-09 -4.604577E-10
       320  13  9.282479E+05 -6.752816E+02  1.706845E+04 -6.925856E+04  5.402484E-10 -1.169237E-10
       320  14  9.258639E+05 -2.897725E+02  2.954931E+04 -4.948551E+04 -1.784280E-10 -2.527047E-10
       320  15  9.281888E+05  1.045511E+04  5.429568E+04 -6.926168E+04  1.635932E-10 -2.820809E-10
       320  16  2.878189E+05 -1.562206E+05 -1.206469E+05 -7.132531E+04 -1.209217E-10 -3.300193E-10
       320  17  1.826384E+05 -1.808012E+05 -1.302179E+05 -4.882901E+04 -5.689761E-10 -2.441177E-10
       320  18  8.195039E+04 -1.952488E+05 -1.284474E+05 -6.588527E+04  3.001527E-10  4.343266E-10
       320  19  1.569062E+06  1.548444E+05  1.547621E+05 -6.718943E+04  6.951669E+03  3.478193E+04
       320  20  1.669609E+06  1.801873E+05  1.892882E+05 -5.014207E+04  2.311138E+04  4.046794E+04
       320  21  1.775101E+06  2.161145E+05  2.370032E+05 -7.264136E+04  3.926955E+04  4.480309E+04
       320  22  9.282484E+05 -6.739349E+02  1.707106E+04 -6.925819E+04  1.321452E+04  3.478413E+04
       320  23  9.258651E+05 -2.878023E+02  2.955387E+04 -4.948460E+04  2.802649E+04  4.047243E+04
       320  24  9.281913E+05  1.045775E+04  5.430290E+04 -6.926013E+04  4.283428E+04  4.480922E+04
       320  25  2.878196E+05 -1.562192E+05 -1.206439E+05 -7.132477E+04  1.947101E+04  3.478629E+04
       320  26  1.826400E+05 -1.807991E+05 -1.302128E+05 -4.882793E+04  3.293578E+04  4.047693E+04
       320  27  8.195324E+04 -1.952461E+05 -1.284396E+05 -6.588360E+04  4.639420E+04  4.481541E+04
       321   1  1.868726E+06  2.154579E+05  2.680506E+05 -3.846158E+04 -4.049811E+04 -5.061927E+04
       321   2  1.941811E+06  2.555126E+05  3.446062E+05 -8.766972E+04 -1.323416E+05 -4.791916E+04
       321   3  2.077673E+06  4.974948E+05  5.314032E+05 -1.756878E+05 -2.242423E+05 -1.535668E+04
       321   4  9.399622E+05 -9.921977E+03  6.864665E+04 -6.903997E+04 -5.245015E+04 -5.062948E+04
       321   5  9.110096E+05  4.443876E+03  1.179832E+05 -4.974665E+04 -1.147622E+05 -4.791765E+04
       321   6  9.398022E+05  2.157845E+05  2.571872E+05 -6.925173E+04 -1.771121E+05 -1.534141E+04
       321   7  1.200919E+04 -2.353547E+05 -1.308066E+05 -9.957216E+04 -6.438454E+04 -5.063852E+04
       321   8 -1.187975E+05 -2.466903E+05 -1.087027E+05 -1.188730E+04 -9.721154E+04 -4.791401E+04
       321   9 -1.968586E+05 -6.597612E+04 -1.710665E+04  3.698885E+04 -1.300674E+05 -1.531004E+04
       321  10  1.868724E+06  2.154547E+05  2.680427E+05 -3.846322E+04  4.798879E-10 -2.169032E-10
       321  11  1.941792E+06  2.555055E+05  3.445690E+05 -8.767483E+04  1.436858E-09  1.504706E-10
       321  12  2.077619E+06  4.974811E+05  5.313085E+05 -1.756905E+05  3.298106E-10  5.993420E-10
       321  13  9.399586E+05 -9.925468E+03  6.863667E+04 -6.904211E+04 -2.874380E-10 -1.117510E-09
       321  14  9.109949E+05  4.437880E+03  1.179542E+05 -4.975108E+04 -1.352014E-09  9.092553E-12
       321  15  9.397685E+05  2.157759E+05  2.571279E+05 -6.925392E+04  8.932404E-10 -5.142366E-10
       321  16  1.200405E+04 -2.353586E+05 -1.308193E+05 -9.957478E+04 -1.180102E-09  1.041217E-10
       321  17 -1.188082E+05 -2.466953E+05 -1.087248E+05 -1.189106E+04 -1.258303E-09 -8.443309E-10
       321  18 -1.968768E+05 -6.598091E+04 -1.713889E+04  3.698725E+04 -8.746964E-10  8.885883E-10
       321  19  1.868726E+06  2.154579E+05  2.680506E+05 -3.846158E+04  4.049811E+04  5.061927E+04
       321  20  1.941811E+06  2.555126E+05  3.446062E+05 -8.766972E+04  1.323416E+05  4.791916E+04
       321  21  2.077673E+06  4.974948E+05  5.314032E+05 -1.756878E+05  2.242423E+05  1.535668E+04
       321  22  9.399622E+05 -9.921977E+03  6.864665E+04 -6.903997E+04  5.245015E+04  5.062948E+04
       321  23  9.110096E+05  4.443876E+03  1.179832E+05 -4.974665E+04  1.147622E+05  4.791765E+04
       321  24  9.398022E+05  2.157845E+05  2.571872E+05 -6.925173E+04  1.771121E+05  1.534141E+04
       321  25  1.200919E+04 -2.353547E+05 -1.308066E+05 -9.957216E+04  6.438454E+04  5.063852E+04
       321  26 -1.187975E+05 -2.466903E+05 -1.087027E+05 -1.188730E+04  9.721154E+04  4.791401E+04
       321  27 -1.968586E+05 -6.597612E+04 -1.710665E+04  3.698885E+04  1.300674E+05  1.531004E+04
       322   1  2.906901E+05  9.407634E+05  3.166079E+05 -2.387003E+05  5.042618E+03  1.353498E+05
       322   2  8.159874E+04  6.777842E+05  1.568825E+05 -1.446763E+05  1.250532E+04  7.395875E+04
       322   3  1.301958E+04  4.576736E+05  7.214866E+04 -1.426872E+05  3.357803E+03  1.256860E+04
       322   4  1.508607E+05  3.794183E+05  1.797065E+05 -1.631432E+05  5.082537E+03  1.198664E+05
       322   5  3.573654E+03  3.594458E+05  8.541735E+04 -1.172485E+05  1.250758E+04  7.486726E+04
       322   6 -5.999638E+03  3.794892E+05  5.479296E+04 -1.633716E+05  3.328010E+03  2.984492E+04
       322   7  1.102950E+04 -1.816272E+05  4.278622E+04 -8.765428E+04  5.118717E+03  1.043969E+05
       322   8 -7.445556E+04  4.120322E+04  1.394618E+04 -8.983481E+04  1.250992E+04  7.577530E+04
       322   9 -2.501749E+04  3.013121E+05  3.743823E+04 -1.840533E+05  3.297064E+03  4.711910E+04
       322  10  2.906852E+05  9.407438E+05  3.165734E+05 -2.387009E+05 -4.700758E-10  1.570795E-10
       322  11  8.159710E+04  6.777783E+05  1.568719E+05 -1.446771E+05 -1.885404E-10 -7.614409E-10
       322  12  1.301952E+04  4.576734E+05  7.214835E+04 -1.426873E+05  7.571823E-10 -2.965089E-11
       322  13  1.508568E+05  3.794029E+05  1.796795E+05 -1.631437E+05  9.993181E-10 -6.143284E-11
       322  14  3.571982E+03  3.594398E+05  8.540653E+04 -1.172493E+05 -1.609901E-10 -1.460528E-09
       322  15 -5.999888E+03  3.794883E+05  5.479127E+04 -1.633717E+05  4.269228E-10 -1.635120E-09
       322  16  1.102654E+04 -1.816390E+05  4.276568E+04 -8.765471E+04 -1.640960E-10  8.249602E-10
       322  17 -7.445727E+04  4.119701E+04  1.393510E+04 -8.983558E+04  1.166977E-09 -8.534035E-10
       322  18 -2.501810E+04  3.013098E+05  3.743404E+04 -1.840534E+05  5.565543E-11 -8.859845E-10
       322  19  2.906901E+05  9.407634E+05  3.166079E+05 -2.387003E+05 -5.042618E+03 -1.353498E+05
       322  20  8.159874E+04  6.777842E+05  1.568825E+05 -1.446763E+05 -1.250532E+04 -7.395875E+04
       322  21  1.301958E+04  4.576736E+05  7.214866E+04 -1.426872E+05 -3.357803E+03 -1.256860E+04
       322  22  1.508607E+05  3.794183E+05  1.797065E+05 -1.631432E+05 -5.082537E+03 -1.198664E+05
       322  23  3.573654E+03  3.594458E+05  8.541735E+04 -1.172485E+05 -1.250758E+04 -7.486726E+04
       322  24 -5.999638E+03  3.794892E+05  5.479296E+04 -1.633716E+05 -3.328010E+03 -2.984492E+04
       322  25  1.102950E+04 -1.816272E+05  4.278622E+04 -8.765428E+04 -5.118717E+03 -1.043969E+05
       322  26 -7.445556E+04  4.120322E+04  1.394618E+04 -8.983481E+04 -1.250992E+04 -7.577530E+04
       322  27 -2.501749E+04  3.013121E+05  3.743823E+04 -1.840533E+05 -3.297064E+03 -4.711910E+04
       323   1 -1.949124E+04  2.602230E+05  2.346317E+04 -1.671506E+05 -6.340391E+03  8.625928E+03
       323   2 -8.565331E+04  1.600210E+04 -3.836252E+04 -1.167767E+05 -1.916278E+04 -9.419595E+03
       323   3 -1.383409E+05 -2.227064E+05 -8.514445E+04 -1.592293E+05 -3.116603E+04 -2.745174E+04
       323   4  7.575913E+03  3.718343E+05  4.730115E+04 -1.634925E+05 -6.362439E+03  2.168309E+04
       323   5  1.244580E+02  3.690107E+05  3.758463E+04 -1.170826E+05 -1.918098E+04  2.823424E+03
       323   6  6.288511E+03  3.717836E+05  4.347626E+04 -1.634944E+05 -3.118056E+04 -1.602963E+04
       323   7  3.464239E+04  4.834577E+05  7.113906E+04 -1.598338E+05 -6.384331E+03  3.474256E+04
       323   8  8.589412E+04  7.221367E+05  1.135250E+05 -1.173886E+05 -1.919918E+04  1.507331E+04
       323   9  1.508947E+05  9.666057E+05  1.720765E+05 -1.677635E+05 -3.119525E+04 -4.596734E+03
       323  10 -1.949130E+04  2.602229E+05  2.346295E+04 -1.671505E+05  5.417115E-10 -2.463791E-10
       323  11 -8.565373E+04  1.600191E+04 -3.836337E+04 -1.167768E+05  2.378704E-10 -1.604600E-09
       323  12 -1.383422E+05 -2.227075E+05 -8.514769E+04 -1.592300E+05 -4.174614E-10 -7.603021E-10
       323  13  7.575743E+03  3.718338E+05  4.730019E+04 -1.634924E+05  6.655116E-10  2.783234E-11
       323  14  1.240608E+02  3.690106E+05  3.758393E+04 -1.170825E+05  5.945924E-10 -1.542511E-09
       323  15  6.287398E+03  3.717831E+05  4.347395E+04 -1.634948E+05  1.268146E-09 -1.485739E-09
       323  16  3.464202E+04  4.834564E+05  7.113672E+04 -1.598336E+05  3.111901E-10  1.445123E-09
       323  17  8.589367E+04  7.221363E+05  1.135239E+05 -1.173883E+05 -4.068690E-10 -4.784533E-11
       323  18  1.508937E+05  9.666054E+05  1.720746E+05 -1.677636E+05 -2.667990E-10  3.005093E-11
       323  19 -1.949124E+04  2.602230E+05  2.346317E+04 -1.671506E+05  6.340391E+03 -8.625928E+03
       323  20 -8.565331E+04  1.600210E+04 -3.836252E+04 -1.167767E+05  1.916278E+04  9.419595E+03
       323  21 -1.383409E+05 -2.227064E+05 -8.514445E+04 -1.592293E+05  3.116603E+04  2.745174E+04
       323  22  7.575913E+03  3.718343E+05  4.730115E+04 -1.634925E+05  6.362439E+03 -2.168309E+04
       323  23  1.244580E+02  3.690107E+05  3.758463E+04 -1.170826E+05  1.918098E+04 -2.823424E+03
       323  24  6.288511E+03  3.717836E+05  4.347626E+04 -1.634944E+05  3.118056E+04  1.602963E+04
       323  25  3.464239E+04  4.834577E+05  7.113906E+04 -1.598338E+05  6.384331E+03 -3.474256E+04
       323  26  8.589412E+04  7.221367E+05  1.135250E+05 -1.173886E+05  1.919918E+04 -1.507331E+04
       323  27  1.508947E+05  9.666057E+05  1.720765E+05 -1.677635E+05  3.119525E+04  4.596734E+03
       324   1 -1.959054E+05 -4.065161E+05 -1.200310E+05 -1.801665E+05 -4.214447E+04 -4.437762E+04
       324   2 -2.473486E+05 -6.629283E+05 -1.523786E+05 -9.353450E+04 -4.609982E+04 -4.924258E+04
       324   3 -1.865777E+05 -8.904157E+05 -1.534651E+05 -9.830724E+04 -1.541107E+04 -5.408279E+04
       324   4 -5.180075E+03  3.782027E+05  4.910338E+04 -1.632049E+05 -4.217010E+04 -2.347763E+04
       324   5  2.770909E+03  3.607567E+05  7.403713E+04 -1.174548E+05 -4.607921E+04 -6.245462E+04
       324   6  1.287513E+05  3.780338E+05  1.538704E+05 -1.630865E+05 -1.536922E+04 -1.014100E+05
       324   7  1.855061E+05  1.163502E+06  2.182034E+05 -1.462213E+05 -4.219457E+04 -2.551565E+03
       324   8  2.528220E+05  1.385422E+06  3.003891E+05 -1.414147E+05 -4.605761E+04 -7.568814E+04
       324   9  4.439791E+05  1.647968E+06  4.611007E+05 -2.279982E+05 -1.531754E+04 -1.488336E+05
       324  10 -1.959078E+05 -4.065187E+05 -1.200381E+05 -1.801681E+05  3.439860E-10  4.811308E-10
       324  11 -2.473515E+05 -6.629315E+05 -1.523871E+05 -9.353633E+04  4.920566E-10 -5.038799E-10
       324  12 -1.865788E+05 -8.904189E+05 -1.534710E+05 -9.830791E+04 -7.623069E-11 -3.950116E-10
       324  13 -5.182133E+03  3.782016E+05  4.909900E+04 -1.632057E+05 -9.236525E-10  8.125466E-11
       324  14  2.767581E+03  3.607519E+05  7.402582E+04 -1.174571E+05  8.339320E-10 -9.318295E-10
       324  15  1.287483E+05  3.780227E+05  1.538506E+05 -1.630878E+05  1.984792E-10 -5.064335E-10
       324  16  1.855042E+05  1.163501E+06  2.182000E+05 -1.462214E+05  3.975857E-10  4.079790E-10
       324  17  2.528182E+05  1.385416E+06  3.003743E+05 -1.414175E+05  2.829987E-10 -6.247365E-10
       324  18  4.439729E+05  1.647944E+06  4.610587E+05 -2.280001E+05 -3.360540E-10  1.273852E-10
       324  19 -1.959054E+05 -4.065161E+05 -1.200310E+05 -1.801665E+05  4.214447E+04  4.437762E+04
       324  20 -2.473486E+05 -6.629283E+05 -1.523786E+05 -9.353450E+04  4.609982E+04  4.924258E+04
       324  21 -1.865777E+05 -8.904157E+05 -1.534651E+05 -9.830724E+04  1.541107E+04  5.408279E+04
       324  22 -5.180075E+03  3.782027E+05  4.910338E+04 -1.632049E+05  4.217010E+04  2.347763E+04
       324  23  2.770909E+03  3.607567E+05  7.403713E+04 -1.174548E+05  4.607921E+04  6.245462E+04
       324  24  1.287513E+05  3.780338E+05  1.538704E+05 -1.630865E+05  1.536922E+04  1.014100E+05
       324  25  1.855061E+05  1.163502E+06  2.182034E+05 -1.462213E+05  4.219457E+04  2.551565E+03
       324  26  2.528220E+05  1.385422E+06  3.003891E+05 -1.414147E+05  4.605761E+04  7.568814E+04
       324  27  4.439791E+05  1.647968E+06  4.611007E+05 -2.279982E+05  1.531754E+04  1.488336E+05
       325   1 -2.570858E+06 -9.980997E+05 -5.594332E+05 -1.005367E+06 -2.710145E+05 -8.655662E+04
       325   2 -2.497328E+06 -6.651716E+05 -3.274904E+05 -9.741937E+05 -1.716773E+05 -1.490986E+04
       325   3 -2.496576E+06 -5.471172E+05 -2.322102E+05 -9.131092E+05 -6.296294E+04  3.188987E+04
       325   4 -1.788418E+06 -5.556884E+05 -3.265801E+05 -6.394805E+05 -2.150204E+05 -6.557621E+04
       325   5 -1.737171E+06 -3.240319E+05 -1.478167E+05 -7.022981E+05 -1.484624E+05 -6.207683E+03
       325   6 -1.752090E+06 -3.006182E+05 -7.956948E+04 -7.352414E+05 -7.254215E+04  2.828768E+04
       325   7 -1.005329E+06 -1.129688E+05 -9.377213E+04 -2.731026E+05 -1.589501E+05 -4.453335E+04
       325   8 -9.764171E+05  1.723621E+04  3.181954E+04 -4.300686E+05 -1.252168E+05  2.511775E+03
       325   9 -1.007028E+06 -5.409575E+04  7.304544E+04 -5.571855E+05 -8.213389E+04  2.468185E+04
       325  10 -2.570939E+06 -9.981276E+05 -5.595860E+05 -1.005386E+06 -4.202285E-08 -1.700909E-08
       325  11 -2.497360E+06 -6.651797E+05 -3.275465E+05 -9.741957E+05  4.676267E-10 -3.024754E-09
       325  12 -2.496581E+06 -5.471193E+05 -2.322196E+05 -9.131076E+05  4.751920E-08  1.617868E-08
       325  13 -1.788469E+06 -5.557055E+05 -3.266754E+05 -6.394919E+05 -5.180936E-10 -1.249292E-09
       325  14 -1.737195E+06 -3.240379E+05 -1.478583E+05 -7.022989E+05 -2.561918E-09 -2.875699E-09
       325  15 -1.752095E+06 -3.006205E+05 -7.958089E+04 -7.352397E+05 -1.587055E-09 -1.591500E-09
       325  16 -1.005356E+06 -1.129777E+05 -9.382342E+04 -2.731084E+05  3.996046E-08  1.474335E-08
       325  17 -9.764340E+05  1.723198E+04  3.179002E+04 -4.300684E+05 -6.279976E-09 -3.629641E-09
       325  18 -1.007035E+06 -5.409822E+04  7.303161E+04 -5.571838E+05 -4.861256E-08 -1.910440E-08
       325  19 -2.570858E+06 -9.980997E+05 -5.594332E+05 -1.005367E+06  2.710145E+05  8.655662E+04
       325  20 -2.497328E+06 -6.651716E+05 -3.274904E+05 -9.741937E+05  1.716773E+05  1.490986E+04
       325  21 -2.496576E+06 -5.471172E+05 -2.322102E+05 -9.131092E+05  6.296294E+04 -3.188987E+04
       325  22 -1.788418E+06 -5.556884E+05 -3.265801E+05 -6.394805E+05  2.150204E+05  6.557621E+04
       325  23 -1.737171E+06 -3.240319E+05 -1.478167E+05 -7.022981E+05  1.484624E+05  6.207683E+03
       325  24 -1.752090E+06 -3.006182E+05 -7.956948E+04 -7.352414E+05  7.254215E+04 -2.828768E+04
       325  25 -1.005329E+06 -1.129688E+05 -9.377213E+04 -2.731026E+05  1.589501E+05  4.453335E+04
       325  26 -9.764171E+05  1.723621E+04  3.181954E+04 -4.300686E+05  1.252168E+05 -2.511775E+03
       325  27 -1.007028E+06 -5.409575E+04  7.304544E+04 -5.571855E+05  8.213389E+04 -2.468185E+04
       326   1 -2.406116E+06 -5.595282E+05 -2.015671E+05 -9.133933E+05 -5.755307E+04  2.935130E+04
       326   2 -2.330186E+06 -5.088394E+05 -1.535599E+05 -8.809586E+05 -3.780874E+04  3.226853E+04
       326   3 -2.242476E+06 -4.843495E+05 -1.214976E+05 -8.668794E+05 -1.748182E+04  3.363378E+04
       326   4 -1.742070E+06 -3.122854E+05 -6.112045E+04 -7.263340E+05 -6.176952E+04  2.776244E+04
       326   5 -1.747429E+06 -2.943924E+05 -3.226200E+04 -7.190194E+05 -4.405904E+04  2.991808E+04
       326   6 -1.740603E+06 -3.022862E+05 -1.771894E+04 -7.300615E+05 -2.576889E+04  3.052136E+04
       326   7 -1.077572E+06 -6.500286E+04  7.930179E+04 -5.390884E+05 -6.599083E+04  2.617171E+04
       326   8 -1.164324E+06 -7.991715E+04  8.901726E+04 -5.569398E+05 -5.031564E+04  2.756524E+04
       326   9 -1.238476E+06 -1.202047E+05  8.604561E+04 -5.931427E+05 -3.406312E+04  2.740632E+04
       326  10 -2.406120E+06 -5.595300E+05 -2.015750E+05 -9.133919E+05  2.243555E-09  1.916359E-09
       326  11 -2.330188E+06 -5.088409E+05 -1.535646E+05 -8.809576E+05  8.316559E-10  3.165837E-09
       326  12 -2.242477E+06 -4.843508E+05 -1.215003E+05 -8.668790E+05  1.496518E-09  2.600856E-09
       326  13 -1.742075E+06 -3.122872E+05 -6.112908E+04 -7.263326E+05  3.372647E-10  3.083937E-10
       326  14 -1.747431E+06 -2.943938E+05 -3.226734E+04 -7.190183E+05 -1.479735E-10  1.980588E-09
       326  15 -1.740604E+06 -3.022874E+05 -1.772194E+04 -7.300608E+05 -4.608229E-10  1.704504E-09
       326  16 -1.077577E+06 -6.500476E+04  7.929231E+04 -5.390870E+05 -2.851525E-09 -8.711774E-10
       326  17 -1.164327E+06 -7.991865E+04  8.901108E+04 -5.569387E+05 -3.274613E-09  1.106994E-09
       326  18 -1.238477E+06 -1.202058E+05  8.604202E+04 -5.931419E+05 -3.316618E-09  9.538415E-10
       326  19 -2.406116E+06 -5.595282E+05 -2.015671E+05 -9.133933E+05  5.755307E+04 -2.935130E+04
       326  20 -2.330186E+06 -5.088394E+05 -1.535599E+05 -8.809586E+05  3.780874E+04 -3.226853E+04
       326  21 -2.242476E+06 -4.843495E+05 -1.214976E+05 -8.668794E+05  1.748182E+04 -3.363378E+04
       326  22 -1.742070E+06 -3.122854E+05 -6.112045E+04 -7.263340E+05  6.176952E+04 -2.776244E+04
       326  23 -1.747429E+06 -2.943924E+05 -3.226200E+04 -7.190194E+05  4.405904E+04 -2.991808E+04
       326  24 -1.740603E+06 -3.022862E+05 -1.771894E+04 -7.300615E+05  2.576889E+04 -3.052136E+04
       326  25 -1.077572E+06 -6.500286E+04  7.930179E+04 -5.390884E+05  6.599083E+04 -2.617171E+04
       326  26 -1.164324E+06 -7.991715E+04  8.901726E+04 -5.569398E+05  5.031564E+04 -2.756524E+04
       326  27 -1.238476E+06 -1.202047E+05  8.604561E+04 -5.931427E+05  3.406312E+04 -2.740632E+04
       327   1 -2.182675E+06 -4.644865E+05 -1.046476E+05 -8.515639E+05 -1.393608E+04  3.081209E+04
       327   2 -2.107258E+06 -4.247928E+05 -8.144355E+04 -8.184547E+05 -7.855445E+03  2.614984E+04
       327   3 -2.014909E+06 -4.030787E+05 -6.116419E+04 -8.054959E+05 -1.735793E+03  2.137867E+04
       327   4 -1.739849E+06 -3.027759E+05 -1.334679E+04 -7.296189E+05 -2.191392E+04  2.781694E+04
       327   5 -1.748294E+06 -2.936712E+05 -7.333192E+03 -7.195851E+05 -1.597496E+04  2.310311E+04
       327   6 -1.739787E+06 -3.025183E+05 -4.130748E+03 -7.297041E+05 -9.997558E+03  1.828022E+04
       327   7 -1.296818E+06 -1.410478E+05  7.794499E+04 -6.075925E+05 -2.989796E+04  2.481949E+04
       327   8 -1.389195E+06 -1.625385E+05  6.677111E+04 -6.206623E+05 -2.409957E+04  2.005449E+04
       327   9 -1.464587E+06 -2.019516E+05  5.289900E+04 -6.538812E+05 -1.826328E+04  1.518030E+04
       327  10 -2.182675E+06 -4.644876E+05 -1.046497E+05 -8.515636E+05  4.511693E-10  1.395862E-09
       327  11 -2.107258E+06 -4.247935E+05 -8.144495E+04 -8.184545E+05  1.025531E-10  4.248355E-10
       327  12 -2.014909E+06 -4.030792E+05 -6.116505E+04 -8.054959E+05  6.832986E-10  8.690909E-11
       327  13 -1.739850E+06 -3.027769E+05 -1.334914E+04 -7.296184E+05 -2.889874E-10  9.154930E-10
       327  14 -1.748294E+06 -2.936719E+05 -7.334673E+03 -7.195848E+05 -3.797988E-10  1.017165E-11
       327  15 -1.739787E+06 -3.025187E+05 -4.131563E+03 -7.297040E+05 -6.877872E-10 -5.871564E-10
       327  16 -1.296819E+06 -1.410487E+05  7.794215E+04 -6.075919E+05 -1.707482E-09  5.234936E-10
       327  17 -1.389196E+06 -1.625391E+05  6.676926E+04 -6.206619E+05 -9.607729E-10 -7.847882E-11
       327  18 -1.464587E+06 -2.019519E+05  5.289794E+04 -6.538810E+05 -3.783717E-10 -9.126310E-11
       327  19 -2.182675E+06 -4.644865E+05 -1.046476E+05 -8.515639E+05  1.393608E+04 -3.081209E+04
       327  20 -2.107258E+06 -4.247928E+05 -8.144355E+04 -8.184547E+05  7.855445E+03 -2.614984E+04
       327  21 -2.014909E+06 -4.030787E+05 -6.116419E+04 -8.054959E+05  1.735793E+03 -2.137867E+04
       327  22 -1.739849E+06 -3.027759E+05 -1.334679E+04 -7.296189E+05  2.191392E+04 -2.781694E+04
       327  23 -1.748294E+06 -2.936712E+05 -7.333192E+03 -7.195851E+05  1.597496E+04 -2.310311E+04
       327  24 -1.739787E+06 -3.025183E+05 -4.130748E+03 -7.297041E+05  9.997558E+03 -1.828022E+04
       327  25 -1.296818E+06 -1.410478E+05  7.794499E+04 -6.075925E+05  2.989796E+04 -2.481949E+04
       327  26 -1.389195E+06 -1.625385E+05  6.677111E+04 -6.206623E+05  2.409957E+04 -2.005449E+04
       327  27 -1.464587E+06 -2.019516E+05  5.289900E+04 -6.538812E+05  1.826328E+04 -1.518030E+04
       328   1 -1.956349E+06 -3.816881E+05 -4.764106E+04 -7.894342E+05  2.263071E+02  1.796373E+04
       328   2 -1.880852E+06 -3.421327E+05 -2.930301E+04 -7.560896E+05  3.565869E+03  1.208992E+04
       328   3 -1.787867E+06 -3.202284E+05 -1.171181E+04 -7.429662E+05  6.908705E+03  6.205047E+03
       328   4 -1.739675E+06 -3.025424E+05 -3.175072E+03 -7.296827E+05 -8.027621E+03  1.486890E+04
       328   5 -1.748414E+06 -2.937228E+05 -1.974104E+03 -7.195673E+05 -4.702785E+03  8.990182E+03
       328   6 -1.739669E+06 -3.025518E+05 -1.508222E+03 -7.296758E+05 -1.374810E+03  3.100337E+03
       328   7 -1.522954E+06 -2.233934E+05  4.128833E+04 -6.699124E+05 -1.628460E+04  1.177294E+04
       328   8 -1.615957E+06 -2.453114E+05  2.535418E+04 -6.830378E+05 -1.297334E+04  5.889731E+03
       328   9 -1.691467E+06 -2.848749E+05  8.695639E+03 -7.163843E+05 -9.659082E+03 -4.656899E+00
       328  10 -1.956349E+06 -3.816884E+05 -4.764167E+04 -7.894342E+05 -6.462174E-10  3.695007E-12
       328  11 -1.880852E+06 -3.421328E+05 -2.930331E+04 -7.560897E+05 -2.615900E-10  9.135679E-10
       328  12 -1.787867E+06 -3.202284E+05 -1.171198E+04 -7.429662E+05  9.324153E-10  8.623840E-11
       328  13 -1.739675E+06 -3.025426E+05 -3.175608E+03 -7.296826E+05 -5.536371E-10 -1.387441E-10
       328  14 -1.748414E+06 -2.937229E+05 -1.974297E+03 -7.195673E+05 -4.342921E-10  5.669189E-10
       328  15 -1.739669E+06 -3.025518E+05 -1.508243E+03 -7.296758E+05  3.656522E-11  8.236938E-11
       328  16 -1.522954E+06 -2.233936E+05  4.128757E+04 -6.699122E+05  4.353468E-10  4.712847E-10
       328  17 -1.615957E+06 -2.453115E+05  2.535380E+04 -6.830377E+05 -7.909721E-10  2.189580E-10
       328  18 -1.691467E+06 -2.848749E+05  8.695463E+03 -7.163843E+05 -8.047125E-10 -3.380599E-10
       328  19 -1.956349E+06 -3.816881E+05 -4.764106E+04 -7.894342E+05 -2.263071E+02 -1.796373E+04
       328  20 -1.880852E+06 -3.421327E+05 -2.930301E+04 -7.560896E+05 -3.565869E+03 -1.208992E+04
       328  21 -1.787867E+06 -3.202284E+05 -1.171181E+04 -7.429662E+05 -6.908705E+03 -6.205047E+03
       328  22 -1.739675E+06 -3.025424E+05 -3.175072E+03 -7.296827E+05  8.027621E+03 -1.486890E+04
       328  23 -1.748414E+06 -2.937228E+05 -1.974104E+03 -7.195673E+05  4.702785E+03 -8.990182E+03
       328  24 -1.739669E+06 -3.025518E+05 -1.508222E+03 -7.296758E+05  1.374810E+03 -3.100337E+03
       328  25 -1.522954E+06 -2.233934E+05  4.128833E+04 -6.699124E+05  1.628460E+04 -1.177294E+04
       328  26 -1.615957E+06 -2.453114E+05  2.535418E+04 -6.830378E+05  1.297334E+04 -5.889731E+03
       328  27 -1.691467E+06 -2.848749E+05  8.695639E+03 -7.163843E+05  9.659082E+03  4.656899E+00
       329   1 -1.729300E+06 -2.987190E+05  9.110988E+02 -7.268343E+05  8.525918E+03  2.652672E+03
       329   2 -1.653773E+06 -2.591424E+05  1.768726E+04 -6.934771E+05  1.177590E+04 -3.267626E+03
       329   3 -1.560742E+06 -2.372147E+05  3.378665E+04 -6.803458E+05  1.502317E+04 -9.178838E+03
       329   4 -1.739665E+06 -3.025526E+05 -1.484182E+03 -7.296765E+05  2.412365E+02 -4.524323E+02
       329   5 -1.748415E+06 -2.937218E+05 -1.838589E+03 -7.195654E+05  3.502421E+03 -6.368964E+03
       329   6 -1.739671E+06 -3.025429E+05 -2.878663E+03 -7.296831E+05  6.760745E+03 -1.227643E+04
       329   7 -1.750030E+06 -3.063861E+05 -3.879175E+03 -7.325186E+05 -8.043292E+03 -3.557480E+03
       329   8 -1.843048E+06 -3.283002E+05 -2.136450E+04 -7.456498E+05 -4.769665E+03 -9.469782E+03
       329   9 -1.918565E+06 -3.678678E+05 -3.954494E+04 -7.790068E+05 -1.499047E+03 -1.537304E+04
       329  10 -1.729300E+06 -2.987190E+05  9.109485E+02 -7.268344E+05  6.608323E-10 -4.735641E-10
       329  11 -1.653773E+06 -2.591424E+05  1.768698E+04 -6.934771E+05  5.262701E-11 -2.603256E-10
       329  12 -1.560743E+06 -2.372149E+05  3.378607E+04 -6.803457E+05 -1.885388E-09 -5.381334E-10
       329  13 -1.739665E+06 -3.025526E+05 -1.484183E+03 -7.296765E+05  2.494766E-10 -5.469930E-10
       329  14 -1.748415E+06 -2.937218E+05 -1.838688E+03 -7.195653E+05 -3.646957E-10 -5.250996E-10
       329  15 -1.739671E+06 -3.025431E+05 -2.879032E+03 -7.296830E+05 -2.433766E-10  3.746070E-10
       329  16 -1.750030E+06 -3.063862E+05 -3.879321E+03 -7.325187E+05  1.052162E-10 -4.799517E-10
       329  17 -1.843048E+06 -3.283003E+05 -2.136471E+04 -7.456498E+05  5.595831E-10 -4.965329E-10
       329  18 -1.918565E+06 -3.678680E+05 -3.954539E+04 -7.790068E+05  1.078079E-09  1.244067E-09
       329  19 -1.729300E+06 -2.987190E+05  9.110988E+02 -7.268343E+05 -8.525918E+03 -2.652672E+03
       329  20 -1.653773E+06 -2.591424E+05  1.768726E+04 -6.934771E+05 -1.177590E+04  3.267626E+03
       329  21 -1.560742E+06 -2.372147E+05  3.378665E+04 -6.803458E+05 -1.502317E+04  9.178838E+03
       329  22 -1.739665E+06 -3.025526E+05 -1.484182E+03 -7.296765E+05 -2.412365E+02  4.524323E+02
       329  23 -1.748415E+06 -2.937218E+05 -1.838589E+03 -7.195654E+05 -3.502421E+03  6.368964E+03
       329  24 -1.739671E+06 -3.025429E+05 -2.878663E+03 -7.296831E+05 -6.760745E+03  1.227643E+04
       329  25 -1.750030E+06 -3.063861E+05 -3.879175E+03 -7.325186E+05  8.043292E+03  3.557480E+03
       329  26 -1.843048E+06 -3.283002E+05 -2.136450E+04 -7.456498E+05  4.769665E+03  9.469782E+03
       329  27 -1.918565E+06 -3.678678E+05 -3.954494E+04 -7.790068E+05  1.499047E+03  1.537304E+04
       330   1 -1.502319E+06 -2.157531E+05  4.552046E+04 -6.642944E+05  1.694546E+04 -1.261049E+04
       330   2 -1.426877E+06 -1.763035E+05  5.976496E+04 -6.310430E+05  2.241048E+04 -1.763306E+04
       330   3 -1.334380E+06 -1.547470E+05  7.159805E+04 -6.179535E+05  2.783925E+04 -2.255156E+04
       330   4 -1.739769E+06 -3.025213E+05 -3.722264E+03 -7.297018E+05  8.673246E+03 -1.571232E+04
       330   5 -1.748306E+06 -2.936755E+05 -6.569605E+03 -7.195803E+05  1.427292E+04 -2.068588E+04
       330   6 -1.739824E+06 -3.027522E+05 -1.193686E+04 -7.296251E+05  1.983585E+04 -2.555548E+04
       330   7 -1.977163E+06 -3.892854E+05 -5.296821E+04 -7.950866E+05  4.043835E+02 -1.881290E+04
       330   8 -2.069631E+06 -4.110395E+05 -7.290966E+04 -8.080755E+05  6.139862E+03 -2.373702E+04
       330   9 -2.145099E+06 -4.507439E+05 -9.548010E+04 -8.412293E+05  1.183808E+04 -2.855731E+04
       330  10 -1.502320E+06 -2.157534E+05  4.551962E+04 -6.642942E+05  9.306714E-10  7.834503E-10
       330  11 -1.426878E+06 -1.763039E+05  5.976343E+04 -6.310427E+05 -2.797316E-10  2.104843E-10
       330  12 -1.334381E+06 -1.547478E+05  7.159564E+04 -6.179530E+05 -5.289541E-10 -1.814298E-10
       330  13 -1.739769E+06 -3.025215E+05 -3.722868E+03 -7.297017E+05 -1.025318E-09  3.226183E-10
       330  14 -1.748307E+06 -2.936760E+05 -6.570791E+03 -7.195800E+05 -1.049767E-09 -2.548693E-10
       330  15 -1.739824E+06 -3.027530E+05 -1.193882E+04 -7.296247E+05 -1.077315E-09 -4.888123E-10
       330  16 -1.977163E+06 -3.892858E+05 -5.296887E+04 -7.950866E+05 -1.115754E-09  7.488273E-10
       330  17 -2.069631E+06 -4.110401E+05 -7.291079E+04 -8.080754E+05 -7.067807E-10  5.444239E-11
       330  18 -2.145099E+06 -4.507448E+05 -9.548189E+04 -8.412291E+05 -2.318777E-10 -5.840701E-10
       330  19 -1.502319E+06 -2.157531E+05  4.552046E+04 -6.642944E+05 -1.694546E+04  1.261049E+04
       330  20 -1.426877E+06 -1.763035E+05  5.976496E+04 -6.310430E+05 -2.241048E+04  1.763306E+04
       330  21 -1.334380E+06 -1.547470E+05  7.159805E+04 -6.179535E+05 -2.783925E+04  2.255156E+04
       330  22 -1.739769E+06 -3.025213E+05 -3.722264E+03 -7.297018E+05 -8.673246E+03  1.571232E+04
       330  23 -1.748306E+06 -2.936755E+05 -6.569605E+03 -7.195803E+05 -1.427292E+04  2.068588E+04
       330  24 -1.739824E+06 -3.027522E+05 -1.193686E+04 -7.296251E+05 -1.983585E+04  2.555548E+04
       330  25 -1.977163E+06 -3.892854E+05 -5.296821E+04 -7.950866E+05 -4.043835E+02  1.881290E+04
       330  26 -2.069631E+06 -4.110395E+05 -7.290966E+04 -8.080755E+05 -6.139862E+03  2.373702E+04
       330  27 -2.145099E+06 -4.507439E+05 -9.548010E+04 -8.412293E+05 -1.183808E+04  2.855731E+04
       331   1 -1.275994E+06 -1.338246E+05  8.018176E+04 -6.033183E+05  3.173092E+04 -2.524584E+04
       331   2 -1.201682E+06 -9.359596E+04  8.471122E+04 -5.674087E+05  4.635477E+04 -2.606076E+04
       331   3 -1.114220E+06 -7.789823E+04  7.800331E+04 -5.500534E+05  6.042431E+04 -2.538631E+04
       331   4 -1.740504E+06 -3.023150E+05 -1.584292E+04 -7.300212E+05  2.342877E+04 -2.836294E+04
       331   5 -1.747533E+06 -2.943223E+05 -2.883472E+04 -7.190756E+05  4.000938E+04 -2.844595E+04
       331   6 -1.741814E+06 -3.112558E+05 -5.462584E+04 -7.266883E+05  5.603374E+04 -2.703962E+04
       331   7 -2.204788E+06 -4.707871E+05 -1.118777E+05 -8.566359E+05  1.513338E+04 -3.147757E+04
       331   8 -2.293078E+06 -4.950233E+05 -1.423964E+05 -8.706190E+05  3.367000E+04 -3.082887E+04
       331   9 -2.369008E+06 -5.445799E+05 -1.872781E+05 -9.031585E+05  5.164792E+04 -2.869110E+04
       331  10 -1.275995E+06 -1.338256E+05  8.017868E+04 -6.033177E+05 -4.415098E-10 -6.407032E-10
       331  11 -1.201684E+06 -9.359727E+04  8.470590E+04 -5.674077E+05  5.917604E-10 -8.386835E-10
       331  12 -1.114225E+06 -7.789990E+04  7.799523E+04 -5.500522E+05  1.256385E-09 -5.160411E-10
       331  13 -1.740505E+06 -3.023160E+05 -1.584546E+04 -7.300207E+05 -4.556395E-10 -5.603688E-10
       331  14 -1.747535E+06 -2.943236E+05 -2.883925E+04 -7.190747E+05 -3.180018E-10 -8.568510E-10
       331  15 -1.741817E+06 -3.112574E+05 -5.463312E+04 -7.266871E+05  6.618299E-10 -8.344329E-10
       331  16 -2.204789E+06 -4.707883E+05 -1.118800E+05 -8.566355E+05  8.992227E-10 -3.392619E-10
       331  17 -2.293080E+06 -4.950246E+05 -1.424003E+05 -8.706182E+05 -1.034112E-09 -5.690232E-10
       331  18 -2.369011E+06 -5.445815E+05 -1.872847E+05 -9.031573E+05 -1.761113E-10 -1.388098E-09
       331  19 -1.275994E+06 -1.338246E+05  8.018176E+04 -6.033183E+05 -3.173092E+04  2.524584E+04
       331  20 -1.201682E+06 -9.359596E+04  8.471122E+04 -5.674087E+05 -4.635477E+04  2.606076E+04
       331  21 -1.114220E+06 -7.789823E+04  7.800331E+04 -5.500534E+05 -6.042431E+04  2.538631E+04
       331  22 -1.740504E+06 -3.023150E+05 -1.584292E+04 -7.300212E+05 -2.342877E+04  2.836294E+04
       331  23 -1.747533E+06 -2.943223E+05 -2.883472E+04 -7.190756E+05 -4.000938E+04  2.844595E+04
       331  24 -1.741814E+06 -3.112558E+05 -5.462584E+04 -7.266883E+05 -5.603374E+04  2.703962E+04
       331  25 -2.204788E+06 -4.707871E+05 -1.118777E+05 -8.566359E+05 -1.513338E+04  3.147757E+04
       331  26 -2.293078E+06 -4.950233E+05 -1.423964E+05 -8.706190E+05 -3.367000E+04  3.082887E+04
       331  27 -2.369008E+06 -5.445799E+05 -1.872781E+05 -9.031585E+05 -5.164792E+04  2.869110E+04
       332   1 -1.044916E+06 -6.582066E+04  7.373942E+04 -5.644668E+05  7.536462E+04 -2.433792E+04
       332   2 -1.009666E+06  2.134998E+03  3.940158E+04 -4.474627E+05  1.116533E+05 -5.263364E+03
       332   3 -1.025398E+06 -1.114052E+05 -6.860997E+04 -3.058421E+05  1.389711E+05  3.768730E+04
       332   4 -1.750786E+06 -3.008108E+05 -7.111307E+04 -7.346250E+05  6.581854E+04 -2.792584E+04
       332   5 -1.738348E+06 -3.208408E+05 -1.321059E+05 -7.041629E+05  1.336374E+05  2.983066E+03
       332   6 -1.783254E+06 -5.287852E+05 -2.918735E+05 -6.490716E+05  1.924725E+05  5.776767E+04
       332   7 -2.456152E+06 -5.357824E+05 -2.159917E+05 -9.046148E+05  5.628413E+04 -3.151032E+04
       332   8 -2.466470E+06 -6.436988E+05 -3.036439E+05 -9.605582E+05  1.555932E+05  1.121404E+04
       332   9 -2.540470E+06 -9.458820E+05 -5.151680E+05 -9.918424E+05  2.459009E+05  7.779170E+04
       332  10 -1.044922E+06 -6.582282E+04  7.372762E+04 -5.644653E+05 -2.444087E-10 -2.717440E-11
       332  11 -1.009679E+06  2.131616E+03  3.937807E+04 -4.474622E+05  3.006716E-10  9.898985E-10
       332  12 -1.025419E+06 -1.114119E+05 -6.864900E+04 -3.058463E+05  6.949001E-10  5.842612E-10
       332  13 -1.750791E+06 -3.008128E+05 -7.112268E+04 -7.346235E+05  5.044910E-11 -1.364650E-11
       332  14 -1.738367E+06 -3.208456E+05 -1.321396E+05 -7.041632E+05  2.759244E-10  8.559375E-10
       332  15 -1.783295E+06 -5.287988E+05 -2.919496E+05 -6.490806E+05 -1.327038E-10  2.202384E-10
       332  16 -2.456155E+06 -5.357844E+05 -2.159995E+05 -9.046134E+05  1.488637E-09 -8.741789E-10
       332  17 -2.466496E+06 -6.437055E+05 -3.036898E+05 -9.605596E+05 -2.836335E-10 -2.449660E-10
       332  18 -2.540537E+06 -9.459048E+05 -5.152936E+05 -9.918578E+05 -2.332281E-09  9.674484E-11
       332  19 -1.044916E+06 -6.582066E+04  7.373942E+04 -5.644668E+05 -7.536462E+04  2.433792E+04
       332  20 -1.009666E+06  2.134998E+03  3.940158E+04 -4.474627E+05 -1.116533E+05  5.263364E+03
       332  21 -1.025398E+06 -1.114052E+05 -6.860997E+04 -3.058421E+05 -1.389711E+05 -3.768730E+04
       332  22 -1.750786E+06 -3.008108E+05 -7.111307E+04 -7.346250E+05 -6.581854E+04  2.792584E+04
       332  23 -1.738348E+06 -3.208408E+05 -1.321059E+05 -7.041629E+05 -1.336374E+05 -2.983066E+03
       332  24 -1.783254E+06 -5.287852E+05 -2.918735E+05 -6.490716E+05 -1.924725E+05 -5.776767E+04
       332  25 -2.456152E+06 -5.357824E+05 -2.159917E+05 -9.046148E+05 -5.628413E+04  3.151032E+04
       332  26 -2.466470E+06 -6.436988E+05 -3.036439E+05 -9.605582E+05 -1.555932E+05 -1.121404E+04
       332  27 -2.540470E+06 -9.458820E+05 -5.151680E+05 -9.918424E+05 -2.459009E+05 -7.779170E+04
       333   1 -1.798955E+05 -4.735941E+04 -6.480787E+03  2.612688E+04  1.113840E+05  1.233728E+04
       333   2 -1.067073E+05 -1.979037E+05 -8.271210E+04 -1.361722E+04  8.294258E+04  3.836896E+04
       333   3  1.097929E+04 -1.865931E+05 -9.990117E+04 -8.896288E+04  5.452550E+04  3.998849E+04
       333   4  7.444114E+05  1.817874E+05  2.166641E+05 -6.337322E+04  1.491964E+05  1.236571E+04
       333   5  7.201696E+05  3.766073E+03  9.939508E+04 -4.547946E+04  9.666973E+04  3.837423E+04
       333   6  7.445221E+05 -8.352231E+03  5.782110E+04 -6.317887E+04  4.417387E+04  3.997994E+04
       333   7  1.669520E+06  4.109030E+05  4.397576E+05 -1.530072E+05  1.870649E+05  1.238323E+04
       333   8  1.547688E+06  2.053940E+05  2.814616E+05 -7.738476E+04  1.104149E+05  3.837810E+04
       333   9  1.478572E+06  1.698559E+05  2.155126E+05 -3.736403E+04  3.381015E+04  3.997053E+04
       333  10 -1.799089E+05 -4.736291E+04 -6.504393E+03  2.612577E+04  2.014548E-09 -1.323652E-09
       333  11 -1.067151E+05 -1.979071E+05 -8.272779E+04 -1.361979E+04 -1.424204E-09  1.704689E-10
       333  12  1.097567E+04 -1.865956E+05 -9.990977E+04 -8.896463E+04 -3.509878E-09 -3.927950E-10
       333  13  7.443875E+05  1.817813E+05  2.166221E+05 -6.337471E+04  1.492513E-09  8.286734E-10
       333  14  7.201591E+05  3.761986E+03  9.937477E+04 -4.548244E+04 -1.385544E-09 -1.086641E-10
       333  15  7.445196E+05 -8.354471E+03  5.781443E+04 -6.318029E+04 -4.564202E-10 -4.669111E-10
       333  16  1.669482E+06  4.108934E+05  4.396918E+05 -1.530091E+05 -1.549940E-09  7.953676E-10
       333  17  1.547674E+06  2.053891E+05  2.814360E+05 -7.738817E+04  9.356720E-10  3.427653E-10
       333  18  1.478570E+06  1.698538E+05  2.155075E+05 -3.736512E+04  3.424838E-09  1.978004E-09
       333  19 -1.798955E+05 -4.735941E+04 -6.480787E+03  2.612688E+04 -1.113840E+05 -1.233728E+04
       333  20 -1.067073E+05 -1.979037E+05 -8.271210E+04 -1.361722E+04 -8.294258E+04 -3.836896E+04
       333  21  1.097929E+04 -1.865931E+05 -9.990117E+04 -8.896288E+04 -5.452550E+04 -3.998849E+04
       333  22  7.444114E+05  1.817874E+05  2.166641E+05 -6.337322E+04 -1.491964E+05 -1.236571E+04
       333  23  7.201696E+05  3.766073E+03  9.939508E+04 -4.547946E+04 -9.666973E+04 -3.837423E+04
       333  24  7.445221E+05 -8.352231E+03  5.782110E+04 -6.317887E+04 -4.417387E+04 -3.997994E+04
       333  25  1.669520E+06  4.109030E+05  4.397576E+05 -1.530072E+05 -1.870649E+05 -1.238323E+04
       333  26  1.547688E+06  2.053940E+05  2.814616E+05 -7.738476E+04 -1.104149E+05 -3.837810E+04
       333  27  1.478572E+06  1.698559E+05  2.155126E+05 -3.736403E+04 -3.381015E+04 -3.997053E+04
       334   1  7.583979E+04 -1.513385E+05 -9.655317E+04 -6.061232E+04  3.959096E+04  3.487582E+04
       334   2  1.683783E+05 -1.373037E+05 -9.644344E+04 -4.477666E+04  2.822732E+04  3.071874E+04
       334   3  2.646787E+05 -1.147543E+05 -8.677266E+04 -6.522952E+04  1.685936E+04  2.545242E+04
       334   4  7.346104E+05  8.813887E+03  4.573681E+04 -6.338315E+04  3.607764E+04  3.487086E+04
       334   5  7.326601E+05 -2.358715E+02  2.488526E+04 -4.523813E+04  2.360998E+04  3.071472E+04
       334   6  7.346498E+05 -5.843841E+02  1.435283E+04 -6.337923E+04  1.113970E+04  2.544974E+04
       334   7  1.393788E+06  1.689377E+05  1.880012E+05 -6.615700E+04  3.256063E+04  3.486593E+04
       334   8  1.297241E+06  1.368111E+05  1.461954E+05 -4.570005E+04  1.898850E+04  3.071069E+04
       334   9  1.204828E+06  1.135711E+05  1.154655E+05 -6.152754E+04  5.415763E+03  2.544703E+04
       334  10  7.583778E+04 -1.513402E+05 -9.655840E+04 -6.061343E+04  6.742268E-10 -2.327744E-10
       334  11  1.683772E+05 -1.373050E+05 -9.644671E+04 -4.477736E+04 -2.530005E-10 -1.385997E-10
       334  12  2.646782E+05 -1.147551E+05 -8.677441E+04 -6.522986E+04 -1.253368E-09 -4.543833E-10
       334  13  7.346087E+05  8.812232E+03  4.573208E+04 -6.338416E+04  1.111345E-10  1.314070E-09
       334  14  7.326593E+05 -2.370344E+02  2.488244E+04 -4.523872E+04  2.562868E-10  2.035965E-10
       334  15  7.346495E+05 -5.851132E+02  1.435138E+04 -6.337946E+04 -1.010653E-09 -8.539943E-10
       334  16  1.393787E+06  1.689361E+05  1.879969E+05 -6.615792E+04 -1.607554E-09  1.045282E-09
       334  17  1.297240E+06  1.368100E+05  1.461929E+05 -4.570052E+04  6.304462E-11 -4.357127E-10
       334  18  1.204828E+06  1.135704E+05  1.154642E+05 -6.152765E+04  1.188004E-09 -4.820416E-10
       334  19  7.583979E+04 -1.513385E+05 -9.655317E+04 -6.061232E+04 -3.959096E+04 -3.487582E+04
       334  20  1.683783E+05 -1.373037E+05 -9.644344E+04 -4.477666E+04 -2.822732E+04 -3.071874E+04
       334  21  2.646787E+05 -1.147543E+05 -8.677266E+04 -6.522952E+04 -1.685936E+04 -2.545242E+04
       334  22  7.346104E+05  8.813887E+03  4.573681E+04 -6.338315E+04 -3.607764E+04 -3.487086E+04
       334  23  7.326601E+05 -2.358715E+02  2.488526E+04 -4.523813E+04 -2.360998E+04 -3.071472E+04
       334  24  7.346498E+05 -5.843841E+02  1.435283E+04 -6.337923E+04 -1.113970E+04 -2.544974E+04
       334  25  1.393788E+06  1.689377E+05  1.880012E+05 -6.615700E+04 -3.256063E+04 -3.486593E+04
       334  26  1.297241E+06  1.368111E+05  1.461954E+05 -4.570005E+04 -1.898850E+04 -3.071069E+04
       334  27  1.204828E+06  1.135711E+05  1.154655E+05 -6.152754E+04 -5.415763E+03 -2.544703E+04
       335   1  3.377460E+05 -9.587217E+04 -7.383582E+04 -6.365769E+04  1.430518E+04  2.211675E+04
       335   2  4.314574E+05 -7.349053E+04 -5.861209E+04 -4.551910E+04  1.125794E+04  1.660517E+04
       335   3  5.257296E+05 -5.065603E+04 -4.128236E+04 -6.354720E+04  8.208312E+03  1.104810E+04
       335   4  7.339128E+05  2.784576E+02  1.098018E+04 -6.335362E+04  8.905841E+03  2.211490E+04
       335   5  7.336414E+05 -1.202194E+02  6.248018E+03 -4.527085E+04  5.811642E+03  1.660420E+04
       335   6  7.339313E+05 -5.742532E+01  3.653747E+03 -6.335370E+04  2.715511E+03  1.104804E+04
       335   7  1.130227E+06  9.641885E+04  9.578718E+04 -6.304936E+04  3.503102E+03  2.211304E+04
       335   8  1.035911E+06  7.324413E+04  7.110291E+04 -4.502248E+04  3.627329E+02  1.660321E+04
       335   9  9.421738E+05  5.053834E+04  4.858741E+04 -6.316014E+04 -2.779105E+03  1.104797E+04
       335  10  3.377456E+05 -9.587275E+04 -7.383713E+04 -6.365795E+04 -3.084846E-10 -4.535818E-10
       335  11  4.314572E+05 -7.349086E+04 -5.861285E+04 -4.551925E+04 -9.473629E-10 -1.734137E-10
       335  12  5.257295E+05 -5.065618E+04 -4.128271E+04 -6.354727E+04  2.440789E-10  3.121758E-10
       335  13  7.339126E+05  2.779110E+02  1.097912E+04 -6.335378E+04  3.638620E-10 -2.695030E-10
       335  14  7.336413E+05 -1.205247E+02  6.247436E+03 -4.527093E+04  7.630102E-10 -1.586127E-10
       335  15  7.339313E+05 -5.755842E+01  3.653504E+03 -6.335373E+04 -8.932067E-10  2.716927E-10
       335  16  1.130227E+06  9.641832E+04  9.578624E+04 -6.304942E+04 -1.898492E-10 -2.317416E-10
       335  17  1.035911E+06  7.324383E+04  7.110239E+04 -4.502248E+04 -7.111611E-10 -1.388739E-10
       335  18  9.421737E+05  5.053821E+04  4.858716E+04 -6.316012E+04 -7.796863E-10  4.962951E-11
       335  19  3.377460E+05 -9.587217E+04 -7.383582E+04 -6.365769E+04 -1.430518E+04 -2.211675E+04
       335  20  4.314574E+05 -7.349053E+04 -5.861209E+04 -4.551910E+04 -1.125794E+04 -1.660517E+04
       335  21  5.257296E+05 -5.065603E+04 -4.128236E+04 -6.354720E+04 -8.208312E+03 -1.104810E+04
       335  22  7.339128E+05  2.784576E+02  1.098018E+04 -6.335362E+04 -8.905841E+03 -2.211490E+04
       335  23  7.336414E+05 -1.202194E+02  6.248018E+03 -4.527085E+04 -5.811642E+03 -1.660420E+04
       335  24  7.339313E+05 -5.742532E+01  3.653747E+03 -6.335370E+04 -2.715511E+03 -1.104804E+04
       335  25  1.130227E+06  9.641885E+04  9.578718E+04 -6.304936E+04 -3.503102E+03 -2.211304E+04
       335  26  1.035911E+06  7.324413E+04  7.110291E+04 -4.502248E+04 -3.627329E+02 -1.660321E+04
       335  27  9.421738E+05  5.053834E+04  4.858741E+04 -6.316014E+04  2.779105E+03 -1.104797E+04
       336   1  5.992007E+05 -3.265424E+04 -2.581350E+04 -6.344898E+04  7.605588E+03  7.804397E+03
       336   2  6.929704E+05 -9.933616E+03 -7.009338E+03 -4.535257E+04  6.743898E+03  2.242960E+03
       336   3  7.868723E+05  1.281130E+04  1.236178E+04 -6.336139E+04  5.881799E+03 -3.319977E+03
       336   4  7.338395E+05 -1.952818E+01  2.821060E+03 -6.334027E+04  2.129889E+03  7.804649E+03
       336   5  7.337795E+05 -2.694450E+01  1.747513E+03 -4.528773E+04  1.266132E+03  2.243318E+03
       336   6  7.338421E+05 -9.620718E+00  1.242016E+03 -6.334030E+04  4.020916E+02 -3.319482E+03
       336   7  8.684954E+05  3.261402E+04  3.145470E+04 -6.323153E+04 -3.346979E+03  7.804900E+03
       336   8  7.745901E+05  9.879635E+03  1.050438E+04 -4.522289E+04 -4.211990E+03  2.243675E+03
       336   9  6.808146E+05 -1.283071E+04 -9.877788E+03 -6.331920E+04 -5.077156E+03 -3.318987E+03
       336  10  5.992006E+05 -3.265432E+04 -2.581373E+04 -6.344903E+04  5.860139E-10  4.636988E-10
       336  11  6.929704E+05 -9.933634E+03 -7.009433E+03 -4.535258E+04 -2.906182E-10  2.019528E-10
       336  12  7.868723E+05  1.281128E+04  1.236169E+04 -6.336138E+04 -2.440811E-10  2.602996E-10
       336  13  7.338395E+05 -1.959483E+01  2.820937E+03 -6.334028E+04  3.970646E-11  3.305232E-10
       336  14  7.337795E+05 -2.695033E+01  1.747500E+03 -4.528773E+04  1.287632E-10  1.629769E-10
       336  15  7.338421E+05 -9.632598E+00  1.241994E+03 -6.334029E+04 -9.103364E-10  1.837484E-10
       336  16  8.684953E+05  3.261396E+04  3.145456E+04 -6.323151E+04  2.206840E-10  2.386279E-10
       336  17  7.745901E+05  9.879624E+03  1.050434E+04 -4.522288E+04 -4.963110E-10  4.035571E-11
       336  18  6.808145E+05 -1.283072E+04 -9.877857E+03 -6.331921E+04 -9.622790E-11  2.426856E-10
       336  19  5.992007E+05 -3.265424E+04 -2.581350E+04 -6.344898E+04 -7.605588E+03 -7.804397E+03
       336  20  6.929704E+05 -9.933616E+03 -7.009338E+03 -4.535257E+04 -6.743898E+03 -2.242960E+03
       336  21  7.868723E+05  1.281130E+04  1.236178E+04 -6.336139E+04 -5.881799E+03  3.319977E+03
       336  22  7.338395E+05 -1.952818E+01  2.821060E+03 -6.334027E+04 -2.129889E+03 -7.804649E+03
       336  23  7.337795E+05 -2.694450E+01  1.747513E+03 -4.528773E+04 -1.266132E+03 -2.243318E+03
       336  24  7.338421E+05 -9.620718E+00  1.242016E+03 -6.334030E+04 -4.020916E+02  3.319482E+03
       336  25  8.684954E+05  3.261402E+04  3.145470E+04 -6.323153E+04  3.346979E+03 -7.804900E+03
       336  26  7.745901E+05  9.879635E+03  1.050438E+04 -4.522289E+04  4.211990E+03 -2.243675E+03
       336  27  6.808146E+05 -1.283071E+04 -9.877788E+03 -6.331920E+04  5.077156E+03  3.318987E+03
       337   1  8.604116E+05  3.076426E+04  2.855562E+04 -6.336607E+04  5.666875E+03 -6.558262E+03
       337   2  9.542968E+05  5.349009E+04  4.850564E+04 -4.524914E+04  5.077874E+03 -1.212385E+04
       337   3  1.048294E+06  7.622450E+04  6.884506E+04 -6.327089E+04  4.490253E+03 -1.769121E+04
       337   4  7.338350E+05 -1.125544E+01  1.140957E+03 -6.334793E+04  1.850719E+02 -6.557932E+03
       337   5  7.337768E+05 -3.387958E+01  1.195140E+03 -4.527819E+04 -4.058898E+02 -1.212420E+04
       337   6  7.338225E+05 -4.707429E+01  1.640395E+03 -6.334792E+04 -9.953852E+02 -1.769220E+04
       337   7  6.072735E+05 -3.078781E+04 -2.627455E+04 -6.332980E+04 -5.295630E+03 -6.557603E+03
       337   8  5.133026E+05 -5.356102E+04 -4.611808E+04 -4.530723E+04 -5.887736E+03 -1.212454E+04
       337   9  4.194441E+05 -7.632508E+04 -6.556988E+04 -6.342491E+04 -6.478288E+03 -1.769319E+04
       337  10  8.604116E+05  3.076421E+04  2.855548E+04 -6.336604E+04  2.525769E-11  2.012489E-10
       337  11  9.542968E+05  5.348993E+04  4.850532E+04 -4.524909E+04  3.896555E-10  2.600973E-10
       337  12  1.048294E+06  7.622416E+04  6.884443E+04 -6.327083E+04 -3.197982E-10 -1.209081E-10
       337  13  7.338350E+05 -1.130165E+01  1.140876E+03 -6.334793E+04  5.649324E-10  2.633925E-10
       337  14  7.337768E+05 -3.403753E+01  1.194864E+03 -4.527820E+04  7.720352E-10  3.465736E-10
       337  15  7.338224E+05 -4.741080E+01  1.639805E+03 -6.334794E+04 -2.366222E-10  7.802052E-11
       337  16  6.072734E+05 -3.078787E+04 -2.627468E+04 -6.332983E+04 -2.590713E-10  1.366622E-10
       337  17  5.133025E+05 -5.356119E+04 -4.611843E+04 -4.530729E+04  4.645432E-11  3.100726E-11
       337  18  4.194440E+05 -7.632543E+04 -6.557055E+04 -6.342500E+04  1.675346E-10  1.583924E-10
       337  19  8.604116E+05  3.076426E+04  2.855562E+04 -6.336607E+04 -5.666875E+03  6.558262E+03
       337  20  9.542968E+05  5.349009E+04  4.850564E+04 -4.524914E+04 -5.077874E+03  1.212385E+04
       337  21  1.048294E+06  7.622450E+04  6.884506E+04 -6.327089E+04 -4.490253E+03  1.769121E+04
       337  22  7.338350E+05 -1.125544E+01  1.140957E+03 -6.334793E+04 -1.850719E+02  6.557932E+03
       337  23  7.337768E+05 -3.387958E+01  1.195140E+03 -4.527819E+04  4.058898E+02  1.212420E+04
       337  24  7.338225E+05 -4.707429E+01  1.640395E+03 -6.334792E+04  9.953852E+02  1.769220E+04
       337  25  6.072735E+05 -3.078781E+04 -2.627455E+04 -6.332980E+04  5.295630E+03  6.557603E+03
       337  26  5.133026E+05 -5.356102E+04 -4.611808E+04 -4.530723E+04  5.887736E+03  1.212454E+04
       337  27  4.194441E+05 -7.632508E+04 -6.556988E+04 -6.342491E+04  6.478288E+03  1.769319E+04
       338   1  1.122082E+06  9.419548E+04  8.557564E+04 -6.323819E+04  4.181520E+03 -2.094090E+04
       338   2  1.216190E+06  1.169739E+05  1.068565E+05 -4.500574E+04  2.474937E+03 -2.650698E+04
       338   3  1.310692E+06  1.399891E+05  1.293284E+05 -6.304619E+04  7.713048E+02 -3.202157E+04
       338   4  7.338720E+05 -7.140473E+01  2.041316E+03 -6.337794E+04 -1.328023E+03 -2.094254E+04
       338   5  7.336690E+05 -1.260209E+02  3.342049E+03 -4.524061E+04 -2.983034E+03 -2.651008E+04
       338   6  7.338440E+05  4.829662E+01  5.799402E+03 -6.337793E+04 -4.634842E+03 -3.202607E+04
       338   7  3.458036E+05 -9.434816E+04 -8.150173E+04 -6.351759E+04 -6.834174E+03 -2.094419E+04
       338   8  2.513663E+05 -1.172412E+05 -1.001859E+05 -4.547532E+04 -8.436829E+03 -2.651317E+04
       338   9  1.573081E+05 -1.399142E+05 -1.177488E+05 -6.370937E+04 -1.003604E+04 -3.203056E+04
       338  10  1.122082E+06  9.419500E+04  8.557478E+04 -6.323812E+04  1.272200E-10  3.303055E-10
       338  11  1.216190E+06  1.169731E+05  1.068552E+05 -4.500568E+04 -1.163688E-09 -3.665616E-10
       338  12  1.310692E+06  1.399880E+05  1.293265E+05 -6.304617E+04  1.019783E-09  5.976115E-11
       338  13  7.338719E+05 -7.187634E+01  2.040488E+03 -6.337796E+04  1.003022E-10  3.183166E-10
       338  14  7.336688E+05 -1.267782E+02  3.340711E+03 -4.524068E+04  1.622200E-10  1.293546E-10
       338  15  7.338437E+05  4.718908E+01  5.797434E+03 -6.337805E+04  8.451548E-11 -3.108592E-10
       338  16  3.458034E+05 -9.434864E+04 -8.150265E+04 -6.351771E+04  5.057610E-10  1.407741E-10
       338  17  2.513660E+05 -1.172419E+05 -1.001873E+05 -4.547550E+04 -1.838525E-09  2.153698E-10
       338  18  1.573077E+05 -1.399154E+05 -1.177509E+05 -6.370963E+04 -1.886115E-09 -8.540964E-11
       338  19  1.122082E+06  9.419548E+04  8.557564E+04 -6.323819E+04 -4.181520E+03  2.094090E+04
       338  20  1.216190E+06  1.169739E+05  1.068565E+05 -4.500574E+04 -2.474937E+03  2.650698E+04
       338  21  1.310692E+06  1.399891E+05  1.293284E+05 -6.304619E+04 -7.713048E+02  3.202157E+04
       338  22  7.338720E+05 -7.140473E+01  2.041316E+03 -6.337794E+04  1.328023E+03  2.094254E+04
       338  23  7.336690E+05 -1.260209E+02  3.342049E+03 -4.524061E+04  2.983034E+03  2.651008E+04
       338  24  7.338440E+05  4.829662E+01  5.799402E+03 -6.337793E+04  4.634842E+03  3.202607E+04
       338  25  3.458036E+05 -9.434816E+04 -8.150173E+04 -6.351759E+04  6.834174E+03  2.094419E+04
       338  26  2.513663E+05 -1.172412E+05 -1.001859E+05 -4.547532E+04  8.436829E+03  2.651317E+04
       338  27  1.573081E+05 -1.399142E+05 -1.177488E+05 -6.370937E+04  1.003604E+04  3.203056E+04
       339   1  1.385250E+06  1.576127E+05  1.474508E+05 -6.221737E+04 -2.027164E+01 -3.538362E+04
       339   2  1.478961E+06  1.807718E+05  1.732757E+05 -4.507768E+04 -7.868936E+03 -4.060775E+04
       339   3  1.575139E+06  2.086978E+05  2.054487E+05 -6.437671E+04 -1.571567E+04 -4.451213E+04
       339   4  7.342365E+05 -4.110010E+02  7.563073E+03 -6.341386E+04 -5.811707E+03 -3.538946E+04
       339   5  7.330964E+05 -2.552106E+02  1.305830E+04 -4.519515E+04 -1.235245E+04 -4.061486E+04
       339   6  7.341901E+05  4.444565E+03  2.399966E+04 -6.341766E+04 -1.889006E+04 -4.451979E+04
       339   7  8.362038E+04 -1.584624E+05 -1.323494E+05 -6.460911E+04 -1.159716E+04 -3.539527E+04
       339   8 -1.224653E+04 -1.813186E+05 -1.471916E+05 -4.531256E+04 -1.683065E+04 -4.062198E+04
       339   9 -1.060965E+05 -1.998552E+05 -1.574911E+05 -6.246006E+04 -2.206020E+04 -4.452746E+04
       339  10  1.385250E+06  1.576113E+05  1.474485E+05 -6.221737E+04  4.211044E-10 -3.973776E-10
       339  11  1.478961E+06  1.807700E+05  1.732725E+05 -4.507794E+04  3.046725E-10 -1.178746E-09
       339  12  1.575139E+06  2.086956E+05  2.054446E+05 -6.437727E+04  2.950092E-10 -1.375318E-09
       339  13  7.342361E+05 -4.123554E+02  7.560655E+03 -6.341402E+04  3.801567E-10 -6.606447E-10
       339  14  7.330958E+05 -2.570235E+02  1.305491E+04 -4.519555E+04 -2.342687E-10 -1.264602E-09
       339  15  7.341892E+05  4.442340E+03  2.399527E+04 -6.341834E+04 -8.135020E-11 -7.195356E-10
       339  16  8.361990E+04 -1.584638E+05 -1.323520E+05 -6.460944E+04 -9.338465E-10 -5.054911E-10
       339  17 -1.224728E+04 -1.813205E+05 -1.471952E+05 -4.531311E+04 -8.059514E-10  1.047798E-09
       339  18 -1.060975E+05 -1.998574E+05 -1.574957E+05 -6.246085E+04  6.755332E-11  5.904629E-11
       339  19  1.385250E+06  1.576127E+05  1.474508E+05 -6.221737E+04  2.027164E+01  3.538362E+04
       339  20  1.478961E+06  1.807718E+05  1.732757E+05 -4.507768E+04  7.868936E+03  4.060775E+04
       339  21  1.575139E+06  2.086978E+05  2.054487E+05 -6.437671E+04  1.571567E+04  4.451213E+04
       339  22  7.342365E+05 -4.110010E+02  7.563073E+03 -6.341386E+04  5.811707E+03  3.538946E+04
       339  23  7.330964E+05 -2.552106E+02  1.305830E+04 -4.519515E+04  1.235245E+04  4.061486E+04
       339  24  7.341901E+05  4.444565E+03  2.399966E+04 -6.341766E+04  1.889006E+04  4.451979E+04
       339  25  8.362038E+04 -1.584624E+05 -1.323494E+05 -6.460911E+04  1.159716E+04  3.539527E+04
       339  26 -1.224653E+04 -1.813186E+05 -1.471916E+05 -4.531256E+04  1.683065E+04  4.062198E+04
       339  27 -1.060965E+05 -1.998552E+05 -1.574911E+05 -6.246006E+04  2.206020E+04  4.452746E+04
       340   1  1.655791E+06  2.178407E+05  2.271166E+05 -4.902313E+04 -1.179657E+04 -4.997901E+04
       340   2  1.736583E+06  2.478511E+05  2.741969E+05 -6.141150E+04 -6.802449E+04 -4.703674E+04
       340   3  1.848104E+06  3.698508E+05  3.809046E+05 -1.093637E+05 -1.243185E+05 -1.502596E+04
       340   4  7.394020E+05 -4.579459E+03  3.034027E+04 -6.318232E+04 -2.313538E+04 -4.999729E+04
       340   5  7.264606E+05  1.754329E+03  5.211078E+04 -4.547816E+04 -5.065855E+04 -4.701854E+04
       340   6  7.393105E+05  9.517932E+04  1.136508E+05 -6.333498E+04 -7.823692E+04 -1.495547E+04
       340   7 -1.761988E+05 -2.270538E+05 -1.664846E+05 -7.732055E+04 -3.445770E+04 -5.001506E+04
       340   8 -2.827086E+05 -2.444095E+05 -1.700364E+05 -2.957130E+04 -3.332041E+04 -4.699943E+04
       340   9 -3.683523E+05 -1.795725E+05 -1.536817E+05 -1.738903E+04 -3.223711E+04 -1.487811E+04
       340  10  1.655790E+06  2.178380E+05  2.271117E+05 -4.902360E+04  2.296695E-09 -2.513498E-09
       340  11  1.736577E+06  2.478474E+05  2.741841E+05 -6.141408E+04 -2.874876E-10 -5.519451E-09
       340  12  1.848088E+06  3.698464E+05  3.808752E+05 -1.093652E+05 -3.206497E-09 -1.792076E-09
       340  13  7.394007E+05 -4.582288E+03  3.033456E+04 -6.318325E+04  4.578023E-10 -6.215345E-09
       340  14  7.264573E+05  1.751266E+03  5.210180E+04 -4.548008E+04  6.213696E-10  2.023170E-09
       340  15  7.393038E+05  9.517744E+04  1.136388E+05 -6.333592E+04  3.699021E-10 -3.650647E-10
       340  16 -1.762008E+05 -2.270568E+05 -1.664915E+05 -7.732194E+04 -2.928284E-09 -1.416241E-09
       340  17 -2.827104E+05 -2.444122E+05 -1.700426E+05 -2.957256E+04 -4.705736E-10  1.357977E-09
       340  18 -3.683535E+05 -1.795730E+05 -1.536841E+05 -1.738941E+04  2.423127E-09 -2.228603E-09
       340  19  1.655791E+06  2.178407E+05  2.271166E+05 -4.902313E+04  1.179657E+04  4.997901E+04
       340  20  1.736583E+06  2.478511E+05  2.741969E+05 -6.141150E+04  6.802449E+04  4.703674E+04
       340  21  1.848104E+06  3.698508E+05  3.809046E+05 -1.093637E+05  1.243185E+05  1.502596E+04
       340  22  7.394020E+05 -4.579459E+03  3.034027E+04 -6.318232E+04  2.313538E+04  4.999729E+04
       340  23  7.264606E+05  1.754329E+03  5.211078E+04 -4.547816E+04  5.065855E+04  4.701854E+04
       340  24  7.393105E+05  9.517932E+04  1.136508E+05 -6.333498E+04  7.823692E+04  1.495547E+04
       340  25 -1.761988E+05 -2.270538E+05 -1.664846E+05 -7.732055E+04  3.445770E+04  5.001506E+04
       340  26 -2.827086E+05 -2.444095E+05 -1.700364E+05 -2.957130E+04  3.332041E+04  4.699943E+04
       340  27 -3.683523E+05 -1.795725E+05 -1.536817E+05 -1.738903E+04  3.223711E+04  1.487811E+04
       341   1  7.719668E+05  2.900467E+06  7.651398E+05 -5.670337E+05  3.167645E+04  1.413701E+05
       341   2  5.080181E+05  2.093071E+06  4.937271E+05 -3.975472E+05  8.997231E+04  4.383148E+04
       341   3  3.132559E+05  1.315828E+06  3.028181E+05 -5.284378E+05  6.776500E+04 -5.375369E+04
       341   4  5.952711E+04  2.990776E+04  6.925532E+04 -5.327446E+05  3.193769E+04  4.422054E+04
       341   5  2.473912E+03  2.244103E+04  3.444510E+04 -3.826165E+05  9.004808E+04  2.628199E+04
       341   6  9.936253E+02  3.088238E+04  2.513250E+04 -5.329025E+05  6.754058E+04  8.170935E+03
       341   7 -6.535077E+05 -2.833126E+06 -6.271874E+05 -4.986063E+05  3.218900E+04 -5.248312E+04
       341   8 -5.033589E+05 -2.044195E+06 -4.251020E+05 -3.677319E+05  9.012317E+04  8.790113E+03
       341   9 -3.113752E+05 -1.252506E+06 -2.526364E+05 -5.373559E+05  6.731500E+04  6.996932E+04
       341  10  7.719604E+05  2.900445E+06  7.651005E+05 -5.670373E+05 -8.211608E-11  1.633181E-09
       341  11  5.080089E+05  2.093066E+06  4.937083E+05 -3.975503E+05 -1.184606E-09  3.221517E-09
       341  12  3.132502E+05  1.315823E+06  3.028040E+05 -5.284348E+05  7.483130E-10 -5.997981E-10
       341  13  5.952548E+04  2.990539E+04  6.924972E+04 -5.327458E+05  6.691743E-10 -1.755244E-09
       341  14  2.465017E+03  2.243811E+04  3.442856E+04 -3.826184E+05 -2.007523E-09  2.687998E-09
       341  15  9.887081E+02  3.088109E+04  2.512380E+04 -5.329030E+05 -4.865498E-10 -8.280396E-09
       341  16 -6.535096E+05 -2.833129E+06 -6.271945E+05 -4.986049E+05 -9.262630E-10 -1.574939E-09
       341  17 -5.033677E+05 -2.044197E+06 -4.251175E+05 -3.677325E+05  4.891551E-10 -8.000216E-09
       341  18 -3.113814E+05 -1.252513E+06 -2.526541E+05 -5.373597E+05 -1.204293E-09  1.762348E-09
       341  19  7.719668E+05  2.900467E+06  7.651398E+05 -5.670337E+05 -3.167645E+04 -1.413701E+05
       341  20  5.080181E+05  2.093071E+06  4.937271E+05 -3.975472E+05 -8.997231E+04 -4.383148E+04
       341  21  3.132559E+05  1.315828E+06  3.028181E+05 -5.284378E+05 -6.776500E+04  5.375369E+04
       341  22  5.952711E+04  2.990776E+04  6.925532E+04 -5.327446E+05 -3.193769E+04 -4.422054E+04
       341  23  2.473912E+03  2.244103E+04  3.444510E+04 -3.826165E+05 -9.004808E+04 -2.628199E+04
       341  24  9.936253E+02  3.088238E+04  2.513250E+04 -5.329025E+05 -6.754058E+04 -8.170935E+03
       341  25 -6.535077E+05 -2.833126E+06 -6.271874E+05 -4.986063E+05 -3.218900E+04  5.248312E+04
       341  26 -5.033589E+05 -2.044195E+06 -4.251020E+05 -3.677319E+05 -9.012317E+04 -8.790113E+03
       341  27 -3.113752E+05 -1.252506E+06 -2.526364E+05 -5.373559E+05 -6.731500E+04 -6.996932E+04
       342   1  1.673253E+05  6.903246E+05  1.673611E+05 -5.375195E+05  3.404829E+04 -3.637550E+04
       342   2 -2.870450E+04 -1.014979E+05 -3.652445E+03 -3.811193E+05 -6.801045E+03 -4.822387E+04
       342   3 -2.146038E+05 -8.908699E+05 -1.650278E+05 -5.286832E+05 -4.734516E+04 -6.005036E+04
       342   4  6.141913E+03  2.803736E+04  2.357545E+04 -5.336514E+05  3.389005E+04  4.030137E+03
       342   5  2.542720E+03  2.705143E+04  2.400810E+04 -3.816678E+05 -6.953956E+03 -8.140090E+03
       342   6  9.164948E+03  2.797652E+04  3.432016E+04 -5.336395E+05 -4.749476E+04 -2.030291E+04
       342   7 -1.550696E+05 -6.338353E+05 -1.202302E+05 -5.297869E+05  3.373220E+04  4.439328E+04
       342   8  3.378971E+04  1.556198E+05  5.167372E+04 -3.822164E+05 -7.106919E+03  3.195188E+04
       342   9  2.328787E+05  9.476191E+05  2.336238E+05 -5.386022E+05 -4.764487E+04  1.950266E+04
       342  10  1.673237E+05  6.903229E+05  1.673564E+05 -5.375185E+05  4.894719E-10  2.446937E-09
       342  11 -2.870517E+04 -1.015005E+05 -3.656904E+03 -3.811196E+05  2.002589E-09  3.431763E-09
       342  12 -2.146072E+05 -8.908744E+05 -1.650388E+05 -5.286855E+05 -8.963205E-10 -2.526035E-09
       342  13  6.140675E+03  2.803703E+04  2.357326E+04 -5.336515E+05  3.082260E-10 -3.306940E-09
       342  14  2.542650E+03  2.705134E+04  2.400789E+04 -3.816679E+05  3.751776E-09  3.495846E-09
       342  15  9.162414E+03  2.797547E+04  3.431515E+04 -5.336403E+05  2.800929E-09 -8.540650E-09
       342  16 -1.550714E+05 -6.338377E+05 -1.202361E+05 -5.297881E+05 -3.655634E-10 -2.304906E-09
       342  17  3.378939E+04  1.556187E+05  5.167171E+04 -3.822162E+05 -1.419950E-09 -1.031626E-08
       342  18  2.328762E+05  9.476181E+05  2.336188E+05 -5.386015E+05 -1.209129E-09  3.892528E-09
       342  19  1.673253E+05  6.903246E+05  1.673611E+05 -5.375195E+05 -3.404829E+04  3.637550E+04
       342  20 -2.870450E+04 -1.014979E+05 -3.652445E+03 -3.811193E+05  6.801045E+03  4.822387E+04
       342  21 -2.146038E+05 -8.908699E+05 -1.650278E+05 -5.286832E+05  4.734516E+04  6.005036E+04
       342  22  6.141913E+03  2.803736E+04  2.357545E+04 -5.336514E+05 -3.389005E+04 -4.030137E+03
       342  23  2.542720E+03  2.705143E+04  2.400810E+04 -3.816678E+05  6.953956E+03  8.140090E+03
       342  24  9.164948E+03  2.797652E+04  3.432016E+04 -5.336395E+05  4.749476E+04  2.030291E+04
       342  25 -1.550696E+05 -6.338353E+05 -1.202302E+05 -5.297869E+05 -3.373220E+04 -4.439328E+04
       342  26  3.378971E+04  1.556198E+05  5.167372E+04 -3.822164E+05  7.106919E+03 -3.195188E+04
       342  27  2.328787E+05  9.476191E+05  2.336238E+05 -5.386022E+05  4.764487E+04 -1.950266E+04
       343   1 -3.769672E+05 -1.505950E+06 -2.918468E+05 -5.454506E+05 -8.138701E+04 -8.953476E+04
       343   2 -5.651160E+05 -2.305290E+06 -4.496113E+05 -3.567520E+05 -1.022406E+05 -3.877915E+04
       343   3 -6.564247E+05 -3.086219E+06 -6.163210E+05 -4.682384E+05 -3.579111E+04  1.207627E+04
       343   4 -2.119644E+03  3.446112E+04  4.120768E+04 -5.328571E+05 -8.160631E+04 -2.646041E+04
       343   5  3.459837E+03  1.761328E+04  6.636278E+04 -3.826694E+05 -1.021472E+05 -6.145957E+04
       343   6  1.206106E+05  3.336686E+04  1.421212E+05 -5.325530E+05 -3.553790E+04 -9.629600E+04
       343   7  3.725742E+05  1.577113E+06  3.741368E+05 -5.202290E+05 -8.182271E+04  3.676868E+04
       343   8  5.716727E+05  2.345566E+06  5.820032E+05 -4.086803E+05 -1.020521E+05 -8.422381E+04
       343   9  8.969499E+05  3.161898E+06  8.999049E+05 -5.971844E+05 -3.526301E+04 -2.052124E+05
       343  10 -3.769765E+05 -1.505961E+06 -2.918744E+05 -5.454565E+05  3.172721E-10  2.320347E-09
       343  11 -5.651277E+05 -2.305295E+06 -4.496338E+05 -3.567552E+05  1.589322E-09  3.285349E-09
       343  12 -6.564261E+05 -3.086219E+06 -6.163236E+05 -4.682381E+05  2.363717E-10 -2.039433E-10
       343  13 -2.126986E+03  3.445858E+04  4.119384E+04 -5.328588E+05 -2.048820E-09 -2.964490E-09
       343  14  3.447613E+03  1.760641E+04  6.633606E+04 -3.826745E+05  2.208698E-09  2.530677E-09
       343  15  1.206067E+05  3.335656E+04  1.421014E+05 -5.325558E+05 -5.558984E-11 -3.897414E-09
       343  16  3.725667E+05  1.577110E+06  3.741217E+05 -5.202265E+05  8.382220E-10 -2.338536E-09
       343  17  5.716596E+05  2.345556E+06  5.819703E+05 -4.086872E+05  1.361836E-09 -8.196740E-09
       343  18  8.969373E+05  3.161852E+06  8.998238E+05 -5.971903E+05 -1.881840E-10  8.897354E-10
       343  19 -3.769672E+05 -1.505950E+06 -2.918468E+05 -5.454506E+05  8.138701E+04  8.953476E+04
       343  20 -5.651160E+05 -2.305290E+06 -4.496113E+05 -3.567520E+05  1.022406E+05  3.877915E+04
       343  21 -6.564247E+05 -3.086219E+06 -6.163210E+05 -4.682384E+05  3.579111E+04 -1.207627E+04
       343  22 -2.119644E+03  3.446112E+04  4.120768E+04 -5.328571E+05  8.160631E+04  2.646041E+04
       343  23  3.459837E+03  1.761328E+04  6.636278E+04 -3.826694E+05  1.021472E+05  6.145957E+04
       343  24  1.206106E+05  3.336686E+04  1.421212E+05 -5.325530E+05  3.553790E+04  9.629600E+04
       343  25  3.725742E+05  1.577113E+06  3.741368E+05 -5.202290E+05  8.182271E+04 -3.676868E+04
       343  26  5.716727E+05  2.345566E+06  5.820032E+05 -4.086803E+05  1.020521E+05  8.422381E+04
       343  27  8.969499E+05  3.161898E+06  8.999049E+05 -5.971844E+05  3.526301E+04  2.052124E+05
       344   1 -1.810568E+06 -7.276398E+05 -4.085309E+05 -7.111982E+05 -1.837120E+05 -5.583513E+04
       344   2 -1.734896E+06 -5.034466E+05 -2.480768E+05 -6.795721E+05 -1.159147E+05 -8.728592E+02
       344   3 -1.699729E+06 -4.210966E+05 -1.794900E+05 -6.366779E+05 -3.982348E+04  3.211821E+04
       344   4 -1.093198E+06 -3.654772E+05 -2.032902E+05 -4.202742E+05 -1.351402E+05 -3.758817E+04
       344   5 -1.064555E+06 -2.181078E+05 -9.203690E+04 -4.557235E+05 -9.636625E+04  6.469244E+03
       344   6 -1.070599E+06 -2.067508E+05 -4.954601E+04 -4.799262E+05 -4.931355E+04  2.854661E+04
       344   7 -3.752907E+05 -3.140353E+03  1.915802E+03 -1.289993E+05 -8.650647E+04 -1.929963E+04
       344   8 -3.937490E+05  6.731128E+04  6.397561E+04 -2.316362E+05 -7.679479E+04  1.382300E+04
       344   9 -4.410651E+05  7.614026E+03  8.037768E+04 -3.230336E+05 -5.881401E+04  2.497176E+04
       344  10 -1.810605E+06 -7.276522E+05 -4.086004E+05 -7.112065E+05 -2.167979E-10  9.454401E-10
       344  11 -1.734910E+06 -5.034502E+05 -2.481022E+05 -6.795722E+05 -5.647002E-10  2.965095E-10
       344  12 -1.699731E+06 -4.210982E+05 -1.794950E+05 -6.366769E+05 -7.760037E-10  1.774891E-10
       344  13 -1.093218E+06 -3.654836E+05 -2.033272E+05 -4.202783E+05 -3.003846E-10 -5.438691E-11
       344  14 -1.064565E+06 -2.181103E+05 -9.205446E+04 -4.557230E+05 -7.603572E-11 -1.741013E-11
       344  15 -1.070602E+06 -2.067524E+05 -4.955211E+04 -4.799250E+05  8.783653E-10 -1.012646E-09
       344  16 -3.752988E+05 -3.142764E+03  1.901030E+03 -1.290007E+05 -1.462370E-10 -2.679135E-09
       344  17 -3.937554E+05  6.730949E+04  6.396417E+04 -2.316354E+05  1.111764E-09 -9.029282E-10
       344  18 -4.410690E+05  7.612428E+03  8.037001E+04 -3.230324E+05  1.247959E-09  5.060482E-10
       344  19 -1.810568E+06 -7.276398E+05 -4.085309E+05 -7.111982E+05  1.837120E+05  5.583513E+04
       344  20 -1.734896E+06 -5.034466E+05 -2.480768E+05 -6.795721E+05  1.159147E+05  8.728592E+02
       344  21 -1.699729E+06 -4.210966E+05 -1.794900E+05 -6.366779E+05  3.982348E+04 -3.211821E+04
       344  22 -1.093198E+06 -3.654772E+05 -2.032902E+05 -4.202742E+05  1.351402E+05  3.758817E+04
       344  23 -1.064555E+06 -2.181078E+05 -9.203690E+04 -4.557235E+05  9.636625E+04 -6.469244E+03
       344  24 -1.070599E+06 -2.067508E+05 -4.954601E+04 -4.799262E+05  4.931355E+04 -2.854661E+04
       344  25 -3.752907E+05 -3.140353E+03  1.915802E+03 -1.289993E+05  8.650647E+04  1.929963E+04
       344  26 -3.937490E+05  6.731128E+04  6.397561E+04 -2.316362E+05  7.679479E+04 -1.382300E+04
       344  27 -4.410651E+05  7.614026E+03  8.037768E+04 -3.230336E+05  5.881401E+04 -2.497176E+04
       345   1 -1.620808E+06 -4.205780E+05 -1.556611E+05 -6.306536E+05 -3.729693E+04  2.851002E+04
       345   2 -1.544773E+06 -3.737989E+05 -1.186755E+05 -5.977566E+05 -2.379232E+04  2.873323E+04
       345   3 -1.454795E+06 -3.501376E+05 -9.203259E+04 -5.839298E+05 -9.776008E+03  2.759281E+04
       345   4 -1.064307E+06 -2.140525E+05 -3.806007E+04 -4.744458E+05 -4.203658E+04  2.672484E+04
       345   5 -1.070997E+06 -1.995542E+05 -2.009571E+04 -4.660740E+05 -3.032707E+04  2.627508E+04
       345   6 -1.063392E+06 -2.078139E+05 -1.104191E+04 -4.767746E+05 -1.810769E+04  2.446155E+04
       345   7 -5.074924E+05 -7.501294E+03  7.952270E+04 -3.181093E+05 -4.678077E+04  2.493791E+04
       345   8 -5.969909E+05 -2.529044E+04  7.847227E+04 -3.342984E+05 -3.686720E+04  2.381489E+04
       345   9 -6.718281E+05 -6.547683E+04  6.994182E+04 -3.695564E+05 -2.644510E+04  2.132818E+04
       345  10 -1.620810E+06 -4.205792E+05 -1.556652E+05 -6.306527E+05  1.018430E-09  7.418985E-10
       345  11 -1.544774E+06 -3.737999E+05 -1.186781E+05 -5.977560E+05 -9.901871E-10  8.496781E-10
       345  12 -1.454795E+06 -3.501384E+05 -9.203420E+04 -5.839296E+05 -3.699702E-10 -1.864606E-11
       345  13 -1.064309E+06 -2.140537E+05 -3.806473E+04 -4.744449E+05 -1.069266E-09  5.340868E-10
       345  14 -1.070998E+06 -1.995552E+05 -2.009874E+04 -4.660734E+05 -5.053166E-10  8.420084E-10
       345  15 -1.063392E+06 -2.078146E+05 -1.104365E+04 -4.767743E+05 -1.184609E-09  9.468568E-11
       345  16 -5.074949E+05 -7.502548E+03  7.951742E+04 -3.181084E+05 -1.666865E-09  1.017330E-09
       345  17 -5.969925E+05 -2.529141E+04  7.846865E+04 -3.342977E+05 -6.136944E-11  4.478991E-10
       345  18 -6.718290E+05 -6.547751E+04  6.993965E+04 -3.695560E+05  2.980508E-10  7.192953E-11
       345  19 -1.620808E+06 -4.205780E+05 -1.556611E+05 -6.306536E+05  3.729693E+04 -2.851002E+04
       345  20 -1.544773E+06 -3.737989E+05 -1.186755E+05 -5.977566E+05  2.379232E+04 -2.873323E+04
       345  21 -1.454795E+06 -3.501376E+05 -9.203259E+04 -5.839298E+05  9.776008E+03 -2.759281E+04
       345  22 -1.064307E+06 -2.140525E+05 -3.806007E+04 -4.744458E+05  4.203658E+04 -2.672484E+04
       345  23 -1.070997E+06 -1.995542E+05 -2.009571E+04 -4.660740E+05  3.032707E+04 -2.627508E+04
       345  24 -1.063392E+06 -2.078139E+05 -1.104191E+04 -4.767746E+05  1.810769E+04 -2.446155E+04
       345  25 -5.074924E+05 -7.501294E+03  7.952270E+04 -3.181093E+05  4.678077E+04 -2.493791E+04
       345  26 -5.969909E+05 -2.529044E+04  7.847227E+04 -3.342984E+05  3.686720E+04 -2.381489E+04
       345  27 -6.718281E+05 -6.547683E+04  6.994182E+04 -3.695564E+05  2.644510E+04 -2.132818E+04
       346   1 -1.395336E+06 -3.295891E+05 -7.677428E+04 -5.682369E+05 -7.133042E+03  2.441430E+04
       346   2 -1.319771E+06 -2.898252E+05 -5.580925E+04 -5.349338E+05 -2.430252E+03  1.918990E+04
       346   3 -1.226976E+06 -2.679563E+05 -3.669381E+04 -5.218110E+05  2.304789E+03  1.387567E+04
       346   4 -1.062922E+06 -2.081139E+05 -8.320439E+03 -4.764961E+05 -1.518248E+04  2.139002E+04
       346   5 -1.071526E+06 -1.990959E+05 -4.581249E+03 -4.664323E+05 -1.059754E+04  1.612246E+04
       346   6 -1.062883E+06 -2.079492E+05 -2.597361E+03 -4.765509E+05 -5.980725E+03  1.076500E+04
       346   7 -7.303938E+05 -8.662949E+04  6.012790E+04 -3.847099E+05 -2.323656E+04  1.836400E+04
       346   8 -8.232175E+05 -1.083618E+05  4.664353E+04 -3.979057E+05 -1.876832E+04  1.305373E+04
       346   9 -8.987631E+05 -1.479404E+05  3.149759E+04 -4.312800E+05 -1.426854E+04  7.653476E+03
       346  10 -1.395336E+06 -3.295898E+05 -7.677550E+04 -5.682368E+05 -7.887666E-11  9.192949E-10
       346  11 -1.319771E+06 -2.898255E+05 -5.580995E+04 -5.349337E+05 -5.103141E-11  7.484367E-10
       346  12 -1.226976E+06 -2.679565E+05 -3.669418E+04 -5.218110E+05  3.143185E-09  1.038371E-09
       346  13 -1.062922E+06 -2.081145E+05 -8.321731E+03 -4.764958E+05 -5.447885E-10  3.984367E-11
       346  14 -1.071526E+06 -1.990962E+05 -4.581948E+03 -4.664321E+05  4.114953E-10  4.994353E-10
       346  15 -1.062883E+06 -2.079493E+05 -2.597646E+03 -4.765508E+05  5.404798E-09  1.692058E-09
       346  16 -7.303944E+05 -8.663000E+04  6.012625E+04 -3.847095E+05 -6.814387E-10 -1.087604E-09
       346  17 -8.232179E+05 -1.083621E+05  4.664255E+04 -3.979055E+05  1.603481E-09 -5.814680E-10
       346  18 -8.987633E+05 -1.479405E+05  3.149710E+04 -4.312799E+05  8.084069E-09  2.078781E-09
       346  19 -1.395336E+06 -3.295891E+05 -7.677428E+04 -5.682369E+05  7.133042E+03 -2.441430E+04
       346  20 -1.319771E+06 -2.898252E+05 -5.580925E+04 -5.349338E+05  2.430252E+03 -1.918990E+04
       346  21 -1.226976E+06 -2.679563E+05 -3.669381E+04 -5.218110E+05 -2.304789E+03 -1.387567E+04
       346  22 -1.062922E+06 -2.081139E+05 -8.320439E+03 -4.764961E+05  1.518248E+04 -2.139002E+04
       346  23 -1.071526E+06 -1.990959E+05 -4.581249E+03 -4.664323E+05  1.059754E+04 -1.612246E+04
       346  24 -1.062883E+06 -2.079492E+05 -2.597361E+03 -4.765509E+05  5.980725E+03 -1.076500E+04
       346  25 -7.303938E+05 -8.662949E+04  6.012790E+04 -3.847099E+05  2.323656E+04 -1.836400E+04
       346  26 -8.232175E+05 -1.083618E+05  4.664353E+04 -3.979057E+05  1.876832E+04 -1.305373E+04
       346  27 -8.987631E+05 -1.479404E+05  3.149759E+04 -4.312800E+05  1.426854E+04 -7.653476E+03
       347   1 -1.168364E+06 -2.464834E+05 -2.352369E+04 -5.056716E+05  4.041264E+03  1.037019E+04
       347   2 -1.092851E+06 -2.068696E+05 -5.667990E+03 -4.722593E+05  7.037210E+03  4.362029E+03
       347   3 -9.997764E+05 -1.849199E+05  1.170194E+04 -4.590471E+05  1.003501E+04 -1.651304E+03
       347   4 -1.062820E+06 -2.079604E+05 -2.010396E+03 -4.765328E+05 -4.230722E+03  7.264971E+03
       347   5 -1.071597E+06 -1.991352E+05 -1.288947E+03 -4.664280E+05 -1.242161E+03  1.254102E+03
       347   6 -1.062820E+06 -2.079740E+05 -1.048011E+03 -4.765268E+05  1.748148E+03 -4.761943E+03
       347   7 -9.572631E+05 -1.694361E+05  1.950286E+04 -4.473891E+05 -1.250429E+04  4.159160E+03
       347   8 -1.050342E+06 -1.914007E+05  3.090390E+03 -4.605965E+05 -9.521872E+03 -1.853951E+03
       347   9 -1.125859E+06 -2.310278E+05 -1.379787E+04 -4.940048E+05 -6.537811E+03 -7.872244E+03
       347  10 -1.168364E+06 -2.464835E+05 -2.352392E+04 -5.056717E+05  7.704576E-09  2.433925E-09
       347  11 -1.092851E+06 -2.068696E+05 -5.668119E+03 -4.722594E+05  3.831506E-10  2.904177E-10
       347  12 -9.997766E+05 -1.849199E+05  1.170175E+04 -4.590471E+05 -4.055926E-10  5.928386E-10
       347  13 -1.062820E+06 -2.079605E+05 -2.010528E+03 -4.765328E+05  5.171453E-09  1.281983E-09
       347  14 -1.071597E+06 -1.991352E+05 -1.288953E+03 -4.664280E+05  8.591016E-10 -3.048995E-10
       347  15 -1.062820E+06 -2.079741E+05 -1.048059E+03 -4.765268E+05  4.085142E-09  2.285143E-09
       347  16 -9.572632E+05 -1.694362E+05  1.950253E+04 -4.473891E+05  1.158733E-09  2.092887E-10
       347  17 -1.050342E+06 -1.914007E+05  3.090213E+03 -4.605965E+05 -3.014043E-10  3.839516E-10
       347  18 -1.125859E+06 -2.310279E+05 -1.379807E+04 -4.940049E+05  8.235984E-09  3.361349E-09
       347  19 -1.168364E+06 -2.464834E+05 -2.352369E+04 -5.056716E+05 -4.041264E+03 -1.037019E+04
       347  20 -1.092851E+06 -2.068696E+05 -5.667990E+03 -4.722593E+05 -7.037210E+03 -4.362029E+03
       347  21 -9.997764E+05 -1.849199E+05  1.170194E+04 -4.590471E+05 -1.003501E+04  1.651304E+03
       347  22 -1.062820E+06 -2.079604E+05 -2.010396E+03 -4.765328E+05  4.230722E+03 -7.264971E+03
       347  23 -1.071597E+06 -1.991352E+05 -1.288947E+03 -4.664280E+05  1.242161E+03 -1.254102E+03
       347  24 -1.062820E+06 -2.079740E+05 -1.048011E+03 -4.765268E+05 -1.748148E+03  4.761943E+03
       347  25 -9.572631E+05 -1.694361E+05  1.950286E+04 -4.473891E+05  1.250429E+04 -4.159160E+03
       347  26 -1.050342E+06 -1.914007E+05  3.090390E+03 -4.605965E+05  9.521872E+03  1.853951E+03
       347  27 -1.125859E+06 -2.310278E+05 -1.379787E+04 -4.940048E+05  6.537811E+03  7.872244E+03
       348   1 -9.412454E+05 -1.634035E+05  2.426478E+04 -4.428824E+05  1.157703E+04 -5.228678E+03
       348   2 -8.658056E+05 -1.238230E+05  4.103245E+04 -4.094953E+05  1.461143E+04 -1.122178E+04
       348   3 -7.728212E+05 -1.018874E+05  5.728761E+04 -3.962855E+05  1.764294E+04 -1.720323E+04
       348   4 -1.062827E+06 -2.079726E+05 -1.069124E+03 -4.765222E+05  3.292222E+03 -8.338788E+03
       348   5 -1.071601E+06 -1.991537E+05 -1.409435E+03 -4.664324E+05  6.340886E+03 -1.432746E+04
       348   6 -1.062840E+06 -2.079833E+05 -2.273543E+03 -4.765230E+05  9.386571E+03 -2.030453E+04
       348   7 -1.184392E+06 -2.525400E+05 -2.640327E+04 -5.101555E+05 -4.990771E+03 -1.144822E+04
       348   8 -1.277352E+06 -2.744808E+05 -4.385324E+04 -5.233520E+05 -1.926699E+03 -1.743204E+04
       348   9 -1.352774E+06 -3.140730E+05 -6.183936E+04 -5.567265E+05  1.134297E+03 -2.340429E+04
       348  10 -9.412455E+05 -1.634036E+05  2.426448E+04 -4.428823E+05  6.965843E-09  3.176177E-09
       348  11 -8.658059E+05 -1.238232E+05  4.103181E+04 -4.094952E+05  2.141497E-09 -8.954343E-12
       348  12 -7.728216E+05 -1.018878E+05  5.728647E+04 -3.962852E+05  8.303453E-11 -4.914023E-10
       348  13 -1.062827E+06 -2.079727E+05 -1.069275E+03 -4.765221E+05  4.190313E-09  2.405176E-09
       348  14 -1.071601E+06 -1.991540E+05 -1.409896E+03 -4.664323E+05  5.323204E-10 -1.981833E-10
       348  15 -1.062840E+06 -2.079838E+05 -2.274483E+03 -4.765229E+05 -1.763000E-10 -3.683500E-10
       348  16 -1.184392E+06 -2.525402E+05 -2.640356E+04 -5.101556E+05  1.175197E-09  1.288324E-09
       348  17 -1.277352E+06 -2.744811E+05 -4.385381E+04 -5.233520E+05 -2.337118E-09  8.205203E-10
       348  18 -1.352774E+06 -3.140736E+05 -6.184040E+04 -5.567265E+05 -1.284891E-09  2.141857E-10
       348  19 -9.412454E+05 -1.634035E+05  2.426478E+04 -4.428824E+05 -1.157703E+04  5.228678E+03
       348  20 -8.658056E+05 -1.238230E+05  4.103245E+04 -4.094953E+05 -1.461143E+04  1.122178E+04
       348  21 -7.728212E+05 -1.018874E+05  5.728761E+04 -3.962855E+05 -1.764294E+04  1.720323E+04
       348  22 -1.062827E+06 -2.079726E+05 -1.069124E+03 -4.765222E+05 -3.292222E+03  8.338788E+03
       348  23 -1.071601E+06 -1.991537E+05 -1.409435E+03 -4.664324E+05 -6.340886E+03  1.432746E+04
       348  24 -1.062840E+06 -2.079833E+05 -2.273543E+03 -4.765230E+05 -9.386571E+03  2.030453E+04
       348  25 -1.184392E+06 -2.525400E+05 -2.640327E+04 -5.101555E+05  4.990771E+03  1.144822E+04
       348  26 -1.277352E+06 -2.744808E+05 -4.385324E+04 -5.233520E+05  1.926699E+03  1.743204E+04
       348  27 -1.352774E+06 -3.140730E+05 -6.183936E+04 -5.567265E+05 -1.134297E+03  2.340429E+04
       349   1 -7.144670E+05 -8.043026E+04  6.915445E+04 -3.801966E+05  1.945542E+04 -2.067011E+04
       349   2 -6.391609E+05 -4.096387E+04  8.393446E+04 -3.469016E+05  2.425389E+04 -2.592667E+04
       349   3 -5.466635E+05 -1.932468E+04  9.682086E+04 -3.337167E+05  2.901300E+04 -3.106976E+04
       349   4 -1.062924E+06 -2.079682E+05 -2.959164E+03 -4.765351E+05  1.118638E+04 -2.377705E+04
       349   5 -1.071530E+06 -1.991452E+05 -5.258133E+03 -4.664444E+05  1.613203E+04 -2.898027E+04
       349   6 -1.062981E+06 -2.081802E+05 -9.568253E+03 -4.764677E+05  2.103793E+04 -3.407009E+04
       349   7 -1.411255E+06 -3.354960E+05 -7.507886E+04 -5.728237E+05  2.922348E+03 -2.688211E+04
       349   8 -1.503706E+06 -3.573101E+05 -9.445973E+04 -5.859099E+05  8.016295E+03 -3.203157E+04
       349   9 -1.579021E+06 -3.970119E+05 -1.159699E+05 -6.191081E+05  1.307007E+04 -3.706771E+04
       349  10 -7.144675E+05 -8.043082E+04  6.915293E+04 -3.801963E+05  6.776291E-11  7.466568E-11
       349  11 -6.391617E+05 -4.096475E+04  8.393209E+04 -3.469011E+05  4.214041E-10  3.567153E-10
       349  12 -5.466647E+05 -1.932594E+04  9.681747E+04 -3.337159E+05  1.230135E-09 -6.701163E-10
       349  13 -1.062924E+06 -2.079689E+05 -2.960461E+03 -4.765349E+05 -2.719918E-10 -9.580871E-11
       349  14 -1.071531E+06 -1.991461E+05 -5.260199E+03 -4.664441E+05 -9.982856E-10  8.144412E-10
       349  15 -1.062982E+06 -2.081816E+05 -9.571264E+03 -4.764672E+05  1.867481E-10 -3.713851E-10
       349  16 -1.411256E+06 -3.354968E+05 -7.508023E+04 -5.728237E+05  1.219921E-10 -3.077162E-10
       349  17 -1.503706E+06 -3.573112E+05 -9.446178E+04 -5.859097E+05  4.625681E-10 -1.180194E-09
       349  18 -1.579021E+06 -3.970134E+05 -1.159728E+05 -6.191077E+05 -1.531487E-09  8.856301E-10
       349  19 -7.144670E+05 -8.043026E+04  6.915445E+04 -3.801966E+05 -1.945542E+04  2.067011E+04
       349  20 -6.391609E+05 -4.096387E+04  8.393446E+04 -3.469016E+05 -2.425389E+04  2.592667E+04
       349  21 -5.466635E+05 -1.932468E+04  9.682086E+04 -3.337167E+05 -2.901300E+04  3.106976E+04
       349  22 -1.062924E+06 -2.079682E+05 -2.959164E+03 -4.765351E+05 -1.118638E+04  2.377705E+04
       349  23 -1.071530E+06 -1.991452E+05 -5.258133E+03 -4.664444E+05 -1.613203E+04  2.898027E+04
       349  24 -1.062981E+06 -2.081802E+05 -9.568253E+03 -4.764677E+05 -2.103793E+04  3.407009E+04
       349  25 -1.411255E+06 -3.354960E+05 -7.507886E+04 -5.728237E+05 -2.922348E+03  2.688211E+04
       349  26 -1.503706E+06 -3.573101E+05 -9.445973E+04 -5.859099E+05 -8.016295E+03  3.203157E+04
       349  27 -1.579021E+06 -3.970119E+05 -1.159699E+05 -6.191081E+05 -1.307007E+04  3.706771E+04
       350   1 -4.883287E+05  1.714915E+03  1.061668E+05 -3.187398E+05  3.251249E+04 -3.391159E+04
       350   2 -4.139801E+05  4.183190E+04  1.133550E+05 -2.833323E+05  4.399584E+04 -3.580297E+04
       350   3 -3.254469E+05  5.895437E+04  1.120498E+05 -2.667070E+05  5.485630E+04 -3.602436E+04
       350   4 -1.063527E+06 -2.078299E+05 -1.270089E+04 -4.767761E+05  2.419405E+04 -3.704240E+04
       350   5 -1.070928E+06 -1.997069E+05 -2.312669E+04 -4.660406E+05  3.787624E+04 -3.810977E+04
       350   6 -1.064593E+06 -2.150228E+05 -4.379849E+04 -4.740927E+05  5.093381E+04 -3.750675E+04
       350   7 -1.638390E+06 -4.173495E+05 -1.315869E+05 -6.346789E+05  1.588386E+04 -4.017017E+04
       350   8 -1.727436E+06 -4.412100E+05 -1.596319E+05 -6.485710E+05  3.176358E+04 -4.041396E+04
       350   9 -1.803180E+06 -4.889520E+05 -1.996769E+05 -6.812499E+05  4.701635E+04 -3.898722E+04
       350  10 -4.883302E+05  1.713397E+03  1.061627E+05 -3.187389E+05 -6.371900E-10 -1.258563E-09
       350  11 -4.139826E+05  4.183001E+04  1.133489E+05 -2.833310E+05 -7.613593E-10  1.215972E-10
       350  12 -3.254504E+05  5.895217E+04  1.120417E+05 -2.667054E+05 -4.391670E-10  1.233444E-10
       350  13 -1.063528E+06 -2.078315E+05 -1.270457E+04 -4.767754E+05  1.225507E-09 -1.582981E-09
       350  14 -1.070930E+06 -1.997089E+05 -2.313211E+04 -4.660394E+05  3.373871E-10 -5.847341E-10
       350  15 -1.064596E+06 -2.150250E+05 -4.380601E+04 -4.740912E+05  4.305360E-10  1.420059E-09
       350  16 -1.638391E+06 -4.173513E+05 -1.315905E+05 -6.346784E+05  2.998045E-10  1.510374E-09
       350  17 -1.727438E+06 -4.412120E+05 -1.596369E+05 -6.485699E+05 -1.874756E-10  1.857764E-09
       350  18 -1.803183E+06 -4.889542E+05 -1.996839E+05 -6.812484E+05  9.705605E-10  4.214667E-10
       350  19 -4.883287E+05  1.714915E+03  1.061668E+05 -3.187398E+05 -3.251249E+04  3.391159E+04
       350  20 -4.139801E+05  4.183190E+04  1.133550E+05 -2.833323E+05 -4.399584E+04  3.580297E+04
       350  21 -3.254469E+05  5.895437E+04  1.120498E+05 -2.667070E+05 -5.485630E+04  3.602436E+04
       350  22 -1.063527E+06 -2.078299E+05 -1.270089E+04 -4.767761E+05 -2.419405E+04  3.704240E+04
       350  23 -1.070928E+06 -1.997069E+05 -2.312669E+04 -4.660406E+05 -3.787624E+04  3.810977E+04
       350  24 -1.064593E+06 -2.150228E+05 -4.379849E+04 -4.740927E+05 -5.093381E+04  3.750675E+04
       350  25 -1.638390E+06 -4.173495E+05 -1.315869E+05 -6.346789E+05 -1.588386E+04  4.017017E+04
       350  26 -1.727436E+06 -4.412100E+05 -1.596319E+05 -6.485710E+05 -3.176358E+04  4.041396E+04
       350  27 -1.803180E+06 -4.889520E+05 -1.996769E+05 -6.812499E+05 -4.701635E+04  3.898722E+04
       351   1 -2.580897E+05  7.303371E+04  1.110611E+05 -2.748156E+05  6.884480E+04 -3.538848E+04
       351   2 -2.156651E+05  1.356493E+05  9.016269E+04 -1.749906E+05  8.680374E+04 -2.163620E+04
       351   3 -2.088414E+05  5.182342E+04  1.840505E+04 -5.894256E+04  9.463844E+04  1.898183E+04
       351   4 -1.071849E+06 -2.066089E+05 -5.701605E+04 -4.803806E+05  5.910585E+04 -3.905975E+04
       351   5 -1.063512E+06 -2.210843E+05 -1.059173E+05 -4.541489E+05  1.126092E+05 -1.192855E+04
       351   6 -1.097914E+06 -3.891895E+05 -2.339365E+05 -4.116828E+05  1.559757E+05  4.207999E+04
       351   7 -1.884931E+06 -4.862167E+05 -2.251273E+05 -6.857057E+05  4.938068E+04 -4.272662E+04
       351   8 -1.910612E+06 -5.776942E+05 -3.020391E+05 -7.329316E+05  1.383762E+05 -2.239944E+03
       351   9 -1.986156E+06 -8.299492E+05 -4.863279E+05 -7.638966E+05  2.172155E+05  6.511491E+04
       351  10 -2.580951E+05  7.303110E+04  1.110499E+05 -2.748136E+05  1.968465E-09  1.265887E-09
       351  11 -2.156733E+05  1.356468E+05  9.014765E+04 -1.749891E+05 -6.516169E-10  8.667100E-10
       351  12 -2.088511E+05  5.182063E+04  1.838754E+04 -5.894401E+04 -2.267359E-09 -3.596008E-12
       351  13 -1.071853E+06 -2.066114E+05 -5.702549E+04 -4.803787E+05  8.910814E-10 -8.977884E-10
       351  14 -1.063525E+06 -2.210878E+05 -1.059415E+05 -4.541478E+05  4.010787E-10  3.486945E-09
       351  15 -1.097941E+06 -3.891980E+05 -2.339856E+05 -4.116881E+05 -1.037467E-09  3.784954E-09
       351  16 -1.884934E+06 -4.862193E+05 -2.251353E+05 -6.857040E+05 -9.842268E-10 -1.609428E-09
       351  17 -1.910632E+06 -5.776994E+05 -3.020752E+05 -7.329313E+05 -1.620374E-09  5.271201E-10
       351  18 -1.986208E+06 -8.299664E+05 -4.864249E+05 -7.639080E+05  7.506610E-10 -1.400890E-09
       351  19 -2.580897E+05  7.303371E+04  1.110611E+05 -2.748156E+05 -6.884480E+04  3.538848E+04
       351  20 -2.156651E+05  1.356493E+05  9.016269E+04 -1.749906E+05 -8.680374E+04  2.163620E+04
       351  21 -2.088414E+05  5.182342E+04  1.840505E+04 -5.894256E+04 -9.463844E+04 -1.898183E+04
       351  22 -1.071849E+06 -2.066089E+05 -5.701605E+04 -4.803806E+05 -5.910585E+04  3.905975E+04
       351  23 -1.063512E+06 -2.210843E+05 -1.059173E+05 -4.541489E+05 -1.126092E+05  1.192855E+04
       351  24 -1.097914E+06 -3.891895E+05 -2.339365E+05 -4.116828E+05 -1.559757E+05 -4.207999E+04
       351  25 -1.884931E+06 -4.862167E+05 -2.251273E+05 -6.857057E+05 -4.938068E+04  4.272662E+04
       351  26 -1.910612E+06 -5.776942E+05 -3.020391E+05 -7.329316E+05 -1.383762E+05  2.239944E+03
       351  27 -1.986156E+06 -8.299492E+05 -4.863279E+05 -7.638966E+05 -2.172155E+05 -6.511491E+04
       352   1  1.761953E+05  4.643580E+04  1.934170E+04 -2.728222E+04 -6.925916E+04 -9.178455E+03
       352   2  1.432200E+05  1.479977E+05  7.099365E+04  1.656872E+03 -5.207309E+04 -2.898351E+04
       352   3  8.177356E+04  1.444755E+05  8.522739E+04  4.794228E+04 -3.492494E+04 -3.135917E+04
       352   4 -4.899449E+05 -1.186745E+05 -1.413678E+05  3.060151E+04 -9.728842E+04 -9.244187E+03
       352   5 -4.741818E+05 -2.562336E+03 -6.486813E+04  2.178784E+04 -6.297946E+04 -2.901216E+04
       352   6 -4.898995E+05  5.429602E+03 -3.771072E+04  3.032305E+04 -2.870615E+04 -3.134503E+04
       352   7 -1.155670E+06 -2.838039E+05 -3.021042E+05  8.842273E+04 -1.252877E+05 -9.315186E+03
       352   8 -1.091226E+06 -1.531462E+05 -2.007526E+05  4.189835E+04 -7.387509E+04 -2.904154E+04
       352   9 -1.061265E+06 -1.336366E+05 -1.606677E+05  1.272007E+04 -2.249300E+04 -3.133123E+04
       352  10  1.761901E+05  4.643443E+04  1.933253E+04 -2.728273E+04  1.525779E-09 -3.993822E-10
       352  11  1.432168E+05  1.479960E+05  7.098698E+04  1.655657E+03  2.334468E-09 -3.534740E-09
       352  12  8.177199E+04  1.444741E+05  8.522325E+04  4.794140E+04  6.747243E-10 -3.371445E-09
       352  13 -4.899551E+05 -1.186771E+05 -1.413857E+05  3.060079E+04  3.831485E-10  2.031903E-09
       352  14 -4.741863E+05 -2.564306E+03 -6.487717E+04  2.178637E+04 -5.928711E-10 -1.765438E-09
       352  15 -4.899007E+05  5.428326E+03 -3.771412E+04  3.032232E+04  2.389168E-11 -1.551956E-11
       352  16 -1.155687E+06 -2.838083E+05 -3.021339E+05  8.842179E+04 -1.735441E-09  6.155719E-10
       352  17 -1.091232E+06 -1.531486E+05 -2.007644E+05  4.189662E+04 -1.489257E-09 -6.148876E-09
       352  18 -1.061265E+06 -1.336378E+05 -1.606705E+05  1.271950E+04 -1.938298E-09 -6.490680E-09
       352  19  1.761953E+05  4.643580E+04  1.934170E+04 -2.728222E+04  6.925916E+04  9.178455E+03
       352  20  1.432200E+05  1.479977E+05  7.099365E+04  1.656872E+03  5.207309E+04  2.898351E+04
       352  21  8.177356E+04  1.444755E+05  8.522739E+04  4.794228E+04  3.492494E+04  3.135917E+04
       352  22 -4.899449E+05 -1.186745E+05 -1.413678E+05  3.060151E+04  9.728842E+04  9.244187E+03
       352  23 -4.741818E+05 -2.562336E+03 -6.486813E+04  2.178784E+04  6.297946E+04  2.901216E+04
       352  24 -4.898995E+05  5.429602E+03 -3.771072E+04  3.032305E+04  2.870615E+04  3.134503E+04
       352  25 -1.155670E+06 -2.838039E+05 -3.021042E+05  8.842273E+04  1.252877E+05  9.315186E+03
       352  26 -1.091226E+06 -1.531462E+05 -2.007526E+05  4.189835E+04  7.387509E+04  2.904154E+04
       352  27 -1.061265E+06 -1.336366E+05 -1.606677E+05  1.272007E+04  2.249300E+04  3.133123E+04
       353   1  5.093114E+04  1.242301E+05  8.563759E+04  2.959858E+04 -2.478746E+04 -2.840082E+04
       353   2  4.871222E+03  1.185490E+05  8.853049E+04  2.205497E+04 -1.744082E+04 -2.662188E+04
       353   3 -4.355459E+04  1.074218E+05  8.526906E+04  3.266465E+04 -1.009810E+04 -2.403572E+04
       353   4 -4.834568E+05 -5.756125E+03 -2.983537E+04  3.058001E+04 -2.343887E+04 -2.839925E+04
       353   5 -4.821949E+05  1.569525E+02 -1.624303E+04  2.149444E+04 -1.530425E+04 -2.661765E+04
       353   6 -4.834397E+05  4.843709E+02 -9.356316E+03  3.056313E+04 -7.172987E+03 -2.402857E+04
       353   7 -1.017577E+06 -1.357611E+05 -1.453252E+05  3.156041E+04 -2.209141E+04 -2.839768E+04
       353   8 -9.690380E+05 -1.182507E+05 -1.210305E+05  2.093419E+04 -1.316932E+04 -2.661342E+04
       353   9 -9.231429E+05 -1.064657E+05 -1.039930E+05  2.846298E+04 -4.249913E+03 -2.402144E+04
       353  10  5.093026E+04  1.242290E+05  8.563492E+04  2.959802E+04 -3.919901E-09 -5.401793E-09
       353  11  4.870705E+03  1.185482E+05  8.852859E+04  2.205460E+04 -1.448897E-09  2.089324E-09
       353  12 -4.355486E+04  1.074211E+05  8.526778E+04  3.266446E+04 -3.044685E-09  2.491899E-09
       353  13 -4.834576E+05 -5.757139E+03 -2.983791E+04  3.057948E+04  1.357522E-09 -3.798355E-09
       353  14 -4.821954E+05  1.561290E+02 -1.624480E+04  2.149411E+04 -1.260206E-09 -2.014526E-10
       353  15 -4.834399E+05  4.837372E+02 -9.357498E+03  3.056299E+04  5.590300E-10 -1.908150E-09
       353  16 -1.017577E+06 -1.357621E+05 -1.453276E+05  3.155991E+04  3.377652E-09 -4.594717E-10
       353  17 -9.690384E+05 -1.182515E+05 -1.210321E+05  2.093391E+04  1.893417E-09  9.181271E-10
       353  18 -9.231431E+05 -1.064664E+05 -1.039941E+05  2.846289E+04  1.320783E-09  2.627611E-10
       353  19  5.093114E+04  1.242301E+05  8.563759E+04  2.959858E+04  2.478746E+04  2.840082E+04
       353  20  4.871222E+03  1.185490E+05  8.853049E+04  2.205497E+04  1.744082E+04  2.662188E+04
       353  21 -4.355459E+04  1.074218E+05  8.526906E+04  3.266465E+04  1.009810E+04  2.403572E+04
       353  22 -4.834568E+05 -5.756125E+03 -2.983537E+04  3.058001E+04  2.343887E+04  2.839925E+04
       353  23 -4.821949E+05  1.569525E+02 -1.624303E+04  2.149444E+04  1.530425E+04  2.661765E+04
       353  24 -4.834397E+05  4.843709E+02 -9.356316E+03  3.056313E+04  7.172987E+03  2.402857E+04
       353  25 -1.017577E+06 -1.357611E+05 -1.453252E+05  3.156041E+04  2.209141E+04  2.839768E+04
       353  26 -9.690380E+05 -1.182507E+05 -1.210305E+05  2.093419E+04  1.316932E+04  2.661342E+04
       353  27 -9.231429E+05 -1.064657E+05 -1.039930E+05  2.846298E+04  4.249913E+03  2.402144E+04
       354   1 -8.025789E+04  9.778231E+04  7.925188E+04  3.164708E+04 -8.427865E+03 -2.233506E+04
       354   2 -1.275565E+05  8.649846E+04  7.222292E+04  2.241041E+04 -6.449610E+03 -1.956085E+04
       354   3 -1.752571E+05  7.502862E+04  6.383566E+04  3.145866E+04 -4.472810E+03 -1.674506E+04
       354   4 -4.829673E+05 -7.099760E+01 -7.164416E+03  3.059710E+04 -5.722000E+03 -2.232816E+04
       354   5 -4.827562E+05  1.690585E+02 -4.088608E+03  2.145388E+04 -3.704119E+03 -1.955330E+04
       354   6 -4.829565E+05  2.161465E+02 -2.399294E+03  3.059622E+04 -1.687546E+03 -1.673685E+04
       354   7 -8.855241E+05 -9.793494E+04 -9.359015E+04  2.954770E+04 -3.017864E+03 -2.232128E+04
       354   8 -8.378373E+05 -8.616862E+04 -8.040749E+04  2.049782E+04 -9.601771E+02 -1.954577E+04
       354   9 -7.905669E+05 -7.460255E+04 -6.863978E+04  2.973413E+04  1.096356E+03 -1.672865E+04
       354  10 -8.025810E+04  9.778176E+04  7.925081E+04  3.164692E+04 -2.834306E-09  4.332373E-09
       354  11 -1.275566E+05  8.649804E+04  7.222212E+04  2.241031E+04  1.612663E-09  3.510857E-09
       354  12 -1.752571E+05  7.502832E+04  6.383510E+04  3.145860E+04  2.155468E-09 -9.097535E-10
       354  13 -4.829675E+05 -7.154162E+01 -7.165414E+03  3.059699E+04  1.923398E-09 -4.117451E-09
       354  14 -4.827563E+05  1.686444E+02 -4.089353E+03  2.145382E+04 -1.084135E-09  3.399161E-09
       354  15 -4.829566E+05  2.158450E+02 -2.399826E+03  3.059619E+04  5.265646E-10  5.898769E-09
       354  16 -8.855243E+05 -9.793547E+04 -9.359110E+04  2.954764E+04  2.275450E-09  2.309370E-09
       354  17 -8.378374E+05 -8.616903E+04 -8.040821E+04  2.049780E+04 -3.703218E-10  3.857110E-09
       354  18 -7.905670E+05 -7.460285E+04 -6.864031E+04  2.973415E+04 -4.511716E-09  2.846135E-09
       354  19 -8.025789E+04  9.778231E+04  7.925188E+04  3.164708E+04  8.427865E+03  2.233506E+04
       354  20 -1.275565E+05  8.649846E+04  7.222292E+04  2.241041E+04  6.449610E+03  1.956085E+04
       354  21 -1.752571E+05  7.502862E+04  6.383566E+04  3.145866E+04  4.472810E+03  1.674506E+04
       354  22 -4.829673E+05 -7.099760E+01 -7.164416E+03  3.059710E+04  5.722000E+03  2.232816E+04
       354  23 -4.827562E+05  1.690585E+02 -4.088608E+03  2.145388E+04  3.704119E+03  1.955330E+04
       354  24 -4.829565E+05  2.161465E+02 -2.399294E+03  3.059622E+04  1.687546E+03  1.673685E+04
       354  25 -8.855241E+05 -9.793494E+04 -9.359015E+04  2.954770E+04  3.017864E+03  2.232128E+04
       354  26 -8.378373E+05 -8.616862E+04 -8.040749E+04  2.049782E+04  9.601771E+02  1.954577E+04
       354  27 -7.905669E+05 -7.460255E+04 -6.863978E+04  2.973413E+04 -1.096356E+03  1.672865E+04
       355   1 -2.125394E+05  6.588200E+04  5.608637E+04  3.133668E+04 -4.085897E+03 -1.509693E+04
       355   2 -2.601332E+05  5.427787E+04  4.664590E+04  2.202209E+04 -3.509192E+03 -1.226887E+04
       355   3 -3.079084E+05  4.277489E+04  3.682319E+04  3.106514E+04 -2.933306E+03 -9.436193E+03
       355   4 -4.829014E+05  1.953582E+02 -1.867443E+03  3.061260E+04 -1.307512E+03 -1.508847E+04
       355   5 -4.828056E+05  1.550247E+02 -1.193108E+03  2.143355E+04 -7.266063E+02 -1.226006E+04
       355   6 -4.828949E+05  2.150280E+02 -9.041944E+02  3.061254E+04 -1.464765E+02 -9.427029E+03
       355   7 -7.531946E+05 -6.549607E+04 -5.982549E+04  2.988879E+04  1.469679E+03 -1.508002E+04
       355   8 -7.054314E+05 -5.397107E+04 -4.903498E+04  2.084519E+04  2.054995E+03 -1.225126E+04
       355   9 -6.578525E+05 -4.234685E+04 -3.863335E+04  3.016004E+04  2.639578E+03 -9.417869E+03
       355  10 -2.125395E+05  6.588175E+04  5.608591E+04  3.133663E+04  2.574905E-09 -1.178809E-09
       355  11 -2.601333E+05  5.427771E+04  4.664559E+04  2.202205E+04  1.379991E-10  8.543776E-09
       355  12 -3.079085E+05  4.277479E+04  3.682301E+04  3.106512E+04 -2.801479E-09  9.073467E-09
       355  13 -4.829015E+05  1.951134E+02 -1.867873E+03  3.061258E+04  1.688338E-09  1.396487E-09
       355  14 -4.828057E+05  1.548632E+02 -1.193391E+03  2.143354E+04 -1.492506E-09  7.686965E-09
       355  15 -4.828949E+05  2.149326E+02 -9.043614E+02  3.061254E+04 -4.475067E-10  7.094874E-10
       355  16 -7.531947E+05 -6.549631E+04 -5.982592E+04  2.988880E+04 -3.767647E-09  3.200493E-10
       355  17 -7.054314E+05 -5.397123E+04 -4.903527E+04  2.084521E+04  1.589926E-10 -1.912964E-09
       355  18 -6.578526E+05 -4.234694E+04 -3.863353E+04  3.016006E+04  1.488164E-10 -3.422621E-09
       355  19 -2.125394E+05  6.588200E+04  5.608637E+04  3.133668E+04  4.085897E+03  1.509693E+04
       355  20 -2.601332E+05  5.427787E+04  4.664590E+04  2.202209E+04  3.509192E+03  1.226887E+04
       355  21 -3.079084E+05  4.277489E+04  3.682319E+04  3.106514E+04  2.933306E+03  9.436193E+03
       355  22 -4.829014E+05  1.953582E+02 -1.867443E+03  3.061260E+04  1.307512E+03  1.508847E+04
       355  23 -4.828056E+05  1.550247E+02 -1.193108E+03  2.143355E+04  7.266063E+02  1.226006E+04
       355  24 -4.828949E+05  2.150280E+02 -9.041944E+02  3.061254E+04  1.464765E+02  9.427029E+03
       355  25 -7.531946E+05 -6.549607E+04 -5.982549E+04  2.988879E+04 -1.469679E+03  1.508002E+04
       355  26 -7.054314E+05 -5.397107E+04 -4.903498E+04  2.084519E+04 -2.054995E+03  1.225126E+04
       355  27 -6.578525E+05 -4.234685E+04 -3.863335E+04  3.016004E+04 -2.639578E+03  9.417869E+03
       356   1 -3.453546E+05  3.362195E+04  2.854811E+04  3.097364E+04 -2.779489E+03 -7.786121E+03
       356   2 -3.930428E+05  2.198331E+04  1.827775E+04  2.162739E+04 -2.291826E+03 -4.949277E+03
       356   3 -4.409192E+05  1.045168E+04  7.679664E+03  3.068093E+04 -1.804498E+03 -2.112080E+03
       356   4 -4.828934E+05  2.164039E+02 -8.707461E+02  3.062186E+04  8.930494E+00 -7.776805E+03
       356   5 -4.827972E+05  1.661289E+02 -1.006358E+03  2.142188E+04  4.967948E+02 -4.939828E+03
       356   6 -4.828908E+05  2.231401E+02 -1.469606E+03  3.062184E+04  9.843608E+02 -2.102488E+03
       356   7 -6.204142E+05 -3.319038E+04 -3.029067E+04  3.027014E+04  2.796741E+03 -7.767491E+03
       356   8 -5.725440E+05 -2.165158E+04 -2.029091E+04  2.121639E+04  3.285018E+03 -4.930379E+03
       356   9 -5.248608E+05 -1.000551E+04 -1.061895E+04  3.056276E+04  3.773034E+03 -2.092897E+03
       356  10 -3.453547E+05  3.362189E+04  2.854798E+04  3.097362E+04  6.709705E-09  2.700908E-09
       356  11 -3.930428E+05  2.198328E+04  1.827769E+04  2.162738E+04  2.684709E-09  8.450272E-10
       356  12 -4.409193E+05  1.045167E+04  7.679649E+03  3.068093E+04 -4.933200E-09 -2.403579E-09
       356  13 -4.828934E+05  2.163390E+02 -8.708597E+02  3.062186E+04  9.064706E-10  9.640396E-09
       356  14 -4.827972E+05  1.661026E+02 -1.006405E+03  2.142188E+04 -5.474491E-10  9.828210E-10
       356  15 -4.828909E+05  2.231351E+02 -1.469616E+03  3.062184E+04  1.126051E-10 -4.422402E-09
       356  16 -6.204143E+05 -3.319045E+04 -3.029080E+04  3.027016E+04 -8.268943E-09  2.758949E-09
       356  17 -5.725440E+05 -2.165161E+04 -2.029097E+04  2.121641E+04 -2.990876E-09 -1.956453E-09
       356  18 -5.248608E+05 -1.000552E+04 -1.061899E+04  3.056276E+04  2.390938E-09 -4.345148E-09
       356  19 -3.453546E+05  3.362195E+04  2.854811E+04  3.097364E+04  2.779489E+03  7.786121E+03
       356  20 -3.930428E+05  2.198331E+04  1.827775E+04  2.162739E+04  2.291826E+03  4.949277E+03
       356  21 -4.409192E+05  1.045168E+04  7.679664E+03  3.068093E+04  1.804498E+03  2.112080E+03
       356  22 -4.828934E+05  2.164039E+02 -8.707461E+02  3.062186E+04 -8.930494E+00  7.776805E+03
       356  23 -4.827972E+05  1.661289E+02 -1.006358E+03  2.142188E+04 -4.967948E+02  4.939828E+03
       356  24 -4.828908E+05  2.231401E+02 -1.469606E+03  3.062184E+04 -9.843608E+02  2.102488E+03
       356  25 -6.204142E+05 -3.319038E+04 -3.029067E+04  3.027014E+04 -2.796741E+03  7.767491E+03
       356  26 -5.725440E+05 -2.165158E+04 -2.029091E+04  2.121639E+04 -3.285018E+03  4.930379E+03
       356  27 -5.248608E+05 -1.000551E+04 -1.061895E+04  3.056276E+04 -3.773034E+03  2.092897E+03
       357   1 -4.784504E+05  1.303540E+03 -1.026133E+03  3.054004E+04 -1.515722E+03 -4.580566E+02
       357   2 -5.260527E+05 -1.033304E+04 -1.241793E+04  2.120285E+04  3.433826E+01  2.378792E+03
       357   3 -5.740390E+05 -2.208263E+04 -2.488529E+04  3.027015E+04  1.584494E+03  5.194979E+03
       357   4 -4.829333E+05  2.409692E+02 -1.857242E+03  3.062261E+04  1.278960E+03 -4.484228E+02
       357   5 -4.827429E+05  1.971605E+02 -3.107867E+03  2.142075E+04  2.808711E+03  2.388286E+03
       357   6 -4.829350E+05  4.404615E+01 -5.419765E+03  3.062330E+04  4.338673E+03  5.204342E+03
       357   7 -4.874162E+05 -8.215987E+02 -2.688322E+03  3.070518E+04  4.073623E+03 -4.387883E+02
       357   8 -4.394314E+05  1.072724E+04  6.202114E+03  2.163867E+04  5.583274E+03  2.397781E+03
       357   9 -3.918233E+05  2.217019E+04  1.404531E+04  3.097650E+04  7.093251E+03  5.213708E+03
       357  10 -4.784504E+05  1.303539E+03 -1.026138E+03  3.054004E+04 -4.462409E-09  3.503752E-09
       357  11 -5.260527E+05 -1.033305E+04 -1.241794E+04  2.120285E+04 -3.009795E-09  1.041108E-09
       357  12 -5.740390E+05 -2.208266E+04 -2.488535E+04  3.027015E+04 -4.329609E-09  2.148547E-09
       357  13 -4.829333E+05  2.409685E+02 -1.857245E+03  3.062261E+04  1.809290E-09 -2.313864E-10
       357  14 -4.827429E+05  1.971522E+02 -3.107892E+03  2.142075E+04 -3.780374E-10  3.809721E-09
       357  15 -4.829351E+05  4.401202E+01 -5.419851E+03  3.062329E+04  4.569420E-10  1.911995E-09
       357  16 -4.874162E+05 -8.216033E+02 -2.688353E+03  3.070518E+04  3.350684E-09  2.461022E-10
       357  17 -4.394314E+05  1.072723E+04  6.202044E+03  2.163866E+04  3.574581E-09 -9.556112E-09
       357  18 -3.918233E+05  2.217015E+04  1.404516E+04  3.097647E+04  2.770207E-09  9.330779E-10
       357  19 -4.784504E+05  1.303540E+03 -1.026133E+03  3.054004E+04  1.515722E+03  4.580566E+02
       357  20 -5.260527E+05 -1.033304E+04 -1.241793E+04  2.120285E+04 -3.433826E+01 -2.378792E+03
       357  21 -5.740390E+05 -2.208263E+04 -2.488529E+04  3.027015E+04 -1.584494E+03 -5.194979E+03
       357  22 -4.829333E+05  2.409692E+02 -1.857242E+03  3.062261E+04 -1.278960E+03  4.484228E+02
       357  23 -4.827429E+05  1.971605E+02 -3.107867E+03  2.142075E+04 -2.808711E+03 -2.388286E+03
       357  24 -4.829350E+05  4.404615E+01 -5.419765E+03  3.062330E+04 -4.338673E+03 -5.204342E+03
       357  25 -4.874162E+05 -8.215987E+02 -2.688322E+03  3.070518E+04 -4.073623E+03  4.387883E+02
       357  26 -4.394314E+05  1.072724E+04  6.202114E+03  2.163867E+04 -5.583274E+03 -2.397781E+03
       357  27 -3.918233E+05  2.217019E+04  1.404531E+04  3.097650E+04 -7.093251E+03 -5.213708E+03
       358   1 -6.118651E+05 -3.082612E+04 -3.483266E+04  2.941463E+04  2.557731E+03  6.881879E+03
       358   2 -6.585672E+05 -4.266020E+04 -5.021568E+04  2.131882E+04  9.121819E+03  9.607165E+03
       358   3 -7.073282E+05 -5.874601E+04 -7.097265E+04  3.158892E+04  1.568727E+04  1.189089E+04
       358   4 -4.832930E+05  4.649269E+02 -7.070943E+03  3.061030E+04  5.433460E+03  6.891556E+03
       358   5 -4.823040E+05  2.062507E+02 -1.225619E+04  2.143528E+04  1.156489E+04  9.615113E+03
       358   6 -4.833006E+05 -4.228162E+03 -2.251356E+04  3.062594E+04  1.769818E+04  1.189715E+04
       358   7 -3.547054E+05  3.175490E+04  2.068983E+04  3.180621E+04  8.309776E+03  6.901242E+03
       358   8 -3.060115E+05  4.307066E+04  2.570149E+04  2.155174E+04  1.400865E+04  9.623061E+03
       358   9 -2.592259E+05  5.028638E+04  2.594257E+04  2.966257E+04  1.970982E+04  1.190341E+04
       358  10 -6.118651E+05 -3.082618E+04 -3.483276E+04  2.941461E+04 -3.991570E-09  7.513664E-09
       358  11 -6.585673E+05 -4.266032E+04 -5.021601E+04  2.131875E+04  8.417175E-10  1.131567E-09
       358  12 -7.073285E+05 -5.874623E+04 -7.097338E+04  3.158877E+04  2.536921E-09  3.679173E-09
       358  13 -4.832931E+05  4.648680E+02 -7.071088E+03  3.061027E+04  1.803347E-09  3.031892E-09
       358  14 -4.823041E+05  2.061155E+02 -1.225662E+04  2.143519E+04 -3.589166E-10  5.249440E-09
       358  15 -4.833010E+05 -4.228398E+03 -2.251442E+04  3.062577E+04  1.061517E-09 -3.583207E-09
       358  16 -3.547055E+05  3.175483E+04  2.068961E+04  3.180616E+04  3.307725E-09  1.982397E-09
       358  17 -3.060118E+05  4.307051E+04  2.570095E+04  2.155163E+04  1.003336E-09 -3.202309E-09
       358  18 -2.592263E+05  5.028612E+04  2.594157E+04  2.966239E+04 -5.220781E-09 -5.768288E-09
       358  19 -6.118651E+05 -3.082612E+04 -3.483266E+04  2.941463E+04 -2.557731E+03 -6.881879E+03
       358  20 -6.585672E+05 -4.266020E+04 -5.021568E+04  2.131882E+04 -9.121819E+03 -9.607165E+03
       358  21 -7.073282E+05 -5.874601E+04 -7.097265E+04  3.158892E+04 -1.568727E+04 -1.189089E+04
       358  22 -4.832930E+05  4.649269E+02 -7.070943E+03  3.061030E+04 -5.433460E+03 -6.891556E+03
       358  23 -4.823040E+05  2.062507E+02 -1.225619E+04  2.143528E+04 -1.156489E+04 -9.615113E+03
       358  24 -4.833006E+05 -4.228162E+03 -2.251356E+04  3.062594E+04 -1.769818E+04 -1.189715E+04
       358  25 -3.547054E+05  3.175490E+04  2.068983E+04  3.180621E+04 -8.309776E+03 -6.901242E+03
       358  26 -3.060115E+05  4.307066E+04  2.570149E+04  2.155174E+04 -1.400865E+04 -9.623061E+03
       358  27 -2.592259E+05  5.028638E+04  2.594257E+04  2.966257E+04 -1.970982E+04 -1.190341E+04
       359   1 -7.497202E+05 -5.950293E+04 -8.481243E+04  1.734440E+04  1.698736E+04  1.425964E+04
       359   2 -7.848064E+05 -7.708760E+04 -1.170262E+05  3.684993E+04  5.223568E+04  1.434560E+04
       359   3 -8.454080E+05 -1.778852E+05 -1.930325E+05  7.437868E+04  8.751029E+04  4.861526E+03
       359   4 -4.881642E+05  4.215505E+03 -2.845543E+04  3.046986E+04  2.167089E+04  1.427475E+04
       359   5 -4.762440E+05 -1.831124E+03 -4.893724E+04  2.160331E+04  4.751999E+04  1.432891E+04
       359   6 -4.881951E+05 -8.943748E+04 -1.066667E+05  3.076197E+04  7.339849E+04  4.811952E+03
       359   7 -2.265436E+05  6.793006E+04  2.789770E+04  4.360088E+04  2.635638E+04  1.429004E+04
       359   8 -1.675920E+05  7.341987E+04  1.914607E+04  6.348948E+03  4.280198E+04  1.431246E+04
       359   9 -1.308609E+05 -9.916773E+02 -2.030826E+04 -1.288003E+04  5.927857E+04  4.764380E+03
       359  10 -7.497205E+05 -5.950322E+04 -8.481335E+04  1.734420E+04 -2.036129E-09  6.979062E-10
       359  11 -7.848094E+05 -7.708856E+04 -1.170317E+05  3.684932E+04  1.045269E-09 -2.849279E-09
       359  12 -8.454162E+05 -1.778873E+05 -1.930470E+05  7.437834E+04  1.051025E-09 -5.230834E-10
       359  13 -4.881648E+05  4.215160E+03 -2.845670E+04  3.046961E+04  1.914874E-09  6.221244E-09
       359  14 -4.762465E+05 -1.831952E+03 -4.894187E+04  2.160276E+04  3.226088E-10 -8.427043E-09
       359  15 -4.882009E+05 -8.943895E+04 -1.066769E+05  3.076168E+04  9.717613E-10  5.123265E-09
       359  16 -2.265444E+05  6.792966E+04  2.789601E+04  4.360058E+04  1.276202E-09  3.937890E-09
       359  17 -1.675940E+05  7.341916E+04  1.914224E+04  6.348455E+03 -7.144186E-10  1.861860E-09
       359  18 -1.308647E+05 -9.926453E+02 -2.031491E+04 -1.288026E+04 -2.856345E-09 -1.222020E-09
       359  19 -7.497202E+05 -5.950293E+04 -8.481243E+04  1.734440E+04 -1.698736E+04 -1.425964E+04
       359  20 -7.848064E+05 -7.708760E+04 -1.170262E+05  3.684993E+04 -5.223568E+04 -1.434560E+04
       359  21 -8.454080E+05 -1.778852E+05 -1.930325E+05  7.437868E+04 -8.751029E+04 -4.861526E+03
       359  22 -4.881642E+05  4.215505E+03 -2.845543E+04  3.046986E+04 -2.167089E+04 -1.427475E+04
       359  23 -4.762440E+05 -1.831124E+03 -4.893724E+04  2.160331E+04 -4.751999E+04 -1.432891E+04
       359  24 -4.881951E+05 -8.943748E+04 -1.066667E+05  3.076197E+04 -7.339849E+04 -4.811952E+03
       359  25 -2.265436E+05  6.793006E+04  2.789770E+04  4.360088E+04 -2.635638E+04 -1.429004E+04
       359  26 -1.675920E+05  7.341987E+04  1.914607E+04  6.348948E+03 -4.280198E+04 -1.431246E+04
       359  27 -1.308609E+05 -9.916773E+02 -2.030826E+04 -1.288003E+04 -5.927857E+04 -4.764380E+03
       360   1  3.900367E+05  1.956350E+06  4.056216E+05 -2.643096E+05  1.196655E+04  1.279069E+05
       360   2  1.972450E+05  1.637614E+06  2.443096E+05 -1.699769E+05  3.445155E+04  6.174980E+04
       360   3  1.167924E+05  1.355142E+06  1.539788E+05 -1.895794E+05  2.614695E+04 -4.444653E+03
       360   4  1.171543E+05  8.581064E+05  1.393153E+05 -2.041977E+05  1.206956E+04  9.062370E+04
       360   5  3.096809E+03  8.427122E+05  6.802079E+04 -1.473842E+05  3.447469E+04  5.489027E+04
       360   6 -3.805719E+03  8.582951E+05  4.668910E+04 -2.044958E+05  2.608048E+04  1.908650E+04
       360   7 -1.558026E+05 -2.390281E+05 -1.270710E+05 -1.441913E+05  1.216547E+04  5.340597E+04
       360   8 -1.910921E+05  4.839988E+04 -1.083068E+05 -1.248202E+05  3.449735E+04  4.803938E+04
       360   9 -1.244189E+05  3.616808E+05 -6.061291E+04 -2.194000E+05  2.601285E+04  4.259911E+04
       360  10  3.900322E+05  1.956332E+06  4.055907E+05 -2.643108E+05 -2.264597E-10 -1.866167E-09
       360  11  1.972427E+05  1.637609E+06  2.443002E+05 -1.699786E+05 -1.625734E-09 -7.195177E-09
       360  12  1.167916E+05  1.355142E+06  1.539774E+05 -1.895793E+05  3.029763E-10 -5.038723E-09
       360  13  1.171520E+05  8.580975E+05  1.392996E+05 -2.041986E+05  4.587211E-12  1.932208E-09
       360  14  3.094724E+03  8.427086E+05  6.801290E+04 -1.473857E+05 -7.063414E-10 -5.214246E-09
       360  15 -3.806548E+03  8.582945E+05  4.668714E+04 -2.044962E+05 -1.005264E-09  3.627556E-09
       360  16 -1.558035E+05 -2.390312E+05 -1.270767E+05 -1.441919E+05 -2.605195E-10  2.339057E-09
       360  17 -1.910940E+05  4.839709E+04 -1.083134E+05 -1.248215E+05 -6.182810E-10  2.135695E-09
       360  18 -1.244201E+05  3.616786E+05 -6.061759E+04 -2.194009E+05 -2.625778E-09  1.760907E-09
       360  19  3.900367E+05  1.956350E+06  4.056216E+05 -2.643096E+05 -1.196655E+04 -1.279069E+05
       360  20  1.972450E+05  1.637614E+06  2.443096E+05 -1.699769E+05 -3.445155E+04 -6.174980E+04
       360  21  1.167924E+05  1.355142E+06  1.539788E+05 -1.895794E+05 -2.614695E+04  4.444653E+03
       360  22  1.171543E+05  8.581064E+05  1.393153E+05 -2.041977E+05 -1.206956E+04 -9.062370E+04
       360  23  3.096809E+03  8.427122E+05  6.802079E+04 -1.473842E+05 -3.447469E+04 -5.489027E+04
       360  24 -3.805719E+03  8.582951E+05  4.668910E+04 -2.044958E+05 -2.608048E+04 -1.908650E+04
       360  25 -1.558026E+05 -2.390281E+05 -1.270710E+05 -1.441913E+05 -1.216547E+04 -5.340597E+04
       360  26 -1.910921E+05  4.839988E+04 -1.083068E+05 -1.248202E+05 -3.449735E+04 -4.803938E+04
       360  27 -1.244189E+05  3.616808E+05 -6.061291E+04 -2.194000E+05 -2.601285E+04 -4.259911E+04
       361   1  6.978930E+04  1.113399E+06  9.897396E+04 -2.089661E+05  1.336628E+04 -3.451008E+03
       361   2 -8.917500E+03  8.106675E+05  3.109541E+04 -1.467960E+05 -2.062859E+03 -2.321971E+04
       361   3 -7.300719E+04  5.135047E+05 -2.045683E+04 -1.998625E+05 -1.739998E+04 -4.297831E+04
       361   4  6.360818E+03  8.526643E+05  4.241537E+04 -2.047123E+05  1.332132E+04  1.184941E+04
       361   5  6.129876E+02  8.499105E+05  3.953169E+04 -1.470908E+05 -2.107032E+03 -8.011281E+03
       361   6  9.502939E+03  8.526544E+05  5.304133E+04 -2.047032E+05 -1.744340E+04 -2.787108E+04
       361   7 -5.707197E+04  5.919942E+05 -1.414639E+04 -2.004604E+05  1.327656E+04  2.714350E+04
       361   8  1.014350E+04  8.891554E+05  4.796874E+04 -1.473856E+05 -2.151218E+03  7.198097E+03
       361   9  9.200567E+04  1.191912E+06  1.265335E+05 -2.095464E+05 -1.748705E+04 -1.275571E+04
       361  10  6.978910E+04  1.113399E+06  9.897360E+04 -2.089660E+05 -4.879972E-10 -4.450189E-09
       361  11 -8.917649E+03  8.106670E+05  3.109440E+04 -1.467960E+05  1.818944E-09 -9.261846E-09
       361  12 -7.300801E+04  5.135027E+05 -2.046086E+04 -1.998631E+05 -8.271879E-10 -5.719041E-09
       361  13  6.360589E+03  8.526641E+05  4.241477E+04 -2.047125E+05 -1.747409E-10  2.782177E-09
       361  14  6.129656E+02  8.499104E+05  3.953156E+04 -1.470908E+05  1.665824E-09 -6.087345E-09
       361  15  9.502403E+03  8.526535E+05  5.303930E+04 -2.047036E+05  2.094960E-09  3.393917E-09
       361  16 -5.707236E+04  5.919934E+05 -1.414810E+04 -2.004607E+05 -1.369165E-09  4.338817E-09
       361  17  1.014348E+04  8.891554E+05  4.796863E+04 -1.473856E+05 -1.103805E-09  3.731936E-09
       361  18  9.200530E+04  1.191912E+06  1.265326E+05 -2.095466E+05 -5.828148E-10  2.455762E-09
       361  19  6.978930E+04  1.113399E+06  9.897396E+04 -2.089661E+05 -1.336628E+04  3.451008E+03
       361  20 -8.917500E+03  8.106675E+05  3.109541E+04 -1.467960E+05  2.062859E+03  2.321971E+04
       361  21 -7.300719E+04  5.135047E+05 -2.045683E+04 -1.998625E+05  1.739998E+04  4.297831E+04
       361  22  6.360818E+03  8.526643E+05  4.241537E+04 -2.047123E+05 -1.332132E+04 -1.184941E+04
       361  23  6.129876E+02  8.499105E+05  3.953169E+04 -1.470908E+05  2.107032E+03  8.011281E+03
       361  24  9.502939E+03  8.526544E+05  5.304133E+04 -2.047032E+05  1.744340E+04  2.787108E+04
       361  25 -5.707197E+04  5.919942E+05 -1.414639E+04 -2.004604E+05 -1.327656E+04 -2.714350E+04
       361  26  1.014350E+04  8.891554E+05  4.796874E+04 -1.473856E+05  2.151218E+03 -7.198097E+03
       361  27  9.200567E+04  1.191912E+06  1.265335E+05 -2.095464E+05  1.748705E+04  1.275571E+04
       362   1 -1.463136E+05  2.866431E+05 -6.160179E+04 -2.278157E+05 -3.027297E+04 -6.100793E+04
       362   2 -2.089732E+05 -3.449951E+04 -9.395755E+04 -1.139798E+05 -3.814173E+04 -8.118786E+04
       362   3 -1.147843E+05 -3.140724E+05 -7.404204E+04 -1.139747E+05 -1.320002E+04 -1.012838E+05
       362   4 -6.671657E+03  8.618421E+05  6.256339E+04 -2.045001E+05 -3.034159E+04 -3.710177E+04
       362   5  4.407864E+03  8.382285E+05  9.960013E+04 -1.473803E+05 -3.811223E+04 -8.963144E+04
       362   6  1.778144E+05  8.616146E+05  2.112898E+05 -2.040569E+05 -1.308942E+04 -1.420886E+05
       362   7  1.329509E+05  1.437354E+06  1.867115E+05 -1.811623E+05 -3.040839E+04 -1.317377E+04
       362   8  2.177416E+05  1.711669E+06  2.931114E+05 -1.808277E+05 -3.808185E+04 -9.808668E+04
       362   9  4.703424E+05  2.038584E+06  4.965323E+05 -2.943094E+05 -1.296710E+04 -1.829702E+05
       362  10 -1.463156E+05  2.866389E+05 -6.161051E+04 -2.278171E+05  4.110822E-10 -4.035639E-09
       362  11 -2.089765E+05 -3.450698E+04 -9.397267E+04 -1.139823E+05  1.563293E-09 -7.306433E-09
       362  12 -1.147872E+05 -3.140834E+05 -7.406165E+04 -1.139758E+05  1.169923E-10 -1.972862E-09
       362  13 -6.673016E+03  8.618404E+05  6.255908E+04 -2.045010E+05 -1.679488E-09  2.831956E-09
       362  14  4.404150E+03  8.382195E+05  9.958232E+04 -1.473830E+05  2.805294E-09 -5.770397E-09
       362  15  1.778088E+05  8.615929E+05  2.112516E+05 -2.040584E+05 -8.296105E-11  2.843535E-09
       362  16  1.329499E+05  1.437354E+06  1.867095E+05 -1.811626E+05  8.610215E-10  3.679026E-09
       362  17  2.177374E+05  1.711659E+06  2.930906E+05 -1.808307E+05  1.344697E-09  2.218404E-09
       362  18  4.703332E+05  2.038548E+06  4.964693E+05 -2.943113E+05 -1.520133E-10  1.178814E-10
       362  19 -1.463136E+05  2.866431E+05 -6.160179E+04 -2.278157E+05  3.027297E+04  6.100793E+04
       362  20 -2.089732E+05 -3.449951E+04 -9.395755E+04 -1.139798E+05  3.814173E+04  8.118786E+04
       362  21 -1.147843E+05 -3.140724E+05 -7.404204E+04 -1.139747E+05  1.320002E+04  1.012838E+05
       362  22 -6.671657E+03  8.618421E+05  6.256339E+04 -2.045001E+05  3.034159E+04  3.710177E+04
       362  23  4.407864E+03  8.382285E+05  9.960013E+04 -1.473803E+05  3.811223E+04  8.963144E+04
       362  24  1.778144E+05  8.616146E+05  2.112898E+05 -2.040569E+05  1.308942E+04  1.420886E+05
       362  25  1.329509E+05  1.437354E+06  1.867115E+05 -1.811623E+05  3.040839E+04  1.317377E+04
       362  26  2.177416E+05  1.711669E+06  2.931114E+05 -1.808277E+05  3.808185E+04  9.808668E+04
       362  27  4.703424E+05  2.038584E+06  4.965323E+05 -2.943094E+05  1.296710E+04  1.829702E+05
       363   1  5.928716E+05  2.089937E+05  1.209461E+05  1.914453E+05  7.453995E+03 -6.612528E+03
       363   2  5.568850E+05  2.131590E+05  1.142651E+05  1.726749E+05  6.438758E+03 -2.743267E+04
       363   3  5.028921E+05  2.097338E+05  1.080038E+05  1.729675E+05 -6.919530E+02 -3.204346E+04
       363   4  1.432758E+04  1.937173E+03 -3.069803E+04  4.431763E+04 -1.650119E+04 -1.565350E+04
       363   5  2.650931E+04  1.904416E+04 -1.340468E+04  3.032272E+04 -2.572640E+03 -3.083738E+04
       363   6  1.771504E+04  2.559121E+04 -7.536328E+03  3.539366E+04  5.237240E+03 -2.980530E+04
       363   7 -5.638817E+05 -2.051026E+05 -1.823648E+05 -1.026870E+05 -4.043136E+04 -2.468612E+04
       363   8 -5.035829E+05 -1.750514E+05 -1.410931E+05 -1.119186E+05 -1.157555E+04 -3.423903E+04
       363   9 -4.672273E+05 -1.585315E+05 -1.230930E+05 -1.020812E+05  1.116139E+04 -2.756913E+04
       363  10  5.928715E+05  2.089936E+05  1.209460E+05  1.914453E+05 -1.125306E-09 -3.696972E-10
       363  11  5.568847E+05  2.131582E+05  1.142636E+05  1.726750E+05 -2.596138E-09 -1.774350E-09
       363  12  5.028919E+05  2.097327E+05  1.080018E+05  1.729675E+05  8.394325E-10  1.374621E-09
       363  13  1.432723E+04  1.936836E+03 -3.069900E+04  4.431742E+04 -1.104650E-09  4.422788E-09
       363  14  2.650905E+04  1.904314E+04 -1.340647E+04  3.032266E+04 -2.568030E-09 -1.178713E-09
       363  15  1.771477E+04  2.559025E+04 -7.538048E+03  3.539379E+04 -1.773157E-09 -4.512098E-09
       363  16 -5.638836E+05 -2.051037E+05 -1.823690E+05 -1.026878E+05 -2.909001E-09  2.773822E-10
       363  17 -5.035833E+05 -1.750527E+05 -1.410956E+05 -1.119189E+05 -3.770571E-09 -6.432023E-09
       363  18 -4.672277E+05 -1.585324E+05 -1.230947E+05 -1.020809E+05 -2.701042E-09 -3.511542E-09
       363  19  5.928716E+05  2.089937E+05  1.209461E+05  1.914453E+05 -7.453995E+03  6.612528E+03
       363  20  5.568850E+05  2.131590E+05  1.142651E+05  1.726749E+05 -6.438758E+03  2.743267E+04
       363  21  5.028921E+05  2.097338E+05  1.080038E+05  1.729675E+05  6.919530E+02  3.204346E+04
       363  22  1.432758E+04  1.937173E+03 -3.069803E+04  4.431763E+04  1.650119E+04  1.565350E+04
       363  23  2.650931E+04  1.904416E+04 -1.340468E+04  3.032272E+04  2.572640E+03  3.083738E+04
       363  24  1.771504E+04  2.559121E+04 -7.536328E+03  3.539366E+04 -5.237240E+03  2.980530E+04
       363  25 -5.638817E+05 -2.051026E+05 -1.823648E+05 -1.026870E+05  4.043136E+04  2.468612E+04
       363  26 -5.035829E+05 -1.750514E+05 -1.410931E+05 -1.119186E+05  1.157555E+04  3.423903E+04
       363  27 -4.672273E+05 -1.585315E+05 -1.230930E+05 -1.020812E+05 -1.116139E+04  2.756913E+04
       364   1  4.728038E+05  1.925603E+05  1.022798E+05  1.619965E+05  3.928634E+03 -2.699258E+04
       364   2  4.380493E+05  1.726318E+05  9.494524E+04  1.436586E+05  4.209072E+03 -2.503452E+04
       364   3  3.905387E+05  1.638383E+05  8.665173E+04  1.395197E+05  4.214374E+03 -2.235262E+04
       364   4  1.855070E+04  2.358512E+04 -5.948416E+03  3.688283E+04  5.091841E+03 -2.655469E+04
       364   5  2.509493E+04  1.874397E+04 -3.077131E+03  2.953574E+04  6.038807E+03 -2.434416E+04
       364   6  1.874911E+04  2.490568E+04 -1.693739E+03  3.638781E+04  6.710617E+03 -2.140952E+04
       364   7 -4.355003E+05 -1.453763E+05 -1.141921E+05 -8.814829E+04  6.254129E+03 -2.611713E+04
       364   8 -3.876913E+05 -1.351319E+05 -1.011120E+05 -8.451832E+04  7.867225E+03 -2.365430E+04
       364   9 -3.529033E+05 -1.140167E+05 -9.004909E+04 -6.668786E+04  9.205234E+03 -2.046704E+04
       364  10  4.728036E+05  1.925595E+05  1.022784E+05  1.619965E+05  2.584531E-09 -2.986184E-09
       364  11  4.380492E+05  1.726311E+05  9.494403E+04  1.436587E+05 -2.702183E-09  1.408082E-09
       364  12  3.905386E+05  1.638378E+05  8.665076E+04  1.395198E+05 -8.048986E-09  3.629290E-09
       364  13  1.855048E+04  2.358436E+04 -5.949790E+03  3.688294E+04  9.862494E-10 -5.089355E-09
       364  14  2.509473E+04  1.874332E+04 -3.078313E+03  2.953586E+04  2.153475E-09 -7.867189E-10
       364  15  1.874894E+04  2.490518E+04 -1.694685E+03  3.638792E+04 -2.386048E-09  3.420574E-09
       364  16 -4.355005E+05 -1.453770E+05 -1.141935E+05 -8.814816E+04 -7.406155E-10 -3.308089E-09
       364  17 -3.876915E+05 -1.351325E+05 -1.011132E+05 -8.451817E+04  1.720495E-09  1.285235E-11
       364  18 -3.529035E+05 -1.140172E+05 -9.005004E+04 -6.668770E+04  4.466804E-09 -1.405576E-09
       364  19  4.728038E+05  1.925603E+05  1.022798E+05  1.619965E+05 -3.928634E+03  2.699258E+04
       364  20  4.380493E+05  1.726318E+05  9.494524E+04  1.436586E+05 -4.209072E+03  2.503452E+04
       364  21  3.905387E+05  1.638383E+05  8.665173E+04  1.395197E+05 -4.214374E+03  2.235262E+04
       364  22  1.855070E+04  2.358512E+04 -5.948416E+03  3.688283E+04 -5.091841E+03  2.655469E+04
       364  23  2.509493E+04  1.874397E+04 -3.077131E+03  2.953574E+04 -6.038807E+03  2.434416E+04
       364  24  1.874911E+04  2.490568E+04 -1.693739E+03  3.638781E+04 -6.710617E+03  2.140952E+04
       364  25 -4.355003E+05 -1.453763E+05 -1.141921E+05 -8.814829E+04 -6.254129E+03  2.611713E+04
       364  26 -3.876913E+05 -1.351319E+05 -1.011120E+05 -8.451832E+04 -7.867225E+03  2.365430E+04
       364  27 -3.529033E+05 -1.140167E+05 -9.004909E+04 -6.668786E+04 -9.205234E+03  2.046704E+04
       365   1  3.574929E+05  1.511400E+05  7.893539E+04  1.302499E+05  4.084840E+03 -2.064442E+04
       365   2  3.227483E+05  1.298513E+05  6.994633E+04  1.119588E+05  3.455986E+03 -1.803439E+04
       365   3  2.756739E+05  1.207939E+05  6.071459E+04  1.076000E+05  2.813985E+03 -1.539275E+04
       365   4  1.882299E+04  2.479979E+04 -1.282386E+03  3.647360E+04  6.367373E+03 -1.978179E+04
       365   5  2.500234E+04  1.873044E+04 -6.853854E+02  2.949279E+04  5.767588E+03 -1.716026E+04
       365   6  1.884381E+04  2.488689E+04 -3.543326E+02  3.644432E+04  5.154673E+03 -1.450710E+04
       365   7 -3.197311E+05 -1.015313E+05 -8.150780E+04 -5.725566E+04  8.648540E+03 -1.891968E+04
       365   8 -2.726555E+05 -9.238392E+04 -7.132340E+04 -5.293720E+04  8.077984E+03 -1.628659E+04
       365   9 -2.379221E+05 -7.101573E+04 -6.142833E+04 -3.468489E+04  7.494318E+03 -1.362183E+04
       365  10  3.574928E+05  1.511395E+05  7.893456E+04  1.302500E+05  5.517108E-09  1.090049E-08
       365  11  3.227482E+05  1.298510E+05  6.994570E+04  1.119589E+05 -8.993430E-09  3.623237E-09
       365  12  2.756739E+05  1.207936E+05  6.071413E+04  1.076000E+05 -2.291177E-08 -1.079818E-09
       365  13  1.882284E+04  2.479936E+04 -1.283198E+03  3.647370E+04 -2.440997E-09  3.264352E-09
       365  14  2.500223E+04  1.873011E+04 -6.860013E+02  2.949287E+04  3.641140E-09 -8.643611E-09
       365  15  1.884372E+04  2.488666E+04 -3.547780E+02  3.644438E+04  5.444339E-10  2.897301E-09
       365  16 -3.197313E+05 -1.015317E+05 -8.150861E+04 -5.725553E+04 -8.551020E-09 -4.073613E-09
       365  17 -2.726556E+05 -9.238422E+04 -7.132402E+04 -5.293709E+04  8.119209E-09  9.389921E-09
       365  18 -2.379223E+05 -7.101595E+04 -6.142879E+04 -3.468481E+04  2.445216E-08  9.162447E-09
       365  19  3.574929E+05  1.511400E+05  7.893539E+04  1.302499E+05 -4.084840E+03  2.064442E+04
       365  20  3.227483E+05  1.298513E+05  6.994633E+04  1.119588E+05 -3.455986E+03  1.803439E+04
       365  21  2.756739E+05  1.207939E+05  6.071459E+04  1.076000E+05 -2.813985E+03  1.539275E+04
       365  22  1.882299E+04  2.479979E+04 -1.282386E+03  3.647360E+04 -6.367373E+03  1.978179E+04
       365  23  2.500234E+04  1.873044E+04 -6.853854E+02  2.949279E+04 -5.767588E+03  1.716026E+04
       365  24  1.884381E+04  2.488689E+04 -3.543326E+02  3.644432E+04 -5.154673E+03  1.450710E+04
       365  25 -3.197311E+05 -1.015313E+05 -8.150780E+04 -5.725566E+04 -8.648540E+03  1.891968E+04
       365  26 -2.726555E+05 -9.238392E+04 -7.132340E+04 -5.293720E+04 -8.077984E+03  1.628659E+04
       365  27 -2.379221E+05 -7.101573E+04 -6.142833E+04 -3.468489E+04 -7.494318E+03  1.362183E+04
       366   1  2.424646E+05  1.083400E+05  5.265840E+04  9.841656E+04  2.314986E+03 -1.389416E+04
       366   2  2.077377E+05  8.697307E+04  4.326563E+04  8.013085E+04  1.400447E+03 -1.134867E+04
       366   3  1.607177E+05  7.790085E+04  3.384235E+04  7.575625E+04  4.848617E+02 -8.802254E+03
       366   4  1.885385E+04  2.488304E+04 -2.500317E+02  3.644817E+04  4.645712E+03 -1.301202E+04
       366   5  2.500493E+04  1.874393E+04 -8.782289E+01  2.949084E+04  3.732037E+03 -1.046589E+04
       366   6  1.886067E+04  2.489921E+04  4.307093E+01  3.644404E+04  2.817316E+03 -7.918834E+03
       366   7 -2.047072E+05 -5.857017E+04 -5.316197E+04 -2.549987E+04  6.975524E+03 -1.213022E+04
       366   8 -1.576941E+05 -4.948254E+04 -4.344349E+04 -2.113544E+04  6.062873E+03 -9.583399E+03
       366   9 -1.229756E+05 -2.810064E+04 -3.375742E+04 -2.859771E+03  5.149178E+03 -7.035639E+03
       366  10  2.424646E+05  1.083398E+05  5.265802E+04  9.841659E+04  1.564281E-08  1.157893E-08
       366  11  2.077377E+05  8.697293E+04  4.326539E+04  8.013086E+04  8.197797E-09  7.543780E-09
       366  12  1.607177E+05  7.790077E+04  3.384221E+04  7.575625E+04 -1.024902E-10 -2.441531E-09
       366  13  1.885378E+04  2.488285E+04 -2.503905E+02  3.644822E+04  5.450563E-10  4.683576E-09
       366  14  2.500489E+04  1.874381E+04 -8.805491E+01  2.949087E+04  2.764537E-09  8.720291E-09
       366  15  1.886065E+04  2.489914E+04  4.293817E+01  3.644406E+04  7.345156E-10  5.055091E-10
       366  16 -2.047073E+05 -5.857034E+04 -5.316234E+04 -2.549980E+04 -1.531583E-08 -2.214200E-09
       366  17 -1.576942E+05 -4.948265E+04 -4.344374E+04 -2.113539E+04 -8.163492E-09  2.627793E-09
       366  18 -1.229756E+05 -2.810070E+04 -3.375757E+04 -2.859742E+03  1.139046E-09 -3.237791E-09
       366  19  2.424646E+05  1.083400E+05  5.265840E+04  9.841656E+04 -2.314986E+03  1.389416E+04
       366  20  2.077377E+05  8.697307E+04  4.326563E+04  8.013085E+04 -1.400447E+03  1.134867E+04
       366  21  1.607177E+05  7.790085E+04  3.384235E+04  7.575625E+04 -4.848617E+02  8.802254E+03
       366  22  1.885385E+04  2.488304E+04 -2.500317E+02  3.644817E+04 -4.645712E+03  1.301202E+04
       366  23  2.500493E+04  1.874393E+04 -8.782289E+01  2.949084E+04 -3.732037E+03  1.046589E+04
       366  24  1.886067E+04  2.489921E+04  4.307093E+01  3.644404E+04 -2.817316E+03  7.918834E+03
       366  25 -2.047072E+05 -5.857017E+04 -5.316197E+04 -2.549987E+04 -6.975524E+03  1.213022E+04
       366  26 -1.576941E+05 -4.948254E+04 -4.344349E+04 -2.113544E+04 -6.062873E+03  9.583399E+03
       366  27 -1.229756E+05 -2.810064E+04 -3.375742E+04 -2.859771E+03 -5.149178E+03  7.035639E+03
       367   1  1.275145E+05  6.545688E+04  2.574643E+04  6.657652E+04 -8.526657E+01 -7.333970E+03
       367   2  9.279392E+04  4.407850E+04  1.636430E+04  4.829317E+04 -1.180930E+03 -4.855831E+03
       367   3  4.579685E+04  3.500928E+04  7.086106E+03  4.391920E+04 -2.276467E+03 -2.378666E+03
       367   4  1.886672E+04  2.490042E+04  1.077423E+02  3.644556E+04  2.246706E+03 -6.450599E+03
       367   5  2.500657E+04  1.874921E+04  2.776766E+02  2.949001E+04  1.150136E+03 -3.972684E+03
       367   6  1.886923E+04  2.490761E+04  5.525318E+02  3.644349E+04  5.368150E+01 -1.495745E+03
       367   7 -8.976995E+04 -1.565538E+04 -2.553192E+04  6.319250E+03  4.578247E+03 -5.567391E+03
       367   8 -4.277639E+04 -6.579809E+03 -1.580930E+04  1.068866E+04  3.480932E+03 -3.089641E+03
       367   9 -8.057663E+03  1.480600E+04 -5.981074E+03  2.896808E+04  2.383720E+03 -6.128652E+02
       367  10  1.275145E+05  6.545682E+04  2.574633E+04  6.657652E+04 -7.280231E-10 -9.056224E-09
       367  11  9.279391E+04  4.407848E+04  1.636425E+04  4.829317E+04  7.923428E-10 -2.866006E-09
       367  12  4.579684E+04  3.500928E+04  7.086086E+03  4.391920E+04  1.288061E-09 -4.836952E-09
       367  13  1.886670E+04  2.490037E+04  1.076546E+02  3.644557E+04  1.351677E-09 -1.785556E-09
       367  14  2.500657E+04  1.874919E+04  2.776445E+02  2.949001E+04 -8.193357E-11  5.775596E-10
       367  15  1.886923E+04  2.490761E+04  5.525275E+02  3.644349E+04 -4.135220E-11  1.235433E-09
       367  16 -8.976998E+04 -1.565542E+04 -2.553201E+04  6.319271E+03  3.551457E-09  3.038587E-09
       367  17 -4.277640E+04 -6.579823E+03 -1.580935E+04  1.068867E+04  3.106112E-09 -1.271406E-10
       367  18 -8.057669E+03  1.480600E+04 -5.981086E+03  2.896808E+04  1.619194E-09 -8.062122E-09
       367  19  1.275145E+05  6.545688E+04  2.574643E+04  6.657652E+04  8.526657E+01  7.333970E+03
       367  20  9.279392E+04  4.407850E+04  1.636430E+04  4.829317E+04  1.180930E+03  4.855831E+03
       367  21  4.579685E+04  3.500928E+04  7.086106E+03  4.391920E+04  2.276467E+03  2.378666E+03
       367  22  1.886672E+04  2.490042E+04  1.077423E+02  3.644556E+04 -2.246706E+03  6.450599E+03
       367  23  2.500657E+04  1.874921E+04  2.776766E+02  2.949001E+04 -1.150136E+03  3.972684E+03
       367  24  1.886923E+04  2.490761E+04  5.525318E+02  3.644349E+04 -5.368150E+01  1.495745E+03
       367  25 -8.976995E+04 -1.565538E+04 -2.553192E+04  6.319250E+03 -4.578247E+03  5.567391E+03
       367  26 -4.277639E+04 -6.579809E+03 -1.580930E+04  1.068866E+04 -3.480932E+03  3.089641E+03
       367  27 -8.057663E+03  1.480600E+04 -5.981074E+03  2.896808E+04 -2.383720E+03  6.128652E+02
       368   1  1.260371E+04  2.257296E+04 -8.776515E+02  3.477005E+04 -2.947786E+03 -9.471701E+02
       368   2 -2.215661E+04  1.167276E+03 -9.808082E+03  1.646228E+04 -4.572833E+03  1.325300E+03
       368   3 -6.907220E+04 -7.788011E+03 -1.820314E+04  1.205280E+04 -6.190631E+03  3.579373E+03
       368   4  1.889122E+04  2.489954E+04  7.474406E+02  3.645621E+04 -6.123090E+02 -6.222122E+01
       368   5  2.497564E+04  1.873086E+04  1.372271E+03  2.948516E+04 -2.254487E+03  2.203670E+03
       368   6  1.890656E+04  2.501570E+04  2.546062E+03  3.641159E+04 -3.889470E+03  4.451159E+03
       368   7  2.517874E+04  2.722611E+04  2.372544E+03  3.814238E+04  1.723181E+03  8.227324E+02
       368   8  7.211012E+04  3.629460E+04  1.255249E+04  4.250894E+04  6.405166E+01  3.082112E+03
       368   9  1.068935E+05  5.782017E+04  2.329487E+04  6.077366E+04 -1.587943E+03  5.323083E+03
       368  10  1.260370E+04  2.257296E+04 -8.776695E+02  3.477005E+04  1.130689E-09 -1.352296E-09
       368  11 -2.215663E+04  1.167268E+03 -9.808124E+03  1.646228E+04  1.298312E-09 -2.984200E-09
       368  12 -6.907225E+04 -7.788035E+03 -1.820324E+04  1.205282E+04 -5.641029E-09  6.158134E-10
       368  13  1.889122E+04  2.489954E+04  7.474399E+02  3.645621E+04  1.475542E-09  2.003249E-09
       368  14  2.497564E+04  1.873085E+04  1.372253E+03  2.948516E+04  2.136642E-09  2.165823E-10
       368  15  1.890654E+04  2.501567E+04  2.545996E+03  3.641160E+04 -2.896362E-10 -3.526714E-09
       368  16  2.517873E+04  2.722611E+04  2.372537E+03  3.814238E+04  2.896155E-09 -9.033904E-09
       368  17  7.211012E+04  3.629459E+04  1.255247E+04  4.250894E+04  3.710694E-09  4.069288E-09
       368  18  1.068935E+05  5.782013E+04  2.329481E+04  6.077366E+04  6.902005E-09  5.819073E-09
       368  19  1.260371E+04  2.257296E+04 -8.776515E+02  3.477005E+04  2.947786E+03  9.471701E+02
       368  20 -2.215661E+04  1.167276E+03 -9.808082E+03  1.646228E+04  4.572833E+03 -1.325300E+03
       368  21 -6.907220E+04 -7.788011E+03 -1.820314E+04  1.205280E+04  6.190631E+03 -3.579373E+03
       368  22  1.889122E+04  2.489954E+04  7.474406E+02  3.645621E+04  6.123090E+02  6.222122E+01
       368  23  2.497564E+04  1.873086E+04  1.372271E+03  2.948516E+04  2.254487E+03 -2.203670E+03
       368  24  1.890656E+04  2.501570E+04  2.546062E+03  3.641159E+04  3.889470E+03 -4.451159E+03
       368  25  2.517874E+04  2.722611E+04  2.372544E+03  3.814238E+04 -1.723181E+03 -8.227324E+02
       368  26  7.211012E+04  3.629460E+04  1.255249E+04  4.250894E+04 -6.405166E+01 -3.082112E+03
       368  27  1.068935E+05  5.782017E+04  2.329487E+04  6.077366E+04  1.587943E+03 -5.323083E+03
       369   1 -1.024265E+05 -2.014323E+04 -2.552672E+04  3.386055E+03 -7.356930E+03  4.863146E+03
       369   2 -1.371270E+05 -4.201729E+04 -3.243900E+04 -1.563971E+04 -1.096614E+04  6.267257E+03
       369   3 -1.828265E+05 -4.912905E+04 -3.667758E+04 -2.129981E+04 -1.441793E+04  7.257982E+03
       369   4  1.907014E+04  2.479426E+04  3.361064E+03  3.657697E+04 -4.934150E+03  5.780903E+03
       369   5  2.471211E+04  1.863865E+04  6.068584E+03  2.941545E+04 -8.925229E+03  7.040076E+03
       369   6  1.942868E+04  2.732006E+04  1.175204E+04  3.561859E+04 -1.275908E+04  7.885850E+03
       369   7  1.405814E+05  6.973275E+04  3.224781E+04  6.977377E+04 -2.510854E+03  6.698850E+03
       369   8  1.865768E+05  7.929639E+04  4.457418E+04  7.448120E+04 -6.883740E+03  7.813115E+03
       369   9  2.217234E+05  1.037720E+05  6.017838E+04  9.255368E+04 -1.109965E+04  8.513943E+03
       369  10 -1.024265E+05 -2.014327E+04 -2.552687E+04  3.386084E+03  3.334354E-09  3.900805E-09
       369  11 -1.371272E+05 -4.201736E+04 -3.243930E+04 -1.563965E+04  3.552889E-10 -4.747849E-09
       369  12 -1.828267E+05 -4.912916E+04 -3.667807E+04 -2.129973E+04  4.727913E-10 -3.694279E-09
       369  13  1.907010E+04  2.479422E+04  3.360955E+03  3.657699E+04  1.023471E-09  7.781947E-09
       369  14  2.471201E+04  1.863857E+04  6.068341E+03  2.941550E+04  2.451728E-09 -2.257611E-10
       369  15  1.942849E+04  2.731995E+04  1.175161E+04  3.561867E+04  1.598542E-09 -4.927862E-10
       369  16  1.405814E+05  6.973270E+04  3.224772E+04  6.977378E+04 -2.169059E-09  8.457474E-10
       369  17  1.865767E+05  7.929631E+04  4.457398E+04  7.448124E+04 -1.774456E-10 -2.787856E-09
       369  18  2.217232E+05  1.037719E+05  6.017802E+04  9.255375E+04  3.092419E-09  9.792907E-10
       369  19 -1.024265E+05 -2.014323E+04 -2.552672E+04  3.386055E+03  7.356930E+03 -4.863146E+03
       369  20 -1.371270E+05 -4.201729E+04 -3.243900E+04 -1.563971E+04  1.096614E+04 -6.267257E+03
       369  21 -1.828265E+05 -4.912905E+04 -3.667758E+04 -2.129981E+04  1.441793E+04 -7.257982E+03
       369  22  1.907014E+04  2.479426E+04  3.361064E+03  3.657697E+04  4.934150E+03 -5.780903E+03
       369  23  2.471211E+04  1.863865E+04  6.068584E+03  2.941545E+04  8.925229E+03 -7.040076E+03
       369  24  1.942868E+04  2.732006E+04  1.175204E+04  3.561859E+04  1.275908E+04 -7.885850E+03
       369  25  1.405814E+05  6.973275E+04  3.224781E+04  6.977377E+04  2.510854E+03 -6.698850E+03
       369  26  1.865768E+05  7.929639E+04  4.457418E+04  7.448120E+04  6.883740E+03 -7.813115E+03
       369  27  2.217234E+05  1.037720E+05  6.017838E+04  9.255368E+04  1.109965E+04 -8.513943E+03
       370   1 -2.197564E+05 -6.036743E+04 -4.120635E+04 -2.176912E+04 -1.987459E+04  7.801745E+03
       370   2 -2.495100E+05 -9.079603E+04 -4.067474E+04 -5.455837E+04 -2.553731E+04  5.803646E+03
       370   3 -2.743832E+05 -6.673988E+04 -2.426106E+04 -8.511809E+04 -2.769622E+04 -5.452517E+03
       370   4  2.138257E+04  2.304502E+04  1.489317E+04  3.823716E+04 -1.549725E+04  9.458987E+03
       370   5  2.144302E+04  1.831395E+04  2.644766E+04  2.828206E+04 -2.969219E+04  4.229991E+03
       370   6  2.806697E+04  6.974647E+04  6.064533E+04  2.055792E+04 -4.038474E+04 -1.025555E+04
       370   7  2.625812E+05  1.064604E+05  7.098933E+04  9.826427E+04 -1.111801E+04  1.111683E+04
       370   8  2.924687E+05  1.274323E+05  9.356437E+04  1.111565E+05 -3.384903E+04  2.655461E+03
       370   9  3.306042E+05  2.062490E+05  1.455429E+05  1.262833E+05 -5.307991E+04 -1.506223E+04
       370  10 -2.197569E+05 -6.036760E+04 -4.120721E+04 -2.176899E+04  4.093575E-09  4.748259E-10
       370  11 -2.495107E+05 -9.079624E+04 -4.067603E+04 -5.455825E+04  1.115913E-09 -9.504062E-09
       370  12 -2.743840E+05 -6.674012E+04 -2.426256E+04 -8.511821E+04 -5.050050E-09 -2.674951E-09
       370  13  2.138229E+04  2.304486E+04  1.489255E+04  3.823728E+04  4.324977E-12 -4.116842E-09
       370  14  2.144207E+04  1.831369E+04  2.644597E+04  2.828216E+04  3.386882E-09  2.179628E-09
       370  15  2.806519E+04  6.974592E+04  6.064207E+04  2.055759E+04 -3.110679E-09  1.060438E-09
       370  16  2.625810E+05  1.064603E+05  7.098887E+04  9.826437E+04 -8.761312E-10  1.264866E-09
       370  17  2.924674E+05  1.274320E+05  9.356221E+04  1.111566E+05  3.464942E-09  6.816766E-09
       370  18  3.306011E+05  2.062480E+05  1.455372E+05  1.262827E+05  3.422097E-09 -6.942774E-10
       370  19 -2.197564E+05 -6.036743E+04 -4.120635E+04 -2.176912E+04  1.987459E+04 -7.801745E+03
       370  20 -2.495100E+05 -9.079603E+04 -4.067474E+04 -5.455837E+04  2.553731E+04 -5.803646E+03
       370  21 -2.743832E+05 -6.673988E+04 -2.426106E+04 -8.511809E+04  2.769622E+04  5.452517E+03
       370  22  2.138257E+04  2.304502E+04  1.489317E+04  3.823716E+04  1.549725E+04 -9.458987E+03
       370  23  2.144302E+04  1.831395E+04  2.644766E+04  2.828206E+04  2.969219E+04 -4.229991E+03
       370  24  2.806697E+04  6.974647E+04  6.064533E+04  2.055792E+04  4.038474E+04  1.025555E+04
       370  25  2.625812E+05  1.064604E+05  7.098933E+04  9.826427E+04  1.111801E+04 -1.111683E+04
       370  26  2.924687E+05  1.274323E+05  9.356437E+04  1.111565E+05  3.384903E+04 -2.655461E+03
       370  27  3.306042E+05  2.062490E+05  1.455429E+05  1.262833E+05  5.307991E+04  1.506223E+04
       371   1  1.312723E+05  4.482244E+04  3.401511E+04  3.484787E+02 -2.125759E+04 -4.831930E+03
       371   2  1.035071E+05  7.817259E+04  4.735947E+04  8.106107E+03 -1.781057E+04 -1.512457E+04
       371   3  6.564539E+04  7.315325E+04  4.887707E+04  2.805485E+04 -1.439225E+04 -1.598911E+04
       371   4 -2.265179E+05 -4.385730E+04 -5.234939E+04  2.135322E+04 -3.602225E+04 -4.877739E+03
       371   5 -2.206551E+05 -8.830934E+02 -2.402071E+04  1.518565E+04 -2.330228E+04 -1.514259E+04
       371   6 -2.265063E+05  2.099842E+03 -1.396461E+04  2.121001E+04 -1.061062E+04 -1.597728E+04
       371   7 -5.841894E+05 -1.325446E+05 -1.387220E+05  4.234573E+04 -5.077842E+04 -4.924560E+03
       371   8 -5.447188E+05 -7.994561E+04 -9.540719E+04  2.226138E+04 -2.879116E+04 -1.516073E+04
       371   9 -5.185777E+05 -6.895900E+04 -7.681122E+04  1.436836E+04 -6.830748E+03 -1.596552E+04
       371  10  1.312718E+05  4.482229E+04  3.401422E+04  3.483960E+02 -6.036444E-09  1.969686E-09
       371  11  1.035067E+05  7.817226E+04  4.735844E+04  8.105890E+03 -8.923129E-09  1.182533E-08
       371  12  6.564510E+04  7.315292E+04  4.887620E+04  2.805467E+04 -1.100269E-08  2.627319E-09
       371  13 -2.265193E+05 -4.385768E+04 -5.235188E+04  2.135308E+04  1.225016E-09 -8.382163E-09
       371  14 -2.206557E+05 -8.834854E+02 -2.402216E+04  1.518537E+04 -7.134263E-10 -1.130634E-08
       371  15 -2.265065E+05  2.099537E+03 -1.396530E+04  2.120987E+04  6.811278E-10  2.480333E-12
       371  16 -5.841922E+05 -1.325453E+05 -1.387269E+05  4.234552E+04  5.190006E-09  5.109724E-10
       371  17 -5.447198E+05 -7.994608E+04 -9.540918E+04  2.226103E+04  8.705844E-09  7.686283E-09
       371  18 -5.185778E+05 -6.895929E+04 -7.681179E+04  1.436828E+04  8.881549E-09 -9.093343E-10
       371  19  1.312723E+05  4.482244E+04  3.401511E+04  3.484787E+02  2.125759E+04  4.831930E+03
       371  20  1.035071E+05  7.817259E+04  4.735947E+04  8.106107E+03  1.781057E+04  1.512457E+04
       371  21  6.564539E+04  7.315325E+04  4.887707E+04  2.805485E+04  1.439225E+04  1.598911E+04
       371  22 -2.265179E+05 -4.385730E+04 -5.234939E+04  2.135322E+04  3.602225E+04  4.877739E+03
       371  23 -2.206551E+05 -8.830934E+02 -2.402071E+04  1.518565E+04  2.330228E+04  1.514259E+04
       371  24 -2.265063E+05  2.099842E+03 -1.396461E+04  2.121001E+04  1.061062E+04  1.597728E+04
       371  25 -5.841894E+05 -1.325446E+05 -1.387220E+05  4.234573E+04  5.077842E+04  4.924560E+03
       371  26 -5.447188E+05 -7.994561E+04 -9.540719E+04  2.226138E+04  2.879116E+04  1.516073E+04
       371  27 -5.185777E+05 -6.895900E+04 -7.681122E+04  1.436836E+04  6.830748E+03  1.596552E+04
       372   1  4.220321E+04  6.273455E+04  4.650213E+04  2.125028E+04 -9.808325E+03 -1.413806E+04
       372   2  9.933228E+03  5.689024E+04  4.423019E+04  1.547432E+04 -7.225862E+03 -1.275103E+04
       372   3 -2.324675E+04  4.909847E+04  3.977041E+04  2.227363E+04 -4.645485E+03 -1.092967E+04
       372   4 -2.241201E+05 -2.041610E+03 -1.104795E+04  2.133478E+04 -8.662983E+03 -1.413475E+04
       372   5 -2.236245E+05  1.238979E+02 -6.013047E+03  1.504311E+04 -5.654321E+03 -1.274611E+04
       372   6 -2.241149E+05  2.673520E+02 -3.462877E+03  2.132705E+04 -2.647618E+03 -1.092307E+04
       372   7 -4.903768E+05 -6.682245E+04 -6.860222E+04  2.141919E+04 -7.518126E+03 -1.413144E+04
       372   8 -4.571309E+05 -5.664602E+04 -5.625947E+04  1.461203E+04 -4.083363E+03 -1.274120E+04
       372   9 -4.249451E+05 -4.856641E+04 -4.669852E+04  2.038074E+04 -6.503881E+02 -1.091647E+04
       372  10  4.220305E+04  6.273431E+04  4.650157E+04  2.125017E+04  1.737724E-08 -6.243974E-09
       372  11  9.933128E+03  5.689005E+04  4.422978E+04  1.547425E+04  1.695567E-09  9.696953E-10
       372  12 -2.324681E+04  4.909833E+04  3.977015E+04  2.227359E+04 -1.658525E-08  4.113205E-09
       372  13 -2.241202E+05 -2.041844E+03 -1.104847E+04  2.133468E+04  1.550267E-09  9.173358E-09
       372  14 -2.236246E+05  1.237148E+02 -6.013412E+03  1.504306E+04  1.638842E-10 -2.279813E-08
       372  15 -2.241149E+05  2.672220E+02 -3.463115E+03  2.132702E+04  4.586250E-10  6.991716E-09
       372  16 -4.903769E+05 -6.682268E+04 -6.860270E+04  2.141911E+04 -1.758615E-08 -8.710503E-09
       372  17 -4.571310E+05 -5.664620E+04 -5.625981E+04  1.461199E+04 -3.453462E-10 -5.594053E-09
       372  18 -4.249451E+05 -4.856654E+04 -4.669875E+04  2.038073E+04  1.330929E-08 -3.014370E-10
       372  19  4.220321E+04  6.273455E+04  4.650213E+04  2.125028E+04  9.808325E+03  1.413806E+04
       372  20  9.933228E+03  5.689024E+04  4.423019E+04  1.547432E+04  7.225862E+03  1.275103E+04
       372  21 -2.324675E+04  4.909847E+04  3.977041E+04  2.227363E+04  4.645485E+03  1.092967E+04
       372  22 -2.241201E+05 -2.041610E+03 -1.104795E+04  2.133478E+04  8.662983E+03  1.413475E+04
       372  23 -2.236245E+05  1.238979E+02 -6.013047E+03  1.504311E+04  5.654321E+03  1.274611E+04
       372  24 -2.241149E+05  2.673520E+02 -3.462877E+03  2.132705E+04  2.647618E+03  1.092307E+04
       372  25 -4.903768E+05 -6.682245E+04 -6.860222E+04  2.141919E+04  7.518126E+03  1.413144E+04
       372  26 -4.571309E+05 -5.664602E+04 -5.625947E+04  1.461203E+04  4.083363E+03  1.274120E+04
       372  27 -4.249451E+05 -4.856641E+04 -4.669852E+04  2.038074E+04  6.503881E+02  1.091647E+04
       373   1 -4.876085E+04  4.261587E+04  3.490526E+04  2.185522E+04 -3.990542E+03 -9.764061E+03
       373   2 -8.143076E+04  3.473158E+04  2.908216E+04  1.545946E+04 -3.270146E+03 -7.843203E+03
       373   3 -1.143037E+05  2.682481E+04  2.275948E+04  2.168008E+04 -2.550176E+03 -5.901606E+03
       373   4 -2.239397E+05  6.155525E+01 -2.650194E+03  2.133833E+04 -2.112836E+03 -9.757752E+03
       373   5 -2.238347E+05  1.260612E+02 -1.507975E+03  1.502987E+04 -1.372258E+03 -7.836678E+03
       373   6 -2.239368E+05  1.647356E+02 -8.793268E+02  2.133797E+04 -6.320684E+02 -5.894859E+03
       373   7 -3.990897E+05 -4.249477E+04 -4.020742E+04  2.082157E+04 -2.356527E+02 -9.751446E+03
       373   8 -3.662195E+05 -3.448078E+04 -3.209929E+04  1.460037E+04  5.252009E+02 -7.830155E+03
       373   9 -3.335585E+05 -2.649613E+04 -2.451883E+04  2.099591E+04  1.285705E+03 -5.888114E+03
       373  10 -4.876090E+04  4.261577E+04  3.490505E+04  2.185519E+04  2.065901E-08 -1.048517E-08
       373  11 -8.143078E+04  3.473151E+04  2.908203E+04  1.545944E+04  6.088913E-09 -6.744367E-09
       373  12 -1.143038E+05  2.682477E+04  2.275940E+04  2.168007E+04 -1.209543E-08 -3.630580E-09
       373  13 -2.239397E+05  6.145182E+01 -2.650381E+03  2.133832E+04  1.824178E-09 -4.088798E-09
       373  14 -2.238347E+05  1.259947E+02 -1.508094E+03  1.502986E+04 -1.371629E-09 -7.005871E-09
       373  15 -2.239368E+05  1.646982E+02 -8.793928E+02  2.133797E+04  8.239204E-10 -3.115101E-09
       373  16 -3.990897E+05 -4.249487E+04 -4.020760E+04  2.082157E+04 -2.219089E-08 -9.525931E-09
       373  17 -3.662195E+05 -3.448085E+04 -3.209940E+04  1.460038E+04 -5.716063E-09  2.122099E-09
       373  18 -3.335585E+05 -2.649616E+04 -2.451890E+04  2.099592E+04  9.642196E-09  1.214914E-08
       373  19 -4.876085E+04  4.261587E+04  3.490526E+04  2.185522E+04  3.990542E+03  9.764061E+03
       373  20 -8.143076E+04  3.473158E+04  2.908216E+04  1.545946E+04  3.270146E+03  7.843203E+03
       373  21 -1.143037E+05  2.682481E+04  2.275948E+04  2.168008E+04  2.550176E+03  5.901606E+03
       373  22 -2.239397E+05  6.155525E+01 -2.650194E+03  2.133833E+04  2.112836E+03  9.757752E+03
       373  23 -2.238347E+05  1.260612E+02 -1.507975E+03  1.502987E+04  1.372258E+03  7.836678E+03
       373  24 -2.239368E+05  1.647356E+02 -8.793268E+02  2.133797E+04  6.320684E+02  5.894859E+03
       373  25 -3.990897E+05 -4.249477E+04 -4.020742E+04  2.082157E+04  2.356527E+02  9.751446E+03
       373  26 -3.662195E+05 -3.448078E+04 -3.209929E+04  1.460037E+04 -5.252009E+02  7.830155E+03
       373  27 -3.335585E+05 -2.649613E+04 -2.451883E+04  2.099591E+04 -1.285705E+03  5.888114E+03
       374   1 -1.399949E+05  2.053273E+04  1.725716E+04  2.159297E+04 -2.408477E+03 -4.767171E+03
       374   2 -1.727357E+05  1.254025E+04  1.056106E+04  1.518057E+04 -2.208974E+03 -2.821373E+03
       374   3 -2.055929E+05  4.630052E+03  3.728808E+03  2.139580E+04 -2.009604E+03 -8.744004E+02
       374   4 -2.239158E+05  1.567432E+02 -6.791060E+02  2.134056E+04 -4.954244E+02 -4.760379E+03
       374   5 -2.238564E+05  1.169574E+02 -4.197516E+02  1.502671E+04 -2.948361E+02 -2.814526E+03
       374   6 -2.239148E+05  1.593262E+02 -2.972942E+02  2.134055E+04 -9.437083E+01 -8.674938E+02
       374   7 -3.078301E+05 -2.021970E+04 -1.861576E+04  2.108817E+04  1.417373E+03 -4.753589E+03
       374   8 -2.749747E+05 -1.230650E+04 -1.140070E+04  1.487286E+04  1.619146E+03 -2.807680E+03
       374   9 -2.422363E+05 -4.311420E+03 -4.323403E+03  2.128530E+04  1.820807E+03 -8.605874E+02
       374  10 -1.399949E+05  2.053270E+04  1.725710E+04  2.159296E+04  2.999051E-09 -7.211285E-09
       374  11 -1.727357E+05  1.254024E+04  1.056103E+04  1.518056E+04 -3.662216E-09  2.246270E-09
       374  12 -2.055929E+05  4.630050E+03  3.728799E+03  2.139580E+04 -1.265087E-08  3.943390E-09
       374  13 -2.239158E+05  1.567188E+02 -6.791490E+02  2.134056E+04  8.182418E-10  2.552263E-09
       374  14 -2.238564E+05  1.169488E+02 -4.197667E+02  1.502671E+04 -2.414438E-10 -1.524502E-09
       374  15 -2.239148E+05  1.593254E+02 -2.972956E+02  2.134055E+04  1.378673E-09 -1.976730E-09
       374  16 -3.078301E+05 -2.021972E+04 -1.861581E+04  2.108818E+04 -4.000882E-09  3.127789E-10
       374  17 -2.749747E+05 -1.230651E+04 -1.140072E+04  1.487286E+04  5.134995E-09  6.539578E-09
       374  18 -2.422363E+05 -4.311422E+03 -4.323411E+03  2.128530E+04  1.043832E-08  1.816079E-10
       374  19 -1.399949E+05  2.053273E+04  1.725716E+04  2.159297E+04  2.408477E+03  4.767171E+03
       374  20 -1.727357E+05  1.254025E+04  1.056106E+04  1.518057E+04  2.208974E+03  2.821373E+03
       374  21 -2.055929E+05  4.630052E+03  3.728808E+03  2.139580E+04  2.009604E+03  8.744004E+02
       374  22 -2.239158E+05  1.567432E+02 -6.791060E+02  2.134056E+04  4.954244E+02  4.760379E+03
       374  23 -2.238564E+05  1.169574E+02 -4.197516E+02  1.502671E+04  2.948361E+02  2.814526E+03
       374  24 -2.239148E+05  1.593262E+02 -2.972942E+02  2.134055E+04  9.437083E+01  8.674938E+02
       374  25 -3.078301E+05 -2.021970E+04 -1.861576E+04  2.108817E+04 -1.417373E+03  4.753589E+03
       374  26 -2.749747E+05 -1.230650E+04 -1.140070E+04  1.487286E+04 -1.619146E+03  2.807680E+03
       374  27 -2.422363E+05 -4.311420E+03 -4.323403E+03  2.128530E+04 -1.820807E+03  8.605874E+02
       375   1 -2.313124E+05 -1.656964E+03 -1.952538E+03  2.132313E+04 -1.962026E+03  2.589419E+02
       375   2 -2.640573E+05 -9.654387E+03 -8.921220E+03  1.491301E+04 -1.826541E+03  2.205846E+03
       375   3 -2.969096E+05 -1.756668E+04 -1.598375E+04  2.113151E+04 -1.690967E+03  4.151665E+03
       375   4 -2.239127E+05  1.594248E+02 -2.725442E+02  2.134074E+04 -4.680184E+01  2.658519E+02
       375   5 -2.238587E+05  1.150895E+02 -2.860204E+02  1.502647E+04  8.756186E+01  2.212708E+03
       375   6 -2.239135E+05  1.560120E+02 -3.926673E+02  2.134075E+04  2.220208E+02  4.158482E+03
       375   7 -2.165129E+05  1.975812E+03  1.407460E+03  2.135836E+04  1.868445E+03  2.727621E+02
       375   8 -1.836586E+05  9.884462E+03  8.349099E+03  1.513993E+04  2.001787E+03  2.219570E+03
       375   9 -1.509124E+05  1.787836E+04  1.519812E+04  2.155001E+04  2.135231E+03  4.165301E+03
       375  10 -2.313124E+05 -1.656965E+03 -1.952545E+03  2.132313E+04  1.112190E-09  1.171591E-10
       375  11 -2.640573E+05 -9.654393E+03 -8.921236E+03  1.491302E+04 -4.124316E-09 -1.309480E-08
       375  12 -2.969096E+05 -1.756670E+04 -1.598379E+04  2.113152E+04 -1.572809E-08 -5.449848E-09
       375  13 -2.239127E+05  1.594247E+02 -2.725444E+02  2.134074E+04  2.826688E-09  1.047046E-08
       375  14 -2.238587E+05  1.150842E+02 -2.860296E+02  1.502647E+04 -3.929748E-10 -3.019248E-09
       375  15 -2.239135E+05  1.559934E+02 -3.926999E+02  2.134075E+04  7.747794E-10 -9.150710E-10
       375  16 -2.165129E+05  1.975811E+03  1.407453E+03  2.135836E+04 -2.339790E-09  1.235425E-10
       375  17 -1.836586E+05  9.884455E+03  8.349082E+03  1.513992E+04  5.569065E-09 -1.687621E-08
       375  18 -1.509124E+05  1.787834E+04  1.519808E+04  2.155000E+04  1.300784E-08 -7.486498E-09
       375  19 -2.313124E+05 -1.656964E+03 -1.952538E+03  2.132313E+04  1.962026E+03 -2.589419E+02
       375  20 -2.640573E+05 -9.654387E+03 -8.921220E+03  1.491301E+04  1.826541E+03 -2.205846E+03
       375  21 -2.969096E+05 -1.756668E+04 -1.598375E+04  2.113151E+04  1.690967E+03 -4.151665E+03
       375  22 -2.239127E+05  1.594248E+02 -2.725442E+02  2.134074E+04  4.680184E+01 -2.658519E+02
       375  23 -2.238587E+05  1.150895E+02 -2.860204E+02  1.502647E+04 -8.756186E+01 -2.212708E+03
       375  24 -2.239135E+05  1.560120E+02 -3.926673E+02  2.134075E+04 -2.220208E+02 -4.158482E+03
       375  25 -2.165129E+05  1.975812E+03  1.407460E+03  2.135836E+04 -1.868445E+03 -2.727621E+02
       375  26 -1.836586E+05  9.884462E+03  8.349099E+03  1.513993E+04 -2.001787E+03 -2.219570E+03
       375  27 -1.509124E+05  1.787836E+04  1.519812E+04  2.155001E+04 -2.135231E+03 -4.165301E+03
       376   1 -3.226303E+05 -2.384766E+04 -2.178220E+04  2.104860E+04 -1.620396E+03  5.286047E+03
       376   2 -3.553254E+05 -3.183812E+04 -2.905070E+04  1.465427E+04 -1.209582E+03  7.227313E+03
       376   3 -3.881726E+05 -3.980330E+04 -3.660597E+04  2.087642E+04 -7.984102E+02  9.148472E+03
       376   4 -2.239235E+05  1.600900E+02 -4.876032E+02  2.133797E+04  2.974619E+02  5.292826E+03
       376   5 -2.238502E+05  1.167712E+02 -8.033762E+02  1.502991E+04  6.885432E+02  7.233883E+03
       376   6 -2.239262E+05  1.023457E+02 -1.391992E+03  2.133817E+04  1.080004E+03  9.154839E+03
       376   7 -1.252075E+05  2.416720E+04  2.080643E+04  2.162738E+04  2.215621E+03  5.299607E+03
       376   8 -9.235871E+04  3.207053E+04  2.744295E+04  1.540561E+04  2.587065E+03  7.240455E+03
       376   9 -5.965429E+04  4.000623E+04  3.382043E+04  2.180001E+04  2.958909E+03  9.161207E+03
       376  10 -3.226303E+05 -2.384769E+04 -2.178226E+04  2.104861E+04 -1.163828E-08  8.426228E-10
       376  11 -3.553254E+05 -3.183817E+04 -2.905080E+04  1.465428E+04 -2.428186E-09 -6.796112E-09
       376  12 -3.881727E+05 -3.980339E+04 -3.660613E+04  2.087643E+04  3.597215E-09 -3.000886E-09
       376  13 -2.239235E+05  1.600599E+02 -4.876560E+02  2.133797E+04  1.904555E-09  3.017800E-09
       376  14 -2.238502E+05  1.167148E+02 -8.034754E+02  1.502990E+04 -9.465114E-10  5.874762E-09
       376  15 -2.239262E+05  1.022554E+02 -1.392152E+03  2.133816E+04  4.217448E-10  6.074973E-09
       376  16 -1.252075E+05  2.416717E+04  2.080637E+04  2.162737E+04  1.082872E-08  5.210217E-09
       376  17 -9.235873E+04  3.207047E+04  2.744284E+04  1.540560E+04  4.007392E-09 -7.602653E-09
       376  18 -5.965432E+04  4.000614E+04  3.382025E+04  2.179999E+04 -6.330424E-09  7.081353E-09
       376  19 -3.226303E+05 -2.384766E+04 -2.178220E+04  2.104860E+04  1.620396E+03 -5.286047E+03
       376  20 -3.553254E+05 -3.183812E+04 -2.905070E+04  1.465427E+04  1.209582E+03 -7.227313E+03
       376  21 -3.881726E+05 -3.980330E+04 -3.660597E+04  2.087642E+04  7.984102E+02 -9.148472E+03
       376  22 -2.239235E+05  1.600900E+02 -4.876032E+02  2.133797E+04 -2.974619E+02 -5.292826E+03
       376  23 -2.238502E+05  1.167712E+02 -8.033762E+02  1.502991E+04 -6.885432E+02 -7.233883E+03
       376  24 -2.239262E+05  1.023457E+02 -1.391992E+03  2.133817E+04 -1.080004E+03 -9.154839E+03
       376  25 -1.252075E+05  2.416720E+04  2.080643E+04  2.162738E+04 -2.215621E+03 -5.299607E+03
       376  26 -9.235871E+04  3.207053E+04  2.744295E+04  1.540561E+04 -2.587065E+03 -7.240455E+03
       376  27 -5.965429E+04  4.000623E+04  3.382043E+04  2.180001E+04 -2.958909E+03 -9.161207E+03
       377   1 -4.139490E+05 -4.597373E+04 -4.270715E+04  2.061197E+04 -6.363535E+02  1.031190E+04
       377   2 -4.463609E+05 -5.401226E+04 -5.104570E+04  1.455780E+04  1.345600E+03  1.213606E+04
       377   3 -4.793926E+05 -6.313607E+04 -6.096841E+04  2.108342E+04  3.329319E+03  1.353866E+04
       377   4 -2.240169E+05  2.092451E+02 -1.813314E+03  2.132884E+04  1.358515E+03  1.031856E+04
       377   5 -2.237450E+05  1.105266E+02 -3.141522E+03  1.504111E+04  2.926376E+03  1.214108E+04
       377   6 -2.240216E+05 -1.001210E+03 -5.765788E+03  2.133292E+04  4.496106E+03  1.354211E+04
       377   7 -3.405082E+04  4.638985E+04  3.907841E+04  2.204591E+04  3.353987E+03  1.032522E+04
       377   8 -1.082380E+03  5.423006E+04  4.475976E+04  1.552456E+04  4.507712E+03  1.214610E+04
       377   9  3.141065E+04  6.112935E+04  4.943298E+04  2.158246E+04  5.663366E+03  1.354557E+04
       377  10 -4.139491E+05 -4.597384E+04 -4.270735E+04  2.061198E+04  2.535425E-08 -1.359702E-09
       377  11 -4.463610E+05 -5.401242E+04 -5.104598E+04  1.455779E+04  8.021611E-09  4.911781E-09
       377  12 -4.793926E+05 -6.313627E+04 -6.096878E+04  2.108339E+04 -1.249188E-08  2.882455E-09
       377  13 -2.240169E+05  2.091303E+02 -1.813517E+03  2.132883E+04  1.497552E-09 -6.527901E-09
       377  14 -2.237450E+05  1.103660E+02 -3.141815E+03  1.504108E+04 -8.325482E-10  7.252765E-09
       377  15 -2.240217E+05 -1.001413E+03 -5.766171E+03  2.133287E+04  8.417392E-10  7.942812E-09
       377  16 -3.405086E+04  4.638973E+04  3.907819E+04  2.204588E+04 -2.644145E-08 -5.115665E-09
       377  17 -1.082441E+03  5.422990E+04  4.475944E+04  1.552452E+04 -7.751720E-09 -1.111517E-08
       377  18  3.141057E+04  6.112914E+04  4.943258E+04  2.158240E+04  9.928561E-09  1.133074E-09
       377  19 -4.139490E+05 -4.597373E+04 -4.270715E+04  2.061197E+04  6.363535E+02 -1.031190E+04
       377  20 -4.463609E+05 -5.401226E+04 -5.104570E+04  1.455780E+04 -1.345600E+03 -1.213606E+04
       377  21 -4.793926E+05 -6.313607E+04 -6.096841E+04  2.108342E+04 -3.329319E+03 -1.353866E+04
       377  22 -2.240169E+05  2.092451E+02 -1.813314E+03  2.132884E+04 -1.358515E+03 -1.031856E+04
       377  23 -2.237450E+05  1.105266E+02 -3.141522E+03  1.504111E+04 -2.926376E+03 -1.214108E+04
       377  24 -2.240216E+05 -1.001210E+03 -5.765788E+03  2.133292E+04 -4.496106E+03 -1.354211E+04
       377  25 -3.405082E+04  4.638985E+04  3.907841E+04  2.204591E+04 -3.353987E+03 -1.032522E+04
       377  26 -1.082380E+03  5.423006E+04  4.475976E+04  1.552456E+04 -4.507712E+03 -1.214610E+04
       377  27  3.141065E+04  6.112935E+04  4.943298E+04  2.158246E+04 -5.663366E+03 -1.354557E+04
       378   1 -5.064726E+05 -6.723699E+04 -6.779447E+04  1.733249E+04  1.785528E+03  1.534957E+04
       378   2 -5.353943E+05 -7.685989E+04 -8.153706E+04  1.851596E+04  1.740734E+04  1.460861E+04
       378   3 -5.720138E+05 -1.088680E+05 -1.110633E+05  3.187137E+04  3.305571E+04  4.713957E+03
       378   4 -2.252651E+05  1.157522E+03 -7.286369E+03  2.122159E+04  5.509538E+03  1.536123E+04
       378   5 -2.222032E+05 -4.218482E+02 -1.253381E+04  1.517321E+04  1.213322E+04  1.459126E+04
       378   6 -2.252740E+05 -2.281763E+04 -2.730980E+04  2.129703E+04  1.878459E+04  4.669317E+03
       378   7  5.601685E+04  6.954690E+04  5.321715E+04  2.511242E+04  9.235211E+03  1.537293E+04
       378   8  9.107981E+04  7.600968E+04  5.646354E+04  1.182869E+04  6.856471E+03  1.457397E+04
       378   9  1.215766E+05  6.322449E+04  5.643591E+04  1.071666E+04  4.505515E+03  4.625176E+03
       378  10 -5.064726E+05 -6.723725E+04 -6.779492E+04  1.733247E+04 -1.198412E-08 -1.699512E-10
       378  11 -5.353946E+05 -7.686021E+04 -8.153803E+04  1.851575E+04 -5.857115E-10  7.742328E-10
       378  12 -5.720150E+05 -1.088683E+05 -1.110654E+05  3.187125E+04  6.789813E-09  5.924041E-09
       378  13 -2.252652E+05  1.157260E+03 -7.286869E+03  2.122153E+04  1.749505E-09  5.263492E-09
       378  14 -2.222034E+05 -4.221163E+02 -1.253449E+04  1.517307E+04 -1.128361E-09  2.937220E-09
       378  15 -2.252744E+05 -2.281775E+04 -2.731051E+04  2.129695E+04  3.661972E-10 -5.747722E-10
       378  16  5.601669E+04  6.954662E+04  5.321654E+04  2.511231E+04  1.129272E-08  6.229421E-09
       378  17  9.107970E+04  7.600944E+04  5.646305E+04  1.182861E+04  2.156282E-09  8.410107E-09
       378  18  1.215766E+05  6.322446E+04  5.643583E+04  1.071665E+04 -8.871507E-09 -9.863304E-11
       378  19 -5.064726E+05 -6.723699E+04 -6.779447E+04  1.733249E+04 -1.785528E+03 -1.534957E+04
       378  20 -5.353943E+05 -7.685989E+04 -8.153706E+04  1.851596E+04 -1.740734E+04 -1.460861E+04
       378  21 -5.720138E+05 -1.088680E+05 -1.110633E+05  3.187137E+04 -3.305571E+04 -4.713957E+03
       378  22 -2.252651E+05  1.157522E+03 -7.286369E+03  2.122159E+04 -5.509538E+03 -1.536123E+04
       378  23 -2.222032E+05 -4.218482E+02 -1.253381E+04  1.517321E+04 -1.213322E+04 -1.459126E+04
       378  24 -2.252740E+05 -2.281763E+04 -2.730980E+04  2.129703E+04 -1.878459E+04 -4.669317E+03
       378  25  5.601685E+04  6.954690E+04  5.321715E+04  2.511242E+04 -9.235211E+03 -1.537293E+04
       378  26  9.107981E+04  7.600968E+04  5.646354E+04  1.182869E+04 -6.856471E+03 -1.457397E+04
       378  27  1.215766E+05  6.322449E+04  5.643591E+04  1.071666E+04 -4.505515E+03 -4.625176E+03
       379   1 -2.143569E+05 -8.568002E+05 -2.088474E+05  1.924705E+05 -8.805971E+03 -5.352503E+04
       379   2 -1.441670E+05 -6.459628E+05 -1.298210E+05  1.590709E+05 -2.607361E+04 -1.942703E+04
       379   3 -9.114408E+04 -4.433916E+05 -7.725726E+04  1.799866E+05 -2.231787E+04  1.474454E+04
       379   4 -1.812634E+04 -6.601052E+04 -1.927482E+04  1.809347E+05 -8.907336E+03 -1.436367E+04
       379   5 -3.501478E+03 -6.440438E+04 -8.444655E+03  1.537998E+05 -2.609542E+04 -9.994511E+03
       379   6 -8.673739E+02 -6.593327E+04 -3.407852E+03  1.809794E+05 -2.226842E+04 -5.564085E+03
       379   7  1.780601E+05  7.253560E+05  1.702592E+05  1.693844E+05 -9.010098E+03  2.484742E+04
       379   8  1.371425E+05  5.174745E+05  1.129133E+05  1.485239E+05 -2.611738E+04 -5.532892E+02
       379   9  8.940098E+04  3.116626E+05  7.043627E+04  1.819729E+05 -2.221904E+04 -2.588479E+04
       379  10 -2.143578E+05 -8.568033E+05 -2.088529E+05  1.924701E+05 -2.157711E-09  3.114206E-10
       379  11 -1.441678E+05 -6.459634E+05 -1.298230E+05  1.590705E+05 -4.320392E-09  5.745508E-09
       379  12 -9.114467E+04 -4.433919E+05 -7.725861E+04  1.799869E+05  1.747912E-09  4.428520E-09
       379  13 -1.812648E+04 -6.601076E+04 -1.927535E+04  1.809346E+05 -3.346416E-10  1.085806E-09
       379  14 -3.502236E+03 -6.440467E+04 -8.446123E+03  1.537996E+05 -5.019781E-09 -7.161893E-09
       379  15 -8.679146E+02 -6.593344E+04 -3.408842E+03  1.809793E+05  1.215161E-09 -8.395318E-10
       379  16  1.780598E+05  7.253553E+05  1.702579E+05  1.693846E+05 -4.290490E-10  2.847021E-09
       379  17  1.371418E+05  5.174744E+05  1.129121E+05  1.485239E+05 -1.524505E-10 -7.546194E-09
       379  18  8.940027E+04  3.116617E+05  7.043409E+04  1.819724E+05 -1.200711E-09 -9.523161E-09
       379  19 -2.143569E+05 -8.568002E+05 -2.088474E+05  1.924705E+05  8.805971E+03  5.352503E+04
       379  20 -1.441670E+05 -6.459628E+05 -1.298210E+05  1.590709E+05  2.607361E+04  1.942703E+04
       379  21 -9.114408E+04 -4.433916E+05 -7.725726E+04  1.799866E+05  2.231787E+04 -1.474454E+04
       379  22 -1.812634E+04 -6.601052E+04 -1.927482E+04  1.809347E+05  8.907336E+03  1.436367E+04
       379  23 -3.501478E+03 -6.440438E+04 -8.444655E+03  1.537998E+05  2.609542E+04  9.994511E+03
       379  24 -8.673739E+02 -6.593327E+04 -3.407852E+03  1.809794E+05  2.226842E+04  5.564085E+03
       379  25  1.780601E+05  7.253560E+05  1.702592E+05  1.693844E+05  9.010098E+03 -2.484742E+04
       379  26  1.371425E+05  5.174745E+05  1.129133E+05  1.485239E+05  2.611738E+04  5.532892E+02
       379  27  8.940098E+04  3.116626E+05  7.043627E+04  1.819729E+05  2.221904E+04  2.588479E+04
       380   1 -5.809010E+04 -3.010950E+05 -4.788994E+04  1.816185E+05 -1.381858E+04  1.145902E+04
       380   2 -7.695062E+03 -9.473363E+04 -3.428657E+03  1.536498E+05 -1.978857E+03  1.057956E+04
       380   3  4.288723E+04  1.122085E+05  4.174222E+04  1.811866E+05  9.960762E+03  9.699748E+03
       380   4 -1.618811E+03 -6.509389E+04 -1.591022E+03  1.812346E+05 -1.377911E+04 -5.228344E+03
       380   5 -7.140086E+02 -6.537444E+04  2.110590E+03  1.534844E+05 -1.939203E+03 -6.251338E+03
       380   6  4.054611E+02 -6.508977E+04  6.622710E+03  1.812394E+05  1.000049E+04 -7.274386E+03
       380   7  5.484926E+04  1.709613E+05  4.470625E+04  1.808507E+05 -1.373962E+04 -2.192192E+04
       380   8  6.267147E+03 -3.601381E+04  7.650863E+03  1.533189E+05 -1.899541E+03 -2.308301E+04
       380   9 -4.207807E+04 -2.423573E+05 -2.849727E+04  1.812922E+05  1.004021E+04 -2.424377E+04
       380  10 -5.809034E+04 -3.010952E+05 -4.789055E+04  1.816186E+05  3.098855E-09 -3.287451E-09
       380  11 -7.695097E+03 -9.473375E+04 -3.428875E+03  1.536499E+05 -1.048294E-09  8.684808E-10
       380  12  4.288710E+04  1.122083E+05  4.174186E+04  1.811865E+05  1.362868E-09  2.395242E-09
       380  13 -1.619023E+03 -6.509397E+04 -1.591430E+03  1.812346E+05  9.924465E-10  2.938843E-12
       380  14 -7.140231E+02 -6.537448E+04  2.110509E+03  1.534844E+05  1.156327E-09 -5.130886E-09
       380  15  4.053395E+02 -6.508985E+04  6.622423E+03  1.812394E+05  4.027363E-09 -5.756361E-10
       380  16  5.484893E+04  1.709607E+05  4.470499E+04  1.808504E+05  1.687127E-10  5.598614E-09
       380  17  6.267000E+03 -3.601439E+04  7.649855E+03  1.533189E+05 -1.183169E-09 -6.949079E-09
       380  18 -4.207833E+04 -2.423580E+05 -2.849856E+04  1.812924E+05  6.338130E-10 -9.887621E-09
       380  19 -5.809010E+04 -3.010950E+05 -4.788994E+04  1.816185E+05  1.381858E+04 -1.145902E+04
       380  20 -7.695062E+03 -9.473363E+04 -3.428657E+03  1.536498E+05  1.978857E+03 -1.057956E+04
       380  21  4.288723E+04  1.122085E+05  4.174222E+04  1.811866E+05 -9.960762E+03 -9.699748E+03
       380  22 -1.618811E+03 -6.509389E+04 -1.591022E+03  1.812346E+05  1.377911E+04  5.228344E+03
       380  23 -7.140086E+02 -6.537444E+04  2.110590E+03  1.534844E+05  1.939203E+03  6.251338E+03
       380  24  4.054611E+02 -6.508977E+04  6.622710E+03  1.812394E+05 -1.000049E+04  7.274386E+03
       380  25  5.484926E+04  1.709613E+05  4.470625E+04  1.808507E+05  1.373962E+04  2.192192E+04
       380  26  6.267147E+03 -3.601381E+04  7.650863E+03  1.533189E+05  1.899541E+03  2.308301E+04
       380  27 -4.207807E+04 -2.423573E+05 -2.849727E+04  1.812922E+05 -1.004021E+04  2.424377E+04
       381   1  7.525018E+04  2.551589E+05  7.193239E+04  1.771733E+05  1.845009E+04  1.189757E+04
       381   2  1.308041E+05  4.559651E+05  1.273408E+05  1.610479E+05  2.310315E+04 -2.506988E+04
       381   3  2.141544E+05  6.689900E+05  2.138429E+05  1.994019E+05  8.198673E+03 -6.210567E+04
       381   4 -1.041597E+03 -6.358876E+04  9.285237E+03  1.809938E+05  1.849884E+04 -8.417467E+03
       381   5  4.313218E+03 -6.731393E+04  1.780444E+04  1.537981E+05  2.308652E+04 -1.766975E+04
       381   6  3.267071E+04 -6.365625E+04  3.818630E+04  1.810810E+05  8.110491E+03 -2.697795E+04
       381   7 -7.733925E+04 -3.822382E+05 -5.336529E+04  1.848124E+05  1.854735E+04 -2.872230E+04
       381   8 -1.221949E+05 -5.903339E+05 -9.174688E+04  1.465546E+05  2.306971E+04 -1.027575E+04
       381   9 -1.488500E+05 -7.958077E+05 -1.375035E+05  1.627819E+05  8.020190E+03  8.108524E+03
       381  10  7.524978E+04  2.551587E+05  7.193148E+04  1.771731E+05  2.383679E-09 -1.508806E-09
       381  11  1.308033E+05  4.559643E+05  1.273386E+05  1.610483E+05 -2.859204E-09  2.487816E-09
       381  12  2.141533E+05  6.689858E+05  2.138355E+05  1.994023E+05 -2.323421E-09  4.029660E-09
       381  13 -1.041983E+03 -6.358893E+04  9.284461E+03  1.809940E+05 -1.930916E-11 -1.412534E-11
       381  14  4.312562E+03 -6.731441E+04  1.780285E+04  1.537984E+05 -7.680400E-10 -6.510886E-09
       381  15  3.267045E+04 -6.365705E+04  3.818480E+04  1.810811E+05 -1.620791E-09  2.625571E-09
       381  16 -7.733984E+04 -3.822392E+05 -5.336749E+04  1.848129E+05  1.875230E-09  6.005950E-09
       381  17 -1.221955E+05 -5.903342E+05 -9.174808E+04  1.465548E+05  7.262232E-11 -4.890757E-09
       381  18 -1.488501E+05 -7.958078E+05 -1.375037E+05  1.627819E+05 -1.188556E-09 -7.395500E-09
       381  19  7.525018E+04  2.551589E+05  7.193239E+04  1.771733E+05 -1.845009E+04 -1.189757E+04
       381  20  1.308041E+05  4.559651E+05  1.273408E+05  1.610479E+05 -2.310315E+04  2.506988E+04
       381  21  2.141544E+05  6.689900E+05  2.138429E+05  1.994019E+05 -8.198673E+03  6.210567E+04
       381  22 -1.041597E+03 -6.358876E+04  9.285237E+03  1.809938E+05 -1.849884E+04  8.417467E+03
       381  23  4.313218E+03 -6.731393E+04  1.780444E+04  1.537981E+05 -2.308652E+04  1.766975E+04
       381  24  3.267071E+04 -6.365625E+04  3.818630E+04  1.810810E+05 -8.110491E+03  2.697795E+04
       381  25 -7.733925E+04 -3.822382E+05 -5.336529E+04  1.848124E+05 -1.854735E+04  2.872230E+04
       381  26 -1.221949E+05 -5.903339E+05 -9.174688E+04  1.465546E+05 -2.306971E+04  1.027575E+04
       381  27 -1.488500E+05 -7.958077E+05 -1.375035E+05  1.627819E+05 -8.020190E+03 -8.108524E+03
       382   1  5.630112E+05  2.256517E+05  1.395861E+05  2.096404E+05  6.009958E+04  1.889480E+04
       382   2  5.419215E+05  1.430075E+05  8.549305E+04  2.041861E+05  3.869066E+04  2.529066E+03
       382   3  5.395470E+05  1.234637E+05  6.498401E+04  1.911269E+05  1.473098E+04 -7.092295E+03
       382   4  3.473340E+05  1.161049E+05  7.678935E+04  1.217366E+05  5.031579E+04  1.518864E+04
       382   5  3.343600E+05  5.559608E+04  3.349619E+04  1.367363E+05  3.513039E+04  1.180358E+03
       382   6  3.388755E+05  5.696481E+04  1.886238E+04  1.441291E+05  1.739297E+04 -6.084540E+03
       382   7  1.317077E+05  6.575424E+03  1.398975E+04  3.386562E+04  4.053588E+04  1.148506E+04
       382   8  1.268425E+05 -3.180849E+04 -1.850372E+04  6.930854E+04  3.157144E+04 -1.677125E+02
       382   9  1.382425E+05 -9.533646E+03 -2.726228E+04  9.714385E+04  2.005404E+04 -5.077042E+03
       382  10  5.630072E+05  2.256503E+05  1.395786E+05  2.096395E+05 -6.947949E-09  7.144345E-09
       382  11  5.419199E+05  1.430071E+05  8.549023E+04  2.041860E+05 -4.706467E-09 -2.099610E-09
       382  12  5.395467E+05  1.234636E+05  6.498351E+04  1.911269E+05  3.459644E-10  2.598087E-09
       382  13  3.473312E+05  1.161040E+05  7.678416E+04  1.217360E+05  5.657965E-10 -7.687055E-09
       382  14  3.343587E+05  5.559575E+04  3.349387E+04  1.367363E+05 -5.386344E-09 -8.474005E-09
       382  15  3.388752E+05  5.696469E+04  1.886174E+04  1.441292E+05 -3.470162E-09  7.288969E-09
       382  16  1.317059E+05  6.574842E+03  1.398641E+04  3.386525E+04  4.556845E-09  5.244111E-09
       382  17  1.268415E+05 -3.180876E+04 -1.850559E+04  6.930854E+04 -2.180433E-09  1.855644E-09
       382  18  1.382420E+05 -9.533782E+03 -2.726309E+04  9.714393E+04 -3.612735E-09  6.476552E-09
       382  19  5.630112E+05  2.256517E+05  1.395861E+05  2.096404E+05 -6.009958E+04 -1.889480E+04
       382  20  5.419215E+05  1.430075E+05  8.549305E+04  2.041861E+05 -3.869066E+04 -2.529066E+03
       382  21  5.395470E+05  1.234637E+05  6.498401E+04  1.911269E+05 -1.473098E+04  7.092295E+03
       382  22  3.473340E+05  1.161049E+05  7.678935E+04  1.217366E+05 -5.031579E+04 -1.518864E+04
       382  23  3.343600E+05  5.559608E+04  3.349619E+04  1.367363E+05 -3.513039E+04 -1.180358E+03
       382  24  3.388755E+05  5.696481E+04  1.886238E+04  1.441291E+05 -1.739297E+04  6.084540E+03
       382  25  1.317077E+05  6.575424E+03  1.398975E+04  3.386562E+04 -4.053588E+04 -1.148506E+04
       382  26  1.268425E+05 -3.180849E+04 -1.850372E+04  6.930854E+04 -3.157144E+04  1.677125E+02
       382  27  1.382425E+05 -9.533646E+03 -2.726228E+04  9.714385E+04 -2.005404E+04  5.077042E+03
       383   1  5.133758E+05  1.295263E+05  5.727579E+04  1.909223E+05  1.383844E+04 -5.911029E+03
       383   2  4.954906E+05  1.149437E+05  4.503696E+04  1.820329E+05  9.328621E+03 -6.604378E+03
       383   3  4.732281E+05  1.097860E+05  3.678494E+04  1.794198E+05  4.705352E+03 -6.998274E+03
       383   4  3.364442E+05  6.233185E+04  1.488661E+04  1.407651E+05  1.451624E+04 -5.654645E+03
       383   5  3.384317E+05  5.604226E+04  7.694492E+03  1.382353E+05  1.028360E+04 -6.242909E+03
       383   6  3.359871E+05  5.912322E+04  4.270373E+03  1.419817E+05  5.937350E+03 -6.531746E+03
       383   7  1.595437E+05 -4.860059E+03 -2.750483E+04  9.062106E+04  1.519384E+04 -5.398345E+03
       383   8  1.813977E+05 -2.857130E+03 -2.964962E+04  9.444806E+04  1.123831E+04 -5.881542E+03
       383   9  1.987655E+05  8.462042E+03 -2.824532E+04  1.045513E+05  7.169044E+03 -6.065331E+03
       383  10  5.133756E+05  1.295263E+05  5.727537E+04  1.909224E+05  5.588961E-11  7.599395E-10
       383  11  4.954905E+05  1.149436E+05  4.503671E+04  1.820329E+05  1.236429E-09  9.130327E-09
       383  12  4.732281E+05  1.097859E+05  3.678481E+04  1.794198E+05  3.092376E-09  2.233497E-09
       383  13  3.364440E+05  6.233175E+04  1.488615E+04  1.407652E+05 -1.782635E-09  3.343972E-09
       383  14  3.384316E+05  5.604219E+04  7.694220E+03  1.382354E+05 -2.723859E-09 -2.051446E-08
       383  15  3.359870E+05  5.912317E+04  4.270226E+03  1.419817E+05 -9.030173E-10 -3.646959E-09
       383  16  1.595434E+05 -4.860152E+03 -2.750532E+04  9.062113E+04 -2.075004E-09 -1.897775E-09
       383  17  1.813976E+05 -2.857201E+03 -2.964992E+04  9.444811E+04 -3.714264E-09 -1.117588E-08
       383  18  1.987654E+05  8.461988E+03 -2.824549E+04  1.045514E+05 -2.896237E-09 -6.019554E-09
       383  19  5.133758E+05  1.295263E+05  5.727579E+04  1.909223E+05 -1.383844E+04  5.911029E+03
       383  20  4.954906E+05  1.149437E+05  4.503696E+04  1.820329E+05 -9.328621E+03  6.604378E+03
       383  21  4.732281E+05  1.097860E+05  3.678494E+04  1.794198E+05 -4.705352E+03  6.998274E+03
       383  22  3.364442E+05  6.233185E+04  1.488661E+04  1.407651E+05 -1.451624E+04  5.654645E+03
       383  23  3.384317E+05  5.604226E+04  7.694492E+03  1.382353E+05 -1.028360E+04  6.242909E+03
       383  24  3.359871E+05  5.912322E+04  4.270373E+03  1.419817E+05 -5.937350E+03  6.531746E+03
       383  25  1.595437E+05 -4.860059E+03 -2.750483E+04  9.062106E+04 -1.519384E+04  5.398345E+03
       383  26  1.813977E+05 -2.857130E+03 -2.964962E+04  9.444806E+04 -1.123831E+04  5.881542E+03
       383  27  1.987655E+05  8.462042E+03 -2.824532E+04  1.045513E+05 -7.169044E+03  6.065331E+03
       384   1  4.560433E+05  1.042421E+05  3.170073E+04  1.750621E+05  3.904953E+03 -6.430467E+03
       384   2  4.386346E+05  9.340283E+04  2.545722E+04  1.659711E+05  2.536538E+03 -5.525122E+03
       384   3  4.152828E+05  8.889579E+04  1.993126E+04  1.638066E+05  1.163363E+03 -4.607671E+03
       384   4  3.357884E+05  5.939801E+04  3.243926E+03  1.417669E+05  5.046917E+03 -5.997978E+03
       384   5  3.387511E+05  5.615861E+04  1.773165E+03  1.383320E+05  3.689852E+03 -5.088247E+03
       384   6  3.357684E+05  5.924946E+04  1.011191E+03  1.418237E+05  2.327998E+03 -4.166418E+03
       384   7  2.155473E+05  1.455469E+04 -2.521408E+04  1.084773E+05  6.188646E+03 -5.565578E+03
       384   8  2.388772E+05  1.891502E+04 -2.191167E+04  1.106969E+05  4.842968E+03 -4.651447E+03
       384   9  2.562602E+05  2.960359E+04 -1.790933E+04  1.198433E+05  3.492471E+03 -3.725227E+03
       384  10  4.560432E+05  1.042421E+05  3.170062E+04  1.750622E+05 -4.101373E-09 -8.438086E-09
       384  11  4.386346E+05  9.340279E+04  2.545715E+04  1.659712E+05  3.595826E-09 -2.933739E-09
       384  12  4.152828E+05  8.889576E+04  1.993121E+04  1.638066E+05  1.509794E-08 -1.104773E-09
       384  13  3.357884E+05  5.939796E+04  3.243810E+03  1.417669E+05 -4.190817E-10 -1.022954E-09
       384  14  3.387511E+05  5.615858E+04  1.773091E+03  1.383320E+05 -1.926387E-09  6.491695E-10
       384  15  3.357684E+05  5.924944E+04  1.011148E+03  1.418237E+05  2.548870E-09  4.884136E-09
       384  16  2.155473E+05  1.455464E+04 -2.521421E+04  1.084773E+05  3.949443E-09 -2.055049E-09
       384  17  2.388771E+05  1.891499E+04 -2.191176E+04  1.106969E+05 -6.270568E-09  7.540009E-09
       384  18  2.562602E+05  2.960357E+04 -1.790938E+04  1.198433E+05 -8.135365E-09  5.107192E-09
       384  19  4.560433E+05  1.042421E+05  3.170073E+04  1.750621E+05 -3.904953E+03  6.430467E+03
       384  20  4.386346E+05  9.340283E+04  2.545722E+04  1.659711E+05 -2.536538E+03  5.525122E+03
       384  21  4.152828E+05  8.889579E+04  1.993126E+04  1.638066E+05 -1.163363E+03  4.607671E+03
       384  22  3.357884E+05  5.939801E+04  3.243926E+03  1.417669E+05 -5.046917E+03  5.997978E+03
       384  23  3.387511E+05  5.615861E+04  1.773165E+03  1.383320E+05 -3.689852E+03  5.088247E+03
       384  24  3.357684E+05  5.924946E+04  1.011191E+03  1.418237E+05 -2.327998E+03  4.166418E+03
       384  25  2.155473E+05  1.455469E+04 -2.521408E+04  1.084773E+05 -6.188646E+03  5.565578E+03
       384  26  2.388772E+05  1.891502E+04 -2.191167E+04  1.106969E+05 -4.842968E+03  4.651447E+03
       384  27  2.562602E+05  2.960359E+04 -1.790933E+04  1.198433E+05 -3.492471E+03  3.725227E+03
       385   1  3.987070E+05  8.273158E+04  1.564594E+04  1.592409E+05  7.413338E+02 -3.927876E+03
       385   2  3.814095E+05  7.209179E+04  1.061725E+04  1.501470E+05  1.107937E+01 -2.765648E+03
       385   3  3.580298E+05  6.758846E+04  5.780107E+03  1.479788E+05 -7.192364E+02 -1.603409E+03
       385   4  3.357457E+05  5.925738E+04  7.860477E+02  1.418044E+05  1.901239E+03 -3.488379E+03
       385   5  3.387873E+05  5.618818E+04  5.094327E+02  1.383421E+05  1.171010E+03 -2.326109E+03
       385   6  3.357461E+05  5.925548E+04  4.243640E+02  1.418054E+05  4.407081E+02 -1.163825E+03
       385   7  2.727887E+05  3.578360E+04 -1.407402E+04  1.243696E+05  3.061009E+03 -3.048934E+03
       385   8  2.961668E+05  4.028472E+04 -9.598507E+03  1.265380E+05  2.330854E+03 -1.886602E+03
       385   9  3.134627E+05  5.092250E+04 -4.931442E+03  1.356323E+05  1.600613E+03 -7.242562E+02
       385  10  3.987069E+05  8.273157E+04  1.564591E+04  1.592409E+05 -1.568901E-08 -6.833504E-09
       385  11  3.814095E+05  7.209178E+04  1.061723E+04  1.501470E+05  9.928720E-10  3.438146E-09
       385  12  3.580298E+05  6.758846E+04  5.780101E+03  1.479788E+05  2.422530E-08  8.548966E-09
       385  13  3.357457E+05  5.925737E+04  7.860181E+02  1.418044E+05  2.814494E-09  5.430811E-09
       385  14  3.387873E+05  5.618818E+04  5.094199E+02  1.383421E+05  1.742762E-09 -3.637121E-09
       385  15  3.357461E+05  5.925548E+04  4.243611E+02  1.418054E+05  4.384631E-09 -2.916518E-09
       385  16  2.727887E+05  3.578358E+04 -1.407406E+04  1.243696E+05  1.998420E-08  1.448882E-08
       385  17  2.961668E+05  4.028471E+04 -9.598524E+03  1.265380E+05 -6.477620E-10  3.834016E-09
       385  18  3.134627E+05  5.092250E+04 -4.931448E+03  1.356323E+05 -1.380640E-08 -5.185657E-09
       385  19  3.987070E+05  8.273158E+04  1.564594E+04  1.592409E+05 -7.413338E+02  3.927876E+03
       385  20  3.814095E+05  7.209179E+04  1.061725E+04  1.501470E+05 -1.107937E+01  2.765648E+03
       385  21  3.580298E+05  6.758846E+04  5.780107E+03  1.479788E+05  7.192364E+02  1.603409E+03
       385  22  3.357457E+05  5.925738E+04  7.860477E+02  1.418044E+05 -1.901239E+03  3.488379E+03
       385  23  3.387873E+05  5.618818E+04  5.094327E+02  1.383421E+05 -1.171010E+03  2.326109E+03
       385  24  3.357461E+05  5.925548E+04  4.243640E+02  1.418054E+05 -4.407081E+02  1.163825E+03
       385  25  2.727887E+05  3.578360E+04 -1.407402E+04  1.243696E+05 -3.061009E+03  3.048934E+03
       385  26  2.961668E+05  4.028472E+04 -9.598507E+03  1.265380E+05 -2.330854E+03  1.886602E+03
       385  27  3.134627E+05  5.092250E+04 -4.931442E+03  1.356323E+05 -1.600613E+03  7.242562E+02
       386   1  3.415214E+05  6.140341E+04  1.738529E+03  1.434152E+05 -1.068342E+03 -8.982620E+02
       386   2  3.242295E+05  5.077020E+04 -2.861222E+03  1.343251E+05 -1.837595E+03  2.488544E+02
       386   3  3.008643E+05  4.627411E+04 -7.239625E+03  1.321586E+05 -2.606676E+03  1.395699E+03
       386   4  3.357481E+05  5.925514E+04  4.385248E+02  1.418052E+05  9.137523E+01 -4.587555E+02
       386   5  3.387851E+05  5.618819E+04  5.885031E+02  1.383428E+05 -6.781752E+02  6.882338E+02
       386   6  3.357484E+05  5.925832E+04  9.600397E+02  1.418039E+05 -1.447563E+03  1.834947E+03
       386   7  3.299748E+05  5.710687E+04 -8.614757E+02  1.401951E+05  1.251080E+03 -1.925340E+01
       386   8  3.533409E+05  6.160618E+04  4.038207E+03  1.423606E+05  4.812707E+02  1.127623E+03
       386   9  3.706335E+05  7.224254E+04  9.159572E+03  1.514496E+05 -2.883861E+02  2.274221E+03
       386  10  3.415214E+05  6.140340E+04  1.738526E+03  1.434152E+05  4.554170E-10 -2.099760E-09
       386  11  3.242295E+05  5.077020E+04 -2.861228E+03  1.343251E+05 -5.256263E-09 -1.072881E-08
       386  12  3.008643E+05  4.627411E+04 -7.239641E+03  1.321586E+05 -1.018200E-08 -1.026792E-08
       386  13  3.357481E+05  5.925514E+04  4.385244E+02  1.418052E+05  5.639279E-09 -1.275000E-09
       386  14  3.387851E+05  5.618819E+04  5.885014E+02  1.383428E+05 -3.048269E-10  5.291169E-09
       386  15  3.357484E+05  5.925831E+04  9.600294E+02  1.418039E+05 -3.370893E-09  7.657016E-09
       386  16  3.299748E+05  5.710687E+04 -8.614786E+02  1.401951E+05  1.040187E-08  2.209475E-09
       386  17  3.533409E+05  6.160617E+04  4.038204E+03  1.423606E+05  8.717862E-09  5.147819E-09
       386  18  3.706335E+05  7.224253E+04  9.159562E+03  1.514496E+05  5.905898E-09  1.289994E-09
       386  19  3.415214E+05  6.140341E+04  1.738529E+03  1.434152E+05  1.068342E+03  8.982620E+02
       386  20  3.242295E+05  5.077020E+04 -2.861222E+03  1.343251E+05  1.837595E+03 -2.488544E+02
       386  21  3.008643E+05  4.627411E+04 -7.239625E+03  1.321586E+05  2.606676E+03 -1.395699E+03
       386  22  3.357481E+05  5.925514E+04  4.385248E+02  1.418052E+05 -9.137523E+01  4.587555E+02
       386  23  3.387851E+05  5.618819E+04  5.885031E+02  1.383428E+05  6.781752E+02 -6.882338E+02
       386  24  3.357484E+05  5.925832E+04  9.600397E+02  1.418039E+05  1.447563E+03 -1.834947E+03
       386  25  3.299748E+05  5.710687E+04 -8.614757E+02  1.401951E+05 -1.251080E+03  1.925340E+01
       386  26  3.533409E+05  6.160618E+04  4.038207E+03  1.423606E+05 -4.812707E+02 -1.127623E+03
       386  27  3.706335E+05  7.224254E+04  9.159572E+03  1.514496E+05  2.883861E+02 -2.274221E+03
       387   1  2.843502E+05  4.009998E+04 -1.100695E+04  1.276439E+05 -3.071277E+03  2.058593E+03
       387   2  2.669710E+05  2.941703E+04 -1.479637E+04  1.184993E+05 -4.645116E+03  2.899030E+03
       387   3  2.436989E+05  2.510421E+04 -1.770715E+04  1.162688E+05 -6.214623E+03  3.728484E+03
       387   4  3.357794E+05  5.924668E+04  1.250368E+03  1.418258E+05 -1.908213E+03  2.499317E+03
       387   5  3.387378E+05  5.615508E+04  2.218834E+03  1.383327E+05 -3.492344E+03  3.335794E+03
       387   6  3.358054E+05  5.943573E+04  4.074160E+03  1.417537E+05 -5.072178E+03  4.161277E+03
       387   7  3.872115E+05  7.839367E+04  1.350758E+04  1.560089E+05 -7.450377E+02  2.940082E+03
       387   8  4.105099E+05  8.289358E+04  1.923374E+04  1.581683E+05 -2.339423E+03  3.772615E+03
       387   9  4.279202E+05  9.376789E+04  2.585488E+04  1.672420E+05 -3.929549E+03  4.594139E+03
       387  10  2.843502E+05  4.009997E+04 -1.100697E+04  1.276439E+05 -1.335474E-08 -1.074669E-08
       387  11  2.669710E+05  2.941702E+04 -1.479643E+04  1.184993E+05 -3.922250E-09  1.163145E-08
       387  12  2.436989E+05  2.510418E+04 -1.770725E+04  1.162688E+05  3.816106E-09  7.827967E-09
       387  13  3.357794E+05  5.924667E+04  1.250350E+03  1.418258E+05 -3.911564E-09 -1.253268E-09
       387  14  3.387378E+05  5.615507E+04  2.218790E+03  1.383327E+05 -2.245779E-09  1.282651E-09
       387  15  3.358053E+05  5.943571E+04  4.074079E+03  1.417537E+05 -1.850423E-09 -6.122296E-09
       387  16  3.872115E+05  7.839366E+04  1.350756E+04  1.560089E+05  6.823125E-09  7.187385E-09
       387  17  4.105099E+05  8.289357E+04  1.923370E+04  1.581683E+05 -1.342102E-09  5.091955E-09
       387  18  4.279202E+05  9.376787E+04  2.585481E+04  1.672420E+05 -8.417325E-09 -2.349616E-09
       387  19  2.843502E+05  4.009998E+04 -1.100695E+04  1.276439E+05  3.071277E+03 -2.058593E+03
       387  20  2.669710E+05  2.941703E+04 -1.479637E+04  1.184993E+05  4.645116E+03 -2.899030E+03
       387  21  2.436989E+05  2.510421E+04 -1.770715E+04  1.162688E+05  6.214623E+03 -3.728484E+03
       387  22  3.357794E+05  5.924668E+04  1.250368E+03  1.418258E+05  1.908213E+03 -2.499317E+03
       387  23  3.387378E+05  5.615508E+04  2.218834E+03  1.383327E+05  3.492344E+03 -3.335794E+03
       387  24  3.358054E+05  5.943573E+04  4.074160E+03  1.417537E+05  5.072178E+03 -4.161277E+03
       387  25  3.872115E+05  7.839367E+04  1.350758E+04  1.560089E+05  7.450377E+02 -2.940082E+03
       387  26  4.105099E+05  8.289358E+04  1.923374E+04  1.581683E+05  2.339423E+03 -3.772615E+03
       387  27  4.279202E+05  9.376789E+04  2.585488E+04  1.672420E+05  3.929549E+03 -4.594139E+03
       388   1  2.269006E+05  1.905154E+04 -2.046632E+04  1.125192E+05 -7.337133E+03  4.169385E+03
       388   2  2.095681E+05  7.589472E+03 -2.096971E+04  1.021785E+05 -1.244495E+04  3.599561E+03
       388   3  1.882070E+05  6.272818E+03 -1.692737E+04  9.792787E+04 -1.745216E+04  2.765196E+03
       388   4  3.360578E+05  5.908941E+04  5.367151E+03  1.420231E+05 -6.115335E+03  4.632194E+03
       388   5  3.383362E+05  5.601229E+04  9.676674E+03  1.382125E+05 -1.146807E+04  3.969464E+03
       388   6  3.366338E+05  6.312822E+04  1.872529E+04  1.404916E+05 -1.672039E+04  3.042135E+03
       388   7  4.452262E+05  9.912785E+04  3.119963E+04  1.715315E+05 -4.893309E+03  5.095086E+03
       388   8  4.671208E+05  1.044364E+05  4.032187E+04  1.742533E+05 -1.049097E+04  4.339451E+03
       388   9  4.850832E+05  1.199859E+05  5.437656E+04  1.830649E+05 -1.598843E+04  3.319151E+03
       388  10  2.269005E+05  1.905150E+04 -2.046646E+04  1.125192E+05  2.640907E-08  1.772967E-08
       388  11  2.095679E+05  7.589416E+03 -2.097002E+04  1.021785E+05  1.164872E-08  1.677323E-08
       388  12  1.882066E+05  6.272728E+03 -1.692795E+04  9.792791E+04 -2.016490E-08  1.170235E-09
       388  13  3.360577E+05  5.908938E+04  5.367041E+03  1.420231E+05  3.088789E-09 -6.427627E-09
       388  14  3.383361E+05  5.601224E+04  9.676398E+03  1.382125E+05  5.855480E-09  3.341599E-10
       388  15  3.366335E+05  6.312814E+04  1.872475E+04  1.404916E+05  2.223834E-09 -6.841624E-10
       388  16  4.452262E+05  9.912781E+04  3.119953E+04  1.715315E+05 -2.443489E-08 -6.355448E-09
       388  17  4.671207E+05  1.044363E+05  4.032163E+04  1.742533E+05  2.108906E-09 -1.188972E-09
       388  18  4.850830E+05  1.199858E+05  5.437606E+04  1.830649E+05  2.483762E-08 -5.667224E-09
       388  19  2.269006E+05  1.905154E+04 -2.046632E+04  1.125192E+05  7.337133E+03 -4.169385E+03
       388  20  2.095681E+05  7.589472E+03 -2.096971E+04  1.021785E+05  1.244495E+04 -3.599561E+03
       388  21  1.882070E+05  6.272818E+03 -1.692737E+04  9.792787E+04  1.745216E+04 -2.765196E+03
       388  22  3.360578E+05  5.908941E+04  5.367151E+03  1.420231E+05  6.115335E+03 -4.632194E+03
       388  23  3.383362E+05  5.601229E+04  9.676674E+03  1.382125E+05  1.146807E+04 -3.969464E+03
       388  24  3.366338E+05  6.312822E+04  1.872529E+04  1.404916E+05  1.672039E+04 -3.042135E+03
       388  25  4.452262E+05  9.912785E+04  3.119963E+04  1.715315E+05  4.893309E+03 -5.095086E+03
       388  26  4.671208E+05  1.044364E+05  4.032187E+04  1.742533E+05  1.049097E+04 -4.339451E+03
       388  27  4.850832E+05  1.199859E+05  5.437656E+04  1.830649E+05  1.598843E+04 -3.319151E+03
       389   1  1.657931E+05  2.030728E+03 -1.569024E+04  1.073699E+05 -2.266630E+04  2.228519E+03
       389   2  1.558901E+05 -2.322683E+04 -3.017628E+03  7.462421E+04 -3.960659E+04 -4.504729E+03
       389   3  1.684348E+05  2.674731E+04  4.135666E+04  3.057488E+04 -5.429181E+04 -1.719269E+04
       389   4  3.396759E+05  5.639374E+04  2.372684E+04  1.447402E+05 -2.018267E+04  3.169305E+03
       389   5  3.332371E+05  5.543500E+04  4.213669E+04  1.363056E+05 -4.261775E+04 -5.646033E+03
       389   6  3.503246E+05  1.307812E+05  9.659710E+04  1.165698E+05 -6.279825E+04 -2.041674E+04
       389   7  5.135894E+05  1.107571E+05  6.314220E+04  1.821191E+05 -1.769826E+04  4.110275E+03
       389   8  5.106143E+05  1.341023E+05  8.728811E+04  1.980037E+05 -4.562981E+04 -6.787830E+03
       389   9  5.322462E+05  2.348304E+05  1.518337E+05  2.025901E+05 -7.130724E+04 -2.364298E+04
       389  10  1.657925E+05  2.030585E+03 -1.569122E+04  1.073700E+05  3.726751E-09  1.646315E-08
       389  11  1.558884E+05 -2.322728E+04 -3.020613E+03  7.462407E+04  1.335802E-09 -3.500484E-09
       389  12  1.684315E+05  2.674620E+04  4.135057E+04  3.057413E+04 -4.765535E-09 -5.309573E-10
       389  13  3.396755E+05  5.639362E+04  2.372606E+04  1.447402E+05  7.810426E-10 -5.181424E-09
       389  14  3.332352E+05  5.543448E+04  4.213322E+04  1.363054E+05  2.798977E-09  7.969498E-10
       389  15  3.503202E+05  1.307797E+05  9.658891E+04  1.165688E+05 -9.350529E-11  4.398263E-09
       389  16  5.135890E+05  1.107570E+05  6.314158E+04  1.821192E+05 -1.413917E-09  3.199622E-09
       389  17  5.106121E+05  1.341017E+05  8.728411E+04  1.980035E+05  1.048369E-09 -7.680976E-09
       389  18  5.322406E+05  2.348284E+05  1.518231E+05  2.025888E+05  2.982058E-09  4.692398E-09
       389  19  1.657931E+05  2.030728E+03 -1.569024E+04  1.073699E+05  2.266630E+04 -2.228519E+03
       389  20  1.558901E+05 -2.322683E+04 -3.017628E+03  7.462421E+04  3.960659E+04  4.504729E+03
       389  21  1.684348E+05  2.674731E+04  4.135666E+04  3.057488E+04  5.429181E+04  1.719269E+04
       389  22  3.396759E+05  5.639374E+04  2.372684E+04  1.447402E+05  2.018267E+04 -3.169305E+03
       389  23  3.332371E+05  5.543500E+04  4.213669E+04  1.363056E+05  4.261775E+04  5.646033E+03
       389  24  3.503246E+05  1.307812E+05  9.659710E+04  1.165698E+05  6.279825E+04  2.041674E+04
       389  25  5.135894E+05  1.107571E+05  6.314220E+04  1.821191E+05  1.769826E+04 -4.110275E+03
       389  26  5.106143E+05  1.341023E+05  8.728811E+04  1.980037E+05  4.562981E+04  6.787830E+03
       389  27  5.322462E+05  2.348304E+05  1.518337E+05  2.025901E+05  7.130724E+04  2.364298E+04
       390   1 -1.252278E+05 -6.170583E+05 -1.247297E+05  9.301890E+04 -4.912164E+03 -2.539894E+04
       390   2 -7.912218E+04 -4.881098E+05 -7.897436E+04  6.458541E+04 -1.392674E+04 -8.963691E+03
       390   3 -4.751462E+04 -3.645390E+05 -4.749507E+04  8.409750E+04 -1.029874E+04  7.511782E+03
       390   4 -1.371898E+04 -1.688783E+05 -1.581571E+04  8.547830E+04 -4.954167E+03 -1.036893E+04
       390   5 -6.452210E+02 -1.672497E+05 -7.662195E+03  6.152513E+04 -1.393334E+04 -6.361274E+03
       390   6  9.420835E+01 -1.688530E+05 -5.145633E+03  8.551701E+04 -1.027263E+04 -2.317022E+03
       390   7  9.777537E+04  2.794858E+05  9.308466E+04  7.793236E+04 -4.996521E+03  4.671908E+03
       390   8  7.782480E+04  1.537064E+05  6.364358E+04  5.846331E+04 -1.393996E+04 -3.757526E+03
       390   9  4.770057E+04  2.686916E+04  3.720189E+04  8.693699E+04 -1.024657E+04 -1.214888E+04
       390  10 -1.252280E+05 -6.170590E+05 -1.247310E+05  9.301880E+04  2.085484E-09  1.157453E-08
       390  11 -7.912241E+04 -4.881099E+05 -7.897487E+04  6.458531E+04  2.950633E-09 -6.942353E-09
       390  12 -4.751475E+04 -3.645391E+05 -4.749537E+04  8.409756E+04 -1.684297E-09 -7.116179E-10
       390  13 -1.371903E+04 -1.688784E+05 -1.581596E+04  8.547826E+04  3.329346E-09  2.199937E-09
       390  14 -6.454403E+02 -1.672498E+05 -7.662635E+03  6.152506E+04  1.610601E-10 -7.331585E-09
       390  15  9.409361E+01 -1.688530E+05 -5.145841E+03  8.551699E+04 -2.070017E-09 -1.565620E-08
       390  16  9.777533E+04  2.794857E+05  9.308457E+04  7.793238E+04  1.702984E-09 -8.365955E-09
       390  17  7.782458E+04  1.537063E+05  6.364319E+04  5.846327E+04  2.136443E-09 -2.625365E-09
       390  18  4.770042E+04  2.686897E+04  3.720142E+04  8.693689E+04 -2.610201E-09 -2.833635E-09
       390  19 -1.252278E+05 -6.170583E+05 -1.247297E+05  9.301890E+04  4.912164E+03  2.539894E+04
       390  20 -7.912218E+04 -4.881098E+05 -7.897436E+04  6.458541E+04  1.392674E+04  8.963691E+03
       390  21 -4.751462E+04 -3.645390E+05 -4.749507E+04  8.409750E+04  1.029874E+04 -7.511782E+03
       390  22 -1.371898E+04 -1.688783E+05 -1.581571E+04  8.547830E+04  4.954167E+03  1.036893E+04
       390  23 -6.452210E+02 -1.672497E+05 -7.662195E+03  6.152513E+04  1.393334E+04  6.361274E+03
       390  24  9.420835E+01 -1.688530E+05 -5.145633E+03  8.551701E+04  1.027263E+04  2.317022E+03
       390  25  9.777537E+04  2.794858E+05  9.308466E+04  7.793236E+04  4.996521E+03 -4.671908E+03
       390  26  7.782480E+04  1.537064E+05  6.364358E+04  5.846331E+04  1.393996E+04  3.757526E+03
       390  27  4.770057E+04  2.686916E+04  3.720189E+04  8.693699E+04  1.024657E+04  1.214888E+04
       391   1 -2.453750E+04 -2.645902E+05 -2.556067E+04  8.622932E+04 -4.932393E+03  4.948972E+03
       391   2  6.945618E+03 -1.381912E+05  2.295436E+03  6.129531E+04  1.603332E+03  6.966407E+03
       391   3  3.669768E+04 -1.213298E+04  2.848197E+04  8.489311E+04  8.069229E+03  8.984284E+03
       391   4 -1.063647E+03 -1.682104E+05 -4.610629E+03  8.563753E+04 -4.915501E+03 -1.520109E+03
       391   5 -3.073092E+02 -1.680277E+05 -4.126241E+03  6.137118E+04  1.620185E+03  5.655040E+02
       391   6 -1.292956E+03 -1.682127E+05 -5.358257E+03  8.563693E+04  8.085989E+03  2.651166E+03
       391   7  2.240962E+04 -7.182183E+04  1.633901E+04  8.504564E+04 -4.898597E+03 -7.990182E+03
       391   8 -7.560273E+03 -1.978632E+05 -1.054782E+04  6.144705E+04  1.637036E+03 -5.835095E+03
       391   9 -3.928518E+04 -3.242695E+05 -3.919978E+04  8.638057E+04  8.102735E+03 -3.680380E+03
       391  10 -2.453754E+04 -2.645902E+05 -2.556076E+04  8.622934E+04 -2.017874E-09  1.943873E-08
       391  11  6.945603E+03 -1.381912E+05  2.295340E+03  6.129530E+04  5.644155E-09  1.171733E-09
       391  12  3.669759E+04 -1.213308E+04  2.848169E+04  8.489305E+04 -1.481107E-09  6.492766E-11
       391  13 -1.063674E+03 -1.682104E+05 -4.610679E+03  8.563752E+04 -2.317253E-09 -3.668024E-12
       391  14 -3.073121E+02 -1.680277E+05 -4.126247E+03  6.137118E+04  5.530401E-09 -6.971003E-09
       391  15 -1.293028E+03 -1.682127E+05 -5.358393E+03  8.563691E+04  1.124928E-09 -7.225195E-09
       391  16  2.240957E+04 -7.182190E+04  1.633885E+04  8.504561E+04 -2.965659E-09 -1.218802E-08
       391  17 -7.560285E+03 -1.978633E+05 -1.054789E+04  6.144706E+04  3.684795E-10 -3.592649E-09
       391  18 -3.928526E+04 -3.242695E+05 -3.919993E+04  8.638059E+04  9.224189E-11 -1.480272E-09
       391  19 -2.453750E+04 -2.645902E+05 -2.556067E+04  8.622932E+04  4.932393E+03 -4.948972E+03
       391  20  6.945618E+03 -1.381912E+05  2.295436E+03  6.129531E+04 -1.603332E+03 -6.966407E+03
       391  21  3.669768E+04 -1.213298E+04  2.848197E+04  8.489311E+04 -8.069229E+03 -8.984284E+03
       391  22 -1.063647E+03 -1.682104E+05 -4.610629E+03  8.563753E+04  4.915501E+03  1.520109E+03
       391  23 -3.073092E+02 -1.680277E+05 -4.126241E+03  6.137118E+04 -1.620185E+03 -5.655040E+02
       391  24 -1.292956E+03 -1.682127E+05 -5.358257E+03  8.563693E+04 -8.085989E+03 -2.651166E+03
       391  25  2.240962E+04 -7.182183E+04  1.633901E+04  8.504564E+04  4.898597E+03  7.990182E+03
       391  26 -7.560273E+03 -1.978632E+05 -1.054782E+04  6.144705E+04 -1.637036E+03  5.835095E+03
       391  27 -3.928518E+04 -3.242695E+05 -3.919978E+04  8.638057E+04 -8.102735E+03  3.680380E+03
       392   1  6.239944E+04  8.635187E+04  4.891524E+04  8.739542E+04  1.352401E+04  1.372795E+04
       392   2  9.225628E+04  2.136086E+05  7.450553E+04  5.759047E+04  1.676858E+04  5.014539E+03
       392   3  1.083267E+05  3.389641E+05  1.024046E+05  7.564075E+04  5.854076E+03 -3.742284E+03
       392   4  2.852845E+02 -1.691033E+05 -6.261167E+03  8.550089E+04  1.355133E+04  3.588356E+03
       392   5 -7.540974E+02 -1.669502E+05 -9.884288E+03  6.154581E+04  1.675874E+04  8.809168E+03
       392   6 -1.800249E+04 -1.691335E+05 -2.087623E+04  8.544876E+04  5.803016E+03  1.398806E+04
       392   7 -6.183310E+04 -4.244969E+05 -6.144104E+04  8.360719E+04  1.357872E+04 -6.547119E+03
       392   8 -9.377420E+04 -5.473738E+05 -9.428303E+04  6.549878E+04  1.674894E+04  1.260150E+04
       392   9 -1.443502E+05 -6.769945E+05 -1.441744E+05  9.524887E+04  5.752497E+03  3.170394E+04
       392  10  6.239920E+04  8.635162E+04  4.891454E+04  8.739527E+04 -2.669864E-09  1.109303E-08
       392  11  9.225597E+04  2.136085E+05  7.450495E+04  5.759040E+04  1.644728E-09 -1.463342E-09
       392  12  1.083267E+05  3.389641E+05  1.024045E+05  7.564077E+04  2.937166E-10  1.778055E-09
       392  13  2.850838E+02 -1.691033E+05 -6.261537E+03  8.550085E+04 -3.608905E-09 -4.019806E-11
       392  14 -7.544198E+02 -1.669503E+05 -9.884962E+03  6.154569E+04  3.236993E-09 -6.267928E-09
       392  15 -1.800257E+04 -1.691337E+05 -2.087666E+04  8.544869E+04  5.265263E-10 -4.738029E-09
       392  16 -6.183331E+04 -4.244970E+05 -6.144147E+04  8.360726E+04 -8.978923E-11 -1.127032E-08
       392  17 -9.377454E+04 -5.473740E+05 -9.428386E+04  6.549861E+04  3.717007E-09 -5.376446E-10
       392  18 -1.443505E+05 -6.769956E+05 -1.441764E+05  9.524872E+04  6.211388E-10 -1.019372E-09
       392  19  6.239944E+04  8.635187E+04  4.891524E+04  8.739542E+04 -1.352401E+04 -1.372795E+04
       392  20  9.225628E+04  2.136086E+05  7.450553E+04  5.759047E+04 -1.676858E+04 -5.014539E+03
       392  21  1.083267E+05  3.389641E+05  1.024046E+05  7.564075E+04 -5.854076E+03  3.742284E+03
       392  22  2.852845E+02 -1.691033E+05 -6.261167E+03  8.550089E+04 -1.355133E+04 -3.588356E+03
       392  23 -7.540974E+02 -1.669502E+05 -9.884288E+03  6.154581E+04 -1.675874E+04 -8.809168E+03
       392  24 -1.800249E+04 -1.691335E+05 -2.087623E+04  8.544876E+04 -5.803016E+03 -1.398806E+04
       392  25 -6.183310E+04 -4.244969E+05 -6.144104E+04  8.360719E+04 -1.357872E+04  6.547119E+03
       392  26 -9.377420E+04 -5.473738E+05 -9.428303E+04  6.549878E+04 -1.674894E+04 -1.260150E+04
       392  27 -1.443502E+05 -6.769945E+05 -1.441744E+05  9.524887E+04 -5.752497E+03 -3.170394E+04
       393   1  1.593202E+05 -1.309193E+05 -1.229950E+05 -2.211155E+04 -9.452352E+03  8.144488E+03
       393   2  2.057095E+05 -1.353653E+05 -1.118399E+05 -1.940605E+04  5.631545E+02  2.593596E+04
       393   3  2.546689E+05 -1.248331E+05 -1.034415E+05 -3.423860E+04  1.059525E+04  2.786611E+04
       393   4  7.647135E+05  1.928798E+04  2.305123E+04 -3.132161E+04  1.586421E+04  8.167430E+03
       393   5  7.620890E+05  3.283899E+02  1.056635E+04 -2.254520E+04  1.026751E+04  2.594160E+04
       393   6  7.647366E+05 -9.515723E+02  6.157861E+03 -3.130573E+04  4.686493E+03  2.786103E+04
       393   7  1.370443E+06  1.694692E+05  1.690737E+05 -4.054074E+04  4.120536E+04  8.189611E+03
       393   8  1.318758E+06  1.360015E+05  1.329540E+05 -2.568725E+04  1.998046E+04  2.594714E+04
       393   9  1.275049E+06  1.229130E+05  1.157422E+05 -2.837046E+04 -1.227053E+03  2.785591E+04
       393  10  1.593201E+05 -1.309194E+05 -1.229953E+05 -2.211149E+04  1.735636E-10  2.962741E-11
       393  11  2.057093E+05 -1.353661E+05 -1.118411E+05 -1.940606E+04 -1.916109E-10  2.774749E-11
       393  12  2.546685E+05 -1.248340E+05 -1.034432E+05 -3.423884E+04 -8.836326E-11  2.469976E-11
       393  13  7.647132E+05  1.928784E+04  2.305063E+04 -3.132171E+04 -3.997764E-11  1.280657E-12
       393  14  7.620887E+05  3.276388E+02  1.056489E+04 -2.254542E+04 -2.041459E-10 -2.594892E-11
       393  15  7.647364E+05 -9.524120E+02  6.156360E+03 -3.130584E+04  6.907884E-11  9.713215E-11
       393  16  1.370441E+06  1.694687E+05  1.690704E+05 -4.054102E+04  3.651701E-10 -4.607187E-11
       393  17  1.318757E+06  1.360007E+05  1.329520E+05 -2.568767E+04  4.194128E-10 -7.163859E-11
       393  18  1.275049E+06  1.229122E+05  1.157407E+05 -2.837043E+04 -4.699235E-11  3.861930E-11
       393  19  1.593202E+05 -1.309193E+05 -1.229950E+05 -2.211155E+04  9.452352E+03 -8.144488E+03
       393  20  2.057095E+05 -1.353653E+05 -1.118399E+05 -1.940605E+04 -5.631545E+02 -2.593596E+04
       393  21  2.546689E+05 -1.248331E+05 -1.034415E+05 -3.423860E+04 -1.059525E+04 -2.786611E+04
       393  22  7.647135E+05  1.928798E+04  2.305123E+04 -3.132161E+04 -1.586421E+04 -8.167430E+03
       393  23  7.620890E+05  3.283899E+02  1.056635E+04 -2.254520E+04 -1.026751E+04 -2.594160E+04
       393  24  7.647366E+05 -9.515723E+02  6.157861E+03 -3.130573E+04 -4.686493E+03 -2.786103E+04
       393  25  1.370443E+06  1.694692E+05  1.690737E+05 -4.054074E+04 -4.120536E+04 -8.189611E+03
       393  26  1.318758E+06  1.360015E+05  1.329540E+05 -2.568725E+04 -1.998046E+04 -2.594714E+04
       393  27  1.275049E+06  1.229130E+05  1.157422E+05 -2.837046E+04  1.227053E+03 -2.785591E+04
       394   1  2.910285E+05 -1.140050E+05 -9.718105E+04 -3.127964E+04  5.286360E+03  2.504206E+04
       394   2  3.378625E+05 -1.034286E+05 -8.881843E+04 -2.245135E+04  4.666889E+03  2.319501E+04
       394   3  3.850528E+05 -9.205115E+04 -7.983529E+04 -3.167899E+04  4.046429E+03  2.062815E+04
       394   4  7.636778E+05  8.814878E+02  4.872645E+03 -3.142500E+04  3.824831E+03  2.503993E+04
       394   5  7.634457E+05 -6.804041E+01  2.655318E+03 -2.239724E+04  2.495914E+03  2.319303E+04
       394   6  7.636907E+05 -9.375203E+01  1.550420E+03 -3.142464E+04  1.166055E+03  2.062656E+04
       394   7  1.236537E+06  1.157533E+05  1.069132E+05 -3.157049E+04  2.362204E+03  2.503780E+04
       394   8  1.189199E+06  1.032806E+05  9.411848E+04 -2.234310E+04  3.234723E+02  2.319105E+04
       394   9  1.142463E+06  9.185425E+04  8.292777E+04 -3.117013E+04 -1.716050E+03  2.062498E+04
       394  10  2.910283E+05 -1.140057E+05 -9.718228E+04 -3.127975E+04  1.059140E-10 -8.305500E-11
       394  11  3.378623E+05 -1.034291E+05 -8.881948E+04 -2.245144E+04 -4.589754E-11 -9.013057E-11
       394  12  3.850527E+05 -9.205161E+04 -7.983612E+04 -3.167906E+04 -7.659943E-11 -1.625815E-11
       394  13  7.636777E+05  8.808104E+02  4.871439E+03 -3.142508E+04  7.614354E-11  1.137172E-10
       394  14  7.634456E+05 -6.861992E+01  2.654295E+03 -2.239729E+04 -1.710946E-10 -2.153635E-10
       394  15  7.636906E+05 -9.420942E+01  1.549617E+03 -3.142466E+04 -1.722406E-12  3.703854E-11
       394  16  1.236537E+06  1.157526E+05  1.069120E+05 -3.157054E+04  1.369749E-10  1.294769E-10
       394  17  1.189199E+06  1.032800E+05  9.411747E+04 -2.234311E+04  1.879325E-10 -9.207395E-11
       394  18  1.142463E+06  9.185379E+04  8.292697E+04 -3.117011E+04  1.099807E-10 -7.991728E-11
       394  19  2.910285E+05 -1.140050E+05 -9.718105E+04 -3.127964E+04 -5.286360E+03 -2.504206E+04
       394  20  3.378625E+05 -1.034286E+05 -8.881843E+04 -2.245135E+04 -4.666889E+03 -2.319501E+04
       394  21  3.850528E+05 -9.205115E+04 -7.983529E+04 -3.167899E+04 -4.046429E+03 -2.062815E+04
       394  22  7.636778E+05  8.814878E+02  4.872645E+03 -3.142500E+04 -3.824831E+03 -2.503993E+04
       394  23  7.634457E+05 -6.804041E+01  2.655318E+03 -2.239724E+04 -2.495914E+03 -2.319303E+04
       394  24  7.636907E+05 -9.375203E+01  1.550420E+03 -3.142464E+04 -1.166055E+03 -2.062656E+04
       394  25  1.236537E+06  1.157533E+05  1.069132E+05 -3.157049E+04 -2.362204E+03 -2.503780E+04
       394  26  1.189199E+06  1.032806E+05  9.411848E+04 -2.234310E+04 -3.234723E+02 -2.319105E+04
       394  27  1.142463E+06  9.185425E+04  8.292777E+04 -3.117013E+04  1.716050E+03 -2.062498E+04
       395   1  4.216605E+05 -8.300273E+04 -7.209013E+04 -3.147256E+04  3.593812E+03  1.895789E+04
       395   2  4.682532E+05 -7.173204E+04 -6.266714E+04 -2.247205E+04  3.268544E+03  1.623206E+04
       395   3  5.149329E+05 -6.041670E+04 -5.301390E+04 -3.141439E+04  2.942291E+03  1.347891E+04
       395   4  7.636105E+05  3.888771E-01  1.197253E+03 -3.139967E+04  9.240705E+02  1.895668E+04
       395   5  7.635696E+05 -3.265090E+01  7.133832E+02 -2.242850E+04  5.716690E+02  1.623128E+04
       395   6  7.636189E+05 -1.604245E+01  4.787368E+02 -3.139968E+04  2.183067E+02  1.347857E+04
       395   7  1.105670E+06  8.299586E+04  7.447786E+04 -3.132674E+04 -1.747119E+03  1.895547E+04
       395   8  1.058968E+06  7.166104E+04  6.408885E+04 -2.238494E+04 -2.126470E+03  1.623049E+04
       395   9  1.012363E+06  6.038056E+04  5.396778E+04 -3.138495E+04 -2.506753E+03  1.347823E+04
       395  10  4.216604E+05 -8.300312E+04 -7.209083E+04 -3.147262E+04 -4.388532E-11 -1.567650E-10
       395  11  4.682532E+05 -7.173233E+04 -6.266766E+04 -2.247209E+04 -3.128232E-11 -1.019535E-10
       395  12  5.149329E+05 -6.041689E+04 -5.301426E+04 -3.141442E+04 -9.639459E-11  1.625670E-12
       395  13  7.636104E+05  2.623553E-03  1.196576E+03 -3.139969E+04  8.033200E-12  5.323878E-12
       395  14  7.635695E+05 -3.293399E+01  7.128873E+02 -2.242851E+04  3.952299E-14 -4.107941E-11
       395  15  7.636189E+05 -1.623761E+01  4.783952E+02 -3.139968E+04 -7.140072E-11 -9.440329E-11
       395  16  1.105670E+06  8.299548E+04  7.447718E+04 -3.132671E+04  1.404451E-10 -3.866602E-11
       395  17  1.058968E+06  7.166075E+04  6.408834E+04 -2.238491E+04  9.341208E-11 -7.416497E-11
       395  18  1.012363E+06  6.038036E+04  5.396742E+04 -3.138492E+04  9.888393E-11 -5.594911E-11
       395  19  4.216605E+05 -8.300273E+04 -7.209013E+04 -3.147256E+04 -3.593812E+03 -1.895789E+04
       395  20  4.682532E+05 -7.173204E+04 -6.266714E+04 -2.247205E+04 -3.268544E+03 -1.623206E+04
       395  21  5.149329E+05 -6.041670E+04 -5.301390E+04 -3.141439E+04 -2.942291E+03 -1.347891E+04
       395  22  7.636105E+05  3.888771E-01  1.197253E+03 -3.139967E+04 -9.240705E+02 -1.895668E+04
       395  23  7.635696E+05 -3.265090E+01  7.133832E+02 -2.242850E+04 -5.716690E+02 -1.623128E+04
       395  24  7.636189E+05 -1.604245E+01  4.787368E+02 -3.139968E+04 -2.183067E+02 -1.347857E+04
       395  25  1.105670E+06  8.299586E+04  7.447786E+04 -3.132674E+04  1.747119E+03 -1.895547E+04
       395  26  1.058968E+06  7.166104E+04  6.408885E+04 -2.238494E+04  2.126470E+03 -1.623049E+04
       395  27  1.012363E+06  6.038056E+04  5.396778E+04 -3.138495E+04  2.506753E+03 -1.347823E+04
       396   1  5.513601E+05 -5.151298E+04 -4.500091E+04 -3.138118E+04  2.847390E+03  1.187158E+04
       396   2  5.977425E+05 -4.027166E+04 -3.519949E+04 -2.243856E+04  2.653129E+03  9.120080E+03
       396   3  6.441607E+05 -2.902272E+04 -2.526839E+04 -3.135196E+04  2.458305E+03  6.370560E+03
       396   4  7.636098E+05 -1.021831E+01  4.175360E+02 -3.138043E+04  1.371663E+02  1.187145E+04
       396   5  7.635958E+05 -8.219200E+00  3.897397E+02 -2.245256E+04 -5.530811E+01  9.120189E+03
       396   6  7.636144E+05  1.037586E+00  4.902262E+02 -3.138043E+04 -2.483302E+02  6.370918E+03
       396   7  9.759019E+05  5.148960E+04  4.583340E+04 -3.137968E+04 -2.573970E+03  1.187131E+04
       396   8  9.294749E+05  4.025343E+04  3.597739E+04 -2.246657E+04 -2.764457E+03  9.120298E+03
       396   9  8.830815E+05  2.902386E+04  2.624803E+04 -3.140889E+04 -2.955479E+03  6.371276E+03
       396  10  5.513600E+05 -5.151313E+04 -4.500119E+04 -3.138121E+04 -9.024048E-11 -9.757613E-11
       396  11  5.977425E+05 -4.027175E+04 -3.519966E+04 -2.243858E+04  9.905654E-11 -1.383143E-11
       396  12  6.441607E+05 -2.902277E+04 -2.526847E+04 -3.135198E+04  1.521144E-10 -1.204624E-10
       396  13  7.636098E+05 -1.036970E+01  4.172711E+02 -3.138043E+04 -6.650804E-11 -1.766490E-10
       396  14  7.635958E+05 -8.308551E+00  3.895834E+02 -2.245256E+04 -8.581606E-11  1.195757E-10
       396  15  7.636144E+05  9.939686E-01  4.901498E+02 -3.138043E+04  8.163102E-11 -2.198895E-11
       396  16  9.759019E+05  5.148945E+04  4.583312E+04 -3.137965E+04  5.303655E-11 -1.204386E-10
       396  17  9.294748E+05  4.025334E+04  3.597722E+04 -2.246655E+04 -1.332767E-10 -1.298884E-10
       396  18  8.830815E+05  2.902382E+04  2.624793E+04 -3.140888E+04 -3.059468E-11 -1.123106E-10
       396  19  5.513601E+05 -5.151298E+04 -4.500091E+04 -3.138118E+04 -2.847390E+03 -1.187158E+04
       396  20  5.977425E+05 -4.027166E+04 -3.519949E+04 -2.243856E+04 -2.653129E+03 -9.120080E+03
       396  21  6.441607E+05 -2.902272E+04 -2.526839E+04 -3.135196E+04 -2.458305E+03 -6.370560E+03
       396  22  7.636098E+05 -1.021831E+01  4.175360E+02 -3.138043E+04 -1.371663E+02 -1.187145E+04
       396  23  7.635958E+05 -8.219200E+00  3.897397E+02 -2.245256E+04  5.530811E+01 -9.120189E+03
       396  24  7.636144E+05  1.037586E+00  4.902262E+02 -3.138043E+04  2.483302E+02 -6.370918E+03
       396  25  9.759019E+05  5.148960E+04  4.583340E+04 -3.137968E+04  2.573970E+03 -1.187131E+04
       396  26  9.294749E+05  4.025343E+04  3.597739E+04 -2.246657E+04  2.764457E+03 -9.120298E+03
       396  27  8.830815E+05  2.902386E+04  2.624803E+04 -3.140889E+04  2.955479E+03 -6.371276E+03
       397   1  6.804733E+05 -2.015701E+04 -1.712031E+04 -3.134260E+04  2.357552E+03  4.771623E+03
       397   2  7.267414E+05 -8.953902E+03 -6.958115E+03 -2.241707E+04  1.886618E+03  2.026326E+03
       397   3  7.730725E+05  2.270821E+03  3.514204E+03 -3.130583E+04  1.415528E+03 -7.172206E+02
       397   4  7.636222E+05  2.072291E+00  5.930607E+02 -3.137121E+04 -3.470435E+02  4.772073E+03
       397   5  7.635923E+05 -8.505051E+00  9.485819E+02 -2.246409E+04 -8.163671E+02  2.026826E+03
       397   6  7.636231E+05  2.384385E+00  1.613167E+03 -3.137120E+04 -1.285812E+03 -7.166627E+02
       397   7  8.467777E+05  2.016071E+04  1.830607E+04 -3.139981E+04 -3.051996E+03  4.772523E+03
       397   8  8.004445E+05  8.936807E+03  8.855227E+03 -2.251111E+04 -3.519510E+03  2.027326E+03
       397   9  7.541737E+05 -2.266054E+03 -2.878469E+02 -3.143656E+04 -3.987111E+03 -7.161041E+02
       397  10  6.804733E+05 -2.015703E+04 -1.712037E+04 -3.134261E+04 -2.066414E-10 -2.147879E-10
       397  11  7.267414E+05 -8.953908E+03 -6.958130E+03 -2.241707E+04  1.544331E-10 -1.303898E-10
       397  12  7.730725E+05  2.270820E+03  3.514199E+03 -3.130583E+04  6.480366E-11  3.533969E-11
       397  13  7.636222E+05  2.047796E+00  5.930177E+02 -3.137120E+04 -4.371127E-11 -3.676862E-11
       397  14  7.635923E+05 -8.509643E+00  9.485730E+02 -2.246409E+04 -1.986513E-10  7.158103E-11
       397  15  7.636231E+05  2.383390E+00  1.613163E+03 -3.137120E+04 -1.111187E-10 -8.115497E-12
       397  16  8.467777E+05  2.016068E+04  1.830601E+04 -3.139980E+04  8.546686E-12 -5.339585E-11
       397  17  8.004445E+05  8.936800E+03  8.855196E+03 -2.251110E+04 -1.970714E-10  1.410404E-11
       397  18  7.541737E+05 -2.266059E+03 -2.878777E+02 -3.143657E+04  1.240438E-11 -1.433758E-10
       397  19  6.804733E+05 -2.015701E+04 -1.712031E+04 -3.134260E+04 -2.357552E+03 -4.771623E+03
       397  20  7.267414E+05 -8.953902E+03 -6.958115E+03 -2.241707E+04 -1.886618E+03 -2.026326E+03
       397  21  7.730725E+05  2.270821E+03  3.514204E+03 -3.130583E+04 -1.415528E+03  7.172206E+02
       397  22  7.636222E+05  2.072291E+00  5.930607E+02 -3.137121E+04  3.470435E+02 -4.772073E+03
       397  23  7.635923E+05 -8.505051E+00  9.485819E+02 -2.246409E+04  8.163671E+02 -2.026826E+03
       397  24  7.636231E+05  2.384385E+00  1.613167E+03 -3.137120E+04  1.285812E+03  7.166627E+02
       397  25  8.467777E+05  2.016071E+04  1.830607E+04 -3.139981E+04  3.051996E+03 -4.772523E+03
       397  26  8.004445E+05  8.936807E+03  8.855227E+03 -2.251111E+04  3.519510E+03 -2.027326E+03
       397  27  7.541737E+05 -2.266054E+03 -2.878469E+02 -3.143656E+04  3.987111E+03  7.161041E+02
       398   1  8.094056E+05  1.110695E+04  1.205117E+04 -3.126319E+04  1.085279E+03 -2.316165E+03
       398   2  8.555829E+05  2.229747E+04  2.341040E+04 -2.234011E+04 -7.468035E+02 -5.055124E+03
       398   3  9.020684E+05  3.377248E+04  3.603110E+04 -3.124161E+04 -2.578694E+03 -7.773658E+03
       398   4  7.636765E+05 -1.843999E+01  2.112671E+03 -3.137355E+04 -1.622878E+03 -2.315631E+03
       398   5  7.635231E+05 -4.877950E+01  3.654981E+03 -2.246114E+04 -3.434660E+03 -5.054733E+03
       398   6  7.636730E+05  2.022299E+02  6.445141E+03 -3.137348E+04 -5.246117E+03 -7.773400E+03
       398   7  7.179494E+05 -1.114397E+04 -7.825930E+03 -3.148389E+04 -4.330838E+03 -2.315096E+03
       398   8  6.714712E+05 -2.239558E+04 -1.610090E+04 -2.258215E+04 -6.122123E+03 -5.054341E+03
       398   9  6.252956E+05 -3.336927E+04 -2.314190E+04 -3.150532E+04 -7.912955E+03 -7.773142E+03
       398  10  8.094056E+05  1.110695E+04  1.205116E+04 -3.126319E+04 -1.539783E-11  1.233825E-12
       398  11  8.555829E+05  2.229744E+04  2.341035E+04 -2.234011E+04  1.560645E-10  1.889411E-11
       398  12  9.020684E+05  3.377242E+04  3.603097E+04 -3.124163E+04  1.324727E-10 -1.815092E-11
       398  13  7.636765E+05 -1.844645E+01  2.112656E+03 -3.137355E+04  9.416509E-11 -6.717380E-11
       398  14  7.635231E+05 -4.881011E+01  3.654911E+03 -2.246115E+04  1.765468E-10  8.395423E-11
       398  15  7.636730E+05  2.021576E+02  6.444976E+03 -3.137351E+04 -4.880045E-12 -5.507154E-11
       398  16  7.179494E+05 -1.114398E+04 -7.825975E+03 -3.148390E+04 -5.030127E-11 -5.527351E-11
       398  17  6.714711E+05 -2.239562E+04 -1.610102E+04 -2.258218E+04 -1.690834E-10  1.211933E-10
       398  18  6.252956E+05 -3.336935E+04 -2.314213E+04 -3.150537E+04 -6.420778E-11 -1.392872E-11
       398  19  8.094056E+05  1.110695E+04  1.205117E+04 -3.126319E+04 -1.085279E+03  2.316165E+03
       398  20  8.555829E+05  2.229747E+04  2.341040E+04 -2.234011E+04  7.468035E+02  5.055124E+03
       398  21  9.020684E+05  3.377248E+04  3.603110E+04 -3.124161E+04  2.578694E+03  7.773658E+03
       398  22  7.636765E+05 -1.843999E+01  2.112671E+03 -3.137355E+04  1.622878E+03  2.315631E+03
       398  23  7.635231E+05 -4.877950E+01  3.654981E+03 -2.246114E+04  3.434660E+03  5.054733E+03
       398  24  7.636730E+05  2.022299E+02  6.445141E+03 -3.137348E+04  5.246117E+03  7.773400E+03
       398  25  7.179494E+05 -1.114397E+04 -7.825930E+03 -3.148389E+04  4.330838E+03  2.315096E+03
       398  26  6.714712E+05 -2.239558E+04 -1.610090E+04 -2.258215E+04  6.122123E+03  5.054341E+03
       398  27  6.252956E+05 -3.336927E+04 -2.314190E+04 -3.150532E+04  7.912955E+03  7.773142E+03
       399   1  9.388702E+05  4.214148E+04  4.604969E+04 -3.035938E+04 -3.752095E+03 -9.410567E+03
       399   2  9.842023E+05  5.362753E+04  6.218452E+04 -2.284123E+04 -1.156232E+04 -1.201923E+04
       399   3  1.031869E+06  7.032490E+04  8.470420E+04 -3.318532E+04 -1.937264E+04 -1.414669E+04
       399   4  7.641035E+05 -3.021433E+02  8.429197E+03 -3.138191E+04 -6.558422E+03 -9.410430E+03
       399   5  7.629725E+05 -8.528264E+01  1.463236E+04 -2.245054E+04 -1.389229E+04 -1.201946E+04
       399   6  7.640926E+05  5.261501E+03  2.689161E+04 -3.138168E+04 -2.122568E+04 -1.414723E+04
       399   7  5.893654E+05 -4.274777E+04 -2.919305E+04 -3.240415E+04 -9.363972E+03 -9.410284E+03
       399   8  5.417887E+05 -5.380130E+04 -3.292264E+04 -2.205999E+04 -1.622145E+04 -1.201970E+04
       399   9  4.963829E+05 -5.980660E+04 -3.092519E+04 -2.957882E+04 -2.307793E+04 -1.414779E+04
       399  10  9.388701E+05  4.214139E+04  4.604949E+04 -3.035941E+04 -1.859477E-10  1.743532E-11
       399  11  9.842021E+05  5.362734E+04  6.218400E+04 -2.284134E+04  2.046391E-10  6.726791E-11
       399  12  1.031869E+06  7.032458E+04  8.470312E+04 -3.318554E+04  9.404400E-11  4.451194E-11
       399  13  7.641034E+05 -3.022500E+02  8.428950E+03 -3.138196E+04 -6.866181E-11 -4.099470E-11
       399  14  7.629722E+05 -8.548957E+01  1.463173E+04 -2.245068E+04 -3.483260E-11  4.329192E-11
       399  15  7.640920E+05  5.261165E+03  2.689039E+04 -3.138192E+04  1.641581E-10  6.670317E-11
       399  16  5.893653E+05 -4.274789E+04 -2.919339E+04 -3.240422E+04  1.400429E-10  2.832651E-11
       399  17  5.417883E+05 -5.380152E+04 -3.292340E+04 -2.206015E+04 -1.687499E-10  1.598001E-10
       399  18  4.963823E+05 -5.980696E+04 -3.092657E+04 -2.957909E+04  1.492039E-10  5.917600E-11
       399  19  9.388702E+05  4.214148E+04  4.604969E+04 -3.035938E+04  3.752095E+03  9.410567E+03
       399  20  9.842023E+05  5.362753E+04  6.218452E+04 -2.284123E+04  1.156232E+04  1.201923E+04
       399  21  1.031869E+06  7.032490E+04  8.470420E+04 -3.318532E+04  1.937264E+04  1.414669E+04
       399  22  7.641035E+05 -3.021433E+02  8.429197E+03 -3.138191E+04  6.558422E+03  9.410430E+03
       399  23  7.629725E+05 -8.528264E+01  1.463236E+04 -2.245054E+04  1.389229E+04  1.201946E+04
       399  24  7.640926E+05  5.261501E+03  2.689161E+04 -3.138168E+04  2.122568E+04  1.414723E+04
       399  25  5.893654E+05 -4.274777E+04 -2.919305E+04 -3.240415E+04  9.363972E+03  9.410284E+03
       399  26  5.417887E+05 -5.380130E+04 -3.292264E+04 -2.205999E+04  1.622145E+04  1.201970E+04
       399  27  4.963829E+05 -5.980660E+04 -3.092519E+04 -2.957882E+04  2.307793E+04  1.414779E+04
       400   1  1.074500E+06  6.912640E+04  9.946007E+04 -1.634761E+04 -2.116681E+04 -1.655014E+04
       400   2  1.106271E+06  8.779425E+04  1.356571E+05 -4.161647E+04 -6.247941E+04 -1.616600E+04
       400   3  1.168275E+06  2.057759E+05  2.235563E+05 -8.440449E+04 -1.037992E+05 -5.202989E+03
       400   4  7.699143E+05 -4.823787E+03  3.399520E+04 -3.129889E+04 -2.598691E+04 -1.655058E+04
       400   5  7.556696E+05  2.315312E+03  5.845307E+04 -2.255265E+04 -5.686441E+04 -1.616753E+04
       400   6  7.698640E+05  1.069851E+05  1.273912E+05 -3.132250E+04 -8.774524E+04 -5.207456E+03
       400   7  4.654159E+05 -7.877920E+04 -3.147491E+04 -4.624274E+04 -3.080467E+04 -1.655079E+04
       400   8  4.051842E+05 -8.317048E+04 -1.875815E+04 -3.499709E+03 -5.125252E+04 -1.616873E+04
       400   9  3.716040E+05  8.193485E+03  3.121719E+04  2.172537E+04 -7.170152E+04 -5.209186E+03
       400  10  1.074500E+06  6.912598E+04  9.945872E+04 -1.634789E+04 -2.616965E-10  1.070284E-10
       400  11  1.106266E+06  8.779293E+04  1.356493E+05 -4.161728E+04 -1.421605E-10  5.428908E-11
       400  12  1.168264E+06  2.057729E+05  2.235360E+05 -8.440493E+04  8.941170E-11 -2.323843E-11
       400  13  7.699135E+05 -4.824263E+03  3.399341E+04 -3.129923E+04 -1.515149E-10  5.811149E-12
       400  14  7.556661E+05  2.314165E+03  5.844651E+04 -2.255339E+04 -2.959554E-11  1.534812E-10
       400  15  7.698557E+05  1.069830E+05  1.273767E+05 -3.132287E+04 -4.425818E-11  5.003926E-11
       400  16  4.654148E+05 -7.877975E+04 -3.147720E+04 -4.624315E+04  4.222039E-10  6.880811E-11
       400  17  4.051813E+05 -8.317147E+04 -1.876357E+04 -3.500376E+03  3.882409E-10  3.007461E-10
       400  18  3.715985E+05  8.192076E+03  3.120749E+04  2.172507E+04 -1.080259E-10  9.548451E-11
       400  19  1.074500E+06  6.912640E+04  9.946007E+04 -1.634761E+04  2.116681E+04  1.655014E+04
       400  20  1.106271E+06  8.779425E+04  1.356571E+05 -4.161647E+04  6.247941E+04  1.616600E+04
       400  21  1.168275E+06  2.057759E+05  2.235563E+05 -8.440449E+04  1.037992E+05  5.202989E+03
       400  22  7.699143E+05 -4.823787E+03  3.399520E+04 -3.129889E+04  2.598691E+04  1.655058E+04
       400  23  7.556696E+05  2.315312E+03  5.845307E+04 -2.255265E+04  5.686441E+04  1.616753E+04
       400  24  7.698640E+05  1.069851E+05  1.273912E+05 -3.132250E+04  8.774524E+04  5.207456E+03
       400  25  4.654159E+05 -7.877920E+04 -3.147491E+04 -4.624274E+04  3.080467E+04  1.655079E+04
       400  26  4.051842E+05 -8.317048E+04 -1.875815E+04 -3.499709E+03  5.125252E+04  1.616873E+04
       400  27  3.716040E+05  8.193485E+03  3.121719E+04  2.172537E+04  7.170152E+04  5.209186E+03
       401   1 -2.554766E+05 -1.030995E+05 -9.975548E+04 -2.519773E+04 -1.567789E+04  5.643829E+03
       401   2 -2.156749E+05 -9.369457E+04 -8.334925E+04 -1.862363E+04 -5.323861E+03  1.784326E+04
       401   3 -1.771331E+05 -8.414497E+04 -7.364061E+04 -2.654688E+04  5.034532E+03  1.886260E+04
       401   4  1.686005E+05  2.202475E+03  2.651861E+03 -2.621676E+04  1.819708E+03  5.648752E+03
       401   5  1.682806E+05  1.203970E+01  1.212212E+03 -1.896806E+04  1.176803E+03  1.784364E+04
       401   6  1.686095E+05 -1.242699E+02  7.130163E+02 -2.621628E+04  5.377308E+02  1.886157E+04
       401   7  5.928427E+05  1.074915E+05  1.050475E+05 -2.723650E+04  1.932922E+04  5.653616E+03
       401   8  5.523740E+05  9.370878E+04  8.576479E+04 -1.931270E+04  7.681441E+03  1.784401E+04
       401   9  5.144646E+05  8.388860E+04  7.505972E+04 -2.588550E+04 -3.961540E+03  1.886053E+04
       401  10 -2.554768E+05 -1.030996E+05 -9.975601E+04 -2.519766E+04  1.571041E-10  1.046716E-10
       401  11 -2.156750E+05 -9.369492E+04 -8.334990E+04 -1.862355E+04 -1.447747E-10 -7.746646E-11
       401  12 -1.771332E+05 -8.414536E+04 -7.364133E+04 -2.654696E+04 -3.011903E-10 -1.014026E-10
       401  13  1.686005E+05  2.202440E+03  2.651795E+03 -2.621677E+04 -1.306147E-11 -1.419913E-10
       401  14  1.682805E+05  1.169740E+01  1.211611E+03 -1.896807E+04  1.422857E-10 -3.252292E-12
       401  15  1.686095E+05 -1.246520E+02  7.123472E+02 -2.621629E+04  2.181029E-10  4.384707E-11
       401  16  5.928423E+05  1.074913E+05  1.050467E+05 -2.723658E+04  1.500676E-10  1.462707E-10
       401  17  5.523739E+05  9.370842E+04  8.576409E+04 -1.931281E+04 -2.373268E-11 -1.360062E-10
       401  18  5.144645E+05  8.388821E+04  7.505902E+04 -2.588544E+04  2.616461E-10  6.239850E-11
       401  19 -2.554766E+05 -1.030995E+05 -9.975548E+04 -2.519773E+04  1.567789E+04 -5.643829E+03
       401  20 -2.156749E+05 -9.369457E+04 -8.334925E+04 -1.862363E+04  5.323861E+03 -1.784326E+04
       401  21 -1.771331E+05 -8.414497E+04 -7.364061E+04 -2.654688E+04 -5.034532E+03 -1.886260E+04
       401  22  1.686005E+05  2.202475E+03  2.651861E+03 -2.621676E+04 -1.819708E+03 -5.648752E+03
       401  23  1.682806E+05  1.203970E+01  1.212212E+03 -1.896806E+04 -1.176803E+03 -1.784364E+04
       401  24  1.686095E+05 -1.242699E+02  7.130163E+02 -2.621628E+04 -5.377308E+02 -1.886157E+04
       401  25  5.928427E+05  1.074915E+05  1.050475E+05 -2.723650E+04 -1.932922E+04 -5.653616E+03
       401  26  5.523740E+05  9.370878E+04  8.576479E+04 -1.931270E+04 -7.681441E+03 -1.784401E+04
       401  27  5.144646E+05  8.388860E+04  7.505972E+04 -2.588550E+04  3.961540E+03 -1.886053E+04
       402   1 -1.463803E+05 -7.648966E+04 -6.746780E+04 -2.629084E+04  1.806579E+03  1.667569E+04
       402   2 -1.073799E+05 -6.704614E+04 -5.901553E+04 -1.880992E+04  2.153661E+03  1.502775E+04
       402   3 -6.839499E+04 -5.757741E+04 -5.077781E+04 -2.631653E+04  2.500068E+03  1.286773E+04
       402   4  1.684853E+05  9.029123E+01  5.658224E+02 -2.632533E+04  4.373876E+02  1.667506E+04
       402   5  1.684536E+05 -1.474305E+01  3.140222E+02 -1.883177E+04  2.805779E+02  1.502740E+04
       402   6  1.684918E+05 -7.154480E+00  1.974830E+02 -2.632533E+04  1.230649E+02  1.286778E+04
       402   7  4.834441E+05  7.666370E+04  6.859358E+04 -2.635983E+04 -9.324894E+02  1.667444E+04
       402   8  4.443586E+05  6.701166E+04  5.963912E+04 -1.885362E+04 -1.593326E+03  1.502706E+04
       402   9  4.054313E+05  5.755942E+04  5.116950E+04 -2.633414E+04 -2.254832E+03  1.286783E+04
       402  10 -1.463804E+05 -7.648996E+04 -6.746832E+04 -2.629086E+04 -1.038676E-10 -2.882202E-11
       402  11 -1.073800E+05 -6.704638E+04 -5.901596E+04 -1.880995E+04  1.874453E-10  1.002946E-10
       402  12 -6.839504E+04 -5.757759E+04 -5.077813E+04 -2.631656E+04  9.896895E-11  1.055019E-10
       402  13  1.684853E+05  8.999257E+01  5.652995E+02 -2.632533E+04 -2.323763E-10  3.264110E-11
       402  14  1.684535E+05 -1.498559E+01  3.135977E+02 -1.883177E+04  4.087561E-10 -1.417764E-10
       402  15  1.684918E+05 -7.332302E+00  1.971718E+02 -2.632533E+04  8.651007E-12  6.979887E-11
       402  16  4.834440E+05  7.666341E+04  6.859306E+04 -2.635982E+04  1.609053E-10  1.581393E-10
       402  17  4.443585E+05  6.701141E+04  5.963870E+04 -1.885361E+04 -1.507498E-10 -1.640968E-10
       402  18  4.054313E+05  5.755924E+04  5.116918E+04 -2.633411E+04  1.019496E-10 -1.255687E-10
       402  19 -1.463803E+05 -7.648966E+04 -6.746780E+04 -2.629084E+04 -1.806579E+03 -1.667569E+04
       402  20 -1.073799E+05 -6.704614E+04 -5.901553E+04 -1.880992E+04 -2.153661E+03 -1.502775E+04
       402  21 -6.839499E+04 -5.757741E+04 -5.077781E+04 -2.631653E+04 -2.500068E+03 -1.286773E+04
       402  22  1.684853E+05  9.029123E+01  5.658224E+02 -2.632533E+04 -4.373876E+02 -1.667506E+04
       402  23  1.684536E+05 -1.474305E+01  3.140222E+02 -1.883177E+04 -2.805779E+02 -1.502740E+04
       402  24  1.684918E+05 -7.154480E+00  1.974830E+02 -2.632533E+04 -1.230649E+02 -1.286778E+04
       402  25  4.834441E+05  7.666370E+04  6.859358E+04 -2.635983E+04  9.324894E+02 -1.667444E+04
       402  26  4.443586E+05  6.701166E+04  5.963912E+04 -1.885362E+04  1.593326E+03 -1.502706E+04
       402  27  4.054313E+05  5.755942E+04  5.116950E+04 -2.633414E+04  2.254832E+03 -1.286783E+04
       403   1 -3.785124E+04 -5.010359E+04 -4.406079E+04 -2.629744E+04  2.323572E+03  1.148374E+04
       403   2  1.084643E+03 -4.066390E+04 -3.582419E+04 -1.880111E+04  2.284412E+03  9.203352E+03
       403   3  4.002976E+04 -3.121473E+04 -2.755972E+04 -2.629420E+04  2.244784E+03  6.900170E+03
       403   4  1.684818E+05  4.949761E+00  1.620530E+02 -2.632579E+04  9.100829E+01  1.148393E+04
       403   5  1.684779E+05  1.505959E+00  1.241718E+02 -1.883120E+04  2.934112E+01  9.203752E+03
       403   6  1.684857E+05  1.152813E+01  1.298101E+02 -2.632579E+04 -3.279057E+01  6.900787E+03
       403   7  3.748549E+05  5.011071E+04  4.438244E+04 -2.635414E+04 -2.142287E+03  1.148412E+04
       403   8  3.358976E+05  4.066508E+04  3.607091E+04 -1.886130E+04 -2.226329E+03  9.204152E+03
       403   9  2.969572E+05  3.123670E+04  2.781839E+04 -2.635738E+04 -2.310830E+03  6.901404E+03
       403  10 -3.785128E+04 -5.010373E+04 -4.406105E+04 -2.629747E+04  1.577601E-10  4.251200E-11
       403  11  1.084615E+03 -4.066399E+04 -3.582436E+04 -1.880113E+04  1.479847E-10 -9.031218E-11
       403  12  4.002974E+04 -3.121478E+04 -2.755982E+04 -2.629421E+04 -1.569435E-10 -1.762674E-10
       403  13  1.684818E+05  4.808131E+00  1.618051E+02 -2.632579E+04  1.367331E-10 -8.755388E-11
       403  14  1.684779E+05  1.414989E+00  1.240126E+02 -1.883120E+04 -5.392987E-11  7.881505E-11
       403  15  1.684857E+05  1.147699E+01  1.297206E+02 -2.632579E+04  3.786230E-11  1.427728E-10
       403  16  3.748549E+05  5.011056E+04  4.438218E+04 -2.635412E+04 -1.126191E-10 -1.077031E-10
       403  17  3.358975E+05  4.066498E+04  3.607074E+04 -1.886128E+04 -3.407081E-10 -1.572386E-10
       403  18  2.969572E+05  3.123665E+04  2.781829E+04 -2.635737E+04  2.141919E-10 -1.654905E-10
       403  19 -3.785124E+04 -5.010359E+04 -4.406079E+04 -2.629744E+04 -2.323572E+03 -1.148374E+04
       403  20  1.084643E+03 -4.066390E+04 -3.582419E+04 -1.880111E+04 -2.284412E+03 -9.203352E+03
       403  21  4.002976E+04 -3.121473E+04 -2.755972E+04 -2.629420E+04 -2.244784E+03 -6.900170E+03
       403  22  1.684818E+05  4.949761E+00  1.620530E+02 -2.632579E+04 -9.100829E+01 -1.148393E+04
       403  23  1.684779E+05  1.505959E+00  1.241718E+02 -1.883120E+04 -2.934112E+01 -9.203752E+03
       403  24  1.684857E+05  1.152813E+01  1.298101E+02 -2.632579E+04  3.279057E+01 -6.900787E+03
       403  25  3.748549E+05  5.011071E+04  4.438244E+04 -2.635414E+04  2.142287E+03 -1.148412E+04
       403  26  3.358976E+05  4.066508E+04  3.607091E+04 -1.886130E+04  2.226329E+03 -9.204152E+03
       403  27  2.969572E+05  3.123670E+04  2.781839E+04 -2.635738E+04  2.310830E+03 -6.901404E+03
       404   1  7.054360E+04 -2.375770E+04 -2.077759E+04 -2.629719E+04  2.212290E+03  5.554313E+03
       404   2  1.094572E+05 -1.433009E+04 -1.245852E+04 -1.880988E+04  2.106021E+03  3.246709E+03
       404   3  1.483777E+05 -4.892320E+03 -4.070500E+03 -2.630235E+04  1.999584E+03  9.383341E+02
       404   4  1.684860E+05  1.299745E+01  1.461086E+02 -2.632368E+04 -5.829180E+01  5.555015E+03
       404   5  1.684837E+05  8.185330E+00  2.154191E+02 -1.883383E+04 -1.653759E+02  3.247481E+03
       404   6  1.684874E+05  1.391535E+01  3.544347E+02 -2.632368E+04 -2.726215E+02  9.391826E+02
       404   7  2.664375E+05  2.378307E+04  2.106928E+04 -2.635017E+04 -2.329227E+03  5.555716E+03
       404   8  2.275133E+05  1.434624E+04  1.288917E+04 -1.885779E+04 -2.436986E+03  3.248253E+03
       404   9  1.885975E+05  4.920126E+03  4.779364E+03 -2.634501E+04 -2.544900E+03  9.400313E+02
       404  10  7.054359E+04 -2.375773E+04 -2.077766E+04 -2.629720E+04 -2.848078E-10  1.382402E-11
       404  11  1.094572E+05 -1.433010E+04 -1.245855E+04 -1.880989E+04  3.902677E-11 -8.196017E-12
       404  12  1.483777E+05 -4.892322E+03 -4.070509E+03 -2.630235E+04  3.541158E-10 -1.896680E-11
       404  13  1.684860E+05  1.296431E+01  1.460506E+02 -2.632368E+04  3.039950E-11 -1.905587E-10
       404  14  1.684836E+05  8.173997E+00  2.153992E+02 -1.883383E+04  5.301480E-11  1.437565E-10
       404  15  1.684874E+05  1.391439E+01  3.544329E+02 -2.632368E+04  1.996547E-10 -1.040372E-10
       404  16  2.664374E+05  2.378303E+04  2.106921E+04 -2.635016E+04  1.089522E-10  3.671744E-11
       404  17  2.275133E+05  1.434622E+04  1.288914E+04 -1.885778E+04 -4.459278E-10  9.084957E-11
       404  18  1.885975E+05  4.920124E+03  4.779350E+03 -2.634501E+04 -8.288272E-11 -2.484533E-10
       404  19  7.054360E+04 -2.375770E+04 -2.077759E+04 -2.629719E+04 -2.212290E+03 -5.554313E+03
       404  20  1.094572E+05 -1.433009E+04 -1.245852E+04 -1.880988E+04 -2.106021E+03 -3.246709E+03
       404  21  1.483777E+05 -4.892320E+03 -4.070500E+03 -2.630235E+04 -1.999584E+03 -9.383341E+02
       404  22  1.684860E+05  1.299745E+01  1.461086E+02 -2.632368E+04  5.829180E+01 -5.555015E+03
       404  23  1.684837E+05  8.185330E+00  2.154191E+02 -1.883383E+04  1.653759E+02 -3.247481E+03
       404  24  1.684874E+05  1.391535E+01  3.544347E+02 -2.632368E+04  2.726215E+02 -9.391826E+02
       404  25  2.664375E+05  2.378307E+04  2.106928E+04 -2.635017E+04  2.329227E+03 -5.555716E+03
       404  26  2.275133E+05  1.434624E+04  1.288917E+04 -1.885779E+04  2.436986E+03 -3.248253E+03
       404  27  1.885975E+05  4.920126E+03  4.779364E+03 -2.634501E+04  2.544900E+03 -9.400313E+02
       405   1  1.788930E+05  2.561032E+03  2.800913E+03 -2.630804E+04  1.924982E+03 -4.053550E+02
       405   2  2.177874E+05  1.197737E+04  1.138129E+04 -1.880789E+04  1.531338E+03 -2.713458E+03
       405   3  2.567301E+05  2.141762E+04  2.022111E+04 -2.628701E+04  1.137800E+03 -5.020762E+03
       405   4  1.684963E+05  1.423973E+01  4.614773E+02 -2.632360E+04 -3.472457E+02 -4.045027E+02
       405   5  1.684727E+05 -9.970833E-01  7.932696E+02 -1.883393E+04 -7.401555E+02 -2.712670E+03
       405   6  1.684951E+05  7.485276E+00  1.383900E+03 -2.632360E+04 -1.132935E+03 -5.020033E+03
       405   7  1.580998E+05 -2.532557E+03 -1.877946E+03 -2.633916E+04 -2.619436E+03 -4.036503E+02
       405   8  1.191602E+05 -1.197952E+04 -9.794876E+03 -1.885996E+04 -3.011471E+03 -2.711881E+03
       405   9  8.026747E+04 -2.140315E+04 -1.745374E+04 -2.636018E+04 -3.403353E+03 -5.019303E+03
       405  10  1.788930E+05  2.561031E+03  2.800906E+03 -2.630804E+04 -1.697788E-10  1.670996E-10
       405  11  2.177874E+05  1.197737E+04  1.138127E+04 -1.880789E+04  9.540549E-11  4.326116E-10
       405  12  2.567301E+05  2.141759E+04  2.022106E+04 -2.628701E+04  1.557083E-10 -2.082123E-10
       405  13  1.684963E+05  1.423952E+01  4.614768E+02 -2.632360E+04 -8.509542E-15 -2.728469E-11
       405  14  1.684727E+05 -1.005133E+00  7.932547E+02 -1.883393E+04  1.300827E-10 -1.445073E-10
       405  15  1.684951E+05  7.457868E+00  1.383850E+03 -2.632360E+04 -2.136937E-10  6.733608E-11
       405  16  1.580998E+05 -2.532559E+03 -1.877959E+03 -2.633917E+04 -9.962143E-13 -3.723839E-11
       405  17  1.191602E+05 -1.197953E+04 -9.794907E+03 -1.885997E+04 -2.176667E-10 -6.387434E-11
       405  18  8.026745E+04 -2.140318E+04 -1.745381E+04 -2.636019E+04 -2.868930E-10  3.373204E-11
       405  19  1.788930E+05  2.561032E+03  2.800913E+03 -2.630804E+04 -1.924982E+03  4.053550E+02
       405  20  2.177874E+05  1.197737E+04  1.138129E+04 -1.880789E+04 -1.531338E+03  2.713458E+03
       405  21  2.567301E+05  2.141762E+04  2.022111E+04 -2.628701E+04 -1.137800E+03  5.020762E+03
       405  22  1.684963E+05  1.423973E+01  4.614773E+02 -2.632360E+04  3.472457E+02  4.045027E+02
       405  23  1.684727E+05 -9.970833E-01  7.932696E+02 -1.883393E+04  7.401555E+02  2.712670E+03
       405  24  1.684951E+05  7.485276E+00  1.383900E+03 -2.632360E+04  1.132935E+03  5.020033E+03
       405  25  1.580998E+05 -2.532557E+03 -1.877946E+03 -2.633916E+04  2.619436E+03  4.036503E+02
       405  26  1.191602E+05 -1.197952E+04 -9.794876E+03 -1.885996E+04  3.011471E+03  2.711881E+03
       405  27  8.026747E+04 -2.140315E+04 -1.745374E+04 -2.636018E+04  3.403353E+03  5.019303E+03
       406   1  2.872955E+05  2.885374E+04  2.742499E+04 -2.625145E+04  8.546075E+02 -6.366263E+03
       406   2  3.261053E+05  3.826043E+04  3.702819E+04 -1.874734E+04 -7.382251E+02 -8.668613E+03
       406   3  3.651857E+05  4.791996E+04  4.773056E+04 -2.623091E+04 -2.330721E+03 -1.094871E+04
       406   4  1.685425E+05 -1.106540E+01  1.822719E+03 -2.632552E+04 -1.422997E+03 -6.365611E+03
       406   5  1.684078E+05 -4.197276E+01  3.168574E+03 -1.883152E+04 -2.993620E+03 -8.668166E+03
       406   6  1.685387E+05  1.762646E+02  5.598459E+03 -2.632545E+04 -4.563810E+03 -1.094846E+04
       406   7  4.980275E+04 -2.887680E+04 -2.378036E+04 -2.639958E+04 -3.700171E+03 -6.364959E+03
       406   8  1.073372E+04 -3.834601E+04 -3.069248E+04 -1.891569E+04 -5.248450E+03 -8.667718E+03
       406   9 -2.807201E+04 -4.756996E+04 -3.653587E+04 -2.641994E+04 -6.796201E+03 -1.094820E+04
       406  10  2.872955E+05  2.885370E+04  2.742491E+04 -2.625144E+04  2.708266E-11 -2.892485E-10
       406  11  3.261052E+05  3.826035E+04  3.702805E+04 -1.874734E+04  2.635310E-11 -1.430200E-10
       406  12  3.651857E+05  4.791983E+04  4.773032E+04 -2.623093E+04 -3.716309E-10  9.722699E-11
       406  13  1.685425E+05 -1.110946E+01  1.822639E+03 -2.632553E+04 -1.628680E-10  3.653594E-11
       406  14  1.684078E+05 -4.205586E+01  3.168416E+03 -1.883155E+04  4.311527E-10 -2.525644E-10
       406  15  1.685386E+05  1.761303E+02  5.598194E+03 -2.632549E+04 -6.396957E-11 -5.286951E-11
       406  16  4.980272E+04 -2.887684E+04 -2.378046E+04 -2.639959E+04 -2.775096E-10  1.386429E-11
       406  17  1.073367E+04 -3.834609E+04 -3.069267E+04 -1.891572E+04 -2.191127E-10  2.215396E-10
       406  18 -2.807209E+04 -4.757010E+04 -3.653619E+04 -2.642000E+04  4.250549E-10  5.940005E-11
       406  19  2.872955E+05  2.885374E+04  2.742499E+04 -2.625145E+04 -8.546075E+02  6.366263E+03
       406  20  3.261053E+05  3.826043E+04  3.702819E+04 -1.874734E+04  7.382251E+02  8.668613E+03
       406  21  3.651857E+05  4.791996E+04  4.773056E+04 -2.623091E+04  2.330721E+03  1.094871E+04
       406  22  1.685425E+05 -1.106540E+01  1.822719E+03 -2.632552E+04  1.422997E+03  6.365611E+03
       406  23  1.684078E+05 -4.197276E+01  3.168574E+03 -1.883152E+04  2.993620E+03  8.668166E+03
       406  24  1.685387E+05  1.762646E+02  5.598459E+03 -2.632545E+04  4.563810E+03  1.094846E+04
       406  25  4.980275E+04 -2.887680E+04 -2.378036E+04 -2.639958E+04  3.700171E+03  6.364959E+03
       406  26  1.073372E+04 -3.834601E+04 -3.069248E+04 -1.891569E+04  5.248450E+03  8.667718E+03
       406  27 -2.807201E+04 -4.756996E+04 -3.653587E+04 -2.641994E+04  6.796201E+03  1.094820E+04
       407   1  3.961231E+05  5.494033E+04  5.620822E+04 -2.545463E+04 -3.329198E+03 -1.233127E+04
       407   2  4.340965E+05  6.458427E+04  6.995303E+04 -1.918594E+04 -1.019797E+04 -1.449313E+04
       407   3  4.741212E+05  7.878080E+04  8.930959E+04 -2.790248E+04 -1.706643E+04 -1.615518E+04
       407   4  1.689137E+05 -2.630467E+02  7.324860E+03 -2.632506E+04 -5.703301E+03 -1.233115E+04
       407   5  1.679272E+05 -7.783827E+01  1.271977E+04 -1.883202E+04 -1.207755E+04 -1.449341E+04
       407   6  1.689067E+05  4.575649E+03  2.338512E+04 -2.632456E+04 -1.845106E+04 -1.615578E+04
       407   7 -5.824719E+04 -5.546980E+04 -4.156151E+04 -2.719516E+04 -8.076547E+03 -1.233102E+04
       407   8 -9.817545E+04 -6.474459E+04 -4.451764E+04 -1.847826E+04 -1.395633E+04 -1.449369E+04
       407   9 -1.362205E+05 -6.963563E+04 -4.254485E+04 -2.474743E+04 -1.983502E+04 -1.615639E+04
       407  10  3.961230E+05  5.494016E+04  5.620791E+04 -2.545466E+04  6.739309E-11  2.633259E-10
       407  11  4.340963E+05  6.458401E+04  6.995244E+04 -1.918606E+04  1.537459E-10 -3.347422E-11
       407  12  4.741208E+05  7.878044E+04  8.930855E+04 -2.790270E+04 -1.128997E-10 -1.501056E-10
       407  13  1.689136E+05 -2.632187E+02  7.324513E+03 -2.632512E+04  2.146003E-14  1.815734E-10
       407  14  1.679270E+05 -7.810301E+01  1.271910E+04 -1.883216E+04  2.410188E-11  1.191618E-10
       407  15  1.689062E+05  4.575278E+03  2.338399E+04 -2.632480E+04 -1.315881E-10 -8.933413E-11
       407  16 -5.824730E+04 -5.546998E+04 -4.156191E+04 -2.719524E+04 -1.905879E-10  1.104179E-10
       407  17 -9.817571E+04 -6.474487E+04 -4.451840E+04 -1.847842E+04 -3.657070E-10  1.546987E-11
       407  18 -1.362210E+05 -6.963601E+04 -4.254608E+04 -2.474769E+04 -1.156536E-10 -4.359629E-11
       407  19  3.961231E+05  5.494033E+04  5.620822E+04 -2.545463E+04  3.329198E+03  1.233127E+04
       407  20  4.340965E+05  6.458427E+04  6.995303E+04 -1.918594E+04  1.019797E+04  1.449313E+04
       407  21  4.741212E+05  7.878080E+04  8.930959E+04 -2.790248E+04  1.706643E+04  1.615518E+04
       407  22  1.689137E+05 -2.630467E+02  7.324860E+03 -2.632506E+04  5.703301E+03  1.233115E+04
       407  23  1.679272E+05 -7.783827E+01  1.271977E+04 -1.883202E+04  1.207755E+04  1.449341E+04
       407  24  1.689067E+05  4.575649E+03  2.338512E+04 -2.632456E+04  1.845106E+04  1.615578E+04
       407  25 -5.824719E+04 -5.546980E+04 -4.156151E+04 -2.719516E+04  8.076547E+03  1.233102E+04
       407  26 -9.817545E+04 -6.474459E+04 -4.451764E+04 -1.847826E+04  1.395633E+04  1.449369E+04
       407  27 -1.362205E+05 -6.963563E+04 -4.254485E+04 -2.474743E+04  1.983502E+04  1.615639E+04
       408   1  5.100621E+05  7.744341E+04  1.018151E+05 -1.322253E+04 -1.814825E+04 -1.832301E+04
       408   2  5.359345E+05  9.331937E+04  1.332530E+05 -3.553675E+04 -5.576246E+04 -1.738429E+04
       408   3  5.884216E+05  1.959017E+05  2.108537E+05 -7.237972E+04 -9.338358E+04 -5.524730E+03
       408   4  1.739689E+05 -4.200679E+03  2.956396E+04 -2.621850E+04 -2.258964E+04 -1.832351E+04
       408   5  1.615816E+05  2.001897E+03  5.083794E+04 -1.896398E+04 -4.943922E+04 -1.738557E+04
       408   6  1.739533E+05  9.306793E+04  1.108174E+05 -2.623555E+04 -7.629247E+04 -5.527406E+03
       408   7 -1.620177E+05 -8.585153E+04 -4.269365E+04 -3.920734E+04 -2.702865E+04 -1.832383E+04
       408   8 -2.126397E+05 -8.932392E+04 -3.158544E+04 -2.401320E+03 -4.311973E+04 -1.738652E+04
       408   9 -2.403528E+05 -9.770241E+03  1.077109E+04  1.987772E+04 -5.921272E+04 -5.527546E+03
       408  10  5.100616E+05  7.744296E+04  1.018139E+05 -1.322279E+04 -1.766421E-10 -1.187251E-10
       408  11  5.359311E+05  9.331821E+04  1.332466E+05 -3.553753E+04  1.212947E-10 -2.205288E-11
       408  12  5.884123E+05  1.958994E+05  2.108372E+05 -7.238013E+04  1.304399E-10 -4.240986E-11
       408  13  1.739683E+05 -4.201177E+03  2.956237E+04 -2.621883E+04 -8.059756E-11 -1.198632E-11
       408  14  1.615789E+05  2.000916E+03  5.083278E+04 -1.896467E+04 -3.678179E-11  3.047474E-10
       408  15  1.739471E+05  9.306634E+04  1.108064E+05 -2.623589E+04  1.405332E-11 -1.765233E-11
       408  16 -1.620186E+05 -8.585209E+04 -4.269566E+04 -3.920774E+04  2.721838E-11  1.611065E-11
       408  17 -2.126418E+05 -8.932474E+04 -3.158950E+04 -2.401924E+03  9.756545E-11  1.192388E-10
       408  18 -2.403566E+05 -9.771215E+03  1.076444E+04  1.987745E+04 -6.426463E-12 -6.657360E-11
       408  19  5.100621E+05  7.744341E+04  1.018151E+05 -1.322253E+04  1.814825E+04  1.832301E+04
       408  20  5.359345E+05  9.331937E+04  1.332530E+05 -3.553675E+04  5.576246E+04  1.738429E+04
       408  21  5.884216E+05  1.959017E+05  2.108537E+05 -7.237972E+04  9.338358E+04  5.524730E+03
       408  22  1.739689E+05 -4.200679E+03  2.956396E+04 -2.621850E+04  2.258964E+04  1.832351E+04
       408  23  1.615816E+05  2.001897E+03  5.083794E+04 -1.896398E+04  4.943922E+04  1.738557E+04
       408  24  1.739533E+05  9.306793E+04  1.108174E+05 -2.623555E+04  7.629247E+04  5.527406E+03
       408  25 -1.620177E+05 -8.585153E+04 -4.269365E+04 -3.920734E+04  2.702865E+04  1.832383E+04
       408  26 -2.126397E+05 -8.932392E+04 -3.158544E+04 -2.401320E+03  4.311973E+04  1.738652E+04
       408  27 -2.403528E+05 -9.770241E+03  1.077109E+04  1.987772E+04  5.921272E+04  5.527546E+03
       409   1 -1.450608E+06 -2.286717E+05 -2.442217E+05 -8.917723E+04 -1.029440E+05  6.742733E+03
       409   2 -1.377594E+06 -1.137615E+05 -1.554658E+05 -4.640016E+04 -6.054282E+04  2.111244E+04
       409   3 -1.333498E+06 -9.261656E+04 -1.177891E+05 -2.543733E+04 -1.813292E+04  2.173336E+04
       409   4 -9.345544E+05 -1.003181E+05 -1.193562E+05 -3.939740E+04 -8.212188E+04  6.738972E+03
       409   5 -9.212464E+05 -2.226291E+03 -5.475430E+04 -2.849563E+04 -5.320625E+04  2.111030E+04
       409   6 -9.344920E+05  4.479901E+03 -3.182954E+04 -3.941118E+04 -2.428679E+04  2.173303E+04
       409   7 -4.182505E+05  2.802558E+04  5.493021E+03  1.042403E+04 -6.128248E+04  6.738561E+03
       409   8 -4.647024E+05  1.092962E+05  4.594472E+04 -1.057775E+04 -4.586433E+04  2.110859E+04
       409   9 -5.353360E+05  1.015666E+05  5.412095E+04 -5.339415E+04 -3.044458E+04  2.173297E+04
       409  10 -1.450620E+06 -2.286746E+05 -2.442417E+05 -8.917668E+04  2.276846E-10 -3.786861E-11
       409  11 -1.377599E+06 -1.137630E+05 -1.554735E+05 -4.639913E+04  1.807858E-10 -1.693334E-10
       409  12 -1.333498E+06 -9.261716E+04 -1.177907E+05 -2.543701E+04 -5.871849E-10  2.895857E-10
       409  13 -9.345617E+05 -1.003199E+05 -1.193690E+05 -3.939695E+04  5.468211E-11 -1.080390E-10
       409  14 -9.212495E+05 -2.227531E+03 -5.476046E+04 -2.849472E+04  6.601858E-10 -3.418780E-10
       409  15 -9.344928E+05  4.479235E+03 -3.183154E+04 -3.941076E+04  9.011457E-11  2.333104E-10
       409  16 -4.182546E+05  2.802452E+04  5.485874E+03  1.042436E+04  1.502929E-11 -1.405950E-10
       409  17 -4.647048E+05  1.092951E+05  4.593993E+04 -1.057697E+04  2.031282E-10 -3.343286E-10
       409  18 -5.353371E+05  1.015659E+05  5.411832E+04 -5.339362E+04  5.963265E-10  1.931658E-10
       409  19 -1.450608E+06 -2.286717E+05 -2.442217E+05 -8.917723E+04  1.029440E+05 -6.742733E+03
       409  20 -1.377594E+06 -1.137615E+05 -1.554658E+05 -4.640016E+04  6.054282E+04 -2.111244E+04
       409  21 -1.333498E+06 -9.261656E+04 -1.177891E+05 -2.543733E+04  1.813292E+04 -2.173336E+04
       409  22 -9.345544E+05 -1.003181E+05 -1.193562E+05 -3.939740E+04  8.212188E+04 -6.738972E+03
       409  23 -9.212464E+05 -2.226291E+03 -5.475430E+04 -2.849563E+04  5.320625E+04 -2.111030E+04
       409  24 -9.344920E+05  4.479901E+03 -3.182954E+04 -3.941118E+04  2.428679E+04 -2.173303E+04
       409  25 -4.182505E+05  2.802558E+04  5.493021E+03  1.042403E+04  6.128248E+04 -6.738561E+03
       409  26 -4.647024E+05  1.092962E+05  4.594472E+04 -1.057775E+04  4.586433E+04 -2.110859E+04
       409  27 -5.353360E+05  1.015666E+05  5.412095E+04 -5.339415E+04  3.044458E+04 -2.173297E+04
       410   1 -1.281682E+06 -9.084386E+04 -1.014889E+05 -4.126642E+04 -1.751517E+04  1.867358E+04
       410   2 -1.221705E+06 -7.139986E+04 -7.696856E+04 -2.859371E+04 -1.002791E+04  1.599729E+04
       410   3 -1.163913E+06 -5.686615E+04 -5.855376E+04 -3.857235E+04 -2.541213E+03  1.268263E+04
       410   4 -9.290527E+05 -4.968257E+03 -2.518100E+04 -3.959345E+04 -1.983731E+04  1.867302E+04
       410   5 -9.280064E+05  6.489133E+01 -1.370062E+04 -2.826752E+04 -1.297372E+04  1.599731E+04
       410   6 -9.290369E+05  2.982923E+02 -7.889075E+03 -3.959240E+04 -6.111364E+03  1.268335E+04
       410   7 -5.763061E+05  8.089914E+04  5.111958E+04 -3.791950E+04 -2.216076E+04  1.867244E+04
       410   8 -6.342262E+05  7.152396E+04  4.956227E+04 -2.794117E+04 -1.592090E+04  1.599732E+04
       410   9 -6.941089E+05  5.745911E+04  4.277240E+04 -4.061282E+04 -9.682849E+03  1.268408E+04
       410  10 -1.281683E+06 -9.084432E+04 -1.014902E+05 -4.126616E+04  2.586733E-10  3.595140E-10
       410  11 -1.221705E+06 -7.140016E+04 -7.696923E+04 -2.859358E+04 -3.293265E-10 -3.003877E-11
       410  12 -1.163913E+06 -5.686633E+04 -5.855407E+04 -3.857233E+04  1.237000E-10 -5.522500E-11
       410  13 -9.290532E+05 -4.968737E+03 -2.518239E+04 -3.959315E+04  6.726612E-11  3.455086E-10
       410  14 -9.280066E+05  6.457138E+01 -1.370142E+04 -2.826736E+04 -1.561067E-10  1.253823E-10
       410  15 -9.290370E+05  2.981095E+02 -7.889448E+03 -3.959233E+04  9.261848E-11  8.844871E-11
       410  16 -5.763067E+05  8.089863E+04  5.111800E+04 -3.791917E+04 -3.587750E-10  2.717767E-10
       410  17 -6.342265E+05  7.152362E+04  4.956132E+04 -2.794097E+04  2.909401E-10  2.929874E-10
       410  18 -6.941091E+05  5.745891E+04  4.277192E+04 -4.061273E+04 -1.945016E-11 -6.653340E-11
       410  19 -1.281682E+06 -9.084386E+04 -1.014889E+05 -4.126642E+04  1.751517E+04 -1.867358E+04
       410  20 -1.221705E+06 -7.139986E+04 -7.696856E+04 -2.859371E+04  1.002791E+04 -1.599729E+04
       410  21 -1.163913E+06 -5.686615E+04 -5.855376E+04 -3.857235E+04  2.541213E+03 -1.268263E+04
       410  22 -9.290527E+05 -4.968257E+03 -2.518100E+04 -3.959345E+04  1.983731E+04 -1.867302E+04
       410  23 -9.280064E+05  6.489133E+01 -1.370062E+04 -2.826752E+04  1.297372E+04 -1.599731E+04
       410  24 -9.290369E+05  2.982923E+02 -7.889075E+03 -3.959240E+04  6.111364E+03 -1.268335E+04
       410  25 -5.763061E+05  8.089914E+04  5.111958E+04 -3.791950E+04  2.216076E+04 -1.867244E+04
       410  26 -6.342262E+05  7.152396E+04  4.956227E+04 -2.794117E+04  1.592090E+04 -1.599732E+04
       410  27 -6.941089E+05  5.745911E+04  4.277240E+04 -4.061282E+04  9.682849E+03 -1.268408E+04
       411   1 -1.117182E+06 -4.600543E+04 -4.644155E+04 -3.944483E+04 -1.486833E+03  1.059365E+04
       411   2 -1.057886E+06 -3.140753E+04 -3.125756E+04 -2.807539E+04  2.434559E+02  7.119252E+03
       411   3 -9.988868E+05 -1.706203E+04 -1.726783E+04 -3.949218E+04  1.973385E+03  3.612668E+03
       411   4 -9.286369E+05 -1.716663E+02 -6.036707E+03 -3.962270E+04 -4.885547E+03  1.059456E+04
       411   5 -9.284863E+05  6.662381E+01 -3.432102E+03 -2.822967E+04 -3.186567E+03  7.120408E+03
       411   6 -9.286312E+05  5.805165E+01 -1.999754E+03 -3.962258E+04 -1.488108E+03  3.614087E+03
       411   7 -7.400581E+05  4.565977E+04  3.436611E+04 -3.980062E+04 -8.285279E+03  1.059547E+04
       411   8 -7.990708E+05  3.153968E+04  2.439242E+04 -2.838398E+04 -6.617296E+03  7.121565E+03
       411   9 -8.583710E+05  1.717781E+04  1.326808E+04 -3.975299E+04 -4.949989E+03  3.615507E+03
       411  10 -1.117182E+06 -4.600555E+04 -4.644176E+04 -3.944482E+04 -6.468052E-10 -4.110363E-10
       411  11 -1.057886E+06 -3.140758E+04 -3.125766E+04 -2.807539E+04  3.471527E-11 -1.850933E-10
       411  12 -9.988868E+05 -1.706204E+04 -1.726787E+04 -3.949219E+04  5.771444E-10  2.332793E-10
       411  13 -9.286369E+05 -1.717932E+02 -6.036963E+03 -3.962266E+04 -1.682149E-10 -5.628891E-11
       411  14 -9.284863E+05  6.656666E+01 -3.432217E+03 -2.822965E+04 -2.445848E-10 -1.032295E-10
       411  15 -9.286312E+05  5.803703E+01 -1.999782E+03 -3.962258E+04 -9.047556E-11 -1.376442E-10
       411  16 -7.400582E+05  4.565963E+04  3.436577E+04 -3.980055E+04  2.547964E-10  1.026638E-10
       411  17 -7.990708E+05  3.153962E+04  2.439225E+04 -2.838394E+04 -3.254211E-10  2.327290E-10
       411  18 -8.583710E+05  1.717779E+04  1.326801E+04 -3.975298E+04 -2.539787E-10  1.810688E-10
       411  19 -1.117182E+06 -4.600543E+04 -4.644155E+04 -3.944483E+04  1.486833E+03 -1.059365E+04
       411  20 -1.057886E+06 -3.140753E+04 -3.125756E+04 -2.807539E+04 -2.434559E+02 -7.119252E+03
       411  21 -9.988868E+05 -1.706203E+04 -1.726783E+04 -3.949218E+04 -1.973385E+03 -3.612668E+03
       411  22 -9.286369E+05 -1.716663E+02 -6.036707E+03 -3.962270E+04  4.885547E+03 -1.059456E+04
       411  23 -9.284863E+05  6.662381E+01 -3.432102E+03 -2.822967E+04  3.186567E+03 -7.120408E+03
       411  24 -9.286312E+05  5.805165E+01 -1.999754E+03 -3.962258E+04  1.488108E+03 -3.614087E+03
       411  25 -7.400581E+05  4.565977E+04  3.436611E+04 -3.980062E+04  8.285279E+03 -1.059547E+04
       411  26 -7.990708E+05  3.153968E+04  2.439242E+04 -2.838398E+04  6.617296E+03 -7.121565E+03
       411  27 -8.583710E+05  1.717781E+04  1.326808E+04 -3.975299E+04  4.949989E+03 -3.615507E+03
       412   1 -9.523884E+05 -5.718360E+03 -6.497790E+03 -3.956130E+04  2.285094E+03  1.563537E+03
       412   2 -8.931368E+05  8.647889E+03  6.662082E+03 -2.819699E+04  2.753010E+03 -1.951556E+03
       412   3 -8.339626E+05  2.301178E+04  1.951129E+04 -3.964188E+04  3.221119E+03 -5.466966E+03
       412   4 -9.285824E+05  3.905377E+01 -1.542244E+03 -3.962779E+04 -1.169524E+03  1.565008E+03
       412   5 -9.285426E+05  3.732286E+01 -9.489272E+02 -2.822315E+04 -7.020493E+02 -1.950158E+03
       412   6 -9.285835E+05  3.352749E+01 -6.658462E+02 -3.962778E+04 -2.344255E+02 -5.465628E+03
       412   7 -9.047759E+05  5.796438E+03  3.413316E+03 -3.969428E+04 -4.624272E+03  1.566480E+03
       412   8 -9.639473E+05 -8.573319E+03 -8.559965E+03 -2.824931E+04 -4.156914E+03 -1.948760E+03
       412   9 -1.023196E+06 -2.294531E+04 -2.084345E+04 -3.961369E+04 -3.689451E+03 -5.464291E+03
       412  10 -9.523884E+05 -5.718364E+03 -6.497804E+03 -3.956131E+04  2.053607E-10  1.214739E-10
       412  11 -8.931368E+05  8.647882E+03  6.662061E+03 -2.819699E+04  3.510524E-10  3.876816E-10
       412  12 -8.339626E+05  2.301175E+04  1.951121E+04 -3.964186E+04  1.204421E-10  2.944123E-10
       412  13 -9.285824E+05  3.905077E+01 -1.542251E+03 -3.962779E+04  4.029057E-10  3.348767E-10
       412  14 -9.285426E+05  3.731864E+01 -9.489353E+02 -2.822315E+04 -8.316707E-11 -1.310970E-10
       412  15 -9.285835E+05  3.349541E+01 -6.659024E+02 -3.962778E+04 -1.903283E-10 -6.622209E-11
       412  16 -9.047759E+05  5.796429E+03  3.413271E+03 -3.969427E+04 -5.459456E-10 -5.891702E-10
       412  17 -9.639473E+05 -8.573328E+03 -8.560005E+03 -2.824932E+04 -5.801488E-11  9.150251E-12
       412  18 -1.023196E+06 -2.294534E+04 -2.084353E+04 -3.961371E+04 -1.520137E-10 -2.378484E-10
       412  19 -9.523884E+05 -5.718360E+03 -6.497790E+03 -3.956130E+04 -2.285094E+03 -1.563537E+03
       412  20 -8.931368E+05  8.647889E+03  6.662082E+03 -2.819699E+04 -2.753010E+03  1.951556E+03
       412  21 -8.339626E+05  2.301178E+04  1.951129E+04 -3.964188E+04 -3.221119E+03  5.466966E+03
       412  22 -9.285824E+05  3.905377E+01 -1.542244E+03 -3.962779E+04  1.169524E+03 -1.565008E+03
       412  23 -9.285426E+05  3.732286E+01 -9.489272E+02 -2.822315E+04  7.020493E+02  1.950158E+03
       412  24 -9.285835E+05  3.352749E+01 -6.658462E+02 -3.962778E+04  2.344255E+02  5.465628E+03
       412  25 -9.047759E+05  5.796438E+03  3.413316E+03 -3.969428E+04  4.624272E+03 -1.566480E+03
       412  26 -9.639473E+05 -8.573319E+03 -8.559965E+03 -2.824931E+04  4.156914E+03  1.948760E+03
       412  27 -1.023196E+06 -2.294531E+04 -2.084345E+04 -3.961369E+04  3.689451E+03  5.464291E+03
       413   1 -7.875352E+05  3.436445E+04  2.987739E+04 -3.964822E+04  3.332936E+03 -7.512339E+03
       413   2 -7.284463E+05  4.868128E+04  4.238779E+04 -2.829075E+04  3.634822E+03 -1.102134E+04
       413   3 -6.693955E+05  6.300181E+04  5.470098E+04 -3.968623E+04  3.937571E+03 -1.452343E+04
       413   4 -9.285772E+05  3.254469E+01 -6.051240E+02 -3.961537E+04 -1.201127E+02 -7.511140E+03
       413   5 -9.285600E+05  1.869965E+01 -6.269596E+02 -2.823867E+04  1.883617E+02 -1.102053E+04
       413   6 -9.285844E+05  7.832227E+00 -8.503131E+02 -3.961538E+04  4.976717E+02 -1.452299E+04
       413   7 -1.069601E+06 -3.430067E+04 -3.108877E+04 -3.958252E+04 -3.572386E+03 -7.509942E+03
       413   8 -1.128636E+06 -4.864651E+04 -4.364401E+04 -2.818661E+04 -3.257002E+03 -1.101972E+04
       413   9 -1.187710E+06 -6.299055E+04 -5.640547E+04 -3.954454E+04 -2.940811E+03 -1.452256E+04
       413  10 -7.875352E+05  3.436439E+04  2.987726E+04 -3.964820E+04 -2.851179E-10  9.123920E-11
       413  11 -7.284464E+05  4.868115E+04  4.238754E+04 -2.829072E+04 -3.387114E-10 -1.301690E-10
       413  12 -6.693955E+05  6.300158E+04  5.470055E+04 -3.968619E+04  8.682246E-11 -2.539239E-10
       413  13 -9.285772E+05  3.248413E+01 -6.052300E+02 -3.961537E+04  3.188388E-10  5.145377E-10
       413  14 -9.285600E+05  1.856928E+01 -6.271878E+02 -2.823867E+04  3.360623E-10  3.816656E-10
       413  15 -9.285844E+05  7.605771E+00 -8.507097E+02 -3.961537E+04 -5.498526E-10 -4.805773E-10
       413  16 -1.069601E+06 -3.430074E+04 -3.108890E+04 -3.958254E+04  1.423839E-10  1.372375E-10
       413  17 -1.128636E+06 -4.864664E+04 -4.364426E+04 -2.818664E+04  3.757810E-10  5.014130E-10
       413  18 -1.187710E+06 -6.299078E+04 -5.640588E+04 -3.954458E+04 -4.152483E-10 -7.573292E-11
       413  19 -7.875352E+05  3.436445E+04  2.987739E+04 -3.964822E+04 -3.332936E+03  7.512339E+03
       413  20 -7.284463E+05  4.868128E+04  4.238779E+04 -2.829075E+04 -3.634822E+03  1.102134E+04
       413  21 -6.693955E+05  6.300181E+04  5.470098E+04 -3.968623E+04 -3.937571E+03  1.452343E+04
       413  22 -9.285772E+05  3.254469E+01 -6.051240E+02 -3.961537E+04  1.201127E+02  7.511140E+03
       413  23 -9.285600E+05  1.869965E+01 -6.269596E+02 -2.823867E+04 -1.883617E+02  1.102053E+04
       413  24 -9.285844E+05  7.832227E+00 -8.503131E+02 -3.961538E+04 -4.976717E+02  1.452299E+04
       413  25 -1.069601E+06 -3.430067E+04 -3.108877E+04 -3.958252E+04  3.572386E+03  7.509942E+03
       413  26 -1.128636E+06 -4.864651E+04 -4.364401E+04 -2.818661E+04  3.257002E+03  1.101972E+04
       413  27 -1.187710E+06 -6.299055E+04 -5.640547E+04 -3.954454E+04  2.940811E+03  1.452256E+04
       414   1 -6.231830E+05  7.431368E+04  6.475945E+04 -3.967844E+04  4.113859E+03 -1.656274E+04
       414   2 -5.644165E+05  8.854478E+04  7.654040E+04 -2.835128E+04  4.921924E+03 -2.004070E+04
       414   3 -5.057407E+05  1.026631E+05  8.777509E+04 -3.963318E+04  5.731584E+03 -2.346810E+04
       414   4 -9.286039E+05  1.492649E+01 -1.051394E+03 -3.958348E+04  6.689354E+02 -1.656263E+04
       414   5 -9.285588E+05  2.002546E+00 -1.731864E+03 -2.827856E+04  1.526094E+03 -2.004129E+04
       414   6 -9.286173E+05 -1.323779E+02 -2.993147E+03 -3.958351E+04  2.384774E+03 -2.346936E+04
       414   7 -1.233937E+06 -7.428996E+04 -6.686768E+04 -3.948855E+04 -2.774316E+03 -1.656252E+04
       414   8 -1.292576E+06 -8.854948E+04 -8.001185E+04 -2.820588E+04 -1.867770E+03 -2.004187E+04
       414   9 -1.351325E+06 -1.029396E+05 -9.377179E+04 -3.953387E+04 -9.597871E+02 -2.347062E+04
       414  10 -6.231831E+05  7.431338E+04  6.475890E+04 -3.967838E+04 -1.882332E-10 -8.449866E-11
       414  11 -5.644166E+05  8.854434E+04  7.653960E+04 -2.835120E+04 -2.609919E-10  2.553874E-10
       414  12 -5.057409E+05  1.026625E+05  8.777399E+04 -3.963307E+04  4.343182E-10 -1.447448E-10
       414  13 -9.286040E+05  1.463192E+01 -1.051910E+03 -3.958347E+04 -3.607764E-10 -2.212702E-10
       414  14 -9.285589E+05  1.570804E+00 -1.732623E+03 -2.827854E+04 -5.300518E-10 -6.444425E-11
       414  15 -9.286174E+05 -1.329707E+02 -2.994192E+03 -3.958346E+04  1.653658E-10 -2.208820E-10
       414  16 -1.233937E+06 -7.429026E+04 -6.686821E+04 -3.948859E+04  5.366197E-10  8.337303E-11
       414  17 -1.292576E+06 -8.854991E+04 -8.001262E+04 -2.820591E+04 -5.741001E-10  6.956784E-11
       414  18 -1.351326E+06 -1.029402E+05 -9.377283E+04 -3.953389E+04 -7.220195E-10 -1.103247E-10
       414  19 -6.231830E+05  7.431368E+04  6.475945E+04 -3.967844E+04 -4.113859E+03  1.656274E+04
       414  20 -5.644165E+05  8.854478E+04  7.654040E+04 -2.835128E+04 -4.921924E+03  2.004070E+04
       414  21 -5.057407E+05  1.026631E+05  8.777509E+04 -3.963318E+04 -5.731584E+03  2.346810E+04
       414  22 -9.286039E+05  1.492649E+01 -1.051394E+03 -3.958348E+04 -6.689354E+02  1.656263E+04
       414  23 -9.285588E+05  2.002546E+00 -1.731864E+03 -2.827856E+04 -1.526094E+03  2.004129E+04
       414  24 -9.286173E+05 -1.323779E+02 -2.993147E+03 -3.958351E+04 -2.384774E+03  2.346936E+04
       414  25 -1.233937E+06 -7.428996E+04 -6.686768E+04 -3.948855E+04  2.774316E+03  1.656252E+04
       414  26 -1.292576E+06 -8.854948E+04 -8.001185E+04 -2.820588E+04  1.867770E+03  2.004187E+04
       414  27 -1.351325E+06 -1.029396E+05 -9.377179E+04 -3.953387E+04  9.597871E+02  2.347062E+04
       415   1 -4.600339E+05  1.141038E+05  9.701465E+04 -3.996323E+04  6.579990E+03 -2.555553E+04
       415   2 -4.014763E+05  1.280946E+05  1.066406E+05 -2.805017E+04  9.071984E+03 -2.874551E+04
       415   3 -3.436897E+05  1.398770E+05  1.141143E+05 -3.849018E+04  1.156580E+04 -3.102354E+04
       415   4 -9.288100E+05  9.535529E+01 -3.896684E+03 -3.952691E+04  2.992108E+03 -2.555732E+04
       415   5 -9.283552E+05 -3.720452E+01 -6.758338E+03 -2.834941E+04  6.378412E+03 -2.874806E+04
       415   6 -9.288311E+05 -2.534607E+03 -1.239533E+04 -3.952622E+04  9.766305E+03 -3.102650E+04
       415   7 -1.397379E+06 -1.139275E+05 -1.048209E+05 -3.909093E+04 -5.931017E+02 -2.555912E+04
       415   8 -1.454973E+06 -1.281873E+05 -1.201736E+05 -2.864841E+04  3.687093E+03 -2.875062E+04
       415   9 -1.513651E+06 -1.449689E+05 -1.389252E+05 -4.056128E+04  7.968483E+03 -3.102945E+04
       415  10 -4.600342E+05  1.141031E+05  9.701334E+04 -3.996309E+04  3.934807E-11 -2.288337E-10
       415  11 -4.014766E+05  1.280937E+05  1.066389E+05 -2.804996E+04 -5.579264E-10 -1.575207E-10
       415  12 -3.436901E+05  1.398760E+05  1.141122E+05 -3.848989E+04 -7.444232E-10  2.916508E-10
       415  13 -9.288102E+05  9.465179E+01 -3.897928E+03 -3.952685E+04 -4.196319E-11 -4.417083E-10
       415  14 -9.283555E+05 -3.810254E+01 -6.759967E+03 -2.834927E+04 -2.734250E-10 -9.362433E-11
       415  15 -9.288315E+05 -2.535666E+03 -1.239731E+04 -3.952597E+04  1.838879E-10  2.998520E-10
       415  16 -1.397379E+06 -1.139282E+05 -1.048221E+05 -3.909094E+04 -2.965455E-10 -4.310999E-10
       415  17 -1.454973E+06 -1.281882E+05 -1.201751E+05 -2.864832E+04  3.854308E-10 -3.289748E-10
       415  18 -1.513651E+06 -1.449699E+05 -1.389272E+05 -4.056108E+04  4.547546E-10  9.137205E-10
       415  19 -4.600339E+05  1.141038E+05  9.701465E+04 -3.996323E+04 -6.579990E+03  2.555553E+04
       415  20 -4.014763E+05  1.280946E+05  1.066406E+05 -2.805017E+04 -9.071984E+03  2.874551E+04
       415  21 -3.436897E+05  1.398770E+05  1.141143E+05 -3.849018E+04 -1.156580E+04  3.102354E+04
       415  22 -9.288100E+05  9.535529E+01 -3.896684E+03 -3.952691E+04 -2.992108E+03  2.555732E+04
       415  23 -9.283552E+05 -3.720452E+01 -6.758338E+03 -2.834941E+04 -6.378412E+03  2.874806E+04
       415  24 -9.288311E+05 -2.534607E+03 -1.239533E+04 -3.952622E+04 -9.766305E+03  3.102650E+04
       415  25 -1.397379E+06 -1.139275E+05 -1.048209E+05 -3.909093E+04  5.931017E+02  2.555912E+04
       415  26 -1.454973E+06 -1.281873E+05 -1.201736E+05 -2.864841E+04 -3.687093E+03  2.875062E+04
       415  27 -1.513651E+06 -1.449689E+05 -1.389252E+05 -4.056128E+04 -7.968483E+03  3.102945E+04
       416   1 -3.004756E+05  1.555357E+05  1.200983E+05 -4.587052E+04  1.921930E+04 -3.448691E+04
       416   2 -2.381386E+05  1.665375E+05  1.243356E+05 -1.948851E+04  1.420360E+04 -3.207033E+04
       416   3 -1.853457E+05  1.359932E+05  1.214938E+05 -1.423503E+04  9.167415E+03 -1.007118E+04
       416   4 -9.315007E+05  2.103915E+03 -1.566276E+04 -3.926460E+04  1.195759E+04 -3.449322E+04
       416   5 -9.250711E+05 -1.209193E+03 -2.695726E+04 -2.867910E+04  2.619616E+04 -3.206404E+04
       416   6 -9.315472E+05 -4.943947E+04 -5.872244E+04 -3.922394E+04  4.041396E+04 -1.004229E+04
       416   7 -1.562151E+06 -1.513538E+05 -1.514470E+05 -3.266553E+04  4.703156E+03 -3.449968E+04
       416   8 -1.611561E+06 -1.689872E+05 -1.782785E+05 -3.785946E+04  3.817559E+04 -3.205811E+04
       416   9 -1.677236E+06 -2.349100E+05 -2.389746E+05 -6.418280E+04  7.162303E+04 -1.001590E+04
       416  10 -3.004763E+05  1.555343E+05  1.200954E+05 -4.586998E+04  7.356167E-10  6.373600E-10
       416  11 -2.381391E+05  1.665364E+05  1.243333E+05 -1.948814E+04  1.998995E-11  5.567667E-10
       416  12 -1.853458E+05  1.359930E+05  1.214934E+05 -1.423496E+04  3.550701E-10  6.406304E-10
       416  13 -9.315012E+05  2.102599E+03 -1.566526E+04 -3.926427E+04  6.733328E-10 -3.745161E-10
       416  14 -9.250721E+05 -1.210481E+03 -2.696048E+04 -2.867842E+04 -2.117389E-10  5.368801E-10
       416  15 -9.315490E+05 -4.944002E+04 -5.872570E+04 -3.922361E+04  2.044174E-10 -2.963062E-10
       416  16 -1.562151E+06 -1.513551E+05 -1.514493E+05 -3.266540E+04 -3.280097E-10  7.761988E-10
       416  17 -1.611563E+06 -1.689887E+05 -1.782831E+05 -3.785848E+04  5.300913E-10 -2.181614E-10
       416  18 -1.677241E+06 -2.349115E+05 -2.389844E+05 -6.418222E+04 -9.298993E-10  8.557323E-10
       416  19 -3.004756E+05  1.555357E+05  1.200983E+05 -4.587052E+04 -1.921930E+04  3.448691E+04
       416  20 -2.381386E+05  1.665375E+05  1.243356E+05 -1.948851E+04 -1.420360E+04  3.207033E+04
       416  21 -1.853457E+05  1.359932E+05  1.214938E+05 -1.423503E+04 -9.167415E+03  1.007118E+04
       416  22 -9.315007E+05  2.103915E+03 -1.566276E+04 -3.926460E+04 -1.195759E+04  3.449322E+04
       416  23 -9.250711E+05 -1.209193E+03 -2.695726E+04 -2.867910E+04 -2.619616E+04  3.206404E+04
       416  24 -9.315472E+05 -4.943947E+04 -5.872244E+04 -3.922394E+04 -4.041396E+04  1.004229E+04
       416  25 -1.562151E+06 -1.513538E+05 -1.514470E+05 -3.266553E+04 -4.703156E+03  3.449968E+04
       416  26 -1.611561E+06 -1.689872E+05 -1.782785E+05 -3.785946E+04 -3.817559E+04  3.205811E+04
       416  27 -1.677236E+06 -2.349100E+05 -2.389746E+05 -6.418280E+04 -7.162303E+04  1.001590E+04
       417   1  5.341088E+05  1.604049E+05  2.244363E+05  1.094603E+05  2.330666E+05  8.442076E+03
       417   2  5.642550E+05 -1.279040E+05  5.044522E+04  2.273045E+04  1.584695E+05  2.564708E+04
       417   3  6.753996E+05 -1.317499E+05 -3.838412E+03 -9.047085E+04  8.387533E+04  2.634650E+04
       417   4  1.158953E+06  3.149899E+05  3.751940E+05 -4.656710E+04  2.584292E+05  8.407142E+03
       417   5  1.117188E+06  6.816097E+03  1.721811E+05 -3.319592E+04  1.674767E+05  2.563827E+04
       417   6  1.159149E+06 -1.423690E+04  1.001351E+05 -4.629214E+04  7.653859E+04  2.634638E+04
       417   7  1.784209E+06  4.696385E+05  5.259394E+05 -2.027520E+05  2.838170E+05  8.359514E+03
       417   8  1.670413E+06  1.415276E+05  2.939002E+05 -8.917270E+04  1.764918E+05  2.562784E+04
       417   9  1.643121E+06  1.032681E+05  2.040961E+05 -2.078591E+03  6.919619E+04  2.634522E+04
       417  10  5.340505E+05  1.603902E+05  2.243342E+05  1.094587E+05  1.348949E-09 -9.813253E-10
       417  11  5.642279E+05 -1.279115E+05  5.039684E+04  2.272718E+04 -4.946113E-10  3.363355E-10
       417  12  6.753919E+05 -1.317526E+05 -3.852924E+03 -9.047263E+04 -2.656209E-09 -2.938728E-10
       417  13  1.158882E+06  3.149720E+05  3.750686E+05 -4.656885E+04  4.034677E-10  5.919880E-10
       417  14  1.117158E+06  6.807878E+03  1.721272E+05 -3.319938E+04  1.818769E-10 -7.945753E-11
       417  15  1.159142E+06 -1.423921E+04  1.001228E+05 -4.629377E+04 -4.259860E-10 -3.652213E-10
       417  16  1.784122E+06  4.696169E+05  5.257883E+05 -2.027539E+05 -2.616153E-10  4.548405E-10
       417  17  1.670380E+06  1.415186E+05  2.938406E+05 -8.917634E+04  1.628221E-09  9.167459E-11
       417  18  1.643116E+06  1.032661E+05  2.040858E+05 -2.080058E+03  3.156173E-09  1.822050E-09
       417  19  5.341088E+05  1.604049E+05  2.244363E+05  1.094603E+05 -2.330666E+05 -8.442076E+03
       417  20  5.642550E+05 -1.279040E+05  5.044522E+04  2.273045E+04 -1.584695E+05 -2.564708E+04
       417  21  6.753996E+05 -1.317499E+05 -3.838412E+03 -9.047085E+04 -8.387533E+04 -2.634650E+04
       417  22  1.158953E+06  3.149899E+05  3.751940E+05 -4.656710E+04 -2.584292E+05 -8.407142E+03
       417  23  1.117188E+06  6.816097E+03  1.721811E+05 -3.319592E+04 -1.674767E+05 -2.563827E+04
       417  24  1.159149E+06 -1.423690E+04  1.001351E+05 -4.629214E+04 -7.653859E+04 -2.634638E+04
       417  25  1.784209E+06  4.696385E+05  5.259394E+05 -2.027520E+05 -2.838170E+05 -8.359514E+03
       417  26  1.670413E+06  1.415276E+05  2.939002E+05 -8.917270E+04 -1.764918E+05 -2.562784E+04
       417  27  1.643121E+06  1.032681E+05  2.040961E+05 -2.078591E+03 -6.919619E+04 -2.634522E+04
       418   1  7.133383E+05 -8.869745E+04 -1.332368E+04 -4.127640E+04  6.520925E+04  2.268695E+04
       418   2  7.796736E+05 -8.744052E+04 -3.403549E+04 -3.203740E+04  4.434749E+04  1.953097E+04
       418   3  8.525393E+05 -7.123448E+04 -3.741923E+04 -4.953968E+04  2.348282E+04  1.562765E+04
       418   4  1.142001E+06  1.544896E+04  7.921532E+04 -4.642479E+04  6.250868E+04  2.268379E+04
       418   5  1.138694E+06 -2.815944E+02  4.312212E+04 -3.305132E+04  4.089672E+04  1.952855E+04
       418   6  1.142036E+06 -9.390348E+02  2.486755E+04 -4.641767E+04  1.928413E+04  1.562591E+04
       418   7  1.570836E+06  1.195834E+05  1.717435E+05 -5.157679E+04  5.980625E+04  2.268067E+04
       418   8  1.497835E+06  8.686890E+04  1.202722E+05 -3.406585E+04  3.744397E+04  1.952615E+04
       418   9  1.431611E+06  6.935096E+04  8.714949E+04 -4.329418E+04  1.508350E+04  1.562413E+04
       418  10  7.133336E+05 -8.869914E+04 -1.333263E+04 -4.127760E+04  6.829063E-10 -2.216246E-10
       418  11  7.796714E+05 -8.744146E+04 -3.403990E+04 -3.203810E+04  3.686775E-10  9.116594E-11
       418  12  8.525386E+05 -7.123489E+04 -3.742073E+04 -4.953997E+04 -6.855710E-10 -2.985684E-10
       418  13  1.141997E+06  1.544736E+04  7.920702E+04 -4.642593E+04  4.078222E-10  1.322535E-09
       418  14  1.138692E+06 -2.824522E+02  4.311827E+04 -3.305197E+04  4.423917E-10  3.124881E-10
       418  15  1.142035E+06 -9.393968E+02  2.486639E+04 -4.641791E+04 -4.761714E-10 -6.700802E-10
       418  16  1.570832E+06  1.195819E+05  1.717358E+05 -5.157788E+04 -5.136895E-10  1.210325E-09
       418  17  1.497833E+06  8.686812E+04  1.202689E+05 -3.406644E+04  3.550510E-10 -3.992915E-11
       418  18  1.431611E+06  6.935064E+04  8.714861E+04 -4.329437E+04  4.866331E-10 -3.015419E-10
       418  19  7.133383E+05 -8.869745E+04 -1.332368E+04 -4.127640E+04 -6.520925E+04 -2.268695E+04
       418  20  7.796736E+05 -8.744052E+04 -3.403549E+04 -3.203740E+04 -4.434749E+04 -1.953097E+04
       418  21  8.525393E+05 -7.123448E+04 -3.741923E+04 -4.953968E+04 -2.348282E+04 -1.562765E+04
       418  22  1.142001E+06  1.544896E+04  7.921532E+04 -4.642479E+04 -6.250868E+04 -2.268379E+04
       418  23  1.138694E+06 -2.815944E+02  4.312212E+04 -3.305132E+04 -4.089672E+04 -1.952855E+04
       418  24  1.142036E+06 -9.390348E+02  2.486755E+04 -4.641767E+04 -1.928413E+04 -1.562591E+04
       418  25  1.570836E+06  1.195834E+05  1.717435E+05 -5.157679E+04 -5.980625E+04 -2.268067E+04
       418  26  1.497835E+06  8.686890E+04  1.202722E+05 -3.406585E+04 -3.744397E+04 -1.952615E+04
       418  27  1.431611E+06  6.935096E+04  8.714949E+04 -4.329418E+04 -1.508350E+04 -1.562413E+04
       419   1  9.056091E+05 -5.649108E+04 -3.124821E+04 -4.686903E+04  1.939067E+04  1.317686E+04
       419   2  9.743337E+05 -4.046018E+04 -2.475046E+04 -3.349946E+04  1.404320E+04  9.116814E+03
       419   3  1.043985E+06 -2.363394E+04 -1.456964E+04 -4.674209E+04  8.694472E+03  5.026878E+03
       419   4  1.140770E+06  5.450768E+02  1.903640E+04 -4.639132E+04  1.541074E+04  1.317544E+04
       419   5  1.140312E+06 -1.820018E+02  1.085638E+04 -3.308543E+04  1.003175E+04  9.115738E+03
       419   6  1.140781E+06 -1.081969E+02  6.380270E+03 -4.639131E+04  4.652076E+03  5.026166E+03
       419   7  1.375983E+06  5.757764E+04  6.931785E+04 -4.591343E+04  1.142933E+04  1.317402E+04
       419   8  1.306315E+06  4.009438E+04  4.646168E+04 -3.267129E+04  6.019239E+03  9.114657E+03
       419   9  1.237586E+06  2.341694E+04  2.732969E+04 -4.604047E+04  6.090584E+02  5.025449E+03
       419  10  9.056086E+05 -5.649137E+04 -3.124924E+04 -4.686923E+04 -4.389002E-10 -4.162577E-10
       419  11  9.743335E+05 -4.046032E+04 -2.475099E+04 -3.349956E+04 -9.855753E-10 -7.545399E-10
       419  12  1.043985E+06 -2.363399E+04 -1.456983E+04 -4.674212E+04 -1.819264E-10 -2.082864E-10
       419  13  1.140770E+06  5.448266E+02  1.903562E+04 -4.639149E+04 -5.458695E-10 -2.156554E-10
       419  14  1.140311E+06 -1.821180E+02  1.085604E+04 -3.308550E+04 -1.135937E-10  1.432405E-10
       419  15  1.140781E+06 -1.082298E+02  6.380182E+03 -4.639132E+04 -9.741803E-10 -4.215748E-10
       419  16  1.375983E+06  5.757742E+04  6.931728E+04 -4.591355E+04 -5.546412E-11  2.764415E-11
       419  17  1.306315E+06  4.009428E+04  4.646146E+04 -3.267133E+04 -4.845072E-10 -3.860286E-12
       419  18  1.237586E+06  2.341691E+04  2.732964E+04 -4.604047E+04 -2.252532E-10  2.387602E-11
       419  19  9.056091E+05 -5.649108E+04 -3.124821E+04 -4.686903E+04 -1.939067E+04 -1.317686E+04
       419  20  9.743337E+05 -4.046018E+04 -2.475046E+04 -3.349946E+04 -1.404320E+04 -9.116814E+03
       419  21  1.043985E+06 -2.363394E+04 -1.456964E+04 -4.674209E+04 -8.694472E+03 -5.026878E+03
       419  22  1.140770E+06  5.450768E+02  1.903640E+04 -4.639132E+04 -1.541074E+04 -1.317544E+04
       419  23  1.140312E+06 -1.820018E+02  1.085638E+04 -3.308543E+04 -1.003175E+04 -9.115738E+03
       419  24  1.140781E+06 -1.081969E+02  6.380270E+03 -4.639131E+04 -4.652076E+03 -5.026166E+03
       419  25  1.375983E+06  5.757764E+04  6.931785E+04 -4.591343E+04 -1.142933E+04 -1.317402E+04
       419  26  1.306315E+06  4.009438E+04  4.646168E+04 -3.267129E+04 -6.019239E+03 -9.114657E+03
       419  27  1.237586E+06  2.341694E+04  2.732969E+04 -4.604047E+04 -6.090584E+02 -5.025449E+03
       420   1  1.097962E+06 -1.036108E+04 -4.003120E+03 -4.657656E+04  7.658080E+03  2.640882E+03
       420   2  1.166932E+06  6.344000E+03  8.820247E+03 -3.319857E+04  6.101962E+03 -1.451592E+03
       420   3  1.236136E+06  2.308710E+04  2.266855E+04 -4.639355E+04  4.545785E+03 -5.546514E+03
       420   4  1.140627E+06 -4.614934E+01  4.958787E+03 -4.638276E+04  3.627109E+03  2.640263E+03
       420   5  1.140513E+06 -6.601302E+01  3.154627E+03 -3.309625E+04  2.068248E+03 -1.452279E+03
       420   6  1.140627E+06 -4.742096E+01  2.376989E+03 -4.638279E+04  5.094957E+02 -5.547252E+03
       420   7  1.183295E+06  1.026867E+04  1.392065E+04 -4.618895E+04 -4.041329E+02  2.639642E+03
       420   8  1.114095E+06 -6.476062E+03 -2.510972E+03 -3.299394E+04 -1.965297E+03 -1.452967E+03
       420   9  1.045127E+06 -2.318253E+04 -1.791503E+04 -4.637204E+04 -3.526183E+03 -5.547990E+03
       420  10  1.097962E+06 -1.036110E+04 -4.003244E+03 -4.657657E+04 -1.137370E-11 -1.237106E-10
       420  11  1.166932E+06  6.343987E+03  8.820173E+03 -3.319856E+04 -4.204696E-10 -1.219369E-10
       420  12  1.236136E+06  2.308707E+04  2.266845E+04 -4.639353E+04 -6.466880E-10 -1.341592E-10
       420  13  1.140627E+06 -4.616036E+01  4.958749E+03 -4.638277E+04  8.214394E-15 -3.121369E-11
       420  14  1.140513E+06 -6.601644E+01  3.154615E+03 -3.309625E+04 -2.707845E-10 -1.296647E-10
       420  15  1.140627E+06 -4.745409E+01  2.376931E+03 -4.638279E+04  4.295538E-10  4.088440E-10
       420  16  1.183295E+06  1.026866E+04  1.392064E+04 -4.618895E+04  2.541832E-10  1.242954E-10
       420  17  1.114095E+06 -6.476066E+03 -2.510983E+03 -3.299394E+04 -8.228640E-11 -3.425853E-10
       420  18  1.045127E+06 -2.318256E+04 -1.791511E+04 -4.637205E+04  4.592815E-10  4.353130E-11
       420  19  1.097962E+06 -1.036108E+04 -4.003120E+03 -4.657656E+04 -7.658080E+03 -2.640882E+03
       420  20  1.166932E+06  6.344000E+03  8.820247E+03 -3.319857E+04 -6.101962E+03  1.451592E+03
       420  21  1.236136E+06  2.308710E+04  2.266855E+04 -4.639355E+04 -4.545785E+03  5.546514E+03
       420  22  1.140627E+06 -4.614934E+01  4.958787E+03 -4.638276E+04 -3.627109E+03 -2.640263E+03
       420  23  1.140513E+06 -6.601302E+01  3.154627E+03 -3.309625E+04 -2.068248E+03  1.452279E+03
       420  24  1.140627E+06 -4.742096E+01  2.376989E+03 -4.638279E+04 -5.094957E+02  5.547252E+03
       420  25  1.183295E+06  1.026867E+04  1.392065E+04 -4.618895E+04  4.041329E+02 -2.639642E+03
       420  26  1.114095E+06 -6.476062E+03 -2.510972E+03 -3.299394E+04  1.965297E+03  1.452967E+03
       420  27  1.045127E+06 -2.318253E+04 -1.791503E+04 -4.637204E+04  3.526183E+03  5.547990E+03
       421   1  1.290299E+06  3.630313E+04  3.456194E+04 -4.638311E+04  4.127355E+03 -7.931194E+03
       421   2  1.359476E+06  5.304973E+04  4.955189E+04 -3.296491E+04  2.848993E+03 -1.203303E+04
       421   3  1.428868E+06  6.981818E+04  6.538616E+04 -4.619249E+04  1.571565E+03 -1.613960E+04
       421   4  1.140620E+06 -4.906462E+01  2.274896E+03 -4.639908E+04  8.721334E+01 -7.932099E+03
       421   5  1.140510E+06 -7.291012E+01  2.596673E+03 -3.307589E+04 -1.195655E+03 -1.203442E+04
       421   6  1.140611E+06 -7.379198E+01  3.766242E+03 -4.639906E+04 -2.477450E+03 -1.614147E+04
       421   7  9.909626E+05 -3.640273E+04 -3.001341E+04 -4.641506E+04 -3.951970E+03 -7.933004E+03
       421   8  9.215892E+05 -5.319867E+04 -4.436127E+04 -3.318684E+04 -5.238899E+03 -1.203582E+04
       421   9  8.524311E+05 -6.997117E+04 -5.785843E+04 -4.660554E+04 -6.524615E+03 -1.614334E+04
       421  10  1.290298E+06  3.630306E+04  3.456179E+04 -4.638308E+04 -8.945976E-10 -7.422188E-11
       421  11  1.359476E+06  5.304957E+04  4.955160E+04 -3.296488E+04  2.570493E-10  6.563640E-10
       421  12  1.428868E+06  6.981790E+04  6.538567E+04 -4.619247E+04  1.066993E-10 -2.366896E-10
       421  13  1.140620E+06 -4.913222E+01  2.274778E+03 -4.639908E+04  8.067812E-10  6.828037E-10
       421  14  1.140510E+06 -7.306611E+01  2.596398E+03 -3.307590E+04  6.985865E-10  9.647827E-10
       421  15  1.140610E+06 -7.407356E+01  3.765741E+03 -4.639909E+04  9.760708E-11  5.887620E-11
       421  16  9.909625E+05 -3.640280E+04 -3.001356E+04 -4.641508E+04  9.488602E-10  6.917831E-10
       421  17  9.215891E+05 -5.319883E+04 -4.436160E+04 -3.318689E+04 -1.620193E-10  6.092050E-11
       421  18  8.524310E+05 -6.997146E+04 -5.785900E+04 -4.660562E+04 -2.946485E-10  1.818587E-11
       421  19  1.290299E+06  3.630313E+04  3.456194E+04 -4.638311E+04 -4.127355E+03  7.931194E+03
       421  20  1.359476E+06  5.304973E+04  4.955189E+04 -3.296491E+04 -2.848993E+03  1.203303E+04
       421  21  1.428868E+06  6.981818E+04  6.538616E+04 -4.619249E+04 -1.571565E+03  1.613960E+04
       421  22  1.140620E+06 -4.906462E+01  2.274896E+03 -4.639908E+04 -8.721334E+01  7.932099E+03
       421  23  1.140510E+06 -7.291012E+01  2.596673E+03 -3.307589E+04  1.195655E+03  1.203442E+04
       421  24  1.140611E+06 -7.379198E+01  3.766242E+03 -4.639906E+04  2.477450E+03  1.614147E+04
       421  25  9.909626E+05 -3.640273E+04 -3.001341E+04 -4.641506E+04  3.951970E+03  7.933004E+03
       421  26  9.215892E+05 -5.319867E+04 -4.436127E+04 -3.318684E+04  5.238899E+03  1.203582E+04
       421  27  8.524311E+05 -6.997117E+04 -5.785843E+04 -4.660554E+04  6.524615E+03  1.614334E+04
       422   1  1.483425E+06  8.305161E+04  7.842338E+04 -4.609958E+04  8.248656E+02 -1.853933E+04
       422   2  1.552828E+06  9.987513E+04  9.637357E+04 -3.257828E+04 -3.136068E+03 -2.265474E+04
       422   3  1.622983E+06  1.172701E+05  1.170607E+05 -4.589064E+04 -7.095396E+03 -2.673488E+04
       422   4  1.140721E+06 -1.221545E+02  4.751619E+03 -4.644084E+04 -3.246764E+03 -1.854164E+04
       422   5  1.140340E+06 -1.876477E+02  7.921372E+03 -3.302353E+04 -7.170763E+03 -2.265795E+04
       422   6  1.140701E+06  3.129531E+02  1.380430E+04 -4.644098E+04 -1.109272E+04 -2.673896E+04
       422   7  7.981275E+05 -8.330361E+04 -6.892696E+04 -4.678191E+04 -7.316181E+03 -1.854395E+04
       422   8  7.280114E+05 -1.002615E+05 -8.054068E+04 -3.346850E+04 -1.120282E+04 -2.266116E+04
       422   9  6.586381E+05 -1.166594E+05 -8.946554E+04 -4.699090E+04 -1.508699E+04 -2.674305E+04
       422  10  1.483425E+06  8.305124E+04  7.842273E+04 -4.609957E+04 -5.112318E-10  4.871514E-10
       422  11  1.552828E+06  9.987457E+04  9.637259E+04 -3.257834E+04 -1.197333E-09 -8.789092E-10
       422  12  1.622982E+06  1.172694E+05  1.170593E+05 -4.589079E+04  1.024377E-09 -1.371003E-10
       422  13  1.140721E+06 -1.225267E+02  4.750952E+03 -4.644089E+04  1.676727E-11  2.930268E-11
       422  14  1.140340E+06 -1.882131E+02  7.920310E+03 -3.302366E+04 -6.381160E-10 -3.246351E-10
       422  15  1.140701E+06  3.121519E+02  1.380273E+04 -4.644121E+04 -3.086198E-10 -5.107546E-10
       422  16  7.981274E+05 -8.330399E+04 -6.892771E+04 -4.678202E+04  8.965387E-10 -2.181398E-10
       422  17  7.280112E+05 -1.002621E+05 -8.054189E+04 -3.346870E+04 -2.663771E-10 -2.745225E-11
       422  18  6.586377E+05 -1.166602E+05 -8.946731E+04 -4.699123E+04 -1.091677E-09  8.592718E-11
       422  19  1.483425E+06  8.305161E+04  7.842338E+04 -4.609958E+04 -8.248656E+02  1.853933E+04
       422  20  1.552828E+06  9.987513E+04  9.637357E+04 -3.257828E+04  3.136068E+03  2.265474E+04
       422  21  1.622983E+06  1.172701E+05  1.170607E+05 -4.589064E+04  7.095396E+03  2.673488E+04
       422  22  1.140721E+06 -1.221545E+02  4.751619E+03 -4.644084E+04  3.246764E+03  1.854164E+04
       422  23  1.140340E+06 -1.876477E+02  7.921372E+03 -3.302353E+04  7.170763E+03  2.265795E+04
       422  24  1.140701E+06  3.129531E+02  1.380430E+04 -4.644098E+04  1.109272E+04  2.673896E+04
       422  25  7.981275E+05 -8.330361E+04 -6.892696E+04 -4.678191E+04  7.316181E+03  1.854395E+04
       422  26  7.280114E+05 -1.002615E+05 -8.054068E+04 -3.346850E+04  1.120282E+04  2.266116E+04
       422  27  6.586381E+05 -1.166594E+05 -8.946554E+04 -4.699090E+04  1.508699E+04  2.674305E+04
       423   1  1.678879E+06  1.295956E+05  1.333866E+05 -4.398708E+04 -9.591781E+03 -2.923392E+04
       423   2  1.746909E+06  1.471529E+05  1.616771E+05 -3.334007E+04 -2.624954E+04 -3.310551E+04
       423   3  1.820045E+06  1.757600E+05  2.035939E+05 -4.978050E+04 -4.290808E+04 -3.594277E+04
       423   4  1.141619E+06 -7.640376E+02  1.801067E+04 -4.649431E+04 -1.389836E+04 -2.923890E+04
       423   5  1.139135E+06 -3.012849E+02  3.117870E+04 -3.295543E+04 -2.952256E+04 -3.311098E+04
       423   6  1.141579E+06  1.103912E+04  5.726604E+04 -4.650526E+04 -4.514566E+04 -3.594841E+04
       423   7  6.046301E+05 -1.311425E+05 -9.738208E+04 -4.899939E+04 -1.820127E+04 -2.924384E+04
       423   8  5.317076E+05 -1.477796E+05 -9.934125E+04 -3.257123E+04 -3.279241E+04 -3.311646E+04
       423   9  4.635440E+05 -1.537120E+05 -8.908890E+04 -4.323374E+04 -4.738082E+04 -3.595408E+04
       423  10  1.678879E+06  1.295946E+05  1.333849E+05 -4.398731E+04  1.076199E-10 -4.635357E-10
       423  11  1.746908E+06  1.471515E+05  1.616738E+05 -3.334077E+04  7.162572E-10 -6.864414E-10
       423  12  1.820043E+06  1.757581E+05  2.035880E+05 -4.978174E+04  1.082686E-09 -2.018570E-09
       423  13  1.141619E+06 -7.650079E+02  1.800870E+04 -4.649464E+04 -1.848550E-10 -4.285155E-10
       423  14  1.139134E+06 -3.026963E+02  3.117501E+04 -3.295621E+04 -2.683619E-10 -9.607293E-10
       423  15  1.141577E+06  1.103719E+04  5.725978E+04 -4.650657E+04  4.040328E-10 -1.326147E-09
       423  16  6.046295E+05 -1.311435E+05 -9.738431E+04 -4.899982E+04  5.705312E-10 -2.280401E-10
       423  17  5.317062E+05 -1.477811E+05 -9.934533E+04 -3.257211E+04  4.779007E-10  1.881506E-09
       423  18  4.635412E+05 -1.537140E+05 -8.909555E+04 -4.323511E+04 -7.414353E-10  1.239244E-10
       423  19  1.678879E+06  1.295956E+05  1.333866E+05 -4.398708E+04  9.591781E+03  2.923392E+04
       423  20  1.746909E+06  1.471529E+05  1.616771E+05 -3.334007E+04  2.624954E+04  3.310551E+04
       423  21  1.820045E+06  1.757600E+05  2.035939E+05 -4.978050E+04  4.290808E+04  3.594277E+04
       423  22  1.141619E+06 -7.640376E+02  1.801067E+04 -4.649431E+04  1.389836E+04  2.923890E+04
       423  23  1.139135E+06 -3.012849E+02  3.117870E+04 -3.295543E+04  2.952256E+04  3.311098E+04
       423  24  1.141579E+06  1.103912E+04  5.726604E+04 -4.650526E+04  4.514566E+04  3.594841E+04
       423  25  6.046301E+05 -1.311425E+05 -9.738208E+04 -4.899939E+04  1.820127E+04  2.924384E+04
       423  26  5.317076E+05 -1.477796E+05 -9.934125E+04 -3.257123E+04  3.279241E+04  3.311646E+04
       423  27  4.635440E+05 -1.537120E+05 -8.908890E+04 -4.323374E+04  4.738082E+04  3.595408E+04
       424   1  1.888633E+06  1.678834E+05  2.300747E+05 -1.382969E+04 -4.659223E+04 -4.012665E+04
       424   2  1.928368E+06  2.006930E+05  3.012750E+05 -7.295858E+04 -1.350330E+05 -3.761353E+04
       424   3  2.032684E+06  4.448799E+05  4.828442E+05 -1.588207E+05 -2.235290E+05 -1.212826E+04
       424   4  1.153980E+06 -1.043026E+04  7.238539E+04 -4.632814E+04 -5.528477E+04 -4.013849E+04
       424   5  1.123543E+06  4.779873E+03  1.244295E+05 -3.314921E+04 -1.210101E+05 -3.760501E+04
       424   6  1.153820E+06  2.275600E+05  2.711747E+05 -4.669216E+04 -1.867768E+05 -1.210657E+04
       424   7  4.198352E+05 -1.887753E+05 -8.533461E+04 -7.878782E+04 -6.396716E+04 -4.014942E+04
       424   8  3.193264E+05 -1.911704E+05 -5.245387E+04  6.607860E+03 -1.070051E+05 -3.759470E+04
       424   9  2.756897E+05  1.023221E+04  5.946206E+04  6.527729E+04 -1.500762E+05 -1.207165E+04
       424  10  1.888630E+06  1.678811E+05  2.300676E+05 -1.383119E+04  9.439606E-10 -2.997246E-09
       424  11  1.928348E+06  2.006866E+05  3.012382E+05 -7.296266E+04 -1.513742E-09 -5.081238E-09
       424  12  2.032631E+06  4.448664E+05  4.827503E+05 -1.588229E+05 -2.387006E-09 -1.400243E-09
       424  13  1.153976E+06 -1.043281E+04  7.237663E+04 -4.632992E+04 -9.218071E-10 -6.827868E-09
       424  14  1.123527E+06  4.774432E+03  1.243994E+05 -3.315288E+04  1.105790E-09  2.600092E-09
       424  15  1.153782E+06  2.275505E+05  2.711090E+05 -4.669398E+04  1.622954E-10 -5.002764E-10
       424  16  4.198303E+05 -1.887781E+05 -8.534533E+04 -7.878989E+04 -2.600095E-10 -1.221998E-09
       424  17  3.193137E+05 -1.911750E+05 -5.247803E+04  6.604620E+03  1.847257E-09  1.374738E-09
       424  18  2.756654E+05  1.022601E+04  5.941948E+04  6.527583E+04  2.022083E-09 -1.883538E-09
       424  19  1.888633E+06  1.678834E+05  2.300747E+05 -1.382969E+04  4.659223E+04  4.012665E+04
       424  20  1.928368E+06  2.006930E+05  3.012750E+05 -7.295858E+04  1.350330E+05  3.761353E+04
       424  21  2.032684E+06  4.448799E+05  4.828442E+05 -1.588207E+05  2.235290E+05  1.212826E+04
       424  22  1.153980E+06 -1.043026E+04  7.238539E+04 -4.632814E+04  5.528477E+04  4.013849E+04
       424  23  1.123543E+06  4.779873E+03  1.244295E+05 -3.314921E+04  1.210101E+05  3.760501E+04
       424  24  1.153820E+06  2.275600E+05  2.711747E+05 -4.669216E+04  1.867768E+05  1.210657E+04
       424  25  4.198352E+05 -1.887753E+05 -8.533461E+04 -7.878782E+04  6.396716E+04  4.014942E+04
       424  26  3.193264E+05 -1.911704E+05 -5.245387E+04  6.607860E+03  1.070051E+05  3.759470E+04
       424  27  2.756897E+05  1.023221E+04  5.946206E+04  6.527729E+04  1.500762E+05  1.207165E+04
       425   1  3.887395E+05  1.560956E+05  1.380239E+05  1.760149E+04  6.880805E+03 -1.266884E+04
       425   2  3.296584E+05  1.882897E+05  1.326223E+05  3.148009E+04 -6.669670E+03 -4.188877E+04
       425   3  2.627837E+05  1.821147E+05  1.264934E+05  6.088369E+04 -2.026017E+04 -4.881645E+04
       425   4 -4.999853E+05 -6.357471E+04 -7.243677E+04  5.367015E+04 -5.021966E+04 -1.278538E+04
       425   5 -4.933140E+05 -9.663576E+03 -3.451602E+04  4.583543E+04 -3.220097E+04 -4.194946E+04
       425   6 -4.999375E+05  3.668979E+02 -1.925922E+04  5.352758E+04 -1.422343E+04 -4.880686E+04
       425   7 -1.387974E+06 -2.832949E+05 -2.829393E+05  8.968655E+04 -1.072388E+05 -1.290864E+04
       425   8 -1.315640E+06 -2.076579E+05 -2.016871E+05  6.017103E+04 -5.769906E+04 -4.201137E+04
       425   9 -1.262098E+06 -1.814150E+05 -1.650381E+05  4.618037E+04 -8.193923E+03 -4.879740E+04
       425  10  3.887394E+05  1.560954E+05  1.380235E+05  1.760156E+04  2.993133E-09 -2.478125E-10
       425  11  3.296578E+05  1.882878E+05  1.326189E+05  3.147987E+04  2.528976E-09 -4.068286E-09
       425  12  2.627826E+05  1.821120E+05  1.264881E+05  6.088290E+04  1.253882E-09 -5.125741E-09
       425  13 -4.999880E+05 -6.357556E+04 -7.244182E+04  5.366963E+04 -1.661798E-11  1.803630E-09
       425  14 -4.933156E+05 -9.665744E+03 -3.452127E+04  4.583434E+04  7.080389E-10 -2.566864E-09
       425  15 -4.999384E+05  3.642862E+02 -1.926408E+04  5.352702E+04 -2.366999E-10 -2.656543E-10
       425  16 -1.387987E+06 -2.832982E+05 -2.829613E+05  8.968543E+04 -1.654736E-09  9.272537E-11
       425  17 -1.315644E+06 -2.076607E+05 -2.016967E+05  6.016907E+04 -4.127903E-09 -7.104256E-09
       425  18 -1.262099E+06 -1.814176E+05 -1.650427E+05  4.618005E+04 -1.890675E-09 -6.755584E-09
       425  19  3.887395E+05  1.560956E+05  1.380239E+05  1.760149E+04 -6.880805E+03  1.266884E+04
       425  20  3.296584E+05  1.882897E+05  1.326223E+05  3.148009E+04  6.669670E+03  4.188877E+04
       425  21  2.627837E+05  1.821147E+05  1.264934E+05  6.088369E+04  2.026017E+04  4.881645E+04
       425  22 -4.999853E+05 -6.357471E+04 -7.243677E+04  5.367015E+04  5.021966E+04  1.278538E+04
       425  23 -4.933140E+05 -9.663576E+03 -3.451602E+04  4.583543E+04  3.220097E+04  4.194946E+04
       425  24 -4.999375E+05  3.668979E+02 -1.925922E+04  5.352758E+04  1.422343E+04  4.880686E+04
       425  25 -1.387974E+06 -2.832949E+05 -2.829393E+05  8.968655E+04  1.072388E+05  1.290864E+04
       425  26 -1.315640E+06 -2.076579E+05 -2.016871E+05  6.017103E+04  5.769906E+04  4.201137E+04
       425  27 -1.262098E+06 -1.814150E+05 -1.650381E+05  4.618037E+04  8.193923E+03  4.879740E+04
       426   1  2.218780E+05  1.690067E+05  1.223048E+05  5.438576E+04 -1.362793E+04 -4.628673E+04
       426   2  1.592577E+05  1.558418E+05  1.151461E+05  4.655305E+04 -1.174139E+04 -4.413642E+04
       426   3  9.598830E+04  1.412204E+05  1.063874E+05  5.558334E+04 -9.860891E+03 -4.042811E+04
       426   4 -4.972024E+05 -2.257504E+03 -1.485037E+04  5.385077E+04 -1.168264E+04 -4.628639E+04
       426   5 -4.966704E+05 -3.846534E+01 -8.204833E+03  4.541525E+04 -7.593412E+03 -4.412952E+04
       426   6 -4.971741E+05  3.408339E+02 -4.691198E+03  5.384387E+04 -3.510005E+03 -4.041382E+04
       426   7 -1.215784E+06 -1.735522E+05 -1.520289E+05  5.331610E+04 -9.739546E+03 -4.628606E+04
       426   8 -1.152183E+06 -1.559437E+05 -1.315745E+05  4.427841E+04 -3.449708E+03 -4.412262E+04
       426   9 -1.089996E+06 -1.405590E+05 -1.157848E+05  5.210587E+04  2.834967E+03 -4.039957E+04
       426  10  2.218773E+05  1.690044E+05  1.223004E+05  5.438525E+04 -5.935451E-09 -5.670997E-09
       426  11  1.592570E+05  1.558396E+05  1.151422E+05  4.655263E+04 -7.469939E-10  1.756510E-09
       426  12  9.598776E+04  1.412186E+05  1.063842E+05  5.558301E+04  1.274620E-09  2.667090E-09
       426  13 -4.972031E+05 -2.259840E+03 -1.485465E+04  5.385034E+04  2.362295E-11 -3.725208E-09
       426  14 -4.966710E+05 -4.057151E+01 -8.208600E+03  4.541498E+04  7.457873E-10  4.166361E-10
       426  15 -4.971745E+05  3.390771E+02 -4.694290E+03  5.384376E+04  5.212643E-10 -2.708990E-09
       426  16 -1.215785E+06 -1.735545E+05 -1.520331E+05  5.331573E+04  7.315152E-09 -5.374702E-12
       426  17 -1.152183E+06 -1.559458E+05 -1.315782E+05  4.427829E+04 -1.911003E-09  7.739219E-10
       426  18 -1.089996E+06 -1.405608E+05 -1.157879E+05  5.210596E+04 -2.181841E-09 -3.798218E-10
       426  19  2.218780E+05  1.690067E+05  1.223048E+05  5.438576E+04  1.362793E+04  4.628673E+04
       426  20  1.592577E+05  1.558418E+05  1.151461E+05  4.655305E+04  1.174139E+04  4.413642E+04
       426  21  9.598830E+04  1.412204E+05  1.063874E+05  5.558334E+04  9.860891E+03  4.042811E+04
       426  22 -4.972024E+05 -2.257504E+03 -1.485037E+04  5.385077E+04  1.168264E+04  4.628639E+04
       426  23 -4.966704E+05 -3.846534E+01 -8.204833E+03  4.541525E+04  7.593412E+03  4.412952E+04
       426  24 -4.971741E+05  3.408339E+02 -4.691198E+03  5.384387E+04  3.510005E+03  4.041382E+04
       426  25 -1.215784E+06 -1.735522E+05 -1.520289E+05  5.331610E+04  9.739546E+03  4.628606E+04
       426  26 -1.152183E+06 -1.559437E+05 -1.315745E+05  4.427841E+04  3.449708E+03  4.412262E+04
       426  27 -1.089996E+06 -1.405590E+05 -1.157848E+05  5.210587E+04 -2.834967E+03  4.039957E+04
       427   1  5.322492E+04  1.308514E+05  9.917693E+04  5.522059E+04 -8.859430E+03 -3.781271E+04
       427   2 -9.800779E+03  1.159075E+05  8.891808E+04  4.657446E+04 -8.013729E+03 -3.346851E+04
       427   3 -7.300843E+04  1.010065E+05  7.809686E+04  5.492972E+04 -7.170270E+03 -2.901206E+04
       427   4 -4.969816E+05  2.300140E+02 -3.572542E+03  5.387592E+04 -2.788599E+03 -3.779834E+04
       427   5 -4.968647E+05  2.705635E+02 -2.049810E+03  4.537470E+04 -1.785027E+03 -3.345247E+04
       427   6 -4.969613E+05  3.266502E+02 -1.199617E+03  5.387566E+04 -7.836145E+02 -2.899429E+04
       427   7 -1.046895E+06 -1.304088E+05 -1.063349E+05  5.253226E+04  3.276989E+03 -3.778399E+04
       427   8 -9.836988E+05 -1.153800E+05 -9.302773E+04  4.417573E+04  4.438911E+03 -3.343644E+04
       427   9 -9.207401E+05 -1.003636E+05 -8.050368E+04  5.282219E+04  5.598789E+03 -2.897653E+04
       427  10  5.322445E+04  1.308499E+05  9.917410E+04  5.522032E+04 -4.460126E-09  4.362708E-09
       427  11 -9.801149E+03  1.159063E+05  8.891585E+04  4.657424E+04  2.151759E-09  4.508584E-09
       427  12 -7.300871E+04  1.010056E+05  7.809519E+04  5.492955E+04  7.918252E-09 -1.848842E-09
       427  13 -4.969819E+05  2.284781E+02 -3.575241E+03  5.387584E+04  5.041799E-10 -5.009733E-09
       427  14 -4.968650E+05  2.693612E+02 -2.051919E+03  4.537465E+04  4.174117E-10  4.849139E-09
       427  15 -4.969615E+05  3.257475E+02 -1.201198E+03  5.387564E+04  1.058601E-12  5.461154E-09
       427  16 -1.046895E+06 -1.304104E+05 -1.063376E+05  5.253236E+04  6.793542E-09  2.047321E-09
       427  17 -9.836991E+05 -1.153813E+05 -9.302986E+04  4.417585E+04 -4.993622E-09  5.160293E-09
       427  18 -9.207404E+05 -1.003645E+05 -8.050532E+04  5.282232E+04 -9.115298E-09  1.111004E-09
       427  19  5.322492E+04  1.308514E+05  9.917693E+04  5.522059E+04  8.859430E+03  3.781271E+04
       427  20 -9.800779E+03  1.159075E+05  8.891808E+04  4.657446E+04  8.013729E+03  3.346851E+04
       427  21 -7.300843E+04  1.010065E+05  7.809686E+04  5.492972E+04  7.170270E+03  2.901206E+04
       427  22 -4.969816E+05  2.300140E+02 -3.572542E+03  5.387592E+04  2.788599E+03  3.779834E+04
       427  23 -4.968647E+05  2.705635E+02 -2.049810E+03  4.537470E+04  1.785027E+03  3.345247E+04
       427  24 -4.969613E+05  3.266502E+02 -1.199617E+03  5.387566E+04  7.836145E+02  2.899429E+04
       427  25 -1.046895E+06 -1.304088E+05 -1.063349E+05  5.253226E+04 -3.276989E+03  3.778399E+04
       427  26 -9.836988E+05 -1.153800E+05 -9.302773E+04  4.417573E+04 -4.438911E+03  3.343644E+04
       427  27 -9.207401E+05 -1.003636E+05 -8.050368E+04  5.282219E+04 -5.598789E+03  2.897653E+04
       428   1 -1.159852E+05  9.073971E+04  7.003356E+04  5.482881E+04 -6.968887E+03 -2.638543E+04
       428   2 -1.791708E+05  7.571336E+04  5.870750E+04  4.614974E+04 -6.701502E+03 -2.188016E+04
       428   3 -2.424770E+05  6.079197E+04  4.720280E+04  5.451365E+04 -6.435401E+03 -1.736489E+04
       428   4 -4.969353E+05  3.275750E+02 -9.324803E+02  5.388491E+04 -5.981586E+02 -2.636708E+04
       428   5 -4.968648E+05  2.875088E+02 -5.950389E+02  4.536314E+04 -3.171345E+02 -2.186094E+04
       428   6 -4.969222E+05  3.499337E+02 -4.461321E+02  5.388486E+04 -3.736663E+01 -1.734480E+04
       428   7 -8.777447E+05 -9.009290E+04 -7.190455E+04  5.294148E+04  5.768759E+03 -2.634874E+04
       428   8 -8.144610E+05 -7.514415E+04 -5.990174E+04  4.457688E+04  6.064048E+03 -2.184174E+04
       428   9 -7.513047E+05 -6.009583E+04 -4.809770E+04  5.325629E+04  6.358111E+03 -1.732472E+04
       428  10 -1.159855E+05  9.073895E+04  7.003216E+04  5.482867E+04  3.031478E-09 -1.355491E-10
       428  11 -1.791710E+05  7.571284E+04  5.870651E+04  4.614962E+04  1.775977E-09  8.098283E-09
       428  12 -2.424771E+05  6.079163E+04  4.720215E+04  5.451356E+04 -1.136642E-09  6.487701E-09
       428  13 -4.969355E+05  3.268285E+02 -9.337871E+02  5.388489E+04  1.247344E-10 -6.035490E-10
       428  14 -4.968649E+05  2.869957E+02 -5.959369E+02  4.536314E+04  5.801002E-10  8.472962E-09
       428  15 -4.969223E+05  3.496107E+02 -4.466973E+02  5.388486E+04  2.165397E-10  1.502569E-09
       428  16 -8.777450E+05 -9.009366E+04 -7.190592E+04  5.294160E+04 -3.908746E-10 -7.391083E-11
       428  17 -8.144611E+05 -7.514467E+04 -5.990271E+04  4.457698E+04 -4.966512E-09 -7.616204E-10
       428  18 -7.513048E+05 -6.009616E+04 -4.809834E+04  5.325638E+04 -5.741434E-10  5.231192E-10
       428  19 -1.159852E+05  9.073971E+04  7.003356E+04  5.482881E+04  6.968887E+03  2.638543E+04
       428  20 -1.791708E+05  7.571336E+04  5.870750E+04  4.614974E+04  6.701502E+03  2.188016E+04
       428  21 -2.424770E+05  6.079197E+04  4.720280E+04  5.451365E+04  6.435401E+03  1.736489E+04
       428  22 -4.969353E+05  3.275750E+02 -9.324803E+02  5.388491E+04  5.981586E+02  2.636708E+04
       428  23 -4.968648E+05  2.875088E+02 -5.950389E+02  4.536314E+04  3.171345E+02  2.186094E+04
       428  24 -4.969222E+05  3.499337E+02 -4.461321E+02  5.388486E+04  3.736663E+01  1.734480E+04
       428  25 -8.777447E+05 -9.009290E+04 -7.190455E+04  5.294148E+04 -5.768759E+03  2.634874E+04
       428  26 -8.144610E+05 -7.514415E+04 -5.990174E+04  4.457688E+04 -6.064048E+03  2.184174E+04
       428  27 -7.513047E+05 -6.009583E+04 -4.809770E+04  5.325629E+04 -6.358111E+03  1.732472E+04
       429   1 -2.855420E+05  5.051128E+04  3.887736E+04  5.441162E+04 -6.365829E+03 -1.473344E+04
       429   2 -3.487922E+05  3.546571E+04  2.714670E+04  4.570451E+04 -6.135433E+03 -1.021258E+04
       429   3 -4.121776E+05  2.052505E+04  1.525614E+04  5.406492E+04 -5.905621E+03 -5.693642E+03
       429   4 -4.969203E+05  3.542442E+02 -4.275623E+02  5.389025E+04  3.366537E+01 -1.471298E+04
       429   5 -4.968485E+05  3.120149E+02 -4.891630E+02  4.535635E+04  2.610219E+02 -1.019175E+04
       429   6 -4.969143E+05  3.756313E+02 -7.083567E+02  5.389020E+04  4.878176E+02 -5.672432E+03
       429   7 -7.082553E+05 -4.980534E+04 -3.973422E+04  5.336904E+04  6.431036E+03 -1.469253E+04
       429   8 -6.448834E+05 -3.484293E+04 -2.812581E+04  4.500826E+04  6.655989E+03 -1.017092E+04
       429   9 -5.816439E+05 -1.977418E+04 -1.667301E+04  5.371550E+04  6.880405E+03 -5.651224E+03
       429  10 -2.855421E+05  5.051103E+04  3.887688E+04  5.441154E+04  1.078000E-08  5.267284E-10
       429  11 -3.487923E+05  3.546559E+04  2.714643E+04  4.570446E+04  3.869758E-09 -2.353228E-09
       429  12 -4.121777E+05  2.052500E+04  1.525601E+04  5.406490E+04 -5.030484E-09 -3.682758E-09
       429  13 -4.969204E+05  3.540118E+02 -4.279690E+02  5.389026E+04 -2.465886E-10  8.995997E-09
       429  14 -4.968485E+05  3.119034E+02 -4.893582E+02  4.535636E+04  6.852735E-10  8.421315E-10
       429  15 -4.969143E+05  3.755967E+02 -7.084176E+02  5.389021E+04  3.629584E-10 -2.726198E-09
       429  16 -7.082554E+05 -4.980558E+04 -3.973471E+04  5.336911E+04 -8.576242E-09  3.025446E-09
       429  17 -6.448835E+05 -3.484305E+04 -2.812609E+04  4.500832E+04 -7.103337E-09 -2.501364E-09
       429  18 -5.816440E+05 -1.977423E+04 -1.667316E+04  5.371553E+04  3.866859E-09 -3.889758E-09
       429  19 -2.855420E+05  5.051128E+04  3.887736E+04  5.441162E+04  6.365829E+03  1.473344E+04
       429  20 -3.487922E+05  3.546571E+04  2.714670E+04  4.570451E+04  6.135433E+03  1.021258E+04
       429  21 -4.121776E+05  2.052505E+04  1.525614E+04  5.406492E+04  5.905621E+03  5.693642E+03
       429  22 -4.969203E+05  3.542442E+02 -4.275623E+02  5.389025E+04 -3.366537E+01  1.471298E+04
       429  23 -4.968485E+05  3.120149E+02 -4.891630E+02  4.535635E+04 -2.610219E+02  1.019175E+04
       429  24 -4.969143E+05  3.756313E+02 -7.083567E+02  5.389020E+04 -4.878176E+02  5.672432E+03
       429  25 -7.082553E+05 -4.980534E+04 -3.973422E+04  5.336904E+04 -6.431036E+03  1.469253E+04
       429  26 -6.448834E+05 -3.484293E+04 -2.812581E+04  4.500826E+04 -6.655989E+03  1.017092E+04
       429  27 -5.816439E+05 -1.977418E+04 -1.667301E+04  5.371550E+04 -6.880405E+03  5.651224E+03
       430   1 -4.552900E+05  1.023722E+04  6.718379E+03  5.393868E+04 -5.779406E+03 -3.059834E+03
       430   2 -5.185075E+05 -4.816161E+03 -5.577053E+03  4.521120E+04 -4.978595E+03  1.441201E+03
       430   3 -5.819565E+05 -1.983667E+04 -1.842326E+04  5.355347E+04 -4.177613E+03  5.889065E+03
       430   4 -4.969320E+05  3.817464E+02 -8.947863E+02  5.389057E+04  6.241115E+02 -3.038491E+03
       430   5 -4.968215E+05  3.406751E+02 -1.496112E+03  4.535580E+04  1.349406E+03  1.462231E+03
       430   6 -4.969331E+05  3.457878E+02 -2.595732E+03  5.389071E+04  2.074951E+03  5.909794E+03
       430   7 -5.385722E+05 -9.473799E+03 -8.507868E+03  5.384247E+04  7.027211E+03 -3.017149E+03
       430   8 -4.751349E+05  5.497506E+03  2.584960E+03  4.550040E+04  7.677622E+03  1.483264E+03
       430   9 -4.119027E+05  2.052785E+04  1.323164E+04  5.422799E+04  8.328350E+03  5.930527E+03
       430  10 -4.552900E+05  1.023720E+04  6.718299E+03  5.393866E+04 -3.537433E-09  6.501457E-10
       430  11 -5.185075E+05 -4.816170E+03 -5.577103E+03  4.521121E+04 -1.479631E-09  1.003462E-11
       430  12 -5.819565E+05 -1.983671E+04 -1.842336E+04  5.355349E+04 -2.372442E-09  2.357822E-09
       430  13 -4.969320E+05  3.817363E+02 -8.948044E+02  5.389057E+04 -7.470060E-12  7.980393E-10
       430  14 -4.968215E+05  3.406723E+02 -1.496119E+03  4.535580E+04  1.127106E-09  1.567770E-09
       430  15 -4.969331E+05  3.457492E+02 -2.595806E+03  5.389070E+04  6.739258E-10  3.463832E-09
       430  16 -5.385723E+05 -9.473822E+03 -8.507978E+03  5.384249E+04  5.870255E-09  2.739941E-09
       430  17 -4.751349E+05  5.497487E+03  2.584845E+03  4.550039E+04 -9.183025E-10 -7.408900E-09
       430  18 -4.119027E+05  2.052779E+04  1.323144E+04  5.422795E+04  1.410376E-09 -1.465364E-09
       430  19 -4.552900E+05  1.023722E+04  6.718379E+03  5.393868E+04  5.779406E+03  3.059834E+03
       430  20 -5.185075E+05 -4.816161E+03 -5.577053E+03  4.521120E+04  4.978595E+03 -1.441201E+03
       430  21 -5.819565E+05 -1.983667E+04 -1.842326E+04  5.355347E+04  4.177613E+03 -5.889065E+03
       430  22 -4.969320E+05  3.817464E+02 -8.947863E+02  5.389057E+04 -6.241115E+02  3.038491E+03
       430  23 -4.968215E+05  3.406751E+02 -1.496112E+03  4.535580E+04 -1.349406E+03 -1.462231E+03
       430  24 -4.969331E+05  3.457878E+02 -2.595732E+03  5.389071E+04 -2.074951E+03 -5.909794E+03
       430  25 -5.385722E+05 -9.473799E+03 -8.507868E+03  5.384247E+04 -7.027211E+03  3.017149E+03
       430  26 -4.751349E+05  5.497506E+03  2.584960E+03  4.550040E+04 -7.677622E+03 -1.483264E+03
       430  27 -4.119027E+05  2.052785E+04  1.323164E+04  5.422799E+04 -8.328350E+03 -5.930527E+03
       431   1 -6.252060E+05 -3.005287E+04 -2.759383E+04  5.319196E+04 -3.796659E+03  8.520616E+03
       431   2 -6.879947E+05 -4.537969E+04 -4.213273E+04  4.500982E+04  2.338645E+02  1.266903E+04
       431   3 -7.518065E+05 -6.219171E+04 -5.970365E+04  5.384615E+04  4.266972E+03  1.605376E+04
       431   4 -4.970722E+05  4.321153E+02 -3.405465E+03  5.387803E+04  2.594627E+03  8.541639E+03
       431   5 -4.966569E+05  1.525373E+02 -5.943910E+03  4.537197E+04  5.545235E+03  1.268604E+04
       431   6 -4.970812E+05 -1.424289E+03 -1.076346E+04  5.388410E+04  8.498840E+03  1.606687E+04
       431   7 -3.689224E+05  3.091617E+04  2.078234E+04  5.456422E+04  8.987201E+03  8.562674E+03
       431   8 -3.052836E+05  4.568264E+04  3.024340E+04  4.573421E+04  1.085820E+04  1.270306E+04
       431   9 -2.422934E+05  5.933929E+04  3.817382E+04  5.392202E+04  1.273241E+04  1.607999E+04
       431  10 -6.252060E+05 -3.005295E+04 -2.759400E+04  5.319199E+04 -7.427927E-09  4.472083E-09
       431  11 -6.879948E+05 -4.537986E+04 -4.213304E+04  4.500981E+04  1.679723E-09  1.263018E-10
       431  12 -7.518066E+05 -6.219199E+04 -5.970417E+04  5.384609E+04  7.944825E-09  8.281156E-09
       431  13 -4.970722E+05  4.320351E+02 -3.405614E+03  5.387801E+04  2.165634E-10  3.322047E-09
       431  14 -4.966570E+05  1.523563E+02 -5.944270E+03  4.537191E+04  1.042427E-09  2.506851E-09
       431  15 -4.970814E+05 -1.424586E+03 -1.076408E+04  5.388399E+04  5.382952E-10 -2.263864E-09
       431  16 -3.689225E+05  3.091607E+04  2.078205E+04  5.456416E+04  1.019525E-08  2.792604E-09
       431  17 -3.052837E+05  4.568244E+04  3.024288E+04  4.573410E+04 -3.830083E-09 -6.620486E-10
       431  18 -2.422937E+05  5.933897E+04  3.817302E+04  5.392186E+04 -9.189721E-09 -1.160595E-08
       431  19 -6.252060E+05 -3.005287E+04 -2.759383E+04  5.319196E+04  3.796659E+03 -8.520616E+03
       431  20 -6.879947E+05 -4.537969E+04 -4.213273E+04  4.500982E+04 -2.338645E+02 -1.266903E+04
       431  21 -7.518065E+05 -6.219171E+04 -5.970365E+04  5.384615E+04 -4.266972E+03 -1.605376E+04
       431  22 -4.970722E+05  4.321153E+02 -3.405465E+03  5.387803E+04 -2.594627E+03 -8.541639E+03
       431  23 -4.966569E+05  1.525373E+02 -5.943910E+03  4.537197E+04 -5.545235E+03 -1.268604E+04
       431  24 -4.970812E+05 -1.424289E+03 -1.076346E+04  5.388410E+04 -8.498840E+03 -1.606687E+04
       431  25 -3.689224E+05  3.091617E+04  2.078234E+04  5.456422E+04 -8.987201E+03 -8.562674E+03
       431  26 -3.052836E+05  4.568264E+04  3.024340E+04  4.573421E+04 -1.085820E+04 -1.270306E+04
       431  27 -2.422934E+05  5.933929E+04  3.817382E+04  5.392202E+04 -1.273241E+04 -1.607999E+04
       432   1 -7.972418E+05 -7.071809E+04 -7.139846E+04  4.866218E+04  4.098006E+03  1.863689E+04
       432   2 -8.544150E+05 -9.360306E+04 -9.892848E+04  5.613817E+04  3.258941E+04  1.766116E+04
       432   3 -9.240336E+05 -1.509903E+05 -1.536689E+05  8.001989E+04  6.110992E+04  5.738444E+03
       432   4 -4.990650E+05  4.851663E+02 -1.395943E+04  5.372163E+04  1.033631E+04  1.865610E+04
       432   5 -4.942025E+05 -6.802566E+03 -2.500933E+04  4.559010E+04  2.334853E+04  1.763102E+04
       432   6 -4.990911E+05 -4.589222E+04 -5.250445E+04  5.386539E+04  3.639304E+04  5.660402E+03
       432   7 -2.008025E+05  7.168325E+04  4.347564E+04  5.878351E+04  1.657754E+04  1.867542E+04
       432   8 -1.338662E+05  7.999026E+04  4.890330E+04  3.503569E+04  1.410237E+04  1.760121E+04
       432   9 -7.397988E+04  5.919582E+04  4.865003E+04  2.769275E+04  1.165929E+04  5.584474E+03
       432  10 -7.972419E+05 -7.071847E+04 -7.139914E+04  4.866212E+04 -4.097317E-09  6.288384E-09
       432  11 -8.544163E+05 -9.360368E+04 -9.893106E+04  5.613771E+04 -4.380937E-10  7.657921E-10
       432  12 -9.240376E+05 -1.509913E+05 -1.536760E+05  8.001961E+04  5.776339E-10 -1.395793E-09
       432  13 -4.990652E+05  4.847640E+02 -1.396028E+04  5.372148E+04 -2.782695E-10  5.280850E-09
       432  14 -4.942032E+05 -6.803047E+03 -2.501093E+04  4.558976E+04  1.107180E-09 -6.602436E-09
       432  15 -4.990926E+05 -4.589261E+04 -5.250700E+04  5.386522E+04 -9.253136E-11  3.881224E-09
       432  16 -2.008029E+05  7.168280E+04  4.347447E+04  5.878326E+04  6.613536E-09 -4.500068E-09
       432  17 -1.338665E+05  7.998987E+04  4.890234E+04  3.503549E+04 -2.227720E-09  1.413880E-09
       432  18 -7.398003E+04  5.919575E+04  4.864972E+04  2.769270E+04 -2.019443E-09 -5.516472E-10
       432  19 -7.972418E+05 -7.071809E+04 -7.139846E+04  4.866218E+04 -4.098006E+03 -1.863689E+04
       432  20 -8.544150E+05 -9.360306E+04 -9.892848E+04  5.613817E+04 -3.258941E+04 -1.766116E+04
       432  21 -9.240336E+05 -1.509903E+05 -1.536689E+05  8.001989E+04 -6.110992E+04 -5.738444E+03
       432  22 -4.990650E+05  4.851663E+02 -1.395943E+04  5.372163E+04 -1.033631E+04 -1.865610E+04
       432  23 -4.942025E+05 -6.802566E+03 -2.500933E+04  4.559010E+04 -2.334853E+04 -1.763102E+04
       432  24 -4.990911E+05 -4.589222E+04 -5.250445E+04  5.386539E+04 -3.639304E+04 -5.660402E+03
       432  25 -2.008025E+05  7.168325E+04  4.347564E+04  5.878351E+04 -1.657754E+04 -1.867542E+04
       432  26 -1.338662E+05  7.999026E+04  4.890330E+04  3.503569E+04 -1.410237E+04 -1.760121E+04
       432  27 -7.397988E+04  5.919582E+04  4.865003E+04  2.769275E+04 -1.165929E+04 -5.584474E+03
       433   1 -8.622361E+04  5.446637E+04  4.557108E+04  3.287813E+03 -1.295341E+04 -4.800994E+03
       433   2 -1.132353E+05  7.839657E+04  5.288435E+04  8.249769E+03 -1.236022E+04 -1.512900E+04
       433   3 -1.476611E+05  7.317639E+04  5.253419E+04  2.459062E+04 -1.179481E+04 -1.610131E+04
       433   4 -4.418327E+05 -3.372970E+04 -4.028091E+04  1.927517E+04 -2.770836E+04 -4.845614E+03
       433   5 -4.373169E+05 -6.706101E+02 -1.848404E+04  1.353121E+04 -1.791422E+04 -1.514682E+04
       433   6 -4.418190E+05  1.631390E+03 -1.074650E+04  1.916679E+04 -8.147678E+03 -1.609016E+04
       433   7 -7.973250E+05 -1.219339E+05 -1.261410E+05  3.525326E+04 -4.245488E+04 -4.891006E+03
       433   8 -7.613001E+05 -7.974470E+04 -8.985874E+04  1.880978E+04 -2.346536E+04 -1.516474E+04
       433   9 -7.358954E+05 -6.991919E+04 -7.403220E+04  1.374549E+04 -4.502251E+03 -1.607907E+04
       433  10 -8.622379E+04  5.446630E+04  4.557072E+04  3.287763E+03 -7.264286E-09  1.545564E-09
       433  11 -1.132355E+05  7.839628E+04  5.288364E+04  8.249619E+03 -2.625132E-09  1.021918E-08
       433  12 -1.476613E+05  7.317608E+04  5.253344E+04  2.459047E+04  2.067690E-09  3.541682E-09
       433  13 -4.418335E+05 -3.372994E+04 -4.028240E+04  1.927507E+04  3.358299E-11 -3.914593E-09
       433  14 -4.373173E+05 -6.709426E+02 -1.848508E+04  1.353099E+04  1.318258E-10 -8.405795E-09
       433  15 -4.418191E+05  1.631095E+03 -1.074711E+04  1.916668E+04  3.644507E-10 -7.507940E-10
       433  16 -7.973269E+05 -1.219344E+05 -1.261444E+05  3.525309E+04  8.841212E-09  1.634031E-09
       433  17 -7.613008E+05 -7.974510E+04 -8.986021E+04  1.880949E+04  2.868456E-09  1.016523E-08
       433  18 -7.358955E+05 -6.991948E+04 -7.403273E+04  1.374544E+04 -2.396306E-09  8.097189E-10
       433  19 -8.622361E+04  5.446637E+04  4.557108E+04  3.287813E+03  1.295341E+04  4.800994E+03
       433  20 -1.132353E+05  7.839657E+04  5.288435E+04  8.249769E+03  1.236022E+04  1.512900E+04
       433  21 -1.476611E+05  7.317639E+04  5.253419E+04  2.459062E+04  1.179481E+04  1.610131E+04
       433  22 -4.418327E+05 -3.372970E+04 -4.028091E+04  1.927517E+04  2.770836E+04  4.845614E+03
       433  23 -4.373169E+05 -6.706101E+02 -1.848404E+04  1.353121E+04  1.791422E+04  1.514682E+04
       433  24 -4.418190E+05  1.631390E+03 -1.074650E+04  1.916679E+04  8.147678E+03  1.609016E+04
       433  25 -7.973250E+05 -1.219339E+05 -1.261410E+05  3.525326E+04  4.245488E+04  4.891006E+03
       433  26 -7.613001E+05 -7.974470E+04 -8.985874E+04  1.880978E+04  2.346536E+04  1.516474E+04
       433  27 -7.358954E+05 -6.991919E+04 -7.403220E+04  1.374549E+04  4.502251E+03  1.607907E+04
       434   1 -1.700775E+05  6.410972E+04  4.983302E+04  1.937836E+04 -7.683561E+03 -1.432712E+04
       434   2 -2.004679E+05  5.824037E+04  4.681924E+04  1.385703E+04 -5.790745E+03 -1.305628E+04
       434   3 -2.315503E+05  5.090308E+04  4.218812E+04  2.014693E+04 -3.899922E+03 -1.135313E+04
       434   4 -4.399839E+05 -1.554744E+03 -8.503451E+03  1.929270E+04 -6.650048E+03 -1.432424E+04
       434   5 -4.395974E+05  1.060797E+02 -4.632587E+03  1.338400E+04 -4.332849E+03 -1.305184E+04
       434   6 -4.399785E+05  2.247923E+02 -2.674578E+03  1.928683E+04 -2.017557E+03 -1.134703E+04
       434   7 -7.098218E+05 -6.722401E+04 -6.684423E+04  1.920703E+04 -5.616977E+03 -1.432136E+04
       434   8 -6.786732E+05 -5.803196E+04 -5.608776E+04  1.291111E+04 -2.875506E+03 -1.304739E+04
       434   9 -6.483659E+05 -5.045635E+04 -4.753982E+04  1.842699E+04 -1.358150E+02 -1.134094E+04
       434  10 -1.700776E+05  6.410948E+04  4.983253E+04  1.937827E+04 -1.956149E-08 -2.201902E-09
       434  11 -2.004679E+05  5.824017E+04  4.681886E+04  1.385697E+04 -5.488438E-10  2.066158E-09
       434  12 -2.315504E+05  5.090294E+04  4.218785E+04  2.014689E+04  2.279529E-08  7.181861E-09
       434  13 -4.399840E+05 -1.554976E+03 -8.503919E+03  1.929263E+04 -1.816550E-10  1.207824E-08
       434  14 -4.395975E+05  1.058918E+02 -4.632943E+03  1.338396E+04  2.174656E-10 -1.978972E-08
       434  15 -4.399786E+05  2.246530E+02 -2.674828E+03  1.928681E+04 -8.886535E-11  1.072741E-08
       434  16 -7.098219E+05 -6.722424E+04 -6.684468E+04  1.920697E+04  2.208357E-08 -8.144945E-09
       434  17 -6.786733E+05 -5.803215E+04 -5.608810E+04  1.291108E+04  2.019229E-09 -6.102058E-09
       434  18 -6.483659E+05 -5.045649E+04 -4.754006E+04  1.842699E+04 -2.365796E-08  1.762278E-09
       434  19 -1.700775E+05  6.410972E+04  4.983302E+04  1.937836E+04  7.683561E+03  1.432712E+04
       434  20 -2.004679E+05  5.824037E+04  4.681924E+04  1.385703E+04  5.790745E+03  1.305628E+04
       434  21 -2.315503E+05  5.090308E+04  4.218812E+04  2.014693E+04  3.899922E+03  1.135313E+04
       434  22 -4.399839E+05 -1.554744E+03 -8.503451E+03  1.929270E+04  6.650048E+03  1.432424E+04
       434  23 -4.395974E+05  1.060797E+02 -4.632587E+03  1.338400E+04  4.332849E+03  1.305184E+04
       434  24 -4.399785E+05  2.247923E+02 -2.674578E+03  1.928683E+04  2.017557E+03  1.134703E+04
       434  25 -7.098218E+05 -6.722401E+04 -6.684423E+04  1.920703E+04  5.616977E+03  1.432136E+04
       434  26 -6.786732E+05 -5.803196E+04 -5.608776E+04  1.291111E+04  2.875506E+03  1.304739E+04
       434  27 -6.483659E+05 -5.045635E+04 -4.753982E+04  1.842699E+04  1.358150E+02  1.134094E+04
       435   1 -2.555772E+05  4.484094E+04  3.746946E+04  1.982307E+04 -3.368930E+03 -1.025545E+04
       435   2 -2.863372E+05  3.740135E+04  3.177887E+04  1.380480E+04 -2.808936E+03 -8.449473E+03
       435   3 -3.172659E+05  2.995977E+04  2.570024E+04  1.966289E+04 -2.249369E+03 -6.621942E+03
       435   4 -4.398443E+05  6.665155E+01 -2.052990E+03  1.930294E+04 -1.604598E+03 -1.024964E+04
       435   5 -4.397564E+05  1.104622E+02 -1.185060E+03  1.336452E+04 -1.023584E+03 -8.443440E+03
       435   6 -4.398412E+05  1.487633E+02 -7.197310E+02  1.930265E+04 -4.429685E+02 -6.615683E+03
       435   7 -6.240794E+05 -4.470986E+04 -4.157741E+04  1.878293E+04  1.592171E+02 -1.024382E+04
       435   8 -5.931534E+05 -3.718197E+04 -3.415036E+04  1.292434E+04  7.613329E+02 -8.437409E+03
       435   9 -5.624025E+05 -2.966323E+04 -2.714058E+04  1.894247E+04  1.363080E+03 -6.609425E+03
       435  10 -2.555772E+05  4.484082E+04  3.746924E+04  1.982304E+04  2.363392E-09 -5.803578E-09
       435  11 -2.863373E+05  3.740127E+04  3.177872E+04  1.380478E+04 -8.765606E-10 -5.476679E-09
       435  12 -3.172659E+05  2.995972E+04  2.570015E+04  1.966288E+04  1.118261E-09  6.626129E-10
       435  13 -4.398443E+05  6.653807E+01 -2.053193E+03  1.930292E+04  2.134974E-12  6.137601E-10
       435  14 -4.397564E+05  1.103854E+02 -1.185196E+03  1.336452E+04 -8.090702E-10 -7.828217E-09
       435  15 -4.398413E+05  1.487162E+02 -7.198136E+02  1.930265E+04  4.921681E-10  8.939507E-10
       435  16 -6.240794E+05 -4.470997E+04 -4.157761E+04  1.878293E+04 -1.695462E-10 -2.042666E-09
       435  17 -5.931534E+05 -3.718205E+04 -3.415049E+04  1.292434E+04  1.426886E-09  9.845814E-09
       435  18 -5.624025E+05 -2.966328E+04 -2.714066E+04  1.894247E+04 -1.636986E-09  1.330677E-08
       435  19 -2.555772E+05  4.484094E+04  3.746946E+04  1.982307E+04  3.368930E+03  1.025545E+04
       435  20 -2.863372E+05  3.740135E+04  3.177887E+04  1.380480E+04  2.808936E+03  8.449473E+03
       435  21 -3.172659E+05  2.995977E+04  2.570024E+04  1.966289E+04  2.249369E+03  6.621942E+03
       435  22 -4.398443E+05  6.665155E+01 -2.052990E+03  1.930294E+04  1.604598E+03  1.024964E+04
       435  23 -4.397564E+05  1.104622E+02 -1.185060E+03  1.336452E+04  1.023584E+03  8.443440E+03
       435  24 -4.398412E+05  1.487633E+02 -7.197310E+02  1.930265E+04  4.429685E+02  6.615683E+03
       435  25 -6.240794E+05 -4.470986E+04 -4.157741E+04  1.878293E+04 -1.592171E+02  1.024382E+04
       435  26 -5.931534E+05 -3.718197E+04 -3.415036E+04  1.292434E+04 -7.613329E+02  8.437409E+03
       435  27 -5.624025E+05 -2.966323E+04 -2.714058E+04  1.894247E+04 -1.363080E+03  6.609425E+03
       436   1 -3.414727E+05  2.403251E+04  2.046695E+04  1.958861E+04 -2.131469E+03 -5.553176E+03
       436   2 -3.723264E+05  1.650031E+04  1.406743E+04  1.354505E+04 -1.930453E+03 -3.719478E+03
       436   3 -4.032901E+05  9.045799E+03  7.531514E+03  1.940307E+04 -1.729601E+03 -1.884103E+03
       436   4 -4.398264E+05  1.426334E+02 -5.797732E+02  1.930831E+04 -3.293840E+02 -5.546865E+03
       436   5 -4.397701E+05  1.065636E+02 -4.229337E+02  1.335749E+04 -1.267874E+02 -3.713096E+03
       436   6 -4.398251E+05  1.479530E+02 -4.035926E+02  1.930830E+04  7.565559E+01 -1.877647E+03
       436   7 -5.381709E+05 -2.374787E+04 -2.162704E+04  1.902806E+04  1.472420E+03 -5.540555E+03
       436   8 -5.072096E+05 -1.628748E+04 -1.491356E+04  1.316994E+04  1.676685E+03 -3.706715E+03
       436   9 -4.763588E+05 -8.749980E+03 -8.338766E+03  1.921353E+04  1.880807E+03 -1.871192E+03
       436  10 -3.414727E+05  2.403247E+04  2.046688E+04  1.958860E+04  1.112968E-08 -6.887302E-09
       436  11 -3.723264E+05  1.650030E+04  1.406740E+04  1.354505E+04 -1.099848E-08  2.228534E-09
       436  12 -4.032901E+05  9.045795E+03  7.531501E+03  1.940306E+04 -2.530514E-08  6.437353E-10
       436  13 -4.398264E+05  1.426003E+02 -5.798312E+02  1.930831E+04  6.164954E-11  2.825012E-09
       436  14 -4.397701E+05  1.065488E+02 -4.229597E+02  1.335749E+04 -3.452576E-10 -1.272226E-08
       436  15 -4.398251E+05  1.479492E+02 -4.035992E+02  1.930830E+04  4.548322E-10 -5.513403E-09
       436  16 -5.381710E+05 -2.374791E+04 -2.162711E+04  1.902807E+04 -8.928969E-09  5.953756E-09
       436  17 -5.072096E+05 -1.628750E+04 -1.491359E+04  1.316994E+04  1.165668E-08  6.002212E-09
       436  18 -4.763588E+05 -8.749985E+03 -8.338780E+03  1.921353E+04  2.459310E-08 -7.083298E-11
       436  19 -3.414727E+05  2.403251E+04  2.046695E+04  1.958861E+04  2.131469E+03  5.553176E+03
       436  20 -3.723264E+05  1.650031E+04  1.406743E+04  1.354505E+04  1.930453E+03  3.719478E+03
       436  21 -4.032901E+05  9.045799E+03  7.531514E+03  1.940307E+04  1.729601E+03  1.884103E+03
       436  22 -4.398264E+05  1.426334E+02 -5.797732E+02  1.930831E+04  3.293840E+02  5.546865E+03
       436  23 -4.397701E+05  1.065636E+02 -4.229337E+02  1.335749E+04  1.267874E+02  3.713096E+03
       436  24 -4.398251E+05  1.479530E+02 -4.035926E+02  1.930830E+04 -7.565559E+01  1.877647E+03
       436  25 -5.381709E+05 -2.374787E+04 -2.162704E+04  1.902806E+04 -1.472420E+03  5.540555E+03
       436  26 -5.072096E+05 -1.628748E+04 -1.491356E+04  1.316994E+04 -1.676685E+03  3.706715E+03
       436  27 -4.763588E+05 -8.749980E+03 -8.338766E+03  1.921353E+04 -1.880807E+03  1.871192E+03
       437   1 -4.275441E+05  3.116918E+03  2.113363E+03  1.933488E+04 -1.657097E+03 -8.154019E+02
       437   2 -4.584026E+05 -4.419432E+03 -4.627047E+03  1.328232E+04 -1.355067E+03  1.021013E+03
       437   3 -4.893869E+05 -1.188268E+04 -1.157125E+04  1.913704E+04 -1.053011E+03  2.856472E+03
       437   4 -4.398284E+05  1.479842E+02 -4.406678E+02  1.930954E+04  1.483735E+02 -8.089304E+02
       437   5 -4.397651E+05  1.112933E+02 -6.224169E+02  1.335592E+04  4.494169E+02  1.027461E+03
       437   6 -4.398288E+05  1.478115E+02 -1.007368E+03  1.930954E+04  7.505000E+02  2.862899E+03
       437   7 -4.521125E+05 -2.820957E+03 -2.994694E+03  1.928421E+04  1.953809E+03 -8.024590E+02
       437   8 -4.211272E+05  4.641998E+03  3.382205E+03  1.342952E+04  2.253954E+03  1.033909E+03
       437   9 -3.902683E+05  1.217815E+04  9.556389E+03  1.948206E+04  2.554153E+03  2.869328E+03
       437  10 -4.275441E+05  3.116916E+03  2.113356E+03  1.933488E+04  1.386890E-08 -1.008016E-09
       437  11 -4.584026E+05 -4.419434E+03 -4.627052E+03  1.328232E+04  2.245255E-09 -8.001095E-09
       437  12 -4.893869E+05 -1.188269E+04 -1.157127E+04  1.913704E+04 -1.020090E-08 -4.899577E-09
       437  13 -4.398284E+05  1.479835E+02 -4.406691E+02  1.930954E+04 -2.672648E-10  9.251268E-09
       437  14 -4.397651E+05  1.112921E+02 -6.224193E+02  1.335591E+04 -9.321358E-10 -4.989832E-09
       437  15 -4.398288E+05  1.478026E+02 -1.007384E+03  1.930954E+04  3.359330E-10 -3.183142E-09
       437  16 -4.521125E+05 -2.820959E+03 -2.994703E+03  1.928421E+04 -1.222331E-08  1.003011E-09
       437  17 -4.211272E+05  4.641995E+03  3.382194E+03  1.342951E+04 -9.684454E-10 -1.726932E-08
       437  18 -3.902683E+05  1.217814E+04  9.556361E+03  1.948206E+04  9.959504E-09 -1.041861E-08
       437  19 -4.275441E+05  3.116918E+03  2.113363E+03  1.933488E+04  1.657097E+03  8.154019E+02
       437  20 -4.584026E+05 -4.419432E+03 -4.627047E+03  1.328232E+04  1.355067E+03 -1.021013E+03
       437  21 -4.893869E+05 -1.188268E+04 -1.157125E+04  1.913704E+04  1.053011E+03 -2.856472E+03
       437  22 -4.398284E+05  1.479842E+02 -4.406678E+02  1.930954E+04 -1.483735E+02  8.089304E+02
       437  23 -4.397651E+05  1.112933E+02 -6.224169E+02  1.335592E+04 -4.494169E+02 -1.027461E+03
       437  24 -4.398288E+05  1.478115E+02 -1.007368E+03  1.930954E+04 -7.505000E+02 -2.862899E+03
       437  25 -4.521125E+05 -2.820957E+03 -2.994694E+03  1.928421E+04 -1.953809E+03  8.024590E+02
       437  26 -4.211272E+05  4.641998E+03  3.382205E+03  1.342952E+04 -2.253954E+03 -1.033909E+03
       437  27 -3.902683E+05  1.217815E+04  9.556389E+03  1.948206E+04 -2.554153E+03 -2.869328E+03
       438   1 -5.136593E+05 -1.779755E+04 -1.724743E+04  1.903678E+04 -8.521960E+02  3.926463E+03
       438   2 -5.444083E+05 -2.531851E+04 -2.473267E+04  1.300348E+04  2.672034E+02  5.759346E+03
       438   3 -5.754263E+05 -3.292897E+04 -3.299398E+04  1.886169E+04  1.386856E+03  7.573828E+03
       438   4 -4.398604E+05  1.601381E+02 -1.304794E+03  1.930585E+04  9.553937E+02  3.932867E+03
       438   5 -4.397284E+05  1.301564E+02 -2.236667E+03  1.336042E+04  2.056841E+03  5.765582E+03
       438   6 -4.398627E+05  1.400315E+01 -3.931865E+03  1.930637E+04  3.158596E+03  7.579900E+03
       438   7 -3.660564E+05  1.811747E+04  1.463754E+04  1.957494E+04  2.763196E+03  3.939273E+03
       438   8 -3.350382E+05  2.557810E+04  2.025871E+04  1.371741E+04  3.846777E+03  5.771820E+03
       438   9 -3.042817E+05  3.295577E+04  2.512919E+04  1.975113E+04  4.930718E+03  7.585975E+03
       438  10 -5.136593E+05 -1.779757E+04 -1.724747E+04  1.903678E+04 -1.214695E-08 -3.279021E-09
       438  11 -5.444083E+05 -2.531854E+04 -2.473274E+04  1.300348E+04  3.092345E-09 -2.895455E-09
       438  12 -5.754264E+05 -3.292903E+04 -3.299409E+04  1.886168E+04  1.911056E-08 -3.832888E-09
       438  13 -4.398604E+05  1.601212E+02 -1.304825E+03  1.930584E+04 -3.393685E-11 -1.115636E-09
       438  14 -4.397284E+05  1.301195E+02 -2.236738E+03  1.336041E+04 -9.816948E-10  6.533375E-09
       438  15 -4.398627E+05  1.393878E+01 -3.931992E+03  1.930635E+04  2.960752E-10  1.448646E-09
       438  16 -3.660564E+05  1.811745E+04  1.463749E+04  1.957493E+04  1.370176E-08  1.091923E-09
       438  17 -3.350382E+05  2.557806E+04  2.025862E+04  1.371739E+04 -1.509725E-09 -1.293158E-08
       438  18 -3.042818E+05  3.295570E+04  2.512904E+04  1.975110E+04 -1.932531E-08  7.382673E-09
       438  19 -5.136593E+05 -1.779755E+04 -1.724743E+04  1.903678E+04  8.521960E+02 -3.926463E+03
       438  20 -5.444083E+05 -2.531851E+04 -2.473267E+04  1.300348E+04 -2.672034E+02 -5.759346E+03
       438  21 -5.754263E+05 -3.292897E+04 -3.299398E+04  1.886169E+04 -1.386856E+03 -7.573828E+03
       438  22 -4.398604E+05  1.601381E+02 -1.304794E+03  1.930585E+04 -9.553937E+02 -3.932867E+03
       438  23 -4.397284E+05  1.301564E+02 -2.236667E+03  1.336042E+04 -2.056841E+03 -5.765582E+03
       438  24 -4.398627E+05  1.400315E+01 -3.931865E+03  1.930637E+04 -3.158596E+03 -7.579900E+03
       438  25 -3.660564E+05  1.811747E+04  1.463754E+04  1.957494E+04 -2.763196E+03 -3.939273E+03
       438  26 -3.350382E+05  2.557810E+04  2.025871E+04  1.371741E+04 -3.846777E+03 -5.771820E+03
       438  27 -3.042817E+05  3.295577E+04  2.512919E+04  1.975113E+04 -4.930718E+03 -7.585975E+03
       439   1 -5.998821E+05 -3.854027E+04 -3.955333E+04  1.824343E+04  2.079460E+03  8.670081E+03
       439   2 -6.299378E+05 -4.619531E+04 -4.993109E+04  1.312327E+04  6.910835E+03  1.040467E+04
       439   3 -6.614906E+05 -5.696295E+04 -6.425623E+04  1.985044E+04  1.174359E+04  1.176366E+04
       439   4 -4.401236E+05  3.203011E+02 -5.138155E+03  1.929325E+04  3.953956E+03  8.676423E+03
       439   5 -4.394095E+05  1.357324E+02 -8.920126E+03  1.337550E+04  8.417245E+03  1.040956E+04
       439   6 -4.401288E+05 -3.096787E+03 -1.639275E+04  1.930488E+04  1.288215E+04  1.176715E+04
       439   7 -2.803410E+05  3.917920E+04  2.927554E+04  2.034333E+04  5.828928E+03  8.682770E+03
       439   8 -2.488470E+05  4.646439E+04  3.208871E+04  1.362777E+04  9.924111E+03  1.041445E+04
       439   9 -2.187209E+05  5.076614E+04  3.146782E+04  1.875909E+04  1.402111E+04  1.177063E+04
       439  10 -5.998822E+05 -3.854036E+04 -3.955348E+04  1.824342E+04  1.295076E-08 -1.017401E-09
       439  11 -6.299379E+05 -4.619544E+04 -4.993138E+04  1.312321E+04 -6.863637E-09  8.834040E-09
       439  12 -6.614908E+05 -5.696314E+04 -6.425675E+04  1.985032E+04 -1.794264E-08 -8.572134E-09
       439  13 -4.401236E+05  3.202161E+02 -5.138326E+03  1.929323E+04  5.026941E-10 -8.342147E-09
       439  14 -4.394096E+05  1.355970E+02 -8.920463E+03  1.337543E+04 -1.259268E-09  9.042874E-09
       439  15 -4.401290E+05 -3.096981E+03 -1.639333E+04  1.930476E+04  3.109036E-10 -3.103121E-09
       439  16 -2.803410E+05  3.917911E+04  2.927533E+04  2.034328E+04 -1.070906E-08  2.791161E-09
       439  17 -2.488471E+05  4.646425E+04  3.208832E+04  1.362769E+04  7.669911E-09 -1.269754E-08
       439  18 -2.187212E+05  5.076594E+04  3.146719E+04  1.875896E+04  1.754848E-08  6.653671E-09
       439  19 -5.998821E+05 -3.854027E+04 -3.955333E+04  1.824343E+04 -2.079460E+03 -8.670081E+03
       439  20 -6.299378E+05 -4.619531E+04 -4.993109E+04  1.312327E+04 -6.910835E+03 -1.040467E+04
       439  21 -6.614906E+05 -5.696295E+04 -6.425623E+04  1.985044E+04 -1.174359E+04 -1.176366E+04
       439  22 -4.401236E+05  3.203011E+02 -5.138155E+03  1.929325E+04 -3.953956E+03 -8.676423E+03
       439  23 -4.394095E+05  1.357324E+02 -8.920126E+03  1.337550E+04 -8.417245E+03 -1.040956E+04
       439  24 -4.401288E+05 -3.096787E+03 -1.639275E+04  1.930488E+04 -1.288215E+04 -1.176715E+04
       439  25 -2.803410E+05  3.917920E+04  2.927554E+04  2.034333E+04 -5.828928E+03 -8.682770E+03
       439  26 -2.488470E+05  4.646439E+04  3.208871E+04  1.362777E+04 -9.924111E+03 -1.041445E+04
       439  27 -2.187209E+05  5.076614E+04  3.146782E+04  1.875909E+04 -1.402111E+04 -1.177063E+04
       440   1 -6.892773E+05 -5.674975E+04 -7.359630E+04  9.470698E+03  1.236592E+04  1.343763E+04
       440   2 -7.107686E+05 -6.860373E+04 -9.641313E+04  2.448019E+04  3.918100E+04  1.292311E+04
       440   3 -7.510292E+05 -1.412626E+05 -1.519145E+05  5.103411E+04  6.601930E+04  4.277448E+03
       440   4 -4.436713E+05  3.052406E+03 -2.072120E+04  1.917776E+04  1.577490E+04  1.344870E+04
       440   5 -4.349938E+05 -1.345504E+03 -3.563927E+04  1.351403E+04  3.460186E+04  1.290721E+04
       440   6 -4.436913E+05 -6.514736E+04 -7.768292E+04  1.939617E+04  5.345386E+04  4.234422E+03
       440   7 -1.980084E+05  6.285093E+04  3.215045E+04  2.888867E+04  1.918520E+04  1.345988E+04
       440   8 -1.591475E+05  6.590810E+04  2.513008E+04  2.542878E+03  3.002071E+04  1.289148E+04
       440   9 -1.362643E+05  1.096486E+04 -3.456918E+03 -1.225755E+04  4.088219E+04  4.192688E+03
       440  10 -6.892775E+05 -5.674998E+04 -7.359693E+04  9.470564E+03 -8.454070E-10 -8.796310E-09
       440  11 -7.107703E+05 -6.860432E+04 -9.641633E+04  2.447978E+04  3.922769E-09 -8.997527E-11
       440  12 -7.510339E+05 -1.412637E+05 -1.519228E+05  5.103388E+04  7.528181E-09  5.177437E-09
       440  13 -4.436716E+05  3.052144E+03 -2.072200E+04  1.917759E+04  1.173860E-11  1.975974E-09
       440  14 -4.349951E+05 -1.346004E+03 -3.564183E+04  1.351367E+04 -8.768347E-10  6.893141E-09
       440  15 -4.436943E+05 -6.514815E+04 -7.768832E+04  1.939599E+04  2.760494E-11  6.686603E-09
       440  16 -1.980088E+05  6.285064E+04  3.214942E+04  2.888846E+04  2.708597E-09  1.037868E-08
       440  17 -1.591485E+05  6.590768E+04  2.512807E+04  2.542566E+03 -2.948189E-09  1.290489E-08
       440  18 -1.362661E+05  1.096439E+04 -3.460093E+03 -1.225769E+04 -8.497418E-09  1.675932E-09
       440  19 -6.892773E+05 -5.674975E+04 -7.359630E+04  9.470698E+03 -1.236592E+04 -1.343763E+04
       440  20 -7.107686E+05 -6.860373E+04 -9.641313E+04  2.448019E+04 -3.918100E+04 -1.292311E+04
       440  21 -7.510292E+05 -1.412626E+05 -1.519145E+05  5.103411E+04 -6.601930E+04 -4.277448E+03
       440  22 -4.436713E+05  3.052406E+03 -2.072120E+04  1.917776E+04 -1.577490E+04 -1.344870E+04
       440  23 -4.349938E+05 -1.345504E+03 -3.563927E+04  1.351403E+04 -3.460186E+04 -1.290721E+04
       440  24 -4.436913E+05 -6.514736E+04 -7.768292E+04  1.939617E+04 -5.345386E+04 -4.234422E+03
       440  25 -1.980084E+05  6.285093E+04  3.215045E+04  2.888867E+04 -1.918520E+04 -1.345988E+04
       440  26 -1.591475E+05  6.590810E+04  2.513008E+04  2.542878E+03 -3.002071E+04 -1.289148E+04
       440  27 -1.362643E+05  1.096486E+04 -3.456918E+03 -1.225755E+04 -4.088219E+04 -4.192688E+03
