    1C
    1UUSER                                                              
    1UDATE              11.october.2022                                 
    1UTIME              17:31:34                                        
    1UHOST                                                              
    1UPGM               CalculiX                                        
    1UVERSION           Version 2.20                             
    1UCOMPILETIME       Sun Jul 31 18:08:37 CEST 2022                    
    1UDIR                                                               
    1UDBN                                                               
    1UMAT    1MESH_MATERIAL                                             
    2C                           841                                     1
 -1         1 0.00000E+00 0.00000E+00 0.00000E+00
 -1         2 1.66667E-02 0.00000E+00 0.00000E+00
 -1         3 3.33333E-02 0.00000E+00 0.00000E+00
 -1         4 5.00000E-02 0.00000E+00 0.00000E+00
 -1         5 6.66667E-02 0.00000E+00 0.00000E+00
 -1         8 0.00000E+00 6.25000E-03 0.00000E+00
 -1         9 1.66667E-02 6.25000E-03 0.00000E+00
 -1        10 3.33333E-02 6.25000E-03 0.00000E+00
 -1        11 5.00000E-02 6.25000E-03 0.00000E+00
 -1        12 6.66667E-02 6.25000E-03 0.00000E+00
 -1        15 0.00000E+00 1.25000E-02 0.00000E+00
 -1        16 1.66667E-02 1.25000E-02 0.00000E+00
 -1        17 3.33333E-02 1.25000E-02 0.00000E+00
 -1        18 5.00000E-02 1.25000E-02 0.00000E+00
 -1        19 6.66667E-02 1.25000E-02 0.00000E+00
 -1        20 8.33333E-02 1.25000E-02 0.00000E+00
 -1        21 1.00000E-01 1.25000E-02 0.00000E+00
 -1        22 0.00000E+00 1.87500E-02 0.00000E+00
 -1        23 1.66667E-02 1.87500E-02 0.00000E+00
 -1        24 3.33333E-02 1.87500E-02 0.00000E+00
 -1        25 5.00000E-02 1.87500E-02 0.00000E+00
 -1        26 6.66667E-02 1.87500E-02 0.00000E+00
 -1        27 8.33333E-02 1.87500E-02 0.00000E+00
 -1        28 1.00000E-01 1.87500E-02 0.00000E+00
 -1        29 0.00000E+00 2.50000E-02 0.00000E+00
 -1        30 1.66667E-02 2.50000E-02 0.00000E+00
 -1        31 3.33333E-02 2.50000E-02 0.00000E+00
 -1        32 5.00000E-02 2.50000E-02 0.00000E+00
 -1        33 6.66667E-02 2.50000E-02 0.00000E+00
 -1        34 8.33333E-02 2.50000E-02 0.00000E+00
 -1        35 1.00000E-01 2.50000E-02 0.00000E+00
 -1        36 1.04167E-03 0.00000E+00 0.00000E+00
 -1        37 2.08333E-03 0.00000E+00 0.00000E+00
 -1        38 3.12500E-03 0.00000E+00 0.00000E+00
 -1        39 4.16667E-03 0.00000E+00 0.00000E+00
 -1        40 5.20833E-03 0.00000E+00 0.00000E+00
 -1        41 6.25000E-03 0.00000E+00 0.00000E+00
 -1        42 7.29167E-03 0.00000E+00 0.00000E+00
 -1        43 8.33333E-03 0.00000E+00 0.00000E+00
 -1        44 9.37500E-03 0.00000E+00 0.00000E+00
 -1        45 1.04167E-02 0.00000E+00 0.00000E+00
 -1        46 1.14583E-02 0.00000E+00 0.00000E+00
 -1        47 1.25000E-02 0.00000E+00 0.00000E+00
 -1        48 1.35417E-02 0.00000E+00 0.00000E+00
 -1        49 1.45833E-02 0.00000E+00 0.00000E+00
 -1        50 1.56250E-02 0.00000E+00 0.00000E+00
 -1        51 0.00000E+00 1.04167E-03 0.00000E+00
 -1        52 0.00000E+00 2.08333E-03 0.00000E+00
 -1        53 0.00000E+00 3.12500E-03 0.00000E+00
 -1        54 0.00000E+00 4.16667E-03 0.00000E+00
 -1        55 0.00000E+00 5.20833E-03 0.00000E+00
 -1        56 1.04167E-03 3.90630E-04 0.00000E+00
 -1        57 2.08333E-03 7.81250E-04 0.00000E+00
 -1        58 3.12500E-03 1.17188E-03 0.00000E+00
 -1        59 4.16667E-03 1.56250E-03 0.00000E+00
 -1        60 5.20833E-03 1.95312E-03 0.00000E+00
 -1        61 6.25000E-03 2.34375E-03 0.00000E+00
 -1        62 7.29167E-03 2.73438E-03 0.00000E+00
 -1        63 8.33333E-03 3.12500E-03 0.00000E+00
 -1        64 9.37500E-03 3.51563E-03 0.00000E+00
 -1        65 1.04167E-02 3.90625E-03 0.00000E+00
 -1        66 1.14583E-02 4.29688E-03 0.00000E+00
 -1        67 1.25000E-02 4.68750E-03 0.00000E+00
 -1        68 1.35417E-02 5.07813E-03 0.00000E+00
 -1        69 1.45833E-02 5.46875E-03 0.00000E+00
 -1        70 1.56250E-02 5.85938E-03 0.00000E+00
 -1        71 1.77083E-02 0.00000E+00 0.00000E+00
 -1        72 1.87500E-02 0.00000E+00 0.00000E+00
 -1        73 1.97917E-02 0.00000E+00 0.00000E+00
 -1        74 2.08333E-02 0.00000E+00 0.00000E+00
 -1        75 2.18750E-02 0.00000E+00 0.00000E+00
 -1        76 2.29167E-02 0.00000E+00 0.00000E+00
 -1        77 2.39583E-02 0.00000E+00 0.00000E+00
 -1        78 2.50000E-02 0.00000E+00 0.00000E+00
 -1        79 2.60417E-02 0.00000E+00 0.00000E+00
 -1        80 2.70833E-02 0.00000E+00 0.00000E+00
 -1        81 2.81250E-02 0.00000E+00 0.00000E+00
 -1        82 2.91667E-02 0.00000E+00 0.00000E+00
 -1        83 3.02083E-02 0.00000E+00 0.00000E+00
 -1        84 3.12500E-02 0.00000E+00 0.00000E+00
 -1        85 3.22917E-02 0.00000E+00 0.00000E+00
 -1        86 1.66667E-02 1.04167E-03 0.00000E+00
 -1        87 1.66667E-02 2.08333E-03 0.00000E+00
 -1        88 1.66667E-02 3.12500E-03 0.00000E+00
 -1        89 1.66667E-02 4.16667E-03 0.00000E+00
 -1        90 1.66667E-02 5.20833E-03 0.00000E+00
 -1        91 1.77083E-02 3.90630E-04 0.00000E+00
 -1        92 1.87500E-02 7.81250E-04 0.00000E+00
 -1        93 1.97917E-02 1.17188E-03 0.00000E+00
 -1        94 2.08333E-02 1.56250E-03 0.00000E+00
 -1        95 2.18750E-02 1.95312E-03 0.00000E+00
 -1        96 2.29167E-02 2.34375E-03 0.00000E+00
 -1        97 2.39583E-02 2.73438E-03 0.00000E+00
 -1        98 2.50000E-02 3.12500E-03 0.00000E+00
 -1        99 2.60417E-02 3.51563E-03 0.00000E+00
 -1       100 2.70833E-02 3.90625E-03 0.00000E+00
 -1       101 2.81250E-02 4.29688E-03 0.00000E+00
 -1       102 2.91667E-02 4.68750E-03 0.00000E+00
 -1       103 3.02083E-02 5.07813E-03 0.00000E+00
 -1       104 3.12500E-02 5.46875E-03 0.00000E+00
 -1       105 3.22917E-02 5.85938E-03 0.00000E+00
 -1       106 3.43750E-02 0.00000E+00 0.00000E+00
 -1       107 3.54167E-02 0.00000E+00 0.00000E+00
 -1       108 3.64583E-02 0.00000E+00 0.00000E+00
 -1       109 3.75000E-02 0.00000E+00 0.00000E+00
 -1       110 3.85417E-02 0.00000E+00 0.00000E+00
 -1       111 3.95833E-02 0.00000E+00 0.00000E+00
 -1       112 4.06250E-02 0.00000E+00 0.00000E+00
 -1       113 4.16667E-02 0.00000E+00 0.00000E+00
 -1       114 4.27083E-02 0.00000E+00 0.00000E+00
 -1       115 4.37500E-02 0.00000E+00 0.00000E+00
 -1       116 4.47917E-02 0.00000E+00 0.00000E+00
 -1       117 4.58333E-02 0.00000E+00 0.00000E+00
 -1       118 4.68750E-02 0.00000E+00 0.00000E+00
 -1       119 4.79167E-02 0.00000E+00 0.00000E+00
 -1       120 4.89583E-02 0.00000E+00 0.00000E+00
 -1       121 3.33333E-02 1.04167E-03 0.00000E+00
 -1       122 3.33333E-02 2.08333E-03 0.00000E+00
 -1       123 3.33333E-02 3.12500E-03 0.00000E+00
 -1       124 3.33333E-02 4.16667E-03 0.00000E+00
 -1       125 3.33333E-02 5.20833E-03 0.00000E+00
 -1       126 3.43750E-02 3.90630E-04 0.00000E+00
 -1       127 3.54167E-02 7.81250E-04 0.00000E+00
 -1       128 3.64583E-02 1.17188E-03 0.00000E+00
 -1       129 3.75000E-02 1.56250E-03 0.00000E+00
 -1       130 3.85417E-02 1.95312E-03 0.00000E+00
 -1       131 3.95833E-02 2.34375E-03 0.00000E+00
 -1       132 4.06250E-02 2.73438E-03 0.00000E+00
 -1       133 4.16667E-02 3.12500E-03 0.00000E+00
 -1       134 4.27083E-02 3.51563E-03 0.00000E+00
 -1       135 4.37500E-02 3.90625E-03 0.00000E+00
 -1       136 4.47917E-02 4.29688E-03 0.00000E+00
 -1       137 4.58333E-02 4.68750E-03 0.00000E+00
 -1       138 4.68750E-02 5.07813E-03 0.00000E+00
 -1       139 4.79167E-02 5.46875E-03 0.00000E+00
 -1       140 4.89583E-02 5.85938E-03 0.00000E+00
 -1       141 5.10417E-02 0.00000E+00 0.00000E+00
 -1       142 5.20833E-02 0.00000E+00 0.00000E+00
 -1       143 5.31250E-02 0.00000E+00 0.00000E+00
 -1       144 5.41667E-02 0.00000E+00 0.00000E+00
 -1       145 5.52083E-02 0.00000E+00 0.00000E+00
 -1       146 5.62500E-02 0.00000E+00 0.00000E+00
 -1       147 5.72917E-02 0.00000E+00 0.00000E+00
 -1       148 5.83333E-02 0.00000E+00 0.00000E+00
 -1       149 5.93750E-02 0.00000E+00 0.00000E+00
 -1       150 6.04167E-02 0.00000E+00 0.00000E+00
 -1       151 6.14583E-02 0.00000E+00 0.00000E+00
 -1       152 6.25000E-02 0.00000E+00 0.00000E+00
 -1       153 6.35417E-02 0.00000E+00 0.00000E+00
 -1       154 6.45833E-02 0.00000E+00 0.00000E+00
 -1       155 6.56250E-02 0.00000E+00 0.00000E+00
 -1       156 5.00000E-02 1.04167E-03 0.00000E+00
 -1       157 5.00000E-02 2.08333E-03 0.00000E+00
 -1       158 5.00000E-02 3.12500E-03 0.00000E+00
 -1       159 5.00000E-02 4.16667E-03 0.00000E+00
 -1       160 5.00000E-02 5.20833E-03 0.00000E+00
 -1       161 5.10417E-02 3.90630E-04 0.00000E+00
 -1       162 5.20833E-02 7.81250E-04 0.00000E+00
 -1       163 5.31250E-02 1.17188E-03 0.00000E+00
 -1       164 5.41667E-02 1.56250E-03 0.00000E+00
 -1       165 5.52083E-02 1.95312E-03 0.00000E+00
 -1       166 5.62500E-02 2.34375E-03 0.00000E+00
 -1       167 5.72917E-02 2.73438E-03 0.00000E+00
 -1       168 5.83333E-02 3.12500E-03 0.00000E+00
 -1       169 5.93750E-02 3.51563E-03 0.00000E+00
 -1       170 6.04167E-02 3.90625E-03 0.00000E+00
 -1       171 6.14583E-02 4.29688E-03 0.00000E+00
 -1       172 6.25000E-02 4.68750E-03 0.00000E+00
 -1       173 6.35417E-02 5.07813E-03 0.00000E+00
 -1       174 6.45833E-02 5.46875E-03 0.00000E+00
 -1       175 6.56250E-02 5.85938E-03 0.00000E+00
 -1       191 6.66667E-02 1.04167E-03 0.00000E+00
 -1       192 6.66667E-02 2.08333E-03 0.00000E+00
 -1       193 6.66667E-02 3.12500E-03 0.00000E+00
 -1       194 6.66667E-02 4.16667E-03 0.00000E+00
 -1       195 6.66667E-02 5.20833E-03 0.00000E+00
 -1       251 1.04167E-03 6.25000E-03 0.00000E+00
 -1       252 2.08333E-03 6.25000E-03 0.00000E+00
 -1       253 3.12500E-03 6.25000E-03 0.00000E+00
 -1       254 4.16667E-03 6.25000E-03 0.00000E+00
 -1       255 5.20833E-03 6.25000E-03 0.00000E+00
 -1       256 6.25000E-03 6.25000E-03 0.00000E+00
 -1       257 7.29167E-03 6.25000E-03 0.00000E+00
 -1       258 8.33333E-03 6.25000E-03 0.00000E+00
 -1       259 9.37500E-03 6.25000E-03 0.00000E+00
 -1       260 1.04167E-02 6.25000E-03 0.00000E+00
 -1       261 1.14583E-02 6.25000E-03 0.00000E+00
 -1       262 1.25000E-02 6.25000E-03 0.00000E+00
 -1       263 1.35417E-02 6.25000E-03 0.00000E+00
 -1       264 1.45833E-02 6.25000E-03 0.00000E+00
 -1       265 1.56250E-02 6.25000E-03 0.00000E+00
 -1       266 0.00000E+00 7.29167E-03 0.00000E+00
 -1       267 0.00000E+00 8.33333E-03 0.00000E+00
 -1       268 0.00000E+00 9.37500E-03 0.00000E+00
 -1       269 0.00000E+00 1.04167E-02 0.00000E+00
 -1       270 0.00000E+00 1.14583E-02 0.00000E+00
 -1       271 1.04167E-03 6.64063E-03 0.00000E+00
 -1       272 2.08333E-03 7.03125E-03 0.00000E+00
 -1       273 3.12500E-03 7.42188E-03 0.00000E+00
 -1       274 4.16667E-03 7.81250E-03 0.00000E+00
 -1       275 5.20833E-03 8.20313E-03 0.00000E+00
 -1       276 6.25000E-03 8.59375E-03 0.00000E+00
 -1       277 7.29167E-03 8.98438E-03 0.00000E+00
 -1       278 8.33333E-03 9.37500E-03 0.00000E+00
 -1       279 9.37500E-03 9.76562E-03 0.00000E+00
 -1       280 1.04167E-02 1.01562E-02 0.00000E+00
 -1       281 1.14583E-02 1.05469E-02 0.00000E+00
 -1       282 1.25000E-02 1.09375E-02 0.00000E+00
 -1       283 1.35417E-02 1.13281E-02 0.00000E+00
 -1       284 1.45833E-02 1.17188E-02 0.00000E+00
 -1       285 1.56250E-02 1.21094E-02 0.00000E+00
 -1       286 1.77083E-02 6.25000E-03 0.00000E+00
 -1       287 1.87500E-02 6.25000E-03 0.00000E+00
 -1       288 1.97917E-02 6.25000E-03 0.00000E+00
 -1       289 2.08333E-02 6.25000E-03 0.00000E+00
 -1       290 2.18750E-02 6.25000E-03 0.00000E+00
 -1       291 2.29167E-02 6.25000E-03 0.00000E+00
 -1       292 2.39583E-02 6.25000E-03 0.00000E+00
 -1       293 2.50000E-02 6.25000E-03 0.00000E+00
 -1       294 2.60417E-02 6.25000E-03 0.00000E+00
 -1       295 2.70833E-02 6.25000E-03 0.00000E+00
 -1       296 2.81250E-02 6.25000E-03 0.00000E+00
 -1       297 2.91667E-02 6.25000E-03 0.00000E+00
 -1       298 3.02083E-02 6.25000E-03 0.00000E+00
 -1       299 3.12500E-02 6.25000E-03 0.00000E+00
 -1       300 3.22917E-02 6.25000E-03 0.00000E+00
 -1       301 1.66667E-02 7.29167E-03 0.00000E+00
 -1       302 1.66667E-02 8.33333E-03 0.00000E+00
 -1       303 1.66667E-02 9.37500E-03 0.00000E+00
 -1       304 1.66667E-02 1.04167E-02 0.00000E+00
 -1       305 1.66667E-02 1.14583E-02 0.00000E+00
 -1       306 1.77083E-02 6.64063E-03 0.00000E+00
 -1       307 1.87500E-02 7.03125E-03 0.00000E+00
 -1       308 1.97917E-02 7.42188E-03 0.00000E+00
 -1       309 2.08333E-02 7.81250E-03 0.00000E+00
 -1       310 2.18750E-02 8.20313E-03 0.00000E+00
 -1       311 2.29167E-02 8.59375E-03 0.00000E+00
 -1       312 2.39583E-02 8.98438E-03 0.00000E+00
 -1       313 2.50000E-02 9.37500E-03 0.00000E+00
 -1       314 2.60417E-02 9.76562E-03 0.00000E+00
 -1       315 2.70833E-02 1.01562E-02 0.00000E+00
 -1       316 2.81250E-02 1.05469E-02 0.00000E+00
 -1       317 2.91667E-02 1.09375E-02 0.00000E+00
 -1       318 3.02083E-02 1.13281E-02 0.00000E+00
 -1       319 3.12500E-02 1.17188E-02 0.00000E+00
 -1       320 3.22917E-02 1.21094E-02 0.00000E+00
 -1       321 3.43750E-02 6.25000E-03 0.00000E+00
 -1       322 3.54167E-02 6.25000E-03 0.00000E+00
 -1       323 3.64583E-02 6.25000E-03 0.00000E+00
 -1       324 3.75000E-02 6.25000E-03 0.00000E+00
 -1       325 3.85417E-02 6.25000E-03 0.00000E+00
 -1       326 3.95833E-02 6.25000E-03 0.00000E+00
 -1       327 4.06250E-02 6.25000E-03 0.00000E+00
 -1       328 4.16667E-02 6.25000E-03 0.00000E+00
 -1       329 4.27083E-02 6.25000E-03 0.00000E+00
 -1       330 4.37500E-02 6.25000E-03 0.00000E+00
 -1       331 4.47917E-02 6.25000E-03 0.00000E+00
 -1       332 4.58333E-02 6.25000E-03 0.00000E+00
 -1       333 4.68750E-02 6.25000E-03 0.00000E+00
 -1       334 4.79167E-02 6.25000E-03 0.00000E+00
 -1       335 4.89583E-02 6.25000E-03 0.00000E+00
 -1       336 3.33333E-02 7.29167E-03 0.00000E+00
 -1       337 3.33333E-02 8.33333E-03 0.00000E+00
 -1       338 3.33333E-02 9.37500E-03 0.00000E+00
 -1       339 3.33333E-02 1.04167E-02 0.00000E+00
 -1       340 3.33333E-02 1.14583E-02 0.00000E+00
 -1       341 3.43750E-02 6.64063E-03 0.00000E+00
 -1       342 3.54167E-02 7.03125E-03 0.00000E+00
 -1       343 3.64583E-02 7.42188E-03 0.00000E+00
 -1       344 3.75000E-02 7.81250E-03 0.00000E+00
 -1       345 3.85417E-02 8.20313E-03 0.00000E+00
 -1       346 3.95833E-02 8.59375E-03 0.00000E+00
 -1       347 4.06250E-02 8.98438E-03 0.00000E+00
 -1       348 4.16667E-02 9.37500E-03 0.00000E+00
 -1       349 4.27083E-02 9.76562E-03 0.00000E+00
 -1       350 4.37500E-02 1.01562E-02 0.00000E+00
 -1       351 4.47917E-02 1.05469E-02 0.00000E+00
 -1       352 4.58333E-02 1.09375E-02 0.00000E+00
 -1       353 4.68750E-02 1.13281E-02 0.00000E+00
 -1       354 4.79167E-02 1.17188E-02 0.00000E+00
 -1       355 4.89583E-02 1.21094E-02 0.00000E+00
 -1       356 5.10417E-02 6.25000E-03 0.00000E+00
 -1       357 5.20833E-02 6.25000E-03 0.00000E+00
 -1       358 5.31250E-02 6.25000E-03 0.00000E+00
 -1       359 5.41667E-02 6.25000E-03 0.00000E+00
 -1       360 5.52083E-02 6.25000E-03 0.00000E+00
 -1       361 5.62500E-02 6.25000E-03 0.00000E+00
 -1       362 5.72917E-02 6.25000E-03 0.00000E+00
 -1       363 5.83333E-02 6.25000E-03 0.00000E+00
 -1       364 5.93750E-02 6.25000E-03 0.00000E+00
 -1       365 6.04167E-02 6.25000E-03 0.00000E+00
 -1       366 6.14583E-02 6.25000E-03 0.00000E+00
 -1       367 6.25000E-02 6.25000E-03 0.00000E+00
 -1       368 6.35417E-02 6.25000E-03 0.00000E+00
 -1       369 6.45833E-02 6.25000E-03 0.00000E+00
 -1       370 6.56250E-02 6.25000E-03 0.00000E+00
 -1       371 5.00000E-02 7.29167E-03 0.00000E+00
 -1       372 5.00000E-02 8.33333E-03 0.00000E+00
 -1       373 5.00000E-02 9.37500E-03 0.00000E+00
 -1       374 5.00000E-02 1.04167E-02 0.00000E+00
 -1       375 5.00000E-02 1.14583E-02 0.00000E+00
 -1       376 5.10417E-02 6.64063E-03 0.00000E+00
 -1       377 5.20833E-02 7.03125E-03 0.00000E+00
 -1       378 5.31250E-02 7.42188E-03 0.00000E+00
 -1       379 5.41667E-02 7.81250E-03 0.00000E+00
 -1       380 5.52083E-02 8.20313E-03 0.00000E+00
 -1       381 5.62500E-02 8.59375E-03 0.00000E+00
 -1       382 5.72917E-02 8.98438E-03 0.00000E+00
 -1       383 5.83333E-02 9.37500E-03 0.00000E+00
 -1       384 5.93750E-02 9.76562E-03 0.00000E+00
 -1       385 6.04167E-02 1.01562E-02 0.00000E+00
 -1       386 6.14583E-02 1.05469E-02 0.00000E+00
 -1       387 6.25000E-02 1.09375E-02 0.00000E+00
 -1       388 6.35417E-02 1.13281E-02 0.00000E+00
 -1       389 6.45833E-02 1.17188E-02 0.00000E+00
 -1       390 6.56250E-02 1.21094E-02 0.00000E+00
 -1       406 6.66667E-02 7.29167E-03 0.00000E+00
 -1       407 6.66667E-02 8.33333E-03 0.00000E+00
 -1       408 6.66667E-02 9.37500E-03 0.00000E+00
 -1       409 6.66667E-02 1.04167E-02 0.00000E+00
 -1       410 6.66667E-02 1.14583E-02 0.00000E+00
 -1       466 1.04167E-03 1.25000E-02 0.00000E+00
 -1       467 2.08333E-03 1.25000E-02 0.00000E+00
 -1       468 3.12500E-03 1.25000E-02 0.00000E+00
 -1       469 4.16667E-03 1.25000E-02 0.00000E+00
 -1       470 5.20833E-03 1.25000E-02 0.00000E+00
 -1       471 6.25000E-03 1.25000E-02 0.00000E+00
 -1       472 7.29167E-03 1.25000E-02 0.00000E+00
 -1       473 8.33333E-03 1.25000E-02 0.00000E+00
 -1       474 9.37500E-03 1.25000E-02 0.00000E+00
 -1       475 1.04167E-02 1.25000E-02 0.00000E+00
 -1       476 1.14583E-02 1.25000E-02 0.00000E+00
 -1       477 1.25000E-02 1.25000E-02 0.00000E+00
 -1       478 1.35417E-02 1.25000E-02 0.00000E+00
 -1       479 1.45833E-02 1.25000E-02 0.00000E+00
 -1       480 1.56250E-02 1.25000E-02 0.00000E+00
 -1       481 0.00000E+00 1.35417E-02 0.00000E+00
 -1       482 0.00000E+00 1.45833E-02 0.00000E+00
 -1       483 0.00000E+00 1.56250E-02 0.00000E+00
 -1       484 0.00000E+00 1.66667E-02 0.00000E+00
 -1       485 0.00000E+00 1.77083E-02 0.00000E+00
 -1       486 1.04167E-03 1.28906E-02 0.00000E+00
 -1       487 2.08333E-03 1.32813E-02 0.00000E+00
 -1       488 3.12500E-03 1.36719E-02 0.00000E+00
 -1       489 4.16667E-03 1.40625E-02 0.00000E+00
 -1       490 5.20833E-03 1.44531E-02 0.00000E+00
 -1       491 6.25000E-03 1.48437E-02 0.00000E+00
 -1       492 7.29167E-03 1.52344E-02 0.00000E+00
 -1       493 8.33333E-03 1.56250E-02 0.00000E+00
 -1       494 9.37500E-03 1.60156E-02 0.00000E+00
 -1       495 1.04167E-02 1.64062E-02 0.00000E+00
 -1       496 1.14583E-02 1.67969E-02 0.00000E+00
 -1       497 1.25000E-02 1.71875E-02 0.00000E+00
 -1       498 1.35417E-02 1.75781E-02 0.00000E+00
 -1       499 1.45833E-02 1.79687E-02 0.00000E+00
 -1       500 1.56250E-02 1.83594E-02 0.00000E+00
 -1       501 1.77083E-02 1.25000E-02 0.00000E+00
 -1       502 1.87500E-02 1.25000E-02 0.00000E+00
 -1       503 1.97917E-02 1.25000E-02 0.00000E+00
 -1       504 2.08333E-02 1.25000E-02 0.00000E+00
 -1       505 2.18750E-02 1.25000E-02 0.00000E+00
 -1       506 2.29167E-02 1.25000E-02 0.00000E+00
 -1       507 2.39583E-02 1.25000E-02 0.00000E+00
 -1       508 2.50000E-02 1.25000E-02 0.00000E+00
 -1       509 2.60417E-02 1.25000E-02 0.00000E+00
 -1       510 2.70833E-02 1.25000E-02 0.00000E+00
 -1       511 2.81250E-02 1.25000E-02 0.00000E+00
 -1       512 2.91667E-02 1.25000E-02 0.00000E+00
 -1       513 3.02083E-02 1.25000E-02 0.00000E+00
 -1       514 3.12500E-02 1.25000E-02 0.00000E+00
 -1       515 3.22917E-02 1.25000E-02 0.00000E+00
 -1       516 1.66667E-02 1.35417E-02 0.00000E+00
 -1       517 1.66667E-02 1.45833E-02 0.00000E+00
 -1       518 1.66667E-02 1.56250E-02 0.00000E+00
 -1       519 1.66667E-02 1.66667E-02 0.00000E+00
 -1       520 1.66667E-02 1.77083E-02 0.00000E+00
 -1       521 1.77083E-02 1.28906E-02 0.00000E+00
 -1       522 1.87500E-02 1.32813E-02 0.00000E+00
 -1       523 1.97917E-02 1.36719E-02 0.00000E+00
 -1       524 2.08333E-02 1.40625E-02 0.00000E+00
 -1       525 2.18750E-02 1.44531E-02 0.00000E+00
 -1       526 2.29167E-02 1.48437E-02 0.00000E+00
 -1       527 2.39583E-02 1.52344E-02 0.00000E+00
 -1       528 2.50000E-02 1.56250E-02 0.00000E+00
 -1       529 2.60417E-02 1.60156E-02 0.00000E+00
 -1       530 2.70833E-02 1.64062E-02 0.00000E+00
 -1       531 2.81250E-02 1.67969E-02 0.00000E+00
 -1       532 2.91667E-02 1.71875E-02 0.00000E+00
 -1       533 3.02083E-02 1.75781E-02 0.00000E+00
 -1       534 3.12500E-02 1.79687E-02 0.00000E+00
 -1       535 3.22917E-02 1.83594E-02 0.00000E+00
 -1       536 3.43750E-02 1.25000E-02 0.00000E+00
 -1       537 3.54167E-02 1.25000E-02 0.00000E+00
 -1       538 3.64583E-02 1.25000E-02 0.00000E+00
 -1       539 3.75000E-02 1.25000E-02 0.00000E+00
 -1       540 3.85417E-02 1.25000E-02 0.00000E+00
 -1       541 3.95833E-02 1.25000E-02 0.00000E+00
 -1       542 4.06250E-02 1.25000E-02 0.00000E+00
 -1       543 4.16667E-02 1.25000E-02 0.00000E+00
 -1       544 4.27083E-02 1.25000E-02 0.00000E+00
 -1       545 4.37500E-02 1.25000E-02 0.00000E+00
 -1       546 4.47917E-02 1.25000E-02 0.00000E+00
 -1       547 4.58333E-02 1.25000E-02 0.00000E+00
 -1       548 4.68750E-02 1.25000E-02 0.00000E+00
 -1       549 4.79167E-02 1.25000E-02 0.00000E+00
 -1       550 4.89583E-02 1.25000E-02 0.00000E+00
 -1       551 3.33333E-02 1.35417E-02 0.00000E+00
 -1       552 3.33333E-02 1.45833E-02 0.00000E+00
 -1       553 3.33333E-02 1.56250E-02 0.00000E+00
 -1       554 3.33333E-02 1.66667E-02 0.00000E+00
 -1       555 3.33333E-02 1.77083E-02 0.00000E+00
 -1       556 3.43750E-02 1.28906E-02 0.00000E+00
 -1       557 3.54167E-02 1.32813E-02 0.00000E+00
 -1       558 3.64583E-02 1.36719E-02 0.00000E+00
 -1       559 3.75000E-02 1.40625E-02 0.00000E+00
 -1       560 3.85417E-02 1.44531E-02 0.00000E+00
 -1       561 3.95833E-02 1.48437E-02 0.00000E+00
 -1       562 4.06250E-02 1.52344E-02 0.00000E+00
 -1       563 4.16667E-02 1.56250E-02 0.00000E+00
 -1       564 4.27083E-02 1.60156E-02 0.00000E+00
 -1       565 4.37500E-02 1.64062E-02 0.00000E+00
 -1       566 4.47917E-02 1.67969E-02 0.00000E+00
 -1       567 4.58333E-02 1.71875E-02 0.00000E+00
 -1       568 4.68750E-02 1.75781E-02 0.00000E+00
 -1       569 4.79167E-02 1.79687E-02 0.00000E+00
 -1       570 4.89583E-02 1.83594E-02 0.00000E+00
 -1       571 5.10417E-02 1.25000E-02 0.00000E+00
 -1       572 5.20833E-02 1.25000E-02 0.00000E+00
 -1       573 5.31250E-02 1.25000E-02 0.00000E+00
 -1       574 5.41667E-02 1.25000E-02 0.00000E+00
 -1       575 5.52083E-02 1.25000E-02 0.00000E+00
 -1       576 5.62500E-02 1.25000E-02 0.00000E+00
 -1       577 5.72917E-02 1.25000E-02 0.00000E+00
 -1       578 5.83333E-02 1.25000E-02 0.00000E+00
 -1       579 5.93750E-02 1.25000E-02 0.00000E+00
 -1       580 6.04167E-02 1.25000E-02 0.00000E+00
 -1       581 6.14583E-02 1.25000E-02 0.00000E+00
 -1       582 6.25000E-02 1.25000E-02 0.00000E+00
 -1       583 6.35417E-02 1.25000E-02 0.00000E+00
 -1       584 6.45833E-02 1.25000E-02 0.00000E+00
 -1       585 6.56250E-02 1.25000E-02 0.00000E+00
 -1       586 5.00000E-02 1.35417E-02 0.00000E+00
 -1       587 5.00000E-02 1.45833E-02 0.00000E+00
 -1       588 5.00000E-02 1.56250E-02 0.00000E+00
 -1       589 5.00000E-02 1.66667E-02 0.00000E+00
 -1       590 5.00000E-02 1.77083E-02 0.00000E+00
 -1       591 5.10417E-02 1.28906E-02 0.00000E+00
 -1       592 5.20833E-02 1.32813E-02 0.00000E+00
 -1       593 5.31250E-02 1.36719E-02 0.00000E+00
 -1       594 5.41667E-02 1.40625E-02 0.00000E+00
 -1       595 5.52083E-02 1.44531E-02 0.00000E+00
 -1       596 5.62500E-02 1.48437E-02 0.00000E+00
 -1       597 5.72917E-02 1.52344E-02 0.00000E+00
 -1       598 5.83333E-02 1.56250E-02 0.00000E+00
 -1       599 5.93750E-02 1.60156E-02 0.00000E+00
 -1       600 6.04167E-02 1.64062E-02 0.00000E+00
 -1       601 6.14583E-02 1.67969E-02 0.00000E+00
 -1       602 6.25000E-02 1.71875E-02 0.00000E+00
 -1       603 6.35417E-02 1.75781E-02 0.00000E+00
 -1       604 6.45833E-02 1.79687E-02 0.00000E+00
 -1       605 6.56250E-02 1.83594E-02 0.00000E+00
 -1       606 6.77083E-02 1.25000E-02 0.00000E+00
 -1       607 6.87500E-02 1.25000E-02 0.00000E+00
 -1       608 6.97917E-02 1.25000E-02 0.00000E+00
 -1       609 7.08333E-02 1.25000E-02 0.00000E+00
 -1       610 7.18750E-02 1.25000E-02 0.00000E+00
 -1       611 7.29167E-02 1.25000E-02 0.00000E+00
 -1       612 7.39583E-02 1.25000E-02 0.00000E+00
 -1       613 7.50000E-02 1.25000E-02 0.00000E+00
 -1       614 7.60417E-02 1.25000E-02 0.00000E+00
 -1       615 7.70833E-02 1.25000E-02 0.00000E+00
 -1       616 7.81250E-02 1.25000E-02 0.00000E+00
 -1       617 7.91667E-02 1.25000E-02 0.00000E+00
 -1       618 8.02083E-02 1.25000E-02 0.00000E+00
 -1       619 8.12500E-02 1.25000E-02 0.00000E+00
 -1       620 8.22917E-02 1.25000E-02 0.00000E+00
 -1       621 6.66667E-02 1.35417E-02 0.00000E+00
 -1       622 6.66667E-02 1.45833E-02 0.00000E+00
 -1       623 6.66667E-02 1.56250E-02 0.00000E+00
 -1       624 6.66667E-02 1.66667E-02 0.00000E+00
 -1       625 6.66667E-02 1.77083E-02 0.00000E+00
 -1       626 6.77083E-02 1.28906E-02 0.00000E+00
 -1       627 6.87500E-02 1.32813E-02 0.00000E+00
 -1       628 6.97917E-02 1.36719E-02 0.00000E+00
 -1       629 7.08333E-02 1.40625E-02 0.00000E+00
 -1       630 7.18750E-02 1.44531E-02 0.00000E+00
 -1       631 7.29167E-02 1.48437E-02 0.00000E+00
 -1       632 7.39583E-02 1.52344E-02 0.00000E+00
 -1       633 7.50000E-02 1.56250E-02 0.00000E+00
 -1       634 7.60417E-02 1.60156E-02 0.00000E+00
 -1       635 7.70833E-02 1.64062E-02 0.00000E+00
 -1       636 7.81250E-02 1.67969E-02 0.00000E+00
 -1       637 7.91667E-02 1.71875E-02 0.00000E+00
 -1       638 8.02083E-02 1.75781E-02 0.00000E+00
 -1       639 8.12500E-02 1.79687E-02 0.00000E+00
 -1       640 8.22917E-02 1.83594E-02 0.00000E+00
 -1       641 8.43750E-02 1.25000E-02 0.00000E+00
 -1       642 8.54167E-02 1.25000E-02 0.00000E+00
 -1       643 8.64583E-02 1.25000E-02 0.00000E+00
 -1       644 8.75000E-02 1.25000E-02 0.00000E+00
 -1       645 8.85417E-02 1.25000E-02 0.00000E+00
 -1       646 8.95833E-02 1.25000E-02 0.00000E+00
 -1       647 9.06250E-02 1.25000E-02 0.00000E+00
 -1       648 9.16667E-02 1.25000E-02 0.00000E+00
 -1       649 9.27083E-02 1.25000E-02 0.00000E+00
 -1       650 9.37500E-02 1.25000E-02 0.00000E+00
 -1       651 9.47917E-02 1.25000E-02 0.00000E+00
 -1       652 9.58333E-02 1.25000E-02 0.00000E+00
 -1       653 9.68750E-02 1.25000E-02 0.00000E+00
 -1       654 9.79167E-02 1.25000E-02 0.00000E+00
 -1       655 9.89583E-02 1.25000E-02 0.00000E+00
 -1       656 8.33333E-02 1.35417E-02 0.00000E+00
 -1       657 8.33333E-02 1.45833E-02 0.00000E+00
 -1       658 8.33333E-02 1.56250E-02 0.00000E+00
 -1       659 8.33333E-02 1.66667E-02 0.00000E+00
 -1       660 8.33333E-02 1.77083E-02 0.00000E+00
 -1       661 8.43750E-02 1.28906E-02 0.00000E+00
 -1       662 8.54167E-02 1.32813E-02 0.00000E+00
 -1       663 8.64583E-02 1.36719E-02 0.00000E+00
 -1       664 8.75000E-02 1.40625E-02 0.00000E+00
 -1       665 8.85417E-02 1.44531E-02 0.00000E+00
 -1       666 8.95833E-02 1.48437E-02 0.00000E+00
 -1       667 9.06250E-02 1.52344E-02 0.00000E+00
 -1       668 9.16667E-02 1.56250E-02 0.00000E+00
 -1       669 9.27083E-02 1.60156E-02 0.00000E+00
 -1       670 9.37500E-02 1.64062E-02 0.00000E+00
 -1       671 9.47917E-02 1.67969E-02 0.00000E+00
 -1       672 9.58333E-02 1.71875E-02 0.00000E+00
 -1       673 9.68750E-02 1.75781E-02 0.00000E+00
 -1       674 9.79167E-02 1.79687E-02 0.00000E+00
 -1       675 9.89583E-02 1.83594E-02 0.00000E+00
 -1       676 1.00000E-01 1.35417E-02 0.00000E+00
 -1       677 1.00000E-01 1.45833E-02 0.00000E+00
 -1       678 1.00000E-01 1.56250E-02 0.00000E+00
 -1       679 1.00000E-01 1.66667E-02 0.00000E+00
 -1       680 1.00000E-01 1.77083E-02 0.00000E+00
 -1       681 1.04167E-03 1.87500E-02 0.00000E+00
 -1       682 2.08333E-03 1.87500E-02 0.00000E+00
 -1       683 3.12500E-03 1.87500E-02 0.00000E+00
 -1       684 4.16667E-03 1.87500E-02 0.00000E+00
 -1       685 5.20833E-03 1.87500E-02 0.00000E+00
 -1       686 6.25000E-03 1.87500E-02 0.00000E+00
 -1       687 7.29167E-03 1.87500E-02 0.00000E+00
 -1       688 8.33333E-03 1.87500E-02 0.00000E+00
 -1       689 9.37500E-03 1.87500E-02 0.00000E+00
 -1       690 1.04167E-02 1.87500E-02 0.00000E+00
 -1       691 1.14583E-02 1.87500E-02 0.00000E+00
 -1       692 1.25000E-02 1.87500E-02 0.00000E+00
 -1       693 1.35417E-02 1.87500E-02 0.00000E+00
 -1       694 1.45833E-02 1.87500E-02 0.00000E+00
 -1       695 1.56250E-02 1.87500E-02 0.00000E+00
 -1       696 0.00000E+00 1.97917E-02 0.00000E+00
 -1       697 0.00000E+00 2.08333E-02 0.00000E+00
 -1       698 0.00000E+00 2.18750E-02 0.00000E+00
 -1       699 0.00000E+00 2.29167E-02 0.00000E+00
 -1       700 0.00000E+00 2.39583E-02 0.00000E+00
 -1       701 1.04167E-03 1.91406E-02 0.00000E+00
 -1       702 2.08333E-03 1.95312E-02 0.00000E+00
 -1       703 3.12500E-03 1.99219E-02 0.00000E+00
 -1       704 4.16667E-03 2.03125E-02 0.00000E+00
 -1       705 5.20833E-03 2.07031E-02 0.00000E+00
 -1       706 6.25000E-03 2.10938E-02 0.00000E+00
 -1       707 7.29167E-03 2.14844E-02 0.00000E+00
 -1       708 8.33333E-03 2.18750E-02 0.00000E+00
 -1       709 9.37500E-03 2.22656E-02 0.00000E+00
 -1       710 1.04167E-02 2.26563E-02 0.00000E+00
 -1       711 1.14583E-02 2.30469E-02 0.00000E+00
 -1       712 1.25000E-02 2.34375E-02 0.00000E+00
 -1       713 1.35417E-02 2.38281E-02 0.00000E+00
 -1       714 1.45833E-02 2.42187E-02 0.00000E+00
 -1       715 1.56250E-02 2.46094E-02 0.00000E+00
 -1       716 1.77083E-02 1.87500E-02 0.00000E+00
 -1       717 1.87500E-02 1.87500E-02 0.00000E+00
 -1       718 1.97917E-02 1.87500E-02 0.00000E+00
 -1       719 2.08333E-02 1.87500E-02 0.00000E+00
 -1       720 2.18750E-02 1.87500E-02 0.00000E+00
 -1       721 2.29167E-02 1.87500E-02 0.00000E+00
 -1       722 2.39583E-02 1.87500E-02 0.00000E+00
 -1       723 2.50000E-02 1.87500E-02 0.00000E+00
 -1       724 2.60417E-02 1.87500E-02 0.00000E+00
 -1       725 2.70833E-02 1.87500E-02 0.00000E+00
 -1       726 2.81250E-02 1.87500E-02 0.00000E+00
 -1       727 2.91667E-02 1.87500E-02 0.00000E+00
 -1       728 3.02083E-02 1.87500E-02 0.00000E+00
 -1       729 3.12500E-02 1.87500E-02 0.00000E+00
 -1       730 3.22917E-02 1.87500E-02 0.00000E+00
 -1       731 1.66667E-02 1.97917E-02 0.00000E+00
 -1       732 1.66667E-02 2.08333E-02 0.00000E+00
 -1       733 1.66667E-02 2.18750E-02 0.00000E+00
 -1       734 1.66667E-02 2.29167E-02 0.00000E+00
 -1       735 1.66667E-02 2.39583E-02 0.00000E+00
 -1       736 1.77083E-02 1.91406E-02 0.00000E+00
 -1       737 1.87500E-02 1.95312E-02 0.00000E+00
 -1       738 1.97917E-02 1.99219E-02 0.00000E+00
 -1       739 2.08333E-02 2.03125E-02 0.00000E+00
 -1       740 2.18750E-02 2.07031E-02 0.00000E+00
 -1       741 2.29167E-02 2.10938E-02 0.00000E+00
 -1       742 2.39583E-02 2.14844E-02 0.00000E+00
 -1       743 2.50000E-02 2.18750E-02 0.00000E+00
 -1       744 2.60417E-02 2.22656E-02 0.00000E+00
 -1       745 2.70833E-02 2.26563E-02 0.00000E+00
 -1       746 2.81250E-02 2.30469E-02 0.00000E+00
 -1       747 2.91667E-02 2.34375E-02 0.00000E+00
 -1       748 3.02083E-02 2.38281E-02 0.00000E+00
 -1       749 3.12500E-02 2.42187E-02 0.00000E+00
 -1       750 3.22917E-02 2.46094E-02 0.00000E+00
 -1       751 3.43750E-02 1.87500E-02 0.00000E+00
 -1       752 3.54167E-02 1.87500E-02 0.00000E+00
 -1       753 3.64583E-02 1.87500E-02 0.00000E+00
 -1       754 3.75000E-02 1.87500E-02 0.00000E+00
 -1       755 3.85417E-02 1.87500E-02 0.00000E+00
 -1       756 3.95833E-02 1.87500E-02 0.00000E+00
 -1       757 4.06250E-02 1.87500E-02 0.00000E+00
 -1       758 4.16667E-02 1.87500E-02 0.00000E+00
 -1       759 4.27083E-02 1.87500E-02 0.00000E+00
 -1       760 4.37500E-02 1.87500E-02 0.00000E+00
 -1       761 4.47917E-02 1.87500E-02 0.00000E+00
 -1       762 4.58333E-02 1.87500E-02 0.00000E+00
 -1       763 4.68750E-02 1.87500E-02 0.00000E+00
 -1       764 4.79167E-02 1.87500E-02 0.00000E+00
 -1       765 4.89583E-02 1.87500E-02 0.00000E+00
 -1       766 3.33333E-02 1.97917E-02 0.00000E+00
 -1       767 3.33333E-02 2.08333E-02 0.00000E+00
 -1       768 3.33333E-02 2.18750E-02 0.00000E+00
 -1       769 3.33333E-02 2.29167E-02 0.00000E+00
 -1       770 3.33333E-02 2.39583E-02 0.00000E+00
 -1       771 3.43750E-02 1.91406E-02 0.00000E+00
 -1       772 3.54167E-02 1.95312E-02 0.00000E+00
 -1       773 3.64583E-02 1.99219E-02 0.00000E+00
 -1       774 3.75000E-02 2.03125E-02 0.00000E+00
 -1       775 3.85417E-02 2.07031E-02 0.00000E+00
 -1       776 3.95833E-02 2.10938E-02 0.00000E+00
 -1       777 4.06250E-02 2.14844E-02 0.00000E+00
 -1       778 4.16667E-02 2.18750E-02 0.00000E+00
 -1       779 4.27083E-02 2.22656E-02 0.00000E+00
 -1       780 4.37500E-02 2.26563E-02 0.00000E+00
 -1       781 4.47917E-02 2.30469E-02 0.00000E+00
 -1       782 4.58333E-02 2.34375E-02 0.00000E+00
 -1       783 4.68750E-02 2.38281E-02 0.00000E+00
 -1       784 4.79167E-02 2.42187E-02 0.00000E+00
 -1       785 4.89583E-02 2.46094E-02 0.00000E+00
 -1       786 5.10417E-02 1.87500E-02 0.00000E+00
 -1       787 5.20833E-02 1.87500E-02 0.00000E+00
 -1       788 5.31250E-02 1.87500E-02 0.00000E+00
 -1       789 5.41667E-02 1.87500E-02 0.00000E+00
 -1       790 5.52083E-02 1.87500E-02 0.00000E+00
 -1       791 5.62500E-02 1.87500E-02 0.00000E+00
 -1       792 5.72917E-02 1.87500E-02 0.00000E+00
 -1       793 5.83333E-02 1.87500E-02 0.00000E+00
 -1       794 5.93750E-02 1.87500E-02 0.00000E+00
 -1       795 6.04167E-02 1.87500E-02 0.00000E+00
 -1       796 6.14583E-02 1.87500E-02 0.00000E+00
 -1       797 6.25000E-02 1.87500E-02 0.00000E+00
 -1       798 6.35417E-02 1.87500E-02 0.00000E+00
 -1       799 6.45833E-02 1.87500E-02 0.00000E+00
 -1       800 6.56250E-02 1.87500E-02 0.00000E+00
 -1       801 5.00000E-02 1.97917E-02 0.00000E+00
 -1       802 5.00000E-02 2.08333E-02 0.00000E+00
 -1       803 5.00000E-02 2.18750E-02 0.00000E+00
 -1       804 5.00000E-02 2.29167E-02 0.00000E+00
 -1       805 5.00000E-02 2.39583E-02 0.00000E+00
 -1       806 5.10417E-02 1.91406E-02 0.00000E+00
 -1       807 5.20833E-02 1.95312E-02 0.00000E+00
 -1       808 5.31250E-02 1.99219E-02 0.00000E+00
 -1       809 5.41667E-02 2.03125E-02 0.00000E+00
 -1       810 5.52083E-02 2.07031E-02 0.00000E+00
 -1       811 5.62500E-02 2.10938E-02 0.00000E+00
 -1       812 5.72917E-02 2.14844E-02 0.00000E+00
 -1       813 5.83333E-02 2.18750E-02 0.00000E+00
 -1       814 5.93750E-02 2.22656E-02 0.00000E+00
 -1       815 6.04167E-02 2.26563E-02 0.00000E+00
 -1       816 6.14583E-02 2.30469E-02 0.00000E+00
 -1       817 6.25000E-02 2.34375E-02 0.00000E+00
 -1       818 6.35417E-02 2.38281E-02 0.00000E+00
 -1       819 6.45833E-02 2.42187E-02 0.00000E+00
 -1       820 6.56250E-02 2.46094E-02 0.00000E+00
 -1       821 6.77083E-02 1.87500E-02 0.00000E+00
 -1       822 6.87500E-02 1.87500E-02 0.00000E+00
 -1       823 6.97917E-02 1.87500E-02 0.00000E+00
 -1       824 7.08333E-02 1.87500E-02 0.00000E+00
 -1       825 7.18750E-02 1.87500E-02 0.00000E+00
 -1       826 7.29167E-02 1.87500E-02 0.00000E+00
 -1       827 7.39583E-02 1.87500E-02 0.00000E+00
 -1       828 7.50000E-02 1.87500E-02 0.00000E+00
 -1       829 7.60417E-02 1.87500E-02 0.00000E+00
 -1       830 7.70833E-02 1.87500E-02 0.00000E+00
 -1       831 7.81250E-02 1.87500E-02 0.00000E+00
 -1       832 7.91667E-02 1.87500E-02 0.00000E+00
 -1       833 8.02083E-02 1.87500E-02 0.00000E+00
 -1       834 8.12500E-02 1.87500E-02 0.00000E+00
 -1       835 8.22917E-02 1.87500E-02 0.00000E+00
 -1       836 6.66667E-02 1.97917E-02 0.00000E+00
 -1       837 6.66667E-02 2.08333E-02 0.00000E+00
 -1       838 6.66667E-02 2.18750E-02 0.00000E+00
 -1       839 6.66667E-02 2.29167E-02 0.00000E+00
 -1       840 6.66667E-02 2.39583E-02 0.00000E+00
 -1       841 6.77083E-02 1.91406E-02 0.00000E+00
 -1       842 6.87500E-02 1.95312E-02 0.00000E+00
 -1       843 6.97917E-02 1.99219E-02 0.00000E+00
 -1       844 7.08333E-02 2.03125E-02 0.00000E+00
 -1       845 7.18750E-02 2.07031E-02 0.00000E+00
 -1       846 7.29167E-02 2.10938E-02 0.00000E+00
 -1       847 7.39583E-02 2.14844E-02 0.00000E+00
 -1       848 7.50000E-02 2.18750E-02 0.00000E+00
 -1       849 7.60417E-02 2.22656E-02 0.00000E+00
 -1       850 7.70833E-02 2.26563E-02 0.00000E+00
 -1       851 7.81250E-02 2.30469E-02 0.00000E+00
 -1       852 7.91667E-02 2.34375E-02 0.00000E+00
 -1       853 8.02083E-02 2.38281E-02 0.00000E+00
 -1       854 8.12500E-02 2.42187E-02 0.00000E+00
 -1       855 8.22917E-02 2.46094E-02 0.00000E+00
 -1       856 8.43750E-02 1.87500E-02 0.00000E+00
 -1       857 8.54167E-02 1.87500E-02 0.00000E+00
 -1       858 8.64583E-02 1.87500E-02 0.00000E+00
 -1       859 8.75000E-02 1.87500E-02 0.00000E+00
 -1       860 8.85417E-02 1.87500E-02 0.00000E+00
 -1       861 8.95833E-02 1.87500E-02 0.00000E+00
 -1       862 9.06250E-02 1.87500E-02 0.00000E+00
 -1       863 9.16667E-02 1.87500E-02 0.00000E+00
 -1       864 9.27083E-02 1.87500E-02 0.00000E+00
 -1       865 9.37500E-02 1.87500E-02 0.00000E+00
 -1       866 9.47917E-02 1.87500E-02 0.00000E+00
 -1       867 9.58333E-02 1.87500E-02 0.00000E+00
 -1       868 9.68750E-02 1.87500E-02 0.00000E+00
 -1       869 9.79167E-02 1.87500E-02 0.00000E+00
 -1       870 9.89583E-02 1.87500E-02 0.00000E+00
 -1       871 8.33333E-02 1.97917E-02 0.00000E+00
 -1       872 8.33333E-02 2.08333E-02 0.00000E+00
 -1       873 8.33333E-02 2.18750E-02 0.00000E+00
 -1       874 8.33333E-02 2.29167E-02 0.00000E+00
 -1       875 8.33333E-02 2.39583E-02 0.00000E+00
 -1       876 8.43750E-02 1.91406E-02 0.00000E+00
 -1       877 8.54167E-02 1.95312E-02 0.00000E+00
 -1       878 8.64583E-02 1.99219E-02 0.00000E+00
 -1       879 8.75000E-02 2.03125E-02 0.00000E+00
 -1       880 8.85417E-02 2.07031E-02 0.00000E+00
 -1       881 8.95833E-02 2.10938E-02 0.00000E+00
 -1       882 9.06250E-02 2.14844E-02 0.00000E+00
 -1       883 9.16667E-02 2.18750E-02 0.00000E+00
 -1       884 9.27083E-02 2.22656E-02 0.00000E+00
 -1       885 9.37500E-02 2.26563E-02 0.00000E+00
 -1       886 9.47917E-02 2.30469E-02 0.00000E+00
 -1       887 9.58333E-02 2.34375E-02 0.00000E+00
 -1       888 9.68750E-02 2.38281E-02 0.00000E+00
 -1       889 9.79167E-02 2.42187E-02 0.00000E+00
 -1       890 9.89583E-02 2.46094E-02 0.00000E+00
 -1       891 1.00000E-01 1.97917E-02 0.00000E+00
 -1       892 1.00000E-01 2.08333E-02 0.00000E+00
 -1       893 1.00000E-01 2.18750E-02 0.00000E+00
 -1       894 1.00000E-01 2.29167E-02 0.00000E+00
 -1       895 1.00000E-01 2.39583E-02 0.00000E+00
 -1       896 1.04167E-03 2.50000E-02 0.00000E+00
 -1       897 2.08333E-03 2.50000E-02 0.00000E+00
 -1       898 3.12500E-03 2.50000E-02 0.00000E+00
 -1       899 4.16667E-03 2.50000E-02 0.00000E+00
 -1       900 5.20833E-03 2.50000E-02 0.00000E+00
 -1       901 6.25000E-03 2.50000E-02 0.00000E+00
 -1       902 7.29167E-03 2.50000E-02 0.00000E+00
 -1       903 8.33333E-03 2.50000E-02 0.00000E+00
 -1       904 9.37500E-03 2.50000E-02 0.00000E+00
 -1       905 1.04167E-02 2.50000E-02 0.00000E+00
 -1       906 1.14583E-02 2.50000E-02 0.00000E+00
 -1       907 1.25000E-02 2.50000E-02 0.00000E+00
 -1       908 1.35417E-02 2.50000E-02 0.00000E+00
 -1       909 1.45833E-02 2.50000E-02 0.00000E+00
 -1       910 1.56250E-02 2.50000E-02 0.00000E+00
 -1       911 1.77083E-02 2.50000E-02 0.00000E+00
 -1       912 1.87500E-02 2.50000E-02 0.00000E+00
 -1       913 1.97917E-02 2.50000E-02 0.00000E+00
 -1       914 2.08333E-02 2.50000E-02 0.00000E+00
 -1       915 2.18750E-02 2.50000E-02 0.00000E+00
 -1       916 2.29167E-02 2.50000E-02 0.00000E+00
 -1       917 2.39583E-02 2.50000E-02 0.00000E+00
 -1       918 2.50000E-02 2.50000E-02 0.00000E+00
 -1       919 2.60417E-02 2.50000E-02 0.00000E+00
 -1       920 2.70833E-02 2.50000E-02 0.00000E+00
 -1       921 2.81250E-02 2.50000E-02 0.00000E+00
 -1       922 2.91667E-02 2.50000E-02 0.00000E+00
 -1       923 3.02083E-02 2.50000E-02 0.00000E+00
 -1       924 3.12500E-02 2.50000E-02 0.00000E+00
 -1       925 3.22917E-02 2.50000E-02 0.00000E+00
 -1       926 3.43750E-02 2.50000E-02 0.00000E+00
 -1       927 3.54167E-02 2.50000E-02 0.00000E+00
 -1       928 3.64583E-02 2.50000E-02 0.00000E+00
 -1       929 3.75000E-02 2.50000E-02 0.00000E+00
 -1       930 3.85417E-02 2.50000E-02 0.00000E+00
 -1       931 3.95833E-02 2.50000E-02 0.00000E+00
 -1       932 4.06250E-02 2.50000E-02 0.00000E+00
 -1       933 4.16667E-02 2.50000E-02 0.00000E+00
 -1       934 4.27083E-02 2.50000E-02 0.00000E+00
 -1       935 4.37500E-02 2.50000E-02 0.00000E+00
 -1       936 4.47917E-02 2.50000E-02 0.00000E+00
 -1       937 4.58333E-02 2.50000E-02 0.00000E+00
 -1       938 4.68750E-02 2.50000E-02 0.00000E+00
 -1       939 4.79167E-02 2.50000E-02 0.00000E+00
 -1       940 4.89583E-02 2.50000E-02 0.00000E+00
 -1       941 5.10417E-02 2.50000E-02 0.00000E+00
 -1       942 5.20833E-02 2.50000E-02 0.00000E+00
 -1       943 5.31250E-02 2.50000E-02 0.00000E+00
 -1       944 5.41667E-02 2.50000E-02 0.00000E+00
 -1       945 5.52083E-02 2.50000E-02 0.00000E+00
 -1       946 5.62500E-02 2.50000E-02 0.00000E+00
 -1       947 5.72917E-02 2.50000E-02 0.00000E+00
 -1       948 5.83333E-02 2.50000E-02 0.00000E+00
 -1       949 5.93750E-02 2.50000E-02 0.00000E+00
 -1       950 6.04167E-02 2.50000E-02 0.00000E+00
 -1       951 6.14583E-02 2.50000E-02 0.00000E+00
 -1       952 6.25000E-02 2.50000E-02 0.00000E+00
 -1       953 6.35417E-02 2.50000E-02 0.00000E+00
 -1       954 6.45833E-02 2.50000E-02 0.00000E+00
 -1       955 6.56250E-02 2.50000E-02 0.00000E+00
 -1       956 6.77083E-02 2.50000E-02 0.00000E+00
 -1       957 6.87500E-02 2.50000E-02 0.00000E+00
 -1       958 6.97917E-02 2.50000E-02 0.00000E+00
 -1       959 7.08333E-02 2.50000E-02 0.00000E+00
 -1       960 7.18750E-02 2.50000E-02 0.00000E+00
 -1       961 7.29167E-02 2.50000E-02 0.00000E+00
 -1       962 7.39583E-02 2.50000E-02 0.00000E+00
 -1       963 7.50000E-02 2.50000E-02 0.00000E+00
 -1       964 7.60417E-02 2.50000E-02 0.00000E+00
 -1       965 7.70833E-02 2.50000E-02 0.00000E+00
 -1       966 7.81250E-02 2.50000E-02 0.00000E+00
 -1       967 7.91667E-02 2.50000E-02 0.00000E+00
 -1       968 8.02083E-02 2.50000E-02 0.00000E+00
 -1       969 8.12500E-02 2.50000E-02 0.00000E+00
 -1       970 8.22917E-02 2.50000E-02 0.00000E+00
 -1       971 8.43750E-02 2.50000E-02 0.00000E+00
 -1       972 8.54167E-02 2.50000E-02 0.00000E+00
 -1       973 8.64583E-02 2.50000E-02 0.00000E+00
 -1       974 8.75000E-02 2.50000E-02 0.00000E+00
 -1       975 8.85417E-02 2.50000E-02 0.00000E+00
 -1       976 8.95833E-02 2.50000E-02 0.00000E+00
 -1       977 9.06250E-02 2.50000E-02 0.00000E+00
 -1       978 9.16667E-02 2.50000E-02 0.00000E+00
 -1       979 9.27083E-02 2.50000E-02 0.00000E+00
 -1       980 9.37500E-02 2.50000E-02 0.00000E+00
 -1       981 9.47917E-02 2.50000E-02 0.00000E+00
 -1       982 9.58333E-02 2.50000E-02 0.00000E+00
 -1       983 9.68750E-02 2.50000E-02 0.00000E+00
 -1       984 9.79167E-02 2.50000E-02 0.00000E+00
 -1       985 9.89583E-02 2.50000E-02 0.00000E+00
 -3
    3C                           440                                     1
 -1         1   12    0    1
 -2         1        37        36
 -1         2   12    0    1
 -2        37        39        38
 -1         3   12    0    1
 -2        39        41        40
 -1         4   12    0    1
 -2        41        43        42
 -1         5   12    0    1
 -2        43        45        44
 -1         6   12    0    1
 -2        45        47        46
 -1         7   12    0    1
 -2        47        49        48
 -1         8   12    0    1
 -2        49         2        50
 -1         9   12    0    1
 -2         1        52        51
 -1        10   12    0    1
 -2        52        54        53
 -1        11   12    0    1
 -2        54         8        55
 -1        12   12    0    1
 -2         1        57        56
 -1        13   12    0    1
 -2        57        59        58
 -1        14   12    0    1
 -2        59        61        60
 -1        15   12    0    1
 -2        61        63        62
 -1        16   12    0    1
 -2        63        65        64
 -1        17   12    0    1
 -2        65        67        66
 -1        18   12    0    1
 -2        67        69        68
 -1        19   12    0    1
 -2        69         9        70
 -1        20   12    0    1
 -2         2        72        71
 -1        21   12    0    1
 -2        72        74        73
 -1        22   12    0    1
 -2        74        76        75
 -1        23   12    0    1
 -2        76        78        77
 -1        24   12    0    1
 -2        78        80        79
 -1        25   12    0    1
 -2        80        82        81
 -1        26   12    0    1
 -2        82        84        83
 -1        27   12    0    1
 -2        84         3        85
 -1        28   12    0    1
 -2         2        87        86
 -1        29   12    0    1
 -2        87        89        88
 -1        30   12    0    1
 -2        89         9        90
 -1        31   12    0    1
 -2         2        92        91
 -1        32   12    0    1
 -2        92        94        93
 -1        33   12    0    1
 -2        94        96        95
 -1        34   12    0    1
 -2        96        98        97
 -1        35   12    0    1
 -2        98       100        99
 -1        36   12    0    1
 -2       100       102       101
 -1        37   12    0    1
 -2       102       104       103
 -1        38   12    0    1
 -2       104        10       105
 -1        39   12    0    1
 -2         3       107       106
 -1        40   12    0    1
 -2       107       109       108
 -1        41   12    0    1
 -2       109       111       110
 -1        42   12    0    1
 -2       111       113       112
 -1        43   12    0    1
 -2       113       115       114
 -1        44   12    0    1
 -2       115       117       116
 -1        45   12    0    1
 -2       117       119       118
 -1        46   12    0    1
 -2       119         4       120
 -1        47   12    0    1
 -2         3       122       121
 -1        48   12    0    1
 -2       122       124       123
 -1        49   12    0    1
 -2       124        10       125
 -1        50   12    0    1
 -2         3       127       126
 -1        51   12    0    1
 -2       127       129       128
 -1        52   12    0    1
 -2       129       131       130
 -1        53   12    0    1
 -2       131       133       132
 -1        54   12    0    1
 -2       133       135       134
 -1        55   12    0    1
 -2       135       137       136
 -1        56   12    0    1
 -2       137       139       138
 -1        57   12    0    1
 -2       139        11       140
 -1        58   12    0    1
 -2         4       142       141
 -1        59   12    0    1
 -2       142       144       143
 -1        60   12    0    1
 -2       144       146       145
 -1        61   12    0    1
 -2       146       148       147
 -1        62   12    0    1
 -2       148       150       149
 -1        63   12    0    1
 -2       150       152       151
 -1        64   12    0    1
 -2       152       154       153
 -1        65   12    0    1
 -2       154         5       155
 -1        66   12    0    1
 -2         4       157       156
 -1        67   12    0    1
 -2       157       159       158
 -1        68   12    0    1
 -2       159        11       160
 -1        69   12    0    1
 -2         4       162       161
 -1        70   12    0    1
 -2       162       164       163
 -1        71   12    0    1
 -2       164       166       165
 -1        72   12    0    1
 -2       166       168       167
 -1        73   12    0    1
 -2       168       170       169
 -1        74   12    0    1
 -2       170       172       171
 -1        75   12    0    1
 -2       172       174       173
 -1        76   12    0    1
 -2       174        12       175
 -1        77   12    0    1
 -2         5       192       191
 -1        78   12    0    1
 -2       192       194       193
 -1        79   12    0    1
 -2       194        12       195
 -1        80   12    0    1
 -2         8       252       251
 -1        81   12    0    1
 -2       252       254       253
 -1        82   12    0    1
 -2       254       256       255
 -1        83   12    0    1
 -2       256       258       257
 -1        84   12    0    1
 -2       258       260       259
 -1        85   12    0    1
 -2       260       262       261
 -1        86   12    0    1
 -2       262       264       263
 -1        87   12    0    1
 -2       264         9       265
 -1        88   12    0    1
 -2         8       267       266
 -1        89   12    0    1
 -2       267       269       268
 -1        90   12    0    1
 -2       269        15       270
 -1        91   12    0    1
 -2         8       272       271
 -1        92   12    0    1
 -2       272       274       273
 -1        93   12    0    1
 -2       274       276       275
 -1        94   12    0    1
 -2       276       278       277
 -1        95   12    0    1
 -2       278       280       279
 -1        96   12    0    1
 -2       280       282       281
 -1        97   12    0    1
 -2       282       284       283
 -1        98   12    0    1
 -2       284        16       285
 -1        99   12    0    1
 -2         9       287       286
 -1       100   12    0    1
 -2       287       289       288
 -1       101   12    0    1
 -2       289       291       290
 -1       102   12    0    1
 -2       291       293       292
 -1       103   12    0    1
 -2       293       295       294
 -1       104   12    0    1
 -2       295       297       296
 -1       105   12    0    1
 -2       297       299       298
 -1       106   12    0    1
 -2       299        10       300
 -1       107   12    0    1
 -2         9       302       301
 -1       108   12    0    1
 -2       302       304       303
 -1       109   12    0    1
 -2       304        16       305
 -1       110   12    0    1
 -2         9       307       306
 -1       111   12    0    1
 -2       307       309       308
 -1       112   12    0    1
 -2       309       311       310
 -1       113   12    0    1
 -2       311       313       312
 -1       114   12    0    1
 -2       313       315       314
 -1       115   12    0    1
 -2       315       317       316
 -1       116   12    0    1
 -2       317       319       318
 -1       117   12    0    1
 -2       319        17       320
 -1       118   12    0    1
 -2        10       322       321
 -1       119   12    0    1
 -2       322       324       323
 -1       120   12    0    1
 -2       324       326       325
 -1       121   12    0    1
 -2       326       328       327
 -1       122   12    0    1
 -2       328       330       329
 -1       123   12    0    1
 -2       330       332       331
 -1       124   12    0    1
 -2       332       334       333
 -1       125   12    0    1
 -2       334        11       335
 -1       126   12    0    1
 -2        10       337       336
 -1       127   12    0    1
 -2       337       339       338
 -1       128   12    0    1
 -2       339        17       340
 -1       129   12    0    1
 -2        10       342       341
 -1       130   12    0    1
 -2       342       344       343
 -1       131   12    0    1
 -2       344       346       345
 -1       132   12    0    1
 -2       346       348       347
 -1       133   12    0    1
 -2       348       350       349
 -1       134   12    0    1
 -2       350       352       351
 -1       135   12    0    1
 -2       352       354       353
 -1       136   12    0    1
 -2       354        18       355
 -1       137   12    0    1
 -2        11       357       356
 -1       138   12    0    1
 -2       357       359       358
 -1       139   12    0    1
 -2       359       361       360
 -1       140   12    0    1
 -2       361       363       362
 -1       141   12    0    1
 -2       363       365       364
 -1       142   12    0    1
 -2       365       367       366
 -1       143   12    0    1
 -2       367       369       368
 -1       144   12    0    1
 -2       369        12       370
 -1       145   12    0    1
 -2        11       372       371
 -1       146   12    0    1
 -2       372       374       373
 -1       147   12    0    1
 -2       374        18       375
 -1       148   12    0    1
 -2        11       377       376
 -1       149   12    0    1
 -2       377       379       378
 -1       150   12    0    1
 -2       379       381       380
 -1       151   12    0    1
 -2       381       383       382
 -1       152   12    0    1
 -2       383       385       384
 -1       153   12    0    1
 -2       385       387       386
 -1       154   12    0    1
 -2       387       389       388
 -1       155   12    0    1
 -2       389        19       390
 -1       156   12    0    1
 -2        12       407       406
 -1       157   12    0    1
 -2       407       409       408
 -1       158   12    0    1
 -2       409        19       410
 -1       159   12    0    1
 -2        15       467       466
 -1       160   12    0    1
 -2       467       469       468
 -1       161   12    0    1
 -2       469       471       470
 -1       162   12    0    1
 -2       471       473       472
 -1       163   12    0    1
 -2       473       475       474
 -1       164   12    0    1
 -2       475       477       476
 -1       165   12    0    1
 -2       477       479       478
 -1       166   12    0    1
 -2       479        16       480
 -1       167   12    0    1
 -2        15       482       481
 -1       168   12    0    1
 -2       482       484       483
 -1       169   12    0    1
 -2       484        22       485
 -1       170   12    0    1
 -2        15       487       486
 -1       171   12    0    1
 -2       487       489       488
 -1       172   12    0    1
 -2       489       491       490
 -1       173   12    0    1
 -2       491       493       492
 -1       174   12    0    1
 -2       493       495       494
 -1       175   12    0    1
 -2       495       497       496
 -1       176   12    0    1
 -2       497       499       498
 -1       177   12    0    1
 -2       499        23       500
 -1       178   12    0    1
 -2        16       502       501
 -1       179   12    0    1
 -2       502       504       503
 -1       180   12    0    1
 -2       504       506       505
 -1       181   12    0    1
 -2       506       508       507
 -1       182   12    0    1
 -2       508       510       509
 -1       183   12    0    1
 -2       510       512       511
 -1       184   12    0    1
 -2       512       514       513
 -1       185   12    0    1
 -2       514        17       515
 -1       186   12    0    1
 -2        16       517       516
 -1       187   12    0    1
 -2       517       519       518
 -1       188   12    0    1
 -2       519        23       520
 -1       189   12    0    1
 -2        16       522       521
 -1       190   12    0    1
 -2       522       524       523
 -1       191   12    0    1
 -2       524       526       525
 -1       192   12    0    1
 -2       526       528       527
 -1       193   12    0    1
 -2       528       530       529
 -1       194   12    0    1
 -2       530       532       531
 -1       195   12    0    1
 -2       532       534       533
 -1       196   12    0    1
 -2       534        24       535
 -1       197   12    0    1
 -2        17       537       536
 -1       198   12    0    1
 -2       537       539       538
 -1       199   12    0    1
 -2       539       541       540
 -1       200   12    0    1
 -2       541       543       542
 -1       201   12    0    1
 -2       543       545       544
 -1       202   12    0    1
 -2       545       547       546
 -1       203   12    0    1
 -2       547       549       548
 -1       204   12    0    1
 -2       549        18       550
 -1       205   12    0    1
 -2        17       552       551
 -1       206   12    0    1
 -2       552       554       553
 -1       207   12    0    1
 -2       554        24       555
 -1       208   12    0    1
 -2        17       557       556
 -1       209   12    0    1
 -2       557       559       558
 -1       210   12    0    1
 -2       559       561       560
 -1       211   12    0    1
 -2       561       563       562
 -1       212   12    0    1
 -2       563       565       564
 -1       213   12    0    1
 -2       565       567       566
 -1       214   12    0    1
 -2       567       569       568
 -1       215   12    0    1
 -2       569        25       570
 -1       216   12    0    1
 -2        18       572       571
 -1       217   12    0    1
 -2       572       574       573
 -1       218   12    0    1
 -2       574       576       575
 -1       219   12    0    1
 -2       576       578       577
 -1       220   12    0    1
 -2       578       580       579
 -1       221   12    0    1
 -2       580       582       581
 -1       222   12    0    1
 -2       582       584       583
 -1       223   12    0    1
 -2       584        19       585
 -1       224   12    0    1
 -2        18       587       586
 -1       225   12    0    1
 -2       587       589       588
 -1       226   12    0    1
 -2       589        25       590
 -1       227   12    0    1
 -2        18       592       591
 -1       228   12    0    1
 -2       592       594       593
 -1       229   12    0    1
 -2       594       596       595
 -1       230   12    0    1
 -2       596       598       597
 -1       231   12    0    1
 -2       598       600       599
 -1       232   12    0    1
 -2       600       602       601
 -1       233   12    0    1
 -2       602       604       603
 -1       234   12    0    1
 -2       604        26       605
 -1       235   12    0    1
 -2        19       607       606
 -1       236   12    0    1
 -2       607       609       608
 -1       237   12    0    1
 -2       609       611       610
 -1       238   12    0    1
 -2       611       613       612
 -1       239   12    0    1
 -2       613       615       614
 -1       240   12    0    1
 -2       615       617       616
 -1       241   12    0    1
 -2       617       619       618
 -1       242   12    0    1
 -2       619        20       620
 -1       243   12    0    1
 -2        19       622       621
 -1       244   12    0    1
 -2       622       624       623
 -1       245   12    0    1
 -2       624        26       625
 -1       246   12    0    1
 -2        19       627       626
 -1       247   12    0    1
 -2       627       629       628
 -1       248   12    0    1
 -2       629       631       630
 -1       249   12    0    1
 -2       631       633       632
 -1       250   12    0    1
 -2       633       635       634
 -1       251   12    0    1
 -2       635       637       636
 -1       252   12    0    1
 -2       637       639       638
 -1       253   12    0    1
 -2       639        27       640
 -1       254   12    0    1
 -2        20       642       641
 -1       255   12    0    1
 -2       642       644       643
 -1       256   12    0    1
 -2       644       646       645
 -1       257   12    0    1
 -2       646       648       647
 -1       258   12    0    1
 -2       648       650       649
 -1       259   12    0    1
 -2       650       652       651
 -1       260   12    0    1
 -2       652       654       653
 -1       261   12    0    1
 -2       654        21       655
 -1       262   12    0    1
 -2        20       657       656
 -1       263   12    0    1
 -2       657       659       658
 -1       264   12    0    1
 -2       659        27       660
 -1       265   12    0    1
 -2        20       662       661
 -1       266   12    0    1
 -2       662       664       663
 -1       267   12    0    1
 -2       664       666       665
 -1       268   12    0    1
 -2       666       668       667
 -1       269   12    0    1
 -2       668       670       669
 -1       270   12    0    1
 -2       670       672       671
 -1       271   12    0    1
 -2       672       674       673
 -1       272   12    0    1
 -2       674        28       675
 -1       273   12    0    1
 -2        21       677       676
 -1       274   12    0    1
 -2       677       679       678
 -1       275   12    0    1
 -2       679        28       680
 -1       276   12    0    1
 -2        22       682       681
 -1       277   12    0    1
 -2       682       684       683
 -1       278   12    0    1
 -2       684       686       685
 -1       279   12    0    1
 -2       686       688       687
 -1       280   12    0    1
 -2       688       690       689
 -1       281   12    0    1
 -2       690       692       691
 -1       282   12    0    1
 -2       692       694       693
 -1       283   12    0    1
 -2       694        23       695
 -1       284   12    0    1
 -2        22       697       696
 -1       285   12    0    1
 -2       697       699       698
 -1       286   12    0    1
 -2       699        29       700
 -1       287   12    0    1
 -2        22       702       701
 -1       288   12    0    1
 -2       702       704       703
 -1       289   12    0    1
 -2       704       706       705
 -1       290   12    0    1
 -2       706       708       707
 -1       291   12    0    1
 -2       708       710       709
 -1       292   12    0    1
 -2       710       712       711
 -1       293   12    0    1
 -2       712       714       713
 -1       294   12    0    1
 -2       714        30       715
 -1       295   12    0    1
 -2        23       717       716
 -1       296   12    0    1
 -2       717       719       718
 -1       297   12    0    1
 -2       719       721       720
 -1       298   12    0    1
 -2       721       723       722
 -1       299   12    0    1
 -2       723       725       724
 -1       300   12    0    1
 -2       725       727       726
 -1       301   12    0    1
 -2       727       729       728
 -1       302   12    0    1
 -2       729        24       730
 -1       303   12    0    1
 -2        23       732       731
 -1       304   12    0    1
 -2       732       734       733
 -1       305   12    0    1
 -2       734        30       735
 -1       306   12    0    1
 -2        23       737       736
 -1       307   12    0    1
 -2       737       739       738
 -1       308   12    0    1
 -2       739       741       740
 -1       309   12    0    1
 -2       741       743       742
 -1       310   12    0    1
 -2       743       745       744
 -1       311   12    0    1
 -2       745       747       746
 -1       312   12    0    1
 -2       747       749       748
 -1       313   12    0    1
 -2       749        31       750
 -1       314   12    0    1
 -2        24       752       751
 -1       315   12    0    1
 -2       752       754       753
 -1       316   12    0    1
 -2       754       756       755
 -1       317   12    0    1
 -2       756       758       757
 -1       318   12    0    1
 -2       758       760       759
 -1       319   12    0    1
 -2       760       762       761
 -1       320   12    0    1
 -2       762       764       763
 -1       321   12    0    1
 -2       764        25       765
 -1       322   12    0    1
 -2        24       767       766
 -1       323   12    0    1
 -2       767       769       768
 -1       324   12    0    1
 -2       769        31       770
 -1       325   12    0    1
 -2        24       772       771
 -1       326   12    0    1
 -2       772       774       773
 -1       327   12    0    1
 -2       774       776       775
 -1       328   12    0    1
 -2       776       778       777
 -1       329   12    0    1
 -2       778       780       779
 -1       330   12    0    1
 -2       780       782       781
 -1       331   12    0    1
 -2       782       784       783
 -1       332   12    0    1
 -2       784        32       785
 -1       333   12    0    1
 -2        25       787       786
 -1       334   12    0    1
 -2       787       789       788
 -1       335   12    0    1
 -2       789       791       790
 -1       336   12    0    1
 -2       791       793       792
 -1       337   12    0    1
 -2       793       795       794
 -1       338   12    0    1
 -2       795       797       796
 -1       339   12    0    1
 -2       797       799       798
 -1       340   12    0    1
 -2       799        26       800
 -1       341   12    0    1
 -2        25       802       801
 -1       342   12    0    1
 -2       802       804       803
 -1       343   12    0    1
 -2       804        32       805
 -1       344   12    0    1
 -2        25       807       806
 -1       345   12    0    1
 -2       807       809       808
 -1       346   12    0    1
 -2       809       811       810
 -1       347   12    0    1
 -2       811       813       812
 -1       348   12    0    1
 -2       813       815       814
 -1       349   12    0    1
 -2       815       817       816
 -1       350   12    0    1
 -2       817       819       818
 -1       351   12    0    1
 -2       819        33       820
 -1       352   12    0    1
 -2        26       822       821
 -1       353   12    0    1
 -2       822       824       823
 -1       354   12    0    1
 -2       824       826       825
 -1       355   12    0    1
 -2       826       828       827
 -1       356   12    0    1
 -2       828       830       829
 -1       357   12    0    1
 -2       830       832       831
 -1       358   12    0    1
 -2       832       834       833
 -1       359   12    0    1
 -2       834        27       835
 -1       360   12    0    1
 -2        26       837       836
 -1       361   12    0    1
 -2       837       839       838
 -1       362   12    0    1
 -2       839        33       840
 -1       363   12    0    1
 -2        26       842       841
 -1       364   12    0    1
 -2       842       844       843
 -1       365   12    0    1
 -2       844       846       845
 -1       366   12    0    1
 -2       846       848       847
 -1       367   12    0    1
 -2       848       850       849
 -1       368   12    0    1
 -2       850       852       851
 -1       369   12    0    1
 -2       852       854       853
 -1       370   12    0    1
 -2       854        34       855
 -1       371   12    0    1
 -2        27       857       856
 -1       372   12    0    1
 -2       857       859       858
 -1       373   12    0    1
 -2       859       861       860
 -1       374   12    0    1
 -2       861       863       862
 -1       375   12    0    1
 -2       863       865       864
 -1       376   12    0    1
 -2       865       867       866
 -1       377   12    0    1
 -2       867       869       868
 -1       378   12    0    1
 -2       869        28       870
 -1       379   12    0    1
 -2        27       872       871
 -1       380   12    0    1
 -2       872       874       873
 -1       381   12    0    1
 -2       874        34       875
 -1       382   12    0    1
 -2        27       877       876
 -1       383   12    0    1
 -2       877       879       878
 -1       384   12    0    1
 -2       879       881       880
 -1       385   12    0    1
 -2       881       883       882
 -1       386   12    0    1
 -2       883       885       884
 -1       387   12    0    1
 -2       885       887       886
 -1       388   12    0    1
 -2       887       889       888
 -1       389   12    0    1
 -2       889        35       890
 -1       390   12    0    1
 -2        28       892       891
 -1       391   12    0    1
 -2       892       894       893
 -1       392   12    0    1
 -2       894        35       895
 -1       393   12    0    1
 -2        29       897       896
 -1       394   12    0    1
 -2       897       899       898
 -1       395   12    0    1
 -2       899       901       900
 -1       396   12    0    1
 -2       901       903       902
 -1       397   12    0    1
 -2       903       905       904
 -1       398   12    0    1
 -2       905       907       906
 -1       399   12    0    1
 -2       907       909       908
 -1       400   12    0    1
 -2       909        30       910
 -1       401   12    0    1
 -2        30       912       911
 -1       402   12    0    1
 -2       912       914       913
 -1       403   12    0    1
 -2       914       916       915
 -1       404   12    0    1
 -2       916       918       917
 -1       405   12    0    1
 -2       918       920       919
 -1       406   12    0    1
 -2       920       922       921
 -1       407   12    0    1
 -2       922       924       923
 -1       408   12    0    1
 -2       924        31       925
 -1       409   12    0    1
 -2        31       927       926
 -1       410   12    0    1
 -2       927       929       928
 -1       411   12    0    1
 -2       929       931       930
 -1       412   12    0    1
 -2       931       933       932
 -1       413   12    0    1
 -2       933       935       934
 -1       414   12    0    1
 -2       935       937       936
 -1       415   12    0    1
 -2       937       939       938
 -1       416   12    0    1
 -2       939        32       940
 -1       417   12    0    1
 -2        32       942       941
 -1       418   12    0    1
 -2       942       944       943
 -1       419   12    0    1
 -2       944       946       945
 -1       420   12    0    1
 -2       946       948       947
 -1       421   12    0    1
 -2       948       950       949
 -1       422   12    0    1
 -2       950       952       951
 -1       423   12    0    1
 -2       952       954       953
 -1       424   12    0    1
 -2       954        33       955
 -1       425   12    0    1
 -2        33       957       956
 -1       426   12    0    1
 -2       957       959       958
 -1       427   12    0    1
 -2       959       961       960
 -1       428   12    0    1
 -2       961       963       962
 -1       429   12    0    1
 -2       963       965       964
 -1       430   12    0    1
 -2       965       967       966
 -1       431   12    0    1
 -2       967       969       968
 -1       432   12    0    1
 -2       969        34       970
 -1       433   12    0    1
 -2        34       972       971
 -1       434   12    0    1
 -2       972       974       973
 -1       435   12    0    1
 -2       974       976       975
 -1       436   12    0    1
 -2       976       978       977
 -1       437   12    0    1
 -2       978       980       979
 -1       438   12    0    1
 -2       980       982       981
 -1       439   12    0    1
 -2       982       984       983
 -1       440   12    0    1
 -2       984        35       985
 -3
    1PSTEP                         1           1           1          
  100CL  101 1.000000000         841                     0    1           1
 -4  DISP        4    1
 -5  D1          1    2    1    0
 -5  D2          1    2    2    0
 -5  D3          1    2    3    0
 -5  ALL         1    2    0    0    1ALL
 -1         1 5.89301E-05 0.00000E+00 0.00000E+00
 -1         2 4.75992E-05 0.00000E+00 0.00000E+00
 -1         3 4.38309E-05 0.00000E+00 0.00000E+00
 -1         4 4.32271E-05 0.00000E+00 0.00000E+00
 -1         5 4.31696E-05 0.00000E+00 0.00000E+00
 -1         8 3.64538E-05-1.48002E-06 0.00000E+00
 -1         9 3.93170E-05 1.12604E-06 0.00000E+00
 -1        10 3.94744E-05-2.02096E-07 0.00000E+00
 -1        11 4.05707E-05-6.41173E-09 0.00000E+00
 -1        12 4.16466E-05 3.34251E-06 0.00000E+00
 -1        15 1.87823E-05-1.79078E-06 0.00000E+00
 -1        16 2.38608E-05 1.38385E-06 0.00000E+00
 -1        17 2.69480E-05-4.42118E-07 0.00000E+00
 -1        18 3.13424E-05-1.26500E-07 0.00000E+00
 -1        19 3.58601E-05 6.62494E-06 0.00000E+00
 -1        20 3.73342E-05 6.05156E-05 0.00000E+00
 -1        21 3.72941E-05 1.17002E-04 0.00000E+00
 -1        22 8.59548E-06-1.14186E-06 0.00000E+00
 -1        23 1.10851E-05 1.73713E-06 0.00000E+00
 -1        24 1.31738E-05-5.96103E-07 0.00000E+00
 -1        25 1.82792E-05-6.12396E-09 0.00000E+00
 -1        26 2.23315E-05 8.79437E-06 0.00000E+00
 -1        27 1.95852E-05 5.98062E-05 0.00000E+00
 -1        28 1.82481E-05 1.16353E-04 0.00000E+00
 -1        29 0.00000E+00 0.00000E+00 0.00000E+00
 -1        30 4.24727E-06 2.13771E-06 0.00000E+00
 -1        31 5.17365E-06 1.32127E-07 0.00000E+00
 -1        32 0.00000E+00 0.00000E+00 0.00000E+00
 -1        33 6.28171E-06 1.05138E-05 0.00000E+00
 -1        34 3.44793E-06 5.96438E-05 0.00000E+00
 -1        35 9.08620E-07 1.15980E-04 0.00000E+00
 -1        36 5.82254E-05 1.44260E-21 0.00000E+00
 -1        37 5.75159E-05-4.56604E-21 1.32349E-23
 -1        38 5.68060E-05-4.15576E-21 0.00000E+00
 -1        39 5.60955E-05-3.34181E-21 1.32349E-23
 -1        40 5.53849E-05-5.52557E-21 0.00000E+00
 -1        41 5.46742E-05-8.12622E-21 0.00000E+00
 -1        42 5.39634E-05-1.59480E-20-2.64698E-23
 -1        43 5.32527E-05-1.97994E-20 1.32349E-23
 -1        44 5.25419E-05-2.50073E-20 0.00000E+00
 -1        45 5.18313E-05-2.75683E-20 0.00000E+00
 -1        46 5.11208E-05-2.69330E-20-2.64698E-23
 -1        47 5.04107E-05-2.04810E-20 0.00000E+00
 -1        48 4.97012E-05-1.56767E-20-2.64698E-23
 -1        49 4.89938E-05-9.18501E-21 6.61744E-24
 -1        50 4.82876E-05-4.36751E-21-1.32349E-23
 -1        51 5.73673E-05-2.59482E-07 9.92617E-24
 -1        52 5.43848E-05-5.04460E-07-1.65436E-24
 -1        53 5.03883E-05-7.49299E-07 0.00000E+00
 -1        54 4.57918E-05-9.94062E-07 1.65436E-24
 -1        55 4.10097E-05-1.23856E-06-6.61744E-24
 -1        56 5.79063E-05-4.11769E-07 2.64698E-23
 -1        57 5.68671E-05-8.43915E-07 1.32349E-23
 -1        58 5.58254E-05-1.27210E-06 2.64698E-23
 -1        59 5.47732E-05-1.67962E-06 1.32349E-23
 -1        60 5.37061E-05-2.04868E-06 0.00000E+00
 -1        61 5.26177E-05-2.36224E-06 0.00000E+00
 -1        62 5.15019E-05-2.60336E-06 0.00000E+00
 -1        63 5.03527E-05-2.75546E-06 0.00000E+00
 -1        64 4.91640E-05-2.80221E-06 0.00000E+00
 -1        65 4.79299E-05-2.72765E-06-1.32349E-23
 -1        66 4.66447E-05-2.51615E-06 0.00000E+00
 -1        67 4.53031E-05-2.15249E-06 1.32349E-23
 -1        68 4.38999E-05-1.62191E-06 2.64698E-23
 -1        69 4.24332E-05-9.09224E-07-1.32349E-23
 -1        70 4.08951E-05-1.80687E-09-2.64698E-23
 -1        71 4.73598E-05-7.49426E-22 0.00000E+00
 -1        72 4.71233E-05-9.09899E-22 0.00000E+00
 -1        73 4.68870E-05-2.53117E-22-6.61744E-24
 -1        74 4.66510E-05-2.84385E-21 0.00000E+00
 -1        75 4.64152E-05-4.47836E-21 6.61744E-24
 -1        76 4.61794E-05-3.25744E-21 0.00000E+00
 -1        77 4.59436E-05-5.13183E-21-6.61744E-24
 -1        78 4.57078E-05-1.10412E-20-3.30872E-24
 -1        79 4.54721E-05-1.26724E-20-6.61744E-24
 -1        80 4.52363E-05-1.29206E-20 3.30872E-24
 -1        81 4.50007E-05-1.43135E-20-6.61744E-24
 -1        82 4.47651E-05-1.04870E-20 0.00000E+00
 -1        83 4.45297E-05-7.43139E-21-6.61744E-24
 -1        84 4.42949E-05-5.93585E-21 3.30872E-24
 -1        85 4.40604E-05 3.92084E-22 0.00000E+00
 -1        86 4.71431E-05 1.72718E-07 0.00000E+00
 -1        87 4.61201E-05 3.66566E-07 0.00000E+00
 -1        88 4.46773E-05 5.60814E-07 0.00000E+00
 -1        89 4.29635E-05 7.55217E-07 0.00000E+00
 -1        90 4.11274E-05 9.49068E-07 2.06795E-25
 -1        91 4.71650E-05-1.90987E-07 1.32349E-23
 -1        92 4.67343E-05-4.11062E-07 0.00000E+00
 -1        93 4.63091E-05-6.47031E-07-1.32349E-23
 -1        94 4.58850E-05-8.88104E-07 0.00000E+00
 -1        95 4.54584E-05-1.12311E-06 0.00000E+00
 -1        96 4.50253E-05-1.34109E-06-6.61744E-24
 -1        97 4.45817E-05-1.53108E-06-1.32349E-23
 -1        98 4.41234E-05-1.68219E-06-6.61744E-24
 -1        99 4.36466E-05-1.78359E-06-1.32349E-23
 -1       100 4.31471E-05-1.82450E-06 6.61744E-24
 -1       101 4.26209E-05-1.79423E-06-1.32349E-23
 -1       102 4.20644E-05-1.68216E-06-6.61744E-24
 -1       103 4.14737E-05-1.47776E-06 0.00000E+00
 -1       104 4.08459E-05-1.17030E-06 6.61744E-24
 -1       105 4.01765E-05-7.49895E-07 0.00000E+00
 -1       106 4.37889E-05-3.51903E-21 0.00000E+00
 -1       107 4.37505E-05-2.97537E-21-8.27181E-25
 -1       108 4.37124E-05-2.86246E-21 0.00000E+00
 -1       109 4.36747E-05-5.92592E-21 0.00000E+00
 -1       110 4.36371E-05-8.97098E-21 0.00000E+00
 -1       111 4.35996E-05-1.09475E-20-4.13590E-25
 -1       112 4.35622E-05-6.59635E-21 0.00000E+00
 -1       113 4.35247E-05-5.42568E-21 4.13590E-25
 -1       114 4.34873E-05-5.17339E-21 0.00000E+00
 -1       115 4.34499E-05 3.75747E-22 4.13590E-25
 -1       116 4.34125E-05 5.89759E-21-8.27181E-25
 -1       117 4.33751E-05 5.75387E-21 4.13590E-25
 -1       118 4.33378E-05 6.87925E-21 8.27181E-25
 -1       119 4.33005E-05 6.60793E-21 0.00000E+00
 -1       120 4.32633E-05 3.83026E-21 0.00000E+00
 -1       121 4.35770E-05-3.57520E-08-8.27181E-25
 -1       122 4.30180E-05-6.77618E-08 8.27181E-25
 -1       123 4.22405E-05-9.98092E-08-8.27181E-25
 -1       124 4.13323E-05-1.32088E-07 8.27181E-25
 -1       125 4.03811E-05-1.64594E-07-3.30872E-24
 -1       126 4.36651E-05-9.49574E-08 0.00000E+00
 -1       127 4.35101E-05-2.26591E-07 0.00000E+00
 -1       128 4.33645E-05-3.83702E-07 0.00000E+00
 -1       129 4.32242E-05-5.55935E-07 3.30872E-24
 -1       130 4.30856E-05-7.32788E-07 0.00000E+00
 -1       131 4.29448E-05-9.03825E-07 3.30872E-24
 -1       132 4.27978E-05-1.05862E-06 0.00000E+00
 -1       133 4.26409E-05-1.18675E-06 0.00000E+00
 -1       134 4.24700E-05-1.27782E-06 0.00000E+00
 -1       135 4.22814E-05-1.32146E-06 0.00000E+00
 -1       136 4.20712E-05-1.30729E-06 0.00000E+00
 -1       137 4.18356E-05-1.22497E-06 0.00000E+00
 -1       138 4.15707E-05-1.06422E-06 6.61744E-24
 -1       139 4.12733E-05-8.14587E-07-1.65436E-24
 -1       140 4.09391E-05-4.66042E-07 0.00000E+00
 -1       141 4.32212E-05-1.49810E-21-4.13590E-25
 -1       142 4.32158E-05-4.12706E-21 1.03398E-25
 -1       143 4.32104E-05-8.63406E-21 2.06795E-25
 -1       144 4.32051E-05-1.17772E-20 0.00000E+00
 -1       145 4.31998E-05-1.58155E-20-2.06795E-25
 -1       146 4.31945E-05-1.32884E-20-1.03398E-25
 -1       147 4.31893E-05-1.36373E-20-1.03398E-25
 -1       148 4.31840E-05-1.20525E-20 5.16988E-26
 -1       149 4.31788E-05-1.03209E-20 0.00000E+00
 -1       150 4.31737E-05-9.67155E-21 0.00000E+00
 -1       151 4.31687E-05-8.82080E-21 0.00000E+00
 -1       152 4.31640E-05-7.70881E-21-2.06795E-25
 -1       153 4.31598E-05-8.70494E-21 8.27181E-25
 -1       154 4.31574E-05-6.05398E-21 0.00000E+00
 -1       155 4.31560E-05-3.85859E-21 0.00000E+00
 -1       156 4.30945E-05-1.22978E-09 0.00000E+00
 -1       157 4.27864E-05-1.84893E-09 0.00000E+00
 -1       158 4.23411E-05-2.51436E-09 0.00000E+00
 -1       159 4.17975E-05-3.30235E-09 1.03398E-25
 -1       160 4.11944E-05-4.18413E-09 0.00000E+00
 -1       161 4.32034E-05 3.90303E-09 4.13590E-25
 -1       162 4.31706E-05 3.16915E-08 2.06795E-25
 -1       163 4.31286E-05 8.41862E-08 4.13590E-25
 -1       164 4.30769E-05 1.62081E-07 4.13590E-25
 -1       165 4.30155E-05 2.66084E-07-4.13590E-25
 -1       166 4.29440E-05 3.96897E-07-2.06795E-25
 -1       167 4.28622E-05 5.55219E-07-4.13590E-25
 -1       168 4.27699E-05 7.41747E-07 0.00000E+00
 -1       169 4.26667E-05 9.57184E-07 0.00000E+00
 -1       170 4.25525E-05 1.20223E-06-2.06795E-25
 -1       171 4.24270E-05 1.47760E-06 4.13590E-25
 -1       172 4.22902E-05 1.78406E-06 0.00000E+00
 -1       173 4.21420E-05 2.12234E-06 0.00000E+00
 -1       174 4.19835E-05 2.49364E-06 0.00000E+00
 -1       175 4.18133E-05 2.89824E-06 0.00000E+00
 -1       191 4.31162E-05 5.50237E-07 0.00000E+00
 -1       192 4.29764E-05 1.11010E-06 6.61744E-24
 -1       193 4.27547E-05 1.67105E-06 0.00000E+00
 -1       194 4.24559E-05 2.23201E-06 0.00000E+00
 -1       195 4.20849E-05 2.79192E-06 1.32349E-23
 -1       251 3.66120E-05 1.52968E-06 0.00000E+00
 -1       252 3.67889E-05 3.64525E-06 1.65436E-24
 -1       253 3.69682E-05 4.97585E-06-4.13590E-25
 -1       254 3.71502E-05 5.63270E-06 0.00000E+00
 -1       255 3.73330E-05 5.72654E-06-3.30872E-24
 -1       256 3.75162E-05 5.36793E-06 0.00000E+00
 -1       257 3.76994E-05 4.66719E-06-3.30872E-24
 -1       258 3.78825E-05 3.73448E-06 0.00000E+00
 -1       259 3.80655E-05 2.67985E-06 6.61744E-24
 -1       260 3.82484E-05 1.61326E-06 0.00000E+00
 -1       261 3.84312E-05 6.44718E-07 0.00000E+00
 -1       262 3.86139E-05-1.15773E-07-3.30872E-24
 -1       263 3.87961E-05-5.58083E-07-6.61744E-24
 -1       264 3.89764E-05-5.71990E-07 0.00000E+00
 -1       265 3.91554E-05-4.69307E-08 0.00000E+00
 -1       266 3.28249E-05-1.54044E-06 0.00000E+00
 -1       267 2.93378E-05-1.59399E-06 1.65436E-24
 -1       268 2.60913E-05-1.64630E-06 3.30872E-24
 -1       269 2.31843E-05-1.69661E-06-1.65436E-24
 -1       270 2.07156E-05-1.74548E-06 0.00000E+00
 -1       271 3.46839E-05 1.36534E-06-2.64698E-23
 -1       272 3.32029E-05 3.38752E-06 0.00000E+00
 -1       273 3.19935E-05 4.68715E-06 0.00000E+00
 -1       274 3.10169E-05 5.36155E-06 0.00000E+00
 -1       275 3.02373E-05 5.50994E-06 0.00000E+00
 -1       276 2.96173E-05 5.23239E-06 1.32349E-23
 -1       277 2.91189E-05 4.62967E-06 0.00000E+00
 -1       278 2.87043E-05 3.80332E-06 1.32349E-23
 -1       279 2.83353E-05 2.85524E-06 0.00000E+00
 -1       280 2.79737E-05 1.88763E-06-1.32349E-23
 -1       281 2.75813E-05 1.00274E-06 0.00000E+00
 -1       282 2.71202E-05 3.02651E-07 0.00000E+00
 -1       283 2.65524E-05-1.10847E-07-1.32349E-23
 -1       284 2.58421E-05-1.36076E-07 0.00000E+00
 -1       285 2.49496E-05 3.26843E-07-6.61744E-24
 -1       286 3.93163E-05 2.45460E-06 0.00000E+00
 -1       287 3.93254E-05 3.32460E-06 0.00000E+00
 -1       288 3.93354E-05 3.79295E-06 0.00000E+00
 -1       289 3.93465E-05 3.91788E-06 0.00000E+00
 -1       290 3.93581E-05 3.75755E-06 0.00000E+00
 -1       291 3.93697E-05 3.37010E-06 0.00000E+00
 -1       292 3.93814E-05 2.81371E-06 0.00000E+00
 -1       293 3.93931E-05 2.14652E-06-2.58494E-26
 -1       294 3.94047E-05 1.42669E-06 4.13590E-25
 -1       295 3.94164E-05 7.12386E-07 0.00000E+00
 -1       296 3.94280E-05 6.17393E-08 0.00000E+00
 -1       297 3.94395E-05-4.67089E-07 0.00000E+00
 -1       298 3.94508E-05-8.15938E-07 0.00000E+00
 -1       299 3.94614E-05-9.26694E-07 4.13590E-25
 -1       300 3.94714E-05-7.41133E-07 4.13590E-25
 -1       301 3.70885E-05 1.16054E-06 1.65436E-24
 -1       302 3.44621E-05 1.20527E-06 0.00000E+00
 -1       303 3.16309E-05 1.25097E-06 0.00000E+00
 -1       304 2.87903E-05 1.29716E-06 0.00000E+00
 -1       305 2.61360E-05 1.34322E-06 0.00000E+00
 -1       306 3.81227E-05 2.21715E-06 0.00000E+00
 -1       307 3.70683E-05 2.86808E-06-1.32349E-23
 -1       308 3.61540E-05 3.14288E-06 0.00000E+00
 -1       309 3.53564E-05 3.09931E-06 0.00000E+00
 -1       310 3.46552E-05 2.79681E-06 0.00000E+00
 -1       311 3.40282E-05 2.29495E-06 1.32349E-23
 -1       312 3.34533E-05 1.65370E-06-2.64698E-23
 -1       313 3.29080E-05 9.33310E-07 0.00000E+00
 -1       314 3.23697E-05 1.94193E-07 0.00000E+00
 -1       315 3.18159E-05-5.03176E-07-1.32349E-23
 -1       316 3.12240E-05-1.09843E-06 2.64698E-23
 -1       317 3.05718E-05-1.53139E-06 0.00000E+00
 -1       318 2.98371E-05-1.74218E-06 1.32349E-23
 -1       319 2.89997E-05-1.67089E-06 0.00000E+00
 -1       320 2.80359E-05-1.25938E-06 1.32349E-23
 -1       321 3.95324E-05 4.33203E-07 0.00000E+00
 -1       322 3.96000E-05 8.43773E-07 0.00000E+00
 -1       323 3.96683E-05 1.05953E-06 1.24077E-24
 -1       324 3.97378E-05 1.11102E-06 4.13590E-25
 -1       325 3.98076E-05 1.02869E-06 0.00000E+00
 -1       326 3.98776E-05 8.43002E-07-8.27181E-25
 -1       327 3.99476E-05 5.84379E-07 0.00000E+00
 -1       328 4.00177E-05 2.83245E-07-8.27181E-25
 -1       329 4.00878E-05-2.99842E-08-1.65436E-24
 -1       330 4.01579E-05-3.24905E-07-8.27181E-25
 -1       331 4.02280E-05-5.71101E-07 0.00000E+00
 -1       332 4.02980E-05-7.38148E-07 0.00000E+00
 -1       333 4.03678E-05-7.95613E-07 0.00000E+00
 -1       334 4.04372E-05-7.13058E-07 0.00000E+00
 -1       335 4.05062E-05-4.59974E-07 1.65436E-24
 -1       336 3.80645E-05-2.44401E-07-3.22633E-24
 -1       337 3.60252E-05-2.82722E-07-8.27181E-25
 -1       338 3.36240E-05-3.21531E-07-1.65436E-24
 -1       339 3.11310E-05-3.60523E-07 0.00000E+00
 -1       340 2.88163E-05-3.99312E-07 0.00000E+00
 -1       341 3.88045E-05 2.71451E-07 0.00000E+00
 -1       342 3.82055E-05 5.16611E-07 0.00000E+00
 -1       343 3.76771E-05 5.71674E-07-1.32349E-23
 -1       344 3.72055E-05 4.70905E-07 6.61744E-24
 -1       345 3.67787E-05 2.49423E-07-1.32349E-23
 -1       346 3.63838E-05-5.77968E-08 0.00000E+00
 -1       347 3.60078E-05-4.15676E-07 0.00000E+00
 -1       348 3.56376E-05-7.89082E-07-6.61744E-24
 -1       349 3.52600E-05-1.14286E-06 1.32349E-23
 -1       350 3.48620E-05-1.44190E-06 0.00000E+00
 -1       351 3.44305E-05-1.65114E-06-1.32349E-23
 -1       352 3.39526E-05-1.73562E-06 0.00000E+00
 -1       353 3.34153E-05-1.66054E-06 1.32349E-23
 -1       354 3.28075E-05-1.39087E-06-6.61744E-24
 -1       355 3.21148E-05-8.92780E-07 6.61744E-24
 -1       356 4.06315E-05 5.12219E-07-1.03398E-25
 -1       357 4.06967E-05 9.23143E-07 4.13590E-25
 -1       358 4.07622E-05 1.24040E-06-1.65436E-24
 -1       359 4.08282E-05 1.47831E-06 8.27181E-25
 -1       360 4.08944E-05 1.65116E-06 0.00000E+00
 -1       361 4.09606E-05 1.77326E-06 0.00000E+00
 -1       362 4.10269E-05 1.85887E-06 0.00000E+00
 -1       363 4.10933E-05 1.92227E-06 0.00000E+00
 -1       364 4.11597E-05 1.97774E-06 1.65436E-24
 -1       365 4.12262E-05 2.03953E-06 8.27181E-25
 -1       366 4.12927E-05 2.12193E-06 3.30872E-24
 -1       367 4.13596E-05 2.23920E-06 0.00000E+00
 -1       368 4.14268E-05 2.40563E-06 0.00000E+00
 -1       369 4.14955E-05 2.63549E-06-1.65436E-24
 -1       370 4.15649E-05 2.94310E-06 0.00000E+00
 -1       371 3.95461E-05-2.63098E-08 0.00000E+00
 -1       372 3.80735E-05-4.60969E-08-4.13590E-25
 -1       373 3.63340E-05-6.62045E-08 8.27181E-25
 -1       374 3.45106E-05-8.64124E-08 0.00000E+00
 -1       375 3.27862E-05-1.06478E-07-1.65436E-24
 -1       376 4.02749E-05 4.20271E-07 0.00000E+00
 -1       377 4.00362E-05 6.82550E-07 0.00000E+00
 -1       378 3.98457E-05 8.16006E-07 3.30872E-24
 -1       379 3.96900E-05 8.55238E-07 0.00000E+00
 -1       380 3.95564E-05 8.35057E-07 0.00000E+00
 -1       381 3.94321E-05 7.90208E-07 1.65436E-24
 -1       382 3.93039E-05 7.55446E-07-3.30872E-24
 -1       383 3.91589E-05 7.65514E-07 1.65436E-24
 -1       384 3.89840E-05 8.55138E-07 0.00000E+00
 -1       385 3.87664E-05 1.05901E-06-1.65436E-24
 -1       386 3.84930E-05 1.41180E-06 0.00000E+00
 -1       387 3.81510E-05 1.94813E-06 0.00000E+00
 -1       388 3.77276E-05 2.70257E-06 0.00000E+00
 -1       389 3.72112E-05 3.71000E-06 4.13590E-25
 -1       390 3.65877E-05 5.00438E-06 0.00000E+00
 -1       406 4.11948E-05 3.88508E-06-1.32349E-23
 -1       407 4.05930E-05 4.43639E-06 6.61744E-24
 -1       408 3.97997E-05 4.98840E-06 0.00000E+00
 -1       409 3.87737E-05 5.53973E-06 0.00000E+00
 -1       410 3.74738E-05 6.08911E-06 1.32349E-23
 -1       466 1.90856E-05-5.33489E-07-3.30872E-24
 -1       467 1.94030E-05 2.84048E-07 0.00000E+00
 -1       468 1.97215E-05 7.25475E-07-6.61744E-24
 -1       469 2.00418E-05 8.55315E-07-3.30872E-24
 -1       470 2.03625E-05 7.37781E-07 6.61744E-24
 -1       471 2.06836E-05 4.36875E-07 6.61744E-24
 -1       472 2.10047E-05 1.64721E-08 6.61744E-24
 -1       473 2.13258E-05-4.59670E-07 6.61744E-24
 -1       474 2.16469E-05-9.27846E-07 1.32349E-23
 -1       475 2.19680E-05-1.32433E-06 0.00000E+00
 -1       476 2.22889E-05-1.58535E-06 1.32349E-23
 -1       477 2.26095E-05-1.64699E-06 0.00000E+00
 -1       478 2.29294E-05-1.44521E-06 0.00000E+00
 -1       479 2.32471E-05-9.15729E-07 0.00000E+00
 -1       480 2.35633E-05 6.06077E-09 0.00000E+00
 -1       481 1.70742E-05-1.68646E-06 0.00000E+00
 -1       482 1.52550E-05-1.57780E-06-1.65436E-24
 -1       483 1.34109E-05-1.46895E-06 3.30872E-24
 -1       484 1.16287E-05-1.35966E-06-8.27181E-25
 -1       485 9.99486E-06-1.25010E-06-3.30872E-24
 -1       486 1.79395E-05-5.59127E-07 0.00000E+00
 -1       487 1.71983E-05 3.55025E-07 0.00000E+00
 -1       488 1.65596E-05 9.93984E-07 0.00000E+00
 -1       489 1.60082E-05 1.39529E-06 1.32349E-23
 -1       490 1.55311E-05 1.59749E-06 0.00000E+00
 -1       491 1.51140E-05 1.63901E-06-6.61744E-24
 -1       492 1.47425E-05 1.55842E-06 1.32349E-23
 -1       493 1.44023E-05 1.39441E-06 0.00000E+00
 -1       494 1.40788E-05 1.18574E-06 0.00000E+00
 -1       495 1.37575E-05 9.71230E-07 6.61744E-24
 -1       496 1.34240E-05 7.89711E-07 1.32349E-23
 -1       497 1.30638E-05 6.80003E-07 0.00000E+00
 -1       498 1.26626E-05 6.80853E-07-1.32349E-23
 -1       499 1.22070E-05 8.31212E-07 0.00000E+00
 -1       500 1.16816E-05 1.16921E-06-6.61744E-24
 -1       501 2.40403E-05 2.71252E-06 1.65436E-24
 -1       502 2.42330E-05 3.50764E-06-8.27181E-25
 -1       503 2.44269E-05 3.84160E-06-6.61744E-24
 -1       504 2.46224E-05 3.78808E-06 0.00000E+00
 -1       505 2.48182E-05 3.42049E-06-6.61744E-24
 -1       506 2.50142E-05 2.81206E-06 3.30872E-24
 -1       507 2.52102E-05 2.03595E-06 0.00000E+00
 -1       508 2.54063E-05 1.16520E-06 0.00000E+00
 -1       509 2.56023E-05 2.72807E-07 0.00000E+00
 -1       510 2.57982E-05-5.68229E-07 0.00000E+00
 -1       511 2.59941E-05-1.28491E-06 6.61744E-24
 -1       512 2.61898E-05-1.80415E-06-3.30872E-24
 -1       513 2.63851E-05-2.05276E-06 0.00000E+00
 -1       514 2.65786E-05-1.95747E-06 0.00000E+00
 -1       515 2.67710E-05-1.44471E-06 0.00000E+00
 -1       516 2.17607E-05 1.43770E-06 0.00000E+00
 -1       517 1.93475E-05 1.49776E-06 0.00000E+00
 -1       518 1.68467E-05 1.55792E-06 4.13590E-25
 -1       519 1.44851E-05 1.61860E-06 4.13590E-25
 -1       520 1.24896E-05 1.67986E-06 0.00000E+00
 -1       521 2.27355E-05 2.55011E-06 0.00000E+00
 -1       522 2.17572E-05 3.25442E-06 0.00000E+00
 -1       523 2.09265E-05 3.56293E-06 2.64698E-23
 -1       524 2.02189E-05 3.53515E-06 0.00000E+00
 -1       525 1.96138E-05 3.23229E-06 0.00000E+00
 -1       526 1.90884E-05 2.71562E-06 0.00000E+00
 -1       527 1.86198E-05 2.04676E-06-2.64698E-23
 -1       528 1.81849E-05 1.28762E-06-1.32349E-23
 -1       529 1.77605E-05 5.00291E-07 0.00000E+00
 -1       530 1.73236E-05-2.53103E-07 6.61744E-24
 -1       531 1.68508E-05-9.10494E-07 0.00000E+00
 -1       532 1.63193E-05-1.40996E-06-6.61744E-24
 -1       533 1.57061E-05-1.68988E-06 1.32349E-23
 -1       534 1.49901E-05-1.68860E-06 0.00000E+00
 -1       535 1.41469E-05-1.34597E-06 0.00000E+00
 -1       536 2.72025E-05 6.31690E-07 1.24077E-24
 -1       537 2.74759E-05 1.31372E-06 1.65436E-24
 -1       538 2.77508E-05 1.65746E-06 0.00000E+00
 -1       539 2.80278E-05 1.71723E-06-3.30872E-24
 -1       540 2.83056E-05 1.54708E-06 6.61744E-24
 -1       541 2.85836E-05 1.20091E-06-3.30872E-24
 -1       542 2.88618E-05 7.32490E-07 0.00000E+00
 -1       543 2.91401E-05 1.95499E-07 3.30872E-24
 -1       544 2.94184E-05-3.56423E-07 0.00000E+00
 -1       545 2.96966E-05-8.69665E-07-3.30872E-24
 -1       546 2.99748E-05-1.29058E-06 6.61744E-24
 -1       547 3.02527E-05-1.56544E-06-3.30872E-24
 -1       548 3.05302E-05-1.64043E-06 6.61744E-24
 -1       549 3.08061E-05-1.46160E-06 0.00000E+00
 -1       550 3.10810E-05-9.74763E-07 0.00000E+00
 -1       551 2.49680E-05-4.70838E-07-1.65436E-24
 -1       552 2.25786E-05-4.94723E-07 6.20385E-25
 -1       553 1.99908E-05-5.18391E-07 0.00000E+00
 -1       554 1.74187E-05-5.42134E-07 0.00000E+00
 -1       555 1.50760E-05-5.66220E-07 6.61744E-24
 -1       556 2.60991E-05 4.47589E-07 0.00000E+00
 -1       557 2.53701E-05 9.75522E-07-6.61744E-24
 -1       558 2.47544E-05 1.19622E-06-1.32349E-23
 -1       559 2.42328E-05 1.16185E-06 6.61744E-24
 -1       560 2.37868E-05 9.24920E-07 0.00000E+00
 -1       561 2.33967E-05 5.37964E-07 6.61744E-24
 -1       562 2.30430E-05 5.35574E-08 0.00000E+00
 -1       563 2.27061E-05-4.75646E-07 0.00000E+00
 -1       564 2.23662E-05-9.96970E-07 0.00000E+00
 -1       565 2.20037E-05-1.45776E-06 0.00000E+00
 -1       566 2.15989E-05-1.80537E-06 1.32349E-23
 -1       567 2.11322E-05-1.98725E-06 6.61744E-24
 -1       568 2.05843E-05-1.95090E-06 0.00000E+00
 -1       569 1.99365E-05-1.64382E-06-3.30872E-24
 -1       570 1.91697E-05-1.01390E-06 0.00000E+00
 -1       571 3.16082E-05 7.35572E-07 1.65436E-24
 -1       572 3.18879E-05 1.32707E-06 3.30872E-24
 -1       573 3.21698E-05 1.69233E-06-6.61744E-24
 -1       574 3.24532E-05 1.87705E-06 0.00000E+00
 -1       575 3.27372E-05 1.92683E-06 6.61744E-24
 -1       576 3.30214E-05 1.88735E-06-3.30872E-24
 -1       577 3.33058E-05 1.80424E-06 6.61744E-24
 -1       578 3.35902E-05 1.72311E-06 0.00000E+00
 -1       579 3.38747E-05 1.68960E-06 0.00000E+00
 -1       580 3.41591E-05 1.74933E-06 0.00000E+00
 -1       581 3.44435E-05 1.94799E-06 0.00000E+00
 -1       582 3.47278E-05 2.33130E-06 0.00000E+00
 -1       583 3.50120E-05 2.94503E-06 0.00000E+00
 -1       584 3.52957E-05 3.83494E-06 0.00000E+00
 -1       585 3.55789E-05 5.04688E-06 0.00000E+00
 -1       586 2.96346E-05-1.06208E-07 0.00000E+00
 -1       587 2.74862E-05-8.44079E-08 0.00000E+00
 -1       588 2.50855E-05-6.29180E-08 0.00000E+00
 -1       589 2.26237E-05-4.19223E-08 0.00000E+00
 -1       590 2.02920E-05-2.14482E-08 0.00000E+00
 -1       591 3.07031E-05 6.73210E-07 6.61744E-24
 -1       592 3.01320E-05 1.25277E-06-6.61744E-24
 -1       593 2.96259E-05 1.65461E-06 0.00000E+00
 -1       594 2.91702E-05 1.91840E-06 0.00000E+00
 -1       595 2.87509E-05 2.08402E-06 1.32349E-23
 -1       596 2.83532E-05 2.19126E-06 0.00000E+00
 -1       597 2.79624E-05 2.27990E-06-1.32349E-23
 -1       598 2.75637E-05 2.38967E-06 0.00000E+00
 -1       599 2.71421E-05 2.56035E-06-6.61744E-24
 -1       600 2.66828E-05 2.83163E-06 0.00000E+00
 -1       601 2.61710E-05 3.24319E-06 6.61744E-24
 -1       602 2.55918E-05 3.83466E-06 3.30872E-24
 -1       603 2.49308E-05 4.64562E-06 0.00000E+00
 -1       604 2.41741E-05 5.71575E-06-3.30872E-24
 -1       605 2.33075E-05 7.08440E-06 8.27181E-25
 -1       606 3.59643E-05 8.69147E-06 6.61744E-24
 -1       607 3.60610E-05 1.10626E-05-6.61744E-24
 -1       608 3.61561E-05 1.37113E-05 0.00000E+00
 -1       609 3.62497E-05 1.66094E-05-6.61744E-24
 -1       610 3.63425E-05 1.97285E-05 0.00000E+00
 -1       611 3.64346E-05 2.30402E-05 0.00000E+00
 -1       612 3.65261E-05 2.65161E-05-6.61744E-24
 -1       613 3.66171E-05 3.01279E-05 0.00000E+00
 -1       614 3.67078E-05 3.38473E-05 3.30872E-24
 -1       615 3.67981E-05 3.76458E-05 1.65436E-24
 -1       616 3.68882E-05 4.14952E-05 0.00000E+00
 -1       617 3.69781E-05 4.53672E-05 1.65436E-24
 -1       618 3.70680E-05 4.92335E-05 3.30872E-24
 -1       619 3.71577E-05 5.30657E-05-8.27181E-25
 -1       620 3.72472E-05 5.68357E-05 8.27181E-25
 -1       621 3.37943E-05 6.98592E-06-1.32349E-23
 -1       622 3.15700E-05 7.35143E-06 6.61744E-24
 -1       623 2.92489E-05 7.71700E-06-1.32349E-23
 -1       624 2.68937E-05 8.08161E-06-3.30872E-24
 -1       625 2.45672E-05 8.44451E-06-6.61744E-24
 -1       626 3.52891E-05 8.77834E-06 0.00000E+00
 -1       627 3.45980E-05 1.12442E-05 0.00000E+00
 -1       628 3.38005E-05 1.39907E-05 0.00000E+00
 -1       629 3.29097E-05 1.69836E-05-3.30872E-24
 -1       630 3.19383E-05 2.01893E-05 0.00000E+00
 -1       631 3.08992E-05 2.35738E-05-3.30872E-24
 -1       632 2.98053E-05 2.71031E-05 0.00000E+00
 -1       633 2.86693E-05 3.07434E-05 3.30872E-24
 -1       634 2.75040E-05 3.44610E-05 0.00000E+00
 -1       635 2.63222E-05 3.82221E-05 0.00000E+00
 -1       636 2.51366E-05 4.19928E-05 0.00000E+00
 -1       637 2.39600E-05 4.57395E-05 3.30872E-24
 -1       638 2.28050E-05 4.94283E-05-3.30872E-24
 -1       639 2.16838E-05 5.30252E-05 0.00000E+00
 -1       640 2.06090E-05 5.64965E-05 3.30872E-24
 -1       641 3.73332E-05 6.41034E-05 0.00000E+00
 -1       642 3.73309E-05 6.77043E-05-2.06795E-25
 -1       643 3.73285E-05 7.13138E-05-2.06795E-25
 -1       644 3.73259E-05 7.49276E-05-1.03398E-25
 -1       645 3.73233E-05 7.85411E-05-1.03398E-25
 -1       646 3.73207E-05 8.21499E-05-5.16988E-26
 -1       647 3.73181E-05 8.57497E-05-5.16988E-26
 -1       648 3.73155E-05 8.93358E-05 3.55429E-26
 -1       649 3.73130E-05 9.29039E-05 5.16988E-26
 -1       650 3.73106E-05 9.64495E-05 5.16988E-26
 -1       651 3.73082E-05 9.99682E-05 0.00000E+00
 -1       652 3.73059E-05 1.03455E-04 0.00000E+00
 -1       653 3.73036E-05 1.06907E-04 0.00000E+00
 -1       654 3.73012E-05 1.10318E-04 0.00000E+00
 -1       655 3.72987E-05 1.13684E-04 0.00000E+00
 -1       656 3.40113E-05 6.04008E-05-3.30872E-24
 -1       657 3.09656E-05 6.02806E-05 1.65436E-24
 -1       658 2.80990E-05 6.01606E-05 0.00000E+00
 -1       659 2.53126E-05 6.00407E-05 0.00000E+00
 -1       660 2.25076E-05 5.99210E-05-8.27181E-25
 -1       661 3.60888E-05 6.41349E-05 1.65436E-24
 -1       662 3.48456E-05 6.77586E-05 0.00000E+00
 -1       663 3.36030E-05 7.13809E-05-3.30872E-24
 -1       664 3.23630E-05 7.49977E-05-1.65436E-24
 -1       665 3.11269E-05 7.86045E-05 0.00000E+00
 -1       666 2.98963E-05 8.21968E-05 0.00000E+00
 -1       667 2.86729E-05 8.57704E-05 0.00000E+00
 -1       668 2.74583E-05 8.93207E-05 1.65436E-24
 -1       669 2.62541E-05 9.28433E-05-3.30872E-24
 -1       670 2.50621E-05 9.63339E-05 0.00000E+00
 -1       671 2.38838E-05 9.97881E-05 0.00000E+00
 -1       672 2.27209E-05 1.03201E-04-1.65436E-24
 -1       673 2.15750E-05 1.06569E-04 3.30872E-24
 -1       674 2.04472E-05 1.09887E-04-8.27181E-25
 -1       675 1.93397E-05 1.13150E-04 8.27181E-25
 -1       676 3.40396E-05 1.16895E-04 0.00000E+00
 -1       677 3.08294E-05 1.16786E-04-1.65436E-24
 -1       678 2.76544E-05 1.16676E-04-3.30872E-24
 -1       679 2.45053E-05 1.16567E-04 1.65436E-24
 -1       680 2.13730E-05 1.16459E-04-1.65436E-24
 -1       681 8.74742E-06-1.46154E-07 1.65436E-24
 -1       682 8.90335E-06 5.65211E-07-1.65436E-24
 -1       683 9.05968E-06 1.02945E-06-3.30872E-24
 -1       684 9.21653E-06 1.28446E-06 0.00000E+00
 -1       685 9.37353E-06 1.36801E-06 0.00000E+00
 -1       686 9.53063E-06 1.31781E-06 1.65436E-24
 -1       687 9.68775E-06 1.17153E-06 6.61744E-24
 -1       688 9.84487E-06 9.66786E-07 1.65436E-24
 -1       689 1.00020E-05 7.41176E-07 6.61744E-24
 -1       690 1.01590E-05 5.32288E-07 0.00000E+00
 -1       691 1.03160E-05 3.77716E-07 0.00000E+00
 -1       692 1.04728E-05 3.15078E-07-3.30872E-24
 -1       693 1.06293E-05 3.82027E-07 0.00000E+00
 -1       694 1.07847E-05 6.16248E-07 1.65436E-24
 -1       695 1.09395E-05 1.05556E-06 0.00000E+00
 -1       696 7.24986E-06-9.56932E-07 3.30872E-24
 -1       697 5.76283E-06-7.66857E-07 3.30872E-24
 -1       698 4.21412E-06-5.76461E-07 0.00000E+00
 -1       699 2.68400E-06-3.85229E-07 0.00000E+00
 -1       700 1.25274E-06-1.93577E-07 0.00000E+00
 -1       701 8.04084E-06-1.50953E-07 0.00000E+00
 -1       702 7.55547E-06 6.23192E-07 0.00000E+00
 -1       703 7.14108E-06 1.20695E-06 6.61744E-24
 -1       704 6.78819E-06 1.62332E-06 0.00000E+00
 -1       705 6.48894E-06 1.89591E-06 6.61744E-24
 -1       706 6.23463E-06 2.04816E-06 3.30872E-24
 -1       707 6.01657E-06 2.10356E-06-6.61744E-24
 -1       708 5.82598E-06 2.08565E-06 3.30872E-24
 -1       709 5.65405E-06 2.01797E-06 6.61744E-24
 -1       710 5.49197E-06 1.92412E-06 0.00000E+00
 -1       711 5.33092E-06 1.82772E-06 0.00000E+00
 -1       712 5.16219E-06 1.75238E-06-1.65436E-24
 -1       713 4.97701E-06 1.72174E-06 0.00000E+00
 -1       714 4.76742E-06 1.75965E-06 0.00000E+00
 -1       715 4.52389E-06 1.88941E-06 1.65436E-24
 -1       716 1.12080E-05 2.34599E-06 1.65436E-24
 -1       717 1.13390E-05 2.60426E-06 4.13590E-25
 -1       718 1.14706E-05 2.56490E-06-1.65436E-24
 -1       719 1.16032E-05 2.28179E-06 0.00000E+00
 -1       720 1.17359E-05 1.80865E-06 0.00000E+00
 -1       721 1.18687E-05 1.19916E-06 0.00000E+00
 -1       722 1.20016E-05 5.06957E-07 0.00000E+00
 -1       723 1.21344E-05-2.14365E-07 0.00000E+00
 -1       724 1.22673E-05-9.11204E-07 0.00000E+00
 -1       725 1.24001E-05-1.52995E-06-1.65436E-24
 -1       726 1.25329E-05-2.01698E-06 0.00000E+00
 -1       727 1.26655E-05-2.31861E-06 0.00000E+00
 -1       728 1.27976E-05-2.38111E-06 0.00000E+00
 -1       729 1.29282E-05-2.15067E-06-3.30872E-24
 -1       730 1.30577E-05-1.57332E-06 0.00000E+00
 -1       731 9.98233E-06 1.79922E-06 0.00000E+00
 -1       732 8.68342E-06 1.86626E-06 0.00000E+00
 -1       733 7.32404E-06 1.93355E-06 0.00000E+00
 -1       734 6.04072E-06 2.00146E-06-8.27181E-25
 -1       735 4.97001E-06 2.06972E-06 1.44757E-24
 -1       736 1.04738E-05 2.32360E-06 0.00000E+00
 -1       737 9.92787E-06 2.69495E-06 0.00000E+00
 -1       738 9.45089E-06 2.88064E-06-1.32349E-23
 -1       739 9.03240E-06 2.90577E-06 6.61744E-24
 -1       740 8.66397E-06 2.79632E-06 0.00000E+00
 -1       741 8.33604E-06 2.57806E-06 0.00000E+00
 -1       742 8.03908E-06 2.27691E-06 1.32349E-23
 -1       743 7.76341E-06 1.91883E-06 6.61744E-24
 -1       744 7.49931E-06 1.52983E-06 1.32349E-23
 -1       745 7.23707E-06 1.13599E-06-6.61744E-24
 -1       746 6.96696E-06 7.63349E-07 0.00000E+00
 -1       747 6.67935E-06 4.37988E-07 0.00000E+00
 -1       748 6.36459E-06 1.85920E-07 1.32349E-23
 -1       749 6.01386E-06 3.33282E-08 0.00000E+00
 -1       750 5.61677E-06 5.77900E-09-6.61744E-24
 -1       751 1.34702E-05 3.73879E-07-2.48154E-24
 -1       752 1.37884E-05 9.43342E-07-3.30872E-24
 -1       753 1.41081E-05 1.17114E-06-6.61744E-24
 -1       754 1.44304E-05 1.11693E-06 0.00000E+00
 -1       755 1.47534E-05 8.40084E-07-6.61744E-24
 -1       756 1.50769E-05 3.99791E-07-3.30872E-24
 -1       757 1.54005E-05-1.44893E-07-1.32349E-23
 -1       758 1.57241E-05-7.35007E-07 0.00000E+00
 -1       759 1.60478E-05-1.31162E-06 2.64698E-23
 -1       760 1.63714E-05-1.81579E-06-6.61744E-24
 -1       761 1.66949E-05-2.18854E-06 1.32349E-23
 -1       762 1.70180E-05-2.37073E-06 0.00000E+00
 -1       763 1.73405E-05-2.30310E-06-1.32349E-23
 -1       764 1.76608E-05-1.92617E-06-3.30872E-24
 -1       765 1.79795E-05-1.18016E-06 0.00000E+00
 -1       766 1.17058E-05-4.83972E-07-6.20385E-25
 -1       767 1.01055E-05-3.59293E-07 4.13590E-25
 -1       768 8.51234E-06-2.34150E-07-8.27181E-25
 -1       769 7.06614E-06-1.08592E-07 2.84343E-25
 -1       770 5.90700E-06 1.70039E-08 0.00000E+00
 -1       771 1.21030E-05 1.78442E-07-1.32349E-23
 -1       772 1.11117E-05 6.67700E-07 0.00000E+00
 -1       773 1.02075E-05 9.16262E-07 2.64698E-23
 -1       774 9.37641E-06 9.62755E-07-1.32349E-23
 -1       775 8.60557E-06 8.46374E-07 0.00000E+00
 -1       776 7.88074E-06 6.06115E-07 0.00000E+00
 -1       777 7.18752E-06 2.81041E-07-2.64698E-23
 -1       778 6.51136E-06-8.97162E-08-1.32349E-23
 -1       779 5.83763E-06-4.66994E-07 0.00000E+00
 -1       780 5.15174E-06-8.11633E-07 0.00000E+00
 -1       781 4.43908E-06-1.08448E-06 0.00000E+00
 -1       782 3.68527E-06-1.24644E-06 1.32349E-23
 -1       783 2.87594E-06-1.25849E-06-1.32349E-23
 -1       784 1.99812E-06-1.08142E-06 0.00000E+00
 -1       785 1.03775E-06-6.76559E-07 0.00000E+00
 -1       786 1.85150E-05 1.21597E-06 0.00000E+00
 -1       787 1.87669E-05 2.09432E-06 1.65436E-24
 -1       788 1.90201E-05 2.68299E-06-6.61744E-24
 -1       789 1.92752E-05 3.03679E-06 0.00000E+00
 -1       790 1.95309E-05 3.21031E-06 6.61744E-24
 -1       791 1.97870E-05 3.25806E-06 3.30872E-24
 -1       792 2.00432E-05 3.23446E-06 0.00000E+00
 -1       793 2.02995E-05 3.19387E-06 3.30872E-24
 -1       794 2.05558E-05 3.19066E-06-6.61744E-24
 -1       795 2.08121E-05 3.27921E-06 0.00000E+00
 -1       796 2.10682E-05 3.51397E-06 0.00000E+00
 -1       797 2.13241E-05 3.94948E-06 0.00000E+00
 -1       798 2.15796E-05 4.64043E-06 0.00000E+00
 -1       799 2.18339E-05 5.64163E-06 0.00000E+00
 -1       800 2.20871E-05 7.00822E-06 0.00000E+00
 -1       801 1.58608E-05-5.39412E-09-1.65436E-24
 -1       802 1.25822E-05-1.79461E-09 0.00000E+00
 -1       803 8.89868E-06 6.63409E-10 0.00000E+00
 -1       804 5.26868E-06 2.65145E-09 1.65436E-24
 -1       805 2.15080E-06 5.48050E-09 0.00000E+00
 -1       806 1.73784E-05 1.10045E-06 0.00000E+00
 -1       807 1.65525E-05 1.96198E-06 0.00000E+00
 -1       808 1.58008E-05 2.62075E-06 0.00000E+00
 -1       809 1.51089E-05 3.11563E-06-6.61744E-24
 -1       810 1.44634E-05 3.48586E-06 0.00000E+00
 -1       811 1.38497E-05 3.77052E-06 0.00000E+00
 -1       812 1.32533E-05 4.00873E-06 0.00000E+00
 -1       813 1.26596E-05 4.23961E-06-6.61744E-24
 -1       814 1.20540E-05 4.50230E-06 1.32349E-23
 -1       815 1.14218E-05 4.83588E-06-6.61744E-24
 -1       816 1.07485E-05 5.27941E-06 0.00000E+00
 -1       817 1.00195E-05 5.87192E-06 0.00000E+00
 -1       818 9.22042E-06 6.65234E-06 1.32349E-23
 -1       819 8.33799E-06 7.65972E-06 3.30872E-24
 -1       820 7.35796E-06 8.93275E-06-6.61744E-24
 -1       821 2.21732E-05 1.10131E-05 8.27181E-25
 -1       822 2.20041E-05 1.34888E-05 8.27181E-25
 -1       823 2.18338E-05 1.61950E-05 3.30872E-24
 -1       824 2.16617E-05 1.91040E-05 0.00000E+00
 -1       825 2.14888E-05 2.21888E-05-6.61744E-24
 -1       826 2.13152E-05 2.54216E-05 1.65436E-24
 -1       827 2.11411E-05 2.87748E-05-3.30872E-24
 -1       828 2.09667E-05 3.22209E-05-3.30872E-24
 -1       829 2.07921E-05 3.57322E-05 0.00000E+00
 -1       830 2.06173E-05 3.92808E-05-3.30872E-24
 -1       831 2.04427E-05 4.28392E-05 0.00000E+00
 -1       832 2.02682E-05 4.63795E-05 0.00000E+00
 -1       833 2.00941E-05 4.98739E-05 0.00000E+00
 -1       834 1.99212E-05 5.32950E-05-1.65436E-24
 -1       835 1.97492E-05 5.66148E-05 0.00000E+00
 -1       836 1.99045E-05 9.07644E-06 0.00000E+00
 -1       837 1.71475E-05 9.36741E-06 3.30872E-24
 -1       838 1.42331E-05 9.65810E-06 6.61744E-24
 -1       839 1.13350E-05 9.94821E-06 0.00000E+00
 -1       840 8.62700E-06 1.02381E-05-1.65436E-24
 -1       841 2.15152E-05 1.10186E-05 0.00000E+00
 -1       842 2.05991E-05 1.35006E-05 0.00000E+00
 -1       843 1.95956E-05 1.62136E-05 1.65436E-24
 -1       844 1.85153E-05 1.91290E-05 0.00000E+00
 -1       845 1.73689E-05 2.22189E-05 0.00000E+00
 -1       846 1.61671E-05 2.54549E-05 0.00000E+00
 -1       847 1.49207E-05 2.88089E-05 0.00000E+00
 -1       848 1.36403E-05 3.22526E-05 0.00000E+00
 -1       849 1.23365E-05 3.57578E-05 0.00000E+00
 -1       850 1.10202E-05 3.92962E-05 0.00000E+00
 -1       851 9.70188E-06 4.28398E-05 0.00000E+00
 -1       852 8.39226E-06 4.63602E-05-1.80946E-25
 -1       853 7.10194E-06 4.98291E-05 0.00000E+00
 -1       854 5.84126E-06 5.32184E-05-4.13590E-25
 -1       855 4.62115E-06 5.64998E-05 0.00000E+00
 -1       856 1.95069E-05 6.29910E-05 4.13590E-25
 -1       857 1.94244E-05 6.63107E-05 0.00000E+00
 -1       858 1.93412E-05 6.97467E-05-1.65436E-24
 -1       859 1.92573E-05 7.32801E-05 0.00000E+00
 -1       860 1.91729E-05 7.68918E-05 0.00000E+00
 -1       861 1.90883E-05 8.05628E-05 8.27181E-25
 -1       862 1.90035E-05 8.42741E-05 0.00000E+00
 -1       863 1.89186E-05 8.80068E-05 1.65436E-24
 -1       864 1.88337E-05 9.17417E-05 0.00000E+00
 -1       865 1.87489E-05 9.54599E-05-1.65436E-24
 -1       866 1.86642E-05 9.91423E-05 0.00000E+00
 -1       867 1.85797E-05 1.02770E-04 0.00000E+00
 -1       868 1.84956E-05 1.06324E-04 0.00000E+00
 -1       869 1.84120E-05 1.09785E-04 0.00000E+00
 -1       870 1.83289E-05 1.13134E-04 1.65436E-24
 -1       871 1.67406E-05 5.97810E-05 0.00000E+00
 -1       872 1.40648E-05 5.97548E-05 0.00000E+00
 -1       873 1.14781E-05 5.97285E-05 0.00000E+00
 -1       874 8.89997E-06 5.97018E-05 1.03398E-25
 -1       875 6.24980E-06 5.96745E-05 8.27181E-25
 -1       876 1.85251E-05 6.30173E-05 0.00000E+00
 -1       877 1.74308E-05 6.63358E-05 0.00000E+00
 -1       878 1.63022E-05 6.97457E-05 0.00000E+00
 -1       879 1.51451E-05 7.32330E-05-1.65436E-24
 -1       880 1.39642E-05 7.67835E-05-3.30872E-24
 -1       881 1.27649E-05 8.03829E-05-1.65436E-24
 -1       882 1.15523E-05 8.40174E-05-3.30872E-24
 -1       883 1.03318E-05 8.76728E-05 0.00000E+00
 -1       884 9.10874E-06 9.13350E-05-3.30872E-24
 -1       885 7.88836E-06 9.49901E-05-1.65436E-24
 -1       886 6.67592E-06 9.86240E-05 3.30872E-24
 -1       887 5.47671E-06 1.02223E-04-1.65436E-24
 -1       888 4.29593E-06 1.05772E-04 0.00000E+00
 -1       889 3.13836E-06 1.09258E-04-1.65436E-24
 -1       890 2.00974E-06 1.12666E-04-1.65436E-24
 -1       891 1.52676E-05 1.16291E-04 0.00000E+00
 -1       892 1.24206E-05 1.16229E-04-8.27181E-25
 -1       893 9.63430E-06 1.16166E-04 0.00000E+00
 -1       894 6.83560E-06 1.16104E-04 0.00000E+00
 -1       895 3.95126E-06 1.16042E-04 4.13590E-25
 -1       896 2.64241E-07 9.22959E-07-6.61744E-24
 -1       897 5.30344E-07 1.61465E-06-3.30872E-24
 -1       898 7.96680E-07 2.10190E-06 6.61744E-24
 -1       899 1.06329E-06 2.41202E-06 3.30872E-24
 -1       900 1.32998E-06 2.57218E-06 0.00000E+00
 -1       901 1.59673E-06 2.60943E-06 0.00000E+00
 -1       902 1.86349E-06 2.55075E-06 6.61744E-24
 -1       903 2.13025E-06 2.42305E-06-3.30872E-24
 -1       904 2.39698E-06 2.25319E-06 0.00000E+00
 -1       905 2.66366E-06 2.06799E-06-3.30872E-24
 -1       906 2.93026E-06 1.89428E-06 0.00000E+00
 -1       907 3.19667E-06 1.75887E-06 0.00000E+00
 -1       908 3.46276E-06 1.68862E-06-6.61744E-24
 -1       909 3.72777E-06 1.71042E-06 0.00000E+00
 -1       910 3.99217E-06 1.85123E-06 0.00000E+00
 -1       911 4.30586E-06 2.42234E-06 8.27181E-25
 -1       912 4.36469E-06 2.54725E-06-4.13590E-25
 -1       913 4.42353E-06 2.53463E-06-1.65436E-24
 -1       914 4.48240E-06 2.40711E-06 8.27181E-25
 -1       915 4.54125E-06 2.18727E-06 0.00000E+00
 -1       916 4.60010E-06 1.89771E-06 8.27181E-25
 -1       917 4.65892E-06 1.56100E-06 0.00000E+00
 -1       918 4.71773E-06 1.19970E-06 0.00000E+00
 -1       919 4.77652E-06 8.36375E-07 0.00000E+00
 -1       920 4.83528E-06 4.93595E-07 8.27181E-25
 -1       921 4.89397E-06 1.93917E-07 0.00000E+00
 -1       922 4.95250E-06-4.00815E-08 0.00000E+00
 -1       923 5.01078E-06-1.85816E-07 1.65436E-24
 -1       924 5.06812E-06-2.20711E-07 0.00000E+00
 -1       925 5.12493E-06-1.22128E-07 0.00000E+00
 -1       926 4.85973E-06 3.56164E-07 0.00000E+00
 -1       927 4.53717E-06 3.90053E-07 0.00000E+00
 -1       928 4.21405E-06 2.67217E-07 0.00000E+00
 -1       929 3.88990E-06 2.18394E-08 0.00000E+00
 -1       930 3.56544E-06-3.11865E-07-1.32349E-23
 -1       931 3.24077E-06-6.99556E-07 0.00000E+00
 -1       932 2.91601E-06-1.10687E-06 0.00000E+00
 -1       933 2.59122E-06-1.49942E-06 0.00000E+00
 -1       934 2.26644E-06-1.84280E-06-6.61744E-24
 -1       935 1.94169E-06-2.10271E-06-3.30872E-24
 -1       936 1.61699E-06-2.24486E-06-1.32349E-23
 -1       937 1.29239E-06-2.23511E-06 0.00000E+00
 -1       938 9.67895E-07-2.03941E-06 0.00000E+00
 -1       939 6.43829E-07-1.62397E-06 3.30872E-24
 -1       940 3.19900E-07-9.55039E-07 0.00000E+00
 -1       941 3.63631E-07 9.74906E-07 0.00000E+00
 -1       942 7.54726E-07 1.72015E-06-3.30872E-24
 -1       943 1.14772E-06 2.27568E-06-1.32349E-23
 -1       944 1.54399E-06 2.68188E-06 0.00000E+00
 -1       945 1.94120E-06 2.97895E-06 0.00000E+00
 -1       946 2.33904E-06 3.20700E-06 6.61744E-24
 -1       947 2.73712E-06 3.40603E-06 0.00000E+00
 -1       948 3.13531E-06 3.61605E-06 0.00000E+00
 -1       949 3.53351E-06 3.87706E-06-1.32349E-23
 -1       950 3.93161E-06 4.22914E-06 0.00000E+00
 -1       951 4.32948E-06 4.71241E-06 1.32349E-23
 -1       952 4.72683E-06 5.36721E-06 0.00000E+00
 -1       953 5.12335E-06 6.23399E-06 0.00000E+00
 -1       954 5.51731E-06 7.35345E-06 6.61744E-24
 -1       955 5.90963E-06 8.76660E-06 1.32349E-23
 -1       956 6.11285E-06 1.26447E-05 0.00000E+00
 -1       957 5.93821E-06 1.50145E-05 1.65436E-24
 -1       958 5.76229E-06 1.76003E-05 4.96308E-24
 -1       959 5.58532E-06 2.03773E-05 0.00000E+00
 -1       960 5.40771E-06 2.33212E-05 0.00000E+00
 -1       961 5.22959E-06 2.64072E-05 0.00000E+00
 -1       962 5.05108E-06 2.96106E-05 0.00000E+00
 -1       963 4.87226E-06 3.29068E-05 1.65436E-24
 -1       964 4.69323E-06 3.62709E-05 3.30872E-24
 -1       965 4.51407E-06 3.96783E-05 0.00000E+00
 -1       966 4.33488E-06 4.31041E-05-6.61744E-24
 -1       967 4.15579E-06 4.65235E-05-3.30872E-24
 -1       968 3.97694E-06 4.99119E-05 0.00000E+00
 -1       969 3.79868E-06 5.32445E-05-3.30872E-24
 -1       970 3.62124E-06 5.64965E-05 0.00000E+00
 -1       971 3.29316E-06 6.27759E-05 3.30872E-24
 -1       972 3.13504E-06 6.60428E-05 0.00000E+00
 -1       973 2.97637E-06 6.94272E-05-3.30872E-24
 -1       974 2.81702E-06 7.29113E-05 1.65436E-24
 -1       975 2.65730E-06 7.64772E-05 3.30872E-24
 -1       976 2.49730E-06 8.01071E-05 0.00000E+00
 -1       977 2.33712E-06 8.37830E-05 3.30872E-24
 -1       978 2.17682E-06 8.74871E-05-1.65436E-24
 -1       979 2.01650E-06 9.12013E-05-3.30872E-24
 -1       980 1.85623E-06 9.49077E-05 0.00000E+00
 -1       981 1.69610E-06 9.85885E-05-6.61744E-24
 -1       982 1.53625E-06 1.02226E-04 0.00000E+00
 -1       983 1.37680E-06 1.05801E-04 3.30872E-24
 -1       984 1.21828E-06 1.09297E-04 1.65436E-24
 -1       985 1.06044E-06 1.12696E-04 0.00000E+00
 -3
    1PSTEP                         2           1           1          
  100CL  101 1.000000000         841                     0    1           1
 -4  STRESS      6    1
 -5  SXX         1    4    1    1
 -5  SYY         1    4    2    2
 -5  SZZ         1    4    3    3
 -5  SXY         1    4    1    2
 -5  SYZ         1    4    2    3
 -5  SZX         1    4    3    1
 -1         1-1.49411E+06-4.65073E+05-5.23994E+04-6.42375E+05 5.82077E-11-9.70128E-11
 -1         2-8.77162E+05 2.38590E+04 1.54489E+03-1.52042E+05-2.78760E-10-4.78394E-09
 -1         3-2.92025E+05-5.30445E+04 4.90792E+02-7.17423E+04 1.28921E-10 1.23919E-09
 -1         4-4.02340E+04-4.44337E+03 1.15614E+02-1.79564E+04-3.89377E-12-1.23924E-09
 -1         5 6.17238E+04 6.87484E+05-4.41886E+04-6.08009E+03 7.56700E-10 4.68697E-09
 -1         8-2.33975E+05-2.79611E+05 5.99514E+03-4.75208E+05 2.56478E-10-1.89175E-10
 -1         9-5.84454E+05-6.23113E+04-1.49713E+04-3.92949E+05-2.87703E-10 7.15469E-11
 -1        10-3.12807E+05-1.06229E+05 8.27262E+02-2.28645E+05 6.06330E-10 2.25918E-09
 -1        11-5.40680E+04-3.41813E+04 1.81778E+02-1.07142E+05 1.38630E-09-1.57934E-09
 -1        12 9.33275E+04 6.94332E+05-4.08021E+04 3.22961E+04 1.08037E-09 2.26518E-09
 -1        15 1.84430E+04 7.88381E+03 9.83082E+02-1.58302E+05-1.42791E-10-4.65661E-10
 -1        16-2.41153E+05-6.80517E+04-8.44480E+03-3.48572E+05-3.63495E-10 1.31392E-09
 -1        17-2.30640E+05-1.15474E+05 1.44528E+04-3.55892E+05 8.22790E-10-2.26040E-09
 -1        18-3.85656E+04-5.68992E+04-4.42274E+03-2.61603E+05 2.47261E-09 1.56433E-10
 -1        19 2.52529E+05 3.93613E+05-1.54331E+04 1.61281E+04-2.35923E-09 5.57823E-10
 -1        20 1.14507E+05-5.70785E+04-7.28750E+03 7.60110E+04 2.02081E-08-1.12595E-09
 -1        21-1.31115E+04-1.32523E+05-5.62569E+02 9.75689E+03 1.51967E-08-5.13000E-09
 -1        22 3.05255E+04 1.76199E+05 4.83543E+02-1.03797E+05 8.64020E-11-1.11868E-09
 -1        23-1.32837E+05-2.81799E+03 7.61104E+02-2.04036E+05-2.53446E-10-3.17717E-10
 -1        24-2.86618E+05-5.05761E+04 2.87695E+04-3.40336E+05-1.54008E-10-6.40284E-10
 -1        25-5.96908E+04-3.50035E+04 4.03886E+04-3.52789E+05 1.74138E-09 1.01742E-09
 -1        26-2.26676E+04 2.48917E+05 6.79699E+03-1.10305E+05 3.44933E-09-3.27691E-09
 -1        27 1.32171E+03-3.47535E+04-1.19146E+04 1.20493E+05 1.46292E-08-3.16747E-09
 -1        28-2.57748E+03-9.35499E+04-5.31250E+02 5.41178E+04 2.39093E-08-2.61725E-09
 -1        29 3.70306E+05 2.88089E+05 9.08640E+02-7.44247E+04 1.61435E-11 2.27374E-11
 -1        30 1.27166E+05 3.24281E+04 6.58935E+02-9.81077E+04 1.58764E-10-6.25732E-10
 -1        31-3.72563E+05 2.00057E+04 1.31910E+03-1.45692E+05 3.34403E-10 2.38288E-10
 -1        32-3.44900E+05-4.62984E+04 5.08209E+04-3.40648E+05 9.02688E-10 1.65528E-09
 -1        33-4.63973E+04 1.63885E+05 5.39010E+04-1.58714E+05 5.43206E-09-6.22549E-10
 -1        34-2.17596E+05-1.94613E+04 2.07180E+03 7.51126E+04 1.42325E-08-2.48929E-09
 -1        35-3.85796E+04-3.27260E+04-4.23293E+02 7.77887E+04 3.09639E-08 8.30672E-10
 -1        36-2.02685E+06-1.21831E+03-3.08467E+04-7.58882E-09-4.22331E-10 1.32241E-09
 -1        37-2.03532E+06-5.08556E+03-1.76372E+04-8.92624E-09-1.74477E-10 6.59384E-10
 -1        38-2.03067E+06 4.15477E+01-7.73602E+03 1.56719E-09-1.19110E-10-1.44837E-09
 -1        39-2.03119E+06-2.43049E+02-4.06699E+03 1.01972E-08 1.63588E-09-2.42608E-10
 -1        40-2.03095E+06 3.00112E+01-2.02471E+03 6.54902E-09 9.12112E-11 2.92471E-09
 -1        41-2.03088E+06-5.75383E+00-1.19666E+03 4.84231E-09-3.67109E-10 1.30498E-09
 -1        42-2.03098E+06 1.53110E+01-9.08367E+02-1.28373E-08-2.29263E-10-2.13600E-09
 -1        43-2.03087E+06 4.63869E+00-1.12464E+03-3.96075E-09-4.36769E-10-2.81892E-09
 -1        44-2.03096E+06 3.09923E+01-1.85750E+03-9.50243E-09-4.49230E-11-1.76647E-09
 -1        45-2.03102E+06-2.58580E+01-3.62906E+03-5.17043E-09 3.66734E-10 4.89035E-09
 -1        46-2.03084E+06 1.03362E+02-7.02952E+03 3.97975E-10-2.84630E-10 1.69666E-09
 -1        47-2.03218E+06-8.88634E+02-1.46643E+04 1.67454E-08-4.81923E-10 2.05819E-09
 -1        48-2.02982E+06 1.50275E+02-2.81516E+04-1.19957E-08 6.04370E-10-4.54747E-10
 -1        49-2.04725E+06-1.85665E+04-6.43437E+04-1.19808E-08-7.14544E-10-5.57156E-09
 -1        50-2.01585E+06-4.43925E+03-1.12562E+05-1.08303E-08-3.17382E-10-7.71252E-10
 -1        51 2.75520E+04-6.71789E+05 1.01605E+05-7.87158E+05-4.36557E-11-4.51109E-10
 -1        52 1.77755E+04-6.54532E+05 5.34661E+04-1.01920E+06 7.27596E-12-6.01722E-09
 -1        53 5.85261E+03-6.72185E+05 2.14773E+04-7.84400E+05 8.00355E-11 2.72848E-09
 -1        54 8.31751E+03-6.75879E+05 5.91458E+03-1.02113E+06-4.14730E-10 3.51065E-10
 -1        55 3.32497E+03-6.72383E+05-7.52792E+03-7.85106E+05 2.13731E-10 2.65572E-10
 -1        56-2.62416E+06-3.77981E+05-1.18985E+05-9.96182E+05-2.45927E-09-1.04628E-08
 -1        57-2.65296E+06-4.08496E+05-6.69180E+04-1.00783E+06-7.65795E-10-1.47420E-08
 -1        58-2.63841E+06-3.79757E+05-2.73038E+04-1.00160E+06 7.78982E-10-1.31149E-09
 -1        59-2.63488E+06-3.87612E+05-1.38196E+04-1.00902E+06-1.12391E-09-7.43057E-10
 -1        60-2.63949E+06-3.80172E+05-6.32260E+03-1.00195E+06 5.91172E-12-8.11156E-11
 -1        61-2.63359E+06-3.86344E+05-3.31942E+03-1.00883E+06 1.21304E-09 2.35059E-09
 -1        62-2.63955E+06-3.80313E+05-1.99430E+03-1.00203E+06 2.23736E-10-8.36508E-10
 -1        63-2.63360E+06-3.86154E+05-1.95422E+03-1.00864E+06 9.04038E-10 1.58298E-09
 -1        64-2.63943E+06-3.80387E+05-2.93701E+03-1.00211E+06 6.02085E-10 4.09636E-09
 -1        65-2.63403E+06-3.86100E+05-5.81847E+03-1.00847E+06 2.28010E-09 6.45969E-09
 -1        66-2.63906E+06-3.80351E+05-1.16346E+04-1.00218E+06 2.63299E-09-1.25510E-09
 -1        67-2.63681E+06-3.88085E+05-2.57228E+04-1.00832E+06-8.19455E-10-4.95811E-09
 -1        68-2.63683E+06-3.79788E+05-5.09552E+04-1.00172E+06-5.06134E-10 2.84126E-09
 -1        69-2.67094E+06-4.26670E+05-1.24939E+05-1.00559E+06-6.64841E-10 1.04264E-08
 -1        70-2.60998E+06-3.76654E+05-2.22107E+05-9.91809E+05-1.96451E-10 4.88944E-09
 -1        71-6.76648E+05 7.21595E+02 1.80928E+04-1.69030E-08 1.00430E-09-1.20053E-10
 -1        72-6.71513E+05 2.97966E+03 1.03357E+04 1.02204E-09 2.84684E-10 2.67335E-09
 -1        73-6.74402E+05-2.37338E+01 4.51817E+03-9.34975E-09-2.60998E-09 3.56545E-09
 -1        74-6.73931E+05 1.42588E+02 2.34080E+03-1.20593E-08 9.60489E-10 5.62864E-09
 -1        75-6.74236E+05-1.60205E+01 1.09631E+03-1.56202E-08 1.70639E-09-5.41604E-10
 -1        76-6.74121E+05 4.58874E+00 5.13116E+02 9.03792E-09 1.35320E-09-3.59717E-09
 -1        77-6.74214E+05-2.60027E+00 1.59159E+02-1.70359E-08-8.93864E-10 2.96772E-09
 -1        78-6.74155E+05 4.34815E-01-1.04741E+02-2.13803E-09-7.12838E-10 2.78519E-09
 -1        79-6.74202E+05 6.91143E+00-4.16706E+02 6.85764E-09 1.27292E-11 2.99556E-09
 -1        80-6.74203E+05-7.50143E+00-9.62248E+02-4.88880E-09 2.86308E-10 1.24922E-09
 -1        81-6.74166E+05 2.84216E+01-1.93869E+03-2.37945E-09-1.30372E-10 1.56433E-10
 -1        82-6.74529E+05-2.47500E+02-4.08265E+03 3.41399E-09 4.84828E-10 1.94791E-09
 -1        83-6.73878E+05 4.13919E+01-7.85449E+03-2.02792E-09-2.80607E-10-4.11092E-10
 -1        84-6.78728E+05-5.17448E+03-1.79528E+04 1.01661E-08 1.27187E-10 6.66887E-10
 -1        85-6.69974E+05-1.25160E+03-3.14159E+04-6.82212E-09 1.55527E-10 1.70621E-09
 -1        86 5.20031E+03 5.56291E+05 1.43141E+05-1.25193E+05 4.65661E-10-1.14960E-09
 -1        87 2.39294E+04 5.96142E+05 9.22674E+04-2.06349E+05-2.73303E-10 1.51158E-09
 -1        88-4.32724E+01 5.71753E+05 6.12915E+04-1.24679E+05 6.23459E-10 1.25146E-09
 -1        89 1.99824E+04 5.91634E+05 7.99290E+04-2.06709E+05-2.75577E-10-2.93403E-09
 -1        90 4.79317E+03 5.59092E+05 1.16988E+05-1.24787E+05 5.74801E-10-3.29416E-09
 -1        91-1.12131E+06-1.63446E+05-3.89144E+04-4.28200E+05-4.35193E-10 1.19326E-09
 -1        92-1.12882E+06-1.75271E+05-2.18815E+04-4.34166E+05 4.21267E-10 7.94898E-09
 -1        93-1.12600E+06-1.63990E+05-8.93644E+03-4.29959E+05 3.24144E-09 4.92764E-09
 -1        94-1.12290E+06-1.68482E+05-4.52552E+03-4.34589E+05-1.13607E-09-3.29663E-10
 -1        95-1.12636E+06-1.64115E+05-2.07456E+03-4.30066E+05 9.09267E-10 3.37539E-09
 -1        96-1.12246E+06-1.68086E+05-1.09572E+03-4.34550E+05 1.16870E-10-5.72300E-10
 -1        97-1.12639E+06-1.64151E+05-6.69440E+02-4.30082E+05-3.74484E-10 1.15472E-09
 -1        98-1.12245E+06-1.68043E+05-6.75450E+02-4.34510E+05 3.26281E-11 2.59581E-09
 -1        99-1.12636E+06-1.64165E+05-1.03338E+03-4.30097E+05 6.08907E-10-3.63275E-09
 -1       100-1.12257E+06-1.68049E+05-2.05947E+03-4.34481E+05 8.00355E-11 1.38346E-09
 -1       101-1.12625E+06-1.64138E+05-4.12306E+03-4.30105E+05-2.81489E-10 5.72982E-10
 -1       102-1.12352E+06-1.68780E+05-9.11407E+03-4.34462E+05 7.76026E-10 1.39835E-09
 -1       103-1.12546E+06-1.63925E+05-1.80508E+04-4.29924E+05-1.37311E-09-4.35466E-09
 -1       104-1.13558E+06-1.82417E+05-4.42233E+04-4.33494E+05-7.79437E-10 6.62112E-10
 -1       105-1.11593E+06-1.62876E+05-7.86497E+04-4.26418E+05 8.00355E-11 2.62662E-09
 -1       106-1.10183E+05 9.27043E+02 2.31686E+04 5.21140E-10 5.79753E-11 1.04319E-09
 -1       107-1.03674E+05 3.81351E+03 1.32387E+04 1.54369E-08-3.41406E-10-7.21911E-10
 -1       108-1.07304E+05-3.03913E+01 5.79498E+03 8.90412E-09 3.30692E-10-1.87561E-09
 -1       109-1.06768E+05 1.82295E+02 3.01499E+03-3.12028E-10-2.17200E-10 5.82077E-11
 -1       110-1.07091E+05-2.10821E+01 1.43736E+03 1.64364E-09 6.49603E-10 1.38647E-09
 -1       111-1.07008E+05 5.42013E+00 7.24446E+02 6.00502E-09-8.48512E-11-3.15737E-09
 -1       112-1.07064E+05-5.58603E+00 3.36010E+02-4.48664E-09-5.55041E-10 1.66678E-09
 -1       113-1.07042E+05-5.63584E-01 1.35529E+02 4.63009E-09-6.92412E-10-3.76481E-09
 -1       114-1.07057E+05 9.51996E-03-2.78424E+00-6.99860E-09-6.15670E-11-4.23056E-09
 -1       115-1.07056E+05-1.66726E+00-1.43453E+02-1.42193E-08 1.02832E-09-4.76504E-09
 -1       116-1.07049E+05 5.05025E+00-3.47824E+02-3.39938E-10 1.16666E-10 5.26455E-09
 -1       117-1.07119E+05-4.68149E+01-7.62553E+02-3.30553E-09 1.05231E-10-2.32797E-09
 -1       118-1.06995E+05 7.71084E+00-1.48070E+03 2.29002E-09-3.54179E-10-5.26433E-09
 -1       119-1.07913E+05-9.77783E+02-3.39190E+03-8.69028E-09-7.50339E-11-1.92676E-09
 -1       120-1.06256E+05-2.37534E+02-5.93874E+03-2.45643E-09-5.18344E-10-5.00449E-10
 -1       121 9.00516E+02-9.08469E+04 2.64692E+04-7.32437E+04-5.03860E-10-2.90493E-09
 -1       122 4.48813E+03-8.35001E+04 1.82261E+04-1.21076E+05 8.39918E-10-3.50610E-09
 -1       123 2.03024E+01-8.82486E+04 1.41499E+04-7.29308E+04-8.31733E-10 9.99535E-10
 -1       124 5.75513E+03-8.27412E+04 2.15378E+04-1.21298E+05 1.24146E-09-5.66160E-10
 -1       125 1.40814E+03-9.20883E+04 3.35657E+04-7.30154E+04-9.31323E-10 3.54498E-09
 -1       126-4.43863E+05-6.79448E+04-1.50954E+04-1.73821E+05 2.03272E-10-1.69712E-09
 -1       127-4.44592E+05-7.47091E+04-8.48771E+03-1.78640E+05 4.54747E-12 8.77549E-10
 -1       128-4.45702E+05-6.81348E+04-3.46883E+03-1.74486E+05-1.92756E-09-6.52119E-09
 -1       129-4.42277E+05-7.20962E+04-1.75847E+03-1.78827E+05-7.13626E-10-4.28435E-09
 -1       130-4.45846E+05-6.81808E+04-8.10105E+02-1.74526E+05 1.73230E-10-2.80397E-09
 -1       131-4.42105E+05-7.19466E+04-4.35731E+02-1.78817E+05 1.67438E-09 3.18460E-09
 -1       132-4.45858E+05-6.81929E+04-2.81422E+02-1.74530E+05-3.49246E-10-2.50168E-09
 -1       133-4.42098E+05-7.19344E+04-3.08600E+02-1.78805E+05-8.52538E-10 1.12323E-10
 -1       134-4.45845E+05-6.81961E+04-4.96090E+02-1.74533E+05 1.76510E-09 4.92219E-09
 -1       135-4.42151E+05-7.19453E+04-1.00467E+03-1.78797E+05 3.42880E-10 1.57274E-09
 -1       136-4.45790E+05-6.81810E+04-2.01917E+03-1.74532E+05-1.28694E-10 1.16688E-09
 -1       137-4.42604E+05-7.23107E+04-4.46470E+03-1.78793E+05-6.42103E-10-2.83035E-09
 -1       138-4.45405E+05-6.80750E+04-8.84471E+03-1.74436E+05 2.85581E-10-4.47199E-09
 -1       139-4.48521E+05-7.89699E+04-2.16595E+04-1.78296E+05-5.79689E-10-6.78438E-09
 -1       140-4.40706E+05-6.75924E+04-3.85250E+04-1.72738E+05-2.96154E-10-2.03181E-09
 -1       141-1.55176E+04 1.16349E+02 2.90149E+03-1.00745E-08 1.42590E-10-1.05013E-09
 -1       142-1.47013E+04 4.78342E+02 1.64980E+03-8.90864E-09-2.97325E-10-1.83718E-09
 -1       143-1.51559E+04-3.43291E+00 7.04797E+02-9.74251E-09 4.09905E-10-3.88320E-09
 -1       144-1.50910E+04 2.31832E+01 3.32661E+02 1.21832E-08-2.22952E-10 1.20909E-09
 -1       145-1.51279E+04-1.10080E+00 9.03232E+01 7.89523E-10 8.91707E-10 5.25560E-10
 -1       146-1.51273E+04 1.88641E+00-9.28565E+01 8.10617E-09 1.84877E-10-4.63201E-09
 -1       147-1.51196E+04 5.48069E+00-3.20018E+02-4.29837E-10-2.50742E-09-2.46962E-09
 -1       148-1.51578E+04 3.00700E+00-7.22707E+02 5.74017E-09 4.35933E-11-8.59927E-10
 -1       149-1.50974E+04 2.42577E+01-1.45688E+03-6.44870E-09 1.42724E-09 2.87514E-10
 -1       150-1.52890E+04-2.18849E+01-3.00514E+03-3.21968E-09-8.35436E-10-1.45019E-09
 -1       151-1.49884E+04 8.65945E+01-5.89972E+03-6.50385E-09-1.97644E-10-1.04569E-09
 -1       152-1.62683E+04-7.45459E+02-1.23423E+04-1.78300E-08 1.04074E-09-2.09820E-09
 -1       153-1.41175E+04 1.24510E+02-2.37053E+04-4.83942E-09 1.79515E-10 1.39335E-09
 -1       154-2.89223E+04-1.55962E+04-5.41475E+04 1.10122E-08 5.19873E-10-2.61116E-09
 -1       155-2.32024E+03-3.78292E+03-9.47198E+04-3.23780E-09 1.79665E-10 4.13274E-09
 -1       156 1.33519E+02-1.49442E+03 4.64129E+03-3.25014E+04 5.32509E-10 2.84126E-09
 -1       157 7.88992E+02-2.03992E+02 3.47274E+03-5.36294E+04 2.22644E-09-2.55977E-09
 -1       158 3.08648E-01-1.10228E+03 3.15001E+03-3.23345E+04 1.47088E-09-1.31331E-09
 -1       159 1.49481E+03 2.91049E+02 5.38566E+03-5.37895E+04 3.33625E-09-1.76783E-09
 -1       160 3.76248E+02-2.15051E+03 8.72953E+03-3.23402E+04 1.90721E-09 2.40448E-09
 -1       161-4.88635E+04-7.23328E+03-9.93631E+02-1.88055E+04 8.71410E-10-1.71462E-09
 -1       162-4.88735E+04-7.71343E+03-5.63388E+02-1.91626E+04-1.18405E-10 9.41569E-10
 -1       163-4.89698E+04-7.25946E+03-2.40537E+02-1.88649E+04-2.68142E-09-5.42479E-09
 -1       164-4.87366E+04-7.52719E+03-1.42793E+02-1.91580E+04-2.48178E-10-3.95798E-09
 -1       165-4.89782E+04-7.26326E+03-1.09765E+02-1.88685E+04 2.18620E-10-5.37511E-09
 -1       166-4.87306E+04-7.51613E+03-1.49070E+02-1.91573E+04 1.06439E-09-7.33337E-10
 -1       167-4.89737E+04-7.26078E+03-2.66524E+02-1.88690E+04-2.42267E-10-2.00799E-09
 -1       168-4.87517E+04-7.51809E+03-5.52958E+02-1.91637E+04-1.45155E-09 1.55978E-10
 -1       169-4.89541E+04-7.24597E+03-1.12666E+03-1.88675E+04 7.57950E-10-2.48190E-09
 -1       170-4.88770E+04-7.57172E+03-2.43260E+03-1.91935E+04 9.30186E-10 4.43924E-09
 -1       171-4.88439E+04-7.17792E+03-4.95812E+03-1.88500E+04-2.80522E-09 1.38243E-09
 -1       172-4.99708E+04-8.51334E+03-1.10076E+04-1.92565E+04 2.43227E-09 7.44581E-09
 -1       173-4.79398E+04-6.87569E+03-2.18149E+04-1.85898E+04 2.53749E-10 1.10595E-09
 -1       174-6.44008E+04-2.51168E+04-5.34368E+04-1.82692E+04 1.57706E-09-4.71937E-09
 -1       175-3.65087E+04-5.51328E+03-9.50189E+04-1.42220E+04-4.80213E-10-1.19326E-09
 -1       191 1.82018E+04 1.60675E+06 6.72798E+04-9.70477E+03-3.12866E-10-3.07955E-09
 -1       192 8.24383E+03 1.62165E+06 4.11345E+04-1.22466E+04-4.17003E-10-4.18731E-09
 -1       193 7.08276E+02 1.61273E+06 2.97148E+04-9.58936E+03-8.98922E-10-4.39286E-10
 -1       194 7.98934E+03 1.62141E+06 4.02450E+04-1.24358E+04-1.38743E-09-3.43653E-09
 -1       195 1.76016E+04 1.60696E+06 6.52205E+04-9.49962E+03-1.38243E-09-5.02041E-10
 -1       251 5.13761E+05 2.51689E+03 1.02716E+05-9.26858E+04-1.49157E-10 9.67702E-10
 -1       252 5.43360E+05 1.57819E+04 5.88879E+04-1.52563E+05-2.03727E-10 2.80852E-09
 -1       253 5.25648E+05-9.81562E+02 2.56273E+04-9.19403E+04-3.52884E-10-3.11047E-10
 -1       254 5.28087E+05 3.21633E+02 1.34693E+04-1.53170E+05-4.25644E-10 5.63887E-10
 -1       255 5.25884E+05-3.76315E+02 6.44909E+03-9.20116E+04 4.14730E-10 1.99361E-09
 -1       256 5.26050E+05 4.20032E+01 3.49432E+03-1.53046E+05 1.45064E-09 4.38558E-09
 -1       257 5.25564E+05 2.92777E+01 1.99964E+03-9.20696E+04-3.14685E-10-4.12001E-10
 -1       258 5.25438E+05 2.74164E+02 1.66764E+03-1.52965E+05-6.56655E-10-1.74623E-10
 -1       259 5.25410E+05 1.50858E+02 2.05542E+03-9.20929E+04 1.39380E-10-2.64117E-09
 -1       260 5.25529E+05 3.17563E+02 3.58714E+03-1.52960E+05 3.96540E-10 2.22917E-09
 -1       261 5.25417E+05-1.15427E+01 6.68680E+03-9.20750E+04 9.71340E-10 4.65661E-10
 -1       262 5.27063E+05 8.93020E+02 1.38408E+04-1.53004E+05-3.51974E-10-1.54068E-09
 -1       263 5.24845E+05-3.70193E+02 2.64177E+04-9.20466E+04-6.43922E-10 1.89357E-09
 -1       264 5.42131E+05 1.70167E+04 6.04362E+04-1.52513E+05 2.01362E-09 5.08862E-10
 -1       265 5.12340E+05 3.48846E+03 1.05567E+05-9.26048E+04-7.38510E-10-2.45200E-09
 -1       266 2.14094E+03-1.37904E+05 3.92915E+04-8.17202E+04-2.91948E-10-6.52108E-10
 -1       267 7.29120E+03-1.27009E+05 2.09964E+04-1.36447E+05 1.04194E-10 1.09776E-09
 -1       268 2.82137E+02-1.32520E+05 6.18836E+03-8.18154E+04 1.50408E-10-1.01863E-09
 -1       269-1.60196E+03-1.33654E+05-3.48478E+03-1.35871E+05 2.31012E-10 1.20781E-09
 -1       270-6.86355E+02-1.29850E+05-1.29750E+04-8.23332E+04-1.83718E-10 3.01588E-09
 -1       271-1.52703E+06-2.70357E+05-1.15500E+05-6.45027E+05-4.60204E-10-2.52476E-09
 -1       272-1.52649E+06-3.27348E+05-6.47993E+04-6.88121E+05-8.73115E-10 2.76486E-10
 -1       273-1.54204E+06-2.70916E+05-2.65984E+04-6.49863E+05 3.09228E-10-2.11912E-09
 -1       274-1.50886E+06-3.07923E+05-1.33744E+04-6.91032E+05-3.12866E-10-9.53150E-10
 -1       275-1.54379E+06-2.70721E+05-6.15012E+03-6.50175E+05 4.98403E-10 2.03727E-10
 -1       276-1.50774E+06-3.06955E+05-3.11373E+03-6.91814E+05 5.72982E-11-7.29869E-11
 -1       277-1.54431E+06-2.70453E+05-1.74271E+03-6.50206E+05-2.18279E-10 2.16863E-09
 -1       278-1.50774E+06-3.06977E+05-1.45134E+03-6.92233E+05 2.17824E-10 1.29603E-09
 -1       279-1.54445E+06-2.70320E+05-1.95066E+03-6.50212E+05 8.57199E-10 1.45337E-09
 -1       280-1.50792E+06-3.07061E+05-3.71706E+03-6.92306E+05 5.25120E-10 1.35515E-09
 -1       281-1.54419E+06-2.70310E+05-7.38064E+03-6.50183E+05 7.47605E-10 3.16231E-09
 -1       282-1.50945E+06-3.08375E+05-1.62677E+04-6.92019E+05-2.54659E-11-2.23008E-09
 -1       283-1.54250E+06-2.70182E+05-3.22666E+04-6.49809E+05 4.52928E-10-1.60435E-09
 -1       284-1.53090E+06-3.32448E+05-7.89423E+04-6.89435E+05 4.14730E-10-2.47383E-10
 -1       285-1.52480E+06-2.68909E+05-1.40513E+05-6.43703E+05 1.42336E-09 5.09317E-09
 -1       286 2.68207E+04 1.93464E+03 5.84280E+04-4.88545E+04 8.65839E-10-6.96673E-10
 -1       287 4.34106E+04 9.35345E+03 3.34394E+04-8.01333E+04 9.03128E-10 3.18323E-09
 -1       288 3.38449E+04-2.78695E+02 1.46023E+04-4.84204E+04-2.80124E-10 2.27465E-09
 -1       289 3.51921E+04 3.66146E+02 7.64172E+03-8.05609E+04 2.18279E-11 1.18052E-09
 -1       290 3.41924E+04-1.05308E+02 3.66888E+03-4.84072E+04 8.67658E-10 1.75851E-09
 -1       291 3.43314E+04 5.30987E+01 1.94900E+03-8.05732E+04 6.51653E-10-3.24417E-09
 -1       292 3.41447E+04 2.02517E+01 1.07608E+03-4.84092E+04 6.32099E-10-2.06774E-09
 -1       293 3.41373E+04 1.02741E+02 8.14106E+02-8.05713E+04 3.36513E-10-2.73667E-09
 -1       294 3.41129E+04 5.08603E+01 9.13867E+02-4.84092E+04 1.90141E-11 6.62567E-10
 -1       295 3.41879E+04 1.12265E+02 1.52206E+03-8.05715E+04 1.98270E-09-1.64891E-09
 -1       296 3.41078E+04-8.84473E+00 2.80131E+03-4.84090E+04 1.42791E-10-2.43858E-09
 -1       297 3.47786E+04 3.77659E+02 5.77604E+03-8.05599E+04 1.92813E-09 1.55967E-09
 -1       298 3.38229E+04-1.20673E+02 1.10256E+04-4.84203E+04 2.63753E-10-5.01132E-10
 -1       299 4.09464E+04 7.15987E+03 2.52064E+04-8.02206E+04-1.11504E-09-4.21778E-10
 -1       300 2.85265E+04 1.55015E+03 4.40452E+04-4.87565E+04 1.09139E-11 1.26965E-09
 -1       301 2.18078E+04 1.40394E+05 7.42577E+04-3.73036E+05-3.96540E-10 2.11730E-09
 -1       302 1.17199E+04 1.55790E+05 4.30979E+04-4.83664E+05-9.09495E-11 1.67711E-09
 -1       303 2.64610E+03 1.46272E+05 2.68464E+04-3.72288E+05-7.42148E-10 2.21951E-09
 -1       304 8.04089E+03 1.52464E+05 3.04683E+04-4.83697E+05 2.43745E-10 1.07684E-09
 -1       305 1.31785E+04 1.43556E+05 4.50054E+04-3.73017E+05-1.38516E-09 3.16504E-09
 -1       306-1.74503E+06-2.77685E+05-1.33458E+05-6.97076E+05-1.09594E-10-2.18279E-09
 -1       307-1.76397E+06-3.25029E+05-7.50139E+04-7.25386E+05 3.96540E-10 2.47201E-09
 -1       308-1.76157E+06-2.79126E+05-3.06488E+04-7.02835E+05 8.07631E-10 3.27418E-10
 -1       309-1.74341E+06-3.02154E+05-1.54732E+04-7.27578E+05-2.93949E-09-6.07224E-09
 -1       310-1.76309E+06-2.79319E+05-7.04582E+03-7.03117E+05 1.35879E-09 2.81170E-09
 -1       311-1.74183E+06-3.00976E+05-3.58944E+03-7.27845E+05 8.47649E-10-4.06550E-09
 -1       312-1.76337E+06-2.79289E+05-1.96407E+03-7.03105E+05-1.98270E-10 1.07104E-09
 -1       313-1.74167E+06-3.00961E+05-1.60383E+03-7.27952E+05-3.92902E-10 1.17234E-09
 -1       314-1.76338E+06-2.79270E+05-2.08901E+03-7.03100E+05 1.65073E-10 1.01909E-09
 -1       315-1.74184E+06-3.01012E+05-3.92681E+03-7.27916E+05-1.49225E-09-2.08729E-09
 -1       316-1.76312E+06-2.79256E+05-7.75540E+03-7.03099E+05 3.55612E-10-3.31966E-10
 -1       317-1.74358E+06-3.02357E+05-1.70805E+04-7.27725E+05 5.27507E-10 3.31056E-10
 -1       318-1.76150E+06-2.78987E+05-3.38294E+04-7.02769E+05-2.27374E-11 9.45874E-10
 -1       319-1.76624E+06-3.27721E+05-8.28441E+04-7.25475E+05-4.00178E-10-2.03727E-09
 -1       320-1.74334E+06-2.77288E+05-1.47357E+05-6.96340E+05 1.40972E-11 8.58563E-10
 -1       321 1.92859E+05 2.31379E+03 6.01401E+04-2.55631E+04-1.70076E-10 1.99907E-09
 -1       322 2.09758E+05 9.83266E+03 3.43777E+04-4.20085E+04-5.85715E-10 5.92991E-10
 -1       323 2.00275E+05-1.25264E+02 1.50476E+04-2.53625E+04-1.78261E-10 9.72250E-10
 -1       324 2.01625E+05 4.53035E+02 7.85044E+03-4.21999E+04 3.05590E-10-1.19053E-09
 -1       325 2.00780E+05-6.48233E+01 3.77111E+03-2.53613E+04-4.63842E-11-4.05180E-10
 -1       326 2.00944E+05 2.55625E+01 1.96768E+03-4.21963E+04 9.43373E-10-1.87356E-10
 -1       327 2.00823E+05-6.54882E+00 1.04053E+03-2.53666E+04-7.90578E-10 3.07000E-09
 -1       328 2.00843E+05 2.24094E+01 6.95303E+02-4.21903E+04 7.16682E-10 1.80853E-09
 -1       329 2.00826E+05 2.99205E+00 6.66126E+02-2.53674E+04 5.36147E-10-9.09949E-10
 -1       330 2.00876E+05 2.52656E+01 1.00725E+03-4.21921E+04-1.52295E-09 3.82238E-09
 -1       331 2.00814E+05-2.58524E+01 1.79698E+03-2.53648E+04-1.83718E-10-1.57456E-09
 -1       332 2.01208E+05 2.14675E+02 3.66991E+03-4.21943E+04 6.59384E-10 5.86624E-10
 -1       333 2.00596E+05-6.64731E+01 6.99783E+03-2.53650E+04 2.97405E-10 7.92170E-10
 -1       334 2.05024E+05 4.55351E+03 1.59737E+04-4.20240E+04 3.82443E-10 5.47163E-09
 -1       335 1.97177E+05 1.04389E+03 2.79255E+04-2.55388E+04-9.81345E-10 6.73026E-11
 -1       336 1.38804E+03-1.03402E+05 3.23882E+04-2.25140E+05-1.85537E-09 4.87489E-10
 -1       337 6.91763E+03-9.52819E+04 2.16316E+04-3.72878E+05 3.01407E-09-1.90357E-09
 -1       338 9.56713E+02-1.00876E+05 1.53488E+04-2.24441E+05-2.29920E-09 3.13003E-09
 -1       339 7.10628E+03-9.58194E+04 2.15131E+04-3.73034E+05 3.31420E-09 4.75620E-09
 -1       340 1.82272E+03-1.03909E+05 3.22264E+04-2.24977E+05-2.13731E-09 8.89486E-10
 -1       341-1.09460E+06-1.72707E+05-7.76177E+04-4.35434E+05-9.97261E-10 2.10639E-09
 -1       342-1.10533E+06-2.00593E+05-4.36353E+04-4.52310E+05 1.64482E-09 1.56888E-10
 -1       343-1.10413E+06-1.73626E+05-1.78254E+04-4.38825E+05 2.91948E-10 2.35923E-09
 -1       344-1.09340E+06-1.87218E+05-9.01082E+03-4.53418E+05-3.56522E-10 2.62548E-09
 -1       345-1.10494E+06-1.73802E+05-4.11014E+03-4.39007E+05-5.38876E-10 3.41311E-09
 -1       346-1.09249E+06-1.86493E+05-2.12180E+03-4.53466E+05-5.95719E-10 2.24460E-09
 -1       347-1.10506E+06-1.73826E+05-1.20638E+03-4.39012E+05-1.24112E-09-2.44222E-09
 -1       348-1.09241E+06-1.86459E+05-1.07136E+03-4.53467E+05 4.20130E-09 1.59775E-09
 -1       349-1.10504E+06-1.73832E+05-1.49718E+03-4.39015E+05 2.82080E-09 1.95132E-09
 -1       350-1.09255E+06-1.86493E+05-2.89086E+03-4.53436E+05-4.76939E-09-3.51406E-09
 -1       351-1.10486E+06-1.73804E+05-5.74556E+03-4.39012E+05-2.91675E-09-4.69845E-09
 -1       352-1.09383E+06-1.87516E+05-1.26722E+04-4.53370E+05 1.17097E-09-2.69210E-09
 -1       353-1.10373E+06-1.73545E+05-2.50974E+04-4.38749E+05-2.34195E-10-9.07676E-10
 -1       354-1.11061E+06-2.06409E+05-6.14614E+04-4.51882E+05 4.57476E-10 8.51287E-10
 -1       355-1.09036E+06-1.72186E+05-1.09308E+05-4.33921E+05 1.00590E-09-1.35697E-09
 -1       356 1.86257E+05 1.05033E+03 2.68829E+04-1.19550E+04 3.31966E-10 1.01591E-09
 -1       357 1.93797E+05 4.40198E+03 1.53581E+04-1.96731E+04-8.84256E-10 1.01954E-09
 -1       358 1.89587E+05-5.05642E+01 6.70799E+03-1.18619E+04-5.83896E-10 4.04225E-09
 -1       359 1.90182E+05 1.98924E+02 3.46603E+03-1.97627E+04 6.23004E-10 3.25826E-10
 -1       360 1.89825E+05-3.05095E+01 1.60072E+03-1.18621E+04 5.34328E-10-4.28417E-09
 -1       361 1.89885E+05 1.74303E+00 7.04127E+02-1.97607E+04-8.74252E-11-5.45651E-09
 -1       362 1.89854E+05-4.32168E+00 1.19661E+02-1.18639E+04 6.32213E-10 1.39630E-09
 -1       363 1.89821E+05-5.49744E-01-3.94849E+02-1.97583E+04-3.00787E-10-1.22350E-09
 -1       364 1.89876E+05 1.67079E+01-1.09108E+03-1.18645E+04 9.87370E-11-1.80262E-09
 -1       365 1.89709E+05-2.12229E+01-2.39770E+03-1.97591E+04 6.57337E-10 1.23919E-09
 -1       366 1.89970E+05 6.59708E+01-4.77861E+03-1.18632E+04-6.40512E-10-2.41471E-10
 -1       367 1.88921E+05-6.14663E+02-1.00328E+04-1.97595E+04-1.32172E-09-1.69621E-09
 -1       368 1.90687E+05 9.05712E+01-1.92880E+04-1.18643E+04 4.00178E-10-3.35604E-10
 -1       369 1.78643E+05-1.27056E+04-4.40601E+04-1.96829E+04-1.26579E-09-2.59752E-09
 -1       370 2.00301E+05-3.10389E+03-7.70850E+04-1.19322E+04 6.82576E-10 3.52884E-10
 -1       371 2.07220E+02-5.33353E+04 3.46593E+03-1.52568E+05 3.38878E-09 9.89530E-10
 -1       372 1.33427E+03-5.28229E+04 2.27991E+03-2.52611E+05 9.30413E-09 3.61615E-09
 -1       373 4.99106E+02-5.34528E+04 1.40000E+03-1.52086E+05 5.28871E-09 3.12775E-09
 -1       374 1.26373E+03-5.33159E+04 1.67169E+03-2.52750E+05 1.01263E-08-1.47543E-09
 -1       375 4.27819E+02-5.34897E+04 2.22672E+03-1.52427E+05 4.76439E-09 2.93039E-09
 -1       376-2.91103E+05-5.95693E+04-2.40352E+04-1.33934E+05-6.11635E-10 9.24047E-10
 -1       377-2.85910E+05-7.66997E+04-1.35100E+04-1.48922E+05-1.02773E-09 3.07637E-10
 -1       378-2.94126E+05-5.97810E+04-5.52865E+03-1.34940E+05 3.53248E-09 4.37285E-09
 -1       379-2.82195E+05-7.26022E+04-2.80799E+03-1.49334E+05 1.50067E-10-1.06228E-09
 -1       380-2.94378E+05-5.98354E+04-1.31063E+03-1.35007E+05-1.32491E-09-1.34173E-09
 -1       381-2.81928E+05-7.23684E+04-7.39274E+02-1.49338E+05 6.46995E-10 3.80669E-09
 -1       382-2.94397E+05-5.98515E+04-5.44573E+02-1.35010E+05 3.06954E-10 1.87583E-10
 -1       383-2.81903E+05-7.23582E+04-6.98250E+02-1.49315E+05-2.61934E-10-3.43607E-09
 -1       384-2.94358E+05-5.98643E+04-1.22346E+03-1.35001E+05 1.13232E-10-5.83896E-10
 -1       385-2.81991E+05-7.24170E+04-2.52889E+03-1.49286E+05 3.41970E-10-2.05819E-09
 -1       386-2.94187E+05-5.98343E+04-5.11878E+03-1.34967E+05 3.34694E-10 4.11092E-10
 -1       387-2.83068E+05-7.33808E+04-1.13196E+04-1.49249E+05 3.26327E-09-4.00360E-09
 -1       388-2.93179E+05-5.95969E+04-2.24432E+04-1.34689E+05-8.05812E-10-1.63527E-09
 -1       389-2.97980E+05-9.02769E+04-5.49189E+04-1.47917E+05 5.04770E-10-2.59024E-09
 -1       390-2.81198E+05-5.84119E+04-9.76916E+04-1.30340E+05-1.27807E-09 4.14730E-10
 -1       406 1.67530E+04 1.58314E+06 6.37650E+04 7.69713E+04-1.35697E-09 3.05226E-09
 -1       407 7.54215E+03 1.59744E+06 4.15194E+04 1.00897E+05-1.64891E-09-2.10366E-09
 -1       408 5.42469E+02 1.58870E+06 3.43634E+04 7.71041E+04-3.43925E-09-2.72485E-09
 -1       409 1.06392E+04 1.60066E+06 5.26497E+04 1.00321E+05-3.45221E-09-1.93540E-09
 -1       410 2.40930E+04 1.58075E+06 8.95139E+04 7.76152E+04-4.93310E-09 2.72485E-09
 -1       466 9.08723E+05 3.09581E+03 8.64226E+04-5.36944E+04-1.14596E-10 1.88811E-09
 -1       467 9.33054E+05 1.39656E+04 4.94389E+04-8.86608E+04 1.54614E-11-1.49066E-09
 -1       468 9.19228E+05-2.86101E+02 2.16379E+04-5.33789E+04 1.94632E-10-5.82077E-10
 -1       469 9.21108E+05 6.06372E+02 1.13304E+04-8.88852E+04-1.16415E-10 1.24146E-09
 -1       470 9.19843E+05-1.09756E+02 5.49315E+03-5.34413E+04 2.36469E-11 1.49794E-09
 -1       471 9.19994E+05 6.48858E+01 2.98192E+03-8.87879E+04 3.01043E-10-1.07821E-09
 -1       472 9.19849E+05 1.07842E+01 1.78816E+03-5.34777E+04-7.27596E-12 1.59253E-09
 -1       473 9.19838E+05 7.62522E+01 1.59142E+03-8.87541E+04 6.13909E-11 9.01764E-10
 -1       474 9.19849E+05 7.94000E-01 2.11210E+03-5.34753E+04-2.81034E-10 1.63482E-09
 -1       475 9.20060E+05 6.12195E+01 3.81347E+03-8.87999E+04-7.26232E-10 8.43556E-10
 -1       476 9.19820E+05-1.48726E+02 7.20147E+03-5.34315E+04 6.00267E-10 1.27028E-09
 -1       477 9.21484E+05 8.04444E+02 1.49491E+04-8.89048E+04 2.07638E-09 7.57524E-10
 -1       478 9.18960E+05-3.45608E+02 2.86045E+04-5.33684E+04-1.09139E-10-3.48336E-10
 -1       479 9.37171E+05 1.85190E+04 6.53642E+04-8.86683E+04-2.69574E-09-1.04410E-09
 -1       480 9.05002E+05 4.18967E+03 1.14306E+05-5.37091E+04-1.33514E-09-2.37196E-09
 -1       481 1.37362E+03 3.14900E+05 2.92422E+04-7.28508E+04 6.54836E-11-4.68845E-10
 -1       482 5.24855E+03 3.22890E+05 1.77420E+04-1.20465E+05-8.20819E-11 3.08285E-09
 -1       483 1.96120E+02 3.18352E+05 9.81590E+03-7.27159E+04 1.59162E-12 2.88310E-09
 -1       484 2.42730E+03 3.20632E+05 9.83112E+03-1.20379E+05-3.91083E-11 1.68075E-09
 -1       485 5.55627E+02 3.17385E+05 1.23717E+04-7.29432E+04 1.66210E-10 1.23691E-10
 -1       486-8.52321E+05-1.40904E+05-9.32997E+04-3.47453E+05-1.58252E-10-1.65164E-09
 -1       487-8.66534E+05-1.73087E+05-5.24461E+04-3.66219E+05-2.00089E-11-8.98581E-10
 -1       488-8.63806E+05-1.41981E+05-2.14315E+04-3.51538E+05-2.39197E-10-5.87534E-10
 -1       489-8.52211E+05-1.57020E+05-1.08181E+04-3.67592E+05 1.27329E-10-1.74418E-09
 -1       490-8.64804E+05-1.42177E+05-4.91747E+03-3.51770E+05-3.45608E-11-2.89674E-10
 -1       491-8.51141E+05-1.56150E+05-2.48335E+03-3.67689E+05 4.54293E-10 6.23004E-10
 -1       492-8.64973E+05-1.42180E+05-1.31252E+03-3.51776E+05-1.94177E-10-1.53790E-10
 -1       493-8.51040E+05-1.56126E+05-9.85723E+02-3.67745E+05-3.63798E-11-3.79430E-10
 -1       494-8.65001E+05-1.42161E+05-1.17632E+03-3.51773E+05 3.01156E-10 7.78755E-10
 -1       495-8.51124E+05-1.56170E+05-2.12896E+03-3.67768E+05 5.04258E-10 1.37879E-09
 -1       496-8.64895E+05-1.42124E+05-4.15601E+03-3.51762E+05-1.60526E-10 2.32831E-10
 -1       497-8.52031E+05-1.56923E+05-9.13222E+03-3.67746E+05-8.89031E-11-4.32010E-10
 -1       498-8.64085E+05-1.41934E+05-1.80700E+04-3.51563E+05-3.13776E-10-8.54925E-11
 -1       499-8.64097E+05-1.70508E+05-4.42388E+04-3.66650E+05-1.78261E-10-3.89264E-10
 -1       500-8.54428E+05-1.40995E+05-7.86882E+04-3.48102E+05 1.76215E-11-7.63976E-10
 -1       501 5.52210E+05 2.67357E+03 7.98404E+04-6.16007E+04 1.38971E-09 1.66074E-09
 -1       502 5.74799E+05 1.28149E+04 4.56975E+04-1.01382E+05 2.54659E-10-4.02360E-09
 -1       503 5.61792E+05-3.43261E+02 1.99711E+04-6.11651E+04 1.10958E-10-7.65795E-10
 -1       504 5.63551E+05 5.52883E+02 1.04646E+04-1.01747E+05 6.76664E-10 1.85901E-09
 -1       505 5.62264E+05-1.03776E+02 5.05543E+03-6.12071E+04 9.49512E-10 8.34916E-10
 -1       506 5.62386E+05 1.21027E+02 2.73480E+03-1.01674E+05 5.60249E-10-2.18279E-09
 -1       507 5.62211E+05 5.55763E+01 1.60852E+03-6.12398E+04 7.46240E-10-7.62611E-10
 -1       508 5.62168E+05 1.68819E+02 1.38533E+03-1.01637E+05 7.26061E-10 4.61569E-10
 -1       509 5.62189E+05 6.71522E+01 1.78129E+03-6.12438E+04 6.62112E-10 7.91260E-10
 -1       510 5.62349E+05 1.56935E+02 3.17144E+03-1.01657E+05 8.61746E-10 1.67256E-09
 -1       511 5.62188E+05-7.36128E+01 5.95899E+03-6.12197E+04 9.07676E-10 1.80989E-10
 -1       512 5.63602E+05 7.32343E+02 1.23606E+04-1.01715E+05 1.64891E-09-7.01220E-10
 -1       513 5.61546E+05-2.89774E+02 2.36317E+04-6.11848E+04 2.91038E-11 7.05768E-10
 -1       514 5.76731E+05 1.53073E+04 5.40316E+04-1.01368E+05-7.63976E-10 2.28329E-09
 -1       515 5.50118E+05 3.36339E+03 9.44503E+04-6.15950E+04-3.20142E-10 1.34605E-09
 -1       516 2.40787E+03 1.79049E+05 4.51476E+04-1.89614E+05 9.36780E-10 1.08594E-09
 -1       517 8.97977E+03 1.90959E+05 2.88293E+04-3.14144E+05-3.96540E-10 3.21870E-09
 -1       518 7.54197E+02 1.83990E+05 1.85272E+04-1.89230E+05 6.86668E-10 3.60887E-09
 -1       519 6.72901E+03 1.89927E+05 2.32425E+04-3.13936E+05 4.18368E-10 9.89530E-10
 -1       520 1.33010E+03 1.81412E+05 3.31299E+04-1.89835E+05 6.08907E-10-1.20781E-09
 -1       521-1.53302E+06-2.48757E+05-1.39318E+05-6.18701E+05 2.98769E-10-2.40107E-09
 -1       522-1.55306E+06-2.97921E+05-7.83063E+04-6.47990E+05 7.00311E-11 2.61025E-10
 -1       523-1.55027E+06-2.50275E+05-3.19966E+04-6.24752E+05 3.09228E-11 1.39516E-09
 -1       524-1.53164E+06-2.74006E+05-1.61457E+04-6.50243E+05-8.00355E-11 2.26100E-09
 -1       525-1.55185E+06-2.50486E+05-7.33833E+03-6.25068E+05 3.03771E-10 1.78170E-09
 -1       526-1.53002E+06-2.72753E+05-3.70462E+03-6.50504E+05 9.54060E-10 8.42306E-10
 -1       527-1.55215E+06-2.50458E+05-1.96112E+03-6.25065E+05-8.38099E-10-1.93194E-09
 -1       528-1.52986E+06-2.72730E+05-1.48047E+03-6.50614E+05-1.75123E-09-1.47065E-09
 -1       529-1.55217E+06-2.50437E+05-1.78091E+03-6.25060E+05-7.38964E-11 5.91172E-11
 -1       530-1.52999E+06-2.72774E+05-3.23476E+03-6.50587E+05 4.42697E-10-2.49202E-10
 -1       531-1.55195E+06-2.50435E+05-6.33103E+03-6.25056E+05 9.95897E-10 6.20275E-10
 -1       532-1.53139E+06-2.73868E+05-1.39078E+04-6.50403E+05 1.09821E-09 1.23464E-09
 -1       533-1.55061E+06-2.50240E+05-2.75378E+04-6.24781E+05-1.08230E-10-1.25510E-09
 -1       534-1.54984E+06-2.94451E+05-6.74076E+04-6.48464E+05 1.65528E-10-2.81943E-10
 -1       535-1.53574E+06-2.48951E+05-1.19921E+05-6.19590E+05 4.88399E-10 1.20781E-09
 -1       536 7.81795E+05 4.42163E+03 1.17123E+05-4.52914E+04 2.07365E-10-4.36557E-10
 -1       537 8.14708E+05 1.90717E+04 6.69577E+04-7.46456E+04-1.61981E-09 1.27147E-09
 -1       538 7.96170E+05-2.89644E+02 2.93109E+04-4.49863E+04-7.09406E-11-8.82210E-10
 -1       539 7.98763E+05 8.65674E+02 1.53096E+04-7.48708E+04-7.85803E-10 8.64929E-10
 -1       540 7.97107E+05-1.32368E+02 7.37412E+03-4.50318E+04 1.21872E-10-8.73115E-11
 -1       541 7.97375E+05 6.77248E+01 3.89439E+03-7.47926E+04 8.74934E-10-4.57021E-10
 -1       542 7.97163E+05 1.69900E-01 2.14320E+03-4.50661E+04-8.04903E-10 3.84716E-10
 -1       543 7.97165E+05 7.29414E+01 1.58993E+03-7.47546E+04-5.80258E-10-9.09495E-10
 -1       544 7.97161E+05 1.38677E+01 1.75686E+03-4.50702E+04 8.02174E-10 2.55591E-09
 -1       545 7.97288E+05 7.60788E+01 2.90188E+03-7.47745E+04-5.96629E-10 4.32465E-09
 -1       546 7.97127E+05-8.05181E+01 5.33576E+03-4.50461E+04 3.63798E-12 8.77662E-11
 -1       547 7.98300E+05 6.37100E+02 1.09897E+04-7.48392E+04 9.96806E-10-8.23320E-10
 -1       548 7.96479E+05-2.09642E+02 2.09954E+04-4.50044E+04-1.41881E-10 1.43973E-09
 -1       549 8.09769E+05 1.36461E+04 4.79441E+04-7.46310E+04-4.67480E-10 3.31966E-11
 -1       550 7.86221E+05 3.12907E+03 8.38340E+04-4.52748E+04-1.41335E-09 2.55386E-09
 -1       551 1.16148E+04-5.87538E+04 3.84763E+04-4.07395E+05 1.65528E-09-2.32103E-09
 -1       552 7.27405E+03-5.13833E+04 2.43654E+04-5.28447E+05-3.49246E-10 3.05499E-09
 -1       553 2.43153E+03-5.64967E+04 1.87154E+04-4.06594E+05 2.17187E-09 2.60934E-09
 -1       554 7.96838E+03-5.05987E+04 2.69338E+04-5.28399E+05-5.85715E-10 1.15415E-09
 -1       555 1.32681E+04-5.92437E+04 4.44122E+04-4.07443E+05 1.68529E-09-2.89583E-09
 -1       556-1.11233E+06-2.40094E+05-8.73783E+04-4.95464E+05-2.16096E-09-9.16771E-10
 -1       557-1.11135E+06-2.52732E+05-4.51046E+04-5.27312E+05 7.27596E-11-1.10413E-09
 -1       558-1.11892E+06-2.22306E+05-1.90934E+04-5.05330E+05-2.47383E-10 3.50155E-10
 -1       559-1.10070E+06-2.41956E+05-9.40488E+03-5.28336E+05 1.46247E-09 9.92759E-09
 -1       560-1.11969E+06-2.21785E+05-4.35262E+03-5.05770E+05-4.54747E-11 2.22747E-09
 -1       561-1.10013E+06-2.41540E+05-2.20648E+03-5.28426E+05-3.17868E-10 3.15197E-09
 -1       562-1.11988E+06-2.21779E+05-1.21679E+03-5.05819E+05 2.24645E-10 1.09503E-09
 -1       563-1.10011E+06-2.41524E+05-9.99920E+02-5.28456E+05-3.70619E-10-4.24188E-09
 -1       564-1.11987E+06-2.21782E+05-1.31597E+03-5.05815E+05 3.72438E-10-1.17416E-09
 -1       565-1.10013E+06-2.41542E+05-2.46838E+03-5.28411E+05-1.88402E-09-2.88219E-09
 -1       566-1.11965E+06-2.21792E+05-4.91286E+03-5.05760E+05-5.85715E-10-8.58563E-10
 -1       567-1.10078E+06-2.42015E+05-1.06366E+04-5.28319E+05-2.21917E-09-8.17090E-09
 -1       568-1.11879E+06-2.22364E+05-2.15974E+04-5.05261E+05-9.27685E-11-6.89397E-10
 -1       569-1.11282E+06-2.54253E+05-5.10376E+04-5.27232E+05-2.18279E-10 7.89441E-10
 -1       570-1.11139E+06-2.42426E+05-9.88479E+04-4.94065E+05 8.80391E-10-6.91216E-11
 -1       571 8.05243E+05 2.49475E+04 8.92381E+04-8.71922E+04 9.29504E-10 6.12999E-10
 -1       572 8.25060E+05 1.09013E+04 4.71639E+04-1.12507E+05-1.20872E-09 1.13960E-09
 -1       573 8.13849E+05 3.54428E+02 2.11938E+04-8.67276E+04-6.49379E-10 5.71163E-10
 -1       574 8.15290E+05 2.21521E+02 1.08631E+04-1.12935E+05-3.41970E-10-1.78261E-09
 -1       575 8.14308E+05-1.56574E+02 5.25073E+03-8.67173E+04 2.72848E-10-3.15049E-09
 -1       576 8.14440E+05-2.50951E+01 2.69162E+03-1.12943E+05-4.07454E-10 1.80080E-10
 -1       577 8.14339E+05-3.32348E+01 1.34413E+03-8.67213E+04 1.74310E-10 1.61890E-09
 -1       578 8.14342E+05-5.34037E+00 7.38899E+02-1.12946E+05 9.70886E-11 2.63208E-09
 -1       579 8.14415E+05-4.49657E+01 4.59904E+02-8.67144E+04 1.16415E-10 1.74623E-10
 -1       580 8.14481E+05-8.15147E+01 4.42577E+02-1.12971E+05 5.60249E-10 2.14277E-09
 -1       581 8.14583E+05-1.64321E+02 6.05151E+02-8.66962E+04-1.32786E-09-1.33969E-09
 -1       582 8.14848E+05-2.11090E+02 1.15267E+03-1.12979E+05-6.45741E-10 3.99268E-09
 -1       583 8.14805E+05-2.94277E+02 2.16003E+03-8.67051E+04-1.81899E-10 1.52841E-09
 -1       584 8.16281E+05 6.74832E+02 4.84726E+03-1.12443E+05-4.07636E-09 2.59570E-09
 -1       585 8.14262E+05 2.01423E+03 9.09666E+03-8.72378E+04 2.49565E-09 1.38243E-09
 -1       586 4.94675E+03 7.00649E+04 1.61187E+04-3.64564E+05-4.74756E-10-8.44011E-10
 -1       587 3.96064E+03 7.25623E+04 1.20476E+04-4.72553E+05 4.48199E-09 2.77214E-09
 -1       588 1.95406E+03 7.00164E+04 1.21970E+04-3.63737E+05-5.78439E-10-2.36469E-11
 -1       589 6.92027E+03 7.45472E+04 2.13917E+04-4.72727E+05 4.69663E-09-2.72848E-11
 -1       590 1.17739E+04 6.70502E+04 3.78108E+04-3.64373E+05 6.00267E-11-2.65936E-09
 -1       591-7.36642E+05-1.69468E+05-7.78466E+04-3.34734E+05 1.06741E-09-7.85803E-10
 -1       592-7.38154E+05-1.78470E+05-4.02041E+04-3.60452E+05 1.50976E-10 2.07046E-09
 -1       593-7.42288E+05-1.53794E+05-1.70043E+04-3.43581E+05-9.85892E-10 1.09139E-11
 -1       594-7.28643E+05-1.68776E+05-8.38748E+03-3.61088E+05-4.77485E-10 1.44905E-09
 -1       595-7.42845E+05-1.53423E+05-3.88337E+03-3.43935E+05-7.35781E-10 4.06408E-09
 -1       596-7.28058E+05-1.68416E+05-1.98726E+03-3.61047E+05-1.27511E-09 1.37425E-09
 -1       597-7.42930E+05-1.53473E+05-1.12439E+03-3.43944E+05 6.53358E-10-1.41563E-09
 -1       598-7.27984E+05-1.68417E+05-9.76874E+02-3.61006E+05 4.71800E-09-7.91260E-10
 -1       599-7.42872E+05-1.53500E+05-1.34697E+03-3.43921E+05-2.80124E-10-8.08541E-10
 -1       600-7.27997E+05-1.68444E+05-2.56673E+03-3.60950E+05 6.13909E-11 2.09184E-10
 -1       601-7.42656E+05-1.53495E+05-5.12423E+03-3.43864E+05-1.83172E-09 2.60115E-09
 -1       602-7.28701E+05-1.68937E+05-1.11020E+04-3.60911E+05-2.01817E-09 1.58252E-09
 -1       603-7.41842E+05-1.54041E+05-2.25349E+04-3.43367E+05 3.44517E-09-2.00271E-09
 -1       604-7.41269E+05-1.81751E+05-5.32498E+04-3.59962E+05 4.08090E-09-3.72529E-09
 -1       605-7.34300E+05-1.74817E+05-1.03109E+05-3.31634E+05 6.75573E-09-3.91447E-09
 -1       606 2.83331E+05-1.26169E+04-4.46577E+04 5.52525E+04-1.37297E-08 2.58450E-09
 -1       607 2.73314E+05-5.40244E+03-2.35783E+04 7.05849E+04-4.01633E-09 5.98448E-10
 -1       608 2.78708E+05-1.35053E+02-1.06249E+04 5.47853E+04 1.22272E-08 4.01087E-10
 -1       609 2.77789E+05 1.39908E+02-5.42305E+03 7.10465E+04-4.42742E-09 7.82165E-11
 -1       610 2.78227E+05 2.93332E+02-2.62147E+03 5.47628E+04-1.69111E-08 1.04728E-09
 -1       611 2.77949E+05 4.09885E+02-1.30172E+03 7.10591E+04-3.21743E-08 4.12138E-09
 -1       612 2.78057E+05 3.35489E+02-5.93284E+02 5.47686E+04-1.61963E-08-5.95719E-11
 -1       613 2.77869E+05 4.72497E+02-1.93567E+02 7.10480E+04-2.14823E-08 2.28283E-09
 -1       614 2.77961E+05 3.69808E+02 1.06786E+02 5.47721E+04-4.42924E-09 1.34969E-09
 -1       615 2.77823E+05 5.06996E+02 4.73527E+02 7.10401E+04 1.73391E-08 3.50065E-09
 -1       616 2.77902E+05 3.74551E+02 1.04964E+03 5.47756E+04-9.58721E-09 3.76986E-10
 -1       617 2.77950E+05 5.86024E+02 2.23667E+03 7.10256E+04-3.02646E-09 8.45830E-10
 -1       618 2.77776E+05 5.00457E+02 4.39515E+03 5.47856E+04 3.63798E-12 3.46654E-09
 -1       619 2.79955E+05 2.81738E+03 9.79419E+03 7.08512E+04 2.02454E-09 3.68891E-09
 -1       620 2.75979E+05 5.61221E+03 1.85361E+04 5.49251E+04 8.22001E-09 3.66254E-09
 -1       621 9.92461E+03 1.05542E+06 3.76475E+04-1.22037E+05-6.01722E-09 1.64346E-09
 -1       622 5.18398E+03 1.06352E+06 2.77873E+04-1.57502E+05-5.80076E-09 4.09455E-09
 -1       623 1.22107E+03 1.05801E+06 2.83195E+04-1.21778E+05-7.68159E-09 2.42790E-09
 -1       624 1.16852E+04 1.06911E+06 4.97778E+04-1.57587E+05-6.44104E-09 1.28011E-09
 -1       625 2.51426E+04 1.04963E+06 8.86041E+04-1.21906E+05-6.70479E-09-1.25237E-09
 -1       626 4.82296E+05 1.08773E+05-1.23745E+04 2.40028E+05-9.55879E-09 2.40107E-09
 -1       627 4.67529E+05 1.21907E+05-6.37183E+03 2.52372E+05-5.45697E-09-3.78577E-11
 -1       628 4.81584E+05 1.10991E+05-2.71513E+03 2.38137E+05 1.26856E-08 1.21190E-09
 -1       629 4.68491E+05 1.23865E+05-1.31563E+03 2.52545E+05-9.22591E-09-5.85385E-09
 -1       630 4.81382E+05 1.11119E+05-5.90512E+02 2.37986E+05-1.55815E-08-6.92376E-09
 -1       631 4.68441E+05 1.23979E+05-2.31859E+02 2.52456E+05-1.85819E-08 2.32467E-09
 -1       632 4.81266E+05 1.11171E+05-5.46649E+00 2.37933E+05-1.53086E-08 9.55708E-10
 -1       633 4.68386E+05 1.24004E+05 2.26353E+02 2.52388E+05 1.82808E-09 4.08727E-09
 -1       634 4.81197E+05 1.11187E+05 5.68835E+02 2.37907E+05 2.30466E-08 2.08729E-09
 -1       635 4.68412E+05 1.24015E+05 1.27604E+03 2.52380E+05 6.43524E-09 7.07723E-09
 -1       636 4.81138E+05 1.11145E+05 2.63491E+03 2.37903E+05-1.10878E-08-2.14641E-10
 -1       637 4.68870E+05 1.24247E+05 5.76801E+03 2.52464E+05 6.39079E-09-7.79437E-10
 -1       638 4.80846E+05 1.11333E+05 1.17066E+04 2.37703E+05 2.81079E-09-3.06136E-09
 -1       639 4.75587E+05 1.30861E+05 2.77016E+04 2.52148E+05-2.11949E-08-3.49974E-09
 -1       640 4.77123E+05 1.22042E+05 5.36233E+04 2.31682E+05-4.79122E-09 8.80937E-09
 -1       641 1.13833E+04-2.94837E+02-8.01225E+03 3.75865E+03-1.43307E-08 2.07956E-09
 -1       642 9.11667E+03-1.27604E+03-4.57759E+03 6.18696E+03-9.89988E-09-3.20961E-09
 -1       643 1.03862E+04 3.64725E+01-2.00144E+03 3.74046E+03-8.03911E-09-7.43853E-10
 -1       644 1.01866E+04-1.99425E+01-1.03671E+03 6.20058E+03-4.41103E-09-2.77481E-09
 -1       645 1.03124E+04 3.30839E+01-4.85027E+02 3.73958E+03-6.02853E-10-4.89189E-09
 -1       646 1.02708E+04 4.08940E+01-2.25759E+02 6.20138E+03-2.85311E-08-3.61378E-09
 -1       647 1.03029E+04 2.67217E+01-6.73978E+01 3.73948E+03 1.20756E-08-1.03654E-09
 -1       648 1.02871E+04 4.20851E+01 5.29542E+01 6.20169E+03 3.33253E-08-7.76453E-10
 -1       649 1.02986E+04 2.16061E+01 1.97321E+02 3.73930E+03 1.76221E-08-1.63260E-09
 -1       650 1.03115E+04 4.47688E+01 4.52661E+02 6.20165E+03 2.26366E-08-2.63907E-09
 -1       651 1.02826E+04 1.04365E+01 9.10113E+02 3.73955E+03-7.32780E-09 5.74744E-10
 -1       652 1.04671E+04 1.55793E+02 1.91615E+03 6.19986E+03-1.36062E-08-1.20360E-09
 -1       653 1.01490E+04 3.01343E+00 3.68527E+03 3.74075E+03 1.56035E-08-1.03228E-10
 -1       654 1.24396E+04 2.46382E+03 8.42203E+03 6.15534E+03-1.56141E-08-1.25306E-09
 -1       655 8.31795E+03 6.10872E+02 1.47381E+04 3.77499E+03-7.63634E-09-9.53150E-10
 -1       656-2.25051E+03-3.30243E+05-4.30498E+04 8.35245E+04-3.82715E-09 1.12777E-09
 -1       657-7.89455E+03-3.42027E+05-2.78475E+04 1.37600E+05 2.10548E-09 1.77897E-09
 -1       658-3.64421E+02-3.35262E+05-1.87893E+04 8.32483E+04 5.16184E-09 1.56024E-09
 -1       659-6.79580E+03-3.41310E+05-2.49200E+04 1.37747E+05-2.31739E-09 1.90050E-09
 -1       660-1.84167E+03-3.31294E+05-3.67877E+04 8.33874E+04-8.29459E-10-3.41970E-09
 -1       661 2.66357E+05 4.06028E+04 1.96256E+04 1.04040E+05 1.76324E-08-4.15184E-09
 -1       662 2.70546E+05 4.61843E+04 1.10345E+04 1.06611E+05 2.24979E-08 4.68515E-09
 -1       663 2.68710E+05 4.08852E+04 4.50969E+03 1.04948E+05 2.27087E-08 6.25460E-09
 -1       664 2.67567E+05 4.27597E+04 2.28380E+03 1.06817E+05-7.15505E-09-2.58264E-09
 -1       665 2.68897E+05 4.09468E+04 1.04600E+03 1.05002E+05-5.21140E-10-8.25344E-09
 -1       666 2.67342E+05 4.25672E+04 5.49863E+02 1.06808E+05 3.15299E-09-3.06196E-09
 -1       667 2.68920E+05 4.09574E+04 3.30025E+02 1.05004E+05 2.02600E-08 4.94236E-09
 -1       668 2.67322E+05 4.25608E+04 3.24076E+02 1.06810E+05-3.03077E-08-3.34001E-09
 -1       669 2.68919E+05 4.09515E+04 4.85158E+02 1.05002E+05-1.96451E-08-5.67036E-09
 -1       670 2.67363E+05 4.25850E+04 9.62455E+02 1.06827E+05 2.23090E-08 1.96042E-09
 -1       671 2.68882E+05 4.09225E+04 1.92145E+03 1.04993E+05-8.79436E-09 1.20281E-09
 -1       672 2.67780E+05 4.29520E+04 4.24646E+03 1.06859E+05-2.29397E-09-5.82645E-09
 -1       673 2.68538E+05 4.08014E+04 8.40631E+03 1.04890E+05 7.24515E-09-3.56295E-09
 -1       674 2.73362E+05 4.93238E+04 2.05848E+04 1.06457E+05 2.67124E-08 1.94632E-10
 -1       675 2.64127E+05 4.02957E+04 3.66156E+04 1.03223E+05 2.48731E-08 1.49703E-09
 -1       676-6.45845E+02-2.98228E+05-1.60767E+04 8.64381E+03-5.44969E-09-9.47693E-10
 -1       677-2.73479E+03-3.02677E+05-1.10691E+04 1.36696E+04-4.24956E-09-6.22913E-09
 -1       678-6.51346E+00-2.99930E+05-8.63634E+03 8.60626E+03-3.01145E-09 4.00337E-09
 -1       679-3.47578E+03-3.03316E+05-1.31887E+04 1.37165E+04-1.14323E-08-5.74562E-09
 -1       680-8.33592E+02-2.97599E+05-2.05897E+04 8.59467E+03 4.13183E-09 1.00744E-09
 -1       681 4.46839E+05 7.78483E+02 2.36033E+04-3.15732E+04 1.49157E-10-9.89530E-10
 -1       682 4.53505E+05 3.76458E+03 1.35136E+04-5.20337E+04-7.09406E-11-1.28830E-09
 -1       683 4.49681E+05-1.17548E+02 5.91088E+03-3.13526E+04-6.18456E-11 1.26875E-10
 -1       684 4.50190E+05 1.33857E+02 3.10730E+03-5.22326E+04-9.59517E-11-4.72482E-10
 -1       685 4.49824E+05-5.01393E+01 1.52154E+03-3.13686E+04-1.65528E-10-2.89219E-10
 -1       686 4.49851E+05 4.14644E+00 8.64421E+02-5.22033E+04 1.33468E-10 7.24413E-10
 -1       687 4.49806E+05-4.53019E+00 5.86089E+02-3.13822E+04-1.17325E-10 7.98764E-10
 -1       688 4.49791E+05 1.92979E+01 6.36244E+02-5.21863E+04-2.60457E-10 6.90989E-10
 -1       689 4.49790E+05-3.77032E+00 9.73694E+02-3.13857E+04-4.12683E-11 3.51292E-10
 -1       690 4.49875E+05 2.82711E+01 1.85432E+03-5.21912E+04 1.09139E-11-2.81489E-10
 -1       691 4.49749E+05-5.84531E+01 3.56020E+03-3.13771E+04 6.32099E-11-9.75888E-10
 -1       692 4.50528E+05 4.26723E+02 7.41273E+03-5.22082E+04-1.35969E-10 4.27605E-11
 -1       693 4.49282E+05-1.24819E+02 1.42072E+04-3.13682E+04-1.63709E-10-2.26464E-10
 -1       694 4.58236E+05 9.26541E+03 3.24572E+04-5.20258E+04-7.16682E-10-9.36552E-10
 -1       695 4.42301E+05 2.16170E+03 5.67727E+04-3.15701E+04-4.56566E-10-7.71252E-10
 -1       696 1.50097E+03 5.46126E+05 3.28670E+04-6.77968E+04 2.01908E-10-1.06957E-09
 -1       697 5.73920E+03 5.55153E+05 1.78022E+04-1.11847E+05 1.72577E-10-9.73159E-10
 -1       698 1.68328E+02 5.50320E+05 5.79003E+03-6.76487E+04-2.82739E-10 1.74452E-09
 -1       699-1.04981E+03 5.49397E+05-1.54080E+03-1.11827E+05-4.13820E-10 1.62004E-09
 -1       700-2.92398E+02 5.51954E+05-8.33873E+03-6.78256E+04-2.33740E-10 1.57979E-09
 -1       701-4.14339E+05-7.10504E+04-6.34311E+04-1.72311E+05-1.28239E-10-1.80080E-09
 -1       702-4.24910E+05-9.20562E+04-3.56589E+04-1.84080E+05-3.03316E-10-2.76486E-10
 -1       703-4.22111E+05-7.18111E+04-1.45721E+04-1.75103E+05 6.09361E-11 8.31278E-10
 -1       704-4.15184E+05-8.11071E+04-7.35948E+03-1.84948E+05 1.36879E-10-1.52568E-10
 -1       705-4.22761E+05-7.19715E+04-3.34786E+03-1.75270E+05-9.18590E-11-8.54925E-11
 -1       706-4.14463E+05-8.04983E+04-1.69742E+03-1.84972E+05-4.91127E-11-2.09695E-10
 -1       707-4.22860E+05-7.19878E+04-9.08852E+02-1.75279E+05-9.45874E-11-5.01302E-10
 -1       708-4.14400E+05-8.04742E+04-7.03638E+02-1.84994E+05 6.54836E-11 2.06413E-11
 -1       709-4.22876E+05-7.19758E+04-8.67064E+02-1.75279E+05 1.48702E-10 3.64935E-10
 -1       710-4.14466E+05-8.05084E+04-1.59115E+03-1.85021E+05 4.80554E-10-2.29647E-10
 -1       711-4.22811E+05-7.19350E+04-3.11652E+03-1.75268E+05-8.51230E-11 9.89075E-11
 -1       712-4.15145E+05-8.10886E+04-6.85506E+03-1.85046E+05-1.19928E-09 2.97268E-09
 -1       713-4.22235E+05-7.17621E+04-1.35613E+04-1.75111E+05-1.19712E-10 4.64752E-10
 -1       714-4.24168E+05-9.13389E+04-3.32051E+04-1.84329E+05 8.13543E-10-4.00178E-11
 -1       715-4.15054E+05-7.09943E+04-5.90536E+04-1.72469E+05 1.24146E-10-1.12777E-10
 -1       716 3.74621E+05 1.79698E+03 5.01163E+04-4.51484E+04 5.38421E-10 5.71163E-10
 -1       717 3.88726E+05 8.14435E+03 2.86763E+04-7.42829E+04 1.60071E-10-1.51340E-09
 -1       718 3.80688E+05-1.40022E+02 1.25499E+04-4.48511E+04-2.11003E-10 5.37511E-10
 -1       719 3.81765E+05 4.06333E+02 6.57851E+03-7.45583E+04 2.61934E-10 2.86968E-09
 -1       720 3.81032E+05-2.85565E+01 3.20154E+03-4.48632E+04 6.99401E-10 7.77163E-10
 -1       721 3.81109E+05 9.69697E+01 1.76238E+03-7.45362E+04 4.48154E-10-1.62345E-10
 -1       722 3.81035E+05 4.06122E+01 1.10216E+03-4.48738E+04 9.46557E-10 2.70120E-10
 -1       723 3.81033E+05 9.80666E+01 1.05530E+03-7.45286E+04 7.16341E-10 1.20099E-09
 -1       724 3.81043E+05 2.23324E+01 1.48352E+03-4.48708E+04 3.66072E-10 6.73253E-10
 -1       725 3.81215E+05 7.80905E+01 2.74411E+03-7.45488E+04 1.10595E-09 2.97860E-10
 -1       726 3.81030E+05-9.40319E+01 5.21615E+03-4.48534E+04 3.54703E-11-8.36735E-11
 -1       727 3.82265E+05 6.11710E+02 1.08537E+04-7.45821E+04 3.07409E-10-8.37787E-10
 -1       728 3.80413E+05-2.42960E+02 2.07766E+04-4.48363E+04 1.52795E-10-1.29148E-10
 -1       729 3.93680E+05 1.34881E+04 4.75011E+04-7.42736E+04-6.53927E-10 4.92037E-10
 -1       730 3.70279E+05 3.03889E+03 8.30624E+04-4.51846E+04-3.67436E-10-2.74304E-09
 -1       731 1.50889E+03 1.93466E+05 3.27229E+04-1.14135E+05 5.62068E-10-3.25599E-10
 -1       732 5.89240E+03 2.02383E+05 1.90750E+04-1.89084E+05-1.48930E-10-1.14790E-09
 -1       733 2.32328E+02 1.97394E+05 9.03273E+03-1.13898E+05 2.76486E-10 8.06267E-10
 -1       734 1.32216E+03 1.98773E+05 6.30557E+03-1.88973E+05-6.09361E-11 1.34514E-09
 -1       735 1.57946E+02 1.97515E+05 5.48516E+03-1.14251E+05 2.27374E-10 5.43878E-10
 -1       736-8.78198E+05-1.37433E+05-8.05428E+04-3.47836E+05 4.22915E-11-1.73532E-09
 -1       737-8.93049E+05-1.62683E+05-4.52813E+04-3.61125E+05 3.59250E-10-1.32832E-09
 -1       738-8.88044E+05-1.38423E+05-1.84937E+04-3.51381E+05-1.11868E-10 3.15595E-10
 -1       739-8.80684E+05-1.48775E+05-9.33880E+03-3.62218E+05 5.09317E-10 6.82803E-10
 -1       740-8.88873E+05-1.38620E+05-4.23726E+03-3.51574E+05 2.93312E-10-2.85354E-10
 -1       741-8.79736E+05-1.48021E+05-2.13503E+03-3.62260E+05-1.52795E-10 1.62402E-10
 -1       742-8.89000E+05-1.38642E+05-1.11350E+03-3.51576E+05-2.00089E-11 1.30314E-10
 -1       743-8.79636E+05-1.47999E+05-8.09913E+02-3.62286E+05-5.11704E-10-1.39562E-09
 -1       744-8.89018E+05-1.38632E+05-9.30165E+02-3.51572E+05-1.50067E-11 3.10365E-10
 -1       745-8.79698E+05-1.48033E+05-1.65246E+03-3.62304E+05 4.27463E-11-5.39217E-10
 -1       746-8.88942E+05-1.38600E+05-3.20796E+03-3.51564E+05 8.44466E-10 4.22915E-10
 -1       747-8.80406E+05-1.48614E+05-7.04083E+03-3.62300E+05 6.71662E-10 6.29370E-10
 -1       748-8.88330E+05-1.38441E+05-1.39238E+04-3.51414E+05-3.81988E-11 3.79259E-10
 -1       749-8.89713E+05-1.59095E+05-3.40937E+04-3.61495E+05-2.94449E-10-1.73713E-10
 -1       750-8.80920E+05-1.37693E+05-6.06384E+04-3.48746E+05 1.75078E-11 1.81899E-10
 -1       751 9.09458E+05 5.16671E+03 1.35635E+05-4.98165E+04 4.36557E-11-1.04774E-09
 -1       752 9.47538E+05 2.21211E+04 7.75358E+04-8.21231E+04-1.55251E-09-1.20781E-09
 -1       753 9.26114E+05-3.02906E+02 3.39534E+04-4.95099E+04-1.69166E-10-1.00408E-09
 -1       754 9.29099E+05 1.03337E+03 1.77404E+04-8.23386E+04-6.51198E-10-1.80080E-09
 -1       755 9.27212E+05-1.31897E+02 8.56419E+03-4.95633E+04 3.64707E-10 6.53927E-10
 -1       756 9.27518E+05 9.60959E+01 4.55210E+03-8.22532E+04-1.56888E-10 1.21508E-09
 -1       757 9.27292E+05 7.39509E+00 2.56456E+03-4.95973E+04-7.77845E-10 3.31511E-10
 -1       758 9.27313E+05 8.55342E+01 2.00634E+03-8.22242E+04 3.15367E-10 2.24645E-10
 -1       759 9.27306E+05 3.53826E+00 2.35738E+03-4.95927E+04 4.99767E-10-1.09549E-09
 -1       760 9.27520E+05 7.54920E+01 4.02445E+03-8.22690E+04-1.13641E-09 1.03796E-09
 -1       761 9.27265E+05-1.37892E+02 7.47630E+03-4.95521E+04-2.03727E-10 5.36716E-10
 -1       762 9.28949E+05 8.61923E+02 1.54470E+04-8.23721E+04 5.61158E-10-9.86631E-10
 -1       763 9.26348E+05-3.16805E+02 2.95316E+04-4.94876E+04-2.00089E-11-2.44654E-10
 -1       764 9.45067E+05 1.91709E+04 6.74498E+04-8.21571E+04 3.12866E-10-2.37196E-09
 -1       765 9.11903E+05 4.40026E+03 1.17961E+05-4.98048E+04-1.85901E-09-1.60071E-10
 -1       766 3.57446E+03 3.59569E+05 8.54259E+04-1.17273E+05-1.56797E-09-7.76708E-10
 -1       767 1.46923E+04 3.83231E+05 5.54480E+04-1.94244E+05 2.30818E-09 2.81943E-10
 -1       768 1.17004E+02 3.69146E+05 3.75810E+04-1.17090E+05-1.43700E-09 1.09412E-09
 -1       769 1.26344E+04 3.82054E+05 5.01191E+04-1.94036E+05 1.89539E-09 9.50422E-10
 -1       770 2.71640E+03 3.61614E+05 7.39948E+04-1.17499E+05-1.16597E-09 1.80626E-09
 -1       771-1.73674E+06-3.23924E+05-1.47820E+05-7.02050E+05-4.27281E-09-2.81580E-09
 -1       772-1.75303E+06-3.27603E+05-7.63545E+04-7.35395E+05-5.42968E-10 1.18325E-09
 -1       773-1.74722E+06-2.94383E+05-3.22756E+04-7.18938E+05 2.07183E-09-1.56433E-10
 -1       774-1.73501E+06-3.09085E+05-1.59073E+04-7.36421E+05 1.39335E-09-1.37379E-09
 -1       775-1.74827E+06-2.93676E+05-7.33766E+03-7.19576E+05 4.38376E-10-8.38327E-10
 -1       776-1.73387E+06-3.08429E+05-3.69666E+03-7.36382E+05 3.32875E-10 1.42552E-09
 -1       777-1.74848E+06-2.93736E+05-1.97471E+03-7.19597E+05 2.35559E-10-8.68340E-10
 -1       778-1.73377E+06-3.08425E+05-1.50981E+03-7.36389E+05-1.20986E-09-6.94399E-10
 -1       779-1.74849E+06-2.93736E+05-1.83869E+03-7.19597E+05-6.95081E-10-1.14596E-10
 -1       780-1.73386E+06-3.08429E+05-3.33965E+03-7.36389E+05-3.01952E-10-2.42835E-09
 -1       781-1.74830E+06-2.93683E+05-6.57376E+03-7.19581E+05-2.91038E-10-1.72440E-09
 -1       782-1.73488E+06-3.09016E+05-1.42244E+04-7.36422E+05-4.32010E-10 9.91349E-10
 -1       783-1.74736E+06-2.94315E+05-2.88464E+04-7.19008E+05-5.94810E-10 1.13505E-09
 -1       784-1.75102E+06-3.25551E+05-6.82436E+04-7.35474E+05 1.63709E-10-1.08230E-09
 -1       785-1.73795E+06-3.20744E+05-1.32109E+05-7.03938E+05-6.68933E-10 6.33008E-10
 -1       786 7.20754E+05 3.73914E+03 9.93833E+04-4.55198E+04 8.91305E-10-9.20409E-10
 -1       787 7.48673E+05 1.61562E+04 5.68168E+04-7.52224E+04-8.29459E-10-2.57205E-09
 -1       788 7.32950E+05-2.52605E+02 2.48730E+04-4.52408E+04-8.56744E-10 6.00267E-10
 -1       789 7.35146E+05 7.05276E+02 1.29837E+04-7.54381E+04-6.69388E-10-2.47110E-09
 -1       790 7.33752E+05-1.25153E+02 6.24428E+03-4.52733E+04-1.62800E-10-1.33787E-09
 -1       791 7.33990E+05 1.61242E+01 3.26906E+03-7.53898E+04 2.35332E-10 7.58291E-10
 -1       792 7.33820E+05-2.71858E+01 1.74751E+03-4.52903E+04 9.32232E-11 4.41105E-10
 -1       793 7.33850E+05-1.57742E+00 1.19999E+03-7.53826E+04-1.43018E-10-1.25010E-09
 -1       794 7.33854E+05-3.65811E+01 1.19300E+03-4.52808E+04-1.35060E-10-2.34013E-09
 -1       795 7.33992E+05-3.70225E+01 1.85640E+03-7.54296E+04 6.23913E-10 3.30556E-09
 -1       796 7.33891E+05-1.38371E+02 3.33177E+03-4.52430E+04-1.09139E-09-1.27989E-09
 -1       797 7.34738E+05 2.50158E+02 6.84244E+03-7.55118E+04-4.60204E-10-1.50897E-09
 -1       798 7.33571E+05-2.84571E+02 1.30340E+04-4.51975E+04-9.22228E-10-2.37833E-09
 -1       799 7.42041E+05 8.26065E+03 2.98053E+04-7.52723E+04-5.18412E-09-2.38276E-09
 -1       800 7.27296E+05 1.70095E+03 5.20683E+04-4.55037E+04 1.82263E-09-1.56797E-09
 -1       801 2.21585E+03 2.59556E+04 3.42151E+04-3.82684E+05 7.08496E-09-1.49885E-09
 -1       802 1.00300E+04 3.29716E+04 2.62460E+04-6.33985E+05 2.00052E-08-2.37014E-09
 -1       803 2.53029E+03 2.72647E+04 2.40039E+04-3.81691E+05 1.07757E-08 3.44517E-09
 -1       804 1.50579E+04 3.79583E+04 4.12465E+04-6.33888E+05 1.86192E-08-3.26872E-09
 -1       805 3.14219E+03 2.20096E+04 6.60836E+04-3.82784E+05 7.47241E-09 2.28465E-09
 -1       806-1.06421E+06-2.18045E+05-9.20502E+04-4.55544E+05-6.49266E-10 7.49424E-10
 -1       807-1.06893E+06-2.25750E+05-4.75416E+04-4.82540E+05-2.38651E-09-8.61291E-10
 -1       808-1.07086E+06-1.99548E+05-2.01048E+04-4.66019E+05-1.32968E-09 2.37469E-09
 -1       809-1.05768E+06-2.14276E+05-9.91295E+03-4.83281E+05-1.63345E-09 2.81796E-09
 -1       810-1.07152E+06-1.99102E+05-4.58373E+03-4.66434E+05-5.99357E-10-4.77655E-10
 -1       811-1.05699E+06-2.13855E+05-2.33040E+03-4.83254E+05 3.45153E-09 2.47792E-09
 -1       812-1.07165E+06-1.99145E+05-1.28878E+03-4.66450E+05-6.04814E-11 1.27329E-10
 -1       813-1.05693E+06-2.13850E+05-1.06807E+03-4.83234E+05 2.92869E-09 7.92261E-09
 -1       814-1.07162E+06-1.99161E+05-1.41091E+03-4.66440E+05-9.18590E-11 9.31323E-10
 -1       815-1.05697E+06-2.13864E+05-2.64922E+03-4.83198E+05 3.59250E-10-6.73026E-10
 -1       816-1.07142E+06-1.99141E+05-5.26456E+03-4.66403E+05-1.86992E-09 1.72622E-09
 -1       817-1.05774E+06-2.14351E+05-1.14057E+04-4.83178E+05-7.24867E-10 3.54703E-10
 -1       818-1.07061E+06-1.99686E+05-2.31441E+04-4.65916E+05 3.26872E-09-1.42609E-09
 -1       819-1.07067E+06-2.27534E+05-5.47140E+04-4.82265E+05 3.99086E-09-2.76486E-09
 -1       820-1.06293E+06-2.20983E+05-1.05938E+05-4.53855E+05 2.45473E-09-1.79716E-09
 -1       821-4.73903E+05-2.58077E+03-6.48836E+04 2.17716E+04-1.36970E-08-1.87356E-09
 -1       822-4.92082E+05-1.05548E+04-3.70751E+04 3.63601E+04-2.72848E-09-4.94401E-09
 -1       823-4.82032E+05 1.44405E+02-1.62543E+04 2.14961E+04 1.15888E-08-5.10045E-09
 -1       824-4.83532E+05-3.32520E+02-8.47331E+03 3.66522E+04-3.11002E-09-7.15863E-09
 -1       825-4.82681E+05 1.62401E+02-4.09449E+03 2.14556E+04-1.72058E-08-2.78987E-09
 -1       826-4.82944E+05 2.05446E+02-2.15567E+03 3.67108E+04-3.19037E-08-4.01963E-09
 -1       827-4.82790E+05 1.52389E+02-1.19541E+03 2.14350E+04-1.55051E-08-4.66525E-09
 -1       828-4.82919E+05 2.50037E+02-8.93645E+02 3.67425E+04-2.07883E-08-3.31079E-09
 -1       829-4.82814E+05 1.65675E+02-1.00678E+03 2.14232E+04-1.65142E-09-4.93651E-09
 -1       830-4.82988E+05 2.46566E+02-1.67916E+03 3.67551E+04 1.34933E-08-8.26378E-09
 -1       831-4.82765E+05 1.97032E+02-3.10811E+03 2.14220E+04-9.83528E-09-5.86201E-09
 -1       832-4.83481E+05-1.33133E+02-6.40344E+03 3.67431E+04-1.87947E-09-9.86388E-09
 -1       833-4.82303E+05 2.04566E+02-1.22581E+04 2.14366E+04 4.62660E-09-5.47743E-09
 -1       834-4.89976E+05-7.82619E+03-2.79727E+04 3.65960E+04 4.26007E-09-3.44903E-09
 -1       835-4.76190E+05-1.83513E+03-4.89409E+04 2.15976E+04 1.12777E-10-5.85715E-09
 -1       836 3.06383E+03 8.43276E+05 6.79962E+04-1.47422E+05-2.77578E-09-3.13776E-09
 -1       837 1.25428E+04 8.61611E+05 4.80942E+04-2.42801E+05 9.69885E-09-2.97814E-09
 -1       838 6.11487E+02 8.49983E+05 3.95336E+04-1.47100E+05-3.79441E-09 3.35831E-09
 -1       839 1.77078E+04 8.66103E+05 6.29199E+04-2.42778E+05 9.44783E-09-1.41517E-09
 -1       840 4.37341E+03 8.38901E+05 9.95795E+04-1.47436E+05-3.79441E-09 3.54339E-09
 -1       841 2.67473E+04 1.90612E+04-1.34203E+04 3.04169E+04-4.97130E-09-5.60703E-09
 -1       842 1.28998E+04 2.63011E+04-7.53086E+03 4.11435E+04 3.73802E-10-1.28642E-09
 -1       843 2.52368E+04 1.87554E+04-3.08700E+03 2.95948E+04 7.89896E-09 2.86946E-09
 -1       844 1.46983E+04 2.88215E+04-1.54481E+03 4.11267E+04-4.44606E-09-1.29830E-10
 -1       845 2.50776E+04 1.87372E+04-6.90273E+02 2.95246E+04 4.36376E-09-5.36488E-10
 -1       846 1.47897E+04 2.89792E+04-3.08830E+02 4.11025E+04-2.92725E-08-6.20878E-09
 -1       847 2.50347E+04 1.87473E+04-8.95574E+01 2.95041E+04-1.61044E-08 1.19798E-09
 -1       848 1.47800E+04 2.90012E+04 7.58594E+01 4.10849E+04-3.76531E-10 9.92364E-09
 -1       849 2.50119E+04 1.87505E+04 2.77377E+02 2.94934E+04 1.00706E-08 3.74985E-09
 -1       850 1.48059E+04 2.90219E+04 6.60493E+02 4.10857E+04-8.19546E-09 4.72164E-09
 -1       851 2.49793E+04 1.87321E+04 1.37224E+03 2.94878E+04 2.52817E-09-1.62140E-09
 -1       852 1.51247E+04 2.92779E+04 3.06082E+03 4.11065E+04 3.01433E-08-1.62345E-09
 -1       853 2.47351E+04 1.86413E+04 6.06738E+03 2.94261E+04 6.36078E-09 2.96723E-09
 -1       854 1.92588E+04 3.38028E+04 1.48712E+04 4.07568E+04-9.14019E-09 3.13639E-09
 -1       855 2.15056E+04 1.83230E+04 2.64457E+04 2.83123E+04-6.06519E-09 3.49519E-09
 -1       856-2.20583E+05-8.88880E+02-2.40263E+04 1.51832E+04-1.99070E-08-3.46336E-09
 -1       857-2.27360E+05-3.80142E+03-1.37279E+04 2.53920E+04-2.12440E-08-6.00721E-09
 -1       858-2.23593E+05 1.20993E+02-6.01581E+03 1.50441E+04-6.44104E-09-4.24870E-09
 -1       859-2.24190E+05-1.82007E+01-3.13465E+03 2.55303E+04-5.88989E-09-4.07681E-09
 -1       860-2.23830E+05 1.24984E+02-1.50897E+03 1.50308E+04-1.75260E-09-3.98200E-09
 -1       861-2.23964E+05 1.76980E+02-7.86917E+02 2.55459E+04-1.29189E-08-6.12158E-09
 -1       862-2.23865E+05 1.16808E+02-4.19895E+02 1.50276E+04 2.29987E-08-5.48550E-09
 -1       863-2.23943E+05 1.87738E+02-2.86699E+02 2.55492E+04 3.99441E-08-4.72539E-09
 -1       864-2.23868E+05 1.14992E+02-2.86112E+02 1.50274E+04 8.45489E-09-4.47960E-09
 -1       865-2.23947E+05 1.80668E+02-4.44354E+02 2.55461E+04 1.57197E-08-7.53698E-09
 -1       866-2.23847E+05 1.15851E+02-8.04200E+02 1.50308E+04-2.90174E-09-4.05237E-09
 -1       867-2.24055E+05 7.40254E+01-1.64367E+03 2.55319E+04-1.06884E-08-5.96964E-09
 -1       868-2.23717E+05 1.07888E+02-3.14394E+03 1.50421E+04-1.27329E-09-4.81174E-09
 -1       869-2.25692E+05-1.90749E+03-7.16378E+03 2.53978E+04-5.55974E-09-4.67986E-09
 -1       870-2.22137E+05-4.27436E+02-1.25391E+04 1.51725E+04 9.73614E-09-4.21460E-09
 -1       871-3.52098E+03-6.41280E+04-8.46070E+03 1.53803E+05 1.02473E-08-3.09774E-09
 -1       872-2.09990E+03-6.58772E+04-2.77363E+03 1.99408E+05 1.99179E-08 4.54884E-09
 -1       873-7.14700E+02-6.53628E+04 2.11116E+03 1.53493E+05 6.14091E-09 1.87811E-09
 -1       874 1.24477E+03-6.29764E+04 8.56105E+03 1.99432E+05 2.51466E-08 3.04181E-09
 -1       875 4.29815E+03-6.70884E+04 1.77930E+04 1.53813E+05 1.45410E-08-4.16549E-10
 -1       876 3.34415E+05 5.56062E+04 3.34976E+04 1.36762E+05 1.56476E-08-4.70391E-09
 -1       877 3.39269E+05 6.74516E+04 1.88338E+04 1.43770E+05 1.49346E-08-1.39130E-09
 -1       878 3.38470E+05 5.60469E+04 7.69373E+03 1.38251E+05 1.46233E-08 1.74759E-09
 -1       879 3.34126E+05 6.16534E+04 3.89228E+03 1.44159E+05-7.93989E-10 3.39935E-09
 -1       880 3.38776E+05 5.61620E+04 1.77265E+03 1.38342E+05-2.32444E-09 1.79443E-09
 -1       881 3.33742E+05 6.13186E+04 9.12297E+02 1.44123E+05 1.12699E-08 4.80993E-09
 -1       882 3.38806E+05 5.61912E+04 5.09368E+02 1.38350E+05 2.50201E-08 2.67366E-09
 -1       883 3.33707E+05 6.12982E+04 4.36005E+02 1.44108E+05-1.93621E-08 9.81208E-09
 -1       884 3.38802E+05 5.61911E+04 5.88507E+02 1.38350E+05-8.92418E-09 4.09761E-09
 -1       885 3.33756E+05 6.13216E+04 1.12231E+03 1.44121E+05-1.17903E-08 7.59314E-10
 -1       886 3.38759E+05 5.61583E+04 2.21872E+03 1.38342E+05-1.48584E-08-3.58500E-09
 -1       887 3.34241E+05 6.17415E+04 4.89103E+03 1.44159E+05 3.06238E-09 6.98719E-10
 -1       888 3.38367E+05 5.60163E+04 9.67643E+03 1.38225E+05 3.09849E-08 6.92035E-09
 -1       889 3.40689E+05 6.90569E+04 2.36921E+04 1.43687E+05 9.33085E-09-1.74259E-09
 -1       890 3.33281E+05 5.54444E+04 4.21398E+04 1.36327E+05 1.39044E-08 1.54068E-09
 -1       891-6.51602E+02-1.67173E+05-7.66821E+03 6.15271E+04 7.86576E-09 5.67161E-09
 -1       892-1.80956E+03-1.69113E+05-5.27294E+03 1.01657E+05 9.51650E-09-4.99244E-09
 -1       893-3.07690E+02-1.68030E+05-4.12663E+03 6.13747E+04 1.39203E-08 1.70121E-09
 -1       894-2.18334E+03-1.69407E+05-6.31580E+03 1.01635E+05-6.93444E-09-2.09161E-09
 -1       895-7.62834E+02-1.66841E+05-9.89245E+03 6.15470E+04-6.76641E-09 4.41287E-09
 -1       896 7.62369E+05 3.11426E+02 1.05520E+04-2.25490E+04 2.36469E-11-2.48747E-10
 -1       897 7.65324E+05 1.65153E+03 6.04854E+03-3.72934E+04 2.18279E-10 2.38288E-10
 -1       898 7.63626E+05-7.76085E+01 2.64725E+03-2.23985E+04-2.11912E-10-1.31422E-10
 -1       899 7.63816E+05 3.90837E+01 1.40556E+03-3.74105E+04 1.49612E-10 2.97632E-10
 -1       900 7.63677E+05-3.72598E+01 7.09501E+02-2.24298E+04-5.27507E-11 1.04819E-10
 -1       901 7.63645E+05-8.37669E+00 4.51160E+02-3.73553E+04-1.83718E-10 4.10864E-10
 -1       902 7.63656E+05-9.69777E+00 3.88520E+02-2.24539E+04-1.55524E-10-5.63887E-11
 -1       903 7.63611E+05 6.66486E+00 5.45190E+02-3.73197E+04-2.70006E-10-2.54659E-11
 -1       904 7.63632E+05-8.61354E+00 9.48566E+02-2.24654E+04-4.57021E-11-7.28733E-11
 -1       905 7.63680E+05 2.64331E+01 1.88136E+03-3.73111E+04 2.52470E-10-2.95813E-10
 -1       906 7.63569E+05-4.92580E+01 3.65481E+03-2.24624E+04 2.56932E-11 4.55316E-11
 -1       907 7.64302E+05 4.61971E+02 7.62508E+03-3.73242E+04-2.13049E-10 1.33809E-10
 -1       908 7.63050E+05-8.78071E+01 1.46312E+04-2.24519E+04-9.73159E-11-8.64020E-11
 -1       909 7.72154E+05 9.59458E+03 3.34090E+04-3.72284E+04-2.91038E-11-6.08907E-10
 -1       910 7.55808E+05 2.31282E+03 5.84560E+04-2.25636E+04-7.09406E-11-5.56611E-10
 -1       911 1.68404E+05 3.80418E+00 1.20504E+03-1.89693E+04 2.41926E-10-4.54747E-13
 -1       912 1.68746E+05 1.76355E+02 6.99677E+02-3.11837E+04 1.65528E-10 2.14868E-10
 -1       913 1.68522E+05-1.87838E+01 3.10573E+02-1.88329E+04-1.80989E-10 2.50111E-10
 -1       914 1.68532E+05 9.81862E+00 1.82959E+02-3.13207E+04-4.05635E-10 1.47111E-10
 -1       915 1.68509E+05 9.01987E-03 1.22914E+02-1.88323E+04 1.46883E-10-2.47724E-10
 -1       916 1.68492E+05 1.60485E+01 1.38796E+02-3.13186E+04 3.73348E-10-8.98126E-11
 -1       917 1.68495E+05 7.97665E+00 2.15269E+02-1.88349E+04 3.23325E-10-2.26237E-11
 -1       918 1.68493E+05 2.03891E+01 4.10789E+02-3.13159E+04 8.40572E-11-2.86263E-10
 -1       919 1.68484E+05-1.15076E+00 7.93199E+02-1.88350E+04 2.24304E-10 2.60570E-10
 -1       920 1.68572E+05 2.90499E+01 1.61902E+03-3.13181E+04 6.19139E-10-5.22050E-10
 -1       921 1.68436E+05-4.33017E+01 3.16764E+03-1.88326E+04 6.13909E-11 2.74355E-10
 -1       922 1.69126E+05 4.02125E+02 6.62471E+03-3.13197E+04 5.55701E-10-1.88663E-10
 -1       923 1.67992E+05-8.15252E+01 1.27175E+04-1.88332E+04 1.01863E-10 8.59472E-11
 -1       924 1.75966E+05 8.34581E+03 2.90547E+04-3.11828E+04-2.60115E-10-2.48747E-10
 -1       925 1.61703E+05 1.99752E+03 5.08382E+04-1.89739E+04-5.63887E-11-6.54836E-11
 -1       926-9.21125E+05-2.23614E+03-5.47629E+04-2.84855E+04 4.20187E-10 5.71163E-10
 -1       927-9.36394E+05-9.04081E+03-3.12915E+04-4.69200E+04 2.74213E-10 7.63976E-10
 -1       928-9.27984E+05 6.02563E+01-1.37051E+04-2.82691E+04 2.91038E-11-1.68257E-11
 -1       929-9.29161E+05-4.13577E+02-7.14029E+03-4.71791E+04-7.84667E-10-5.23571E-10
 -1       930-9.28518E+05 6.56840E+01-3.43304E+03-2.82313E+04 1.55978E-10 2.04409E-10
 -1       931-9.28632E+05 2.41662E+01-1.78804E+03-4.72229E+04-1.13687E-11-1.37334E-10
 -1       932-9.28587E+05 3.71975E+01-9.49045E+02-2.82248E+04-2.42721E-10-1.22554E-10
 -1       933-9.28554E+05 3.39561E+01-6.39658E+02-4.72139E+04-3.81988E-11-6.08907E-10
 -1       934-9.28574E+05 1.65331E+01-6.28807E+02-2.82403E+04 3.45608E-10-2.00089E-11
 -1       935-9.28520E+05-3.53785E+00-9.61239E+02-4.71586E+04-3.58341E-10-3.46745E-10
 -1       936-9.28500E+05-5.03476E+00-1.73794E+03-2.82802E+04 4.45652E-11 1.11413E-10
 -1       937-9.28694E+05-2.62601E+02-3.53587E+03-4.70481E+04 4.60659E-10-5.81167E-10
 -1       938-9.28183E+05-5.19507E+01-6.77129E+03-2.83509E+04 1.74623E-10-7.86713E-10
 -1       939-9.32144E+05-4.55600E+03-1.54045E+04-4.66492E+04 1.22236E-09-3.41970E-10
 -1       940-9.24748E+05-1.23537E+03-2.69807E+04-2.86720E+04-7.65795E-10 1.11231E-09
 -1       941 1.11752E+06 6.83102E+03 1.72225E+05-3.32424E+04 1.25510E-09 3.92902E-10
 -1       942 1.16576E+06 2.81985E+04 9.84014E+04-5.51797E+04-3.82443E-10-1.62436E-09
 -1       943 1.13885E+06-2.87926E+02 4.31213E+04-3.30534E+04-2.94676E-10-1.56433E-10
 -1       944 1.14267E+06 1.30043E+03 2.25050E+04-5.52932E+04-2.89219E-10-7.43967E-10
 -1       945 1.14039E+06-1.83505E+02 1.08559E+04-3.30872E+04 9.39508E-10 5.23869E-10
 -1       946 1.14085E+06 1.51685E+01 5.72464E+03-5.52495E+04 1.26602E-09 1.81853E-09
 -1       947 1.14057E+06-6.61342E+01 3.15476E+03-3.30982E+04 2.87230E-10 1.35697E-09
 -1       948 1.14066E+06-3.69425E+01 2.34136E+03-5.52592E+04 9.09495E-11 6.29370E-10
 -1       949 1.14061E+06-7.55042E+01 2.59465E+03-3.30778E+04-1.06911E-09-2.06160E-09
 -1       950 1.14086E+06-3.83087E+01 4.29780E+03-5.53317E+04 8.94488E-10 9.57016E-10
 -1       951 1.14053E+06-1.96624E+02 7.91424E+03-3.30251E+04-1.82899E-09-1.46338E-09
 -1       952 1.14226E+06 8.41241E+02 1.63033E+04-5.54509E+04-1.24237E-09 1.84855E-10
 -1       953 1.13948E+06-3.20479E+02 3.11651E+04-3.29573E+04-6.02085E-10-5.27507E-11
 -1       954 1.15907E+06 2.02294E+04 7.11288E+04-5.53302E+04-5.76620E-09-1.66347E-09
 -1       955 1.12413E+06 4.76112E+03 1.24431E+05-3.31961E+04-1.74623E-10 1.16415E-09
 -1       956-4.92798E+05-9.69778E+03-3.45419E+04 4.58211E+04-1.34332E-08 1.77351E-11
 -1       957-5.00496E+05-4.12687E+03-1.82409E+04 5.90837E+04-4.16549E-09-4.14184E-09
 -1       958-4.96347E+05-5.80730E+01-8.21857E+03 4.54186E+04 1.06756E-08-2.68665E-09
 -1       959-4.97003E+05 1.48929E+02-4.20877E+03 5.95029E+04-4.59113E-09-3.89355E-09
 -1       960-4.96697E+05 2.59917E+02-2.05690E+03 4.53778E+04-1.84918E-08-1.96815E-09
 -1       961-4.96856E+05 3.45049E+02-1.07689E+03 5.95530E+04-3.22289E-08-2.24372E-09
 -1       962-4.96807E+05 2.82971E+02-5.97967E+02 4.53659E+04-1.40935E-08-8.31278E-10
 -1       963-4.96903E+05 3.84555E+02-4.40134E+02 5.95709E+04-2.33140E-08-2.93130E-09
 -1       964-4.96854E+05 3.11010E+02-4.89734E+02 4.53589E+04-4.74483E-09-1.94223E-09
 -1       965-4.96961E+05 4.08118E+02-8.07463E+02 5.95779E+04 1.44410E-08-5.05179E-09
 -1       966-4.96845E+05 3.40629E+02-1.49610E+03 4.53582E+04-1.12670E-08-1.07912E-09
 -1       967-4.97152E+05 3.12489E+02-3.05226E+03 5.95633E+04-2.79624E-09-4.01269E-09
 -1       968-4.96651E+05 1.50802E+02-5.94530E+03 4.53745E+04 5.87534E-09-2.10440E-09
 -1       969-4.99757E+05-2.75022E+03-1.32152E+04 5.93640E+04 3.05135E-09-4.39456E-09
 -1       970-4.94122E+05-6.80932E+03-2.50151E+04 4.55869E+04 7.49696E-09-2.60115E-09
 -1       971-4.37256E+05-6.76512E+02-1.84897E+04 1.35295E+04-1.66174E-08 2.68301E-10
 -1       972-4.42452E+05-2.90569E+03-1.05654E+04 2.30886E+04-1.09403E-08 1.21599E-09
 -1       973-4.39574E+05 1.03038E+02-4.63541E+03 1.33849E+04-1.35142E-08 4.47926E-11
 -1       974-4.40021E+05 9.28625E+00-2.42420E+03 2.32420E+04-8.90554E-09 4.36557E-10
 -1       975-4.39760E+05 1.09215E+02-1.18618E+03 1.33654E+04 3.48473E-09-1.08412E-09
 -1       976-4.39854E+05 1.62659E+02-6.56073E+02 2.32678E+04-7.30995E-09 1.62117E-09
 -1       977-4.39788E+05 1.06314E+02-4.23164E+02 1.33583E+04 1.43350E-08-1.19360E-09
 -1       978-4.39849E+05 1.73471E+02-4.24841E+02 2.32764E+04 3.52049E-08-1.04546E-09
 -1       979-4.39786E+05 1.11265E+02-6.22468E+02 1.33567E+04 1.24321E-08-2.19006E-09
 -1       980-4.39890E+05 1.62257E+02-1.16735E+03 2.32734E+04 1.18351E-08-2.95472E-10
 -1       981-4.39741E+05 1.29570E+02-2.23728E+03 1.33613E+04-1.80262E-09-5.11022E-10
 -1       982-4.40242E+05-1.18338E+02-4.65039E+03 2.32549E+04-2.67482E-09 1.37297E-09
 -1       983-4.39403E+05 1.33791E+02-8.92215E+03 1.33764E+04 2.00371E-08-1.44655E-09
 -1       984-4.44974E+05-5.72030E+03-2.03692E+04 2.31272E+04-7.03221E-09 4.38376E-10
 -1       985-4.34954E+05-1.34922E+03-3.56430E+04 1.35105E+04 1.08685E-08-1.20963E-09
 -3
 9999
