    1C
    1UUSER                                                              
    1UDATE              11.october.2022                                 
    1UTIME              18:50:36                                        
    1UHOST                                                              
    1UPGM               CalculiX                                        
    1UVERSION           Version 2.20                             
    1UCOMPILETIME       Sun Jul 31 18:08:37 CEST 2022                    
    1UDIR                                                               
    1UDBN                                                               
    1UMAT    1MESH_MATERIAL                                             
    2C                           409                                     1
 -1         1 0.00000E+00 0.00000E+00 0.00000E+00
 -1         2 1.66667E-02 0.00000E+00 0.00000E+00
 -1         3 3.33333E-02 0.00000E+00 0.00000E+00
 -1         5 6.66667E-02 0.00000E+00 0.00000E+00
 -1         8 0.00000E+00 6.25000E-03 0.00000E+00
 -1         9 1.66667E-02 6.25000E-03 0.00000E+00
 -1        10 3.33333E-02 6.25000E-03 0.00000E+00
 -1        12 6.66667E-02 6.25000E-03 0.00000E+00
 -1        15 0.00000E+00 1.25000E-02 0.00000E+00
 -1        16 1.66667E-02 1.25000E-02 0.00000E+00
 -1        17 3.33333E-02 1.25000E-02 0.00000E+00
 -1        18 5.00000E-02 1.25000E-02 0.00000E+00
 -1        19 6.66667E-02 1.25000E-02 0.00000E+00
 -1        20 8.33333E-02 1.25000E-02 0.00000E+00
 -1        21 1.00000E-01 1.25000E-02 0.00000E+00
 -1        24 3.33333E-02 1.87500E-02 0.00000E+00
 -1        25 5.00000E-02 1.87500E-02 0.00000E+00
 -1        26 6.66667E-02 1.87500E-02 0.00000E+00
 -1        27 8.33333E-02 1.87500E-02 0.00000E+00
 -1        28 1.00000E-01 1.87500E-02 0.00000E+00
 -1        32 5.00000E-02 2.50000E-02 0.00000E+00
 -1        33 6.66667E-02 2.50000E-02 0.00000E+00
 -1        34 8.33333E-02 2.50000E-02 0.00000E+00
 -1        35 1.00000E-01 2.50000E-02 0.00000E+00
 -1        51 0.00000E+00 1.04167E-03 0.00000E+00
 -1        52 0.00000E+00 2.08333E-03 0.00000E+00
 -1        53 0.00000E+00 3.12500E-03 0.00000E+00
 -1        54 0.00000E+00 4.16667E-03 0.00000E+00
 -1        55 0.00000E+00 5.20833E-03 0.00000E+00
 -1        56 1.04167E-03 3.90630E-04 0.00000E+00
 -1        57 2.08333E-03 7.81250E-04 0.00000E+00
 -1        58 3.12500E-03 1.17188E-03 0.00000E+00
 -1        59 4.16667E-03 1.56250E-03 0.00000E+00
 -1        60 5.20833E-03 1.95312E-03 0.00000E+00
 -1        61 6.25000E-03 2.34375E-03 0.00000E+00
 -1        62 7.29167E-03 2.73438E-03 0.00000E+00
 -1        63 8.33333E-03 3.12500E-03 0.00000E+00
 -1        64 9.37500E-03 3.51563E-03 0.00000E+00
 -1        65 1.04167E-02 3.90625E-03 0.00000E+00
 -1        66 1.14583E-02 4.29688E-03 0.00000E+00
 -1        67 1.25000E-02 4.68750E-03 0.00000E+00
 -1        68 1.35417E-02 5.07813E-03 0.00000E+00
 -1        69 1.45833E-02 5.46875E-03 0.00000E+00
 -1        70 1.56250E-02 5.85938E-03 0.00000E+00
 -1        86 1.66667E-02 1.04167E-03 0.00000E+00
 -1        87 1.66667E-02 2.08333E-03 0.00000E+00
 -1        88 1.66667E-02 3.12500E-03 0.00000E+00
 -1        89 1.66667E-02 4.16667E-03 0.00000E+00
 -1        90 1.66667E-02 5.20833E-03 0.00000E+00
 -1       121 3.33333E-02 1.04167E-03 0.00000E+00
 -1       122 3.33333E-02 2.08333E-03 0.00000E+00
 -1       123 3.33333E-02 3.12500E-03 0.00000E+00
 -1       124 3.33333E-02 4.16667E-03 0.00000E+00
 -1       125 3.33333E-02 5.20833E-03 0.00000E+00
 -1       191 6.66667E-02 1.04167E-03 0.00000E+00
 -1       192 6.66667E-02 2.08333E-03 0.00000E+00
 -1       193 6.66667E-02 3.12500E-03 0.00000E+00
 -1       194 6.66667E-02 4.16667E-03 0.00000E+00
 -1       195 6.66667E-02 5.20833E-03 0.00000E+00
 -1       251 1.04167E-03 6.25000E-03 0.00000E+00
 -1       252 2.08333E-03 6.25000E-03 0.00000E+00
 -1       253 3.12500E-03 6.25000E-03 0.00000E+00
 -1       254 4.16667E-03 6.25000E-03 0.00000E+00
 -1       255 5.20833E-03 6.25000E-03 0.00000E+00
 -1       256 6.25000E-03 6.25000E-03 0.00000E+00
 -1       257 7.29167E-03 6.25000E-03 0.00000E+00
 -1       258 8.33333E-03 6.25000E-03 0.00000E+00
 -1       259 9.37500E-03 6.25000E-03 0.00000E+00
 -1       260 1.04167E-02 6.25000E-03 0.00000E+00
 -1       261 1.14583E-02 6.25000E-03 0.00000E+00
 -1       262 1.25000E-02 6.25000E-03 0.00000E+00
 -1       263 1.35417E-02 6.25000E-03 0.00000E+00
 -1       264 1.45833E-02 6.25000E-03 0.00000E+00
 -1       265 1.56250E-02 6.25000E-03 0.00000E+00
 -1       266 0.00000E+00 7.29167E-03 0.00000E+00
 -1       267 0.00000E+00 8.33333E-03 0.00000E+00
 -1       268 0.00000E+00 9.37500E-03 0.00000E+00
 -1       269 0.00000E+00 1.04167E-02 0.00000E+00
 -1       270 0.00000E+00 1.14583E-02 0.00000E+00
 -1       271 1.04167E-03 6.64063E-03 0.00000E+00
 -1       272 2.08333E-03 7.03125E-03 0.00000E+00
 -1       273 3.12500E-03 7.42188E-03 0.00000E+00
 -1       274 4.16667E-03 7.81250E-03 0.00000E+00
 -1       275 5.20833E-03 8.20313E-03 0.00000E+00
 -1       276 6.25000E-03 8.59375E-03 0.00000E+00
 -1       277 7.29167E-03 8.98438E-03 0.00000E+00
 -1       278 8.33333E-03 9.37500E-03 0.00000E+00
 -1       279 9.37500E-03 9.76562E-03 0.00000E+00
 -1       280 1.04167E-02 1.01562E-02 0.00000E+00
 -1       281 1.14583E-02 1.05469E-02 0.00000E+00
 -1       282 1.25000E-02 1.09375E-02 0.00000E+00
 -1       283 1.35417E-02 1.13281E-02 0.00000E+00
 -1       284 1.45833E-02 1.17188E-02 0.00000E+00
 -1       285 1.56250E-02 1.21094E-02 0.00000E+00
 -1       301 1.66667E-02 7.29167E-03 0.00000E+00
 -1       302 1.66667E-02 8.33333E-03 0.00000E+00
 -1       303 1.66667E-02 9.37500E-03 0.00000E+00
 -1       304 1.66667E-02 1.04167E-02 0.00000E+00
 -1       305 1.66667E-02 1.14583E-02 0.00000E+00
 -1       306 1.77083E-02 6.64063E-03 0.00000E+00
 -1       307 1.87500E-02 7.03125E-03 0.00000E+00
 -1       308 1.97917E-02 7.42188E-03 0.00000E+00
 -1       309 2.08333E-02 7.81250E-03 0.00000E+00
 -1       310 2.18750E-02 8.20313E-03 0.00000E+00
 -1       311 2.29167E-02 8.59375E-03 0.00000E+00
 -1       312 2.39583E-02 8.98438E-03 0.00000E+00
 -1       313 2.50000E-02 9.37500E-03 0.00000E+00
 -1       314 2.60417E-02 9.76562E-03 0.00000E+00
 -1       315 2.70833E-02 1.01562E-02 0.00000E+00
 -1       316 2.81250E-02 1.05469E-02 0.00000E+00
 -1       317 2.91667E-02 1.09375E-02 0.00000E+00
 -1       318 3.02083E-02 1.13281E-02 0.00000E+00
 -1       319 3.12500E-02 1.17188E-02 0.00000E+00
 -1       320 3.22917E-02 1.21094E-02 0.00000E+00
 -1       336 3.33333E-02 7.29167E-03 0.00000E+00
 -1       337 3.33333E-02 8.33333E-03 0.00000E+00
 -1       338 3.33333E-02 9.37500E-03 0.00000E+00
 -1       339 3.33333E-02 1.04167E-02 0.00000E+00
 -1       340 3.33333E-02 1.14583E-02 0.00000E+00
 -1       406 6.66667E-02 7.29167E-03 0.00000E+00
 -1       407 6.66667E-02 8.33333E-03 0.00000E+00
 -1       408 6.66667E-02 9.37500E-03 0.00000E+00
 -1       409 6.66667E-02 1.04167E-02 0.00000E+00
 -1       410 6.66667E-02 1.14583E-02 0.00000E+00
 -1       521 1.77083E-02 1.28906E-02 0.00000E+00
 -1       522 1.87500E-02 1.32813E-02 0.00000E+00
 -1       523 1.97917E-02 1.36719E-02 0.00000E+00
 -1       524 2.08333E-02 1.40625E-02 0.00000E+00
 -1       525 2.18750E-02 1.44531E-02 0.00000E+00
 -1       526 2.29167E-02 1.48437E-02 0.00000E+00
 -1       527 2.39583E-02 1.52344E-02 0.00000E+00
 -1       528 2.50000E-02 1.56250E-02 0.00000E+00
 -1       529 2.60417E-02 1.60156E-02 0.00000E+00
 -1       530 2.70833E-02 1.64062E-02 0.00000E+00
 -1       531 2.81250E-02 1.67969E-02 0.00000E+00
 -1       532 2.91667E-02 1.71875E-02 0.00000E+00
 -1       533 3.02083E-02 1.75781E-02 0.00000E+00
 -1       534 3.12500E-02 1.79687E-02 0.00000E+00
 -1       535 3.22917E-02 1.83594E-02 0.00000E+00
 -1       536 3.43750E-02 1.25000E-02 0.00000E+00
 -1       537 3.54167E-02 1.25000E-02 0.00000E+00
 -1       538 3.64583E-02 1.25000E-02 0.00000E+00
 -1       539 3.75000E-02 1.25000E-02 0.00000E+00
 -1       540 3.85417E-02 1.25000E-02 0.00000E+00
 -1       541 3.95833E-02 1.25000E-02 0.00000E+00
 -1       542 4.06250E-02 1.25000E-02 0.00000E+00
 -1       543 4.16667E-02 1.25000E-02 0.00000E+00
 -1       544 4.27083E-02 1.25000E-02 0.00000E+00
 -1       545 4.37500E-02 1.25000E-02 0.00000E+00
 -1       546 4.47917E-02 1.25000E-02 0.00000E+00
 -1       547 4.58333E-02 1.25000E-02 0.00000E+00
 -1       548 4.68750E-02 1.25000E-02 0.00000E+00
 -1       549 4.79167E-02 1.25000E-02 0.00000E+00
 -1       550 4.89583E-02 1.25000E-02 0.00000E+00
 -1       551 3.33333E-02 1.35417E-02 0.00000E+00
 -1       552 3.33333E-02 1.45833E-02 0.00000E+00
 -1       553 3.33333E-02 1.56250E-02 0.00000E+00
 -1       554 3.33333E-02 1.66667E-02 0.00000E+00
 -1       555 3.33333E-02 1.77083E-02 0.00000E+00
 -1       556 3.43750E-02 1.28906E-02 0.00000E+00
 -1       557 3.54167E-02 1.32813E-02 0.00000E+00
 -1       558 3.64583E-02 1.36719E-02 0.00000E+00
 -1       559 3.75000E-02 1.40625E-02 0.00000E+00
 -1       560 3.85417E-02 1.44531E-02 0.00000E+00
 -1       561 3.95833E-02 1.48437E-02 0.00000E+00
 -1       562 4.06250E-02 1.52344E-02 0.00000E+00
 -1       563 4.16667E-02 1.56250E-02 0.00000E+00
 -1       564 4.27083E-02 1.60156E-02 0.00000E+00
 -1       565 4.37500E-02 1.64062E-02 0.00000E+00
 -1       566 4.47917E-02 1.67969E-02 0.00000E+00
 -1       567 4.58333E-02 1.71875E-02 0.00000E+00
 -1       568 4.68750E-02 1.75781E-02 0.00000E+00
 -1       569 4.79167E-02 1.79687E-02 0.00000E+00
 -1       570 4.89583E-02 1.83594E-02 0.00000E+00
 -1       571 5.10417E-02 1.25000E-02 0.00000E+00
 -1       572 5.20833E-02 1.25000E-02 0.00000E+00
 -1       573 5.31250E-02 1.25000E-02 0.00000E+00
 -1       574 5.41667E-02 1.25000E-02 0.00000E+00
 -1       575 5.52083E-02 1.25000E-02 0.00000E+00
 -1       576 5.62500E-02 1.25000E-02 0.00000E+00
 -1       577 5.72917E-02 1.25000E-02 0.00000E+00
 -1       578 5.83333E-02 1.25000E-02 0.00000E+00
 -1       579 5.93750E-02 1.25000E-02 0.00000E+00
 -1       580 6.04167E-02 1.25000E-02 0.00000E+00
 -1       581 6.14583E-02 1.25000E-02 0.00000E+00
 -1       582 6.25000E-02 1.25000E-02 0.00000E+00
 -1       583 6.35417E-02 1.25000E-02 0.00000E+00
 -1       584 6.45833E-02 1.25000E-02 0.00000E+00
 -1       585 6.56250E-02 1.25000E-02 0.00000E+00
 -1       586 5.00000E-02 1.35417E-02 0.00000E+00
 -1       587 5.00000E-02 1.45833E-02 0.00000E+00
 -1       588 5.00000E-02 1.56250E-02 0.00000E+00
 -1       589 5.00000E-02 1.66667E-02 0.00000E+00
 -1       590 5.00000E-02 1.77083E-02 0.00000E+00
 -1       591 5.10417E-02 1.28906E-02 0.00000E+00
 -1       592 5.20833E-02 1.32813E-02 0.00000E+00
 -1       593 5.31250E-02 1.36719E-02 0.00000E+00
 -1       594 5.41667E-02 1.40625E-02 0.00000E+00
 -1       595 5.52083E-02 1.44531E-02 0.00000E+00
 -1       596 5.62500E-02 1.48437E-02 0.00000E+00
 -1       597 5.72917E-02 1.52344E-02 0.00000E+00
 -1       598 5.83333E-02 1.56250E-02 0.00000E+00
 -1       599 5.93750E-02 1.60156E-02 0.00000E+00
 -1       600 6.04167E-02 1.64062E-02 0.00000E+00
 -1       601 6.14583E-02 1.67969E-02 0.00000E+00
 -1       602 6.25000E-02 1.71875E-02 0.00000E+00
 -1       603 6.35417E-02 1.75781E-02 0.00000E+00
 -1       604 6.45833E-02 1.79687E-02 0.00000E+00
 -1       605 6.56250E-02 1.83594E-02 0.00000E+00
 -1       606 6.77083E-02 1.25000E-02 0.00000E+00
 -1       607 6.87500E-02 1.25000E-02 0.00000E+00
 -1       608 6.97917E-02 1.25000E-02 0.00000E+00
 -1       609 7.08333E-02 1.25000E-02 0.00000E+00
 -1       610 7.18750E-02 1.25000E-02 0.00000E+00
 -1       611 7.29167E-02 1.25000E-02 0.00000E+00
 -1       612 7.39583E-02 1.25000E-02 0.00000E+00
 -1       613 7.50000E-02 1.25000E-02 0.00000E+00
 -1       614 7.60417E-02 1.25000E-02 0.00000E+00
 -1       615 7.70833E-02 1.25000E-02 0.00000E+00
 -1       616 7.81250E-02 1.25000E-02 0.00000E+00
 -1       617 7.91667E-02 1.25000E-02 0.00000E+00
 -1       618 8.02083E-02 1.25000E-02 0.00000E+00
 -1       619 8.12500E-02 1.25000E-02 0.00000E+00
 -1       620 8.22917E-02 1.25000E-02 0.00000E+00
 -1       621 6.66667E-02 1.35417E-02 0.00000E+00
 -1       622 6.66667E-02 1.45833E-02 0.00000E+00
 -1       623 6.66667E-02 1.56250E-02 0.00000E+00
 -1       624 6.66667E-02 1.66667E-02 0.00000E+00
 -1       625 6.66667E-02 1.77083E-02 0.00000E+00
 -1       626 6.77083E-02 1.28906E-02 0.00000E+00
 -1       627 6.87500E-02 1.32813E-02 0.00000E+00
 -1       628 6.97917E-02 1.36719E-02 0.00000E+00
 -1       629 7.08333E-02 1.40625E-02 0.00000E+00
 -1       630 7.18750E-02 1.44531E-02 0.00000E+00
 -1       631 7.29167E-02 1.48437E-02 0.00000E+00
 -1       632 7.39583E-02 1.52344E-02 0.00000E+00
 -1       633 7.50000E-02 1.56250E-02 0.00000E+00
 -1       634 7.60417E-02 1.60156E-02 0.00000E+00
 -1       635 7.70833E-02 1.64062E-02 0.00000E+00
 -1       636 7.81250E-02 1.67969E-02 0.00000E+00
 -1       637 7.91667E-02 1.71875E-02 0.00000E+00
 -1       638 8.02083E-02 1.75781E-02 0.00000E+00
 -1       639 8.12500E-02 1.79687E-02 0.00000E+00
 -1       640 8.22917E-02 1.83594E-02 0.00000E+00
 -1       656 8.33333E-02 1.35417E-02 0.00000E+00
 -1       657 8.33333E-02 1.45833E-02 0.00000E+00
 -1       658 8.33333E-02 1.56250E-02 0.00000E+00
 -1       659 8.33333E-02 1.66667E-02 0.00000E+00
 -1       660 8.33333E-02 1.77083E-02 0.00000E+00
 -1       661 8.43750E-02 1.28906E-02 0.00000E+00
 -1       662 8.54167E-02 1.32813E-02 0.00000E+00
 -1       663 8.64583E-02 1.36719E-02 0.00000E+00
 -1       664 8.75000E-02 1.40625E-02 0.00000E+00
 -1       665 8.85417E-02 1.44531E-02 0.00000E+00
 -1       666 8.95833E-02 1.48437E-02 0.00000E+00
 -1       667 9.06250E-02 1.52344E-02 0.00000E+00
 -1       668 9.16667E-02 1.56250E-02 0.00000E+00
 -1       669 9.27083E-02 1.60156E-02 0.00000E+00
 -1       670 9.37500E-02 1.64062E-02 0.00000E+00
 -1       671 9.47917E-02 1.67969E-02 0.00000E+00
 -1       672 9.58333E-02 1.71875E-02 0.00000E+00
 -1       673 9.68750E-02 1.75781E-02 0.00000E+00
 -1       674 9.79167E-02 1.79687E-02 0.00000E+00
 -1       675 9.89583E-02 1.83594E-02 0.00000E+00
 -1       676 1.00000E-01 1.35417E-02 0.00000E+00
 -1       677 1.00000E-01 1.45833E-02 0.00000E+00
 -1       678 1.00000E-01 1.56250E-02 0.00000E+00
 -1       679 1.00000E-01 1.66667E-02 0.00000E+00
 -1       680 1.00000E-01 1.77083E-02 0.00000E+00
 -1       771 3.43750E-02 1.91406E-02 0.00000E+00
 -1       772 3.54167E-02 1.95312E-02 0.00000E+00
 -1       773 3.64583E-02 1.99219E-02 0.00000E+00
 -1       774 3.75000E-02 2.03125E-02 0.00000E+00
 -1       775 3.85417E-02 2.07031E-02 0.00000E+00
 -1       776 3.95833E-02 2.10938E-02 0.00000E+00
 -1       777 4.06250E-02 2.14844E-02 0.00000E+00
 -1       778 4.16667E-02 2.18750E-02 0.00000E+00
 -1       779 4.27083E-02 2.22656E-02 0.00000E+00
 -1       780 4.37500E-02 2.26563E-02 0.00000E+00
 -1       781 4.47917E-02 2.30469E-02 0.00000E+00
 -1       782 4.58333E-02 2.34375E-02 0.00000E+00
 -1       783 4.68750E-02 2.38281E-02 0.00000E+00
 -1       784 4.79167E-02 2.42187E-02 0.00000E+00
 -1       785 4.89583E-02 2.46094E-02 0.00000E+00
 -1       786 5.10417E-02 1.87500E-02 0.00000E+00
 -1       787 5.20833E-02 1.87500E-02 0.00000E+00
 -1       788 5.31250E-02 1.87500E-02 0.00000E+00
 -1       789 5.41667E-02 1.87500E-02 0.00000E+00
 -1       790 5.52083E-02 1.87500E-02 0.00000E+00
 -1       791 5.62500E-02 1.87500E-02 0.00000E+00
 -1       792 5.72917E-02 1.87500E-02 0.00000E+00
 -1       793 5.83333E-02 1.87500E-02 0.00000E+00
 -1       794 5.93750E-02 1.87500E-02 0.00000E+00
 -1       795 6.04167E-02 1.87500E-02 0.00000E+00
 -1       796 6.14583E-02 1.87500E-02 0.00000E+00
 -1       797 6.25000E-02 1.87500E-02 0.00000E+00
 -1       798 6.35417E-02 1.87500E-02 0.00000E+00
 -1       799 6.45833E-02 1.87500E-02 0.00000E+00
 -1       800 6.56250E-02 1.87500E-02 0.00000E+00
 -1       801 5.00000E-02 1.97917E-02 0.00000E+00
 -1       802 5.00000E-02 2.08333E-02 0.00000E+00
 -1       803 5.00000E-02 2.18750E-02 0.00000E+00
 -1       804 5.00000E-02 2.29167E-02 0.00000E+00
 -1       805 5.00000E-02 2.39583E-02 0.00000E+00
 -1       806 5.10417E-02 1.91406E-02 0.00000E+00
 -1       807 5.20833E-02 1.95312E-02 0.00000E+00
 -1       808 5.31250E-02 1.99219E-02 0.00000E+00
 -1       809 5.41667E-02 2.03125E-02 0.00000E+00
 -1       810 5.52083E-02 2.07031E-02 0.00000E+00
 -1       811 5.62500E-02 2.10938E-02 0.00000E+00
 -1       812 5.72917E-02 2.14844E-02 0.00000E+00
 -1       813 5.83333E-02 2.18750E-02 0.00000E+00
 -1       814 5.93750E-02 2.22656E-02 0.00000E+00
 -1       815 6.04167E-02 2.26563E-02 0.00000E+00
 -1       816 6.14583E-02 2.30469E-02 0.00000E+00
 -1       817 6.25000E-02 2.34375E-02 0.00000E+00
 -1       818 6.35417E-02 2.38281E-02 0.00000E+00
 -1       819 6.45833E-02 2.42187E-02 0.00000E+00
 -1       820 6.56250E-02 2.46094E-02 0.00000E+00
 -1       821 6.77083E-02 1.87500E-02 0.00000E+00
 -1       822 6.87500E-02 1.87500E-02 0.00000E+00
 -1       823 6.97917E-02 1.87500E-02 0.00000E+00
 -1       824 7.08333E-02 1.87500E-02 0.00000E+00
 -1       825 7.18750E-02 1.87500E-02 0.00000E+00
 -1       826 7.29167E-02 1.87500E-02 0.00000E+00
 -1       827 7.39583E-02 1.87500E-02 0.00000E+00
 -1       828 7.50000E-02 1.87500E-02 0.00000E+00
 -1       829 7.60417E-02 1.87500E-02 0.00000E+00
 -1       830 7.70833E-02 1.87500E-02 0.00000E+00
 -1       831 7.81250E-02 1.87500E-02 0.00000E+00
 -1       832 7.91667E-02 1.87500E-02 0.00000E+00
 -1       833 8.02083E-02 1.87500E-02 0.00000E+00
 -1       834 8.12500E-02 1.87500E-02 0.00000E+00
 -1       835 8.22917E-02 1.87500E-02 0.00000E+00
 -1       836 6.66667E-02 1.97917E-02 0.00000E+00
 -1       837 6.66667E-02 2.08333E-02 0.00000E+00
 -1       838 6.66667E-02 2.18750E-02 0.00000E+00
 -1       839 6.66667E-02 2.29167E-02 0.00000E+00
 -1       840 6.66667E-02 2.39583E-02 0.00000E+00
 -1       856 8.43750E-02 1.87500E-02 0.00000E+00
 -1       857 8.54167E-02 1.87500E-02 0.00000E+00
 -1       858 8.64583E-02 1.87500E-02 0.00000E+00
 -1       859 8.75000E-02 1.87500E-02 0.00000E+00
 -1       860 8.85417E-02 1.87500E-02 0.00000E+00
 -1       861 8.95833E-02 1.87500E-02 0.00000E+00
 -1       862 9.06250E-02 1.87500E-02 0.00000E+00
 -1       863 9.16667E-02 1.87500E-02 0.00000E+00
 -1       864 9.27083E-02 1.87500E-02 0.00000E+00
 -1       865 9.37500E-02 1.87500E-02 0.00000E+00
 -1       866 9.47917E-02 1.87500E-02 0.00000E+00
 -1       867 9.58333E-02 1.87500E-02 0.00000E+00
 -1       868 9.68750E-02 1.87500E-02 0.00000E+00
 -1       869 9.79167E-02 1.87500E-02 0.00000E+00
 -1       870 9.89583E-02 1.87500E-02 0.00000E+00
 -1       871 8.33333E-02 1.97917E-02 0.00000E+00
 -1       872 8.33333E-02 2.08333E-02 0.00000E+00
 -1       873 8.33333E-02 2.18750E-02 0.00000E+00
 -1       874 8.33333E-02 2.29167E-02 0.00000E+00
 -1       875 8.33333E-02 2.39583E-02 0.00000E+00
 -1       876 8.43750E-02 1.91406E-02 0.00000E+00
 -1       877 8.54167E-02 1.95312E-02 0.00000E+00
 -1       878 8.64583E-02 1.99219E-02 0.00000E+00
 -1       879 8.75000E-02 2.03125E-02 0.00000E+00
 -1       880 8.85417E-02 2.07031E-02 0.00000E+00
 -1       881 8.95833E-02 2.10938E-02 0.00000E+00
 -1       882 9.06250E-02 2.14844E-02 0.00000E+00
 -1       883 9.16667E-02 2.18750E-02 0.00000E+00
 -1       884 9.27083E-02 2.22656E-02 0.00000E+00
 -1       885 9.37500E-02 2.26563E-02 0.00000E+00
 -1       886 9.47917E-02 2.30469E-02 0.00000E+00
 -1       887 9.58333E-02 2.34375E-02 0.00000E+00
 -1       888 9.68750E-02 2.38281E-02 0.00000E+00
 -1       889 9.79167E-02 2.42187E-02 0.00000E+00
 -1       890 9.89583E-02 2.46094E-02 0.00000E+00
 -1       891 1.00000E-01 1.97917E-02 0.00000E+00
 -1       892 1.00000E-01 2.08333E-02 0.00000E+00
 -1       893 1.00000E-01 2.18750E-02 0.00000E+00
 -1       894 1.00000E-01 2.29167E-02 0.00000E+00
 -1       895 1.00000E-01 2.39583E-02 0.00000E+00
 -1       956 6.77083E-02 2.50000E-02 0.00000E+00
 -1       957 6.87500E-02 2.50000E-02 0.00000E+00
 -1       958 6.97917E-02 2.50000E-02 0.00000E+00
 -1       959 7.08333E-02 2.50000E-02 0.00000E+00
 -1       960 7.18750E-02 2.50000E-02 0.00000E+00
 -1       961 7.29167E-02 2.50000E-02 0.00000E+00
 -1       962 7.39583E-02 2.50000E-02 0.00000E+00
 -1       963 7.50000E-02 2.50000E-02 0.00000E+00
 -1       964 7.60417E-02 2.50000E-02 0.00000E+00
 -1       965 7.70833E-02 2.50000E-02 0.00000E+00
 -1       966 7.81250E-02 2.50000E-02 0.00000E+00
 -1       967 7.91667E-02 2.50000E-02 0.00000E+00
 -1       968 8.02083E-02 2.50000E-02 0.00000E+00
 -1       969 8.12500E-02 2.50000E-02 0.00000E+00
 -1       970 8.22917E-02 2.50000E-02 0.00000E+00
 -1       971 8.43750E-02 2.50000E-02 0.00000E+00
 -1       972 8.54167E-02 2.50000E-02 0.00000E+00
 -1       973 8.64583E-02 2.50000E-02 0.00000E+00
 -1       974 8.75000E-02 2.50000E-02 0.00000E+00
 -1       975 8.85417E-02 2.50000E-02 0.00000E+00
 -1       976 8.95833E-02 2.50000E-02 0.00000E+00
 -1       977 9.06250E-02 2.50000E-02 0.00000E+00
 -1       978 9.16667E-02 2.50000E-02 0.00000E+00
 -1       979 9.27083E-02 2.50000E-02 0.00000E+00
 -1       980 9.37500E-02 2.50000E-02 0.00000E+00
 -1       981 9.47917E-02 2.50000E-02 0.00000E+00
 -1       982 9.58333E-02 2.50000E-02 0.00000E+00
 -1       983 9.68750E-02 2.50000E-02 0.00000E+00
 -1       984 9.79167E-02 2.50000E-02 0.00000E+00
 -1       985 9.89583E-02 2.50000E-02 0.00000E+00
 -3
    3C                           211                                     1
 -1         1   12    0    1
 -2         1        52        51
 -1         2   12    0    1
 -2        52        54        53
 -1         3   12    0    1
 -2        54         8        55
 -1         4   12    0    1
 -2         1        57        56
 -1         5   12    0    1
 -2        57        59        58
 -1         6   12    0    1
 -2        59        61        60
 -1         7   12    0    1
 -2        61        63        62
 -1         8   12    0    1
 -2        63        65        64
 -1         9   12    0    1
 -2        65        67        66
 -1        10   12    0    1
 -2        67        69        68
 -1        11   12    0    1
 -2        69         9        70
 -1        12   12    0    1
 -2         2        87        86
 -1        13   12    0    1
 -2        87        89        88
 -1        14   12    0    1
 -2        89         9        90
 -1        15   12    0    1
 -2         3       122       121
 -1        16   12    0    1
 -2       122       124       123
 -1        17   12    0    1
 -2       124        10       125
 -1        18   12    0    1
 -2         5       192       191
 -1        19   12    0    1
 -2       192       194       193
 -1        20   12    0    1
 -2       194        12       195
 -1        21   12    0    1
 -2         8       252       251
 -1        22   12    0    1
 -2       252       254       253
 -1        23   12    0    1
 -2       254       256       255
 -1        24   12    0    1
 -2       256       258       257
 -1        25   12    0    1
 -2       258       260       259
 -1        26   12    0    1
 -2       260       262       261
 -1        27   12    0    1
 -2       262       264       263
 -1        28   12    0    1
 -2       264         9       265
 -1        29   12    0    1
 -2         8       267       266
 -1        30   12    0    1
 -2       267       269       268
 -1        31   12    0    1
 -2       269        15       270
 -1        32   12    0    1
 -2         8       272       271
 -1        33   12    0    1
 -2       272       274       273
 -1        34   12    0    1
 -2       274       276       275
 -1        35   12    0    1
 -2       276       278       277
 -1        36   12    0    1
 -2       278       280       279
 -1        37   12    0    1
 -2       280       282       281
 -1        38   12    0    1
 -2       282       284       283
 -1        39   12    0    1
 -2       284        16       285
 -1        40   12    0    1
 -2         9       302       301
 -1        41   12    0    1
 -2       302       304       303
 -1        42   12    0    1
 -2       304        16       305
 -1        43   12    0    1
 -2         9       307       306
 -1        44   12    0    1
 -2       307       309       308
 -1        45   12    0    1
 -2       309       311       310
 -1        46   12    0    1
 -2       311       313       312
 -1        47   12    0    1
 -2       313       315       314
 -1        48   12    0    1
 -2       315       317       316
 -1        49   12    0    1
 -2       317       319       318
 -1        50   12    0    1
 -2       319        17       320
 -1        51   12    0    1
 -2        10       337       336
 -1        52   12    0    1
 -2       337       339       338
 -1        53   12    0    1
 -2       339        17       340
 -1        54   12    0    1
 -2        12       407       406
 -1        55   12    0    1
 -2       407       409       408
 -1        56   12    0    1
 -2       409        19       410
 -1        57   12    0    1
 -2        16       522       521
 -1        58   12    0    1
 -2       522       524       523
 -1        59   12    0    1
 -2       524       526       525
 -1        60   12    0    1
 -2       526       528       527
 -1        61   12    0    1
 -2       528       530       529
 -1        62   12    0    1
 -2       530       532       531
 -1        63   12    0    1
 -2       532       534       533
 -1        64   12    0    1
 -2       534        24       535
 -1        65   12    0    1
 -2        17       537       536
 -1        66   12    0    1
 -2       537       539       538
 -1        67   12    0    1
 -2       539       541       540
 -1        68   12    0    1
 -2       541       543       542
 -1        69   12    0    1
 -2       543       545       544
 -1        70   12    0    1
 -2       545       547       546
 -1        71   12    0    1
 -2       547       549       548
 -1        72   12    0    1
 -2       549        18       550
 -1        73   12    0    1
 -2        17       552       551
 -1        74   12    0    1
 -2       552       554       553
 -1        75   12    0    1
 -2       554        24       555
 -1        76   12    0    1
 -2        17       557       556
 -1        77   12    0    1
 -2       557       559       558
 -1        78   12    0    1
 -2       559       561       560
 -1        79   12    0    1
 -2       561       563       562
 -1        80   12    0    1
 -2       563       565       564
 -1        81   12    0    1
 -2       565       567       566
 -1        82   12    0    1
 -2       567       569       568
 -1        83   12    0    1
 -2       569        25       570
 -1        84   12    0    1
 -2        18       572       571
 -1        85   12    0    1
 -2       572       574       573
 -1        86   12    0    1
 -2       574       576       575
 -1        87   12    0    1
 -2       576       578       577
 -1        88   12    0    1
 -2       578       580       579
 -1        89   12    0    1
 -2       580       582       581
 -1        90   12    0    1
 -2       582       584       583
 -1        91   12    0    1
 -2       584        19       585
 -1        92   12    0    1
 -2        18       587       586
 -1        93   12    0    1
 -2       587       589       588
 -1        94   12    0    1
 -2       589        25       590
 -1        95   12    0    1
 -2        18       592       591
 -1        96   12    0    1
 -2       592       594       593
 -1        97   12    0    1
 -2       594       596       595
 -1        98   12    0    1
 -2       596       598       597
 -1        99   12    0    1
 -2       598       600       599
 -1       100   12    0    1
 -2       600       602       601
 -1       101   12    0    1
 -2       602       604       603
 -1       102   12    0    1
 -2       604        26       605
 -1       103   12    0    1
 -2        19       607       606
 -1       104   12    0    1
 -2       607       609       608
 -1       105   12    0    1
 -2       609       611       610
 -1       106   12    0    1
 -2       611       613       612
 -1       107   12    0    1
 -2       613       615       614
 -1       108   12    0    1
 -2       615       617       616
 -1       109   12    0    1
 -2       617       619       618
 -1       110   12    0    1
 -2       619        20       620
 -1       111   12    0    1
 -2        19       622       621
 -1       112   12    0    1
 -2       622       624       623
 -1       113   12    0    1
 -2       624        26       625
 -1       114   12    0    1
 -2        19       627       626
 -1       115   12    0    1
 -2       627       629       628
 -1       116   12    0    1
 -2       629       631       630
 -1       117   12    0    1
 -2       631       633       632
 -1       118   12    0    1
 -2       633       635       634
 -1       119   12    0    1
 -2       635       637       636
 -1       120   12    0    1
 -2       637       639       638
 -1       121   12    0    1
 -2       639        27       640
 -1       122   12    0    1
 -2        20       657       656
 -1       123   12    0    1
 -2       657       659       658
 -1       124   12    0    1
 -2       659        27       660
 -1       125   12    0    1
 -2        20       662       661
 -1       126   12    0    1
 -2       662       664       663
 -1       127   12    0    1
 -2       664       666       665
 -1       128   12    0    1
 -2       666       668       667
 -1       129   12    0    1
 -2       668       670       669
 -1       130   12    0    1
 -2       670       672       671
 -1       131   12    0    1
 -2       672       674       673
 -1       132   12    0    1
 -2       674        28       675
 -1       133   12    0    1
 -2        21       677       676
 -1       134   12    0    1
 -2       677       679       678
 -1       135   12    0    1
 -2       679        28       680
 -1       136   12    0    1
 -2        24       772       771
 -1       137   12    0    1
 -2       772       774       773
 -1       138   12    0    1
 -2       774       776       775
 -1       139   12    0    1
 -2       776       778       777
 -1       140   12    0    1
 -2       778       780       779
 -1       141   12    0    1
 -2       780       782       781
 -1       142   12    0    1
 -2       782       784       783
 -1       143   12    0    1
 -2       784        32       785
 -1       144   12    0    1
 -2        25       787       786
 -1       145   12    0    1
 -2       787       789       788
 -1       146   12    0    1
 -2       789       791       790
 -1       147   12    0    1
 -2       791       793       792
 -1       148   12    0    1
 -2       793       795       794
 -1       149   12    0    1
 -2       795       797       796
 -1       150   12    0    1
 -2       797       799       798
 -1       151   12    0    1
 -2       799        26       800
 -1       152   12    0    1
 -2        25       802       801
 -1       153   12    0    1
 -2       802       804       803
 -1       154   12    0    1
 -2       804        32       805
 -1       155   12    0    1
 -2        25       807       806
 -1       156   12    0    1
 -2       807       809       808
 -1       157   12    0    1
 -2       809       811       810
 -1       158   12    0    1
 -2       811       813       812
 -1       159   12    0    1
 -2       813       815       814
 -1       160   12    0    1
 -2       815       817       816
 -1       161   12    0    1
 -2       817       819       818
 -1       162   12    0    1
 -2       819        33       820
 -1       163   12    0    1
 -2        26       822       821
 -1       164   12    0    1
 -2       822       824       823
 -1       165   12    0    1
 -2       824       826       825
 -1       166   12    0    1
 -2       826       828       827
 -1       167   12    0    1
 -2       828       830       829
 -1       168   12    0    1
 -2       830       832       831
 -1       169   12    0    1
 -2       832       834       833
 -1       170   12    0    1
 -2       834        27       835
 -1       171   12    0    1
 -2        26       837       836
 -1       172   12    0    1
 -2       837       839       838
 -1       173   12    0    1
 -2       839        33       840
 -1       174   12    0    1
 -2        27       857       856
 -1       175   12    0    1
 -2       857       859       858
 -1       176   12    0    1
 -2       859       861       860
 -1       177   12    0    1
 -2       861       863       862
 -1       178   12    0    1
 -2       863       865       864
 -1       179   12    0    1
 -2       865       867       866
 -1       180   12    0    1
 -2       867       869       868
 -1       181   12    0    1
 -2       869        28       870
 -1       182   12    0    1
 -2        27       872       871
 -1       183   12    0    1
 -2       872       874       873
 -1       184   12    0    1
 -2       874        34       875
 -1       185   12    0    1
 -2        27       877       876
 -1       186   12    0    1
 -2       877       879       878
 -1       187   12    0    1
 -2       879       881       880
 -1       188   12    0    1
 -2       881       883       882
 -1       189   12    0    1
 -2       883       885       884
 -1       190   12    0    1
 -2       885       887       886
 -1       191   12    0    1
 -2       887       889       888
 -1       192   12    0    1
 -2       889        35       890
 -1       193   12    0    1
 -2        28       892       891
 -1       194   12    0    1
 -2       892       894       893
 -1       195   12    0    1
 -2       894        35       895
 -1       196   12    0    1
 -2        33       957       956
 -1       197   12    0    1
 -2       957       959       958
 -1       198   12    0    1
 -2       959       961       960
 -1       199   12    0    1
 -2       961       963       962
 -1       200   12    0    1
 -2       963       965       964
 -1       201   12    0    1
 -2       965       967       966
 -1       202   12    0    1
 -2       967       969       968
 -1       203   12    0    1
 -2       969        34       970
 -1       204   12    0    1
 -2        34       972       971
 -1       205   12    0    1
 -2       972       974       973
 -1       206   12    0    1
 -2       974       976       975
 -1       207   12    0    1
 -2       976       978       977
 -1       208   12    0    1
 -2       978       980       979
 -1       209   12    0    1
 -2       980       982       981
 -1       210   12    0    1
 -2       982       984       983
 -1       211   12    0    1
 -2       984        35       985
 -3
    1PSTEP                         1           1           1          
  100CL  101 2.50000E-01         409                     0    1           1
 -4  DISP        4    1
 -5  D1          1    2    1    0
 -5  D2          1    2    2    0
 -5  D3          1    2    3    0
 -5  ALL         1    2    0    0    1ALL
 -1         1 6.58280E-05 0.00000E+00 0.00000E+00
 -1         2 6.11961E-05 2.20765E-29-1.65436E-24
 -1         3 5.42861E-05-2.55886E-27 3.30872E-24
 -1         5 3.94384E-05 5.07202E-26-1.65436E-24
 -1         8 5.25638E-05-4.74310E-07 0.00000E+00
 -1         9 5.36421E-05 3.58513E-07 0.00000E+00
 -1        10 5.03535E-05-7.46047E-07 0.00000E+00
 -1        12 3.91431E-05 2.72089E-07-8.27181E-25
 -1        15 3.67859E-05-5.07339E-07 0.00000E+00
 -1        16 3.79728E-05 2.97167E-07 0.00000E+00
 -1        17 3.76418E-05-1.56264E-06 0.00000E+00
 -1        18 3.77315E-05-3.95878E-08 0.00000E+00
 -1        19 3.82575E-05 5.42701E-07 0.00000E+00
 -1        20 3.83296E-05 8.20810E-06 0.00000E+00
 -1        21 3.80593E-05 1.55500E-05-8.27181E-25
 -1        24 9.79844E-06-2.07390E-06 0.00000E+00
 -1        25 3.67698E-05 2.25011E-08 0.00000E+00
 -1        26 3.72686E-05 7.56375E-07 0.00000E+00
 -1        27 3.65167E-05 6.99848E-06 0.00000E+00
 -1        28 3.62719E-05 1.53172E-05 0.00000E+00
 -1        32 0.00000E+00 0.00000E+00 0.00000E+00
 -1        33 3.56264E-05 1.01462E-06 0.00000E+00
 -1        34 3.48992E-05 6.98783E-06 0.00000E+00
 -1        35 3.42080E-05 1.51945E-05 0.00000E+00
 -1        51 6.49649E-05-7.89686E-08 0.00000E+00
 -1        52 6.33654E-05-1.55638E-07 0.00000E+00
 -1        53 6.11748E-05-2.32574E-07 0.00000E+00
 -1        54 5.85435E-05-3.10488E-07 0.00000E+00
 -1        55 5.56227E-05-3.89903E-07 2.79173E-24
 -1        56 6.52365E-05-3.65685E-07 1.32349E-23
 -1        57 6.47083E-05-9.66823E-07 6.61744E-24
 -1        58 6.42442E-05-1.73539E-06-1.32349E-23
 -1        59 6.38161E-05-2.61114E-06 0.00000E+00
 -1        60 6.34028E-05-3.52720E-06 2.64698E-23
 -1        61 6.29793E-05-4.41769E-06-1.32349E-23
 -1        62 6.25215E-05-5.21717E-06 0.00000E+00
 -1        63 6.20057E-05-5.86189E-06 0.00000E+00
 -1        64 6.14098E-05-6.29291E-06 0.00000E+00
 -1        65 6.07131E-05-6.45461E-06 0.00000E+00
 -1        66 5.98977E-05-6.29992E-06-2.64698E-23
 -1        67 5.89482E-05-5.78654E-06 1.32349E-23
 -1        68 5.78525E-05-4.88386E-06-1.32349E-23
 -1        69 5.66043E-05-3.56592E-06-6.61744E-24
 -1        70 5.51945E-05-1.82274E-06 1.32349E-23
 -1        86 6.09962E-05 6.34419E-08 0.00000E+00
 -1        87 6.03959E-05 1.26430E-07 8.27181E-25
 -1        88 5.93813E-05 1.89053E-07 0.00000E+00
 -1        89 5.79372E-05 2.49288E-07 2.58494E-26
 -1        90 5.60344E-05 3.09418E-07 1.65436E-24
 -1       121 5.41766E-05-1.24022E-07-3.30872E-24
 -1       122 5.38482E-05-2.48094E-07 0.00000E+00
 -1       123 5.33011E-05-3.72262E-07 0.00000E+00
 -1       124 5.25358E-05-4.96596E-07 0.00000E+00
 -1       125 5.15530E-05-6.21108E-07 0.00000E+00
 -1       191 3.94302E-05 4.53513E-08 0.00000E+00
 -1       192 3.94056E-05 9.07017E-08-8.27181E-25
 -1       193 3.93646E-05 1.36052E-07 0.00000E+00
 -1       194 3.93071E-05 1.81400E-07 0.00000E+00
 -1       195 3.92333E-05 2.26746E-07 0.00000E+00
 -1       251 5.26197E-05 1.70280E-06-1.65436E-24
 -1       252 5.26872E-05 2.98972E-06 0.00000E+00
 -1       253 5.27548E-05 3.53797E-06-1.65436E-24
 -1       254 5.28245E-05 3.49679E-06 0.00000E+00
 -1       255 5.28941E-05 2.99377E-06 0.00000E+00
 -1       256 5.29638E-05 2.15513E-06-8.27181E-25
 -1       257 5.30335E-05 1.09467E-06 1.65436E-24
 -1       258 5.31030E-05-7.44291E-08 0.00000E+00
 -1       259 5.31726E-05-1.24307E-06 0.00000E+00
 -1       260 5.32422E-05-2.30212E-06-8.27181E-25
 -1       261 5.33120E-05-3.13837E-06 0.00000E+00
 -1       262 5.33816E-05-3.63800E-06 8.27181E-25
 -1       263 5.34512E-05-3.67470E-06 0.00000E+00
 -1       264 5.35188E-05-3.12082E-06-1.03398E-25
 -1       265 5.35863E-05-1.82695E-06 1.65436E-24
 -1       266 4.99341E-05-4.86365E-07 0.00000E+00
 -1       267 4.73045E-05-4.91072E-07 8.27181E-25
 -1       268 4.46749E-05-4.96243E-07 0.00000E+00
 -1       269 4.20452E-05-5.00037E-07 0.00000E+00
 -1       270 3.94156E-05-5.03798E-07 0.00000E+00
 -1       271 5.09655E-05 1.47581E-06 0.00000E+00
 -1       272 4.96122E-05 2.69896E-06 1.32349E-23
 -1       273 4.84972E-05 3.29155E-06 0.00000E+00
 -1       274 4.75803E-05 3.34496E-06 0.00000E+00
 -1       275 4.68278E-05 2.95929E-06 0.00000E+00
 -1       276 4.62004E-05 2.23755E-06 0.00000E+00
 -1       277 4.56587E-05 1.28662E-06 2.64698E-23
 -1       278 4.51619E-05 2.15489E-07-1.32349E-23
 -1       279 4.46688E-05-8.65588E-07 2.64698E-23
 -1       280 4.41381E-05-1.84621E-06 0.00000E+00
 -1       281 4.35291E-05-2.61714E-06 2.64698E-23
 -1       282 4.28017E-05-3.07110E-06 0.00000E+00
 -1       283 4.19169E-05-3.10432E-06-2.64698E-23
 -1       284 4.08392E-05-2.61627E-06 0.00000E+00
 -1       285 3.95298E-05-1.51391E-06 1.32349E-23
 -1       301 5.09868E-05 3.45327E-07 3.30872E-24
 -1       302 4.83334E-05 3.39837E-07 0.00000E+00
 -1       303 4.56935E-05 3.34558E-07 1.65436E-24
 -1       304 4.30790E-05 3.28382E-07 1.65436E-24
 -1       305 4.05015E-05 3.20961E-07 0.00000E+00
 -1       306 5.18936E-05 2.31610E-06 1.32349E-23
 -1       307 5.03812E-05 3.55585E-06 1.32349E-23
 -1       308 4.91398E-05 4.08150E-06 0.00000E+00
 -1       309 4.81566E-05 3.90319E-06 1.32349E-23
 -1       310 4.74016E-05 3.11595E-06 2.64698E-23
 -1       311 4.68319E-05 1.83056E-06 1.32349E-23
 -1       312 4.63853E-05 2.15525E-07-2.64698E-23
 -1       313 4.59953E-05-1.55131E-06 0.00000E+00
 -1       314 4.55888E-05-3.27430E-06 0.00000E+00
 -1       315 4.50937E-05-4.75908E-06 0.00000E+00
 -1       316 4.44472E-05-5.83921E-06 0.00000E+00
 -1       317 4.35925E-05-6.35981E-06-1.32349E-23
 -1       318 4.24941E-05-6.23056E-06 0.00000E+00
 -1       319 4.11305E-05-5.37787E-06 0.00000E+00
 -1       320 3.94973E-05-3.81571E-06-1.32349E-23
 -1       336 4.89096E-05-8.81094E-07 3.30872E-24
 -1       337 4.71932E-05-1.01674E-06 1.65436E-24
 -1       338 4.52060E-05-1.15283E-06 0.00000E+00
 -1       339 4.29500E-05-1.28928E-06 0.00000E+00
 -1       340 4.04277E-05-1.42637E-06 0.00000E+00
 -1       406 3.90364E-05 3.17424E-07 1.65436E-24
 -1       407 3.89134E-05 3.62743E-07 8.27181E-25
 -1       408 3.87739E-05 4.08032E-07-1.65436E-24
 -1       409 3.86181E-05 4.53235E-07-8.27181E-25
 -1       410 3.84459E-05 4.98263E-07 0.00000E+00
 -1       521 3.56589E-05 1.76834E-06-2.64698E-23
 -1       522 3.36255E-05 2.34254E-06 2.64698E-23
 -1       523 3.19120E-05 2.07468E-06-5.29396E-23
 -1       524 3.04789E-05 1.03250E-06 0.00000E+00
 -1       525 2.92734E-05-6.18770E-07 0.00000E+00
 -1       526 2.82233E-05-2.69075E-06 0.00000E+00
 -1       527 2.72410E-05-4.94482E-06-5.29396E-23
 -1       528 2.62345E-05-7.13501E-06 0.00000E+00
 -1       529 2.51151E-05-9.02258E-06-5.29396E-23
 -1       530 2.37985E-05-1.03821E-05 0.00000E+00
 -1       531 2.22231E-05-1.10503E-05-5.29396E-23
 -1       532 2.03398E-05-1.08934E-05 0.00000E+00
 -1       533 1.81327E-05-9.87539E-06-5.29396E-23
 -1       534 1.56100E-05-7.99415E-06 2.64698E-23
 -1       535 1.27973E-05-5.35545E-06 2.64698E-23
 -1       536 3.76401E-05 1.01767E-06 0.00000E+00
 -1       537 3.76441E-05 2.92822E-06 4.13590E-25
 -1       538 3.76487E-05 4.24937E-06 2.06795E-25
 -1       539 3.76546E-05 5.06127E-06 0.00000E+00
 -1       540 3.76609E-05 5.43685E-06-1.03398E-25
 -1       541 3.76673E-05 5.44893E-06 0.00000E+00
 -1       542 3.76737E-05 5.16506E-06 2.06795E-25
 -1       543 3.76801E-05 4.65271E-06 0.00000E+00
 -1       544 3.76864E-05 3.97607E-06 0.00000E+00
 -1       545 3.76927E-05 3.19925E-06 1.03398E-25
 -1       546 3.76989E-05 2.38493E-06-2.06795E-25
 -1       547 3.77052E-05 1.59577E-06 0.00000E+00
 -1       548 3.77115E-05 8.94800E-07 0.00000E+00
 -1       549 3.77180E-05 3.45072E-07-1.03398E-25
 -1       550 3.77245E-05 1.18420E-08-4.13590E-25
 -1       551 3.39501E-05-1.64143E-06 0.00000E+00
 -1       552 2.95317E-05-1.72178E-06-1.65436E-24
 -1       553 2.46452E-05-1.80437E-06-1.65436E-24
 -1       554 1.95530E-05-1.88925E-06 0.00000E+00
 -1       555 1.45173E-05-1.97532E-06 0.00000E+00
 -1       556 3.66775E-05 9.40584E-07 0.00000E+00
 -1       557 3.59421E-05 2.84891E-06 0.00000E+00
 -1       558 3.54106E-05 4.21756E-06 0.00000E+00
 -1       559 3.50603E-05 5.10603E-06 0.00000E+00
 -1       560 3.48683E-05 5.57368E-06 0.00000E+00
 -1       561 3.48120E-05 5.68017E-06 0.00000E+00
 -1       562 3.48688E-05 5.48517E-06 0.00000E+00
 -1       563 3.50163E-05 5.04843E-06 0.00000E+00
 -1       564 3.52319E-05 4.42970E-06 1.65436E-24
 -1       565 3.54933E-05 3.68875E-06 0.00000E+00
 -1       566 3.57780E-05 2.88537E-06 4.13590E-25
 -1       567 3.60638E-05 2.07934E-06 1.03398E-25
 -1       568 3.63281E-05 1.33045E-06 0.00000E+00
 -1       569 3.65488E-05 6.98412E-07 0.00000E+00
 -1       570 3.67033E-05 2.42960E-07 0.00000E+00
 -1       571 3.77635E-05 1.82583E-08-2.06795E-25
 -1       572 3.77961E-05 5.43973E-08 1.03398E-25
 -1       573 3.78289E-05 7.26766E-08 0.00000E+00
 -1       574 3.78618E-05 7.71472E-08 2.06795E-25
 -1       575 3.78948E-05 7.18780E-08 8.27181E-25
 -1       576 3.79278E-05 6.09654E-08 0.00000E+00
 -1       577 3.79608E-05 4.85083E-08 8.27181E-25
 -1       578 3.79937E-05 3.86090E-08 0.00000E+00
 -1       579 3.80267E-05 3.53701E-08 1.65436E-24
 -1       580 3.80597E-05 4.28941E-08 0.00000E+00
 -1       581 3.80927E-05 6.52831E-08 0.00000E+00
 -1       582 3.81257E-05 1.06634E-07 0.00000E+00
 -1       583 3.81587E-05 1.71041E-07 1.65436E-24
 -1       584 3.81917E-05 2.62555E-07 0.00000E+00
 -1       585 3.82246E-05 3.85203E-07 1.65436E-24
 -1       586 3.75604E-05-2.85883E-08 0.00000E+00
 -1       587 3.73752E-05-1.78708E-08-1.03398E-25
 -1       588 3.71898E-05-7.27358E-09 0.00000E+00
 -1       589 3.70179E-05 3.15454E-09 0.00000E+00
 -1       590 3.68734E-05 1.32987E-08 0.00000E+00
 -1       591 3.76947E-05 3.47808E-08 5.16988E-26
 -1       592 3.76633E-05 9.10320E-08 0.00000E+00
 -1       593 3.76374E-05 1.32606E-07 0.00000E+00
 -1       594 3.76156E-05 1.62603E-07 0.00000E+00
 -1       595 3.75970E-05 1.84166E-07 4.13590E-25
 -1       596 3.75803E-05 2.00412E-07-1.03398E-25
 -1       597 3.75645E-05 2.14460E-07 0.00000E+00
 -1       598 3.75483E-05 2.29422E-07-1.03398E-25
 -1       599 3.75306E-05 2.48416E-07 0.00000E+00
 -1       600 3.75102E-05 2.74553E-07 0.00000E+00
 -1       601 3.74860E-05 3.10949E-07 0.00000E+00
 -1       602 3.74568E-05 3.60721E-07 1.03398E-25
 -1       603 3.74215E-05 4.26988E-07 1.80946E-25
 -1       604 3.73789E-05 5.12891E-07 5.16988E-26
 -1       605 3.73279E-05 6.21534E-07 0.00000E+00
 -1       606 3.82636E-05 7.75197E-07 0.00000E+00
 -1       607 3.82686E-05 1.05505E-06 8.27181E-25
 -1       608 3.82733E-05 1.37948E-06 0.00000E+00
 -1       609 3.82778E-05 1.74535E-06 0.00000E+00
 -1       610 3.82822E-05 2.14951E-06 0.00000E+00
 -1       611 3.82866E-05 2.58878E-06 0.00000E+00
 -1       612 3.82910E-05 3.05994E-06 0.00000E+00
 -1       613 3.82954E-05 3.55981E-06 0.00000E+00
 -1       614 3.82997E-05 4.08518E-06 0.00000E+00
 -1       615 3.83041E-05 4.63286E-06 4.13590E-25
 -1       616 3.83084E-05 5.19964E-06 0.00000E+00
 -1       617 3.83127E-05 5.78233E-06 0.00000E+00
 -1       618 3.83170E-05 6.37771E-06 4.13590E-25
 -1       619 3.83213E-05 6.98260E-06 0.00000E+00
 -1       620 3.83255E-05 7.59380E-06 0.00000E+00
 -1       621 3.80709E-05 5.78337E-07-8.27181E-25
 -1       622 3.78965E-05 6.14148E-07 0.00000E+00
 -1       623 3.77317E-05 6.49953E-07 0.00000E+00
 -1       624 3.75738E-05 6.85702E-07-4.13590E-25
 -1       625 3.74203E-05 7.21389E-07-8.27181E-25
 -1       626 3.82084E-05 7.86373E-07 0.00000E+00
 -1       627 3.81449E-05 1.06930E-06 0.00000E+00
 -1       628 3.80680E-05 1.38785E-06-1.65436E-24
 -1       629 3.79793E-05 1.73815E-06 0.00000E+00
 -1       630 3.78802E-05 2.11632E-06 0.00000E+00
 -1       631 3.77720E-05 2.51846E-06 0.00000E+00
 -1       632 3.76563E-05 2.94066E-06 1.65436E-24
 -1       633 3.75346E-05 3.37901E-06 0.00000E+00
 -1       634 3.74083E-05 3.82962E-06-1.65436E-24
 -1       635 3.72788E-05 4.28856E-06 0.00000E+00
 -1       636 3.71476E-05 4.75194E-06-8.27181E-25
 -1       637 3.70163E-05 5.21584E-06 0.00000E+00
 -1       638 3.68861E-05 5.67636E-06 0.00000E+00
 -1       639 3.67587E-05 6.12959E-06 0.00000E+00
 -1       640 3.66352E-05 6.57161E-06 0.00000E+00
 -1       656 3.78182E-05 8.01133E-06-3.30872E-24
 -1       657 3.74848E-05 7.80665E-06-1.65436E-24
 -1       658 3.72600E-05 7.60260E-06 0.00000E+00
 -1       659 3.70733E-05 7.39872E-06 0.00000E+00
 -1       660 3.68502E-05 7.19419E-06 0.00000E+00
 -1       661 3.81403E-05 8.81041E-06 0.00000E+00
 -1       662 3.79619E-05 9.38771E-06-4.13590E-25
 -1       663 3.77927E-05 9.94047E-06-8.27181E-25
 -1       664 3.76325E-05 1.04698E-05 0.00000E+00
 -1       665 3.74808E-05 1.09767E-05 0.00000E+00
 -1       666 3.73372E-05 1.14620E-05 0.00000E+00
 -1       667 3.72014E-05 1.19266E-05-8.27181E-25
 -1       668 3.70730E-05 1.23714E-05-4.13590E-25
 -1       669 3.69517E-05 1.27974E-05-8.27181E-25
 -1       670 3.68371E-05 1.32053E-05 4.13590E-25
 -1       671 3.67291E-05 1.35959E-05 0.00000E+00
 -1       672 3.66271E-05 1.39702E-05-4.13590E-25
 -1       673 3.65310E-05 1.43288E-05 0.00000E+00
 -1       674 3.64400E-05 1.46724E-05-4.13590E-25
 -1       675 3.63545E-05 1.50019E-05 0.00000E+00
 -1       676 3.77610E-05 1.55110E-05 0.00000E+00
 -1       677 3.74628E-05 1.54719E-05 4.13590E-25
 -1       678 3.71647E-05 1.54329E-05 0.00000E+00
 -1       679 3.68668E-05 1.53941E-05 4.13590E-25
 -1       680 3.65692E-05 1.53552E-05 0.00000E+00
 -1       771 7.89166E-06 1.50659E-06-1.32349E-23
 -1       772 6.22838E-06 4.43002E-06 0.00000E+00
 -1       773 4.79813E-06 6.73598E-06 0.00000E+00
 -1       774 3.58485E-06 8.46571E-06 0.00000E+00
 -1       775 2.57284E-06 9.66092E-06 0.00000E+00
 -1       776 1.74591E-06 1.03641E-05 0.00000E+00
 -1       777 1.08772E-06 1.06181E-05 0.00000E+00
 -1       778 5.81759E-07 1.04665E-05 6.61744E-24
 -1       779 2.11403E-07 9.95314E-06 1.32349E-23
 -1       780-4.01214E-08 9.12252E-06 0.00000E+00
 -1       781-1.89622E-07 8.01930E-06 1.32349E-23
 -1       782-2.54036E-07 6.68859E-06 6.61744E-24
 -1       783-2.50317E-07 5.17564E-06 1.32349E-23
 -1       784-1.95470E-07 3.52604E-06-6.61744E-24
 -1       785-1.06562E-07 1.78549E-06 1.32349E-23
 -1       786 3.67992E-05 3.19400E-08 4.13590E-25
 -1       787 3.68303E-05 4.14080E-08 0.00000E+00
 -1       788 3.68613E-05 5.16090E-08 0.00000E+00
 -1       789 3.68926E-05 6.32478E-08 4.13590E-25
 -1       790 3.69239E-05 7.71307E-08 0.00000E+00
 -1       791 3.69553E-05 9.40681E-08 4.13590E-25
 -1       792 3.69867E-05 1.15086E-07 0.00000E+00
 -1       793 3.70181E-05 1.41217E-07 0.00000E+00
 -1       794 3.70495E-05 1.73855E-07-8.27181E-25
 -1       795 3.70809E-05 2.14405E-07-4.13590E-25
 -1       796 3.71123E-05 2.64831E-07 0.00000E+00
 -1       797 3.71437E-05 3.27112E-07 0.00000E+00
 -1       798 3.71751E-05 4.04067E-07 0.00000E+00
 -1       799 3.72064E-05 4.98536E-07 0.00000E+00
 -1       800 3.72377E-05 6.14602E-07 8.27181E-25
 -1       801 3.42831E-05 4.29228E-08 1.03398E-25
 -1       802 2.69066E-05 4.09023E-08 0.00000E+00
 -1       803 1.72149E-05 2.07048E-08 0.00000E+00
 -1       804 7.77981E-06-7.20738E-10 1.65436E-24
 -1       805 1.18031E-06-3.14582E-10 0.00000E+00
 -1       806 3.67278E-05 1.10752E-08-8.27181E-25
 -1       807 3.66842E-05-4.83985E-10-4.13590E-25
 -1       808 3.66394E-05-9.72980E-09 8.27181E-25
 -1       809 3.65929E-05-1.45840E-08 8.27181E-25
 -1       810 3.65438E-05-1.29722E-08-8.27181E-25
 -1       811 3.64916E-05-2.84993E-09-4.13590E-25
 -1       812 3.64353E-05 1.78250E-08 8.27181E-25
 -1       813 3.63744E-05 5.10901E-08-8.27181E-25
 -1       814 3.63079E-05 9.89828E-08 0.00000E+00
 -1       815 3.62353E-05 1.63538E-07-8.27181E-25
 -1       816 3.61556E-05 2.46791E-07-8.27181E-25
 -1       817 3.60681E-05 3.50777E-07-4.13590E-25
 -1       818 3.59721E-05 4.77530E-07 0.00000E+00
 -1       819 3.58669E-05 6.29075E-07-4.13590E-25
 -1       820 3.57517E-05 8.07443E-07-8.27181E-25
 -1       821 3.72243E-05 9.27549E-07 0.00000E+00
 -1       822 3.71772E-05 1.13189E-06 0.00000E+00
 -1       823 3.71304E-05 1.37417E-06 0.00000E+00
 -1       824 3.70830E-05 1.65904E-06 0.00000E+00
 -1       825 3.70355E-05 1.98690E-06 0.00000E+00
 -1       826 3.69880E-05 2.35801E-06 0.00000E+00
 -1       827 3.69404E-05 2.76825E-06 0.00000E+00
 -1       828 3.68928E-05 3.21346E-06-8.27181E-25
 -1       829 3.68452E-05 3.68589E-06 0.00000E+00
 -1       830 3.67976E-05 4.17776E-06-8.27181E-25
 -1       831 3.67500E-05 4.67932E-06-1.65436E-24
 -1       832 3.67025E-05 5.18078E-06 8.27181E-25
 -1       833 3.66550E-05 5.67237E-06 0.00000E+00
 -1       834 3.66081E-05 6.14435E-06 0.00000E+00
 -1       835 3.65610E-05 6.58896E-06 4.13590E-25
 -1       836 3.70668E-05 7.99358E-07 8.27181E-25
 -1       837 3.68081E-05 8.43297E-07 4.13590E-25
 -1       838 3.65136E-05 8.87157E-07 8.27181E-25
 -1       839 3.62044E-05 9.30739E-07-4.13590E-25
 -1       840 3.59017E-05 9.74252E-07 0.00000E+00
 -1       856 3.65031E-05 7.41818E-06 0.00000E+00
 -1       857 3.64879E-05 7.88980E-06 0.00000E+00
 -1       858 3.64729E-05 8.40511E-06 4.13590E-25
 -1       859 3.64575E-05 8.95589E-06 0.00000E+00
 -1       860 3.64421E-05 9.53386E-06 0.00000E+00
 -1       861 3.64266E-05 1.01307E-05 0.00000E+00
 -1       862 3.64112E-05 1.07383E-05 0.00000E+00
 -1       863 3.63957E-05 1.13481E-05 0.00000E+00
 -1       864 3.63802E-05 1.19520E-05-4.13590E-25
 -1       865 3.63647E-05 1.25416E-05-2.06795E-25
 -1       866 3.63492E-05 1.31087E-05 0.00000E+00
 -1       867 3.63338E-05 1.36450E-05 0.00000E+00
 -1       868 3.63183E-05 1.41422E-05 0.00000E+00
 -1       869 3.63029E-05 1.45921E-05-2.06795E-25
 -1       870 3.62874E-05 1.49865E-05 0.00000E+00
 -1       871 3.61944E-05 6.99811E-06 0.00000E+00
 -1       872 3.59218E-05 6.99671E-06 0.00000E+00
 -1       873 3.56776E-05 6.99512E-06-2.06795E-25
 -1       874 3.54401E-05 6.99328E-06 0.00000E+00
 -1       875 3.51878E-05 6.99121E-06 0.00000E+00
 -1       876 3.64046E-05 7.42242E-06 0.00000E+00
 -1       877 3.62841E-05 7.87162E-06-8.27181E-25
 -1       878 3.61554E-05 8.34299E-06 0.00000E+00
 -1       879 3.60195E-05 8.83373E-06 0.00000E+00
 -1       880 3.58775E-05 9.34095E-06 3.30872E-24
 -1       881 3.57303E-05 9.86180E-06-8.27181E-25
 -1       882 3.55791E-05 1.03935E-05 0.00000E+00
 -1       883 3.54250E-05 1.09331E-05 0.00000E+00
 -1       884 3.52689E-05 1.14778E-05 0.00000E+00
 -1       885 3.51119E-05 1.20248E-05 0.00000E+00
 -1       886 3.49551E-05 1.25713E-05 0.00000E+00
 -1       887 3.47996E-05 1.31143E-05-4.13590E-25
 -1       888 3.46463E-05 1.36511E-05 8.27181E-25
 -1       889 3.44962E-05 1.41787E-05 0.00000E+00
 -1       890 3.43504E-05 1.46943E-05 8.27181E-25
 -1       891 3.59846E-05 1.52967E-05 4.13590E-25
 -1       892 3.56883E-05 1.52761E-05 0.00000E+00
 -1       893 3.53727E-05 1.52555E-05 0.00000E+00
 -1       894 3.50276E-05 1.52349E-05 1.03398E-25
 -1       895 3.46427E-05 1.52144E-05 0.00000E+00
 -1       956 3.55818E-05 1.28064E-06 0.00000E+00
 -1       957 3.55364E-05 1.57583E-06 0.00000E+00
 -1       958 3.54910E-05 1.89714E-06 0.00000E+00
 -1       959 3.54454E-05 2.24139E-06 4.13590E-25
 -1       960 3.53998E-05 2.60536E-06-8.27181E-25
 -1       961 3.53542E-05 2.98583E-06 8.27181E-25
 -1       962 3.53085E-05 3.37957E-06-8.27181E-25
 -1       963 3.52629E-05 3.78335E-06 0.00000E+00
 -1       964 3.52173E-05 4.19395E-06 0.00000E+00
 -1       965 3.51716E-05 4.60812E-06 0.00000E+00
 -1       966 3.51260E-05 5.02266E-06 0.00000E+00
 -1       967 3.50804E-05 5.43431E-06 8.27181E-25
 -1       968 3.50348E-05 5.83986E-06 0.00000E+00
 -1       969 3.49893E-05 6.23610E-06 0.00000E+00
 -1       970 3.49439E-05 6.61979E-06 0.00000E+00
 -1       971 3.48565E-05 7.36578E-06 0.00000E+00
 -1       972 3.48132E-05 7.78230E-06 8.27181E-25
 -1       973 3.47699E-05 8.23310E-06-8.27181E-25
 -1       974 3.47265E-05 8.71376E-06-8.27181E-25
 -1       975 3.46831E-05 9.21985E-06 8.27181E-25
 -1       976 3.46396E-05 9.74692E-06 4.13590E-25
 -1       977 3.45961E-05 1.02905E-05 0.00000E+00
 -1       978 3.45527E-05 1.08463E-05 0.00000E+00
 -1       979 3.45092E-05 1.14096E-05 0.00000E+00
 -1       980 3.44657E-05 1.19762E-05 8.27181E-25
 -1       981 3.44223E-05 1.25416E-05 1.65436E-24
 -1       982 3.43788E-05 1.31013E-05-8.27181E-25
 -1       983 3.43355E-05 1.36508E-05-1.65436E-24
 -1       984 3.42923E-05 1.41858E-05-8.27181E-25
 -1       985 3.42493E-05 1.47018E-05-8.27181E-25
 -3
    1PSTEP                         2           1           1          
  100CL  101 2.50000E-01         409                     0    1           1
 -4  STRESS      6    1
 -5  SXX         1    4    1    1
 -5  SYY         1    4    2    2
 -5  SZZ         1    4    3    3
 -5  SXY         1    4    1    2
 -5  SYZ         1    4    2    3
 -5  SZX         1    4    3    1
 -1         1-8.51292E+05-3.95168E+05-1.72198E+05-5.57167E+05 1.16415E-10 1.22964E-09
 -1         2 1.47778E+03 1.83422E+05 4.81597E+03 3.12247E+02-9.58380E-11 5.02223E-09
 -1         3-1.70942E+01-3.54535E+05 8.14928E+01-6.30090E+01-3.82689E-11-1.01954E-09
 -1         5-2.25302E+00 1.29754E+05 3.39873E+00-5.31423E-02 8.13496E-11 1.06211E-08
 -1         8-4.00616E+05-1.76839E+05-1.15563E+04-3.11692E+05 9.45874E-11-4.83851E-10
 -1         9-7.28796E+05-1.90233E+05-7.84739E+04-2.51953E+05 1.36934E-09-8.32370E-10
 -1        10-2.62043E+02-3.69355E+05-4.68158E+02-4.17095E+02-1.69121E-09-2.45620E-10
 -1        12-8.57783E-01 1.29761E+05 1.10174E+02-1.10845E-01 7.56017E-11-4.34511E-10
 -1        15 1.08541E+03 5.96487E+02 3.50856E+03 1.23426E+00-1.36777E-08-5.39827E-06
 -1        16-1.98561E+06-6.40012E+05-3.08744E+05-6.51036E+05 6.12151E-09 5.91778E-10
 -1        17-4.74212E+05-2.80729E+05-9.49337E+04-2.61364E+05-9.60135E-09 1.11177E-09
 -1        18 2.11374E+04 2.82675E+03-4.69925E+03-3.03824E+04 3.98757E-10-1.57434E-09
 -1        19 4.06491E+04 4.85141E+04-2.20374E+02 7.97206E+03-3.19142E-10-1.64655E-09
 -1        20-1.67259E+04-1.92160E+05-4.23588E+04 1.43835E+04 1.93207E-09-4.43530E-10
 -1        21-1.82342E+01-1.11628E+05-3.60678E+02-2.28392E+01-2.64809E-09-5.39348E-09
 -1        24-1.73738E+06-6.06865E+05-2.49512E+05-7.35912E+05-7.25655E-09-4.01390E-09
 -1        25 1.72267E+04 7.33432E+03 1.13195E+04-5.47147E+04 1.93540E-10 1.75114E-09
 -1        26-9.28377E+03 3.31968E+04-6.55464E+03-4.79676E+03 7.89441E-10 9.50089E-10
 -1        27-3.08277E+04-1.05465E+05-3.95717E+04 2.37678E+04 3.18141E-09 1.00348E-10
 -1        28 8.62147E+03-3.08260E+04 6.29900E+03 9.91614E+03 2.10675E-09 3.29408E-11
 -1        32-4.07022E+05-3.80375E+04 1.82857E+05-2.76480E+05-7.83621E-09 7.69879E-09
 -1        33-6.02983E+04 3.10451E+04 1.10036E+04-1.80898E+04 5.30539E-10 3.36877E-09
 -1        34-7.83377E+04-7.79157E+03 1.85368E+02 2.40675E+04 1.21765E-09-6.78104E-10
 -1        35-8.77344E+03-1.22639E+04-4.77530E+02 1.94403E+04 2.02137E-09 8.17029E-10
 -1        51 8.06254E+03-2.07042E+05 1.95102E+04-5.07340E+05 2.91038E-11 6.21367E-09
 -1        52 3.95609E+03-2.05079E+05 1.28869E+04-5.91716E+05 2.14641E-10-1.99361E-09
 -1        53 2.42116E+03-2.09848E+05 1.13267E+04-5.05624E+05 4.65661E-10 7.90169E-09
 -1        54 7.96354E+03-2.07763E+05 1.83775E+04-5.93546E+05-1.34605E-10 1.54596E-08
 -1        55 1.82915E+04-2.14409E+05 3.31358E+04-5.05412E+05 3.63798E-10 1.19999E-08
 -1        56-1.63594E+06-1.85187E+05-1.27346E+05-6.30938E+05-3.76531E-10-8.00355E-10
 -1        57-1.68716E+06-3.00251E+05-8.58239E+04-6.25972E+05 5.82077E-11 7.09406E-10
 -1        58-1.66128E+06-2.25743E+05-2.99833E+04-6.23250E+05-2.20552E-10-1.99907E-09
 -1        59-1.65785E+06-2.52710E+05-1.78994E+04-6.35218E+05 7.23958E-10-1.15688E-09
 -1        60-1.66502E+06-2.31371E+05-7.00970E+03-6.22182E+05-3.28896E-10 2.93926E-09
 -1        61-1.65382E+06-2.45843E+05-3.98727E+03-6.36136E+05 7.88532E-10 4.63692E-09
 -1        62-1.66527E+06-2.32440E+05-1.92221E+03-6.22386E+05 4.03816E-10 2.85439E-09
 -1        63-1.65416E+06-2.44106E+05-1.58544E+03-6.35179E+05-6.14193E-10 1.32488E-09
 -1        64-1.66465E+06-2.33103E+05-1.81967E+03-6.23128E+05-4.37353E-10-2.66243E-09
 -1        65-1.65618E+06-2.43228E+05-3.65137E+03-6.33199E+05 4.88455E-10-6.14921E-09
 -1        66-1.66322E+06-2.33356E+05-6.41759E+03-6.24338E+05-6.95650E-10-1.57024E-09
 -1        67-1.66209E+06-2.47191E+05-1.62942E+04-6.29706E+05-6.88402E-10-1.92995E-09
 -1        68-1.65875E+06-2.29317E+05-2.73442E+04-6.26547E+05-2.84672E-10-1.12595E-09
 -1        69-1.69073E+06-2.88555E+05-7.81749E+04-6.19062E+05 9.84528E-10-5.47880E-09
 -1        70-1.63479E+06-1.93230E+05-1.16055E+05-6.34531E+05-1.45883E-09-3.37604E-09
 -1        86-7.40415E+02 1.81988E+05 5.16970E+03-1.56132E+02 6.62567E-10-1.33127E-10
 -1        87 4.91694E+03 1.85097E+05 1.07718E+04 6.39909E+02 1.12789E-09-3.42311E-10
 -1        88-4.16955E+03 1.80314E+05 1.65062E+04-4.83793E+02 1.65164E-09 1.87032E-09
 -1        89 3.10760E+04 1.97275E+05 4.44938E+04 1.36564E+03 2.52930E-09-4.12010E-09
 -1        90-2.68141E+04 1.69816E+05 6.28682E+04-8.81676E+02 2.83762E-09-8.59757E-10
 -1       121-3.29166E+01-3.54647E+05 8.20312E+01 3.14866E+01 1.98067E-10-1.44701E-09
 -1       122 9.68610E+00-3.54516E+05 1.78637E+02-1.26164E+02-6.64253E-10-1.22100E-09
 -1       123-5.26192E+01-3.54666E+05 2.94341E+02 9.45732E+01 5.58259E-10 1.21145E-09
 -1       124 3.39273E+02-3.54313E+05 7.51058E+02-3.13861E+02-1.22458E-09 1.50612E-09
 -1       125-2.67444E+02-3.54853E+05 1.15702E+03 2.19208E+02 7.96035E-10 2.00953E-09
 -1       191-2.47810E+00 1.29765E+05 4.07291E+00 2.63997E-02 8.62480E-11 3.57431E-10
 -1       192-2.56498E+00 1.29755E+05 7.19613E+00 1.61715E-01 1.26569E-10-2.64390E-09
 -1       193-3.30784E+00 1.29765E+05 1.33934E+01-1.89312E-01 1.45398E-10 1.00954E-10
 -1       194-3.56910E+00 1.29756E+05 2.72199E+01 5.09576E-01 7.64095E-11-8.43102E-10
 -1       195-4.90284E+00 1.29764E+05 5.32553E+01-3.23574E-01 2.25530E-10 1.06047E-09
 -1       251 1.88037E+05-2.72800E+04 6.37878E+04 2.37555E+03 3.04681E-11-2.28101E-09
 -1       252 2.16560E+05 3.15787E+04 4.51668E+04-7.93145E+03-3.56181E-10-1.43200E-09
 -1       253 1.98907E+05-4.22483E+03 1.65150E+04 1.69200E+03-2.90129E-10 4.01178E-09
 -1       254 2.03807E+05 4.88517E+03 1.04104E+04-6.84701E+03-4.28543E-10 2.92812E-09
 -1       255 2.00756E+05-6.53017E+02 4.26674E+03 1.29124E+03-1.05672E-10 3.40151E-09
 -1       256 2.01614E+05 7.73385E+02 2.58550E+03-6.25556E+03 1.31145E-10 1.57166E-09
 -1       257 2.01085E+05-1.14247E+02 1.32987E+03 1.10054E+03-1.79217E-08 2.38515E-10
 -1       258 2.01282E+05 2.37410E+02 1.17269E+03-6.06521E+03-2.57977E-08 3.11071E-09
 -1       259 2.01084E+05-1.15079E+02 1.33767E+03 1.10088E+03-1.82509E-08-4.44058E-09
 -1       260 2.01619E+05 7.80584E+02 2.60811E+03-6.25757E+03-3.75138E-10-1.94950E-09
 -1       261 2.00753E+05-6.59401E+02 4.30739E+03 1.29290E+03 7.01931E-10 4.57430E-09
 -1       262 2.03832E+05 4.93309E+03 1.05119E+04-6.85052E+03 5.40894E-10-3.28976E-09
 -1       263 1.98886E+05-4.26631E+03 1.66773E+04 1.69385E+03-3.54305E-10-3.33966E-09
 -1       264 2.16708E+05 3.18892E+04 4.56098E+04-7.93669E+03-1.21486E-09 3.28555E-09
 -1       265 1.87911E+05-2.75477E+04 6.44158E+04 2.37894E+03-6.39488E-10 3.01952E-09
 -1       266-1.96496E+04-9.18879E+03 4.61008E+04-2.64084E+01-2.14095E-08-8.49146E-06
 -1       267 2.27792E+04 1.07088E+04 3.25848E+04 3.04716E+01-4.23297E-08-1.67786E-05
 -1       268-3.05465E+03-1.51671E+03 1.21115E+04-3.88248E+00-3.40083E-08-1.34552E-05
 -1       269 3.60664E+03 1.81512E+03 7.87238E+03 4.52263E+00-2.55960E-08-1.01472E-05
 -1       270-5.41361E+02-2.98241E+02 3.80011E+03-6.13728E-01-1.88776E-08-7.47543E-06
 -1       271-1.93551E+06-2.40511E+05-1.48952E+05-7.52796E+05-7.27596E-12-4.08181E-09
 -1       272-1.97560E+06-3.62674E+05-9.57822E+04-7.67045E+05 1.17461E-09 3.43425E-09
 -1       273-1.96353E+06-2.77615E+05-3.51817E+04-7.46190E+05 6.32099E-11 1.03682E-09
 -1       274-1.94301E+06-3.17057E+05-1.97117E+04-7.77110E+05-4.18368E-11 3.71574E-09
 -1       275-1.96768E+06-2.81178E+05-8.18373E+03-7.44731E+05 5.42968E-10-1.04728E-09
 -1       276-1.93814E+06-3.12825E+05-4.35727E+03-7.79440E+05-8.20819E-10-1.22043E-09
 -1       277-1.96855E+06-2.81222E+05-2.13034E+03-7.44197E+05-3.50724E-09 2.53971E-09
 -1       278-1.93731E+06-3.12687E+05-1.55070E+03-7.80073E+05-3.28657E-09 8.89997E-10
 -1       279-1.96859E+06-2.81222E+05-1.66298E+03-7.44174E+05-2.78044E-09 1.10390E-09
 -1       280-1.93790E+06-3.12672E+05-3.04664E+03-7.79557E+05-6.86668E-10 2.78726E-09
 -1       281-1.96789E+06-2.81309E+05-5.56537E+03-7.44651E+05 4.68390E-11-9.03583E-10
 -1       282-1.94147E+06-3.15179E+05-1.32973E+04-7.77550E+05-1.18052E-09 1.57161E-09
 -1       283-1.96485E+06-2.79177E+05-2.37205E+04-7.45908E+05-4.82942E-10 7.85803E-10
 -1       284-1.96394E+06-3.45283E+05-6.45017E+04-7.69994E+05-1.01869E-09-2.92130E-09
 -1       285-1.94560E+06-2.54607E+05-1.00369E+05-7.50786E+05 1.27329E-10-1.16415E-10
 -1       301 7.24063E+03-4.32875E+03 5.67345E+04-1.41344E+04-3.49246E-10 4.25231E-09
 -1       302 7.78913E+03 1.00759E+04 4.12008E+04-2.07894E+04 9.09722E-10 3.81647E-09
 -1       303 3.31924E+02 7.34754E+02 3.82821E+04-1.41579E+04-4.07454E-10-3.38264E-09
 -1       304 1.50442E+04 1.67650E+04 6.47825E+04-2.07315E+04 5.55701E-10-7.63862E-10
 -1       305 1.49220E+04-1.09868E+04 1.08913E+05-1.41600E+04-2.83762E-10-1.00727E-09
 -1       306-2.26279E+06-2.57205E+05-1.77345E+05-8.83548E+05 1.38243E-09 4.94765E-10
 -1       307-2.35467E+06-4.10080E+05-1.21424E+05-8.52942E+05 4.46562E-10-1.47702E-09
 -1       308-2.30247E+06-3.13967E+05-4.16926E+04-8.67606E+05-2.82398E-10-4.13274E-09
 -1       309-2.30588E+06-3.46936E+05-2.54338E+04-8.74818E+05-2.34695E-09-9.19772E-09
 -1       310-2.31138E+06-3.19517E+05-9.78286E+03-8.61952E+05-1.09395E-10-5.27825E-09
 -1       311-2.29435E+06-3.41820E+05-5.71074E+03-8.82969E+05 7.52607E-10 7.97627E-10
 -1       312-2.31402E+06-3.18922E+05-2.77030E+03-8.59532E+05-2.94774E-09-1.57638E-09
 -1       313-2.29199E+06-3.42150E+05-2.49977E+03-8.85113E+05-1.08478E-09 4.02474E-09
 -1       314-2.31376E+06-3.19156E+05-2.97206E+03-8.59830E+05-1.41654E-09-3.64946E-09
 -1       315-2.29538E+06-3.41091E+05-6.30336E+03-8.81839E+05-2.81958E-10 5.08999E-09
 -1       316-2.31059E+06-3.20024E+05-1.08906E+04-8.62774E+05 8.28777E-10-7.55335E-10
 -1       317-2.30834E+06-3.46764E+05-2.83683E+04-8.72713E+05 1.09446E-09 2.39652E-10
 -1       318-2.30079E+06-3.13656E+05-4.65081E+04-8.68876E+05-1.42609E-09 4.08909E-09
 -1       319-2.36219E+06-4.17893E+05-1.35499E+05-8.49104E+05-2.35377E-09 1.72440E-09
 -1       320-2.25697E+06-2.49809E+05-1.97848E+05-8.86082E+05-6.85395E-09 3.04135E-09
 -1       336 2.89944E+02-3.83929E+05-2.02847E+03 1.97735E+02-3.32398E-09-2.55204E-09
 -1       337-7.26306E+02-3.84522E+05-2.22077E+03-5.60220E+02-6.19940E-09-5.15683E-09
 -1       338 1.91709E+02-3.83991E+05-2.77832E+03 3.61735E+02-4.45687E-09-1.90084E-10
 -1       339-2.87043E+03-3.85830E+05-6.08800E+03-8.85927E+02-8.01003E-09 7.68523E-10
 -1       340 1.96548E+03-3.82631E+05-9.36974E+03 5.21800E+02-5.52927E-09 1.79625E-09
 -1       406 7.56564E+00 1.29759E+05 2.17527E+02 4.29548E-01 3.24121E-10-6.02085E-10
 -1       407 7.49810E+01 1.29800E+05 4.62318E+02-5.82852E+00 9.29532E-11-2.19552E-09
 -1       408 2.37120E+02 1.29726E+05 9.23379E+02 5.44913E+00 3.69141E-10-8.24593E-09
 -1       409 9.97628E+02 1.30095E+05 2.07886E+03-4.88960E+01 5.00222E-12-2.07651E-08
 -1       410 2.86791E+03 1.29464E+05 4.24397E+03 4.43853E+01 3.46063E-10-9.35916E-09
 -1       521-3.93180E+06-4.53232E+05-2.94244E+05-1.52815E+06 2.62662E-09-1.62981E-09
 -1       522-4.07429E+06-7.06816E+05-2.00022E+05-1.48840E+06-8.98581E-10-1.07502E-09
 -1       523-3.99723E+06-5.44348E+05-6.91787E+04-1.50216E+06 1.68438E-09 8.54925E-10
 -1       524-3.99456E+06-6.04475E+05-4.17574E+04-1.52358E+06 6.48015E-10-9.16771E-10
 -1       525-4.01102E+06-5.53353E+05-1.61698E+04-1.49372E+06-4.25644E-10-2.01999E-09
 -1       526-3.97799E+06-5.94629E+05-9.32635E+03-1.53430E+06-2.56559E-10-4.38376E-10
 -1       527-4.01380E+06-5.53811E+05-4.47863E+03-1.49161E+06 1.14471E-09 1.51329E-09
 -1       528-3.97764E+06-5.91537E+05-3.84705E+03-1.53340E+06-1.03614E-09 1.67938E-09
 -1       529-4.01131E+06-5.56427E+05-4.50268E+03-1.49460E+06-1.01249E-09-1.99680E-09
 -1       530-3.98705E+06-5.85120E+05-9.22275E+03-1.52318E+06-6.69388E-10-1.62845E-09
 -1       531-4.00426E+06-5.60363E+05-1.61636E+04-1.50172E+06 4.91127E-10 8.47649E-10
 -1       532-4.01021E+06-5.88340E+05-4.15146E+04-1.50506E+06-3.67891E-10-4.09682E-09
 -1       533-3.98819E+06-5.53569E+05-6.88775E+04-1.51257E+06 1.83718E-10-2.47019E-09
 -1       534-4.09170E+06-6.88597E+05-1.99127E+05-1.46854E+06 1.29694E-09 2.81761E-09
 -1       535-3.92348E+06-4.62181E+05-2.92832E+05-1.53764E+06-5.68980E-09 3.82715E-09
 -1       536 1.31231E+04-1.15615E+04 2.66551E+04 3.58634E+02-1.19373E-09 1.69712E-09
 -1       537 2.52826E+04 1.33784E+04 1.89603E+04-1.14635E+03-3.87731E-09 3.55294E-09
 -1       538 1.76834E+04-1.81125E+03 6.88340E+03 2.86491E+02 7.36549E-11 2.56478E-09
 -1       539 1.99194E+04 2.09195E+03 4.37268E+03-1.03452E+03 1.51979E-09-1.16432E-09
 -1       540 1.84816E+04-2.81780E+02 1.74433E+03 2.46812E+02 4.71587E-10 1.60685E-09
 -1       541 1.89561E+04 3.23568E+02 1.03195E+03-9.68892E+02 1.13005E-10 3.33421E-09
 -1       542 1.86442E+04-4.23995E+01 4.28374E+02 2.20858E+02-5.04627E-11 1.02338E-09
 -1       543 1.87485E+04 4.45446E+01 2.26492E+02-9.28609E+02-1.17019E-10 4.23356E-09
 -1       544 1.86877E+04-1.87170E+00 6.82305E+01 2.06527E+02 1.98430E-10 1.56074E-09
 -1       545 1.86842E+04-2.38636E+01-3.74874E+01-9.11029E+02-4.36180E-10-1.68443E-09
 -1       546 1.87079E+04 2.64234E+01-1.39605E+02 2.03279E+02 2.02599E-10 1.59470E-09
 -1       547 1.86041E+04-1.98007E+02-3.96712E+02-9.15476E+02-9.81306E-10 2.17205E-09
 -1       548 1.87680E+04 1.72035E+02-6.52948E+02 2.10974E+02-1.01743E-09-1.70212E-09
 -1       549 1.81484E+04-1.26776E+03-1.78446E+03-9.41745E+02-6.22222E-10-1.92051E-09
 -1       550 1.91646E+04 1.09464E+03-2.54866E+03 2.29547E+02 4.45226E-11-2.04784E-09
 -1       551 2.89731E+03-2.01433E+05 1.16932E+04-3.45814E+05-1.50230E-08-9.93168E-10
 -1       552 5.63319E+03-2.00641E+05 1.49347E+04-4.91977E+05-1.14669E-08 5.19685E-09
 -1       553 3.41641E+03-2.03383E+05 2.32988E+04-3.44732E+05-1.81244E-08 4.69299E-09
 -1       554 1.67431E+04-1.92509E+05 4.94662E+04-4.92447E+05-1.13796E-08 1.42904E-10
 -1       555 1.78421E+04-2.12946E+05 8.90306E+04-3.45226E+05-1.79716E-08-2.64481E-09
 -1       556 2.68713E+04-6.42927E+04 2.25757E+04-8.68991E+04-5.62795E-09-9.10950E-09
 -1       557 5.30154E+04-8.64051E+04 1.17868E+04-1.08401E+05 6.47560E-10 1.37197E-09
 -1       558 2.73514E+04-6.76263E+04 4.86726E+03-8.39977E+04-1.99361E-09 1.29148E-10
 -1       559 5.01266E+04-8.97003E+04 2.43654E+03-1.09516E+05 2.62662E-09-1.58934E-09
 -1       560 2.70146E+04-6.73837E+04 1.06019E+03-8.41712E+04 8.58563E-10 7.76254E-10
 -1       561 4.94426E+04-8.96201E+04 5.39320E+02-1.09938E+05-2.98314E-10 2.57592E-09
 -1       562 2.67100E+04-6.71640E+04 2.27154E+02-8.43956E+04-1.34605E-10 1.95200E-10
 -1       563 4.90674E+04-8.94621E+04 1.24664E+02-1.10177E+05-4.72937E-10-1.15716E-09
 -1       564 2.65202E+04-6.70368E+04 4.70266E+01-8.45329E+04 1.56069E-09 1.35969E-10
 -1       565 4.88766E+04-8.93826E+04 1.86308E+01-1.10295E+05 1.03319E-09 1.52477E-09
 -1       566 2.64579E+04-6.69925E+04-1.95987E+01-8.45801E+04-1.30149E-09-1.16415E-09
 -1       567 4.88474E+04-8.93679E+04-7.10444E+01-1.10280E+05 3.52236E-09 8.02174E-10
 -1       568 2.65406E+04-6.70486E+04-1.74754E+02-8.45526E+04-6.38465E-10 8.32188E-10
 -1       569 4.86413E+04-8.92610E+04-4.14019E+02-1.09848E+05-6.32099E-10 2.49565E-09
 -1       570 2.70481E+04-6.75668E+04-8.37714E+02-8.46416E+04 9.64064E-10 9.05402E-10
 -1       571 9.40441E+04 3.40379E+03 5.04102E+03-2.35160E+04-4.23825E-10 4.50086E-09
 -1       572 9.47959E+04 1.18391E+03 2.46953E+03-2.57772E+04-7.12134E-10 1.25192E-09
 -1       573 9.43498E+04 2.82040E+02 1.09704E+03-2.34544E+04-3.84262E-10 3.82215E-10
 -1       574 9.44400E+04 9.07048E+01 5.49483E+02-2.58463E+04-1.29239E-09 5.29099E-10
 -1       575 9.43859E+04 1.13374E+01 2.58930E+02-2.34462E+04-9.76115E-10 2.58888E-09
 -1       576 9.43925E+04 1.76631E+00 1.31693E+02-2.58556E+04-4.27249E-10 1.23146E-09
 -1       577 9.43912E+04-3.24407E+00 6.48058E+01-2.34452E+04-8.23252E-09 1.56001E-09
 -1       578 9.43867E+04-2.10559E+00 3.51912E+01-2.58567E+04-1.75860E-08 2.56796E-09
 -1       579 9.43945E+04-2.90316E+00 2.14192E+01-2.34452E+04-9.08767E-09 2.96041E-09
 -1       580 9.43902E+04-2.89426E+00 1.97210E+01-2.58552E+04-8.72433E-10 1.99634E-10
 -1       581 9.43994E+04-3.64308E+00 2.67029E+01-2.34466E+04-1.52841E-09-1.04865E-09
 -1       582 9.44013E+04 1.58293E+00 5.05521E+01-2.58411E+04-1.24419E-09-1.92813E-10
 -1       583 9.44040E+04 1.60517E+01 9.73211E+01-2.34593E+04-5.27052E-10-7.65567E-10
 -1       584 9.44424E+04 9.32584E+01 2.17818E+02-2.57365E+04-8.80846E-10-3.80726E-09
 -1       585 9.43862E+04 2.86852E+02 4.42981E+02-2.35514E+04 5.54792E-11-2.49838E-09
 -1       586-1.19023E+03 3.05426E+04-1.56646E+03-8.00585E+04 2.90811E-10 2.60343E-09
 -1       587-2.73595E+02 3.03350E+04-2.00475E+02-8.80969E+04 4.44743E-10-3.02182E-09
 -1       588 3.03423E+02 3.03757E+04 1.05347E+03-8.00093E+04 2.57842E-10 1.03478E-08
 -1       589 1.57687E+03 3.09507E+04 3.10294E+03-8.80248E+04 4.36557E-10 1.75721E-08
 -1       590 4.55919E+03 2.99751E+04 6.65918E+03-8.01308E+04 2.30102E-10 9.44192E-09
 -1       591-2.04129E+04-5.88350E+03-6.83370E+03-1.06312E+04 3.88098E-10-4.22688E-09
 -1       592-2.10446E+04-7.57021E+03-3.70141E+03-1.24229E+04 1.90437E-09-1.29199E-09
 -1       593-2.11036E+04-5.37999E+03-1.54092E+03-1.11243E+04 4.59687E-09-3.37764E-10
 -1       594-2.00917E+04-6.57722E+03-7.68553E+02-1.24700E+04 3.51781E-09-6.71548E-09
 -1       595-2.11563E+04-5.37786E+03-3.53202E+02-1.11468E+04 4.25922E-09-2.47951E-10
 -1       596-2.00271E+04-6.53178E+03-1.80062E+02-1.24632E+04 2.35258E-09 5.61940E-10
 -1       597-2.11630E+04-5.38227E+03-9.91311E+01-1.11477E+04 5.63109E-10 1.22125E-09
 -1       598-2.00210E+04-6.53004E+03-8.16721E+01-1.24613E+04 5.35380E-10 2.08288E-10
 -1       599-2.11626E+04-5.38220E+03-1.06766E+02-1.11476E+04 9.28594E-10-1.70098E-09
 -1       600-2.00281E+04-6.53229E+03-2.00337E+02-1.24633E+04-2.27118E-10 1.59636E-09
 -1       601-2.11545E+04-5.37723E+03-3.96183E+02-1.11464E+04-4.21585E-09-7.45376E-09
 -1       602-2.01010E+04-6.58322E+03-8.64103E+02-1.24704E+04 1.62288E-10-3.16732E-09
 -1       603-2.10948E+04-5.38029E+03-1.73306E+03-1.11213E+04-7.03949E-10-3.74212E-09
 -1       604-2.11764E+04-7.69621E+03-4.16334E+03-1.24125E+04 1.39056E-09 6.32554E-09
 -1       605-2.03134E+04-5.94986E+03-7.68634E+03-1.05706E+04 5.70083E-10 2.88628E-09
 -1       606 1.35077E+04-4.52426E+03-8.15218E+03 1.32348E+04-2.07865E-09 3.63798E-12
 -1       607 1.21119E+04-1.45908E+03-4.05957E+03 1.48568E+04-2.27374E-10 2.02061E-09
 -1       608 1.29095E+04-2.44922E+02-1.81734E+03 1.31291E+04 2.24918E-09-2.13277E-09
 -1       609 1.27537E+04-6.57454E+01-9.18131E+02 1.49737E+04 8.04903E-11-4.93969E-10
 -1       610 1.28420E+04 9.77855E+00-4.38141E+02 1.31174E+04-2.27192E-09 2.86900E-09
 -1       611 1.28146E+04 1.27940E+01-2.21145E+02 1.49865E+04-6.10635E-09 2.95188E-09
 -1       612 1.28274E+04 1.39882E+01-1.05568E+02 1.31162E+04-5.43105E-09 1.15324E-09
 -1       613 1.28185E+04 1.39838E+01-4.82595E+01 1.49881E+04-5.62977E-09-5.39114E-09
 -1       614 1.28206E+04 1.19161E+01-1.34060E+01 1.31158E+04-7.50333E-10-1.43359E-10
 -1       615 1.28168E+04 1.43832E+01 1.48310E+01 1.49884E+04 5.54792E-09 6.19389E-09
 -1       616 1.28154E+04 1.27963E+01 4.95169E+01 1.31159E+04 3.65435E-09 1.47020E-09
 -1       617 1.28225E+04 2.52740E+01 1.14759E+02 1.49882E+04 2.75099E-09-3.45790E-09
 -1       618 1.28051E+04 4.61372E+01 2.32078E+02 1.31160E+04-8.48331E-10 6.78710E-11
 -1       619 1.29043E+04 2.05019E+02 5.21590E+02 1.49879E+04-1.45604E-09-2.43074E-09
 -1       620 1.27278E+04 5.97116E+02 1.04856E+03 1.31157E+04 7.88987E-11 3.44698E-10
 -1       621 1.65997E+02 1.02575E+05 1.42792E+03 3.12780E+03-1.21203E-10 2.35491E-09
 -1       622 1.89456E+02 1.02929E+05 1.20821E+03 4.56429E+03-1.08599E-10 8.93806E-10
 -1       623 8.40752E+00 1.02678E+05 1.38466E+03 3.11300E+03-8.22240E-11-3.67891E-10
 -1       624 6.25896E+02 1.03330E+05 2.62525E+03 4.57886E+03-8.64020E-11-2.66166E-09
 -1       625 6.27993E+02 1.02173E+05 4.56190E+03 3.11335E+03-1.23464E-10-2.52487E-09
 -1       626 8.44877E+04 2.34821E+04 1.68568E+03 4.57728E+04 7.85121E-09-4.43379E-09
 -1       627 8.33227E+04 2.43415E+04 8.11888E+02 4.76320E+04 2.02440E-08 5.02325E-09
 -1       628 8.45562E+04 2.26823E+04 3.43233E+02 4.60282E+04 1.03500E-08-9.19499E-10
 -1       629 8.30831E+04 2.41492E+04 1.68051E+02 4.77469E+04 4.04725E-10-4.59514E-09
 -1       630 8.45639E+04 2.26425E+04 7.78728E+01 4.60370E+04 1.39653E-09 3.25485E-10
 -1       631 8.30568E+04 2.41437E+04 4.17712E+01 4.77506E+04-4.51610E-09-3.13113E-09
 -1       632 8.45624E+04 2.26441E+04 2.76577E+01 4.60349E+04-3.48473E-09-3.83798E-09
 -1       633 8.30529E+04 2.41454E+04 3.08139E+01 4.77491E+04 5.79689E-10 5.18912E-09
 -1       634 8.45592E+04 2.26436E+04 4.99601E+01 4.60336E+04 1.07639E-09 2.40163E-10
 -1       635 8.30559E+04 2.41457E+04 1.01312E+02 4.77496E+04 4.38604E-10 4.69925E-09
 -1       636 8.45543E+04 2.26429E+04 2.04724E+02 4.60324E+04-1.52261E-09 5.11966E-09
 -1       637 8.30976E+04 2.41784E+04 4.49999E+02 4.77475E+04 1.70880E-09 1.46068E-08
 -1       638 8.45360E+04 2.27437E+04 9.24990E+02 4.59858E+04-2.51077E-09-1.02432E-09
 -1       639 8.35801E+04 2.48556E+04 2.18832E+03 4.76029E+04-2.25600E-09-3.31875E-09
 -1       640 8.44693E+04 2.47591E+04 4.54159E+03 4.51300E+04 4.37274E-09 1.10319E-08
 -1       656 2.29269E+04-5.80283E+05-5.53618E+04-4.96717E+02 2.05546E-10-8.81542E-10
 -1       657-3.02926E+04-6.05295E+05-4.57827E+04 3.81927E+03 2.66482E-10-8.04992E-10
 -1       658 7.26748E+03-5.87424E+05-2.80957E+04-7.79186E+02 6.97412E-10 1.07979E-09
 -1       659-3.24708E+04-6.06318E+05-4.86433E+04 4.00414E+03-5.61613E-10-2.36828E-09
 -1       660 2.50989E+04-5.79262E+05-6.02890E+04-6.81576E+02-4.54747E-10-4.51159E-10
 -1       661 8.28901E+04 8.99476E+03 7.93710E+03 3.23449E+04 7.75572E-10 5.47061E-10
 -1       662 8.69894E+04 1.52544E+04 5.34824E+03 3.10033E+04 2.25111E-09-1.23674E-09
 -1       663 8.44417E+04 1.15480E+04 1.87087E+03 3.19005E+04 8.85450E-10-5.15115E-10
 -1       664 8.51966E+04 1.22629E+04 1.11842E+03 3.15407E+04 8.38426E-10-3.63802E-09
 -1       665 8.46712E+04 1.19024E+04 4.41237E+02 3.18392E+04 5.43281E-10-3.05107E-10
 -1       666 8.49299E+04 1.18528E+04 2.57199E+02 3.16169E+04-2.32390E-09 2.68574E-09
 -1       667 8.47070E+04 1.19475E+04 1.35639E+02 3.18283E+04-9.00258E-11 3.92010E-10
 -1       668 8.48942E+04 1.18137E+04 1.35725E+02 3.16309E+04 2.07791E-10-5.31590E-09
 -1       669 8.47066E+04 1.19404E+04 1.81895E+02 3.18255E+04 1.26980E-09 2.87240E-09
 -1       670 8.49453E+04 1.19045E+04 3.94145E+02 3.16246E+04 2.12029E-09 3.31801E-09
 -1       671 8.46561E+04 1.18585E+04 6.99330E+02 3.18339E+04-4.26621E-10 2.48204E-09
 -1       672 8.53581E+04 1.25797E+04 1.78871E+03 3.15203E+04-3.75205E-09-6.22748E-10
 -1       673 8.42962E+04 1.12824E+04 2.99748E+03 3.19233E+04-1.76050E-09 2.06091E-09
 -1       674 8.82167E+04 1.73907E+04 8.57252E+03 3.06762E+04 1.41853E-10-1.97701E-09
 -1       675 8.18161E+04 7.18217E+03 1.27238E+04 3.26274E+04-6.07088E-11 8.82210E-10
 -1       676 9.35676E+00-1.11598E+05-4.34706E+02 1.14199E+01 7.07360E-10-2.37412E-09
 -1       677-1.15390E+02-1.11703E+05-7.95522E+02-2.28386E+01-4.35932E-10-3.64298E-09
 -1       678 7.70351E+01-1.11523E+05-1.40625E+03 1.14109E+01-2.64890E-10-4.20789E-10
 -1       679-1.40638E+03-1.12551E+05-3.34037E+03-2.27949E+01-2.83853E-09-9.13648E-10
 -1       680 8.39232E+02-1.10749E+05-5.38361E+03 1.12448E+01-1.07821E-09-1.40052E-09
 -1       771-1.20138E+06-2.07351E+05-2.88648E+04-4.95823E+05-4.75484E-09-3.24508E-09
 -1       772-1.19407E+06-2.23505E+05-1.55427E+04-5.13795E+05-3.83443E-09 2.26555E-09
 -1       773-1.20506E+06-2.04511E+05-6.61137E+03-4.97444E+05-1.67711E-09 2.37196E-09
 -1       774-1.18979E+06-2.19946E+05-3.24560E+03-5.15109E+05 3.39605E-09-6.00267E-10
 -1       775-1.20569E+06-2.04156E+05-1.57674E+03-4.97530E+05-9.53150E-10-1.90994E-11
 -1       776-1.18962E+06-2.19891E+05-7.44355E+02-5.15652E+05-2.12458E-09 1.23055E-09
 -1       777-1.20606E+06-2.03906E+05-4.21117E+02-4.97557E+05-2.16824E-09-4.56566E-10
 -1       778-1.18968E+06-2.19962E+05-2.00271E+02-5.16095E+05 1.34605E-09 1.86537E-09
 -1       779-1.20635E+06-2.03691E+05-1.77179E+02-4.97578E+05-7.83984E-10-1.69348E-09
 -1       780-1.18977E+06-2.20029E+05-1.59914E+02-5.16454E+05-1.42336E-09-2.43517E-10
 -1       781-1.20655E+06-2.03515E+05-2.80325E+02-4.97591E+05-3.48882E-09-6.43240E-10
 -1       782-1.18988E+06-2.20108E+05-5.39281E+02-5.16720E+05-4.69299E-09-1.52050E-09
 -1       783-1.20666E+06-2.03404E+05-1.07645E+03-4.97587E+05-9.98625E-10-2.03875E-09
 -1       784-1.19057E+06-2.20830E+05-2.56205E+03-5.16853E+05-2.25464E-09-1.23691E-10
 -1       785-1.20626E+06-2.03686E+05-4.73425E+03-4.97244E+05-4.84170E-09 5.03860E-10
 -1       786 8.77253E+04-4.66911E+03 1.08012E+04 3.22789E+00 9.59829E-09-2.75395E-09
 -1       787 9.24057E+04 5.40533E+03 7.64189E+03-9.32440E+00 1.83927E-08 2.39379E-09
 -1       788 8.95311E+04-7.31931E+02 2.79562E+03 3.51485E+00 4.56480E-08 4.17072E-09
 -1       789 9.03021E+04 8.46886E+02 1.75654E+03-1.05494E+01 7.27663E-08 3.23044E-09
 -1       790 8.98291E+04-1.14340E+02 7.14748E+02 4.45297E+00 1.34241E-07-2.64134E-09
 -1       791 8.99544E+04 1.32859E+02 4.19726E+02-1.31945E+01 1.95351E-07 4.77038E-09
 -1       792 8.98790E+04-1.84385E+01 1.91709E+02 6.16002E+00 3.30578E-07-2.40771E-09
 -1       793 8.98982E+04 2.59697E+01 1.25935E+02-1.76275E+01 4.66374E-07 5.96468E-09
 -1       794 8.98853E+04-7.52072E+00 9.37638E+01 8.88596E+00 7.63570E-07-8.03564E-09
 -1       795 8.99040E+04 3.89886E+01 1.36319E+02-2.44920E+01 1.05940E-06-1.64464E-09
 -1       796 8.98732E+04-3.14484E+01 2.04621E+02 1.30247E+01 5.29350E-07-5.85288E-09
 -1       797 8.99969E+04 2.30568E+02 4.82806E+02-3.47815E+01 1.86709E-09-2.26024E-10
 -1       798 8.97924E+04-1.98959E+02 7.62244E+02 1.91756E+01-8.93530E-11-1.27017E-09
 -1       799 9.05685E+04 1.46901E+03 2.07806E+03-5.00896E+01-2.32925E-10 8.71410E-10
 -1       800 8.93015E+04-1.26889E+03 2.93561E+03 2.83329E+01-2.04739E-10 3.14003E-09
 -1       801-6.59477E+03 6.14288E+04 1.32994E+04 8.99395E+03 5.02388E-09-1.29035E-10
 -1       802 1.54806E+04 9.36839E+04 2.85259E+04-3.77174E+04 1.34339E-08-2.71962E-09
 -1       803-8.63105E+03 7.14999E+04 3.49026E+04 8.08614E+03 1.05556E-08 8.62443E-09
 -1       804 6.54464E+04 1.19423E+05 9.39018E+04-3.81657E+04 1.25438E-08 1.06827E-08
 -1       805-5.65613E+04 3.57764E+04 1.24266E+05 9.44173E+03 4.40923E-09 1.24171E-08
 -1       806-1.02529E+05-2.20337E+04-8.74018E+03-4.27673E+04-5.55019E-10 4.28827E-10
 -1       807-1.03037E+05-2.07889E+04-4.29382E+03-4.50927E+04 6.02256E-11-1.90795E-10
 -1       808-1.02778E+05-1.88757E+04-1.82150E+03-4.42497E+04-1.06625E-08-9.09797E-09
 -1       809-1.02120E+05-1.95971E+04-8.90499E+02-4.52173E+04-5.43827E-09 1.99195E-08
 -1       810-1.02817E+05-1.87640E+04-4.07734E+02-4.43153E+04-4.27531E-09 3.69386E-09
 -1       811-1.02050E+05-1.95499E+04-2.02210E+02-4.52074E+04-1.97815E-11 2.53431E-09
 -1       812-1.02824E+05-1.87719E+04-1.00835E+02-4.43154E+04-5.84805E-09-1.44479E-08
 -1       813-1.02042E+05-1.95510E+04-6.35912E+01-4.52026E+04 4.69299E-10-1.94359E-09
 -1       814-1.02824E+05-1.87744E+04-5.94789E+01-4.43144E+04-1.77238E-09-7.95490E-09
 -1       815-1.02044E+05-1.95518E+04-9.31583E+01-4.52019E+04 2.71200E-09 9.34455E-09
 -1       816-1.02819E+05-1.87731E+04-1.74406E+02-4.43136E+04 1.91130E-09 1.09430E-08
 -1       817-1.02074E+05-1.95683E+04-3.74192E+02-4.51998E+04 1.47531E-09-1.36333E-09
 -1       818-1.02798E+05-1.88249E+04-7.62448E+02-4.42893E+04 1.37652E-09-4.65661E-09
 -1       819-1.02497E+05-2.00257E+04-1.79490E+03-4.50989E+04-5.69798E-10-2.78942E-09
 -1       820-1.02654E+05-2.01818E+04-3.65268E+03-4.37115E+04-4.41105E-11 1.59531E-09
 -1       821-1.32554E+05 7.36263E+03-1.70298E+04-1.70305E+00-3.60718E-10-1.53887E-09
 -1       822-1.39933E+05-8.52348E+03-1.20503E+04-9.52381E+01-1.39513E-09 4.06999E-11
 -1       823-1.35401E+05 1.15420E+03-4.41076E+03-2.54061E+01 1.24468E-09-6.47333E-10
 -1       824-1.36615E+05-1.33593E+03-2.77584E+03-4.44139E+01-7.09924E-10 1.62049E-09
 -1       825-1.35871E+05 1.80735E+02-1.14020E+03-5.25290E+01-1.47684E-09 1.45718E-09
 -1       826-1.36069E+05-2.13159E+02-6.89844E+02 7.46136E+00-2.47156E-09-1.81063E-09
 -1       827-1.35947E+05 3.22465E+01-3.55709E+02-7.72825E+01-3.13142E-09-1.79946E-09
 -1       828-1.35994E+05-6.51554E+01-3.15923E+02 4.94562E+01 2.98947E-08 6.28750E-09
 -1       829-1.35946E+05 3.28457E+01-3.60969E+02-9.45246E+01 9.68774E-06-6.13245E-09
 -1       830-1.36074E+05-2.18259E+02-7.05573E+02 7.28571E+01 1.92840E-05-6.71605E-09
 -1       831-1.35867E+05 1.85258E+02-1.16785E+03-1.00684E+02-9.81659E-07-2.19370E-09
 -1       832-1.36634E+05-1.36951E+03-2.84566E+03 7.29847E+01-2.12401E-05 6.20372E-09
 -1       833-1.35386E+05 1.18326E+03-4.52156E+03-9.46518E+01-1.06693E-05 1.39694E-08
 -1       834-1.40034E+05-8.73819E+03-1.23540E+04 5.06915E+01-3.48373E-08 5.20185E-09
 -1       835-1.32468E+05 7.54812E+03-1.74589E+04-7.83881E+01 2.24856E-09-1.86719E-09
 -1       836-4.42478E+02 1.25854E+05 7.57361E+03-1.11149E+04 9.64747E-10 2.08479E-09
 -1       837 1.66176E+03 1.28202E+05 6.46234E+03-2.23442E+04 1.26681E-09-2.02613E-09
 -1       838-1.65606E+02 1.26510E+05 6.66048E+03-1.10757E+04 1.21418E-09 2.45143E-09
 -1       839 4.26756E+03 1.30150E+05 1.26750E+04-2.23589E+04 1.78261E-09 4.09938E-09
 -1       840-1.28828E+03 1.23896E+05 2.02425E+04-1.10998E+04 1.15597E-09 2.43790E-09
 -1       856-4.20135E+04 3.56824E+03-9.40202E+03-1.97134E+02-2.44827E-09 9.22228E-10
 -1       857-4.58984E+04-4.18593E+03-6.47349E+03 2.15996E+03-2.21318E-09 4.31146E-09
 -1       858-4.35484E+04 5.00197E+02-2.44005E+03-2.02944E+02-2.25850E-09-2.49315E-10
 -1       859-4.41347E+04-5.82918E+02-1.47395E+03 2.16897E+03 6.10157E-10-2.08578E-09
 -1       860-4.37781E+04 6.97296E+01-6.19766E+02-2.06188E+02 5.98277E-11-2.61414E-09
 -1       861-4.38697E+04-7.86710E+01-3.45420E+02 2.17333E+03-1.37473E-09-6.54666E-10
 -1       862-4.38139E+04 9.40060E+00-1.52481E+02-2.07314E+02 2.67809E-09 2.09155E-10
 -1       863-4.38274E+04-7.62011E+00-7.57343E+01 2.17384E+03 6.03040E-09-3.34722E-09
 -1       864-4.38204E+04 2.01898E-01-2.44180E+01-2.06696E+02 2.44972E-09-9.45946E-11
 -1       865-4.38159E+04 8.46696E+00 1.23008E+01 2.17060E+03 2.13845E-09-2.64936E-09
 -1       866-4.38251E+04-6.68440E+00 4.83840E+01-2.04079E+02 5.21950E-10-7.65805E-10
 -1       867-4.37883E+04 5.67358E+01 1.33595E+02 2.16354E+03 2.31765E-09-8.74028E-10
 -1       868-4.38473E+04-4.73814E+01 2.26232E+02-1.99636E+02 8.43897E-10-2.19987E-09
 -1       869-4.36202E+04 3.94562E+02 6.06715E+02 2.15115E+03-1.16751E-09-2.12043E-09
 -1       870-4.39920E+04-3.35588E+02 8.80957E+02-1.91688E+02 1.71303E-09-3.48905E-09
 -1       871-1.92022E+03-3.99267E+03-6.29060E+03 4.12369E+04 1.31604E-09 5.41604E-10
 -1       872-8.29057E+02-5.39619E+03-2.56106E+03 5.34594E+04 3.05795E-09 1.80739E-09
 -1       873-1.03700E+01-4.72894E+03 3.77807E+02 4.11450E+04 1.32138E-09-1.84116E-10
 -1       874 9.83787E+02-3.81217E+03 3.59637E+03 5.34790E+04 2.44620E-09-7.47150E-10
 -1       875 2.31969E+03-5.58953E+03 7.97009E+03 4.12196E+04 9.08585E-10-1.03955E-09
 -1       876 1.03470E+05 1.78189E+04 5.55202E+03 4.19637E+04-2.09366E-09 4.77485E-10
 -1       877 1.03786E+05 1.90391E+04 2.96479E+03 4.36089E+04-3.11752E-09 9.54969E-11
 -1       878 1.03991E+05 1.72034E+04 1.24219E+03 4.24192E+04 2.03295E-09 3.75724E-09
 -1       879 1.03031E+05 1.82873E+04 6.18714E+02 4.36498E+04-1.53705E-10 4.13590E-09
 -1       880 1.04029E+05 1.71959E+04 2.88084E+02 4.24378E+04 5.74573E-10 2.01740E-09
 -1       881 1.02981E+05 1.82556E+04 1.53359E+02 4.36430E+04 3.07017E-09 2.38004E-09
 -1       882 1.04034E+05 1.71999E+04 9.73718E+01 4.24384E+04 3.01981E-09 2.47571E-10
 -1       883 1.02977E+05 1.82543E+04 1.03433E+02 4.36414E+04 2.64555E-09-4.84818E-10
 -1       884 1.04032E+05 1.71986E+04 1.63453E+02 4.24384E+04 1.32238E-09 1.82092E-09
 -1       885 1.02990E+05 1.82566E+04 3.27961E+02 4.36457E+04 1.92621E-09 2.63509E-09
 -1       886 1.04019E+05 1.71890E+04 6.60715E+02 4.24372E+04 6.43412E-09 1.23561E-09
 -1       887 1.03106E+05 1.83327E+04 1.44320E+03 4.36621E+04 2.62919E-09-7.55108E-09
 -1       888 1.03928E+05 1.72054E+04 2.90815E+03 4.23910E+04 3.64396E-09-1.80648E-09
 -1       889 1.04840E+05 2.01319E+04 6.94769E+03 4.36064E+04 2.04048E-09 2.23838E-09
 -1       890 1.02741E+05 1.86137E+04 1.30121E+04 4.12827E+04 4.91775E-09 4.86216E-09
 -1       891-6.08172E+01-5.88774E+04-6.91855E+02 1.12147E+04 6.73879E-10 1.30728E-09
 -1       892-1.06169E+02-5.90462E+04-7.54177E+02 1.69759E+04-1.12993E-09 3.02026E-09
 -1       893-1.29233E+01-5.89014E+04-1.07873E+03 1.12166E+04 1.21975E-09 1.82831E-09
 -1       894-5.81425E+02-5.94672E+04-2.24143E+03 1.69162E+04 6.48015E-10-8.80391E-10
 -1       895-4.51918E+02-5.84403E+04-3.94904E+03 1.12739E+04-1.59446E-11-2.65754E-09
 -1       956-1.29893E+05-1.87545E+03-4.72092E+03 8.57410E+03-2.90311E-09-1.02409E-09
 -1       957-1.30825E+05-6.34085E+02-2.42374E+03 1.03188E+04-2.28965E-09-2.07865E-09
 -1       958-1.30309E+05-5.17664E+01-1.09177E+03 8.51858E+03-3.19005E-09-2.76441E-09
 -1       959-1.30382E+05-1.17908E+01-5.57763E+02 1.03788E+04-8.05642E-09 4.20073E-10
 -1       960-1.30344E+05 1.28438E+01-2.71767E+02 8.51358E+03-5.11022E-09 2.94801E-09
 -1       961-1.30348E+05 1.03625E+01-1.44149E+02 1.03844E+04-3.81988E-09-1.47224E-09
 -1       962-1.30350E+05 9.90067E+00-8.22567E+01 8.51300E+03-2.77680E-09 5.17502E-10
 -1       963-1.30345E+05 1.01574E+01-6.56636E+01 1.03852E+04-2.68369E-09 6.54791E-09
 -1       964-1.30351E+05 1.03248E+01-7.91639E+01 8.51280E+03-1.28409E-09 3.06386E-10
 -1       965-1.30349E+05 1.13600E+01-1.36340E+02 1.03851E+04 1.19564E-09-2.14214E-09
 -1       966-1.30347E+05 1.40667E+01-2.55592E+02 8.51304E+03-7.98025E-10 2.01794E-10
 -1       967-1.30384E+05-8.40734E+00-5.24048E+02 1.03820E+04 1.75794E-09 1.81643E-09
 -1       968-1.30316E+05-4.56352E+01-1.02533E+03 8.51591E+03 1.25578E-09-5.24793E-10
 -1       969-1.30801E+05-5.91980E+02-2.27648E+03 1.03472E+04 1.45519E-10 1.39190E-09
 -1       970-1.29926E+05-1.75788E+03-4.43384E+03 8.54862E+03-5.04201E-10 2.51930E-10
 -1       971-1.23535E+05-6.54614E+02-3.64029E+03 6.10756E+03-2.39061E-09-9.20153E-10
 -1       972-1.24420E+05-4.71640E+02-1.98284E+03 8.51761E+03-1.35742E-09-2.20712E-09
 -1       973-1.23938E+05-5.72584E+00-8.87488E+02 6.05810E+03-1.88743E-09-9.58039E-10
 -1       974-1.23998E+05-8.30395E+00-4.59915E+02 8.57050E+03-4.69413E-10-1.34634E-09
 -1       975-1.23967E+05 9.66576E+00-2.29141E+02 6.05432E+03 1.28171E-09 1.87288E-09
 -1       976-1.23970E+05 9.27997E+00-1.31270E+02 8.57478E+03-1.65278E-09 2.70472E-09
 -1       977-1.23971E+05 8.47416E+00-9.33430E+01 6.05380E+03 1.06104E-09 1.98742E-09
 -1       978-1.23970E+05 1.05352E+01-1.06752E+02 8.57550E+03 6.16004E-09 1.53574E-09
 -1       979-1.23971E+05 1.08410E+01-1.69254E+02 6.05360E+03 3.11010E-09 2.68307E-09
 -1       980-1.23982E+05 1.13484E+01-3.25392E+02 8.57555E+03 4.65573E-09-3.87354E-09
 -1       981-1.23960E+05 1.90133E+01-6.29363E+02 6.05375E+03 1.01375E-09 1.25479E-09
 -1       982-1.24069E+05-3.46933E+01-1.30040E+03 8.57335E+03-2.96728E-09 3.28093E-10
 -1       983-1.23882E+05-2.05661E+01-2.52626E+03 6.05585E+03-3.41856E-10 1.57769E-09
 -1       984-1.25285E+05-1.35280E+03-5.65700E+03 8.53979E+03-1.60674E-09-3.41015E-09
 -1       985-1.22740E+05-1.86834E+03-1.03880E+04 6.08871E+03 1.90130E-09 1.31195E-09
 -3
    1PSTEP                         3           2           1          
  100CL  102 3.12500E-01         409                     0    2           1
 -4  DISP        4    1
 -5  D1          1    2    1    0
 -5  D2          1    2    2    0
 -5  D3          1    2    3    0
 -5  ALL         1    2    0    0    1ALL
 -1         1 8.24002E-05 0.00000E+00 0.00000E+00
 -1         2 7.65305E-05 9.98360E-30-1.65436E-24
 -1         3 6.81331E-05-1.56318E-27 3.30872E-24
 -1         5 4.93898E-05 2.26109E-26 0.00000E+00
 -1         8 6.58038E-05-5.98460E-07 0.00000E+00
 -1         9 6.71732E-05 4.54448E-07 0.00000E+00
 -1        10 6.31741E-05-9.35114E-07-3.30872E-24
 -1        12 4.90239E-05 3.40339E-07 0.00000E+00
 -1        15 4.60586E-05-6.46046E-07 2.06795E-25
 -1        16 4.75393E-05 3.71941E-07 0.00000E+00
 -1        17 4.71912E-05-1.96246E-06 0.00000E+00
 -1        18 4.72688E-05-8.14438E-09 0.00000E+00
 -1        19 4.79264E-05 6.78815E-07 0.00000E+00
 -1        20 4.80161E-05 1.02243E-05 0.00000E+00
 -1        21 4.76799E-05 1.93638E-05-1.65436E-24
 -1        24 1.22706E-05-2.62113E-06 0.00000E+00
 -1        25 4.60796E-05 6.96364E-08 0.00000E+00
 -1        26 4.67048E-05 9.46048E-07 0.00000E+00
 -1        27 4.57639E-05 8.71181E-06 0.00000E+00
 -1        28 4.54576E-05 1.90728E-05 0.00000E+00
 -1        32 0.00000E+00 0.00000E+00 0.00000E+00
 -1        33 4.46656E-05 1.26890E-06 0.00000E+00
 -1        34 4.37561E-05 8.69841E-06 0.00000E+00
 -1        35 4.28915E-05 1.89193E-05 0.00000E+00
 -1        51 8.13204E-05-9.91761E-08 0.00000E+00
 -1        52 7.93194E-05-1.95620E-07 0.00000E+00
 -1        53 7.65785E-05-2.92617E-07 0.00000E+00
 -1        54 7.32863E-05-3.91076E-07 0.00000E+00
 -1        55 6.96315E-05-4.91596E-07-5.58347E-24
 -1        56 8.16651E-05-4.66926E-07-1.32349E-23
 -1        57 8.10165E-05-1.24730E-06 0.00000E+00
 -1        58 8.04535E-05-2.25194E-06-2.64698E-23
 -1        59 7.99390E-05-3.40025E-06 1.32349E-23
 -1        60 7.94443E-05-4.60197E-06 2.64698E-23
 -1        61 7.89352E-05-5.76780E-06-1.32349E-23
 -1        62 7.83795E-05-6.80942E-06 0.00000E+00
 -1        63 7.77452E-05-7.64124E-06 0.00000E+00
 -1        64 7.70032E-05-8.18587E-06 0.00000E+00
 -1        65 7.61268E-05-8.37147E-06 0.00000E+00
 -1        66 7.50941E-05-8.14046E-06 2.64698E-23
 -1        67 7.38869E-05-7.44308E-06 0.00000E+00
 -1        68 7.24928E-05-6.24845E-06 0.00000E+00
 -1        69 7.09074E-05-4.53357E-06-1.32349E-23
 -1        70 6.91244E-05-2.29952E-06 0.00000E+00
 -1        86 7.62861E-05 8.06615E-08-1.65436E-24
 -1        87 7.55520E-05 1.60717E-07 8.27181E-25
 -1        88 7.43065E-05 2.40230E-07-1.65436E-24
 -1        89 7.25260E-05 3.16608E-07 0.00000E+00
 -1        90 7.01644E-05 3.92622E-07 0.00000E+00
 -1       121 6.79949E-05-1.55363E-07 0.00000E+00
 -1       122 6.75805E-05-3.10803E-07 3.30872E-24
 -1       123 6.68904E-05-4.66396E-07-6.61744E-24
 -1       124 6.59252E-05-6.22243E-07-3.30872E-24
 -1       125 6.46859E-05-7.78373E-07 6.61744E-24
 -1       191 4.93796E-05 5.67276E-08 0.00000E+00
 -1       192 4.93492E-05 1.13454E-07 0.00000E+00
 -1       193 4.92983E-05 1.70180E-07 3.30872E-24
 -1       194 4.92272E-05 2.26904E-07 0.00000E+00
 -1       195 4.91357E-05 2.83624E-07 0.00000E+00
 -1       251 6.58744E-05 2.12013E-06-1.65436E-24
 -1       252 6.59601E-05 3.71416E-06 0.00000E+00
 -1       253 6.60461E-05 4.38262E-06-1.65436E-24
 -1       254 6.61347E-05 4.32094E-06-8.27181E-25
 -1       255 6.62232E-05 3.69029E-06 3.30872E-24
 -1       256 6.63119E-05 2.64970E-06-1.65436E-24
 -1       257 6.64003E-05 1.33886E-06 3.30872E-24
 -1       258 6.64886E-05-1.03548E-07-1.65436E-24
 -1       259 6.65769E-05-1.54510E-06-3.30872E-24
 -1       260 6.66654E-05-2.85333E-06 0.00000E+00
 -1       261 6.67540E-05-3.88946E-06 0.00000E+00
 -1       262 6.68425E-05-4.51375E-06-8.27181E-25
 -1       263 6.69311E-05-4.56697E-06 0.00000E+00
 -1       264 6.70171E-05-3.88777E-06 0.00000E+00
 -1       265 6.71028E-05-2.28039E-06 1.65436E-24
 -1       266 6.25129E-05-6.14581E-07 0.00000E+00
 -1       267 5.92221E-05-6.21513E-07 0.00000E+00
 -1       268 5.59312E-05-6.29028E-07 0.00000E+00
 -1       269 5.26403E-05-6.34819E-07 0.00000E+00
 -1       270 4.93495E-05-6.40569E-07 0.00000E+00
 -1       271 6.38010E-05 1.84658E-06-5.29396E-23
 -1       272 6.21035E-05 3.38669E-06 0.00000E+00
 -1       273 6.07047E-05 4.13722E-06-2.64698E-23
 -1       274 5.95553E-05 4.20920E-06 0.00000E+00
 -1       275 5.86137E-05 3.72637E-06 0.00000E+00
 -1       276 5.78306E-05 2.81757E-06 0.00000E+00
 -1       277 5.71564E-05 1.61767E-06-2.64698E-23
 -1       278 5.65392E-05 2.64928E-07 1.32349E-23
 -1       279 5.59266E-05-1.10035E-06 2.64698E-23
 -1       280 5.52663E-05-2.33766E-06 1.32349E-23
 -1       281 5.45062E-05-3.30831E-06-2.64698E-23
 -1       282 5.35962E-05-3.87680E-06-1.32349E-23
 -1       283 5.24869E-05-3.91311E-06 0.00000E+00
 -1       284 5.11346E-05-3.29267E-06 0.00000E+00
 -1       285 4.94913E-05-1.90205E-06 2.64698E-23
 -1       301 6.38447E-05 4.36976E-07 3.30872E-24
 -1       302 6.05194E-05 4.29112E-07 0.00000E+00
 -1       303 5.72117E-05 4.21524E-07 0.00000E+00
 -1       304 5.39361E-05 4.12831E-07 0.00000E+00
 -1       305 5.07072E-05 4.02610E-07 6.61744E-24
 -1       306 6.49739E-05 2.93842E-06-2.64698E-23
 -1       307 6.30558E-05 4.56357E-06 0.00000E+00
 -1       308 6.14807E-05 5.28558E-06 0.00000E+00
 -1       309 6.02483E-05 5.07509E-06 0.00000E+00
 -1       310 5.93249E-05 4.04016E-06 2.64698E-23
 -1       311 5.86575E-05 2.31650E-06 1.32349E-23
 -1       312 5.81598E-05 1.38359E-07-2.64698E-23
 -1       313 5.77379E-05-2.24373E-06 1.32349E-23
 -1       314 5.72876E-05-4.54977E-06 2.64698E-23
 -1       315 5.67058E-05-6.50256E-06 1.32349E-23
 -1       316 5.59076E-05-7.87584E-06 2.64698E-23
 -1       317 5.48171E-05-8.46423E-06 0.00000E+00
 -1       318 5.33970E-05-8.17432E-06 0.00000E+00
 -1       319 5.16309E-05-6.94196E-06-1.32349E-23
 -1       320 4.95345E-05-4.84243E-06 0.00000E+00
 -1       336 6.13549E-05-1.10462E-06-3.30872E-24
 -1       337 5.91938E-05-1.27502E-06-1.65436E-24
 -1       338 5.66933E-05-1.44612E-06 0.00000E+00
 -1       339 5.38568E-05-1.61785E-06-1.65436E-24
 -1       340 5.06880E-05-1.79057E-06-3.30872E-24
 -1       406 4.88917E-05 3.97045E-07 0.00000E+00
 -1       407 4.87393E-05 4.53730E-07-1.65436E-24
 -1       408 4.85664E-05 5.10377E-07 3.30872E-24
 -1       409 4.83733E-05 5.66916E-07 3.30872E-24
 -1       410 4.81599E-05 6.23236E-07 1.65436E-24
 -1       521 4.46605E-05 2.16649E-06 5.29396E-23
 -1       522 4.21767E-05 2.72276E-06-2.64698E-23
 -1       523 4.01429E-05 2.09330E-06 5.29396E-23
 -1       524 3.85078E-05 3.65570E-07-2.64698E-23
 -1       525 3.71872E-05-2.20492E-06-5.29396E-23
 -1       526 3.60677E-05-5.32086E-06-2.64698E-23
 -1       527 3.50103E-05-8.60434E-06 5.29396E-23
 -1       528 3.38711E-05-1.16691E-05-2.64698E-23
 -1       529 3.25181E-05-1.41604E-05 0.00000E+00
 -1       530 3.08305E-05-1.57550E-05 2.64698E-23
 -1       531 2.87350E-05-1.62605E-05 5.29396E-23
 -1       532 2.61821E-05-1.55434E-05 0.00000E+00
 -1       533 2.31853E-05-1.36489E-05-5.29396E-23
 -1       534 1.97953E-05-1.06820E-05-2.64698E-23
 -1       535 1.60960E-05-6.91198E-06 0.00000E+00
 -1       536 4.71861E-05 1.27617E-06 1.65436E-24
 -1       537 4.71884E-05 3.67751E-06 0.00000E+00
 -1       538 4.71919E-05 5.34117E-06 0.00000E+00
 -1       539 4.71973E-05 6.36653E-06 0.00000E+00
 -1       540 4.72030E-05 6.84447E-06 0.00000E+00
 -1       541 4.72091E-05 6.86575E-06 5.16988E-26
 -1       542 4.72151E-05 6.51490E-06 2.06795E-25
 -1       543 4.72210E-05 5.87637E-06-1.03398E-25
 -1       544 4.72268E-05 5.03069E-06 0.00000E+00
 -1       545 4.72325E-05 4.05831E-06 1.03398E-25
 -1       546 4.72382E-05 3.03800E-06 2.06795E-25
 -1       547 4.72439E-05 2.04847E-06 1.03398E-25
 -1       548 4.72497E-05 1.16886E-06 0.00000E+00
 -1       549 4.72558E-05 4.78366E-07 2.06795E-25
 -1       550 4.72620E-05 5.87537E-08 0.00000E+00
 -1       551 4.25628E-05-2.06308E-06 0.00000E+00
 -1       552 3.70240E-05-2.16646E-06-1.65436E-24
 -1       553 3.08980E-05-2.27324E-06 3.30872E-24
 -1       554 2.45124E-05-2.38318E-06 3.30872E-24
 -1       555 1.81949E-05-2.49454E-06 0.00000E+00
 -1       556 4.59801E-05 1.17847E-06 0.00000E+00
 -1       557 4.50562E-05 3.57429E-06 0.00000E+00
 -1       558 4.43881E-05 5.29403E-06 0.00000E+00
 -1       559 4.39473E-05 6.41214E-06 0.00000E+00
 -1       560 4.37049E-05 7.00288E-06 0.00000E+00
 -1       561 4.36327E-05 7.14088E-06-3.30872E-24
 -1       562 4.37024E-05 6.90084E-06 0.00000E+00
 -1       563 4.38857E-05 6.35753E-06 0.00000E+00
 -1       564 4.41546E-05 5.58575E-06 3.30872E-24
 -1       565 4.44810E-05 4.66031E-06 1.65436E-24
 -1       566 4.48369E-05 3.65605E-06 0.00000E+00
 -1       567 4.51943E-05 2.64784E-06 0.00000E+00
 -1       568 4.55252E-05 1.71049E-06 0.00000E+00
 -1       569 4.58016E-05 9.18759E-07 0.00000E+00
 -1       570 4.59955E-05 3.47441E-07 0.00000E+00
 -1       571 4.73088E-05 6.16876E-08 8.27181E-25
 -1       572 4.73495E-05 1.04320E-07-2.06795E-25
 -1       573 4.73906E-05 1.24573E-07-1.24077E-24
 -1       574 4.74318E-05 1.27522E-07 4.13590E-25
 -1       575 4.74730E-05 1.18266E-07 8.27181E-25
 -1       576 4.75142E-05 1.01937E-07 0.00000E+00
 -1       577 4.75554E-05 8.36705E-08 0.00000E+00
 -1       578 4.75967E-05 6.86061E-08 0.00000E+00
 -1       579 4.76379E-05 6.18840E-08 0.00000E+00
 -1       580 4.76792E-05 6.86445E-08 8.27181E-25
 -1       581 4.77204E-05 9.40269E-08-1.65436E-24
 -1       582 4.77617E-05 1.43165E-07-3.30872E-24
 -1       583 4.78029E-05 2.21187E-07 0.00000E+00
 -1       584 4.78441E-05 3.33171E-07 0.00000E+00
 -1       585 4.78853E-05 4.84161E-07 0.00000E+00
 -1       586 4.70572E-05 5.63169E-09 8.27181E-25
 -1       587 4.68279E-05 1.90562E-08 2.06795E-25
 -1       588 4.65983E-05 3.23308E-08 0.00000E+00
 -1       589 4.63855E-05 4.53945E-08 0.00000E+00
 -1       590 4.62070E-05 5.81038E-08 0.00000E+00
 -1       591 4.72236E-05 8.23979E-08 0.00000E+00
 -1       592 4.71853E-05 1.50252E-07 0.00000E+00
 -1       593 4.71538E-05 1.99724E-07 0.00000E+00
 -1       594 4.71275E-05 2.34694E-07 0.00000E+00
 -1       595 4.71051E-05 2.59094E-07 0.00000E+00
 -1       596 4.70852E-05 2.76829E-07-2.06795E-25
 -1       597 4.70664E-05 2.91800E-07 0.00000E+00
 -1       598 4.70470E-05 3.07904E-07 0.00000E+00
 -1       599 4.70259E-05 3.29042E-07 2.06795E-25
 -1       600 4.70013E-05 3.59110E-07-1.03398E-25
 -1       601 4.69720E-05 4.02006E-07 0.00000E+00
 -1       602 4.69364E-05 4.61633E-07 1.55096E-25
 -1       603 4.68932E-05 5.41893E-07 1.03398E-25
 -1       604 4.68409E-05 6.46720E-07-5.16988E-26
 -1       605 4.67781E-05 7.79996E-07-4.13590E-25
 -1       606 4.79341E-05 9.67314E-07 1.65436E-24
 -1       607 4.79403E-05 1.31498E-06 0.00000E+00
 -1       608 4.79461E-05 1.71834E-06 0.00000E+00
 -1       609 4.79518E-05 2.17348E-06 0.00000E+00
 -1       610 4.79573E-05 2.67647E-06 0.00000E+00
 -1       611 4.79628E-05 3.22331E-06 0.00000E+00
 -1       612 4.79682E-05 3.81000E-06 0.00000E+00
 -1       613 4.79737E-05 4.43257E-06-8.27181E-25
 -1       614 4.79791E-05 5.08700E-06 0.00000E+00
 -1       615 4.79844E-05 5.76929E-06 0.00000E+00
 -1       616 4.79898E-05 6.47545E-06 0.00000E+00
 -1       617 4.79951E-05 7.20149E-06 0.00000E+00
 -1       618 4.80005E-05 7.94339E-06 0.00000E+00
 -1       619 4.80058E-05 8.69717E-06 0.00000E+00
 -1       620 4.80110E-05 9.45882E-06 2.06795E-25
 -1       621 4.76954E-05 7.23382E-07 0.00000E+00
 -1       622 4.74798E-05 7.68169E-07 8.27181E-25
 -1       623 4.72761E-05 8.12950E-07 0.00000E+00
 -1       624 4.70813E-05 8.57660E-07 4.13590E-25
 -1       625 4.68919E-05 9.02292E-07 8.27181E-25
 -1       626 4.78659E-05 9.81286E-07 0.00000E+00
 -1       627 4.77873E-05 1.33279E-06 0.00000E+00
 -1       628 4.76920E-05 1.72879E-06 3.30872E-24
 -1       629 4.75820E-05 2.16445E-06 0.00000E+00
 -1       630 4.74588E-05 2.63493E-06-3.30872E-24
 -1       631 4.73245E-05 3.13533E-06 8.27181E-25
 -1       632 4.71807E-05 3.66079E-06 1.65436E-24
 -1       633 4.70294E-05 4.20642E-06 0.00000E+00
 -1       634 4.68723E-05 4.76734E-06 0.00000E+00
 -1       635 4.67113E-05 5.33867E-06 0.00000E+00
 -1       636 4.65482E-05 5.91553E-06-1.65436E-24
 -1       637 4.63849E-05 6.49304E-06 0.00000E+00
 -1       638 4.62231E-05 7.06631E-06-8.27181E-25
 -1       639 4.60646E-05 7.63047E-06 4.13590E-25
 -1       640 4.59112E-05 8.18062E-06 0.00000E+00
 -1       656 4.73787E-05 9.97828E-06 3.30872E-24
 -1       657 4.69636E-05 9.72235E-06-3.30872E-24
 -1       658 4.66845E-05 9.46721E-06 0.00000E+00
 -1       659 4.64540E-05 9.21228E-06-3.30872E-24
 -1       660 4.61782E-05 8.95654E-06 3.30872E-24
 -1       661 4.77803E-05 1.09748E-05 0.00000E+00
 -1       662 4.75582E-05 1.16939E-05 0.00000E+00
 -1       663 4.73475E-05 1.23822E-05-8.27181E-25
 -1       664 4.71482E-05 1.30413E-05 8.27181E-25
 -1       665 4.69595E-05 1.36722E-05-1.65436E-24
 -1       666 4.67810E-05 1.42762E-05 0.00000E+00
 -1       667 4.66121E-05 1.48545E-05 1.65436E-24
 -1       668 4.64525E-05 1.54081E-05 8.27181E-25
 -1       669 4.63017E-05 1.59382E-05 1.65436E-24
 -1       670 4.61594E-05 1.64458E-05 8.27181E-25
 -1       671 4.60251E-05 1.69319E-05-1.65436E-24
 -1       672 4.58984E-05 1.73976E-05-8.27181E-25
 -1       673 4.57790E-05 1.78437E-05 0.00000E+00
 -1       674 4.56662E-05 1.82711E-05 0.00000E+00
 -1       675 4.55601E-05 1.86808E-05-4.13590E-25
 -1       676 4.73089E-05 1.93150E-05-1.65436E-24
 -1       677 4.69380E-05 1.92663E-05 8.27181E-25
 -1       678 4.65673E-05 1.92175E-05 0.00000E+00
 -1       679 4.61970E-05 1.91689E-05 0.00000E+00
 -1       680 4.58270E-05 1.91203E-05 0.00000E+00
 -1       771 9.87420E-06 1.88139E-06 2.64698E-23
 -1       772 7.78352E-06 5.56117E-06 1.32349E-23
 -1       773 5.98570E-06 8.46666E-06-2.64698E-23
 -1       774 4.46077E-06 1.06486E-05-1.32349E-23
 -1       775 3.18923E-06 1.21585E-05 2.64698E-23
 -1       776 2.15085E-06 1.30491E-05 1.32349E-23
 -1       777 1.32521E-06 1.33738E-05 2.64698E-23
 -1       778 6.91586E-07 1.31869E-05 0.00000E+00
 -1       779 2.29120E-07 1.25435E-05 0.00000E+00
 -1       780-8.32959E-08 1.14993E-05-1.32349E-23
 -1       781-2.66827E-07 1.01105E-05 0.00000E+00
 -1       782-3.42836E-07 8.43407E-06-1.32349E-23
 -1       783-3.32722E-07 6.52706E-06 0.00000E+00
 -1       784-2.57968E-07 4.44710E-06 1.32349E-23
 -1       785-1.40142E-07 2.25199E-06 0.00000E+00
 -1       786 4.61164E-05 7.95894E-08 4.13590E-25
 -1       787 4.61554E-05 9.02211E-08 0.00000E+00
 -1       788 4.61942E-05 1.02164E-07 8.27181E-25
 -1       789 4.62335E-05 1.16054E-07 0.00000E+00
 -1       790 4.62727E-05 1.32699E-07 0.00000E+00
 -1       791 4.63121E-05 1.52913E-07-4.13590E-25
 -1       792 4.63514E-05 1.77829E-07 1.65436E-24
 -1       793 4.63908E-05 2.08588E-07-8.27181E-25
 -1       794 4.64302E-05 2.46854E-07-1.65436E-24
 -1       795 4.64696E-05 2.94305E-07-8.27181E-25
 -1       796 4.65089E-05 3.53437E-07 0.00000E+00
 -1       797 4.65483E-05 4.26771E-07 0.00000E+00
 -1       798 4.65876E-05 5.18094E-07 0.00000E+00
 -1       799 4.66269E-05 6.31226E-07 4.13590E-25
 -1       800 4.66661E-05 7.71938E-07-8.27181E-25
 -1       801 4.29634E-05 9.45781E-08-1.03398E-25
 -1       802 3.37164E-05 8.40898E-08-2.06795E-25
 -1       803 2.15672E-05 4.51145E-08 1.65436E-24
 -1       804 9.73994E-06 5.36881E-09 1.65436E-24
 -1       805 1.46990E-06-4.67513E-10-6.61744E-24
 -1       806 4.60279E-05 5.31126E-08 0.00000E+00
 -1       807 4.59742E-05 3.63342E-08 0.00000E+00
 -1       808 4.59192E-05 2.23697E-08 1.65436E-24
 -1       809 4.58619E-05 1.38270E-08-8.27181E-25
 -1       810 4.58016E-05 1.33093E-08 0.00000E+00
 -1       811 4.57372E-05 2.33820E-08 0.00000E+00
 -1       812 4.56679E-05 4.66080E-08-1.65436E-24
 -1       813 4.55927E-05 8.55438E-08-4.13590E-25
 -1       814 4.55107E-05 1.42746E-07 0.00000E+00
 -1       815 4.54208E-05 2.20768E-07 8.27181E-25
 -1       816 4.53222E-05 3.22162E-07 0.00000E+00
 -1       817 4.52138E-05 4.49482E-07-4.13590E-25
 -1       818 4.50948E-05 6.05278E-07 8.27181E-25
 -1       819 4.49643E-05 7.92093E-07 4.13590E-25
 -1       820 4.48213E-05 1.01247E-06-1.65436E-24
 -1       821 4.66494E-05 1.15258E-06 0.00000E+00
 -1       822 4.65905E-05 1.39073E-06 0.00000E+00
 -1       823 4.65319E-05 1.67087E-06-1.65436E-24
 -1       824 4.64726E-05 2.00325E-06-8.27181E-25
 -1       825 4.64133E-05 2.39158E-06 0.00000E+00
 -1       826 4.63538E-05 2.83939E-06 0.00000E+00
 -1       827 4.62942E-05 3.34276E-06 0.00000E+00
 -1       828 4.62347E-05 3.89761E-06 0.00000E+00
 -1       829 4.61751E-05 4.49340E-06 0.00000E+00
 -1       830 4.61155E-05 5.11947E-06 0.00000E+00
 -1       831 4.60559E-05 5.76137E-06 0.00000E+00
 -1       832 4.59965E-05 6.40459E-06-8.27181E-25
 -1       833 4.59370E-05 7.03446E-06 0.00000E+00
 -1       834 4.58783E-05 7.63635E-06 0.00000E+00
 -1       835 4.58193E-05 8.19915E-06-4.13590E-25
 -1       836 4.64549E-05 9.99790E-07 0.00000E+00
 -1       837 4.61338E-05 1.05472E-06 1.65436E-24
 -1       838 4.57678E-05 1.10955E-06 1.65436E-24
 -1       839 4.53835E-05 1.16404E-06 4.13590E-25
 -1       840 4.50073E-05 1.21843E-06 0.00000E+00
 -1       856 4.57469E-05 9.23406E-06-1.03398E-25
 -1       857 4.57279E-05 9.82119E-06 0.00000E+00
 -1       858 4.57091E-05 1.04629E-05-4.13590E-25
 -1       859 4.56898E-05 1.11491E-05 0.00000E+00
 -1       860 4.56706E-05 1.18692E-05-4.13590E-25
 -1       861 4.56512E-05 1.26130E-05 0.00000E+00
 -1       862 4.56318E-05 1.33700E-05-4.13590E-25
 -1       863 4.56124E-05 1.41300E-05 0.00000E+00
 -1       864 4.55930E-05 1.48826E-05 4.13590E-25
 -1       865 4.55736E-05 1.56173E-05-2.06795E-25
 -1       866 4.55543E-05 1.63238E-05 0.00000E+00
 -1       867 4.55349E-05 1.69918E-05 4.13590E-25
 -1       868 4.55156E-05 1.76110E-05 0.00000E+00
 -1       869 4.54963E-05 1.81710E-05 0.00000E+00
 -1       870 4.54770E-05 1.86616E-05 8.27181E-25
 -1       871 4.53634E-05 8.71133E-06 0.00000E+00
 -1       872 4.50250E-05 8.70956E-06 0.00000E+00
 -1       873 4.47221E-05 8.70756E-06-2.06795E-25
 -1       874 4.44276E-05 8.70525E-06 5.16988E-26
 -1       875 4.41146E-05 8.70264E-06-2.06795E-25
 -1       876 4.56247E-05 9.23938E-06 0.00000E+00
 -1       877 4.54749E-05 9.79851E-06 8.27181E-25
 -1       878 4.53149E-05 1.03854E-05 0.00000E+00
 -1       879 4.51459E-05 1.09964E-05 0.00000E+00
 -1       880 4.49691E-05 1.16281E-05 0.00000E+00
 -1       881 4.47861E-05 1.22768E-05-8.27181E-25
 -1       882 4.45979E-05 1.29391E-05 0.00000E+00
 -1       883 4.44060E-05 1.36112E-05 0.00000E+00
 -1       884 4.42117E-05 1.42898E-05 0.00000E+00
 -1       885 4.40163E-05 1.49712E-05 0.00000E+00
 -1       886 4.38212E-05 1.56519E-05-1.65436E-24
 -1       887 4.36276E-05 1.63284E-05 0.00000E+00
 -1       888 4.34369E-05 1.69970E-05 0.00000E+00
 -1       889 4.32501E-05 1.76542E-05-8.27181E-25
 -1       890 4.30687E-05 1.82964E-05 0.00000E+00
 -1       891 4.51007E-05 1.90471E-05 0.00000E+00
 -1       892 4.47326E-05 1.90213E-05 2.06795E-25
 -1       893 4.43404E-05 1.89956E-05-4.13590E-25
 -1       894 4.39114E-05 1.89699E-05-2.06795E-25
 -1       895 4.34326E-05 1.89442E-05-1.03398E-25
 -1       956 4.46098E-05 1.59896E-06 1.65436E-24
 -1       957 4.45531E-05 1.96550E-06 4.13590E-25
 -1       958 4.44962E-05 2.36475E-06 8.27181E-25
 -1       959 4.44392E-05 2.79269E-06 0.00000E+00
 -1       960 4.43822E-05 3.24532E-06 0.00000E+00
 -1       961 4.43252E-05 3.71859E-06-8.27181E-25
 -1       962 4.42681E-05 4.20847E-06 1.65436E-24
 -1       963 4.42110E-05 4.71092E-06 8.27181E-25
 -1       964 4.41539E-05 5.22190E-06 1.65436E-24
 -1       965 4.40969E-05 5.73736E-06 8.27181E-25
 -1       966 4.40398E-05 6.25328E-06-1.65436E-24
 -1       967 4.39827E-05 6.76560E-06 0.00000E+00
 -1       968 4.39257E-05 7.27028E-06 0.00000E+00
 -1       969 4.38688E-05 7.76331E-06 0.00000E+00
 -1       970 4.38120E-05 8.24065E-06-1.65436E-24
 -1       971 4.37028E-05 9.16852E-06 8.27181E-25
 -1       972 4.36487E-05 9.68683E-06 0.00000E+00
 -1       973 4.35945E-05 1.02480E-05 0.00000E+00
 -1       974 4.35402E-05 1.08465E-05 8.27181E-25
 -1       975 4.34858E-05 1.14767E-05 0.00000E+00
 -1       976 4.34315E-05 1.21332E-05 0.00000E+00
 -1       977 4.33771E-05 1.28104E-05 0.00000E+00
 -1       978 4.33227E-05 1.35027E-05 0.00000E+00
 -1       979 4.32683E-05 1.42046E-05 0.00000E+00
 -1       980 4.32139E-05 1.49105E-05 8.27181E-25
 -1       981 4.31595E-05 1.56149E-05 0.00000E+00
 -1       982 4.31052E-05 1.63121E-05 0.00000E+00
 -1       983 4.30510E-05 1.69967E-05 0.00000E+00
 -1       984 4.29970E-05 1.76631E-05 0.00000E+00
 -1       985 4.29432E-05 1.83058E-05 1.65436E-24
 -3
    1PSTEP                         4           2           1          
  100CL  102 3.12500E-01         409                     0    2           1
 -4  STRESS      6    1
 -5  SXX         1    4    1    1
 -5  SYY         1    4    2    2
 -5  SZZ         1    4    3    3
 -5  SXY         1    4    1    2
 -5  SYZ         1    4    2    3
 -5  SZX         1    4    3    1
 -1         1-1.06321E+06-4.92690E+05-2.15597E+05-6.96493E+05-6.91216E-11-6.05360E-09
 -1         2 1.85132E+03 2.33236E+05 6.04501E+03 4.85591E+02-8.68283E-11 4.75717E-09
 -1         3-2.90801E+01-4.44051E+05 1.02569E+02-9.87775E+01-7.43050E-11 1.62981E-09
 -1         5-3.35875E+00 1.62309E+05 4.25302E+00-2.36974E-02 1.31866E-10 1.36533E-08
 -1         8-5.00077E+05-2.20815E+05-1.42878E+04-3.89567E+05 1.58252E-10 8.29459E-10
 -1         9-9.10222E+05-2.34935E+05-9.76724E+04-3.12709E+05 1.83936E-09-7.85803E-10
 -1        10-3.35862E+02-4.62610E+05-5.89354E+02-6.59427E+02-2.04318E-09-1.18055E-08
 -1        12-1.61342E+00 1.62318E+05 1.37897E+02 1.14016E-01 8.08029E-11-5.49335E-10
 -1        15 1.35696E+03 7.45722E+02 4.38635E+03 1.93107E+00-2.33572E-09-6.90682E-07
 -1        16-2.48541E+06-7.98542E+05-3.86390E+05-8.11407E+05 7.63491E-09-1.58131E-09
 -1        17-5.94107E+05-3.49822E+05-1.18980E+05-3.24887E+05-1.20694E-08 3.94211E-09
 -1        18 2.49336E+04 3.17667E+03-6.24529E+03-3.80316E+04 4.70891E-10-3.43925E-09
 -1        19 5.08293E+04 6.06776E+04-2.76726E+02 9.96175E+03-3.51611E-10-1.74623E-11
 -1        20-2.09272E+04-2.40246E+05-5.29639E+04 1.79367E+04 2.45844E-09-2.68907E-09
 -1        21-2.27805E+01-1.39534E+05-4.50868E+02-3.55069E+01-8.07356E-09-2.40815E-10
 -1        24-2.17731E+06-7.54124E+05-3.12424E+05-9.13721E+05-9.51210E-09-4.63236E-09
 -1        25 2.21621E+04 1.11376E+04 1.46296E+04-6.86016E+04 2.36469E-10-5.81895E-10
 -1        26-1.15728E+04 4.15261E+04-8.18287E+03-6.02306E+03 1.02700E-09 1.56475E-09
 -1        27-3.85552E+04-1.31855E+05-4.94764E+04 2.97132E+04 3.85285E-09-2.81216E-09
 -1        28 1.07858E+04-3.85266E+04 7.87566E+03 1.23956E+04 1.99901E-09-2.44671E-09
 -1        32-5.07214E+05-4.17989E+04 2.30028E+05-3.46412E+05-9.93896E-09 9.93498E-09
 -1        33-7.53631E+04 3.88160E+04 1.37564E+04-2.26446E+04 9.45420E-10 1.80868E-09
 -1        34-9.79332E+04-9.73870E+03 2.30586E+02 3.00806E+04 2.22096E-09 2.67846E-09
 -1        35-1.09731E+04-1.53229E+04-5.97701E+02 2.43021E+04 3.46337E-09-7.89805E-09
 -1        51 9.66788E+03-2.57323E+05 2.39610E+04-6.34507E+05 2.18279E-10-4.35830E-09
 -1        52 5.18329E+03-2.55494E+05 1.59744E+04-7.40039E+05 6.07542E-10-8.44011E-09
 -1        53 3.46687E+03-2.62130E+05 1.40849E+04-6.32345E+05 4.43833E-10 1.49885E-09
 -1        54 1.08628E+04-2.60043E+05 2.29873E+04-7.42332E+05-3.41970E-10 5.32600E-09
 -1        55 2.37543E+04-2.68507E+05 4.14531E+04-6.32056E+05 1.45519E-11 1.46174E-08
 -1        56-2.04291E+06-2.31030E+05-1.59106E+05-7.87670E+05-9.71340E-10-5.93718E-09
 -1        57-2.10613E+06-3.75584E+05-1.07233E+05-7.82323E+05 2.13731E-11-6.03723E-09
 -1        58-2.07477E+06-2.81499E+05-3.74541E+04-7.77808E+05-9.68612E-11-7.83803E-09
 -1        59-2.06925E+06-3.16430E+05-2.23589E+04-7.94188E+05-1.43291E-09-7.90169E-09
 -1        60-2.07948E+06-2.88482E+05-8.75357E+03-7.76416E+05-8.54470E-10-1.97042E-09
 -1        61-2.06427E+06-3.07771E+05-4.97820E+03-7.95245E+05-5.04770E-11-7.46957E-09
 -1        62-2.07968E+06-2.89946E+05-2.40138E+03-7.76815E+05-5.01586E-10-1.53486E-09
 -1        63-2.06508E+06-3.05201E+05-1.97529E+03-7.93578E+05-6.82576E-10-8.21387E-10
 -1        64-2.07863E+06-2.91054E+05-2.27674E+03-7.78061E+05 7.73070E-11 4.29736E-10
 -1        65-2.06824E+06-3.03451E+05-4.55214E+03-7.90340E+05-2.99190E-09-5.91024E-09
 -1        66-2.07648E+06-2.91752E+05-8.02170E+03-7.80007E+05 2.54431E-10 3.60615E-10
 -1        67-2.07639E+06-3.07617E+05-2.03441E+04-7.85073E+05-2.05972E-10 6.60111E-09
 -1        68-2.07048E+06-2.87114E+05-3.41623E+04-7.83234E+05 6.72799E-10-9.34961E-10
 -1        69-2.11299E+06-3.58530E+05-9.76647E+04-7.70900E+05 6.87578E-10-6.63204E-09
 -1        70-2.04018E+06-2.42380E+05-1.44990E+05-7.93629E+05-9.73159E-10 1.92813E-09
 -1        86-9.28372E+02 2.31384E+05 6.47814E+03-2.42808E+02 8.13770E-10-2.46186E-09
 -1        87 6.16262E+03 2.35345E+05 1.35137E+04 9.99747E+02 1.33878E-09 6.41030E-09
 -1        88-5.22762E+03 2.29276E+05 2.06898E+04-7.56969E+02 1.99816E-09 3.35967E-09
 -1        89 3.89599E+04 2.50644E+05 5.57984E+04 2.15399E+03 3.16959E-09-3.83706E-09
 -1        90-3.36200E+04 2.16095E+05 7.88145E+04-1.39677E+03 3.60887E-09-2.82955E-09
 -1       121-5.15021E+01-4.44215E+05 9.81045E+01 4.93529E+01 2.28987E-10-1.93450E-09
 -1       122 4.63721E+00-4.44028E+05 2.24152E+02-1.97680E+02-8.34843E-10 2.15459E-09
 -1       123-7.60136E+01-4.44239E+05 3.63880E+02 1.48116E+02 7.22935E-10 5.40149E-09
 -1       124 4.17950E+02-4.43774E+05 9.40639E+02-4.72366E+02-1.53398E-09 7.49833E-09
 -1       125-3.44778E+02-4.44473E+05 1.44367E+03 3.24035E+02 9.46102E-10 9.37689E-10
 -1       191-3.66701E+00 1.62322E+05 5.06934E+00 1.15425E-02 1.16936E-10-6.02995E-10
 -1       192-3.74941E+00 1.62309E+05 9.00612E+00 2.84502E-01 1.46800E-10-1.21054E-09
 -1       193-4.70593E+00 1.62322E+05 1.67355E+01-2.98141E-01 1.84196E-10-9.02219E-10
 -1       194-5.00675E+00 1.62310E+05 3.40690E+01 7.99529E-01 1.09087E-10 8.62201E-10
 -1       195-6.70284E+00 1.62321E+05 6.66283E+01-5.07002E-01 2.87752E-10-2.16414E-09
 -1       251 2.39269E+05-3.42832E+04 8.01110E+04 3.27423E+03-5.27507E-11-1.82263E-09
 -1       252 2.75419E+05 3.96749E+04 5.67789E+04-1.03869E+04-7.20775E-11 5.02041E-10
 -1       253 2.53010E+05-5.30798E+03 2.07391E+04 2.18543E+03-1.94063E-10-4.04270E-09
 -1       254 2.59267E+05 6.13542E+03 1.30893E+04-8.66983E+03 2.70632E-10 4.11319E-10
 -1       255 2.55366E+05-8.19910E+02 5.35816E+03 1.55739E+03 1.53989E-10 4.75211E-11
 -1       256 2.56465E+05 9.72156E+02 3.25001E+03-7.74612E+03-3.84453E-10 5.31429E-10
 -1       257 2.55789E+05-1.43155E+02 1.67031E+03 1.26169E+03-3.01647E-08-4.08653E-09
 -1       258 2.56035E+05 2.99528E+02 1.47216E+03-7.45129E+03-3.07360E-08 4.81091E-09
 -1       259 2.55788E+05-1.44034E+02 1.67854E+03 1.26257E+03-3.02599E-08-5.78171E-09
 -1       260 2.56470E+05 9.79729E+02 3.27403E+03-7.75046E+03 1.98611E-10 1.43177E-09
 -1       261 2.55361E+05-8.26660E+02 5.40107E+03 1.56086E+03 1.04973E-09 1.15938E-09
 -1       262 2.59295E+05 6.18601E+03 1.31969E+04-8.67817E+03-3.88354E-10 1.91267E-09
 -1       263 2.52987E+05-5.35186E+03 2.09106E+04 2.19029E+03-7.77902E-10 4.06453E-09
 -1       264 2.75578E+05 4.00033E+04 5.72480E+04-1.04002E+04-1.66415E-09 9.50968E-09
 -1       265 2.39133E+05-3.45666E+04 8.07750E+04 3.28266E+03-6.64727E-10 7.03949E-09
 -1       266-2.45654E+04-1.14868E+04 5.76375E+04-4.13191E+01-3.40151E-09-1.08349E-06
 -1       267 2.84782E+04 1.33881E+04 4.07373E+04 4.76739E+01-6.76482E-09-2.14655E-06
 -1       268-3.81887E+03-1.89612E+03 1.51419E+04-6.07449E+00-5.44242E-09-1.72097E-06
 -1       269 4.50896E+03 2.26926E+03 9.84197E+03 7.07586E+00-4.12115E-09-1.29517E-06
 -1       270-6.76801E+02-3.72857E+02 4.75086E+03-9.60242E-01-3.10979E-09-9.52274E-07
 -1       271-2.42065E+06-3.01444E+05-1.86436E+05-9.42353E+05 1.01682E-09-1.65164E-09
 -1       272-2.47212E+06-4.52883E+05-1.19863E+05-9.58433E+05-1.92244E-10-1.43700E-09
 -1       273-2.45610E+06-3.47489E+05-4.40373E+04-9.33645E+05 1.03228E-10-1.40062E-09
 -1       274-2.43074E+06-3.96423E+05-2.46550E+04-9.71844E+05 2.50793E-10 1.86992E-09
 -1       275-2.46157E+06-3.51652E+05-1.02431E+04-9.31508E+05 2.67028E-09 3.91901E-09
 -1       276-2.42430E+06-3.91532E+05-5.44635E+03-9.75290E+05-5.85032E-10 3.97165E-09
 -1       277-2.46280E+06-3.51548E+05-2.66332E+03-9.30674E+05-5.17957E-10-3.83261E-09
 -1       278-2.42313E+06-3.91507E+05-1.93727E+03-9.76276E+05 1.26579E-09 3.18732E-09
 -1       279-2.46286E+06-3.51540E+05-2.07866E+03-9.30638E+05-7.46695E-10 3.79487E-10
 -1       280-2.42397E+06-3.91364E+05-3.80764E+03-9.75466E+05-1.07775E-09-3.52452E-09
 -1       281-2.46186E+06-3.51797E+05-6.96778E+03-9.31387E+05-4.39286E-10 8.52651E-10
 -1       282-2.42877E+06-3.94116E+05-1.66314E+04-9.72452E+05-2.87400E-10 2.13140E-09
 -1       283-2.45778E+06-3.49415E+05-2.96993E+04-9.33260E+05 9.00400E-11-3.49610E-09
 -1       284-2.45746E+06-4.31179E+05-8.07215E+04-9.62205E+05 3.80624E-10-2.75759E-09
 -1       285-2.43331E+06-3.19052E+05-1.25656E+05-9.39792E+05 8.33097E-10-5.40604E-09
 -1       301 9.05853E+03-5.19393E+03 7.08237E+04-1.74113E+04-5.09317E-10-4.59863E-11
 -1       302 9.75384E+03 1.27763E+04 5.14579E+04-2.56278E+04 9.48376E-10 1.15506E-10
 -1       303 4.35488E+02 1.12289E+03 4.78549E+04-1.74514E+04-6.21185E-10-4.55179E-09
 -1       304 1.88493E+04 2.11663E+04 8.10266E+04-2.55531E+04 7.23958E-10-2.12367E-09
 -1       305 1.86908E+04-1.35350E+04 1.36258E+05-1.74351E+04-4.87489E-10 1.54841E-09
 -1       306-2.82239E+06-3.23193E+05-2.21451E+05-1.10542E+06 1.59707E-09-3.20142E-10
 -1       307-2.94291E+06-5.08189E+05-1.51604E+05-1.06036E+06 7.49878E-10 1.72804E-10
 -1       308-2.87339E+06-3.92739E+05-5.20766E+04-1.08395E+06 9.00400E-10-1.12414E-09
 -1       309-2.87899E+06-4.32230E+05-3.17136E+04-1.09100E+06-2.70893E-09-3.68482E-09
 -1       310-2.88602E+06-3.98118E+05-1.22268E+04-1.07511E+06-1.89488E-09 2.16824E-09
 -1       311-2.86229E+06-4.28274E+05-7.11130E+03-1.10403E+06 2.43264E-09 1.03637E-09
 -1       312-2.89014E+06-3.96468E+05-3.45492E+03-1.07104E+06-3.45347E-09-3.65617E-09
 -1       313-2.85873E+06-4.29346E+05-3.11346E+03-1.10749E+06-1.58334E-09 1.93268E-11
 -1       314-2.88961E+06-3.96994E+05-3.71138E+03-1.07168E+06-7.28505E-10-6.12624E-09
 -1       315-2.86433E+06-4.26543E+05-7.83995E+03-1.10165E+06-2.92869E-09-2.03499E-09
 -1       316-2.88447E+06-3.99348E+05-1.36136E+04-1.07682E+06-5.95207E-10 2.00998E-09
 -1       317-2.88331E+06-4.30737E+05-3.53656E+04-1.08690E+06-2.09934E-09 4.75802E-09
 -1       318-2.87060E+06-3.93037E+05-5.80730E+04-1.08632E+06-3.27418E-09-2.28101E-09
 -1       319-2.95349E+06-5.16775E+05-1.69153E+05-1.05429E+06-5.08408E-10-5.23869E-10
 -1       320-2.81465E+06-3.14430E+05-2.46983E+05-1.10910E+06-8.18545E-09 2.76486E-09
 -1       336 3.50397E+02-4.80892E+05-2.55395E+03 3.34996E+02-3.94789E-09-3.68073E-09
 -1       337-9.19302E+02-4.81605E+05-2.79517E+03-9.06288E+02-7.54846E-09-6.03904E-09
 -1       338 2.30178E+02-4.80967E+05-3.51250E+03 5.69879E+02-5.44071E-09-4.50018E-09
 -1       339-3.63008E+03-4.83265E+05-7.68990E+03-1.37190E+03-1.02265E-08 5.51745E-09
 -1       340 2.47254E+03-4.79250E+05-1.18453E+04 7.97974E+02-6.73981E-09 2.49111E-09
 -1       406 8.90374E+00 1.62315E+05 2.72234E+02 3.84706E-01 3.67066E-10 1.31422E-09
 -1       407 9.33121E+01 1.62365E+05 5.78642E+02-6.88946E+00 9.59233E-11-1.50885E-09
 -1       408 2.96228E+02 1.62273E+05 1.15567E+03 6.58157E+00 4.56907E-10 1.07007E-08
 -1       409 1.24813E+03 1.62735E+05 2.60186E+03-6.01628E+01 2.83080E-11 1.85210E-08
 -1       410 3.58899E+03 1.61945E+05 5.31162E+03 5.50356E+01 4.96584E-10 8.30869E-09
 -1       521-4.91495E+06-5.68546E+05-3.68116E+05-1.91314E+06 3.74712E-09-7.33417E-09
 -1       522-5.09563E+06-8.82827E+05-2.50160E+05-1.85973E+06 1.16415E-10-7.13771E-09
 -1       523-5.00045E+06-6.78912E+05-8.65506E+04-1.87637E+06-1.02682E-09 1.53159E-09
 -1       524-4.98993E+06-7.60850E+05-5.21660E+04-1.91093E+06 1.30967E-10 1.19053E-09
 -1       525-5.02000E+06-6.87673E+05-2.02085E+04-1.86292E+06-8.53902E-10-9.90440E-10
 -1       526-4.96714E+06-7.50808E+05-1.16449E+04-1.92711E+06 1.48616E-09-3.05033E-09
 -1       527-5.02330E+06-6.88403E+05-5.59116E+03-1.86045E+06 1.94939E-09 3.86660E-09
 -1       528-4.96951E+06-7.43918E+05-4.76390E+03-1.92240E+06 2.69665E-10-1.61151E-10
 -1       529-5.01748E+06-6.94599E+05-5.68011E+03-1.86755E+06-1.49157E-10-6.50743E-10
 -1       530-4.98800E+06-7.28818E+05-1.14330E+04-1.90130E+06-1.55501E-09 2.37924E-09
 -1       531-5.00451E+06-7.03772E+05-2.02846E+04-1.88131E+06-1.47793E-12 2.89765E-09
 -1       532-5.02474E+06-7.25247E+05-5.18443E+04-1.87003E+06-1.42163E-09-6.00812E-09
 -1       533-4.98087E+06-6.98592E+05-8.61573E+04-1.89868E+06 1.57979E-09-4.86762E-09
 -1       534-5.13122E+06-8.46848E+05-2.49175E+05-1.82018E+06 3.35149E-09 4.82396E-09
 -1       535-4.89922E+06-5.84630E+05-3.66311E+05-1.93060E+06-6.14091E-09 6.57747E-09
 -1       536 1.06954E+04-1.42246E+04 3.27654E+04 4.48258E+02-9.41839E-10 5.36966E-09
 -1       537 2.58407E+04 1.64579E+04 2.33409E+04-1.43051E+03-4.38823E-09-2.89265E-09
 -1       538 1.63347E+04-2.22816E+03 8.45658E+03 3.55764E+02 9.91918E-11 3.24690E-10
 -1       539 1.91920E+04 2.57229E+03 5.38957E+03-1.29048E+03 2.30798E-09 9.01673E-09
 -1       540 1.73367E+04-3.46368E+02 2.14031E+03 3.08231E+02 6.58410E-10 4.36205E-09
 -1       541 1.79729E+04 3.97088E+02 1.27356E+03-1.21216E+03-1.02066E-10 1.49609E-09
 -1       542 1.75498E+04-5.17664E+01 5.22809E+02 2.77433E+02-1.15454E-09 3.52208E-09
 -1       543 1.76964E+04 5.33354E+01 2.75224E+02-1.16433E+03-2.60002E-10-2.41819E-10
 -1       544 1.76109E+04-1.15756E+00 7.43237E+01 2.60395E+02-2.33047E-10-3.22881E-09
 -1       545 1.76054E+04-3.63731E+01-6.73708E+01-1.14338E+03-2.73925E-10-4.31002E-09
 -1       546 1.76399E+04 3.86054E+01-2.08538E+02 2.56484E+02 2.74414E-10 1.88365E-09
 -1       547 1.74908E+04-2.87378E+02-5.78269E+02-1.14852E+03-1.00565E-09-7.78108E-10
 -1       548 1.77256E+04 2.49494E+02-9.48583E+02 2.65537E+02-1.27961E-09-3.13918E-09
 -1       549 1.68348E+04-1.83794E+03-2.58720E+03-1.17929E+03-8.20631E-10-1.08699E-09
 -1       550 1.82975E+04 1.58687E+03-3.69707E+03 2.87251E+02 2.78320E-11-2.73212E-09
 -1       551 4.12269E+03-2.51489E+05 1.44526E+04-4.31688E+05-1.91576E-08-2.54659E-10
 -1       552 8.34543E+03-2.51198E+05 1.86750E+04-6.14245E+05-1.44501E-08 6.53381E-09
 -1       553 5.27615E+03-2.54615E+05 2.91382E+04-4.30315E+05-2.27883E-08 4.63115E-09
 -1       554 2.24860E+04-2.41505E+05 6.18936E+04-6.14834E+05-1.49012E-08 6.55359E-09
 -1       555 2.32764E+04-2.66511E+05 1.11322E+05-4.30904E+05-2.32976E-08-1.26238E-09
 -1       556 3.43128E+04-8.07415E+04 2.80849E+04-1.08373E+05-6.40284E-09-1.11395E-08
 -1       557 6.70850E+04-1.08324E+05 1.46876E+04-1.35280E+05-3.16504E-09-2.86650E-09
 -1       558 3.47335E+04-8.47894E+04 6.03099E+03-1.04861E+05-3.63798E-09-5.07498E-10
 -1       559 6.32519E+04-1.12354E+05 3.03063E+03-1.36822E+05 4.19095E-09-1.70530E-09
 -1       560 3.41702E+04-8.43975E+04 1.30109E+03-1.05178E+05 6.07542E-10-2.68301E-10
 -1       561 6.22275E+04-1.12181E+05 6.69730E+02-1.37460E+05-2.32831E-10-8.80846E-10
 -1       562 3.36866E+04-8.40588E+04 2.74948E+02-1.05531E+05-8.62201E-10-7.64203E-10
 -1       563 6.16442E+04-1.11933E+05 1.56452E+02-1.37832E+05 4.63842E-10-1.77215E-09
 -1       564 3.33866E+04-8.38607E+04 5.80756E+01-1.05747E+05 3.53975E-09 5.24960E-09
 -1       565 6.13473E+04-1.11808E+05 2.60977E+01-1.38017E+05 1.12232E-09 2.84854E-09
 -1       566 3.32867E+04-8.37914E+04-2.25121E+01-1.05821E+05-3.41061E-10-1.50067E-10
 -1       567 6.13084E+04-1.11789E+05-8.61985E+01-1.38000E+05 4.32760E-09 3.23780E-09
 -1       568 3.34084E+04-8.38731E+04-2.19699E+02-1.05774E+05 1.82990E-09 9.32414E-09
 -1       569 6.11061E+04-1.11677E+05-5.18156E+02-1.37425E+05-1.61526E-09 3.17232E-09
 -1       570 3.40986E+04-8.45552E+04-1.06204E+03-1.05846E+05 1.63709E-09 4.22006E-10
 -1       571 1.17589E+05 4.25496E+03 6.30345E+03-2.94647E+04 1.23919E-09 3.11320E-09
 -1       572 1.18528E+05 1.47959E+03 3.08806E+03-3.22978E+04 5.00222E-11-2.85672E-09
 -1       573 1.17969E+05 3.52222E+02 1.37182E+03-2.93875E+04-2.04636E-11 3.47336E-09
 -1       574 1.18082E+05 1.13406E+02 6.87167E+02-3.23844E+04-1.79170E-10 1.34446E-09
 -1       575 1.18014E+05 1.43357E+01 3.23817E+02-2.93772E+04 1.38607E-09 4.60273E-09
 -1       576 1.18022E+05 2.56330E+00 1.64725E+02-3.23960E+04 5.25546E-10 4.26485E-09
 -1       577 1.18020E+05-3.79737E+00 8.10650E+01-2.93759E+04 9.47142E-09 4.66048E-09
 -1       578 1.18015E+05-2.45431E+00 4.40369E+01-3.23973E+04 1.90412E-08 1.40972E-09
 -1       579 1.18025E+05-3.81892E+00 2.67721E+01-2.93759E+04 8.94647E-09-2.44654E-09
 -1       580 1.18020E+05-4.17758E+00 2.46402E+01-3.23955E+04-6.94854E-10-1.12686E-09
 -1       581 1.18033E+05-5.74770E+00 3.32449E+01-2.93777E+04 4.21551E-10-2.12549E-09
 -1       582 1.18037E+05 1.01255E-01 6.29707E+01-3.23779E+04 1.06706E-09-3.17732E-09
 -1       583 1.18041E+05 1.72466E+01 1.21012E+02-2.93934E+04 9.80435E-10-2.13333E-09
 -1       584 1.18091E+05 1.12546E+02 2.70978E+02-3.22469E+04-1.70530E-09-4.37399E-09
 -1       585 1.18022E+05 3.52735E+02 5.50788E+02-2.95088E+04 2.98769E-10-1.93631E-09
 -1       586-1.47373E+03 3.82686E+04-1.94892E+03-1.00170E+05 3.42425E-10-1.30592E-09
 -1       587-3.30094E+02 3.80085E+04-2.45882E+02-1.10227E+05 5.69344E-10 2.85547E-09
 -1       588 3.87259E+02 3.80605E+04 1.31843E+03-1.00108E+05 3.46517E-10-1.07034E-08
 -1       589 1.97759E+03 3.87828E+04 3.87852E+03-1.10137E+05 5.26597E-10-1.62709E-08
 -1       590 5.69975E+03 3.75696E+04 8.32072E+03-1.00260E+05 2.64663E-10-1.04174E-08
 -1       591-2.56023E+04-7.37170E+03-8.55234E+03-1.33263E+04 5.65336E-10-2.26464E-09
 -1       592-2.63927E+04-9.48270E+03-4.63230E+03-1.55687E+04-1.83212E-09-7.11060E-09
 -1       593-2.64669E+04-6.74148E+03-1.92846E+03-1.39435E+04 5.47891E-09-2.95609E-09
 -1       594-2.52004E+04-8.23994E+03-9.61832E+02-1.56279E+04 9.60006E-09-1.96701E-09
 -1       595-2.65330E+04-6.73873E+03-4.42027E+02-1.39718E+04 3.73245E-09-8.85088E-10
 -1       596-2.51195E+04-8.18305E+03-2.25337E+02-1.56194E+04 6.01744E-10 3.43601E-09
 -1       597-2.65413E+04-6.74424E+03-1.24053E+02-1.39729E+04 1.12433E-09 2.17796E-10
 -1       598-2.51119E+04-8.18086E+03-1.02198E+02-1.56171E+04 1.22503E-09-4.81236E-09
 -1       599-2.65408E+04-6.74419E+03-1.33605E+02-1.39727E+04 9.79867E-10 1.03086E-09
 -1       600-2.51207E+04-8.18372E+03-2.50688E+02-1.56194E+04 1.12868E-09 3.78529E-09
 -1       601-2.65305E+04-6.73806E+03-4.95779E+02-1.39711E+04 3.95448E-09 2.41062E-09
 -1       602-2.52118E+04-8.24750E+03-1.08129E+03-1.56282E+04 4.44061E-10-6.66091E-10
 -1       603-2.64556E+04-6.74204E+03-2.16870E+03-1.39396E+04-2.22133E-09-1.72099E-09
 -1       604-2.65572E+04-9.64032E+03-5.20976E+03-1.55554E+04-1.21190E-10-2.03488E-09
 -1       605-2.54777E+04-7.45486E+03-9.61828E+03-1.32503E+04 7.29415E-10 2.51293E-09
 -1       606 1.68940E+04-5.65955E+03-1.01962E+04 1.65380E+04-2.26009E-09-3.05135E-09
 -1       607 1.51480E+04-1.82517E+03-5.07735E+03 1.85648E+04-1.96451E-10-3.13366E-09
 -1       608 1.61435E+04-3.06590E+02-2.27321E+03 1.64060E+04 1.48339E-09-1.12129E-09
 -1       609 1.59479E+04-8.11928E+01-1.14834E+03 1.87107E+04-1.21418E-09 3.36877E-09
 -1       610 1.60569E+04 1.33449E+01-5.48172E+02 1.63913E+04-3.26509E-09 2.04841E-09
 -1       611 1.60215E+04 1.83667E+01-2.76624E+02 1.87267E+04-6.67524E-09-2.80352E-10
 -1       612 1.60366E+04 1.98046E+01-1.32164E+02 1.63898E+04-2.58387E-09 6.92125E-10
 -1       613 1.60244E+04 2.09574E+01-6.03811E+01 1.87286E+04-2.93039E-09 1.48384E-09
 -1       614 1.60266E+04 1.81706E+01-1.68430E+01 1.63893E+04-6.55746E-10 6.02313E-10
 -1       615 1.60208E+04 2.23145E+01 1.85406E+01 1.87290E+04 3.24235E-09 2.22599E-10
 -1       616 1.60190E+04 1.99889E+01 6.18914E+01 1.63895E+04-8.60382E-10 8.50150E-10
 -1       617 1.60269E+04 3.65456E+01 1.43521E+02 1.87287E+04-5.36943E-10 1.22986E-09
 -1       618 1.60053E+04 6.21610E+01 2.90222E+02 1.63895E+04-8.93351E-10 3.22325E-09
 -1       619 1.61285E+04 2.61692E+02 6.52290E+02 1.87283E+04-5.67525E-10 1.30603E-09
 -1       620 1.59083E+04 7.51429E+02 1.31128E+03 1.63891E+04 1.10924E-09 6.59384E-12
 -1       621 2.07487E+02 1.28301E+05 1.78820E+03 3.94308E+03-2.64640E-10-2.78601E-09
 -1       622 2.36760E+02 1.28744E+05 1.51277E+03 5.75627E+03-2.44711E-10-8.24946E-09
 -1       623 1.01974E+01 1.28429E+05 1.73329E+03 3.92449E+03-1.36254E-10-4.58454E-09
 -1       624 7.82923E+02 1.29245E+05 3.28585E+03 5.77449E+03-9.21148E-11-6.75499E-09
 -1       625 7.85743E+02 1.27797E+05 5.70966E+03 3.92503E+03-1.45519E-10-3.21913E-09
 -1       626 1.05625E+05 2.93564E+04 2.10308E+03 5.72266E+04-8.77571E-09 4.17185E-09
 -1       627 1.04168E+05 3.04321E+04 1.01306E+03 5.95490E+04-1.26302E-08 1.42663E-08
 -1       628 1.05709E+05 2.83590E+04 4.28154E+02 5.75443E+04-3.09410E-09 1.11186E-08
 -1       629 1.03867E+05 3.01929E+04 2.09706E+02 5.96912E+04 4.72664E-09-9.42151E-10
 -1       630 1.05717E+05 2.83101E+04 9.71103E+01 5.75544E+04 1.52795E-10-2.00953E-09
 -1       631 1.03833E+05 3.01866E+04 5.21462E+01 5.96947E+04 1.50999E-09 4.79803E-09
 -1       632 1.05714E+05 2.83126E+04 3.45160E+01 5.75510E+04-4.17276E-09-2.48571E-09
 -1       633 1.03827E+05 3.01890E+04 3.85250E+01 5.96921E+04-2.19688E-09 8.16252E-09
 -1       634 1.05709E+05 2.83124E+04 6.24617E+01 5.75491E+04 1.76942E-09 2.06512E-09
 -1       635 1.03830E+05 3.01896E+04 1.26688E+02 5.96924E+04 3.08364E-09-3.34603E-09
 -1       636 1.05703E+05 2.83117E+04 2.55974E+02 5.75474E+04 1.42677E-11-1.80626E-09
 -1       637 1.03882E+05 3.02305E+04 5.62638E+02 5.96897E+04-7.70688E-10-6.72321E-09
 -1       638 1.05680E+05 2.84375E+04 1.15647E+03 5.74892E+04 6.57622E-10-5.51609E-10
 -1       639 1.04486E+05 3.10770E+04 2.73593E+03 5.95092E+04-1.49709E-09-2.65584E-09
 -1       640 1.05597E+05 3.09569E+04 5.67799E+03 5.64193E+04 4.50086E-09 8.46512E-09
 -1       656 2.86669E+04-7.25493E+05-6.92166E+04-5.06915E+02-5.12955E-10-1.04025E-09
 -1       657-3.78773E+04-7.56756E+05-5.72400E+04 4.76539E+03-6.54836E-11 6.27702E-09
 -1       658 9.08727E+03-7.34416E+05-3.51250E+04-9.49362E+02-3.30147E-10-2.22774E-09
 -1       659-4.06006E+04-7.58038E+05-6.08166E+04 5.05599E+03-2.63299E-10-2.42435E-10
 -1       660 3.13828E+04-7.24213E+05-7.53750E+04-7.97506E+02-3.41970E-10-1.22043E-09
 -1       661 1.03596E+05 1.12548E+04 9.92109E+03 4.04430E+04 5.72072E-10 3.82124E-09
 -1       662 1.08731E+05 1.90682E+04 6.68512E+03 3.87539E+04 1.60364E-09-9.76684E-10
 -1       663 1.05537E+05 1.44448E+04 2.33852E+03 3.98859E+04-2.01891E-09-1.41210E-09
 -1       664 1.06488E+05 1.53315E+04 1.39803E+03 3.94284E+04-1.41530E-09-4.57494E-09
 -1       665 1.05825E+05 1.48867E+04 5.51525E+02 3.98080E+04-3.57267E-09-4.47685E-10
 -1       666 1.06152E+05 1.48210E+04 3.21518E+02 3.95261E+04-5.25628E-09 6.22758E-09
 -1       667 1.05871E+05 1.49421E+04 1.69534E+02 3.97932E+04-2.19926E-09 9.33316E-10
 -1       668 1.06106E+05 1.47740E+04 1.69672E+02 3.95458E+04-1.28550E-09-1.69213E-09
 -1       669 1.05871E+05 1.49324E+04 2.27353E+02 3.97887E+04 1.26474E-09 4.44996E-09
 -1       670 1.06168E+05 1.48893E+04 4.92682E+02 3.95397E+04 3.13132E-09-4.96192E-09
 -1       671 1.05809E+05 1.48292E+04 8.74127E+02 3.97983E+04-6.17586E-10-1.97758E-10
 -1       672 1.06682E+05 1.57348E+04 2.23581E+03 3.94112E+04-2.24884E-09-2.30091E-09
 -1       673 1.05360E+05 1.41083E+04 3.74668E+03 3.99092E+04-5.18639E-10-1.04660E-09
 -1       674 1.10254E+05 2.17493E+04 1.07151E+04 3.83576E+04-1.71514E-09 5.72561E-09
 -1       675 1.02261E+05 8.98284E+03 1.59041E+04 4.07885E+04 1.90516E-09 2.27101E-09
 -1       676 1.16990E+01-1.39497E+05-5.43409E+02 1.77539E+01-1.60773E-09-2.79599E-09
 -1       677-1.44239E+02-1.39628E+05-9.94462E+02-3.55020E+01-3.19042E-09-3.05010E-09
 -1       678 9.63077E+01-1.39403E+05-1.75793E+03 1.77359E+01 2.50225E-10 1.81394E-09
 -1       679-1.75813E+03-1.40689E+05-4.17578E+03-3.54222E+01-1.68575E-09 2.31921E-09
 -1       680 1.04918E+03-1.38436E+05-6.73002E+03 1.74700E+01 1.42381E-09-5.65826E-10
 -1       771-1.50110E+06-2.59633E+05-3.62004E+04-6.19761E+05-5.66070E-09-4.46016E-09
 -1       772-1.49214E+06-2.79427E+05-1.94672E+04-6.41787E+05-4.46380E-09 1.43882E-09
 -1       773-1.50582E+06-2.55985E+05-8.32609E+03-6.21794E+05-3.44880E-09 2.47928E-09
 -1       774-1.48683E+06-2.75029E+05-4.07438E+03-6.43623E+05 3.89991E-09-6.43013E-10
 -1       775-1.50673E+06-2.55440E+05-2.01152E+03-6.21907E+05-2.57933E-09 7.03949E-10
 -1       776-1.48664E+06-2.74998E+05-9.40483E+02-6.44477E+05-2.03727E-09 1.33878E-09
 -1       777-1.50731E+06-2.55040E+05-5.53324E+02-6.21947E+05 1.87720E-09 2.26919E-09
 -1       778-1.48676E+06-2.75114E+05-2.56099E+02-6.45179E+05 6.25732E-10 2.19688E-09
 -1       779-1.50775E+06-2.54697E+05-2.37751E+02-6.21981E+05-2.62298E-09-1.41699E-09
 -1       780-1.48690E+06-2.75219E+05-2.02733E+02-6.45748E+05-1.38243E-09 6.34373E-11
 -1       781-1.50808E+06-2.54421E+05-3.58828E+02-6.22003E+05-5.31327E-09-9.04947E-10
 -1       782-1.48706E+06-2.75331E+05-6.75766E+02-6.46168E+05-6.62385E-09-2.22440E-09
 -1       783-1.50826E+06-2.54243E+05-1.35055E+03-6.22003E+05 7.42148E-10 8.84597E-10
 -1       784-1.48794E+06-2.76242E+05-3.20872E+03-6.46387E+05-3.03226E-09-2.86718E-10
 -1       785-1.50779E+06-2.54578E+05-5.93073E+03-6.21577E+05-6.26278E-09 6.07542E-10
 -1       786 1.09973E+05-5.84413E+03 1.35198E+04 3.17507E+00 3.08548E-08 1.95723E-09
 -1       787 1.15831E+05 6.76564E+03 9.56516E+03-7.96085E+00 6.10680E-08 5.98072E-09
 -1       788 1.12233E+05-9.16130E+02 3.49926E+03 3.84121E+00 1.12398E-07 3.60842E-10
 -1       789 1.13198E+05 1.06002E+03 2.19865E+03-1.00710E+01 1.64380E-07-2.71942E-09
 -1       790 1.12606E+05-1.43116E+02 8.94675E+02 5.28526E+00 2.66716E-07-5.28422E-09
 -1       791 1.12763E+05 1.66301E+02 5.25424E+02-1.39813E+01 3.69957E-07 5.64063E-09
 -1       792 1.12669E+05-2.30842E+01 2.40060E+02 7.75159E+00 5.85312E-07-4.37920E-09
 -1       793 1.12693E+05 3.25470E+01 1.57844E+02-2.03895E+01 7.99469E-07 7.83023E-09
 -1       794 1.12677E+05-9.45086E+00 1.17742E+02 1.16936E+01 4.00102E-07-3.79418E-09
 -1       795 1.12700E+05 4.90754E+01 1.71501E+02-3.04681E+01 2.13202E-09 3.53772E-09
 -1       796 1.12661E+05-3.96003E+01 2.57617E+02 1.78304E+01 1.95472E-10-1.98386E-09
 -1       797 1.12817E+05 2.90368E+02 6.08018E+02-4.60595E+01-2.84587E-10-3.01156E-09
 -1       798 1.12560E+05-2.50565E+02 9.59952E+02 2.72852E+01-1.50247E-10 5.31998E-10
 -1       799 1.13537E+05 1.85006E+03 2.61713E+03-7.01716E+01-6.10952E-10 1.94254E-09
 -1       800 1.11941E+05-1.59803E+03 3.69708E+03 4.19427E+01-2.25580E-11 1.64073E-09
 -1       801-8.75525E+03 7.51802E+04 1.60176E+04 1.13135E+04 6.26829E-09-4.33499E-09
 -1       802 1.97807E+04 1.22907E+05 3.65706E+04-4.76642E+04 1.68245E-08-1.23521E-10
 -1       803-1.06216E+04 9.16801E+04 4.37792E+04 9.84141E+03 1.32331E-08 1.14838E-08
 -1       804 8.23301E+04 1.56014E+05 1.18499E+05-4.83755E+04 1.57361E-08 1.19028E-08
 -1       805-7.13189E+04 4.22115E+04 1.54572E+05 1.20237E+04 5.58066E-09 1.54529E-08
 -1       806-1.28141E+05-2.75649E+04-1.09364E+04-5.34783E+04 8.65157E-10-2.08183E-09
 -1       807-1.28773E+05-2.60100E+04-5.37279E+03-5.63910E+04 1.20272E-09-1.66102E-09
 -1       808-1.28452E+05-2.36132E+04-2.27919E+03-5.53329E+04 1.37561E-11 4.07685E-09
 -1       809-1.27626E+05-2.45188E+04-1.11424E+03-5.65468E+04-6.83940E-10 8.01282E-09
 -1       810-1.28501E+05-2.34735E+04-5.10183E+02-5.54149E+04 8.28550E-10 3.75621E-10
 -1       811-1.27539E+05-2.44598E+04-2.53010E+02-5.65342E+04-9.64064E-11-3.98973E-09
 -1       812-1.28510E+05-2.34836E+04-1.26181E+02-5.54149E+04-6.34827E-10 1.49305E-09
 -1       813-1.27528E+05-2.44612E+04-7.95544E+01-5.65280E+04-1.13425E-09 1.28500E-09
 -1       814-1.28509E+05-2.34870E+04-7.44238E+01-5.54135E+04-3.16618E-09-9.69089E-09
 -1       815-1.27530E+05-2.44623E+04-1.16488E+02-5.65268E+04-3.37991E-09-1.13791E-08
 -1       816-1.28502E+05-2.34856E+04-2.18108E+02-5.54123E+04 1.76669E-09 7.82870E-09
 -1       817-1.27568E+05-2.44830E+04-4.67824E+02-5.65236E+04 1.44314E-09 2.67516E-09
 -1       818-1.28476E+05-2.35507E+04-9.53287E+02-5.53817E+04 1.20690E-09-5.72754E-10
 -1       819-1.28095E+05-2.50549E+04-2.24397E+03-5.63969E+04-9.75660E-10 1.53705E-10
 -1       820-1.28295E+05-2.52473E+04-4.56667E+03-5.46591E+04 5.54792E-11 1.98042E-09
 -1       821-1.65797E+05 9.20790E+03-2.12970E+04 7.88284E+00-5.94490E-10-1.52977E-09
 -1       822-1.75025E+05-1.06597E+04-1.50700E+04-1.86393E+02-1.31153E-09 2.82034E-09
 -1       823-1.69358E+05 1.44346E+03-5.51603E+03-2.48027E+01 8.99306E-10 1.88538E-09
 -1       824-1.70875E+05-1.67076E+03-3.47124E+03-1.09537E+02-2.62778E-10-2.58569E-09
 -1       825-1.69945E+05 2.26003E+02-1.42600E+03-6.89754E+01-2.53055E-09-1.10015E-09
 -1       826-1.70192E+05-2.66562E+02-8.62461E+02-2.14208E+01-4.98446E-09 4.56586E-09
 -1       827-1.70041E+05 4.02880E+01-4.44931E+02-1.12921E+02-2.66249E-09 1.64576E-09
 -1       828-1.70098E+05-8.14498E+01-3.94920E+02 5.49420E+01-3.60963E-09 1.61951E-09
 -1       829-1.70040E+05 4.10403E+01-4.51436E+02-1.45340E+02-1.23559E-10 6.21895E-09
 -1       830-1.70199E+05-2.72916E+02-8.82305E+02 9.99359E+01 1.71241E-09 4.16478E-09
 -1       831-1.69941E+05 2.31652E+02-1.46042E+03-1.57915E+02-1.52992E-09-2.48775E-09
 -1       832-1.70899E+05-1.71266E+03-3.55863E+03 1.02280E+02-5.88678E-10-3.61740E-09
 -1       833-1.69339E+05 1.47974E+03-5.65447E+03-1.47683E+02-7.88436E-10-8.96762E-10
 -1       834-1.75151E+05-1.09279E+04-1.54495E+04 6.27043E+01-4.97806E-10-5.57066E-10
 -1       835-1.65690E+05 9.43960E+03-2.18334E+04-1.18336E+02 3.47703E-09-1.13778E-09
 -1       836-5.52927E+02 1.57373E+05 9.47121E+03-1.39362E+04 1.16688E-09 5.71845E-09
 -1       837 2.08158E+03 1.60308E+05 8.08131E+03-2.80067E+04 1.70144E-09 1.95303E-09
 -1       838-2.05144E+02 1.58193E+05 8.32809E+03-1.38879E+04 1.43905E-09 1.34253E-09
 -1       839 5.33949E+03 1.62742E+05 1.58473E+04-2.80243E+04 1.97542E-09 3.23450E-09
 -1       840-1.60875E+03 1.54925E+05 2.53084E+04-1.39179E+04 1.48793E-09-2.40038E-09
 -1       856-5.24626E+04 4.45845E+03-1.17481E+04-2.51861E+02-2.26498E-09-3.62797E-09
 -1       857-5.73167E+04-5.22983E+03-8.08868E+03 2.69036E+03-1.23903E-09 1.06536E-09
 -1       858-5.43804E+04 6.24902E+02-3.04894E+03-2.60438E+02-1.90647E-09 3.98325E-09
 -1       859-5.51134E+04-7.27676E+02-1.84169E+03 2.70382E+03 1.75480E-09 2.09684E-09
 -1       860-5.46673E+04 8.70492E+01-7.74410E+02-2.65389E+02 1.24969E-09-1.65599E-09
 -1       861-5.47824E+04-9.75414E+01-4.31587E+02 2.71053E+03-3.18563E-09-3.57232E-09
 -1       862-5.47120E+04 1.16764E+01-1.90501E+02-2.67154E+02 3.66594E-09-2.23625E-09
 -1       863-5.47297E+04-8.74818E+00-9.45821E+01 2.71132E+03 6.70947E-09-3.55710E-09
 -1       864-5.47201E+04 1.72184E-01-3.04327E+01-2.66180E+02 3.01517E-09-5.06090E-09
 -1       865-5.47151E+04 1.13395E+01 1.55796E+01 2.70630E+03 3.10040E-09-4.49733E-09
 -1       866-5.47260E+04-8.48655E+00 6.07452E+01-2.62141E+02-5.97993E-10-1.37416E-09
 -1       867-5.46800E+04 7.18152E+01 1.67779E+02 2.69538E+03-6.95607E-10-6.14637E-10
 -1       868-5.47540E+04-5.96085E+01 2.83863E+02-2.55260E+02 2.34081E-09 3.22099E-09
 -1       869-5.44683E+04 4.95719E+02 7.61657E+02 2.67668E+03-1.21751E-09-7.84439E-12
 -1       870-5.49359E+04-4.21441E+02 1.10550E+03-2.43436E+02 3.13491E-10-1.91824E-09
 -1       871-2.41015E+03-4.99580E+03-7.86654E+03 5.15530E+04 1.40517E-09-1.78807E-09
 -1       872-1.04486E+03-6.75165E+03-3.20248E+03 6.68336E+04 3.12957E-09 9.58607E-10
 -1       873-1.88443E+01-5.92136E+03 4.71695E+02 5.14385E+04 2.12265E-09 3.65606E-09
 -1       874 1.22227E+03-4.77306E+03 4.49516E+03 6.68580E+04 2.71791E-09 5.37193E-09
 -1       875 2.89188E+03-6.99443E+03 9.96152E+03 5.15321E+04 2.37878E-09 2.16596E-09
 -1       876 1.29333E+05 2.22870E+04 6.94000E+03 5.24707E+04-1.96792E-09-3.35831E-09
 -1       877 1.29726E+05 2.38137E+04 3.70602E+03 5.45281E+04-1.43712E-09 8.98012E-10
 -1       878 1.29983E+05 2.15180E+04 1.55272E+03 5.30403E+04-5.62295E-10-5.12318E-09
 -1       879 1.28782E+05 2.28738E+04 7.73408E+02 5.45787E+04-5.55133E-10-3.35967E-09
 -1       880 1.30031E+05 2.15088E+04 3.60095E+02 5.30635E+04 6.80984E-10 1.93501E-09
 -1       881 1.28720E+05 2.28341E+04 1.91709E+02 5.45699E+04 3.61621E-09 3.84826E-09
 -1       882 1.30036E+05 2.15140E+04 1.21718E+02 5.30642E+04 4.88239E-09 3.17749E-09
 -1       883 1.28715E+05 2.28324E+04 1.29307E+02 5.45676E+04 1.10390E-10 6.36840E-09
 -1       884 1.30034E+05 2.15124E+04 2.04337E+02 5.30642E+04-2.37137E-09-2.58680E-09
 -1       885 1.28731E+05 2.28353E+04 4.09988E+02 5.45729E+04 3.38771E-09 5.61124E-09
 -1       886 1.30018E+05 2.15004E+04 8.25954E+02 5.30626E+04 1.71917E-09 2.16994E-09
 -1       887 1.28877E+05 2.29304E+04 1.80410E+03 5.45936E+04-2.49960E-09-2.58490E-09
 -1       888 1.29904E+05 2.15208E+04 3.63538E+03 5.30049E+04-6.58247E-11 5.55906E-09
 -1       889 1.31043E+05 2.51794E+04 8.68496E+03 5.45241E+04 1.03867E-09 9.67702E-09
 -1       890 1.28421E+05 2.32810E+04 1.62659E+04 5.16191E+04 3.88172E-09-8.29459E-10
 -1       891-7.80367E+01-7.35949E+04-8.65345E+02 1.40282E+04 9.36780E-11 3.02634E-09
 -1       892-1.35960E+02-7.38046E+04-9.43003E+02 2.12322E+04-2.22076E-09 6.48015E-10
 -1       893-1.88202E+01-7.36241E+04-1.34871E+03 1.40307E+04 1.86901E-10-1.08867E-09
 -1       894-7.31096E+02-7.43285E+04-2.80203E+03 2.11573E+04-6.54381E-10 1.69894E-09
 -1       895-5.68994E+02-7.30459E+04-4.93707E+03 1.41023E+04 8.53532E-10 2.64390E-09
 -1       956-1.62378E+05-2.34460E+03-5.90345E+03 1.07135E+04-4.94538E-09 2.90163E-09
 -1       957-1.63543E+05-7.91725E+02-3.03079E+03 1.28957E+04-3.66140E-09-2.80215E-09
 -1       958-1.62899E+05-6.37012E+01-1.36528E+03 1.06438E+04-1.16638E-08-1.51908E-09
 -1       959-1.62991E+05-1.30089E+01-6.97453E+02 1.29710E+04-2.42974E-08-2.91948E-09
 -1       960-1.62944E+05 1.75875E+01-3.39862E+02 1.06374E+04-1.26211E-08-8.94943E-10
 -1       961-1.62949E+05 1.51321E+01-1.80240E+02 1.29781E+04-5.86374E-09 4.36103E-10
 -1       962-1.62952E+05 1.42491E+01-1.02855E+02 1.06366E+04-5.54815E-09 3.31397E-09
 -1       963-1.62945E+05 1.51449E+01-8.20801E+01 1.29792E+04-5.51711E-09-1.11925E-09
 -1       964-1.62953E+05 1.49548E+01-9.89521E+01 1.06363E+04-1.48475E-09 1.37163E-09
 -1       965-1.62951E+05 1.67444E+01-1.70413E+02 1.29792E+04 8.22549E-10 1.19940E-10
 -1       966-1.62948E+05 1.96419E+01-3.19487E+02 1.06366E+04-2.00066E-09-5.92991E-10
 -1       967-1.62994E+05-8.04211E+00-6.55065E+02 1.29753E+04-6.33122E-10 3.22717E-09
 -1       968-1.62909E+05-5.51397E+01-1.28171E+03 1.06403E+04-2.66027E-10-8.11909E-10
 -1       969-1.63516E+05-7.37784E+02-2.84573E+03 1.29317E+04 4.84761E-10-6.27099E-09
 -1       970-1.62421E+05-2.19578E+03-5.54261E+03 1.06814E+04 8.26503E-10 1.86856E-09
 -1       971-1.54427E+05-8.17770E+02-4.55058E+03 7.61458E+03-2.68710E-09-2.60410E-09
 -1       972-1.55534E+05-5.88036E+02-2.47857E+03 1.06252E+04-2.34331E-09-2.73258E-09
 -1       973-1.54931E+05-6.11500E+00-1.10948E+03 7.55239E+03-2.19961E-09-2.72632E-09
 -1       974-1.55006E+05-8.27473E+00-5.74901E+02 1.06918E+04-1.42916E-09 5.16820E-10
 -1       975-1.54968E+05 1.36150E+01-2.86479E+02 7.54744E+03 9.69976E-10 2.14010E-09
 -1       976-1.54973E+05 1.41454E+01-1.64081E+02 1.06975E+04-2.85036E-09-5.12318E-09
 -1       977-1.54974E+05 1.24482E+01-1.16688E+02 7.54662E+03 2.42596E-09 8.27754E-10
 -1       978-1.54973E+05 1.59693E+01-1.33426E+02 1.06986E+04 7.47355E-09-1.11595E-09
 -1       979-1.54973E+05 1.55566E+01-2.11561E+02 7.54631E+03 4.32786E-09 4.05669E-09
 -1       980-1.54988E+05 1.70534E+01-4.06737E+02 1.06988E+04 3.59341E-09 5.24102E-09
 -1       981-1.54960E+05 2.57486E+01-7.86735E+02 7.54651E+03-3.28555E-10 4.39320E-09
 -1       982-1.55097E+05-4.06249E+01-1.62558E+03 1.06959E+04-1.17006E-09 4.68422E-09
 -1       983-1.54862E+05-2.39219E+01-3.15805E+03 7.54924E+03 9.35643E-10 1.52124E-09
 -1       984-1.56617E+05-1.68871E+03-7.07180E+03 1.06538E+04-1.22316E-09 4.29816E-09
 -1       985-1.53434E+05-2.33403E+03-1.29860E+04 7.59085E+03 2.38629E-09 1.32513E-09
 -3
    1PSTEP                         5           3           1          
  100CL  103 3.75000E-01         409                     0    3           1
 -4  DISP        4    1
 -5  D1          1    2    1    0
 -5  D2          1    2    2    0
 -5  D3          1    2    3    0
 -5  ALL         1    2    0    0    1ALL
 -1         1 9.90524E-05 0.00000E+00 0.00000E+00
 -1         2 9.19053E-05 4.86324E-30 3.30872E-24
 -1         3 8.21442E-05 1.60650E-28 0.00000E+00
 -1         5 5.94074E-05 1.66992E-26 0.00000E+00
 -1         8 7.91201E-05-7.24668E-07 0.00000E+00
 -1         9 8.07807E-05 5.52693E-07 0.00000E+00
 -1        10 7.61367E-05-1.12626E-06-3.30872E-24
 -1        12 5.89725E-05 4.08692E-07 0.00000E+00
 -1        15 5.54016E-05-7.89348E-07 2.06795E-25
 -1        16 5.71776E-05 4.46315E-07 0.00000E+00
 -1        17 5.68312E-05-2.36826E-06 0.00000E+00
 -1        18 5.68787E-05 4.42794E-08 0.00000E+00
 -1        19 5.76680E-05 8.15126E-07 0.00000E+00
 -1        20 5.77749E-05 1.22222E-05 0.00000E+00
 -1        21 5.73735E-05 2.31397E-05 1.65436E-24
 -1        24 1.47537E-05-3.18292E-06 0.00000E+00
 -1        25 5.54687E-05 1.37831E-07 0.00000E+00
 -1        26 5.62210E-05 1.13598E-06 0.00000E+00
 -1        27 5.50907E-05 1.04065E-05 0.00000E+00
 -1        28 5.47228E-05 2.27903E-05 0.00000E+00
 -1        32 0.00000E+00 0.00000E+00 0.00000E+00
 -1        33 5.37919E-05 1.52346E-06 0.00000E+00
 -1        34 5.27000E-05 1.03903E-05 0.00000E+00
 -1        35 5.16616E-05 2.26060E-05 0.00000E+00
 -1        51 9.77559E-05-1.19542E-07 0.00000E+00
 -1        52 9.53530E-05-2.35973E-07 0.00000E+00
 -1        53 9.20613E-05-3.53334E-07 0.00000E+00
 -1        54 8.81073E-05-4.72736E-07 0.00000E+00
 -1        55 8.37177E-05-5.94833E-07-4.13590E-24
 -1        56 9.81758E-05-5.73392E-07 0.00000E+00
 -1        57 9.74122E-05-1.54817E-06 1.32349E-23
 -1        58 9.67589E-05-2.81182E-06 0.00000E+00
 -1        59 9.61684E-05-4.26062E-06 0.00000E+00
 -1        60 9.56030E-05-5.77732E-06 2.64698E-23
 -1        61 9.50184E-05-7.24546E-06 0.00000E+00
 -1        62 9.43726E-05-8.55040E-06-2.64698E-23
 -1        63 9.36242E-05-9.58165E-06-1.32349E-23
 -1        64 9.27368E-05-1.02416E-05 0.00000E+00
 -1        65 9.16769E-05-1.04412E-05 0.00000E+00
 -1        66 9.04191E-05-1.01133E-05-2.64698E-23
 -1        67 8.89431E-05-9.20272E-06 1.32349E-23
 -1        68 8.72377E-05-7.68240E-06 0.00000E+00
 -1        69 8.53022E-05-5.53729E-06 0.00000E+00
 -1        70 8.31357E-05-2.78608E-06 2.64698E-23
 -1        86 9.16186E-05 9.83808E-08-3.30872E-24
 -1        87 9.07574E-05 1.95993E-07-8.27181E-25
 -1        88 8.92903E-05 2.92858E-07 1.65436E-24
 -1        89 8.71837E-05 3.85789E-07 1.03398E-25
 -1        90 8.43705E-05 4.77999E-07 0.00000E+00
 -1       121 8.19767E-05-1.87010E-07 6.61744E-24
 -1       122 8.14745E-05-3.74132E-07 0.00000E+00
 -1       123 8.06380E-05-5.61476E-07 6.61744E-24
 -1       124 7.94685E-05-7.49183E-07 0.00000E+00
 -1       125 7.79674E-05-9.37308E-07 0.00000E+00
 -1       191 5.93953E-05 6.81211E-08 0.00000E+00
 -1       192 5.93591E-05 1.36241E-07 1.65436E-24
 -1       193 5.92987E-05 2.04359E-07 0.00000E+00
 -1       194 5.92141E-05 2.72476E-07 0.00000E+00
 -1       195 5.91054E-05 3.40587E-07-3.30872E-24
 -1       251 7.92052E-05 2.53401E-06 0.00000E+00
 -1       252 7.93091E-05 4.42943E-06 2.06795E-25
 -1       253 7.94135E-05 5.21175E-06 0.00000E+00
 -1       254 7.95212E-05 5.12587E-06 0.00000E+00
 -1       255 7.96286E-05 4.36709E-06 0.00000E+00
 -1       256 7.97362E-05 3.12763E-06 0.00000E+00
 -1       257 7.98434E-05 1.57207E-06 0.00000E+00
 -1       258 7.99505E-05-1.36451E-07 0.00000E+00
 -1       259 8.00576E-05-1.84363E-06-3.30872E-24
 -1       260 8.01649E-05-3.39513E-06 0.00000E+00
 -1       261 8.02725E-05-4.62762E-06 0.00000E+00
 -1       262 8.03799E-05-5.37640E-06 0.00000E+00
 -1       263 8.04875E-05-5.44888E-06 0.00000E+00
 -1       264 8.05919E-05-4.64941E-06 2.06795E-25
 -1       265 8.06958E-05-2.73246E-06 0.00000E+00
 -1       266 7.51671E-05-7.45276E-07 3.30872E-24
 -1       267 7.12140E-05-7.54858E-07 0.00000E+00
 -1       268 6.72609E-05-7.65138E-07 8.27181E-25
 -1       269 6.33078E-05-7.73350E-07-2.06795E-25
 -1       270 5.93547E-05-7.81514E-07 4.13590E-25
 -1       271 7.67112E-05 2.21845E-06 0.00000E+00
 -1       272 7.46670E-05 4.08121E-06-1.32349E-23
 -1       273 7.29819E-05 4.99555E-06 0.00000E+00
 -1       274 7.15982E-05 5.09057E-06-1.32349E-23
 -1       275 7.04664E-05 4.51286E-06 2.64698E-23
 -1       276 6.95276E-05 3.41688E-06-1.32349E-23
 -1       277 6.87215E-05 1.96581E-06 0.00000E+00
 -1       278 6.79850E-05 3.27848E-07 1.32349E-23
 -1       279 6.72543E-05-1.32581E-06-2.64698E-23
 -1       280 6.64656E-05-2.82370E-06 1.32349E-23
 -1       281 6.55555E-05-3.99694E-06 0.00000E+00
 -1       282 6.44631E-05-4.68135E-06 0.00000E+00
 -1       283 6.31291E-05-4.72074E-06 0.00000E+00
 -1       284 6.15016E-05-3.96713E-06 1.32349E-23
 -1       285 5.95243E-05-2.28806E-06-2.64698E-23
 -1       301 7.67752E-05 5.30465E-07-3.30872E-24
 -1       302 7.27751E-05 5.19754E-07 1.65436E-24
 -1       303 6.87977E-05 5.09392E-07 0.00000E+00
 -1       304 6.48606E-05 4.97731E-07 0.00000E+00
 -1       305 6.09815E-05 4.84276E-07 0.00000E+00
 -1       306 7.81272E-05 3.57347E-06 2.64698E-23
 -1       307 7.57979E-05 5.60079E-06 0.00000E+00
 -1       308 7.38898E-05 6.51971E-06-5.29396E-23
 -1       309 7.24224E-05 6.24212E-06 0.00000E+00
 -1       310 7.13583E-05 4.88774E-06 0.00000E+00
 -1       311 7.06336E-05 2.62051E-06 0.00000E+00
 -1       312 7.01301E-05-2.40645E-07 0.00000E+00
 -1       313 6.97192E-05-3.35110E-06 0.00000E+00
 -1       314 6.92569E-05-6.32351E-06 0.00000E+00
 -1       315 6.86015E-05-8.77665E-06 0.00000E+00
 -1       316 6.76430E-05-1.04179E-05 5.29396E-23
 -1       317 6.62862E-05-1.09900E-05 2.64698E-23
 -1       318 6.44994E-05-1.04167E-05 0.00000E+00
 -1       319 6.22800E-05-8.66853E-06 1.32349E-23
 -1       320 5.96792E-05-5.92080E-06 0.00000E+00
 -1       336 7.39349E-05-1.33071E-06 6.61744E-24
 -1       337 7.13209E-05-1.53639E-06-3.30872E-24
 -1       338 6.82983E-05-1.74312E-06 0.00000E+00
 -1       339 6.48720E-05-1.95081E-06 0.00000E+00
 -1       340 6.10476E-05-2.15992E-06-6.61744E-24
 -1       406 5.88154E-05 4.76785E-07 0.00000E+00
 -1       407 5.86342E-05 5.44852E-07 0.00000E+00
 -1       408 5.84288E-05 6.12874E-07 0.00000E+00
 -1       409 5.81992E-05 6.80764E-07 0.00000E+00
 -1       410 5.79455E-05 7.48391E-07 0.00000E+00
 -1       521 5.37950E-05 2.39841E-06 5.29396E-23
 -1       522 5.10415E-05 2.45254E-06-2.64698E-23
 -1       523 4.89654E-05 7.14616E-07 0.00000E+00
 -1       524 4.74729E-05-2.62730E-06 0.00000E+00
 -1       525 4.63994E-05-7.09714E-06 0.00000E+00
 -1       526 4.55392E-05-1.21497E-05 0.00000E+00
 -1       527 4.46547E-05-1.71371E-05 0.00000E+00
 -1       528 4.35072E-05-2.14167E-05 2.64698E-23
 -1       529 4.19028E-05-2.44687E-05-5.29396E-23
 -1       530 3.96764E-05-2.58542E-05 0.00000E+00
 -1       531 3.67684E-05-2.54240E-05 0.00000E+00
 -1       532 3.31660E-05-2.31470E-05-2.64698E-23
 -1       533 2.89736E-05-1.93132E-05 0.00000E+00
 -1       534 2.43504E-05-1.43087E-05-2.64698E-23
 -1       535 1.95037E-05-8.73236E-06 5.29396E-23
 -1       536 5.68212E-05 1.53969E-06 0.00000E+00
 -1       537 5.68206E-05 4.44814E-06-4.13590E-25
 -1       538 5.68218E-05 6.47235E-06 4.13590E-25
 -1       539 5.68254E-05 7.72744E-06 0.00000E+00
 -1       540 5.68296E-05 8.32079E-06 0.00000E+00
 -1       541 5.68342E-05 8.35963E-06-2.58494E-26
 -1       542 5.68387E-05 7.94545E-06 1.03398E-25
 -1       543 5.68431E-05 7.17964E-06 0.00000E+00
 -1       544 5.68473E-05 6.15996E-06 0.00000E+00
 -1       545 5.68514E-05 4.98406E-06 1.03398E-25
 -1       546 5.68554E-05 3.74801E-06 0.00000E+00
 -1       547 5.68595E-05 2.54785E-06 0.00000E+00
 -1       548 5.68637E-05 1.47998E-06-2.06795E-25
 -1       549 5.68683E-05 6.40851E-07-2.06795E-25
 -1       550 5.68730E-05 1.29317E-07 4.13590E-25
 -1       551 5.12574E-05-2.49166E-06-3.30872E-24
 -1       552 4.45881E-05-2.61934E-06 0.00000E+00
 -1       553 3.72105E-05-2.75183E-06 0.00000E+00
 -1       554 2.95176E-05-2.88850E-06-3.30872E-24
 -1       555 2.19020E-05-3.02681E-06 1.32349E-23
 -1       556 5.53700E-05 1.41782E-06 0.00000E+00
 -1       557 5.42550E-05 4.30747E-06 0.00000E+00
 -1       558 5.34481E-05 6.38363E-06 0.00000E+00
 -1       559 5.29150E-05 7.73573E-06 0.00000E+00
 -1       560 5.26210E-05 8.45299E-06 0.00000E+00
 -1       561 5.25319E-05 8.62511E-06 0.00000E+00
 -1       562 5.26138E-05 8.34188E-06 0.00000E+00
 -1       563 5.28325E-05 7.69316E-06 0.00000E+00
 -1       564 5.31545E-05 6.76888E-06 0.00000E+00
 -1       565 5.35459E-05 5.65897E-06 8.27181E-25
 -1       566 5.39731E-05 4.45343E-06 0.00000E+00
 -1       567 5.44024E-05 3.24226E-06 4.13590E-25
 -1       568 5.48002E-05 2.11543E-06 0.00000E+00
 -1       569 5.51328E-05 1.16281E-06 0.00000E+00
 -1       570 5.53666E-05 4.74311E-07 0.00000E+00
 -1       571 5.69266E-05 1.24816E-07-4.13590E-25
 -1       572 5.69756E-05 1.72632E-07 2.06795E-25
 -1       573 5.70248E-05 1.93527E-07-8.27181E-25
 -1       574 5.70742E-05 1.93606E-07 0.00000E+00
 -1       575 5.71237E-05 1.79002E-07-8.27181E-25
 -1       576 5.71732E-05 1.55890E-07-8.27181E-25
 -1       577 5.72227E-05 1.30446E-07-1.65436E-24
 -1       578 5.72722E-05 1.08853E-07 0.00000E+00
 -1       579 5.73217E-05 9.72956E-08 1.65436E-24
 -1       580 5.73712E-05 1.01956E-07 0.00000E+00
 -1       581 5.74207E-05 1.29018E-07 0.00000E+00
 -1       582 5.74702E-05 1.84655E-07 0.00000E+00
 -1       583 5.75197E-05 2.75039E-07 0.00000E+00
 -1       584 5.75692E-05 4.06277E-07 0.00000E+00
 -1       585 5.76187E-05 5.84438E-07 0.00000E+00
 -1       586 5.66277E-05 6.08446E-08 8.27181E-25
 -1       587 5.63555E-05 7.69893E-08 0.00000E+00
 -1       588 5.60827E-05 9.29544E-08-4.13590E-25
 -1       589 5.58302E-05 1.08667E-07 0.00000E+00
 -1       590 5.56188E-05 1.23955E-07 0.00000E+00
 -1       591 5.68256E-05 1.49744E-07 5.16988E-26
 -1       592 5.67808E-05 2.27937E-07 0.00000E+00
 -1       593 5.67441E-05 2.84029E-07 0.00000E+00
 -1       594 5.67137E-05 3.22684E-07 0.00000E+00
 -1       595 5.66881E-05 3.48627E-07-4.13590E-25
 -1       596 5.66654E-05 3.66547E-07 0.00000E+00
 -1       597 5.66440E-05 3.81132E-07 4.13590E-25
 -1       598 5.66220E-05 3.97067E-07 0.00000E+00
 -1       599 5.65978E-05 4.19035E-07 0.00000E+00
 -1       600 5.65696E-05 4.51720E-07 1.03398E-25
 -1       601 5.65356E-05 4.99804E-07 2.06795E-25
 -1       602 5.64942E-05 5.67977E-07 0.00000E+00
 -1       603 5.64435E-05 6.60926E-07 0.00000E+00
 -1       604 5.63819E-05 7.83378E-07 0.00000E+00
 -1       605 5.63077E-05 9.39996E-07 0.00000E+00
 -1       606 5.76772E-05 1.15855E-06 1.65436E-24
 -1       607 5.76846E-05 1.57294E-06 0.00000E+00
 -1       608 5.76916E-05 2.05413E-06 0.00000E+00
 -1       609 5.76983E-05 2.59742E-06 0.00000E+00
 -1       610 5.77049E-05 3.19809E-06 0.00000E+00
 -1       611 5.77115E-05 3.85136E-06 0.00000E+00
 -1       612 5.77180E-05 4.55243E-06 0.00000E+00
 -1       613 5.77245E-05 5.29652E-06 0.00000E+00
 -1       614 5.77309E-05 6.07883E-06 0.00000E+00
 -1       615 5.77373E-05 6.89456E-06 0.00000E+00
 -1       616 5.77437E-05 7.73891E-06 0.00000E+00
 -1       617 5.77500E-05 8.60710E-06-4.13590E-25
 -1       618 5.77564E-05 9.49432E-06 0.00000E+00
 -1       619 5.77627E-05 1.03958E-05-2.06795E-25
 -1       620 5.77689E-05 1.13067E-05 0.00000E+00
 -1       621 5.73937E-05 8.68634E-07 0.00000E+00
 -1       622 5.71379E-05 9.22407E-07 8.27181E-25
 -1       623 5.68968E-05 9.76173E-07-1.65436E-24
 -1       624 5.66662E-05 1.02986E-06 8.27181E-25
 -1       625 5.64423E-05 1.08344E-06 0.00000E+00
 -1       626 5.75963E-05 1.17532E-06 0.00000E+00
 -1       627 5.75031E-05 1.59431E-06 0.00000E+00
 -1       628 5.73899E-05 2.06665E-06 3.30872E-24
 -1       629 5.72589E-05 2.58655E-06 0.00000E+00
 -1       630 5.71122E-05 3.14818E-06-3.30872E-24
 -1       631 5.69521E-05 3.74569E-06-1.65436E-24
 -1       632 5.67807E-05 4.37324E-06 0.00000E+00
 -1       633 5.66002E-05 5.02496E-06 0.00000E+00
 -1       634 5.64128E-05 5.69501E-06 0.00000E+00
 -1       635 5.62207E-05 6.37752E-06-8.27181E-25
 -1       636 5.60262E-05 7.06665E-06 0.00000E+00
 -1       637 5.58313E-05 7.75655E-06 0.00000E+00
 -1       638 5.56383E-05 8.44135E-06 1.65436E-24
 -1       639 5.54493E-05 9.11521E-06 0.00000E+00
 -1       640 5.52663E-05 9.77225E-06 8.27181E-25
 -1       656 5.70127E-05 1.19268E-05 0.00000E+00
 -1       657 5.65166E-05 1.16196E-05 0.00000E+00
 -1       658 5.61843E-05 1.13133E-05 6.61744E-24
 -1       659 5.59114E-05 1.10073E-05-3.30872E-24
 -1       660 5.55845E-05 1.07003E-05 0.00000E+00
 -1       661 5.74930E-05 1.31196E-05 0.00000E+00
 -1       662 5.72277E-05 1.39792E-05 8.27181E-25
 -1       663 5.69762E-05 1.48018E-05 0.00000E+00
 -1       664 5.67383E-05 1.55892E-05-8.27181E-25
 -1       665 5.65130E-05 1.63429E-05 0.00000E+00
 -1       666 5.63000E-05 1.70643E-05 8.27181E-25
 -1       667 5.60985E-05 1.77549E-05-1.65436E-24
 -1       668 5.59082E-05 1.84161E-05 0.00000E+00
 -1       669 5.57284E-05 1.90491E-05 0.00000E+00
 -1       670 5.55587E-05 1.96552E-05 0.00000E+00
 -1       671 5.53986E-05 2.02356E-05 0.00000E+00
 -1       672 5.52476E-05 2.07915E-05 0.00000E+00
 -1       673 5.51054E-05 2.13240E-05 0.00000E+00
 -1       674 5.49709E-05 2.18340E-05-4.13590E-25
 -1       675 5.48447E-05 2.23229E-05-4.13590E-25
 -1       676 5.69309E-05 2.30811E-05 1.65436E-24
 -1       677 5.64883E-05 2.30226E-05-8.27181E-25
 -1       678 5.60461E-05 2.29641E-05 1.65436E-24
 -1       679 5.56044E-05 2.29057E-05 0.00000E+00
 -1       680 5.51632E-05 2.28474E-05-1.65436E-24
 -1       771 1.18593E-05 2.26066E-06 2.64698E-23
 -1       772 9.33393E-06 6.71382E-06 0.00000E+00
 -1       773 7.16241E-06 1.02335E-05 0.00000E+00
 -1       774 5.32091E-06 1.28797E-05-1.32349E-23
 -1       775 3.78611E-06 1.47135E-05 0.00000E+00
 -1       776 2.53373E-06 1.57979E-05 1.32349E-23
 -1       777 1.53921E-06 1.61967E-05 0.00000E+00
 -1       778 7.77575E-07 1.59753E-05-1.32349E-23
 -1       779 2.23648E-07 1.51998E-05-2.64698E-23
 -1       780-1.48111E-07 1.39375E-05 0.00000E+00
 -1       781-3.63327E-07 1.22566E-05-2.64698E-23
 -1       782-4.47911E-07 1.02258E-05 1.32349E-23
 -1       783-4.27824E-07 7.91459E-06 2.64698E-23
 -1       784-3.29166E-07 5.39292E-06 1.32349E-23
 -1       785-1.78144E-07 2.73109E-06-2.64698E-23
 -1       786 5.55130E-05 1.47203E-07-4.13590E-25
 -1       787 5.55599E-05 1.58100E-07-4.13590E-25
 -1       788 5.56066E-05 1.71007E-07-1.65436E-24
 -1       789 5.56539E-05 1.86410E-07 8.27181E-25
 -1       790 5.57011E-05 2.05065E-07 0.00000E+00
 -1       791 5.57485E-05 2.27735E-07-8.27181E-25
 -1       792 5.57958E-05 2.55620E-07-1.65436E-24
 -1       793 5.58432E-05 2.89928E-07-8.27181E-25
 -1       794 5.58906E-05 3.32565E-07 0.00000E+00
 -1       795 5.59380E-05 3.85452E-07 0.00000E+00
 -1       796 5.59853E-05 4.51621E-07 0.00000E+00
 -1       797 5.60327E-05 5.34134E-07 0.00000E+00
 -1       798 5.60800E-05 6.37817E-07 1.65436E-24
 -1       799 5.61272E-05 7.67545E-07-8.27181E-25
 -1       800 5.61745E-05 9.31012E-07-8.27181E-25
 -1       801 5.17176E-05 1.66472E-07 0.00000E+00
 -1       802 4.05820E-05 1.43547E-07 2.06795E-25
 -1       803 2.59517E-05 7.93907E-08-1.65436E-24
 -1       804 1.17101E-05 1.52557E-08 0.00000E+00
 -1       805 1.75610E-06-8.24295E-11 0.00000E+00
 -1       806 5.54077E-05 1.14991E-07-1.65436E-24
 -1       807 5.53446E-05 9.17479E-08 0.00000E+00
 -1       808 5.52797E-05 7.17970E-08 0.00000E+00
 -1       809 5.52122E-05 5.82789E-08 0.00000E+00
 -1       810 5.51410E-05 5.43287E-08 0.00000E+00
 -1       811 5.50651E-05 6.30366E-08 0.00000E+00
 -1       812 5.49832E-05 8.74891E-08-1.65436E-24
 -1       813 5.48942E-05 1.30765E-07-8.27181E-25
 -1       814 5.47971E-05 1.95944E-07-1.65436E-24
 -1       815 5.46905E-05 2.86100E-07-8.27181E-25
 -1       816 5.45735E-05 4.04306E-07 8.27181E-25
 -1       817 5.44447E-05 5.53638E-07 4.13590E-25
 -1       818 5.43032E-05 7.37165E-07 8.27181E-25
 -1       819 5.41478E-05 9.57947E-07-4.13590E-25
 -1       820 5.39775E-05 1.21905E-06 0.00000E+00
 -1       821 5.61544E-05 1.37302E-06 0.00000E+00
 -1       822 5.60838E-05 1.63304E-06-8.27181E-25
 -1       823 5.60134E-05 1.93481E-06 0.00000E+00
 -1       824 5.59422E-05 2.29699E-06 0.00000E+00
 -1       825 5.58709E-05 2.72918E-06 0.00000E+00
 -1       826 5.57995E-05 3.24077E-06-8.27181E-25
 -1       827 5.57280E-05 3.82926E-06 0.00000E+00
 -1       828 5.56564E-05 4.49191E-06 0.00000E+00
 -1       829 5.55848E-05 5.21489E-06 0.00000E+00
 -1       830 5.55132E-05 5.98414E-06 0.00000E+00
 -1       831 5.54416E-05 6.77875E-06 0.00000E+00
 -1       832 5.53701E-05 7.57765E-06 0.00000E+00
 -1       833 5.52987E-05 8.35915E-06 1.65436E-24
 -1       834 5.52281E-05 9.10165E-06 0.00000E+00
 -1       835 5.51573E-05 9.78932E-06 8.27181E-25
 -1       836 5.59242E-05 1.20048E-06 0.00000E+00
 -1       837 5.55419E-05 1.26641E-06 8.27181E-25
 -1       838 5.51056E-05 1.33222E-06 0.00000E+00
 -1       839 5.46473E-05 1.39761E-06 0.00000E+00
 -1       840 5.41989E-05 1.46289E-06 0.00000E+00
 -1       856 5.50702E-05 1.10301E-05 0.00000E+00
 -1       857 5.50475E-05 1.17315E-05 1.03398E-25
 -1       858 5.50249E-05 1.24985E-05-4.13590E-25
 -1       859 5.50018E-05 1.33187E-05 2.06795E-25
 -1       860 5.49786E-05 1.41798E-05 8.27181E-25
 -1       861 5.49553E-05 1.50692E-05 4.13590E-25
 -1       862 5.49320E-05 1.59747E-05-8.27181E-25
 -1       863 5.49087E-05 1.68836E-05-4.13590E-25
 -1       864 5.48854E-05 1.77836E-05 0.00000E+00
 -1       865 5.48621E-05 1.86622E-05 4.13590E-25
 -1       866 5.48388E-05 1.95070E-05-8.27181E-25
 -1       867 5.48156E-05 2.03054E-05-4.13590E-25
 -1       868 5.47924E-05 2.10453E-05-8.27181E-25
 -1       869 5.47692E-05 2.17143E-05 4.13590E-25
 -1       870 5.47461E-05 2.23000E-05 0.00000E+00
 -1       871 5.46132E-05 1.04059E-05 4.13590E-25
 -1       872 5.42103E-05 1.04038E-05 0.00000E+00
 -1       873 5.38499E-05 1.04014E-05 0.00000E+00
 -1       874 5.34997E-05 1.03986E-05-5.16988E-26
 -1       875 5.31271E-05 1.03954E-05-4.13590E-25
 -1       876 5.49248E-05 1.10365E-05-1.65436E-24
 -1       877 5.47462E-05 1.17044E-05-8.27181E-25
 -1       878 5.45552E-05 1.24055E-05 0.00000E+00
 -1       879 5.43536E-05 1.31357E-05-8.27181E-25
 -1       880 5.41426E-05 1.38906E-05 0.00000E+00
 -1       881 5.39240E-05 1.46660E-05 0.00000E+00
 -1       882 5.36994E-05 1.54575E-05 0.00000E+00
 -1       883 5.34702E-05 1.62611E-05-8.27181E-25
 -1       884 5.32382E-05 1.70722E-05 0.00000E+00
 -1       885 5.30048E-05 1.78868E-05 8.27181E-25
 -1       886 5.27718E-05 1.87006E-05 1.65436E-24
 -1       887 5.25406E-05 1.95093E-05 8.27181E-25
 -1       888 5.23128E-05 2.03085E-05-1.65436E-24
 -1       889 5.20898E-05 2.10941E-05-8.27181E-25
 -1       890 5.18732E-05 2.18617E-05-8.27181E-25
 -1       891 5.42974E-05 2.27595E-05-8.27181E-25
 -1       892 5.38587E-05 2.27286E-05 0.00000E+00
 -1       893 5.33911E-05 2.26976E-05 0.00000E+00
 -1       894 5.28793E-05 2.26668E-05-2.06795E-25
 -1       895 5.23079E-05 2.26360E-05-2.06795E-25
 -1       956 5.37249E-05 1.91631E-06 0.00000E+00
 -1       957 5.36569E-05 2.35299E-06-8.27181E-25
 -1       958 5.35886E-05 2.82896E-06 0.00000E+00
 -1       959 5.35202E-05 3.33939E-06 8.27181E-25
 -1       960 5.34517E-05 3.87949E-06-1.65436E-24
 -1       961 5.33832E-05 4.44439E-06 0.00000E+00
 -1       962 5.33147E-05 5.02924E-06 1.65436E-24
 -1       963 5.32462E-05 5.62919E-06-8.27181E-25
 -1       964 5.31776E-05 6.23940E-06 0.00000E+00
 -1       965 5.31091E-05 6.85499E-06 0.00000E+00
 -1       966 5.30406E-05 7.47113E-06 1.65436E-24
 -1       967 5.29721E-05 8.08295E-06-8.27181E-25
 -1       968 5.29036E-05 8.68560E-06 0.00000E+00
 -1       969 5.28353E-05 9.27425E-06 0.00000E+00
 -1       970 5.27671E-05 9.84406E-06-1.65436E-24
 -1       971 5.26359E-05 1.09514E-05 0.00000E+00
 -1       972 5.25710E-05 1.15703E-05 0.00000E+00
 -1       973 5.25059E-05 1.22406E-05 0.00000E+00
 -1       974 5.24407E-05 1.29557E-05-8.27181E-25
 -1       975 5.23755E-05 1.37089E-05 1.65436E-24
 -1       976 5.23102E-05 1.44936E-05-8.27181E-25
 -1       977 5.22449E-05 1.53032E-05 0.00000E+00
 -1       978 5.21795E-05 1.61309E-05 8.27181E-25
 -1       979 5.21142E-05 1.69700E-05-1.65436E-24
 -1       980 5.20489E-05 1.78140E-05 0.00000E+00
 -1       981 5.19836E-05 1.86562E-05 0.00000E+00
 -1       982 5.19183E-05 1.94898E-05-8.27181E-25
 -1       983 5.18532E-05 2.03082E-05 0.00000E+00
 -1       984 5.17883E-05 2.11048E-05-8.27181E-25
 -1       985 5.17237E-05 2.18729E-05 0.00000E+00
 -3
    1PSTEP                         6           3           1          
  100CL  103 3.75000E-01         409                     0    3           1
 -4  STRESS      6    1
 -5  SXX         1    4    1    1
 -5  SYY         1    4    2    2
 -5  SZZ         1    4    3    3
 -5  SXY         1    4    1    2
 -5  SYZ         1    4    2    3
 -5  SZX         1    4    3    1
 -1         1-1.27514E+06-5.89821E+05-2.59232E+05-8.35892E+05 2.00089E-10 7.69796E-09
 -1         2 2.22639E+03 2.84501E+05 7.28353E+03 6.94948E+02-1.41569E-10 1.30393E-09
 -1         3-4.45544E+01-5.34407E+05 1.24031E+02-1.43327E+02-8.38192E-11 2.30102E-10
 -1         5-4.65109E+00 1.94914E+05 5.10936E+00 2.20100E-02 8.82944E-11 1.20485E-08
 -1         8-5.99506E+05-2.64701E+05-1.70373E+04-4.67308E+05 9.45874E-11 1.34969E-09
 -1         9-1.09166E+06-2.78481E+05-1.16725E+05-3.72597E+05 1.78989E-09-1.15251E-09
 -1        10-4.13328E+02-5.56740E+05-7.13880E+02-9.61862E+02-2.62753E-09-2.07904E-08
 -1        12-2.55554E+00 1.94925E+05 1.65696E+02 4.34644E-01 1.33188E-10 2.36332E-09
 -1        15 1.62826E+03 8.94819E+02 5.26333E+03 2.78345E+00-2.60059E-10-9.09640E-08
 -1        16-2.98503E+06-9.57631E+05-4.64168E+05-9.72313E+05 9.07069E-09-3.09471E-09
 -1        17-7.14651E+05-4.18372E+05-1.43143E+05-3.87379E+05-1.42572E-08-9.16771E-10
 -1        18 2.79440E+04 3.33769E+03-7.98710E+03-4.57085E+04 5.97311E-10 1.16574E-09
 -1        19 6.10184E+04 7.28563E+04-3.33683E+02 1.19501E+04-4.49472E-10-2.87837E-09
 -1        20-2.51414E+04-2.88359E+05-6.35772E+04 2.14705E+04 2.74834E-09 5.89656E-10
 -1        21-2.73179E+01-1.67441E+05-5.41062E+02-5.08395E+01-1.07729E-08 3.74506E-09
 -1        24-2.62200E+06-8.97527E+05-3.75618E+05-1.08665E+06-1.21945E-08-5.60734E-09
 -1        25 2.72809E+04 1.54081E+04 1.80557E+04-8.26000E+04 2.78033E-10 2.14659E-09
 -1        26-1.38517E+04 4.98672E+04-9.80738E+03-7.25971E+03 1.25438E-09 1.27300E-09
 -1        27-4.62895E+04-1.58257E+05-5.93867E+04 3.56615E+04 4.34109E-09 3.05757E-09
 -1        28 1.29535E+04-4.62253E+04 9.45308E+03 1.48745E+04 1.95683E-09-1.06079E-09
 -1        32-6.06919E+05-4.40413E+04 2.77617E+05-4.16772E+05-1.21872E-08 9.22503E-09
 -1        33-9.04270E+04 4.65913E+04 1.65102E+04-2.72107E+04 8.29308E-10 6.05269E-09
 -1        34-1.17535E+05-1.16861E+04 2.75384E+02 3.60937E+04 1.96910E-09 6.86972E-10
 -1        35-1.31751E+04-1.83794E+04-7.18197E+02 2.91644E+04 1.92151E-09 3.53793E-09
 -1        51 1.11125E+04-3.06919E+05 2.82504E+04-7.61689E+05 4.36557E-11 8.30914E-09
 -1        52 6.50697E+03-3.05473E+05 1.90123E+04-8.88383E+05 1.38243E-10 4.80213E-10
 -1        53 4.68896E+03-3.14250E+05 1.68143E+04-7.59074E+05 2.47383E-10-8.39646E-09
 -1        54 1.41258E+04-3.12370E+05 2.76008E+04-8.91136E+05-2.91038E-11-1.79280E-08
 -1        55 2.95711E+04-3.22714E+05 4.97768E+04-7.58696E+05 3.92902E-10-3.99814E-09
 -1        56-2.44982E+06-2.76750E+05-1.90908E+05-9.44264E+05-1.81899E-11-6.86850E-09
 -1        57-2.52467E+06-4.51228E+05-1.28670E+05-9.38973E+05 1.10595E-09 5.81167E-09
 -1        58-2.48833E+06-3.37029E+05-4.49321E+04-9.32083E+05 2.09184E-11-2.43563E-09
 -1        59-2.48007E+06-3.80584E+05-2.68221E+04-9.53634E+05 5.07953E-10-1.24915E-08
 -1        60-2.49405E+06-3.45344E+05-1.04979E+04-9.30334E+05-5.66843E-10-1.23309E-08
 -1        61-2.47420E+06-3.70081E+05-5.96859E+03-9.54771E+05 7.02642E-10 3.71415E-10
 -1        62-2.49412E+06-3.47279E+05-2.88172E+03-9.31017E+05 1.02136E-09-6.91976E-09
 -1        63-2.47568E+06-3.66445E+05-2.36210E+03-9.52116E+05 9.63837E-10-3.25701E-09
 -1        64-2.49249E+06-3.48994E+05-2.73722E+03-9.32950E+05 1.06024E-09 3.41720E-09
 -1        65-2.48032E+06-3.63467E+05-5.44816E+03-9.47207E+05 2.36241E-10-6.10271E-09
 -1        66-2.48941E+06-3.50337E+05-9.63040E+03-9.35860E+05 6.30052E-10-2.42335E-09
 -1        67-2.49112E+06-3.67453E+05-2.43916E+04-9.39730E+05-5.48823E-10 2.29738E-09
 -1        68-2.48170E+06-3.45281E+05-4.09865E+04-9.40313E+05 2.76350E-09-3.98359E-09
 -1        69-2.53600E+06-4.27630E+05-1.17173E+05-9.21702E+05 1.68438E-09-9.74978E-10
 -1        70-2.44492E+06-2.91996E+05-1.73949E+05-9.53248E+05-2.65572E-10-3.26690E-09
 -1        86-1.11731E+03 2.82214E+05 7.79395E+03-3.47493E+02 9.56106E-10 8.27129E-10
 -1        87 7.41487E+03 2.87053E+05 1.62755E+04 1.43772E+03 1.58707E-09-1.34651E-09
 -1        88-6.29202E+03 2.79666E+05 2.48979E+04-1.09027E+03 2.38288E-09-2.84456E-09
 -1        89 4.68919E+04 3.05515E+05 6.71805E+04 3.12815E+03 3.65253E-09-6.73612E-09
 -1        90-4.04694E+04 2.63769E+05 9.48567E+04-2.03754E+03 4.34375E-09 3.22518E-09
 -1       121-7.47864E+01-5.34635E+05 1.12249E+02 7.16000E+01 2.98208E-10-2.84581E-09
 -1       122-3.70972E+00-5.34380E+05 2.70213E+02-2.86721E+02-1.01844E-09-2.39197E-09
 -1       123-1.04033E+02-5.34664E+05 4.31876E+02 2.14745E+02 8.30710E-10-4.35102E-09
 -1       124 4.94476E+02-5.34076E+05 1.13175E+03-6.65935E+02-1.83024E-09-6.82621E-09
 -1       125-4.27018E+02-5.34945E+05 1.73023E+03 4.50743E+02 1.24874E-09-8.02447E-09
 -1       191-5.05183E+00 1.94930E+05 6.05885E+00-1.14969E-02 1.32126E-10-1.42700E-09
 -1       192-5.12081E+00 1.94914E+05 1.08209E+01 4.38238E-01 1.88646E-10-3.31670E-09
 -1       193-6.30074E+00 1.94930E+05 2.00772E+01-4.30062E-01 2.37733E-10-3.63798E-10
 -1       194-6.63243E+00 1.94916E+05 4.09369E+01 1.15031E+00 1.27852E-10-8.60086E-09
 -1       195-8.70105E+00 1.94929E+05 8.00287E+01-7.28921E-01 3.39881E-10-6.80529E-09
 -1       251 2.90626E+05-4.12942E+04 9.64287E+04 4.29263E+03 2.01339E-10-2.69210E-10
 -1       252 3.34546E+05 4.77750E+04 6.84107E+04-1.30231E+04 9.50621E-10-1.25874E-09
 -1       253 3.07283E+05-6.39128E+03 2.49617E+04 2.70284E+03-3.32363E-10-1.81990E-09
 -1       254 3.14933E+05 7.38506E+03 1.57727E+04-1.05308E+04-2.86377E-10-3.46517E-09
 -1       255 3.10158E+05-9.86508E+02 6.44950E+03 1.80064E+03 3.78975E-10-2.14277E-09
 -1       256 3.11503E+05 1.17105E+03 3.91527E+03-9.20842E+03-5.07512E-10 3.02578E-09
 -1       257 3.10679E+05-1.71876E+02 2.01087E+03 1.38039E+03 2.76046E-10 2.26078E-09
 -1       258 3.10973E+05 3.62063E+02 1.77157E+03-8.78987E+03-3.95410E-10 1.81562E-09
 -1       259 3.10678E+05-1.72776E+02 2.01930E+03 1.38210E+03 1.38840E-11 1.09168E-09
 -1       260 3.11510E+05 1.17877E+03 3.94012E+03-9.21638E+03 2.07251E-10-7.60770E-09
 -1       261 3.10153E+05-9.93441E+02 6.49349E+03 1.80689E+03 1.79747E-09-6.07815E-09
 -1       262 3.14964E+05 7.43692E+03 1.58837E+04-1.05468E+04 7.57012E-10 7.36009E-10
 -1       263 3.07257E+05-6.43640E+03 2.51378E+04 2.71255E+03-9.48035E-10 5.41513E-09
 -1       264 3.34715E+05 4.81127E+04 6.88941E+04-1.30494E+04-1.54523E-09 5.88352E-09
 -1       265 2.90483E+05-4.15857E+04 9.71108E+04 4.30927E+03-1.32593E-09 1.94996E-09
 -1       266-2.94765E+04-1.37822E+04 6.91646E+04-5.95605E+01-4.72937E-10-1.41741E-07
 -1       267 3.41719E+04 1.60649E+04 4.88823E+04 6.87168E+01-1.04046E-09-2.80832E-07
 -1       268-4.58236E+03-2.27516E+03 1.81695E+04-8.75595E+00-8.55835E-10-2.29195E-07
 -1       269 5.41045E+03 2.72297E+03 1.18097E+04 1.01991E+01-6.49266E-10-1.66855E-07
 -1       270-8.12115E+02-4.47403E+02 5.70073E+03-1.38410E+00-4.18368E-10-1.25917E-07
 -1       271-2.90554E+06-3.62607E+05-2.23956E+05-1.13216E+06 4.78394E-10 2.96859E-09
 -1       272-2.96898E+06-5.42699E+05-1.43959E+05-1.14930E+06 2.05671E-09-6.72844E-09
 -1       273-2.94858E+06-4.17446E+05-5.29032E+04-1.12117E+06 2.04182E-10 2.34650E-09
 -1       274-2.91857E+06-4.75647E+05-2.95960E+04-1.16639E+06 8.49468E-10 8.90213E-09
 -1       275-2.95549E+06-4.22085E+05-1.23051E+04-1.11823E+06 5.92991E-10 1.01045E-09
 -1       276-2.91039E+06-4.70271E+05-6.53332E+03-1.17118E+06-9.63155E-10 1.58798E-09
 -1       277-2.95716E+06-4.21761E+05-3.19555E+03-1.11702E+06-3.04908E-10-1.43530E-09
 -1       278-2.90884E+06-4.70424E+05-2.32246E+03-1.17261E+06 4.19050E-10 5.96685E-09
 -1       279-2.95724E+06-4.21742E+05-2.49319E+03-1.11697E+06-5.54337E-10 3.12230E-09
 -1       280-2.90997E+06-4.70103E+05-4.56605E+03-1.17144E+06-5.07498E-10 2.65709E-09
 -1       281-2.95586E+06-4.22231E+05-8.37085E+03-1.11805E+06 9.95897E-11 2.62844E-10
 -1       282-2.91614E+06-4.72939E+05-1.99593E+04-1.16720E+06-7.33507E-10 3.50019E-09
 -1       283-2.95065E+06-4.19717E+05-3.56804E+04-1.12066E+06 6.84850E-10-1.50612E-09
 -1       284-2.95128E+06-5.16706E+05-9.69314E+04-1.15395E+06 1.72554E-09-3.65981E-09
 -1       285-2.92081E+06-3.83717E+05-1.50943E+05-1.12902E+06 1.17325E-09-2.68483E-09
 -1       301 1.08826E+04-6.15018E+03 8.48756E+04-2.10543E+04-8.29459E-10-2.66959E-09
 -1       302 1.17299E+04 1.53705E+04 6.16964E+04-3.10117E+04 1.29307E-09 3.65753E-09
 -1       303 5.49893E+02 1.41563E+03 5.74247E+04-2.11156E+04-6.43922E-10 4.20187E-10
 -1       304 2.26735E+04 2.54713E+04 9.72807E+04-3.09167E+04 1.33150E-09-4.04816E-09
 -1       305 2.24746E+04-1.61784E+04 1.63632E+05-2.10763E+04-6.62112E-10-1.35606E-09
 -1       306-3.37830E+06-3.89831E+05-2.65334E+05-1.32733E+06 2.47383E-09-6.41739E-09
 -1       307-3.52992E+06-6.04092E+05-1.81618E+05-1.26479E+06 8.96762E-10 1.48611E-09
 -1       308-3.44131E+06-4.71434E+05-6.24251E+04-1.29959E+06 2.20916E-09-4.72937E-10
 -1       309-3.44925E+06-5.16992E+05-3.79293E+04-1.30597E+06-2.98326E-09-1.42290E-09
 -1       310-3.45855E+06-4.75706E+05-1.46707E+04-1.28650E+06-5.47146E-10 8.00355E-11
 -1       311-3.42610E+06-5.15597E+05-8.49165E+03-1.32553E+06 1.47077E-09 5.16866E-09
 -1       312-3.46457E+06-4.72515E+05-4.13292E+03-1.28022E+06-4.10003E-09 1.95280E-09
 -1       313-3.42127E+06-5.17537E+05-3.71694E+03-1.33047E+06-1.36806E-09 3.01043E-10
 -1       314-3.46345E+06-4.73688E+05-4.45347E+03-1.28161E+06-9.14724E-10 4.86580E-11
 -1       315-3.43027E+06-5.11663E+05-9.34002E+03-1.32048E+06-2.65032E-09 5.66843E-10
 -1       316-3.45542E+06-4.78524E+05-1.63467E+04-1.29009E+06 4.15497E-10-2.75941E-09
 -1       317-3.45719E+06-5.12409E+05-4.22927E+04-1.29786E+06-6.77119E-10 1.29103E-09
 -1       318-3.43648E+06-4.73249E+05-6.95890E+04-1.30408E+06-2.61207E-09 4.32556E-09
 -1       319-3.54504E+06-6.12066E+05-2.02644E+05-1.25495E+06-5.98902E-09 1.40062E-10
 -1       320-3.36812E+06-3.80160E+05-2.95856E+05-1.33266E+06-1.05429E-08-9.89530E-10
 -1       336 4.06195E+02-5.78775E+05-3.09176E+03 5.10311E+02-5.11545E-09-5.79257E-09
 -1       337-1.11811E+03-5.79600E+05-3.38475E+03-1.34144E+03-9.35074E-09 2.37742E-09
 -1       338 2.65752E+02-5.78865E+05-4.27441E+03 8.28741E+02-6.83121E-09 1.72713E-09
 -1       339-4.41862E+03-5.81631E+05-9.35192E+03-1.97148E+03-1.23791E-08 2.82489E-09
 -1       340 2.99558E+03-5.76776E+05-1.44178E+04 1.13644E+03-8.25230E-09 4.40104E-09
 -1       406 1.00522E+01 1.94921E+05 3.27080E+02 2.81470E-01 4.87518E-10 5.18776E-09
 -1       407 1.11510E+02 1.94982E+05 6.95281E+02-7.79239E+00 6.44604E-11-5.72982E-10
 -1       408 3.55306E+02 1.94871E+05 1.38857E+03 7.61930E+00 5.28416E-10-7.03949E-10
 -1       409 1.49913E+03 1.95426E+05 3.12625E+03-7.10000E+01-3.52429E-11-3.29965E-09
 -1       410 4.31184E+03 1.94476E+05 6.38210E+03 6.54561E+01 6.53017E-10-1.44473E-09
 -1       521-5.90141E+06-6.82899E+05-4.42354E+05-2.29741E+06 3.36149E-09-6.89761E-09
 -1       522-6.11114E+06-1.06557E+06-3.00262E+05-2.23881E+06-2.00635E-09 1.68802E-09
 -1       523-6.01160E+06-8.07704E+05-1.04045E+05-2.24422E+06 2.79306E-09-6.17001E-09
 -1       524-5.97385E+06-9.30228E+05-6.25377E+04-2.31386E+06 2.38458E-09 4.79395E-09
 -1       525-6.03821E+06-8.14522E+05-2.42226E+04-2.22378E+06 2.48770E-09-7.83984E-10
 -1       526-5.94628E+06-9.18726E+05-1.39410E+04-2.33423E+06 9.87711E-10-4.20732E-09
 -1       527-6.03937E+06-8.18424E+05-6.74428E+03-2.22428E+06 2.98724E-09 1.55046E-09
 -1       528-5.95928E+06-8.99249E+05-5.52626E+03-2.31507E+06-1.02796E-09-7.16909E-10
 -1       529-6.02460E+06-8.34340E+05-7.04704E+03-2.24252E+06-1.52158E-09 1.77988E-09
 -1       530-5.99834E+06-8.63579E+05-1.34306E+04-2.26925E+06-7.60338E-10 1.58821E-09
 -1       531-5.99967E+06-8.54614E+05-2.45512E+04-2.26960E+06-4.92400E-09 2.34468E-09
 -1       532-6.05778E+06-8.45064E+05-6.21184E+04-2.21615E+06-5.21169E-09-6.89397E-09
 -1       533-5.96578E+06-8.53075E+05-1.03430E+05-2.29579E+06 4.91127E-11-7.23230E-09
 -1       534-6.18889E+06-9.89231E+05-2.99399E+05-2.15469E+06 2.45836E-09 7.32325E-09
 -1       535-5.87057E+06-7.13092E+05-4.39966E+05-2.33077E+06-8.96398E-09 7.30506E-09
 -1       536 5.25987E+03-1.67700E+04 3.85944E+04 5.12544E+02-1.64854E-09 6.89033E-09
 -1       537 2.33336E+04 1.94007E+04 2.75338E+04-1.67404E+03-5.87750E-09-6.47560E-10
 -1       538 1.19369E+04-2.62676E+03 9.95461E+03 4.11863E+02-8.58989E-10-7.10770E-10
 -1       539 1.54413E+04 3.03107E+03 6.36681E+03-1.52805E+03 1.78682E-09-4.20005E-09
 -1       540 1.31417E+04-4.08101E+02 2.51567E+03 3.66550E+02 5.09729E-10-1.16700E-09
 -1       541 1.39625E+04 4.67019E+02 1.50695E+03-1.45392E+03-5.74136E-10 3.35001E-09
 -1       542 1.34098E+04-6.05641E+01 6.10579E+02 3.37716E+02 3.00659E-10 1.40261E-09
 -1       543 1.36086E+04 6.09630E+01 3.20027E+02-1.40906E+03 2.58723E-10-4.19187E-09
 -1       544 1.34922E+04 1.66201E-01 7.46077E+01 3.21694E+02 5.53904E-11-2.61018E-09
 -1       545 1.34846E+04-5.23358E+01-1.08042E+02-1.38929E+03 1.19764E-10 3.53855E-09
 -1       546 1.35324E+04 5.37397E+01-2.95451E+02 3.17942E+02 4.67020E-10 6.05395E-09
 -1       547 1.33277E+04-3.97830E+02-8.03402E+02-1.39391E+03-1.56484E-09 4.04525E-09
 -1       548 1.36494E+04 3.45166E+02-1.31422E+03 3.26318E+02-1.66175E-09-2.40374E-09
 -1       549 1.24254E+04-2.54210E+03-3.57863E+03-1.42202E+03-8.45716E-10-4.99972E-09
 -1       550 1.44370E+04 2.19474E+03-5.11577E+03 3.46047E+02-2.22400E-11-2.96541E-09
 -1       551 5.54624E+03-3.01503E+05 1.71404E+04-5.17157E+05-2.26246E-08-3.92902E-09
 -1       552 1.15835E+04-3.01995E+05 2.24157E+04-7.35971E+05-1.71058E-08 4.54020E-09
 -1       553 7.54342E+03-3.06090E+05 3.49835E+04-5.15481E+05-2.75249E-08 7.89805E-09
 -1       554 2.88673E+04-2.90948E+05 7.43483E+04-7.36681E+05-1.72804E-08 5.69378E-09
 -1       555 2.91181E+04-3.20311E+05 1.33635E+05-5.16151E+05-2.80415E-08-3.78714E-09
 -1       556 4.20943E+04-9.73864E+04 3.35434E+04-1.29789E+05-9.39326E-09-4.18368E-09
 -1       557 8.15485E+04-1.30428E+05 1.75721E+04-1.62128E+05-3.28146E-09 6.61021E-09
 -1       558 4.23817E+04-1.02100E+05 7.17364E+03-1.25712E+05-7.26868E-09-6.43922E-10
 -1       559 7.66788E+04-1.35159E+05 3.61897E+03-1.64159E+05 6.94854E-10-4.69572E-09
 -1       560 4.15328E+04-1.01522E+05 1.53207E+03-1.26216E+05-4.17640E-09-5.77620E-09
 -1       561 7.52436E+04-1.34862E+05 7.98373E+02-1.65059E+05-2.01362E-09 1.53250E-09
 -1       562 4.08271E+04-1.01038E+05 3.18943E+02-1.26728E+05-9.38599E-10-2.67346E-09
 -1       563 7.44043E+04-1.34504E+05 1.88490E+02-1.65595E+05-2.91402E-09-7.45257E-09
 -1       564 4.03905E+04-1.00752E+05 6.87832E+01-1.27040E+05 5.33328E-09 4.46880E-09
 -1       565 7.39762E+04-1.34322E+05 3.47409E+01-1.65863E+05 2.71393E-09 4.86489E-09
 -1       566 4.02433E+04-1.00652E+05-2.45571E+01-1.27148E+05-1.53159E-09 7.11316E-09
 -1       567 7.39259E+04-1.34297E+05-1.00159E+02-1.65845E+05 6.24823E-09-1.49703E-09
 -1       568 4.04111E+04-1.00764E+05-2.64884E+02-1.27077E+05-8.91305E-10 2.39379E-09
 -1       569 7.37495E+04-1.34189E+05-6.22024E+02-1.65114E+05-2.19370E-09 4.62023E-09
 -1       570 4.13067E+04-1.01623E+05-1.29141E+03-1.27117E+05 2.17915E-09-1.30012E-09
 -1       571 1.41153E+05 5.10671E+03 7.56736E+03-3.54462E+04 6.13454E-10 1.14846E-09
 -1       572 1.42280E+05 1.77539E+03 3.70736E+03-3.88542E+04-4.64752E-10 2.88537E-09
 -1       573 1.41607E+05 4.22393E+02 1.64694E+03-3.53531E+04 9.54060E-10 2.96700E-09
 -1       574 1.41741E+05 1.36229E+02 8.25045E+02-3.89583E+04 3.29692E-10 3.48791E-09
 -1       575 1.41659E+05 1.74940E+01 3.88800E+02-3.53408E+04 8.04221E-10 1.38334E-09
 -1       576 1.41668E+05 3.60717E+00 1.97818E+02-3.89722E+04 3.80851E-10-4.90627E-09
 -1       577 1.41667E+05-4.15428E+00 9.73562E+01-3.53391E+04 1.00773E-08-1.72986E-09
 -1       578 1.41660E+05-2.63045E+00 5.29076E+01-3.89739E+04 1.82372E-08-2.07683E-09
 -1       579 1.41673E+05-4.72347E+00 3.21291E+01-3.53391E+04 8.90896E-09-4.32919E-09
 -1       580 1.41669E+05-5.59301E+00 2.95620E+01-3.89717E+04 7.06677E-10 5.38375E-09
 -1       581 1.41685E+05-8.25529E+00 3.97447E+01-3.53413E+04 1.05410E-09-1.59434E-09
 -1       582 1.41691E+05-2.05280E+00 7.53255E+01-3.89507E+04 5.45697E-11 2.01680E-10
 -1       583 1.41698E+05 1.73805E+01 1.44492E+02-3.53602E+04 3.76531E-10-4.02315E-09
 -1       584 1.41760E+05 1.30325E+02 3.23723E+02-3.87932E+04-7.34872E-10-8.23945E-09
 -1       585 1.41679E+05 4.16464E+02 6.57626E+02-3.54990E+04 6.28461E-10-3.90355E-09
 -1       586-1.75144E+03 4.60361E+04-2.32708E+03-1.20339E+05 3.87217E-10-6.42103E-10
 -1       587-3.81920E+02 4.57233E+04-2.88961E+02-1.32420E+05 6.67569E-10-2.81040E-09
 -1       588 4.74175E+02 4.57870E+04 1.58449E+03-1.20264E+05 4.00178E-10 9.69521E-09
 -1       589 2.38101E+03 4.66582E+04 4.65482E+03-1.32312E+05 5.83896E-10 1.78943E-08
 -1       590 6.84139E+03 4.52096E+04 9.98247E+03-1.20447E+05 2.98314E-10 7.80437E-09
 -1       591-3.08290E+04-8.86690E+03-1.02753E+04-1.60370E+04 1.98469E-09-2.15005E-09
 -1       592-3.17786E+04-1.14031E+04-5.56552E+03-1.87311E+04-6.53131E-11-1.15226E-08
 -1       593-3.18680E+04-8.10962E+03-2.31697E+03-1.67786E+04 5.08965E-09-2.15869E-09
 -1       594-3.03462E+04-9.90993E+03-1.15559E+03-1.88025E+04 9.45266E-09 1.27957E-09
 -1       595-3.19475E+04-8.10623E+03-5.31073E+02-1.68126E+04 3.26594E-09 4.54101E-10
 -1       596-3.02492E+04-9.84155E+03-2.70722E+02-1.87923E+04 9.01807E-10 6.60347E-09
 -1       597-3.19576E+04-8.11282E+03-1.49034E+02-1.68140E+04 6.57288E-10 4.78090E-09
 -1       598-3.02401E+04-9.83894E+03-1.22771E+02-1.87895E+04-2.62617E-11-2.52123E-09
 -1       599-3.19569E+04-8.11280E+03-1.60506E+02-1.68138E+04 7.96263E-10-7.47320E-10
 -1       600-3.02505E+04-9.84240E+03-3.01150E+02-1.87922E+04 6.54495E-10 6.82121E-10
 -1       601-3.19444E+04-8.10555E+03-5.95607E+02-1.68118E+04-4.09500E-09-6.12636E-09
 -1       602-3.03596E+04-9.91910E+03-1.29896E+03-1.88025E+04-8.68567E-11-9.98739E-09
 -1       603-3.18541E+04-8.11052E+03-2.60533E+03-1.67738E+04 1.34150E-10-2.09366E-09
 -1       604-3.19755E+04-1.15924E+04-6.25855E+03-1.87148E+04 8.67090E-10-8.59472E-10
 -1       605-3.06791E+04-8.96694E+03-1.15546E+04-1.59455E+04 8.74365E-10 1.61708E-09
 -1       606 2.02827E+04-6.79684E+03-1.22431E+04 1.98377E+04-3.09683E-09-9.61927E-09
 -1       607 1.81860E+04-2.19191E+03-6.09652E+03 2.22687E+04-1.14005E-09-1.85310E-09
 -1       608 1.93789E+04-3.68484E+02-2.72979E+03 1.96793E+04 1.10776E-09 4.67185E-09
 -1       609 1.91430E+04-9.62948E+01-1.37888E+03 2.24436E+04-1.58025E-09 3.68550E-09
 -1       610 1.92722E+04 1.73194E+01-6.58427E+02 1.96616E+04-3.31420E-09 6.24777E-09
 -1       611 1.92285E+04 2.48393E+01-3.32194E+02 2.24627E+04-5.99630E-09 4.80441E-10
 -1       612 1.92456E+04 2.65044E+01-1.58846E+02 1.96599E+04-3.41697E-09 5.30531E-09
 -1       613 1.92297E+04 2.92686E+01-7.25277E+01 2.24650E+04-4.85306E-09 2.95995E-09
 -1       614 1.92317E+04 2.56876E+01-2.03137E+01 1.96593E+04-1.31149E-09 1.07843E-09
 -1       615 1.92235E+04 3.19236E+01 2.22539E+01 2.24654E+04 3.77531E-09 5.77984E-09
 -1       616 1.92212E+04 2.87288E+01 7.42712E+01 1.96595E+04-1.88720E-09-1.23850E-09
 -1       617 1.92295E+04 4.97412E+01 1.72326E+02 2.24650E+04 3.56977E-11-5.32214E-09
 -1       618 1.92039E+04 7.99331E+01 3.48446E+02 1.96596E+04 6.63931E-11 1.43291E-09
 -1       619 1.93507E+04 3.20498E+02 7.83178E+02 2.24646E+04-1.20963E-10-1.02023E-09
 -1       620 1.90869E+04 9.07779E+02 1.57438E+03 1.96589E+04 1.83582E-09-3.26349E-09
 -1       621 2.48943E+02 1.54060E+05 2.14960E+03 4.77600E+03-2.57071E-10 2.23622E-10
 -1       622 2.84014E+02 1.54592E+05 1.81824E+03 6.97482E+03-1.62174E-10-3.36672E-09
 -1       623 1.18644E+01 1.54214E+05 2.08289E+03 4.75356E+03-1.50067E-10 6.58815E-10
 -1       624 9.40200E+02 1.55195E+05 3.94824E+03 6.99672E+03-1.19570E-10-3.48820E-09
 -1       625 9.43823E+02 1.53454E+05 6.86049E+03 4.75434E+03 6.82121E-12-3.99987E-09
 -1       626 1.26773E+05 3.52319E+04 2.51901E+03 6.86852E+04-9.47784E-09 3.71438E-09
 -1       627 1.25024E+05 3.65245E+04 1.21357E+03 7.14702E+04-2.44836E-08-8.77560E-09
 -1       628 1.26871E+05 3.40379E+04 5.12747E+02 6.90647E+04-7.07405E-09 3.04044E-09
 -1       629 1.24661E+05 3.62388E+04 2.51230E+02 7.16390E+04 3.39833E-09-1.83996E-09
 -1       630 1.26879E+05 3.39803E+04 1.16262E+02 6.90757E+04-2.05546E-09-3.31653E-09
 -1       631 1.24619E+05 3.62319E+04 6.24971E+01 7.16420E+04-1.55887E-09 5.01009E-09
 -1       632 1.26874E+05 3.39840E+04 4.13538E+01 6.90709E+04-4.05134E-09 4.15133E-09
 -1       633 1.24611E+05 3.62353E+04 4.62408E+01 7.16380E+04 7.44876E-10 5.35485E-09
 -1       634 1.26868E+05 3.39842E+04 7.49706E+01 6.90681E+04 3.47950E-09-1.77545E-09
 -1       635 1.24614E+05 3.62363E+04 1.52088E+02 7.16380E+04 1.35446E-09-1.61549E-09
 -1       636 1.26860E+05 3.39835E+04 3.07263E+02 6.90659E+04-8.33938E-09-1.29285E-09
 -1       637 1.24676E+05 3.62853E+04 6.75355E+02 7.16347E+04-1.77848E-08-2.06933E-09
 -1       638 1.26833E+05 3.41344E+04 1.38809E+03 6.89961E+04-6.90864E-09-1.42177E-09
 -1       639 1.25402E+05 3.73012E+04 3.28385E+03 7.14184E+04-2.92476E-09-2.51748E-09
 -1       640 1.26735E+05 3.71578E+04 6.81501E+03 6.77120E+04-1.44471E-08-2.60444E-08
 -1       656 3.44109E+04-8.70777E+05-8.30789E+04-4.71967E+02-6.54836E-11 7.67869E-10
 -1       657-4.54675E+04-9.08292E+05-6.87032E+04 5.70641E+03 9.54969E-11-2.26526E-09
 -1       658 1.09084E+04-8.81483E+05-4.21575E+04-1.11070E+03 3.64594E-10-2.65132E-10
 -1       659-4.87364E+04-9.09834E+05-7.29966E+04 6.12747E+03-6.63931E-11 1.27513E-09
 -1       660 3.76713E+04-8.69238E+05-9.04684E+04-8.93017E+02-1.01863E-10 8.13316E-10
 -1       661 1.24288E+05 1.35183E+04 1.19044E+04 4.85424E+04 1.96201E-09 3.36559E-09
 -1       662 1.30463E+05 2.28805E+04 8.02153E+03 4.65010E+04-3.55385E-10 1.00783E-09
 -1       663 1.26618E+05 1.73443E+04 2.80600E+03 4.78722E+04-2.29136E-10-3.00474E-09
 -1       664 1.27768E+05 1.83999E+04 1.67755E+03 4.73137E+04 1.34797E-09-5.95192E-09
 -1       665 1.26965E+05 1.78732E+04 6.61771E+02 4.77771E+04-2.38299E-09-2.41954E-10
 -1       666 1.27363E+05 1.77898E+04 3.85824E+02 4.74338E+04-5.05050E-09-1.55204E-10
 -1       667 1.27021E+05 1.79385E+04 2.03414E+02 4.77581E+04-2.94129E-09-4.58106E-10
 -1       668 1.27305E+05 1.77357E+04 2.03616E+02 4.74600E+04 1.93834E-09-1.83599E-09
 -1       669 1.27023E+05 1.79258E+04 2.72795E+02 4.77514E+04 1.03822E-09 4.48001E-09
 -1       670 1.27377E+05 1.78761E+04 5.91196E+02 4.74551E+04 2.62433E-09-7.14613E-09
 -1       671 1.26949E+05 1.78010E+04 1.04887E+03 4.77618E+04-3.84365E-10-2.42761E-09
 -1       672 1.27992E+05 1.88924E+04 2.68276E+03 4.73030E+04-3.94137E-09-1.19772E-09
 -1       673 1.26411E+05 1.69351E+04 4.49565E+03 4.78938E+04-2.56392E-09-1.65460E-09
 -1       674 1.32276E+05 2.61107E+04 1.28569E+04 4.60406E+04-2.13589E-09-5.31145E-09
 -1       675 1.22693E+05 1.07846E+04 1.90833E+04 4.89482E+04 8.50832E-10-2.46837E-09
 -1       676 1.40428E+01-1.67395E+05-6.52117E+02 2.54204E+01-2.31690E-09-3.81018E-09
 -1       677-1.73083E+02-1.67553E+05-1.19342E+03-5.08269E+01-5.35847E-09-2.39393E-09
 -1       678 1.15585E+02-1.67283E+05-2.10963E+03 2.53890E+01-1.61833E-09 2.01518E-09
 -1       679-2.10993E+03-1.68826E+05-5.01129E+03-5.06956E+01-3.02089E-09-3.76868E-09
 -1       680 1.25916E+03-1.66122E+05-8.07657E+03 2.49973E+01-7.57154E-10-3.86592E-10
 -1       771-1.80052E+06-3.12175E+05-4.35773E+04-7.43780E+05-8.39646E-09-9.08040E-09
 -1       772-1.78996E+06-3.35469E+05-2.34033E+04-7.69706E+05-5.19503E-09 2.26191E-09
 -1       773-1.80634E+06-3.07677E+05-1.00660E+04-7.46223E+05-3.07045E-09 3.09228E-09
 -1       774-1.78362E+06-3.30259E+05-4.90995E+03-7.72147E+05 6.27551E-09-8.72205E-10
 -1       775-1.80758E+06-3.06902E+05-2.46431E+03-7.46365E+05-1.15688E-09 5.67525E-10
 -1       776-1.78344E+06-3.30267E+05-1.14109E+03-7.73387E+05 3.56522E-10 5.02405E-09
 -1       777-1.80840E+06-3.06313E+05-6.97939E+02-7.46422E+05 3.47791E-09 5.99721E-09
 -1       778-1.78362E+06-3.30441E+05-3.14621E+02-7.74414E+05 2.16824E-09 2.90584E-09
 -1       779-1.80905E+06-3.05811E+05-3.05931E+02-7.46472E+05-3.81988E-09-1.61708E-09
 -1       780-1.78382E+06-3.30590E+05-2.46800E+02-7.75246E+05-2.41562E-09 2.49202E-10
 -1       781-1.80954E+06-3.05408E+05-4.41059E+02-7.46508E+05-5.27507E-09-9.32232E-10
 -1       782-1.78405E+06-3.30741E+05-8.12419E+02-7.75858E+05-7.66886E-09-2.25305E-09
 -1       783-1.80982E+06-3.05146E+05-1.62573E+03-7.46515E+05 6.33008E-10 1.59218E-10
 -1       784-1.78513E+06-3.31845E+05-3.85511E+03-7.76188E+05-3.96176E-09-3.86535E-11
 -1       785-1.80928E+06-3.05524E+05-7.12742E+03-7.46007E+05-7.67614E-09 3.01497E-09
 -1       786 1.32338E+05-7.02224E+03 1.62455E+04 2.68475E+00 7.54448E-08 1.31240E-09
 -1       787 1.39378E+05 8.12954E+03 1.14935E+04-5.48840E+00 1.48999E-07-1.80626E-09
 -1       788 1.35054E+05-1.10081E+03 4.20478E+03 3.93524E+00 2.30665E-07-4.10296E-09
 -1       789 1.36214E+05 1.27371E+03 2.64195E+03-8.79073E+00 3.11929E-07 3.50619E-09
 -1       790 1.35503E+05-1.71969E+02 1.07510E+03 5.98718E+00 4.63887E-07-1.51960E-09
 -1       791 1.35691E+05 1.99833E+02 6.31425E+02-1.41342E+01 6.16314E-07 8.41830E-09
 -1       792 1.35578E+05-2.77442E+01 2.88577E+02 9.27884E+00 9.31573E-07-1.15668E-08
 -1       793 1.35606E+05 3.91573E+01 1.89915E+02-2.26883E+01 1.24435E-06 5.55038E-09
 -1       794 1.35587E+05-1.13987E+01 1.41924E+02 1.45414E+01 6.22031E-07-6.40558E-09
 -1       795 1.35616E+05 5.92886E+01 2.07095E+02-3.63469E+01 1.88225E-09 8.21380E-09
 -1       796 1.35569E+05-4.78608E+01 3.11300E+02 2.29377E+01-2.88227E-11 6.94720E-09
 -1       797 1.35757E+05 3.50969E+02 7.34907E+02-5.81350E+01-9.04681E-11 7.67491E-09
 -1       798 1.35445E+05-3.02864E+02 1.16032E+03 3.63298E+01-2.37218E-10 2.81398E-09
 -1       799 1.36628E+05 2.23624E+03 3.16349E+03-9.31000E+01-6.54800E-10 1.40517E-09
 -1       800 1.34698E+05-1.93161E+03 4.46880E+03 5.79030E+01-1.24329E-10 2.33990E-09
 -1       801-1.10659E+04 8.65494E+04 1.83193E+04 1.36857E+04 7.56847E-09-6.48083E-09
 -1       802 2.41762E+04 1.52818E+05 4.48729E+04-5.78720E+04 2.03781E-08-2.23321E-09
 -1       803-1.25183E+04 1.11115E+05 5.26446E+04 1.15142E+04 1.59725E-08 1.29972E-08
 -1       804 9.93541E+04 1.93710E+05 1.43452E+05-5.89071E+04 1.88884E-08 1.77750E-08
 -1       805-8.62774E+04 4.58581E+04 1.84399E+05 1.47189E+04 6.54836E-09 1.80071E-08
 -1       806-1.53750E+05-3.31042E+04-1.31367E+04-6.41969E+04 8.59472E-10-1.26465E-09
 -1       807-1.54507E+05-3.12394E+04-6.45375E+03-6.76989E+04 7.00311E-10 1.14210E-09
 -1       808-1.54124E+05-2.83574E+04-2.73771E+03-6.64245E+04-6.70752E-10 1.53256E-09
 -1       809-1.53129E+05-2.94484E+04-1.33839E+03-6.78862E+04-9.45647E-10 6.59497E-10
 -1       810-1.54182E+05-2.81897E+04-6.12819E+02-6.65228E+04 8.00810E-10-3.77213E-09
 -1       811-1.53023E+05-2.93776E+04-3.03899E+02-6.78708E+04-7.45104E-10-5.18151E-09
 -1       812-1.54193E+05-2.82019E+04-1.51578E+02-6.65227E+04-5.68434E-11 3.40106E-09
 -1       813-1.53010E+05-2.93793E+04-9.55420E+01-6.78629E+04-6.75527E-10-5.21277E-09
 -1       814-1.54192E+05-2.82064E+04-8.93986E+01-6.65208E+04 1.94177E-10-2.30148E-09
 -1       815-1.53012E+05-2.93808E+04-1.39836E+02-6.78610E+04-2.35559E-10-9.97215E-09
 -1       816-1.54183E+05-2.82050E+04-2.61855E+02-6.65192E+04-1.88720E-09-5.25483E-09
 -1       817-1.53057E+05-2.94058E+04-5.61499E+02-6.78566E+04 2.07956E-09 7.99844E-09
 -1       818-1.54150E+05-2.82835E+04-1.14424E+03-6.64821E+04 1.18052E-09-1.72918E-09
 -1       819-1.53690E+05-3.00922E+04-2.69323E+03-6.77038E+04-1.47679E-09-2.63299E-09
 -1       820-1.53932E+05-3.03200E+04-5.48108E+03-6.56146E+04-4.29281E-10 8.29823E-09
 -1       821-1.99083E+05 1.10551E+04-2.55683E+04 2.52202E+01-6.60081E-10 6.49379E-10
 -1       822-2.10162E+05-1.27981E+04-1.80928E+04-3.15761E+02-2.35155E-09 3.69255E-09
 -1       823-2.03359E+05 1.73304E+03-6.62233E+03-1.35314E+01 8.61796E-10 1.62481E-09
 -1       824-2.05179E+05-2.00595E+03-4.16719E+03-2.10610E+02 5.91598E-10-1.53887E-09
 -1       825-2.04065E+05 2.71298E+02-1.71216E+03-7.99344E+01-2.89999E-09-2.44370E-09
 -1       826-2.04358E+05-3.20001E+02-1.03499E+03-7.11670E+01-4.84411E-09 8.89074E-10
 -1       827-2.04180E+05 4.82978E+01-5.34368E+02-1.52978E+02-3.79437E-09-3.68964E-09
 -1       828-2.04246E+05-9.77233E+01-4.73786E+02 5.92239E+01-3.73357E-09 2.15077E-09
 -1       829-2.04177E+05 4.92110E+01-5.42046E+02-2.10328E+02 6.55136E-10 1.09767E-09
 -1       830-2.04367E+05-3.27596E+02-1.05914E+03 1.40724E+02 1.63781E-09 2.47428E-09
 -1       831-2.04058E+05 2.78070E+02-1.75327E+03-2.34479E+02-1.97684E-09-3.99132E-09
 -1       832-2.05209E+05-2.05612E+03-4.27225E+03 1.48833E+02-9.55589E-10-3.14230E-09
 -1       833-2.03336E+05 1.77649E+03-6.78849E+03-2.18436E+02-1.21598E-09-1.62208E-09
 -1       834-2.10312E+05-1.31197E+04-1.85478E+04 8.28989E+01-5.06743E-10-5.17321E-09
 -1       835-1.98956E+05 1.13329E+04-2.62123E+04-1.68539E+02 4.20722E-09 1.73532E-09
 -1       836-6.63356E+02 1.88917E+05 1.13706E+04-1.67727E+04 1.46656E-09 1.86037E-09
 -1       837 2.50314E+03 1.92438E+05 9.70177E+03-3.36960E+04 2.18256E-09-4.63581E-09
 -1       838-2.43966E+02 1.89899E+05 9.99683E+03-1.67153E+04 1.85400E-09 2.18631E-09
 -1       839 6.41347E+03 1.95357E+05 1.90214E+04-3.37165E+04 2.30466E-09 8.09585E-09
 -1       840-1.92864E+03 1.85977E+05 3.03769E+04-1.67513E+04 1.59707E-09 2.23099E-09
 -1       856-6.28827E+04 5.34775E+03-1.40919E+04-3.08664E+02-2.81335E-09 2.22281E-09
 -1       857-6.87047E+04-6.27252E+03-9.70227E+03 3.21700E+03-2.69699E-09 3.55089E-09
 -1       858-6.51828E+04 7.49443E+02-3.65725E+03-3.20532E+02-3.75348E-09-2.90925E-09
 -1       859-6.60625E+04-8.72029E+02-2.20905E+03 3.23580E+03-2.73928E-10 5.42940E-10
 -1       860-6.55268E+04 1.04318E+02-9.28905E+02-3.27548E+02 6.46949E-10-3.06500E-10
 -1       861-6.56659E+04-1.16098E+02-5.17660E+02 3.24534E+03-3.14327E-09-6.88405E-09
 -1       862-6.55804E+04 1.39199E+01-2.28471E+02-3.30096E+02 4.52859E-09-3.77710E-10
 -1       863-6.56026E+04-9.57300E+00-1.13385E+02 3.24648E+03 6.73358E-09-9.42895E-09
 -1       864-6.55902E+04 1.07655E-01-3.63975E+01-3.28683E+02 3.64956E-09 1.53932E-10
 -1       865-6.55848E+04 1.45112E+01 1.89679E+01 3.23930E+03 4.14349E-09 2.75777E-09
 -1       866-6.55974E+04-1.03481E+01 7.32613E+01-3.22919E+02-6.47987E-10-4.47631E-09
 -1       867-6.55420E+04 8.72877E+01 2.02393E+02 3.22369E+03 1.03704E-09-3.08262E-09
 -1       868-6.56313E+04-7.20281E+01 3.42115E+02-3.13072E+02 2.87173E-10-6.50346E-10
 -1       869-6.52859E+04 5.98197E+02 9.18409E+02 3.19739E+03-3.14304E-09-5.25948E-09
 -1       870-6.58508E+04-5.08353E+02 1.33251E+03-2.96626E+02 1.27943E-09-3.46722E-09
 -1       871-2.90400E+03-6.00213E+03-9.44412E+03 6.18746E+04 1.68893E-09-3.97404E-09
 -1       872-1.26394E+03-8.11100E+03-3.84454E+03 8.02151E+04 4.10546E-09 2.83580E-09
 -1       873-2.95304E+01-7.11909E+03 5.65312E+02 6.17377E+04 3.03794E-09 1.86151E-09
 -1       874 1.45796E+03-5.73834E+03 5.39387E+03 8.02444E+04 4.49700E-09 6.65602E-09
 -1       875 3.46116E+03-8.40359E+03 1.19527E+04 6.18505E+04 1.99816E-09 1.36515E-09
 -1       876 1.55197E+05 2.67607E+04 8.32802E+03 6.29849E+04-3.64855E-09-1.76851E-09
 -1       877 1.55667E+05 2.85942E+04 4.44727E+03 6.54547E+04-3.03817E-09-7.14806E-10
 -1       878 1.55976E+05 2.58383E+04 1.86325E+03 6.36685E+04 2.87650E-09 6.40944E-09
 -1       879 1.54534E+05 2.74664E+04 9.28112E+02 6.55149E+04-3.94380E-10 1.27255E-09
 -1       880 1.56033E+05 2.58275E+04 4.32104E+02 6.36964E+04 1.60799E-09-1.11970E-09
 -1       881 1.54459E+05 2.74186E+04 2.30064E+02 6.55039E+04 5.70247E-09 9.66949E-10
 -1       882 1.56039E+05 2.58340E+04 1.46066E+02 6.36972E+04 5.48800E-09 1.73417E-09
 -1       883 1.54454E+05 2.74165E+04 1.55189E+02 6.55009E+04 2.49997E-09 9.19567E-09
 -1       884 1.56036E+05 2.58321E+04 2.45233E+02 6.36973E+04 2.90754E-10 5.82645E-10
 -1       885 1.54473E+05 2.74200E+04 4.92038E+02 6.55072E+04 3.84269E-09 1.04342E-09
 -1       886 1.56017E+05 2.58177E+04 9.91231E+02 6.36954E+04 1.91935E-09 2.17767E-09
 -1       887 1.54647E+05 2.75341E+04 2.16509E+03 6.55321E+04-1.72291E-09 7.80346E-10
 -1       888 1.55880E+05 2.58420E+04 4.36274E+03 6.36261E+04-2.06276E-09 2.75827E-09
 -1       889 1.57247E+05 3.02331E+04 1.04225E+04 6.54490E+04-6.15792E-09-2.47769E-09
 -1       890 1.54102E+05 2.79540E+04 1.95203E+04 6.19625E+04-4.11455E-09 3.90901E-09
 -1       891-9.60272E+01-8.83127E+04-1.03906E+03 1.68453E+04 1.88857E-09 2.50111E-11
 -1       892-1.66997E+02-8.85626E+04-1.13196E+03 2.54927E+04-3.77804E-09-2.56910E-09
 -1       893-2.57462E+01-8.83466E+04-1.61884E+03 1.68484E+04 3.53793E-10 2.32149E-09
 -1       894-8.82448E+02-8.91885E+04-3.36277E+03 2.54026E+04-1.70598E-09 1.26033E-09
 -1       895-6.87680E+02-8.76505E+04-5.92550E+03 1.69344E+04-2.18245E-09-1.56479E-09
 -1       956-1.94872E+05-2.81392E+03-7.08699E+03 1.28522E+04-1.50817E-08-1.13891E-09
 -1       957-1.96271E+05-9.49061E+02-3.63834E+03 1.54726E+04-2.09018E-08 1.55524E-10
 -1       958-1.95498E+05-7.52657E+01-1.63903E+03 1.27682E+04-8.43102E-09 9.86347E-10
 -1       959-1.95609E+05-1.35708E+01-8.37254E+02 1.55633E+04-3.60433E-09-7.07132E-11
 -1       960-1.95553E+05 2.29155E+01-4.08022E+02 1.27604E+04-4.75757E-09 3.04863E-09
 -1       961-1.95559E+05 2.07405E+01-2.16355E+02 1.55721E+04-7.24685E-09 5.34965E-09
 -1       962-1.95563E+05 1.93199E+01-1.23470E+02 1.27594E+04-6.11794E-09 9.87598E-10
 -1       963-1.95556E+05 2.10803E+01-9.84987E+01 1.55735E+04-7.17318E-09 3.94323E-09
 -1       964-1.95565E+05 2.03784E+01-1.18742E+02 1.27590E+04-2.08217E-09-1.25124E-09
 -1       965-1.95563E+05 2.31159E+01-2.04487E+02 1.55735E+04 2.38887E-09 1.69473E-09
 -1       966-1.95559E+05 2.60149E+01-3.83390E+02 1.27594E+04-1.74157E-09 3.23780E-10
 -1       967-1.95614E+05-6.72193E+00-7.86104E+02 1.55688E+04-2.33172E-10 5.71663E-09
 -1       968-1.95511E+05-6.39115E+01-1.53815E+03 1.27638E+04-1.15961E-10 2.32360E-09
 -1       969-1.96240E+05-8.82766E+02-3.41512E+03 1.55163E+04-9.26548E-11 2.65476E-09
 -1       970-1.94926E+05-2.63315E+03-6.65169E+03 1.28135E+04-2.65800E-10-2.76350E-09
 -1       971-1.85324E+05-9.80746E+02-5.46093E+03 9.11372E+03-3.56158E-09-9.21986E-10
 -1       972-1.86653E+05-7.03856E+02-2.97428E+03 1.27241E+04-2.80897E-09-6.75391E-09
 -1       973-1.85929E+05-6.11408E+00-1.33150E+03 9.03866E+03-3.40196E-09-1.99452E-09
 -1       974-1.86021E+05-7.44004E+00-6.89884E+02 1.28046E+04 1.14960E-09-2.59593E-09
 -1       975-1.85975E+05 1.81496E+01-3.43836E+02 9.03243E+03 6.82121E-11-3.27339E-09
 -1       976-1.85982E+05 1.99921E+01-1.96889E+02 1.28119E+04-3.46597E-09-3.09637E-09
 -1       977-1.85983E+05 1.71367E+01-1.40037E+02 9.03128E+03 7.68978E-10 3.26236E-09
 -1       978-1.85983E+05 2.24867E+01-1.60095E+02 1.28135E+04 6.01716E-09 7.13385E-10
 -1       979-1.85982E+05 2.10464E+01-2.53869E+02 9.03081E+03 3.86439E-09-2.25106E-09
 -1       980-1.86001E+05 2.38687E+01-4.88088E+02 1.28137E+04 4.05835E-09-2.62173E-09
 -1       981-1.85966E+05 3.32492E+01-9.44131E+02 9.03107E+03-4.80213E-10 1.33338E-09
 -1       982-1.86131E+05-4.54974E+01-1.95083E+03 1.28102E+04-7.23105E-10 1.35981E-09
 -1       983-1.85848E+05-2.65918E+01-3.78998E+03 9.03448E+03 2.62844E-09-1.40869E-09
 -1       984-1.87955E+05-2.02378E+03-8.48694E+03 1.27593E+04-1.68711E-09-1.21815E-09
 -1       985-1.84134E+05-2.79923E+03-1.55847E+04 9.08503E+03 3.29078E-09 2.44836E-09
 -3
    1PSTEP                         7           4           1          
  100CL  104 4.68750E-01         409                     0    4           1
 -4  DISP        4    1
 -5  D1          1    2    1    0
 -5  D2          1    2    2    0
 -5  D3          1    2    3    0
 -5  ALL         1    2    0    0    1ALL
 -1         1 1.29850E-04 0.00000E+00 0.00000E+00
 -1         2 1.19473E-04 3.30090E-30 1.65436E-24
 -1         3 1.09501E-04-6.62945E-28-6.61744E-24
 -1         5 7.76648E-05-1.80796E-27-3.30872E-24
 -1         8 1.05384E-04-8.89233E-07 0.00000E+00
 -1         9 1.06224E-04 4.88501E-07 0.00000E+00
 -1        10 1.01334E-04-1.49824E-06 3.30872E-24
 -1        12 7.71720E-05 5.12230E-07 0.00000E+00
 -1        15 7.62481E-05-9.81137E-07 0.00000E+00
 -1        16 7.88515E-05 3.28220E-07 0.00000E+00
 -1        17 7.52394E-05-3.16344E-06 0.00000E+00
 -1        18 7.47026E-05 7.19677E-07 0.00000E+00
 -1        19 7.56937E-05 1.02163E-06 0.00000E+00
 -1        20 7.58255E-05 1.46686E-05 0.00000E+00
 -1        21 7.53249E-05 2.76399E-05 0.00000E+00
 -1        24 1.86345E-05-4.29829E-06 0.00000E+00
 -1        25 7.31964E-05 8.37988E-07 0.00000E+00
 -1        26 7.41262E-05 1.42291E-06 0.00000E+00
 -1        27 7.27081E-05 1.23922E-05 0.00000E+00
 -1        28 7.22544E-05 2.72031E-05 0.00000E+00
 -1        32 0.00000E+00 0.00000E+00 0.00000E+00
 -1        33 7.13444E-05 1.90733E-06 0.00000E+00
 -1        34 6.99755E-05 1.23716E-05 0.00000E+00
 -1        35 6.86746E-05 2.69723E-05 0.00000E+00
 -1        51 1.28260E-04-1.46124E-07 0.00000E+00
 -1        52 1.25312E-04-2.88369E-07 0.00000E+00
 -1        53 1.21272E-04-4.32122E-07 0.00000E+00
 -1        54 1.16418E-04-5.78818E-07 3.30872E-24
 -1        55 1.11030E-04-7.29180E-07 2.68834E-24
 -1        56 1.28714E-04-7.45331E-07 0.00000E+00
 -1        57 1.27726E-04-2.01654E-06 0.00000E+00
 -1        58 1.26882E-04-3.66647E-06 0.00000E+00
 -1        59 1.26120E-04-5.55677E-06 0.00000E+00
 -1        60 1.25387E-04-7.52821E-06 0.00000E+00
 -1        61 1.24624E-04-9.42223E-06 0.00000E+00
 -1        62 1.23775E-04-1.10844E-05 0.00000E+00
 -1        63 1.22783E-04-1.23676E-05 0.00000E+00
 -1        64 1.21604E-04-1.31481E-05 0.00000E+00
 -1        65 1.20195E-04-1.33170E-05 0.00000E+00
 -1        66 1.18530E-04-1.28031E-05 0.00000E+00
 -1        67 1.16589E-04-1.15554E-05-1.32349E-23
 -1        68 1.14370E-04-9.56833E-06 0.00000E+00
 -1        69 1.11885E-04-6.85591E-06 0.00000E+00
 -1        70 1.09146E-04-3.48190E-06 0.00000E+00
 -1        86 1.19130E-04 8.94597E-08 0.00000E+00
 -1        87 1.18097E-04 1.77917E-07 0.00000E+00
 -1        88 1.16342E-04 2.65321E-07 0.00000E+00
 -1        89 1.13827E-04 3.47729E-07-4.13590E-25
 -1        90 1.10480E-04 4.28944E-07 0.00000E+00
 -1       121 1.09273E-04-2.48454E-07 6.61744E-24
 -1       122 1.08589E-04-4.97113E-07-3.30872E-24
 -1       123 1.07451E-04-7.46180E-07 6.61744E-24
 -1       124 1.05861E-04-9.95894E-07 0.00000E+00
 -1       125 1.03820E-04-1.24638E-06 0.00000E+00
 -1       191 7.76511E-05 8.53790E-08-3.30872E-24
 -1       192 7.76100E-05 1.70756E-07 1.65436E-24
 -1       193 7.75416E-05 2.56132E-07 0.00000E+00
 -1       194 7.74458E-05 3.41505E-07 0.00000E+00
 -1       195 7.73226E-05 4.26872E-07 0.00000E+00
 -1       251 1.05416E-04 3.14257E-06 0.00000E+00
 -1       252 1.05468E-04 5.55215E-06 0.00000E+00
 -1       253 1.05522E-04 6.60738E-06 0.00000E+00
 -1       254 1.05579E-04 6.57261E-06-4.13590E-25
 -1       255 1.05636E-04 5.67922E-06 1.65436E-24
 -1       256 1.05693E-04 4.15654E-06 8.27181E-25
 -1       257 1.05749E-04 2.21464E-06 0.00000E+00
 -1       258 1.05805E-04 6.25846E-08 0.00000E+00
 -1       259 1.05861E-04-2.09706E-06 0.00000E+00
 -1       260 1.05917E-04-4.06168E-06 8.27181E-25
 -1       261 1.05974E-04-5.62268E-06-1.65436E-24
 -1       262 1.06031E-04-6.57057E-06 0.00000E+00
 -1       263 1.06088E-04-6.67704E-06 0.00000E+00
 -1       264 1.06142E-04-5.71174E-06 8.27181E-25
 -1       265 1.06194E-04-3.41194E-06 0.00000E+00
 -1       266 1.00528E-04-9.16534E-07 6.61744E-24
 -1       267 9.56722E-05-9.30391E-07 1.65436E-24
 -1       268 9.08161E-05-9.45099E-07-1.65436E-24
 -1       269 8.59601E-05-9.57285E-07 0.00000E+00
 -1       270 8.11041E-05-9.69412E-07 0.00000E+00
 -1       271 1.02426E-04 2.77305E-06 0.00000E+00
 -1       272 9.98940E-05 5.17112E-06 1.32349E-23
 -1       273 9.77886E-05 6.44423E-06 0.00000E+00
 -1       274 9.60463E-05 6.73134E-06 0.00000E+00
 -1       275 9.46123E-05 6.19581E-06 5.29396E-23
 -1       276 9.34193E-05 5.01322E-06 2.64698E-23
 -1       277 9.23975E-05 3.37220E-06-5.29396E-23
 -1       278 9.14733E-05 1.46932E-06 0.00000E+00
 -1       279 9.05716E-05-4.93754E-07 5.29396E-23
 -1       280 8.96168E-05-2.31423E-06 0.00000E+00
 -1       281 8.85341E-05-3.79222E-06 5.29396E-23
 -1       282 8.72515E-05-4.73383E-06 0.00000E+00
 -1       283 8.56995E-05-4.95577E-06-5.29396E-23
 -1       284 8.38178E-05-4.28604E-06-2.64698E-23
 -1       285 8.15417E-05-2.57336E-06 0.00000E+00
 -1       301 1.01462E-04 4.54734E-07 0.00000E+00
 -1       302 9.67257E-05 4.36156E-07-1.65436E-24
 -1       303 9.20551E-05 4.18296E-07 0.00000E+00
 -1       304 8.74919E-05 3.99258E-07 0.00000E+00
 -1       305 8.30772E-05 3.78438E-07 1.32349E-23
 -1       306 1.03112E-04 3.56675E-06 0.00000E+00
 -1       307 1.00719E-04 4.56548E-06 0.00000E+00
 -1       308 9.91215E-05 3.45728E-06 5.29396E-23
 -1       309 9.82750E-05 3.06735E-07 2.64698E-23
 -1       310 9.79979E-05-4.37643E-06-5.29396E-23
 -1       311 9.80663E-05-9.99907E-06 2.64698E-23
 -1       312 9.81875E-05-1.57651E-05 5.29396E-23
 -1       313 9.80643E-05-2.08710E-05 0.00000E+00
 -1       314 9.74505E-05-2.46545E-05 0.00000E+00
 -1       315 9.61256E-05-2.65290E-05-2.64698E-23
 -1       316 9.40194E-05-2.63184E-05 0.00000E+00
 -1       317 9.11073E-05-2.39645E-05 2.64698E-23
 -1       318 8.75348E-05-1.98682E-05 0.00000E+00
 -1       319 8.35000E-05-1.45236E-05-2.64698E-23
 -1       320 7.92778E-05-8.70060E-06 0.00000E+00
 -1       336 9.83462E-05-1.77105E-06-6.61744E-24
 -1       337 9.48031E-05-2.04597E-06 0.00000E+00
 -1       338 9.07115E-05-2.32281E-06 6.61744E-24
 -1       339 8.60804E-05-2.60150E-06 0.00000E+00
 -1       340 8.09192E-05-2.88273E-06 6.61744E-24
 -1       406 7.69940E-05 5.97574E-07 0.00000E+00
 -1       407 7.67886E-05 6.82885E-07-1.65436E-24
 -1       408 7.65558E-05 7.68138E-07 0.00000E+00
 -1       409 7.62957E-05 8.53227E-07 0.00000E+00
 -1       410 7.60082E-05 9.37986E-07 0.00000E+00
 -1       521 7.74686E-05-4.76243E-06 0.00000E+00
 -1       522 8.16845E-05-2.56044E-05-5.29396E-23
 -1       523 9.01680E-05-5.86865E-05 0.00000E+00
 -1       524 1.01234E-04-9.94952E-05-5.29396E-23
 -1       525 1.12810E-04-1.41837E-04-1.05879E-22
 -1       526 1.22786E-04-1.79392E-04 0.00000E+00
 -1       527 1.29315E-04-2.06880E-04-1.05879E-22
 -1       528 1.30710E-04-2.19878E-04 0.00000E+00
 -1       529 1.26241E-04-2.17070E-04 0.00000E+00
 -1       530 1.15631E-04-1.98430E-04 0.00000E+00
 -1       531 9.99683E-05-1.67251E-04 1.05879E-22
 -1       532 8.08682E-05-1.27792E-04 0.00000E+00
 -1       533 6.07956E-05-8.60190E-05 1.05879E-22
 -1       534 4.23467E-05-4.80584E-05 0.00000E+00
 -1       535 2.76756E-05-1.92805E-05 5.29396E-23
 -1       536 7.51871E-05 2.26690E-06 0.00000E+00
 -1       537 7.51461E-05 6.68980E-06 8.27181E-25
 -1       538 7.51085E-05 1.00908E-05 1.65436E-24
 -1       539 7.50750E-05 1.24570E-05 0.00000E+00
 -1       540 7.50433E-05 1.38434E-05 0.00000E+00
 -1       541 7.50127E-05 1.43063E-05-4.13590E-25
 -1       542 7.49822E-05 1.39626E-05-8.27181E-25
 -1       543 7.49513E-05 1.29302E-05-4.13590E-25
 -1       544 7.49198E-05 1.13722E-05 0.00000E+00
 -1       545 7.48877E-05 9.45241E-06 0.00000E+00
 -1       546 7.48553E-05 7.35822E-06 0.00000E+00
 -1       547 7.48230E-05 5.27738E-06 4.13590E-25
 -1       548 7.47911E-05 3.39670E-06 0.00000E+00
 -1       549 7.47603E-05 1.90275E-06 2.06795E-25
 -1       550 7.47300E-05 9.56893E-07-6.46235E-27
 -1       551 6.77807E-05-3.33248E-06 0.00000E+00
 -1       552 5.88617E-05-3.50987E-06 3.30872E-24
 -1       553 4.89813E-05-3.69570E-06 6.61744E-24
 -1       554 3.86462E-05-3.88814E-06 0.00000E+00
 -1       555 2.83629E-05-4.08278E-06 0.00000E+00
 -1       556 7.32667E-05 1.94449E-06-1.32349E-23
 -1       557 7.17547E-05 5.86301E-06 0.00000E+00
 -1       558 7.06533E-05 8.70085E-06 0.00000E+00
 -1       559 6.99168E-05 1.05754E-05 0.00000E+00
 -1       560 6.94994E-05 1.16039E-05 1.32349E-23
 -1       561 6.93561E-05 1.19041E-05 0.00000E+00
 -1       562 6.94418E-05 1.15939E-05 0.00000E+00
 -1       563 6.97120E-05 1.07915E-05 0.00000E+00
 -1       564 7.01223E-05 9.61503E-06 0.00000E+00
 -1       565 7.06281E-05 8.18275E-06-1.65436E-24
 -1       566 7.11854E-05 6.61294E-06 0.00000E+00
 -1       567 7.17498E-05 5.02394E-06-4.13590E-25
 -1       568 7.22773E-05 3.53402E-06 0.00000E+00
 -1       569 7.27235E-05 2.26136E-06 0.00000E+00
 -1       570 7.30443E-05 1.32416E-06 0.00000E+00
 -1       571 7.47627E-05 7.76603E-07 8.27181E-25
 -1       572 7.48242E-05 7.92425E-07 4.13590E-25
 -1       573 7.48861E-05 7.74502E-07 8.27181E-25
 -1       574 7.49481E-05 7.30578E-07 4.13590E-25
 -1       575 7.50102E-05 6.68433E-07 1.65436E-24
 -1       576 7.50724E-05 5.95895E-07 0.00000E+00
 -1       577 7.51345E-05 5.20799E-07-1.65436E-24
 -1       578 7.51967E-05 4.50987E-07 1.65436E-24
 -1       579 7.52589E-05 3.94300E-07 0.00000E+00
 -1       580 7.53210E-05 3.58580E-07-3.30872E-24
 -1       581 7.53832E-05 3.51667E-07 0.00000E+00
 -1       582 7.54454E-05 3.81394E-07 0.00000E+00
 -1       583 7.55075E-05 4.55587E-07 0.00000E+00
 -1       584 7.55696E-05 5.81990E-07 0.00000E+00
 -1       585 7.56317E-05 7.68303E-07 0.00000E+00
 -1       586 7.44295E-05 7.40613E-07-8.27181E-25
 -1       587 7.41302E-05 7.61033E-07-2.06795E-25
 -1       588 7.38308E-05 7.81230E-07 0.00000E+00
 -1       589 7.35579E-05 8.01109E-07 0.00000E+00
 -1       590 7.33378E-05 8.20447E-07 0.00000E+00
 -1       591 7.46521E-05 8.08754E-07 1.55096E-25
 -1       592 7.46118E-05 8.64233E-07 0.00000E+00
 -1       593 7.45815E-05 8.92515E-07 0.00000E+00
 -1       594 7.45589E-05 8.99363E-07 2.06795E-25
 -1       595 7.45422E-05 8.90621E-07 0.00000E+00
 -1       596 7.45291E-05 8.72082E-07 0.00000E+00
 -1       597 7.45174E-05 8.49542E-07 0.00000E+00
 -1       598 7.45051E-05 8.28792E-07 0.00000E+00
 -1       599 7.44899E-05 8.15620E-07 0.00000E+00
 -1       600 7.44697E-05 8.15815E-07-2.06795E-25
 -1       601 7.44424E-05 8.35166E-07 0.00000E+00
 -1       602 7.44058E-05 8.79469E-07 0.00000E+00
 -1       603 7.43577E-05 9.54518E-07-4.13590E-25
 -1       604 7.42961E-05 1.06615E-06-1.03398E-25
 -1       605 7.42190E-05 1.22014E-06 0.00000E+00
 -1       606 7.57051E-05 1.41658E-06 0.00000E+00
 -1       607 7.57143E-05 1.89949E-06 0.00000E+00
 -1       608 7.57230E-05 2.46520E-06-3.30872E-24
 -1       609 7.57313E-05 3.10787E-06 0.00000E+00
 -1       610 7.57395E-05 3.82166E-06 3.30872E-24
 -1       611 7.57476E-05 4.60064E-06 0.00000E+00
 -1       612 7.57556E-05 5.43887E-06 0.00000E+00
 -1       613 7.57635E-05 6.33041E-06 0.00000E+00
 -1       614 7.57715E-05 7.26932E-06 0.00000E+00
 -1       615 7.57794E-05 8.24964E-06 0.00000E+00
 -1       616 7.57872E-05 9.26545E-06 0.00000E+00
 -1       617 7.57950E-05 1.03108E-05 0.00000E+00
 -1       618 7.58028E-05 1.13797E-05 0.00000E+00
 -1       619 7.58105E-05 1.24663E-05 0.00000E+00
 -1       620 7.58182E-05 1.35646E-05 0.00000E+00
 -1       621 7.53865E-05 1.08855E-06 1.65436E-24
 -1       622 7.51050E-05 1.15581E-06 0.00000E+00
 -1       623 7.48437E-05 1.22305E-06-1.65436E-24
 -1       624 7.45971E-05 1.29019E-06 0.00000E+00
 -1       625 7.43598E-05 1.35721E-06 0.00000E+00
 -1       626 7.56172E-05 1.43770E-06 3.30872E-24
 -1       627 7.55140E-05 1.92650E-06 0.00000E+00
 -1       628 7.53861E-05 2.48125E-06 0.00000E+00
 -1       629 7.52363E-05 3.09473E-06 0.00000E+00
 -1       630 7.50671E-05 3.75971E-06 0.00000E+00
 -1       631 7.48813E-05 4.46893E-06 3.30872E-24
 -1       632 7.46817E-05 5.21508E-06 0.00000E+00
 -1       633 7.44709E-05 5.99091E-06 0.00000E+00
 -1       634 7.42517E-05 6.78914E-06 0.00000E+00
 -1       635 7.40268E-05 7.60247E-06 1.65436E-24
 -1       636 7.37989E-05 8.42365E-06 1.65436E-24
 -1       637 7.35708E-05 9.24539E-06 8.27181E-25
 -1       638 7.33452E-05 1.00604E-05-1.65436E-24
 -1       639 7.31246E-05 1.08614E-05 0.00000E+00
 -1       640 7.29118E-05 1.16412E-05 0.00000E+00
 -1       656 7.49118E-05 1.42982E-05 6.61744E-24
 -1       657 7.43288E-05 1.39130E-05 0.00000E+00
 -1       658 7.39513E-05 1.35290E-05 6.61744E-24
 -1       659 7.36506E-05 1.31454E-05 0.00000E+00
 -1       660 7.32836E-05 1.27605E-05 0.00000E+00
 -1       661 7.54879E-05 1.57495E-05 0.00000E+00
 -1       662 7.51713E-05 1.67823E-05 0.00000E+00
 -1       663 7.48720E-05 1.77684E-05 0.00000E+00
 -1       664 7.45900E-05 1.87101E-05 0.00000E+00
 -1       665 7.43239E-05 1.96093E-05 0.00000E+00
 -1       666 7.40732E-05 2.04681E-05 8.27181E-25
 -1       667 7.38369E-05 2.12883E-05 0.00000E+00
 -1       668 7.36145E-05 2.20717E-05 0.00000E+00
 -1       669 7.34053E-05 2.28201E-05 1.65436E-24
 -1       670 7.32086E-05 2.35350E-05 8.27181E-25
 -1       671 7.30238E-05 2.42181E-05-1.65436E-24
 -1       672 7.28504E-05 2.48707E-05 0.00000E+00
 -1       673 7.26877E-05 2.54944E-05-1.65436E-24
 -1       674 7.25348E-05 2.60903E-05 8.27181E-25
 -1       675 7.23919E-05 2.66600E-05 0.00000E+00
 -1       676 7.48119E-05 2.75666E-05 0.00000E+00
 -1       677 7.42991E-05 2.74934E-05 0.00000E+00
 -1       678 7.37867E-05 2.74203E-05 0.00000E+00
 -1       679 7.32750E-05 2.73473E-05 0.00000E+00
 -1       680 7.27642E-05 2.72744E-05-1.65436E-24
 -1       771 1.47360E-05 3.21750E-06 0.00000E+00
 -1       772 1.13480E-05 9.37382E-06-1.32349E-23
 -1       773 8.44927E-06 1.42455E-05 2.64698E-23
 -1       774 6.00745E-06 1.79127E-05 0.00000E+00
 -1       775 3.99064E-06 2.04575E-05-2.64698E-23
 -1       776 2.36554E-06 2.19648E-05-1.32349E-23
 -1       777 1.09840E-06 2.25216E-05 0.00000E+00
 -1       778 1.54750E-07 2.22172E-05 0.00000E+00
 -1       779-5.00166E-07 2.11424E-05-2.64698E-23
 -1       780-9.01728E-07 1.93901E-05-1.32349E-23
 -1       781-1.08545E-06 1.70543E-05-2.64698E-23
 -1       782-1.08732E-06 1.42307E-05-1.32349E-23
 -1       783-9.43427E-07 1.10156E-05 0.00000E+00
 -1       784-6.90105E-07 7.50668E-06 1.32349E-23
 -1       785-3.63820E-07 3.80183E-06 2.64698E-23
 -1       786 7.32512E-05 8.01995E-07 4.13590E-25
 -1       787 7.33091E-05 7.71705E-07 0.00000E+00
 -1       788 7.33669E-05 7.46719E-07 0.00000E+00
 -1       789 7.34252E-05 7.26649E-07 8.27181E-25
 -1       790 7.34836E-05 7.11771E-07 0.00000E+00
 -1       791 7.35422E-05 7.02375E-07 0.00000E+00
 -1       792 7.36007E-05 6.99489E-07 0.00000E+00
 -1       793 7.36592E-05 7.04161E-07-8.27181E-25
 -1       794 7.37178E-05 7.18454E-07 1.65436E-24
 -1       795 7.37764E-05 7.44461E-07 0.00000E+00
 -1       796 7.38349E-05 7.85853E-07 0.00000E+00
 -1       797 7.38934E-05 8.46340E-07 0.00000E+00
 -1       798 7.39519E-05 9.32212E-07 1.65436E-24
 -1       799 7.40103E-05 1.04982E-06 0.00000E+00
 -1       800 7.40687E-05 1.20981E-06 1.65436E-24
 -1       801 6.82490E-05 7.87576E-07-1.65436E-24
 -1       802 5.34484E-05 6.42112E-07 1.65436E-24
 -1       803 3.40211E-05 4.24603E-07-3.30872E-24
 -1       804 1.52016E-05 2.11534E-07-3.30872E-24
 -1       805 2.14430E-06 8.36279E-08 0.00000E+00
 -1       806 7.31382E-05 7.60741E-07 0.00000E+00
 -1       807 7.30767E-05 6.84446E-07-8.27181E-25
 -1       808 7.30125E-05 6.13622E-07 0.00000E+00
 -1       809 7.29446E-05 5.52093E-07 0.00000E+00
 -1       810 7.28716E-05 5.03674E-07-1.65436E-24
 -1       811 7.27923E-05 4.72122E-07 8.27181E-25
 -1       812 7.27052E-05 4.61190E-07 1.65436E-24
 -1       813 7.26090E-05 4.74621E-07 0.00000E+00
 -1       814 7.25022E-05 5.16157E-07-1.65436E-24
 -1       815 7.23835E-05 5.89536E-07 0.00000E+00
 -1       816 7.22515E-05 6.98492E-07-1.65436E-24
 -1       817 7.21047E-05 8.46760E-07 0.00000E+00
 -1       818 7.19418E-05 1.03807E-06 1.65436E-24
 -1       819 7.17615E-05 1.27614E-06 0.00000E+00
 -1       820 7.15624E-05 1.56468E-06-8.27181E-25
 -1       821 7.40427E-05 1.65622E-06 0.00000E+00
 -1       822 7.39542E-05 1.87754E-06 8.27181E-25
 -1       823 7.38659E-05 2.12659E-06 1.65436E-24
 -1       824 7.37767E-05 2.44297E-06 0.00000E+00
 -1       825 7.36873E-05 2.85381E-06 0.00000E+00
 -1       826 7.35978E-05 3.38586E-06 1.65436E-24
 -1       827 7.35081E-05 4.04339E-06 0.00000E+00
 -1       828 7.34184E-05 4.83020E-06 0.00000E+00
 -1       829 7.33285E-05 5.72610E-06-3.30872E-24
 -1       830 7.32386E-05 6.71048E-06 0.00000E+00
 -1       831 7.31487E-05 7.74636E-06 0.00000E+00
 -1       832 7.30589E-05 8.79650E-06 1.65436E-24
 -1       833 7.29692E-05 9.82104E-06 0.00000E+00
 -1       834 7.28806E-05 1.07802E-05 8.27181E-25
 -1       835 7.27917E-05 1.16464E-05 0.00000E+00
 -1       836 7.37984E-05 1.50356E-06 0.00000E+00
 -1       837 7.33642E-05 1.58599E-06-8.27181E-25
 -1       838 7.28625E-05 1.66826E-06 0.00000E+00
 -1       839 7.23325E-05 1.75000E-06 0.00000E+00
 -1       840 7.18135E-05 1.83162E-06 2.06795E-25
 -1       856 7.26830E-05 1.31297E-05 2.06795E-25
 -1       857 7.26550E-05 1.39645E-05 0.00000E+00
 -1       858 7.26271E-05 1.48811E-05 0.00000E+00
 -1       859 7.25986E-05 1.58643E-05 0.00000E+00
 -1       860 7.25700E-05 1.68986E-05 0.00000E+00
 -1       861 7.25413E-05 1.79684E-05 0.00000E+00
 -1       862 7.25125E-05 1.90582E-05 0.00000E+00
 -1       863 7.24837E-05 2.01525E-05 0.00000E+00
 -1       864 7.24550E-05 2.12355E-05 0.00000E+00
 -1       865 7.24262E-05 2.22919E-05 4.13590E-25
 -1       866 7.23975E-05 2.33061E-05-8.27181E-25
 -1       867 7.23688E-05 2.42624E-05 0.00000E+00
 -1       868 7.23402E-05 2.51456E-05 8.27181E-25
 -1       869 7.23116E-05 2.59403E-05 0.00000E+00
 -1       870 7.22831E-05 2.66312E-05 0.00000E+00
 -1       871 7.21538E-05 1.23914E-05 4.13590E-25
 -1       872 7.16930E-05 1.23887E-05 0.00000E+00
 -1       873 7.12855E-05 1.23856E-05 0.00000E+00
 -1       874 7.08905E-05 1.23820E-05-1.03398E-25
 -1       875 7.04673E-05 1.23780E-05 6.20385E-25
 -1       876 7.25166E-05 1.31379E-05 0.00000E+00
 -1       877 7.23092E-05 1.39308E-05 0.00000E+00
 -1       878 7.20863E-05 1.47654E-05 0.00000E+00
 -1       879 7.18501E-05 1.56362E-05 1.65436E-24
 -1       880 7.16022E-05 1.65379E-05-3.30872E-24
 -1       881 7.13448E-05 1.74652E-05 1.65436E-24
 -1       882 7.10798E-05 1.84128E-05 3.30872E-24
 -1       883 7.08092E-05 1.93753E-05 0.00000E+00
 -1       884 7.05349E-05 2.03474E-05 0.00000E+00
 -1       885 7.02591E-05 2.13237E-05 1.65436E-24
 -1       886 6.99836E-05 2.22991E-05 0.00000E+00
 -1       887 6.97103E-05 2.32681E-05 8.27181E-25
 -1       888 6.94414E-05 2.42254E-05 0.00000E+00
 -1       889 6.91784E-05 2.51657E-05 0.00000E+00
 -1       890 6.89233E-05 2.60835E-05 8.27181E-25
 -1       891 7.17636E-05 2.71645E-05-8.27181E-25
 -1       892 7.12561E-05 2.71258E-05 0.00000E+00
 -1       893 7.07127E-05 2.70871E-05 0.00000E+00
 -1       894 7.01140E-05 2.70484E-05 0.00000E+00
 -1       895 6.94410E-05 2.70098E-05 2.06795E-25
 -1       956 7.12604E-05 2.36044E-06 0.00000E+00
 -1       957 7.11751E-05 2.86843E-06-1.65436E-24
 -1       958 7.10895E-05 3.42558E-06 0.00000E+00
 -1       959 7.10037E-05 4.02583E-06 1.65436E-24
 -1       960 7.09179E-05 4.66312E-06 1.65436E-24
 -1       961 7.08320E-05 5.33135E-06 0.00000E+00
 -1       962 7.07461E-05 6.02441E-06 3.30872E-24
 -1       963 7.06602E-05 6.73619E-06 8.27181E-25
 -1       964 7.05743E-05 7.46059E-06-3.30872E-24
 -1       965 7.04884E-05 8.19148E-06 0.00000E+00
 -1       966 7.04024E-05 8.92276E-06-3.30872E-24
 -1       967 7.03166E-05 9.64833E-06 0.00000E+00
 -1       968 7.02307E-05 1.03621E-05 0.00000E+00
 -1       969 7.01451E-05 1.10579E-05-1.65436E-24
 -1       970 7.00596E-05 1.17297E-05 0.00000E+00
 -1       971 6.98952E-05 1.30315E-05 0.00000E+00
 -1       972 6.98139E-05 1.37636E-05 8.27181E-25
 -1       973 6.97324E-05 1.45598E-05 1.65436E-24
 -1       974 6.96507E-05 1.54120E-05 0.00000E+00
 -1       975 6.95690E-05 1.63117E-05 1.65436E-24
 -1       976 6.94872E-05 1.72507E-05 8.27181E-25
 -1       977 6.94054E-05 1.82207E-05 1.65436E-24
 -1       978 6.93235E-05 1.92133E-05-1.65436E-24
 -1       979 6.92416E-05 2.02203E-05 0.00000E+00
 -1       980 6.91598E-05 2.12334E-05 0.00000E+00
 -1       981 6.90780E-05 2.22441E-05 0.00000E+00
 -1       982 6.89962E-05 2.32442E-05 0.00000E+00
 -1       983 6.89146E-05 2.42254E-05 3.30872E-24
 -1       984 6.88333E-05 2.51793E-05 8.27181E-25
 -1       985 6.87524E-05 2.60976E-05 0.00000E+00
 -3
    1PSTEP                         8           4           1          
  100CL  104 4.68750E-01         409                     0    4           1
 -4  STRESS      6    1
 -5  SXX         1    4    1    1
 -5  SYY         1    4    2    2
 -5  SZZ         1    4    3    3
 -5  SXY         1    4    1    2
 -5  SYZ         1    4    2    3
 -5  SZX         1    4    3    1
 -1         1-1.65496E+06-7.52099E+05-3.40062E+05-1.05108E+06 3.31056E-10-4.26371E-09
 -1         2 2.69801E+03 2.59720E+05 8.84278E+03 7.59398E+02-1.19712E-10-4.89791E-09
 -1         3-8.68439E+01-7.09729E+05 1.65729E+02-2.57404E+02-1.13713E-10-1.06556E-08
 -1         5-5.95531E+00 2.44302E+05 6.40134E+00 1.11058E-01 9.47825E-11 1.13737E-08
 -1         8-7.80656E+05-3.32328E+05-3.26925E+04-5.67098E+05-1.83718E-10 6.33736E-09
 -1         9-1.46209E+06-3.91362E+05-1.63145E+05-4.85776E+05 2.83471E-09-8.03266E-10
 -1        10-5.75425E+02-7.39388E+05-9.84261E+02-1.73679E+03-3.63525E-09-1.54617E-08
 -1        12-3.33232E+00 2.44315E+05 2.07585E+02 1.00635E+00 2.28454E-10 1.46429E-09
 -1        15 1.98546E+03 1.09113E+03 6.41799E+03 4.16930E+00-6.52847E-11-1.62174E-09
 -1        16-3.50718E+06-1.22481E+06-5.54760E+05-1.25904E+06 1.10983E-08-2.52233E-09
 -1        17-9.47801E+05-5.42677E+05-1.90249E+05-4.91042E+05-1.79774E-08 8.14907E-10
 -1        18 8.31527E+03-2.29868E+03-1.65979E+04-5.80752E+04 7.30779E-10-5.94719E-09
 -1        19 7.65445E+04 9.12114E+04-4.37466E+02 1.49553E+04-5.58248E-10 2.70302E-09
 -1        20-3.21519E+04-3.61637E+05-7.97855E+04 2.65175E+04 2.72894E-09 7.61550E-10
 -1        21-3.40911E+01-2.09299E+05-6.75758E+02-7.36462E+01-7.03163E-09-3.87484E-09
 -1        24-3.26507E+06-1.00708E+06-4.49869E+05-1.23834E+06-2.08893E-08-1.02979E-08
 -1        25 2.41688E+04-2.71531E+04 1.15129E+04-1.04937E+05 3.53793E-10 8.17781E-09
 -1        26-1.79320E+04 6.22367E+04-1.23799E+04-8.81882E+03 1.36461E-09 8.15298E-09
 -1        27-5.77830E+04-1.98370E+05-7.44068E+04 4.47030E+04 4.98699E-09-2.76062E-09
 -1        28 1.62015E+04-5.78377E+04 1.18244E+04 1.84854E+04 2.73138E-09 4.45368E-10
 -1        32-7.81496E+05-1.67988E+05 3.22177E+05-5.24623E+05-1.63855E-08 1.09715E-08
 -1        33-1.13485E+05 5.82991E+04 2.06694E+04-3.37481E+04 1.07044E-09 3.55021E-09
 -1        34-1.47242E+05-1.46670E+04 3.46012E+02 4.53119E+04 3.55746E-09-5.06589E-10
 -1        35-1.64758E+04-2.29860E+04-9.00873E+02 3.64589E+04 4.86773E-09 8.99793E-10
 -1        51 1.39357E+04-3.68196E+05 3.61557E+04-9.33685E+05 1.45519E-10-1.07830E-08
 -1        52 8.80970E+03-3.67230E+05 2.42345E+04-1.08899E+06 6.33008E-10-3.73257E-09
 -1        53 6.66723E+03-3.79595E+05 2.09958E+04-9.30439E+05 3.20142E-10-6.83940E-10
 -1        54 1.91415E+04-3.78291E+05 3.41234E+04-1.09237E+06-8.00355E-11-2.44181E-08
 -1        55 3.80277E+04-3.91315E+05 6.11868E+04-9.29918E+05 2.03727E-10-9.05857E-10
 -1        56-3.17640E+06-3.57681E+05-2.49861E+05-1.22429E+06-1.45519E-09 6.50471E-09
 -1        57-3.27450E+06-5.86002E+05-1.68422E+05-1.21717E+06-1.98634E-09 1.84809E-09
 -1        58-3.22730E+06-4.36105E+05-5.87875E+04-1.20773E+06-1.95450E-09 2.15368E-09
 -1        59-3.21554E+06-4.94067E+05-3.50915E+04-1.23706E+06 9.56447E-10-7.19092E-09
 -1        60-3.23484E+06-4.46920E+05-1.37258E+04-1.20536E+06 8.09450E-10 6.69388E-10
 -1        61-3.20815E+06-4.79994E+05-7.79615E+03-1.23817E+06-4.20187E-10 8.73456E-09
 -1        62-3.23455E+06-4.49853E+05-3.76213E+03-1.20670E+06 2.89856E-09 3.16123E-09
 -1        63-3.21116E+06-4.74095E+05-3.05272E+03-1.23335E+06-1.47702E-09-4.55418E-09
 -1        64-3.23169E+06-4.52857E+05-3.54634E+03-1.21010E+06 9.23592E-10-3.22143E-09
 -1        65-3.21881E+06-4.68542E+05-7.00096E+03-1.22505E+06 7.00311E-11 8.36735E-11
 -1        66-3.22679E+06-4.55520E+05-1.24112E+04-1.21491E+06-1.81899E-10 5.51972E-09
 -1        67-3.23450E+06-4.71956E+05-3.13977E+04-1.21349E+06 9.55254E-10 2.05455E-09
 -1        68-3.21606E+06-4.49781E+05-5.27763E+04-1.22153E+06 1.26602E-09 5.18412E-09
 -1        69-3.29363E+06-5.48346E+05-1.50945E+05-1.18902E+06 1.40199E-09 5.79894E-09
 -1        70-3.16829E+06-3.81457E+05-2.24031E+05-1.23862E+06-8.36735E-11 3.56522E-09
 -1        86-1.35555E+03 2.56834E+05 9.44101E+03-3.79727E+02 1.14960E-09-1.64488E-09
 -1        87 8.98811E+03 2.62817E+05 1.97444E+04 1.56987E+03 1.91449E-09-4.59724E-09
 -1        88-7.62914E+03 2.53741E+05 3.01754E+04-1.19022E+03 2.87946E-09-3.14384E-09
 -1        89 5.68483E+04 2.85211E+05 8.14590E+04 3.43004E+03 4.39377E-09-3.68686E-10
 -1        90-4.90640E+04 2.34465E+05 1.14993E+05-2.23936E+03 5.02769E-09 3.47734E-09
 -1       121-1.36398E+02-7.10118E+05 1.31367E+02 1.28542E+02 3.73262E-10-4.69117E-09
 -1       122-3.16648E+01-7.09695E+05 3.58674E+02-5.14637E+02-1.37287E-09 1.97906E-09
 -1       123-1.74322E+02-7.10157E+05 5.53344E+02 3.85146E+02 1.18558E-09 1.64146E-08
 -1       124 6.32556E+02-7.09298E+05 1.49656E+03-1.15259E+03-2.46700E-09 5.48789E-09
 -1       125-6.01431E+02-7.10532E+05 2.26626E+03 7.66122E+02 1.66528E-09-6.79393E-09
 -1       191-6.46377E+00 2.44323E+05 7.58435E+00-5.62408E-02 1.54196E-10-8.74479E-10
 -1       192-6.54414E+00 2.44302E+05 1.35570E+01 6.68504E-01 2.37785E-10-6.69411E-09
 -1       193-8.02907E+00 2.44322E+05 2.51472E+01-6.17054E-01 2.61250E-10-4.02861E-09
 -1       194-8.43890E+00 2.44304E+05 5.12872E+01 1.64704E+00 1.21464E-10-4.92855E-09
 -1       195-1.10372E+01 2.44321E+05 1.00255E+02-1.04245E+00 3.77653E-10-1.26470E-08
 -1       251 1.45739E+05-4.23676E+04 9.87615E+04 4.13580E+03-4.99085E-10 1.43482E-08
 -1       252 1.91701E+05 4.89886E+04 7.02341E+04-1.41251E+04-2.56705E-10 5.92718E-09
 -1       253 1.62965E+05-6.56009E+03 2.55442E+04 3.03467E+03-5.97311E-10 1.13141E-08
 -1       254 1.71290E+05 7.57019E+03 1.62215E+04-1.24021E+04 3.45636E-10 1.04883E-08
 -1       255 1.66033E+05-1.01316E+03 6.60231E+03 2.41293E+03-7.27027E-11 8.20205E-09
 -1       256 1.67569E+05 1.20747E+03 4.04262E+03-1.14815E+04 7.22707E-10 4.98352E-09
 -1       257 1.66632E+05-1.77820E+02 2.08961E+03 2.11403E+03 5.84606E-10 7.45206E-09
 -1       258 1.66956E+05 3.92602E+02 1.88171E+03-1.11770E+04 1.49092E-10-8.98055E-11
 -1       259 1.66628E+05-1.88256E+02 2.18836E+03 2.10850E+03 3.07764E-10-5.11477E-10
 -1       260 1.67605E+05 1.29907E+03 4.32311E+03-1.14602E+04 1.08535E-09-5.88625E-09
 -1       261 1.65999E+05-1.09319E+03 7.11553E+03 2.39713E+03 1.80523E-09 5.87170E-09
 -1       262 1.71561E+05 8.17439E+03 1.74873E+04-1.23573E+04 8.39975E-10 3.25053E-09
 -1       263 1.62726E+05-7.08043E+03 2.75866E+04 3.00560E+03-4.48836E-10 1.30622E-08
 -1       264 1.93474E+05 5.28844E+04 7.57813E+04-1.40602E+04-2.33672E-09-7.78527E-10
 -1       265 1.44203E+05-4.57254E+04 1.06656E+05 4.09993E+03-1.52454E-09 1.05647E-08
 -1       266-3.59423E+04-1.68040E+04 8.43433E+04-8.92215E+01 3.27418E-11 1.89215E-09
 -1       267 4.16682E+04 1.95895E+04 5.96063E+04 1.02930E+02 8.82210E-11-5.22823E-09
 -1       268-5.58758E+03-2.77419E+03 2.21558E+04-1.31158E+01 6.27551E-11-4.20120E-09
 -1       269 6.59736E+03 3.32036E+03 1.44005E+04 1.52771E+01-1.45519E-11 6.76671E-09
 -1       270-9.90270E+02-5.45551E+02 6.95136E+03-2.07325E+00-5.70708E-11 7.35845E-10
 -1       271-3.52037E+06-4.40445E+05-2.71004E+05-1.37300E+06 3.31056E-10 4.24916E-09
 -1       272-3.60262E+06-6.52696E+05-1.74184E+05-1.38707E+06-5.64796E-10-2.99769E-09
 -1       273-3.57308E+06-5.06196E+05-6.40236E+04-1.35897E+06 4.75666E-10-3.92538E-09
 -1       274-3.54049E+06-5.72678E+05-3.57856E+04-1.40912E+06 2.84081E-09 6.19184E-09
 -1       275-3.58196E+06-5.11260E+05-1.48958E+04-1.35481E+06-2.00089E-11 2.87309E-09
 -1       276-3.52981E+06-5.67034E+05-7.88989E+03-1.41599E+06 1.43518E-09-2.08297E-09
 -1       277-3.58434E+06-5.10481E+05-3.86185E+03-1.35294E+06 1.92813E-09 1.02150E-08
 -1       278-3.52750E+06-5.67714E+05-2.79536E+03-1.41836E+06 2.50702E-09-2.05159E-09
 -1       279-3.58459E+06-5.10291E+05-2.99107E+03-1.35271E+06-1.64164E-09-1.61504E-09
 -1       280-3.52879E+06-5.67407E+05-5.47745E+03-1.41706E+06 1.10822E-09-2.03295E-09
 -1       281-3.58287E+06-5.10954E+05-1.00395E+04-1.35409E+06-1.90676E-09 2.89492E-09
 -1       282-3.53651E+06-5.70472E+05-2.39437E+04-1.41155E+06-5.59794E-10 6.79756E-09
 -1       283-3.57634E+06-5.08229E+05-4.28160E+04-1.35755E+06 2.15550E-10-5.78439E-09
 -1       284-3.57936E+06-6.22321E+05-1.16333E+05-1.39479E+06 5.31941E-10-6.91762E-09
 -1       285-3.54010E+06-4.65449E+05-1.81169E+05-1.36808E+06 1.85537E-10-4.74392E-09
 -1       301 1.44639E+04-1.94810E+04 1.10225E+05-4.92621E+04-9.67702E-10-1.59707E-09
 -1       302 1.55905E+04 8.37886E+03 7.89165E+04-7.25342E+04 1.70257E-09 1.53032E-08
 -1       303 9.04462E+02-9.45255E+03 7.16078E+04-4.93676E+04-9.11314E-10 1.11322E-09
 -1       304 2.79745E+04 1.99470E+04 1.19336E+05-7.22826E+04 1.09139E-09 4.29463E-09
 -1       305 2.75514E+04-3.07478E+04 1.99686E+05-4.94411E+04-5.60249E-10-1.13414E-09
 -1       306-4.35138E+06-5.01881E+05-3.39840E+05-1.70756E+06 2.24099E-09-3.65253E-09
 -1       307-4.53057E+06-7.86577E+05-2.31907E+05-1.63909E+06-1.86083E-09-4.39104E-09
 -1       308-4.44283E+06-5.95101E+05-8.01067E+04-1.65915E+06 1.66892E-09-3.76895E-09
 -1       309-4.41298E+06-6.91245E+05-4.83263E+04-1.71120E+06 3.17300E-10-4.51746E-09
 -1       310-4.46882E+06-5.95299E+05-1.87009E+04-1.63622E+06-1.75368E-09-3.33239E-09
 -1       311-4.38444E+06-6.89496E+05-1.08647E+04-1.73687E+06 4.30373E-09 1.03955E-09
 -1       312-4.47177E+06-5.96220E+05-5.29810E+03-1.63393E+06-8.60450E-09-7.54727E-09
 -1       313-4.39428E+06-6.73998E+05-4.44228E+03-1.72164E+06-8.03880E-09-6.08861E-09
 -1       314-4.45855E+06-6.11069E+05-6.10867E+03-1.65114E+06 4.92037E-10-3.80442E-09
 -1       315-4.43139E+06-6.39343E+05-1.14170E+04-1.67700E+06 3.53793E-10 7.37145E-09
 -1       316-4.43406E+06-6.31353E+05-2.13737E+04-1.67811E+06 3.13548E-10 8.32733E-09
 -1       317-4.48877E+06-6.19539E+05-5.41192E+04-1.62514E+06-2.28960E-09-1.92813E-09
 -1       318-4.40165E+06-6.30902E+05-8.94093E+04-1.70319E+06-1.02609E-08-4.42014E-09
 -1       319-4.60489E+06-7.46864E+05-2.60766E+05-1.57000E+06-1.10940E-08 1.03319E-09
 -1       320-4.31933E+06-5.05281E+05-3.80381E+05-1.73331E+06-1.44428E-08 8.11997E-09
 -1       336 4.97317E+02-7.68743E+05-4.20274E+03 9.68323E+02-6.94945E-09-2.88492E-09
 -1       337-1.53544E+03-7.69763E+05-4.65471E+03-2.46271E+03-1.28166E-08-1.96178E-09
 -1       338 3.37240E+02-7.68846E+05-5.99161E+03 1.48882E+03-9.03970E-09-3.37241E-09
 -1       339-6.21751E+03-7.72675E+05-1.31426E+04-3.48901E+03-1.64030E-08 2.51976E-09
 -1       340 4.18867E+03-7.65907E+05-2.03092E+04 1.98714E+03-1.09940E-08 4.49836E-09
 -1       406 1.24572E+01 2.44311E+05 4.09756E+02 1.76735E-02 5.31912E-10-6.65023E-09
 -1       407 1.39568E+02 2.44387E+05 8.71030E+02-8.14924E+00 1.20082E-10-2.77500E-08
 -1       408 4.44988E+02 2.44248E+05 1.73954E+03 8.28508E+00 5.72982E-10-1.17357E-08
 -1       409 1.87791E+03 2.44943E+05 3.91637E+03-7.95812E+01-1.45292E-10-3.35240E-09
 -1       410 5.40152E+03 2.43754E+05 7.99506E+03 7.42422E+01 5.58430E-10 5.39103E-09
 -1       521-7.45649E+06-7.72112E+05-5.80622E+05-2.72092E+06 2.83035E-09 2.61934E-10
 -1       522-7.03146E+06-1.64360E+06-3.45221E+05-3.16532E+06-3.33330E-08-3.53975E-09
 -1       523-7.67543E+06-7.41300E+05-1.33704E+05-2.44436E+06 4.85488E-09-1.95796E-08
 -1       524-6.84112E+06-1.63213E+06-7.12980E+04-3.51657E+06 4.53369E-08-3.64262E-08
 -1       525-7.69959E+06-7.40341E+05-2.99607E+04-2.40829E+06 3.17104E-08-2.43929E-08
 -1       526-6.85667E+06-1.48174E+06 1.45527E+03-3.32473E+06 1.22945E-08-1.67529E-09
 -1       527-7.62290E+06-9.17716E+05-3.48049E+04-2.61126E+06 1.03610E-08 1.00281E-08
 -1       528-7.10907E+06-1.08943E+06 3.12382E+04-2.78959E+06 7.15227E-09-9.31323E-10
 -1       529-7.39278E+06-1.17130E+06-4.13124E+04-2.90198E+06-3.82715E-09 3.17596E-09
 -1       530-7.65005E+06-6.33763E+05 9.63125E+03-2.31968E+06-5.31800E-08 2.78560E-08
 -1       531-7.11595E+06-1.34866E+06-3.65540E+04-3.10375E+06-4.57730E-08 2.65936E-09
 -1       532-8.05726E+06-4.12546E+05-7.00837E+04-2.12344E+06 4.02888E-08-3.29846E-08
 -1       533-7.04063E+06-1.35451E+06-1.26193E+05-3.14241E+06 1.22127E-08-5.93936E-08
 -1       534-7.99019E+06-7.35291E+05-3.49400E+05-2.16962E+06-1.65637E-08 4.61114E-08
 -1       535-7.15650E+06-1.04962E+06-5.67720E+05-3.03322E+06-1.15106E-08 3.15777E-08
 -1       536-9.55160E+04-1.77884E+04 4.09494E+04-5.12107E+02-1.34204E-09 1.15888E-08
 -1       537-7.61834E+04 2.05898E+04 2.92445E+04-2.08794E+02-9.17954E-09 9.26957E-09
 -1       538-8.86752E+04-2.79837E+03 1.05141E+04-1.58777E+02 8.47535E-10 9.24047E-10
 -1       539-8.42678E+04 3.22993E+03 6.84228E+03-9.52510E+02 4.80642E-09 4.90013E-09
 -1       540-8.74376E+04-4.41720E+02 2.60723E+03 2.31618E+02 1.17572E-09 2.67914E-09
 -1       541-8.58885E+04 5.00115E+02 1.65862E+03-1.66860E+03-8.55380E-10-9.35103E-09
 -1       542-8.70626E+04-6.51801E+01 5.73019E+02 5.57272E+02 7.49182E-10-5.98118E-09
 -1       543-8.64835E+04 4.66957E+01 2.87313E+02-2.20654E+03 3.18394E-11 3.30687E-10
 -1       544-8.68517E+04 1.80474E+01-9.82623E+01 7.69558E+02-4.18815E-10-8.82898E-09
 -1       545-8.68414E+04-1.81121E+02-4.94964E+02-2.48935E+03-7.24917E-10-4.28616E-09
 -1       546-8.67106E+04 1.66881E+02-9.79453E+02 8.40103E+02 9.41245E-10 1.53193E-09
 -1       547-8.73389E+04-1.21559E+03-2.49089E+03-2.47931E+03-3.01775E-09-1.28910E-09
 -1       548-8.63541E+04 1.05159E+03-4.02296E+03 7.59514E+02-2.53365E-09-5.72504E-09
 -1       549-9.01090E+04-7.74894E+03-1.09201E+04-2.17300E+03-1.68572E-09-5.02678E-09
 -1       550-8.39344E+04 6.69049E+03-1.55855E+04 5.33771E+02 1.35444E-10-2.09820E-09
 -1       551 8.56843E+03-3.94273E+05 2.10726E+04-6.65937E+05-2.98714E-08-6.73026E-09
 -1       552 1.88372E+04-3.97138E+05 2.79624E+04-9.47902E+05-2.40470E-08 5.14046E-09
 -1       553 1.28036E+04-4.02411E+05 4.33550E+04-6.63644E+05-3.78641E-08 4.89308E-09
 -1       554 4.12199E+04-3.85639E+05 9.20846E+04-9.48910E+05-2.33122E-08 5.08874E-09
 -1       555 3.96517E+04-4.20210E+05 1.65229E+05-6.64363E+05-3.71438E-08-6.94490E-09
 -1       556 6.04077E+04-1.28473E+05 4.34961E+04-1.68227E+05-2.69938E-09-5.10772E-09
 -1       557 1.12414E+05-1.71589E+05 2.28643E+04-2.10686E+05 1.15688E-09-4.61978E-09
 -1       558 6.02203E+04-1.34269E+05 9.22116E+03-1.63237E+05-4.28554E-09-4.65297E-09
 -1       559 1.05354E+05-1.77522E+05 4.68929E+03-2.13825E+05 5.45333E-09-1.47065E-09
 -1       560 5.86620E+04-1.33234E+05 1.92481E+03-1.64216E+05 2.51021E-09 4.16912E-09
 -1       561 1.02937E+05-1.76900E+05 1.02943E+03-2.15354E+05-1.94268E-09 4.48381E-10
 -1       562 5.74074E+04-1.32394E+05 3.85109E+02-1.65120E+05-7.63976E-10 5.12523E-09
 -1       563 1.01464E+05-1.76268E+05 2.48050E+02-2.16297E+05-2.92312E-09-1.09122E-09
 -1       564 5.66249E+04-1.31889E+05 8.69803E+01-1.65676E+05 6.65023E-09 1.01627E-08
 -1       565 1.00696E+05-1.75939E+05 5.80433E+01-2.16779E+05 2.97587E-09-3.27418E-10
 -1       566 5.63424E+04-1.31702E+05-1.66559E+01-1.65880E+05 1.30876E-09 2.45745E-09
 -1       567 1.00593E+05-1.75888E+05-1.01626E+02-2.16782E+05 7.91988E-09 1.81535E-09
 -1       568 5.65921E+04-1.31866E+05-3.04652E+02-1.65765E+05-5.78439E-10 7.92170E-09
 -1       569 1.00527E+05-1.75781E+05-7.12677E+02-2.15755E+05-1.86265E-09-4.85306E-09
 -1       570 5.78876E+04-1.33037E+05-1.53170E+03-1.65728E+05 2.50293E-09-2.21371E-09
 -1       571 1.77249E+05 6.44418E+03 9.54816E+03-4.49617E+04-4.97948E-10 6.99856E-10
 -1       572 1.78669E+05 2.24226E+03 4.67800E+03-4.92863E+04-6.29370E-10 3.67891E-09
 -1       573 1.77818E+05 5.35588E+02 2.07814E+03-4.48446E+04 1.29330E-09 1.01650E-08
 -1       574 1.77986E+05 1.75876E+02 1.04120E+03-4.94172E+04 1.68529E-09 4.52292E-09
 -1       575 1.77881E+05 2.60495E+01 4.90703E+02-4.48291E+04 6.64159E-10 6.49106E-09
 -1       576 1.77892E+05 9.28526E+00 2.49775E+02-4.94347E+04-1.18689E-10-4.02179E-09
 -1       577 1.77890E+05-1.18725E+00 1.23010E+02-4.48271E+04 9.96056E-09-7.66659E-09
 -1       578 1.77883E+05 8.08375E-01 6.70387E+01-4.94368E+04 1.88029E-08-1.04365E-09
 -1       579 1.77901E+05-3.18396E+00 4.09029E+01-4.48270E+04 1.05133E-08-6.72981E-09
 -1       580 1.77898E+05-4.89194E+00 3.80730E+01-4.94342E+04 1.85719E-09-7.96581E-09
 -1       581 1.77920E+05-1.01835E+01 5.14017E+01-4.48297E+04 1.92267E-09 1.69621E-10
 -1       582 1.77932E+05-3.27759E+00 9.78949E+01-4.94075E+04 1.90812E-09-5.49335E-10
 -1       583 1.77943E+05 1.96945E+01 1.87498E+02-4.48537E+04 1.10467E-08-2.44995E-09
 -1       584 1.78030E+05 1.65081E+02 4.20522E+02-4.92069E+04 2.04882E-08 2.75008E-10
 -1       585 1.77925E+05 5.35066E+02 8.53638E+02-4.50306E+04 9.78798E-09-1.48975E-09
 -1       586-2.12838E+03 5.82423E+04-2.82284E+03-1.53039E+05 3.66981E-10-3.73552E-09
 -1       587-4.43949E+02 5.78625E+04-3.00006E+02-1.68407E+05 6.73026E-10-4.73165E-10
 -1       588 6.15659E+02 5.79355E+04 2.04382E+03-1.52946E+05 3.80169E-10 3.09092E-09
 -1       589 3.03122E+03 5.90569E+04 5.93190E+03-1.68267E+05 5.58430E-10 4.62387E-09
 -1       590 8.68952E+03 5.72276E+04 1.26932E+04-1.53181E+05 2.70120E-10-4.62660E-09
 -1       591-3.88971E+04-1.10848E+04-1.28751E+04-2.01107E+04-1.62629E-09-3.12502E-09
 -1       592-4.01155E+04-1.42341E+04-6.97370E+03-2.34540E+04 1.38641E-10 7.48639E-09
 -1       593-4.01989E+04-1.01362E+04-2.90322E+03-2.10407E+04-5.26484E-10 2.86786E-09
 -1       594-3.83216E+04-1.23625E+04-1.44796E+03-2.35432E+04-5.66160E-10-8.12949E-09
 -1       595-4.02986E+04-1.01318E+04-6.65427E+02-2.10834E+04 2.18279E-11 4.38274E-09
 -1       596-3.82002E+04-1.22767E+04-3.39188E+02-2.35306E+04 1.09219E-09 2.70961E-09
 -1       597-4.03113E+04-1.01401E+04-1.86699E+02-2.10851E+04 5.29617E-10 3.22592E-09
 -1       598-3.81886E+04-1.22735E+04-1.53752E+02-2.35271E+04-1.71372E-09 9.09438E-10
 -1       599-4.03104E+04-1.01401E+04-2.00982E+02-2.10848E+04 1.35458E-09 4.06180E-09
 -1       600-3.82015E+04-1.22779E+04-3.77038E+02-2.35302E+04-3.02754E-09 2.12992E-09
 -1       601-4.02944E+04-1.01312E+04-7.45734E+02-2.10822E+04-1.84968E-10-2.19927E-09
 -1       602-3.83377E+04-1.23740E+04-1.62627E+03-2.35427E+04 1.24487E-10-2.90822E-09
 -1       603-4.01811E+04-1.01377E+04-3.26191E+03-2.10344E+04-4.36103E-10-4.51018E-09
 -1       604-4.03597E+04-1.44696E+04-7.83557E+03-2.34328E+04 3.12866E-10-1.17939E-09
 -1       605-3.87098E+04-1.12098E+04-1.44661E+04-1.99966E+04 8.30823E-10-4.33056E-09
 -1       606 2.51975E+04-8.53952E+03-1.53765E+04 2.45915E+04-3.85717E-09-2.92403E-09
 -1       607 2.25640E+04-2.75492E+03-7.65659E+03 2.76053E+04-2.80852E-09-7.60838E-09
 -1       608 2.40578E+04-4.64671E+02-3.42881E+03 2.43954E+04 2.45200E-09-6.10044E-10
 -1       609 2.37600E+04-1.20387E+02-1.73179E+03 2.78217E+04-7.40329E-10 5.49790E-10
 -1       610 2.39193E+04 2.26533E+01-8.27281E+02 2.43735E+04-4.37831E-09 1.14028E-09
 -1       611 2.38625E+04 3.44390E+01-4.17254E+02 2.78454E+04-8.04766E-09-2.31375E-09
 -1       612 2.38820E+04 3.66095E+01-1.99715E+02 2.43713E+04-3.80260E-09-3.40151E-10
 -1       613 2.38600E+04 4.22345E+01-9.10516E+01 2.78482E+04-5.95901E-09-1.19526E-08
 -1       614 2.38614E+04 3.75189E+01-2.55066E+01 2.43706E+04-1.90357E-09 5.10249E-09
 -1       615 2.38491E+04 4.73045E+01 2.82575E+01 2.78486E+04 4.59113E-09 2.46087E-09
 -1       616 2.38458E+04 4.27935E+01 9.38382E+01 2.43708E+04-3.41788E-09 2.54568E-09
 -1       617 2.38545E+04 7.10268E+01 2.17749E+02 2.78481E+04 2.21007E-10 5.76438E-09
 -1       618 2.38224E+04 1.08425E+02 4.40192E+02 2.43709E+04 1.95087E-10 1.15620E-09
 -1       619 2.40064E+04 4.13788E+02 9.89397E+02 2.78475E+04-1.19564E-09-3.00724E-09
 -1       620 2.36739E+04 1.15469E+03 1.98887E+03 2.43699E+04 1.63789E-09-2.53726E-09
 -1       621 3.04643E+02 1.92679E+05 2.64900E+03 6.58226E+03-2.26322E-10 8.14180E-09
 -1       622 3.48706E+02 1.93336E+05 2.25393E+03 9.61234E+03-1.88777E-10 1.54375E-09
 -1       623 1.41467E+01 1.92867E+05 2.59928E+03 6.55143E+03-2.19046E-10-8.75605E-09
 -1       624 1.17719E+03 1.94095E+05 4.94218E+03 9.64244E+03-2.90896E-10-2.31478E-09
 -1       625 1.18238E+03 1.91915E+05 8.59473E+03 6.55248E+03-6.86668E-11-8.33836E-10
 -1       626 1.59190E+05 4.40601E+04 3.17045E+03 8.60026E+04-3.72802E-09-9.36234E-09
 -1       627 1.57018E+05 4.56593E+04 1.52769E+03 8.94739E+04-3.60933E-09-5.76972E-09
 -1       628 1.59309E+05 4.25604E+04 6.45225E+02 8.64807E+04 1.92813E-09-5.40922E-10
 -1       629 1.56559E+05 4.52987E+04 3.16278E+02 8.96813E+04 4.44925E-09 2.56057E-09
 -1       630 1.59316E+05 4.24897E+04 1.46224E+02 8.64930E+04 2.86127E-09-5.60249E-09
 -1       631 1.56503E+05 4.52910E+04 7.86855E+01 8.96828E+04-1.46701E-09 4.11676E-09
 -1       632 1.59307E+05 4.24956E+04 5.19619E+01 8.64856E+04 2.14595E-09-5.50716E-09
 -1       633 1.56491E+05 4.52959E+04 5.81331E+01 8.96763E+04 1.79441E-08 2.87400E-09
 -1       634 1.59298E+05 4.24965E+04 9.41452E+01 8.64814E+04 9.55606E-09-6.58565E-09
 -1       635 1.56495E+05 4.52975E+04 1.90957E+02 8.96756E+04 3.84262E-11-4.13638E-09
 -1       636 1.59287E+05 4.24959E+04 3.85701E+02 8.64784E+04-6.24016E-09-6.36783E-09
 -1       637 1.56573E+05 4.53590E+04 8.47717E+02 8.96715E+04 7.34818E-10 9.11746E-09
 -1       638 1.59254E+05 4.26850E+04 1.74222E+03 8.63911E+04-9.60767E-10-1.58343E-09
 -1       639 1.57484E+05 4.66335E+04 4.12158E+03 8.94006E+04-3.00315E-09-2.21007E-10
 -1       640 1.59132E+05 4.64789E+04 8.55334E+03 8.47799E+04-1.96655E-09 1.65710E-09
 -1       656 4.31263E+04-1.09153E+06-1.04109E+05-3.62918E+02 2.91038E-11-7.26064E-09
 -1       657-5.69869E+04-1.13853E+06-8.60987E+04 7.04557E+03 7.71252E-10-6.59985E-09
 -1       658 1.36745E+04-1.10494E+06-5.28349E+04-1.36570E+03 6.23231E-10-2.14610E-09
 -1       659-6.11016E+04-1.14047E+06-9.15031E+04 7.71412E+03-4.77485E-10 7.17881E-10
 -1       660 4.72309E+04-1.08959E+06-1.13406E+05-1.03145E+03-6.03904E-10-2.56364E-09
 -1       661 1.54157E+05 1.67828E+04 1.47961E+04 6.02476E+04 3.88968E-09-5.91808E-09
 -1       662 1.61870E+05 2.83810E+04 9.97011E+03 5.76675E+04 4.45186E-09-6.14500E-09
 -1       663 1.57056E+05 2.15350E+04 3.48762E+03 5.94111E+04 1.23021E-09 1.89380E-09
 -1       664 1.58515E+05 2.28178E+04 2.08515E+03 5.86840E+04-2.52865E-09 3.52739E-09
 -1       665 1.57490E+05 2.21898E+04 8.22525E+02 5.92901E+04-1.28662E-09-4.95984E-09
 -1       666 1.58007E+05 2.20643E+04 4.79652E+02 5.88386E+04-6.28607E-09 7.33974E-09
 -1       667 1.57562E+05 2.22688E+04 2.52882E+02 5.92639E+04-9.96977E-10-1.97377E-09
 -1       668 1.57930E+05 2.20013E+04 2.53306E+02 5.88760E+04 5.86778E-09-7.32390E-09
 -1       669 1.57566E+05 2.22509E+04 3.39388E+02 5.92534E+04 4.04111E-09 4.51477E-09
 -1       670 1.58017E+05 2.21797E+04 7.35669E+02 5.88741E+04 7.72351E-09-1.20936E-09
 -1       671 1.57476E+05 2.20939E+04 1.30514E+03 5.92643E+04-8.08846E-11-8.18375E-10
 -1       672 1.58779E+05 2.34477E+04 3.33829E+03 5.86886E+04-5.13987E-09 7.11503E-09
 -1       673 1.56808E+05 2.10149E+04 5.59411E+03 5.94267E+04-3.66572E-09 3.44608E-09
 -1       674 1.64106E+05 3.24322E+04 1.59980E+04 5.71210E+04 1.35157E-09-5.49130E-09
 -1       675 1.52183E+05 1.33606E+04 2.37460E+04 6.07372E+04 2.57660E-09 1.77897E-09
 -1       676 1.75442E+01-2.09243E+05-8.14462E+02 3.68240E+01 1.16378E-09 2.18712E-09
 -1       677-2.16162E+02-2.09440E+05-1.49055E+03-7.36155E+01-5.05764E-10 1.59928E-09
 -1       678 1.44381E+02-2.09103E+05-2.63489E+03 3.67661E+01-1.90084E-09 7.39675E-09
 -1       679-2.63538E+03-2.11030E+05-6.25913E+03-7.33879E+01-5.93354E-09-6.40176E-09
 -1       680 1.57282E+03-2.07653E+05-1.00876E+04 3.61749E+01-1.13050E-09-2.53864E-09
 -1       771-2.24604E+06-3.97804E+05-5.54893E+04-9.36659E+05-1.17725E-08-1.08121E-08
 -1       772-2.23070E+06-4.28223E+05-2.96878E+04-9.70644E+05-8.34189E-09 4.49563E-09
 -1       773-2.25391E+06-3.91669E+05-1.29766E+04-9.39743E+05-7.97445E-09 4.65661E-09
 -1       774-2.22285E+06-4.21861E+05-6.27241E+03-9.74547E+05 1.55705E-09 6.74481E-09
 -1       775-2.25597E+06-3.90299E+05-3.29358E+03-9.40000E+05-5.55883E-09 2.48474E-09
 -1       776-2.22285E+06-4.21948E+05-1.48501E+03-9.76786E+05-5.35510E-09 2.75213E-09
 -1       777-2.25746E+06-3.89210E+05-1.00218E+03-9.40156E+05 3.25963E-09 6.70116E-09
 -1       778-2.22330E+06-4.22208E+05-4.18683E+02-9.78658E+05 2.52476E-09 3.43425E-09
 -1       779-2.25866E+06-3.88283E+05-4.51461E+02-9.40297E+05-4.61296E-09-2.47837E-09
 -1       780-2.22377E+06-4.22420E+05-3.03129E+02-9.80174E+05-2.54840E-09-2.18279E-10
 -1       781-2.25957E+06-3.87544E+05-5.51516E+02-9.40405E+05-7.40692E-09-1.52932E-09
 -1       782-2.22421E+06-4.22615E+05-9.35751E+02-9.81289E+05-8.70750E-09-3.63195E-09
 -1       783-2.26013E+06-3.87055E+05-1.87904E+03-9.40462E+05 2.16278E-09-5.83429E-09
 -1       784-2.22556E+06-4.23892E+05-4.42111E+03-9.81918E+05-2.16824E-09-7.71979E-09
 -1       785-2.25964E+06-3.87394E+05-8.18178E+03-9.39906E+05-6.47105E-09-1.04592E-10
 -1       786 1.63529E+05-8.75501E+03 2.02548E+04-8.16565E+00 8.54090E-07 9.03310E-09
 -1       787 1.72305E+05 1.01356E+04 1.43299E+04 1.52092E+00 1.70060E-06 8.73570E-09
 -1       788 1.66915E+05-1.37245E+03 5.24249E+03-3.83457E+00 1.81802E-06-4.75620E-09
 -1       789 1.68361E+05 1.58801E+03 3.29390E+03-6.88697E+00 1.93233E-06 9.15725E-09
 -1       790 1.67474E+05-2.14399E+02 1.34030E+03 2.42075E-01 2.17305E-06-1.28596E-08
 -1       791 1.67709E+05 2.49104E+02 7.86955E+02-1.60478E+01 2.41586E-06 1.91420E-08
 -1       792 1.67567E+05-3.45545E+01 3.59210E+02 5.32640E+00 2.99203E-06-1.31339E-08
 -1       793 1.67603E+05 4.85485E+01 2.35476E+02-2.86478E+01 3.56237E-06 1.03246E-09
 -1       794 1.67579E+05-1.39759E+01 1.74568E+02 1.28423E+01 1.78250E-06-6.39006E-09
 -1       795 1.67614E+05 7.21598E+01 2.52713E+02-4.81830E+01 5.93076E-09-4.60858E-10
 -1       796 1.67557E+05-5.81487E+01 3.78658E+02 2.48620E+01 1.15742E-10-4.33218E-10
 -1       797 1.67786E+05 4.26298E+02 8.92935E+02-8.00458E+01-3.88269E-10-2.55483E-10
 -1       798 1.67407E+05-3.67854E+02 1.40946E+03 4.47056E+01-1.06117E-10 2.30386E-09
 -1       799 1.68843E+05 2.71613E+03 3.84253E+03-1.33331E+02-1.28881E-09 6.52386E-09
 -1       800 1.66499E+05-2.34614E+03 5.42775E+03 7.81476E+01-3.07690E-10 6.77619E-09
 -1       801-5.95568E+03-1.46534E+05-2.65119E+03 1.87317E+04 1.00217E-08-4.42583E-09
 -1       802 1.90673E+04-4.62576E+04 4.05876E+04-7.29809E+04 2.69506E-08-5.58887E-09
 -1       803-1.22364E+04-1.04186E+05 5.52445E+04 2.03922E+04 2.12967E-08 1.61178E-08
 -1       804 1.13699E+05 8.19961E+03 1.65002E+05-7.34398E+04 2.49856E-08 2.27146E-08
 -1       805-1.00705E+05-2.00630E+05 2.05216E+05 1.91867E+04 8.87667E-09 2.15339E-08
 -1       806-1.93014E+05-4.12419E+04-1.63619E+04-8.02578E+04 5.47516E-10 5.32873E-09
 -1       807-1.93988E+05-3.88888E+04-8.03825E+03-8.45845E+04 2.35360E-09 8.59416E-09
 -1       808-1.93478E+05-3.53317E+04-3.40981E+03-8.30339E+04-3.71870E-09-2.70392E-09
 -1       809-1.92273E+05-3.66560E+04-1.66697E+03-8.48150E+04-3.61069E-10 1.22332E-08
 -1       810-1.93550E+05-3.51233E+04-7.63298E+02-8.31563E+04 3.20779E-09 1.56820E-08
 -1       811-1.92141E+05-3.65678E+04-3.78557E+02-8.47950E+04 2.02590E-09-2.48656E-09
 -1       812-1.93562E+05-3.51389E+04-1.88958E+02-8.31560E+04 5.20140E-09 1.66938E-09
 -1       813-1.92124E+05-3.65700E+04-1.19226E+02-8.47845E+04 1.72258E-09-5.64251E-09
 -1       814-1.93560E+05-3.51449E+04-1.11884E+02-8.31533E+04-2.17824E-10-7.31370E-09
 -1       815-1.92126E+05-3.65721E+04-1.75116E+02-8.47812E+04-1.94927E-09-1.15020E-08
 -1       816-1.93548E+05-3.51438E+04-3.28156E+02-8.31508E+04 1.67120E-09 1.00365E-08
 -1       817-1.92182E+05-3.66035E+04-7.03452E+02-8.47748E+04 1.10867E-09 8.13861E-09
 -1       818-1.93506E+05-3.52429E+04-1.43368E+03-8.31040E+04-1.98133E-09-1.03178E-08
 -1       819-1.92973E+05-3.74640E+04-3.37410E+03-8.45825E+04-4.23938E-09-1.06218E-08
 -1       820-1.93233E+05-3.77941E+04-6.86696E+03-8.20162E+04-4.95675E-10 9.28594E-09
 -1       821-2.49635E+05 1.38453E+04-3.20198E+04 8.53217E+01-5.53440E-10-2.71939E-09
 -1       822-2.63511E+05-1.60283E+04-2.26586E+04-6.07991E+02-1.75352E-09-2.41721E-09
 -1       823-2.54990E+05 2.17059E+03-8.29322E+03 5.40037E+01 1.00136E-09-1.00590E-09
 -1       824-2.57267E+05-2.51238E+03-5.21807E+03-4.64250E+02 5.89433E-10-1.64209E-09
 -1       825-2.55878E+05 3.39691E+02-2.14480E+03-5.84236E+01-2.53073E-09-6.46196E-10
 -1       826-2.56234E+05-4.00636E+02-1.29458E+03-2.02361E+02-5.35924E-09 3.38709E-09
 -1       827-2.56023E+05 6.02509E+01-6.70290E+02-2.07890E+02-3.44115E-09-7.09488E-09
 -1       828-2.56094E+05-1.22203E+02-5.92250E+02 7.71208E+01-4.30175E-09 4.23085E-09
 -1       829-2.56018E+05 6.15132E+01-6.79956E+02-3.37911E+02 2.01098E-10-5.41093E-10
 -1       830-2.56251E+05-4.10583E+02-1.32750E+03 2.68593E+02 1.85323E-09-4.00297E-09
 -1       831-2.55866E+05 3.48605E+02-2.19834E+03-3.99366E+02-2.64468E-09 7.32484E-10
 -1       832-2.57308E+05-2.57811E+03-5.35687E+03 3.00297E+02-4.32864E-10-8.10212E-09
 -1       833-2.54962E+05 2.22751E+03-8.51240E+03-3.69614E+02-1.12714E-09-3.06864E-09
 -1       834-2.63703E+05-1.64513E+04-2.32570E+04 1.62516E+02-1.10773E-09 2.43017E-09
 -1       835-2.49472E+05 1.42109E+04-3.28692E+04-2.61575E+02 5.54868E-09-3.09228E-11
 -1       836-8.31091E+02 2.36215E+05 1.42322E+04-2.06632E+04 1.60117E-09 4.28599E-09
 -1       837 3.13685E+03 2.40620E+05 1.21451E+04-4.14969E+04 2.21848E-09-3.78122E-09
 -1       838-3.03165E+02 2.37441E+05 1.25155E+04-2.05934E+04 2.07592E-09-2.78794E-09
 -1       839 8.03440E+03 2.44271E+05 2.38144E+04-4.15217E+04 2.84581E-09-3.82602E-09
 -1       840-2.41199E+03 2.32531E+05 3.80320E+04-2.06368E+04 1.87720E-09-3.43334E-10
 -1       856-7.73481E+04 6.65403E+03-1.75350E+04-3.93583E+02-4.18709E-09-4.75848E-09
 -1       857-8.45917E+04-7.80405E+03-1.20725E+04 3.99968E+03-3.61450E-09-8.45375E-09
 -1       858-8.02099E+04 9.32333E+02-4.55085E+03-4.11230E+02-3.14913E-09-4.84192E-09
 -1       859-8.13051E+04-1.08383E+03-2.74860E+03 4.02784E+03 9.45988E-10 2.44671E-09
 -1       860-8.06378E+04 1.29646E+02-1.15574E+03-4.21877E+02-1.10005E-09-5.75830E-09
 -1       861-8.08122E+04-1.43032E+02-6.43830E+02 4.04240E+03-6.38017E-09-9.92409E-09
 -1       862-8.07043E+04 1.71677E+01-2.83742E+02-4.25814E+02 2.95276E-09-2.81815E-10
 -1       863-8.07335E+04-1.03275E+01-1.39930E+02 4.04416E+03 7.13257E-09 3.94892E-09
 -1       864-8.07167E+04-1.47078E-01-4.31584E+01-4.23634E+02 2.02054E-09-1.21648E-08
 -1       865-8.07102E+04 2.04875E+01 2.84247E+01 4.03319E+03 5.00057E-09-6.72676E-09
 -1       866-8.07263E+04-1.40333E+01 9.95840E+01-4.14846E+02-2.34215E-09-2.01741E-09
 -1       867-8.06523E+04 1.17721E+02 2.72225E+02 4.00935E+03 2.76233E-09 4.03872E-09
 -1       868-8.07720E+04-9.67834E+01 4.58929E+02-3.99795E+02 8.46740E-10-7.32157E-09
 -1       869-8.03079E+04 8.02599E+02 1.23189E+03 3.96985E+03-3.51824E-09-6.63749E-09
 -1       870-8.10666E+04-6.81998E+02 1.78649E+03-3.75348E+02 2.66834E-09-2.05432E-09
 -1       871-3.66076E+03-7.64224E+03-1.18609E+04 7.77574E+04 2.63117E-09 1.52077E-08
 -1       872-1.59778E+03-1.02943E+04-4.83137E+03 1.00807E+05 3.03771E-09-8.18750E-09
 -1       873-4.45512E+01-9.05569E+03 6.99786E+02 7.75862E+04 2.59502E-09-4.50950E-09
 -1       874 1.81607E+03-7.32369E+03 6.74946E+03 1.00843E+05 4.65025E-09 2.07820E-10
 -1       875 4.32172E+03-1.06577E+04 1.49616E+04 7.77289E+04 2.31830E-09 2.44336E-09
 -1       876 1.94355E+05 3.35207E+04 1.04143E+04 7.88895E+04-3.21313E-09-6.90670E-09
 -1       877 1.94945E+05 3.58130E+04 5.56146E+03 8.19761E+04-6.00585E-09-6.78017E-09
 -1       878 1.95329E+05 3.23679E+04 2.33000E+03 7.97447E+04 4.43629E-09-4.61773E-09
 -1       879 1.93528E+05 3.44023E+04 1.16067E+03 8.20502E+04-1.31809E-09-1.84514E-09
 -1       880 1.95400E+05 3.23550E+04 5.40349E+02 7.97795E+04 1.73350E-09 5.69281E-09
 -1       881 1.93434E+05 3.43425E+04 2.87760E+02 8.20357E+04 4.24870E-09-2.37287E-09
 -1       882 1.95407E+05 3.23634E+04 1.82741E+02 7.97805E+04 7.50413E-09-6.82547E-11
 -1       883 1.93427E+05 3.43397E+04 1.94265E+02 8.20316E+04 1.54097E-09 3.70932E-09
 -1       884 1.95403E+05 3.23612E+04 3.07051E+02 7.97806E+04-2.61832E-09-2.18364E-09
 -1       885 1.93451E+05 3.43441E+04 6.16108E+02 8.20393E+04 2.15692E-09-2.84297E-09
 -1       886 1.95379E+05 3.23432E+04 1.24117E+03 7.97782E+04-9.87086E-11-1.31695E-09
 -1       887 1.93669E+05 3.44870E+04 2.71097E+03 8.20707E+04-5.94844E-09 3.17868E-10
 -1       888 1.95208E+05 3.23735E+04 5.46265E+03 7.96914E+04-5.94048E-09-2.28238E-09
 -1       889 1.96925E+05 3.78663E+04 1.30499E+04 8.19671E+04-5.35551E-09-3.68436E-09
 -1       890 1.92982E+05 3.50172E+04 2.44414E+04 7.76076E+04 2.41562E-09 1.14142E-09
 -1       891-1.23243E+02-1.10514E+05-1.30313E+03 2.10303E+04 6.18684E-10 6.49231E-09
 -1       892-2.14046E+02-1.10825E+05-1.41835E+03 3.18222E+04-3.08978E-09 7.68523E-10
 -1       893-3.65531E+01-1.10555E+05-2.02751E+03 2.10343E+04 1.45883E-09 5.58020E-09
 -1       894-1.11187E+03-1.11603E+05-4.21040E+03 3.17092E+04-1.43700E-09 5.27598E-09
 -1       895-8.68328E+02-1.09679E+05-7.41967E+03 2.11418E+04-1.00113E-09 2.08865E-09
 -1       956-2.44240E+05-3.52134E+03-8.86960E+03 1.61524E+04-1.70485E-09-4.92378E-09
 -1       957-2.45992E+05-1.18633E+03-4.55335E+03 1.94503E+04-4.82942E-10-9.01855E-09
 -1       958-2.45026E+05-9.28705E+01-2.05137E+03 1.60468E+04 7.49378E-09-4.45948E-09
 -1       959-2.45166E+05-1.42775E+01-1.04780E+03 1.95644E+04 8.22843E-09 6.30723E-09
 -1       960-2.45096E+05 3.11429E+01-5.10708E+02 1.60368E+04-9.75433E-10 5.90830E-09
 -1       961-2.45106E+05 2.96645E+01-2.70768E+02 1.95757E+04-7.02244E-09 5.91513E-10
 -1       962-2.45110E+05 2.74166E+01-1.54577E+02 1.60354E+04-2.75486E-09 1.38516E-09
 -1       963-2.45103E+05 3.06889E+01-1.23341E+02 1.95777E+04-2.71552E-09 1.08992E-08
 -1       964-2.45113E+05 2.91239E+01-1.48790E+02 1.60348E+04 1.64653E-09-2.25441E-10
 -1       965-2.45112E+05 3.34258E+01-2.56312E+02 1.95778E+04 2.84068E-09-3.20256E-09
 -1       966-2.45106E+05 3.61712E+01-4.80656E+02 1.60352E+04-2.95188E-09 6.67569E-10
 -1       967-2.45176E+05-4.21232E+00-9.85591E+02 1.95718E+04 4.00405E-10 2.77066E-09
 -1       968-2.45046E+05-7.69851E+01-1.92860E+03 1.60409E+04 1.99543E-09-1.13857E-09
 -1       969-2.45959E+05-1.10325E+03-4.28204E+03 1.95050E+04 1.41313E-10 4.39493E-09
 -1       970-2.44310E+05-3.29902E+03-8.34039E+03 1.61045E+04 2.98314E-10 4.95675E-09
 -1       971-2.32013E+05-1.22494E+03-6.82253E+03 1.13369E+04-4.61978E-09 1.66199E-09
 -1       972-2.33673E+05-8.77120E+02-3.71564E+03 1.58381E+04-2.31785E-09 2.73621E-09
 -1       973-2.32771E+05-6.17753E+00-1.66364E+03 1.12425E+04-9.24501E-10 2.24179E-09
 -1       974-2.32887E+05-5.82429E+00-8.61869E+02 1.59397E+04 3.93129E-10 6.96423E-09
 -1       975-2.32829E+05 2.52217E+01-4.29694E+02 1.12342E+04 9.98625E-10-2.31921E-10
 -1       976-2.32839E+05 2.94227E+01-2.46033E+02 1.59497E+04-3.86308E-09-1.60048E-09
 -1       977-2.32840E+05 2.46757E+01-1.75126E+02 1.12324E+04-1.48930E-09-1.75737E-09
 -1       978-2.32841E+05 3.31090E+01-2.00302E+02 1.59522E+04 7.90544E-09-4.00007E-09
 -1       979-2.32839E+05 2.99053E+01-3.17790E+02 1.12317E+04 2.51475E-10 4.35693E-09
 -1       980-2.32865E+05 3.49900E+01-6.11088E+02 1.59526E+04-5.45742E-09-5.49107E-10
 -1       981-2.32820E+05 4.51349E+01-1.18217E+03 1.12320E+04-4.99801E-09 4.94384E-09
 -1       982-2.33027E+05-5.21376E+01-2.44276E+03 1.59479E+04-1.35969E-09 3.36345E-09
 -1       983-2.32671E+05-3.02207E+01-4.74583E+03 1.12365E+04 8.77435E-10-2.34536E-09
 -1       984-2.35310E+05-2.53011E+03-1.06275E+04 1.58840E+04-3.94141E-09-6.83224E-09
 -1       985-2.30524E+05-3.50263E+03-1.95155E+04 1.13006E+04 4.54293E-10-3.34876E-09
 -3
    1PSTEP                         9           5           1          
  100CL  105 4.80469E-01         409                     0    5           1
 -4  DISP        4    1
 -5  D1          1    2    1    0
 -5  D2          1    2    2    0
 -5  D3          1    2    3    0
 -5  ALL         1    2    0    0    1ALL
 -1         1 1.39674E-04 0.00000E+00 0.00000E+00
 -1         2 1.27628E-04-8.92689E-31 0.00000E+00
 -1         3 1.18337E-04-1.84422E-28 0.00000E+00
 -1         5 8.25731E-05 6.22566E-29 0.00000E+00
 -1         8 1.15055E-04-8.85746E-07 0.00000E+00
 -1         9 1.14710E-04 2.97125E-07 0.00000E+00
 -1        10 1.09379E-04-1.61437E-06 3.30872E-24
 -1        12 8.21140E-05 5.25916E-07 0.00000E+00
 -1        15 8.57251E-05-9.78586E-07 4.13590E-25
 -1        16 8.87462E-05 1.24719E-07 0.00000E+00
 -1        17 8.08085E-05-3.41444E-06 0.00000E+00
 -1        18 7.97166E-05 1.34014E-06 0.00000E+00
 -1        19 8.07368E-05 1.04895E-06 0.00000E+00
 -1        20 8.08712E-05 1.44772E-05 0.00000E+00
 -1        21 8.03556E-05 2.71493E-05 1.65436E-24
 -1        24 1.92378E-05-4.65749E-06 0.00000E+00
 -1        25 7.84132E-05 1.46241E-06 0.00000E+00
 -1        26 7.93504E-05 1.46014E-06 0.00000E+00
 -1        27 7.78938E-05 1.21379E-05 0.00000E+00
 -1        28 7.74359E-05 2.67017E-05 0.00000E+00
 -1        32 0.00000E+00 0.00000E+00 0.00000E+00
 -1        33 7.67357E-05 1.95662E-06 0.00000E+00
 -1        34 7.53292E-05 1.21165E-05 0.00000E+00
 -1        35 7.39942E-05 2.64650E-05 0.00000E+00
 -1        51 1.38074E-04-1.45851E-07 0.00000E+00
 -1        52 1.35108E-04-2.87472E-07 0.00000E+00
 -1        53 1.31043E-04-4.30552E-07 0.00000E+00
 -1        54 1.26160E-04-5.76571E-07 0.00000E+00
 -1        55 1.20736E-04-7.26281E-07 5.63517E-24
 -1        56 1.38459E-04-7.62965E-07 0.00000E+00
 -1        57 1.37383E-04-2.03377E-06-1.32349E-23
 -1        58 1.36445E-04-3.66692E-06 5.29396E-23
 -1        59 1.35582E-04-5.52696E-06 0.00000E+00
 -1        60 1.34746E-04-7.45718E-06 0.00000E+00
 -1        61 1.33876E-04-9.30189E-06 0.00000E+00
 -1        62 1.32918E-04-1.09103E-05 5.29396E-23
 -1        63 1.31817E-04-1.21398E-05-2.64698E-23
 -1        64 1.30531E-04-1.28719E-05 0.00000E+00
 -1        65 1.29019E-04-1.30043E-05 0.00000E+00
 -1        66 1.27259E-04-1.24737E-05 0.00000E+00
 -1        67 1.25234E-04-1.12372E-05-2.64698E-23
 -1        68 1.22945E-04-9.29882E-06 5.29396E-23
 -1        69 1.20407E-04-6.68170E-06 1.32349E-23
 -1        70 1.17636E-04-3.45878E-06 2.64698E-23
 -1        86 1.27285E-04 5.73406E-08 0.00000E+00
 -1        87 1.26254E-04 1.13683E-07 4.13590E-25
 -1        88 1.24513E-04 1.68999E-07 0.00000E+00
 -1        89 1.22040E-04 2.19414E-07 0.00000E+00
 -1        90 1.18788E-04 2.68837E-07 6.61744E-24
 -1       121 1.18087E-04-2.67568E-07 0.00000E+00
 -1       122 1.17337E-04-5.35381E-07 0.00000E+00
 -1       123 1.16088E-04-8.03684E-07 6.61744E-24
 -1       124 1.14344E-04-1.07276E-06-3.30872E-24
 -1       125 1.12106E-04-1.34276E-06 6.61744E-24
 -1       191 8.25604E-05 8.76595E-08 3.30872E-24
 -1       192 8.25221E-05 1.75317E-07 1.65436E-24
 -1       193 8.24584E-05 2.62974E-07 0.00000E+00
 -1       194 8.23691E-05 3.50628E-07 1.65436E-24
 -1       195 8.22543E-05 4.38276E-07 0.00000E+00
 -1       251 1.15015E-04 3.22120E-06 0.00000E+00
 -1       252 1.14993E-04 5.78371E-06 0.00000E+00
 -1       253 1.14973E-04 7.00778E-06 0.00000E+00
 -1       254 1.14956E-04 7.10006E-06 0.00000E+00
 -1       255 1.14938E-04 6.27716E-06 8.27181E-25
 -1       256 1.14921E-04 4.75626E-06 4.13590E-25
 -1       257 1.14902E-04 2.76051E-06 0.00000E+00
 -1       258 1.14884E-04 5.13386E-07 0.00000E+00
 -1       259 1.14865E-04-1.75959E-06 0.00000E+00
 -1       260 1.14846E-04-3.83278E-06 0.00000E+00
 -1       261 1.14828E-04-5.48229E-06-8.27181E-25
 -1       262 1.14811E-04-6.48451E-06 0.00000E+00
 -1       263 1.14794E-04-6.62135E-06 0.00000E+00
 -1       264 1.14773E-04-5.67524E-06-1.65436E-24
 -1       265 1.14751E-04-3.43818E-06 0.00000E+00
 -1       266 1.10166E-04-9.13218E-07-6.61744E-24
 -1       267 1.05278E-04-9.27229E-07-1.65436E-24
 -1       268 1.00390E-04-9.42092E-07 0.00000E+00
 -1       269 9.55016E-05-9.54430E-07 0.00000E+00
 -1       270 9.06134E-05-9.66709E-07 4.13590E-25
 -1       271 1.12085E-04 2.82873E-06-2.64698E-23
 -1       272 1.09532E-04 5.30752E-06 0.00000E+00
 -1       273 1.07397E-04 6.68210E-06 0.00000E+00
 -1       274 1.05621E-04 7.08332E-06-2.64698E-23
 -1       275 1.04152E-04 6.66601E-06 0.00000E+00
 -1       276 1.02926E-04 5.59711E-06 2.64698E-23
 -1       277 1.01875E-04 4.05658E-06 0.00000E+00
 -1       278 1.00931E-04 2.23255E-06 0.00000E+00
 -1       279 1.00020E-04 3.18596E-07 0.00000E+00
 -1       280 9.90699E-05-1.49005E-06 0.00000E+00
 -1       281 9.80084E-05-3.00029E-06-5.29396E-23
 -1       282 9.67658E-05-4.02424E-06 0.00000E+00
 -1       283 9.52745E-05-4.38359E-06 0.00000E+00
 -1       284 9.34758E-05-3.91024E-06 0.00000E+00
 -1       285 9.13062E-05-2.45559E-06 0.00000E+00
 -1       301 1.10148E-04 2.60085E-07 6.61744E-24
 -1       302 1.05607E-04 2.39385E-07 0.00000E+00
 -1       303 1.01143E-04 2.19548E-07 0.00000E+00
 -1       304 9.68085E-05 1.98742E-07-3.30872E-24
 -1       305 9.26586E-05 1.76310E-07 0.00000E+00
 -1       306 1.12272E-04 1.24743E-06 0.00000E+00
 -1       307 1.11896E-04-3.51071E-06 2.64698E-23
 -1       308 1.13289E-04-1.30584E-05 5.29396E-23
 -1       309 1.15978E-04-2.62095E-05 2.64698E-23
 -1       310 1.19241E-04-4.09474E-05 0.00000E+00
 -1       311 1.22312E-04-5.51606E-05 0.00000E+00
 -1       312 1.24472E-04-6.68573E-05 0.00000E+00
 -1       313 1.25041E-04-7.42026E-05 2.64698E-23
 -1       314 1.23685E-04-7.63563E-05 5.29396E-23
 -1       315 1.20178E-04-7.27946E-05 0.00000E+00
 -1       316 1.14783E-04-6.42929E-05 0.00000E+00
 -1       317 1.07891E-04-5.19194E-05 2.64698E-23
 -1       318 1.00247E-04-3.76173E-05 5.29396E-23
 -1       319 9.26652E-05-2.34364E-05-2.64698E-23
 -1       320 8.59182E-05-1.14116E-05 0.00000E+00
 -1       336 1.06104E-04-1.90869E-06 0.00000E+00
 -1       337 1.02221E-04-2.20550E-06 0.00000E+00
 -1       338 9.77394E-05-2.50463E-06 0.00000E+00
 -1       339 9.26688E-05-2.80599E-06 3.30872E-24
 -1       340 8.70207E-05-3.11037E-06 6.61744E-24
 -1       406 8.19482E-05 6.13542E-07-3.30872E-24
 -1       407 8.17569E-05 7.01135E-07 0.00000E+00
 -1       408 8.15400E-05 7.88669E-07 3.30872E-24
 -1       409 8.12976E-05 8.76037E-07 0.00000E+00
 -1       410 8.10298E-05 9.63066E-07-3.30872E-24
 -1       521 8.88056E-05-8.98690E-06 5.29396E-23
 -1       522 9.68320E-05-4.08956E-05 0.00000E+00
 -1       523 1.10699E-04-9.02633E-05 1.05879E-22
 -1       524 1.27930E-04-1.50262E-04 0.00000E+00
 -1       525 1.45617E-04-2.11718E-04-1.05879E-22
 -1       526 1.60831E-04-2.65334E-04 0.00000E+00
 -1       527 1.70978E-04-3.03545E-04 0.00000E+00
 -1       528 1.73626E-04-3.20131E-04 0.00000E+00
 -1       529 1.67679E-04-3.13550E-04 0.00000E+00
 -1       530 1.52703E-04-2.84173E-04-5.29396E-23
 -1       531 1.30355E-04-2.37136E-04 0.00000E+00
 -1       532 1.03138E-04-1.78915E-04 0.00000E+00
 -1       533 7.48502E-05-1.18265E-04 1.05879E-22
 -1       534 4.94442E-05-6.41035E-05 0.00000E+00
 -1       535 3.00658E-05-2.40628E-05-5.29396E-23
 -1       536 8.07201E-05 2.79539E-06 3.30872E-24
 -1       537 8.06407E-05 8.44265E-06 0.00000E+00
 -1       538 8.05650E-05 1.32717E-05 3.30872E-24
 -1       539 8.04949E-05 1.70294E-05 0.00000E+00
 -1       540 8.04283E-05 1.96048E-05-1.65436E-24
 -1       541 8.03643E-05 2.08904E-05 0.00000E+00
 -1       542 8.03012E-05 2.09501E-05-1.65436E-24
 -1       543 8.02375E-05 1.98511E-05 8.27181E-25
 -1       544 8.01725E-05 1.78145E-05 0.00000E+00
 -1       545 8.01059E-05 1.50643E-05-8.27181E-25
 -1       546 8.00382E-05 1.19190E-05 0.00000E+00
 -1       547 7.99705E-05 8.69843E-06 0.00000E+00
 -1       548 7.99035E-05 5.73234E-06 0.00000E+00
 -1       549 7.98387E-05 3.34982E-06 0.00000E+00
 -1       550 7.97752E-05 1.80264E-06 0.00000E+00
 -1       551 7.26881E-05-3.59889E-06 6.61744E-24
 -1       552 6.29966E-05-3.79332E-06-1.65436E-24
 -1       553 5.22662E-05-3.99754E-06-3.30872E-24
 -1       554 4.10368E-05-4.20917E-06 3.30872E-24
 -1       555 2.98485E-05-4.42309E-06-1.32349E-23
 -1       556 7.86478E-05 2.18160E-06 0.00000E+00
 -1       557 7.69863E-05 6.49076E-06 0.00000E+00
 -1       558 7.57698E-05 9.62968E-06 0.00000E+00
 -1       559 7.49492E-05 1.17243E-05 0.00000E+00
 -1       560 7.44753E-05 1.29005E-05 0.00000E+00
 -1       561 7.42994E-05 1.32845E-05 6.61744E-24
 -1       562 7.43734E-05 1.30032E-05 0.00000E+00
 -1       563 7.46493E-05 1.21832E-05 3.30872E-24
 -1       564 7.50793E-05 1.09514E-05 0.00000E+00
 -1       565 7.56158E-05 9.43471E-06 0.00000E+00
 -1       566 7.62113E-05 7.76024E-06 0.00000E+00
 -1       567 7.68182E-05 6.05499E-06 2.06795E-25
 -1       568 7.73893E-05 4.44597E-06 0.00000E+00
 -1       569 7.78769E-05 3.06005E-06 0.00000E+00
 -1       570 7.82337E-05 2.02416E-06 0.00000E+00
 -1       571 7.97785E-05 1.35818E-06-4.13590E-25
 -1       572 7.98418E-05 1.33404E-06 6.20385E-25
 -1       573 7.99055E-05 1.27535E-06 0.00000E+00
 -1       574 7.99693E-05 1.19015E-06 4.13590E-25
 -1       575 8.00333E-05 1.08649E-06 0.00000E+00
 -1       576 8.00972E-05 9.72488E-07 0.00000E+00
 -1       577 8.01612E-05 8.56263E-07 0.00000E+00
 -1       578 8.02252E-05 7.45943E-07 0.00000E+00
 -1       579 8.02892E-05 6.49651E-07 0.00000E+00
 -1       580 8.03532E-05 5.75517E-07 0.00000E+00
 -1       581 8.04172E-05 5.31666E-07 0.00000E+00
 -1       582 8.04812E-05 5.26214E-07-3.30872E-24
 -1       583 8.05452E-05 5.67272E-07-3.30872E-24
 -1       584 8.06091E-05 6.62866E-07 0.00000E+00
 -1       585 8.06730E-05 8.20974E-07 0.00000E+00
 -1       586 7.94745E-05 1.36177E-06 0.00000E+00
 -1       587 7.92058E-05 1.38288E-06 2.06795E-25
 -1       588 7.89378E-05 1.40377E-06 0.00000E+00
 -1       589 7.86981E-05 1.42432E-06 0.00000E+00
 -1       590 7.85144E-05 1.44431E-06 0.00000E+00
 -1       591 7.96796E-05 1.39204E-06 2.06795E-25
 -1       592 7.96528E-05 1.41013E-06 0.00000E+00
 -1       593 7.96360E-05 1.40090E-06-4.13590E-25
 -1       594 7.96270E-05 1.37016E-06 0.00000E+00
 -1       595 7.96238E-05 1.32384E-06 8.27181E-25
 -1       596 7.96242E-05 1.26777E-06-2.06795E-25
 -1       597 7.96260E-05 1.20782E-06 0.00000E+00
 -1       598 7.96271E-05 1.14985E-06 0.00000E+00
 -1       599 7.96252E-05 1.09969E-06 0.00000E+00
 -1       600 7.96183E-05 1.06321E-06 0.00000E+00
 -1       601 7.96040E-05 1.04625E-06 0.00000E+00
 -1       602 7.95803E-05 1.05467E-06 1.03398E-25
 -1       603 7.95449E-05 1.09433E-06 0.00000E+00
 -1       604 7.94959E-05 1.17113E-06-5.16988E-26
 -1       605 7.94310E-05 1.29089E-06 4.13590E-25
 -1       606 8.07485E-05 1.42261E-06 0.00000E+00
 -1       607 8.07579E-05 1.88568E-06 1.65436E-24
 -1       608 8.07667E-05 2.43293E-06-3.30872E-24
 -1       609 8.07752E-05 3.05843E-06-1.65436E-24
 -1       610 8.07835E-05 3.75624E-06 0.00000E+00
 -1       611 8.07917E-05 4.52033E-06 0.00000E+00
 -1       612 8.07999E-05 5.34464E-06 0.00000E+00
 -1       613 8.08080E-05 6.22316E-06 0.00000E+00
 -1       614 8.08161E-05 7.14984E-06-1.65436E-24
 -1       615 8.08242E-05 8.11861E-06 8.27181E-25
 -1       616 8.08322E-05 9.12346E-06 0.00000E+00
 -1       617 8.08401E-05 1.01583E-05 0.00000E+00
 -1       618 8.08480E-05 1.12172E-05 0.00000E+00
 -1       619 8.08559E-05 1.22940E-05 0.00000E+00
 -1       620 8.08637E-05 1.33827E-05 0.00000E+00
 -1       621 8.04545E-05 1.11754E-06 0.00000E+00
 -1       622 8.02007E-05 1.18645E-06 0.00000E+00
 -1       623 7.99694E-05 1.25535E-06 0.00000E+00
 -1       624 7.97547E-05 1.32414E-06 0.00000E+00
 -1       625 7.95504E-05 1.39282E-06 0.00000E+00
 -1       626 8.06703E-05 1.44441E-06 3.30872E-24
 -1       627 8.05768E-05 1.91367E-06 0.00000E+00
 -1       628 8.04582E-05 2.44983E-06 0.00000E+00
 -1       629 8.03173E-05 3.04550E-06 0.00000E+00
 -1       630 8.01569E-05 3.69333E-06 0.00000E+00
 -1       631 7.99797E-05 4.38589E-06 1.65436E-24
 -1       632 7.97885E-05 5.11574E-06 0.00000E+00
 -1       633 7.95860E-05 5.87547E-06 0.00000E+00
 -1       634 7.93751E-05 6.65766E-06 0.00000E+00
 -1       635 7.91586E-05 7.45486E-06 0.00000E+00
 -1       636 7.89392E-05 8.25969E-06 0.00000E+00
 -1       637 7.87197E-05 9.06469E-06 0.00000E+00
 -1       638 7.85028E-05 9.86245E-06 1.65436E-24
 -1       639 7.82913E-05 1.06455E-05 0.00000E+00
 -1       640 7.80878E-05 1.14065E-05 1.65436E-24
 -1       656 7.99710E-05 1.40966E-05 0.00000E+00
 -1       657 7.94089E-05 1.37007E-05 3.30872E-24
 -1       658 7.90572E-05 1.33061E-05-6.61744E-24
 -1       659 7.87850E-05 1.29119E-05 0.00000E+00
 -1       660 7.84457E-05 1.25164E-05 0.00000E+00
 -1       661 8.05387E-05 1.55477E-05 8.27181E-25
 -1       662 8.02278E-05 1.65684E-05 0.00000E+00
 -1       663 7.99349E-05 1.75407E-05 0.00000E+00
 -1       664 7.96599E-05 1.84672E-05 8.27181E-25
 -1       665 7.94013E-05 1.93498E-05 1.65436E-24
 -1       666 7.91584E-05 2.01907E-05-8.27181E-25
 -1       667 7.89306E-05 2.09919E-05 1.65436E-24
 -1       668 7.87169E-05 2.17552E-05-8.27181E-25
 -1       669 7.85168E-05 2.24826E-05 0.00000E+00
 -1       670 7.83295E-05 2.31758E-05-8.27181E-25
 -1       671 7.81544E-05 2.38363E-05 1.65436E-24
 -1       672 7.79908E-05 2.44659E-05-8.27181E-25
 -1       673 7.78383E-05 2.50660E-05-1.65436E-24
 -1       674 7.76956E-05 2.56378E-05 0.00000E+00
 -1       675 7.75631E-05 2.61832E-05 0.00000E+00
 -1       676 7.98677E-05 2.70743E-05 0.00000E+00
 -1       677 7.93801E-05 2.69993E-05 0.00000E+00
 -1       678 7.88929E-05 2.69243E-05 1.65436E-24
 -1       679 7.84063E-05 2.68495E-05-8.27181E-25
 -1       680 7.79206E-05 2.67748E-05 0.00000E+00
 -1       771 1.50307E-05 3.59001E-06-2.64698E-23
 -1       772 1.13851E-05 1.03466E-05 0.00000E+00
 -1       773 8.27725E-06 1.56937E-05 5.29396E-23
 -1       774 5.67160E-06 1.97189E-05-2.64698E-23
 -1       775 3.53302E-06 2.25117E-05 5.29396E-23
 -1       776 1.82487E-06 2.41654E-05-1.32349E-23
 -1       777 5.10057E-07 2.47749E-05 0.00000E+00
 -1       778-4.49312E-07 2.44382E-05 0.00000E+00
 -1       779-1.09143E-06 2.32550E-05 0.00000E+00
 -1       780-1.45518E-06 2.13271E-05 1.32349E-23
 -1       781-1.57959E-06 1.87578E-05 2.64698E-23
 -1       782-1.50421E-06 1.56521E-05 0.00000E+00
 -1       783-1.26867E-06 1.21160E-05 2.64698E-23
 -1       784-9.12906E-07 8.25662E-06 0.00000E+00
 -1       785-4.76974E-07 4.18173E-06-2.64698E-23
 -1       786 7.84683E-05 1.37991E-06 4.13590E-25
 -1       787 7.85268E-05 1.30617E-06 0.00000E+00
 -1       788 7.85850E-05 1.24017E-06-1.65436E-24
 -1       789 7.86438E-05 1.18088E-06 8.27181E-25
 -1       790 7.87026E-05 1.12822E-06-1.65436E-24
 -1       791 7.87616E-05 1.08209E-06-8.27181E-25
 -1       792 7.88206E-05 1.04330E-06-1.65436E-24
 -1       793 7.88796E-05 1.01268E-06-8.27181E-25
 -1       794 7.89387E-05 9.92155E-07-1.65436E-24
 -1       795 7.89977E-05 9.83694E-07-8.27181E-25
 -1       796 7.90567E-05 9.90898E-07 1.65436E-24
 -1       797 7.91157E-05 1.01741E-06 0.00000E+00
 -1       798 7.91747E-05 1.06951E-06 0.00000E+00
 -1       799 7.92335E-05 1.15352E-06 0.00000E+00
 -1       800 7.92924E-05 1.28013E-06 0.00000E+00
 -1       801 7.31158E-05 1.32245E-06-3.30872E-24
 -1       802 5.71585E-05 1.06861E-06-1.65436E-24
 -1       803 3.62378E-05 7.31826E-07 0.00000E+00
 -1       804 1.60793E-05 4.03165E-07-6.61744E-24
 -1       805 2.17833E-06 1.72827E-07 0.00000E+00
 -1       806 7.83704E-05 1.33728E-06 0.00000E+00
 -1       807 7.83236E-05 1.21485E-06 0.00000E+00
 -1       808 7.82736E-05 1.09963E-06-1.65436E-24
 -1       809 7.82191E-05 9.95403E-07-8.27181E-25
 -1       810 7.81589E-05 9.05950E-07 0.00000E+00
 -1       811 7.80918E-05 8.34989E-07-8.27181E-25
 -1       812 7.80163E-05 7.86233E-07 0.00000E+00
 -1       813 7.79311E-05 7.63385E-07 0.00000E+00
 -1       814 7.78348E-05 7.70148E-07 3.30872E-24
 -1       815 7.77260E-05 8.10217E-07 0.00000E+00
 -1       816 7.76033E-05 8.87287E-07-1.65436E-24
 -1       817 7.74654E-05 1.00505E-06 0.00000E+00
 -1       818 7.73109E-05 1.16720E-06-1.65436E-24
 -1       819 7.71384E-05 1.37741E-06 8.27181E-25
 -1       820 7.69468E-05 1.63935E-06 1.65436E-24
 -1       821 7.92646E-05 1.65682E-06 8.27181E-25
 -1       822 7.91736E-05 1.83425E-06 8.27181E-25
 -1       823 7.90830E-05 2.03611E-06 0.00000E+00
 -1       824 7.89913E-05 2.30599E-06 0.00000E+00
 -1       825 7.88996E-05 2.67455E-06 3.30872E-24
 -1       826 7.88076E-05 3.17203E-06 1.65436E-24
 -1       827 7.87155E-05 3.80416E-06 0.00000E+00
 -1       828 7.86233E-05 4.57614E-06 0.00000E+00
 -1       829 7.85310E-05 5.46659E-06 0.00000E+00
 -1       830 7.84387E-05 6.45361E-06 0.00000E+00
 -1       831 7.83463E-05 7.49700E-06-3.30872E-24
 -1       832 7.82541E-05 8.55628E-06 1.65436E-24
 -1       833 7.81620E-05 9.58795E-06 0.00000E+00
 -1       834 7.80709E-05 1.05487E-05 0.00000E+00
 -1       835 7.79796E-05 1.14085E-05 8.27181E-25
 -1       836 7.90545E-05 1.54279E-06 0.00000E+00
 -1       837 7.86503E-05 1.62728E-06 0.00000E+00
 -1       838 7.81769E-05 1.71160E-06-1.65436E-24
 -1       839 7.76739E-05 1.79539E-06 0.00000E+00
 -1       840 7.71804E-05 1.87904E-06 0.00000E+00
 -1       856 7.78685E-05 1.28552E-05 0.00000E+00
 -1       857 7.78402E-05 1.36721E-05 0.00000E+00
 -1       858 7.78120E-05 1.45729E-05 0.00000E+00
 -1       859 7.77833E-05 1.55419E-05 4.13590E-25
 -1       860 7.77544E-05 1.65631E-05 0.00000E+00
 -1       861 7.77254E-05 1.76209E-05 4.13590E-25
 -1       862 7.76964E-05 1.86991E-05-8.27181E-25
 -1       863 7.76674E-05 1.97819E-05 0.00000E+00
 -1       864 7.76383E-05 2.08533E-05 0.00000E+00
 -1       865 7.76093E-05 2.18974E-05 0.00000E+00
 -1       866 7.75804E-05 2.28983E-05 8.27181E-25
 -1       867 7.75514E-05 2.38401E-05 0.00000E+00
 -1       868 7.75225E-05 2.47070E-05-8.27181E-25
 -1       869 7.74937E-05 2.54833E-05-4.13590E-25
 -1       870 7.74649E-05 2.61534E-05-8.27181E-25
 -1       871 7.73648E-05 1.21370E-05 4.13590E-25
 -1       872 7.69321E-05 1.21342E-05 0.00000E+00
 -1       873 7.65541E-05 1.21310E-05 0.00000E+00
 -1       874 7.61889E-05 1.21273E-05-1.55096E-25
 -1       875 7.57945E-05 1.21232E-05-6.20385E-25
 -1       876 7.77121E-05 1.28636E-05 0.00000E+00
 -1       877 7.75142E-05 1.36378E-05 0.00000E+00
 -1       878 7.73004E-05 1.44546E-05 0.00000E+00
 -1       879 7.70730E-05 1.53086E-05 1.65436E-24
 -1       880 7.68336E-05 1.61942E-05 0.00000E+00
 -1       881 7.65845E-05 1.71060E-05 1.65436E-24
 -1       882 7.63275E-05 1.80385E-05 3.30872E-24
 -1       883 7.60649E-05 1.89864E-05-1.65436E-24
 -1       884 7.57985E-05 1.99441E-05 0.00000E+00
 -1       885 7.55304E-05 2.09063E-05 1.65436E-24
 -1       886 7.52627E-05 2.18674E-05-3.30872E-24
 -1       887 7.49973E-05 2.28220E-05 0.00000E+00
 -1       888 7.47363E-05 2.37648E-05 0.00000E+00
 -1       889 7.44813E-05 2.46900E-05-8.27181E-25
 -1       890 7.42345E-05 2.55923E-05-8.27181E-25
 -1       891 7.69706E-05 2.66621E-05 0.00000E+00
 -1       892 7.64882E-05 2.66224E-05-4.13590E-25
 -1       893 7.59689E-05 2.65827E-05 0.00000E+00
 -1       894 7.53933E-05 2.65430E-05-2.06795E-25
 -1       895 7.47414E-05 2.65035E-05-2.06795E-25
 -1       956 7.66494E-05 2.38686E-06 0.00000E+00
 -1       957 7.65618E-05 2.87335E-06 0.00000E+00
 -1       958 7.64738E-05 3.41021E-06-1.65436E-24
 -1       959 7.63857E-05 3.99119E-06 0.00000E+00
 -1       960 7.62975E-05 4.61003E-06-1.65436E-24
 -1       961 7.62093E-05 5.26046E-06 8.27181E-25
 -1       962 7.61210E-05 5.93616E-06 1.65436E-24
 -1       963 7.60328E-05 6.63086E-06 0.00000E+00
 -1       964 7.59445E-05 7.33825E-06 0.00000E+00
 -1       965 7.58562E-05 8.05202E-06-1.65436E-24
 -1       966 7.57679E-05 8.76589E-06 0.00000E+00
 -1       967 7.56797E-05 9.47355E-06-1.65436E-24
 -1       968 7.55915E-05 1.01687E-05-3.30872E-24
 -1       969 7.55034E-05 1.08451E-05-1.65436E-24
 -1       970 7.54156E-05 1.14964E-05 0.00000E+00
 -1       971 7.52468E-05 1.27548E-05 0.00000E+00
 -1       972 7.51633E-05 1.34668E-05 0.00000E+00
 -1       973 7.50797E-05 1.42446E-05 0.00000E+00
 -1       974 7.49959E-05 1.50795E-05 0.00000E+00
 -1       975 7.49120E-05 1.59631E-05 3.30872E-24
 -1       976 7.48281E-05 1.68869E-05 8.27181E-25
 -1       977 7.47441E-05 1.78425E-05 3.30872E-24
 -1       978 7.46601E-05 1.88212E-05 1.65436E-24
 -1       979 7.45761E-05 1.98147E-05 0.00000E+00
 -1       980 7.44921E-05 2.08143E-05 0.00000E+00
 -1       981 7.44081E-05 2.18115E-05 0.00000E+00
 -1       982 7.43242E-05 2.27979E-05 0.00000E+00
 -1       983 7.42404E-05 2.37650E-05 0.00000E+00
 -1       984 7.41570E-05 2.47041E-05-8.27181E-25
 -1       985 7.40740E-05 2.56069E-05 1.65436E-24
 -3
    1PSTEP                        10           5           1          
  100CL  105 4.80469E-01         409                     0    5           1
 -4  STRESS      6    1
 -5  SXX         1    4    1    1
 -5  SYY         1    4    2    2
 -5  SZZ         1    4    3    3
 -5  SXY         1    4    1    2
 -5  SYZ         1    4    2    3
 -5  SZX         1    4    3    1
 -1         1-1.75573E+06-7.87110E+05-3.62999E+05-1.08293E+06-1.34605E-10-3.05590E-10
 -1         2 2.68354E+03 1.67792E+05 8.78676E+03 4.88422E+02-1.23123E-10-2.18824E-09
 -1         3-1.05943E+02-7.64219E+05 1.78953E+02-3.03710E+02-1.85885E-10 4.30737E-09
 -1         5-5.27392E+00 2.50825E+05 6.56466E+00 1.14066E-01 1.20031E-10 1.90662E-08
 -1         8-8.30768E+05-3.42744E+05-4.45445E+04-5.65494E+05 1.72804E-10 1.41154E-09
 -1         9-1.59002E+06-4.56083E+05-1.85249E+05-5.28530E+05 3.36440E-09 2.23517E-09
 -1        10-6.31109E+02-7.96156E+05-1.07440E+03-2.05116E+03-3.84762E-09-1.65362E-08
 -1        12-2.58359E+00 2.50839E+05 2.12821E+02 1.00129E+00 4.99085E-11 4.78644E-09
 -1        15 1.98806E+03 1.09256E+03 6.42639E+03 4.20248E+00-1.53364E-10-1.83368E-09
 -1        16-3.38300E+06-1.24511E+06-5.39462E+05-1.29037E+06 1.17531E-08 1.02834E-08
 -1        17-1.03513E+06-5.73086E+05-2.06841E+05-5.09664E+05-1.85843E-08 3.61470E-09
 -1        18-1.47513E+04-8.02541E+03-2.27988E+04-6.04418E+04 9.92372E-10 2.93267E-09
 -1        19 7.87035E+04 9.35565E+04-4.67320E+02 1.53578E+04-5.24051E-10-1.31658E-09
 -1        20-3.36766E+04-3.71825E+05-8.20773E+04 2.69339E+04 2.81837E-09 6.30583E-10
 -1        21-3.49237E+01-2.14532E+05-6.92010E+02-7.17837E+01-9.12778E-09-1.20857E-09
 -1        24-3.25757E+06-9.57030E+05-4.35033E+05-1.20047E+06-2.46995E-08-1.07539E-08
 -1        25 1.30781E+04-8.00938E+04-6.82468E+02-1.08399E+05 3.30874E-10 1.02460E-08
 -1        26-1.91251E+04 6.36156E+04-1.28465E+04-8.70013E+03 1.50612E-09 1.38572E-09
 -1        27-5.90968E+04-2.03855E+05-7.64237E+04 4.59421E+04 6.02336E-09-1.41881E-09
 -1        28 1.65982E+04-5.93549E+04 1.21247E+04 1.88331E+04 3.14020E-09 8.85805E-10
 -1        32-8.28807E+05-3.01072E+05 3.01169E+05-5.37091E+05-1.79280E-08 1.07854E-08
 -1        33-1.16822E+05 5.97978E+04 2.12153E+04-3.42342E+04 9.95423E-10 4.19156E-09
 -1        34-1.51241E+05-1.50969E+04 3.58876E+02 4.66566E+04 2.63775E-09-1.74214E-09
 -1        35-1.68821E+04-2.35873E+04-9.25044E+02 3.73707E+04 4.54816E-09 1.02209E-08
 -1        51 1.50933E+04-3.65754E+05 3.86464E+04-9.39046E+05-7.27596E-11-1.25146E-09
 -1        52 9.22779E+03-3.64399E+05 2.55318E+04-1.09523E+06 9.31323E-10-1.62981E-09
 -1        53 6.77755E+03-3.77125E+05 2.16367E+04-9.35774E+05 2.18279E-10 1.73459E-08
 -1        54 1.93305E+04-3.75806E+05 3.45920E+04-1.09863E+06-1.52795E-10 1.14705E-08
 -1        55 3.83257E+04-3.88951E+05 6.16801E+04-9.35247E+05 8.87667E-10 8.84029E-09
 -1        56-3.36692E+06-3.78647E+05-2.66806E+05-1.29831E+06-4.07454E-10-6.99947E-09
 -1        57-3.47395E+06-6.20280E+05-1.79861E+05-1.28815E+06-2.91038E-11-2.74486E-09
 -1        58-3.42116E+06-4.62533E+05-6.27692E+04-1.28076E+06 1.13323E-09 2.43745E-10
 -1        59-3.41115E+06-5.21898E+05-3.74693E+04-1.30915E+06-1.87924E-09-1.19417E-08
 -1        60-3.42914E+06-4.74157E+05-1.46524E+04-1.27831E+06-3.18096E-10-8.41874E-09
 -1        61-3.40334E+06-5.06778E+05-8.31888E+03-1.31023E+06-2.08240E-09-1.86321E-09
 -1        62-3.42881E+06-4.77305E+05-4.00531E+03-1.27976E+06-7.62384E-10-8.88235E-09
 -1        63-3.40654E+06-5.00514E+05-3.23971E+03-1.30515E+06-1.75578E-09-6.14637E-09
 -1        64-3.42581E+06-4.80454E+05-3.73734E+03-1.28331E+06 8.34461E-10 4.03361E-10
 -1        65-3.41452E+06-4.94767E+05-7.37896E+03-1.29655E+06 3.48336E-10 6.96014E-09
 -1        66-3.42074E+06-4.83160E+05-1.30513E+04-1.28827E+06-5.60703E-10 1.33878E-08
 -1        67-3.43078E+06-4.98653E+05-3.30517E+04-1.28474E+06-1.62737E-09-8.92669E-10
 -1        68-3.40964E+06-4.76913E+05-5.55208E+04-1.29501E+06 1.95450E-09 3.41970E-09
 -1        69-3.49248E+06-5.79588E+05-1.58864E+05-1.25959E+06 2.59570E-09-1.06447E-08
 -1        70-3.35970E+06-4.04671E+05-2.35743E+05-1.31262E+06-7.42148E-10 7.71252E-10
 -1        86-1.34834E+03 1.64913E+05 9.37968E+03-2.44236E+02 1.14392E-09-4.00303E-09
 -1        87 8.93537E+03 1.70849E+05 1.96155E+04 1.00459E+03 1.91108E-09 4.80838E-09
 -1        88-7.58252E+03 1.61858E+05 2.99859E+04-7.60422E+02 2.84854E-09-3.11803E-09
 -1        89 5.64932E+04 1.93026E+05 8.09247E+04 2.19646E+03 4.36921E-09-1.62711E-08
 -1        90-4.87508E+04 1.42759E+05 1.14279E+05-1.43558E+03 4.92582E-09-3.55556E-09
 -1       121-1.63527E+02-7.64677E+05 1.33557E+02 1.51644E+02 3.98941E-10-5.48243E-09
 -1       122-4.60823E+01-7.64184E+05 3.86230E+02-6.07142E+02-1.62939E-09 1.53705E-10
 -1       123-2.03927E+02-7.64719E+05 5.86949E+02 4.54244E+02 1.23481E-09 6.74117E-09
 -1       124 6.70369E+02-7.63759E+05 1.60893E+03-1.34862E+03-2.85445E-09 1.05474E-08
 -1       125-6.62952E+02-7.65123E+05 2.42684E+03 8.92562E+02 1.79807E-09-4.54202E-09
 -1       191-5.75425E+00 2.50846E+05 7.82001E+00-5.76362E-02 1.38764E-10 1.88106E-08
 -1       192-5.87739E+00 2.50826E+05 1.39007E+01 6.44119E-01 1.58563E-10 4.06249E-09
 -1       193-7.35863E+00 2.50846E+05 2.58257E+01-5.90596E-01 2.12804E-10 6.34736E-09
 -1       194-7.81934E+00 2.50828E+05 5.25823E+01 1.57704E+00 9.45812E-11 3.36513E-09
 -1       195-1.04419E+01 2.50844E+05 1.02828E+02-9.97424E-01 3.12326E-10-7.33507E-09
 -1       251-6.36064E+04-3.43615E+04 8.00188E+04 2.36437E+03-4.53610E-11 5.95901E-09
 -1       252-2.59361E+04 3.97234E+04 5.69841E+04-1.11971E+04 1.79000E-10-3.09228E-09
 -1       253-4.96786E+04-5.32868E+03 2.06717E+04 2.52267E+03-1.93040E-10-1.69166E-09
 -1       254-4.25279E+04 6.14116E+03 1.31972E+04-1.15291E+04-1.36055E-10 3.17232E-09
 -1       255-4.71194E+04-8.25823E+02 5.34309E+03 2.69642E+03-1.65983E-10 2.34354E-09
 -1       256-4.56987E+04 9.86816E+02 3.31208E+03-1.17973E+04 1.34891E-09 3.24832E-09
 -1       257-4.65688E+04-1.47335E+02 1.72786E+03 2.79087E+03-7.14550E-10 4.92940E-09
 -1       258-4.62704E+04 3.42242E+02 1.60638E+03-1.18967E+04 4.02019E-10-5.84327E-09
 -1       259-4.65699E+04-1.67275E+02 1.91911E+03 2.79581E+03-6.76096E-10-4.63183E-09
 -1       260-4.56508E+04 1.16401E+03 3.84817E+03-1.18183E+04 1.27248E-09-1.36108E-08
 -1       261-4.71708E+04-9.79401E+02 6.33416E+03 2.71248E+03 3.92163E-10-7.72002E-09
 -1       262-4.20389E+04 7.30554E+03 1.56283E+04-1.15704E+04 3.54959E-10-7.59883E-10
 -1       263-5.01246E+04-6.32978E+03 2.46073E+04 2.54783E+03-1.27341E-09-3.32329E-09
 -1       264-2.25414E+04 4.72254E+04 6.76622E+04-1.12697E+04-4.75541E-09-3.36513E-11
 -1       265-6.65627E+04-4.08277E+04 9.52192E+04 2.41172E+03-1.64982E-09 1.01609E-08
 -1       266-3.59894E+04-1.68260E+04 8.44538E+04-8.99316E+01 2.91038E-11-1.30740E-11
 -1       267 4.17228E+04 1.96151E+04 5.96843E+04 1.03749E+02 5.09317E-11 5.66900E-09
 -1       268-5.59490E+03-2.77782E+03 2.21848E+04-1.32202E+01 4.09273E-11-3.99258E-09
 -1       269 6.60599E+03 3.32471E+03 1.44194E+04 1.53987E+01 2.25100E-11-6.45089E-10
 -1       270-9.91567E+02-5.46266E+02 6.96046E+03-2.08975E+00-3.16049E-11 1.96744E-09
 -1       271-3.50100E+06-4.37996E+05-2.68913E+05-1.36517E+06 5.60249E-10-2.40107E-09
 -1       272-3.58459E+06-6.46719E+05-1.72852E+05-1.37695E+06 2.15095E-10-2.45927E-08
 -1       273-3.55324E+06-5.03323E+05-6.35300E+04-1.35132E+06-3.25599E-10-2.89947E-09
 -1       274-3.52295E+06-5.67254E+05-3.55123E+04-1.39871E+06 2.65572E-09 4.51109E-10
 -1       275-3.56204E+06-5.08365E+05-1.47842E+04-1.34719E+06-3.23780E-10-2.92857E-10
 -1       276-3.51228E+06-5.61701E+05-7.82809E+03-1.40557E+06 1.25237E-09-6.09521E-09
 -1       277-3.56445E+06-5.07544E+05-3.83365E+03-1.34529E+06-1.40653E-09 4.25871E-09
 -1       278-3.50986E+06-5.62527E+05-2.76976E+03-1.40811E+06 2.38379E-09 1.46299E-08
 -1       279-3.56481E+06-5.07244E+05-2.95740E+03-1.34493E+06-1.61606E-09-1.66142E-09
 -1       280-3.51093E+06-5.62460E+05-5.41668E+03-1.40714E+06-8.71069E-10-3.17050E-09
 -1       281-3.56326E+06-5.07741E+05-9.91073E+03-1.34614E+06-1.40471E-09-2.46564E-09
 -1       282-3.51830E+06-5.65794E+05-2.36636E+04-1.40210E+06 1.05683E-09 6.05269E-09
 -1       283-3.55698E+06-5.04856E+05-4.22831E+04-1.34936E+06-9.19044E-10 5.54792E-10
 -1       284-3.56033E+06-6.17390E+05-1.14947E+05-1.38600E+06-2.49509E-09 5.38421E-10
 -1       285-3.52138E+06-4.62372E+05-1.78963E+05-1.35955E+06 9.51331E-10-7.79983E-09
 -1       301 1.56234E+04-2.81441E+04 1.17649E+05-6.48502E+04-5.02041E-10 7.30415E-09
 -1       302 1.67829E+04 1.56666E+03 8.29520E+04-9.54136E+04 1.18553E-09 1.28839E-08
 -1       303 1.01592E+03-1.72405E+04 7.32782E+04-6.49461E+04-6.23913E-10 7.03039E-10
 -1       304 2.80754E+04 1.22287E+04 1.19932E+05-9.51094E+04 1.10595E-09-2.81943E-09
 -1       305 2.75266E+04-3.83550E+04 1.99488E+05-6.51064E+04-7.78527E-10 3.07409E-09
 -1       306-4.66887E+06-5.16108E+05-3.64298E+05-1.79541E+06-8.00355E-10-1.14087E-08
 -1       307-4.73367E+06-9.09501E+05-2.42817E+05-1.82909E+06-1.36738E-08-7.98900E-09
 -1       308-4.78892E+06-5.81205E+05-8.58978E+04-1.70490E+06 3.40015E-09-3.31420E-09
 -1       309-4.59366E+06-8.40435E+05-5.07533E+04-1.94997E+06 6.25363E-09-1.42800E-08
 -1       310-4.81302E+06-5.79997E+05-1.95133E+04-1.67853E+06-6.02313E-09 2.37105E-09
 -1       311-4.58824E+06-8.08301E+05-1.00981E+04-1.93962E+06-6.48288E-09 8.70504E-09
 -1       312-4.79325E+06-6.13760E+05-7.72112E+03-1.71461E+06-1.44119E-08-9.26138E-09
 -1       313-4.65805E+06-7.15786E+05-5.20600E+02-1.82786E+06-1.27457E-08 2.80147E-09
 -1       314-4.73828E+06-6.76041E+05-9.96033E+03-1.78663E+06 6.14091E-09 1.59407E-08
 -1       315-4.78168E+06-5.99323E+05-8.70712E+03-1.69174E+06-4.30964E-09 3.12866E-09
 -1       316-4.67027E+06-7.29796E+05-2.38205E+04-1.85110E+06 9.50331E-09-1.02646E-08
 -1       317-4.89665E+06-5.41483E+05-5.70201E+04-1.60348E+06 1.33023E-08-2.34386E-08
 -1       318-4.62839E+06-7.30624E+05-9.47923E+04-1.87860E+06-2.08511E-08-4.12183E-09
 -1       319-4.98731E+06-7.05738E+05-2.76388E+05-1.57637E+06-2.24318E-08 1.33514E-09
 -1       320-4.58019E+06-5.67532E+05-4.07210E+05-1.87757E+06-1.85246E-08 1.42609E-09
 -1       336 5.16596E+02-8.27805E+05-4.56540E+03 1.15541E+03-7.67432E-09-3.58341E-09
 -1       337-1.67401E+03-8.28870E+05-5.07639E+03-2.91826E+03-1.43141E-08 7.70888E-09
 -1       338 3.55222E+02-8.27909E+05-6.57966E+03 1.75566E+03-1.00692E-08-2.67391E-09
 -1       339-6.83537E+03-8.32093E+05-1.44434E+04-4.10060E+03-1.82235E-08 6.02085E-09
 -1       340 4.59392E+03-8.24678E+05-2.23384E+04 2.32873E+03-1.18334E-08 7.37964E-09
 -1       406 1.36450E+01 2.50835E+05 4.20134E+02-2.00752E-02 4.37524E-10-2.22826E-10
 -1       407 1.43915E+02 2.50912E+05 8.92995E+02-7.50759E+00 3.35092E-11-1.58805E-08
 -1       408 4.57071E+02 2.50770E+05 1.78346E+03 7.67613E+00 5.72982E-10 4.81032E-09
 -1       409 1.92602E+03 2.51482E+05 4.01514E+03-7.40320E+01 4.32010E-11 3.22120E-09
 -1       410 5.53842E+03 2.50263E+05 8.19674E+03 6.91720E+01 4.97494E-10-4.01269E-09
 -1       521-7.64047E+06-7.60461E+05-6.22304E+05-2.68137E+06-4.09273E-10 7.30506E-09
 -1       522-6.74327E+06-1.79958E+06-3.20223E+05-3.39380E+06-4.51982E-08-1.46392E-08
 -1       523-7.84835E+06-6.24307E+05-1.38903E+05-2.28356E+06-7.55244E-09-3.11047E-08
 -1       524-6.62968E+06-1.85182E+06-6.51748E+04-3.90318E+06 5.26497E-08-5.12118E-08
 -1       525-7.86486E+06-6.22943E+05-3.19973E+04-2.24747E+06 4.71300E-08-3.38705E-08
 -1       526-6.59431E+06-1.63644E+06 2.50030E+04-3.55598E+06 2.42326E-08 1.47338E-09
 -1       527-7.79577E+06-9.02726E+05-6.74594E+04-2.57349E+06-1.16124E-08 1.34169E-08
 -1       528-6.89427E+06-1.05875E+06 7.51173E+04-2.71433E+06-2.69720E-08-9.17498E-09
 -1       529-7.45524E+06-1.27815E+06-7.71269E+04-3.00366E+06-3.61833E-08-1.03901E-08
 -1       530-7.76644E+06-3.83356E+05 3.71459E+04-2.07153E+06-7.00129E-08 4.80650E-08
 -1       531-7.00629E+06-1.51806E+06-4.17026E+04-3.27008E+06-5.87606E-08 9.89166E-09
 -1       532-8.41466E+06-6.21965E+04-6.33207E+04-1.86073E+06 5.44514E-08-5.83950E-08
 -1       533-6.91679E+06-1.52352E+06-1.27416E+05-3.30643E+06 2.48474E-08-9.02437E-08
 -1       534-8.15008E+06-4.66836E+05-3.25747E+05-1.93511E+06-2.22644E-08 5.94518E-08
 -1       535-7.20374E+06-1.16487E+06-6.02318E+05-3.13555E+06-1.00408E-08 3.96685E-08
 -1       536-1.87575E+05-1.56199E+04 3.60671E+04-2.03312E+03-5.47431E-10 3.70346E-09
 -1       537-1.71090E+05 1.81012E+04 2.56684E+04 2.59697E+03-1.13554E-08 5.07998E-09
 -1       538-1.81949E+05-2.46867E+03 9.22285E+03-1.39881E+03-1.55353E-10 3.84580E-09
 -1       539-1.77445E+05 2.86533E+03 6.11809E+03 9.77633E+02 4.98932E-09 7.58973E-10
 -1       540-1.81208E+05-4.09851E+02 2.19265E+03-4.13647E+02 2.10827E-09 6.03723E-09
 -1       541-1.78510E+05 4.65142E+02 1.61353E+03-1.03640E+03-6.44945E-10 8.13435E-09
 -1       542-1.80882E+05-7.21577E+01 3.71395E+02 6.15173E+02 1.41603E-09 1.33207E-09
 -1       543-1.79305E+05 3.54731E+01 2.82422E+02-2.85167E+03 3.48479E-10-1.01760E-08
 -1       544-1.80428E+05 3.07217E+01-2.94195E+02 1.40159E+03-2.51660E-10-3.52381E-09
 -1       545-1.80138E+05-2.87204E+02-7.98543E+02-3.96929E+03-1.19013E-09 4.75102E-09
 -1       546-1.80066E+05 2.63263E+02-1.53919E+03 1.73285E+03 7.92562E-10-2.66164E-09
 -1       547-1.81000E+05-1.87868E+03-3.85351E+03-4.08798E+03-4.22872E-09 9.24615E-10
 -1       548-1.79569E+05 1.62267E+03-6.22806E+03 1.52029E+03-4.60405E-09-1.23553E-08
 -1       549-1.85070E+05-1.19443E+04-1.68125E+04-3.16528E+03-3.24587E-09-8.42533E-09
 -1       550-1.75982E+05 1.03097E+04-2.41072E+04 8.10085E+02 2.89049E-11 1.45155E-09
 -1       551 9.68927E+03-4.23031E+05 2.16963E+04-7.09595E+05-3.28801E-08 3.95812E-09
 -1       552 2.14614E+04-4.26957E+05 2.86313E+04-1.01013E+06-2.43526E-08 1.78115E-08
 -1       553 1.47457E+04-4.32394E+05 4.39786E+04-7.07105E+05-4.03306E-08 1.42427E-08
 -1       554 4.45063E+04-4.16415E+05 9.32032E+04-1.01123E+06-2.47965E-08 6.49050E-09
 -1       555 4.19474E+04-4.50469E+05 1.67011E+05-7.07837E+05-4.04689E-08-1.46974E-09
 -1       556 6.84131E+04-1.37879E+05 4.65752E+04-1.79118E+05-1.16270E-08-5.98811E-09
 -1       557 1.24330E+05-1.84053E+05 2.45118E+04-2.24656E+05-1.21945E-08-2.11458E-10
 -1       558 6.80113E+04-1.43971E+05 9.84130E+03-1.73877E+05-8.61473E-09 7.57973E-09
 -1       559 1.16504E+05-1.90338E+05 5.01868E+03-2.28203E+05 2.32831E-09-5.77893E-09
 -1       560 6.61765E+04-1.42759E+05 2.03488E+03-1.75045E+05 6.40284E-10-3.90082E-09
 -1       561 1.13710E+05-1.89585E+05 1.09874E+03-2.29975E+05-3.65617E-09-8.98945E-09
 -1       562 6.47051E+04-1.41781E+05 3.98998E+02-1.76104E+05-3.03407E-09 1.44109E-09
 -1       563 1.11983E+05-1.88842E+05 2.66306E+02-2.31080E+05-5.87170E-09-1.26165E-08
 -1       564 6.37793E+04-1.41185E+05 9.14732E+01-1.76761E+05 3.78714E-09-8.13998E-10
 -1       565 1.11067E+05-1.88449E+05 6.90333E+01-2.31656E+05 2.74395E-09 3.05772E-09
 -1       566 6.34297E+04-1.40955E+05-6.78072E+00-1.77012E+05-3.98722E-09-1.39953E-08
 -1       567 1.10922E+05-1.88378E+05-8.54684E+01-2.31683E+05 7.11054E-09-1.19144E-09
 -1       568 6.36895E+04-1.41127E+05-2.83599E+02-1.76893E+05-3.67436E-10-3.00315E-09
 -1       569 1.10904E+05-1.88255E+05-6.64998E+02-2.30580E+05-3.39060E-09-1.35697E-09
 -1       570 6.50892E+04-1.42359E+05-1.46072E+03-1.76843E+05 4.17276E-09 4.29281E-09
 -1       571 1.82454E+05 6.66669E+03 9.87284E+03-4.66018E+04 8.40373E-10 6.55291E-10
 -1       572 1.83922E+05 2.32240E+03 4.83711E+03-5.10863E+04-1.37584E-09-5.12500E-10
 -1       573 1.83042E+05 5.57433E+02 2.14884E+03-4.64816E+04-4.20641E-10-1.60071E-10
 -1       574 1.83215E+05 1.85966E+02 1.07665E+03-5.12208E+04-4.40423E-10-6.29825E-09
 -1       575 1.83107E+05 3.06662E+01 5.07436E+02-4.64658E+04-5.83668E-10 1.03682E-09
 -1       576 1.83118E+05 1.36913E+01 2.58344E+02-5.12388E+04-3.36712E-10-4.26644E-09
 -1       577 1.83117E+05 2.35655E+00 1.27310E+02-4.64637E+04 7.27482E-10 5.75483E-09
 -1       578 1.83109E+05 4.64874E+00 6.95498E+01-5.12410E+04 1.04956E-09-8.44011E-10
 -1       579 1.83128E+05-1.11840E-01 4.27082E+01-4.64636E+04 4.05180E-10 2.96131E-09
 -1       580 1.83125E+05-1.75012E+00 4.02410E+01-5.12382E+04-1.71212E-09 9.27412E-09
 -1       581 1.83149E+05-7.89390E+00 5.48134E+01-4.64664E+04-8.44011E-10 2.69165E-09
 -1       582 1.83162E+05-2.64985E-01 1.04816E+02-5.12105E+04 1.36060E-09-3.57568E-09
 -1       583 1.83174E+05 2.39157E+01 2.00934E+02-4.64914E+04-8.98945E-09 1.11731E-09
 -1       584 1.83268E+05 1.80035E+02 4.50818E+02-5.10016E+04-2.20211E-08 3.72188E-09
 -1       585 1.83155E+05 5.76364E+02 9.15162E+02-4.66757E+04-1.19690E-08-2.05546E-10
 -1       586-2.15110E+03 6.02079E+04-2.82839E+03-1.59313E+05 2.74213E-10-5.59157E-09
 -1       587-4.46254E+02 5.98306E+04-2.56204E+02-1.75316E+05 7.00311E-10 1.88811E-09
 -1       588 6.37960E+02 5.98968E+04 2.15639E+03-1.59218E+05 4.12001E-10 1.27784E-09
 -1       589 3.15057E+03 6.10729E+04 6.19838E+03-1.75165E+05 4.97494E-10 1.28784E-09
 -1       590 9.04876E+03 5.91659E+04 1.32418E+04-1.59466E+05 2.58751E-10-3.19778E-09
 -1       591-4.00369E+04-1.13198E+04-1.32068E+04-2.05879E+04 6.69104E-10-5.62886E-09
 -1       592-4.13181E+04-1.45188E+04-7.15335E+03-2.39817E+04 7.76140E-10-3.43289E-09
 -1       593-4.13718E+04-1.03472E+04-2.97800E+03-2.15423E+04-1.98838E-10-8.57358E-09
 -1       594-3.94784E+04-1.25985E+04-1.48526E+03-2.40726E+04 4.76462E-10 9.09043E-09
 -1       595-4.14741E+04-1.03427E+04-6.82558E+02-2.15861E+04-9.02560E-10 5.86704E-09
 -1       596-3.93539E+04-1.25105E+04-3.47911E+02-2.40596E+04 2.88418E-09 2.66283E-09
 -1       597-4.14871E+04-1.03512E+04-1.91477E+02-2.15879E+04-1.02176E-10 6.34316E-10
 -1       598-3.93421E+04-1.25072E+04-1.57646E+02-2.40560E+04-3.03794E-09 1.17802E-09
 -1       599-4.14861E+04-1.03512E+04-2.06022E+02-2.15876E+04 1.47031E-09 1.01977E-10
 -1       600-3.93553E+04-1.25117E+04-3.86451E+02-2.40592E+04 2.50952E-09-5.03292E-10
 -1       601-4.14697E+04-1.03421E+04-7.64335E+02-2.15849E+04 7.50106E-10-2.64049E-09
 -1       602-3.94948E+04-1.26102E+04-1.66682E+03-2.40720E+04-2.51021E-09-3.44266E-09
 -1       603-4.13536E+04-1.03488E+04-3.34323E+03-2.15359E+04-9.43601E-10 4.49745E-09
 -1       604-4.15668E+04-1.47584E+04-8.03092E+03-2.39598E+04 3.85967E-10-7.54653E-10
 -1       605-3.98460E+04-1.14473E+04-1.48268E+04-2.04718E+04 1.72633E-09 6.01085E-09
 -1       606 2.56439E+04-8.78910E+03-1.58234E+04 2.50019E+04 6.85759E-09 2.59752E-09
 -1       607 2.29339E+04-2.83651E+03-7.87912E+03 2.80664E+04 1.73895E-08 2.06785E-09
 -1       608 2.44709E+04-4.79521E+02-3.52848E+03 2.48028E+04 1.10012E-08 3.14049E-09
 -1       609 2.41646E+04-1.25352E+02-1.78211E+03 2.82864E+04-9.32232E-10 1.05729E-10
 -1       610 2.43282E+04 2.20378E+01-8.51324E+02 2.47805E+04-2.07638E-09 1.15165E-09
 -1       611 2.42700E+04 3.40396E+01-4.29362E+02 2.83104E+04-4.94674E-09 7.31188E-09
 -1       612 2.42897E+04 3.64583E+01-2.05483E+02 2.47783E+04-3.26418E-09-1.54319E-09
 -1       613 2.42673E+04 4.21145E+01-9.36132E+01 2.83133E+04-5.03860E-09 1.51567E-09
 -1       614 2.42685E+04 3.74358E+01-2.60830E+01 2.47776E+04 4.32919E-10 4.55248E-09
 -1       615 2.42560E+04 4.73720E+01 2.94244E+01 2.83137E+04 6.10635E-09-7.50333E-12
 -1       616 2.42524E+04 4.29009E+01 9.72445E+01 2.47778E+04-3.68891E-09 6.97810E-10
 -1       617 2.42617E+04 7.19300E+01 2.25504E+02 2.83132E+04-9.66111E-10-3.88195E-09
 -1       618 2.42282E+04 1.10852E+02 4.55806E+02 2.47779E+04-1.32832E-09 2.09820E-09
 -1       619 2.44189E+04 4.26827E+02 1.02445E+03 2.83125E+04 2.86036E-10-8.22956E-09
 -1       620 2.40744E+04 1.19417E+03 2.05933E+03 2.47769E+04 2.52260E-09-4.54747E-13
 -1       621 3.05299E+02 1.97413E+05 2.66713E+03 7.31175E+03-3.15708E-10 6.18911E-10
 -1       622 3.50838E+02 1.98074E+05 2.28429E+03 1.06728E+04-2.47724E-10 4.49711E-09
 -1       623 1.44906E+01 1.97600E+05 2.65370E+03 7.27746E+03-1.80364E-10-7.28107E-09
 -1       624 1.20726E+03 1.98858E+05 5.06252E+03 1.07065E+04-2.22570E-10-8.23985E-09
 -1       625 1.21282E+03 1.96622E+05 8.81195E+03 7.27836E+03-2.68301E-11 3.15225E-10
 -1       626 1.63900E+05 4.51766E+04 3.28220E+03 8.82850E+04 1.42518E-09 1.67784E-08
 -1       627 1.61688E+05 4.67951E+04 1.58156E+03 9.18364E+04-1.82627E-09 3.60251E-09
 -1       628 1.64020E+05 4.36264E+04 6.67985E+02 8.87825E+04 3.73348E-09 2.01135E-09
 -1       629 1.61216E+05 4.64193E+04 3.27417E+02 9.20482E+04 1.02000E-08 7.60798E-09
 -1       630 1.64027E+05 4.35534E+04 1.51362E+02 8.87956E+04 1.05410E-09-4.63666E-09
 -1       631 1.61158E+05 4.64110E+04 8.14160E+01 9.20495E+04-4.74211E-09 2.83971E-09
 -1       632 1.64018E+05 4.35595E+04 5.36742E+01 8.87880E+04-5.75756E-09-7.16386E-09
 -1       633 1.61146E+05 4.64160E+04 5.99260E+01 9.20428E+04-4.28258E-09-1.73657E-09
 -1       634 1.64009E+05 4.35605E+04 9.69310E+01 8.87837E+04 4.97721E-09 7.52459E-09
 -1       635 1.61149E+05 4.64176E+04 1.96522E+02 9.20421E+04 3.66401E-09 2.23235E-09
 -1       636 1.63998E+05 4.35598E+04 3.96900E+02 8.87806E+04-1.22998E-09-1.51067E-09
 -1       637 1.61230E+05 4.64808E+04 8.72316E+02 9.20381E+04-4.73193E-10 8.94943E-10
 -1       638 1.63964E+05 4.37543E+04 1.79275E+03 8.86909E+04 1.51192E-09-2.79942E-09
 -1       639 1.62168E+05 4.77921E+04 4.24111E+03 9.17593E+04-4.01860E-09-1.31945E-08
 -1       640 1.63838E+05 4.76583E+04 8.80136E+03 8.70334E+04 2.25873E-09 3.34876E-09
 -1       656 4.43054E+04-1.12174E+06-1.06955E+05-3.70418E+02 2.58296E-10-2.67156E-09
 -1       657-5.85474E+04-1.17002E+06-8.84573E+04 7.15093E+03-5.38421E-10 8.66844E-10
 -1       658 1.40512E+04-1.13551E+06-5.42891E+04-1.42546E+03-6.77574E-11 1.98973E-09
 -1       659-6.27938E+04-1.17203E+06-9.40346E+04 7.85898E+03-4.80213E-10-2.30136E-09
 -1       660 4.85414E+04-1.11973E+06-1.16548E+05-1.07845E+03-9.16771E-10 3.39584E-09
 -1       661 1.56778E+05 1.70578E+04 1.50777E+04 6.12765E+04 2.64890E-09 2.99224E-09
 -1       662 1.64656E+05 2.88590E+04 1.01599E+04 5.86269E+04 2.66027E-10 2.38185E-09
 -1       663 1.59733E+05 2.19001E+04 3.55401E+03 6.04236E+04-7.31006E-10 1.23964E-09
 -1       664 1.61236E+05 2.31906E+04 2.12487E+03 5.96637E+04 7.83473E-10-3.49314E-09
 -1       665 1.60176E+05 2.25670E+04 8.38194E+02 6.02998E+04-4.04526E-10 6.40637E-09
 -1       666 1.60718E+05 2.24235E+04 4.88837E+02 5.98220E+04-4.66103E-09 7.48381E-09
 -1       667 1.60249E+05 2.26472E+04 2.57774E+02 6.02728E+04-7.64430E-10-1.50501E-09
 -1       668 1.60639E+05 2.23599E+04 2.58329E+02 5.98607E+04 3.32086E-09-7.84398E-09
 -1       669 1.60254E+05 2.26287E+04 3.46212E+02 6.02618E+04-4.10694E-12 3.78645E-09
 -1       670 1.60727E+05 2.25424E+04 7.50561E+02 5.98593E+04 4.81879E-09-4.50606E-09
 -1       671 1.60162E+05 2.24683E+04 1.33159E+03 6.02727E+04-6.62709E-10-5.44946E-09
 -1       672 1.61504E+05 2.38363E+04 3.40595E+03 5.96704E+04-5.49003E-09-5.98163E-10
 -1       673 1.59481E+05 2.13673E+04 5.70751E+03 6.04383E+04-2.34468E-09 3.32057E-09
 -1       674 1.66939E+05 3.30032E+04 1.63223E+04 5.80713E+04-7.63066E-10 4.09523E-09
 -1       675 1.54762E+05 1.35578E+04 2.42274E+04 6.17751E+04 5.71163E-10-1.51886E-10
 -1       676 1.79648E+01-2.14474E+05-8.34050E+02 3.58927E+01-2.02220E-09 1.94929E-09
 -1       677-2.21376E+02-2.14676E+05-1.52640E+03-7.17523E+01-5.87374E-09-5.22517E-09
 -1       678 1.47854E+02-2.14330E+05-2.69827E+03 3.58348E+01-9.52355E-10-2.36278E-09
 -1       679-2.69880E+03-2.16304E+05-6.40971E+03-7.15255E+01-5.71447E-09-5.01970E-09
 -1       680 1.61067E+03-2.12846E+05-1.03303E+04 3.52556E+01-3.14321E-09-3.94380E-09
 -1       771-2.29931E+06-4.13367E+05-5.79237E+04-9.65721E+05-1.03028E-08-7.47968E-09
 -1       772-2.28160E+06-4.46252E+05-3.09341E+04-1.00255E+06-7.23230E-09 4.17276E-09
 -1       773-2.30775E+06-4.06768E+05-1.36238E+04-9.68944E+05 1.84082E-09 6.04268E-09
 -1       774-2.27356E+06-4.39704E+05-6.55744E+03-1.00698E+06 1.58616E-08-3.90173E-09
 -1       775-2.31011E+06-4.05175E+05-3.51323E+03-9.69282E+05 1.18598E-09-6.43922E-10
 -1       776-2.27373E+06-4.39783E+05-1.56494E+03-1.00959E+06-2.56114E-09 2.10366E-09
 -1       777-2.31185E+06-4.03895E+05-1.09942E+03-9.69512E+05 1.99361E-09 1.51886E-09
 -1       778-2.27436E+06-4.40033E+05-4.42732E+02-1.01177E+06 3.35785E-09 3.93266E-09
 -1       779-2.31327E+06-4.02807E+05-4.95068E+02-9.69718E+05-3.57250E-09-2.93676E-09
 -1       780-2.27497E+06-4.40232E+05-2.98353E+02-1.01353E+06-4.31100E-09-6.36646E-12
 -1       781-2.31434E+06-4.01940E+05-5.44882E+02-9.69876E+05-9.40781E-09-7.20775E-10
 -1       782-2.27552E+06-4.40412E+05-8.72383E+02-1.01483E+06-1.19544E-08-2.51964E-09
 -1       783-2.31503E+06-4.01365E+05-1.75508E+03-9.69970E+05-4.84579E-09-2.95586E-09
 -1       784-2.27686E+06-4.41594E+05-4.10462E+03-1.01558E+06-9.24683E-09 1.16156E-08
 -1       785-2.31465E+06-4.01618E+05-7.60130E+03-9.69476E+05-1.58952E-08 3.38514E-09
 -1       786 1.64778E+05-8.92738E+03 2.06537E+04-1.85660E+01 2.04735E-06 1.10676E-08
 -1       787 1.73728E+05 1.03351E+04 1.46120E+04 4.08406E+00 4.07895E-06 1.95980E-08
 -1       788 1.68231E+05-1.39947E+03 5.34566E+03-1.20734E+01 4.02649E-06-6.02313E-09
 -1       789 1.69706E+05 1.61926E+03 3.35865E+03-7.66818E+00 3.96702E-06 1.15679E-08
 -1       790 1.68801E+05-2.18612E+02 1.36647E+03-6.81426E+00 4.07973E-06-1.23890E-08
 -1       791 1.69041E+05 2.53948E+02 8.01981E+02-1.87081E+01 4.18739E-06 1.08694E-08
 -1       792 1.68896E+05-3.51834E+01 3.65399E+02-1.03337E+00 2.09572E-06-3.70638E-09
 -1       793 1.68933E+05 4.91054E+01 2.38171E+02-3.24409E+01 6.45330E-09-3.85015E-10
 -1       794 1.68909E+05-1.39031E+01 1.74483E+02 6.91880E+00 7.01325E-10-7.43530E-09
 -1       795 1.68943E+05 7.09940E+01 2.49581E+02-5.27280E+01-3.19354E-10 8.52743E-09
 -1       796 1.68887E+05-5.70538E+01 3.72147E+02 1.92541E+01 3.48924E-10 2.38950E-09
 -1       797 1.69111E+05 4.18081E+02 8.76077E+02-8.52129E+01-4.54627E-10 2.16689E-09
 -1       798 1.68740E+05-3.60737E+02 1.38237E+03 3.94042E+01 2.51098E-10-2.35423E-09
 -1       799 1.70148E+05 2.66355E+03 3.76823E+03-1.39205E+02-9.92596E-10 2.77572E-09
 -1       800 1.67850E+05-2.30071E+03 5.32267E+03 7.32468E+01 6.95497E-11 5.38057E-09
 -1       801 3.13436E+03-4.11382E+05-2.79975E+04 2.06593E+04 1.07502E-08-4.66025E-09
 -1       802 7.07295E+03-3.05730E+05 2.36228E+04-7.30353E+04 2.90993E-08-4.97511E-09
 -1       803-9.42046E+03-3.63963E+05 4.53182E+04 2.85031E+04 2.30284E-08 1.72386E-08
 -1       804 1.04453E+05-2.49060E+05 1.51765E+05-7.19123E+04 2.68119E-08 2.42688E-08
 -1       805-9.44198E+04-4.67636E+05 1.85739E+05 1.95318E+04 9.47330E-09 2.33870E-08
 -1       806-1.98763E+05-4.20774E+04-1.66843E+04-8.22359E+04-3.77440E-11 2.69711E-09
 -1       807-1.99794E+05-3.96396E+04-8.19667E+03-8.66040E+04 3.30465E-09-9.75490E-10
 -1       808-1.99234E+05-3.60529E+04-3.47702E+03-8.50689E+04 5.35897E-09 1.22946E-08
 -1       809-1.98048E+05-3.73604E+04-1.69985E+03-8.68359E+04-1.03000E-10-3.24076E-09
 -1       810-1.99307E+05-3.58407E+04-7.78385E+02-8.51939E+04 7.53494E-09 2.64936E-09
 -1       811-1.97914E+05-3.72701E+04-3.86096E+02-8.68152E+04 1.61529E-08-4.73233E-09
 -1       812-1.99319E+05-3.58568E+04-1.92845E+02-8.51935E+04 5.91399E-09-1.37031E-08
 -1       813-1.97896E+05-3.72724E+04-1.21855E+02-8.68042E+04 2.47451E-09 1.02572E-08
 -1       814-1.99317E+05-3.58630E+04-1.14671E+02-8.51908E+04 8.17636E-10-6.14750E-09
 -1       815-1.97898E+05-3.72745E+04-1.79756E+02-8.68008E+04 9.87711E-10 1.23885E-09
 -1       816-1.99305E+05-3.58619E+04-3.37048E+02-8.51883E+04-1.42063E-09 1.68166E-09
 -1       817-1.97955E+05-3.73068E+04-7.22559E+02-8.67942E+04 1.04228E-09 2.82807E-09
 -1       818-1.99261E+05-3.59635E+04-1.47268E+03-8.51402E+04 2.46746E-09 2.50702E-09
 -1       819-1.98767E+05-3.81911E+04-3.46583E+03-8.65974E+04 1.17871E-09 2.91379E-09
 -1       820-1.98981E+05-3.85836E+04-7.05368E+03-8.40224E+04 6.55746E-10 9.63360E-09
 -1       821-2.56453E+05 1.42087E+04-3.28599E+04 1.06369E+02-5.20484E-10-4.60204E-10
 -1       822-2.70693E+05-1.64489E+04-2.32532E+04-6.53090E+02-2.36571E-09 4.49609E-09
 -1       823-2.61949E+05 2.22759E+03-8.51079E+03 7.81166E+01 7.97266E-10-1.54932E-09
 -1       824-2.64284E+05-2.57832E+03-5.35486E+03-5.04151E+02-1.15449E-10 1.02841E-09
 -1       825-2.62860E+05 3.48594E+02-2.20126E+03-4.25752E+01-2.54570E-09 5.05679E-10
 -1       826-2.63222E+05-4.11110E+02-1.32826E+03-2.18692E+02-5.16176E-09-5.52744E-09
 -1       827-2.63009E+05 6.17976E+01-6.88292E+02-2.07347E+02-3.98210E-09-3.80786E-09
 -1       828-2.63079E+05-1.25434E+02-6.07842E+02 9.11018E+01-5.14229E-09 7.54818E-09
 -1       829-2.63003E+05 6.31826E+01-6.98659E+02-3.52375E+02-6.31497E-10 6.35140E-10
 -1       830-2.63242E+05-4.21882E+02-1.36394E+03 3.05219E+02 1.54959E-09-1.23954E-09
 -1       831-2.62846E+05 3.58244E+02-2.25897E+03-4.21469E+02-2.91280E-09 7.01107E-10
 -1       832-2.64328E+05-2.64927E+03-5.50468E+03 3.41287E+02-1.60895E-09 5.29690E-09
 -1       833-2.61918E+05 2.28901E+03-8.74743E+03-3.88442E+02-1.76175E-09 6.93990E-09
 -1       834-2.70899E+05-1.69054E+04-2.38988E+04 1.87405E+02-2.77472E-10 4.72028E-09
 -1       835-2.56277E+05 1.46032E+04-3.37768E+04-2.67577E+02 4.79656E-09 6.74299E-09
 -1       836-8.54043E+02 2.42066E+05 1.45981E+04-2.07558E+04 1.52886E-09 6.23413E-09
 -1       837 3.21436E+03 2.46586E+05 1.24599E+04-4.16858E+04 2.18938E-09 6.72810E-09
 -1       838-3.12704E+02 2.43324E+05 1.28434E+04-2.06853E+04 1.96178E-09 7.75606E-09
 -1       839 8.24323E+03 2.50335E+05 2.44416E+04-4.17118E+04 2.74213E-09 3.97866E-09
 -1       840-2.47677E+03 2.38283E+05 3.90353E+04-2.07283E+04 1.70257E-09 3.29283E-09
 -1       856-7.80722E+04 6.79194E+03-1.78985E+04-4.00482E+02-2.85917E-09-4.41014E-09
 -1       857-8.54656E+04-7.96594E+03-1.23228E+04 4.09666E+03-2.48707E-09 1.05115E-09
 -1       858-8.09932E+04 9.51656E+02-4.64517E+03-4.18791E+02-4.67807E-09-1.36515E-09
 -1       859-8.21110E+04-1.10638E+03-2.80550E+03 4.12586E+03-1.14129E-09-2.21178E-10
 -1       860-8.14300E+04 1.32337E+02-1.17957E+03-4.29811E+02-7.74719E-10-4.51763E-09
 -1       861-8.16080E+04-1.46048E+02-6.56900E+02 4.14093E+03-6.80626E-09-1.56045E-09
 -1       862-8.14979E+04 1.75159E+01-2.89099E+02-4.33890E+02 3.16943E-09-3.96750E-09
 -1       863-8.15275E+04-1.04603E+01-1.41708E+02 4.14276E+03 1.13905E-08-2.37075E-09
 -1       864-8.15106E+04-2.72061E-01-4.19608E+01-4.31643E+02 4.27799E-09-3.05793E-09
 -1       865-8.15032E+04 2.19196E+01 3.36784E+01 4.13144E+03 3.48666E-09-1.95040E-09
 -1       866-8.15209E+04-1.52613E+01 1.09958E+02-4.22567E+02 1.82561E-09 1.38056E-09
 -1       867-8.14403E+04 1.27896E+02 2.97659E+02 4.10681E+03 1.93646E-09 5.31556E-09
 -1       868-8.15706E+04-1.05514E+02 5.01127E+02-4.07015E+02 1.80836E-09 8.60851E-09
 -1       869-8.10649E+04 8.75242E+02 1.34427E+03 4.06603E+03-2.12049E-09-1.72969E-09
 -1       870-8.18920E+04-7.44027E+02 1.94952E+03-3.81784E+02-5.75255E-10-5.99812E-09
 -1       871-3.76426E+03-7.96714E+03-1.22091E+04 8.01229E+04 1.28784E-09 1.40062E-09
 -1       872-1.63897E+03-1.06992E+04-4.97670E+03 1.03874E+05 3.27873E-09-7.80346E-10
 -1       873-4.16338E+01-9.42325E+03 7.11314E+02 7.99466E+04 1.78898E-09 2.50088E-09
 -1       874 1.87010E+03-7.64637E+03 6.92642E+03 1.03911E+05 4.70391E-09 5.86260E-09
 -1       875 4.44076E+03-1.10671E+04 1.53599E+04 8.00937E+04 2.80670E-09 4.26098E-09
 -1       876 1.99603E+05 3.44044E+04 1.06791E+04 8.09951E+04-2.13123E-09 1.41426E-09
 -1       877 2.00210E+05 3.67516E+04 5.70289E+03 8.41565E+04-7.10577E-09-5.48084E-10
 -1       878 2.00601E+05 3.32224E+04 2.38925E+03 8.18721E+04 3.55317E-09 5.24324E-10
 -1       879 1.98758E+05 3.53050E+04 1.19019E+03 8.42323E+04 8.19455E-10-4.69527E-11
 -1       880 2.00674E+05 3.32092E+04 5.54105E+02 8.19078E+04 1.87583E-10 6.47310E-09
 -1       881 1.98661E+05 3.52436E+04 2.95120E+02 8.42173E+04 1.51510E-09 5.70193E-09
 -1       882 2.00681E+05 3.32179E+04 1.87470E+02 8.19088E+04 4.74654E-09 2.35899E-09
 -1       883 1.98654E+05 3.52407E+04 1.99382E+02 8.42130E+04 6.40057E-09 6.48953E-09
 -1       884 2.00677E+05 3.32157E+04 3.15220E+02 8.19089E+04 4.37529E-09 4.48330E-09
 -1       885 1.98679E+05 3.52452E+04 6.32550E+02 8.42209E+04 4.11423E-09 1.73770E-09
 -1       886 2.00653E+05 3.31972E+04 1.27431E+03 8.19064E+04 7.21028E-09 3.65196E-09
 -1       887 1.98903E+05 3.53919E+04 2.78337E+03 8.42531E+04 5.31463E-09 1.01113E-09
 -1       888 2.00477E+05 3.32282E+04 5.60854E+03 8.18174E+04 2.20246E-09 2.16914E-09
 -1       889 2.02246E+05 3.88616E+04 1.33984E+04 8.41469E+04 2.73135E-09-4.95470E-09
 -1       890 1.98191E+05 3.59426E+04 2.50941E+04 7.96778E+04 2.27283E-09 1.97178E-09
 -1       891-1.25568E+02-1.13410E+05-1.33916E+03 2.15080E+04-8.01947E-10 2.41266E-09
 -1       892-2.18309E+02-1.13730E+05-1.45681E+03 3.25464E+04-1.25942E-09-3.63684E-10
 -1       893-3.65794E+01-1.13452E+05-2.08175E+03 2.15122E+04 1.23373E-09 8.89122E-09
 -1       894-1.14006E+03-1.14528E+05-4.32246E+03 3.24307E+04-1.57297E-09 4.09273E-10
 -1       895-8.90758E+02-1.12553E+05-7.61701E+03 2.16222E+04 1.30638E-09 3.70301E-09
 -1       956-2.51007E+05-3.61263E+03-9.09743E+03 1.66544E+04 2.33922E-09-1.40790E-09
 -1       957-2.52804E+05-1.21767E+03-4.67029E+03 2.00550E+04 6.83895E-09-4.03543E-09
 -1       958-2.51814E+05-9.59467E+01-2.10407E+03 1.65461E+04-1.87356E-10-5.26711E-09
 -1       959-2.51957E+05-1.53442E+01-1.07472E+03 2.01721E+04-1.04694E-08 4.67980E-09
 -1       960-2.51886E+05 3.14108E+01-5.23842E+02 1.65358E+04-6.63886E-09 7.76936E-10
 -1       961-2.51895E+05 2.98575E+01-2.77752E+02 2.01838E+04-5.82668E-09-2.08377E-09
 -1       962-2.51900E+05 2.76835E+01-1.58614E+02 1.65343E+04-3.66094E-09 5.65694E-09
 -1       963-2.51893E+05 3.09712E+01-1.26649E+02 2.01859E+04-6.49743E-09 6.07679E-09
 -1       964-2.51903E+05 2.94667E+01-1.52897E+02 1.65337E+04-3.37548E-09-3.95710E-09
 -1       965-2.51902E+05 3.37733E+01-2.63486E+02 2.01859E+04 3.48630E-09-5.68059E-09
 -1       966-2.51896E+05 3.66678E+01-4.94176E+02 1.65342E+04 1.12470E-09-5.56929E-09
 -1       967-2.51967E+05-5.00691E+00-1.01335E+03 2.01796E+04 3.30601E-10 9.51081E-09
 -1       968-2.51833E+05-7.97869E+01-1.98294E+03 1.65401E+04 1.85560E-09 4.09156E-09
 -1       969-2.52772E+05-1.13515E+03-4.40270E+03 2.01102E+04 1.76760E-09 2.77436E-09
 -1       970-2.51077E+05-3.39275E+03-8.57545E+03 1.66061E+04 1.27329E-10 3.77077E-09
 -1       971-2.38174E+05-1.25552E+03-6.98891E+03 1.16034E+04-3.10683E-09 3.89193E-09
 -1       972-2.39874E+05-8.99298E+02-3.80623E+03 1.62089E+04-3.92970E-09 4.04953E-09
 -1       973-2.38950E+05-6.90165E+00-1.70424E+03 1.15068E+04-2.51839E-09-1.95257E-09
 -1       974-2.39069E+05-6.61705E+00-8.82903E+02 1.63130E+04 2.83853E-09 3.00895E-09
 -1       975-2.39010E+05 2.53899E+01-4.40225E+02 1.14982E+04 4.58203E-09-1.65608E-09
 -1       976-2.39020E+05 2.96026E+01-2.52116E+02 1.63233E+04 4.64365E-09 3.60558E-09
 -1       977-2.39021E+05 2.49171E+01-1.79570E+02 1.14963E+04 4.17253E-09-4.15980E-10
 -1       978-2.39023E+05 3.34479E+01-2.05532E+02 1.63260E+04 1.18666E-08 3.73018E-09
 -1       979-2.39021E+05 3.03262E+01-3.26227E+02 1.14956E+04 2.01101E-09 5.32339E-09
 -1       980-2.39047E+05 3.53967E+01-6.27399E+02 1.63264E+04-1.61435E-10 1.64607E-09
 -1       981-2.39001E+05 4.59600E+01-1.21378E+03 1.14959E+04-2.97086E-09 2.09371E-09
 -1       982-2.39213E+05-5.40884E+01-2.50810E+03 1.63216E+04-1.71212E-09-1.01304E-08
 -1       983-2.38848E+05-3.14547E+01-4.87281E+03 1.15005E+04 8.03766E-10-1.26158E-09
 -1       984-2.41557E+05-2.59843E+03-1.09118E+04 1.62561E+04-1.43052E-09 6.52312E-09
 -1       985-2.36643E+05-3.59681E+03-2.00376E+04 1.15660E+04 4.64752E-09 2.21826E-09
 -3
    1PSTEP                        11           6           1          
  100CL  106 4.92188E-01         409                     0    6           1
 -4  DISP        4    1
 -5  D1          1    2    1    0
 -5  D2          1    2    2    0
 -5  D3          1    2    3    0
 -5  ALL         1    2    0    0    1ALL
 -1         1 2.07073E-04 0.00000E+00 0.00000E+00
 -1         2 1.91034E-04-1.89140E-30 0.00000E+00
 -1         3 1.33979E-04 9.47563E-29 0.00000E+00
 -1         5 9.01676E-05 3.88506E-27 3.30872E-24
 -1         8 1.82887E-04-8.47393E-07 0.00000E+00
 -1         9 1.79847E-04-2.32565E-07 0.00000E+00
 -1        10 1.23472E-04-1.82131E-06 0.00000E+00
 -1        12 8.98049E-05 5.40082E-07-1.65436E-24
 -1        15 1.54046E-04-9.37264E-07-4.13590E-25
 -1        16 1.57983E-04-4.75268E-07 0.00000E+00
 -1        17 9.00653E-05-3.86500E-06 0.00000E+00
 -1        18 8.76614E-05 2.78109E-06 0.00000E+00
 -1        19 8.87170E-05 1.07728E-06 0.00000E+00
 -1        20 8.88528E-05 1.35106E-05 0.00000E+00
 -1        21 8.83174E-05 2.50075E-05 1.65436E-24
 -1        24 1.99887E-05-5.26221E-06 0.00000E+00
 -1        25 8.69081E-05 2.90797E-06 0.00000E+00
 -1        26 8.78146E-05 1.49771E-06 0.00000E+00
 -1        27 8.63188E-05 1.10992E-05 0.00000E+00
 -1        28 8.58681E-05 2.45492E-05 0.00000E+00
 -1        32 0.00000E+00 0.00000E+00 0.00000E+00
 -1        33 8.57045E-05 2.00620E-06 0.00000E+00
 -1        34 8.42549E-05 1.10769E-05 0.00000E+00
 -1        35 8.28833E-05 2.43063E-05 0.00000E+00
 -1        51 2.05503E-04-1.40387E-07 0.00000E+00
 -1        52 2.02590E-04-2.75820E-07 0.00000E+00
 -1        53 1.98598E-04-4.12476E-07 0.00000E+00
 -1        54 1.93800E-04-5.51886E-07 3.30872E-24
 -1        55 1.88471E-04-6.94862E-07 2.27475E-24
 -1        56 2.05708E-04-7.57055E-07 0.00000E+00
 -1        57 2.04437E-04-1.92191E-06-1.32349E-23
 -1        58 2.03274E-04-3.36625E-06-5.29396E-23
 -1        59 2.02163E-04-4.97613E-06-2.64698E-23
 -1        60 2.01064E-04-6.61851E-06-5.29396E-23
 -1        61 1.99927E-04-8.16290E-06-2.64698E-23
 -1        62 1.98706E-04-9.48503E-06 0.00000E+00
 -1        63 1.97358E-04-1.04690E-05-2.64698E-23
 -1        64 1.95849E-04-1.10229E-05-5.29396E-23
 -1        65 1.94150E-04-1.10698E-05-2.64698E-23
 -1        66 1.92245E-04-1.05689E-05 5.29396E-23
 -1        67 1.90127E-04-9.49832E-06 2.64698E-23
 -1        68 1.87802E-04-7.87739E-06 0.00000E+00
 -1        69 1.85292E-04-5.74158E-06 0.00000E+00
 -1        70 1.82613E-04-3.16921E-06-2.64698E-23
 -1        86 1.90716E-04-3.22789E-08 1.65436E-24
 -1        87 1.89761E-04-6.54319E-08 8.27181E-25
 -1        88 1.88181E-04-9.94159E-08 0.00000E+00
 -1        89 1.85987E-04-1.37563E-07-1.65436E-24
 -1        90 1.83201E-04-1.76092E-07 0.00000E+00
 -1       121 1.33685E-04-3.01527E-07 6.61744E-24
 -1       122 1.32805E-04-6.03392E-07 0.00000E+00
 -1       123 1.31340E-04-9.05926E-07 0.00000E+00
 -1       124 1.29293E-04-1.20951E-06 0.00000E+00
 -1       125 1.26668E-04-1.51437E-06 0.00000E+00
 -1       191 9.01575E-05 9.00192E-08 0.00000E+00
 -1       192 9.01273E-05 1.80037E-07-1.65436E-24
 -1       193 9.00769E-05 2.70054E-07 3.30872E-24
 -1       194 9.00064E-05 3.60069E-07 0.00000E+00
 -1       195 8.99157E-05 4.50079E-07 3.30872E-24
 -1       251 1.82686E-04 3.34976E-06 6.61744E-24
 -1       252 1.82494E-04 6.32501E-06 0.00000E+00
 -1       253 1.82305E-04 8.10089E-06 0.00000E+00
 -1       254 1.82118E-04 8.70897E-06 0.00000E+00
 -1       255 1.81932E-04 8.29086E-06 6.61744E-24
 -1       256 1.81745E-04 6.99598E-06-3.30872E-24
 -1       257 1.81557E-04 5.05629E-06 0.00000E+00
 -1       258 1.81368E-04 2.70868E-06 0.00000E+00
 -1       259 1.81179E-04 2.28382E-07 0.00000E+00
 -1       260 1.80990E-04-2.10832E-06 0.00000E+00
 -1       261 1.80802E-04-4.03863E-06 6.61744E-24
 -1       262 1.80615E-04-5.30294E-06 0.00000E+00
 -1       263 1.80428E-04-5.70428E-06-6.61744E-24
 -1       264 1.80239E-04-5.05226E-06 0.00000E+00
 -1       265 1.80049E-04-3.25583E-06 6.61744E-24
 -1       266 1.78080E-04-8.74023E-07 0.00000E+00
 -1       267 1.73273E-04-8.87581E-07-1.65436E-24
 -1       268 1.68466E-04-9.01967E-07 1.65436E-24
 -1       269 1.63659E-04-9.13901E-07 0.00000E+00
 -1       270 1.58852E-04-9.25778E-07 0.00000E+00
 -1       271 1.79985E-04 2.87507E-06-2.64698E-23
 -1       272 1.77457E-04 5.47780E-06 0.00000E+00
 -1       273 1.75313E-04 7.06895E-06 0.00000E+00
 -1       274 1.73503E-04 7.75448E-06-2.64698E-23
 -1       275 1.71985E-04 7.66202E-06 5.29396E-23
 -1       276 1.70706E-04 6.93003E-06 2.64698E-23
 -1       277 1.69609E-04 5.70922E-06 0.00000E+00
 -1       278 1.68635E-04 4.15833E-06 0.00000E+00
 -1       279 1.67723E-04 2.44219E-06 0.00000E+00
 -1       280 1.66811E-04 7.28484E-07 0.00000E+00
 -1       281 1.65835E-04-8.15261E-07 5.29396E-23
 -1       282 1.64735E-04-2.02430E-06 2.64698E-23
 -1       283 1.63450E-04-2.74021E-06 5.29396E-23
 -1       284 1.61929E-04-2.81148E-06 0.00000E+00
 -1       285 1.60112E-04-2.10166E-06 0.00000E+00
 -1       301 1.75987E-04-2.82510E-07-6.61744E-24
 -1       302 1.72050E-04-3.15276E-07 0.00000E+00
 -1       303 1.68157E-04-3.47187E-07 0.00000E+00
 -1       304 1.64433E-04-3.79772E-07 0.00000E+00
 -1       305 1.61001E-04-4.13630E-07 0.00000E+00
 -1       306 1.84270E-04-1.85641E-05 0.00000E+00
 -1       307 2.02521E-04-7.84893E-05 2.64698E-23
 -1       308 2.30091E-04-1.69587E-04 0.00000E+00
 -1       309 2.62655E-04-2.79150E-04-2.64698E-23
 -1       310 2.95514E-04-3.89824E-04 0.00000E+00
 -1       311 3.23980E-04-4.84175E-04-2.64698E-23
 -1       312 3.43706E-04-5.48891E-04 0.00000E+00
 -1       313 3.50044E-04-5.72846E-04 0.00000E+00
 -1       314 3.40675E-04-5.54681E-04-5.29396E-23
 -1       315 3.14258E-04-4.95836E-04 0.00000E+00
 -1       316 2.74092E-04-4.06935E-04 5.29396E-23
 -1       317 2.25193E-04-3.00188E-04 0.00000E+00
 -1       318 1.75436E-04-1.91720E-04 5.29396E-23
 -1       319 1.32840E-04-9.77191E-05 2.64698E-23
 -1       320 1.03033E-04-3.12384E-05 0.00000E+00
 -1       336 1.19634E-04-2.15425E-06 0.00000E+00
 -1       337 1.15087E-04-2.49046E-06 6.61744E-24
 -1       338 1.09842E-04-2.82983E-06-6.61744E-24
 -1       339 1.03913E-04-3.17226E-06 0.00000E+00
 -1       340 9.73153E-05-3.51878E-06 0.00000E+00
 -1       406 8.96739E-05 6.30072E-07 0.00000E+00
 -1       407 8.95228E-05 7.20031E-07 1.65436E-24
 -1       408 8.93515E-05 8.09931E-07-3.30872E-24
 -1       409 8.91600E-05 8.99663E-07 0.00000E+00
 -1       410 8.89484E-05 9.89053E-07 3.30872E-24
 -1       521 1.63395E-04-2.51190E-05 0.00000E+00
 -1       522 1.85083E-04-1.00426E-04 5.29396E-23
 -1       523 2.17506E-04-2.13908E-04 0.00000E+00
 -1       524 2.55373E-04-3.49438E-04 5.29396E-23
 -1       525 2.93435E-04-4.85773E-04 1.05879E-22
 -1       526 3.26440E-04-6.01590E-04 5.29396E-23
 -1       527 3.49132E-04-6.80351E-04-1.05879E-22
 -1       528 3.55844E-04-7.09055E-04 0.00000E+00
 -1       529 3.43115E-04-6.85732E-04 0.00000E+00
 -1       530 3.09103E-04-6.12970E-04 0.00000E+00
 -1       531 2.57506E-04-5.03417E-04-1.05879E-22
 -1       532 1.94738E-04-3.72301E-04-5.29396E-23
 -1       533 1.30811E-04-2.38988E-04-1.05879E-22
 -1       534 7.59563E-05-1.22959E-04 0.00000E+00
 -1       535 3.74335E-05-4.04299E-05 5.29396E-23
 -1       536 8.99084E-05 4.94649E-06-6.61744E-24
 -1       537 8.97319E-05 1.62205E-05 0.00000E+00
 -1       538 8.95433E-05 2.85679E-05 0.00000E+00
 -1       539 8.93592E-05 4.05947E-05-1.65436E-24
 -1       540 8.91923E-05 5.09807E-05-3.30872E-24
 -1       541 8.90510E-05 5.84144E-05 0.00000E+00
 -1       542 8.89286E-05 6.22722E-05 3.30872E-24
 -1       543 8.88134E-05 6.19491E-05 0.00000E+00
 -1       544 8.86903E-05 5.78119E-05 0.00000E+00
 -1       545 8.85479E-05 5.02472E-05-1.65436E-24
 -1       546 8.83874E-05 4.04399E-05 3.30872E-24
 -1       547 8.82167E-05 2.95862E-05 0.00000E+00
 -1       548 8.80500E-05 1.91268E-05-3.30872E-24
 -1       549 8.79012E-05 1.05005E-05 1.65436E-24
 -1       550 8.77712E-05 4.71962E-06-1.65436E-24
 -1       551 8.07663E-05-4.07023E-06 0.00000E+00
 -1       552 6.97701E-05-4.28833E-06 1.65436E-24
 -1       553 5.76312E-05-4.51858E-06 1.65436E-24
 -1       554 4.49131E-05-4.75781E-06 0.00000E+00
 -1       555 3.21791E-05-4.99992E-06 0.00000E+00
 -1       556 8.75368E-05 2.68640E-06 0.00000E+00
 -1       557 8.55796E-05 7.76639E-06 0.00000E+00
 -1       558 8.41331E-05 1.15062E-05 0.00000E+00
 -1       559 8.31415E-05 1.40477E-05 0.00000E+00
 -1       560 8.25492E-05 1.55322E-05 0.00000E+00
 -1       561 8.23015E-05 1.61021E-05-6.61744E-24
 -1       562 8.23438E-05 1.58999E-05 0.00000E+00
 -1       563 8.26220E-05 1.50683E-05 0.00000E+00
 -1       564 8.30823E-05 1.37501E-05 0.00000E+00
 -1       565 8.36711E-05 1.20884E-05 0.00000E+00
 -1       566 8.43347E-05 1.02261E-05 0.00000E+00
 -1       567 8.50198E-05 8.30624E-06 3.10193E-25
 -1       568 8.56730E-05 6.47191E-06 0.00000E+00
 -1       569 8.62409E-05 4.86598E-06 0.00000E+00
 -1       570 8.66701E-05 3.63137E-06 0.00000E+00
 -1       571 8.77254E-05 2.70362E-06 1.24077E-24
 -1       572 8.77909E-05 2.58324E-06-4.13590E-25
 -1       573 8.78568E-05 2.42792E-06-8.27181E-25
 -1       574 8.79229E-05 2.24607E-06 0.00000E+00
 -1       575 8.79890E-05 2.04611E-06 0.00000E+00
 -1       576 8.80552E-05 1.83652E-06-8.27181E-25
 -1       577 8.81214E-05 1.62579E-06 0.00000E+00
 -1       578 8.81876E-05 1.42242E-06 1.65436E-24
 -1       579 8.82538E-05 1.23490E-06 0.00000E+00
 -1       580 8.83200E-05 1.07171E-06 0.00000E+00
 -1       581 8.83862E-05 9.41370E-07 0.00000E+00
 -1       582 8.84525E-05 8.52348E-07-3.30872E-24
 -1       583 8.85187E-05 8.13125E-07 0.00000E+00
 -1       584 8.85848E-05 8.32092E-07 0.00000E+00
 -1       585 8.86510E-05 9.17582E-07-3.30872E-24
 -1       586 8.75048E-05 2.80354E-06 0.00000E+00
 -1       587 8.73221E-05 2.82548E-06-3.10193E-25
 -1       588 8.71421E-05 2.84717E-06 0.00000E+00
 -1       589 8.69939E-05 2.86851E-06 0.00000E+00
 -1       590 8.69065E-05 2.88925E-06 0.00000E+00
 -1       591 8.76587E-05 2.74042E-06-1.55096E-25
 -1       592 8.76657E-05 2.66709E-06 0.00000E+00
 -1       593 8.76824E-05 2.56750E-06-4.13590E-25
 -1       594 8.77065E-05 2.44736E-06 0.00000E+00
 -1       595 8.77361E-05 2.31246E-06 0.00000E+00
 -1       596 8.77690E-05 2.16854E-06 0.00000E+00
 -1       597 8.78031E-05 2.02136E-06-4.13590E-25
 -1       598 8.78362E-05 1.87665E-06 0.00000E+00
 -1       599 8.78663E-05 1.74015E-06-4.13590E-25
 -1       600 8.78912E-05 1.61760E-06 0.00000E+00
 -1       601 8.79087E-05 1.51474E-06 0.00000E+00
 -1       602 8.79167E-05 1.43732E-06-1.03398E-25
 -1       603 8.79131E-05 1.39107E-06-1.03398E-25
 -1       604 8.78959E-05 1.38179E-06 0.00000E+00
 -1       605 8.78630E-05 1.41520E-06 0.00000E+00
 -1       606 8.87288E-05 1.38701E-06 0.00000E+00
 -1       607 8.87383E-05 1.78650E-06 0.00000E+00
 -1       608 8.87472E-05 2.27048E-06-3.30872E-24
 -1       609 8.87558E-05 2.83301E-06 0.00000E+00
 -1       610 8.87642E-05 3.46811E-06 0.00000E+00
 -1       611 8.87725E-05 4.16974E-06 0.00000E+00
 -1       612 8.87808E-05 4.93183E-06 0.00000E+00
 -1       613 8.87890E-05 5.74832E-06 0.00000E+00
 -1       614 8.87971E-05 6.61314E-06 0.00000E+00
 -1       615 8.88053E-05 7.52022E-06-8.27181E-25
 -1       616 8.88134E-05 8.46351E-06 0.00000E+00
 -1       617 8.88214E-05 9.43693E-06 0.00000E+00
 -1       618 8.88294E-05 1.04344E-05 0.00000E+00
 -1       619 8.88374E-05 1.14499E-05 4.13590E-25
 -1       620 8.88453E-05 1.24773E-05-4.13590E-25
 -1       621 8.85037E-05 1.14743E-06-1.65436E-24
 -1       622 8.83253E-05 1.21789E-06 0.00000E+00
 -1       623 8.81745E-05 1.28834E-06 0.00000E+00
 -1       624 8.80440E-05 1.35867E-06 0.00000E+00
 -1       625 8.79265E-05 1.42888E-06 0.00000E+00
 -1       626 8.86769E-05 1.40975E-06 3.30872E-24
 -1       627 8.86097E-05 1.81598E-06 1.65436E-24
 -1       628 8.85176E-05 2.28894E-06-3.30872E-24
 -1       629 8.84033E-05 2.82119E-06 0.00000E+00
 -1       630 8.82696E-05 3.40524E-06 0.00000E+00
 -1       631 8.81193E-05 4.03359E-06 0.00000E+00
 -1       632 8.79551E-05 4.69871E-06 3.30872E-24
 -1       633 8.77800E-05 5.39309E-06 0.00000E+00
 -1       634 8.75967E-05 6.10921E-06 0.00000E+00
 -1       635 8.74080E-05 6.83954E-06 0.00000E+00
 -1       636 8.72168E-05 7.57660E-06 1.65436E-24
 -1       637 8.70259E-05 8.31284E-06 0.00000E+00
 -1       638 8.68381E-05 9.04075E-06 1.65436E-24
 -1       639 8.66560E-05 9.75282E-06 0.00000E+00
 -1       640 8.64824E-05 1.04415E-05 0.00000E+00
 -1       656 8.80170E-05 1.31182E-05 0.00000E+00
 -1       657 8.75252E-05 1.27102E-05 0.00000E+00
 -1       658 8.72486E-05 1.23035E-05 6.61744E-24
 -1       659 8.70546E-05 1.18970E-05-3.30872E-24
 -1       660 8.67940E-05 1.14893E-05 0.00000E+00
 -1       661 8.85441E-05 1.45185E-05 0.00000E+00
 -1       662 8.82581E-05 1.54741E-05 8.27181E-25
 -1       663 8.79909E-05 1.63789E-05 1.65436E-24
 -1       664 8.77423E-05 1.72357E-05 0.00000E+00
 -1       665 8.75109E-05 1.80468E-05 1.65436E-24
 -1       666 8.72959E-05 1.88145E-05 0.00000E+00
 -1       667 8.70964E-05 1.95411E-05 0.00000E+00
 -1       668 8.69116E-05 2.02286E-05-8.27181E-25
 -1       669 8.67406E-05 2.08792E-05 1.65436E-24
 -1       670 8.65828E-05 2.14947E-05-8.27181E-25
 -1       671 8.64375E-05 2.20770E-05 1.65436E-24
 -1       672 8.63037E-05 2.26279E-05-8.27181E-25
 -1       673 8.61811E-05 2.31491E-05 1.65436E-24
 -1       674 8.60683E-05 2.36421E-05 8.27181E-25
 -1       675 8.59656E-05 2.41089E-05 4.13590E-25
 -1       676 8.79081E-05 2.49307E-05 0.00000E+00
 -1       677 8.74990E-05 2.48539E-05 0.00000E+00
 -1       678 8.70903E-05 2.47771E-05 0.00000E+00
 -1       679 8.66821E-05 2.47005E-05 0.00000E+00
 -1       680 8.62747E-05 2.46240E-05 1.65436E-24
 -1       771 1.52129E-05 4.38523E-06 0.00000E+00
 -1       772 1.10976E-05 1.22889E-05 0.00000E+00
 -1       773 7.61364E-06 1.85431E-05 0.00000E+00
 -1       774 4.71914E-06 2.32497E-05-2.64698E-23
 -1       775 2.37267E-06 2.65130E-05-5.29396E-23
 -1       776 5.31101E-07 2.84416E-05 2.64698E-23
 -1       777-8.49187E-07 2.91466E-05-5.29396E-23
 -1       778-1.81274E-06 2.87424E-05 0.00000E+00
 -1       779-2.40441E-06 2.73455E-05-2.64698E-23
 -1       780-2.66982E-06 2.50752E-05 0.00000E+00
 -1       781-2.65475E-06 2.20525E-05 2.64698E-23
 -1       782-2.40556E-06 1.84004E-05 1.32349E-23
 -1       783-1.96870E-06 1.42430E-05-2.64698E-23
 -1       784-1.39100E-06 9.70609E-06 0.00000E+00
 -1       785-7.19340E-07 4.91599E-06 2.64698E-23
 -1       786 8.69613E-05 2.71532E-06 0.00000E+00
 -1       787 8.70177E-05 2.53856E-06-4.13590E-25
 -1       788 8.70740E-05 2.37524E-06 1.65436E-24
 -1       789 8.71309E-05 2.22295E-06 8.27181E-25
 -1       790 8.71878E-05 2.08073E-06-1.65436E-24
 -1       791 8.72449E-05 1.94762E-06 0.00000E+00
 -1       792 8.73019E-05 1.82390E-06 0.00000E+00
 -1       793 8.73590E-05 1.70984E-06 8.27181E-25
 -1       794 8.74161E-05 1.60700E-06-1.65436E-24
 -1       795 8.74732E-05 1.51696E-06 0.00000E+00
 -1       796 8.75303E-05 1.44299E-06 0.00000E+00
 -1       797 8.75874E-05 1.38837E-06 0.00000E+00
 -1       798 8.76444E-05 1.35898E-06 0.00000E+00
 -1       799 8.77014E-05 1.36072E-06 0.00000E+00
 -1       800 8.77583E-05 1.40359E-06 0.00000E+00
 -1       801 8.10083E-05 2.55434E-06 0.00000E+00
 -1       802 6.29780E-05 2.04794E-06-3.30872E-24
 -1       803 3.94594E-05 1.43901E-06-1.32349E-23
 -1       804 1.71822E-05 8.50218E-07 0.00000E+00
 -1       805 2.08485E-06 3.84398E-07 0.00000E+00
 -1       806 8.69041E-05 2.67105E-06 0.00000E+00
 -1       807 8.68945E-05 2.44128E-06 0.00000E+00
 -1       808 8.68800E-05 2.22293E-06 3.30872E-24
 -1       809 8.68595E-05 2.01955E-06-8.27181E-25
 -1       810 8.68321E-05 1.83465E-06-3.30872E-24
 -1       811 8.67963E-05 1.67169E-06-8.27181E-25
 -1       812 8.67510E-05 1.53413E-06 1.65436E-24
 -1       813 8.66949E-05 1.42542E-06 1.65436E-24
 -1       814 8.66267E-05 1.34899E-06 1.65436E-24
 -1       815 8.65451E-05 1.30829E-06 1.65436E-24
 -1       816 8.64488E-05 1.30674E-06-3.30872E-24
 -1       817 8.63366E-05 1.34778E-06-8.27181E-25
 -1       818 8.62071E-05 1.43484E-06-1.65436E-24
 -1       819 8.60592E-05 1.57133E-06 1.65436E-24
 -1       820 8.58918E-05 1.76067E-06 0.00000E+00
 -1       821 8.77265E-05 1.60366E-06 0.00000E+00
 -1       822 8.76330E-05 1.68291E-06 0.00000E+00
 -1       823 8.75399E-05 1.78376E-06 3.30872E-24
 -1       824 8.74457E-05 1.95438E-06 0.00000E+00
 -1       825 8.73515E-05 2.22939E-06 3.30872E-24
 -1       826 8.72571E-05 2.64289E-06 1.65436E-24
 -1       827 8.71625E-05 3.20205E-06 0.00000E+00
 -1       828 8.70678E-05 3.91339E-06 0.00000E+00
 -1       829 8.69731E-05 4.75377E-06-3.30872E-24
 -1       830 8.68782E-05 5.69950E-06 0.00000E+00
 -1       831 8.67834E-05 6.70639E-06-3.30872E-24
 -1       832 8.66887E-05 7.72994E-06 0.00000E+00
 -1       833 8.65941E-05 8.72243E-06 0.00000E+00
 -1       834 8.65006E-05 9.63626E-06 0.00000E+00
 -1       835 8.64069E-05 1.04391E-05 0.00000E+00
 -1       836 8.76070E-05 1.58235E-06 0.00000E+00
 -1       837 8.72914E-05 1.66889E-06 8.27181E-25
 -1       838 8.69054E-05 1.75526E-06 1.65436E-24
 -1       839 8.64870E-05 1.84108E-06 0.00000E+00
 -1       840 8.60741E-05 1.92676E-06 0.00000E+00
 -1       856 8.62939E-05 1.17421E-05 2.06795E-25
 -1       857 8.62661E-05 1.24869E-05 0.00000E+00
 -1       858 8.62384E-05 1.33174E-05-4.13590E-25
 -1       859 8.62101E-05 1.42176E-05-4.13590E-25
 -1       860 8.61817E-05 1.51713E-05 0.00000E+00
 -1       861 8.61532E-05 1.61623E-05 0.00000E+00
 -1       862 8.61247E-05 1.71744E-05 8.27181E-25
 -1       863 8.60961E-05 1.81912E-05 4.13590E-25
 -1       864 8.60675E-05 1.91965E-05 8.27181E-25
 -1       865 8.60389E-05 2.01740E-05-4.13590E-25
 -1       866 8.60104E-05 2.11074E-05-8.27181E-25
 -1       867 8.59819E-05 2.19806E-05 4.13590E-25
 -1       868 8.59535E-05 2.27774E-05 0.00000E+00
 -1       869 8.59251E-05 2.34817E-05 0.00000E+00
 -1       870 8.58967E-05 2.40776E-05 0.00000E+00
 -1       871 8.58703E-05 1.10983E-05 0.00000E+00
 -1       872 8.55213E-05 1.10953E-05 0.00000E+00
 -1       873 8.52289E-05 1.10919E-05 0.00000E+00
 -1       874 8.49493E-05 1.10881E-05 5.16988E-26
 -1       875 8.46391E-05 1.10838E-05 4.13590E-25
 -1       876 8.61675E-05 1.17509E-05-1.65436E-24
 -1       877 8.59997E-05 1.24522E-05 1.65436E-24
 -1       878 8.58157E-05 1.31970E-05-3.30872E-24
 -1       879 8.56177E-05 1.39798E-05-1.65436E-24
 -1       880 8.54075E-05 1.47950E-05 0.00000E+00
 -1       881 8.51874E-05 1.56370E-05 0.00000E+00
 -1       882 8.49592E-05 1.65002E-05 0.00000E+00
 -1       883 8.47252E-05 1.73792E-05 0.00000E+00
 -1       884 8.44873E-05 1.82682E-05-3.30872E-24
 -1       885 8.42477E-05 1.91618E-05 0.00000E+00
 -1       886 8.40085E-05 2.00545E-05 0.00000E+00
 -1       887 8.37716E-05 2.09405E-05-1.65436E-24
 -1       888 8.35391E-05 2.18145E-05-1.65436E-24
 -1       889 8.33128E-05 2.26707E-05 8.27181E-25
 -1       890 8.30948E-05 2.35036E-05-8.27181E-25
 -1       891 8.54811E-05 2.45085E-05 0.00000E+00
 -1       892 8.50767E-05 2.44678E-05 0.00000E+00
 -1       893 8.46347E-05 2.44270E-05 8.27181E-25
 -1       894 8.41351E-05 2.43863E-05-2.06795E-25
 -1       895 8.35578E-05 2.43457E-05 4.13590E-25
 -1       956 8.56156E-05 2.36667E-06-1.65436E-24
 -1       957 8.55252E-05 2.78472E-06-1.65436E-24
 -1       958 8.54346E-05 3.25423E-06-1.65436E-24
 -1       959 8.53438E-05 3.76873E-06 8.27181E-25
 -1       960 8.52529E-05 4.32172E-06 1.65436E-24
 -1       961 8.51619E-05 4.90668E-06 0.00000E+00
 -1       962 8.50710E-05 5.51706E-06-1.65436E-24
 -1       963 8.49800E-05 6.14635E-06 0.00000E+00
 -1       964 8.48890E-05 6.78799E-06 0.00000E+00
 -1       965 8.47980E-05 7.43546E-06 0.00000E+00
 -1       966 8.47071E-05 8.08221E-06-3.30872E-24
 -1       967 8.46161E-05 8.72170E-06 1.65436E-24
 -1       968 8.45252E-05 9.34740E-06-3.30872E-24
 -1       969 8.44345E-05 9.95280E-06-4.96308E-24
 -1       970 8.43441E-05 1.05314E-05 0.00000E+00
 -1       971 8.41703E-05 1.16398E-05-1.65436E-24
 -1       972 8.40845E-05 1.22780E-05 0.00000E+00
 -1       973 8.39986E-05 1.29833E-05 1.65436E-24
 -1       974 8.39125E-05 1.37469E-05 0.00000E+00
 -1       975 8.38263E-05 1.45603E-05-1.65436E-24
 -1       976 8.37400E-05 1.54147E-05 0.00000E+00
 -1       977 8.36537E-05 1.63014E-05 0.00000E+00
 -1       978 8.35674E-05 1.72119E-05 0.00000E+00
 -1       979 8.34811E-05 1.81373E-05-3.30872E-24
 -1       980 8.33948E-05 1.90691E-05-1.65436E-24
 -1       981 8.33086E-05 1.99985E-05 3.30872E-24
 -1       982 8.32224E-05 2.09169E-05 0.00000E+00
 -1       983 8.31363E-05 2.18155E-05 0.00000E+00
 -1       984 8.30506E-05 2.26856E-05 0.00000E+00
 -1       985 8.29653E-05 2.35187E-05 0.00000E+00
 -3
    1PSTEP                        12           6           1          
  100CL  106 4.92188E-01         409                     0    6           1
 -4  STRESS      6    1
 -5  SXX         1    4    1    1
 -5  SYY         1    4    2    2
 -5  SZZ         1    4    3    3
 -5  SXY         1    4    1    2
 -5  SYZ         1    4    2    3
 -5  SZX         1    4    3    1
 -1         1-1.93309E+06-8.42824E+05-4.04265E+05-1.12138E+06 4.36557E-11-3.33239E-09
 -1         2 2.40053E+03-8.90182E+04 7.83685E+03-2.46039E+02-1.01068E-10 2.86765E-08
 -1         3-1.48896E+02-8.60965E+05 1.99923E+02-4.00834E+02-6.01386E-11 1.81899E-12
 -1         5-3.56321E+00 2.57571E+05 6.70807E+00 9.87715E-02 5.18332E-11-2.70438E-08
 -1         8-9.19040E+05-3.55384E+05-7.02186E+04-5.43359E+05-7.63976E-11 3.49246E-10
 -1         9-1.38440E+06-5.64659E+05-1.56210E+05-6.09983E+05 7.77945E-09 4.79049E-09
 -1        10-7.45391E+02-8.96955E+05-1.34106E+03-2.71024E+03-4.21551E-09-1.71403E-09
 -1        12-8.12577E-01 2.57585E+05 2.17341E+02 8.43537E-01 1.00925E-10 6.15546E-09
 -1        15 1.93040E+03 1.06087E+03 6.24003E+03 4.01267E+00-1.59133E-10 2.12840E-08
 -1        16-2.52520E+06-1.24179E+06-4.17223E+05-1.34060E+06 1.19229E-08-5.04466E-10
 -1        17-9.03047E+05-4.23825E+05-1.58208E+05-3.34332E+05-1.27300E-08 2.93076E-09
 -1        18-4.82022E+04-1.62652E+04-3.16603E+04-6.45575E+04 2.55045E-09 7.23685E-09
 -1        19 8.12129E+04 9.58929E+04-5.25470E+02 1.58423E+04-4.18368E-10-2.53603E-09
 -1        20-3.63272E+04-3.83772E+05-8.48240E+04 2.69819E+04 3.88794E-09 7.37297E-10
 -1        21-3.57270E+01-2.19764E+05-7.07236E+02-6.16919E+01-8.03595E-09-9.85098E-09
 -1        24-2.85215E+06-6.11440E+05-3.20909E+05-8.45943E+05-3.65156E-08-1.91406E-08
 -1        25-1.58799E+04-2.07390E+05-3.07390E+04-1.11605E+05 3.04681E-10-5.35128E-09
 -1        26-2.17660E+04 6.46211E+04-1.36514E+04-7.95769E+03 1.44355E-09-2.32077E-09
 -1        27-6.00761E+04-2.10110E+05-7.86510E+04 4.73723E+04 5.43461E-09-2.95495E-09
 -1        28 1.69786E+04-6.09874E+04 1.24315E+04 1.89989E+04 1.26269E-09 1.45809E-09
 -1        32-9.16741E+05-6.19432E+05 2.38093E+05-5.43481E+05-2.03872E-08 7.61290E-09
 -1        33-1.20983E+05 6.13675E+04 2.18115E+04-3.40383E+04 8.98657E-10-4.93067E-09
 -1        34-1.55739E+05-1.56230E+04 3.78960E+02 4.83348E+04 2.95242E-09 2.54098E-09
 -1        35-1.72769E+04-2.42343E+04-9.51483E+02 3.82826E+04 3.39953E-09 3.65253E-09
 -1        51 1.74259E+04-3.48903E+05 4.33117E+04-9.21318E+05 0.00000E+00-3.31784E-09
 -1        52 9.81552E+03-3.46475E+05 2.77584E+04-1.07452E+06 6.91216E-10-1.65746E-08
 -1        53 6.66293E+03-3.59397E+05 2.24508E+04-9.18098E+05 7.85803E-10-1.55414E-08
 -1        54 1.88351E+04-3.57905E+05 3.45639E+04-1.07787E+06 4.07454E-10-2.49383E-08
 -1        55 3.74819E+04-3.70857E+05 6.08375E+04-9.17582E+05 2.61934E-10 1.70476E-08
 -1        56-3.69978E+06-4.15326E+05-2.97438E+05-1.42835E+06-1.48430E-09-2.77505E-08
 -1        57-3.82567E+06-6.78405E+05-2.00556E+05-1.40963E+06 9.64064E-10-2.40416E-08
 -1        58-3.75967E+06-5.09503E+05-6.99669E+04-1.40948E+06 5.57520E-10-1.68220E-08
 -1        59-3.75642E+06-5.67819E+05-4.17700E+04-1.43201E+06-5.92536E-10-1.14119E-08
 -1        60-3.76832E+06-5.22736E+05-1.63291E+04-1.40704E+06-1.58843E-09 4.83487E-09
 -1        61-3.74786E+06-5.50809E+05-9.26841E+03-1.43306E+06 2.24281E-09 1.01185E-08
 -1        62-3.76806E+06-5.26121E+05-4.44621E+03-1.40852E+06-1.26784E-09 2.49929E-08
 -1        63-3.75089E+06-5.44437E+05-3.59714E+03-1.42816E+06 1.12868E-09 4.45482E-10
 -1        64-3.76519E+06-5.29113E+05-4.09393E+03-1.41189E+06 2.40198E-09-2.09743E-08
 -1        65-3.75852E+06-5.39355E+05-8.12837E+03-1.42020E+06-3.79566E-09 1.59616E-09
 -1        66-3.76038E+06-5.31284E+05-1.42899E+04-1.41643E+06 3.18380E-09-5.44969E-09
 -1        67-3.77459E+06-5.45447E+05-3.63023E+04-1.40934E+06-5.82565E-09 2.86946E-09
 -1        68-3.74924E+06-5.23380E+05-6.08858E+04-1.42265E+06 1.14233E-09 9.44783E-09
 -1        69-3.84006E+06-6.36538E+05-1.74381E+05-1.38426E+06-4.83851E-09-1.29512E-09
 -1        70-3.69566E+06-4.42890E+05-2.58677E+05-1.44064E+06 7.27596E-11-6.33008E-09
 -1        86-1.20585E+03-9.15863E+04 8.36830E+03 1.23005E+02 1.05683E-09-1.29638E-08
 -1        87 7.98233E+03-8.63360E+04 1.74908E+04-4.78491E+02 1.75783E-09-1.59876E-08
 -1        88-6.76896E+03-9.42684E+04 2.67633E+04 3.55460E+02 2.53749E-09-3.12389E-09
 -1        89 5.04223E+04-6.66934E+04 7.21719E+04-8.54387E+02 3.85899E-09-1.06941E-08
 -1        90-4.34985E+04-1.11214E+05 1.02003E+05 4.99316E+02 4.02360E-09 4.32755E-09
 -1       121-2.23782E+02-8.61572E+05 1.28172E+02 2.00077E+02 5.25276E-10-4.76030E-09
 -1       122-8.03826E+01-8.60928E+05 4.29019E+02-8.01162E+02-1.77113E-09 5.87897E-09
 -1       123-2.68108E+02-8.61621E+05 6.28627E+02 5.99059E+02 1.41915E-09 9.97170E-09
 -1       124 7.29269E+02-8.60458E+05 1.78304E+03-1.75785E+03-3.31283E-09-7.66977E-09
 -1       125-7.82394E+02-8.62076E+05 2.65646E+03 1.15569E+03 2.15914E-09-5.03678E-09
 -1       191-3.96399E+00 2.57593E+05 8.08321E+00-4.97386E-02 1.20333E-10-6.95445E-09
 -1       192-4.17896E+00 2.57571E+05 1.41998E+01 5.26394E-01 1.75819E-10 1.04942E-08
 -1       193-5.60140E+00 2.57593E+05 2.64709E+01-4.79171E-01 1.68813E-10-3.27418E-09
 -1       194-6.16062E+00 2.57574E+05 5.37020E+01 1.28091E+00 8.62208E-11 4.84374E-09
 -1       195-8.74829E+00 2.57591E+05 1.05107E+02-8.08985E-01 2.88757E-10 6.07815E-09
 -1       251-5.39806E+05-1.49451E+04 3.46572E+04-2.21762E+03 3.48564E-10 1.24110E-08
 -1       252-5.22603E+05 1.72700E+04 2.48428E+04-2.68960E+03 2.07598E-09 3.41829E-08
 -1       253-5.33941E+05-2.34164E+03 8.88658E+03 4.64186E+02-1.34230E-09 1.29480E-08
 -1       254-5.29742E+05 2.67866E+03 5.86431E+03-7.69850E+03 1.36205E-09-2.18199E-09
 -1       255-5.32712E+05-3.75152E+02 2.28299E+03 2.79114E+03 2.48690E-10 2.27909E-08
 -1       256-5.31473E+05 4.49589E+02 1.54588E+03-1.14904E+04 8.99263E-11 2.38350E-08
 -1       257-5.32273E+05-7.44480E+01 8.26398E+02 4.25604E+03-5.53229E-10 5.00634E-09
 -1       258-5.31999E+05 2.10824E+02 8.99978E+02-1.32561E+04 3.28939E-10 2.51392E-09
 -1       259-5.32225E+05-1.08997E+02 1.19023E+03 4.55695E+03-5.70182E-10-3.62320E-09
 -1       260-5.31547E+05 7.80814E+02 2.50571E+03-1.26349E+04-1.61791E-10-1.60942E-08
 -1       261-5.32710E+05-6.53293E+02 4.13392E+03 3.63482E+03 1.04467E-09-1.60912E-09
 -1       262-5.28974E+05 4.82997E+03 1.03284E+04-9.75662E+03-7.21343E-10 4.15184E-10
 -1       263-5.34740E+05-4.18659E+03 1.61603E+04 1.67858E+03-1.08594E-09 4.68390E-09
 -1       264-5.16204E+05 3.11273E+04 4.45905E+04-5.26527E+03-1.64724E-09 2.57342E-09
 -1       265-5.45406E+05-2.69019E+04 6.26968E+04-8.56563E+02-1.59662E-09 1.42973E-09
 -1       266-3.49458E+04-1.63383E+04 8.20038E+04-8.58686E+01 5.09317E-11 2.98797E-10
 -1       267 4.05128E+04 1.90462E+04 5.79534E+04 9.90628E+01 2.54659E-11 3.88093E-09
 -1       268-5.43265E+03-2.69728E+03 2.15414E+04-1.26230E+01-7.27596E-12-5.56721E-09
 -1       269 6.41442E+03 3.22829E+03 1.40012E+04 1.47032E+01 5.27507E-11-1.56338E-08
 -1       270-9.62811E+02-5.30424E+02 6.75860E+03-1.99536E+00-6.68479E-11 1.04587E-08
 -1       271-3.34515E+06-4.18069E+05-2.55516E+05-1.30328E+06-4.11092E-10-1.03610E-08
 -1       272-3.42961E+06-6.11627E+05-1.64278E+05-1.30901E+06-2.51430E-09-9.90804E-09
 -1       273-3.39450E+06-4.80482E+05-6.03631E+04-1.29044E+06 2.08547E-09 1.50867E-08
 -1       274-3.37128E+06-5.35736E+05-3.37550E+04-1.32913E+06-3.19051E-09 1.44501E-08
 -1       275-3.40275E+06-4.85423E+05-1.40529E+04-1.28665E+06 1.44519E-09 3.23234E-09
 -1       276-3.36110E+06-5.30428E+05-7.43452E+03-1.33553E+06-2.57205E-09 5.67502E-09
 -1       277-3.40510E+06-4.84586E+05-3.64111E+03-1.28475E+06-1.81581E-09 1.28503E-08
 -1       278-3.35849E+06-5.31526E+05-2.60626E+03-1.33831E+06 1.62254E-09 1.44143E-08
 -1       279-3.40569E+06-4.84036E+05-2.75590E+03-1.28414E+06 9.02332E-10-5.93923E-09
 -1       280-3.35894E+06-5.32088E+05-5.02926E+03-1.33823E+06 7.01334E-10-8.24002E-10
 -1       281-3.40466E+06-4.84068E+05-9.15586E+03-1.28482E+06-7.95353E-10-1.03555E-08
 -1       282-3.36505E+06-5.36029E+05-2.19151E+04-1.33469E+06-2.14004E-09-1.94668E-08
 -1       283-3.39935E+06-4.80852E+05-3.90793E+04-1.28724E+06 5.09772E-10-1.49575E-08
 -1       284-3.40302E+06-5.84830E+05-1.06379E+05-1.32114E+06-1.66540E-09-8.79481E-09
 -1       285-3.36701E+06-4.40915E+05-1.65510E+05-1.29602E+06 6.05723E-10-1.82263E-08
 -1       301 1.72138E+04-7.02436E+04 1.24873E+05-1.48467E+05-5.27507E-10 5.24960E-09
 -1       302 1.86247E+04-3.89664E+04 8.63191E+04-2.17845E+05 8.46057E-10 2.17419E-08
 -1       303 1.52778E+03-5.84011E+04 7.34787E+04-1.48381E+05-8.65839E-10-1.50976E-10
 -1       304 2.78507E+04-2.96916E+04 1.17141E+05-2.17449E+05 1.01136E-09 4.99767E-09
 -1       305 2.67769E+04-7.82722E+04 1.93028E+05-1.48865E+05-3.92902E-10 1.44646E-08
 -1       306-5.68688E+06-5.44936E+05-5.84151E+05-1.73704E+06-1.94195E-08 1.76660E-08
 -1       307-3.35878E+06-1.42858E+06-6.82785E+04-2.64649E+06-1.13574E-07-2.73394E-08
 -1       308-5.50933E+06-1.56385E+05-1.12598E+05-1.09852E+06 3.38514E-08-6.18093E-09
 -1       309-3.78237E+06-1.64246E+06-1.28773E+04-3.45286E+06 4.32580E-08-5.17957E-09
 -1       310-5.49857E+06-1.52549E+05-3.49197E+04-1.07268E+06-4.11565E-08 2.59670E-08
 -1       311-3.32351E+06-1.34579E+06 1.47380E+05-2.75703E+06 8.60746E-09 7.04313E-09
 -1       312-5.75461E+06-6.13490E+05-1.95511E+05-1.66735E+06-7.84639E-08 9.96079E-09
 -1       313-3.35665E+06-4.86911E+05 2.90006E+05-1.35183E+06-9.49949E-08 1.83427E-08
 -1       314-5.25401E+06-1.16323E+06-2.08059E+05-2.29872E+06 3.27418E-08-6.66114E-09
 -1       315-5.02733E+06 4.63993E+05 1.63563E+05-6.40773E+05 7.60228E-08-7.26559E-08
 -1       316-4.29075E+06-1.40957E+06-5.00068E+04-2.50898E+06 8.08868E-08-3.51720E-08
 -1       317-6.27425E+06 8.45334E+05-2.00541E+04-6.14944E+05 6.57737E-08-1.28010E-07
 -1       318-4.21018E+06-1.40219E+06-1.12979E+05-2.51645E+06-1.44741E-07-4.19386E-08
 -1       319-5.32444E+06 3.92018E+05-1.21687E+05-5.96387E+05-1.22531E-07-1.23964E-08
 -1       320-5.07193E+06-1.07618E+06-6.24066E+05-2.36436E+06-6.40866E-08-9.93896E-09
 -1       336 5.44147E+02-9.32689E+05-5.42681E+03 1.54916E+03-8.75752E-09 6.73390E-09
 -1       337-2.01798E+03-9.33881E+05-6.28979E+03-3.87405E+03-1.65587E-08-6.95218E-09
 -1       338 4.45176E+02-9.32744E+05-8.47202E+03 2.31369E+03-1.18027E-08 4.39832E-09
 -1       339-8.91838E+03-9.38208E+05-1.88237E+04-5.37908E+03-2.11380E-08 5.72072E-10
 -1       340 6.00644E+03-9.28510E+05-2.92044E+04 3.04044E+03-1.38289E-08 2.18461E-09
 -1       406 1.58501E+01 2.57581E+05 4.29149E+02-4.52169E-02 3.62320E-10 1.23464E-09
 -1       407 1.48784E+02 2.57660E+05 9.11952E+02-5.86090E+00 1.54188E-11 2.16278E-09
 -1       408 4.68661E+02 2.57516E+05 1.82143E+03 6.02908E+00 4.15639E-10-5.88898E-09
 -1       409 1.96858E+03 2.58242E+05 4.10043E+03-5.83929E+01-4.43379E-12-1.48832E-08
 -1       410 5.65753E+03 2.56998E+05 8.37092E+03 5.46394E+01 4.42014E-10-9.65883E-10
 -1       521-8.60632E+06-8.57573E+05-9.16106E+05-2.54298E+06-5.79166E-09 1.53086E-08
 -1       522-5.13433E+06-2.22041E+06-1.28110E+05-4.25715E+06-9.69158E-08-4.38595E-08
 -1       523-8.42032E+06-2.26880E+05-1.68318E+05-1.58205E+06-3.20870E-09-4.86471E-08
 -1       524-5.87090E+06-2.43659E+06-1.52118E+04-5.55151E+06 1.30055E-07-1.09212E-07
 -1       525-8.41818E+06-2.30514E+05-5.38037E+04-1.55855E+06 8.70423E-08-9.11714E-08
 -1       526-5.06106E+06-2.06566E+06 2.12689E+05-4.37564E+06 4.38813E-08-1.42936E-08
 -1       527-8.71110E+06-9.82561E+05-3.22339E+05-2.46814E+06-3.73402E-08 1.05210E-08
 -1       528-5.10259E+06-7.71648E+05 4.05986E+05-2.04090E+06 4.07672E-08-4.97676E-09
 -1       529-7.89172E+06-1.86350E+06-3.39426E+05-3.47168E+06 2.48256E-08 1.43991E-08
 -1       530-7.85118E+06 8.67182E+05 2.34016E+05-9.50839E+05-4.34229E-08 6.69388E-08
 -1       531-6.45791E+06-2.25531E+06-7.10246E+04-3.85793E+06-1.01390E-07-4.36557E-11
 -1       532-9.86983E+06 1.56822E+06-1.24541E+04-1.00757E+06 1.10299E-07-1.11936E-07
 -1       533-6.33736E+06-2.25069E+06-1.47820E+05-3.87363E+06 1.79716E-08-1.87825E-07
 -1       534-8.31765E+06 8.31336E+05-1.38742E+05-9.03060E+05-5.48607E-08 1.35347E-07
 -1       535-7.62913E+06-1.77879E+06-8.82747E+05-3.57561E+06-3.28873E-09 8.43429E-08
 -1       536-3.35347E+05-1.15818E+04 2.51965E+04-7.31481E+03 8.64588E-11 1.51449E-08
 -1       537-3.18675E+05 1.33336E+04 1.88385E+04 1.55301E+04-2.09709E-08 2.08074E-08
 -1       538-3.27947E+05-1.65018E+03 6.71845E+03-8.93685E+03 2.39207E-09 2.19966E-08
 -1       539-3.22515E+05 2.11528E+03 4.90731E+03 1.46955E+04 1.74054E-08 9.69362E-09
 -1       540-3.31476E+05-4.00987E+02 8.45926E+02-6.47951E+03 2.98155E-09 1.43147E-08
 -1       541-3.14545E+05 7.13173E+02 3.41179E+03 6.77804E+03-1.79298E-09 1.32180E-08
 -1       542-3.35689E+05-4.33652E+02-1.42920E+03-1.01760E+03 6.67228E-10 6.31661E-09
 -1       543-3.13169E+05 4.30151E+02 2.71293E+03-4.53505E+03 4.91997E-09-1.25792E-08
 -1       544-3.32812E+05-1.50066E+02-1.63284E+03 4.83119E+03 1.66227E-09-1.64983E-08
 -1       545-3.21699E+05-3.63488E+02-2.36006E+02-1.37773E+04-2.56016E-09-1.28445E-08
 -1       546-3.27376E+05 5.32994E+02-2.46889E+03 8.22486E+03 3.62525E-09-1.04288E-08
 -1       547-3.27127E+05-2.94954E+03-5.74434E+03-1.65810E+04-1.71002E-08-6.41273E-09
 -1       548-3.27495E+05 2.52260E+03-9.90902E+03 7.63618E+03-1.66543E-08-7.20456E-09
 -1       549-3.27248E+05-1.78752E+04-2.44853E+04-1.16216E+04-1.06497E-08-3.12457E-09
 -1       550-3.27078E+05 1.53026E+04-3.87477E+04 3.26350E+03 5.56270E-10-4.72392E-09
 -1       551 1.11367E+04-4.53671E+05 2.14287E+04-7.39444E+05-3.83152E-08-6.27188E-09
 -1       552 2.47269E+04-4.59054E+05 2.87472E+04-1.05272E+06-2.78742E-08 4.94765E-09
 -1       553 1.72481E+04-4.64485E+05 4.42100E+04-7.36730E+05-4.59841E-08 7.23958E-09
 -1       554 4.86965E+04-4.49943E+05 9.38399E+04-1.05399E+06-2.88419E-08 1.25237E-09
 -1       555 4.50477E+04-4.83253E+05 1.68129E+05-7.37348E+05-4.75920E-08-8.10905E-09
 -1       556 8.30246E+04-1.56098E+05 4.85316E+04-1.98741E+05-3.95812E-09-2.35741E-09
 -1       557 1.45420E+05-2.07643E+05 2.56334E+04-2.50338E+05 1.04192E-08 2.88128E-09
 -1       558 8.18964E+04-1.62009E+05 1.01541E+04-1.93506E+05-6.46105E-09-1.22927E-08
 -1       559 1.36524E+05-2.14073E+05 5.22247E+03-2.54721E+05 2.43017E-09-1.03046E-08
 -1       560 7.94609E+04-1.60416E+05 2.04006E+03-1.95089E+05 3.50701E-09 1.63709E-11
 -1       561 1.32978E+05-2.13024E+05 1.13402E+03-2.56993E+05 5.61704E-09 2.74986E-09
 -1       562 7.75298E+04-1.59149E+05 3.74215E+02-1.96475E+05 3.01225E-09-1.24046E-08
 -1       563 1.30717E+05-2.12046E+05 2.78226E+02-2.58441E+05 3.76531E-09-8.08427E-09
 -1       564 7.62955E+04-1.58361E+05 8.63069E+01-1.97350E+05 6.95945E-09 2.06455E-09
 -1       565 1.29479E+05-2.11512E+05 8.41627E+01-2.59222E+05 1.89175E-09-1.14796E-08
 -1       566 7.57921E+04-1.58034E+05 7.71001E+00-1.97708E+05-2.12276E-09-4.38922E-09
 -1       567 1.29224E+05-2.11390E+05-5.89934E+01-2.59313E+05 8.14418E-09-1.21872E-10
 -1       568 7.60539E+04-1.58207E+05-2.50439E+02-1.97593E+05 1.30967E-09 4.18731E-09
 -1       569 1.29282E+05-2.11243E+05-5.92660E+02-2.58086E+05-3.85626E-09-2.73212E-09
 -1       570 7.76403E+04-1.59552E+05-1.36058E+03-1.97511E+05 1.71349E-09-5.00040E-09
 -1       571 1.88803E+05 6.95294E+03 1.02834E+04-4.87256E+04 1.35969E-09 9.78275E-09
 -1       572 1.90331E+05 2.42905E+03 5.03827E+03-5.34204E+04 9.45874E-10-1.02905E-08
 -1       573 1.89416E+05 5.89841E+02 2.23824E+03-4.86034E+04 3.52884E-10 2.96995E-09
 -1       574 1.89595E+05 2.03844E+02 1.12149E+03-5.35581E+04 8.11269E-10 1.10549E-08
 -1       575 1.89483E+05 4.10331E+01 5.28641E+02-4.85872E+04 8.69250E-10 1.39789E-09
 -1       576 1.89495E+05 2.40954E+01 2.69270E+02-5.35765E+04-8.51941E-10 2.88810E-09
 -1       577 1.89495E+05 1.10539E+01 1.32918E+02-4.85851E+04 7.23958E-10-2.03045E-09
 -1       578 1.89487E+05 1.39984E+01 7.30830E+01-5.35787E+04-8.20819E-11-4.52746E-09
 -1       579 1.89508E+05 7.62869E+00 4.56785E+01-4.85850E+04-1.13187E-09-3.26918E-09
 -1       580 1.89505E+05 6.38815E+00 4.44297E+01-5.35759E+04-2.91402E-09 1.09062E-08
 -1       581 1.89531E+05-1.35417E+00 6.19576E+01-4.85879E+04-8.01265E-10 3.37286E-09
 -1       582 1.89547E+05 8.30758E+00 1.19631E+02-5.35465E+04 8.96762E-10-3.08592E-09
 -1       583 1.89559E+05 3.55141E+01 2.29979E+02-4.86144E+04-4.50200E-10 4.35602E-09
 -1       584 1.89667E+05 2.15416E+02 5.16338E+02-5.33250E+04-1.75032E-09-1.66392E-09
 -1       585 1.89536E+05 6.69079E+02 1.04844E+03-4.88098E+04-8.36735E-10-1.79716E-09
 -1       586-2.19090E+03 6.25377E+04-2.82088E+03-1.67831E+05 9.91349E-11 4.02770E-09
 -1       587-4.61595E+02 6.21698E+04-1.75341E+02-1.84701E+05 3.12866E-10-1.64391E-09
 -1       588 6.61736E+02 6.22225E+04 2.34704E+03-1.67737E+05 9.64064E-11 1.06420E-08
 -1       589 3.33353E+03 6.34914E+04 6.64303E+03-1.84532E+05-1.60071E-10 6.16501E-09
 -1       590 9.63211E+03 6.14528E+04 1.41546E+04-1.68004E+05 1.54614E-11 1.06047E-09
 -1       591-4.10420E+04-1.13981E+04-1.35445E+04-2.08312E+04-1.09503E-09-1.25419E-09
 -1       592-4.24497E+04-1.45854E+04-7.33632E+03-2.42054E+04-7.53630E-10 4.88694E-09
 -1       593-4.24096E+04-1.04021E+04-3.05414E+03-2.18115E+04-1.36754E-09-7.21843E-09
 -1       594-4.05645E+04-1.26144E+04-1.52324E+03-2.42966E+04 6.34373E-10-9.75263E-10
 -1       595-4.25143E+04-1.03976E+04-6.99973E+02-2.18564E+04-1.40284E-09 3.97333E-09
 -1       596-4.04367E+04-1.25242E+04-3.56744E+02-2.42831E+04-1.15804E-10 8.27367E-09
 -1       597-4.25276E+04-1.04064E+04-1.96229E+02-2.18582E+04 7.03192E-10 7.18364E-09
 -1       598-4.04245E+04-1.25207E+04-1.61360E+02-2.42793E+04 1.42836E-09-1.35981E-09
 -1       599-4.25266E+04-1.04065E+04-2.10633E+02-2.18579E+04 5.17957E-10-6.39920E-09
 -1       600-4.04380E+04-1.25253E+04-3.94906E+02-2.42826E+04-1.32354E-09-3.85273E-09
 -1       601-4.25100E+04-1.03971E+04-7.80956E+02-2.18552E+04-1.85764E-10-1.57866E-09
 -1       602-4.05806E+04-1.26260E+04-1.70301E+03-2.42958E+04-1.67120E-09 4.59193E-09
 -1       603-4.23914E+04-1.04038E+04-3.41579E+03-2.18052E+04-5.84350E-10-3.65912E-09
 -1       604-4.26966E+04-1.48220E+04-8.20525E+03-2.41827E+04 3.02532E-09 1.51540E-08
 -1       605-4.08522E+04-1.15251E+04-1.51486E+04-2.07170E+04-1.17416E-09 1.30267E-08
 -1       606 2.57933E+04-9.08598E+03-1.63528E+04 2.50962E+04-2.97132E-09-8.87394E-09
 -1       607 2.29932E+04-2.93482E+03-8.14279E+03 2.81732E+04-5.45697E-10-6.67308E-09
 -1       608 2.45817E+04-4.98548E+02-3.64648E+03 2.48970E+04-2.01908E-10-5.36056E-09
 -1       609 2.42659E+04-1.33343E+02-1.84173E+03 2.83941E+04-1.93813E-09 8.29004E-10
 -1       610 2.44349E+04 1.93872E+01-8.79730E+02 2.48746E+04-3.44517E-09-2.60093E-09
 -1       611 2.43756E+04 3.09822E+01-4.43663E+02 2.84182E+04-6.61748E-09-1.02295E-09
 -1       612 2.43957E+04 3.39294E+01-2.12209E+02 2.48724E+04-3.50701E-09-5.52745E-10
 -1       613 2.43733E+04 3.89905E+01-9.65101E+01 2.84211E+04-5.79985E-09-8.83279E-09
 -1       614 2.43742E+04 3.46359E+01-2.64829E+01 2.48717E+04-1.63436E-09 4.25871E-10
 -1       615 2.43622E+04 4.41599E+01 3.13349E+01 2.84215E+04 4.28963E-09-3.16504E-10
 -1       616 2.43579E+04 4.00723E+01 1.02327E+02 2.48719E+04-2.64072E-09-2.23235E-09
 -1       617 2.43686E+04 6.96657E+01 2.36859E+02 2.84210E+04 1.20440E-09 4.70686E-09
 -1       618 2.43328E+04 1.11193E+02 4.78599E+02 2.48721E+04 5.78893E-10 6.28847E-09
 -1       619 2.45341E+04 4.42094E+02 1.07558E+03 2.84203E+04-1.89118E-09-6.72230E-09
 -1       620 2.41716E+04 1.24844E+03 2.16207E+03 2.48710E+04 2.55670E-09 2.38470E-09
 -1       621 2.94606E+02 2.01807E+05 2.60247E+03 8.81611E+03-2.41698E-10-2.06001E-10
 -1       622 3.42256E+02 2.02450E+05 2.26712E+03 1.28569E+04-2.45791E-10 1.07638E-08
 -1       623 1.51640E+01 2.01983E+05 2.68310E+03 8.77449E+03-3.93641E-11-6.40557E-09
 -1       624 1.23495E+03 2.03266E+05 5.16125E+03 1.28983E+04-1.44524E-10-1.30831E-09
 -1       625 1.24105E+03 2.00982E+05 9.00379E+03 8.77485E+03-8.18545E-11-2.66982E-09
 -1       626 1.69743E+05 4.63258E+04 3.45936E+03 9.07732E+04-1.20690E-09-1.68075E-09
 -1       627 1.67517E+05 4.79272E+04 1.66694E+03 9.43978E+04-1.22782E-09-2.17653E-09
 -1       628 1.69866E+05 4.46980E+04 7.04120E+02 9.13050E+04-3.07409E-10 2.87150E-09
 -1       629 1.67028E+05 4.75238E+04 3.45040E+02 9.46139E+04 4.21414E-09 1.00296E-08
 -1       630 1.69873E+05 4.46212E+04 1.59494E+02 9.13200E+04 3.37423E-10 2.70518E-09
 -1       631 1.66968E+05 4.75142E+04 8.56503E+01 9.46151E+04-3.07637E-09-6.46551E-10
 -1       632 1.69864E+05 4.46273E+04 5.61851E+01 9.13125E+04-1.42541E-08-1.20594E-08
 -1       633 1.66956E+05 4.75191E+04 6.23055E+01 9.46084E+04-1.53123E-08 1.52313E-08
 -1       634 1.69855E+05 4.46282E+04 1.00407E+02 9.13083E+04-3.70619E-10 8.84631E-09
 -1       635 1.66960E+05 4.75205E+04 2.03296E+02 9.46079E+04 5.93627E-09 6.96559E-09
 -1       636 1.69844E+05 4.46273E+04 4.10467E+02 9.13054E+04 1.18166E-09 9.22478E-09
 -1       637 1.67044E+05 4.75858E+04 9.02088E+02 9.46040E+04 4.92108E-10-1.52886E-09
 -1       638 1.69809E+05 4.48283E+04 1.85387E+03 9.12128E+04 6.58792E-09-9.65247E-09
 -1       639 1.68015E+05 4.89414E+04 4.38572E+03 9.43156E+04 3.09137E-09-2.87105E-08
 -1       640 1.69679E+05 4.88658E+04 9.10143E+03 8.94995E+04 9.66293E-09 4.53156E-09
 -1       656 4.56362E+04-1.15639E+06-1.10168E+05-4.21667E+02 1.25510E-09-8.03905E-09
 -1       657-6.03124E+04-1.20612E+06-9.11286E+04 7.15340E+03-7.83075E-10 1.77725E-09
 -1       658 1.44805E+04-1.17057E+06-5.59469E+04-1.53190E+03 1.68257E-11-1.65173E-09
 -1       659-6.47358E+04-1.20822E+06-9.69385E+04 7.90994E+03-1.60071E-09-9.54338E-09
 -1       660 5.00489E+04-1.15430E+06-1.20162E+05-1.17819E+03-5.38421E-10 4.91920E-09
 -1       661 1.57447E+05 1.70992E+04 1.52189E+04 6.15428E+04 2.88833E-09-3.99268E-10
 -1       662 1.65441E+05 2.89697E+04 1.02551E+04 5.88212E+04 3.40515E-09 3.49087E-09
 -1       663 1.60431E+05 2.19864E+04 3.58728E+03 6.06814E+04 9.46102E-10 9.00172E-10
 -1       664 1.61988E+05 2.32491E+04 2.14483E+03 5.98687E+04-4.64865E-10 2.29466E-09
 -1       665 1.60878E+05 2.26591E+04 8.46079E+02 6.05560E+04-3.85972E-09-2.73445E-10
 -1       666 1.61464E+05 2.24757E+04 4.93546E+02 6.00294E+04-4.68761E-09 5.42061E-09
 -1       667 1.60952E+05 2.27396E+04 2.60395E+02 6.05282E+04-2.14348E-09 5.68162E-09
 -1       668 1.61384E+05 2.24122E+04 2.61262E+02 6.00692E+04 1.56246E-09-5.10907E-09
 -1       669 1.60957E+05 2.27207E+04 3.50403E+02 6.05169E+04 7.16980E-10 7.46473E-09
 -1       670 1.61472E+05 2.25973E+04 7.59889E+02 6.00681E+04 1.07939E-08-6.44023E-09
 -1       671 1.60864E+05 2.25582E+04 1.34822E+03 6.05278E+04-4.32743E-09-3.48791E-09
 -1       672 1.62259E+05 2.39075E+04 3.44856E+03 5.98769E+04-4.30322E-09-1.42476E-08
 -1       673 1.60174E+05 2.14434E+04 5.77892E+03 6.06955E+04-3.17755E-09-6.29234E-09
 -1       674 1.67762E+05 3.31892E+04 1.65265E+04 5.82580E+04-3.10456E-09 2.90129E-09
 -1       675 1.55397E+05 1.35361E+04 2.45306E+04 6.20489E+04-1.73986E-09-1.89175E-10
 -1       676 1.83563E+01-2.19705E+05-8.52402E+02 3.08467E+01 2.55795E-11-2.64689E-09
 -1       677-2.26284E+02-2.19911E+05-1.55999E+03-6.16635E+01-1.86674E-10 5.62788E-09
 -1       678 1.51106E+02-2.19558E+05-2.75764E+03 3.07956E+01-1.46440E-09 5.21206E-09
 -1       679-2.75825E+03-2.21576E+05-6.55077E+03-6.14639E+01-3.53202E-09-9.07967E-11
 -1       680 1.64613E+03-2.18041E+05-1.05577E+04 3.02954E+01-1.99452E-09-1.14075E-09
 -1       771-2.34906E+06-4.35933E+05-6.15818E+04-1.00173E+06-1.51194E-08-1.55997E-08
 -1       772-2.32634E+06-4.73494E+05-3.27579E+04-1.04402E+06-8.38918E-09 4.98585E-09
 -1       773-2.35854E+06-4.28489E+05-1.46643E+04-1.00520E+06-1.33878E-09 3.52520E-09
 -1       774-2.31821E+06-4.66706E+05-6.99436E+03-1.04949E+06 8.95670E-09-1.40426E-09
 -1       775-2.36152E+06-4.26438E+05-3.90829E+03-1.00574E+06-3.73984E-09 7.20320E-10
 -1       776-2.31881E+06-4.66727E+05-1.69781E+03-1.05284E+06-2.95040E-09 1.99361E-09
 -1       777-2.36380E+06-4.24764E+05-1.29138E+03-1.00616E+06-5.67525E-10 1.99179E-09
 -1       778-2.31986E+06-4.66912E+05-4.83689E+02-1.05565E+06 2.13913E-09 4.42378E-09
 -1       779-2.36566E+06-4.23342E+05-5.80859E+02-1.00653E+06-2.68483E-09-2.95040E-09
 -1       780-2.32083E+06-4.67051E+05-2.75292E+02-1.05792E+06-1.86992E-09 4.07454E-10
 -1       781-2.36708E+06-4.22213E+05-5.07691E+02-1.00681E+06-8.30914E-09-1.13323E-09
 -1       782-2.32164E+06-4.67170E+05-6.85822E+02-1.05959E+06-1.30749E-08-3.13503E-09
 -1       783-2.36802E+06-4.21458E+05-1.38821E+03-1.00700E+06-2.49202E-09-5.60487E-09
 -1       784-2.32292E+06-4.68067E+05-3.18235E+03-1.06057E+06-6.42922E-09-3.77804E-09
 -1       785-2.36793E+06-4.21499E+05-5.90679E+03-1.00668E+06-1.31604E-08 2.16369E-09
 -1       786 1.59260E+05-8.95546E+03 2.07185E+04-4.16628E+01 2.81152E-09 3.39242E-10
 -1       787 1.68238E+05 1.03676E+04 1.46579E+04 9.79481E+00 1.89566E-08 1.92597E-08
 -1       788 1.62724E+05-1.40386E+03 5.36226E+03-3.05221E+01 5.61446E-06-8.65157E-10
 -1       789 1.64203E+05 1.62432E+03 3.36882E+03-9.12285E+00 1.12056E-05 8.52708E-09
 -1       790 1.63295E+05-2.19269E+02 1.37001E+03-2.27464E+01 1.04221E-05-2.08075E-08
 -1       791 1.63536E+05 2.54541E+02 8.02914E+02-2.40530E+01 9.61291E-06 1.53244E-08
 -1       792 1.63391E+05-3.51135E+01 3.63565E+02-1.55919E+01 4.80948E-06-9.31587E-09
 -1       793 1.63428E+05 4.79138E+01 2.32370E+02-3.97519E+01 1.58823E-08 1.37009E-09
 -1       794 1.63404E+05-1.27760E+01 1.63153E+02-7.04718E+00 1.02200E-09-3.81340E-09
 -1       795 1.63433E+05 6.24941E+01 2.23029E+02-6.05304E+01-8.59950E-10-9.24906E-10
 -1       796 1.63385E+05-4.96794E+01 3.26229E+02 5.18696E+00 1.19624E-09 9.46926E-10
 -1       797 1.63579E+05 3.63398E+02 7.62722E+02-9.19663E+01-3.83842E-10 2.25323E-09
 -1       798 1.63258E+05-3.13460E+02 1.20181E+03 2.43893E+01 1.17018E-10 3.85660E-09
 -1       799 1.64480E+05 2.31436E+03 3.27453E+03-1.42682E+02-9.85849E-11 6.29751E-09
 -1       800 1.62484E+05-1.99908E+03 4.62489E+03 5.59031E+01 2.60730E-10 4.77985E-09
 -1       801 2.54141E+04-1.04342E+06-8.86609E+04 2.47275E+04 1.20417E-08-7.15590E-09
 -1       802-2.25900E+04-9.30797E+05-1.88973E+04-6.74619E+04 3.28309E-08-1.16453E-08
 -1       803-2.48990E+03-9.86902E+05 1.93524E+04 4.94627E+04 2.60734E-08 2.16284E-08
 -1       804 7.77048E+04-8.73255E+05 1.13230E+05-6.07797E+04 2.94895E-08 2.47745E-08
 -1       805-7.52104E+04-1.10045E+06 1.32319E+05 1.80401E+04 1.07539E-08 2.17381E-08
 -1       806-2.06085E+05-4.25910E+04-1.68357E+04-8.41952E+04 4.47881E-09-5.53882E-09
 -1       807-2.07223E+05-4.00325E+04-8.27108E+03-8.84900E+04 1.13264E-08 4.14605E-09
 -1       808-2.06554E+05-3.65175E+04-3.50863E+03-8.70597E+04-5.96401E-10-5.39360E-09
 -1       809-2.05467E+05-3.77262E+04-1.71538E+03-8.87162E+04-1.44292E-08-3.39696E-10
 -1       810-2.06627E+05-3.63040E+04-7.85586E+02-8.71862E+04-5.17048E-10 6.35077E-09
 -1       811-2.05332E+05-3.76345E+04-3.89830E+02-8.86942E+04 1.17293E-08 1.62117E-09
 -1       812-2.06639E+05-3.63205E+04-1.95059E+02-8.71859E+04 3.30101E-09-3.64139E-09
 -1       813-2.05314E+05-3.76366E+04-1.23783E+02-8.86829E+04-2.98314E-10-8.81641E-10
 -1       814-2.06636E+05-3.63267E+04-1.17406E+02-8.71832E+04-8.45830E-11-2.88628E-09
 -1       815-2.05317E+05-3.76386E+04-1.84901E+02-8.86795E+04-4.17458E-10-9.47148E-09
 -1       816-2.06624E+05-3.63255E+04-3.47262E+02-8.71808E+04-1.25783E-09 1.19176E-08
 -1       817-2.05376E+05-3.76718E+04-7.44678E+02-8.86730E+04-2.11389E-09-4.63024E-09
 -1       818-2.06580E+05-3.64300E+04-1.51789E+03-8.71314E+04 1.63709E-11-3.35331E-09
 -1       819-2.06212E+05-3.85846E+04-3.57225E+03-8.84722E+04-1.31172E-09 1.23132E-08
 -1       820-2.06293E+05-3.91289E+04-7.27028E+03-8.59781E+04-2.66664E-09-8.72205E-09
 -1       821-2.63485E+05 1.45753E+04-3.37077E+04 1.44591E+02 2.01475E-10-6.02449E-09
 -1       822-2.78092E+05-1.68733E+04-2.38531E+04-6.92736E+02-1.47252E-09 5.64341E-10
 -1       823-2.69122E+05 2.28510E+03-8.73039E+03 1.18689E+02 1.08635E-10-1.51840E-09
 -1       824-2.71517E+05-2.64480E+03-5.49286E+03-5.35584E+02 4.05151E-11-4.24052E-09
 -1       825-2.70058E+05 3.57571E+02-2.25836E+03-1.25643E+01-1.81745E-09-5.87897E-09
 -1       826-2.70426E+05-4.21654E+02-1.36226E+03-2.21224E+02-4.65405E-09-2.30598E-09
 -1       827-2.70212E+05 6.33758E+01-7.06801E+02-1.95677E+02-3.23476E-09 1.11928E-09
 -1       828-2.70280E+05-1.28808E+02-6.24079E+02 1.24184E+02-4.98224E-09 7.69189E-09
 -1       829-2.70205E+05 6.50039E+01-7.18639E+02-3.57979E+02 3.16739E-10 1.56197E-09
 -1       830-2.70449E+05-4.34111E+02-1.40318E+03 3.63481E+02 2.33344E-09 1.07789E-08
 -1       831-2.70043E+05 3.68708E+02-2.32444E+03-4.34979E+02-2.84334E-09 1.67256E-09
 -1       832-2.71567E+05-2.72623E+03-5.66440E+03 4.02132E+02-1.30947E-09 1.17143E-09
 -1       833-2.69088E+05 2.35551E+03-9.00151E+03-3.96629E+02-1.57499E-09-1.45064E-09
 -1       834-2.78328E+05-1.73963E+04-2.45925E+04 2.26305E+02 3.22053E-11 1.77351E-09
 -1       835-2.63284E+05 1.50273E+04-3.47580E+04-2.59142E+02 5.32982E-09 3.19051E-09
 -1       836-8.79683E+02 2.47849E+05 1.49741E+04-1.99895E+04 1.09003E-09-1.91403E-09
 -1       837 3.28826E+03 2.52490E+05 1.27891E+04-4.01559E+04 1.86219E-09 7.02585E-10
 -1       838-3.25922E+02 2.49138E+05 1.31946E+04-1.99200E+04 1.58161E-09 4.46630E-09
 -1       839 8.46456E+03 2.56348E+05 2.51217E+04-4.01842E+04 2.13595E-09 2.29818E-09
 -1       840-2.54957E+03 2.43955E+05 4.01273E+04-1.99598E+04 1.60071E-09-3.66322E-09
 -1       856-7.68940E+04 6.88554E+03-1.81452E+04-4.01057E+02-2.33746E-09-3.84534E-09
 -1       857-8.43886E+04-8.07623E+03-1.24925E+04 4.19208E+03-1.29010E-09 4.42924E-09
 -1       858-7.98553E+04 9.64805E+02-4.70913E+03-4.19765E+02-1.80228E-09-3.94698E-09
 -1       859-8.09880E+04-1.12212E+03-2.84398E+03 4.22182E+03 3.11329E-09 1.34861E-09
 -1       860-8.02980E+04 1.34204E+02-1.19549E+03-4.30917E+02 2.80957E-09 2.41880E-09
 -1       861-8.04780E+04-1.48488E+02-6.65251E+02 4.23707E+03-3.72401E-09-4.86591E-09
 -1       862-8.03669E+04 1.77660E+01-2.91742E+02-4.35044E+02 4.17299E-09 1.30132E-09
 -1       863-8.03963E+04-1.06954E+01-1.40791E+02 4.23895E+03 8.21471E-09 1.34320E-08
 -1       864-8.03800E+04-5.56978E-01-3.71805E+01-4.32800E+02 2.98672E-09 4.77073E-09
 -1       865-8.03701E+04 2.45246E+01 4.60726E+01 4.22758E+03 5.89409E-09 4.78359E-09
 -1       866-8.03917E+04-1.78301E+01 1.32764E+02-4.23672E+02 3.38332E-10-1.22095E-08
 -1       867-8.02971E+04 1.49230E+02 3.52396E+02 4.20281E+03 4.55771E-10-6.58697E-09
 -1       868-8.04501E+04-1.24122E+02 5.91754E+02-4.08021E+02-2.77169E-10-1.64343E-09
 -1       869-7.98558E+04 1.03051E+03 1.58506E+03 4.16171E+03 9.60654E-10-1.41550E-08
 -1       870-8.08286E+04-8.76788E+02 2.29903E+03-3.82582E+02 2.96495E-10-9.25866E-10
 -1       871-3.88266E+03-8.48618E+03-1.26369E+04 8.31548E+04 1.68257E-09-3.74348E-09
 -1       872-1.67888E+03-1.13191E+04-5.15984E+03 1.07806E+05 2.85354E-09 3.71870E-09
 -1       873-3.02052E+01-9.99420E+03 7.14110E+02 8.29719E+04 1.17552E-09-4.37467E-09
 -1       874 1.94062E+03-8.17067E+03 7.11729E+03 1.07843E+05 3.97154E-09-6.60611E-09
 -1       875 4.58047E+03-1.16840E+04 1.57984E+04 8.31247E+04 1.82172E-09-1.33186E-08
 -1       876 2.05469E+05 3.53547E+04 1.09505E+04 8.33053E+04-1.18689E-10 4.05635E-09
 -1       877 2.06102E+05 3.77520E+04 5.84782E+03 8.65367E+04-3.14708E-09-6.44036E-09
 -1       878 2.06493E+05 3.41427E+04 2.44997E+03 8.42045E+04 7.34713E-09 2.01089E-09
 -1       879 2.04612E+05 3.62684E+04 1.22047E+03 8.66141E+04 1.05456E-09 2.18643E-09
 -1       880 2.06567E+05 3.41292E+04 5.68232E+02 8.42412E+04 5.83441E-10 5.76949E-09
 -1       881 2.04514E+05 3.62054E+04 3.02724E+02 8.65986E+04-1.55524E-09 1.10635E-08
 -1       882 2.06575E+05 3.41382E+04 1.92444E+02 8.42422E+04 2.53749E-09 3.97692E-09
 -1       883 2.04506E+05 3.62024E+04 2.04902E+02 8.65941E+04-1.53159E-09 6.90019E-09
 -1       884 2.06571E+05 3.41359E+04 3.24160E+02 8.42423E+04-3.41163E-09 2.88566E-09
 -1       885 2.04532E+05 3.62070E+04 6.50626E+02 8.66023E+04 2.78392E-09-6.32781E-10
 -1       886 2.06546E+05 3.41169E+04 1.31079E+03 8.42398E+04-5.40496E-10-3.30795E-09
 -1       887 2.04763E+05 3.63580E+04 2.86308E+03 8.66354E+04-1.20846E-08-1.88129E-09
 -1       888 2.06365E+05 3.41488E+04 5.76916E+03 8.41481E+04-8.40026E-09 9.32550E-09
 -1       889 2.08200E+05 3.99273E+04 1.37821E+04 8.65265E+04-1.85976E-09 6.03723E-09
 -1       890 2.04014E+05 3.69410E+04 2.58127E+04 8.19474E+04-4.29964E-09 4.46107E-09
 -1       891-1.26041E+02-1.16518E+05-1.38047E+03 2.19059E+04 3.61865E-10 1.63641E-09
 -1       892-2.19770E+02-1.16850E+05-1.49993E+03 3.31529E+04 1.04365E-10 2.62560E-09
 -1       893-3.42504E+01-1.16561E+05-2.14151E+03 2.19103E+04 1.30831E-09 3.88764E-09
 -1       894-1.16729E+03-1.17670E+05-4.44521E+03 3.30348E+04 5.14774E-10-9.78298E-09
 -1       895-9.12749E+02-1.15637E+05-7.83280E+03 2.20225E+04 2.79488E-09-5.81167E-10
 -1       956-2.58820E+05-3.70723E+03-9.32984E+03 1.73012E+04 1.05047E-09 3.02180E-09
 -1       957-2.60662E+05-1.25139E+03-4.78958E+03 2.08340E+04 9.14406E-09-3.75144E-09
 -1       958-2.59648E+05-1.00487E+02-2.15783E+03 1.71905E+04 6.36282E-09 3.06204E-09
 -1       959-2.59794E+05-1.81410E+01-1.10218E+03 2.09542E+04-1.37538E-09 7.64931E-09
 -1       960-2.59721E+05 3.03014E+01-5.37261E+02 1.71799E+04-7.43921E-09 3.45540E-09
 -1       961-2.59731E+05 2.83465E+01-2.84935E+02 2.09662E+04-1.37843E-08 2.21871E-09
 -1       962-2.59736E+05 2.65607E+01-1.62853E+02 1.71784E+04-4.74961E-09-1.15188E-09
 -1       963-2.59728E+05 2.95217E+01-1.30289E+02 2.09683E+04-2.70745E-09-7.26004E-10
 -1       964-2.59740E+05 2.83873E+01-1.57613E+02 1.71778E+04-2.39118E-09-1.19769E-09
 -1       965-2.59738E+05 3.23333E+01-2.71892E+02 2.09683E+04 6.03507E-10 1.48998E-09
 -1       966-2.59731E+05 3.56958E+01-5.10114E+02 1.71783E+04-1.25783E-09-6.78597E-10
 -1       967-2.59805E+05-7.88277E+00-1.04611E+03 2.09616E+04-3.13776E-11 2.90902E-09
 -1       968-2.59667E+05-8.47465E+01-2.04713E+03 1.71846E+04-1.92085E-09-5.13074E-09
 -1       969-2.60635E+05-1.17486E+03-4.54521E+03 2.08879E+04-6.70752E-10 4.54264E-10
 -1       970-2.58886E+05-3.50519E+03-8.85307E+03 1.72541E+04 1.35378E-09 7.24413E-09
 -1       971-2.44904E+05-1.28622E+03-7.14909E+03 1.18520E+04-3.39242E-09 7.76535E-09
 -1       972-2.46643E+05-9.22433E+02-3.89345E+03 1.65499E+04-6.49379E-10-5.25461E-10
 -1       973-2.45699E+05-8.86479E+00-1.74333E+03 1.17534E+04-2.62298E-09 3.72472E-09
 -1       974-2.45819E+05-9.19061E+00-9.03186E+02 1.66563E+04 1.60753E-10 2.52101E-09
 -1       975-2.45760E+05 2.42750E+01-4.50430E+02 1.17446E+04 1.46974E-09 4.99961E-09
 -1       976-2.45770E+05 2.79546E+01-2.58112E+02 1.66670E+04-2.76839E-09-2.74781E-10
 -1       977-2.45772E+05 2.38704E+01-1.84122E+02 1.17427E+04 2.04818E-09-6.25687E-09
 -1       978-2.45772E+05 3.19522E+01-2.11127E+02 1.66698E+04 1.11124E-08-2.12049E-09
 -1       979-2.45771E+05 2.94702E+01-3.35451E+02 1.17418E+04 1.10003E-09 1.90698E-09
 -1       980-2.45797E+05 3.39722E+01-6.45355E+02 1.66702E+04-1.62842E-09-8.09825E-09
 -1       981-2.45751E+05 4.55556E+01-1.24864E+03 1.17422E+04-4.27474E-09 6.67416E-09
 -1       982-2.45969E+05-5.80995E+01-2.58019E+03 1.66653E+04-4.15878E-09 2.55722E-09
 -1       983-2.45594E+05-3.41091E+01-5.01291E+03 1.17470E+04 2.96632E-09-4.01246E-09
 -1       984-2.48380E+05-2.67565E+03-1.12256E+04 1.65985E+04 1.35083E-09 4.28986E-09
 -1       985-2.43325E+05-3.70200E+03-2.06138E+04 1.18134E+04 3.47563E-09-1.12777E-10
 -3
    1PSTEP                        13           7           1          
  100CL  107 5.03906E-01         409                     0    7           1
 -4  DISP        4    1
 -5  D1          1    2    1    0
 -5  D2          1    2    2    0
 -5  D3          1    2    3    0
 -5  ALL         1    2    0    0    1ALL
 -1         1 4.37853E-04 0.00000E+00 0.00000E+00
 -1         2 4.16239E-04-3.53165E-30 6.61744E-24
 -1         3 1.55054E-04 6.72574E-28-1.32349E-23
 -1         5 9.99764E-05-3.78772E-26 3.30872E-24
 -1         8 4.14568E-04-7.81471E-07 0.00000E+00
 -1         9 4.07679E-04-1.21390E-06 0.00000E+00
 -1        10 1.42435E-04-2.07648E-06 0.00000E+00
 -1        12 9.97662E-05 5.53485E-07 0.00000E+00
 -1        15 3.86757E-04-8.65396E-07-2.06795E-25
 -1        16 3.92066E-04-1.58561E-06 0.00000E+00
 -1        17 1.02468E-04-4.42752E-06 0.00000E+00
 -1        18 9.80382E-05 4.95163E-06 0.00000E+00
 -1        19 9.91355E-05 1.10411E-06 0.00000E+00
 -1        20 9.92714E-05 1.18270E-05 0.00000E+00
 -1        21 9.87106E-05 2.13213E-05-1.65436E-24
 -1        24 2.08626E-05-6.02486E-06 0.00000E+00
 -1        25 9.81800E-05 5.08234E-06 0.00000E+00
 -1        26 9.89920E-05 1.53254E-06 0.00000E+00
 -1        27 9.74625E-05 9.33347E-06 0.00000E+00
 -1        28 9.70317E-05 2.08523E-05 0.00000E+00
 -1        32 0.00000E+00 0.00000E+00 0.00000E+00
 -1        33 9.77137E-05 2.05328E-06 0.00000E+00
 -1        34 9.62146E-05 9.30975E-06 0.00000E+00
 -1        35 9.48033E-05 2.06028E-05 0.00000E+00
 -1        51 4.36343E-04-1.30816E-07 0.00000E+00
 -1        52 4.33541E-04-2.55655E-07 0.00000E+00
 -1        53 4.29699E-04-3.81339E-07 0.00000E+00
 -1        54 4.25080E-04-5.09452E-07 0.00000E+00
 -1        55 4.19949E-04-6.40889E-07-2.48154E-24
 -1        56 4.36280E-04-7.37416E-07 0.00000E+00
 -1        57 4.34735E-04-1.72554E-06-2.64698E-23
 -1        58 4.33250E-04-2.86376E-06 0.00000E+00
 -1        59 4.31780E-04-4.07331E-06 0.00000E+00
 -1        60 4.30302E-04-5.26136E-06 5.29396E-23
 -1        61 4.28781E-04-6.34014E-06 0.00000E+00
 -1        62 4.27189E-04-7.22977E-06 5.29396E-23
 -1        63 4.25498E-04-7.85842E-06 0.00000E+00
 -1        64 4.23691E-04-8.17487E-06 5.29396E-23
 -1        65 4.21751E-04-8.14015E-06 2.64698E-23
 -1        66 4.19676E-04-7.74338E-06-5.29396E-23
 -1        67 4.17468E-04-6.98740E-06 0.00000E+00
 -1        68 4.15136E-04-5.90453E-06 0.00000E+00
 -1        69 4.12707E-04-4.53633E-06-2.64698E-23
 -1        70 4.10194E-04-2.95427E-06-2.64698E-23
 -1        86 4.15962E-04-1.98177E-07 0.00000E+00
 -1        87 4.15135E-04-3.96975E-07 0.00000E+00
 -1        88 4.13814E-04-5.96327E-07 6.61744E-24
 -1        89 4.12061E-04-7.98400E-07 0.00000E+00
 -1        90 4.09981E-04-1.00036E-06 0.00000E+00
 -1       121 1.54701E-04-3.43202E-07 1.32349E-23
 -1       122 1.53643E-04-6.86889E-07-3.30872E-24
 -1       123 1.51883E-04-1.03154E-06-1.32349E-23
 -1       124 1.49424E-04-1.37767E-06 0.00000E+00
 -1       125 1.46272E-04-1.72566E-06 1.32349E-23
 -1       191 9.99706E-05 9.22516E-08 3.30872E-24
 -1       192 9.99531E-05 1.84502E-07 0.00000E+00
 -1       193 9.99239E-05 2.76752E-07 0.00000E+00
 -1       194 9.98830E-05 3.69001E-07-1.65436E-24
 -1       195 9.98304E-05 4.61246E-07 0.00000E+00
 -1       251 4.14137E-04 3.82521E-06-1.32349E-23
 -1       252 4.13701E-04 8.33419E-06 0.00000E+00
 -1       253 4.13268E-04 1.22951E-05 0.00000E+00
 -1       254 4.12837E-04 1.52669E-05 0.00000E+00
 -1       255 4.12409E-04 1.70143E-05 1.32349E-23
 -1       256 4.11982E-04 1.73231E-05 6.61744E-24
 -1       257 4.11555E-04 1.62784E-05 1.32349E-23
 -1       258 4.11125E-04 1.39884E-05 0.00000E+00
 -1       259 4.10693E-04 1.08204E-05 0.00000E+00
 -1       260 4.10260E-04 7.15685E-06 0.00000E+00
 -1       261 4.09827E-04 3.48332E-06 0.00000E+00
 -1       262 4.09395E-04 2.85371E-07 0.00000E+00
 -1       263 4.08965E-04-2.05015E-06 0.00000E+00
 -1       264 4.08537E-04-3.15147E-06 0.00000E+00
 -1       265 4.08110E-04-2.90330E-06 0.00000E+00
 -1       266 4.09933E-04-8.06470E-07 3.30872E-24
 -1       267 4.05298E-04-8.19116E-07-8.27181E-25
 -1       268 4.00663E-04-8.32543E-07 0.00000E+00
 -1       269 3.96027E-04-8.43653E-07 0.00000E+00
 -1       270 3.91392E-04-8.54709E-07-4.13590E-25
 -1       271 4.11793E-04 2.91843E-06 0.00000E+00
 -1       272 4.09324E-04 5.69131E-06-1.32349E-23
 -1       273 4.07180E-04 7.60723E-06 2.64698E-23
 -1       274 4.05328E-04 8.73183E-06 0.00000E+00
 -1       275 4.03741E-04 9.14872E-06 0.00000E+00
 -1       276 4.02385E-04 8.95040E-06 0.00000E+00
 -1       277 4.01220E-04 8.24019E-06 5.29396E-23
 -1       278 4.00205E-04 7.12916E-06 0.00000E+00
 -1       279 3.99296E-04 5.73516E-06 0.00000E+00
 -1       280 3.98447E-04 4.18051E-06-2.64698E-23
 -1       281 3.97611E-04 2.59015E-06 2.64698E-23
 -1       282 3.96743E-04 1.08967E-06 1.32349E-23
 -1       283 3.95795E-04-1.97038E-07 0.00000E+00
 -1       284 3.94726E-04-1.14802E-06 0.00000E+00
 -1       285 3.93488E-04-1.65001E-06-2.64698E-23
 -1       301 4.04818E-04-1.28642E-06 0.00000E+00
 -1       302 4.01746E-04-1.34136E-06 0.00000E+00
 -1       303 3.98699E-04-1.39539E-06 0.00000E+00
 -1       304 3.95913E-04-1.44970E-06 0.00000E+00
 -1       305 3.93624E-04-1.50495E-06 1.32349E-23
 -1       306 4.20790E-04-4.64093E-05 0.00000E+00
 -1       307 4.59628E-04-1.83277E-04 2.64698E-23
 -1       308 5.12711E-04-3.88653E-04 5.29396E-23
 -1       309 5.71734E-04-6.33322E-04 2.64698E-23
 -1       310 6.30637E-04-8.77162E-04 0.00000E+00
 -1       311 6.83288E-04-1.08011E-03 0.00000E+00
 -1       312 7.21255E-04-1.21343E-03-5.29396E-23
 -1       313 7.32976E-04-1.25456E-03 2.64698E-23
 -1       314 7.09206E-04-1.20285E-03-5.29396E-23
 -1       315 6.43552E-04-1.06507E-03-2.64698E-23
 -1       316 5.42537E-04-8.65835E-04 5.29396E-23
 -1       317 4.19121E-04-6.32263E-04 0.00000E+00
 -1       318 2.95448E-04-3.98305E-04 0.00000E+00
 -1       319 1.93724E-04-1.97911E-04 0.00000E+00
 -1       320 1.27136E-04-5.83416E-05 5.29396E-23
 -1       336 1.37831E-04-2.45752E-06 0.00000E+00
 -1       337 1.32381E-04-2.84310E-06-6.61744E-24
 -1       338 1.26100E-04-3.23318E-06 0.00000E+00
 -1       339 1.19007E-04-3.62760E-06-6.61744E-24
 -1       340 1.11122E-04-4.02778E-06-6.61744E-24
 -1       406 9.96902E-05 6.45713E-07-3.30872E-24
 -1       407 9.96026E-05 7.37910E-07 1.65436E-24
 -1       408 9.95033E-05 8.30051E-07 0.00000E+00
 -1       409 9.93923E-05 9.22025E-07 1.65436E-24
 -1       410 9.92697E-05 1.01365E-06 3.30872E-24
 -1       521 4.05765E-04-5.26872E-05-1.05879E-22
 -1       522 4.46148E-04-2.01972E-04 5.29396E-23
 -1       523 5.00924E-04-4.25054E-04 1.05879E-22
 -1       524 5.61259E-04-6.89457E-04-5.29396E-23
 -1       525 6.21414E-04-9.52453E-04 0.00000E+00
 -1       526 6.75522E-04-1.17145E-03 5.29396E-23
 -1       527 7.14505E-04-1.31476E-03 0.00000E+00
 -1       528 7.25873E-04-1.35901E-03 5.29396E-23
 -1       529 6.98618E-04-1.30262E-03 0.00000E+00
 -1       530 6.25686E-04-1.15424E-03-5.29396E-23
 -1       531 5.13513E-04-9.39697E-04-1.05879E-22
 -1       532 3.76618E-04-6.88688E-04 0.00000E+00
 -1       533 2.39127E-04-4.36818E-04-1.05879E-22
 -1       534 1.25309E-04-2.19703E-04 0.00000E+00
 -1       535 5.02041E-05-6.73461E-05 0.00000E+00
 -1       536 1.02259E-04 8.12965E-06 0.00000E+00
 -1       537 1.01945E-04 2.77021E-05 0.00000E+00
 -1       538 1.01547E-04 5.13971E-05 0.00000E+00
 -1       539 1.01122E-04 7.62999E-05-1.65436E-24
 -1       540 1.00742E-04 9.91785E-05 0.00000E+00
 -1       541 1.00464E-04 1.16812E-04 0.00000E+00
 -1       542 1.00281E-04 1.27338E-04 0.00000E+00
 -1       543 1.00149E-04 1.28931E-04-1.65436E-24
 -1       544 9.99961E-05 1.22045E-04 3.30872E-24
 -1       545 9.97601E-05 1.07183E-04 0.00000E+00
 -1       546 9.94350E-05 8.68875E-05-3.30872E-24
 -1       547 9.90504E-05 6.37355E-05 0.00000E+00
 -1       548 9.86757E-05 4.10446E-05-3.30872E-24
 -1       549 9.83779E-05 2.21308E-05-1.65436E-24
 -1       550 9.81702E-05 9.33246E-06 0.00000E+00
 -1       551 9.16041E-05-4.65781E-06 0.00000E+00
 -1       552 7.88788E-05-4.90574E-06 1.65436E-24
 -1       553 6.48627E-05-5.16953E-06-1.65436E-24
 -1       554 5.01354E-05-5.44506E-06 0.00000E+00
 -1       555 3.52766E-05-5.72498E-06-1.32349E-23
 -1       556 9.94388E-05 3.41829E-06 0.00000E+00
 -1       557 9.70759E-05 9.54866E-06 1.32349E-23
 -1       558 9.53107E-05 1.41139E-05 0.00000E+00
 -1       559 9.40793E-05 1.72759E-05 0.00000E+00
 -1       560 9.33176E-05 1.91966E-05 0.00000E+00
 -1       561 9.29626E-05 2.00387E-05 0.00000E+00
 -1       562 9.29518E-05 1.99652E-05 0.00000E+00
 -1       563 9.32231E-05 1.91395E-05 0.00000E+00
 -1       564 9.37147E-05 1.77249E-05 0.00000E+00
 -1       565 9.43651E-05 1.58852E-05 0.00000E+00
 -1       566 9.51133E-05 1.37840E-05 0.00000E+00
 -1       567 9.58978E-05 1.15851E-05 2.06795E-25
 -1       568 9.66577E-05 9.45217E-06 0.00000E+00
 -1       569 9.73320E-05 7.54888E-06 0.00000E+00
 -1       570 9.78594E-05 6.03884E-06 0.00000E+00
 -1       571 9.81048E-05 4.72524E-06 4.13590E-25
 -1       572 9.81728E-05 4.45619E-06-6.20385E-25
 -1       573 9.82413E-05 4.15284E-06 1.65436E-24
 -1       574 9.83100E-05 3.82395E-06 8.27181E-25
 -1       575 9.83788E-05 3.47833E-06 0.00000E+00
 -1       576 9.84476E-05 3.12482E-06 0.00000E+00
 -1       577 9.85164E-05 2.77229E-06 0.00000E+00
 -1       578 9.85852E-05 2.42961E-06 0.00000E+00
 -1       579 9.86540E-05 2.10563E-06 0.00000E+00
 -1       580 9.87228E-05 1.80924E-06 0.00000E+00
 -1       581 9.87917E-05 1.54928E-06 0.00000E+00
 -1       582 9.88605E-05 1.33463E-06 0.00000E+00
 -1       583 9.89293E-05 1.17412E-06 0.00000E+00
 -1       584 9.89981E-05 1.07652E-06 0.00000E+00
 -1       585 9.90669E-05 1.05052E-06-3.30872E-24
 -1       586 9.80221E-05 4.97483E-06-8.27181E-25
 -1       587 9.79816E-05 4.99748E-06 3.10193E-25
 -1       588 9.79468E-05 5.01988E-06 0.00000E+00
 -1       589 9.79481E-05 5.04189E-06 0.00000E+00
 -1       590 9.80160E-05 5.06322E-06 0.00000E+00
 -1       591 9.80900E-05 4.76603E-06 2.03564E-25
 -1       592 9.81501E-05 4.55103E-06 0.00000E+00
 -1       593 9.82188E-05 4.31267E-06 4.13590E-25
 -1       594 9.82939E-05 4.05628E-06 0.00000E+00
 -1       595 9.83737E-05 3.78730E-06 0.00000E+00
 -1       596 9.84562E-05 3.51108E-06 0.00000E+00
 -1       597 9.85393E-05 3.23300E-06-4.13590E-25
 -1       598 9.86212E-05 2.95842E-06 2.06795E-25
 -1       599 9.86997E-05 2.69271E-06 4.13590E-25
 -1       600 9.87728E-05 2.44122E-06 0.00000E+00
 -1       601 9.88387E-05 2.20933E-06 0.00000E+00
 -1       602 9.88953E-05 2.00240E-06 0.00000E+00
 -1       603 9.89405E-05 1.82579E-06-1.03398E-25
 -1       604 9.89727E-05 1.68494E-06 1.03398E-25
 -1       605 9.89897E-05 1.58516E-06 0.00000E+00
 -1       606 9.91474E-05 1.31170E-06 3.30872E-24
 -1       607 9.91569E-05 1.60814E-06 0.00000E+00
 -1       608 9.91658E-05 1.98821E-06 0.00000E+00
 -1       609 9.91743E-05 2.44604E-06 0.00000E+00
 -1       610 9.91827E-05 2.97570E-06-3.30872E-24
 -1       611 9.91910E-05 3.57122E-06 0.00000E+00
 -1       612 9.91993E-05 4.22657E-06 0.00000E+00
 -1       613 9.92075E-05 4.93577E-06 0.00000E+00
 -1       614 9.92156E-05 5.69281E-06 0.00000E+00
 -1       615 9.92238E-05 6.49167E-06 0.00000E+00
 -1       616 9.92319E-05 7.32636E-06 0.00000E+00
 -1       617 9.92399E-05 8.19088E-06 0.00000E+00
 -1       618 9.92480E-05 9.07919E-06 0.00000E+00
 -1       619 9.92559E-05 9.98533E-06 0.00000E+00
 -1       620 9.92638E-05 1.09033E-05 0.00000E+00
 -1       621 9.90311E-05 1.17563E-06 0.00000E+00
 -1       622 9.89710E-05 1.24743E-06 8.27181E-25
 -1       623 9.89461E-05 1.31921E-06-1.65436E-24
 -1       624 9.89474E-05 1.39088E-06-8.27181E-25
 -1       625 9.89657E-05 1.46241E-06 1.65436E-24
 -1       626 9.91365E-05 1.33566E-06 3.30872E-24
 -1       627 9.91109E-05 1.63968E-06 0.00000E+00
 -1       628 9.90609E-05 2.00908E-06 0.00000E+00
 -1       629 9.89893E-05 2.43638E-06 1.65436E-24
 -1       630 9.88988E-05 2.91407E-06 0.00000E+00
 -1       631 9.87922E-05 3.43458E-06-3.30872E-24
 -1       632 9.86724E-05 3.99037E-06 0.00000E+00
 -1       633 9.85422E-05 4.57388E-06 0.00000E+00
 -1       634 9.84044E-05 5.17756E-06 0.00000E+00
 -1       635 9.82618E-05 5.79386E-06-1.65436E-24
 -1       636 9.81174E-05 6.41522E-06 0.00000E+00
 -1       637 9.79738E-05 7.03410E-06 0.00000E+00
 -1       638 9.78340E-05 7.64293E-06-1.65436E-24
 -1       639 9.77005E-05 8.23416E-06 0.00000E+00
 -1       640 9.75762E-05 8.80023E-06-1.65436E-24
 -1       656 9.85471E-05 1.14213E-05 0.00000E+00
 -1       657 9.81715E-05 1.09994E-05-3.30872E-24
 -1       658 9.80154E-05 1.05788E-05 0.00000E+00
 -1       659 9.79456E-05 1.01585E-05-3.30872E-24
 -1       660 9.78113E-05 9.73688E-06 6.61744E-24
 -1       661 9.90039E-05 1.27235E-05-8.27181E-25
 -1       662 9.87603E-05 1.35642E-05-8.27181E-25
 -1       663 9.85368E-05 1.43509E-05 1.65436E-24
 -1       664 9.83330E-05 1.50868E-05-8.27181E-25
 -1       665 9.81472E-05 1.57746E-05 0.00000E+00
 -1       666 9.79787E-05 1.64168E-05 8.27181E-25
 -1       667 9.78263E-05 1.70161E-05 0.00000E+00
 -1       668 9.76891E-05 1.75749E-05-8.27181E-25
 -1       669 9.75662E-05 1.80956E-05-1.65436E-24
 -1       670 9.74568E-05 1.85804E-05 8.27181E-25
 -1       671 9.73600E-05 1.90315E-05 0.00000E+00
 -1       672 9.72749E-05 1.94511E-05 0.00000E+00
 -1       673 9.72008E-05 1.98413E-05 0.00000E+00
 -1       674 9.71363E-05 2.02037E-05-8.27181E-25
 -1       675 9.70816E-05 2.05406E-05 0.00000E+00
 -1       676 9.84300E-05 2.12426E-05 0.00000E+00
 -1       677 9.81496E-05 2.11641E-05 8.27181E-25
 -1       678 9.78694E-05 2.10855E-05 1.65436E-24
 -1       679 9.75896E-05 2.10072E-05 0.00000E+00
 -1       680 9.73103E-05 2.09289E-05 1.65436E-24
 -1       771 1.52747E-05 5.64132E-06 0.00000E+00
 -1       772 1.04912E-05 1.51982E-05 0.00000E+00
 -1       773 6.47536E-06 2.27585E-05 0.00000E+00
 -1       774 3.17589E-06 2.84447E-05 0.00000E+00
 -1       775 5.42050E-07 3.23824E-05 0.00000E+00
 -1       776-1.47885E-06 3.47026E-05 2.64698E-23
 -1       777-2.93999E-06 3.55393E-05 0.00000E+00
 -1       778-3.89564E-06 3.50309E-05 2.64698E-23
 -1       779-4.40033E-06 3.33181E-05 0.00000E+00
 -1       780-4.50953E-06 3.05455E-05 0.00000E+00
 -1       781-4.27878E-06 2.68595E-05-2.64698E-23
 -1       782-3.76434E-06 2.24092E-05 0.00000E+00
 -1       783-3.02249E-06 1.73452E-05-2.64698E-23
 -1       784-2.11002E-06 1.18200E-05 1.32349E-23
 -1       785-1.08365E-06 5.98682E-06-2.64698E-23
 -1       786 9.82273E-05 4.72179E-06 4.13590E-25
 -1       787 9.82778E-05 4.38767E-06 0.00000E+00
 -1       788 9.83281E-05 4.07565E-06 1.65436E-24
 -1       789 9.83791E-05 3.78145E-06 0.00000E+00
 -1       790 9.84301E-05 3.50287E-06 0.00000E+00
 -1       791 9.84812E-05 3.23774E-06 0.00000E+00
 -1       792 9.85323E-05 2.98549E-06 0.00000E+00
 -1       793 9.85834E-05 2.74555E-06 8.27181E-25
 -1       794 9.86346E-05 2.51883E-06 1.65436E-24
 -1       795 9.86857E-05 2.30623E-06-8.27181E-25
 -1       796 9.87369E-05 2.11033E-06 0.00000E+00
 -1       797 9.87881E-05 1.93376E-06-8.27181E-25
 -1       798 9.88392E-05 1.78138E-06 0.00000E+00
 -1       799 9.88903E-05 1.65814E-06 8.27181E-25
 -1       800 9.89414E-05 1.57238E-06-1.65436E-24
 -1       801 9.12981E-05 4.40647E-06 1.32349E-23
 -1       802 6.99062E-05 3.50779E-06-6.61744E-24
 -1       803 4.24988E-05 2.47855E-06 0.00000E+00
 -1       804 1.77573E-05 1.50854E-06 1.32349E-23
 -1       805 1.67800E-06 7.00282E-07 2.64698E-23
 -1       806 9.82357E-05 4.67592E-06 0.00000E+00
 -1       807 9.82831E-05 4.28377E-06 8.27181E-25
 -1       808 9.83232E-05 3.90974E-06 0.00000E+00
 -1       809 9.83550E-05 3.55687E-06-8.27181E-25
 -1       810 9.83777E-05 3.22820E-06 0.00000E+00
 -1       811 9.83901E-05 2.92668E-06 1.65436E-24
 -1       812 9.83912E-05 2.65528E-06-1.65436E-24
 -1       813 9.83799E-05 2.41695E-06-8.27181E-25
 -1       814 9.83551E-05 2.21464E-06-1.65436E-24
 -1       815 9.83157E-05 2.05128E-06 0.00000E+00
 -1       816 9.82606E-05 1.92981E-06 0.00000E+00
 -1       817 9.81887E-05 1.85316E-06-8.27181E-25
 -1       818 9.80990E-05 1.82427E-06 1.65436E-24
 -1       819 9.79904E-05 1.84606E-06 0.00000E+00
 -1       820 9.78619E-05 1.92145E-06 1.65436E-24
 -1       821 9.89019E-05 1.49882E-06 8.27181E-25
 -1       822 9.88063E-05 1.43238E-06-8.27181E-25
 -1       823 9.87110E-05 1.38617E-06-3.30872E-24
 -1       824 9.86147E-05 1.41302E-06 1.65436E-24
 -1       825 9.85183E-05 1.55121E-06-3.30872E-24
 -1       826 9.84217E-05 1.83855E-06-1.65436E-24
 -1       827 9.83250E-05 2.28311E-06 3.30872E-24
 -1       828 9.82282E-05 2.89234E-06 0.00000E+00
 -1       829 9.81313E-05 3.64085E-06 0.00000E+00
 -1       830 9.80344E-05 4.50266E-06 1.65436E-24
 -1       831 9.79374E-05 5.42925E-06 0.00000E+00
 -1       832 9.78406E-05 6.37180E-06 0.00000E+00
 -1       833 9.77439E-05 7.27830E-06-3.30872E-24
 -1       834 9.76484E-05 8.09692E-06 0.00000E+00
 -1       835 9.75525E-05 8.79326E-06 8.27181E-25
 -1       836 9.89263E-05 1.61922E-06 1.65436E-24
 -1       837 9.87563E-05 1.70784E-06 0.00000E+00
 -1       838 9.85158E-05 1.79631E-06 0.00000E+00
 -1       839 9.82391E-05 1.88421E-06 0.00000E+00
 -1       840 9.79604E-05 1.97196E-06 0.00000E+00
 -1       856 9.74389E-05 9.85098E-06 0.00000E+00
 -1       857 9.74124E-05 1.04723E-05-1.03398E-25
 -1       858 9.73859E-05 1.11812E-05 0.00000E+00
 -1       859 9.73588E-05 1.19612E-05-4.13590E-25
 -1       860 9.73317E-05 1.27958E-05 0.00000E+00
 -1       861 9.73045E-05 1.36686E-05-4.13590E-25
 -1       862 9.72772E-05 1.45629E-05-8.27181E-25
 -1       863 9.72499E-05 1.54623E-05-4.13590E-25
 -1       864 9.72225E-05 1.63500E-05-8.27181E-25
 -1       865 9.71952E-05 1.72095E-05 0.00000E+00
 -1       866 9.71680E-05 1.80243E-05 0.00000E+00
 -1       867 9.71407E-05 1.87779E-05 0.00000E+00
 -1       868 9.71136E-05 1.94538E-05 0.00000E+00
 -1       869 9.70863E-05 2.00357E-05 0.00000E+00
 -1       870 9.70592E-05 2.05072E-05 8.27181E-25
 -1       871 9.71467E-05 9.33244E-06 0.00000E+00
 -1       872 9.69343E-05 9.32925E-06 0.00000E+00
 -1       873 9.67805E-05 9.32566E-06 0.00000E+00
 -1       874 9.66396E-05 9.32156E-06 0.00000E+00
 -1       875 9.64660E-05 9.31699E-06 4.13590E-25
 -1       876 9.73611E-05 9.86027E-06 0.00000E+00
 -1       877 9.72429E-05 1.04376E-05 0.00000E+00
 -1       878 9.71082E-05 1.10593E-05 3.30872E-24
 -1       879 9.69591E-05 1.17198E-05 0.00000E+00
 -1       880 9.67977E-05 1.24134E-05-3.30872E-24
 -1       881 9.66261E-05 1.31343E-05 0.00000E+00
 -1       882 9.64463E-05 1.38769E-05-3.30872E-24
 -1       883 9.62605E-05 1.46356E-05-1.65436E-24
 -1       884 9.60707E-05 1.54047E-05 0.00000E+00
 -1       885 9.58792E-05 1.61785E-05 1.65436E-24
 -1       886 9.56879E-05 1.69515E-05 0.00000E+00
 -1       887 9.54990E-05 1.77179E-05 1.65436E-24
 -1       888 9.53146E-05 1.84721E-05 0.00000E+00
 -1       889 9.51364E-05 1.92083E-05 8.27181E-25
 -1       890 9.49666E-05 1.99208E-05-8.27181E-25
 -1       891 9.67726E-05 2.08105E-05 0.00000E+00
 -1       892 9.64958E-05 2.07686E-05 8.27181E-25
 -1       893 9.61807E-05 2.07268E-05 8.27181E-25
 -1       894 9.58071E-05 2.06850E-05-2.06795E-25
 -1       895 9.53546E-05 2.06433E-05-8.27181E-25
 -1       956 9.76216E-05 2.30135E-06-1.65436E-24
 -1       957 9.75282E-05 2.60821E-06 1.65436E-24
 -1       958 9.74344E-05 2.96747E-06-1.65436E-24
 -1       959 9.73405E-05 3.37236E-06-8.27181E-25
 -1       960 9.72465E-05 3.81610E-06 1.65436E-24
 -1       961 9.71525E-05 4.29187E-06-8.27181E-25
 -1       962 9.70584E-05 4.79284E-06 3.30872E-24
 -1       963 9.69644E-05 5.31220E-06-1.65436E-24
 -1       964 9.68703E-05 5.84310E-06-3.30872E-24
 -1       965 9.67762E-05 6.37873E-06 0.00000E+00
 -1       966 9.66821E-05 6.91225E-06 0.00000E+00
 -1       967 9.65881E-05 7.43683E-06 0.00000E+00
 -1       968 9.64941E-05 7.94564E-06 0.00000E+00
 -1       969 9.64003E-05 8.43190E-06 0.00000E+00
 -1       970 9.63068E-05 8.88878E-06 0.00000E+00
 -1       971 9.61275E-05 9.74687E-06 0.00000E+00
 -1       972 9.60392E-05 1.02606E-05 8.27181E-25
 -1       973 9.59508E-05 1.08426E-05-1.65436E-24
 -1       974 9.58622E-05 1.14840E-05 8.27181E-25
 -1       975 9.57735E-05 1.21759E-05 1.65436E-24
 -1       976 9.56847E-05 1.29097E-05-1.65436E-24
 -1       977 9.55960E-05 1.36764E-05 3.30872E-24
 -1       978 9.55072E-05 1.44672E-05-1.65436E-24
 -1       979 9.54184E-05 1.52733E-05 3.30872E-24
 -1       980 9.53296E-05 1.60859E-05-1.65436E-24
 -1       981 9.52408E-05 1.68962E-05 0.00000E+00
 -1       982 9.51522E-05 1.76952E-05 0.00000E+00
 -1       983 9.50636E-05 1.84741E-05-3.30872E-24
 -1       984 9.49755E-05 1.92242E-05 0.00000E+00
 -1       985 9.48877E-05 1.99366E-05 0.00000E+00
 -3
    1PSTEP                        14           7           1          
  100CL  107 5.03906E-01         409                     0    7           1
 -4  STRESS      6    1
 -5  SXX         1    4    1    1
 -5  SYY         1    4    2    2
 -5  SZZ         1    4    3    3
 -5  SXY         1    4    1    2
 -5  SYZ         1    4    2    3
 -5  SZX         1    4    3    1
 -1         1-2.17204E+06-9.15604E+05-4.60345E+05-1.16547E+06 8.87667E-10-2.64699E-08
 -1         2 1.64429E+03-5.64411E+05 5.35249E+03-1.33438E+03-7.38112E-11 4.58069E-08
 -1         3-2.19165E+02-9.79558E+05 2.23414E+02-5.47233E+02-3.80574E-10-6.89397E-10
 -1         5-1.67045E+00 2.63952E+05 6.79145E+00 6.20101E-02 4.18860E-11-1.76578E-08
 -1         8-1.03462E+06-3.68874E+05-1.06140E+05-5.03558E+05 1.14596E-10 3.67436E-09
 -1         9-2.50635E+05-5.60931E+05 3.95921E+04-5.86871E+05 1.34081E-08 1.80677E-08
 -1        10-9.07373E+02-1.02053E+06-1.78574E+03-3.70289E+03-5.23232E-09-1.76322E-08
 -1        12 1.11630E+00 2.63966E+05 2.19905E+02 5.17924E-01 1.02649E-10-6.60032E-09
 -1        15 1.82451E+03 1.00268E+03 5.89773E+03 3.65714E+00-6.55973E-11 5.24582E-08
 -1        16 1.39881E+05-1.03257E+06-1.22767E+04-1.24374E+06 1.67541E-08 7.37297E-09
 -1        17 8.58631E+04 1.39592E+05 9.72941E+04 2.27340E+05-7.21484E-09 1.05356E-08
 -1        18-4.21447E+04-1.48048E+04-3.09469E+04-6.94815E+04 5.04065E-09 2.28556E-09
 -1        19 8.40691E+04 9.80788E+04-6.11692E+02 1.64780E+04-3.14321E-10 1.02737E-09
 -1        20-4.02343E+04-3.97643E+05-8.80705E+04 2.66195E+04 2.41183E-09 2.08396E-09
 -1        21-3.64828E+01-2.24996E+05-7.21309E+02-4.32984E+01-6.97957E-09 1.64952E-08
 -1        24-1.09481E+06 4.58844E+05 9.06964E+04 2.48845E+05-5.99806E-08-2.51069E-08
 -1        25-6.18123E+04-3.95283E+05-7.55355E+04-1.13047E+05 2.38288E-10-1.51358E-09
 -1        26-2.64685E+04 6.51028E+04-1.49861E+04-6.39420E+03 1.29439E-09-6.57799E-09
 -1        27-6.04700E+04-2.17151E+05-8.10586E+04 4.90186E+04 5.11091E-09 1.13141E-08
 -1        28 1.73417E+04-6.27495E+04 1.27460E+04 1.89593E+04 2.34158E-09 1.06000E-09
 -1        32-1.03978E+06-1.09920E+06 1.38415E+05-5.36010E+05-2.33777E-08 1.49797E-09
 -1        33-1.26101E+05 6.30603E+04 2.24781E+04-3.29212E+04 3.74333E-10-2.09184E-10
 -1        34-1.60800E+05-1.62525E+04 4.07208E+02 5.03845E+04 2.80838E-09-3.92599E-10
 -1        35-1.76591E+04-2.49326E+04-9.80477E+02 3.91950E+04 3.14676E-09-1.33999E-09
 -1        51 2.06958E+04-3.20585E+05 4.97208E+04-8.84951E+05-1.89175E-10 2.56114E-09
 -1        52 1.05457E+04-3.16547E+05 3.07313E+04-1.03206E+06-7.27596E-12 1.49012E-08
 -1        53 6.37758E+03-3.29549E+05 2.34024E+04-8.81845E+05 8.80391E-10-2.04163E-08
 -1        54 1.78099E+04-3.27771E+05 3.41344E+04-1.03529E+06 7.27596E-11-6.39848E-08
 -1        55 3.57385E+04-3.40280E+05 5.89160E+04-8.81354E+05 1.01863E-10-4.69117E-08
 -1        56-4.14758E+06-4.64718E+05-3.39120E+05-1.60366E+06-6.83940E-09-3.33239E-08
 -1        57-4.29992E+06-7.56203E+05-2.28717E+05-1.57238E+06 4.06362E-09-3.55067E-09
 -1        58-4.21488E+06-5.73200E+05-7.97595E+04-1.58331E+06-5.90626E-09-1.79571E-08
 -1        59-4.22229E+06-6.28610E+05-4.76207E+04-1.59621E+06 2.10639E-09-2.94531E-08
 -1        60-4.22432E+06-5.88715E+05-1.86109E+04-1.58101E+06-5.99584E-09 9.99171E-09
 -1        61-4.21268E+06-6.09068E+05-1.05655E+04-1.59726E+06-3.13548E-09-1.04023E-09
 -1        62-4.22428E+06-5.92285E+05-5.05491E+03-1.58237E+06 2.16414E-09-1.05872E-08
 -1        63-4.21500E+06-6.03032E+05-4.10774E+03-1.59315E+06 2.67619E-09-2.66595E-08
 -1        64-4.22194E+06-5.94722E+05-4.62620E+03-1.58510E+06 4.11512E-09-2.43590E-08
 -1        65-4.22134E+06-5.99679E+05-9.25758E+03-1.58695E+06 4.60295E-09-4.37270E-08
 -1        66-4.21795E+06-5.95695E+05-1.61862E+04-1.58856E+06-4.21153E-10-1.39362E-08
 -1        67-4.23636E+06-6.09867E+05-4.12485E+04-1.57835E+06 7.84098E-10-3.12029E-08
 -1        68-4.20709E+06-5.84931E+05-6.90907E+04-1.59360E+06-5.38330E-09-3.65399E-08
 -1        69-4.30706E+06-7.16952E+05-1.98052E+05-1.55391E+06 8.86757E-10-3.13012E-08
 -1        70-4.14809E+06-4.91700E+05-2.93706E+05-1.61201E+06 1.71713E-09 3.65253E-09
 -1        86-8.26644E+02-5.66249E+05 5.70525E+03 6.67189E+02 9.15406E-10 2.10140E-08
 -1        87 5.45675E+03-5.62633E+05 1.19313E+04-2.52009E+03 1.51056E-09 3.64912E-08
 -1        88-4.62269E+03-5.68030E+05 1.82689E+04 1.85293E+03 2.13913E-09 1.40503E-09
 -1        89 3.44296E+04-5.49332E+05 4.92344E+04-4.46172E+03 3.18323E-09-4.29788E-08
 -1        90-2.96922E+04-5.79540E+05 6.96322E+04 2.60904E+03 2.93221E-09 3.61688E-08
 -1       121-3.21223E+02-9.80403E+05 1.06795E+02 2.73027E+02 5.67439E-10-4.85488E-09
 -1       122-1.39239E+02-9.79520E+05 4.75254E+02-1.09361E+03-2.17997E-09 7.27414E-09
 -1       123-3.69443E+02-9.80460E+05 6.55510E+02 8.17073E+02 1.69888E-09 9.81527E-09
 -1       124 7.86415E+02-9.79001E+05 1.96899E+03-2.37070E+03-3.95630E-09 4.74120E-09
 -1       125-9.49154E+02-9.80978E+05 2.87277E+03 1.54798E+03 2.64845E-09 9.93168E-10
 -1       191-1.98066E+00 2.63975E+05 8.28168E+00-3.11300E-02 4.51121E-11-5.85146E-09
 -1       192-2.29286E+00 2.63952E+05 1.43714E+01 3.14815E-01 8.33946E-11 5.38978E-09
 -1       193-3.63624E+00 2.63975E+05 2.68860E+01-2.84667E-01 9.38218E-11 4.16799E-09
 -1       194-4.29618E+00 2.63954E+05 5.43388E+01 7.61864E-01 2.88409E-11 6.32838E-09
 -1       195-6.81817E+00 2.63973E+05 1.06449E+02-4.80460E-01 1.51914E-10 1.64073E-09
 -1       251-1.21416E+06 1.30161E+04-3.06179E+04-1.12753E+04-8.24031E-10-1.73695E-08
 -1       252-1.22704E+06-1.49949E+04-2.15136E+04 1.80876E+04 4.70891E-10-1.89191E-08
 -1       253-1.21974E+06 1.97103E+03-8.01286E+03-8.40267E+03-5.26484E-10-8.64020E-12
 -1       254-1.21995E+06-2.25466E+03-4.65659E+03 8.84786E+03 4.42924E-10-1.42484E-08
 -1       255-1.22112E+06 2.40288E+02-2.21378E+03-2.03522E+03 1.21906E-09 2.99951E-09
 -1       256-1.21865E+06-2.97557E+02-7.94429E+02-4.55815E+03 1.76038E-09 1.17673E-08
 -1       257-1.22101E+06-1.19362E+01-6.15591E+02 5.00318E+03-2.29772E-09 4.57422E-09
 -1       258-1.21948E+06 4.38997E+01-1.41915E+01-1.61577E+04-6.67687E-08 2.76194E-08
 -1       259-1.22040E+06-3.26480E+01 4.92729E+01 9.56438E+03-5.20506E-06-5.03442E-09
 -1       260-1.22011E+06 2.30272E+02 4.00415E+02-2.07709E+04-1.05328E-05-5.14717E-08
 -1       261-1.22044E+06-1.34923E+02 7.18659E+02 9.61670E+03-5.20813E-06-1.37451E-08
 -1       262-1.21903E+06 9.80050E+02 2.01682E+03-1.63421E+04-6.52637E-08 8.38583E-10
 -1       263-1.22140E+06-8.24980E+02 2.83568E+03 5.13526E+03-3.69107E-09 1.27254E-08
 -1       264-1.21575E+06 5.84490E+03 8.52577E+03-4.85648E+03 2.42653E-09 1.55273E-08
 -1       265-1.22362E+06-5.06829E+03 1.13574E+04-1.86903E+03-4.23609E-09-4.25189E-10
 -1       266-3.30290E+04-1.54426E+04 7.75040E+04-7.82589E+01 2.91038E-11 2.74141E-08
 -1       267 3.82905E+04 1.80014E+04 5.47743E+04 9.02858E+01 1.52795E-10-1.62182E-08
 -1       268-5.13465E+03-2.54935E+03 2.03596E+04-1.15045E+01-7.27596E-12 2.00117E-08
 -1       269 6.06256E+03 3.05120E+03 1.32332E+04 1.34005E+01 7.54881E-11 2.60351E-08
 -1       270-9.09998E+02-5.01329E+02 6.38785E+03-1.81856E+00 1.75078E-11 1.92725E-08
 -1       271-3.08223E+06-3.84305E+05-2.33291E+05-1.19882E+06 5.35874E-09-4.43833E-09
 -1       272-3.16791E+06-5.52856E+05-1.50044E+05-1.19472E+06 2.23775E-09-5.06116E-08
 -1       273-3.12685E+06-4.41811E+05-5.51091E+04-1.18760E+06-3.17891E-09-1.27111E-08
 -1       274-3.11506E+06-4.82953E+05-3.08372E+04-1.21221E+06 3.42470E-09 2.50157E-09
 -1       275-3.13419E+06-4.46561E+05-1.28387E+04-1.18434E+06-3.35967E-09 1.83063E-08
 -1       276-3.10572E+06-4.78034E+05-6.78472E+03-1.21785E+06 3.37059E-09-7.36463E-10
 -1       277-3.13642E+06-4.45731E+05-3.33048E+03-1.18250E+06-5.03405E-10 1.33666E-08
 -1       278-3.10287E+06-4.79490E+05-2.35267E+03-1.22089E+06 1.50251E-08 4.29293E-09
 -1       279-3.13733E+06-4.44853E+05-2.47166E+03-1.18153E+06-1.88811E-09 9.17737E-10
 -1       280-3.10241E+06-4.80941E+05-4.47530E+03-1.22202E+06 3.50224E-09 4.55657E-10
 -1       281-3.13703E+06-4.44234E+05-8.10917E+03-1.18145E+06 3.92069E-09-2.36469E-09
 -1       282-3.10664E+06-4.85793E+05-1.94533E+04-1.22063E+06-1.30450E-09 4.27463E-09
 -1       283-3.13313E+06-4.40521E+05-3.46024E+04-1.18271E+06-2.34081E-10-7.41420E-09
 -1       284-3.13880E+06-5.30785E+05-9.43521E+04-1.21079E+06 2.13731E-10-3.02844E-08
 -1       285-3.10541E+06-4.04081E+05-1.46652E+05-1.18941E+06-6.54836E-10-8.51287E-09
 -1       301 1.81694E+04-1.42465E+05 1.27820E+05-2.84056E+05-2.98314E-10 6.67660E-09
 -1       302 1.99255E+04-1.10776E+05 8.65253E+04-4.16416E+05 1.02773E-09 1.08344E-09
 -1       303 1.92112E+03-1.30056E+05 7.05250E+04-2.83703E+05-4.98403E-10-2.04273E-08
 -1       304 2.60224E+04-1.02860E+05 1.08826E+05-4.15800E+05 1.26602E-09 5.26234E-09
 -1       305 2.39742E+04-1.46776E+05 1.76949E+05-2.84743E+05-7.13044E-10-9.91713E-09
 -1       306-8.44585E+06-1.05952E+06-1.38745E+06-1.79563E+06-4.52856E-08 9.92441E-09
 -1       307 6.12716E+05-1.50981E+06 6.00596E+05-3.66253E+06-2.14262E-07-1.75569E-08
 -1       308-6.23514E+06 2.21428E+05-1.89664E+05-3.31791E+04 9.33214E-08 4.03452E-09
 -1       309-2.71846E+06-1.86847E+06 1.52539E+05-5.91439E+06 1.57098E-07-7.32075E-08
 -1       310-6.27831E+06 2.11825E+05-1.26560E+05-5.50845E+04-9.36416E-08-2.91584E-08
 -1       311 6.97253E+05-1.53916E+06 8.05487E+05-3.55960E+06-6.46687E-08 6.94054E-08
 -1       312-8.44878E+06-1.05005E+06-9.56130E+05-1.85413E+06 3.43716E-08 4.85306E-09
 -1       313 2.28860E+06 5.49654E+05 1.41993E+06 7.91372E+05-1.16052E-07 9.51622E-08
 -1       314-6.99026E+06-2.49855E+06-9.54132E+05-3.47275E+06 2.00525E-07 1.50612E-08
 -1       315-3.86740E+06 2.99866E+06 7.99503E+05 1.50292E+06 1.36322E-07-2.23605E-07
 -1       316-3.43795E+06-2.61371E+06-1.26452E+05-3.21598E+06 2.04047E-07-1.61453E-07
 -1       317-8.22139E+06 3.62745E+06 1.43731E+05 2.39168E+05 1.71143E-07-2.96825E-07
 -1       318-3.40986E+06-2.61164E+06-2.07452E+05-3.20800E+06-3.36688E-07-1.05982E-07
 -1       319-3.95089E+06 3.03618E+06 5.63013E+05 1.47580E+06-2.47179E-07-1.55414E-08
 -1       320-6.95234E+06-2.52587E+06-1.45210E+06-3.47086E+06-1.19762E-07-1.80662E-08
 -1       336 5.59305E+02-1.06131E+06-6.72946E+03 2.14520E+03-1.04305E-08 4.18368E-09
 -1       337-2.54984E+03-1.06269E+06-8.29118E+03-5.31490E+03-1.94411E-08 1.68529E-09
 -1       338 6.10459E+02-1.06125E+06-1.17362E+04 3.15100E+03-1.35956E-08 5.11682E-09
 -1       339-1.25609E+04-1.06899E+06-2.64868E+04-7.29532E+03-2.56755E-08 2.25555E-10
 -1       340 8.49885E+03-1.05525E+06-4.12403E+04 4.10260E+03-1.68002E-08 1.18671E-08
 -1       406 1.80707E+01 2.63963E+05 4.34312E+02-4.22374E-02 2.00544E-10-1.27307E-09
 -1       407 1.52464E+02 2.64042E+05 9.22705E+02-3.35925E+00-2.59064E-11 5.01802E-09
 -1       408 4.76191E+02 2.63896E+05 1.84304E+03 3.47558E+00 2.32149E-10-5.39467E-09
 -1       409 1.99357E+03 2.64631E+05 4.14884E+03-3.38030E+01 3.86535E-11 3.76474E-09
 -1       410 5.72587E+03 2.63373E+05 8.46982E+03 3.16645E+01 1.91903E-10-8.19250E-09
 -1       521-1.12592E+07-1.50402E+06-1.87899E+06-2.36150E+06-2.05182E-08-3.57395E-08
 -1       522-8.53630E+05-2.31738E+06 5.18948E+05-5.80406E+06-2.12982E-07-1.02384E-07
 -1       523-9.10669E+06 1.86642E+05-2.47140E+05-2.15032E+05 1.27475E-08-5.90007E-08
 -1       524-5.02452E+06-2.36472E+06 1.68979E+05-8.77407E+06 2.43378E-07-2.44988E-07
 -1       525-9.18025E+06 1.50521E+05-1.54331E+05-2.54813E+05 2.19559E-07-1.32459E-07
 -1       526-6.24442E+05-2.27382E+06 8.80916E+05-5.61469E+06 1.45752E-07-6.76482E-08
 -1       527-1.13062E+07-1.59175E+06-1.21561E+06-2.45047E+06 2.99187E-08-2.42580E-08
 -1       528 1.15346E+06 3.03543E+05 1.52787E+06 4.00116E+05 8.26549E-09 2.47237E-08
 -1       529-9.38556E+06-3.50030E+06-1.21191E+06-4.57308E+06-8.73115E-11-1.92958E-08
 -1       530-6.98495E+06 4.05738E+06 8.77275E+05 1.41007E+06-9.23319E-08 1.39466E-07
 -1       531-5.25300E+06-3.76285E+06-1.49150E+05-4.60976E+06-2.95462E-07 4.14148E-08
 -1       532-1.25600E+07 5.17275E+06 1.72141E+05-3.87567E+05 1.83190E-07-2.30008E-07
 -1       533-5.18233E+06-3.75353E+06-2.45631E+05-4.59886E+06-5.25324E-09-3.83414E-07
 -1       534-7.23162E+06 4.10688E+06 5.38790E+05 1.35344E+06-8.27276E-08 2.60356E-07
 -1       535-9.27262E+06-3.51726E+06-1.85981E+06-4.59203E+06 1.33296E-08 1.63833E-07
 -1       536-3.92331E+05-1.26598E+04 1.73503E+04-1.35606E+04-2.22894E-09 2.36987E-08
 -1       537-3.35468E+05 1.38899E+04 2.09069E+04 3.29238E+04-4.14282E-08 3.39332E-08
 -1       538-3.64157E+05-1.00264E+03 5.94080E+03-2.02024E+04 7.24924E-09 3.14685E-08
 -1       539-3.51762E+05 1.80893E+03 5.75224E+03 3.63608E+04 4.82284E-08 2.63977E-08
 -1       540-3.76329E+05-3.50923E+02-1.02446E+03-1.70063E+04-4.77849E-09 2.86099E-08
 -1       541-3.12758E+05 1.85983E+03 1.09230E+04 2.11208E+04-3.71051E-09 3.09762E-08
 -1       542-4.02117E+05-1.90528E+03-7.57438E+03-4.94063E+03-2.79010E-09 1.03672E-08
 -1       543-2.94518E+05 2.35050E+03 1.37230E+04-5.81619E+03 5.23210E-09-4.67629E-09
 -1       544-3.94088E+05-1.23491E+03-6.71805E+03 9.91022E+03 9.96806E-10-1.36775E-08
 -1       545-3.31144E+05 1.71130E+02 4.95932E+03-2.96656E+04-7.91670E-09-2.40873E-08
 -1       546-3.66447E+05 1.05112E+03-3.15535E+03 1.89040E+04 1.89294E-09-2.74273E-08
 -1       547-3.57420E+05-3.39388E+03-5.16090E+03-3.79181E+04-3.66021E-08-4.09545E-08
 -1       548-3.68471E+05 2.86514E+03-1.17208E+04 1.81794E+04-3.45638E-08-2.43804E-08
 -1       549-3.32556E+05-1.68530E+04-2.02115E+04-2.68753E+04-2.04483E-08-1.08403E-08
 -1       550-3.90479E+05 1.38187E+04-4.81500E+04 7.84167E+03 2.16846E-09-6.86123E-09
 -1       551 1.22691E+04-4.82317E+05 1.78228E+04-7.59903E+05-4.49436E-08-2.03727E-08
 -1       552 2.81542E+04-4.90142E+05 2.67264E+04-1.08188E+06-3.36295E-08 9.93896E-09
 -1       553 2.02031E+04-4.95274E+05 4.27787E+04-7.56899E+05-5.46788E-08 1.35115E-08
 -1       554 5.33760E+04-4.83331E+05 9.21181E+04-1.08343E+06-3.47209E-08 9.56607E-09
 -1       555 4.84826E+04-5.15002E+05 1.65523E+05-7.57268E+05-5.62868E-08-7.75617E-09
 -1       556 9.80041E+04-1.81439E+05 4.65280E+04-2.24991E+05-1.02737E-08-9.51695E-09
 -1       557 1.67955E+05-2.39601E+05 2.47575E+04-2.84903E+05-5.82077E-11 3.70528E-09
 -1       558 9.54898E+04-1.86208E+05 9.53604E+03-2.20377E+05-6.18456E-09 1.67347E-09
 -1       559 1.58018E+05-2.45584E+05 4.99298E+03-2.90519E+05 8.71660E-09-3.62343E-09
 -1       560 9.21212E+04-1.84025E+05 1.79673E+03-2.22609E+05 2.28465E-09 7.25959E-09
 -1       561 1.53373E+05-2.44063E+05 1.06490E+03-2.93542E+05 4.72937E-10 3.14230E-09
 -1       562 8.94857E+04-1.82325E+05 2.74768E+02-2.24494E+05 5.68980E-09 5.75710E-09
 -1       563 1.50299E+05-2.42726E+05 2.65042E+02-2.95515E+05 1.00517E-08-5.77450E-09
 -1       564 8.77719E+04-1.81239E+05 5.80944E+01-2.25705E+05 7.79983E-09-3.97631E-09
 -1       565 1.48552E+05-2.41970E+05 9.14740E+01-2.96619E+05 2.84490E-09-2.19552E-09
 -1       566 8.70169E+04-1.80752E+05 8.89626E+00-2.26240E+05-6.25732E-10-7.45786E-10
 -1       567 1.48099E+05-2.41762E+05-5.58930E+01-2.96829E+05 1.43609E-08 1.65455E-08
 -1       568 8.72570E+04-1.80914E+05-2.70505E+02-2.26147E+05-1.94632E-10 4.96948E-09
 -1       569 1.48209E+05-2.41619E+05-6.50924E+02-2.95456E+05-3.26509E-09 1.33368E-08
 -1       570 8.91028E+04-1.82456E+05-1.52679E+03-2.25982E+05 4.90400E-09 9.48421E-09
 -1       571 1.96328E+05 7.24486E+03 1.06928E+04-5.08799E+04 2.66482E-10 6.03677E-09
 -1       572 1.97915E+05 2.54230E+03 5.23890E+03-5.57936E+04-1.12232E-09 5.08044E-09
 -1       573 1.96965E+05 6.28315E+02 2.32744E+03-5.07584E+04 1.03364E-09 9.82118E-09
 -1       574 1.97150E+05 2.28172E+02 1.16624E+03-5.59319E+04 3.69505E-09 2.80716E-09
 -1       575 1.97036E+05 5.70558E+01 5.49866E+02-5.07423E+04 1.58707E-09 1.01554E-08
 -1       576 1.97047E+05 4.04632E+01 2.80312E+02-5.59503E+04-1.50582E-09-1.06943E-08
 -1       577 1.97050E+05 2.48783E+01 1.38789E+02-5.07401E+04-6.09361E-10 8.30369E-09
 -1       578 1.97041E+05 2.87508E+01 7.71905E+01-5.59526E+04-2.42835E-09-1.01181E-09
 -1       579 1.97066E+05 1.99124E+01 4.97612E+01-5.07400E+04-1.84582E-09 2.39424E-09
 -1       580 1.97064E+05 1.94110E+01 5.09719E+01-5.59496E+04-4.12138E-09 2.89492E-09
 -1       581 1.97093E+05 9.41311E+00 7.37076E+01-5.07431E+04 2.29375E-09-5.03633E-09
 -1       582 1.97113E+05 2.27806E+01 1.44319E+02-5.59182E+04 3.17777E-09-8.24093E-09
 -1       583 1.97123E+05 5.56535E+01 2.78659E+02-5.07714E+04-8.32370E-09 1.98474E-09
 -1       584 1.97253E+05 2.75836E+02 6.26177E+02-5.56814E+04-2.28938E-08-8.44739E-09
 -1       585 1.97092E+05 8.26156E+02 1.27210E+03-5.09804E+04-1.23355E-08-5.89353E-09
 -1       586-2.35967E+03 6.45944E+04-2.95827E+03-1.75766E+05-6.14818E-10 3.72256E-09
 -1       587-5.31802E+02 6.42201E+04-1.31377E+02-1.93451E+05-3.07409E-10-4.50143E-09
 -1       588 6.76299E+02 6.42650E+04 2.59022E+03-1.75675E+05-6.91216E-11 4.42105E-09
 -1       589 3.58306E+03 6.56639E+04 7.26938E+03-1.93259E+05-7.20320E-10-2.43426E-09
 -1       590 1.04651E+04 6.34329E+04 1.54667E+04-1.75965E+05-4.60204E-10-5.79348E-10
 -1       591-4.12863E+04-1.11624E+04-1.38931E+04-2.05126E+04 3.57431E-10 5.60249E-09
 -1       592-4.29174E+04-1.42453E+04-7.52522E+03-2.37607E+04-2.55397E-10 2.44199E-10
 -1       593-4.26860E+04-1.01438E+04-3.13271E+03-2.15211E+04-2.33831E-09-1.00044E-09
 -1       594-4.09865E+04-1.22204E+04-1.56244E+03-2.38502E+04 1.32741E-09 1.61044E-08
 -1       595-4.27931E+04-1.01395E+04-7.17884E+02-2.15672E+04 6.49720E-11 2.45362E-09
 -1       596-4.08553E+04-1.21277E+04-3.65741E+02-2.38360E+04 1.77258E-09 1.00015E-08
 -1       597-4.28066E+04-1.01486E+04-2.00869E+02-2.15690E+04-2.28212E-10 1.01437E-09
 -1       598-4.08427E+04-1.21242E+04-1.64619E+02-2.38320E+04-1.66767E-09 2.41550E-09
 -1       599-4.28056E+04-1.01487E+04-2.14198E+02-2.15686E+04-8.33552E-10-7.11589E-09
 -1       600-4.08564E+04-1.21288E+04-4.01054E+02-2.38353E+04-2.91402E-09 2.23736E-10
 -1       601-4.27888E+04-1.01392E+04-7.92820E+02-2.15660E+04-3.38161E-09-2.95506E-09
 -1       602-4.10013E+04-1.22310E+04-1.72875E+03-2.38491E+04-3.50087E-09 1.13562E-08
 -1       603-4.26688E+04-1.01457E+04-3.46730E+03-2.15152E+04-5.59203E-09 1.16795E-08
 -1       604-4.31473E+04-1.44623E+04-8.32905E+03-2.37371E+04 1.51977E-09 1.72131E-08
 -1       605-4.11085E+04-1.12819E+04-1.53771E+04-2.04087E+04 2.17460E-09 8.78481E-09
 -1       606 2.56059E+04-9.42342E+03-1.69533E+04 2.48421E+04-1.47338E-09-1.70257E-09
 -1       607 2.27036E+04-3.04738E+03-8.44188E+03 2.78893E+04-4.37285E-09 1.90107E-09
 -1       608 2.43512E+04-5.21055E+02-3.78024E+03 2.46459E+04-1.97178E-09 1.03353E-08
 -1       609 2.40251E+04-1.43903E+02-1.90934E+03 2.81081E+04-1.63163E-09 1.62754E-08
 -1       610 2.42005E+04 1.50012E+01-9.11874E+02 2.46238E+04-3.51974E-09 8.87621E-09
 -1       611 2.41403E+04 2.55755E+01-4.59835E+02 2.81320E+04-5.73345E-09 3.33216E-09
 -1       612 2.41611E+04 2.92816E+01-2.19723E+02 2.46216E+04-3.47336E-09-1.41631E-09
 -1       613 2.41393E+04 3.31369E+01-9.96393E+01 2.81348E+04-4.48608E-09-6.89624E-09
 -1       614 2.41398E+04 2.93507E+01-2.66176E+01 2.46209E+04-7.99173E-09-8.23161E-09
 -1       615 2.41289E+04 3.79162E+01 3.41073E+01 2.81353E+04-1.57988E-08 5.99516E-09
 -1       616 2.41236E+04 3.45179E+01 1.09292E+02 2.46212E+04-1.09512E-08 2.80352E-09
 -1       617 2.41368E+04 6.44955E+01 2.52226E+02 2.81348E+04-4.14502E-10-7.23526E-09
 -1       618 2.40977E+04 1.09754E+02 5.09379E+02 2.46213E+04-2.27237E-09-3.75053E-09
 -1       619 2.43135E+04 4.60451E+02 1.14457E+03 2.81341E+04-1.67813E-09-5.38830E-09
 -1       620 2.39265E+04 1.31969E+03 2.30069E+03 2.46203E+04-5.20117E-10-2.85627E-09
 -1       621 2.71605E+02 2.05613E+05 2.44292E+03 1.10152E+04-6.91216E-11 3.54248E-10
 -1       622 3.22223E+02 2.06214E+05 2.19174E+03 1.60474E+04 3.91083E-11-4.68401E-09
 -1       623 1.66871E+01 2.05767E+05 2.67456E+03 1.09625E+04-4.54037E-11 7.96263E-10
 -1       624 1.25527E+03 2.07064E+05 5.21330E+03 1.61007E+04 1.30115E-10 2.70677E-09
 -1       625 1.26171E+03 2.04749E+05 9.12642E+03 1.09617E+04-4.04725E-11 1.18814E-09
 -1       626 1.76838E+05 4.75255E+04 3.72872E+03 9.34905E+04-3.34694E-09-4.29100E-09
 -1       627 1.74627E+05 4.90645E+04 1.79673E+03 9.71851E+04-3.74712E-10-8.48286E-09
 -1       628 1.76961E+05 4.57814E+04 7.59086E+02 9.40770E+04 1.21872E-09-4.82032E-11
 -1       629 1.74113E+05 4.86169E+04 3.71798E+02 9.74057E+04 2.90856E-09 2.06876E-09
 -1       630 1.76969E+05 4.56988E+04 1.71828E+02 9.40953E+04 8.83119E-10-1.09095E-08
 -1       631 1.74052E+05 4.86048E+04 9.19791E+01 9.74069E+04-2.59388E-09-1.15408E-09
 -1       632 1.76962E+05 4.57047E+04 5.97747E+01 9.40882E+04 4.53110E-09-4.60273E-09
 -1       633 1.74040E+05 4.86094E+04 6.54225E+01 9.74004E+04 1.28366E-08-1.43791E-09
 -1       634 1.76953E+05 4.57053E+04 1.04672E+02 9.40844E+04 1.13885E-08 1.99134E-09
 -1       635 1.74045E+05 4.86106E+04 2.11390E+02 9.74005E+04 2.66141E-09 6.91580E-09
 -1       636 1.76942E+05 4.57040E+04 4.26580E+02 9.40817E+04-4.39553E-09 4.61318E-09
 -1       637 1.74133E+05 4.86781E+04 9.37410E+02 9.73968E+04-6.00892E-10-9.95760E-09
 -1       638 1.76906E+05 4.59127E+04 1.92635E+03 9.39859E+04 7.65340E-10-4.78849E-09
 -1       639 1.75142E+05 5.00862E+04 4.55722E+03 9.70969E+04-8.74479E-10-1.02086E-08
 -1       640 1.76770E+05 5.01089E+04 9.45729E+03 9.22069E+04-4.50200E-11 4.12092E-09
 -1       656 4.71317E+04-1.19588E+06-1.13781E+05-5.16774E+02-3.12866E-10 3.87223E-09
 -1       657-6.22998E+04-1.24725E+06-9.41401E+04 7.04550E+03-1.13505E-09 1.28458E-08
 -1       658 1.49672E+04-1.21052E+06-5.78270E+04-1.68542E+03 1.05240E-09-1.11349E-08
 -1       659-6.69515E+04-1.24946E+06-1.00250E+05 7.86124E+03 5.09317E-11-1.06149E-08
 -1       660 5.17722E+04-1.19368E+06-1.24290E+05-1.33249E+03 2.91038E-11 2.14517E-09
 -1       661 1.55913E+05 1.68786E+04 1.52012E+04 6.09505E+04-1.35515E-10-5.93809E-09
 -1       662 1.63966E+05 2.86671E+04 1.02433E+04 5.81539E+04 3.38844E-10-1.80056E-08
 -1       663 1.58893E+05 2.17596E+04 3.58309E+03 6.00894E+04-3.32989E-10-1.08737E-08
 -1       664 1.60516E+05 2.29543E+04 2.14243E+03 5.92014E+04 9.11086E-10-1.22538E-08
 -1       665 1.59340E+05 2.24310E+04 8.45154E+02 5.99635E+04-3.06051E-09-8.90623E-10
 -1       666 1.59991E+05 2.21827E+04 4.93190E+02 5.93630E+04-7.65885E-09 4.50197E-09
 -1       667 1.59415E+05 2.25110E+04 2.60447E+02 5.99353E+04-6.70099E-10-7.56963E-09
 -1       668 1.59911E+05 2.21201E+04 2.61834E+02 5.94034E+04 3.63360E-09-1.03561E-08
 -1       669 1.59420E+05 2.24918E+04 3.51621E+02 5.99237E+04 7.43483E-10 4.23540E-10
 -1       670 1.59999E+05 2.23063E+04 7.62940E+02 5.94025E+04 2.41818E-09-5.41387E-09
 -1       671 1.59327E+05 2.23286E+04 1.35377E+03 5.99347E+04-1.62741E-09-2.10770E-09
 -1       672 1.60790E+05 2.36219E+04 3.46288E+03 5.92104E+04-5.45842E-09 1.19626E-08
 -1       673 1.58634E+05 2.12093E+04 5.80297E+03 6.01032E+04-2.18188E-09 3.54044E-09
 -1       674 1.66316E+05 3.29421E+04 1.65953E+04 5.75846E+04-1.27272E-10-3.32102E-09
 -1       675 1.53837E+05 1.32690E+04 2.46327E+04 6.14622E+04 8.25821E-10-1.64437E-09
 -1       676 1.87166E+01-2.24936E+05-8.69362E+02 2.16497E+01-1.81856E-09 7.29594E-09
 -1       677-2.30834E+02-2.25146E+05-1.59103E+03-4.32775E+01-2.81713E-09-5.43875E-09
 -1       678 1.54109E+02-2.24786E+05-2.81252E+03 2.16129E+01 4.70550E-10-1.83122E-09
 -1       679-2.81320E+03-2.26844E+05-6.68116E+03-4.31338E+01-3.02441E-09 5.44283E-09
 -1       680 1.67890E+03-2.23239E+05-1.07678E+04 2.12601E+01-2.43699E-09 3.74365E-10
 -1       771-2.39485E+06-4.65506E+05-6.96324E+04-1.04362E+06-1.42536E-08-1.19180E-08
 -1       772-2.36528E+06-5.09950E+05-3.68479E+04-1.09392E+06-9.05857E-09 8.26367E-09
 -1       773-2.40619E+06-4.56581E+05-1.68515E+04-1.04775E+06-2.75031E-09 4.56203E-09
 -1       774-2.35686E+06-5.02366E+05-7.94383E+03-1.10105E+06 1.19326E-08-5.31145E-10
 -1       775-2.41021E+06-4.53784E+05-4.67939E+03-1.04870E+06-3.37604E-09 1.00408E-09
 -1       776-2.35825E+06-5.02210E+05-1.97104E+03-1.10561E+06-2.05910E-09 2.55022E-09
 -1       777-2.41337E+06-4.51464E+05-1.64393E+03-1.04948E+06 5.38421E-10 2.20462E-09
 -1       778-2.36008E+06-5.02230E+05-5.66190E+02-1.10945E+06-1.60071E-10 5.02223E-09
 -1       779-2.41598E+06-4.49492E+05-7.36968E+02-1.05016E+06-9.65520E-09-1.84082E-09
 -1       780-2.36172E+06-5.02221E+05-2.44860E+02-1.11255E+06-9.85528E-09 7.91624E-09
 -1       781-2.41799E+06-4.47928E+05-4.58945E+02-1.05069E+06-1.67711E-08 7.13044E-10
 -1       782-2.36300E+06-5.02203E+05-3.95379E+02-1.11482E+06-1.99561E-08-3.35444E-09
 -1       783-2.41935E+06-4.46875E+05-8.17552E+02-1.05105E+06-5.34783E-09-5.87511E-09
 -1       784-2.36423E+06-5.02630E+05-1.74028E+03-1.11618E+06-9.09131E-09 4.52474E-10
 -1       785-2.41973E+06-4.46573E+05-3.25818E+03-1.05100E+06-1.33332E-08 7.92079E-09
 -1       786 1.42432E+05-8.70271E+03 2.01335E+04-7.04189E+01 1.65068E-09-4.57476E-10
 -1       787 1.51159E+05 1.00750E+04 1.42439E+04 1.91591E+01 2.28664E-09 1.50067E-10
 -1       788 1.45799E+05-1.36422E+03 5.21040E+03-5.37182E+01 1.29142E-09 8.02538E-09
 -1       789 1.47238E+05 1.57840E+03 3.27285E+03-8.40907E+00-5.97410E-10-4.74057E-09
 -1       790 1.46354E+05-2.13010E+02 1.32966E+03-4.28531E+01-2.70077E-10 6.67740E-09
 -1       791 1.46589E+05 2.46899E+02 7.76725E+02-2.80806E+01-1.02117E-09 1.33905E-08
 -1       792 1.46448E+05-3.37164E+01 3.46687E+02-3.40466E+01-5.27175E-10-2.77650E-09
 -1       793 1.46482E+05 4.35735E+01 2.11290E+02-4.59054E+01 1.10314E-10 3.39964E-09
 -1       794 1.46461E+05-9.81573E+00 1.32213E+02-2.50281E+01 8.17193E-10-7.54999E-09
 -1       795 1.46479E+05 4.13841E+01 1.56130E+02-6.63252E+01-8.85908E-10-1.16031E-09
 -1       796 1.46451E+05-3.15250E+01 2.12630E+02-1.36265E+01 9.07114E-11-2.37324E-09
 -1       797 1.46569E+05 2.28983E+02 4.83790E+02-9.42275E+01 5.33642E-10 7.92475E-09
 -1       798 1.46371E+05-1.97278E+02 7.57980E+02 2.87472E+00-6.32747E-11-2.63293E-09
 -1       799 1.47136E+05 1.45633E+03 2.06134E+03-1.36350E+02 4.84018E-10 1.67154E-09
 -1       800 1.45884E+05-1.25789E+03 2.91033E+03 2.84969E+01 1.01110E-11 8.13338E-09
 -1       801 5.80719E+04-1.99687E+06-1.81005E+05 3.33813E+04 1.39480E-08-7.62793E-09
 -1       802-6.63297E+04-1.85898E+06-8.11478E+04-5.57430E+04 3.89209E-08-7.79613E-09
 -1       803 7.51284E+03-1.92191E+06-2.06725E+04 8.66927E+04 2.98278E-08 3.17432E-08
 -1       804 3.55465E+04-1.81189E+06 5.28618E+04-3.30060E+04 3.16140E-08 3.02280E-08
 -1       805-4.45281E+04-2.04342E+06 5.04661E+04 1.06379E+04 1.18998E-08 1.84132E-08
 -1       806-2.15325E+05-4.27703E+04-1.67503E+04-8.62262E+04-1.12959E-09 6.03131E-09
 -1       807-2.16617E+05-4.00636E+04-8.22915E+03-9.03145E+04 2.03431E-09 7.78363E-09
 -1       808-2.15782E+05-3.67366E+04-3.49095E+03-8.90857E+04-1.37197E-09 3.58682E-11
 -1       809-2.14880E+05-3.77586E+04-1.70686E+03-9.05269E+04-2.78942E-09 2.06586E-09
 -1       810-2.15854E+05-3.65253E+04-7.81870E+02-8.92125E+04 6.84759E-09 2.67801E-09
 -1       811-2.14747E+05-3.76662E+04-3.88293E+02-9.05037E+04 1.48698E-08 2.16778E-09
 -1       812-2.15866E+05-3.65421E+04-1.94958E+02-8.92124E+04 1.37129E-08-7.67727E-09
 -1       813-2.14730E+05-3.76679E+04-1.24760E+02-9.04921E+04 2.12465E-08 1.56263E-09
 -1       814-2.15863E+05-3.65481E+04-1.20113E+02-8.92099E+04 1.12609E-08-8.96557E-09
 -1       815-2.14733E+05-3.76695E+04-1.90858E+02-9.04888E+04 3.95812E-09 5.98607E-09
 -1       816-2.15851E+05-3.65464E+04-3.59552E+02-8.92079E+04 2.15368E-09 6.30143E-09
 -1       817-2.14795E+05-3.77037E+04-7.71528E+02-9.04828E+04 3.08864E-09-1.40403E-08
 -1       818-2.15806E+05-3.66540E+04-1.57287E+03-8.91569E+04 1.67074E-09-1.33264E-08
 -1       819-2.15659E+05-3.86524E+04-3.70174E+03-9.02792E+04-5.90717E-10-1.09203E-08
 -1       820-2.15513E+05-3.94476E+04-7.53383E+03-8.79594E+04 2.64390E-09 6.31451E-09
 -1       821-2.69589E+05 1.49083E+04-3.44779E+04 1.97955E+02 1.17219E-09-7.83803E-09
 -1       822-2.84530E+05-1.72588E+04-2.43981E+04-7.19623E+02-7.58751E-10 7.60792E-10
 -1       823-2.75355E+05 2.33732E+03-8.92991E+03 1.72410E+02-3.39032E-10 5.34783E-10
 -1       824-2.77803E+05-2.70512E+03-5.61817E+03-5.50670E+02 3.59148E-10 1.03737E-08
 -1       825-2.76314E+05 3.65705E+02-2.31037E+03 2.90004E+01-1.33685E-09 5.43582E-09
 -1       826-2.76686E+05-4.31201E+02-1.39316E+03-2.04992E+02-3.71629E-09 1.45350E-08
 -1       827-2.76471E+05 6.48260E+01-7.23964E+02-1.73274E+02-2.58177E-09-3.38673E-10
 -1       828-2.76537E+05-1.32008E+02-6.39379E+02 1.76511E+02-4.84195E-09 4.66281E-09
 -1       829-2.76463E+05 6.68081E+01-7.37933E+02-3.52510E+02 5.33285E-10 7.82177E-09
 -1       830-2.76713E+05-4.46106E+02-1.44144E+03 4.39179E+02 1.91095E-09 2.42247E-09
 -1       831-2.76295E+05 3.78989E+02-2.38840E+03-4.35947E+02-2.08309E-09 5.06600E-09
 -1       832-2.77862E+05-2.80154E+03-5.82054E+03 4.76853E+02-6.94245E-11 1.55231E-08
 -1       833-2.75315E+05 2.42059E+03-9.25003E+03-3.90183E+02-7.27143E-10 6.86896E-09
 -1       834-2.84807E+05-1.78764E+04-2.52708E+04 2.74861E+02-4.92289E-10 2.59706E-09
 -1       835-2.69352E+05 1.54420E+04-3.57176E+04-2.33946E+02 4.81574E-09 7.71615E-09
 -1       836-9.06949E+02 2.53742E+05 1.53606E+04-1.79811E+04 5.51154E-10 6.77574E-11
 -1       837 3.35995E+03 2.58511E+05 1.31362E+04-3.61357E+04 9.36780E-10 2.21689E-11
 -1       838-3.42540E+02 2.55063E+05 1.35776E+04-1.79154E+04 9.35415E-10 3.65617E-10
 -1       839 8.70639E+03 2.62496E+05 2.58748E+04-3.61675E+04 1.71030E-09 2.90827E-09
 -1       840-2.63214E+03 2.49720E+05 4.13419E+04-1.79483E+04 7.67614E-10 7.51299E-09
 -1       856-7.35639E+04 6.92911E+03-1.82599E+04-3.95899E+02-2.82876E-09 3.27327E-09
 -1       857-8.11048E+04-8.12822E+03-1.25714E+04 4.28404E+03-1.31436E-09-5.02610E-09
 -1       858-7.65438E+04 9.70976E+02-4.73880E+03-4.14650E+02-2.43983E-09 6.44150E-10
 -1       859-7.76828E+04-1.13011E+03-2.86166E+03 4.31369E+03-1.69960E-09 2.30375E-09
 -1       860-7.69893E+04 1.35131E+02-1.20250E+03-4.25638E+02-1.90425E-12-3.81266E-09
 -1       861-7.71697E+04-1.50221E+02-6.68273E+02 4.32872E+03-5.07864E-09-9.47148E-09
 -1       862-7.70587E+04 1.78962E+01-2.91320E+02-4.29698E+02 4.34031E-09-2.24796E-09
 -1       863-7.70870E+04-1.09907E+01-1.36828E+02 4.33061E+03 8.10134E-09-7.97109E-09
 -1       864-7.70722E+04-1.03201E+00-2.83499E+01-4.27536E+02 3.61570E-09-3.16049E-11
 -1       865-7.70582E+04 2.85115E+01 6.65402E+01 4.31955E+03 3.16811E-09 5.61575E-09
 -1       866-7.70861E+04-2.19238E+01 1.69628E+02-4.18637E+02-7.50674E-10-1.08636E-08
 -1       867-7.69692E+04 1.83239E+02 4.40267E+02 4.29538E+03 2.47064E-09-1.02929E-08
 -1       868-7.71582E+04-1.53909E+02 7.37145E+02-4.03363E+02 3.10644E-09-7.74165E-09
 -1       869-7.64223E+04 1.27925E+03 1.97104E+03 4.25515E+03 1.31291E-09-8.15385E-09
 -1       870-7.76284E+04-1.08954E+03 2.85942E+03-3.78413E+02 2.57739E-09 8.71751E-10
 -1       871-4.01795E+03-9.20720E+03-1.31533E+04 8.69386E+04 1.60526E-09-5.79075E-09
 -1       872-1.71763E+03-1.21642E+04-5.38491E+03 1.12713E+05 1.37652E-09-8.31278E-09
 -1       873-9.48362E+00-1.07776E+04 7.07601E+02 8.67476E+04 1.17802E-09-7.98832E-09
 -1       874 2.02949E+03-8.90511E+03 7.32461E+03 1.12750E+05 1.88629E-09-8.15044E-09
 -1       875 4.74348E+03-1.25180E+04 1.62835E+04 8.69073E+04 1.25237E-09-3.48928E-09
 -1       876 2.12035E+05 3.63798E+04 1.12287E+04 8.58458E+04-6.90841E-09 4.64479E-09
 -1       877 2.12700E+05 3.88214E+04 5.99640E+03 8.91415E+04-1.37215E-08-5.07589E-09
 -1       878 2.13084E+05 3.51371E+04 2.51223E+03 8.67680E+04-3.94857E-09 3.63912E-09
 -1       879 2.11173E+05 3.72998E+04 1.25152E+03 8.92204E+04 2.09172E-09 1.15651E-08
 -1       880 2.13160E+05 3.51233E+04 5.82748E+02 8.68056E+04-5.47379E-09-1.42421E-09
 -1       881 2.11071E+05 3.72351E+04 3.10591E+02 8.92044E+04-6.37738E-09 5.98709E-09
 -1       882 2.13168E+05 3.51326E+04 1.97689E+02 8.68066E+04-9.68271E-10 8.21672E-10
 -1       883 2.11064E+05 3.72320E+04 2.10875E+02 8.91998E+04 3.08927E-09 9.92839E-09
 -1       884 2.13164E+05 3.51302E+04 3.33971E+02 8.68068E+04 7.81768E-10-5.37358E-09
 -1       885 2.11091E+05 3.72368E+04 6.70544E+02 8.92082E+04 1.35236E-09-1.70299E-08
 -1       886 2.13138E+05 3.51106E+04 1.35103E+03 8.68041E+04 5.04697E-09-9.30811E-09
 -1       887 2.11328E+05 3.73924E+04 2.95102E+03 8.92423E+04-4.14985E-10-1.94116E-08
 -1       888 2.12951E+05 3.51435E+04 5.94638E+03 8.67097E+04 2.93650E-09-4.42878E-09
 -1       889 2.14871E+05 4.10718E+04 1.42054E+04 8.91306E+04 8.54634E-10 1.45519E-10
 -1       890 2.10528E+05 3.80216E+04 2.66057E+04 8.44414E+04 2.92630E-09-7.30233E-09
 -1       891-1.24779E+02-1.19865E+05-1.42782E+03 2.22149E+04 4.96016E-10-4.19959E-10
 -1       892-2.18598E+02-1.20211E+05-1.54835E+03 3.36279E+04-1.06320E-09-3.56556E-09
 -1       893-2.96057E+01-1.19911E+05-2.20751E+03 2.22194E+04-6.10726E-10-1.09849E-08
 -1       894-1.19397E+03-1.21056E+05-4.57999E+03 3.35078E+04-1.48657E-09-8.69659E-09
 -1       895-9.34575E+02-1.18958E+05-8.06936E+03 2.23338E+04-8.28550E-10-2.25282E-09
 -1       956-2.67813E+05-3.80330E+03-9.56210E+03 1.80981E+04-1.68388E-08-2.88776E-09
 -1       957-2.69701E+05-1.28689E+03-4.90878E+03 2.17940E+04-2.81298E-08-1.34346E-08
 -1       958-2.68662E+05-1.06491E+02-2.21154E+03 1.79853E+04-1.39371E-08-4.01815E-09
 -1       959-2.68812E+05-2.27296E+01-1.12963E+03 2.19170E+04 2.13458E-09 4.05601E-09
 -1       960-2.68738E+05 2.77404E+01-5.50697E+02 1.79745E+04-3.26372E-09 2.76191E-09
 -1       961-2.68747E+05 2.50356E+01-2.92190E+02 2.19294E+04-7.00743E-09 1.02486E-08
 -1       962-2.68754E+05 2.39638E+01-1.67248E+02 1.79729E+04-5.20072E-09 1.10822E-09
 -1       963-2.68744E+05 2.62287E+01-1.34267E+02 2.19315E+04-2.87037E-09 8.56971E-10
 -1       964-2.68757E+05 2.57854E+01-1.63008E+02 1.79723E+04-1.26744E-09 2.64004E-09
 -1       965-2.68754E+05 2.89730E+01-2.81694E+02 2.19314E+04 1.62999E-10 1.93904E-09
 -1       966-2.68748E+05 3.31359E+01-5.28811E+02 1.79729E+04-2.08775E-09-5.83248E-09
 -1       967-2.68823E+05-1.30276E+01-1.08459E+03 2.19241E+04-1.55239E-09-3.55567E-09
 -1       968-2.68680E+05-9.20938E+01-2.12255E+03 1.79797E+04 3.04522E-09-4.44970E-10
 -1       969-2.69683E+05-1.22338E+03-4.71265E+03 2.18445E+04 2.80488E-09-4.87645E-09
 -1       970-2.67870E+05-3.63892E+03-9.17931E+03 1.80542E+04 1.00908E-09 7.28687E-09
 -1       971-2.52279E+05-1.31698E+03-7.30283E+03 1.20806E+04-3.09228E-09 1.83815E-09
 -1       972-2.54053E+05-9.46484E+02-3.97717E+03 1.68582E+04-7.17364E-10 4.95220E-10
 -1       973-2.53091E+05-1.20584E+01-1.78087E+03 1.19805E+04-2.93903E-09-1.76669E-09
 -1       974-2.53212E+05-1.35354E+01-9.22694E+02 1.69667E+04-1.95996E-09-3.29362E-09
 -1       975-2.53153E+05 2.18812E+01-4.60302E+02 1.19714E+04-3.72165E-09 2.55091E-09
 -1       976-2.53162E+05 2.44841E+01-2.64026E+02 1.69777E+04-2.12924E-09-8.76707E-09
 -1       977-2.53165E+05 2.15381E+01-1.88804E+02 1.19694E+04 7.65476E-09 1.85821E-09
 -1       978-2.53165E+05 2.86262E+01-2.17138E+02 1.69806E+04 1.14291E-08 5.61602E-09
 -1       979-2.53165E+05 2.73410E+01-3.45565E+02 1.19685E+04 9.10768E-09 1.65926E-09
 -1       980-2.53190E+05 3.07211E+01-6.65170E+02 1.69811E+04 1.39060E-08-2.53203E-09
 -1       981-2.53144E+05 4.39320E+01-1.28716E+03 1.19689E+04 3.81215E-09 2.64652E-09
 -1       982-2.53367E+05-6.41953E+01-2.65991E+03 1.69761E+04-1.37334E-09-4.14374E-09
 -1       983-2.52982E+05-3.81979E+01-5.16783E+03 1.19737E+04 3.37013E-09-1.62436E-09
 -1       984-2.55853E+05-2.76266E+03-1.15726E+04 1.69080E+04-8.58563E-10 2.81045E-09
 -1       985-2.50643E+05-3.81945E+03-2.12510E+04 1.20407E+04 1.88720E-09-2.87309E-09
 -3
    1PSTEP                        15           8           1          
  100CL  108 5.06836E-01         409                     0    8           1
 -4  DISP        4    1
 -5  D1          1    2    1    0
 -5  D2          1    2    2    0
 -5  D3          1    2    3    0
 -5  ALL         1    2    0    0    1ALL
 -1         1 5.03381E-04 0.00000E+00 0.00000E+00
 -1         2 4.80495E-04-3.19137E-30 0.00000E+00
 -1         3 1.59655E-04 7.02825E-28-1.32349E-23
 -1         5 1.02134E-04-7.13667E-27-3.30872E-24
 -1         8 4.80271E-04-7.68328E-07 0.00000E+00
 -1         9 4.72553E-04-1.44670E-06 0.00000E+00
 -1        10 1.46576E-04-2.12783E-06 0.00000E+00
 -1        12 1.01956E-04 5.56794E-07 0.00000E+00
 -1        15 4.52658E-04-8.51117E-07 2.06795E-25
 -1        16 4.58263E-04-1.84789E-06 0.00000E+00
 -1        17 1.05186E-04-4.54199E-06 0.00000E+00
 -1        18 1.00317E-04 5.42390E-06 0.00000E+00
 -1        19 1.01424E-04 1.11072E-06 0.00000E+00
 -1        20 1.01560E-04 1.14724E-05 0.00000E+00
 -1        21 1.00993E-04 2.05410E-05 3.30872E-24
 -1        24 2.10662E-05-6.18488E-06 0.00000E+00
 -1        25 1.00653E-04 5.55550E-06 0.00000E+00
 -1        26 1.01444E-04 1.54121E-06 0.00000E+00
 -1        27 9.99063E-05 8.95914E-06 0.00000E+00
 -1        28 9.94794E-05 2.00693E-05 0.00000E+00
 -1        32 0.00000E+00 0.00000E+00 0.00000E+00
 -1        33 1.00345E-04 2.06502E-06 0.00000E+00
 -1        34 9.88339E-05 8.93508E-06 0.00000E+00
 -1        35 9.74128E-05 1.98181E-05 0.00000E+00
 -1        51 5.01883E-04-1.28926E-07 0.00000E+00
 -1        52 4.99102E-04-2.51651E-07 0.00000E+00
 -1        53 4.95290E-04-3.75142E-07 0.00000E+00
 -1        54 4.90706E-04-5.00998E-07-3.30872E-24
 -1        55 4.85612E-04-6.30130E-07 4.13590E-24
 -1        56 5.01762E-04-7.33027E-07-2.64698E-23
 -1        57 5.00155E-04-1.68151E-06 0.00000E+00
 -1        58 4.98598E-04-2.75101E-06-5.29396E-23
 -1        59 4.97048E-04-3.87072E-06-2.64698E-23
 -1        60 4.95485E-04-4.95716E-06 5.29396E-23
 -1        61 4.93878E-04-5.93249E-06 2.64698E-23
 -1        62 4.92204E-04-6.72710E-06 0.00000E+00
 -1        63 4.90438E-04-7.27931E-06 0.00000E+00
 -1        64 4.88565E-04-7.54700E-06-5.29396E-23
 -1        65 4.86574E-04-7.49948E-06 0.00000E+00
 -1        66 4.84463E-04-7.13188E-06 5.29396E-23
 -1        67 4.82237E-04-6.45170E-06 2.64698E-23
 -1        68 4.79905E-04-5.49283E-06 0.00000E+00
 -1        69 4.77494E-04-4.29664E-06 2.64698E-23
 -1        70 4.75017E-04-2.93129E-06 0.00000E+00
 -1        86 4.80231E-04-2.37503E-07 0.00000E+00
 -1        87 4.79440E-04-4.75563E-07 0.00000E+00
 -1        88 4.78189E-04-7.14114E-07 6.61744E-24
 -1        89 4.76546E-04-9.55048E-07 3.30872E-24
 -1        90 4.74627E-04-1.19582E-06 0.00000E+00
 -1       121 1.59289E-04-3.51555E-07-1.32349E-23
 -1       122 1.58192E-04-7.03630E-07-6.61744E-24
 -1       123 1.56367E-04-1.05674E-06 0.00000E+00
 -1       124 1.53819E-04-1.41144E-06 6.61744E-24
 -1       125 1.50552E-04-1.76812E-06 1.32349E-23
 -1       191 1.02129E-04 9.28028E-08 3.30872E-24
 -1       192 1.02114E-04 1.85604E-07 1.65436E-24
 -1       193 1.02089E-04 2.78406E-07 0.00000E+00
 -1       194 1.02055E-04 3.71206E-07 0.00000E+00
 -1       195 1.02011E-04 4.64003E-07 6.61744E-24
 -1       251 4.79792E-04 4.18495E-06 0.00000E+00
 -1       252 4.79302E-04 9.78579E-06 0.00000E+00
 -1       253 4.78813E-04 1.53353E-05 1.32349E-23
 -1       254 4.78327E-04 2.01353E-05 0.00000E+00
 -1       255 4.77845E-04 2.36600E-05 0.00000E+00
 -1       256 4.77368E-04 2.54086E-05 0.00000E+00
 -1       257 4.76892E-04 2.52884E-05 0.00000E+00
 -1       258 4.76414E-04 2.32431E-05 0.00000E+00
 -1       259 4.75932E-04 1.96588E-05 0.00000E+00
 -1       260 4.75445E-04 1.49516E-05-6.61744E-24
 -1       261 4.74957E-04 9.79572E-06-1.32349E-23
 -1       262 4.74469E-04 4.87410E-06 0.00000E+00
 -1       263 4.73985E-04 8.15828E-07-1.32349E-23
 -1       264 4.73506E-04-1.76677E-06 0.00000E+00
 -1       265 4.73030E-04-2.60064E-06 1.32349E-23
 -1       266 4.75669E-04-7.93011E-07 3.30872E-24
 -1       267 4.71067E-04-8.05482E-07 0.00000E+00
 -1       268 4.66465E-04-8.18727E-07 0.00000E+00
 -1       269 4.61863E-04-8.29681E-07 4.13590E-25
 -1       270 4.57261E-04-8.40581E-07 0.00000E+00
 -1       271 4.77521E-04 2.92890E-06 0.00000E+00
 -1       272 4.75062E-04 5.73849E-06 0.00000E+00
 -1       273 4.72917E-04 7.72253E-06 0.00000E+00
 -1       274 4.71055E-04 8.93824E-06 0.00000E+00
 -1       275 4.69454E-04 9.46017E-06 0.00000E+00
 -1       276 4.68081E-04 9.37136E-06 1.32349E-23
 -1       277 4.66902E-04 8.76538E-06 0.00000E+00
 -1       278 4.65878E-04 7.74354E-06 0.00000E+00
 -1       279 4.64969E-04 6.41403E-06-2.64698E-23
 -1       280 4.64134E-04 4.88983E-06 0.00000E+00
 -1       281 4.63328E-04 3.28702E-06 2.64698E-23
 -1       282 4.62508E-04 1.72303E-06 0.00000E+00
 -1       283 4.61630E-04 3.14450E-07 0.00000E+00
 -1       284 4.60655E-04-8.23163E-07-1.32349E-23
 -1       285 4.59538E-04-1.58168E-06 0.00000E+00
 -1       301 4.69903E-04-1.52431E-06-6.61744E-24
 -1       302 4.67015E-04-1.58426E-06-3.30872E-24
 -1       303 4.64147E-04-1.64329E-06-6.61744E-24
 -1       304 4.61560E-04-1.70255E-06-1.32349E-23
 -1       305 4.59513E-04-1.76273E-06 0.00000E+00
 -1       306 4.87273E-04-5.20197E-05 5.29396E-23
 -1       307 5.29479E-04-2.04213E-04 2.64698E-23
 -1       308 5.86156E-04-4.32411E-04 0.00000E+00
 -1       309 6.48405E-04-7.04058E-04 0.00000E+00
 -1       310 7.10485E-04-9.74302E-04 0.00000E+00
 -1       311 7.66524E-04-1.19840E-03-2.64698E-23
 -1       312 8.07354E-04-1.34461E-03 0.00000E+00
 -1       313 8.19800E-04-1.38834E-03 0.00000E+00
 -1       314 7.92645E-04-1.32922E-03 5.29396E-23
 -1       315 7.18056E-04-1.17550E-03 2.64698E-23
 -1       316 6.03075E-04-9.54602E-04-5.29396E-23
 -1       317 4.62471E-04-6.96496E-04 2.64698E-23
 -1       318 3.21868E-04-4.38389E-04 5.29396E-23
 -1       319 2.06895E-04-2.17483E-04-2.64698E-23
 -1       320 1.32320E-04-6.37244E-05 1.05879E-22
 -1       336 1.41805E-04-2.51864E-06 0.00000E+00
 -1       337 1.36159E-04-2.91428E-06 0.00000E+00
 -1       338 1.29653E-04-3.31476E-06 0.00000E+00
 -1       339 1.22307E-04-3.71988E-06 3.30872E-24
 -1       340 1.14143E-04-4.13116E-06-6.61744E-24
 -1       406 1.01892E-04 6.49573E-07 0.00000E+00
 -1       407 1.01818E-04 7.42323E-07 0.00000E+00
 -1       408 1.01734E-04 8.35016E-07 0.00000E+00
 -1       409 1.01641E-04 9.27541E-07 1.65436E-24
 -1       410 1.01537E-04 1.01972E-06-3.30872E-24
 -1       521 4.73542E-04-5.84112E-05 0.00000E+00
 -1       522 5.17066E-04-2.22883E-04 0.00000E+00
 -1       523 5.75022E-04-4.68478E-04 0.00000E+00
 -1       524 6.38051E-04-7.59294E-04-5.29396E-23
 -1       525 7.00867E-04-1.04807E-03 0.00000E+00
 -1       526 7.57981E-04-1.28775E-03 0.00000E+00
 -1       527 7.99602E-04-1.44357E-03 0.00000E+00
 -1       528 8.11597E-04-1.49024E-03-5.29396E-23
 -1       529 7.80850E-04-1.42636E-03 1.05879E-22
 -1       530 6.98845E-04-1.26227E-03 0.00000E+00
 -1       531 5.72484E-04-1.02652E-03 1.05879E-22
 -1       532 4.18196E-04-7.51688E-04 5.29396E-23
 -1       533 2.63560E-04-4.76378E-04-1.05879E-22
 -1       534 1.36245E-04-2.39196E-04 0.00000E+00
 -1       535 5.29905E-05-7.28566E-05 0.00000E+00
 -1       536 1.04967E-04 8.69608E-06-6.61744E-24
 -1       537 1.04624E-04 2.96762E-05 1.65436E-24
 -1       538 1.04181E-04 5.52634E-05-3.30872E-24
 -1       539 1.03702E-04 8.22979E-05-1.65436E-24
 -1       540 1.03273E-04 1.07237E-04 3.30872E-24
 -1       541 1.02965E-04 1.26550E-04-1.65436E-24
 -1       542 1.02768E-04 1.38172E-04 0.00000E+00
 -1       543 1.02634E-04 1.40083E-04 0.00000E+00
 -1       544 1.02477E-04 1.32748E-04 3.30872E-24
 -1       545 1.02222E-04 1.16689E-04-1.65436E-24
 -1       546 1.01861E-04 9.46712E-05-3.30872E-24
 -1       547 1.01428E-04 6.94945E-05-1.65436E-24
 -1       548 1.01007E-04 4.47870E-05 3.30872E-24
 -1       549 1.00676E-04 2.41745E-05 1.65436E-24
 -1       550 1.00452E-04 1.02142E-05-1.65436E-24
 -1       551 9.39809E-05-4.77787E-06 6.61744E-24
 -1       552 8.08780E-05-5.03254E-06 3.30872E-24
 -1       553 6.64516E-05-5.30396E-06-4.13590E-24
 -1       554 5.12854E-05-5.58779E-06-6.61744E-24
 -1       555 3.59634E-05-5.87638E-06 0.00000E+00
 -1       556 1.02048E-04 3.58390E-06 2.64698E-23
 -1       557 9.95967E-05 9.94146E-06 1.32349E-23
 -1       558 9.77625E-05 1.46851E-05-2.64698E-23
 -1       559 9.64791E-05 1.79812E-05 0.00000E+00
 -1       560 9.56807E-05 1.99960E-05 0.00000E+00
 -1       561 9.53026E-05 2.08967E-05 0.00000E+00
 -1       562 9.52803E-05 2.08507E-05 0.00000E+00
 -1       563 9.55502E-05 2.00258E-05 0.00000E+00
 -1       564 9.60486E-05 1.85901E-05 0.00000E+00
 -1       565 9.67125E-05 1.67114E-05 0.00000E+00
 -1       566 9.74790E-05 1.45581E-05 0.00000E+00
 -1       567 9.82851E-05 1.22984E-05-1.03398E-25
 -1       568 9.90682E-05 1.01005E-05 0.00000E+00
 -1       569 9.97655E-05 8.13254E-06 0.00000E+00
 -1       570 1.00314E-04 6.56264E-06 0.00000E+00
 -1       571 1.00384E-04 5.16512E-06-4.13590E-25
 -1       572 1.00453E-04 4.86372E-06-8.27181E-25
 -1       573 1.00522E-04 4.52814E-06 0.00000E+00
 -1       574 1.00591E-04 4.16724E-06 0.00000E+00
 -1       575 1.00660E-04 3.78990E-06 0.00000E+00
 -1       576 1.00730E-04 3.40505E-06 0.00000E+00
 -1       577 1.00799E-04 3.02165E-06 0.00000E+00
 -1       578 1.00869E-04 2.64865E-06 0.00000E+00
 -1       579 1.00938E-04 2.29500E-06 0.00000E+00
 -1       580 1.01007E-04 1.96964E-06-1.65436E-24
 -1       581 1.01077E-04 1.68154E-06-3.30872E-24
 -1       582 1.01146E-04 1.43963E-06 0.00000E+00
 -1       583 1.01216E-04 1.25285E-06 0.00000E+00
 -1       584 1.01285E-04 1.13004E-06 0.00000E+00
 -1       585 1.01355E-04 1.07997E-06 3.30872E-24
 -1       586 1.00331E-04 5.44728E-06 0.00000E+00
 -1       587 1.00321E-04 5.47009E-06-4.13590E-25
 -1       588 1.00318E-04 5.49265E-06 0.00000E+00
 -1       589 1.00352E-04 5.51481E-06 0.00000E+00
 -1       590 1.00453E-04 5.53629E-06 0.00000E+00
 -1       591 1.00380E-04 5.20681E-06 1.80946E-25
 -1       592 1.00452E-04 4.96101E-06 0.00000E+00
 -1       593 1.00532E-04 4.69248E-06-4.13590E-25
 -1       594 1.00618E-04 4.40647E-06 0.00000E+00
 -1       595 1.00709E-04 4.10834E-06-4.13590E-25
 -1       596 1.00802E-04 3.80336E-06 0.00000E+00
 -1       597 1.00896E-04 3.49683E-06 4.13590E-25
 -1       598 1.00988E-04 3.19404E-06 0.00000E+00
 -1       599 1.01077E-04 2.90026E-06 0.00000E+00
 -1       600 1.01161E-04 2.62078E-06 0.00000E+00
 -1       601 1.01237E-04 2.36089E-06 4.13590E-25
 -1       602 1.01304E-04 2.12587E-06-2.06795E-25
 -1       603 1.01360E-04 1.92101E-06 2.06795E-25
 -1       604 1.01403E-04 1.75166E-06 5.16988E-26
 -1       605 1.01431E-04 1.62306E-06 4.13590E-25
 -1       606 1.01436E-04 1.29643E-06 0.00000E+00
 -1       607 1.01445E-04 1.57086E-06 0.00000E+00
 -1       608 1.01454E-04 1.92880E-06 0.00000E+00
 -1       609 1.01463E-04 2.36437E-06 0.00000E+00
 -1       610 1.01471E-04 2.87168E-06 3.30872E-24
 -1       611 1.01479E-04 3.44473E-06 0.00000E+00
 -1       612 1.01488E-04 4.07753E-06 0.00000E+00
 -1       613 1.01496E-04 4.76411E-06 0.00000E+00
 -1       614 1.01504E-04 5.49844E-06 0.00000E+00
 -1       615 1.01512E-04 6.27454E-06 8.27181E-25
 -1       616 1.01520E-04 7.08641E-06 0.00000E+00
 -1       617 1.01528E-04 7.92806E-06 0.00000E+00
 -1       618 1.01536E-04 8.79348E-06 0.00000E+00
 -1       619 1.01544E-04 9.67668E-06-8.27181E-25
 -1       620 1.01552E-04 1.05717E-05 0.00000E+00
 -1       621 1.01343E-04 1.18259E-06 0.00000E+00
 -1       622 1.01308E-04 1.25474E-06 0.00000E+00
 -1       623 1.01310E-04 1.32687E-06 1.65436E-24
 -1       624 1.01340E-04 1.39888E-06 0.00000E+00
 -1       625 1.01388E-04 1.47075E-06 0.00000E+00
 -1       626 1.01434E-04 1.32068E-06 0.00000E+00
 -1       627 1.01417E-04 1.60287E-06 0.00000E+00
 -1       628 1.01376E-04 1.95021E-06 3.30872E-24
 -1       629 1.01314E-04 2.35517E-06-1.65436E-24
 -1       630 1.01232E-04 2.81026E-06 0.00000E+00
 -1       631 1.01135E-04 3.30788E-06 1.65436E-24
 -1       632 1.01025E-04 3.84048E-06 0.00000E+00
 -1       633 1.00904E-04 4.40049E-06 0.00000E+00
 -1       634 1.00776E-04 4.98034E-06-3.30872E-24
 -1       635 1.00644E-04 5.57246E-06 3.30872E-24
 -1       636 1.00509E-04 6.16930E-06 1.65436E-24
 -1       637 1.00376E-04 6.76329E-06 0.00000E+00
 -1       638 1.00246E-04 7.34684E-06 1.65436E-24
 -1       639 1.00123E-04 7.91241E-06 0.00000E+00
 -1       640 1.00009E-04 8.45240E-06-1.65436E-24
 -1       656 1.00859E-04 1.10635E-05 0.00000E+00
 -1       657 1.00508E-04 1.06383E-05-3.30872E-24
 -1       658 1.00378E-04 1.02143E-05 1.32349E-23
 -1       659 1.00335E-04 9.79069E-06 3.30872E-24
 -1       660 1.00228E-04 9.36575E-06 0.00000E+00
 -1       661 1.01301E-04 1.23456E-05 8.27181E-25
 -1       662 1.01066E-04 1.31620E-05 8.27181E-25
 -1       663 1.00852E-04 1.39238E-05 1.65436E-24
 -1       664 1.00658E-04 1.46342E-05 0.00000E+00
 -1       665 1.00482E-04 1.52958E-05 1.65436E-24
 -1       666 1.00323E-04 1.59114E-05 0.00000E+00
 -1       667 1.00181E-04 1.64836E-05 0.00000E+00
 -1       668 1.00054E-04 1.70150E-05 0.00000E+00
 -1       669 9.99413E-05 1.75080E-05 0.00000E+00
 -1       670 9.98422E-05 1.79649E-05 8.27181E-25
 -1       671 9.97558E-05 1.83880E-05-1.65436E-24
 -1       672 9.96812E-05 1.87796E-05 0.00000E+00
 -1       673 9.96175E-05 1.91416E-05-1.65436E-24
 -1       674 9.95634E-05 1.94761E-05-8.27181E-25
 -1       675 9.95191E-05 1.97852E-05-4.13590E-25
 -1       676 1.00740E-04 2.04619E-05 0.00000E+00
 -1       677 1.00487E-04 2.03829E-05 8.27181E-25
 -1       678 1.00235E-04 2.03039E-05 0.00000E+00
 -1       679 9.99824E-05 2.02251E-05 0.00000E+00
 -1       680 9.97306E-05 2.01463E-05-1.65436E-24
 -1       771 1.53013E-05 5.91792E-06 0.00000E+00
 -1       772 1.03719E-05 1.58325E-05 0.00000E+00
 -1       773 6.23984E-06 2.36754E-05 0.00000E+00
 -1       774 2.85165E-06 2.95737E-05-2.64698E-23
 -1       775 1.54632E-07 3.36574E-05 0.00000E+00
 -1       776-1.90602E-06 3.60624E-05 0.00000E+00
 -1       777-3.38554E-06 3.69276E-05 0.00000E+00
 -1       778-4.34032E-06 3.63965E-05 0.00000E+00
 -1       779-4.82701E-06 3.46152E-05 0.00000E+00
 -1       780-4.90320E-06 3.17335E-05 2.64698E-23
 -1       781-4.62654E-06 2.79035E-05-2.64698E-23
 -1       782-4.05546E-06 2.32799E-05 1.32349E-23
 -1       783-3.24836E-06 1.80190E-05 0.00000E+00
 -1       784-2.26418E-06 1.22792E-05 0.00000E+00
 -1       785-1.16177E-06 6.21944E-06 0.00000E+00
 -1       786 1.00699E-04 5.15846E-06 0.00000E+00
 -1       787 1.00748E-04 4.79008E-06 4.13590E-25
 -1       788 1.00797E-04 4.44564E-06 0.00000E+00
 -1       789 1.00847E-04 4.12049E-06-8.27181E-25
 -1       790 1.00896E-04 3.81220E-06-1.65436E-24
 -1       791 1.00946E-04 3.51833E-06 0.00000E+00
 -1       792 1.00996E-04 3.23813E-06-1.65436E-24
 -1       793 1.01046E-04 2.97087E-06-8.27181E-25
 -1       794 1.01096E-04 2.71727E-06-1.65436E-24
 -1       795 1.01145E-04 2.47811E-06 8.27181E-25
 -1       796 1.01195E-04 2.25582E-06 0.00000E+00
 -1       797 1.01245E-04 2.05284E-06 0.00000E+00
 -1       798 1.01295E-04 1.87386E-06-1.65436E-24
 -1       799 1.01345E-04 1.72358E-06-8.27181E-25
 -1       800 1.01395E-04 1.61001E-06 0.00000E+00
 -1       801 9.34995E-05 4.80988E-06-1.32349E-23
 -1       802 7.12040E-05 3.82168E-06 0.00000E+00
 -1       803 4.28325E-05 2.69692E-06-2.64698E-23
 -1       804 1.76596E-05 1.64678E-06 0.00000E+00
 -1       805 1.53232E-06 7.67742E-07 0.00000E+00
 -1       806 1.00721E-04 5.11224E-06 0.00000E+00
 -1       807 1.00781E-04 4.68480E-06 8.27181E-25
 -1       808 1.00833E-04 4.27692E-06 1.65436E-24
 -1       809 1.00876E-04 3.89154E-06-8.27181E-25
 -1       810 1.00909E-04 3.53161E-06-3.30872E-24
 -1       811 1.00932E-04 3.19997E-06 8.27181E-25
 -1       812 1.00943E-04 2.89949E-06 1.65436E-24
 -1       813 1.00942E-04 2.63300E-06-8.27181E-25
 -1       814 1.00926E-04 2.40336E-06 1.65436E-24
 -1       815 1.00896E-04 2.21338E-06-8.27181E-25
 -1       816 1.00850E-04 2.06592E-06 1.65436E-24
 -1       817 1.00786E-04 1.96379E-06 0.00000E+00
 -1       818 1.00705E-04 1.90983E-06-1.65436E-24
 -1       819 1.00605E-04 1.90686E-06-1.65436E-24
 -1       820 1.00485E-04 1.95767E-06-1.65436E-24
 -1       821 1.01353E-04 1.47708E-06 0.00000E+00
 -1       822 1.01257E-04 1.37848E-06 8.27181E-25
 -1       823 1.01161E-04 1.29955E-06 0.00000E+00
 -1       824 1.01065E-04 1.29433E-06 0.00000E+00
 -1       825 1.00968E-04 1.40210E-06-3.30872E-24
 -1       826 1.00871E-04 1.66162E-06-1.65436E-24
 -1       827 1.00773E-04 2.08131E-06-3.30872E-24
 -1       828 1.00676E-04 2.66887E-06 0.00000E+00
 -1       829 1.00579E-04 3.39840E-06 0.00000E+00
 -1       830 1.00481E-04 4.24338E-06 1.65436E-24
 -1       831 1.00384E-04 5.15420E-06 3.30872E-24
 -1       832 1.00286E-04 6.08094E-06 1.65436E-24
 -1       833 1.00189E-04 6.97048E-06 0.00000E+00
 -1       834 1.00093E-04 7.76991E-06 0.00000E+00
 -1       835 9.99968E-05 8.44427E-06 0.00000E+00
 -1       836 1.01409E-04 1.62840E-06 1.65436E-24
 -1       837 1.01270E-04 1.71755E-06 0.00000E+00
 -1       838 1.01061E-04 1.80654E-06 1.65436E-24
 -1       839 1.00815E-04 1.89496E-06 8.27181E-25
 -1       840 1.00565E-04 1.98324E-06 0.00000E+00
 -1       856 9.98829E-05 9.44992E-06 0.00000E+00
 -1       857 9.98566E-05 1.00451E-05 1.03398E-25
 -1       858 9.98304E-05 1.07282E-05-4.13590E-25
 -1       859 9.98036E-05 1.14828E-05 0.00000E+00
 -1       860 9.97767E-05 1.22923E-05 0.00000E+00
 -1       861 9.97497E-05 1.31402E-05-4.13590E-25
 -1       862 9.97227E-05 1.40098E-05 8.27181E-25
 -1       863 9.96956E-05 1.48844E-05 0.00000E+00
 -1       864 9.96685E-05 1.57474E-05 8.27181E-25
 -1       865 9.96415E-05 1.65821E-05 0.00000E+00
 -1       866 9.96145E-05 1.73719E-05 0.00000E+00
 -1       867 9.95875E-05 1.81002E-05 0.00000E+00
 -1       868 9.95606E-05 1.87505E-05 0.00000E+00
 -1       869 9.95336E-05 1.93063E-05 0.00000E+00
 -1       870 9.95067E-05 1.97513E-05 8.27181E-25
 -1       871 9.96189E-05 8.95808E-06 4.13590E-25
 -1       872 9.94359E-05 8.95484E-06 0.00000E+00
 -1       873 9.93119E-05 8.95120E-06 0.00000E+00
 -1       874 9.92009E-05 8.94704E-06-1.03398E-25
 -1       875 9.90568E-05 8.94241E-06 0.00000E+00
 -1       876 9.98156E-05 9.45934E-06 0.00000E+00
 -1       877 9.97080E-05 1.00103E-05 0.00000E+00
 -1       878 9.95838E-05 1.06059E-05 3.30872E-24
 -1       879 9.94452E-05 1.12405E-05 1.65436E-24
 -1       880 9.92942E-05 1.19082E-05 0.00000E+00
 -1       881 9.91330E-05 1.26035E-05 0.00000E+00
 -1       882 9.89635E-05 1.33206E-05 0.00000E+00
 -1       883 9.87879E-05 1.40539E-05 1.65436E-24
 -1       884 9.86084E-05 1.47976E-05-3.30872E-24
 -1       885 9.84271E-05 1.55462E-05 0.00000E+00
 -1       886 9.82461E-05 1.62939E-05 3.30872E-24
 -1       887 9.80675E-05 1.70350E-05 1.65436E-24
 -1       888 9.78933E-05 1.77639E-05 0.00000E+00
 -1       889 9.77253E-05 1.84747E-05 8.27181E-25
 -1       890 9.75658E-05 1.91618E-05-8.27181E-25
 -1       891 9.92478E-05 2.00273E-05 8.27181E-25
 -1       892 9.89983E-05 1.99851E-05 4.13590E-25
 -1       893 9.87105E-05 1.99429E-05-8.27181E-25
 -1       894 9.83638E-05 1.99009E-05 2.06795E-25
 -1       895 9.79380E-05 1.98589E-05-8.27181E-25
 -1       956 1.00252E-04 2.28899E-06 0.00000E+00
 -1       957 1.00158E-04 2.57207E-06 8.27181E-25
 -1       958 1.00063E-04 2.90779E-06 1.65436E-24
 -1       959 9.99687E-05 3.28931E-06 1.65436E-24
 -1       960 9.98740E-05 3.70979E-06-1.65436E-24
 -1       961 9.97792E-05 4.16234E-06-1.65436E-24
 -1       962 9.96844E-05 4.64006E-06 0.00000E+00
 -1       963 9.95896E-05 5.13607E-06 0.00000E+00
 -1       964 9.94947E-05 5.64346E-06 0.00000E+00
 -1       965 9.93999E-05 6.15533E-06 0.00000E+00
 -1       966 9.93051E-05 6.66480E-06-3.30872E-24
 -1       967 9.92104E-05 7.16496E-06-1.65436E-24
 -1       968 9.91156E-05 7.64891E-06 3.30872E-24
 -1       969 9.90211E-05 8.10978E-06 0.00000E+00
 -1       970 9.89268E-05 8.54071E-06 3.30872E-24
 -1       971 9.87462E-05 9.34534E-06 0.00000E+00
 -1       972 9.86573E-05 9.83260E-06-8.27181E-25
 -1       973 9.85682E-05 1.03883E-05 0.00000E+00
 -1       974 9.84790E-05 1.10038E-05-1.65436E-24
 -1       975 9.83897E-05 1.16700E-05-1.65436E-24
 -1       976 9.83003E-05 1.23782E-05 0.00000E+00
 -1       977 9.82110E-05 1.31196E-05 0.00000E+00
 -1       978 9.81216E-05 1.38852E-05 1.65436E-24
 -1       979 9.80322E-05 1.46661E-05 0.00000E+00
 -1       980 9.79428E-05 1.54536E-05 0.00000E+00
 -1       981 9.78534E-05 1.62386E-05 3.30872E-24
 -1       982 9.77641E-05 1.70125E-05 1.65436E-24
 -1       983 9.76750E-05 1.77662E-05-6.61744E-24
 -1       984 9.75862E-05 1.84909E-05 0.00000E+00
 -1       985 9.74978E-05 1.91778E-05 1.65436E-24
 -3
    1PSTEP                        16           8           1          
  100CL  108 5.06836E-01         409                     0    8           1
 -4  STRESS      6    1
 -5  SXX         1    4    1    1
 -5  SYY         1    4    2    2
 -5  SZZ         1    4    3    3
 -5  SXY         1    4    1    2
 -5  SYZ         1    4    2    3
 -5  SZX         1    4    3    1
 -1         1-2.22538E+06-9.32128E+05-4.72815E+05-1.17593E+06 2.83762E-10 2.49420E-08
 -1         2 1.45195E+03-6.77079E+05 4.72401E+03-1.52959E+03 1.48930E-11 2.49560E-08
 -1         3-2.36247E+02-1.00330E+06 2.28048E+02-5.80849E+02-1.84215E-10-1.53159E-08
 -1         5-1.39646E+00 2.65528E+05 6.81369E+00 5.33480E-02 3.11607E-11 9.58153E-10
 -1         8-1.05817E+06-3.71630E+05-1.13416E+05-4.94627E+05 4.45652E-10-8.38918E-09
 -1         9 8.35797E+04-5.49228E+05 9.74292E+04-5.75365E+05 1.63564E-08 3.20259E-08
 -1        10-9.42686E+02-1.04528E+06-1.88453E+03-3.93069E+03-5.23050E-09-1.18749E-08
 -1        12 1.39971E+00 2.65542E+05 2.20605E+02 4.43290E-01 1.33614E-10 2.65788E-09
 -1        15 1.80347E+03 9.91110E+02 5.82969E+03 3.58915E+00-1.74254E-10 7.76831E-08
 -1        16 8.68473E+05-9.69977E+05 9.86050E+04-1.21049E+06 1.61720E-08 3.60111E-08
 -1        17 3.74121E+05 3.03739E+05 1.71200E+05 3.86619E+05-5.18339E-09 7.48551E-09
 -1        18-3.91013E+04-1.40668E+04-3.03838E+04-7.04756E+04 5.47084E-09-5.21550E-09
 -1        19 8.47535E+04 9.86270E+04-6.30727E+02 1.66302E+04-3.05954E-10 1.45374E-09
 -1        20-4.11157E+04-4.00962E+05-8.88437E+04 2.65596E+04 2.41607E-09 6.07361E-09
 -1        21-3.66727E+01-2.26304E+05-7.24913E+02-3.92632E+01-6.65709E-09-6.15263E-09
 -1        24-5.88722E+05 7.60047E+05 2.07553E+05 5.53547E+05-6.63858E-08-2.75322E-08
 -1        25-7.14485E+04-4.34468E+05-8.48648E+04-1.13457E+05 1.63800E-10 5.33601E-09
 -1        26-2.75234E+04 6.52566E+04-1.52921E+04-6.05599E+03 1.43664E-09 6.09647E-09
 -1        27-6.05955E+04-2.18846E+05-8.16424E+04 4.94138E+04 5.60446E-09-1.92843E-09
 -1        28 1.74336E+04-6.31802E+04 1.28241E+04 1.89648E+04 1.23691E-09-4.30611E-09
 -1        32-1.06710E+06-1.20322E+06 1.17076E+05-5.32637E+05-2.42653E-08 2.15090E-09
 -1        33-1.27309E+05 6.34794E+04 2.26409E+04-3.27001E+04 3.47237E-10-3.76531E-09
 -1        34-1.62023E+05-1.64019E+04 4.13644E+02 5.08689E+04 2.15599E-09-5.41301E-09
 -1        35-1.77555E+04-2.51034E+04-9.87536E+02 3.94230E+04 3.17549E-09 2.90008E-09
 -1        51 2.14126E+04-3.14898E+05 5.11377E+04-8.77794E+05-2.91038E-11 3.55794E-08
 -1        52 1.07142E+04-3.10517E+05 3.13952E+04-1.02370E+06 4.51109E-10-8.81846E-09
 -1        53 6.32607E+03-3.23555E+05 2.36249E+04-8.74709E+05 5.74801E-10-1.66765E-08
 -1        54 1.76131E+04-3.21720E+05 3.40680E+04-1.02691E+06-4.43833E-10 9.33142E-09
 -1        55 3.54002E+04-3.34146E+05 5.85464E+04-8.74223E+05 8.29459E-10-7.22503E-09
 -1        56-4.24758E+06-4.75779E+05-3.48381E+05-1.64282E+06-2.56114E-09 2.75177E-08
 -1        57-4.40579E+06-7.73579E+05-2.34974E+05-1.60876E+06 4.87216E-09-1.56942E-08
 -1        58-4.31649E+06-5.87470E+05-8.19348E+04-1.62218E+06-1.48793E-09 1.46028E-08
 -1        59-4.32634E+06-6.42163E+05-4.89202E+04-1.63286E+06 2.98633E-09-1.67329E-08
 -1        60-4.32610E+06-6.03503E+05-1.91177E+04-1.61992E+06-7.04858E-10-2.36405E-08
 -1        61-4.31650E+06-6.22065E+05-1.08539E+04-1.63392E+06-3.21427E-09-2.90329E-08
 -1        62-4.32613E+06-6.07098E+05-5.19120E+03-1.62124E+06 3.25667E-09 3.12245E-08
 -1        63-4.31860E+06-6.16158E+05-4.22321E+03-1.63005E+06-6.84418E-09-6.26778E-09
 -1        64-4.32394E+06-6.09374E+05-4.75012E+03-1.62378E+06-3.12468E-09-2.44186E-08
 -1        65-4.32456E+06-6.13277E+05-9.51910E+03-1.62432E+06-3.18732E-09-7.80062E-09
 -1        66-4.32018E+06-6.10031E+05-1.66310E+04-1.62694E+06 3.64139E-10-8.00901E-09
 -1        67-4.33927E+06-6.24484E+05-4.24021E+04-1.61632E+06-8.23479E-09 9.24410E-09
 -1        68-4.30941E+06-5.98577E+05-7.10112E+04-1.63168E+06 3.17596E-09-1.82117E-08
 -1        69-4.41118E+06-7.35328E+05-2.03585E+05-1.59206E+06 7.54881E-11-1.40190E-08
 -1        70-4.24914E+06-5.02369E+05-3.01897E+05-1.65019E+06 3.06318E-09-2.29775E-08
 -1        86-7.30172E+02-6.78730E+05 5.03217E+03 7.64800E+02 8.59245E-10-1.47306E-08
 -1        87 4.81621E+03-6.75522E+05 1.05264E+04-2.85892E+03 1.44803E-09-4.05485E-08
 -1        88-4.07910E+03-6.80291E+05 1.61192E+04 2.09415E+03 2.10184E-09 2.56080E-08
 -1        89 3.03810E+04-6.63800E+05 4.34372E+04-4.95727E+03 2.95177E-09 2.51121E-08
 -1        90-2.61993E+04-6.90442E+05 6.14384E+04 2.86333E+03 2.45564E-09 3.63582E-09
 -1       121-3.44769E+02-1.00421E+06 1.00369E+02 2.89768E+02 6.06292E-10-3.90719E-09
 -1       122-1.53890E+02-1.00327E+06 4.84113E+02-1.16077E+03-2.15710E-09-5.07862E-09
 -1       123-3.93617E+02-1.00427E+06 6.58004E+02 8.67090E+02 1.66784E-09 5.66979E-09
 -1       124 7.95367E+02-1.00274E+06 2.00406E+03-2.51097E+03-4.40582E-09-1.65528E-09
 -1       125-9.86095E+02-1.00480E+06 2.90989E+03 1.63755E+03 2.60388E-09-1.05501E-08
 -1       191-1.69390E+00 2.65551E+05 8.32294E+00-2.67698E-02 5.10669E-11-4.24666E-09
 -1       192-2.02076E+00 2.65528E+05 1.44177E+01 2.67811E-01 4.58866E-11-8.08984E-09
 -1       193-3.35458E+00 2.65551E+05 2.69865E+01-2.41812E-01 5.62430E-11 1.83036E-10
 -1       194-4.03021E+00 2.65530E+05 5.45122E+01 6.47269E-01 6.64819E-11-5.70242E-09
 -1       195-6.54633E+00 2.65549E+05 1.06802E+02-4.08100E-01 1.49697E-10 2.34354E-09
 -1       251-1.35156E+06 1.86195E+04-4.39465E+04-1.49932E+04 8.52140E-10-3.30474E-08
 -1       252-1.37020E+06-2.14206E+04-3.08943E+04 2.86989E+04 2.22463E-09-1.43641E-08
 -1       253-1.35892E+06 2.82987E+03-1.14006E+04-1.46696E+04-1.19587E-09 2.61662E-08
 -1       254-1.36018E+06-3.17438E+03-6.76260E+03 2.09884E+04-1.79136E-09-5.22347E-08
 -1       255-1.36142E+06 3.17124E+02-3.20952E+03-7.28182E+03-9.02332E-10 2.67269E-08
 -1       256-1.35704E+06-3.98689E+02-1.01411E+03 2.77275E+03 6.15279E-09 3.98705E-08
 -1       257-1.36190E+06-7.06811E+01-1.10391E+03 3.54614E+03-7.97627E-10 1.24595E-08
 -1       258-1.35784E+06 6.05943E+01 7.00154E+01-1.69651E+04-2.64606E-10 1.01085E-08
 -1       259-1.36071E+06-6.09489E+01-2.81922E+02 1.24555E+04 4.30987E-10 1.27215E-08
 -1       260-1.35981E+06 1.91599E+02 3.07461E+01-2.84691E+04-3.36497E-09-3.75438E-08
 -1       261-1.36012E+06-4.66397E+01 3.25160E+01 1.50512E+04 2.56199E-09 1.13399E-08
 -1       262-1.35926E+06 2.65901E+02 3.21371E+02-2.60684E+04 5.57492E-10-1.40356E-08
 -1       263-1.36121E+06-1.73662E+02 2.10708E+01 1.00544E+04 7.40670E-10-6.35113E-09
 -1       264-1.35688E+06 7.12095E+02 1.28937E+03-1.09456E+04 2.48463E-10 3.88003E-08
 -1       265-1.36229E+06-6.56408E+02 5.35510E+02-7.22852E+01 1.59707E-09 4.28927E-08
 -1       266-3.26480E+04-1.52645E+04 7.66096E+04-7.68037E+01 1.05501E-10-1.38409E-08
 -1       267 3.78488E+04 1.77937E+04 5.41424E+04 8.86074E+01 8.73115E-11-4.48119E-08
 -1       268-5.07542E+03-2.51995E+03 2.01247E+04-1.12906E+01 5.91172E-11-1.87913E-08
 -1       269 5.99262E+03 3.01600E+03 1.30805E+04 1.31513E+01-7.00311E-11-5.02445E-08
 -1       270-8.99500E+02-4.95545E+02 6.31416E+03-1.78475E+00-2.66027E-11 1.34728E-08
 -1       271-3.02965E+06-3.77538E+05-2.28841E+05-1.17791E+06 8.36735E-10 1.49885E-09
 -1       272-3.11566E+06-5.40976E+05-1.47192E+05-1.17172E+06 4.80117E-09-5.48171E-08
 -1       273-3.07332E+06-4.34052E+05-5.40571E+04-1.16700E+06-7.37941E-09 1.41008E-08
 -1       274-3.06391E+06-4.72284E+05-3.02526E+04-1.18871E+06 5.52700E-09 3.57231E-08
 -1       275-3.08048E+06-4.38758E+05-1.25956E+04-1.16384E+06 6.90306E-10 1.51831E-08
 -1       276-3.05473E+06-4.67449E+05-6.65476E+03-1.19419E+06-2.11867E-09 3.40722E-08
 -1       277-3.08270E+06-4.37930E+05-3.26948E+03-1.16202E+06-3.50792E-09 1.56101E-08
 -1       278-3.05183E+06-4.68974E+05-2.30358E+03-1.19728E+06 2.54136E-09 2.31161E-08
 -1       279-3.08366E+06-4.36992E+05-2.42052E+03-1.16097E+06-8.06040E-09 1.41869E-08
 -1       280-3.05118E+06-4.70595E+05-4.37361E+03-1.19864E+06 7.82939E-09 1.70994E-08
 -1       281-3.08350E+06-4.36251E+05-7.92231E+03-1.16075E+06 2.60184E-09 3.07455E-09
 -1       282-3.05505E+06-4.75627E+05-1.90071E+04-1.19765E+06-1.36752E-09 4.30646E-10
 -1       283-3.07986E+06-4.32440E+05-3.37969E+04-1.16178E+06-1.03637E-09 1.91758E-08
 -1       284-3.08614E+06-5.19954E+05-9.21781E+04-1.18850E+06-5.77802E-09-9.45874E-09
 -1       285-3.05300E+06-3.96619E+05-1.43249E+05-1.16810E+06-4.34738E-10-2.34286E-08
 -1       301 1.82480E+04-1.58335E+05 1.28051E+05-3.12528E+05-3.45608E-10 1.82572E-08
 -1       302 2.00664E+04-1.26643E+05 8.63238E+04-4.58106E+05 5.03860E-10 6.32713E-09
 -1       303 1.93684E+03-1.45854E+05 6.97177E+04-3.12118E+05-7.96717E-10 3.19051E-09
 -1       304 2.54654E+04-1.18949E+05 1.06810E+05-4.57443E+05 7.13044E-10-7.98900E-09
 -1       305 2.31910E+04-1.61772E+05 1.73122E+05-3.13272E+05-6.40284E-10 1.51631E-08
 -1       306-9.20453E+06-1.21811E+06-1.61508E+06-1.82066E+06-5.36675E-08 3.71947E-08
 -1       307 1.65252E+06-1.45504E+06 7.87613E+05-3.89214E+06-2.63994E-07-3.68891E-08
 -1       308-6.36584E+06 2.62390E+05-2.10546E+05 2.01275E+05 1.43700E-07 2.77578E-08
 -1       309-2.53940E+06-1.78525E+06 2.03184E+05-6.46521E+06 2.11034E-07-6.74249E-08
 -1       310-6.44809E+06 2.47283E+05-1.57660E+05 1.64028E+05-1.38680E-08 4.53674E-08
 -1       311 1.80665E+06-1.52223E+06 9.97983E+05-3.70826E+06-9.66538E-08 4.33802E-08
 -1       312-9.20458E+06-1.19162E+06-1.17577E+06-1.92672E+06-1.52533E-07-4.74320E-08
 -1       313 3.88290E+06 8.58744E+05 1.74070E+06 1.41390E+06-8.62346E-08 1.54396E-08
 -1       314-7.47623E+06-2.87252E+06-1.16451E+06-3.78878E+06 1.65164E-07-5.80185E-08
 -1       315-3.50804E+06 3.67845E+06 9.77576E+05 2.01904E+06 1.44697E-07-2.64612E-07
 -1       316-3.24537E+06-2.89697E+06-1.46925E+05-3.33316E+06 2.52439E-07-1.58157E-07
 -1       317-8.63525E+06 4.30234E+06 1.93931E+05 3.15019E+05 9.37880E-08-3.44625E-07
 -1       318-3.24985E+06-2.90399E+06-2.39311E+05-3.33055E+06-3.75076E-07-9.22482E-08
 -1       319-3.48103E+06 3.74700E+06 7.63111E+05 1.99851E+06-3.46394E-07-6.09725E-09
 -1       320-7.50048E+06-2.93248E+06-1.69132E+06-3.77159E+06-1.38592E-07-3.58850E-08
 -1       336 5.58457E+02-1.08708E+06-7.01205E+03 2.28227E+03-1.10836E-08-3.56158E-09
 -1       337-2.66601E+03-1.08849E+06-8.73458E+03-5.64563E+03-2.09413E-08-7.90533E-09
 -1       338 6.46167E+02-1.08698E+06-1.24695E+04 3.34269E+03-1.43791E-08-4.04543E-09
 -1       339-1.33806E+04-1.09524E+06-2.82123E+04-7.73375E+03-2.59824E-08 7.70888E-09
 -1       340 9.05975E+03-1.08059E+06-4.39529E+04 4.34503E+03-1.72204E-08 2.13986E-08
 -1       406 1.84218E+01 2.65539E+05 4.35709E+02-3.90517E-02 1.57513E-10 9.67339E-09
 -1       407 1.53228E+02 2.65618E+05 9.25642E+02-2.82841E+00 2.71427E-11-2.98689E-09
 -1       408 4.77996E+02 2.65473E+05 1.84892E+03 2.93045E+00 1.82581E-10 4.46516E-09
 -1       409 2.00017E+03 2.66209E+05 4.16205E+03-2.85312E+01-6.82121E-11-2.78192E-09
 -1       410 5.74433E+03 2.64947E+05 8.49680E+03 2.67336E+01 1.17780E-10-5.16729E-09
 -1       521-1.19661E+07-1.70360E+06-2.14627E+06-2.32651E+06-4.38304E-08 5.75674E-08
 -1       522 2.42242E+05-2.25038E+06 6.97767E+05-6.16400E+06-2.48547E-07-2.86273E-08
 -1       523-9.20895E+06 2.28067E+05-2.67115E+05 8.56864E+04 5.69271E-08-8.60819E-08
 -1       524-4.93207E+06-2.17622E+06 2.23509E+05-9.49151E+06 3.89470E-07-2.83157E-07
 -1       525-9.32566E+06 1.80793E+05-1.87238E+05 2.75061E+04 2.72237E-07-1.59249E-07
 -1       526 5.77917E+05-2.25177E+06 1.07228E+06-5.86799E+06 4.91709E-08-2.60497E-08
 -1       527-1.20122E+07-1.78490E+06-1.46958E+06-2.47068E+06 8.28295E-08 3.23926E-08
 -1       528 2.89481E+06 6.21830E+05 1.84088E+06 1.10105E+06 1.02009E-07-9.03092E-08
 -1       529-9.79924E+06-3.94437E+06-1.45416E+06-4.85399E+06-8.18400E-08-4.31028E-08
 -1       530-6.70450E+06 4.90185E+06 1.05420E+06 1.95878E+06-1.89990E-07 1.96218E-07
 -1       531-4.97354E+06-4.11077E+06-1.68860E+05-4.72192E+06-3.34490E-07 1.98925E-08
 -1       532-1.31383E+07 6.02997E+06 2.26593E+05-4.11927E+05 2.01588E-07-2.92735E-07
 -1       533-4.93424E+06-4.10752E+06-2.77812E+05-4.71218E+06 6.67933E-09-4.06726E-07
 -1       534-6.83257E+06 4.97140E+06 7.33219E+05 1.90625E+06-5.99102E-08 3.06667E-07
 -1       535-9.75026E+06-3.99048E+06-2.13770E+06-4.85250E+06 7.97445E-09 1.85977E-07
 -1       536-3.99846E+05-1.30550E+04 1.57114E+04-1.46272E+04-2.24327E-09 2.07901E-08
 -1       537-3.32681E+05 1.41792E+04 2.16743E+04 3.57960E+04-4.30333E-08 3.12461E-08
 -1       538-3.66612E+05-8.79305E+02 5.79467E+03-2.20457E+04 1.09417E-08 3.66883E-08
 -1       539-3.52392E+05 1.75364E+03 5.99600E+03 3.99145E+04 4.22808E-08 3.85144E-08
 -1       540-3.80518E+05-3.31996E+02-1.41861E+03-1.87581E+04-1.81717E-09 3.95382E-08
 -1       541-3.06318E+05 2.12015E+03 1.26578E+04 2.35219E+04 2.25498E-10 3.36052E-08
 -1       542-4.11452E+05-2.24747E+03-9.00024E+03-5.62471E+03 8.47717E-09 8.72259E-09
 -1       543-2.83825E+05 2.80845E+03 1.63364E+04-6.03742E+03 4.96357E-09-1.05529E-08
 -1       544-4.02416E+05-1.50250E+03-7.93337E+03 1.07754E+04 1.84855E-09-1.70609E-08
 -1       545-3.26919E+05 3.13398E+02 6.24694E+03-3.23391E+04-1.89305E-08-2.97593E-08
 -1       546-3.69488E+05 1.16157E+03-3.29616E+03 2.06704E+04 1.53148E-09-2.90497E-08
 -1       547-3.58262E+05-3.45717E+03-4.92826E+03-4.14795E+04-3.66561E-08-4.33831E-08
 -1       548-3.71868E+05 2.91046E+03-1.19990E+04 1.99376E+04-3.51969E-08-4.47162E-08
 -1       549-3.27468E+05-1.63389E+04-1.88227E+04-2.94824E+04-2.26220E-08-1.82085E-08
 -1       550-3.99293E+05 1.32292E+04-4.98189E+04 8.64800E+03 1.85878E-09-9.15679E-09
 -1       551 1.24846E+04-4.88129E+05 1.67339E+04-7.65279E+05-4.62605E-08-3.14321E-09
 -1       552 2.89158E+04-4.96585E+05 2.61011E+04-1.08955E+06-3.34257E-08 1.52431E-08
 -1       553 2.08848E+04-5.01614E+05 4.23349E+04-7.62207E+05-5.55592E-08 1.64728E-08
 -1       554 5.44271E+04-4.90299E+05 9.15690E+04-1.09115E+06-3.57322E-08 5.95901E-09
 -1       555 4.92285E+04-5.21528E+05 1.64680E+05-7.62525E+05-5.73709E-08-7.93625E-09
 -1       556 1.01182E+05-1.87057E+05 4.57542E+04-2.30659E+05-6.75209E-09-1.04046E-08
 -1       557 1.72719E+05-2.46628E+05 2.43949E+04-2.92411E+05 5.78439E-09-7.40329E-10
 -1       558 9.83268E+04-1.91506E+05 9.32397E+03-2.26232E+05-2.57569E-09-2.13549E-09
 -1       559 1.62568E+05-2.52462E+05 4.90620E+03-2.98314E+05 1.02737E-08-7.41238E-10
 -1       560 9.47366E+04-1.89185E+05 1.72402E+03-2.28620E+05 3.89991E-09 1.14887E-08
 -1       561 1.57666E+05-2.50828E+05 1.04116E+03-3.01514E+05-1.49885E-09 2.58842E-09
 -1       562 9.19343E+04-1.87382E+05 2.47517E+02-2.30623E+05-1.11613E-08-7.55790E-10
 -1       563 1.54400E+05-2.49406E+05 2.60074E+02-3.03611E+05-2.09438E-08 4.48642E-09
 -1       564 9.01065E+04-1.86226E+05 5.02739E+01-2.31914E+05-6.69388E-09 2.68847E-09
 -1       565 1.52532E+05-2.48598E+05 9.24991E+01-3.04792E+05 2.05364E-09-1.60253E-09
 -1       566 8.92911E+04-1.85701E+05 8.38883E+00-2.32491E+05-1.90630E-09 5.43332E-09
 -1       567 1.52031E+05-2.48368E+05-5.62451E+01-3.05032E+05 1.18196E-08-3.05590E-10
 -1       568 8.95248E+04-1.85858E+05-2.77208E+02-2.32404E+05-1.98634E-09-5.50426E-09
 -1       569 1.52151E+05-2.48227E+05-6.69212E+02-3.03626E+05-2.24463E-09-1.57161E-09
 -1       570 9.14297E+04-1.87446E+05-1.57453E+03-2.32219E+05 5.05315E-09 3.71438E-09
 -1       571 1.98112E+05 7.31169E+03 1.07865E+04-5.13753E+04 1.24055E-09-1.51567E-09
 -1       572 1.99712E+05 2.56823E+03 5.28483E+03-5.63392E+04 1.58957E-09 1.97542E-09
 -1       573 1.98754E+05 6.37123E+02 2.34786E+03-5.12539E+04 1.17743E-08 6.52153E-09
 -1       574 1.98941E+05 2.33745E+02 1.17648E+03-5.64777E+04 2.25411E-08 3.33421E-09
 -1       575 1.98826E+05 6.07254E+01 5.54723E+02-5.12378E+04 9.56720E-09 9.03583E-10
 -1       576 1.98837E+05 4.42125E+01 2.82837E+02-5.64961E+04-2.70788E-09 6.62521E-09
 -1       577 1.98840E+05 2.80416E+01 1.40129E+02-5.12356E+04 1.93479E-08 5.41149E-09
 -1       578 1.98832E+05 3.21248E+01 7.81218E+01-5.64984E+04 3.88191E-08 1.11008E-08
 -1       579 1.98857E+05 2.27156E+01 5.06769E+01-5.12355E+04 1.97269E-08-1.82899E-09
 -1       580 1.98855E+05 2.23777E+01 5.24320E+01-5.64954E+04-1.44200E-09-6.71980E-09
 -1       581 1.98885E+05 1.18522E+01 7.63215E+01-5.12387E+04-7.93079E-10 3.60569E-09
 -1       582 1.98905E+05 2.60381E+01 1.49812E+02-5.64635E+04-3.34694E-10 2.25691E-09
 -1       583 1.98916E+05 6.01424E+01 2.89482E+02-5.12674E+04-7.62157E-09-4.20368E-09
 -1       584 1.99051E+05 2.89276E+02 6.50602E+02-5.62232E+04-2.00362E-08-6.14250E-09
 -1       585 1.98883E+05 8.61072E+02 1.32183E+03-5.14794E+04-1.10576E-08-1.82263E-09
 -1       586-2.40210E+03 6.50751E+04-2.99544E+03-1.77517E+05-6.04814E-10 4.45493E-09
 -1       587-5.49319E+02 6.46985E+04-1.24554E+02-1.95381E+05-9.40418E-10 1.29813E-08
 -1       588 6.78986E+02 6.47422E+04 2.64357E+03-1.77427E+05-3.20142E-10 6.91125E-09
 -1       589 3.63881E+03 6.61702E+04 7.40960E+03-1.95185E+05-7.17591E-10-1.26183E-08
 -1       590 1.06521E+04 6.38960E+04 1.57616E+04-1.77721E+05-4.76575E-10 4.62660E-09
 -1       591-4.13565E+04-1.11162E+04-1.39806E+04-2.04515E+04-1.30672E-09 1.00044E-11
 -1       592-4.30383E+04-1.41782E+04-7.57263E+03-2.36739E+04 1.26187E-09 1.73133E-08
 -1       593-4.27643E+04-1.00919E+04-3.15243E+03-2.14670E+04 3.06500E-10-5.25552E-09
 -1       594-4.10959E+04-1.21399E+04-1.57228E+03-2.37632E+04 3.69482E-10 1.78348E-09
 -1       595-4.28720E+04-1.00877E+04-7.22382E+02-2.15134E+04 2.65118E-10 6.22621E-09
 -1       596-4.09638E+04-1.20466E+04-3.68003E+02-2.37488E+04 9.14838E-10-1.78326E-09
 -1       597-4.28856E+04-1.00969E+04-2.02042E+02-2.15152E+04 1.87313E-09-5.08692E-09
 -1       598-4.09511E+04-1.20430E+04-1.65455E+02-2.37447E+04 2.22246E-09 2.68062E-09
 -1       599-4.28846E+04-1.00970E+04-2.15131E+02-2.15148E+04 2.42039E-10 3.95607E-09
 -1       600-4.09649E+04-1.20476E+04-4.02679E+02-2.37481E+04 3.48143E-09 4.46221E-11
 -1       601-4.28678E+04-1.00874E+04-7.95965E+02-2.15122E+04 3.28123E-09-3.92208E-09
 -1       602-4.11104E+04-1.21503E+04-1.73557E+03-2.37619E+04-3.61524E-11-1.59035E-08
 -1       603-4.27473E+04-1.00939E+04-3.48097E+03-2.14612E+04 6.39329E-09 4.29077E-09
 -1       604-4.32644E+04-1.43908E+04-8.36189E+03-2.36502E+04 3.13150E-09 3.48132E-09
 -1       605-4.11814E+04-1.12341E+04-1.54377E+04-2.03500E+04 2.63691E-09 1.04174E-08
 -1       606 2.55842E+04-9.50378E+03-1.70964E+04 2.48053E+04-4.05635E-10-8.76207E-09
 -1       607 2.26576E+04-3.07411E+03-8.51317E+03 2.78483E+04-2.51930E-10 3.21052E-09
 -1       608 2.43192E+04-5.26325E+02-3.81214E+03 2.46096E+04-6.29370E-10 3.42834E-09
 -1       609 2.39906E+04-1.46283E+02-1.92545E+03 2.80668E+04-4.49654E-09-1.93677E-09
 -1       610 2.41675E+04 1.40807E+01-9.19541E+02 2.45876E+04-4.34193E-09-1.37766E-09
 -1       611 2.41071E+04 2.44536E+01-4.63693E+02 2.80907E+04-5.77256E-09-2.15027E-09
 -1       612 2.41280E+04 2.83251E+01-2.21520E+02 2.45854E+04-2.54749E-09-7.50674E-09
 -1       613 2.41064E+04 3.19330E+01-1.00393E+02 2.80935E+04-3.48155E-09 2.80988E-09
 -1       614 2.41067E+04 2.82640E+01-2.66663E+01 2.45847E+04 1.04774E-08 1.58434E-09
 -1       615 2.40960E+04 3.66384E+01 3.47374E+01 2.80940E+04 2.41453E-08-9.46784E-10
 -1       616 2.40905E+04 3.33828E+01 1.10891E+02 2.45849E+04 5.69753E-09-4.28599E-10
 -1       617 2.41042E+04 6.34769E+01 2.55762E+02 2.80935E+04 8.64020E-12 2.18438E-09
 -1       618 2.40644E+04 1.09576E+02 5.16465E+02 2.45850E+04 3.03316E-10-7.72047E-09
 -1       619 2.42835E+04 4.64858E+02 1.16045E+03 2.80928E+04 2.12810E-09-7.32234E-09
 -1       620 2.38909E+04 1.33625E+03 2.33262E+03 2.45841E+04 1.65676E-09 6.96309E-09
 -1       621 2.66954E+02 2.06599E+05 2.41052E+03 1.14987E+04-1.10617E-10 2.23872E-09
 -1       622 3.18342E+02 2.07191E+05 2.17719E+03 1.67488E+04 4.34284E-11 1.87038E-09
 -1       623 1.71499E+01 2.06748E+05 2.67466E+03 1.14436E+04-7.88134E-11 1.53159E-09
 -1       624 1.26074E+03 2.08049E+05 5.22822E+03 1.68047E+04 1.38698E-11 4.53156E-09
 -1       625 1.26720E+03 2.05726E+05 9.15928E+03 1.14425E+04 1.00954E-10 4.27258E-09
 -1       626 1.78515E+05 4.78223E+04 3.79044E+03 9.41519E+04-4.31328E-09-1.33696E-09
 -1       627 1.76306E+05 4.93488E+04 1.82647E+03 9.78645E+04-3.21234E-09-8.61837E-09
 -1       628 1.78639E+05 4.60515E+04 7.71679E+02 9.47508E+04 6.63931E-10 7.17569E-09
 -1       629 1.75786E+05 4.88912E+04 3.77930E+02 9.80863E+04 3.12502E-09 1.10811E-08
 -1       630 1.78647E+05 4.59675E+04 1.74653E+02 9.47699E+04-4.29100E-09-5.29394E-09
 -1       631 1.75725E+05 4.88785E+04 9.34322E+01 9.80875E+04-3.72893E-09-4.54293E-09
 -1       632 1.78639E+05 4.59734E+04 6.06034E+01 9.47629E+04-1.06797E-08 9.91008E-10
 -1       633 1.75713E+05 4.88831E+04 6.61516E+01 9.80811E+04-1.28250E-08 1.29608E-08
 -1       634 1.78631E+05 4.59740E+04 1.05679E+02 9.47591E+04-6.83576E-09-5.16866E-09
 -1       635 1.75718E+05 4.88842E+04 2.13311E+02 9.80813E+04 2.88992E-09-5.19822E-09
 -1       636 1.78620E+05 4.59726E+04 4.30406E+02 9.47565E+04 2.41272E-09 5.06702E-09
 -1       637 1.75807E+05 4.89523E+04 9.45800E+02 9.80776E+04-2.12646E-09 4.52746E-09
 -1       638 1.78584E+05 4.61831E+04 1.94356E+03 9.46599E+04-5.62977E-10-2.97496E-09
 -1       639 1.76825E+05 5.03728E+04 4.59797E+03 9.77750E+04 1.63004E-09 1.06120E-08
 -1       640 1.78447E+05 5.04170E+04 9.54183E+03 9.28652E+04-3.06363E-09 5.60931E-09
 -1       656 4.74928E+04-1.20538E+06-1.14653E+05-5.37826E+02-5.67525E-10-6.92259E-09
 -1       657-6.27793E+04-1.25715E+06-9.48666E+04 7.02575E+03 3.54703E-11 1.11690E-09
 -1       658 1.50844E+04-1.22013E+06-5.82798E+04-1.72117E+03 1.28091E-09 4.95531E-09
 -1       659-6.74843E+04-1.25938E+06-1.01046E+05 7.85595E+03-8.25821E-10 4.00666E-09
 -1       660 5.21864E+04-1.20316E+06-1.25283E+05-1.36801E+03 6.33008E-10 7.69724E-09
 -1       661 1.55695E+05 1.68433E+04 1.52087E+04 6.08671E+04 2.26692E-09 5.86351E-09
 -1       662 1.63767E+05 2.86227E+04 1.02484E+04 5.80521E+04 1.12141E-09 3.54351E-09
 -1       663 1.58677E+05 2.17266E+04 3.58486E+03 6.00055E+04-8.67772E-10 1.79784E-09
 -1       664 1.60315E+05 2.29073E+04 2.14351E+03 5.91003E+04 1.98725E-10 1.95121E-09
 -1       665 1.59124E+05 2.23982E+04 8.45584E+02 5.98793E+04 7.38339E-10-8.81315E-09
 -1       666 1.59790E+05 2.21356E+04 4.93482E+02 5.92623E+04-4.94356E-09-2.58483E-09
 -1       667 1.59199E+05 2.24781E+04 2.60653E+02 5.98511E+04 3.97904E-10 2.72227E-10
 -1       668 1.59709E+05 2.20731E+04 2.62154E+02 5.93028E+04 3.78986E-09-1.26549E-08
 -1       669 1.59204E+05 2.24588E+04 3.52149E+02 5.98394E+04 2.16842E-09-3.40560E-09
 -1       670 1.59798E+05 2.22597E+04 7.64175E+02 5.93020E+04 1.00392E-09-1.28574E-09
 -1       671 1.59111E+05 2.22953E+04 1.35600E+03 5.98504E+04 3.18445E-09-4.51337E-09
 -1       672 1.60589E+05 2.35774E+04 3.46859E+03 5.91095E+04 3.63719E-09-1.56115E-09
 -1       673 1.58417E+05 2.11742E+04 5.81255E+03 6.00192E+04 2.90152E-09 3.84716E-09
 -1       674 1.66125E+05 3.29131E+04 1.66227E+04 5.74811E+04-7.62441E-10 6.63385E-09
 -1       675 1.53612E+05 1.32208E+04 2.46734E+04 6.13805E+04-9.87711E-10-2.29102E-09
 -1       676 1.88093E+01-2.26244E+05-8.73707E+02 1.96321E+01-1.07133E-09-3.02855E-09
 -1       677-2.31995E+02-2.26455E+05-1.59898E+03-3.92441E+01-1.77658E-09 1.41224E-09
 -1       678 1.54879E+02-2.26093E+05-2.82658E+03 1.95985E+01-4.96470E-10 2.41859E-09
 -1       679-2.82727E+03-2.28161E+05-6.71456E+03-3.91130E+01-2.00680E-09-5.30556E-10
 -1       680 1.68730E+03-2.24538E+05-1.08216E+04 1.92782E+01 1.44973E-09-9.21285E-09
 -1       771-2.40656E+06-4.72260E+05-7.18841E+04-1.05330E+06-1.57597E-08-1.31549E-08
 -1       772-2.37560E+06-5.18201E+05-3.80026E+04-1.10534E+06-1.12923E-08 7.08860E-09
 -1       773-2.41837E+06-4.62968E+05-1.74490E+04-1.05762E+06-6.83940E-09 3.84898E-09
 -1       774-2.36708E+06-5.10368E+05-8.20774E+03-1.11286E+06 1.42027E-08-7.27596E-10
 -1       775-2.42263E+06-4.59996E+05-4.88150E+03-1.05868E+06-2.85218E-09 7.34872E-10
 -1       776-2.36866E+06-5.10162E+05-2.04487E+03-1.11770E+06-3.57250E-09 2.22644E-09
 -1       777-2.42601E+06-4.57523E+05-1.73302E+03-1.05955E+06-1.67347E-09-3.12502E-09
 -1       778-2.37068E+06-5.10139E+05-5.88402E+02-1.12178E+06 7.48332E-09 3.39878E-09
 -1       779-2.42879E+06-4.55420E+05-7.76542E+02-1.06031E+06-1.89175E-10-5.18048E-09
 -1       780-2.37249E+06-5.10091E+05-2.39950E+02-1.12508E+06-1.08266E-08-2.31230E-08
 -1       781-2.43094E+06-4.53752E+05-4.51522E+02-1.06089E+06-8.28732E-09-2.51111E-09
 -1       782-2.37389E+06-5.10038E+05-3.34268E+02-1.12749E+06-1.21363E-08-5.11181E-09
 -1       783-2.43241E+06-4.52627E+05-6.97750E+02-1.06130E+06-1.32786E-09-7.36759E-09
 -1       784-2.37512E+06-5.10361E+05-1.43518E+03-1.12894E+06-8.64384E-09 4.10864E-10
 -1       785-2.43289E+06-4.52249E+05-2.69818E+03-1.06131E+06-1.69566E-08 3.07682E-09
 -1       786 1.38779E+05-8.65027E+03 2.00121E+04-7.57660E+01 1.34472E-09 9.81345E-10
 -1       787 1.47453E+05 1.00143E+04 1.41581E+04 2.12553E+01 2.91213E-09 1.40585E-09
 -1       788 1.42125E+05-1.35599E+03 5.17889E+03-5.80662E+01 1.04363E-09 6.14614E-09
 -1       789 1.43556E+05 1.56887E+03 3.25293E+03-7.87938E+00-6.12723E-11 1.17609E-09
 -1       790 1.42677E+05-2.11710E+02 1.32126E+03-4.66339E+01 9.55169E-12-1.91551E-09
 -1       791 1.42911E+05 2.45306E+02 7.71237E+02-2.84268E+01-5.96186E-10-1.48906E-09
 -1       792 1.42770E+05-3.34200E+01 3.43081E+02-3.75187E+01-6.98864E-10 1.33367E-09
 -1       793 1.42804E+05 4.26253E+01 2.06688E+02-4.66423E+01-1.39460E-10-4.24663E-09
 -1       794 1.42784E+05-9.16003E+00 1.25379E+02-2.84181E+01 8.59417E-10-3.96013E-09
 -1       795 1.42799E+05 3.66987E+01 1.41295E+02-6.69638E+01-8.46073E-10 1.01610E-08
 -1       796 1.42775E+05-2.74936E+01 1.87415E+02-1.71969E+01 4.45024E-10-1.01940E-08
 -1       797 1.42877E+05 1.99136E+02 4.21860E+02-9.41288E+01-1.49248E-10 4.42168E-09
 -1       798 1.42706E+05-1.71479E+02 6.59433E+02-1.25258E+00 1.71976E-10-1.37160E-09
 -1       799 1.43370E+05 1.26581E+03 1.79196E+03-1.34511E+02 1.70222E-11 6.29598E-10
 -1       800 1.42282E+05-1.09331E+03 2.52962E+03 2.31863E+01-3.52580E-11 3.92822E-09
 -1       801 6.47636E+04-2.20329E+06-2.01278E+05 3.62516E+04 1.51194E-08-6.95945E-09
 -1       802-7.53020E+04-2.05402E+06-9.36775E+04-5.35072E+04 4.10128E-08 1.88390E-09
 -1       803 9.50504E+03-2.12274E+06-2.93697E+04 9.57245E+04 3.12175E-08 2.65553E-08
 -1       804 2.64719E+04-2.01289E+06 4.00018E+04-2.50386E+04 3.18178E-08 2.54327E-08
 -1       805-3.78687E+04-2.24390E+06 3.34298E+04 7.77634E+03 1.20599E-08 2.12597E-08
 -1       806-2.17501E+05-4.28453E+04-1.67452E+04-8.67378E+04 5.00222E-12 8.40237E-09
 -1       807-2.18827E+05-4.01046E+04-8.22669E+03-9.07849E+04 7.73343E-09 1.54361E-08
 -1       808-2.17956E+05-3.68154E+04-3.48993E+03-8.95985E+04 7.75799E-10-2.78260E-09
 -1       809-2.17093E+05-3.77980E+04-1.70639E+03-9.09946E+04-2.06455E-09-6.67387E-09
 -1       810-2.18027E+05-3.66043E+04-7.81698E+02-8.97254E+04 5.85305E-09 2.49656E-09
 -1       811-2.16960E+05-3.77054E+04-3.88274E+02-9.09710E+04 1.13423E-08 3.24860E-09
 -1       812-2.18039E+05-3.66211E+04-1.95097E+02-8.97254E+04 7.83984E-10-1.55387E-09
 -1       813-2.16943E+05-3.77070E+04-1.25075E+02-9.09594E+04-1.38925E-10-1.68702E-08
 -1       814-2.18036E+05-3.66271E+04-1.20802E+02-8.97230E+04 3.22416E-09-9.41554E-09
 -1       815-2.16946E+05-3.77086E+04-1.92312E+02-9.09562E+04 1.10615E-08 6.33588E-09
 -1       816-2.18024E+05-3.66254E+04-3.62525E+02-8.97211E+04 3.05999E-09 3.01588E-09
 -1       817-2.17009E+05-3.77430E+04-7.78009E+02-9.09503E+04-6.13909E-10 6.29711E-09
 -1       818-2.17979E+05-3.67338E+04-1.58613E+03-8.96697E+04-8.70386E-10-5.41559E-09
 -1       819-2.17880E+05-3.87003E+04-3.73298E+03-9.07459E+04 3.99268E-09 7.21047E-09
 -1       820-2.17684E+05-3.95503E+04-7.59741E+03-8.84616E+04 2.58842E-09 4.75950E-09
 -1       821-2.71088E+05 1.49912E+04-3.46694E+04 2.10395E+02 1.11114E-09-4.07817E-09
 -1       822-2.86112E+05-1.73546E+04-2.45337E+04-7.27639E+02-1.73003E-09-7.61793E-09
 -1       823-2.76886E+05 2.35031E+03-8.97953E+03 1.85253E+02-8.70450E-11-1.75532E-09
 -1       824-2.79347E+05-2.72012E+03-5.64933E+03-5.56139E+02 4.94564E-11 8.74843E-09
 -1       825-2.77850E+05 3.67727E+02-2.32330E+03 3.88925E+01-1.14341E-09 3.45642E-09
 -1       826-2.78224E+05-4.33575E+02-1.40082E+03-2.02596E+02-3.23519E-09-4.44135E-09
 -1       827-2.78009E+05 6.51815E+01-7.28217E+02-1.68296E+02-2.48109E-09-8.00512E-09
 -1       828-2.78074E+05-1.32792E+02-6.43117E+02 1.88293E+02-3.97882E-09 6.04662E-09
 -1       829-2.78000E+05 6.72441E+01-7.42641E+02-3.52004E+02-4.57998E-11-2.77083E-10
 -1       830-2.78252E+05-4.49018E+02-1.45072E+03 4.57262E+02 1.87663E-09 7.08545E-09
 -1       831-2.77832E+05 3.81483E+02-2.40393E+03-4.37270E+02-1.62849E-09 6.43945E-09
 -1       832-2.79408E+05-2.81981E+03-5.85843E+03 4.95011E+02-1.19732E-09 3.12821E-09
 -1       833-2.76845E+05 2.43638E+03-9.31034E+03-3.89752E+02-9.63281E-10 1.14187E-09
 -1       834-2.86398E+05-1.79929E+04-2.54354E+04 2.86552E+02-3.16938E-10-3.70801E-09
 -1       835-2.70843E+05 1.55426E+04-3.59505E+04-2.28801E+02 5.18938E-09 7.37782E-09
 -1       836-9.13449E+02 2.55230E+05 1.54569E+04-1.75513E+04 2.71939E-10 5.05543E-09
 -1       837 3.37851E+03 2.60030E+05 1.32221E+04-3.52755E+04 8.36508E-10-4.46471E-09
 -1       838-3.46278E+02 2.56559E+05 1.36716E+04-1.74864E+04 7.28051E-10 8.70364E-09
 -1       839 8.76617E+03 2.64047E+05 2.60591E+04-3.53080E+04 1.55342E-09 1.66278E-08
 -1       840-2.65208E+03 2.51177E+05 4.16388E+04-1.75178E+04 6.62112E-10 2.97700E-09
 -1       856-7.28936E+04 6.94378E+03-1.82986E+04-3.95221E+02-2.24799E-09 3.14685E-10
 -1       857-8.04502E+04-8.14562E+03-1.25980E+04 4.30712E+03-2.14641E-09-2.09434E-09
 -1       858-7.58798E+04 9.73045E+02-4.74881E+03-4.14004E+02-2.51225E-09 4.56271E-09
 -1       859-7.70211E+04-1.13269E+03-2.86765E+03 4.33679E+03 1.75763E-09 5.88449E-09
 -1       860-7.63263E+04 1.35433E+02-1.20493E+03-4.24969E+02 1.15398E-09-4.75495E-10
 -1       861-7.65069E+04-1.50709E+02-6.69432E+02 4.35178E+03-4.80583E-09-9.28438E-10
 -1       862-7.63958E+04 1.79372E+01-2.91446E+02-4.29019E+02 4.28758E-09 6.38633E-09
 -1       863-7.64240E+04-1.10614E+01-1.36067E+02 4.35368E+03 6.14359E-09 1.39269E-08
 -1       864-7.64094E+04-1.13700E+00-2.64477E+01-4.26873E+02 3.69860E-09 7.53372E-09
 -1       865-7.63946E+04 2.94026E+01 7.10485E+01 4.34267E+03 6.11908E-09 4.61375E-09
 -1       866-7.64238E+04-2.28328E+01 1.77785E+02-4.18012E+02 6.70582E-10-3.32163E-09
 -1       867-7.63020E+04 1.90784E+02 4.59737E+02 4.31860E+03-8.44466E-10 4.47768E-09
 -1       868-7.64990E+04-1.60514E+02 7.69365E+02-4.02800E+02-1.03819E-09-5.59794E-10
 -1       869-7.57316E+04 1.33438E+03 2.05659E+03 4.27852E+03-1.96192E-09-1.55153E-08
 -1       870-7.69894E+04-1.13669E+03 2.98362E+03-3.77930E+02 8.22922E-10-4.80702E-09
 -1       871-4.05027E+03-9.37177E+03-1.32757E+04 8.78279E+04 4.98403E-10-2.44199E-09
 -1       872-1.72709E+03-1.23581E+04-5.43799E+03 1.13866E+05 2.07410E-09 2.57501E-09
 -1       873-4.76346E+00-1.09570E+04 7.06698E+02 8.76350E+04 6.29143E-10 1.28084E-08
 -1       874 2.05064E+03-9.07251E+03 7.37524E+03 1.13903E+05 2.24532E-09 8.24764E-09
 -1       875 4.78270E+03-1.27097E+04 1.64013E+04 8.77964E+04 1.15415E-09 1.94996E-09
 -1       876 2.13624E+05 3.66303E+04 1.12977E+04 8.64635E+04-5.77529E-09-4.33010E-09
 -1       877 2.14296E+05 3.90834E+04 6.03327E+03 8.97756E+04-4.96038E-09 1.14487E-08
 -1       878 2.14679E+05 3.53800E+04 2.52768E+03 8.73913E+04-3.16118E-09 1.02157E-08
 -1       879 2.12760E+05 3.75523E+04 1.25922E+03 8.98549E+04-1.35466E-08-7.01425E-09
 -1       880 2.14756E+05 3.53662E+04 5.86348E+02 8.74291E+04-6.25096E-09 9.60165E-09
 -1       881 2.12658E+05 3.74873E+04 3.12538E+02 8.98388E+04 9.87939E-11 1.43682E-08
 -1       882 2.14764E+05 3.53754E+04 1.98980E+02 8.74302E+04 1.10981E-09 2.49955E-09
 -1       883 2.12651E+05 3.74841E+04 2.12334E+02 8.98341E+04 1.08093E-09 4.75264E-09
 -1       884 2.14759E+05 3.53731E+04 3.36358E+02 8.74304E+04-6.22242E-09 5.84998E-09
 -1       885 2.12677E+05 3.74889E+04 6.75385E+02 8.98425E+04 3.02737E-09 1.61918E-10
 -1       886 2.14733E+05 3.53533E+04 1.36081E+03 8.74277E+04 1.69914E-09 4.45493E-09
 -1       887 2.12917E+05 3.76457E+04 2.97238E+03 8.98770E+04 3.04368E-10 4.59306E-09
 -1       888 2.14545E+05 3.53864E+04 5.98944E+03 8.73325E+04-1.02435E-09 1.85628E-09
 -1       889 2.16485E+05 4.13518E+04 1.43083E+04 8.97646E+04 1.23350E-09-1.31561E-08
 -1       890 2.12105E+05 3.82855E+04 2.67983E+04 8.50479E+04 2.08183E-09 4.14911E-09
 -1       891-1.24593E+02-1.20684E+05-1.43920E+03 2.22988E+04-5.84237E-10 5.32850E-09
 -1       892-2.18503E+02-1.21033E+05-1.56005E+03 3.37565E+04-2.43540E-09 2.18415E-09
 -1       893-2.86202E+01-1.20730E+05-2.22354E+03 2.23033E+04-1.19621E-09 9.26502E-09
 -1       894-1.20068E+03-1.21884E+05-4.61279E+03 3.36358E+04-2.36014E-09 8.55607E-09
 -1       895-9.40047E+02-1.19770E+05-8.12694E+03 2.24182E+04-1.20849E-09 3.48973E-09
 -1       956-2.69973E+05-3.82711E+03-9.61985E+03 1.82858E+04-6.16956E-09 7.96149E-09
 -1       957-2.71871E+05-1.29564E+03-4.93843E+03 2.20200E+04-8.71387E-09 4.85170E-09
 -1       958-2.70827E+05-1.07913E+02-2.22490E+03 1.81724E+04-2.74031E-09-7.09861E-09
 -1       959-2.70977E+05-2.37815E+01-1.13646E+03 2.21438E+04-1.98543E-09-4.71073E-09
 -1       960-2.70904E+05 2.71754E+01-5.54036E+02 1.81615E+04-3.54248E-09 3.76144E-09
 -1       961-2.70912E+05 2.43026E+01-2.93989E+02 2.21562E+04-4.07886E-09-2.58137E-09
 -1       962-2.70919E+05 2.33914E+01-1.68330E+02 1.81599E+04-4.52337E-09 3.57818E-09
 -1       963-2.70909E+05 2.55021E+01-1.35234E+02 2.21584E+04-5.28598E-09 7.74571E-09
 -1       964-2.70922E+05 2.52133E+01-1.64305E+02 1.81593E+04-5.94241E-10 1.63163E-09
 -1       965-2.70919E+05 2.82324E+01-2.84040E+02 2.21583E+04 1.75778E-09-6.72594E-09
 -1       966-2.70913E+05 3.25755E+01-5.33279E+02 1.81600E+04 3.35717E-10-1.24669E-09
 -1       967-2.70988E+05-1.41929E+01-1.09379E+03 2.21508E+04 6.28461E-10 1.26685E-08
 -1       968-2.70845E+05-9.37964E+01-2.14057E+03 1.81669E+04-1.76578E-09 3.61817E-09
 -1       969-2.71856E+05-1.23490E+03-4.75264E+03 2.20698E+04-1.00158E-09 3.46375E-10
 -1       970-2.70028E+05-3.67081E+03-9.25724E+03 1.82424E+04 1.20554E-09 4.29009E-09
 -1       971-2.54074E+05-1.32468E+03-7.34177E+03 1.21395E+04-3.19960E-09-1.94103E-09
 -1       972-2.55857E+05-9.52435E+02-3.99838E+03 1.69380E+04-3.48564E-10-1.89777E-09
 -1       973-2.54890E+05-1.27678E+01-1.79038E+03 1.20389E+04-1.81808E-09 3.76349E-09
 -1       974-2.55012E+05-1.44917E+01-9.27632E+02 1.70470E+04-7.89441E-10-7.95808E-12
 -1       975-2.54953E+05 2.13765E+01-4.62797E+02 1.20298E+04-9.53605E-10 4.11080E-09
 -1       976-2.54962E+05 2.37512E+01-2.65511E+02 1.70581E+04-2.81261E-10-7.65215E-09
 -1       977-2.54965E+05 2.10499E+01-1.89965E+02 1.20278E+04 3.40424E-09-1.91949E-09
 -1       978-2.54964E+05 2.79306E+01-2.18610E+02 1.70610E+04 9.55629E-09-6.43581E-09
 -1       979-2.54965E+05 2.69031E+01-3.48027E+02 1.20269E+04-2.13174E-09-9.35461E-09
 -1       980-2.54990E+05 3.00441E+01-6.69984E+02 1.70615E+04-6.64231E-09-1.27023E-08
 -1       981-2.54943E+05 4.36163E+01-1.29652E+03 1.20273E+04-4.11285E-09-1.19286E-08
 -1       982-2.55168E+05-6.55642E+01-2.67926E+03 1.70565E+04-3.51974E-09 2.46477E-09
 -1       983-2.54780E+05-3.91140E+01-5.20544E+03 1.20321E+04-8.92669E-10-9.89598E-09
 -1       984-2.57672E+05-2.78368E+03-1.16568E+04 1.69881E+04 1.64619E-10 6.21651E-09
 -1       985-2.52424E+05-3.84789E+03-2.14057E+04 1.20992E+04 2.47019E-09 1.53250E-09
 -3
    1PSTEP                        17           9           1          
  100CL  109 5.09766E-01         409                     0    9           1
 -4  DISP        4    1
 -5  D1          1    2    1    0
 -5  D2          1    2    2    0
 -5  D3          1    2    3    0
 -5  ALL         1    2    0    0    1ALL
 -1         1 5.70083E-04 0.00000E+00 0.00000E+00
 -1         2 5.45859E-04 8.18039E-30 0.00000E+00
 -1         3 1.64054E-04-3.81516E-28 1.32349E-23
 -1         5 1.04203E-04-2.46599E-27 3.30872E-24
 -1         8 5.47151E-04-7.56052E-07 0.00000E+00
 -1         9 5.38586E-04-1.66370E-06 0.00000E+00
 -1        10 1.50536E-04-2.17558E-06 6.61744E-24
 -1        12 1.04056E-04 5.60106E-07 0.00000E+00
 -1        15 5.19738E-04-8.37714E-07 0.00000E+00
 -1        16 5.25602E-04-2.09348E-06 0.00000E+00
 -1        17 1.07787E-04-4.64890E-06 0.00000E+00
 -1        18 1.02500E-04 5.87480E-06 0.00000E+00
 -1        19 1.03617E-04 1.11734E-06 0.00000E+00
 -1        20 1.03753E-04 1.11384E-05 0.00000E+00
 -1        21 1.03180E-04 1.98045E-05 0.00000E+00
 -1        24 2.12654E-05-6.33598E-06 0.00000E+00
 -1        25 1.03021E-04 6.00728E-06 0.00000E+00
 -1        26 1.03793E-04 1.54992E-06 0.00000E+00
 -1        27 1.02247E-04 8.60555E-06 0.00000E+00
 -1        28 1.01824E-04 1.93302E-05 0.00000E+00
 -1        32 0.00000E+00 0.00000E+00 0.00000E+00
 -1        33 1.02864E-04 2.07681E-06 0.00000E+00
 -1        34 1.01341E-04 8.58116E-06 0.00000E+00
 -1        35 9.99104E-05 1.90773E-05 0.00000E+00
 -1        51 5.68597E-04-1.27183E-07 0.00000E+00
 -1        52 5.65838E-04-2.47940E-07 0.00000E+00
 -1        53 5.62055E-04-3.69384E-07 0.00000E+00
 -1        54 5.57507E-04-4.93126E-07 0.00000E+00
 -1        55 5.52452E-04-6.20098E-07 4.54949E-24
 -1        56 5.68417E-04-7.28457E-07-2.64698E-23
 -1        57 5.66748E-04-1.63640E-06 0.00000E+00
 -1        58 5.65117E-04-2.63557E-06 5.29396E-23
 -1        59 5.63485E-04-3.66328E-06-2.64698E-23
 -1        60 5.61836E-04-4.64561E-06 0.00000E+00
 -1        61 5.60143E-04-5.51497E-06-2.64698E-23
 -1        62 5.58384E-04-6.21231E-06 5.29396E-23
 -1        63 5.56542E-04-6.68637E-06 0.00000E+00
 -1        64 5.54603E-04-6.90427E-06 5.29396E-23
 -1        65 5.52560E-04-6.84371E-06 0.00000E+00
 -1        66 5.50413E-04-6.50571E-06-5.29396E-23
 -1        67 5.48168E-04-5.90222E-06-2.64698E-23
 -1        68 5.45836E-04-5.06824E-06 0.00000E+00
 -1        69 5.43443E-04-4.04449E-06 0.00000E+00
 -1        70 5.41000E-04-2.89510E-06 2.64698E-23
 -1        86 5.45610E-04-2.74169E-07-6.61744E-24
 -1        87 5.44866E-04-5.48827E-07 3.30872E-24
 -1        88 5.43697E-04-8.23910E-07 0.00000E+00
 -1        89 5.42178E-04-1.10105E-06-6.61744E-24
 -1        90 5.40433E-04-1.37800E-06 1.32349E-23
 -1       121 1.63676E-04-3.59311E-07-1.32349E-23
 -1       122 1.62543E-04-7.19178E-07 6.61744E-24
 -1       123 1.60656E-04-1.08015E-06 0.00000E+00
 -1       124 1.58022E-04-1.44282E-06 0.00000E+00
 -1       125 1.54646E-04-1.80760E-06 0.00000E+00
 -1       191 1.04199E-04 9.33546E-08 0.00000E+00
 -1       192 1.04186E-04 1.86708E-07-1.65436E-24
 -1       193 1.04166E-04 2.80062E-07 0.00000E+00
 -1       194 1.04138E-04 3.73414E-07-1.65436E-24
 -1       195 1.04101E-04 4.66762E-07 0.00000E+00
 -1       251 5.46629E-04 4.94590E-06-1.32349E-23
 -1       252 5.46084E-04 1.28369E-05-6.61744E-24
 -1       253 5.45532E-04 2.17491E-05 1.32349E-23
 -1       254 5.44979E-04 3.04924E-05-6.61744E-24
 -1       255 5.44437E-04 3.79190E-05 0.00000E+00
 -1       256 5.43908E-04 4.29092E-05 0.00000E+00
 -1       257 5.43390E-04 4.49469E-05-1.32349E-23
 -1       258 5.42872E-04 4.35785E-05 6.61744E-24
 -1       259 5.42346E-04 3.91944E-05 0.00000E+00
 -1       260 5.41806E-04 3.22487E-05 0.00000E+00
 -1       261 5.41256E-04 2.38304E-05 1.32349E-23
 -1       262 5.40703E-04 1.50595E-05-6.61744E-24
 -1       263 5.40156E-04 7.14368E-06 0.00000E+00
 -1       264 5.39623E-04 1.27237E-06 0.00000E+00
 -1       265 5.39102E-04-1.87179E-06 0.00000E+00
 -1       266 5.42582E-04-7.80424E-07 0.00000E+00
 -1       267 5.38013E-04-7.92722E-07-8.27181E-25
 -1       268 5.33445E-04-8.05785E-07 8.27181E-25
 -1       269 5.28876E-04-8.16584E-07-4.13590E-25
 -1       270 5.24307E-04-8.27329E-07 0.00000E+00
 -1       271 5.44424E-04 2.93719E-06 0.00000E+00
 -1       272 5.41975E-04 5.78131E-06-1.32349E-23
 -1       273 5.39828E-04 7.83064E-06-2.64698E-23
 -1       274 5.37956E-04 9.13424E-06 0.00000E+00
 -1       275 5.36339E-04 9.75781E-06 2.64698E-23
 -1       276 5.34949E-04 9.77526E-06 0.00000E+00
 -1       277 5.33754E-04 9.27072E-06 0.00000E+00
 -1       278 5.32721E-04 8.33603E-06 0.00000E+00
 -1       279 5.31812E-04 7.07003E-06 0.00000E+00
 -1       280 5.30987E-04 5.57661E-06 0.00000E+00
 -1       281 5.30208E-04 3.96327E-06 0.00000E+00
 -1       282 5.29433E-04 2.33941E-06 0.00000E+00
 -1       283 5.28622E-04 8.14471E-07 0.00000E+00
 -1       284 5.27737E-04-5.02305E-07 0.00000E+00
 -1       285 5.26735E-04-1.50795E-06 2.64698E-23
 -1       301 5.36146E-04-1.74621E-06 0.00000E+00
 -1       302 5.33441E-04-1.81101E-06 0.00000E+00
 -1       303 5.30752E-04-1.87488E-06-6.61744E-24
 -1       304 5.28361E-04-1.93892E-06 6.61744E-24
 -1       305 5.26552E-04-2.00391E-06-1.32349E-23
 -1       306 5.54768E-04-5.72496E-05 5.29396E-23
 -1       307 5.99889E-04-2.23674E-04-2.64698E-23
 -1       308 6.59469E-04-4.73067E-04 0.00000E+00
 -1       309 7.24114E-04-7.69764E-04 2.64698E-23
 -1       310 7.88563E-04-1.06446E-03 0.00000E+00
 -1       311 8.47349E-04-1.30803E-03 2.64698E-23
 -1       312 8.90627E-04-1.46594E-03 5.29396E-23
 -1       313 9.03642E-04-1.51183E-03-2.64698E-23
 -1       314 8.73173E-04-1.44561E-03-5.29396E-23
 -1       315 7.89933E-04-1.27703E-03 0.00000E+00
 -1       316 6.61412E-04-1.03614E-03 0.00000E+00
 -1       317 5.04133E-04-7.55504E-04-2.64698E-23
 -1       318 3.47144E-04-4.75263E-04 5.29396E-23
 -1       319 2.19436E-04-2.35533E-04 0.00000E+00
 -1       320 1.37254E-04-6.87185E-05 0.00000E+00
 -1       336 1.45606E-04-2.57551E-06-1.32349E-23
 -1       337 1.39773E-04-2.98057E-06 0.00000E+00
 -1       338 1.33052E-04-3.39077E-06 0.00000E+00
 -1       339 1.25465E-04-3.80592E-06 6.61744E-24
 -1       340 1.17035E-04-4.22764E-06 6.61744E-24
 -1       406 1.04003E-04 6.53438E-07-3.30872E-24
 -1       407 1.03942E-04 7.46739E-07 1.65436E-24
 -1       408 1.03873E-04 8.39985E-07 3.30872E-24
 -1       409 1.03796E-04 9.33063E-07 1.65436E-24
 -1       410 1.03710E-04 1.02579E-06 0.00000E+00
 -1       521 5.42320E-04-6.37737E-05 0.00000E+00
 -1       522 5.88567E-04-2.42419E-04 0.00000E+00
 -1       523 6.49066E-04-5.09020E-04 1.05879E-22
 -1       524 7.14031E-04-8.24449E-04 5.29396E-23
 -1       525 7.78774E-04-1.13719E-03 0.00000E+00
 -1       526 8.38312E-04-1.39600E-03 5.29396E-23
 -1       527 8.82195E-04-1.56324E-03-1.05879E-22
 -1       528 8.94675E-04-1.61191E-03 0.00000E+00
 -1       529 8.60496E-04-1.54084E-03 1.05879E-22
 -1       530 7.69668E-04-1.36203E-03 5.29396E-23
 -1       531 6.29506E-04-1.10662E-03-1.05879E-22
 -1       532 4.58305E-04-8.09830E-04 0.00000E+00
 -1       533 2.87036E-04-5.12955E-04 1.05879E-22
 -1       534 1.46700E-04-2.57271E-04 0.00000E+00
 -1       535 5.56455E-05-7.79981E-05 1.05879E-22
 -1       536 1.07559E-04 9.21216E-06 0.00000E+00
 -1       537 1.07189E-04 3.14555E-05 0.00000E+00
 -1       538 1.06702E-04 5.87313E-05 0.00000E+00
 -1       539 1.06172E-04 8.76628E-05-1.65436E-24
 -1       540 1.05697E-04 1.14432E-04 0.00000E+00
 -1       541 1.05359E-04 1.35234E-04-1.65436E-24
 -1       542 1.05150E-04 1.47826E-04 3.30872E-24
 -1       543 1.05014E-04 1.50016E-04 0.00000E+00
 -1       544 1.04853E-04 1.42282E-04 0.00000E+00
 -1       545 1.04580E-04 1.25161E-04-1.65436E-24
 -1       546 1.04185E-04 1.01614E-04 0.00000E+00
 -1       547 1.03707E-04 7.46401E-05 0.00000E+00
 -1       548 1.03240E-04 4.81427E-05 3.30872E-24
 -1       549 1.02878E-04 2.60224E-05 1.65436E-24
 -1       550 1.02638E-04 1.10302E-05 0.00000E+00
 -1       551 9.62568E-05-4.89017E-06 0.00000E+00
 -1       552 8.27928E-05-5.15138E-06 0.00000E+00
 -1       553 6.79738E-05-5.43020E-06-2.06795E-24
 -1       554 5.23881E-05-5.72208E-06 3.30872E-24
 -1       555 3.66236E-05-6.01910E-06-1.32349E-23
 -1       556 1.04545E-04 3.74417E-06 0.00000E+00
 -1       557 1.02010E-04 1.03184E-05-1.32349E-23
 -1       558 1.00110E-04 1.52322E-05 0.00000E+00
 -1       559 9.87774E-05 1.86561E-05 0.00000E+00
 -1       560 9.79441E-05 2.07605E-05 0.00000E+00
 -1       561 9.75438E-05 2.17169E-05 0.00000E+00
 -1       562 9.75107E-05 2.16970E-05 0.00000E+00
 -1       563 9.77792E-05 2.08728E-05 0.00000E+00
 -1       564 9.82843E-05 1.94165E-05 0.00000E+00
 -1       565 9.89611E-05 1.75006E-05-3.30872E-24
 -1       566 9.97451E-05 1.52974E-05 0.00000E+00
 -1       567 1.00572E-04 1.29795E-05 4.13590E-25
 -1       568 1.01377E-04 1.07195E-05 0.00000E+00
 -1       569 1.02096E-04 8.68978E-06 0.00000E+00
 -1       570 1.02665E-04 7.06272E-06 0.00000E+00
 -1       571 1.02568E-04 5.58514E-06-8.27181E-25
 -1       572 1.02637E-04 5.25288E-06 0.00000E+00
 -1       573 1.02707E-04 4.88655E-06-8.27181E-25
 -1       574 1.02777E-04 4.49508E-06-8.27181E-25
 -1       575 1.02847E-04 4.08746E-06 1.65436E-24
 -1       576 1.02917E-04 3.67269E-06 0.00000E+00
 -1       577 1.02987E-04 3.25980E-06 0.00000E+00
 -1       578 1.03057E-04 2.85785E-06 0.00000E+00
 -1       579 1.03127E-04 2.47585E-06-3.30872E-24
 -1       580 1.03197E-04 2.12285E-06 3.30872E-24
 -1       581 1.03267E-04 1.80788E-06 0.00000E+00
 -1       582 1.03337E-04 1.53997E-06 0.00000E+00
 -1       583 1.03407E-04 1.32813E-06 0.00000E+00
 -1       584 1.03477E-04 1.18130E-06 0.00000E+00
 -1       585 1.03547E-04 1.10832E-06 0.00000E+00
 -1       586 1.02544E-04 5.89835E-06 8.27181E-25
 -1       587 1.02563E-04 5.92133E-06 2.58494E-25
 -1       588 1.02590E-04 5.94405E-06 0.00000E+00
 -1       589 1.02654E-04 5.96636E-06 0.00000E+00
 -1       590 1.02788E-04 5.98797E-06 0.00000E+00
 -1       591 1.02575E-04 5.62769E-06 1.16322E-25
 -1       592 1.02658E-04 5.35252E-06 0.00000E+00
 -1       593 1.02748E-04 5.05521E-06 4.13590E-25
 -1       594 1.02845E-04 4.74095E-06-2.06795E-25
 -1       595 1.02946E-04 4.41499E-06 0.00000E+00
 -1       596 1.03050E-04 4.08256E-06-2.06795E-25
 -1       597 1.03154E-04 3.74887E-06 0.00000E+00
 -1       598 1.03256E-04 3.41915E-06 2.06795E-25
 -1       599 1.03355E-04 3.09858E-06 4.13590E-25
 -1       600 1.03449E-04 2.79238E-06 2.06795E-25
 -1       601 1.03535E-04 2.50577E-06 0.00000E+00
 -1       602 1.03612E-04 2.24396E-06-2.06795E-25
 -1       603 1.03678E-04 2.01216E-06-3.10193E-25
 -1       604 1.03731E-04 1.81565E-06 0.00000E+00
 -1       605 1.03769E-04 1.65959E-06-4.13590E-25
 -1       606 1.03629E-04 1.28229E-06-3.30872E-24
 -1       607 1.03638E-04 1.53585E-06 0.00000E+00
 -1       608 1.03647E-04 1.87282E-06 3.30872E-24
 -1       609 1.03656E-04 2.28734E-06 0.00000E+00
 -1       610 1.03664E-04 2.77352E-06 3.30872E-24
 -1       611 1.03673E-04 3.32537E-06 0.00000E+00
 -1       612 1.03681E-04 3.93690E-06 0.00000E+00
 -1       613 1.03689E-04 4.60214E-06 0.00000E+00
 -1       614 1.03697E-04 5.31508E-06 0.00000E+00
 -1       615 1.03705E-04 6.06974E-06 8.27181E-25
 -1       616 1.03713E-04 6.86014E-06 0.00000E+00
 -1       617 1.03722E-04 7.68027E-06 0.00000E+00
 -1       618 1.03730E-04 8.52414E-06 0.00000E+00
 -1       619 1.03738E-04 9.38578E-06-8.27181E-25
 -1       620 1.03745E-04 1.02592E-05 4.13590E-25
 -1       621 1.03558E-04 1.18957E-06-1.65436E-24
 -1       622 1.03548E-04 1.26207E-06 8.27181E-25
 -1       623 1.03576E-04 1.33455E-06-1.65436E-24
 -1       624 1.03633E-04 1.40690E-06-8.27181E-25
 -1       625 1.03708E-04 1.47912E-06-1.65436E-24
 -1       626 1.03635E-04 1.30681E-06-3.30872E-24
 -1       627 1.03627E-04 1.56831E-06 0.00000E+00
 -1       628 1.03595E-04 1.89474E-06 0.00000E+00
 -1       629 1.03541E-04 2.27858E-06 0.00000E+00
 -1       630 1.03469E-04 2.71229E-06-3.30872E-24
 -1       631 1.03380E-04 3.18827E-06 0.00000E+00
 -1       632 1.03279E-04 3.69896E-06-3.30872E-24
 -1       633 1.03167E-04 4.23676E-06 0.00000E+00
 -1       634 1.03049E-04 4.79411E-06 0.00000E+00
 -1       635 1.02925E-04 5.36340E-06 0.00000E+00
 -1       636 1.02800E-04 5.93708E-06 3.30872E-24
 -1       637 1.02676E-04 6.50755E-06 8.27181E-25
 -1       638 1.02557E-04 7.06723E-06 1.65436E-24
 -1       639 1.02443E-04 7.60854E-06 0.00000E+00
 -1       640 1.02340E-04 8.12387E-06-1.65436E-24
 -1       656 1.03074E-04 1.07263E-05 0.00000E+00
 -1       657 1.02747E-04 1.02977E-05 3.30872E-24
 -1       658 1.02642E-04 9.87047E-06-1.32349E-23
 -1       659 1.02624E-04 9.44356E-06-3.30872E-24
 -1       660 1.02543E-04 9.01531E-06-6.61744E-24
 -1       661 1.03502E-04 1.19895E-05 0.00000E+00
 -1       662 1.03276E-04 1.27832E-05 0.00000E+00
 -1       663 1.03071E-04 1.35215E-05 1.65436E-24
 -1       664 1.02886E-04 1.42077E-05 8.27181E-25
 -1       665 1.02719E-04 1.48447E-05 0.00000E+00
 -1       666 1.02569E-04 1.54351E-05-8.27181E-25
 -1       667 1.02437E-04 1.59817E-05-1.65436E-24
 -1       668 1.02319E-04 1.64872E-05 0.00000E+00
 -1       669 1.02216E-04 1.69540E-05 1.65436E-24
 -1       670 1.02127E-04 1.73845E-05-8.27181E-25
 -1       671 1.02051E-04 1.77811E-05-1.65436E-24
 -1       672 1.01986E-04 1.81460E-05-8.27181E-25
 -1       673 1.01932E-04 1.84815E-05 1.65436E-24
 -1       674 1.01888E-04 1.87894E-05 8.27181E-25
 -1       675 1.01854E-04 1.90722E-05-4.13590E-25
 -1       676 1.02954E-04 1.97250E-05 0.00000E+00
 -1       677 1.02727E-04 1.96455E-05 0.00000E+00
 -1       678 1.02501E-04 1.95660E-05 0.00000E+00
 -1       679 1.02274E-04 1.94868E-05 0.00000E+00
 -1       680 1.02049E-04 1.94076E-05 1.65436E-24
 -1       771 1.53313E-05 6.18272E-06 0.00000E+00
 -1       772 1.02626E-05 1.64380E-05 0.00000E+00
 -1       773 6.01935E-06 2.45503E-05 0.00000E+00
 -1       774 2.54626E-06 3.06507E-05 2.64698E-23
 -1       775-2.11322E-07 3.48736E-05 5.29396E-23
 -1       776-2.31018E-06 3.73595E-05 0.00000E+00
 -1       777-3.80753E-06 3.82518E-05 5.29396E-23
 -1       778-4.76181E-06 3.76991E-05 2.64698E-23
 -1       779-5.23164E-06 3.58523E-05-5.29396E-23
 -1       780-5.27666E-06 3.28667E-05 0.00000E+00
 -1       781-4.95656E-06 2.88993E-05 0.00000E+00
 -1       782-4.33179E-06 2.41105E-05 1.32349E-23
 -1       783-3.46279E-06 1.86618E-05-2.64698E-23
 -1       784-2.41055E-06 1.27172E-05-1.32349E-23
 -1       785-1.23595E-06 6.44136E-06 0.00000E+00
 -1       786 1.03066E-04 5.57546E-06 0.00000E+00
 -1       787 1.03114E-04 5.17438E-06 0.00000E+00
 -1       788 1.03161E-04 4.79899E-06 0.00000E+00
 -1       789 1.03210E-04 4.44430E-06 8.27181E-25
 -1       790 1.03258E-04 4.10763E-06 0.00000E+00
 -1       791 1.03307E-04 3.78632E-06-8.27181E-25
 -1       792 1.03356E-04 3.47944E-06 0.00000E+00
 -1       793 1.03404E-04 3.18608E-06-8.27181E-25
 -1       794 1.03453E-04 2.90684E-06 1.65436E-24
 -1       795 1.03502E-04 2.64235E-06 8.27181E-25
 -1       796 1.03550E-04 2.39488E-06 0.00000E+00
 -1       797 1.03599E-04 2.16674E-06 8.27181E-25
 -1       798 1.03648E-04 1.96239E-06 0.00000E+00
 -1       799 1.03696E-04 1.78635E-06-8.27181E-25
 -1       800 1.03745E-04 1.64628E-06 0.00000E+00
 -1       801 9.55738E-05 5.19515E-06-1.32349E-23
 -1       802 7.23121E-05 4.11889E-06 0.00000E+00
 -1       803 4.29503E-05 2.90065E-06 2.64698E-23
 -1       804 1.74308E-05 1.77591E-06 0.00000E+00
 -1       805 1.35866E-06 8.31504E-07 0.00000E+00
 -1       806 1.03102E-04 5.52890E-06-1.65436E-24
 -1       807 1.03173E-04 5.06780E-06 0.00000E+00
 -1       808 1.03236E-04 4.62763E-06-3.30872E-24
 -1       809 1.03290E-04 4.21124E-06 8.27181E-25
 -1       810 1.03334E-04 3.82148E-06-1.65436E-24
 -1       811 1.03366E-04 3.46109E-06-8.27181E-25
 -1       812 1.03387E-04 3.13284E-06-1.65436E-24
 -1       813 1.03395E-04 2.83949E-06 0.00000E+00
 -1       814 1.03388E-04 2.58376E-06-1.65436E-24
 -1       815 1.03366E-04 2.36840E-06-8.27181E-25
 -1       816 1.03329E-04 2.19614E-06 0.00000E+00
 -1       817 1.03274E-04 2.06972E-06 8.27181E-25
 -1       818 1.03200E-04 1.99187E-06 0.00000E+00
 -1       819 1.03108E-04 1.96530E-06-8.27181E-25
 -1       820 1.02996E-04 1.99273E-06-1.65436E-24
 -1       821 1.03702E-04 1.45674E-06 0.00000E+00
 -1       822 1.03605E-04 1.32722E-06 0.00000E+00
 -1       823 1.03509E-04 1.21674E-06 3.30872E-24
 -1       824 1.03411E-04 1.18054E-06-1.65436E-24
 -1       825 1.03314E-04 1.25894E-06 3.30872E-24
 -1       826 1.03216E-04 1.49173E-06 1.65436E-24
 -1       827 1.03119E-04 1.88765E-06 3.30872E-24
 -1       828 1.03021E-04 2.45471E-06 1.65436E-24
 -1       829 1.02923E-04 3.16652E-06 0.00000E+00
 -1       830 1.02825E-04 3.99600E-06 0.00000E+00
 -1       831 1.02727E-04 4.89245E-06 3.30872E-24
 -1       832 1.02629E-04 5.80484E-06 1.65436E-24
 -1       833 1.02531E-04 6.67894E-06 3.30872E-24
 -1       834 1.02435E-04 7.46069E-06-8.27181E-25
 -1       835 1.02338E-04 8.11455E-06 0.00000E+00
 -1       836 1.03787E-04 1.63762E-06 0.00000E+00
 -1       837 1.03678E-04 1.72729E-06 8.27181E-25
 -1       838 1.03499E-04 1.81681E-06 0.00000E+00
 -1       839 1.03282E-04 1.90575E-06 0.00000E+00
 -1       840 1.03059E-04 1.99455E-06-4.13590E-25
 -1       856 1.02224E-04 9.07105E-06 0.00000E+00
 -1       857 1.02198E-04 9.64143E-06 0.00000E+00
 -1       858 1.02172E-04 1.03002E-05 0.00000E+00
 -1       859 1.02145E-04 1.10309E-05-4.13590E-25
 -1       860 1.02118E-04 1.18168E-05-8.27181E-25
 -1       861 1.02092E-04 1.26412E-05-4.13590E-25
 -1       862 1.02065E-04 1.34875E-05-8.27181E-25
 -1       863 1.02038E-04 1.43389E-05 0.00000E+00
 -1       864 1.02011E-04 1.51786E-05 0.00000E+00
 -1       865 1.01984E-04 1.59899E-05 0.00000E+00
 -1       866 1.01958E-04 1.67561E-05 0.00000E+00
 -1       867 1.01931E-04 1.74606E-05 0.00000E+00
 -1       868 1.01904E-04 1.80867E-05 0.00000E+00
 -1       869 1.01877E-04 1.86180E-05-4.13590E-25
 -1       870 1.01851E-04 1.90379E-05 0.00000E+00
 -1       871 1.01986E-04 8.60447E-06 0.00000E+00
 -1       872 1.01831E-04 8.60118E-06 0.00000E+00
 -1       873 1.01736E-04 8.59748E-06 0.00000E+00
 -1       874 1.01653E-04 8.59326E-06 1.55096E-25
 -1       875 1.01537E-04 8.58857E-06-6.20385E-25
 -1       876 1.02166E-04 9.08058E-06 0.00000E+00
 -1       877 1.02069E-04 9.60664E-06 0.00000E+00
 -1       878 1.01955E-04 1.01775E-05 3.30872E-24
 -1       879 1.01826E-04 1.07876E-05 0.00000E+00
 -1       880 1.01685E-04 1.14310E-05 0.00000E+00
 -1       881 1.01533E-04 1.21021E-05 0.00000E+00
 -1       882 1.01374E-04 1.27952E-05 0.00000E+00
 -1       883 1.01208E-04 1.35045E-05 1.65436E-24
 -1       884 1.01038E-04 1.42244E-05 0.00000E+00
 -1       885 1.00866E-04 1.49491E-05 1.65436E-24
 -1       886 1.00695E-04 1.56729E-05 0.00000E+00
 -1       887 1.00526E-04 1.63902E-05 1.65436E-24
 -1       888 1.00362E-04 1.70952E-05 0.00000E+00
 -1       889 1.00203E-04 1.77821E-05-8.27181E-25
 -1       890 1.00054E-04 1.84451E-05-8.27181E-25
 -1       891 1.01618E-04 1.92878E-05 0.00000E+00
 -1       892 1.01395E-04 1.92454E-05 0.00000E+00
 -1       893 1.01132E-04 1.92030E-05 0.00000E+00
 -1       894 1.00811E-04 1.91606E-05-2.06795E-25
 -1       895 1.00411E-04 1.91184E-05 2.06795E-25
 -1       956 1.02770E-04 2.27790E-06 0.00000E+00
 -1       957 1.02675E-04 2.53841E-06 0.00000E+00
 -1       958 1.02580E-04 2.85181E-06 1.65436E-24
 -1       959 1.02485E-04 3.21120E-06 8.27181E-25
 -1       960 1.02389E-04 3.60967E-06 1.65436E-24
 -1       961 1.02294E-04 4.04025E-06 1.65436E-24
 -1       962 1.02198E-04 4.49599E-06 0.00000E+00
 -1       963 1.02103E-04 4.96992E-06 0.00000E+00
 -1       964 1.02007E-04 5.45509E-06-3.30872E-24
 -1       965 1.01912E-04 5.94451E-06 0.00000E+00
 -1       966 1.01816E-04 6.43124E-06-3.30872E-24
 -1       967 1.01720E-04 6.90831E-06 0.00000E+00
 -1       968 1.01625E-04 7.36874E-06 3.30872E-24
 -1       969 1.01530E-04 7.80561E-06 0.00000E+00
 -1       970 1.01435E-04 8.21198E-06 0.00000E+00
 -1       971 1.01253E-04 8.96599E-06-1.65436E-24
 -1       972 1.01163E-04 9.42816E-06-8.27181E-25
 -1       973 1.01074E-04 9.95913E-06 0.00000E+00
 -1       974 1.00984E-04 1.05500E-05 0.00000E+00
 -1       975 1.00894E-04 1.11920E-05 0.00000E+00
 -1       976 1.00804E-04 1.18762E-05 0.00000E+00
 -1       977 1.00714E-04 1.25936E-05 0.00000E+00
 -1       978 1.00624E-04 1.33354E-05 1.65436E-24
 -1       979 1.00534E-04 1.40926E-05 3.30872E-24
 -1       980 1.00444E-04 1.48564E-05 0.00000E+00
 -1       981 1.00354E-04 1.56178E-05 0.00000E+00
 -1       982 1.00264E-04 1.63678E-05 0.00000E+00
 -1       983 1.00174E-04 1.70977E-05 0.00000E+00
 -1       984 1.00085E-04 1.77985E-05 0.00000E+00
 -1       985 9.99959E-05 1.84613E-05 1.65436E-24
 -3
    1PSTEP                        18           9           1          
  100CL  109 5.09766E-01         409                     0    9           1
 -4  STRESS      6    1
 -5  SXX         1    4    1    1
 -5  SYY         1    4    2    2
 -5  SZZ         1    4    3    3
 -5  SXY         1    4    1    2
 -5  SYZ         1    4    2    3
 -5  SZX         1    4    3    1
 -1         1-2.27927E+06-9.49038E+05-4.85373E+05-1.18647E+06-2.69210E-10-3.32802E-08
 -1         2 1.27126E+03-7.82121E+05 4.13369E+03-1.66293E+03-1.08585E-10-7.06365E-09
 -1         3-2.53169E+02-1.02535E+06 2.32345E+02-6.13494E+02-2.27018E-10-3.12702E-08
 -1         5-1.17960E+00 2.67106E+05 6.83689E+00 4.48227E-02 2.72086E-11-3.91542E-08
 -1         8-1.07549E+06-3.73050E+05-1.19134E+05-4.84672E+05 4.91127E-11-3.79077E-09
 -1         9 4.28744E+05-5.35161E+05 1.57267E+05-5.66037E+05 1.83529E-08 1.66241E-08
 -1        10-9.76420E+02-1.06825E+06-1.97902E+03-4.15187E+03-5.59885E-09-1.91179E-08
 -1        12 1.62633E+00 2.67120E+05 2.21340E+02 3.70585E-01 1.04933E-10-1.47668E-09
 -1        15 1.78300E+03 9.79860E+02 5.76352E+03 3.52270E+00-1.29319E-11-8.64811E-08
 -1        16 1.60305E+06-9.08052E+05 2.09960E+05-1.17862E+06 1.54735E-08-1.68414E-08
 -1        17 6.66087E+05 4.72770E+05 2.46336E+05 5.49704E+05-5.64323E-09 8.14325E-09
 -1        18-3.60420E+04-1.33252E+04-2.98139E+04-7.14181E+04 5.75130E-09 1.81171E-09
 -1        19 8.54285E+04 9.91779E+04-6.48909E+02 1.67794E+04-2.33922E-10-8.64966E-09
 -1        20-4.19650E+04-4.04231E+05-8.96041E+04 2.65100E+04 2.12943E-09-8.17939E-10
 -1        21-3.68631E+01-2.27612E+05-7.28547E+02-3.53997E+01-5.25453E-09 1.44541E-08
 -1        24-7.57884E+04 1.06819E+06 3.26165E+05 8.64161E+05-6.84474E-08-2.49323E-08
 -1        25-8.04190E+04-4.70958E+05-9.35437E+04-1.14009E+05-5.43423E-11 1.26274E-09
 -1        26-2.85321E+04 6.54237E+04-1.55870E+04-5.73713E+03 1.36206E-09 2.23894E-09
 -1        27-6.07326E+04-2.20520E+05-8.22206E+04 4.98035E+04 4.97774E-09 3.39242E-10
 -1        28 1.75260E+04-6.36077E+04 1.29019E+04 1.89756E+04 7.77646E-10 8.83844E-11
 -1        32-1.09343E+06-1.30264E+06 9.67623E+04-5.28579E+05-2.49547E-08-7.51470E-11
 -1        33-1.28493E+05 6.38973E+04 2.28024E+04-3.25011E+04 4.30002E-10 2.01787E-09
 -1        34-1.63231E+05-1.65489E+04 4.19867E+02 5.13439E+04 1.90549E-09 1.67347E-10
 -1        35-1.78523E+04-2.52729E+04-9.94530E+02 3.96510E+04 2.94626E-09 8.27883E-09
 -1        51 2.21340E+04-3.09631E+05 5.25638E+04-8.70462E+05-2.91038E-11 1.70985E-08
 -1        52 1.08830E+04-3.04904E+05 3.20623E+04-1.01514E+06 7.49424E-10-1.93468E-08
 -1        53 6.27318E+03-3.17978E+05 2.38462E+04-8.67400E+05 4.29281E-10 2.80706E-08
 -1        54 1.74123E+04-3.16086E+05 3.39951E+04-1.01833E+06 2.32831E-10 4.29682E-08
 -1        55 3.50533E+04-3.28426E+05 5.81627E+04-8.66918E+05 1.89175E-10 2.40725E-08
 -1        56-4.34867E+06-4.86976E+05-3.57706E+05-1.68240E+06-5.43514E-09-3.63652E-08
 -1        57-4.51278E+06-7.91140E+05-2.41273E+05-1.64554E+06 2.09184E-09 5.12046E-08
 -1        58-4.41918E+06-6.01915E+05-8.41251E+04-1.66149E+06-8.64202E-09 1.12523E-08
 -1        59-4.43152E+06-6.55854E+05-5.02285E+04-1.66989E+06 2.97223E-09-1.78406E-08
 -1        60-4.42895E+06-6.18475E+05-1.96280E+04-1.65928E+06-2.64754E-09-1.96787E-08
 -1        61-4.42144E+06-6.35192E+05-1.11446E+04-1.67096E+06-1.32115E-09 5.79814E-09
 -1        62-4.42905E+06-6.22091E+05-5.32899E+03-1.66054E+06-7.48992E-09 1.01336E-08
 -1        63-4.42330E+06-6.29434E+05-4.34054E+03-1.66735E+06 3.16419E-09 2.20166E-08
 -1        64-4.42703E+06-6.24191E+05-4.87769E+03-1.66289E+06-4.83385E-09 2.79058E-08
 -1        65-4.42885E+06-6.27065E+05-9.78796E+03-1.66215E+06-8.85987E-09-3.41845E-09
 -1        66-4.42352E+06-6.24511E+05-1.70906E+04-1.66573E+06 5.94127E-09 9.38508E-09
 -1        67-4.44322E+06-6.39342E+05-4.35914E+04-1.65478E+06-1.02955E-09 2.60170E-08
 -1        68-4.41285E+06-6.12336E+05-7.29935E+04-1.67015E+06-5.12955E-10-5.75892E-09
 -1        69-4.51636E+06-7.54070E+05-2.09293E+05-1.63070E+06-3.50974E-09 1.29148E-09
 -1        70-4.35127E+06-5.13060E+05-3.10350E+05-1.68877E+06-5.34055E-09 9.85165E-09
 -1        86-6.39389E+02-7.83587E+05 4.40217E+03 8.31474E+02 8.19682E-10 2.75543E-09
 -1        87 4.21521E+03-7.80766E+05 9.20904E+03-3.07782E+03 1.37379E-09 1.62314E-08
 -1        88-3.56929E+03-7.84945E+05 1.41045E+04 2.24639E+03 1.89266E-09-2.21106E-08
 -1        89 2.65851E+04-7.70518E+05 3.80044E+04-5.22941E+03 2.83035E-09 4.22765E-08
 -1        90-2.29250E+04-7.93828E+05 5.37577E+04 2.98321E+03 2.22644E-09-4.48176E-08
 -1       121-3.68054E+02-1.02631E+06 9.36701E+01 3.06022E+02 5.65350E-10-9.09677E-09
 -1       122-1.68502E+02-1.02531E+06 4.92237E+02-1.22599E+03-2.35456E-09 7.11498E-09
 -1       123-4.17431E+02-1.02637E+06 6.59379E+02 9.15647E+02 1.69661E-09 3.03771E-10
 -1       124 8.02804E+02-1.02478E+06 2.03603E+03-2.64706E+03-4.37694E-09-5.89353E-10
 -1       125-1.02164E+03-1.02691E+06 2.94248E+03 1.72437E+03 2.97132E-09 3.11775E-09
 -1       191-1.46712E+00 2.67130E+05 8.36249E+00-2.24841E-02 4.08023E-11-1.18057E-08
 -1       192-1.80591E+00 2.67107E+05 1.44663E+01 2.22555E-01 7.97424E-11 2.45655E-09
 -1       193-3.13320E+00 2.67129E+05 2.70882E+01-2.00670E-01 2.86029E-11-5.81736E-09
 -1       194-3.82185E+00 2.67109E+05 5.46943E+01 5.37202E-01-4.20437E-11-1.17757E-09
 -1       195-6.33534E+00 2.67128E+05 1.07170E+02-3.38641E-01 1.22057E-10-7.14317E-09
 -1       251-1.46699E+06 2.29832E+04-5.55422E+04-2.13149E+04-1.31627E-09-8.55653E-09
 -1       252-1.48709E+06-2.63385E+04-3.83690E+04 4.86028E+04-2.30659E-09-4.23261E-08
 -1       253-1.47368E+06 3.48299E+03-1.41843E+04-2.77078E+04 2.23753E-10 1.17998E-08
 -1       254-1.47587E+06-3.60095E+03-8.41210E+03 4.67323E+04-2.79579E-09 3.01962E-08
 -1       255-1.47812E+06 2.71840E+02-4.21110E+03-1.94440E+04 1.87038E-09 2.67564E-08
 -1       256-1.46770E+06-2.52227E+02-4.50578E+02 1.99126E+04-9.63610E-10 3.62307E-08
 -1       257-1.48121E+06-3.56193E+02-2.13990E+03-8.84890E+02-9.57698E-10-5.52257E-09
 -1       258-1.46706E+06 2.63632E+02 1.15025E+03-1.76029E+04-2.04636E-10-6.10672E-09
 -1       259-1.47873E+06-2.71426E+02-1.00442E+03 1.80668E+04-9.78844E-10-1.13047E-08
 -1       260-1.47342E+06 4.39359E+02 1.38962E+02-4.57845E+04 5.09317E-10-4.24219E-08
 -1       261-1.47548E+06-3.50358E+01-5.12488E+02 2.72992E+04 8.81883E-09-9.81379E-09
 -1       262-1.47496E+06 3.48585E+01-9.46521E+02-4.96566E+04-5.11523E-09 4.45198E-10
 -1       263-1.47732E+06 2.36386E+02-2.39726E+03 2.19402E+04 9.65656E-10 4.91996E-08
 -1       264-1.47016E+06-3.03975E+03-3.87289E+03-2.71612E+04 6.70161E-09 3.40270E-08
 -1       265-1.47968E+06 2.54882E+03-8.89704E+03 4.79957E+03 2.74235E-09-3.05263E-08
 -1       266-3.22775E+04-1.50914E+04 7.57397E+04-7.53814E+01 1.34605E-10-3.03675E-09
 -1       267 3.74192E+04 1.75918E+04 5.35279E+04 8.69669E+01 4.91127E-11-1.88318E-08
 -1       268-5.01782E+03-2.49135E+03 1.98963E+04-1.10816E+01-8.18545E-12-3.45269E-09
 -1       269 5.92461E+03 2.98176E+03 1.29321E+04 1.29079E+01-4.47926E-11 1.70364E-08
 -1       270-8.89290E+02-4.89921E+02 6.24249E+03-1.75171E+00-9.09495E-12 4.60402E-09
 -1       271-2.98085E+06-3.71228E+05-2.24749E+05-1.15847E+06 7.33053E-09-1.65601E-08
 -1       272-3.06731E+06-5.29841E+05-1.44571E+05-1.15023E+06 6.50562E-09-8.55507E-08
 -1       273-3.02366E+06-4.26833E+05-5.30897E+04-1.14786E+06-8.48581E-09 1.87683E-08
 -1       274-3.01656E+06-4.62258E+05-2.97151E+04-1.16674E+06 4.96220E-09 5.53046E-08
 -1       275-3.03066E+06-4.31501E+05-1.23720E+04-1.14479E+06-2.09548E-09 8.35280E-09
 -1       276-3.00753E+06-4.57496E+05-6.53532E+03-1.17209E+06-1.59107E-08 1.73541E-08
 -1       277-3.03285E+06-4.30675E+05-3.21369E+03-1.14298E+06 1.09294E-08-3.52254E-08
 -1       278-3.00458E+06-4.59085E+05-2.25859E+03-1.17522E+06-1.03428E-08 3.63709E-08
 -1       279-3.03386E+06-4.29682E+05-2.37469E+03-1.14188E+06-2.19507E-09-2.81047E-09
 -1       280-3.00377E+06-4.60866E+05-4.28129E+03-1.17678E+06-3.41595E-09-1.29868E-08
 -1       281-3.03383E+06-4.28829E+05-7.75441E+03-1.14152E+06-3.48336E-09-4.33215E-08
 -1       282-3.00730E+06-4.66071E+05-1.86035E+04-1.17617E+06-8.68008E-09 6.38788E-08
 -1       283-3.03044E+06-4.24924E+05-3.30705E+04-1.14235E+06-8.50378E-11 1.58998E-08
 -1       284-3.03740E+06-5.09812E+05-9.02140E+04-1.16767E+06 4.25894E-09-5.60722E-08
 -1       285-3.00435E+06-3.89653E+05-1.40176E+05-1.14830E+06 2.83762E-10-4.77885E-08
 -1       301 1.82790E+04-1.73584E+05 1.28165E+05-3.39466E+05-1.78261E-10-1.00135E-08
 -1       302 2.01514E+04-1.41908E+05 8.60696E+04-4.97546E+05 8.13998E-10 4.00214E-08
 -1       303 1.92542E+03-1.61049E+05 6.89098E+04-3.39002E+05-4.03816E-10 4.03743E-08
 -1       304 2.48829E+04-1.34405E+05 1.04846E+05-4.96839E+05 7.53062E-10 4.82742E-08
 -1       305 2.23911E+04-1.76171E+05 1.69405E+05-3.40263E+05-4.22006E-10 2.42726E-08
 -1       306-9.96953E+06-1.37946E+06-1.84567E+06-1.84421E+06-5.92263E-08 8.55653E-09
 -1       307 2.68809E+06-1.38475E+06 9.76281E+05-4.12090E+06-3.02207E-07-6.14527E-08
 -1       308-6.48213E+06 2.89683E+05-2.31470E+05 4.25864E+05 1.28814E-07 1.42027E-08
 -1       309-2.38210E+06-1.66698E+06 2.56165E+05-6.99460E+06 1.63980E-07-3.82579E-08
 -1       310-6.61274E+06 2.68402E+05-1.91191E+05 3.73080E+05-1.07830E-07 1.47793E-08
 -1       311 2.93215E+06-1.49285E+06 1.19505E+06-3.84818E+06 5.80039E-08-1.38607E-08
 -1       312-9.97128E+06-1.33748E+06-1.39956E+06-2.00308E+06-3.01807E-08-6.11108E-08
 -1       313 5.49262E+06 1.17885E+06 2.06563E+06 2.05073E+06-1.71945E-07 4.34229E-08
 -1       314-7.96204E+06-3.25507E+06-1.37736E+06-4.10797E+06 3.46336E-09-4.71482E-09
 -1       315-3.14868E+06 4.36918E+06 1.15734E+06 2.52395E+06 1.60799E-08-2.89110E-07
 -1       316-3.05899E+06-3.17344E+06-1.67414E+05-3.43323E+06 1.20228E-07-1.31695E-07
 -1       317-9.02511E+06 4.96638E+06 2.46451E+05 3.53775E+05 1.17530E-07-3.48139E-07
 -1       318-3.10179E+06-3.19320E+06-2.73548E+05-3.43985E+06-4.24538E-07-9.79562E-08
 -1       319-2.99427E+06 4.46983E+06 9.67803E+05 2.51986E+06-3.30016E-07 1.94996E-09
 -1       320-8.05638E+06-3.34739E+06-1.93514E+06-4.07634E+06-1.38360E-07-2.21407E-08
 -1       336 5.56257E+02-1.11100E+06-7.28073E+03 2.41544E+03-1.10972E-08 5.70435E-09
 -1       337-2.77666E+03-1.11244E+06-9.15832E+03-5.96675E+03-2.07567E-08 1.03682E-09
 -1       338 6.79803E+02-1.11088E+06-1.31730E+04 3.52866E+03-1.49562E-08-4.15821E-09
 -1       339-1.41671E+04-1.11962E+06-2.98686E+04-8.15904E+03-2.68233E-08 1.69348E-09
 -1       340 9.59787E+03-1.10410E+06-4.65574E+04 4.58002E+03-1.73895E-08 1.04919E-08
 -1       406 1.87161E+01 2.67118E+05 4.37172E+02-3.50224E-02 1.86560E-10-1.10413E-09
 -1       407 1.53959E+02 2.67197E+05 9.28725E+02-2.32651E+00 1.58735E-11-1.31349E-08
 -1       408 4.79818E+02 2.67051E+05 1.85509E+03 2.41382E+00 1.97133E-10-6.20139E-09
 -1       409 2.00703E+03 2.67790E+05 4.17592E+03-2.35261E+01-1.38698E-11-5.41422E-09
 -1       410 5.76365E+03 2.66524E+05 8.52512E+03 2.20500E+01 1.20053E-10 5.32850E-10
 -1       521-1.26745E+07-1.90833E+06-2.41630E+06-2.29222E+06-4.04543E-08 4.20259E-08
 -1       522 1.32669E+06-2.16213E+06 8.77857E+05-6.51950E+06-2.28349E-07-7.23594E-08
 -1       523-9.29183E+06 2.53033E+05-2.86702E+05 3.71577E+05-3.47791E-08-9.87493E-08
 -1       524-4.87123E+06-1.94459E+06 2.79964E+05-1.01755E+07 3.27666E-07-3.96985E-07
 -1       525-9.46028E+06 1.93634E+05-2.22415E+05 2.95047E+05 2.34606E-07-1.48983E-07
 -1       526 1.79267E+06-2.21432E+06 1.26746E+06-6.10873E+06 5.13246E-08-1.19926E-08
 -1       527-1.27245E+07-1.98460E+06-1.72800E+06-2.49619E+06 1.40630E-07-1.16997E-08
 -1       528 4.65009E+06 9.51785E+05 2.15720E+06 1.81765E+06 3.74857E-08 8.87667E-09
 -1       529-1.02131E+07-4.39405E+06-1.69881E+06-5.13380E+06-7.29342E-08-8.26258E-08
 -1       530-6.42321E+06 5.75473E+06 1.23227E+06 2.48816E+06-1.12806E-07 5.76692E-08
 -1       531-4.70347E+06-4.44645E+06-1.88188E+05-4.81178E+06-4.08603E-07 1.16124E-08
 -1       532-1.36812E+07 6.86307E+06 2.82912E+05-4.86146E+05 2.47619E-07-2.74617E-07
 -1       533-4.70114E+06-4.45271E+06-3.12200E+05-4.80656E+06 4.72501E-08-4.08938E-07
 -1       534-6.41373E+06 5.84440E+06 9.31510E+05 2.45216E+06-8.98726E-08 3.05721E-07
 -1       535-1.02362E+07-4.46937E+06-2.42056E+06-5.11278E+06 6.81030E-09 1.93171E-07
 -1       536-4.06531E+05-1.34246E+04 1.41107E+04-1.55949E+04-1.39221E-09 2.57060E-08
 -1       537-3.29440E+05 1.44477E+04 2.24006E+04 3.83645E+04-4.42355E-08 2.98473E-08
 -1       538-3.68445E+05-7.59146E+02 5.64501E+03-2.36835E+04 1.24009E-08 4.21060E-08
 -1       539-3.52451E+05 1.70181E+03 6.22826E+03 4.30705E+04 5.16344E-08 3.87695E-08
 -1       540-3.83988E+05-3.11715E+02-1.79569E+03-2.03170E+04 6.88829E-10 3.03469E-08
 -1       541-2.99630E+05 2.36949E+03 1.43160E+04 2.56606E+04-6.13068E-09 1.86260E-08
 -1       542-4.19855E+05-2.57427E+03-1.03649E+04-6.23853E+03 2.29015E-08 1.65326E-08
 -1       543-2.73036E+05 3.24748E+03 1.88424E+04-6.24317E+03-3.00997E-09-1.16354E-08
 -1       544-4.09877E+05-1.75994E+03-9.10047E+03 1.15553E+04-4.11524E-09-1.02004E-08
 -1       545-3.22306E+05 4.52938E+02 7.48858E+03-3.47309E+04-1.44447E-08-2.81365E-08
 -1       546-3.71878E+05 1.26757E+03-3.42993E+03 2.22405E+04 7.38589E-09-2.59370E-08
 -1       547-3.58525E+05-3.51154E+03-4.69592E+03-4.46508E+04-3.62985E-08-3.13746E-08
 -1       548-3.74584E+05 2.95259E+03-1.22524E+04 2.15022E+04-3.47101E-08-3.11170E-08
 -1       549-3.22055E+05-1.58228E+04-1.74612E+04-3.18186E+04-2.35143E-08-1.16720E-08
 -1       550-4.07212E+05 1.26451E+04-5.13724E+04 9.37727E+03 1.44519E-09-9.65156E-09
 -1       551 1.26855E+04-4.93551E+05 1.56176E+04-7.70695E+05-4.73447E-08 8.00355E-10
 -1       552 2.96534E+04-5.02637E+05 2.54588E+04-1.09727E+06-3.44444E-08 1.40644E-08
 -1       553 2.15500E+04-5.07559E+05 4.18806E+04-7.67556E+05-5.70217E-08 1.29367E-08
 -1       554 5.54478E+04-4.96860E+05 9.10073E+04-1.09892E+06-3.66126E-08 5.69435E-09
 -1       555 4.99469E+04-5.27644E+05 1.63817E+05-7.67826E+05-5.73564E-08-8.44739E-09
 -1       556 1.04235E+05-1.92454E+05 4.49297E+04-2.36053E+05-9.58971E-09-3.41970E-09
 -1       557 1.77275E+05-2.53363E+05 2.40052E+04-2.99574E+05-1.74623E-09 6.63022E-09
 -1       558 1.01042E+05-1.96580E+05 9.10147E+03-2.31820E+05-9.08040E-09-5.95537E-09
 -1       559 1.66921E+05-2.59042E+05 4.81396E+03-3.05756E+05 8.81846E-09-2.87037E-09
 -1       560 9.72338E+04-1.94121E+05 1.64930E+03-2.34361E+05 3.33239E-09 3.63798E-11
 -1       561 1.61766E+05-2.57297E+05 1.01625E+03-3.09130E+05 3.49246E-10 5.08408E-09
 -1       562 9.42675E+04-1.92218E+05 2.19926E+02-2.36481E+05 1.06229E-09-6.71935E-09
 -1       563 1.58311E+05-2.55792E+05 2.54795E+02-3.11350E+05 8.15999E-09-1.19554E-08
 -1       564 9.23276E+04-1.90992E+05 4.23440E+01-2.37850E+05 9.26229E-09-1.69211E-09
 -1       565 1.56324E+05-2.54931E+05 9.33856E+01-3.12607E+05 4.08181E-09 4.22006E-10
 -1       566 9.14525E+04-1.90429E+05 7.78472E+00-2.38469E+05-5.16593E-09-8.13088E-09
 -1       567 1.55775E+05-2.54680E+05-5.66618E+01-3.12875E+05 1.04974E-08-5.53518E-09
 -1       568 9.16796E+04-1.90583E+05-2.83882E+02-2.38387E+05-5.70435E-09-8.37827E-09
 -1       569 1.55905E+05-2.54542E+05-6.87352E+02-3.11439E+05-5.60067E-09-2.24281E-09
 -1       570 9.36421E+04-1.92216E+05-1.62170E+03-2.38182E+05 2.60479E-09 2.30648E-09
 -1       571 1.99863E+05 7.37706E+03 1.08783E+04-5.18622E+04 2.14550E-09 9.51445E-09
 -1       572 2.01477E+05 2.59358E+03 5.32978E+03-5.68754E+04 2.81602E-09-5.95560E-09
 -1       573 2.00512E+05 6.45721E+02 2.36785E+03-5.17409E+04 1.03100E-08 2.98496E-09
 -1       574 2.00699E+05 2.39177E+02 1.18651E+03-5.70141E+04 1.76358E-08 1.41063E-09
 -1       575 2.00585E+05 6.42979E+01 5.59477E+02-5.17248E+04 9.23819E-10 5.14547E-09
 -1       576 2.00595E+05 4.78632E+01 2.85308E+02-5.70326E+04-1.81066E-08-5.33646E-09
 -1       577 2.00599E+05 3.11211E+01 1.41436E+02-5.17226E+04 6.02085E-10-3.64253E-10
 -1       578 2.00590E+05 3.54098E+01 7.90259E+01-5.70349E+04 1.82272E-08 4.83033E-09
 -1       579 2.00616E+05 2.54432E+01 5.15583E+01-5.17225E+04 8.23547E-09-6.43468E-10
 -1       580 2.00614E+05 2.52621E+01 5.38303E+01-5.70318E+04-5.42786E-09 1.74987E-09
 -1       581 2.00645E+05 1.42179E+01 7.88188E+01-5.17257E+04-1.05956E-09 1.21508E-09
 -1       582 2.00666E+05 2.91829E+01 1.55058E+02-5.69995E+04-1.79307E-09 8.36326E-09
 -1       583 2.00677E+05 6.44459E+01 2.99816E+02-5.17548E+04-1.04592E-08-1.98384E-09
 -1       584 2.00817E+05 3.02124E+02 6.73925E+02-5.67558E+04-2.00407E-08-9.43760E-09
 -1       585 2.00642E+05 8.94413E+02 1.36931E+03-5.19698E+04-7.56972E-09 1.88993E-09
 -1       586-2.44347E+03 6.55529E+04-3.03191E+03-1.79218E+05-3.80169E-10-5.12659E-09
 -1       587-5.66430E+02 6.51739E+04-1.18344E+02-1.97258E+05-5.31145E-10-1.55660E-08
 -1       588 6.81431E+02 6.52165E+04 2.69471E+03-1.79130E+05-5.82077E-10 8.89486E-09
 -1       589 3.69228E+03 6.66726E+04 7.54436E+03-1.97056E+05-1.20417E-09 5.63114E-09
 -1       590 1.08319E+04 6.43568E+04 1.60450E+04-1.79429E+05-1.03682E-09 1.44064E-09
 -1       591-4.14375E+04-1.10761E+04-1.40684E+04-2.04003E+04-6.06974E-10 5.52245E-09
 -1       592-4.31681E+04-1.41192E+04-7.62021E+03-2.35995E+04 1.23873E-09 1.48532E-09
 -1       593-4.28535E+04-1.00460E+04-3.17222E+03-2.14228E+04-8.90964E-10-5.82986E-09
 -1       594-4.12140E+04-1.20675E+04-1.58215E+03-2.36885E+04-1.07599E-09 4.54591E-09
 -1       595-4.29618E+04-1.00418E+04-7.26897E+02-2.14696E+04-1.22282E-09 1.02694E-08
 -1       596-4.10812E+04-1.19735E+04-3.70275E+02-2.36739E+04 4.30842E-09 7.79013E-09
 -1       597-4.29754E+04-1.00511E+04-2.03224E+02-2.14714E+04 1.76041E-09 3.42249E-09
 -1       598-4.10683E+04-1.19699E+04-1.66303E+02-2.36698E+04-2.14607E-09-6.40230E-09
 -1       599-4.29744E+04-1.00512E+04-2.16086E+02-2.14710E+04 1.10992E-09 4.51598E-09
 -1       600-4.10822E+04-1.19746E+04-4.04351E+02-2.36732E+04 2.24929E-10-2.74895E-10
 -1       601-4.29576E+04-1.00416E+04-7.99208E+02-2.14684E+04 4.85556E-10 9.97204E-09
 -1       602-4.12283E+04-1.20777E+04-1.74261E+03-2.36872E+04-6.49652E-09 6.81257E-09
 -1       603-4.28367E+04-1.00480E+04-3.49507E+03-2.14172E+04-5.70049E-09-3.83216E-09
 -1       604-4.33907E+04-1.43277E+04-8.39578E+03-2.35756E+04-1.70633E-09-5.13319E-09
 -1       605-4.12649E+04-1.11925E+04-1.55002E+04-2.03011E+04 1.02375E-10 6.42649E-09
 -1       606 2.55710E+04-9.58297E+03-1.72375E+04 2.47774E+04-1.46247E-09-3.69982E-09
 -1       607 2.26204E+04-3.10042E+03-8.58345E+03 2.78174E+04-1.71349E-09-1.13562E-08
 -1       608 2.42958E+04-5.31492E+02-3.84357E+03 2.45822E+04-5.16593E-10-4.16708E-09
 -1       609 2.39648E+04-1.48586E+02-1.94134E+03 2.80356E+04-1.56706E-09 1.60067E-08
 -1       610 2.41432E+04 1.32118E+01-9.27100E+02 2.45602E+04-1.33969E-09 1.23612E-08
 -1       611 2.40825E+04 2.33999E+01-4.67497E+02 2.80595E+04-2.00998E-09 6.35055E-09
 -1       612 2.41036E+04 2.74300E+01-2.23294E+02 2.45580E+04-1.65073E-09 3.28782E-10
 -1       613 2.40820E+04 3.08071E+01-1.01140E+02 2.80623E+04-5.87534E-09-1.41108E-08
 -1       614 2.40823E+04 2.72481E+01-2.67210E+01 2.45573E+04-1.54841E-08 5.44105E-10
 -1       615 2.40718E+04 3.54465E+01 3.53459E+01 2.80627E+04-2.09743E-08-1.75169E-09
 -1       616 2.40660E+04 3.23247E+01 1.12442E+02 2.45575E+04-1.14305E-08-8.55403E-09
 -1       617 2.40803E+04 6.25409E+01 2.59197E+02 2.80622E+04 2.08388E-09-1.93779E-08
 -1       618 2.40398E+04 1.09451E+02 5.23348E+02 2.45577E+04 2.22371E-10 1.49475E-09
 -1       619 2.42620E+04 4.69194E+02 1.17588E+03 2.80615E+04-1.13562E-09 2.41471E-09
 -1       620 2.38640E+04 1.35239E+03 2.36362E+03 2.45568E+04 6.89170E-10-6.25278E-10
 -1       621 2.62694E+02 2.07600E+05 2.38084E+03 1.19620E+04-2.00771E-10-1.19644E-09
 -1       622 3.14863E+02 2.08185E+05 2.16426E+03 1.74210E+04-4.92264E-11-8.93692E-10
 -1       623 1.76375E+01 2.07745E+05 2.67570E+03 1.19046E+04 1.19059E-10 2.72030E-09
 -1       624 1.26642E+03 2.09050E+05 5.24412E+03 1.74794E+04 8.16840E-11 1.10249E-08
 -1       625 1.27288E+03 2.06718E+05 9.19346E+03 1.19033E+04 1.08685E-10 3.46347E-09
 -1       626 1.80160E+05 4.81178E+04 3.84999E+03 9.48073E+04 3.57431E-10 1.16870E-08
 -1       627 1.77952E+05 4.96329E+04 1.85516E+03 9.85380E+04-9.40872E-10 3.08057E-09
 -1       628 1.80284E+05 4.63211E+04 7.83827E+02 9.54180E+04 7.25777E-10-4.39286E-09
 -1       629 1.77426E+05 4.91657E+04 3.83847E+02 9.87609E+04 3.32875E-09 2.70211E-09
 -1       630 1.80293E+05 4.62358E+04 1.77380E+02 9.54379E+04 2.50475E-09-4.08809E-09
 -1       631 1.77365E+05 4.91525E+04 9.48357E+01 9.87622E+04-2.75213E-09-1.92986E-08
 -1       632 1.80285E+05 4.62418E+04 6.14062E+01 9.54309E+04 7.79346E-09-7.83729E-09
 -1       633 1.77353E+05 4.91569E+04 6.68625E+01 9.87558E+04 1.89177E-08-8.80618E-10
 -1       634 1.80276E+05 4.62422E+04 1.06666E+02 9.54272E+04 1.08178E-08-5.48062E-09
 -1       635 1.77358E+05 4.91580E+04 2.15197E+02 9.87561E+04-4.13911E-09-1.43466E-08
 -1       636 1.80266E+05 4.62408E+04 4.34166E+02 9.54246E+04-3.03487E-09-1.35628E-09
 -1       637 1.77448E+05 4.92267E+04 9.54045E+02 9.87525E+04 4.09091E-09 8.32051E-09
 -1       638 1.80229E+05 4.64530E+04 1.96048E+03 9.53273E+04-4.43379E-11-7.79119E-09
 -1       639 1.78475E+05 5.06594E+04 4.63800E+03 9.84472E+04-1.60810E-09-3.34330E-09
 -1       640 1.80091E+05 5.07240E+04 9.62490E+03 9.35172E+04 3.00633E-09 1.70871E-09
 -1       656 4.78497E+04-1.21475E+06-1.15515E+05-5.58066E+02 5.60249E-10-2.00009E-09
 -1       657-6.32532E+04-1.26691E+06-9.55843E+04 7.00830E+03 4.48381E-10 1.05041E-08
 -1       658 1.52002E+04-1.22961E+06-5.87269E+04-1.75615E+03 7.73070E-12-3.93931E-09
 -1       659-6.80101E+04-1.26916E+06-1.01832E+05 7.85286E+03 4.15639E-10-2.97472E-09
 -1       660 5.25951E+04-1.21251E+06-1.26262E+05-1.40261E+03-3.63798E-10 6.64315E-10
 -1       661 1.55533E+05 1.68147E+04 1.52203E+04 6.08057E+04-4.88853E-10 2.65027E-09
 -1       662 1.63626E+05 2.85889E+04 1.02562E+04 5.79722E+04 2.25344E-09-4.29088E-09
 -1       663 1.58518E+05 2.17016E+04 3.58758E+03 5.99433E+04 3.67095E-10-2.95609E-09
 -1       664 1.60171E+05 2.28694E+04 2.14515E+03 5.90215E+04 2.90390E-09-2.43983E-09
 -1       665 1.58966E+05 2.23735E+04 8.46238E+02 5.98169E+04-1.78528E-09-5.16104E-09
 -1       666 1.59645E+05 2.20973E+04 4.93903E+02 5.91839E+04-7.17642E-09 1.46188E-08
 -1       667 1.59041E+05 2.24535E+04 2.60925E+02 5.97885E+04-1.20590E-09-3.35108E-09
 -1       668 1.59564E+05 2.20350E+04 2.62535E+02 5.92246E+04-1.94130E-09-3.18158E-09
 -1       669 1.59046E+05 2.24340E+04 3.52753E+02 5.97767E+04 1.14808E-09 1.03358E-08
 -1       670 1.59653E+05 2.22219E+04 7.65570E+02 5.92239E+04 2.93414E-09 5.99785E-09
 -1       671 1.58952E+05 2.22703E+04 1.35850E+03 5.97877E+04 4.96669E-12 8.16232E-09
 -1       672 1.60446E+05 2.35421E+04 3.47502E+03 5.90310E+04 6.66596E-10-7.86866E-09
 -1       673 1.58257E+05 2.11471E+04 5.82334E+03 5.99568E+04-2.13254E-09-2.23076E-09
 -1       674 1.65992E+05 3.28951E+04 1.66536E+04 5.73995E+04 5.99130E-10 6.04632E-09
 -1       675 1.53443E+05 1.31789E+04 2.47192E+04 6.13206E+04 2.02181E-09 2.78305E-10
 -1       676 1.89028E+01-2.27551E+05-8.78087E+02 1.77003E+01-1.02503E-09-4.47675E-09
 -1       677-2.33165E+02-2.27764E+05-1.60700E+03-3.53822E+01-2.02272E-09-6.64555E-10
 -1       678 1.55655E+02-2.27400E+05-2.84075E+03 1.76698E+01 2.88537E-10-6.46359E-09
 -1       679-2.84146E+03-2.29478E+05-6.74822E+03-3.52633E+01-1.01238E-09 3.48522E-09
 -1       680 1.69576E+03-2.25837E+05-1.08759E+04 1.73807E+01 8.69477E-10 3.16280E-09
 -1       771-2.41835E+06-4.78815E+05-7.41713E+04-1.06274E+06-1.54832E-08-1.41445E-08
 -1       772-2.38610E+06-5.26182E+05-3.91775E+04-1.11643E+06-1.02445E-08 4.98039E-09
 -1       773-2.43062E+06-4.69161E+05-1.80534E+04-1.06726E+06-1.09430E-08 6.23550E-09
 -1       774-2.37748E+06-5.18090E+05-8.47554E+03-1.12433E+06 5.61704E-09 2.49202E-09
 -1       775-2.43513E+06-4.66016E+05-5.08438E+03-1.06842E+06-7.24685E-09 2.59024E-09
 -1       776-2.37925E+06-5.17834E+05-2.11943E+03-1.12946E+06-4.51109E-09 2.45200E-09
 -1       777-2.43871E+06-4.63393E+05-1.82184E+03-1.06939E+06 3.98722E-09 7.02494E-09
 -1       778-2.38146E+06-5.17767E+05-6.10873E+02-1.13377E+06 3.44880E-09 4.06726E-09
 -1       779-2.44168E+06-4.61162E+05-8.16123E+02-1.07022E+06 6.88306E-09 3.69073E-09
 -1       780-2.38342E+06-5.17678E+05-2.35828E+02-1.13726E+06 9.83346E-09 2.33376E-09
 -1       781-2.44396E+06-4.59392E+05-4.45540E+02-1.07086E+06-9.42964E-09-1.84991E-09
 -1       782-2.38494E+06-5.17590E+05-2.76752E+02-1.13982E+06-1.61453E-08-3.11138E-09
 -1       783-2.44553E+06-4.58197E+05-5.85102E+02-1.07131E+06 1.28421E-09-2.45427E-09
 -1       784-2.38617E+06-5.17814E+05-1.14745E+03-1.14136E+06-9.18953E-09 5.42286E-10
 -1       785-2.44611E+06-4.57744E+05-2.17021E+03-1.07138E+06-1.75987E-08 3.50065E-09
 -1       786 1.35356E+05-8.60278E+03 1.99022E+04-8.05892E+01 1.21666E-09 5.06407E-09
 -1       787 1.43984E+05 9.95932E+03 1.40803E+04 2.32482E+01 2.57032E-09 8.38122E-09
 -1       788 1.38684E+05-1.34854E+03 5.15035E+03-6.20016E+01 1.22653E-09 6.23731E-09
 -1       789 1.40107E+05 1.56024E+03 3.23488E+03-7.28145E+00 5.08406E-10-4.15912E-09
 -1       790 1.39233E+05-2.10531E+02 1.31363E+03-5.00622E+01 1.46623E-10 1.93307E-09
 -1       791 1.39466E+05 2.43858E+02 7.66232E+02-2.86136E+01-2.74924E-10 7.40948E-09
 -1       792 1.39325E+05-3.31473E+01 3.39749E+02-4.06695E+01-5.63762E-10-8.50258E-09
 -1       793 1.39359E+05 4.17369E+01 2.02377E+02-4.71791E+01-2.50523E-10-1.42571E-08
 -1       794 1.39340E+05-8.54033E+00 1.18929E+02-3.14965E+01 6.43045E-10 5.73054E-09
 -1       795 1.39352E+05 3.22640E+01 1.27261E+02-6.74048E+01-6.02367E-10 6.25434E-09
 -1       796 1.39333E+05-2.36768E+01 1.63548E+02-2.04434E+01 7.13396E-10 4.69138E-09
 -1       797 1.39419E+05 1.70878E+02 3.63230E+02-9.38888E+01 1.04123E-09 5.98317E-09
 -1       798 1.39273E+05-1.47054E+02 5.66133E+02-5.01196E+00 2.39465E-10 2.30042E-09
 -1       799 1.39841E+05 1.08543E+03 1.53692E+03-1.32678E+02 8.86679E-10 2.79354E-09
 -1       800 1.38910E+05-9.37497E+02 2.16918E+03 1.83465E+01-4.56994E-11-1.48304E-09
 -1       801 7.09266E+04-2.40013E+06-2.20776E+05 3.96107E+04 1.57597E-08-4.63388E-09
 -1       802-8.35519E+04-2.23636E+06-1.05037E+05-5.18012E+04 4.28154E-08-2.77578E-09
 -1       803 1.13033E+04-2.31355E+06-3.77380E+04 1.04653E+05 3.20433E-08 2.68384E-08
 -1       804 1.78267E+04-2.20326E+06 2.78360E+04-1.65461E+04 3.21525E-08 3.13018E-08
 -1       805-3.14669E+04-2.43275E+06 1.75790E+04 4.34893E+03 1.18525E-08 1.88063E-08
 -1       806-2.19628E+05-4.29310E+04-1.67466E+04-8.72503E+04 1.37425E-09 5.19412E-09
 -1       807-2.20987E+05-4.01572E+04-8.22734E+03-9.12601E+04 2.05910E-09 1.00684E-10
 -1       808-2.20082E+05-3.69024E+04-3.49024E+03-9.01132E+04-2.81307E-09 2.82097E-09
 -1       809-2.19256E+05-3.78483E+04-1.70656E+03-9.14673E+04-1.27989E-09 4.94094E-09
 -1       810-2.20153E+05-3.66915E+04-7.81820E+02-9.02404E+04-2.82171E-09 7.51243E-10
 -1       811-2.19123E+05-3.77555E+04-3.88396E+02-9.14434E+04-9.19135E-09-1.01630E-08
 -1       812-2.20165E+05-3.67084E+04-1.95299E+02-9.02404E+04-7.77391E-09 1.99293E-09
 -1       813-2.19106E+05-3.77569E+04-1.25418E+02-9.14317E+04-1.98838E-09-8.48718E-09
 -1       814-2.20162E+05-3.67143E+04-1.21496E+02-9.02381E+04-7.02448E-09-5.98811E-09
 -1       815-2.19109E+05-3.77584E+04-1.93752E+02-9.14285E+04-3.66413E-09 9.60085E-09
 -1       816-2.20150E+05-3.67125E+04-3.65459E+02-9.02362E+04-4.07181E-09 7.02084E-09
 -1       817-2.19173E+05-3.77931E+04-7.84401E+02-9.14227E+04-1.53341E-09 2.46109E-09
 -1       818-2.20105E+05-3.68217E+04-1.59921E+03-9.01845E+04-8.64020E-11-1.45974E-09
 -1       819-2.20050E+05-3.87589E+04-3.76379E+03-9.12175E+04-6.23095E-09-2.06296E-09
 -1       820-2.19808E+05-3.96608E+04-7.66011E+03-8.89659E+04-1.24965E-09-2.16528E-09
 -1       821-2.72591E+05 1.50743E+04-3.48617E+04 2.22611E+02 1.02871E-09-4.47471E-10
 -1       822-2.87699E+05-1.74509E+04-2.46698E+04-7.36216E+02-1.31472E-09-1.22022E-08
 -1       823-2.78422E+05 2.36335E+03-9.02934E+03 1.98009E+02-1.21080E-10-5.83577E-09
 -1       824-2.80896E+05-2.73519E+03-5.68062E+03-5.62319E+02 3.62377E-11 1.23729E-08
 -1       825-2.79392E+05 3.69755E+02-2.33629E+03 4.87122E+01-1.43501E-09 1.03234E-08
 -1       826-2.79766E+05-4.35957E+02-1.40850E+03-2.00832E+02-2.96529E-09-1.20812E-08
 -1       827-2.79551E+05 6.55363E+01-7.32482E+02-1.63485E+02-2.73959E-09-7.03122E-09
 -1       828-2.79616E+05-1.33574E+02-6.46845E+02 1.99680E+02-4.41087E-09-5.07575E-09
 -1       829-2.79542E+05 6.76771E+01-7.47335E+02-3.51807E+02-3.35069E-10-1.95033E-09
 -1       830-2.79795E+05-4.51916E+02-1.45997E+03 4.75204E+02 1.69647E-09-8.07313E-09
 -1       831-2.79372E+05 3.83964E+02-2.41937E+03-4.39013E+02-2.39620E-09-6.45059E-09
 -1       832-2.80959E+05-2.83799E+03-5.89613E+03 5.13166E+02-1.25905E-09 7.42784E-09
 -1       833-2.78379E+05 2.45208E+03-9.37034E+03-3.89769E+02-3.61048E-10-1.69121E-09
 -1       834-2.87993E+05-1.81088E+04-2.55991E+04 2.98211E+02 6.47900E-11 5.62659E-09
 -1       835-2.72339E+05 1.56428E+04-3.61821E+04-2.24049E+02 5.62663E-09 1.34442E-08
 -1       836-9.19870E+02 2.56724E+05 1.55531E+04-1.71495E+04 3.20142E-10 9.49649E-09
 -1       837 3.39730E+03 2.61555E+05 1.33078E+04-3.44716E+04 5.67297E-10 2.03363E-08
 -1       838-3.49888E+02 2.58061E+05 1.37651E+04-1.70854E+04 6.54836E-10 1.04644E-08
 -1       839 8.82569E+03 2.65602E+05 2.62420E+04-3.45048E+04 9.86347E-10 9.29099E-09
 -1       840-2.67179E+03 2.52640E+05 4.19334E+04-1.71153E+04 7.07587E-10-5.70026E-10
 -1       856-7.22785E+04 6.95973E+03-1.83406E+04-3.94731E+02-1.88408E-09 6.56655E-10
 -1       857-7.98523E+04-8.16452E+03-1.26269E+04 4.33026E+03-2.48602E-09-8.72365E-09
 -1       858-7.52716E+04 9.75293E+02-4.75969E+03-4.13553E+02-2.67744E-09 3.02225E-09
 -1       859-7.64153E+04-1.13547E+03-2.87418E+03 4.35995E+03-2.88765E-10 1.43795E-08
 -1       860-7.57191E+04 1.35759E+02-1.20758E+03-4.24502E+02-1.02233E-10 9.42714E-09
 -1       861-7.58999E+04-1.51217E+02-6.70726E+02 4.37492E+03-5.19318E-09 2.32372E-09
 -1       862-7.57888E+04 1.79813E+01-2.91650E+02-4.28546E+02 3.67052E-09-4.82709E-09
 -1       863-7.58168E+04-1.11320E+01-1.35384E+02 4.37683E+03 4.18284E-09-1.21318E-08
 -1       864-7.58025E+04-1.23718E+00-2.46492E+01-4.26412E+02 3.96911E-09-6.73062E-09
 -1       865-7.57868E+04 3.02567E+01 7.53500E+01 4.36586E+03 6.58972E-10 5.73969E-09
 -1       866-7.58173E+04-2.37029E+01 1.85581E+02-4.17583E+02-1.83698E-09 2.14597E-09
 -1       867-7.56907E+04 1.98002E+02 4.78359E+02 4.34188E+03 1.43700E-09-3.86868E-09
 -1       868-7.58954E+04-1.66833E+02 8.00181E+02-4.02423E+02 1.73810E-09-6.60162E-09
 -1       869-7.50980E+04 1.38713E+03 2.13842E+03 4.30191E+03-4.37331E-09-1.65867E-08
 -1       870-7.64053E+04-1.18180E+03 3.10242E+03-3.77616E+02-5.53939E-10-1.89402E-10
 -1       871-4.08209E+03-9.53148E+03-1.33958E+04 8.86980E+04 1.25510E-09-1.25328E-09
 -1       872-1.73645E+03-1.25466E+04-5.49000E+03 1.14995E+05 1.49339E-09-9.39622E-09
 -1       873-1.86242E-01-1.11313E+04 7.06027E+02 8.85032E+04 1.09799E-09-7.58348E-09
 -1       874 2.07144E+03-9.23489E+03 7.42543E+03 1.15032E+05 2.09411E-09-7.51731E-09
 -1       875 4.82141E+03-1.28962E+04 1.65179E+04 8.86662E+04 3.94721E-10 3.67390E-09
 -1       876 2.15195E+05 3.68789E+04 1.13666E+04 8.70752E+04-2.52874E-09-6.68388E-09
 -1       877 2.15875E+05 3.93436E+04 6.07005E+03 9.04039E+04-4.99085E-09-1.35442E-08
 -1       878 2.16257E+05 3.56209E+04 2.54309E+03 8.80086E+04 2.40584E-09-1.87970E-09
 -1       879 2.14329E+05 3.78031E+04 1.26691E+03 9.04836E+04 3.17266E-09-8.00321E-09
 -1       880 2.16334E+05 3.56070E+04 5.89938E+02 8.80467E+04-1.24237E-09-2.54022E-09
 -1       881 2.14226E+05 3.77376E+04 3.14478E+02 9.04674E+04-7.03028E-09 3.30589E-09
 -1       882 2.16342E+05 3.56164E+04 2.00264E+02 8.80478E+04 3.66617E-09 4.55287E-09
 -1       883 2.14219E+05 3.77345E+04 2.13782E+02 9.04626E+04 4.32351E-10-7.62087E-09
 -1       884 2.16337E+05 3.56140E+04 3.38723E+02 8.80480E+04 2.15368E-09 4.29230E-09
 -1       885 2.14246E+05 3.77393E+04 6.80179E+02 9.04711E+04 3.79228E-09-5.04841E-09
 -1       886 2.16311E+05 3.55941E+04 1.37049E+03 8.80453E+04 1.07633E-09-1.97633E-09
 -1       887 2.14487E+05 3.78972E+04 2.99354E+03 9.05058E+04-2.07228E-09-2.31694E-09
 -1       888 2.16122E+05 3.56275E+04 6.03207E+03 8.79494E+04 1.00721E-09 6.17729E-09
 -1       889 2.18081E+05 4.16298E+04 1.44101E+04 9.03927E+04-1.02380E-09-5.69935E-09
 -1       890 2.13664E+05 3.85472E+04 2.69891E+04 8.56486E+04 3.03453E-09 9.70886E-09
 -1       891-1.24446E+02-1.21497E+05-1.45042E+03 2.23848E+04-8.37190E-10 1.08816E-08
 -1       892-2.18465E+02-1.21850E+05-1.57162E+03 3.38883E+04 1.98247E-09 7.78073E-09
 -1       893-2.76882E+01-1.21543E+05-2.23941E+03 2.23894E+04 7.25777E-10 2.52157E-09
 -1       894-1.20740E+03-1.22705E+05-4.64527E+03 3.37671E+04-7.02357E-10 1.11991E-08
 -1       895-9.45519E+02-1.20577E+05-8.18399E+03 2.25048E+04 7.68694E-10 1.40308E-08
 -1       956-2.72102E+05-3.85091E+03-9.67761E+03 1.84699E+04-3.42243E-09-6.83485E-10
 -1       957-2.74012E+05-1.30435E+03-4.96807E+03 2.22417E+04-2.82444E-09-3.51599E-09
 -1       958-2.72961E+05-1.09312E+02-2.23826E+03 1.83560E+04 2.84490E-09 3.38969E-09
 -1       959-2.73112E+05-2.48054E+01-1.14329E+03 2.23662E+04 6.02313E-10 1.84323E-08
 -1       960-2.73039E+05 2.66331E+01-5.57375E+02 1.83450E+04 1.52795E-09 1.00340E-09
 -1       961-2.73047E+05 2.35983E+01-2.95786E+02 2.23787E+04 3.71756E-09-9.42646E-09
 -1       962-2.73054E+05 2.28423E+01-1.69409E+02 1.83434E+04 4.56498E-09-5.60135E-09
 -1       963-2.73044E+05 2.48052E+01-1.36192E+02 2.23809E+04-2.00532E-09 2.26305E-09
 -1       964-2.73057E+05 2.46653E+01-1.65585E+02 1.83428E+04 1.35572E-10-5.77370E-09
 -1       965-2.73054E+05 2.75226E+01-2.86350E+02 2.23808E+04 7.67443E-10-1.26972E-08
 -1       966-2.73048E+05 3.20397E+01-5.37676E+02 1.83435E+04-2.99326E-09-6.76221E-09
 -1       967-2.73124E+05-1.53200E+01-1.10283E+03 2.23732E+04 1.17382E-09 3.98336E-09
 -1       968-2.72979E+05-9.54558E+01-2.15830E+03 1.83505E+04 4.91173E-09 4.01400E-10
 -1       969-2.73998E+05-1.24622E+03-4.79200E+03 2.22909E+04 2.87491E-09-9.83641E-09
 -1       970-2.72155E+05-3.70217E+03-9.33392E+03 1.84271E+04-6.68479E-10-2.22190E-09
 -1       971-2.55853E+05-1.33238E+03-7.38087E+03 1.21990E+04-2.57114E-09-5.44134E-09
 -1       972-2.57645E+05-9.58368E+02-4.01967E+03 1.70187E+04-1.70894E-09-5.58578E-09
 -1       973-2.56673E+05-1.34501E+01-1.79993E+03 1.20980E+04-4.21096E-10 8.70841E-11
 -1       974-2.56796E+05-1.54083E+01-9.32589E+02 1.71283E+04 4.93174E-10 9.95669E-10
 -1       975-2.56736E+05 2.09005E+01-4.65299E+02 1.20888E+04-2.53658E-09 3.30738E-09
 -1       976-2.56745E+05 2.30597E+01-2.66999E+02 1.71394E+04-2.85797E-09 3.31647E-09
 -1       977-2.56748E+05 2.05909E+01-1.91123E+02 1.20867E+04 5.36329E-09 3.74268E-09
 -1       978-2.56748E+05 2.72767E+01-2.20071E+02 1.71424E+04 1.13444E-08-6.86282E-09
 -1       979-2.56748E+05 2.64940E+01-3.50466E+02 1.20858E+04 8.56329E-09-3.89889E-09
 -1       980-2.56773E+05 2.94088E+01-6.74750E+02 1.71429E+04 1.21476E-08-9.33528E-09
 -1       981-2.56727E+05 4.33282E+01-1.30578E+03 1.20862E+04 4.52735E-09 1.20053E-10
 -1       982-2.56953E+05-6.68849E+01-2.69842E+03 1.71378E+04-2.14641E-09-8.09543E-10
 -1       983-2.56563E+05-3.99972E+01-5.24268E+03 1.20911E+04 3.84034E-10 4.53838E-09
 -1       984-2.59474E+05-2.80445E+03-1.17402E+04 1.70691E+04-1.23873E-09 4.67958E-09
 -1       985-2.54190E+05-3.87602E+03-2.15588E+04 1.21583E+04 5.53246E-09 4.01087E-10
 -3
    1PSTEP                        19          10           1          
  100CL  110 5.14160E-01         409                     0   10           1
 -4  DISP        4    1
 -5  D1          1    2    1    0
 -5  D2          1    2    2    0
 -5  D3          1    2    3    0
 -5  ALL         1    2    0    0    1ALL
 -1         1 6.72179E-04 0.00000E+00 0.00000E+00
 -1         2 6.45477E-04 1.22226E-29-1.32349E-23
 -1         3 1.70373E-04-1.66003E-28 0.00000E+00
 -1         5 1.07180E-04-2.90705E-27 0.00000E+00
 -1         8 6.49592E-04-7.38484E-07 0.00000E+00
 -1         9 6.39509E-04-1.92386E-06 0.00000E+00
 -1        10 1.56224E-04-2.24187E-06 0.00000E+00
 -1        12 1.07078E-04 5.65093E-07 1.65436E-24
 -1        15 6.22569E-04-8.18041E-07-2.06795E-25
 -1        16 6.28667E-04-2.39532E-06 0.00000E+00
 -1        17 1.11527E-04-4.79808E-06 0.00000E+00
 -1        18 1.05641E-04 6.52300E-06 0.00000E+00
 -1        19 1.06772E-04 1.12731E-06 0.00000E+00
 -1        20 1.06908E-04 1.06645E-05 0.00000E+00
 -1        21 1.06327E-04 1.87583E-05 0.00000E+00
 -1        24 2.15581E-05-6.54969E-06 0.00000E+00
 -1        25 1.06426E-04 6.65679E-06 0.00000E+00
 -1        26 1.07171E-04 1.56307E-06 0.00000E+00
 -1        27 1.05613E-04 8.10275E-06 0.00000E+00
 -1        28 1.05194E-04 1.82799E-05 0.00000E+00
 -1        32 0.00000E+00 0.00000E+00 0.00000E+00
 -1        33 1.06485E-04 2.09460E-06 0.00000E+00
 -1        34 1.04945E-04 8.07786E-06 0.00000E+00
 -1        35 1.03500E-04 1.80246E-05 0.00000E+00
 -1        51 6.70717E-04-1.24787E-07 0.00000E+00
 -1        52 6.68000E-04-2.42763E-07 0.00000E+00
 -1        53 6.64275E-04-3.61286E-07 0.00000E+00
 -1        54 6.59795E-04-4.81985E-07 0.00000E+00
 -1        55 6.54816E-04-6.05824E-07 2.06795E-24
 -1        56 6.70433E-04-7.20225E-07-2.64698E-23
 -1        57 6.68658E-04-1.55772E-06-2.64698E-23
 -1        58 6.66902E-04-2.43450E-06 0.00000E+00
 -1        59 6.65130E-04-3.30156E-06 0.00000E+00
 -1        60 6.63333E-04-4.10151E-06 0.00000E+00
 -1        61 6.61489E-04-4.78446E-06 0.00000E+00
 -1        62 6.59586E-04-5.30978E-06 0.00000E+00
 -1        63 6.57611E-04-5.64427E-06-2.64698E-23
 -1        64 6.55558E-04-5.77106E-06 0.00000E+00
 -1        65 6.53424E-04-5.68214E-06 0.00000E+00
 -1        66 6.51213E-04-5.38833E-06 0.00000E+00
 -1        67 6.48935E-04-4.90867E-06 2.64698E-23
 -1        68 6.46600E-04-4.27927E-06 5.29396E-23
 -1        69 6.44234E-04-3.53865E-06 0.00000E+00
 -1        70 6.41844E-04-2.74299E-06-2.64698E-23
 -1        86 6.45265E-04-3.18191E-07-1.32349E-23
 -1        87 6.44634E-04-6.36762E-07-6.61744E-24
 -1        88 6.43652E-04-9.55635E-07-1.32349E-23
 -1        89 6.42392E-04-1.27614E-06 0.00000E+00
 -1        90 6.40971E-04-1.59640E-06-1.32349E-23
 -1       121 1.69977E-04-3.70057E-07-1.32349E-23
 -1       122 1.68790E-04-7.40721E-07-6.61744E-24
 -1       123 1.66816E-04-1.11259E-06 0.00000E+00
 -1       124 1.64058E-04-1.48632E-06-6.61744E-24
 -1       125 1.60524E-04-1.86237E-06 1.32349E-23
 -1       191 1.07177E-04 9.41856E-08 0.00000E+00
 -1       192 1.07169E-04 1.88370E-07 1.65436E-24
 -1       193 1.07155E-04 2.82555E-07-3.30872E-24
 -1       194 1.07135E-04 3.76738E-07 1.65436E-24
 -1       195 1.07109E-04 4.70918E-07 0.00000E+00
 -1       251 6.49031E-04 6.83577E-06-1.32349E-23
 -1       252 6.48399E-04 2.04258E-05 0.00000E+00
 -1       253 6.47713E-04 3.77641E-05-1.32349E-23
 -1       254 6.47001E-04 5.64986E-05 0.00000E+00
 -1       255 6.46311E-04 7.39145E-05 0.00000E+00
 -1       256 6.45680E-04 8.73269E-05-6.61744E-24
 -1       257 6.45105E-04 9.50924E-05 0.00000E+00
 -1       258 6.44559E-04 9.56935E-05-6.61744E-24
 -1       259 6.43994E-04 8.94730E-05 0.00000E+00
 -1       260 6.43373E-04 7.69260E-05 6.61744E-24
 -1       261 6.42694E-04 6.01919E-05 0.00000E+00
 -1       262 6.41983E-04 4.15026E-05 0.00000E+00
 -1       263 6.41284E-04 2.35996E-05 1.32349E-23
 -1       264 6.40641E-04 9.20718E-06 6.61744E-24
 -1       265 6.40055E-04 1.35400E-07 1.32349E-23
 -1       266 6.45088E-04-7.62300E-07 3.30872E-24
 -1       267 6.40585E-04-7.74273E-07 0.00000E+00
 -1       268 6.36081E-04-7.86995E-07 0.00000E+00
 -1       269 6.31577E-04-7.97496E-07-2.06795E-25
 -1       270 6.27073E-04-8.07945E-07 0.00000E+00
 -1       271 6.46903E-04 2.93663E-06 2.64698E-23
 -1       272 6.44468E-04 5.82668E-06-1.32349E-23
 -1       273 6.42316E-04 7.97356E-06 0.00000E+00
 -1       274 6.40424E-04 9.41325E-06 1.32349E-23
 -1       275 6.38779E-04 1.01974E-05 0.00000E+00
 -1       276 6.37356E-04 1.03852E-05 0.00000E+00
 -1       277 6.36132E-04 1.00459E-05 0.00000E+00
 -1       278 6.35076E-04 9.25602E-06-1.32349E-23
 -1       279 6.34157E-04 8.09950E-06 0.00000E+00
 -1       280 6.33342E-04 6.66565E-06-1.32349E-23
 -1       281 6.32596E-04 5.04806E-06 2.64698E-23
 -1       282 6.31883E-04 3.34319E-06 0.00000E+00
 -1       283 6.31167E-04 1.64868E-06 0.00000E+00
 -1       284 6.30414E-04 6.33612E-08 0.00000E+00
 -1       285 6.29584E-04-1.31854E-06 0.00000E+00
 -1       301 6.37417E-04-2.01346E-06-6.61744E-24
 -1       302 6.35021E-04-2.08526E-06-3.30872E-24
 -1       303 6.32635E-04-2.15612E-06 0.00000E+00
 -1       304 6.30571E-04-2.22712E-06 0.00000E+00
 -1       305 6.29145E-04-2.29916E-06 1.32349E-23
 -1       306 6.57679E-04-6.45351E-05 5.29396E-23
 -1       307 7.06515E-04-2.50738E-04-2.64698E-23
 -1       308 7.69439E-04-5.29575E-04 0.00000E+00
 -1       309 8.36463E-04-8.61032E-04-2.64698E-23
 -1       310 9.03287E-04-1.18955E-03 0.00000E+00
 -1       311 9.65267E-04-1.45983E-03 0.00000E+00
 -1       312 1.01162E-03-1.63355E-03 0.00000E+00
 -1       313 1.02525E-03-1.68200E-03 0.00000E+00
 -1       314 9.89891E-04-1.60555E-03 0.00000E+00
 -1       315 8.94053E-04-1.41627E-03 2.64698E-23
 -1       316 7.45803E-04-1.14782E-03 0.00000E+00
 -1       317 5.64218E-04-8.36354E-04 2.64698E-23
 -1       318 3.83416E-04-5.25873E-04 0.00000E+00
 -1       319 2.37339E-04-2.60385E-04 0.00000E+00
 -1       320 1.44297E-04-7.56451E-05-5.29396E-23
 -1       336 1.51066E-04-2.65451E-06 0.00000E+00
 -1       337 1.44964E-04-3.07270E-06 6.61744E-24
 -1       338 1.37935E-04-3.49653E-06 0.00000E+00
 -1       339 1.30002E-04-3.92576E-06-6.61744E-24
 -1       340 1.21190E-04-4.36214E-06 0.00000E+00
 -1       406 1.07041E-04 6.59256E-07 0.00000E+00
 -1       407 1.06999E-04 7.53390E-07 0.00000E+00
 -1       408 1.06951E-04 8.47468E-07 0.00000E+00
 -1       409 1.06897E-04 9.41376E-07 0.00000E+00
 -1       410 1.06837E-04 1.03494E-06 0.00000E+00
 -1       521 6.47351E-04-7.12896E-05 0.00000E+00
 -1       522 6.97069E-04-2.69761E-04 0.00000E+00
 -1       523 7.60442E-04-5.65709E-04 0.00000E+00
 -1       524 8.27190E-04-9.15460E-04 0.00000E+00
 -1       525 8.93741E-04-1.26151E-03-1.05879E-22
 -1       526 9.56066E-04-1.54673E-03 0.00000E+00
 -1       527 1.00280E-03-1.72950E-03 0.00000E+00
 -1       528 1.01579E-03-1.78054E-03 0.00000E+00
 -1       529 9.76514E-04-1.69905E-03 0.00000E+00
 -1       530 8.72766E-04-1.49960E-03-5.29396E-23
 -1       531 7.12398E-04-1.21694E-03 0.00000E+00
 -1       532 5.16451E-04-8.89962E-04-5.29396E-23
 -1       533 3.20921E-04-5.63482E-04 0.00000E+00
 -1       534 1.61704E-04-2.82333E-04 5.29396E-23
 -1       535 5.94433E-05-8.51798E-05 0.00000E+00
 -1       536 1.11285E-04 9.91936E-06 0.00000E+00
 -1       537 1.10877E-04 3.38642E-05-1.65436E-24
 -1       538 1.10327E-04 6.34010E-05 0.00000E+00
 -1       539 1.09722E-04 9.48640E-05-1.65436E-24
 -1       540 1.09181E-04 1.24070E-04 0.00000E+00
 -1       541 1.08801E-04 1.46850E-04 0.00000E+00
 -1       542 1.08574E-04 1.60730E-04-3.30872E-24
 -1       543 1.08436E-04 1.63288E-04 0.00000E+00
 -1       544 1.08270E-04 1.55019E-04-3.30872E-24
 -1       545 1.07971E-04 1.36483E-04-1.65436E-24
 -1       546 1.07527E-04 1.10901E-04 3.30872E-24
 -1       547 1.06983E-04 8.15375E-05 0.00000E+00
 -1       548 1.06453E-04 5.26592E-05-3.30872E-24
 -1       549 1.06045E-04 2.85327E-05 0.00000E+00
 -1       550 1.05783E-04 1.21666E-05 0.00000E+00
 -1       551 9.95289E-05-5.04717E-06 0.00000E+00
 -1       552 8.55465E-05-5.31790E-06 0.00000E+00
 -1       553 7.01638E-05-5.60752E-06 3.36042E-24
 -1       554 5.39757E-05-5.91118E-06 3.30872E-24
 -1       555 3.75766E-05-6.22054E-06 0.00000E+00
 -1       556 1.08136E-04 3.97771E-06 0.00000E+00
 -1       557 1.05481E-04 1.08623E-05 0.00000E+00
 -1       558 1.03486E-04 1.60197E-05 0.00000E+00
 -1       559 1.02082E-04 1.96266E-05 0.00000E+00
 -1       560 1.01199E-04 2.18593E-05 0.00000E+00
 -1       561 1.00767E-04 2.28954E-05 0.00000E+00
 -1       562 1.00718E-04 2.29127E-05 0.00000E+00
 -1       563 1.00985E-04 2.20892E-05 6.61744E-24
 -1       564 1.01500E-04 2.06035E-05 0.00000E+00
 -1       565 1.02195E-04 1.86339E-05 0.00000E+00
 -1       566 1.03004E-04 1.63591E-05 0.00000E+00
 -1       567 1.03860E-04 1.39579E-05 2.06795E-25
 -1       568 1.04697E-04 1.16088E-05 0.00000E+00
 -1       569 1.05448E-04 9.49047E-06 0.00000E+00
 -1       570 1.06046E-04 7.78147E-06 0.00000E+00
 -1       571 1.05710E-04 6.18902E-06 0.00000E+00
 -1       572 1.05780E-04 5.81246E-06 0.00000E+00
 -1       573 1.05851E-04 5.40195E-06-8.27181E-25
 -1       574 1.05921E-04 4.96657E-06-8.27181E-25
 -1       575 1.05992E-04 4.51542E-06 0.00000E+00
 -1       576 1.06063E-04 4.05762E-06-8.27181E-25
 -1       577 1.06134E-04 3.60234E-06 0.00000E+00
 -1       578 1.06205E-04 3.15875E-06 0.00000E+00
 -1       579 1.06276E-04 2.73599E-06 0.00000E+00
 -1       580 1.06347E-04 2.34324E-06 0.00000E+00
 -1       581 1.06418E-04 1.98965E-06 0.00000E+00
 -1       582 1.06489E-04 1.68438E-06 0.00000E+00
 -1       583 1.06560E-04 1.43656E-06 0.00000E+00
 -1       584 1.06631E-04 1.25525E-06 0.00000E+00
 -1       585 1.06702E-04 1.14941E-06 0.00000E+00
 -1       586 1.05726E-04 6.54681E-06 8.27181E-25
 -1       587 1.05788E-04 6.57003E-06 3.10193E-25
 -1       588 1.05857E-04 6.59299E-06 0.00000E+00
 -1       589 1.05966E-04 6.61553E-06 0.00000E+00
 -1       590 1.06145E-04 6.63735E-06 0.00000E+00
 -1       591 1.05732E-04 6.23282E-06 0.00000E+00
 -1       592 1.05831E-04 5.91551E-06 0.00000E+00
 -1       593 1.05937E-04 5.57688E-06-4.13590E-25
 -1       594 1.06049E-04 5.22201E-06 2.06795E-25
 -1       595 1.06165E-04 4.85608E-06 0.00000E+00
 -1       596 1.06283E-04 4.48419E-06-2.06795E-25
 -1       597 1.06402E-04 4.11147E-06 4.13590E-25
 -1       598 1.06518E-04 3.74301E-06 2.06795E-25
 -1       599 1.06632E-04 3.38393E-06 0.00000E+00
 -1       600 1.06740E-04 3.03934E-06 0.00000E+00
 -1       601 1.06841E-04 2.71434E-06 4.13590E-25
 -1       602 1.06932E-04 2.41404E-06-1.03398E-25
 -1       603 1.07012E-04 2.14356E-06 3.10193E-25
 -1       604 1.07080E-04 1.90806E-06 0.00000E+00
 -1       605 1.07133E-04 1.71262E-06 0.00000E+00
 -1       606 1.06784E-04 1.26257E-06 3.30872E-24
 -1       607 1.06794E-04 1.48634E-06-1.65436E-24
 -1       608 1.06803E-04 1.79343E-06 0.00000E+00
 -1       609 1.06811E-04 2.17797E-06 1.65436E-24
 -1       610 1.06820E-04 2.63408E-06 3.30872E-24
 -1       611 1.06828E-04 3.15578E-06 0.00000E+00
 -1       612 1.06836E-04 3.73710E-06 0.00000E+00
 -1       613 1.06844E-04 4.37205E-06 0.00000E+00
 -1       614 1.06853E-04 5.05466E-06 0.00000E+00
 -1       615 1.06861E-04 5.77893E-06 0.00000E+00
 -1       616 1.06869E-04 6.53888E-06 0.00000E+00
 -1       617 1.06877E-04 7.32854E-06 4.13590E-25
 -1       618 1.06885E-04 8.14190E-06 0.00000E+00
 -1       619 1.06893E-04 8.97301E-06 0.00000E+00
 -1       620 1.06901E-04 9.81587E-06 0.00000E+00
 -1       621 1.06745E-04 1.20008E-06 0.00000E+00
 -1       622 1.06770E-04 1.27311E-06 8.27181E-25
 -1       623 1.06835E-04 1.34612E-06 1.65436E-24
 -1       624 1.06930E-04 1.41900E-06-8.27181E-25
 -1       625 1.07046E-04 1.49175E-06 0.00000E+00
 -1       626 1.06803E-04 1.28749E-06 0.00000E+00
 -1       627 1.06807E-04 1.51947E-06 3.30872E-24
 -1       628 1.06787E-04 1.81609E-06-3.30872E-24
 -1       629 1.06745E-04 2.16982E-06 1.65436E-24
 -1       630 1.06685E-04 2.57308E-06 0.00000E+00
 -1       631 1.06610E-04 3.01827E-06 0.00000E+00
 -1       632 1.06521E-04 3.49778E-06 3.30872E-24
 -1       633 1.06423E-04 4.00401E-06-1.65436E-24
 -1       634 1.06317E-04 4.52935E-06 3.30872E-24
 -1       635 1.06207E-04 5.06619E-06 4.96308E-24
 -1       636 1.06096E-04 5.60693E-06-1.65436E-24
 -1       637 1.05985E-04 6.14397E-06 0.00000E+00
 -1       638 1.05879E-04 6.66969E-06 0.00000E+00
 -1       639 1.05780E-04 7.17649E-06 8.27181E-25
 -1       640 1.05691E-04 7.65674E-06 0.00000E+00
 -1       656 1.06261E-04 1.02477E-05 6.61744E-24
 -1       657 1.05968E-04 9.81426E-06-3.30872E-24
 -1       658 1.05897E-04 9.38212E-06 0.00000E+00
 -1       659 1.05916E-04 8.95032E-06 3.30872E-24
 -1       660 1.05872E-04 8.51718E-06-6.61744E-24
 -1       661 1.06669E-04 1.14845E-05 8.27181E-25
 -1       662 1.06455E-04 1.22459E-05 0.00000E+00
 -1       663 1.06262E-04 1.29508E-05 1.65436E-24
 -1       664 1.06090E-04 1.36028E-05 8.27181E-25
 -1       665 1.05936E-04 1.42047E-05-1.65436E-24
 -1       666 1.05800E-04 1.47593E-05 0.00000E+00
 -1       667 1.05681E-04 1.52696E-05 0.00000E+00
 -1       668 1.05578E-04 1.57382E-05-8.27181E-25
 -1       669 1.05489E-04 1.61676E-05 1.65436E-24
 -1       670 1.05413E-04 1.65605E-05 0.00000E+00
 -1       671 1.05351E-04 1.69193E-05 1.65436E-24
 -1       672 1.05300E-04 1.72464E-05 8.27181E-25
 -1       673 1.05261E-04 1.75440E-05 0.00000E+00
 -1       674 1.05231E-04 1.78141E-05 0.00000E+00
 -1       675 1.05210E-04 1.80592E-05-4.13590E-25
 -1       676 1.06138E-04 1.86781E-05 0.00000E+00
 -1       677 1.05949E-04 1.85979E-05 0.00000E+00
 -1       678 1.05760E-04 1.85178E-05 0.00000E+00
 -1       679 1.05571E-04 1.84379E-05 8.27181E-25
 -1       680 1.05382E-04 1.83580E-05-1.65436E-24
 -1       771 1.53813E-05 6.56387E-06-5.29396E-23
 -1       772 1.01125E-05 1.73066E-05 0.00000E+00
 -1       773 5.70958E-06 2.58043E-05 0.00000E+00
 -1       774 2.11444E-06 3.21939E-05 0.00000E+00
 -1       775-7.30317E-07 3.66161E-05 5.29396E-23
 -1       776-2.88434E-06 3.92176E-05 0.00000E+00
 -1       777-4.40769E-06 4.01489E-05 0.00000E+00
 -1       778-5.36169E-06 3.95651E-05 2.64698E-23
 -1       779-5.80784E-06 3.76248E-05 0.00000E+00
 -1       780-5.80870E-06 3.44902E-05 0.00000E+00
 -1       781-5.42684E-06 3.03261E-05 0.00000E+00
 -1       782-4.72566E-06 2.53005E-05 0.00000E+00
 -1       783-3.76848E-06 1.95829E-05 2.64698E-23
 -1       784-2.61924E-06 1.33449E-05 0.00000E+00
 -1       785-1.34174E-06 6.75939E-06 0.00000E+00
 -1       786 1.06469E-04 6.17513E-06 0.00000E+00
 -1       787 1.06516E-04 5.72712E-06 0.00000E+00
 -1       788 1.06562E-04 5.30725E-06 0.00000E+00
 -1       789 1.06608E-04 4.91009E-06 0.00000E+00
 -1       790 1.06655E-04 4.53261E-06-1.65436E-24
 -1       791 1.06702E-04 4.17184E-06 0.00000E+00
 -1       792 1.06749E-04 3.82659E-06 0.00000E+00
 -1       793 1.06796E-04 3.49572E-06 0.00000E+00
 -1       794 1.06843E-04 3.17963E-06 1.65436E-24
 -1       795 1.06890E-04 2.87873E-06 8.27181E-25
 -1       796 1.06937E-04 2.59509E-06 0.00000E+00
 -1       797 1.06984E-04 2.33080E-06 8.27181E-25
 -1       798 1.07031E-04 2.09004E-06 1.65436E-24
 -1       799 1.07078E-04 1.87702E-06-8.27181E-25
 -1       800 1.07125E-04 1.69894E-06 0.00000E+00
 -1       801 9.84691E-05 5.74919E-06 1.32349E-23
 -1       802 7.35604E-05 4.53963E-06 1.32349E-23
 -1       803 4.26038E-05 3.18139E-06 0.00000E+00
 -1       804 1.67556E-05 1.95454E-06 0.00000E+00
 -1       805 1.02123E-06 9.21641E-07-2.64698E-23
 -1       806 1.06525E-04 6.12808E-06 0.00000E+00
 -1       807 1.06613E-04 5.61870E-06-8.27181E-25
 -1       808 1.06692E-04 5.13219E-06 1.65436E-24
 -1       809 1.06761E-04 4.67128E-06 0.00000E+00
 -1       810 1.06820E-04 4.23867E-06 3.30872E-24
 -1       811 1.06866E-04 3.83697E-06 1.65436E-24
 -1       812 1.06901E-04 3.46883E-06 0.00000E+00
 -1       813 1.06921E-04 3.13684E-06-8.27181E-25
 -1       814 1.06928E-04 2.84361E-06 3.30872E-24
 -1       815 1.06918E-04 2.59176E-06 0.00000E+00
 -1       816 1.06893E-04 2.38387E-06-3.30872E-24
 -1       817 1.06849E-04 2.22255E-06 8.27181E-25
 -1       818 1.06788E-04 2.11039E-06-3.30872E-24
 -1       819 1.06707E-04 2.04996E-06 8.27181E-25
 -1       820 1.06606E-04 2.04386E-06 0.00000E+00
 -1       821 1.07080E-04 1.42810E-06 8.27181E-25
 -1       822 1.06982E-04 1.25379E-06 0.00000E+00
 -1       823 1.06885E-04 1.09737E-06-3.30872E-24
 -1       824 1.06787E-04 1.01600E-06 0.00000E+00
 -1       825 1.06688E-04 1.05160E-06-3.30872E-24
 -1       826 1.06590E-04 1.24558E-06 0.00000E+00
 -1       827 1.06491E-04 1.60722E-06 0.00000E+00
 -1       828 1.06393E-04 2.14509E-06 1.65436E-24
 -1       829 1.06294E-04 2.83200E-06 0.00000E+00
 -1       830 1.06195E-04 3.64010E-06 0.00000E+00
 -1       831 1.06096E-04 4.51700E-06 0.00000E+00
 -1       832 1.05998E-04 5.40997E-06 0.00000E+00
 -1       833 1.05899E-04 6.26303E-06 3.30872E-24
 -1       834 1.05802E-04 7.02039E-06 8.27181E-25
 -1       835 1.05704E-04 7.64558E-06 0.00000E+00
 -1       836 1.07207E-04 1.65154E-06 1.65436E-24
 -1       837 1.07141E-04 1.74200E-06-8.27181E-25
 -1       838 1.07004E-04 1.83231E-06 1.65436E-24
 -1       839 1.06828E-04 1.92204E-06 0.00000E+00
 -1       840 1.06645E-04 2.01162E-06 0.00000E+00
 -1       856 1.05590E-04 8.53224E-06 0.00000E+00
 -1       857 1.05564E-04 9.06743E-06 0.00000E+00
 -1       858 1.05538E-04 9.69169E-06-4.13590E-25
 -1       859 1.05512E-04 1.03884E-05 0.00000E+00
 -1       860 1.05486E-04 1.11408E-05 0.00000E+00
 -1       861 1.05459E-04 1.19320E-05 0.00000E+00
 -1       862 1.05433E-04 1.27453E-05-8.27181E-25
 -1       863 1.05406E-04 1.35637E-05 4.13590E-25
 -1       864 1.05380E-04 1.43704E-05 0.00000E+00
 -1       865 1.05353E-04 1.51486E-05-4.13590E-25
 -1       866 1.05327E-04 1.58814E-05-8.27181E-25
 -1       867 1.05300E-04 1.65521E-05 0.00000E+00
 -1       868 1.05274E-04 1.71438E-05 0.00000E+00
 -1       869 1.05247E-04 1.76401E-05 4.13590E-25
 -1       870 1.05221E-04 1.80242E-05 0.00000E+00
 -1       871 1.05391E-04 8.10162E-06-4.13590E-25
 -1       872 1.05275E-04 8.09825E-06 0.00000E+00
 -1       873 1.05220E-04 8.09448E-06 0.00000E+00
 -1       874 1.05178E-04 8.09017E-06 1.03398E-25
 -1       875 1.05102E-04 8.08538E-06 6.20385E-25
 -1       876 1.05547E-04 8.54194E-06 0.00000E+00
 -1       877 1.05463E-04 9.03255E-06 1.65436E-24
 -1       878 1.05363E-04 9.56835E-06 0.00000E+00
 -1       879 1.05249E-04 1.01436E-05 0.00000E+00
 -1       880 1.05122E-04 1.07525E-05 3.30872E-24
 -1       881 1.04984E-04 1.13893E-05 0.00000E+00
 -1       882 1.04839E-04 1.20482E-05 3.30872E-24
 -1       883 1.04687E-04 1.27235E-05 0.00000E+00
 -1       884 1.04531E-04 1.34094E-05 3.30872E-24
 -1       885 1.04373E-04 1.41003E-05-1.65436E-24
 -1       886 1.04215E-04 1.47903E-05 3.30872E-24
 -1       887 1.04060E-04 1.54737E-05 0.00000E+00
 -1       888 1.03909E-04 1.61448E-05 0.00000E+00
 -1       889 1.03765E-04 1.67977E-05 0.00000E+00
 -1       890 1.03629E-04 1.74267E-05 0.00000E+00
 -1       891 1.05026E-04 1.82372E-05 0.00000E+00
 -1       892 1.04840E-04 1.81943E-05-4.13590E-25
 -1       893 1.04614E-04 1.81514E-05 1.65436E-24
 -1       894 1.04330E-04 1.81087E-05 2.06795E-25
 -1       895 1.03965E-04 1.80660E-05 8.27181E-25
 -1       956 1.06391E-04 2.26297E-06 0.00000E+00
 -1       957 1.06294E-04 2.49124E-06 8.27181E-25
 -1       958 1.06198E-04 2.77280E-06 0.00000E+00
 -1       959 1.06102E-04 3.10062E-06 0.00000E+00
 -1       960 1.06005E-04 3.46770E-06 3.30872E-24
 -1       961 1.05908E-04 3.86699E-06 0.00000E+00
 -1       962 1.05812E-04 4.29142E-06 3.30872E-24
 -1       963 1.05715E-04 4.73394E-06-1.65436E-24
 -1       964 1.05619E-04 5.18747E-06-3.30872E-24
 -1       965 1.05522E-04 5.64496E-06-1.65436E-24
 -1       966 1.05425E-04 6.09934E-06 0.00000E+00
 -1       967 1.05329E-04 6.54354E-06 0.00000E+00
 -1       968 1.05232E-04 6.97050E-06 3.30872E-24
 -1       969 1.05136E-04 7.37318E-06 0.00000E+00
 -1       970 1.05040E-04 7.74456E-06 0.00000E+00
 -1       971 1.04856E-04 8.42644E-06-3.30872E-24
 -1       972 1.04765E-04 8.85290E-06 8.27181E-25
 -1       973 1.04675E-04 9.34864E-06 1.65436E-24
 -1       974 1.04584E-04 9.90473E-06 8.27181E-25
 -1       975 1.04493E-04 1.05122E-05 0.00000E+00
 -1       976 1.04402E-04 1.11622E-05 0.00000E+00
 -1       977 1.04311E-04 1.18457E-05 3.30872E-24
 -1       978 1.04220E-04 1.25537E-05 1.65436E-24
 -1       979 1.04130E-04 1.32773E-05 0.00000E+00
 -1       980 1.04039E-04 1.40074E-05 0.00000E+00
 -1       981 1.03948E-04 1.47352E-05 3.30872E-24
 -1       982 1.03857E-04 1.54516E-05 0.00000E+00
 -1       983 1.03766E-04 1.61477E-05-3.30872E-24
 -1       984 1.03676E-04 1.68145E-05 1.65436E-24
 -1       985 1.03586E-04 1.74431E-05-1.65436E-24
 -3
    1PSTEP                        20          10           1          
  100CL  110 5.14160E-01         409                     0   10           1
 -4  STRESS      6    1
 -5  SXX         1    4    1    1
 -5  SYY         1    4    2    2
 -5  SZZ         1    4    3    3
 -5  SXY         1    4    1    2
 -5  SYZ         1    4    2    3
 -5  SZX         1    4    3    1
 -1         1-2.37049E+06-9.78435E+05-5.06472E+05-1.20342E+06 1.52795E-10 8.97708E-08
 -1         2 1.05774E+03-9.08261E+05 3.43378E+03-1.63794E+03 2.12168E-11 7.09643E-08
 -1         3-2.78477E+02-1.05587E+06 2.38300E+02-6.61159E+02-2.72202E-10-1.74623E-10
 -1         5-9.42895E-01 2.69483E+05 6.87340E+00 3.20657E-02-2.25678E-12 2.91752E-08
 -1         8-1.07258E+06-3.68391E+05-1.20944E+05-4.66983E+05 9.82254E-11 8.76753E-10
 -1         9 9.75868E+05-5.05261E+05 2.53493E+05-5.58760E+05 1.87429E-08 3.54950E-08
 -1        10-1.02477E+03-1.10006E+06-2.11431E+03-4.47474E+03-6.15637E-09 7.32865E-09
 -1        12 1.87831E+00 2.69498E+05 2.22505E+02 2.63183E-01 8.31442E-11 1.00835E-08
 -1        15 1.74911E+03 9.61240E+02 5.65400E+03 3.40668E+00-6.77005E-11-2.34729E-08
 -1        16 2.71642E+06-8.17775E+05 3.77698E+05-1.13538E+06 1.34460E-08 5.16884E-08
 -1        17 1.10816E+06 7.34770E+05 3.60789E+05 8.01008E+05-4.43979E-09 2.32831E-09
 -1        18-3.14829E+04-1.22198E+04-2.89621E+04-7.27642E+04 7.13919E-09-5.43923E-09
 -1        19 8.64287E+04 1.00011E+05-6.74897E+02 1.69986E+04-1.78443E-10-6.49052E-09
 -1        20-4.31943E+04-4.09068E+05-9.07271E+04 2.64499E+04 2.05652E-09-1.01378E-09
 -1        21-3.71491E+01-2.29574E+05-7.34039E+02-2.98137E+01-5.03618E-09 1.53632E-08
 -1        24 7.03548E+05 1.54394E+06 5.07011E+05 1.34176E+06-7.48648E-08-2.92591E-08
 -1        25-9.27489E+04-5.21157E+05-1.05464E+05-1.15297E+05-2.49838E-10 2.91402E-10
 -1        26-2.99772E+04 6.56959E+04-1.60131E+04-5.28718E+03 1.46065E-09 2.21049E-09
 -1        27-6.09562E+04-2.23003E+05-8.30809E+04 5.03800E+04 5.46970E-09-4.70209E-10
 -1        28 1.76649E+04-6.42443E+04 1.30184E+04 1.89991E+04 1.29467E-09-5.22051E-09
 -1        32-1.13172E+06-1.44612E+06 6.75380E+04-5.20798E+05-2.61807E-08-3.05935E-09
 -1        33-1.30232E+05 6.45237E+04 2.30430E+04-3.22358E+04 3.88297E-10-1.99816E-09
 -1        34-1.65023E+05-1.67660E+04 4.28899E+02 5.20435E+04 1.79903E-09 9.20712E-10
 -1        35-1.79978E+04-2.55253E+04-1.00493E+03 3.99930E+04 4.44259E-09 5.35632E-09
 -1        51 2.33592E+04-3.02402E+05 5.49675E+04-8.56290E+05 7.27596E-11-2.45636E-08
 -1        52 1.11565E+04-2.97073E+05 3.31720E+04-9.98593E+05 8.58563E-10-9.57516E-09
 -1        53 6.16546E+03-3.10181E+05 2.41895E+04-8.53271E+05 4.14730E-10 5.44096E-08
 -1        54 1.70212E+04-3.08191E+05 3.38028E+04-1.00174E+06-6.40284E-10 9.70504E-08
 -1        55 3.43727E+04-3.20355E+05 5.73793E+04-8.52798E+05-1.01863E-10 6.98783E-08
 -1        56-4.51994E+06-5.06004E+05-3.73380E+05-1.74948E+06 3.17959E-09 7.21775E-09
 -1        57-4.69394E+06-8.20896E+05-2.51862E+05-1.70794E+06 1.59416E-08-3.68564E-08
 -1        58-4.59312E+06-6.26443E+05-8.78064E+04-1.72815E+06-3.61979E-10-5.52827E-08
 -1        59-4.60971E+06-6.79039E+05-5.24273E+04-1.73264E+06 9.39394E-09-6.47633E-08
 -1        60-4.60313E+06-6.43912E+05-2.04858E+04-1.72604E+06-6.53517E-09-4.07799E-08
 -1        61-4.59925E+06-6.57414E+05-1.16339E+04-1.73370E+06-1.63318E-08 3.55409E-08
 -1        62-4.60336E+06-6.47557E+05-5.56258E+03-1.72721E+06 1.42841E-08 7.69535E-09
 -1        63-4.60067E+06-6.51943E+05-4.54160E+03-1.73056E+06-6.28296E-09 7.09241E-08
 -1        64-4.60166E+06-6.49332E+05-5.10135E+03-1.72919E+06-6.07872E-09 1.88511E-08
 -1        65-4.60545E+06-6.50510E+05-1.02592E+04-1.72632E+06-1.02426E-08-7.78051E-08
 -1        66-4.59860E+06-6.49039E+05-1.79017E+04-1.73145E+06 3.73257E-09-1.70803E-08
 -1        67-4.61919E+06-6.64702E+05-4.56859E+04-1.72011E+06-6.10066E-09-4.59372E-08
 -1        68-4.58812E+06-6.35583E+05-7.64893E+04-1.73529E+06-1.10776E-08 2.87073E-08
 -1        69-4.69453E+06-7.86274E+05-2.19355E+05-1.69635E+06-1.31404E-08-4.69845E-08
 -1        70-4.52420E+06-5.30910E+05-3.25251E+05-1.75411E+06 4.84579E-09-1.81171E-08
 -1        86-5.31413E+02-9.09464E+05 3.66493E+03 8.18979E+02 6.90420E-10 2.54309E-08
 -1        87 3.50699E+03-9.07132E+05 7.65672E+03-2.99583E+03 1.13243E-09 5.32531E-08
 -1        88-2.96903E+03-9.10595E+05 1.17369E+04 2.17689E+03 1.59434E-09 1.06562E-08
 -1        89 2.21194E+04-8.98593E+05 3.16176E+04-4.96306E+03 2.49565E-09-3.25474E-08
 -1        90-1.90746E+04-9.17994E+05 4.47272E+04 2.78632E+03 1.75169E-09 6.32275E-08
 -1       121-4.02810E+02-1.05692E+06 8.31168E+01 3.29748E+02 6.17845E-10-1.33950E-08
 -1       122-1.90517E+02-1.05584E+06 5.03342E+02-1.32122E+03-2.36709E-09-7.46422E-09
 -1       123-4.52826E+02-1.05698E+06 6.59679E+02 9.86520E+02 1.90187E-09-1.09630E-08
 -1       124 8.11571E+02-1.05529E+06 2.07935E+03-2.84557E+03-4.48517E-09 7.52971E-09
 -1       125-1.07309E+03-1.05754E+06 2.98453E+03 1.85090E+03 2.92584E-09 7.87804E-09
 -1       191-1.21996E+00 2.69507E+05 8.41944E+00-1.60790E-02 2.12756E-11 2.34595E-08
 -1       192-1.57242E+00 2.69484E+05 1.45429E+01 1.56680E-01 5.22291E-11-3.09797E-10
 -1       193-2.89465E+00 2.69507E+05 2.72436E+01-1.40990E-01-9.36673E-12 7.61088E-09
 -1       194-3.59874E+00 2.69486E+05 5.49825E+01 3.77477E-01-5.89040E-11 1.71225E-08
 -1       195-6.11335E+00 2.69505E+05 1.07746E+02-2.37904E-01 6.18030E-11 4.99824E-09
 -1       251-1.55859E+06 2.41953E+04-6.74144E+04-3.52955E+04-1.82899E-09 3.95739E-08
 -1       252-1.55356E+06-2.74171E+04-4.10373E+04 9.53163E+04 2.88537E-10-7.93125E-09
 -1       253-1.55151E+06 3.44762E+03-1.63736E+04-6.00060E+04-4.43492E-09-8.52233E-08
 -1       254-1.55299E+06-1.91228E+03-8.99087E+03 1.11353E+05 5.68434E-09 2.18351E-08
 -1       255-1.56022E+06-3.47862E+02-5.63669E+03-5.13563E+04 4.53338E-09 1.12504E-09
 -1       256-1.52360E+06 1.30802E+03 3.82888E+03 6.53811E+04-1.01127E-08-1.21942E-08
 -1       257-1.57821E+06-1.91893E+03-6.38749E+03-1.39925E+04-4.82032E-09-2.86504E-08
 -1       258-1.50994E+06 1.56379E+03 8.02567E+03-1.73631E+04 9.14315E-09 1.14426E-10
 -1       259-1.57258E+06-1.65072E+03-4.52443E+03 3.13472E+04 1.45928E-09-4.01958E-08
 -1       260-1.53635E+06 2.22119E+03 3.24736E+03-9.02682E+04-4.03134E-09-3.54440E-08
 -1       261-1.55438E+06-5.00266E+02-1.00894E+03 5.89093E+04 1.59396E-08-1.01467E-08
 -1       262-1.55205E+06 2.01656E+03-9.68065E+02-1.12652E+05-6.38980E-09 6.41880E-08
 -1       263-1.55838E+06-2.37261E+02-4.34316E+03 5.37620E+04 1.12823E-09 6.81614E-08
 -1       264-1.52870E+06-2.50206E+03-2.71271E+03-7.23701E+04 2.24177E-08 2.04085E-08
 -1       265-1.57527E+06 2.02427E+03-1.79147E+04 1.85849E+04 7.79301E-09 2.87428E-08
 -1       266-3.16641E+04-1.48047E+04 7.43000E+04-7.28984E+01-3.63798E-11 3.66120E-08
 -1       267 3.67081E+04 1.72574E+04 5.25106E+04 8.41028E+01 1.36424E-11-9.76458E-08
 -1       268-4.92247E+03-2.44401E+03 1.95182E+04-1.07166E+01-1.09139E-11-3.79123E-08
 -1       269 5.81202E+03 2.92510E+03 1.26863E+04 1.24828E+01 9.09495E-11 1.29604E-08
 -1       270-8.72391E+02-4.80611E+02 6.12386E+03-1.69402E+00-5.25233E-11 3.32941E-08
 -1       271-2.91315E+06-3.62308E+05-2.19291E+05-1.13141E+06 8.54925E-10-1.13359E-08
 -1       272-3.00081E+06-5.13901E+05-1.41078E+05-1.11976E+06 7.63703E-09-2.37906E-08
 -1       273-2.95477E+06-4.16733E+05-5.17978E+04-1.12121E+06 1.24328E-09 1.60544E-08
 -1       274-2.95144E+06-4.47749E+05-2.89994E+04-1.13558E+06-4.83215E-09 3.96399E-08
 -1       275-2.96153E+06-4.21370E+05-1.20730E+04-1.11830E+06 5.80167E-09 9.87166E-09
 -1       276-2.94263E+06-4.43066E+05-6.37616E+03-1.14071E+06-3.86990E-09 4.06335E-08
 -1       277-2.96369E+06-4.20555E+05-3.13956E+03-1.11651E+06-5.00950E-09 3.62418E-08
 -1       278-2.93960E+06-4.44743E+05-2.19792E+03-1.14389E+06 3.21052E-10 5.81165E-08
 -1       279-2.96478E+06-4.19484E+05-2.31436E+03-1.11531E+06-4.25689E-09 5.58803E-08
 -1       280-2.93853E+06-4.46763E+05-4.15596E+03-1.14575E+06-9.44738E-10 6.99317E-08
 -1       281-2.96494E+06-4.18463E+05-7.52977E+03-1.11475E+06-5.68434E-10 7.36050E-08
 -1       282-2.94156E+06-4.52245E+05-1.80578E+04-1.14568E+06-1.13628E-08-3.07982E-08
 -1       283-2.96190E+06-4.14405E+05-3.20917E+04-1.11526E+06 5.90353E-09-3.94830E-08
 -1       284-2.97027E+06-4.95259E+05-8.75615E+04-1.13814E+06-8.20569E-09-3.48227E-08
 -1       285-2.93690E+06-3.79836E+05-1.36030E+05-1.12068E+06-4.94038E-09-1.77242E-08
 -1       301 1.82126E+04-1.95678E+05 1.28083E+05-3.77652E+05-8.36735E-11 3.93738E-08
 -1       302 2.01419E+04-1.64066E+05 8.55673E+04-5.53442E+05 3.38332E-10-1.96528E-08
 -1       303 1.83888E+03-1.83103E+05 6.76771E+04-3.77108E+05-3.60160E-10 3.15922E-08
 -1       304 2.39274E+04-1.56793E+05 1.01963E+05-5.52675E+05 6.40284E-10 2.41926E-08
 -1       305 2.11359E+04-1.97040E+05 1.63985E+05-3.78520E+05-5.52973E-10-1.67638E-08
 -1       306-1.11258E+07-1.62391E+06-2.19567E+06-1.87419E+06-5.92263E-08 5.30563E-08
 -1       307 4.23301E+06-1.25662E+06 1.26121E+06-4.46917E+06-2.88128E-07-2.62298E-08
 -1       308-6.63371E+06 3.09953E+05-2.62748E+05 7.48915E+05 7.96572E-08 3.46954E-08
 -1       309-2.17726E+06-1.43465E+06 3.39802E+05-7.75792E+06 1.24066E-07-2.05782E-08
 -1       310-6.85447E+06 2.77998E+05-2.45953E+05 6.72884E+05-7.63393E-08-3.86062E-08
 -1       311 4.64988E+06-1.43176E+06 1.49802E+06-4.04860E+06 6.80884E-08-8.66730E-08
 -1       312-1.11381E+07-1.56171E+06-1.74157E+06-2.12257E+06 6.37374E-08-1.96524E-08
 -1       313 7.92485E+06 1.67881E+06 2.55873E+06 3.02964E+06-6.98492E-10-2.31666E-08
 -1       314-8.68528E+06-3.84503E+06-1.70002E+06-4.59262E+06 1.80269E-07-6.75645E-08
 -1       315-2.61848E+06 5.42895E+06 1.42917E+06 3.26396E+06 2.15368E-09-2.20462E-07
 -1       316-2.78732E+06-3.57882E+06-1.98101E+05-3.55640E+06 2.96001E-07-1.89320E-07
 -1       317-9.57280E+06 5.94885E+06 3.29376E+05 3.53891E+05 2.13700E-07-3.96551E-07
 -1       318-2.89734E+06-3.62512E+06-3.29168E+05-3.58408E+06-4.50178E-07-9.34742E-08
 -1       319-2.24389E+06 5.57995E+06 1.28209E+06 3.30286E+06-3.68884E-07 6.28643E-09
 -1       320-8.89883E+06-3.98442E+06-2.30781E+06-4.54080E+06-1.60420E-07-1.89466E-08
 -1       336 5.50695E+02-1.14413E+06-7.66314E+03 2.60992E+03-1.16975E-08-6.45196E-09
 -1       337-2.93444E+03-1.14561E+06-9.76460E+03-6.43552E+03-2.14945E-08-1.40208E-08
 -1       338 7.26967E+02-1.14397E+06-1.41842E+04 3.79987E+03-1.53277E-08-2.78487E-09
 -1       339-1.52975E+04-1.15342E+06-3.22497E+04-8.77921E+03-2.74335E-08 9.60063E-09
 -1       340 1.03709E+04-1.13664E+06-5.03030E+04 4.92239E+03-1.91449E-08 1.91249E-08
 -1       406 1.90700E+01 2.69495E+05 4.39485E+02-2.73443E-02 1.48930E-10 2.57296E-09
 -1       407 1.55010E+02 2.69575E+05 9.33609E+02-1.61300E+00-9.77707E-12-2.35013E-09
 -1       408 4.82593E+02 2.69428E+05 1.86486E+03 1.67707E+00 1.06752E-10 1.95519E-09
 -1       409 2.01781E+03 2.70170E+05 4.19788E+03-1.63717E+01-5.41149E-11-6.11129E-09
 -1       410 5.79416E+03 2.68898E+05 8.56996E+03 1.53510E+01 6.82121E-12-1.17784E-08
 -1       521-1.37410E+07-2.22236E+06-2.82602E+06-2.23928E+06-4.52856E-08 3.32948E-08
 -1       522 2.93650E+06-1.99713E+06 1.14998E+06-7.05320E+06-2.58355E-07-8.94433E-08
 -1       523-9.38574E+06 2.65621E+05-3.15264E+05 7.78927E+05 1.38825E-08-1.29199E-07
 -1       524-4.82713E+06-1.52883E+06 3.68228E+05-1.11523E+07 2.84828E-07-3.23986E-07
 -1       525-9.64807E+06 1.85959E+05-2.79471E+05 6.75230E+05 3.49683E-07-2.30208E-07
 -1       526 3.64274E+06-2.13652E+06 1.56700E+06-6.45491E+06 3.61862E-07-2.61880E-08
 -1       527-1.38056E+07-2.29396E+06-2.12343E+06-2.54228E+06 1.24914E-07 5.66070E-08
 -1       528 7.30415E+06 1.46923E+06 2.63718E+06 2.92141E+06 1.04774E-07-9.69158E-08
 -1       529-1.08312E+07-5.08097E+06-2.06993E+06-5.55343E+06-4.97093E-08-1.49594E-08
 -1       530-6.00787E+06 7.05632E+06 1.50128E+06 3.25273E+06-1.37370E-07 1.94064E-07
 -1       531-4.31124E+06-4.93215E+06-2.16484E+05-4.91151E+06-3.99479E-07 1.74623E-09
 -1       532-1.44401E+07 8.07785E+06 3.70871E+05-6.76866E+05 2.90496E-07-3.09839E-07
 -1       533-4.37400E+06-4.95961E+06-3.67842E+05-4.91933E+06 2.30211E-08-4.79034E-07
 -1       534-5.75912E+06 7.17707E+06 1.23567E+06 3.26479E+06-9.76434E-08 3.50294E-07
 -1       535-1.09771E+07-5.19959E+06-2.85352E+06-5.50478E+06 1.79862E-08 2.22630E-07
 -1       536-4.15548E+05-1.39328E+04 1.17458E+04-1.69172E+04-2.27237E-09 1.91203E-08
 -1       537-3.24152E+05 1.48077E+04 2.34114E+04 4.18156E+04-4.80075E-08 4.68233E-08
 -1       538-3.70497E+05-5.83898E+02 5.41063E+03-2.58664E+04 6.91389E-09 4.56141E-08
 -1       539-3.51921E+05 1.62498E+03 6.55598E+03 4.72746E+04 6.09912E-08 5.00975E-08
 -1       540-3.88371E+05-2.82136E+02-2.34100E+03-2.23983E+04 5.65024E-10 3.51039E-08
 -1       541-2.89427E+05 2.72694E+03 1.66951E+04 2.85192E+04 2.58535E-09 3.03080E-08
 -1       542-4.31323E+05-3.04291E+03-1.23256E+04-7.06550E+03 2.11503E-08 2.19230E-08
 -1       543-2.56916E+05 3.87865E+03 2.24467E+04-6.53205E+03-8.75900E-09-2.26828E-09
 -1       544-4.20022E+05-2.13152E+03-1.07816E+04 1.26128E+04-6.33099E-09-1.44754E-08
 -1       545-3.15039E+05 6.56359E+02 9.28255E+03-3.79435E+04-1.53432E-09-3.73589E-08
 -1       546-3.74728E+05 1.41828E+03-3.62216E+03 2.43339E+04-1.77147E-09-3.31478E-08
 -1       547-3.58291E+05-3.58427E+03-4.35189E+03-4.88857E+04-5.52595E-08-4.52570E-08
 -1       548-3.77883E+05 3.01012E+03-1.26025E+04 2.35903E+04-4.46096E-08-2.88055E-08
 -1       549-3.13674E+05-1.50558E+04-1.54713E+04-3.49607E+04-2.54528E-08-1.38862E-08
 -1       550-4.17999E+05 1.17840E+04-5.35549E+04 1.03688E+04 2.28215E-09-1.36770E-08
 -1       551 1.29671E+04-5.01084E+05 1.39031E+04-7.78860E+05-4.84288E-08-1.87720E-09
 -1       552 3.07285E+04-5.11115E+05 2.44704E+04-1.10891E+06-3.71729E-08 1.31331E-08
 -1       553 2.25266E+04-5.15869E+05 4.11830E+04-7.75625E+05-5.89207E-08 1.38461E-08
 -1       554 5.69393E+04-5.06078E+05 9.01449E+04-1.11064E+06-3.65981E-08 3.44062E-09
 -1       555 5.09883E+04-5.36195E+05 1.62492E+05-7.75827E+05-6.04705E-08-7.54335E-09
 -1       556 1.08648E+05-2.00236E+05 4.36157E+04-2.43749E+05-1.09721E-08-3.56522E-09
 -1       557 1.83826E+05-2.63054E+05 2.33801E+04-3.09818E+05-1.45519E-09-6.26824E-09
 -1       558 1.04952E+05-2.03870E+05 8.75148E+03-2.39817E+05-1.19180E-08-2.04018E-08
 -1       559 1.73180E+05-2.68489E+05 4.66727E+03-3.16413E+05 7.37782E-09-8.55653E-09
 -1       560 1.00821E+05-2.01209E+05 1.53387E+03-2.42585E+05-2.13913E-09 4.54020E-09
 -1       561 1.67652E+05-2.66578E+05 9.77029E+02-3.20043E+05-4.65661E-09 3.69619E-09
 -1       562 9.76116E+04-1.99157E+05 1.77841E+02-2.44877E+05-1.10740E-08 1.22764E-08
 -1       563 1.63917E+05-2.64950E+05 2.46385E+02-3.22445E+05-3.72384E-08 8.15965E-09
 -1       564 9.55054E+04-1.97828E+05 3.02142E+01-2.46364E+05-1.61090E-08 1.18525E-08
 -1       565 1.61753E+05-2.64012E+05 9.45123E+01-3.23815E+05 3.03226E-09 8.32188E-10
 -1       566 9.45415E+04-1.97209E+05 6.72217E+00-2.47044E+05-6.66660E-09-7.03949E-09
 -1       567 1.61133E+05-2.63730E+05-5.73862E+01-3.24126E+05 1.00968E-08 6.26096E-09
 -1       568 9.47581E+04-1.97357E+05-2.93890E+02-2.46972E+05-4.05635E-09-6.41012E-09
 -1       569 1.61276E+05-2.63595E+05-7.14464E+02-3.22646E+05-4.20550E-09 9.84619E-09
 -1       570 9.68045E+04-1.99056E+05-1.69192E+03-2.46737E+05 6.93399E-09 7.10861E-09
 -1       571 2.02448E+05 7.47316E+03 1.10131E+04-5.25848E+04 6.99856E-10 4.77053E-09
 -1       572 2.04081E+05 2.63083E+03 5.39587E+03-5.76711E+04 1.70394E-09 3.98313E-09
 -1       573 2.03104E+05 6.58356E+02 2.39722E+03-5.24636E+04-7.30415E-09 4.88990E-09
 -1       574 2.03294E+05 2.47164E+02 1.20125E+03-5.78101E+04-1.63736E-08 8.10178E-09
 -1       575 2.03178E+05 6.95533E+01 5.66463E+02-5.24475E+04-7.59280E-09 8.28231E-09
 -1       576 2.03189E+05 5.32370E+01 2.88937E+02-5.78286E+04-3.55135E-09 5.77847E-09
 -1       577 2.03193E+05 3.56545E+01 1.43351E+02-5.24453E+04 6.25005E-09 1.71531E-09
 -1       578 2.03184E+05 4.02463E+01 8.03432E+01-5.78309E+04 1.76540E-08-4.85261E-09
 -1       579 2.03211E+05 2.94575E+01 5.28300E+01-5.24452E+04 1.06647E-08-2.73076E-09
 -1       580 2.03210E+05 2.95038E+01 5.58366E+01-5.78278E+04-1.79898E-09 1.17816E-08
 -1       581 2.03241E+05 1.76874E+01 8.23914E+01-5.24484E+04 1.06957E-09-2.62889E-09
 -1       582 2.03264E+05 3.37633E+01 1.62562E+02-5.77949E+04-4.66116E-10-5.04951E-09
 -1       583 2.03274E+05 7.06489E+01 3.14589E+02-5.24781E+04 1.13541E-08 2.18779E-09
 -1       584 2.03421E+05 3.20538E+02 7.07271E+02-5.75463E+04 2.26892E-08-1.62958E-08
 -1       585 2.03237E+05 9.42104E+02 1.43719E+03-5.26975E+04 1.20644E-08-1.73859E-08
 -1       586-2.50380E+03 6.62710E+04-3.08512E+03-1.81704E+05-6.66660E-10-6.23663E-09
 -1       587-5.91511E+02 6.58885E+04-1.09710E+02-1.99998E+05-5.98448E-10 6.87919E-09
 -1       588 6.84658E+02 6.59295E+04 2.76827E+03-1.81616E+05-4.07454E-10 1.23109E-08
 -1       589 3.76903E+03 6.74261E+04 7.73850E+03-1.99790E+05-8.42192E-10-3.45744E-09
 -1       590 1.10906E+04 6.50506E+04 1.64535E+04-1.81922E+05-3.98359E-10 7.75981E-09
 -1       591-4.15798E+04-1.10257E+04-1.42013E+04-2.03403E+04 3.81192E-10 5.43878E-10
 -1       592-4.33809E+04-1.40435E+04-7.69221E+03-2.35080E+04-2.25532E-09-9.71556E-09
 -1       593-4.30083E+04-9.98672E+03-3.20217E+03-2.13733E+04 5.11022E-11-8.13645E-09
 -1       594-4.14092E+04-1.19715E+04-1.59709E+03-2.35967E+04-5.54110E-10 7.23725E-09
 -1       595-4.31175E+04-9.98257E+03-7.33732E+02-2.14205E+04-3.67947E-10 2.05765E-09
 -1       596-4.12750E+04-1.18767E+04-3.73715E+02-2.35818E+04 2.41144E-09-7.23730E-10
 -1       597-4.31312E+04-9.99195E+03-2.05019E+02-2.14223E+04 1.77494E-10 8.16129E-09
 -1       598-4.12620E+04-1.18730E+04-1.67601E+02-2.35777E+04-2.80738E-09 1.71644E-09
 -1       599-4.31302E+04-9.99208E+03-2.17563E+02-2.14220E+04-1.32923E-09 4.88080E-09
 -1       600-4.12760E+04-1.18777E+04-4.06949E+02-2.35811E+04 3.97506E-09 1.94871E-09
 -1       601-4.31133E+04-9.98238E+03-8.04254E+02-2.14193E+04 8.38611E-09 3.28885E-09
 -1       602-4.14231E+04-1.19814E+04-1.75357E+03-2.35952E+04 9.39406E-09-6.04314E-09
 -1       603-4.29918E+04-9.98881E+03-3.51702E+03-2.13678E+04 4.72710E-10 5.57293E-10
 -1       604-4.35985E+04-1.42462E+04-8.44852E+03-2.34838E+04 7.52266E-10 1.02916E-08
 -1       605-4.14107E+04-1.11399E+04-1.55976E+04-2.02441E+04 7.76993E-10 8.42283E-09
 -1       606 2.55634E+04-9.70025E+03-1.74465E+04 2.47479E+04-1.80717E-09-3.71620E-09
 -1       607 2.25771E+04-3.13936E+03-8.68756E+03 2.77847E+04-6.91216E-10-4.53292E-09
 -1       608 2.42730E+04-5.39110E+02-3.89015E+03 2.45532E+04 1.00772E-09 1.76806E-09
 -1       609 2.39383E+04-1.51943E+02-1.96488E+03 2.80027E+04-2.67755E-09 5.69298E-09
 -1       610 2.41189E+04 1.19757E+01-9.38301E+02 2.45313E+04 8.16726E-10 1.02036E-08
 -1       611 2.40579E+04 2.19093E+01-4.73134E+02 2.80265E+04-2.91038E-11-1.34287E-09
 -1       612 2.40791E+04 2.61681E+01-2.25927E+02 2.45291E+04-2.58296E-10-4.66798E-10
 -1       613 2.40577E+04 2.92216E+01-1.02251E+02 2.80293E+04-5.15865E-09-1.40431E-08
 -1       614 2.40578E+04 2.58181E+01-2.68122E+01 2.45284E+04 6.44104E-09 1.79853E-10
 -1       615 2.40476E+04 3.37725E+01 3.62280E+01 2.80298E+04 2.04145E-08 3.53543E-09
 -1       616 2.40415E+04 3.08397E+01 1.14702E+02 2.45286E+04 4.81623E-09-3.78441E-09
 -1       617 2.40565E+04 6.12463E+01 2.64205E+02 2.80293E+04 3.52884E-10-1.12218E-08
 -1       618 2.40149E+04 1.09331E+02 5.33388E+02 2.45288E+04 1.24101E-09 5.21368E-10
 -1       619 2.42419E+04 4.75594E+02 1.19839E+03 2.80286E+04 6.46651E-10 8.69545E-09
 -1       620 2.38359E+04 1.37599E+03 2.40885E+03 2.45279E+04 2.41357E-09 7.92397E-09
 -1       621 2.56923E+02 2.09132E+05 2.34062E+03 1.26305E+04-7.32143E-11-2.66391E-09
 -1       622 3.10287E+02 2.09706E+05 2.14743E+03 1.83909E+04 0.00000E+00 2.45927E-09
 -1       623 1.84177E+01 2.09271E+05 2.67882E+03 1.25697E+04 2.60911E-11-5.65024E-10
 -1       624 1.27532E+03 2.10582E+05 5.26969E+03 1.84529E+04 7.69376E-11-8.57426E-10
 -1       625 1.28174E+03 2.08237E+05 9.24715E+03 1.25681E+04 1.48248E-10-6.41728E-09
 -1       626 1.82582E+05 4.85588E+04 3.93598E+03 9.57815E+04-2.85945E-09-7.53425E-09
 -1       627 1.80374E+05 5.00583E+04 1.89659E+03 9.95396E+04-1.98452E-09-1.83617E-08
 -1       628 1.82706E+05 4.67248E+04 8.01368E+02 9.64094E+04-5.83532E-09-8.06358E-09
 -1       629 1.79841E+05 4.95774E+04 3.92392E+02 9.97642E+04-1.34951E-08-7.29486E-09
 -1       630 1.82715E+05 4.66376E+04 1.81318E+02 9.64302E+04 1.94632E-10-6.41225E-09
 -1       631 1.79778E+05 4.95634E+04 9.68652E+01 9.97654E+04 1.53846E-08-6.15320E-09
 -1       632 1.82708E+05 4.66435E+04 6.25714E+01 9.64234E+04 5.15183E-09-2.13172E-08
 -1       633 1.79767E+05 4.95678E+04 6.79021E+01 9.97591E+04 1.08705E-08 3.37855E-09
 -1       634 1.82700E+05 4.66439E+04 1.08118E+02 9.64197E+04 1.31315E-08 3.39151E-09
 -1       635 1.79772E+05 4.95688E+04 2.17978E+02 9.97595E+04 4.86443E-09 2.01021E-09
 -1       636 1.82689E+05 4.66423E+04 4.39713E+02 9.64172E+04 1.20423E-08-1.67347E-10
 -1       637 1.79863E+05 4.96383E+04 9.66211E+02 9.97559E+04 1.47789E-08-2.54149E-08
 -1       638 1.82652E+05 4.68573E+04 1.98545E+03 9.63187E+04 1.50189E-08 5.15365E-09
 -1       639 1.80904E+05 5.10891E+04 4.69708E+03 9.94467E+04-1.38004E-09 2.54295E-09
 -1       640 1.82512E+05 5.11829E+04 9.74749E+03 9.44860E+04 1.60571E-09-4.52792E-09
 -1       656 4.83793E+04-1.22865E+06-1.16794E+05-5.87504E+02 1.89175E-10-1.68949E-08
 -1       657-6.39563E+04-1.28138E+06-9.66491E+04 6.98507E+03 4.36557E-11-1.33491E-08
 -1       658 1.53718E+04-1.24367E+06-5.93897E+04-1.80780E+03 3.59137E-10-2.34496E-09
 -1       659-6.87891E+04-1.28367E+06-1.02997E+05 7.85108E+03-1.21872E-09-8.71128E-09
 -1       660 5.32005E+04-1.22636E+06-1.27712E+05-1.45350E+03-7.27596E-10 1.49412E-09
 -1       661 1.55369E+05 1.67812E+04 1.52434E+04 6.07444E+04 1.21099E-09-1.19326E-09
 -1       662 1.63496E+05 2.85529E+04 1.02718E+04 5.78834E+04 1.77431E-09-6.54518E-09
 -1       663 1.58359E+05 2.16753E+04 3.59301E+03 5.98805E+04 2.56364E-10 3.48609E-09
 -1       664 1.60035E+05 2.28251E+04 2.14843E+03 5.89347E+04-8.80732E-10-3.90602E-09
 -1       665 1.58808E+05 2.23481E+04 8.47537E+02 5.97537E+04 9.64576E-10-4.53610E-09
 -1       666 1.59508E+05 2.20522E+04 4.94716E+02 5.90977E+04-1.43629E-10 4.92973E-10
 -1       667 1.58883E+05 2.24280E+04 2.61424E+02 5.97250E+04 5.78012E-10-1.64651E-10
 -1       668 1.59426E+05 2.19901E+04 2.63191E+02 5.91388E+04 1.83903E-10-6.81920E-09
 -1       669 1.58888E+05 2.24084E+04 3.53766E+02 5.97132E+04 1.50978E-09 8.87738E-09
 -1       670 1.59515E+05 2.21778E+04 7.67889E+02 5.91381E+04 1.50288E-09-3.15293E-09
 -1       671 1.58794E+05 2.22441E+04 1.36266E+03 5.97242E+04-1.41903E-09-2.16352E-09
 -1       672 1.60311E+05 2.35020E+04 3.48568E+03 5.89446E+04 3.43775E-10 1.00131E-08
 -1       673 1.58097E+05 2.11175E+04 5.84122E+03 5.98938E+04-2.55511E-09 8.23093E-09
 -1       674 1.65873E+05 3.28837E+04 1.67047E+04 5.73081E+04-2.92687E-09-8.46717E-09
 -1       675 1.53268E+05 1.31249E+04 2.47951E+04 6.12618E+04-2.89219E-10-5.84623E-09
 -1       676 1.90445E+01-2.29513E+05-8.84706E+02 1.49072E+01-2.07038E-09-6.92307E-09
 -1       677-2.34932E+02-2.29727E+05-1.61912E+03-2.97988E+01-1.49387E-09-1.89208E-08
 -1       678 1.56829E+02-2.29361E+05-2.86217E+03 1.48814E+01 2.44540E-10-8.21702E-09
 -1       679-2.86290E+03-2.31454E+05-6.79911E+03-2.96978E+01 8.06040E-11-2.56042E-09
 -1       680 1.70855E+03-2.27786E+05-1.09579E+04 1.46374E+01-1.04819E-09 5.25963E-09
 -1       771-2.43615E+06-4.88372E+05-7.76627E+04-1.07656E+06-1.54832E-08-1.14524E-08
 -1       772-2.40209E+06-5.37776E+05-4.09735E+04-1.13262E+06-1.32131E-08 4.05817E-09
 -1       773-2.44911E+06-4.78179E+05-1.89727E+04-1.08139E+06-1.17143E-08 6.59929E-09
 -1       774-2.39330E+06-5.29281E+05-8.88400E+03-1.14107E+06 1.62254E-09-5.48425E-09
 -1       775-2.45398E+06-4.74780E+05-5.39103E+03-1.08271E+06-4.55475E-09 2.34286E-09
 -1       776-2.39535E+06-5.28948E+05-2.23271E+03-1.14661E+06-2.28465E-09 1.92085E-09
 -1       777-2.45787E+06-4.71935E+05-1.95538E+03-1.08381E+06 5.87897E-09 1.92449E-09
 -1       778-2.39785E+06-5.28812E+05-6.45123E+02-1.15128E+06 5.29690E-09 5.34783E-09
 -1       779-2.46110E+06-4.69512E+05-8.75886E+02-1.08475E+06-5.93718E-09-6.90852E-09
 -1       780-2.40006E+06-5.28664E+05-2.30851E+02-1.15505E+06 8.90213E-09 5.33328E-09
 -1       781-2.46359E+06-4.67591E+05-4.38828E+02-1.08549E+06-7.52334E-09-2.94040E-09
 -1       782-2.40176E+06-5.28521E+05-1.95659E+02-1.15782E+06-1.70694E-08-4.48949E-09
 -1       783-2.46530E+06-4.66291E+05-4.26476E+02-1.08600E+06 4.25644E-10-6.08748E-09
 -1       784-2.40300E+06-5.28603E+05-7.40814E+02-1.15949E+06-8.51105E-09-1.45519E-10
 -1       785-2.46603E+06-4.65731E+05-1.42429E+03-1.08616E+06-1.79389E-08 3.40515E-09
 -1       786 1.30573E+05-8.53900E+03 1.97545E+04-8.70523E+01 1.20458E-09 6.20093E-09
 -1       787 1.39137E+05 9.88549E+03 1.39758E+04 2.60530E+01 2.67845E-09 5.16570E-09
 -1       788 1.33876E+05-1.33854E+03 5.11201E+03-6.73019E+01 1.22584E-09 3.12889E-09
 -1       789 1.35289E+05 1.54865E+03 3.21063E+03-6.30777E+00 6.22482E-10 2.96581E-09
 -1       790 1.34421E+05-2.08947E+02 1.30337E+03-5.46945E+01-6.96187E-10 2.28647E-09
 -1       791 1.34653E+05 2.41906E+02 7.59454E+02-2.86763E+01-1.37076E-09 1.54971E-08
 -1       792 1.34513E+05-3.27741E+01 3.35167E+02-4.49335E+01-1.03798E-09 3.68046E-09
 -1       793 1.34546E+05 4.04946E+01 1.96350E+02-4.77032E+01 2.48234E-10-2.01439E-10
 -1       794 1.34528E+05-7.66514E+00 1.09836E+02-3.56673E+01 5.88696E-10-3.28058E-09
 -1       795 1.34537E+05 2.59911E+01 1.07420E+02-6.77878E+01 3.24079E-11-3.29052E-09
 -1       796 1.34523E+05-1.82760E+01 1.29785E+02-2.48485E+01 4.84301E-10 2.46533E-09
 -1       797 1.34587E+05 1.30893E+02 2.80275E+02-9.33347E+01 1.13917E-09-7.70017E-09
 -1       798 1.34477E+05-1.12492E+02 4.34118E+02-1.01199E+01 1.51029E-10 2.46521E-09
 -1       799 1.34910E+05 8.30189E+02 1.17605E+03-1.29956E+02 3.95474E-10 1.16806E-08
 -1       800 1.34200E+05-7.17016E+02 1.65916E+03 1.17739E+01 1.03635E-10 1.14761E-08
 -1       801 7.92369E+04-2.68279E+06-2.49198E+05 4.60278E+04 1.61817E-08-4.74938E-09
 -1       802-9.46041E+04-2.48857E+06-1.19790E+05-5.06857E+04 4.56621E-08-1.49112E-09
 -1       803 1.36185E+04-2.58625E+06-5.00571E+04 1.17991E+05 3.34439E-08 2.63167E-08
 -1       804 5.41183E+03-2.47305E+06 1.06206E+04-2.38981E+03 3.17377E-08 3.22846E-08
 -1       805-2.20892E+04-2.69797E+06-4.23525E+03-2.27447E+03 1.17725E-08 1.70737E-08
 -1       806-2.22751E+05-4.30764E+04-1.67586E+04-8.80218E+04-1.27193E-09-4.26508E-09
 -1       807-2.24156E+05-4.02543E+04-8.23326E+03-9.19814E+04 6.29598E-10-8.24807E-09
 -1       808-2.23202E+05-3.70461E+04-3.49279E+03-9.08895E+04-3.06500E-09-5.84612E-09
 -1       809-2.22427E+05-3.79408E+04-1.70785E+03-9.21851E+04-5.57293E-10 1.92381E-09
 -1       810-2.23272E+05-3.68353E+04-7.82469E+02-9.10170E+04 6.33236E-09 8.98808E-10
 -1       811-2.22294E+05-3.78476E+04-3.88805E+02-9.21609E+04 1.82740E-09-4.66810E-09
 -1       812-2.23285E+05-3.68523E+04-1.95704E+02-9.10172E+04-2.28283E-10-3.38014E-09
 -1       813-2.22277E+05-3.78489E+04-1.25976E+02-9.21491E+04 2.91038E-11 1.42427E-09
 -1       814-2.23282E+05-3.68581E+04-1.22547E+02-9.10149E+04 2.61480E-09-3.88081E-09
 -1       815-2.22281E+05-3.78503E+04-1.95897E+02-9.21460E+04 5.20959E-09 5.39603E-09
 -1       816-2.23270E+05-3.68562E+04-3.69810E+02-9.10132E+04 3.14776E-09 6.51698E-09
 -1       817-2.22345E+05-3.78853E+04-7.93869E+02-9.21403E+04-7.96717E-10-4.22574E-09
 -1       818-2.23224E+05-3.69665E+04-1.61858E+03-9.09609E+04 1.07411E-09-1.34742E-08
 -1       819-2.23233E+05-3.88635E+04-3.80941E+03-9.19338E+04 2.56796E-09-1.88629E-09
 -1       820-2.22925E+05-3.98392E+04-7.75296E+03-8.97269E+04-3.94539E-09-1.21429E-08
 -1       821-2.74860E+05 1.51999E+04-3.51521E+04 2.40748E+02 1.59193E-09-5.98629E-09
 -1       822-2.90093E+05-1.75962E+04-2.48752E+04-7.50041E+02-2.14120E-09-1.00968E-08
 -1       823-2.80739E+05 2.38304E+03-9.10455E+03 2.17201E+02-3.49907E-11-3.24098E-09
 -1       824-2.83234E+05-2.75794E+03-5.72785E+03-5.72792E+02 4.61462E-11 4.45834E-09
 -1       825-2.81718E+05 3.72817E+02-2.35589E+03 6.34965E+01-7.92063E-10 3.05090E-09
 -1       826-2.82093E+05-4.39551E+02-1.42008E+03-1.99171E+02-3.16330E-09 5.71234E-10
 -1       827-2.81878E+05 6.60685E+01-7.38916E+02-1.56426E+02-2.07663E-09-6.42186E-09
 -1       828-2.81942E+05-1.34747E+02-6.52428E+02 2.16281E+02-4.23413E-09-1.23168E-09
 -1       829-2.81869E+05 6.83236E+01-7.54372E+02-3.51962E+02 2.34250E-10 3.47012E-09
 -1       830-2.82124E+05-4.56251E+02-1.47379E+03 5.02138E+02 1.46536E-09 4.33261E-10
 -1       831-2.81697E+05 3.87675E+02-2.44248E+03-4.42289E+02-2.48611E-09-5.08805E-09
 -1       832-2.83299E+05-2.86518E+03-5.95250E+03 5.40657E+02-1.46138E-09 5.69912E-09
 -1       833-2.80695E+05 2.47557E+03-9.46007E+03-3.90481E+02-1.00866E-09 5.98357E-09
 -1       834-2.90400E+05-1.82821E+04-2.58440E+04 3.15834E+02-8.62008E-10-5.19549E-09
 -1       835-2.74598E+05 1.57925E+04-3.65286E+04-2.17457E+02 4.70880E-09 9.90440E-09
 -1       836-9.29414E+02 2.58978E+05 1.56980E+04-1.65892E+04 2.72848E-12-4.72482E-10
 -1       837 3.42590E+03 2.63856E+05 1.34364E+04-3.33508E+04 3.90855E-10-3.18141E-09
 -1       838-3.55122E+02 2.60327E+05 1.39048E+04-1.65261E+04 4.72028E-10 2.38515E-09
 -1       839 8.91472E+03 2.67949E+05 2.65149E+04-3.33851E+04 1.08457E-09-1.94677E-09
 -1       840-2.70105E+03 2.54849E+05 4.23725E+04-1.65541E+04 6.02085E-10-1.00439E-08
 -1       856-7.14337E+04 6.98545E+03-1.84084E+04-3.94257E+02-3.36900E-09-1.18234E-09
 -1       857-7.90351E+04-8.19496E+03-1.26735E+04 4.36506E+03 1.38746E-09 2.56478E-10
 -1       858-7.44378E+04 9.78915E+02-4.77725E+03-4.13148E+02-3.84750E-09-3.31784E-09
 -1       859-7.55855E+04-1.13993E+03-2.88471E+03 4.39481E+03 7.93790E-10-9.64064E-10
 -1       860-7.48869E+04 1.36283E+02-1.21188E+03-4.24083E+02-5.98988E-10-2.79783E-09
 -1       861-7.50682E+04-1.52007E+02-6.72859E+02 4.40976E+03-2.45156E-09-5.09147E-09
 -1       862-7.49569E+04 1.80518E+01-2.92067E+02-4.28119E+02 3.45395E-09-6.73009E-09
 -1       863-7.49846E+04-1.12394E+01-1.34470E+02 4.41167E+03 7.67204E-09-1.23544E-08
 -1       864-7.49708E+04-1.38047E+00-2.20976E+01-4.26002E+02 2.88564E-09-1.06436E-08
 -1       865-7.49538E+04 3.14843E+01 8.15110E+01 4.40077E+03 2.16700E-09 6.01209E-09
 -1       866-7.49863E+04-2.49529E+01 1.96768E+02-4.17212E+02-3.68715E-09 2.95491E-09
 -1       867-7.48529E+04 2.08369E+02 5.05095E+02 4.37688E+03 3.37423E-10 6.25300E-09
 -1       868-7.50686E+04-1.75907E+02 8.44429E+02-4.02115E+02 1.27898E-11-2.01896E-09
 -1       869-7.42280E+04 1.46286E+03 2.25593E+03 4.33705E+03-2.11193E-09-6.66401E-09
 -1       870-7.56063E+04-1.24658E+03 3.27301E+03-3.77384E+02-1.87293E-09-7.31029E-09
 -1       871-4.12905E+03-9.76505E+03-1.35729E+04 8.99762E+04 1.40426E-09-1.80353E-09
 -1       872-1.75033E+03-1.28226E+04-5.56655E+03 1.16652E+05 1.85173E-09-1.31804E-08
 -1       873 6.52219E+00-1.13864E+04 7.05323E+02 8.97786E+04 7.45104E-10-4.81407E-09
 -1       874 2.10221E+03-9.47224E+03 7.50008E+03 1.16689E+05 1.20963E-09 7.42693E-09
 -1       875 4.87878E+03-1.31693E+04 1.66910E+04 8.99440E+04 6.67569E-10 1.10322E-09
 -1       876 2.17526E+05 3.72489E+04 1.14697E+04 8.79844E+04-2.06057E-09 2.32285E-09
 -1       877 2.18217E+05 3.97313E+04 6.12511E+03 9.13382E+04-2.10730E-09 7.06086E-09
 -1       878 2.18598E+05 3.59796E+04 2.56616E+03 8.89263E+04-3.47495E-09 1.75123E-09
 -1       879 2.16658E+05 3.81768E+04 1.27841E+03 9.14186E+04-6.79313E-09-1.18183E-09
 -1       880 2.18676E+05 3.59656E+04 5.95311E+02 8.89647E+04-3.03066E-09 6.35077E-09
 -1       881 2.16554E+05 3.81107E+04 3.17380E+02 9.14022E+04 8.63224E-10 1.58605E-09
 -1       882 2.18684E+05 3.59750E+04 2.02181E+02 8.89659E+04 8.03436E-09 7.05183E-09
 -1       883 2.16547E+05 3.81075E+04 2.15938E+02 9.13974E+04-2.32887E-10 1.05624E-08
 -1       884 2.18679E+05 3.59727E+04 3.42239E+02 8.89660E+04-1.21241E-09 5.60647E-09
 -1       885 2.16574E+05 3.81124E+04 6.87303E+02 9.14059E+04 2.36685E-09 5.79138E-09
 -1       886 2.18653E+05 3.59526E+04 1.38488E+03 8.89633E+04 5.40768E-09 4.94140E-09
 -1       887 2.16817E+05 3.82719E+04 3.02498E+03 9.14410E+04-4.37171E-09-3.62957E-09
 -1       888 2.18461E+05 3.59863E+04 6.09543E+03 8.88664E+04-3.38503E-10-6.83440E-09
 -1       889 2.20449E+05 4.20438E+04 1.45614E+04 9.13269E+04-2.86287E-10-1.11650E-08
 -1       890 2.15978E+05 3.89367E+04 2.72725E+04 8.65414E+04 4.46130E-09-2.66664E-09
 -1       891-1.24270E+02-1.22707E+05-1.46704E+03 2.25170E+04 1.45371E-09 1.36562E-08
 -1       892-2.18478E+02-1.23065E+05-1.58878E+03 3.40906E+04-2.84899E-10 1.24419E-08
 -1       893-2.63579E+01-1.22754E+05-2.26299E+03 2.25216E+04 2.49884E-10 8.19273E-09
 -1       894-1.21748E+03-1.23929E+05-4.69356E+03 3.39685E+04 5.82986E-10 9.10813E-09
 -1       895-9.53720E+02-1.21778E+05-8.26883E+03 2.26378E+04-3.83920E-10-2.14186E-09
 -1       956-2.75253E+05-3.88663E+03-9.76438E+03 1.87417E+04-1.31558E-09 5.87772E-09
 -1       957-2.77180E+05-1.31741E+03-5.01261E+03 2.25689E+04-3.64525E-09 3.13412E-09
 -1       958-2.76121E+05-1.11391E+02-2.25833E+03 1.86269E+04-3.61069E-10-6.66955E-09
 -1       959-2.76273E+05-2.63124E+01-1.15354E+03 2.26946E+04-1.48793E-09-1.89561E-09
 -1       960-2.76199E+05 2.58436E+01-5.62390E+02 1.86158E+04-2.81943E-10-2.35923E-09
 -1       961-2.76207E+05 2.25729E+01-2.98483E+02 2.27072E+04-2.47837E-09 7.66249E-09
 -1       962-2.76214E+05 2.20440E+01-1.71023E+02 1.86142E+04-4.45721E-09 8.09314E-09
 -1       963-2.76204E+05 2.37925E+01-1.37618E+02 2.27094E+04-5.00268E-09 4.35352E-09
 -1       964-2.76217E+05 2.38698E+01-1.67480E+02 1.86136E+04-1.27500E-10 9.33437E-09
 -1       965-2.76214E+05 2.64920E+01-2.89763E+02 2.27092E+04 3.59555E-09 1.87242E-09
 -1       966-2.76208E+05 3.12630E+01-5.44171E+02 1.86143E+04-2.83649E-09 9.30527E-10
 -1       967-2.76284E+05-1.69663E+01-1.11619E+03 2.27014E+04 8.62201E-10 1.11939E-08
 -1       968-2.76138E+05-9.78917E+01-2.18448E+03 1.86215E+04-9.18590E-11 4.53554E-09
 -1       969-2.77169E+05-1.26292E+03-4.85012E+03 2.26173E+04 1.15506E-10-1.16695E-08
 -1       970-2.75304E+05-3.74848E+03-9.44716E+03 1.86997E+04 1.56297E-09 9.87438E-09
 -1       971-2.58497E+05-1.34392E+03-7.43972E+03 1.22889E+04-2.70575E-09 1.89524E-09
 -1       972-2.60304E+05-9.67244E+02-4.05172E+03 1.71410E+04 4.18368E-11 2.72723E-09
 -1       973-2.59324E+05-1.44397E+01-1.81429E+03 1.21873E+04-9.92713E-10-6.28575E-09
 -1       974-2.59447E+05-1.67332E+01-9.40047E+02 1.72513E+04-2.54659E-10-1.01400E-08
 -1       975-2.59388E+05 2.02225E+01-4.69063E+02 1.21780E+04-2.91948E-10-4.91457E-09
 -1       976-2.59396E+05 2.20746E+01-2.69231E+02 1.72627E+04-1.62515E-09-1.33967E-08
 -1       977-2.59401E+05 1.99391E+01-1.92854E+02 1.21759E+04-4.77939E-10 3.78100E-09
 -1       978-2.59399E+05 2.63486E+01-2.22247E+02 1.72657E+04 7.14437E-09-1.95371E-09
 -1       979-2.59400E+05 2.59170E+01-3.54091E+02 1.21750E+04-1.30956E-09 5.99357E-09
 -1       980-2.59425E+05 2.85086E+01-6.81832E+02 1.72662E+04-2.43047E-09 6.75254E-09
 -1       981-2.59378E+05 4.29306E+01-1.31954E+03 1.21754E+04-2.74918E-09 5.72567E-09
 -1       982-2.59607E+05-6.88041E+01-2.72689E+03 1.72610E+04-2.37424E-09-2.66185E-09
 -1       983-2.59213E+05-4.12799E+01-5.29800E+03 1.21803E+04 7.39647E-10-6.90648E-09
 -1       984-2.62155E+05-2.83528E+03-1.18641E+04 1.71919E+04-4.45402E-09 5.05520E-09
 -1       985-2.56815E+05-3.91779E+03-2.17864E+04 1.22478E+04 3.73666E-09 8.07904E-09
 -3
    1PSTEP                        21          11           1          
  100CL  111 5.20752E-01         409                     0   11           1
 -4  DISP        4    1
 -5  D1          1    2    1    0
 -5  D2          1    2    2    0
 -5  D3          1    2    3    0
 -5  ALL         1    2    0    0    1ALL
 -1         1 8.28100E-04 0.00000E+00 0.00000E+00
 -1         2 7.97262E-04-2.02917E-29 0.00000E+00
 -1         3 1.79351E-04 1.20632E-27-1.32349E-23
 -1         5 1.11411E-04-4.91992E-27 0.00000E+00
 -1         8 8.06079E-04-7.14408E-07 0.00000E+00
 -1         9 7.93570E-04-2.25466E-06 0.00000E+00
 -1        10 1.64306E-04-2.33131E-06 0.00000E+00
 -1        12 1.11372E-04 5.72687E-07 1.65436E-24
 -1        15 7.79700E-04-7.90599E-07 2.06795E-25
 -1        16 7.85983E-04-2.78692E-06 0.00000E+00
 -1        17 1.16844E-04-5.00108E-06 0.00000E+00
 -1        18 1.10106E-04 7.45566E-06 0.00000E+00
 -1        19 1.11258E-04 1.14248E-06 0.00000E+00
 -1        20 1.11394E-04 9.99339E-06 0.00000E+00
 -1        21 1.10800E-04 1.72752E-05-3.30872E-24
 -1        24 2.19859E-05-6.84643E-06 0.00000E+00
 -1        25 1.11267E-04 7.59148E-06 0.00000E+00
 -1        26 1.11976E-04 1.58320E-06 0.00000E+00
 -1        27 1.10398E-04 7.38881E-06 0.00000E+00
 -1        28 1.09986E-04 1.67907E-05 0.00000E+00
 -1        32 0.00000E+00 0.00000E+00 0.00000E+00
 -1        33 1.11636E-04 2.12178E-06 0.00000E+00
 -1        34 1.10070E-04 7.36318E-06 0.00000E+00
 -1        35 1.08603E-04 1.65318E-05 0.00000E+00
 -1        51 8.26676E-04-1.21611E-07 0.00000E+00
 -1        52 8.24030E-04-2.35814E-07 0.00000E+00
 -1        53 8.20399E-04-3.50340E-07 0.00000E+00
 -1        54 8.16031E-04-4.66849E-07 0.00000E+00
 -1        55 8.11175E-04-5.86350E-07 2.06795E-24
 -1        56 8.26230E-04-7.05494E-07 2.64698E-23
 -1        57 8.24287E-04-1.42710E-06-2.64698E-23
 -1        58 8.22332E-04-2.10316E-06 5.29396E-23
 -1        59 8.20336E-04-2.70684E-06 2.64698E-23
 -1        60 8.18301E-04-3.20808E-06 5.29396E-23
 -1        61 8.16218E-04-3.58640E-06 0.00000E+00
 -1        62 8.14085E-04-3.83168E-06-5.29396E-23
 -1        63 8.11900E-04-3.94055E-06 0.00000E+00
 -1        64 8.09667E-04-3.92190E-06-5.29396E-23
 -1        65 8.07392E-04-3.79038E-06 2.64698E-23
 -1        66 8.05084E-04-3.57112E-06 5.29396E-23
 -1        67 8.02756E-04-3.29264E-06 2.64698E-23
 -1        68 8.00419E-04-2.98990E-06 0.00000E+00
 -1        69 7.98097E-04-2.69472E-06-2.64698E-23
 -1        70 7.95789E-04-2.44677E-06 0.00000E+00
 -1        86 7.97126E-04-3.74153E-07 1.32349E-23
 -1        87 7.96718E-04-7.48533E-07 0.00000E+00
 -1        88 7.96092E-04-1.12305E-06 0.00000E+00
 -1        89 7.95301E-04-1.49867E-06 6.61744E-24
 -1        90 7.94431E-04-1.87401E-06-1.32349E-23
 -1       121 1.78930E-04-3.84509E-07 1.32349E-23
 -1       122 1.77668E-04-7.69705E-07-6.61744E-24
 -1       123 1.75568E-04-1.15627E-06-1.32349E-23
 -1       124 1.72636E-04-1.54492E-06 0.00000E+00
 -1       125 1.68878E-04-1.93619E-06 0.00000E+00
 -1       191 1.11410E-04 9.54513E-08 3.30872E-24
 -1       192 1.11407E-04 1.90901E-07-1.65436E-24
 -1       193 1.11401E-04 2.86352E-07 0.00000E+00
 -1       194 1.11394E-04 3.81801E-07 0.00000E+00
 -1       195 1.11384E-04 4.77247E-07-3.30872E-24
 -1       251 8.05489E-04 8.99304E-06-1.32349E-23
 -1       252 8.04738E-04 2.91446E-05 0.00000E+00
 -1       253 8.03835E-04 5.62331E-05 0.00000E+00
 -1       254 8.02840E-04 8.65926E-05-6.61744E-24
 -1       255 8.01880E-04 1.15692E-04 1.32349E-23
 -1       256 8.01065E-04 1.39029E-04-6.61744E-24
 -1       257 8.00404E-04 1.53626E-04 0.00000E+00
 -1       258 7.99840E-04 1.56703E-04 6.61744E-24
 -1       259 7.99250E-04 1.48512E-04 1.32349E-23
 -1       260 7.98520E-04 1.29559E-04-6.61744E-24
 -1       261 7.97633E-04 1.03186E-04 1.32349E-23
 -1       262 7.96639E-04 7.29012E-05 0.00000E+00
 -1       263 7.95663E-04 4.32492E-05 1.32349E-23
 -1       264 7.94822E-04 1.87618E-05 0.00000E+00
 -1       265 7.94138E-04 2.60212E-06 0.00000E+00
 -1       266 8.01683E-04-7.37356E-07 0.00000E+00
 -1       267 7.97286E-04-7.48805E-07 0.00000E+00
 -1       268 7.92890E-04-7.60983E-07 8.27181E-25
 -1       269 7.88493E-04-7.71003E-07 0.00000E+00
 -1       270 7.84096E-04-7.80972E-07 0.00000E+00
 -1       271 8.03445E-04 2.92297E-06-2.64698E-23
 -1       272 8.01030E-04 5.87317E-06-1.32349E-23
 -1       273 7.98867E-04 8.15946E-06 0.00000E+00
 -1       274 7.96943E-04 9.79819E-06 0.00000E+00
 -1       275 7.95251E-04 1.08199E-05 0.00000E+00
 -1       276 7.93775E-04 1.12621E-05-1.32349E-23
 -1       277 7.92500E-04 1.11713E-05 2.64698E-23
 -1       278 7.91404E-04 1.06017E-05 1.32349E-23
 -1       279 7.90464E-04 9.61478E-06 2.64698E-23
 -1       280 7.89656E-04 8.27791E-06-1.32349E-23
 -1       281 7.88951E-04 6.66384E-06 0.00000E+00
 -1       282 7.88322E-04 4.84940E-06 1.32349E-23
 -1       283 7.87738E-04 2.91429E-06 0.00000E+00
 -1       284 7.87172E-04 9.41257E-07 1.32349E-23
 -1       285 7.86589E-04-9.89185E-07 2.64698E-23
 -1       301 7.92009E-04-2.35454E-06 6.61744E-24
 -1       302 7.90091E-04-2.43647E-06 0.00000E+00
 -1       303 7.88171E-04-2.51744E-06 0.00000E+00
 -1       304 7.86609E-04-2.59855E-06 0.00000E+00
 -1       305 7.85762E-04-2.68092E-06-1.32349E-23
 -1       306 8.14346E-04-7.44729E-05-5.29396E-23
 -1       307 8.67600E-04-2.87488E-04 0.00000E+00
 -1       308 9.33785E-04-6.06224E-04 5.29396E-23
 -1       309 1.00229E-03-9.84732E-04 2.64698E-23
 -1       310 1.07067E-03-1.35883E-03 0.00000E+00
 -1       311 1.13587E-03-1.66473E-03 2.64698E-23
 -1       312 1.18582E-03-1.85903E-03 5.29396E-23
 -1       313 1.20000E-03-1.91013E-03 0.00000E+00
 -1       314 1.15743E-03-1.81913E-03 0.00000E+00
 -1       315 1.04338E-03-1.60165E-03-2.64698E-23
 -1       316 8.66605E-04-1.29627E-03 0.00000E+00
 -1       317 6.49882E-04-9.43892E-04 0.00000E+00
 -1       318 4.34796E-04-5.93384E-04-5.29396E-23
 -1       319 2.62534E-04-2.93695E-04 0.00000E+00
 -1       320 1.54222E-04-8.50283E-05 0.00000E+00
 -1       336 1.58825E-04-2.76120E-06 0.00000E+00
 -1       337 1.52340E-04-3.19731E-06 0.00000E+00
 -1       338 1.44874E-04-3.63977E-06 1.32349E-23
 -1       339 1.36451E-04-4.08831E-06 0.00000E+00
 -1       340 1.27097E-04-4.54488E-06 6.61744E-24
 -1       406 1.11359E-04 6.68117E-07-3.30872E-24
 -1       407 1.11343E-04 7.63516E-07 1.65436E-24
 -1       408 1.11325E-04 8.58860E-07 0.00000E+00
 -1       409 1.11304E-04 9.54032E-07 1.65436E-24
 -1       410 1.11282E-04 1.04886E-06-3.30872E-24
 -1       521 8.07250E-04-8.16008E-05 0.00000E+00
 -1       522 8.61074E-04-3.07094E-04-5.29396E-23
 -1       523 9.27094E-04-6.42980E-04 1.05879E-22
 -1       524 9.94561E-04-1.03932E-03-5.29396E-23
 -1       525 1.06195E-03-1.43037E-03 1.05879E-22
 -1       526 1.12700E-03-1.75097E-03 5.29396E-23
 -1       527 1.17707E-03-1.95407E-03-1.05879E-22
 -1       528 1.19044E-03-2.00753E-03 0.00000E+00
 -1       529 1.14363E-03-1.91115E-03 1.05879E-22
 -1       530 1.02112E-03-1.68344E-03 0.00000E+00
 -1       531 8.31440E-04-1.36415E-03-1.05879E-22
 -1       532 5.99659E-04-9.96996E-04 0.00000E+00
 -1       533 3.69133E-04-6.31226E-04-1.05879E-22
 -1       534 1.82901E-04-3.16123E-04 5.29396E-23
 -1       535 6.47913E-05-9.49698E-05-1.05879E-22
 -1       536 1.16584E-04 1.08765E-05 0.00000E+00
 -1       537 1.16120E-04 3.70719E-05-1.65436E-24
 -1       538 1.15482E-04 6.95774E-05 0.00000E+00
 -1       539 1.14771E-04 1.04351E-04-1.65436E-24
 -1       540 1.14134E-04 1.36736E-04 3.30872E-24
 -1       541 1.13694E-04 1.62089E-04 0.00000E+00
 -1       542 1.13441E-04 1.77639E-04 3.30872E-24
 -1       543 1.13300E-04 1.80670E-04 1.65436E-24
 -1       544 1.13126E-04 1.71700E-04-3.30872E-24
 -1       545 1.12791E-04 1.51321E-04 0.00000E+00
 -1       546 1.12278E-04 1.23091E-04 3.30872E-24
 -1       547 1.11641E-04 9.06143E-05 0.00000E+00
 -1       548 1.11019E-04 5.86356E-05 0.00000E+00
 -1       549 1.10546E-04 3.18963E-05 0.00000E+00
 -1       550 1.10253E-04 1.37393E-05-1.65436E-24
 -1       551 1.04183E-04-5.26143E-06 0.00000E+00
 -1       552 8.94637E-05-5.54594E-06-3.30872E-24
 -1       553 7.32804E-05-5.85126E-06-5.79026E-24
 -1       554 5.62373E-05-6.17207E-06 0.00000E+00
 -1       555 3.89387E-05-6.49940E-06 1.32349E-23
 -1       556 1.13242E-04 4.31735E-06 0.00000E+00
 -1       557 1.10416E-04 1.16421E-05 0.00000E+00
 -1       558 1.08287E-04 1.71453E-05 0.00000E+00
 -1       559 1.06783E-04 2.10120E-05 1.32349E-23
 -1       560 1.05828E-04 2.34271E-05 0.00000E+00
 -1       561 1.05351E-04 2.45768E-05 0.00000E+00
 -1       562 1.05280E-04 2.46473E-05 0.00000E+00
 -1       563 1.05544E-04 2.38256E-05 0.00000E+00
 -1       564 1.06072E-04 2.22987E-05 0.00000E+00
 -1       565 1.06793E-04 2.02536E-05-3.30872E-24
 -1       566 1.07638E-04 1.78778E-05 0.00000E+00
 -1       567 1.08536E-04 1.53586E-05 0.00000E+00
 -1       568 1.09418E-04 1.28835E-05 0.00000E+00
 -1       569 1.10213E-04 1.06397E-05 0.00000E+00
 -1       570 1.10853E-04 8.81450E-06 0.00000E+00
 -1       571 1.10175E-04 7.05818E-06-4.13590E-25
 -1       572 1.10247E-04 6.61806E-06-4.13590E-25
 -1       573 1.10319E-04 6.14413E-06 1.65436E-24
 -1       574 1.10391E-04 5.64565E-06 0.00000E+00
 -1       575 1.10463E-04 5.13189E-06 0.00000E+00
 -1       576 1.10535E-04 4.61219E-06-8.27181E-25
 -1       577 1.10608E-04 4.09589E-06 0.00000E+00
 -1       578 1.10680E-04 3.59235E-06 0.00000E+00
 -1       579 1.10752E-04 3.11091E-06 3.30872E-24
 -1       580 1.10824E-04 2.66092E-06-3.30872E-24
 -1       581 1.10897E-04 2.25173E-06 0.00000E+00
 -1       582 1.10969E-04 1.89269E-06 0.00000E+00
 -1       583 1.11041E-04 1.59311E-06 6.61744E-24
 -1       584 1.11113E-04 1.36223E-06 0.00000E+00
 -1       585 1.11186E-04 1.20922E-06 0.00000E+00
 -1       586 1.10250E-04 7.47985E-06 0.00000E+00
 -1       587 1.10372E-04 7.50346E-06-2.06795E-25
 -1       588 1.10502E-04 7.52678E-06 0.00000E+00
 -1       589 1.10674E-04 7.54967E-06 0.00000E+00
 -1       590 1.10918E-04 7.57181E-06 0.00000E+00
 -1       591 1.10220E-04 7.10379E-06-1.03398E-25
 -1       592 1.10341E-04 6.72604E-06 0.00000E+00
 -1       593 1.10469E-04 6.32808E-06 0.00000E+00
 -1       594 1.10603E-04 5.91488E-06 0.00000E+00
 -1       595 1.10740E-04 5.49146E-06 0.00000E+00
 -1       596 1.10880E-04 5.06280E-06 2.06795E-25
 -1       597 1.11019E-04 4.63387E-06 4.13590E-25
 -1       598 1.11157E-04 4.20966E-06 2.06795E-25
 -1       599 1.11291E-04 3.79513E-06-4.13590E-25
 -1       600 1.11420E-04 3.39525E-06 0.00000E+00
 -1       601 1.11541E-04 3.01500E-06-4.13590E-25
 -1       602 1.11653E-04 2.65934E-06-1.03398E-25
 -1       603 1.11754E-04 2.33326E-06 3.10193E-25
 -1       604 1.11843E-04 2.04180E-06 0.00000E+00
 -1       605 1.11916E-04 1.78987E-06 0.00000E+00
 -1       606 1.11270E-04 1.23531E-06 0.00000E+00
 -1       607 1.11279E-04 1.41656E-06 0.00000E+00
 -1       608 1.11288E-04 1.68104E-06 0.00000E+00
 -1       609 1.11297E-04 2.02291E-06 0.00000E+00
 -1       610 1.11305E-04 2.43627E-06 3.30872E-24
 -1       611 1.11313E-04 2.91517E-06 0.00000E+00
 -1       612 1.11322E-04 3.45361E-06 0.00000E+00
 -1       613 1.11330E-04 4.04564E-06 0.00000E+00
 -1       614 1.11338E-04 4.68527E-06 1.65436E-24
 -1       615 1.11346E-04 5.36652E-06 0.00000E+00
 -1       616 1.11354E-04 6.08343E-06 0.00000E+00
 -1       617 1.11363E-04 6.83000E-06 4.13590E-25
 -1       618 1.11371E-04 7.60025E-06-8.27181E-25
 -1       619 1.11379E-04 8.38823E-06-2.06795E-25
 -1       620 1.11387E-04 9.18793E-06 0.00000E+00
 -1       621 1.11276E-04 1.21609E-06 1.65436E-24
 -1       622 1.11350E-04 1.28996E-06 0.00000E+00
 -1       623 1.11469E-04 1.36380E-06-1.65436E-24
 -1       624 1.11620E-04 1.43750E-06 0.00000E+00
 -1       625 1.11793E-04 1.51107E-06 0.00000E+00
 -1       626 1.11305E-04 1.26081E-06 0.00000E+00
 -1       627 1.11327E-04 1.45063E-06 0.00000E+00
 -1       628 1.11325E-04 1.70476E-06 3.30872E-24
 -1       629 1.11301E-04 2.01558E-06-1.65436E-24
 -1       630 1.11259E-04 2.37552E-06 3.30872E-24
 -1       631 1.11201E-04 2.77691E-06 0.00000E+00
 -1       632 1.11131E-04 3.21211E-06 3.30872E-24
 -1       633 1.11051E-04 3.67349E-06 0.00000E+00
 -1       634 1.10964E-04 4.15338E-06 0.00000E+00
 -1       635 1.10873E-04 4.64414E-06-1.65436E-24
 -1       636 1.10781E-04 5.13814E-06 0.00000E+00
 -1       637 1.10690E-04 5.62773E-06-1.65436E-24
 -1       638 1.10604E-04 6.10525E-06 1.65436E-24
 -1       639 1.10525E-04 6.56305E-06 0.00000E+00
 -1       640 1.10456E-04 6.99349E-06 0.00000E+00
 -1       656 1.10792E-04 9.56965E-06-6.61744E-24
 -1       657 1.10546E-04 9.12896E-06 0.00000E+00
 -1       658 1.10525E-04 8.68958E-06-1.32349E-23
 -1       659 1.10597E-04 8.25056E-06 0.00000E+00
 -1       660 1.10605E-04 7.81016E-06 6.61744E-24
 -1       661 1.11172E-04 1.07694E-05 8.27181E-25
 -1       662 1.10975E-04 1.14851E-05-8.27181E-25
 -1       663 1.10800E-04 1.21429E-05 1.65436E-24
 -1       664 1.10645E-04 1.27464E-05 8.27181E-25
 -1       665 1.10510E-04 1.32985E-05 0.00000E+00
 -1       666 1.10393E-04 1.38025E-05 8.27181E-25
 -1       667 1.10293E-04 1.42611E-05 0.00000E+00
 -1       668 1.10209E-04 1.46773E-05 8.27181E-25
 -1       669 1.10140E-04 1.50538E-05 0.00000E+00
 -1       670 1.10085E-04 1.53934E-05 0.00000E+00
 -1       671 1.10043E-04 1.56984E-05-1.65436E-24
 -1       672 1.10012E-04 1.59716E-05 8.27181E-25
 -1       673 1.09993E-04 1.62153E-05 1.65436E-24
 -1       674 1.09983E-04 1.64316E-05-8.27181E-25
 -1       675 1.09983E-04 1.66232E-05 0.00000E+00
 -1       676 1.10664E-04 1.71940E-05-3.30872E-24
 -1       677 1.10528E-04 1.71128E-05 1.65436E-24
 -1       678 1.10392E-04 1.70316E-05-1.65436E-24
 -1       679 1.10257E-04 1.69507E-05 8.27181E-25
 -1       680 1.10121E-04 1.68698E-05-1.65436E-24
 -1       771 1.54651E-05 7.10686E-06-5.29396E-23
 -1       772 9.91235E-06 1.85379E-05 0.00000E+00
 -1       773 5.28277E-06 2.75800E-05 0.00000E+00
 -1       774 1.51416E-06 3.43782E-05 0.00000E+00
 -1       775-1.45477E-06 3.90820E-05 0.00000E+00
 -1       776-3.68768E-06 4.18472E-05 0.00000E+00
 -1       777-5.24868E-06 4.28335E-05 0.00000E+00
 -1       778-6.20316E-06 4.22061E-05 2.64698E-23
 -1       779-6.61671E-06 4.01334E-05 0.00000E+00
 -1       780-6.55601E-06 3.67882E-05 2.64698E-23
 -1       781-6.08770E-06 3.23459E-05 0.00000E+00
 -1       782-5.27933E-06 2.69853E-05 0.00000E+00
 -1       783-4.19833E-06 2.08870E-05 0.00000E+00
 -1       784-2.91277E-06 1.42337E-05 0.00000E+00
 -1       785-1.49055E-06 7.20976E-06 2.64698E-23
 -1       786 1.11308E-04 7.03873E-06-2.06795E-25
 -1       787 1.11352E-04 6.52359E-06 0.00000E+00
 -1       788 1.11396E-04 6.03994E-06-8.27181E-25
 -1       789 1.11441E-04 5.58176E-06 0.00000E+00
 -1       790 1.11485E-04 5.14557E-06 1.65436E-24
 -1       791 1.11530E-04 4.72797E-06 0.00000E+00
 -1       792 1.11574E-04 4.32745E-06 1.65436E-24
 -1       793 1.11619E-04 3.94252E-06-8.27181E-25
 -1       794 1.11664E-04 3.57329E-06-1.65436E-24
 -1       795 1.11708E-04 3.21991E-06 8.27181E-25
 -1       796 1.11753E-04 2.88413E-06 0.00000E+00
 -1       797 1.11798E-04 2.56775E-06-8.27181E-25
 -1       798 1.11842E-04 2.27453E-06 1.65436E-24
 -1       799 1.11887E-04 2.00831E-06-8.27181E-25
 -1       800 1.11932E-04 1.77565E-06 1.65436E-24
 -1       801 1.02260E-04 6.54694E-06-1.32349E-23
 -1       802 7.40514E-05 5.12019E-06 0.00000E+00
 -1       803 4.01934E-05 3.54077E-06 0.00000E+00
 -1       804 1.45098E-05 2.18666E-06 0.00000E+00
 -1       805 2.15306E-07 1.04572E-06-2.64698E-23
 -1       806 1.11391E-04 6.99098E-06 0.00000E+00
 -1       807 1.11503E-04 6.41262E-06 8.27181E-25
 -1       808 1.11605E-04 5.85981E-06 1.65436E-24
 -1       809 1.11696E-04 5.33509E-06-8.27181E-25
 -1       810 1.11776E-04 4.84097E-06 1.65436E-24
 -1       811 1.11843E-04 4.37991E-06-1.65436E-24
 -1       812 1.11897E-04 3.95436E-06-3.30872E-24
 -1       813 1.11936E-04 3.56674E-06 1.65436E-24
 -1       814 1.11961E-04 3.21948E-06 1.65436E-24
 -1       815 1.11969E-04 2.91500E-06-1.65436E-24
 -1       816 1.11961E-04 2.65573E-06-3.30872E-24
 -1       817 1.11935E-04 2.44408E-06 1.65436E-24
 -1       818 1.11890E-04 2.28247E-06 3.30872E-24
 -1       819 1.11825E-04 2.17329E-06 8.27181E-25
 -1       820 1.11741E-04 2.11894E-06 1.65436E-24
 -1       821 1.11883E-04 1.38806E-06 8.27181E-25
 -1       822 1.11785E-04 1.14849E-06-8.27181E-25
 -1       823 1.11686E-04 9.24730E-07 3.30872E-24
 -1       824 1.11587E-04 7.76918E-07 0.00000E+00
 -1       825 1.11487E-04 7.49601E-07 0.00000E+00
 -1       826 1.11388E-04 8.86790E-07 1.65436E-24
 -1       827 1.11288E-04 1.19874E-06-3.30872E-24
 -1       828 1.11188E-04 1.69495E-06 1.65436E-24
 -1       829 1.11088E-04 2.34708E-06 0.00000E+00
 -1       830 1.10988E-04 3.12611E-06 0.00000E+00
 -1       831 1.10888E-04 3.97703E-06 0.00000E+00
 -1       832 1.10788E-04 4.84443E-06 1.65436E-24
 -1       833 1.10688E-04 5.66956E-06 0.00000E+00
 -1       834 1.10590E-04 6.39386E-06 0.00000E+00
 -1       835 1.10491E-04 6.97938E-06-8.27181E-25
 -1       836 1.12072E-04 1.67283E-06 1.65436E-24
 -1       837 1.12066E-04 1.76450E-06 0.00000E+00
 -1       838 1.11989E-04 1.85601E-06 1.65436E-24
 -1       839 1.11872E-04 1.94694E-06-8.27181E-25
 -1       840 1.11744E-04 2.03771E-06 0.00000E+00
 -1       856 1.10376E-04 7.76717E-06-4.13590E-25
 -1       857 1.10350E-04 8.25243E-06 1.03398E-25
 -1       858 1.10325E-04 8.82780E-06-4.13590E-25
 -1       859 1.10299E-04 9.47644E-06 4.13590E-25
 -1       860 1.10273E-04 1.01814E-05-8.27181E-25
 -1       861 1.10247E-04 1.09257E-05 0.00000E+00
 -1       862 1.10221E-04 1.16924E-05-8.27181E-25
 -1       863 1.10195E-04 1.24643E-05 4.13590E-25
 -1       864 1.10169E-04 1.32245E-05 0.00000E+00
 -1       865 1.10143E-04 1.39559E-05 0.00000E+00
 -1       866 1.10117E-04 1.46414E-05 0.00000E+00
 -1       867 1.10091E-04 1.52642E-05 0.00000E+00
 -1       868 1.10065E-04 1.58073E-05 8.27181E-25
 -1       869 1.10039E-04 1.62539E-05 0.00000E+00
 -1       870 1.10013E-04 1.65872E-05 8.27181E-25
 -1       871 1.10231E-04 7.38762E-06-4.13590E-25
 -1       872 1.10173E-04 7.38414E-06 0.00000E+00
 -1       873 1.10175E-04 7.38024E-06 0.00000E+00
 -1       874 1.10191E-04 7.37580E-06 2.06795E-25
 -1       875 1.10172E-04 7.37088E-06-8.27181E-25
 -1       876 1.10353E-04 7.77711E-06 0.00000E+00
 -1       877 1.10290E-04 8.21741E-06 1.65436E-24
 -1       878 1.10210E-04 8.70341E-06-3.30872E-24
 -1       879 1.10116E-04 9.22932E-06-1.65436E-24
 -1       880 1.10009E-04 9.78926E-06-3.30872E-24
 -1       881 1.09891E-04 1.03774E-05-1.65436E-24
 -1       882 1.09765E-04 1.09880E-05-3.30872E-24
 -1       883 1.09633E-04 1.16152E-05 0.00000E+00
 -1       884 1.09497E-04 1.22531E-05 0.00000E+00
 -1       885 1.09358E-04 1.28961E-05 1.65436E-24
 -1       886 1.09220E-04 1.35383E-05 0.00000E+00
 -1       887 1.09085E-04 1.41739E-05 1.65436E-24
 -1       888 1.08954E-04 1.47970E-05-1.65436E-24
 -1       889 1.08829E-04 1.54018E-05 0.00000E+00
 -1       890 1.08713E-04 1.59825E-05 8.27181E-25
 -1       891 1.09871E-04 1.67473E-05-8.27181E-25
 -1       892 1.09738E-04 1.67039E-05 4.13590E-25
 -1       893 1.09565E-04 1.66604E-05 1.65436E-24
 -1       894 1.09332E-04 1.66170E-05 2.06795E-25
 -1       895 1.09018E-04 1.65738E-05 8.27181E-25
 -1       956 1.11540E-04 2.24329E-06-1.65436E-24
 -1       957 1.11442E-04 2.42545E-06-8.27181E-25
 -1       958 1.11344E-04 2.66149E-06 1.65436E-24
 -1       959 1.11246E-04 2.94427E-06 8.27181E-25
 -1       960 1.11148E-04 3.26662E-06 3.30872E-24
 -1       961 1.11049E-04 3.62134E-06 0.00000E+00
 -1       962 1.10951E-04 4.00122E-06 0.00000E+00
 -1       963 1.10853E-04 4.39906E-06-1.65436E-24
 -1       964 1.10755E-04 4.80764E-06 0.00000E+00
 -1       965 1.10656E-04 5.21975E-06 0.00000E+00
 -1       966 1.10558E-04 5.62817E-06 0.00000E+00
 -1       967 1.10460E-04 6.02570E-06 1.65436E-24
 -1       968 1.10362E-04 6.40511E-06 0.00000E+00
 -1       969 1.10264E-04 6.75924E-06 0.00000E+00
 -1       970 1.10166E-04 7.08090E-06-3.30872E-24
 -1       971 1.09979E-04 7.66025E-06 0.00000E+00
 -1       972 1.09887E-04 8.03599E-06 0.00000E+00
 -1       973 1.09796E-04 8.48174E-06 1.65436E-24
 -1       974 1.09703E-04 8.98846E-06-1.65436E-24
 -1       975 1.09611E-04 9.54714E-06 1.65436E-24
 -1       976 1.09519E-04 1.01487E-05 1.65436E-24
 -1       977 1.09427E-04 1.07842E-05 0.00000E+00
 -1       978 1.09335E-04 1.14444E-05 0.00000E+00
 -1       979 1.09242E-04 1.21204E-05 0.00000E+00
 -1       980 1.09150E-04 1.28031E-05-1.65436E-24
 -1       981 1.09058E-04 1.34833E-05 0.00000E+00
 -1       982 1.08966E-04 1.41521E-05 0.00000E+00
 -1       983 1.08874E-04 1.48004E-05 3.30872E-24
 -1       984 1.08782E-04 1.54191E-05 0.00000E+00
 -1       985 1.08691E-04 1.59992E-05 0.00000E+00
 -3
    1PSTEP                        22          11           1          
  100CL  111 5.20752E-01         409                     0   11           1
 -4  STRESS      6    1
 -5  SXX         1    4    1    1
 -5  SYY         1    4    2    2
 -5  SZZ         1    4    3    3
 -5  SXY         1    4    1    2
 -5  SYZ         1    4    2    3
 -5  SZX         1    4    3    1
 -1         1-2.51276E+06-1.02504E+06-5.39235E+05-1.22951E+06 8.00355E-11 1.02678E-07
 -1         2 7.86905E+02-1.06860E+06 2.54689E+03-1.24399E+03 4.18225E-11 2.45646E-09
 -1         3-3.16503E+02-1.09690E+06 2.46352E+02-7.30277E+02-1.92994E-10-1.79061E-08
 -1         5-7.54747E-01 2.73104E+05 6.93314E+00 1.25337E-02-1.97627E-11-9.20636E-10
 -1         8-1.04056E+06-3.55246E+05-1.16974E+05-4.43469E+05-1.01863E-10 5.80003E-08
 -1         9 1.82675E+06-4.55895E+05 4.03148E+05-5.55396E+05 2.33646E-08 2.68454E-08
 -1        10-1.09319E+03-1.14282E+06-2.30445E+03-4.94280E+03-6.53563E-09-1.37861E-08
 -1        12 2.09126E+00 2.73119E+05 2.24424E+02 1.01789E-01 2.97149E-11-6.05752E-10
 -1        15 1.69822E+03 9.33269E+02 5.48947E+03 3.22875E+00-1.84940E-10-1.14463E-08
 -1        16 4.39458E+06-6.91638E+05 6.27901E+05-1.08418E+06 1.55511E-08 1.13699E-08
 -1        17 1.77111E+06 1.14275E+06 5.34252E+05 1.18943E+06-4.75848E-10 6.29807E-09
 -1        18-2.47641E+04-1.05869E+04-2.77076E+04-7.46840E+04 6.92307E-09-4.66116E-10
 -1        19 8.79109E+04 1.01285E+05-7.11127E+02 1.73172E+04-2.14823E-10 1.58798E-09
 -1        20-4.49620E+04-4.16214E+05-9.23827E+04 2.63840E+04 2.17127E-09 1.45155E-09
 -1        21-3.75789E+01-2.32517E+05-7.42348E+02-2.16917E+01-1.72248E-09 7.96243E-10
 -1        24 1.87579E+06 2.28069E+06 7.81034E+05 2.07699E+06-8.27373E-08-3.35082E-08
 -1        25-1.08346E+05-5.84839E+05-1.20520E+05-1.19300E+05 2.65254E-10-9.81327E-09
 -1        26-3.20103E+04 6.61574E+04-1.66194E+04-4.66761E+03 1.33077E-09 7.98951E-09
 -1        27-6.13300E+04-2.26685E+05-8.43611E+04 5.12306E+04 5.19284E-09-3.78047E-10
 -1        28 1.78741E+04-6.51911E+04 1.31925E+04 1.90473E+04 1.44601E-09-3.04098E-09
 -1        32-1.18767E+06-1.65420E+06 2.51911E+04-5.03232E+05-2.70620E-08-6.38870E-09
 -1        33-1.32770E+05 6.54700E+04 2.34024E+04-3.19086E+04 3.34391E-10-2.77699E-09
 -1        34-1.67676E+05-1.70871E+04 4.41904E+02 5.30716E+04 2.17670E-09-1.03576E-09
 -1        35-1.82167E+04-2.59006E+04-1.02038E+03 4.05058E+04 3.78961E-09 6.18456E-11
 -1        51 2.52686E+04-2.92780E+05 5.87011E+04-8.33355E+05-1.01863E-10 8.78936E-08
 -1        52 1.15802E+04-2.86511E+05 3.48880E+04-9.71821E+05 7.27596E-12 5.48753E-08
 -1        53 5.99335E+03-2.99659E+05 2.47060E+04-8.30408E+05 5.16593E-10-3.84462E-08
 -1        54 1.63919E+04-2.97517E+05 3.34643E+04-9.74896E+05 3.27418E-10-5.78148E-08
 -1        55 3.32675E+04-3.09391E+05 5.60837E+04-8.29949E+05 6.54836E-10-2.44836E-09
 -1        56-4.78721E+06-5.35787E+05-3.97721E+05-1.85419E+06 4.55475E-09-1.80444E-09
 -1        57-4.97661E+06-8.67278E+05-2.68304E+05-1.80532E+06-2.17460E-09 1.60362E-08
 -1        58-4.86441E+06-6.64869E+05-9.35224E+04-1.83232E+06 1.16779E-09 3.63325E-08
 -1        59-4.88792E+06-7.15071E+05-5.58406E+04-1.83042E+06 5.48357E-09-2.75832E-08
 -1        60-4.87477E+06-6.83789E+05-2.18174E+04-1.83043E+06-4.88808E-09-1.98233E-08
 -1        61-4.87687E+06-6.91945E+05-1.23939E+04-1.83146E+06 7.29926E-09-5.03958E-08
 -1        62-4.87522E+06-6.87444E+05-5.92702E+03-1.83142E+06-1.61469E-09-4.72198E-09
 -1        63-4.87746E+06-6.87063E+05-4.85634E+03-1.82921E+06 8.73672E-09 5.64614E-08
 -1        64-4.87413E+06-6.88609E+05-5.45817E+03-1.83269E+06 2.68676E-09-1.64239E-08
 -1        65-4.88081E+06-6.87325E+05-1.10066E+04-1.82671E+06-1.01399E-08-2.18006E-09
 -1        66-4.87192E+06-6.87232E+05-1.91985E+04-1.83391E+06 1.50355E-08 1.42791E-08
 -1        67-4.89334E+06-7.04760E+05-4.90229E+04-1.82255E+06 4.76962E-09-9.41945E-08
 -1        68-4.86181E+06-6.71657E+05-8.20695E+04-1.83674E+06 5.47516E-09-3.32293E-08
 -1        69-4.97211E+06-8.37327E+05-2.35406E+05-1.79941E+06-1.72531E-08-5.38639E-08
 -1        70-4.79416E+06-5.58368E+05-3.49026E+05-1.85588E+06-2.18279E-11 3.09810E-08
 -1        86-3.94089E+02-1.06945E+06 2.73579E+03 6.22003E+02 4.50768E-10 3.20344E-08
 -1        87 2.61100E+03-1.06775E+06 5.69565E+03-2.24109E+03 7.29585E-10-1.84669E-08
 -1        88-2.21052E+03-1.07031E+06 8.74646E+03 1.61912E+03 1.13823E-09-3.54473E-08
 -1        89 1.64768E+04-1.06135E+06 2.35529E+04-3.59162E+03 1.41881E-09-9.25403E-08
 -1        90-1.42106E+04-1.07583E+06 3.33216E+04 1.97259E+03 9.05857E-10 3.39217E-09
 -1       121-4.54899E+02-1.09807E+06 6.62470E+01 3.64139E+02 6.58446E-10-1.76806E-08
 -1       122-2.23918E+02-1.09687E+06 5.18034E+02-1.45933E+03-2.70150E-09 2.48228E-08
 -1       123-5.05572E+02-1.09814E+06 6.56798E+02 1.08923E+03 2.04147E-09 4.08363E-09
 -1       124 8.20080E+02-1.09631E+06 2.13585E+03-3.13310E+03-4.72482E-09-3.31784E-09
 -1       125-1.14698E+03-1.09872E+06 3.03503E+03 2.03395E+03 3.25781E-09-4.96220E-09
 -1       191-1.02454E+00 2.73129E+05 8.50254E+00-6.28283E-03 3.99614E-12-4.51632E-09
 -1       192-1.38963E+00 2.73105E+05 1.46688E+01 5.98289E-02 4.71712E-11-2.84251E-08
 -1       193-2.71354E+00 2.73128E+05 2.74891E+01-5.36845E-02 1.97886E-12-1.89985E-08
 -1       194-3.43323E+00 2.73107E+05 5.54570E+01 1.43738E-01-5.71561E-11-1.79853E-08
 -1       195-5.95974E+00 2.73126E+05 1.08686E+02-9.05715E-02 2.28795E-12-8.32125E-09
 -1       251-1.61635E+06 2.07584E+04-7.97868E+04-5.10479E+04-1.38243E-10-7.58810E-08
 -1       252-1.54307E+06-2.30185E+04-3.60390E+04 1.48604E+05 4.53383E-10-2.99224E-09
 -1       253-1.57693E+06 2.37768E+03-1.80041E+04-9.72525E+04 4.62774E-09 8.88031E-09
 -1       254-1.57356E+06 2.85355E+03-7.97139E+03 1.86416E+05-9.36205E-09 4.07188E-08
 -1       255-1.58986E+06-1.62244E+03-7.26929E+03-8.89957E+04-8.17545E-09 4.14182E-08
 -1       256-1.50382E+06 4.98629E+03 1.27130E+04 1.19747E+05 5.18912E-09 2.42140E-08
 -1       257-1.64011E+06-5.17543E+03-1.48028E+04-3.04029E+04-1.79170E-09-3.01708E-09
 -1       258-1.45760E+06 4.41150E+03 2.30156E+04-1.57751E+04-4.99131E-09 6.57451E-10
 -1       259-1.63167E+06-4.75667E+03-1.22715E+04 4.63729E+04 3.30874E-09-1.40883E-08
 -1       260-1.52285E+06 6.12970E+03 1.11503E+04-1.41984E+05 8.15476E-09-1.07204E-07
 -1       261-1.58117E+06-1.66296E+03-1.69912E+03 9.57461E+04 2.79538E-08-5.61936E-08
 -1       262-1.57253E+06 7.19765E+03 8.38459E+02-1.87065E+05-4.82477E-09-2.30320E-08
 -1       263-1.58675E+06-1.82534E+03-5.30590E+03 9.16081E+04 4.55384E-09 1.55826E-08
 -1       264-1.51081E+06 4.22368E+03 6.93319E+03-1.27410E+05 3.87965E-08 3.94241E-08
 -1       265-1.63685E+06-3.70576E+03-2.59609E+04 3.59125E+04 1.38643E-08-5.72663E-08
 -1       266-3.07428E+04-1.43741E+04 7.21371E+04-6.90901E+01-1.38243E-10 1.25967E-08
 -1       267 3.56399E+04 1.67552E+04 5.09825E+04 7.97101E+01-3.07409E-10-9.39422E-08
 -1       268-4.77922E+03-2.37290E+03 1.89501E+04-1.01568E+01-2.80124E-10-7.92527E-08
 -1       269 5.64289E+03 2.83997E+03 1.23171E+04 1.18308E+01-2.18279E-10-5.69777E-08
 -1       270-8.47002E+02-4.66622E+02 5.94566E+03-1.60554E+00-7.68523E-11-2.13559E-08
 -1       271-2.82247E+06-3.50177E+05-2.12199E+05-1.09501E+06 8.40009E-09-3.64234E-08
 -1       272-2.91241E+06-4.91930E+05-1.36541E+05-1.07812E+06-2.24099E-09-6.58565E-08
 -1       273-2.86252E+06-4.03097E+05-5.01180E+04-1.08540E+06-3.01839E-09-9.06221E-09
 -1       274-2.86488E+06-4.27594E+05-2.80703E+04-1.09300E+06 5.98538E-09-3.20965E-08
 -1       275-2.86896E+06-4.07711E+05-1.16836E+04-1.08269E+06 5.52609E-09 2.56041E-08
 -1       276-2.85635E+06-4.22992E+05-6.16944E+03-1.09782E+06 5.23323E-09-4.63424E-08
 -1       277-2.87106E+06-4.06918E+05-3.04386E+03-1.08093E+06-3.72893E-11 5.05920E-08
 -1       278-2.85322E+06-4.24788E+05-2.11843E+03-1.10105E+06 2.98282E-08 8.18609E-08
 -1       279-2.87226E+06-4.05743E+05-2.23885E+03-1.07960E+06-3.24735E-09-5.00148E-08
 -1       280-2.85177E+06-4.27144E+05-3.99221E+03-1.10331E+06-8.16090E-09 1.39656E-08
 -1       281-2.87268E+06-4.04493E+05-7.24431E+03-1.07877E+06 3.51110E-09-2.43658E-08
 -1       282-2.85410E+06-4.33033E+05-1.73504E+04-1.10401E+06 3.90014E-09-7.73434E-08
 -1       283-2.87013E+06-4.00210E+05-3.08340E+04-1.07884E+06 7.98082E-10-6.28297E-08
 -1       284-2.88093E+06-4.75178E+05-8.41334E+04-1.09776E+06-1.41395E-08-5.82077E-08
 -1       285-2.84657E+06-3.66510E+05-1.30683E+05-1.08352E+06 3.63434E-09-1.29949E-08
 -1       301 1.79492E+04-2.27184E+05 1.27661E+05-4.30580E+05 1.16415E-10 5.46534E-08
 -1       302 1.99244E+04-1.95698E+05 8.46902E+04-6.30900E+05 5.74801E-10 4.77418E-08
 -1       303 1.59797E+03-2.14599E+05 6.58507E+04-4.29924E+05-3.05590E-10 7.41857E-08
 -1       304 2.23809E+04-1.88671E+05 9.78241E+04-6.30049E+05 6.25732E-10 1.46101E-08
 -1       305 1.91791E+04-2.26780E+05 1.56242E+05-4.31541E+05-3.27418E-10 3.64744E-08
 -1       306-1.28649E+07-1.99012E+06-2.72432E+06-1.90429E+06-7.34290E-08-2.73867E-08
 -1       307 6.51874E+06-1.02604E+06 1.68882E+06-5.00945E+06-4.00119E-07-3.42843E-08
 -1       308-6.81883E+06 3.03148E+05-3.09168E+05 1.20773E+06 7.65431E-08 6.86177E-08
 -1       309-1.92303E+06-9.86762E+05 4.73419E+05-8.84591E+06 1.37388E-07-2.11758E-08
 -1       310-7.21106E+06 2.52425E+05-3.37032E+05 1.09934E+06-1.96669E-07 7.37348E-08
 -1       311 7.27151E+06-1.31466E+06 1.96335E+06-4.34112E+06-1.61468E-07-3.88536E-08
 -1       312-1.29085E+07-1.90315E+06-2.26253E+06-2.30791E+06 1.05065E-08-5.49553E-08
 -1       313 1.15683E+07 2.46648E+06 3.30269E+06 4.53479E+06-1.41212E-07 6.21876E-08
 -1       314-9.74336E+06-4.76080E+06-2.18658E+06-5.32786E+06 1.11846E-07-1.56651E-07
 -1       315-1.86293E+06 7.06688E+06 1.83770E+06 4.33415E+06 1.28843E-07-3.15835E-07
 -1       316-2.39416E+06-4.16880E+06-2.43741E+05-3.69003E+06 2.66285E-07-2.44487E-07
 -1       317-1.03220E+07 7.39603E+06 4.61880E+05 2.46265E+05 8.26858E-08-4.56064E-07
 -1       318-2.62292E+06-4.27273E+06-4.21191E+05-3.76504E+06-5.82382E-07-9.48494E-08
 -1       319-1.10320E+06 7.29928E+06 1.76407E+06 4.47751E+06-4.27186E-07-3.29601E-09
 -1       320-1.01635E+07-4.96523E+06-2.87579E+06-5.24921E+06-1.76718E-07-3.29092E-08
 -1       336 5.37743E+02-1.18867E+06-8.19686E+03 2.89197E+03-1.29976E-08 4.64570E-09
 -1       337-3.15522E+03-1.19020E+06-1.06159E+04-7.11502E+03-2.37737E-08-2.05409E-08
 -1       338 7.90782E+02-1.18845E+06-1.56124E+04 4.19251E+03-1.68420E-08-1.90630E-09
 -1       339-1.68937E+04-1.19890E+06-3.56136E+04-9.67704E+03-2.99920E-08-7.01948E-09
 -1       340 1.14614E+04-1.18035E+06-5.55975E+04 5.41748E+03-1.95232E-08 1.13560E-08
 -1       406 1.94410E+01 2.73116E+05 4.43284E+02-1.19717E-02 3.30260E-11 9.12689E-09
 -1       407 1.56542E+02 2.73196E+05 9.41658E+02-6.01904E-01-8.26503E-11 3.32755E-08
 -1       408 4.86958E+02 2.73049E+05 1.88095E+03 6.27822E-01-4.89990E-11 1.52990E-08
 -1       409 2.03538E+03 2.73797E+05 4.23407E+03-6.14391E+00-6.00835E-11-9.09304E-09
 -1       410 5.84427E+03 2.72514E+05 8.64385E+03 5.76480E+00-1.58252E-10-3.38324E-09
 -1       521-1.53350E+07-2.69997E+06-3.44394E+06-2.15394E+06-5.62868E-08 4.41796E-08
 -1       522 5.29786E+06-1.69308E+06 1.55779E+06-7.85972E+06-2.90165E-07-1.53668E-07
 -1       523-9.47084E+06 2.40250E+05-3.56072E+05 1.34681E+06 6.09143E-08-2.69778E-07
 -1       524-4.84310E+06-7.84878E+05 5.07114E+05-1.25183E+07 4.45025E-07-2.58471E-07
 -1       525-9.90710E+06 1.26050E+05-3.73428E+05 1.20534E+06 3.06172E-07-9.41041E-08
 -1       526 6.45516E+06-1.98695E+06 2.02528E+06-6.95371E+06 2.40136E-07-2.65936E-08
 -1       527-1.54389E+07-2.76966E+06-2.72610E+06-2.62395E+06 2.73751E-07-5.42204E-08
 -1       528 1.12779E+07 2.28804E+06 3.36018E+06 4.62095E+06-2.31666E-08 7.38655E-08
 -1       529-1.17379E+07-6.13153E+06-2.62922E+06-6.17936E+06-7.74744E-08-2.01690E-08
 -1       530-5.42075E+06 9.04845E+06 1.90438E+06 4.33278E+06-7.00238E-08 2.68279E-07
 -1       531-3.75025E+06-5.62282E+06-2.57091E+05-4.99488E+06-4.11586E-07 9.09349E-08
 -1       532-1.54634E+07 9.82197E+06 5.09112E+05-1.10928E+06 2.63972E-07-2.80750E-07
 -1       533-3.92823E+06-5.69860E+06-4.59261E+05-5.03584E+06-6.42613E-08-5.17030E-07
 -1       534-4.75194E+06 9.22017E+06 1.70074E+06 4.46783E+06-8.84756E-08 4.00614E-07
 -1       535-1.20966E+07-6.31198E+06-3.51386E+06-6.09365E+06 3.20724E-08 2.42246E-07
 -1       536-4.27656E+05-1.46092E+04 8.23863E+03-1.87036E+04-4.63842E-10 2.79560E-08
 -1       537-3.15804E+05 1.52661E+04 2.47788E+04 4.63761E+04-4.90945E-08 3.60321E-08
 -1       538-3.72671E+05-3.27184E+02 5.03927E+03-2.87189E+04 1.27858E-08 4.41780E-08
 -1       539-3.50364E+05 1.51063E+03 7.01106E+03 5.27660E+04 6.16490E-08 3.88169E-08
 -1       540-3.93864E+05-2.40220E+02-3.12990E+03-2.51253E+04-9.37371E-09 4.49396E-08
 -1       541-2.74072E+05 3.23716E+03 2.00903E+04 3.22721E+04-2.34992E-08 3.29445E-08
 -1       542-4.46929E+05-3.71094E+03-1.51276E+04-8.16317E+03 1.97090E-08 8.11505E-09
 -1       543-2.33080E+05 4.78047E+03 2.76016E+04-6.93403E+03 4.47108E-09-1.59001E-08
 -1       544-4.33774E+05-2.66471E+03-1.31900E+04 1.40270E+04-1.13921E-08-2.21647E-08
 -1       545-3.03821E+05 9.51588E+02 1.18602E+04-4.21844E+04-1.92813E-09-3.01591E-08
 -1       546-3.78050E+05 1.63101E+03-3.89815E+03 2.70696E+04 8.04437E-09-3.77950E-08
 -1       547-3.57162E+05-3.68002E+03-3.84648E+03-5.44318E+04-5.55846E-08-5.11858E-08
 -1       548-3.81813E+05 3.08845E+03-1.30848E+04 2.63228E+04-5.23330E-08-4.50113E-08
 -1       549-3.00926E+05-1.39279E+04-1.25873E+04-3.91160E+04-2.91635E-08-1.84450E-08
 -1       550-4.32640E+05 1.05269E+04-5.66095E+04 1.16995E+04 2.19347E-09-1.66037E-08
 -1       551 1.33630E+04-5.11271E+05 1.12821E+04-7.91174E+05-5.19722E-08 1.65892E-09
 -1       552 3.22956E+04-5.22716E+05 2.29589E+04-1.12646E+06-3.68673E-08 2.36032E-08
 -1       553 2.39590E+04-5.27207E+05 4.01224E+04-7.87797E+05-6.15255E-08 3.18905E-08
 -1       554 5.91181E+04-5.18749E+05 8.88396E+04-1.12830E+06-3.90573E-08 1.37607E-08
 -1       555 5.24963E+04-5.47865E+05 1.60488E+05-7.87906E+05-6.43413E-08-6.24641E-09
 -1       556 1.14974E+05-2.11327E+05 4.15233E+04-2.54550E+05-4.68572E-09-1.37370E-08
 -1       557 1.93146E+05-2.76821E+05 2.23782E+04-3.24248E+05 8.06176E-09-3.63798E-09
 -1       558 1.10530E+05-2.14213E+05 8.20074E+03-2.51088E+05-3.23053E-09-5.67525E-10
 -1       559 1.82083E+05-2.81872E+05 4.43403E+03-3.31447E+05 1.53595E-08 2.28465E-09
 -1       560 1.05922E+05-2.11252E+05 1.35522E+03-2.54195E+05 2.41562E-09-1.41627E-08
 -1       561 1.76005E+05-2.79716E+05 9.15210E+02-3.35458E+05 1.20781E-09 9.35688E-09
 -1       562 1.02352E+05-2.08979E+05 1.13422E+02-2.56742E+05 3.40515E-09 6.53927E-09
 -1       563 1.71854E+05-2.77904E+05 2.32906E+02-3.38130E+05 1.08412E-08-1.33789E-08
 -1       564 9.99992E+04-2.07497E+05 1.14820E+01-2.58401E+05 8.85484E-09-5.29508E-09
 -1       565 1.69427E+05-2.76851E+05 9.57653E+01-3.39667E+05 4.25644E-09 8.76025E-09
 -1       566 9.89024E+04-2.06795E+05 4.68180E+00-2.59174E+05 2.24281E-09-5.59885E-09
 -1       567 1.68699E+05-2.76522E+05-5.89485E+01-3.40044E+05 1.40144E-08-1.47993E-08
 -1       568 9.91016E+04-2.06932E+05-3.09472E+02-2.59117E+05-3.55431E-09 2.33558E-09
 -1       569 1.68861E+05-2.76393E+05-7.56405E+02-3.38501E+05-8.25457E-09 9.01127E-09
 -1       570 1.01269E+05-2.08726E+05-1.79901E+03-2.58837E+05 3.47791E-09 2.32649E-09
 -1       571 2.06254E+05 7.61386E+03 1.12105E+04-5.36758E+04-2.90584E-10-5.80030E-10
 -1       572 2.07916E+05 2.68546E+03 5.49257E+03-5.88718E+04-9.39508E-10 1.52031E-08
 -1       573 2.06922E+05 6.76952E+02 2.44021E+03-5.35545E+04 1.28784E-09 6.46833E-09
 -1       574 2.07115E+05 2.58985E+02 1.22282E+03-5.90116E+04 4.97676E-09 5.30144E-09
 -1       575 2.06998E+05 7.73691E+01 5.76684E+02-5.35383E+04 4.18424E-09-7.38055E-10
 -1       576 2.07009E+05 6.12463E+01 2.94242E+02-5.90303E+04 2.61934E-10-6.37010E-09
 -1       577 2.07014E+05 4.24187E+01 1.46141E+02-5.35362E+04 9.11086E-09 4.79895E-09
 -1       578 2.07005E+05 4.74659E+01 8.22447E+01-5.90326E+04 1.62270E-08 4.08500E-09
 -1       579 2.07034E+05 3.54508E+01 5.46370E+01-5.35361E+04 1.16634E-08-1.41654E-09
 -1       580 2.07032E+05 3.58286E+01 5.86619E+01-5.90294E+04 1.27193E-09-1.41426E-08
 -1       581 2.07065E+05 2.28411E+01 8.73973E+01-5.35394E+04 4.15093E-09-1.72486E-09
 -1       582 2.07090E+05 4.04683E+01 1.73073E+02-5.89956E+04 6.14818E-10-1.51422E-08
 -1       583 2.07100E+05 7.95245E+01 3.35264E+02-5.35699E+04 8.51651E-09-5.90535E-09
 -1       584 2.07257E+05 3.46500E+02 7.53949E+02-5.87397E+04 1.69057E-08-2.60854E-09
 -1       585 2.07059E+05 1.00897E+03 1.53218E+03-5.37957E+04 9.79435E-09 1.06775E-09
 -1       586-2.58996E+03 6.73792E+04-3.16018E+03-1.85311E+05-1.55342E-09 5.98345E-09
 -1       587-6.27900E+02 6.69917E+04-9.72055E+01-2.03974E+05-1.34605E-09-1.52625E-09
 -1       588 6.88430E+02 6.70305E+04 2.87280E+03-1.85224E+05-9.58607E-10 8.58290E-09
 -1       589 3.87704E+03 6.85847E+04 8.01416E+03-2.03757E+05-1.40790E-09 3.67481E-09
 -1       590 1.14569E+04 6.61244E+04 1.70334E+04-1.85539E+05-1.32150E-09-2.76850E-09
 -1       591-4.18584E+04-1.09732E+04-1.44065E+04-2.02923E+04-5.48766E-10-5.01950E-09
 -1       592-4.37607E+04-1.39598E+04-7.80339E+03-2.34203E+04 1.44883E-09-3.35967E-09
 -1       593-4.33064E+04-9.92042E+03-3.24843E+03-2.13415E+04 6.14932E-10-6.87805E-11
 -1       594-4.17616E+04-1.18565E+04-1.62016E+03-2.35086E+04-1.62140E-09 1.08366E-09
 -1       595-4.34170E+04-9.91632E+03-7.44291E+02-2.13893E+04-8.15589E-10 1.32905E-08
 -1       596-4.16255E+04-1.17603E+04-3.79036E+02-2.34934E+04-1.98764E-09 1.57715E-09
 -1       597-4.34309E+04-9.92588E+03-2.07806E+02-2.13912E+04-7.99730E-10-7.17995E-09
 -1       598-4.16123E+04-1.17566E+04-1.69640E+02-2.34892E+04 2.07035E-09 4.18015E-09
 -1       599-4.34299E+04-9.92602E+03-2.19914E+02-2.13908E+04 1.65596E-09-7.63157E-09
 -1       600-4.16264E+04-1.17613E+04-4.11114E+02-2.34927E+04-4.09671E-09 9.57698E-10
 -1       601-4.34129E+04-9.91620E+03-8.12358E+02-2.13882E+04-7.24322E-09-1.36805E-08
 -1       602-4.17750E+04-1.18661E+04-1.77118E+03-2.35070E+04-2.27192E-09 8.40919E-09
 -1       603-4.32903E+04-9.92259E+03-3.55229E+03-2.13362E+04-3.86899E-09-7.36509E-09
 -1       604-4.39715E+04-1.41545E+04-8.53328E+03-2.33956E+04-5.44560E-11-6.71753E-09
 -1       605-4.16942E+04-1.10844E+04-1.57540E+04-2.02005E+04-1.10106E-09 3.75530E-09
 -1       606 2.55731E+04-9.87447E+03-1.77571E+04 2.47240E+04-7.45786E-10-5.81531E-09
 -1       607 2.25339E+04-3.19715E+03-8.84224E+03 2.77586E+04-6.69388E-10-1.66710E-09
 -1       608 2.42602E+04-5.50378E+02-3.95936E+03 2.45300E+04-1.54487E-08 5.72322E-09
 -1       609 2.39200E+04-1.56848E+02-1.99985E+03 2.79764E+04-3.68063E-08 1.16174E-08
 -1       610 2.41038E+04 1.02155E+01-9.54948E+02 2.45081E+04-1.65446E-08 6.60043E-09
 -1       611 2.40422E+04 1.98017E+01-4.81511E+02 2.80002E+04 8.20546E-09 2.31744E-08
 -1       612 2.40637E+04 2.43916E+01-2.29845E+02 2.45060E+04-2.67391E-10 5.35965E-09
 -1       613 2.40425E+04 2.69934E+01-1.03912E+02 2.80030E+04-7.09042E-09 5.13114E-09
 -1       614 2.40424E+04 2.38100E+01-2.69691E+01 2.45052E+04-7.09406E-09 2.21007E-09
 -1       615 2.40326E+04 3.14290E+01 3.74973E+01 2.80035E+04-8.70159E-09 2.88901E-09
 -1       616 2.40261E+04 2.87630E+01 1.17977E+02 2.45055E+04-7.74344E-09 1.08844E-09
 -1       617 2.40421E+04 5.94637E+01 2.71477E+02 2.80030E+04-1.16779E-09-1.13016E-08
 -1       618 2.39990E+04 1.09246E+02 5.47968E+02 2.45056E+04-5.13683E-09-8.49923E-10
 -1       619 2.42328E+04 4.84992E+02 1.23108E+03 2.80023E+04-4.41207E-09-1.27966E-09
 -1       620 2.38152E+04 1.41037E+03 2.47454E+03 2.45048E+04 9.35529E-10 5.09908E-09
 -1       621 2.49707E+02 2.11522E+05 2.29038E+03 1.35959E+04 1.20508E-11-3.53066E-09
 -1       622 3.04944E+02 2.12081E+05 2.12837E+03 1.97916E+04 1.67574E-10-1.00345E-08
 -1       623 1.97121E+01 2.11653E+05 2.68747E+03 1.35304E+04 9.84812E-11 1.99088E-09
 -1       624 1.28981E+03 2.12974E+05 5.31291E+03 1.98587E+04 2.64322E-12-4.56293E-09
 -1       625 1.29607E+03 2.10607E+05 9.33486E+03 1.35283E+04 2.17824E-10-1.66619E-09
 -1       626 1.86137E+05 4.92146E+04 4.05767E+03 9.72264E+04 4.06453E-09 9.11677E-09
 -1       627 1.83928E+05 5.06938E+04 1.95523E+03 1.01025E+05 3.54703E-10-1.77212E-08
 -1       628 1.86263E+05 4.73276E+04 8.26193E+02 9.78784E+04-1.51886E-10-8.57654E-10
 -1       629 1.83383E+05 5.01935E+04 4.04488E+02 1.01252E+05 2.44290E-09-1.57229E-10
 -1       630 1.86272E+05 4.72378E+04 1.86894E+02 9.79007E+04-1.87356E-09-1.75777E-09
 -1       631 1.83320E+05 5.01785E+04 9.97453E+01 1.01253E+05-4.83487E-09-5.10667E-10
 -1       632 1.86265E+05 4.72436E+04 6.42364E+01 9.78939E+04-1.39430E-08-2.13125E-08
 -1       633 1.83308E+05 5.01828E+04 6.94086E+01 1.01247E+05-4.39513E-09-1.48248E-10
 -1       634 1.86256E+05 4.72440E+04 1.10244E+02 9.78904E+04 4.29964E-10-1.91176E-09
 -1       635 1.83314E+05 5.01837E+04 2.22069E+02 1.01248E+05 2.02976E-09 1.29869E-08
 -1       636 1.86246E+05 4.72422E+04 4.47880E+02 9.78880E+04-6.99845E-09 6.99197E-09
 -1       637 1.83407E+05 5.02543E+04 9.84128E+02 1.01244E+05-2.01739E-08-7.74162E-09
 -1       638 1.86209E+05 4.74610E+04 2.02222E+03 9.77878E+04-9.47557E-09 7.24685E-09
 -1       639 1.84468E+05 5.17317E+04 4.78409E+03 1.00929E+05-4.24052E-09-3.82215E-09
 -1       640 1.86065E+05 5.18671E+04 9.92803E+03 9.59217E+04 2.15368E-09 4.25644E-09
 -1       656 4.91645E+04-1.24921E+06-1.18690E+05-6.30809E+02-1.16415E-10-5.54081E-10
 -1       657-6.49986E+04-1.30281E+06-9.82272E+04 6.95434E+03 8.11269E-10 1.60774E-09
 -1       658 1.56260E+04-1.26447E+06-6.03714E+04-1.88469E+03 8.39464E-10-6.73415E-09
 -1       659-6.99421E+04-1.30515E+06-1.04721E+05 7.85248E+03-4.72937E-10-3.45576E-09
 -1       660 5.40962E+04-1.24688E+06-1.29859E+05-1.52893E+03-2.32831E-10-4.04012E-09
 -1       661 1.55263E+05 1.67473E+04 1.52880E+04 6.07065E+04 1.08912E-09-4.38013E-09
 -1       662 1.63442E+05 2.85252E+04 1.03020E+04 5.78045E+04 2.07547E-09-1.26064E-08
 -1       663 1.58262E+05 2.16556E+04 3.60354E+03 5.98397E+04-3.54714E-09 1.78056E-09
 -1       664 1.59970E+05 2.27811E+04 2.15477E+03 5.88595E+04-1.28807E-09 5.13342E-09
 -1       665 1.58712E+05 2.23301E+04 8.50045E+02 5.97122E+04-1.74583E-09 2.05688E-10
 -1       666 1.59441E+05 2.20064E+04 4.96259E+02 5.90234E+04-4.39319E-09 9.08088E-10
 -1       667 1.58788E+05 2.24100E+04 2.62336E+02 5.96833E+04-1.34102E-09-5.10312E-10
 -1       668 1.59359E+05 2.19445E+04 2.64325E+02 5.90650E+04 1.82166E-09-1.20654E-08
 -1       669 1.58793E+05 2.23902E+04 3.55473E+02 5.96712E+04 1.85572E-09 2.60755E-09
 -1       670 1.59449E+05 2.21333E+04 7.71763E+02 5.90645E+04 2.50373E-09-2.86802E-09
 -1       671 1.58699E+05 2.22250E+04 1.36959E+03 5.96822E+04 1.07251E-09-1.83798E-09
 -1       672 1.60248E+05 2.34643E+04 3.50346E+03 5.88701E+04-1.94339E-09-5.48425E-09
 -1       673 1.57998E+05 2.10927E+04 5.87103E+03 5.98528E+04-2.22144E-09-4.06089E-09
 -1       674 1.65839E+05 3.28939E+04 1.67899E+04 5.72252E+04-4.17197E-09 2.10275E-09
 -1       675 1.53144E+05 1.30592E+04 2.49217E+04 6.12277E+04-2.80943E-09 1.04501E-09
 -1       676 1.92593E+01-2.32455E+05-8.94721E+02 1.08461E+01 1.12635E-10-1.02294E-09
 -1       677-2.37602E+02-2.32672E+05-1.63745E+03-2.16806E+01-2.55133E-09-1.61303E-08
 -1       678 1.58604E+02-2.32301E+05-2.89457E+03 1.08271E+01-1.29421E-09 3.62567E-09
 -1       679-2.89533E+03-2.34419E+05-6.87610E+03-2.16062E+01 8.16385E-10 1.03487E-08
 -1       680 1.72791E+03-2.30709E+05-1.10820E+04 1.06491E+01-8.18545E-12 3.78578E-09
 -1       771-2.46305E+06-5.02204E+05-8.29762E+04-1.09666E+06-1.78989E-08-1.53523E-08
 -1       772-2.42650E+06-5.54473E+05-4.37103E+04-1.15604E+06-1.14305E-08 6.60111E-09
 -1       773-2.47704E+06-4.91214E+05-2.03678E+04-1.10198E+06-6.00994E-09 6.14818E-09
 -1       774-2.41746E+06-5.45351E+05-9.50536E+03-1.16531E+06 1.46974E-08 3.82715E-09
 -1       775-2.48244E+06-4.87440E+05-5.85413E+03-1.10353E+06-2.89583E-09 1.70985E-09
 -1       776-2.41994E+06-5.44898E+05-2.40459E+03-1.17146E+06-4.64934E-09 2.15368E-09
 -1       777-2.48679E+06-4.84266E+05-2.15631E+03-1.10484E+06-8.73115E-11-1.50249E-09
 -1       778-2.42286E+06-5.44659E+05-6.97436E+02-1.17665E+06 5.84987E-09 4.83124E-09
 -1       779-2.49040E+06-4.81560E+05-9.66529E+02-1.10596E+06-6.83940E-09-3.01225E-09
 -1       780-2.42544E+06-5.44417E+05-2.25717E+02-1.18085E+06-9.96806E-09-2.41562E-09
 -1       781-2.49320E+06-4.79414E+05-4.33271E+02-1.10682E+06-1.17798E-08-9.87711E-10
 -1       782-2.42741E+06-5.44193E+05-8.39896E+01-1.18393E+06-1.79207E-08-4.79008E-09
 -1       783-2.49513E+06-4.77958E+05-2.08487E+02-1.10743E+06-8.76025E-09-1.20972E-08
 -1       784-2.42869E+06-5.44073E+05-1.78818E+02-1.18579E+06-1.11904E-08 1.89857E-10
 -1       785-2.49607E+06-4.77243E+05-3.93886E+02-1.10772E+06-1.87865E-08 2.93585E-09
 -1       786 1.24142E+05-8.45901E+03 1.95694E+04-9.54315E+01 9.49877E-10-7.75708E-09
 -1       787 1.32626E+05 9.79287E+03 1.38448E+04 2.97036E+01 1.96741E-09-1.04819E-09
 -1       788 1.27414E+05-1.32598E+03 5.06390E+03-7.42499E+01 1.61135E-10 1.60117E-09
 -1       789 1.28814E+05 1.53410E+03 3.18018E+03-4.91465E+00 4.07654E-10 2.46291E-09
 -1       790 1.27954E+05-2.06956E+02 1.29043E+03-6.08167E+01-5.95261E-10-1.15273E-09
 -1       791 1.28183E+05 2.39439E+02 7.50818E+02-2.85682E+01-9.66393E-10-2.98452E-09
 -1       792 1.28045E+05-3.22895E+01 3.29164E+02-5.05964E+01-5.30221E-10-3.64064E-09
 -1       793 1.28077E+05 3.88205E+01 1.88230E+02-4.81652E+01-1.72109E-10-1.65189E-08
 -1       794 1.28060E+05-6.46619E+00 9.74139E+01-4.12195E+01 9.41122E-10-1.97358E-09
 -1       795 1.28064E+05 1.73758E+01 8.01966E+01-6.80478E+01-7.39166E-10-2.20390E-09
 -1       796 1.28058E+05-1.08544E+01 8.34081E+01-3.07134E+01 5.24029E-10-6.93536E-09
 -1       797 1.28092E+05 7.59479E+01 1.66290E+02-9.23642E+01 5.59644E-10-1.37113E-08
 -1       798 1.28032E+05-6.49962E+01 2.52712E+02-1.69027E+01 6.83857E-11-2.42426E-09
 -1       799 1.28278E+05 4.79446E+02 6.80151E+02-1.26184E+02 9.54837E-10 8.01555E-09
 -1       800 1.27872E+05-4.14035E+02 9.58316E+02 3.10708E+00-4.53646E-11 7.39357E-09
 -1       801 8.91750E+04-3.08817E+06-2.91562E+05 6.11938E+04 1.88302E-08-1.56697E-08
 -1       802-1.07286E+05-2.81103E+06-1.34476E+05-5.49972E+04 5.14046E-08-2.34184E-09
 -1       803 1.57881E+04-2.97558E+06-6.95487E+04 1.38094E+05 3.53830E-08 2.92873E-08
 -1       804-1.22651E+04-2.84327E+06-1.25686E+04 2.39686E+04 2.88228E-08 2.96572E-08
 -1       805-7.83565E+03-3.05599E+06-3.21901E+04-1.77756E+04 1.07511E-08 1.13525E-08
 -1       806-2.27299E+05-4.33349E+04-1.67999E+04-8.91918E+04 2.98724E-09 1.78716E-10
 -1       807-2.28770E+05-4.04432E+04-8.25357E+03-9.30892E+04 1.33350E-08 1.24680E-08
 -1       808-2.27748E+05-3.72932E+04-3.50147E+03-9.20703E+04 8.37917E-09 8.47723E-09
 -1       809-2.27040E+05-3.81199E+04-1.71213E+03-9.32887E+04-1.21327E-09 2.29466E-09
 -1       810-2.27818E+05-3.70822E+04-7.84519E+02-9.21985E+04 6.58019E-09-2.59456E-09
 -1       811-2.26908E+05-3.80259E+04-3.89940E+02-9.32638E+04 6.63385E-09-1.37130E-08
 -1       812-2.27831E+05-3.70993E+04-1.96548E+02-9.21988E+04 6.04086E-09-1.18087E-08
 -1       813-2.26891E+05-3.80270E+04-1.26922E+02-9.32520E+04 4.14911E-09 4.24734E-10
 -1       814-2.27828E+05-3.71051E+04-1.24159E+02-9.21967E+04-2.12549E-09-1.60794E-08
 -1       815-2.26895E+05-3.80283E+04-1.99098E+02-9.32489E+04 7.18501E-10 1.45440E-09
 -1       816-2.27815E+05-3.71030E+04-3.76265E+02-9.21951E+04 2.03090E-09 6.60702E-09
 -1       817-2.26961E+05-3.80638E+04-8.07896E+02-9.32434E+04-2.58433E-09 6.40193E-09
 -1       818-2.27770E+05-3.72150E+04-1.64728E+03-9.21420E+04 2.50020E-09 2.04227E-09
 -1       819-2.27864E+05-3.90605E+04-3.87697E+03-9.30349E+04 2.49202E-09-7.86713E-09
 -1       820-2.27467E+05-4.01375E+04-7.89047E+03-9.08852E+04 2.15823E-09 8.26333E-09
 -1       821-2.78323E+05 1.53914E+04-3.55952E+04 2.68036E+02 1.86096E-09 1.67347E-09
 -1       822-2.93748E+05-1.78179E+04-2.51887E+04-7.72950E+02-1.30416E-09 1.55505E-08
 -1       823-2.84276E+05 2.41309E+03-9.21930E+03 2.46658E+02-4.48185E-10 1.94632E-09
 -1       824-2.86801E+05-2.79265E+03-5.79992E+03-5.91186E+02-1.76634E-10-3.21131E-09
 -1       825-2.85267E+05 3.77487E+02-2.38580E+03 8.62704E+01-6.86040E-10-3.48336E-10
 -1       826-2.85645E+05-4.45030E+02-1.43771E+03-1.98676E+02-2.21159E-09 1.00229E-08
 -1       827-2.85431E+05 6.68722E+01-7.48721E+02-1.45858E+02-2.35003E-09-8.96387E-09
 -1       828-2.85492E+05-1.36518E+02-6.60845E+02 2.40592E+02-4.01462E-09 8.74230E-10
 -1       829-2.85421E+05 6.92937E+01-7.64995E+02-3.53006E+02-2.17078E-10 9.67455E-09
 -1       830-2.85678E+05-4.62772E+02-1.49457E+03 5.43277E+02 4.41150E-10 1.01186E-08
 -1       831-2.85246E+05 3.93255E+02-2.47723E+03-4.48548E+02-2.21033E-09-8.06665E-09
 -1       832-2.86870E+05-2.90607E+03-6.03727E+03 5.83178E+02-1.39543E-09-7.37271E-09
 -1       833-2.84230E+05 2.51089E+03-9.59501E+03-3.92907E+02-1.01230E-09 5.11363E-09
 -1       834-2.94071E+05-1.85428E+04-2.62122E+04 3.43084E+02-1.07307E-09 1.51213E-08
 -1       835-2.78046E+05 1.60176E+04-3.70497E+04-2.08445E+02 4.84490E-09 1.05756E-08
 -1       836-9.43741E+02 2.62419E+05 1.59184E+04-1.58381E+04-1.78261E-10 1.10317E-08
 -1       837 3.47002E+03 2.67368E+05 1.36309E+04-3.18494E+04 3.03885E-10 1.39096E-09
 -1       838-3.62693E+02 2.63786E+05 1.41146E+04-1.57764E+04 2.51021E-10 2.69233E-09
 -1       839 9.04837E+03 2.71528E+05 2.69232E+04-3.18851E+04 9.05857E-10 1.14976E-08
 -1       840-2.74460E+03 2.58223E+05 4.30289E+04-1.58017E+04 5.87534E-10-8.99621E-09
 -1       856-7.03036E+04 7.02715E+03-1.85183E+04-3.93970E+02-3.31687E-09 8.12179E-09
 -1       857-7.79499E+04-8.24427E+03-1.27491E+04 4.41753E+03-3.40086E-09-5.15251E-09
 -1       858-7.33256E+04 9.84783E+02-4.80572E+03-4.12987E+02-2.96978E-09-3.64548E-09
 -1       859-7.44798E+04-1.14711E+03-2.90180E+03 4.44741E+03 2.12168E-10-2.55318E-09
 -1       860-7.37774E+04 1.37126E+02-1.21889E+03-4.23916E+02 7.85576E-11 1.13391E-09
 -1       861-7.39595E+04-1.53248E+02-6.76391E+02 4.46235E+03-4.39610E-09-1.83746E-09
 -1       862-7.38479E+04 1.81658E+01-2.92884E+02-4.27948E+02 2.65933E-09 2.91664E-09
 -1       863-7.38752E+04-1.14083E+01-1.33290E+02 4.46428E+03 5.66274E-09 5.78540E-09
 -1       864-7.38619E+04-1.58258E+00-1.85269E+01-4.25851E+02 3.20503E-09-1.15864E-09
 -1       865-7.38432E+04 3.32259E+01 9.02394E+01 4.45344E+03 8.68039E-09-1.55765E-08
 -1       866-7.38784E+04-2.67302E+01 2.12654E+02-4.17103E+02-2.63657E-09-8.51632E-09
 -1       867-7.37353E+04 2.23100E+02 5.43092E+02 4.42967E+03-4.64149E-09-3.57369E-09
 -1       868-7.39667E+04-1.88806E+02 9.07317E+02-4.02075E+02-2.73224E-09-6.43524E-09
 -1       869-7.30646E+04 1.57050E+03 2.42295E+03 4.38998E+03-6.12459E-10-7.94131E-09
 -1       870-7.45441E+04-1.33866E+03 3.51547E+03-3.77423E+02-2.81375E-10 4.37990E-09
 -1       871-4.19813E+03-1.01094E+04-1.38333E+04 9.18463E+04 9.44056E-10 7.46968E-09
 -1       872-1.77069E+03-1.32294E+04-5.67897E+03 1.19077E+05 7.50788E-10 1.34078E-08
 -1       873 1.64393E+01-1.17624E+04 7.04666E+02 9.16447E+04-7.73070E-11 1.03717E-08
 -1       874 2.14772E+03-9.82197E+03 7.61075E+03 1.19114E+05 5.15911E-10-1.27003E-08
 -1       875 4.96365E+03-1.35719E+04 1.69473E+04 9.18135E+04 9.35870E-10-4.70027E-09
 -1       876 2.20980E+05 3.77993E+04 1.16242E+04 8.93336E+04-3.62377E-10-1.73804E-09
 -1       877 2.21687E+05 4.03087E+04 6.20761E+03 9.27258E+04-3.16413E-09 8.56926E-09
 -1       878 2.22066E+05 3.65129E+04 2.60073E+03 9.02883E+04 1.29717E-09 6.23390E-09
 -1       879 2.20106E+05 3.87331E+04 1.29565E+03 9.28070E+04 2.51475E-09 9.42032E-09
 -1       880 2.22145E+05 3.64987E+04 6.03359E+02 9.03272E+04-1.14346E-09-2.56335E-09
 -1       881 2.20001E+05 3.86661E+04 3.21724E+02 9.27903E+04 2.64617E-09-4.87262E-09
 -1       882 2.22153E+05 3.65083E+04 2.05043E+02 9.03284E+04-1.81194E-09-8.37541E-09
 -1       883 2.19994E+05 3.86628E+04 2.19144E+02 9.27854E+04 6.21185E-10 1.54365E-08
 -1       884 2.22148E+05 3.65059E+04 3.47460E+02 9.03285E+04 1.29489E-09 3.83875E-09
 -1       885 2.20021E+05 3.86678E+04 6.97875E+02 9.27941E+04 2.52412E-09-2.82876E-09
 -1       886 2.22121E+05 3.64855E+04 1.40622E+03 9.03258E+04 2.97426E-09 4.52530E-09
 -1       887 2.20268E+05 3.88298E+04 3.07161E+03 9.28297E+04-9.50422E-10 2.71621E-09
 -1       888 2.21927E+05 3.65197E+04 6.18941E+03 9.02274E+04 2.18847E-10 6.12226E-09
 -1       889 2.23955E+05 4.26600E+04 1.47859E+04 9.27140E+04 1.75515E-09 4.13297E-09
 -1       890 2.19405E+05 3.95157E+04 2.76930E+04 8.78666E+04 5.51654E-09 2.86491E-09
 -1       891-1.24057E+02-1.24508E+05-1.49156E+03 2.27204E+04-6.06519E-10 1.11288E-09
 -1       892-2.18574E+02-1.24873E+05-1.61417E+03 3.44019E+04-4.47699E-10-3.07080E-09
 -1       893-2.44528E+01-1.24556E+05-2.29796E+03 2.27252E+04-2.68756E-10 9.00172E-09
 -1       894-1.23255E+03-1.25750E+05-4.76525E+03 3.42785E+04 1.25010E-09 8.73342E-10
 -1       895-9.65979E+02-1.23565E+05-8.39478E+03 2.28426E+04 9.56106E-10-1.34860E-08
 -1       956-2.79906E+05-3.94061E+03-9.89556E+03 1.91452E+04-1.34150E-09-8.77640E-09
 -1       957-2.81858E+05-1.33713E+03-5.07993E+03 2.30547E+04-2.37878E-09-1.00649E-08
 -1       958-2.80785E+05-1.14512E+02-2.28867E+03 1.90291E+04 1.89084E-09 2.70552E-09
 -1       959-2.80939E+05-2.85593E+01-1.16904E+03 2.31821E+04-9.36780E-11 1.45192E-08
 -1       960-2.80864E+05 2.46753E+01-5.69968E+02 1.90179E+04 7.21730E-09 4.30191E-10
 -1       961-2.80872E+05 2.10590E+01-3.02551E+02 2.31949E+04 1.41717E-08-6.86896E-10
 -1       962-2.80880E+05 2.08669E+01-1.73447E+02 1.90162E+04 7.93170E-09 2.05455E-09
 -1       963-2.80870E+05 2.23022E+01-1.39740E+02 2.31971E+04 1.14096E-09 7.81779E-09
 -1       964-2.80883E+05 2.26999E+01-1.70280E+02 1.90157E+04 1.18905E-09-3.61752E-10
 -1       965-2.80879E+05 2.49781E+01-2.94792E+02 2.31969E+04 2.18131E-09-8.19887E-09
 -1       966-2.80874E+05 3.01221E+01-5.53731E+02 1.90164E+04-7.77618E-10-1.52227E-10
 -1       967-2.80951E+05-1.93858E+01-1.13585E+03 2.31888E+04-7.23958E-10 5.45651E-09
 -1       968-2.80802E+05-1.01475E+02-2.22300E+03 1.90238E+04 8.24912E-10 1.09969E-09
 -1       969-2.81851E+05-1.28749E+03-4.93563E+03 2.31019E+04 5.70253E-09 4.40679E-10
 -1       970-2.79953E+05-3.81661E+03-9.61377E+03 1.91043E+04 8.54925E-10-3.03044E-09
 -1       971-2.62424E+05-1.36124E+03-7.52817E+03 1.24252E+04-4.41059E-09-1.39427E-08
 -1       972-2.64251E+05-9.80519E+02-4.09988E+03 1.73263E+04-1.13457E-08-1.05583E-08
 -1       973-2.63261E+05-1.58798E+01-1.83589E+03 1.23226E+04-7.08360E-09-4.54929E-09
 -1       974-2.63385E+05-1.86542E+01-9.51257E+02 1.74379E+04 1.25328E-09 1.74664E-08
 -1       975-2.63326E+05 1.92532E+01-4.74716E+02 1.23132E+04 4.47926E-10 2.90993E-09
 -1       976-2.63333E+05 2.06663E+01-2.72578E+02 1.74494E+04-3.90537E-09-4.02531E-09
 -1       977-2.63338E+05 1.90102E+01-1.95440E+02 1.23110E+04 5.18185E-10-3.36217E-09
 -1       978-2.63336E+05 2.50270E+01-2.25483E+02 1.74525E+04 9.68384E-09-9.63382E-10
 -1       979-2.63338E+05 2.50998E+01-3.59473E+02 1.23101E+04 4.30833E-09 5.24824E-09
 -1       980-2.63363E+05 2.72287E+01-6.92338E+02 1.74530E+04 3.48297E-09-5.14206E-10
 -1       981-2.63316E+05 4.23791E+01-1.33995E+03 1.23104E+04-1.88061E-09 6.10214E-09
 -1       982-2.63547E+05-7.15965E+01-2.76910E+03 1.74479E+04-1.92631E-09-1.03329E-08
 -1       983-2.63147E+05-4.31459E+01-5.38005E+03 1.23154E+04 2.68733E-09-7.73480E-09
 -1       984-2.66134E+05-2.88094E+03-1.20479E+04 1.73780E+04-2.65823E-09-1.73213E-09
 -1       985-2.60712E+05-3.97970E+03-2.21238E+04 1.23833E+04-1.09276E-09 9.16225E-09
 -3
    1PSTEP                        23          12           1          
  100CL  112 5.30640E-01         409                     0   12           1
 -4  DISP        4    1
 -5  D1          1    2    1    0
 -5  D2          1    2    2    0
 -5  D3          1    2    3    0
 -5  ALL         1    2    0    0    1ALL
 -1         1 1.06565E-03 0.00000E+00 0.00000E+00
 -1         2 1.02840E-03 2.74237E-29 0.00000E+00
 -1         3 1.92128E-04 3.79883E-27-1.32349E-23
 -1         5 1.17300E-04-1.63609E-26 0.00000E+00
 -1         8 1.04440E-03-6.82722E-07 0.00000E+00
 -1         9 1.02847E-03-2.75258E-06 0.00000E+00
 -1        10 1.75805E-04-2.44663E-06 0.00000E+00
 -1        12 1.17362E-04 5.85139E-07 0.00000E+00
 -1        15 1.01890E-03-7.54415E-07 2.06795E-25
 -1        16 1.02541E-03-3.37466E-06 0.00000E+00
 -1        17 1.24399E-04-5.26706E-06 0.00000E+00
 -1        18 1.16365E-04 8.92228E-06 0.00000E+00
 -1        19 1.17549E-04 1.16733E-06 0.00000E+00
 -1        20 1.17686E-04 8.93872E-06 0.00000E+00
 -1        21 1.17073E-04 1.49600E-05 3.30872E-24
 -1        24 2.26093E-05-7.24959E-06 0.00000E+00
 -1        25 1.18100E-04 9.06189E-06 0.00000E+00
 -1        26 1.18768E-04 1.61664E-06 0.00000E+00
 -1        27 1.17157E-04 6.26986E-06 0.00000E+00
 -1        28 1.16755E-04 1.44664E-05 0.00000E+00
 -1        32 0.00000E+00 0.00000E+00 0.00000E+00
 -1        33 1.18958E-04 2.16680E-06 0.00000E+00
 -1        34 1.17354E-04 6.24299E-06 0.00000E+00
 -1        35 1.15855E-04 1.42019E-05 0.00000E+00
 -1        51 1.06427E-03-1.17499E-07 0.00000E+00
 -1        52 1.06172E-03-2.26744E-07 0.00000E+00
 -1        53 1.05822E-03-3.36005E-07 0.00000E+00
 -1        54 1.05401E-03-4.46984E-07 0.00000E+00
 -1        55 1.04932E-03-5.60756E-07 0.00000E+00
 -1        56 1.06359E-03-6.78616E-07-5.29396E-23
 -1        57 1.06141E-03-1.21725E-06 2.64698E-23
 -1        58 1.05915E-03-1.57953E-06-5.29396E-23
 -1        59 1.05683E-03-1.77347E-06 0.00000E+00
 -1        60 1.05444E-03-1.81301E-06-5.29396E-23
 -1        61 1.05200E-03-1.72499E-06 2.64698E-23
 -1        62 1.04953E-03-1.54788E-06 0.00000E+00
 -1        63 1.04704E-03-1.32528E-06-2.64698E-23
 -1        64 1.04456E-03-1.10502E-06 0.00000E+00
 -1        65 1.04209E-03-9.34774E-07-2.64698E-23
 -1        66 1.03966E-03-8.57417E-07-5.29396E-23
 -1        67 1.03727E-03-9.10608E-07 0.00000E+00
 -1        68 1.03495E-03-1.12021E-06 0.00000E+00
 -1        69 1.03271E-03-1.49974E-06 2.64698E-23
 -1        70 1.03052E-03-2.05529E-06-5.29396E-23
 -1        86 1.02840E-03-4.58090E-07-1.32349E-23
 -1        87 1.02841E-03-9.16251E-07 0.00000E+00
 -1        88 1.02842E-03-1.37443E-06-1.32349E-23
 -1        89 1.02844E-03-1.83308E-06 0.00000E+00
 -1        90 1.02845E-03-2.29156E-06 0.00000E+00
 -1       121 1.91671E-04-4.03036E-07 1.32349E-23
 -1       122 1.90301E-04-8.06879E-07 0.00000E+00
 -1       123 1.88022E-04-1.21233E-06 0.00000E+00
 -1       124 1.84840E-04-1.62022E-06 0.00000E+00
 -1       125 1.80764E-04-2.03121E-06 1.32349E-23
 -1       191 1.17302E-04 9.75266E-08 0.00000E+00
 -1       192 1.17307E-04 1.95052E-07 1.65436E-24
 -1       193 1.17315E-04 2.92578E-07 3.30872E-24
 -1       194 1.17327E-04 3.90102E-07-1.65436E-24
 -1       195 1.17343E-04 4.87623E-07-3.30872E-24
 -1       251 1.04378E-03 1.10907E-05 0.00000E+00
 -1       252 1.04287E-03 3.76828E-05 6.61744E-24
 -1       253 1.04167E-03 7.43804E-05 1.32349E-23
 -1       254 1.04028E-03 1.16238E-04 0.00000E+00
 -1       255 1.03892E-03 1.56931E-04-1.32349E-23
 -1       256 1.03783E-03 1.90162E-04 0.00000E+00
 -1       257 1.03704E-03 2.11628E-04 1.32349E-23
 -1       258 1.03646E-03 2.17292E-04-6.61744E-24
 -1       259 1.03585E-03 2.07286E-04-1.32349E-23
 -1       260 1.03498E-03 1.82108E-04 0.00000E+00
 -1       261 1.03380E-03 1.46260E-04 0.00000E+00
 -1       262 1.03241E-03 1.04489E-04 0.00000E+00
 -1       263 1.03103E-03 6.31259E-05 0.00000E+00
 -1       264 1.02989E-03 2.84927E-05-6.61744E-24
 -1       265 1.02906E-03 5.11099E-06 1.32349E-23
 -1       266 1.04015E-03-7.04507E-07 0.00000E+00
 -1       267 1.03590E-03-7.15257E-07-8.27181E-25
 -1       268 1.03165E-03-7.26706E-07-8.27181E-25
 -1       269 1.02740E-03-7.36084E-07 0.00000E+00
 -1       270 1.02315E-03-7.45414E-07-4.13590E-25
 -1       271 1.04184E-03 2.90201E-06 0.00000E+00
 -1       272 1.03945E-03 5.93374E-06 1.32349E-23
 -1       273 1.03727E-03 8.40998E-06 0.00000E+00
 -1       274 1.03530E-03 1.03200E-05 0.00000E+00
 -1       275 1.03354E-03 1.16655E-05 2.64698E-23
 -1       276 1.03199E-03 1.24539E-05-1.32349E-23
 -1       277 1.03064E-03 1.27014E-05 0.00000E+00
 -1       278 1.02949E-03 1.24312E-05 0.00000E+00
 -1       279 1.02852E-03 1.16741E-05-2.64698E-23
 -1       280 1.02772E-03 1.04676E-05-1.32349E-23
 -1       281 1.02707E-03 8.85572E-06 0.00000E+00
 -1       282 1.02655E-03 6.88820E-06 0.00000E+00
 -1       283 1.02615E-03 4.61974E-06 0.00000E+00
 -1       284 1.02584E-03 2.11044E-06-1.32349E-23
 -1       285 1.02559E-03-5.78768E-07 0.00000E+00
 -1       301 1.02765E-03-2.86755E-06 0.00000E+00
 -1       302 1.02640E-03-2.96433E-06 0.00000E+00
 -1       303 1.02513E-03-3.06008E-06 0.00000E+00
 -1       304 1.02427E-03-3.15605E-06 0.00000E+00
 -1       305 1.02422E-03-3.25375E-06-1.32349E-23
 -1       306 1.05252E-03-8.77930E-05 5.29396E-23
 -1       307 1.11054E-03-3.36257E-04-2.64698E-23
 -1       308 1.17881E-03-7.07728E-04-5.29396E-23
 -1       309 1.24621E-03-1.14831E-03-2.64698E-23
 -1       310 1.31377E-03-1.58219E-03 5.29396E-23
 -1       311 1.38141E-03-1.93414E-03-2.64698E-23
 -1       312 1.43521E-03-2.15412E-03-1.05879E-22
 -1       313 1.44955E-03-2.20727E-03 0.00000E+00
 -1       314 1.39633E-03-2.09573E-03 0.00000E+00
 -1       315 1.25603E-03-1.84070E-03 2.64698E-23
 -1       316 1.03821E-03-1.48730E-03 0.00000E+00
 -1       317 7.70972E-04-1.08249E-03 0.00000E+00
 -1       318 5.06870E-04-6.80834E-04 0.00000E+00
 -1       319 2.97635E-04-3.37166E-04 0.00000E+00
 -1       320 1.68121E-04-9.74649E-05 5.29396E-23
 -1       336 1.69860E-04-2.89906E-06 0.00000E+00
 -1       337 1.62831E-04-3.35870E-06 0.00000E+00
 -1       338 1.54741E-04-3.82578E-06 1.32349E-23
 -1       339 1.45618E-04-4.30001E-06 0.00000E+00
 -1       340 1.35492E-04-4.78361E-06 1.32349E-23
 -1       406 1.17385E-04 6.82643E-07 3.30872E-24
 -1       407 1.17410E-04 7.80117E-07 0.00000E+00
 -1       408 1.17440E-04 8.77533E-07 3.30872E-24
 -1       409 1.17473E-04 9.74776E-07 0.00000E+00
 -1       410 1.17509E-04 1.07166E-06 0.00000E+00
 -1       521 1.04993E-03-9.54900E-05 1.05879E-22
 -1       522 1.10810E-03-3.56856E-04 5.29396E-23
 -1       523 1.17540E-03-7.45660E-04 0.00000E+00
 -1       524 1.24082E-03-1.20349E-03 5.29396E-23
 -1       525 1.30653E-03-1.65360E-03 0.00000E+00
 -1       526 1.37339E-03-2.02005E-03 0.00000E+00
 -1       527 1.42699E-03-2.24861E-03 1.05879E-22
 -1       528 1.44032E-03-2.30381E-03 0.00000E+00
 -1       529 1.38233E-03-2.18637E-03 1.05879E-22
 -1       530 1.23266E-03-1.92091E-03-5.29396E-23
 -1       531 1.00074E-03-1.55390E-03 1.05879E-22
 -1       532 7.17457E-04-1.13525E-03-5.29396E-23
 -1       533 4.36914E-04-7.19276E-04 0.00000E+00
 -1       534 2.12445E-04-3.60421E-04 0.00000E+00
 -1       535 7.22291E-05-1.08013E-04-1.05879E-22
 -1       536 1.24112E-04 1.22246E-05 0.00000E+00
 -1       537 1.23563E-04 4.15100E-05-1.65436E-24
 -1       538 1.22789E-04 7.80760E-05 0.00000E+00
 -1       539 1.21916E-04 1.17370E-04-1.65436E-24
 -1       540 1.21135E-04 1.54091E-04 0.00000E+00
 -1       541 1.20602E-04 1.82953E-04 1.65436E-24
 -1       542 1.20310E-04 2.00782E-04 0.00000E+00
 -1       543 1.20164E-04 2.04468E-04 0.00000E+00
 -1       544 1.19979E-04 1.94559E-04 0.00000E+00
 -1       545 1.19590E-04 1.71688E-04 1.65436E-24
 -1       546 1.18972E-04 1.39868E-04 3.30872E-24
 -1       547 1.18194E-04 1.03166E-04 1.65436E-24
 -1       548 1.17433E-04 6.69741E-05-3.30872E-24
 -1       549 1.16862E-04 3.66818E-05-1.65436E-24
 -1       550 1.16521E-04 1.60854E-05 1.65436E-24
 -1       551 1.10792E-04-5.54376E-06-6.61744E-24
 -1       552 9.50237E-05-5.84840E-06-3.30872E-24
 -1       553 7.77029E-05-6.17669E-06-2.48154E-24
 -1       554 5.94482E-05-6.52260E-06 6.61744E-24
 -1       555 4.08783E-05-6.87630E-06 0.00000E+00
 -1       556 1.20495E-04 4.82670E-06 0.00000E+00
 -1       557 1.17423E-04 1.27835E-05 0.00000E+00
 -1       558 1.15100E-04 1.87864E-05 0.00000E+00
 -1       559 1.13448E-04 2.30321E-05 0.00000E+00
 -1       560 1.12389E-04 2.57173E-05 0.00000E+00
 -1       561 1.11844E-04 2.70399E-05 0.00000E+00
 -1       562 1.11737E-04 2.71981E-05 0.00000E+00
 -1       563 1.11992E-04 2.63907E-05 0.00000E+00
 -1       564 1.12535E-04 2.48164E-05 0.00000E+00
 -1       565 1.13289E-04 2.26745E-05 0.00000E+00
 -1       566 1.14181E-04 2.01643E-05 0.00000E+00
 -1       567 1.15136E-04 1.74851E-05 0.00000E+00
 -1       568 1.16079E-04 1.48364E-05 0.00000E+00
 -1       569 1.16937E-04 1.24174E-05 0.00000E+00
 -1       570 1.17635E-04 1.04275E-05 0.00000E+00
 -1       571 1.16437E-04 8.42653E-06-8.27181E-25
 -1       572 1.16511E-04 7.88772E-06 4.13590E-25
 -1       573 1.16584E-04 7.31500E-06-8.27181E-25
 -1       574 1.16658E-04 6.71794E-06-8.27181E-25
 -1       575 1.16733E-04 6.10616E-06 1.65436E-24
 -1       576 1.16807E-04 5.48930E-06 0.00000E+00
 -1       577 1.16881E-04 4.87704E-06 0.00000E+00
 -1       578 1.16955E-04 4.27906E-06-1.65436E-24
 -1       579 1.17029E-04 3.70502E-06 3.30872E-24
 -1       580 1.17104E-04 3.16460E-06 0.00000E+00
 -1       581 1.17178E-04 2.66749E-06-3.30872E-24
 -1       582 1.17252E-04 2.22334E-06 0.00000E+00
 -1       583 1.17326E-04 1.84180E-06 0.00000E+00
 -1       584 1.17401E-04 1.53243E-06 0.00000E+00
 -1       585 1.17475E-04 1.30471E-06 0.00000E+00
 -1       586 1.16602E-04 8.94717E-06 8.27181E-25
 -1       587 1.16815E-04 8.97146E-06-1.16322E-25
 -1       588 1.17039E-04 8.99545E-06 0.00000E+00
 -1       589 1.17306E-04 9.01899E-06 0.00000E+00
 -1       590 1.17649E-04 9.04173E-06 0.00000E+00
 -1       591 1.16515E-04 8.47495E-06-5.16988E-26
 -1       592 1.16671E-04 8.00323E-06 0.00000E+00
 -1       593 1.16833E-04 7.51268E-06 4.13590E-25
 -1       594 1.17001E-04 7.00809E-06 2.06795E-25
 -1       595 1.17172E-04 6.49434E-06 0.00000E+00
 -1       596 1.17345E-04 5.97623E-06 2.06795E-25
 -1       597 1.17517E-04 5.45860E-06 0.00000E+00
 -1       598 1.17687E-04 4.94627E-06 2.06795E-25
 -1       599 1.17854E-04 4.44403E-06 0.00000E+00
 -1       600 1.18015E-04 3.95670E-06 2.06795E-25
 -1       601 1.18169E-04 3.48911E-06 0.00000E+00
 -1       602 1.18313E-04 3.04606E-06 1.03398E-25
 -1       603 1.18447E-04 2.63237E-06-2.06795E-25
 -1       604 1.18568E-04 2.25292E-06-5.16988E-26
 -1       605 1.18675E-04 1.91249E-06 0.00000E+00
 -1       606 1.17561E-04 1.19319E-06 3.30872E-24
 -1       607 1.17570E-04 1.30739E-06-1.65436E-24
 -1       608 1.17579E-04 1.50472E-06-3.30872E-24
 -1       609 1.17588E-04 1.77936E-06 0.00000E+00
 -1       610 1.17596E-04 2.12542E-06 0.00000E+00
 -1       611 1.17605E-04 2.53693E-06 0.00000E+00
 -1       612 1.17613E-04 3.00793E-06 0.00000E+00
 -1       613 1.17621E-04 3.53246E-06 0.00000E+00
 -1       614 1.17630E-04 4.10453E-06 0.00000E+00
 -1       615 1.17638E-04 4.71818E-06 0.00000E+00
 -1       616 1.17646E-04 5.36743E-06 0.00000E+00
 -1       617 1.17654E-04 6.04632E-06-4.13590E-25
 -1       618 1.17662E-04 6.74886E-06 8.27181E-25
 -1       619 1.17670E-04 7.46909E-06-2.06795E-25
 -1       620 1.17678E-04 8.20104E-06 0.00000E+00
 -1       621 1.17639E-04 1.24240E-06 0.00000E+00
 -1       622 1.17791E-04 1.31771E-06 0.00000E+00
 -1       623 1.17993E-04 1.39299E-06 0.00000E+00
 -1       624 1.18231E-04 1.46812E-06 8.27181E-25
 -1       625 1.18493E-04 1.54312E-06 0.00000E+00
 -1       626 1.17624E-04 1.21954E-06 0.00000E+00
 -1       627 1.17673E-04 1.34280E-06 0.00000E+00
 -1       628 1.17698E-04 1.52985E-06 0.00000E+00
 -1       629 1.17702E-04 1.77305E-06 0.00000E+00
 -1       630 1.17688E-04 2.06474E-06 3.30872E-24
 -1       631 1.17659E-04 2.39720E-06 0.00000E+00
 -1       632 1.17617E-04 2.76273E-06 0.00000E+00
 -1       633 1.17566E-04 3.15364E-06 1.65436E-24
 -1       634 1.17508E-04 3.56223E-06 0.00000E+00
 -1       635 1.17447E-04 3.98077E-06 0.00000E+00
 -1       636 1.17385E-04 4.40159E-06 0.00000E+00
 -1       637 1.17324E-04 4.81697E-06-8.27181E-25
 -1       638 1.17269E-04 5.21921E-06 1.65436E-24
 -1       639 1.17221E-04 5.60059E-06 8.27181E-25
 -1       640 1.17183E-04 5.95341E-06 0.00000E+00
 -1       656 1.17154E-04 8.50455E-06-6.61744E-24
 -1       657 1.16982E-04 8.05299E-06 0.00000E+00
 -1       658 1.17040E-04 7.60276E-06 1.32349E-23
 -1       659 1.17193E-04 7.15288E-06 0.00000E+00
 -1       660 1.17284E-04 6.70161E-06 0.00000E+00
 -1       661 1.17489E-04 9.64571E-06 0.00000E+00
 -1       662 1.17319E-04 1.02900E-05-8.27181E-25
 -1       663 1.17172E-04 1.08743E-05 0.00000E+00
 -1       664 1.17046E-04 1.14023E-05 0.00000E+00
 -1       665 1.16939E-04 1.18773E-05-1.65436E-24
 -1       666 1.16852E-04 1.23025E-05 0.00000E+00
 -1       667 1.16782E-04 1.26811E-05 1.65436E-24
 -1       668 1.16729E-04 1.30163E-05 8.27181E-25
 -1       669 1.16691E-04 1.33108E-05 0.00000E+00
 -1       670 1.16666E-04 1.35677E-05 0.00000E+00
 -1       671 1.16655E-04 1.37897E-05-1.65436E-24
 -1       672 1.16656E-04 1.39794E-05-8.27181E-25
 -1       673 1.16668E-04 1.41397E-05 1.65436E-24
 -1       674 1.16689E-04 1.42726E-05 0.00000E+00
 -1       675 1.16720E-04 1.43813E-05-4.13590E-25
 -1       676 1.17020E-04 1.48772E-05 0.00000E+00
 -1       677 1.16967E-04 1.47945E-05 0.00000E+00
 -1       678 1.16914E-04 1.47118E-05-1.65436E-24
 -1       679 1.16860E-04 1.46294E-05-8.27181E-25
 -1       680 1.16808E-04 1.45470E-05 1.65436E-24
 -1       771 1.56026E-05 7.88321E-06 5.29396E-23
 -1       772 9.64849E-06 2.02816E-05-5.29396E-23
 -1       773 4.69818E-06 3.00891E-05-5.29396E-23
 -1       774 6.83768E-07 3.74624E-05 0.00000E+00
 -1       775-2.46149E-06 4.25626E-05 0.00000E+00
 -1       776-4.80698E-06 4.55584E-05 0.00000E+00
 -1       777-6.42245E-06 4.66225E-05 0.00000E+00
 -1       778-7.37906E-06 4.59338E-05-2.64698E-23
 -1       779-7.74811E-06 4.36748E-05 0.00000E+00
 -1       780-7.60207E-06 4.00329E-05 0.00000E+00
 -1       781-7.01335E-06 3.51984E-05 0.00000E+00
 -1       782-6.05528E-06 2.93653E-05 0.00000E+00
 -1       783-4.80104E-06 2.27297E-05 2.64698E-23
 -1       784-3.32454E-06 1.54901E-05 1.32349E-23
 -1       785-1.69942E-06 7.84657E-06 2.64698E-23
 -1       786 1.18138E-04 8.40252E-06 0.00000E+00
 -1       787 1.18180E-04 7.78539E-06-4.13590E-25
 -1       788 1.18221E-04 7.20373E-06 0.00000E+00
 -1       789 1.18263E-04 6.65082E-06 0.00000E+00
 -1       790 1.18305E-04 6.12271E-06 0.00000E+00
 -1       791 1.18347E-04 5.61548E-06-8.27181E-25
 -1       792 1.18389E-04 5.12723E-06-1.65436E-24
 -1       793 1.18431E-04 4.65609E-06 8.27181E-25
 -1       794 1.18473E-04 4.20182E-06-1.65436E-24
 -1       795 1.18515E-04 3.76422E-06 0.00000E+00
 -1       796 1.18557E-04 3.34471E-06 0.00000E+00
 -1       797 1.18599E-04 2.94471E-06 0.00000E+00
 -1       798 1.18641E-04 2.56754E-06 0.00000E+00
 -1       799 1.18683E-04 2.21655E-06 0.00000E+00
 -1       800 1.18726E-04 1.89761E-06 0.00000E+00
 -1       801 1.05960E-04 7.81280E-06 2.64698E-23
 -1       802 6.82370E-05 5.90774E-06-1.32349E-23
 -1       803 2.70768E-05 3.88812E-06-2.64698E-23
 -1       804 4.82716E-06 2.43460E-06 1.32349E-23
 -1       805-2.57622E-06 1.20493E-06 0.00000E+00
 -1       806 1.18261E-04 8.35368E-06 0.00000E+00
 -1       807 1.18409E-04 7.67092E-06 0.00000E+00
 -1       808 1.18547E-04 7.01685E-06 0.00000E+00
 -1       809 1.18672E-04 6.39384E-06-8.27181E-25
 -1       810 1.18784E-04 5.80423E-06-1.65436E-24
 -1       811 1.18884E-04 5.25029E-06-1.65436E-24
 -1       812 1.18968E-04 4.73429E-06 0.00000E+00
 -1       813 1.19038E-04 4.25846E-06 0.00000E+00
 -1       814 1.19092E-04 3.82506E-06-3.30872E-24
 -1       815 1.19130E-04 3.43633E-06 8.27181E-25
 -1       816 1.19149E-04 3.09450E-06-3.30872E-24
 -1       817 1.19151E-04 2.80180E-06 0.00000E+00
 -1       818 1.19133E-04 2.56047E-06 0.00000E+00
 -1       819 1.19095E-04 2.37273E-06-8.27181E-25
 -1       820 1.19036E-04 2.24078E-06 0.00000E+00
 -1       821 1.18673E-04 1.32704E-06 8.27181E-25
 -1       822 1.18572E-04 9.83441E-07 0.00000E+00
 -1       823 1.18472E-04 6.51197E-07 3.30872E-24
 -1       824 1.18370E-04 3.95620E-07 0.00000E+00
 -1       825 1.18269E-04 2.65960E-07-3.30872E-24
 -1       826 1.18167E-04 3.10898E-07 0.00000E+00
 -1       827 1.18065E-04 5.42613E-07-3.30872E-24
 -1       828 1.17963E-04 9.72439E-07 1.65436E-24
 -1       829 1.17861E-04 1.57029E-06 0.00000E+00
 -1       830 1.17759E-04 2.30531E-06 0.00000E+00
 -1       831 1.17657E-04 3.11799E-06 3.30872E-24
 -1       832 1.17555E-04 3.94845E-06 0.00000E+00
 -1       833 1.17454E-04 4.73307E-06 3.30872E-24
 -1       834 1.17353E-04 5.40849E-06 0.00000E+00
 -1       835 1.17252E-04 5.93406E-06 0.00000E+00
 -1       836 1.18954E-04 1.70819E-06 0.00000E+00
 -1       837 1.19041E-04 1.80182E-06 1.65436E-24
 -1       838 1.19056E-04 1.89531E-06 0.00000E+00
 -1       839 1.19028E-04 1.98820E-06 0.00000E+00
 -1       840 1.18986E-04 2.08093E-06 0.00000E+00
 -1       856 1.17136E-04 6.56874E-06 4.13590E-25
 -1       857 1.17111E-04 6.97638E-06 0.00000E+00
 -1       858 1.17086E-04 7.47571E-06-4.13590E-25
 -1       859 1.17061E-04 8.04962E-06 4.13590E-25
 -1       860 1.17036E-04 8.68088E-06-8.27181E-25
 -1       861 1.17010E-04 9.35222E-06 4.13590E-25
 -1       862 1.16985E-04 1.00464E-05-8.27181E-25
 -1       863 1.16959E-04 1.07460E-05 0.00000E+00
 -1       864 1.16934E-04 1.14337E-05 0.00000E+00
 -1       865 1.16908E-04 1.20922E-05-4.13590E-25
 -1       866 1.16883E-04 1.27043E-05 0.00000E+00
 -1       867 1.16857E-04 1.32526E-05 4.13590E-25
 -1       868 1.16832E-04 1.37201E-05 8.27181E-25
 -1       869 1.16806E-04 1.40895E-05 4.13590E-25
 -1       870 1.16781E-04 1.43439E-05-8.27181E-25
 -1       871 1.17075E-04 6.26855E-06 4.13590E-25
 -1       872 1.17105E-04 6.26489E-06 0.00000E+00
 -1       873 1.17197E-04 6.26078E-06-4.13590E-25
 -1       874 1.17302E-04 6.25613E-06-2.06795E-25
 -1       875 1.17371E-04 6.25097E-06-4.13590E-25
 -1       876 1.17144E-04 6.57904E-06 3.30872E-24
 -1       877 1.17113E-04 6.94112E-06-1.65436E-24
 -1       878 1.17065E-04 7.34972E-06 0.00000E+00
 -1       879 1.17002E-04 7.79893E-06 1.65436E-24
 -1       880 1.16926E-04 8.28279E-06 0.00000E+00
 -1       881 1.16839E-04 8.79538E-06 0.00000E+00
 -1       882 1.16743E-04 9.33082E-06 3.30872E-24
 -1       883 1.16641E-04 9.88319E-06 1.65436E-24
 -1       884 1.16536E-04 1.04466E-05 3.30872E-24
 -1       885 1.16428E-04 1.10152E-05 0.00000E+00
 -1       886 1.16320E-04 1.15830E-05-3.30872E-24
 -1       887 1.16215E-04 1.21441E-05-1.65436E-24
 -1       888 1.16114E-04 1.26927E-05 0.00000E+00
 -1       889 1.16020E-04 1.32227E-05-8.27181E-25
 -1       890 1.15934E-04 1.37282E-05 1.65436E-24
 -1       891 1.16722E-04 1.44221E-05-8.27181E-25
 -1       892 1.16670E-04 1.43777E-05 8.27181E-25
 -1       893 1.16579E-04 1.43333E-05 8.27181E-25
 -1       894 1.16427E-04 1.42890E-05-2.06795E-25
 -1       895 1.16192E-04 1.42448E-05 0.00000E+00
 -1       956 1.18859E-04 2.21355E-06-1.65436E-24
 -1       957 1.18759E-04 2.32229E-06-8.27181E-25
 -1       958 1.18659E-04 2.48604E-06 0.00000E+00
 -1       959 1.18558E-04 2.69741E-06 0.00000E+00
 -1       960 1.18458E-04 2.94900E-06 1.65436E-24
 -1       961 1.18357E-04 3.23337E-06 0.00000E+00
 -1       962 1.18256E-04 3.54309E-06 0.00000E+00
 -1       963 1.18156E-04 3.87070E-06 0.00000E+00
 -1       964 1.18055E-04 4.20878E-06-3.30872E-24
 -1       965 1.17954E-04 4.54985E-06 1.65436E-24
 -1       966 1.17854E-04 4.88648E-06 3.30872E-24
 -1       967 1.17753E-04 5.21123E-06 1.65436E-24
 -1       968 1.17653E-04 5.51664E-06 0.00000E+00
 -1       969 1.17552E-04 5.79529E-06-1.65436E-24
 -1       970 1.17452E-04 6.03979E-06 3.30872E-24
 -1       971 1.17261E-04 6.46020E-06 3.30872E-24
 -1       972 1.17167E-04 6.75729E-06-8.27181E-25
 -1       973 1.17073E-04 7.12544E-06-3.30872E-24
 -1       974 1.16979E-04 7.55549E-06 8.27181E-25
 -1       975 1.16885E-04 8.03830E-06-3.30872E-24
 -1       976 1.16791E-04 8.56468E-06 0.00000E+00
 -1       977 1.16697E-04 9.12544E-06-3.30872E-24
 -1       978 1.16602E-04 9.71138E-06 0.00000E+00
 -1       979 1.16508E-04 1.03133E-05 0.00000E+00
 -1       980 1.16414E-04 1.09220E-05-1.65436E-24
 -1       981 1.16320E-04 1.15283E-05 0.00000E+00
 -1       982 1.16225E-04 1.21230E-05 0.00000E+00
 -1       983 1.16131E-04 1.26969E-05 0.00000E+00
 -1       984 1.16038E-04 1.32408E-05-1.65436E-24
 -1       985 1.15945E-04 1.37454E-05-1.65436E-24
 -3
    1PSTEP                        24          12           1          
  100CL  112 5.30640E-01         409                     0   12           1
 -4  STRESS      6    1
 -5  SXX         1    4    1    1
 -5  SYY         1    4    2    2
 -5  SZZ         1    4    3    3
 -5  SXY         1    4    1    2
 -5  SYZ         1    4    2    3
 -5  SZX         1    4    3    1
 -1         1-2.71566E+06-1.09194E+06-5.85887E+05-1.26762E+06 1.45519E-10-9.11241E-08
 -1         2 3.72841E+02-1.30893E+06 1.20291E+03 2.98078E+01 5.51239E-11 3.76734E-08
 -1         3-3.75000E+02-1.14943E+06 2.56905E+02-8.30269E+02-1.54152E-10-8.73115E-10
 -1         5-8.19425E-01 2.79044E+05 7.05140E+00-2.16718E-02-5.87735E-11-3.87001E-08
 -1         8-9.89027E+05-3.35614E+05-1.09587E+05-4.14577E+05 3.11047E-10-3.28873E-08
 -1         9 3.11658E+06-3.94792E+05 6.25947E+05-5.67057E+05 2.45404E-08-1.08615E-08
 -1        10-1.18908E+03-1.19756E+06-2.56392E+03-5.61974E+03-6.84940E-09-3.38486E-09
 -1        12 2.07511E+00 2.79058E+05 2.28253E+02-1.73198E-01 5.27969E-11 1.11251E-08
 -1        15 1.62976E+03 8.95643E+02 5.26817E+03 2.99471E+00-2.26038E-10-1.75906E-08
 -1        16 6.90906E+06-5.27270E+05 9.96503E+05-1.04273E+06 1.45131E-08-6.51926E-09
 -1        17 2.75153E+06 1.78202E+06 7.95282E+05 1.79206E+06-1.82190E-09 1.37778E-08
 -1        18-1.44528E+04-8.03360E+03-2.57738E+04-7.75585E+04 7.54756E-09-2.31512E-09
 -1        19 9.01574E+04 1.03386E+05-7.56128E+02 1.77588E+04-8.85848E-11-6.12126E-09
 -1        20-4.75504E+04-4.26912E+05-9.48573E+04 2.63046E+04 2.63738E-09-7.21593E-09
 -1        21-3.82227E+01-2.36932E+05-7.54892E+02-8.64560E+00-3.20145E-09-1.61026E-08
 -1        24 3.61381E+06 3.42731E+06 1.19273E+06 3.21146E+06-8.86551E-08-3.07045E-08
 -1        25-1.19338E+05-6.31024E+05-1.31035E+05-1.38038E+05-8.22183E-11 7.01912E-09
 -1        26-3.47262E+04 6.70951E+04-1.74463E+04-3.86839E+03 1.36861E-09 8.78207E-09
 -1        27-6.20198E+04-2.32240E+05-8.62985E+04 5.24866E+04 5.39717E-09-5.43029E-09
 -1        28 1.81873E+04-6.66023E+04 1.34528E+04 1.91351E+04 1.75714E-09-3.86185E-09
 -1        32-1.27028E+06-1.96047E+06-3.74446E+04-4.48724E+05-2.80352E-08-6.81904E-09
 -1        33-1.36410E+05 6.69895E+04 2.39572E+04-3.16463E+04 1.08268E-10 5.43817E-09
 -1        34-1.71616E+05-1.75791E+04 4.60657E+02 5.46051E+04 1.21984E-09-1.66832E-09
 -1        35-1.85459E+04-2.64592E+04-1.04337E+03 4.12741E+04 3.10403E-09-5.32358E-10
 -1        51 2.79704E+04-2.80124E+05 6.40002E+04-8.02144E+05-1.60071E-10 1.16415E-08
 -1        52 1.21981E+04-2.72546E+05 3.73338E+04-9.35390E+05 6.11180E-10-2.43017E-08
 -1        53 5.77345E+03-2.85784E+05 2.54568E+04-7.99294E+05 6.33008E-10-2.40107E-09
 -1        54 1.55537E+04-2.83441E+05 3.30256E+04-9.38367E+05 7.27596E-12-3.22179E-08
 -1        55 3.17767E+04-2.94922E+05 5.43248E+04-7.98854E+05 7.34872E-10-3.19233E-08
 -1        56-5.16830E+06-5.78416E+05-4.32363E+05-2.00368E+06-8.57835E-09-2.45345E-08
 -1        57-5.37994E+06-9.33167E+05-2.91700E+05-1.94394E+06-5.04588E-09-2.53058E-08
 -1        58-5.25097E+06-7.20043E+05-1.01656E+05-1.98131E+06-2.53385E-09-7.00711E-08
 -1        59-5.28524E+06-7.65904E+05-6.06955E+04-1.96925E+06-3.34740E-09-1.69546E-07
 -1        60-5.26173E+06-7.41102E+05-2.37104E+04-1.97981E+06-2.70120E-10 9.67248E-09
 -1        61-5.27330E+06-7.40693E+05-1.34744E+04-1.97033E+06-3.66981E-10-5.08180E-08
 -1        62-5.26265E+06-7.44645E+05-6.44655E+03-1.98039E+06-1.88754E-09-1.92745E-08
 -1        63-5.27228E+06-7.37067E+05-5.30171E+03-1.96980E+06-8.07353E-09 5.64872E-09
 -1        64-5.26271E+06-7.44658E+05-5.97372E+03-1.98035E+06 5.48619E-09-7.31703E-08
 -1        65-5.27293E+06-7.40366E+05-1.20696E+04-1.97048E+06-1.62963E-08-1.71317E-08
 -1        66-5.26203E+06-7.41407E+05-2.10650E+04-1.97969E+06-4.23825E-10 6.36755E-08
 -1        67-5.28318E+06-7.62994E+05-5.37983E+04-1.96988E+06-1.62399E-08-8.76744E-08
 -1        68-5.25268E+06-7.22571E+05-9.00753E+04-1.98082E+06 2.59570E-09 2.94349E-08
 -1        69-5.36669E+06-9.11557E+05-2.58421E+05-1.94790E+06-1.55978E-09 4.72428E-08
 -1        70-5.17968E+06-5.96912E+05-3.83118E+05-2.00040E+06-4.46744E-09-9.25502E-09
 -1        86-1.85960E+02-1.30935E+06 1.30276E+03-1.49042E+01 3.69482E-13 1.19360E-08
 -1        87 1.23892E+03-1.30851E+06 2.70078E+03 5.24912E+01-1.02318E-10 7.45288E-08
 -1        88-1.04932E+03-1.30977E+06 4.15544E+03-3.75884E+01 1.25510E-10-7.39626E-09
 -1        89 7.82516E+03-1.30545E+06 1.11871E+04 7.99023E+01 7.79892E-11 2.85604E-08
 -1        90-6.75033E+03-1.31240E+06 1.58277E+04-4.23162E+01-1.60071E-10-1.77752E-07
 -1       121-5.34739E+02-1.15079E+06 3.82370E+01 4.13858E+02 7.51896E-10-5.43514E-09
 -1       122-2.76031E+02-1.14940E+06 5.36546E+02-1.65918E+03-2.81040E-09-8.89304E-09
 -1       123-5.85793E+02-1.15086E+06 6.45576E+02 1.23771E+03 2.26703E-09 3.72165E-09
 -1       124 8.22871E+02-1.14883E+06 2.20499E+03-3.54879E+03-5.17025E-09 1.83427E-08
 -1       125-1.25332E+03-1.15147E+06 3.08695E+03 2.29823E+03 3.29783E-09-5.51336E-09
 -1       191-1.09637E+00 2.79068E+05 8.64495E+00 1.08630E-02-2.46330E-11-5.91240E-09
 -1       192-1.46517E+00 2.79044E+05 1.49191E+01-9.98215E-02-9.32143E-12 5.83032E-09
 -1       193-2.81423E+00 2.79068E+05 2.79555E+01 8.91914E-02-8.35598E-11 7.42148E-09
 -1       194-3.54368E+00 2.79046E+05 5.64034E+01-2.38765E-01-8.13900E-11 7.80733E-09
 -1       195-6.11585E+00 2.79066E+05 1.10538E+02 1.50438E-01-2.36824E-11 1.45986E-08
 -1       251-1.67664E+06 1.44276E+04-9.57066E+04-6.68473E+04-3.22871E-09-4.05234E-08
 -1       252-1.49676E+06-1.53534E+04-2.61951E+04 2.01553E+05 2.28169E-09 9.67430E-09
 -1       253-1.58918E+06 3.92892E+02-2.00986E+04-1.34036E+05-6.33463E-10 4.87980E-08
 -1       254-1.57696E+06 9.94912E+03-6.08587E+03 2.60863E+05 2.09587E-09-4.64895E-08
 -1       255-1.60532E+06-3.58529E+03-9.24044E+03-1.26559E+05 2.00116E-08-1.01084E-07
 -1       256-1.45101E+06 1.04456E+04 2.52885E+04 1.74914E+05 1.66783E-08 8.53701E-08
 -1       257-1.70297E+06-9.92004E+03-2.68490E+04-4.76074E+04 3.90173E-09 9.21489E-08
 -1       258-1.35359E+06 8.62040E+03 4.51367E+04-1.32079E+04-7.53744E-09-5.77014E-08
 -1       259-1.69323E+06-9.44979E+03-2.39524E+04 6.12021E+04-1.11686E-08-8.40303E-08
 -1       260-1.47298E+06 1.17879E+04 2.34251E+04-1.93191E+05-5.41604E-09-1.25193E-07
 -1       261-1.59527E+06-3.63111E+03-2.94089E+03 1.32166E+05 2.50034E-08-2.29198E-08
 -1       262-1.57573E+06 1.48617E+04 3.80144E+03-2.61099E+05-1.49646E-08-4.13424E-08
 -1       263-1.60055E+06-4.37466E+03-5.96758E+03 1.29549E+05 5.92854E-09 2.32185E-08
 -1       264-1.46008E+06 1.51629E+04 2.20301E+04-1.83812E+05 5.66938E-08 7.41795E-08
 -1       265-1.69973E+06-1.29816E+04-3.54653E+04 5.44107E+04 1.83772E-08 8.45926E-08
 -1       266-2.95035E+04-1.37949E+04 6.92282E+04-6.40811E+01-9.45874E-11-3.59028E-08
 -1       267 3.42032E+04 1.60797E+04 4.89272E+04 7.39322E+01 7.27596E-11 4.77076E-08
 -1       268-4.58657E+03-2.27726E+03 1.81862E+04-9.42051E+00-2.83762E-10-5.86488E-08
 -1       269 5.41541E+03 2.72548E+03 1.18206E+04 1.09732E+01-1.04023E-10 4.54176E-08
 -1       270-8.12860E+02-4.47814E+02 5.70597E+03-1.48915E+00 2.79670E-11-5.00111E-08
 -1       271-2.70346E+06-3.34173E+05-2.02963E+05-1.04716E+06 8.04357E-09 6.88015E-08
 -1       272-2.79680E+06-4.62663E+05-1.30628E+05-1.02295E+06-1.38532E-08 1.14254E-07
 -1       273-2.74147E+06-3.85121E+05-4.79299E+04-1.03830E+06-8.53754E-09 3.52520E-08
 -1       274-2.75167E+06-4.00700E+05-2.68588E+04-1.03661E+06 1.78579E-09-1.00101E-07
 -1       275-2.74749E+06-3.89698E+05-1.11758E+04-1.03586E+06 9.04765E-09-5.72591E-08
 -1       276-2.74352E+06-3.96207E+05-5.89967E+03-1.04103E+06 4.31055E-09-2.93314E-08
 -1       277-2.74952E+06-3.88937E+05-2.92006E+03-1.03414E+06-1.28694E-09 7.15027E-08
 -1       278-2.74023E+06-3.98157E+05-2.01446E+03-1.04432E+06-6.44559E-09 6.93553E-08
 -1       279-2.75086E+06-3.87638E+05-2.14651E+03-1.03265E+06-2.01908E-08-6.17108E-08
 -1       280-2.73827E+06-4.00944E+05-3.78097E+03-1.04708E+06-3.67436E-09-3.53257E-08
 -1       281-2.75161E+06-3.86104E+05-6.89181E+03-1.03145E+06-4.97585E-09 1.17548E-08
 -1       282-2.73966E+06-4.07362E+05-1.64493E+04-1.04872E+06-3.87809E-09 6.08411E-08
 -1       283-2.74968E+06-3.81542E+05-2.92571E+04-1.03096E+06-4.08454E-09-7.70315E-08
 -1       284-2.76407E+06-4.48426E+05-7.97877E+04-1.04412E+06-1.52941E-08 8.29568E-08
 -1       285-2.72796E+06-3.48942E+05-1.23939E+05-1.03469E+06 1.35697E-09 6.43267E-08
 -1       301 1.73593E+04-2.71891E+05 1.26852E+05-5.03207E+05 2.18279E-11-3.30892E-08
 -1       302 1.93588E+04-2.40586E+05 8.33549E+04-7.37163E+05 6.18456E-11-2.64416E-08
 -1       303 1.08751E+03-2.59340E+05 6.32462E+04-5.02395E+05-1.45519E-10 1.24237E-08
 -1       304 1.99344E+04-2.33779E+05 9.20108E+04-7.36195E+05 8.00355E-10 4.86398E-08
 -1       305 1.61559E+04-2.68916E+05 1.45363E+05-5.04285E+05-3.05590E-10-3.89336E-08
 -1       306-1.54633E+07-2.53007E+06-3.51742E+06-1.91201E+06-9.74396E-08-1.07684E-09
 -1       307 9.86364E+06-6.16881E+05 2.32507E+06-5.87180E+06-3.83254E-07-2.10683E-07
 -1       308-7.02170E+06 2.28909E+05-3.77454E+05 1.85192E+06 9.52132E-08-3.93566E-08
 -1       309-1.62497E+06-1.40920E+05 6.89843E+05-1.03823E+07 2.29840E-07-2.26257E-07
 -1       310-7.74498E+06 1.44038E+05-4.91763E+05 1.70570E+06-2.26893E-07-2.98769E-08
 -1       311 1.12739E+07-1.10475E+06 2.67667E+06-4.78624E+06-1.39116E-07-9.69885E-09
 -1       312-1.55819E+07-2.41534E+06-3.05223E+06-2.59241E+06 7.03149E-08 1.78843E-08
 -1       313 1.69555E+07 3.72476E+06 4.41579E+06 6.85110E+06-2.04775E-07 6.14673E-08
 -1       314-1.12492E+07-6.19719E+06-2.91519E+06-6.44130E+06 6.27770E-08-6.11180E-10
 -1       315-8.48672E+05 9.62708E+06 2.44639E+06 5.85136E+06 9.81599E-08-3.49522E-07
 -1       316-1.82834E+06-5.02154E+06-3.11138E+05-3.79622E+06 3.19604E-07-2.71044E-07
 -1       317-1.13107E+07 9.52150E+06 6.76490E+05-1.09921E+05 4.54238E-08-4.90654E-07
 -1       318-2.26569E+06-5.25553E+06-5.76820E+05-3.97560E+06-6.41608E-07-1.06229E-07
 -1       319 5.88269E+05 9.99883E+06 2.50164E+06 6.23833E+06-4.78583E-07 1.45519E-11
 -1       320-1.20345E+07-6.48180E+06-3.73788E+06-6.33084E+06-2.09140E-07-3.90792E-08
 -1       336 5.07261E+02-1.24573E+06-8.92014E+03 3.29973E+03-1.39480E-08-3.36149E-09
 -1       337-3.45598E+03-1.24731E+06-1.17762E+04-8.09750E+03-2.56649E-08 7.15227E-09
 -1       338 8.70385E+02-1.24543E+06-1.75770E+04 4.75942E+03-1.79907E-08 9.79344E-09
 -1       339-1.90866E+04-1.25723E+06-4.02381E+04-1.09739E+04-3.27427E-08 1.72531E-09
 -1       340 1.29550E+04-1.23626E+06-6.28827E+04 6.13164E+03-2.18133E-08 1.55342E-08
 -1       406 1.97185E+01 2.79056E+05 4.50845E+02 2.40188E-02-6.37783E-11 4.79531E-09
 -1       407 1.59162E+02 2.79137E+05 9.57723E+02 9.67622E-01-1.59730E-11 4.36873E-09
 -1       408 4.95213E+02 2.78987E+05 1.91304E+03-1.01467E+00-1.40290E-10-2.95529E-10
 -1       409 2.07005E+03 2.79748E+05 4.30629E+03 9.96952E+00-1.55524E-10 5.47971E-10
 -1       410 5.94391E+03 2.78443E+05 8.79128E+03-9.36585E+00-2.50566E-10-2.31290E-09
 -1       521-1.76972E+07-3.41728E+06-4.36916E+06-2.00737E+06-7.21193E-08 8.67294E-09
 -1       522 8.71134E+06-1.14266E+06 2.16240E+06-9.09637E+06-2.91417E-07-1.87778E-07
 -1       523-9.50238E+06 1.28780E+05-4.12857E+05 2.11960E+06 1.02358E-07-2.17758E-07
 -1       524-4.99808E+06 5.32406E+05 7.27419E+05-1.43860E+07 4.16214E-07-3.81751E-07
 -1       525-1.02658E+07-4.61767E+04-5.31035E+05 1.93256E+06 4.31115E-07-2.21067E-07
 -1       526 1.07261E+07-1.71880E+06 2.72361E+06-7.68466E+06 1.25030E-07 1.14887E-08
 -1       527-1.78929E+07-3.49244E+06-3.64004E+06-2.76566E+06 2.01981E-07 7.55535E-08
 -1       528 1.71448E+07 3.60333E+06 4.43864E+06 7.23986E+06 2.79397E-07-7.62375E-08
 -1       529-1.30314E+07-7.74530E+06-3.46547E+06-7.10748E+06 1.81317E-07-6.22822E-09
 -1       530-4.65202E+06 1.21167E+07 2.50196E+06 5.81039E+06-2.22339E-07 3.59927E-07
 -1       531-2.96158E+06-6.58513E+06-3.13921E+05-5.00084E+06-4.02913E-07 1.01136E-07
 -1       532-1.67724E+07 1.22803E+07 7.28065E+05-2.01572E+06 2.94669E-07-4.64959E-07
 -1       533-3.34234E+06-6.77318E+06-6.12379E+05-5.12004E+06 1.13796E-08-6.24597E-07
 -1       534-3.24486E+06 1.23820E+07 2.40882E+06 6.24015E+06-1.14313E-07 4.55184E-07
 -1       535-1.37652E+07-8.00733E+06-4.51665E+06-6.97738E+06 2.82889E-08 2.82846E-07
 -1       536-4.45296E+05-1.55924E+04 2.74663E+03-2.12387E+04-2.95699E-09 3.19178E-08
 -1       537-3.02122E+05 1.59109E+04 2.67975E+04 5.26953E+04-5.48712E-08 4.59729E-08
 -1       538-3.75174E+05 6.61268E+01 4.42762E+03-3.26231E+04 5.87227E-09 5.85069E-08
 -1       539-3.47130E+05 1.33345E+03 7.68604E+03 6.02983E+04 7.94016E-08 5.13612E-08
 -1       540-4.01332E+05-1.76780E+02-4.33245E+03-2.88901E+04-3.02271E-09 5.00153E-08
 -1       541-2.49946E+05 4.01005E+03 2.52334E+04 3.74881E+04-2.34953E-08 5.13797E-08
 -1       542-4.69769E+05-4.72282E+03-1.93829E+04-9.72300E+03 1.58518E-08 2.17419E-08
 -1       543-1.95930E+05 6.15247E+03 3.54495E+04-7.49324E+03 2.28507E-08-2.08095E-08
 -1       544-4.53919E+05-3.48215E+03-1.68694E+04 1.60145E+04-1.45474E-08-2.90118E-08
 -1       545-2.85751E+05 1.41039E+03 1.58145E+04-4.80596E+04 1.10262E-08-3.29019E-08
 -1       546-3.82317E+05 1.94742E+03-4.32763E+03 3.08160E+04 2.08629E-08-3.75304E-08
 -1       547-3.54555E+05-3.81473E+03-3.05855E+03-6.20507E+04-5.15882E-08-5.17739E-08
 -1       548-3.86908E+05 3.20309E+03-1.37937E+04 3.00763E+04-5.13865E-08-4.42578E-08
 -1       549-2.80737E+05-1.21772E+04-8.16360E+03-4.49067E+04-3.07841E-08-1.88875E-08
 -1       550-4.54034E+05 8.58508E+03-6.11758E+04 1.35936E+04 4.17185E-09-1.76024E-08
 -1       551 1.39489E+04-5.24646E+05 7.29192E+03-8.09702E+05-5.59376E-08-2.05182E-09
 -1       552 3.46174E+04-5.38214E+05 2.06620E+04-1.15288E+06-3.99377E-08 5.96629E-09
 -1       553 2.60839E+04-5.42279E+05 3.85280E+04-8.06119E+05-6.54545E-08 1.42245E-08
 -1       554 6.23383E+04-5.35770E+05 8.68988E+04-1.15484E+06-4.32337E-08 1.06738E-08
 -1       555 5.47055E+04-5.63392E+05 1.57517E+05-8.06103E+05-7.00675E-08-6.26460E-09
 -1       556 1.23895E+05-2.26784E+05 3.82006E+04-2.69238E+05-1.45374E-08 4.77303E-09
 -1       557 2.06148E+05-2.95915E+05 2.07782E+04-3.43965E+05-1.23910E-08-3.46517E-10
 -1       558 1.18347E+05-2.28535E+05 7.33414E+03-2.66507E+05-1.04192E-08-1.16415E-09
 -1       559 1.94491E+05-3.00363E+05 4.06347E+03-3.52049E+05 1.40062E-08-2.08966E-08
 -1       560 1.13032E+05-2.25132E+05 1.07706E+03-2.70116E+05 5.77711E-09-3.07409E-09
 -1       561 1.87599E+05-2.97842E+05 8.17103E+02-3.56624E+05-7.56700E-10-1.44973E-09
 -1       562 1.08928E+05-2.22533E+05 1.30321E+01-2.73043E+05 3.43425E-09 2.50475E-09
 -1       563 1.82829E+05-2.95757E+05 2.10481E+02-3.59697E+05 9.38599E-09 1.37561E-10
 -1       564 1.06205E+05-2.20822E+05-1.91091E+01-2.74963E+05 1.31695E-08 2.35013E-09
 -1       565 1.80003E+05-2.94530E+05 9.56257E+01-3.61488E+05 6.57928E-09-4.74347E-09
 -1       566 1.04904E+05-2.19991E+05-1.39454E+00-2.75878E+05 3.59432E-09-7.37964E-09
 -1       567 1.79103E+05-2.94125E+05-6.61106E+01-3.61971E+05 2.12722E-08 4.80213E-09
 -1       568 1.05066E+05-2.20106E+05-3.41219E+02-2.75850E+05 5.28962E-09 2.98314E-09
 -1       569 1.79275E+05-2.94010E+05-8.39919E+02-3.60352E+05 1.80262E-09 9.60426E-10
 -1       570 1.07398E+05-2.22037E+05-1.99663E+03-2.75503E+05 5.85715E-09 8.50741E-09
 -1       571 2.11951E+05 7.81948E+03 1.14971E+04-5.55592E+04 6.54381E-10 6.44491E-09
 -1       572 2.13654E+05 2.76632E+03 5.63303E+03-6.09428E+04 2.74304E-09-7.62907E-09
 -1       573 2.12636E+05 7.05392E+02 2.50265E+03-5.54368E+04 1.01454E-09-8.77208E-10
 -1       574 2.12832E+05 2.77823E+02 1.25415E+03-6.10847E+04 6.01631E-10 1.62436E-09
 -1       575 2.12714E+05 9.02621E+01 5.91524E+02-5.54205E+04-1.28512E-09 1.46979E-08
 -1       576 2.12724E+05 7.46069E+01 3.01935E+02-6.11037E+04-3.84057E-09-1.36060E-09
 -1       577 2.12731E+05 5.37873E+01 1.50154E+02-5.54183E+04 1.08757E-08 5.66251E-09
 -1       578 2.12722E+05 5.96250E+01 8.49227E+01-6.11061E+04 1.87897E-08-1.34014E-09
 -1       579 2.12753E+05 4.55905E+01 5.70800E+01-5.54182E+04 1.23673E-08-1.33059E-09
 -1       580 2.12752E+05 4.65033E+01 6.23949E+01-6.11028E+04-1.26238E-09-4.32919E-10
 -1       581 2.12788E+05 3.14891E+01 9.39118E+01-5.54216E+04 1.42245E-09 1.87083E-09
 -1       582 2.12815E+05 5.11455E+01 1.86753E+02-6.10675E+04-1.66438E-10 4.98312E-09
 -1       583 2.12826E+05 9.24548E+01 3.62075E+02-5.54536E+04-1.38607E-09-5.65092E-09
 -1       584 2.12995E+05 3.81597E+02 8.14542E+02-6.07998E+04-7.27596E-12-1.81205E-08
 -1       585 2.12782E+05 1.09673E+03 1.65538E+03-5.56896E+04 1.06593E-09-8.51287E-09
 -1       586-2.70080E+03 6.94060E+04-3.24468E+03-1.90481E+05-5.62977E-10-7.67579E-09
 -1       587-6.78906E+02 6.90147E+04-7.11814E+01-2.09671E+05-1.21327E-09 7.92397E-10
 -1       588 6.89744E+02 6.90479E+04 3.01973E+03-1.90394E+05-4.47471E-10 5.58884E-09
 -1       589 4.01987E+03 7.06817E+04 8.39314E+03-2.09443E+05-1.19144E-09-5.82804E-09
 -1       590 1.19532E+04 6.81047E+04 1.78274E+04-1.90723E+05-7.20320E-10-8.71660E-09
 -1       591-4.26863E+04-1.09927E+04-1.47683E+04-2.04198E+04 1.71951E-09 3.65617E-09
 -1       592-4.47376E+04-1.39533E+04-7.99940E+03-2.35111E+04 1.31342E-09 1.05939E-08
 -1       593-4.41691E+04-9.91497E+03-3.32999E+03-2.14969E+04-8.01492E-11-2.18006E-09
 -1       594-4.26899E+04-1.17955E+04-1.66084E+03-2.35995E+04-1.13118E-10 2.04743E-08
 -1       595-4.42824E+04-9.91090E+03-7.62921E+02-2.15460E+04 9.68896E-10 2.32429E-08
 -1       596-4.25503E+04-1.16968E+04-3.88439E+02-2.35838E+04 4.50314E-10 7.54633E-09
 -1       597-4.42966E+04-9.92075E+03-2.12773E+02-2.15479E+04 1.50811E-09 4.76081E-09
 -1       598-4.25367E+04-1.16930E+04-1.73352E+02-2.35794E+04 2.25191E-09 4.80202E-09
 -1       599-4.42956E+04-9.92092E+03-2.24301E+02-2.15475E+04 2.41198E-09-4.21460E-09
 -1       600-4.25512E+04-1.16977E+04-4.18982E+02-2.35829E+04 2.31921E-10 2.41605E-08
 -1       601-4.42783E+04-9.91088E+03-8.27728E+02-2.15449E+04 2.29159E-09-8.18090E-10
 -1       602-4.27026E+04-1.18045E+04-1.80460E+03-2.35977E+04 3.28328E-10 6.49936E-09
 -1       603-4.41535E+04-9.91726E+03-3.61927E+03-2.14919E+04-5.70935E-10 1.56319E-09
 -1       604-4.49394E+04-1.41373E+04-8.69418E+03-2.34857E+04 7.44762E-10 8.52083E-09
 -1       605-4.25285E+04-1.10999E+04-1.60510E+04-2.03337E+04 1.51039E-09 1.88802E-08
 -1       606 2.56136E+04-1.01442E+04-1.82377E+04 2.46976E+04-3.32875E-09-2.97223E-09
 -1       607 2.24926E+04-3.28667E+03-9.08163E+03 2.77300E+04-4.00905E-09 3.42152E-09
 -1       608 2.42659E+04-5.67889E+02-4.06647E+03 2.45046E+04-1.04155E-08 1.04069E-09
 -1       609 2.39171E+04-1.64510E+02-2.05397E+03 2.79477E+04-2.17588E-08-8.33938E-09
 -1       610 2.41060E+04 7.43201E+00-9.80717E+02 2.44828E+04-1.22327E-08 9.14042E-11
 -1       611 2.40435E+04 1.64829E+01-4.94485E+02 2.79715E+04-4.38831E-09 4.36921E-09
 -1       612 2.40655E+04 2.15954E+01-2.35926E+02 2.44806E+04-3.62161E-09 6.31007E-09
 -1       613 2.40444E+04 2.35001E+01-1.06515E+02 2.79743E+04-1.53705E-10 2.22758E-09
 -1       614 2.40441E+04 2.06674E+01-2.72753E+01 2.44799E+04 3.97176E-09 2.32740E-09
 -1       615 2.40348E+04 2.77667E+01 3.93336E+01 2.79747E+04 5.79166E-09-1.90630E-09
 -1       616 2.40277E+04 2.55210E+01 1.22795E+02 2.44801E+04 8.81028E-09 2.91925E-09
 -1       617 2.40452E+04 5.66329E+01 2.82203E+02 2.79742E+04 1.79509E-08-7.28778E-09
 -1       618 2.39999E+04 1.08946E+02 5.69488E+02 2.44802E+04 5.29371E-09 3.87649E-09
 -1       619 2.42436E+04 4.98671E+02 1.27934E+03 2.79735E+04-4.36660E-09-3.64298E-09
 -1       620 2.38090E+04 1.46095E+03 2.57152E+03 2.44795E+04 1.09605E-09-1.03951E-08
 -1       621 2.44862E+02 2.15683E+05 2.25764E+03 1.51090E+04-6.09361E-11-6.02995E-10
 -1       622 3.03394E+02 2.16232E+05 2.12708E+03 2.19870E+04-1.68257E-11 8.86303E-09
 -1       623 2.22455E+01 2.15806E+05 2.72019E+03 1.50362E+04 1.64277E-10-4.08545E-09
 -1       624 1.31813E+03 2.17149E+05 5.40507E+03 2.20618E+04 1.98014E-10-1.27393E-08
 -1       625 1.32378E+03 2.14739E+05 9.50913E+03 1.50335E+04 2.10093E-10-1.47153E-08
 -1       626 1.91397E+05 5.01690E+04 4.21471E+03 9.93622E+04-8.38099E-10-1.76078E-09
 -1       627 1.89184E+05 5.16246E+04 2.03091E+03 1.03216E+05 2.22371E-10-3.85080E-09
 -1       628 1.91523E+05 4.82137E+04 8.58237E+02 1.00045E+05 1.71894E-09 8.39077E-09
 -1       629 1.88624E+05 5.10990E+04 4.20108E+02 1.03447E+05-1.28830E-09 8.81261E-09
 -1       630 1.91534E+05 4.81206E+04 1.94112E+02 1.00070E+05-8.68295E-09-5.77893E-09
 -1       631 1.88560E+05 5.10827E+04 1.03505E+02 1.03448E+05-1.98884E-08 4.42597E-10
 -1       632 1.91526E+05 4.81263E+04 6.64702E+01 1.00063E+05-7.27687E-09 1.20023E-08
 -1       633 1.88548E+05 5.10868E+04 7.15334E+01 1.03442E+05-2.65254E-09-7.26004E-09
 -1       634 1.91518E+05 4.81265E+04 1.13356E+02 1.00060E+05 1.46451E-09 1.25419E-09
 -1       635 1.88555E+05 5.10876E+04 2.28142E+02 1.03442E+05-2.03596E-09 5.34988E-09
 -1       636 1.91508E+05 4.81245E+04 4.60045E+02 1.00057E+05-1.90647E-09 5.33964E-09
 -1       637 1.88651E+05 5.11600E+04 1.01084E+03 1.03439E+05 4.33505E-09 9.16521E-09
 -1       638 1.91470E+05 4.83491E+04 2.07705E+03 9.99547E+04 7.98809E-09 1.96992E-08
 -1       639 1.89741E+05 5.26772E+04 4.91384E+03 1.03116E+05-1.34605E-10-4.42560E-09
 -1       640 1.91322E+05 5.28751E+04 1.01972E+04 9.80386E+04 5.56156E-09 1.80835E-08
 -1       656 5.03436E+04-1.28005E+06-1.21537E+05-7.03271E+02-1.81899E-10-1.08384E-08
 -1       657-6.65629E+04-1.33493E+06-1.00595E+05 6.90218E+03-5.74801E-10-8.42587E-09
 -1       658 1.60069E+04-1.29567E+06-6.18428E+04-2.00828E+03-2.96723E-10-1.31306E-09
 -1       659-7.16682E+04-1.33735E+06-1.07301E+05 7.84917E+03-6.20275E-10 6.18477E-09
 -1       660 5.54367E+04-1.27764E+06-1.33071E+05-1.65024E+03-2.40107E-10-1.31250E-09
 -1       661 1.55267E+05 1.67148E+04 1.53678E+04 6.07122E+04 1.38243E-09 4.70573E-09
 -1       662 1.63529E+05 2.85141E+04 1.03558E+04 5.77492E+04-5.53882E-10-5.94696E-09
 -1       663 1.58281E+05 2.16482E+04 3.62231E+03 5.98405E+04-1.41051E-09-7.51015E-09
 -1       664 1.60038E+05 2.27408E+04 2.16607E+03 5.88105E+04-7.65738E-10-4.25621E-09
 -1       665 1.58735E+05 2.23258E+04 8.54509E+02 5.97119E+04-1.72690E-09-3.59603E-09
 -1       666 1.59505E+05 2.19628E+04 4.98975E+02 5.89761E+04-3.05988E-09 1.63177E-08
 -1       667 1.58811E+05 2.24059E+04 2.63906E+02 5.96824E+04-1.14136E-09 3.33592E-09
 -1       668 1.59423E+05 2.19011E+04 2.66207E+02 5.90185E+04 1.02494E-09 2.89688E-11
 -1       669 1.58817E+05 2.23857E+04 3.58256E+02 5.96701E+04-5.05338E-11-1.43748E-09
 -1       670 1.59513E+05 2.20917E+04 7.78041E+02 5.90181E+04 4.13102E-09 1.57043E-09
 -1       671 1.58722E+05 2.22191E+04 1.38081E+03 5.96811E+04 1.59630E-09-8.69238E-09
 -1       672 1.60319E+05 2.34338E+04 3.53223E+03 5.88222E+04 1.39011E-10-9.93305E-09
 -1       673 1.58015E+05 2.10775E+04 5.91925E+03 5.98531E+04 5.27848E-10-1.03496E-08
 -1       674 1.65955E+05 3.29409E+04 1.69279E+04 5.71639E+04-1.13187E-09-7.18501E-09
 -1       675 1.53121E+05 1.29780E+04 2.51264E+04 6.12392E+04-1.59753E-09 3.15777E-09
 -1       676 1.95838E+01-2.36869E+05-9.09840E+02 4.32290E+00-6.99941E-10-1.96912E-08
 -1       677-2.41628E+02-2.37089E+05-1.66512E+03-8.64100E+00-4.62137E-10 1.13772E-09
 -1       678 1.61285E+02-2.36712E+05-2.94350E+03 4.31515E+00-7.59428E-11 9.84302E-09
 -1       679-2.94429E+03-2.38866E+05-6.99232E+03-8.61078E+00 5.29326E-10-4.90301E-09
 -1       680 1.75713E+03-2.35093E+05-1.12693E+04 4.24391E+00 3.77895E-10 2.80295E-09
 -1       771-2.50366E+06-5.22174E+05-9.10323E+04-1.12580E+06-1.93540E-08-1.90048E-08
 -1       772-2.46371E+06-5.78419E+05-4.78619E+04-1.18980E+06-1.69675E-08 7.66704E-09
 -1       773-2.51917E+06-5.10003E+05-2.24822E+04-1.13187E+06-3.18687E-09 1.35478E-08
 -1       774-2.45429E+06-5.68330E+05-1.04479E+04-1.20027E+06 1.53887E-08-3.47427E-09
 -1       775-2.52537E+06-5.05673E+05-6.55602E+03-1.13378E+06-7.85803E-10 1.41517E-09
 -1       776-2.45742E+06-5.67691E+05-2.66569E+03-1.20733E+06-5.04224E-09 2.91402E-09
 -1       777-2.53040E+06-5.02008E+05-2.46167E+03-1.13541E+06 2.43017E-09 2.75395E-09
 -1       778-2.46099E+06-5.67290E+05-7.78456E+02-1.21331E+06 1.62981E-09 5.82259E-09
 -1       779-2.53460E+06-4.98877E+05-1.10719E+03-1.13679E+06-1.27766E-08-8.14907E-09
 -1       780-2.46412E+06-5.66902E+05-2.24508E+02-1.21814E+06-4.38013E-09-4.22915E-10
 -1       781-2.53786E+06-4.96392E+05-4.38217E+02-1.13787E+06-1.72513E-08-1.49794E-09
 -1       782-2.46651E+06-5.66551E+05 5.65976E+01-1.22168E+06-1.80080E-08 6.58929E-10
 -1       783-2.54012E+06-4.94701E+05 6.43363E+01-1.13862E+06-1.42609E-09-3.77463E-09
 -1       784-2.46788E+06-5.66161E+05 5.35069E+02-1.22384E+06-7.17228E-09 5.83032E-09
 -1       785-2.54136E+06-4.93769E+05 9.13288E+02-1.13908E+06-2.19916E-08 4.14548E-09
 -1       786 1.16821E+05-8.38732E+03 1.94034E+04-1.06904E+02 1.67296E-09 1.08721E-08
 -1       787 1.25235E+05 9.70987E+03 1.37274E+04 3.17740E+01 2.18379E-09-1.45519E-10
 -1       788 1.20066E+05-1.31473E+03 5.02072E+03-8.41602E+01 1.66398E-09 2.90652E-09
 -1       789 1.21455E+05 1.52105E+03 3.15277E+03-5.28120E+00 3.99470E-10 4.14707E-09
 -1       790 1.20601E+05-2.05158E+02 1.27858E+03-6.98528E+01-8.85072E-10 4.15827E-09
 -1       791 1.20829E+05 2.37161E+02 7.42569E+02-3.03007E+01-1.93801E-09 1.25636E-08
 -1       792 1.20692E+05-3.17930E+01 3.22824E+02-5.91409E+01-7.11592E-10 4.81492E-10
 -1       793 1.20723E+05 3.68864E+01 1.78845E+02-5.05111E+01-1.05331E-10-1.91974E-08
 -1       794 1.20707E+05-5.01090E+00 8.24560E+01-4.96420E+01 1.28810E-09-7.36434E-09
 -1       795 1.20705E+05 6.84499E+00 4.69954E+01-7.01813E+01-1.26420E-09-1.34039E-09
 -1       796 1.20710E+05-1.76626E+00 2.66804E+01-3.94704E+01 9.22455E-10-5.01751E-09
 -1       797 1.20705E+05 8.66821E+00 2.67432E+01-9.31813E+01 9.77911E-10 3.59865E-09
 -1       798 1.20707E+05-6.83360E+00 3.05863E+01-2.66417E+01 2.85138E-10 6.03750E-09
 -1       799 1.20725E+05 4.99424E+01 7.29058E+01-1.24031E+02 1.32413E-09 6.46480E-09
 -1       800 1.20690E+05-4.30151E+01 1.00092E+02-8.62006E+00 2.27804E-10-2.25515E-09
 -1       801 9.32241E+04-3.69164E+06-3.63941E+05 1.15272E+05 2.56696E-08-9.56788E-09
 -1       802-1.05499E+05-3.01917E+06-1.09959E+05-9.80387E+04 6.90052E-08-5.23823E-09
 -1       803 9.65285E+03-3.58702E+06-1.18146E+05 1.70447E+05 3.87918E-08 2.84383E-08
 -1       804-3.38218E+04-3.23810E+06-2.65562E+04 8.71079E+04 1.54055E-08 1.57265E-08
 -1       805 1.72228E+04-3.47452E+06-5.85177E+04-6.98452E+04 5.50881E-09 5.13342E-09
 -1       806-2.33813E+05-4.38972E+04-1.69519E+04-9.10618E+04-6.08225E-09 3.15958E-09
 -1       807-2.35366E+05-4.09105E+04-8.32824E+03-9.49156E+04 1.20963E-10 9.78787E-09
 -1       808-2.34262E+05-3.78046E+04-3.53322E+03-9.39703E+04-4.77803E-09 1.51340E-09
 -1       809-2.33625E+05-3.85617E+04-1.72770E+03-9.51115E+04-4.87762E-09-3.74212E-09
 -1       810-2.34333E+05-3.75921E+04-7.91765E+02-9.41001E+04-1.00590E-09 1.46513E-08
 -1       811-2.33492E+05-3.84662E+04-3.93674E+02-9.50858E+04-9.94896E-09-8.60609E-10
 -1       812-2.34345E+05-3.76094E+04-1.98753E+02-9.41007E+04-5.08408E-10 1.51090E-08
 -1       813-2.33475E+05-3.84671E+04-1.28809E+02-9.50737E+04-2.92357E-09-4.02190E-09
 -1       814-2.34343E+05-3.76152E+04-1.26808E+02-9.40987E+04-8.26185E-09-1.33082E-08
 -1       815-2.33480E+05-3.84681E+04-2.04050E+02-9.50707E+04 3.18323E-09-1.11509E-08
 -1       816-2.34330E+05-3.76129E+04-3.86099E+02-9.40972E+04 4.64752E-10 1.96815E-09
 -1       817-2.33548E+05-3.85045E+04-8.29186E+02-9.50653E+04-3.58477E-09 9.47603E-09
 -1       818-2.34283E+05-3.77276E+04-1.69080E+03-9.40429E+04-2.77396E-10-4.74847E-09
 -1       819-2.34473E+05-3.95286E+04-3.97943E+03-9.48530E+04-3.17596E-09-9.36416E-09
 -1       820-2.33974E+05-4.07261E+04-8.09901E+03-9.27520E+04 7.48514E-10 6.46492E-09
 -1       821-2.83998E+05 1.57039E+04-3.63179E+04 3.13032E+02 2.27492E-09 2.98314E-09
 -1       822-2.99735E+05-1.81796E+04-2.57001E+04-8.13553E+02-8.37387E-10 5.01677E-09
 -1       823-2.90071E+05 2.46210E+03-9.40647E+03 2.96761E+02-7.40734E-10-6.40284E-09
 -1       824-2.92647E+05-2.84927E+03-5.91745E+03-6.26172E+02-2.38746E-10 6.32053E-09
 -1       825-2.91084E+05 3.85096E+02-2.43457E+03 1.25651E+02-1.24739E-10 1.22202E-09
 -1       826-2.91465E+05-4.53947E+02-1.46631E+03-2.01918E+02-1.67640E-09-9.45550E-09
 -1       827-2.91252E+05 6.81587E+01-7.64640E+02-1.27500E+02-2.06196E-09-1.23139E-08
 -1       828-2.91309E+05-1.39337E+02-6.74190E+02 2.78988E+02-3.68651E-09-8.04188E-09
 -1       829-2.91240E+05 7.08174E+01-7.81839E+02-3.55265E+02 2.53035E-10 7.15096E-09
 -1       830-2.91501E+05-4.73031E+02-1.52723E+03 6.12070E+02 7.96640E-10-7.97078E-09
 -1       831-2.91060E+05 4.02032E+02-2.53184E+03-4.60588E+02-2.48387E-09 4.72482E-09
 -1       832-2.92720E+05-2.97031E+03-6.17042E+03 6.55722E+02-5.16855E-10 1.11044E-08
 -1       833-2.90023E+05 2.56637E+03-9.80700E+03-3.98916E+02-1.77294E-09 2.36923E-09
 -1       834-3.00078E+05-1.89521E+04-2.67904E+04 3.90086E+02-1.72700E-09 8.30005E-09
 -1       835-2.83704E+05 1.63712E+04-3.78682E+04-1.94943E+02 5.31672E-09-4.97312E-09
 -1       836-9.67255E+02 2.68070E+05 1.62815E+04-1.49907E+04-4.99313E-10 1.19612E-08
 -1       837 3.54361E+03 2.73135E+05 1.39449E+04-3.01618E+04-8.50378E-11-1.26628E-08
 -1       838-3.74143E+02 2.69469E+05 1.44444E+04-1.49303E+04-2.91038E-11-6.73185E-09
 -1       839 9.25588E+03 2.77396E+05 2.75568E+04-3.01994E+04 4.71118E-10-1.05905E-09
 -1       840-2.81171E+03 2.63773E+05 4.40440E+04-1.49526E+04-1.96451E-10 7.71672E-09
 -1       856-6.87762E+04 7.09290E+03-1.86916E+04-3.93720E+02-5.23187E-10-4.11819E-09
 -1       857-7.64932E+04-8.32202E+03-1.28683E+04 4.49771E+03-6.15898E-11-3.29510E-09
 -1       858-7.18265E+04 9.94035E+02-4.85062E+03-4.12973E+02-1.32076E-09-6.06178E-09
 -1       859-7.29908E+04-1.15845E+03-2.92877E+03 4.52786E+03 5.08194E-10 1.12291E-08
 -1       860-7.22825E+04 1.38457E+02-1.22997E+03-4.23918E+02 6.26983E-10 3.40282E-09
 -1       861-7.24657E+04-1.55224E+02-6.82034E+02 4.54282E+03-1.43514E-09-7.88613E-09
 -1       862-7.23536E+04 1.83499E+01-2.94316E+02-4.27952E+02 2.70830E-09-3.67871E-09
 -1       863-7.23804E+04-1.17288E+01-1.31739E+02 4.54478E+03 4.81929E-09 7.54920E-10
 -1       864-7.23680E+04-1.86558E+00-1.34760E+01-4.25882E+02 2.79286E-09-8.27356E-09
 -1       865-7.23467E+04 3.56579E+01 1.02713E+02 4.53401E+03 3.49746E-09-8.33167E-09
 -1       866-7.23858E+04-2.92731E+01 2.35400E+02-4.17180E+02-7.47036E-10 2.53016E-09
 -1       867-7.22287E+04 2.44145E+02 5.97535E+02 4.51036E+03 6.33008E-10-4.78852E-09
 -1       868-7.24827E+04-2.07289E+02 9.97426E+02-4.02225E+02 9.89132E-10-8.01634E-09
 -1       869-7.14925E+04 1.72467E+03 2.66229E+03 4.47083E+03-1.76340E-09-4.57158E-09
 -1       870-7.31169E+04-1.47060E+03 3.86291E+03-3.77656E+02 7.31916E-10-1.77124E-09
 -1       871-4.29964E+03-1.06726E+04-1.42213E+04 9.45983E+04 9.74069E-10 1.47502E-08
 -1       872-1.79926E+03-1.38861E+04-5.84692E+03 1.22646E+05 8.33097E-10 1.14881E-08
 -1       873 3.25131E+01-1.23729E+04 7.02557E+02 9.43906E+04 2.04636E-11 3.60637E-09
 -1       874 2.21658E+03-1.03942E+04 7.77299E+03 1.22683E+05 2.74895E-10 1.06911E-08
 -1       875 5.08992E+03-1.42215E+04 1.73241E+04 9.45645E+04 5.04770E-10 7.92170E-09
 -1       876 2.26109E+05 3.86204E+04 1.18577E+04 9.13418E+04-3.52327E-09 1.82717E-09
 -1       877 2.26838E+05 4.11718E+04 6.33232E+03 9.47932E+04-1.62254E-09-4.82885E-09
 -1       878 2.27217E+05 3.73082E+04 2.65298E+03 9.23156E+04 3.25826E-10-7.68046E-09
 -1       879 2.25226E+05 3.95644E+04 1.32170E+03 9.48758E+04 3.71620E-09-1.33946E-09
 -1       880 2.27297E+05 3.72938E+04 6.15519E+02 9.23553E+04 2.54795E-09 6.45571E-10
 -1       881 2.25119E+05 3.94960E+04 3.28276E+02 9.48586E+04 9.94078E-10 1.09512E-08
 -1       882 2.27305E+05 3.73037E+04 2.09341E+02 9.23565E+04-6.51880E-10-1.59219E-08
 -1       883 2.25111E+05 3.94927E+04 2.23933E+02 9.48536E+04-3.15913E-09 2.28658E-09
 -1       884 2.27300E+05 3.73012E+04 3.55233E+02 9.23566E+04-2.17159E-09-3.54970E-09
 -1       885 2.25140E+05 3.94977E+04 7.13601E+02 9.48625E+04 3.48444E-09 1.17637E-08
 -1       886 2.27273E+05 3.72803E+04 1.43796E+03 9.23538E+04 3.04351E-09 5.42173E-09
 -1       887 2.25392E+05 3.96634E+04 3.14097E+03 9.48989E+04 2.95188E-09 5.98902E-10
 -1       888 2.27074E+05 3.73153E+04 6.32916E+03 9.22532E+04-7.90266E-10 5.48471E-09
 -1       889 2.29162E+05 4.35803E+04 1.51197E+04 9.47809E+04 4.33816E-09 7.28664E-09
 -1       890 2.24495E+05 4.03791E+04 2.83183E+04 8.98393E+04 2.77510E-09-1.54341E-09
 -1       891-1.23485E+02-1.27192E+05-1.52781E+03 2.30303E+04 6.23913E-10 9.69533E-09
 -1       892-2.18342E+02-1.27567E+05-1.65183E+03 3.48764E+04-7.06450E-10 1.19135E-08
 -1       893-2.14014E+01-1.27241E+05-2.34996E+03 2.30353E+04-5.41149E-11 8.32688E-09
 -1       894-1.25465E+03-1.28464E+05-4.87192E+03 3.47511E+04 2.77396E-10-7.53971E-10
 -1       895-9.84030E+02-1.26228E+05-8.58224E+03 2.31546E+04 3.76474E-10 4.13002E-09
 -1       956-2.86798E+05-4.02611E+03-1.01028E+04 1.97875E+04-9.41327E-11-3.13958E-09
 -1       957-2.88790E+05-1.36853E+03-5.18627E+03 2.38270E+04 1.19871E-09-4.70209E-10
 -1       958-2.87696E+05-1.19654E+02-2.33659E+03 1.96690E+04 2.18279E-11-1.25356E-08
 -1       959-2.87852E+05-3.23287E+01-1.19352E+03 2.39574E+04-1.90471E-09-1.68711E-10
 -1       960-2.87777E+05 2.26526E+01-5.81927E+02 1.96575E+04-8.35371E-10 1.10490E-08
 -1       961-2.87785E+05 1.84799E+01-3.08946E+02 2.39706E+04-2.19939E-09-4.97425E-09
 -1       962-2.87793E+05 1.88577E+01-1.77213E+02 1.96557E+04-6.18229E-10 2.41926E-09
 -1       963-2.87782E+05 1.97854E+01-1.42959E+02 2.39728E+04-1.61253E-09 7.22662E-09
 -1       964-2.87796E+05 2.07176E+01-1.74440E+02 1.96552E+04-1.54279E-09-5.80235E-09
 -1       965-2.87792E+05 2.24393E+01-3.02194E+02 2.39726E+04 2.70606E-09-4.17913E-10
 -1       966-2.87786E+05 2.81863E+01-5.67769E+02 1.96560E+04-1.17529E-09-2.92425E-09
 -1       967-2.87864E+05-2.32569E+01-1.16470E+03 2.39640E+04-2.84297E-09 4.52405E-09
 -1       968-2.87713E+05-1.07006E+02-2.27953E+03 1.96638E+04 6.18456E-10-6.49632E-09
 -1       969-2.88787E+05-1.32388E+03-5.06110E+03 2.38730E+04-4.18368E-11 5.71117E-09
 -1       970-2.86841E+05-3.91687E+03-9.85824E+03 1.97476E+04-6.83031E-10 9.43237E-09
 -1       971-2.68265E+05-1.38703E+03-7.65928E+03 1.26296E+04-2.16596E-09 2.39410E-10
 -1       972-2.70123E+05-1.00038E+03-4.17128E+03 1.76037E+04-2.78760E-10-6.53836E-09
 -1       973-2.69117E+05-1.81462E+01-1.86790E+03 1.25254E+04-1.28011E-09-1.73259E-10
 -1       974-2.69242E+05-2.16841E+01-9.67873E+02 1.77172E+04-3.94925E-09 2.22053E-09
 -1       975-2.69183E+05 1.76874E+01-4.83098E+02 1.25158E+04 7.77618E-10 4.42094E-09
 -1       976-2.69190E+05 1.83987E+01-2.77542E+02 1.77290E+04-3.87445E-10-5.71640E-09
 -1       977-2.69195E+05 1.75061E+01-1.99277E+02 1.25136E+04 2.80988E-09-1.61174E-09
 -1       978-2.69193E+05 2.28889E+01-2.30290E+02 1.77322E+04 5.94764E-09 2.79886E-09
 -1       979-2.69195E+05 2.37621E+01-3.67472E+02 1.25126E+04-3.14174E-10-3.36354E-09
 -1       980-2.69220E+05 2.51523E+01-7.07954E+02 1.77328E+04-5.21979E-09-5.09544E-09
 -1       981-2.69172E+05 4.14357E+01-1.37028E+03 1.25130E+04-5.09783E-09 4.44732E-09
 -1       982-2.69408E+05-7.59227E+01-2.83186E+03 1.77275E+04-3.12150E-09 1.26217E-09
 -1       983-2.69000E+05-4.60451E+01-5.50202E+03 1.25181E+04-1.06093E-09 6.93240E-09
 -1       984-2.72054E+05-2.94899E+03-1.23211E+04 1.76565E+04-3.26781E-09 1.10595E-09
 -1       985-2.66510E+05-4.07186E+03-2.26254E+04 1.25865E+04 2.33285E-09 1.74805E-09
 -3
    1PSTEP                        25          13           1          
  100CL  113 5.45471E-01         409                     0   13           1
 -4  DISP        4    1
 -5  D1          1    2    1    0
 -5  D2          1    2    2    0
 -5  D3          1    2    3    0
 -5  ALL         1    2    0    0    1ALL
 -1         1 1.42885E-03 0.00000E+00 0.00000E+00
 -1         2 1.38059E-03 6.07182E-25 0.00000E+00
 -1         3 2.10840E-04 1.20091E-27 1.32349E-23
 -1         5 1.25160E-04-1.88809E-26-3.30872E-24
 -1         8 1.40862E-03-6.41413E-07 0.00000E+00
 -1         9 1.38797E-03-3.55251E-06 0.00000E+00
 -1        10 1.92623E-04-2.58241E-06-6.61744E-24
 -1        12 1.25423E-04 6.09042E-07 0.00000E+00
 -1        15 1.38430E-03-7.07350E-07 0.00000E+00
 -1        16 1.39115E-03-4.31045E-06 0.00000E+00
 -1        17 1.35367E-04-5.59258E-06 0.00000E+00
 -1        18 1.24982E-04 1.17955E-05 0.00000E+00
 -1        19 1.26214E-04 1.21497E-06 0.00000E+00
 -1        20 1.26353E-04 6.79463E-06 0.00000E+00
 -1        21 1.25710E-04 1.03453E-05-3.30872E-24
 -1        24 2.35178E-05-7.78263E-06 0.00000E+00
 -1        25 1.27764E-04 1.19445E-05 0.00000E+00
 -1        26 1.28414E-04 1.68249E-06 0.00000E+00
 -1        27 1.26742E-04 4.02524E-06 0.00000E+00
 -1        28 1.26353E-04 9.83783E-06 0.00000E+00
 -1        32 0.00000E+00 0.00000E+00 0.00000E+00
 -1        33 1.29603E-04 2.25483E-06 0.00000E+00
 -1        34 1.27941E-04 3.99576E-06 0.00000E+00
 -1        35 1.26395E-04 9.56512E-06 0.00000E+00
 -1        51 1.42755E-03-1.12212E-07 0.00000E+00
 -1        52 1.42512E-03-2.14994E-07 0.00000E+00
 -1        53 1.42179E-03-3.17377E-07 0.00000E+00
 -1        54 1.41778E-03-4.21130E-07 0.00000E+00
 -1        55 1.41331E-03-5.27413E-07-4.13590E-24
 -1        56 1.42654E-03-6.23847E-07 0.00000E+00
 -1        57 1.42398E-03-8.54491E-07-2.64698E-23
 -1        58 1.42129E-03-6.97658E-07 0.00000E+00
 -1        59 1.41845E-03-2.20034E-07 2.64698E-23
 -1        60 1.41554E-03 4.88750E-07 5.29396E-23
 -1        61 1.41257E-03 1.32062E-06-2.64698E-23
 -1        62 1.40960E-03 2.15519E-06 0.00000E+00
 -1        63 1.40667E-03 2.87107E-06-2.64698E-23
 -1        64 1.40383E-03 3.36011E-06 0.00000E+00
 -1        65 1.40111E-03 3.52643E-06-2.64698E-23
 -1        66 1.39854E-03 3.30923E-06 0.00000E+00
 -1        67 1.39613E-03 2.66913E-06 0.00000E+00
 -1        68 1.39387E-03 1.61167E-06 5.29396E-23
 -1        69 1.39177E-03 1.70248E-07 2.64698E-23
 -1        70 1.38979E-03-1.59039E-06 0.00000E+00
 -1        86 1.38091E-03-5.91854E-07 0.00000E+00
 -1        87 1.38187E-03-1.18404E-06 0.00000E+00
 -1        88 1.38329E-03-1.77671E-06 0.00000E+00
 -1        89 1.38495E-03-2.36939E-06-6.61744E-24
 -1        90 1.38660E-03-2.96216E-06 0.00000E+00
 -1       121 2.10330E-04-4.24536E-07 1.32349E-23
 -1       122 2.08801E-04-8.50078E-07 0.00000E+00
 -1       123 2.06257E-04-1.27761E-06 0.00000E+00
 -1       124 2.02705E-04-1.70818E-06 0.00000E+00
 -1       125 1.98156E-04-2.14260E-06 0.00000E+00
 -1       191 1.25167E-04 1.01512E-07 3.30872E-24
 -1       192 1.25189E-04 2.03022E-07 0.00000E+00
 -1       193 1.25225E-04 3.04532E-07-3.30872E-24
 -1       194 1.25277E-04 4.06041E-07-1.65436E-24
 -1       195 1.25343E-04 5.07544E-07 0.00000E+00
 -1       251 1.40797E-03 1.32440E-05 0.00000E+00
 -1       252 1.40687E-03 4.65063E-05 0.00000E+00
 -1       253 1.40526E-03 9.31923E-05 0.00000E+00
 -1       254 1.40331E-03 1.47039E-04 6.61744E-24
 -1       255 1.40141E-03 1.99856E-04 0.00000E+00
 -1       256 1.39993E-03 2.43474E-04 0.00000E+00
 -1       257 1.39896E-03 2.72202E-04 0.00000E+00
 -1       258 1.39835E-03 2.80688E-04 0.00000E+00
 -1       259 1.39771E-03 2.68918E-04-1.32349E-23
 -1       260 1.39665E-03 2.37355E-04 0.00000E+00
 -1       261 1.39509E-03 1.91687E-04 1.32349E-23
 -1       262 1.39314E-03 1.37922E-04 0.00000E+00
 -1       263 1.39120E-03 8.42522E-05 1.32349E-23
 -1       264 1.38965E-03 3.88672E-05 0.00000E+00
 -1       265 1.38861E-03 7.72187E-06-1.32349E-23
 -1       266 1.40457E-03-6.61694E-07 0.00000E+00
 -1       267 1.40052E-03-6.71551E-07 8.27181E-25
 -1       268 1.39646E-03-6.82069E-07 0.00000E+00
 -1       269 1.39241E-03-6.90630E-07 2.06795E-25
 -1       270 1.38835E-03-6.99146E-07 4.13590E-25
 -1       271 1.40616E-03 2.87460E-06 0.00000E+00
 -1       272 1.40380E-03 6.01692E-06 1.32349E-23
 -1       273 1.40160E-03 8.74795E-06 2.64698E-23
 -1       274 1.39956E-03 1.10204E-05-1.32349E-23
 -1       275 1.39771E-03 1.27971E-05 0.00000E+00
 -1       276 1.39606E-03 1.40456E-05 1.32349E-23
 -1       277 1.39462E-03 1.47409E-05 0.00000E+00
 -1       278 1.39340E-03 1.48652E-05 1.32349E-23
 -1       279 1.39239E-03 1.44081E-05 2.64698E-23
 -1       280 1.39160E-03 1.33672E-05-1.32349E-23
 -1       281 1.39102E-03 1.17476E-05-2.64698E-23
 -1       282 1.39066E-03 9.56233E-06 0.00000E+00
 -1       283 1.39050E-03 6.83180E-06 0.00000E+00
 -1       284 1.39054E-03 3.58475E-06 0.00000E+00
 -1       285 1.39075E-03-1.45614E-07-2.64698E-23
 -1       301 1.38817E-03-3.69025E-06 1.32349E-23
 -1       302 1.38784E-03-3.80925E-06 0.00000E+00
 -1       303 1.38748E-03-3.92714E-06 0.00000E+00
 -1       304 1.38757E-03-4.04543E-06 0.00000E+00
 -1       305 1.38863E-03-4.16638E-06 0.00000E+00
 -1       306 1.41599E-03-1.05482E-04 0.00000E+00
 -1       307 1.47838E-03-3.99973E-04 0.00000E+00
 -1       308 1.54562E-03-8.39804E-04-5.29396E-23
 -1       309 1.60642E-03-1.36056E-03 0.00000E+00
 -1       310 1.66818E-03-1.87098E-03 5.29396E-23
 -1       311 1.73613E-03-2.28076E-03 0.00000E+00
 -1       312 1.79355E-03-2.53129E-03 1.05879E-22
 -1       313 1.80713E-03-2.58443E-03-5.29396E-23
 -1       314 1.73789E-03-2.44391E-03-1.05879E-22
 -1       315 1.55944E-03-2.13970E-03-2.64698E-23
 -1       316 1.28226E-03-1.72559E-03 0.00000E+00
 -1       317 9.42227E-04-1.25598E-03-2.64698E-23
 -1       318 6.08001E-04-7.91320E-04 5.29396E-23
 -1       319 3.46630E-04-3.92757E-04-2.64698E-23
 -1       320 1.87813E-04-1.13735E-04-5.29396E-23
 -1       336 1.85993E-04-3.06218E-06 0.00000E+00
 -1       337 1.78157E-04-3.55077E-06 0.00000E+00
 -1       338 1.69141E-04-4.04860E-06 1.32349E-23
 -1       339 1.58979E-04-4.55537E-06-6.61744E-24
 -1       340 1.47708E-04-5.07368E-06 0.00000E+00
 -1       406 1.25518E-04 7.10526E-07 0.00000E+00
 -1       407 1.25628E-04 8.11978E-07-1.65436E-24
 -1       408 1.25753E-04 9.13367E-07 0.00000E+00
 -1       409 1.25892E-04 1.01457E-06 8.27181E-25
 -1       410 1.26046E-04 1.11541E-06 1.65436E-24
 -1       521 1.41959E-03-1.14038E-04 1.05879E-22
 -1       522 1.48157E-03-4.22196E-04-5.29396E-23
 -1       523 1.54675E-03-8.79760E-04-1.05879E-22
 -1       524 1.60445E-03-1.41700E-03-5.29396E-23
 -1       525 1.66335E-03-1.94270E-03 0.00000E+00
 -1       526 1.72974E-03-2.36685E-03 0.00000E+00
 -1       527 1.78658E-03-2.62579E-03 1.05879E-22
 -1       528 1.79886E-03-2.68053E-03 0.00000E+00
 -1       529 1.72396E-03-2.53325E-03-1.05879E-22
 -1       530 1.53466E-03-2.21820E-03 0.00000E+00
 -1       531 1.24150E-03-1.79079E-03 0.00000E+00
 -1       532 8.84053E-04-1.30859E-03 0.00000E+00
 -1       533 5.32000E-04-8.30838E-04-1.05879E-22
 -1       534 2.53485E-04-4.17312E-04 0.00000E+00
 -1       535 8.25599E-05-1.25158E-04 1.05879E-22
 -1       536 1.35032E-04 1.43728E-05 6.61744E-24
 -1       537 1.34333E-04 4.84756E-05-1.65436E-24
 -1       538 1.33315E-04 9.14172E-05 3.30872E-24
 -1       539 1.32147E-04 1.37850E-04 0.00000E+00
 -1       540 1.31098E-04 1.81451E-04 3.30872E-24
 -1       541 1.30393E-04 2.15911E-04 0.00000E+00
 -1       542 1.30027E-04 2.37418E-04 3.30872E-24
 -1       543 1.29872E-04 2.42236E-04 0.00000E+00
 -1       544 1.29669E-04 2.30950E-04-3.30872E-24
 -1       545 1.29184E-04 2.04244E-04 0.00000E+00
 -1       546 1.28380E-04 1.66840E-04 0.00000E+00
 -1       547 1.27346E-04 1.23522E-04 1.65436E-24
 -1       548 1.26332E-04 8.07096E-05 0.00000E+00
 -1       549 1.25582E-04 4.48208E-05-1.65436E-24
 -1       550 1.25153E-04 2.03684E-05 0.00000E+00
 -1       551 1.20362E-04-5.89398E-06 0.00000E+00
 -1       552 1.03055E-04-6.22909E-06-3.30872E-24
 -1       553 8.40774E-05-6.59216E-06 1.65436E-24
 -1       554 6.40687E-05-6.97609E-06 3.30872E-24
 -1       555 4.36695E-05-7.36965E-06-1.32349E-23
 -1       556 1.31010E-04 5.66354E-06 0.00000E+00
 -1       557 1.27563E-04 1.45843E-05 0.00000E+00
 -1       558 1.24938E-04 2.13670E-05 0.00000E+00
 -1       559 1.23049E-04 2.62233E-05 0.00000E+00
 -1       560 1.21813E-04 2.93650E-05 0.00000E+00
 -1       561 1.21144E-04 3.10051E-05 0.00000E+00
 -1       562 1.20960E-04 3.13572E-05 0.00000E+00
 -1       563 1.21180E-04 3.06352E-05 0.00000E+00
 -1       564 1.21721E-04 2.90536E-05 0.00000E+00
 -1       565 1.22503E-04 2.68268E-05 0.00000E+00
 -1       566 1.23446E-04 2.41696E-05 0.00000E+00
 -1       567 1.24469E-04 2.12969E-05 8.27181E-25
 -1       568 1.25492E-04 1.84237E-05 0.00000E+00
 -1       569 1.26436E-04 1.57647E-05 0.00000E+00
 -1       570 1.27219E-04 1.35347E-05 0.00000E+00
 -1       571 1.25057E-04 1.11136E-05 0.00000E+00
 -1       572 1.25134E-04 1.03865E-05-4.13590E-25
 -1       573 1.25210E-04 9.62420E-06 1.65436E-24
 -1       574 1.25287E-04 8.83687E-06 8.27181E-25
 -1       575 1.25365E-04 8.03489E-06 0.00000E+00
 -1       576 1.25442E-04 7.22863E-06 1.65436E-24
 -1       577 1.25519E-04 6.42847E-06-3.30872E-24
 -1       578 1.25596E-04 5.64484E-06 0.00000E+00
 -1       579 1.25673E-04 4.88811E-06 0.00000E+00
 -1       580 1.25751E-04 4.16868E-06 0.00000E+00
 -1       581 1.25828E-04 3.49697E-06 0.00000E+00
 -1       582 1.25905E-04 2.88334E-06 0.00000E+00
 -1       583 1.25983E-04 2.33818E-06 0.00000E+00
 -1       584 1.26060E-04 1.87175E-06 0.00000E+00
 -1       585 1.26137E-04 1.49423E-06 0.00000E+00
 -1       586 1.25392E-04 1.18221E-05 0.00000E+00
 -1       587 1.25779E-04 1.18480E-05 2.06795E-25
 -1       588 1.26175E-04 1.18736E-05 0.00000E+00
 -1       589 1.26615E-04 1.18987E-05 0.00000E+00
 -1       590 1.27134E-04 1.19230E-05 0.00000E+00
 -1       591 1.25198E-04 1.11672E-05 0.00000E+00
 -1       592 1.25420E-04 1.05156E-05 0.00000E+00
 -1       593 1.25648E-04 9.84621E-06 0.00000E+00
 -1       594 1.25881E-04 9.16383E-06-2.06795E-25
 -1       595 1.26117E-04 8.47320E-06 0.00000E+00
 -1       596 1.26354E-04 7.77903E-06 2.06795E-25
 -1       597 1.26591E-04 7.08605E-06 0.00000E+00
 -1       598 1.26825E-04 6.39899E-06 2.06795E-25
 -1       599 1.27055E-04 5.72256E-06 4.13590E-25
 -1       600 1.27280E-04 5.06147E-06 2.06795E-25
 -1       601 1.27497E-04 4.42044E-06-4.13590E-25
 -1       602 1.27705E-04 3.80419E-06-2.06795E-25
 -1       603 1.27902E-04 3.21745E-06 3.10193E-25
 -1       604 1.28087E-04 2.66499E-06 0.00000E+00
 -1       605 1.28257E-04 2.15150E-06 0.00000E+00
 -1       606 1.26227E-04 1.10635E-06 0.00000E+00
 -1       607 1.26236E-04 1.08558E-06 0.00000E+00
 -1       608 1.26245E-04 1.14751E-06 0.00000E+00
 -1       609 1.26254E-04 1.28633E-06 1.65436E-24
 -1       610 1.26262E-04 1.49617E-06 0.00000E+00
 -1       611 1.26271E-04 1.77112E-06 0.00000E+00
 -1       612 1.26279E-04 2.10523E-06 0.00000E+00
 -1       613 1.26287E-04 2.49258E-06 0.00000E+00
 -1       614 1.26296E-04 2.92721E-06 0.00000E+00
 -1       615 1.26304E-04 3.40319E-06 0.00000E+00
 -1       616 1.26312E-04 3.91457E-06 0.00000E+00
 -1       617 1.26321E-04 4.45542E-06 0.00000E+00
 -1       618 1.26329E-04 5.01979E-06 0.00000E+00
 -1       619 1.26337E-04 5.60174E-06 0.00000E+00
 -1       620 1.26345E-04 6.19534E-06 0.00000E+00
 -1       621 1.26448E-04 1.29310E-06 0.00000E+00
 -1       622 1.26755E-04 1.37148E-06 0.00000E+00
 -1       623 1.27119E-04 1.44981E-06-1.65436E-24
 -1       624 1.27527E-04 1.52798E-06-8.27181E-25
 -1       625 1.27964E-04 1.60601E-06 1.65436E-24
 -1       626 1.26343E-04 1.13389E-06 0.00000E+00
 -1       627 1.26446E-04 1.12279E-06 3.30872E-24
 -1       628 1.26526E-04 1.17434E-06 0.00000E+00
 -1       629 1.26585E-04 1.28085E-06 1.65436E-24
 -1       630 1.26626E-04 1.43460E-06 0.00000E+00
 -1       631 1.26653E-04 1.62782E-06 1.65436E-24
 -1       632 1.26668E-04 1.85277E-06 0.00000E+00
 -1       633 1.26674E-04 2.10169E-06 0.00000E+00
 -1       634 1.26674E-04 2.36682E-06 3.30872E-24
 -1       635 1.26670E-04 2.64042E-06-1.65436E-24
 -1       636 1.26667E-04 2.91473E-06 0.00000E+00
 -1       637 1.26666E-04 3.18199E-06-1.65436E-24
 -1       638 1.26670E-04 3.43444E-06 1.65436E-24
 -1       639 1.26683E-04 3.66433E-06-8.27181E-25
 -1       640 1.26706E-04 3.86388E-06 0.00000E+00
 -1       656 1.25962E-04 6.34415E-06-6.61744E-24
 -1       657 1.25938E-04 5.87560E-06 0.00000E+00
 -1       658 1.26150E-04 5.40839E-06-1.32349E-23
 -1       659 1.26460E-04 4.94154E-06 6.61744E-24
 -1       660 1.26710E-04 4.47324E-06 0.00000E+00
 -1       661 1.26209E-04 7.36150E-06 0.00000E+00
 -1       662 1.26092E-04 7.86222E-06 0.00000E+00
 -1       663 1.26000E-04 8.29971E-06-1.65436E-24
 -1       664 1.25930E-04 8.67809E-06 0.00000E+00
 -1       665 1.25881E-04 9.00089E-06 0.00000E+00
 -1       666 1.25852E-04 9.27176E-06 8.27181E-25
 -1       667 1.25840E-04 9.49414E-06 0.00000E+00
 -1       668 1.25846E-04 9.67142E-06-8.27181E-25
 -1       669 1.25867E-04 9.80686E-06 0.00000E+00
 -1       670 1.25903E-04 9.90364E-06 0.00000E+00
 -1       671 1.25953E-04 9.96485E-06 0.00000E+00
 -1       672 1.26014E-04 9.99345E-06-8.27181E-25
 -1       673 1.26086E-04 9.99243E-06 0.00000E+00
 -1       674 1.26168E-04 9.96439E-06 8.27181E-25
 -1       675 1.26259E-04 9.91251E-06-4.13590E-25
 -1       676 1.25818E-04 1.02602E-05 0.00000E+00
 -1       677 1.25925E-04 1.01752E-05 1.65436E-24
 -1       678 1.26033E-04 1.00902E-05 0.00000E+00
 -1       679 1.26140E-04 1.00054E-05 0.00000E+00
 -1       680 1.26247E-04 9.92071E-06 0.00000E+00
 -1       771 1.58144E-05 9.03059E-06 0.00000E+00
 -1       772 9.28484E-06 2.28079E-05 0.00000E+00
 -1       773 3.87438E-06 3.37069E-05 5.29396E-23
 -1       774-4.92924E-07 4.19005E-05 0.00000E+00
 -1       775-3.89168E-06 4.75664E-05 5.29396E-23
 -1       776-6.39943E-06 5.08911E-05 0.00000E+00
 -1       777-8.09402E-06 5.20658E-05 0.00000E+00
 -1       778-9.05486E-06 5.12887E-05 2.64698E-23
 -1       779-9.36140E-06 4.87624E-05 0.00000E+00
 -1       780-9.09442E-06 4.46948E-05 0.00000E+00
 -1       781-8.33450E-06 3.92974E-05 5.29396E-23
 -1       782-7.16324E-06 3.27861E-05 0.00000E+00
 -1       783-5.66203E-06 2.53789E-05 5.29396E-23
 -1       784-3.91306E-06 1.72969E-05-1.32349E-23
 -1       785-1.99813E-06 8.76267E-06 2.64698E-23
 -1       786 1.27802E-04 1.10987E-05-1.03398E-25
 -1       787 1.27842E-04 1.02979E-05 0.00000E+00
 -1       788 1.27882E-04 9.53472E-06-8.27181E-25
 -1       789 1.27922E-04 8.80224E-06 0.00000E+00
 -1       790 1.27963E-04 8.09618E-06 0.00000E+00
 -1       791 1.28004E-04 7.41235E-06 0.00000E+00
 -1       792 1.28045E-04 6.74864E-06-1.65436E-24
 -1       793 1.28086E-04 6.10298E-06-8.27181E-25
 -1       794 1.28127E-04 5.47496E-06 0.00000E+00
 -1       795 1.28168E-04 4.86425E-06 0.00000E+00
 -1       796 1.28209E-04 4.27210E-06 1.65436E-24
 -1       797 1.28250E-04 3.69980E-06-8.27181E-25
 -1       798 1.28291E-04 3.15051E-06 0.00000E+00
 -1       799 1.28332E-04 2.62743E-06-8.27181E-25
 -1       800 1.28373E-04 2.13619E-06-1.65436E-24
 -1       801 1.08471E-04 1.03895E-05-2.64698E-23
 -1       802 4.93287E-05 7.29339E-06 0.00000E+00
 -1       803-7.39561E-06 4.31485E-06 2.64698E-23
 -1       804-1.95563E-05 2.79787E-06 0.00000E+00
 -1       805-9.24669E-06 1.39432E-06 0.00000E+00
 -1       806 1.27992E-04 1.10479E-05 1.65436E-24
 -1       807 1.28206E-04 1.01782E-05-8.27181E-25
 -1       808 1.28409E-04 9.33881E-06-1.65436E-24
 -1       809 1.28598E-04 8.53222E-06-8.27181E-25
 -1       810 1.28775E-04 7.76079E-06 1.65436E-24
 -1       811 1.28937E-04 7.02685E-06 1.65436E-24
 -1       812 1.29085E-04 6.33270E-06-1.65436E-24
 -1       813 1.29217E-04 5.68067E-06 8.27181E-25
 -1       814 1.29332E-04 5.07303E-06 0.00000E+00
 -1       815 1.29429E-04 4.51209E-06-1.65436E-24
 -1       816 1.29509E-04 4.00014E-06 1.65436E-24
 -1       817 1.29569E-04 3.53945E-06 0.00000E+00
 -1       818 1.29609E-04 3.13231E-06 0.00000E+00
 -1       819 1.29628E-04 2.78100E-06 8.27181E-25
 -1       820 1.29626E-04 2.48776E-06 1.65436E-24
 -1       821 1.28315E-04 1.20851E-06 0.00000E+00
 -1       822 1.28210E-04 6.57821E-07 8.27181E-25
 -1       823 1.28106E-04 1.06502E-07 0.00000E+00
 -1       824 1.28000E-04-3.69350E-07 0.00000E+00
 -1       825 1.27895E-04-7.10027E-07 3.30872E-24
 -1       826 1.27789E-04-8.56445E-07-1.65436E-24
 -1       827 1.27684E-04-7.91567E-07 0.00000E+00
 -1       828 1.27578E-04-4.99359E-07 0.00000E+00
 -1       829 1.27472E-04-1.29898E-08 0.00000E+00
 -1       830 1.27367E-04 6.33454E-07 1.65436E-24
 -1       831 1.27261E-04 1.37126E-06 3.30872E-24
 -1       832 1.27155E-04 2.13124E-06-1.65436E-24
 -1       833 1.27049E-04 2.83944E-06 3.30872E-24
 -1       834 1.26945E-04 3.42212E-06-8.27181E-25
 -1       835 1.26841E-04 3.83266E-06-8.27181E-25
 -1       836 1.28773E-04 1.77769E-06-1.65436E-24
 -1       837 1.29030E-04 1.87509E-06 0.00000E+00
 -1       838 1.29214E-04 1.97235E-06 0.00000E+00
 -1       839 1.29352E-04 2.06899E-06 0.00000E+00
 -1       840 1.29472E-04 2.16548E-06 4.13590E-25
 -1       856 1.26721E-04 4.16834E-06 4.13590E-25
 -1       857 1.26697E-04 4.42315E-06 0.00000E+00
 -1       858 1.26674E-04 4.77216E-06 0.00000E+00
 -1       859 1.26649E-04 5.19782E-06 0.00000E+00
 -1       860 1.26625E-04 5.68245E-06 0.00000E+00
 -1       861 1.26600E-04 6.20837E-06 0.00000E+00
 -1       862 1.26576E-04 6.75784E-06 0.00000E+00
 -1       863 1.26551E-04 7.31310E-06 4.13590E-25
 -1       864 1.26526E-04 7.85637E-06 0.00000E+00
 -1       865 1.26502E-04 8.36990E-06 0.00000E+00
 -1       866 1.26477E-04 8.83598E-06 0.00000E+00
 -1       867 1.26452E-04 9.23689E-06 4.13590E-25
 -1       868 1.26428E-04 9.55505E-06 8.27181E-25
 -1       869 1.26403E-04 9.77287E-06 0.00000E+00
 -1       870 1.26379E-04 9.87291E-06-8.27181E-25
 -1       871 1.26824E-04 4.02364E-06 8.27181E-25
 -1       872 1.27022E-04 4.01957E-06 0.00000E+00
 -1       873 1.27284E-04 4.01503E-06 0.00000E+00
 -1       874 1.27559E-04 4.00991E-06 1.55096E-25
 -1       875 1.27795E-04 4.00428E-06 2.06795E-25
 -1       876 1.26791E-04 4.17918E-06 3.30872E-24
 -1       877 1.26821E-04 4.38753E-06 1.65436E-24
 -1       878 1.26834E-04 4.64373E-06 3.30872E-24
 -1       879 1.26831E-04 4.94172E-06-1.65436E-24
 -1       880 1.26814E-04 5.27538E-06 0.00000E+00
 -1       881 1.26787E-04 5.63865E-06-1.65436E-24
 -1       882 1.26751E-04 6.02546E-06 3.30872E-24
 -1       883 1.26708E-04 6.42975E-06 0.00000E+00
 -1       884 1.26662E-04 6.84549E-06-3.30872E-24
 -1       885 1.26613E-04 7.26661E-06 0.00000E+00
 -1       886 1.26564E-04 7.68707E-06-3.30872E-24
 -1       887 1.26517E-04 8.10080E-06 0.00000E+00
 -1       888 1.26476E-04 8.50175E-06-3.30872E-24
 -1       889 1.26440E-04 8.88373E-06 0.00000E+00
 -1       890 1.26414E-04 9.24071E-06-1.65436E-24
 -1       891 1.26480E-04 9.79214E-06 0.00000E+00
 -1       892 1.26587E-04 9.74631E-06-4.13590E-25
 -1       893 1.26654E-04 9.70051E-06 8.27181E-25
 -1       894 1.26659E-04 9.65485E-06 0.00000E+00
 -1       895 1.26579E-04 9.60930E-06-2.06795E-25
 -1       956 1.29501E-04 2.14795E-06-1.65436E-24
 -1       957 1.29397E-04 2.10611E-06-8.27181E-25
 -1       958 1.29293E-04 2.12190E-06 1.65436E-24
 -1       959 1.29189E-04 2.18750E-06-1.65436E-24
 -1       960 1.29085E-04 2.29508E-06 3.30872E-24
 -1       961 1.28981E-04 2.43677E-06 1.65436E-24
 -1       962 1.28876E-04 2.60468E-06-3.30872E-24
 -1       963 1.28772E-04 2.79094E-06-1.65436E-24
 -1       964 1.28668E-04 2.98765E-06-3.30872E-24
 -1       965 1.28564E-04 3.18694E-06 0.00000E+00
 -1       966 1.28459E-04 3.38091E-06 3.30872E-24
 -1       967 1.28355E-04 3.56169E-06 0.00000E+00
 -1       968 1.28251E-04 3.72138E-06-3.30872E-24
 -1       969 1.28147E-04 3.85213E-06 0.00000E+00
 -1       970 1.28043E-04 3.94611E-06 0.00000E+00
 -1       971 1.27846E-04 4.05784E-06 3.30872E-24
 -1       972 1.27749E-04 4.20144E-06-8.27181E-25
 -1       973 1.27652E-04 4.41757E-06 0.00000E+00
 -1       974 1.27555E-04 4.69688E-06-1.65436E-24
 -1       975 1.27457E-04 5.03002E-06 3.30872E-24
 -1       976 1.27360E-04 5.40763E-06 0.00000E+00
 -1       977 1.27263E-04 5.82034E-06 0.00000E+00
 -1       978 1.27166E-04 6.25876E-06-1.65436E-24
 -1       979 1.27068E-04 6.71349E-06 0.00000E+00
 -1       980 1.26971E-04 7.17515E-06 0.00000E+00
 -1       981 1.26874E-04 7.63435E-06 3.30872E-24
 -1       982 1.26777E-04 8.08170E-06-1.65436E-24
 -1       983 1.26680E-04 8.50780E-06 0.00000E+00
 -1       984 1.26583E-04 8.90328E-06 0.00000E+00
 -1       985 1.26487E-04 9.25877E-06 0.00000E+00
 -3
    1PSTEP                        26          13           1          
  100CL  113 5.45471E-01         409                     0   13           1
 -4  STRESS      6    1
 -5  SXX         1    4    1    1
 -5  SYY         1    4    2    2
 -5  SZZ         1    4    3    3
 -5  SXY         1    4    1    2
 -5  SYZ         1    4    2    3
 -5  SZX         1    4    3    1
 -1         1-3.00151E+06-1.18652E+06-6.51529E+05-1.32280E+06 5.96629E-10 6.92380E-08
 -1         2-2.81396E+02-1.69102E+06-8.79986E+02 4.64789E+03 2.41087E-10 8.08774E-09
 -1         3-4.70856E+02-1.21020E+06 2.70149E+02-9.75805E+02-3.66125E-10-1.61162E-08
 -1         5-2.28086E+00 2.90454E+05 7.35509E+00-1.02503E-01-8.06865E-11 3.71438E-09
 -1         8-9.16816E+05-3.08666E+05-9.88028E+04-3.78319E+05-2.40107E-10-2.31375E-08
 -1         9 5.05831E+06-3.40033E+05 9.51933E+05-6.28337E+05 2.74042E-08-1.69966E-08
 -1        10-1.32410E+03-1.26090E+06-2.89955E+03-6.60499E+03-7.73252E-09-2.98309E-08
 -1        12 7.36639E-01 2.90469E+05 2.38178E+02-7.97266E-01-1.32957E-10 3.15258E-08
 -1        15 1.53961E+03 8.46104E+02 4.97677E+03 2.69913E+00-1.89971E-10-4.99750E-08
 -1        16 1.06729E+07-3.37527E+05 1.53386E+06-1.06411E+06 1.74817E-08 4.96705E-08
 -1        17 4.18036E+06 2.79693E+06 1.18631E+06 2.73516E+06-1.35915E-09 8.63220E-09
 -1        18 3.83831E+03-3.27086E+03-2.22535E+04-8.24669E+04 8.51367E-09 1.65392E-09
 -1        19 9.37914E+04 1.07441E+05-7.90229E+02 1.82882E+04 9.24047E-11-3.82352E-10
 -1        20-5.16261E+04-4.43636E+05-9.87276E+04 2.61197E+04 1.96011E-09 1.69166E-10
 -1        21-3.91675E+01-2.43554E+05-7.73644E+02 1.79469E+01 2.32368E-09-7.71578E-09
 -1        24 6.15599E+06 5.23644E+06 1.80825E+06 4.97865E+06-1.09925E-07-4.11916E-08
 -1        25-9.76189E+04-5.49961E+05-1.09979E+05-1.97648E+05-4.81441E-10-7.68123E-09
 -1        26-3.78728E+04 6.95195E+04-1.84520E+04-3.01118E+03 1.23291E-09 9.08398E-09
 -1        27-6.35093E+04-2.41059E+05-8.93751E+04 5.43596E+04 4.70269E-09 7.79952E-09
 -1        28 1.86480E+04-6.87264E+04 1.38421E+04 1.92604E+04 2.00771E-10 1.34161E-09
 -1        32-1.35796E+06-2.27312E+06-9.69973E+04-3.21449E+05-2.97096E-08-7.01738E-09
 -1        33-1.41432E+05 6.97938E+04 2.48904E+04-3.20446E+04-3.18209E-10 2.62177E-09
 -1        34-1.77559E+05-1.84097E+04 4.88410E+02 5.70115E+04 1.32540E-10-1.69560E-09
 -1        35-1.90385E+04-2.72958E+04-1.07799E+03 4.24228E+04 1.50792E-09-2.31375E-09
 -1        51 3.17381E+04-2.63507E+05 7.14247E+04-7.60973E+05 0.00000E+00 1.05909E-07
 -1        52 1.30928E+04-2.54142E+05 4.07813E+04-8.87336E+05 4.94765E-10-1.26311E-07
 -1        53 5.50918E+03-2.67567E+05 2.65450E+04-7.58252E+05 7.89441E-10-9.36707E-08
 -1        54 1.44826E+04-2.64968E+05 3.24956E+04-8.90182E+05 9.45874E-11-7.15663E-08
 -1        55 2.98399E+04-2.75937E+05 5.20232E+04-7.57836E+05 8.22183E-10 1.44853E-07
 -1        56-5.70472E+06-6.38828E+05-4.81083E+05-2.21460E+06-2.99769E-09 4.27826E-09
 -1        57-5.94872E+06-1.02510E+06-3.24587E+05-2.13822E+06 1.61162E-09-8.22438E-08
 -1        58-5.79446E+06-7.98693E+05-1.13092E+05-2.19221E+06 1.59725E-08-5.28235E-09
 -1        59-5.84640E+06-8.35889E+05-6.75156E+04-2.16300E+06 6.48879E-09 1.09394E-08
 -1        60-5.80561E+06-8.22920E+05-2.63674E+04-2.19143E+06-7.27368E-09 6.35473E-08
 -1        61-5.83302E+06-8.07946E+05-1.49893E+04-2.16436E+06-6.42785E-10 4.58031E-08
 -1        62-5.80755E+06-8.25944E+05-7.17964E+03-2.19102E+06-1.85211E-08-2.04736E-08
 -1        63-5.82852E+06-8.07212E+05-5.91484E+03-2.16751E+06 7.26908E-09 1.39153E-07
 -1        64-5.81002E+06-8.23598E+05-6.71346E+03-2.18828E+06-7.28505E-09 3.09378E-08
 -1        65-5.82374E+06-8.16358E+05-1.35417E+04-2.17441E+06-1.73700E-08-1.25919E-07
 -1        66-5.81232E+06-8.16900E+05-2.37062E+04-2.18407E+06 1.32759E-08 4.45007E-08
 -1        67-5.82952E+06-8.47598E+05-6.04907E+04-2.18033E+06-1.59725E-08 1.06035E-07
 -1        68-5.80452E+06-7.92971E+05-1.01334E+05-2.18221E+06 2.88674E-09-1.87320E-08
 -1        69-5.91937E+06-1.01906E+06-2.90771E+05-2.16051E+06-5.35147E-09-1.18780E-07
 -1        70-5.72388E+06-6.49992E+05-4.31032E+05-2.20252E+06 9.40781E-09 5.37257E-08
 -1        86 1.31187E+02-1.69151E+06-1.07936E+03-2.32398E+03-1.03697E-09-2.75828E-08
 -1        87-9.66015E+02-1.69154E+06-2.10831E+03 7.89334E+03-1.82857E-09 3.44552E-08
 -1        88 8.29141E+02-1.69100E+06-3.31477E+03-5.56950E+03-1.74805E-09 1.19672E-07
 -1        89-6.20186E+03-1.69416E+06-8.90146E+03 1.10262E+04-2.43608E-09-8.32495E-08
 -1        90 5.36448E+03-1.68892E+06-1.26185E+04-5.45696E+03-1.33969E-09 3.36432E-08
 -1       121-6.64869E+02-1.21186E+06-1.21756E+01 4.86126E+02 8.11070E-10-6.37738E-09
 -1       122-3.63280E+02-1.21017E+06 5.57805E+02-1.95024E+03-3.04989E-09 8.46921E-09
 -1       123-7.15152E+02-1.21194E+06 6.12204E+02 1.45352E+03 2.39231E-09-2.15368E-09
 -1       124 8.02457E+02-1.20959E+06 2.27846E+03-4.15461E+03-5.88579E-09-1.91540E-09
 -1       125-1.41040E+03-1.21259E+06 3.11539E+03 2.68291E+03 3.66435E-09-7.49787E-09
 -1       191-2.64008E+00 2.90479E+05 8.94510E+00 5.14468E-02-9.32796E-11-1.15251E-08
 -1       192-2.95518E+00 2.90454E+05 1.55651E+01-4.44239E-01-1.27216E-10-1.38405E-08
 -1       193-4.43359E+00 2.90479E+05 2.90958E+01 3.94280E-01-2.05109E-10 1.16370E-09
 -1       194-5.12548E+00 2.90456E+05 5.88542E+01-1.05428E+00-1.04791E-10 1.66076E-08
 -1       195-7.88038E+00 2.90477E+05 1.15270E+02 6.64738E-01-2.38810E-10 2.75163E-08
 -1       251-1.75296E+06 5.13352E+03-1.17090E+05-8.38947E+04-5.90626E-09-2.48474E-08
 -1       252-1.42067E+06-4.17294E+03-1.12988E+04 2.57656E+05-4.03816E-10 4.52346E-08
 -1       253-1.59863E+06-2.47029E+03-2.30030E+04-1.72500E+05-5.33146E-09-1.33660E-07
 -1       254-1.57267E+06 2.00770E+04-3.23283E+03 3.38968E+05 8.40512E-09-2.13972E-07
 -1       255-1.61677E+06-6.21168E+03-1.16377E+04-1.66109E+05 5.37966E-09 6.96787E-09
 -1       256-1.37152E+06 1.82092E+04 4.23280E+04 2.34195E+05 2.97546E-08 1.79148E-07
 -1       257-1.78023E+06-1.64272E+04-4.32826E+04-6.67088E+04 1.51540E-08 5.23137E-08
 -1       258-1.20031E+06 1.44735E+04 7.58884E+04-9.51682E+03 2.23154E-08-7.46322E-08
 -1       259-1.77123E+06-1.60487E+04-4.04378E+04 7.68876E+04-1.08867E-08-1.50377E-07
 -1       260-1.39182E+06 1.97006E+04 4.11094E+04-2.47002E+05 7.26459E-09-7.19189E-08
 -1       261-1.60749E+06-6.44499E+03-4.90297E+03 1.70249E+05 2.80447E-08 3.30175E-08
 -1       262-1.57107E+06 2.58015E+04 8.17041E+03-3.38778E+05-2.48342E-08-8.98864E-08
 -1       263-1.60958E+06-7.87002E+03-6.33463E+03 1.69639E+05 8.64475E-09 1.72689E-07
 -1       264-1.38367E+06 3.10417E+04 4.31388E+04-2.44899E+05 7.63835E-08 1.50075E-07
 -1       265-1.77695E+06-2.61950E+04-4.73741E+04 7.53818E+04 2.32576E-08 4.87291E-08
 -1       266-2.78717E+04-1.30322E+04 6.53979E+04-5.77552E+01 2.91038E-11-7.11218E-08
 -1       267 3.23113E+04 1.51903E+04 4.62208E+04 6.66351E+01-2.36469E-10-1.61955E-07
 -1       268-4.33288E+03-2.15131E+03 1.71802E+04-8.49064E+00-2.81943E-11-3.81662E-08
 -1       269 5.11587E+03 2.57472E+03 1.11667E+04 9.89015E+00-1.49612E-10-8.10816E-09
 -1       270-7.67896E+02-4.23042E+02 5.39035E+03-1.34217E+00 9.45874E-11 5.09890E-08
 -1       271-2.54792E+06-3.13195E+05-1.90928E+05-9.84514E+05-1.65128E-08-3.49319E-08
 -1       272-2.64607E+06-4.23948E+05-1.22912E+05-9.50283E+05-6.17251E-09-6.56437E-08
 -1       273-2.58330E+06-3.61526E+05-4.50789E+04-9.76605E+05-1.07298E-08-2.41071E-08
 -1       274-2.60406E+06-3.65121E+05-2.52769E+04-9.62450E+05-3.24439E-09 2.08627E-07
 -1       275-2.58879E+06-3.66033E+05-1.05128E+04-9.74495E+05 1.62399E-08 1.49977E-07
 -1       276-2.59639E+06-3.60787E+05-5.54664E+03-9.66368E+05-5.91172E-09-2.73099E-08
 -1       277-2.59074E+06-3.65313E+05-2.75944E+03-9.72828E+05 3.09228E-09-8.93624E-09
 -1       278-2.59289E+06-3.62928E+05-1.87677E+03-9.69700E+05 1.71021E-08 5.80035E-08
 -1       279-2.59223E+06-3.63876E+05-2.03392E+03-9.71140E+05-1.88702E-08-3.55863E-08
 -1       280-2.59026E+06-3.66248E+05-3.50291E+03-9.73020E+05 9.73614E-10-1.53776E-08
 -1       281-2.59338E+06-3.62019E+05-6.45534E+03-9.69504E+05 7.89805E-09 9.96429E-08
 -1       282-2.59042E+06-3.73305E+05-1.52814E+04-9.75758E+05 7.07041E-09 1.95084E-07
 -1       283-2.59221E+06-3.57151E+05-2.72614E+04-9.68320E+05-9.34779E-09-2.03336E-08
 -1       284-2.61169E+06-4.12928E+05-7.41948E+04-9.73163E+05-3.59069E-09-4.09182E-08
 -1       285-2.57282E+06-3.26019E+05-1.15328E+05-9.70850E+05-5.21686E-09-9.33360E-08
 -1       301 1.61757E+04-3.36137E+05 1.25664E+05-6.03074E+05 3.27418E-10-2.33304E-08
 -1       302 1.81460E+04-3.05014E+05 8.14942E+04-8.83232E+05-1.20053E-10-4.92852E-08
 -1       303 6.44386E+01-3.23698E+05 5.96320E+04-6.02045E+05-1.05501E-10 1.07037E-07
 -1       304 1.60267E+04-2.98312E+05 8.39615E+04-8.82102E+05 3.71074E-10 1.96858E-07
 -1       305 1.14251E+04-3.29360E+05 1.30230E+05-6.04290E+05-3.20142E-10 2.95549E-08
 -1       306-1.93244E+07-3.31253E+06-4.70161E+06-1.83539E+06-9.83127E-08-9.51695E-09
 -1       307 1.46998E+07 1.09264E+05 3.26429E+06-7.30192E+06-4.70376E-07-2.02854E-07
 -1       308-7.19190E+06 1.14031E+04-4.75781E+05 2.74980E+06 8.57108E-08-6.09343E-08
 -1       309-1.29773E+06 1.43724E+06 1.04786E+06-1.25459E+07 1.11510E-07 1.05079E-07
 -1       310-8.56689E+06-1.40785E+05-7.61768E+05 2.58150E+06-2.06637E-09 4.23024E-08
 -1       311 1.74171E+07-7.44665E+05 3.77266E+06-5.50541E+06-4.52419E-08-5.65051E-08
 -1       312-1.96095E+07-3.17210E+06-4.24700E+06-3.03069E+06 5.29690E-09-6.08416E-08
 -1       313 2.47999E+07 5.79023E+06 6.06954E+06 1.04404E+07-1.21421E-07 1.68235E-07
 -1       314-1.33058E+07-8.49494E+06-4.00104E+06-8.12529E+06 3.08151E-07 3.41970E-08
 -1       315 3.78956E+05 1.37069E+07 3.34699E+06 7.93350E+06 1.77035E-07-5.61966E-07
 -1       316-1.01379E+06-6.24438E+06-4.09057E+05-3.78118E+06 4.73679E-07-4.77972E-07
 -1       317-1.25444E+07 1.26492E+07 1.03173E+06-9.99945E+05 3.67334E-07-6.46167E-07
 -1       318-1.81113E+06-6.78388E+06-8.46904E+05-4.18623E+06-8.25909E-07-8.76898E-08
 -1       319 3.00897E+06 1.43423E+07 3.63241E+06 8.87892E+06-5.16207E-07 5.64614E-08
 -1       320-1.47549E+07-8.85119E+06-5.04508E+06-7.99001E+06-2.31492E-07-4.80213E-08
 -1       336 4.30610E+02-1.31183E+06-9.85131E+03 3.89142E+03-1.49339E-08 5.93354E-09
 -1       337-3.84867E+03-1.31339E+06-1.32746E+04-9.52638E+03-2.82575E-08-3.49792E-09
 -1       338 9.48293E+02-1.31143E+06-2.01574E+04 5.58278E+03-2.00644E-08 7.10133E-09
 -1       339-2.19579E+04-1.32495E+06-4.62953E+04-1.28614E+04-3.60878E-08 6.09543E-09
 -1       340 1.48910E+04-1.30086E+06-7.24453E+04 7.16949E+03-2.48401E-08 2.35814E-08
 -1       406 1.90776E+01 2.90466E+05 4.70374E+02 1.39472E-01-2.69949E-10 3.88945E-09
 -1       407 1.64664E+02 2.90551E+05 9.99364E+02 4.01794E+00-1.19712E-10-1.48532E-08
 -1       408 5.15270E+02 2.90394E+05 1.99611E+03-4.25745E+00-4.45652E-10 6.37556E-10
 -1       409 2.15874E+03 2.91189E+05 4.49344E+03 4.21515E+01-1.59389E-10 3.79475E-09
 -1       410 6.20110E+03 2.89827E+05 9.17328E+03-3.97098E+01-4.73960E-10 7.74207E-10
 -1       521-2.11797E+07-4.48252E+06-5.75059E+06-1.73498E+06-8.26549E-08 5.62286E-08
 -1       522 1.35772E+07-1.50942E+05 3.05172E+06-1.10459E+07-4.07425E-07-1.33179E-07
 -1       523-9.38566E+06-1.52374E+05-4.88002E+05 3.14768E+06 9.72650E-08-2.51981E-07
 -1       524-5.42206E+06 2.84888E+06 1.08330E+06-1.68915E+07 6.70087E-07-4.18540E-07
 -1       525-1.07780E+07-4.41673E+05-8.02831E+05 2.92533E+06 4.87140E-07-3.33937E-07
 -1       526 1.72568E+07-1.26313E+06 3.78970E+06-8.79420E+06-1.25117E-07-1.16313E-07
 -1       527-2.15780E+07-4.57974E+06-5.02671E+06-3.01175E+06-5.23869E-08 7.67177E-08
 -1       528 2.56836E+07 5.78382E+06 6.03680E+06 1.13137E+07 3.19909E-07 1.79964E-07
 -1       529-1.48049E+07-1.02615E+07-4.71146E+06-8.47843E+06 2.12633E-07-1.16706E-07
 -1       530-3.77701E+06 1.69175E+07 3.38142E+06 7.73125E+06-3.17392E-07 4.72268E-07
 -1       531-1.86845E+06-7.89279E+06-3.89929E+05-4.79962E+06-6.75383E-07 1.68104E-07
 -1       532-1.83045E+07 1.56817E+07 1.08138E+06-3.82738E+06 2.43810E-07-4.69154E-07
 -1       533-2.60199E+06-8.34932E+06-8.75797E+05-5.09480E+06-6.78119E-08-7.38713E-07
 -1       534-1.07307E+06 1.73848E+07 3.48861E+06 8.84805E+06-7.40838E-08 5.25586E-07
 -1       535-1.62178E+07-1.06128E+07-6.04148E+06-8.31108E+06 5.65778E-08 3.16795E-07
 -1       536-4.77287E+05-1.75727E+04-7.11989E+03-2.54301E+04-2.31216E-09 2.92266E-08
 -1       537-2.75318E+05 1.73002E+04 3.08722E+04 6.29053E+04-6.07133E-08 5.61922E-08
 -1       538-3.79144E+05 7.42914E+02 3.33031E+03-3.88555E+04 1.35753E-08 5.56711E-08
 -1       539-3.40442E+05 1.05068E+03 8.94875E+03 7.24277E+04 9.23518E-08 5.72296E-08
 -1       540-4.13733E+05-4.82054E+01-6.43675E+03-3.50384E+04-7.64999E-09 5.88889E-08
 -1       541-2.05693E+05 5.40531E+03 3.45004E+04 4.61683E+04-4.16562E-08 5.24738E-08
 -1       542-5.10306E+05-6.55148E+03-2.70871E+04-1.24465E+04 1.09862E-08 1.42917E-08
 -1       543-1.27210E+05 8.66048E+03 4.97865E+04-8.27278E+03-2.14322E-09-3.53816E-09
 -1       544-4.90138E+05-5.00094E+03-2.36491E+04 1.92788E+04-2.90936E-08-1.70822E-08
 -1       545-2.51294E+05 2.28643E+03 2.31620E+04-5.75804E+04-2.33866E-08-4.91391E-08
 -1       546-3.89504E+05 2.50320E+03-5.15949E+03 3.68113E+04 3.11856E-08-6.20579E-08
 -1       547-3.48802E+05-4.03328E+03-1.57561E+03-7.43089E+04-6.66920E-08-6.81648E-08
 -1       548-3.95190E+05 3.41437E+03-1.50284E+04 3.61258E+04-5.80781E-08-5.17762E-08
 -1       549-2.43324E+05-8.93817E+03-7.83199E+01-5.44457E+04-3.54958E-08-2.80011E-08
 -1       550-4.92059E+05 5.00498E+03-6.93642E+04 1.68190E+04 4.42606E-09-1.92485E-08
 -1       551 1.49445E+04-5.41764E+05 1.18919E+03-8.37366E+05-6.07033E-08-1.15688E-08
 -1       552 3.82228E+04-5.58579E+05 1.71594E+04-1.19235E+06-4.56785E-08 1.98052E-08
 -1       553 2.93532E+04-5.61880E+05 3.61389E+04-8.33486E+05-7.38291E-08 1.24273E-08
 -1       554 6.72552E+04-5.58244E+05 8.40415E+04-1.19447E+06-4.83924E-08 1.47338E-08
 -1       555 5.80464E+04-5.83584E+05 1.53173E+05-8.33307E+05-7.94753E-08-1.03601E-08
 -1       556 1.35953E+05-2.47267E+05 3.29147E+04-2.87769E+05-7.98900E-09-1.12195E-08
 -1       557 2.23415E+05-3.20970E+05 1.82188E+04-3.69033E+05 5.16593E-09 1.15106E-08
 -1       558 1.28795E+05-2.47312E+05 5.96175E+03-2.86168E+05-6.34464E-09-7.38510E-09
 -1       559 2.10936E+05-3.24481E+05 3.47063E+03-3.78397E+05 1.16488E-08 3.16868E-09
 -1       560 1.22447E+05-2.43264E+05 6.35250E+02-2.90519E+05 7.11589E-09 2.42180E-08
 -1       561 2.02848E+05-3.21422E+05 6.57389E+02-3.83805E+05 1.28057E-09-2.60661E-09
 -1       562 1.17549E+05-2.40181E+05-1.51651E+02-2.94014E+05 4.94765E-10-7.99810E-09
 -1       563 1.97146E+05-3.18927E+05 1.69319E+02-3.87486E+05 3.59432E-09-7.91624E-09
 -1       564 1.14256E+05-2.38117E+05-7.64161E+01-2.96334E+05 5.76983E-09-1.09985E-08
 -1       565 1.93691E+05-3.17425E+05 8.67518E+01-3.89679E+05 7.46513E-09 7.41375E-09
 -1       566 1.12616E+05-2.37071E+05-2.44430E+01-2.97487E+05-5.13319E-09 1.11813E-08
 -1       567 1.92472E+05-3.16883E+05-9.92324E+01-3.90359E+05 9.22228E-10 1.92813E-09
 -1       568 1.12672E+05-2.37121E+05-4.28281E+02-2.97536E+05-8.70386E-09-2.78305E-09
 -1       569 1.92569E+05-3.16795E+05-1.06311E+03-3.88703E+05-9.05220E-09-2.23372E-09
 -1       570 1.15178E+05-2.39233E+05-2.46968E+03-2.97092E+05 3.57250E-09-2.15550E-10
 -1       571 2.20931E+05 8.12203E+03 1.19080E+04-5.97418E+04 2.36923E-09 1.23532E-09
 -1       572 2.22691E+05 2.89129E+03 5.83449E+03-6.55354E+04 1.80989E-09-4.09545E-09
 -1       573 2.21638E+05 7.54648E+02 2.59220E+03-5.96143E+04 6.15728E-10-2.30966E-09
 -1       574 2.21839E+05 3.14595E+02 1.29912E+03-6.56851E+04 1.94279E-09 1.26802E-08
 -1       575 2.21719E+05 1.17724E+02 6.12801E+02-5.95972E+04 9.59244E-09 1.98584E-08
 -1       576 2.21727E+05 1.03766E+02 3.12935E+02-6.57051E+04 1.63669E-08 6.65705E-09
 -1       577 2.21738E+05 7.90236E+01 1.55779E+02-5.95949E+04 7.71843E-09-2.81852E-09
 -1       578 2.21728E+05 8.67306E+01 8.84797E+01-6.57077E+04 2.61957E-09-9.22228E-09
 -1       579 2.21764E+05 6.84573E+01 5.99433E+01-5.95948E+04 5.50062E-09-5.18867E-10
 -1       580 2.21764E+05 7.05169E+01 6.64458E+01-6.57042E+04-1.44883E-09-9.04402E-09
 -1       581 2.21806E+05 5.08645E+01 1.00558E+02-5.95985E+04 1.09139E-10 2.05091E-09
 -1       582 2.21837E+05 7.27357E+01 2.00739E+02-6.56659E+04-5.91172E-11 7.41829E-09
 -1       583 2.21852E+05 1.13445E+02 3.89045E+02-5.96331E+04 5.00222E-10 1.31445E-09
 -1       584 2.22037E+05 4.25011E+02 8.75780E+02-6.53752E+04 1.69894E-09-1.04887E-09
 -1       585 2.21810E+05 1.19111E+03 1.77935E+03-5.98894E+04 1.89175E-10 3.63616E-09
 -1       586-2.79485E+03 7.43033E+04-3.24619E+03-1.97700E+05-2.44654E-09 1.07410E-08
 -1       587-7.44575E+02 7.39229E+04 1.40320E+01-2.17616E+05-2.70848E-09 2.16426E-08
 -1       588 6.75215E+02 7.39351E+04 3.22998E+03-1.97609E+05-1.10958E-09 1.89293E-08
 -1       589 4.18029E+03 7.56724E+04 8.88731E+03-2.17382E+05-2.36651E-09 2.05719E-08
 -1       590 1.25653E+04 7.29427E+04 1.88439E+04-1.97951E+05-1.85992E-09 6.44286E-09
 -1       591-4.57951E+04-1.14138E+04-1.55772E+04-2.14439E+04-1.62049E-09-9.41691E-09
 -1       592-4.80882E+04-1.44073E+04-8.43756E+03-2.45572E+04-2.41070E-09-1.67188E-08
 -1       593-4.73575E+04-1.02787E+04-3.51235E+03-2.25816E+04-1.84889E-09-6.70525E-10
 -1       594-4.59302E+04-1.21294E+04-1.75178E+03-2.46481E+04 2.18063E-09-1.42519E-09
 -1       595-4.74768E+04-1.02746E+04-8.04611E+02-2.26334E+04 3.40771E-09 1.73674E-09
 -1       596-4.57830E+04-1.20252E+04-4.09527E+02-2.46313E+04 4.37637E-09 1.62635E-09
 -1       597-4.74918E+04-1.02850E+04-2.24031E+02-2.26354E+04-4.78593E-10-2.04955E-09
 -1       598-4.57686E+04-1.20212E+04-1.81991E+02-2.46266E+04 1.98338E-09-8.18375E-10
 -1       599-4.74908E+04-1.02852E+04-2.34823E+02-2.26350E+04 9.86006E-10-1.37553E-08
 -1       600-4.57837E+04-1.20261E+04-4.38118E+02-2.46303E+04-1.59775E-09-2.34934E-10
 -1       601-4.74728E+04-1.02747E+04-8.65265E+02-2.26323E+04-5.56952E-09-6.21083E-09
 -1       602-4.59420E+04-1.21378E+04-1.88630E+03-2.46459E+04-1.04467E-09-1.66779E-09
 -1       603-4.73425E+04-1.02813E+04-3.78304E+03-2.25769E+04 1.17598E-09 6.33713E-09
 -1       604-4.82784E+04-1.45778E+04-9.08762E+03-2.45310E+04-1.28011E-09 2.00907E-09
 -1       605-4.56453E+04-1.15161E+04-1.67773E+04-2.13651E+04 8.95795E-10 1.15506E-09
 -1       606 2.56686E+04-1.06091E+04-1.90651E+04 2.45634E+04 1.46792E-09 3.82261E-09
 -1       607 2.24069E+04-3.44159E+03-9.49374E+03 2.75815E+04 5.05679E-10-4.67753E-09
 -1       608 2.42611E+04-5.98743E+02-4.25084E+03 2.43730E+04 9.82982E-09-4.51928E-09
 -1       609 2.38979E+04-1.78612E+02-2.14714E+03 2.77982E+04 1.98133E-08 3.43061E-09
 -1       610 2.40953E+04 1.82407E+00-1.02508E+03 2.43514E+04 1.16870E-08-1.45496E-09
 -1       611 2.40315E+04 9.75092E+00-5.16842E+02 2.78219E+04-3.63798E-11 3.77327E-09
 -1       612 2.40542E+04 1.58736E+01-2.46433E+02 2.43493E+04 1.52631E-08-7.54244E-09
 -1       613 2.40337E+04 1.63839E+01-1.11093E+02 2.78247E+04 3.24194E-08-1.15033E-08
 -1       614 2.40328E+04 1.42817E+01-2.79921E+01 2.43485E+04 1.78034E-08 5.77847E-09
 -1       615 2.40247E+04 2.02954E+01 4.20937E+01 2.78251E+04 5.41377E-09 1.10761E-08
 -1       616 2.40163E+04 1.89063E+01 1.30300E+02 2.43488E+04 4.63842E-10-3.72347E-09
 -1       617 2.40365E+04 5.04109E+01 2.99012E+02 2.78246E+04-1.13596E-09-9.17612E-09
 -1       618 2.39875E+04 1.06909E+02 6.03261E+02 2.43489E+04 8.23547E-10-4.49336E-09
 -1       619 2.42472E+04 5.18338E+02 1.35510E+03 2.78239E+04 1.33502E-09-8.52879E-10
 -1       620 2.37857E+04 1.53878E+03 2.72378E+03 2.43484E+04 1.52102E-09 1.00927E-08
 -1       621 2.61755E+02 2.24563E+05 2.37921E+03 1.80196E+04 5.04770E-11-6.09634E-09
 -1       622 3.27756E+02 2.25139E+05 2.23655E+03 2.62111E+04 2.69438E-10-1.51595E-08
 -1       623 2.90542E+01 2.24690E+05 2.85317E+03 1.79336E+04 3.04681E-10-1.50112E-09
 -1       624 1.39091E+03 2.26093E+05 5.66433E+03 2.62988E+04 4.30376E-10 6.97116E-09
 -1       625 1.39386E+03 2.23570E+05 9.96271E+03 1.79308E+04 4.67935E-10 9.90553E-10
 -1       626 1.99433E+05 5.14753E+04 4.35739E+03 1.02505E+05-3.43380E-09-3.02862E-09
 -1       627 1.97215E+05 5.29108E+04 2.09968E+03 1.06412E+05-6.04814E-09 3.59489E-09
 -1       628 1.99559E+05 4.94589E+04 8.87405E+02 1.03217E+05 9.43146E-10 1.90630E-09
 -1       629 1.96642E+05 5.23613E+04 4.34348E+02 1.06644E+05 3.96540E-09 2.34144E-08
 -1       630 1.99570E+05 4.93626E+04 2.00786E+02 1.03243E+05 3.02134E-09 1.28829E-08
 -1       631 1.96578E+05 5.23435E+04 1.07132E+02 1.06645E+05-4.07567E-09 3.73433E-09
 -1       632 1.99564E+05 4.93682E+04 6.89142E+01 1.03237E+05-7.20956E-09-1.20657E-08
 -1       633 1.96566E+05 5.23473E+04 7.43352E+01 1.06639E+05 7.83530E-10 1.16294E-08
 -1       634 1.99556E+05 4.93680E+04 1.17963E+02 1.03234E+05 2.56568E-09-1.73395E-09
 -1       635 1.96574E+05 5.23478E+04 2.37476E+02 1.06641E+05-5.90876E-09-4.03566E-09
 -1       636 1.99546E+05 4.93655E+04 4.78923E+02 1.03232E+05-2.69296E-09-5.30713E-09
 -1       637 1.96674E+05 5.24230E+04 1.05238E+03 1.06638E+05 1.10600E-09 4.95584E-09
 -1       638 1.99506E+05 4.95992E+04 2.16238E+03 1.03125E+05 1.10776E-09-5.22459E-09
 -1       639 1.97809E+05 5.40025E+04 5.11578E+03 1.06301E+05 3.46688E-09 4.81964E-09
 -1       640 1.99352E+05 5.43119E+04 1.06163E+04 1.01132E+05-2.86491E-11 1.31740E-09
 -1       656 5.21849E+04-1.32824E+06-1.25982E+05-8.64013E+02 1.12050E-09 1.33042E-09
 -1       657-6.90039E+04-1.38513E+06-1.04290E+05 6.75670E+03-1.67347E-10 8.85569E-09
 -1       658 1.66001E+04-1.34443E+06-6.41344E+04-2.24780E+03 2.54431E-10 7.06117E-09
 -1       659-7.43514E+04-1.38767E+06-1.11314E+05 7.78115E+03 2.54659E-11 3.50244E-09
 -1       660 5.75197E+04-1.32571E+06-1.38063E+05-1.88845E+03-3.92902E-10 6.31317E-09
 -1       661 1.55198E+05 1.66506E+04 1.54864E+04 6.06858E+04-1.36697E-09 1.44009E-08
 -1       662 1.63582E+05 2.84830E+04 1.04358E+04 5.76331E+04 3.22808E-09 8.69477E-10
 -1       663 1.58236E+05 2.16218E+04 3.65026E+03 5.98068E+04-9.55083E-10-8.64497E-09
 -1       664 1.60064E+05 2.26661E+04 2.18288E+03 5.87037E+04-1.97332E-09-1.33667E-08
 -1       665 1.58693E+05 2.23041E+04 8.61150E+02 5.96766E+04 3.85853E-10 9.33844E-09
 -1       666 1.59526E+05 2.18831E+04 5.03013E+02 5.88717E+04-4.35618E-09 1.19413E-08
 -1       667 1.58771E+05 2.23843E+04 2.66230E+02 5.96464E+04-1.69243E-09-5.15936E-09
 -1       668 1.59442E+05 2.18218E+04 2.68979E+02 5.89151E+04 5.56042E-10-2.34905E-09
 -1       669 1.58776E+05 2.23636E+04 3.62344E+02 5.96336E+04-2.63049E-09 3.78805E-09
 -1       670 1.59532E+05 2.20151E+04 7.87252E+02 5.89151E+04 1.40799E-09-9.09996E-09
 -1       671 1.58681E+05 2.21950E+04 1.39727E+03 5.96447E+04 1.05874E-09 7.36372E-09
 -1       672 1.60348E+05 2.33732E+04 3.57442E+03 5.87169E+04-1.75277E-10 4.69220E-09
 -1       673 1.57965E+05 2.10397E+04 5.98999E+03 5.98188E+04-7.76708E-10 4.46789E-09
 -1       674 1.66051E+05 3.29942E+04 1.71302E+04 5.70390E+04 1.78193E-09 3.59614E-09
 -1       675 1.53014E+05 1.28432E+04 2.54268E+04 6.12212E+04-1.60526E-10 6.56746E-09
 -1       676 2.00718E+01-2.43489E+05-9.32441E+02-8.97365E+00 1.24913E-10 2.17522E-09
 -1       677-2.47629E+02-2.43715E+05-1.70649E+03 1.79368E+01 6.92125E-10-8.38186E-09
 -1       678 1.65296E+02-2.43329E+05-3.01662E+03-8.95708E+00-4.99767E-10 1.18661E-09
 -1       679-3.01746E+03-2.45536E+05-7.16607E+03 1.78724E+01 3.12070E-10 3.01155E-09
 -1       680 1.80081E+03-2.41669E+05-1.15493E+04-8.80828E+00 2.10093E-10 4.36562E-09
 -1       771-2.56450E+06-5.51324E+05-1.03256E+05-1.16818E+06-2.01981E-08-1.45810E-08
 -1       772-2.51980E+06-6.13118E+05-5.41533E+04-1.23863E+06-1.75205E-08 7.62157E-09
 -1       773-2.58231E+06-5.37380E+05-2.57061E+04-1.17543E+06-1.21945E-08 7.60338E-09
 -1       774-2.50986E+06-6.01543E+05-1.18814E+04-1.25093E+06 1.99943E-08-4.54747E-10
 -1       775-2.58974E+06-5.32198E+05-7.63765E+03-1.17792E+06 2.80852E-09 6.05360E-09
 -1       776-2.51399E+06-6.00604E+05-3.06708E+03-1.25940E+06-3.77622E-09 2.79397E-09
 -1       777-2.59583E+06-5.27774E+05-2.94002E+03-1.18004E+06 9.45874E-10-9.31323E-10
 -1       778-2.51859E+06-5.99939E+05-9.09723E+02-1.26659E+06-9.60426E-10 5.18048E-09
 -1       779-2.60093E+06-5.23985E+05-1.33986E+03-1.18185E+06-3.36149E-09-4.85670E-09
 -1       780-2.52262E+06-5.99310E+05-2.47819E+02-1.27240E+06 2.86673E-09 4.43833E-10
 -1       781-2.60491E+06-5.20970E+05-4.98394E+02-1.18326E+06-1.63564E-08-1.36060E-09
 -1       782-2.52568E+06-5.98759E+05 1.63625E+02-1.27667E+06-2.69793E-08-6.69479E-09
 -1       783-2.60768E+06-5.18912E+05 2.63950E+02-1.18425E+06-1.17143E-08-1.26561E-08
 -1       784-2.52734E+06-5.98088E+05 1.10676E+03-1.27928E+06-1.54178E-08 8.09814E-09
 -1       785-2.60928E+06-5.17711E+05 1.95155E+03-1.18489E+06-2.63099E-08 5.77711E-09
 -1       786 1.13718E+05-8.44876E+03 1.95455E+04-1.28354E+02 1.64208E-09 5.57975E-09
 -1       787 1.22194E+05 9.78103E+03 1.38279E+04 1.94516E+01 4.86328E-09 8.09155E-09
 -1       788 1.16986E+05-1.32433E+03 5.05733E+03-1.04130E+02 1.90249E-09 1.79984E-08
 -1       789 1.18386E+05 1.53217E+03 3.17553E+03-1.97253E+01 4.85165E-11 9.01315E-09
 -1       790 1.17526E+05-2.06609E+02 1.28727E+03-8.91820E+01-1.15426E-09 1.78422E-08
 -1       791 1.17756E+05 2.38719E+02 7.46564E+02-4.57541E+01-2.36057E-09 8.87445E-09
 -1       792 1.17617E+05-3.18385E+01 3.22465E+02-7.81018E+01-1.79929E-09 9.44057E-09
 -1       793 1.17648E+05 3.59381E+01 1.74172E+02-6.65212E+01-1.77925E-09-1.10670E-08
 -1       794 1.17633E+05-3.95728E+00 7.22049E+01-6.84146E+01 1.45119E-09-3.90526E-09
 -1       795 1.17627E+05-1.06362E+00 2.23567E+01-8.63857E+01-1.82538E-09 4.01839E-09
 -1       796 1.17639E+05 5.14439E+00-1.61603E+01-5.82369E+01 9.80722E-10 2.45429E-10
 -1       797 1.17606E+05-4.24375E+01-7.91785E+01-1.09171E+02 1.07200E-09 2.35330E-09
 -1       798 1.17654E+05 3.73853E+01-1.38189E+02-4.56287E+01 2.84061E-10 1.82679E-08
 -1       799 1.17498E+05-2.76496E+02-3.88624E+02-1.39272E+02 1.77194E-09 1.57644E-09
 -1       800 1.17747E+05 2.39006E+02-5.52253E+02-2.81361E+01 1.92582E-10-9.81714E-10
 -1       801 7.05251E+04-4.57608E+06-4.98164E+05 2.68385E+05 3.90428E-08-2.77723E-08
 -1       802-2.73147E+04-2.24987E+06 1.17341E+05-2.65686E+05 1.09769E-07-1.54332E-08
 -1       803-4.44850E+04-4.81892E+06-2.98941E+05 2.32268E+05 4.47835E-08 2.44527E-08
 -1       804-2.30058E+04-2.97091E+06 9.27709E+04 2.04186E+05-1.88775E-08-1.51489E-08
 -1       805 5.50211E+04-3.86138E+06-7.64659E+04-2.01116E+05-8.60746E-09-1.26563E-08
 -1       806-2.42802E+05-4.54403E+04-1.75062E+04-9.44379E+04 9.46329E-10 5.27734E-09
 -1       807-2.44412E+05-4.23491E+04-8.60058E+03-9.84105E+04 7.69796E-09-8.21913E-09
 -1       808-2.43266E+05-3.91484E+04-3.64879E+03-9.74412E+04-7.73070E-12 4.71266E-09
 -1       809-2.42615E+05-3.99224E+04-1.78423E+03-9.86114E+04-4.03611E-09 2.21153E-08
 -1       810-2.43338E+05-3.89291E+04-8.17734E+02-9.75753E+04-5.47288E-09-5.38080E-09
 -1       811-2.42478E+05-3.98237E+04-4.06652E+02-9.85846E+04-7.52493E-09-7.12600E-09
 -1       812-2.43351E+05-3.89471E+04-2.05487E+02-9.75758E+04-6.64704E-09-1.37279E-08
 -1       813-2.42460E+05-3.98246E+04-1.33421E+02-9.85719E+04-9.18590E-10-7.82302E-09
 -1       814-2.43348E+05-3.89532E+04-1.31796E+02-9.75737E+04-4.24552E-09-1.45378E-08
 -1       815-2.42465E+05-3.98256E+04-2.12424E+02-9.85685E+04 2.35377E-09-6.87896E-09
 -1       816-2.43335E+05-3.89508E+04-4.02219E+02-9.75722E+04 6.72117E-10 4.76621E-09
 -1       817-2.42536E+05-3.98635E+04-8.63838E+02-9.85628E+04 2.94312E-09 1.46401E-08
 -1       818-2.43286E+05-3.90705E+04-1.76155E+03-9.75156E+04 3.02134E-09 4.03043E-09
 -1       819-2.43500E+05-4.09307E+04-4.14586E+03-9.83417E+04 4.67935E-10-3.22325E-09
 -1       820-2.42963E+05-4.21946E+04-8.43778E+03-9.61711E+04 1.88265E-10 1.52000E-08
 -1       821-2.94814E+05 1.62921E+04-3.76789E+04 4.05221E+02 3.29822E-09 6.57565E-09
 -1       822-3.11140E+05-1.88605E+04-2.66629E+04-8.97473E+02-8.05366E-10 5.68434E-09
 -1       823-3.01114E+05 2.55437E+03-9.75879E+03 4.04293E+02-1.07003E-09-5.02860E-09
 -1       824-3.03784E+05-2.95583E+03-6.13866E+03-7.05679E+02-1.08742E-10 4.18368E-10
 -1       825-3.02168E+05 3.99389E+02-2.52635E+03 2.13428E+02 8.45446E-10 1.85491E-09
 -1       826-3.02552E+05-4.70638E+02-1.51961E+03-2.17525E+02 2.73110E-10 8.51958E-09
 -1       827-3.02344E+05 7.04876E+01-7.94384E+02-8.38686E+01-1.13371E-09-9.68839E-09
 -1       828-3.02389E+05-1.44389E+02-6.97880E+02 3.52966E+02-3.19729E-09-1.14496E-08
 -1       829-3.02330E+05 7.34835E+01-8.11843E+02-3.57072E+02 5.35145E-11 1.37089E-09
 -1       830-3.02594E+05-4.91010E+02-1.58425E+03 7.54742E+02 1.18064E-09 4.04586E-09
 -1       831-3.02140E+05 4.17410E+02-2.62724E+03-4.85652E+02-2.56199E-09-1.62584E-09
 -1       832-3.03860E+05-3.08249E+03-6.40278E+03 8.10768E+02-1.20502E-09 2.55511E-09
 -1       833-3.01065E+05 2.66320E+03-1.01770E+04-4.13099E+02-2.02117E-09 6.58247E-09
 -1       834-3.11491E+05-1.96664E+04-2.77992E+04 4.93535E+02-1.15360E-09 5.07498E-09
 -1       835-2.94511E+05 1.69881E+04-3.92969E+04-1.68410E+02 4.57347E-09 1.52431E-08
 -1       836-1.01417E+03 2.78929E+05 1.69887E+04-1.46655E+04-1.36879E-09 6.21003E-09
 -1       837 3.68720E+03 2.84220E+05 1.45308E+04-2.95491E+04-9.89985E-10-8.23411E-09
 -1       838-3.94031E+02 2.80394E+05 1.50240E+04-1.46049E+04-7.04858E-10 1.24442E-08
 -1       839 9.60651E+03 2.88635E+05 2.86360E+04-2.95889E+04-4.61114E-10 1.06318E-08
 -1       840-2.92520E+03 2.74477E+05 4.57576E+04-1.46257E+04-6.51198E-10 3.08427E-09
 -1       856-6.64489E+04 7.18715E+03-1.89399E+04-3.91526E+02-7.02755E-10-2.43199E-09
 -1       857-7.42666E+04-8.43387E+03-1.30391E+04 4.62423E+03-8.32699E-10 3.73620E-09
 -1       858-6.95396E+04 1.00733E+03-4.91498E+03-4.11247E+02-6.18570E-10 6.55496E-09
 -1       859-7.07180E+04-1.17509E+03-2.96740E+03 4.65492E+03-7.26672E-10 1.34110E-08
 -1       860-7.00016E+04 1.40397E+02-1.24583E+03-4.22230E+02 1.33406E-09 1.11201E-08
 -1       861-7.01860E+04-1.58444E+02-6.90063E+02 4.66993E+03-4.52206E-09-9.27733E-09
 -1       862-7.00736E+04 1.86451E+01-2.96255E+02-4.26272E+02 2.52566E-09-7.16199E-10
 -1       863-7.00993E+04-1.25473E+01-1.29272E+02 4.67195E+03 4.32084E-09 1.51418E-08
 -1       864-7.00886E+04-2.26477E+00-5.77865E+00-4.24251E+02 3.33783E-09-5.48127E-09
 -1       865-7.00629E+04 3.89889E+01 1.21611E+02 4.66131E+03 1.83707E-09-9.73771E-09
 -1       866-7.01085E+04-3.30899E+01 2.69820E+02-4.15635E+02-7.15119E-10-7.52758E-09
 -1       867-6.99298E+04 2.75627E+02 6.79891E+02 4.63787E+03 1.81967E-09-1.00502E-08
 -1       868-7.02182E+04-2.35218E+02 1.13372E+03-4.00815E+02-2.58296E-10-6.49578E-09
 -1       869-6.90944E+04 1.95752E+03 3.02432E+03 4.59868E+03-5.78268E-10-1.35235E-08
 -1       870-7.09385E+04-1.67015E+03 4.38843E+03-3.76434E+02-5.89921E-10 4.17936E-09
 -1       871-4.44931E+03-1.18296E+04-1.48257E+04 9.87645E+04 1.99179E-10 6.35009E-09
 -1       872-1.83360E+03-1.51909E+04-6.11227E+03 1.28050E+05-7.82848E-10-2.35718E-09
 -1       873 6.50173E+01-1.36026E+04 6.90080E+02 9.85479E+04-7.71024E-10-1.78534E-09
 -1       874 2.32861E+03-1.15715E+04 8.00426E+03 1.28086E+05-1.24965E-09 8.76753E-10
 -1       875 5.28243E+03-1.55076E+04 1.78699E+04 9.87295E+04-4.23825E-10 4.58840E-09
 -1       876 2.33828E+05 3.98611E+04 1.22195E+04 9.43691E+04-2.23895E-09 1.52613E-09
 -1       877 2.34589E+05 4.24807E+04 6.52559E+03 9.79163E+04 2.44586E-09-2.61105E-09
 -1       878 2.34970E+05 3.85087E+04 2.73395E+03 9.53724E+04 4.35739E-09 1.40312E-09
 -1       879 2.32928E+05 4.08241E+04 1.36207E+03 9.80010E+04 7.15886E-10 1.56149E-10
 -1       880 2.35053E+05 3.84940E+04 6.34344E+02 9.54133E+04-1.18166E-09 1.35244E-08
 -1       881 2.32818E+05 4.07535E+04 3.38395E+02 9.79832E+04 2.41357E-10 8.17118E-09
 -1       882 2.35061E+05 3.85042E+04 2.15929E+02 9.54145E+04 4.53633E-09 1.25611E-08
 -1       883 2.32810E+05 4.07501E+04 2.31199E+02 9.79779E+04-3.32676E-09-9.03370E-10
 -1       884 2.35056E+05 3.85017E+04 3.66957E+02 9.54147E+04-2.68432E-09 7.96899E-09
 -1       885 2.32839E+05 4.07553E+04 7.37277E+02 9.79870E+04-1.82899E-09 1.32613E-08
 -1       886 2.35027E+05 3.84801E+04 1.48573E+03 9.54118E+04-2.42633E-09 9.04481E-09
 -1       887 2.33100E+05 4.09265E+04 3.24532E+03 9.80247E+04-4.34966E-09-2.36571E-09
 -1       888 2.34822E+05 3.85163E+04 6.53945E+03 9.53079E+04-1.45440E-09-2.28374E-09
 -1       889 2.36995E+05 4.49738E+04 1.56220E+04 9.79032E+04 2.83332E-09-1.23891E-08
 -1       890 2.32157E+05 4.16824E+04 2.92591E+04 9.28143E+04 2.66277E-09-1.13978E-08
 -1       891-1.20792E+02-1.31227E+05-1.58200E+03 2.34838E+04 3.92788E-10 1.13846E-09
 -1       892-2.15229E+02-1.31620E+05-1.70832E+03 3.55736E+04 1.05729E-10 1.26511E-09
 -1       893-1.50258E+01-1.31278E+05-2.42817E+03 2.34890E+04-6.53699E-10 3.24144E-09
 -1       894-1.28524E+03-1.32545E+05-5.03249E+03 3.54454E+04 9.84073E-10-2.67778E-09
 -1       895-1.00943E+03-1.30231E+05-8.86450E+03 2.36113E+04-6.34941E-11-5.98448E-10
 -1       956-2.97178E+05-4.17757E+03-1.04658E+04 2.09929E+04 8.54925E-10-7.04517E-10
 -1       957-2.99241E+05-1.42536E+03-5.37258E+03 2.52730E+04-7.10770E-10-8.29777E-09
 -1       958-2.98109E+05-1.30169E+02-2.42058E+03 2.08691E+04-1.82627E-09-1.23011E-08
 -1       959-2.98270E+05-4.05955E+01-1.23638E+03 2.54101E+04-1.68893E-09-2.80670E-09
 -1       960-2.98194E+05 1.77681E+01-6.02842E+02 2.08570E+04-2.33285E-10 5.43173E-09
 -1       961-2.98201E+05 1.24521E+01-3.20030E+02 2.54240E+04 2.59206E-11-9.17430E-09
 -1       962-2.98211E+05 1.41236E+01-1.83579E+02 2.08552E+04-4.46335E-10-6.97560E-09
 -1       963-2.98198E+05 1.39771E+01-1.48102E+02 2.54264E+04 5.34783E-10-4.31419E-09
 -1       964-2.98214E+05 1.60991E+01-1.80755E+02 2.08546E+04-9.28964E-10 3.53702E-09
 -1       965-2.98208E+05 1.66520E+01-3.13167E+02 2.54261E+04-2.91777E-09 1.19612E-08
 -1       966-2.98204E+05 2.36475E+01-5.88440E+02 2.08555E+04-2.07092E-09 2.80738E-09
 -1       967-2.98283E+05-3.10272E+01-1.20710E+03 2.54169E+04-5.28075E-10-1.21724E-09
 -1       968-2.98127E+05-1.16894E+02-2.36259E+03 2.08639E+04 2.54204E-09-1.13895E-08
 -1       969-2.99238E+05-1.37952E+03-5.24546E+03 2.53192E+04 2.11730E-09-6.99373E-10
 -1       970-2.97223E+05-4.06608E+03-1.02175E+04 2.09529E+04 5.27507E-10 9.97079E-09
 -1       971-2.77046E+05-1.42481E+03-7.84556E+03 1.29267E+04-6.63931E-10 2.99519E-09
 -1       972-2.78948E+05-1.03018E+03-4.27272E+03 1.80026E+04-2.81761E-09 1.09153E-08
 -1       973-2.77918E+05-2.24893E+01-1.91338E+03 1.28207E+04-2.49156E-09-2.12208E-09
 -1       974-2.78045E+05-2.75801E+01-9.91499E+02 1.81187E+04 5.54269E-09 8.11497E-10
 -1       975-2.77986E+05 1.43380E+01-4.95043E+02 1.28108E+04 8.49923E-10-1.83627E-09
 -1       976-2.77992E+05 1.35822E+01-2.84674E+02 1.81310E+04-2.11253E-09-1.83363E-08
 -1       977-2.77999E+05 1.42448E+01-2.04885E+02 1.28084E+04-2.54204E-09-2.76157E-09
 -1       978-2.77995E+05 1.82562E+01-2.37439E+02 1.81343E+04 2.45313E-09 1.69598E-09
 -1       979-2.77999E+05 2.07464E+01-3.79464E+02 1.28074E+04-1.28807E-10-3.16879E-09
 -1       980-2.78023E+05 2.06078E+01-7.31426E+02 1.81349E+04-5.95877E-09 3.74962E-09
 -1       981-2.77976E+05 3.90121E+01-1.41591E+03 1.28078E+04-2.44029E-09 1.63618E-09
 -1       982-2.78218E+05-8.38494E+01-2.92626E+03 1.81295E+04-1.75544E-09-2.36260E-09
 -1       983-2.77798E+05-5.14067E+01-5.68549E+03 1.28129E+04-3.07818E-09 6.03313E-09
 -1       984-2.80952E+05-3.05277E+03-1.27320E+04 1.80569E+04-3.73802E-09 5.03132E-09
 -1       985-2.75224E+05-4.21149E+03-2.33800E+04 1.28819E+04 2.46609E-09 1.37697E-09
 -3
    1PSTEP                        27          14           1          
  100CL  114 5.67719E-01         409                     0   14           1
 -4  DISP        4    1
 -5  D1          1    2    1    0
 -5  D2          1    2    2    0
 -5  D3          1    2    3    0
 -5  ALL         1    2    0    0    1ALL
 -1         1 1.98582E-03 0.00000E+00 0.00000E+00
 -1         2 1.90730E-03 1.91686E-25 2.64698E-23
 -1         3 2.37814E-04 6.24409E-27 0.00000E+00
 -1         5 1.36038E-04 2.07183E-26 3.30872E-24
 -1         8 1.96695E-03-5.87184E-07 0.00000E+00
 -1         9 1.93977E-03-4.97263E-06 0.00000E+00
 -1        10 2.16855E-04-2.73623E-06 0.00000E+00
 -1        12 1.36625E-04 6.47627E-07 1.65436E-24
 -1        15 1.94418E-03-6.45817E-07 2.06795E-25
 -1        16 1.95161E-03-5.94349E-06 0.00000E+00
 -1        17 1.51128E-04-5.98385E-06 0.00000E+00
 -1        18 1.37082E-04 1.63858E-05 0.00000E+00
 -1        19 1.38386E-04 1.29174E-06 0.00000E+00
 -1        20 1.38526E-04 3.35333E-06 0.00000E+00
 -1        21 1.37838E-04 2.97346E-06-3.30872E-24
 -1        24 2.48524E-05-8.48988E-06 0.00000E+00
 -1        25 1.41502E-04 1.65505E-05 0.00000E+00
 -1        26 1.42149E-04 1.78920E-06 0.00000E+00
 -1        27 1.40379E-04 4.31640E-07 0.00000E+00
 -1        28 1.40009E-04 2.44492E-06 0.00000E+00
 -1        32 0.00000E+00 0.00000E+00 0.00000E+00
 -1        33 1.44914E-04 2.39711E-06 0.00000E+00
 -1        34 1.43165E-04 3.97597E-07 0.00000E+00
 -1        35 1.41546E-04 2.15950E-06 0.00000E+00
 -1        51 1.98460E-03-1.05367E-07 0.00000E+00
 -1        52 1.98234E-03-1.99657E-07 0.00000E+00
 -1        53 1.97924E-03-2.92993E-07 0.00000E+00
 -1        54 1.97550E-03-3.87235E-07 0.00000E+00
 -1        55 1.97133E-03-4.83667E-07 0.00000E+00
 -1        56 1.98311E-03-4.92883E-07-5.29396E-23
 -1        57 1.97998E-03-1.30186E-07 2.64698E-23
 -1        58 1.97656E-03 1.00046E-06 0.00000E+00
 -1        59 1.97291E-03 2.71826E-06 0.00000E+00
 -1        60 1.96912E-03 4.78400E-06 1.05879E-22
 -1        61 1.96530E-03 6.93038E-06 0.00000E+00
 -1        62 1.96155E-03 8.88146E-06-1.05879E-22
 -1        63 1.95797E-03 1.03722E-05-5.29396E-23
 -1        64 1.95465E-03 1.11945E-05 1.05879E-22
 -1        65 1.95164E-03 1.11815E-05-5.29396E-23
 -1        66 1.94897E-03 1.02687E-05 0.00000E+00
 -1        67 1.94665E-03 8.44795E-06 0.00000E+00
 -1        68 1.94462E-03 5.82158E-06 0.00000E+00
 -1        69 1.94285E-03 2.54757E-06 0.00000E+00
 -1        70 1.94124E-03-1.14814E-06 5.29396E-23
 -1        86 1.90899E-03-8.16885E-07 0.00000E+00
 -1        87 1.91402E-03-1.64425E-06 1.32349E-23
 -1        88 1.92108E-03-2.48283E-06-2.64698E-23
 -1        89 1.92880E-03-3.32430E-06 0.00000E+00
 -1        90 1.93555E-03-4.15997E-06-2.64698E-23
 -1       121 2.37227E-04-4.48323E-07 0.00000E+00
 -1       122 2.35467E-04-8.97974E-07-6.61744E-24
 -1       123 2.32539E-04-1.35026E-06 1.32349E-23
 -1       124 2.28452E-04-1.80654E-06 0.00000E+00
 -1       125 2.23219E-04-2.26791E-06-1.32349E-23
 -1       191 1.36055E-04 1.07948E-07 1.65436E-24
 -1       192 1.36104E-04 2.15893E-07 0.00000E+00
 -1       193 1.36185E-04 3.23837E-07-1.65436E-24
 -1       194 1.36299E-04 4.31776E-07 8.27181E-25
 -1       195 1.36446E-04 5.39707E-07-3.30872E-24
 -1       251 1.96625E-03 1.55456E-05-1.32349E-23
 -1       252 1.96488E-03 5.60052E-05 0.00000E+00
 -1       253 1.96273E-03 1.13510E-04 0.00000E+00
 -1       254 1.96002E-03 1.80386E-04-6.61744E-24
 -1       255 1.95736E-03 2.46410E-04 1.32349E-23
 -1       256 1.95535E-03 3.01382E-04-6.61744E-24
 -1       257 1.95411E-03 3.38099E-04-1.32349E-23
 -1       258 1.95346E-03 3.49780E-04 0.00000E+00
 -1       259 1.95278E-03 3.36222E-04 0.00000E+00
 -1       260 1.95149E-03 2.97831E-04-6.61744E-24
 -1       261 1.94940E-03 2.41544E-04 0.00000E+00
 -1       262 1.94669E-03 1.74707E-04 0.00000E+00
 -1       263 1.94396E-03 1.07532E-04 0.00000E+00
 -1       264 1.94182E-03 5.02403E-05 6.61744E-24
 -1       265 1.94047E-03 1.03609E-05 1.32349E-23
 -1       266 1.96315E-03-6.05527E-07-3.30872E-24
 -1       267 1.95936E-03-6.14255E-07-8.27181E-25
 -1       268 1.95556E-03-6.23591E-07 0.00000E+00
 -1       269 1.95177E-03-6.31124E-07 0.00000E+00
 -1       270 1.94797E-03-6.38614E-07-2.06795E-25
 -1       271 1.96461E-03 2.83721E-06-1.32349E-23
 -1       272 1.96229E-03 6.12480E-06 0.00000E+00
 -1       273 1.96006E-03 9.19042E-06 0.00000E+00
 -1       274 1.95794E-03 1.19375E-05 1.32349E-23
 -1       275 1.95598E-03 1.42774E-05-2.64698E-23
 -1       276 1.95420E-03 1.61241E-05 0.00000E+00
 -1       277 1.95263E-03 1.73987E-05 0.00000E+00
 -1       278 1.95131E-03 1.80283E-05 0.00000E+00
 -1       279 1.95026E-03 1.79484E-05-2.64698E-23
 -1       280 1.94949E-03 1.71029E-05 0.00000E+00
 -1       281 1.94903E-03 1.54450E-05-2.64698E-23
 -1       282 1.94888E-03 1.29379E-05 1.32349E-23
 -1       283 1.94906E-03 9.55499E-06 2.64698E-23
 -1       284 1.94958E-03 5.28140E-06 0.00000E+00
 -1       285 1.95042E-03 1.10859E-07 0.00000E+00
 -1       301 1.94141E-03-5.14604E-06-6.61744E-24
 -1       302 1.94237E-03-5.29950E-06 0.00000E+00
 -1       303 1.94325E-03-5.45161E-06 0.00000E+00
 -1       304 1.94467E-03-5.60460E-06 1.32349E-23
 -1       305 1.94726E-03-5.76206E-06 0.00000E+00
 -1       306 1.97242E-03-1.28977E-04 0.00000E+00
 -1       307 2.03746E-03-4.82280E-04 2.64698E-23
 -1       308 2.09725E-03-1.00901E-03-5.29396E-23
 -1       309 2.14128E-03-1.63086E-03 2.64698E-23
 -1       310 2.18820E-03-2.23662E-03 5.29396E-23
 -1       311 2.25236E-03-2.71648E-03 0.00000E+00
 -1       312 2.31248E-03-3.00083E-03 1.05879E-22
 -1       313 2.32328E-03-3.04897E-03 0.00000E+00
 -1       314 2.22915E-03-2.86717E-03 0.00000E+00
 -1       315 1.99425E-03-2.49953E-03-5.29396E-23
 -1       316 1.63028E-03-2.01128E-03 0.00000E+00
 -1       317 1.18473E-03-1.46557E-03 0.00000E+00
 -1       318 7.49872E-04-9.27107E-04 0.00000E+00
 -1       319 4.14843E-04-4.62414E-04 0.00000E+00
 -1       320 2.15586E-04-1.34767E-04 0.00000E+00
 -1       336 2.09232E-04-3.24843E-06 0.00000E+00
 -1       337 2.00227E-04-3.77211E-06-6.61744E-24
 -1       338 1.89872E-04-4.30797E-06 0.00000E+00
 -1       339 1.78206E-04-4.85578E-06 6.61744E-24
 -1       340 1.65275E-04-5.41867E-06 6.61744E-24
 -1       406 1.36837E-04 7.55529E-07 1.65436E-24
 -1       407 1.37082E-04 8.63389E-07-8.27181E-25
 -1       408 1.37359E-04 9.71177E-07-1.65436E-24
 -1       409 1.37669E-04 1.07876E-06-1.65436E-24
 -1       410 1.38012E-04 1.18594E-06 0.00000E+00
 -1       521 1.98457E-03-1.38798E-04-1.05879E-22
 -1       522 2.04838E-03-5.06976E-04-5.29396E-23
 -1       523 2.10464E-03-1.05206E-03 0.00000E+00
 -1       524 2.14430E-03-1.68925E-03 0.00000E+00
 -1       525 2.18732E-03-2.30887E-03 0.00000E+00
 -1       526 2.24898E-03-2.80298E-03 0.00000E+00
 -1       527 2.30806E-03-3.09552E-03-1.05879E-22
 -1       528 2.31708E-03-3.14453E-03 0.00000E+00
 -1       529 2.21578E-03-2.95463E-03-2.11758E-22
 -1       530 1.96758E-03-2.57550E-03 0.00000E+00
 -1       531 1.58476E-03-2.07448E-03 0.00000E+00
 -1       532 1.11996E-03-1.51794E-03 0.00000E+00
 -1       533 6.65461E-04-9.68128E-04-1.05879E-22
 -1       534 3.10463E-04-4.88846E-04 5.29396E-23
 -1       535 9.69471E-05-1.47437E-04 0.00000E+00
 -1       536 1.50718E-04 1.73790E-05 0.00000E+00
 -1       537 1.49784E-04 5.79039E-05-1.65436E-24
 -1       538 1.48383E-04 1.09271E-04 3.30872E-24
 -1       539 1.46751E-04 1.65101E-04-1.65436E-24
 -1       540 1.45282E-04 2.17734E-04 0.00000E+00
 -1       541 1.44307E-04 2.59527E-04 0.00000E+00
 -1       542 1.43823E-04 2.85855E-04 3.30872E-24
 -1       543 1.43654E-04 2.92189E-04 0.00000E+00
 -1       544 1.43426E-04 2.79153E-04 0.00000E+00
 -1       545 1.42797E-04 2.47504E-04 0.00000E+00
 -1       546 1.41706E-04 2.02869E-04 3.30872E-24
 -1       547 1.40276E-04 1.50951E-04 1.65436E-24
 -1       548 1.38870E-04 9.95170E-05 3.30872E-24
 -1       549 1.37840E-04 5.63315E-05-1.65436E-24
 -1       550 1.37276E-04 2.68357E-05 1.65436E-24
 -1       551 1.34099E-04-6.32254E-06 0.00000E+00
 -1       552 1.14574E-04-6.70390E-06 0.00000E+00
 -1       553 9.32139E-05-7.11989E-06-6.61744E-24
 -1       554 7.06920E-05-7.56176E-06 0.00000E+00
 -1       555 4.76813E-05-8.01617E-06-1.32349E-23
 -1       556 1.46109E-04 6.96159E-06 0.00000E+00
 -1       557 1.42112E-04 1.72929E-05 0.00000E+00
 -1       558 1.39040E-04 2.52263E-05 0.00000E+00
 -1       559 1.36798E-04 3.09942E-05 0.00000E+00
 -1       560 1.35293E-04 3.48285E-05 0.00000E+00
 -1       561 1.34432E-04 3.69630E-05 0.00000E+00
 -1       562 1.34124E-04 3.76321E-05 0.00000E+00
 -1       563 1.34277E-04 3.70706E-05 0.00000E+00
 -1       564 1.34804E-04 3.55137E-05 0.00000E+00
 -1       565 1.35615E-04 3.31971E-05 0.00000E+00
 -1       566 1.36620E-04 3.03565E-05 0.00000E+00
 -1       567 1.37733E-04 2.72280E-05 0.00000E+00
 -1       568 1.38866E-04 2.40476E-05-8.27181E-25
 -1       569 1.39929E-04 2.10513E-05 0.00000E+00
 -1       570 1.40837E-04 1.84750E-05 0.00000E+00
 -1       571 1.37161E-04 1.54093E-05 0.00000E+00
 -1       572 1.37242E-04 1.43839E-05 0.00000E+00
 -1       573 1.37323E-04 1.33204E-05-3.30872E-24
 -1       574 1.37405E-04 1.22303E-05 0.00000E+00
 -1       575 1.37486E-04 1.11253E-05-3.30872E-24
 -1       576 1.37568E-04 1.00168E-05-1.65436E-24
 -1       577 1.37650E-04 8.91652E-06 0.00000E+00
 -1       578 1.37731E-04 7.83597E-06-1.65436E-24
 -1       579 1.37813E-04 6.78678E-06-3.30872E-24
 -1       580 1.37895E-04 5.78054E-06 0.00000E+00
 -1       581 1.37977E-04 4.82888E-06 0.00000E+00
 -1       582 1.38059E-04 3.94336E-06 0.00000E+00
 -1       583 1.38141E-04 3.13557E-06 0.00000E+00
 -1       584 1.38223E-04 2.41696E-06-3.30872E-24
 -1       585 1.38305E-04 1.79888E-06 0.00000E+00
 -1       586 1.37767E-04 1.64150E-05 0.00000E+00
 -1       587 1.38425E-04 1.64437E-05-4.13590E-25
 -1       588 1.39091E-04 1.64720E-05 0.00000E+00
 -1       589 1.39802E-04 1.64998E-05 0.00000E+00
 -1       590 1.40594E-04 1.65266E-05 0.00000E+00
 -1       591 1.37403E-04 1.54710E-05 1.03398E-25
 -1       592 1.37729E-04 1.45339E-05 0.00000E+00
 -1       593 1.38061E-04 1.35802E-05 4.13590E-25
 -1       594 1.38397E-04 1.26144E-05 0.00000E+00
 -1       595 1.38736E-04 1.16412E-05 0.00000E+00
 -1       596 1.39076E-04 1.06654E-05-4.13590E-25
 -1       597 1.39415E-04 9.69162E-06 0.00000E+00
 -1       598 1.39751E-04 8.72451E-06 2.06795E-25
 -1       599 1.40083E-04 7.76874E-06-4.13590E-25
 -1       600 1.40410E-04 6.82898E-06 0.00000E+00
 -1       601 1.40728E-04 5.90991E-06-8.27181E-25
 -1       602 1.41037E-04 5.01617E-06 0.00000E+00
 -1       603 1.41336E-04 4.15244E-06 0.00000E+00
 -1       604 1.41621E-04 3.32348E-06-5.16988E-26
 -1       605 1.41892E-04 2.53389E-06 0.00000E+00
 -1       606 1.38399E-04 9.67336E-07 0.00000E+00
 -1       607 1.38409E-04 7.30008E-07 0.00000E+00
 -1       608 1.38418E-04 5.74645E-07 0.00000E+00
 -1       609 1.38426E-04 4.95481E-07 0.00000E+00
 -1       610 1.38435E-04 4.86714E-07 0.00000E+00
 -1       611 1.38443E-04 5.42466E-07 0.00000E+00
 -1       612 1.38451E-04 6.56855E-07 0.00000E+00
 -1       613 1.38460E-04 8.23995E-07 0.00000E+00
 -1       614 1.38468E-04 1.03800E-06-1.65436E-24
 -1       615 1.38477E-04 1.29296E-06 0.00000E+00
 -1       616 1.38485E-04 1.58301E-06-1.65436E-24
 -1       617 1.38493E-04 1.90226E-06 0.00000E+00
 -1       618 1.38502E-04 2.24479E-06 0.00000E+00
 -1       619 1.38510E-04 2.60475E-06-2.06795E-25
 -1       620 1.38518E-04 2.97622E-06 0.00000E+00
 -1       621 1.38850E-04 1.37491E-06 0.00000E+00
 -1       622 1.39403E-04 1.45833E-06 1.65436E-24
 -1       623 1.40028E-04 1.54169E-06-1.65436E-24
 -1       624 1.40707E-04 1.62487E-06 8.27181E-25
 -1       625 1.41420E-04 1.70787E-06 1.65436E-24
 -1       626 1.38601E-04 9.96606E-07 0.00000E+00
 -1       627 1.38790E-04 7.69726E-07 0.00000E+00
 -1       628 1.38957E-04 6.03698E-07-3.30872E-24
 -1       629 1.39104E-04 4.90751E-07-1.65436E-24
 -1       630 1.39234E-04 4.23097E-07 0.00000E+00
 -1       631 1.39350E-04 3.92918E-07 1.65436E-24
 -1       632 1.39455E-04 3.92393E-07 3.30872E-24
 -1       633 1.39552E-04 4.13703E-07-1.65436E-24
 -1       634 1.39643E-04 4.49027E-07 0.00000E+00
 -1       635 1.39732E-04 4.90548E-07-1.65436E-24
 -1       636 1.39822E-04 5.30446E-07 0.00000E+00
 -1       637 1.39915E-04 5.60901E-07-1.65436E-24
 -1       638 1.40015E-04 5.74089E-07-1.65436E-24
 -1       639 1.40124E-04 5.62181E-07-1.65436E-24
 -1       640 1.40245E-04 5.17340E-07 1.65436E-24
 -1       656 1.38361E-04 2.87816E-06-6.61744E-24
 -1       657 1.38574E-04 2.38387E-06 6.61744E-24
 -1       658 1.39030E-04 1.89093E-06-1.32349E-23
 -1       659 1.39592E-04 1.39835E-06-6.61744E-24
 -1       660 1.40095E-04 9.04264E-07 0.00000E+00
 -1       661 1.38466E-04 3.69552E-06-8.27181E-25
 -1       662 1.38436E-04 3.96644E-06-8.27181E-25
 -1       663 1.38432E-04 4.16948E-06 0.00000E+00
 -1       664 1.38451E-04 4.30923E-06-8.27181E-25
 -1       665 1.38493E-04 4.38971E-06 1.65436E-24
 -1       666 1.38556E-04 4.41503E-06 0.00000E+00
 -1       667 1.38638E-04 4.38906E-06-1.65436E-24
 -1       668 1.38738E-04 4.31567E-06-8.27181E-25
 -1       669 1.38854E-04 4.19853E-06 1.65436E-24
 -1       670 1.38985E-04 4.04129E-06 0.00000E+00
 -1       671 1.39130E-04 3.84744E-06 0.00000E+00
 -1       672 1.39287E-04 3.62041E-06-8.27181E-25
 -1       673 1.39455E-04 3.36359E-06 1.65436E-24
 -1       674 1.39633E-04 3.08002E-06 0.00000E+00
 -1       675 1.39819E-04 2.77331E-06 4.13590E-25
 -1       676 1.38201E-04 2.88485E-06 0.00000E+00
 -1       677 1.38564E-04 2.79628E-06 0.00000E+00
 -1       678 1.38926E-04 2.70776E-06 3.30872E-24
 -1       679 1.39288E-04 2.61950E-06 0.00000E+00
 -1       680 1.39649E-04 2.53125E-06 0.00000E+00
 -1       771 1.61538E-05 1.07043E-05 5.29396E-23
 -1       772 8.80185E-06 2.64361E-05 0.00000E+00
 -1       773 2.73373E-06 3.88831E-05 0.00000E+00
 -1       774-2.13821E-06 4.82400E-05 2.64698E-23
 -1       775-5.89986E-06 5.47080E-05 0.00000E+00
 -1       776-8.64048E-06 5.84984E-05 0.00000E+00
 -1       777-1.04495E-05 5.98285E-05 5.29396E-23
 -1       778-1.14183E-05 5.89239E-05 0.00000E+00
 -1       779-1.16379E-05 5.60152E-05-5.29396E-23
 -1       780-1.12009E-05 5.13400E-05 0.00000E+00
 -1       781-1.01997E-05 4.51397E-05 0.00000E+00
 -1       782-8.72757E-06 3.76612E-05 0.00000E+00
 -1       783-6.87768E-06 2.91539E-05 0.00000E+00
 -1       784-4.74395E-06 1.98710E-05-2.64698E-23
 -1       785-2.41986E-06 1.00676E-05 2.64698E-23
 -1       786 1.41538E-04 1.54170E-05-5.16988E-26
 -1       787 1.41579E-04 1.43299E-05 0.00000E+00
 -1       788 1.41618E-04 1.32818E-05-8.27181E-25
 -1       789 1.41659E-04 1.22653E-05 0.00000E+00
 -1       790 1.41700E-04 1.12761E-05 1.65436E-24
 -1       791 1.41740E-04 1.03098E-05-8.27181E-25
 -1       792 1.41781E-04 9.36420E-06 0.00000E+00
 -1       793 1.41822E-04 8.43725E-06 0.00000E+00
 -1       794 1.41863E-04 7.52848E-06 0.00000E+00
 -1       795 1.41904E-04 6.63753E-06 8.27181E-25
 -1       796 1.41944E-04 5.76571E-06-1.65436E-24
 -1       797 1.41985E-04 4.91434E-06 0.00000E+00
 -1       798 1.42026E-04 4.08669E-06-1.65436E-24
 -1       799 1.42067E-04 3.28606E-06-8.27181E-25
 -1       800 1.42108E-04 2.51826E-06 0.00000E+00
 -1       801 1.14514E-04 1.45836E-05 2.64698E-23
 -1       802 3.23142E-05 9.69009E-06 0.00000E+00
 -1       803-4.16086E-05 5.32442E-06 0.00000E+00
 -1       804-4.43539E-05 3.56433E-06 0.00000E+00
 -1       805-1.62465E-05 1.66115E-06-5.29396E-23
 -1       806 1.41832E-04 1.53628E-05 0.00000E+00
 -1       807 1.42149E-04 1.42023E-05-8.27181E-25
 -1       808 1.42454E-04 1.30727E-05-1.65436E-24
 -1       809 1.42746E-04 1.19769E-05 0.00000E+00
 -1       810 1.43024E-04 1.09173E-05-3.30872E-24
 -1       811 1.43288E-04 9.89665E-06 0.00000E+00
 -1       812 1.43536E-04 8.91753E-06 1.65436E-24
 -1       813 1.43767E-04 7.98250E-06-1.65436E-24
 -1       814 1.43981E-04 7.09414E-06 0.00000E+00
 -1       815 1.44177E-04 6.25500E-06 8.27181E-25
 -1       816 1.44353E-04 5.46767E-06 0.00000E+00
 -1       817 1.44509E-04 4.73468E-06 0.00000E+00
 -1       818 1.44644E-04 4.05860E-06 3.30872E-24
 -1       819 1.44757E-04 3.44197E-06 0.00000E+00
 -1       820 1.44846E-04 2.88731E-06 1.65436E-24
 -1       821 1.42045E-04 1.01458E-06 0.00000E+00
 -1       822 1.41934E-04 1.11760E-07-8.27181E-25
 -1       823 1.41823E-04-8.21438E-07 3.30872E-24
 -1       824 1.41711E-04-1.68704E-06 0.00000E+00
 -1       825 1.41599E-04-2.40258E-06 0.00000E+00
 -1       826 1.41487E-04-2.88631E-06 1.65436E-24
 -1       827 1.41375E-04-3.10943E-06 3.30872E-24
 -1       828 1.41263E-04-3.04440E-06 0.00000E+00
 -1       829 1.41151E-04-2.72949E-06 0.00000E+00
 -1       830 1.41039E-04-2.20418E-06 0.00000E+00
 -1       831 1.40927E-04-1.55601E-06 0.00000E+00
 -1       832 1.40816E-04-8.73091E-07 0.00000E+00
 -1       833 1.40704E-04-2.51524E-07 0.00000E+00
 -1       834 1.40594E-04 2.12943E-07 0.00000E+00
 -1       835 1.40483E-04 4.60298E-07 0.00000E+00
 -1       836 1.42781E-04 1.89025E-06 0.00000E+00
 -1       837 1.43306E-04 1.99368E-06 1.65436E-24
 -1       838 1.43754E-04 2.09698E-06 0.00000E+00
 -1       839 1.44152E-04 2.19965E-06 0.00000E+00
 -1       840 1.44529E-04 2.30215E-06 4.13590E-25
 -1       856 1.40359E-04 3.26813E-07 0.00000E+00
 -1       857 1.40336E-04 3.38205E-07 0.00000E+00
 -1       858 1.40314E-04 4.47652E-07 0.00000E+00
 -1       859 1.40290E-04 6.36917E-07 0.00000E+00
 -1       860 1.40267E-04 8.87675E-07 8.27181E-25
 -1       861 1.40244E-04 1.18156E-06 0.00000E+00
 -1       862 1.40220E-04 1.50017E-06-8.27181E-25
 -1       863 1.40197E-04 1.82507E-06 0.00000E+00
 -1       864 1.40174E-04 2.13782E-06 8.27181E-25
 -1       865 1.40150E-04 2.42001E-06-4.13590E-25
 -1       866 1.40127E-04 2.65324E-06 0.00000E+00
 -1       867 1.40103E-04 2.81915E-06 4.13590E-25
 -1       868 1.40080E-04 2.89945E-06 0.00000E+00
 -1       869 1.40056E-04 2.87590E-06 0.00000E+00
 -1       870 1.40033E-04 2.73041E-06 0.00000E+00
 -1       871 1.40721E-04 4.29495E-07 0.00000E+00
 -1       872 1.41184E-04 4.24700E-07 0.00000E+00
 -1       873 1.41716E-04 4.19396E-07 0.00000E+00
 -1       874 1.42260E-04 4.13481E-07 0.00000E+00
 -1       875 1.42761E-04 4.07046E-07-6.20385E-25
 -1       876 1.40525E-04 3.38431E-07 3.30872E-24
 -1       877 1.40652E-04 3.01977E-07-1.65436E-24
 -1       878 1.40761E-04 3.15452E-07-3.30872E-24
 -1       879 1.40854E-04 3.72547E-07-1.65436E-24
 -1       880 1.40933E-04 4.66902E-07-3.30872E-24
 -1       881 1.41000E-04 5.92203E-07 0.00000E+00
 -1       882 1.41059E-04 7.42146E-07 0.00000E+00
 -1       883 1.41110E-04 9.10434E-07-1.65436E-24
 -1       884 1.41157E-04 1.09077E-06 3.30872E-24
 -1       885 1.41201E-04 1.27688E-06 0.00000E+00
 -1       886 1.41246E-04 1.46246E-06 3.30872E-24
 -1       887 1.41293E-04 1.64120E-06 0.00000E+00
 -1       888 1.41345E-04 1.80680E-06 3.30872E-24
 -1       889 1.41404E-04 1.95283E-06 0.00000E+00
 -1       890 1.41471E-04 2.07303E-06-1.65436E-24
 -1       891 1.40389E-04 2.39707E-06 1.65436E-24
 -1       892 1.40749E-04 2.34908E-06-4.13590E-25
 -1       893 1.41067E-04 2.30114E-06-1.65436E-24
 -1       894 1.41321E-04 2.25335E-06-8.27181E-25
 -1       895 1.41487E-04 2.20570E-06-8.27181E-25
 -1       956 1.44806E-04 2.04220E-06-1.65436E-24
 -1       957 1.44697E-04 1.75743E-06 8.27181E-25
 -1       958 1.44588E-04 1.53476E-06-1.65436E-24
 -1       959 1.44478E-04 1.36566E-06-8.27181E-25
 -1       960 1.44368E-04 1.24162E-06 0.00000E+00
 -1       961 1.44259E-04 1.15405E-06 0.00000E+00
 -1       962 1.44149E-04 1.09439E-06 3.30872E-24
 -1       963 1.44039E-04 1.05405E-06 0.00000E+00
 -1       964 1.43930E-04 1.02445E-06 3.30872E-24
 -1       965 1.43820E-04 9.97008E-07 1.65436E-24
 -1       966 1.43710E-04 9.63129E-07 0.00000E+00
 -1       967 1.43601E-04 9.14236E-07 0.00000E+00
 -1       968 1.43491E-04 8.41749E-07-3.30872E-24
 -1       969 1.43382E-04 7.37117E-07-1.65436E-24
 -1       970 1.43273E-04 5.91802E-07-3.30872E-24
 -1       971 1.43065E-04 2.13315E-07 0.00000E+00
 -1       972 1.42963E-04 1.12948E-07-8.27181E-25
 -1       973 1.42862E-04 8.72447E-08 3.30872E-24
 -1       974 1.42760E-04 1.26582E-07 0.00000E+00
 -1       975 1.42658E-04 2.21346E-07-3.30872E-24
 -1       976 1.42557E-04 3.61885E-07 0.00000E+00
 -1       977 1.42455E-04 5.38551E-07 0.00000E+00
 -1       978 1.42353E-04 7.41678E-07 0.00000E+00
 -1       979 1.42251E-04 9.61599E-07 0.00000E+00
 -1       980 1.42150E-04 1.18865E-06-1.65436E-24
 -1       981 1.42048E-04 1.41315E-06 0.00000E+00
 -1       982 1.41946E-04 1.62544E-06 0.00000E+00
 -1       983 1.41845E-04 1.81585E-06 0.00000E+00
 -1       984 1.41743E-04 1.97473E-06 0.00000E+00
 -1       985 1.41643E-04 2.09242E-06-1.65436E-24
 -3
    1PSTEP                        28          14           1          
  100CL  114 5.67719E-01         409                     0   14           1
 -4  STRESS      6    1
 -5  SXX         1    4    1    1
 -5  SYY         1    4    2    2
 -5  SZZ         1    4    3    3
 -5  SXY         1    4    1    2
 -5  SYZ         1    4    2    3
 -5  SZX         1    4    3    1
 -1         1-3.40697E+06-1.32046E+06-7.44462E+05-1.40243E+06 9.74978E-10-1.35333E-08
 -1         2-9.37126E+02-2.31874E+06-2.46663E+03 3.35376E+04 8.74024E-10 1.92390E-07
 -1         3-6.28786E+02-1.27707E+06 2.86803E+02-1.18533E+03-4.27146E-10-8.20000E-09
 -1         5-8.32139E+00 3.08896E+05 7.87351E+00-2.66390E-01-1.94496E-10 1.79070E-08
 -1         8-8.17884E+05-2.72106E+05-8.37247E+04-3.31671E+05 2.41926E-10 3.70783E-08
 -1         9 7.95937E+06-3.40134E+05 1.41977E+06-8.18946E+05 3.35043E-08 2.02097E-08
 -1        10-1.51626E+03-1.33062E+06-3.32941E+03-8.02388E+03-8.78390E-09-3.72542E-08
 -1        12-5.09978E+00 3.08912E+05 2.55364E+02-1.99869E+00-1.96184E-10-2.33417E-08
 -1        15 1.42023E+03 7.80501E+02 4.59085E+03 2.33059E+00-3.50582E-10-5.17778E-09
 -1        16 1.62824E+07-1.74643E+05 2.30299E+06-1.28318E+06 1.68220E-08 8.69234E-09
 -1        17 6.21437E+06 4.42868E+06 1.76680E+06 4.22172E+06 1.59489E-09 2.82889E-09
 -1        18 3.22471E+04 4.24389E+03-1.67617E+04-8.99212E+04 1.12449E-08-3.84625E-09
 -1        19 9.93500E+04 1.14009E+05-8.21893E+02 1.90017E+04 4.94947E-10-3.26872E-09
 -1        20-5.77347E+04-4.68908E+05-1.04573E+05 2.58347E+04 8.45982E-10 3.39545E-09
 -1        21-4.05230E+01-2.53487E+05-8.01823E+02 6.30782E+01 3.67792E-09 3.38594E-09
 -1        24 9.79514E+06 8.13540E+06 2.72032E+06 7.75515E+06-1.35153E-07-4.77691E-08
 -1        25-5.27365E+04-3.81800E+05-6.70102E+04-2.85503E+05 9.24047E-10 1.07137E-08
 -1        26-4.19382E+04 7.37356E+04-1.97973E+04-1.97343E+03 1.17907E-09-7.63192E-09
 -1        27-6.60117E+04-2.54470E+05-9.40588E+04 5.71453E+04 4.59901E-09-7.15287E-09
 -1        28 1.93324E+04-7.19064E+04 1.44241E+04 1.94622E+04-4.83112E-10 1.09010E-08
 -1        32-1.43404E+06-2.51389E+06-1.31706E+05-1.60918E+05-3.23089E-08-9.33318E-09
 -1        33-1.48650E+05 7.42707E+04 2.63383E+04-3.31279E+04-1.02767E-09 1.51213E-08
 -1        34-1.86439E+05-1.96973E+04 5.29023E+02 6.06472E+04-8.21733E-10 3.48715E-09
 -1        35-1.97764E+04-2.85469E+04-1.12980E+03 4.41430E+04 9.57125E-10 2.33801E-09
 -1        51 3.70217E+04-2.41457E+05 8.18881E+04-7.06448E+05-1.45519E-10-7.93370E-08
 -1        52 1.43965E+04-2.29644E+05 4.56690E+04-8.23697E+05 5.49335E-10-1.79825E-07
 -1        53 5.20171E+03-2.43424E+05 2.81289E+04-7.03898E+05 2.25555E-10-1.58769E-07
 -1        54 1.31247E+04-2.40503E+05 3.18662E+04-8.26369E+05-4.94765E-10-8.83010E-08
 -1        55 2.73288E+04-2.50809E+05 4.90056E+04-7.03514E+05 3.41970E-10 2.33595E-08
 -1        56-6.46376E+06-7.25515E+05-5.50061E+05-2.51459E+06-1.68802E-08 7.08969E-08
 -1        57-6.75721E+06-1.15229E+06-3.71081E+05-2.41000E+06-3.16504E-09 1.66328E-08
 -1        58-6.56170E+06-9.12863E+05-1.29276E+05-2.49407E+06-6.06451E-09 8.91305E-09
 -1        59-6.64643E+06-9.29904E+05-7.71478E+04-2.43183E+06-3.47300E-08-2.31111E-07
 -1        60-6.57297E+06-9.41912E+05-3.01138E+04-2.49469E+06-2.07456E-08 9.23701E-08
 -1        61-6.63013E+06-8.98939E+05-1.71144E+04-2.43456E+06 2.67078E-08 5.90489E-08
 -1        62-6.57764E+06-9.43025E+05-8.23489E+03-2.49154E+06-3.45592E-08-5.26989E-08
 -1        63-6.61696E+06-9.05781E+05-6.72600E+03-2.44665E+06-1.30278E-08-5.11527E-08
 -1        64-6.58585E+06-9.35135E+05-7.81321E+03-2.48245E+06-4.38195E-09-8.29900E-08
 -1        65-6.59987E+06-9.27682E+05-1.55318E+04-2.46739E+06-5.45242E-09-6.30939E-09
 -1        66-6.59459E+06-9.21335E+05-2.74578E+04-2.47064E+06 1.48520E-08-1.77197E-08
 -1        67-6.59619E+06-9.74362E+05-6.98112E+04-2.48648E+06-1.59853E-08 1.62698E-07
 -1        68-6.58998E+06-8.89096E+05-1.17093E+05-2.46327E+06 1.08139E-08-5.05024E-08
 -1        69-6.69483E+06-1.17830E+06-3.36058E+05-2.47041E+06 7.19592E-09-1.91441E-07
 -1        70-6.49790E+06-7.22511E+05-4.98075E+05-2.48534E+06-2.08020E-08-7.89296E-08
 -1        86 2.17254E+02-2.33365E+06-6.12083E+03-1.67677E+04-5.76688E-09 6.02508E-08
 -1        87-4.07983E+03-2.32630E+06-9.28907E+03 5.35954E+04-9.68066E-09 8.56170E-09
 -1        88 3.92807E+03-2.32667E+06-1.58506E+04-3.68270E+04-8.81937E-09-1.20494E-07
 -1        89-2.89588E+04-2.34049E+06-4.21712E+04 6.41707E+04-1.32618E-08-2.44023E-07
 -1        90 2.52505E+04-2.31977E+06-6.12630E+04-2.73449E+04-5.45697E-09-9.96708E-08
 -1       121-8.78354E+02-1.27924E+06-1.00974E+02 5.89958E+02 9.20323E-10-3.05554E-08
 -1       122-5.09381E+02-1.27706E+06 5.81244E+02-2.36967E+03-3.55290E-09-7.27596E-10
 -1       123-9.25460E+02-1.27933E+06 5.38219E+02 1.76357E+03 2.91311E-09-8.95307E-09
 -1       124 7.36356E+02-1.27649E+06 2.34848E+03-5.02764E+03-6.85395E-09-7.95080E-09
 -1       125-1.64647E+03-1.28002E+06 3.09050E+03 3.23581E+03 4.14093E-09-7.15227E-09
 -1       191-8.99603E+00 3.08921E+05 9.27805E+00 1.34359E-01-1.69681E-10 1.69830E-08
 -1       192-9.04657E+00 3.08896E+05 1.66767E+01-1.06379E+00-2.13314E-10 2.83489E-08
 -1       193-1.09231E+01 3.08921E+05 3.08843E+01 9.37176E-01-4.01780E-10 3.97904E-09
 -1       194-1.13797E+01 3.08899E+05 6.30927E+01-2.49649E+00-1.77565E-10-4.53747E-09
 -1       195-1.46260E+01 3.08919E+05 1.23281E+02 1.57903E+00-4.46182E-10-1.47566E-08
 -1       251-1.85500E+06-7.96260E+03-1.46167E+05-1.03405E+05 1.79352E-09 3.57868E-08
 -1       252-1.30936E+06 1.15091E+04 1.00570E+04 3.20284E+05 2.91038E-10 6.65168E-08
 -1       253-1.60888E+06-6.58584E+03-2.71456E+04-2.14596E+05-4.44470E-09-3.40297E-08
 -1       254-1.56259E+06 3.42168E+04 8.35225E+02 4.24684E+05-1.41023E-08 1.63704E-07
 -1       255-1.62732E+06-9.81833E+03-1.46572E+04-2.09599E+05 4.98585E-09 2.23512E-07
 -1       256-1.26109E+06 2.90486E+04 6.52624E+04 3.01078E+05 3.58159E-09 2.09943E-07
 -1       257-1.88097E+06-2.52978E+04-6.55521E+04-8.90479E+04 3.09283E-08 5.27311E-08
 -1       258-9.85544E+05 2.25222E+04 1.18182E+05-4.26982E+03 1.64691E-08-1.07416E-07
 -1       259-1.87585E+06-2.52214E+04-6.33887E+04 9.44643E+04-1.03792E-08-1.81562E-07
 -1       260-1.27256E+06 3.06357E+04 6.61733E+04-3.06415E+05-4.17022E-08-2.71132E-07
 -1       261-1.62213E+06-1.05501E+04-7.93182E+03 2.11963E+05 6.17429E-08-1.70610E-09
 -1       262-1.56029E+06 4.11884E+04 1.45110E+04-4.23902E+05-5.06261E-08 1.20863E-07
 -1       263-1.61641E+06-1.27627E+04-6.13000E+03 2.13884E+05 1.96287E-08 2.51788E-08
 -1       264-1.27837E+06 5.38501E+04 7.24624E+04-3.14326E+05 9.08481E-08-3.64162E-08
 -1       265-1.87726E+06-4.49094E+04-6.18401E+04 1.00516E+05 3.27800E-08 7.81529E-09
 -1       266-2.57106E+04-1.20221E+04 6.03253E+04-4.98679E+01-5.45697E-11 8.04438E-08
 -1       267 2.98058E+04 1.40123E+04 4.26366E+04 5.75366E+01 5.13865E-11-8.21347E-08
 -1       268-3.99689E+03-1.98450E+03 1.58479E+04-7.33123E+00-2.72848E-12-4.90274E-08
 -1       269 4.71918E+03 2.37507E+03 1.03008E+04 8.53973E+00-2.04636E-10-7.57428E-08
 -1       270-7.08342E+02-3.90230E+02 4.97236E+03-1.15891E+00-9.76570E-11 5.36874E-09
 -1       271-2.34257E+06-2.85448E+05-1.75075E+05-9.01699E+05 6.62840E-09-1.58776E-07
 -1       272-2.44735E+06-3.72401E+05-1.12726E+05-8.53830E+05-1.00695E-08-2.71482E-07
 -1       273-2.37456E+06-3.30233E+05-4.13242E+04-8.94974E+05-1.67752E-08-6.41630E-08
 -1       274-2.40942E+06-3.17806E+05-2.31865E+04-8.64183E+05 9.90713E-09-5.52991E-08
 -1       275-2.37939E+06-3.34598E+05-9.63714E+03-8.93263E+05 2.04495E-08-2.79260E-08
 -1       276-2.40238E+06-3.13716E+05-5.07789E+03-8.67500E+05-1.96123E-08-1.00178E-07
 -1       277-2.38122E+06-3.33934E+05-2.54703E+03-8.91660E+05 1.06047E-08 8.95843E-08
 -1       278-2.39857E+06-3.16084E+05-1.68732E+03-8.70824E+05 6.07474E-08 1.62014E-07
 -1       279-2.38288E+06-3.32369E+05-1.89091E+03-8.89743E+05 3.18323E-11-9.78534E-08
 -1       280-2.39505E+06-3.20023E+05-3.11284E+03-8.74698E+05 6.21367E-09 4.93710E-08
 -1       281-2.38449E+06-3.30187E+05-5.88557E+03-8.87593E+05-8.86939E-09-1.14299E-07
 -1       282-2.39359E+06-3.27776E+05-1.36667E+04-8.78617E+05-2.13577E-08 1.26227E-07
 -1       283-2.38423E+06-3.25065E+05-2.45852E+04-8.85584E+05-1.54614E-09-4.52119E-08
 -1       284-2.41067E+06-3.65180E+05-6.65272E+04-8.78354E+05-8.99217E-09-2.78186E-07
 -1       285-2.36787E+06-2.96139E+05-1.03654E+05-8.86631E+05 3.31784E-09 1.66132E-07
 -1       301 1.38876E+04-4.30854E+05 1.24510E+05-7.41841E+05 9.96806E-10-2.67391E-09
 -1       302 1.57105E+04-3.99704E+05 7.92705E+04-1.08610E+06-2.47383E-10-6.35328E-08
 -1       303-1.96329E+03-4.18659E+05 5.48366E+04-7.40505E+05 1.60071E-10 1.90208E-07
 -1       304 9.65588E+03-3.92826E+05 7.30584E+04-1.08474E+06 1.89175E-10 6.30607E-08
 -1       305 3.86215E+03-4.18341E+05 1.09474E+05-7.43202E+05-6.12999E-10 6.36937E-08
 -1       306-2.50063E+07-4.42351E+06-6.45678E+06-1.52629E+06-1.23517E-07 8.35862E-08
 -1       307 2.15319E+07 1.41779E+06 4.63171E+06-9.75302E+06-4.95827E-07-7.86240E-08
 -1       308-7.19801E+06-4.88139E+05-6.10125E+05 3.98196E+06 6.06233E-08-5.68252E-09
 -1       309-9.80628E+05 4.35488E+06 1.65103E+06-1.55868E+07 2.08427E-07-9.77416E-08
 -1       310-9.87774E+06-7.88790E+05-1.24637E+06 3.88465E+06-2.35392E-07-1.51216E-07
 -1       311 2.68990E+07-1.41144E+05 5.46063E+06-6.72782E+06 2.74595E-07 1.67303E-07
 -1       312-2.56518E+07-4.27105E+06-6.05035E+06-3.73064E+06 2.60188E-08-2.16532E-08
 -1       313 3.59174E+07 9.32521E+06 8.50064E+06 1.60560E+07-1.95956E-07 6.18747E-08
 -1       314-1.59058E+07-1.22700E+07-5.60743E+06-1.06422E+07 1.69966E-07 7.42148E-08
 -1       315 1.54672E+06 2.03345E+07 4.66284E+06 1.05693E+07 1.52795E-09-5.09783E-07
 -1       316 1.44963E+05-7.95211E+06-5.45016E+05-3.42376E+06 4.33691E-07-5.64061E-07
 -1       317-1.38992E+07 1.72247E+07 1.63129E+06-3.00873E+06 1.15535E-07-8.12361E-07
 -1       318-1.24985E+06-9.24037E+06-1.32963E+06-4.30373E+06-9.12347E-07-2.74158E-08
 -1       319 6.27633E+06 2.15449E+07 5.37070E+06 1.28011E+07-7.15852E-07 5.92263E-08
 -1       320-1.86135E+07-1.26012E+07-7.02632E+06-1.05436E+07-3.02214E-07-4.66825E-08
 -1       336 2.69400E+02-1.38476E+06-1.10406E+04 4.74066E+03-1.70357E-08 8.40373E-10
 -1       337-4.35771E+03-1.38617E+06-1.51901E+04-1.15829E+04-3.17422E-08-9.06039E-09
 -1       338 1.00487E+03-1.38421E+06-2.35261E+04 6.76474E+03-2.26246E-08-1.95541E-08
 -1       339-2.56867E+04-1.39990E+06-5.41704E+04-1.55785E+04-4.23743E-08-6.56291E-09
 -1       340 1.73737E+04-1.37183E+06-8.49112E+04 8.65978E+03-2.74267E-08 2.42471E-08
 -1       406 1.42763E+01 3.08907E+05 5.04010E+02 4.48855E-01-6.10839E-10-1.03591E-08
 -1       407 1.70695E+02 3.09000E+05 1.07148E+03 8.64604E+00-2.07848E-10 1.15824E-09
 -1       408 5.46367E+02 3.08830E+05 2.13976E+03-9.31690E+00-8.28436E-10-9.95715E-09
 -1       409 2.30908E+03 3.09684E+05 4.81741E+03 9.34359E+01-1.58906E-10-1.20631E-08
 -1       410 6.64348E+03 3.08221E+05 9.83439E+03-8.84327E+01-9.81800E-10-2.49702E-09
 -1       521-2.62604E+07-6.03972E+06-7.80077E+06-1.19795E+06-9.95351E-08 1.13563E-07
 -1       522 2.03307E+07 1.64464E+06 4.34062E+06-1.42022E+07-4.67495E-07-2.15252E-07
 -1       523-8.93034E+06-7.39003E+05-5.76423E+05 4.46453E+06 1.10624E-07-2.60421E-07
 -1       524-6.31324E+06 6.88084E+06 1.66823E+06-2.01660E+07 6.64397E-07-5.05690E-07
 -1       525-1.15549E+07-1.26428E+06-1.28629E+06 4.28362E+06 5.49364E-07-3.37022E-07
 -1       526 2.73181E+07-5.25062E+05 5.41803E+06-1.05382E+07 1.94646E-07-4.31028E-08
 -1       527-2.70944E+07-6.19213E+06-7.12924E+06-3.45641E+06 1.22585E-07 9.58971E-08
 -1       528 3.77725E+07 9.56955E+06 8.37716E+06 1.77238E+07 2.34228E-07-2.35217E-07
 -1       529-1.70578E+07-1.42644E+07-6.55498E+06-1.04680E+07-3.09665E-08-9.30158E-08
 -1       530-3.09475E+06 2.45348E+07 4.65789E+06 9.92732E+06-3.01989E-07 4.39235E-07
 -1       531-4.01905E+05-9.57472E+06-4.81311E+05-4.12581E+06-6.70625E-07 2.55328E-07
 -1       532-1.97305E+07 2.02085E+07 1.66184E+06-7.32677E+06 3.52447E-07-5.03802E-07
 -1       533-1.73150E+06-1.06944E+07-1.34355E+06-4.79811E+06-1.91649E-07-8.56584E-07
 -1       534 1.86096E+06 2.55207E+07 5.13592E+06 1.26372E+07-6.74117E-08 6.64353E-07
 -1       535-1.97426E+07-1.46558E+07-8.36198E+06-1.03316E+07 5.28526E-08 3.90981E-07
 -1       536-5.25260E+05-2.06043E+04-2.26539E+04-3.15174E+04-3.22871E-09 3.63743E-08
 -1       537-2.31641E+05 1.94323E+04 3.71421E+04 7.69536E+04-7.58744E-08 5.75714E-08
 -1       538-3.83652E+05 1.77842E+03 1.54530E+03-4.71483E+04 2.55278E-08 7.46043E-08
 -1       539-3.28060E+05 6.78278E+02 1.09354E+04 8.86649E+04 1.11623E-07 7.53273E-08
 -1       540-4.31233E+05 1.16203E+02-9.73210E+03-4.33860E+04 3.08482E-08 6.63353E-08
 -1       541-1.35415E+05 7.58864E+03 4.88405E+04 5.81640E+04 4.83487E-09 6.84932E-08
 -1       542-5.71166E+05-9.36494E+03-3.89942E+04-1.63860E+04 4.24357E-08 1.73539E-08
 -1       543-1.87598E+04 1.25395E+04 7.20336E+04-9.34618E+03-6.56428E-10-1.33839E-08
 -1       544-5.44797E+05-7.37740E+03-3.42207E+04 2.39143E+04-1.27143E-08-2.20774E-08
 -1       545-1.95386E+05 3.69829E+03 3.47031E+04-7.06382E+04 9.68191E-09-4.22340E-08
 -1       546-3.99225E+05 3.32489E+03-6.51829E+03 4.48118E+04 8.07859E-09-5.24883E-08
 -1       547-3.37845E+05-4.30255E+03 8.05919E+02-9.07456E+04-7.95491E-08-7.63582E-08
 -1       548-4.06102E+05 3.72948E+03-1.68760E+04 4.42297E+04-7.97922E-08-7.14790E-08
 -1       549-1.83928E+05-3.83818E+03 1.24821E+04-6.76511E+04-5.20334E-08-4.73397E-08
 -1       550-5.48960E+05-5.95113E+02-8.18432E+04 2.14946E+04 4.16503E-09-2.89147E-08
 -1       551 1.65976E+04-5.61673E+05-7.93258E+03-8.78844E+05-6.82921E-08-1.00845E-08
 -1       552 4.38659E+04-5.83422E+05 1.19641E+04-1.25152E+06-4.82833E-08 1.65819E-08
 -1       553 3.44100E+04-5.85508E+05 3.26573E+04-8.74520E+05-8.24803E-08 9.47330E-09
 -1       554 7.48892E+04-5.86151E+05 7.99806E+04-1.25381E+06-5.46352E-08-2.92312E-09
 -1       555 6.32304E+04-6.08079E+05 1.47052E+05-8.74120E+05-8.75152E-08-1.83510E-08
 -1       556 1.53119E+05-2.75812E+05 2.45043E+04-3.12369E+05-1.68366E-08-1.57161E-08
 -1       557 2.47636E+05-3.55594E+05 1.41372E+04-4.02607E+05-4.36557E-10-4.39286E-09
 -1       558 1.43529E+05-2.73239E+05 3.77916E+03-3.12573E+05-1.01572E-08-2.84490E-09
 -1       559 2.33923E+05-3.57616E+05 2.52383E+03-4.13906E+05 2.25118E-08-2.13549E-09
 -1       560 1.35602E+05-2.68208E+05-7.11545E+01-3.18071E+05 4.87489E-09 4.34011E-09
 -1       561 2.23998E+05-3.53730E+05 3.99360E+02-4.20599E+05 2.10275E-09 5.44060E-09
 -1       562 1.29476E+05-2.64377E+05-4.20603E+02-3.22449E+05 7.37782E-09 1.43882E-09
 -1       563 2.16844E+05-3.50597E+05 9.90542E+01-4.25230E+05 6.97037E-09-1.19544E-08
 -1       564 1.25288E+05-2.61761E+05-1.75725E+02-3.25401E+05 8.00355E-09 3.98450E-09
 -1       565 2.12382E+05-3.48657E+05 6.76576E+01-4.28067E+05 5.86078E-09-9.86802E-10
 -1       566 1.23091E+05-2.60364E+05-6.83589E+01-3.26941E+05-3.21961E-09-1.67165E-08
 -1       567 2.10619E+05-3.47881E+05-1.57906E+02-4.29086E+05 1.64418E-08 8.30551E-09
 -1       568 1.22936E+05-2.60282E+05-5.73608E+02-3.27141E+05-2.85490E-09 4.11455E-09
 -1       569 2.10533E+05-3.47826E+05-1.43356E+03-4.27432E+05-8.28004E-09 9.74615E-09
 -1       570 1.25644E+05-2.62637E+05-3.24070E+03-3.26566E+05 2.83762E-09 8.90395E-10
 -1       571 2.34522E+05 8.57351E+03 1.25083E+04-6.67047E+04 8.67203E-10 2.77055E-09
 -1       572 2.36365E+05 3.08468E+03 6.12892E+03-7.31778E+04 4.14002E-09 5.59521E-09
 -1       573 2.35261E+05 8.36638E+02 2.72307E+03-6.65676E+04 2.58387E-09 2.06933E-08
 -1       574 2.35466E+05 3.79683E+02 1.36488E+03-7.33418E+04 1.53204E-09 2.04227E-09
 -1       575 2.35344E+05 1.68212E+02 6.43904E+02-6.65491E+04 6.51255E-09-8.82983E-09
 -1       576 2.35349E+05 1.57830E+02 3.29005E+02-7.33636E+04 1.16188E-08-3.65617E-10
 -1       577 2.35367E+05 1.26097E+02 1.63920E+02-6.65466E+04 6.82394E-09-5.10545E-09
 -1       578 2.35354E+05 1.37356E+02 9.35061E+01-7.33664E+04-3.00861E-09-1.81353E-09
 -1       579 2.35401E+05 1.11374E+02 6.37057E+01-6.65464E+04 3.91628E-09-9.05584E-09
 -1       580 2.35401E+05 1.15610E+02 7.15247E+01-7.33626E+04-1.15324E-09-4.19732E-09
 -1       581 2.35454E+05 8.73373E+01 1.08482E+02-6.65506E+04 5.25142E-09 1.63436E-09
 -1       582 2.35491E+05 1.12157E+02 2.17491E+02-7.33196E+04 3.01316E-09-3.78395E-09
 -1       583 2.35514E+05 1.48719E+02 4.20857E+02-6.65896E+04 6.07542E-10 5.87102E-09
 -1       584 2.35722E+05 4.87025E+02 9.48363E+02-7.29919E+04-1.53523E-09 2.57614E-10
 -1       585 2.35481E+05 1.31085E+03 1.92566E+03-6.68783E+04-2.79215E-09-1.85719E-09
 -1       586-2.90049E+03 8.26207E+04-3.17925E+03-2.08093E+05-2.10912E-09 1.33432E-08
 -1       587-8.42302E+02 8.22659E+04 1.66145E+02-2.29049E+05-2.89219E-09 3.07227E-08
 -1       588 6.38998E+02 8.22394E+04 3.53670E+03-2.07994E+05-2.26282E-09 2.99779E-08
 -1       589 4.38282E+03 8.41221E+04 9.58029E+03-2.28814E+05-4.82032E-09-6.10999E-09
 -1       590 1.33958E+04 8.11775E+04 2.02575E+04-2.08354E+05-2.20462E-09 1.19053E-08
 -1       591-5.14741E+04-1.22699E+04-1.69307E+04-2.34484E+04-2.64959E-09-1.32350E-08
 -1       592-5.41328E+04-1.53573E+04-9.17077E+03-2.66432E+04-4.59329E-09-1.64690E-08
 -1       593-5.31705E+04-1.10380E+04-3.81750E+03-2.46867E+04-4.80014E-10 5.15001E-10
 -1       594-5.17896E+04-1.28790E+04-1.90395E+03-2.67389E+04 2.02795E-09-3.54609E-09
 -1       595-5.33000E+04-1.10336E+04-8.74391E+02-2.47430E+04-2.27669E-09-2.90572E-09
 -1       596-5.16296E+04-1.27656E+04-4.44845E+02-2.67204E+04 3.52026E-09 1.42202E-08
 -1       597-5.33162E+04-1.10450E+04-2.42939E+02-2.47451E+04 7.52692E-10 5.18332E-09
 -1       598-5.16139E+04-1.27612E+04-1.96598E+02-2.67153E+04-3.11479E-09-9.53753E-09
 -1       599-5.33152E+04-1.10453E+04-2.52745E+02-2.47448E+04-7.47036E-10-1.36008E-08
 -1       600-5.16301E+04-1.27664E+04-4.70823E+02-2.67192E+04 3.20824E-09 1.37537E-08
 -1       601-5.32960E+04-1.10340E+04-9.29483E+02-2.47419E+04 2.42539E-09 1.00556E-08
 -1       602-5.18002E+04-1.28864E+04-2.02609E+03-2.67362E+04 4.08136E-10-8.97580E-09
 -1       603-5.31562E+04-1.10408E+04-4.06330E+03-2.46825E+04 3.36513E-11 5.25461E-09
 -1       604-5.43077E+04-1.55094E+04-9.76091E+03-2.66155E+04 1.62424E-09 1.07214E-08
 -1       605-5.13349E+04-1.23656E+04-1.80202E+04-2.33793E+04 3.74257E-10 1.42518E-09
 -1       606 2.57752E+04-1.13343E+04-2.03553E+04 2.43424E+04-1.99452E-09 5.01814E-09
 -1       607 2.22938E+04-3.68331E+03-1.01364E+04 2.73372E+04-1.87356E-09-5.52973E-10
 -1       608 2.42743E+04-6.46977E+02-4.53835E+03 2.41566E+04-5.45151E-09 7.27346E-09
 -1       609 2.38886E+04-2.00754E+02-2.29245E+03 2.75524E+04-1.33477E-08 2.73840E-08
 -1       610 2.40994E+04-7.05328E+00-1.09425E+03 2.41354E+04-9.58607E-10 4.90741E-09
 -1       611 2.40336E+04-9.07678E-01-5.51718E+02 2.75758E+04 1.53577E-08-1.01718E-08
 -1       612 2.40573E+04 6.81024E+00-2.62845E+02 2.41333E+04 8.34370E-09 3.04203E-09
 -1       613 2.40378E+04 5.11896E+00-1.18290E+02 2.75786E+04 1.05501E-09-1.10363E-08
 -1       614 2.40359E+04 4.17976E+00-2.92225E+01 2.41326E+04 2.49838E-09-1.56206E-10
 -1       615 2.40297E+04 8.47194E+00 4.61648E+01 2.75790E+04 1.22054E-09-1.25704E-08
 -1       616 2.40194E+04 8.44082E+00 1.41544E+02 2.41328E+04 7.33962E-09-3.72643E-09
 -1       617 2.40437E+04 4.04523E+01 3.24259E+02 2.75785E+04 2.03800E-08 1.17602E-08
 -1       618 2.39890E+04 1.03313E+02 6.54018E+02 2.41330E+04 1.01841E-08-3.45517E-09
 -1       619 2.42728E+04 5.47287E+02 1.46898E+03 2.75778E+04-1.16802E-09 1.06911E-09
 -1       620 2.37707E+04 1.65522E+03 2.95265E+03 2.41327E+04 2.69392E-09 1.19194E-08
 -1       621 3.02994E+02 2.39314E+05 2.65935E+03 2.26587E+04 4.48608E-10 2.30239E-09
 -1       622 3.83422E+02 2.39953E+05 2.46422E+03 3.29419E+04 6.22094E-10 1.02393E-08
 -1       623 4.36900E+01 2.39455E+05 3.09952E+03 2.25522E+04 5.65763E-10 3.03771E-09
 -1       624 1.52108E+03 2.40963E+05 6.11980E+03 3.30494E+04 3.55556E-10 3.61888E-09
 -1       625 1.51765E+03 2.38246E+05 1.07481E+04 2.25493E+04 5.71163E-10-1.81024E-09
 -1       626 2.11456E+05 5.33621E+04 4.51519E+03 1.07163E+05 2.04500E-09-4.57658E-09
 -1       627 2.09227E+05 5.47795E+04 2.17574E+03 1.11134E+05 1.13050E-09 6.02802E-09
 -1       628 2.11582E+05 5.12787E+04 9.19709E+02 1.07909E+05-3.91447E-09 1.34537E-09
 -1       629 2.08642E+05 5.42024E+04 4.50143E+02 1.11367E+05-9.91349E-10 1.39750E-10
 -1       630 2.11594E+05 5.11789E+04 2.08275E+02 1.07937E+05 1.78898E-09 5.60559E-09
 -1       631 2.08577E+05 5.41828E+04 1.11347E+02 1.11368E+05 4.28463E-09 2.54363E-08
 -1       632 2.11588E+05 5.11841E+04 7.20136E+01 1.07931E+05 1.97815E-10-1.46392E-08
 -1       633 2.08567E+05 5.41863E+04 7.82732E+01 1.11363E+05 2.06546E-09-4.64684E-09
 -1       634 2.11581E+05 5.11834E+04 1.24770E+02 1.07929E+05-4.59522E-10 3.72165E-09
 -1       635 2.08576E+05 5.41862E+04 2.51477E+02 1.11365E+05-4.92872E-09 1.70144E-09
 -1       636 2.11571E+05 5.11803E+04 5.07337E+02 1.07927E+05 2.22781E-09 1.71021E-08
 -1       637 2.08683E+05 5.42658E+04 1.11498E+03 1.11363E+05-1.87401E-09 5.50926E-09
 -1       638 2.11530E+05 5.14275E+04 2.29097E+03 1.07815E+05 9.48899E-09 5.64751E-09
 -1       639 2.09885E+05 5.59392E+04 5.42011E+03 1.11007E+05 2.19977E-08 1.06077E-08
 -1       640 2.11366E+05 5.64215E+04 1.12478E+04 1.05704E+05 9.43328E-09-8.57494E-09
 -1       656 5.49704E+04-1.40110E+06-1.32705E+05-1.14875E+03 1.30967E-10-7.32726E-09
 -1       657-7.26955E+04-1.46104E+06-1.09877E+05 6.48768E+03-6.63931E-11-1.53557E-08
 -1       658 1.74961E+04-1.41815E+06-6.75964E+04-2.65485E+03 2.83535E-10 6.02044E-09
 -1       659-7.84015E+04-1.46375E+06-1.17373E+05 7.63436E+03-9.03128E-10 5.43437E-10
 -1       660 6.06631E+04-1.39840E+06-1.45596E+05-2.29541E+03-1.09139E-09 8.79467E-09
 -1       661 1.55239E+05 1.65684E+04 1.56772E+04 6.06998E+04-5.36147E-10-3.68345E-09
 -1       662 1.63811E+05 2.84636E+04 1.05646E+04 5.75138E+04 4.84249E-10-1.47036E-08
 -1       663 1.58315E+05 2.16002E+04 3.69521E+03 5.98092E+04-3.65617E-10-4.46789E-09
 -1       664 1.60248E+05 2.25765E+04 2.20991E+03 5.85992E+04-2.56685E-09-1.21954E-08
 -1       665 1.58779E+05 2.22901E+04 8.71821E+02 5.96764E+04 9.69692E-10-1.22786E-08
 -1       666 1.59701E+05 2.17853E+04 5.09478E+02 5.87708E+04 4.62705E-10 9.55912E-09
 -1       667 1.58858E+05 2.23707E+04 2.69915E+02 5.96452E+04-1.42336E-09 1.40100E-09
 -1       668 1.59615E+05 2.17244E+04 2.73311E+02 5.88159E+04-9.70431E-10 3.85084E-09
 -1       669 1.58864E+05 2.23492E+04 3.68681E+02 5.96318E+04 1.08261E-09 2.57355E-08
 -1       670 1.59707E+05 2.19218E+04 8.01492E+02 5.88164E+04-2.55734E-09-2.15563E-09
 -1       671 1.58767E+05 2.21774E+04 1.42270E+03 5.96430E+04 1.81669E-09-7.19638E-09
 -1       672 1.60537E+05 2.33048E+04 3.63959E+03 5.86146E+04-2.24887E-11-1.37487E-09
 -1       673 1.58039E+05 2.10011E+04 6.09926E+03 5.98202E+04 1.84707E-09 7.50106E-10
 -1       674 1.66344E+05 3.31017E+04 1.74426E+04 5.69067E+04-3.06881E-09-3.93607E-09
 -1       675 1.52997E+05 1.26546E+04 2.58907E+04 6.12478E+04-2.57978E-09-6.96855E-09
 -1       676 2.08157E+01-2.53420E+05-9.66405E+02-3.15398E+01 1.46230E-10-4.90797E-09
 -1       677-2.56583E+02-2.53653E+05-1.76866E+03 6.30403E+01 2.01487E-09 2.01559E-09
 -1       678 1.71334E+02-2.53254E+05-3.12653E+03-3.14791E+01 4.90218E-10 4.20395E-09
 -1       679-3.12737E+03-2.55541E+05-7.42718E+03 6.28048E+01 2.20643E-09-6.99569E-09
 -1       680 1.86647E+03-2.51534E+05-1.19701E+04-3.09513E+01 2.01453E-10 2.19573E-09
 -1       771-2.65570E+06-5.94006E+05-1.21792E+05-1.22975E+06-2.17988E-08-1.68511E-08
 -1       772-2.60425E+06-6.63474E+05-6.36702E+04-1.30915E+06-1.65164E-08 8.41464E-09
 -1       773-2.67698E+06-5.77393E+05-3.06359E+04-1.23889E+06-1.02737E-08 7.39965E-09
 -1       774-2.59364E+06-6.49618E+05-1.40629E+04-1.32429E+06 1.40572E-08-2.44472E-09
 -1       775-2.68633E+06-5.70883E+05-9.31972E+03-1.24232E+06-9.31323E-09 3.65253E-09
 -1       776-2.59943E+06-6.48189E+05-3.68659E+03-1.33499E+06-1.18089E-08 6.60657E-09
 -1       777-2.69409E+06-5.65265E+05-3.69884E+03-1.24526E+06-7.11589E-09 4.73665E-09
 -1       778-2.60569E+06-6.47081E+05-1.12021E+03-1.34408E+06-1.76806E-09 1.71167E-08
 -1       779-2.70063E+06-5.60430E+05-1.72152E+03-1.24777E+06-8.87667E-09-3.35422E-09
 -1       780-2.61117E+06-6.46047E+05-3.05784E+02-1.35146E+06-3.28873E-09-1.01863E-10
 -1       781-2.70576E+06-5.56574E+05-6.38801E+02-1.24972E+06-2.04018E-08 6.38465E-10
 -1       782-2.61535E+06-6.45160E+05 2.39426E+02-1.35688E+06-2.83908E-08-4.42651E-09
 -1       783-2.70934E+06-5.53928E+05 3.91041E+02-1.25108E+06-6.56291E-09-9.82118E-09
 -1       784-2.61760E+06-6.44153E+05 1.55932E+03-1.36021E+06-1.33714E-08 1.11004E-09
 -1       785-2.71144E+06-5.52361E+05 2.75913E+03-1.25198E+06-2.59897E-08 5.17775E-09
 -1       786 1.13980E+05-8.65312E+03 2.00185E+04-1.63637E+02 8.40005E-10 9.92623E-09
 -1       787 1.22661E+05 1.00177E+04 1.41625E+04-7.95086E+00 3.66406E-09-2.82853E-09
 -1       788 1.17327E+05-1.35630E+03 5.17957E+03-1.37481E+02 1.84883E-09 7.43557E-09
 -1       789 1.18762E+05 1.56925E+03 3.25208E+03-4.97443E+01-3.94886E-10 1.10961E-08
 -1       790 1.17880E+05-2.11527E+02 1.31783E+03-1.21851E+02-2.21722E-09 2.47292E-09
 -1       791 1.18116E+05 2.44368E+02 7.63384E+02-7.68560E+01-1.83988E-09 1.16387E-09
 -1       792 1.17974E+05-3.24128E+01 3.27924E+02-1.10370E+02-2.16562E-09-6.13832E-09
 -1       793 1.18005E+05 3.57913E+01 1.73231E+02-9.83519E+01-6.11555E-10-2.37286E-09
 -1       794 1.17991E+05-3.08126E+00 6.46005E+01-1.00355E+02 1.81888E-09-4.75932E-09
 -1       795 1.17980E+05-7.90896E+00 1.37120E+00-1.18887E+02-1.56891E-09 9.04258E-09
 -1       796 1.17999E+05 1.12646E+01-5.36351E+01-8.98344E+01 1.61653E-09 3.63519E-09
 -1       797 1.17940E+05-8.75129E+01-1.72533E+02-1.42458E+02 2.31029E-09 1.09341E-08
 -1       798 1.18030E+05 7.64630E+01-2.87162E+02-7.67836E+01 1.21761E-09 8.21457E-09
 -1       799 1.17720E+05-5.64742E+02-7.96182E+02-1.73702E+02 2.53252E-09 2.98114E-09
 -1       800 1.18219E+05 4.88100E+02-1.12839E+03-5.85903E+01 5.33707E-10 3.15327E-09
 -1       801 2.94031E+04-5.74518E+06-6.87463E+05 4.90386E+05 5.52682E-08-2.97277E-08
 -1       802 1.20685E+05-5.83311E+05 5.39983E+05-5.35910E+05 1.53876E-07-2.54408E-08
 -1       803-1.48018E+05-6.79134E+06-6.25867E+05 3.40325E+05 5.34164E-08 1.97124E-08
 -1       804 3.41106E+04-1.94334E+06 3.77439E+05 3.27575E+05-5.33028E-08-4.12947E-08
 -1       805 9.31087E+04-4.39598E+06-1.15396E+05-3.71727E+05-2.24827E-08-2.66177E-08
 -1       806-2.55718E+05-4.81465E+04-1.85133E+04-9.98035E+04-1.86537E-09-4.98812E-09
 -1       807-2.57373E+05-4.49253E+04-9.09539E+03-1.04061E+05 5.24528E-09 2.38542E-09
 -1       808-2.56212E+05-4.14892E+04-3.85869E+03-1.02975E+05-1.55933E-09 2.76248E-09
 -1       809-2.55471E+05-4.23609E+04-1.88686E+03-1.04275E+05-5.71640E-09 3.07364E-09
 -1       810-2.56289E+05-4.12572E+04-8.64802E+02-1.03117E+05 9.59517E-10 4.04611E-09
 -1       811-2.55325E+05-4.22568E+04-4.30080E+02-1.04247E+05 4.76939E-09-9.00843E-09
 -1       812-2.56302E+05-4.12765E+04-2.17417E+02-1.03117E+05 8.41283E-11-4.61114E-09
 -1       813-2.55306E+05-4.22578E+04-1.41278E+02-1.04233E+05-6.41194E-10-7.85042E-09
 -1       814-2.56298E+05-4.12831E+04-1.39786E+02-1.03115E+05 5.28053E-09 2.12726E-08
 -1       815-2.55311E+05-4.22591E+04-2.25414E+02-1.04229E+05-2.22371E-10-8.65930E-09
 -1       816-2.56284E+05-4.12810E+04-4.26980E+02-1.03113E+05 1.45519E-09 1.25506E-08
 -1       817-2.55386E+05-4.22993E+04-9.16926E+02-1.04222E+05-2.57205E-09 1.43839E-08
 -1       818-2.56231E+05-4.14084E+04-1.86990E+03-1.03053E+05 1.00590E-09 8.81982E-09
 -1       819-2.56409E+05-4.34315E+04-4.40066E+03-1.03986E+05-1.32604E-09-1.36242E-08
 -1       820-2.55887E+05-4.47261E+04-8.95648E+03-1.01627E+05-4.27463E-09-8.63713E-09
 -1       821-3.12221E+05 1.72361E+04-3.98645E+04 5.75175E+02 1.55436E-07-7.03949E-09
 -1       822-3.29485E+05-1.99532E+04-2.82081E+04-1.07703E+03 3.21530E-07 1.20767E-08
 -1       823-3.18880E+05 2.70253E+03-1.03243E+04 6.17232E+02 1.54135E-07 8.68931E-09
 -1       824-3.21701E+05-3.12680E+03-6.49354E+03-8.94399E+02 3.11207E-10 1.09003E-08
 -1       825-3.20002E+05 4.22212E+02-2.67404E+03 3.92553E+02 3.56826E-09 1.94200E-09
 -1       826-3.20382E+05-4.97116E+02-1.60355E+03-2.81371E+02 2.14660E-09-1.49540E-08
 -1       827-3.20196E+05 7.39053E+01-8.43026E+02 4.19303E+00 1.11409E-09-4.71860E-09
 -1       828-3.20208E+05-1.52139E+02-7.33572E+02 4.79315E+02-1.86292E-09-6.15128E-10
 -1       829-3.20176E+05 7.75603E+01-8.59864E+02-3.68147E+02-1.59872E-10-1.07519E-09
 -1       830-3.20439E+05-5.19320E+02-1.67304E+03 1.03473E+03 1.08984E-09 1.93356E-09
 -1       831-3.19967E+05 4.41698E+02-2.77688E+03-5.51237E+02-1.64390E-09-7.67909E-09
 -1       832-3.21781E+05-3.25860E+03-6.76694E+03 1.12653E+03-1.63783E-09-3.06488E-09
 -1       833-3.18834E+05 2.81507E+03-1.07575E+04-4.59938E+02-2.15996E-09 4.70982E-09
 -1       834-3.29834E+05-2.07860E+04-2.93796E+04 7.06295E+02-1.05093E-09 5.52382E-09
 -1       835-3.11916E+05 1.79549E+04-4.15383E+04-1.30997E+02 4.70514E-09 7.62157E-10
 -1       836-1.09087E+03 2.96482E+05 1.81343E+04-1.47630E+04-2.53112E-09 2.74667E-10
 -1       837 3.91960E+03 3.02137E+05 1.54688E+04-2.98212E+04-2.49088E-09 4.01633E-09
 -1       838-4.25347E+02 2.98053E+05 1.59357E+04-1.47007E+04-1.94223E-09 2.05068E-09
 -1       839 1.01511E+04 3.06783E+05 3.03174E+04-2.98638E+04-1.74578E-09 2.89651E-09
 -1       840-3.10170E+03 2.91794E+05 4.84200E+04-1.47214E+04-1.96815E-09 2.40229E-09
 -1       856-6.31328E+04 7.33085E+03-1.93185E+04-3.88774E+02-3.03601E-10-1.39244E-09
 -1       857-7.11039E+04-8.60460E+03-1.32995E+04 4.81683E+03 1.18152E-09-7.68887E-09
 -1       858-6.62852E+04 1.02760E+03-5.01309E+03-4.09271E+02-1.68632E-09-1.65778E-08
 -1       859-6.74849E+04-1.20069E+03-3.02631E+03 4.84842E+03-4.80416E-09 4.24819E-09
 -1       860-6.67564E+04 1.43370E+02-1.27004E+03-4.20322E+02-1.51147E-10-3.82215E-09
 -1       861-6.69424E+04-1.63582E+02-7.02364E+02 4.86352E+03-2.77554E-09-7.59799E-09
 -1       862-6.68299E+04 1.91149E+01-2.99332E+02-4.24378E+02 2.16298E-09-1.02270E-08
 -1       863-6.68535E+04-1.40532E+01-1.25769E+02 4.86563E+03 2.45806E-09-3.68640E-09
 -1       864-6.68455E+04-2.82725E+00 5.46974E+00-4.22430E+02 1.74143E-09-4.43941E-09
 -1       865-6.68132E+04 4.35890E+01 1.49338E+02 4.85519E+03 9.16799E-10 8.73392E-09
 -1       866-6.68685E+04-3.86750E+01 3.20355E+02-4.13939E+02-3.96597E-10 8.10661E-09
 -1       867-6.66577E+04 3.21566E+02 8.00842E+02 4.83208E+03-6.75584E-11-3.17823E-09
 -1       868-6.69973E+04-2.76219E+02 1.33389E+03-3.99325E+02-1.24430E-10-8.76611E-09
 -1       869-6.56767E+04 2.29919E+03 3.55601E+03 4.79344E+03-8.41283E-10-1.32754E-08
 -1       870-6.78438E+04-1.96320E+03 5.16021E+03-3.75280E+02-1.27227E-09 9.92713E-09
 -1       871-4.66709E+03-1.37154E+04-1.57365E+04 1.04969E+05-1.02955E-09 1.63345E-09
 -1       872-1.87537E+03-1.73016E+04-6.51372E+03 1.36098E+05-3.03135E-09 4.04270E-10
 -1       873 1.21504E+02-1.55979E+04 6.67281E+02 1.04739E+05-1.68984E-09 4.81805E-10
 -1       874 2.50496E+03-1.34919E+04 8.34340E+03 1.36133E+05-3.34944E-09 1.52113E-08
 -1       875 5.57469E+03-1.75855E+04 1.86744E+04 1.04932E+05-1.41335E-09 4.56657E-09
 -1       876 2.45364E+05 4.17178E+04 1.27680E+04 9.88957E+04 1.60219E-09 6.87760E-09
 -1       877 2.46171E+05 4.44430E+04 6.81849E+03 1.02591E+05 4.00655E-09-1.21789E-08
 -1       878 2.46557E+05 4.03045E+04 2.85666E+03 9.99436E+04 3.15049E-09-2.27124E-09
 -1       879 2.44435E+05 4.27117E+04 1.42324E+03 1.02679E+05 4.56259E-09-1.55233E-08
 -1       880 2.46643E+05 4.02892E+04 6.62864E+02 9.99864E+04 4.81896E-09 5.38392E-09
 -1       881 2.44320E+05 4.26379E+04 3.53708E+02 1.02660E+05 6.90704E-09-2.53749E-10
 -1       882 2.46652E+05 4.03000E+04 2.25863E+02 9.99876E+04-1.84286E-09-8.79755E-09
 -1       883 2.44312E+05 4.26343E+04 2.42103E+02 1.02654E+05 4.81691E-10 8.78458E-10
 -1       884 2.46646E+05 4.02974E+04 3.84505E+02 9.99878E+04 1.03693E-08 1.02541E-08
 -1       885 2.44343E+05 4.26397E+04 7.72682E+02 1.02664E+05-8.17977E-11-2.06956E-08
 -1       886 2.46616E+05 4.02748E+04 1.55714E+03 9.99848E+04-2.07213E-09-1.92102E-08
 -1       887 2.44616E+05 4.28191E+04 3.40133E+03 1.02703E+05 3.28737E-09 2.43438E-09
 -1       888 2.46401E+05 4.03127E+04 6.85381E+03 9.98759E+04-3.03032E-09 7.86258E-09
 -1       889 2.48698E+05 4.70614E+04 1.63729E+04 1.02576E+05-3.65959E-09 7.09042E-09
 -1       890 2.43607E+05 4.36319E+04 3.06656E+04 9.72634E+04 3.98813E-10 3.28328E-09
 -1       891-1.15489E+02-1.37266E+05-1.66254E+03 2.41624E+04-3.71983E-10 1.11179E-08
 -1       892-2.08657E+02-1.37684E+05-1.79253E+03 3.66191E+04 8.29004E-10 1.51010E-08
 -1       893-4.29712E+00-1.37320E+05-2.54504E+03 2.41679E+04-1.74396E-10 4.24143E-09
 -1       894-1.32921E+03-1.38652E+05-5.27264E+03 3.64865E+04 8.32188E-10 2.77396E-09
 -1       895-1.04626E+03-1.36223E+05-9.28674E+03 2.42947E+04-1.03682E-10-3.31693E-09
 -1       956-3.12667E+05-4.41812E+03-1.10378E+04 2.29198E+04 1.22509E-09-3.03476E-09
 -1       957-3.14841E+05-1.51708E+03-5.66609E+03 2.75822E+04 1.81626E-09 6.89238E-09
 -1       958-3.13651E+05-1.48519E+02-2.55291E+03 2.27874E+04 2.31830E-09 4.42787E-09
 -1       959-3.13820E+05-5.56383E+01-1.30389E+03 2.77306E+04-2.01635E-09-2.17779E-09
 -1       960-3.13742E+05 8.44046E+00-6.35773E+02 2.27743E+04 2.66027E-09 8.24002E-10
 -1       961-3.13748E+05 1.06834E+00-3.37429E+02 2.77457E+04 2.60093E-09 1.39403E-08
 -1       962-3.13761E+05 5.13601E+00-1.93487E+02 2.27723E+04 3.26509E-10 2.00941E-08
 -1       963-3.13745E+05 3.02057E+00-1.55949E+02 2.77483E+04-9.81345E-10 1.38514E-08
 -1       964-3.13765E+05 7.33870E+00-1.90203E+02 2.27717E+04 9.32033E-10 3.35172E-09
 -1       965-3.13756E+05 5.75483E+00-3.29434E+02 2.77479E+04-3.33660E-09 9.69044E-09
 -1       966-3.13753E+05 1.49938E+01-6.19007E+02 2.27727E+04 1.12095E-10 3.97245E-09
 -1       967-3.13834E+05-4.49026E+01-1.26976E+03 2.77377E+04-7.87850E-10 9.46716E-09
 -1       968-3.13671E+05-1.33539E+02-2.48534E+03 2.27819E+04 1.61435E-10 1.35104E-08
 -1       969-3.14837E+05-1.46425E+03-5.51787E+03 2.76299E+04-1.55978E-10-8.45830E-11
 -1       970-3.12718E+05-4.28873E+03-1.07483E+04 2.28788E+04-3.71529E-10-6.47833E-09
 -1       971-2.90171E+05-1.48125E+03-8.12007E+03 1.33732E+04 2.29829E-09-1.17529E-09
 -1       972-2.92137E+05-1.07513E+03-4.42220E+03 1.85987E+04 3.15049E-09 1.03137E-08
 -1       973-2.91075E+05-2.96411E+01-1.98041E+03 1.32643E+04 1.93722E-10-2.63799E-09
 -1       974-2.91203E+05-3.73136E+01-1.02632E+03 1.87187E+04 1.01227E-09 3.32477E-09
 -1       975-2.91145E+05 8.65925E+00-5.12659E+02 1.32540E+04 7.25777E-10 8.25742E-09
 -1       976-2.91148E+05 5.44552E+00-2.95210E+02 1.87315E+04-1.82376E-09-2.44279E-09
 -1       977-2.91159E+05 8.70173E+00-2.13205E+02 1.32514E+04-1.17939E-09-1.33800E-08
 -1       978-2.91151E+05 1.03942E+01-2.48091E+02 1.87352E+04 2.05887E-09-1.42486E-08
 -1       979-2.91158E+05 1.55711E+01-3.97369E+02 1.32504E+04-4.96931E-09-1.03508E-08
 -1       980-2.91181E+05 1.28768E+01-7.66496E+02 1.87358E+04-6.90119E-09-1.04536E-08
 -1       981-2.91134E+05 3.47202E+01-1.48409E+03 1.32508E+04-2.80261E-09-5.66411E-09
 -1       982-2.91385E+05-9.66378E+01-3.06735E+03 1.87302E+04-4.85215E-10 1.22027E-08
 -1       983-2.90947E+05-6.00926E+01-5.95970E+03 1.32561E+04-1.51272E-09 4.83237E-09
 -1       984-2.94251E+05-3.20882E+03-1.33462E+04 1.86552E+04-1.74055E-09-9.02526E-09
 -1       985-2.88249E+05-4.42085E+03-2.45078E+04 1.33257E+04 1.58207E-09 5.35874E-09
 -3
    1PSTEP                        29          15           1          
  100CL  115 6.01089E-01         409                     0   15           1
 -4  DISP        4    1
 -5  D1          1    2    1    0
 -5  D2          1    2    2    0
 -5  D3          1    2    3    0
 -5  ALL         1    2    0    0    1ALL
 -1         1 2.84561E-03 0.00000E+00 0.00000E+00
 -1         2 2.87400E-03-2.21118E-26 0.00000E+00
 -1         3 2.76699E-04 1.87022E-27 0.00000E+00
 -1         5 1.51647E-04 2.86222E-26-8.27181E-25
 -1         8 2.82855E-03-5.15724E-07 0.00000E+00
 -1         9 2.79245E-03-7.96598E-06 0.00000E+00
 -1        10 2.51798E-04-2.88597E-06 0.00000E+00
 -1        12 1.52709E-04 7.05469E-07-4.13590E-25
 -1        15 2.80786E-03-5.65200E-07 2.06795E-25
 -1        16 2.81648E-03-9.28614E-06 0.00000E+00
 -1        17 1.73870E-04-6.41656E-06 0.00000E+00
 -1        18 1.54485E-04 2.31432E-05 0.00000E+00
 -1        19 1.55895E-04 1.40659E-06 0.00000E+00
 -1        20 1.56035E-04-1.68631E-06 0.00000E+00
 -1        21 1.55277E-04-7.82241E-06 0.00000E+00
 -1        24 2.68298E-05-9.41325E-06 0.00000E+00
 -1        25 1.61305E-04 2.33308E-05 0.00000E+00
 -1        26 1.61957E-04 1.94844E-06 0.00000E+00
 -1        27 1.60035E-04-4.83550E-06 0.00000E+00
 -1        28 1.59690E-04-8.38321E-06 0.00000E+00
 -1        32 0.00000E+00 0.00000E+00 0.00000E+00
 -1        33 1.67029E-04 2.60904E-06 0.00000E+00
 -1        34 1.65149E-04-4.87703E-06 0.00000E+00
 -1        35 1.63421E-04-8.68827E-06 0.00000E+00
 -1        51 2.84452E-03-9.64788E-08-6.61744E-24
 -1        52 2.84248E-03-1.79566E-07 0.00000E+00
 -1        53 2.83967E-03-2.60947E-07 0.00000E+00
 -1        54 2.83629E-03-3.42627E-07 0.00000E+00
 -1        55 2.83252E-03-4.26051E-07 3.30872E-24
 -1        56 2.84227E-03-1.02275E-07-5.29396E-23
 -1        57 2.83809E-03 1.70074E-06-2.64698E-23
 -1        58 2.83330E-03 5.11204E-06 0.00000E+00
 -1        59 2.82806E-03 9.66448E-06 0.00000E+00
 -1        60 2.82262E-03 1.47446E-05 0.00000E+00
 -1        61 2.81722E-03 1.96934E-05 5.29396E-23
 -1        62 2.81212E-03 2.38722E-05 0.00000E+00
 -1        63 2.80753E-03 2.66955E-05 5.29396E-23
 -1        64 2.80360E-03 2.77726E-05-1.05879E-22
 -1        65 2.80043E-03 2.68369E-05 0.00000E+00
 -1        66 2.79800E-03 2.39108E-05-1.05879E-22
 -1        67 2.79626E-03 1.91600E-05-5.29396E-23
 -1        68 2.79503E-03 1.30116E-05-1.05879E-22
 -1        69 2.79415E-03 6.00027E-06 0.00000E+00
 -1        70 2.79333E-03-1.22856E-06 0.00000E+00
 -1        86 2.86814E-03-1.23429E-06-2.64698E-23
 -1        87 2.85086E-03-2.59487E-06 1.32349E-23
 -1        88 2.82843E-03-4.04703E-06 0.00000E+00
 -1        89 2.80741E-03-5.46564E-06 0.00000E+00
 -1        90 2.79361E-03-6.77251E-06 0.00000E+00
 -1       121 2.76001E-04-4.70170E-07 0.00000E+00
 -1       122 2.73909E-04-9.42214E-07 0.00000E+00
 -1       123 2.70429E-04-1.41798E-06 1.32349E-23
 -1       124 2.65573E-04-1.89933E-06-6.61744E-24
 -1       125 2.59356E-04-2.38787E-06 0.00000E+00
 -1       191 1.51677E-04 1.17602E-07-2.48154E-24
 -1       192 1.51765E-04 2.35199E-07 0.00000E+00
 -1       193 1.51913E-04 3.52790E-07-1.65436E-24
 -1       194 1.52119E-04 4.70369E-07-8.27181E-25
 -1       195 1.52385E-04 5.87930E-07 2.48154E-24
 -1       251 2.82780E-03 1.80312E-05 0.00000E+00
 -1       252 2.82608E-03 6.63524E-05 6.61744E-24
 -1       253 2.82321E-03 1.35723E-04 0.00000E+00
 -1       254 2.81947E-03 2.16932E-04 0.00000E+00
 -1       255 2.81578E-03 2.97517E-04 0.00000E+00
 -1       256 2.81303E-03 3.65032E-04 6.61744E-24
 -1       257 2.81143E-03 4.10613E-04-1.32349E-23
 -1       258 2.81071E-03 4.25903E-04-6.61744E-24
 -1       259 2.81000E-03 4.10463E-04 0.00000E+00
 -1       260 2.80838E-03 3.64614E-04 6.61744E-24
 -1       261 2.80560E-03 2.96624E-04-1.32349E-23
 -1       262 2.80185E-03 2.15270E-04-6.61744E-24
 -1       263 2.79803E-03 1.32992E-04 1.32349E-23
 -1       264 2.79506E-03 6.22508E-05 0.00000E+00
 -1       265 2.79326E-03 1.23276E-05 0.00000E+00
 -1       266 2.82510E-03-5.31583E-07-3.30872E-24
 -1       267 2.82166E-03-5.38901E-07-8.27181E-25
 -1       268 2.81821E-03-5.46759E-07 0.00000E+00
 -1       269 2.81476E-03-5.53016E-07 0.00000E+00
 -1       270 2.81131E-03-5.59235E-07 0.00000E+00
 -1       271 2.82639E-03 2.78001E-06 1.32349E-23
 -1       272 2.82413E-03 6.24356E-06 1.32349E-23
 -1       273 2.82187E-03 9.72576E-06 0.00000E+00
 -1       274 2.81965E-03 1.30647E-05 1.32349E-23
 -1       275 2.81755E-03 1.61035E-05-2.64698E-23
 -1       276 2.81562E-03 1.86866E-05 0.00000E+00
 -1       277 2.81392E-03 2.06640E-05 0.00000E+00
 -1       278 2.81250E-03 2.18916E-05-1.32349E-23
 -1       279 2.81142E-03 2.22337E-05-2.64698E-23
 -1       280 2.81071E-03 2.15635E-05 1.32349E-23
 -1       281 2.81043E-03 1.97655E-05-2.64698E-23
 -1       282 2.81061E-03 1.67358E-05-1.32349E-23
 -1       283 2.81127E-03 1.23840E-05 2.64698E-23
 -1       284 2.81246E-03 6.63423E-06-1.32349E-23
 -1       285 2.81419E-03-5.75931E-07 0.00000E+00
 -1       301 2.79612E-03-8.19801E-06 6.61744E-24
 -1       302 2.79889E-03-8.40732E-06-6.61744E-24
 -1       303 2.80153E-03-8.61476E-06-1.32349E-23
 -1       304 2.80483E-03-8.82411E-06 0.00000E+00
 -1       305 2.80956E-03-9.04149E-06 0.00000E+00
 -1       306 2.83020E-03-1.60773E-04 1.05879E-22
 -1       307 2.89392E-03-5.88247E-04-2.64698E-23
 -1       308 2.93465E-03-1.22323E-03 0.00000E+00
 -1       309 2.94465E-03-1.96884E-03-2.64698E-23
 -1       310 2.96203E-03-2.68909E-03 1.05879E-22
 -1       311 3.01601E-03-3.24992E-03 5.29396E-23
 -1       312 3.07712E-03-3.56689E-03 1.05879E-22
 -1       313 3.08077E-03-3.59914E-03 0.00000E+00
 -1       314 2.94583E-03-3.35734E-03 1.05879E-22
 -1       315 2.62457E-03-2.90908E-03 0.00000E+00
 -1       316 2.13106E-03-2.33498E-03-5.29396E-23
 -1       317 1.53094E-03-1.70732E-03 2.64698E-23
 -1       318 9.50639E-04-1.08919E-03-1.05879E-22
 -1       319 5.10580E-04-5.48365E-04 2.64698E-23
 -1       320 2.55093E-04-1.61865E-04 0.00000E+00
 -1       336 2.42748E-04-3.43311E-06 0.00000E+00
 -1       337 2.32060E-04-3.99617E-06 6.61744E-24
 -1       338 2.19776E-04-4.57641E-06 0.00000E+00
 -1       339 2.05945E-04-5.17377E-06 0.00000E+00
 -1       340 1.90622E-04-5.79215E-06 1.32349E-23
 -1       406 1.53093E-04 8.22974E-07 3.30872E-24
 -1       407 1.53535E-04 9.40417E-07-1.24077E-24
 -1       408 1.54037E-04 1.05776E-06 2.48154E-24
 -1       409 1.54598E-04 1.17487E-06-4.13590E-25
 -1       410 1.55217E-04 1.29150E-06-1.65436E-24
 -1       521 2.85433E-03-1.72480E-04 1.05879E-22
 -1       522 2.91556E-03-6.16605E-04 5.29396E-23
 -1       523 2.95071E-03-1.27068E-03 0.00000E+00
 -1       524 2.95514E-03-2.02985E-03-5.29396E-23
 -1       525 2.96778E-03-2.76176E-03-1.05879E-22
 -1       526 3.01821E-03-3.33636E-03 0.00000E+00
 -1       527 3.07770E-03-3.66092E-03 2.11758E-22
 -1       528 3.07868E-03-3.69259E-03-5.29396E-23
 -1       529 2.93384E-03-3.44059E-03 2.11758E-22
 -1       530 2.59510E-03-2.98008E-03 0.00000E+00
 -1       531 2.07830E-03-2.39438E-03-1.05879E-22
 -1       532 1.45653E-03-1.75857E-03-5.29396E-23
 -1       533 8.54301E-04-1.13172E-03 0.00000E+00
 -1       534 3.90207E-04-5.77231E-04-5.29396E-23
 -1       535 1.17249E-04-1.76269E-04 2.11758E-22
 -1       536 1.73343E-04 2.14468E-05 3.30872E-24
 -1       537 1.72057E-04 7.00353E-05 0.00000E+00
 -1       538 1.70090E-04 1.31797E-04 3.30872E-24
 -1       539 1.67778E-04 1.99107E-04 1.65436E-24
 -1       540 1.65694E-04 2.62697E-04 0.00000E+00
 -1       541 1.64323E-04 3.13319E-04 1.65436E-24
 -1       542 1.63669E-04 3.45418E-04 3.30872E-24
 -1       543 1.63480E-04 3.53555E-04 0.00000E+00
 -1       544 1.63215E-04 3.38413E-04 3.30872E-24
 -1       545 1.62381E-04 3.00842E-04 0.00000E+00
 -1       546 1.60880E-04 2.47533E-04 0.00000E+00
 -1       547 1.58881E-04 1.85277E-04-1.65436E-24
 -1       548 1.56908E-04 1.23467E-04 0.00000E+00
 -1       549 1.55475E-04 7.14981E-05 1.65436E-24
 -1       550 1.54713E-04 3.59107E-05 0.00000E+00
 -1       551 1.53918E-04-6.81219E-06 0.00000E+00
 -1       552 1.31192E-04-7.26475E-06 0.00000E+00
 -1       553 1.06398E-04-7.76274E-06 6.61744E-24
 -1       554 8.02589E-05-8.29478E-06 0.00000E+00
 -1       555 5.34963E-05-8.84422E-06 1.32349E-23
 -1       556 1.67891E-04 8.96488E-06 0.00000E+00
 -1       557 1.63096E-04 2.13312E-05 0.00000E+00
 -1       558 1.59376E-04 3.09261E-05 0.00000E+00
 -1       559 1.56622E-04 3.80108E-05 0.00000E+00
 -1       560 1.54727E-04 4.28468E-05 0.00000E+00
 -1       561 1.53587E-04 4.56973E-05 0.00000E+00
 -1       562 1.53098E-04 4.68263E-05-2.64698E-23
 -1       563 1.53156E-04 4.64986E-05 0.00000E+00
 -1       564 1.53661E-04 4.49795E-05 0.00000E+00
 -1       565 1.54511E-04 4.25347E-05 6.61744E-24
 -1       566 1.55608E-04 3.94302E-05 0.00000E+00
 -1       567 1.56850E-04 3.59324E-05 0.00000E+00
 -1       568 1.58140E-04 3.23077E-05-9.56428E-25
 -1       569 1.59379E-04 2.88223E-05 0.00000E+00
 -1       570 1.60466E-04 2.57427E-05 0.00000E+00
 -1       571 1.54570E-04 2.17340E-05-8.27181E-25
 -1       572 1.54658E-04 2.02698E-05-8.27181E-25
 -1       573 1.54746E-04 1.87634E-05 0.00000E+00
 -1       574 1.54834E-04 1.72280E-05 1.65436E-24
 -1       575 1.54922E-04 1.56770E-05-3.30872E-24
 -1       576 1.55010E-04 1.41236E-05 1.65436E-24
 -1       577 1.55098E-04 1.25813E-05-3.30872E-24
 -1       578 1.55187E-04 1.10636E-05 1.65436E-24
 -1       579 1.55275E-04 9.58364E-06-6.61744E-24
 -1       580 1.55363E-04 8.15502E-06 0.00000E+00
 -1       581 1.55452E-04 6.79108E-06 0.00000E+00
 -1       582 1.55541E-04 5.50519E-06 0.00000E+00
 -1       583 1.55629E-04 4.31072E-06 0.00000E+00
 -1       584 1.55718E-04 3.22091E-06-3.30872E-24
 -1       585 1.55807E-04 2.24887E-06 0.00000E+00
 -1       586 1.55574E-04 2.31764E-05 1.65436E-24
 -1       587 1.56630E-04 2.32090E-05 2.06795E-25
 -1       588 1.57693E-04 2.32412E-05 0.00000E+00
 -1       589 1.58801E-04 2.32729E-05 0.00000E+00
 -1       590 1.59992E-04 2.33035E-05 0.00000E+00
 -1       591 1.54960E-04 2.18076E-05 1.03398E-25
 -1       592 1.55439E-04 2.04509E-05 2.06795E-25
 -1       593 1.55923E-04 1.90788E-05 8.27181E-25
 -1       594 1.56411E-04 1.76959E-05 0.00000E+00
 -1       595 1.56902E-04 1.63069E-05 8.27181E-25
 -1       596 1.57392E-04 1.49164E-05 0.00000E+00
 -1       597 1.57882E-04 1.35290E-05 0.00000E+00
 -1       598 1.58369E-04 1.21494E-05-4.13590E-25
 -1       599 1.58851E-04 1.07822E-05-8.27181E-25
 -1       600 1.59326E-04 9.43202E-06 4.13590E-25
 -1       601 1.59794E-04 8.10348E-06 4.13590E-25
 -1       602 1.60252E-04 6.80118E-06-4.13590E-25
 -1       603 1.60699E-04 5.52978E-06 0.00000E+00
 -1       604 1.61132E-04 4.29398E-06 5.16988E-26
 -1       605 1.61551E-04 3.09833E-06 4.13590E-25
 -1       606 1.55908E-04 7.65182E-07 0.00000E+00
 -1       607 1.55918E-04 2.09872E-07 0.00000E+00
 -1       608 1.55927E-04-2.64396E-07 0.00000E+00
 -1       609 1.55935E-04-6.63319E-07 0.00000E+00
 -1       610 1.55944E-04-9.92647E-07 0.00000E+00
 -1       611 1.55952E-04-1.25819E-06 0.00000E+00
 -1       612 1.55961E-04-1.46575E-06 0.00000E+00
 -1       613 1.55969E-04-1.62118E-06 0.00000E+00
 -1       614 1.55977E-04-1.73028E-06 0.00000E+00
 -1       615 1.55986E-04-1.79888E-06 0.00000E+00
 -1       616 1.55994E-04-1.83282E-06 0.00000E+00
 -1       617 1.56003E-04-1.83791E-06 4.13590E-25
 -1       618 1.56011E-04-1.81998E-06 8.27181E-25
 -1       619 1.56019E-04-1.78485E-06-2.06795E-25
 -1       620 1.56027E-04-1.73836E-06 0.00000E+00
 -1       621 1.56696E-04 1.49725E-06-1.65436E-24
 -1       622 1.57612E-04 1.58817E-06-8.27181E-25
 -1       623 1.58621E-04 1.67898E-06-1.65436E-24
 -1       624 1.59697E-04 1.76956E-06 0.00000E+00
 -1       625 1.60817E-04 1.85993E-06 1.65436E-24
 -1       626 1.56235E-04 7.96964E-07 0.00000E+00
 -1       627 1.56552E-04 2.53200E-07 1.65436E-24
 -1       628 1.56846E-04-2.32237E-07 0.00000E+00
 -1       629 1.57122E-04-6.67226E-07-1.65436E-24
 -1       630 1.57382E-04-1.05967E-06 0.00000E+00
 -1       631 1.57629E-04-1.41749E-06 0.00000E+00
 -1       632 1.57866E-04-1.74861E-06 3.30872E-24
 -1       633 1.58096E-04-2.06097E-06 0.00000E+00
 -1       634 1.58322E-04-2.36248E-06 3.30872E-24
 -1       635 1.58547E-04-2.66107E-06 0.00000E+00
 -1       636 1.58774E-04-2.96467E-06 0.00000E+00
 -1       637 1.59005E-04-3.28120E-06-8.27181E-25
 -1       638 1.59244E-04-3.61860E-06 0.00000E+00
 -1       639 1.59494E-04-3.98480E-06-8.27181E-25
 -1       640 1.59757E-04-4.38776E-06 1.65436E-24
 -1       656 1.56202E-04-2.19836E-06 0.00000E+00
 -1       657 1.56761E-04-2.73109E-06-6.61744E-24
 -1       658 1.57576E-04-3.26245E-06-1.32349E-23
 -1       659 1.58507E-04-3.79346E-06 0.00000E+00
 -1       660 1.59383E-04-4.32608E-06 0.00000E+00
 -1       661 1.56099E-04-1.67288E-06-8.27181E-25
 -1       662 1.56195E-04-1.73826E-06 8.27181E-25
 -1       663 1.56320E-04-1.87837E-06 0.00000E+00
 -1       664 1.56471E-04-2.08790E-06 0.00000E+00
 -1       665 1.56646E-04-2.36218E-06 0.00000E+00
 -1       666 1.56843E-04-2.69640E-06 8.27181E-25
 -1       667 1.57062E-04-3.08602E-06-1.65436E-24
 -1       668 1.57299E-04-3.52655E-06 0.00000E+00
 -1       669 1.57554E-04-4.01365E-06 0.00000E+00
 -1       670 1.57825E-04-4.54305E-06 8.27181E-25
 -1       671 1.58110E-04-5.11061E-06 1.65436E-24
 -1       672 1.58408E-04-5.71229E-06 0.00000E+00
 -1       673 1.58716E-04-6.34406E-06-1.65436E-24
 -1       674 1.59034E-04-7.00227E-06 0.00000E+00
 -1       675 1.59361E-04-7.68266E-06-4.13590E-25
 -1       676 1.56015E-04-7.91643E-06 0.00000E+00
 -1       677 1.56752E-04-8.01040E-06 1.65436E-24
 -1       678 1.57489E-04-8.10432E-06 0.00000E+00
 -1       679 1.58224E-04-8.19797E-06-1.65436E-24
 -1       680 1.58958E-04-8.29160E-06-1.65436E-24
 -1       771 1.66939E-05 1.31838E-05 0.00000E+00
 -1       772 8.15419E-06 3.17114E-05 0.00000E+00
 -1       773 1.13613E-06 4.63740E-05 5.29396E-23
 -1       774-4.46497E-06 5.73970E-05 0.00000E+00
 -1       775-8.75138E-06 6.50139E-05 0.00000E+00
 -1       776-1.18295E-05 6.94710E-05 0.00000E+00
 -1       777-1.38056E-05 7.10223E-05 0.00000E+00
 -1       778-1.47882E-05 6.99322E-05 0.00000E+00
 -1       779-1.48853E-05 6.64715E-05 0.00000E+00
 -1       780-1.42067E-05 6.09198E-05-2.64698E-23
 -1       781-1.28616E-05 5.35617E-05 0.00000E+00
 -1       782-1.09603E-05 4.46885E-05-2.64698E-23
 -1       783-8.61276E-06 3.45952E-05 0.00000E+00
 -1       784-5.92984E-06 2.35811E-05 0.00000E+00
 -1       785-3.02174E-06 1.19482E-05 5.29396E-23
 -1       786 1.61342E-04 2.17759E-05-2.58494E-26
 -1       787 1.61382E-04 2.02691E-05 4.13590E-25
 -1       788 1.61422E-04 1.88025E-05 8.27181E-25
 -1       789 1.61463E-04 1.73687E-05 0.00000E+00
 -1       790 1.61504E-04 1.59630E-05 1.65436E-24
 -1       791 1.61545E-04 1.45809E-05-8.27181E-25
 -1       792 1.61586E-04 1.32202E-05 0.00000E+00
 -1       793 1.61627E-04 1.18787E-05 0.00000E+00
 -1       794 1.61668E-04 1.05560E-05-1.65436E-24
 -1       795 1.61709E-04 9.25186E-06-8.27181E-25
 -1       796 1.61750E-04 7.96761E-06 1.65436E-24
 -1       797 1.61791E-04 6.70472E-06 0.00000E+00
 -1       798 1.61832E-04 5.46672E-06 0.00000E+00
 -1       799 1.61874E-04 4.25716E-06 0.00000E+00
 -1       800 1.61915E-04 3.08229E-06 0.00000E+00
 -1       801 1.26095E-04 2.07859E-05 0.00000E+00
 -1       802 1.92469E-05 1.33319E-05 0.00000E+00
 -1       803-7.37497E-05 6.99965E-06-5.29396E-23
 -1       804-6.86613E-05 4.79235E-06-2.64698E-23
 -1       805-2.34682E-05 2.05124E-06 0.00000E+00
 -1       806 1.61786E-04 2.17166E-05 0.00000E+00
 -1       807 1.62254E-04 2.01295E-05-8.27181E-25
 -1       808 1.62709E-04 1.85739E-05 1.65436E-24
 -1       809 1.63150E-04 1.70529E-05-1.65436E-24
 -1       810 1.63578E-04 1.55696E-05 0.00000E+00
 -1       811 1.63990E-04 1.41270E-05-8.27181E-25
 -1       812 1.64386E-04 1.27283E-05 1.65436E-24
 -1       813 1.64764E-04 1.13764E-05 8.27181E-25
 -1       814 1.65124E-04 1.00744E-05 0.00000E+00
 -1       815 1.65464E-04 8.82523E-06 0.00000E+00
 -1       816 1.65783E-04 7.63200E-06-1.65436E-24
 -1       817 1.66080E-04 6.49765E-06-1.65436E-24
 -1       818 1.66354E-04 5.42520E-06 0.00000E+00
 -1       819 1.66604E-04 4.41765E-06 1.65436E-24
 -1       820 1.66829E-04 3.47795E-06-1.65436E-24
 -1       821 1.61843E-04 7.01160E-07 0.00000E+00
 -1       822 1.61722E-04-8.11706E-07 0.00000E+00
 -1       823 1.61601E-04-2.44146E-06 0.00000E+00
 -1       824 1.61479E-04-4.03874E-06-1.65436E-24
 -1       825 1.61357E-04-5.46232E-06 0.00000E+00
 -1       826 1.61236E-04-6.57186E-06-1.65436E-24
 -1       827 1.61114E-04-7.30418E-06-3.30872E-24
 -1       828 1.60993E-04-7.59817E-06 0.00000E+00
 -1       829 1.60872E-04-7.50035E-06 0.00000E+00
 -1       830 1.60751E-04-7.05937E-06 1.65436E-24
 -1       831 1.60629E-04-6.40815E-06 0.00000E+00
 -1       832 1.60508E-04-5.68079E-06 0.00000E+00
 -1       833 1.60387E-04-5.03008E-06 0.00000E+00
 -1       834 1.60268E-04-4.60840E-06 0.00000E+00
 -1       835 1.60148E-04-4.51204E-06 0.00000E+00
 -1       836 1.62988E-04 2.05815E-06 3.30872E-24
 -1       837 1.63905E-04 2.17050E-06 1.65436E-24
 -1       838 1.64739E-04 2.28275E-06 0.00000E+00
 -1       839 1.65518E-04 2.39435E-06 0.00000E+00
 -1       840 1.66272E-04 2.50578E-06 0.00000E+00
 -1       856 1.60017E-04-5.30359E-06 0.00000E+00
 -1       857 1.59996E-04-5.64866E-06 2.58494E-26
 -1       858 1.59975E-04-5.88987E-06-4.13590E-25
 -1       859 1.59953E-04-6.04648E-06 0.00000E+00
 -1       860 1.59931E-04-6.13782E-06 4.13590E-25
 -1       861 1.59910E-04-6.18327E-06-4.13590E-25
 -1       862 1.59888E-04-6.20224E-06 0.00000E+00
 -1       863 1.59866E-04-6.21417E-06 0.00000E+00
 -1       864 1.59844E-04-6.23850E-06 0.00000E+00
 -1       865 1.59823E-04-6.29466E-06-4.13590E-25
 -1       866 1.59801E-04-6.40207E-06-8.27181E-25
 -1       867 1.59779E-04-6.58009E-06 0.00000E+00
 -1       868 1.59757E-04-6.84802E-06 0.00000E+00
 -1       869 1.59735E-04-7.22511E-06 4.13590E-25
 -1       870 1.59713E-04-7.73049E-06 0.00000E+00
 -1       871 1.60758E-04-4.83857E-06-4.13590E-25
 -1       872 1.61613E-04-4.84455E-06 0.00000E+00
 -1       873 1.62539E-04-4.85112E-06 0.00000E+00
 -1       874 1.63477E-04-4.85834E-06 3.10193E-25
 -1       875 1.64367E-04-4.86610E-06 6.20385E-25
 -1       876 1.60325E-04-5.29086E-06 3.30872E-24
 -1       877 1.60594E-04-5.68594E-06 0.00000E+00
 -1       878 1.60845E-04-6.02796E-06 0.00000E+00
 -1       879 1.61078E-04-6.32361E-06 0.00000E+00
 -1       880 1.61296E-04-6.57961E-06-3.30872E-24
 -1       881 1.61502E-04-6.80265E-06 0.00000E+00
 -1       882 1.61698E-04-6.99939E-06 3.30872E-24
 -1       883 1.61886E-04-7.17650E-06-1.65436E-24
 -1       884 1.62070E-04-7.34064E-06 0.00000E+00
 -1       885 1.62252E-04-7.49845E-06 0.00000E+00
 -1       886 1.62433E-04-7.65660E-06 3.30872E-24
 -1       887 1.62617E-04-7.82176E-06 0.00000E+00
 -1       888 1.62806E-04-8.00060E-06-3.30872E-24
 -1       889 1.63002E-04-8.19993E-06 1.65436E-24
 -1       890 1.63208E-04-8.42635E-06 0.00000E+00
 -1       891 1.60442E-04-8.43439E-06 1.65436E-24
 -1       892 1.61173E-04-8.48572E-06-8.27181E-25
 -1       893 1.61859E-04-8.53699E-06-8.27181E-25
 -1       894 1.62478E-04-8.58806E-06 0.00000E+00
 -1       895 1.63006E-04-8.63896E-06 0.00000E+00
 -1       956 1.66913E-04 1.88941E-06 0.00000E+00
 -1       957 1.66796E-04 1.24762E-06 8.27181E-25
 -1       958 1.66678E-04 6.74640E-07 3.30872E-24
 -1       959 1.66560E-04 1.60925E-07-1.65436E-24
 -1       960 1.66442E-04-3.03093E-07 0.00000E+00
 -1       961 1.66325E-04-7.27018E-07 1.65436E-24
 -1       962 1.66207E-04-1.12046E-06 0.00000E+00
 -1       963 1.66089E-04-1.49305E-06-1.65436E-24
 -1       964 1.65971E-04-1.85441E-06 3.30872E-24
 -1       965 1.65853E-04-2.21416E-06 0.00000E+00
 -1       966 1.65735E-04-2.58193E-06 0.00000E+00
 -1       967 1.65618E-04-2.96735E-06-1.65436E-24
 -1       968 1.65500E-04-3.38002E-06 0.00000E+00
 -1       969 1.65382E-04-3.82954E-06 0.00000E+00
 -1       970 1.65265E-04-4.32548E-06 0.00000E+00
 -1       971 1.65042E-04-5.42233E-06 1.65436E-24
 -1       972 1.64934E-04-5.88008E-06-1.65436E-24
 -1       973 1.64825E-04-6.25994E-06-3.30872E-24
 -1       974 1.64717E-04-6.57194E-06 0.00000E+00
 -1       975 1.64608E-04-6.82612E-06-3.30872E-24
 -1       976 1.64500E-04-7.03254E-06 1.65436E-24
 -1       977 1.64391E-04-7.20128E-06 0.00000E+00
 -1       978 1.64282E-04-7.34242E-06 0.00000E+00
 -1       979 1.64174E-04-7.46605E-06-3.30872E-24
 -1       980 1.64065E-04-7.58225E-06 0.00000E+00
 -1       981 1.63956E-04-7.70112E-06 3.30872E-24
 -1       982 1.63848E-04-7.83276E-06 0.00000E+00
 -1       983 1.63740E-04-7.98724E-06 0.00000E+00
 -1       984 1.63632E-04-8.17464E-06 0.00000E+00
 -1       985 1.63524E-04-8.40504E-06 0.00000E+00
 -3
    1PSTEP                        30          15           1          
  100CL  115 6.01089E-01         409                     0   15           1
 -4  STRESS      6    1
 -5  SXX         1    4    1    1
 -5  SYY         1    4    2    2
 -5  SZZ         1    4    3    3
 -5  SXY         1    4    1    2
 -5  SYZ         1    4    2    3
 -5  SZX         1    4    3    1
 -1         1-3.98710E+06-1.50858E+06-8.76741E+05-1.51474E+06-4.07454E-10 1.68744E-07
 -1         2 2.73789E+03-3.33639E+06 1.37948E+04-1.72778E+05-2.46405E-09-2.43113E-07
 -1         3-8.95375E+02-1.33768E+06 3.07097E+02-1.47669E+03-3.55655E-10 7.27232E-09
 -1         5-2.54523E+01 3.36593E+05 8.63965E+00-5.85743E-01-3.42453E-10 1.21545E-08
 -1         8-6.83971E+05-2.22835E+05-6.31239E+04-2.70760E+05 4.76575E-10 2.63935E-08
 -1         9 1.22566E+07-4.86853E+05 2.07838E+06-1.37525E+06 4.02448E-08-6.87549E-08
 -1        10-1.79400E+03-1.39383E+06-3.85199E+03-9.99959E+03-1.06375E-08-7.05059E-08
 -1        12-2.19510E+01 3.36611E+05 2.81323E+02-4.21401E+00-3.98476E-10-4.48199E-09
 -1        15 1.26132E+03 6.93162E+02 4.07719E+03 1.88055E+00 2.93781E-10 4.39300E-07
 -1        16 2.45852E+07-1.75053E+05 3.37312E+06-2.01300E+06 1.50952E-08 5.65002E-08
 -1        17 9.02204E+06 7.10795E+06 2.62186E+06 6.58955E+06-5.67234E-09 1.04192E-08
 -1        18 7.33458E+04 1.51618E+04-8.87553E+03-1.00750E+05 1.44087E-08 5.45924E-09
 -1        19 1.07634E+05 1.23877E+05-8.66744E+02 2.00517E+04 9.76797E-10-8.95452E-09
 -1        20-6.67142E+04-5.06516E+05-1.13263E+05 2.54449E+04-4.25947E-10 4.48199E-09
 -1        21-4.24250E+01-2.68386E+05-8.44235E+02 1.35813E+02 7.41181E-09-1.47075E-08
 -1        24 1.48520E+07 1.28855E+07 4.05840E+06 1.21649E+07-1.60643E-07-5.09899E-08
 -1        25 1.31961E+04-1.37459E+05-4.42424E+03-4.14180E+05-1.71458E-09-4.18913E-10
 -1        26-4.76904E+04 8.01503E+04-2.17327E+04-5.50560E+02 6.80666E-10 1.83060E-09
 -1        27-6.97760E+04-2.74450E+05-1.01038E+05 6.13004E+04 4.26401E-09 6.66872E-09
 -1        28 2.03522E+04-7.66600E+04 1.52946E+04 1.97935E+04-1.62260E-09-1.75858E-09
 -1        32-1.52403E+06-2.77948E+06-1.60750E+05 6.08966E+04-3.72602E-08-6.88721E-09
 -1        33-1.59337E+05 8.09775E+04 2.85014E+04-3.48736E+04-1.71815E-09-5.73497E-09
 -1        34-1.99668E+05-2.16187E+04 5.88389E+02 6.60524E+04-2.39554E-09-6.66447E-09
 -1        35-2.08809E+04-3.04187E+04-1.20723E+03 4.67211E+04-1.17330E-09 1.21036E-08
 -1        51 4.44717E+04-2.11986E+05 9.67178E+04-6.33866E+05-1.45519E-10-1.52650E-07
 -1        52 1.63091E+04-1.96809E+05 5.26375E+04-7.38991E+05 3.71074E-10-2.47957E-07
 -1        53 4.86343E+03-2.11229E+05 3.04426E+04-6.31545E+05 2.94676E-10-1.36519E-07
 -1        54 1.14236E+04-2.07917E+05 3.11357E+04-7.41428E+05-6.54836E-10-1.41128E-07
 -1        55 2.40837E+04-2.17360E+05 4.50374E+04-6.31200E+05 5.31145E-10 7.53062E-08
 -1        56-7.54201E+06-8.53342E+05-6.48565E+05-2.94660E+06 2.80852E-09-1.45810E-08
 -1        57-7.92085E+06-1.32033E+06-4.37062E+05-2.78246E+06 6.52108E-09-9.70467E-08
 -1        58-7.64503E+06-1.08566E+06-1.52366E+05-2.93542E+06 1.48539E-08 2.00685E-07
 -1        59-7.80626E+06-1.04372E+06-9.07947E+04-2.79312E+06-1.43027E-08 2.75318E-07
 -1        60-7.65551E+06-1.12225E+06-3.54070E+04-2.93884E+06-2.83189E-08-9.62555E-08
 -1        61-7.78100E+06-1.01283E+06-2.00213E+04-2.80243E+06 3.83747E-08-1.35402E-07
 -1        62-7.66959E+06-1.11575E+06-9.90645E+03-2.92616E+06 1.98270E-08-2.39409E-07
 -1        63-7.74030E+06-1.04416E+06-7.56058E+03-2.84172E+06 6.04450E-08-2.18428E-07
 -1        64-7.69478E+06-1.09173E+06-9.70850E+03-2.89857E+06-1.54359E-08-3.13328E-08
 -1        65-7.68970E+06-1.10002E+06-1.79673E+04-2.90016E+06-1.01300E-08 5.77468E-08
 -1        66-7.71976E+06-1.06032E+06-3.28748E+04-2.86736E+06 2.48892E-08 1.86280E-07
 -1        67-7.66452E+06-1.17806E+06-8.26043E+04-2.95021E+06-3.55940E-08-1.04282E-07
 -1        68-7.72155E+06-1.01379E+06-1.38892E+05-2.84917E+06-2.89947E-09-1.28675E-07
 -1        69-7.77806E+06-1.42519E+06-3.98861E+05-2.93789E+06-4.41123E-08-2.20167E-07
 -1        70-7.60943E+06-8.18767E+05-5.91063E+05-2.87867E+06-1.76369E-08-8.41392E-08
 -1        86-4.37120E+03-3.51836E+06-2.53304E+04 8.63292E+04 2.00112E-08-7.27941E-08
 -1        87-2.27295E+03-3.41285E+06-1.31205E+04-2.47321E+05 3.20288E-08-2.67976E-08
 -1        88 9.73357E+03-3.44934E+06-3.70622E+04 1.60972E+05 2.64408E-08-1.85589E-07
 -1        89-6.01267E+04-3.42274E+06-8.73612E+04-2.16266E+05 3.54903E-08-2.86783E-07
 -1        90 5.14365E+04-3.50669E+06-1.63589E+05 5.52395E+04 2.99042E-09 2.51858E-07
 -1       121-1.23728E+03-1.34070E+06-2.59527E+02 7.33802E+02 1.14461E-09-2.63462E-08
 -1       122-7.59882E+02-1.33769E+06 6.03208E+02-2.95404E+03-4.22264E-09-3.32420E-08
 -1       123-1.27622E+03-1.34079E+06 3.84515E+02 2.19314E+03 3.12093E-09-1.65383E-08
 -1       124 5.73029E+02-1.33717E+06 2.38873E+03-6.24574E+03-8.18090E-09-1.12577E-08
 -1       125-2.00978E+03-1.34152E+06 2.93991E+03 4.00425E+03 5.40604E-09-5.05424E-08
 -1       191-2.69981E+01 3.36617E+05 9.35492E+00 2.98676E-01-3.26914E-10-2.43745E-09
 -1       192-2.62583E+01 3.36593E+05 1.83396E+01-2.12474E+00-3.99536E-10-1.17961E-09
 -1       193-2.91347E+01 3.36617E+05 3.31611E+01 1.86247E+00-6.40055E-10 3.27418E-09
 -1       194-2.88492E+01 3.36596E+05 6.94825E+01-4.91660E+00-3.42829E-10-1.61162E-09
 -1       195-3.32387E+01 3.36615E+05 1.34961E+02 3.13538E+00-9.12870E-10 1.48375E-08
 -1       251-1.99192E+06-2.59143E+04-1.85437E+05-1.26491E+05 4.19095E-09 9.99207E-08
 -1       252-1.15383E+06 3.29948E+04 3.96888E+04 3.92204E+05-8.68977E-09-1.63185E-07
 -1       253-1.62197E+06-1.23805E+04-3.30039E+04-2.61543E+05-1.00390E-08-1.54180E-07
 -1       254-1.54650E+06 5.36605E+04 6.49027E+03 5.20585E+05-3.66856E-09-2.60297E-08
 -1       255-1.63828E+06-1.47412E+04-1.84982E+04-2.58176E+05-6.47742E-09 1.51132E-07
 -1       256-1.11245E+06 4.39452E+04 9.57906E+04 3.78305E+05 3.52738E-08 7.31961E-09
 -1       257-2.01356E+06-3.72328E+04-9.53432E+04-1.15799E+05-1.12959E-08-9.99105E-08
 -1       258-6.92408E+05 3.34245E+04 1.75505E+05 3.03119E+03 2.69729E-08-7.51497E-08
 -1       259-2.01703E+06-3.77764E+04-9.47873E+04 1.14921E+05-2.54513E-08-1.26574E-07
 -1       260-1.10413E+06 4.56314E+04 1.01160E+05-3.73696E+05 2.05619E-08-3.16845E-07
 -1       261-1.64231E+06-1.65420E+04-1.24038E+04 2.58708E+05 5.29071E-08-1.28463E-07
 -1       262-1.54292E+06 6.27608E+04 2.38394E+04-5.18787E+05-7.11958E-09 5.64727E-08
 -1       263-1.62146E+06-1.96925E+04-4.52154E+03 2.63579E+05 8.28368E-09 1.12524E-07
 -1       264-1.13839E+06 8.69541E+04 1.13688E+05-3.95022E+05 1.29264E-07 1.75978E-07
 -1       265-2.00864E+06-7.17148E+04-7.72747E+04 1.31631E+05 3.90282E-08 2.66998E-07
 -1       266-2.28341E+04-1.06775E+04 5.35741E+04-4.02374E+01 2.40107E-10-2.07489E-07
 -1       267 2.64710E+04 1.24445E+04 3.78660E+04 4.64267E+01 3.06954E-10-2.68082E-07
 -1       268-3.54971E+03-1.76250E+03 1.40746E+04-5.91553E+00 1.39153E-10-2.20920E-08
 -1       269 4.19116E+03 2.10931E+03 9.14828E+03 6.89075E+00 2.18279E-10-7.43277E-08
 -1       270-6.29099E+02-3.46578E+02 4.41601E+03-9.35121E-01 2.15891E-10 1.69427E-07
 -1       271-2.06958E+06-2.48529E+05-1.54048E+05-7.91472E+05 3.70637E-08-1.59482E-07
 -1       272-2.18322E+06-3.03578E+05-9.91770E+04-7.25228E+05 2.20625E-08-1.31442E-07
 -1       273-2.09720E+06-2.88419E+05-3.63447E+04-7.86176E+05 4.93992E-09-8.31915E-08
 -1       274-2.15063E+06-2.54803E+05-2.04014E+04-7.33493E+05 2.16560E-08-8.25999E-08
 -1       275-2.10122E+06-2.92499E+05-8.47130E+03-7.84912E+05 2.53021E-09-1.25558E-07
 -1       276-2.14436E+06-2.51110E+05-4.44757E+03-7.36122E+05-1.71749E-08 9.00734E-08
 -1       277-2.10290E+06-2.91911E+05-2.26119E+03-7.83388E+05 2.21735E-09 3.63366E-08
 -1       278-2.14015E+06-2.53734E+05-1.41367E+03-7.39313E+05-3.56849E-08 3.23971E-08
 -1       279-2.10472E+06-2.90276E+05-1.69572E+03-7.81232E+05-1.61344E-08 2.67482E-08
 -1       280-2.13544E+06-2.58323E+05-2.51767E+03-7.43581E+05 3.73038E-08 2.87419E-08
 -1       281-2.10679E+06-2.87860E+05-5.07222E+03-7.78534E+05-3.31602E-09 7.62757E-08
 -1       282-2.13182E+06-2.66658E+05-1.12249E+04-7.48547E+05-3.43243E-08 8.27886E-08
 -1       283-2.10758E+06-2.82727E+05-2.06634E+04-7.75614E+05-4.92582E-08 2.41078E-07
 -1       284-2.14303E+06-3.00104E+05-5.50266E+04-7.50814E+05-5.56684E-08 1.24951E-07
 -1       285-2.09536E+06-2.57578E+05-8.63567E+04-7.74852E+05 3.10574E-08 2.43290E-07
 -1       301 9.55377E+03-5.75757E+05 1.24809E+05-9.36090E+05 6.11180E-10 4.14220E-08
 -1       302 1.09427E+04-5.43755E+05 7.74553E+04-1.36986E+06-1.10595E-09 1.14790E-08
 -1       303-6.01218E+03-5.63938E+05 4.89766E+04-9.34320E+05 1.96451E-10-1.73924E-07
 -1       304-1.03306E+03-5.35953E+05 5.88970E+04-1.36816E+06-8.22183E-10 1.72564E-07
 -1       305-8.59641E+03-5.54246E+05 8.17935E+04-9.37574E+05 5.63887E-10 1.12559E-07
 -1       306-3.32464E+07-5.97493E+06-9.03640E+06-6.58779E+05-1.20839E-07-8.90577E-09
 -1       307 3.07819E+07 3.85586E+06 6.58035E+06-1.40222E+07-6.74379E-07-1.61934E-07
 -1       308-6.71991E+06-1.50513E+06-7.68453E+05 5.60192E+06 1.64902E-07-3.24217E-08
 -1       309-7.76067E+05 9.71028E+06 2.67918E+06-1.98375E+07 4.18120E-07-1.44624E-07
 -1       310-1.20439E+07-2.17637E+06-2.13932E+06 5.91144E+06-2.85800E-07-1.28435E-07
 -1       311 4.16554E+07 8.72888E+05 8.07360E+06-8.82652E+06 2.70957E-08-1.46014E-07
 -1       312-3.46809E+07-5.84978E+06-8.77554E+06-4.96812E+06-1.78465E-07-1.46145E-07
 -1       313 5.09334E+07 1.57826E+07 1.20301E+07 2.49635E+07-3.09228E-07 2.02883E-07
 -1       314-1.86766E+07-1.87083E+07-7.96505E+06-1.42567E+07 3.64322E-07-1.92085E-08
 -1       315 1.90674E+06 3.12365E+07 6.54907E+06 1.31816E+07 1.50379E-07-7.05040E-07
 -1       316 1.69840E+06-1.01356E+07-7.10924E+05-2.22362E+06 6.63807E-07-6.14440E-07
 -1       317-1.48115E+07 2.36941E+07 2.65707E+06-7.36067E+06 1.64058E-07-1.05804E-06
 -1       318-5.94296E+05-1.33329E+07-2.21816E+06-4.03824E+06-1.13042E-06 9.72068E-09
 -1       319 1.02492E+07 3.39350E+07 8.05983E+06 1.84213E+07-7.67643E-07 8.67294E-08
 -1       320-2.39014E+07-1.86586E+07-1.00439E+07-1.44884E+07-3.47267E-07-4.11528E-08
 -1       336-5.96037E+01-1.45126E+06-1.24881E+04 5.91459E+03-2.02044E-08-7.45786E-09
 -1       337-4.99517E+03-1.45224E+06-1.75127E+04-1.44443E+04-3.78159E-08 7.55244E-09
 -1       338 9.79171E+02-1.45053E+06-2.77512E+04 8.40287E+03-2.73258E-08 1.83718E-09
 -1       339-3.03227E+04-1.46877E+06-6.39714E+04-1.93668E+04-4.97857E-08 2.59606E-08
 -1       340 2.03870E+04-1.43591E+06-1.00496E+05 1.07300E+04-3.31274E-08 1.37916E-08
 -1       406-1.40783E+00 3.36602E+05 5.54399E+02 1.19979E+00-1.08658E-09-1.31113E-08
 -1       407 1.71814E+02 3.36708E+05 1.18041E+03 1.48506E+01-4.06835E-10-9.57789E-09
 -1       408 5.85028E+02 3.36517E+05 2.35623E+03-1.64094E+01-1.49595E-09 9.84255E-09
 -1       409 2.52880E+03 3.37461E+05 5.30650E+03 1.68023E+02-1.14994E-10 1.57852E-08
 -1       410 7.30489E+03 3.35844E+05 1.08321E+04-1.60113E+02-1.68075E-09-1.47102E-08
 -1       521-3.35505E+07-8.28123E+06-1.08211E+07-1.04984E+05-8.92906E-08-2.84752E-07
 -1       522 2.92599E+07 4.95802E+06 6.16730E+06-1.94001E+07-4.75091E-07-6.20785E-08
 -1       523-7.75921E+06-1.82158E+06-6.45392E+05 6.02889E+06 1.63564E-07-2.74085E-07
 -1       524-7.93378E+06 1.38134E+07 2.64547E+06-2.42979E+07 9.17295E-07-6.14637E-07
 -1       525-1.28418E+07-2.89067E+06-2.17698E+06 6.17273E+06 4.69270E-07-1.46625E-07
 -1       526 4.30176E+07 6.15823E+05 7.91215E+06-1.33052E+07 3.89060E-07 6.01576E-08
 -1       527-3.53242E+07-8.55384E+06-1.03263E+07-4.34920E+06 4.67524E-07 1.19471E-08
 -1       528 5.40218E+07 1.66270E+07 1.17507E+07 2.79714E+07 4.04194E-07-6.95873E-08
 -1       529-1.94765E+07-2.08235E+07-9.25961E+06-1.31995E+07 1.71014E-07-2.39583E-07
 -1       530-3.32066E+06 3.66875E+07 6.47227E+06 1.14814E+07-1.19355E-07 7.50355E-07
 -1       531 1.40459E+06-1.14377E+07-5.58237E+05-2.46186E+06-8.52597E-07 5.43136E-07
 -1       532-1.99682E+07 2.56922E+07 2.63207E+06-1.39044E+07 4.44037E-07-7.26766E-07
 -1       533-8.67442E+05-1.42533E+07-2.20562E+06-3.87797E+06-3.56813E-07-1.05711E-06
 -1       534 5.39156E+06 3.92251E+07 7.65720E+06 1.79178E+07-1.07131E-07 7.79110E-07
 -1       535-2.46492E+07-2.10285E+07-1.19126E+07-1.34034E+07 1.06520E-07 4.81145E-07
 -1       536-5.91680E+05-2.45577E+04-4.58481E+04-4.00542E+04 2.18733E-10 5.83485E-08
 -1       537-1.68063E+05 2.20755E+04 4.53318E+04 9.52821E+04-9.06950E-08 8.33734E-08
 -1       538-3.88145E+05 3.29385E+03-1.24777E+03-5.74206E+04 1.28398E-08 7.94329E-08
 -1       539-3.07814E+05 2.42190E+02 1.38028E+04 1.08950E+05 1.11020E-07 9.67675E-08
 -1       540-4.55483E+05 2.10592E+02-1.47331E+04-5.40044E+04 9.83164E-10 8.71297E-08
 -1       541-3.17153E+04 1.08133E+04 6.96094E+04 7.37251E+04-6.34350E-09 5.70035E-08
 -1       542-6.56861E+05-1.33870E+04-5.61249E+04-2.17366E+04 3.76494E-08 3.60342E-08
 -1       543 1.39113E+05 1.80806E+04 1.04035E+05-1.08573E+04 1.37400E-08-1.25201E-08
 -1       544-6.21761E+05-1.08027E+04-4.94582E+04 3.02189E+04-1.14824E-08-4.70408E-08
 -1       545-1.12535E+05 5.79634E+03 5.14434E+04-8.75498E+04 1.27117E-08-7.19629E-08
 -1       546-4.11926E+05 4.42551E+03-8.57956E+03 5.47814E+04 4.88767E-08-6.57395E-08
 -1       547-3.19886E+05-4.56502E+03 4.35090E+03-1.11309E+05-8.63369E-08-8.77360E-08
 -1       548-4.19935E+05 4.13571E+03-1.94960E+04 5.43433E+04-8.22988E-08-7.79796E-08
 -1       549-9.73196E+04 3.56961E+03 3.05108E+04-8.48442E+04-5.97823E-08-6.63381E-08
 -1       550-6.28506E+05-8.67017E+03-9.95644E+04 2.79319E+04 6.53472E-09-4.06126E-08
 -1       551 1.94195E+04-5.79361E+05-2.12955E+04-9.41370E+05-8.24148E-08-5.07862E-09
 -1       552 5.29694E+04-6.08644E+05 4.46881E+03-1.34062E+06-5.77711E-08 1.80735E-08
 -1       553 4.24202E+04-6.08932E+05 2.77532E+04-9.36353E+05-9.93750E-08 2.89147E-08
 -1       554 8.71659E+04-6.16068E+05 7.45063E+04-1.34310E+06-6.11035E-08 1.58616E-08
 -1       555 7.16413E+04-6.32969E+05 1.38931E+05-9.35635E+05-1.02664E-07-1.02154E-08
 -1       556 1.79029E+05-3.17650E+05 1.09395E+04-3.46596E+05-1.98052E-08-5.18048E-09
 -1       557 2.83715E+05-4.05960E+05 7.55769E+03-4.49820E+05-2.89583E-09 7.14317E-09
 -1       558 1.65599E+05-3.10943E+05 2.44608E+02-3.49808E+05-2.04309E-08 2.88856E-09
 -1       559 2.67956E+05-4.05545E+05 9.91749E+02-4.64209E+05 1.60071E-08 1.14596E-09
 -1       560 1.55126E+05-3.04333E+05-1.22673E+03-3.57184E+05 1.75205E-08 8.48377E-09
 -1       561 2.55052E+05-4.00322E+05-2.26220E+01-4.72999E+05 8.27276E-09 5.50426E-09
 -1       562 1.47004E+05-2.99289E+05-8.68497E+02-3.63005E+05-6.97037E-09 6.75936E-09
 -1       563 2.45526E+05-3.96150E+05-1.90230E+01-4.79189E+05-6.08270E-09 5.92081E-09
 -1       564 1.41347E+05-2.95765E+05-3.45793E+02-3.66997E+05 1.62981E-09-1.25533E-08
 -1       565 2.39404E+05-3.93485E+05 3.58091E+01-4.83090E+05 1.52140E-08-3.37968E-09
 -1       566 1.38222E+05-2.93784E+05-1.40672E+02-3.69184E+05-1.54978E-09-1.22818E-08
 -1       567 2.36716E+05-3.92311E+05-2.41718E+02-4.84686E+05 1.34423E-08-6.63567E-09
 -1       568 1.37688E+05-2.93467E+05-7.84269E+02-3.69651E+05-1.96269E-09-3.02680E-09
 -1       569 2.36303E+05-3.92278E+05-1.96858E+03-4.83078E+05-2.08820E-09 1.84373E-08
 -1       570 1.40668E+05-2.96159E+05-4.35948E+03-3.68899E+05 7.65431E-09-1.11422E-08
 -1       571 2.54719E+05 9.25692E+03 1.33988E+04-7.71151E+04-8.41737E-09 8.08632E-09
 -1       572 2.56681E+05 3.38705E+03 6.56567E+03-8.46025E+04-1.77274E-08 1.41472E-09
 -1       573 2.55503E+05 9.72536E+02 2.91720E+03-7.69637E+04-7.92306E-09-1.54978E-09
 -1       574 2.55712E+05 4.92179E+02 1.46246E+03-8.47880E+04 9.54969E-11 1.68075E-09
 -1       575 2.55590E+05 2.57540E+02 6.90060E+02-7.69431E+04-1.16684E-08 1.55069E-09
 -1       576 2.55589E+05 2.53859E+02 3.52868E+02-8.48127E+04-2.24770E-08-1.24601E-10
 -1       577 2.55619E+05 2.09959E+02 1.75981E+02-7.69404E+04-1.40044E-08 5.65706E-09
 -1       578 2.55602E+05 2.27586E+02 1.00938E+02-8.48160E+04-6.56701E-09 1.14214E-08
 -1       579 2.55665E+05 1.88091E+02 6.91438E+01-7.69401E+04 2.45200E-09-1.60217E-08
 -1       580 2.55667E+05 1.96334E+02 7.88291E+01-8.48118E+04-8.39646E-09-2.31039E-08
 -1       581 2.55738E+05 1.52910E+02 1.19636E+02-7.69449E+04 3.21779E-09 5.58248E-09
 -1       582 2.55785E+05 1.82422E+02 2.41227E+02-8.47618E+04 4.55839E-09-5.06770E-09
 -1       583 2.55824E+05 2.09894E+02 4.65539E+02-7.69904E+04 1.40426E-09-1.87219E-09
 -1       584 2.56065E+05 5.86307E+02 1.05066E+03-8.43792E+04 2.97769E-09-1.21886E-08
 -1       585 2.55808E+05 1.48898E+03 2.13136E+03-7.73273E+04-1.19690E-09-8.56744E-09
 -1       586-3.07016E+03 9.51015E+04-3.07330E+03-2.23431E+05-4.51519E-09 5.89375E-09
 -1       587-1.00555E+03 9.47864E+04 3.92180E+02-2.45920E+05-4.45471E-09 1.07852E-08
 -1       588 5.66173E+02 9.47000E+04 3.98585E+03-2.23318E+05-2.81398E-09-9.92259E-10
 -1       589 4.65584E+03 9.67970E+04 1.05918E+04-2.45685E+05-6.83667E-09-1.57124E-08
 -1       590 1.45861E+04 9.35376E+04 2.23191E+04-2.23703E+05-3.19051E-09 4.83669E-09
 -1       591-6.00546E+04-1.35851E+04-1.89615E+04-2.65079E+04 1.71940E-09-4.08636E-09
 -1       592-6.32499E+04-1.68253E+04-1.02709E+04-2.98385E+04 3.96057E-10-9.36302E-09
 -1       593-6.19525E+04-1.22075E+04-4.27537E+03-2.78967E+04-7.43569E-10-8.33415E-09
 -1       594-6.06285E+04-1.40466E+04-2.13228E+03-2.99419E+04 4.69993E-09 3.96938E-10
 -1       595-6.20972E+04-1.22028E+04-9.79102E+02-2.79598E+04-3.78009E-11 7.88560E-09
 -1       596-6.04493E+04-1.39195E+04-4.97853E+02-2.99209E+04 3.63571E-09 2.70475E-09
 -1       597-6.21154E+04-1.22156E+04-2.71339E+02-2.79622E+04 1.96644E-09 1.11100E-09
 -1       598-6.04317E+04-1.39145E+04-2.18577E+02-2.99151E+04-1.39093E-09-4.00621E-09
 -1       599-6.21143E+04-1.22160E+04-2.79759E+02-2.79619E+04-2.69438E-10-1.85765E-08
 -1       600-6.04496E+04-1.39202E+04-5.20154E+02-2.99194E+04 2.12731E-09-1.62020E-08
 -1       601-6.20931E+04-1.22035E+04-1.02636E+03-2.79588E+04 4.38195E-09-9.80515E-09
 -1       602-6.06375E+04-1.40527E+04-2.23699E+03-2.99383E+04 1.13607E-09-2.05134E-08
 -1       603-6.19390E+04-1.22109E+04-4.48613E+03-2.78932E+04-5.89694E-09-6.53426E-09
 -1       604-6.34031E+04-1.69517E+04-1.07767E+04-2.98087E+04 3.01156E-10 1.45039E-08
 -1       605-5.99303E+04-1.36716E+04-1.98953E+04-2.64525E+04 4.68492E-09 1.27948E-08
 -1       606 2.59801E+04-1.24152E+04-2.22793E+04 2.40635E+04 3.48882E-09-5.13000E-09
 -1       607 2.21713E+04-4.04333E+03-1.10947E+04 2.70302E+04-1.70985E-10-9.36598E-09
 -1       608 2.43399E+04-7.18527E+02-4.96710E+03 2.38847E+04-4.33829E-09-1.61549E-09
 -1       609 2.39206E+04-2.33276E+02-2.50912E+03 2.72436E+04-1.09412E-09 6.26187E-10
 -1       610 2.41514E+04-1.98475E+01-1.19743E+03 2.38640E+04-8.07540E-09 1.72624E-08
 -1       611 2.40823E+04-1.62412E+01-6.03737E+02 2.72667E+04-1.96305E-08 4.42765E-09
 -1       612 2.41077E+04-6.20335E+00-2.87339E+02 2.38619E+04-1.09367E-08-1.13369E-09
 -1       613 2.40895E+04-1.10647E+01-1.29050E+02 2.72695E+04 2.75077E-09 4.08136E-10
 -1       614 2.40863E+04-1.03345E+01-3.11098E+01 2.38612E+04 1.59525E-09 1.96426E-08
 -1       615 2.40826E+04-8.50246E+00 5.21390E+01 2.72699E+04 1.06547E-09 2.42726E-08
 -1       616 2.40696E+04-6.58126E+00 1.58125E+02 2.38615E+04 6.85304E-10-5.91876E-09
 -1       617 2.40999E+04 2.62575E+01 3.61523E+02 2.72694E+04 9.06539E-10-4.63115E-09
 -1       618 2.40369E+04 9.84553E+01 7.28950E+02 2.38617E+04 8.23093E-11 8.16067E-09
 -1       619 2.43562E+04 5.90555E+02 1.63710E+03 2.72688E+04-3.35422E-09 2.10775E-09
 -1       620 2.37941E+04 1.82761E+03 3.29056E+03 2.38620E+04 1.99634E-10-3.74439E-09
 -1       621 3.72203E+02 2.61520E+05 3.09329E+03 2.95125E+04 4.50655E-10 1.27829E-08
 -1       622 4.79310E+02 2.62253E+05 2.81419E+03 4.28805E+04 4.33374E-10 2.11785E-08
 -1       623 7.31083E+01 2.61682E+05 3.47381E+03 2.93761E+04 6.73595E-10 3.70892E-09
 -1       624 1.72929E+03 2.63342E+05 6.80808E+03 4.30166E+04 8.45887E-10-2.05573E-08
 -1       625 1.71258E+03 2.60335E+05 1.19328E+04 2.93731E+04 9.77252E-10-3.26304E-09
 -1       626 2.29302E+05 5.61774E+04 4.73841E+03 1.14106E+05 3.45608E-09 6.63385E-09
 -1       627 2.27054E+05 5.75743E+04 2.28333E+03 1.18174E+05-1.18735E-09 1.88421E-08
 -1       628 2.29429E+05 5.39990E+04 9.65405E+02 1.14899E+05-5.00040E-09 5.86761E-09
 -1       629 2.26451E+05 5.69583E+04 4.72495E+02 1.18409E+05-2.73940E-09-6.29866E-09
 -1       630 2.29441E+05 5.38943E+04 2.18884E+02 1.14931E+05-4.77485E-10 6.83193E-09
 -1       631 2.26386E+05 5.69362E+04 1.17355E+02 1.18410E+05 1.34605E-09 2.52721E-08
 -1       632 2.29436E+05 5.38990E+04 7.64914E+01 1.14926E+05-2.33922E-09 1.09817E-08
 -1       633 2.26376E+05 5.69390E+04 8.40610E+01 1.18406E+05-1.30948E-08 3.35126E-09
 -1       634 2.29430E+05 5.38975E+04 1.34842E+02 1.14924E+05-1.00681E-08 3.95062E-09
 -1       635 2.26387E+05 5.69383E+04 2.72256E+02 1.18409E+05 1.63374E-09 1.48220E-08
 -1       636 2.29421E+05 5.38934E+04 5.49527E+02 1.14923E+05-1.74145E-09-1.34046E-08
 -1       637 2.26505E+05 5.70242E+04 1.20794E+03 1.18407E+05-4.36376E-09-1.13657E-08
 -1       638 2.29377E+05 5.41608E+04 2.48196E+03 1.14802E+05 1.96360E-09-6.61475E-09
 -1       639 2.27808E+05 5.88372E+04 5.87215E+03 1.18022E+05-2.10639E-09 1.50796E-08
 -1       640 2.29198E+05 5.95728E+04 1.21858E+04 1.12517E+05 3.81988E-09 1.70180E-08
 -1       656 5.91227E+04-1.50963E+06-1.42726E+05-1.62336E+03-1.74623E-10-4.03006E-09
 -1       657-7.81982E+04-1.57411E+06-1.18203E+05 6.03229E+03-1.99179E-10-9.95436E-09
 -1       658 1.88307E+04-1.52795E+06-7.27540E+04-3.32219E+03 2.73758E-10-8.77264E-10
 -1       659-8.44345E+04-1.57706E+06-1.26396E+05 7.37426E+03-1.33787E-09 4.82181E-09
 -1       660 6.53446E+04-1.50668E+06-1.56815E+05-2.96531E+03-1.28784E-09 1.27231E-08
 -1       661 1.55616E+05 1.64823E+04 1.59861E+04 6.08434E+04-3.15595E-10-7.10133E-09
 -1       662 1.64477E+05 2.84942E+04 1.07731E+04 5.74583E+04-3.78577E-10 1.98327E-09
 -1       663 1.58754E+05 2.16124E+04 3.76798E+03 5.99341E+04 2.73758E-09 5.37420E-09
 -1       664 1.60841E+05 2.24931E+04 2.25366E+03 5.85674E+04 2.12492E-09 3.56226E-09
 -1       665 1.59228E+05 2.23148E+04 8.89080E+02 5.97974E+04 2.82705E-09-6.08054E-10
 -1       666 1.60281E+05 2.16885E+04 5.19900E+02 5.87448E+04 5.74948E-09-5.67309E-09
 -1       667 1.59310E+05 2.23961E+04 2.75805E+02 5.97644E+04 1.17569E-09-1.11874E-08
 -1       668 1.60192E+05 2.16281E+04 2.80146E+02 5.87924E+04-2.17894E-09 7.76537E-09
 -1       669 1.59317E+05 2.23734E+04 3.78611E+02 5.97502E+04-1.05328E-09-6.68669E-09
 -1       670 1.60285E+05 2.18319E+04 8.23755E+02 5.87937E+04-4.01027E-09-2.92107E-09
 -1       671 1.59217E+05 2.21965E+04 1.46244E+03 5.97614E+04 8.70465E-10 6.32718E-09
 -1       672 1.61138E+05 2.32538E+04 3.74144E+03 5.85864E+04-5.15570E-10 1.01221E-09
 -1       673 1.58468E+05 2.09874E+04 6.27000E+03 5.99436E+04 5.44219E-10 9.73978E-09
 -1       674 1.67107E+05 3.33258E+04 1.79309E+04 5.68315E+04-5.75653E-10-1.66438E-09
 -1       675 1.53286E+05 1.24066E+04 2.66156E+04 6.14104E+04-1.70257E-09-3.60160E-09
 -1       676 2.19413E+01-2.68316E+05-1.01752E+03-6.79083E+01 5.20089E-10-5.41349E-09
 -1       677-2.69921E+02-2.68562E+05-1.86222E+03 1.35723E+02 5.33279E-09-8.01990E-10
 -1       678 1.80427E+02-2.68141E+05-3.29193E+03-6.77694E+01 9.31209E-10-7.22075E-10
 -1       679-3.29264E+03-2.70549E+05-7.82016E+03 1.35188E+02 3.94141E-09 1.96093E-09
 -1       680 1.96530E+03-2.66330E+05-1.26035E+04-6.66174E+01 3.02407E-10 1.86859E-08
 -1       771-2.79205E+06-6.57081E+05-1.49986E+05-1.31926E+06-3.11120E-08-2.05473E-08
 -1       772-2.73078E+06-7.37038E+05-7.80827E+04-1.41098E+06-2.58296E-08 1.71131E-08
 -1       773-2.81864E+06-6.36401E+05-3.82457E+04-1.33146E+06-1.45810E-08 1.07248E-08
 -1       774-2.71946E+06-7.19699E+05-1.74012E+04-1.43064E+06 1.92667E-08 1.68075E-09
 -1       775-2.83108E+06-6.27759E+05-1.19903E+04-1.33648E+06-8.20728E-09 1.96451E-09
 -1       776-2.72801E+06-7.17448E+05-4.65585E+03-1.44498E+06-4.51109E-10 4.18004E-09
 -1       777-2.84158E+06-6.20192E+05-4.93879E+03-1.34082E+06 4.88944E-09 7.84348E-09
 -1       778-2.73709E+06-7.15571E+05-1.46107E+03-1.45722E+06 4.36557E-10 9.42964E-09
 -1       779-2.85049E+06-6.13638E+05-2.35963E+03-1.34451E+06-1.05938E-08-9.13496E-09
 -1       780-2.74503E+06-7.13820E+05-4.10617E+02-1.46716E+06-4.47471E-09 4.45652E-10
 -1       781-2.85752E+06-6.08388E+05-8.94379E+02-1.34739E+06-2.35304E-08-2.00089E-11
 -1       782-2.75111E+06-7.12342E+05 3.21331E+02-1.47447E+06-3.18396E-08-8.39736E-09
 -1       783-2.86244E+06-6.04767E+05 5.12554E+02-1.34940E+06-8.65111E-09-1.60535E-08
 -1       784-2.75443E+06-7.10807E+05 2.09794E+03-1.47897E+06-1.62108E-08 1.21281E-09
 -1       785-2.86534E+06-6.02617E+05 3.70666E+03-1.35068E+06-3.17486E-08 6.62840E-09
 -1       786 1.15774E+05-8.99325E+03 2.08058E+04-2.17767E+02 1.45916E-09 2.45409E-08
 -1       787 1.24798E+05 1.04117E+04 1.47194E+04-5.11376E+01 7.40370E-09 2.01635E-08
 -1       788 1.19253E+05-1.40951E+03 5.38308E+03-1.88642E+02 4.72421E-09 2.05760E-08
 -1       789 1.20745E+05 1.63097E+03 3.37959E+03-9.69111E+01 2.24073E-09 1.25686E-09
 -1       790 1.19828E+05-2.19708E+02 1.36893E+03-1.72004E+02-3.07975E-10 9.59886E-09
 -1       791 1.20073E+05 2.53850E+02 7.91856E+02-1.25625E+02-4.28042E-09 3.04814E-08
 -1       792 1.19925E+05-3.34119E+01 3.37915E+02-1.59930E+02-2.47148E-09-2.21105E-09
 -1       793 1.19957E+05 3.59735E+01 1.73656E+02-1.48238E+02-2.48008E-10-2.17844E-08
 -1       794 1.19944E+05-1.96859E+00 5.55602E+01-1.49390E+02 3.87148E-09-1.49493E-09
 -1       795 1.19927E+05-1.66256E+01-2.52273E+01-1.69921E+02-4.00492E-09 7.07234E-09
 -1       796 1.19955E+05 1.91587E+01-1.01656E+02-1.38246E+02 2.17047E-09 2.84752E-09
 -1       797 1.19864E+05-1.45442E+02-2.92514E+02-1.95022E+02 3.19258E-09 1.15079E-08
 -1       798 1.20007E+05 1.26751E+02-4.78739E+02-1.24289E+02 2.24264E-09 4.78508E-09
 -1       799 1.19499E+05-9.35440E+02-1.32037E+03-2.28738E+02 4.28753E-09-1.93743E-08
 -1       800 1.20320E+05 8.08511E+02-1.86943E+03-1.04531E+02 8.97165E-10-4.88353E-09
 -1       801-3.71262E+04-7.36494E+06-9.53730E+05 8.18064E+05 7.16245E-08-5.00295E-08
 -1       802 3.44969E+05 1.89391E+06 1.16057E+06-9.55662E+05 2.01773E-07-1.65419E-08
 -1       803-2.98198E+05-9.63864E+06-1.10620E+06 5.25453E+05 6.29952E-08 1.52522E-08
 -1       804 1.28725E+05-3.06716E+05 8.15157E+05 4.71025E+05-8.50177E-08-7.03312E-08
 -1       805 1.35321E+05-5.17855E+06-1.79874E+05-6.05483E+05-3.55794E-08-4.95675E-08
 -1       806-2.74823E+05-5.22533E+04-2.00538E+04-1.07847E+05-7.99719E-09 7.24413E-10
 -1       807-2.76536E+05-4.88435E+04-9.85222E+03-1.12552E+05 3.29419E-09-1.72382E-08
 -1       808-2.75363E+05-4.50363E+04-4.17973E+03-1.11276E+05-4.76984E-09 1.48279E-08
 -1       809-2.74472E+05-4.60690E+04-2.04383E+03-1.12788E+05 1.39471E-09 1.14371E-08
 -1       810-2.75446E+05-4.47849E+04-9.36779E+02-1.11429E+05 4.39059E-09-8.91055E-09
 -1       811-2.74313E+05-4.59568E+04-4.65887E+02-1.12757E+05-2.21917E-10-1.68621E-08
 -1       812-2.75460E+05-4.48060E+04-2.35610E+02-1.11429E+05-4.65479E-09-1.23373E-09
 -1       813-2.74292E+05-4.59582E+04-1.53189E+02-1.12741E+05-4.17913E-10-3.69255E-10
 -1       814-2.75455E+05-4.48137E+04-1.51791E+02-1.11426E+05 1.48430E-09-6.51562E-09
 -1       815-2.74297E+05-4.59597E+04-2.44812E+02-1.12736E+05-1.80125E-09-3.08692E-08
 -1       816-2.75438E+05-4.48119E+04-4.63898E+02-1.11423E+05 3.93629E-09 8.51151E-09
 -1       817-2.74377E+05-4.60036E+04-9.96012E+02-1.12728E+05-7.24140E-09 1.36599E-08
 -1       818-2.75380E+05-4.49511E+04-2.03132E+03-1.11358E+05-2.58387E-09 5.35192E-09
 -1       819-2.75489E+05-4.72325E+04-4.78018E+03-1.12469E+05-3.06318E-09-2.96077E-08
 -1       820-2.75003E+05-4.85576E+04-9.72907E+03-1.09811E+05 4.66025E-09-2.39177E-08
 -1       821-3.38107E+05 1.86410E+04-4.31271E+04 9.05335E+02 6.75180E-09-2.51021E-09
 -1       822-3.56736E+05-2.15801E+04-3.05084E+04-1.54038E+03 1.31193E-09 3.27600E-09
 -1       823-3.45280E+05 2.92355E+03-1.11670E+04 1.08933E+03-4.65346E-09-6.51607E-09
 -1       824-3.48323E+05-3.38125E+03-7.02132E+03-1.44230E+03 3.91159E-10 9.52514E-09
 -1       825-3.46517E+05 4.55789E+02-2.89613E+03 8.07263E+02 6.50470E-09 1.25079E-08
 -1       826-3.46842E+05-5.35014E+02-1.72075E+03-5.51627E+02 7.46094E-09 7.14908E-09
 -1       827-3.46758E+05 7.73235E+01-9.21606E+02 1.98638E+02 3.71996E-09-1.41642E-09
 -1       828-3.46638E+05-1.62001E+02-7.76209E+02 6.89092E+02-1.43470E-09-6.10081E-09
 -1       829-3.46720E+05 8.28210E+01-9.35675E+02-4.33476E+02 9.67511E-10 6.62328E-09
 -1       830-3.46936E+05-5.61580E+02-1.80065E+03 1.66029E+03 5.36055E-10 1.10260E-08
 -1       831-3.46463E+05 4.78627E+02-2.99936E+03-7.72580E+02-1.69651E-09 1.08045E-08
 -1       832-3.48408E+05-3.52113E+03-7.30693E+03 1.87555E+03-5.41290E-10 1.13250E-08
 -1       833-3.45250E+05 3.04095E+03-1.16214E+04-6.48733E+02-2.70993E-09 1.26588E-08
 -1       834-3.57060E+05-2.24476E+04-3.17211E+04 1.21555E+03-1.28288E-09 7.92625E-10
 -1       835-3.37812E+05 1.93888E+04-4.48753E+04-1.12566E+02 4.75254E-09-1.22036E-08
 -1       836-1.20637E+03 3.22832E+05 1.98515E+04-1.50619E+04-4.22369E-09 1.03591E-08
 -1       837 4.26726E+03 3.29033E+05 1.68738E+04-3.05515E+04-4.31351E-09 1.30242E-08
 -1       838-4.72491E+02 3.24562E+05 1.72995E+04-1.49967E+04-3.62979E-09 1.36658E-08
 -1       839 1.09644E+04 3.34024E+05 3.28308E+04-3.05980E+04-3.29965E-09 7.23497E-09
 -1       840-3.36572E+03 3.17793E+05 5.23988E+04-1.50180E+04-3.23780E-09-2.34816E-09
 -1       856-5.85050E+04 7.55471E+03-1.99083E+04-3.88021E+02 2.50026E-09-7.18865E-09
 -1       857-6.67149E+04-8.87072E+03-1.37053E+04 5.10443E+03 2.39399E-09-3.99882E-09
 -1       858-6.17534E+04 1.05917E+03-5.16598E+03-4.09692E+02 1.60878E-09 1.14255E-09
 -1       859-6.29861E+04-1.24070E+03-3.11814E+03 5.13737E+03-1.86458E-09-3.90537E-09
 -1       860-6.22389E+04 1.47985E+02-1.30784E+03-4.20832E+02 3.89406E-10 1.18206E-09
 -1       861-6.24274E+04-1.71720E+02-7.21702E+02 5.15257E+03-2.54003E-09-1.97292E-09
 -1       862-6.23148E+04 1.98395E+01-3.04453E+02-4.24896E+02 5.28591E-10 1.26487E-08
 -1       863-6.23351E+04-1.66120E+01-1.21011E+02 5.15479E+03-6.36469E-10 1.08941E-08
 -1       864-6.23315E+04-3.64101E+00 2.16939E+01-4.23050E+02 3.20895E-10 2.85286E-09
 -1       865-6.22891E+04 4.99593E+01 1.89649E+02 5.14464E+03-1.48218E-09-1.53760E-08
 -1       866-6.23589E+04-4.68137E+01 3.93932E+02-4.14744E+02 5.46549E-11-3.37536E-10
 -1       867-6.21010E+04 3.88155E+02 9.77038E+02 5.12204E+03 1.62785E-09 1.05397E-08
 -1       868-6.25155E+04-3.35960E+02 1.62548E+03-4.00452E+02-8.81869E-10 8.87383E-09
 -1       869-6.09076E+04 2.79660E+03 4.33063E+03 5.08436E+03 2.88787E-09-4.47477E-09
 -1       870-6.35459E+04-2.39017E+03 6.28458E+03-3.77017E+02-4.20710E-09-9.83982E-09
 -1       871-4.98057E+03-1.65237E+04-1.70895E+04 1.14165E+05-2.12822E-09 9.31686E-09
 -1       872-1.92362E+03-2.04481E+04-7.10958E+03 1.48025E+05-5.38967E-09 5.50790E-09
 -1       873 2.16069E+02-1.85699E+04 6.34492E+02 1.13914E+05-2.82762E-09 1.06678E-08
 -1       874 2.78124E+03-1.63548E+04 8.84967E+03 1.48057E+05-6.90670E-09-1.66256E-08
 -1       875 6.02007E+03-2.06797E+04 1.98739E+04 1.14124E+05-2.85036E-09-1.51567E-08
 -1       876 2.62574E+05 4.44847E+04 1.35899E+04 1.05645E+05 4.57862E-09-1.66710E-09
 -1       877 2.63450E+05 4.73688E+04 7.25748E+03 1.09562E+05 5.55428E-09-1.26848E-08
 -1       878 2.63844E+05 4.29799E+04 3.04056E+03 1.06759E+05-8.49968E-09-1.79193E-08
 -1       879 2.61602E+05 4.55257E+04 1.51492E+03 1.09655E+05 5.65160E-09 1.99652E-08
 -1       880 2.63936E+05 4.29639E+04 7.05597E+02 1.06805E+05-4.43151E-09-3.66055E-09
 -1       881 2.61480E+05 4.54471E+04 3.76644E+02 1.09635E+05-1.23759E-09-9.52917E-09
 -1       882 2.63944E+05 4.29755E+04 2.40724E+02 1.06806E+05 1.07868E-08 2.76486E-09
 -1       883 2.61471E+05 4.54431E+04 2.58392E+02 1.09629E+05-3.30601E-09 1.09361E-08
 -1       884 2.63938E+05 4.29729E+04 4.10698E+02 1.06806E+05-2.16119E-10-1.40369E-09
 -1       885 2.61504E+05 4.54488E+04 8.25518E+02 1.09639E+05-4.92386E-09 7.56256E-09
 -1       886 2.63906E+05 4.29488E+04 1.66371E+03 1.06803E+05-3.19751E-09 1.73280E-08
 -1       887 2.61796E+05 4.56405E+04 3.63414E+03 1.09681E+05 7.27869E-09-8.40191E-09
 -1       888 2.63677E+05 4.29892E+04 7.32292E+03 1.06687E+05 3.22387E-10 1.41899E-08
 -1       889 2.66156E+05 5.01737E+04 1.74934E+04 1.09546E+05-1.47366E-09 1.92299E-08
 -1       890 2.60690E+05 4.65371E+04 3.27644E+04 1.03897E+05-3.33171E-09 3.78168E-09
 -1       891-1.06555E+02-1.46291E+05-1.78209E+03 2.51842E+04-4.99085E-10 9.84869E-09
 -1       892-1.97320E+02-1.46748E+05-1.91789E+03 3.81957E+04 1.64414E-09 5.82827E-09
 -1       893 1.26018E+01-1.46348E+05-2.71939E+03 2.51903E+04-1.27397E-09 8.76844E-09
 -1       894-1.39354E+03-1.47779E+05-5.63118E+03 3.80562E+04 1.93654E-09-4.58931E-09
 -1       895-1.10049E+03-1.45176E+05-9.91729E+03 2.53240E+04-9.02673E-11-1.15688E-09
 -1       956-3.35721E+05-4.78226E+03-1.18960E+04 2.58005E+04 4.58112E-09-8.73115E-11
 -1       957-3.38061E+05-1.65839E+03-6.10639E+03 3.10320E+04 2.55204E-09-1.40121E-08
 -1       958-3.36785E+05-1.79100E+02-2.75145E+03 2.56552E+04-7.93989E-10-3.74439E-09
 -1       959-3.36964E+05-8.17216E+01-1.40517E+03 3.11974E+04 3.17232E-09-3.88127E-09
 -1       960-3.36885E+05-8.40495E+00-6.85178E+02 2.56407E+04 1.37652E-09 9.61109E-09
 -1       961-3.36889E+05-1.93611E+01-3.63514E+02 3.12143E+04 6.07656E-09 9.70704E-09
 -1       962-3.36907E+05-1.10803E+01-2.08325E+02 2.56383E+04 5.23983E-09-4.66503E-09
 -1       963-3.36887E+05-1.66896E+01-1.67664E+02 3.12173E+04 5.20288E-09 1.54828E-08
 -1       964-3.36911E+05-8.50561E+00-2.04274E+02 2.56377E+04 4.70200E-09-6.40489E-09
 -1       965-3.36898E+05-1.38776E+01-3.53626E+02 3.12168E+04-1.87850E-09-5.82122E-09
 -1       966-3.36898E+05-7.48885E-01-6.64461E+02 2.56389E+04 2.31967E-09 1.01818E-08
 -1       967-3.36980E+05-6.90669E+01-1.36292E+03 3.12050E+04 3.98359E-10-2.11548E-09
 -1       968-3.36808E+05-1.61310E+02-2.66784E+03 2.56493E+04 1.99543E-09 2.63628E-09
 -1       969-3.38054E+05-1.59391E+03-5.92286E+03 3.10824E+04 1.12118E-09 8.88033E-09
 -1       970-3.35783E+05-4.62298E+03-1.15375E+04 2.57575E+04-1.38243E-09 1.37861E-08
 -1       971-3.09761E+05-1.56664E+03-8.53276E+03 1.40566E+04 2.19825E-09 9.11292E-09
 -1       972-3.11822E+05-1.14341E+03-4.64693E+03 1.95086E+04 4.16640E-09-9.63314E-09
 -1       973-3.10711E+05-4.09087E+01-2.08118E+03 1.39436E+04 2.36287E-09 7.59428E-10
 -1       974-3.10841E+05-5.26120E+01-1.07867E+03 1.96343E+04-2.45495E-09-5.29496E-09
 -1       975-3.10785E+05-3.66491E-01-5.39136E+02 1.39326E+04-2.14914E-09-6.69843E-09
 -1       976-3.10784E+05-7.42938E+00-3.11030E+02 1.96482E+04 2.92493E-09-5.98618E-09
 -1       977-3.10800E+05-1.03067E-01-2.25670E+02 1.39297E+04 1.34378E-09 3.94266E-10
 -1       978-3.10788E+05-2.05512E+00-2.64011E+02 1.96522E+04-4.55577E-09 1.36226E-08
 -1       979-3.10799E+05 7.32358E+00-4.24097E+02 1.39285E+04-3.89167E-09 1.31885E-08
 -1       980-3.10820E+05 6.26473E-01-8.18825E+02 1.96530E+04-1.33771E-08-5.04588E-09
 -1       981-3.10773E+05 2.77884E+01-1.58582E+03 1.39290E+04-4.71528E-09 3.96835E-09
 -1       982-3.11037E+05-1.16442E+02-3.27783E+03 1.96470E+04-9.96806E-10 1.06188E-08
 -1       983-3.10574E+05-7.35931E+01-6.36880E+03 1.39346E+04-2.38856E-09-9.60995E-09
 -1       984-3.14101E+05-3.44239E+03-1.42625E+04 1.95684E+04-3.13139E-09 7.25026E-09
 -1       985-3.07690E+05-4.73375E+03-2.61904E+04 1.40047E+04 1.45837E-09 6.91216E-10
 -3
    1PSTEP                        31          16           1          
  100CL  116 6.03175E-01         409                     0   16           1
 -4  DISP        4    1
 -5  D1          1    2    1    0
 -5  D2          1    2    2    0
 -5  D3          1    2    3    0
 -5  ALL         1    2    0    0    1ALL
 -1         1 2.90027E-03 0.00000E+00 0.00000E+00
 -1         2 2.91736E-03-7.21809E-27 0.00000E+00
 -1         3 2.79095E-04 2.95520E-28 1.32349E-23
 -1         5 1.52608E-04 7.21797E-27-2.48154E-24
 -1         8 2.88332E-03-5.11201E-07 0.00000E+00
 -1         9 2.84659E-03-7.96110E-06 0.00000E+00
 -1        10 2.53952E-04-2.89250E-06-6.61744E-24
 -1        12 1.53700E-04 7.09080E-07 1.24077E-24
 -1        15 2.86277E-03-5.60128E-07 0.00000E+00
 -1        16 2.87138E-03-9.30506E-06 0.00000E+00
 -1        17 1.75273E-04-6.43833E-06 0.00000E+00
 -1        18 1.55557E-04 2.35633E-05 0.00000E+00
 -1        19 1.56974E-04 1.41375E-06 0.00000E+00
 -1        20 1.57114E-04-1.99914E-06 0.00000E+00
 -1        21 1.56351E-04-8.49258E-06 3.30872E-24
 -1        24 2.69532E-05-9.46662E-06 0.00000E+00
 -1        25 1.62527E-04 2.37523E-05 0.00000E+00
 -1        26 1.63179E-04 1.95835E-06 0.00000E+00
 -1        27 1.61247E-04-5.16255E-06 0.00000E+00
 -1        28 1.60904E-04-9.05542E-06 0.00000E+00
 -1        32 0.00000E+00 0.00000E+00 0.00000E+00
 -1        33 1.68394E-04 2.62221E-06 0.00000E+00
 -1        34 1.66506E-04-5.20457E-06 0.00000E+00
 -1        35 1.64771E-04-9.36173E-06 0.00000E+00
 -1        51 2.89918E-03-9.59127E-08 6.61744E-24
 -1        52 2.89716E-03-1.78289E-07 0.00000E+00
 -1        53 2.89437E-03-2.58913E-07 0.00000E+00
 -1        54 2.89101E-03-3.39798E-07 0.00000E+00
 -1        55 2.88727E-03-4.22401E-07 2.48154E-24
 -1        56 2.89688E-03-6.14857E-08 5.29396E-23
 -1        57 2.89262E-03 1.87987E-06 5.29396E-23
 -1        58 2.88772E-03 5.50781E-06 0.00000E+00
 -1        59 2.88234E-03 1.03287E-05-5.29396E-23
 -1        60 2.87676E-03 1.56939E-05 0.00000E+00
 -1        61 2.87123E-03 2.09077E-05 0.00000E+00
 -1        62 2.86601E-03 2.52976E-05 0.00000E+00
 -1        63 2.86134E-03 2.82488E-05-5.29396E-23
 -1        64 2.85737E-03 2.93550E-05 0.00000E+00
 -1        65 2.85419E-03 2.83420E-05-5.29396E-23
 -1        66 2.85180E-03 2.52427E-05-1.05879E-22
 -1        67 2.85012E-03 2.02417E-05 0.00000E+00
 -1        68 2.84897E-03 1.37982E-05 0.00000E+00
 -1        69 2.84816E-03 6.48341E-06 0.00000E+00
 -1        70 2.84742E-03-1.01835E-06 0.00000E+00
 -1        86 2.91215E-03-1.25709E-06 0.00000E+00
 -1        87 2.89681E-03-2.61358E-06 0.00000E+00
 -1        88 2.87701E-03-4.04023E-06 0.00000E+00
 -1        89 2.85867E-03-5.43566E-06 0.00000E+00
 -1        90 2.84693E-03-6.74327E-06 2.64698E-23
 -1       121 2.78391E-04-4.71051E-07 0.00000E+00
 -1       122 2.76278E-04-9.44011E-07 0.00000E+00
 -1       123 2.72765E-04-1.42076E-06 0.00000E+00
 -1       124 2.67861E-04-1.90322E-06 0.00000E+00
 -1       125 2.61584E-04-2.39299E-06 0.00000E+00
 -1       191 1.52639E-04 1.18205E-07-8.27181E-25
 -1       192 1.52730E-04 2.36405E-07-1.24077E-24
 -1       193 1.52881E-04 3.54598E-07-1.65436E-24
 -1       194 1.53093E-04 4.72779E-07 1.24077E-24
 -1       195 1.53366E-04 5.90941E-07-1.65436E-24
 -1       251 2.88257E-03 1.81941E-05-1.32349E-23
 -1       252 2.88082E-03 6.70285E-05 0.00000E+00
 -1       253 2.87790E-03 1.37176E-04 1.32349E-23
 -1       254 2.87409E-03 2.19325E-04 6.61744E-24
 -1       255 2.87032E-03 3.00869E-04 1.32349E-23
 -1       256 2.86751E-03 3.69217E-04 0.00000E+00
 -1       257 2.86589E-03 4.15395E-04 1.32349E-23
 -1       258 2.86517E-03 4.30943E-04 0.00000E+00
 -1       259 2.86445E-03 4.15405E-04 0.00000E+00
 -1       260 2.86282E-03 3.69095E-04 0.00000E+00
 -1       261 2.85998E-03 3.00365E-04 1.32349E-23
 -1       262 2.85616E-03 2.18083E-04 0.00000E+00
 -1       263 2.85226E-03 1.34836E-04 0.00000E+00
 -1       264 2.84923E-03 6.32273E-05 0.00000E+00
 -1       265 2.84740E-03 1.26547E-05 1.32349E-23
 -1       266 2.87990E-03-5.26906E-07 3.30872E-24
 -1       267 2.87647E-03-5.34141E-07 0.00000E+00
 -1       268 2.87304E-03-5.41911E-07 0.00000E+00
 -1       269 2.86962E-03-5.48092E-07 0.00000E+00
 -1       270 2.86619E-03-5.54237E-07 0.00000E+00
 -1       271 2.88117E-03 2.77850E-06 0.00000E+00
 -1       272 2.87891E-03 6.25839E-06 1.32349E-23
 -1       273 2.87664E-03 9.77491E-06-2.64698E-23
 -1       274 2.87442E-03 1.31617E-05 0.00000E+00
 -1       275 2.87231E-03 1.62571E-05 2.64698E-23
 -1       276 2.87036E-03 1.89009E-05 0.00000E+00
 -1       277 2.86865E-03 2.09382E-05 0.00000E+00
 -1       278 2.86722E-03 2.22200E-05 0.00000E+00
 -1       279 2.86612E-03 2.26056E-05 2.64698E-23
 -1       280 2.86542E-03 2.19634E-05 1.32349E-23
 -1       281 2.86514E-03 2.01731E-05 2.64698E-23
 -1       282 2.86533E-03 1.71260E-05 0.00000E+00
 -1       283 2.86602E-03 1.27270E-05 2.64698E-23
 -1       284 2.86725E-03 6.89617E-06 1.32349E-23
 -1       285 2.86902E-03-4.33339E-07 0.00000E+00
 -1       301 2.85038E-03-8.19715E-06-6.61744E-24
 -1       302 2.85327E-03-8.41026E-06 0.00000E+00
 -1       303 2.85603E-03-8.62144E-06-1.32349E-23
 -1       304 2.85944E-03-8.83461E-06 0.00000E+00
 -1       305 2.86430E-03-9.05606E-06 0.00000E+00
 -1       306 2.88460E-03-1.62461E-04 0.00000E+00
 -1       307 2.94809E-03-5.94179E-04 0.00000E+00
 -1       308 2.98740E-03-1.23528E-03 0.00000E+00
 -1       309 2.99504E-03-1.98780E-03 0.00000E+00
 -1       310 3.01041E-03-2.71436E-03-1.05879E-22
 -1       311 3.06366E-03-3.27953E-03 0.00000E+00
 -1       312 3.12476E-03-3.59800E-03-1.05879E-22
 -1       313 3.12786E-03-3.62899E-03 5.29396E-23
 -1       314 2.99021E-03-3.38349E-03-1.05879E-22
 -1       315 2.66344E-03-2.93065E-03-5.29396E-23
 -1       316 2.16181E-03-2.35199E-03 5.29396E-23
 -1       317 1.55212E-03-1.72024E-03 0.00000E+00
 -1       318 9.62885E-04-1.09811E-03 0.00000E+00
 -1       319 5.16401E-04-5.53214E-04-5.29396E-23
 -1       320 2.57515E-04-1.63436E-04 1.05879E-22
 -1       336 2.44814E-04-3.44135E-06 0.00000E+00
 -1       337 2.34023E-04-4.00643E-06 6.61744E-24
 -1       338 2.21620E-04-4.58901E-06 0.00000E+00
 -1       339 2.07656E-04-5.18907E-06-6.61744E-24
 -1       340 1.92186E-04-5.81054E-06-1.32349E-23
 -1       406 1.54094E-04 8.27183E-07-1.65436E-24
 -1       407 1.54549E-04 9.45224E-07-1.65436E-24
 -1       408 1.55064E-04 1.06317E-06 3.30872E-24
 -1       409 1.55641E-04 1.18086E-06-4.13590E-25
 -1       410 1.56277E-04 1.29808E-06 1.65436E-24
 -1       521 2.90949E-03-1.74279E-04-1.05879E-22
 -1       522 2.97041E-03-6.22751E-04-5.29396E-23
 -1       523 3.00402E-03-1.28299E-03-1.05879E-22
 -1       524 3.00603E-03-2.04896E-03-5.29396E-23
 -1       525 3.01663E-03-2.78703E-03 1.05879E-22
 -1       526 3.06628E-03-3.36594E-03 5.29396E-23
 -1       527 3.12572E-03-3.69195E-03-2.11758E-22
 -1       528 3.12609E-03-3.72226E-03 0.00000E+00
 -1       529 2.97835E-03-3.46643E-03 0.00000E+00
 -1       530 2.63381E-03-3.00129E-03-5.29396E-23
 -1       531 2.10860E-03-2.41113E-03 0.00000E+00
 -1       532 1.47711E-03-1.77140E-03 5.29396E-23
 -1       533 8.65818E-04-1.14070E-03 1.05879E-22
 -1       534 3.95047E-04-5.82217E-04-5.29396E-23
 -1       535 1.18490E-04-1.77944E-04-2.11758E-22
 -1       536 1.74739E-04 2.16913E-05 0.00000E+00
 -1       537 1.73431E-04 7.07436E-05-1.65436E-24
 -1       538 1.71428E-04 1.33097E-04 0.00000E+00
 -1       539 1.69074E-04 2.01056E-04 1.65436E-24
 -1       540 1.66951E-04 2.65264E-04-3.30872E-24
 -1       541 1.65556E-04 3.16381E-04 0.00000E+00
 -1       542 1.64892E-04 3.48802E-04 0.00000E+00
 -1       543 1.64701E-04 3.57039E-04 0.00000E+00
 -1       544 1.64435E-04 3.41780E-04 3.30872E-24
 -1       545 1.63588E-04 3.03876E-04-1.65436E-24
 -1       546 1.62062E-04 2.50082E-04-3.30872E-24
 -1       547 1.60028E-04 1.87246E-04-1.65436E-24
 -1       548 1.58020E-04 1.24854E-04-3.30872E-24
 -1       549 1.56562E-04 7.23925E-05-1.65436E-24
 -1       550 1.55787E-04 3.64627E-05-1.65436E-24
 -1       551 1.55141E-04-6.83760E-06 0.00000E+00
 -1       552 1.32217E-04-7.29472E-06 0.00000E+00
 -1       553 1.07211E-04-7.79798E-06 0.00000E+00
 -1       554 8.08494E-05-8.33584E-06-4.96308E-24
 -1       555 5.38558E-05-8.89141E-06-1.32349E-23
 -1       556 1.69235E-04 9.09330E-06 0.00000E+00
 -1       557 1.64390E-04 2.15851E-05 0.00000E+00
 -1       558 1.60630E-04 3.12824E-05 0.00000E+00
 -1       559 1.57844E-04 3.84483E-05 0.00000E+00
 -1       560 1.55926E-04 4.33460E-05 0.00000E+00
 -1       561 1.54768E-04 4.62406E-05 0.00000E+00
 -1       562 1.54268E-04 4.73979E-05 0.00000E+00
 -1       563 1.54320E-04 4.70846E-05 0.00000E+00
 -1       564 1.54824E-04 4.55677E-05 0.00000E+00
 -1       565 1.55677E-04 4.31148E-05-6.61744E-24
 -1       566 1.56779E-04 3.99939E-05 0.00000E+00
 -1       567 1.58030E-04 3.64732E-05 0.00000E+00
 -1       568 1.59329E-04 3.28209E-05-9.30578E-25
 -1       569 1.60578E-04 2.93052E-05 0.00000E+00
 -1       570 1.61677E-04 2.61944E-05 0.00000E+00
 -1       571 1.55643E-04 2.21272E-05 8.27181E-25
 -1       572 1.55731E-04 2.06357E-05-8.27181E-25
 -1       573 1.55819E-04 1.91018E-05 1.65436E-24
 -1       574 1.55908E-04 1.75387E-05 0.00000E+00
 -1       575 1.55997E-04 1.59599E-05 0.00000E+00
 -1       576 1.56085E-04 1.43789E-05-1.65436E-24
 -1       577 1.56174E-04 1.28092E-05-3.30872E-24
 -1       578 1.56262E-04 1.12642E-05 0.00000E+00
 -1       579 1.56351E-04 9.75752E-06 0.00000E+00
 -1       580 1.56440E-04 8.30263E-06 0.00000E+00
 -1       581 1.56529E-04 6.91306E-06 0.00000E+00
 -1       582 1.56618E-04 5.60228E-06 0.00000E+00
 -1       583 1.56707E-04 4.38378E-06 0.00000E+00
 -1       584 1.56796E-04 3.27090E-06 0.00000E+00
 -1       585 1.56885E-04 2.27685E-06 0.00000E+00
 -1       586 1.56671E-04 2.35967E-05 0.00000E+00
 -1       587 1.57753E-04 2.36295E-05 2.06795E-25
 -1       588 1.58840E-04 2.36620E-05 0.00000E+00
 -1       589 1.59973E-04 2.36939E-05 0.00000E+00
 -1       590 1.61189E-04 2.37248E-05 0.00000E+00
 -1       591 1.56042E-04 2.22015E-05 2.06795E-25
 -1       592 1.56530E-04 2.08187E-05 0.00000E+00
 -1       593 1.57024E-04 1.94206E-05 0.00000E+00
 -1       594 1.57522E-04 1.80118E-05 4.13590E-25
 -1       595 1.58021E-04 1.65969E-05-8.27181E-25
 -1       596 1.58522E-04 1.51806E-05 0.00000E+00
 -1       597 1.59021E-04 1.37675E-05 0.00000E+00
 -1       598 1.59517E-04 1.23623E-05 4.13590E-25
 -1       599 1.60008E-04 1.09695E-05 8.27181E-25
 -1       600 1.60493E-04 9.59383E-06-4.13590E-25
 -1       601 1.60970E-04 8.23983E-06 4.13590E-25
 -1       602 1.61437E-04 6.91214E-06 2.06795E-25
 -1       603 1.61893E-04 5.61539E-06 0.00000E+00
 -1       604 1.62336E-04 4.35430E-06 0.00000E+00
 -1       605 1.62764E-04 3.13342E-06-4.13590E-25
 -1       606 1.56987E-04 7.52649E-07-3.30872E-24
 -1       607 1.56997E-04 1.77587E-07 0.00000E+00
 -1       608 1.57006E-04-3.16487E-07 0.00000E+00
 -1       609 1.57014E-04-7.35268E-07-1.65436E-24
 -1       610 1.57023E-04-1.08450E-06 0.00000E+00
 -1       611 1.57031E-04-1.36999E-06 0.00000E+00
 -1       612 1.57040E-04-1.59754E-06 0.00000E+00
 -1       613 1.57048E-04-1.77299E-06 0.00000E+00
 -1       614 1.57056E-04-1.90215E-06 0.00000E+00
 -1       615 1.57065E-04-1.99083E-06 0.00000E+00
 -1       616 1.57073E-04-2.04488E-06 0.00000E+00
 -1       617 1.57082E-04-2.07009E-06 0.00000E+00
 -1       618 1.57090E-04-2.07231E-06 0.00000E+00
 -1       619 1.57098E-04-2.05734E-06 2.06795E-25
 -1       620 1.57107E-04-2.03102E-06 0.00000E+00
 -1       621 1.57796E-04 1.50487E-06-1.65436E-24
 -1       622 1.58735E-04 1.59625E-06-8.27181E-25
 -1       623 1.59767E-04 1.68753E-06 1.65436E-24
 -1       624 1.60868E-04 1.77857E-06-8.27181E-25
 -1       625 1.62014E-04 1.86939E-06 0.00000E+00
 -1       626 1.57322E-04 7.84585E-07-3.30872E-24
 -1       627 1.57646E-04 2.21137E-07 1.65436E-24
 -1       628 1.57949E-04-2.84140E-07-3.30872E-24
 -1       629 1.58233E-04-7.39130E-07 0.00000E+00
 -1       630 1.58501E-04-1.15174E-06-6.61744E-24
 -1       631 1.58756E-04-1.52991E-06 1.65436E-24
 -1       632 1.59001E-04-1.88156E-06 3.30872E-24
 -1       633 1.59240E-04-2.21463E-06 0.00000E+00
 -1       634 1.59474E-04-2.53706E-06 3.30872E-24
 -1       635 1.59707E-04-2.85677E-06 0.00000E+00
 -1       636 1.59942E-04-3.18169E-06 0.00000E+00
 -1       637 1.60182E-04-3.51977E-06-1.65436E-24
 -1       638 1.60430E-04-3.87893E-06 0.00000E+00
 -1       639 1.60689E-04-4.26713E-06 0.00000E+00
 -1       640 1.60961E-04-4.69232E-06 0.00000E+00
 -1       656 1.57302E-04-2.51349E-06 6.61744E-24
 -1       657 1.57882E-04-3.04863E-06 0.00000E+00
 -1       658 1.58720E-04-3.58239E-06 0.00000E+00
 -1       659 1.59673E-04-4.11580E-06 0.00000E+00
 -1       660 1.60572E-04-4.65083E-06-6.61744E-24
 -1       661 1.57186E-04-2.00612E-06 8.27181E-25
 -1       662 1.57290E-04-2.09237E-06 8.27181E-25
 -1       663 1.57422E-04-2.25378E-06 0.00000E+00
 -1       664 1.57581E-04-2.48499E-06 0.00000E+00
 -1       665 1.57765E-04-2.78128E-06 1.65436E-24
 -1       666 1.57971E-04-3.13782E-06-8.27181E-25
 -1       667 1.58198E-04-3.55002E-06-1.65436E-24
 -1       668 1.58444E-04-4.01334E-06 8.27181E-25
 -1       669 1.58707E-04-4.52341E-06-1.65436E-24
 -1       670 1.58987E-04-5.07592E-06 0.00000E+00
 -1       671 1.59280E-04-5.66669E-06 1.65436E-24
 -1       672 1.59587E-04-6.29162E-06-8.27181E-25
 -1       673 1.59904E-04-6.94668E-06-1.65436E-24
 -1       674 1.60231E-04-7.62816E-06-4.13590E-25
 -1       675 1.60566E-04-8.33175E-06 4.13590E-25
 -1       676 1.57113E-04-8.58694E-06-3.30872E-24
 -1       677 1.57873E-04-8.68125E-06 0.00000E+00
 -1       678 1.58633E-04-8.77552E-06 0.00000E+00
 -1       679 1.59392E-04-8.86950E-06-1.65436E-24
 -1       680 1.60149E-04-8.96348E-06 0.00000E+00
 -1       771 1.67284E-05 1.33395E-05 5.29396E-23
 -1       772 8.11524E-06 3.20391E-05 0.00000E+00
 -1       773 1.03846E-06 4.68379E-05 0.00000E+00
 -1       774-4.60769E-06 5.79635E-05 0.00000E+00
 -1       775-8.92654E-06 6.56511E-05 0.00000E+00
 -1       776-1.20255E-05 7.01493E-05 0.00000E+00
 -1       777-1.40120E-05 7.17142E-05 0.00000E+00
 -1       778-1.49955E-05 7.06125E-05 2.64698E-23
 -1       779-1.50851E-05 6.71177E-05 0.00000E+00
 -1       780-1.43916E-05 6.15118E-05 0.00000E+00
 -1       781-1.30253E-05 5.40821E-05 0.00000E+00
 -1       782-1.10976E-05 4.51228E-05 0.00000E+00
 -1       783-8.71949E-06 3.49314E-05 5.29396E-23
 -1       784-6.00280E-06 2.38104E-05 0.00000E+00
 -1       785-3.05876E-06 1.20644E-05 0.00000E+00
 -1       786 1.62564E-04 2.21712E-05-2.58494E-26
 -1       787 1.62604E-04 2.06383E-05-4.13590E-25
 -1       788 1.62644E-04 1.91457E-05 0.00000E+00
 -1       789 1.62685E-04 1.76860E-05 0.00000E+00
 -1       790 1.62725E-04 1.62544E-05-1.65436E-24
 -1       791 1.62766E-04 1.48464E-05 8.27181E-25
 -1       792 1.62807E-04 1.34599E-05 0.00000E+00
 -1       793 1.62848E-04 1.20927E-05 0.00000E+00
 -1       794 1.62889E-04 1.07443E-05 1.65436E-24
 -1       795 1.62931E-04 9.41441E-06 8.27181E-25
 -1       796 1.62972E-04 8.10450E-06 0.00000E+00
 -1       797 1.63013E-04 6.81603E-06 0.00000E+00
 -1       798 1.63054E-04 5.55251E-06 0.00000E+00
 -1       799 1.63095E-04 4.31752E-06 0.00000E+00
 -1       800 1.63137E-04 3.11735E-06 0.00000E+00
 -1       801 1.26869E-04 2.11718E-05 0.00000E+00
 -1       802 1.86791E-05 1.35594E-05-2.64698E-23
 -1       803-7.53748E-05 7.10526E-06 0.00000E+00
 -1       804-6.99236E-05 4.86929E-06 0.00000E+00
 -1       805-2.38547E-05 2.07540E-06 0.00000E+00
 -1       806 1.63017E-04 2.21115E-05 0.00000E+00
 -1       807 1.63494E-04 2.04980E-05-1.65436E-24
 -1       808 1.63958E-04 1.89159E-05-3.30872E-24
 -1       809 1.64409E-04 1.73684E-05 0.00000E+00
 -1       810 1.64846E-04 1.58588E-05-3.30872E-24
 -1       811 1.65268E-04 1.43900E-05 8.27181E-25
 -1       812 1.65673E-04 1.29652E-05 0.00000E+00
 -1       813 1.66060E-04 1.15874E-05 8.27181E-25
 -1       814 1.66429E-04 1.02597E-05-3.30872E-24
 -1       815 1.66778E-04 8.98502E-06-1.65436E-24
 -1       816 1.67105E-04 7.76654E-06 1.65436E-24
 -1       817 1.67411E-04 6.60724E-06 0.00000E+00
 -1       818 1.67694E-04 5.51015E-06 3.30872E-24
 -1       819 1.67952E-04 4.47830E-06 1.65436E-24
 -1       820 1.68186E-04 3.51467E-06-3.30872E-24
 -1       821 1.63064E-04 6.79695E-07 8.27181E-25
 -1       822 1.62942E-04-8.77077E-07 0.00000E+00
 -1       823 1.62821E-04-2.55891E-06-3.30872E-24
 -1       824 1.62698E-04-4.21203E-06 0.00000E+00
 -1       825 1.62576E-04-5.68991E-06 0.00000E+00
 -1       826 1.62454E-04-6.84694E-06 1.65436E-24
 -1       827 1.62332E-04-7.61666E-06 0.00000E+00
 -1       828 1.62210E-04-7.93474E-06 0.00000E+00
 -1       829 1.62088E-04-7.84827E-06 0.00000E+00
 -1       830 1.61966E-04-7.40650E-06 1.65436E-24
 -1       831 1.61844E-04-6.74634E-06 0.00000E+00
 -1       832 1.61723E-04-6.00591E-06-1.65436E-24
 -1       833 1.61601E-04-5.34315E-06-3.30872E-24
 -1       834 1.61481E-04-4.91553E-06 0.00000E+00
 -1       835 1.61361E-04-4.82273E-06 0.00000E+00
 -1       836 1.64234E-04 2.06859E-06 0.00000E+00
 -1       837 1.65177E-04 2.18150E-06 0.00000E+00
 -1       838 1.66034E-04 2.29431E-06 3.30872E-24
 -1       839 1.66837E-04 2.40645E-06 8.27181E-25
 -1       840 1.67614E-04 2.51843E-06-4.13590E-25
 -1       856 1.61229E-04-5.65319E-06-4.13590E-25
 -1       857 1.61208E-04-6.02038E-06 2.58494E-26
 -1       858 1.61187E-04-6.28336E-06 0.00000E+00
 -1       859 1.61166E-04-6.46144E-06 0.00000E+00
 -1       860 1.61144E-04-6.57401E-06 4.13590E-25
 -1       861 1.61123E-04-6.64051E-06 0.00000E+00
 -1       862 1.61101E-04-6.68043E-06 0.00000E+00
 -1       863 1.61079E-04-6.71326E-06 0.00000E+00
 -1       864 1.61058E-04-6.75850E-06 0.00000E+00
 -1       865 1.61036E-04-6.83567E-06-4.13590E-25
 -1       866 1.61014E-04-6.96422E-06 0.00000E+00
 -1       867 1.60992E-04-7.16358E-06 0.00000E+00
 -1       868 1.60971E-04-7.45313E-06 8.27181E-25
 -1       869 1.60949E-04-7.85217E-06 0.00000E+00
 -1       870 1.60927E-04-8.37989E-06 0.00000E+00
 -1       871 1.61994E-04-5.16568E-06 0.00000E+00
 -1       872 1.62873E-04-5.17174E-06 0.00000E+00
 -1       873 1.63823E-04-5.17839E-06 0.00000E+00
 -1       874 1.64786E-04-5.18570E-06 3.61892E-25
 -1       875 1.65700E-04-5.19354E-06-1.44757E-24
 -1       876 1.61546E-04-5.64040E-06-3.30872E-24
 -1       877 1.61825E-04-6.05774E-06-1.65436E-24
 -1       878 1.62083E-04-6.42183E-06 0.00000E+00
 -1       879 1.62325E-04-6.73938E-06 1.65436E-24
 -1       880 1.62552E-04-7.01713E-06 0.00000E+00
 -1       881 1.62767E-04-7.26178E-06 0.00000E+00
 -1       882 1.62971E-04-7.48005E-06-3.30872E-24
 -1       883 1.63168E-04-7.67860E-06 0.00000E+00
 -1       884 1.63361E-04-7.86411E-06-3.30872E-24
 -1       885 1.63551E-04-8.04327E-06 1.65436E-24
 -1       886 1.63741E-04-8.22276E-06 0.00000E+00
 -1       887 1.63933E-04-8.40927E-06-1.65436E-24
 -1       888 1.64131E-04-8.60949E-06 3.30872E-24
 -1       889 1.64335E-04-8.83024E-06-1.65436E-24
 -1       890 1.64550E-04-9.07819E-06 1.65436E-24
 -1       891 1.61679E-04-9.10681E-06 0.00000E+00
 -1       892 1.62433E-04-9.15836E-06 4.13590E-25
 -1       893 1.63142E-04-9.20984E-06 8.27181E-25
 -1       894 1.63784E-04-9.26112E-06 0.00000E+00
 -1       895 1.64334E-04-9.31223E-06-4.13590E-25
 -1       956 1.68278E-04 1.87992E-06 3.30872E-24
 -1       957 1.68160E-04 1.21595E-06 8.27181E-25
 -1       958 1.68042E-04 6.21208E-07 1.65436E-24
 -1       959 1.67923E-04 8.60873E-08-1.65436E-24
 -1       960 1.67805E-04-3.99045E-07 3.30872E-24
 -1       961 1.67687E-04-8.43859E-07 0.00000E+00
 -1       962 1.67568E-04-1.25803E-06 0.00000E+00
 -1       963 1.67450E-04-1.65125E-06 1.65436E-24
 -1       964 1.67332E-04-2.03321E-06 3.30872E-24
 -1       965 1.67213E-04-2.41359E-06 1.65436E-24
 -1       966 1.67095E-04-2.80209E-06 0.00000E+00
 -1       967 1.66977E-04-3.20840E-06 0.00000E+00
 -1       968 1.66858E-04-3.64219E-06 0.00000E+00
 -1       969 1.66740E-04-4.11313E-06-1.65436E-24
 -1       970 1.66623E-04-4.63083E-06 3.30872E-24
 -1       971 1.66399E-04-5.77229E-06 1.65436E-24
 -1       972 1.66290E-04-6.25223E-06 0.00000E+00
 -1       973 1.66181E-04-6.65407E-06-3.30872E-24
 -1       974 1.66072E-04-6.98788E-06 0.00000E+00
 -1       975 1.65963E-04-7.26372E-06 0.00000E+00
 -1       976 1.65854E-04-7.49168E-06 1.65436E-24
 -1       977 1.65745E-04-7.68185E-06 3.30872E-24
 -1       978 1.65636E-04-7.84436E-06 0.00000E+00
 -1       979 1.65527E-04-7.98931E-06 3.30872E-24
 -1       980 1.65418E-04-8.12681E-06 0.00000E+00
 -1       981 1.65309E-04-8.26699E-06 0.00000E+00
 -1       982 1.65200E-04-8.41997E-06 0.00000E+00
 -1       983 1.65091E-04-8.59586E-06 0.00000E+00
 -1       984 1.64983E-04-8.80476E-06 1.65436E-24
 -1       985 1.64875E-04-9.05676E-06 0.00000E+00
 -3
    1PSTEP                        32          16           1          
  100CL  116 6.03175E-01         409                     0   16           1
 -4  STRESS      6    1
 -5  SXX         1    4    1    1
 -5  SYY         1    4    2    2
 -5  SZZ         1    4    3    3
 -5  SXY         1    4    1    2
 -5  SYZ         1    4    2    3
 -5  SZX         1    4    3    1
 -1         1-4.02357E+06-1.52019E+06-8.85037E+05-1.52155E+06-3.78350E-10 1.30851E-07
 -1         2 1.29200E+03-3.44187E+06 8.06885E+03-1.56619E+05-4.58613E-10 1.43871E-07
 -1         3-9.13266E+02-1.34008E+06 3.08218E+02-1.49383E+03-4.02231E-10-3.17159E-08
 -1         5-2.68405E+01 3.38324E+05 8.68688E+00-6.08680E-01-3.46310E-10-7.79801E-09
 -1         8-6.74885E+05-2.19541E+05-6.16745E+04-2.66839E+05 1.68257E-10-4.21569E-08
 -1         9 1.25206E+07-5.10639E+05 2.11587E+06-1.41319E+06 4.02681E-08 1.10688E-07
 -1        10-1.81123E+03-1.39633E+06-3.88028E+03-1.01160E+04-1.07011E-08-2.57645E-08
 -1        12-2.33229E+01 3.38342E+05 2.82945E+02-4.36905E+00-3.28757E-10-1.49885E-09
 -1        15 1.25122E+03 6.87615E+02 4.04457E+03 1.85386E+00-5.58913E-10-1.26351E-07
 -1        16 2.50996E+07-1.83666E+05 3.43680E+06-2.07391E+06 2.70278E-08 1.50486E-07
 -1        17 9.18793E+06 7.28445E+06 2.67466E+06 6.74249E+06-1.56870E-09 9.81381E-09
 -1        18 7.58671E+04 1.58332E+04-8.39388E+03-1.01420E+05 1.26236E-08-2.79306E-09
 -1        19 1.08151E+05 1.24494E+05-8.69577E+02 2.01170E+04 9.20954E-10 1.35486E-08
 -1        20-6.72727E+04-5.08862E+05-1.13805E+05 2.54205E+04-4.37012E-10 3.66648E-09
 -1        21-4.25373E+01-2.69317E+05-8.46887E+02 1.40589E+02 8.36031E-09 5.12059E-09
 -1        24 1.51520E+07 1.31984E+07 4.14076E+06 1.24495E+07-1.64369E-07-5.30660E-08
 -1        25 1.73138E+04-1.22284E+05-5.31718E+02-4.22368E+05-1.82463E-09-2.19934E-09
 -1        26-4.80404E+04 8.05532E+04-2.18515E+04-4.64565E+02 5.71163E-10 1.50736E-08
 -1        27-7.00074E+04-2.75695E+05-1.01473E+05 6.15605E+04 4.27523E-09-2.38591E-10
 -1        28 2.04156E+04-7.69570E+04 1.53490E+04 1.98146E+04-1.95462E-09-9.75872E-09
 -1        32-1.52936E+06-2.79517E+06-1.62338E+05 7.48356E+04-3.72311E-08-5.63728E-09
 -1        33-1.60003E+05 8.13964E+04 2.86364E+04-3.49840E+04-1.61034E-09 7.99597E-09
 -1        34-2.00494E+05-2.17388E+04 5.92070E+02 6.63896E+04-2.83957E-09-4.22900E-09
 -1        35-2.09498E+04-3.05357E+04-1.21207E+03 4.68821E+04-1.62700E-10-1.52601E-08
 -1        51 4.49377E+04-2.10100E+05 9.76470E+04-6.29288E+05 7.27596E-11 3.03742E-07
 -1        52 1.64300E+04-1.94715E+05 5.30741E+04-7.33649E+05 3.38332E-10-1.80589E-07
 -1        53 4.84386E+03-2.09178E+05 3.05869E+04-6.26982E+05 8.33097E-10-1.13847E-07
 -1        54 1.13201E+04-2.05843E+05 3.10884E+04-7.36071E+05-1.01863E-10 4.42669E-08
 -1        55 2.38822E+04-2.15233E+05 4.47855E+04-6.26639E+05 4.58385E-10 2.16172E-07
 -1        56-7.60944E+06-8.61682E+05-6.54783E+05-2.97404E+06 1.17725E-08-2.01660E-07
 -1        57-7.99458E+06-1.33002E+06-4.41186E+05-2.80489E+06 1.52577E-08-2.15070E-07
 -1        58-7.71226E+06-1.09728E+06-1.53822E+05-2.96398E+06-3.38368E-08-1.00437E-07
 -1        59-7.88046E+06-1.04942E+06-9.16459E+04-2.81426E+06-2.15255E-08-2.66561E-07
 -1        60-7.72257E+06-1.13444E+06-3.57368E+04-2.96767E+06-1.82185E-08 6.70752E-08
 -1        61-7.85436E+06-1.01877E+06-2.01926E+04-2.82422E+06 8.04505E-09 3.96126E-07
 -1        62-7.73761E+06-1.12715E+06-1.00286E+04-2.95403E+06-4.09791E-08-1.13198E-07
 -1        63-7.81086E+06-1.05257E+06-7.58391E+03-2.86617E+06 5.40454E-08-2.19920E-07
 -1        64-7.76449E+06-1.10154E+06-9.85870E+03-2.92463E+06-5.69344E-10-1.12109E-07
 -1        65-7.75705E+06-1.11167E+06-1.80874E+04-2.92824E+06 1.05647E-08-9.90005E-08
 -1        66-7.79098E+06-1.06849E+06-3.32234E+04-2.89159E+06-1.33150E-08-4.00869E-08
 -1        67-7.72997E+06-1.19235E+06-8.33747E+04-2.98114E+06 3.06063E-08 2.67246E-08
 -1        68-7.79331E+06-1.02087E+06-1.40218E+05-2.87249E+06-3.15304E-08 1.57670E-08
 -1        69-7.84456E+06-1.44203E+06-4.02691E+05-2.96899E+06 1.99798E-08-9.71886E-08
 -1        70-7.67971E+06-8.24395E+05-5.96747E+05-2.90276E+06 1.36788E-09-1.58732E-07
 -1        86-3.13009E+03-3.58465E+06-2.30265E+04 7.82683E+04 1.60367E-08-2.05726E-07
 -1        87-5.04135E+03-3.50328E+06-1.67369E+04-2.22798E+05 2.91911E-08 1.82076E-07
 -1        88 9.68267E+03-3.52991E+06-3.90914E+04 1.44519E+05 2.23008E-08 1.79175E-07
 -1        89-6.60582E+04-3.51614E+06-9.46255E+04-1.90030E+05 3.39369E-08-4.77485E-11
 -1        90 5.59679E+04-3.57018E+06-1.66174E+05 4.54727E+04 1.46974E-09 1.33393E-07
 -1       121-1.26132E+03-1.34315E+06-2.70433E+02 7.42241E+02 1.24651E-09 2.18279E-11
 -1       122-7.76829E+02-1.34009E+06 6.04138E+02-2.98849E+03-4.01043E-09-2.65863E-08
 -1       123-1.29963E+03-1.34325E+06 3.73308E+02 2.21834E+03 3.50383E-09 1.98961E-08
 -1       124 5.60368E+02-1.33957E+06 2.38901E+03-6.31770E+03-7.89441E-09 5.19849E-08
 -1       125-2.03306E+03-1.34398E+06 2.92645E+03 4.04953E+03 5.47152E-09-1.11249E-08
 -1       191-2.84565E+01 3.38348E+05 9.34285E+00 3.10613E-01-3.28451E-10-1.90266E-09
 -1       192-2.76518E+01 3.38324E+05 1.84429E+01-2.19648E+00-4.95154E-10-5.47152E-09
 -1       193-3.06065E+01 3.38348E+05 3.32867E+01 1.92515E+00-6.58835E-10-1.77097E-08
 -1       194-3.02592E+01 3.38327E+05 6.98815E+01-5.07860E+00-2.68449E-10-1.67256E-08
 -1       195-3.47361E+01 3.38346E+05 1.35675E+02 3.24074E+00-9.09559E-10 1.52431E-09
 -1       251-2.00186E+06-2.72306E+04-1.88216E+05-1.28052E+05 3.29965E-09-3.49646E-08
 -1       252-1.14256E+06 3.45716E+04 4.18808E+04 3.96939E+05-1.93559E-08 7.83421E-08
 -1       253-1.62304E+06-1.28165E+04-3.34306E+04-2.64636E+05 9.87075E-09 1.41074E-07
 -1       254-1.54540E+06 5.50841E+04 6.90824E+03 5.26856E+05 2.49800E-08-2.59917E-07
 -1       255-1.63903E+06-1.51011E+04-1.87547E+04-2.61393E+05-4.71300E-09-1.17203E-07
 -1       256-1.10205E+06 4.50346E+04 9.79468E+04 3.83476E+05-3.41452E-08 4.23179E-07
 -1       257-2.02301E+06-3.80875E+04-9.74573E+04-1.17673E+05 7.98173E-09 1.70809E-07
 -1       258-6.71478E+05 3.42057E+04 1.79608E+05 3.58616E+03-8.16635E-09-2.70951E-07
 -1       259-2.02727E+06-3.86775E+04-9.70516E+04 1.16253E+05-2.38870E-08-1.67179E-07
 -1       260-1.09190E+06 4.67003E+04 1.03706E+05-3.78153E+05 1.69002E-08 8.66476E-08
 -1       261-1.64392E+06-1.69797E+04-1.27474E+04 2.61756E+05 6.40912E-08-1.54281E-07
 -1       262-1.54168E+06 6.43121E+04 2.45220E+04-5.25024E+05-1.54342E-08 1.39902E-07
 -1       263-1.62180E+06-2.01849E+04-4.38169E+03 2.66821E+05 2.02299E-08 8.55059E-08
 -1       264-1.12862E+06 8.93480E+04 1.16627E+05-4.00449E+05 1.09972E-07 9.39949E-08
 -1       265-2.01800E+06-7.36431E+04-7.83244E+04 1.33757E+05 4.40123E-08 1.65356E-07
 -1       266-2.26514E+04-1.05921E+04 5.31453E+04-3.96662E+01-4.72937E-11 2.18425E-07
 -1       267 2.62591E+04 1.23449E+04 3.75630E+04 4.57677E+01 4.13365E-10 1.38162E-07
 -1       268-3.52130E+03-1.74840E+03 1.39619E+04-5.83156E+00-1.98270E-10-2.59092E-07
 -1       269 4.15762E+03 2.09243E+03 9.07507E+03 6.79294E+00-7.21911E-11-5.63570E-08
 -1       270-6.24064E+02-3.43805E+02 4.38067E+03-9.21848E-01-2.84899E-10 4.55960E-08
 -1       271-2.05234E+06-2.46188E+05-1.52724E+05-7.84494E+05 2.92603E-08-1.67420E-07
 -1       272-2.16664E+06-2.99119E+05-9.83217E+04-7.16976E+05-1.97178E-08-1.14836E-07
 -1       273-2.07968E+06-2.85767E+05-3.60307E+04-7.79290E+05 3.06109E-08 4.66080E-08
 -1       274-2.13439E+06-2.50706E+05-2.02256E+04-7.25109E+05 3.28502E-08-3.26095E-07
 -1       275-2.08365E+06-2.89831E+05-8.39722E+03-7.78058E+05-3.04271E-08-1.73504E-08
 -1       276-2.12818E+06-2.47032E+05-4.40761E+03-7.27689E+05 4.86580E-09-3.36783E-07
 -1       277-2.08532E+06-2.89252E+05-2.24251E+03-7.76542E+05 5.37329E-09 1.90308E-07
 -1       278-2.12394E+06-2.49665E+05-1.39531E+03-7.30861E+05 1.24226E-07 1.73924E-07
 -1       279-2.08714E+06-2.87618E+05-1.68248E+03-7.74376E+05-7.00693E-08 2.39778E-07
 -1       280-2.11916E+06-2.54288E+05-2.47559E+03-7.35138E+05 3.06973E-08 1.50571E-07
 -1       281-2.08924E+06-2.85196E+05-5.01635E+03-7.71647E+05-1.04465E-08 9.18376E-08
 -1       282-2.11540E+06-2.62649E+05-1.10522E+04-7.40150E+05-5.48516E-09 3.61921E-07
 -1       283-2.09009E+06-2.80074E+05-2.03909E+04-7.68674E+05 1.46974E-08-2.11846E-07
 -1       284-2.12620E+06-2.95798E+05-5.42168E+04-7.42562E+05-2.70957E-08-4.04656E-07
 -1       285-2.07815E+06-2.55206E+05-8.51478E+04-7.67797E+05-4.07454E-09-2.86964E-08
 -1       301 9.23371E+03-5.85251E+05 1.24968E+05-9.48294E+05 9.82254E-10-4.05780E-08
 -1       302 1.05920E+04-5.53153E+05 7.74321E+04-1.38768E+06-2.47383E-09 1.04926E-07
 -1       303-6.31167E+03-5.73470E+05 4.86669E+04-9.46494E+05 0.00000E+00 1.95410E-07
 -1       304-1.76064E+03-5.45302E+05 5.80775E+04-1.38596E+06 5.82077E-10 1.73284E-07
 -1       305-9.43060E+03-5.63172E+05 8.01496E+04-9.49778E+05-9.09495E-10 2.50977E-07
 -1       306-3.37491E+07-6.06821E+06-9.19532E+06-5.89307E+05-1.35624E-07-6.71134E-08
 -1       307 3.13186E+07 4.02750E+06 6.69791E+06-1.43087E+07-6.82252E-07-3.47791E-07
 -1       308-6.67187E+06-1.57650E+06-7.76192E+05 5.69385E+06 1.06869E-07 7.07369E-08
 -1       309-7.72883E+05 1.00785E+07 2.74757E+06-2.00923E+07 3.29408E-07 1.71432E-07
 -1       310-1.21865E+07-2.27805E+06-2.20122E+06 6.04250E+06-3.71656E-07 8.80245E-08
 -1       311 4.25961E+07 9.40456E+05 8.23960E+06-8.96533E+06-4.31901E-08-2.09810E-07
 -1       312-3.52429E+07-5.94616E+06-8.94662E+06-5.05542E+06-9.09204E-08 1.42638E-07
 -1       313 5.18012E+07 1.62369E+07 1.22460E+07 2.55368E+07-1.54047E-07 5.59463E-07
 -1       314-1.88048E+07-1.91418E+07-8.11035E+06-1.44711E+07 3.56406E-07 2.81318E-07
 -1       315 1.88156E+06 3.19478E+07 6.66339E+06 1.32839E+07 1.51114E-07-7.86560E-07
 -1       316 1.78530E+06-1.02527E+07-7.19402E+05-2.12473E+06 4.66927E-07-6.58183E-07
 -1       317-1.48204E+07 2.40754E+07 2.72550E+06-7.68175E+06 2.12589E-07-1.09298E-06
 -1       318-5.59571E+05-1.36036E+07-2.27970E+06-4.00262E+06-1.19844E-06 5.23869E-10
 -1       319 1.04589E+07 3.47717E+07 8.23068E+06 1.87551E+07-8.11939E-07 6.79865E-08
 -1       320-2.42119E+07-1.90543E+07-1.02344E+07-1.47385E+07-3.67756E-07-4.12692E-08
 -1       336-8.35967E+01-1.45392E+06-1.25668E+04 5.98330E+03-2.11348E-08-6.02449E-09
 -1       337-5.03082E+03-1.45485E+06-1.76382E+04-1.46128E+04-3.85689E-08-9.73341E-09
 -1       338 9.73270E+02-1.45318E+06-2.79859E+04 8.49911E+03-2.76523E-08-9.29504E-09
 -1       339-3.05785E+04-1.47155E+06-6.45120E+04-1.95906E+04-4.98740E-08-2.02090E-09
 -1       340 2.05496E+04-1.43843E+06-1.01359E+05 1.08519E+04-3.31274E-08 1.67020E-08
 -1       406-2.72256E+00 3.38333E+05 5.57533E+02 1.25851E+00-1.14963E-09 3.48700E-09
 -1       407 1.71568E+02 3.38440E+05 1.18722E+03 1.52130E+01-3.76929E-10 8.03539E-09
 -1       408 5.87116E+02 3.38247E+05 2.36974E+03-1.68360E+01-1.41847E-09-1.54614E-08
 -1       409 2.54224E+03 3.39197E+05 5.33707E+03 1.72627E+02-2.69836E-10-1.55051E-08
 -1       410 7.34597E+03 3.37570E+05 1.08944E+04-1.64569E+02-1.65346E-09 5.29053E-09
 -1       521-3.39929E+07-8.41802E+06-1.10077E+07-2.55753E+04-1.20606E-07 2.68687E-07
 -1       522 2.97711E+07 5.18906E+06 6.27730E+06-1.97402E+07-4.99043E-07-3.17523E-07
 -1       523-7.66948E+06-1.89371E+06-6.46962E+05 6.11180E+06 1.63272E-07-2.74362E-07
 -1       524-8.04145E+06 1.42748E+07 2.71009E+06-2.45309E+07 1.11575E-06-4.15617E-07
 -1       525-1.29281E+07-3.00559E+06-2.23894E+06 6.28778E+06 6.31262E-07-4.47617E-08
 -1       526 4.40223E+07 6.87385E+05 8.06973E+06-1.34821E+07 5.90459E-07 1.00117E-07
 -1       527-3.58365E+07-8.69914E+06-1.05279E+07-4.41562E+06-1.68337E-07 5.24902E-07
 -1       528 5.49566E+07 1.71294E+07 1.19560E+07 2.86342E+07-7.06059E-08 2.63331E-07
 -1       529-1.95896E+07-2.12559E+07-9.42636E+06-1.33561E+07 2.27767E-07 4.83124E-08
 -1       530-3.37470E+06 3.74668E+07 6.58183E+06 1.15031E+07 2.58726E-07 4.79748E-07
 -1       531 1.50019E+06-1.15254E+07-5.60424E+05-2.33664E+06-7.50151E-07 1.99070E-07
 -1       532-1.99058E+07 2.59796E+07 2.69632E+06-1.43577E+07 1.89742E-07-6.47357E-07
 -1       533-8.29463E+05-1.44776E+07-2.26561E+06-3.80284E+06-3.52127E-07-9.96690E-07
 -1       534 5.57541E+06 4.01422E+07 7.81650E+06 1.82259E+07-4.11237E-08 7.85629E-07
 -1       535-2.49402E+07-2.14394E+07-1.21374E+07-1.35966E+07 1.07684E-07 4.85277E-07
 -1       536-5.95680E+05-2.47854E+04-4.72974E+04-4.05772E+04-1.69939E-09 6.42046E-08
 -1       537-1.64181E+05 2.22230E+04 4.58024E+04 9.63621E+04-9.12852E-08 8.28837E-08
 -1       538-3.88372E+05 3.38847E+03-1.42544E+03-5.80071E+04 3.12674E-08 9.56473E-08
 -1       539-3.06511E+05 2.20460E+02 1.39800E+04 1.10116E+05 1.25911E-07 7.19974E-08
 -1       540-4.56973E+05 2.10929E+02-1.50503E+04-5.46220E+04 1.02605E-08 6.36204E-08
 -1       541-2.52822E+04 1.10151E+04 7.08902E+04 7.46403E+04-4.67990E-08 6.61449E-08
 -1       542-6.62080E+05-1.36327E+04-5.71758E+04-2.20587E+04 3.73061E-08 3.29480E-08
 -1       543 1.48829E+05 1.84187E+04 1.05996E+05-1.09498E+04-1.85375E-08-1.58916E-08
 -1       544-6.26444E+05-1.10126E+04-5.03926E+04 3.05990E+04 2.13540E-08-5.31106E-08
 -1       545-1.07403E+05 5.92752E+03 5.24735E+04-8.85421E+04-3.12366E-08-7.46378E-08
 -1       546-4.12685E+05 4.49051E+03-8.70938E+03 5.53535E+04 1.23800E-08-5.57787E-08
 -1       547-3.18734E+05-4.57574E+03 4.57252E+03-1.12491E+05-1.07407E-07-8.98372E-08
 -1       548-4.20746E+05 4.15926E+03-1.96561E+04 5.49238E+04-8.37736E-08-8.62015E-08
 -1       549-9.19943E+04 4.02582E+03 3.16137E+04-8.58552E+04-4.77730E-08-3.85630E-08
 -1       550-6.33328E+05-9.16488E+03-1.00645E+05 2.83222E+04 7.47968E-09-2.82216E-08
 -1       551 1.96117E+04-5.80015E+05-2.21154E+04-9.45289E+05-8.19346E-08 8.26549E-09
 -1       552 5.35683E+04-6.09774E+05 4.01398E+03-1.34620E+06-5.96337E-08 2.48474E-08
 -1       553 4.29410E+04-6.09952E+05 2.74605E+04-9.40227E+05-9.78907E-08 2.14786E-08
 -1       554 8.79722E+04-6.17499E+05 7.41904E+04-1.34869E+06-6.14527E-08 2.45673E-08
 -1       555 7.21976E+04-6.34090E+05 1.38468E+05-9.39489E+05-1.02213E-07-4.16003E-09
 -1       556 1.80677E+05-3.20262E+05 1.00571E+04-3.48668E+05-1.80444E-08-3.50410E-08
 -1       557 2.85994E+05-4.09091E+05 7.13022E+03-4.52696E+05-2.09548E-09 1.29294E-08
 -1       558 1.66997E+05-3.13288E+05 1.37567E+01-3.52080E+05-1.45810E-08 1.15833E-08
 -1       559 2.70098E+05-4.08516E+05 8.91874E+02-4.67287E+05 2.19443E-08-1.62981E-09
 -1       560 1.56356E+05-3.06574E+05-1.30283E+03-3.59580E+05 2.61934E-09 6.81757E-09
 -1       561 2.56997E+05-4.03205E+05-5.03358E+01-4.76216E+05-7.27596E-10 1.47484E-08
 -1       562 1.48102E+05-3.01450E+05-8.98334E+02-3.65497E+05 2.45927E-09 1.59271E-08
 -1       563 2.47313E+05-3.98964E+05-2.68885E+01-4.82510E+05-4.34375E-09-2.54568E-09
 -1       564 1.42349E+05-2.97865E+05-3.57280E+02-3.69558E+05 1.55705E-09 1.38939E-08
 -1       565 2.41080E+05-3.96251E+05 3.37122E+01-4.86482E+05 2.88856E-09 1.40244E-08
 -1       566 1.39161E+05-2.95845E+05-1.45441E+02-3.71789E+05-1.05501E-08-9.80617E-09
 -1       567 2.38330E+05-3.95050E+05-2.46794E+02-4.88117E+05 1.37697E-08 2.65973E-08
 -1       568 1.38601E+05-2.95512E+05-7.97202E+02-3.72274E+05-2.59843E-09-4.80941E-09
 -1       569 2.37895E+05-3.95017E+05-2.00136E+03-4.86513E+05-1.83354E-09 8.65111E-09
 -1       570 1.41597E+05-2.98225E+05-4.42831E+03-3.71512E+05 5.26779E-09-3.30965E-09
 -1       571 2.55978E+05 9.30007E+03 1.34543E+04-7.77650E+04 2.06364E-09 6.68751E-09
 -1       572 2.57947E+05 3.40651E+03 6.59289E+03-8.53156E+04-4.07454E-10 1.61253E-09
 -1       573 2.56765E+05 9.81576E+02 2.92930E+03-7.76127E+04-5.06589E-10 4.99313E-09
 -1       574 2.56974E+05 4.99826E+02 1.46855E+03-8.55026E+04 2.80056E-09 5.21140E-10
 -1       575 2.56852E+05 2.63683E+02 6.92938E+02-7.75921E+04 8.30482E-10 6.89670E-09
 -1       576 2.56850E+05 2.60474E+02 3.54357E+02-8.55275E+04-6.18058E-09 2.18552E-09
 -1       577 2.56881E+05 2.15743E+02 1.76734E+02-7.75893E+04-2.79306E-09 5.24324E-09
 -1       578 2.56864E+05 2.33810E+02 1.01402E+02-8.55308E+04-5.98448E-10-8.96671E-09
 -1       579 2.56928E+05 1.93391E+02 6.94809E+01-7.75890E+04 6.01631E-09 5.82804E-09
 -1       580 2.56930E+05 2.01915E+02 7.92828E+01-8.55265E+04-7.28960E-09 9.60790E-09
 -1       581 2.57002E+05 1.57454E+02 1.20322E+02-7.75938E+04 3.27418E-09 4.04634E-09
 -1       582 2.57050E+05 1.87276E+02 2.42693E+02-8.54761E+04 1.20781E-09 7.60792E-09
 -1       583 2.57090E+05 2.14076E+02 4.68286E+02-7.76397E+04-1.27329E-11 1.24053E-08
 -1       584 2.57334E+05 5.92855E+02 1.05697E+03-8.50900E+04 3.68163E-09 1.29905E-08
 -1       585 2.57076E+05 1.50029E+03 2.14402E+03-7.79796E+04-2.00998E-09 1.05792E-08
 -1       586-3.08146E+03 9.58814E+04-3.06667E+03-2.24386E+05-3.34694E-09 3.63571E-09
 -1       587-1.01653E+03 9.55688E+04 4.06233E+02-2.46970E+05-2.58660E-09 4.00241E-08
 -1       588 5.60870E+02 9.54785E+04 4.01373E+03-2.24272E+05-2.25191E-09 2.69010E-08
 -1       589 4.67191E+03 9.75889E+04 1.06546E+04-2.46736E+05-4.74392E-09 1.95578E-08
 -1       590 1.46591E+04 9.43099E+04 2.24470E+04-2.24659E+05-3.98359E-09 3.40769E-08
 -1       591-6.05906E+04-1.36674E+04-1.90883E+04-2.66992E+04 3.48837E-09 4.62478E-09
 -1       592-6.38193E+04-1.69174E+04-1.03396E+04-3.00386E+04-1.99863E-09-1.61426E-08
 -1       593-6.25011E+04-1.22807E+04-4.30395E+03-2.80974E+04 1.76870E-09-4.23984E-09
 -1       594-6.11806E+04-1.41199E+04-2.14653E+03-3.01424E+04-1.82293E-09 1.57575E-08
 -1       595-6.26468E+04-1.22760E+04-9.85639E+02-2.81610E+04-1.20170E-09 4.74271E-09
 -1       596-6.10002E+04-1.39919E+04-5.01162E+02-3.01213E+04 1.75507E-09 9.07556E-09
 -1       597-6.26651E+04-1.22889E+04-2.73113E+02-2.81634E+04 9.52127E-10-1.75010E-09
 -1       598-6.09824E+04-1.39869E+04-2.19949E+02-3.01154E+04-6.63130E-09-5.90643E-09
 -1       599-6.26640E+04-1.22893E+04-2.81447E+02-2.81631E+04 6.66580E-09 8.30994E-09
 -1       600-6.10005E+04-1.39926E+04-5.23237E+02-3.01197E+04 1.34901E-09 9.58585E-09
 -1       601-6.26428E+04-1.22767E+04-1.03242E+03-2.81600E+04 1.83809E-09 9.77707E-11
 -1       602-6.11894E+04-1.41259E+04-2.25018E+03-3.01387E+04-1.88572E-09 5.58430E-10
 -1       603-6.24877E+04-1.22842E+04-4.51257E+03-2.80940E+04 2.22144E-09 1.21413E-08
 -1       604-6.39711E+04-1.70422E+04-1.08402E+04-3.00086E+04 3.70125E-09-5.05838E-09
 -1       605-6.04672E+04-1.37533E+04-2.00125E+04-2.66448E+04 3.97335E-09 1.65664E-08
 -1       606 2.59934E+04-1.24827E+04-2.23994E+04 2.40469E+04 3.61524E-09-1.65164E-09
 -1       607 2.21642E+04-4.06578E+03-1.11545E+04 2.70120E+04 2.84672E-10 5.45378E-09
 -1       608 2.43446E+04-7.22979E+02-4.99385E+03 2.38685E+04-2.50475E-09 3.04499E-09
 -1       609 2.39231E+04-2.35290E+02-2.52264E+03 2.72253E+04 3.04135E-09 6.79347E-09
 -1       610 2.41552E+04-2.06324E+01-1.20386E+03 2.38479E+04-7.75162E-09-2.27192E-09
 -1       611 2.40859E+04-1.71818E+01-6.06982E+02 2.72484E+04-1.98470E-08-2.13504E-10
 -1       612 2.41114E+04-7.00094E+00-2.88867E+02 2.38458E+04-8.53743E-09-4.49882E-09
 -1       613 2.40933E+04-1.20574E+01-1.29722E+02 2.72511E+04 2.44472E-09-4.02201E-09
 -1       614 2.40900E+04-1.12249E+01-3.12282E+01 2.38451E+04-7.14863E-10 5.03337E-09
 -1       615 2.40864E+04-9.54376E+00 5.25105E+01 2.72516E+04-2.67755E-09 9.86779E-09
 -1       616 2.40733E+04-7.50274E+00 1.59157E+02 2.38453E+04 7.95353E-10-1.66915E-09
 -1       617 2.41039E+04 2.53897E+01 3.63843E+02 2.72511E+04 8.84256E-10-1.53054E-08
 -1       618 2.40404E+04 9.81670E+01 7.33614E+02 2.38456E+04-1.47338E-09-1.91972E-09
 -1       619 2.43619E+04 5.93265E+02 1.64757E+03 2.72504E+04-1.79477E-09 2.24995E-08
 -1       620 2.37961E+04 1.83836E+03 3.31159E+03 2.38459E+04 7.55563E-10-2.81534E-09
 -1       621 3.76761E+02 2.62908E+05 3.12050E+03 2.99394E+04 5.71163E-10 9.88530E-09
 -1       622 4.85738E+02 2.63647E+05 2.83612E+03 4.34993E+04 9.19499E-10 1.87451E-08
 -1       623 7.52459E+01 2.63071E+05 3.49722E+03 2.98012E+04 7.74094E-10 5.71208E-09
 -1       624 1.74278E+03 2.64740E+05 6.85109E+03 4.36372E+04 8.44892E-10 3.23985E-09
 -1       625 1.72510E+03 2.61715E+05 1.20068E+04 2.97982E+04 9.61336E-10-1.63254E-09
 -1       626 2.30414E+05 5.63530E+04 4.75217E+03 1.14539E+05-8.71842E-09 1.65946E-08
 -1       627 2.28165E+05 5.77487E+04 2.28997E+03 1.18613E+05-2.43604E-08-2.06163E-08
 -1       628 2.30541E+05 5.41688E+04 9.68222E+02 1.15335E+05-1.10713E-08 2.38879E-09
 -1       629 2.27561E+05 5.71303E+04 4.73873E+02 1.18848E+05-5.00859E-09-4.79974E-09
 -1       630 2.30554E+05 5.40637E+04 2.19538E+02 1.15367E+05-4.77576E-09-7.14601E-09
 -1       631 2.27496E+05 5.71081E+04 1.17726E+02 1.18850E+05 5.38876E-11-2.47525E-09
 -1       632 2.30549E+05 5.40684E+04 7.67687E+01 1.15362E+05 7.43557E-09-8.31506E-09
 -1       633 2.27486E+05 5.71108E+04 8.44209E+01 1.18845E+05 6.54188E-09-3.45474E-08
 -1       634 2.30543E+05 5.40668E+04 1.35469E+02 1.15360E+05-3.25463E-09 1.16729E-08
 -1       635 2.27497E+05 5.71101E+04 2.73551E+02 1.18849E+05-2.05446E-08 1.03387E-09
 -1       636 2.30533E+05 5.40626E+04 5.52155E+02 1.15359E+05-1.00054E-08-1.29148E-09
 -1       637 2.27615E+05 5.71964E+04 1.21374E+03 1.18847E+05-2.53851E-09-3.99359E-09
 -1       638 2.30489E+05 5.43313E+04 2.49386E+03 1.15237E+05 3.43334E-10 7.89987E-09
 -1       639 2.28925E+05 5.90181E+04 5.90031E+03 1.18460E+05-4.39968E-10 1.64252E-08
 -1       640 2.30310E+05 5.97694E+04 1.22443E+04 1.12942E+05 1.43928E-09-4.53383E-09
 -1       656 5.93817E+04-1.51639E+06-1.43351E+05-1.65507E+03 1.67347E-10-5.39984E-09
 -1       657-7.85415E+04-1.58116E+06-1.18722E+05 6.00138E+03 9.09495E-11 4.09500E-09
 -1       658 1.89140E+04-1.53480E+06-7.30757E+04-3.36631E+03 5.68434E-10 5.20441E-09
 -1       659-8.48108E+04-1.58413E+06-1.26959E+05 7.35606E+03-1.33423E-09-1.53536E-09
 -1       660 6.56366E+04-1.51343E+06-1.57515E+05-3.00973E+03-1.19326E-09 8.57139E-09
 -1       661 1.55644E+05 1.64774E+04 1.60057E+04 6.08540E+04-4.24734E-10 5.89353E-09
 -1       662 1.64523E+05 2.84970E+04 1.07863E+04 5.74565E+04-1.86446E-10 1.32264E-08
 -1       663 1.58786E+05 2.16138E+04 3.77260E+03 5.99436E+04-5.73323E-10 1.47315E-09
 -1       664 1.60882E+05 2.24886E+04 2.25644E+03 5.85671E+04-5.59766E-09-1.53923E-08
 -1       665 1.59261E+05 2.23170E+04 8.90175E+02 5.98066E+04 2.54772E-09-1.35393E-08
 -1       666 1.60322E+05 2.16831E+04 5.20561E+02 5.87448E+04 4.01870E-09 8.40924E-09
 -1       667 1.59343E+05 2.23983E+04 2.76178E+02 5.97735E+04 1.45397E-09-2.82995E-10
 -1       668 1.60232E+05 2.16228E+04 2.80578E+02 5.87926E+04-7.93534E-10-2.96097E-09
 -1       669 1.59349E+05 2.23755E+04 3.79237E+02 5.97592E+04 8.19327E-10 9.47719E-09
 -1       670 1.60326E+05 2.18269E+04 8.25159E+02 5.87939E+04-5.68641E-09 1.02059E-08
 -1       671 1.59249E+05 2.21983E+04 1.46495E+03 5.97704E+04-4.48615E-10-5.11875E-10
 -1       672 1.61180E+05 2.32514E+04 3.74787E+03 5.85864E+04 3.21876E-10-1.44655E-09
 -1       673 1.58499E+05 2.09871E+04 6.28077E+03 5.99529E+04 2.10423E-09-9.79981E-10
 -1       674 1.67159E+05 3.33407E+04 1.79617E+04 5.68285E+04-3.32335E-09-9.49967E-09
 -1       675 1.53308E+05 1.23915E+04 2.66613E+04 6.14222E+04 1.58252E-10 1.53486E-08
 -1       676 2.20127E+01-2.69247E+05-1.02072E+03-7.02964E+01 5.15968E-10-3.88988E-09
 -1       677-2.70749E+02-2.69493E+05-1.86807E+03 1.40496E+02 4.70186E-09-8.96295E-09
 -1       678 1.80997E+02-2.69071E+05-3.30227E+03-7.01522E+01 6.04814E-10 4.76108E-09
 -1       679-3.30297E+03-2.71487E+05-7.84473E+03 1.39939E+02 4.84488E-09-1.79137E-08
 -1       680 1.97148E+03-2.67255E+05-1.26431E+04-6.89586E+01 5.84805E-10 9.57954E-11
 -1       771-2.80054E+06-6.61016E+05-1.51761E+05-1.32478E+06-3.44298E-08-2.56405E-08
 -1       772-2.73866E+06-7.41597E+05-7.89876E+04-1.41723E+06-3.44007E-08 9.80799E-09
 -1       773-2.82747E+06-6.40079E+05-3.87300E+04-1.33718E+06-1.69384E-08 9.90985E-09
 -1       774-2.72730E+06-7.24039E+05-1.76124E+04-1.43719E+06 2.83471E-08-3.20142E-09
 -1       775-2.84011E+06-6.31296E+05-1.21635E+04-1.34230E+06 7.01402E-09 7.20320E-10
 -1       776-2.73604E+06-7.21734E+05-4.71812E+03-1.45176E+06 5.60249E-09 4.94765E-09
 -1       777-2.85079E+06-6.23601E+05-5.02076E+03-1.34674E+06 1.17288E-08 1.37516E-09
 -1       778-2.74531E+06-7.19804E+05-1.48343E+03-1.46421E+06 1.04701E-08 6.32281E-09
 -1       779-2.85986E+06-6.16933E+05-2.40233E+03-1.35051E+06-8.73115E-11-6.78119E-09
 -1       780-2.75342E+06-7.18004E+05-4.17748E+02-1.47432E+06-7.74889E-09-1.31695E-09
 -1       781-2.86702E+06-6.11590E+05-9.11920E+02-1.35344E+06-3.20870E-08 3.18323E-10
 -1       782-2.75962E+06-7.16486E+05 3.26003E+02-1.48176E+06-3.53793E-08-4.12365E-09
 -1       783-2.87203E+06-6.07903E+05 5.19014E+02-1.35550E+06-6.39557E-09-1.26010E-08
 -1       784-2.76302E+06-7.14915E+05 2.13005E+03-1.48634E+06-1.49121E-08 1.60026E-09
 -1       785-2.87498E+06-6.05715E+05 3.76279E+03-1.35681E+06-2.64190E-08 1.64655E-08
 -1       786 1.15905E+05-9.01493E+03 2.08559E+04-2.21215E+02 3.03766E-09 8.49650E-09
 -1       787 1.24951E+05 1.04368E+04 1.47549E+04-5.38994E+01 5.23076E-09 2.33240E-09
 -1       788 1.19393E+05-1.41290E+03 5.39605E+03-1.91900E+02 2.23831E-09 9.31936E-09
 -1       789 1.20888E+05 1.63491E+03 3.38772E+03-9.99274E+01 6.13330E-10 1.43350E-08
 -1       790 1.19969E+05-2.20228E+02 1.37219E+03-1.75198E+02-2.70306E-09 1.17100E-08
 -1       791 1.20214E+05 2.54457E+02 7.93677E+02-1.28742E+02-6.85019E-09 1.28865E-08
 -1       792 1.20066E+05-3.34747E+01 3.38563E+02-1.63086E+02-3.04100E-09 5.61944E-09
 -1       793 1.20098E+05 3.59916E+01 1.73706E+02-1.51427E+02 8.57318E-10 5.61535E-09
 -1       794 1.20085E+05-1.90035E+00 5.50268E+01-1.52513E+02 1.61260E-09-1.40358E-09
 -1       795 1.20068E+05-1.71482E+01-2.68243E+01-1.73184E+02-3.32925E-09 1.36477E-09
 -1       796 1.20097E+05 1.96362E+01-1.04547E+02-1.41329E+02 2.14944E-09 2.20491E-08
 -1       797 1.20003E+05-1.48931E+02-2.99744E+02-1.98386E+02 3.02357E-09 1.29547E-08
 -1       798 1.20150E+05 1.29784E+02-4.90285E+02-1.27311E+02 1.96700E-09 8.84623E-09
 -1       799 1.19630E+05-9.57781E+02-1.35196E+03-2.32271E+02 5.16956E-09-7.88735E-09
 -1       800 1.20470E+05 8.27825E+02-1.91410E+03-1.07444E+02 7.18320E-10-3.16697E-09
 -1       801-4.15968E+04-7.46392E+06-9.70128E+05 8.39047E+05 7.20611E-08-3.66636E-08
 -1       802 3.59180E+05 2.04685E+06 1.19888E+06-9.83066E+05 2.01770E-07-2.82253E-08
 -1       803-3.07341E+05-9.81317E+06-1.13576E+06 5.37970E+05 6.34245E-08 2.37669E-08
 -1       804 1.34644E+05-2.05019E+05 8.42246E+05 4.79228E+05-8.69077E-08-7.13517E-08
 -1       805 1.37664E+05-5.22640E+06-1.83874E+05-6.19999E+05-3.64234E-08-4.51764E-08
 -1       806-2.76013E+05-5.25103E+04-2.01506E+04-1.08350E+05-6.67569E-10 7.20956E-09
 -1       807-2.77731E+05-4.90886E+04-9.89975E+03-1.13083E+05 7.44512E-09 6.48495E-09
 -1       808-2.76557E+05-4.52580E+04-4.19989E+03-1.11794E+05-1.83536E-09 8.83836E-09
 -1       809-2.75656E+05-4.63010E+04-2.05368E+03-1.13320E+05-7.87918E-09 6.84668E-09
 -1       810-2.76640E+05-4.50054E+04-9.41298E+02-1.11948E+05 3.21597E-09-5.33646E-10
 -1       811-2.75496E+05-4.61883E+04-4.68135E+02-1.13288E+05 2.26078E-09-1.85742E-08
 -1       812-2.76654E+05-4.50267E+04-2.36751E+02-1.11948E+05-5.34783E-09-1.73736E-08
 -1       813-2.75475E+05-4.61897E+04-1.53935E+02-1.13273E+05-1.33605E-09-1.38493E-08
 -1       814-2.76649E+05-4.50344E+04-1.52541E+02-1.11945E+05-1.39244E-09-3.34239E-10
 -1       815-2.75480E+05-4.61913E+04-2.46023E+02-1.13268E+05-3.61342E-09-2.74804E-09
 -1       816-2.76632E+05-4.50327E+04-4.66202E+02-1.11942E+05-6.12999E-10 9.65065E-09
 -1       817-2.75560E+05-4.62354E+04-1.00095E+03-1.13259E+05-1.08139E-08 6.53586E-09
 -1       818-2.76574E+05-4.51726E+04-2.04139E+03-1.11876E+05-2.22099E-09-4.24279E-09
 -1       819-2.76678E+05-4.74703E+04-4.80385E+03-1.12999E+05-2.58296E-10-5.15411E-09
 -1       820-2.76194E+05-4.87971E+04-9.77727E+03-1.10322E+05-5.40513E-09 4.51246E-09
 -1       821-3.39703E+05 1.87278E+04-4.33294E+04 9.30465E+02 7.25012E-09 7.43603E-09
 -1       822-3.58414E+05-2.16806E+04-3.06504E+04-1.58211E+03 6.34891E-10 8.21683E-09
 -1       823-3.46907E+05 2.93724E+03-1.12192E+04 1.12856E+03-4.38367E-09-1.73077E-09
 -1       824-3.49963E+05-3.39696E+03-7.05388E+03-1.49427E+03 7.82762E-10-1.55230E-08
 -1       825-3.48152E+05 4.57844E+02-2.91001E+03 8.42635E+02 6.13278E-09-5.26563E-09
 -1       826-3.48469E+05-5.37235E+02-1.72737E+03-5.80515E+02 8.15251E-09 2.57839E-09
 -1       827-3.48397E+05 7.74021E+01-9.26964E+02 2.14787E+02 3.84853E-09-1.64447E-08
 -1       828-3.48262E+05-1.62463E+02-7.77972E+02 7.03075E+02-6.60748E-10-2.39452E-08
 -1       829-3.48358E+05 8.30743E+01-9.40743E+02-4.40975E+02 1.51120E-09-1.18990E-09
 -1       830-3.48567E+05-5.64193E+02-1.80816E+03 1.71273E+03 3.31326E-11 1.93189E-08
 -1       831-3.48095E+05 4.80977E+02-3.01313E+03-7.94887E+02-1.96099E-09-6.73595E-10
 -1       832-3.50049E+05-3.53743E+03-7.34022E+03 1.94057E+03-7.37761E-10 2.27612E-09
 -1       833-3.46878E+05 3.05493E+03-1.16750E+04-6.68820E+02-2.06828E-09 7.13635E-09
 -1       834-3.58735E+05-2.25501E+04-3.18653E+04 1.26004E+03-2.10652E-09-4.84170E-09
 -1       835-3.39410E+05 1.94772E+04-4.50822E+04-1.14336E+02 4.79167E-09 5.04406E-09
 -1       836-1.21360E+03 3.24478E+05 1.99587E+04-1.50823E+04-4.46744E-09 1.32195E-09
 -1       837 4.28892E+03 3.30713E+05 1.69616E+04-3.06011E+04-4.45675E-09 8.85939E-09
 -1       838-4.75452E+02 3.26218E+05 1.73846E+04-1.50168E+04-3.75894E-09-8.69477E-10
 -1       839 1.10151E+04 3.35726E+05 3.29877E+04-3.06479E+04-4.08863E-09 4.07698E-09
 -1       840-3.38221E+03 3.19417E+05 5.26472E+04-1.50382E+04-3.55067E-09 5.80211E-09
 -1       856-5.82214E+04 7.56885E+03-1.99456E+04-3.88086E+02 1.50550E-09-7.66886E-09
 -1       857-6.64464E+04-8.88754E+03-1.37309E+04 5.12234E+03 3.47995E-09-2.04091E-08
 -1       858-6.14759E+04 1.06116E+03-5.17563E+03-4.09829E+02 1.20559E-09-1.21486E-08
 -1       859-6.27106E+04-1.24323E+03-3.12393E+03 5.15535E+03 5.12500E-10 6.39284E-09
 -1       860-6.19623E+04 1.48277E+02-1.31023E+03-4.20973E+02-5.31827E-10 1.35212E-08
 -1       861-6.21509E+04-1.72242E+02-7.22926E+02 5.17057E+03 7.58519E-10-2.21090E-08
 -1       862-6.20383E+04 1.98860E+01-3.04782E+02-4.25037E+02-8.04754E-10-1.20380E-08
 -1       863-6.20585E+04-1.67832E+01-1.20722E+02 5.17279E+03 2.64835E-09-1.65281E-08
 -1       864-6.20551E+04-3.69061E+00 2.26977E+01-4.23197E+02-6.89624E-10-1.62035E-09
 -1       865-6.20121E+04 5.03424E+01 1.92148E+02 5.16265E+03 2.23338E-10-7.43140E-09
 -1       866-6.20828E+04-4.73178E+01 3.98495E+02-4.14904E+02-8.95284E-10-2.77964E-10
 -1       867-6.18219E+04 3.92273E+02 9.87967E+02 5.14009E+03-1.28725E-09 2.81482E-08
 -1       868-6.22411E+04-3.39665E+02 1.64356E+03-4.00634E+02-1.18234E-11 2.48860E-09
 -1       869-6.06153E+04 2.82744E+03 4.37868E+03 5.10248E+03-1.03773E-09-2.22440E-08
 -1       870-6.32829E+04-2.41665E+03 6.35432E+03-3.77244E+02-9.49512E-10-2.90447E-09
 -1       871-4.99970E+03-1.66991E+04-1.71738E+04 1.14738E+05-2.05182E-09 8.79572E-09
 -1       872-1.92606E+03-2.06446E+04-7.14672E+03 1.48768E+05-6.31189E-09 9.97352E-09
 -1       873 2.22404E+02-1.87555E+04 6.32469E+02 1.14486E+05-2.99860E-09-1.41026E-08
 -1       874 2.79904E+03-1.65337E+04 8.88129E+03 1.48801E+05-5.96265E-09 1.60769E-08
 -1       875 6.04827E+03-2.08728E+04 1.99488E+04 1.14697E+05-2.30284E-09-8.07267E-09
 -1       876 2.63648E+05 4.46571E+04 1.36413E+04 1.06066E+05 3.32079E-10-4.60295E-09
 -1       877 2.64528E+05 4.75512E+04 7.28491E+03 1.09997E+05 4.25348E-09 4.34056E-10
 -1       878 2.64923E+05 4.31467E+04 3.05205E+03 1.07184E+05 8.44057E-09 5.42127E-09
 -1       879 2.62674E+05 4.57011E+04 1.52064E+03 1.10091E+05 4.30919E-09 6.19906E-09
 -1       880 2.65015E+05 4.31306E+04 7.08267E+02 1.07230E+05 2.29852E-09-7.29420E-09
 -1       881 2.62551E+05 4.56222E+04 3.78077E+02 1.10070E+05 2.41528E-09-6.57568E-09
 -1       882 2.65024E+05 4.31423E+04 2.41652E+02 1.07231E+05 6.39648E-09 1.51822E-08
 -1       883 2.62542E+05 4.56182E+04 2.59410E+02 1.10064E+05 1.39136E-09 2.50604E-08
 -1       884 2.65018E+05 4.31396E+04 4.12333E+02 1.07232E+05 1.52829E-09 5.70253E-10
 -1       885 2.62575E+05 4.56240E+04 8.28817E+02 1.10074E+05 1.34969E-09-2.07990E-09
 -1       886 2.64986E+05 4.31154E+04 1.67036E+03 1.07228E+05-1.35161E-09 6.29723E-09
 -1       887 2.62869E+05 4.58164E+04 3.64867E+03 1.10116E+05 2.31842E-09 1.24855E-08
 -1       888 2.64755E+05 4.31561E+04 7.35221E+03 1.07112E+05 1.36140E-10-1.65346E-09
 -1       889 2.67246E+05 5.03677E+04 1.75633E+04 1.09981E+05-4.16998E-09-9.90440E-09
 -1       890 2.61757E+05 4.67182E+04 3.28954E+04 1.04311E+05-6.19934E-09-1.56033E-08
 -1       891-1.05951E+02-1.46854E+05-1.78953E+03 2.52478E+04-4.54293E-10 4.14207E-09
 -1       892-1.96542E+02-1.47314E+05-1.92570E+03 3.82940E+04 2.23599E-09 2.90584E-09
 -1       893 1.36988E+01-1.46912E+05-2.73028E+03 2.52541E+04-8.50605E-10-1.18416E-08
 -1       894-1.39749E+03-1.48349E+05-5.65356E+03 3.81541E+04 1.50976E-09-1.10631E-08
 -1       895-1.10384E+03-1.45736E+05-9.95666E+03 2.53882E+04-2.63526E-10-7.58973E-09
 -1       956-3.37159E+05-4.80515E+03-1.19496E+04 2.59806E+04 5.91626E-09-1.32172E-09
 -1       957-3.39509E+05-1.66737E+03-6.13391E+03 3.12477E+04 4.18822E-10-8.60382E-10
 -1       958-3.38228E+05-1.81137E+02-2.76386E+03 2.58345E+04-4.76575E-09-1.37754E-08
 -1       959-3.38407E+05-8.34971E+01-1.41149E+03 3.14140E+04-1.03682E-10 1.87679E-08
 -1       960-3.38329E+05-9.57556E+00-6.88265E+02 2.58199E+04 2.90083E-09-8.43897E-09
 -1       961-3.38332E+05-2.07768E+01-3.65144E+02 3.14311E+04 4.11364E-09-1.47841E-08
 -1       962-3.38351E+05-1.22070E+01-2.09252E+02 2.58175E+04 6.25073E-09 1.45551E-08
 -1       963-3.38331E+05-1.80575E+01-1.68396E+02 3.14341E+04 1.32347E-08 1.05742E-08
 -1       964-3.38355E+05-9.60809E+00-2.05152E+02 2.58169E+04 5.07370E-09 2.60166E-08
 -1       965-3.38342E+05-1.52413E+01-3.55135E+02 3.14336E+04-4.72181E-09 9.08062E-09
 -1       966-3.38342E+05-1.84757E+00-6.67296E+02 2.58181E+04-9.11086E-10-2.26487E-09
 -1       967-3.38424E+05-7.07178E+01-1.36874E+03 3.14218E+04-3.77440E-09-7.24799E-09
 -1       968-3.38252E+05-1.63165E+02-2.67923E+03 2.58286E+04-3.88218E-09 5.20043E-09
 -1       969-3.39503E+05-1.60215E+03-5.94812E+03 3.12981E+04-1.68620E-09 2.29834E-08
 -1       970-3.37222E+05-4.64396E+03-1.15867E+04 2.59375E+04-3.63116E-09 3.83170E-09
 -1       971-3.10984E+05-1.57201E+03-8.55857E+03 1.40998E+04 1.76624E-09-4.92159E-09
 -1       972-3.13051E+05-1.14771E+03-4.66098E+03 1.95659E+04 2.62980E-09-5.64796E-09
 -1       973-3.11936E+05-4.16383E+01-2.08749E+03 1.39865E+04 1.79352E-09-1.89013E-08
 -1       974-3.12067E+05-5.36018E+01-1.08194E+03 1.96921E+04 1.78375E-09-1.43763E-08
 -1       975-3.12011E+05-9.54921E-01-5.40792E+02 1.39755E+04-1.64209E-09-1.27443E-10
 -1       976-3.12009E+05-8.26681E+00-3.12019E+02 1.97060E+04 2.69642E-09 1.46542E-10
 -1       977-3.12026E+05-6.77019E-01-2.26448E+02 1.39726E+04-2.51930E-09 3.74098E-09
 -1       978-3.12014E+05-2.86545E+00-2.65005E+02 1.97100E+04-3.99905E-09 4.99892E-09
 -1       979-3.12025E+05 6.78473E+00-4.25766E+02 1.39714E+04-4.78195E-09 1.05616E-08
 -1       980-3.12045E+05-1.71302E-01-8.22091E+02 1.97108E+04-9.30959E-09-9.41372E-09
 -1       981-3.11999E+05 2.73316E+01-1.59217E+03 1.39719E+04-3.70790E-09 1.42063E-09
 -1       982-3.12264E+05-1.17711E+02-3.29097E+03 1.97048E+04-1.78363E-09 2.39581E-08
 -1       983-3.11799E+05-7.44604E+01-6.39433E+03 1.39774E+04-6.57906E-09 1.13416E-08
 -1       984-3.15340E+05-3.45700E+03-1.43197E+04 1.96260E+04-9.37257E-09 5.70253E-10
 -1       985-3.08904E+05-4.75330E+03-2.62954E+04 1.40476E+04-5.60931E-09 5.33146E-09
 -3
    1PSTEP                        33          17           1          
  100CL  117 6.05261E-01         409                     0   17           1
 -4  DISP        4    1
 -5  D1          1    2    1    0
 -5  D2          1    2    2    0
 -5  D3          1    2    3    0
 -5  ALL         1    2    0    0    1ALL
 -1         1 2.95508E-03 0.00000E+00 0.00000E+00
 -1         2 2.96359E-03-3.99712E-27 0.00000E+00
 -1         3 2.81490E-04 3.40834E-28-1.32349E-23
 -1         5 1.53569E-04 1.44446E-26-3.30872E-24
 -1         8 2.93825E-03-5.06709E-07 0.00000E+00
 -1         9 2.90089E-03-8.01617E-06 0.00000E+00
 -1        10 2.56105E-04-2.89861E-06 0.00000E+00
 -1        12 1.54690E-04 7.12692E-07 8.27181E-25
 -1        15 2.91782E-03-5.55090E-07 2.06795E-25
 -1        16 2.92646E-03-9.38414E-06 0.00000E+00
 -1        17 1.76675E-04-6.45931E-06 0.00000E+00
 -1        18 1.56629E-04 2.39837E-05 0.00000E+00
 -1        19 1.58053E-04 1.42091E-06 0.00000E+00
 -1        20 1.58193E-04-2.31229E-06 0.00000E+00
 -1        21 1.57425E-04-9.16341E-06 3.30872E-24
 -1        24 2.70764E-05-9.51931E-06 0.00000E+00
 -1        25 1.63748E-04 2.41741E-05 0.00000E+00
 -1        26 1.64400E-04 1.96825E-06 0.00000E+00
 -1        27 1.62459E-04-5.48991E-06 0.00000E+00
 -1        28 1.62117E-04-9.72829E-06 0.00000E+00
 -1        32 0.00000E+00 0.00000E+00 0.00000E+00
 -1        33 1.69759E-04 2.63538E-06 0.00000E+00
 -1        34 1.67863E-04-5.53244E-06 0.00000E+00
 -1        35 1.66120E-04-1.00359E-05 0.00000E+00
 -1        51 2.95400E-03-9.53514E-08 0.00000E+00
 -1        52 2.95199E-03-1.77022E-07 0.00000E+00
 -1        53 2.94923E-03-2.56894E-07 0.00000E+00
 -1        54 2.94589E-03-3.36990E-07 0.00000E+00
 -1        55 2.94217E-03-4.18777E-07 2.48154E-24
 -1        56 2.95165E-03-1.87711E-08 5.29396E-23
 -1        57 2.94730E-03 2.06635E-06 0.00000E+00
 -1        58 2.94228E-03 5.91862E-06 0.00000E+00
 -1        59 2.93677E-03 1.10164E-05 5.29396E-23
 -1        60 2.93104E-03 1.66743E-05 1.05879E-22
 -1        61 2.92537E-03 2.21580E-05 0.00000E+00
 -1        62 2.92004E-03 2.67602E-05 0.00000E+00
 -1        63 2.91529E-03 2.98358E-05 5.29396E-23
 -1        64 2.91128E-03 3.09626E-05 0.00000E+00
 -1        65 2.90811E-03 2.98597E-05 0.00000E+00
 -1        66 2.90575E-03 2.65718E-05 1.05879E-22
 -1        67 2.90414E-03 2.13037E-05 0.00000E+00
 -1        68 2.90307E-03 1.45491E-05 1.05879E-22
 -1        69 2.90235E-03 6.91780E-06-5.29396E-23
 -1        70 2.90168E-03-8.65412E-07 0.00000E+00
 -1        86 2.95887E-03-1.28191E-06 0.00000E+00
 -1        87 2.94496E-03-2.64532E-06 0.00000E+00
 -1        88 2.92711E-03-4.06471E-06-2.64698E-23
 -1        89 2.91079E-03-5.45449E-06 1.32349E-23
 -1        90 2.90061E-03-6.77253E-06 0.00000E+00
 -1       121 2.80779E-04-4.71860E-07 0.00000E+00
 -1       122 2.78646E-04-9.45666E-07 6.61744E-24
 -1       123 2.75098E-04-1.42334E-06 0.00000E+00
 -1       124 2.70148E-04-1.90682E-06 0.00000E+00
 -1       125 2.63810E-04-2.39776E-06 0.00000E+00
 -1       191 1.53600E-04 1.18808E-07 1.65436E-24
 -1       192 1.53693E-04 2.37611E-07 4.13590E-25
 -1       193 1.53849E-04 3.56407E-07 2.48154E-24
 -1       194 1.54067E-04 4.75189E-07 1.24077E-24
 -1       195 1.54347E-04 5.93953E-07 0.00000E+00
 -1       251 2.93749E-03 1.83483E-05 0.00000E+00
 -1       252 2.93572E-03 6.76706E-05 0.00000E+00
 -1       253 2.93275E-03 1.38556E-04 0.00000E+00
 -1       254 2.92886E-03 2.21600E-04 0.00000E+00
 -1       255 2.92503E-03 3.04056E-04 1.32349E-23
 -1       256 2.92217E-03 3.73195E-04-6.61744E-24
 -1       257 2.92051E-03 4.19938E-04 1.32349E-23
 -1       258 2.91979E-03 4.35728E-04 6.61744E-24
 -1       259 2.91907E-03 4.20093E-04-1.32349E-23
 -1       260 2.91741E-03 3.73339E-04 6.61744E-24
 -1       261 2.91453E-03 3.03900E-04 0.00000E+00
 -1       262 2.91064E-03 2.20730E-04-6.61744E-24
 -1       263 2.90666E-03 1.36552E-04 0.00000E+00
 -1       264 2.90357E-03 6.41115E-05 0.00000E+00
 -1       265 2.90171E-03 1.29134E-05-1.32349E-23
 -1       266 2.93484E-03-5.22263E-07 0.00000E+00
 -1       267 2.93144E-03-5.29414E-07 0.00000E+00
 -1       268 2.92804E-03-5.37096E-07-8.27181E-25
 -1       269 2.92463E-03-5.43203E-07 2.06795E-25
 -1       270 2.92123E-03-5.49272E-07 2.06795E-25
 -1       271 2.93611E-03 2.77626E-06 0.00000E+00
 -1       272 2.93385E-03 6.27059E-06-1.32349E-23
 -1       273 2.93158E-03 9.81849E-06 0.00000E+00
 -1       274 2.92935E-03 1.32492E-05 0.00000E+00
 -1       275 2.92722E-03 1.63967E-05 2.64698E-23
 -1       276 2.92526E-03 1.90961E-05-1.32349E-23
 -1       277 2.92354E-03 2.11879E-05-2.64698E-23
 -1       278 2.92210E-03 2.25182E-05-1.32349E-23
 -1       279 2.92100E-03 2.29417E-05 0.00000E+00
 -1       280 2.92029E-03 2.23222E-05 0.00000E+00
 -1       281 2.92002E-03 2.05344E-05-2.64698E-23
 -1       282 2.92023E-03 1.74654E-05 0.00000E+00
 -1       283 2.92095E-03 1.30156E-05 2.64698E-23
 -1       284 2.92221E-03 7.10065E-06-1.32349E-23
 -1       285 2.92404E-03-3.50118E-07-2.64698E-23
 -1       301 2.90482E-03-8.25628E-06 6.61744E-24
 -1       302 2.90783E-03-8.47321E-06-6.61744E-24
 -1       303 2.91070E-03-8.68817E-06 0.00000E+00
 -1       304 2.91423E-03-8.90518E-06 0.00000E+00
 -1       305 2.91923E-03-9.13074E-06 0.00000E+00
 -1       306 2.93917E-03-1.64197E-04-1.05879E-22
 -1       307 3.00241E-03-6.00122E-04 0.00000E+00
 -1       308 3.04029E-03-1.24729E-03 0.00000E+00
 -1       309 3.04555E-03-2.00662E-03 0.00000E+00
 -1       310 3.05889E-03-2.73940E-03 0.00000E+00
 -1       311 3.11141E-03-3.30884E-03 0.00000E+00
 -1       312 3.17249E-03-3.62874E-03 1.05879E-22
 -1       313 3.17502E-03-3.65843E-03 0.00000E+00
 -1       314 3.03464E-03-3.40923E-03 0.00000E+00
 -1       315 2.70232E-03-2.95183E-03 5.29396E-23
 -1       316 2.19254E-03-2.36869E-03-1.05879E-22
 -1       317 1.57328E-03-1.73295E-03 0.00000E+00
 -1       318 9.75117E-04-1.10691E-03 0.00000E+00
 -1       319 5.22213E-04-5.58016E-04 0.00000E+00
 -1       320 2.59935E-04-1.64996E-04-1.05879E-22
 -1       336 2.46879E-04-3.44911E-06 0.00000E+00
 -1       337 2.35985E-04-4.01612E-06 0.00000E+00
 -1       338 2.23463E-04-4.60099E-06-1.32349E-23
 -1       339 2.09366E-04-5.20368E-06 0.00000E+00
 -1       340 1.93749E-04-5.82819E-06-6.61744E-24
 -1       406 1.55094E-04 8.31394E-07 8.27181E-25
 -1       407 1.55562E-04 9.50032E-07 0.00000E+00
 -1       408 1.56091E-04 1.06857E-06 0.00000E+00
 -1       409 1.56683E-04 1.18686E-06 8.27181E-25
 -1       410 1.57337E-04 1.30466E-06 0.00000E+00
 -1       521 2.96481E-03-1.76128E-04-2.11758E-22
 -1       522 3.02541E-03-6.28911E-04 0.00000E+00
 -1       523 3.05747E-03-1.29525E-03-1.05879E-22
 -1       524 3.05704E-03-2.06793E-03-5.29396E-23
 -1       525 3.06559E-03-2.81208E-03 0.00000E+00
 -1       526 3.11445E-03-3.39522E-03 0.00000E+00
 -1       527 3.17384E-03-3.72260E-03 0.00000E+00
 -1       528 3.17358E-03-3.75151E-03 0.00000E+00
 -1       529 3.02290E-03-3.49183E-03 2.11758E-22
 -1       530 2.67253E-03-3.02211E-03 0.00000E+00
 -1       531 2.13889E-03-2.42756E-03-1.05879E-22
 -1       532 1.49768E-03-1.78401E-03 0.00000E+00
 -1       533 8.77320E-04-1.14957E-03 0.00000E+00
 -1       534 3.99879E-04-5.87155E-04 5.29396E-23
 -1       535 1.19729E-04-1.79609E-04 0.00000E+00
 -1       536 1.76134E-04 2.19356E-05 3.30872E-24
 -1       537 1.74803E-04 7.14481E-05-1.65436E-24
 -1       538 1.72765E-04 1.34388E-04 0.00000E+00
 -1       539 1.70369E-04 2.02991E-04 0.00000E+00
 -1       540 1.68208E-04 2.67811E-04 0.00000E+00
 -1       541 1.66788E-04 3.19418E-04 0.00000E+00
 -1       542 1.66114E-04 3.52158E-04-3.30872E-24
 -1       543 1.65922E-04 3.60495E-04-1.65436E-24
 -1       544 1.65653E-04 3.45117E-04 3.30872E-24
 -1       545 1.64794E-04 3.06886E-04-1.65436E-24
 -1       546 1.63243E-04 2.52611E-04 3.30872E-24
 -1       547 1.61174E-04 1.89201E-04 0.00000E+00
 -1       548 1.59131E-04 1.26233E-04 0.00000E+00
 -1       549 1.57648E-04 7.32829E-05 1.65436E-24
 -1       550 1.56861E-04 3.70139E-05 0.00000E+00
 -1       551 1.56363E-04-6.86222E-06 0.00000E+00
 -1       552 1.33242E-04-7.32391E-06 0.00000E+00
 -1       553 1.08024E-04-7.83247E-06 0.00000E+00
 -1       554 8.14396E-05-8.37616E-06 3.30872E-24
 -1       555 5.42150E-05-8.93789E-06 0.00000E+00
 -1       556 1.70578E-04 9.22246E-06 0.00000E+00
 -1       557 1.65684E-04 2.18397E-05 0.00000E+00
 -1       558 1.61883E-04 3.16394E-05 0.00000E+00
 -1       559 1.59066E-04 3.88864E-05 0.00000E+00
 -1       560 1.57123E-04 4.38458E-05 0.00000E+00
 -1       561 1.55949E-04 4.67844E-05 0.00000E+00
 -1       562 1.55437E-04 4.79701E-05 2.64698E-23
 -1       563 1.55484E-04 4.76710E-05 0.00000E+00
 -1       564 1.55986E-04 4.61563E-05 0.00000E+00
 -1       565 1.56842E-04 4.36954E-05 0.00000E+00
 -1       566 1.57949E-04 4.05581E-05 0.00000E+00
 -1       567 1.59208E-04 3.70144E-05 0.00000E+00
 -1       568 1.60518E-04 3.33345E-05-1.03398E-25
 -1       569 1.61777E-04 2.97885E-05 0.00000E+00
 -1       570 1.62887E-04 2.66464E-05 0.00000E+00
 -1       571 1.56716E-04 2.25207E-05 8.27181E-25
 -1       572 1.56804E-04 2.10019E-05 8.27181E-25
 -1       573 1.56893E-04 1.94404E-05-1.65436E-24
 -1       574 1.56981E-04 1.78497E-05 1.65436E-24
 -1       575 1.57070E-04 1.62431E-05 0.00000E+00
 -1       576 1.57159E-04 1.46344E-05 1.65436E-24
 -1       577 1.57249E-04 1.30372E-05 0.00000E+00
 -1       578 1.57338E-04 1.14650E-05 0.00000E+00
 -1       579 1.57427E-04 9.93153E-06 0.00000E+00
 -1       580 1.57516E-04 8.45037E-06 0.00000E+00
 -1       581 1.57605E-04 7.03515E-06-6.61744E-24
 -1       582 1.57695E-04 5.69946E-06-6.61744E-24
 -1       583 1.57784E-04 4.45690E-06 0.00000E+00
 -1       584 1.57874E-04 3.32093E-06 0.00000E+00
 -1       585 1.57963E-04 2.30486E-06 0.00000E+00
 -1       586 1.57768E-04 2.40173E-05-1.65436E-24
 -1       587 1.58874E-04 2.40504E-05-4.13590E-25
 -1       588 1.59987E-04 2.40831E-05-8.27181E-25
 -1       589 1.61144E-04 2.41153E-05 0.00000E+00
 -1       590 1.62385E-04 2.41464E-05 0.00000E+00
 -1       591 1.57123E-04 2.25957E-05-2.06795E-25
 -1       592 1.57621E-04 2.11868E-05 0.00000E+00
 -1       593 1.58125E-04 1.97627E-05 8.27181E-25
 -1       594 1.58632E-04 1.83279E-05-4.13590E-25
 -1       595 1.59141E-04 1.68872E-05 8.27181E-25
 -1       596 1.59650E-04 1.54451E-05-4.13590E-25
 -1       597 1.60159E-04 1.40063E-05-8.27181E-25
 -1       598 1.60664E-04 1.25754E-05 0.00000E+00
 -1       599 1.61165E-04 1.11570E-05 8.27181E-25
 -1       600 1.61659E-04 9.75577E-06 0.00000E+00
 -1       601 1.62145E-04 8.37629E-06-8.27181E-25
 -1       602 1.62622E-04 7.02318E-06-4.13590E-25
 -1       603 1.63087E-04 5.70107E-06-2.06795E-25
 -1       604 1.63539E-04 4.41467E-06-3.87741E-26
 -1       605 1.63976E-04 3.16853E-06 0.00000E+00
 -1       606 1.58066E-04 7.40099E-07 0.00000E+00
 -1       607 1.58075E-04 1.45267E-07 0.00000E+00
 -1       608 1.58084E-04-3.68632E-07 0.00000E+00
 -1       609 1.58093E-04-8.07289E-07 0.00000E+00
 -1       610 1.58101E-04-1.17644E-06 0.00000E+00
 -1       611 1.58110E-04-1.48190E-06 0.00000E+00
 -1       612 1.58118E-04-1.72946E-06 0.00000E+00
 -1       613 1.58126E-04-1.92495E-06 0.00000E+00
 -1       614 1.58135E-04-2.07418E-06 0.00000E+00
 -1       615 1.58143E-04-2.18298E-06-8.27181E-25
 -1       616 1.58152E-04-2.25715E-06 0.00000E+00
 -1       617 1.58160E-04-2.30251E-06-4.13590E-25
 -1       618 1.58168E-04-2.32490E-06 0.00000E+00
 -1       619 1.58177E-04-2.33011E-06 0.00000E+00
 -1       620 1.58185E-04-2.32397E-06 0.00000E+00
 -1       621 1.58895E-04 1.51250E-06 1.65436E-24
 -1       622 1.59857E-04 1.60434E-06-8.27181E-25
 -1       623 1.60913E-04 1.69608E-06-1.65436E-24
 -1       624 1.62039E-04 1.78757E-06 0.00000E+00
 -1       625 1.63209E-04 1.87886E-06-1.65436E-24
 -1       626 1.58408E-04 7.72190E-07 3.30872E-24
 -1       627 1.58741E-04 1.89039E-07-1.65436E-24
 -1       628 1.59051E-04-3.36096E-07 3.30872E-24
 -1       629 1.59343E-04-8.11107E-07 0.00000E+00
 -1       630 1.59619E-04-1.24391E-06 3.30872E-24
 -1       631 1.59882E-04-1.64244E-06 1.65436E-24
 -1       632 1.60136E-04-2.01464E-06-3.30872E-24
 -1       633 1.60382E-04-2.36845E-06 1.65436E-24
 -1       634 1.60625E-04-2.71181E-06-3.30872E-24
 -1       635 1.60867E-04-3.05266E-06 1.65436E-24
 -1       636 1.61110E-04-3.39893E-06 0.00000E+00
 -1       637 1.61359E-04-3.75857E-06 0.00000E+00
 -1       638 1.61616E-04-4.13952E-06-1.65436E-24
 -1       639 1.61883E-04-4.54974E-06-1.65436E-24
 -1       640 1.62164E-04-4.99719E-06 0.00000E+00
 -1       656 1.58401E-04-2.82894E-06 0.00000E+00
 -1       657 1.59003E-04-3.36648E-06-6.61744E-24
 -1       658 1.59863E-04-3.90264E-06 0.00000E+00
 -1       659 1.60839E-04-4.43845E-06 0.00000E+00
 -1       660 1.61761E-04-4.97589E-06 0.00000E+00
 -1       661 1.58272E-04-2.33969E-06 8.27181E-25
 -1       662 1.58384E-04-2.44683E-06 0.00000E+00
 -1       663 1.58524E-04-2.62956E-06 0.00000E+00
 -1       664 1.58691E-04-2.88247E-06 8.27181E-25
 -1       665 1.58883E-04-3.20081E-06 0.00000E+00
 -1       666 1.59097E-04-3.57969E-06 8.27181E-25
 -1       667 1.59333E-04-4.01449E-06-1.65436E-24
 -1       668 1.59587E-04-4.50062E-06 0.00000E+00
 -1       669 1.59860E-04-5.03368E-06-1.65436E-24
 -1       670 1.60148E-04-5.60932E-06-8.27181E-25
 -1       671 1.60450E-04-6.22331E-06-1.65436E-24
 -1       672 1.60765E-04-6.87153E-06 8.27181E-25
 -1       673 1.61092E-04-7.54990E-06 1.65436E-24
 -1       674 1.61427E-04-8.25466E-06 0.00000E+00
 -1       675 1.61771E-04-8.98149E-06 4.13590E-25
 -1       676 1.58210E-04-9.25811E-06-3.30872E-24
 -1       677 1.58994E-04-9.35277E-06 0.00000E+00
 -1       678 1.59777E-04-9.44738E-06 0.00000E+00
 -1       679 1.60559E-04-9.54170E-06-1.65436E-24
 -1       680 1.61339E-04-9.63601E-06 1.65436E-24
 -1       771 1.67628E-05 1.34958E-05 0.00000E+00
 -1       772 8.07624E-06 3.23672E-05 0.00000E+00
 -1       773 9.40765E-07 4.73022E-05 0.00000E+00
 -1       774-4.75044E-06 5.85302E-05 0.00000E+00
 -1       775-9.10172E-06 6.62886E-05 0.00000E+00
 -1       776-1.22215E-05 7.08277E-05 0.00000E+00
 -1       777-1.42184E-05 7.24061E-05 0.00000E+00
 -1       778-1.52027E-05 7.12929E-05 2.64698E-23
 -1       779-1.52848E-05 6.77640E-05 5.29396E-23
 -1       780-1.45765E-05 6.21039E-05 0.00000E+00
 -1       781-1.31890E-05 5.46027E-05 0.00000E+00
 -1       782-1.12350E-05 4.55572E-05 2.64698E-23
 -1       783-8.82622E-06 3.52678E-05-5.29396E-23
 -1       784-6.07574E-06 2.40397E-05 0.00000E+00
 -1       785-3.09578E-06 1.21807E-05 5.29396E-23
 -1       786 1.63785E-04 2.25668E-05 0.00000E+00
 -1       787 1.63825E-04 2.10078E-05-4.13590E-25
 -1       788 1.63865E-04 1.94892E-05 0.00000E+00
 -1       789 1.63906E-04 1.80035E-05 0.00000E+00
 -1       790 1.63947E-04 1.65460E-05 0.00000E+00
 -1       791 1.63988E-04 1.51122E-05 8.27181E-25
 -1       792 1.64029E-04 1.36999E-05-1.65436E-24
 -1       793 1.64070E-04 1.23068E-05-8.27181E-25
 -1       794 1.64111E-04 1.09327E-05-1.65436E-24
 -1       795 1.64152E-04 9.57708E-06 0.00000E+00
 -1       796 1.64193E-04 8.24151E-06 0.00000E+00
 -1       797 1.64234E-04 6.92742E-06 8.27181E-25
 -1       798 1.64275E-04 5.63836E-06 0.00000E+00
 -1       799 1.64317E-04 4.37793E-06 8.27181E-25
 -1       800 1.64358E-04 3.15243E-06 0.00000E+00
 -1       801 1.27647E-04 2.15580E-05 2.64698E-23
 -1       802 1.81312E-05 1.37871E-05 0.00000E+00
 -1       803-7.69697E-05 7.21098E-06 0.00000E+00
 -1       804-7.11658E-05 4.94627E-06 2.64698E-23
 -1       805-2.42362E-05 2.09957E-06-5.29396E-23
 -1       806 1.64248E-04 2.25068E-05 3.30872E-24
 -1       807 1.64734E-04 2.08668E-05 0.00000E+00
 -1       808 1.65207E-04 1.92582E-05-3.30872E-24
 -1       809 1.65668E-04 1.76843E-05 0.00000E+00
 -1       810 1.66114E-04 1.61483E-05 0.00000E+00
 -1       811 1.66544E-04 1.46532E-05 0.00000E+00
 -1       812 1.66959E-04 1.32023E-05 3.30872E-24
 -1       813 1.67355E-04 1.17986E-05 1.65436E-24
 -1       814 1.67733E-04 1.04451E-05 1.65436E-24
 -1       815 1.68091E-04 9.14493E-06 8.27181E-25
 -1       816 1.68428E-04 7.90120E-06-1.65436E-24
 -1       817 1.68742E-04 6.71692E-06 8.27181E-25
 -1       818 1.69033E-04 5.59516E-06 1.65436E-24
 -1       819 1.69300E-04 4.53898E-06 0.00000E+00
 -1       820 1.69542E-04 3.55139E-06 0.00000E+00
 -1       821 1.64285E-04 6.57872E-07 0.00000E+00
 -1       822 1.64163E-04-9.43828E-07 1.65436E-24
 -1       823 1.64041E-04-2.67923E-06-3.30872E-24
 -1       824 1.63917E-04-4.38995E-06-1.65436E-24
 -1       825 1.63794E-04-5.92388E-06 0.00000E+00
 -1       826 1.63671E-04-7.12986E-06 0.00000E+00
 -1       827 1.63549E-04-7.93796E-06 3.30872E-24
 -1       828 1.63426E-04-8.28047E-06 1.65436E-24
 -1       829 1.63304E-04-8.20501E-06 3.30872E-24
 -1       830 1.63182E-04-7.76148E-06-1.65436E-24
 -1       831 1.63059E-04-7.09094E-06 0.00000E+00
 -1       832 1.62937E-04-6.33575E-06 0.00000E+00
 -1       833 1.62815E-04-5.65922E-06 0.00000E+00
 -1       834 1.62694E-04-5.22424E-06-1.65436E-24
 -1       835 1.62573E-04-5.13404E-06-8.27181E-25
 -1       836 1.65480E-04 2.07903E-06 0.00000E+00
 -1       837 1.66447E-04 2.19249E-06-1.65436E-24
 -1       838 1.67329E-04 2.30585E-06 0.00000E+00
 -1       839 1.68155E-04 2.41855E-06 0.00000E+00
 -1       840 1.68956E-04 2.53109E-06 4.13590E-25
 -1       856 1.62441E-04-6.00313E-06 0.00000E+00
 -1       857 1.62420E-04-6.39247E-06 2.58494E-26
 -1       858 1.62399E-04-6.67724E-06 0.00000E+00
 -1       859 1.62378E-04-6.87680E-06-2.06795E-25
 -1       860 1.62357E-04-7.01062E-06-4.13590E-25
 -1       861 1.62335E-04-7.09820E-06 0.00000E+00
 -1       862 1.62314E-04-7.15909E-06 8.27181E-25
 -1       863 1.62292E-04-7.21284E-06 0.00000E+00
 -1       864 1.62270E-04-7.27902E-06 8.27181E-25
 -1       865 1.62249E-04-7.37721E-06 4.13590E-25
 -1       866 1.62227E-04-7.52692E-06-8.27181E-25
 -1       867 1.62205E-04-7.74765E-06 4.13590E-25
 -1       868 1.62184E-04-8.05884E-06-8.27181E-25
 -1       869 1.62162E-04-8.47985E-06 0.00000E+00
 -1       870 1.62140E-04-9.02994E-06 0.00000E+00
 -1       871 1.63230E-04-5.49311E-06-8.27181E-25
 -1       872 1.64133E-04-5.49925E-06 0.00000E+00
 -1       873 1.65108E-04-5.50598E-06 0.00000E+00
 -1       874 1.66095E-04-5.51338E-06 3.10193E-25
 -1       875 1.67033E-04-5.52131E-06-1.44757E-24
 -1       876 1.62767E-04-5.99027E-06 0.00000E+00
 -1       877 1.63054E-04-6.42990E-06 1.65436E-24
 -1       878 1.63322E-04-6.81608E-06 0.00000E+00
 -1       879 1.63572E-04-7.15555E-06-1.65436E-24
 -1       880 1.63808E-04-7.45507E-06-3.30872E-24
 -1       881 1.64031E-04-7.72137E-06 0.00000E+00
 -1       882 1.64244E-04-7.96117E-06-3.30872E-24
 -1       883 1.64450E-04-8.18118E-06 0.00000E+00
 -1       884 1.64651E-04-8.38810E-06-3.30872E-24
 -1       885 1.64849E-04-8.58863E-06 0.00000E+00
 -1       886 1.65048E-04-8.78948E-06 3.30872E-24
 -1       887 1.65249E-04-8.99735E-06-1.65436E-24
 -1       888 1.65455E-04-9.21897E-06 3.30872E-24
 -1       889 1.65668E-04-9.46119E-06-8.27181E-25
 -1       890 1.65891E-04-9.73067E-06 0.00000E+00
 -1       891 1.62915E-04-9.77990E-06-1.65436E-24
 -1       892 1.63692E-04-9.83166E-06-4.13590E-25
 -1       893 1.64424E-04-9.88335E-06 0.00000E+00
 -1       894 1.65089E-04-9.93484E-06 0.00000E+00
 -1       895 1.65662E-04-9.98616E-06-4.13590E-25
 -1       956 1.69642E-04 1.87041E-06 0.00000E+00
 -1       957 1.69524E-04 1.18424E-06 1.65436E-24
 -1       958 1.69405E-04 5.67711E-07 0.00000E+00
 -1       959 1.69286E-04 1.11648E-08 0.00000E+00
 -1       960 1.69167E-04-4.95102E-07 3.30872E-24
 -1       961 1.69048E-04-9.60824E-07-1.65436E-24
 -1       962 1.68930E-04-1.39574E-06 3.30872E-24
 -1       963 1.68811E-04-1.80961E-06 0.00000E+00
 -1       964 1.68692E-04-2.21219E-06 3.30872E-24
 -1       965 1.68573E-04-2.61322E-06 0.00000E+00
 -1       966 1.68454E-04-3.02247E-06 3.30872E-24
 -1       967 1.68335E-04-3.44969E-06-1.65436E-24
 -1       968 1.68217E-04-3.90462E-06 3.30872E-24
 -1       969 1.68098E-04-4.39699E-06 0.00000E+00
 -1       970 1.67980E-04-4.93649E-06 0.00000E+00
 -1       971 1.67755E-04-6.12259E-06-1.65436E-24
 -1       972 1.67646E-04-6.62474E-06-1.65436E-24
 -1       973 1.67536E-04-7.04859E-06 0.00000E+00
 -1       974 1.67427E-04-7.40423E-06 0.00000E+00
 -1       975 1.67317E-04-7.70175E-06 0.00000E+00
 -1       976 1.67208E-04-7.95126E-06 1.65436E-24
 -1       977 1.67098E-04-8.16290E-06 3.30872E-24
 -1       978 1.66989E-04-8.34679E-06 0.00000E+00
 -1       979 1.66879E-04-8.51308E-06 3.30872E-24
 -1       980 1.66770E-04-8.67191E-06 0.00000E+00
 -1       981 1.66660E-04-8.83342E-06 0.00000E+00
 -1       982 1.66551E-04-9.00776E-06 0.00000E+00
 -1       983 1.66442E-04-9.20508E-06-3.30872E-24
 -1       984 1.66333E-04-9.43549E-06-1.65436E-24
 -1       985 1.66225E-04-9.70912E-06-1.65436E-24
 -3
    1PSTEP                        34          17           1          
  100CL  117 6.05261E-01         409                     0   17           1
 -4  STRESS      6    1
 -5  SXX         1    4    1    1
 -5  SYY         1    4    2    2
 -5  SZZ         1    4    3    3
 -5  SXY         1    4    1    2
 -5  SYZ         1    4    2    3
 -5  SZX         1    4    3    1
 -1         1-4.06002E+06-1.53171E+06-8.93316E+05-1.52827E+06-1.73168E-09 1.22993E-07
 -1         2 2.80718E+02-3.53949E+06 4.10743E+03-1.45035E+05-1.56490E-09 2.35125E-07
 -1         3-9.31309E+02-1.34227E+06 3.09315E+02-1.51079E+03-4.71253E-10 1.40935E-08
 -1         5-2.82680E+01 3.40056E+05 8.73405E+00-6.31995E-01-1.60465E-10-2.54568E-08
 -1         8-6.65992E+05-2.16309E+05-6.02686E+04-2.62970E+05 7.27596E-11 8.47758E-08
 -1         9 1.27847E+07-5.33272E+05 2.15357E+06-1.45302E+06 4.19561E-08 3.01749E-07
 -1        10-1.82845E+03-1.39862E+06-3.90798E+03-1.02312E+04-1.06575E-08-4.93242E-08
 -1        12-2.47342E+01 3.40074E+05 2.84569E+02-4.52622E+00-4.19135E-10 2.37233E-08
 -1        15 1.24119E+03 6.82100E+02 4.01213E+03 1.82741E+00-2.14811E-10 1.19433E-07
 -1        16 2.56136E+07-1.93327E+05 3.50011E+06-2.13669E+06 1.09042E-08 3.60267E-07
 -1        17 9.35291E+06 7.46221E+06 2.72744E+06 6.89612E+06-2.65427E-09-5.79748E-09
 -1        18 7.83857E+04 1.65041E+04-7.91293E+03-1.02090E+05 1.06904E-08-6.16865E-09
 -1        19 1.08668E+05 1.25111E+05-8.72418E+02 2.01824E+04 8.68022E-10-4.62023E-10
 -1        20-6.78316E+04-5.11207E+05-1.14347E+05 2.53959E+04-2.82398E-10 9.34354E-10
 -1        21-4.26486E+01-2.70249E+05-8.49538E+02 1.45399E+02 8.56031E-09-5.94122E-09
 -1        24 1.54504E+07 1.35134E+07 4.22307E+06 1.27353E+07-1.64291E-07-4.68766E-08
 -1        25 2.14383E+04-1.07093E+05 3.36561E+03-4.30591E+05-1.24828E-09 1.24624E-08
 -1        26-4.83894E+04 8.09566E+04-2.19700E+04-3.78728E+02 7.06859E-10 7.83482E-09
 -1        27-7.02378E+04-2.76941E+05-1.01907E+05 6.18208E+04 4.40468E-09-4.23825E-09
 -1        28 2.04790E+04-7.72540E+04 1.54033E+04 1.98356E+04-1.23629E-09 9.88294E-11
 -1        32-1.53468E+06-2.81083E+06-1.63919E+05 8.88251E+04-3.77477E-08-7.52840E-09
 -1        33-1.60669E+05 8.18155E+04 2.87715E+04-3.50945E+04-1.90395E-09 1.23349E-08
 -1        34-2.01319E+05-2.18589E+04 5.95751E+02 6.67271E+04-3.16678E-09-1.33576E-08
 -1        35-2.10187E+04-3.06527E+04-1.21691E+03 4.70431E+04-9.21607E-10-1.89575E-08
 -1        51 4.54027E+04-2.08228E+05 9.85744E+04-6.24728E+05-3.20142E-10-9.59481E-08
 -1        52 1.65510E+04-1.92635E+05 5.35100E+04-7.28326E+05 3.81988E-10-3.50999E-07
 -1        53 4.82468E+03-2.07141E+05 3.07311E+04-6.22436E+05 6.83940E-10-4.40050E-08
 -1        54 1.12174E+04-2.03785E+05 3.10417E+04-7.30734E+05-4.36557E-11 7.49133E-08
 -1        55 2.36820E+04-2.13120E+05 4.45350E+04-6.22095E+05 5.96629E-10 1.60544E-07
 -1        56-7.67673E+06-8.70059E+05-6.60995E+05-3.00149E+06-1.71858E-08-8.28877E-08
 -1        57-8.06835E+06-1.33951E+06-4.45299E+05-2.82706E+06 7.93516E-08 1.42434E-07
 -1        58-7.77928E+06-1.10898E+06-1.55277E+05-2.99259E+06-1.26056E-08 9.83127E-08
 -1        59-7.95477E+06-1.05487E+06-9.24948E+04-2.83512E+06 3.13194E-08 7.91624E-09
 -1        60-7.78942E+06-1.14669E+06-3.60657E+04-2.99655E+06 1.07389E-08 2.43977E-07
 -1        61-7.92774E+06-1.02454E+06-2.03612E+04-2.84581E+06-2.29957E-08 1.05274E-08
 -1        62-7.80551E+06-1.13855E+06-1.01545E+04-2.98189E+06-3.09537E-08-1.74946E-07
 -1        63-7.88125E+06-1.06098E+06-7.60160E+03-2.89058E+06 8.93306E-09 1.33216E-07
 -1        64-7.83417E+06-1.11127E+06-1.00147E+04-2.95057E+06 8.94397E-09 2.45197E-07
 -1        65-7.82409E+06-1.12347E+06-1.82023E+04-2.95647E+06-8.69659E-08-1.73113E-07
 -1        66-7.86222E+06-1.07651E+06-3.35731E+04-2.91561E+06 2.27719E-08-5.47498E-08
 -1        67-7.79508E+06-1.20685E+06-8.41411E+04-3.01230E+06-5.54201E-08-1.08496E-07
 -1        68-7.86508E+06-1.02780E+06-1.41539E+05-2.89561E+06-3.01552E-08-5.75383E-08
 -1        69-7.91078E+06-1.45900E+06-4.06506E+05-3.00025E+06-1.72276E-08-3.97420E-07
 -1        70-7.74995E+06-8.29953E+05-6.02413E+05-2.92674E+06 5.80621E-09 4.60423E-08
 -1        86-2.19072E+03-3.65612E+06-2.16285E+04 7.24867E+04 1.52663E-08-2.92148E-08
 -1        87-6.68501E+03-3.59057E+06-1.93421E+04-2.04941E+05 2.53917E-08-5.65601E-08
 -1        88 1.01403E+04-3.61056E+06-4.08435E+04 1.32447E+05 2.01380E-08-1.53944E-07
 -1        89-7.06651E+04-3.60592E+06-1.00781E+05-1.70381E+05 2.83617E-08-2.96589E-07
 -1        90 5.99579E+04-3.63929E+06-1.69895E+05 3.79038E+04 1.53523E-09 4.46246E-07
 -1       121-1.28556E+03-1.34540E+06-2.81470E+02 7.50581E+02 1.13695E-09-1.51813E-08
 -1       122-7.93941E+02-1.34228E+06 6.04999E+02-3.02255E+03-4.34144E-09 1.37461E-08
 -1       123-1.32323E+03-1.34549E+06 3.61876E+02 2.24326E+03 3.30692E-09-9.62245E-09
 -1       124 5.47360E+02-1.34176E+06 2.38894E+03-6.38891E+03-8.47695E-09-8.00355E-09
 -1       125-2.05641E+03-1.34623E+06 2.91239E+03 4.09432E+03 5.41877E-09-9.17134E-09
 -1       191-2.99560E+01 3.40080E+05 9.32872E+00 3.22765E-01-3.06365E-10-3.09592E-09
 -1       192-2.90845E+01 3.40056E+05 1.85462E+01-2.26895E+00-5.21456E-10 1.15251E-08
 -1       193-3.21195E+01 3.40080E+05 3.34102E+01 1.98849E+00-7.19330E-10 3.31602E-09
 -1       194-3.17086E+01 3.40059E+05 7.02806E+01-5.24206E+00-3.48366E-10-5.58703E-09
 -1       195-3.62748E+01 3.40077E+05 1.36386E+02 3.34721E+00-9.68960E-10-7.44512E-09
 -1       251-2.01140E+06-2.84942E+04-1.90904E+05-1.29548E+05 8.29459E-10 2.11436E-07
 -1       252-1.13167E+06 3.60862E+04 4.39855E+04 4.01480E+05 7.39965E-09 7.61829E-08
 -1       253-1.62404E+06-1.32349E+04-3.38444E+04-2.67584E+05-1.45565E-08 4.41105E-08
 -1       254-1.54430E+06 5.64552E+04 7.31016E+03 5.32844E+05-2.15850E-08 3.10659E-07
 -1       255-1.63973E+06-1.54468E+04-1.90030E+04-2.64456E+05 1.62945E-08 1.43000E-07
 -1       256-1.09198E+06 4.60839E+04 1.00026E+05 3.88422E+05 1.66356E-08 3.26108E-08
 -1       257-2.03210E+06-3.89107E+04-9.94953E+04-1.19462E+05-5.37875E-09-6.89538E-08
 -1       258-6.51264E+05 3.49589E+04 1.83566E+05 4.12088E+03 1.12814E-08-9.89985E-09
 -1       259-2.03712E+06-3.95476E+04-9.92355E+04 1.17537E+05 8.75843E-09-1.62397E-08
 -1       260-1.08007E+06 4.77351E+04 1.06168E+05-3.82409E+05-2.59906E-08-4.10497E-07
 -1       261-1.64545E+06-1.74059E+04-1.30782E+04 2.64671E+05 7.49596E-08-3.21582E-07
 -1       262-1.54046E+06 6.58183E+04 2.51894E+04-5.30969E+05-2.80181E-09-3.20960E-07
 -1       263-1.62209E+06-2.06650E+04-4.23118E+03 2.69920E+05 9.74342E-09 1.12286E-07
 -1       264-1.11918E+06 9.16875E+04 1.19491E+05-4.05641E+05 1.23510E-07 1.21323E-07
 -1       265-2.02698E+06-7.55252E+04-7.92811E+04 1.35810E+05 5.48825E-08 2.25709E-07
 -1       266-2.24697E+04-1.05072E+04 5.27190E+04-3.91002E+01-5.45697E-11-1.01853E-07
 -1       267 2.60485E+04 1.22458E+04 3.72617E+04 4.51148E+01 1.42791E-10 1.08395E-07
 -1       268-3.49306E+03-1.73438E+03 1.38500E+04-5.74836E+00-3.85626E-10-1.95337E-07
 -1       269 4.12427E+03 2.07565E+03 9.00229E+03 6.69603E+00 2.15209E-10-1.94210E-08
 -1       270-6.19059E+02-3.41047E+02 4.34553E+03-9.08697E-01 3.78577E-11 6.04299E-08
 -1       271-2.03517E+06-2.43860E+05-1.51404E+05-7.77550E+05 3.79077E-09 2.76341E-08
 -1       272-2.15008E+06-2.94717E+05-9.74700E+04-7.08805E+05 4.68935E-09-8.41883E-08
 -1       273-2.06223E+06-2.83129E+05-3.57182E+04-7.72437E+05-1.01295E-08 2.47352E-07
 -1       274-2.11818E+06-2.46669E+05-2.00504E+04-7.16811E+05-2.32018E-08 1.41870E-07
 -1       275-2.06616E+06-2.87175E+05-8.32353E+03-7.71234E+05-1.33014E-08 1.71670E-07
 -1       276-2.11202E+06-2.43017E+05-4.36775E+03-7.19345E+05-3.11456E-08-2.07207E-07
 -1       277-2.06781E+06-2.86603E+05-2.22393E+03-7.69726E+05-3.62470E-08 9.33292E-08
 -1       278-2.10777E+06-2.45660E+05-1.37692E+03-7.22498E+05 8.39646E-09 6.99374E-08
 -1       279-2.06964E+06-2.84971E+05-1.66916E+03-7.67549E+05-2.00089E-10-6.82467E-08
 -1       280-2.10290E+06-2.50316E+05-2.43328E+03-7.26782E+05 1.79398E-08 7.70633E-08
 -1       281-2.07176E+06-2.82543E+05-4.95999E+03-7.64791E+05 1.88775E-08 1.88156E-08
 -1       282-2.09900E+06-2.58697E+05-1.08785E+04-7.31837E+05-6.48470E-08 1.05223E-07
 -1       283-2.07267E+06-2.77436E+05-2.01164E+04-7.61766E+05-2.21917E-09-2.30656E-08
 -1       284-2.10940E+06-2.91542E+05-5.34017E+04-7.34387E+05-4.66025E-08-1.17344E-07
 -1       285-2.06101E+06-2.52855E+05-8.39306E+04-7.60779E+05-1.02846E-08 2.39776E-07
 -1       301 8.90879E+03-5.94786E+05 1.25134E+05-9.60468E+05 1.45519E-10 1.27431E-07
 -1       302 1.02349E+04-5.62589E+05 7.74140E+04-1.40545E+06-1.24419E-09 7.02378E-08
 -1       303-6.61676E+03-5.83042E+05 4.83620E+04-9.58639E+05 1.12050E-09-3.03553E-07
 -1       304-2.49557E+03-5.54684E+05 5.72662E+04-1.40371E+06 6.25732E-10 9.16771E-08
 -1       305-1.02724E+04-5.72137E+05 7.85183E+04-9.61953E+05-3.63798E-11-3.33239E-09
 -1       306-3.42505E+07-6.16116E+06-9.35407E+06-5.18080E+05-1.58092E-07 1.68628E-07
 -1       307 3.18503E+07 4.20145E+06 6.81498E+06-1.45974E+07-6.23055E-07-3.63623E-07
 -1       308-6.62160E+06-1.64854E+06-7.83593E+05 5.78465E+06 2.11556E-07 1.35973E-07
 -1       309-7.70414E+05 1.04503E+07 2.81645E+06-2.03462E+07 3.10702E-07-2.17373E-07
 -1       310-1.23303E+07-2.38145E+06-2.26393E+06 6.17418E+06-2.13215E-07-1.23633E-07
 -1       311 4.35402E+07 1.00841E+06 8.40610E+06-9.10431E+06 5.80912E-08 1.93249E-08
 -1       312-3.58050E+07-6.04258E+06-9.11798E+06-5.14457E+06 2.10712E-07-9.63337E-08
 -1       313 5.26603E+07 1.66986E+07 1.24615E+07 2.61128E+07-4.06289E-07 2.61265E-07
 -1       314-1.89273E+07-1.95795E+07-8.25547E+06-1.46838E+07 4.32541E-07 2.90456E-08
 -1       315 1.85080E+06 3.26625E+07 6.77729E+06 1.33780E+07 2.07248E-07-4.64614E-07
 -1       316 1.87097E+06-1.03670E+07-7.27562E+05-2.02296E+06 5.26998E-07-5.95785E-07
 -1       317-1.48231E+07 2.44536E+07 2.79445E+06-8.00877E+06 9.99280E-08-1.00127E-06
 -1       318-5.25662E+05-1.38764E+07-2.34205E+06-3.96464E+06-1.17719E-06 2.66009E-08
 -1       319 1.06645E+07 3.56165E+07 8.40207E+06 1.90867E+07-8.33243E-07 1.40659E-07
 -1       320-2.45205E+07-1.94523E+07-1.04253E+07-1.49893E+07-3.61120E-07-3.08501E-09
 -1       336-1.08061E+02-1.45635E+06-1.26439E+04 6.05117E+03-2.12722E-08 4.73665E-09
 -1       337-5.06592E+03-1.45725E+06-1.77610E+04-1.47794E+04-3.91793E-08 6.37738E-09
 -1       338 9.66780E+02-1.45560E+06-2.82166E+04 8.59425E+03-2.71975E-08-4.29281E-10
 -1       339-3.08298E+04-1.47410E+06-6.50430E+04-1.98121E+04-5.01532E-08 3.15049E-08
 -1       340 2.07086E+04-1.44073E+06-1.02207E+05 1.09726E+04-3.28619E-08 1.50030E-08
 -1       406-4.07849E+00 3.40065E+05 5.60666E+02 1.31870E+00-1.13680E-09 1.54396E-08
 -1       407 1.71282E+02 3.40173E+05 1.19403E+03 1.55731E+01-3.12625E-10 2.14168E-08
 -1       408 5.89164E+02 3.39978E+05 2.38325E+03-1.72614E+01-1.49782E-09 1.07939E-08
 -1       409 2.55566E+03 3.40934E+05 5.36765E+03 1.77231E+02-1.34833E-10-9.14406E-09
 -1       410 7.38703E+03 3.39297E+05 1.09568E+04-1.69030E+02-1.78807E-09 7.88350E-09
 -1       521-3.44338E+07-8.55449E+06-1.11942E+07 5.51795E+04-9.20845E-08 7.63685E-08
 -1       522 3.02766E+07 5.42297E+06 6.38681E+06-2.00821E+07-5.80330E-07-7.53178E-07
 -1       523-7.57776E+06-1.96605E+06-6.48108E+05 6.19303E+06 2.13797E-07-2.46277E-07
 -1       524-8.14919E+06 1.47391E+07 2.77516E+06-2.47615E+07 1.00699E-06-7.01635E-07
 -1       525-1.30156E+07-3.12202E+06-2.30177E+06 6.40263E+06 6.06233E-07-3.62488E-07
 -1       526 4.50313E+07 7.58669E+05 8.22768E+06-1.36587E+07 1.29803E-08 2.68890E-07
 -1       527-3.63488E+07-8.84448E+06-1.07298E+07-4.48389E+06-7.54371E-08-3.74130E-08
 -1       528 5.58811E+07 1.76408E+07 1.21609E+07 2.93005E+07-1.72760E-07 2.37924E-07
 -1       529-1.96979E+07-2.16915E+07-9.59289E+06-1.35107E+07-7.29342E-08 2.19094E-07
 -1       530-3.43332E+06 3.82481E+07 6.69093E+06 1.15147E+07 1.45796E-07 5.99946E-07
 -1       531 1.59382E+06-1.16095E+07-5.62197E+05-2.20899E+06-9.50065E-07 4.87838E-07
 -1       532-1.98339E+07 2.62603E+07 2.76102E+06-1.48157E+07 4.87300E-07-7.41595E-07
 -1       533-7.93429E+05-1.47026E+07-2.32645E+06-3.72565E+06-3.07919E-07-1.04209E-06
 -1       534 5.75539E+06 4.10673E+07 7.97619E+06 1.85314E+07 2.51748E-08 7.44243E-07
 -1       535-2.52297E+07-2.18521E+07-1.23628E+07-1.37902E+07 1.40746E-07 4.67873E-07
 -1       536-5.99668E+05-2.50105E+04-4.87499E+04-4.11000E+04-1.40153E-09 4.14454E-08
 -1       537-1.60306E+05 2.23680E+04 4.62679E+04 9.74372E+04-8.99548E-08 4.92383E-08
 -1       538-3.88595E+05 3.48330E+03-1.60404E+03-5.85890E+04 3.56324E-08 7.76200E-08
 -1       539-3.05204E+05 1.99200E+02 1.41570E+04 1.11274E+05 1.42253E-07 7.73137E-08
 -1       540-4.58462E+05 2.10628E+02-1.53686E+04-5.52360E+04-1.92119E-08 9.72112E-08
 -1       541-1.88477E+04 1.12171E+04 7.21705E+04 7.55513E+04-2.67220E-08 8.26926E-08
 -1       542-6.67292E+05-1.38781E+04-5.82257E+04-2.23802E+04 4.06485E-08 4.06709E-08
 -1       543 1.58538E+05 1.87563E+04 1.07956E+05-1.10421E+04-2.91918E-08-2.14968E-08
 -1       544-6.31121E+05-1.12222E+04-5.13261E+04 3.09782E+04-2.96882E-08-3.69030E-08
 -1       545-1.02272E+05 6.05884E+03 5.35030E+04-8.95295E+04 3.86041E-08-6.98543E-08
 -1       546-4.13443E+05 4.55516E+03-8.83946E+03 5.59215E+04 1.32643E-08-6.23029E-08
 -1       547-3.17579E+05-4.58584E+03 4.79439E+03-1.13665E+05-9.25024E-08-7.71197E-08
 -1       548-4.21555E+05 4.18262E+03-1.98161E+04 5.55001E+04-8.23816E-08-8.98567E-08
 -1       549-8.66736E+04 4.48179E+03 3.27153E+04-8.68616E+04-5.02885E-08-5.85965E-08
 -1       550-6.38142E+05-9.65904E+03-1.01724E+05 2.87118E+04 7.76436E-09-3.19160E-08
 -1       551 1.98058E+04-5.80600E+05-2.29344E+04-9.49211E+05-8.44520E-08 4.17640E-09
 -1       552 5.41712E+04-6.10837E+05 3.56029E+03-1.35178E+06-5.76256E-08 2.98969E-08
 -1       553 4.34646E+04-6.10904E+05 2.71691E+04-9.44104E+05-9.87566E-08 3.13594E-08
 -1       554 8.87839E+04-6.18864E+05 7.38772E+04-1.35428E+06-6.32572E-08 1.60690E-08
 -1       555 7.27580E+04-6.35145E+05 1.38011E+05-9.43346E+05-1.02067E-07-1.11622E-08
 -1       556 1.82330E+05-3.22877E+05 9.16830E+03-3.50734E+05-2.08674E-08-2.99478E-08
 -1       557 2.88279E+05-4.12224E+05 6.69962E+03-4.55566E+05-2.76486E-09-1.32568E-08
 -1       558 1.68399E+05-3.15634E+05-2.18831E+02-3.54348E+05-1.50758E-08-1.54250E-09
 -1       559 2.72243E+05-4.11488E+05 7.91251E+02-4.70362E+05 1.38534E-08-1.30603E-09
 -1       560 1.57590E+05-3.08816E+05-1.37954E+03-3.61974E+05 5.38421E-09 6.12272E-09
 -1       561 2.58944E+05-4.06088E+05-7.82718E+01-4.79431E+05-8.78208E-09 6.95218E-09
 -1       562 1.49203E+05-3.03611E+05-9.28435E+02-3.67988E+05-1.06229E-09 8.05812E-09
 -1       563 2.49101E+05-4.01778E+05-3.48273E+01-4.85829E+05-3.42698E-09-2.19025E-08
 -1       564 1.43351E+05-2.99966E+05-3.68884E+02-3.72118E+05 8.60018E-09-2.75850E-09
 -1       565 2.42757E+05-3.99016E+05 3.15986E+01-4.89872E+05 1.37952E-08-1.81849E-08
 -1       566 1.40100E+05-2.97906E+05-1.50245E+02-3.74393E+05 4.01633E-09-7.85076E-09
 -1       567 2.39944E+05-3.97788E+05-2.51858E+02-4.91547E+05 1.26638E-08 1.55233E-08
 -1       568 1.39514E+05-2.97556E+05-8.10125E+02-3.74897E+05-5.99607E-09-2.85945E-09
 -1       569 2.39486E+05-3.97756E+05-2.03410E+03-4.89948E+05-6.44832E-09 1.97979E-08
 -1       570 1.42526E+05-3.00290E+05-4.49710E+03-3.74124E+05 2.93949E-09-5.12046E-10
 -1       571 2.57237E+05 9.34329E+03 1.35098E+04-7.84154E+04 2.51384E-09 1.86697E-09
 -1       572 2.59214E+05 3.42606E+03 6.62012E+03-8.60294E+04 2.41016E-09-4.89217E-09
 -1       573 2.58027E+05 9.90690E+02 2.94141E+03-7.82622E+04 6.78119E-09-4.06544E-10
 -1       574 2.58237E+05 5.07555E+02 1.47463E+03-8.62176E+04 1.82808E-09 7.36600E-09
 -1       575 2.58115E+05 2.69898E+02 6.95817E+02-7.82415E+04-1.87126E-09 1.51122E-08
 -1       576 2.58112E+05 2.67168E+02 3.55847E+02-8.62427E+04-7.02039E-09 6.28461E-09
 -1       577 2.58144E+05 2.21598E+02 1.77486E+02-7.82386E+04-2.45291E-09-3.44971E-09
 -1       578 2.58127E+05 2.40111E+02 1.01867E+02-8.62461E+04-3.05226E-09-1.05319E-08
 -1       579 2.58192E+05 1.98756E+02 6.98180E+01-7.82384E+04 4.13456E-09-8.42010E-09
 -1       580 2.58194E+05 2.07566E+02 7.97369E+01-8.62418E+04-6.53290E-09 1.41445E-08
 -1       581 2.58267E+05 1.62056E+02 1.21008E+02-7.82433E+04 3.65799E-09 1.43518E-09
 -1       582 2.58315E+05 1.92191E+02 2.44160E+02-8.61910E+04 2.22281E-09-1.32750E-08
 -1       583 2.58357E+05 2.18307E+02 4.71033E+02-7.82896E+04 1.40972E-09-1.05622E-08
 -1       584 2.58602E+05 5.99452E+02 1.06327E+03-8.58015E+04 2.75395E-09-1.48545E-08
 -1       585 2.58344E+05 1.51165E+03 2.15667E+03-7.86324E+04-1.34605E-09-1.02009E-08
 -1       586-3.09285E+03 9.66618E+04-3.06002E+03-2.25342E+05-4.28554E-09-1.23980E-08
 -1       587-1.02762E+03 9.63517E+04 4.20296E+02-2.48021E+05-1.91721E-09-1.95641E-08
 -1       588 5.55468E+02 9.62576E+04 4.04161E+03-2.25227E+05-1.65710E-09-3.07682E-09
 -1       589 4.68787E+03 9.83814E+04 1.07174E+04-2.47786E+05-3.49701E-09 1.46292E-08
 -1       590 1.47320E+04 9.50828E+04 2.25749E+04-2.25615E+05-2.11548E-09 2.32940E-08
 -1       591-6.11270E+04-1.37498E+04-1.92151E+04-2.68907E+04-2.02317E-09-4.98858E-09
 -1       592-6.43890E+04-1.70094E+04-1.04083E+04-3.02387E+04 5.10539E-10 1.19712E-10
 -1       593-6.30501E+04-1.23539E+04-4.33255E+03-2.82983E+04 1.21770E-09 3.09228E-11
 -1       594-6.17330E+04-1.41932E+04-2.16079E+03-3.03430E+04-2.51657E-09-8.89457E-09
 -1       595-6.31968E+04-1.23492E+04-9.92179E+02-2.83623E+04-4.35767E-09 2.00813E-08
 -1       596-6.15513E+04-1.40643E+04-5.04473E+02-3.03217E+04 3.83807E-09 2.57062E-08
 -1       597-6.32152E+04-1.23622E+04-2.74887E+02-2.83647E+04 8.00242E-10 6.39574E-09
 -1       598-6.15335E+04-1.40593E+04-2.21323E+02-3.03158E+04 4.46835E-09-9.96630E-09
 -1       599-6.32141E+04-1.23626E+04-2.83136E+02-2.83644E+04 5.37125E-09 1.46633E-09
 -1       600-6.15516E+04-1.40651E+04-5.26322E+02-3.03202E+04 4.14957E-09-1.13779E-08
 -1       601-6.31927E+04-1.23500E+04-1.03848E+03-2.83613E+04 1.41836E-09-1.06771E-08
 -1       602-6.17417E+04-1.41991E+04-2.26337E+03-3.03393E+04-5.80576E-09-6.05337E-09
 -1       603-6.30367E+04-1.23575E+04-4.53902E+03-2.82949E+04-1.19917E-09 5.37102E-09
 -1       604-6.45396E+04-1.71326E+04-1.09037E+04-3.02086E+04 5.90830E-09 1.29903E-08
 -1       605-6.10045E+04-1.38351E+04-2.01298E+04-2.68371E+04 3.76357E-09 1.59462E-08
 -1       606 2.60066E+04-1.25501E+04-2.25195E+04 2.40302E+04 3.42789E-09-1.90630E-09
 -1       607 2.21569E+04-4.08824E+03-1.12143E+04 2.69936E+04 1.99088E-09 7.39328E-09
 -1       608 2.43491E+04-7.27432E+02-5.02062E+03 2.38523E+04-2.41016E-09 1.17361E-08
 -1       609 2.39255E+04-2.37304E+02-2.53617E+03 2.72068E+04-3.04408E-09 1.13196E-08
 -1       610 2.41589E+04-2.14167E+01-1.21030E+03 2.38317E+04-1.04737E-08 1.02184E-08
 -1       611 2.40894E+04-1.81217E+01-6.10229E+02 2.72300E+04-1.65796E-08 7.84530E-09
 -1       612 2.41150E+04-7.79800E+00-2.90396E+02 2.38296E+04-7.90988E-09 6.57064E-09
 -1       613 2.40969E+04-1.30495E+01-1.30393E+02 2.72327E+04 6.12090E-10 1.37020E-08
 -1       614 2.40935E+04-1.21149E+01-3.13465E+01 2.38289E+04-1.02864E-08 1.11506E-08
 -1       615 2.40902E+04-1.05846E+01 5.28822E+01 2.72331E+04-2.03399E-08 5.18912E-09
 -1       616 2.40768E+04-8.42386E+00 1.60189E+02 2.38291E+04-1.06356E-08-5.18344E-09
 -1       617 2.41079E+04 2.45224E+01 3.66164E+02 2.72327E+04-2.12754E-09-1.06563E-08
 -1       618 2.40438E+04 9.78793E+01 7.38281E+02 2.38294E+04-3.10592E-09 8.09428E-09
 -1       619 2.43675E+04 5.95977E+02 1.65804E+03 2.72320E+04-2.99735E-09-1.30785E-09
 -1       620 2.37980E+04 1.84911E+03 3.33264E+03 2.38298E+04 1.36151E-09-1.52704E-09
 -1       621 3.81348E+02 2.64296E+05 3.14773E+03 3.03668E+04 6.17547E-10 4.21096E-10
 -1       622 4.92221E+02 2.65041E+05 2.85807E+03 4.41188E+04 6.68024E-10-1.02518E-08
 -1       623 7.74214E+01 2.64460E+05 3.52063E+03 3.02267E+04 9.24501E-10 1.12168E-08
 -1       624 1.75634E+03 2.66139E+05 6.89412E+03 4.42584E+04 1.02281E-09 2.82148E-09
 -1       625 1.73766E+03 2.63096E+05 1.20808E+04 3.02237E+04 7.12134E-10 4.76507E-09
 -1       626 2.31527E+05 5.65285E+04 4.76592E+03 1.14973E+05 7.65613E-09-1.19308E-08
 -1       627 2.29276E+05 5.79230E+04 2.29659E+03 1.19052E+05 1.87974E-08 4.48767E-09
 -1       628 2.31654E+05 5.43385E+04 9.71036E+02 1.15771E+05 5.46515E-09 1.37077E-08
 -1       629 2.28672E+05 5.73022E+04 4.75250E+02 1.19287E+05-6.53063E-09 1.58471E-08
 -1       630 2.31667E+05 5.42331E+04 2.20191E+02 1.15803E+05-1.97360E-10-9.07050E-10
 -1       631 2.28606E+05 5.72799E+04 1.18097E+02 1.19289E+05-4.98403E-10-7.69290E-09
 -1       632 2.31662E+05 5.42377E+04 7.70459E+01 1.15798E+05-1.97997E-09 1.54844E-08
 -1       633 2.28597E+05 5.72826E+04 8.47808E+01 1.19284E+05-2.29212E-08 1.33218E-09
 -1       634 2.31656E+05 5.42361E+04 1.36096E+02 1.15797E+05-1.92654E-08-6.62635E-09
 -1       635 2.28608E+05 5.72818E+04 2.74846E+02 1.19288E+05-1.50867E-08 2.31150E-08
 -1       636 2.31646E+05 5.42319E+04 5.54784E+02 1.15795E+05-9.01309E-09-2.49611E-09
 -1       637 2.28726E+05 5.73685E+04 1.21953E+03 1.19286E+05-2.57717E-09-2.37437E-08
 -1       638 2.31602E+05 5.45018E+04 2.50576E+03 1.15673E+05 3.07909E-09 1.56842E-09
 -1       639 2.30042E+05 5.91989E+04 5.92848E+03 1.18897E+05 1.22532E-09 1.17727E-08
 -1       640 2.31422E+05 5.99659E+04 1.23027E+04 1.13366E+05 8.94943E-10 4.51314E-09
 -1       656 5.96408E+04-1.52317E+06-1.43976E+05-1.68706E+03-1.81899E-10-9.24501E-10
 -1       657-7.88849E+04-1.58821E+06-1.19241E+05 5.97009E+03 1.13687E-10-1.15411E-09
 -1       658 1.89972E+04-1.54165E+06-7.33975E+04-3.41077E+03 4.22006E-10-8.07534E-09
 -1       659-8.51872E+04-1.59120E+06-1.27522E+05 7.33756E+03-1.05865E-09-6.28155E-09
 -1       660 6.59287E+04-1.52018E+06-1.58215E+05-3.05451E+03-9.89530E-10 1.45000E-08
 -1       661 1.55671E+05 1.64724E+04 1.60253E+04 6.08644E+04 2.26055E-09-6.22549E-09
 -1       662 1.64568E+05 2.84996E+04 1.07995E+04 5.74545E+04 2.13186E-09 4.96664E-09
 -1       663 1.58817E+05 2.16150E+04 3.77721E+03 5.99527E+04 3.57659E-10 5.82122E-09
 -1       664 1.60923E+05 2.24840E+04 2.25921E+03 5.85666E+04-2.17983E-09-2.24280E-08
 -1       665 1.59292E+05 2.23190E+04 8.91268E+02 5.98155E+04 5.19202E-09-1.13888E-08
 -1       666 1.60361E+05 2.16776E+04 5.21221E+02 5.87446E+04 1.85402E-09-4.75695E-09
 -1       667 1.59375E+05 2.24004E+04 2.76551E+02 5.97823E+04 1.11478E-09-2.25831E-09
 -1       668 1.60272E+05 2.16174E+04 2.81010E+02 5.87926E+04-5.68798E-09-1.01081E-08
 -1       669 1.59381E+05 2.23775E+04 3.79863E+02 5.97679E+04-6.13130E-09 1.34893E-08
 -1       670 1.60365E+05 2.18219E+04 8.26562E+02 5.87939E+04-6.06071E-09-9.83130E-09
 -1       671 1.59281E+05 2.22001E+04 1.46745E+03 5.97792E+04-1.44021E-09-8.52413E-09
 -1       672 1.61221E+05 2.32488E+04 3.75428E+03 5.85860E+04 6.41614E-09 1.64590E-09
 -1       673 1.58530E+05 2.09867E+04 6.29152E+03 5.99620E+04-9.76570E-11 6.42194E-09
 -1       674 1.67211E+05 3.33554E+04 1.79925E+04 5.68252E+04-1.78488E-10-1.62026E-09
 -1       675 1.53330E+05 1.23764E+04 2.67069E+04 6.14337E+04-1.91221E-09 6.18820E-09
 -1       676 2.20842E+01-2.70178E+05-1.02392E+03-7.27015E+01 1.15534E-10 2.20116E-09
 -1       677-2.71575E+02-2.70425E+05-1.87392E+03 1.45302E+02 5.38091E-09 7.14168E-10
 -1       678 1.81566E+02-2.70002E+05-3.31262E+03-7.25518E+01 4.77030E-10-1.14745E-08
 -1       679-3.31329E+03-2.72425E+05-7.86930E+03 1.44725E+02 4.46039E-09-1.25834E-08
 -1       680 1.97766E+03-2.68179E+05-1.26826E+04-7.13164E+01 7.34872E-10 1.50829E-09
 -1       771-2.80902E+06-6.64953E+05-1.53541E+05-1.33028E+06-2.84635E-08-2.15950E-08
 -1       772-2.74653E+06-7.46156E+05-7.98942E+04-1.42347E+06-2.14641E-08 1.16925E-08
 -1       773-2.83630E+06-6.43758E+05-3.92160E+04-1.34288E+06-1.06229E-08 8.38190E-09
 -1       774-2.73514E+06-7.28379E+05-1.78241E+04-1.44373E+06 2.53785E-08-7.95990E-09
 -1       775-2.84913E+06-6.34835E+05-1.23378E+04-1.34812E+06-9.40054E-09-3.88536E-09
 -1       776-2.74406E+06-7.26018E+05-4.78065E+03-1.45854E+06-9.66247E-09 9.48785E-09
 -1       777-2.86000E+06-6.27010E+05-5.10335E+03-1.35265E+06 2.82307E-09 4.63479E-09
 -1       778-2.75352E+06-7.24035E+05-1.50594E+03-1.47120E+06 7.85803E-09 9.52423E-09
 -1       779-2.86923E+06-6.20227E+05-2.44541E+03-1.35650E+06-6.00994E-09-6.14818E-09
 -1       780-2.76180E+06-7.22186E+05-4.24949E+02-1.48149E+06-3.31784E-09 3.18323E-10
 -1       781-2.87651E+06-6.14790E+05-9.29654E+02-1.35950E+06-2.44327E-08 9.00400E-10
 -1       782-2.76813E+06-7.20626E+05 3.30652E+02-1.48905E+06-3.09956E-08-7.31006E-09
 -1       783-2.88162E+06-6.11037E+05 5.25397E+02-1.36160E+06-9.75706E-09-1.30790E-08
 -1       784-2.77161E+06-7.19020E+05 2.16213E+03-1.49371E+06-1.85319E-08-4.80213E-10
 -1       785-2.88462E+06-6.08810E+05 3.81884E+03-1.36294E+06-3.44116E-08 6.73026E-09
 -1       786 1.16037E+05-9.03660E+03 2.09061E+04-2.24674E+02 2.21919E-09 1.21900E-08
 -1       787 1.25104E+05 1.04619E+04 1.47904E+04-5.66705E+01 6.52553E-09-8.56335E-09
 -1       788 1.19533E+05-1.41629E+03 5.40902E+03-1.95168E+02 4.11939E-09 4.00109E-09
 -1       789 1.21031E+05 1.63885E+03 3.39585E+03-1.02954E+02-1.20093E-09 1.12395E-08
 -1       790 1.20110E+05-2.20748E+02 1.37545E+03-1.78402E+02-2.88039E-09 1.25556E-09
 -1       791 1.20356E+05 2.55064E+02 7.95497E+02-1.31870E+02-4.07390E-09 3.43434E-09
 -1       792 1.20208E+05-3.35372E+01 3.39211E+02-1.66253E+02-2.37771E-09 1.64388E-09
 -1       793 1.20240E+05 3.60098E+01 1.73757E+02-1.54625E+02 1.71514E-09 1.40179E-09
 -1       794 1.20226E+05-1.83191E+00 5.44935E+01-1.55646E+02 2.75967E-09 1.75132E-08
 -1       795 1.20209E+05-1.76705E+01-2.84212E+01-1.76457E+02-3.29062E-09-4.89198E-10
 -1       796 1.20238E+05 2.01139E+01-1.07438E+02-1.44421E+02 2.39367E-09-3.67942E-09
 -1       797 1.20143E+05-1.52420E+02-3.06973E+02-2.01761E+02 2.90111E-09-9.59594E-09
 -1       798 1.20293E+05 1.32816E+02-5.01831E+02-1.30342E+02 8.24084E-10 4.14946E-09
 -1       799 1.19761E+05-9.80121E+02-1.38356E+03-2.35815E+02 3.54336E-09 6.34981E-09
 -1       800 1.20620E+05 8.47138E+02-1.95876E+03-1.10367E+02 7.48237E-11 1.28646E-08
 -1       801-4.61132E+04-7.56284E+06-9.86530E+05 8.60132E+05 7.33999E-08-4.45471E-08
 -1       802 3.73437E+05 2.19977E+06 1.23720E+06-1.01066E+06 2.06281E-07-2.29243E-08
 -1       803-3.16470E+05-9.98756E+06-1.16530E+06 5.50614E+05 6.45377E-08 1.86683E-08
 -1       804 1.40563E+05-1.03345E+05 8.69325E+05 4.87375E+05-8.85047E-08-6.68092E-08
 -1       805 1.39983E+05-5.27418E+06-1.87870E+05-6.34543E+05-3.68673E-08-4.86489E-08
 -1       806-2.77204E+05-5.27673E+04-2.02474E+04-1.08852E+05-2.31694E-09-8.51742E-10
 -1       807-2.78925E+05-4.93339E+04-9.94731E+03-1.13613E+05 9.30413E-09-6.00039E-10
 -1       808-2.77751E+05-4.54798E+04-4.22006E+03-1.12313E+05-5.93445E-09-1.05654E-08
 -1       809-2.76840E+05-4.65330E+04-2.06355E+03-1.13851E+05-1.24853E-08-1.17334E-08
 -1       810-2.77835E+05-4.52260E+04-9.45821E+02-1.12467E+05 2.68255E-09 4.83146E-09
 -1       811-2.76680E+05-4.64198E+04-4.70384E+02-1.13820E+05 9.77184E-09 2.17024E-08
 -1       812-2.77848E+05-4.52474E+04-2.37894E+02-1.12467E+05-4.27463E-09-9.21773E-09
 -1       813-2.76658E+05-4.64213E+04-1.54682E+02-1.13805E+05-5.16138E-09-2.55045E-09
 -1       814-2.77843E+05-4.52552E+04-1.53292E+02-1.12464E+05 2.30102E-09 1.51572E-08
 -1       815-2.76663E+05-4.64228E+04-2.47234E+02-1.13799E+05-6.41467E-09 1.12232E-08
 -1       816-2.77826E+05-4.52534E+04-4.68507E+02-1.12461E+05 3.87354E-09 1.36542E-08
 -1       817-2.76744E+05-4.64672E+04-1.00588E+03-1.13791E+05-4.21414E-09 8.99149E-09
 -1       818-2.77767E+05-4.53941E+04-2.05146E+03-1.12395E+05 7.41238E-10 1.54996E-08
 -1       819-2.77867E+05-4.77081E+04-4.82753E+03-1.13529E+05 3.29874E-09-1.18050E-08
 -1       820-2.77386E+05-4.90366E+04-9.82548E+03-1.10834E+05-3.50792E-09-2.69665E-10
 -1       821-3.41297E+05 1.88143E+04-4.35314E+04 9.56325E+02 7.55681E-09-5.17684E-09
 -1       822-3.60088E+05-2.17808E+04-3.07921E+04-1.62600E+03 7.10330E-10 5.70390E-09
 -1       823-3.48530E+05 2.95092E+03-1.12712E+04 1.16942E+03-4.26548E-09 2.44881E-09
 -1       824-3.51599E+05-3.41265E+03-7.08636E+03-1.54925E+03 2.03286E-10-1.48329E-08
 -1       825-3.49782E+05 4.59893E+02-2.92389E+03 8.79597E+02 7.34286E-09 1.07661E-08
 -1       826-3.50092E+05-5.39430E+02-1.73386E+03-6.11464E+02 7.47402E-09 2.26112E-09
 -1       827-3.50033E+05 7.74549E+01-9.32411E+02 2.31609E+02 2.98446E-09-6.79128E-09
 -1       828-3.49882E+05-1.62895E+02-7.79560E+02 7.17175E+02-1.44463E-09 4.21933E-09
 -1       829-3.49992E+05 8.33123E+01-9.45878E+02-4.49063E+02 1.48546E-10-5.05796E-09
 -1       830-3.50193E+05-5.66800E+02-1.81558E+03 1.76742E+03 2.35254E-10 1.05570E-09
 -1       831-3.49725E+05 4.83335E+02-3.02689E+03-8.18650E+02-1.79744E-09 8.42306E-10
 -1       832-3.51685E+05-3.55371E+03-7.37345E+03 2.00869E+03-1.75553E-09 1.61464E-08
 -1       833-3.48503E+05 3.06890E+03-1.17284E+04-6.90338E+02-2.09177E-09 5.85078E-09
 -1       834-3.60405E+05-2.26525E+04-3.20092E+04 1.30668E+03-2.50077E-09-1.33596E-08
 -1       835-3.41005E+05 1.95655E+04-4.52888E+04-1.16627E+02 4.41491E-09-1.38534E-08
 -1       836-1.22084E+03 3.26125E+05 2.00659E+04-1.51026E+04-4.49836E-09 6.95354E-09
 -1       837 4.31059E+03 3.32394E+05 1.70493E+04-3.06507E+04-4.62512E-09-8.55039E-09
 -1       838-4.78417E+02 3.27875E+05 1.74698E+04-1.50369E+04-3.78304E-09-2.23804E-09
 -1       839 1.10658E+04 3.37429E+05 3.31446E+04-3.06977E+04-3.73075E-09 1.33468E-09
 -1       840-3.39872E+03 3.21042E+05 5.28957E+04-1.50584E+04-3.78714E-09 2.40007E-10
 -1       856-5.79374E+04 7.58297E+03-1.99828E+04-3.88161E+02 2.73826E-09-1.19971E-08
 -1       857-6.61775E+04-8.90434E+03-1.37565E+04 5.14024E+03 3.37317E-09 8.15453E-09
 -1       858-6.11980E+04 1.06315E+03-5.18528E+03-4.09977E+02 1.01227E-09-2.91448E-09
 -1       859-6.24348E+04-1.24577E+03-3.12973E+03 5.17333E+03-1.72304E-09 1.14749E-08
 -1       860-6.16852E+04 1.48569E+02-1.31261E+03-4.21125E+02 4.07539E-10 8.60427E-09
 -1       861-6.18740E+04-1.72766E+02-7.24148E+02 5.18855E+03 4.67224E-10 1.01737E-08
 -1       862-6.17614E+04 1.99325E+01-3.05110E+02-4.25188E+02 2.04500E-09-2.56236E-09
 -1       863-6.17813E+04-1.69559E+01-1.20432E+02 5.19078E+03-1.77194E-09-3.06252E-09
 -1       864-6.17783E+04-3.74014E+00 2.37023E+01-4.23354E+02 5.34754E-10-2.16998E-08
 -1       865-6.17346E+04 5.07243E+01 1.94649E+02 5.18066E+03 8.05230E-10-2.04147E-08
 -1       866-6.18063E+04-4.78222E+01 4.03061E+02-4.15073E+02-4.11319E-10-3.39989E-09
 -1       867-6.15424E+04 3.96392E+02 9.98904E+02 5.15814E+03-9.31635E-10-4.51286E-09
 -1       868-6.19662E+04-3.43372E+02 1.66166E+03-4.00827E+02-7.95637E-10-1.05092E-09
 -1       869-6.03226E+04 2.85830E+03 4.42676E+03 5.12059E+03-1.18916E-10-1.58602E-08
 -1       870-6.30195E+04-2.44316E+03 6.42411E+03-3.77483E+02-1.96997E-09-1.06729E-09
 -1       871-5.01878E+03-1.68746E+04-1.72582E+04 1.15311E+05-2.71029E-09-2.15005E-09
 -1       872-1.92842E+03-2.08414E+04-7.18387E+03 1.49512E+05-5.73982E-09 4.53383E-10
 -1       873 2.28798E+02-1.89412E+04 6.30441E+02 1.15058E+05-2.80397E-09 1.21594E-08
 -1       874 2.81692E+03-1.67127E+04 8.91290E+03 1.49544E+05-7.21866E-09 1.32347E-08
 -1       875 6.07653E+03-2.10662E+04 2.00237E+04 1.15270E+05-3.23053E-09-8.45375E-09
 -1       876 2.64723E+05 4.48296E+04 1.36927E+04 1.06487E+05-2.18563E-09-1.57424E-08
 -1       877 2.65608E+05 4.77336E+04 7.31235E+03 1.10432E+05 4.21937E-09 2.50884E-09
 -1       878 2.66003E+05 4.33134E+04 3.06354E+03 1.07610E+05 9.04038E-10-8.90168E-10
 -1       879 2.63746E+05 4.58766E+04 1.52637E+03 1.10526E+05 3.87990E-09 3.89628E-09
 -1       880 2.66095E+05 4.32973E+04 7.10938E+02 1.07655E+05-2.58410E-09 5.20765E-09
 -1       881 2.63623E+05 4.57973E+04 3.79511E+02 1.10505E+05-1.64924E-08-2.69776E-09
 -1       882 2.66104E+05 4.33091E+04 2.42581E+02 1.07657E+05-5.44696E-09-7.79510E-09
 -1       883 2.63614E+05 4.57933E+04 2.60427E+02 1.10499E+05 2.07706E-09-2.81773E-09
 -1       884 2.66098E+05 4.33064E+04 4.13969E+02 1.07657E+05-1.37948E-09-9.41480E-09
 -1       885 2.63647E+05 4.57991E+04 8.32116E+02 1.10509E+05-1.61475E-09 1.36581E-08
 -1       886 2.66066E+05 4.32821E+04 1.67702E+03 1.07654E+05-3.50784E-09-4.56816E-09
 -1       887 2.63942E+05 4.59923E+04 3.66321E+03 1.10551E+05 6.33079E-09-1.41587E-08
 -1       888 2.65834E+05 4.33229E+04 7.38150E+03 1.07536E+05 1.51519E-09-2.63740E-08
 -1       889 2.68337E+05 5.05618E+04 1.76333E+04 1.10416E+05 4.11650E-09 8.99308E-09
 -1       890 2.62824E+05 4.68994E+04 3.30265E+04 1.04725E+05-1.64164E-09 1.07084E-08
 -1       891-1.05340E+02-1.47418E+05-1.79698E+03 2.53115E+04-1.11845E-09 6.65068E-09
 -1       892-1.95755E+02-1.47880E+05-1.93352E+03 3.83923E+04 7.37600E-10-1.27470E-08
 -1       893 1.48023E+01-1.47476E+05-2.74116E+03 2.53177E+04-9.18590E-10 8.01401E-09
 -1       894-1.40143E+03-1.48919E+05-5.67596E+03 3.82520E+04 1.97269E-09 4.90218E-09
 -1       895-1.10718E+03-1.46295E+05-9.99605E+03 2.54523E+04-2.10321E-10-9.46056E-09
 -1       956-3.38598E+05-4.82806E+03-1.20032E+04 2.61609E+04 4.82942E-09 5.29781E-10
 -1       957-3.40958E+05-1.67638E+03-6.16143E+03 3.14635E+04 1.40972E-10-7.09656E-09
 -1       958-3.39672E+05-1.83191E+02-2.77627E+03 2.60140E+04-6.46833E-09-3.03021E-09
 -1       959-3.39852E+05-8.52919E+01-1.41782E+03 3.16309E+04-5.00222E-12 4.63319E-09
 -1       960-3.39773E+05-1.07618E+01-6.91354E+02 2.59993E+04 5.37057E-09 2.37605E-10
 -1       961-3.39776E+05-2.22111E+01-3.66774E+02 3.16481E+04 9.69430E-09-1.76647E-08
 -1       962-3.39795E+05-1.33488E+01-2.10179E+02 2.59969E+04 5.12250E-09-1.77420E-09
 -1       963-3.39775E+05-1.94435E+01-1.69127E+02 3.16511E+04 1.01944E-08 6.72117E-09
 -1       964-3.39800E+05-1.07255E+01-2.06030E+02 2.59963E+04 3.47981E-09 9.69681E-09
 -1       965-3.39786E+05-1.66234E+01-3.56644E+02 3.16505E+04-3.76662E-09-5.09090E-09
 -1       966-3.39786E+05-2.96155E+00-6.70132E+02 2.59975E+04-1.39539E-09-1.46072E-08
 -1       967-3.39869E+05-7.23876E+01-1.37455E+03 3.16387E+04-7.91374E-09 2.92425E-09
 -1       968-3.39696E+05-1.65037E+02-2.69061E+03 2.60081E+04-3.56067E-09 1.08507E-08
 -1       969-3.40951E+05-1.61041E+03-5.97340E+03 3.15141E+04 8.75389E-10 9.47978E-09
 -1       970-3.38661E+05-4.66496E+03-1.16360E+04 2.61177E+04-1.15551E-09 4.19095E-09
 -1       971-3.12207E+05-1.57738E+03-8.58438E+03 1.41430E+04 5.57520E-10-1.17650E-08
 -1       972-3.14280E+05-1.15202E+03-4.67503E+03 1.96234E+04 7.32598E-10-1.57142E-08
 -1       973-3.13162E+05-4.23720E+01-2.09379E+03 1.40295E+04 2.72166E-09-9.53742E-09
 -1       974-3.13293E+05-5.45970E+01-1.08521E+03 1.97498E+04-1.81399E-09 5.46390E-09
 -1       975-3.13237E+05-1.54724E+00-5.42447E+02 1.40184E+04-2.01044E-09-9.06789E-09
 -1       976-3.13235E+05-9.10955E+00-3.13007E+02 1.97638E+04-5.52745E-10-5.59805E-09
 -1       977-3.13252E+05-1.25479E+00-2.27227E+02 1.40155E+04-1.03228E-09 5.79826E-09
 -1       978-3.13240E+05-3.68104E+00-2.65999E+02 1.97679E+04 2.09150E-09-6.68308E-09
 -1       979-3.13252E+05 6.24211E+00-4.27434E+02 1.40143E+04-1.68495E-09-5.89296E-09
 -1       980-3.13272E+05-9.74316E-01-8.25358E+02 1.97687E+04-4.30177E-10 4.14366E-09
 -1       981-3.13225E+05 2.68711E+01-1.59853E+03 1.40148E+04 7.16466E-09 3.29965E-09
 -1       982-3.13491E+05-1.18986E+02-3.30411E+03 1.97627E+04 7.61747E-09 6.50335E-10
 -1       983-3.13024E+05-7.53315E+01-6.41988E+03 1.40204E+04 7.74207E-09-5.78211E-09
 -1       984-3.16579E+05-3.47162E+03-1.43769E+04 1.96836E+04 1.53741E-08 7.42421E-09
 -1       985-3.10118E+05-4.77286E+03-2.64005E+04 1.40906E+04 6.76846E-09-2.97405E-09
 -3
    1PSTEP                        35          18           1          
  100CL  118 6.08389E-01         409                     0   18           1
 -4  DISP        4    1
 -5  D1          1    2    1    0
 -5  D2          1    2    2    0
 -5  D3          1    2    3    0
 -5  ALL         1    2    0    0    1ALL
 -1         1 3.03757E-03 0.00000E+00 0.00000E+00
 -1         2 3.03640E-03-3.35815E-27 0.00000E+00
 -1         3 2.85080E-04-1.12334E-27 0.00000E+00
 -1         5 1.55008E-04-6.73924E-27 2.48154E-24
 -1         8 3.02091E-03-5.00008E-07 0.00000E+00
 -1         9 2.98264E-03-8.16265E-06 0.00000E+00
 -1        10 2.59332E-04-2.90704E-06 6.61744E-24
 -1        12 1.56173E-04 7.18112E-07 0.00000E+00
 -1        15 3.00067E-03-5.47576E-07-2.06795E-25
 -1        16 3.00938E-03-9.56706E-06 0.00000E+00
 -1        17 1.78777E-04-6.48939E-06 0.00000E+00
 -1        18 1.58236E-04 2.46149E-05 0.00000E+00
 -1        19 1.59669E-04 1.43165E-06 0.00000E+00
 -1        20 1.59809E-04-2.78253E-06 0.00000E+00
 -1        21 1.59035E-04-1.01707E-05 3.30872E-24
 -1        24 2.72613E-05-9.59716E-06 0.00000E+00
 -1        25 1.65578E-04 2.48074E-05 0.00000E+00
 -1        26 1.66231E-04 1.98311E-06 0.00000E+00
 -1        27 1.64276E-04-5.98150E-06 0.00000E+00
 -1        28 1.63936E-04-1.07387E-05 0.00000E+00
 -1        32 0.00000E+00 0.00000E+00 0.00000E+00
 -1        33 1.71805E-04 2.65513E-06 0.00000E+00
 -1        34 1.69897E-04-6.02478E-06 0.00000E+00
 -1        35 1.68144E-04-1.10482E-05 0.00000E+00
 -1        51 3.03650E-03-9.45149E-08 6.61744E-24
 -1        52 3.03451E-03-1.75132E-07 0.00000E+00
 -1        53 3.03178E-03-2.53883E-07 0.00000E+00
 -1        54 3.02847E-03-3.32803E-07 0.00000E+00
 -1        55 3.02479E-03-4.13372E-07 0.00000E+00
 -1        56 3.03407E-03 4.97276E-08 5.29396E-23
 -1        57 3.02958E-03 2.36316E-06 5.29396E-23
 -1        58 3.02438E-03 6.57049E-06 0.00000E+00
 -1        59 3.01865E-03 1.21051E-05 0.00000E+00
 -1        60 3.01270E-03 1.82226E-05 0.00000E+00
 -1        61 3.00682E-03 2.41273E-05 0.00000E+00
 -1        62 3.00132E-03 2.90568E-05 1.05879E-22
 -1        63 2.99645E-03 3.23183E-05 0.00000E+00
 -1        64 2.99239E-03 3.34657E-05-1.05879E-22
 -1        65 2.98922E-03 3.22081E-05 5.29396E-23
 -1        66 2.98694E-03 2.86103E-05-1.05879E-22
 -1        67 2.98543E-03 2.29111E-05 0.00000E+00
 -1        68 2.98450E-03 1.56598E-05 0.00000E+00
 -1        69 2.98392E-03 7.52843E-06 5.29396E-23
 -1        70 2.98336E-03-6.93980E-07 0.00000E+00
 -1        86 3.03221E-03-1.32153E-06 0.00000E+00
 -1        87 3.01986E-03-2.70714E-06 0.00000E+00
 -1        88 3.00414E-03-4.13489E-06-2.64698E-23
 -1        89 2.99003E-03-5.53463E-06-1.32349E-23
 -1        90 2.98161E-03-6.87854E-06 0.00000E+00
 -1       121 2.84358E-04-4.72947E-07 1.32349E-23
 -1       122 2.82194E-04-9.47896E-07-6.61744E-24
 -1       123 2.78597E-04-1.42682E-06 1.32349E-23
 -1       124 2.73575E-04-1.91172E-06 6.61744E-24
 -1       125 2.67147E-04-2.40430E-06-1.32349E-23
 -1       191 1.55040E-04 1.19713E-07-2.48154E-24
 -1       192 1.55137E-04 2.39421E-07 0.00000E+00
 -1       193 1.55299E-04 3.59121E-07 8.27181E-25
 -1       194 1.55525E-04 4.78807E-07 8.27181E-25
 -1       195 1.55817E-04 5.98473E-07-8.27181E-25
 -1       251 3.02014E-03 1.85698E-05-1.32349E-23
 -1       252 3.01834E-03 6.85944E-05-6.61744E-24
 -1       253 3.01529E-03 1.40543E-04 0.00000E+00
 -1       254 3.01130E-03 2.24875E-04 0.00000E+00
 -1       255 3.00736E-03 3.08646E-04 1.32349E-23
 -1       256 3.00442E-03 3.78922E-04-6.61744E-24
 -1       257 3.00273E-03 4.26478E-04 1.32349E-23
 -1       258 3.00200E-03 4.42614E-04 6.61744E-24
 -1       259 3.00128E-03 4.26835E-04 0.00000E+00
 -1       260 2.99959E-03 3.79438E-04 0.00000E+00
 -1       261 2.99664E-03 3.08971E-04 0.00000E+00
 -1       262 2.99264E-03 2.24513E-04 6.61744E-24
 -1       263 2.98856E-03 1.38986E-04 0.00000E+00
 -1       264 2.98538E-03 6.53372E-05 0.00000E+00
 -1       265 2.98348E-03 1.32284E-05 0.00000E+00
 -1       266 3.01753E-03-5.15336E-07 0.00000E+00
 -1       267 3.01416E-03-5.22362E-07-8.27181E-25
 -1       268 3.01079E-03-5.29914E-07 8.27181E-25
 -1       269 3.00742E-03-5.35908E-07 2.06795E-25
 -1       270 3.00405E-03-5.41866E-07 0.00000E+00
 -1       271 3.01878E-03 2.77210E-06 0.00000E+00
 -1       272 3.01653E-03 6.28607E-06 1.32349E-23
 -1       273 3.01425E-03 9.87788E-06-2.64698E-23
 -1       274 3.01201E-03 1.33705E-05 0.00000E+00
 -1       275 3.00987E-03 1.65912E-05 2.64698E-23
 -1       276 3.00789E-03 1.93686E-05-1.32349E-23
 -1       277 3.00615E-03 2.15361E-05 2.64698E-23
 -1       278 3.00470E-03 2.29333E-05-1.32349E-23
 -1       279 3.00359E-03 2.34077E-05 0.00000E+00
 -1       280 3.00288E-03 2.28162E-05-1.32349E-23
 -1       281 3.00262E-03 2.10270E-05 2.64698E-23
 -1       282 3.00286E-03 1.79203E-05 0.00000E+00
 -1       283 3.00362E-03 1.33901E-05 0.00000E+00
 -1       284 3.00494E-03 7.34601E-06 0.00000E+00
 -1       285 3.00685E-03-2.88694E-07 0.00000E+00
 -1       301 2.98677E-03-8.40893E-06-6.61744E-24
 -1       302 2.98996E-03-8.63166E-06 0.00000E+00
 -1       303 2.99300E-03-8.85233E-06 1.32349E-23
 -1       304 2.99671E-03-9.07518E-06 0.00000E+00
 -1       305 3.00190E-03-9.30698E-06 0.00000E+00
 -1       306 3.02131E-03-1.66847E-04-1.05879E-22
 -1       307 3.08415E-03-6.09015E-04 0.00000E+00
 -1       308 3.11984E-03-1.26516E-03 0.00000E+00
 -1       309 3.12150E-03-2.03457E-03 2.64698E-23
 -1       310 3.13176E-03-2.77651E-03 0.00000E+00
 -1       311 3.18317E-03-3.35222E-03 5.29396E-23
 -1       312 3.24422E-03-3.67414E-03-1.05879E-22
 -1       313 3.24587E-03-3.70181E-03-5.29396E-23
 -1       314 3.10132E-03-3.44703E-03 0.00000E+00
 -1       315 2.76064E-03-2.98288E-03 5.29396E-23
 -1       316 2.23861E-03-2.39316E-03 0.00000E+00
 -1       317 1.60498E-03-1.75164E-03-2.64698E-23
 -1       318 9.93437E-04-1.11991E-03 0.00000E+00
 -1       319 5.30914E-04-5.65133E-04 0.00000E+00
 -1       320 2.63561E-04-1.67318E-04 1.05879E-22
 -1       336 2.49975E-04-3.45988E-06-1.32349E-23
 -1       337 2.38926E-04-4.02968E-06 0.00000E+00
 -1       338 2.26227E-04-4.61785E-06-1.32349E-23
 -1       339 2.11930E-04-5.22439E-06 0.00000E+00
 -1       340 1.96092E-04-5.85337E-06-6.61744E-24
 -1       406 1.56594E-04 8.37713E-07-1.65436E-24
 -1       407 1.57079E-04 9.57247E-07-4.13590E-25
 -1       408 1.57630E-04 1.07668E-06-8.27181E-25
 -1       409 1.58245E-04 1.19585E-06 4.13590E-25
 -1       410 1.58925E-04 1.31454E-06-1.65436E-24
 -1       521 3.04809E-03-1.78947E-04 2.11758E-22
 -1       522 3.10816E-03-6.38127E-04 0.00000E+00
 -1       523 3.13785E-03-1.31350E-03 1.05879E-22
 -1       524 3.13374E-03-2.09609E-03 5.29396E-23
 -1       525 3.13918E-03-2.84919E-03 0.00000E+00
 -1       526 3.18686E-03-3.43853E-03 0.00000E+00
 -1       527 3.24616E-03-3.76785E-03 0.00000E+00
 -1       528 3.24492E-03-3.79457E-03 0.00000E+00
 -1       529 3.08978E-03-3.52912E-03 2.11758E-22
 -1       530 2.73062E-03-3.05259E-03 0.00000E+00
 -1       531 2.18428E-03-2.45162E-03 0.00000E+00
 -1       532 1.52849E-03-1.80253E-03 0.00000E+00
 -1       533 8.94544E-04-1.16265E-03 0.00000E+00
 -1       534 4.07110E-04-5.94472E-04 0.00000E+00
 -1       535 1.21584E-04-1.82085E-04 0.00000E+00
 -1       536 1.78224E-04 2.23012E-05 0.00000E+00
 -1       537 1.76861E-04 7.24980E-05 0.00000E+00
 -1       538 1.74770E-04 1.36309E-04-3.30872E-24
 -1       539 1.72309E-04 2.05868E-04 0.00000E+00
 -1       540 1.70091E-04 2.71594E-04-3.30872E-24
 -1       541 1.68636E-04 3.23928E-04 0.00000E+00
 -1       542 1.67945E-04 3.57141E-04 3.30872E-24
 -1       543 1.67751E-04 3.65624E-04 0.00000E+00
 -1       544 1.67479E-04 3.50072E-04 0.00000E+00
 -1       545 1.66602E-04 3.11355E-04 0.00000E+00
 -1       546 1.65013E-04 2.56367E-04-3.30872E-24
 -1       547 1.62891E-04 1.92106E-04 0.00000E+00
 -1       548 1.60796E-04 1.28284E-04 0.00000E+00
 -1       549 1.59277E-04 7.46112E-05 0.00000E+00
 -1       550 1.58471E-04 3.78395E-05 1.65436E-24
 -1       551 1.58195E-04-6.89777E-06 0.00000E+00
 -1       552 1.34778E-04-7.36634E-06 0.00000E+00
 -1       553 1.09243E-04-7.88287E-06 6.61744E-24
 -1       554 8.23243E-05-8.43535E-06-4.96308E-24
 -1       555 5.47535E-05-9.00638E-06 0.00000E+00
 -1       556 1.72591E-04 9.41748E-06 0.00000E+00
 -1       557 1.67623E-04 2.22227E-05 0.00000E+00
 -1       558 1.63762E-04 3.21759E-05 0.00000E+00
 -1       559 1.60897E-04 3.95446E-05 0.00000E+00
 -1       560 1.58919E-04 4.45965E-05 0.00000E+00
 -1       561 1.57719E-04 4.76011E-05 0.00000E+00
 -1       562 1.57190E-04 4.88291E-05-2.64698E-23
 -1       563 1.57228E-04 4.85515E-05 0.00000E+00
 -1       564 1.57728E-04 4.70400E-05 0.00000E+00
 -1       565 1.58588E-04 4.45670E-05 0.00000E+00
 -1       566 1.59704E-04 4.14050E-05-6.61744E-24
 -1       567 1.60975E-04 3.78269E-05 3.30872E-24
 -1       568 1.62299E-04 3.41056E-05 8.27181E-25
 -1       569 1.63575E-04 3.05141E-05 0.00000E+00
 -1       570 1.64701E-04 2.73251E-05 0.00000E+00
 -1       571 1.58323E-04 2.31114E-05 8.27181E-25
 -1       572 1.58412E-04 2.15518E-05-4.13590E-25
 -1       573 1.58501E-04 1.99489E-05-1.65436E-24
 -1       574 1.58590E-04 1.83165E-05-8.27181E-25
 -1       575 1.58680E-04 1.66683E-05-3.30872E-24
 -1       576 1.58770E-04 1.50181E-05 0.00000E+00
 -1       577 1.58859E-04 1.33795E-05 3.30872E-24
 -1       578 1.58949E-04 1.17665E-05 0.00000E+00
 -1       579 1.59039E-04 1.01928E-05 0.00000E+00
 -1       580 1.59129E-04 8.67217E-06 0.00000E+00
 -1       581 1.59219E-04 7.21844E-06 6.61744E-24
 -1       582 1.59309E-04 5.84535E-06 0.00000E+00
 -1       583 1.59399E-04 4.56667E-06 0.00000E+00
 -1       584 1.59489E-04 3.39603E-06 0.00000E+00
 -1       585 1.59579E-04 2.34690E-06 0.00000E+00
 -1       586 1.59413E-04 2.46489E-05-1.65436E-24
 -1       587 1.60556E-04 2.46823E-05-4.13590E-25
 -1       588 1.61705E-04 2.47154E-05-8.27181E-25
 -1       589 1.62899E-04 2.47479E-05 0.00000E+00
 -1       590 1.64178E-04 2.47793E-05 0.00000E+00
 -1       591 1.58744E-04 2.31876E-05 2.06795E-25
 -1       592 1.59256E-04 2.17395E-05-2.06795E-25
 -1       593 1.59774E-04 2.02764E-05 0.00000E+00
 -1       594 1.60295E-04 1.88026E-05-4.13590E-25
 -1       595 1.60819E-04 1.73230E-05 8.27181E-25
 -1       596 1.61342E-04 1.58422E-05 0.00000E+00
 -1       597 1.61865E-04 1.43647E-05 8.27181E-25
 -1       598 1.62384E-04 1.28953E-05 4.13590E-25
 -1       599 1.62899E-04 1.14385E-05 0.00000E+00
 -1       600 1.63407E-04 9.99889E-06 0.00000E+00
 -1       601 1.63907E-04 8.58116E-06-4.13590E-25
 -1       602 1.64397E-04 7.18988E-06 0.00000E+00
 -1       603 1.64876E-04 5.82969E-06 0.00000E+00
 -1       604 1.65342E-04 4.50529E-06-7.10858E-26
 -1       605 1.65793E-04 3.22122E-06 0.00000E+00
 -1       606 1.59682E-04 7.21245E-07 0.00000E+00
 -1       607 1.59692E-04 9.67287E-08 0.00000E+00
 -1       608 1.59701E-04-4.46939E-07 0.00000E+00
 -1       609 1.59709E-04-9.15442E-07 0.00000E+00
 -1       610 1.59718E-04-1.31452E-06 0.00000E+00
 -1       611 1.59726E-04-1.64995E-06 0.00000E+00
 -1       612 1.59734E-04-1.92756E-06 0.00000E+00
 -1       613 1.59743E-04-2.15315E-06 0.00000E+00
 -1       614 1.59751E-04-2.33253E-06 0.00000E+00
 -1       615 1.59760E-04-2.47151E-06 0.00000E+00
 -1       616 1.59768E-04-2.57591E-06 0.00000E+00
 -1       617 1.59776E-04-2.65153E-06 0.00000E+00
 -1       618 1.59785E-04-2.70419E-06 0.00000E+00
 -1       619 1.59793E-04-2.73971E-06 0.00000E+00
 -1       620 1.59801E-04-2.76389E-06 0.00000E+00
 -1       621 1.60543E-04 1.52394E-06-1.65436E-24
 -1       622 1.61539E-04 1.61648E-06-8.27181E-25
 -1       623 1.62631E-04 1.70890E-06-1.65436E-24
 -1       624 1.63794E-04 1.80109E-06-8.27181E-25
 -1       625 1.65002E-04 1.89305E-06 0.00000E+00
 -1       626 1.60037E-04 7.53569E-07 0.00000E+00
 -1       627 1.60381E-04 1.40832E-07-1.65436E-24
 -1       628 1.60703E-04-4.14122E-07 3.30872E-24
 -1       629 1.61007E-04-9.19196E-07 0.00000E+00
 -1       630 1.61295E-04-1.38232E-06 0.00000E+00
 -1       631 1.61571E-04-1.81143E-06 0.00000E+00
 -1       632 1.61836E-04-2.21448E-06 3.30872E-24
 -1       633 1.62095E-04-2.59944E-06 0.00000E+00
 -1       634 1.62351E-04-2.97423E-06 3.30872E-24
 -1       635 1.62605E-04-3.34681E-06 0.00000E+00
 -1       636 1.62861E-04-3.72514E-06 0.00000E+00
 -1       637 1.63123E-04-4.11717E-06-8.27181E-25
 -1       638 1.63393E-04-4.53084E-06 1.65436E-24
 -1       639 1.63673E-04-4.97412E-06 0.00000E+00
 -1       640 1.63967E-04-5.45499E-06 0.00000E+00
 -1       656 1.60048E-04-3.30264E-06 0.00000E+00
 -1       657 1.60682E-04-3.84378E-06 0.00000E+00
 -1       658 1.61576E-04-4.38355E-06 0.00000E+00
 -1       659 1.62587E-04-4.92297E-06 6.61744E-24
 -1       660 1.63544E-04-5.46402E-06 6.61744E-24
 -1       661 1.59900E-04-2.84060E-06 0.00000E+00
 -1       662 1.60023E-04-2.97912E-06-8.27181E-25
 -1       663 1.60176E-04-3.19386E-06 0.00000E+00
 -1       664 1.60355E-04-3.47937E-06 0.00000E+00
 -1       665 1.60559E-04-3.83080E-06 1.65436E-24
 -1       666 1.60786E-04-4.24322E-06 8.27181E-25
 -1       667 1.61034E-04-4.71195E-06 1.65436E-24
 -1       668 1.61302E-04-5.23235E-06-8.27181E-25
 -1       669 1.61587E-04-5.79993E-06-1.65436E-24
 -1       670 1.61888E-04-6.41030E-06 0.00000E+00
 -1       671 1.62204E-04-7.05917E-06 1.65436E-24
 -1       672 1.62532E-04-7.74236E-06-8.27181E-25
 -1       673 1.62871E-04-8.45572E-06 1.65436E-24
 -1       674 1.63220E-04-9.19545E-06 0.00000E+00
 -1       675 1.63577E-04-9.95716E-06 0.00000E+00
 -1       676 1.59854E-04-1.02660E-05 0.00000E+00
 -1       677 1.60673E-04-1.03611E-05 0.00000E+00
 -1       678 1.61491E-04-1.04563E-05 0.00000E+00
 -1       679 1.62308E-04-1.05511E-05 0.00000E+00
 -1       680 1.63123E-04-1.06459E-05 0.00000E+00
 -1       771 1.68143E-05 1.37312E-05 0.00000E+00
 -1       772 8.01770E-06 3.28600E-05 0.00000E+00
 -1       773 7.94190E-07 4.79992E-05 0.00000E+00
 -1       774-4.96458E-06 5.93808E-05 0.00000E+00
 -1       775-9.36446E-06 6.72450E-05-5.29396E-23
 -1       776-1.25156E-05 7.18457E-05 2.64698E-23
 -1       777-1.45279E-05 7.34443E-05 0.00000E+00
 -1       778-1.55136E-05 7.23138E-05 0.00000E+00
 -1       779-1.55844E-05 6.87336E-05 0.00000E+00
 -1       780-1.48538E-05 6.29922E-05 0.00000E+00
 -1       781-1.34346E-05 5.53836E-05 0.00000E+00
 -1       782-1.14409E-05 4.62088E-05 0.00000E+00
 -1       783-8.98625E-06 3.57723E-05 0.00000E+00
 -1       784-6.18511E-06 2.43838E-05 0.00000E+00
 -1       785-3.15129E-06 1.23551E-05 0.00000E+00
 -1       786 1.65615E-04 2.31608E-05 0.00000E+00
 -1       787 1.65656E-04 2.15626E-05 0.00000E+00
 -1       788 1.65696E-04 2.00050E-05 8.27181E-25
 -1       789 1.65736E-04 1.84803E-05 4.13590E-25
 -1       790 1.65777E-04 1.69839E-05 0.00000E+00
 -1       791 1.65818E-04 1.55112E-05 0.00000E+00
 -1       792 1.65859E-04 1.40601E-05 0.00000E+00
 -1       793 1.65900E-04 1.26284E-05 0.00000E+00
 -1       794 1.65941E-04 1.12155E-05-1.65436E-24
 -1       795 1.65983E-04 9.82131E-06-8.27181E-25
 -1       796 1.66024E-04 8.44720E-06 0.00000E+00
 -1       797 1.66065E-04 7.09465E-06 8.27181E-25
 -1       798 1.66106E-04 5.76725E-06 1.65436E-24
 -1       799 1.66148E-04 4.46861E-06 0.00000E+00
 -1       800 1.66189E-04 3.20509E-06 1.65436E-24
 -1       801 1.28823E-04 2.21380E-05 2.64698E-23
 -1       802 1.73452E-05 1.41290E-05 2.64698E-23
 -1       803-7.93076E-05 7.36968E-06 0.00000E+00
 -1       804-7.29930E-05 5.06179E-06 0.00000E+00
 -1       805-2.47995E-05 2.13584E-06 5.29396E-23
 -1       806 1.66092E-04 2.31003E-05-3.30872E-24
 -1       807 1.66592E-04 2.14204E-05-8.27181E-25
 -1       808 1.67080E-04 1.97721E-05 0.00000E+00
 -1       809 1.67554E-04 1.81585E-05-1.65436E-24
 -1       810 1.68014E-04 1.65829E-05 3.30872E-24
 -1       811 1.68459E-04 1.50484E-05 0.00000E+00
 -1       812 1.68887E-04 1.35583E-05-1.65436E-24
 -1       813 1.69297E-04 1.21156E-05-8.27181E-25
 -1       814 1.69689E-04 1.07235E-05 0.00000E+00
 -1       815 1.70060E-04 9.38502E-06 0.00000E+00
 -1       816 1.70410E-04 8.10335E-06 1.65436E-24
 -1       817 1.70738E-04 6.88157E-06 1.65436E-24
 -1       818 1.71042E-04 5.72278E-06-1.65436E-24
 -1       819 1.71322E-04 4.63008E-06 8.27181E-25
 -1       820 1.71576E-04 3.60652E-06 0.00000E+00
 -1       821 1.66115E-04 6.24422E-07 0.00000E+00
 -1       822 1.65992E-04-1.04674E-06-1.65436E-24
 -1       823 1.65869E-04-2.86551E-06 0.00000E+00
 -1       824 1.65744E-04-4.66618E-06-1.65436E-24
 -1       825 1.65620E-04-6.28774E-06 3.30872E-24
 -1       826 1.65496E-04-7.57012E-06 0.00000E+00
 -1       827 1.65373E-04-8.43781E-06 0.00000E+00
 -1       828 1.65250E-04-8.81763E-06 0.00000E+00
 -1       829 1.65127E-04-8.75803E-06 0.00000E+00
 -1       830 1.65003E-04-8.30984E-06 1.65436E-24
 -1       831 1.64880E-04-7.62080E-06 3.30872E-24
 -1       832 1.64757E-04-6.83998E-06 0.00000E+00
 -1       833 1.64634E-04-6.13935E-06 0.00000E+00
 -1       834 1.64513E-04-5.69043E-06 0.00000E+00
 -1       835 1.64391E-04-5.60217E-06 0.00000E+00
 -1       836 1.67349E-04 2.09469E-06 3.30872E-24
 -1       837 1.68352E-04 2.20898E-06 0.00000E+00
 -1       838 1.69270E-04 2.32317E-06 0.00000E+00
 -1       839 1.70132E-04 2.43670E-06 0.00000E+00
 -1       840 1.70967E-04 2.55006E-06 4.13590E-25
 -1       856 1.64258E-04-6.52861E-06 4.13590E-25
 -1       857 1.64237E-04-6.95121E-06 0.00000E+00
 -1       858 1.64217E-04-7.26869E-06-4.13590E-25
 -1       859 1.64195E-04-7.50052E-06 2.06795E-25
 -1       860 1.64174E-04-7.66625E-06 0.00000E+00
 -1       861 1.64153E-04-7.78548E-06-4.13590E-25
 -1       862 1.64131E-04-7.87786E-06 0.00000E+00
 -1       863 1.64110E-04-7.96303E-06 4.13590E-25
 -1       864 1.64088E-04-8.06066E-06 0.00000E+00
 -1       865 1.64067E-04-8.19040E-06 0.00000E+00
 -1       866 1.64045E-04-8.37189E-06 0.00000E+00
 -1       867 1.64024E-04-8.62471E-06 0.00000E+00
 -1       868 1.64002E-04-8.96839E-06 0.00000E+00
 -1       869 1.63980E-04-9.42239E-06 0.00000E+00
 -1       870 1.63959E-04-1.00061E-05 0.00000E+00
 -1       871 1.65082E-04-5.98478E-06-4.13590E-25
 -1       872 1.66021E-04-5.99105E-06 0.00000E+00
 -1       873 1.67033E-04-5.99791E-06 0.00000E+00
 -1       874 1.68057E-04-6.00543E-06 1.03398E-25
 -1       875 1.69032E-04-6.01350E-06 1.24077E-24
 -1       876 1.64597E-04-6.51565E-06 3.30872E-24
 -1       877 1.64898E-04-6.98875E-06 0.00000E+00
 -1       878 1.65178E-04-7.40810E-06 3.30872E-24
 -1       879 1.65442E-04-7.78048E-06 0.00000E+00
 -1       880 1.65690E-04-8.11269E-06-3.30872E-24
 -1       881 1.65926E-04-8.41150E-06 1.65436E-24
 -1       882 1.66152E-04-8.68365E-06 0.00000E+00
 -1       883 1.66371E-04-8.93588E-06 0.00000E+00
 -1       884 1.66585E-04-9.17494E-06 0.00000E+00
 -1       885 1.66796E-04-9.40756E-06 1.65436E-24
 -1       886 1.67007E-04-9.64048E-06 3.30872E-24
 -1       887 1.67221E-04-9.88043E-06 0.00000E+00
 -1       888 1.67440E-04-1.01342E-05 3.30872E-24
 -1       889 1.67666E-04-1.04086E-05 1.65436E-24
 -1       890 1.67901E-04-1.07105E-05 1.65436E-24
 -1       891 1.64769E-04-1.07906E-05 1.65436E-24
 -1       892 1.65580E-04-1.08427E-05-4.13590E-25
 -1       893 1.66347E-04-1.08947E-05 8.27181E-25
 -1       894 1.67045E-04-1.09465E-05-8.27181E-25
 -1       895 1.67652E-04-1.09982E-05-8.27181E-25
 -1       956 1.71688E-04 1.85609E-06-1.65436E-24
 -1       957 1.71568E-04 1.13659E-06-1.65436E-24
 -1       958 1.71449E-04 4.87356E-07 0.00000E+00
 -1       959 1.71329E-04-1.01362E-07 0.00000E+00
 -1       960 1.71210E-04-6.39364E-07 0.00000E+00
 -1       961 1.71090E-04-1.13648E-06 0.00000E+00
 -1       962 1.70970E-04-1.60255E-06-3.30872E-24
 -1       963 1.70851E-04-2.04743E-06-1.65436E-24
 -1       964 1.70731E-04-2.48097E-06 0.00000E+00
 -1       965 1.70612E-04-2.91301E-06-1.65436E-24
 -1       966 1.70492E-04-3.35342E-06 0.00000E+00
 -1       967 1.70372E-04-3.81204E-06 0.00000E+00
 -1       968 1.70253E-04-4.29871E-06 0.00000E+00
 -1       969 1.70133E-04-4.82326E-06 0.00000E+00
 -1       970 1.70014E-04-5.39548E-06-3.30872E-24
 -1       971 1.69788E-04-6.64862E-06-1.65436E-24
 -1       972 1.69678E-04-7.18411E-06 0.00000E+00
 -1       973 1.69568E-04-7.64101E-06 0.00000E+00
 -1       974 1.69458E-04-8.02943E-06-1.65436E-24
 -1       975 1.69348E-04-8.35951E-06 0.00000E+00
 -1       976 1.69238E-04-8.64139E-06 0.00000E+00
 -1       977 1.69128E-04-8.88525E-06 0.00000E+00
 -1       978 1.69018E-04-9.10126E-06 0.00000E+00
 -1       979 1.68907E-04-9.29959E-06-3.30872E-24
 -1       980 1.68797E-04-9.49045E-06 0.00000E+00
 -1       981 1.68687E-04-9.68399E-06-3.30872E-24
 -1       982 1.68577E-04-9.89042E-06 0.00000E+00
 -1       983 1.68467E-04-1.01199E-05 0.00000E+00
 -1       984 1.68358E-04-1.03826E-05 1.65436E-24
 -1       985 1.68249E-04-1.06887E-05-3.30872E-24
 -3
    1PSTEP                        36          18           1          
  100CL  118 6.08389E-01         409                     0   18           1
 -4  STRESS      6    1
 -5  SXX         1    4    1    1
 -5  SYY         1    4    2    2
 -5  SZZ         1    4    3    3
 -5  SXY         1    4    1    2
 -5  SYZ         1    4    2    3
 -5  SZX         1    4    3    1
 -1         1-4.11471E+06-1.54885E+06-9.05713E+05-1.53821E+06-1.01863E-09 1.19297E-07
 -1         2-7.84665E+02-3.67869E+06-2.69258E+00-1.33021E+05-6.08338E-10 4.41823E-07
 -1         3-9.58658E+02-1.34519E+06 3.10918E+02-1.53586E+03-5.30306E-10-5.50790E-09
 -1         5-3.04826E+01 3.42655E+05 8.80469E+00-6.67672E-01-3.36610E-10 2.26773E-08
 -1         8-6.52849E+05-2.11526E+05-5.82035E+04-2.57223E+05 2.63753E-10-2.01035E-08
 -1         9 1.31806E+07-5.66655E+05 2.21013E+06-1.51567E+06 4.02215E-08-2.23517E-08
 -1        10-1.85427E+03-1.40166E+06-3.94844E+03-1.04016E+04-1.09030E-08-2.41159E-08
 -1        12-2.69249E+01 3.42674E+05 2.87005E+02-4.76591E+00-5.91641E-10 8.72660E-09
 -1        15 1.22620E+03 6.73863E+02 3.96368E+03 1.78816E+00 2.03102E-10 2.80945E-07
 -1        16 2.63837E+07-2.09715E+05 3.59437E+06-2.23431E+06 2.28174E-08 1.09430E-08
 -1        17 9.59862E+06 7.73113E+06 2.80656E+06 7.12781E+06-2.98023E-09 6.42613E-09
 -1        18 8.21584E+04 1.75094E+04-7.19285E+03-1.03094E+05 1.37884E-08 8.94306E-09
 -1        19 1.09444E+05 1.26037E+05-8.76696E+02 2.02803E+04 8.74024E-10-7.30652E-09
 -1        20-6.86706E+04-5.14727E+05-1.15160E+05 2.53586E+04-5.52973E-10-4.30494E-10
 -1        21-4.28141E+01-2.71645E+05-8.53515E+02 1.52678E+02 9.18438E-09 5.69687E-09
 -1        24 1.58951E+07 1.39898E+07 4.34637E+06 1.31662E+07-1.72004E-07-4.75169E-08
 -1        25 2.76376E+04-8.42755E+04 9.22046E+03-4.42989E+05-7.37145E-10 6.16001E-09
 -1        26-4.89108E+04 8.15624E+04-2.21473E+04-2.50331E+02 5.28235E-10 9.61621E-09
 -1        27-7.05816E+04-2.78809E+05-1.02558E+05 6.22117E+04 4.42712E-09 1.93995E-09
 -1        28 2.05739E+04-7.76995E+04 1.54848E+04 1.98670E+04-2.20348E-09-1.13784E-08
 -1        32-1.54263E+06-2.83431E+06-1.66283E+05 1.09904E+05-3.80605E-08-9.75126E-09
 -1        33-1.61668E+05 8.24444E+04 2.89741E+04-3.52602E+04-1.92654E-09-2.47049E-08
 -1        34-2.02557E+05-2.20392E+04 6.01273E+02 6.72335E+04-3.27751E-09-6.77952E-09
 -1        35-2.11220E+04-3.08283E+04-1.22417E+03 4.72847E+04-9.74775E-10 1.43215E-08
 -1        51 4.60991E+04-2.05433E+05 9.99632E+04-6.17906E+05-3.78350E-10 2.29564E-07
 -1        52 1.67326E+04-1.89529E+05 5.41629E+04-7.20366E+05 3.23780E-10-6.13290E-08
 -1        53 4.79651E+03-2.04101E+05 3.09473E+04-6.15636E+05 4.07454E-10-1.91882E-07
 -1        54 1.10646E+04-2.00712E+05 3.09723E+04-7.22751E+05 5.82077E-11-3.76021E-07
 -1        55 2.33835E+04-2.09967E+05 4.41609E+04-6.15299E+05 3.34694E-10 1.99390E-07
 -1        56-7.77747E+06-8.82715E+05-6.70314E+05-3.04271E+06-2.78815E-08-2.44356E-07
 -1        57-8.17916E+06-1.35337E+06-4.51453E+05-2.85988E+06 4.88944E-08 7.91624E-09
 -1        58-7.87946E+06-1.12673E+06-1.57458E+05-3.03570E+06-5.62068E-08 5.70435E-08
 -1        59-8.06657E+06-1.06255E+06-9.37644E+04-2.86586E+06-2.55386E-08-3.57823E-08
 -1        60-7.88935E+06-1.16527E+06-3.65577E+04-3.04006E+06 3.34612E-08-2.92703E-07
 -1        61-8.03798E+06-1.03284E+06-2.06086E+04-2.87777E+06-1.37479E-08 5.56611E-08
 -1        62-7.90715E+06-1.15572E+06-1.03515E+04-3.02370E+06 1.31013E-08 7.70069E-08
 -1        63-7.98663E+06-1.07356E+06-7.61605E+03-2.92713E+06-4.26248E-08-4.09468E-08
 -1        64-7.93869E+06-1.12574E+06-1.02614E+04-2.98929E+06-8.37827E-09-2.42876E-07
 -1        65-7.92411E+06-1.14148E+06-1.83637E+04-2.99914E+06-2.08447E-08-3.61699E-07
 -1        66-7.96921E+06-1.08827E+06-3.41005E+04-2.95130E+06-5.88989E-09 3.24522E-07
 -1        67-7.89212E+06-1.22905E+06-8.52833E+04-3.05958E+06-8.54925E-10 3.75806E-07
 -1        68-7.97286E+06-1.03791E+06-1.43508E+05-2.92992E+06-3.37750E-08 3.53808E-07
 -1        69-8.00960E+06-1.48476E+06-4.12202E+05-3.04753E+06-3.77859E-08 6.48142E-08
 -1        70-7.85532E+06-8.38160E+05-6.10882E+05-2.96250E+06 1.85391E-08 1.88273E-07
 -1        86-1.23203E+03-3.76975E+06-2.05344E+04 6.64895E+04 1.32859E-08 2.22712E-07
 -1        87-8.52570E+03-3.71971E+06-2.24233E+04-1.85980E+05 2.31080E-08 1.36280E-07
 -1        88 1.08129E+04-3.73312E+06-4.34213E+04 1.19487E+05 1.79389E-08 1.65696E-07
 -1        89-7.67742E+04-3.73822E+06-1.09114E+05-1.48582E+05 2.49729E-08-1.22870E-07
 -1        90 6.52665E+04-3.74989E+06-1.76790E+05 2.90733E+04 7.27596E-11-4.45143E-08
 -1       121-1.32229E+03-1.34840E+06-2.98265E+02 7.62909E+02 1.22610E-09 6.72662E-09
 -1       122-8.19914E+02-1.34520E+06 6.06169E+02-3.07296E+03-4.16630E-09 1.63855E-08
 -1       123-1.35897E+03-1.34850E+06 3.44324E+02 2.28009E+03 3.54430E-09-5.03496E-09
 -1       124 5.27223E+02-1.34469E+06 2.38825E+03-6.49435E+03-8.33325E-09 1.24564E-08
 -1       125-2.09154E+03-1.34924E+06 2.89022E+03 4.16062E+03 5.54610E-09-2.31266E-08
 -1       191-3.22822E+01 3.42679E+05 9.30367E+00 3.41395E-01-3.46767E-10 1.15615E-08
 -1       192-3.13070E+01 3.42655E+05 1.87011E+01-2.37900E+00-4.10282E-10-1.66983E-09
 -1       193-3.44660E+01 3.42678E+05 3.35918E+01 2.08475E+00-6.81990E-10-6.10453E-09
 -1       194-3.39562E+01 3.42658E+05 7.08795E+01-5.48999E+00-4.13639E-10-1.20535E-08
 -1       195-3.86601E+01 3.42676E+05 1.37451E+02 3.50899E+00-9.21904E-10-3.41606E-09
 -1       251-2.02533E+06-3.03371E+04-1.94846E+05-1.31723E+05 3.12866E-10-1.49634E-07
 -1       252-1.11572E+06 3.82956E+04 4.70559E+04 4.08072E+05 3.54521E-09 4.16239E-07
 -1       253-1.62548E+06-1.38457E+04-3.44528E+04-2.71840E+05-5.84532E-09 4.95611E-08
 -1       254-1.54267E+06 5.84595E+04 7.89714E+03 5.41505E+05 3.18212E-09 1.32194E-07
 -1       255-1.64073E+06-1.59516E+04-1.93668E+04-2.68874E+05 5.64160E-09-1.53364E-07
 -1       256-1.07724E+06 4.76179E+04 1.03065E+05 3.95588E+05 2.72676E-08 7.61906E-08
 -1       257-2.04535E+06-4.01136E+04-1.02474E+05-1.22051E+05 3.08864E-08 1.27837E-07
 -1       258-6.21665E+05 3.60604E+04 1.89356E+05 4.90350E+03-3.92902E-09-4.13783E-07
 -1       259-2.05150E+06-4.08216E+04-1.02431E+05 1.19407E+05 2.44581E-08-2.18099E-07
 -1       260-1.06270E+06 4.92536E+04 1.09776E+05-3.88566E+05 7.85803E-10-2.57707E-07
 -1       261-1.64769E+06-1.80354E+04-1.35625E+04 2.68890E+05 8.00801E-08 3.24405E-09
 -1       262-1.53863E+06 6.80350E+04 2.61782E+04-5.39553E+05-5.30245E-08 3.50098E-07
 -1       263-1.62246E+06-2.13742E+04-3.98949E+03 2.74406E+05 2.29556E-09-4.00678E-09
 -1       264-1.10539E+06 9.51512E+04 1.23720E+05-4.13167E+05 1.44319E-07-5.88784E-08
 -1       265-2.04007E+06-7.83081E+04-8.06048E+04 1.38811E+05 3.90064E-08-1.71513E-08
 -1       266-2.21984E+04-1.03803E+04 5.20822E+04-3.82602E+01 2.69210E-10-1.40003E-07
 -1       267 2.57340E+04 1.20980E+04 3.68117E+04 4.41457E+01 1.00499E-10-5.83600E-07
 -1       268-3.45088E+03-1.71344E+03 1.36827E+04-5.62487E+00-1.01863E-10-2.96622E-07
 -1       269 4.07447E+03 2.05059E+03 8.89357E+03 6.55220E+00-2.47383E-10 3.26362E-08
 -1       270-6.11584E+02-3.36929E+02 4.29305E+03-8.89176E-01-2.04636E-12 3.97177E-08
 -1       271-2.00950E+06-2.40385E+05-1.49432E+05-7.67175E+05 9.05129E-09-6.77392E-09
 -1       272-2.12530E+06-2.88178E+05-9.61962E+04-6.96634E+05 1.53395E-08-7.20902E-08
 -1       273-2.03616E+06-2.79185E+05-3.52509E+04-7.62191E+05 6.99993E-09 5.01168E-08
 -1       274-2.09391E+06-2.40681E+05-1.97884E+04-7.04457E+05 2.20950E-09-1.86659E-07
 -1       275-2.04001E+06-2.83201E+05-8.21343E+03-7.61029E+05-1.00422E-08 1.53472E-07
 -1       276-2.08782E+06-2.37063E+05-4.30805E+03-7.06925E+05 1.69148E-08 8.76680E-08
 -1       277-2.04165E+06-2.82640E+05-2.19615E+03-7.59532E+05-4.77876E-08 1.35676E-07
 -1       278-2.08353E+06-2.39721E+05-1.34917E+03-7.10051E+05 6.32681E-08-9.50690E-08
 -1       279-2.04348E+06-2.81011E+05-1.64900E+03-7.57340E+05-3.61979E-10 3.89409E-08
 -1       280-2.07856E+06-2.44422E+05-2.36916E+03-7.14342E+05 3.01789E-08 1.62978E-07
 -1       281-2.04564E+06-2.78577E+05-4.87445E+03-7.54542E+05-3.35931E-08 7.55726E-08
 -1       282-2.07445E+06-2.52830E+05-1.06151E+04-7.19455E+05-1.38107E-08 4.01360E-09
 -1       283-2.04664E+06-2.73497E+05-1.97001E+04-7.51444E+05 2.65318E-08-1.99248E-07
 -1       284-2.08424E+06-2.85202E+05-5.21656E+04-7.22204E+05 2.50657E-09-3.94100E-07
 -1       285-2.03539E+06-2.49357E+05-8.20847E+04-7.50293E+05-2.09111E-08-7.38037E-08
 -1       301 8.41160E+03-6.09179E+05 1.25400E+05-9.78695E+05 1.36788E-09-2.86018E-08
 -1       302 9.68705E+03-5.76825E+05 7.73998E+04-1.43205E+06-2.10275E-09 3.75417E-07
 -1       303-7.08516E+03-5.97491E+05 4.79145E+04-9.76822E+05 9.67702E-10-2.50737E-07
 -1       304-3.61202E+03-5.68833E+05 5.60644E+04-1.43028E+06 2.22644E-09-2.89445E-07
 -1       305-1.15490E+04-5.85667E+05 7.60935E+04-9.80180E+05 4.14730E-10-2.07379E-07
 -1       306-3.50002E+07-6.30000E+06-9.59182E+06-4.07982E+05-1.71596E-07 1.69326E-07
 -1       307 3.26387E+07 4.46669E+06 6.98965E+06-1.50345E+07-6.08416E-07-6.35395E-07
 -1       308-6.54211E+06-1.75783E+06-7.94075E+05 5.91870E+06 2.24944E-07 1.22673E-07
 -1       309-7.68186E+05 1.10145E+07 2.92064E+06-2.07252E+07 3.38929E-07 3.31493E-08
 -1       310-1.25483E+07-2.53970E+06-2.35946E+06 6.37287E+06-1.51224E-07-7.48551E-08
 -1       311 4.49622E+07 1.11109E+06 8.65670E+06-9.31316E+06 7.91624E-09-4.40923E-08
 -1       312-3.66483E+07-6.18720E+06-9.37548E+06-5.28165E+06 2.50293E-09-1.31578E-07
 -1       313 5.39325E+07 1.74048E+07 1.27840E+07 2.69813E+07-1.38680E-07 1.30618E-07
 -1       314-1.91006E+07-2.02440E+07-8.47282E+06-1.49996E+07 3.92320E-07 1.09430E-08
 -1       315 1.79475E+06 3.37404E+07 6.94736E+06 1.35037E+07 1.14138E-07-3.23402E-07
 -1       316 1.99695E+06-1.05334E+07-7.39224E+05-1.86511E+06 4.16054E-07-5.48695E-07
 -1       317-1.48156E+07 2.50146E+07 2.89879E+06-8.51013E+06 9.03383E-08-1.00533E-06
 -1       318-4.76317E+05-1.42892E+07-2.43705E+06-3.90318E+06-1.29138E-06 1.05356E-08
 -1       319 1.09651E+07 3.68986E+07 8.66005E+06 1.95797E+07-8.98610E-07 1.38709E-07
 -1       320-2.49795E+07-2.00538E+07-1.07124E+07-1.53664E+07-3.81493E-07-3.63507E-08
 -1       336-1.45619E+02-1.45960E+06-1.27565E+04 6.15144E+03-2.18406E-08-4.07817E-09
 -1       337-5.11760E+03-1.46044E+06-1.79403E+04-1.50260E+04-3.99566E-08-1.78989E-09
 -1       338 9.55967E+02-1.45884E+06-2.85554E+04 8.73497E+03-2.76686E-08-5.36238E-09
 -1       339-3.11986E+04-1.47752E+06-6.58217E+04-2.01400E+04-5.04206E-08 1.70239E-08
 -1       340 2.09408E+04-1.44379E+06-1.03452E+05 1.11513E+04-3.36731E-08 3.59578E-08
 -1       406-6.18965E+00 3.42663E+05 5.65364E+02 1.41176E+00-1.31195E-09 2.23754E-08
 -1       407 1.70782E+02 3.42773E+05 1.20426E+03 1.61088E+01-2.61487E-10 1.45446E-08
 -1       408 5.92163E+02 3.42576E+05 2.40353E+03-1.78970E+01-1.48589E-09 8.85302E-09
 -1       409 2.57572E+03 3.43540E+05 5.41353E+03 1.84138E+02-2.29647E-10 9.28048E-09
 -1       410 7.44860E+03 3.41889E+05 1.10504E+04-1.75727E+02-2.01999E-09-1.37024E-08
 -1       521-3.50924E+07-8.75858E+06-1.14735E+07 1.78790E+05-1.08732E-07-1.65659E-07
 -1       522 3.10243E+07 5.77912E+06 6.55015E+06-2.05981E+07-6.08154E-07-1.68453E-07
 -1       523-7.43660E+06-2.07491E+06-6.49060E+05 6.31171E+06 1.41852E-07-4.63711E-07
 -1       524-8.31105E+06 1.54405E+07 2.87354E+06-2.51029E+07 1.16714E-06-6.38771E-07
 -1       525-1.31489E+07-3.29940E+06-2.39759E+06 6.57456E+06 9.47912E-07-3.71219E-07
 -1       526 4.65523E+07 8.65138E+05 8.46521E+06-1.39229E+07 2.64496E-07-2.46655E-07
 -1       527-3.71173E+07-9.06245E+06-1.10334E+07-4.58966E+06 2.76137E-07-1.42420E-07
 -1       528 5.72484E+07 1.84243E+07 1.24672E+07 3.03056E+07-8.82428E-08-2.95258E-07
 -1       529-1.98512E+07-2.23506E+07-9.84224E+06-1.37388E+07-6.62403E-08-1.78115E-07
 -1       530-3.52915E+06 3.94233E+07 6.85372E+06 1.15132E+07 6.54327E-08 2.68221E-07
 -1       531 1.73039E+06-1.17285E+07-5.64111E+05-2.01322E+06-6.10060E-07 2.34228E-07
 -1       532-1.97081E+07 2.66682E+07 2.85886E+06-1.55113E+07 5.45813E-07-7.63757E-07
 -1       533-7.43003E+05-1.50409E+07-2.41924E+06-3.60600E+06-2.51952E-07-1.07347E-06
 -1       534 6.01784E+06 4.24696E+07 8.21634E+06 1.89842E+07-2.00525E-08 8.42439E-07
 -1       535-2.56608E+07-2.24745E+07-1.27018E+07-1.40810E+07 1.38883E-07 4.99305E-07
 -1       536-6.05630E+05-2.53438E+04-5.09336E+04-4.18838E+04-2.86536E-09 4.46381E-08
 -1       537-1.54508E+05 2.25810E+04 4.69568E+04 9.90412E+04-8.94481E-08 9.86807E-08
 -1       538-3.88920E+05 3.62584E+03-1.87343E+03-5.94534E+04 2.51770E-08 9.41992E-08
 -1       539-3.03235E+05 1.68205E+02 1.44220E+04 1.12996E+05 1.43033E-07 1.06505E-07
 -1       540-4.60698E+05 2.08933E+02-1.58479E+04-5.61506E+04 2.36464E-08 9.16457E-08
 -1       541-9.19432E+03 1.15207E+04 7.40902E+04 7.69103E+04-1.17075E-08 6.72532E-08
 -1       542-6.75094E+05-1.42456E+04-5.97989E+04-2.28611E+04 3.59487E-08 3.86604E-08
 -1       543 1.73088E+05 1.92617E+04 1.10892E+05-1.11806E+04 6.37556E-09-1.77540E-08
 -1       544-6.38121E+05-1.15362E+04-5.27246E+04 3.15456E+04 2.55404E-08-3.91850E-08
 -1       545-9.45763E+04 6.25608E+03 5.50459E+04-9.10018E+04 2.72612E-08-7.82519E-08
 -1       546-4.14576E+05 4.65144E+03-9.03506E+03 5.67660E+04 2.30750E-08-8.37958E-08
 -1       547-3.15840E+05-4.59988E+03 5.12764E+03-1.15411E+05-7.95598E-08-7.88710E-08
 -1       548-4.22760E+05 4.21725E+03-2.00558E+04 5.63570E+04-1.03250E-07-8.47353E-08
 -1       549-7.87018E+04 5.16522E+03 3.43649E+04-8.83625E+04-5.97878E-08-5.22909E-08
 -1       550-6.45344E+05-1.03992E+04-1.03340E+05 2.92951E+04 3.44744E-09-3.28928E-08
 -1       551 2.01009E+04-5.81356E+05-2.41605E+04-9.55099E+05-8.40955E-08-1.67347E-09
 -1       552 5.50831E+04-6.12312E+05 2.88219E+03-1.36016E+06-6.12054E-08 2.94312E-08
 -1       553 4.42552E+04-6.12214E+05 2.67346E+04-9.49924E+05-9.89457E-08 3.25235E-08
 -1       554 9.00111E+04-6.20794E+05 7.34127E+04-1.36268E+06-6.53818E-08 2.63717E-08
 -1       555 7.36062E+04-6.36610E+05 1.37333E+05-9.49135E+05-1.07495E-07-6.77210E-09
 -1       556 1.84820E+05-3.26805E+05 7.82400E+03-3.53823E+05-2.14641E-08-9.63337E-09
 -1       557 2.91716E+05-4.16928E+05 6.04839E+03-4.59863E+05-4.70027E-09 1.97397E-08
 -1       558 1.70510E+05-3.19156E+05-5.70736E+02-3.57744E+05-1.89175E-08-6.11180E-09
 -1       559 2.75470E+05-4.15948E+05 6.39024E+02-4.74967E+05 1.33150E-08-1.74332E-08
 -1       560 1.59445E+05-3.12180E+05-1.49569E+03-3.65560E+05 9.77889E-09-5.92263E-09
 -1       561 2.61870E+05-4.10413E+05-1.20567E+02-4.84248E+05 3.78350E-09-1.13505E-09
 -1       562 1.50857E+05-3.06853E+05-9.74070E+02-3.71720E+05-4.94765E-10-1.83936E-08
 -1       563 2.51787E+05-4.05998E+05-4.68669E+01-4.90804E+05-6.19184E-09-1.33073E-08
 -1       564 1.44856E+05-3.03116E+05-3.86505E+02-3.75956E+05-2.88128E-09-1.22441E-08
 -1       565 2.45274E+05-4.03162E+05 2.83986E+01-4.94956E+05-9.99717E-09-6.91125E-09
 -1       566 1.41510E+05-3.00996E+05-1.57516E+02-3.78297E+05-1.01645E-08-4.47835E-09
 -1       567 2.42366E+05-4.01894E+05-2.59430E+02-4.96690E+05 2.13586E-08-9.45874E-10
 -1       568 1.40884E+05-3.00621E+05-8.29485E+02-3.78830E+05 3.46472E-09 1.18271E-08
 -1       569 2.41873E+05-4.01861E+05-2.08314E+03-4.95098E+05-3.20415E-09-1.80298E-08
 -1       570 1.43920E+05-3.03385E+05-4.60019E+03-3.78041E+05 8.20000E-09-6.95036E-09
 -1       571 2.59127E+05 9.40827E+03 1.35931E+04-7.93920E+04 4.14366E-09 1.30992E-08
 -1       572 2.61115E+05 3.45554E+03 6.66098E+03-8.71009E+04 2.25691E-09 1.97124E-08
 -1       573 2.59921E+05 1.00450E+03 2.95956E+03-7.92374E+04 4.82487E-09-6.80848E-09
 -1       574 2.60131E+05 5.19298E+02 1.48376E+03-8.72912E+04 2.46041E-09-1.30776E-08
 -1       575 2.60009E+05 2.79358E+02 7.00137E+02-7.92165E+04-4.97380E-12-8.77662E-10
 -1       576 2.60006E+05 2.77360E+02 3.58082E+02-8.73166E+04-4.27565E-09 1.69075E-09
 -1       577 2.60039E+05 2.30514E+02 1.78616E+02-7.92136E+04-3.92083E-09 1.08594E-09
 -1       578 2.60021E+05 2.49705E+02 1.02565E+02-8.73200E+04-4.72937E-09-3.18323E-11
 -1       579 2.60088E+05 2.06928E+02 7.03237E+01-7.92134E+04 1.74441E-09-5.94991E-09
 -1       580 2.60090E+05 2.16173E+02 8.04185E+01-8.73157E+04-9.19954E-09 2.67119E-09
 -1       581 2.60165E+05 1.69068E+02 1.22036E+02-7.92183E+04 3.56522E-09-1.48839E-08
 -1       582 2.60214E+05 1.99676E+02 2.46360E+02-8.72642E+04 4.16458E-09 7.86713E-09
 -1       583 2.60258E+05 2.24743E+02 4.75152E+02-7.92652E+04 3.68709E-09 7.28733E-09
 -1       584 2.60506E+05 6.09442E+02 1.07272E+03-8.68696E+04 4.24188E-09-4.96811E-09
 -1       585 2.60246E+05 1.52877E+03 2.17564E+03-7.96126E+04-4.14730E-10 2.28101E-09
 -1       586-3.11010E+03 9.78334E+04-3.05002E+03-2.26774E+05-4.31328E-09 1.64914E-09
 -1       587-1.04445E+03 9.75272E+04 4.41407E+02-2.49597E+05-5.03314E-09 1.38891E-09
 -1       588 5.47182E+02 9.74273E+04 4.08344E+03-2.26658E+05-4.44197E-09 1.99161E-08
 -1       589 4.71160E+03 9.95712E+04 1.08115E+04-2.49363E+05-7.21229E-09 2.41116E-08
 -1       590 1.48412E+04 9.62432E+04 2.27667E+04-2.27049E+05-4.33647E-09 9.20045E-09
 -1       591-6.19321E+04-1.38733E+04-1.94055E+04-2.71780E+04-5.76438E-09 3.87536E-09
 -1       592-6.52442E+04-1.71476E+04-1.05114E+04-3.05390E+04-1.37224E-08-4.62023E-09
 -1       593-6.38741E+04-1.24638E+04-4.37547E+03-2.85997E+04-4.27636E-09 9.59471E-09
 -1       594-6.25621E+04-1.43031E+04-2.18219E+03-3.06440E+04-1.29057E-09 1.54345E-08
 -1       595-6.40222E+04-1.24591E+04-1.00199E+03-2.86643E+04-5.84791E-10 3.73731E-09
 -1       596-6.23786E+04-1.41730E+04-5.09442E+02-3.06225E+04 6.20071E-09 1.11905E-08
 -1       597-6.40408E+04-1.24722E+04-2.77550E+02-2.86668E+04 1.15972E-09 1.25351E-08
 -1       598-6.23606E+04-1.41679E+04-2.23384E+02-3.06165E+04-2.54363E-09-7.28448E-09
 -1       599-6.40397E+04-1.24726E+04-2.85671E+02-2.86664E+04 7.33121E-09 9.86347E-10
 -1       600-6.23789E+04-1.41737E+04-5.30953E+02-3.06209E+04 1.91847E-09-1.04606E-08
 -1       601-6.40181E+04-1.24599E+04-1.04757E+03-2.86633E+04 1.66801E-09-1.43302E-09
 -1       602-6.25707E+04-1.43089E+04-2.28317E+03-3.06402E+04-1.59537E-09-9.36461E-09
 -1       603-6.38608E+04-1.24674E+04-4.57871E+03-2.85963E+04-1.06343E-09-8.44830E-09
 -1       604-6.53928E+04-1.72684E+04-1.09991E+04-3.05087E+04 2.06012E-09 5.06225E-09
 -1       605-6.18110E+04-1.39579E+04-2.03059E+04-2.71256E+04 2.90879E-09 9.38871E-09
 -1       606 2.60262E+04-1.26514E+04-2.26997E+04 2.40050E+04 8.05630E-09-2.03941E-08
 -1       607 2.21459E+04-4.12194E+03-1.13041E+04 2.69660E+04 5.96629E-10-1.88636E-08
 -1       608 2.43557E+04-7.34112E+02-5.06078E+03 2.38278E+04-4.62751E-09 3.40651E-09
 -1       609 2.39290E+04-2.40324E+02-2.55647E+03 2.71790E+04-1.74987E-09-5.67616E-09
 -1       610 2.41642E+04-2.25919E+01-1.21997E+03 2.38072E+04-1.05474E-08 1.43343E-08
 -1       611 2.40944E+04-1.95304E+01-6.15102E+02 2.72021E+04-1.88156E-08 1.78700E-08
 -1       612 2.41202E+04-8.99249E+00-2.92691E+02 2.38051E+04-7.75708E-09-5.85715E-09
 -1       613 2.41022E+04-1.45367E+01-1.31402E+02 2.72048E+04 2.73212E-09-2.65516E-08
 -1       614 2.40987E+04-1.34489E+01-3.15241E+01 2.38044E+04 1.54341E-09 3.13480E-09
 -1       615 2.40956E+04-1.21449E+01 5.34402E+01 2.72053E+04-2.15005E-09 1.23350E-08
 -1       616 2.40820E+04-9.80470E+00 1.61739E+02 2.38047E+04-6.17592E-09 1.13187E-09
 -1       617 2.41136E+04 2.32224E+01 3.69647E+02 2.72048E+04-5.20572E-09-8.67294E-09
 -1       618 2.40488E+04 9.74490E+01 7.45285E+02 2.38049E+04 6.66205E-10-1.13982E-09
 -1       619 2.43758E+04 6.00048E+02 1.67376E+03 2.72041E+04 3.51793E-09 5.36875E-09
 -1       620 2.38007E+04 1.86525E+03 3.36422E+03 2.38054E+04 3.94891E-09 7.32371E-09
 -1       621 3.88284E+02 2.66379E+05 3.18861E+03 3.10086E+04 6.62112E-10 1.51986E-08
 -1       622 5.02049E+02 2.67133E+05 2.89101E+03 4.50490E+04 9.91804E-10 1.16024E-08
 -1       623 8.07556E+01 2.66546E+05 3.55578E+03 3.08657E+04 8.01492E-10 2.52430E-09
 -1       624 1.77680E+03 2.68238E+05 6.95870E+03 4.51913E+04 9.56817E-10-7.21411E-09
 -1       625 1.75659E+03 2.65168E+05 1.21919E+04 3.08627E+04 9.38599E-10 5.52768E-09
 -1       626 2.33197E+05 5.67917E+04 4.78652E+03 1.15622E+05-6.55882E-09-2.00089E-10
 -1       627 2.30944E+05 5.81844E+04 2.30652E+03 1.19711E+05-1.61049E-08-2.30567E-08
 -1       628 2.33323E+05 5.45929E+04 9.75253E+02 1.16425E+05-7.81347E-09 2.77851E-09
 -1       629 2.30338E+05 5.75601E+04 4.77313E+02 1.19946E+05-7.28505E-10 2.55893E-09
 -1       630 2.33336E+05 5.44870E+04 2.21171E+02 1.16457E+05 1.63982E-09 5.17588E-10
 -1       631 2.30272E+05 5.75375E+04 1.18653E+02 1.19948E+05 3.27418E-11-9.18158E-09
 -1       632 2.33331E+05 5.44916E+04 7.74613E+01 1.16452E+05-5.00677E-10-3.00067E-08
 -1       633 2.30263E+05 5.75401E+04 8.53206E+01 1.19943E+05 1.74222E-08 2.07388E-08
 -1       634 2.33326E+05 5.44899E+04 1.37036E+02 1.16451E+05-1.97656E-09 6.60339E-09
 -1       635 2.30274E+05 5.75393E+04 2.76788E+02 1.19947E+05-9.41894E-09 4.11942E-08
 -1       636 2.33316E+05 5.44856E+04 5.58728E+02 1.16450E+05-7.85826E-09 1.69466E-08
 -1       637 2.30394E+05 5.76265E+04 1.22822E+03 1.19945E+05 4.00746E-09 5.38625E-09
 -1       638 2.33272E+05 5.47574E+04 2.52361E+03 1.16327E+05 3.34740E-09 1.07530E-08
 -1       639 2.31719E+05 5.94700E+04 5.97074E+03 1.19554E+05 4.49199E-09 2.98314E-09
 -1       640 2.33090E+05 6.02606E+04 1.23904E+04 1.14004E+05 4.18731E-09-4.66275E-09
 -1       656 6.00295E+04-1.53332E+06-1.44914E+05-1.73558E+03 5.82077E-11-7.81577E-09
 -1       657-7.94001E+04-1.59879E+06-1.20021E+05 5.92247E+03 1.03682E-10 3.21816E-09
 -1       658 1.91221E+04-1.55193E+06-7.38802E+04-3.47808E+03-1.06866E-11-6.72699E-09
 -1       659-8.57520E+04-1.60181E+06-1.28367E+05 7.30924E+03-1.32877E-09-1.43924E-08
 -1       660 6.63669E+04-1.53032E+06-1.59265E+05-3.12233E+03-2.01544E-09 2.43173E-08
 -1       661 1.55711E+05 1.64649E+04 1.60546E+04 6.08795E+04 3.54703E-10 9.82436E-09
 -1       662 1.64635E+05 2.85033E+04 1.08192E+04 5.74510E+04 5.51950E-10 2.46848E-09
 -1       663 1.58862E+05 2.16168E+04 3.78411E+03 5.99661E+04-1.34423E-09-1.10326E-08
 -1       664 1.60983E+05 2.24769E+04 2.26335E+03 5.85654E+04 8.82636E-10-2.96960E-08
 -1       665 1.59339E+05 2.23219E+04 8.92903E+02 5.98285E+04-1.39181E-09-2.12211E-09
 -1       666 1.60420E+05 2.16693E+04 5.22208E+02 5.87439E+04 2.22435E-09 9.68250E-09
 -1       667 1.59421E+05 2.24034E+04 2.77108E+02 5.97952E+04-1.43618E-09 7.85800E-09
 -1       668 1.60330E+05 2.16091E+04 2.81656E+02 5.87921E+04-6.94592E-09-1.50284E-08
 -1       669 1.59428E+05 2.23804E+04 3.80800E+02 5.97807E+04-2.64478E-09-3.16828E-09
 -1       670 1.60424E+05 2.18142E+04 8.28662E+02 5.87935E+04-3.91456E-09-3.23969E-09
 -1       671 1.59327E+05 2.22025E+04 1.47120E+03 5.97919E+04-2.75875E-10 6.07230E-09
 -1       672 1.61282E+05 2.32448E+04 3.76389E+03 5.85851E+04 4.03908E-09-3.25281E-09
 -1       673 1.58574E+05 2.09860E+04 6.30763E+03 5.99752E+04 3.05693E-09 8.56744E-10
 -1       674 1.67287E+05 3.33773E+04 1.80385E+04 5.68199E+04 1.25016E-09 5.74073E-09
 -1       675 1.53361E+05 1.23536E+04 2.67753E+04 6.14506E+04-1.10822E-09 6.36646E-11
 -1       676 2.21917E+01-2.71574E+05-1.02871E+03-7.63408E+01 9.56845E-10-3.76826E-09
 -1       677-2.72813E+02-2.71823E+05-1.88269E+03 1.52575E+02 6.21677E-09-1.40606E-08
 -1       678 1.82421E+02-2.71397E+05-3.32812E+03-7.61828E+01 4.68617E-10 3.05592E-09
 -1       679-3.32877E+03-2.73832E+05-7.90615E+03 1.51966E+02 4.92855E-09-2.82111E-09
 -1       680 1.98693E+03-2.69566E+05-1.27420E+04-7.48839E+01 6.41194E-10-5.43546E-09
 -1       771-2.82174E+06-6.70863E+05-1.56217E+05-1.33853E+06-2.67028E-08-2.69793E-08
 -1       772-2.75832E+06-7.52994E+05-8.12566E+04-1.43281E+06-1.78115E-08 7.86167E-09
 -1       773-2.84952E+06-6.49280E+05-3.99478E+04-1.35143E+06-9.16771E-09 1.29221E-08
 -1       774-2.74688E+06-7.34886E+05-1.81427E+04-1.45352E+06 1.49012E-08-1.84082E-09
 -1       775-2.86267E+06-6.40144E+05-1.26009E+04-1.35683E+06 1.97906E-09 2.30648E-09
 -1       776-2.75609E+06-7.32442E+05-4.87495E+03-1.46870E+06 5.00586E-09 4.75848E-09
 -1       777-2.87381E+06-6.32123E+05-5.22838E+03-1.36151E+06 8.64384E-09-3.27418E-10
 -1       778-2.76584E+06-7.30379E+05-1.53997E+03-1.48168E+06 5.43514E-09 6.61748E-09
 -1       779-2.88328E+06-6.25165E+05-2.51074E+03-1.36548E+06-9.42964E-09-1.01390E-08
 -1       780-2.77437E+06-7.28453E+05-4.35884E+02-1.49223E+06-8.17090E-09 1.02955E-09
 -1       781-2.89076E+06-6.19586E+05-9.56616E+02-1.36858E+06-2.56114E-08-8.84029E-10
 -1       782-2.78091E+06-7.26830E+05 3.37584E+02-1.49999E+06-4.05125E-08-2.46609E-09
 -1       783-2.89600E+06-6.15733E+05 5.34831E+02-1.37074E+06-6.27915E-09-1.24642E-08
 -1       784-2.78449E+06-7.25171E+05 2.21021E+03-1.50476E+06-1.84991E-08 4.17913E-10
 -1       785-2.89909E+06-6.13447E+05 3.90277E+03-1.37212E+06-3.37750E-08 5.93900E-09
 -1       786 1.16235E+05-9.06911E+03 2.09814E+04-2.29882E+02 4.47708E-09-1.12595E-08
 -1       787 1.25334E+05 1.04995E+04 1.48436E+04-6.08445E+01 6.19340E-09 1.79834E-08
 -1       788 1.19743E+05-1.42137E+03 5.42848E+03-2.00088E+02 3.33832E-09 8.85052E-09
 -1       789 1.21247E+05 1.64475E+03 3.40804E+03-1.07512E+02 2.09548E-09-1.02841E-09
 -1       790 1.20323E+05-2.21527E+02 1.38034E+03-1.83226E+02-3.06793E-09-7.27516E-09
 -1       791 1.20570E+05 2.55974E+02 7.98228E+02-1.36581E+02-6.17963E-09 5.32162E-09
 -1       792 1.20421E+05-3.36308E+01 3.40182E+02-1.71021E+02-3.17371E-09 8.45775E-09
 -1       793 1.20453E+05 3.60376E+01 1.73834E+02-1.59442E+02-1.47468E-09 1.45677E-08
 -1       794 1.20439E+05-1.72899E+00 5.36938E+01-1.60364E+02 3.53423E-09 1.48684E-08
 -1       795 1.20422E+05-1.84533E+01-3.08155E+01-1.81386E+02-4.79891E-09 1.59354E-08
 -1       796 1.20452E+05 2.08304E+01-1.11774E+02-1.49077E+02 2.42562E-09 5.01313E-09
 -1       797 1.20353E+05-1.57650E+02-3.17813E+02-2.06843E+02 3.31460E-09-1.11631E-08
 -1       798 1.20508E+05 1.37364E+02-5.19142E+02-1.34906E+02 9.03398E-10-5.51978E-10
 -1       799 1.19958E+05-1.01362E+03-1.43092E+03-2.41153E+02 5.47766E-09-3.39710E-09
 -1       800 1.20847E+05 8.76096E+02-2.02573E+03-1.14767E+02 7.76595E-10 3.69243E-09
 -1       801-5.29740E+04-7.71110E+06-1.01114E+06 8.91955E+05 7.40401E-08-3.79005E-08
 -1       802 3.94906E+05 2.42909E+06 1.29466E+06-1.05239E+06 2.09016E-07-3.10483E-08
 -1       803-3.30131E+05-1.02489E+07-1.20958E+06 5.69812E+05 6.42103E-08 1.98070E-08
 -1       804 1.49438E+05 4.90833E+04 9.09915E+05 4.99495E+05-9.02473E-08-8.28522E-08
 -1       805 1.43418E+05-5.34569E+06-1.93852E+05-6.56412E+05-3.77186E-08-5.23141E-08
 -1       806-2.78991E+05-5.31529E+04-2.03927E+04-1.09606E+05-4.11819E-09 1.50631E-08
 -1       807-2.80717E+05-4.97018E+04-1.00187E+04-1.14409E+05 1.43950E-09 1.60469E-08
 -1       808-2.79542E+05-4.58126E+04-4.25035E+03-1.13091E+05-5.53382E-09 6.71923E-09
 -1       809-2.78617E+05-4.68812E+04-2.07836E+03-1.14650E+05-9.89894E-09 1.72213E-09
 -1       810-2.79626E+05-4.55569E+04-9.52611E+02-1.13246E+05 5.69298E-09 1.50360E-08
 -1       811-2.78455E+05-4.67672E+04-4.73761E+02-1.14618E+05 2.01953E-09 2.09559E-09
 -1       812-2.79640E+05-4.55785E+04-2.39609E+02-1.13246E+05-6.08634E-09-3.71301E-09
 -1       813-2.78434E+05-4.67687E+04-1.55802E+02-1.14602E+05-8.37099E-09-2.52294E-09
 -1       814-2.79635E+05-4.55864E+04-1.54419E+02-1.13243E+05-3.35604E-09-1.67847E-09
 -1       815-2.78438E+05-4.67703E+04-2.49052E+02-1.14597E+05 3.01588E-09-6.61066E-09
 -1       816-2.79618E+05-4.55847E+04-4.71965E+02-1.13240E+05 9.02764E-09 2.55864E-08
 -1       817-2.78520E+05-4.68150E+04-1.01329E+03-1.14588E+05-1.05756E-08-1.72722E-08
 -1       818-2.79558E+05-4.57265E+04-2.06657E+03-1.13173E+05 3.79532E-09-1.53991E-08
 -1       819-2.79651E+05-4.80650E+04-4.86307E+03-1.14324E+05 1.21304E-08-2.40614E-08
 -1       820-2.79173E+05-4.93961E+04-9.89782E+03-1.11601E+05 6.95218E-09-2.13072E-09
 -1       821-3.43679E+05 1.89437E+04-4.38339E+04 9.96579E+02 7.63782E-09 2.61025E-09
 -1       822-3.62590E+05-2.19308E+04-3.10041E+04-1.69620E+03 1.76816E-09-9.80344E-09
 -1       823-3.50956E+05 2.97139E+03-1.13491E+04 1.23399E+03-5.72590E-09-5.80940E-09
 -1       824-3.54045E+05-3.43611E+03-7.13494E+03-1.63786E+03 1.35610E-09 3.01911E-08
 -1       825-3.52221E+05 4.62954E+02-2.94472E+03 9.38261E+02 7.80804E-09 6.03870E-09
 -1       826-3.52517E+05-5.42666E+02-1.74333E+03-6.62096E+02 8.15540E-09-2.15778E-08
 -1       827-3.52480E+05 7.74801E+01-9.40765E+02 2.58202E+02 3.53244E-09-1.02305E-08
 -1       828-3.52302E+05-1.63478E+02-7.81573E+02 7.38539E+02-1.34365E-09-1.05300E-08
 -1       829-3.52436E+05 8.36363E+01-9.53725E+02-4.62397E+02 1.90216E-09 1.46489E-08
 -1       830-3.52624E+05-5.70698E+02-1.82652E+03 1.85399E+03 7.35938E-10 1.47671E-08
 -1       831-3.52160E+05 4.86890E+02-3.04749E+03-8.57268E+02-2.32395E-09-9.36166E-09
 -1       832-3.54131E+05-3.57809E+03-7.42313E+03 2.11714E+03-1.79394E-09-5.21402E-09
 -1       833-3.50931E+05 3.08981E+03-1.18085E+04-7.25547E+02-2.51637E-09 3.90719E-09
 -1       834-3.62902E+05-2.28055E+04-3.22242E+04 1.38103E+03-2.15373E-09 4.02406E-09
 -1       835-3.43389E+05 1.96974E+04-4.55983E+04-1.21145E+02 5.13903E-09-4.78212E-09
 -1       836-1.23171E+03 3.28596E+05 2.02268E+04-1.51330E+04-4.78212E-09 7.03039E-09
 -1       837 4.34308E+03 3.34917E+05 1.71810E+04-3.07253E+04-4.60034E-09 4.68845E-09
 -1       838-4.82872E+02 3.30361E+05 1.75976E+04-1.50671E+04-3.96994E-09-5.52063E-10
 -1       839 1.11419E+04 3.39984E+05 3.33801E+04-3.07726E+04-4.35466E-09 7.43643E-09
 -1       840-3.42349E+03 3.23481E+05 5.32685E+04-1.50887E+04-3.75803E-09-1.52612E-08
 -1       856-5.75107E+04 7.60415E+03-2.00386E+04-3.88295E+02 2.66527E-09-8.57835E-09
 -1       857-6.57733E+04-8.92953E+03-1.37949E+04 5.16707E+03 3.47575E-09-2.04907E-08
 -1       858-6.07804E+04 1.06614E+03-5.19974E+03-4.10219E+02 6.67853E-10-1.59539E-08
 -1       859-6.20202E+04-1.24957E+03-3.13841E+03 5.20029E+03-2.76083E-09-6.18439E-09
 -1       860-6.12690E+04 1.49007E+02-1.31619E+03-4.21371E+02 3.05877E-09 8.20347E-09
 -1       861-6.14579E+04-1.73554E+02-7.25980E+02 5.21550E+03-8.23228E-10 7.45149E-09
 -1       862-6.13453E+04 2.00023E+01-3.05600E+02-4.25433E+02 2.78394E-09 6.00161E-09
 -1       863-6.13650E+04-1.72178E+01-1.19996E+02 5.21774E+03 5.51843E-11 5.01220E-09
 -1       864-6.13623E+04-3.81437E+00 2.52107E+01-4.23609E+02-1.73870E-10 1.08123E-09
 -1       865-6.13177E+04 5.12949E+01 1.98404E+02 5.20766E+03-3.30259E-09-3.60137E-09
 -1       866-6.13907E+04-4.85791E+01 4.09916E+02-4.15348E+02 1.89297E-09 6.32079E-09
 -1       867-6.11225E+04 4.02573E+02 1.01532E+03 5.18518E+03-4.11632E-10 5.60702E-09
 -1       868-6.15533E+04-3.48937E+02 1.68883E+03-4.01137E+02 1.49350E-09 4.31680E-09
 -1       869-5.98829E+04 2.90462E+03 4.49893E+03 5.14775E+03 2.12708E-10-2.10257E-08
 -1       870-6.26237E+04-2.48294E+03 6.52887E+03-3.77864E+02-2.41675E-09-9.14179E-09
 -1       871-5.04732E+03-1.71382E+04-1.73849E+04 1.16171E+05-2.77578E-09 3.11775E-09
 -1       872-1.93184E+03-2.11369E+04-7.23963E+03 1.50628E+05-6.24004E-09-5.05361E-09
 -1       873 2.38498E+02-1.92202E+04 6.27391E+02 1.15917E+05-3.21825E-09 3.99518E-09
 -1       874 2.84388E+03-1.69817E+04 8.96033E+03 1.50660E+05-7.25504E-09 1.70492E-08
 -1       875 6.11903E+03-2.13565E+04 2.01360E+04 1.16130E+05-3.34330E-09-9.23592E-09
 -1       876 2.66335E+05 4.50883E+04 1.37697E+04 1.07118E+05 8.73797E-10-1.52550E-08
 -1       877 2.67227E+05 4.80072E+04 7.35351E+03 1.11085E+05 7.46968E-09-8.14543E-09
 -1       878 2.67623E+05 4.35635E+04 3.08079E+03 1.08247E+05-4.20641E-10 3.53339E-09
 -1       879 2.65355E+05 4.61396E+04 1.53497E+03 1.11179E+05 6.05132E-09 4.08659E-09
 -1       880 2.67715E+05 4.35474E+04 7.14945E+02 1.08294E+05-3.35172E-09 1.12482E-08
 -1       881 2.65230E+05 4.60599E+04 3.81661E+02 1.11158E+05-6.86714E-09 1.30063E-08
 -1       882 2.67724E+05 4.35592E+04 2.43974E+02 1.08295E+05-2.04182E-10 6.70709E-09
 -1       883 2.65222E+05 4.60559E+04 2.61954E+02 1.11152E+05 1.00090E-09 1.58976E-08
 -1       884 2.67718E+05 4.35565E+04 4.16423E+02 1.08295E+05 1.18143E-09 4.07510E-10
 -1       885 2.65255E+05 4.60617E+04 8.37066E+02 1.11162E+05-9.02006E-10-5.07498E-10
 -1       886 2.67686E+05 4.35321E+04 1.68700E+03 1.08292E+05-1.38353E-09 1.04728E-09
 -1       887 2.65551E+05 4.62561E+04 3.68502E+03 1.11205E+05 4.56350E-09-1.36797E-08
 -1       888 2.67453E+05 4.35731E+04 7.42544E+03 1.08174E+05-1.17120E-09 3.69891E-09
 -1       889 2.69973E+05 5.08528E+04 1.77382E+04 1.11068E+05 9.71227E-10 4.39104E-09
 -1       890 2.64424E+05 4.71710E+04 3.32231E+04 1.05346E+05-2.11503E-09-2.17733E-09
 -1       891-1.04412E+02-1.48264E+05-1.80814E+03 2.54068E+04-1.33423E-09 2.96131E-09
 -1       892-1.94555E+02-1.48730E+05-1.94524E+03 3.85395E+04 8.18090E-10 1.03082E-08
 -1       893 1.64696E+01-1.48322E+05-2.75749E+03 2.54131E+04-1.55478E-09-9.09495E-12
 -1       894-1.40733E+03-1.49775E+05-5.70955E+03 3.83986E+04 1.10094E-09-2.13586E-08
 -1       895-1.11219E+03-1.47134E+05-1.00551E+04 2.55483E+04 3.49473E-10-1.70012E-08
 -1       956-3.40756E+05-4.86248E+03-1.20837E+04 2.64316E+04 3.19596E-09-1.11056E-08
 -1       957-3.43132E+05-1.68993E+03-6.20273E+03 3.17875E+04-3.09046E-09 9.40599E-09
 -1       958-3.41837E+05-1.86303E+02-2.79490E+03 2.62835E+04-2.83126E-09-1.17634E-08
 -1       959-3.42018E+05-8.80204E+01-1.42732E+03 3.19565E+04-8.37190E-10-3.63252E-09
 -1       960-3.41940E+05-1.25705E+01-6.95988E+02 2.62686E+04 1.34423E-09-1.39926E-09
 -1       961-3.41942E+05-2.43969E+01-3.69219E+02 3.19739E+04 6.57838E-09 1.56194E-08
 -1       962-3.41962E+05-1.50897E+01-2.11570E+02 2.62663E+04-2.02090E-09 1.96196E-08
 -1       963-3.41941E+05-2.15564E+01-1.70224E+02 3.19769E+04-7.71240E-09 1.01679E-08
 -1       964-3.41967E+05-1.24297E+01-2.07347E+02 2.62656E+04-3.21447E-09 1.14619E-09
 -1       965-3.41952E+05-1.87306E+01-3.58909E+02 3.19764E+04-4.79713E-09-9.28594E-09
 -1       966-3.41953E+05-4.66115E+00-6.74388E+02 2.62668E+04-4.38990E-09-1.29194E-09
 -1       967-3.42036E+05-7.49276E+01-1.38327E+03 3.19643E+04-1.14860E-08 5.39944E-09
 -1       968-3.41862E+05-1.67874E+02-2.70770E+03 2.62776E+04-5.99539E-09-1.06236E-08
 -1       969-3.43125E+05-1.62284E+03-6.01131E+03 3.18384E+04-1.92813E-10-3.87919E-08
 -1       970-3.40821E+05-4.69651E+03-1.17099E+04 2.63882E+04 1.55114E-09 4.37922E-09
 -1       971-3.14041E+05-1.58544E+03-8.62307E+03 1.42079E+04 3.56431E-09-1.14741E-08
 -1       972-3.16123E+05-1.15850E+03-4.69611E+03 1.97096E+04 4.59704E-09 2.53476E-09
 -1       973-3.15001E+05-4.34798E+01-2.10324E+03 1.40940E+04 1.47065E-09-1.36629E-09
 -1       974-3.15132E+05-5.60998E+01-1.09012E+03 1.98366E+04 3.06500E-10-9.21102E-09
 -1       975-3.15077E+05-2.44296E+00-5.44930E+02 1.40829E+04-2.20552E-10 1.11529E-08
 -1       976-3.15075E+05-1.03835E+01-3.14490E+02 1.98507E+04 3.13048E-09-6.14193E-09
 -1       977-3.15091E+05-2.12856E+00-2.28395E+02 1.40800E+04-2.32831E-09 1.14144E-08
 -1       978-3.15079E+05-4.91418E+00-2.67490E+02 1.98548E+04-4.44743E-09 3.06228E-08
 -1       979-3.15091E+05 5.42111E+00-4.29938E+02 1.40788E+04-7.33905E-10 4.14161E-10
 -1       980-3.15111E+05-2.18858E+00-8.30259E+02 1.98556E+04 1.15875E-09 2.56102E-09
 -1       981-3.15065E+05 2.61732E+01-1.60805E+03 1.40792E+04 1.01295E-09 2.90953E-09
 -1       982-3.15332E+05-1.20908E+02-3.32383E+03 1.98495E+04-4.82032E-11 4.85592E-10
 -1       983-3.14862E+05-7.66454E+01-6.45819E+03 1.40848E+04-7.50333E-12-1.39153E-09
 -1       984-3.18438E+05-3.49357E+03-1.44627E+04 1.97701E+04-1.41495E-09 1.25988E-09
 -1       985-3.11939E+05-4.80222E+03-2.65580E+04 1.41551E+04-3.04226E-09 1.34860E-08
 -3
    1PSTEP                        37          19           1          
  100CL  119 6.13082E-01         409                     0   19           1
 -4  DISP        4    1
 -5  D1          1    2    1    0
 -5  D2          1    2    2    0
 -5  D3          1    2    3    0
 -5  ALL         1    2    0    0    1ALL
 -1         1 3.16189E-03 0.00000E+00 0.00000E+00
 -1         2 3.15043E-03-2.32198E-27 5.29396E-23
 -1         3 2.90458E-04 6.40847E-28-1.32349E-23
 -1         5 1.57163E-04-1.84658E-26 2.06795E-24
 -1         8 3.14548E-03-4.89996E-07 0.00000E+00
 -1         9 3.10588E-03-8.46063E-06 0.00000E+00
 -1        10 2.64169E-04-2.91806E-06 0.00000E+00
 -1        12 1.58395E-04 7.26246E-07 1.24077E-24
 -1        15 3.12554E-03-5.36353E-07 2.06795E-25
 -1        16 3.13436E-03-9.92072E-06 0.00000E+00
 -1        17 1.81928E-04-6.53146E-06 0.00000E+00
 -1        18 1.60643E-04 2.55630E-05 0.00000E+00
 -1        19 1.62091E-04 1.44777E-06 0.00000E+00
 -1        20 1.62231E-04-3.48915E-06 0.00000E+00
 -1        21 1.61446E-04-1.16844E-05 0.00000E+00
 -1        24 2.75384E-05-9.71139E-06 0.00000E+00
 -1        25 1.68322E-04 2.57587E-05 0.00000E+00
 -1        26 1.68975E-04 2.00539E-06 0.00000E+00
 -1        27 1.66999E-04-6.72015E-06 0.00000E+00
 -1        28 1.66662E-04-1.22570E-05 0.00000E+00
 -1        32 0.00000E+00 0.00000E+00 0.00000E+00
 -1        33 1.74873E-04 2.68473E-06 0.00000E+00
 -1        34 1.72946E-04-6.76458E-06 0.00000E+00
 -1        35 1.71178E-04-1.25693E-05 0.00000E+00
 -1        51 3.16084E-03-9.32657E-08 0.00000E+00
 -1        52 3.15888E-03-1.72310E-07 0.00000E+00
 -1        53 3.15618E-03-2.49385E-07 0.00000E+00
 -1        54 3.15293E-03-3.26545E-07 0.00000E+00
 -1        55 3.14930E-03-4.05296E-07 0.00000E+00
 -1        56 3.15827E-03 1.64493E-07 0.00000E+00
 -1        57 3.15357E-03 2.85512E-06-5.29396E-23
 -1        58 3.14808E-03 7.64649E-06 0.00000E+00
 -1        59 3.14200E-03 1.38969E-05 0.00000E+00
 -1        60 3.13569E-03 2.07637E-05 0.00000E+00
 -1        61 3.12948E-03 2.73501E-05 5.29396E-23
 -1        62 3.12371E-03 3.28027E-05 0.00000E+00
 -1        63 3.11866E-03 3.63511E-05-5.29396E-23
 -1        64 3.11452E-03 3.75117E-05 0.00000E+00
 -1        65 3.11138E-03 3.59796E-05 0.00000E+00
 -1        66 3.10922E-03 3.18558E-05-1.05879E-22
 -1        67 3.10791E-03 2.54378E-05 0.00000E+00
 -1        68 3.10721E-03 1.73689E-05-1.05879E-22
 -1        69 3.10685E-03 8.42502E-06-5.29396E-23
 -1        70 3.10648E-03-4.99127E-07-5.29396E-23
 -1        86 3.14676E-03-1.38459E-06 0.00000E+00
 -1        87 3.13595E-03-2.81796E-06 0.00000E+00
 -1        88 3.12237E-03-4.28133E-06-5.29396E-23
 -1        89 3.11055E-03-5.71791E-06-1.32349E-23
 -1        90 3.10398E-03-7.11306E-06 0.00000E+00
 -1       121 2.89721E-04-4.74299E-07 1.32349E-23
 -1       122 2.87512E-04-9.50685E-07 0.00000E+00
 -1       123 2.83838E-04-1.43121E-06 0.00000E+00
 -1       124 2.78711E-04-1.91797E-06-6.61744E-24
 -1       125 2.72148E-04-2.41273E-06 1.32349E-23
 -1       191 1.57197E-04 1.21072E-07 2.89513E-24
 -1       192 1.57300E-04 2.42137E-07-1.24077E-24
 -1       193 1.57471E-04 3.63194E-07-4.13590E-25
 -1       194 1.57711E-04 4.84236E-07-6.20385E-25
 -1       195 1.58018E-04 6.05256E-07-2.89513E-24
 -1       251 3.14471E-03 1.88886E-05-1.32349E-23
 -1       252 3.14285E-03 6.99266E-05 6.61744E-24
 -1       253 3.13969E-03 1.43410E-04 0.00000E+00
 -1       254 3.13556E-03 2.29604E-04 0.00000E+00
 -1       255 3.13146E-03 3.15272E-04 0.00000E+00
 -1       256 3.12841E-03 3.87191E-04 6.61744E-24
 -1       257 3.12666E-03 4.35919E-04 0.00000E+00
 -1       258 3.12592E-03 4.52553E-04 6.61744E-24
 -1       259 3.12519E-03 4.36562E-04 1.32349E-23
 -1       260 3.12346E-03 3.88230E-04 6.61744E-24
 -1       261 3.12040E-03 3.16271E-04 0.00000E+00
 -1       262 3.11625E-03 2.29943E-04-6.61744E-24
 -1       263 3.11200E-03 1.42458E-04 1.32349E-23
 -1       264 3.10870E-03 6.70497E-05-6.61744E-24
 -1       265 3.10673E-03 1.36113E-05 1.32349E-23
 -1       266 3.14216E-03-5.04987E-07 3.30872E-24
 -1       267 3.13883E-03-5.11828E-07-8.27181E-25
 -1       268 3.13551E-03-5.19185E-07 0.00000E+00
 -1       269 3.13218E-03-5.25012E-07 2.06795E-25
 -1       270 3.12886E-03-5.30804E-07 2.06795E-25
 -1       271 3.14337E-03 2.76486E-06 0.00000E+00
 -1       272 3.14113E-03 6.30580E-06-1.32349E-23
 -1       273 3.13885E-03 9.95962E-06 2.64698E-23
 -1       274 3.13659E-03 1.35400E-05-1.32349E-23
 -1       275 3.13443E-03 1.68647E-05 0.00000E+00
 -1       276 3.13243E-03 1.97523E-05-1.32349E-23
 -1       277 3.13066E-03 2.20264E-05 2.64698E-23
 -1       278 3.12919E-03 2.35164E-05-1.32349E-23
 -1       279 3.12808E-03 2.40597E-05 0.00000E+00
 -1       280 3.12738E-03 2.35034E-05 0.00000E+00
 -1       281 3.12714E-03 2.17054E-05-2.64698E-23
 -1       282 3.12742E-03 1.85364E-05 0.00000E+00
 -1       283 3.12824E-03 1.38808E-05 0.00000E+00
 -1       284 3.12966E-03 7.63905E-06-1.32349E-23
 -1       285 3.13168E-03-2.74311E-07 0.00000E+00
 -1       301 3.11031E-03-8.71634E-06 1.32349E-23
 -1       302 3.11376E-03-8.94792E-06 0.00000E+00
 -1       303 3.11705E-03-9.17732E-06-1.32349E-23
 -1       304 3.12103E-03-9.40907E-06 0.00000E+00
 -1       305 3.12653E-03-9.65039E-06 0.00000E+00
 -1       306 3.14510E-03-1.70862E-04-1.05879E-22
 -1       307 3.20729E-03-6.22247E-04-2.64698E-23
 -1       308 3.23961E-03-1.29160E-03 0.00000E+00
 -1       309 3.23578E-03-2.07579E-03 0.00000E+00
 -1       310 3.24140E-03-2.83112E-03 0.00000E+00
 -1       311 3.29112E-03-3.41592E-03-5.29396E-23
 -1       312 3.35209E-03-3.74064E-03 0.00000E+00
 -1       313 3.35236E-03-3.76512E-03 5.29396E-23
 -1       314 3.20145E-03-3.50196E-03-1.05879E-22
 -1       315 2.84811E-03-3.02784E-03 0.00000E+00
 -1       316 2.30762E-03-2.42859E-03 1.05879E-22
 -1       317 1.65244E-03-1.77881E-03 0.00000E+00
 -1       318 1.02085E-03-1.13896E-03 0.00000E+00
 -1       319 5.43929E-04-5.75621E-04 0.00000E+00
 -1       320 2.68992E-04-1.70758E-04 0.00000E+00
 -1       336 2.54615E-04-3.47413E-06 0.00000E+00
 -1       337 2.43333E-04-4.04786E-06 6.61744E-24
 -1       338 2.30368E-04-4.64074E-06 0.00000E+00
 -1       339 2.15772E-04-5.25282E-06 6.61744E-24
 -1       340 1.99604E-04-5.88827E-06 6.61744E-24
 -1       406 1.58840E-04 8.47195E-07-1.24077E-24
 -1       407 1.59353E-04 9.68074E-07 1.44757E-24
 -1       408 1.59935E-04 1.08884E-06-4.13590E-25
 -1       409 1.60586E-04 1.20935E-06 1.24077E-24
 -1       410 1.61305E-04 1.32936E-06 1.65436E-24
 -1       521 3.17359E-03-1.83216E-04-2.11758E-22
 -1       522 3.23283E-03-6.51842E-04 0.00000E+00
 -1       523 3.25888E-03-1.34051E-03-1.05879E-22
 -1       524 3.24918E-03-2.13762E-03-5.29396E-23
 -1       525 3.24993E-03-2.90381E-03 1.05879E-22
 -1       526 3.29581E-03-3.50214E-03 0.00000E+00
 -1       527 3.35497E-03-3.83409E-03-2.11758E-22
 -1       528 3.35219E-03-3.85738E-03 0.00000E+00
 -1       529 3.19023E-03-3.58324E-03 0.00000E+00
 -1       530 2.81774E-03-3.09667E-03-5.29396E-23
 -1       531 2.25228E-03-2.48640E-03 0.00000E+00
 -1       532 1.57461E-03-1.82944E-03 5.29396E-23
 -1       533 9.20316E-04-1.18180E-03 0.00000E+00
 -1       534 4.17920E-04-6.05250E-04 0.00000E+00
 -1       535 1.24363E-04-1.85756E-04 2.11758E-22
 -1       536 1.81358E-04 2.28481E-05 0.00000E+00
 -1       537 1.79944E-04 7.40584E-05 0.00000E+00
 -1       538 1.77773E-04 1.39157E-04-3.30872E-24
 -1       539 1.75218E-04 2.10126E-04-1.65436E-24
 -1       540 1.72914E-04 2.77191E-04 0.00000E+00
 -1       541 1.71403E-04 3.30595E-04 0.00000E+00
 -1       542 1.70689E-04 3.64503E-04-3.30872E-24
 -1       543 1.70492E-04 3.73202E-04-1.65436E-24
 -1       544 1.70215E-04 3.57394E-04-3.30872E-24
 -1       545 1.69310E-04 3.17960E-04 1.65436E-24
 -1       546 1.67665E-04 2.61923E-04 0.00000E+00
 -1       547 1.65465E-04 1.96408E-04-1.65436E-24
 -1       548 1.63291E-04 1.31327E-04 0.00000E+00
 -1       549 1.61716E-04 7.65879E-05 1.65436E-24
 -1       550 1.60883E-04 3.90749E-05 1.65436E-24
 -1       551 1.60941E-04-6.94808E-06 0.00000E+00
 -1       552 1.37080E-04-7.42704E-06 0.00000E+00
 -1       553 1.11070E-04-7.95560E-06 0.00000E+00
 -1       554 8.36502E-05-8.52137E-06 0.00000E+00
 -1       555 5.55606E-05-9.10645E-06 1.32349E-23
 -1       556 1.75608E-04 9.71284E-06 0.00000E+00
 -1       557 1.70529E-04 2.27999E-05 0.00000E+00
 -1       558 1.66578E-04 3.29832E-05 0.00000E+00
 -1       559 1.63642E-04 4.05343E-05 0.00000E+00
 -1       560 1.61610E-04 4.57247E-05 0.00000E+00
 -1       561 1.60371E-04 4.88283E-05 0.00000E+00
 -1       562 1.59818E-04 5.01197E-05 0.00000E+00
 -1       563 1.59842E-04 4.98741E-05 0.00000E+00
 -1       564 1.60340E-04 4.83675E-05 0.00000E+00
 -1       565 1.61205E-04 4.58763E-05 0.00000E+00
 -1       566 1.62334E-04 4.26772E-05 0.00000E+00
 -1       567 1.63623E-04 3.90474E-05 0.00000E+00
 -1       568 1.64969E-04 3.52639E-05-2.06795E-25
 -1       569 1.66269E-04 3.16040E-05 0.00000E+00
 -1       570 1.67421E-04 2.83446E-05 0.00000E+00
 -1       571 1.60731E-04 2.39989E-05-1.65436E-24
 -1       572 1.60821E-04 2.23777E-05-4.13590E-25
 -1       573 1.60911E-04 2.07127E-05-3.30872E-24
 -1       574 1.61001E-04 1.90178E-05-8.27181E-25
 -1       575 1.61092E-04 1.73070E-05 3.30872E-24
 -1       576 1.61182E-04 1.55944E-05 0.00000E+00
 -1       577 1.61273E-04 1.38938E-05 6.61744E-24
 -1       578 1.61364E-04 1.22194E-05 1.65436E-24
 -1       579 1.61454E-04 1.05853E-05 0.00000E+00
 -1       580 1.61545E-04 9.00538E-06 0.00000E+00
 -1       581 1.61636E-04 7.49379E-06-6.61744E-24
 -1       582 1.61727E-04 6.06451E-06 0.00000E+00
 -1       583 1.61818E-04 4.73157E-06 0.00000E+00
 -1       584 1.61909E-04 3.50884E-06 0.00000E+00
 -1       585 1.62000E-04 2.41004E-06 0.00000E+00
 -1       586 1.61877E-04 2.55976E-05-1.65436E-24
 -1       587 1.63076E-04 2.56316E-05 2.06795E-25
 -1       588 1.64281E-04 2.56652E-05-8.27181E-25
 -1       589 1.65530E-04 2.56982E-05 0.00000E+00
 -1       590 1.66865E-04 2.57302E-05 0.00000E+00
 -1       591 1.61173E-04 2.40767E-05 1.03398E-25
 -1       592 1.61707E-04 2.25698E-05 4.13590E-25
 -1       593 1.62246E-04 2.10479E-05 0.00000E+00
 -1       594 1.62788E-04 1.95157E-05 0.00000E+00
 -1       595 1.63333E-04 1.79777E-05-8.27181E-25
 -1       596 1.63878E-04 1.64387E-05 4.13590E-25
 -1       597 1.64421E-04 1.49032E-05 0.00000E+00
 -1       598 1.64962E-04 1.33759E-05 0.00000E+00
 -1       599 1.65497E-04 1.18613E-05 0.00000E+00
 -1       600 1.66027E-04 1.03641E-05 4.13590E-25
 -1       601 1.66548E-04 8.88890E-06-8.27181E-25
 -1       602 1.67059E-04 7.44029E-06 0.00000E+00
 -1       603 1.67558E-04 6.02289E-06 0.00000E+00
 -1       604 1.68045E-04 4.64139E-06 1.78522E-25
 -1       605 1.68517E-04 3.30035E-06 0.00000E+00
 -1       606 1.62104E-04 6.92897E-07 0.00000E+00
 -1       607 1.62114E-04 2.37797E-08-1.65436E-24
 -1       608 1.62123E-04-5.64615E-07 3.30872E-24
 -1       609 1.62131E-04-1.07796E-06 0.00000E+00
 -1       610 1.62140E-04-1.52199E-06 0.00000E+00
 -1       611 1.62148E-04-1.90248E-06 0.00000E+00
 -1       612 1.62156E-04-2.22523E-06 0.00000E+00
 -1       613 1.62165E-04-2.49604E-06 0.00000E+00
 -1       614 1.62173E-04-2.72072E-06 0.00000E+00
 -1       615 1.62182E-04-2.90507E-06 8.27181E-25
 -1       616 1.62190E-04-3.05489E-06 0.00000E+00
 -1       617 1.62198E-04-3.17598E-06-4.13590E-25
 -1       618 1.62207E-04-3.27415E-06-8.27181E-25
 -1       619 1.62215E-04-3.35520E-06 0.00000E+00
 -1       620 1.62223E-04-3.42494E-06 0.00000E+00
 -1       621 1.63012E-04 1.54110E-06 1.65436E-24
 -1       622 1.64059E-04 1.63468E-06 1.65436E-24
 -1       623 1.65205E-04 1.72814E-06 1.65436E-24
 -1       624 1.66423E-04 1.82135E-06-8.27181E-25
 -1       625 1.67689E-04 1.91433E-06 0.00000E+00
 -1       626 1.62476E-04 7.25569E-07-3.30872E-24
 -1       627 1.62838E-04 6.83794E-08-3.30872E-24
 -1       628 1.63178E-04-5.31378E-07 3.30872E-24
 -1       629 1.63500E-04-1.08162E-06 0.00000E+00
 -1       630 1.63807E-04-1.59029E-06-3.30872E-24
 -1       631 1.64101E-04-2.06536E-06 0.00000E+00
 -1       632 1.64385E-04-2.51478E-06 3.30872E-24
 -1       633 1.64663E-04-2.94652E-06-1.65436E-24
 -1       634 1.64937E-04-3.36855E-06 3.30872E-24
 -1       635 1.65210E-04-3.78883E-06 0.00000E+00
 -1       636 1.65486E-04-4.21532E-06-3.30872E-24
 -1       637 1.65767E-04-4.65600E-06 0.00000E+00
 -1       638 1.66056E-04-5.11883E-06 1.65436E-24
 -1       639 1.66356E-04-5.61179E-06 8.27181E-25
 -1       640 1.66670E-04-6.14287E-06 3.30872E-24
 -1       656 1.62517E-04-4.01445E-06 0.00000E+00
 -1       657 1.63199E-04-4.56101E-06 0.00000E+00
 -1       658 1.64143E-04-5.10619E-06 0.00000E+00
 -1       659 1.65206E-04-5.65102E-06-6.61744E-24
 -1       660 1.66215E-04-6.19750E-06 0.00000E+00
 -1       661 1.62339E-04-3.59331E-06 8.27181E-25
 -1       662 1.62480E-04-3.77898E-06-8.27181E-25
 -1       663 1.62651E-04-4.04183E-06 0.00000E+00
 -1       664 1.62848E-04-4.37630E-06 0.00000E+00
 -1       665 1.63071E-04-4.77747E-06 0.00000E+00
 -1       666 1.63317E-04-5.24030E-06-8.27181E-25
 -1       667 1.63584E-04-5.76001E-06 0.00000E+00
 -1       668 1.63871E-04-6.33188E-06-8.27181E-25
 -1       669 1.64176E-04-6.95133E-06-1.65436E-24
 -1       670 1.64496E-04-7.61388E-06 0.00000E+00
 -1       671 1.64831E-04-8.31515E-06 0.00000E+00
 -1       672 1.65179E-04-9.05088E-06 0.00000E+00
 -1       673 1.65539E-04-9.81682E-06 0.00000E+00
 -1       674 1.65907E-04-1.06091E-05-4.13590E-25
 -1       675 1.66283E-04-1.14232E-05 0.00000E+00
 -1       676 1.62318E-04-1.17804E-05 0.00000E+00
 -1       677 1.63190E-04-1.18763E-05-1.65436E-24
 -1       678 1.64061E-04-1.19722E-05 0.00000E+00
 -1       679 1.64930E-04-1.20678E-05-1.65436E-24
 -1       680 1.65797E-04-1.21634E-05 0.00000E+00
 -1       771 1.68915E-05 1.40862E-05 0.00000E+00
 -1       772 7.92977E-06 3.36008E-05-5.29396E-23
 -1       773 5.74242E-07 4.90460E-05-5.29396E-23
 -1       774-5.28583E-06 6.06577E-05 5.29396E-23
 -1       775-9.75860E-06 6.86807E-05 0.00000E+00
 -1       776-1.29566E-05 7.33733E-05 2.64698E-23
 -1       777-1.49921E-05 7.50023E-05 5.29396E-23
 -1       778-1.59797E-05 7.38457E-05-2.64698E-23
 -1       779-1.60336E-05 7.01885E-05 5.29396E-23
 -1       780-1.52696E-05 6.43251E-05-2.64698E-23
 -1       781-1.38028E-05 5.65554E-05 0.00000E+00
 -1       782-1.17497E-05 4.71866E-05 2.64698E-23
 -1       783-9.22623E-06 3.65294E-05 5.29396E-23
 -1       784-6.34912E-06 2.49000E-05 0.00000E+00
 -1       785-3.23453E-06 1.26167E-05 0.00000E+00
 -1       786 1.68359E-04 2.40530E-05 2.58494E-26
 -1       787 1.68399E-04 2.23960E-05 0.00000E+00
 -1       788 1.68440E-04 2.07797E-05 0.00000E+00
 -1       789 1.68480E-04 1.91965E-05 4.13590E-25
 -1       790 1.68521E-04 1.76416E-05 1.65436E-24
 -1       791 1.68562E-04 1.61107E-05-8.27181E-25
 -1       792 1.68603E-04 1.46013E-05 0.00000E+00
 -1       793 1.68644E-04 1.31113E-05 8.27181E-25
 -1       794 1.68686E-04 1.16404E-05 0.00000E+00
 -1       795 1.68727E-04 1.01882E-05-8.27181E-25
 -1       796 1.68768E-04 8.75617E-06 0.00000E+00
 -1       797 1.68809E-04 7.34585E-06-8.27181E-25
 -1       798 1.68851E-04 5.96085E-06 1.65436E-24
 -1       799 1.68892E-04 4.60481E-06 0.00000E+00
 -1       800 1.68933E-04 3.28415E-06 1.65436E-24
 -1       801 1.30603E-04 2.30092E-05 0.00000E+00
 -1       802 1.62416E-05 1.46427E-05 0.00000E+00
 -1       803-8.26997E-05 7.60794E-06 5.29396E-23
 -1       804-7.56578E-05 5.23515E-06 0.00000E+00
 -1       805-2.56258E-05 2.19027E-06 0.00000E+00
 -1       806 1.68857E-04 2.39918E-05 1.65436E-24
 -1       807 1.69379E-04 2.22521E-05-8.27181E-25
 -1       808 1.69887E-04 2.05440E-05 0.00000E+00
 -1       809 1.70383E-04 1.88708E-05 0.00000E+00
 -1       810 1.70863E-04 1.72357E-05 3.30872E-24
 -1       811 1.71329E-04 1.56421E-05 1.65436E-24
 -1       812 1.71777E-04 1.40931E-05 1.65436E-24
 -1       813 1.72208E-04 1.25919E-05 0.00000E+00
 -1       814 1.72620E-04 1.11417E-05-1.65436E-24
 -1       815 1.73012E-04 9.74565E-06 1.65436E-24
 -1       816 1.73382E-04 8.40701E-06 1.65436E-24
 -1       817 1.73729E-04 7.12888E-06-8.27181E-25
 -1       818 1.74053E-04 5.91445E-06-3.30872E-24
 -1       819 1.74352E-04 4.76687E-06 0.00000E+00
 -1       820 1.74625E-04 3.68927E-06 1.65436E-24
 -1       821 1.68858E-04 5.72446E-07 8.27181E-25
 -1       822 1.68733E-04-1.20810E-06 1.65436E-24
 -1       823 1.68609E-04-3.15952E-06 3.30872E-24
 -1       824 1.68483E-04-5.10409E-06 0.00000E+00
 -1       825 1.68358E-04-6.86602E-06 3.30872E-24
 -1       826 1.68232E-04-8.27049E-06 1.65436E-24
 -1       827 1.68107E-04-9.23263E-06 0.00000E+00
 -1       828 1.67983E-04-9.67012E-06 0.00000E+00
 -1       829 1.67858E-04-9.63260E-06 3.30872E-24
 -1       830 1.67734E-04-9.17240E-06 1.65436E-24
 -1       831 1.67609E-04-8.44821E-06 3.30872E-24
 -1       832 1.67485E-04-7.62019E-06 1.65436E-24
 -1       833 1.67361E-04-6.87468E-06-3.30872E-24
 -1       834 1.67238E-04-6.39753E-06 0.00000E+00
 -1       835 1.67115E-04-6.30724E-06 8.27181E-25
 -1       836 1.70149E-04 2.11817E-06 0.00000E+00
 -1       837 1.71207E-04 2.23370E-06-1.65436E-24
 -1       838 1.72179E-04 2.34914E-06 3.30872E-24
 -1       839 1.73095E-04 2.46390E-06 8.27181E-25
 -1       840 1.73983E-04 2.57851E-06 0.00000E+00
 -1       856 1.66981E-04-7.31820E-06 0.00000E+00
 -1       857 1.66961E-04-7.79077E-06 0.00000E+00
 -1       858 1.66940E-04-8.15741E-06 0.00000E+00
 -1       859 1.66919E-04-8.43772E-06 0.00000E+00
 -1       860 1.66898E-04-8.65141E-06 4.13590E-25
 -1       861 1.66877E-04-8.81820E-06 0.00000E+00
 -1       862 1.66856E-04-8.95789E-06 0.00000E+00
 -1       863 1.66834E-04-9.09027E-06 4.13590E-25
 -1       864 1.66813E-04-9.23515E-06 8.27181E-25
 -1       865 1.66792E-04-9.41232E-06-4.13590E-25
 -1       866 1.66771E-04-9.64156E-06 0.00000E+00
 -1       867 1.66749E-04-9.94260E-06 4.13590E-25
 -1       868 1.66728E-04-1.03351E-05 0.00000E+00
 -1       869 1.66706E-04-1.08387E-05 0.00000E+00
 -1       870 1.66685E-04-1.14728E-05 0.00000E+00
 -1       871 1.67859E-04-6.72358E-06 4.13590E-25
 -1       872 1.68853E-04-6.73003E-06 0.00000E+00
 -1       873 1.69920E-04-6.73708E-06 0.00000E+00
 -1       874 1.70999E-04-6.74481E-06-3.61892E-25
 -1       875 1.72028E-04-6.75308E-06 1.24077E-24
 -1       876 1.67340E-04-7.30509E-06 3.30872E-24
 -1       877 1.67661E-04-7.82847E-06-1.65436E-24
 -1       878 1.67961E-04-8.29767E-06 0.00000E+00
 -1       879 1.68244E-04-8.71951E-06-1.65436E-24
 -1       880 1.68512E-04-9.10084E-06 3.30872E-24
 -1       881 1.68768E-04-9.44848E-06-1.65436E-24
 -1       882 1.69013E-04-9.76924E-06 0.00000E+00
 -1       883 1.69251E-04-1.00699E-05 0.00000E+00
 -1       884 1.69484E-04-1.03573E-05 3.30872E-24
 -1       885 1.69714E-04-1.06381E-05 0.00000E+00
 -1       886 1.69945E-04-1.09192E-05-3.30872E-24
 -1       887 1.70178E-04-1.12074E-05 0.00000E+00
 -1       888 1.70416E-04-1.15094E-05 0.00000E+00
 -1       889 1.70661E-04-1.18323E-05 1.65436E-24
 -1       890 1.70916E-04-1.21827E-05 0.00000E+00
 -1       891 1.67547E-04-1.23094E-05 1.65436E-24
 -1       892 1.68411E-04-1.23619E-05-4.13590E-25
 -1       893 1.69229E-04-1.24144E-05 8.27181E-25
 -1       894 1.69979E-04-1.24667E-05 4.13590E-25
 -1       895 1.70636E-04-1.25188E-05 0.00000E+00
 -1       956 1.74754E-04 1.83453E-06 0.00000E+00
 -1       957 1.74634E-04 1.06493E-06 0.00000E+00
 -1       958 1.74513E-04 3.66564E-07 3.30872E-24
 -1       959 1.74393E-04-2.70492E-07 0.00000E+00
 -1       960 1.74272E-04-8.56177E-07 0.00000E+00
 -1       961 1.74151E-04-1.40047E-06-1.65436E-24
 -1       962 1.74030E-04-1.91334E-06-3.30872E-24
 -1       963 1.73909E-04-2.40481E-06 0.00000E+00
 -1       964 1.73789E-04-2.88487E-06 3.30872E-24
 -1       965 1.73668E-04-3.36350E-06 0.00000E+00
 -1       966 1.73547E-04-3.85072E-06 0.00000E+00
 -1       967 1.73426E-04-4.35653E-06-1.65436E-24
 -1       968 1.73306E-04-4.89090E-06 3.30872E-24
 -1       969 1.73185E-04-5.46381E-06 0.00000E+00
 -1       970 1.73065E-04-6.08518E-06 0.00000E+00
 -1       971 1.72837E-04-7.43904E-06-3.30872E-24
 -1       972 1.72726E-04-8.02464E-06 1.65436E-24
 -1       973 1.72615E-04-8.53119E-06 0.00000E+00
 -1       974 1.72504E-04-8.96887E-06 0.00000E+00
 -1       975 1.72393E-04-9.34786E-06 0.00000E+00
 -1       976 1.72281E-04-9.67838E-06 0.00000E+00
 -1       977 1.72170E-04-9.97066E-06 0.00000E+00
 -1       978 1.72059E-04-1.02349E-05-1.65436E-24
 -1       979 1.71948E-04-1.04814E-05-3.30872E-24
 -1       980 1.71837E-04-1.07204E-05 0.00000E+00
 -1       981 1.71726E-04-1.09621E-05 0.00000E+00
 -1       982 1.71615E-04-1.12167E-05-1.65436E-24
 -1       983 1.71504E-04-1.14946E-05-3.30872E-24
 -1       984 1.71394E-04-1.18058E-05 0.00000E+00
 -1       985 1.71284E-04-1.21607E-05 0.00000E+00
 -3
    1PSTEP                        38          19           1          
  100CL  119 6.13082E-01         409                     0   19           1
 -4  STRESS      6    1
 -5  SXX         1    4    1    1
 -5  SYY         1    4    2    2
 -5  SZZ         1    4    3    3
 -5  SXY         1    4    1    2
 -5  SYZ         1    4    2    3
 -5  SZX         1    4    3    1
 -1         1-4.19682E+06-1.57428E+06-9.24281E+05-1.55280E+06 1.04774E-09-1.10042E-07
 -1         2-1.86378E+03-3.88143E+06-4.05912E+03-1.22150E+05-1.39977E-09-1.16461E-09
 -1         3-1.00032E+03-1.34878E+06 3.13232E+02-1.57267E+03-4.94300E-10 2.65900E-08
 -1         5-3.39705E+01 3.46557E+05 8.91040E+00-7.22783E-01-3.63633E-10 3.97667E-08
 -1         8-6.33323E+05-2.04416E+05-5.51492E+04-2.48661E+05 1.13687E-10 1.59682E-07
 -1         9 1.37735E+07-6.17658E+05 2.29456E+06-1.61528E+06 4.50877E-08-3.14089E-08
 -1        10-1.89299E+03-1.40541E+06-4.00674E+03-1.06518E+04-1.12486E-08-2.49572E-08
 -1        12-3.03776E+01 3.46576E+05 2.90663E+02-5.13434E+00-4.52772E-10 1.61272E-08
 -1        15 1.20377E+03 6.61537E+02 3.89118E+03 1.73008E+00 3.29408E-11 5.57009E-07
 -1        16 2.75368E+07-2.38437E+05 3.73418E+06-2.38842E+06 5.45212E-09-1.14863E-07
 -1        17 9.96307E+06 8.13958E+06 2.92510E+06 7.47805E+06-1.28057E-09 1.54832E-09
 -1        18 8.78063E+04 1.90154E+04-6.11562E+03-1.04600E+05 1.24774E-08-4.92446E-09
 -1        19 1.10608E+05 1.27427E+05-8.83149E+02 2.04272E+04 1.01918E-09-2.19479E-09
 -1        20-6.99305E+04-5.20008E+05-1.16380E+05 2.53017E+04-8.20667E-10-4.62023E-09
 -1        21-4.30586E+01-2.73741E+05-8.59477E+02 1.63738E+02 8.91374E-09 2.91578E-09
 -1        24 1.65552E+07 1.47132E+07 4.53093E+06 1.38174E+07-1.68666E-07-4.56348E-08
 -1        25 3.69670E+04-4.99722E+04 1.80247E+04-4.61733E+05-2.65463E-09 8.57453E-09
 -1        26-4.96872E+04 8.24734E+04-2.24120E+04-5.86434E+01 5.97720E-10 3.70146E-09
 -1        27-7.10922E+04-2.81611E+05-1.03534E+05 6.27991E+04 3.89582E-09 5.56823E-09
 -1        28 2.07161E+04-7.83681E+04 1.56070E+04 1.99139E+04-2.74559E-09 3.87054E-10
 -1        32-1.55450E+06-2.86951E+06-1.69818E+05 1.41749E+05-3.92465E-08-8.19182E-09
 -1        33-1.63168E+05 8.33884E+04 2.92783E+04-3.55088E+04-1.93844E-09-6.88002E-09
 -1        34-2.04416E+05-2.23100E+04 6.09558E+02 6.79938E+04-3.43026E-09-1.25248E-08
 -1        35-2.12768E+04-3.10918E+04-1.23506E+03 4.76469E+04-1.83986E-09 2.61571E-09
 -1        51 4.71423E+04-2.01253E+05 1.02044E+05-6.07688E+05-1.01863E-10 1.11337E-07
 -1        52 1.70055E+04-1.84884E+05 5.51415E+04-7.08442E+05 8.03993E-10-6.53308E-08
 -1        53 4.75537E+03-1.99555E+05 3.12715E+04-6.05450E+05 7.71252E-10-1.35697E-08
 -1        54 1.08378E+04-1.96118E+05 3.08687E+04-7.10794E+05 7.27596E-12-4.21533E-08
 -1        55 2.29381E+04-2.05253E+05 4.36009E+04-6.05118E+05 1.20053E-09 1.92744E-07
 -1        56-7.92829E+06-9.01964E+05-6.84318E+05-3.10479E+06-1.54396E-08-1.76078E-08
 -1        57-8.34601E+06-1.37325E+06-4.60657E+05-2.90810E+06 3.73220E-08 1.17296E-07
 -1        58-8.02904E+06-1.15394E+06-1.60732E+05-3.10096E+06-7.53789E-09-2.17115E-07
 -1        59-8.23539E+06-1.07280E+06-9.56622E+04-2.91062E+06-4.06571E-08-3.23311E-07
 -1        60-8.03854E+06-1.19372E+06-3.72936E+04-3.10592E+06-3.27009E-08-1.94599E-07
 -1        61-8.20405E+06-1.04436E+06-2.09652E+04-2.92471E+06 6.23309E-08 1.80362E-07
 -1        62-8.05931E+06-1.18174E+06-1.06700E+04-3.08668E+06 1.41508E-08-2.46157E-07
 -1        63-8.14443E+06-1.09236E+06-7.60513E+03-2.98179E+06-2.30393E-08-2.31141E-07
 -1        64-8.09567E+06-1.14724E+06-1.06667E+04-3.04708E+06 5.69344E-09 1.23782E-07
 -1        65-8.07304E+06-1.16927E+06-1.85762E+04-3.06399E+06-5.65942E-08-3.09736E-07
 -1        66-8.13023E+06-1.10531E+06-3.49010E+04-3.00409E+06 7.50515E-09 2.77748E-07
 -1        67-8.03634E+06-1.26352E+06-8.69792E+04-3.13196E+06-1.41572E-08 1.32160E-07
 -1        68-8.13507E+06-1.05240E+06-1.46440E+05-2.98056E+06-4.88581E-09 9.02728E-08
 -1        69-8.15675E+06-1.52427E+06-4.20689E+05-3.11959E+06-4.04343E-08-3.52360E-07
 -1        70-8.01365E+06-8.50166E+05-6.23528E+05-3.01569E+06-1.15542E-08-1.82103E-07
 -1        86-3.19393E+02-3.95001E+06-2.00708E+04 6.10611E+04 1.26374E-08-7.36750E-08
 -1        87-1.05955E+04-3.91369E+06-2.61224E+04-1.67936E+05 1.98502E-08-2.48713E-07
 -1        88 1.17946E+04-3.92114E+06-4.72861E+04 1.06873E+05 1.46665E-08-4.17876E-08
 -1        89-8.51175E+04-3.93627E+06-1.20682E+05-1.25930E+05 1.98124E-08-5.54396E-07
 -1        90 7.25071E+04-3.92620E+06-1.88841E+05 1.90401E+04-1.65892E-09-1.55736E-07
 -1       121-1.37821E+03-1.35212E+06-3.23991E+02 7.80988E+02 1.24200E-09 1.55851E-08
 -1       122-8.59560E+02-1.34879E+06 6.07660E+02-3.14699E+03-4.45540E-09-3.27964E-09
 -1       123-1.41336E+03-1.35222E+06 3.17101E+02 2.33410E+03 3.47688E-09-1.47375E-08
 -1       124 4.95622E+02-1.34829E+06 2.38589E+03-6.64937E+03-8.21410E-09 9.98261E-09
 -1       125-2.14451E+03-1.35296E+06 2.85462E+03 4.25804E+03 5.76256E-09 2.50839E-08
 -1       191-3.59459E+01 3.46580E+05 9.25737E+00 3.70255E-01-3.61977E-10 1.12304E-08
 -1       192-3.48070E+01 3.46557E+05 1.89333E+01-2.54713E+00-5.09697E-10-1.43373E-08
 -1       193-3.81603E+01 3.46580E+05 3.38557E+01 2.23199E+00-7.18916E-10-3.95084E-09
 -1       194-3.74942E+01 3.46560E+05 7.17784E+01-5.86804E+00-3.08531E-10-1.04501E-09
 -1       195-4.24130E+01 3.46578E+05 1.39041E+02 3.75642E+00-9.51808E-10 3.69982E-09
 -1       251-2.04580E+06-3.30483E+04-2.00665E+05-1.34899E+05 1.70985E-10 3.34894E-07
 -1       252-1.09217E+06 4.15476E+04 5.15762E+04 4.17676E+05-1.00226E-09-5.26661E-08
 -1       253-1.62757E+06-1.47466E+04-3.53552E+04-2.78004E+05-1.31295E-08-1.05694E-07
 -1       254-1.54021E+06 6.14156E+04 8.76246E+03 5.54065E+05 7.30665E-09-2.89271E-07
 -1       255-1.64215E+06-1.66955E+04-1.99026E+04-2.75268E+05 1.16815E-08-1.94632E-08
 -1       256-1.05550E+06 4.98803E+04 1.07540E+05 4.06018E+05 1.56278E-08 1.74967E-07
 -1       257-2.06482E+06-4.18849E+04-1.06861E+05-1.25826E+05 1.55906E-08 2.17981E-07
 -1       258-5.77992E+05 3.76838E+04 1.97891E+05 6.06062E+03 5.18767E-08 7.67036E-08
 -1       259-2.07268E+06-4.27020E+04-1.07143E+05 1.22141E+05-2.82598E-08-2.02207E-07
 -1       260-1.03697E+06 5.14997E+04 1.15115E+05-3.97508E+05 9.68885E-09-1.15726E-07
 -1       261-1.65099E+06-1.89744E+04-1.42795E+04 2.75016E+05 5.54646E-08 1.12912E-07
 -1       262-1.53589E+06 7.13253E+04 2.76578E+04-5.51984E+05-4.92068E-08-7.02087E-08
 -1       263-1.62293E+06-2.24309E+04-3.59609E+03 2.80914E+05-6.02176E-09-6.44695E-09
 -1       264-1.08510E+06 1.00327E+05 1.30017E+05-4.24128E+05 1.27447E-07 1.75460E-07
 -1       265-2.05930E+06-8.24599E+04-8.24284E+04 1.43225E+05 5.04733E-08 2.71648E-08
 -1       266-2.17924E+04-1.01905E+04 5.11293E+04-3.70174E+01 4.18368E-10 6.60382E-08
 -1       267 2.52633E+04 1.18767E+04 3.61384E+04 4.27120E+01 5.41149E-11 1.21124E-07
 -1       268-3.38776E+03-1.68210E+03 1.34324E+04-5.44218E+00 7.45786E-11 2.22484E-08
 -1       269 3.99995E+03 2.01308E+03 8.73090E+03 6.33940E+00 3.29464E-10-1.01684E-07
 -1       270-6.00397E+02-3.30766E+02 4.21453E+03-8.60300E-01-4.45880E-10-1.97655E-08
 -1       271-1.97106E+06-2.35186E+05-1.46480E+05-7.51643E+05-8.25094E-09-2.05917E-07
 -1       272-2.08814E+06-2.78437E+05-9.42886E+04-6.78466E+05 1.77915E-08-1.63738E-07
 -1       273-1.99712E+06-2.73279E+05-3.45515E+04-7.46848E+05 1.58348E-08-1.90466E-08
 -1       274-2.05750E+06-2.31772E+05-1.93958E+04-6.86024E+05 2.70697E-08 8.75480E-08
 -1       275-2.00086E+06-2.77248E+05-8.04860E+03-7.45746E+05 5.38039E-08 1.48204E-07
 -1       276-2.05153E+06-2.28210E+05-4.21845E+03-6.88399E+05-3.76890E-08-3.56717E-07
 -1       277-2.00247E+06-2.76702E+05-2.15447E+03-7.44264E+05 1.30058E-08-1.10595E-08
 -1       278-2.04719E+06-2.30888E+05-1.30710E+03-6.91482E+05 1.90930E-08 5.27538E-07
 -1       279-2.00432E+06-2.75080E+05-1.61829E+03-7.42052E+05-2.61152E-08-9.60817E-08
 -1       280-2.04205E+06-2.35653E+05-2.27111E+03-6.95777E+05 2.13740E-08-2.08423E-07
 -1       281-2.00652E+06-2.72642E+05-4.74354E+03-7.39196E+05 3.24508E-09-2.00704E-07
 -1       282-2.03764E+06-2.44090E+05-1.02119E+04-7.00964E+05 1.03682E-08 3.88405E-07
 -1       283-2.00765E+06-2.67610E+05-1.90632E+04-7.35995E+05 8.11633E-09 1.97216E-07
 -1       284-2.04652E+06-2.75723E+05-5.02736E+04-7.03996E+05 4.98185E-08-2.28307E-07
 -1       285-1.99703E+06-2.44154E+05-7.92607E+04-7.34606E+05 4.15821E-09-1.06247E-07
 -1       301 7.64171E+03-6.30996E+05 1.25848E+05-1.00600E+06 9.38599E-10-1.35624E-07
 -1       302 8.83637E+03-5.98386E+05 7.74121E+04-1.47190E+06-1.61526E-09 4.92530E-08
 -1       303-7.81302E+03-6.19394E+05 4.72673E+04-1.00407E+06 4.29281E-10 2.42784E-07
 -1       304-5.32000E+03-5.90256E+05 5.42943E+04-1.47009E+06 6.40284E-10 1.09940E-07
 -1       305-1.34961E+04-6.06179E+05 7.25025E+04-1.00749E+06 2.18279E-11 3.79659E-08
 -1       306-3.61191E+07-6.50695E+06-9.94758E+06-2.35563E+05-1.66707E-07-3.71365E-08
 -1       307 3.38004E+07 4.87428E+06 7.24953E+06-1.56987E+07-6.53497E-07-3.92611E-07
 -1       308-6.41384E+06-1.92432E+06-8.08389E+05 6.11486E+06 2.37575E-07-1.27271E-07
 -1       309-7.68252E+05 1.18753E+07 3.07882E+06-2.12894E+07 2.26355E-07-4.58385E-08
 -1       310-1.28799E+07-2.78407E+06-2.50597E+06 6.67357E+06-3.99770E-07-2.80939E-07
 -1       311 4.71076E+07 1.26683E+06 9.03437E+06-9.62706E+06 3.14118E-07-1.00350E-07
 -1       312-3.79131E+07-6.40408E+06-9.76266E+06-5.49489E+06 1.31549E-08 1.57757E-07
 -1       313 5.58033E+07 1.84949E+07 1.32659E+07 2.82934E+07-2.58384E-07 4.70667E-07
 -1       314-1.93372E+07-2.12581E+07-8.79803E+06-1.54652E+07 2.80561E-07 1.79221E-07
 -1       315 1.68949E+06 3.53694E+07 7.20066E+06 1.36570E+07 1.13811E-07-1.01543E-06
 -1       316 2.17980E+06-1.07708E+07-7.55413E+05-1.61698E+06 4.55853E-07-4.41447E-07
 -1       317-1.47775E+07 2.58409E+07 3.05731E+06-9.28603E+06 1.18904E-07-9.88166E-07
 -1       318-4.05743E+05-1.49162E+07-2.58274E+06-3.80064E+06-1.34791E-06 1.06869E-07
 -1       319 1.13981E+07 3.88547E+07 9.04891E+06 2.03085E+07-9.62464E-07 1.72033E-07
 -1       320-2.56592E+07-2.09658E+07-1.11447E+07-1.59343E+07-3.94182E-07-3.03844E-08
 -1       336-2.03881E+02-1.46362E+06-1.29189E+04 6.29832E+03-2.23290E-08-4.33283E-09
 -1       337-5.19298E+03-1.46437E+06-1.81986E+04-1.53881E+04-4.01651E-08-2.08165E-08
 -1       338 9.37334E+02-1.46283E+06-2.90477E+04 8.94147E+03-2.81934E-08-8.15271E-09
 -1       339-3.17335E+04-1.48178E+06-6.69507E+04-2.06223E+04-5.14538E-08 5.92263E-09
 -1       340 2.12749E+04-1.44753E+06-1.05259E+05 1.14138E+04-3.43352E-08 2.75868E-08
 -1       406-9.53118E+00 3.46565E+05 5.72409E+02 1.55765E+00-1.27645E-09 1.18634E-08
 -1       407 1.69867E+02 3.46676E+05 1.21961E+03 1.69026E+01-1.98881E-10-6.20548E-09
 -1       408 5.96496E+02 3.46476E+05 2.43397E+03-1.88448E+01-1.63959E-09-1.93359E-09
 -1       409 2.60569E+03 3.47454E+05 5.48242E+03 1.94500E+02-2.60115E-10-1.02300E-08
 -1       410 7.54089E+03 3.45780E+05 1.11909E+04-1.85790E+02-2.04454E-09-1.57834E-08
 -1       521-3.60739E+07-9.06339E+06-1.18916E+07 3.69722E+05-7.84639E-08-1.00699E-07
 -1       522 3.21221E+07 6.32525E+06 6.79307E+06-2.13789E+07-5.33386E-07-3.98839E-07
 -1       523-7.21700E+06-2.23882E+06-6.48773E+05 6.48266E+06 2.47383E-07-2.70578E-07
 -1       524-8.55426E+06 1.65039E+07 3.02284E+06-2.56052E+07 8.72620E-07-3.02382E-07
 -1       525-1.33535E+07-3.57150E+06-2.54478E+06 6.83184E+06 6.45639E-07-2.22033E-07
 -1       526 4.88499E+07 1.02383E+06 8.82278E+06-1.43178E+07 5.51343E-07 1.85682E-08
 -1       527-3.82697E+07-9.38926E+06-1.14903E+07-4.75589E+06 5.08386E-07 5.62432E-08
 -1       528 5.92552E+07 1.96370E+07 1.29243E+07 3.18255E+07-2.92552E-07-4.10946E-08
 -1       529-2.00614E+07-2.33520E+07-1.02153E+07-1.40716E+07-3.28117E-07 6.75209E-08
 -1       530-3.68932E+06 4.11921E+07 7.09598E+06 1.14680E+07-9.16625E-08 5.36791E-07
 -1       531 1.92618E+06-1.18911E+07-5.65315E+05-1.71032E+06-7.20014E-07 2.55881E-07
 -1       532-1.94787E+07 2.72501E+07 3.00738E+06-1.65726E+07 5.73462E-07-8.39354E-07
 -1       533-6.75508E+05-1.55502E+07-2.56182E+06-3.41783E+06-3.80271E-07-1.07661E-06
 -1       534 6.39435E+06 4.46056E+07 8.57790E+06 1.96508E+07-5.36820E-08 8.61997E-07
 -1       535-2.63005E+07-2.34156E+07-1.32125E+07-1.45182E+07 1.08266E-07 5.04719E-07
 -1       536-6.14527E+05-2.58343E+04-5.42198E+04-4.30590E+04-1.70940E-09 4.27658E-08
 -1       537-1.45844E+05 2.28911E+04 4.79704E+04 1.01429E+05-9.29642E-08 9.44128E-08
 -1       538-3.89390E+05 3.84028E+03-2.28066E+03-6.07320E+04 7.41863E-09 8.65459E-08
 -1       539-3.00265E+05 1.23799E+02 1.48189E+04 1.15548E+05 1.28273E-07 7.55397E-08
 -1       540-4.64054E+05 2.03586E+02-1.65712E+04-5.75091E+04 1.03682E-10 9.37917E-08
 -1       541 5.29092E+03 1.19773E+04 7.69684E+04 7.89333E+04-2.34641E-08 7.80284E-08
 -1       542-6.86768E+05-1.47954E+04-6.21550E+04-2.35799E+04-1.55160E-09 3.56220E-08
 -1       543 1.94886E+05 2.00176E+04 1.15287E+05-1.13879E+04 1.81149E-09 1.86719E-09
 -1       544-6.48592E+05-1.20062E+04-5.48186E+04 3.23938E+04-4.39513E-08-3.09976E-08
 -1       545-8.30372E+04 6.55253E+03 5.73577E+04-9.31916E+04-1.71773E-08-6.66537E-08
 -1       546-4.16269E+05 4.79434E+03-9.32955E+03 5.80168E+04 3.91296E-08-7.96906E-08
 -1       547-3.13220E+05-4.61844E+03 5.62854E+03-1.17996E+05-1.02361E-07-8.50063E-08
 -1       548-4.24556E+05 4.26833E+03-2.04147E+04 5.76260E+04-8.92926E-08-8.50791E-08
 -1       549-6.67637E+04 6.18936E+03 3.68338E+04-9.05958E+04-5.36235E-08-6.03322E-08
 -1       550-6.56109E+05-1.15072E+04-1.05756E+05 3.01681E+04 5.22959E-09-1.99816E-08
 -1       551 2.05522E+04-5.82223E+05-2.59939E+04-9.63941E+05-8.64384E-08-9.60426E-09
 -1       552 5.64680E+04-6.14262E+05 1.87079E+03-1.37275E+06-6.18165E-08 3.91228E-08
 -1       553 4.54530E+04-6.13918E+05 2.60892E+04-9.58664E+05-1.00234E-07 2.86382E-08
 -1       554 9.18743E+04-6.23432E+05 7.27285E+04-1.37527E+06-6.53090E-08 2.49856E-08
 -1       555 7.48960E+04-6.38551E+05 1.36338E+05-9.57829E+05-1.07611E-07-7.74344E-09
 -1       556 1.88577E+05-3.32709E+05 5.78363E+03-3.58434E+05-2.27155E-08-1.60944E-08
 -1       557 2.96896E+05-4.23993E+05 5.06010E+03-4.66286E+05 7.85803E-10 6.79029E-09
 -1       558 1.73693E+05-3.24446E+05-1.10518E+03-3.62822E+05-1.94996E-08-7.23230E-09
 -1       559 2.80328E+05-4.22641E+05 4.07888E+02-4.81859E+05 1.05647E-08-6.37374E-09
 -1       560 1.62240E+05-3.17230E+05-1.67233E+03-3.70928E+05-1.19326E-09-2.91038E-10
 -1       561 2.66271E+05-4.16902E+05-1.84867E+02-4.91463E+05-1.32859E-08-1.78807E-09
 -1       562 1.53346E+05-3.11717E+05-1.04360E+03-3.77312E+05-1.41154E-09-1.38061E-08
 -1       563 2.55823E+05-4.12327E+05-6.52174E+01-4.98260E+05 5.10045E-09-6.51971E-09
 -1       564 1.47118E+05-3.07840E+05-4.13420E+02-3.81709E+05 7.39237E-09 1.53250E-09
 -1       565 2.49052E+05-4.09379E+05 2.35329E+01-5.02576E+05 1.71422E-08-8.52378E-09
 -1       566 1.43628E+05-3.05629E+05-1.68570E+02-3.84151E+05 8.17090E-09 6.43922E-10
 -1       567 2.45999E+05-4.08047E+05-2.70734E+02-5.04402E+05 1.84955E-08 1.08630E-08
 -1       568 1.42940E+05-3.05216E+05-8.58479E+02-3.84726E+05 5.67343E-09 4.11092E-09
 -1       569 2.45453E+05-4.08014E+05-2.15655E+03-5.02821E+05-2.45200E-09 2.90311E-08
 -1       570 1.46011E+05-3.08025E+05-4.75465E+03-3.83915E+05 5.84259E-09 6.00539E-09
 -1       571 2.61962E+05 9.50604E+03 1.37180E+04-8.08588E+04 3.12775E-09 7.89896E-10
 -1       572 2.63967E+05 3.50009E+03 6.72226E+03-8.87105E+04 4.66753E-09 1.37989E-08
 -1       573 2.62762E+05 1.02552E+03 2.98681E+03-8.07023E+04 3.46336E-09 1.30294E-08
 -1       574 2.62973E+05 5.37257E+02 1.49746E+03-8.89039E+04 3.25940E-09-1.36697E-09
 -1       575 2.62851E+05 2.93857E+02 7.06618E+02-8.06810E+04-2.78453E-09 4.45925E-09
 -1       576 2.62847E+05 2.92986E+02 3.61437E+02-8.89296E+04-8.60200E-09 6.31098E-09
 -1       577 2.62882E+05 2.44187E+02 1.80310E+02-8.06781E+04-6.85668E-09 4.21278E-09
 -1       578 2.62864E+05 2.64420E+02 1.03612E+02-8.89331E+04-7.12134E-09 8.59109E-09
 -1       579 2.62933E+05 2.19465E+02 7.10821E+01-8.06779E+04 6.20730E-09 4.17003E-09
 -1       580 2.62936E+05 2.29379E+02 8.14421E+01-8.89288E+04-3.16413E-09 2.99224E-10
 -1       581 2.63014E+05 1.79831E+02 1.23578E+02-8.06829E+04 5.03496E-09 1.88356E-09
 -1       582 2.63064E+05 2.11161E+02 2.49663E+02-8.88763E+04 3.84443E-09 2.51202E-09
 -1       583 2.63110E+05 2.34600E+02 4.81327E+02-8.07307E+04 1.01682E-09 3.89900E-09
 -1       584 2.63364E+05 6.24639E+02 1.08690E+03-8.84739E+04 4.18004E-09-1.48082E-08
 -1       585 2.63102E+05 1.55460E+03 2.20409E+03-8.10849E+04-1.43336E-09-1.55524E-08
 -1       586-3.13635E+03 9.95934E+04-3.03495E+03-2.28924E+05-3.76167E-09-1.18603E-08
 -1       587-1.07013E+03 9.92930E+04 4.73113E+02-2.51962E+05-2.94131E-09-1.86396E-08
 -1       588 5.34339E+02 9.91844E+04 4.14621E+03-2.28806E+05-2.67391E-09 1.34960E-08
 -1       589 4.74675E+03 1.01359E+05 1.09527E+04-2.51728E+05-5.65888E-09 2.00744E-08
 -1       590 1.50046E+04 9.79864E+04 2.30545E+04-2.29201E+05-2.82216E-09 1.95996E-08
 -1       591-6.31409E+04-1.40587E+04-1.96913E+04-2.76092E+04-6.18593E-09-1.28766E-08
 -1       592-6.65282E+04-1.73548E+04-1.06663E+04-3.09897E+04 1.48845E-08 3.67277E-09
 -1       593-6.51113E+04-1.26287E+04-4.43991E+03-2.90521E+04 6.06944E-09-4.71618E-09
 -1       594-6.38070E+04-1.44681E+04-2.21433E+03-3.10958E+04 7.82563E-10-1.06979E-09
 -1       595-6.52616E+04-1.26239E+04-1.01673E+03-2.91176E+04-1.39907E-09 1.36712E-08
 -1       596-6.36208E+04-1.43361E+04-5.16902E+02-3.10739E+04 8.81856E-09 2.38318E-08
 -1       597-6.52805E+04-1.26373E+04-2.81547E+02-2.91201E+04 2.54823E-09 1.30825E-09
 -1       598-6.36025E+04-1.43309E+04-2.26479E+02-3.10678E+04-5.81002E-09-1.29111E-08
 -1       599-6.52793E+04-1.26377E+04-2.89477E+02-2.91198E+04-5.11818E-09-1.67128E-08
 -1       600-6.36211E+04-1.43367E+04-5.37905E+02-3.10723E+04-2.19791E-09 4.22688E-09
 -1       601-6.52575E+04-1.26248E+04-1.06123E+03-2.91166E+04 4.82532E-09 1.45692E-08
 -1       602-6.38153E+04-1.44737E+04-2.31289E+03-3.10919E+04-3.70619E-09 1.46149E-08
 -1       603-6.50981E+04-1.26324E+04-4.63830E+03-2.90488E+04-3.70119E-09-2.00007E-08
 -1       604-6.66738E+04-1.74721E+04-1.11422E+04-3.09591E+04-1.46997E-10-1.83491E-10
 -1       605-6.30219E+04-1.41420E+04-2.05701E+04-2.75588E+04 3.06667E-09 9.12587E-09
 -1       606 2.60552E+04-1.28033E+04-2.29702E+04 2.39668E+04 4.87034E-09 5.62977E-09
 -1       607 2.21289E+04-4.17252E+03-1.14389E+04 2.69240E+04-5.38421E-10 6.53472E-09
 -1       608 2.43651E+04-7.44136E+02-5.12107E+03 2.37906E+04-3.85444E-09 2.98519E-09
 -1       609 2.39336E+04-2.44853E+02-2.58694E+03 2.71368E+04-7.05768E-10 2.09529E-08
 -1       610 2.41717E+04-2.43519E+01-1.23448E+03 2.37701E+04-7.00493E-09 1.53934E-08
 -1       611 2.41014E+04-2.16407E+01-6.22417E+02 2.71599E+04-1.47929E-08 9.12269E-09
 -1       612 2.41274E+04-1.07818E+01-2.96135E+02 2.37681E+04-7.07223E-09 4.55975E-09
 -1       613 2.41096E+04-1.67651E+01-1.32915E+02 2.71626E+04 2.48019E-09-1.14130E-08
 -1       614 2.41059E+04-1.54480E+01-3.17907E+01 2.37674E+04 3.72893E-11-1.86401E-09
 -1       615 2.41032E+04-1.44834E+01 5.42778E+01 2.71631E+04-4.97812E-09 5.55224E-09
 -1       616 2.40892E+04-1.18742E+01 1.64065E+02 2.37676E+04-6.24368E-09-5.15001E-10
 -1       617 2.41216E+04 2.12748E+01 3.74876E+02 2.71626E+04-1.30422E-09-2.30584E-08
 -1       618 2.40557E+04 9.68063E+01 7.55800E+02 2.37678E+04 4.23870E-09-1.17288E-08
 -1       619 2.43877E+04 6.06164E+02 1.69735E+03 2.71619E+04-1.49748E-09-2.43949E-09
 -1       620 2.38042E+04 1.88948E+03 3.41164E+03 2.37684E+04-7.85008E-10 2.38924E-09
 -1       621 3.98813E+02 2.69507E+05 3.24998E+03 3.19730E+04 6.58474E-10 1.35969E-09
 -1       622 5.17028E+02 2.70273E+05 2.94048E+03 4.64468E+04 9.64519E-10-8.56517E-09
 -1       623 8.59175E+01 2.69675E+05 3.60853E+03 3.18260E+04 8.89941E-10 7.55699E-09
 -1       624 1.80776E+03 2.71389E+05 7.05562E+03 4.65931E+04 1.04512E-09-8.20455E-09
 -1       625 1.78519E+03 2.68279E+05 1.23587E+04 3.18230E+04 9.44510E-10 7.82620E-10
 -1       626 2.35702E+05 5.71862E+04 4.81736E+03 1.16596E+05-8.50196E-09-4.24006E-09
 -1       627 2.33446E+05 5.85762E+04 2.32139E+03 1.20698E+05-1.09485E-08 4.40660E-08
 -1       628 2.35829E+05 5.49743E+04 9.81566E+02 1.17406E+05-1.64855E-08 1.34094E-08
 -1       629 2.32838E+05 5.79465E+04 4.80402E+02 1.20934E+05-4.06862E-09 1.22509E-08
 -1       630 2.35842E+05 5.48677E+04 2.22637E+02 1.17439E+05-6.52562E-09-2.07036E-08
 -1       631 2.32772E+05 5.79236E+04 1.19486E+02 1.20936E+05 5.65160E-09-1.39562E-08
 -1       632 2.35837E+05 5.48722E+04 7.80838E+01 1.17434E+05 8.51696E-09 1.02157E-08
 -1       633 2.32763E+05 5.79261E+04 8.61300E+01 1.20931E+05-2.26673E-08-9.83619E-09
 -1       634 2.35832E+05 5.48704E+04 1.38447E+02 1.17432E+05-6.29495E-09-4.27872E-09
 -1       635 2.32774E+05 5.79252E+04 2.79702E+02 1.20935E+05 1.87468E-08 2.31921E-11
 -1       636 2.35822E+05 5.48660E+04 5.64644E+02 1.17431E+05 8.17761E-09-1.04137E-08
 -1       637 2.32895E+05 5.80133E+04 1.24126E+03 1.20934E+05-8.01492E-11 9.48330E-09
 -1       638 2.35777E+05 5.51406E+04 2.55040E+03 1.17307E+05 6.35737E-10 3.06909E-09
 -1       639 2.34235E+05 5.98765E+04 6.03414E+03 1.20538E+05 2.50134E-09-7.69910E-09
 -1       640 2.35593E+05 6.07025E+04 1.25220E+04 1.14960E+05 5.03042E-09 1.10267E-08
 -1       656 6.06128E+04-1.54857E+06-1.46322E+05-1.80956E+03-1.23691E-10-6.56121E-09
 -1       657-8.01731E+04-1.61467E+06-1.21190E+05 5.84947E+03-1.25510E-10-2.82583E-10
 -1       658 1.93095E+04-1.56735E+06-7.46046E+04-3.58043E+03 1.51658E-10 3.86738E-09
 -1       659-8.65994E+04-1.61772E+06-1.29634E+05 7.26549E+03-1.65528E-09 5.90613E-09
 -1       660 6.70244E+04-1.54552E+06-1.60841E+05-3.22556E+03-1.77533E-09-3.92694E-09
 -1       661 1.55767E+05 1.64532E+04 1.60983E+04 6.09012E+04 1.39289E-09 2.06610E-08
 -1       662 1.64733E+05 2.85084E+04 1.08488E+04 5.74447E+04 3.93294E-09-5.73493E-09
 -1       663 1.58928E+05 2.16190E+04 3.79440E+03 5.99851E+04 7.23162E-10 8.81778E-09
 -1       664 1.61070E+05 2.24659E+04 2.26954E+03 5.85625E+04-1.94038E-09 7.85994E-09
 -1       665 1.59406E+05 2.23260E+04 8.95345E+02 5.98470E+04 2.13811E-09-4.87725E-09
 -1       666 1.60505E+05 2.16563E+04 5.23684E+02 5.87418E+04 3.60211E-09 8.82633E-09
 -1       667 1.59489E+05 2.24075E+04 2.77941E+02 5.98134E+04 3.26298E-09 1.42702E-08
 -1       668 1.60415E+05 2.15962E+04 2.82622E+02 5.87904E+04-6.85091E-10 1.18562E-08
 -1       669 1.59496E+05 2.23843E+04 3.82203E+02 5.97988E+04 1.21804E-09 1.68037E-08
 -1       670 1.60509E+05 2.18022E+04 8.31806E+02 5.87919E+04-6.38374E-09-1.04541E-09
 -1       671 1.59395E+05 2.22057E+04 1.47681E+03 5.98100E+04 1.11319E-09 1.16652E-08
 -1       672 1.61371E+05 2.32383E+04 3.77827E+03 5.85827E+04 3.50454E-09 1.73609E-08
 -1       673 1.58639E+05 2.09846E+04 6.33173E+03 5.99941E+04 3.32318E-09 6.26937E-09
 -1       674 1.67398E+05 3.34097E+04 1.81075E+04 5.68109E+04-3.51400E-09-1.05501E-08
 -1       675 1.53406E+05 1.23191E+04 2.68777E+04 6.14750E+04-1.14915E-09-1.41008E-08
 -1       676 2.23532E+01-2.73669E+05-1.03590E+03-8.18714E+01-4.86267E-10-1.26405E-08
 -1       677-2.74665E+02-2.73919E+05-1.89585E+03 1.63626E+02 5.73462E-09-1.31677E-08
 -1       678 1.83702E+02-2.73491E+05-3.35138E+03-8.17005E+01 7.84894E-10-1.03958E-09
 -1       679-3.35199E+03-2.75942E+05-7.96140E+03 1.62969E+02 5.75119E-09-4.88532E-09
 -1       680 2.00083E+03-2.71647E+05-1.28311E+04-8.03049E+01 2.72848E-11 1.01600E-08
 -1       771-2.84079E+06-6.79739E+05-1.60244E+05-1.35086E+06-2.93367E-08-2.29047E-08
 -1       772-2.77597E+06-7.63249E+05-8.33055E+04-1.44678E+06-2.23663E-08 1.13760E-08
 -1       773-2.86934E+06-6.57571E+05-4.10517E+04-1.36423E+06-1.15542E-08 9.13860E-09
 -1       774-2.76448E+06-7.44646E+05-1.86226E+04-1.46817E+06 2.92348E-08-4.91855E-09
 -1       775-2.88295E+06-6.48112E+05-1.29994E+04-1.36988E+06 8.44011E-10-1.44792E-09
 -1       776-2.77412E+06-7.42074E+05-5.01747E+03-1.48391E+06 5.93718E-09 5.98084E-09
 -1       777-2.89451E+06-6.39792E+05-5.41852E+03-1.37478E+06 7.50879E-09 1.49885E-09
 -1       778-2.78431E+06-7.39887E+05-1.59163E+03-1.49738E+06 3.14321E-09 6.69388E-09
 -1       779-2.90436E+06-6.32568E+05-2.61033E+03-1.37894E+06-7.74162E-09-1.02991E-08
 -1       780-2.79323E+06-7.37845E+05-4.52582E+02-1.50832E+06-5.87170E-09-5.50062E-09
 -1       781-2.91213E+06-6.26773E+05-9.97874E+02-1.38219E+06-2.57423E-08 5.60249E-10
 -1       782-2.80007E+06-7.36126E+05 3.47898E+02-1.51638E+06-4.40923E-08-6.13636E-09
 -1       783-2.91758E+06-6.22768E+05 5.48681E+02-1.38446E+06-1.10304E-08-1.21890E-08
 -1       784-2.80383E+06-7.34384E+05 2.28227E+03-1.52133E+06-1.71713E-08 1.22554E-09
 -1       785-2.92079E+06-6.20392E+05 4.02845E+03-1.38590E+06-3.34985E-08 6.94672E-09
 -1       786 1.16533E+05-9.11788E+03 2.10943E+04-2.37739E+02 4.23185E-09 5.47516E-10
 -1       787 1.25682E+05 1.05560E+04 1.49235E+04-6.71451E+01 7.61534E-09-2.65391E-09
 -1       788 1.20061E+05-1.42899E+03 5.45767E+03-2.07511E+02 2.42317E-09 1.39357E-09
 -1       789 1.21573E+05 1.65361E+03 3.42633E+03-1.14392E+02 5.13564E-10 1.37937E-08
 -1       790 1.20643E+05-2.22695E+02 1.38768E+03-1.90504E+02-2.13430E-09 6.08043E-09
 -1       791 1.20892E+05 2.57341E+02 8.02324E+02-1.43690E+02-5.74384E-09 8.77193E-10
 -1       792 1.20742E+05-3.37704E+01 3.41640E+02-1.78215E+02-2.00552E-09-1.00257E-08
 -1       793 1.20774E+05 3.60802E+01 1.73949E+02-1.66712E+02-2.06739E-09-1.14090E-08
 -1       794 1.20761E+05-1.57396E+00 5.24953E+01-1.67482E+02 3.28908E-09 1.01497E-08
 -1       795 1.20743E+05-1.96261E+01-3.44051E+01-1.88823E+02-4.50105E-09-1.96178E-09
 -1       796 1.20774E+05 2.19054E+01-1.18273E+02-1.56103E+02 2.61275E-09 3.56732E-09
 -1       797 1.20670E+05-1.65492E+02-3.34065E+02-2.14511E+02 2.91491E-09 8.03482E-11
 -1       798 1.20833E+05 1.44183E+02-5.45097E+02-1.41794E+02 1.36694E-09-9.90843E-09
 -1       799 1.20256E+05-1.06383E+03-1.50194E+03-2.49210E+02 4.56729E-09-9.42009E-09
 -1       800 1.21188E+05 9.19512E+02-2.12613E+03-1.21405E+02 2.99875E-10-1.01602E-09
 -1       801-6.34627E+04-7.93326E+06-1.04808E+06 9.40136E+05 7.66595E-08-3.66817E-08
 -1       802 4.27304E+05 2.77294E+06 1.38085E+06-1.11579E+06 2.15434E-07-2.89920E-08
 -1       803-3.50557E+05-1.06402E+07-1.27593E+06 5.99136E+05 6.68915E-08 1.96651E-08
 -1       804 1.62741E+05 2.77499E+05 9.70730E+05 5.17456E+05-9.32196E-08-8.40658E-08
 -1       805 1.48480E+05-5.45260E+06-2.02798E+05-6.89350E+05-3.88463E-08-5.26188E-08
 -1       806-2.81672E+05-5.37317E+04-2.06110E+04-1.10737E+05-6.84031E-09-9.97034E-09
 -1       807-2.83406E+05-5.02541E+04-1.01260E+04-1.15604E+05 1.08266E-08 3.02861E-08
 -1       808-2.82230E+05-4.63120E+04-4.29585E+03-1.14258E+05-3.40106E-09 2.12924E-08
 -1       809-2.81283E+05-4.74037E+04-2.10060E+03-1.15847E+05-1.23989E-08 1.38273E-08
 -1       810-2.82315E+05-4.60536E+04-9.62810E+02-1.14415E+05 2.80761E-09 1.14569E-08
 -1       811-2.81119E+05-4.72886E+04-4.78834E+02-1.15816E+05 3.37059E-09 2.83728E-09
 -1       812-2.82328E+05-4.60754E+04-2.42185E+02-1.14414E+05-6.97673E-09-1.33550E-08
 -1       813-2.81098E+05-4.72901E+04-1.57485E+02-1.15799E+05-4.37922E-09-1.45581E-08
 -1       814-2.82323E+05-4.60835E+04-1.56112E+02-1.14411E+05-8.27640E-10-1.07680E-08
 -1       815-2.81102E+05-4.72918E+04-2.51780E+02-1.15794E+05-1.67893E-09-2.29811E-08
 -1       816-2.82306E+05-4.60818E+04-4.77156E+02-1.14409E+05 1.79534E-09-8.08586E-09
 -1       817-2.81184E+05-4.73370E+04-1.02440E+03-1.15785E+05-1.13660E-08-1.23855E-08
 -1       818-2.82246E+05-4.62252E+04-2.08926E+03-1.14341E+05 3.24326E-09-1.24783E-08
 -1       819-2.82328E+05-4.86005E+04-4.91640E+03-1.15518E+05 1.07761E-08-9.21568E-09
 -1       820-2.81856E+05-4.99354E+04-1.00064E+04-1.12752E+05 1.77261E-09 1.38343E-08
 -1       821-3.47233E+05 1.91369E+04-4.42863E+04 1.06059E+03 8.56623E-09-6.89397E-09
 -1       822-3.66317E+05-2.21547E+04-3.13202E+04-1.81251E+03 2.29301E-09-2.38288E-09
 -1       823-3.54574E+05 3.00199E+03-1.14655E+04 1.33906E+03-5.47384E-09 5.79848E-09
 -1       824-3.57691E+05-3.47114E+03-7.20739E+03-1.78624E+03 9.81970E-12 2.81656E-08
 -1       825-3.55857E+05 4.67515E+02-2.97597E+03 1.03434E+03 8.54178E-09 3.02249E-08
 -1       826-3.56129E+05-5.47372E+02-1.75680E+03-7.48703E+02 9.99198E-09 1.11183E-08
 -1       827-3.56130E+05 7.73750E+01-9.53786E+02 3.01500E+02 4.18315E-09-1.70058E-08
 -1       828-3.55904E+05-1.64180E+02-7.83605E+02 7.71066E+02-3.46407E-10 1.08408E-08
 -1       829-3.56081E+05 8.40333E+01-9.65881E+02-4.85452E+02 5.32417E-10 9.10654E-09
 -1       830-3.56246E+05-5.76505E+02-1.84241E+03 1.99527E+03-5.06397E-10 6.33960E-09
 -1       831-3.55791E+05 4.92268E+02-3.07828E+03-9.22721E+02-3.01150E-09 1.46642E-08
 -1       832-3.57777E+05-3.61457E+03-7.49724E+03 2.29560E+03-1.25663E-09 1.75419E-08
 -1       833-3.54553E+05 3.12107E+03-1.19281E+04-7.85792E+02-2.92430E-09 6.13045E-09
 -1       834-3.66621E+05-2.30340E+04-3.25448E+04 1.50359E+03-1.22305E-09 6.15228E-09
 -1       835-3.46948E+05 1.98943E+04-4.60610E+04-1.30694E+02 4.58357E-09 1.48648E-08
 -1       836-1.24804E+03 3.32306E+05 2.04684E+04-1.51786E+04-4.62842E-09 1.73432E-08
 -1       837 4.39183E+03 3.38704E+05 1.73786E+04-3.08374E+04-5.29076E-09 1.04762E-08
 -1       838-4.89570E+02 3.34094E+05 1.77894E+04-1.51123E+04-4.15139E-09 4.85352E-09
 -1       839 1.12562E+04 3.43819E+05 3.37336E+04-3.08853E+04-4.29600E-09-2.21974E-09
 -1       840-3.46067E+03 3.27141E+05 5.38281E+04-1.51340E+04-3.98359E-09-1.29262E-08
 -1       856-5.68690E+04 7.63587E+03-2.01222E+04-3.88542E+02 2.72462E-09 5.67161E-09
 -1       857-6.51654E+04-8.96728E+03-1.38524E+04 5.20728E+03 1.85719E-09 9.99171E-09
 -1       858-6.01522E+04 1.07062E+03-5.22140E+03-4.10625E+02 3.15077E-09-5.88420E-09
 -1       859-6.13967E+04-1.25528E+03-3.15143E+03 5.24067E+03-2.39640E-09 7.92625E-10
 -1       860-6.06429E+04 1.49663E+02-1.32155E+03-4.21783E+02 2.72848E-11-6.79415E-09
 -1       861-6.08321E+04-1.74742E+02-7.28725E+02 5.25590E+03-1.09463E-09 2.00371E-08
 -1       862-6.07196E+04 2.01073E+01-3.06334E+02-4.25843E+02 7.11573E-10 7.31490E-09
 -1       863-6.07387E+04-1.76172E+01-1.19339E+02 5.25815E+03-1.33569E-09 3.95274E-09
 -1       864-6.07367E+04-3.92558E+00 2.74766E+01-4.24033E+02-7.61489E-10-1.02689E-08
 -1       865-6.06906E+04 5.21454E+01 2.04042E+02 5.24810E+03-9.59062E-10 1.04643E-09
 -1       866-6.07657E+04-4.97156E+01 4.20209E+02-4.15802E+02 1.17171E-09 4.67023E-09
 -1       867-6.04908E+04 4.11848E+02 1.03997E+03 5.22572E+03 1.64573E-09 9.05142E-09
 -1       868-6.09322E+04-3.57294E+02 1.72963E+03-4.01647E+02-5.26427E-10-4.83283E-10
 -1       869-5.92215E+04 2.97417E+03 4.60732E+03 5.18846E+03 1.69047E-09-1.73316E-08
 -1       870-6.20283E+04-2.54267E+03 6.68618E+03-3.78486E+02-1.79364E-09-1.08575E-08
 -1       871-5.08991E+03-1.75343E+04-1.75749E+04 1.17463E+05-3.12866E-09 1.08685E-08
 -1       872-1.93665E+03-2.15811E+04-7.32332E+03 1.52303E+05-7.18501E-09 3.86171E-09
 -1       873 2.53296E+02-1.96394E+04 6.22799E+02 1.17205E+05-3.67345E-09-1.67553E-08
 -1       874 2.88465E+03-1.73860E+04 9.03147E+03 1.52334E+05-7.59064E-09-3.69891E-09
 -1       875 6.18302E+03-2.17927E+04 2.03045E+04 1.17421E+05-3.13776E-09 2.69483E-09
 -1       876 2.68755E+05 4.54762E+04 1.38854E+04 1.08066E+05 4.73153E-09 4.01451E-09
 -1       877 2.69656E+05 4.84174E+04 7.41527E+03 1.12064E+05 7.37464E-09-1.58705E-08
 -1       878 2.70053E+05 4.39386E+04 3.10666E+03 1.09204E+05-4.18368E-09-2.32660E-08
 -1       879 2.67768E+05 4.65342E+04 1.54787E+03 1.12158E+05 1.83354E-09-1.29290E-09
 -1       880 2.70147E+05 4.39224E+04 7.20956E+02 1.09251E+05 6.79165E-10-3.03760E-09
 -1       881 2.67643E+05 4.64538E+04 3.84888E+02 1.12137E+05-2.69029E-09 5.72956E-09
 -1       882 2.70156E+05 4.39343E+04 2.46064E+02 1.09252E+05 2.74053E-09 8.02113E-09
 -1       883 2.67634E+05 4.64497E+04 2.64244E+02 1.12131E+05-1.97406E-09 4.41150E-09
 -1       884 2.70150E+05 4.39316E+04 4.20105E+02 1.09252E+05-3.91992E-10 1.58218E-08
 -1       885 2.67668E+05 4.64556E+04 8.44493E+02 1.12141E+05-1.58536E-09 1.10189E-08
 -1       886 2.70117E+05 4.39069E+04 1.70198E+03 1.09249E+05-3.42760E-09 1.39637E-08
 -1       887 2.67967E+05 4.66517E+04 3.71774E+03 1.12184E+05 6.16410E-09 1.99179E-09
 -1       888 2.69882E+05 4.39483E+04 7.49138E+03 1.09130E+05 6.88229E-09 5.93855E-09
 -1       889 2.72427E+05 5.12893E+04 1.78957E+04 1.12047E+05-1.20248E-09 9.10859E-09
 -1       890 2.66826E+05 4.75784E+04 3.35180E+04 1.06277E+05-9.89212E-09-2.39088E-08
 -1       891-1.02991E+02-1.49532E+05-1.82489E+03 2.55494E+04-1.25124E-09 1.01018E-08
 -1       892-1.92712E+02-1.50004E+05-1.96283E+03 3.87600E+04 1.23782E-09-8.43283E-09
 -1       893 1.89979E+01-1.49592E+05-2.78199E+03 2.55558E+04 3.16732E-10-2.16392E-08
 -1       894-1.41615E+03-1.51058E+05-5.75995E+03 3.86181E+04 2.02363E-09 4.83669E-09
 -1       895-1.11967E+03-1.48393E+05-1.01438E+04 2.56920E+04 1.69621E-10-8.97307E-09
 -1       956-3.43995E+05-4.91421E+03-1.22046E+04 2.68383E+04 3.83534E-09-1.59152E-08
 -1       957-3.46394E+05-1.71036E+03-6.26472E+03 3.22742E+04-3.07045E-09-2.20120E-08
 -1       958-3.45087E+05-1.91043E+02-2.82285E+03 2.66885E+04-4.96584E-09-5.83418E-09
 -1       959-3.45269E+05-9.21952E+01-1.44158E+03 3.24457E+04 6.48015E-10 5.86101E-09
 -1       960-3.45191E+05-1.53497E+01-7.02943E+02 2.66734E+04 2.49884E-09 1.28148E-09
 -1       961-3.45193E+05-2.77541E+01-3.72890E+02 3.24633E+04 8.61201E-09 3.05999E-09
 -1       962-3.45214E+05-1.77651E+01-2.13657E+02 2.66710E+04-6.37101E-10-1.13291E-08
 -1       963-3.45192E+05-2.48027E+01-1.71870E+02 3.24664E+04-4.09364E-09-1.00777E-08
 -1       964-3.45219E+05-1.50494E+01-2.09324E+02 2.66703E+04-4.12928E-09 2.06433E-09
 -1       965-3.45203E+05-2.19687E+01-3.62307E+02 3.24658E+04-4.67952E-09-1.11356E-08
 -1       966-3.45205E+05-7.27543E+00-6.80773E+02 2.66715E+04-5.75733E-09-5.20799E-09
 -1       967-3.45287E+05-7.88177E+01-1.39636E+03 3.24536E+04-9.50445E-09 4.58363E-09
 -1       968-3.45112E+05-1.72199E+02-2.73334E+03 2.66825E+04-4.90763E-09-2.41482E-09
 -1       969-3.46386E+05-1.64158E+03-6.06821E+03 3.23255E+04 2.65209E-09-1.59677E-08
 -1       970-3.44061E+05-4.74392E+03-1.18208E+04 2.67947E+04-3.48837E-09-1.17416E-09
 -1       971-3.16794E+05-1.59755E+03-8.68110E+03 1.43055E+04 1.82717E-09 1.91562E-09
 -1       972-3.18890E+05-1.16823E+03-4.72770E+03 1.98390E+04 2.26828E-09 1.86699E-08
 -1       973-3.17761E+05-4.51584E+01-2.11741E+03 1.41911E+04-4.57476E-10 3.51270E-09
 -1       974-3.17892E+05-5.83767E+01-1.09748E+03 1.99669E+04 2.14959E-09-1.66189E-08
 -1       975-3.17837E+05-3.80306E+00-5.48653E+02 1.41798E+04 2.71712E-09 4.67298E-09
 -1       976-3.17834E+05-1.23169E+01-3.16714E+02 1.99811E+04-1.64005E-09 1.21614E-08
 -1       977-3.17852E+05-3.45543E+00-2.30147E+02 1.41769E+04-4.57362E-09-1.83027E-08
 -1       978-3.17838E+05-6.78613E+00-2.69727E+02 1.99853E+04-1.89948E-09-4.23688E-09
 -1       979-3.17851E+05 4.17356E+00-4.33693E+02 1.41756E+04-2.28152E-09-4.00041E-09
 -1       980-3.17871E+05-4.03216E+00-8.37612E+02 1.99861E+04-5.45697E-10 1.30982E-08
 -1       981-3.17824E+05 2.51104E+01-1.62235E+03 1.41761E+04 2.13606E-09 4.50768E-09
 -1       982-3.18093E+05-1.23814E+02-3.35341E+03 1.99800E+04 1.68620E-09 1.44255E-08
 -1       983-3.17620E+05-7.86327E+01-6.51568E+03 1.41817E+04-3.50838E-09-1.10531E-08
 -1       984-3.21227E+05-3.52651E+03-1.45915E+04 1.99001E+04-5.94355E-09-1.47190E-08
 -1       985-3.14671E+05-4.84628E+03-2.67945E+04 1.42521E+04-9.46329E-10-1.25310E-08
 -3
    1PSTEP                        39          20           1          
  100CL  120 6.20121E-01         409                     0   20           1
 -4  DISP        4    1
 -5  D1          1    2    1    0
 -5  D2          1    2    2    0
 -5  D3          1    2    3    0
 -5  ALL         1    2    0    0    1ALL
 -1         1 3.34970E-03 0.00000E+00 0.00000E+00
 -1         2 3.32778E-03-1.97421E-27 0.00000E+00
 -1         3 2.98516E-04 4.64276E-27-1.32349E-23
 -1         5 1.60391E-04 1.54423E-26-4.13590E-25
 -1         8 3.33367E-03-4.74970E-07 0.00000E+00
 -1         9 3.29207E-03-8.99905E-06 0.00000E+00
 -1        10 2.71416E-04-2.93095E-06 0.00000E+00
 -1        12 1.61723E-04 7.38460E-07 1.03398E-25
 -1        15 3.31417E-03-5.19527E-07 2.06795E-25
 -1        16 3.32321E-03-1.05452E-05 0.00000E+00
 -1        17 1.86652E-04-6.58773E-06 0.00000E+00
 -1        18 1.64251E-04 2.69893E-05 0.00000E+00
 -1        19 1.65720E-04 1.47196E-06 0.00000E+00
 -1        20 1.65860E-04-4.55263E-06 0.00000E+00
 -1        21 1.65059E-04-1.39623E-05-3.30872E-24
 -1        24 2.79538E-05-9.87708E-06 0.00000E+00
 -1        25 1.72436E-04 2.71895E-05 0.00000E+00
 -1        26 1.73089E-04 2.03880E-06 0.00000E+00
 -1        27 1.71081E-04-7.83175E-06 0.00000E+00
 -1        28 1.70748E-04-1.45418E-05 0.00000E+00
 -1        32 0.00000E+00 0.00000E+00 0.00000E+00
 -1        33 1.79474E-04 2.72911E-06 0.00000E+00
 -1        34 1.77519E-04-7.87793E-06 0.00000E+00
 -1        35 1.75727E-04-1.48584E-05 0.00000E+00
 -1        51 3.34867E-03-9.13898E-08-6.61744E-24
 -1        52 3.34676E-03-1.68072E-07 0.00000E+00
 -1        53 3.34413E-03-2.42632E-07 0.00000E+00
 -1        54 3.34095E-03-3.17153E-07 0.00000E+00
 -1        55 3.33741E-03-3.93174E-07 8.27181E-25
 -1        56 3.34590E-03 3.70813E-07 0.00000E+00
 -1        57 3.34084E-03 3.72637E-06 0.00000E+00
 -1        58 3.33485E-03 9.54165E-06 0.00000E+00
 -1        59 3.32819E-03 1.70410E-05 5.29396E-23
 -1        60 3.32127E-03 2.52083E-05 0.00000E+00
 -1        61 3.31450E-03 3.29673E-05 0.00000E+00
 -1        62 3.30828E-03 3.93065E-05 1.05879E-22
 -1        63 3.30294E-03 4.33213E-05 0.00000E+00
 -1        64 3.29870E-03 4.44669E-05 0.00000E+00
 -1        65 3.29565E-03 4.24188E-05 0.00000E+00
 -1        66 3.29373E-03 3.73484E-05 1.05879E-22
 -1        67 3.29278E-03 2.96620E-05 0.00000E+00
 -1        68 3.29249E-03 2.01727E-05-1.05879E-22
 -1        69 3.29254E-03 9.84163E-06-5.29396E-23
 -1        70 3.29249E-03-2.52544E-07 5.29396E-23
 -1        86 3.32457E-03-1.48507E-06-5.29396E-23
 -1        87 3.31513E-03-3.00698E-06 2.64698E-23
 -1        88 3.30351E-03-4.54917E-06 0.00000E+00
 -1        89 3.29387E-03-6.06502E-06-2.64698E-23
 -1        90 3.28918E-03-7.55141E-06 0.00000E+00
 -1       121 2.97756E-04-4.75704E-07 0.00000E+00
 -1       122 2.95479E-04-9.53625E-07 6.61744E-24
 -1       123 2.91692E-04-1.43595E-06-1.32349E-23
 -1       124 2.86407E-04-1.92488E-06-6.61744E-24
 -1       125 2.79641E-04-2.42232E-06-1.32349E-23
 -1       191 1.60428E-04 1.23112E-07 8.27181E-25
 -1       192 1.60539E-04 2.46217E-07-6.20385E-25
 -1       193 1.60724E-04 3.69312E-07 2.06795E-24
 -1       194 1.60983E-04 4.92389E-07-1.24077E-24
 -1       195 1.61316E-04 6.15441E-07 2.06795E-24
 -1       251 3.33289E-03 1.93497E-05-1.32349E-23
 -1       252 3.33096E-03 7.18582E-05-6.61744E-24
 -1       253 3.32764E-03 1.47571E-04 0.00000E+00
 -1       254 3.32327E-03 2.36468E-04 0.00000E+00
 -1       255 3.31894E-03 3.24893E-04 0.00000E+00
 -1       256 3.31572E-03 3.99199E-04 0.00000E+00
 -1       257 3.31389E-03 4.49630E-04 1.32349E-23
 -1       258 3.31314E-03 4.66987E-04 6.61744E-24
 -1       259 3.31240E-03 4.50687E-04 1.32349E-23
 -1       260 3.31060E-03 4.00994E-04-6.61744E-24
 -1       261 3.30739E-03 3.26860E-04-1.32349E-23
 -1       262 3.30301E-03 2.37805E-04-6.61744E-24
 -1       263 3.29851E-03 1.47459E-04-1.32349E-23
 -1       264 3.29502E-03 6.94768E-05 0.00000E+00
 -1       265 3.29294E-03 1.40852E-05 2.64698E-23
 -1       266 3.33042E-03-4.89457E-07 0.00000E+00
 -1       267 3.32717E-03-4.96023E-07-8.27181E-25
 -1       268 3.32392E-03-5.03090E-07-8.27181E-25
 -1       269 3.32067E-03-5.08671E-07 0.00000E+00
 -1       270 3.31742E-03-5.14217E-07 0.00000E+00
 -1       271 3.33160E-03 2.75276E-06 1.32349E-23
 -1       272 3.32938E-03 6.33128E-06 0.00000E+00
 -1       273 3.32709E-03 1.00738E-05 0.00000E+00
 -1       274 3.32481E-03 1.37804E-05 0.00000E+00
 -1       275 3.32261E-03 1.72543E-05-2.64698E-23
 -1       276 3.32058E-03 2.03000E-05 0.00000E+00
 -1       277 3.31879E-03 2.27261E-05 2.64698E-23
 -1       278 3.31729E-03 2.43472E-05-1.32349E-23
 -1       279 3.31617E-03 2.49860E-05 0.00000E+00
 -1       280 3.31548E-03 2.44744E-05 0.00000E+00
 -1       281 3.31528E-03 2.26559E-05 0.00000E+00
 -1       282 3.31562E-03 1.93866E-05 0.00000E+00
 -1       283 3.31654E-03 1.45368E-05 0.00000E+00
 -1       284 3.31809E-03 7.99313E-06 0.00000E+00
 -1       285 3.32030E-03-3.42811E-07 2.64698E-23
 -1       301 3.29695E-03-9.26937E-06 0.00000E+00
 -1       302 3.30081E-03-9.51461E-06-6.61744E-24
 -1       303 3.30449E-03-9.75748E-06 0.00000E+00
 -1       304 3.30888E-03-1.00030E-05 0.00000E+00
 -1       305 3.31483E-03-1.02590E-05 0.00000E+00
 -1       306 3.33209E-03-1.76898E-04 0.00000E+00
 -1       307 3.39317E-03-6.41802E-04-5.29396E-23
 -1       308 3.42026E-03-1.33045E-03-1.05879E-22
 -1       309 3.40803E-03-2.13609E-03 0.00000E+00
 -1       310 3.40660E-03-2.91075E-03-1.05879E-22
 -1       311 3.45377E-03-3.50854E-03 0.00000E+00
 -1       312 3.51458E-03-3.83689E-03-2.11758E-22
 -1       313 3.51262E-03-3.85627E-03-5.29396E-23
 -1       314 3.35191E-03-3.58050E-03 0.00000E+00
 -1       315 2.97932E-03-3.09177E-03 5.29396E-23
 -1       316 2.41097E-03-2.47895E-03 0.00000E+00
 -1       317 1.72345E-03-1.81773E-03 2.64698E-23
 -1       318 1.06186E-03-1.16656E-03 0.00000E+00
 -1       319 5.63380E-04-5.90956E-04 0.00000E+00
 -1       320 2.77127E-04-1.75831E-04 0.00000E+00
 -1       336 2.61568E-04-3.49125E-06 1.32349E-23
 -1       337 2.49940E-04-4.07029E-06-6.61744E-24
 -1       338 2.36576E-04-4.66968E-06 0.00000E+00
 -1       339 2.21532E-04-5.28955E-06 0.00000E+00
 -1       340 2.04868E-04-5.93422E-06-6.61744E-24
 -1       406 1.62204E-04 8.61433E-07-6.20385E-25
 -1       407 1.62760E-04 9.84329E-07 1.55096E-24
 -1       408 1.63389E-04 1.10711E-06 2.48154E-24
 -1       409 1.64092E-04 1.22962E-06 6.20385E-25
 -1       410 1.64870E-04 1.35161E-06-2.48154E-24
 -1       521 3.36318E-03-1.89633E-04-2.11758E-22
 -1       522 3.42103E-03-6.72114E-04 5.29396E-23
 -1       523 3.44145E-03-1.38018E-03-1.05879E-22
 -1       524 3.42323E-03-2.19837E-03 0.00000E+00
 -1       525 3.41687E-03-2.98341E-03-1.05879E-22
 -1       526 3.46006E-03-3.59455E-03 0.00000E+00
 -1       527 3.51895E-03-3.92990E-03 2.11758E-22
 -1       528 3.51370E-03-3.94767E-03 1.05879E-22
 -1       529 3.34120E-03-3.66046E-03 0.00000E+00
 -1       530 2.94843E-03-3.15920E-03 5.29396E-23
 -1       531 2.35412E-03-2.53573E-03 0.00000E+00
 -1       532 1.64359E-03-1.86791E-03 5.29396E-23
 -1       533 9.58852E-04-1.20952E-03 1.05879E-22
 -1       534 4.34067E-04-6.21003E-04 5.29396E-23
 -1       535 1.28521E-04-1.91169E-04-2.11758E-22
 -1       536 1.86056E-04 2.36664E-05-3.30872E-24
 -1       537 1.84566E-04 7.63698E-05-1.65436E-24
 -1       538 1.82275E-04 1.43360E-04 3.30872E-24
 -1       539 1.79576E-04 2.16399E-04 0.00000E+00
 -1       540 1.77143E-04 2.85424E-04 3.30872E-24
 -1       541 1.75550E-04 3.40395E-04 1.65436E-24
 -1       542 1.74801E-04 3.75319E-04 0.00000E+00
 -1       543 1.74600E-04 3.84332E-04-1.65436E-24
 -1       544 1.74316E-04 3.68149E-04 0.00000E+00
 -1       545 1.73368E-04 3.27667E-04 1.65436E-24
 -1       546 1.71639E-04 2.70094E-04-3.30872E-24
 -1       547 1.69322E-04 2.02745E-04 0.00000E+00
 -1       548 1.67031E-04 1.35821E-04 3.30872E-24
 -1       549 1.65372E-04 7.95219E-05 1.65436E-24
 -1       550 1.64498E-04 4.09235E-05 0.00000E+00
 -1       551 1.65057E-04-7.01681E-06 0.00000E+00
 -1       552 1.40531E-04-7.51149E-06 0.00000E+00
 -1       553 1.13807E-04-8.05828E-06-6.61744E-24
 -1       554 8.56374E-05-8.64421E-06 1.65436E-24
 -1       555 5.67704E-05-9.25062E-06 0.00000E+00
 -1       556 1.80131E-04 1.01625E-05 0.00000E+00
 -1       557 1.74885E-04 2.36722E-05 2.64698E-23
 -1       558 1.70799E-04 3.42005E-05 0.00000E+00
 -1       559 1.67757E-04 4.20248E-05 0.00000E+00
 -1       560 1.65643E-04 4.74230E-05 0.00000E+00
 -1       561 1.64346E-04 5.06749E-05 0.00000E+00
 -1       562 1.63755E-04 5.20613E-05 0.00000E+00
 -1       563 1.63761E-04 5.18636E-05 0.00000E+00
 -1       564 1.64254E-04 5.03641E-05 0.00000E+00
 -1       565 1.65127E-04 4.78453E-05 6.61744E-24
 -1       566 1.66275E-04 4.45905E-05 0.00000E+00
 -1       567 1.67592E-04 4.08828E-05 0.00000E+00
 -1       568 1.68971E-04 3.70059E-05 1.24077E-24
 -1       569 1.70308E-04 3.32432E-05 0.00000E+00
 -1       570 1.71498E-04 2.98780E-05 0.00000E+00
 -1       571 1.64340E-04 2.53338E-05-8.27181E-25
 -1       572 1.64431E-04 2.36200E-05-8.27181E-25
 -1       573 1.64522E-04 2.18616E-05 0.00000E+00
 -1       574 1.64614E-04 2.00727E-05-1.65436E-24
 -1       575 1.64706E-04 1.82678E-05 0.00000E+00
 -1       576 1.64798E-04 1.64612E-05-1.65436E-24
 -1       577 1.64890E-04 1.46674E-05 0.00000E+00
 -1       578 1.64982E-04 1.29007E-05 0.00000E+00
 -1       579 1.65074E-04 1.11756E-05 0.00000E+00
 -1       580 1.65166E-04 9.50657E-06 0.00000E+00
 -1       581 1.65258E-04 7.90794E-06 0.00000E+00
 -1       582 1.65350E-04 6.39415E-06 3.30872E-24
 -1       583 1.65443E-04 4.97958E-06 0.00000E+00
 -1       584 1.65535E-04 3.67849E-06 0.00000E+00
 -1       585 1.65628E-04 2.50498E-06 0.00000E+00
 -1       586 1.65569E-04 2.70246E-05-1.65436E-24
 -1       587 1.66852E-04 2.70594E-05 2.06795E-25
 -1       588 1.68141E-04 2.70938E-05 8.27181E-25
 -1       589 1.69474E-04 2.71277E-05 0.00000E+00
 -1       590 1.70893E-04 2.71604E-05 0.00000E+00
 -1       591 1.64813E-04 2.54141E-05 2.06795E-25
 -1       592 1.65379E-04 2.38187E-05 0.00000E+00
 -1       593 1.65950E-04 2.22085E-05 1.65436E-24
 -1       594 1.66524E-04 2.05882E-05 4.13590E-25
 -1       595 1.67101E-04 1.89625E-05 8.27181E-25
 -1       596 1.67678E-04 1.73359E-05 0.00000E+00
 -1       597 1.68253E-04 1.57131E-05 8.27181E-25
 -1       598 1.68825E-04 1.40987E-05 0.00000E+00
 -1       599 1.69392E-04 1.24972E-05 0.00000E+00
 -1       600 1.69953E-04 1.09134E-05 4.13590E-25
 -1       601 1.70505E-04 9.35175E-06 0.00000E+00
 -1       602 1.71048E-04 7.81688E-06 0.00000E+00
 -1       603 1.71579E-04 6.31342E-06-4.13590E-25
 -1       604 1.72097E-04 4.84604E-06-1.61559E-25
 -1       605 1.72600E-04 3.41929E-06 0.00000E+00
 -1       606 1.65733E-04 6.50186E-07 0.00000E+00
 -1       607 1.65743E-04-8.60392E-08-1.65436E-24
 -1       608 1.65752E-04-7.41734E-07 0.00000E+00
 -1       609 1.65760E-04-1.32256E-06 0.00000E+00
 -1       610 1.65768E-04-1.83423E-06 3.30872E-24
 -1       611 1.65777E-04-2.28252E-06 0.00000E+00
 -1       612 1.65785E-04-2.67321E-06 0.00000E+00
 -1       613 1.65794E-04-3.01209E-06 0.00000E+00
 -1       614 1.65802E-04-3.30495E-06 1.65436E-24
 -1       615 1.65810E-04-3.55757E-06-8.27181E-25
 -1       616 1.65819E-04-3.77575E-06 0.00000E+00
 -1       617 1.65827E-04-3.96528E-06 0.00000E+00
 -1       618 1.65835E-04-4.13194E-06 0.00000E+00
 -1       619 1.65844E-04-4.28153E-06 0.00000E+00
 -1       620 1.65852E-04-4.41983E-06 0.00000E+00
 -1       621 1.66713E-04 1.56685E-06-1.65436E-24
 -1       622 1.67836E-04 1.66200E-06 8.27181E-25
 -1       623 1.69062E-04 1.75700E-06 0.00000E+00
 -1       624 1.70365E-04 1.85175E-06 8.27181E-25
 -1       625 1.71716E-04 1.94626E-06 0.00000E+00
 -1       626 1.66132E-04 6.83378E-07 3.30872E-24
 -1       627 1.66520E-04-4.06963E-08 1.65436E-24
 -1       628 1.66888E-04-7.07870E-07 0.00000E+00
 -1       629 1.67237E-04-1.32608E-06-1.65436E-24
 -1       630 1.67571E-04-1.90330E-06 0.00000E+00
 -1       631 1.67892E-04-2.44752E-06 1.65436E-24
 -1       632 1.68204E-04-2.96670E-06-3.30872E-24
 -1       633 1.68510E-04-3.46886E-06-1.65436E-24
 -1       634 1.68812E-04-3.96197E-06 0.00000E+00
 -1       635 1.69114E-04-4.45402E-06-1.65436E-24
 -1       636 1.69419E-04-4.95300E-06 0.00000E+00
 -1       637 1.69729E-04-5.46690E-06-8.27181E-25
 -1       638 1.70047E-04-6.00371E-06 3.30872E-24
 -1       639 1.70377E-04-6.57143E-06 8.27181E-25
 -1       640 1.70721E-04-7.17808E-06 3.30872E-24
 -1       656 1.66216E-04-5.08573E-06 0.00000E+00
 -1       657 1.66971E-04-5.64041E-06 0.00000E+00
 -1       658 1.67990E-04-6.19372E-06 1.32349E-23
 -1       659 1.69131E-04-6.74668E-06 0.00000E+00
 -1       660 1.70219E-04-7.30131E-06-6.61744E-24
 -1       661 1.65994E-04-4.72616E-06 8.27181E-25
 -1       662 1.66162E-04-4.98280E-06 0.00000E+00
 -1       663 1.66359E-04-5.31804E-06-1.65436E-24
 -1       664 1.66585E-04-5.72621E-06-8.27181E-25
 -1       665 1.66836E-04-6.20222E-06 0.00000E+00
 -1       666 1.67110E-04-6.74091E-06 8.27181E-25
 -1       667 1.67406E-04-7.33735E-06-1.65436E-24
 -1       668 1.67722E-04-7.98668E-06 0.00000E+00
 -1       669 1.68055E-04-8.68418E-06-1.65436E-24
 -1       670 1.68406E-04-9.42525E-06 8.27181E-25
 -1       671 1.68770E-04-1.02054E-05 0.00000E+00
 -1       672 1.69148E-04-1.10201E-05 8.27181E-25
 -1       673 1.69537E-04-1.18652E-05-1.65436E-24
 -1       674 1.69934E-04-1.27365E-05-4.13590E-25
 -1       675 1.70340E-04-1.36295E-05 4.13590E-25
 -1       676 1.66010E-04-1.40594E-05-3.30872E-24
 -1       677 1.66961E-04-1.41565E-05 0.00000E+00
 -1       678 1.67911E-04-1.42536E-05 0.00000E+00
 -1       679 1.68859E-04-1.43504E-05-1.65436E-24
 -1       680 1.69805E-04-1.44471E-05-1.65436E-24
 -1       771 1.70070E-05 1.46235E-05 0.00000E+00
 -1       772 7.79740E-06 3.47163E-05 0.00000E+00
 -1       773 2.43795E-07 5.06199E-05 0.00000E+00
 -1       774-5.76824E-06 6.25766E-05 0.00000E+00
 -1       775-1.03503E-05 7.08374E-05-5.29396E-23
 -1       776-1.36186E-05 7.56678E-05 2.64698E-23
 -1       777-1.56888E-05 7.73421E-05 0.00000E+00
 -1       778-1.66794E-05 7.61462E-05 0.00000E+00
 -1       779-1.67078E-05 7.23734E-05-5.29396E-23
 -1       780-1.58935E-05 6.63268E-05-5.29396E-23
 -1       781-1.43553E-05 5.83151E-05 5.29396E-23
 -1       782-1.22131E-05 4.86549E-05 2.64698E-23
 -1       783-9.58629E-06 3.76663E-05-5.29396E-23
 -1       784-6.59520E-06 2.56752E-05 0.00000E+00
 -1       785-3.35941E-06 1.30097E-05 0.00000E+00
 -1       786 1.72473E-04 2.53950E-05 0.00000E+00
 -1       787 1.72513E-04 2.36495E-05-4.13590E-25
 -1       788 1.72553E-04 2.19450E-05 8.27181E-25
 -1       789 1.72594E-04 2.02737E-05 0.00000E+00
 -1       790 1.72635E-04 1.86310E-05 0.00000E+00
 -1       791 1.72676E-04 1.70123E-05 0.00000E+00
 -1       792 1.72717E-04 1.54153E-05 0.00000E+00
 -1       793 1.72758E-04 1.38378E-05 8.27181E-25
 -1       794 1.72799E-04 1.22795E-05-1.65436E-24
 -1       795 1.72840E-04 1.07400E-05 8.27181E-25
 -1       796 1.72882E-04 9.22088E-06-1.65436E-24
 -1       797 1.72923E-04 7.72365E-06-8.27181E-25
 -1       798 1.72964E-04 6.25198E-06 0.00000E+00
 -1       799 1.73006E-04 4.80960E-06 8.27181E-25
 -1       800 1.73047E-04 3.40300E-06 1.65436E-24
 -1       801 1.33310E-04 2.43198E-05 0.00000E+00
 -1       802 1.47404E-05 1.54152E-05 0.00000E+00
 -1       803-8.75546E-05 7.96573E-06 5.29396E-23
 -1       804-7.95010E-05 5.49535E-06-2.64698E-23
 -1       805-2.68273E-05 2.27202E-06-5.29396E-23
 -1       806 1.73003E-04 2.53328E-05 0.00000E+00
 -1       807 1.73555E-04 2.35031E-05-8.27181E-25
 -1       808 1.74096E-04 2.17051E-05-3.30872E-24
 -1       809 1.74623E-04 1.99422E-05-1.65436E-24
 -1       810 1.75135E-04 1.82177E-05 3.30872E-24
 -1       811 1.75632E-04 1.65350E-05 1.65436E-24
 -1       812 1.76111E-04 1.48974E-05 1.65436E-24
 -1       813 1.76573E-04 1.33082E-05-1.65436E-24
 -1       814 1.77016E-04 1.17707E-05-3.30872E-24
 -1       815 1.77438E-04 1.02881E-05 0.00000E+00
 -1       816 1.77838E-04 8.86369E-06-1.65436E-24
 -1       817 1.78215E-04 7.50080E-06 0.00000E+00
 -1       818 1.78568E-04 6.20266E-06 3.30872E-24
 -1       819 1.78896E-04 4.97253E-06 8.27181E-25
 -1       820 1.79198E-04 3.81362E-06 1.65436E-24
 -1       821 1.72970E-04 4.89665E-07 0.00000E+00
 -1       822 1.72843E-04-1.46886E-06 0.00000E+00
 -1       823 1.72717E-04-3.63956E-06-3.30872E-24
 -1       824 1.72588E-04-5.82398E-06 1.65436E-24
 -1       825 1.72461E-04-7.82041E-06-3.30872E-24
 -1       826 1.72333E-04-9.42812E-06 0.00000E+00
 -1       827 1.72206E-04-1.05456E-05-3.30872E-24
 -1       828 1.72080E-04-1.10741E-05 1.65436E-24
 -1       829 1.71953E-04-1.10653E-05 3.30872E-24
 -1       830 1.71827E-04-1.05736E-05-1.65436E-24
 -1       831 1.71700E-04-9.77691E-06-3.30872E-24
 -1       832 1.71574E-04-8.85464E-06 0.00000E+00
 -1       833 1.71448E-04-8.01841E-06 0.00000E+00
 -1       834 1.71323E-04-7.47927E-06 0.00000E+00
 -1       835 1.71198E-04-7.37272E-06 8.27181E-25
 -1       836 1.74347E-04 2.15338E-06-3.30872E-24
 -1       837 1.75488E-04 2.27077E-06 1.65436E-24
 -1       838 1.76542E-04 2.38807E-06 0.00000E+00
 -1       839 1.77538E-04 2.50470E-06 0.00000E+00
 -1       840 1.78505E-04 2.62116E-06 0.00000E+00
 -1       856 1.71063E-04-8.50644E-06 0.00000E+00
 -1       857 1.71043E-04-9.05421E-06 1.29247E-26
 -1       858 1.71023E-04-9.49482E-06 0.00000E+00
 -1       859 1.71002E-04-9.84809E-06-2.06795E-25
 -1       860 1.70981E-04-1.01340E-05 0.00000E+00
 -1       861 1.70960E-04-1.03723E-05-4.13590E-25
 -1       862 1.70939E-04-1.05832E-05 0.00000E+00
 -1       863 1.70919E-04-1.07867E-05-4.13590E-25
 -1       864 1.70898E-04-1.10027E-05 0.00000E+00
 -1       865 1.70877E-04-1.12512E-05 4.13590E-25
 -1       866 1.70856E-04-1.15523E-05-8.27181E-25
 -1       867 1.70835E-04-1.19259E-05-4.13590E-25
 -1       868 1.70814E-04-1.23919E-05 0.00000E+00
 -1       869 1.70792E-04-1.29701E-05 0.00000E+00
 -1       870 1.70771E-04-1.36802E-05 0.00000E+00
 -1       871 1.72021E-04-7.83540E-06 0.00000E+00
 -1       872 1.73097E-04-7.84213E-06 0.00000E+00
 -1       873 1.74248E-04-7.84948E-06 0.00000E+00
 -1       874 1.75410E-04-7.85751E-06-3.61892E-25
 -1       875 1.76521E-04-7.86609E-06-6.20385E-25
 -1       876 1.71452E-04-8.49310E-06-3.30872E-24
 -1       877 1.71803E-04-9.09215E-06 0.00000E+00
 -1       878 1.72133E-04-9.63636E-06 0.00000E+00
 -1       879 1.72446E-04-1.01326E-05 1.65436E-24
 -1       880 1.72743E-04-1.05879E-05 0.00000E+00
 -1       881 1.73028E-04-1.10090E-05 1.65436E-24
 -1       882 1.73302E-04-1.14029E-05 0.00000E+00
 -1       883 1.73569E-04-1.17765E-05 0.00000E+00
 -1       884 1.73831E-04-1.21365E-05-3.30872E-24
 -1       885 1.74090E-04-1.24899E-05 1.65436E-24
 -1       886 1.74349E-04-1.28436E-05 3.30872E-24
 -1       887 1.74611E-04-1.32043E-05 0.00000E+00
 -1       888 1.74878E-04-1.35790E-05-3.30872E-24
 -1       889 1.75152E-04-1.39748E-05-1.65436E-24
 -1       890 1.75436E-04-1.43983E-05 0.00000E+00
 -1       891 1.71712E-04-1.45949E-05 0.00000E+00
 -1       892 1.72654E-04-1.46482E-05 0.00000E+00
 -1       893 1.73550E-04-1.47015E-05 0.00000E+00
 -1       894 1.74377E-04-1.47545E-05-8.27181E-25
 -1       895 1.75110E-04-1.48073E-05-4.13590E-25
 -1       956 1.79353E-04 1.80192E-06 1.65436E-24
 -1       957 1.79231E-04 9.56966E-07-8.27181E-25
 -1       958 1.79109E-04 1.84658E-07-1.65436E-24
 -1       959 1.78987E-04-5.25131E-07 0.00000E+00
 -1       960 1.78864E-04-1.18256E-06 0.00000E+00
 -1       961 1.78741E-04-1.79783E-06 0.00000E+00
 -1       962 1.78619E-04-2.38114E-06 0.00000E+00
 -1       963 1.78496E-04-2.94272E-06 1.65436E-24
 -1       964 1.78374E-04-3.49277E-06-3.30872E-24
 -1       965 1.78251E-04-4.04152E-06-1.65436E-24
 -1       966 1.78129E-04-4.59919E-06 3.30872E-24
 -1       967 1.78006E-04-5.17599E-06 0.00000E+00
 -1       968 1.77884E-04-5.78213E-06 0.00000E+00
 -1       969 1.77761E-04-6.42780E-06-1.65436E-24
 -1       970 1.77640E-04-7.12315E-06 0.00000E+00
 -1       971 1.77408E-04-8.62855E-06-1.65436E-24
 -1       972 1.77296E-04-9.28956E-06 0.00000E+00
 -1       973 1.77183E-04-9.87082E-06 3.30872E-24
 -1       974 1.77071E-04-1.03826E-05 0.00000E+00
 -1       975 1.76958E-04-1.08352E-05 3.30872E-24
 -1       976 1.76845E-04-1.12390E-05 0.00000E+00
 -1       977 1.76733E-04-1.16041E-05 3.30872E-24
 -1       978 1.76620E-04-1.19410E-05 0.00000E+00
 -1       979 1.76508E-04-1.22600E-05 0.00000E+00
 -1       980 1.76395E-04-1.25714E-05 0.00000E+00
 -1       981 1.76282E-04-1.28855E-05 3.30872E-24
 -1       982 1.76170E-04-1.32127E-05 0.00000E+00
 -1       983 1.76058E-04-1.35633E-05 0.00000E+00
 -1       984 1.75946E-04-1.39476E-05 0.00000E+00
 -1       985 1.75834E-04-1.43760E-05 3.30872E-24
 -3
    1PSTEP                        40          20           1          
  100CL  120 6.20121E-01         409                     0   20           1
 -4  STRESS      6    1
 -5  SXX         1    4    1    1
 -5  SYY         1    4    2    2
 -5  SZZ         1    4    3    3
 -5  SXY         1    4    1    2
 -5  SYZ         1    4    2    3
 -5  SZX         1    4    3    1
 -1         1-4.32043E+06-1.61173E+06-9.52121E+05-1.57385E+06 3.63798E-10-2.03436E-07
 -1         2-2.96843E+03-4.18572E+06-8.04433E+03-1.14556E+05-1.76385E-10 3.49341E-08
 -1         3-1.06424E+03-1.35236E+06 3.16501E+02-1.62594E+03-4.84391E-10 3.44517E-09
 -1         5-3.95819E+01 3.52418E+05 9.06843E+00-8.09095E-01-4.58014E-10-6.24277E-09
 -1         8-6.04038E+05-1.93761E+05-5.05784E+04-2.35834E+05-4.80213E-10-7.70160E-09
 -1         9 1.46601E+07-6.99223E+05 2.41961E+06-1.77604E+06 4.15370E-08 9.57400E-08
 -1        10-1.95112E+03-1.40915E+06-4.08881E+03-1.10144E+04-1.15051E-08-1.91291E-08
 -1        12-3.59377E+01 3.52437E+05 2.96158E+02-5.70730E+00-5.59073E-10 1.22418E-08
 -1        15 1.17005E+03 6.43003E+02 3.78216E+03 1.64441E+00-3.44215E-10 8.36834E-08
 -1        16 2.92619E+07-2.90584E+05 3.94035E+06-2.63678E+06 1.12535E-08 3.30231E-07
 -1        17 1.05005E+07 8.76378E+06 3.10260E+06 8.00946E+06-5.93427E-09-9.22009E-09
 -1        18 9.62572E+04 2.12709E+04-4.50533E+03-1.06859E+05 1.43832E-08 2.00953E-08
 -1        19 1.12355E+05 1.29514E+05-8.92914E+02 2.06474E+04 1.07357E-09-1.59162E-09
 -1        20-7.18246E+04-5.27936E+05-1.18213E+05 2.52140E+04-1.23161E-09 1.90885E-08
 -1        21-4.34166E+01-2.76884E+05-8.68416E+02 1.80662E+02 1.06809E-08-1.04058E-08
 -1        24 1.75297E+07 1.58184E+07 4.80692E+06 1.48050E+07-1.71800E-07-5.11063E-08
 -1        25 5.10406E+04 1.69664E+03 3.12905E+04-4.90208E+05-1.71376E-09 1.99834E-09
 -1        26-5.08358E+04 8.38458E+04-2.28054E+04 2.26624E+02 2.47383E-10 1.18303E-08
 -1        27-7.18434E+04-2.85814E+05-1.04995E+05 6.36832E+04 4.02694E-09 2.33740E-09
 -1        28 2.09289E+04-7.93714E+04 1.57902E+04 1.99835E+04-2.69384E-09-6.19067E-09
 -1        32-1.57222E+06-2.92242E+06-1.75128E+05 1.90081E+05-4.02506E-08-8.70784E-09
 -1        33-1.65418E+05 8.48064E+04 2.97350E+04-3.58818E+04-2.15808E-09-1.56406E-08
 -1        34-2.07204E+05-2.27170E+04 6.21997E+02 6.91360E+04-4.15294E-09-5.41089E-09
 -1        35-2.15087E+04-3.14873E+04-1.25141E+03 4.81901E+04-5.95638E-10 3.79320E-09
 -1        51 4.87076E+04-1.94965E+05 1.05168E+05-5.92313E+05-2.61934E-10-1.36424E-07
 -1        52 1.74166E+04-1.77902E+05 5.66103E+04-6.90500E+05 4.65661E-10-3.41621E-07
 -1        53 4.69563E+03-1.92723E+05 3.17577E+04-5.90125E+05 5.92991E-10-3.76669E-07
 -1        54 1.05006E+04-1.89217E+05 3.07123E+04-6.92802E+05-2.91038E-10-3.37139E-07
 -1        55 2.22721E+04-1.98172E+05 4.27583E+04-5.89800E+05 4.14730E-10 2.48037E-08
 -1        56-8.15431E+06-9.31650E+05-7.05455E+05-3.19878E+06-6.22822E-08 6.14673E-08
 -1        57-8.59850E+06-1.40070E+06-4.74418E+05-2.97787E+06 4.33829E-08 3.53670E-07
 -1        58-8.25206E+06-1.19645E+06-1.65667E+05-3.20076E+06-2.71248E-08 1.88462E-07
 -1        59-8.49228E+06-1.08475E+06-9.84959E+04-2.97431E+06-2.97814E-08-2.04549E-07
 -1        60-8.26086E+06-1.23813E+06-3.83945E+04-3.20668E+06-1.26761E-08 3.35433E-07
 -1        61-8.45572E+06-1.05909E+06-2.14569E+04-2.99249E+06-5.50567E-08 1.01154E-07
 -1        62-8.28716E+06-1.22168E+06-1.12193E+04-3.18212E+06 1.30967E-09-1.84357E-07
 -1        63-8.38092E+06-1.12033E+06-7.49059E+03-3.06346E+06-3.30838E-08-3.73893E-07
 -1        64-8.33222E+06-1.17906E+06-1.13821E+04-3.13322E+06 1.38352E-08-3.32284E-09
 -1        65-8.29396E+06-1.21314E+06-1.88095E+04-3.16381E+06 2.65118E-08 2.40675E-08
 -1        66-8.37372E+06-1.12932E+06-3.61330E+04-3.08145E+06-2.25245E-08-9.21518E-08
 -1        67-8.24954E+06-1.31852E+06-8.94821E+04-3.24473E+06-9.22373E-08-2.45854E-07
 -1        68-8.38038E+06-1.07242E+06-1.50788E+05-3.05447E+06-4.06835E-08-1.69166E-08
 -1        69-8.37500E+06-1.58606E+06-4.33302E+05-3.23108E+06-2.12749E-08 2.52439E-07
 -1        70-8.25244E+06-8.67423E+05-6.42412E+05-3.09448E+06 8.09086E-09 9.79926E-08
 -1        86 5.20703E+02-4.23659E+06-2.06043E+04 5.72694E+04 1.01504E-08-1.36190E-07
 -1        87-1.30368E+04-4.21118E+06-3.08073E+04-1.53357E+05 1.89084E-08 5.73233E-07
 -1        88 1.32587E+04-4.21372E+06-5.32123E+04 9.60881E+04 1.19107E-08 6.48654E-08
 -1        89-9.70374E+04-4.23919E+06-1.37394E+05-1.03568E+05 1.89102E-08-3.35512E-07
 -1        90 8.28216E+04-4.20747E+06-2.09113E+05 7.46728E+03-1.81899E-09-1.38343E-07
 -1       121-1.46397E+03-1.35590E+06-3.63780E+02 8.07115E+02 1.25158E-09 3.23416E-09
 -1       122-9.20582E+02-1.35238E+06 6.09306E+02-3.25423E+03-4.49234E-09 1.61399E-08
 -1       123-1.49669E+03-1.35601E+06 2.74256E+02 2.41217E+03 3.41277E-09-1.20053E-09
 -1       124 4.45063E+02-1.35190E+06 2.37940E+03-6.87437E+03-8.73297E-09 1.11631E-08
 -1       125-2.22462E+03-1.35675E+06 2.79596E+03 4.39933E+03 5.58794E-09-1.18234E-09
 -1       191-4.18396E+01 3.52441E+05 9.16807E+00 4.15649E-01-4.41407E-10-7.35781E-09
 -1       192-4.04366E+01 3.52419E+05 1.92814E+01-2.80631E+00-5.34154E-10-5.81713E-09
 -1       193-4.41005E+01 3.52441E+05 3.42326E+01 2.45943E+00-7.35007E-10-1.19089E-08
 -1       194-4.31815E+01 3.52422E+05 7.31281E+01-6.44927E+00-3.56779E-10-4.94492E-09
 -1       195-4.84419E+01 3.52438E+05 1.41409E+02 4.13856E+00-1.11149E-09-1.49339E-09
 -1       251-2.07633E+06-3.70955E+04-2.09363E+05-1.39584E+05 7.34872E-10 2.21713E-07
 -1       252-1.05689E+06 4.64057E+04 5.83328E+04 4.31778E+05 1.41172E-08-1.59307E-08
 -1       253-1.63068E+06-1.60976E+04-3.67129E+04-2.86992E+05-2.16887E-08 2.46377E-07
 -1       254-1.53647E+06 6.58406E+04 1.00582E+04 5.72395E+05-2.49943E-08-1.53732E-08
 -1       255-1.64419E+06-1.78077E+04-2.06982E+04-2.84585E+05 9.93168E-10-1.77729E-08
 -1       256-1.02306E+06 5.32660E+04 1.14208E+05 4.21322E+05 2.67382E-08 1.15908E-07
 -1       257-2.09379E+06-4.45277E+04-1.13400E+05-1.31392E+05-2.45564E-09-2.79053E-08
 -1       258-5.12717E+05 4.01079E+04 2.10640E+05 7.80020E+03 4.72573E-09 2.88005E-08
 -1       259-2.10431E+06-4.55147E+04-1.14190E+05 1.26171E+05 2.58660E-09-4.21874E-08
 -1       260-9.98343E+05 5.48668E+04 1.23128E+05-4.10590E+05-2.13695E-08-3.64655E-07
 -1       261-1.65596E+06-2.03976E+04-1.53611E+04 2.83967E+05 4.06135E-08 6.91529E-08
 -1       262-1.53173E+06 7.62799E+04 2.99075E+04-5.70099E+05-4.81892E-08-3.89712E-08
 -1       263-1.62350E+06-2.40271E+04-2.94231E+03 2.90415E+05 1.89966E-08-3.21068E-07
 -1       264-1.05493E+06 1.08178E+05 1.39521E+05-4.40226E+05 1.07332E-07 8.17781E-08
 -1       265-2.08787E+06-8.87445E+04-8.49295E+04 1.49790E+05 4.83815E-08 3.87363E-07
 -1       266-2.11818E+04-9.90512E+03 4.96966E+04-3.51839E+01 4.36557E-10 5.73362E-08
 -1       267 2.45555E+04 1.15439E+04 3.51259E+04 4.05967E+01 4.60659E-10-1.82498E-07
 -1       268-3.29285E+03-1.63498E+03 1.30561E+04-5.17265E+00 1.18234E-10 4.20476E-08
 -1       269 3.88788E+03 1.95668E+03 8.48629E+03 6.02545E+00-4.84079E-10-1.60968E-07
 -1       270-5.83576E+02-3.21499E+02 4.09645E+03-8.17692E-01 2.69665E-10-5.02874E-08
 -1       271-1.91325E+06-2.27373E+05-1.42040E+05-7.28286E+05 1.10958E-08 1.56113E-07
 -1       272-2.03218E+06-2.63844E+05-9.14188E+04-6.51203E+05 1.49448E-08-2.18741E-07
 -1       273-1.93840E+06-2.64393E+05-3.34999E+04-7.23768E+05 1.80648E-08 4.04099E-07
 -1       274-2.00266E+06-2.18443E+05-1.88051E+04-6.58381E+05 3.11824E-08 8.43575E-08
 -1       275-1.94199E+06-2.68286E+05-7.80065E+03-7.22750E+05-2.21121E-08 3.09719E-08
 -1       276-1.99686E+06-2.14968E+05-4.08330E+03-6.60622E+05 3.02043E-08-4.16903E-08
 -1       277-1.94356E+06-2.67762E+05-2.09144E+03-7.21290E+05 2.81088E-08 1.54189E-07
 -1       278-1.99244E+06-2.17676E+05-1.24257E+03-6.63635E+05 2.66300E-08 3.36913E-08
 -1       279-1.94541E+06-2.66154E+05-1.57082E+03-7.19049E+05-3.81679E-08 5.88925E-08
 -1       280-1.98707E+06-2.22525E+05-2.11875E+03-6.67920E+05 1.68438E-08 4.36748E-07
 -1       281-1.94768E+06-2.63720E+05-4.54022E+03-7.16115E+05-4.85143E-08 2.03183E-07
 -1       282-1.98220E+06-2.30984E+05-9.58473E+03-6.73193E+05 1.08412E-09 1.43399E-07
 -1       283-1.94899E+06-2.58778E+05-1.80738E+04-7.12770E+05 4.58858E-08 3.46870E-08
 -1       284-1.98970E+06-2.61435E+05-4.73316E+04-6.76623E+05-5.86824E-08-1.76552E-08
 -1       285-1.93932E+06-2.36410E+05-7.48731E+04-7.11032E+05-2.55022E-09-3.29237E-08
 -1       301 6.42512E+03-6.64309E+05 1.26649E+05-1.04702E+06 9.67702E-10 2.86469E-07
 -1       302 7.48809E+03-6.31269E+05 7.75149E+04-1.53174E+06-1.87720E-09-2.24918E-08
 -1       303-8.96639E+03-6.52845E+05 4.63519E+04-1.04498E+06 3.56522E-10-2.67028E-08
 -1       304-7.96460E+03-6.22923E+05 5.17092E+04-1.52986E+06-1.01863E-09 6.08197E-08
 -1       305-1.64946E+04-6.37514E+05 6.72100E+04-1.04850E+06 8.73115E-11-1.92886E-07
 -1       306-3.77844E+07-6.81471E+06-1.04792E+07 3.93189E+04-1.58790E-07-1.45112E-07
 -1       307 3.54951E+07 5.50769E+06 7.63454E+06-1.67128E+07-7.84697E-07 1.05501E-07
 -1       308-6.20123E+06-2.17917E+06-8.26547E+05 6.39774E+06 1.67900E-07 3.35567E-08
 -1       309-7.75796E+05 1.31979E+07 3.32015E+06-2.21259E+07 2.40674E-07-6.66827E-07
 -1       310-1.33878E+07-3.16608E+06-2.73288E+06 7.13078E+06-2.28756E-08-1.11089E-07
 -1       311 5.03532E+07 1.50421E+06 9.60479E+06-1.00980E+07 1.60653E-08-1.56899E-07
 -1       312-3.98098E+07-6.72966E+06-1.03456E+07-5.83282E+06 1.28755E-07-1.60631E-07
 -1       313 5.85236E+07 2.02014E+07 1.39847E+07 3.02817E+07-4.76837E-07 3.18629E-07
 -1       314-1.96396E+07-2.28184E+07-9.28406E+06-1.61436E+07 2.06928E-07-1.23924E-07
 -1       315 1.48692E+06 3.78368E+07 7.57656E+06 1.38051E+07-4.27826E-08-4.53205E-07
 -1       316 2.43918E+06-1.10979E+07-7.76636E+05-1.22005E+06 6.13531E-07-7.98289E-07
 -1       317-1.46580E+07 2.70437E+07 3.29940E+06-1.05024E+07 9.33796E-08-1.01176E-06
 -1       318-3.07868E+05-1.58735E+07-2.80837E+06-3.62287E+06-1.28210E-06 5.85569E-08
 -1       319 1.20074E+07 4.18628E+07 9.63638E+06 2.13753E+07-8.52684E-07 1.55182E-07
 -1       320-2.66590E+07-2.23560E+07-1.17969E+07-1.67907E+07-3.78233E-07-3.71947E-08
 -1       336-2.95648E+02-1.46772E+06-1.31478E+04 6.51022E+03-2.23536E-08-1.49303E-08
 -1       337-5.30139E+03-1.46831E+06-1.85617E+04-1.59125E+04-4.16840E-08-2.16842E-08
 -1       338 9.03886E+02-1.46690E+06-2.97503E+04 9.24028E+03-2.86273E-08-7.98900E-09
 -1       339-3.24955E+04-1.48621E+06-6.85564E+04-2.13224E+04-5.28808E-08 2.77796E-08
 -1       340 2.17443E+04-1.45123E+06-1.07834E+05 1.17945E+04-3.50519E-08 2.41635E-08
 -1       406-1.49427E+01 3.52425E+05 5.82973E+02 1.79091E+00-1.38171E-09 4.84215E-09
 -1       407 1.68122E+02 3.52540E+05 1.24268E+03 1.80721E+01-4.01393E-10-4.89308E-10
 -1       408 6.02618E+02 3.52335E+05 2.47967E+03-2.02547E+01-1.81444E-09 2.78669E-09
 -1       409 2.65037E+03 3.53332E+05 5.58589E+03 2.10058E+02-3.30601E-10 9.05948E-09
 -1       410 7.67921E+03 3.51625E+05 1.14018E+04-2.00932E+02-2.33194E-09 1.36188E-08
 -1       521-3.75315E+07-9.51779E+06-1.25166E+07 6.68463E+05-8.27713E-08-4.62169E-08
 -1       522 3.37154E+07 7.17121E+06 7.15278E+06-2.25640E+07-5.50994E-07-6.70523E-07
 -1       523-6.87039E+06-2.48530E+06-6.44396E+05 6.72325E+06 1.76311E-07-3.86673E-07
 -1       524-8.91919E+06 1.81229E+07 3.25054E+06-2.63374E+07 7.65969E-07-6.02900E-07
 -1       525-1.36707E+07-3.99287E+06-2.77337E+06 7.21684E+06 5.80156E-07-3.96394E-07
 -1       526 5.23329E+07 1.25931E+06 9.36196E+06-1.49057E+07-1.40164E-07-4.25323E-07
 -1       527-3.99975E+07-9.87944E+06-1.21790E+07-5.02306E+06 4.26080E-08-3.04222E-07
 -1       528 6.21636E+07 2.15431E+07 1.36046E+07 3.41316E+07 3.99130E-07-3.47645E-07
 -1       529-2.03318E+07-2.48826E+07-1.07726E+07-1.45484E+07 1.81550E-07-1.77184E-07
 -1       530-3.96267E+06 4.38550E+07 7.45508E+06 1.13018E+07-4.12023E-07 5.46628E-07
 -1       531 2.19873E+06-1.20977E+07-5.63272E+05-1.23649E+06-1.02516E-06 5.43543E-07
 -1       532-1.90415E+07 2.80541E+07 3.23403E+06-1.82025E+07 6.59929E-07-1.01465E-06
 -1       533-5.92691E+05-1.63180E+07-2.78329E+06-3.11594E+06-3.65602E-07-1.21107E-06
 -1       534 6.92044E+06 4.78832E+07 9.12318E+06 2.06199E+07-7.06932E-08 8.81730E-07
 -1       535-2.72442E+07-2.48444E+07-1.39834E+07-1.51760E+07 1.42609E-07 5.14847E-07
 -1       536-6.27781E+05-2.65499E+04-5.91747E+04-4.48227E+04-3.25281E-09 4.83030E-08
 -1       537-1.32916E+05 2.33361E+04 4.94480E+04 1.04974E+05-9.32328E-08 9.77204E-08
 -1       538-3.90057E+05 4.16362E+03-2.89851E+03-6.26129E+04 2.60410E-08 8.20139E-08
 -1       539-2.95772E+05 6.20438E+01 1.54133E+04 1.19311E+05 1.39921E-07 8.59254E-08
 -1       540-4.69101E+05 1.89345E+02-1.76663E+04-5.95204E+04 1.98263E-08 8.06875E-08
 -1       541 2.70405E+04 1.26652E+04 8.12852E+04 8.19376E+04-1.89511E-08 7.53835E-08
 -1       542-7.04224E+05-1.56177E+04-6.56828E+04-2.46538E+04 6.08625E-08 4.91164E-08
 -1       543 2.27535E+05 2.11474E+04 1.21866E+05-1.16984E+04 3.18287E-08-1.13569E-08
 -1       544-6.64244E+05-1.27095E+04-5.79530E+04 3.36613E+04-1.20635E-08-3.79097E-08
 -1       545-6.57301E+04 6.99883E+03 6.08213E+04-9.64396E+04 8.11497E-09-5.64332E-08
 -1       546-4.18800E+05 5.00549E+03-9.77388E+03 5.98606E+04 3.22971E-08-6.03211E-08
 -1       547-3.09261E+05-4.64060E+03 6.38264E+03-1.21809E+05-1.15677E-07-8.63572E-08
 -1       548-4.27223E+05 4.34310E+03-2.09522E+04 5.94964E+04-1.07039E-07-9.38339E-08
 -1       549-4.88924E+04 7.72416E+03 4.05266E+04-9.39101E+04-6.44686E-08-6.27970E-08
 -1       550-6.72185E+05-1.31651E+04-1.09369E+05 3.14745E+04 8.22502E-09-2.63881E-08
 -1       551 2.12492E+04-5.82920E+05-2.87309E+04-9.77228E+05-9.08112E-08-1.42027E-08
 -1       552 5.85845E+04-6.16593E+05 3.66986E+02-1.39165E+06-6.41885E-08 2.60479E-08
 -1       553 4.72768E+04-6.15881E+05 2.51351E+04-9.71794E+05-1.04963E-07 1.74769E-08
 -1       554 9.47205E+04-6.26806E+05 7.17305E+04-1.39419E+06-6.63131E-08 6.43922E-09
 -1       555 7.68710E+04-6.40884E+05 1.34895E+05-9.70890E+05-1.08383E-07-1.22354E-08
 -1       556 1.94267E+05-3.41599E+05 2.66908E+03-3.65304E+05-2.28756E-08-2.32540E-08
 -1       557 3.04723E+05-4.34614E+05 3.55188E+03-4.75878E+05 4.22006E-10-6.23368E-09
 -1       558 1.78509E+05-3.32400E+05-1.92179E+03-3.70410E+05-1.97033E-08 7.08678E-09
 -1       559 2.87660E+05-4.32694E+05 5.48615E+01-4.92167E+05 1.81026E-08 1.22564E-08
 -1       560 1.66461E+05-3.24817E+05-1.94276E+03-3.78961E+05 1.58034E-08 8.88394E-09
 -1       561 2.72903E+05-4.26642E+05-2.83262E+02-5.02266E+05 8.51287E-09 8.36917E-09
 -1       562 1.57098E+05-3.19019E+05-1.15037E+03-3.85686E+05-9.31323E-10 2.39743E-08
 -1       563 2.61896E+05-4.21823E+05-9.34055E+01-5.09432E+05-8.57835E-09-4.11865E-09
 -1       564 1.50523E+05-3.14927E+05-4.54901E+02-3.90330E+05 8.81846E-09 5.68753E-09
 -1       565 2.54731E+05-4.18702E+05 1.60837E+01-5.14002E+05 2.75031E-09 2.63453E-08
 -1       566 1.46810E+05-3.12576E+05-1.85491E+02-3.92927E+05-6.31553E-09-1.42700E-08
 -1       567 2.51453E+05-4.17274E+05-2.87581E+02-5.15968E+05 1.72695E-08-7.51243E-09
 -1       568 1.46027E+05-3.12104E+05-9.01883E+02-3.93570E+05 8.82665E-10 1.07102E-08
 -1       569 2.50826E+05-4.17239E+05-2.26637E+03-5.14405E+05-2.25009E-09 2.48547E-08
 -1       570 1.49151E+05-3.14981E+05-4.98603E+03-3.92724E+05 8.83301E-09 1.20690E-08
 -1       571 2.66219E+05 9.65344E+03 1.39055E+04-8.30645E+04 1.00772E-09 1.18002E-08
 -1       572 2.68249E+05 3.56770E+03 6.81423E+03-9.11308E+04 5.42514E-10-1.01045E-09
 -1       573 2.67029E+05 1.05776E+03 3.02769E+03-8.29051E+04 4.18549E-09 3.89537E-09
 -1       574 2.67240E+05 5.64983E+02 1.51802E+03-9.13288E+04 4.66935E-09-2.11076E-08
 -1       575 2.67119E+05 3.16317E+02 7.16345E+02-8.28834E+04-5.09715E-10-6.43286E-09
 -1       576 2.67113E+05 3.17205E+02 3.66474E+02-9.13552E+04-8.76844E-09-1.32832E-08
 -1       577 2.67151E+05 2.65387E+02 1.82854E+02-8.28804E+04-6.34009E-09 2.15659E-08
 -1       578 2.67131E+05 2.87235E+02 1.05186E+02-9.13588E+04-4.92400E-09 2.06692E-08
 -1       579 2.67205E+05 2.38911E+02 7.22201E+01-8.28801E+04 5.80621E-09 7.57609E-10
 -1       580 2.67208E+05 2.49868E+02 8.29807E+01-9.13543E+04-5.06134E-09 8.12452E-09
 -1       581 2.67290E+05 1.96542E+02 1.25889E+02-8.28853E+04 5.39330E-09-1.07048E-09
 -1       582 2.67343E+05 2.28980E+02 2.54621E+02-9.13004E+04 4.91127E-10-6.60293E-10
 -1       583 2.67393E+05 2.49855E+02 4.90586E+02-8.29345E+04-1.00226E-09-7.34008E-09
 -1       584 2.67654E+05 6.47927E+02 1.10817E+03-9.08865E+04 1.25237E-09-3.04090E-09
 -1       585 2.67389E+05 1.59377E+03 2.24676E+03-8.32988E+04-1.35151E-09-1.15579E-08
 -1       586-3.17661E+03 1.02240E+05-3.01215E+03-2.32151E+05-7.50151E-09 5.78711E-09
 -1       587-1.10969E+03 1.01948E+05 5.20787E+02-2.55511E+05-5.22596E-09-9.76229E-10
 -1       588 5.14122E+02 1.01826E+05 4.24045E+03-2.32030E+05-1.50430E-09 2.11276E-08
 -1       589 4.79845E+03 1.04046E+05 1.11647E+04-2.55277E+05-6.02722E-09 8.02356E-09
 -1       590 1.52488E+04 1.00608E+05 2.34864E+04-2.32430E+05-2.83944E-09 1.35115E-08
 -1       591-6.49570E+04-1.43369E+04-2.01206E+04-2.82566E+04-5.39399E-09-2.52567E-09
 -1       592-6.84573E+04-1.76658E+04-1.08988E+04-3.16663E+04 4.93301E-10-2.67460E-09
 -1       593-6.69701E+04-1.28761E+04-4.53670E+03-2.97312E+04-4.24141E-09-2.85754E-08
 -1       594-6.56773E+04-1.47155E+04-2.26259E+03-3.17740E+04-1.09384E-09 7.51965E-09
 -1       595-6.71236E+04-1.28712E+04-1.03887E+03-2.97982E+04 3.78326E-09 2.01180E-08
 -1       596-6.54871E+04-1.45806E+04-5.28107E+02-3.17516E+04 8.15032E-09 2.00045E-08
 -1       597-6.71429E+04-1.28849E+04-2.87552E+02-2.98008E+04 5.18861E-09 1.07403E-08
 -1       598-6.54684E+04-1.45753E+04-2.31128E+02-3.17454E+04-3.90628E-09-2.31128E-08
 -1       599-6.71417E+04-1.28853E+04-2.95194E+02-2.98004E+04 3.20324E-09-2.30079E-09
 -1       600-6.54873E+04-1.45812E+04-5.48348E+02-3.17499E+04 2.27431E-09 6.66205E-11
 -1       601-6.71195E+04-1.28721E+04-1.08174E+03-2.97972E+04 3.09433E-09-5.55247E-09
 -1       602-6.56853E+04-1.47208E+04-2.35755E+03-3.17699E+04 2.07092E-09-2.68290E-09
 -1       603-6.69571E+04-1.28798E+04-4.72783E+03-2.97281E+04 1.93268E-10 1.31763E-08
 -1       604-6.85984E+04-1.77777E+04-1.13573E+04-3.16352E+04 1.46662E-09-4.46926E-09
 -1       605-6.48411E+04-1.44183E+04-2.09672E+04-2.82090E+04 4.94734E-09 5.65706E-10
 -1       606 2.60975E+04-1.30316E+04-2.33766E+04 2.39084E+04 5.47152E-09 7.07314E-09
 -1       607 2.21019E+04-4.24849E+03-1.16413E+04 2.68599E+04-1.23691E-09-4.31078E-09
 -1       608 2.43779E+04-7.59181E+02-5.21162E+03 2.37338E+04-3.43425E-09-1.52363E-09
 -1       609 2.39394E+04-2.51645E+02-2.63270E+03 2.70723E+04 1.45883E-09 8.44761E-09
 -1       610 2.41816E+04-2.69867E+01-1.25627E+03 2.37134E+04 1.63918E-08-1.13232E-09
 -1       611 2.41107E+04-2.48013E+01-6.33403E+02 2.70953E+04 2.42817E-08 1.46406E-08
 -1       612 2.41371E+04-1.34616E+01-3.01309E+02 2.37114E+04 8.94761E-09-1.00731E-08
 -1       613 2.41195E+04-2.01038E+01-1.35188E+02 2.70981E+04 6.03904E-10-2.90606E-08
 -1       614 2.41155E+04-1.84435E+01-3.21906E+01 2.37107E+04 3.87263E-09-6.50380E-09
 -1       615 2.41133E+04-1.79881E+01 5.55365E+01 2.70985E+04-3.15686E-09 1.94018E-09
 -1       616 2.40988E+04-1.49761E+01 1.67561E+02 2.37109E+04-4.52428E-09 7.38601E-09
 -1       617 2.41324E+04 1.83567E+01 3.82733E+02 2.70980E+04-2.63776E-09 2.21371E-09
 -1       618 2.40647E+04 9.58478E+01 7.71599E+02 2.37112E+04-1.36151E-09 3.51042E-09
 -1       619 2.44042E+04 6.15361E+02 1.73279E+03 2.70974E+04-8.92328E-10-6.04200E-09
 -1       620 2.38081E+04 1.92589E+03 3.48288E+03 2.37119E+04 7.18728E-10 1.25056E-10
 -1       621 4.14898E+02 2.74203E+05 3.34223E+03 3.34247E+04 7.53971E-10-9.53150E-10
 -1       622 5.40037E+02 2.74989E+05 3.01482E+03 4.85504E+04 8.41737E-10 6.68706E-09
 -1       623 9.40291E+01 2.74376E+05 3.68776E+03 3.32714E+04 1.14551E-09-9.04311E-09
 -1       624 1.85483E+03 2.76120E+05 7.20115E+03 4.87026E+04 1.14341E-09-6.60293E-10
 -1       625 1.82852E+03 2.72950E+05 1.26091E+04 3.32683E+04 1.05410E-09-4.86671E-09
 -1       626 2.39463E+05 5.77773E+04 4.86349E+03 1.18058E+05-6.71935E-09 9.13315E-09
 -1       627 2.37203E+05 5.91633E+04 2.34362E+03 1.22180E+05-4.29645E-09 5.48698E-09
 -1       628 2.39590E+05 5.55458E+04 9.91009E+02 1.18877E+05-7.79073E-09-6.53699E-10
 -1       629 2.36591E+05 5.85256E+04 4.85022E+02 1.22416E+05-5.82077E-10-2.30160E-09
 -1       630 2.39603E+05 5.54382E+04 2.24830E+02 1.18910E+05 3.29601E-09-3.76943E-09
 -1       631 2.36525E+05 5.85021E+04 1.20732E+02 1.22418E+05 7.61725E-09-2.54579E-09
 -1       632 2.39599E+05 5.54426E+04 7.90161E+01 1.18906E+05 1.87342E-08-1.11801E-08
 -1       633 2.36516E+05 5.85045E+04 8.73438E+01 1.22413E+05 2.95340E-08-1.86417E-08
 -1       634 2.39593E+05 5.54406E+04 1.40563E+02 1.18904E+05 2.70170E-08-1.20151E-08
 -1       635 2.36528E+05 5.85035E+04 2.84074E+02 1.22418E+05 2.11153E-08 1.15733E-08
 -1       636 2.39584E+05 5.54360E+04 5.73521E+02 1.18904E+05 9.51400E-09-1.14587E-08
 -1       637 2.36651E+05 5.85929E+04 1.26083E+03 1.22416E+05-2.73508E-09-9.39599E-09
 -1       638 2.39538E+05 5.57149E+04 2.59059E+03 1.18777E+05 2.95904E-09-1.46056E-08
 -1       639 2.38012E+05 6.04854E+04 6.12928E+03 1.22015E+05 6.43649E-09-6.75755E-09
 -1       640 2.39351E+05 6.13648E+04 1.27194E+04 1.16393E+05 2.97860E-09 4.81600E-09
 -1       656 6.14881E+04-1.57144E+06-1.48434E+05-1.92333E+03-1.45519E-10 6.86660E-09
 -1       657-8.13333E+04-1.63851E+06-1.22945E+05 5.73634E+03-5.60249E-10-1.27255E-08
 -1       658 1.95908E+04-1.59050E+06-7.56918E+04-3.73719E+03 7.36463E-10-4.12313E-09
 -1       659-8.78714E+04-1.64161E+06-1.31536E+05 7.19686E+03-1.18507E-09 5.56547E-09
 -1       660 6.80113E+04-1.56835E+06-1.63206E+05-3.38383E+03-2.45200E-09 2.56772E-08
 -1       661 1.55845E+05 1.64348E+04 1.61634E+04 6.09308E+04-1.77351E-11 2.44881E-08
 -1       662 1.64871E+05 2.85147E+04 1.08927E+04 5.74325E+04 3.14856E-10 1.26811E-08
 -1       663 1.59019E+05 2.16213E+04 3.80973E+03 6.00108E+04-2.41903E-09-6.89329E-09
 -1       664 1.61193E+05 2.24482E+04 2.27876E+03 5.85552E+04-1.60725E-10-1.14563E-08
 -1       665 1.59499E+05 2.23309E+04 8.98979E+02 5.98718E+04 1.54620E-09 5.49664E-09
 -1       666 1.60626E+05 2.16358E+04 5.25880E+02 5.87358E+04 4.11687E-09 1.22014E-08
 -1       667 1.59582E+05 2.24125E+04 2.79182E+02 5.98379E+04 2.76762E-09-2.34103E-10
 -1       668 1.60535E+05 2.15758E+04 2.84064E+02 5.87849E+04 1.14824E-10-5.44169E-09
 -1       669 1.59589E+05 2.23891E+04 3.84296E+02 5.98230E+04 8.92726E-11-4.37859E-09
 -1       670 1.60629E+05 2.17832E+04 8.36501E+02 5.87866E+04-5.14268E-09 1.26434E-08
 -1       671 1.59488E+05 2.22094E+04 1.48519E+03 5.98343E+04-6.84665E-10 1.04075E-09
 -1       672 1.61496E+05 2.32274E+04 3.79974E+03 5.85762E+04 3.76610E-09 1.11233E-08
 -1       673 1.58728E+05 2.09814E+04 6.36774E+03 6.00194E+04 2.37378E-09 1.01913E-08
 -1       674 1.67557E+05 3.34568E+04 1.82104E+04 5.67945E+04-2.61701E-09 1.68893E-09
 -1       675 1.53465E+05 1.22665E+04 2.70305E+04 6.15085E+04-2.71393E-09-6.43377E-09
 -1       676 2.25966E+01-2.76811E+05-1.04667E+03-9.03336E+01 5.91854E-10 2.92435E-09
 -1       677-2.77434E+02-2.77064E+05-1.91557E+03 1.80536E+02 6.19315E-09-7.46542E-09
 -1       678 1.85625E+02-2.76631E+05-3.38624E+03-9.01428E+01-5.93445E-11-3.41350E-09
 -1       679-3.38678E+03-2.79108E+05-8.04423E+03 1.79803E+02 4.00235E-09 6.53874E-09
 -1       680 2.02167E+03-2.74768E+05-1.29646E+04-8.85985E+01-1.04137E-09 6.13255E-09
 -1       771-2.86931E+06-6.93079E+05-1.66314E+05-1.36931E+06-2.68919E-08-2.06928E-08
 -1       772-2.80238E+06-7.78634E+05-8.63906E+04-1.46765E+06-2.46946E-08 1.00481E-08
 -1       773-2.89902E+06-6.70028E+05-4.27217E+04-1.38338E+06-9.22591E-09 8.71660E-09
 -1       774-2.79081E+06-7.59285E+05-1.93470E+04-1.49008E+06 2.36905E-08 1.67347E-10
 -1       775-2.91335E+06-6.60077E+05-1.36061E+04-1.38942E+06-7.27596E-09-8.19273E-09
 -1       776-2.80112E+06-7.56517E+05-5.23375E+03-1.50668E+06-1.16415E-09-5.24597E-09
 -1       777-2.92555E+06-6.51299E+05-5.70969E+03-1.39466E+06 1.47556E-08 6.18456E-10
 -1       778-2.81199E+06-7.54140E+05-1.67054E+03-1.52089E+06 5.89353E-09 1.14796E-08
 -1       779-2.93596E+06-6.43668E+05-2.76339E+03-1.39911E+06-8.83301E-09-5.73345E-09
 -1       780-2.82151E+06-7.51918E+05-4.78301E+02-1.53244E+06-6.22094E-09-4.10364E-09
 -1       781-2.94419E+06-6.37540E+05-1.06161E+03-1.40258E+06-2.23226E-08-5.12955E-10
 -1       782-2.82881E+06-7.50048E+05 3.63220E+02-1.54095E+06-3.46336E-08-5.44196E-09
 -1       783-2.94996E+06-6.33300E+05 5.68853E+02-1.40501E+06-7.60338E-09-1.38234E-08
 -1       784-2.83285E+06-7.48180E+05 2.39046E+03-1.54619E+06-1.93177E-08 3.06682E-09
 -1       785-2.95335E+06-6.30787E+05 4.21686E+03-1.40654E+06-3.38950E-08 5.70799E-09
 -1       786 1.16985E+05-9.19102E+03 2.12636E+04-2.49634E+02 1.92720E-09 6.50289E-10
 -1       787 1.26207E+05 1.06408E+04 1.50432E+04-7.66893E+01 6.57883E-09 1.00317E-09
 -1       788 1.20540E+05-1.44043E+03 5.50144E+03-2.18748E+02 3.24041E-09 5.89671E-09
 -1       789 1.22064E+05 1.66689E+03 3.45376E+03-1.24813E+02-3.77785E-10 1.39274E-08
 -1       790 1.21127E+05-2.24445E+02 1.39868E+03-2.01522E+02-1.65744E-09 2.30348E-08
 -1       791 1.21378E+05 2.59392E+02 8.08468E+02-1.54456E+02-4.89076E-09-2.74028E-10
 -1       792 1.21227E+05-3.39779E+01 3.43826E+02-1.89107E+02-3.43339E-09 1.26030E-09
 -1       793 1.21259E+05 3.61457E+01 1.74120E+02-1.77718E+02 7.70350E-10-1.06767E-08
 -1       794 1.21246E+05-1.33946E+00 5.06963E+01-1.78260E+02 3.31816E-09 3.83025E-09
 -1       795 1.21227E+05-2.13841E+01-3.97918E+01-2.00082E+02-4.48824E-09 2.19330E-08
 -1       796 1.21260E+05 2.35204E+01-1.28026E+02-1.66742E+02 3.44752E-09 8.94234E-09
 -1       797 1.21150E+05-1.77257E+02-3.58453E+02-2.26118E+02 3.73762E-09 1.56907E-08
 -1       798 1.21323E+05 1.54417E+02-5.84044E+02-1.52224E+02 1.74858E-09 2.06201E-08
 -1       799 1.20706E+05-1.13919E+03-1.60851E+03-2.61408E+02 5.63529E-09 4.42128E-09
 -1       800 1.21704E+05 9.84664E+02-2.27679E+03-1.31454E+02 4.39726E-10-1.71212E-09
 -1       801-7.96557E+04-8.26628E+06-1.10360E+06 1.01347E+06 7.80856E-08-5.14337E-08
 -1       802 4.76376E+05 3.28867E+06 1.51019E+06-1.21274E+06 2.23590E-07-2.43062E-08
 -1       803-3.81064E+05-1.12261E+07-1.37535E+06 6.44330E+05 6.78883E-08 1.28584E-08
 -1       804 1.82673E+05 6.19646E+05 1.06182E+06 5.43951E+05-9.80726E-08-8.68482E-08
 -1       805 1.55881E+05-5.61220E+06-2.16145E+05-7.39109E+05-4.12911E-08-5.14574E-08
 -1       806-2.85696E+05-5.46006E+04-2.09392E+04-1.12434E+05-8.43829E-09 2.52749E-09
 -1       807-2.87443E+05-5.10832E+04-1.02872E+04-1.17398E+05 7.45149E-09 2.74709E-09
 -1       808-2.86264E+05-4.70616E+04-4.36424E+03-1.16011E+05-3.25872E-09-1.33083E-08
 -1       809-2.85285E+05-4.81881E+04-2.13404E+03-1.17646E+05-1.28880E-08 9.22228E-10
 -1       810-2.86351E+05-4.67991E+04-9.78142E+02-1.16169E+05-7.10406E-09-5.05634E-09
 -1       811-2.85119E+05-4.80713E+04-4.86459E+02-1.17613E+05-3.32648E-09 8.11724E-10
 -1       812-2.86365E+05-4.68213E+04-2.46056E+02-1.16169E+05-2.36469E-11-5.47379E-09
 -1       813-2.85097E+05-4.80729E+04-1.60014E+02-1.17597E+05-3.77031E-09 1.92540E-09
 -1       814-2.86359E+05-4.68296E+04-1.58654E+02-1.16166E+05-1.27693E-09-2.51475E-10
 -1       815-2.85101E+05-4.80746E+04-2.55877E+02-1.17591E+05 4.32919E-09-7.26004E-09
 -1       816-2.86341E+05-4.68280E+04-4.84952E+02-1.16163E+05 2.91038E-09 6.86123E-09
 -1       817-2.85184E+05-4.81206E+04-1.04109E+03-1.17582E+05-1.10035E-08 7.86622E-09
 -1       818-2.86280E+05-4.69740E+04-2.12333E+03-1.16094E+05 1.07502E-09 2.61434E-09
 -1       819-2.86347E+05-4.94046E+04-4.99649E+03-1.17310E+05 1.53404E-08 8.19455E-09
 -1       820-2.85883E+05-5.07452E+04-1.01694E+04-1.14479E+05 4.11092E-09 8.34325E-09
 -1       821-3.52506E+05 1.94235E+04-4.49606E+04 1.16611E+03 8.57774E-09 1.34296E-08
 -1       822-3.71837E+05-2.24870E+04-3.17894E+04-2.01644E+03 1.69951E-09 4.57658E-09
 -1       823-3.59935E+05 3.04758E+03-1.16386E+04 1.51852E+03-6.38399E-09 1.05856E-08
 -1       824-3.63093E+05-3.52319E+03-7.31488E+03-2.05031E+03-1.60719E-10-6.80257E-09
 -1       825-3.61248E+05 4.74274E+02-3.02284E+03 1.20001E+03 9.71654E-09-2.07478E-10
 -1       826-3.61473E+05-5.54014E+02-1.77492E+03-9.07345E+02 9.69692E-09 8.80061E-09
 -1       827-3.61548E+05 7.68053E+01-9.74735E+02 3.75520E+02 4.64571E-09-9.47423E-09
 -1       828-3.61229E+05-1.64725E+02-7.83773E+02 8.20920E+02-2.32001E-09 4.82967E-09
 -1       829-3.61491E+05 8.43625E+01-9.85250E+02-5.28284E+02 1.61459E-09-7.11992E-10
 -1       830-3.61608E+05-5.85092E+02-1.86472E+03 2.23760E+03 5.33191E-11-1.05892E-08
 -1       831-3.61174E+05 5.00462E+02-3.12416E+03-1.04119E+03-2.92428E-09-9.92486E-09
 -1       832-3.63180E+05-3.66901E+03-7.60718E+03 2.60556E+03-2.33576E-09-1.60173E-09
 -1       833-3.59922E+05 3.16763E+03-1.21065E+04-8.96245E+02-2.93110E-09-3.20961E-09
 -1       834-3.72124E+05-2.33732E+04-3.30200E+04 1.71702E+03-1.27756E-09 2.75572E-08
 -1       835-3.52228E+05 2.01864E+04-4.67512E+04-1.52625E+02 4.89577E-09 6.58110E-09
 -1       836-1.27258E+03 3.37878E+05 2.08310E+04-1.52468E+04-5.00404E-09-7.42239E-09
 -1       837 4.46497E+03 3.44391E+05 1.76753E+04-3.10059E+04-5.36249E-09-7.08133E-09
 -1       838-4.99655E+02 3.39700E+05 1.80774E+04-1.51798E+04-4.44743E-09 7.63225E-09
 -1       839 1.14276E+04 3.49580E+05 3.42644E+04-3.10545E+04-4.99449E-09 7.65021E-09
 -1       840-3.51654E+03 3.32639E+05 5.46683E+04-1.52018E+04-4.59113E-09 5.82325E-09
 -1       856-5.59009E+04 7.68333E+03-2.02472E+04-3.89012E+02 2.60479E-09 5.59430E-09
 -1       857-6.42479E+04-9.02377E+03-1.39384E+04 5.26750E+03 1.07821E-09 1.19057E-08
 -1       858-5.92046E+04 1.07731E+03-5.25382E+03-4.11334E+02 2.33138E-09 1.36067E-08
 -1       859-6.04560E+04-1.26383E+03-3.17089E+03 5.30116E+03-2.70053E-09 2.56923E-08
 -1       860-5.96982E+04 1.50645E+02-1.32956E+03-4.22496E+02-5.17872E-10-2.34866E-09
 -1       861-5.98879E+04-1.76536E+02-7.32828E+02 5.31638E+03 1.80186E-09-1.22865E-08
 -1       862-5.97754E+04 2.02654E+01-3.07427E+02-4.26550E+02-4.54346E-10-7.19922E-10
 -1       863-5.97938E+04-1.82307E+01-1.18346E+02 5.31865E+03-2.02394E-09-1.19242E-08
 -1       864-5.97928E+04-4.09201E+00 3.08863E+01-4.24763E+02-2.47297E-09 2.94027E-09
 -1       865-5.97445E+04 5.34105E+01 2.12522E+02 5.30868E+03-2.27169E-09 1.34875E-08
 -1       866-5.98227E+04-5.14235E+01 4.35687E+02-4.16581E+02-1.05990E-09 5.45711E-09
 -1       867-5.95379E+04 4.25779E+02 1.07704E+03 5.28643E+03 6.68183E-09-1.64634E-08
 -1       868-5.99950E+04-3.69859E+02 1.79097E+03-4.02514E+02-7.39760E-10 1.02439E-08
 -1       869-5.82239E+04 3.07874E+03 4.77028E+03 5.24945E+03 2.50054E-09-7.24754E-10
 -1       870-6.11299E+04-2.63249E+03 6.92272E+03-3.79534E+02-2.63913E-09-1.65674E-08
 -1       871-5.15336E+03-1.81304E+04-1.78604E+04 1.19402E+05-3.87809E-09-2.56750E-09
 -1       872-1.94316E+03-2.22495E+04-7.44901E+03 1.54818E+05-7.62975E-09 2.14914E-08
 -1       873 2.76066E+02-2.02703E+04 6.15858E+02 1.19140E+05-4.21051E-09 1.18984E-08
 -1       874 2.94655E+03-1.79946E+04 9.13821E+03 1.54850E+05-8.10269E-09 1.20754E-08
 -1       875 6.27958E+03-2.24491E+04 2.05573E+04 1.19360E+05-3.89264E-09 4.49927E-09
 -1       876 2.72388E+05 4.60580E+04 1.40589E+04 1.09488E+05 4.79031E-09-6.71662E-09
 -1       877 2.73303E+05 4.90328E+04 7.50794E+03 1.13532E+05 9.46534E-09-3.44426E-09
 -1       878 2.73702E+05 4.45011E+04 3.14548E+03 1.10640E+05-7.75026E-09-1.08298E-09
 -1       879 2.71392E+05 4.71259E+04 1.56722E+03 1.13628E+05-1.11163E-09 3.21381E-09
 -1       880 2.73797E+05 4.44847E+04 7.29977E+02 1.10687E+05 1.03728E-09-6.74504E-10
 -1       881 2.71265E+05 4.70445E+04 3.89730E+02 1.13607E+05-4.07397E-09 1.97310E-08
 -1       882 2.73805E+05 4.44968E+04 2.49201E+02 1.10689E+05-1.78625E-09 1.31778E-09
 -1       883 2.71256E+05 4.70403E+04 2.67682E+02 1.13600E+05 8.78515E-10-3.05249E-11
 -1       884 2.73799E+05 4.44941E+04 4.25631E+02 1.10689E+05 4.13024E-10-8.08973E-09
 -1       885 2.71290E+05 4.70463E+04 8.55639E+02 1.13611E+05-4.39729E-09-2.97182E-08
 -1       886 2.73766E+05 4.44692E+04 1.72446E+03 1.10685E+05-2.37765E-09-1.27425E-08
 -1       887 2.71593E+05 4.72450E+04 3.76685E+03 1.13654E+05 3.68289E-09 1.07178E-08
 -1       888 2.73528E+05 4.45111E+04 7.59033E+03 1.10565E+05-1.86918E-09-1.84809E-09
 -1       889 2.76112E+05 5.19439E+04 1.81321E+04 1.13515E+05-9.82652E-10 5.00768E-09
 -1       890 2.70432E+05 4.81895E+04 3.39608E+04 1.07674E+05-4.45584E-09 5.31327E-09
 -1       891-1.00793E+02-1.51437E+05-1.85001E+03 2.57627E+04-2.29170E-09 2.23267E-08
 -1       892-1.89848E+02-1.51916E+05-1.98923E+03 3.90898E+04 3.34467E-10 2.93523E-08
 -1       893 2.28542E+01-1.51496E+05-2.81876E+03 2.57692E+04-8.29914E-10-4.56839E-09
 -1       894-1.42928E+03-1.52984E+05-5.83559E+03 3.89464E+04 2.07137E-09 3.57022E-09
 -1       895-1.13084E+03-1.50282E+05-1.02768E+04 2.59069E+04 1.44416E-09 6.62658E-09
 -1       956-3.48856E+05-4.99206E+03-1.23860E+04 2.74502E+04 2.89492E-09-6.86987E-09
 -1       957-3.51290E+05-1.74122E+03-6.35780E+03 3.30064E+04-7.01675E-10 1.28989E-09
 -1       958-3.49966E+05-1.98318E+02-2.86483E+03 2.72977E+04-1.72076E-09-5.19117E-09
 -1       959-3.50150E+05-9.86466E+01-1.46299E+03 3.31814E+04 1.84446E-09 1.17484E-08
 -1       960-3.50071E+05-1.96711E+01-7.13388E+02 2.72822E+04 2.42517E-09-5.74323E-09
 -1       961-3.50073E+05-3.29702E+01-3.78402E+02 3.31995E+04 5.94014E-09-8.59200E-09
 -1       962-3.50095E+05-2.19251E+01-2.16791E+02 2.72797E+04-2.56932E-09-6.08134E-09
 -1       963-3.50072E+05-2.98490E+01-1.74341E+02 3.32026E+04-1.00470E-08 5.75847E-09
 -1       964-3.50100E+05-1.91249E+01-2.12291E+02 2.72791E+04-5.87396E-09 7.58519E-09
 -1       965-3.50084E+05-2.70040E+01-3.67407E+02 3.32020E+04-5.60863E-09 4.27508E-09
 -1       966-3.50086E+05-1.13461E+01-6.90360E+02 2.72803E+04 2.72848E-11-1.92738E-08
 -1       967-3.50168E+05-8.48372E+01-1.41600E+03 3.31895E+04-7.74708E-09-3.75871E-09
 -1       968-3.49991E+05-1.78846E+02-2.77184E+03 2.72916E+04-5.70708E-09 8.91919E-09
 -1       969-3.51282E+05-1.66989E+03-6.15363E+03 3.30582E+04-1.99361E-09 1.07903E-08
 -1       970-3.48925E+05-4.81526E+03-1.19872E+04 2.74061E+04-5.85715E-10 9.85619E-09
 -1       971-3.20925E+05-1.61573E+03-8.76809E+03 1.44524E+04 2.45564E-11 1.01907E-08
 -1       972-3.23041E+05-1.18287E+03-4.77507E+03 2.00336E+04 1.47520E-09 3.91537E-09
 -1       973-3.21902E+05-4.77155E+01-2.13865E+03 1.43370E+04 3.89991E-09 7.53062E-09
 -1       974-3.22033E+05-6.18449E+01-1.10851E+03 2.01627E+04-5.79098E-09 6.64841E-09
 -1       975-3.21978E+05-5.88163E+00-5.54234E+02 1.43256E+04-1.54932E-09 5.17355E-09
 -1       976-3.21975E+05-1.52693E+01-3.20048E+02 2.01771E+04 4.01019E-09-1.17441E-08
 -1       977-3.21994E+05-5.48351E+00-2.32774E+02 1.43226E+04 2.83808E-09-1.53233E-08
 -1       978-3.21979E+05-9.64597E+00-2.73083E+02 2.01814E+04-3.88400E-09 1.19925E-08
 -1       979-3.21993E+05 2.26480E+00-4.39330E+02 1.43214E+04-4.65485E-09 1.16381E-08
 -1       980-3.22012E+05-6.84931E+00-8.48648E+02 2.01823E+04-1.71190E-09-4.71766E-09
 -1       981-3.21966E+05 2.34788E+01-1.64380E+03 1.43218E+04 1.30592E-09-1.03324E-08
 -1       982-3.22238E+05-1.28226E+02-3.39780E+03 2.01761E+04 5.50017E-10 8.45099E-09
 -1       983-3.21759E+05-8.16521E+01-6.60197E+03 1.43275E+04-2.98132E-09 8.20819E-11
 -1       984-3.25413E+05-3.57602E+03-1.47847E+04 2.00954E+04-4.30418E-10-1.28147E-08
 -1       985-3.18770E+05-4.91245E+03-2.71494E+04 1.43979E+04-2.19961E-09-4.20732E-09
 -3
    1PSTEP                        41          21           1          
  100CL  121 6.30680E-01         409                     0   21           1
 -4  DISP        4    1
 -5  D1          1    2    1    0
 -5  D2          1    2    2    0
 -5  D3          1    2    3    0
 -5  ALL         1    2    0    0    1ALL
 -1         1 3.63463E-03 0.00000E+00 0.00000E+00
 -1         2 3.60221E-03-1.39693E-27 5.29396E-23
 -1         3 3.10596E-04 8.87128E-27 1.32349E-23
 -1         5 1.65227E-04 4.35959E-26 1.84500E-24
 -1         8 3.61919E-03-4.52140E-07 0.00000E+00
 -1         9 3.57451E-03-9.92309E-06 0.00000E+00
 -1        10 2.82286E-04-2.94183E-06-6.61744E-24
 -1        12 1.66710E-04 7.56818E-07 7.04396E-25
 -1        15 3.60037E-03-4.94010E-07-2.06795E-25
 -1        16 3.60977E-03-1.16052E-05 0.00000E+00
 -1        17 1.93740E-04-6.65635E-06 0.00000E+00
 -1        18 1.69659E-04 2.91409E-05 0.00000E+00
 -1        19 1.71161E-04 1.50830E-06 0.00000E+00
 -1        20 1.71300E-04-6.15897E-06 0.00000E+00
 -1        21 1.70475E-04-1.74024E-05 0.00000E+00
 -1        24 2.85766E-05-1.01126E-05 0.00000E+00
 -1        25 1.78608E-04 2.93481E-05 0.00000E+00
 -1        26 1.79262E-04 2.08892E-06 0.00000E+00
 -1        27 1.77205E-04-9.51042E-06 0.00000E+00
 -1        28 1.76880E-04-1.79925E-05 0.00000E+00
 -1        32 0.00000E+00 0.00000E+00 0.00000E+00
 -1        33 1.86381E-04 2.79566E-06 0.00000E+00
 -1        34 1.84385E-04-9.55933E-06 0.00000E+00
 -1        35 1.82557E-04-1.83156E-05 0.00000E+00
 -1        51 3.63365E-03-8.85311E-08-6.61744E-24
 -1        52 3.63181E-03-1.61622E-07 0.00000E+00
 -1        53 3.62927E-03-2.32360E-07 0.00000E+00
 -1        54 3.62621E-03-3.02874E-07 0.00000E+00
 -1        55 3.62280E-03-3.74753E-07-2.48154E-24
 -1        56 3.63052E-03 7.89556E-07-5.29396E-23
 -1        57 3.62480E-03 5.46011E-06 0.00000E+00
 -1        58 3.61787E-03 1.32856E-05-1.05879E-22
 -1        59 3.61011E-03 2.32226E-05-5.29396E-23
 -1        60 3.60205E-03 3.39098E-05-1.05879E-22
 -1        61 3.59425E-03 4.39171E-05 0.00000E+00
 -1        62 3.58722E-03 5.19248E-05 0.00000E+00
 -1        63 3.58141E-03 5.67706E-05-5.29396E-23
 -1        64 3.57704E-03 5.78009E-05 1.05879E-22
 -1        65 3.57424E-03 5.46674E-05 5.29396E-23
 -1        66 3.57286E-03 4.76952E-05-1.05879E-22
 -1        67 3.57266E-03 3.75209E-05 0.00000E+00
 -1        68 3.57321E-03 2.53008E-05-1.05879E-22
 -1        69 3.57403E-03 1.23657E-05 0.00000E+00
 -1        70 3.57460E-03 1.48943E-07 0.00000E+00
 -1        86 3.59934E-03-1.64703E-06 5.29396E-23
 -1        87 3.59093E-03-3.32293E-06-2.64698E-23
 -1        88 3.58089E-03-5.01188E-06 5.29396E-23
 -1        89 3.57325E-03-6.67341E-06 2.64698E-23
 -1        90 3.57042E-03-8.31506E-06 0.00000E+00
 -1       121 3.09802E-04-4.76366E-07 1.32349E-23
 -1       122 3.07423E-04-9.55152E-07 0.00000E+00
 -1       123 3.03467E-04-1.43874E-06 0.00000E+00
 -1       124 2.97946E-04-1.92953E-06 6.61744E-24
 -1       125 2.90878E-04-2.42961E-06-1.32349E-23
 -1       191 1.65268E-04 1.26179E-07-1.07275E-24
 -1       192 1.65392E-04 2.52350E-07-1.40233E-24
 -1       193 1.65598E-04 3.78508E-07 4.39440E-25
 -1       194 1.65886E-04 5.04645E-07 9.75815E-25
 -1       195 1.66257E-04 6.30752E-07-2.26182E-24
 -1       251 3.61839E-03 2.00274E-05 1.32349E-23
 -1       252 3.61634E-03 7.47027E-05 0.00000E+00
 -1       253 3.61278E-03 1.53703E-04 0.00000E+00
 -1       254 3.60806E-03 2.46591E-04-6.61744E-24
 -1       255 3.60338E-03 3.39087E-04-1.32349E-23
 -1       256 3.59990E-03 4.16917E-04-6.61744E-24
 -1       257 3.59794E-03 4.69867E-04 1.32349E-23
 -1       258 3.59716E-03 4.88296E-04-6.61744E-24
 -1       259 3.59641E-03 4.71544E-04-1.32349E-23
 -1       260 3.59451E-03 4.19844E-04 6.61744E-24
 -1       261 3.59106E-03 3.42498E-04 1.32349E-23
 -1       262 3.58632E-03 2.49406E-04 0.00000E+00
 -1       263 3.58145E-03 1.54815E-04 1.32349E-23
 -1       264 3.57767E-03 7.30059E-05 0.00000E+00
 -1       265 3.57542E-03 1.46959E-05 2.64698E-23
 -1       266 3.61606E-03-4.65869E-07 0.00000E+00
 -1       267 3.61292E-03-4.72025E-07 0.00000E+00
 -1       268 3.60978E-03-4.78660E-07 8.27181E-25
 -1       269 3.60664E-03-4.83874E-07-2.06795E-25
 -1       270 3.60350E-03-4.89055E-07 2.06795E-25
 -1       271 3.61718E-03 2.73277E-06 0.00000E+00
 -1       272 3.61497E-03 6.36481E-06 0.00000E+00
 -1       273 3.61268E-03 1.02367E-05 0.00000E+00
 -1       274 3.61037E-03 1.41279E-05-1.32349E-23
 -1       275 3.60813E-03 1.78204E-05 2.64698E-23
 -1       276 3.60606E-03 2.10969E-05 1.32349E-23
 -1       277 3.60422E-03 2.37443E-05 2.64698E-23
 -1       278 3.60270E-03 2.55548E-05 0.00000E+00
 -1       279 3.60156E-03 2.63289E-05 0.00000E+00
 -1       280 3.60089E-03 2.58763E-05 1.32349E-23
 -1       281 3.60074E-03 2.40183E-05 2.64698E-23
 -1       282 3.60118E-03 2.05890E-05 0.00000E+00
 -1       283 3.60226E-03 1.54376E-05 0.00000E+00
 -1       284 3.60402E-03 8.42969E-06 0.00000E+00
 -1       285 3.60651E-03-5.53292E-07 0.00000E+00
 -1       301 3.58010E-03-1.02166E-05 0.00000E+00
 -1       302 3.58459E-03-1.04833E-05-6.61744E-24
 -1       303 3.58889E-03-1.07474E-05 1.32349E-23
 -1       304 3.59390E-03-1.10146E-05 0.00000E+00
 -1       305 3.60056E-03-1.12938E-05 0.00000E+00
 -1       306 3.61564E-03-1.85928E-04-1.05879E-22
 -1       307 3.67480E-03-6.70496E-04 0.00000E+00
 -1       308 3.69368E-03-1.38698E-03-1.05879E-22
 -1       309 3.66856E-03-2.22328E-03 0.00000E+00
 -1       310 3.65640E-03-3.02535E-03 0.00000E+00
 -1       311 3.69971E-03-3.64125E-03-5.29396E-23
 -1       312 3.76019E-03-3.97387E-03 2.11758E-22
 -1       313 3.75456E-03-3.98485E-03 5.29396E-23
 -1       314 3.57850E-03-3.69005E-03 0.00000E+00
 -1       315 3.17639E-03-3.18018E-03 0.00000E+00
 -1       316 2.56581E-03-2.54856E-03-1.05879E-22
 -1       317 1.82969E-03-1.87222E-03 0.00000E+00
 -1       318 1.12320E-03-1.20592E-03 0.00000E+00
 -1       319 5.92453E-04-6.13149E-04 0.00000E+00
 -1       320 2.89321E-04-1.83263E-04 0.00000E+00
 -1       336 2.71998E-04-3.50707E-06-1.32349E-23
 -1       337 2.59851E-04-4.09270E-06-6.61744E-24
 -1       338 2.45891E-04-4.70057E-06 0.00000E+00
 -1       339 2.30176E-04-5.33091E-06 0.00000E+00
 -1       340 2.12768E-04-5.98831E-06 6.61744E-24
 -1       406 1.67246E-04 8.82831E-07 7.75482E-26
 -1       407 1.67864E-04 1.00876E-06 9.91971E-25
 -1       408 1.68565E-04 1.13455E-06 7.23783E-25
 -1       409 1.69348E-04 1.26006E-06-1.65436E-24
 -1       410 1.70214E-04 1.38503E-06 2.48154E-24
 -1       521 3.65075E-03-1.99229E-04 0.00000E+00
 -1       522 3.70626E-03-7.01862E-04 5.29396E-23
 -1       523 3.71789E-03-1.43791E-03 1.05879E-22
 -1       524 3.68660E-03-2.28621E-03 0.00000E+00
 -1       525 3.66951E-03-3.09794E-03 0.00000E+00
 -1       526 3.70864E-03-3.72687E-03 5.29396E-23
 -1       527 3.76704E-03-4.06606E-03 0.00000E+00
 -1       528 3.75772E-03-4.07477E-03 0.00000E+00
 -1       529 3.56870E-03-3.76782E-03 2.11758E-22
 -1       530 3.14480E-03-3.24533E-03 0.00000E+00
 -1       531 2.50671E-03-2.60370E-03 0.00000E+00
 -1       532 1.74681E-03-1.92166E-03 0.00000E+00
 -1       533 1.01649E-03-1.24900E-03 0.00000E+00
 -1       534 4.58181E-04-6.43783E-04 0.00000E+00
 -1       535 1.34752E-04-1.99103E-04-2.11758E-22
 -1       536 1.93104E-04 2.48926E-05 0.00000E+00
 -1       537 1.91499E-04 7.97836E-05 1.65436E-24
 -1       538 1.89026E-04 1.49535E-04-3.30872E-24
 -1       539 1.86111E-04 2.25585E-04 0.00000E+00
 -1       540 1.83484E-04 2.97459E-04 0.00000E+00
 -1       541 1.81768E-04 3.54702E-04-1.65436E-24
 -1       542 1.80966E-04 3.91098E-04 3.30872E-24
 -1       543 1.80758E-04 4.00566E-04 0.00000E+00
 -1       544 1.80463E-04 3.83836E-04-3.30872E-24
 -1       545 1.79454E-04 3.41835E-04 1.65436E-24
 -1       546 1.77598E-04 2.82037E-04 0.00000E+00
 -1       547 1.75104E-04 2.12026E-04-1.65436E-24
 -1       548 1.72637E-04 1.42428E-04-3.30872E-24
 -1       549 1.70853E-04 8.38663E-05-1.65436E-24
 -1       550 1.69917E-04 4.36917E-05 0.00000E+00
 -1       551 1.71233E-04-7.10430E-06 0.00000E+00
 -1       552 1.45708E-04-7.62288E-06 0.00000E+00
 -1       553 1.17915E-04-8.19746E-06 6.61744E-24
 -1       554 8.86184E-05-8.81416E-06-4.96308E-24
 -1       555 5.85847E-05-9.45316E-06 0.00000E+00
 -1       556 1.86918E-04 1.08534E-05 0.00000E+00
 -1       557 1.81421E-04 2.49975E-05 2.64698E-23
 -1       558 1.77132E-04 3.60436E-05 0.00000E+00
 -1       559 1.73929E-04 4.42781E-05 0.00000E+00
 -1       560 1.71694E-04 4.99881E-05 0.00000E+00
 -1       561 1.70310E-04 5.34624E-05 0.00000E+00
 -1       562 1.69663E-04 5.49911E-05 0.00000E+00
 -1       563 1.69638E-04 5.48650E-05-1.32349E-23
 -1       564 1.70125E-04 5.33758E-05 0.00000E+00
 -1       565 1.71012E-04 5.08153E-05 6.61744E-24
 -1       566 1.72189E-04 4.74762E-05-6.61744E-24
 -1       567 1.73547E-04 4.36513E-05 0.00000E+00
 -1       568 1.74976E-04 3.96335E-05 0.00000E+00
 -1       569 1.76368E-04 3.57158E-05 0.00000E+00
 -1       570 1.77615E-04 3.21912E-05 0.00000E+00
 -1       571 1.69750E-04 2.73477E-05 8.27181E-25
 -1       572 1.69843E-04 2.54943E-05 1.65436E-24
 -1       573 1.69937E-04 2.35948E-05 0.00000E+00
 -1       574 1.70031E-04 2.16642E-05 8.27181E-25
 -1       575 1.70124E-04 1.97172E-05-3.30872E-24
 -1       576 1.70218E-04 1.77690E-05 1.65436E-24
 -1       577 1.70312E-04 1.58344E-05 0.00000E+00
 -1       578 1.70406E-04 1.39285E-05 0.00000E+00
 -1       579 1.70500E-04 1.20663E-05 0.00000E+00
 -1       580 1.70594E-04 1.02627E-05 0.00000E+00
 -1       581 1.70688E-04 8.53273E-06-6.61744E-24
 -1       582 1.70783E-04 6.89141E-06 0.00000E+00
 -1       583 1.70877E-04 5.35368E-06 6.61744E-24
 -1       584 1.70972E-04 3.93435E-06 0.00000E+00
 -1       585 1.71067E-04 2.64808E-06-6.61744E-24
 -1       586 1.71106E-04 2.91775E-05-1.65436E-24
 -1       587 1.72516E-04 2.92135E-05 4.13590E-25
 -1       588 1.73931E-04 2.92491E-05 0.00000E+00
 -1       589 1.75390E-04 2.92841E-05 0.00000E+00
 -1       590 1.76936E-04 2.93179E-05 0.00000E+00
 -1       591 1.70270E-04 2.74318E-05-1.03398E-25
 -1       592 1.70885E-04 2.57027E-05 0.00000E+00
 -1       593 1.71504E-04 2.39594E-05 8.27181E-25
 -1       594 1.72127E-04 2.22062E-05 0.00000E+00
 -1       595 1.72752E-04 2.04480E-05 0.00000E+00
 -1       596 1.73377E-04 1.86894E-05 0.00000E+00
 -1       597 1.74000E-04 1.69348E-05 8.27181E-25
 -1       598 1.74620E-04 1.51891E-05 0.00000E+00
 -1       599 1.75234E-04 1.34566E-05 8.27181E-25
 -1       600 1.75843E-04 1.17420E-05-4.13590E-25
 -1       601 1.76443E-04 1.00499E-05 0.00000E+00
 -1       602 1.77032E-04 8.38488E-06-4.13590E-25
 -1       603 1.77611E-04 6.75155E-06 0.00000E+00
 -1       604 1.78176E-04 5.15458E-06 2.58494E-26
 -1       605 1.78726E-04 3.59848E-06 4.13590E-25
 -1       606 1.71174E-04 5.85536E-07 0.00000E+00
 -1       607 1.71184E-04-2.51996E-07 0.00000E+00
 -1       608 1.71193E-04-1.00930E-06 0.00000E+00
 -1       609 1.71201E-04-1.69201E-06 0.00000E+00
 -1       610 1.71209E-04-2.30583E-06-3.30872E-24
 -1       611 1.71218E-04-2.85651E-06 0.00000E+00
 -1       612 1.71226E-04-3.34980E-06 0.00000E+00
 -1       613 1.71234E-04-3.79148E-06 0.00000E+00
 -1       614 1.71243E-04-4.18731E-06 0.00000E+00
 -1       615 1.71251E-04-4.54306E-06 0.00000E+00
 -1       616 1.71259E-04-4.86450E-06 0.00000E+00
 -1       617 1.71268E-04-5.15741E-06 0.00000E+00
 -1       618 1.71276E-04-5.42753E-06 0.00000E+00
 -1       619 1.71284E-04-5.68066E-06-2.06795E-25
 -1       620 1.71293E-04-5.92255E-06 0.00000E+00
 -1       621 1.72261E-04 1.60553E-06 3.30872E-24
 -1       622 1.73500E-04 1.70301E-06 8.27181E-25
 -1       623 1.74849E-04 1.80033E-06 0.00000E+00
 -1       624 1.76278E-04 1.89737E-06 1.65436E-24
 -1       625 1.77759E-04 1.99416E-06 0.00000E+00
 -1       626 1.71613E-04 6.19507E-07-3.30872E-24
 -1       627 1.72042E-04-2.05542E-07 1.65436E-24
 -1       628 1.72450E-04-9.74498E-07 3.30872E-24
 -1       629 1.72840E-04-1.69533E-06 1.65436E-24
 -1       630 1.73215E-04-2.37606E-06-3.30872E-24
 -1       631 1.73578E-04-3.02468E-06 0.00000E+00
 -1       632 1.73932E-04-3.64922E-06-3.30872E-24
 -1       633 1.74280E-04-4.25771E-06-1.65436E-24
 -1       634 1.74626E-04-4.85817E-06-3.30872E-24
 -1       635 1.74971E-04-5.45860E-06 0.00000E+00
 -1       636 1.75319E-04-6.06704E-06 0.00000E+00
 -1       637 1.75673E-04-6.69151E-06 1.65436E-24
 -1       638 1.76036E-04-7.34003E-06 1.65436E-24
 -1       639 1.76411E-04-8.02064E-06-8.27181E-25
 -1       640 1.76800E-04-8.74139E-06 1.65436E-24
 -1       656 1.71762E-04-6.70378E-06 0.00000E+00
 -1       657 1.72627E-04-7.27068E-06 0.00000E+00
 -1       658 1.73761E-04-7.83621E-06-1.32349E-23
 -1       659 1.75019E-04-8.40138E-06 0.00000E+00
 -1       660 1.76226E-04-8.96827E-06-6.61744E-24
 -1       661 1.71473E-04-6.43730E-06-8.27181E-25
 -1       662 1.71682E-04-6.80112E-06-8.27181E-25
 -1       663 1.71920E-04-7.24572E-06 0.00000E+00
 -1       664 1.72187E-04-7.76519E-06 8.27181E-25
 -1       665 1.72481E-04-8.35424E-06 0.00000E+00
 -1       666 1.72798E-04-9.00747E-06 0.00000E+00
 -1       667 1.73137E-04-9.71978E-06 0.00000E+00
 -1       668 1.73497E-04-1.04861E-05 0.00000E+00
 -1       669 1.73875E-04-1.13014E-05 1.65436E-24
 -1       670 1.74269E-04-1.21611E-05 0.00000E+00
 -1       671 1.74679E-04-1.30602E-05-1.65436E-24
 -1       672 1.75101E-04-1.39944E-05 0.00000E+00
 -1       673 1.75534E-04-1.49589E-05 0.00000E+00
 -1       674 1.75977E-04-1.59496E-05 4.13590E-25
 -1       675 1.76427E-04-1.69616E-05 0.00000E+00
 -1       676 1.71546E-04-1.75013E-05 0.00000E+00
 -1       677 1.72617E-04-1.76002E-05-1.65436E-24
 -1       678 1.73686E-04-1.76990E-05 0.00000E+00
 -1       679 1.74753E-04-1.77975E-05 0.00000E+00
 -1       680 1.75818E-04-1.78961E-05 1.65436E-24
 -1       771 1.71788E-05 1.54424E-05 0.00000E+00
 -1       772 7.59674E-06 3.64023E-05 0.00000E+00
 -1       773-2.54524E-07 5.29938E-05 0.00000E+00
 -1       774-6.49484E-06 6.54679E-05 2.64698E-23
 -1       775-1.12410E-05 7.40854E-05 0.00000E+00
 -1       776-1.46147E-05 7.91225E-05 2.64698E-23
 -1       777-1.67370E-05 8.08644E-05-5.29396E-23
 -1       778-1.77316E-05 7.96089E-05-2.64698E-23
 -1       779-1.77216E-05 7.56619E-05 5.29396E-23
 -1       780-1.68317E-05 6.93393E-05 0.00000E+00
 -1       781-1.51860E-05 6.09635E-05 0.00000E+00
 -1       782-1.29097E-05 5.08646E-05 0.00000E+00
 -1       783-1.01276E-05 3.93774E-05-5.29396E-23
 -1       784-6.96510E-06 2.68418E-05-2.64698E-23
 -1       785-3.54713E-06 1.36010E-05 0.00000E+00
 -1       786 1.78645E-04 2.74197E-05-6.46235E-27
 -1       787 1.78685E-04 2.55406E-05 4.13590E-25
 -1       788 1.78725E-04 2.37030E-05 0.00000E+00
 -1       789 1.78766E-04 2.18989E-05 0.00000E+00
 -1       790 1.78807E-04 2.01236E-05 1.65436E-24
 -1       791 1.78848E-04 1.83724E-05 8.27181E-25
 -1       792 1.78889E-04 1.66432E-05 0.00000E+00
 -1       793 1.78931E-04 1.49337E-05 0.00000E+00
 -1       794 1.78972E-04 1.32435E-05-1.65436E-24
 -1       795 1.79013E-04 1.15724E-05-8.27181E-25
 -1       796 1.79054E-04 9.92183E-06 1.65436E-24
 -1       797 1.79096E-04 8.29346E-06 0.00000E+00
 -1       798 1.79137E-04 6.69102E-06 0.00000E+00
 -1       799 1.79179E-04 5.11834E-06-8.27181E-25
 -1       800 1.79220E-04 3.58205E-06-1.65436E-24
 -1       801 1.37446E-04 2.62972E-05-2.64698E-23
 -1       802 1.27899E-05 1.65802E-05 0.00000E+00
 -1       803-9.43856E-05 8.50349E-06 0.00000E+00
 -1       804-8.49694E-05 5.88626E-06 0.00000E+00
 -1       805-2.85578E-05 2.39508E-06 0.00000E+00
 -1       806 1.79223E-04 2.73557E-05-1.65436E-24
 -1       807 1.79823E-04 2.53904E-05-1.65436E-24
 -1       808 1.80411E-04 2.34568E-05 3.30872E-24
 -1       809 1.80986E-04 2.15585E-05 0.00000E+00
 -1       810 1.81546E-04 1.96991E-05 0.00000E+00
 -1       811 1.82090E-04 1.78821E-05 0.00000E+00
 -1       812 1.82617E-04 1.61108E-05 0.00000E+00
 -1       813 1.83125E-04 1.43888E-05 8.27181E-25
 -1       814 1.83614E-04 1.27194E-05 1.65436E-24
 -1       815 1.84082E-04 1.11062E-05 0.00000E+00
 -1       816 1.84527E-04 9.55248E-06 1.65436E-24
 -1       817 1.84950E-04 8.06167E-06-1.65436E-24
 -1       818 1.85347E-04 6.63721E-06 0.00000E+00
 -1       819 1.85719E-04 5.28249E-06 0.00000E+00
 -1       820 1.86063E-04 4.00086E-06 0.00000E+00
 -1       821 1.79141E-04 3.51366E-07 0.00000E+00
 -1       822 1.79010E-04-1.91489E-06 1.65436E-24
 -1       823 1.78880E-04-4.47410E-06-3.30872E-24
 -1       824 1.78748E-04-7.08876E-06 0.00000E+00
 -1       825 1.78616E-04-9.50725E-06 0.00000E+00
 -1       826 1.78486E-04-1.14790E-05 0.00000E+00
 -1       827 1.78356E-04-1.28697E-05 0.00000E+00
 -1       828 1.78226E-04-1.35485E-05 0.00000E+00
 -1       829 1.78097E-04-1.35697E-05 3.30872E-24
 -1       830 1.77968E-04-1.29915E-05-1.65436E-24
 -1       831 1.77839E-04-1.20279E-05-3.30872E-24
 -1       832 1.77709E-04-1.08954E-05-1.65436E-24
 -1       833 1.77580E-04-9.85439E-06 0.00000E+00
 -1       834 1.77453E-04-9.16457E-06-1.65436E-24
 -1       835 1.77325E-04-8.99470E-06 0.00000E+00
 -1       836 1.80648E-04 2.20619E-06-3.30872E-24
 -1       837 1.81914E-04 2.32637E-06 0.00000E+00
 -1       838 1.83090E-04 2.44646E-06 0.00000E+00
 -1       839 1.84207E-04 2.56587E-06-8.27181E-25
 -1       840 1.85294E-04 2.68512E-06 0.00000E+00
 -1       856 1.77188E-04-1.03008E-05-8.27181E-25
 -1       857 1.77168E-04-1.09621E-05-3.23117E-27
 -1       858 1.77148E-04-1.15145E-05 4.13590E-25
 -1       859 1.77128E-04-1.19780E-05 0.00000E+00
 -1       860 1.77108E-04-1.23728E-05 0.00000E+00
 -1       861 1.77087E-04-1.27193E-05 2.06795E-25
 -1       862 1.77067E-04-1.30378E-05 0.00000E+00
 -1       863 1.77047E-04-1.33486E-05 4.13590E-25
 -1       864 1.77026E-04-1.36720E-05 8.27181E-25
 -1       865 1.77006E-04-1.40284E-05 4.13590E-25
 -1       866 1.76985E-04-1.44381E-05 0.00000E+00
 -1       867 1.76965E-04-1.49213E-05 0.00000E+00
 -1       868 1.76944E-04-1.54983E-05 0.00000E+00
 -1       869 1.76923E-04-1.61891E-05-4.13590E-25
 -1       870 1.76902E-04-1.70138E-05 0.00000E+00
 -1       871 1.78267E-04-9.51442E-06 0.00000E+00
 -1       872 1.79467E-04-9.52159E-06 0.00000E+00
 -1       873 1.80743E-04-9.52939E-06 4.13590E-25
 -1       874 1.82031E-04-9.53790E-06 2.58494E-26
 -1       875 1.83266E-04-9.54696E-06-6.20385E-25
 -1       876 1.77622E-04-1.02872E-05 0.00000E+00
 -1       877 1.78018E-04-1.10005E-05 1.65436E-24
 -1       878 1.78393E-04-1.16580E-05 0.00000E+00
 -1       879 1.78750E-04-1.22666E-05-1.65436E-24
 -1       880 1.79092E-04-1.28336E-05 0.00000E+00
 -1       881 1.79421E-04-1.33657E-05-1.65436E-24
 -1       882 1.79739E-04-1.38701E-05 0.00000E+00
 -1       883 1.80050E-04-1.43537E-05 0.00000E+00
 -1       884 1.80355E-04-1.48236E-05 0.00000E+00
 -1       885 1.80658E-04-1.52866E-05 0.00000E+00
 -1       886 1.80961E-04-1.57498E-05 0.00000E+00
 -1       887 1.81266E-04-1.62201E-05-1.65436E-24
 -1       888 1.81577E-04-1.67047E-05 0.00000E+00
 -1       889 1.81894E-04-1.72105E-05 8.27181E-25
 -1       890 1.82222E-04-1.77445E-05 0.00000E+00
 -1       891 1.77962E-04-1.80467E-05-1.65436E-24
 -1       892 1.79022E-04-1.81011E-05 8.27181E-25
 -1       893 1.80035E-04-1.81554E-05 8.27181E-25
 -1       894 1.80978E-04-1.82095E-05 4.13590E-25
 -1       895 1.81827E-04-1.82634E-05-8.27181E-25
 -1       956 1.86259E-04 1.75226E-06 3.30872E-24
 -1       957 1.86134E-04 7.93545E-07 1.65436E-24
 -1       958 1.86009E-04-9.03816E-08-1.65436E-24
 -1       959 1.85884E-04-9.09975E-07 0.00000E+00
 -1       960 1.85758E-04-1.67573E-06 0.00000E+00
 -1       961 1.85633E-04-2.39817E-06 0.00000E+00
 -1       962 1.85508E-04-3.08782E-06-3.30872E-24
 -1       963 1.85383E-04-3.75525E-06 0.00000E+00
 -1       964 1.85258E-04-4.41100E-06-3.30872E-24
 -1       965 1.85133E-04-5.06562E-06-1.65436E-24
 -1       966 1.85007E-04-5.72965E-06 3.30872E-24
 -1       967 1.84882E-04-6.41366E-06 0.00000E+00
 -1       968 1.84757E-04-7.12817E-06-3.30872E-24
 -1       969 1.84632E-04-7.88369E-06-1.65436E-24
 -1       970 1.84508E-04-8.69072E-06 3.30872E-24
 -1       971 1.84272E-04-1.04249E-05-1.65436E-24
 -1       972 1.84157E-04-1.11998E-05 1.65436E-24
 -1       973 1.84042E-04-1.18939E-05-3.30872E-24
 -1       974 1.83927E-04-1.25176E-05 0.00000E+00
 -1       975 1.83812E-04-1.30814E-05-3.30872E-24
 -1       976 1.83698E-04-1.35957E-05 0.00000E+00
 -1       977 1.83583E-04-1.40709E-05-3.30872E-24
 -1       978 1.83468E-04-1.45175E-05 1.65436E-24
 -1       979 1.83353E-04-1.49460E-05 0.00000E+00
 -1       980 1.83238E-04-1.53667E-05 0.00000E+00
 -1       981 1.83124E-04-1.57903E-05 0.00000E+00
 -1       982 1.83009E-04-1.62271E-05 1.65436E-24
 -1       983 1.82894E-04-1.66876E-05 0.00000E+00
 -1       984 1.82780E-04-1.71823E-05 0.00000E+00
 -1       985 1.82667E-04-1.77215E-05 0.00000E+00
 -3
    1PSTEP                        42          21           1          
  100CL  121 6.30680E-01         409                     0   21           1
 -4  STRESS      6    1
 -5  SXX         1    4    1    1
 -5  SYY         1    4    2    2
 -5  SZZ         1    4    3    3
 -5  SXY         1    4    1    2
 -5  SYZ         1    4    2    3
 -5  SZX         1    4    3    1
 -1         1-4.50776E+06-1.66592E+06-9.93972E+05-1.60284E+06 1.22236E-09-3.25905E-07
 -1         2-4.19406E+03-4.65912E+06-1.22244E+04-1.13379E+05 1.36311E-10 1.13714E-08
 -1         3-1.16338E+03-1.35360E+06 3.20931E+02-1.70094E+03-3.06933E-10-2.01362E-08
 -1         5-4.88788E+01 3.61233E+05 9.30439E+00-9.47020E-01-4.62786E-10-1.01172E-08
 -1         8-5.59217E+05-1.77505E+05-4.35723E+04-2.16334E+05 2.85581E-10 1.98888E-08
 -1         9 1.59840E+07-8.36582E+05 2.60295E+06-2.04146E+06 4.97676E-08 5.38770E-08
 -1        10-2.03860E+03-1.41045E+06-4.19954E+03-1.15258E+04-1.16870E-08-4.19122E-08
 -1        12-4.51609E+01 3.61253E+05 3.04425E+02-6.61367E+00-4.72856E-10 8.84393E-09
 -1        15 1.11867E+03 6.14770E+02 3.61609E+03 1.51788E+00 1.19051E-09 2.41112E-07
 -1        16 3.18400E+07-3.88628E+05 4.24177E+06-3.04831E+06 1.39504E-08 1.28833E-07
 -1        17 1.12863E+07 9.72697E+06 3.36834E+06 8.82048E+06-7.65431E-10-6.10016E-09
 -1        18 1.08904E+05 2.46512E+04-2.09856E+03-1.10253E+05 1.34928E-08-1.27402E-08
 -1        19 1.14981E+05 1.32651E+05-9.07769E+02 2.09776E+04 1.26765E-09-1.20453E-09
 -1        20-7.46791E+04-5.39847E+05-1.20966E+05 2.50756E+04-9.79981E-10 1.07302E-08
 -1        21-4.39313E+01-2.81598E+05-8.81807E+02 2.06842E+02 1.38867E-08 1.22900E-08
 -1        24 1.89572E+07 1.75230E+07 5.21924E+06 1.63114E+07-1.87807E-07-4.28796E-08
 -1        25 7.23708E+04 7.98341E+04 5.13622E+04-5.33814E+05-1.10158E-09 1.09694E-08
 -1        26-5.25048E+04 8.59237E+04-2.33831E+04 6.48509E+02 4.63842E-10 1.27303E-08
 -1        27-7.29198E+04-2.92115E+05-1.07178E+05 6.50189E+04 4.13199E-09-8.48528E-09
 -1        28 2.12468E+04-8.08781E+04 1.60650E+04 2.00855E+04-3.53987E-09-3.20709E-09
 -1        32-1.59867E+06-3.00240E+06-1.83195E+05 2.64051E+05-4.03379E-08-1.18526E-08
 -1        33-1.68800E+05 8.69393E+04 3.04216E+04-3.64412E+04-2.46655E-09 1.20911E-08
 -1        34-2.11393E+05-2.33299E+04 6.40707E+02 7.08549E+04-4.75598E-09-5.22869E-09
 -1        35-2.18561E+04-3.20814E+04-1.27598E+03 4.90047E+04-2.78751E-09 8.23881E-09
 -1        51 5.10677E+04-1.85377E+05 1.09878E+05-5.68894E+05-5.52973E-10 6.46105E-09
 -1        52 1.80394E+04-1.67271E+05 5.88245E+04-6.63174E+05-1.12777E-10-6.84377E-08
 -1        53 4.60892E+03-1.82325E+05 3.24877E+04-5.66781E+05 3.34694E-10-2.10413E-07
 -1        54 9.99646E+03-1.78718E+05 3.04691E+04-6.65399E+05-4.36557E-10-4.23810E-07
 -1        55 2.12665E+04-1.87399E+05 4.14723E+04-5.66468E+05 3.20142E-10 2.09991E-07
 -1        56-8.49403E+06-9.78969E+05-7.37752E+05-3.34305E+06 2.54804E-08-2.04978E-07
 -1        57-8.98546E+06-1.43458E+06-4.94965E+05-3.07496E+06 1.32859E-08-2.44268E-07
 -1        58-8.58354E+06-1.26590E+06-1.73177E+05-3.35705E+06-1.76115E-08 1.30080E-07
 -1        59-8.89064E+06-1.09184E+06-1.02713E+05-3.05941E+06-2.65536E-08-2.70238E-07
 -1        60-8.59100E+06-1.31054E+06-4.00456E+04-3.36451E+06-3.35658E-08-2.26610E-08
 -1        61-8.84260E+06-1.07320E+06-2.20345E+04-3.08627E+06 1.81535E-08 2.24702E-07
 -1        62-8.62909E+06-1.28475E+06-1.23176E+04-3.32897E+06-3.73493E-08-1.39116E-08
 -1        63-8.73607E+06-1.16173E+06-6.96000E+03-3.18528E+06 2.47528E-08 2.80904E-07
 -1        64-8.69176E+06-1.22576E+06-1.28484E+04-3.26131E+06 8.00355E-11 1.37396E-07
 -1        65-8.61878E+06-1.28589E+06-1.88644E+04-3.32191E+06-3.17641E-08-3.49949E-07
 -1        66-8.74637E+06-1.16078E+06-3.80971E+04-3.19236E+06-4.64752E-08 2.12287E-07
 -1        67-8.56101E+06-1.41141E+06-9.31309E+04-3.42766E+06 1.21718E-08 3.53597E-07
 -1        68-8.75581E+06-1.09730E+06-1.57211E+05-3.15955E+06-3.11666E-08 5.43587E-08
 -1        69-8.69602E+06-1.68673E+06-4.51967E+05-3.40932E+06-6.02686E-08-2.46364E-07
 -1        70-8.61597E+06-8.91213E+05-6.70752E+05-3.21019E+06 1.93249E-08 1.20606E-07
 -1        86 1.32017E+03-4.69783E+06-2.26070E+04 5.66836E+04 9.07448E-09-1.48067E-07
 -1        87-1.61680E+04-4.67999E+06-3.72238E+04-1.45433E+05 1.55837E-08-1.10846E-07
 -1        88 1.55196E+04-4.67902E+06-6.25641E+04 8.87490E+04 9.15679E-09-9.58621E-08
 -1        89-1.14977E+05-4.71572E+06-1.62697E+05-8.16138E+04 1.46993E-08-3.44155E-07
 -1        90 9.83155E+04-4.66107E+06-2.42704E+05-7.14689E+03-3.59432E-09 8.80973E-08
 -1       121-1.59684E+03-1.35745E+06-4.26197E+02 8.43797E+02 1.32015E-09-2.72048E-08
 -1       122-1.01566E+03-1.35362E+06 6.10403E+02-3.40546E+03-4.95356E-09-2.02272E-09
 -1       123-1.62569E+03-1.35755E+06 2.05360E+02 2.52182E+03 3.68232E-09 5.52973E-09
 -1       124 3.61884E+02-1.35317E+06 2.36285E+03-7.19284E+03-9.09949E-09 4.70754E-09
 -1       125-2.34625E+03-1.35830E+06 2.69572E+03 4.59902E+03 6.12272E-09-2.19807E-08
 -1       191-5.16034E+01 3.61255E+05 8.98825E+00 4.88670E-01-4.55989E-10-2.46728E-08
 -1       192-4.97614E+01 3.61234E+05 1.98034E+01-3.21143E+00-5.55581E-10-1.30094E-08
 -1       193-5.39350E+01 3.61255E+05 3.47542E+01 2.81623E+00-7.97725E-10-1.17507E-09
 -1       194-5.25946E+01 3.61237E+05 7.51575E+01-7.35436E+00-4.83631E-10-1.41881E-09
 -1       195-5.84118E+01 3.61252E+05 1.44928E+02 4.73790E+00-1.22358E-09-7.29597E-09
 -1       251-2.12311E+06-4.33129E+04-2.22687E+05-1.46649E+05 5.55519E-09-1.01827E-08
 -1       252-1.00261E+06 5.38778E+04 6.87327E+04 4.52878E+05 1.23964E-09-6.54763E-08
 -1       253-1.63547E+06-1.81878E+04-3.88114E+04-3.00323E+05 1.90084E-10-5.88407E-08
 -1       254-1.53065E+06 7.26582E+04 1.20586E+04 5.99596E+05-1.73753E-08-1.53300E-07
 -1       255-1.64719E+06-1.95191E+04-2.19043E+04-2.98396E+05 2.38097E-08 3.64080E-07
 -1       256-9.73467E+05 5.84792E+04 1.24397E+05 4.44227E+05 1.48366E-08 3.60498E-07
 -1       257-2.13804E+06-4.85755E+04-1.23400E+05-1.39796E+05 3.19924E-08 1.12694E-07
 -1       258-4.12574E+05 4.38241E+04 2.30189E+05 1.04970E+04-3.92247E-08-2.72843E-07
 -1       259-2.15285E+06-4.98356E+04-1.25014E+05 1.32224E+05 1.79934E-08 9.86485E-08
 -1       260-9.38677E+05 6.00522E+04 1.35500E+05-4.30099E+05-1.51767E-08-3.47571E-07
 -1       261-1.66373E+06-2.26233E+04-1.70519E+04 2.97275E+05 7.67586E-08 1.80460E-07
 -1       262-1.52521E+06 8.39531E+04 3.34285E+04-5.96949E+05-5.09668E-08-2.28553E-07
 -1       263-1.62416E+06-2.65044E+04-1.82333E+03 3.04512E+05 2.42107E-08-8.04048E-08
 -1       264-1.00903E+06 1.20426E+05 1.54236E+05-4.64353E+05 1.43581E-07-1.06981E-07
 -1       265-2.13140E+06-9.85178E+04-8.83874E+04 1.59790E+05 5.55992E-08 2.25809E-08
 -1       266-2.02518E+04-9.47035E+03 4.75140E+04-3.24765E+01 1.19690E-09 2.65228E-07
 -1       267 2.34773E+04 1.10370E+04 3.35836E+04 3.74732E+01 2.33422E-09 7.43072E-07
 -1       268-3.14827E+03-1.56320E+03 1.24828E+04-4.77464E+00 2.01317E-09 8.03021E-07
 -1       269 3.71717E+03 1.87076E+03 8.11367E+03 5.56185E+00 1.90710E-09 6.79264E-07
 -1       270-5.57953E+02-3.07383E+02 3.91659E+03-7.54778E-01 1.42211E-09 6.14763E-07
 -1       271-1.82519E+06-2.15484E+05-1.35283E+05-6.92723E+05 2.16714E-08 3.45608E-09
 -1       272-1.94688E+06-2.41693E+05-8.70483E+04-6.09766E+05-2.84672E-08-2.08547E-08
 -1       273-1.84900E+06-2.50852E+05-3.18996E+04-6.88608E+05-1.85573E-08 2.04454E-09
 -1       274-1.91906E+06-1.98237E+05-1.79050E+04-6.16395E+05 9.17652E-09 5.01507E-07
 -1       275-1.85235E+06-2.54620E+05-7.42286E+03-6.87710E+05-1.04537E-08 3.88745E-08
 -1       276-1.91351E+06-1.94902E+05-3.87667E+03-6.18442E+05 1.87442E-08-7.18076E-08
 -1       277-1.85387E+06-2.54132E+05-1.99457E+03-6.86285E+05-3.21888E-08 9.40199E-08
 -1       278-1.90898E+06-1.97647E+05-1.14142E+03-6.21335E+05-3.21816E-08 4.64943E-07
 -1       279-1.85572E+06-2.52557E+05-1.49556E+03-6.84011E+05-7.10133E-09 9.58516E-09
 -1       280-1.90326E+06-2.02602E+05-1.87521E+03-6.25569E+05 7.95771E-08 1.09081E-07
 -1       281-1.85807E+06-2.50150E+05-4.21560E+03-6.80974E+05 4.10637E-08-6.29198E-08
 -1       282-1.89769E+06-2.11048E+05-8.58069E+03-6.30915E+05-4.92309E-08 1.38338E-07
 -1       283-1.85965E+06-2.45386E+05-1.64938E+04-6.77431E+05 1.25874E-09-2.53184E-07
 -1       284-1.90302E+06-2.39542E+05-4.26239E+04-6.34890E+05-1.10886E-08-3.81914E-07
 -1       285-1.85146E+06-2.24802E+05-6.78618E+04-6.75180E+05 1.68075E-09 2.03581E-07
 -1       301 4.42703E+03-7.15851E+05 1.28166E+05-1.10904E+06 1.87720E-09 1.36068E-07
 -1       302 5.26567E+03-6.82047E+05 7.78745E+04-1.62218E+06-2.34286E-09 5.09370E-07
 -1       303-1.08593E+04-7.04632E+05 4.51052E+04-1.10684E+06 1.39698E-09-4.14642E-07
 -1       304-1.21555E+04-6.73385E+05 4.79755E+04-1.62020E+06 2.18279E-10-1.56440E-07
 -1       305-2.11950E+04-6.86060E+05 5.94512E+04-1.11049E+06-2.91038E-11-2.99042E-08
 -1       306-4.02528E+07-7.27123E+06-1.12722E+07 4.88183E+05-1.96858E-07 1.24797E-07
 -1       307 3.79283E+07 6.50797E+06 8.20113E+06-1.82718E+07-7.63175E-07-6.95291E-08
 -1       308-5.83675E+06-2.57049E+06-8.45683E+05 6.79555E+06 1.17929E-07-8.29750E-08
 -1       309-8.02167E+05 1.52483E+07 3.69090E+06-2.33594E+07 2.23372E-07 3.46336E-09
 -1       310-1.41740E+07-3.77304E+06-3.08949E+06 7.83116E+06-2.57802E-07-2.15514E-07
 -1       311 5.52871E+07 1.86826E+06 1.04696E+07-1.07984E+07 2.28174E-08-2.59955E-07
 -1       312-4.26538E+07-7.22052E+06-1.12258E+07-6.38487E+06 6.17001E-09-7.34217E-08
 -1       313 6.24044E+07 2.29315E+07 1.50543E+07 3.33078E+07-6.39353E-07 2.67522E-07
 -1       314-1.99737E+07-2.52486E+07-1.00093E+07-1.71096E+07 2.58442E-08 3.16068E-07
 -1       315 1.09162E+06 4.15819E+07 8.13120E+06 1.38343E+07 4.56348E-08-7.04313E-07
 -1       316 2.79131E+06-1.15177E+07-8.01012E+05-5.71436E+05 3.99868E-07-6.28468E-07
 -1       317-1.43311E+07 2.87555E+07 3.67189E+06-1.24418E+07 2.27330E-07-1.06237E-06
 -1       318-1.80325E+05-1.73456E+07-3.16286E+06-3.29985E+06-1.34762E-06 7.18865E-08
 -1       319 1.28323E+07 4.65427E+07 1.05274E+07 2.29103E+07-9.32836E-07 1.36555E-07
 -1       320-2.81144E+07-2.44930E+07-1.27846E+07-1.80862E+07-4.49596E-07-7.13626E-08
 -1       336-4.43432E+02-1.46938E+06-1.34574E+04 6.80673E+03-2.28974E-08-4.77303E-09
 -1       337-5.45368E+03-1.46971E+06-1.90507E+04-1.66517E+04-4.39729E-08-4.95311E-09
 -1       338 8.40935E+02-1.46852E+06-3.07220E+04 9.66087E+03-3.08119E-08 2.98096E-08
 -1       339-3.35458E+04-1.48829E+06-7.07634E+04-2.23137E+04-5.62986E-08 3.24653E-08
 -1       340 2.23747E+04-1.45235E+06-1.11386E+05 1.23327E+04-3.72129E-08 1.30676E-08
 -1       406-2.39850E+01 3.61239E+05 5.98822E+02 2.17444E+00-1.44647E-09 3.48882E-09
 -1       407 1.64642E+02 3.61358E+05 1.27737E+03 1.97820E+01-3.01164E-10 6.49470E-09
 -1       408 6.10940E+02 3.61146E+05 2.54836E+03-2.23459E+01-2.06637E-09-1.40972E-09
 -1       409 2.71680E+03 3.62172E+05 5.74152E+03 2.33467E+02-4.32749E-10-1.30094E-08
 -1       410 7.88657E+03 3.60415E+05 1.17191E+04-2.23790E+02-2.54477E-09-6.19184E-09
 -1       521-3.96855E+07-1.01938E+07-1.34501E+07 1.14447E+06-1.49128E-07 3.49071E-07
 -1       522 3.59848E+07 8.50094E+06 7.68196E+06-2.43709E+07-5.92292E-07-2.34519E-07
 -1       523-6.31238E+06-2.85380E+06-6.28423E+05 7.04880E+06 5.00586E-09-1.70287E-07
 -1       524-9.46333E+06 2.06014E+07 3.60048E+06-2.73923E+07 1.08048E-06-5.44038E-07
 -1       525-1.41717E+07-4.65386E+06-3.13423E+06 7.79387E+06 7.26839E-07-5.50237E-07
 -1       526 5.76462E+07 1.60535E+06 1.01776E+07-1.57711E+07 2.43192E-07 1.44762E-07
 -1       527-4.25884E+07-1.06164E+07-1.32207E+07-5.46778E+06 1.66125E-07-1.67202E-08
 -1       528 6.62891E+07 2.46110E+07 1.46139E+07 3.76481E+07 1.03028E-08 3.52244E-07
 -1       529-2.06362E+07-2.72442E+07-1.16038E+07-1.52072E+07 2.73052E-07 2.39583E-07
 -1       530-4.43517E+06 4.78593E+07 7.98424E+06 1.08213E+07-4.82964E-07 7.87084E-07
 -1       531 2.55781E+06-1.23199E+07-5.51033E+05-4.85518E+05-1.27450E-06 4.03437E-07
 -1       532-1.81703E+07 2.90987E+07 3.58263E+06-2.07252E+07 3.15893E-07-9.36998E-07
 -1       533-5.10771E+05-1.74780E+07-3.13296E+06-2.61826E+06-3.31755E-07-1.13749E-06
 -1       534 7.62384E+06 5.29690E+07 9.94829E+06 2.19987E+07 3.66126E-08 7.62811E-07
 -1       535-2.86245E+07-2.70280E+07-1.51522E+07-1.61678E+07 1.54134E-07 5.49131E-07
 -1       536-6.47495E+05-2.75786E+04-6.66767E+04-4.74761E+04-2.29693E-09 4.16067E-08
 -1       537-1.13654E+05 2.39594E+04 5.15711E+04 1.10228E+05-1.06837E-07 8.82667E-08
 -1       538-3.90980E+05 4.65437E+03-3.84219E+03-6.53624E+04 1.51589E-08 9.61121E-08
 -1       539-2.88942E+05-1.86606E+01 1.63047E+04 1.24835E+05 1.43543E-07 1.12623E-07
 -1       540-4.76719E+05 1.54848E+02-1.93342E+04-6.24892E+04-1.29137E-08 1.11857E-07
 -1       541 5.97570E+04 1.37063E+04 8.77694E+04 8.63923E+04-1.66208E-08 7.89705E-08
 -1       542-7.30334E+05-1.68471E+04-7.09685E+04-2.62594E+04 6.08261E-08 3.08983E-08
 -1       543 2.76470E+05 2.28353E+04 1.31716E+05-1.21639E+04-1.77040E-08-3.76076E-10
 -1       544-6.87643E+05-1.37619E+04-6.26466E+04 3.55564E+04-9.60335E-09-2.38222E-08
 -1       545-3.97418E+04 7.67333E+03 6.60155E+04-1.01246E+05-2.38637E-08-6.03043E-08
 -1       546-4.22586E+05 5.31630E+03-1.04468E+04 6.25647E+04 3.03255E-08-7.23684E-08
 -1       547-3.03258E+05-4.66008E+03 7.52200E+03-1.27404E+05-7.71236E-08-9.37687E-08
 -1       548-4.31181E+05 4.45203E+03-2.17572E+04 6.22389E+04-9.31441E-08-7.66163E-08
 -1       549-2.21301E+04 1.00272E+04 4.60511E+04-9.88180E+04-6.92000E-08-4.09063E-08
 -1       550-6.96182E+05-1.56462E+04-1.14770E+05 3.34320E+04 2.78214E-09-3.67654E-08
 -1       551 2.23411E+04-5.82559E+05-3.28077E+04-9.97212E+05-9.09858E-08 6.02449E-09
 -1       552 6.18504E+04-6.18706E+05-1.85924E+03-1.42005E+06-6.45814E-08 4.76866E-08
 -1       553 5.00760E+04-6.17446E+05 2.37359E+04-9.91540E+05-1.07379E-07 3.29746E-08
 -1       554 9.91095E+04-6.30511E+05 7.02975E+04-1.42263E+06-6.81321E-08 1.92958E-08
 -1       555 7.99275E+04-6.43033E+05 1.32842E+05-9.90528E+05-1.14844E-07-1.27111E-08
 -1       556 2.02936E+05-3.55023E+05-2.13141E+03-3.75517E+05-2.05619E-08-4.15894E-08
 -1       557 3.16609E+05-4.50624E+05 1.22804E+03-4.90188E+05-1.16415E-09-2.32285E-09
 -1       558 1.85833E+05-3.44388E+05-3.18217E+03-3.81740E+05-1.91212E-08-1.42536E-08
 -1       559 2.98776E+05-4.47824E+05-4.89712E+02-5.07582E+05 1.94414E-08-1.52431E-09
 -1       560 1.72867E+05-3.36240E+05-2.36137E+03-3.90981E+05 9.34233E-09 5.37693E-09
 -1       561 2.82936E+05-4.41289E+05-4.35458E+02-5.18448E+05-3.20142E-10-1.28130E-08
 -1       562 1.62779E+05-3.30001E+05-1.31633E+03-3.98236E+05 6.22822E-09 9.41145E-09
 -1       563 2.71062E+05-4.36092E+05-1.37245E+02-5.26188E+05 5.67525E-09-1.54396E-08
 -1       564 1.55664E+05-3.25576E+05-5.19712E+02-4.03263E+05 1.10595E-08-5.94491E-09
 -1       565 2.63282E+05-4.32703E+05 4.55161E+00-5.31152E+05 1.50758E-08-5.45697E-09
 -1       566 1.51604E+05-3.23007E+05-2.11678E+02-4.06102E+05-4.59113E-09 5.11136E-09
 -1       567 2.59654E+05-4.31123E+05-3.12637E+02-5.33337E+05 8.62929E-09 3.47063E-09
 -1       568 1.50671E+05-3.22441E+05-9.66881E+02-4.06850E+05-4.38513E-09 5.38785E-09
 -1       569 2.58900E+05-4.31083E+05-2.43065E+03-5.31805E+05-9.95260E-09 2.83326E-08
 -1       570 1.53874E+05-3.25419E+05-5.33289E+03-4.05954E+05 7.23230E-09 1.19771E-08
 -1       571 2.72617E+05 9.87628E+03 1.41869E+04-8.63891E+04 2.44745E-09-4.43697E-09
 -1       572 2.74683E+05 3.67097E+03 6.95230E+03-9.47788E+04 6.00903E-09-4.68935E-09
 -1       573 2.73440E+05 1.10779E+03 3.08907E+03-8.62252E+04 3.13412E-09 1.14087E-08
 -1       574 2.73652E+05 6.08421E+02 1.54889E+03-9.49837E+04 1.84014E-09-1.47638E-08
 -1       575 2.73531E+05 3.51676E+02 7.30952E+02-8.62029E+04-1.04369E-08-1.23082E-08
 -1       576 2.73523E+05 3.55357E+02 3.74040E+02-9.50110E+04-2.49470E-08-2.75486E-09
 -1       577 2.73565E+05 2.98803E+02 1.86676E+02-8.61998E+04-1.19899E-08 1.51977E-09
 -1       578 2.73545E+05 3.23198E+02 1.07556E+02-9.50147E+04-3.76485E-09-5.97174E-09
 -1       579 2.73624E+05 2.69583E+02 7.39294E+01-8.61995E+04 3.42334E-09 3.16231E-09
 -1       580 2.73628E+05 2.82195E+02 8.52989E+01-9.50102E+04-7.58155E-09-6.41103E-09
 -1       581 2.73717E+05 2.22935E+02 1.29358E+02-8.62049E+04 5.93536E-09-6.38738E-09
 -1       582 2.73774E+05 2.57094E+02 2.62080E+02-9.49541E+04 1.05683E-09-5.29508E-09
 -1       583 2.73830E+05 2.73841E+02 5.04483E+02-8.62562E+04 9.45874E-10 2.83057E-09
 -1       584 2.74102E+05 6.84029E+02 1.14013E+03-9.45227E+04 2.06273E-09-2.05955E-09
 -1       585 2.73834E+05 1.65350E+03 2.31081E+03-8.66358E+04-2.24281E-09 3.41970E-10
 -1       586-3.23902E+03 1.06228E+05-2.97741E+03-2.37000E+05-4.54338E-09-7.93102E-09
 -1       587-1.17144E+03 1.05949E+05 5.92667E+02-2.60844E+05-4.35102E-09 5.11773E-09
 -1       588 4.81579E+02 1.05808E+05 4.38216E+03-2.36874E+05-2.25373E-09-1.77024E-08
 -1       589 4.87373E+03 1.08096E+05 1.14833E+04-2.60610E+05-8.53197E-09-2.02808E-08
 -1       590 1.56135E+04 1.04558E+05 2.41354E+04-2.37283E+05-5.51518E-09 4.10182E-09
 -1       591-6.76884E+04-1.47544E+04-2.07662E+04-2.92290E+04-1.99202E-09 2.33194E-09
 -1       592-7.13590E+04-1.81322E+04-1.12486E+04-3.26823E+04-1.52380E-09-4.07465E-09
 -1       593-6.97656E+04-1.32471E+04-4.68227E+03-3.07513E+04 3.57625E-09 7.34985E-09
 -1       594-6.84905E+04-1.50864E+04-2.33518E+03-3.27925E+04-9.90752E-10 2.10866E-09
 -1       595-6.99240E+04-1.32421E+04-1.07216E+03-3.08205E+04 3.53444E-09 2.39828E-08
 -1       596-6.82941E+04-1.49471E+04-5.44960E+02-3.27692E+04 2.15931E-09-1.53888E-08
 -1       597-6.99439E+04-1.32562E+04-2.96583E+02-3.08231E+04 3.10587E-09 4.26866E-09
 -1       598-6.82748E+04-1.49417E+04-2.38121E+02-3.27627E+04-7.21684E-09 6.02540E-12
 -1       599-6.99427E+04-1.32567E+04-3.03795E+02-3.08228E+04 4.13820E-09-1.57885E-08
 -1       600-6.82943E+04-1.49477E+04-5.64059E+02-3.27674E+04 4.39326E-09-5.68622E-09
 -1       601-6.99199E+04-1.32432E+04-1.11260E+03-3.08195E+04 4.77576E-09-1.80839E-08
 -1       602-6.84980E+04-1.50913E+04-2.42473E+03-3.27880E+04-1.63016E-09-3.84634E-08
 -1       603-6.97529E+04-1.32510E+04-4.86253E+03-3.07484E+04-1.29148E-10-1.39021E-08
 -1       604-7.14933E+04-1.82361E+04-1.16809E+04-3.26505E+04 1.63095E-09 5.32509E-09
 -1       605-6.75771E+04-1.48329E+04-2.15645E+04-2.91857E+04 3.57005E-09 1.66374E-08
 -1       606 2.61570E+04-1.33748E+04-2.39877E+04 2.38172E+04 4.09273E-09-4.01042E-09
 -1       607 2.20574E+04-4.36271E+03-1.19457E+04 2.67597E+04 1.64164E-09-1.56715E-08
 -1       608 2.43932E+04-7.81786E+02-5.34781E+03 2.36451E+04-2.54477E-09 1.48839E-08
 -1       609 2.39439E+04-2.61838E+02-2.70152E+03 2.69716E+04 2.72848E-10 2.62837E-08
 -1       610 2.41925E+04-3.09301E+01-1.28904E+03 2.36249E+04-4.97494E-09 1.42290E-08
 -1       611 2.41206E+04-2.95356E+01-6.49925E+02 2.69946E+04-8.46239E-09 1.14446E-08
 -1       612 2.41475E+04-1.74756E+01-3.09088E+02 2.36229E+04-7.17409E-09 1.57700E-08
 -1       613 2.41303E+04-2.51091E+01-1.38605E+02 2.69973E+04 1.12777E-10 1.75451E-08
 -1       614 2.41259E+04-2.29350E+01-3.27901E+01 2.36222E+04-1.57252E-09 7.14635E-09
 -1       615 2.41245E+04-2.32453E+01 5.74326E+01 2.69977E+04-2.77987E-09 2.05303E-08
 -1       616 2.41091E+04-1.96295E+01 1.72823E+02 2.36224E+04-9.42691E-10-7.83803E-09
 -1       617 2.41447E+04 1.39810E+01 3.94559E+02 2.69972E+04-2.60661E-09-1.84464E-08
 -1       618 2.40744E+04 9.44194E+01 7.95378E+02 2.36227E+04-1.60753E-09 1.21697E-08
 -1       619 2.44251E+04 6.29220E+02 1.78615E+03 2.69966E+04-3.22837E-09 1.05213E-08
 -1       620 2.38100E+04 1.98070E+03 3.59011E+03 2.36237E+04 1.49953E-10 5.79621E-09
 -1       621 4.39713E+02 2.81265E+05 3.48108E+03 3.56172E+04 7.41693E-10 1.41972E-08
 -1       622 5.75832E+02 2.82079E+05 3.12670E+03 5.17270E+04 8.42192E-10-1.03519E-08
 -1       623 1.07059E+02 2.81443E+05 3.80685E+03 3.54544E+04 1.07116E-09 3.82988E-09
 -1       624 1.92691E+03 2.83233E+05 7.41983E+03 5.18882E+04 1.16825E-09-2.65265E-08
 -1       625 1.89459E+03 2.79972E+05 1.29852E+04 3.54513E+04 1.37607E-09 8.55835E-09
 -1       626 2.45114E+05 5.86625E+04 4.93235E+03 1.20250E+05 7.79482E-09-1.66983E-08
 -1       627 2.42848E+05 6.00423E+04 2.37682E+03 1.24402E+05 2.38842E-08-1.12915E-08
 -1       628 2.45241E+05 5.64017E+04 1.00511E+03 1.21083E+05 2.62844E-09 2.13822E-09
 -1       629 2.42230E+05 5.93925E+04 4.91920E+02 1.24639E+05-4.99858E-09 2.62958E-08
 -1       630 2.45254E+05 5.62926E+04 2.28106E+02 1.21118E+05-7.18819E-09-9.23910E-09
 -1       631 2.42165E+05 5.93683E+04 1.22594E+02 1.24640E+05 5.04770E-09 2.25672E-08
 -1       632 2.45250E+05 5.62968E+04 8.04116E+01 1.21113E+05-1.65733E-08-1.27936E-08
 -1       633 2.42156E+05 5.93705E+04 8.91643E+01 1.24636E+05-3.09685E-08 5.44901E-09
 -1       634 2.45245E+05 5.62945E+04 1.43738E+02 1.21112E+05-2.45492E-08 5.31963E-09
 -1       635 2.42168E+05 5.93692E+04 2.90637E+02 1.24641E+05-5.38854E-09 1.18534E-08
 -1       636 2.45236E+05 5.62895E+04 5.86845E+02 1.21112E+05 1.31467E-09 7.64794E-09
 -1       637 2.42295E+05 5.94607E+04 1.29020E+03 1.24640E+05 4.92719E-10-1.04237E-08
 -1       638 2.45190E+05 5.65748E+04 2.65092E+03 1.20983E+05 1.95405E-09 2.73940E-09
 -1       639 2.43687E+05 6.13973E+04 6.27207E+03 1.24229E+05 3.67709E-09 3.77509E-09
 -1       640 2.44998E+05 6.23569E+04 1.30157E+04 1.18544E+05 5.78575E-09 2.03327E-08
 -1       656 6.28027E+04-1.60581E+06-1.51607E+05-2.10060E+03-1.16415E-10-2.42441E-08
 -1       657-8.30758E+04-1.67431E+06-1.25581E+05 5.55788E+03-7.16682E-10-8.37983E-09
 -1       658 2.00132E+04-1.62527E+06-7.73247E+04-3.97990E+03 6.03904E-10-1.22565E-08
 -1       659-8.97820E+04-1.67749E+06-1.34394E+05 7.08666E+03-2.03636E-09-7.29560E-09
 -1       660 6.94937E+04-1.60263E+06-1.66758E+05-3.62936E+03-1.70985E-09-2.23230E-09
 -1       661 1.55938E+05 1.64043E+04 1.62592E+04 6.09658E+04-8.01720E-10 1.52122E-08
 -1       662 1.65055E+05 2.85198E+04 1.09574E+04 5.74048E+04 1.29319E-10 1.24070E-08
 -1       663 1.59131E+05 2.16214E+04 3.83231E+03 6.00401E+04 7.30552E-10 2.10323E-08
 -1       664 1.61354E+05 2.24179E+04 2.29234E+03 5.85349E+04-7.09633E-10 8.41356E-09
 -1       665 1.59615E+05 2.23348E+04 9.04335E+02 5.98998E+04 1.24544E-10-3.95781E-09
 -1       666 1.60783E+05 2.16013E+04 5.29122E+02 5.87173E+04 6.01123E-09-1.64366E-09
 -1       667 1.59699E+05 2.24166E+04 2.81016E+02 5.98654E+04 3.21549E-09 7.31093E-09
 -1       668 1.60691E+05 2.15415E+04 2.86203E+02 5.87672E+04-1.42472E-09-6.85972E-09
 -1       669 1.59706E+05 2.23929E+04 3.87406E+02 5.98502E+04 3.71443E-10 1.45510E-08
 -1       670 1.60786E+05 2.17509E+04 8.43477E+02 5.87691E+04-1.13569E-08 4.62178E-09
 -1       671 1.59604E+05 2.22116E+04 1.49764E+03 5.98615E+04 1.20207E-09-1.12248E-08
 -1       672 1.61659E+05 2.32074E+04 3.83166E+03 5.85571E+04 7.27971E-09-6.21355E-09
 -1       673 1.58837E+05 2.09732E+04 6.42124E+03 6.00481E+04 4.30100E-09 3.32216E-09
 -1       674 1.67771E+05 3.35230E+04 1.83634E+04 5.67606E+04-2.15130E-09-1.34842E-08
 -1       675 1.53531E+05 1.21849E+04 2.72577E+04 6.15496E+04-3.01634E-09 1.33368E-08
 -1       676 2.29653E+01-2.81524E+05-1.06281E+03-1.03424E+02 1.77656E-09 1.47548E-08
 -1       677-2.81561E+02-2.81781E+05-1.94511E+03 2.06693E+02 7.74114E-09 7.26853E-09
 -1       678 1.88510E+02-2.81341E+05-3.43847E+03-1.03201E+02 8.53333E-10-9.53825E-10
 -1       679-3.43889E+03-2.83857E+05-8.16832E+03 2.05840E+02 7.05836E-09-4.58106E-09
 -1       680 2.05289E+03-2.79450E+05-1.31646E+04-1.01426E+02-1.13687E-10 8.01889E-09
 -1       771-2.91195E+06-7.13169E+05-1.75495E+05-1.39685E+06-3.54339E-08-2.62517E-08
 -1       772-2.84182E+06-8.01741E+05-9.10484E+04-1.49877E+06-2.81725E-08 1.63891E-08
 -1       773-2.94342E+06-6.88778E+05-4.52607E+04-1.41201E+06-2.07510E-08 7.23230E-09
 -1       774-2.83016E+06-7.81266E+05-2.04451E+04-1.52282E+06 2.67755E-08-3.73984E-09
 -1       775-2.95885E+06-6.78068E+05-1.45374E+04-1.41865E+06 8.70205E-09 7.65431E-09
 -1       776-2.84151E+06-7.78196E+05-5.56412E+03-1.54075E+06 9.21136E-09 3.52156E-09
 -1       777-2.97205E+06-6.68583E+05-6.16051E+03-1.42442E+06 8.96398E-09 2.71393E-09
 -1       778-2.85344E+06-7.75520E+05-1.79224E+03-1.55611E+06 2.67755E-09 1.13978E-08
 -1       779-2.98333E+06-6.60319E+05-3.00159E+03-1.42933E+06-9.96806E-09-5.75528E-09
 -1       780-2.86390E+06-7.73014E+05-5.18433E+02-1.56861E+06-7.42148E-09-9.09495E-11
 -1       781-2.99227E+06-6.53674E+05-1.16152E+03-1.43316E+06-3.03407E-08-2.28101E-09
 -1       782-2.87193E+06-7.70907E+05 3.85998E+02-1.57781E+06-4.12329E-08-6.89670E-09
 -1       783-2.99855E+06-6.49069E+05 5.97985E+02-1.43583E+06-1.30894E-08-1.66574E-08
 -1       784-2.87639E+06-7.68841E+05 2.55366E+03-1.58348E+06-2.39670E-08 1.00913E-08
 -1       785-3.00223E+06-6.46342E+05 4.50048E+03-1.43751E+06-3.98140E-08 9.06584E-09
 -1       786 1.17664E+05-9.30061E+03 2.15173E+04-2.67741E+02 2.05483E-09 4.54202E-09
 -1       787 1.26996E+05 1.07677E+04 1.52227E+04-9.12307E+01 4.16194E-09 3.00770E-09
 -1       788 1.21262E+05-1.45755E+03 5.56703E+03-2.35852E+02 4.44413E-09 1.08109E-08
 -1       789 1.22804E+05 1.68681E+03 3.49486E+03-1.40688E+02-1.43856E-10-1.20971E-08
 -1       790 1.21856E+05-2.27061E+02 1.41516E+03-2.18297E+02-4.19283E-09 5.12006E-09
 -1       791 1.22109E+05 2.62472E+02 8.17671E+02-1.70851E+02-4.32720E-09-1.87929E-09
 -1       792 1.21957E+05-3.42824E+01 3.47097E+02-2.05691E+02-2.78892E-09 4.48802E-09
 -1       793 1.21989E+05 3.62480E+01 1.74369E+02-1.94474E+02 1.54854E-09-7.26908E-09
 -1       794 1.21976E+05-9.80417E-01 4.79838E+01-1.94674E+02 2.69008E-09 8.48387E-09
 -1       795 1.21955E+05-2.40251E+01-4.79034E+01-2.17218E+02-4.80760E-09 3.32752E-08
 -1       796 1.21991E+05 2.59573E+01-1.42710E+02-1.82947E+02 2.97399E-09-2.95941E-11
 -1       797 1.21871E+05-1.94963E+02-3.95169E+02-2.43781E+02 2.65172E-09 1.05120E-09
 -1       798 1.22061E+05 1.69829E+02-6.42678E+02-1.68110E+02 1.66855E-09 3.73379E-09
 -1       799 1.21383E+05-1.25262E+03-1.76896E+03-2.79973E+02 4.68142E-09 1.62328E-09
 -1       800 1.22479E+05 1.08276E+03-2.50361E+03-1.46756E+02 4.06636E-10-5.52893E-09
 -1       801-1.05039E+05-8.76631E+06-1.18727E+06 1.12612E+06 8.43720E-08-4.84870E-08
 -1       802 5.51205E+05 4.06336E+06 1.70465E+06-1.36262E+06 2.33624E-07-3.20679E-08
 -1       803-4.26604E+05-1.21040E+07-1.52447E+06 7.14944E+05 7.12680E-08 1.12577E-08
 -1       804 2.12536E+05 1.13221E+06 1.19829E+06 5.82825E+05-1.05676E-07-8.35612E-08
 -1       805 1.66602E+05-5.85016E+06-2.36012E+05-8.14729E+05-4.44124E-08-5.29717E-08
 -1       806-2.91744E+05-5.59066E+04-2.14332E+04-1.14986E+05-8.19864E-09 9.84483E-09
 -1       807-2.93509E+05-5.23292E+04-1.05299E+04-1.20094E+05 8.92942E-09 7.36823E-09
 -1       808-2.92327E+05-4.81878E+04-4.46719E+03-1.18644E+05-2.66618E-09 5.88034E-09
 -1       809-2.91299E+05-4.93668E+04-2.18437E+03-1.20348E+05-9.68521E-09-6.45764E-09
 -1       810-2.92416E+05-4.79190E+04-1.00122E+03-1.18806E+05 8.35144E-09-4.90900E-10
 -1       811-2.91129E+05-4.92474E+04-4.97936E+02-1.20315E+05 8.51742E-10-1.89732E-08
 -1       812-2.92430E+05-4.79419E+04-2.51884E+02-1.18806E+05 1.63709E-09-4.30236E-09
 -1       813-2.91106E+05-4.92491E+04-1.63819E+02-1.20298E+05 3.95084E-09-2.14754E-08
 -1       814-2.92424E+05-4.79505E+04-1.62478E+02-1.18802E+05 2.11276E-09-1.19335E-08
 -1       815-2.91110E+05-4.92510E+04-2.62037E+02-1.20292E+05 2.07001E-09 1.14667E-08
 -1       816-2.92405E+05-4.79491E+04-4.96673E+02-1.18799E+05 2.91584E-09-2.82034E-09
 -1       817-2.91195E+05-4.92981E+04-1.06618E+03-1.20282E+05-7.32143E-09 6.84122E-09
 -1       818-2.92342E+05-4.80988E+04-2.17455E+03-1.18729E+05-4.27281E-09 3.90582E-09
 -1       819-2.92385E+05-5.06128E+04-5.11689E+03-1.20003E+05-1.25660E-08-1.70144E-08
 -1       820-2.91935E+05-5.19618E+04-1.04146E+04-1.17076E+05-6.95945E-09-7.40670E-09
 -1       821-3.60218E+05 1.98430E+04-4.59579E+04 1.35151E+03 9.73816E-09-6.29370E-09
 -1       822-3.79870E+05-2.29740E+04-3.24756E+04-2.40863E+03 2.46057E-09 5.68116E-09
 -1       823-3.67756E+05 3.11488E+03-1.18936E+04 1.85115E+03-7.67723E-09 1.61945E-08
 -1       824-3.70968E+05-3.59963E+03-7.47201E+03-2.56849E+03 1.47073E-09 1.13345E-08
 -1       825-3.69118E+05 4.84197E+02-3.09305E+03 1.51140E+03 1.08202E-08 7.14829E-09
 -1       826-3.69236E+05-5.62604E+02-1.79513E+03-1.23038E+03 1.31754E-08-1.70286E-08
 -1       827-3.69479E+05 7.45806E+01-1.01091E+03 5.13011E+02 7.76082E-09-5.90722E-09
 -1       828-3.68947E+05-1.63800E+02-7.74244E+02 8.97980E+02-1.19218E-09 7.41210E-09
 -1       829-3.69406E+05 8.39215E+01-1.01822E+03-6.16999E+02 5.30321E-10 8.56897E-09
 -1       830-3.69404E+05-5.97489E+02-1.89292E+03 2.68988E+03-1.73689E-09 1.47102E-08
 -1       831-3.69028E+05 5.13158E+02-3.19202E+03-1.27891E+03-4.23248E-09-1.39353E-08
 -1       832-3.71055E+05-3.74966E+03-7.76794E+03 3.19444E+03-9.51822E-10-1.57880E-08
 -1       833-3.67760E+05 3.23638E+03-1.23699E+04-1.12157E+03-2.37414E-09 7.54426E-10
 -1       834-3.80124E+05-2.38702E+04-3.37130E+04 2.12409E+03-1.23131E-09 3.19869E-09
 -1       835-3.59956E+05 2.06137E+04-4.77725E+04-2.08540E+02 4.74232E-09 5.96629E-10
 -1       836-1.30954E+03 3.46258E+05 2.13761E+04-1.53481E+04-5.82440E-09-1.59357E-08
 -1       837 4.57475E+03 3.52945E+05 1.81213E+04-3.12587E+04-6.25448E-09-3.41342E-08
 -1       838-5.14881E+02 3.48130E+05 1.85103E+04-1.52802E+04-5.11591E-09 1.80389E-08
 -1       839 1.16852E+04 3.58243E+05 3.50623E+04-3.13085E+04-5.57338E-09 3.84501E-08
 -1       840-3.60057E+03 3.40908E+05 5.59315E+04-1.53025E+04-4.88944E-09-4.82654E-09
 -1       856-5.44301E+04 7.75408E+03-2.04336E+04-3.89941E+02 4.40616E-09 7.39783E-09
 -1       857-6.28523E+04-9.10802E+03-1.40666E+04 5.35762E+03 6.74277E-10 2.21462E-10
 -1       858-5.77641E+04 1.08730E+03-5.30213E+03-4.12611E+02 6.62681E-10 4.23029E-09
 -1       859-5.90257E+04-1.27662E+03-3.19991E+03 5.39165E+03-2.90299E-10 6.63505E-09
 -1       860-5.82622E+04 1.52114E+02-1.34151E+03-4.23772E+02-7.38879E-10-8.25406E-09
 -1       861-5.84525E+04-1.79254E+02-7.38934E+02 5.40686E+03 1.05146E-10-7.41471E-09
 -1       862-5.83401E+04 2.05051E+01-3.09038E+02-4.27813E+02 5.65251E-10-7.57296E-09
 -1       863-5.83573E+04-1.91834E+01-1.16828E+02 5.40915E+03-2.95891E-09-1.71116E-09
 -1       864-5.83578E+04-4.33987E+00 3.60382E+01-4.26060E+02-3.52070E-09 7.43631E-09
 -1       865-5.83062E+04 5.52885E+01 2.25315E+02 5.39929E+03-3.61014E-09-1.29634E-08
 -1       866-5.83892E+04-5.39958E+01 4.59032E+02-4.17957E+02-3.06665E-09-8.02657E-10
 -1       867-5.80892E+04 4.46759E+02 1.13295E+03 5.37727E+03-1.50268E-09 8.99995E-09
 -1       868-5.85703E+04-3.88804E+02 1.88348E+03-4.04037E+02-2.45274E-09-6.37851E-09
 -1       869-5.67078E+04 3.23640E+03 5.01605E+03 5.34075E+03 3.76363E-09-8.88861E-09
 -1       870-5.97636E+04-2.76795E+03 7.27944E+03-3.81359E+02-2.14538E-09-9.88985E-09
 -1       871-5.24752E+03-1.90304E+04-1.82896E+04 1.22320E+05-3.45062E-09 8.90577E-09
 -1       872-1.95129E+03-2.32585E+04-7.63806E+03 1.58603E+05-9.36052E-09-8.65111E-09
 -1       873 3.11579E+02-2.12225E+04 6.05287E+02 1.22051E+05-4.48927E-09-2.47087E-09
 -1       874 3.04121E+03-1.89137E+04 9.29838E+03 1.58633E+05-9.09495E-09 1.22800E-08
 -1       875 6.42579E+03-2.34394E+04 2.09369E+04 1.22276E+05-4.12183E-09-1.75987E-09
 -1       876 2.77844E+05 4.69308E+04 1.43194E+04 1.11622E+05 5.09908E-09 1.10858E-08
 -1       877 2.78782E+05 4.99558E+04 7.64706E+03 1.15737E+05 1.19062E-08-8.40669E-09
 -1       878 2.79183E+05 4.53449E+04 3.20376E+03 1.12795E+05-4.23915E-09-1.09546E-08
 -1       879 2.76835E+05 4.80135E+04 1.59628E+03 1.15835E+05 2.84194E-09-8.56647E-09
 -1       880 2.79280E+05 4.53283E+04 7.43520E+02 1.12843E+05 8.61746E-10-1.78403E-08
 -1       881 2.76706E+05 4.79305E+04 3.97000E+02 1.15813E+05-5.37204E-09-2.83859E-09
 -1       882 2.79288E+05 4.53407E+04 2.53911E+02 1.12845E+05-1.87538E-09-8.08911E-09
 -1       883 2.76697E+05 4.79262E+04 2.72844E+02 1.15806E+05-1.00403E-09 1.49145E-08
 -1       884 2.79282E+05 4.53380E+04 4.33931E+02 1.12845E+05 1.47702E-09-2.32484E-09
 -1       885 2.76731E+05 4.79323E+04 8.72379E+02 1.15816E+05-2.04864E-10-1.00486E-08
 -1       886 2.79248E+05 4.53125E+04 1.75822E+03 1.12842E+05-2.72546E-09 1.93040E-09
 -1       887 2.77040E+05 4.81349E+04 3.84060E+03 1.15861E+05-1.73941E-11 1.47270E-08
 -1       888 2.79006E+05 4.53553E+04 7.73894E+03 1.12719E+05-5.04201E-10 3.97858E-09
 -1       889 2.81648E+05 5.29259E+04 1.84870E+04 1.15719E+05-1.43507E-09 5.59157E-09
 -1       890 2.75848E+05 4.91062E+04 3.46256E+04 1.09772E+05-5.78348E-09-3.45426E-09
 -1       891-9.73374E+01-1.54295E+05-1.88771E+03 2.60806E+04-2.09775E-09 3.75576E-09
 -1       892-1.85313E+02-1.54788E+05-2.02885E+03 3.95818E+04 1.10504E-09 1.15133E-08
 -1       893 2.87941E+01-1.54356E+05-2.87397E+03 2.60873E+04-8.71069E-10-2.45564E-10
 -1       894-1.44878E+03-1.55875E+05-5.94920E+03 3.94363E+04 2.68892E-09 7.62975E-09
 -1       895-1.14747E+03-1.53118E+05-1.04767E+04 2.62272E+04 2.22144E-10-3.06500E-09
 -1       956-3.56161E+05-5.10948E+03-1.26587E+04 2.83728E+04 7.24503E-09 1.05535E-08
 -1       957-3.58647E+05-1.78807E+03-6.49773E+03 3.41103E+04-4.01769E-09 1.01436E-08
 -1       958-3.57296E+05-2.09619E+02-2.92793E+03 2.82163E+04-5.65433E-09-1.13323E-09
 -1       959-3.57483E+05-1.08767E+02-1.49517E+03 3.42907E+04 2.56478E-09 1.57297E-09
 -1       960-3.57405E+05-2.65100E+01-7.29090E+02 2.82004E+04 9.14815E-09-6.53472E-09
 -1       961-3.57405E+05-4.12167E+01-3.86686E+02 3.43094E+04 1.09876E-08 4.90240E-09
 -1       962-3.57429E+05-2.85094E+01-2.21501E+02 2.81978E+04-3.38105E-09 7.13135E-09
 -1       963-3.57405E+05-3.78331E+01-1.78054E+02 3.43127E+04-7.07132E-09 2.34559E-09
 -1       964-3.57434E+05-2.55800E+01-2.16749E+02 2.81971E+04-5.87622E-09-1.71462E-08
 -1       965-3.57416E+05-3.49744E+01-3.75071E+02 3.43120E+04-2.70569E-09 9.62245E-10
 -1       966-3.57419E+05-1.78018E+01-7.04766E+02 2.81985E+04 1.21645E-09-1.32991E-08
 -1       967-3.57502E+05-9.42995E+01-1.44553E+03 3.42990E+04-4.45652E-10-8.09496E-09
 -1       968-3.57323E+05-1.89190E+02-2.82969E+03 2.82101E+04 1.50794E-09 1.18814E-09
 -1       969-3.58638E+05-1.71288E+03-6.28200E+03 3.41630E+04 2.37196E-09 1.20563E-08
 -1       970-3.56233E+05-4.92285E+03-1.22374E+04 2.83281E+04-2.16096E-09-2.25555E-09
 -1       971-3.27129E+05-1.64308E+03-8.89840E+03 1.46735E+04 3.34694E-09 9.04149E-09
 -1       972-3.29274E+05-1.20493E+03-4.84603E+03 2.03262E+04 5.68252E-09-1.27345E-08
 -1       973-3.28120E+05-5.16439E+01-2.17047E+03 1.45569E+04 1.64619E-09-5.67979E-09
 -1       974-3.28252E+05-6.71733E+01-1.12504E+03 2.04572E+04 1.00499E-09-1.70689E-09
 -1       975-3.28198E+05-9.09093E+00-5.62595E+02 1.45453E+04-1.71030E-09 2.04963E-08
 -1       976-3.28192E+05-1.98233E+01-3.25044E+02 2.04719E+04 5.62159E-09 1.55248E-08
 -1       977-3.28213E+05-8.61564E+00-2.36715E+02 1.45422E+04 6.82121E-10 4.51450E-09
 -1       978-3.28197E+05-1.40601E+01-2.78120E+02 2.04764E+04-6.41649E-09 7.95615E-09
 -1       979-3.28213E+05-6.87563E-01-4.47792E+02 1.45409E+04-4.26428E-09 9.54594E-09
 -1       980-3.28231E+05-1.11991E+01-8.65219E+02 2.04772E+04-1.22576E-09-3.05397E-09
 -1       981-3.28185E+05 2.09426E+01-1.67602E+03 1.45413E+04 4.25212E-09 1.35831E-08
 -1       982-3.28461E+05-1.34971E+02-3.46447E+03 2.04710E+04 2.87400E-10-7.76191E-09
 -1       983-3.27974E+05-8.62731E+01-6.73154E+03 1.45471E+04-4.19914E-09 5.02496E-10
 -1       984-3.31699E+05-3.65047E+03-1.50750E+04 2.03891E+04-3.60819E-09 1.43223E-09
 -1       985-3.24927E+05-5.01190E+03-2.76823E+04 1.46176E+04-1.62026E-09 8.65839E-09
 -3
    1PSTEP                        43          22           1          
  100CL  122 6.46518E-01         409                     0   22           1
 -4  DISP        4    1
 -5  D1          1    2    1    0
 -5  D2          1    2    2    0
 -5  D3          1    2    3    0
 -5  ALL         1    2    0    0    1ALL
 -1         1 4.07055E-03 0.00000E+00 0.00000E+00
 -1         2 4.02698E-03 5.20307E-28-5.29396E-23
 -1         3 3.28746E-04-7.50580E-27 0.00000E+00
 -1         5 1.72485E-04-6.52463E-26-1.24077E-24
 -1         8 4.05604E-03-4.16012E-07 0.00000E+00
 -1         9 4.00616E-03-1.15043E-05 0.00000E+00
 -1        10 2.98629E-04-2.93772E-06-6.61744E-24
 -1        12 1.74198E-04 7.84476E-07 1.44757E-24
 -1        15 4.03828E-03-4.53772E-07 2.06795E-25
 -1        16 4.04830E-03-1.34120E-05 0.00000E+00
 -1        17 2.04409E-04-6.72090E-06 0.00000E+00
 -1        18 1.77788E-04 3.24087E-05 0.00000E+00
 -1        19 1.79339E-04 1.56298E-06 0.00000E+00
 -1        20 1.79477E-04-8.60467E-06 0.00000E+00
 -1        21 1.78615E-04-2.26387E-05 0.00000E+00
 -1        24 2.95101E-05-1.04339E-05 0.00000E+00
 -1        25 1.87898E-04 3.26262E-05 0.00000E+00
 -1        26 1.88553E-04 2.16420E-06 0.00000E+00
 -1        27 1.86421E-04-1.20651E-05 0.00000E+00
 -1        28 1.86107E-04-2.32448E-05 0.00000E+00
 -1        32 0.00000E+00 0.00000E+00 0.00000E+00
 -1        33 1.96789E-04 2.89554E-06 0.00000E+00
 -1        34 1.94728E-04-1.21183E-05 0.00000E+00
 -1        35 1.92847E-04-2.35778E-05 0.00000E+00
 -1        51 4.06963E-03-8.39618E-08 6.61744E-24
 -1        52 4.06790E-03-1.51361E-07 0.00000E+00
 -1        53 4.06552E-03-2.16055E-07 0.00000E+00
 -1        54 4.06265E-03-2.80241E-07 0.00000E+00
 -1        55 4.05943E-03-3.45583E-07-2.48154E-24
 -1        56 4.06579E-03 1.87959E-06 0.00000E+00
 -1        57 4.05854E-03 9.86519E-06-5.29396E-23
 -1        58 4.04942E-03 2.27108E-05 1.05879E-22
 -1        59 4.03904E-03 3.86880E-05-5.29396E-23
 -1        60 4.02831E-03 5.55624E-05 1.05879E-22
 -1        61 4.01813E-03 7.10143E-05 5.29396E-23
 -1        62 4.00932E-03 8.29663E-05 0.00000E+00
 -1        63 4.00256E-03 8.96325E-05 5.29396E-23
 -1        64 3.99814E-03 9.01260E-05 0.00000E+00
 -1        65 3.99617E-03 8.40848E-05 0.00000E+00
 -1        66 3.99631E-03 7.22688E-05-1.05879E-22
 -1        67 3.99809E-03 5.59382E-05 5.29396E-23
 -1        68 4.00076E-03 3.71342E-05 0.00000E+00
 -1        69 4.00352E-03 1.81222E-05 0.00000E+00
 -1        70 4.00554E-03 1.18987E-06-5.29396E-23
 -1        86 4.02424E-03-1.91586E-06 0.00000E+00
 -1        87 4.01623E-03-3.85744E-06 0.00000E+00
 -1        88 4.00715E-03-5.80681E-06 0.00000E+00
 -1        89 4.00127E-03-7.72442E-06 0.00000E+00
 -1        90 4.00045E-03-9.63019E-06 0.00000E+00
 -1       121 3.27902E-04-4.73870E-07-1.32349E-23
 -1       122 3.25371E-04-9.50476E-07 0.00000E+00
 -1       123 3.21163E-04-1.43251E-06 0.00000E+00
 -1       124 3.15289E-04-1.92269E-06 6.61744E-24
 -1       125 3.07770E-04-2.42339E-06 1.32349E-23
 -1       191 1.72532E-04 1.30801E-07-2.48154E-24
 -1       192 1.72675E-04 2.61593E-07-4.13590E-25
 -1       193 1.72913E-04 3.92367E-07 1.65436E-24
 -1       194 1.73246E-04 5.23113E-07 0.00000E+00
 -1       195 1.73674E-04 6.53820E-07-8.27181E-25
 -1       251 4.05521E-03 2.11020E-05 1.32349E-23
 -1       252 4.05297E-03 7.92115E-05 0.00000E+00
 -1       253 4.04899E-03 1.63425E-04 1.32349E-23
 -1       254 4.04369E-03 2.62648E-04-6.61744E-24
 -1       255 4.03840E-03 3.61609E-04 0.00000E+00
 -1       256 4.03449E-03 4.45043E-04 0.00000E+00
 -1       257 4.03231E-03 5.02002E-04 0.00000E+00
 -1       258 4.03149E-03 5.22152E-04 0.00000E+00
 -1       259 4.03072E-03 5.04707E-04 0.00000E+00
 -1       260 4.02865E-03 4.49842E-04 6.61744E-24
 -1       261 4.02481E-03 3.67409E-04 0.00000E+00
 -1       262 4.01947E-03 2.67904E-04 6.61744E-24
 -1       263 4.01396E-03 1.66553E-04 0.00000E+00
 -1       264 4.00967E-03 7.86256E-05 0.00000E+00
 -1       265 4.00715E-03 1.56241E-05 2.64698E-23
 -1       266 4.05308E-03-4.28564E-07 0.00000E+00
 -1       267 4.05012E-03-4.34095E-07 0.00000E+00
 -1       268 4.04716E-03-4.40070E-07-8.27181E-25
 -1       269 4.04420E-03-4.44728E-07 0.00000E+00
 -1       270 4.04124E-03-4.49355E-07-2.06795E-25
 -1       271 4.05412E-03 2.70029E-06 0.00000E+00
 -1       272 4.05194E-03 6.41471E-06-6.61744E-24
 -1       273 4.04963E-03 1.04875E-05-2.64698E-23
 -1       274 4.04728E-03 1.46655E-05 0.00000E+00
 -1       275 4.04498E-03 1.86973E-05-2.64698E-23
 -1       276 4.04284E-03 2.23317E-05 0.00000E+00
 -1       277 4.04093E-03 2.53211E-05 0.00000E+00
 -1       278 4.03937E-03 2.74228E-05 1.32349E-23
 -1       279 4.03822E-03 2.84024E-05 0.00000E+00
 -1       280 4.03758E-03 2.80344E-05 1.32349E-23
 -1       281 4.03753E-03 2.61052E-05 0.00000E+00
 -1       282 4.03813E-03 2.24140E-05 1.32349E-23
 -1       283 4.03945E-03 1.67758E-05 0.00000E+00
 -1       284 4.04156E-03 9.02214E-06 0.00000E+00
 -1       285 4.04449E-03-9.98270E-07 0.00000E+00
 -1       301 4.01297E-03-1.18365E-05 0.00000E+00
 -1       302 4.01854E-03-1.21390E-05 0.00000E+00
 -1       303 4.02386E-03-1.24380E-05 0.00000E+00
 -1       304 4.02993E-03-1.27409E-05 0.00000E+00
 -1       305 4.03775E-03-1.30585E-05 0.00000E+00
 -1       306 4.04881E-03-1.99500E-04 1.05879E-22
 -1       307 4.10455E-03-7.12447E-04 0.00000E+00
 -1       308 4.11038E-03-1.46855E-03-1.05879E-22
 -1       309 4.06535E-03-2.34777E-03 0.00000E+00
 -1       310 4.03695E-03-3.18764E-03 0.00000E+00
 -1       311 4.07454E-03-3.82777E-03 5.29396E-23
 -1       312 4.13433E-03-4.16416E-03 0.00000E+00
 -1       313 4.12236E-03-4.16079E-03 5.29396E-23
 -1       314 3.92159E-03-3.83707E-03 0.00000E+00
 -1       315 3.47349E-03-3.29703E-03 0.00000E+00
 -1       316 2.79834E-03-2.64060E-03-1.05879E-22
 -1       317 1.98897E-03-1.94595E-03-2.64698E-23
 -1       318 1.21520E-03-1.26091E-03 1.05879E-22
 -1       319 6.36010E-04-6.44871E-04-5.29396E-23
 -1       320 3.07663E-04-1.94082E-04 0.00000E+00
 -1       336 2.87684E-04-3.50692E-06-1.32349E-23
 -1       337 2.74759E-04-4.09913E-06 0.00000E+00
 -1       338 2.59906E-04-4.71656E-06 0.00000E+00
 -1       339 2.43184E-04-5.35968E-06 0.00000E+00
 -1       340 2.24659E-04-6.03343E-06 0.00000E+00
 -1       406 1.74817E-04 9.15064E-07 3.30872E-24
 -1       407 1.75531E-04 1.04555E-06 1.44757E-24
 -1       408 1.76340E-04 1.17588E-06 4.13590E-25
 -1       409 1.77245E-04 1.30590E-06 1.29247E-24
 -1       410 1.78245E-04 1.43534E-06-2.48154E-24
 -1       521 4.09063E-03-2.13633E-04 2.11758E-22
 -1       522 4.14208E-03-7.45328E-04 0.00000E+00
 -1       523 4.13980E-03-1.52116E-03-1.05879E-22
 -1       524 4.08844E-03-2.41158E-03-5.29396E-23
 -1       525 4.05516E-03-3.26006E-03 0.00000E+00
 -1       526 4.08836E-03-3.91267E-03 0.00000E+00
 -1       527 4.14584E-03-4.25483E-03 0.00000E+00
 -1       528 4.12947E-03-4.24807E-03 0.00000E+00
 -1       529 3.91378E-03-3.91109E-03 0.00000E+00
 -1       530 3.44124E-03-3.35842E-03-5.29396E-23
 -1       531 2.73611E-03-2.69306E-03 0.00000E+00
 -1       532 1.90168E-03-1.99410E-03 0.00000E+00
 -1       533 1.10296E-03-1.30400E-03-2.11758E-22
 -1       534 4.94298E-04-6.76327E-04 5.29396E-23
 -1       535 1.44126E-04-2.10665E-04 0.00000E+00
 -1       536 2.03711E-04 2.67432E-05 3.30872E-24
 -1       537 2.01930E-04 8.48219E-05-1.65436E-24
 -1       538 1.99181E-04 1.58574E-04-3.30872E-24
 -1       539 1.95937E-04 2.38974E-04 1.65436E-24
 -1       540 1.93017E-04 3.14952E-04 3.30872E-24
 -1       541 1.91115E-04 3.75458E-04 0.00000E+00
 -1       542 1.90233E-04 4.13962E-04 0.00000E+00
 -1       543 1.90016E-04 4.24078E-04-1.65436E-24
 -1       544 1.89705E-04 4.06562E-04 0.00000E+00
 -1       545 1.88602E-04 3.62380E-04-1.65436E-24
 -1       546 1.86557E-04 2.99387E-04 3.30872E-24
 -1       547 1.83798E-04 2.25553E-04 1.65436E-24
 -1       548 1.81065E-04 1.52112E-04 0.00000E+00
 -1       549 1.79092E-04 9.02968E-05-1.65436E-24
 -1       550 1.78063E-04 4.78540E-05 1.65436E-24
 -1       551 1.80527E-04-7.19763E-06 0.00000E+00
 -1       552 1.53498E-04-7.75281E-06 0.00000E+00
 -1       553 1.24093E-04-8.37010E-06 0.00000E+00
 -1       554 9.31017E-05-9.03421E-06-1.65436E-24
 -1       555 6.13119E-05-9.72354E-06-1.32349E-23
 -1       556 1.97131E-04 1.19330E-05 0.00000E+00
 -1       557 1.91256E-04 2.70327E-05 0.00000E+00
 -1       558 1.86659E-04 3.88587E-05 5.29396E-23
 -1       559 1.83214E-04 4.77109E-05 0.00000E+00
 -1       560 1.80796E-04 5.38901E-05 0.00000E+00
 -1       561 1.79281E-04 5.76990E-05 0.00000E+00
 -1       562 1.78550E-04 5.94416E-05 0.00000E+00
 -1       563 1.78481E-04 5.94228E-05 1.32349E-23
 -1       564 1.78959E-04 5.79481E-05 0.00000E+00
 -1       565 1.79866E-04 5.53238E-05 0.00000E+00
 -1       566 1.81087E-04 5.18567E-05 0.00000E+00
 -1       567 1.82507E-04 4.78538E-05 0.00000E+00
 -1       568 1.84012E-04 4.36226E-05-1.65436E-24
 -1       569 1.85488E-04 3.94701E-05 0.00000E+00
 -1       570 1.86821E-04 3.57037E-05 0.00000E+00
 -1       571 1.77883E-04 3.04062E-05 1.65436E-24
 -1       572 1.77978E-04 2.83406E-05-4.13590E-25
 -1       573 1.78075E-04 2.62270E-05-1.65436E-24
 -1       574 1.78172E-04 2.40810E-05 0.00000E+00
 -1       575 1.78268E-04 2.19184E-05 0.00000E+00
 -1       576 1.78365E-04 1.97550E-05 0.00000E+00
 -1       577 1.78462E-04 1.76067E-05 0.00000E+00
 -1       578 1.78559E-04 1.54893E-05 6.61744E-24
 -1       579 1.78656E-04 1.34187E-05 0.00000E+00
 -1       580 1.78753E-04 1.14108E-05 0.00000E+00
 -1       581 1.78851E-04 9.48146E-06-6.61744E-24
 -1       582 1.78948E-04 7.64643E-06 0.00000E+00
 -1       583 1.79046E-04 5.92160E-06 0.00000E+00
 -1       584 1.79143E-04 4.32263E-06 0.00000E+00
 -1       585 1.79241E-04 2.86502E-06 0.00000E+00
 -1       586 1.79431E-04 3.24470E-05 0.00000E+00
 -1       587 1.81034E-04 3.24847E-05 4.13590E-25
 -1       588 1.82640E-04 3.25221E-05 0.00000E+00
 -1       589 1.84291E-04 3.25589E-05 0.00000E+00
 -1       590 1.86030E-04 3.25944E-05 0.00000E+00
 -1       591 1.78474E-04 3.04960E-05 1.03398E-25
 -1       592 1.79162E-04 2.85640E-05 2.06795E-25
 -1       593 1.79855E-04 2.66182E-05 0.00000E+00
 -1       594 1.80552E-04 2.46633E-05 0.00000E+00
 -1       595 1.81249E-04 2.27040E-05-8.27181E-25
 -1       596 1.81947E-04 2.07447E-05 0.00000E+00
 -1       597 1.82643E-04 1.87901E-05 0.00000E+00
 -1       598 1.83335E-04 1.68448E-05 4.13590E-25
 -1       599 1.84023E-04 1.49132E-05 0.00000E+00
 -1       600 1.84703E-04 1.30000E-05-4.13590E-25
 -1       601 1.85375E-04 1.11098E-05-8.27181E-25
 -1       602 1.86037E-04 9.24707E-06 0.00000E+00
 -1       603 1.86686E-04 7.41643E-06-8.27181E-25
 -1       604 1.87323E-04 5.62255E-06 0.00000E+00
 -1       605 1.87945E-04 3.86991E-06 4.13590E-25
 -1       606 1.79352E-04 4.86677E-07 0.00000E+00
 -1       607 1.79361E-04-5.04916E-07 0.00000E+00
 -1       608 1.79370E-04-1.41677E-06 3.30872E-24
 -1       609 1.79378E-04-2.25449E-06 0.00000E+00
 -1       610 1.79387E-04-3.02374E-06 0.00000E+00
 -1       611 1.79395E-04-3.73023E-06 0.00000E+00
 -1       612 1.79403E-04-4.37969E-06 0.00000E+00
 -1       613 1.79411E-04-4.97786E-06 0.00000E+00
 -1       614 1.79420E-04-5.53047E-06 1.65436E-24
 -1       615 1.79428E-04-6.04324E-06 0.00000E+00
 -1       616 1.79436E-04-6.52193E-06 1.65436E-24
 -1       617 1.79445E-04-6.97226E-06 0.00000E+00
 -1       618 1.79453E-04-7.39997E-06 0.00000E+00
 -1       619 1.79461E-04-7.81078E-06 0.00000E+00
 -1       620 1.79469E-04-8.21044E-06 0.00000E+00
 -1       621 1.80602E-04 1.66371E-06 1.65436E-24
 -1       622 1.82017E-04 1.76469E-06-8.27181E-25
 -1       623 1.83551E-04 1.86547E-06 0.00000E+00
 -1       624 1.85173E-04 1.96594E-06-1.65436E-24
 -1       625 1.86851E-04 2.06613E-06 0.00000E+00
 -1       626 1.79851E-04 5.21817E-07 0.00000E+00
 -1       627 1.80342E-04-4.56796E-07 0.00000E+00
 -1       628 1.80811E-04-1.38057E-06 0.00000E+00
 -1       629 1.81264E-04-2.25752E-06-4.96308E-24
 -1       630 1.81702E-04-3.09571E-06 0.00000E+00
 -1       631 1.82128E-04-3.90320E-06-1.65436E-24
 -1       632 1.82546E-04-4.68805E-06 0.00000E+00
 -1       633 1.82959E-04-5.45834E-06 1.65436E-24
 -1       634 1.83369E-04-6.22215E-06-3.30872E-24
 -1       635 1.83780E-04-6.98751E-06 0.00000E+00
 -1       636 1.84194E-04-7.76253E-06 0.00000E+00
 -1       637 1.84615E-04-8.55527E-06 0.00000E+00
 -1       638 1.85046E-04-9.37379E-06-3.30872E-24
 -1       639 1.85488E-04-1.02262E-05-1.65436E-24
 -1       640 1.85946E-04-1.11206E-05 1.65436E-24
 -1       656 1.80099E-04-9.16713E-06 6.61744E-24
 -1       657 1.81132E-04-9.75244E-06 0.00000E+00
 -1       658 1.82439E-04-1.03364E-05 1.32349E-23
 -1       659 1.83876E-04-1.09200E-05 0.00000E+00
 -1       660 1.85263E-04-1.15053E-05 0.00000E+00
 -1       661 1.79710E-04-9.04262E-06 0.00000E+00
 -1       662 1.79979E-04-9.56966E-06-8.27181E-25
 -1       663 1.80280E-04-1.01808E-05 1.65436E-24
 -1       664 1.80611E-04-1.08697E-05-8.27181E-25
 -1       665 1.80968E-04-1.16308E-05 1.65436E-24
 -1       666 1.81351E-04-1.24584E-05 0.00000E+00
 -1       667 1.81756E-04-1.33470E-05 0.00000E+00
 -1       668 1.82183E-04-1.42912E-05 0.00000E+00
 -1       669 1.82628E-04-1.52859E-05 1.65436E-24
 -1       670 1.83090E-04-1.63259E-05 0.00000E+00
 -1       671 1.83567E-04-1.74062E-05 0.00000E+00
 -1       672 1.84057E-04-1.85219E-05-8.27181E-25
 -1       673 1.84558E-04-1.96682E-05 0.00000E+00
 -1       674 1.85068E-04-2.08404E-05 4.13590E-25
 -1       675 1.85587E-04-2.20335E-05 2.06795E-25
 -1       676 1.79868E-04-2.27403E-05 3.30872E-24
 -1       677 1.81120E-04-2.28419E-05-1.65436E-24
 -1       678 1.82370E-04-2.29434E-05 0.00000E+00
 -1       679 1.83619E-04-2.30446E-05 1.65436E-24
 -1       680 1.84865E-04-2.31457E-05 0.00000E+00
 -1       771 1.74311E-05 1.67076E-05 0.00000E+00
 -1       772 7.28687E-06 3.89729E-05 0.00000E+00
 -1       773-1.01349E-06 5.65998E-05 0.00000E+00
 -1       774-7.59801E-06 6.98529E-05 0.00000E+00
 -1       775-1.25914E-05 7.90073E-05 0.00000E+00
 -1       776-1.61236E-05 8.43549E-05 0.00000E+00
 -1       777-1.83238E-05 8.61975E-05 0.00000E+00
 -1       778-1.93240E-05 8.48509E-05 0.00000E+00
 -1       779-1.92553E-05 8.06395E-05 1.05879E-22
 -1       780-1.82506E-05 7.38989E-05-2.64698E-23
 -1       781-1.64420E-05 6.49716E-05 0.00000E+00
 -1       782-1.39629E-05 5.42089E-05-2.64698E-23
 -1       783-1.09458E-05 4.19668E-05 0.00000E+00
 -1       784-7.52422E-06 2.86074E-05 0.00000E+00
 -1       785-3.83086E-06 1.44960E-05 1.05879E-22
 -1       786 1.87935E-04 3.04942E-05 3.23117E-27
 -1       787 1.87975E-04 2.84124E-05 0.00000E+00
 -1       788 1.88015E-04 2.63726E-05 0.00000E+00
 -1       789 1.88056E-04 2.43667E-05 4.13590E-25
 -1       790 1.88097E-04 2.23901E-05 0.00000E+00
 -1       791 1.88138E-04 2.04379E-05 0.00000E+00
 -1       792 1.88179E-04 1.85079E-05 0.00000E+00
 -1       793 1.88220E-04 1.65978E-05 0.00000E+00
 -1       794 1.88262E-04 1.47073E-05 1.65436E-24
 -1       795 1.88303E-04 1.28362E-05 8.27181E-25
 -1       796 1.88345E-04 1.09860E-05 0.00000E+00
 -1       797 1.88386E-04 9.15839E-06 0.00000E+00
 -1       798 1.88427E-04 7.35729E-06 1.65436E-24
 -1       799 1.88469E-04 5.58662E-06 0.00000E+00
 -1       800 1.88511E-04 3.85326E-06-1.65436E-24
 -1       801 1.43810E-04 2.93004E-05 2.64698E-23
 -1       802 1.04222E-05 1.83471E-05 0.00000E+00
 -1       803-1.03813E-04 9.31395E-06 0.00000E+00
 -1       804-9.26411E-05 6.47537E-06-2.64698E-23
 -1       805-3.10279E-05 2.58131E-06 0.00000E+00
 -1       806 1.88585E-04 3.04278E-05 0.00000E+00
 -1       807 1.89258E-04 2.82563E-05 1.65436E-24
 -1       808 1.89919E-04 2.61168E-05 0.00000E+00
 -1       809 1.90566E-04 2.40130E-05 0.00000E+00
 -1       810 1.91198E-04 2.19487E-05 0.00000E+00
 -1       811 1.91814E-04 1.99276E-05 1.65436E-24
 -1       812 1.92412E-04 1.79533E-05 0.00000E+00
 -1       813 1.92991E-04 1.60295E-05 0.00000E+00
 -1       814 1.93550E-04 1.41600E-05-3.30872E-24
 -1       815 1.94088E-04 1.23482E-05-8.27181E-25
 -1       816 1.94603E-04 1.05980E-05-1.65436E-24
 -1       817 1.95093E-04 8.91283E-06 8.27181E-25
 -1       818 1.95558E-04 7.29640E-06 0.00000E+00
 -1       819 1.95996E-04 5.75233E-06-8.27181E-25
 -1       820 1.96406E-04 4.28420E-06-3.30872E-24
 -1       821 1.88427E-04 9.80357E-08 0.00000E+00
 -1       822 1.88291E-04-2.76241E-06 0.00000E+00
 -1       823 1.88155E-04-6.09832E-06-3.30872E-24
 -1       824 1.88017E-04-9.58796E-06-1.65436E-24
 -1       825 1.87879E-04-1.28690E-05-3.30872E-24
 -1       826 1.87743E-04-1.55801E-05 1.65436E-24
 -1       827 1.87608E-04-1.75125E-05 0.00000E+00
 -1       828 1.87475E-04-1.84619E-05-1.65436E-24
 -1       829 1.87342E-04-1.84866E-05 3.30872E-24
 -1       830 1.87209E-04-1.76506E-05 0.00000E+00
 -1       831 1.87075E-04-1.62476E-05 0.00000E+00
 -1       832 1.86941E-04-1.45750E-05 1.65436E-24
 -1       833 1.86808E-04-1.30020E-05 3.30872E-24
 -1       834 1.86676E-04-1.18974E-05-1.65436E-24
 -1       835 1.86545E-04-1.15052E-05 0.00000E+00
 -1       836 1.90131E-04 2.28551E-06-3.30872E-24
 -1       837 1.91587E-04 2.40985E-06 0.00000E+00
 -1       838 1.92950E-04 2.53412E-06 3.30872E-24
 -1       839 1.94251E-04 2.65770E-06 8.27181E-25
 -1       840 1.95521E-04 2.78112E-06-8.27181E-25
 -1       856 1.86405E-04-1.30315E-05 0.00000E+00
 -1       857 1.86385E-04-1.38657E-05 0.00000E+00
 -1       858 1.86366E-04-1.45881E-05-2.06795E-25
 -1       859 1.86347E-04-1.52194E-05 2.06795E-25
 -1       860 1.86327E-04-1.57802E-05 0.00000E+00
 -1       861 1.86308E-04-1.62914E-05-2.06795E-25
 -1       862 1.86288E-04-1.67738E-05 4.13590E-25
 -1       863 1.86268E-04-1.72481E-05 4.13590E-25
 -1       864 1.86248E-04-1.77351E-05-8.27181E-25
 -1       865 1.86229E-04-1.82558E-05-4.13590E-25
 -1       866 1.86209E-04-1.88307E-05 8.27181E-25
 -1       867 1.86189E-04-1.94808E-05 4.13590E-25
 -1       868 1.86169E-04-2.02267E-05 8.27181E-25
 -1       869 1.86149E-04-2.10890E-05-4.13590E-25
 -1       870 1.86128E-04-2.20882E-05 8.27181E-25
 -1       871 1.87667E-04-1.20697E-05 0.00000E+00
 -1       872 1.89057E-04-1.20775E-05 0.00000E+00
 -1       873 1.90524E-04-1.20860E-05 0.00000E+00
 -1       874 1.92003E-04-1.20953E-05 2.58494E-26
 -1       875 1.93426E-04-1.21051E-05-8.27181E-25
 -1       876 1.86907E-04-1.30174E-05-3.30872E-24
 -1       877 1.87372E-04-1.39046E-05-1.65436E-24
 -1       878 1.87815E-04-1.47345E-05 0.00000E+00
 -1       879 1.88240E-04-1.55143E-05 0.00000E+00
 -1       880 1.88650E-04-1.62512E-05 0.00000E+00
 -1       881 1.89045E-04-1.69523E-05 0.00000E+00
 -1       882 1.89431E-04-1.76250E-05 0.00000E+00
 -1       883 1.89808E-04-1.82762E-05 1.65436E-24
 -1       884 1.90179E-04-1.89132E-05-3.30872E-24
 -1       885 1.90549E-04-1.95432E-05 0.00000E+00
 -1       886 1.90918E-04-2.01732E-05-3.30872E-24
 -1       887 1.91289E-04-2.08104E-05 1.65436E-24
 -1       888 1.91666E-04-2.14621E-05 0.00000E+00
 -1       889 1.92051E-04-2.21355E-05-1.65436E-24
 -1       890 1.92445E-04-2.28377E-05 1.65436E-24
 -1       891 1.87369E-04-2.33007E-05-1.65436E-24
 -1       892 1.88608E-04-2.33568E-05 0.00000E+00
 -1       893 1.89800E-04-2.34128E-05-1.65436E-24
 -1       894 1.90920E-04-2.34686E-05 0.00000E+00
 -1       895 1.91944E-04-2.35241E-05-4.13590E-25
 -1       956 1.96662E-04 1.67547E-06 0.00000E+00
 -1       957 1.96533E-04 5.43788E-07 8.27181E-25
 -1       958 1.96404E-04-5.09875E-07 0.00000E+00
 -1       959 1.96275E-04-1.49647E-06-1.65436E-24
 -1       960 1.96146E-04-2.42698E-06-3.30872E-24
 -1       961 1.96016E-04-3.31244E-06 0.00000E+00
 -1       962 1.95887E-04-4.16388E-06 0.00000E+00
 -1       963 1.95758E-04-4.99236E-06 0.00000E+00
 -1       964 1.95629E-04-5.80892E-06-3.30872E-24
 -1       965 1.95500E-04-6.62460E-06-1.65436E-24
 -1       966 1.95371E-04-7.45048E-06 3.30872E-24
 -1       967 1.95242E-04-8.29759E-06-1.65436E-24
 -1       968 1.95112E-04-9.17697E-06 0.00000E+00
 -1       969 1.94984E-04-1.00996E-05-1.65436E-24
 -1       970 1.94855E-04-1.10766E-05-3.30872E-24
 -1       971 1.94611E-04-1.31589E-05 0.00000E+00
 -1       972 1.94493E-04-1.41069E-05 0.00000E+00
 -1       973 1.94375E-04-1.49727E-05 0.00000E+00
 -1       974 1.94257E-04-1.57668E-05 0.00000E+00
 -1       975 1.94139E-04-1.64999E-05-3.30872E-24
 -1       976 1.94021E-04-1.71825E-05 0.00000E+00
 -1       977 1.93902E-04-1.78253E-05-3.30872E-24
 -1       978 1.93784E-04-1.84389E-05-1.65436E-24
 -1       979 1.93666E-04-1.90341E-05 3.30872E-24
 -1       980 1.93548E-04-1.96214E-05 0.00000E+00
 -1       981 1.93430E-04-2.02116E-05 0.00000E+00
 -1       982 1.93312E-04-2.08153E-05 0.00000E+00
 -1       983 1.93194E-04-2.14431E-05 0.00000E+00
 -1       984 1.93076E-04-2.21058E-05 1.65436E-24
 -1       985 1.92960E-04-2.28139E-05-3.30872E-24
 -3
    1PSTEP                        44          22           1          
  100CL  122 6.46518E-01         409                     0   22           1
 -4  STRESS      6    1
 -5  SXX         1    4    1    1
 -5  SYY         1    4    2    2
 -5  SZZ         1    4    3    3
 -5  SXY         1    4    1    2
 -5  SYZ         1    4    2    3
 -5  SZX         1    4    3    1
 -1         1-4.79673E+06-1.73871E+06-1.05720E+06-1.63496E+06 9.89530E-10 4.28437E-07
 -1         2-5.73891E+03-5.42914E+06-1.71428E+04-1.25691E+05-3.58568E-10 2.33902E-07
 -1         3-1.31945E+03-1.34543E+06 3.26398E+02-1.80007E+03-3.85121E-10-3.90719E-08
 -1         5-6.49177E+01 3.74527E+05 9.65639E+00-1.17396E+00-4.92189E-10-4.90763E-09
 -1         8-4.85836E+05-1.51189E+05-3.19335E+04-1.85186E+05 2.60115E-10 6.43158E-08
 -1         9 1.79588E+07-1.08187E+06 2.86811E+06-2.49692E+06 4.10364E-08 2.66498E-07
 -1        10-2.17122E+03-1.40195E+06-4.33619E+03-1.22044E+04-1.31222E-08-9.18033E-09
 -1        12-6.10995E+01 3.74547E+05 3.16902E+02-8.08415E+00-6.43350E-10-6.41012E-09
 -1        15 1.03711E+03 5.69943E+02 3.35242E+03 1.32740E+00-6.86271E-10-2.50835E-07
 -1        16 3.56899E+07-5.79033E+05 4.67658E+06-3.75722E+06 1.71131E-08-2.34383E-08
 -1        17 1.24213E+07 1.12366E+07 3.76661E+06 1.00700E+07-8.24221E-09 3.95812E-09
 -1        18 1.27869E+05 2.97322E+04 1.50559E+03-1.15372E+05 1.54821E-08-5.84305E-09
 -1        19 1.18934E+05 1.37380E+05-9.30565E+02 2.14738E+04 1.44992E-09-2.05619E-09
 -1        20-7.90053E+04-5.57773E+05-1.25112E+05 2.48478E+04-1.79519E-09 2.10178E-08
 -1        21-4.46579E+01-2.88669E+05-9.01847E+02 2.48066E+02 1.22783E-08-3.61956E-08
 -1        24 2.10266E+07 2.01949E+07 5.83567E+06 1.86327E+07-1.99982E-07-5.23093E-08
 -1        25 1.05001E+05 1.98976E+05 8.19884E+04-6.01539E+05-1.95332E-09 1.66892E-08
 -1        26-5.47784E+04 8.91160E+04-2.41974E+04 1.26312E+03 1.94268E-10 8.16812E-09
 -1        27-7.43229E+04-3.01547E+05-1.10409E+05 6.70547E+04 4.41726E-09 5.60734E-09
 -1        28 2.17205E+04-8.31435E+04 1.64771E+04 2.02309E+04-2.99639E-09 4.64091E-10
 -1        32-1.63821E+06-3.12483E+06-1.95763E+05 3.78977E+05-4.40705E-08-8.56357E-09
 -1        33-1.73891E+05 9.01573E+04 3.14565E+04-3.72804E+04-2.78446E-09 1.51692E-08
 -1        34-2.17695E+05-2.42568E+04 6.68997E+02 7.34516E+04-5.98403E-09-1.06837E-08
 -1        35-2.23756E+04-3.29751E+04-1.31294E+03 5.02259E+04-2.13825E-09 6.79211E-09
 -1        51 5.46838E+04-1.70121E+05 1.17093E+05-5.31801E+05-3.63798E-10 3.27622E-07
 -1        52 1.89970E+04-1.50421E+05 6.22095E+04-6.19894E+05-2.54659E-10 2.98314E-08
 -1        53 4.47939E+03-1.65835E+05 3.35881E+04-5.29809E+05 4.32919E-10-2.27228E-08
 -1        54 9.21985E+03-1.62089E+05 3.00548E+04-6.21996E+05-2.03727E-10-1.26245E-07
 -1        55 1.96932E+04-1.70334E+05 3.94180E+04-5.29513E+05 4.65661E-10 7.16027E-08
 -1        56-9.01017E+06-1.06269E+06-7.89453E+05-3.57461E+06-2.32540E-08-1.30618E-07
 -1        57-9.60232E+06-1.45420E+06-5.25270E+05-3.18933E+06 9.44674E-08-2.65936E-08
 -1        58-9.07065E+06-1.39466E+06-1.85012E+05-3.62012E+06-2.19807E-08 2.97594E-07
 -1        59-9.54657E+06-1.05626E+06-1.08851E+05-3.14498E+06-7.99200E-08-1.98059E-07
 -1        60-9.07479E+06-1.44416E+06-4.25590E+04-3.63038E+06 7.41670E-09-3.39474E-07
 -1        61-9.46403E+06-1.06046E+06-2.19709E+04-3.19483E+06-6.11744E-08-1.38279E-07
 -1        62-9.14641E+06-1.39348E+06-1.55545E+04-3.56579E+06-6.38829E-09-2.62955E-07
 -1        63-9.27019E+06-1.22159E+06-4.19077E+03-3.36522E+06-7.18937E-08 2.15339E-07
 -1        64-9.25481E+06-1.29235E+06-1.71809E+04-3.44981E+06 3.77768E-08-2.88727E-07
 -1        65-9.08005E+06-1.42384E+06-1.74395E+04-3.59497E+06-3.19214E-08-2.67336E-07
 -1        66-9.33914E+06-1.18968E+06-4.16300E+04-3.33825E+06 2.64336E-08 1.12876E-07
 -1        67-8.99765E+06-1.59296E+06-9.82081E+04-3.76088E+06 1.71967E-08-7.71252E-09
 -1        68-9.35242E+06-1.11417E+06-1.66642E+05-3.29425E+06 7.05404E-09-5.93573E-08
 -1        69-9.15396E+06-1.87015E+06-4.79228E+05-3.72260E+06-1.83845E-08-3.88187E-07
 -1        70-9.18669E+06-9.19386E+05-7.14700E+05-3.37523E+06 3.37750E-08 7.04313E-09
 -1        86 2.14190E+03-5.46228E+06-2.69320E+04 6.28407E+04 8.17272E-09-1.84059E-07
 -1        87-2.05839E+04-5.44748E+06-4.67013E+04-1.50239E+05 1.41954E-08-1.41657E-07
 -1        88 1.90788E+04-5.44580E+06-7.79853E+04 8.74000E+04 7.36691E-09-3.48884E-08
 -1        89-1.43549E+05-5.49527E+06-2.03013E+05-5.77257E+04 9.45511E-09-4.84305E-07
 -1        90 1.22929E+05-5.41351E+06-2.99002E+05-2.96854E+04-6.67933E-09 4.37202E-07
 -1       121-1.80572E+03-1.34977E+06-5.26143E+02 8.92002E+02 1.38411E-09-5.51881E-09
 -1       122-1.16649E+03-1.34547E+06 6.08678E+02-3.60601E+03-5.20745E-09 1.42682E-08
 -1       123-1.82830E+03-1.34988E+06 9.10235E+01 2.66602E+03 4.06078E-09 1.20817E-08
 -1       124 2.19351E+02-1.34506E+06 2.32137E+03-7.61864E+03-9.98125E-09 1.28130E-08
 -1       125-2.53197E+03-1.35063E+06 2.51575E+03 4.86535E+03 6.25005E-09 3.88900E-09
 -1       191-6.84460E+01 3.74546E+05 8.61013E+00 6.10058E-01-5.15465E-10 4.66753E-09
 -1       192-6.58438E+01 3.74527E+05 2.05874E+01-3.85828E+00-6.57524E-10-5.73436E-09
 -1       193-7.08872E+01 3.74546E+05 3.54352E+01 3.38979E+00-9.58561E-10 2.88310E-09
 -1       194-6.88144E+01 3.74530E+05 7.82175E+01-8.79217E+00-5.11841E-10 1.48893E-08
 -1       195-7.55732E+01 3.74543E+05 1.50134E+02 5.70102E+00-1.40346E-09-8.13088E-10
 -1       251-2.20158E+06-5.38307E+04-2.44839E+05-1.58252E+05-4.67844E-09 2.17849E-07
 -1       252-9.11230E+05 6.65466E+04 8.63698E+04 4.87045E+05-1.66910E-08-2.06609E-07
 -1       253-1.64368E+06-2.17595E+04-4.23345E+04-3.21651E+05-3.33639E-08-1.39526E-07
 -1       254-1.52079E+06 8.41979E+04 1.54714E+04 6.43074E+05-1.72117E-08-1.74244E-07
 -1       255-1.65202E+06-2.24153E+04-2.38848E+04-3.20459E+05 2.46555E-08 9.16129E-08
 -1       256-8.90814E+05 6.72873E+04 1.41399E+05 4.81316E+05 6.07906E-08-7.97854E-09
 -1       257-2.21185E+06-5.53554E+04-1.40097E+05-1.53621E+05 2.51457E-08 2.54643E-07
 -1       258-2.44710E+05 5.00509E+04 2.62950E+05 1.50680E+04-1.23000E-08 3.87913E-07
 -1       259-2.23443E+06-5.70929E+04-1.43211E+05 1.42084E+05-2.14168E-08-1.90319E-07
 -1       260-8.37725E+05 6.87869E+04 1.56418E+05-4.61582E+05 5.13319E-09-1.35306E-07
 -1       261-1.67728E+06-2.64525E+04-2.00125E+04 3.18611E+05 7.41766E-08 4.35678E-08
 -1       262-1.51407E+06 9.69436E+04 3.93983E+04-6.39823E+05-1.83072E-08-2.09018E-07
 -1       263-1.62482E+06-3.06815E+04 1.52514E+02 3.27018E+05 3.05354E-08 4.37494E-08
 -1       264-9.33202E+05 1.41118E+05 1.78765E+05-5.03498E+05 1.42569E-07-9.93850E-08
 -1       265-2.20368E+06-1.14939E+05-9.39607E+04 1.76368E+05 4.91455E-08 4.86689E-08
 -1       266-1.87752E+04-8.78003E+03 4.40489E+04-2.84006E+01-1.29148E-10-2.78092E-07
 -1       267 2.17655E+04 1.02322E+04 3.11348E+04 3.27707E+01 3.05590E-10-2.83728E-08
 -1       268-2.91872E+03-1.44923E+03 1.15726E+04-4.17544E+00-1.83263E-10 1.53876E-07
 -1       269 3.44614E+03 1.73435E+03 7.52206E+03 4.86389E+00-1.52340E-10 5.53752E-08
 -1       270-5.17270E+02-2.84970E+02 3.63100E+03-6.60058E-01-2.18392E-10 2.64285E-08
 -1       271-1.68572E+06-1.96654E+05-1.24599E+05-6.36377E+05 1.57743E-08 1.22222E-07
 -1       272-1.81175E+06-2.06586E+05-8.01288E+04-5.44097E+05 1.38862E-08-4.12191E-07
 -1       273-1.70742E+06-2.29367E+05-2.93687E+04-6.32872E+05-3.39451E-08-1.05312E-07
 -1       274-1.78661E+06-1.66248E+05-1.64790E+04-5.49925E+05 5.42133E-08 3.26649E-07
 -1       275-1.71042E+06-2.32920E+05-6.82395E+03-6.32149E+05-4.09291E-08 1.38017E-07
 -1       276-1.78145E+06-1.63145E+05-3.54760E+03-5.51680E+05-2.21444E-08 1.71788E-07
 -1       277-1.71184E+06-2.32490E+05-1.83904E+03-6.30780E+05 1.53523E-09 2.84128E-07
 -1       278-1.77674E+06-1.65929E+05-9.73980E+02-5.54350E+05 7.54508E-08 7.42166E-08
 -1       279-1.71368E+06-2.30995E+05-1.36985E+03-6.28473E+05-4.91618E-08-1.85720E-07
 -1       280-1.77047E+06-1.71003E+05-1.46089E+03-5.58415E+05 3.34740E-08-1.60431E-07
 -1       281-1.71612E+06-2.28682E+05-3.66708E+03-6.25308E+05 7.37782E-09-1.57020E-07
 -1       282-1.76379E+06-1.79330E+05-6.87074E+03-5.63745E+05-3.49974E-08-3.09929E-07
 -1       283-1.71809E+06-2.24294E+05-1.38173E+04-6.21499E+05-4.02470E-08-1.93931E-07
 -1       284-1.76554E+06-2.04361E+05-3.46158E+04-5.68442E+05 2.01671E-08-3.05145E-07
 -1       285-1.71233E+06-2.06846E+05-5.59676E+04-6.18469E+05-5.81349E-09-1.57364E-07
 -1       301 7.97616E+02-7.97820E+05 1.31250E+05-1.20490E+06 1.22236E-09 6.75427E-08
 -1       302 1.20112E+03-7.62536E+05 7.89259E+04-1.76184E+06-2.27010E-09-3.94929E-07
 -1       303-1.42441E+04-7.87146E+05 4.35168E+04-1.20245E+06 9.38599E-10 2.19668E-07
 -1       304-1.92173E+04-7.53539E+05 4.26354E+04-1.75973E+06-1.84809E-09-4.76721E-08
 -1       305-2.88956E+04-7.63551E+05 4.80747E+04-1.20626E+06-1.74623E-10 4.35102E-09
 -1       306-4.38878E+07-7.94763E+06-1.24521E+07 1.24588E+06-1.57859E-07 1.06957E-07
 -1       307 4.13216E+07 8.12448E+06 9.02543E+06-2.06878E+07-5.96105E-07-1.17347E-07
 -1       308-5.18501E+06-3.16963E+06-8.53406E+05 7.32866E+06 2.27999E-07 3.85626E-07
 -1       309-8.68509E+05 1.84605E+07 4.26531E+06-2.51654E+07 5.04238E-07-2.56710E-07
 -1       310-1.54173E+07-4.75813E+06-3.66304E+06 8.91726E+06-2.65951E-07-1.14378E-08
 -1       311 6.28570E+07 2.42974E+06 1.17904E+07-1.18104E+07 2.68628E-08 3.79980E-07
 -1       312-4.69201E+07-7.97137E+06-1.25623E+07-7.33380E+06-3.47150E-07 2.62327E-07
 -1       313 6.77503E+07 2.74529E+07 1.66417E+07 3.79422E+07-5.87985E-07 5.61209E-07
 -1       314-2.02006E+07-2.91047E+07-1.10893E+07-1.84178E+07 4.41680E-07-1.79163E-07
 -1       315 3.23130E+05 4.72637E+07 8.94174E+06 1.34081E+07 2.28494E-07-6.06698E-07
 -1       316 3.22384E+06-1.19671E+07-8.18677E+05 5.13031E+05 6.99549E-07-8.88715E-07
 -1       317-1.34807E+07 3.10796E+07 4.24989E+06-1.55988E+07 1.95345E-07-1.50326E-06
 -1       318-4.02174E+04-1.96327E+07-3.73232E+06-2.67968E+06-1.43227E-06 9.09786E-08
 -1       319 1.38758E+07 5.39490E+07 1.18880E+07 2.50460E+07-1.08461E-06 2.13971E-07
 -1       320-3.02010E+07-2.78240E+07-1.42909E+07-2.00550E+07-4.43193E-07-3.01516E-08
 -1       336-6.89601E+02-1.46106E+06-1.38411E+04 7.19340E+03-2.49529E-08 1.80153E-08
 -1       337-5.65929E+03-1.46093E+06-1.96516E+04-1.76311E+04-4.67571E-08-1.64546E-08
 -1       338 7.15301E+02-1.46013E+06-3.19847E+04 1.02166E+04-3.34203E-08 4.36194E-09
 -1       339-3.49047E+04-1.48041E+06-7.35951E+04-2.36407E+04-5.99048E-08 2.70884E-08
 -1       340 2.31443E+04-1.44332E+06-1.15979E+05 1.30508E+04-3.94575E-08 1.62981E-08
 -1       406-3.97506E+01 3.74529E+05 6.22639E+02 2.82999E+00-1.80520E-09-5.11500E-09
 -1       407 1.57382E+02 3.74657E+05 1.32975E+03 2.22583E+01-4.71104E-10-3.03226E-09
 -1       408 6.21412E+02 3.74432E+05 2.65193E+03-2.54402E+01-2.29875E-09 9.13496E-09
 -1       409 2.81521E+03 3.75504E+05 5.97637E+03 2.68889E+02-3.78805E-10 2.25227E-08
 -1       410 8.19785E+03 3.73670E+05 1.21979E+04-2.58545E+02-2.89765E-09 1.18234E-08
 -1       521-4.28444E+07-1.11984E+07-1.48423E+07 1.92368E+06-7.93952E-08-3.59723E-08
 -1       522 3.91115E+07 1.06370E+07 8.45249E+06-2.71427E+07-6.76839E-07-1.65484E-07
 -1       523-5.38939E+06-3.39544E+06-5.80928E+05 7.45786E+06 1.78115E-08-2.56114E-09
 -1       524-1.02597E+07 2.44209E+07 4.14411E+06-2.88916E+07 1.05568E-06-8.76025E-07
 -1       525-1.49908E+07-5.70966E+06-3.71923E+06 8.66406E+06 7.72474E-07-3.86324E-07
 -1       526 6.58508E+07 2.10202E+06 1.14199E+07-1.70062E+07-1.27067E-07-4.61005E-08
 -1       527-4.64775E+07-1.17351E+07-1.48082E+07-6.25105E+06 1.01281E-07 4.41592E-07
 -1       528 7.19103E+07 2.97411E+07 1.61052E+07 4.30504E+07-7.32834E-08 2.81725E-08
 -1       529-2.08619E+07-3.09426E+07-1.28418E+07-1.60460E+07 3.29979E-07-3.69386E-07
 -1       530-5.24322E+06 5.38477E+07 8.75698E+06 9.54295E+06 1.14815E-07 4.02972E-07
 -1       531 2.97663E+06-1.24409E+07-5.10015E+05 7.19931E+05-7.97365E-07 4.89585E-07
 -1       532-1.63539E+07 3.02775E+07 4.12451E+06-2.46619E+07 7.09377E-07-9.82080E-07
 -1       533-4.89433E+05-1.92397E+07-3.69986E+06-1.76722E+06-3.84156E-07-1.17125E-06
 -1       534 8.49200E+06 6.09992E+07 1.12052E+07 2.38798E+07 3.79223E-08 8.91683E-07
 -1       535-3.06201E+07-3.04060E+07-1.69394E+07-1.76694E+07 1.40164E-07 5.73520E-07
 -1       536-6.76811E+05-2.90233E+04-7.81403E+04-5.14932E+04-2.35559E-09 4.82150E-08
 -1       537-8.49804E+04 2.47866E+04 5.45452E+04 1.18017E+05-1.08943E-07 8.87894E-08
 -1       538-3.92218E+05 5.40045E+03-5.30660E+03-6.93578E+04 3.14160E-08 1.19031E-07
 -1       539-2.78486E+05-1.22792E+02 1.76398E+04 1.32914E+05 1.77830E-07 1.24184E-07
 -1       540-4.88315E+05 6.76118E+01-2.19046E+04-6.68685E+04 3.38127E-08 9.35810E-08
 -1       541 1.09188E+05 1.52904E+04 9.75483E+04 9.30053E+04 1.88948E-10 6.82593E-08
 -1       542-7.69487E+05-1.86898E+04-7.89118E+04-2.86696E+04 4.07576E-08 3.84474E-08
 -1       543 3.50020E+05 2.53608E+04 1.46505E+05-1.28639E+04 2.68869E-08-2.73822E-08
 -1       544-7.22701E+05-1.53411E+04-6.96935E+04 3.84010E+04-1.07107E-08-4.24842E-08
 -1       545-5.88063E+02 8.69696E+03 7.38291E+04-1.08355E+05-6.22840E-08-7.51679E-08
 -1       546-4.28283E+05 5.76619E+03-1.14756E+04 6.65148E+04 1.93070E-08-7.74843E-08
 -1       547-2.94101E+05-4.66517E+03 9.25254E+03-1.35579E+05-1.07888E-07-1.01757E-07
 -1       548-4.37066E+05 4.60366E+03-2.29693E+04 6.62432E+04-1.12217E-07-1.04686E-07
 -1       549 1.80349E+04 1.34924E+04 5.43325E+04-1.06086E+05-6.20862E-08-5.42586E-08
 -1       550-7.32063E+05-1.93689E+04-1.22859E+05 3.63793E+04 6.29097E-09-2.80561E-08
 -1       551 2.40869E+04-5.78569E+05-3.88647E+04-1.02732E+06-9.77889E-08-1.83354E-09
 -1       552 6.69641E+04-6.18483E+05-5.13565E+03-1.46280E+06-6.98492E-08 4.70827E-08
 -1       553 5.44253E+04-6.16413E+05 2.17058E+04-1.02127E+06-1.16263E-07 3.23635E-08
 -1       554 1.05976E+05-6.32748E+05 6.82896E+04-1.46539E+06-7.37782E-08 2.29811E-08
 -1       555 8.47347E+04-6.42945E+05 1.30009E+05-1.02010E+06-1.24724E-07-1.41699E-08
 -1       556 2.16282E+05-3.75428E+05-9.65913E+03-3.90668E+05-2.22062E-08-4.91855E-09
 -1       557 3.34821E+05-4.74886E+05-2.41477E+03-5.11535E+05-1.62981E-09 5.76620E-09
 -1       558 1.97083E+05-3.62556E+05-5.16193E+03-3.98664E+05-2.00234E-08 1.06884E-08
 -1       559 3.15766E+05-4.70701E+05-1.34464E+03-5.30665E+05 2.15950E-08 2.28465E-09
 -1       560 1.82675E+05-3.53519E+05-3.02130E+03-4.08996E+05 1.23109E-08 2.09911E-08
 -1       561 2.98222E+05-4.63407E+05-6.75244E+02-5.42743E+05 1.53232E-08 3.29946E-08
 -1       562 1.71443E+05-3.46587E+05-1.57939E+03-4.17089E+05 1.05501E-08 1.03173E-08
 -1       563 2.84979E+05-4.57612E+05-2.06833E+02-5.51389E+05 9.25502E-09-2.37105E-09
 -1       564 1.63477E+05-3.41636E+05-6.23175E+02-4.22723E+05 2.43017E-09-5.46333E-09
 -1       565 2.76228E+05-4.53800E+05-1.36402E+01-5.56977E+05 1.38243E-09-1.81899E-10
 -1       566 1.58867E+05-3.38721E+05-2.52931E+02-4.25946E+05-5.94446E-09-8.35644E-09
 -1       567 2.72042E+05-4.51978E+05-3.49854E+02-5.59510E+05 2.45327E-08-2.42617E-08
 -1       568 1.57691E+05-3.38005E+05-1.06442E+03-4.26863E+05 3.31420E-09 1.01973E-08
 -1       569 2.71082E+05-4.51924E+05-2.67677E+03-5.58034E+05-1.13596E-09 1.66474E-08
 -1       570 1.61008E+05-3.41133E+05-5.85418E+03-4.25894E+05 6.43922E-09 1.46874E-08
 -1       571 2.82250E+05 1.02148E+04 1.46096E+04-9.14252E+04 4.60022E-09-2.06046E-09
 -1       572 2.84371E+05 3.83034E+03 7.15968E+03-1.00305E+05-1.31922E-09 7.37782E-09
 -1       573 2.83094E+05 1.18685E+03 3.18126E+03-9.12548E+04-8.00355E-11 8.13361E-09
 -1       574 2.83306E+05 6.78020E+02 1.59527E+03-1.00520E+05-9.27685E-10 3.11047E-09
 -1       575 2.83187E+05 4.08719E+02 7.52900E+02-9.12315E+04-1.62852E-08 3.77531E-09
 -1       576 2.83174E+05 4.16969E+02 3.85417E+02-1.00549E+05-3.30017E-08 7.20411E-09
 -1       577 2.83224E+05 3.52807E+02 1.92422E+02-9.12283E+04-1.57497E-08 1.95023E-08
 -1       578 2.83201E+05 3.81325E+02 1.11128E+02-1.00553E+05-4.23324E-09 3.87263E-09
 -1       579 2.83291E+05 3.19195E+02 7.64973E+01-9.12280E+04 5.80076E-09-1.49494E-08
 -1       580 2.83295E+05 3.34510E+02 8.88016E+01-1.00548E+05-8.48013E-09 3.61979E-10
 -1       581 2.83396E+05 2.65705E+02 1.34570E+02-9.12337E+04 7.84894E-09 8.83119E-10
 -1       582 2.83458E+05 3.02595E+02 2.73335E+02-1.00489E+05 7.10224E-09 4.58476E-09
 -1       583 2.83524E+05 3.12477E+02 5.25385E+02-9.12880E+04 2.42653E-09-3.33989E-09
 -1       584 2.83814E+05 7.41036E+02 1.18827E+03-1.00031E+05 7.10315E-09-1.57024E-08
 -1       585 2.83540E+05 1.74561E+03 2.40721E+03-9.16908E+04 1.81899E-10-1.46720E-08
 -1       586-3.33748E+03 1.12264E+05-2.92375E+03-2.44301E+05-6.85259E-09 3.54703E-09
 -1       587-1.26989E+03 1.12006E+05 7.01667E+02-2.68876E+05-6.22276E-09 3.63957E-09
 -1       588 4.27439E+02 1.11833E+05 4.59604E+03-2.44169E+05-3.41061E-09 2.54931E-08
 -1       589 4.98152E+03 1.14225E+05 1.19636E+04-2.68642E+05-4.70754E-09 3.86863E-08
 -1       590 1.61579E+04 1.10536E+05 2.51135E+04-2.44590E+05-4.26553E-09 3.37441E-08
 -1       591-7.18009E+04-1.53798E+04-2.17393E+04-3.06888E+04 8.64702E-10 2.32740E-09
 -1       592-7.57290E+04-1.88306E+04-1.17757E+04-3.42067E+04 3.77845E-09 5.95753E-09
 -1       593-7.39749E+04-1.38026E+04-4.90166E+03-3.22830E+04-1.14319E-10 1.65849E-08
 -1       594-7.27272E+04-1.56408E+04-2.44459E+03-3.43205E+04-2.50293E-09 2.88564E-08
 -1       595-7.41406E+04-1.37974E+04-1.12233E+03-3.23554E+04 4.53909E-10 3.34836E-09
 -1       596-7.25217E+04-1.54949E+04-5.70362E+02-3.42961E+04 9.57661E-09 8.53035E-09
 -1       597-7.41614E+04-1.38122E+04-3.10199E+02-3.23582E+04 5.25057E-09-3.40845E-09
 -1       598-7.25014E+04-1.54891E+04-2.48667E+02-3.42892E+04-6.13323E-09-2.09872E-08
 -1       599-7.41602E+04-1.38127E+04-3.16771E+02-3.23578E+04-9.16316E-10-1.05268E-08
 -1       600-7.25218E+04-1.54954E+04-5.87766E+02-3.42941E+04 7.98059E-09-8.92135E-09
 -1       601-7.41364E+04-1.37986E+04-1.15916E+03-3.23545E+04 2.42403E-09 3.30374E-09
 -1       602-7.27340E+04-1.56450E+04-2.52610E+03-3.43156E+04 7.00174E-09-4.69481E-09
 -1       603-7.39625E+04-1.38068E+04-5.06577E+03-3.22804E+04 8.85393E-10-6.13909E-11
 -1       604-7.58534E+04-1.89225E+04-1.21692E+04-3.41739E+04 2.84962E-09 1.89232E-08
 -1       605-7.16964E+04-1.54541E+04-2.24658E+04-3.06518E+04 5.62272E-09 1.21299E-08
 -1       606 2.62331E+04-1.38924E+04-2.49094E+04 2.36688E+04 4.75939E-09-1.28523E-08
 -1       607 2.19766E+04-4.53492E+03-1.24047E+04 2.65966E+04 2.55295E-09-3.04883E-08
 -1       608 2.44027E+04-8.15835E+02-5.55320E+03 2.35007E+04-3.36877E-09 1.23146E-09
 -1       609 2.39372E+04-2.77173E+02-2.80532E+03 2.68076E+04 2.56387E-09 2.40061E-08
 -1       610 2.41954E+04-3.68460E+01-1.33846E+03 2.34808E+04 1.40171E-08 1.01372E-08
 -1       611 2.41220E+04-3.66493E+01-6.74845E+02 2.68304E+04 2.67114E-08-1.66610E-08
 -1       612 2.41497E+04-2.35089E+01-3.20820E+02 2.34788E+04 1.33396E-08 1.16643E-08
 -1       613 2.41331E+04-3.26414E+01-1.43758E+02 2.68331E+04 6.35009E-09 3.83707E-08
 -1       614 2.41281E+04-2.96971E+01-3.36911E+01 2.34781E+04 2.26009E-09 4.67435E-09
 -1       615 2.41280E+04-3.11651E+01 6.02997E+01 2.68336E+04-3.61979E-09-7.31461E-09
 -1       616 2.41113E+04-2.66421E+01 1.80776E+02 2.34783E+04 8.64020E-12-3.93129E-09
 -1       617 2.41497E+04 7.38821E+00 4.12431E+02 2.68331E+04 6.01403E-10-5.46379E-10
 -1       618 2.40754E+04 9.22768E+01 8.31315E+02 2.34786E+04 1.89766E-09 7.48719E-09
 -1       619 2.44431E+04 6.50182E+02 1.86678E+03 2.68325E+04-1.30444E-09-6.30712E-09
 -1       620 2.37993E+04 2.06357E+03 3.75217E+03 2.34800E+04-1.25726E-09 2.88992E-09
 -1       621 4.78631E+02 2.91908E+05 3.69085E+03 3.89552E+04 9.89530E-10-7.02858E-09
 -1       622 6.32643E+02 2.92764E+05 3.29552E+03 5.65621E+04 1.35242E-09-3.12375E-08
 -1       623 1.28675E+02 2.92093E+05 3.98607E+03 3.87782E+04 1.16916E-09-1.39262E-08
 -1       624 2.03852E+03 2.93952E+05 7.74855E+03 5.67369E+04 1.11834E-09-1.05636E-08
 -1       625 1.99616E+03 2.90556E+05 1.35504E+04 3.87749E+04 1.35606E-09 1.83491E-10
 -1       626 2.53619E+05 5.99862E+04 5.03467E+03 1.23539E+05-7.07951E-09-2.39797E-08
 -1       627 2.51344E+05 6.13563E+04 2.42614E+03 1.27735E+05 4.65161E-09 1.08375E-08
 -1       628 2.53746E+05 5.76818E+04 1.02605E+03 1.24394E+05 4.24916E-09 2.45700E-09
 -1       629 2.50718E+05 6.06885E+04 5.02170E+02 1.27972E+05-2.00544E-09-2.11481E-08
 -1       630 2.53760E+05 5.75704E+04 2.32973E+02 1.24430E+05 5.04724E-09 3.34410E-08
 -1       631 2.50652E+05 6.06631E+04 1.25365E+02 1.27974E+05 5.74528E-09 8.12452E-09
 -1       632 2.53756E+05 5.75744E+04 8.24921E+01 1.24426E+05-7.94535E-09-8.35075E-09
 -1       633 2.50644E+05 6.06650E+04 9.18893E+01 1.27971E+05-2.08797E-08-7.83211E-09
 -1       634 2.53752E+05 5.75717E+04 1.48498E+02 1.24425E+05-1.16339E-08-1.06797E-09
 -1       635 2.50658E+05 6.06635E+04 3.00483E+02 1.27976E+05-2.77907E-10 2.52021E-09
 -1       636 2.53743E+05 5.75662E+04 6.06839E+02 1.24425E+05 9.05857E-10-1.13523E-08
 -1       637 2.50789E+05 6.07579E+04 1.33428E+03 1.27975E+05-4.30532E-09-8.40009E-09
 -1       638 2.53695E+05 5.78611E+04 2.74147E+03 1.24291E+05-2.11367E-09-6.40966E-09
 -1       639 2.52229E+05 6.27608E+04 6.48641E+03 1.27551E+05 1.48793E-09-1.96717E-08
 -1       640 2.53496E+05 6.38416E+04 1.34605E+04 1.21771E+05 2.24645E-09-4.94811E-09
 -1       656 6.47796E+04-1.65750E+06-1.56377E+05-2.38264E+03-2.32831E-10-1.73484E-08
 -1       657-8.56964E+04-1.72816E+06-1.29546E+05 5.26842E+03 6.54836E-11-1.89893E-08
 -1       658 2.06484E+04-1.67757E+06-7.97806E+04-4.36230E+03-8.19455E-10-1.54389E-08
 -1       659-9.26565E+04-1.73146E+06-1.38692E+05 6.90313E+03-2.35195E-09-1.00003E-08
 -1       660 7.17240E+04-1.65420E+06-1.72103E+05-4.01734E+03-2.12458E-09 1.92248E-08
 -1       661 1.55997E+05 1.63488E+04 1.63971E+04 6.09866E+04-1.66801E-09 2.07310E-08
 -1       662 1.65246E+05 2.85124E+04 1.10504E+04 5.73318E+04-1.03228E-09 1.56365E-09
 -1       663 1.59217E+05 2.16098E+04 3.86479E+03 6.00525E+04-2.02556E-09-3.07409E-09
 -1       664 1.61513E+05 2.23596E+04 2.31189E+03 5.84724E+04 1.45803E-10-1.79609E-08
 -1       665 1.59705E+05 2.23288E+04 9.12039E+02 5.99105E+04 3.89281E-09 6.11109E-09
 -1       666 1.60936E+05 2.15372E+04 5.33796E+02 5.86574E+04 1.20667E-08 2.09918E-08
 -1       667 1.59790E+05 2.24109E+04 2.83669E+02 5.98752E+04 2.45251E-09-1.10727E-08
 -1       668 1.60842E+05 2.14777E+04 2.89322E+02 5.87085E+04-3.27491E-09-1.24572E-08
 -1       669 1.59798E+05 2.23866E+04 3.91959E+02 5.98597E+04-2.85499E-09 4.60420E-09
 -1       670 1.60938E+05 2.16900E+04 8.53710E+02 5.87108E+04-6.19533E-09 1.24070E-08
 -1       671 1.59694E+05 2.22030E+04 1.51591E+03 5.98710E+04 7.04091E-10 1.58239E-08
 -1       672 1.61822E+05 2.31644E+04 3.87849E+03 5.84963E+04 6.42980E-09 2.43290E-09
 -1       673 1.58918E+05 2.09495E+04 6.49976E+03 6.00599E+04 3.23394E-09 1.03228E-10
 -1       674 1.68008E+05 3.36065E+04 1.85880E+04 5.66783E+04-4.37478E-09-2.32374E-08
 -1       675 1.53548E+05 1.20533E+04 2.75910E+04 6.15793E+04-3.15686E-09-1.14269E-08
 -1       676 2.35175E+01-2.88594E+05-1.08696E+03-1.24037E+02 1.17780E-09-1.50969E-08
 -1       677-2.87693E+02-2.88857E+05-1.98932E+03 2.47881E+02 7.91636E-09-2.37056E-08
 -1       678 1.92826E+02-2.88407E+05-3.51663E+03-1.23763E+02 4.54747E-11-3.27390E-09
 -1       679-3.51682E+03-2.90980E+05-8.35402E+03 2.46834E+02 5.95230E-09 4.31657E-09
 -1       680 2.09961E+03-2.86472E+05-1.34638E+04-1.21620E+02 2.05819E-09 5.21796E-09
 -1       771-2.97556E+06-7.43551E+05-1.89472E+05-1.43791E+06-3.23344E-08-2.56114E-08
 -1       772-2.90051E+06-8.36554E+05-9.81228E+04-1.54512E+06-2.56841E-08 1.37006E-08
 -1       773-3.00972E+06-7.17114E+05-4.91580E+04-1.45477E+06-1.74332E-08 6.40284E-09
 -1       774-2.88878E+06-8.14371E+05-2.21227E+04-1.57169E+06 2.88710E-08 1.16415E-10
 -1       775-3.02687E+06-7.05217E+05-1.59870E+04-1.46238E+06-6.92671E-09 2.28465E-09
 -1       776-2.90178E+06-8.10823E+05-6.07475E+03-1.59171E+06-2.79397E-09 3.92902E-09
 -1       777-3.04164E+06-6.94617E+05-6.87110E+03-1.46900E+06 5.29690E-09 6.89761E-09
 -1       778-2.91540E+06-8.07667E+05-1.98302E+03-1.60891E+06 7.02858E-09 6.35919E-09
 -1       779-3.05431E+06-6.85353E+05-3.37984E+03-1.47464E+06-1.27620E-08-7.56700E-09
 -1       780-2.92736E+06-8.04703E+05-5.82347E+02-1.62290E+06-4.76575E-09 4.80213E-10
 -1       781-3.06437E+06-6.77888E+05-1.32165E+03-1.47903E+06-2.70957E-08 6.18456E-11
 -1       782-2.93656E+06-8.02214E+05 4.20049E+02-1.63321E+06-4.05125E-08-5.94491E-09
 -1       783-3.07145E+06-6.72703E+05 6.39758E+02-1.48210E+06-6.99947E-09-1.50062E-08
 -1       784-2.94171E+06-7.99830E+05 2.80269E+03-1.63957E+06-2.11112E-08 1.65892E-09
 -1       785-3.07560E+06-6.69638E+05 4.93210E+03-1.48401E+06-3.93775E-08 7.88350E-09
 -1       786 1.18679E+05-9.46469E+03 2.18972E+04-2.95587E+02 4.52033E-09 1.52977E-08
 -1       787 1.28176E+05 1.09579E+04 1.54914E+04-1.13610E+02 7.40367E-09 2.07745E-08
 -1       788 1.22341E+05-1.48319E+03 5.66523E+03-2.62155E+02 5.26937E-09 1.48009E-08
 -1       789 1.23911E+05 1.71663E+03 3.55640E+03-1.65116E+02 2.02798E-09 7.98860E-09
 -1       790 1.22946E+05-2.30974E+02 1.43983E+03-2.44097E+02-3.51792E-09 7.17193E-09
 -1       791 1.23204E+05 2.67085E+02 8.31439E+02-1.96068E+02-6.94067E-09 5.55617E-09
 -1       792 1.23048E+05-3.47332E+01 3.51973E+02-2.31205E+02-4.82754E-09-8.76952E-10
 -1       793 1.23081E+05 3.63963E+01 1.74696E+02-2.20233E+02 2.71009E-10-1.93928E-09
 -1       794 1.23068E+05-4.31335E-01 4.38423E+01-2.19932E+02 4.22685E-09-7.01717E-09
 -1       795 1.23045E+05-2.80320E+01-6.02301E+01-2.43547E+02-4.80827E-09-5.81611E-10
 -1       796 1.23085E+05 2.96592E+01-1.65007E+02-2.07890E+02 2.75735E-09 1.57431E-08
 -1       797 1.22949E+05-2.21835E+02-4.50906E+02-2.70905E+02 5.45176E-09-6.41313E-09
 -1       798 1.23164E+05 1.93227E+02-7.31685E+02-1.92574E+02 8.82798E-10-1.51394E-08
 -1       799 1.22394E+05-1.42481E+03-2.01250E+03-3.08480E+02 5.52321E-09 4.68685E-09
 -1       800 1.23640E+05 1.23165E+03-2.84791E+03-1.70317E+02 4.57532E-10 1.81899E-08
 -1       801-1.45803E+05-9.52081E+06-1.31426E+06 1.30183E+06 8.68167E-08-4.81778E-08
 -1       802 6.66704E+05 5.23200E+06 1.99847E+06-1.59851E+06 2.49012E-07-3.54157E-08
 -1       803-4.94703E+05-1.34236E+07-1.74897E+06 8.27646E+05 7.46186E-08 1.32095E-08
 -1       804 2.57336E+05 1.90153E+06 1.40323E+06 6.39553E+05-1.13374E-07-9.31218E-08
 -1       805 1.81949E+05-6.20492E+06-2.65520E+05-9.30977E+05-4.77448E-08-6.94708E-08
 -1       806-3.00854E+05-5.78734E+04-2.21790E+04-1.18828E+05-1.15679E-08 5.43332E-09
 -1       807-3.02646E+05-5.42057E+04-1.08963E+04-1.24154E+05 6.58383E-09-7.62240E-09
 -1       808-3.01460E+05-4.98832E+04-4.62261E+03-1.22610E+05-2.31603E-09-2.95358E-10
 -1       809-3.00357E+05-5.11417E+04-2.26036E+03-1.24419E+05-1.39089E-08 1.45549E-08
 -1       810-3.01551E+05-4.96051E+04-1.03606E+03-1.22777E+05 1.47566E-09 1.00679E-08
 -1       811-3.00180E+05-5.10183E+04-5.15263E+02-1.24385E+05 3.14685E-09 1.40019E-08
 -1       812-3.01565E+05-4.96289E+04-2.60682E+02-1.22777E+05-1.91885E-08-1.96233E-08
 -1       813-3.00156E+05-5.10203E+04-1.69563E+02-1.24367E+05-2.81161E-08 7.24344E-09
 -1       814-3.01559E+05-4.96381E+04-1.68250E+02-1.22773E+05-1.36979E-08-2.07124E-08
 -1       815-3.00160E+05-5.10223E+04-2.71328E+02-1.24360E+05 5.02496E-10-1.41608E-09
 -1       816-3.01539E+05-4.96369E+04-5.14350E+02-1.22770E+05 5.56156E-09 3.44608E-09
 -1       817-3.00248E+05-5.10712E+04-1.10401E+03-1.24349E+05-1.21154E-08 3.40515E-09
 -1       818-3.01473E+05-4.97923E+04-2.25177E+03-1.22696E+05-1.80989E-10 2.75213E-09
 -1       819-3.01481E+05-5.24322E+04-5.29841E+03-1.24058E+05 9.91349E-10-2.74358E-08
 -1       820-3.01050E+05-5.37936E+04-1.07841E+04-1.20986E+05-7.63066E-10 7.66227E-09
 -1       821-3.70944E+05 2.04270E+04-4.73930E+04 1.71496E+03 1.20250E-08 4.39286E-09
 -1       822-3.90859E+05-2.36546E+04-3.34282E+04-3.27754E+03 3.75361E-09-1.67529E-09
 -1       823-3.78546E+05 3.21113E+03-1.22561E+04 2.55451E+03-8.79450E-09-6.57383E-09
 -1       824-3.81806E+05-3.70757E+03-7.69016E+03-3.74482E+03 1.66043E-09-3.99518E-09
 -1       825-3.79999E+05 4.98436E+02-3.19736E+03 2.18230E+03 1.52622E-08 9.20807E-09
 -1       826-3.79806E+05-5.70050E+02-1.79677E+03-1.99544E+03 2.06228E-08-4.97917E-09
 -1       827-3.80532E+05 6.55792E+01-1.08491E+03 8.05057E+02 6.96285E-09 9.26937E-09
 -1       828-3.79377E+05-1.54967E+02-7.18469E+02 1.01758E+03-1.19513E-10-7.55822E-09
 -1       829-3.80422E+05 7.90952E+01-1.08460E+03-8.30757E+02 1.65787E-09 5.79814E-09
 -1       830-3.80051E+05-6.13666E+02-1.91218E+03 3.65580E+03 2.45626E-09-5.42656E-10
 -1       831-3.79871E+05 5.33721E+02-3.28988E+03-1.83319E+03-2.61230E-09 3.91981E-09
 -1       832-3.81891E+05-3.86601E+03-7.99124E+03 4.48184E+03-1.54155E-09 5.08305E-09
 -1       833-3.78590E+05 3.33479E+03-1.27475E+04-1.65682E+03-1.98784E-09 1.69066E-08
 -1       834-3.91034E+05-2.45651E+04-3.46688E+04 3.01888E+03-4.44715E-09 2.45018E-09
 -1       835-3.70720E+05 2.12080E+04-4.92446E+04-3.70196E+02 6.53071E-09 7.91988E-09
 -1       836-1.36539E+03 3.58899E+05 2.21968E+04-1.54979E+04-6.78665E-09 8.08768E-09
 -1       837 4.73966E+03 3.65847E+05 1.87930E+04-3.16382E+04-7.08189E-09 1.99977E-08
 -1       838-5.37997E+02 3.60847E+05 1.91627E+04-1.54286E+04-5.85305E-09 6.75118E-09
 -1       839 1.20732E+04 3.71311E+05 3.62648E+04-3.16897E+04-6.04996E-09-1.68935E-08
 -1       840-3.72737E+03 3.53380E+05 5.78354E+04-1.54515E+04-5.88261E-09 1.59829E-10
 -1       856-5.21546E+04 7.85855E+03-2.07089E+04-3.91829E+02 2.93687E-09 7.60065E-09
 -1       857-6.06878E+04-9.23257E+03-1.42559E+04 5.49219E+03 7.90794E-09-1.38971E-08
 -1       858-5.55334E+04 1.10204E+03-5.37348E+03-4.14998E+02 1.67711E-09-6.46651E-09
 -1       859-5.68101E+04-1.29564E+03-3.24275E+03 5.52673E+03 3.62235E-11-9.95215E-10
 -1       860-5.60383E+04 1.54284E+02-1.35913E+03-4.26129E+02 9.62359E-11-1.02718E-08
 -1       861-5.62293E+04-1.83392E+02-7.47920E+02 5.54189E+03 6.11692E-10 2.12988E-08
 -1       862-5.61172E+04 2.08592E+01-3.11356E+02-4.30139E+02-3.74712E-09 1.34338E-09
 -1       863-5.61326E+04-2.06983E+01-1.14453E+02 5.54420E+03-2.75855E-09-1.24740E-08
 -1       864-5.61355E+04-4.71928E+00 4.38975E+01-4.28441E+02-7.65482E-10-1.28003E-08
 -1       865-5.60787E+04 5.80664E+01 2.44769E+02 5.53454E+03-4.73375E-09-1.51016E-08
 -1       866-5.61690E+04-5.79063E+01 4.94510E+02-4.20479E+02-1.64971E-09 9.78730E-10
 -1       867-5.58460E+04 4.78560E+02 1.21790E+03 5.51292E+03 9.37007E-10 8.03936E-10
 -1       868-5.63635E+04-4.17593E+02 2.02405E+03-4.06818E+02-4.16190E-09 1.10934E-08
 -1       869-5.43621E+04 3.47588E+03 5.38949E+03 5.47720E+03 1.85466E-09-1.17166E-09
 -1       870-5.76455E+04-2.97378E+03 7.82148E+03-3.84673E+02-5.42150E-09-1.74491E-08
 -1       871-5.38665E+03-2.03980E+04-1.89372E+04 1.26725E+05-4.14366E-09 6.18002E-09
 -1       872-1.95963E+03-2.47919E+04-7.92339E+03 1.64317E+05-1.04683E-08 2.10803E-08
 -1       873 3.68157E+02-2.26692E+04 5.88897E+02 1.26447E+05-4.94128E-09-6.12511E-09
 -1       874 3.18765E+03-2.03116E+04 9.53895E+03 1.64347E+05-1.02100E-08-6.34464E-09
 -1       875 6.64862E+03-2.49432E+04 2.15074E+04 1.26679E+05-4.75666E-09 2.99860E-09
 -1       876 2.86058E+05 4.82410E+04 1.47108E+04 1.14830E+05 4.95675E-09-6.82485E-09
 -1       877 2.87028E+05 5.13410E+04 7.85612E+03 1.19051E+05 6.93763E-09-1.12727E-08
 -1       878 2.87434E+05 4.66115E+04 3.29134E+03 1.16035E+05-1.07684E-09-2.46700E-09
 -1       879 2.85029E+05 4.93454E+04 1.63994E+03 1.19151E+05 2.23940E-09 1.30194E-08
 -1       880 2.87532E+05 4.65945E+04 7.63870E+02 1.16084E+05 9.44965E-10 6.96417E-09
 -1       881 2.84896E+05 4.92601E+04 4.07924E+02 1.19128E+05-5.98027E-09 1.58621E-08
 -1       882 2.87541E+05 4.66073E+04 2.60990E+02 1.16086E+05-3.99018E-09 2.06649E-09
 -1       883 2.84887E+05 4.92557E+04 2.80606E+02 1.19121E+05-3.21643E-09 8.90722E-10
 -1       884 2.87535E+05 4.66046E+04 4.46412E+02 1.16086E+05 4.64183E-10 2.06813E-09
 -1       885 2.84922E+05 4.92619E+04 8.97557E+02 1.19131E+05-4.77343E-09-3.16243E-09
 -1       886 2.87500E+05 4.65784E+04 1.80900E+03 1.16083E+05-4.25365E-09-5.41377E-10
 -1       887 2.85240E+05 4.94704E+04 3.95153E+03 1.19177E+05 1.04377E-08 1.05271E-08
 -1       888 2.87250E+05 4.66224E+04 7.96246E+03 1.15956E+05 1.44706E-09 3.26418E-09
 -1       889 2.89980E+05 5.44000E+04 1.90209E+04 1.19032E+05-5.98702E-09-8.00264E-09
 -1       890 2.84001E+05 5.04825E+04 3.56257E+04 1.12925E+05-3.20006E-09-2.14641E-09
 -1       891-9.17766E+01-1.58593E+05-1.94438E+03 2.65518E+04-2.28056E-10 3.21393E-09
 -1       892-1.77935E+02-1.59104E+05-2.08842E+03 4.03121E+04 3.75621E-10-4.07726E-09
 -1       893 3.80817E+01-1.58656E+05-2.95701E+03 2.65588E+04-3.29374E-09 1.26934E-08
 -1       894-1.47757E+03-1.60222E+05-6.12006E+03 4.01633E+04 5.55610E-09 1.24328E-08
 -1       895-1.17213E+03-1.57381E+05-1.07772E+04 2.67021E+04-1.03000E-10 1.37334E-10
 -1       956-3.67161E+05-5.28740E+03-1.30699E+04 2.97717E+04 8.82210E-09-1.59725E-08
 -1       957-3.69726E+05-1.85974E+03-6.70865E+03 3.57833E+04 2.85399E-09-4.41923E-09
 -1       958-3.68334E+05-2.27526E+02-3.02306E+03 2.96093E+04-5.46424E-09 8.96739E-09
 -1       959-3.68526E+05-1.25034E+02-1.54368E+03 3.59720E+04 3.35740E-09 1.67347E-10
 -1       960-3.68448E+05-3.76405E+01-7.52760E+02 2.95927E+04 9.75160E-09-5.65092E-09
 -1       961-3.68447E+05-5.46184E+01-3.99172E+02 3.59916E+04 1.30594E-08-2.75718E-08
 -1       962-3.68474E+05-3.92287E+01-2.28600E+02 2.95899E+04 4.61705E-09-6.49038E-09
 -1       963-3.68447E+05-5.08228E+01-1.83648E+02 3.59951E+04 1.12323E-08 3.63821E-09
 -1       964-3.68479E+05-3.61003E+01-2.23466E+02 2.95892E+04 4.45320E-09 1.07848E-08
 -1       965-3.68459E+05-4.79510E+01-3.86618E+02 3.59944E+04-2.78624E-09 4.19914E-09
 -1       966-3.68464E+05-2.83418E+01-7.26472E+02 2.95906E+04 3.10411E-09 8.37508E-09
 -1       967-3.68546E+05-1.09555E+02-1.49001E+03 3.59806E+04 4.27644E-09 2.22394E-08
 -1       968-3.68363E+05-2.05631E+02-2.91686E+03 2.96028E+04-7.04858E-10 5.07725E-10
 -1       969-3.69716E+05-1.77869E+03-6.47541E+03 3.58373E+04-1.29558E-09-9.14076E-09
 -1       970-3.67238E+05-5.08585E+03-1.26144E+04 2.97261E+04-8.54016E-10 1.20426E-08
 -1       971-3.36456E+05-1.68425E+03-9.09330E+03 1.50071E+04 1.93359E-09-1.54798E-08
 -1       972-3.38646E+05-1.23829E+03-4.95215E+03 2.07665E+04 2.53794E-09 6.44741E-09
 -1       973-3.37469E+05-5.77771E+01-2.21806E+03 1.48886E+04 2.97769E-09-4.65775E-09
 -1       974-3.37602E+05-7.54908E+01-1.14976E+03 2.09002E+04-1.63982E-09 1.21665E-08
 -1       975-3.37549E+05-1.41440E+01-5.75107E+02 1.48766E+04 9.18590E-11 8.87428E-09
 -1       976-3.37542E+05-2.69790E+01-3.32528E+02 2.09154E+04 3.65253E-09 1.07236E-08
 -1       977-3.37565E+05-1.35499E+01-2.42627E+02 1.48734E+04-2.23599E-09-5.21823E-09
 -1       978-3.37547E+05-2.10042E+01-2.85690E+02 2.09201E+04-1.13110E-08 1.52227E-09
 -1       979-3.37564E+05-5.35034E+00-4.60518E+02 1.48720E+04-6.17285E-09 5.68411E-09
 -1       980-3.37581E+05-1.80461E+01-8.90145E+02 2.09210E+04-2.17452E-09-1.67756E-09
 -1       981-3.37536E+05 1.69056E+01-1.72449E+03 1.48725E+04 3.88377E-09 1.57092E-09
 -1       982-3.37818E+05-1.45421E+02-3.56475E+03 2.09146E+04 1.38698E-09-3.97878E-09
 -1       983-3.37319E+05-9.34469E+01-6.92645E+03 1.48784E+04 5.03860E-10-4.19072E-09
 -1       984-3.41149E+05-3.76278E+03-1.55115E+04 2.08310E+04-3.85830E-09 4.61205E-09
 -1       985-3.34183E+05-5.16172E+03-2.84840E+04 1.49488E+04-7.48014E-09 1.71876E-08
 -3
    1PSTEP                        45          23           1          
  100CL  123 6.52458E-01         409                     0   23           1
 -4  DISP        4    1
 -5  D1          1    2    1    0
 -5  D2          1    2    2    0
 -5  D3          1    2    3    0
 -5  ALL         1    2    0    0    1ALL
 -1         1 4.23747E-03 0.00000E+00 0.00000E+00
 -1         2 4.19015E-03 3.24173E-28 5.29396E-23
 -1         3 3.35581E-04-3.25257E-27-1.32349E-23
 -1         5 1.75215E-04-5.79070E-27-2.48154E-24
 -1         8 4.22334E-03-4.01135E-07 0.00000E+00
 -1         9 4.17105E-03-1.21598E-05 0.00000E+00
 -1        10 3.04788E-04-2.92919E-06 6.61744E-24
 -1        12 1.77016E-04 7.94899E-07-1.24077E-24
 -1        15 4.20602E-03-4.37266E-07 2.06795E-25
 -1        16 4.21629E-03-1.41631E-05 0.00000E+00
 -1        17 2.08433E-04-6.73194E-06 0.00000E+00
 -1        18 1.80851E-04 3.36516E-05 0.00000E+00
 -1        19 1.82419E-04 1.58357E-06 0.00000E+00
 -1        20 1.82557E-04-9.53761E-06 0.00000E+00
 -1        21 1.81680E-04-2.46356E-05-3.30872E-24
 -1        24 2.98600E-05-1.05434E-05 0.00000E+00
 -1        25 1.91402E-04 3.38730E-05 0.00000E+00
 -1        26 1.92057E-04 2.19250E-06 0.00000E+00
 -1        27 1.89897E-04-1.30391E-05 0.00000E+00
 -1        28 1.89586E-04-2.52477E-05 0.00000E+00
 -1        32 0.00000E+00 0.00000E+00 0.00000E+00
 -1        33 2.00718E-04 2.93307E-06 0.00000E+00
 -1        34 1.98633E-04-1.30940E-05 0.00000E+00
 -1        35 1.96732E-04-2.55846E-05 0.00000E+00
 -1        51 4.23658E-03-8.20505E-08 6.61744E-24
 -1        52 4.23490E-03-1.47101E-07 0.00000E+00
 -1        53 4.23258E-03-2.09309E-07 0.00000E+00
 -1        54 4.22978E-03-2.70898E-07 0.00000E+00
 -1        55 4.22665E-03-3.33560E-07-3.30872E-24
 -1        56 4.23235E-03 2.58316E-06 5.29396E-23
 -1        57 4.22419E-03 1.26681E-05-5.29396E-23
 -1        58 4.21373E-03 2.86739E-05-1.05879E-22
 -1        59 4.20176E-03 4.84348E-05-5.29396E-23
 -1        60 4.18939E-03 6.91629E-05-1.05879E-22
 -1        61 4.17779E-03 8.79779E-05 5.29396E-23
 -1        62 4.16794E-03 1.02330E-04 0.00000E+00
 -1        63 4.16068E-03 1.10050E-04 5.29396E-23
 -1        64 4.15632E-03 1.10118E-04 1.05879E-22
 -1        65 4.15495E-03 1.02180E-04 0.00000E+00
 -1        66 4.15611E-03 8.72898E-05 1.05879E-22
 -1        67 4.15916E-03 6.71172E-05 0.00000E+00
 -1        68 4.16316E-03 4.42701E-05 1.05879E-22
 -1        69 4.16712E-03 2.16041E-05 0.00000E+00
 -1        70 4.17001E-03 1.92957E-06 0.00000E+00
 -1        86 4.18737E-03-2.02596E-06 0.00000E+00
 -1        87 4.17925E-03-4.07826E-06 0.00000E+00
 -1        88 4.17023E-03-6.13703E-06 0.00000E+00
 -1        89 4.16482E-03-8.16138E-06 0.00000E+00
 -1        90 4.16468E-03-1.01762E-05 0.00000E+00
 -1       121 3.34717E-04-4.71742E-07 0.00000E+00
 -1       122 3.32130E-04-9.46343E-07 0.00000E+00
 -1       123 3.27827E-04-1.42662E-06 1.32349E-23
 -1       124 3.21822E-04-1.91540E-06 0.00000E+00
 -1       125 3.14134E-04-2.41519E-06 0.00000E+00
 -1       191 1.75265E-04 1.32544E-07 2.48154E-24
 -1       192 1.75415E-04 2.65077E-07 1.24077E-24
 -1       193 1.75665E-04 3.97591E-07 8.27181E-25
 -1       194 1.76015E-04 5.30074E-07-4.13590E-25
 -1       195 1.76465E-04 6.62514E-07 8.27181E-25
 -1       251 4.22250E-03 2.15825E-05 0.00000E+00
 -1       252 4.22017E-03 8.12173E-05 0.00000E+00
 -1       253 4.21600E-03 1.67744E-04 0.00000E+00
 -1       254 4.21042E-03 2.69778E-04 0.00000E+00
 -1       255 4.20486E-03 3.71609E-04 0.00000E+00
 -1       256 4.20074E-03 4.57530E-04-6.61744E-24
 -1       257 4.19846E-03 5.16272E-04 1.32349E-23
 -1       258 4.19762E-03 5.37194E-04 6.61744E-24
 -1       259 4.19684E-03 5.19451E-04 1.32349E-23
 -1       260 4.19469E-03 4.63195E-04-6.61744E-24
 -1       261 4.19067E-03 3.78518E-04 1.32349E-23
 -1       262 4.18506E-03 2.76174E-04 6.61744E-24
 -1       263 4.17925E-03 1.71828E-04-1.32349E-23
 -1       264 4.17473E-03 8.11844E-05 0.00000E+00
 -1       265 4.17207E-03 1.60945E-05 0.00000E+00
 -1       266 4.22046E-03-4.13213E-07 3.30872E-24
 -1       267 4.21757E-03-4.18497E-07 8.27181E-25
 -1       268 4.21468E-03-4.24211E-07-8.27181E-25
 -1       269 4.21179E-03-4.28650E-07-2.06795E-25
 -1       270 4.20891E-03-4.33060E-07 0.00000E+00
 -1       271 4.22146E-03 2.68861E-06 0.00000E+00
 -1       272 4.21929E-03 6.44031E-06 0.00000E+00
 -1       273 4.21698E-03 1.06004E-05 0.00000E+00
 -1       274 4.21461E-03 1.49018E-05-1.32349E-23
 -1       275 4.21228E-03 1.90791E-05 2.64698E-23
 -1       276 4.21010E-03 2.28667E-05-1.32349E-23
 -1       277 4.20817E-03 2.60022E-05-2.64698E-23
 -1       278 4.20658E-03 2.82286E-05 1.32349E-23
 -1       279 4.20543E-03 2.92963E-05-2.64698E-23
 -1       280 4.20481E-03 2.89652E-05 0.00000E+00
 -1       281 4.20479E-03 2.70067E-05 0.00000E+00
 -1       282 4.20546E-03 2.32054E-05 1.32349E-23
 -1       283 4.20689E-03 1.73612E-05 2.64698E-23
 -1       284 4.20913E-03 9.29133E-06 0.00000E+00
 -1       285 4.21225E-03-1.16983E-06 0.00000E+00
 -1       301 4.17841E-03-1.25086E-05 6.61744E-24
 -1       302 4.18448E-03-1.28262E-05 6.61744E-24
 -1       303 4.19028E-03-1.31399E-05 0.00000E+00
 -1       304 4.19683E-03-1.34579E-05 2.64698E-23
 -1       305 4.20516E-03-1.37918E-05 0.00000E+00
 -1       306 4.21423E-03-2.04683E-04 1.05879E-22
 -1       307 4.26853E-03-7.28037E-04 5.29396E-23
 -1       308 4.26924E-03-1.49844E-03 0.00000E+00
 -1       309 4.21661E-03-2.39291E-03 2.64698E-23
 -1       310 4.18211E-03-3.24600E-03 1.05879E-22
 -1       311 4.21761E-03-3.89434E-03 5.29396E-23
 -1       312 4.27709E-03-4.23130E-03 0.00000E+00
 -1       313 4.26243E-03-4.22195E-03 0.00000E+00
 -1       314 4.05179E-03-3.88719E-03 0.00000E+00
 -1       315 3.58578E-03-3.33627E-03 0.00000E+00
 -1       316 2.88592E-03-2.67154E-03 0.00000E+00
 -1       317 2.04888E-03-1.97132E-03 0.00000E+00
 -1       318 1.24983E-03-1.28041E-03-1.05879E-22
 -1       319 6.52395E-04-6.56357E-04 0.00000E+00
 -1       320 3.14583E-04-1.98059E-04-1.05879E-22
 -1       336 2.93596E-04-3.49869E-06 0.00000E+00
 -1       337 2.80380E-04-4.09223E-06 6.61744E-24
 -1       338 2.65191E-04-4.71217E-06 0.00000E+00
 -1       339 2.48090E-04-5.35906E-06 0.00000E+00
 -1       340 2.29145E-04-6.03801E-06 0.00000E+00
 -1       406 1.77666E-04 9.27210E-07-8.27181E-25
 -1       407 1.78417E-04 1.05941E-06-1.24077E-24
 -1       408 1.79268E-04 1.19145E-06 2.89513E-24
 -1       409 1.80219E-04 1.32317E-06-1.13737E-24
 -1       410 1.81269E-04 1.45428E-06-2.06795E-24
 -1       521 4.25909E-03-2.19119E-04 0.00000E+00
 -1       522 4.30886E-03-7.61466E-04 5.29396E-23
 -1       523 4.30114E-03-1.55166E-03-1.05879E-22
 -1       524 4.24212E-03-2.45706E-03 0.00000E+00
 -1       525 4.20278E-03-3.31840E-03 1.05879E-22
 -1       526 4.23382E-03-3.97898E-03 5.29396E-23
 -1       527 4.29091E-03-4.32138E-03 0.00000E+00
 -1       528 4.27155E-03-4.30816E-03-1.05879E-22
 -1       529 4.04515E-03-3.95971E-03 0.00000E+00
 -1       530 3.55362E-03-3.39616E-03 5.29396E-23
 -1       531 2.82275E-03-2.72296E-03 1.05879E-22
 -1       532 1.96008E-03-2.01897E-03 0.00000E+00
 -1       533 1.13558E-03-1.32350E-03 0.00000E+00
 -1       534 5.07905E-04-6.88121E-04-5.29396E-23
 -1       535 1.47669E-04-2.14925E-04 0.00000E+00
 -1       536 2.07711E-04 2.74453E-05 3.30872E-24
 -1       537 2.05863E-04 8.66979E-05 1.65436E-24
 -1       538 2.03009E-04 1.61917E-04-3.30872E-24
 -1       539 1.99641E-04 2.43908E-04-1.65436E-24
 -1       540 1.96609E-04 3.21383E-04-3.30872E-24
 -1       541 1.94637E-04 3.83076E-04-1.65436E-24
 -1       542 1.93725E-04 4.22346E-04 0.00000E+00
 -1       543 1.93504E-04 4.32697E-04-1.65436E-24
 -1       544 1.93187E-04 4.14895E-04-3.30872E-24
 -1       545 1.92049E-04 3.69919E-04-1.65436E-24
 -1       546 1.89933E-04 3.05763E-04 0.00000E+00
 -1       547 1.87073E-04 2.30537E-04 1.65436E-24
 -1       548 1.84241E-04 1.55696E-04 3.30872E-24
 -1       549 1.82196E-04 9.26953E-05 1.65436E-24
 -1       550 1.81132E-04 4.94254E-05 0.00000E+00
 -1       551 1.84033E-04-7.21960E-06 0.00000E+00
 -1       552 1.56436E-04-7.78875E-06 0.00000E+00
 -1       553 1.26423E-04-8.42239E-06-6.61744E-24
 -1       554 9.47915E-05-9.10469E-06 8.27181E-25
 -1       555 6.23388E-05-9.81335E-06 1.32349E-23
 -1       556 2.00983E-04 1.23539E-05 0.00000E+00
 -1       557 1.94964E-04 2.78144E-05 0.00000E+00
 -1       558 1.90252E-04 3.99347E-05 5.29396E-23
 -1       559 1.86716E-04 4.90202E-05 0.00000E+00
 -1       560 1.84228E-04 5.53764E-05 0.00000E+00
 -1       561 1.82664E-04 5.93115E-05 0.00000E+00
 -1       562 1.81900E-04 6.11347E-05 0.00000E+00
 -1       563 1.81816E-04 6.11561E-05 1.32349E-23
 -1       564 1.82290E-04 5.96866E-05 0.00000E+00
 -1       565 1.83205E-04 5.70379E-05-6.61744E-24
 -1       566 1.84442E-04 5.35221E-05 0.00000E+00
 -1       567 1.85886E-04 4.94517E-05 3.30872E-24
 -1       568 1.87420E-04 4.51394E-05-1.65436E-24
 -1       569 1.88928E-04 4.08978E-05 0.00000E+00
 -1       570 1.90293E-04 3.70396E-05 0.00000E+00
 -1       571 1.80946E-04 3.15696E-05-8.27181E-25
 -1       572 1.81043E-04 2.94233E-05-8.27181E-25
 -1       573 1.81141E-04 2.72282E-05-3.30872E-24
 -1       574 1.81239E-04 2.50002E-05 8.27181E-25
 -1       575 1.81336E-04 2.27556E-05 0.00000E+00
 -1       576 1.81434E-04 2.05104E-05 0.00000E+00
 -1       577 1.81532E-04 1.82808E-05 3.30872E-24
 -1       578 1.81630E-04 1.60830E-05-6.61744E-24
 -1       579 1.81728E-04 1.39332E-05 0.00000E+00
 -1       580 1.81827E-04 1.18475E-05 0.00000E+00
 -1       581 1.81925E-04 9.84229E-06 0.00000E+00
 -1       582 1.82024E-04 7.93356E-06-3.30872E-24
 -1       583 1.82122E-04 6.13754E-06 0.00000E+00
 -1       584 1.82221E-04 4.47020E-06-3.30872E-24
 -1       585 1.82320E-04 2.94738E-06 0.00000E+00
 -1       586 1.82567E-04 3.36906E-05 1.65436E-24
 -1       587 1.84244E-04 3.37290E-05-4.13590E-25
 -1       588 1.85923E-04 3.37671E-05-8.27181E-25
 -1       589 1.87648E-04 3.38045E-05 0.00000E+00
 -1       590 1.89460E-04 3.38407E-05 0.00000E+00
 -1       591 1.81564E-04 3.16615E-05-1.03398E-25
 -1       592 1.82281E-04 2.96523E-05 0.00000E+00
 -1       593 1.83002E-04 2.76295E-05 8.27181E-25
 -1       594 1.83726E-04 2.55979E-05 4.13590E-25
 -1       595 1.84452E-04 2.35620E-05 0.00000E+00
 -1       596 1.85177E-04 2.15264E-05 0.00000E+00
 -1       597 1.85901E-04 1.94957E-05-8.27181E-25
 -1       598 1.86621E-04 1.74744E-05-4.13590E-25
 -1       599 1.87336E-04 1.54672E-05 0.00000E+00
 -1       600 1.88043E-04 1.34784E-05 0.00000E+00
 -1       601 1.88743E-04 1.15128E-05 8.27181E-25
 -1       602 1.89432E-04 9.57486E-06-2.06795E-25
 -1       603 1.90109E-04 7.66914E-06 4.13590E-25
 -1       604 1.90773E-04 5.80033E-06 1.55096E-25
 -1       605 1.91422E-04 3.97288E-06 0.00000E+00
 -1       606 1.82432E-04 4.48788E-07 0.00000E+00
 -1       607 1.82442E-04-6.01496E-07 0.00000E+00
 -1       608 1.82450E-04-1.57224E-06 0.00000E+00
 -1       609 1.82459E-04-2.46904E-06 1.65436E-24
 -1       610 1.82467E-04-3.29754E-06 0.00000E+00
 -1       611 1.82475E-04-4.06344E-06 0.00000E+00
 -1       612 1.82483E-04-4.77245E-06 0.00000E+00
 -1       613 1.82492E-04-5.43031E-06 0.00000E+00
 -1       614 1.82500E-04-6.04272E-06 0.00000E+00
 -1       615 1.82508E-04-6.61540E-06 0.00000E+00
 -1       616 1.82516E-04-7.15408E-06-1.65436E-24
 -1       617 1.82525E-04-7.66447E-06 0.00000E+00
 -1       618 1.82533E-04-8.15230E-06 0.00000E+00
 -1       619 1.82541E-04-8.62329E-06 0.00000E+00
 -1       620 1.82549E-04-9.08316E-06 0.00000E+00
 -1       621 1.83745E-04 1.68561E-06 1.65436E-24
 -1       622 1.85226E-04 1.78790E-06 0.00000E+00
 -1       623 1.86831E-04 1.88997E-06-1.65436E-24
 -1       624 1.88527E-04 1.99172E-06 1.65436E-24
 -1       625 1.90279E-04 2.09319E-06 0.00000E+00
 -1       626 1.82955E-04 4.84367E-07-3.30872E-24
 -1       627 1.83468E-04-5.52749E-07 0.00000E+00
 -1       628 1.83962E-04-1.53551E-06 0.00000E+00
 -1       629 1.84438E-04-2.47195E-06-1.65436E-24
 -1       630 1.84900E-04-3.37016E-06 0.00000E+00
 -1       631 1.85350E-04-4.23820E-06 0.00000E+00
 -1       632 1.85793E-04-5.08416E-06 0.00000E+00
 -1       633 1.86230E-04-5.91614E-06 1.65436E-24
 -1       634 1.86665E-04-6.74221E-06 0.00000E+00
 -1       635 1.87101E-04-7.57046E-06 0.00000E+00
 -1       636 1.87540E-04-8.40899E-06 0.00000E+00
 -1       637 1.87987E-04-9.26587E-06 0.00000E+00
 -1       638 1.88443E-04-1.01492E-05-1.65436E-24
 -1       639 1.88912E-04-1.10671E-05-1.65436E-24
 -1       640 1.89396E-04-1.20277E-05 1.65436E-24
 -1       656 1.83240E-04-1.01067E-05 0.00000E+00
 -1       657 1.84337E-04-1.06990E-05 0.00000E+00
 -1       658 1.85710E-04-1.12898E-05 0.00000E+00
 -1       659 1.87215E-04-1.18804E-05 0.00000E+00
 -1       660 1.88671E-04-1.24727E-05-6.61744E-24
 -1       661 1.82813E-04-1.00365E-05 0.00000E+00
 -1       662 1.83105E-04-1.06258E-05 8.27181E-25
 -1       663 1.83430E-04-1.13004E-05 0.00000E+00
 -1       664 1.83785E-04-1.20540E-05-8.27181E-25
 -1       665 1.84167E-04-1.28807E-05 0.00000E+00
 -1       666 1.84574E-04-1.37747E-05 0.00000E+00
 -1       667 1.85005E-04-1.47306E-05 1.65436E-24
 -1       668 1.85456E-04-1.57427E-05 0.00000E+00
 -1       669 1.85927E-04-1.68058E-05 1.65436E-24
 -1       670 1.86415E-04-1.79145E-05 8.27181E-25
 -1       671 1.86918E-04-1.90639E-05 0.00000E+00
 -1       672 1.87433E-04-2.02487E-05 0.00000E+00
 -1       673 1.87961E-04-2.14642E-05 1.65436E-24
 -1       674 1.88497E-04-2.27056E-05 4.13590E-25
 -1       675 1.89041E-04-2.39678E-05 2.06795E-25
 -1       676 1.83002E-04-2.47383E-05 0.00000E+00
 -1       677 1.84324E-04-2.48408E-05-1.65436E-24
 -1       678 1.85644E-04-2.49433E-05 3.30872E-24
 -1       679 1.86961E-04-2.50455E-05 1.65436E-24
 -1       680 1.88276E-04-2.51477E-05 0.00000E+00
 -1       771 1.75232E-05 1.71971E-05-5.29396E-23
 -1       772 7.16617E-06 3.99552E-05 0.00000E+00
 -1       773-1.30402E-06 5.79731E-05-5.29396E-23
 -1       774-8.01860E-06 7.15203E-05-2.64698E-23
 -1       775-1.31053E-05 8.08772E-05 0.00000E+00
 -1       776-1.66972E-05 8.63418E-05-2.64698E-23
 -1       777-1.89266E-05 8.82220E-05 5.29396E-23
 -1       778-1.99286E-05 8.68404E-05 0.00000E+00
 -1       779-1.98373E-05 8.25284E-05 5.29396E-23
 -1       780-1.87890E-05 7.56290E-05-2.64698E-23
 -1       781-1.69185E-05 6.64924E-05 0.00000E+00
 -1       782-1.43624E-05 5.54778E-05-2.64698E-23
 -1       783-1.12561E-05 4.29493E-05-5.29396E-23
 -1       784-7.73624E-06 2.92773E-05-2.64698E-23
 -1       785-3.93845E-06 1.48355E-05 0.00000E+00
 -1       786 1.91439E-04 3.16636E-05 0.00000E+00
 -1       787 1.91479E-04 2.95047E-05-4.13590E-25
 -1       788 1.91519E-04 2.73880E-05 8.27181E-25
 -1       789 1.91560E-04 2.53054E-05 0.00000E+00
 -1       790 1.91601E-04 2.32521E-05 0.00000E+00
 -1       791 1.91642E-04 2.12235E-05 0.00000E+00
 -1       792 1.91683E-04 1.92171E-05 0.00000E+00
 -1       793 1.91725E-04 1.72307E-05 8.27181E-25
 -1       794 1.91766E-04 1.52640E-05-1.65436E-24
 -1       795 1.91807E-04 1.33167E-05-8.27181E-25
 -1       796 1.91849E-04 1.13906E-05 0.00000E+00
 -1       797 1.91890E-04 9.48721E-06 0.00000E+00
 -1       798 1.91932E-04 7.61052E-06 0.00000E+00
 -1       799 1.91973E-04 5.76451E-06-8.27181E-25
 -1       800 1.92015E-04 3.95615E-06 0.00000E+00
 -1       801 1.46247E-04 3.04427E-05 2.64698E-23
 -1       802 9.67763E-06 1.90183E-05 0.00000E+00
 -1       803-1.07145E-04 9.62001E-06 0.00000E+00
 -1       804-9.53894E-05 6.69790E-06 0.00000E+00
 -1       805-3.19253E-05 2.65196E-06 0.00000E+00
 -1       806 1.92117E-04 3.15962E-05-1.65436E-24
 -1       807 1.92818E-04 2.93464E-05 1.65436E-24
 -1       808 1.93506E-04 2.71285E-05 0.00000E+00
 -1       809 1.94180E-04 2.49465E-05 1.65436E-24
 -1       810 1.94840E-04 2.28043E-05 0.00000E+00
 -1       811 1.95483E-04 2.07055E-05-1.65436E-24
 -1       812 1.96108E-04 1.86540E-05 3.30872E-24
 -1       813 1.96715E-04 1.66535E-05-1.65436E-24
 -1       814 1.97301E-04 1.47078E-05 0.00000E+00
 -1       815 1.97865E-04 1.28205E-05 0.00000E+00
 -1       816 1.98406E-04 1.09955E-05 0.00000E+00
 -1       817 1.98922E-04 9.23633E-06-8.27181E-25
 -1       818 1.99413E-04 7.54684E-06 0.00000E+00
 -1       819 1.99876E-04 5.93071E-06 0.00000E+00
 -1       820 2.00311E-04 4.39157E-06-1.65436E-24
 -1       821 1.91930E-04-1.52506E-08 0.00000E+00
 -1       822 1.91792E-04-3.15124E-06 0.00000E+00
 -1       823 1.91653E-04-6.85555E-06 3.30872E-24
 -1       824 1.91512E-04-1.07647E-05 0.00000E+00
 -1       825 1.91372E-04-1.44606E-05 3.30872E-24
 -1       826 1.91233E-04-1.75262E-05 0.00000E+00
 -1       827 1.91097E-04-1.97144E-05-3.30872E-24
 -1       828 1.90962E-04-2.07835E-05 1.65436E-24
 -1       829 1.90828E-04-2.07933E-05 0.00000E+00
 -1       830 1.90694E-04-1.98099E-05 0.00000E+00
 -1       831 1.90558E-04-1.81670E-05 0.00000E+00
 -1       832 1.90423E-04-1.62024E-05 0.00000E+00
 -1       833 1.90288E-04-1.43405E-05 0.00000E+00
 -1       834 1.90155E-04-1.30052E-05-1.65436E-24
 -1       835 1.90022E-04-1.24789E-05 0.00000E+00
 -1       836 1.93709E-04 2.31532E-06 3.30872E-24
 -1       837 1.95237E-04 2.44122E-06 0.00000E+00
 -1       838 1.96672E-04 2.56706E-06 0.00000E+00
 -1       839 1.98043E-04 2.69220E-06-8.27181E-25
 -1       840 1.99381E-04 2.81719E-06 0.00000E+00
 -1       856 1.89881E-04-1.40726E-05-8.27181E-25
 -1       857 1.89862E-04-1.49727E-05 0.00000E+00
 -1       858 1.89843E-04-1.57599E-05 0.00000E+00
 -1       859 1.89824E-04-1.64552E-05 2.06795E-25
 -1       860 1.89804E-04-1.70794E-05-4.13590E-25
 -1       861 1.89785E-04-1.76535E-05 0.00000E+00
 -1       862 1.89766E-04-1.81984E-05-4.13590E-25
 -1       863 1.89746E-04-1.87351E-05 0.00000E+00
 -1       864 1.89727E-04-1.92846E-05 0.00000E+00
 -1       865 1.89707E-04-1.98679E-05 4.13590E-25
 -1       866 1.89688E-04-2.05059E-05 0.00000E+00
 -1       867 1.89668E-04-2.12197E-05 0.00000E+00
 -1       868 1.89648E-04-2.20300E-05 0.00000E+00
 -1       869 1.89628E-04-2.29576E-05 0.00000E+00
 -1       870 1.89608E-04-2.40233E-05 0.00000E+00
 -1       871 1.91214E-04-1.30439E-05 0.00000E+00
 -1       872 1.92675E-04-1.30520E-05 0.00000E+00
 -1       873 1.94215E-04-1.30608E-05 0.00000E+00
 -1       874 1.95767E-04-1.30704E-05 1.55096E-25
 -1       875 1.97261E-04-1.30805E-05 1.24077E-24
 -1       876 1.90409E-04-1.40583E-05-3.30872E-24
 -1       877 1.90900E-04-1.50118E-05 1.65436E-24
 -1       878 1.91370E-04-1.59074E-05-3.30872E-24
 -1       879 1.91821E-04-1.67525E-05-1.65436E-24
 -1       880 1.92256E-04-1.75542E-05-3.30872E-24
 -1       881 1.92677E-04-1.83198E-05-1.65436E-24
 -1       882 1.93087E-04-1.90566E-05 3.30872E-24
 -1       883 1.93490E-04-1.97718E-05 0.00000E+00
 -1       884 1.93887E-04-2.04726E-05 0.00000E+00
 -1       885 1.94281E-04-2.11663E-05 0.00000E+00
 -1       886 1.94676E-04-2.18599E-05 3.30872E-24
 -1       887 1.95073E-04-2.25609E-05-1.65436E-24
 -1       888 1.95475E-04-2.32763E-05 0.00000E+00
 -1       889 1.95885E-04-2.40136E-05 1.65436E-24
 -1       890 1.96304E-04-2.47800E-05-1.65436E-24
 -1       891 1.90917E-04-2.53043E-05-1.65436E-24
 -1       892 1.92225E-04-2.53610E-05 0.00000E+00
 -1       893 1.93485E-04-2.54177E-05 0.00000E+00
 -1       894 1.94673E-04-2.54741E-05 0.00000E+00
 -1       895 1.95763E-04-2.55303E-05 4.13590E-25
 -1       956 2.00590E-04 1.64572E-06 1.65436E-24
 -1       957 2.00459E-04 4.48156E-07 8.27181E-25
 -1       958 2.00329E-04-6.70164E-07 0.00000E+00
 -1       959 2.00198E-04-1.72038E-06-1.65436E-24
 -1       960 2.00067E-04-2.71367E-06 0.00000E+00
 -1       961 1.99937E-04-3.66126E-06 0.00000E+00
 -1       962 1.99806E-04-4.57435E-06-3.30872E-24
 -1       963 1.99675E-04-5.46421E-06 0.00000E+00
 -1       964 1.99545E-04-6.34206E-06-3.30872E-24
 -1       965 1.99414E-04-7.21914E-06 0.00000E+00
 -1       966 1.99283E-04-8.10671E-06 0.00000E+00
 -1       967 1.99153E-04-9.01599E-06-1.65436E-24
 -1       968 1.99022E-04-9.95821E-06 3.30872E-24
 -1       969 1.98892E-04-1.09446E-05 0.00000E+00
 -1       970 1.98762E-04-1.19863E-05 0.00000E+00
 -1       971 1.98515E-04-1.42012E-05 0.00000E+00
 -1       972 1.98396E-04-1.52153E-05-1.65436E-24
 -1       973 1.98277E-04-1.61466E-05 0.00000E+00
 -1       974 1.98157E-04-1.70057E-05 0.00000E+00
 -1       975 1.98038E-04-1.78032E-05-3.30872E-24
 -1       976 1.97918E-04-1.85500E-05-1.65436E-24
 -1       977 1.97799E-04-1.92568E-05 3.30872E-24
 -1       978 1.97679E-04-1.99341E-05-1.65436E-24
 -1       979 1.97560E-04-2.05929E-05-3.30872E-24
 -1       980 1.97440E-04-2.12438E-05 0.00000E+00
 -1       981 1.97321E-04-2.18976E-05 3.30872E-24
 -1       982 1.97202E-04-2.25649E-05-1.65436E-24
 -1       983 1.97082E-04-2.32566E-05-3.30872E-24
 -1       984 1.96964E-04-2.39833E-05 1.65436E-24
 -1       985 1.96846E-04-2.47559E-05 0.00000E+00
 -3
    1PSTEP                        46          23           1          
  100CL  123 6.52458E-01         409                     0   23           1
 -4  STRESS      6    1
 -5  SXX         1    4    1    1
 -5  SYY         1    4    2    2
 -5  SZZ         1    4    3    3
 -5  SXY         1    4    1    2
 -5  SYZ         1    4    2    3
 -5  SZX         1    4    3    1
 -1         1-4.90906E+06-1.76021E+06-1.08102E+06-1.63934E+06 1.62981E-09-3.05590E-08
 -1         2-6.28497E+03-5.74146E+06-1.87772E+04-1.34785E+05-1.27488E-09-1.12759E-07
 -1         3-1.38030E+03-1.33895E+06 3.28030E+02-1.83223E+03-6.94794E-10 5.78766E-08
 -1         5-7.16295E+01 3.79541E+05 9.78801E+00-1.26571E+00-4.06553E-10-2.92930E-08
 -1         8-4.53499E+05-1.39813E+05-2.66410E+04-1.72062E+05-1.06684E-09 3.04093E-07
 -1         9 1.86989E+07-1.18784E+06 2.96478E+06-2.68894E+06 4.44939E-08 1.85287E-07
 -1        10-2.22157E+03-1.39520E+06-4.37761E+03-1.24256E+04-1.33314E-08-2.69802E-08
 -1        12-6.77765E+01 3.79562E+05 3.21616E+02-8.67224E+00-5.55744E-10 9.38599E-09
 -1        15 1.00346E+03 5.51456E+02 3.24367E+03 1.25284E+00 1.38603E-09 1.08877E-06
 -1        16 3.71319E+07-6.63679E+05 4.83455E+06-4.05481E+06 1.34460E-08-1.22158E-07
 -1        17 1.28343E+07 1.18248E+07 3.91628E+06 1.05498E+07-4.84870E-09 7.62520E-09
 -1        18 1.35004E+05 3.16479E+04 2.86078E+03-1.17305E+05 1.48193E-08 8.30823E-10
 -1        19 1.20422E+05 1.39162E+05-9.39287E+02 2.16606E+04 1.85446E-09-5.94082E-09
 -1        20-8.06473E+04-5.64521E+05-1.26673E+05 2.47540E+04-2.44563E-09 2.77578E-09
 -1        21-4.49119E+01-2.91321E+05-9.09340E+02 2.64201E+02 1.50830E-08-3.43019E-09
 -1        24 2.17836E+07 2.12380E+07 6.06724E+06 1.95259E+07-2.03562E-07-5.86345E-08
 -1        25 1.17487E+05 2.44448E+05 9.36836E+04-6.27774E+05-3.16995E-09 1.33756E-08
 -1        26-5.55094E+04 9.03512E+04-2.44750E+04 1.48733E+03 2.47383E-11 1.03776E-09
 -1        27-7.47388E+04-3.05069E+05-1.11598E+05 6.78317E+04 4.47471E-09-2.07001E-09
 -1        28 2.18970E+04-8.39953E+04 1.66316E+04 2.02819E+04-4.29964E-09 1.04704E-08
 -1        32-1.65304E+06-3.17183E+06-2.00687E+05 4.23549E+05-4.54893E-08-9.95215E-09
 -1        33-1.75809E+05 9.13723E+04 3.18467E+04-3.75954E+04-2.99038E-09 1.27520E-08
 -1        34-2.20067E+05-2.46075E+04 6.79724E+02 7.44336E+04-5.16478E-09-1.42706E-08
 -1        35-2.25699E+04-3.33113E+04-1.32684E+03 5.06837E+04-4.26037E-09 2.51069E-08
 -1        51 5.60910E+04-1.63805E+05 1.19898E+05-5.16596E+05-5.82077E-11 1.59562E-08
 -1        52 1.93691E+04-1.43486E+05 6.35203E+04-6.02154E+05-1.09139E-11-2.83519E-07
 -1        53 4.42761E+03-1.59039E+05 3.40038E+04-5.14654E+05 7.38510E-10-1.53668E-07
 -1        54 8.90842E+03-1.55243E+05 2.98656E+04-6.04206E+05 1.23691E-10 8.51433E-08
 -1        55 1.90536E+04-1.63309E+05 3.85631E+04-5.14365E+05 6.47560E-10 3.69808E-07
 -1        56-9.20876E+06-1.10274E+06-8.11327E+05-3.67126E+06 1.49594E-08 7.54080E-08
 -1        57-9.85612E+06-1.44099E+06-5.36085E+05-3.21212E+06-5.74801E-09-3.50621E-07
 -1        58-9.24694E+06-1.45886E+06-1.89853E+05-3.73696E+06 2.44108E-08-2.76246E-07
 -1        59-9.83046E+06-1.01263E+06-1.10958E+05-3.15094E+06-1.18334E-08-6.38582E-07
 -1        60-9.24902E+06-1.51037E+06-4.35364E+04-3.74851E+06 7.50788E-09-3.55762E-07
 -1        61-9.72259E+06-1.03354E+06-2.11422E+04-3.21510E+06 6.46151E-08-4.48756E-07
 -1        62-9.34410E+06-1.44366E+06-1.81159E+04-3.66522E+06 5.73345E-09 1.57919E-07
 -1        63-9.46912E+06-1.24236E+06-1.52885E+03-3.43013E+06 3.21961E-08 2.89109E-07
 -1        64-9.48199E+06-1.31556E+06-2.05303E+04-3.51833E+06 4.42560E-08-5.59885E-09
 -1        65-9.23568E+06-1.49334E+06-1.57182E+04-3.72001E+06-1.32322E-07-2.56298E-07
 -1        66-9.58297E+06-1.18918E+06-4.33791E+04-3.37996E+06 8.61874E-08-1.41921E-07
 -1        67-9.14300E+06-1.68679E+06-9.98249E+04-3.92360E+06-1.54316E-07 5.19358E-08
 -1        68-9.59727E+06-1.10787E+06-1.70121E+05-3.33033E+06 1.86701E-08-1.07757E-08
 -1        69-9.31057E+06-1.95861E+06-4.88962E+05-3.86881E+06-6.43613E-08 2.63914E-07
 -1        70-9.41747E+06-9.25764E+05-7.32760E+05-3.43209E+06-1.80880E-08 4.93892E-07
 -1        86 2.38722E+03-5.77502E+06-2.88786E+04 6.73877E+04 9.30231E-09 1.58100E-07
 -1        87-2.21900E+04-5.75938E+06-5.02766E+04-1.56536E+05 1.57734E-08 2.75046E-08
 -1        88 2.04775E+04-5.75897E+06-8.43180E+04 8.91494E+04 7.48332E-09-3.37770E-07
 -1        89-1.54969E+05-5.81204E+06-2.19099E+05-4.94209E+04 1.05065E-08-8.80107E-09
 -1        90 1.32772E+05-5.72136E+06-3.22035E+05-3.97412E+04-7.20320E-09 3.94052E-07
 -1       121-1.88706E+03-1.34347E+06-5.65674E+02 9.07530E+02 1.29492E-09-2.83871E-08
 -1       122-1.22570E+03-1.33900E+06 6.06858E+02-3.67135E+03-5.60772E-09-2.88910E-08
 -1       123-1.90716E+03-1.34358E+06 4.44704E+01 2.71251E+03 3.95062E-09-1.36788E-08
 -1       124 1.59890E+02-1.33860E+06 2.30006E+03-7.75885E+03-9.46602E-09-4.74538E-08
 -1       125-2.60256E+03-1.34434E+06 2.43811E+03 4.95285E+03 6.18820E-09-3.79878E-08
 -1       191-7.54937E+01 3.79559E+05 8.43258E+00 6.59560E-01-5.80932E-10-1.71476E-08
 -1       192-7.25724E+01 3.79541E+05 2.08822E+01-4.11401E+00-7.83604E-10 1.08876E-08
 -1       193-7.79770E+01 3.79559E+05 3.56578E+01 3.61804E+00-1.00239E-09-1.15797E-08
 -1       194-7.55962E+01 3.79545E+05 7.93725E+01-9.35849E+00-5.80972E-10-3.85116E-08
 -1       195-8.27436E+01 3.79556E+05 1.52066E+02 6.08418E+00-1.50587E-09-3.07809E-08
 -1       251-2.23805E+06-5.87883E+04-2.54941E+05-1.63569E+05-4.35102E-09 5.48462E-08
 -1       252-8.68754E+05 7.25365E+04 9.46944E+04 5.02464E+05-4.72573E-09-1.61541E-07
 -1       253-1.64759E+06-2.34479E+04-4.39415E+04-3.31185E+05-2.51748E-09-1.70206E-07
 -1       254-1.51622E+06 8.96176E+04 1.70977E+04 6.62457E+05-3.38214E-08-1.95163E-07
 -1       255-1.65424E+06-2.37703E+04-2.47833E+04-3.30301E+05 4.60977E-08 1.43992E-07
 -1       256-8.52680E+05 7.14104E+04 1.49265E+05 4.98031E+05-1.63982E-09 2.23641E-07
 -1       257-2.24602E+06-5.85002E+04-1.47819E+05-1.59944E+05 2.12494E-08-1.08722E-07
 -1       258-1.66923E+05 5.29376E+04 2.78135E+05 1.71772E+04-3.37859E-08 3.64789E-08
 -1       259-2.27237E+06-6.04600E+04-1.51673E+05 1.46562E+05 1.93140E-08-2.45549E-07
 -1       260-7.90657E+05 7.28492E+04 1.66158E+05-4.75781E+05 1.65237E-08-4.24876E-07
 -1       261-1.68377E+06-2.82531E+04-2.14606E+04 3.28155E+05 1.00950E-07-1.37651E-07
 -1       262-1.50887E+06 1.02982E+05 4.21140E+04-6.58942E+05 1.07984E-08-3.62918E-07
 -1       263-1.62502E+06-3.25871E+04 9.68932E+02 3.37029E+05 3.66263E-08 3.57525E-07
 -1       264-8.98539E+05 1.50522E+05 1.89741E+05-5.21159E+05 1.49379E-07 4.69233E-07
 -1       265-2.23693E+06-1.22350E+05-9.69854E+04 1.83959E+05 6.25223E-08 2.91868E-07
 -1       266-1.81662E+04-8.49528E+03 4.26196E+04-2.68051E+01 2.23554E-09 1.11675E-06
 -1       267 2.10594E+04 9.90029E+03 3.01247E+04 3.09300E+01 4.31010E-09 1.74635E-06
 -1       268-2.82403E+03-1.40221E+03 1.11971E+04-3.94090E+00 2.80033E-09 9.36949E-07
 -1       269 3.33434E+03 1.67809E+03 7.27803E+03 4.59069E+00 2.14482E-09 5.22091E-07
 -1       270-5.00486E+02-2.75723E+02 3.51321E+03-6.22985E-01 1.88550E-09 5.43475E-07
 -1       271-1.62852E+06-1.88910E+05-1.20227E+05-6.13236E+05 5.78439E-09 5.17393E-08
 -1       272-1.75647E+06-1.92015E+05-7.72940E+04-5.16962E+05 6.94963E-08-4.75989E-07
 -1       273-1.64936E+06-2.20525E+05-2.83329E+04-6.09973E+05-8.86939E-09-7.90242E-08
 -1       274-1.73243E+06-1.52962E+05-1.58944E+04-5.22481E+05 3.75769E-09 1.84867E-07
 -1       275-1.65222E+06-2.23985E+05-6.57818E+03-6.09319E+05-3.89791E-08-1.34241E-07
 -1       276-1.72743E+06-1.49956E+05-3.41202E+03-5.24120E+05-2.97800E-08-1.30979E-07
 -1       277-1.65360E+06-2.23581E+05-1.77479E+03-6.07974E+05-4.62460E-08-1.26130E-07
 -1       278-1.72264E+06-1.52753E+05-9.02561E+02-5.26686E+05 3.99305E-08-1.91616E-07
 -1       279-1.65543E+06-2.22126E+05-1.31722E+03-6.05657E+05-7.22794E-08-2.22079E-07
 -1       280-1.71613E+06-1.57866E+05-1.28080E+03-5.30654E+05-5.58794E-09-4.20299E-07
 -1       281-1.65790E+06-2.19869E+05-3.43343E+03-6.02447E+05 3.58923E-08-2.51544E-07
 -1       282-1.70898E+06-1.66121E+05-6.12930E+03-5.35935E+05 6.95836E-08 4.93869E-08
 -1       283-1.66002E+06-2.15664E+05-1.26680E+04-5.98538E+05 3.16504E-10 3.29415E-07
 -1       284-1.70918E+06-1.89626E+05-3.11518E+04-5.40884E+05 1.15651E-08-1.27737E-07
 -1       285-1.65530E+06-1.99602E+05-5.08434E+04-5.95192E+05-3.24799E-08 3.96121E-08
 -1       301-9.46665E+02-8.30604E+05 1.32697E+05-1.24276E+06 2.26282E-09 1.12268E-07
 -1       302-7.73496E+02-7.94610E+05 7.95003E+04-1.81692E+06-3.86353E-09 2.66485E-07
 -1       303-1.58242E+04-8.20254E+05 4.30034E+04-1.24019E+06-5.82077E-10 1.61737E-07
 -1       304-2.23174E+04-7.85614E+05 4.06740E+04-1.81477E+06-2.35741E-09-5.77929E-08
 -1       305-3.21321E+04-7.94725E+05 4.38044E+04-1.24406E+06 3.49246E-10-4.40254E-07
 -1       306-4.52290E+07-8.19973E+06-1.28916E+07 1.55868E+06-1.89641E-07 3.07919E-07
 -1       307 4.25079E+07 8.76931E+06 9.32605E+06-2.16175E+07-7.34013E-07-2.69269E-07
 -1       308-4.90500E+06-3.39498E+06-8.48292E+05 7.50728E+06 2.61876E-07-4.54107E-07
 -1       309-8.98090E+05 1.97043E+07 4.48639E+06-2.58303E+07 3.37335E-07-6.68224E-08
 -1       310-1.59084E+07-5.15043E+06-3.89145E+06 9.33689E+06-2.75730E-07 7.26432E-08
 -1       311 6.57610E+07 2.64415E+06 1.22948E+07-1.21682E+07-2.01748E-07 2.63564E-07
 -1       312-4.85218E+07-8.26138E+06-1.30702E+07-7.73494E+06-2.72761E-07 2.61978E-07
 -1       313 6.95982E+07 2.92984E+07 1.72329E+07 3.97105E+07-5.30796E-07 4.87082E-07
 -1       314-2.01975E+07-3.06202E+07-1.14922E+07-1.88563E+07 4.38478E-07 2.25671E-07
 -1       315-1.03634E+04 4.94041E+07 9.23893E+06 1.30897E+07 1.21305E-07-6.32368E-07
 -1       316 3.35334E+06-1.20719E+07-8.18341E+05 9.52071E+05 4.60204E-07-8.25006E-07
 -1       317-1.30395E+07 3.18655E+07 4.47264E+06-1.68569E+07 2.26195E-07-1.44565E-06
 -1       318-5.84720E+03-2.05145E+07-3.95826E+06-2.40210E+06-1.31130E-06 2.16882E-07
 -1       319 1.42106E+07 5.68526E+07 1.24072E+07 2.57901E+07-8.92731E-07 1.68424E-07
 -1       320-3.09550E+07-2.91160E+07-1.48653E+07-2.08026E+07-4.69037E-07-3.69037E-08
 -1       336-7.90116E+02-1.45425E+06-1.39578E+04 7.31664E+03-2.57551E-08-4.50382E-09
 -1       337-5.72924E+03-1.45392E+06-1.98326E+04-1.79499E+04-4.76784E-08-1.42481E-08
 -1       338 6.57706E+02-1.45330E+06-3.23936E+04 1.03969E+04-3.36076E-08 9.19681E-09
 -1       339-3.53434E+04-1.47369E+06-7.44983E+04-2.40783E+04-6.10307E-08 2.36614E-08
 -1       340 2.33742E+04-1.43628E+06-1.17457E+05 1.32867E+04-4.00687E-08 3.79405E-08
 -1       406-4.63950E+01 3.79542E+05 6.31602E+02 3.10251E+00-1.91866E-09 1.22000E-08
 -1       407 1.53986E+02 3.79673E+05 1.34953E+03 2.31638E+01-3.69489E-10-1.71276E-08
 -1       408 6.24689E+02 3.79444E+05 2.69101E+03-2.65916E+01-2.42858E-09-1.13250E-08
 -1       409 2.85178E+03 3.80533E+05 6.06506E+03 2.82328E+02-4.49745E-10-3.32357E-08
 -1       410 8.31488E+03 3.78669E+05 1.23787E+04-2.71781E+02-2.69756E-09-1.49157E-09
 -1       521-4.40079E+07-1.15737E+07-1.53631E+07 2.23849E+06-1.18511E-07-1.42376E-07
 -1       522 4.01944E+07 1.14864E+07 8.73451E+06-2.82028E+07-6.57252E-07-2.94705E-07
 -1       523-5.01416E+06-3.59228E+06-5.54492E+05 7.58659E+06 1.92667E-08-5.34812E-07
 -1       524-1.05476E+07 2.58848E+07 4.35441E+06-2.94338E+07 1.34988E-06-1.02399E-06
 -1       525-1.53241E+07-6.12627E+06-3.95415E+06 8.99425E+06 6.69563E-07-3.43076E-07
 -1       526 6.90213E+07 2.27923E+06 1.18941E+07-1.74402E+07 4.83356E-07 2.98023E-08
 -1       527-4.79410E+07-1.21632E+07-1.54143E+07-6.58817E+06 5.42612E-07-5.17903E-08
 -1       528 7.38327E+07 3.18547E+07 1.66595E+07 4.51195E+07-2.92552E-07-5.58037E-07
 -1       529-2.08729E+07-3.23833E+07-1.33045E+07-1.63066E+07-3.35218E-07 6.78701E-08
 -1       530-5.56412E+06 5.60781E+07 9.04087E+06 8.87561E+06-1.17696E-07 7.84174E-07
 -1       531 3.09500E+06-1.24142E+07-4.86487E+05 1.19394E+06-1.02930E-06 4.38653E-07
 -1       532-1.55033E+07 3.05923E+07 4.33427E+06-2.61814E+07 4.53903E-07-1.04642E-06
 -1       533-5.14892E+05-1.99088E+07-3.92704E+06-1.41355E+06-5.34914E-07-1.19070E-06
 -1       534 8.76306E+06 6.41496E+07 1.16849E+07 2.45227E+07 4.77012E-08 8.66305E-07
 -1       535-3.13477E+07-3.17110E+07-1.76235E+07-1.82388E+07 1.86032E-07 5.72065E-07
 -1       536-6.87769E+05-2.95326E+04-8.25283E+04-5.30180E+04-1.76396E-09 6.36555E-08
 -1       537-7.42607E+04 2.50619E+04 5.55943E+04 1.20926E+05-1.16563E-07 1.03979E-07
 -1       538-3.92641E+05 5.68670E+03-5.87429E+03-7.08261E+04 1.82613E-08 9.77659E-08
 -1       539-2.74488E+05-1.55122E+02 1.81413E+04 1.35900E+05 1.72189E-07 1.10960E-07
 -1       540-4.92736E+05 2.52638E+01-2.28933E+04-6.84986E+04 4.26326E-10 1.22283E-07
 -1       541 1.27901E+05 1.58945E+04 1.01245E+05 9.54790E+04-2.20095E-08 8.36108E-08
 -1       542-7.84223E+05-1.93826E+04-8.19062E+04-2.95787E+04 2.40070E-08 2.30928E-08
 -1       543 3.77744E+05 2.63094E+04 1.52075E+05-1.31280E+04-6.34236E-08-1.73959E-08
 -1       544-7.35888E+05-1.59355E+04-7.23478E+04 3.94737E+04-2.35696E-09-2.56094E-08
 -1       545 1.41977E+04 9.08675E+03 7.67770E+04-1.11006E+05 6.43013E-09-6.32899E-08
 -1       546-4.30435E+05 5.93167E+03-1.18684E+04 6.79732E+04 1.80933E-08-9.42377E-08
 -1       547-2.90610E+05-4.65772E+03 9.91128E+03-1.38599E+05-1.11072E-07-1.17448E-07
 -1       548-4.39268E+05 4.65833E+03-2.34265E+04 6.77210E+04-1.11275E-07-8.67421E-08
 -1       549 3.31567E+04 1.48010E+04 5.74485E+04-1.08798E+05-6.72931E-08-7.21666E-08
 -1       550-7.45537E+05-2.07703E+04-1.25900E+05 3.74935E+04 6.94308E-09-4.23515E-08
 -1       551 2.47757E+04-5.75868E+05-4.11225E+04-1.03864E+06-9.90258E-08-1.01281E-08
 -1       552 6.89515E+04-6.17215E+05-6.34754E+03-1.47885E+06-7.04167E-08 3.76604E-08
 -1       553 5.61056E+04-6.14845E+05 2.09632E+04-1.03246E+06-1.19726E-07 3.77768E-08
 -1       554 1.08644E+05-6.32428E+05 6.75767E+04-1.48145E+06-7.73434E-08 2.16351E-08
 -1       555 8.66100E+04-6.41756E+05 1.29017E+05-1.03121E+06-1.26340E-07-1.88411E-08
 -1       556 2.21411E+05-3.83188E+05-1.26018E+04-3.96312E+05-2.55532E-08-5.41331E-09
 -1       557 3.41791E+05-4.84090E+05-3.83869E+03-5.19528E+05 2.96859E-09-1.17143E-08
 -1       558 2.01398E+05-3.69448E+05-5.93650E+03-4.05008E+05-1.60653E-08-8.22183E-10
 -1       559 3.22257E+05-4.79362E+05-1.67909E+03-5.39334E+05 1.90194E-08-7.60701E-09
 -1       560 1.86427E+05-3.60065E+05-3.28003E+03-4.15767E+05 1.64728E-08 2.75759E-09
 -1       561 3.04045E+05-4.71772E+05-7.69259E+02-5.51888E+05 1.60071E-08 2.41143E-08
 -1       562 1.74747E+05-3.52862E+05-1.68290E+03-4.24189E+05 3.47791E-09-1.09649E-08
 -1       563 2.90267E+05-4.65744E+05-2.34264E+02-5.60888E+05-1.33805E-08-3.80733E-08
 -1       564 1.66448E+05-3.47704E+05-6.64094E+02-4.30060E+05 2.75031E-09-2.40107E-08
 -1       565 2.81134E+05-4.61765E+05-2.07801E+01-5.66722E+05 2.98896E-08 1.34169E-08
 -1       566 1.61621E+05-3.44653E+05-2.69084E+02-4.33435E+05 2.03727E-10-1.05047E-08
 -1       567 2.76729E+05-4.59848E+05-3.63743E+02-5.69393E+05 2.36832E-08 2.17915E-09
 -1       568 1.60349E+05-3.43877E+05-1.10113E+03-4.34420E+05 4.38195E-09-1.11468E-08
 -1       569 2.75686E+05-4.59787E+05-2.76927E+03-5.67940E+05-4.88399E-10 8.92760E-09
 -1       570 1.63708E+05-3.47060E+05-6.05058E+03-4.33424E+05 1.18525E-08 6.93126E-09
 -1       571 2.85878E+05 1.03431E+04 1.47683E+04-9.33346E+04 3.48609E-09 1.23409E-08
 -1       572 2.88020E+05 3.89161E+03 7.23755E+03-1.02399E+05 2.35923E-09 2.56805E-08
 -1       573 2.86730E+05 1.21785E+03 3.21587E+03-9.31617E+04 5.05133E-09-9.81345E-10
 -1       574 2.86942E+05 7.05621E+02 1.61269E+03-1.02619E+05 4.47949E-09-1.96978E-08
 -1       575 2.86823E+05 4.31464E+02 7.61143E+02-9.31381E+04 8.01214E-09-1.57088E-08
 -1       576 2.86809E+05 4.41556E+02 3.89693E+02-1.02648E+05 7.12726E-09 1.99379E-08
 -1       577 2.86862E+05 3.74370E+02 1.94582E+02-9.31348E+04 6.11180E-10 4.00087E-09
 -1       578 2.86838E+05 4.04535E+02 1.12475E+02-1.02652E+05-4.09273E-09 5.80076E-09
 -1       579 2.86932E+05 3.39018E+02 7.74634E+01-9.31345E+04 6.06087E-09 5.57156E-09
 -1       580 2.86936E+05 3.55421E+02 9.01262E+01-1.02647E+05-5.72618E-09-1.12523E-08
 -1       581 2.87042E+05 2.82820E+02 1.36532E+02-9.31403E+04 8.71842E-09 1.21199E-08
 -1       582 2.87106E+05 3.20785E+02 2.77586E+02-1.02587E+05 4.48290E-09-7.58700E-09
 -1       583 2.87176E+05 3.27868E+02 5.33257E+02-9.31959E+04 3.57977E-09-8.08450E-09
 -1       584 2.87472E+05 7.63392E+02 1.20642E+03-1.02119E+05 3.27418E-09 4.71209E-09
 -1       585 2.87196E+05 1.78104E+03 2.44353E+03-9.36074E+04-1.64800E-09 3.04499E-09
 -1       586-3.37601E+03 1.14550E+05-2.90300E+03-2.47052E+05-6.92262E-09 1.47620E-08
 -1       587-1.30878E+03 1.14300E+05 7.43054E+02-2.71902E+05-8.16726E-09 2.62025E-08
 -1       588 4.05352E+02 1.14115E+05 4.67686E+03-2.46918E+05-4.12911E-09 3.70328E-08
 -1       589 5.02036E+03 1.16547E+05 1.21449E+04-2.71669E+05-1.08466E-08-2.50875E-08
 -1       590 1.63617E+04 1.12801E+05 2.54827E+04-2.47344E+05-4.89399E-09 3.71074E-10
 -1       591-7.33472E+04-1.56137E+04-2.21059E+04-3.12358E+04-1.49657E-09 6.07452E-09
 -1       592-7.73727E+04-1.90915E+04-1.19743E+04-3.47775E+04 6.10768E-10 2.86243E-08
 -1       593-7.55576E+04-1.40100E+04-4.98432E+03-3.28571E+04-3.13950E-09-1.89700E-08
 -1       594-7.43208E+04-1.58474E+04-2.48581E+03-3.48927E+04-1.89715E-11-9.30515E-09
 -1       595-7.57261E+04-1.40048E+04-1.14123E+03-3.29307E+04-2.72578E-10 1.99744E-08
 -1       596-7.41118E+04-1.56991E+04-5.79933E+02-3.48679E+04 1.95554E-09 1.03283E-08
 -1       597-7.57472E+04-1.40199E+04-3.15330E+02-3.29335E+04 5.24318E-09 1.52962E-08
 -1       598-7.40912E+04-1.56932E+04-2.52644E+02-3.48609E+04-5.98021E-09-9.25962E-09
 -1       599-7.57460E+04-1.40204E+04-3.21667E+02-3.29332E+04 9.61893E-09-2.05796E-09
 -1       600-7.41118E+04-1.56996E+04-5.96714E+02-3.48658E+04 2.14190E-08-7.33689E-09
 -1       601-7.57219E+04-1.40061E+04-1.17674E+03-3.29298E+04 9.16134E-09 3.73348E-09
 -1       602-7.43273E+04-1.58514E+04-2.56436E+03-3.48877E+04 3.43198E-09 6.32178E-09
 -1       603-7.55454E+04-1.40144E+04-5.14248E+03-3.28546E+04-9.63155E-10-1.29694E-09
 -1       604-7.74935E+04-1.91790E+04-1.23535E+04-3.47443E+04 1.43046E-09 2.06021E-08
 -1       605-7.32452E+04-1.56865E+04-2.28060E+04-3.12012E+04 6.14818E-09 1.32359E-08
 -1       606 2.62559E+04-1.40876E+04-2.52571E+04 2.36081E+04 7.81620E-09-5.46038E-09
 -1       607 2.19402E+04-4.59988E+03-1.25780E+04 2.65299E+04-4.47471E-10-5.41604E-10
 -1       608 2.44002E+04-8.28665E+02-5.63069E+03 2.34416E+04-7.28505E-09 3.14799E-09
 -1       609 2.39287E+04-2.82946E+02-2.84449E+03 2.67405E+04 1.38243E-10 2.28526E-08
 -1       610 2.41906E+04-3.90677E+01-1.35711E+03 2.34218E+04-2.74667E-09-4.97107E-09
 -1       611 2.41165E+04-3.93258E+01-6.84246E+02 2.67632E+04-1.07902E-08-7.50128E-09
 -1       612 2.41446E+04-2.57795E+01-3.25245E+02 2.34198E+04-7.64248E-09-3.82943E-09
 -1       613 2.41282E+04-3.54800E+01-1.45701E+02 2.67659E+04-4.86580E-10-8.31096E-09
 -1       614 2.41230E+04-3.22464E+01-3.40281E+01 2.34191E+04-2.98405E-09 9.39099E-09
 -1       615 2.41233E+04-3.41533E+01 6.13864E+01 2.67664E+04-4.76211E-09 1.15219E-08
 -1       616 2.41061E+04-2.92887E+01 1.83786E+02 2.34194E+04-7.68523E-10 1.80059E-08
 -1       617 2.41456E+04 4.89994E+00 4.19194E+02 2.67659E+04-9.77707E-10-6.32281E-09
 -1       618 2.40698E+04 9.14710E+01 8.44912E+02 2.34197E+04 1.93177E-09-9.44624E-09
 -1       619 2.44440E+04 6.58118E+02 1.89729E+03 2.67653E+04 1.23919E-10 3.52588E-09
 -1       620 2.37893E+04 2.09492E+03 3.81349E+03 2.34212E+04-5.46834E-10 4.37421E-09
 -1       621 4.93821E+02 2.95921E+05 3.77016E+03 4.02289E+04 1.02000E-09-1.28539E-08
 -1       622 6.55025E+02 2.96792E+05 3.35923E+03 5.84067E+04 1.19553E-09-1.34633E-08
 -1       623 1.37484E+02 2.96108E+05 4.05346E+03 4.00464E+04 1.30103E-09 9.10677E-09
 -1       624 2.08154E+03 2.97992E+05 7.87198E+03 5.85866E+04 1.47838E-09 1.69730E-08
 -1       625 2.03506E+03 2.94546E+05 1.37625E+04 4.00431E+04 1.46201E-09 5.48039E-09
 -1       626 2.56820E+05 6.04810E+04 5.07262E+03 1.24773E+05 2.78305E-10 7.73616E-09
 -1       627 2.54541E+05 6.18474E+04 2.44443E+03 1.28985E+05-1.36015E-09-2.68210E-09
 -1       628 2.56946E+05 5.81606E+04 1.03382E+03 1.25636E+05-1.03946E-08 9.01355E-09
 -1       629 2.53913E+05 6.11729E+04 5.05972E+02 1.29223E+05-1.55233E-08 7.05722E-09
 -1       630 2.56961E+05 5.80483E+04 2.34780E+02 1.25672E+05 4.93174E-09 1.76163E-08
 -1       631 2.53847E+05 6.11471E+04 1.26395E+02 1.29225E+05 1.15742E-08 1.65274E-08
 -1       632 2.56957E+05 5.80521E+04 8.32678E+01 1.25668E+05 1.26383E-08-7.70251E-09
 -1       633 2.53839E+05 6.11488E+04 9.29093E+01 1.29221E+05 1.83622E-08-1.17643E-08
 -1       634 2.56953E+05 5.80493E+04 1.50281E+02 1.25668E+05 6.11755E-09-1.22109E-08
 -1       635 2.53853E+05 6.11472E+04 3.04175E+02 1.29227E+05-5.99101E-09 9.22864E-09
 -1       636 2.56944E+05 5.80437E+04 6.14336E+02 1.25668E+05-1.62186E-09 9.26457E-09
 -1       637 2.53986E+05 6.12427E+04 1.35081E+03 1.29226E+05-2.93699E-09 1.16370E-08
 -1       638 2.56896E+05 5.83421E+04 2.77543E+03 1.25533E+05-1.84627E-10-6.65750E-09
 -1       639 2.55444E+05 6.32704E+04 6.56679E+03 1.28797E+05 5.76620E-09-3.32670E-09
 -1       640 2.56694E+05 6.43970E+04 1.36273E+04 1.22981E+05 5.42514E-09-2.71029E-10
 -1       656 6.55230E+04-1.67694E+06-1.58171E+05-2.49393E+03-1.06957E-09 1.52476E-08
 -1       657-8.66820E+04-1.74842E+06-1.31036E+05 5.15225E+03 1.67438E-09 1.89406E-08
 -1       658 2.08873E+04-1.69724E+06-8.07044E+04-4.51188E+03 5.03860E-10-1.31034E-08
 -1       659-9.37380E+04-1.75177E+06-1.40309E+05 6.82786E+03-2.80488E-09 4.30276E-09
 -1       660 7.25631E+04-1.67360E+06-1.74114E+05-4.16952E+03-1.81899E-09 9.64872E-09
 -1       661 1.55982E+05 1.63237E+04 1.64461E+04 6.09800E+04-4.37467E-10-3.70892E-09
 -1       662 1.65280E+05 2.85028E+04 1.10835E+04 5.72900E+04 7.91658E-10 2.07706E-10
 -1       663 1.59212E+05 2.16002E+04 3.87633E+03 6.00429E+04-9.42578E-10-1.67211E-09
 -1       664 1.61535E+05 2.23320E+04 2.31884E+03 5.84345E+04 9.47438E-10 6.87976E-09
 -1       665 1.59702E+05 2.23212E+04 9.14779E+02 5.99002E+04 3.18840E-09-1.93000E-08
 -1       666 1.60956E+05 2.15074E+04 5.35463E+02 5.86204E+04 6.04217E-09 1.66031E-09
 -1       667 1.59787E+05 2.24034E+04 2.84621E+02 5.98647E+04 1.36288E-09 8.40401E-09
 -1       668 1.60861E+05 2.14480E+04 2.90452E+02 5.86720E+04-7.13973E-09-8.40808E-09
 -1       669 1.59795E+05 2.23788E+04 3.93617E+02 5.98490E+04-5.93252E-09 2.13112E-09
 -1       670 1.60958E+05 2.16614E+04 8.57444E+02 5.86743E+04-1.49355E-08 5.68627E-09
 -1       671 1.59691E+05 2.21944E+04 1.52258E+03 5.98603E+04 1.53573E-09 5.04082E-09
 -1       672 1.61845E+05 2.31424E+04 3.89558E+03 5.84589E+04 4.99412E-09 2.61525E-09
 -1       673 1.58911E+05 2.09354E+04 6.52842E+03 6.00500E+04 7.33166E-09-1.02182E-08
 -1       674 1.68059E+05 3.36307E+04 1.86699E+04 5.66331E+04 1.87913E-09-2.45054E-08
 -1       675 1.53517E+05 1.19999E+04 2.77127E+04 6.15760E+04 3.07864E-10 3.48155E-09
 -1       676 2.37267E+01-2.91245E+05-1.09599E+03-1.32105E+02-2.23963E-11 8.95058E-09
 -1       677-2.89968E+02-2.91510E+05-2.00585E+03 2.64002E+02 8.95207E-09 5.23330E-09
 -1       678 1.94443E+02-2.91056E+05-3.54585E+03-1.31810E+02-8.85848E-10-3.19939E-09
 -1       679-3.54594E+03-2.93651E+05-8.42345E+03 2.62876E+02 7.59144E-09 4.39888E-08
 -1       680 2.11709E+03-2.89106E+05-1.35757E+04-1.29523E+02-8.13998E-10 6.20321E-09
 -1       771-2.99928E+06-7.55052E+05-1.94801E+05-1.45325E+06-3.46627E-08-3.11702E-08
 -1       772-2.92235E+06-8.49693E+05-1.00814E+05-1.56242E+06-2.48401E-08 1.33805E-08
 -1       773-3.03447E+06-7.27832E+05-5.06534E+04-1.47077E+06-1.64437E-08 1.05938E-08
 -1       774-2.91061E+06-8.26862E+05-2.27641E+04-1.58997E+06 2.64845E-08-1.83354E-09
 -1       775-3.05229E+06-7.15473E+05-1.65494E+04-1.47876E+06-6.08270E-09 2.46655E-09
 -1       776-2.92426E+06-8.23126E+05-6.27179E+03-1.61082E+06-8.04721E-09 5.14774E-09
 -1       777-3.06767E+06-7.04437E+05-7.14950E+03-1.48572E+06 1.25438E-08 4.61296E-09
 -1       778-2.93854E+06-8.19780E+05-2.05745E+03-1.62873E+06 6.51926E-09 8.67294E-09
 -1       779-3.08089E+06-6.94781E+05-3.52887E+03-1.49164E+06-8.26549E-09-6.90488E-09
 -1       780-2.95110E+06-8.16632E+05-6.07570E+02-1.64331E+06-5.87170E-09 1.18234E-09
 -1       781-3.09140E+06-6.86992E+05-1.38514E+03-1.49627E+06-3.39496E-08-8.38554E-10
 -1       782-2.96076E+06-8.13990E+05 4.32913E+02-1.65406E+06-4.08545E-08-6.58611E-09
 -1       783-3.09879E+06-6.81579E+05 6.55034E+02-1.49949E+06-8.57835E-09-1.65628E-08
 -1       784-2.96619E+06-8.11480E+05 2.89815E+03-1.66069E+06-2.00380E-08 2.11321E-09
 -1       785-3.10312E+06-6.78381E+05 5.09724E+03-1.50150E+06-3.98650E-08 8.14543E-09
 -1       786 1.19057E+05-9.52617E+03 2.20395E+04-3.06281E+02 1.47794E-09-5.83532E-09
 -1       787 1.28616E+05 1.10291E+04 1.55921E+04-1.22205E+02 6.23510E-09 1.17207E-08
 -1       788 1.22743E+05-1.49279E+03 5.70203E+03-2.72255E+02 3.68451E-09 1.40521E-08
 -1       789 1.24323E+05 1.72780E+03 3.57946E+03-1.74496E+02-4.50456E-10-1.37658E-09
 -1       790 1.23351E+05-2.32436E+02 1.44907E+03-2.54007E+02-4.34508E-09-1.59064E-08
 -1       791 1.23611E+05 2.68817E+02 8.36594E+02-2.05748E+02-8.01136E-09 1.45212E-09
 -1       792 1.23455E+05-3.48975E+01 3.53792E+02-2.41006E+02-4.63470E-09-8.79680E-10
 -1       793 1.23488E+05 3.64520E+01 1.74799E+02-2.30117E+02-4.94738E-10 4.94451E-09
 -1       794 1.23475E+05-2.17956E-01 4.22548E+01-2.29638E+02 5.36328E-09-9.01728E-10
 -1       795 1.23450E+05-2.95556E+01-6.49316E+01-2.53645E+02-6.00163E-09-3.49192E-09
 -1       796 1.23492E+05 3.10732E+01-1.73504E+02-2.17478E+02 2.89419E-09-5.01657E-10
 -1       797 1.23351E+05-2.32070E+02-4.72143E+02-2.81301E+02 5.41248E-09 3.27412E-09
 -1       798 1.23575E+05 2.02145E+02-7.65596E+02-2.01981E+02 1.24421E-09 2.11134E-09
 -1       799 1.22770E+05-1.49041E+03-2.10529E+03-3.19401E+02 6.39287E-09-5.94562E-09
 -1       800 1.24073E+05 1.28839E+03-2.97909E+03-1.79379E+02 2.72514E-10 6.41546E-09
 -1       801-1.62005E+05-9.80636E+06-1.36255E+06 1.37013E+06 9.20845E-08-4.76284E-08
 -1       802 7.11248E+05 5.67404E+06 2.10976E+06-1.69081E+06 2.56710E-07-3.31856E-08
 -1       803-5.20285E+05-1.39213E+07-1.83375E+06 8.72202E+05 7.66886E-08 1.26856E-08
 -1       804 2.74196E+05 2.19116E+06 1.48042E+06 6.60450E+05-1.17601E-07-1.00552E-07
 -1       805 1.87515E+05-6.33775E+06-2.76533E+05-9.75665E+05-4.91709E-08-7.05750E-08
 -1       806-3.04287E+05-5.86145E+04-2.24605E+04-1.20275E+05-6.38283E-09-5.62522E-10
 -1       807-3.06089E+05-5.49127E+04-1.10346E+04-1.25684E+05 1.12984E-08 1.29944E-08
 -1       808-3.04901E+05-5.05219E+04-4.68127E+03-1.24104E+05-9.14224E-09-2.21713E-08
 -1       809-3.03771E+05-5.18104E+04-2.28903E+03-1.25953E+05-1.32370E-08-6.71116E-09
 -1       810-3.04994E+05-5.02402E+04-1.04921E+03-1.24274E+05 6.83713E-09 2.25839E-08
 -1       811-3.03592E+05-5.16856E+04-5.21803E+02-1.25918E+05 8.08086E-10-6.65659E-09
 -1       812-3.05008E+05-5.02644E+04-2.64003E+02-1.24273E+05-6.73208E-09-1.29908E-08
 -1       813-3.03567E+05-5.16876E+04-1.71730E+02-1.25900E+05-7.98900E-09-2.20807E-08
 -1       814-3.05002E+05-5.02738E+04-1.70428E+02-1.24269E+05-5.02951E-09-1.31326E-08
 -1       815-3.03571E+05-5.16897E+04-2.74832E+02-1.25893E+05-5.66160E-10-5.91558E-09
 -1       816-3.04982E+05-5.02727E+04-5.21018E+02-1.24266E+05 4.87216E-09 8.73843E-09
 -1       817-3.03660E+05-5.17393E+04-1.11828E+03-1.25882E+05-1.39794E-08 2.64154E-08
 -1       818-3.04914E+05-5.04303E+04-2.28090E+03-1.24192E+05-3.19687E-09 1.01227E-09
 -1       819-3.04908E+05-5.31177E+04-5.36687E+03-1.25587E+05-1.33878E-09-1.13696E-08
 -1       820-3.04485E+05-5.44838E+04-1.09235E+04-1.22459E+05-4.81486E-09-1.38107E-09
 -1       821-3.74525E+05 2.06222E+04-4.78993E+04 1.88436E+03 1.30218E-08 8.84575E-09
 -1       822-3.94421E+05-2.38835E+04-3.37444E+04-3.71466E+03 4.27403E-09 2.05241E-08
 -1       823-3.82099E+05 3.24472E+03-1.23817E+04 2.89891E+03-1.10917E-08 5.57793E-09
 -1       824-3.85357E+05-3.74459E+03-7.76270E+03-4.34494E+03 2.11595E-09-5.49699E-09
 -1       825-3.83591E+05 5.03579E+02-3.23573E+03 2.51472E+03 1.81823E-08-2.02581E-08
 -1       826-3.83205E+05-5.70125E+02-1.78268E+03-2.39484E+03 2.40555E-08 1.13860E-08
 -1       827-3.84233E+05 5.93031E+01-1.12287E+03 9.48721E+02 1.21027E-08-3.14711E-09
 -1       828-3.82685E+05-1.47718E+02-6.75760E+02 1.06304E+03-3.80453E-10-2.81149E-08
 -1       829-3.84103E+05 7.50172E+01-1.11854E+03-9.43194E+02-3.99950E-10-5.31722E-09
 -1       830-3.83490E+05-6.18320E+02-1.90702E+03 4.13194E+03-9.08386E-10 1.01070E-08
 -1       831-3.83444E+05 5.42154E+02-3.32460E+03-2.12020E+03-4.59431E-09 1.24106E-08
 -1       832-3.85441E+05-3.90712E+03-8.06557E+03 5.12551E+03-2.37539E-09 1.54979E-08
 -1       833-3.82164E+05 3.36921E+03-1.28797E+04-1.93679E+03-1.27994E-09 2.20534E-08
 -1       834-3.94553E+05-2.47990E+04-3.49832E+04 3.46786E+03-2.14123E-09-9.41100E-09
 -1       835-3.74321E+05 2.14064E+04-4.97650E+04-4.62503E+02 6.09631E-09 6.04268E-09
 -1       836-1.38647E+03 3.63670E+05 2.25057E+04-1.55534E+04-6.79120E-09-7.61202E-09
 -1       837 4.80160E+03 3.70717E+05 1.90460E+04-3.17810E+04-7.82813E-09 7.14658E-09
 -1       838-5.46770E+02 3.65646E+05 1.94086E+04-1.54836E+04-6.26505E-09 4.11569E-09
 -1       839 1.22194E+04 3.76243E+05 3.67183E+04-3.18332E+04-6.60657E-09-1.81001E-08
 -1       840-3.77525E+03 3.58087E+05 5.85534E+04-1.55068E+04-5.80621E-09 3.15464E-09
 -1       856-5.12687E+04 7.89695E+03-2.08101E+04-3.92691E+02 5.50767E-09 8.70114E-09
 -1       857-5.98426E+04-9.27839E+03-1.43255E+04 5.54241E+03 6.16012E-09 1.68129E-08
 -1       858-5.46640E+04 1.10747E+03-5.39970E+03-4.16036E+02 2.14908E-09 5.80781E-09
 -1       859-5.59461E+04-1.30268E+03-3.25848E+03 5.57712E+03-8.94488E-10 6.13494E-09
 -1       860-5.51713E+04 1.55085E+02-1.36560E+03-4.27146E+02 1.86844E-10 9.83982E-09
 -1       861-5.53625E+04-1.84957E+02-7.51206E+02 5.59225E+03 7.21792E-09 1.24914E-08
 -1       862-5.52506E+04 2.09923E+01-3.12177E+02-4.31140E+02-1.54735E-10 6.39412E-09
 -1       863-5.52652E+04-2.12919E+01-1.13515E+02 5.59457E+03-2.68640E-09-6.18881E-09
 -1       864-5.52691E+04-4.86232E+00 4.69079E+01-4.29464E+02-3.06636E-09-2.43243E-08
 -1       865-5.52103E+04 5.91045E+01 2.52190E+02 5.58499E+03-3.68806E-09-2.26031E-08
 -1       866-5.53034E+04-5.93941E+01 5.08032E+02-4.21562E+02 2.00038E-09-1.65906E-09
 -1       867-5.49715E+04 4.90655E+02 1.25027E+03 5.56354E+03-5.73465E-10 6.14966E-09
 -1       868-5.55030E+04-4.28560E+02 2.07761E+03-4.08014E+02-2.53351E-09 6.74424E-09
 -1       869-5.34487E+04 3.56711E+03 5.53178E+03 5.52818E+03 2.34763E-09 1.71692E-08
 -1       870-5.68188E+04-3.05219E+03 8.02800E+03-3.86099E+02-2.77896E-09 1.22955E-08
 -1       871-5.43820E+03-2.09185E+04-1.91816E+04 1.28391E+05-4.91491E-09 1.41144E-08
 -1       872-1.96147E+03-2.53752E+04-8.03119E+03 1.66477E+05-9.11950E-09 6.61748E-09
 -1       873 3.90513E+02-2.32196E+04 5.82515E+02 1.28108E+05-5.07225E-09 9.67373E-09
 -1       874 3.24411E+03-2.08439E+04 9.62932E+03 1.66507E+05-1.08730E-08 1.55912E-08
 -1       875 6.73343E+03-2.55149E+04 2.17218E+04 1.28344E+05-4.84761E-09 9.17771E-09
 -1       876 2.89150E+05 4.87329E+04 1.48579E+04 1.16036E+05 4.04953E-09-5.18412E-09
 -1       877 2.90133E+05 5.18610E+04 7.93468E+03 1.20297E+05 1.31149E-08-2.24436E-08
 -1       878 2.90540E+05 4.70870E+04 3.32425E+03 1.17253E+05-1.10335E-08-1.40867E-08
 -1       879 2.88114E+05 4.98454E+04 1.65634E+03 1.20397E+05 4.05635E-10 6.12431E-10
 -1       880 2.90639E+05 4.70700E+04 7.71517E+02 1.17303E+05 1.45860E-09 9.17021E-09
 -1       881 2.87980E+05 4.97592E+04 4.12030E+02 1.20374E+05 7.76390E-09 9.04063E-09
 -1       882 2.90648E+05 4.70830E+04 2.63651E+02 1.17304E+05 1.22145E-09-3.63940E-09
 -1       883 2.87970E+05 4.97548E+04 2.83525E+02 1.20367E+05 4.11364E-09 1.01308E-09
 -1       884 2.90642E+05 4.70802E+04 4.51107E+02 1.17305E+05-3.68527E-09-1.86088E-08
 -1       885 2.88006E+05 4.97610E+04 9.07030E+02 1.20378E+05-5.13305E-09-1.12780E-08
 -1       886 2.90607E+05 4.70537E+04 1.82811E+03 1.17301E+05-4.95823E-09 4.24507E-09
 -1       887 2.88327E+05 4.99717E+04 3.99327E+03 1.20424E+05 7.80744E-09 3.99780E-09
 -1       888 2.90354E+05 4.70982E+04 8.04656E+03 1.17173E+05 5.87107E-10-4.65207E-10
 -1       889 2.93118E+05 5.49535E+04 1.92218E+04 1.20277E+05-2.98662E-09-2.60952E-08
 -1       890 2.87070E+05 5.09993E+04 3.60019E+04 1.14111E+05-4.47244E-09-1.13760E-08
 -1       891-8.95595E+01-1.60208E+05-1.96570E+03 2.67262E+04-1.84491E-09 2.00089E-09
 -1       892-1.74970E+02-1.60727E+05-2.11083E+03 4.05828E+04-1.89243E-09-1.89495E-08
 -1       893 4.16993E+01-1.60272E+05-2.98825E+03 2.67334E+04-2.66596E-09-1.20085E-08
 -1       894-1.48821E+03-1.61857E+05-6.18433E+03 4.04328E+04 4.18413E-09-6.81212E-09
 -1       895-1.18128E+03-1.58984E+05-1.08903E+04 2.68780E+04-1.00044E-09 1.09358E-08
 -1       956-3.71306E+05-5.35481E+03-1.32249E+04 3.03026E+04 6.75573E-09 4.90695E-09
 -1       957-3.73901E+05-1.88712E+03-6.78820E+03 3.64180E+04-1.54250E-09-8.40259E-09
 -1       958-3.72494E+05-2.34564E+02-3.05894E+03 3.01379E+04-3.39787E-09 4.29372E-09
 -1       959-3.72687E+05-1.31500E+02-1.56197E+03 3.66098E+04 3.64162E-09 1.20301E-08
 -1       960-3.72610E+05-4.21077E+01-7.61688E+02 3.01210E+04 2.53112E-09 1.50421E-08
 -1       961-3.72608E+05-5.99921E+01-4.03880E+02 3.66298E+04 8.06654E-09 5.52905E-09
 -1       962-3.72636E+05-4.35322E+01-2.31277E+02 3.01182E+04 5.55838E-09-2.85513E-09
 -1       963-3.72608E+05-5.60360E+01-1.85757E+02 3.66333E+04 1.67278E-08-1.31893E-08
 -1       964-3.72642E+05-4.03277E+01-2.25998E+02 3.01174E+04 6.20659E-10 7.18865E-09
 -1       965-3.72620E+05-5.31620E+01-3.90970E+02 3.66326E+04-5.34840E-09 8.92987E-09
 -1       966-3.72626E+05-3.25831E+01-7.34656E+02 3.01189E+04 3.99109E-09-7.92488E-09
 -1       967-3.72708E+05-1.15635E+02-1.50678E+03 3.66185E+04-2.79260E-09-5.24074E-09
 -1       968-3.72524E+05-2.12111E+02-2.94973E+03 3.01314E+04-9.31914E-09 2.30102E-10
 -1       969-3.73891E+05-1.80385E+03-6.54833E+03 3.64725E+04-1.13228E-08-1.08921E-08
 -1       970-3.71386E+05-5.14761E+03-1.27565E+04 3.02566E+04-7.35599E-09 1.49403E-08
 -1       971-3.39964E+05-1.69972E+03-9.16613E+03 1.51327E+04 5.27871E-09-9.88337E-10
 -1       972-3.42171E+05-1.25087E+03-4.99181E+03 2.09318E+04 4.90763E-09-2.88196E-09
 -1       973-3.40985E+05-6.01582E+01-2.23585E+03 1.50135E+04 4.19095E-09 6.34873E-09
 -1       974-3.41119E+05-7.87210E+01-1.15900E+03 2.10666E+04-8.87894E-10 8.84620E-09
 -1       975-3.41066E+05-1.61201E+01-5.79784E+02 1.50014E+04 1.30558E-09 1.56510E-08
 -1       976-3.41058E+05-2.97740E+01-3.35327E+02 2.10820E+04 2.42289E-09 1.76135E-09
 -1       977-3.41082E+05-1.54807E+01-2.44844E+02 1.49981E+04-3.72438E-10 1.27966E-09
 -1       978-3.41063E+05-2.37193E+01-2.88534E+02 2.10867E+04-9.02673E-09-2.55133E-08
 -1       979-3.41082E+05-7.17865E+00-4.65304E+02 1.49967E+04-3.12122E-09-3.73495E-09
 -1       980-3.41098E+05-2.07246E+01-8.99522E+02 2.10877E+04-4.93390E-09 4.06510E-09
 -1       981-3.41053E+05 1.53128E+01-1.74272E+03 1.49972E+04 4.23290E-09 2.50225E-09
 -1       982-3.41337E+05-1.49456E+02-3.60248E+03 2.10812E+04 9.83164E-10-1.01323E-08
 -1       983-3.40834E+05-9.62202E+01-6.99978E+03 1.50031E+04-4.73028E-09 7.27050E-09
 -1       984-3.44704E+05-3.80514E+03-1.56758E+04 2.09969E+04-1.06320E-09 2.14459E-08
 -1       985-3.37665E+05-5.21816E+03-2.87856E+04 1.50735E+04-2.97950E-09 2.78014E-08
 -3
    1PSTEP                        47          24           1          
  100CL  124 6.58397E-01         409                     0   24           1
 -4  DISP        4    1
 -5  D1          1    2    1    0
 -5  D2          1    2    2    0
 -5  D3          1    2    3    0
 -5  ALL         1    2    0    0    1ALL
 -1         1 4.40726E-03 0.00000E+00 0.00000E+00
 -1         2 4.35591E-03-2.03932E-28 0.00000E+00
 -1         3 3.42445E-04 8.72264E-28-1.32349E-23
 -1         5 1.77956E-04 2.69547E-26 3.30872E-24
 -1         8 4.39354E-03-3.84576E-07 0.00000E+00
 -1         9 4.33812E-03-1.28590E-05 0.00000E+00
 -1        10 3.10976E-04-2.91632E-06 0.00000E+00
 -1        12 1.79845E-04 8.05363E-07 8.27181E-25
 -1        15 4.37669E-03-4.18957E-07 0.00000E+00
 -1        16 4.38724E-03-1.49704E-05 0.00000E+00
 -1        17 2.12480E-04-6.73478E-06 0.00000E+00
 -1        18 1.83928E-04 3.49080E-05 0.00000E+00
 -1        19 1.85514E-04 1.60423E-06 0.00000E+00
 -1        20 1.85651E-04-1.04827E-05 0.00000E+00
 -1        21 1.84760E-04-2.66581E-05 0.00000E+00
 -1        24 3.02097E-05-1.06459E-05 0.00000E+00
 -1        25 1.94926E-04 3.51332E-05 0.00000E+00
 -1        26 1.95581E-04 2.22087E-06 0.00000E+00
 -1        27 1.93392E-04-1.40253E-05 0.00000E+00
 -1        28 1.93086E-04-2.72762E-05 0.00000E+00
 -1        32 0.00000E+00 0.00000E+00 0.00000E+00
 -1        33 2.04672E-04 2.97067E-06 0.00000E+00
 -1        34 2.02563E-04-1.40820E-05 0.00000E+00
 -1        35 2.00641E-04-2.76169E-05 0.00000E+00
 -1        51 4.40639E-03-7.98879E-08 6.61744E-24
 -1        52 4.40476E-03-1.42320E-07-3.30872E-24
 -1        53 4.40251E-03-2.01764E-07 0.00000E+00
 -1        54 4.39979E-03-2.60472E-07 0.00000E+00
 -1        55 4.39675E-03-3.20162E-07 3.30872E-24
 -1        56 4.40163E-03 3.65209E-06-5.29396E-23
 -1        57 4.39213E-03 1.68965E-05 0.00000E+00
 -1        58 4.37969E-03 3.76437E-05 1.05879E-22
 -1        59 4.36533E-03 6.30672E-05-5.29396E-23
 -1        60 4.35055E-03 8.95478E-05 1.05879E-22
 -1        61 4.33684E-03 1.13364E-04 0.00000E+00
 -1        62 4.32549E-03 1.31264E-04 1.05879E-22
 -1        63 4.31753E-03 1.40505E-04 0.00000E+00
 -1        64 4.31333E-03 1.39880E-04 1.05879E-22
 -1        65 4.31291E-03 1.29059E-04 0.00000E+00
 -1        66 4.31562E-03 1.09546E-04-1.05879E-22
 -1        67 4.32059E-03 8.36400E-05 5.29396E-23
 -1        68 4.32657E-03 5.48037E-05 0.00000E+00
 -1        69 4.33230E-03 2.67801E-05 0.00000E+00
 -1        70 4.33649E-03 3.15044E-06 0.00000E+00
 -1        86 4.35302E-03-2.14263E-06 0.00000E+00
 -1        87 4.34460E-03-4.31354E-06-2.64698E-23
 -1        88 4.33544E-03-6.48979E-06 5.29396E-23
 -1        89 4.33041E-03-8.62783E-06 0.00000E+00
 -1        90 4.33097E-03-1.07585E-05 0.00000E+00
 -1       121 3.41562E-04-4.68875E-07 1.32349E-23
 -1       122 3.38919E-04-9.40736E-07 6.61744E-24
 -1       123 3.34521E-04-1.41853E-06-1.32349E-23
 -1       124 3.28385E-04-1.90519E-06 6.61744E-24
 -1       125 3.20527E-04-2.40335E-06 0.00000E+00
 -1       191 1.78008E-04 1.34294E-07 1.65436E-24
 -1       192 1.78166E-04 2.68575E-07-1.65436E-24
 -1       193 1.78428E-04 4.02836E-07 8.27181E-25
 -1       194 1.78795E-04 5.37063E-07 8.27181E-25
 -1       195 1.79268E-04 6.71243E-07-8.27181E-25
 -1       251 4.39268E-03 2.21943E-05 0.00000E+00
 -1       252 4.39023E-03 8.37515E-05 6.61744E-24
 -1       253 4.38582E-03 1.73188E-04 1.32349E-23
 -1       254 4.37988E-03 2.78756E-04 0.00000E+00
 -1       255 4.37396E-03 3.84193E-04 1.32349E-23
 -1       256 4.36958E-03 4.73241E-04 6.61744E-24
 -1       257 4.36716E-03 5.34225E-04 0.00000E+00
 -1       258 4.36630E-03 5.56122E-04 0.00000E+00
 -1       259 4.36551E-03 5.38013E-04 0.00000E+00
 -1       260 4.36326E-03 4.80021E-04 0.00000E+00
 -1       261 4.35901E-03 3.92537E-04-1.32349E-23
 -1       262 4.35303E-03 2.86643E-04-6.61744E-24
 -1       263 4.34684E-03 1.78547E-04 0.00000E+00
 -1       264 4.34201E-03 8.45048E-05-6.61744E-24
 -1       265 4.33918E-03 1.68023E-05-2.64698E-23
 -1       266 4.39073E-03-3.96136E-07 3.30872E-24
 -1       267 4.38792E-03-4.01156E-07 0.00000E+00
 -1       268 4.38512E-03-4.06590E-07 0.00000E+00
 -1       269 4.38231E-03-4.10796E-07 2.06795E-25
 -1       270 4.37950E-03-4.14974E-07 2.06795E-25
 -1       271 4.39169E-03 2.67987E-06-1.32349E-23
 -1       272 4.38954E-03 6.48185E-06-6.61744E-24
 -1       273 4.38721E-03 1.07513E-05 0.00000E+00
 -1       274 4.38481E-03 1.52049E-05 0.00000E+00
 -1       275 4.38245E-03 1.95602E-05 0.00000E+00
 -1       276 4.38023E-03 2.35345E-05 0.00000E+00
 -1       277 4.37826E-03 2.68486E-05 0.00000E+00
 -1       278 4.37665E-03 2.92277E-05 0.00000E+00
 -1       279 4.37548E-03 3.04049E-05 2.64698E-23
 -1       280 4.37487E-03 3.01225E-05 0.00000E+00
 -1       281 4.37489E-03 2.81342E-05 2.64698E-23
 -1       282 4.37564E-03 2.42071E-05-1.32349E-23
 -1       283 4.37718E-03 1.81237E-05-2.64698E-23
 -1       284 4.37959E-03 9.68392E-06 0.00000E+00
 -1       285 4.38293E-03-1.29486E-06 0.00000E+00
 -1       301 4.34619E-03-1.32266E-05 0.00000E+00
 -1       302 4.35290E-03-1.35613E-05 0.00000E+00
 -1       303 4.35930E-03-1.38917E-05-2.64698E-23
 -1       304 4.36645E-03-1.42265E-05 0.00000E+00
 -1       305 4.37542E-03-1.45787E-05-2.64698E-23
 -1       306 4.38184E-03-2.10032E-04 0.00000E+00
 -1       307 4.43460E-03-7.43777E-04-5.29396E-23
 -1       308 4.43005E-03-1.52827E-03-1.05879E-22
 -1       309 4.36973E-03-2.43758E-03 0.00000E+00
 -1       310 4.32916E-03-3.30340E-03 0.00000E+00
 -1       311 4.36261E-03-3.95944E-03 5.29396E-23
 -1       312 4.42176E-03-4.29646E-03 0.00000E+00
 -1       313 4.40420E-03-4.28072E-03-5.29396E-23
 -1       314 4.18327E-03-3.93475E-03 0.00000E+00
 -1       315 3.69890E-03-3.37315E-03 0.00000E+00
 -1       316 2.97396E-03-2.70064E-03 1.05879E-22
 -1       317 2.10906E-03-1.99556E-03-2.64698E-23
 -1       318 1.28463E-03-1.29938E-03 0.00000E+00
 -1       319 6.68852E-04-6.67658E-04 0.00000E+00
 -1       320 3.21544E-04-2.02003E-04-1.05879E-22
 -1       336 2.99538E-04-3.48539E-06-1.32349E-23
 -1       337 2.86030E-04-4.07954E-06-6.61744E-24
 -1       338 2.70504E-04-4.70131E-06 0.00000E+00
 -1       339 2.53023E-04-5.35135E-06 6.61744E-24
 -1       340 2.33656E-04-6.03490E-06 6.61744E-24
 -1       406 1.80528E-04 9.39402E-07 0.00000E+00
 -1       407 1.81315E-04 1.07332E-06-8.27181E-25
 -1       408 1.82208E-04 1.20708E-06 3.30872E-24
 -1       409 1.83205E-04 1.34049E-06 2.06795E-25
 -1       410 1.84308E-04 1.47329E-06-2.06795E-24
 -1       521 4.43051E-03-2.24762E-04 0.00000E+00
 -1       522 4.47848E-03-7.77746E-04-5.29396E-23
 -1       523 4.46517E-03-1.58212E-03 0.00000E+00
 -1       524 4.39839E-03-2.50214E-03 0.00000E+00
 -1       525 4.35301E-03-3.37588E-03-1.05879E-22
 -1       526 4.38194E-03-4.04397E-03 0.00000E+00
 -1       527 4.43861E-03-4.38605E-03 2.11758E-22
 -1       528 4.41601E-03-4.36592E-03 1.05879E-22
 -1       529 4.17840E-03-4.00580E-03 0.00000E+00
 -1       530 3.66730E-03-3.43156E-03 0.00000E+00
 -1       531 2.91021E-03-2.75105E-03 0.00000E+00
 -1       532 2.01897E-03-2.04274E-03 0.00000E+00
 -1       533 1.16848E-03-1.34249E-03 0.00000E+00
 -1       534 5.21619E-04-6.99762E-04 1.05879E-22
 -1       535 1.51246E-04-2.19165E-04 0.00000E+00
 -1       536 2.11733E-04 2.81552E-05 3.30872E-24
 -1       537 2.09818E-04 8.85739E-05 1.65436E-24
 -1       538 2.06857E-04 1.65247E-04 0.00000E+00
 -1       539 2.03363E-04 2.48812E-04 0.00000E+00
 -1       540 2.00220E-04 3.27768E-04 3.30872E-24
 -1       541 1.98177E-04 3.90635E-04 0.00000E+00
 -1       542 1.97235E-04 4.30660E-04-3.30872E-24
 -1       543 1.97010E-04 4.41242E-04 0.00000E+00
 -1       544 1.96687E-04 4.23156E-04 3.30872E-24
 -1       545 1.95513E-04 3.77397E-04-1.65436E-24
 -1       546 1.93326E-04 3.12093E-04 0.00000E+00
 -1       547 1.90365E-04 2.35491E-04 1.65436E-24
 -1       548 1.87431E-04 1.59266E-04 0.00000E+00
 -1       549 1.85315E-04 9.50952E-05 0.00000E+00
 -1       550 1.84215E-04 5.10076E-05-1.65436E-24
 -1       551 1.87558E-04-7.23343E-06 0.00000E+00
 -1       552 1.59390E-04-7.81667E-06 0.00000E+00
 -1       553 1.28765E-04-8.46685E-06 0.00000E+00
 -1       554 9.64899E-05-9.16758E-06 0.00000E+00
 -1       555 6.33702E-05-9.89588E-06-1.32349E-23
 -1       556 2.04856E-04 1.27856E-05 0.00000E+00
 -1       557 1.98693E-04 2.86090E-05 0.00000E+00
 -1       558 1.93864E-04 4.10256E-05-5.29396E-23
 -1       559 1.90236E-04 5.03456E-05 0.00000E+00
 -1       560 1.87679E-04 5.68799E-05 0.00000E+00
 -1       561 1.86065E-04 6.09419E-05 0.00000E+00
 -1       562 1.85269E-04 6.28461E-05 0.00000E+00
 -1       563 1.85168E-04 6.29078E-05 0.00000E+00
 -1       564 1.85639E-04 6.14435E-05 0.00000E+00
 -1       565 1.86561E-04 5.87701E-05 0.00000E+00
 -1       566 1.87816E-04 5.52051E-05 0.00000E+00
 -1       567 1.89284E-04 5.10665E-05 0.00000E+00
 -1       568 1.90847E-04 4.66723E-05 1.65436E-24
 -1       569 1.92386E-04 4.23407E-05-8.27181E-25
 -1       570 1.93785E-04 3.83898E-05 0.00000E+00
 -1       571 1.84024E-04 3.27455E-05-2.48154E-24
 -1       572 1.84122E-04 3.05176E-05-1.65436E-24
 -1       573 1.84221E-04 2.82402E-05 1.65436E-24
 -1       574 1.84320E-04 2.59294E-05 8.27181E-25
 -1       575 1.84419E-04 2.36019E-05 0.00000E+00
 -1       576 1.84518E-04 2.12739E-05-1.65436E-24
 -1       577 1.84617E-04 1.89621E-05 0.00000E+00
 -1       578 1.84716E-04 1.66830E-05 3.30872E-24
 -1       579 1.84816E-04 1.44531E-05 6.61744E-24
 -1       580 1.84915E-04 1.22889E-05 0.00000E+00
 -1       581 1.85014E-04 1.02070E-05 6.61744E-24
 -1       582 1.85114E-04 8.22375E-06 0.00000E+00
 -1       583 1.85214E-04 6.35575E-06 0.00000E+00
 -1       584 1.85314E-04 4.61929E-06 0.00000E+00
 -1       585 1.85414E-04 3.03052E-06-6.61744E-24
 -1       586 1.85720E-04 3.49477E-05 0.00000E+00
 -1       587 1.87471E-04 3.49868E-05-8.27181E-25
 -1       588 1.89223E-04 3.50255E-05 0.00000E+00
 -1       589 1.91022E-04 3.50635E-05 0.00000E+00
 -1       590 1.92909E-04 3.51003E-05 0.00000E+00
 -1       591 1.84670E-04 3.28396E-05 1.03398E-25
 -1       592 1.85415E-04 3.07523E-05 2.06795E-25
 -1       593 1.86165E-04 2.86517E-05 0.00000E+00
 -1       594 1.86917E-04 2.65425E-05 0.00000E+00
 -1       595 1.87671E-04 2.44293E-05-8.27181E-25
 -1       596 1.88424E-04 2.23165E-05 0.00000E+00
 -1       597 1.89176E-04 2.02089E-05 0.00000E+00
 -1       598 1.89923E-04 1.81109E-05-4.13590E-25
 -1       599 1.90666E-04 1.60270E-05 0.00000E+00
 -1       600 1.91402E-04 1.39619E-05 0.00000E+00
 -1       601 1.92129E-04 1.19201E-05 0.00000E+00
 -1       602 1.92845E-04 9.90609E-06-4.13590E-25
 -1       603 1.93550E-04 7.92446E-06 8.27181E-25
 -1       604 1.94242E-04 5.97986E-06-1.03398E-25
 -1       605 1.94918E-04 4.07676E-06-4.13590E-25
 -1       606 1.85527E-04 4.10277E-07 0.00000E+00
 -1       607 1.85537E-04-6.99401E-07 0.00000E+00
 -1       608 1.85546E-04-1.72975E-06 3.30872E-24
 -1       609 1.85554E-04-2.68635E-06-1.65436E-24
 -1       610 1.85562E-04-3.57484E-06 0.00000E+00
 -1       611 1.85570E-04-4.40090E-06 0.00000E+00
 -1       612 1.85578E-04-5.17023E-06 0.00000E+00
 -1       613 1.85586E-04-5.88854E-06 0.00000E+00
 -1       614 1.85595E-04-6.56152E-06 0.00000E+00
 -1       615 1.85603E-04-7.19489E-06 0.00000E+00
 -1       616 1.85611E-04-7.79435E-06 0.00000E+00
 -1       617 1.85619E-04-8.36560E-06 4.13590E-25
 -1       618 1.85628E-04-8.91435E-06 0.00000E+00
 -1       619 1.85636E-04-9.44631E-06-2.06795E-25
 -1       620 1.85644E-04-9.96718E-06 2.06795E-25
 -1       621 1.86903E-04 1.70758E-06 3.30872E-24
 -1       622 1.88452E-04 1.81117E-06 0.00000E+00
 -1       623 1.90128E-04 1.91454E-06 3.30872E-24
 -1       624 1.91898E-04 2.01758E-06 8.27181E-25
 -1       625 1.93727E-04 2.12032E-06-1.65436E-24
 -1       626 1.86074E-04 4.46295E-07 0.00000E+00
 -1       627 1.86611E-04-6.50025E-07 0.00000E+00
 -1       628 1.87128E-04-1.69249E-06 0.00000E+00
 -1       629 1.87628E-04-2.68915E-06 0.00000E+00
 -1       630 1.88114E-04-3.64811E-06-3.30872E-24
 -1       631 1.88589E-04-4.57746E-06-1.65436E-24
 -1       632 1.89056E-04-5.48528E-06 0.00000E+00
 -1       633 1.89518E-04-6.37972E-06-1.65436E-24
 -1       634 1.89978E-04-7.26884E-06 3.30872E-24
 -1       635 1.90439E-04-8.16076E-06 0.00000E+00
 -1       636 1.90904E-04-9.06360E-06 0.00000E+00
 -1       637 1.91376E-04-9.98544E-06-1.65436E-24
 -1       638 1.91858E-04-1.09344E-05 0.00000E+00
 -1       639 1.92353E-04-1.19186E-05-8.27181E-25
 -1       640 1.92864E-04-1.29462E-05 1.65436E-24
 -1       656 1.86397E-04-1.10584E-05-6.61744E-24
 -1       657 1.87559E-04-1.16576E-05 0.00000E+00
 -1       658 1.88998E-04-1.22554E-05 0.00000E+00
 -1       659 1.90572E-04-1.28529E-05 0.00000E+00
 -1       660 1.92097E-04-1.34522E-05 6.61744E-24
 -1       661 1.85930E-04-1.10432E-05 0.00000E+00
 -1       662 1.86247E-04-1.16957E-05 8.27181E-25
 -1       663 1.86595E-04-1.24346E-05 0.00000E+00
 -1       664 1.86975E-04-1.32536E-05-8.27181E-25
 -1       665 1.87381E-04-1.41468E-05-1.65436E-24
 -1       666 1.87814E-04-1.51082E-05 8.27181E-25
 -1       667 1.88270E-04-1.61321E-05 0.00000E+00
 -1       668 1.88747E-04-1.72129E-05 0.00000E+00
 -1       669 1.89244E-04-1.83452E-05-1.65436E-24
 -1       670 1.89757E-04-1.95236E-05 0.00000E+00
 -1       671 1.90286E-04-2.07428E-05 0.00000E+00
 -1       672 1.90828E-04-2.19977E-05 0.00000E+00
 -1       673 1.91382E-04-2.32833E-05-1.65436E-24
 -1       674 1.91944E-04-2.45948E-05-4.13590E-25
 -1       675 1.92514E-04-2.59267E-05 0.00000E+00
 -1       676 1.86152E-04-2.67617E-05 0.00000E+00
 -1       677 1.87544E-04-2.68653E-05 1.65436E-24
 -1       678 1.88934E-04-2.69688E-05 0.00000E+00
 -1       679 1.90321E-04-2.70720E-05 0.00000E+00
 -1       680 1.91706E-04-2.71752E-05 1.65436E-24
 -1       771 1.76130E-05 1.76977E-05 0.00000E+00
 -1       772 7.04156E-06 4.09520E-05 0.00000E+00
 -1       773-1.59973E-06 5.93636E-05 0.00000E+00
 -1       774-8.44528E-06 7.32068E-05 2.64698E-23
 -1       775-1.36259E-05 8.27676E-05 0.00000E+00
 -1       776-1.72777E-05 8.83497E-05 2.64698E-23
 -1       777-1.95363E-05 9.02675E-05 0.00000E+00
 -1       778-2.05399E-05 8.88503E-05 2.64698E-23
 -1       779-2.04257E-05 8.44365E-05 0.00000E+00
 -1       780-1.93331E-05 7.73766E-05 2.64698E-23
 -1       781-1.73999E-05 6.80285E-05 0.00000E+00
 -1       782-1.47659E-05 5.67593E-05 2.64698E-23
 -1       783-1.15695E-05 4.39415E-05 1.05879E-22
 -1       784-7.95041E-06 2.99538E-05-2.64698E-23
 -1       785-4.04712E-06 1.51784E-05 5.29396E-23
 -1       786 1.94963E-04 3.28456E-05-1.29247E-26
 -1       787 1.95003E-04 3.06087E-05-4.13590E-25
 -1       788 1.95043E-04 2.84143E-05-8.27181E-25
 -1       789 1.95084E-04 2.62541E-05 0.00000E+00
 -1       790 1.95125E-04 2.41234E-05 0.00000E+00
 -1       791 1.95166E-04 2.20174E-05 0.00000E+00
 -1       792 1.95207E-04 1.99338E-05-1.65436E-24
 -1       793 1.95248E-04 1.78703E-05 0.00000E+00
 -1       794 1.95290E-04 1.58266E-05-1.65436E-24
 -1       795 1.95331E-04 1.38024E-05 0.00000E+00
 -1       796 1.95372E-04 1.17995E-05-1.65436E-24
 -1       797 1.95414E-04 9.81948E-06 8.27181E-25
 -1       798 1.95455E-04 7.86636E-06 0.00000E+00
 -1       799 1.95497E-04 5.94416E-06-8.27181E-25
 -1       800 1.95539E-04 4.05995E-06-1.65436E-24
 -1       801 1.48715E-04 3.15974E-05 2.64698E-23
 -1       802 8.99940E-06 1.96962E-05 0.00000E+00
 -1       803-1.10391E-04 9.92808E-06-5.29396E-23
 -1       804-9.80847E-05 6.92194E-06 2.64698E-23
 -1       805-3.28120E-05 2.72327E-06 5.29396E-23
 -1       806 1.95669E-04 3.27772E-05-1.65436E-24
 -1       807 1.96398E-04 3.04482E-05 1.65436E-24
 -1       808 1.97114E-04 2.81512E-05-3.30872E-24
 -1       809 1.97816E-04 2.58901E-05 1.65436E-24
 -1       810 1.98503E-04 2.36691E-05 3.30872E-24
 -1       811 1.99174E-04 2.14918E-05 1.65436E-24
 -1       812 1.99827E-04 1.93622E-05-3.30872E-24
 -1       813 2.00460E-04 1.72841E-05 0.00000E+00
 -1       814 2.01073E-04 1.52614E-05-3.30872E-24
 -1       815 2.01664E-04 1.32977E-05 1.65436E-24
 -1       816 2.02232E-04 1.13971E-05 1.65436E-24
 -1       817 2.02775E-04 9.56316E-06 1.65436E-24
 -1       818 2.03291E-04 7.79979E-06 0.00000E+00
 -1       819 2.03780E-04 6.11077E-06 8.27181E-25
 -1       820 2.04240E-04 4.49983E-06 1.65436E-24
 -1       821 1.95452E-04-1.39150E-07 0.00000E+00
 -1       822 1.95312E-04-3.58096E-06-1.65436E-24
 -1       823 1.95171E-04-7.69785E-06 0.00000E+00
 -1       824 1.95027E-04-1.20789E-05 0.00000E+00
 -1       825 1.94884E-04-1.62420E-05 3.30872E-24
 -1       826 1.94743E-04-1.97064E-05 0.00000E+00
 -1       827 1.94605E-04-2.21809E-05 0.00000E+00
 -1       828 1.94469E-04-2.33806E-05-1.65436E-24
 -1       829 1.94334E-04-2.33665E-05-3.30872E-24
 -1       830 1.94198E-04-2.22070E-05-1.65436E-24
 -1       831 1.94061E-04-2.02814E-05 3.30872E-24
 -1       832 1.93923E-04-1.79738E-05-1.65436E-24
 -1       833 1.93786E-04-1.57720E-05 0.00000E+00
 -1       834 1.93652E-04-1.41631E-05 0.00000E+00
 -1       835 1.93518E-04-1.34739E-05 8.27181E-25
 -1       836 1.97307E-04 2.34520E-06 0.00000E+00
 -1       837 1.98909E-04 2.47266E-06 1.65436E-24
 -1       838 2.00415E-04 2.60007E-06 0.00000E+00
 -1       839 2.01857E-04 2.72678E-06 0.00000E+00
 -1       840 2.03266E-04 2.85334E-06 8.27181E-25
 -1       856 1.93376E-04-1.51268E-05 0.00000E+00
 -1       857 1.93357E-04-1.60936E-05-2.58494E-26
 -1       858 1.93339E-04-1.69465E-05 0.00000E+00
 -1       859 1.93320E-04-1.77067E-05 2.06795E-25
 -1       860 1.93301E-04-1.83950E-05-4.13590E-25
 -1       861 1.93282E-04-1.90328E-05 0.00000E+00
 -1       862 1.93262E-04-1.96411E-05-4.13590E-25
 -1       863 1.93243E-04-2.02410E-05 2.06795E-25
 -1       864 1.93224E-04-2.08538E-05-4.13590E-25
 -1       865 1.93205E-04-2.15006E-05-4.13590E-25
 -1       866 1.93186E-04-2.22026E-05-8.27181E-25
 -1       867 1.93166E-04-2.29808E-05 0.00000E+00
 -1       868 1.93147E-04-2.38564E-05 0.00000E+00
 -1       869 1.93127E-04-2.48502E-05-4.13590E-25
 -1       870 1.93107E-04-2.59832E-05 8.27181E-25
 -1       871 1.94780E-04-1.40303E-05 0.00000E+00
 -1       872 1.96314E-04-1.40387E-05 0.00000E+00
 -1       873 1.97928E-04-1.40478E-05 0.00000E+00
 -1       874 1.99553E-04-1.40577E-05 3.87741E-25
 -1       875 2.01120E-04-1.40681E-05-1.44757E-24
 -1       876 1.93931E-04-1.51123E-05-3.30872E-24
 -1       877 1.94449E-04-1.61329E-05 0.00000E+00
 -1       878 1.94944E-04-1.70951E-05 0.00000E+00
 -1       879 1.95422E-04-1.80063E-05-1.65436E-24
 -1       880 1.95882E-04-1.88736E-05 0.00000E+00
 -1       881 1.96330E-04-1.97046E-05 1.65436E-24
 -1       882 1.96766E-04-2.05064E-05 0.00000E+00
 -1       883 1.97194E-04-2.12864E-05-1.65436E-24
 -1       884 1.97617E-04-2.20518E-05 0.00000E+00
 -1       885 1.98037E-04-2.28100E-05 0.00000E+00
 -1       886 1.98457E-04-2.35681E-05 3.30872E-24
 -1       887 1.98879E-04-2.43336E-05 1.65436E-24
 -1       888 1.99307E-04-2.51136E-05 0.00000E+00
 -1       889 1.99742E-04-2.59157E-05-1.65436E-24
 -1       890 2.00188E-04-2.67471E-05 0.00000E+00
 -1       891 1.94486E-04-2.73335E-05 1.65436E-24
 -1       892 1.95863E-04-2.73909E-05 8.27181E-25
 -1       893 1.97192E-04-2.74482E-05 0.00000E+00
 -1       894 1.98448E-04-2.75052E-05 8.27181E-25
 -1       895 1.99605E-04-2.75620E-05-4.13590E-25
 -1       956 2.04542E-04 1.61525E-06-1.65436E-24
 -1       957 2.04410E-04 3.51037E-07-1.65436E-24
 -1       958 2.04278E-04-8.32711E-07 3.30872E-24
 -1       959 2.04146E-04-1.94731E-06-1.65436E-24
 -1       960 2.04014E-04-3.00415E-06-3.30872E-24
 -1       961 2.03881E-04-4.01461E-06 1.65436E-24
 -1       962 2.03749E-04-4.99012E-06 3.30872E-24
 -1       963 2.03617E-04-5.94211E-06 1.65436E-24
 -1       964 2.03485E-04-6.88202E-06 0.00000E+00
 -1       965 2.03353E-04-7.82126E-06 1.65436E-24
 -1       966 2.03220E-04-8.77128E-06-3.30872E-24
 -1       967 2.03088E-04-9.74350E-06 0.00000E+00
 -1       968 2.02956E-04-1.07493E-05-6.61744E-24
 -1       969 2.02824E-04-1.18002E-05-3.30872E-24
 -1       970 2.02693E-04-1.29074E-05 0.00000E+00
 -1       971 2.02444E-04-1.52567E-05 0.00000E+00
 -1       972 2.02323E-04-1.63376E-05 0.00000E+00
 -1       973 2.02202E-04-1.73352E-05 3.30872E-24
 -1       974 2.02081E-04-1.82601E-05-1.65436E-24
 -1       975 2.01961E-04-1.91230E-05-3.30872E-24
 -1       976 2.01840E-04-1.99349E-05 1.65436E-24
 -1       977 2.01719E-04-2.07063E-05-3.30872E-24
 -1       978 2.01598E-04-2.14483E-05 0.00000E+00
 -1       979 2.01478E-04-2.21715E-05-3.30872E-24
 -1       980 2.01357E-04-2.28868E-05 0.00000E+00
 -1       981 2.01236E-04-2.36049E-05 0.00000E+00
 -1       982 2.01116E-04-2.43368E-05 0.00000E+00
 -1       983 2.00995E-04-2.50932E-05 0.00000E+00
 -1       984 2.00875E-04-2.58848E-05 1.65436E-24
 -1       985 2.00756E-04-2.67226E-05 0.00000E+00
 -3
    1PSTEP                        48          24           1          
  100CL  124 6.58397E-01         409                     0   24           1
 -4  STRESS      6    1
 -5  SXX         1    4    1    1
 -5  SYY         1    4    2    2
 -5  SZZ         1    4    3    3
 -5  SXY         1    4    1    2
 -5  SYZ         1    4    2    3
 -5  SZX         1    4    3    1
 -1         1-5.02422E+06-1.77388E+06-1.10460E+06-1.63357E+06 1.62981E-09-1.34809E-07
 -1         2-6.80840E+03-6.07033E+06-2.02501E+04-1.47867E+05-7.01903E-10 2.34382E-07
 -1         3-1.44249E+03-1.33035E+06 3.29389E+02-1.86110E+03-4.86967E-10-9.60645E-08
 -1         5-7.87585E+01 3.84577E+05 9.91956E+00-1.36141E+00-4.78867E-10-1.20071E-08
 -1         8-4.14194E+05-1.26280E+05-1.99537E+04-1.56961E+05-1.09139E-11-1.07208E-07
 -1         9 1.94430E+07-1.30325E+06 3.06051E+06-2.89771E+06 4.73694E-08-7.23638E-08
 -1        10-2.27239E+03-1.38624E+06-4.41317E+03-1.26250E+04-1.26802E-08-4.18609E-08
 -1        12-7.48727E+01 3.84598E+05 3.26355E+02-9.28216E+00-5.61032E-10-1.34969E-08
 -1        15 9.66034E+02 5.30885E+02 3.12268E+03 1.17304E+00-6.55746E-10-5.64860E-07
 -1        16 3.85771E+07-7.55641E+05 4.99006E+06-4.37478E+06 1.35042E-08 1.61119E-07
 -1        17 1.32414E+07 1.24268E+07 4.06645E+06 1.10368E+07-1.20024E-08-3.71365E-09
 -1        18 1.42170E+05 3.35746E+04 4.22204E+03-1.19249E+05 1.66335E-08 1.27534E-08
 -1        19 1.21913E+05 1.40950E+05-9.48114E+02 2.18480E+04 1.60417E-09 2.35414E-09
 -1        20-8.23045E+04-5.71289E+05-1.28240E+05 2.46542E+04-2.29738E-09-5.07619E-09
 -1        21-4.51551E+01-2.93973E+05-9.16817E+02 2.80758E+02 1.38469E-08-2.80394E-08
 -1        24 2.25339E+07 2.23095E+07 6.30022E+06 2.04361E+07-2.11333E-07-5.25421E-08
 -1        25 1.30150E+05 2.90496E+05 1.05530E+05-6.54554E+05-1.01663E-09 5.79166E-09
 -1        26-5.61474E+04 9.16153E+04-2.47313E+04 1.70939E+03-2.32467E-10 1.93517E-09
 -1        27-7.50702E+04-3.08581E+05-1.12770E+05 6.86172E+04 3.62797E-09 1.18052E-09
 -1        28 2.20728E+04-8.48490E+04 1.67862E+04 2.03303E+04-5.05932E-09 5.36964E-10
 -1        32-1.66789E+06-3.21961E+06-2.05766E+05 4.69099E+05-4.51546E-08-1.14370E-08
 -1        33-1.77734E+05 9.25936E+04 3.22387E+04-3.79105E+04-3.31147E-09 1.90494E-08
 -1        34-2.22447E+05-2.49606E+04 6.90546E+02 7.54218E+04-5.78282E-09 3.13275E-09
 -1        35-2.27638E+04-3.36483E+04-1.34079E+03 5.11413E+04-4.25269E-09-1.22479E-10
 -1        51 5.75585E+04-1.56749E+05 1.22819E+05-4.99845E+05-2.47383E-10-6.38101E-08
 -1        52 1.97548E+04-1.35783E+05 6.48789E+04-5.82609E+05-1.12777E-10-4.18702E-07
 -1        53 4.36987E+03-1.51475E+05 3.44218E+04-4.97958E+05 6.49379E-10-4.63260E-07
 -1        54 8.56883E+03-1.47633E+05 2.96340E+04-5.84606E+05-6.36646E-10-1.67100E-07
 -1        55 1.83502E+04-1.55498E+05 3.76042E+04-4.97676E+05 8.73115E-10 1.20213E-07
 -1        56-9.41414E+06-1.15421E+06-8.36836E+05-3.78003E+06 2.91620E-08-1.22731E-07
 -1        57-1.01358E+07-1.40127E+06-5.45867E+05-3.20955E+06 2.01071E-08-2.25875E-07
 -1        58-9.41479E+06-1.54308E+06-1.95269E+05-3.87594E+06 2.05837E-08-2.58784E-07
 -1        59-1.01616E+07-9.30323E+05-1.12748E+05-3.12533E+06 6.03450E-09-3.75185E-07
 -1        60-9.41374E+06-1.59681E+06-4.46065E+04-3.88904E+06-2.03822E-08 9.16516E-08
 -1        61-1.00111E+07-9.78289E+05-1.90234E+04-3.20970E+06-3.10083E-08 1.09809E-07
 -1        62-9.54680E+06-1.50608E+06-2.28486E+04-3.77777E+06 1.75351E-08 1.40291E-07
 -1        63-9.66240E+06-1.26046E+06 3.69163E+03-3.49028E+06 1.19253E-08-1.85343E-07
 -1        64-9.72954E+06-1.33724E+06-2.65612E+04-3.58418E+06-3.93411E-08-5.94209E-08
 -1        65-9.36785E+06-1.58391E+06-1.21951E+04-3.87244E+06-9.63337E-08-7.33987E-07
 -1        66-9.85284E+06-1.17507E+06-4.57548E+04-3.40534E+06 2.90893E-08-1.76982E-07
 -1        67-9.26626E+06-1.81097E+06-1.01036E+05-4.13342E+06-2.67155E-08-2.26990E-07
 -1        68-9.86746E+06-1.08639E+06-1.73612E+05-3.34832E+06 1.80444E-09-3.35727E-07
 -1        69-9.44711E+06-2.07029E+06-4.97907E+05-4.05011E+06-1.77399E-07-2.51399E-07
 -1        70-9.66938E+06-9.27622E+05-7.53484E+05-3.48271E+06-2.85218E-09-1.44442E-07
 -1        86 2.58382E+03-6.10615E+06-3.10550E+04 7.39281E+04 1.01090E-08-1.05608E-07
 -1        87-2.37274E+04-6.08800E+06-5.38015E+04-1.66580E+05 1.58689E-08-4.04411E-07
 -1        88 2.18888E+04-6.09043E+06-9.10757E+04 9.26520E+04 7.32325E-09-1.99272E-07
 -1        89-1.66855E+05-6.14577E+06-2.35776E+05-4.08960E+04 8.06540E-09 6.27542E-08
 -1        90 1.43009E+05-6.04732E+06-3.46360E+05-5.17707E+04-6.85395E-09-5.25461E-09
 -1       121-1.97012E+03-1.33507E+06-6.06416E+02 9.21388E+02 1.46856E-09-3.82424E-08
 -1       122-1.28647E+03-1.33040E+06 6.04290E+02-3.73019E+03-5.34786E-09-1.66474E-08
 -1       123-1.98768E+03-1.33518E+06-4.32929E+00 2.75404E+03 4.48847E-09-2.05509E-08
 -1       124 9.67289E+01-1.33002E+06 2.27514E+03-7.88630E+03-9.95760E-09-4.66389E-09
 -1       125-2.67364E+03-1.33593E+06 2.35412E+03 5.03223E+03 6.66660E-09-5.20595E-09
 -1       191-8.29792E+01 3.84594E+05 8.23382E+00 7.11451E-01-5.81650E-10-5.94810E-10
 -1       192-7.97188E+01 3.84577E+05 2.11780E+01-4.37774E+00-7.88331E-10-2.15723E-08
 -1       193-8.55054E+01 3.84594E+05 3.58616E+01 3.85438E+00-1.04143E-09-2.48147E-08
 -1       194-8.27967E+01 3.84581E+05 8.05333E+01-9.94143E+00-6.07564E-10-2.36541E-08
 -1       195-9.03540E+01 3.84591E+05 1.53990E+02 6.48090E+00-1.51734E-09-2.48892E-08
 -1       251-2.28532E+06-6.53131E+04-2.67754E+05-1.70418E+05 1.41881E-09-1.46028E-07
 -1       252-8.13834E+05 8.04286E+04 1.05643E+05 5.22073E+05-1.85400E-08 2.47899E-07
 -1       253-1.65279E+06-2.56823E+04-4.59721E+04-3.43236E+05 1.35205E-08 3.66008E-08
 -1       254-1.51038E+06 9.66809E+04 1.92482E+04 6.86882E+05-5.48198E-10-8.02297E-08
 -1       255-1.65719E+06-2.55552E+04-2.59345E+04-3.42718E+05 2.05710E-08-2.47521E-07
 -1       256-8.03547E+05 7.67699E+04 1.59431E+05 5.19231E+05-3.80078E-09 1.34516E-07
 -1       257-2.29023E+06-6.25752E+04-1.57795E+05-1.68047E+05-2.65463E-08 1.07339E-07
 -1       258-6.64659E+04 5.66689E+04 2.97757E+05 1.98529E+04 3.37641E-08 5.99648E-08
 -1       259-2.32153E+06-6.48119E+04-1.62635E+05 1.52293E+05-5.12155E-08 1.04665E-08
 -1       260-7.29749E+05 7.80968E+04 1.78743E+05-4.93865E+05 2.67983E-08-5.31654E-08
 -1       261-1.69237E+06-3.06051E+04-2.34280E+04 3.40217E+05 1.01445E-07-1.29451E-07
 -1       262-1.50222E+06 1.10734E+05 4.54833E+04-6.83059E+05-7.16282E-08-2.36579E-07
 -1       263-1.62530E+06-3.50063E+04 1.77874E+03 3.49614E+05 9.86984E-09 1.74473E-07
 -1       264-8.54209E+05 1.62222E+05 2.03224E+05-5.43564E+05 1.81284E-07 2.33927E-07
 -1       265-2.27971E+06-1.31530E+05-1.01840E+05 1.93651E+05 5.01605E-08 1.58929E-07
 -1       266-1.74886E+04-8.17852E+03 4.10297E+04-2.50976E+01 6.73026E-10-1.62789E-07
 -1       267 2.02739E+04 9.53102E+03 2.90011E+04 2.89600E+01 1.14596E-10-1.09736E-07
 -1       268-2.71871E+03-1.34992E+03 1.07795E+04-3.68988E+00-1.17780E-10-2.21054E-08
 -1       269 3.20998E+03 1.61550E+03 7.00657E+03 4.29830E+00-7.19410E-10-6.53621E-09
 -1       270-4.81822E+02-2.65442E+02 3.38217E+03-5.83302E-01-3.23666E-10 1.32531E-08
 -1       271-1.56543E+06-1.80319E+05-1.15419E+05-5.87640E+05-2.60479E-09 5.18932E-07
 -1       272-1.69584E+06-1.75547E+05-7.41720E+04-4.86575E+05 7.84348E-09-3.33901E-07
 -1       273-1.58533E+06-2.10719E+05-2.71932E+04-5.84648E+05 3.34603E-08-2.54038E-07
 -1       274-1.67302E+06-1.37907E+05-1.52504E+04-4.91761E+05-5.75824E-08 1.97641E-07
 -1       275-1.58803E+06-2.14074E+05-6.30707E+03-5.84069E+05 1.14596E-09 3.42856E-07
 -1       276-1.66819E+06-1.35009E+05-3.26198E+03-4.93273E+05 3.47009E-08 4.08898E-07
 -1       277-1.58937E+06-2.13701E+05-1.70412E+03-5.82749E+05-3.17759E-08 6.22640E-09
 -1       278-1.66331E+06-1.37824E+05-8.21415E+02-4.95715E+05 2.73540E-08-2.29937E-07
 -1       279-1.59119E+06-2.12296E+05-1.26061E+03-5.80419E+05-9.14661E-08-4.11628E-08
 -1       280-1.65651E+06-1.42986E+05-1.07462E+03-4.99560E+05-9.32778E-09 3.18156E-07
 -1       281-1.59368E+06-2.10108E+05-3.17554E+03-5.77157E+05-1.91394E-08 9.05293E-08
 -1       282-1.64879E+06-1.51164E+05-5.28610E+03-5.04764E+05-1.23982E-08 2.11641E-07
 -1       283-1.59598E+06-2.06122E+05-1.13800E+04-5.73134E+05-2.89110E-08 2.74540E-08
 -1       284-1.64718E+06-1.72947E+05-2.72273E+04-5.09974E+05-4.16130E-08 8.91796E-08
 -1       285-1.59242E+06-1.91643E+05-4.50699E+04-5.69428E+05-5.48607E-09-1.02145E-07
 -1       301-3.18387E+03-8.65192E+05 1.34342E+05-1.28293E+06 2.34286E-09-2.34584E-07
 -1       302-3.34132E+03-8.28324E+05 8.01941E+04-1.87530E+06-1.23691E-09 1.02773E-08
 -1       303-1.77947E+04-8.55318E+05 4.25266E+04-1.28024E+06-1.60071E-10 1.82044E-08
 -1       304-2.59895E+04-8.19508E+05 3.86854E+04-1.87312E+06-2.02272E-09 2.32387E-07
 -1       305-3.57815E+04-8.27832E+05 3.94278E+04-1.28415E+06 1.20053E-09-8.30187E-08
 -1       306-4.65559E+07-8.45159E+06-1.33288E+07 1.89117E+06-1.52271E-07 2.78407E-07
 -1       307 4.36363E+07 9.43886E+06 9.62100E+06-2.25622E+07-7.45131E-07-3.10392E-07
 -1       308-4.60111E+06-3.61878E+06-8.37248E+05 7.67271E+06 1.76573E-07-5.24742E-08
 -1       309-9.27676E+05 2.09679E+07 4.71066E+06-2.64893E+07 5.17233E-07-4.04325E-07
 -1       310-1.64190E+07-5.55588E+06-4.12890E+06 9.76450E+06-3.15718E-07-2.54251E-07
 -1       311 6.87143E+07 2.85998E+06 1.28061E+07-1.25066E+07-2.16067E-07-6.91507E-08
 -1       312-5.01262E+07-8.55922E+06-1.35832E+07-8.16712E+06-1.54949E-07-2.72259E-07
 -1       313 7.13528E+07 3.12399E+07 1.78228E+07 4.14985E+07-7.34697E-07 3.43425E-07
 -1       314-2.01425E+07-3.21776E+07-1.18941E+07-1.92609E+07 3.69910E-07 1.55065E-07
 -1       315-3.65827E+05 5.15449E+07 9.53208E+06 1.26750E+07 2.79630E-07-8.45641E-07
 -1       316 3.46349E+06-1.21367E+07-8.13368E+05 1.40837E+06 4.68432E-07-9.46427E-07
 -1       317-1.25252E+07 3.25989E+07 4.69866E+06-1.81552E+07 2.66300E-09-1.25704E-06
 -1       318 1.67289E+04-2.14109E+07-4.19193E+06-2.09818E+06-1.40553E-06 5.85569E-08
 -1       319 1.45166E+07 5.98319E+07 1.29326E+07 2.65017E+07-1.03182E-06 1.73459E-07
 -1       320-3.16944E+07-3.04347E+07-1.54462E+07-2.15563E+07-4.55300E-07-3.20142E-08
 -1       336-8.95640E+02-1.44515E+06-1.40581E+04 7.42559E+03-2.62808E-08-1.78479E-08
 -1       337-5.79520E+03-1.44461E+06-1.99873E+04-1.82367E+04-4.94024E-08 1.10413E-08
 -1       338 5.93726E+02-1.44418E+06-3.27642E+04 1.05587E+04-3.39987E-08-1.29694E-08
 -1       339-3.57406E+04-1.46465E+06-7.53073E+04-2.44764E+04-6.15546E-08-1.56579E-08
 -1       340 2.35691E+04-1.42697E+06-1.18791E+05 1.35007E+04-4.11674E-08 2.98933E-08
 -1       406-5.34772E+01 3.84577E+05 6.40595E+02 3.39087E+00-1.89878E-09 1.61144E-08
 -1       407 1.50191E+02 3.84711E+05 1.36943E+03 2.40600E+01-5.75490E-10-5.16593E-09
 -1       408 6.27587E+02 3.84477E+05 2.73028E+03-2.77416E+01-2.40243E-09-1.31149E-09
 -1       409 2.88821E+03 3.85583E+05 6.15424E+03 2.95897E+02-2.81148E-10-2.08056E-08
 -1       410 8.43223E+03 3.83690E+05 1.25604E+04-2.85172E+02-2.90856E-09-4.46744E-09
 -1       521-4.51613E+07-1.19498E+07-1.58843E+07 2.56947E+06-1.14320E-07-9.38307E-08
 -1       522 4.12221E+07 1.23692E+07 9.01292E+06-2.92790E+07-6.14644E-07-7.02916E-07
 -1       523-4.61887E+06-3.78436E+06-5.21968E+05 7.70145E+06 1.53261E-07-4.85685E-07
 -1       524-1.08271E+07 2.73692E+07 4.56911E+06-2.99691E+07 1.27844E-06-4.72166E-07
 -1       525-1.56774E+07-6.55635E+06-4.20010E+06 9.32877E+06 9.98960E-07-4.26080E-07
 -1       526 7.22675E+07 2.45013E+06 1.23759E+07-1.78515E+07 5.53089E-07 1.01922E-07
 -1       527-4.94130E+07-1.26005E+07-1.60299E+07-6.95539E+06 2.63099E-07 1.80356E-07
 -1       528 7.56487E+07 3.40959E+07 1.72135E+07 4.72208E+07 8.38190E-08-1.23342E-07
 -1       529-2.08407E+07-3.38605E+07-1.37678E+07-1.65331E+07-3.05008E-08-2.12574E-07
 -1       530-5.88991E+06 5.82993E+07 9.32218E+06 8.09241E+06-1.54396E-07 1.34716E-06
 -1       531 3.19149E+06-1.23438E+07-4.57610E+05 1.68030E+06-1.20440E-06 6.47269E-07
 -1       532-1.45504E+07 3.08330E+07 4.54839E+06-2.77269E+07 5.24218E-07-1.14704E-06
 -1       533-5.60639E+05-2.05860E+07-4.16402E+06-1.03869E+06-5.07833E-07-1.26136E-06
 -1       534 9.00683E+06 6.73934E+07 1.21716E+07 2.51312E+07-6.74918E-08 9.74163E-07
 -1       535-3.20672E+07-3.30440E+07-1.83190E+07-1.88143E+07 1.85100E-07 5.86035E-07
 -1       536-6.98738E+05-3.00225E+04-8.69850E+04-5.45576E+04-5.60703E-10 5.31354E-08
 -1       537-6.35330E+04 2.53149E+04 5.66045E+04 1.23838E+05-1.16325E-07 1.01625E-07
 -1       538-3.93044E+05 5.97744E+03-6.45580E+03-7.22836E+04 2.97921E-08 1.09879E-07
 -1       539-2.70439E+05-1.84851E+02 1.86433E+04 1.38874E+05 1.63768E-07 1.17124E-07
 -1       540-4.97210E+05-2.27608E+01-2.38990E+04-7.01283E+04 1.11113E-08 7.80988E-08
 -1       541 1.46758E+05 1.65055E+04 1.04968E+05 9.79586E+04-4.82626E-08 8.09728E-08
 -1       542-7.99032E+05-2.00783E+04-8.49174E+04-3.04938E+04 4.77307E-08 3.74650E-08
 -1       543 4.05620E+05 2.72613E+04 1.57673E+05-1.33936E+04 7.90169E-09-3.16527E-08
 -1       544-7.49134E+05-1.65327E+04-7.50158E+04 4.05531E+04-3.95216E-08-6.15576E-08
 -1       545 2.90785E+04 9.48074E+03 7.97428E+04-1.13658E+05-8.14634E-09-8.30612E-08
 -1       546-4.32604E+05 6.09555E+03-1.22661E+04 6.94248E+04 3.86901E-08-8.59969E-08
 -1       547-2.87079E+05-4.64540E+03 1.05771E+04-1.41604E+05-1.27529E-07-1.08953E-07
 -1       548-4.41476E+05 4.71165E+03-2.38864E+04 6.91914E+04-1.10627E-07-8.83938E-08
 -1       549 4.83510E+04 1.61180E+04 6.05787E+04-1.11512E+05-5.99457E-08-6.51846E-08
 -1       550-7.59059E+05-2.21784E+04-1.28953E+05 3.86162E+04 9.75706E-09-3.51010E-08
 -1       551 2.54827E+04-5.72389E+05-4.33769E+04-1.04997E+06-1.02431E-07-7.85803E-10
 -1       552 7.09780E+04-6.15179E+05-7.55328E+03-1.49490E+06-7.37346E-08 2.90602E-08
 -1       553 5.78140E+04-6.12513E+05 2.02275E+04-1.04364E+06-1.19035E-07 2.21917E-08
 -1       554 1.11363E+05-6.31358E+05 6.68799E+04-1.49750E+06-7.67177E-08 3.02098E-08
 -1       555 8.85264E+04-6.39816E+05 1.28053E+05-1.04233E+06-1.28173E-07-1.18125E-08
 -1       556 2.26620E+05-3.91027E+05-1.56260E+04-4.01947E+05-2.31666E-08-1.13505E-08
 -1       557 3.48853E+05-4.93373E+05-5.30226E+03-5.27529E+05-3.09956E-09 2.52076E-08
 -1       558 2.05776E+05-3.76398E+05-6.73252E+03-4.11362E+05-2.23226E-08 3.39060E-09
 -1       559 3.28829E+05-4.88089E+05-2.02288E+03-5.48029E+05 0.00000E+00 6.76664E-10
 -1       560 1.90228E+05-3.66661E+05-3.54604E+03-4.22561E+05 4.68572E-09 5.90808E-09
 -1       561 3.09934E+05-4.80194E+05-8.65971E+02-5.61070E+05-3.78350E-09-2.43745E-09
 -1       562 1.78090E+05-3.59180E+05-1.78946E+03-4.31320E+05 2.03727E-10-9.15315E-09
 -1       563 2.95605E+05-4.73927E+05-2.62552E+02-5.70436E+05 9.45874E-10-2.94267E-08
 -1       564 1.69448E+05-3.53811E+05-7.06321E+02-4.37436E+05 8.41101E-09-1.23696E-08
 -1       565 2.86081E+05-4.69777E+05-2.81282E+01-5.76521E+05 2.57569E-09-7.10588E-09
 -1       566 1.64398E+05-3.50620E+05-2.85666E+02-4.40966E+05-1.33077E-08-1.51358E-08
 -1       567 2.81448E+05-4.67762E+05-3.77633E+02-5.79334E+05 1.37843E-08-7.96717E-10
 -1       568 1.63027E+05-3.49781E+05-1.13800E+03-4.42021E+05-1.11932E-08-3.33239E-09
 -1       569 2.80321E+05-4.67692E+05-2.86208E+03-5.77906E+05-1.27875E-09 2.69501E-08
 -1       570 1.66427E+05-3.53020E+05-6.24793E+03-4.40998E+05 8.60018E-09 2.44854E-08
 -1       571 2.89518E+05 1.04724E+04 1.49271E+04-9.52596E+04 1.05047E-08 6.18274E-09
 -1       572 2.91680E+05 3.95381E+03 7.31548E+03-1.04512E+05 2.22758E-08 4.55202E-10
 -1       573 2.90378E+05 1.24968E+03 3.25052E+03-9.50842E+04 1.43491E-08 3.00679E-09
 -1       574 2.90590E+05 7.34133E+02 1.63012E+03-1.04735E+05 4.44197E-09 1.02382E-08
 -1       575 2.90471E+05 4.55031E+02 7.69396E+02-9.50602E+04 9.61332E-09 5.41513E-09
 -1       576 2.90455E+05 4.67040E+02 3.93976E+02-1.04765E+05 8.43102E-09 2.35013E-09
 -1       577 2.90512E+05 3.96729E+02 1.96745E+02-9.50569E+04 1.01409E-09 1.99125E-08
 -1       578 2.90486E+05 4.28602E+02 1.13827E+02-1.04769E+05-9.25002E-09 1.65246E-08
 -1       579 2.90585E+05 3.59581E+02 7.84319E+01-9.50566E+04 8.59836E-09-1.35242E-09
 -1       580 2.90589E+05 3.77116E+02 9.14588E+01-1.04764E+05-3.56249E-09 5.57247E-09
 -1       581 2.90699E+05 3.00588E+02 1.38501E+02-9.50626E+04 7.45240E-09 9.50968E-09
 -1       582 2.90765E+05 3.39659E+02 2.81860E+02-1.04702E+05-1.18416E-09 2.00180E-09
 -1       583 2.90840E+05 3.43809E+02 5.41159E+02-9.51193E+04-1.29876E-09 3.00315E-09
 -1       584 2.91143E+05 7.86354E+02 1.22466E+03-1.04224E+05 2.13367E-09 1.55928E-08
 -1       585 2.90865E+05 1.81704E+03 2.48000E+03-9.55397E+04-1.77715E-09 1.61672E-08
 -1       586-3.41551E+03 1.16852E+05-2.88177E+03-2.49814E+05-2.22326E-09 1.32816E-08
 -1       587-1.34887E+03 1.16610E+05 7.84837E+02-2.74941E+05-6.58110E-09-1.77945E-08
 -1       588 3.82188E+02 1.16413E+05 4.75819E+03-2.49677E+05-3.26509E-09 1.15178E-08
 -1       589 5.05833E+03 1.18884E+05 1.23272E+04-2.74707E+05-5.68980E-09 6.89761E-09
 -1       590 1.65655E+04 1.15081E+05 2.58537E+04-2.50108E+05-6.11726E-09 1.95669E-08
 -1       591-7.48963E+04-1.58471E+04-2.24738E+04-3.17824E+04 2.99679E-10 8.11815E-09
 -1       592-7.90199E+04-1.93516E+04-1.21736E+04-3.53477E+04-2.15941E-10-1.17893E-09
 -1       593-7.71432E+04-1.42169E+04-5.06726E+03-3.34309E+04 5.68291E-09-6.24118E-09
 -1       594-7.59176E+04-1.60531E+04-2.52717E+03-3.54643E+04-9.29404E-10-3.78691E-09
 -1       595-7.73145E+04-1.42116E+04-1.16020E+03-3.35058E+04-2.99904E-09 1.79002E-08
 -1       596-7.57052E+04-1.59022E+04-5.89537E+02-3.54389E+04 9.40737E-09 1.99042E-08
 -1       597-7.73360E+04-1.42270E+04-3.20480E+02-3.35086E+04 2.00527E-09 1.34686E-08
 -1       598-7.56842E+04-1.58963E+04-2.56637E+02-3.54318E+04-6.68865E-09-2.53501E-08
 -1       599-7.73348E+04-1.42275E+04-3.26585E+02-3.35083E+04-3.90492E-09-2.46700E-08
 -1       600-7.57052E+04-1.59027E+04-6.05704E+02-3.54368E+04 1.75885E-09 1.48976E-08
 -1       601-7.73103E+04-1.42130E+04-1.19440E+03-3.35049E+04-9.70203E-10 2.74804E-09
 -1       602-7.59239E+04-1.60569E+04-2.60282E+03-3.54591E+04-3.77349E-09-1.45134E-08
 -1       603-7.71312E+04-1.42214E+04-5.21957E+03-3.34286E+04 4.57385E-09 9.54969E-12
 -1       604-7.91371E+04-1.94347E+04-1.25387E+04-3.53141E+04 5.88540E-09-1.72936E-08
 -1       605-7.47967E+04-1.59183E+04-2.31479E+04-3.17502E+04 5.58623E-09 5.09226E-09
 -1       606 2.62742E+04-1.42838E+04-2.56064E+04 2.35435E+04 5.62522E-09-2.93494E-09
 -1       607 2.18990E+04-4.66513E+03-1.27520E+04 2.64588E+04-1.73168E-09 1.85992E-08
 -1       608 2.43933E+04-8.41547E+02-5.70854E+03 2.33787E+04-3.80351E-09 1.45219E-08
 -1       609 2.39156E+04-2.88740E+02-2.88383E+03 2.66690E+04 4.05998E-09 1.56563E-08
 -1       610 2.41812E+04-4.12953E+01-1.37584E+03 2.33590E+04-3.24781E-09 1.22000E-08
 -1       611 2.41065E+04-4.20130E+01-6.93690E+02 2.66917E+04-1.15306E-08-4.09682E-09
 -1       612 2.41349E+04-2.80598E+01-3.29690E+02 2.33570E+04-5.03769E-09 1.82308E-09
 -1       613 2.41188E+04-3.83333E+01-1.47652E+02 2.66944E+04 6.09680E-09 5.11341E-09
 -1       614 2.41134E+04-3.48096E+01-3.43647E+01 2.33563E+04 7.57700E-09 4.13388E-09
 -1       615 2.41141E+04-3.71594E+01 6.24817E+01 2.66948E+04 1.62622E-08-1.65330E-08
 -1       616 2.40964E+04-3.19517E+01 1.86818E+02 2.33566E+04 1.26493E-08 5.15388E-09
 -1       617 2.41370E+04 2.39541E+00 4.26002E+02 2.66943E+04-2.66664E-09 2.54095E-08
 -1       618 2.40597E+04 9.06600E+01 8.58602E+02 2.33569E+04-3.26372E-09 1.26968E-08
 -1       619 2.44403E+04 6.66107E+02 1.92800E+03 2.66938E+04-1.51397E-09 2.56273E-09
 -1       620 2.37747E+04 2.12649E+03 3.87522E+03 2.33586E+04 2.19484E-09 4.03497E-09
 -1       621 5.09386E+02 2.99950E+05 3.84997E+03 4.15192E+04 1.00954E-09-1.80444E-09
 -1       622 6.78076E+02 3.00836E+05 3.42324E+03 6.02751E+04 1.22145E-09 9.08949E-09
 -1       623 1.46720E+02 3.00139E+05 4.12100E+03 4.13313E+04 1.39357E-09 1.62217E-08
 -1       624 2.12526E+03 3.02048E+05 7.99551E+03 6.04602E+04 1.13715E-09 2.78533E-09
 -1       625 2.07446E+03 2.98552E+05 1.39746E+04 4.13279E+04 1.46019E-09 9.68612E-09
 -1       626 2.60029E+05 6.09748E+04 5.11027E+03 1.26007E+05 1.24555E-09-1.94777E-08
 -1       627 2.57747E+05 6.23374E+04 2.46258E+03 1.30236E+05-3.08773E-10 1.19525E-08
 -1       628 2.60155E+05 5.86384E+04 1.04154E+03 1.26878E+05-1.07048E-09-1.45951E-09
 -1       629 2.57116E+05 6.16562E+04 5.09744E+02 1.30473E+05 1.77160E-08 1.44591E-08
 -1       630 2.60170E+05 5.85253E+04 2.36573E+02 1.26915E+05 1.12295E-08 1.92243E-08
 -1       631 2.57050E+05 6.16299E+04 1.27419E+02 1.30475E+05 6.67956E-09 1.13096E-08
 -1       632 2.60167E+05 5.85290E+04 8.40402E+01 1.26912E+05 2.54977E-09-2.95495E-09
 -1       633 2.57042E+05 6.16316E+04 9.39277E+01 1.30472E+05-1.60255E-08-2.73644E-09
 -1       634 2.60163E+05 5.85261E+04 1.52064E+02 1.26911E+05-1.15206E-08 1.51992E-08
 -1       635 2.57057E+05 6.16298E+04 3.07867E+02 1.30478E+05-9.37951E-09 3.01688E-08
 -1       636 2.60154E+05 5.85202E+04 6.21833E+02 1.26911E+05-5.14774E-10-5.22732E-09
 -1       637 2.57192E+05 6.17264E+04 1.36734E+03 1.30477E+05 9.09040E-09 6.16023E-09
 -1       638 2.60105E+05 5.88222E+04 2.80938E+03 1.26775E+05 4.69799E-09 1.08130E-08
 -1       639 2.58667E+05 6.37790E+04 6.64717E+03 1.30043E+05 2.04204E-09 2.19168E-08
 -1       640 2.59901E+05 6.49516E+04 1.37941E+04 1.24192E+05-1.96223E-09-1.02982E-08
 -1       656 6.62680E+04-1.69644E+06-1.59969E+05-2.60863E+03-1.09139E-10-2.38463E-08
 -1       657-8.76698E+04-1.76873E+06-1.32531E+05 5.03128E+03-1.85537E-10-2.21456E-08
 -1       658 2.11267E+04-1.71697E+06-8.16304E+04-4.66524E+03 4.88399E-10-7.22611E-09
 -1       659-9.48224E+04-1.77213E+06-1.41930E+05 6.74847E+03-1.63163E-09 1.05656E-08
 -1       660 7.34045E+04-1.69305E+06-1.76130E+05-4.32580E+03-1.81171E-09 5.15541E-10
 -1       661 1.55938E+05 1.62951E+04 1.64931E+04 6.09624E+04 7.47150E-10-9.19954E-09
 -1       662 1.65284E+05 2.84880E+04 1.11152E+04 5.72373E+04-1.33804E-09-9.29595E-09
 -1       663 1.59178E+05 2.15867E+04 3.88739E+03 6.00225E+04-1.84457E-09-4.76462E-09
 -1       664 1.61529E+05 2.22999E+04 2.32550E+03 5.83854E+04-1.63257E-09 1.92799E-08
 -1       665 1.59669E+05 2.23094E+04 9.17404E+02 5.98791E+04 1.29273E-09 9.40724E-09
 -1       666 1.60947E+05 2.14733E+04 5.37065E+02 5.85722E+04 1.04964E-08 1.39481E-08
 -1       667 1.59755E+05 2.23917E+04 2.85539E+02 5.98433E+04-2.05949E-09 4.71451E-09
 -1       668 1.60852E+05 2.14141E+04 2.91553E+02 5.86242E+04-6.78021E-09-2.77846E-08
 -1       669 1.59763E+05 2.23670E+04 3.95237E+02 5.98274E+04-4.78587E-09-8.26324E-09
 -1       670 1.60949E+05 2.16285E+04 8.61097E+02 5.86268E+04-1.10042E-08 7.70589E-09
 -1       671 1.59659E+05 2.21818E+04 1.52911E+03 5.98388E+04 1.34225E-09 5.43167E-09
 -1       672 1.61840E+05 2.31159E+04 3.91232E+03 5.84104E+04 7.44625E-09-1.99179E-09
 -1       673 1.58876E+05 2.09173E+04 6.55647E+03 6.00293E+04 4.72619E-09 1.09781E-08
 -1       674 1.68081E+05 3.36494E+04 1.87502E+04 5.65769E+04-4.41196E-09 9.68384E-10
 -1       675 1.53458E+05 1.19433E+04 2.78318E+04 6.15616E+04-5.29553E-09 1.14069E-08
 -1       676 2.39368E+01-2.93896E+05-1.10501E+03-1.40384E+02 2.78533E-10-3.23304E-09
 -1       677-2.92228E+02-2.94164E+05-2.02235E+03 2.80543E+02 1.20294E-08 1.03608E-08
 -1       678 1.96058E+02-2.93706E+05-3.57501E+03-1.40068E+02 1.23237E-09-4.47327E-09
 -1       679-3.57499E+03-2.96322E+05-8.49274E+03 2.79337E+02 6.47697E-09 1.34054E-09
 -1       680 2.13452E+03-2.91739E+05-1.36874E+04-1.37631E+02 1.49703E-09-1.07942E-08
 -1       771-3.02290E+06-7.66636E+05-2.00202E+05-1.46857E+06-3.60596E-08-2.51748E-08
 -1       772-2.94406E+06-8.62911E+05-1.03540E+05-1.57970E+06-2.46218E-08 1.23982E-08
 -1       773-3.05915E+06-7.38623E+05-5.21742E+04-1.48677E+06-1.65892E-08 1.57161E-08
 -1       774-2.93233E+06-8.39424E+05-2.34152E+04-1.60826E+06 1.89029E-08-3.70346E-09
 -1       775-3.07765E+06-7.25792E+05-1.71245E+04-1.49515E+06-6.86850E-09 5.75528E-09
 -1       776-2.94664E+06-8.35495E+05-6.47273E+03-1.62996E+06-1.21945E-08 4.18368E-09
 -1       777-3.09366E+06-7.14309E+05-7.43558E+03-1.50246E+06 7.56700E-10 2.85945E-09
 -1       778-2.96162E+06-8.31952E+05-2.13378E+03-1.64860E+06 4.17640E-09 8.78936E-09
 -1       779-3.10744E+06-7.04248E+05-3.68243E+03-1.50869E+06-1.77824E-08-5.83168E-09
 -1       780-2.97479E+06-8.28614E+05-6.33581E+02-1.66379E+06-6.08998E-09 2.52476E-09
 -1       781-3.11840E+06-6.96128E+05-1.45077E+03-1.51354E+06-3.33384E-08 2.01908E-09
 -1       782-2.98493E+06-8.25812E+05 4.45905E+02-1.67498E+06-4.02797E-08-1.86674E-08
 -1       783-3.12612E+06-6.90479E+05 6.70212E+02-1.51693E+06-7.98173E-09-1.48329E-08
 -1       784-2.99064E+06-8.23172E+05 2.99527E+03-1.68189E+06-2.57169E-08 4.12274E-09
 -1       785-3.13064E+06-6.87144E+05 5.26509E+03-1.51903E+06-4.46271E-08 9.93896E-09
 -1       786 1.19431E+05-9.58759E+03 2.21817E+04-3.17139E+02 1.36812E-09 3.25417E-09
 -1       787 1.29052E+05 1.11003E+04 1.56927E+04-1.30930E+02 4.33231E-09-1.71901E-08
 -1       788 1.23140E+05-1.50238E+03 5.73880E+03-2.82510E+02 3.44273E-09 1.08494E-08
 -1       789 1.24731E+05 1.73897E+03 3.60249E+03-1.84018E+02 4.64858E-09 3.83011E-09
 -1       790 1.23753E+05-2.33895E+02 1.45830E+03-2.64068E+02-3.72089E-09 9.20068E-10
 -1       791 1.24014E+05 2.70548E+02 8.41740E+02-2.15571E+02-7.23225E-09-2.11618E-08
 -1       792 1.23857E+05-3.50591E+01 3.55601E+02-2.50958E+02-4.03272E-09-9.25830E-09
 -1       793 1.23890E+05 3.65060E+01 1.74884E+02-2.40145E+02 3.10654E-10-1.37626E-08
 -1       794 1.23877E+05 2.58569E-04 4.06374E+01-2.39495E+02 3.19745E-09-1.19951E-09
 -1       795 1.23852E+05-3.10988E+01-6.97010E+01-2.63885E+02-5.55449E-09-1.22700E-09
 -1       796 1.23895E+05 3.25078E+01-1.82118E+02-2.27218E+02 4.16208E-09-1.15258E-08
 -1       797 1.23748E+05-2.42441E+02-4.93667E+02-2.91838E+02 4.49040E-09 6.42530E-09
 -1       798 1.23981E+05 2.11184E+02-7.99966E+02-2.11541E+02 2.53816E-09 2.01452E-08
 -1       799 1.23141E+05-1.55689E+03-2.19933E+03-3.30466E+02 7.35155E-09 2.35491E-08
 -1       800 1.24502E+05 1.34589E+03-3.11203E+03-1.88591E+02 6.07074E-10 2.27037E-08
 -1       801-1.78770E+05-1.00942E+07-1.41136E+06 1.43997E+06 9.44710E-08-5.88370E-08
 -1       802 7.56621E+05 6.11949E+06 2.22200E+06-1.78554E+06 2.61738E-07-3.08391E-08
 -1       803-5.45971E+05-1.44222E+07-1.91911E+06 9.18161E+05 7.73325E-08 1.52722E-08
 -1       804 2.91133E+05 2.48223E+06 1.55802E+06 6.81211E+05-1.21709E-07-9.97438E-08
 -1       805 1.92998E+05-6.47085E+06-2.87553E+05-1.02111E+06-5.08153E-08-6.62176E-08
 -1       806-3.07733E+05-5.93584E+04-2.27432E+04-1.21729E+05 8.56699E-09-1.99043E-09
 -1       807-3.09546E+05-5.56224E+04-1.11735E+04-1.27220E+05 3.40224E-08-6.49379E-09
 -1       808-3.08357E+05-5.11628E+04-4.74019E+03-1.25604E+05 6.19548E-09-4.47460E-09
 -1       809-3.07198E+05-5.24815E+04-2.31784E+03-1.27493E+05-9.51422E-09 9.75206E-09
 -1       810-3.08451E+05-5.08775E+04-1.06242E+03-1.25776E+05 1.59343E-08 1.21745E-08
 -1       811-3.07017E+05-5.23552E+04-5.28371E+02-1.27458E+05 1.46752E-08 8.72114E-09
 -1       812-3.08465E+05-5.09021E+04-2.67339E+02-1.25775E+05-1.13596E-09-1.52045E-08
 -1       813-3.06992E+05-5.23573E+04-1.73907E+02-1.27439E+05-3.63616E-09-3.90537E-09
 -1       814-3.08458E+05-5.09117E+04-1.72617E+02-1.25771E+05-1.84536E-09-1.26806E-08
 -1       815-3.06995E+05-5.23595E+04-2.78353E+02-1.27432E+05 3.54294E-09-1.22509E-09
 -1       816-3.08437E+05-5.09107E+04-5.27718E+02-1.25768E+05 5.99630E-09 1.08421E-08
 -1       817-3.07085E+05-5.24098E+04-1.13261E+03-1.27420E+05-1.58780E-08 4.29623E-09
 -1       818-3.08369E+05-5.10705E+04-2.31016E+03-1.25692E+05 1.11868E-09-7.33417E-09
 -1       819-3.08349E+05-5.38057E+04-5.43565E+03-1.27121E+05 2.37787E-09-1.26577E-08
 -1       820-3.07933E+05-5.51764E+04-1.10635E+04-1.23938E+05 1.19962E-09 3.49110E-09
 -1       821-3.77769E+05 2.07990E+04-4.83813E+04 2.07238E+03 1.30225E-08 4.78030E-09
 -1       822-3.97552E+05-2.40922E+04-3.40290E+04-4.21507E+03 4.67291E-09-3.79168E-09
 -1       823-3.85274E+05 3.27639E+03-1.24996E+04 3.28916E+03-1.31311E-08 5.94309E-09
 -1       824-3.88516E+05-3.77903E+03-7.82813E+03-5.03589E+03-5.52880E-10 6.22094E-10
 -1       825-3.86810E+05 5.08647E+02-3.27341E+03 2.89330E+03 1.89678E-08 3.06828E-08
 -1       826-3.86174E+05-5.68200E+02-1.75747E+03-2.85888E+03 2.64366E-08 2.43938E-08
 -1       827-3.87594E+05 5.08320E+01-1.16861E+03 1.11202E+03 7.90922E-09-1.46830E-08
 -1       828-3.85531E+05-1.37425E+02-6.16258E+02 1.10845E+03-1.70633E-09-8.40398E-09
 -1       829-3.87441E+05 6.91430E+01-1.15954E+03-1.07407E+03 3.79040E-09 8.69409E-09
 -1       830-3.86505E+05-6.21809E+02-1.89218E+03 4.67304E+03-2.00046E-10 1.01873E-08
 -1       831-3.86640E+05 5.51100E+02-3.35789E+03-2.45258E+03-5.79669E-09-1.08439E-08
 -1       832-3.88597E+05-3.94625E+03-8.13267E+03 5.86127E+03-3.46439E-09-2.08306E-08
 -1       833-3.85364E+05 3.40173E+03-1.30046E+04-2.26233E+03-1.12172E-09-3.64435E-09
 -1       834-3.97634E+05-2.50124E+04-3.52640E+04 3.98192E+03-2.38852E-09 1.11195E-08
 -1       835-3.77588E+05 2.15860E+04-5.02611E+04-5.73171E+02 5.44455E-09 1.61381E-08
 -1       836-1.40766E+03 3.68465E+05 2.28155E+04-1.56085E+04-7.26504E-09 1.37406E-08
 -1       837 4.86364E+03 3.75611E+05 1.92998E+04-3.19237E+04-7.80426E-09 9.88621E-09
 -1       838-5.55614E+02 3.70470E+05 1.96554E+04-1.55382E+04-6.47196E-09 6.50130E-09
 -1       839 1.23661E+04 3.81199E+05 3.71737E+04-3.19766E+04-6.80666E-09-2.11649E-08
 -1       840-3.82337E+03 3.62818E+05 5.92746E+04-1.55617E+04-6.30098E-09-7.54164E-09
 -1       856-5.03572E+04 7.93472E+03-2.09096E+04-3.93636E+02 2.35036E-09 4.94947E-09
 -1       857-5.89711E+04-9.32350E+03-1.43940E+04 5.59248E+03 5.80150E-09-5.03701E-09
 -1       858-5.37687E+04 1.11280E+03-5.42550E+03-4.17150E+02 3.87962E-09 9.18249E-09
 -1       859-5.50561E+04-1.30963E+03-3.27396E+03 5.62735E+03-2.65889E-09 8.43329E-09
 -1       860-5.42784E+04 1.55876E+02-1.37196E+03-4.28232E+02-7.61844E-10-6.84611E-09
 -1       861-5.44698E+04-1.86529E+02-7.54426E+02 5.64243E+03 3.70648E-09-1.46467E-08
 -1       862-5.43581E+04 2.11247E+01-3.12960E+02-4.32206E+02-3.55158E-09-1.21051E-09
 -1       863-5.43719E+04-2.19012E+01-1.12540E+02 5.64475E+03-7.84101E-09 6.82024E-09
 -1       864-5.43768E+04-5.00687E+00 4.99672E+01-4.30554E+02-3.56012E-09-8.93549E-09
 -1       865-5.43159E+04 6.01442E+01 2.59708E+02 5.63526E+03-5.26715E-09 4.66664E-09
 -1       866-5.44120E+04-6.08996E+01 5.21723E+02-4.22718E+02 2.14828E-09-8.00736E-09
 -1       867-5.40712E+04 5.02888E+02 1.28304E+03 5.61401E+03 4.13849E-10 1.02674E-08
 -1       868-5.46167E+04-4.39660E+02 2.13183E+03-4.09294E+02-1.94393E-09 4.31851E-09
 -1       869-5.25088E+04 3.65944E+03 5.67581E+03 5.57903E+03 6.74510E-09 5.78666E-11
 -1       870-5.59667E+04-3.13158E+03 8.23706E+03-3.87629E+02-5.38398E-09-2.48110E-09
 -1       871-5.48944E+03-2.14446E+04-1.94274E+04 1.30066E+05-4.81305E-09-3.39969E-09
 -1       872-1.96255E+03-2.59647E+04-8.13960E+03 1.68651E+05-1.16306E-08-2.35505E-08
 -1       873 4.13573E+02-2.37758E+04 5.75954E+02 1.29780E+05-5.70890E-09-9.78571E-09
 -1       874 3.30155E+03-2.13821E+04 9.71981E+03 1.68680E+05-1.18553E-08 7.36918E-10
 -1       875 6.81906E+03-2.60925E+04 2.19367E+04 1.30019E+05-5.89898E-09-9.09131E-09
 -1       876 2.92252E+05 4.92255E+04 1.50052E+04 1.17245E+05 4.07340E-09-5.02223E-09
 -1       877 2.93248E+05 5.23816E+04 8.01336E+03 1.21545E+05 1.27411E-08 4.71300E-09
 -1       878 2.93656E+05 4.75632E+04 3.35721E+03 1.18474E+05-3.19687E-09 3.33171E-09
 -1       879 2.91209E+05 5.03459E+04 1.67278E+03 1.21646E+05 2.61593E-09 5.40956E-09
 -1       880 2.93756E+05 4.75460E+04 7.79177E+02 1.18524E+05-8.48036E-09-1.46144E-10
 -1       881 2.91073E+05 5.02589E+04 4.16143E+02 1.21623E+05-1.86839E-08-6.92651E-10
 -1       882 2.93765E+05 4.75592E+04 2.66318E+02 1.18526E+05-8.18932E-09-8.19320E-09
 -1       883 2.91064E+05 5.02544E+04 2.86451E+02 1.21616E+05-1.63470E-09-9.82649E-09
 -1       884 2.93758E+05 4.75564E+04 4.55815E+02 1.18526E+05 2.65084E-09 1.00345E-08
 -1       885 2.91100E+05 5.02607E+04 9.16527E+02 1.21627E+05-1.69732E-09 1.81228E-08
 -1       886 2.93723E+05 4.75296E+04 1.84726E+03 1.18522E+05 2.82088E-09 1.13507E-08
 -1       887 2.91424E+05 5.04735E+04 4.03511E+03 1.21673E+05 5.09726E-09 6.49379E-10
 -1       888 2.93468E+05 4.75746E+04 8.13088E+03 1.18393E+05 1.10667E-09 1.50121E-08
 -1       889 2.96265E+05 5.55076E+04 1.94232E+04 1.21525E+05 6.68898E-10 2.79861E-08
 -1       890 2.90149E+05 5.15169E+04 3.63791E+04 1.15299E+05-1.51249E-09 5.65706E-09
 -1       891-8.72614E+01-1.61827E+05-1.98707E+03 2.68990E+04-2.40925E-09-1.30149E-09
 -1       892-1.71881E+02-1.62353E+05-2.13330E+03 4.08513E+04 4.12251E-09-3.56531E-08
 -1       893 4.54017E+01-1.61891E+05-3.01956E+03 2.69064E+04-3.65208E-09 7.20820E-09
 -1       894-1.49876E+03-1.63494E+05-6.24877E+03 4.07001E+04 3.21552E-09 1.24128E-08
 -1       895-1.19038E+03-1.60590E+05-1.10036E+04 2.70522E+04 1.94518E-10-7.65976E-09
 -1       956-3.75467E+05-5.42270E+03-1.33807E+04 3.08380E+04 6.41739E-09 1.89539E-09
 -1       957-3.78092E+05-1.91483E+03-6.86811E+03 3.70581E+04-9.08722E-09-1.31404E-08
 -1       958-3.76669E+05-2.41803E+02-3.09498E+03 3.06710E+04-7.93716E-09-6.06178E-09
 -1       959-3.76864E+05-1.38192E+02-1.58035E+03 3.72530E+04 3.81669E-09 2.38788E-09
 -1       960-3.76787E+05-4.67546E+01-7.70656E+02 3.06539E+04 6.85031E-09 6.33349E-09
 -1       961-3.76784E+05-6.55790E+01-4.08609E+02 3.72733E+04 1.51565E-08-2.20293E-08
 -1       962-3.76814E+05-4.80098E+01-2.33965E+02 3.06510E+04 2.20052E-09 2.16232E-10
 -1       963-3.76785E+05-6.14591E+01-1.87874E+02 3.72769E+04-2.30057E-09 1.38893E-08
 -1       964-3.76820E+05-4.47283E+01-2.28540E+02 3.06502E+04-7.11712E-09-6.96059E-09
 -1       965-3.76797E+05-5.85847E+01-3.95340E+02 3.72762E+04-9.50968E-09-1.00567E-09
 -1       966-3.76803E+05-3.70016E+01-7.42874E+02 3.06518E+04-1.74441E-09-1.20929E-08
 -1       967-3.76886E+05-1.21938E+02-1.52362E+03 3.72618E+04-8.04948E-09 9.32391E-09
 -1       968-3.76700E+05-2.18786E+02-2.98273E+03 3.06644E+04-1.07993E-08-1.43541E-09
 -1       969-3.78081E+05-1.82932E+03-6.62155E+03 3.71130E+04-5.77347E-09-1.23863E-08
 -1       970-3.75548E+05-5.20980E+03-1.28992E+04 3.07917E+04-5.98084E-09-5.67525E-09
 -1       971-3.43481E+05-1.71521E+03-9.23877E+03 1.52585E+04 5.73618E-09 2.30456E-09
 -1       972-3.45704E+05-1.26351E+03-5.03136E+03 2.10972E+04-3.13321E-10-1.67615E-08
 -1       973-3.44510E+05-6.25911E+01-2.25359E+03 1.51386E+04 4.17185E-09-1.69730E-08
 -1       974-3.44644E+05-8.20221E+01-1.16822E+03 2.12330E+04 1.31149E-09-8.79299E-09
 -1       975-3.44591E+05-1.81483E+01-5.84451E+02 1.51264E+04-2.48838E-09-2.74474E-09
 -1       976-3.44582E+05-3.26405E+01-3.38123E+02 2.12486E+04-2.59456E-09-7.41193E-09
 -1       977-3.44608E+05-1.74631E+01-2.47061E+02 1.51230E+04-5.12478E-09-6.44957E-09
 -1       978-3.44588E+05-2.65058E+01-2.91382E+02 2.12534E+04-7.80665E-09 1.74382E-08
 -1       979-3.44607E+05-9.05825E+00-4.70101E+02 1.51216E+04-2.52214E-10 6.40819E-09
 -1       980-3.44623E+05-2.34743E+01-9.08922E+02 2.12544E+04-4.00041E-09-1.12261E-08
 -1       981-3.44578E+05 1.36694E+01-1.76100E+03 1.51221E+04 2.33115E-09 7.53346E-09
 -1       982-3.44865E+05-1.53565E+02-3.64031E+03 2.12478E+04 2.67721E-09-3.60813E-09
 -1       983-3.44356E+05-9.90472E+01-7.07331E+03 1.51281E+04-4.76166E-09-4.80372E-09
 -1       984-3.48267E+05-3.84767E+03-1.58405E+04 2.11629E+04-5.12682E-09 3.03889E-08
 -1       985-3.41154E+05-5.27480E+03-2.90880E+04 1.51985E+04-3.39014E-09 1.65528E-09
 -3
    1PSTEP                        49          25           1          
  100CL  125 6.67306E-01         409                     0   25           1
 -4  DISP        4    1
 -5  D1          1    2    1    0
 -5  D2          1    2    2    0
 -5  D3          1    2    3    0
 -5  ALL         1    2    0    0    1ALL
 -1         1 4.67637E-03 0.00000E+00 0.00000E+00
 -1         2 4.61449E-03-1.81953E-28 0.00000E+00
 -1         3 3.52907E-04-9.48101E-28 0.00000E+00
 -1         5 1.82132E-04 1.25714E-26-1.65436E-24
 -1         8 4.66349E-03-3.48306E-07 0.00000E+00
 -1         9 4.59704E-03-1.40831E-05 0.00000E+00
 -1        10 3.20417E-04-2.88604E-06-6.61744E-24
 -1        12 1.84158E-04 8.21211E-07 0.00000E+00
 -1        15 4.64757E-03-3.79265E-07-1.03398E-25
 -1        16 4.65867E-03-1.64506E-05 0.00000E+00
 -1        17 2.18664E-04-6.71822E-06 0.00000E+00
 -1        18 1.88625E-04 3.68438E-05 0.00000E+00
 -1        19 1.90238E-04 1.63549E-06 0.00000E+00
 -1        20 1.90374E-04-1.19465E-05 0.00000E+00
 -1        21 1.89460E-04-2.97890E-05 3.30872E-24
 -1        24 3.07350E-05-1.07816E-05 0.00000E+00
 -1        25 2.00312E-04 3.70747E-05 0.00000E+00
 -1        26 2.00966E-04 2.26373E-06 0.00000E+00
 -1        27 1.98733E-04-1.55514E-05 0.00000E+00
 -1        28 1.98434E-04-3.04163E-05 0.00000E+00
 -1        32 0.00000E+00 0.00000E+00 0.00000E+00
 -1        33 2.10721E-04 3.02747E-06 0.00000E+00
 -1        34 2.08575E-04-1.56108E-05 0.00000E+00
 -1        35 2.06622E-04-3.07629E-05 0.00000E+00
 -1        51 4.67556E-03-7.49157E-08 0.00000E+00
 -1        52 4.67404E-03-1.31579E-07 0.00000E+00
 -1        53 4.67193E-03-1.84994E-07 0.00000E+00
 -1        54 4.66938E-03-2.37451E-07 0.00000E+00
 -1        55 4.66652E-03-2.90714E-07 2.48154E-24
 -1        56 4.66900E-03 7.70007E-06 0.00000E+00
 -1        57 4.65460E-03 3.27664E-05 5.29396E-23
 -1        58 4.63473E-03 7.11842E-05 0.00000E+00
 -1        59 4.61142E-03 1.17654E-04-5.29396E-23
 -1        60 4.58753E-03 1.65472E-04 0.00000E+00
 -1        61 4.56597E-03 2.07805E-04-5.29396E-23
 -1        62 4.54914E-03 2.38800E-04 0.00000E+00
 -1        63 4.53881E-03 2.53604E-04 0.00000E+00
 -1        64 4.53540E-03 2.50312E-04 0.00000E+00
 -1        65 4.53866E-03 2.28700E-04 5.29396E-23
 -1        66 4.54714E-03 1.91985E-04 0.00000E+00
 -1        67 4.55908E-03 1.44844E-04 5.29396E-23
 -1        68 4.57225E-03 9.39596E-05 0.00000E+00
 -1        69 4.58437E-03 4.63885E-05 0.00000E+00
 -1        70 4.59325E-03 8.54120E-06 5.29396E-23
 -1        86 4.61106E-03-2.34245E-06-5.29396E-23
 -1        87 4.60108E-03-4.72503E-06 2.64698E-23
 -1        88 4.59062E-03-7.11157E-06-5.29396E-23
 -1        89 4.58577E-03-9.44558E-06 2.64698E-23
 -1        90 4.58773E-03-1.17750E-05 0.00000E+00
 -1       121 3.51996E-04-4.62707E-07-1.32349E-23
 -1       122 3.49267E-04-9.28597E-07 6.61744E-24
 -1       123 3.44727E-04-1.40080E-06 0.00000E+00
 -1       124 3.38391E-04-1.88246E-06 0.00000E+00
 -1       125 3.30279E-04-2.37638E-06 1.32349E-23
 -1       191 1.82189E-04 1.36945E-07-8.27181E-25
 -1       192 1.82357E-04 2.73875E-07-1.24077E-24
 -1       193 1.82639E-04 4.10782E-07-3.30872E-24
 -1       194 1.83033E-04 5.47650E-07-1.65436E-24
 -1       195 1.83539E-04 6.84465E-07 8.27181E-25
 -1       251 4.66256E-03 2.42823E-05 0.00000E+00
 -1       252 4.65970E-03 9.22297E-05 0.00000E+00
 -1       253 4.65441E-03 1.91285E-04 0.00000E+00
 -1       254 4.64722E-03 3.08513E-04 0.00000E+00
 -1       255 4.64001E-03 4.25835E-04 0.00000E+00
 -1       256 4.63470E-03 5.25174E-04 0.00000E+00
 -1       257 4.63180E-03 5.93539E-04 0.00000E+00
 -1       258 4.63085E-03 6.18661E-04 0.00000E+00
 -1       259 4.63002E-03 5.99386E-04-1.32349E-23
 -1       260 4.62742E-03 5.35752E-04-6.61744E-24
 -1       261 4.62235E-03 4.39125E-04 0.00000E+00
 -1       262 4.61513E-03 3.21652E-04 0.00000E+00
 -1       263 4.60758E-03 2.01338E-04 0.00000E+00
 -1       264 4.60169E-03 9.62468E-05-6.61744E-24
 -1       265 4.59826E-03 2.00838E-05 0.00000E+00
 -1       266 4.66084E-03-3.58806E-07 0.00000E+00
 -1       267 4.65819E-03-3.63315E-07 0.00000E+00
 -1       268 4.65553E-03-3.68203E-07 0.00000E+00
 -1       269 4.65288E-03-3.71968E-07 0.00000E+00
 -1       270 4.65023E-03-3.75706E-07 2.06795E-25
 -1       271 4.66171E-03 2.70973E-06-1.32349E-23
 -1       272 4.65954E-03 6.72410E-06 0.00000E+00
 -1       273 4.65713E-03 1.13766E-05 0.00000E+00
 -1       274 4.65459E-03 1.63354E-05 0.00000E+00
 -1       275 4.65207E-03 2.12689E-05 0.00000E+00
 -1       276 4.64969E-03 2.58447E-05-6.61744E-24
 -1       277 4.64756E-03 2.97331E-05 0.00000E+00
 -1       278 4.64582E-03 3.26089E-05 0.00000E+00
 -1       279 4.64458E-03 3.41545E-05 0.00000E+00
 -1       280 4.64396E-03 3.40614E-05-6.61744E-24
 -1       281 4.64406E-03 3.20329E-05-2.64698E-23
 -1       282 4.64498E-03 2.77858E-05 1.32349E-23
 -1       283 4.64683E-03 2.10531E-05 0.00000E+00
 -1       284 4.64967E-03 1.15855E-05 6.61744E-24
 -1       285 4.65360E-03-8.47377E-07-1.32349E-23
 -1       301 4.60741E-03-1.44967E-05 0.00000E+00
 -1       302 4.61626E-03-1.48718E-05-6.61744E-24
 -1       303 4.62469E-03-1.52407E-05 0.00000E+00
 -1       304 4.63382E-03-1.56150E-05 0.00000E+00
 -1       305 4.64477E-03-1.60102E-05 0.00000E+00
 -1       306 4.64175E-03-2.19496E-04 1.05879E-22
 -1       307 4.69188E-03-7.69778E-04 0.00000E+00
 -1       308 4.67893E-03-1.57570E-03 0.00000E+00
 -1       309 4.60680E-03-2.50685E-03 2.64698E-23
 -1       310 4.55719E-03-3.39081E-03 1.05879E-22
 -1       311 4.58778E-03-4.05715E-03 0.00000E+00
 -1       312 4.64632E-03-4.39269E-03 0.00000E+00
 -1       313 4.62372E-03-4.36593E-03-5.29396E-23
 -1       314 4.38596E-03-4.00227E-03 2.11758E-22
 -1       315 3.87243E-03-3.42462E-03-5.29396E-23
 -1       316 3.10844E-03-2.74127E-03-1.05879E-22
 -1       317 2.20079E-03-2.03011E-03 2.64698E-23
 -1       318 1.33767E-03-1.32709E-03 0.00000E+00
 -1       319 6.93927E-04-6.84427E-04 5.29396E-23
 -1       320 3.32175E-04-2.07911E-04 0.00000E+00
 -1       336 3.08605E-04-3.45258E-06 0.00000E+00
 -1       337 2.94655E-04-4.04586E-06 0.00000E+00
 -1       338 2.78618E-04-4.66864E-06 1.32349E-23
 -1       339 2.60559E-04-5.32178E-06-6.61744E-24
 -1       340 2.40548E-04-6.01073E-06 0.00000E+00
 -1       406 1.84890E-04 9.57868E-07-1.65436E-24
 -1       407 1.85735E-04 1.09439E-06 0.00000E+00
 -1       408 1.86692E-04 1.23074E-06 8.27181E-25
 -1       409 1.87762E-04 1.36672E-06-1.24077E-24
 -1       410 1.88944E-04 1.50206E-06 0.00000E+00
 -1       521 4.70275E-03-2.34656E-04 2.11758E-22
 -1       522 4.74765E-03-8.04671E-04 0.00000E+00
 -1       523 4.72528E-03-1.63095E-03 0.00000E+00
 -1       524 4.64633E-03-2.57294E-03-5.29396E-23
 -1       525 4.59174E-03-3.46481E-03 1.05879E-22
 -1       526 4.61764E-03-4.14319E-03-1.05879E-22
 -1       527 4.67355E-03-4.48324E-03-2.11758E-22
 -1       528 4.64527E-03-4.45107E-03 0.00000E+00
 -1       529 4.38896E-03-4.07217E-03 0.00000E+00
 -1       530 3.84608E-03-3.48162E-03 0.00000E+00
 -1       531 3.04717E-03-2.79086E-03 1.05879E-22
 -1       532 2.11100E-03-2.07726E-03 0.00000E+00
 -1       533 1.21987E-03-1.37083E-03-2.11758E-22
 -1       534 5.42994E-04-7.17423E-04 0.00000E+00
 -1       535 1.56816E-04-2.25658E-04 0.00000E+00
 -1       536 2.17880E-04 2.92522E-05 0.00000E+00
 -1       537 2.15859E-04 9.14276E-05 0.00000E+00
 -1       538 2.12734E-04 1.70285E-04 3.30872E-24
 -1       539 2.09048E-04 2.56213E-04-1.65436E-24
 -1       540 2.05733E-04 3.37388E-04-3.30872E-24
 -1       541 2.03582E-04 4.02009E-04-1.65436E-24
 -1       542 2.02593E-04 4.43163E-04 3.30872E-24
 -1       543 2.02363E-04 4.54090E-04 1.65436E-24
 -1       544 2.02031E-04 4.35579E-04 3.30872E-24
 -1       545 2.00802E-04 3.88649E-04-1.65436E-24
 -1       546 1.98505E-04 3.21627E-04-3.30872E-24
 -1       547 1.95390E-04 2.42966E-04 0.00000E+00
 -1       548 1.92302E-04 1.64671E-04 3.30872E-24
 -1       549 1.90076E-04 9.87465E-05 0.00000E+00
 -1       550 1.88921E-04 5.34338E-05 1.65436E-24
 -1       551 1.92945E-04-7.23342E-06 0.00000E+00
 -1       552 1.63905E-04-7.83804E-06 0.00000E+00
 -1       553 1.32345E-04-8.51345E-06 6.61744E-24
 -1       554 9.90845E-05-9.24242E-06-3.10193E-24
 -1       555 6.49423E-05-1.00009E-05 0.00000E+00
 -1       556 2.10774E-04 1.34660E-05 0.00000E+00
 -1       557 2.04391E-04 2.98439E-05 0.00000E+00
 -1       558 1.99384E-04 4.27129E-05 0.00000E+00
 -1       559 1.95615E-04 5.23912E-05 0.00000E+00
 -1       560 1.92951E-04 5.91977E-05 0.00000E+00
 -1       561 1.91261E-04 6.34535E-05 0.00000E+00
 -1       562 1.90416E-04 6.54813E-05 0.00000E+00
 -1       563 1.90290E-04 6.56046E-05-1.32349E-23
 -1       564 1.90756E-04 6.41479E-05 0.00000E+00
 -1       565 1.91691E-04 6.14364E-05 0.00000E+00
 -1       566 1.92971E-04 5.77959E-05 0.00000E+00
 -1       567 1.94476E-04 5.35526E-05-3.30872E-24
 -1       568 1.96083E-04 4.90329E-05 0.00000E+00
 -1       569 1.97672E-04 4.45631E-05 0.00000E+00
 -1       570 1.99121E-04 4.04698E-05 0.00000E+00
 -1       571 1.88723E-04 3.45572E-05 2.48154E-24
 -1       572 1.88822E-04 3.22036E-05-4.13590E-25
 -1       573 1.88923E-04 2.97992E-05 1.65436E-24
 -1       574 1.89023E-04 2.73609E-05 1.65436E-24
 -1       575 1.89124E-04 2.49056E-05 0.00000E+00
 -1       576 1.89225E-04 2.24502E-05-1.65436E-24
 -1       577 1.89325E-04 2.00118E-05 0.00000E+00
 -1       578 1.89426E-04 1.76075E-05 0.00000E+00
 -1       579 1.89527E-04 1.52541E-05-6.61744E-24
 -1       580 1.89628E-04 1.29689E-05 0.00000E+00
 -1       581 1.89729E-04 1.07688E-05 0.00000E+00
 -1       582 1.89831E-04 8.67069E-06-6.61744E-24
 -1       583 1.89932E-04 6.69173E-06 6.61744E-24
 -1       584 1.90034E-04 4.84868E-06 0.00000E+00
 -1       585 1.90136E-04 3.15819E-06 0.00000E+00
 -1       586 1.90532E-04 3.68844E-05 1.65436E-24
 -1       587 1.92398E-04 3.69245E-05 0.00000E+00
 -1       588 1.94265E-04 3.69642E-05 8.27181E-25
 -1       589 1.96177E-04 3.70033E-05 0.00000E+00
 -1       590 1.98178E-04 3.70410E-05 0.00000E+00
 -1       591 1.89411E-04 3.46547E-05-1.03398E-25
 -1       592 1.90200E-04 3.24470E-05 2.06795E-25
 -1       593 1.90993E-04 3.02265E-05 0.00000E+00
 -1       594 1.91789E-04 2.79977E-05 0.00000E+00
 -1       595 1.92586E-04 2.57653E-05 0.00000E+00
 -1       596 1.93382E-04 2.35336E-05 0.00000E+00
 -1       597 1.94177E-04 2.13074E-05 0.00000E+00
 -1       598 1.94968E-04 1.90912E-05 0.00000E+00
 -1       599 1.95753E-04 1.68894E-05 8.27181E-25
 -1       600 1.96532E-04 1.47065E-05 0.00000E+00
 -1       601 1.97301E-04 1.25473E-05 8.27181E-25
 -1       602 1.98061E-04 1.04160E-05-4.13590E-25
 -1       603 1.98808E-04 8.31734E-06-8.27181E-25
 -1       604 1.99542E-04 6.25590E-06-1.03398E-25
 -1       605 2.00261E-04 4.23612E-06 0.00000E+00
 -1       606 1.90251E-04 3.50162E-07 0.00000E+00
 -1       607 1.90260E-04-8.51286E-07 0.00000E+00
 -1       608 1.90269E-04-1.97378E-06 0.00000E+00
 -1       609 1.90277E-04-3.02286E-06-1.65436E-24
 -1       610 1.90285E-04-4.00416E-06 0.00000E+00
 -1       611 1.90293E-04-4.92332E-06 0.00000E+00
 -1       612 1.90301E-04-5.78601E-06 0.00000E+00
 -1       613 1.90309E-04-6.59792E-06 0.00000E+00
 -1       614 1.90318E-04-7.36473E-06 0.00000E+00
 -1       615 1.90326E-04-8.09211E-06 0.00000E+00
 -1       616 1.90334E-04-8.78574E-06 0.00000E+00
 -1       617 1.90342E-04-9.45131E-06 0.00000E+00
 -1       618 1.90350E-04-1.00945E-05 0.00000E+00
 -1       619 1.90358E-04-1.07209E-05 0.00000E+00
 -1       620 1.90366E-04-1.13364E-05 0.00000E+00
 -1       621 1.91724E-04 1.74083E-06 1.65436E-24
 -1       622 1.93378E-04 1.84639E-06-8.27181E-25
 -1       623 1.95164E-04 1.95171E-06-1.65436E-24
 -1       624 1.97048E-04 2.05667E-06 1.65436E-24
 -1       625 1.98994E-04 2.16132E-06-1.65436E-24
 -1       626 1.90833E-04 3.86846E-07 3.30872E-24
 -1       627 1.91407E-04-8.00955E-07 0.00000E+00
 -1       628 1.91961E-04-1.93570E-06 0.00000E+00
 -1       629 1.92498E-04-3.02547E-06 0.00000E+00
 -1       630 1.93021E-04-4.07838E-06-3.30872E-24
 -1       631 1.93534E-04-5.10254E-06 1.65436E-24
 -1       632 1.94039E-04-6.10608E-06 3.30872E-24
 -1       633 1.94539E-04-7.09714E-06 0.00000E+00
 -1       634 1.95038E-04-8.08383E-06 0.00000E+00
 -1       635 1.95538E-04-9.07428E-06 0.00000E+00
 -1       636 1.96042E-04-1.00766E-05 3.30872E-24
 -1       637 1.96554E-04-1.10990E-05-1.65436E-24
 -1       638 1.97077E-04-1.21495E-05 0.00000E+00
 -1       639 1.97612E-04-1.32362E-05-1.65436E-24
 -1       640 1.98164E-04-1.43675E-05 3.30872E-24
 -1       656 1.91216E-04-1.25323E-05 0.00000E+00
 -1       657 1.92477E-04-1.31420E-05 0.00000E+00
 -1       658 1.94020E-04-1.37504E-05-1.32349E-23
 -1       659 1.95700E-04-1.43584E-05 6.61744E-24
 -1       660 1.97332E-04-1.49682E-05 0.00000E+00
 -1       661 1.90688E-04-1.26027E-05 8.27181E-25
 -1       662 1.91041E-04-1.33529E-05-8.27181E-25
 -1       663 1.91427E-04-1.41915E-05 0.00000E+00
 -1       664 1.91844E-04-1.51119E-05 8.27181E-25
 -1       665 1.92290E-04-1.61079E-05 0.00000E+00
 -1       666 1.92761E-04-1.71735E-05 0.00000E+00
 -1       667 1.93256E-04-1.83028E-05 0.00000E+00
 -1       668 1.93773E-04-1.94899E-05 8.27181E-25
 -1       669 1.94310E-04-2.07293E-05 0.00000E+00
 -1       670 1.94864E-04-2.20153E-05 8.27181E-25
 -1       671 1.95433E-04-2.33426E-05-1.65436E-24
 -1       672 1.96015E-04-2.47058E-05 0.00000E+00
 -1       673 1.96609E-04-2.60998E-05 1.65436E-24
 -1       674 1.97212E-04-2.75195E-05 0.00000E+00
 -1       675 1.97822E-04-2.89594E-05-2.06795E-25
 -1       676 1.90960E-04-2.98941E-05-3.30872E-24
 -1       677 1.92460E-04-2.99993E-05 1.65436E-24
 -1       678 1.93959E-04-3.01043E-05-3.30872E-24
 -1       679 1.95454E-04-3.02091E-05 1.65436E-24
 -1       680 1.96946E-04-3.03138E-05 3.30872E-24
 -1       771 1.77381E-05 1.84895E-05 0.00000E+00
 -1       772 6.83688E-06 4.25071E-05 0.00000E+00
 -1       773-2.06738E-06 6.15239E-05 0.00000E+00
 -1       774-9.11395E-06 7.58221E-05 0.00000E+00
 -1       775-1.44384E-05 8.56959E-05 0.00000E+00
 -1       776-1.81817E-05 9.14580E-05-2.64698E-23
 -1       777-2.04843E-05 9.34326E-05 0.00000E+00
 -1       778-2.14894E-05 9.19592E-05-2.64698E-23
 -1       779-2.13389E-05 8.73873E-05 5.29396E-23
 -1       780-2.01769E-05 8.00787E-05 0.00000E+00
 -1       781-1.81463E-05 7.04032E-05-5.29396E-23
 -1       782-1.53914E-05 5.87405E-05-2.64698E-23
 -1       783-1.20552E-05 4.54753E-05 5.29396E-23
 -1       784-8.28220E-06 3.09996E-05-2.64698E-23
 -1       785-4.21546E-06 1.57085E-05-5.29396E-23
 -1       786 2.00349E-04 3.46665E-05 1.29247E-26
 -1       787 2.00389E-04 3.23095E-05 0.00000E+00
 -1       788 2.00429E-04 2.99953E-05 0.00000E+00
 -1       789 2.00470E-04 2.77156E-05-4.13590E-25
 -1       790 2.00510E-04 2.54656E-05-1.65436E-24
 -1       791 2.00551E-04 2.32404E-05-8.27181E-25
 -1       792 2.00593E-04 2.10378E-05 1.65436E-24
 -1       793 2.00634E-04 1.88555E-05 0.00000E+00
 -1       794 2.00675E-04 1.66931E-05 0.00000E+00
 -1       795 2.00716E-04 1.45504E-05 8.27181E-25
 -1       796 2.00758E-04 1.24291E-05-1.65436E-24
 -1       797 2.00799E-04 1.03310E-05 0.00000E+00
 -1       798 2.00840E-04 8.26002E-06 0.00000E+00
 -1       799 2.00882E-04 6.22038E-06-8.27181E-25
 -1       800 2.00924E-04 4.21918E-06 0.00000E+00
 -1       801 1.52515E-04 3.33764E-05 0.00000E+00
 -1       802 8.07981E-06 2.07396E-05-2.64698E-23
 -1       803-1.15175E-04 1.04003E-05-5.29396E-23
 -1       804-1.02093E-04 7.26553E-06-2.64698E-23
 -1       805-3.41435E-05 2.83301E-06 0.00000E+00
 -1       806 2.01098E-04 3.45967E-05 0.00000E+00
 -1       807 2.01870E-04 3.21456E-05-1.65436E-24
 -1       808 2.02629E-04 2.97266E-05-3.30872E-24
 -1       809 2.03374E-04 2.73437E-05 0.00000E+00
 -1       810 2.04104E-04 2.50013E-05 3.30872E-24
 -1       811 2.04817E-04 2.27031E-05-1.65436E-24
 -1       812 2.05512E-04 2.04531E-05 0.00000E+00
 -1       813 2.06188E-04 1.82555E-05 0.00000E+00
 -1       814 2.06843E-04 1.61140E-05 0.00000E+00
 -1       815 2.07475E-04 1.40327E-05 0.00000E+00
 -1       816 2.08084E-04 1.20154E-05 0.00000E+00
 -1       817 2.08667E-04 1.00662E-05 8.27181E-25
 -1       818 2.09224E-04 8.18885E-06 1.65436E-24
 -1       819 2.09752E-04 6.38740E-06 0.00000E+00
 -1       820 2.10251E-04 4.66566E-06 0.00000E+00
 -1       821 2.00835E-04-3.43589E-07 0.00000E+00
 -1       822 2.00693E-04-4.29429E-06 1.65436E-24
 -1       823 2.00547E-04-9.10250E-06 0.00000E+00
 -1       824 2.00398E-04-1.42769E-05-1.65436E-24
 -1       825 2.00250E-04-1.92266E-05-3.30872E-24
 -1       826 2.00105E-04-2.33619E-05 0.00000E+00
 -1       827 1.99964E-04-2.63163E-05 0.00000E+00
 -1       828 1.99827E-04-2.77308E-05 0.00000E+00
 -1       829 1.99690E-04-2.76682E-05 3.30872E-24
 -1       830 1.99552E-04-2.62002E-05 0.00000E+00
 -1       831 1.99413E-04-2.37838E-05-3.30872E-24
 -1       832 1.99273E-04-2.08818E-05 1.65436E-24
 -1       833 1.99133E-04-1.80901E-05-3.30872E-24
 -1       834 1.98996E-04-1.60039E-05 0.00000E+00
 -1       835 1.98860E-04-1.50258E-05 0.00000E+00
 -1       836 2.02808E-04 2.39034E-06-6.61744E-24
 -1       837 2.04522E-04 2.52016E-06 0.00000E+00
 -1       838 2.06139E-04 2.64994E-06 0.00000E+00
 -1       839 2.07691E-04 2.77902E-06 0.00000E+00
 -1       840 2.09208E-04 2.90794E-06-8.27181E-25
 -1       856 1.98718E-04-1.67579E-05-8.27181E-25
 -1       857 1.98699E-04-1.78280E-05-2.58494E-26
 -1       858 1.98681E-04-1.87826E-05 0.00000E+00
 -1       859 1.98663E-04-1.96432E-05 0.00000E+00
 -1       860 1.98644E-04-2.04311E-05 4.13590E-25
 -1       861 1.98625E-04-2.11675E-05 2.06795E-25
 -1       862 1.98607E-04-2.18740E-05-4.13590E-25
 -1       863 1.98588E-04-2.25720E-05 0.00000E+00
 -1       864 1.98569E-04-2.32829E-05 0.00000E+00
 -1       865 1.98550E-04-2.40281E-05-2.06795E-25
 -1       866 1.98532E-04-2.48292E-05-8.27181E-25
 -1       867 1.98513E-04-2.57073E-05 0.00000E+00
 -1       868 1.98494E-04-2.66839E-05-8.27181E-25
 -1       869 1.98474E-04-2.77801E-05 0.00000E+00
 -1       870 1.98455E-04-2.90173E-05 0.00000E+00
 -1       871 2.00231E-04-1.55568E-05 8.27181E-25
 -1       872 2.01878E-04-1.55656E-05 0.00000E+00
 -1       873 2.03606E-04-1.55752E-05 4.13590E-25
 -1       874 2.05344E-04-1.55855E-05-2.32645E-25
 -1       875 2.07023E-04-1.55964E-05-8.27181E-25
 -1       876 1.99314E-04-1.67432E-05 0.00000E+00
 -1       877 1.99872E-04-1.78677E-05 0.00000E+00
 -1       878 2.00409E-04-1.89329E-05 3.30872E-24
 -1       879 2.00926E-04-1.99463E-05 0.00000E+00
 -1       880 2.01427E-04-2.09154E-05 3.30872E-24
 -1       881 2.01914E-04-2.18475E-05-1.65436E-24
 -1       882 2.02390E-04-2.27500E-05-3.30872E-24
 -1       883 2.02858E-04-2.36303E-05 1.65436E-24
 -1       884 2.03321E-04-2.44959E-05 3.30872E-24
 -1       885 2.03780E-04-2.53540E-05 0.00000E+00
 -1       886 2.04239E-04-2.62120E-05 0.00000E+00
 -1       887 2.04702E-04-2.70774E-05 1.65436E-24
 -1       888 2.05169E-04-2.79575E-05 0.00000E+00
 -1       889 2.05644E-04-2.88599E-05 1.65436E-24
 -1       890 2.06129E-04-2.97919E-05-1.65436E-24
 -1       891 1.99941E-04-3.04746E-05 0.00000E+00
 -1       892 2.01425E-04-3.05330E-05 0.00000E+00
 -1       893 2.02860E-04-3.05912E-05-1.65436E-24
 -1       894 2.04221E-04-3.06493E-05 0.00000E+00
 -1       895 2.05484E-04-3.07070E-05 0.00000E+00
 -1       956 2.10589E-04 1.56696E-06 0.00000E+00
 -1       957 2.10455E-04 1.99781E-07 8.27181E-25
 -1       958 2.10320E-04-1.08506E-06-3.30872E-24
 -1       959 2.10186E-04-2.29917E-06 0.00000E+00
 -1       960 2.10051E-04-3.45423E-06-3.30872E-24
 -1       961 2.09917E-04-4.56192E-06-1.65436E-24
 -1       962 2.09782E-04-5.63394E-06 0.00000E+00
 -1       963 2.09648E-04-6.68204E-06 0.00000E+00
 -1       964 2.09513E-04-7.71793E-06 3.30872E-24
 -1       965 2.09379E-04-8.75331E-06 1.65436E-24
 -1       966 2.09244E-04-9.79994E-06 0.00000E+00
 -1       967 2.09110E-04-1.08695E-05 0.00000E+00
 -1       968 2.08975E-04-1.19738E-05 6.61744E-24
 -1       969 2.08841E-04-1.31244E-05-3.30872E-24
 -1       970 2.08707E-04-1.43330E-05 0.00000E+00
 -1       971 2.08454E-04-1.68898E-05-3.30872E-24
 -1       972 2.08331E-04-1.80742E-05 0.00000E+00
 -1       973 2.08209E-04-1.91743E-05-3.30872E-24
 -1       974 2.08086E-04-2.02011E-05 1.65436E-24
 -1       975 2.07963E-04-2.11653E-05 0.00000E+00
 -1       976 2.07840E-04-2.20778E-05 0.00000E+00
 -1       977 2.07718E-04-2.29496E-05-3.30872E-24
 -1       978 2.07595E-04-2.37916E-05-1.65436E-24
 -1       979 2.07472E-04-2.46146E-05 0.00000E+00
 -1       980 2.07350E-04-2.54297E-05-1.65436E-24
 -1       981 2.07227E-04-2.62476E-05 0.00000E+00
 -1       982 2.07105E-04-2.70794E-05-1.65436E-24
 -1       983 2.06982E-04-2.79360E-05-3.30872E-24
 -1       984 2.06860E-04-2.88282E-05-1.65436E-24
 -1       985 2.06739E-04-2.97669E-05 0.00000E+00
 -3
    1PSTEP                        50          25           1          
  100CL  125 6.67306E-01         409                     0   25           1
 -4  STRESS      6    1
 -5  SXX         1    4    1    1
 -5  SYY         1    4    2    2
 -5  SZZ         1    4    3    3
 -5  SXY         1    4    1    2
 -5  SYZ         1    4    2    3
 -5  SZX         1    4    3    1
 -1         1-5.18959E+06-1.73417E+06-1.13404E+06-1.54886E+06-1.30967E-09-9.52859E-08
 -1         2-7.35745E+03-6.62079E+06-2.11179E+04-1.91586E+05-6.18911E-10 1.31109E-07
 -1         3-1.53902E+03-1.31210E+06 3.30684E+02-1.89631E+03-6.30664E-10-4.52637E-08
 -1         5-9.04340E+01 3.92210E+05 1.01177E+01-1.51428E+00-5.55855E-10-2.20898E-08
 -1         8-2.97102E+05-8.82596E+04 2.24247E+03-1.19075E+05-5.38421E-10-9.98916E-08
 -1         9 2.06130E+07-1.50629E+06 3.20901E+06-3.29098E+06 4.03961E-08 4.42751E-07
 -1        10-2.35002E+03-1.36721E+06-4.45337E+03-1.28702E+04-1.37952E-08-4.63604E-08
 -1        12-8.65025E+01 3.92232E+05 3.33555E+02-1.02497E+01-6.33650E-10 6.60657E-09
 -1        15 8.84779E+02 4.86232E+02 2.86002E+03 1.01502E+00-4.80540E-10-4.75093E-07
 -1        16 4.07883E+07-9.09194E+05 5.22148E+06-4.94890E+06 1.14087E-08 2.36013E-07
 -1        17 1.38468E+07 1.33651E+07 4.29494E+06 1.17876E+07-1.33878E-08-5.72763E-09
 -1        18 1.53106E+05 3.65206E+04 6.30313E+03-1.22211E+05 1.23480E-08-2.44563E-09
 -1        19 1.24170E+05 1.43659E+05-9.61649E+02 2.21306E+04 1.82772E-09 3.15667E-09
 -1        20-8.48452E+04-5.81524E+05-1.30612E+05 2.44842E+04-3.22840E-09 2.47558E-08
 -1        21-4.54944E+01-2.97951E+05-9.27978E+02 3.06721E+02 1.48896E-08-3.95111E-08
 -1        24 2.36822E+07 2.40222E+07 6.66328E+06 2.18761E+07-2.10023E-07-5.79360E-08
 -1        25 1.49728E+05 3.61598E+05 1.23823E+05-6.96305E+05-1.88811E-10 2.02521E-08
 -1        26-5.69191E+04 9.35801E+04-2.50737E+04 2.04945E+03-3.59432E-10 1.14005E-08
 -1        27-7.53839E+04-3.13846E+05-1.14495E+05 6.98135E+04 4.30676E-09 4.57900E-09
 -1        28 2.23346E+04-8.61353E+04 1.70181E+04 2.03938E+04-3.44417E-09 1.21438E-08
 -1        32-1.69027E+06-3.29379E+06-2.13872E+05 5.40330E+05-4.87125E-08-8.04425E-09
 -1        33-1.80646E+05 9.44471E+04 3.28326E+04-3.83806E+04-3.28449E-09 9.05554E-10
 -1        34-2.26041E+05-2.54981E+04 7.07106E+02 7.69246E+04-5.75622E-09 2.42623E-09
 -1        35-2.30536E+04-3.41563E+04-1.36182E+03 5.18274E+04-5.09345E-09-9.08888E-09
 -1        51 6.01120E+04-1.41134E+05 1.27872E+05-4.65072E+05-5.23869E-10 1.59795E-07
 -1        52 2.04037E+04-1.19022E+05 6.71856E+04-5.42034E+05-1.68257E-10 1.51129E-07
 -1        53 4.23652E+03-1.34920E+05 3.50447E+04-4.63297E+05 7.80346E-10-2.30400E-07
 -1        54 7.86607E+03-1.31024E+05 2.90000E+04-5.43922E+05 6.33008E-10-1.57714E-07
 -1        55 1.68699E+04-1.38454E+05 3.54816E+04-4.63025E+05 9.89530E-10-1.08521E-07
 -1        56-9.77443E+06-1.31632E+06-9.06276E+05-4.02344E+06-2.72121E-08 5.79457E-08
 -1        57-1.07033E+07-1.15128E+06-5.48871E+05-3.03066E+06 2.95477E-08 3.26268E-07
 -1        58-9.60238E+06-1.80588E+06-2.07762E+05-4.22711E+06-7.64485E-08-9.26520E-08
 -1        59-1.09763E+07-5.32345E+05-1.11693E+05-2.88629E+06-3.82161E-08-5.43043E-07
 -1        60-9.58810E+06-1.86411E+06-4.68750E+04-4.24437E+06-2.51621E-08 3.93404E-07
 -1        61-1.06245E+07-6.92224E+05-3.25518E+03-3.02507E+06-3.65253E-09-1.28057E-09
 -1        62-9.88853E+06-1.68958E+06-5.05366E+04-4.03451E+06-6.16565E-08-1.84940E-07
 -1        63-9.86627E+06-1.26082E+06 3.54733E+04-3.52735E+06 3.65799E-08-4.33738E-08
 -1        64-1.02427E+07-1.36830E+06-6.03379E+04-3.66620E+06-5.94009E-08 2.69451E-07
 -1        65-9.38298E+06-1.84819E+06 9.72324E+03-4.27551E+06 2.76268E-08-2.46655E-07
 -1        66-1.04231E+07-1.06727E+06-5.43784E+04-3.33144E+06-4.34957E-08-2.54598E-07
 -1        67-9.30804E+06-2.18126E+06-9.85692E+04-4.76906E+06-2.27592E-08-1.88313E-07
 -1        68-1.04318E+07-9.55595E+05-1.78961E+05-3.25003E+06-1.26511E-08-2.43512E-07
 -1        69-9.49738E+06-2.38063E+06-5.02442E+05-4.55584E+06 8.43738E-09-4.72864E-08
 -1        70-1.01944E+07-9.06639E+05-8.09187E+05-3.51448E+06 1.16815E-08 3.45754E-08
 -1        86 2.51085E+03-6.67222E+06-3.55316E+04 9.57831E+04 1.11304E-08 2.23672E-08
 -1        87-2.52378E+04-6.63885E+06-5.80686E+04-2.04955E+05 1.86437E-08 8.23166E-08
 -1        88 2.38255E+04-6.65667E+06-1.03080E+05 1.09169E+05 8.07267E-09 3.78764E-07
 -1        89-1.85863E+05-6.70449E+06-2.61833E+05-2.69133E+04 7.44330E-09 9.38051E-08
 -1        90 1.59249E+05-6.60505E+06-3.87724E+05-8.22770E+04-9.73523E-09 5.53548E-07
 -1       121-2.09891E+03-1.31711E+06-6.70585E+02 9.38075E+02 1.58343E-09-2.28465E-09
 -1       122-1.38145E+03-1.31216E+06 5.98435E+02-3.80249E+03-5.48903E-09 3.30947E-08
 -1       123-2.11253E+03-1.31723E+06-8.33505E+01 2.80414E+03 4.29600E-09 2.74304E-09
 -1       124-7.34868E+00-1.31181E+06 2.22819E+03-8.04620E+03-9.89530E-09 1.83572E-08
 -1       125-2.78140E+03-1.31797E+06 2.21131E+03 5.13156E+03 6.82849E-09-4.48199E-09
 -1       191-9.52379E+01 3.92226E+05 7.88693E+00 7.94898E-01-6.45653E-10-8.19273E-09
 -1       192-9.14210E+01 3.92211E+05 2.16256E+01-4.79356E+00-8.42819E-10-3.76531E-10
 -1       193-9.78305E+01 3.92225E+05 3.61263E+01 4.22927E+00-1.18392E-09 8.94943E-10
 -1       194-9.45830E+01 3.92214E+05 8.22954E+01-1.08587E+01-6.09178E-10 3.47245E-09
 -1       195-1.02806E+02 3.92223E+05 1.56867E+02 7.11006E+00-1.57184E-09 2.09184E-09
 -1       251-2.45251E+06-8.91641E+04-3.10697E+05-1.94436E+05-3.60160E-10 1.18256E-07
 -1       252-6.21181E+05 1.09510E+05 1.45638E+05 5.88716E+05 2.13331E-08 1.43114E-07
 -1       253-1.67210E+06-3.38027E+04-5.26286E+04-3.83602E+05-4.10364E-09 9.11168E-08
 -1       254-1.49030E+06 1.22243E+05 2.73073E+04 7.68007E+05-1.50027E-08-2.96668E-07
 -1       255-1.66835E+06-3.19471E+04-2.98609E+04-3.84077E+05 3.60942E-08 4.07088E-07
 -1       256-6.31911E+05 9.59892E+04 1.95249E+05 5.90680E+05 2.85982E-08 4.44682E-07
 -1       257-2.44618E+06-7.69508E+04-1.92815E+05-1.95995E+05-3.58523E-08 4.58435E-07
 -1       258 2.85370E+05 6.97796E+04 3.66592E+05 2.86832E+04-1.72204E-08 3.27600E-09
 -1       259-2.49504E+06-8.00602E+04-2.01264E+05 1.72162E+05 2.19770E-08-6.03219E-08
 -1       260-5.16047E+05 9.65974E+04 2.22791E+05-5.55670E+05-8.21819E-09-5.85535E-07
 -1       261-1.72390E+06-3.88807E+04-3.10197E+04 3.80623E+05 7.32343E-08 4.56193E-08
 -1       262-1.47937E+06 1.37732E+05 5.61634E+04-7.63418E+05-2.77028E-08 1.93990E-07
 -1       263-1.62674E+06-4.29124E+04 2.47212E+03 3.91136E+05 4.46344E-08 1.94839E-07
 -1       264-7.01644E+05 1.99438E+05 2.44620E+05-6.18988E+05 1.62026E-07-7.74344E-08
 -1       265-2.42884E+06-1.60217E+05-1.27290E+05 2.26656E+05 6.50034E-08 3.70739E-07
 -1       266-1.60177E+04-7.49078E+03 3.75780E+04-2.17164E+01 1.41881E-10 6.92709E-07
 -1       267 1.85686E+04 8.72932E+03 2.65617E+04 2.50588E+01 9.00400E-11-2.42173E-07
 -1       268-2.49003E+03-1.23638E+03 9.87273E+03-3.19280E+00-8.23093E-11-2.15856E-07
 -1       269 2.93998E+03 1.47961E+03 6.41722E+03 3.71928E+00 1.24601E-10-6.12097E-08
 -1       270-4.41292E+02-2.43113E+02 3.09768E+03-5.04724E-01-8.02629E-11 1.86148E-08
 -1       271-1.43374E+06-1.61779E+05-1.05498E+05-5.33366E+05-9.78253E-09 4.57985E-07
 -1       272-1.57320E+06-1.36542E+05-6.76944E+04-4.17805E+05 3.07118E-08-9.53314E-08
 -1       273-1.45162E+06-1.89666E+05-2.48366E+04-5.31012E+05-3.86126E-08 4.13002E-09
 -1       274-1.55312E+06-1.01739E+05-1.39122E+04-4.22292E+05 7.05961E-08 4.14328E-07
 -1       275-1.45399E+06-1.92809E+05-5.74075E+03-5.30616E+05 3.88250E-08-1.37999E-07
 -1       276-1.54864E+06-9.90609E+04-2.94495E+03-4.23523E+05-3.41352E-08-1.58445E-07
 -1       277-1.45524E+06-1.92508E+05-1.56292E+03-5.29328E+05 1.49776E-08 1.26842E-07
 -1       278-1.54334E+06-1.01996E+05-6.34938E+02-4.25670E+05 7.63939E-08 3.51436E-07
 -1       279-1.45707E+06-1.91219E+05-1.17251E+03-5.26908E+05-7.35872E-08-4.97921E-08
 -1       280-1.53555E+06-1.07422E+05-6.01204E+02-4.29208E+05 2.13167E-08 1.32445E-07
 -1       281-1.45968E+06-1.89192E+05-2.69644E+03-5.23433E+05 5.25979E-08-1.69202E-08
 -1       282-1.52608E+06-1.15664E+05-3.42292E+03-4.34216E+05-1.71494E-08 1.28159E-07
 -1       283-1.46241E+06-1.85688E+05-8.74664E+03-5.19029E+05-5.15138E-09-3.66734E-07
 -1       284-1.51996E+06-1.34012E+05-1.87240E+04-4.39996E+05-3.67727E-08-3.22685E-07
 -1       285-1.46146E+06-1.74630E+05-3.29003E+04-5.14371E+05-2.38506E-08-1.28694E-07
 -1       301-1.03999E+04-9.25923E+05 1.37406E+05-1.35790E+06 1.51340E-09 2.64357E-07
 -1       302-1.20167E+04-8.86548E+05 8.15830E+04-1.98364E+06-1.99361E-09-5.83751E-07
 -1       303-2.38580E+04-9.17823E+05 4.17919E+04-1.35490E+06 2.25555E-09-1.91802E-07
 -1       304-3.60491E+04-8.79322E+05 3.52362E+04-1.98152E+06-1.44064E-09 1.06200E-07
 -1       305-4.43759E+04-8.87465E+05 3.18197E+04-1.35880E+06 9.82254E-10-7.94971E-08
 -1       306-4.84922E+07-8.83082E+06-1.39732E+07 2.46886E+06-1.86614E-07 3.78903E-07
 -1       307 4.51112E+07 1.05259E+07 1.00417E+07-2.40393E+07-5.83183E-07-2.92785E-07
 -1       308-4.05484E+06-3.94182E+06-7.96145E+05 7.88399E+06 2.43890E-07 2.20403E-07
 -1       309-9.57341E+05 2.29007E+07 5.05485E+06-2.74664E+07 2.14182E-07-1.18744E-07
 -1       310-1.72725E+07-6.19864E+06-4.51813E+06 1.04303E+07-2.77010E-07 1.53814E-07
 -1       311 7.33503E+07 3.18238E+06 1.36034E+07-1.29357E+07 1.16474E-07 7.70669E-08
 -1       312-5.25532E+07-9.03993E+06-1.43727E+07-8.91247E+06 1.43540E-07-3.63405E-07
 -1       313 7.37654E+07 3.44185E+07 1.87116E+07 4.42583E+07-6.65692E-07 4.61150E-07
 -1       314-1.99289E+07-3.46214E+07-1.24945E+07-1.97846E+07 2.34810E-07-3.76138E-07
 -1       315-9.59626E+05 5.47562E+07 9.96077E+06 1.18164E+07-9.97679E-08-8.31846E-07
 -1       316 3.59292E+06-1.21334E+07-7.91370E+05 2.13506E+06 6.08889E-07-1.04093E-06
 -1       317-1.15917E+07 3.35855E+07 5.04492E+06-2.01923E+07 1.14786E-07-1.24524E-06
 -1       318 2.18112E+04-2.28011E+07-4.56411E+06-1.58724E+06-1.55216E-06 3.47092E-07
 -1       319 1.49336E+07 6.44956E+07 1.37424E+07 2.75181E+07-9.64181E-07 1.32713E-07
 -1       320-3.27846E+07-3.24811E+07-1.63383E+07-2.27078E+07-4.88479E-07-2.13622E-08
 -1       336-1.06640E+03-1.42570E+06-1.41703E+04 7.55379E+03-2.70902E-08-2.63026E-08
 -1       337-5.88583E+03-1.42481E+06-2.01598E+04-1.85882E+04-4.92364E-08-4.84761E-09
 -1       338 4.82710E+02-1.42470E+06-3.32367E+04 1.07562E+04-3.49410E-08 1.36788E-09
 -1       339-3.62477E+04-1.44521E+06-7.63157E+04-2.49768E+04-6.39957E-08 5.41331E-09
 -1       340 2.37839E+04-1.40727E+06-1.20480E+05 1.37680E+04-4.19022E-08 2.19043E-08
 -1       406-6.51282E+01 3.92208E+05 6.54212E+02 3.85935E+00-2.13403E-09 1.38971E-09
 -1       407 1.43580E+02 3.92348E+05 1.39965E+03 2.54092E+01-6.66134E-10-1.03246E-08
 -1       408 6.31109E+02 3.92106E+05 2.78988E+03-2.94896E+01-2.68551E-09-2.22317E-08
 -1       409 2.94275E+03 3.93239E+05 6.28967E+03 3.16798E+02-3.50951E-10-2.41598E-08
 -1       410 8.60978E+03 3.91301E+05 1.28363E+04-3.05845E+02-3.30510E-09-2.54659E-08
 -1       521-4.68856E+07-1.25280E+07-1.66782E+07 3.13710E+06-1.52038E-07-1.74972E-07
 -1       522 4.25919E+07 1.38287E+07 9.42506E+06-3.09843E+07-6.67176E-07-6.25267E-07
 -1       523-3.94215E+06-4.06012E+06-4.49571E+05 7.84316E+06 3.38187E-08-2.64699E-07
 -1       524-1.12205E+07 2.96868E+07 4.90897E+06-3.07805E+07 1.01046E-06-6.36908E-07
 -1       525-1.62947E+07-7.25283E+06-4.61349E+06 9.85626E+06 5.03031E-07-3.54077E-07
 -1       526 7.75008E+07 2.68858E+06 1.31423E+07-1.83959E+07 1.86323E-07 6.87432E-08
 -1       527-5.16986E+07-1.33064E+07-1.70029E+07-7.60705E+06 3.08850E-07 2.87109E-07
 -1       528 7.81729E+07 3.78718E+07 1.80671E+07 5.05410E+07 1.47324E-07-4.60539E-07
 -1       529-2.06816E+07-3.62155E+07-1.44783E+07-1.67939E+07 3.10596E-07 9.19681E-08
 -1       530-6.40369E+06 6.16750E+07 9.74618E+06 6.60535E+06-4.58676E-08 9.66713E-07
 -1       531 3.29730E+06-1.21286E+07-3.97529E+05 2.45605E+06-1.00727E-06 8.01287E-07
 -1       532-1.28591E+07 3.10388E+07 4.88646E+06-3.01547E+07 4.26022E-07-7.84887E-07
 -1       533-6.78196E+05-2.16524E+07-4.55360E+06-4.17275E+05-5.51961E-07-1.09372E-06
 -1       534 9.33802E+06 7.25996E+07 1.29400E+07 2.60037E+07 7.97154E-08 9.61823E-07
 -1       535-3.31616E+07-3.51578E+07-1.94165E+07-1.97140E+07 1.69734E-07 6.26431E-07
 -1       536-7.15414E+05-3.07078E+04-9.39355E+04-5.69238E+04-3.25417E-09 5.91726E-08
 -1       537-4.72352E+04 2.56315E+04 5.80300E+04 1.28270E+05-1.16744E-07 1.16358E-07
 -1       538-3.93622E+05 6.43098E+03-7.37870E+03-7.44783E+04 4.73285E-08 1.18153E-07
 -1       539-2.64198E+05-2.28807E+02 1.93981E+04 1.43371E+05 1.75317E-07 1.01412E-07
 -1       540-5.04107E+05-1.05870E+02-2.54614E+04-7.26047E+04 1.74459E-08 1.03123E-07
 -1       541 1.75665E+05 1.74461E+04 1.10670E+05 1.01739E+05-1.56797E-08 8.02490E-08
 -1       542-8.21658E+05-2.11402E+04-8.95228E+04-3.18958E+04 3.53511E-08 4.56861E-08
 -1       543 4.48239E+05 2.87133E+04 1.66228E+05-1.37990E+04-3.84330E-09 3.06090E-09
 -1       544-7.69368E+05-1.74452E+04-7.90940E+04 4.22058E+04 6.39511E-09-5.00451E-08
 -1       545 5.18575E+04 1.00874E+04 8.42810E+04-1.17690E+05 1.84340E-08-8.24512E-08
 -1       546-4.35934E+05 6.34122E+03-1.28797E+04 7.16182E+04 1.61663E-08-8.95631E-08
 -1       547-2.81646E+05-4.61698E+03 1.16022E+04-1.46145E+05-1.16641E-07-1.20378E-07
 -1       548-4.44842E+05 4.78998E+03-2.45898E+04 7.14124E+04-1.18608E-07-1.08735E-07
 -1       549 7.15603E+04 1.81351E+04 6.53605E+04-1.15642E+05-6.70466E-08-8.86723E-08
 -1       550-7.79691E+05-2.43307E+04-1.33612E+05 4.03383E+04 9.83800E-09-5.55574E-08
 -1       551 2.65646E+04-5.64880E+05-4.67866E+04-1.06678E+06-1.05443E-07-2.61934E-09
 -1       552 7.40881E+04-6.09863E+05-9.37838E+03-1.51868E+06-7.43166E-08 5.20959E-08
 -1       553 6.04293E+04-6.06767E+05 1.91007E+04-1.06022E+06-1.28166E-07 2.93076E-08
 -1       554 1.15540E+05-6.27564E+05 6.58001E+04-1.52127E+06-7.83184E-08 3.23889E-08
 -1       555 9.14764E+04-6.34698E+05 1.26549E+05-1.05880E+06-1.32364E-07-6.77574E-09
 -1       556 2.34675E+05-4.03062E+05-2.04252E+04-4.10448E+05-2.51748E-08-1.11468E-08
 -1       557 3.59724E+05-5.07596E+05-7.62736E+03-5.39662E+05 3.78350E-09 7.74162E-09
 -1       558 2.12533E+05-3.87037E+05-7.99327E+03-4.21004E+05-1.49594E-08-5.79166E-09
 -1       559 3.38940E+05-5.01430E+05-2.56835E+03-5.61243E+05 2.11585E-08-1.78043E-08
 -1       560 1.96084E+05-3.76747E+05-3.96622E+03-4.32892E+05 1.64437E-08 2.93949E-09
 -1       561 3.18978E+05-4.93060E+05-1.01921E+03-5.75047E+05 1.44064E-09 1.82990E-09
 -1       562 1.83229E+05-3.68832E+05-1.95759E+03-4.42180E+05-5.23869E-09 9.81890E-09
 -1       563 3.03789E+05-4.86419E+05-3.07443E+02-5.84984E+05-3.37604E-09-1.41872E-08
 -1       564 1.74050E+05-3.63132E+05-7.73077E+02-4.48679E+05 5.15138E-09 1.45383E-08
 -1       565 2.93650E+05-4.82001E+05-3.97799E+01-5.91464E+05 6.86850E-09 2.32403E-08
 -1       566 1.68650E+05-3.59721E+05-3.11727E+02-4.52453E+05-9.89530E-09-5.56611E-10
 -1       567 2.88661E+05-4.79831E+05-3.98751E+02-5.94501E+05 2.17897E-08-7.11952E-09
 -1       568 1.67121E+05-3.58784E+05-1.19426E+03-4.53618E+05-1.10049E-09-4.56566E-09
 -1       569 2.87399E+05-4.79746E+05-3.00353E+03-5.93116E+05-3.83807E-10 1.43118E-08
 -1       570 1.70582E+05-3.62106E+05-6.54909E+03-4.52556E+05 1.20635E-08-9.01582E-09
 -1       571 2.95030E+05 1.06689E+04 1.51664E+04-9.82039E+04-2.83653E-08 6.37328E-09
 -1       572 2.97222E+05 4.04955E+03 7.43291E+03-1.07742E+05-5.18958E-08-1.16570E-08
 -1       573 2.95900E+05 1.29949E+03 3.30273E+03-9.80248E+04-2.46228E-08 2.88310E-09
 -1       574 2.96112E+05 7.79162E+02 1.65640E+03-1.07971E+05 4.23643E-09 2.76113E-08
 -1       575 2.95995E+05 4.92408E+02 7.81836E+02-9.80003E+04-1.63307E-09 1.00408E-08
 -1       576 2.95976E+05 5.07481E+02 4.00436E+02-1.08002E+05-1.07138E-08 1.93932E-08
 -1       577 2.96038E+05 4.32225E+02 2.00010E+02-9.79969E+04-8.71114E-09 2.64999E-08
 -1       578 2.96011E+05 4.66812E+02 1.15873E+02-1.08006E+05-8.45466E-09 4.53656E-09
 -1       579 2.96115E+05 3.92243E+02 7.98990E+01-9.79966E+04 4.86216E-09-1.43609E-09
 -1       580 2.96120E+05 4.11588E+02 9.34912E+01-1.08002E+05-5.69071E-09-8.67931E-09
 -1       581 2.96238E+05 3.28847E+02 1.41497E+02-9.80027E+04 8.26185E-09 1.76442E-10
 -1       582 2.96307E+05 3.69664E+02 2.88383E+02-1.07938E+05 2.98314E-09 2.64390E-09
 -1       583 2.96389E+05 3.69103E+02 5.53198E+02-9.80613E+04 1.33150E-09-1.48962E-08
 -1       584 2.96702E+05 8.22406E+02 1.25246E+03-1.07444E+05 4.17640E-09-1.44860E-09
 -1       585 2.96422E+05 1.87279E+03 2.53557E+03-9.84952E+04-3.17777E-09 1.12668E-08
 -1       586-3.47683E+03 1.20367E+05-2.84797E+03-2.53996E+05-7.76436E-09-1.17825E-09
 -1       587-1.41196E+03 1.20138E+05 8.49149E+02-2.79540E+05-7.01402E-09-3.26423E-08
 -1       588 3.44824E+02 1.19922E+05 4.88224E+03-2.53855E+05-5.22778E-09-1.43427E-08
 -1       589 5.11368E+03 1.22454E+05 1.26047E+04-2.79308E+05-9.90440E-09-9.96806E-09
 -1       590 1.68733E+04 1.18563E+05 2.64183E+04-2.54294E+05-4.69936E-09 1.88320E-08
 -1       591-7.72441E+04-1.61975E+04-2.30319E+04-3.26066E+04 6.93717E-10-1.44237E-08
 -1       592-8.15180E+04-1.97413E+04-1.24760E+04-3.62061E+04 4.54082E-09-8.76173E-09
 -1       593-7.95466E+04-1.45272E+04-5.19309E+03-3.42963E+04 1.79054E-09-1.26290E-08
 -1       594-7.83393E+04-1.63602E+04-2.58991E+03-3.63246E+04-1.19734E-09 6.86683E-09
 -1       595-7.97221E+04-1.45218E+04-1.18898E+03-3.43730E+04-1.04271E-09 1.20030E-08
 -1       596-7.81216E+04-1.62056E+04-6.04108E+02-3.62986E+04 6.03507E-09 1.40606E-08
 -1       597-7.97441E+04-1.45376E+04-3.28295E+02-3.43759E+04 5.97271E-09-2.38947E-09
 -1       598-7.81001E+04-1.61994E+04-2.62698E+02-3.62913E+04-6.12772E-09-1.85340E-08
 -1       599-7.97429E+04-1.45381E+04-3.34052E+02-3.43756E+04-2.57012E-09-8.79947E-09
 -1       600-7.81216E+04-1.62060E+04-6.19353E+02-3.62964E+04 8.00901E-09-8.57398E-09
 -1       601-7.97179E+04-1.45233E+04-1.22122E+03-3.43721E+04 1.11718E-08-2.86241E-09
 -1       602-7.83452E+04-1.63636E+04-2.66119E+03-3.63192E+04-6.72742E-09-1.54863E-08
 -1       603-7.95348E+04-1.45318E+04-5.33661E+03-3.42942E+04-6.74504E-09-8.59791E-09
 -1       604-8.16299E+04-1.98179E+04-1.28198E+04-3.61719E+04 2.24412E-09 1.13687E-09
 -1       605-7.71483E+04-1.62665E+04-2.36669E+04-3.25778E+04 4.78042E-09-3.44153E-09
 -1       606 2.62868E+04-1.45815E+04-2.61366E+04 2.34315E+04-1.14323E-09 5.38489E-09
 -1       607 2.18213E+04-4.76413E+03-1.30160E+04 2.63353E+04-1.59343E-08-6.18161E-09
 -1       608 2.43676E+04-8.61081E+02-5.82668E+03 2.32694E+04-2.31375E-08 1.69946E-08
 -1       609 2.38806E+04-2.97533E+02-2.94354E+03 2.65448E+04-2.16187E-08 2.21826E-09
 -1       610 2.41517E+04-4.46784E+01-1.40426E+03 2.32500E+04-1.22682E-08 8.91600E-09
 -1       611 2.40762E+04-4.61065E+01-7.08021E+02 2.65674E+04-4.60568E-09-9.04174E-09
 -1       612 2.41051E+04-3.15368E+01-3.36432E+02 2.32480E+04-8.43829E-09-6.20571E-09
 -1       613 2.40893E+04-4.26922E+01-1.50609E+02 2.65701E+04-2.91948E-09 1.02773E-08
 -1       614 2.40836E+04-3.87275E+01-3.48684E+01 2.32473E+04-5.75255E-09 6.38488E-09
 -1       615 2.40850E+04-4.17604E+01 6.41569E+01 2.65705E+04-5.59339E-09 8.56653E-09
 -1       616 2.40666E+04-3.60294E+01 1.91444E+02 2.32476E+04 9.76343E-10 7.60656E-09
 -1       617 2.41089E+04-1.44716E+00 4.36388E+02 2.65700E+04 4.66207E-09-3.31888E-08
 -1       618 2.40293E+04 8.94017E+01 8.79482E+02 2.32479E+04 3.69710E-10-6.47515E-09
 -1       619 2.44198E+04 6.78265E+02 1.97485E+03 2.65695E+04-4.37831E-09 1.48680E-09
 -1       620 2.37375E+04 2.17461E+03 3.96937E+03 2.32498E+04-1.86571E-09-8.80391E-10
 -1       621 5.33700E+02 3.06054E+05 3.97146E+03 4.35116E+04 1.20144E-09-2.20671E-08
 -1       622 7.14338E+02 3.06963E+05 3.52046E+03 6.31599E+04 1.49885E-09-1.28130E-08
 -1       623 1.61607E+02 3.06247E+05 4.22316E+03 4.33152E+04 1.38493E-09-5.63159E-09
 -1       624 2.19279E+03 3.08193E+05 8.18207E+03 6.33529E+04 1.80393E-09-9.63132E-09
 -1       625 2.13500E+03 3.04621E+05 1.42949E+04 4.33118E+04 1.75351E-09-1.30967E-09
 -1       626 2.64883E+05 6.17123E+04 5.16618E+03 1.27862E+05 5.06088E-09 6.23004E-09
 -1       627 2.62598E+05 6.30685E+04 2.48953E+03 1.32114E+05 2.61389E-09 4.57726E-09
 -1       628 2.65009E+05 5.93523E+04 1.05298E+03 1.28746E+05 2.53294E-09 1.50495E-08
 -1       629 2.61962E+05 6.23772E+04 5.15346E+02 1.32352E+05 1.76624E-09-2.82267E-08
 -1       630 2.65024E+05 5.92379E+04 2.39238E+02 1.28784E+05 5.33510E-09-8.87894E-10
 -1       631 2.61896E+05 6.23503E+04 1.28944E+02 1.32354E+05 8.05198E-09 9.35665E-09
 -1       632 2.65021E+05 5.92415E+04 8.51948E+01 1.28780E+05 7.99491E-09-9.27730E-09
 -1       633 2.61889E+05 6.23517E+04 9.54580E+01 1.32351E+05 1.40631E-09-2.94904E-10
 -1       634 2.65018E+05 5.92382E+04 1.54747E+02 1.28780E+05-1.35520E-09 5.67979E-09
 -1       635 2.61904E+05 6.23497E+04 3.13428E+02 1.32357E+05-6.28341E-09-1.98670E-08
 -1       636 2.65009E+05 5.92321E+04 6.33127E+02 1.28780E+05 1.04692E-08 8.85484E-09
 -1       637 2.62042E+05 6.24481E+04 1.39225E+03 1.32357E+05 1.57797E-09-3.27009E-08
 -1       638 2.64960E+05 5.95395E+04 2.86054E+03 1.28641E+05 7.15136E-09-1.78820E-08
 -1       639 2.63544E+05 6.45380E+04 6.76829E+03 1.31914E+05 1.04646E-08 2.06621E-08
 -1       640 2.64751E+05 6.57811E+04 1.40454E+04 1.26013E+05 8.92715E-09 4.70163E-09
 -1       656 6.73925E+04-1.72589E+06-1.62682E+05-2.78962E+03 7.27596E-12-2.13728E-08
 -1       657-8.91611E+04-1.79941E+06-1.34786E+05 4.83682E+03-1.80989E-10-3.90335E-08
 -1       658 2.14883E+04-1.74676E+06-8.30289E+04-4.90493E+03-4.87262E-10-1.02992E-08
 -1       659-9.64605E+04-1.80288E+06-1.44380E+05 6.61798E+03-2.72121E-09-8.93863E-09
 -1       660 7.46756E+04-1.72243E+06-1.79176E+05-4.57076E+03-2.80124E-09-2.19933E-09
 -1       661 1.55776E+05 1.62409E+04 1.65566E+04 6.08983E+04-9.69521E-10 1.07812E-08
 -1       662 1.65192E+05 2.84479E+04 1.11581E+04 5.71207E+04-8.32983E-10-8.47922E-09
 -1       663 1.59029E+05 2.15526E+04 3.90233E+03 5.99545E+04 1.21372E-09 3.48086E-09
 -1       664 1.61421E+05 2.22365E+04 2.33451E+03 5.82738E+04-2.62142E-09 2.20552E-11
 -1       665 1.59522E+05 2.22779E+04 9.20956E+02 5.98103E+04-5.05906E-11 3.85339E-09
 -1       666 1.60837E+05 2.14072E+04 5.39247E+02 5.84619E+04 6.88692E-09-1.98235E-08
 -1       667 1.59609E+05 2.23602E+04 2.86804E+02 5.97740E+04 1.86125E-09-1.29925E-08
 -1       668 1.60741E+05 2.13482E+04 2.93100E+02 5.85145E+04-1.04013E-08 2.40805E-09
 -1       669 1.59617E+05 2.23352E+04 3.97537E+02 5.97579E+04-7.40323E-09 1.05081E-08
 -1       670 1.60838E+05 2.15642E+04 8.66303E+02 5.85172E+04-1.24282E-08-3.79360E-09
 -1       671 1.59512E+05 2.21488E+04 1.53842E+03 5.97693E+04 2.06251E-09-5.78075E-09
 -1       672 1.61735E+05 2.30606E+04 3.93618E+03 5.82996E+04 4.99666E-09-2.47434E-09
 -1       673 1.58724E+05 2.08767E+04 6.59648E+03 5.99610E+04 4.71482E-09 2.44927E-09
 -1       674 1.68013E+05 3.36587E+04 1.88646E+04 5.64551E+04-1.55205E-09-1.03228E-09
 -1       675 1.53274E+05 1.18476E+04 2.80017E+04 6.15025E+04 4.66571E-10-6.10271E-09
 -1       676 2.42531E+01-2.97873E+05-1.11846E+03-1.53365E+02-2.89901E-12-2.24529E-08
 -1       677-2.95578E+02-2.98144E+05-2.04697E+03 3.06480E+02 1.02389E-08 4.42753E-10
 -1       678 1.98471E+02-2.97680E+05-3.61855E+03-1.53016E+02 1.27966E-09-2.83602E-09
 -1       679-3.61834E+03-3.00328E+05-8.59617E+03 3.05146E+02 7.02403E-09-6.93313E-09
 -1       680 2.16056E+03-2.95690E+05-1.38541E+04-1.50344E+02-6.92125E-10-7.56329E-09
 -1       771-3.05802E+06-7.84373E+05-2.08651E+05-1.49162E+06-3.80096E-08-3.12575E-08
 -1       772-2.97620E+06-8.83143E+05-1.07800E+05-1.60575E+06-2.67610E-08 1.37879E-08
 -1       773-3.09590E+06-7.55125E+05-5.45591E+04-1.51089E+06-1.82190E-08 1.62545E-08
 -1       774-2.96449E+06-8.58628E+05-2.44348E+04-1.63589E+06 2.00234E-08 2.35741E-09
 -1       775-3.11548E+06-7.41553E+05-1.80304E+04-1.51990E+06-4.83124E-09 4.12547E-09
 -1       776-2.97987E+06-8.54392E+05-6.78861E+03-1.65892E+06-8.03266E-09 5.64614E-09
 -1       777-3.13249E+06-7.29365E+05-7.88781E+03-1.52777E+06 7.50879E-09 6.41739E-09
 -1       778-2.99594E+06-8.50534E+05-2.25430E+03-1.67873E+06 8.65839E-09 5.77347E-09
 -1       779-3.14715E+06-7.18668E+05-3.92572E+03-1.53447E+06-1.03028E-08-6.79938E-09
 -1       780-3.01008E+06-8.46892E+05-6.74852E+02-1.69487E+06-5.79166E-09 1.65892E-09
 -1       781-3.15884E+06-7.10022E+05-1.55504E+03-1.53970E+06-3.30328E-08-1.40062E-09
 -1       782-3.02099E+06-8.43834E+05 4.66085E+02-1.70677E+06-3.64962E-08-1.68257E-11
 -1       783-3.16707E+06-7.04000E+05 6.93417E+02-1.54334E+06-7.85803E-09-1.59480E-08
 -1       784-3.02715E+06-8.40985E+05 3.14726E+03-1.71411E+06-2.18424E-08 2.13458E-09
 -1       785-3.17188E+06-7.00448E+05 5.52753E+03-1.54559E+06-4.10982E-08 9.13133E-09
 -1       786 1.19943E+05-9.67840E+03 2.23920E+04-3.33834E+02 7.54365E-10 2.40198E-09
 -1       787 1.29655E+05 1.12055E+04 1.58414E+04-1.44362E+02 6.22662E-09 1.01666E-08
 -1       788 1.23688E+05-1.51656E+03 5.79316E+03-2.98283E+02 2.71797E-09 1.62104E-08
 -1       789 1.25293E+05 1.75549E+03 3.63655E+03-1.98664E+02-2.06036E-09 6.51426E-10
 -1       790 1.24306E+05-2.36045E+02 1.47194E+03-2.79550E+02-3.42189E-09-2.55073E-09
 -1       791 1.24570E+05 2.73111E+02 8.49325E+02-2.30672E+02-7.44966E-09 2.22256E-08
 -1       792 1.24411E+05-3.52901E+01 3.58231E+02-2.66278E+02-4.37263E-09 1.72048E-08
 -1       793 1.24444E+05 3.65702E+01 1.74910E+02-2.55548E+02-3.09658E-10-8.80956E-09
 -1       794 1.24432E+05 3.45949E-01 3.80639E+01-2.54674E+02 4.76705E-09-7.23490E-09
 -1       795 1.24405E+05-3.35091E+01-7.71721E+01-2.79599E+02-6.36558E-09 1.66020E-08
 -1       796 1.24451E+05 3.47497E+01-1.95576E+02-2.42227E+02 3.40463E-09 2.07353E-09
 -1       797 1.24294E+05-2.58629E+02-5.27273E+02-3.07985E+02 3.53087E-09 1.09966E-09
 -1       798 1.24543E+05 2.25297E+02-8.53619E+02-2.26288E+02 1.94739E-09 1.65265E-08
 -1       799 1.23647E+05-1.66067E+03-2.34613E+03-3.47394E+02 6.98555E-09 8.56221E-09
 -1       800 1.25098E+05 1.43565E+03-3.31956E+03-2.02820E+02 1.58280E-10 1.76747E-08
 -1       801-2.05355E+05-1.05363E+07-1.48655E+06 1.54917E+06 9.55770E-08-6.67860E-08
 -1       802 8.27211E+05 6.80312E+06 2.39443E+06-1.93425E+06 2.68803E-07-3.67145E-08
 -1       803-5.85220E+05-1.51893E+07-2.05001E+06 9.90742E+05 8.04102E-08 1.07357E-08
 -1       804 3.17005E+05 2.92735E+06 1.67671E+06 7.12515E+05-1.25918E-07-1.11449E-07
 -1       805 2.01193E+05-6.67357E+06-3.04356E+05-1.09168E+06-5.31800E-08-6.83467E-08
 -1       806-3.12950E+05-6.04836E+04-2.31713E+04-1.23927E+05-1.40203E-08 1.37834E-09
 -1       807-3.14779E+05-5.66958E+04-1.13838E+04-1.29545E+05 1.04510E-08 2.13856E-08
 -1       808-3.13587E+05-5.21320E+04-4.82939E+03-1.27874E+05-5.09044E-09 5.83213E-10
 -1       809-3.12386E+05-5.34966E+04-2.36145E+03-1.29823E+05-1.30804E-08 2.38597E-08
 -1       810-3.13683E+05-5.18414E+04-1.08242E+03-1.28049E+05 2.06319E-09-8.58108E-10
 -1       811-3.12200E+05-5.33681E+04-5.38316E+02-1.29787E+05-4.61068E-09-8.25548E-09
 -1       812-3.13697E+05-5.18665E+04-2.72390E+02-1.28048E+05-9.59517E-09-5.96719E-09
 -1       813-3.12175E+05-5.33703E+04-1.77204E+02-1.29768E+05-7.40283E-09 3.19324E-09
 -1       814-3.13690E+05-5.18764E+04-1.75934E+02-1.28044E+05-7.13044E-10 7.72889E-09
 -1       815-3.12178E+05-5.33726E+04-2.83690E+02-1.29760E+05 7.41420E-09-1.91494E-08
 -1       816-3.13668E+05-5.18756E+04-5.37877E+02-1.28040E+05 5.21959E-09-3.87445E-10
 -1       817-3.12270E+05-5.34239E+04-1.15435E+03-1.29748E+05-1.82627E-08 2.44409E-08
 -1       818-3.13598E+05-5.20387E+04-2.35453E+03-1.27963E+05 2.50930E-09 3.02034E-08
 -1       819-3.13558E+05-5.48464E+04-5.53993E+03-1.29443E+05 4.12138E-09 5.56656E-09
 -1       820-3.13153E+05-5.62242E+04-1.12758E+04-1.26176E+05-4.42014E-10 6.23550E-09
 -1       821-3.81937E+05 2.10258E+04-4.90556E+04 2.38450E+03 1.51616E-08 3.54703E-09
 -1       822-4.01346E+05-2.43630E+04-3.43892E+04-5.06620E+03 4.78428E-09 1.00117E-08
 -1       823-3.89252E+05 3.31992E+03-1.26608E+04 3.94822E+03-1.31471E-08-5.74892E-09
 -1       824-3.92436E+05-3.82541E+03-7.91140E+03-6.21720E+03 2.12751E-10-7.69933E-09
 -1       825-3.90858E+05 5.16225E+02-3.32852E+03 3.53567E+03 2.43419E-08 1.65065E-08
 -1       826-3.89727E+05-5.61143E+02-1.69604E+03-3.65837E+03 3.12264E-08-9.29515E-09
 -1       827-3.91930E+05 3.34272E+01-1.25405E+03 1.38919E+03 1.29960E-08-8.50372E-09
 -1       828-3.88830E+05-1.15388E+02-4.90631E+02 1.17666E+03-6.96900E-10 2.89432E-08
 -1       829-3.91737E+05 5.63718E+01-1.23660E+03-1.29939E+03 1.71661E-09 5.12571E-09
 -1       830-3.90138E+05-6.24462E+02-1.84879E+03 5.58935E+03 3.64657E-09 7.09451E-09
 -1       831-3.90650E+05 5.65618E+02-3.40506E+03-3.02350E+03-7.83913E-09 1.19871E-08
 -1       832-3.92511E+05-4.00093E+03-8.21822E+03 7.11329E+03-2.82485E-09 2.61396E-08
 -1       833-3.89386E+05 3.44665E+03-1.31773E+04-2.82341E+03-1.91685E-09 1.12514E-08
 -1       834-4.01339E+05-2.52898E+04-3.56149E+04 4.85818E+03-4.27856E-09 5.63887E-10
 -1       835-3.81799E+05 2.18162E+04-5.09563E+04-7.68276E+02 4.80500E-09-5.41695E-09
 -1       836-1.43982E+03 3.75737E+05 2.32844E+04-1.56854E+04-7.64521E-09 1.99207E-08
 -1       837 4.95734E+03 3.83033E+05 1.96841E+04-3.21288E+04-8.45415E-09 1.21852E-08
 -1       838-5.69101E+02 3.77786E+05 2.00293E+04-1.56143E+04-6.98310E-09-3.44608E-09
 -1       839 1.25882E+04 3.88717E+05 3.78636E+04-3.21826E+04-7.49469E-09 3.34089E-08
 -1       840-3.89635E+03 3.69994E+05 6.03673E+04-1.56381E+04-6.77392E-09-2.62219E-10
 -1       856-4.89005E+04 7.98920E+03-2.10531E+04-3.95179E+02 3.82943E-09-3.04499E-09
 -1       857-5.75720E+04-9.38865E+03-1.44927E+04 5.66722E+03 6.65693E-09-1.41608E-08
 -1       858-5.23354E+04 1.12050E+03-5.46269E+03-4.18926E+02-1.38908E-09-6.24573E-09
 -1       859-5.36303E+04-1.31976E+03-3.29628E+03 5.70229E+03-4.83146E-09-1.17786E-08
 -1       860-5.28485E+04 1.57022E+02-1.38111E+03-4.29945E+02 6.13539E-10 2.85502E-09
 -1       861-5.30401E+04-1.88891E+02-7.59024E+02 5.71727E+03 2.57202E-09 7.29995E-09
 -1       862-5.29288E+04 2.13200E+01-3.14003E+02-4.33881E+02-3.69371E-09 2.46132E-10
 -1       863-5.29414E+04-2.28543E+01-1.10947E+02 5.71960E+03-6.05384E-09-1.17722E-08
 -1       864-5.29477E+04-5.22969E+00 5.47272E+01-4.32267E+02-4.80634E-09-2.36224E-08
 -1       865-5.28838E+04 6.17247E+01 2.71325E+02 5.71026E+03-3.86754E-09-2.13757E-08
 -1       866-5.29842E+04-6.32198E+01 5.42851E+02-4.24547E+02-4.16492E-10-4.17293E-09
 -1       867-5.26296E+04 5.21732E+02 1.33358E+03 5.68933E+03-1.31229E-09 3.72324E-09
 -1       868-5.31969E+04-4.56778E+02 2.21546E+03-4.11340E+02-1.07673E-09 1.99134E-09
 -1       869-5.10064E+04 3.80183E+03 5.89797E+03 5.65502E+03 6.54489E-09-1.94486E-08
 -1       870-5.45996E+04-3.25400E+03 8.55951E+03-3.90109E+02-7.55938E-09-6.36146E-09
 -1       871-5.56581E+03-2.22533E+04-1.98004E+04 1.32615E+05-5.16047E-09 4.24643E-09
 -1       872-1.96236E+03-2.68701E+04-8.30438E+03 1.71957E+05-1.33768E-08 3.62888E-09
 -1       873 4.49971E+02-2.46302E+04 5.65452E+02 1.32323E+05-7.38510E-09 6.20389E-09
 -1       874 3.39025E+03-2.22100E+04 9.85590E+03 1.71985E+05-1.13369E-08 1.85428E-08
 -1       875 6.94969E+03-2.69790E+04 2.22605E+04 1.32565E+05-6.77755E-09-9.27412E-09
 -1       876 2.96937E+05 4.99670E+04 1.52269E+04 1.19067E+05 1.54569E-09 2.02544E-09
 -1       877 2.97952E+05 5.31649E+04 8.13179E+03 1.23427E+05 7.36213E-09 1.50060E-08
 -1       878 2.98361E+05 4.82800E+04 3.40682E+03 1.20314E+05-2.08775E-09 2.01430E-09
 -1       879 2.95883E+05 5.10991E+04 1.69751E+03 1.23530E+05-1.48520E-09 3.58591E-09
 -1       880 2.98463E+05 4.82626E+04 7.90706E+02 1.20365E+05-7.68705E-09 1.41800E-08
 -1       881 2.95745E+05 5.10107E+04 4.22335E+02 1.23506E+05-4.84795E-09 3.70957E-09
 -1       882 2.98472E+05 4.82760E+04 2.70335E+02 1.20367E+05-3.49291E-09-4.40542E-09
 -1       883 2.95735E+05 5.10061E+04 2.90863E+02 1.23498E+05-6.59537E-09 2.01970E-08
 -1       884 2.98465E+05 4.82732E+04 4.62916E+02 1.20367E+05-3.03817E-09-1.58389E-09
 -1       885 2.95772E+05 5.10125E+04 9.30854E+02 1.23509E+05-7.14920E-09-1.88269E-08
 -1       886 2.98429E+05 4.82461E+04 1.87616E+03 1.20364E+05-3.43713E-09 1.24396E-09
 -1       887 2.96102E+05 5.12287E+04 4.09824E+03 1.23557E+05 1.04680E-08 9.33539E-09
 -1       888 2.98170E+05 4.82917E+04 8.25808E+03 1.20233E+05 6.81396E-10-8.85302E-09
 -1       889 3.01018E+05 5.63416E+04 1.97270E+04 1.23406E+05-5.41747E-09-9.96670E-09
 -1       890 2.94799E+05 5.22963E+04 3.69482E+04 1.17091E+05-5.89807E-10-7.94535E-09
 -1       891-8.35939E+01-1.64266E+05-2.01934E+03 2.71533E+04-6.49834E-10 3.21390E-08
 -1       892-1.66913E+02-1.64803E+05-2.16720E+03 4.12469E+04 1.93086E-09 1.99038E-08
 -1       893 5.11930E+01-1.64331E+05-3.06680E+03 2.71608E+04 5.93445E-10 8.52879E-09
 -1       894-1.51436E+03-1.65961E+05-6.34595E+03 4.10939E+04 2.10412E-09 4.01997E-10
 -1       895-1.20389E+03-1.63009E+05-1.11746E+04 2.73085E+04 1.46315E-10-1.99543E-09
 -1       956-3.81760E+05-5.52592E+03-1.36165E+04 3.16565E+04 7.28323E-09-1.85694E-08
 -1       957-3.84430E+05-1.95727E+03-6.98908E+03 3.80364E+04 1.35333E-09-1.67156E-08
 -1       958-3.82985E+05-2.53167E+02-3.14955E+03 3.14862E+04-5.56884E-09-4.65889E-09
 -1       959-3.83182E+05-1.48795E+02-1.60817E+03 3.82361E+04 2.93403E-09 1.59257E-08
 -1       960-3.83105E+05-5.41738E+01-7.84232E+02 3.14686E+04 8.02356E-09-1.97474E-08
 -1       961-3.83102E+05-7.44940E+01-4.15767E+02 3.82570E+04 1.38189E-08-2.90463E-08
 -1       962-3.83134E+05-5.51624E+01-2.38034E+02 3.14657E+04 7.97172E-09 9.73137E-09
 -1       963-3.83102E+05-7.01206E+01-1.91077E+02 3.82607E+04 1.30924E-08-4.29986E-09
 -1       964-3.83139E+05-5.17640E+01-2.32388E+02 3.14649E+04 4.76837E-09-1.24192E-09
 -1       965-3.83114E+05-6.72502E+01-4.01953E+02 3.82599E+04-4.12672E-09 7.22957E-09
 -1       966-3.83122E+05-4.40739E+01-7.55311E+02 3.14665E+04 8.06722E-10-4.46448E-09
 -1       967-3.83204E+05-1.31949E+02-1.54911E+03 3.82451E+04-6.47742E-09-5.82077E-11
 -1       968-3.83016E+05-2.29292E+02-3.03268E+03 3.14795E+04-1.85992E-09-1.84000E-08
 -1       969-3.84419E+05-1.86836E+03-6.73237E+03 3.80921E+04 8.80209E-09-6.13483E-10
 -1       970-3.81845E+05-5.30436E+03-1.31152E+04 3.16098E+04 3.70346E-09 3.36913E-08
 -1       971-3.48783E+05-1.73848E+03-9.34707E+03 1.54473E+04 5.22869E-09-2.18100E-08
 -1       972-3.51032E+05-1.28257E+03-5.09034E+03 2.13446E+04-1.46883E-09-1.04915E-08
 -1       973-3.49825E+05-6.63811E+01-2.28004E+03 1.53264E+04-1.61890E-10 1.61458E-09
 -1       974-3.49959E+05-8.71693E+01-1.18196E+03 2.14820E+04 7.66886E-09-4.28531E-09
 -1       975-3.49907E+05-2.13344E+01-5.91413E+02 1.53140E+04-1.24783E-09 1.44420E-08
 -1       976-3.49897E+05-3.71395E+01-3.42301E+02 2.14978E+04 5.75073E-09 2.56165E-08
 -1       977-3.49924E+05-2.05801E+01-2.50386E+02 1.53105E+04-3.07068E-09 4.73358E-09
 -1       978-3.49902E+05-3.08849E+01-2.95670E+02 2.15028E+04-6.43240E-09 1.96401E-08
 -1       979-3.49923E+05-1.20204E+01-4.77334E+02 1.53091E+04-7.08883E-09 1.05418E-08
 -1       980-3.49938E+05-2.77982E+01-9.23104E+02 2.15038E+04-3.11358E-09 1.25160E-08
 -1       981-3.49894E+05 1.10637E+01-1.78858E+03 1.53096E+04 1.59162E-10 4.65479E-09
 -1       982-3.50184E+05-1.59939E+02-3.69738E+03 2.14971E+04 7.93466E-09-1.91173E-08
 -1       983-3.49669E+05-1.03438E+02-7.18424E+03 1.53156E+04-6.22094E-10 3.53202E-09
 -1       984-3.53639E+05-3.91202E+03-1.60890E+04 2.14113E+04-1.46429E-10 4.55452E-09
 -1       985-3.46416E+05-5.36038E+03-2.95443E+04 1.53859E+04-3.46699E-09 2.37924E-09
 -3
    1PSTEP                        51          26           1          
  100CL  126 6.68141E-01         409                     0   26           1
 -4  DISP        4    1
 -5  D1          1    2    1    0
 -5  D2          1    2    2    0
 -5  D3          1    2    3    0
 -5  ALL         1    2    0    0    1ALL
 -1         1 4.70610E-03 0.00000E+00 0.00000E+00
 -1         2 4.64136E-03 1.45808E-28 0.00000E+00
 -1         3 3.53940E-04-5.13613E-28 1.32349E-23
 -1         5 1.82545E-04-6.42323E-27-2.48154E-24
 -1         8 4.69335E-03-3.41190E-07 0.00000E+00
 -1         9 4.62343E-03-1.42461E-05 0.00000E+00
 -1        10 3.21350E-04-2.88158E-06-6.61744E-24
 -1        12 1.84585E-04 8.22736E-07-1.65436E-24
 -1        15 4.67758E-03-3.71588E-07 0.00000E+00
 -1        16 4.68877E-03-1.66732E-05 0.00000E+00
 -1        17 2.19278E-04-6.71360E-06 0.00000E+00
 -1        18 1.89090E-04 3.70380E-05 0.00000E+00
 -1        19 1.90706E-04 1.63849E-06 0.00000E+00
 -1        20 1.90842E-04-1.20953E-05 0.00000E+00
 -1        21 1.89926E-04-3.01068E-05 0.00000E+00
 -1        24 3.07847E-05-1.07917E-05 0.00000E+00
 -1        25 2.00847E-04 3.72695E-05 0.00000E+00
 -1        26 2.01501E-04 2.26784E-06 0.00000E+00
 -1        27 1.99264E-04-1.57062E-05 0.00000E+00
 -1        28 1.98965E-04-3.07350E-05 0.00000E+00
 -1        32 0.00000E+00 0.00000E+00 0.00000E+00
 -1        33 2.11323E-04 3.03292E-06 0.00000E+00
 -1        34 2.09174E-04-1.57658E-05 0.00000E+00
 -1        35 2.07218E-04-3.10821E-05 0.00000E+00
 -1        51 4.70530E-03-7.38819E-08-3.30872E-24
 -1        52 4.70379E-03-1.29405E-07 0.00000E+00
 -1        53 4.70170E-03-1.81641E-07 0.00000E+00
 -1        54 4.69918E-03-2.32887E-07 0.00000E+00
 -1        55 4.69635E-03-2.84910E-07-3.30872E-24
 -1        56 4.69825E-03 8.85373E-06-5.29396E-23
 -1        57 4.68246E-03 3.72684E-05 5.29396E-23
 -1        58 4.66045E-03 8.06812E-05-1.05879E-22
 -1        59 4.63454E-03 1.33095E-04-5.29396E-23
 -1        60 4.60800E-03 1.86942E-04 0.00000E+00
 -1        61 4.58418E-03 2.34517E-04 0.00000E+00
 -1        62 4.56577E-03 2.69235E-04 0.00000E+00
 -1        63 4.55478E-03 2.85643E-04-5.29396E-23
 -1        64 4.55161E-03 2.81633E-04-1.05879E-22
 -1        65 4.55589E-03 2.57001E-04 0.00000E+00
 -1        66 4.56596E-03 2.15443E-04 0.00000E+00
 -1        67 4.57982E-03 1.62311E-04 0.00000E+00
 -1        68 4.59495E-03 1.05200E-04 0.00000E+00
 -1        69 4.60883E-03 5.21096E-05 0.00000E+00
 -1        70 4.61901E-03 1.02487E-05 5.29396E-23
 -1        86 4.63774E-03-2.36757E-06 5.29396E-23
 -1        87 4.62725E-03-4.77973E-06 2.64698E-23
 -1        88 4.61629E-03-7.19584E-06-5.29396E-23
 -1        89 4.61133E-03-9.55472E-06-2.64698E-23
 -1        90 4.61355E-03-1.19090E-05-5.29396E-23
 -1       121 3.53026E-04-4.61853E-07 0.00000E+00
 -1       122 3.50289E-04-9.26907E-07 0.00000E+00
 -1       123 3.45735E-04-1.39832E-06 1.32349E-23
 -1       124 3.39381E-04-1.87924E-06 6.61744E-24
 -1       125 3.31243E-04-2.37249E-06 1.32349E-23
 -1       191 1.82602E-04 1.37200E-07-2.48154E-24
 -1       192 1.82772E-04 2.74385E-07-1.24077E-24
 -1       193 1.83055E-04 4.11547E-07 0.00000E+00
 -1       194 1.83452E-04 5.48669E-07 0.00000E+00
 -1       195 1.83962E-04 6.85737E-07-8.27181E-25
 -1       251 4.69241E-03 2.49136E-05 0.00000E+00
 -1       252 4.68941E-03 9.47593E-05 6.61744E-24
 -1       253 4.68385E-03 1.96662E-04-1.32349E-23
 -1       254 4.67625E-03 3.17337E-04 0.00000E+00
 -1       255 4.66865E-03 4.38171E-04 0.00000E+00
 -1       256 4.66303E-03 5.40548E-04 0.00000E+00
 -1       257 4.65998E-03 6.11092E-04 0.00000E+00
 -1       258 4.65901E-03 6.37170E-04-6.61744E-24
 -1       259 4.65817E-03 6.17560E-04 0.00000E+00
 -1       260 4.65546E-03 5.52275E-04 0.00000E+00
 -1       261 4.65013E-03 4.52968E-04 1.32349E-23
 -1       262 4.64251E-03 3.32097E-04 6.61744E-24
 -1       263 4.63454E-03 2.08198E-04 0.00000E+00
 -1       264 4.62832E-03 9.98692E-05 6.61744E-24
 -1       265 4.62470E-03 2.12318E-05 2.64698E-23
 -1       266 4.69073E-03-3.51501E-07 0.00000E+00
 -1       267 4.68810E-03-3.55928E-07 0.00000E+00
 -1       268 4.68547E-03-3.60728E-07 4.13590E-25
 -1       269 4.68284E-03-3.64424E-07 0.00000E+00
 -1       270 4.68021E-03-3.68094E-07 0.00000E+00
 -1       271 4.69157E-03 2.73203E-06 0.00000E+00
 -1       272 4.68939E-03 6.82251E-06 0.00000E+00
 -1       273 4.68694E-03 1.15985E-05-1.32349E-23
 -1       274 4.68436E-03 1.67143E-05 0.00000E+00
 -1       275 4.68178E-03 2.18246E-05-1.32349E-23
 -1       276 4.67934E-03 2.65827E-05 6.61744E-24
 -1       277 4.67716E-03 3.06448E-05-1.32349E-23
 -1       278 4.67537E-03 3.36717E-05 0.00000E+00
 -1       279 4.67410E-03 3.53314E-05 0.00000E+00
 -1       280 4.67347E-03 3.53013E-05 6.61744E-24
 -1       281 4.67358E-03 3.32707E-05 0.00000E+00
 -1       282 4.67454E-03 2.89426E-05-6.61744E-24
 -1       283 4.67646E-03 2.20364E-05 0.00000E+00
 -1       284 4.67942E-03 1.22897E-05 0.00000E+00
 -1       285 4.68350E-03-5.40930E-07-1.32349E-23
 -1       301 4.63448E-03-1.46706E-05 0.00000E+00
 -1       302 4.64397E-03-1.50552E-05 6.61744E-24
 -1       303 4.65302E-03-1.54329E-05 0.00000E+00
 -1       304 4.66275E-03-1.58161E-05 0.00000E+00
 -1       305 4.67429E-03-1.62213E-05 0.00000E+00
 -1       306 4.66832E-03-2.20921E-04-1.05879E-22
 -1       307 4.71812E-03-7.73196E-04 0.00000E+00
 -1       308 4.70425E-03-1.58142E-03 0.00000E+00
 -1       309 4.63093E-03-2.51470E-03 0.00000E+00
 -1       310 4.58049E-03-3.40029E-03-1.05879E-22
 -1       311 4.61084E-03-4.06739E-03-5.29396E-23
 -1       312 4.66931E-03-4.40245E-03 0.00000E+00
 -1       313 4.64608E-03-4.37431E-03 0.00000E+00
 -1       314 4.40645E-03-4.00872E-03 0.00000E+00
 -1       315 3.88981E-03-3.42942E-03 0.00000E+00
 -1       316 3.12179E-03-2.74503E-03-1.05879E-22
 -1       317 2.20985E-03-2.03336E-03-2.64698E-23
 -1       318 1.34290E-03-1.32973E-03 0.00000E+00
 -1       319 6.96393E-04-6.86042E-04-5.29396E-23
 -1       320 3.33226E-04-2.08482E-04-2.11758E-22
 -1       336 3.09502E-04-3.44761E-06 0.00000E+00
 -1       337 2.95509E-04-4.04054E-06 0.00000E+00
 -1       338 2.79422E-04-4.66316E-06-1.32349E-23
 -1       339 2.61306E-04-5.31635E-06-6.61744E-24
 -1       340 2.41232E-04-6.00559E-06-6.61744E-24
 -1       406 1.85322E-04 9.59645E-07 8.27181E-25
 -1       407 1.86173E-04 1.09642E-06 0.00000E+00
 -1       408 1.87136E-04 1.23302E-06-1.65436E-24
 -1       409 1.88213E-04 1.36925E-06 4.13590E-25
 -1       410 1.89404E-04 1.50483E-06 1.44757E-24
 -1       521 4.73300E-03-2.36133E-04 0.00000E+00
 -1       522 4.77751E-03-8.08253E-04 0.00000E+00
 -1       523 4.75408E-03-1.63702E-03 1.05879E-22
 -1       524 4.67380E-03-2.58135E-03 5.29396E-23
 -1       525 4.61827E-03-3.47502E-03-1.05879E-22
 -1       526 4.64389E-03-4.15428E-03 1.05879E-22
 -1       527 4.69971E-03-4.49382E-03-2.11758E-22
 -1       528 4.67069E-03-4.46009E-03 0.00000E+00
 -1       529 4.41215E-03-4.07900E-03 0.00000E+00
 -1       530 3.86562E-03-3.48665E-03 5.29396E-23
 -1       531 3.06203E-03-2.79485E-03 0.00000E+00
 -1       532 2.12094E-03-2.08079E-03 0.00000E+00
 -1       533 1.22540E-03-1.37378E-03-2.11758E-22
 -1       534 5.45280E-04-7.19277E-04 0.00000E+00
 -1       535 1.57406E-04-2.26341E-04 2.11758E-22
 -1       536 2.18490E-04 2.93633E-05 0.00000E+00
 -1       537 2.16459E-04 9.17116E-05 0.00000E+00
 -1       538 2.13318E-04 1.70784E-04 0.00000E+00
 -1       539 2.09612E-04 2.56943E-04 0.00000E+00
 -1       540 2.06280E-04 3.38336E-04 3.30872E-24
 -1       541 2.04118E-04 4.03130E-04 0.00000E+00
 -1       542 2.03125E-04 4.44395E-04 0.00000E+00
 -1       543 2.02894E-04 4.55356E-04 0.00000E+00
 -1       544 2.02561E-04 4.36803E-04-3.30872E-24
 -1       545 2.01327E-04 3.89758E-04 1.65436E-24
 -1       546 1.99019E-04 3.22568E-04 0.00000E+00
 -1       547 1.95889E-04 2.43704E-04 0.00000E+00
 -1       548 1.92786E-04 1.65206E-04 0.00000E+00
 -1       549 1.90548E-04 9.91095E-05 0.00000E+00
 -1       550 1.89388E-04 5.36765E-05 0.00000E+00
 -1       551 1.93481E-04-7.23033E-06 0.00000E+00
 -1       552 1.64354E-04-7.83698E-06 0.00000E+00
 -1       553 1.32701E-04-8.51480E-06-6.61744E-24
 -1       554 9.93425E-05-9.24650E-06 1.03398E-24
 -1       555 6.50978E-05-1.00079E-05 1.32349E-23
 -1       556 2.11362E-04 1.35362E-05 0.00000E+00
 -1       557 2.04957E-04 2.99689E-05 0.00000E+00
 -1       558 1.99932E-04 4.28827E-05 0.00000E+00
 -1       559 1.96149E-04 5.25965E-05 0.00000E+00
 -1       560 1.93475E-04 5.94299E-05 0.00000E+00
 -1       561 1.91777E-04 6.37049E-05 0.00000E+00
 -1       562 1.90928E-04 6.57450E-05 0.00000E+00
 -1       563 1.90799E-04 6.58744E-05 0.00000E+00
 -1       564 1.91264E-04 6.44185E-05 0.00000E+00
 -1       565 1.92200E-04 6.17033E-05 0.00000E+00
 -1       566 1.93483E-04 5.80553E-05 0.00000E+00
 -1       567 1.94992E-04 5.38016E-05 0.00000E+00
 -1       568 1.96603E-04 4.92695E-05 0.00000E+00
 -1       569 1.98197E-04 4.47860E-05-8.27181E-25
 -1       570 1.99652E-04 4.06784E-05 0.00000E+00
 -1       571 1.89188E-04 3.47389E-05 8.27181E-25
 -1       572 1.89288E-04 3.23727E-05 0.00000E+00
 -1       573 1.89389E-04 2.99556E-05 0.00000E+00
 -1       574 1.89490E-04 2.75045E-05 1.65436E-24
 -1       575 1.89590E-04 2.50363E-05 0.00000E+00
 -1       576 1.89691E-04 2.25682E-05 3.30872E-24
 -1       577 1.89792E-04 2.01171E-05 0.00000E+00
 -1       578 1.89893E-04 1.77002E-05 0.00000E+00
 -1       579 1.89994E-04 1.53345E-05 0.00000E+00
 -1       580 1.90095E-04 1.30371E-05 0.00000E+00
 -1       581 1.90197E-04 1.08251E-05 0.00000E+00
 -1       582 1.90298E-04 8.71550E-06 0.00000E+00
 -1       583 1.90400E-04 6.72540E-06-6.61744E-24
 -1       584 1.90502E-04 4.87163E-06 3.30872E-24
 -1       585 1.90604E-04 3.17090E-06 0.00000E+00
 -1       586 1.91010E-04 3.70787E-05 0.00000E+00
 -1       587 1.92887E-04 3.71189E-05 4.13590E-25
 -1       588 1.94765E-04 3.71587E-05 8.27181E-25
 -1       589 1.96689E-04 3.71979E-05 0.00000E+00
 -1       590 1.98702E-04 3.72357E-05 0.00000E+00
 -1       591 1.89881E-04 3.48368E-05-2.06795E-25
 -1       592 1.90674E-04 3.26170E-05 2.06795E-25
 -1       593 1.91472E-04 3.03845E-05 8.27181E-25
 -1       594 1.92272E-04 2.81437E-05 0.00000E+00
 -1       595 1.93073E-04 2.58992E-05-8.27181E-25
 -1       596 1.93874E-04 2.36557E-05-4.13590E-25
 -1       597 1.94673E-04 2.14176E-05 8.27181E-25
 -1       598 1.95468E-04 1.91895E-05 0.00000E+00
 -1       599 1.96258E-04 1.69758E-05 0.00000E+00
 -1       600 1.97041E-04 1.47812E-05 4.13590E-25
 -1       601 1.97815E-04 1.26101E-05-8.27181E-25
 -1       602 1.98578E-04 1.04671E-05 4.13590E-25
 -1       603 1.99330E-04 8.35666E-06 0.00000E+00
 -1       604 2.00068E-04 6.28347E-06 0.00000E+00
 -1       605 2.00791E-04 4.25196E-06 0.00000E+00
 -1       606 1.90719E-04 3.43945E-07 3.30872E-24
 -1       607 1.90729E-04-8.66777E-07 0.00000E+00
 -1       608 1.90737E-04-1.99859E-06 0.00000E+00
 -1       609 1.90745E-04-3.05704E-06 0.00000E+00
 -1       610 1.90754E-04-4.04774E-06 0.00000E+00
 -1       611 1.90762E-04-4.97635E-06 0.00000E+00
 -1       612 1.90770E-04-5.84851E-06 0.00000E+00
 -1       613 1.90778E-04-6.66994E-06 0.00000E+00
 -1       614 1.90786E-04-7.44628E-06 0.00000E+00
 -1       615 1.90794E-04-8.18322E-06 0.00000E+00
 -1       616 1.90802E-04-8.88644E-06 0.00000E+00
 -1       617 1.90810E-04-9.56160E-06-4.13590E-25
 -1       618 1.90818E-04-1.02144E-05 8.27181E-25
 -1       619 1.90827E-04-1.08505E-05-2.06795E-25
 -1       620 1.90834E-04-1.14755E-05 0.00000E+00
 -1       621 1.92202E-04 1.74402E-06 0.00000E+00
 -1       622 1.93866E-04 1.84977E-06 8.27181E-25
 -1       623 1.95664E-04 1.95527E-06-1.65436E-24
 -1       624 1.97559E-04 2.06042E-06-8.27181E-25
 -1       625 1.99517E-04 2.16526E-06-1.65436E-24
 -1       626 1.91305E-04 3.80693E-07 3.30872E-24
 -1       627 1.91882E-04-8.16353E-07-3.30872E-24
 -1       628 1.92440E-04-1.96043E-06 0.00000E+00
 -1       629 1.92981E-04-3.05962E-06 0.00000E+00
 -1       630 1.93508E-04-4.12205E-06 0.00000E+00
 -1       631 1.94025E-04-5.15582E-06 0.00000E+00
 -1       632 1.94533E-04-6.16906E-06 0.00000E+00
 -1       633 1.95038E-04-7.16992E-06 0.00000E+00
 -1       634 1.95540E-04-8.16651E-06 3.30872E-24
 -1       635 1.96044E-04-9.16694E-06-1.65436E-24
 -1       636 1.96553E-04-1.01794E-05 3.30872E-24
 -1       637 1.97069E-04-1.12119E-05 1.65436E-24
 -1       638 1.97595E-04-1.22727E-05-1.65436E-24
 -1       639 1.98135E-04-1.33699E-05 0.00000E+00
 -1       640 1.98691E-04-1.45116E-05-1.65436E-24
 -1       656 1.91694E-04-1.26821E-05-6.61744E-24
 -1       657 1.92965E-04-1.32928E-05 0.00000E+00
 -1       658 1.94518E-04-1.39021E-05 0.00000E+00
 -1       659 1.96209E-04-1.45112E-05-6.61744E-24
 -1       660 1.97852E-04-1.51220E-05 0.00000E+00
 -1       661 1.91160E-04-1.27612E-05-8.27181E-25
 -1       662 1.91517E-04-1.35214E-05 0.00000E+00
 -1       663 1.91907E-04-1.43701E-05 0.00000E+00
 -1       664 1.92327E-04-1.53008E-05-8.27181E-25
 -1       665 1.92777E-04-1.63073E-05 0.00000E+00
 -1       666 1.93252E-04-1.73835E-05 0.00000E+00
 -1       667 1.93751E-04-1.85234E-05 0.00000E+00
 -1       668 1.94272E-04-1.97213E-05 0.00000E+00
 -1       669 1.94813E-04-2.09715E-05 0.00000E+00
 -1       670 1.95371E-04-2.22684E-05-8.27181E-25
 -1       671 1.95944E-04-2.36067E-05 1.65436E-24
 -1       672 1.96530E-04-2.49809E-05 8.27181E-25
 -1       673 1.97128E-04-2.63857E-05 0.00000E+00
 -1       674 1.97735E-04-2.78164E-05 0.00000E+00
 -1       675 1.98350E-04-2.92672E-05 0.00000E+00
 -1       676 1.91437E-04-3.02121E-05 0.00000E+00
 -1       677 1.92948E-04-3.03174E-05 0.00000E+00
 -1       678 1.94457E-04-3.04226E-05-3.30872E-24
 -1       679 1.95964E-04-3.05275E-05 1.65436E-24
 -1       680 1.97467E-04-3.06324E-05 0.00000E+00
 -1       771 1.77473E-05 1.85737E-05 0.00000E+00
 -1       772 6.81269E-06 4.26687E-05 0.00000E+00
 -1       773-2.11811E-06 6.17469E-05 1.05879E-22
 -1       774-9.18491E-06 7.60913E-05 0.00000E+00
 -1       775-1.45237E-05 8.59967E-05 0.00000E+00
 -1       776-1.82761E-05 9.17769E-05-2.64698E-23
 -1       777-2.05830E-05 9.37570E-05 0.00000E+00
 -1       778-2.15879E-05 9.22777E-05 7.94093E-23
 -1       779-2.14335E-05 8.76893E-05 5.29396E-23
 -1       780-2.02642E-05 8.03552E-05 0.00000E+00
 -1       781-1.82234E-05 7.06461E-05 0.00000E+00
 -1       782-1.54560E-05 5.89431E-05 0.00000E+00
 -1       783-1.21053E-05 4.56322E-05-5.29396E-23
 -1       784-8.31643E-06 3.11065E-05 2.64698E-23
 -1       785-4.23282E-06 1.57627E-05 0.00000E+00
 -1       786 2.00884E-04 3.48492E-05-2.58494E-26
 -1       787 2.00924E-04 3.24801E-05 0.00000E+00
 -1       788 2.00964E-04 3.01539E-05 0.00000E+00
 -1       789 2.01005E-04 2.78622E-05-4.13590E-25
 -1       790 2.01045E-04 2.56002E-05 0.00000E+00
 -1       791 2.01087E-04 2.33631E-05-8.27181E-25
 -1       792 2.01128E-04 2.11485E-05 0.00000E+00
 -1       793 2.01169E-04 1.89543E-05-8.27181E-25
 -1       794 2.01210E-04 1.67799E-05 0.00000E+00
 -1       795 2.01251E-04 1.46253E-05 0.00000E+00
 -1       796 2.01293E-04 1.24922E-05-1.65436E-24
 -1       797 2.01334E-04 1.03822E-05 0.00000E+00
 -1       798 2.01375E-04 8.29940E-06 0.00000E+00
 -1       799 2.01417E-04 6.24796E-06 0.00000E+00
 -1       800 2.01459E-04 4.23501E-06-1.65436E-24
 -1       801 1.52893E-04 3.35549E-05-2.64698E-23
 -1       802 7.99314E-06 2.08443E-05 2.64698E-23
 -1       803-1.15643E-04 1.04475E-05 0.00000E+00
 -1       804-1.02487E-04 7.29995E-06 0.00000E+00
 -1       805-3.42758E-05 2.84403E-06 0.00000E+00
 -1       806 2.01638E-04 3.47793E-05-1.65436E-24
 -1       807 2.02414E-04 3.23159E-05 1.65436E-24
 -1       808 2.03177E-04 2.98846E-05-3.30872E-24
 -1       809 2.03926E-04 2.74896E-05-1.65436E-24
 -1       810 2.04660E-04 2.51349E-05 0.00000E+00
 -1       811 2.05378E-04 2.28246E-05-1.65436E-24
 -1       812 2.06078E-04 2.05626E-05-3.30872E-24
 -1       813 2.06758E-04 1.83529E-05 0.00000E+00
 -1       814 2.07417E-04 1.61995E-05 0.00000E+00
 -1       815 2.08053E-04 1.41063E-05 1.65436E-24
 -1       816 2.08666E-04 1.20774E-05-1.65436E-24
 -1       817 2.09253E-04 1.01165E-05 0.00000E+00
 -1       818 2.09814E-04 8.22776E-06 3.30872E-24
 -1       819 2.10346E-04 6.41499E-06-8.27181E-25
 -1       820 2.10849E-04 4.68210E-06 3.30872E-24
 -1       821 2.01370E-04-3.64403E-07 1.65436E-24
 -1       822 2.01227E-04-4.36643E-06 0.00000E+00
 -1       823 2.01081E-04-9.24440E-06 3.30872E-24
 -1       824 2.00931E-04-1.44989E-05 0.00000E+00
 -1       825 2.00783E-04-1.95281E-05 0.00000E+00
 -1       826 2.00638E-04-2.37311E-05 0.00000E+00
 -1       827 2.00497E-04-2.67341E-05-3.30872E-24
 -1       828 2.00359E-04-2.81704E-05 0.00000E+00
 -1       829 2.00222E-04-2.81030E-05 3.30872E-24
 -1       830 2.00084E-04-2.66040E-05 1.65436E-24
 -1       831 1.99945E-04-2.41381E-05-3.30872E-24
 -1       832 1.99804E-04-2.11761E-05 0.00000E+00
 -1       833 1.99664E-04-1.83248E-05-3.30872E-24
 -1       834 1.99527E-04-1.61905E-05 1.65436E-24
 -1       835 1.99391E-04-1.51832E-05-8.27181E-25
 -1       836 2.03354E-04 2.39467E-06-3.30872E-24
 -1       837 2.05079E-04 2.52472E-06 0.00000E+00
 -1       838 2.06708E-04 2.65473E-06 3.30872E-24
 -1       839 2.08271E-04 2.78403E-06 0.00000E+00
 -1       840 2.09799E-04 2.91318E-06 0.00000E+00
 -1       856 1.99249E-04-1.69234E-05 0.00000E+00
 -1       857 1.99230E-04-1.80038E-05 2.58494E-26
 -1       858 1.99212E-04-1.89688E-05-2.06795E-25
 -1       859 1.99194E-04-1.98396E-05 2.06795E-25
 -1       860 1.99175E-04-2.06376E-05 0.00000E+00
 -1       861 1.99156E-04-2.13841E-05 0.00000E+00
 -1       862 1.99138E-04-2.21006E-05 0.00000E+00
 -1       863 1.99119E-04-2.28086E-05 0.00000E+00
 -1       864 1.99100E-04-2.35295E-05 4.13590E-25
 -1       865 1.99081E-04-2.42847E-05 0.00000E+00
 -1       866 1.99063E-04-2.50958E-05-8.27181E-25
 -1       867 1.99044E-04-2.59841E-05 4.13590E-25
 -1       868 1.99025E-04-2.69709E-05 0.00000E+00
 -1       869 1.99005E-04-2.80776E-05 4.13590E-25
 -1       870 1.98986E-04-2.93252E-05 0.00000E+00
 -1       871 2.00773E-04-1.57116E-05-8.27181E-25
 -1       872 2.02431E-04-1.57205E-05 0.00000E+00
 -1       873 2.04170E-04-1.57301E-05 0.00000E+00
 -1       874 2.05920E-04-1.57405E-05 3.10193E-25
 -1       875 2.07611E-04-1.57514E-05 0.00000E+00
 -1       876 1.99849E-04-1.69085E-05 3.30872E-24
 -1       877 2.00411E-04-1.80436E-05 0.00000E+00
 -1       878 2.00952E-04-1.91193E-05 0.00000E+00
 -1       879 2.01473E-04-2.01431E-05 0.00000E+00
 -1       880 2.01978E-04-2.11225E-05 3.30872E-24
 -1       881 2.02470E-04-2.20648E-05 1.65436E-24
 -1       882 2.02950E-04-2.29776E-05 0.00000E+00
 -1       883 2.03422E-04-2.38681E-05 0.00000E+00
 -1       884 2.03888E-04-2.47438E-05 0.00000E+00
 -1       885 2.04351E-04-2.56121E-05 0.00000E+00
 -1       886 2.04815E-04-2.64803E-05 3.30872E-24
 -1       887 2.05281E-04-2.73558E-05 0.00000E+00
 -1       888 2.05752E-04-2.82461E-05 0.00000E+00
 -1       889 2.06231E-04-2.91587E-05 0.00000E+00
 -1       890 2.06721E-04-3.01009E-05 1.65436E-24
 -1       891 2.00483E-04-3.07933E-05 0.00000E+00
 -1       892 2.01978E-04-3.08518E-05 0.00000E+00
 -1       893 2.03424E-04-3.09102E-05 0.00000E+00
 -1       894 2.04796E-04-3.09683E-05-4.13590E-25
 -1       895 2.06069E-04-3.10262E-05 0.00000E+00
 -1       956 2.11191E-04 1.56180E-06 1.65436E-24
 -1       957 2.11056E-04 1.84224E-07 8.27181E-25
 -1       958 2.10922E-04-1.11083E-06-3.30872E-24
 -1       959 2.10787E-04-2.33501E-06-1.65436E-24
 -1       960 2.10652E-04-3.50001E-06-3.30872E-24
 -1       961 2.10517E-04-4.61754E-06 1.65436E-24
 -1       962 2.10383E-04-5.69934E-06-3.30872E-24
 -1       963 2.10248E-04-6.75717E-06 0.00000E+00
 -1       964 2.10113E-04-7.80279E-06 0.00000E+00
 -1       965 2.09979E-04-8.84792E-06 0.00000E+00
 -1       966 2.09844E-04-9.90434E-06 3.30872E-24
 -1       967 2.09709E-04-1.09838E-05 1.65436E-24
 -1       968 2.09575E-04-1.20980E-05-6.61744E-24
 -1       969 2.09440E-04-1.32587E-05 0.00000E+00
 -1       970 2.09306E-04-1.44776E-05-3.30872E-24
 -1       971 2.09052E-04-1.70554E-05 3.30872E-24
 -1       972 2.08929E-04-1.82503E-05 1.65436E-24
 -1       973 2.08806E-04-1.93608E-05 0.00000E+00
 -1       974 2.08684E-04-2.03979E-05 0.00000E+00
 -1       975 2.08561E-04-2.13724E-05 3.30872E-24
 -1       976 2.08438E-04-2.22951E-05-1.65436E-24
 -1       977 2.08315E-04-2.31771E-05 0.00000E+00
 -1       978 2.08192E-04-2.40293E-05 0.00000E+00
 -1       979 2.08069E-04-2.48625E-05 3.30872E-24
 -1       980 2.07946E-04-2.56877E-05 1.65436E-24
 -1       981 2.07824E-04-2.65158E-05 3.30872E-24
 -1       982 2.07701E-04-2.73577E-05 0.00000E+00
 -1       983 2.07578E-04-2.82244E-05 3.30872E-24
 -1       984 2.07456E-04-2.91269E-05 0.00000E+00
 -1       985 2.07335E-04-3.00759E-05 0.00000E+00
 -3
    1PSTEP                        52          26           1          
  100CL  126 6.68141E-01         409                     0   26           1
 -4  STRESS      6    1
 -5  SXX         1    4    1    1
 -5  SYY         1    4    2    2
 -5  SZZ         1    4    3    3
 -5  SXY         1    4    1    2
 -5  SYZ         1    4    2    3
 -5  SZX         1    4    3    1
 -1         1-5.19573E+06-1.70924E+06-1.13376E+06-1.51461E+06-4.16185E-09 2.57336E-07
 -1         2-7.30587E+03-6.68562E+06-2.06559E+04-2.03697E+05 2.41812E-10 7.26309E-08
 -1         3-1.54858E+03-1.30959E+06 3.30682E+02-1.89862E+03-5.45668E-10 4.20550E-09
 -1         5-9.16564E+01 3.92945E+05 1.01366E+01-1.52985E+00-6.15048E-10 3.09337E-08
 -1         8-2.64496E+05-7.81579E+04 8.95501E+03-1.10123E+05-1.50976E-10 8.42065E-08
 -1         9 2.07448E+07-1.53101E+06 3.22605E+06-3.35112E+06 4.34578E-08-1.13109E-07
 -1        10-2.35754E+03-1.36460E+06-4.45571E+03-1.28866E+04-1.37825E-08-2.75721E-08
 -1        12-8.77209E+01 3.92967E+05 3.34251E+02-1.03478E+01-6.16895E-10-3.83443E-09
 -1        15 8.69117E+02 4.77624E+02 2.80940E+03 9.87884E-01 7.05995E-11 5.30941E-07
 -1        16 4.10126E+07-9.25374E+05 5.24412E+06-5.02941E+06 1.49012E-08-1.10983E-08
 -1        17 1.39057E+07 1.34586E+07 4.31740E+06 1.18618E+07-1.26252E-08 4.54020E-10
 -1        18 1.54190E+05 3.68136E+04 6.51110E+03-1.22501E+05 1.60128E-08-2.52248E-09
 -1        19 1.24386E+05 1.43919E+05-9.62970E+02 2.21572E+04 1.82372E-09-5.24742E-09
 -1        20-8.50965E+04-5.82506E+05-1.30840E+05 2.44638E+04-3.62328E-09 7.68099E-09
 -1        21-4.55229E+01-2.98324E+05-9.29013E+02 3.09346E+02 1.46379E-08-3.83064E-08
 -1        24 2.38053E+07 2.42094E+07 6.70247E+06 2.20327E+07-2.14670E-07-5.64614E-08
 -1        25 1.51693E+05 3.68742E+05 1.25660E+05-7.00520E+05-3.05536E-09 3.75585E-09
 -1        26-5.69850E+04 9.37716E+04-2.51044E+04 2.08498E+03-2.88492E-10-5.42660E-09
 -1        27-7.53999E+04-3.14347E+05-1.14657E+05 6.99281E+04 4.60371E-09 1.39862E-08
 -1        28 2.23588E+04-8.62572E+04 1.70399E+04 2.03977E+04-3.16635E-09 2.09281E-08
 -1        32-1.69240E+06-3.30128E+06-2.14733E+05 5.47575E+05-4.82687E-08-1.09949E-08
 -1        33-1.80924E+05 9.46258E+04 3.28897E+04-3.84234E+04-3.62024E-09 8.12937E-09
 -1        34-2.26383E+05-2.55503E+04 7.08732E+02 7.70700E+04-6.38688E-09-4.22521E-09
 -1        35-2.30806E+04-3.42045E+04-1.36382E+03 5.18917E+04-4.69807E-09-1.15372E-08
 -1        51 6.04512E+04-1.38027E+05 1.28536E+05-4.58884E+05-2.18279E-10 4.11797E-07
 -1        52 2.04827E+04-1.15757E+05 6.74753E+04-5.34811E+05-1.51886E-10-1.68962E-07
 -1        53 4.20831E+03-1.31671E+05 3.50967E+04-4.57128E+05 6.78483E-10-1.08259E-07
 -1        54 7.73871E+03-1.27775E+05 2.88474E+04-5.36682E+05-9.45874E-11-4.69678E-07
 -1        55 1.65968E+04-1.35123E+05 3.50653E+04-4.56856E+05 6.40284E-10-1.04810E-08
 -1        56-9.82713E+06-1.36086E+06-9.24627E+05-4.07162E+06-3.21597E-08 9.54024E-08
 -1        57-1.07969E+07-1.06426E+06-5.44270E+05-2.95708E+06 5.29690E-09 2.01871E-07
 -1        58-9.59838E+06-1.87488E+06-2.10645E+05-4.30388E+06 1.38607E-08-3.25963E-08
 -1        59-1.11548E+07-4.04442E+05-1.10189E+05-2.80354E+06-1.07942E-07 5.90953E-08
 -1        60-9.57970E+06-1.93389E+06-4.74689E+04-4.32215E+06-2.61844E-08-2.03359E-07
 -1        61-1.07348E+07-5.97494E+05 3.16196E+03-2.95062E+06-3.44153E-08 8.28695E-08
 -1        62-9.93399E+06-1.73767E+06-6.13341E+04-4.08673E+06 1.30967E-09 8.04866E-08
 -1        63-9.84544E+06-1.24982E+06 4.79224E+04-3.50813E+06 8.11997E-08 8.19145E-08
 -1        64-1.03378E+07-1.37335E+06-7.32490E+04-3.66915E+06-2.75759E-08-9.45874E-08
 -1        65-9.31947E+06-1.91057E+06 1.82546E+04-4.36616E+06-9.11714E-08-2.82137E-07
 -1        66-1.05275E+07-1.03141E+06-5.72183E+04-3.28848E+06 1.15760E-08-2.71557E-08
 -1        67-9.26870E+06-2.26968E+06-9.67398E+04-4.93209E+06-8.48922E-08-1.20890E-08
 -1        68-1.05332E+07-9.13337E+05-1.79628E+05-3.20000E+06-1.17165E-07-5.33037E-08
 -1        69-9.44830E+06-2.45209E+06-4.99157E+05-4.67779E+06-2.71324E-08-2.83471E-08
 -1        70-1.02924E+07-8.98908E+05-8.23954E+05-3.50271E+06 2.31375E-09-3.34287E-07
 -1        86 2.35803E+03-6.74310E+06-3.63640E+04 1.01837E+05 1.22636E-08-1.68151E-07
 -1        87-2.50474E+04-6.70406E+06-5.80120E+04-2.16531E+05 1.96442E-08 6.02143E-08
 -1        88 2.39110E+04-6.72740E+06-1.04754E+05 1.14691E+05 8.78208E-09 1.45305E-07
 -1        89-1.87823E+05-6.77024E+06-2.64275E+05-2.54943E+04 8.42920E-09-2.48240E-07
 -1        90 1.60858E+05-6.67517E+06-3.92934E+05-8.92196E+04-1.15251E-08 1.11745E-08
 -1       121-2.11165E+03-1.31464E+06-6.77092E+02 9.39135E+02 1.50870E-09-1.90557E-08
 -1       122-1.39095E+03-1.30965E+06 5.97558E+02-3.80731E+03-5.51881E-09-1.16452E-08
 -1       123-2.12487E+03-1.31475E+06-9.17017E+01 2.80734E+03 4.15173E-09 3.49246E-10
 -1       124-1.85092E+01-1.30931E+06 2.22224E+03-8.05739E+03-1.08939E-08-1.49303E-08
 -1       125-2.79170E+03-1.31550E+06 2.19517E+03 5.13849E+03 7.02858E-09-2.49202E-09
 -1       191-9.65213E+01 3.92961E+05 7.84840E+00 8.03445E-01-5.88765E-10 2.71029E-09
 -1       192-9.26460E+01 3.92946E+05 2.16686E+01-4.83569E+00-8.65448E-10-2.72921E-08
 -1       193-9.91203E+01 3.92960E+05 3.61469E+01 4.26747E+00-1.19015E-09 4.27826E-09
 -1       194-9.58162E+01 3.92949E+05 8.24656E+01-1.09516E+01-6.15658E-10 2.38433E-08
 -1       195-1.04108E+02 3.92958E+05 1.57140E+02 7.17416E+00-1.74296E-09-9.60426E-10
 -1       251-2.50522E+06-9.68503E+04-3.23776E+05-2.01963E+05 3.75439E-09 2.67777E-07
 -1       252-5.60800E+05 1.18880E+05 1.58480E+05 6.09059E+05-1.28566E-08 2.70949E-07
 -1       253-1.67849E+06-3.65076E+04-5.46688E+04-3.95732E+05-8.68931E-09 3.76167E-08
 -1       254-1.48418E+06 1.30348E+05 2.99046E+04 7.92226E+05 4.38403E-08-1.17296E-07
 -1       255-1.67209E+06-3.40823E+04-3.11076E+04-3.96444E+05-7.45786E-10 5.32316E-07
 -1       256-5.78347E+05 1.02067E+05 2.06484E+05 6.12347E+05 4.89745E-08 6.63241E-07
 -1       257-2.49525E+06-8.15016E+04-2.03805E+05-2.04652E+05 2.44618E-08 1.09507E-07
 -1       258 3.95562E+05 7.38953E+04 3.88174E+05 3.13504E+04-1.22145E-08 1.35888E-07
 -1       259-2.54968E+06-8.48465E+04-2.13418E+05 1.78335E+05 1.60653E-08-8.61077E-08
 -1       260-4.48964E+05 1.02397E+05 2.36594E+05-5.74602E+05 8.48295E-08-2.94715E-07
 -1       261-1.73423E+06-4.15854E+04-3.35869E+04 3.92791E+05 8.31078E-08 1.94775E-07
 -1       262-1.47236E+06 1.46096E+05 5.92689E+04-7.87458E+05-7.58181E-08-1.32896E-07
 -1       263-1.62733E+06-4.53871E+04 2.24761E+03 4.03458E+05 3.62743E-08 9.85028E-08
 -1       264-6.54576E+05 2.10341E+05 2.56429E+05-6.41826E+05 1.69024E-07 4.18301E-07
 -1       265-2.47539E+06-1.68583E+05-1.36878E+05 2.36800E+05 5.26452E-08 2.53785E-07
 -1       266-1.57342E+04-7.35822E+03 3.69127E+04-2.11357E+01-7.63976E-11-2.52804E-07
 -1       267 1.82399E+04 8.57480E+03 2.60915E+04 2.43888E+01 7.23048E-10 1.64152E-07
 -1       268-2.44595E+03-1.21450E+03 9.69797E+03-3.10743E+00 2.67846E-10 5.52749E-08
 -1       269 2.88793E+03 1.45342E+03 6.30363E+03 3.61983E+00 2.60684E-10 7.53166E-07
 -1       270-4.33483E+02-2.38811E+02 3.04285E+03-4.91229E-01-4.62592E-10-8.54695E-08
 -1       271-1.41004E+06-1.58227E+05-1.03751E+05-5.23299E+05 1.60690E-08 7.39237E-08
 -1       272-1.55254E+06-1.27873E+05-6.65409E+04-4.03532E+05 1.70548E-08 2.78481E-07
 -1       273-1.42755E+06-1.85672E+05-2.44200E+04-5.21090E+05 3.58104E-08 2.83325E-07
 -1       274-1.53302E+06-9.35370E+04-1.36733E+04-4.07887E+05 4.91550E-08 6.42831E-09
 -1       275-1.42985E+06-1.88781E+05-5.63872E+03-5.20737E+05-7.28483E-08-1.50962E-07
 -1       276-1.52860E+06-9.08966E+04-2.88661E+03-4.09059E+05 2.59438E-08-2.85903E-07
 -1       277-1.43110E+06-1.88495E+05-1.54021E+03-5.19447E+05 4.18004E-09 1.44874E-07
 -1       278-1.52315E+06-9.38864E+04-5.95720E+02-4.11144E+05 2.53549E-08 1.02407E-07
 -1       279-1.43294E+06-1.87229E+05-1.16881E+03-5.16984E+05-8.49723E-08-7.81865E-08
 -1       280-1.51502E+06-9.94268E+04-5.02856E+02-4.14618E+05-1.46247E-09-1.87315E-07
 -1       281-1.43559E+06-1.85232E+05-2.63642E+03-5.13429E+05 6.73608E-08-3.29504E-07
 -1       282-1.50503E+06-1.07773E+05-3.06180E+03-4.19590E+05-3.12630E-08-6.30680E-08
 -1       283-1.43843E+06-1.81815E+05-8.31268E+03-5.08898E+05-9.05857E-10-4.20121E-07
 -1       284-1.49784E+06-1.25602E+05-1.71367E+04-4.25497E+05 1.18362E-08-2.43499E-07
 -1       285-1.43801E+06-1.71385E+05-3.07522E+04-5.03991E+05-2.23372E-09-3.06572E-08
 -1       301-1.24910E+04-9.34117E+05 1.37792E+05-1.36945E+06-4.65661E-10 2.52709E-07
 -1       302-1.46368E+04-8.94063E+05 8.17684E+04-2.00015E+06-4.38013E-09 2.80415E-08
 -1       303-2.55911E+04-9.26527E+05 4.16855E+04-1.36639E+06 1.47702E-09-5.18630E-07
 -1       304-3.86916E+04-8.87424E+05 3.47345E+04-1.99807E+06-5.45697E-09-2.19719E-07
 -1       305-4.63280E+04-8.95952E+05 3.07445E+04-1.37025E+06 1.09139E-09-2.98460E-08
 -1       306-4.86593E+07-8.86694E+06-1.40298E+07 2.54456E+06-2.14321E-07 6.91798E-08
 -1       307 4.51928E+07 1.06473E+07 1.00753E+07-2.41948E+07-6.82354E-07 2.06637E-08
 -1       308-3.97993E+06-3.96812E+06-7.85634E+05 7.89699E+06 6.67642E-08 1.08703E-07
 -1       309-9.54196E+05 2.30852E+07 5.08833E+06-2.75568E+07 5.56800E-07-2.97165E-07
 -1       310-1.73775E+07-6.26522E+06-4.56289E+06 1.04978E+07-1.09780E-07-1.76631E-07
 -1       311 7.38412E+07 3.21114E+06 1.36867E+07-1.29564E+07 1.07801E-07 6.98492E-09
 -1       312-5.27882E+07-9.09378E+06-1.44517E+07-9.00206E+06-4.90109E-08 1.52460E-07
 -1       313 7.39632E+07 3.47632E+07 1.87975E+07 4.45391E+07-1.88360E-07 8.63802E-07
 -1       314-1.98876E+07-3.48683E+07-1.25503E+07-1.98232E+07 2.83646E-07 2.74274E-07
 -1       315-1.02990E+06 5.50604E+07 9.99894E+06 1.17019E+07 2.17202E-07-1.04471E-06
 -1       316 3.60402E+06-1.21183E+07-7.86283E+05 2.21066E+06 4.60634E-07-8.61764E-07
 -1       317-1.14870E+07 3.36679E+07 5.07830E+06-2.03955E+07 3.24799E-08-1.35108E-06
 -1       318 1.86579E+04-2.29418E+07-4.60304E+06-1.53450E+06-1.47425E-06 2.21364E-07
 -1       319 1.49743E+07 6.49649E+07 1.38234E+07 2.76160E+07-9.95351E-07 2.65019E-07
 -1       320-3.28889E+07-3.26836E+07-1.64262E+07-2.28205E+07-4.52274E-07-1.93249E-08
 -1       336-1.08425E+03-1.42302E+06-1.41762E+04 7.56143E+03-2.64372E-08 2.00162E-08
 -1       337-5.89352E+03-1.42210E+06-2.01694E+04-1.86115E+04-4.94081E-08 6.06815E-09
 -1       338 4.70398E+02-1.42202E+06-3.32727E+04 1.07692E+04-3.57759E-08-5.61704E-09
 -1       339-3.62868E+04-1.44252E+06-7.63900E+04-2.50120E+04-6.46614E-08-8.40555E-09
 -1       340 2.37960E+04-1.40457E+06-1.20607E+05 1.37866E+04-4.24916E-08 2.71139E-08
 -1       406-6.63533E+01 3.92943E+05 6.55523E+02 3.90751E+00-2.02496E-09-4.51473E-09
 -1       407 1.42847E+02 3.93083E+05 1.40257E+03 2.55444E+01-4.05990E-10-1.69166E-08
 -1       408 6.31352E+02 3.92840E+05 2.79564E+03-2.96648E+01-2.36560E-09-1.21745E-08
 -1       409 2.94793E+03 3.93976E+05 6.30275E+03 3.18905E+02-1.76897E-10-1.99943E-08
 -1       410 8.62685E+03 3.92034E+05 1.28630E+04-3.07930E+02-3.40879E-09 3.17777E-09
 -1       521-4.70521E+07-1.25881E+07-1.67576E+07 3.21124E+06-1.52504E-07 7.86968E-08
 -1       522 4.26822E+07 1.40033E+07 9.46386E+06-3.11749E+07-6.29370E-07-5.41564E-07
 -1       523-3.85482E+06-4.08450E+06-4.36556E+05 7.85277E+06 1.03144E-07-6.70087E-07
 -1       524-1.12530E+07 2.99316E+07 4.94577E+06-3.08646E+07 1.23607E-06-4.16549E-07
 -1       525-1.63773E+07-7.33198E+06-4.66437E+06 9.91404E+06 4.12867E-07-3.45346E-07
 -1       526 7.81013E+07 2.70789E+06 1.32286E+07-1.84329E+07 3.36440E-08 1.46101E-08
 -1       527-5.19425E+07-1.33880E+07-1.71096E+07-7.69070E+06 2.84286E-07-3.31784E-09
 -1       528 7.84013E+07 3.83166E+07 1.81578E+07 5.09076E+07-1.91270E-07-7.30215E-07
 -1       529-2.06478E+07-3.64733E+07-1.45516E+07-1.68100E+07 3.00934E-08-4.91505E-07
 -1       530-6.46430E+06 6.20234E+07 9.78880E+06 6.41140E+06-1.04163E-07 8.04139E-07
 -1       531 3.30633E+06-1.20920E+07-3.88348E+05 2.54211E+06-1.05778E-06 7.11530E-07
 -1       532-1.26587E+07 3.10443E+07 4.92268E+06-3.04158E+07 4.95929E-07-8.94659E-07
 -1       533-6.95890E+05-2.17700E+07-4.59832E+06-3.47997E+05-6.99591E-07-1.18872E-06
 -1       534 9.37324E+06 7.31736E+07 1.30241E+07 2.60950E+07 5.82077E-08 1.02841E-06
 -1       535-3.32774E+07-3.53870E+07-1.95355E+07-1.98106E+07 1.96742E-07 6.35860E-07
 -1       536-7.17067E+05-3.07645E+04-9.46540E+04-5.71598E+04 1.47338E-09 3.86917E-08
 -1       537-4.56216E+04 2.56499E+04 5.81525E+04 1.28710E+05-1.11769E-07 1.08180E-07
 -1       538-3.93677E+05 6.47784E+03-7.47741E+03-7.46947E+04 2.90286E-08 1.03703E-07
 -1       539-2.63576E+05-2.34497E+02 1.94695E+04 1.43816E+05 1.80540E-07 9.29464E-08
 -1       540-5.04796E+05-1.14484E+02-2.56195E+04-7.28503E+04 7.69433E-10 1.11868E-07
 -1       541 1.78545E+05 1.75398E+04 1.11237E+05 1.02115E+05 3.08792E-08 8.79770E-08
 -1       542-8.23909E+05-2.12458E+04-8.99815E+04-3.20358E+04 1.74314E-08 4.00323E-08
 -1       543 4.52480E+05 2.88576E+04 1.67079E+05-1.38389E+04-2.76418E-09-1.78979E-08
 -1       544-7.71382E+05-1.75361E+04-7.95000E+04 4.23705E+04 7.79346E-09-3.79067E-08
 -1       545 5.41270E+04 1.01481E+04 8.47331E+04-1.18090E+05 7.73616E-09-6.98033E-08
 -1       546-4.36268E+05 6.36531E+03-1.29413E+04 7.18350E+04 1.41015E-08-1.01089E-07
 -1       547-2.81104E+05-4.61346E+03 1.17048E+04-1.46594E+05-1.48074E-07-1.25294E-07
 -1       548-4.45177E+05 4.79755E+03-2.46596E+04 7.16318E+04-9.06750E-08-1.04801E-07
 -1       549 7.38682E+04 1.83364E+04 6.58365E+04-1.16052E+05-6.52558E-08-6.64290E-08
 -1       550-7.81743E+05-2.45451E+04-1.34075E+05 4.05102E+04 1.08694E-08-5.28416E-08
 -1       551 2.66620E+04-5.63736E+05-4.71213E+04-1.06827E+06-1.07044E-07-1.67638E-08
 -1       552 7.43820E+04-6.08926E+05-9.56165E+03-1.52078E+06-7.45786E-08 4.92437E-08
 -1       553 6.06772E+04-6.05795E+05 1.89790E+04-1.06169E+06-1.24579E-07 3.79368E-08
 -1       554 1.15937E+05-6.26789E+05 6.56700E+04-1.52337E+06-8.03557E-08 2.06019E-08
 -1       555 9.17560E+04-6.33791E+05 1.26358E+05-1.06026E+06-1.29978E-07-1.60780E-08
 -1       556 2.35477E+05-4.04255E+05-2.09316E+04-4.11275E+05-2.11003E-08-1.41736E-08
 -1       557 3.60798E+05-5.09002E+05-7.87356E+03-5.40849E+05-1.07684E-09-1.72295E-08
 -1       558 2.13204E+05-3.88086E+05-8.12523E+03-4.21948E+05-1.77242E-08 6.53381E-09
 -1       559 3.39942E+05-5.02745E+05-2.62579E+03-5.62539E+05 2.06928E-08 5.56247E-09
 -1       560 1.96664E+05-3.77741E+05-4.00966E+03-4.33905E+05 8.67294E-09-1.13505E-09
 -1       561 3.19872E+05-4.94327E+05-1.03521E+03-5.76419E+05 1.06957E-08-2.32649E-09
 -1       562 1.83738E+05-3.69782E+05-1.97480E+03-4.43246E+05 2.93949E-09-4.54747E-09
 -1       563 3.04597E+05-4.87648E+05-3.12112E+02-5.86414E+05 2.61934E-10-1.64418E-08
 -1       564 1.74505E+05-3.64049E+05-7.79895E+02-4.49784E+05 1.22818E-08-1.06866E-10
 -1       565 2.94397E+05-4.83203E+05-4.09989E+01-5.92933E+05 2.19443E-08-1.44937E-08
 -1       566 1.69070E+05-3.60616E+05-3.14383E+02-4.53582E+05 3.63798E-10-1.33405E-08
 -1       567 2.89372E+05-4.81018E+05-4.00857E+02-5.95993E+05 2.13404E-08-9.00036E-09
 -1       568 1.67525E+05-3.59669E+05-1.19984E+03-4.54758E+05 2.62116E-09 1.37370E-08
 -1       569 2.88096E+05-4.80931E+05-3.01755E+03-5.94612E+05-4.84124E-09 2.06128E-08
 -1       570 1.70992E+05-3.62999E+05-6.57890E+03-4.53693E+05 6.87578E-09 1.22391E-08
 -1       571 2.95560E+05 1.06879E+04 1.51892E+04-9.84936E+04-1.72586E-08-1.04783E-08
 -1       572 2.97756E+05 4.05893E+03 7.44411E+03-1.08060E+05-3.49760E-08-7.72434E-09
 -1       573 2.96432E+05 1.30448E+03 3.30771E+03-9.83142E+04-1.37798E-08 1.61890E-08
 -1       574 2.96644E+05 7.83717E+02 1.65891E+03-1.08290E+05 2.62685E-09 1.87774E-08
 -1       575 2.96527E+05 4.96207E+02 7.83022E+02-9.82896E+04-6.70863E-09 1.12814E-08
 -1       576 2.96507E+05 5.11594E+02 4.01052E+02-1.08321E+05-1.25883E-08 7.42602E-09
 -1       577 2.96570E+05 4.35837E+02 2.00322E+02-9.82862E+04-6.24550E-09 7.99082E-09
 -1       578 2.96542E+05 4.70700E+02 1.16071E+02-1.08325E+05-6.22913E-09-2.42017E-09
 -1       579 2.96648E+05 3.95569E+02 8.00412E+01-9.82859E+04 3.25781E-09-1.95996E-09
 -1       580 2.96653E+05 4.15100E+02 9.36909E+01-1.08320E+05-1.56606E-08 1.17052E-08
 -1       581 2.96771E+05 3.31730E+02 1.41792E+02-9.82920E+04 5.11864E-09 2.89247E-08
 -1       582 2.96841E+05 3.72725E+02 2.89028E+02-1.08256E+05 5.39512E-09 3.10947E-08
 -1       583 2.96923E+05 3.71683E+02 5.54386E+02-9.83508E+04 2.55386E-09 2.19820E-08
 -1       584 2.97238E+05 8.26055E+02 1.25521E+03-1.07761E+05 4.87489E-09 1.21443E-08
 -1       585 2.96957E+05 1.87838E+03 2.54106E+03-9.87860E+04-1.92995E-09-9.00036E-09
 -1       586-3.48278E+03 1.20712E+05-2.84426E+03-2.54397E+05-8.62701E-09-6.14818E-10
 -1       587-1.41829E+03 1.20484E+05 8.55617E+02-2.79982E+05-1.11904E-08 1.85080E-08
 -1       588 3.40950E+02 1.20267E+05 4.89442E+03-2.54256E+05-5.64251E-09 3.09710E-08
 -1       589 5.11880E+03 1.22805E+05 1.26318E+04-2.79749E+05-1.17780E-08 3.24308E-08
 -1       590 1.69031E+04 1.18905E+05 2.64733E+04-2.54695E+05-9.36507E-09 7.21957E-09
 -1       591-7.74736E+04-1.62310E+04-2.30861E+04-3.26862E+04-1.97724E-09-4.88672E-09
 -1       592-8.17624E+04-1.97784E+04-1.25053E+04-3.62886E+04 2.64907E-09-5.63512E-09
 -1       593-7.97815E+04-1.45568E+04-5.20532E+03-3.43799E+04-4.03844E-10-7.02585E-10
 -1       594-7.85763E+04-1.63892E+04-2.59601E+03-3.64074E+04-1.67009E-09 1.20582E-09
 -1       595-7.99574E+04-1.45514E+04-1.19178E+03-3.44568E+04 8.14197E-10 1.54194E-08
 -1       596-7.83580E+04-1.62342E+04-6.05524E+02-3.63813E+04-3.32432E-09-1.56883E-08
 -1       597-7.99795E+04-1.45673E+04-3.29054E+02-3.44598E+04-8.39918E-10-3.18408E-09
 -1       598-7.83365E+04-1.62281E+04-2.63285E+02-3.63740E+04 2.21036E-09 1.56982E-09
 -1       599-7.99782E+04-1.45678E+04-3.34775E+02-3.44594E+04 4.78474E-09 1.40699E-09
 -1       600-7.83580E+04-1.62346E+04-6.20673E+02-3.63791E+04-1.06820E-09-7.28983E-09
 -1       601-7.99531E+04-1.45529E+04-1.22381E+03-3.44559E+04 1.37243E-09 1.11731E-09
 -1       602-7.85821E+04-1.63926E+04-2.66684E+03-3.64019E+04-3.10513E-09-2.75130E-08
 -1       603-7.97697E+04-1.45614E+04-5.34793E+03-3.43778E+04-6.97128E-10-1.67829E-08
 -1       604-8.18737E+04-1.98543E+04-1.28470E+04-3.62544E+04 6.28046E-09 3.45403E-09
 -1       605-7.73782E+04-1.62997E+04-2.37171E+04-3.26578E+04 3.94232E-09 1.93922E-08
 -1       606 2.62847E+04-1.46102E+04-2.61878E+04 2.34172E+04 9.91895E-09-3.18869E-09
 -1       607 2.18105E+04-4.77371E+03-1.30416E+04 2.63194E+04 2.28465E-09-2.06510E-08
 -1       608 2.43618E+04-8.62971E+02-5.83810E+03 2.32553E+04-4.41469E-09-1.65196E-08
 -1       609 2.38740E+04-2.98388E+02-2.94931E+03 2.65288E+04 2.24600E-09 1.20205E-08
 -1       610 2.41456E+04-4.50102E+01-1.40701E+03 2.32359E+04 1.85291E-08 1.25451E-08
 -1       611 2.40700E+04-4.65110E+01-7.09406E+02 2.65514E+04 2.65177E-08 1.30035E-08
 -1       612 2.40989E+04-3.18813E+01-3.37083E+02 2.32339E+04 1.19244E-08-1.12748E-08
 -1       613 2.40832E+04-4.31257E+01-1.50894E+02 2.65541E+04 4.29236E-09-3.08114E-08
 -1       614 2.40774E+04-3.91176E+01-3.49155E+01 2.32332E+04 8.24002E-10-9.96124E-10
 -1       615 2.40790E+04-4.22199E+01 6.43217E+01 2.65545E+04-4.26780E-09-9.26116E-09
 -1       616 2.40605E+04-3.64371E+01 1.91897E+02 2.32335E+04 1.90448E-09-1.59953E-08
 -1       617 2.41029E+04-1.83421E+00 4.37404E+02 2.65540E+04 2.90129E-09-1.11040E-08
 -1       618 2.40231E+04 8.92683E+01 8.81524E+02 2.32338E+04-2.28283E-10 7.57223E-09
 -1       619 2.44145E+04 6.79442E+02 1.97943E+03 2.65535E+04-2.63549E-09-5.85851E-09
 -1       620 2.37306E+04 2.17930E+03 3.97858E+03 2.32358E+04-1.43223E-09-8.85257E-09
 -1       621 5.36130E+02 3.06642E+05 3.98327E+03 4.37112E+04 1.06138E-09 1.18780E-08
 -1       622 7.17990E+02 3.07553E+05 3.52989E+03 6.34488E+04 1.19826E-09 6.51016E-09
 -1       623 1.63144E+02 3.06835E+05 4.23304E+03 4.35139E+04 1.27216E-09 1.63691E-08
 -1       624 2.19947E+03 3.08785E+05 8.20009E+03 6.36426E+04 1.40710E-09 8.79936E-09
 -1       625 2.14095E+03 3.05206E+05 1.43258E+04 4.35105E+04 1.69166E-09-3.66708E-09
 -1       626 2.65350E+05 6.17808E+04 5.17140E+03 1.28038E+05 3.01702E-09-3.77622E-09
 -1       627 2.63064E+05 6.31361E+04 2.49205E+03 1.32291E+05-2.65572E-10-1.42998E-08
 -1       628 2.65476E+05 5.94186E+04 1.05405E+03 1.28922E+05-1.41763E-08 9.17419E-09
 -1       629 2.62429E+05 6.24439E+04 5.15869E+02 1.32529E+05-2.30921E-08 2.06074E-08
 -1       630 2.65491E+05 5.93041E+04 2.39487E+02 1.28961E+05-4.43697E-09 1.37579E-08
 -1       631 2.62363E+05 6.24169E+04 1.29087E+02 1.32531E+05 5.37602E-09 1.03239E-08
 -1       632 2.65488E+05 5.93076E+04 8.53040E+01 1.28957E+05 1.08348E-08-1.91153E-09
 -1       633 2.62355E+05 6.24183E+04 9.56039E+01 1.32528E+05 8.44170E-09 3.74575E-09
 -1       634 2.65485E+05 5.93044E+04 1.55004E+02 1.28957E+05-5.53976E-09-2.36014E-10
 -1       635 2.62371E+05 6.24163E+04 3.13961E+02 1.32534E+05-5.38245E-09 6.50743E-09
 -1       636 2.65476E+05 5.92982E+04 6.34209E+02 1.28957E+05 1.71362E-08-1.36029E-08
 -1       637 2.62508E+05 6.25149E+04 1.39464E+03 1.32534E+05 3.25763E-08-3.74721E-08
 -1       638 2.65427E+05 5.96061E+04 2.86545E+03 1.28818E+05 1.74623E-08-1.31436E-08
 -1       639 2.64014E+05 6.46083E+04 6.77990E+03 1.32091E+05 6.84122E-09 3.88968E-09
 -1       640 2.65217E+05 6.58585E+04 1.40695E+04 1.26185E+05 7.79073E-09 1.45076E-08
 -1       656 6.74999E+04-1.72871E+06-1.62942E+05-2.80806E+03-7.63976E-10-2.35673E-08
 -1       657-8.93036E+04-1.80234E+06-1.35002E+05 4.81635E+03-1.36424E-11-9.90414E-09
 -1       658 2.15228E+04-1.74961E+06-8.31625E+04-4.92893E+03 4.93628E-10-8.99485E-09
 -1       659-9.66172E+04-1.80582E+06-1.44614E+05 6.60371E+03-5.51154E-10-1.19398E-08
 -1       660 7.47972E+04-1.72524E+06-1.79467E+05-4.59541E+03-2.15368E-09 5.65510E-09
 -1       661 1.55740E+05 1.62332E+04 1.65610E+04 6.08839E+04-1.29921E-09-1.99907E-09
 -1       662 1.65161E+05 2.84401E+04 1.11611E+04 5.71014E+04-1.59827E-09-8.46785E-09
 -1       663 1.58993E+05 2.15463E+04 3.90337E+03 5.99398E+04-4.07613E-09-1.06318E-08
 -1       664 1.61389E+05 2.22271E+04 2.33514E+03 5.82548E+04-1.19894E-09 1.17936E-09
 -1       665 1.59487E+05 2.22718E+04 9.21204E+02 5.97955E+04-1.05462E-09 1.96916E-08
 -1       666 1.60805E+05 2.13977E+04 5.39403E+02 5.84430E+04 8.88161E-09 1.87336E-08
 -1       667 1.59573E+05 2.23541E+04 2.86898E+02 5.97593E+04 8.48075E-10-6.83134E-09
 -1       668 1.60709E+05 2.13387E+04 2.93222E+02 5.84957E+04-4.01140E-09 5.14029E-09
 -1       669 1.59581E+05 2.23291E+04 3.97724E+02 5.97431E+04-2.58120E-09 9.02838E-09
 -1       670 1.60806E+05 2.15548E+04 8.66730E+02 5.84984E+04-9.71753E-09-6.02206E-09
 -1       671 1.59476E+05 2.21426E+04 1.53918E+03 5.97545E+04 4.06668E-09-9.88365E-09
 -1       672 1.61703E+05 2.30520E+04 3.93815E+03 5.82807E+04 9.06493E-09 2.91118E-09
 -1       673 1.58688E+05 2.08698E+04 6.59977E+03 5.99463E+04 3.88923E-10 7.95444E-09
 -1       674 1.67985E+05 3.36553E+04 1.88740E+04 5.64353E+04-1.42643E-09-2.93176E-08
 -1       675 1.53235E+05 1.18363E+04 2.80157E+04 6.14885E+04-2.61116E-09 2.79033E-09
 -1       676 2.42828E+01-2.98246E+05-1.11971E+03-1.54678E+02 1.45218E-09-2.62437E-08
 -1       677-2.95886E+02-2.98517E+05-2.04926E+03 3.09103E+02 9.43848E-09-1.46175E-08
 -1       678 1.98695E+02-2.98053E+05-3.62258E+03-1.54325E+02 1.23714E-09 2.13157E-09
 -1       679-3.62235E+03-3.00704E+05-8.60576E+03 3.07755E+02 9.70056E-09 5.41952E-09
 -1       680 2.16297E+03-2.96060E+05-1.38695E+04-1.51629E+02 4.72392E-09 3.40597E-09
 -1       771-3.06124E+06-7.86136E+05-2.09547E+05-1.49383E+06-4.11819E-08-3.39351E-08
 -1       772-2.97911E+06-8.85163E+05-1.08252E+05-1.60826E+06-2.85218E-08 1.57888E-08
 -1       773-3.09928E+06-7.56760E+05-5.48109E+04-1.51321E+06-1.71713E-08 1.76660E-08
 -1       774-2.96741E+06-8.60538E+05-2.45428E+04-1.63857E+06 3.03844E-08 6.51926E-09
 -1       775-3.11897E+06-7.43111E+05-1.81253E+04-1.52229E+06-1.15833E-08 3.51429E-09
 -1       776-2.98290E+06-8.56269E+05-6.82186E+03-1.66173E+06-1.16415E-08 4.24916E-09
 -1       777-3.13609E+06-7.30851E+05-7.93493E+03-1.53022E+06-5.82077E-09 2.18279E-11
 -1       778-2.99908E+06-8.52377E+05-2.26690E+03-1.68167E+06-1.92085E-09 3.19051E-09
 -1       779-3.15084E+06-7.20088E+05-3.95098E+03-1.53696E+06-1.59198E-08-8.41101E-09
 -1       780-3.01332E+06-8.48703E+05-6.79152E+02-1.69790E+06-1.28639E-08 3.98904E-09
 -1       781-3.16260E+06-7.11388E+05-1.56585E+03-1.54223E+06-3.61906E-08-3.38332E-09
 -1       782-3.02431E+06-8.45619E+05 4.68184E+02-1.70988E+06-3.76167E-08 4.96584E-10
 -1       783-3.17089E+06-7.05327E+05 6.95844E+02-1.54590E+06-9.70613E-09-1.65228E-08
 -1       784-3.03052E+06-8.42748E+05 3.16307E+03-1.71726E+06-2.23481E-08 2.37105E-09
 -1       785-3.17573E+06-7.01753E+05 5.55483E+03-1.54816E+06-4.33247E-08 7.97809E-09
 -1       786 1.19972E+05-9.68635E+03 2.24104E+04-3.35460E+02 1.26609E-09-5.08680E-09
 -1       787 1.29692E+05 1.12148E+04 1.58544E+04-1.45679E+02 6.20542E-09 8.21819E-09
 -1       788 1.23720E+05-1.51780E+03 5.79792E+03-2.99822E+02 1.32097E-09 9.06198E-09
 -1       789 1.25327E+05 1.75694E+03 3.63953E+03-2.00096E+02-9.58997E-10-8.01765E-09
 -1       790 1.24339E+05-2.36233E+02 1.47313E+03-2.81062E+02-5.00066E-09 7.17188E-09
 -1       791 1.24603E+05 2.73335E+02 8.49980E+02-2.32144E+02-9.37724E-09 1.68893E-08
 -1       792 1.24444E+05-3.53085E+01 3.58446E+02-2.67776E+02-4.89380E-09 1.46012E-08
 -1       793 1.24477E+05 3.65699E+01 1.74880E+02-2.57046E+02-9.66975E-10 6.92103E-09
 -1       794 1.24465E+05 3.82917E-01 3.77793E+01-2.56159E+02 6.27416E-09-1.37733E-08
 -1       795 1.24437E+05-3.37628E+01-7.79626E+01-2.81124E+02-5.05480E-09 7.07406E-09
 -1       796 1.24483E+05 3.49845E+01-1.96989E+02-2.43698E+02 3.62638E-09-1.09970E-08
 -1       797 1.24326E+05-2.60325E+02-5.30794E+02-3.09546E+02 4.84069E-09-1.06047E-08
 -1       798 1.24576E+05 2.26775E+02-8.59239E+02-2.27737E+02 1.97450E-09-6.07002E-09
 -1       799 1.23675E+05-1.67153E+03-2.36150E+03-3.49022E+02 6.39517E-09-4.61873E-09
 -1       800 1.25135E+05 1.44505E+03-3.34129E+03-2.04225E+02 5.18927E-11 1.13600E-08
 -1       801-2.08071E+05-1.05805E+07-1.49409E+06 1.56023E+06 9.44128E-08-6.37738E-08
 -1       802 8.34338E+05 6.87155E+06 2.41170E+06-1.94936E+06 2.73692E-07-4.03661E-08
 -1       803-5.89137E+05-1.52660E+07-2.06311E+06 9.98137E+05 8.04721E-08 2.64408E-08
 -1       804 3.19578E+05 2.97180E+06 1.68854E+06 7.15613E+05-1.26449E-07-9.17430E-08
 -1       805 2.02006E+05-6.69373E+06-3.06048E+05-1.09880E+06-5.28162E-08-6.81757E-08
 -1       806-3.13450E+05-6.05912E+04-2.32123E+04-1.24138E+05-1.13400E-08 4.89808E-09
 -1       807-3.15280E+05-5.67985E+04-1.14040E+04-1.29767E+05 7.48878E-09 1.07764E-08
 -1       808-3.14088E+05-5.22247E+04-4.83793E+03-1.28091E+05-3.03680E-09-5.15320E-09
 -1       809-3.12883E+05-5.35937E+04-2.36563E+03-1.30046E+05-1.32341E-08-9.48421E-09
 -1       810-3.14185E+05-5.19336E+04-1.08433E+03-1.28266E+05 6.17183E-09-4.32328E-09
 -1       811-3.12697E+05-5.34650E+04-5.39268E+02-1.30010E+05 4.82487E-09 2.89674E-08
 -1       812-3.14199E+05-5.19587E+04-2.72874E+02-1.28265E+05-3.91265E-09 1.34778E-08
 -1       813-3.12672E+05-5.34672E+04-1.77521E+02-1.29991E+05-5.07589E-09-1.03739E-08
 -1       814-3.14191E+05-5.19687E+04-1.76253E+02-1.28261E+05 9.84073E-10 9.97125E-09
 -1       815-3.12675E+05-5.34695E+04-2.84204E+02-1.29983E+05 2.28010E-09 1.39366E-08
 -1       816-3.14170E+05-5.19679E+04-5.38855E+02-1.28257E+05 1.06611E-08 2.07574E-08
 -1       817-3.12767E+05-5.35209E+04-1.15644E+03-1.29971E+05-1.08998E-08-1.13027E-09
 -1       818-3.14100E+05-5.21313E+04-2.35880E+03-1.28180E+05-6.05542E-09-1.45769E-08
 -1       819-3.14057E+05-5.49460E+04-5.54998E+03-1.29665E+05-2.00089E-10 5.90262E-09
 -1       820-3.13654E+05-5.63245E+04-1.12963E+04-1.26390E+05-1.44155E-09-1.25920E-09
 -1       821-3.82290E+05 2.10449E+04-4.91168E+04 2.41583E+03 1.59094E-08 1.57015E-08
 -1       822-4.01650E+05-2.43861E+04-3.44192E+04-5.15191E+03 6.13182E-09 7.97218E-09
 -1       823-3.89582E+05 3.32381E+03-1.26752E+04 4.01467E+03-1.38023E-08-5.66797E-09
 -1       824-3.92757E+05-3.82949E+03-7.91838E+03-6.33647E+03 1.77919E-09 2.77589E-09
 -1       825-3.91195E+05 5.16947E+02-3.33368E+03 3.60057E+03 2.60528E-08-5.74028E-09
 -1       826-3.90008E+05-5.60204E+02-1.68867E+03-3.73930E+03 3.10854E-08-1.07651E-08
 -1       827-3.92298E+05 3.14667E+01-1.26327E+03 1.41729E+03 1.42866E-08-6.69439E-09
 -1       828-3.89082E+05-1.12863E+02-4.76312E+02 1.18333E+03-1.17737E-09-1.53482E-08
 -1       829-3.92102E+05 5.48974E+01-1.24496E+03-1.32209E+03 2.20854E-09 3.65608E-09
 -1       830-3.90428E+05-6.24548E+02-1.84328E+03 5.68181E+03 2.03471E-10 5.82048E-10
 -1       831-3.90983E+05 5.67073E+02-3.40938E+03-3.08118E+03-6.23385E-09 4.87034E-10
 -1       832-3.92832E+05-4.00588E+03-8.22540E+03 7.23982E+03-2.35748E-09-8.44466E-09
 -1       833-3.89720E+05 3.45068E+03-1.31928E+04-2.88017E+03-2.48225E-09-3.12320E-09
 -1       834-4.01634E+05-2.53135E+04-3.56438E+04 4.94682E+03-3.39627E-09 2.62480E-09
 -1       835-3.82156E+05 2.18356E+04-5.10195E+04-7.88073E+02 7.36270E-09 1.23400E-08
 -1       836-1.44293E+03 3.76437E+05 2.33296E+04-1.56903E+04-7.96990E-09 7.54517E-09
 -1       837 4.96634E+03 3.83748E+05 1.97211E+04-3.21438E+04-8.66652E-09-1.81967E-09
 -1       838-5.70410E+02 3.78490E+05 2.00652E+04-1.56191E+04-7.19410E-09 7.71365E-09
 -1       839 1.26096E+04 3.89440E+05 3.79299E+04-3.21977E+04-7.53289E-09 2.23718E-08
 -1       840-3.90337E+03 3.70685E+05 6.04723E+04-1.56430E+04-6.79938E-09 7.36804E-09
 -1       856-4.87436E+04 7.99381E+03-2.10653E+04-3.95316E+02 4.45539E-09 7.26777E-09
 -1       857-5.74200E+04-9.39419E+03-1.45010E+04 5.67419E+03 7.35858E-09-3.65731E-09
 -1       858-5.21804E+04 1.12116E+03-5.46584E+03-4.19080E+02 3.23075E-09 2.77169E-09
 -1       859-5.34760E+04-1.32064E+03-3.29816E+03 5.70927E+03-2.86697E-09 1.56797E-09
 -1       860-5.26939E+04 1.57121E+02-1.38188E+03-4.30090E+02-4.68162E-10-1.52284E-10
 -1       861-5.28854E+04-1.89111E+02-7.59403E+02 5.72424E+03 4.07425E-10 1.58033E-08
 -1       862-5.27742E+04 2.13374E+01-3.14071E+02-4.34020E+02-4.91114E-09 6.24163E-09
 -1       863-5.27867E+04-2.29497E+01-1.10768E+02 5.72656E+03-1.28908E-09-2.09593E-09
 -1       864-5.27932E+04-5.25210E+00 5.52122E+01-4.32411E+02-2.91199E-09 5.17100E-09
 -1       865-5.27289E+04 6.18805E+01 2.72491E+02 5.71724E+03 1.26170E-09 8.69073E-09
 -1       866-5.28298E+04-6.34515E+01 5.44965E+02-4.24705E+02-2.38555E-09 6.69274E-09
 -1       867-5.24738E+04 5.23613E+02 1.33863E+03 5.69636E+03 2.53581E-09-8.48456E-09
 -1       868-5.30433E+04-4.58489E+02 2.22382E+03-4.11524E+02-2.55017E-09-9.34790E-09
 -1       869-5.08445E+04 3.81606E+03 5.92017E+03 5.66212E+03 3.22552E-09-7.23367E-09
 -1       870-5.44513E+04-3.26624E+03 8.59175E+03-3.90344E+02-2.76691E-09 2.64108E-08
 -1       871-5.57298E+03-2.23336E+04-1.98364E+04 1.32861E+05-5.39330E-09-7.66249E-09
 -1       872-1.96209E+03-2.69598E+04-8.32033E+03 1.72276E+05-1.18944E-08-2.62125E-08
 -1       873 4.53667E+02-2.47149E+04 5.64309E+02 1.32569E+05-6.06178E-09-8.43181E-09
 -1       874 3.39898E+03-2.22922E+04 9.86872E+03 1.72304E+05-1.41199E-08 1.18000E-08
 -1       875 6.96230E+03-2.70667E+04 2.22912E+04 1.32812E+05-6.16274E-09-4.36467E-09
 -1       876 2.97383E+05 5.00372E+04 1.52479E+04 1.19241E+05 6.47640E-09 1.28202E-08
 -1       877 2.98400E+05 5.32390E+04 8.14298E+03 1.23605E+05 1.07157E-08-4.41946E-09
 -1       878 2.98809E+05 4.83479E+04 3.41151E+03 1.20489E+05-1.41745E-09-5.31645E-09
 -1       879 2.96328E+05 5.11703E+04 1.69985E+03 1.23708E+05 5.25984E-09 9.06778E-09
 -1       880 2.98911E+05 4.83305E+04 7.91796E+02 1.20540E+05 2.62753E-09 1.24654E-08
 -1       881 2.96190E+05 5.10818E+04 4.22920E+02 1.23684E+05 1.23578E-08 8.82045E-09
 -1       882 2.98920E+05 4.83439E+04 2.70715E+02 1.20542E+05 4.72551E-09-1.12780E-08
 -1       883 2.96180E+05 5.10772E+04 2.91282E+02 1.23677E+05-5.96327E-09 1.34871E-08
 -1       884 2.98913E+05 4.83411E+04 4.63590E+02 1.20542E+05 2.19472E-09-3.00827E-09
 -1       885 2.96217E+05 5.10836E+04 9.32216E+02 1.23688E+05-2.54998E-09-1.40662E-08
 -1       886 2.98877E+05 4.83139E+04 1.87891E+03 1.20538E+05 3.79190E-09-6.83326E-09
 -1       887 2.96547E+05 5.13001E+04 4.10424E+03 1.23736E+05 1.72244E-08-2.15857E-09
 -1       888 2.98618E+05 4.83596E+04 8.27017E+03 1.20407E+05 2.37745E-09-7.03176E-09
 -1       889 3.01470E+05 5.64206E+04 1.97558E+04 1.23585E+05-7.19518E-09 1.26047E-08
 -1       890 2.95242E+05 5.23701E+04 3.70023E+04 1.17261E+05 7.39419E-10 7.78527E-10
 -1       891-8.32113E+01-1.64497E+05-2.02242E+03 2.71761E+04-7.78527E-10-1.07275E-09
 -1       892-1.66388E+02-1.65035E+05-2.17043E+03 4.12825E+04 2.12844E-09 1.46490E-08
 -1       893 5.17796E+01-1.64562E+05-3.07129E+03 2.71836E+04-1.60844E-09 6.59975E-09
 -1       894-1.51579E+03-1.66195E+05-6.35518E+03 4.11293E+04 2.36378E-09 1.27984E-08
 -1       895-1.20514E+03-1.63239E+05-1.11908E+04 2.73315E+04-9.96693E-10-9.48421E-09
 -1       956-3.82362E+05-5.53585E+03-1.36391E+04 3.17367E+04 7.03130E-09-1.65196E-08
 -1       957-3.85036E+05-1.96140E+03-7.00066E+03 3.81323E+04 2.13822E-09-3.66836E-08
 -1       958-3.83589E+05-2.54309E+02-3.15477E+03 3.15661E+04-5.35874E-09-6.43377E-09
 -1       959-3.83786E+05-1.49874E+02-1.61083E+03 3.83324E+04 3.15322E-09-1.27748E-08
 -1       960-3.83709E+05-5.49363E+01-7.85531E+02 3.15485E+04 5.04406E-09-1.18825E-09
 -1       961-3.83706E+05-7.54100E+01-4.16452E+02 3.83533E+04 1.26606E-08-7.48696E-09
 -1       962-3.83738E+05-5.58983E+01-2.38423E+02 3.15455E+04 2.58069E-09 5.87738E-09
 -1       963-3.83706E+05-7.10118E+01-1.91384E+02 3.83571E+04 3.15504E-09 6.16797E-09
 -1       964-3.83743E+05-5.24888E+01-2.32756E+02 3.15447E+04 4.27067E-09 7.90487E-09
 -1       965-3.83718E+05-6.81424E+01-4.02586E+02 3.83563E+04-7.34792E-09-6.25573E-09
 -1       966-3.83726E+05-4.48035E+01-7.56501E+02 3.15463E+04 3.47245E-09-1.57577E-08
 -1       967-3.83808E+05-1.32972E+02-1.55155E+03 3.83414E+04-2.10775E-10-8.19432E-09
 -1       968-3.83620E+05-2.30352E+02-3.03746E+03 3.15594E+04 1.68075E-09-2.13710E-08
 -1       969-3.85024E+05-1.87216E+03-6.74297E+03 3.81880E+04-2.11321E-09-4.67023E-09
 -1       970-3.82447E+05-5.31346E+03-1.31359E+04 3.16900E+04-3.80896E-09 2.11703E-08
 -1       971-3.49287E+05-1.74065E+03-9.35708E+03 1.54649E+04 7.63885E-09-3.05102E-09
 -1       972-3.51537E+05-1.28437E+03-5.09579E+03 2.13675E+04 5.04724E-09-1.57215E-08
 -1       973-3.50329E+05-6.67610E+01-2.28248E+03 1.53438E+04 1.94632E-09-5.80485E-09
 -1       974-3.50463E+05-8.76867E+01-1.18323E+03 2.15050E+04 1.21963E-09-1.08685E-10
 -1       975-3.50412E+05-2.16587E+01-5.92057E+02 1.53314E+04 2.28329E-09-9.65463E-09
 -1       976-3.50401E+05-3.75972E+01-3.42689E+02 2.15209E+04 7.46013E-09-2.99360E-09
 -1       977-3.50428E+05-2.08981E+01-2.50698E+02 1.53280E+04-6.17888E-09 3.85717E-09
 -1       978-3.50407E+05-3.13316E+01-2.96076E+02 2.15258E+04-1.10881E-08-1.00774E-08
 -1       979-3.50428E+05-1.23238E+01-4.78020E+02 1.53265E+04-5.26040E-09 2.15716E-08
 -1       980-3.50443E+05-2.82398E+01-9.24451E+02 2.15268E+04-7.48469E-09 8.57665E-09
 -1       981-3.50398E+05 1.07942E+01-1.79120E+03 1.53270E+04 3.24167E-09 1.00604E-08
 -1       982-3.50688E+05-1.60575E+02-3.70281E+03 2.15202E+04-1.71440E-10 9.49527E-10
 -1       983-3.50173E+05-1.03877E+02-7.19479E+03 1.53331E+04 3.26827E-09 2.83626E-09
 -1       984-3.54149E+05-3.91816E+03-1.61126E+04 2.14342E+04-4.78258E-09 7.29051E-09
 -1       985-3.46915E+05-5.36853E+03-2.95876E+04 1.54033E+04-8.03857E-09-1.67365E-08
 -3
    1PSTEP                        53          27           1          
  100CL  127 6.68350E-01         409                     0   27           1
 -4  DISP        4    1
 -5  D1          1    2    1    0
 -5  D2          1    2    2    0
 -5  D3          1    2    3    0
 -5  ALL         1    2    0    0    1ALL
 -1         1 4.71435E-03 0.00000E+00 0.00000E+00
 -1         2 4.64853E-03-3.99159E-29 5.29396E-23
 -1         3 3.54208E-04-5.34601E-28 1.32349E-23
 -1         5 1.82653E-04 3.93650E-28-8.27181E-25
 -1         8 4.70165E-03-3.38751E-07 0.00000E+00
 -1         9 4.63039E-03-1.42955E-05 0.00000E+00
 -1        10 3.21593E-04-2.88024E-06 0.00000E+00
 -1        12 1.84696E-04 8.23124E-07 0.00000E+00
 -1        15 4.68593E-03-3.68969E-07-1.03398E-25
 -1        16 4.69714E-03-1.67444E-05 0.00000E+00
 -1        17 2.19438E-04-6.71203E-06 0.00000E+00
 -1        18 1.89212E-04 3.70888E-05 0.00000E+00
 -1        19 1.90828E-04 1.63926E-06 0.00000E+00
 -1        20 1.90964E-04-1.21344E-05 0.00000E+00
 -1        21 1.90047E-04-3.01904E-05 3.30872E-24
 -1        24 3.07973E-05-1.07938E-05 0.00000E+00
 -1        25 2.00987E-04 3.73204E-05 0.00000E+00
 -1        26 2.01640E-04 2.26889E-06 0.00000E+00
 -1        27 1.99402E-04-1.57469E-05 0.00000E+00
 -1        28 1.99103E-04-3.08189E-05 0.00000E+00
 -1        32 0.00000E+00 0.00000E+00 0.00000E+00
 -1        33 2.11480E-04 3.03430E-06 0.00000E+00
 -1        34 2.09329E-04-1.58066E-05 0.00000E+00
 -1        35 2.07373E-04-3.11661E-05 0.00000E+00
 -1        51 4.71355E-03-7.35222E-08 0.00000E+00
 -1        52 4.71205E-03-1.28653E-07 0.00000E+00
 -1        53 4.70997E-03-1.80487E-07 0.00000E+00
 -1        54 4.70746E-03-2.31318E-07 0.00000E+00
 -1        55 4.70464E-03-2.82919E-07-2.48154E-24
 -1        56 4.70633E-03 9.27671E-06 0.00000E+00
 -1        57 4.69002E-03 3.89176E-05 0.00000E+00
 -1        58 4.66723E-03 8.41590E-05 1.05879E-22
 -1        59 4.64035E-03 1.38749E-04 5.29396E-23
 -1        60 4.61284E-03 1.94803E-04-1.05879E-22
 -1        61 4.58818E-03 2.44300E-04 0.00000E+00
 -1        62 4.56919E-03 2.80386E-04-1.05879E-22
 -1        63 4.55796E-03 2.97389E-04-5.29396E-23
 -1        64 4.55487E-03 2.93121E-04-1.05879E-22
 -1        65 4.55953E-03 2.67389E-04-5.29396E-23
 -1        66 4.57018E-03 2.24061E-04 0.00000E+00
 -1        67 4.58472E-03 1.68736E-04 0.00000E+00
 -1        68 4.60056E-03 1.09343E-04 1.05879E-22
 -1        69 4.61508E-03 5.42271E-05-5.29396E-23
 -1        70 4.62574E-03 1.08911E-05 0.00000E+00
 -1        86 4.64485E-03-2.37497E-06 0.00000E+00
 -1        87 4.63415E-03-4.79629E-06 2.64698E-23
 -1        88 4.62300E-03-7.22159E-06 5.29396E-23
 -1        89 4.61800E-03-9.58783E-06-2.64698E-23
 -1        90 4.62030E-03-1.19494E-05 0.00000E+00
 -1       121 3.53294E-04-4.61602E-07-1.32349E-23
 -1       122 3.50554E-04-9.26409E-07-6.61744E-24
 -1       123 3.45997E-04-1.39758E-06 0.00000E+00
 -1       124 3.39637E-04-1.87828E-06 0.00000E+00
 -1       125 3.31493E-04-2.37133E-06 0.00000E+00
 -1       191 1.82710E-04 1.37265E-07-2.48154E-24
 -1       192 1.82880E-04 2.74515E-07 1.24077E-24
 -1       193 1.83164E-04 4.11741E-07 0.00000E+00
 -1       194 1.83561E-04 5.48928E-07-4.13590E-25
 -1       195 1.84072E-04 6.86061E-07-3.30872E-24
 -1       251 4.70070E-03 2.51524E-05-1.32349E-23
 -1       252 4.69765E-03 9.57134E-05-6.61744E-24
 -1       253 4.69198E-03 1.98688E-04 1.32349E-23
 -1       254 4.68423E-03 3.20662E-04-6.61744E-24
 -1       255 4.67647E-03 4.42819E-04-1.32349E-23
 -1       256 4.67074E-03 5.46340E-04 0.00000E+00
 -1       257 4.66763E-03 6.17705E-04 1.32349E-23
 -1       258 4.66665E-03 6.44143E-04 0.00000E+00
 -1       259 4.66580E-03 6.24408E-04 0.00000E+00
 -1       260 4.66305E-03 5.58504E-04-6.61744E-24
 -1       261 4.65763E-03 4.58189E-04 1.32349E-23
 -1       262 4.64986E-03 3.36040E-04 0.00000E+00
 -1       263 4.64173E-03 2.10793E-04-1.32349E-23
 -1       264 4.63538E-03 1.01245E-04-6.61744E-24
 -1       265 4.63168E-03 2.16763E-05 0.00000E+00
 -1       266 4.69903E-03-3.49000E-07 1.65436E-24
 -1       267 4.69641E-03-3.53401E-07-4.13590E-25
 -1       268 4.69379E-03-3.58173E-07 4.13590E-25
 -1       269 4.69117E-03-3.61847E-07-1.03398E-25
 -1       270 4.68855E-03-3.65496E-07-2.06795E-25
 -1       271 4.69987E-03 2.74153E-06 0.00000E+00
 -1       272 4.69768E-03 6.86200E-06-6.61744E-24
 -1       273 4.69521E-03 1.16857E-05 1.32349E-23
 -1       274 4.69262E-03 1.68620E-05 0.00000E+00
 -1       275 4.69002E-03 2.20399E-05 0.00000E+00
 -1       276 4.68755E-03 2.68678E-05 6.61744E-24
 -1       277 4.68535E-03 3.09963E-05 1.32349E-23
 -1       278 4.68354E-03 3.40809E-05 6.61744E-24
 -1       279 4.68226E-03 3.57842E-05-1.32349E-23
 -1       280 4.68162E-03 3.57785E-05-6.61744E-24
 -1       281 4.68174E-03 3.37476E-05 0.00000E+00
 -1       282 4.68272E-03 2.93895E-05 6.61744E-24
 -1       283 4.68466E-03 2.24184E-05 1.32349E-23
 -1       284 4.68766E-03 1.25668E-05-6.61744E-24
 -1       285 4.69180E-03-4.13290E-07 0.00000E+00
 -1       301 4.64171E-03-1.47240E-05 6.61744E-24
 -1       302 4.65144E-03-1.51120E-05 0.00000E+00
 -1       303 4.66072E-03-1.54930E-05 0.00000E+00
 -1       304 4.67067E-03-1.58795E-05 0.00000E+00
 -1       305 4.68244E-03-1.62883E-05 0.00000E+00
 -1       306 4.67534E-03-2.21379E-04 1.05879E-22
 -1       307 4.72505E-03-7.74238E-04 5.29396E-23
 -1       308 4.71092E-03-1.58309E-03 0.00000E+00
 -1       309 4.63729E-03-2.51694E-03 2.64698E-23
 -1       310 4.58664E-03-3.40293E-03 1.05879E-22
 -1       311 4.61695E-03-4.07018E-03 5.29396E-23
 -1       312 4.67539E-03-4.40508E-03 0.00000E+00
 -1       313 4.65198E-03-4.37653E-03 0.00000E+00
 -1       314 4.41183E-03-4.01040E-03-2.11758E-22
 -1       315 3.89435E-03-3.43066E-03 0.00000E+00
 -1       316 3.12526E-03-2.74600E-03 0.00000E+00
 -1       317 2.21219E-03-2.03419E-03 0.00000E+00
 -1       318 1.34425E-03-1.33041E-03 1.05879E-22
 -1       319 6.97029E-04-6.86457E-04-5.29396E-23
 -1       320 3.33498E-04-2.08629E-04 0.00000E+00
 -1       336 3.09735E-04-3.44610E-06 1.32349E-23
 -1       337 2.95731E-04-4.03891E-06-6.61744E-24
 -1       338 2.79631E-04-4.66147E-06 0.00000E+00
 -1       339 2.61500E-04-5.31464E-06 0.00000E+00
 -1       340 2.41410E-04-6.00392E-06 0.00000E+00
 -1       406 1.85434E-04 9.60097E-07-1.65436E-24
 -1       407 1.86286E-04 1.09694E-06 1.24077E-24
 -1       408 1.87252E-04 1.23359E-06 8.27181E-25
 -1       409 1.88331E-04 1.36989E-06-1.24077E-24
 -1       410 1.89523E-04 1.50553E-06-2.89513E-24
 -1       521 4.74142E-03-2.36607E-04 2.11758E-22
 -1       522 4.78582E-03-8.09354E-04 0.00000E+00
 -1       523 4.76209E-03-1.63883E-03 1.05879E-22
 -1       524 4.68144E-03-2.58380E-03 0.00000E+00
 -1       525 4.62565E-03-3.47795E-03-2.11758E-22
 -1       526 4.65121E-03-4.15743E-03 1.05879E-22
 -1       527 4.70700E-03-4.49679E-03-2.11758E-22
 -1       528 4.67776E-03-4.46260E-03 0.00000E+00
 -1       529 4.41858E-03-4.08088E-03 2.11758E-22
 -1       530 3.87102E-03-3.48802E-03 0.00000E+00
 -1       531 3.06613E-03-2.79594E-03 0.00000E+00
 -1       532 2.12366E-03-2.08174E-03 0.00000E+00
 -1       533 1.22691E-03-1.37459E-03 0.00000E+00
 -1       534 5.45904E-04-7.19783E-04 0.00000E+00
 -1       535 1.57565E-04-2.26526E-04 0.00000E+00
 -1       536 2.18649E-04 2.93925E-05-3.30872E-24
 -1       537 2.16615E-04 9.17857E-05 0.00000E+00
 -1       538 2.13470E-04 1.70914E-04-3.30872E-24
 -1       539 2.09759E-04 2.57134E-04 0.00000E+00
 -1       540 2.06422E-04 3.38583E-04 0.00000E+00
 -1       541 2.04257E-04 4.03422E-04-1.65436E-24
 -1       542 2.03263E-04 4.44715E-04 3.30872E-24
 -1       543 2.03032E-04 4.55685E-04-1.65436E-24
 -1       544 2.02699E-04 4.37122E-04 0.00000E+00
 -1       545 2.01464E-04 3.90047E-04-1.65436E-24
 -1       546 1.99153E-04 3.22813E-04 0.00000E+00
 -1       547 1.96018E-04 2.43897E-04 0.00000E+00
 -1       548 1.92911E-04 1.65345E-04 0.00000E+00
 -1       549 1.90671E-04 9.92042E-05 0.00000E+00
 -1       550 1.89509E-04 5.37398E-05-1.65436E-24
 -1       551 1.93620E-04-7.22914E-06 0.00000E+00
 -1       552 1.64471E-04-7.83629E-06 0.00000E+00
 -1       553 1.32794E-04-8.51473E-06-6.61744E-24
 -1       554 9.94098E-05-9.24712E-06-4.13590E-25
 -1       555 6.51381E-05-1.00093E-05 0.00000E+00
 -1       556 2.11515E-04 1.35548E-05-5.29396E-23
 -1       557 2.05105E-04 3.00017E-05 0.00000E+00
 -1       558 2.00075E-04 4.29271E-05 0.00000E+00
 -1       559 1.96288E-04 5.26501E-05 0.00000E+00
 -1       560 1.93611E-04 5.94905E-05 0.00000E+00
 -1       561 1.91912E-04 6.37705E-05 0.00000E+00
 -1       562 1.91061E-04 6.58138E-05 0.00000E+00
 -1       563 1.90931E-04 6.59448E-05 0.00000E+00
 -1       564 1.91397E-04 6.44891E-05 0.00000E+00
 -1       565 1.92333E-04 6.17729E-05 0.00000E+00
 -1       566 1.93617E-04 5.81230E-05 0.00000E+00
 -1       567 1.95126E-04 5.38666E-05 0.00000E+00
 -1       568 1.96739E-04 4.93312E-05 0.00000E+00
 -1       569 1.98334E-04 4.48442E-05 0.00000E+00
 -1       570 1.99789E-04 4.07329E-05 0.00000E+00
 -1       571 1.89310E-04 3.47864E-05 8.27181E-25
 -1       572 1.89410E-04 3.24169E-05 4.13590E-25
 -1       573 1.89510E-04 2.99965E-05 0.00000E+00
 -1       574 1.89611E-04 2.75420E-05 1.65436E-24
 -1       575 1.89712E-04 2.50705E-05-3.30872E-24
 -1       576 1.89813E-04 2.25990E-05 3.30872E-24
 -1       577 1.89914E-04 2.01446E-05 0.00000E+00
 -1       578 1.90015E-04 1.77244E-05 0.00000E+00
 -1       579 1.90116E-04 1.53555E-05 0.00000E+00
 -1       580 1.90217E-04 1.30549E-05 0.00000E+00
 -1       581 1.90318E-04 1.08398E-05 0.00000E+00
 -1       582 1.90420E-04 8.72721E-06 0.00000E+00
 -1       583 1.90522E-04 6.73418E-06 0.00000E+00
 -1       584 1.90624E-04 4.87762E-06 0.00000E+00
 -1       585 1.90726E-04 3.17421E-06 6.61744E-24
 -1       586 1.91134E-04 3.71295E-05 0.00000E+00
 -1       587 1.93014E-04 3.71697E-05 8.27181E-25
 -1       588 1.94895E-04 3.72096E-05-8.27181E-25
 -1       589 1.96822E-04 3.72487E-05 0.00000E+00
 -1       590 1.98838E-04 3.72866E-05 0.00000E+00
 -1       591 1.90003E-04 3.48843E-05-2.06795E-25
 -1       592 1.90798E-04 3.26614E-05 0.00000E+00
 -1       593 1.91596E-04 3.04257E-05 0.00000E+00
 -1       594 1.92398E-04 2.81818E-05 0.00000E+00
 -1       595 1.93200E-04 2.59342E-05 0.00000E+00
 -1       596 1.94002E-04 2.36876E-05-4.13590E-25
 -1       597 1.94802E-04 2.14464E-05 0.00000E+00
 -1       598 1.95599E-04 1.92151E-05 0.00000E+00
 -1       599 1.96389E-04 1.69984E-05 0.00000E+00
 -1       600 1.97173E-04 1.48007E-05 0.00000E+00
 -1       601 1.97948E-04 1.26265E-05 0.00000E+00
 -1       602 1.98713E-04 1.04804E-05 4.13590E-25
 -1       603 1.99466E-04 8.36691E-06-8.27181E-25
 -1       604 2.00205E-04 6.29066E-06 0.00000E+00
 -1       605 2.00929E-04 4.25607E-06 0.00000E+00
 -1       606 1.90841E-04 3.42290E-07 0.00000E+00
 -1       607 1.90851E-04-8.70865E-07 0.00000E+00
 -1       608 1.90859E-04-2.00513E-06 0.00000E+00
 -1       609 1.90867E-04-3.06604E-06-1.65436E-24
 -1       610 1.90875E-04-4.05921E-06 0.00000E+00
 -1       611 1.90883E-04-4.99030E-06 0.00000E+00
 -1       612 1.90891E-04-5.86496E-06 0.00000E+00
 -1       613 1.90899E-04-6.68889E-06 0.00000E+00
 -1       614 1.90908E-04-7.46775E-06 0.00000E+00
 -1       615 1.90916E-04-8.20720E-06-8.27181E-25
 -1       616 1.90924E-04-8.91294E-06 0.00000E+00
 -1       617 1.90932E-04-9.59064E-06 0.00000E+00
 -1       618 1.90940E-04-1.02460E-05 0.00000E+00
 -1       619 1.90948E-04-1.08846E-05 0.00000E+00
 -1       620 1.90956E-04-1.15122E-05 0.00000E+00
 -1       621 1.92326E-04 1.74483E-06 3.30872E-24
 -1       622 1.93993E-04 1.85063E-06-1.65436E-24
 -1       623 1.95794E-04 1.95618E-06-1.65436E-24
 -1       624 1.97692E-04 2.06138E-06 8.27181E-25
 -1       625 1.99653E-04 2.16626E-06-1.65436E-24
 -1       626 1.91428E-04 3.79055E-07 0.00000E+00
 -1       627 1.92006E-04-8.20417E-07-3.30872E-24
 -1       628 1.92565E-04-1.96695E-06 0.00000E+00
 -1       629 1.93106E-04-3.06861E-06 0.00000E+00
 -1       630 1.93635E-04-4.13354E-06 0.00000E+00
 -1       631 1.94152E-04-5.16984E-06-1.65436E-24
 -1       632 1.94662E-04-6.18563E-06 0.00000E+00
 -1       633 1.95167E-04-7.18906E-06 0.00000E+00
 -1       634 1.95671E-04-8.18825E-06 0.00000E+00
 -1       635 1.96176E-04-9.19132E-06 0.00000E+00
 -1       636 1.96685E-04-1.02064E-05 0.00000E+00
 -1       637 1.97202E-04-1.12416E-05-1.65436E-24
 -1       638 1.97730E-04-1.23051E-05-3.30872E-24
 -1       639 1.98271E-04-1.34050E-05-8.27181E-25
 -1       640 1.98828E-04-1.45495E-05-1.65436E-24
 -1       656 1.91818E-04-1.27215E-05 0.00000E+00
 -1       657 1.93092E-04-1.33325E-05 0.00000E+00
 -1       658 1.94648E-04-1.39421E-05 1.32349E-23
 -1       659 1.96341E-04-1.45514E-05-6.61744E-24
 -1       660 1.97987E-04-1.51625E-05 6.61744E-24
 -1       661 1.91283E-04-1.28030E-05-8.27181E-25
 -1       662 1.91640E-04-1.35657E-05 0.00000E+00
 -1       663 1.92031E-04-1.44172E-05 1.65436E-24
 -1       664 1.92453E-04-1.53505E-05 0.00000E+00
 -1       665 1.92903E-04-1.63598E-05-1.65436E-24
 -1       666 1.93380E-04-1.74387E-05-8.27181E-25
 -1       667 1.93880E-04-1.85815E-05 1.65436E-24
 -1       668 1.94402E-04-1.97822E-05-8.27181E-25
 -1       669 1.94943E-04-2.10353E-05 0.00000E+00
 -1       670 1.95502E-04-2.23351E-05 0.00000E+00
 -1       671 1.96077E-04-2.36762E-05 1.65436E-24
 -1       672 1.96664E-04-2.50533E-05 0.00000E+00
 -1       673 1.97263E-04-2.64610E-05 1.65436E-24
 -1       674 1.97871E-04-2.78945E-05 0.00000E+00
 -1       675 1.98487E-04-2.93482E-05 0.00000E+00
 -1       676 1.91561E-04-3.02958E-05 0.00000E+00
 -1       677 1.93075E-04-3.04011E-05-1.65436E-24
 -1       678 1.94587E-04-3.05063E-05-3.30872E-24
 -1       679 1.96096E-04-3.06113E-05 1.65436E-24
 -1       680 1.97602E-04-3.07162E-05 0.00000E+00
 -1       771 1.77492E-05 1.85964E-05 0.00000E+00
 -1       772 6.80575E-06 4.27119E-05 0.00000E+00
 -1       773-2.13203E-06 6.18063E-05 0.00000E+00
 -1       774-9.20413E-06 7.61628E-05 5.29396E-23
 -1       775-1.45467E-05 8.60766E-05 5.29396E-23
 -1       776-1.83015E-05 9.18615E-05 0.00000E+00
 -1       777-2.06094E-05 9.38430E-05 0.00000E+00
 -1       778-2.16143E-05 9.23621E-05 0.00000E+00
 -1       779-2.14587E-05 8.77694E-05-5.29396E-23
 -1       780-2.02875E-05 8.04285E-05 2.64698E-23
 -1       781-1.82440E-05 7.07105E-05 5.29396E-23
 -1       782-1.54732E-05 5.89968E-05 0.00000E+00
 -1       783-1.21187E-05 4.56737E-05 5.29396E-23
 -1       784-8.32555E-06 3.11348E-05 0.00000E+00
 -1       785-4.23745E-06 1.57770E-05-5.29396E-23
 -1       786 2.01023E-04 3.48969E-05 2.58494E-26
 -1       787 2.01063E-04 3.25247E-05 4.13590E-25
 -1       788 2.01103E-04 3.01953E-05-8.27181E-25
 -1       789 2.01144E-04 2.79005E-05 0.00000E+00
 -1       790 2.01185E-04 2.56354E-05 0.00000E+00
 -1       791 2.01226E-04 2.33951E-05 0.00000E+00
 -1       792 2.01267E-04 2.11774E-05 0.00000E+00
 -1       793 2.01308E-04 1.89801E-05-8.27181E-25
 -1       794 2.01349E-04 1.68026E-05-1.65436E-24
 -1       795 2.01391E-04 1.46449E-05 0.00000E+00
 -1       796 2.01432E-04 1.25086E-05 1.65436E-24
 -1       797 2.01473E-04 1.03956E-05 0.00000E+00
 -1       798 2.01515E-04 8.30968E-06 0.00000E+00
 -1       799 2.01556E-04 6.25514E-06 0.00000E+00
 -1       800 2.01598E-04 4.23912E-06 0.00000E+00
 -1       801 1.52992E-04 3.36015E-05 0.00000E+00
 -1       802 7.97027E-06 2.08716E-05-2.64698E-23
 -1       803-1.15766E-04 1.04599E-05 0.00000E+00
 -1       804-1.02590E-04 7.30895E-06 2.64698E-23
 -1       805-3.43104E-05 2.84692E-06 5.29396E-23
 -1       806 2.01778E-04 3.48269E-05 0.00000E+00
 -1       807 2.02555E-04 3.23604E-05 0.00000E+00
 -1       808 2.03320E-04 2.99259E-05-3.30872E-24
 -1       809 2.04070E-04 2.75277E-05 0.00000E+00
 -1       810 2.04805E-04 2.51698E-05 0.00000E+00
 -1       811 2.05524E-04 2.28563E-05-1.65436E-24
 -1       812 2.06225E-04 2.05912E-05 0.00000E+00
 -1       813 2.06906E-04 1.83784E-05 1.65436E-24
 -1       814 2.07566E-04 1.62218E-05 0.00000E+00
 -1       815 2.08204E-04 1.41256E-05 0.00000E+00
 -1       816 2.08818E-04 1.20936E-05 0.00000E+00
 -1       817 2.09406E-04 1.01297E-05 1.65436E-24
 -1       818 2.09968E-04 8.23790E-06-1.65436E-24
 -1       819 2.10501E-04 6.42217E-06-8.27181E-25
 -1       820 2.11005E-04 4.68636E-06-1.65436E-24
 -1       821 2.01509E-04-3.69792E-07 0.00000E+00
 -1       822 2.01366E-04-4.38498E-06 0.00000E+00
 -1       823 2.01220E-04-9.28080E-06-3.30872E-24
 -1       824 2.01070E-04-1.45558E-05 1.65436E-24
 -1       825 2.00921E-04-1.96053E-05-3.30872E-24
 -1       826 2.00776E-04-2.38257E-05 0.00000E+00
 -1       827 2.00635E-04-2.68412E-05 0.00000E+00
 -1       828 2.00497E-04-2.82831E-05-1.65436E-24
 -1       829 2.00360E-04-2.82145E-05 3.30872E-24
 -1       830 2.00223E-04-2.67077E-05 0.00000E+00
 -1       831 2.00083E-04-2.42293E-05 0.00000E+00
 -1       832 1.99942E-04-2.12520E-05 0.00000E+00
 -1       833 1.99802E-04-1.83857E-05 0.00000E+00
 -1       834 1.99665E-04-1.62391E-05-1.65436E-24
 -1       835 1.99529E-04-1.52245E-05-8.27181E-25
 -1       836 2.03496E-04 2.39577E-06 3.30872E-24
 -1       837 2.05225E-04 2.52588E-06 1.65436E-24
 -1       838 2.06856E-04 2.65594E-06-3.30872E-24
 -1       839 2.08422E-04 2.78530E-06 0.00000E+00
 -1       840 2.09953E-04 2.91451E-06-8.27181E-25
 -1       856 1.99387E-04-1.69669E-05-8.27181E-25
 -1       857 1.99368E-04-1.80501E-05 0.00000E+00
 -1       858 1.99350E-04-1.90178E-05-2.06795E-25
 -1       859 1.99332E-04-1.98913E-05 2.06795E-25
 -1       860 1.99313E-04-2.06919E-05 0.00000E+00
 -1       861 1.99294E-04-2.14411E-05 2.06795E-25
 -1       862 1.99276E-04-2.21602E-05-4.13590E-25
 -1       863 1.99257E-04-2.28708E-05 0.00000E+00
 -1       864 1.99238E-04-2.35943E-05 0.00000E+00
 -1       865 1.99220E-04-2.43522E-05-2.06795E-25
 -1       866 1.99201E-04-2.51660E-05 8.27181E-25
 -1       867 1.99182E-04-2.60569E-05 0.00000E+00
 -1       868 1.99163E-04-2.70464E-05 0.00000E+00
 -1       869 1.99144E-04-2.81558E-05 0.00000E+00
 -1       870 1.99124E-04-2.94063E-05 8.27181E-25
 -1       871 2.00914E-04-1.57523E-05 8.27181E-25
 -1       872 2.02575E-04-1.57612E-05 0.00000E+00
 -1       873 2.04317E-04-1.57708E-05 0.00000E+00
 -1       874 2.06070E-04-1.57812E-05 2.32645E-25
 -1       875 2.07764E-04-1.57922E-05-1.65436E-24
 -1       876 1.99988E-04-1.69520E-05-3.30872E-24
 -1       877 2.00551E-04-1.80898E-05 0.00000E+00
 -1       878 2.01093E-04-1.91683E-05 0.00000E+00
 -1       879 2.01616E-04-2.01948E-05 0.00000E+00
 -1       880 2.02122E-04-2.11769E-05-3.30872E-24
 -1       881 2.02614E-04-2.21220E-05 0.00000E+00
 -1       882 2.03095E-04-2.30374E-05-3.30872E-24
 -1       883 2.03568E-04-2.39306E-05 0.00000E+00
 -1       884 2.04036E-04-2.48090E-05 3.30872E-24
 -1       885 2.04500E-04-2.56800E-05 1.65436E-24
 -1       886 2.04965E-04-2.65508E-05 0.00000E+00
 -1       887 2.05432E-04-2.74291E-05-1.65436E-24
 -1       888 2.05904E-04-2.83220E-05 3.30872E-24
 -1       889 2.06384E-04-2.92373E-05 1.65436E-24
 -1       890 2.06875E-04-3.01822E-05 1.65436E-24
 -1       891 2.00624E-04-3.08772E-05 0.00000E+00
 -1       892 2.02122E-04-3.09357E-05 0.00000E+00
 -1       893 2.03571E-04-3.09941E-05-1.65436E-24
 -1       894 2.04945E-04-3.10523E-05-8.27181E-25
 -1       895 2.06221E-04-3.11102E-05-8.27181E-25
 -1       956 2.11347E-04 1.56040E-06 3.30872E-24
 -1       957 2.11213E-04 1.80098E-07 8.27181E-25
 -1       958 2.11078E-04-1.11764E-06 3.30872E-24
 -1       959 2.10943E-04-2.34446E-06-1.65436E-24
 -1       960 2.10809E-04-3.51207E-06 0.00000E+00
 -1       961 2.10674E-04-4.63219E-06 0.00000E+00
 -1       962 2.10539E-04-5.71655E-06 0.00000E+00
 -1       963 2.10404E-04-6.77695E-06 1.65436E-24
 -1       964 2.10269E-04-7.82512E-06 0.00000E+00
 -1       965 2.10135E-04-8.87281E-06 1.65436E-24
 -1       966 2.10000E-04-9.93181E-06 0.00000E+00
 -1       967 2.09865E-04-1.10139E-05-1.65436E-24
 -1       968 2.09731E-04-1.21307E-05 0.00000E+00
 -1       969 2.09596E-04-1.32941E-05 0.00000E+00
 -1       970 2.09462E-04-1.45156E-05 0.00000E+00
 -1       971 2.09208E-04-1.70990E-05 3.30872E-24
 -1       972 2.09085E-04-1.82966E-05-1.65436E-24
 -1       973 2.08962E-04-1.94099E-05 0.00000E+00
 -1       974 2.08839E-04-2.04496E-05 0.00000E+00
 -1       975 2.08716E-04-2.14268E-05 0.00000E+00
 -1       976 2.08593E-04-2.23523E-05 0.00000E+00
 -1       977 2.08470E-04-2.32370E-05 0.00000E+00
 -1       978 2.08347E-04-2.40918E-05-1.65436E-24
 -1       979 2.08225E-04-2.49277E-05-3.30872E-24
 -1       980 2.08102E-04-2.57555E-05 0.00000E+00
 -1       981 2.07979E-04-2.65863E-05 0.00000E+00
 -1       982 2.07856E-04-2.74309E-05 0.00000E+00
 -1       983 2.07734E-04-2.83003E-05 3.30872E-24
 -1       984 2.07611E-04-2.92055E-05 0.00000E+00
 -1       985 2.07490E-04-3.01572E-05 0.00000E+00
 -3
    1PSTEP                        54          27           1          
  100CL  127 6.68350E-01         409                     0   27           1
 -4  STRESS      6    1
 -5  SXX         1    4    1    1
 -5  SYY         1    4    2    2
 -5  SZZ         1    4    3    3
 -5  SXY         1    4    1    2
 -5  SYZ         1    4    2    3
 -5  SZX         1    4    3    1
 -1         1-5.19498E+06-1.69913E+06-1.13305E+06-1.50126E+06-4.01633E-09 9.68575E-08
 -1         2-7.27209E+03-6.70402E+06-2.04323E+04-2.08194E+05 4.02451E-11 2.73697E-07
 -1         3-1.55105E+03-1.30886E+06 3.30663E+02-1.89908E+03-4.24741E-10-2.90602E-08
 -1         5-9.19781E+01 3.93132E+05 1.01414E+01-1.53390E+00-4.33551E-10 3.40879E-09
 -1         8-2.52274E+05-7.44059E+04 1.15127E+04-1.06889E+05-3.15595E-10 1.15513E-07
 -1         9 2.07820E+07-1.53800E+06 3.23095E+06-3.37024E+06 4.80097E-08-5.76023E-08
 -1        10-2.35946E+03-1.36383E+06-4.45614E+03-1.28900E+04-1.38934E-08-8.23637E-08
 -1        12-8.80416E+01 3.93154E+05 3.34428E+02-1.03734E+01-5.91733E-10 2.03308E-08
 -1        15 8.63784E+02 4.74693E+02 2.79216E+03 9.78955E-01-2.18279E-10-3.45428E-07
 -1        16 4.10719E+07-9.29630E+05 5.25002E+06-5.05430E+06 1.54832E-08 7.38073E-08
 -1        17 1.39209E+07 1.34828E+07 4.32320E+06 1.18809E+07-6.80448E-09 1.50525E-08
 -1        18 1.54472E+05 3.68898E+04 6.56547E+03-1.22575E+05 1.23969E-08 5.62068E-09
 -1        19 1.24441E+05 1.43985E+05-9.63308E+02 2.21639E+04 1.82590E-09 5.74037E-09
 -1        20-8.51615E+04-5.82755E+05-1.30898E+05 2.44579E+04-2.98420E-09-3.40757E-09
 -1        21-4.55296E+01-2.98417E+05-9.29270E+02 3.10031E+02 1.54562E-08 1.36559E-08
 -1        24 2.38393E+07 2.42608E+07 6.71325E+06 2.20757E+07-2.17910E-07-5.07377E-08
 -1        25 1.52206E+05 3.70609E+05 1.26139E+05-7.01621E+05-2.01089E-09 6.68206E-09
 -1        26-5.70023E+04 9.38202E+04-2.51123E+04 2.09454E+03-2.29556E-10 1.69160E-08
 -1        27-7.54032E+04-3.14474E+05-1.14698E+05 6.99571E+04 4.23582E-09 4.37982E-09
 -1        28 2.23648E+04-8.62879E+04 1.70454E+04 2.03983E+04-4.37686E-09 1.18100E-08
 -1        32-1.69294E+06-3.30324E+06-2.14964E+05 5.49476E+05-4.67844E-08-1.15929E-08
 -1        33-1.80995E+05 9.46713E+04 3.29042E+04-3.84338E+04-3.24595E-09 9.08373E-09
 -1        34-2.26470E+05-2.55636E+04 7.09151E+02 7.71071E+04-6.91651E-09-1.39244E-09
 -1        35-2.30874E+04-3.42166E+04-1.36432E+03 5.19077E+04-5.53829E-09 2.26561E-08
 -1        51 6.05524E+04-1.36959E+05 1.28733E+05-4.56835E+05-8.73115E-11 1.42354E-07
 -1        52 2.05053E+04-1.14640E+05 6.75596E+04-5.32419E+05-8.64020E-11-1.84162E-07
 -1        53 4.19847E+03-1.30558E+05 3.51081E+04-4.55085E+05 8.07631E-10-2.08347E-07
 -1        54 7.69616E+03-1.26663E+05 2.87927E+04-5.34284E+05 1.34605E-10-2.79950E-07
 -1        55 1.65051E+04-1.33982E+05 3.49231E+04-4.54814E+05 4.43833E-10 1.57164E-07
 -1        56-9.84384E+06-1.37733E+06-9.31461E+05-4.08809E+06-1.78406E-08-5.96658E-07
 -1        57-1.08267E+07-1.03112E+06-5.42150E+05-2.92868E+06 1.45519E-11-5.69278E-07
 -1        58-9.59352E+06-1.89992E+06-2.11684E+05-4.33058E+06-9.85165E-09 1.19653E-07
 -1        59-1.12172E+07-3.56338E+05-1.09531E+05-2.77268E+06 2.32394E-08-3.07560E-07
 -1        60-9.57313E+06-1.95918E+06-4.76857E+04-4.34922E+06 1.05774E-08-1.60602E-07
 -1        61-1.07711E+07-5.61636E+05 5.72197E+03-2.92197E+06-1.94523E-08 1.93468E-07
 -1        62-9.94784E+06-1.75530E+06-6.56140E+04-4.10472E+06-1.09590E-07 2.85880E-07
 -1        63-9.83212E+06-1.24491E+06 5.28596E+04-3.49882E+06 5.48607E-08 1.89786E-07
 -1        64-1.03699E+07-1.37523E+06-7.83531E+04-3.66912E+06-2.11730E-08-4.56515E-07
 -1        65-9.29163E+06-1.93241E+06 2.16383E+04-4.39779E+06-1.91940E-08-6.11682E-07
 -1        66-1.05623E+07-1.01811E+06-5.83143E+04-3.27143E+06 3.71147E-08-9.47239E-09
 -1        67-9.25153E+06-2.30065E+06-9.59644E+04-4.99100E+06-4.07890E-08-4.59433E-07
 -1        68-1.05667E+07-8.97640E+05-1.79818E+05-3.18030E+06-2.28792E-08-2.09970E-07
 -1        69-9.42626E+06-2.47704E+06-4.97598E+05-4.72133E+06-7.42198E-08-2.32307E-07
 -1        70-1.03257E+07-8.96127E+05-8.29460E+05-3.49712E+06 5.70253E-08-4.23403E-07
 -1        86 2.29083E+03-6.76392E+06-3.66515E+04 1.04085E+05 1.16033E-08-1.21286E-07
 -1        87-2.49338E+04-6.72264E+06-5.79063E+04-2.20904E+05 2.02190E-08-2.00084E-07
 -1        88 2.39128E+04-6.74814E+06-1.05273E+05 1.16815E+05 7.28687E-09-2.96349E-07
 -1        89-1.88338E+05-6.78890E+06-2.64871E+05-2.51424E+04 8.55653E-09 5.99981E-07
 -1        90 1.61268E+05-6.69582E+06-3.94479E+05-9.16966E+04-1.15251E-08-5.10613E-08
 -1       121-2.11493E+03-1.31391E+06-6.78791E+02 9.39342E+02 1.50585E-09 4.01633E-09
 -1       122-1.39341E+03-1.30892E+06 5.97292E+02-3.80829E+03-5.38492E-09 2.14968E-08
 -1       123-2.12805E+03-1.31403E+06-9.39264E+01 2.80797E+03 4.15923E-09-5.20959E-09
 -1       124-2.14936E+01-1.30858E+06 2.22054E+03-8.05976E+03-1.08193E-08 1.30967E-09
 -1       125-2.79431E+03-1.31477E+06 2.19073E+03 5.13995E+03 6.56291E-09-3.45644E-08
 -1       191-9.68591E+01 3.93148E+05 7.83804E+00 8.05672E-01-5.91561E-10 1.32604E-08
 -1       192-9.29684E+01 3.93133E+05 2.16796E+01-4.84667E+00-9.97799E-10 5.17684E-09
 -1       193-9.94598E+01 3.93147E+05 3.61516E+01 4.27744E+00-1.18069E-09 3.37386E-08
 -1       194-9.61408E+01 3.93136E+05 8.25089E+01-1.09758E+01-6.31523E-10 3.09083E-08
 -1       195-1.04451E+02 3.93145E+05 1.57209E+02 7.19090E+00-1.69277E-09 5.72254E-09
 -1       251-2.52545E+06-9.98140E+04-3.28766E+05-2.04848E+05 4.86762E-09-2.76639E-07
 -1       252-5.37636E+05 1.22494E+05 1.63428E+05 6.16802E+05 4.66571E-09 1.59229E-07
 -1       253-1.68097E+06-3.75622E+04-5.54513E+04-4.00326E+05 9.84437E-09-9.22537E-08
 -1       254-1.48185E+06 1.33466E+05 3.09062E+04 8.01382E+05-1.74188E-08-3.37504E-07
 -1       255-1.67355E+06-3.49158E+04-3.15879E+04-4.01120E+05 3.00479E-08 2.42239E-07
 -1       256-5.57834E+05 1.04404E+05 2.10791E+05 6.20582E+05 1.24222E-07 4.50040E-07
 -1       257-2.51407E+06-8.32515E+04-2.08019E+05-2.07963E+05 6.71680E-08 2.13277E-07
 -1       258 4.37816E+05 7.54742E+04 3.96452E+05 3.23699E+04 1.20781E-09-2.56915E-07
 -1       259-2.57066E+06-8.66830E+04-2.18084E+05 1.80696E+05-4.82323E-08-1.72853E-07
 -1       260-4.23204E+05 1.04623E+05 2.41892E+05-5.81812E+05-2.35787E-08-5.82549E-07
 -1       261-1.73824E+06-4.26377E+04-3.45895E+04 3.97403E+05 9.10131E-08 1.43222E-07
 -1       262-1.46968E+06 1.49302E+05 6.04459E+04-7.96550E+05-1.48384E-08 3.64037E-07
 -1       263-1.62757E+06-4.63412E+04 2.13348E+03 4.08108E+05 1.13969E-08 1.43150E-07
 -1       264-6.36607E+05 2.14478E+05 2.60877E+05-6.50503E+05 2.37280E-07 2.14241E-07
 -1       265-2.49321E+06-1.71754E+05-1.40656E+05 2.40678E+05 6.59238E-08 3.38223E-07
 -1       266-1.56376E+04-7.31309E+03 3.66862E+04-2.09446E+01 3.09228E-11 5.87405E-07
 -1       267 1.81280E+04 8.52219E+03 2.59314E+04 2.41684E+01 3.56522E-10 1.92507E-08
 -1       268-2.43095E+03-1.20705E+03 9.63847E+03-3.07933E+00-5.20686E-10 7.25935E-08
 -1       269 2.87022E+03 1.44450E+03 6.26496E+03 3.58711E+00 1.51317E-10 2.59680E-07
 -1       270-4.30824E+02-2.37347E+02 3.02418E+03-4.86790E-01-4.42924E-10-1.43190E-07
 -1       271-1.40217E+06-1.57019E+05-1.03175E+05-5.19915E+05-4.88180E-08 1.64560E-07
 -1       272-1.54584E+06-1.24784E+05-6.61588E+04-3.98550E+05 6.05096E-08-2.09548E-08
 -1       273-1.41955E+06-1.84318E+05-2.42824E+04-5.17757E+05-8.67931E-09 3.15681E-07
 -1       274-1.52652E+06-9.05987E+04-1.35941E+04-4.02861E+05-3.87384E-08 9.40527E-08
 -1       275-1.42182E+06-1.87417E+05-5.60478E+03-5.17420E+05 5.26734E-09 3.85232E-07
 -1       276-1.52212E+06-8.79707E+04-2.86705E+03-4.04013E+05-2.97409E-08 9.61436E-08
 -1       277-1.42307E+06-1.87136E+05-1.53303E+03-5.16128E+05 1.22363E-08-1.40157E-07
 -1       278-1.51660E+06-9.09831E+04-5.81946E+02-4.06076E+05-3.68746E-08 2.17938E-08
 -1       279-1.42492E+06-1.85878E+05-1.16920E+03-5.13648E+05 5.05970E-08-1.49553E-07
 -1       280-1.50836E+06-9.65699E+04-4.68467E+02-4.09527E+05-8.25694E-08 1.32432E-07
 -1       281-1.42759E+06-1.83891E+05-2.62001E+03-5.10061E+05-1.02773E-08 5.07405E-07
 -1       282-1.49816E+06-1.04963E+05-2.93854E+03-4.14486E+05-1.65637E-08 3.07532E-07
 -1       283-1.43047E+06-1.80503E+05-8.17403E+03-5.05481E+05-5.09317E-11-6.92544E-08
 -1       284-1.49058E+06-1.22632E+05-1.66024E+04-4.20439E+05 8.67058E-08 3.22898E-08
 -1       285-1.43023E+06-1.70283E+05-3.00450E+04-5.00480E+05-5.49699E-08 3.26174E-07
 -1       301-1.32793E+04-9.36595E+05 1.37902E+05-1.37312E+06 2.93949E-09 9.79344E-09
 -1       302-1.56341E+04-8.96285E+05 8.18216E+04-2.00537E+06-7.02858E-09-1.23055E-08
 -1       303-2.62456E+04-9.29193E+05 4.16509E+04-1.37003E+06-1.12777E-09 2.03727E-07
 -1       304-3.96746E+04-8.89871E+05 3.45767E+04-2.00330E+06-7.27596E-10-9.03092E-08
 -1       305-4.70327E+04-8.98574E+05 3.04115E+04-1.37388E+06 4.72937E-10 3.74857E-08
 -1       306-4.86986E+07-8.87607E+06-1.40433E+07 2.56727E+06-1.74739E-07-1.92813E-07
 -1       307 4.52033E+07 1.06810E+07 1.00827E+07-2.42366E+07-8.46441E-07-9.81090E-07
 -1       308-3.95707E+06-3.97399E+06-7.81841E+05 7.89920E+06 3.07627E-07-1.69966E-07
 -1       309-9.52306E+05 2.31316E+07 5.09688E+06-2.75793E+07 8.03353E-07-2.60698E-07
 -1       310-1.74081E+07-6.28284E+06-4.57551E+06 1.05154E+07-2.46800E-08-2.81929E-07
 -1       311 7.39737E+07 3.21804E+06 1.37090E+07-1.29583E+07-1.17318E-07 1.18569E-07
 -1       312-5.28484E+07-9.10875E+06-1.44724E+07-9.02759E+06 1.01514E-07-4.08327E-08
 -1       313 7.40091E+07 3.48564E+07 1.88195E+07 4.46132E+07-4.74683E-07 3.38419E-07
 -1       314-1.98742E+07-3.49326E+07-1.25642E+07-1.98316E+07 5.35278E-07 3.44589E-08
 -1       315-1.05005E+06 5.51373E+07 1.00082E+07 1.16687E+07 1.91067E-07-1.05466E-06
 -1       316 3.60702E+06-1.21125E+07-7.84525E+05 2.23074E+06 3.42967E-07-1.00391E-06
 -1       317-1.14590E+07 3.36877E+07 5.08677E+06-2.04480E+07 1.18947E-07-1.37513E-06
 -1       318 1.74362E+04-2.29788E+07-4.61340E+06-1.52093E+06-1.42050E-06 1.30269E-07
 -1       319 1.49854E+07 6.50870E+07 1.38445E+07 2.76417E+07-1.08735E-06 1.51340E-07
 -1       320-3.29157E+07-3.27358E+07-1.64489E+07-2.28495E+07-4.92786E-07-3.66126E-08
 -1       336-1.08897E+03-1.42224E+06-1.41772E+04 7.56284E+03-2.76013E-08-2.75031E-09
 -1       337-5.89536E+03-1.42130E+06-2.01711E+04-1.86162E+04-5.13671E-08-1.88811E-08
 -1       338 4.67087E+02-1.42123E+06-3.32810E+04 1.07718E+04-3.56576E-08-5.63887E-10
 -1       339-3.62958E+04-1.44173E+06-7.64066E+04-2.50194E+04-6.51562E-08 3.53612E-09
 -1       340 2.37982E+04-1.40378E+06-1.20636E+05 1.37905E+04-4.25935E-08 1.36970E-08
 -1       406-6.66763E+01 3.93130E+05 6.55857E+02 3.92005E+00-2.11855E-09 1.06229E-09
 -1       407 1.42650E+02 3.93270E+05 1.40332E+03 2.55801E+01-7.97982E-10 2.92493E-08
 -1       408 6.31404E+02 3.93027E+05 2.79710E+03-2.97108E+01-2.57546E-09 3.87554E-08
 -1       409 2.94925E+03 3.94164E+05 6.30609E+03 3.19457E+02-3.14685E-10 2.10193E-08
 -1       410 8.63120E+03 3.92220E+05 1.28698E+04-3.08476E+02-3.23234E-09 1.01991E-08
 -1       521-4.70949E+07-1.26042E+07-1.67785E+07 3.23356E+06-1.10827E-07-3.25264E-07
 -1       522 4.26984E+07 1.40537E+07 9.47366E+06-3.12283E+07-6.80564E-07-8.05769E-07
 -1       523-3.82870E+06-4.09044E+06-4.32211E+05 7.85474E+06 1.34285E-07 5.70435E-08
 -1       524-1.12605E+07 2.99979E+07 4.95585E+06-3.08872E+07 1.28857E-06-3.02549E-07
 -1       525-1.64024E+07-7.35423E+06-4.67924E+06 9.93001E+06 1.00071E-06-5.86326E-07
 -1       526 7.82713E+07 2.71228E+06 1.32528E+07-1.84400E+07-4.63915E-08-9.30158E-08
 -1       527-5.20091E+07-1.34112E+07-1.71391E+07-7.71534E+06 3.60887E-08 1.81433E-07
 -1       528 7.84591E+07 3.84427E+07 1.81826E+07 5.10095E+07 3.68105E-07 1.76951E-07
 -1       529-2.06365E+07-3.65442E+07-1.45713E+07-1.68131E+07 1.77475E-07-2.86615E-07
 -1       530-6.48204E+06 6.21172E+07 9.80007E+06 6.35470E+06 1.38039E-07 5.17583E-07
 -1       531 3.30888E+06-1.20806E+07-3.85475E+05 2.56605E+06-1.08426E-06 6.69679E-07
 -1       532-1.26026E+07 3.10445E+07 4.93254E+06-3.04873E+07 3.58443E-07-1.21016E-06
 -1       533-7.01175E+05-2.18026E+07-4.61090E+06-3.28967E+05-5.44140E-07-1.30571E-06
 -1       534 9.38339E+06 7.33320E+07 1.30473E+07 2.61204E+07-1.16415E-08 9.27597E-07
 -1       535-3.33091E+07-3.54498E+07-1.95682E+07-1.98370E+07 1.71829E-07 5.89760E-07
 -1       536-7.17498E+05-3.07777E+04-9.48451E+04-5.72213E+04-2.48474E-09 4.79013E-08
 -1       537-4.52017E+04 2.56528E+04 5.81818E+04 1.28824E+05-1.21015E-07 8.59279E-08
 -1       538-3.93692E+05 6.49030E+03-7.50415E+03-7.47510E+04 2.86020E-08 9.93407E-08
 -1       539-2.63414E+05-2.36268E+02 1.94875E+04 1.43931E+05 1.77574E-07 9.72441E-08
 -1       540-5.04976E+05-1.16684E+02-2.56608E+04-7.29143E+04 2.10189E-08 1.02515E-07
 -1       541 1.79295E+05 1.75641E+04 1.11384E+05 1.02213E+05-3.64153E-08 8.91123E-08
 -1       542-8.24496E+05-2.12733E+04-9.01010E+04-3.20723E+04 4.67735E-08 4.36839E-08
 -1       543 4.53585E+05 2.88952E+04 1.67300E+05-1.38493E+04-7.04404E-09 2.12185E-09
 -1       544-7.71907E+05-1.75597E+04-7.96059E+04 4.24133E+04-3.50210E-08-2.58283E-08
 -1       545 5.47185E+04 1.01639E+04 8.48510E+04-1.18194E+05-3.68909E-08-6.48852E-08
 -1       546-4.36355E+05 6.37157E+03-1.29573E+04 7.18915E+04-6.60975E-10-1.12327E-07
 -1       547-2.80962E+05-4.61252E+03 1.17316E+04-1.46711E+05-1.25495E-07-1.41536E-07
 -1       548-4.45264E+05 4.79951E+03-2.46777E+04 7.16890E+04-1.03663E-07-9.70745E-08
 -1       549 7.44694E+04 1.83889E+04 6.59606E+04-1.16158E+05-6.64145E-08-7.57218E-08
 -1       550-7.82278E+05-2.46010E+04-1.34195E+05 4.05550E+04 7.75253E-09-4.03870E-08
 -1       551 2.66852E+04-5.63380E+05-4.72079E+04-1.06862E+06-1.06287E-07 4.10364E-09
 -1       552 7.44551E+04-6.08624E+05-9.60996E+03-1.52128E+06-7.61938E-08 4.41651E-08
 -1       553 6.07391E+04-6.05484E+05 1.89453E+04-1.06204E+06-1.23604E-07 3.74130E-08
 -1       554 1.16035E+05-6.26531E+05 6.56315E+04-1.52387E+06-7.76781E-08 1.39262E-08
 -1       555 9.18256E+04-6.33498E+05 1.26299E+05-1.06060E+06-1.32524E-07-1.85737E-08
 -1       556 2.35685E+05-4.04564E+05-2.10674E+04-4.11487E+05-3.01807E-08-1.85391E-08
 -1       557 3.61076E+05-5.09366E+05-7.93974E+03-5.41155E+05-1.01718E-08 1.10631E-08
 -1       558 2.13377E+05-3.88358E+05-8.16044E+03-4.22192E+05-2.48547E-08-9.51695E-09
 -1       559 3.40201E+05-5.03084E+05-2.64117E+03-5.62873E+05 1.72295E-08-2.38579E-08
 -1       560 1.96815E+05-3.77998E+05-4.02115E+03-4.34166E+05 1.11759E-08-2.56114E-09
 -1       561 3.20104E+05-4.94654E+05-1.03947E+03-5.76773E+05 1.23400E-08 1.18089E-08
 -1       562 1.83870E+05-3.70028E+05-1.97932E+03-4.43521E+05 4.42378E-09 6.91216E-10
 -1       563 3.04806E+05-4.87966E+05-3.13351E+02-5.86783E+05 6.27915E-09-4.86034E-09
 -1       564 1.74623E+05-3.64286E+05-7.81681E+02-4.50069E+05 5.32600E-09 1.75951E-08
 -1       565 2.94590E+05-4.83514E+05-4.13239E+01-5.93313E+05 6.76664E-09 4.79304E-09
 -1       566 1.69179E+05-3.60848E+05-3.15080E+02-4.53874E+05-4.94038E-09 9.45147E-09
 -1       567 2.89555E+05-4.81324E+05-4.01407E+02-5.96378E+05 1.12850E-08 1.20126E-08
 -1       568 1.67629E+05-3.59897E+05-1.20129E+03-4.55053E+05-3.57250E-09 9.92077E-09
 -1       569 2.88276E+05-4.81237E+05-3.02119E+03-5.94998E+05-2.96041E-09 2.42217E-08
 -1       570 1.71098E+05-3.63230E+05-6.58665E+03-4.53987E+05 9.43692E-09 2.37378E-09
 -1       571 2.95695E+05 1.06927E+04 1.51950E+04-9.85684E+04 1.03691E-08 4.08727E-09
 -1       572 2.97892E+05 4.06134E+03 7.44694E+03-1.08142E+05 2.60857E-08 1.12414E-09
 -1       573 2.96567E+05 1.30577E+03 3.30897E+03-9.83889E+04 1.12668E-08 1.42209E-08
 -1       574 2.96779E+05 7.84901E+02 1.65954E+03-1.08372E+05-4.08363E-10-1.04910E-08
 -1       575 2.96662E+05 4.97197E+02 7.83323E+02-9.83643E+04-4.17114E-09-2.63753E-10
 -1       576 2.96643E+05 5.12667E+02 4.01209E+02-1.08403E+05-9.30959E-09 1.45492E-08
 -1       577 2.96705E+05 4.36779E+02 2.00401E+02-9.83609E+04-7.03403E-09 7.38328E-09
 -1       578 2.96678E+05 4.71714E+02 1.16121E+02-1.08407E+05-5.75392E-09 5.70708E-09
 -1       579 2.96783E+05 3.96436E+02 8.00776E+01-9.83606E+04 9.07676E-09-4.33192E-09
 -1       580 2.96788E+05 4.16016E+02 9.37424E+01-1.08402E+05-4.51109E-09-9.29322E-09
 -1       581 2.96907E+05 3.32482E+02 1.41868E+02-9.83667E+04 6.47924E-09-1.73713E-10
 -1       582 2.96977E+05 3.73525E+02 2.89195E+02-1.08338E+05 1.55705E-09 7.28869E-09
 -1       583 2.97059E+05 3.72358E+02 5.54694E+02-9.84255E+04-9.93168E-10 7.07610E-09
 -1       584 2.97374E+05 8.27007E+02 1.25592E+03-1.07843E+05 4.67298E-09 2.51043E-09
 -1       585 2.97093E+05 1.87983E+03 2.54248E+03-9.88611E+04-7.74889E-10 4.88217E-09
 -1       586-3.48429E+03 1.20801E+05-2.84324E+03-2.54499E+05-7.83302E-09-1.33243E-08
 -1       587-1.41993E+03 1.20574E+05 8.57311E+02-2.80094E+05-6.54109E-09-2.26364E-08
 -1       588 3.39931E+02 1.20355E+05 4.89756E+03-2.54357E+05-5.67343E-09 1.44246E-09
 -1       589 5.12009E+03 1.22895E+05 1.26388E+04-2.79861E+05-5.33510E-09 4.39832E-09
 -1       590 1.69107E+04 1.18993E+05 2.64874E+04-2.54797E+05-6.50380E-09 1.61235E-08
 -1       591-7.75328E+04-1.62396E+04-2.31001E+04-3.27066E+04-4.92923E-09-3.76804E-09
 -1       592-8.18254E+04-1.97877E+04-1.25129E+04-3.63097E+04-2.10163E-09 1.07684E-08
 -1       593-7.98420E+04-1.45644E+04-5.20845E+03-3.44013E+04 2.88802E-09-2.79783E-09
 -1       594-7.86374E+04-1.63965E+04-2.59758E+03-3.64286E+04-2.06036E-09 1.32805E-08
 -1       595-8.00180E+04-1.45589E+04-1.19249E+03-3.44783E+04-1.16074E-08 1.70729E-08
 -1       596-7.84190E+04-1.62414E+04-6.05887E+02-3.64024E+04-6.16527E-09 1.26686E-08
 -1       597-8.00401E+04-1.45748E+04-3.29248E+02-3.44812E+04 2.76600E-10 3.16976E-09
 -1       598-7.83975E+04-1.62353E+04-2.63436E+02-3.63951E+04-1.48111E-09 4.50783E-09
 -1       599-8.00389E+04-1.45753E+04-3.34959E+02-3.44809E+04 7.39715E-09-6.59998E-09
 -1       600-7.84190E+04-1.62419E+04-6.21010E+02-3.64002E+04-3.02259E-09-3.23729E-09
 -1       601-8.00138E+04-1.45605E+04-1.22447E+03-3.44774E+04 2.01567E-09-5.35488E-09
 -1       602-7.86432E+04-1.63999E+04-2.66828E+03-3.64231E+04 1.76431E-09-1.22859E-08
 -1       603-7.98302E+04-1.45690E+04-5.35082E+03-3.43992E+04-1.94746E-09 8.79891E-09
 -1       604-8.19366E+04-1.98635E+04-1.28540E+04-3.62754E+04-7.25913E-09-3.90173E-09
 -1       605-7.74374E+04-1.63082E+04-2.37299E+04-3.26783E+04-1.21202E-09-9.27048E-09
 -1       606 2.62836E+04-1.46176E+04-2.62009E+04 2.34129E+04 7.21866E-09-3.71892E-09
 -1       607 2.18072E+04-4.77615E+03-1.30481E+04 2.63147E+04 2.47383E-10-2.08038E-08
 -1       608 2.43598E+04-8.63453E+02-5.84102E+03 2.32511E+04-1.06411E-09-2.53249E-09
 -1       609 2.38717E+04-2.98607E+02-2.95078E+03 2.65241E+04 7.17409E-09 2.53976E-08
 -1       610 2.41435E+04-4.50959E+01-1.40771E+03 2.32317E+04 5.98629E-09 1.40526E-08
 -1       611 2.40679E+04-4.66160E+01-7.09760E+02 2.65467E+04 4.47108E-09-2.00532E-08
 -1       612 2.40968E+04-3.19709E+01-3.37249E+02 2.32298E+04-1.54068E-09-1.20849E-09
 -1       613 2.40811E+04-4.32386E+01-1.50966E+02 2.65493E+04 1.20917E-09-4.20027E-09
 -1       614 2.40753E+04-3.92192E+01-3.49273E+01 2.32291E+04 2.71393E-09 7.16886E-09
 -1       615 2.40769E+04-4.23399E+01 6.43643E+01 2.65497E+04-1.62254E-09-1.49748E-09
 -1       616 2.40584E+04-3.65436E+01 1.92013E+02 2.32294E+04 2.87582E-09-1.69266E-08
 -1       617 2.41008E+04-1.93589E+00 4.37665E+02 2.65493E+04 6.42785E-10 1.59534E-08
 -1       618 2.40210E+04 8.92321E+01 8.82049E+02 2.32297E+04-4.31555E-10 6.73572E-09
 -1       619 2.44127E+04 6.79742E+02 1.98060E+03 2.65487E+04-1.75680E-09-3.66322E-09
 -1       620 2.37284E+04 2.18051E+03 3.98094E+03 2.32316E+04 6.09930E-10-2.04545E-09
 -1       621 5.36759E+02 3.06791E+05 3.98629E+03 4.37632E+04 9.32687E-10 6.52471E-09
 -1       622 7.18938E+02 3.07703E+05 3.53231E+03 6.35240E+04 1.16825E-09-1.46388E-08
 -1       623 1.63546E+02 3.06985E+05 4.23557E+03 4.35657E+04 1.50794E-09-7.78073E-09
 -1       624 2.20120E+03 3.08935E+05 8.20470E+03 6.37181E+04 1.32928E-09-1.04760E-08
 -1       625 2.14249E+03 3.05354E+05 1.43337E+04 4.35622E+04 1.60526E-09-3.18505E-09
 -1       626 2.65469E+05 6.17978E+04 5.17270E+03 1.28082E+05 6.91648E-09-3.29510E-09
 -1       627 2.63183E+05 6.31529E+04 2.49268E+03 1.32336E+05 6.03177E-09-2.79670E-09
 -1       628 2.65595E+05 5.94351E+04 1.05432E+03 1.28967E+05-7.20502E-09 1.33932E-08
 -1       629 2.62548E+05 6.24604E+04 5.16000E+02 1.32574E+05-9.77252E-09 1.16426E-08
 -1       630 2.65610E+05 5.93205E+04 2.39549E+02 1.29005E+05-2.67755E-09 2.93653E-09
 -1       631 2.62482E+05 6.24334E+04 1.29123E+02 1.32576E+05 3.00724E-09 7.26641E-09
 -1       632 2.65607E+05 5.93241E+04 8.53316E+01 1.29001E+05 5.99789E-09-6.31235E-09
 -1       633 2.62474E+05 6.24348E+04 9.56409E+01 1.32573E+05 1.71917E-09 2.03477E-09
 -1       634 2.65604E+05 5.93208E+04 1.55069E+02 1.29001E+05-6.46614E-09 1.87697E-09
 -1       635 2.62489E+05 6.24328E+04 3.14097E+02 1.32579E+05-4.57055E-09-8.71205E-09
 -1       636 2.65595E+05 5.93146E+04 6.34485E+02 1.29001E+05 1.19712E-08 1.75933E-08
 -1       637 2.62627E+05 6.25314E+04 1.39524E+03 1.32579E+05 2.01794E-09 1.56667E-08
 -1       638 2.65546E+05 5.96227E+04 2.86670E+03 1.28862E+05 1.40108E-09 7.05677E-09
 -1       639 2.64133E+05 6.46258E+04 6.78285E+03 1.32135E+05 5.86078E-09 2.16346E-09
 -1       640 2.65336E+05 6.58778E+04 1.40756E+04 1.26228E+05 5.16684E-09 8.11997E-09
 -1       656 6.75271E+04-1.72942E+06-1.63007E+05-2.81289E+03-1.16415E-10-2.56136E-09
 -1       657-8.93397E+04-1.80309E+06-1.35057E+05 4.81090E+03-2.92493E-09 1.84300E-08
 -1       658 2.15316E+04-1.75034E+06-8.31964E+04-4.93515E+03-4.79304E-10-1.59828E-09
 -1       659-9.66569E+04-1.80657E+06-1.44673E+05 6.59984E+03-9.00400E-10 7.37582E-09
 -1       660 7.48280E+04-1.72596E+06-1.79541E+05-4.60181E+03-1.56433E-09-2.40630E-09
 -1       661 1.55727E+05 1.62309E+04 1.65619E+04 6.08789E+04-1.07320E-09 5.86806E-09
 -1       662 1.65150E+05 2.84375E+04 1.11617E+04 5.70951E+04 3.12980E-10-2.46450E-09
 -1       663 1.58980E+05 2.15442E+04 3.90357E+03 5.99348E+04 5.47175E-10 8.77299E-09
 -1       664 1.61378E+05 2.22242E+04 2.33527E+03 5.82486E+04-5.11761E-10 1.37204E-08
 -1       665 1.59474E+05 2.22697E+04 9.21252E+02 5.97905E+04 4.15793E-09-1.83033E-09
 -1       666 1.60793E+05 2.13948E+04 5.39434E+02 5.84369E+04 9.81643E-09-1.54721E-08
 -1       667 1.59561E+05 2.23521E+04 2.86918E+02 5.97542E+04-1.93012E-10-4.54001E-09
 -1       668 1.60698E+05 2.13358E+04 2.93249E+02 5.84896E+04-9.84784E-09-2.10053E-08
 -1       669 1.59569E+05 2.23270E+04 3.97766E+02 5.97380E+04-3.34384E-09-7.19942E-09
 -1       670 1.60795E+05 2.15519E+04 8.66827E+02 5.84923E+04-1.37787E-08-1.92995E-09
 -1       671 1.59464E+05 2.21405E+04 1.53936E+03 5.97494E+04 1.68362E-09 4.69419E-09
 -1       672 1.61692E+05 2.30493E+04 3.93859E+03 5.82745E+04 7.79221E-09 8.37161E-09
 -1       673 1.58676E+05 2.08676E+04 6.60052E+03 5.99412E+04 2.80920E-09 1.37361E-08
 -1       674 1.67974E+05 3.36538E+04 1.88761E+04 5.64290E+04-3.42152E-09 2.22560E-08
 -1       675 1.53222E+05 1.18330E+04 2.80189E+04 6.14836E+04-6.92125E-09 2.38706E-08
 -1       676 2.42902E+01-2.98339E+05-1.12002E+03-1.55020E+02 4.29566E-10 4.31001E-10
 -1       677-2.95962E+02-2.98610E+05-2.04982E+03 3.09787E+02 7.31495E-09-2.63686E-08
 -1       678 1.98750E+02-2.98146E+05-3.62358E+03-1.54666E+02 8.55835E-10 3.82683E-09
 -1       679-3.62335E+03-3.00798E+05-8.60814E+03 3.08436E+02 8.65532E-09 5.24061E-09
 -1       680 2.16357E+03-2.96153E+05-1.38734E+04-1.51965E+02-8.85848E-10-1.56516E-09
 -1       771-3.06203E+06-7.86595E+05-2.09790E+05-1.49439E+06-3.41097E-08-3.28873E-08
 -1       772-2.97982E+06-8.85691E+05-1.08375E+05-1.60891E+06-1.99070E-08 1.02737E-08
 -1       773-3.10012E+06-7.57184E+05-5.48789E+04-1.51380E+06-1.06520E-08 1.47556E-08
 -1       774-2.96812E+06-8.61035E+05-2.45720E+04-1.63926E+06 2.57278E-08-2.47383E-09
 -1       775-3.11984E+06-7.43515E+05-1.81507E+04-1.52289E+06-6.92671E-09 3.34694E-09
 -1       776-2.98364E+06-8.56758E+05-6.83080E+03-1.66246E+06 6.98492E-10 2.65572E-09
 -1       777-3.13698E+06-7.31235E+05-7.94747E+03-1.53084E+06 1.16415E-10 8.19273E-09
 -1       778-2.99985E+06-8.52857E+05-2.27027E+03-1.68242E+06-3.60887E-09 9.86620E-09
 -1       779-3.15176E+06-7.20455E+05-3.95769E+03-1.53760E+06-1.05065E-08-9.90258E-09
 -1       780-3.01412E+06-8.49174E+05-6.80294E+02-1.69868E+06-9.72068E-09 2.37378E-09
 -1       781-3.16354E+06-7.11741E+05-1.56871E+03-1.54288E+06-2.48110E-08 1.15324E-09
 -1       782-3.02513E+06-8.46083E+05 4.68745E+02-1.71068E+06-2.99260E-08-4.38740E-09
 -1       783-3.17184E+06-7.05670E+05 6.96501E+02-1.54656E+06-5.50062E-09-1.83149E-08
 -1       784-3.03135E+06-8.43205E+05 3.16729E+03-1.71808E+06-2.45964E-08 3.27009E-09
 -1       785-3.17669E+06-7.02090E+05 5.56212E+03-1.54882E+06-4.17458E-08 7.70706E-09
 -1       786 1.19976E+05-9.68822E+03 2.24148E+04-3.35875E+02 2.07461E-09 1.98906E-09
 -1       787 1.29698E+05 1.12169E+04 1.58575E+04-1.46017E+02 1.06158E-08-1.31445E-09
 -1       788 1.23724E+05-1.51809E+03 5.79904E+03-3.00215E+02 4.89981E-09 9.51377E-09
 -1       789 1.25331E+05 1.75728E+03 3.64023E+03-2.00462E+02-1.36855E-09 9.91963E-09
 -1       790 1.24343E+05-2.36277E+02 1.47341E+03-2.81449E+02-3.80484E-09 1.44423E-08
 -1       791 1.24607E+05 2.73387E+02 8.50134E+02-2.32520E+02-7.63867E-09 2.42587E-08
 -1       792 1.24448E+05-3.53126E+01 3.58494E+02-2.68159E+02-5.06796E-09 1.37799E-08
 -1       793 1.24482E+05 3.65686E+01 1.74866E+02-2.57429E+02 1.03527E-09 1.91966E-08
 -1       794 1.24469E+05 3.92938E-01 3.77004E+01-2.56539E+02 4.14652E-09-1.89416E-09
 -1       795 1.24442E+05-3.38312E+01-7.81762E+01-2.81513E+02-6.88794E-09 9.17278E-09
 -1       796 1.24488E+05 3.50476E+01-1.97369E+02-2.44075E+02 3.76190E-09-1.76379E-08
 -1       797 1.24330E+05-2.60780E+02-5.31740E+02-3.09943E+02 5.50842E-09-1.21300E-08
 -1       798 1.24581E+05 2.27172E+02-8.60748E+02-2.28109E+02 1.76999E-09 5.92934E-10
 -1       799 1.23678E+05-1.67445E+03-2.36563E+03-3.49434E+02 5.99538E-09-6.19389E-09
 -1       800 1.25141E+05 1.44757E+03-3.34713E+03-2.04586E+02 1.77916E-10 1.16984E-08
 -1       801-2.08781E+05-1.05920E+07-1.49606E+06 1.56312E+06 9.98261E-08-6.08015E-08
 -1       802 8.36202E+05 6.88942E+06 2.41621E+06-1.95331E+06 2.69712E-07-3.36913E-08
 -1       803-5.90159E+05-1.52861E+07-2.06654E+06 1.00007E+06 8.01265E-08 1.29585E-08
 -1       804 3.20249E+05 2.98341E+06 1.69163E+06 7.16422E+05-1.26507E-07-1.10719E-07
 -1       805 2.02220E+05-6.69899E+06-3.06493E+05-1.10067E+06-5.31363E-08-7.22866E-08
 -1       806-3.13577E+05-6.06185E+04-2.32226E+04-1.24191E+05-1.06411E-08-1.99248E-08
 -1       807-3.15408E+05-5.68245E+04-1.14091E+04-1.29824E+05 4.03725E-09 6.19821E-10
 -1       808-3.14216E+05-5.22482E+04-4.84009E+03-1.28146E+05-6.23186E-09-2.96905E-09
 -1       809-3.13009E+05-5.36183E+04-2.36668E+03-1.30103E+05-1.04346E-08 2.22174E-08
 -1       810-3.14312E+05-5.19569E+04-1.08481E+03-1.28321E+05 1.11577E-08 6.78756E-09
 -1       811-3.12823E+05-5.34896E+04-5.39509E+02-1.30067E+05 8.35098E-09 4.96129E-09
 -1       812-3.14326E+05-5.19821E+04-2.72997E+02-1.28321E+05-2.39197E-09 1.19412E-08
 -1       813-3.12798E+05-5.34918E+04-1.77601E+02-1.30048E+05-1.06756E-08-9.29776E-09
 -1       814-3.14319E+05-5.19921E+04-1.76334E+02-1.28316E+05-4.43924E-09-1.58302E-08
 -1       815-3.12801E+05-5.34941E+04-2.84335E+02-1.30040E+05 3.76167E-09 8.12543E-09
 -1       816-3.14297E+05-5.19913E+04-5.39105E+02-1.28313E+05 1.06447E-08 1.45747E-08
 -1       817-3.12893E+05-5.35455E+04-1.15697E+03-1.30028E+05-1.65710E-08 1.61965E-08
 -1       818-3.14227E+05-5.21548E+04-2.35989E+03-1.28236E+05-2.09729E-09 5.80803E-09
 -1       819-3.14184E+05-5.49712E+04-5.55254E+03-1.29722E+05 1.78352E-09-4.63842E-10
 -1       820-3.13781E+05-5.63499E+04-1.13015E+04-1.26445E+05 1.91903E-09 9.59267E-09
 -1       821-3.82378E+05 2.10497E+04-4.91322E+04 2.42385E+03 1.55286E-08 6.34827E-09
 -1       822-4.01725E+05-2.43919E+04-3.44267E+04-5.17372E+03 5.85652E-09 7.34690E-09
 -1       823-3.89664E+05 3.32478E+03-1.26788E+04 4.03163E+03-1.36063E-08 2.93858E-09
 -1       824-3.92837E+05-3.83051E+03-7.92012E+03-6.36684E+03 2.35906E-09-2.90515E-09
 -1       825-3.91279E+05 5.17130E+02-3.33498E+03 3.61714E+03 2.46997E-08 5.61317E-09
 -1       826-3.90078E+05-5.59958E+02-1.68676E+03-3.75990E+03 3.27426E-08 1.14258E-08
 -1       827-3.92390E+05 3.09609E+01-1.26564E+03 1.42448E+03 1.49168E-08-5.84799E-09
 -1       828-3.89145E+05-1.12211E+02-4.72616E+02 1.18507E+03-2.53860E-09 1.08414E-08
 -1       829-3.92193E+05 5.45166E+01-1.24710E+03-1.32785E+03 3.30414E-09-7.83160E-09
 -1       830-3.90500E+05-6.24567E+02-1.84185E+03 5.70541E+03 4.58876E-09-2.04969E-09
 -1       831-3.91066E+05 5.67445E+02-3.41047E+03-3.09586E+03-4.72177E-09-7.26027E-09
 -1       832-3.92912E+05-4.00714E+03-8.22720E+03 7.27210E+03-2.73211E-09 1.86784E-08
 -1       833-3.89803E+05 3.45170E+03-1.31967E+04-2.89461E+03-2.33950E-09-2.87855E-09
 -1       834-4.01707E+05-2.53195E+04-3.56510E+04 4.96944E+03-2.29820E-09 3.23075E-08
 -1       835-3.82246E+05 2.18405E+04-5.10354E+04-7.93087E+02 5.53604E-09 3.49610E-09
 -1       836-1.44372E+03 3.76616E+05 2.33411E+04-1.56911E+04-7.89532E-09 1.50253E-08
 -1       837 4.96864E+03 3.83930E+05 1.97305E+04-3.21467E+04-8.63548E-09-5.09772E-10
 -1       838-5.70744E+02 3.78669E+05 2.00744E+04-1.56199E+04-7.00084E-09-4.25666E-09
 -1       839 1.26150E+04 3.89624E+05 3.79467E+04-3.22007E+04-7.81210E-09 1.10813E-08
 -1       840-3.90515E+03 3.70860E+05 6.04989E+04-1.56438E+04-6.90125E-09-1.50766E-08
 -1       856-4.87010E+04 7.99488E+03-2.10681E+04-3.95346E+02 4.05316E-09-5.09499E-09
 -1       857-5.73785E+04-9.39547E+03-1.45030E+04 5.67593E+03 6.59657E-09 6.01540E-09
 -1       858-5.21383E+04 1.12131E+03-5.46657E+03-4.19114E+02-3.32534E-10-5.79780E-09
 -1       859-5.34340E+04-1.32085E+03-3.29860E+03 5.71101E+03-1.71494E-09 1.41276E-08
 -1       860-5.26518E+04 1.57144E+02-1.38206E+03-4.30121E+02 1.23123E-10-1.16400E-08
 -1       861-5.28433E+04-1.89166E+02-7.59488E+02 5.72597E+03 5.79519E-10-1.15859E-08
 -1       862-5.27321E+04 2.13416E+01-3.14082E+02-4.34050E+02 2.47276E-10-1.47259E-08
 -1       863-5.27445E+04-2.29744E+01-1.10718E+02 5.72830E+03-3.17552E-09-2.32430E-09
 -1       864-5.27511E+04-5.25797E+00 5.53399E+01-4.32443E+02-2.01649E-09-1.52284E-08
 -1       865-5.26867E+04 6.19209E+01 2.72795E+02 5.71898E+03-6.86236E-09-2.87335E-09
 -1       866-5.27878E+04-6.35119E+01 5.45516E+02-4.24740E+02-8.26049E-10 1.86796E-09
 -1       867-5.24314E+04 5.24103E+02 1.33995E+03 5.69811E+03 5.89893E-10 2.29843E-08
 -1       868-5.30014E+04-4.58935E+02 2.22600E+03-4.11567E+02-2.60763E-09 1.45805E-08
 -1       869-5.08005E+04 3.81977E+03 5.92596E+03 5.66389E+03 3.84546E-09-5.47618E-09
 -1       870-5.44108E+04-3.26943E+03 8.60014E+03-3.90401E+02-3.83409E-09 5.61158E-10
 -1       871-5.57478E+03-2.23544E+04-1.98455E+04 1.32924E+05-5.52609E-09-2.23463E-09
 -1       872-1.96199E+03-2.69830E+04-8.32440E+03 1.72358E+05-1.46820E-08-4.56157E-09
 -1       873 4.54631E+02-2.47368E+04 5.63996E+02 1.32631E+05-6.33781E-09-1.20466E-08
 -1       874 3.40122E+03-2.23136E+04 9.87194E+03 1.72386E+05-1.10940E-08-9.90667E-10
 -1       875 6.96551E+03-2.70894E+04 2.22989E+04 1.32874E+05-5.08226E-09-7.09679E-09
 -1       876 2.97495E+05 5.00549E+04 1.52531E+04 1.19284E+05 1.08585E-08 4.15093E-09
 -1       877 2.98513E+05 5.32577E+04 8.14579E+03 1.23650E+05 5.89898E-09 7.61054E-09
 -1       878 2.98922E+05 4.83650E+04 3.41269E+03 1.20533E+05-1.14205E-08-8.59950E-09
 -1       879 2.96440E+05 5.11883E+04 1.70043E+03 1.23753E+05 7.21138E-09-2.99121E-09
 -1       880 2.99024E+05 4.83476E+04 7.92070E+02 1.20584E+05-2.69029E-09-4.42674E-09
 -1       881 2.96302E+05 5.10997E+04 4.23068E+02 1.23730E+05-1.77578E-08-3.44812E-09
 -1       882 2.99033E+05 4.83610E+04 2.70811E+02 1.20586E+05-9.80617E-09-6.59946E-09
 -1       883 2.96293E+05 5.10951E+04 2.91387E+02 1.23722E+05-4.44851E-09 8.07454E-09
 -1       884 2.99027E+05 4.83582E+04 4.63760E+02 1.20586E+05-1.31888E-09-3.00071E-09
 -1       885 2.96330E+05 5.11015E+04 9.32559E+02 1.23733E+05-4.81681E-09 1.11038E-09
 -1       886 2.98990E+05 4.83310E+04 1.87960E+03 1.20583E+05-4.81278E-09 2.21989E-08
 -1       887 2.96660E+05 5.13181E+04 4.10575E+03 1.23781E+05 4.83601E-09 2.14459E-09
 -1       888 2.98731E+05 4.83767E+04 8.27322E+03 1.20451E+05-4.67469E-09 7.26459E-09
 -1       889 3.01585E+05 5.64404E+04 1.97631E+04 1.23630E+05-3.02368E-09-3.01043E-09
 -1       890 2.95353E+05 5.23887E+04 3.70160E+04 1.17304E+05 6.18320E-09 1.84264E-09
 -1       891-8.31097E+01-1.64555E+05-2.02320E+03 2.71816E+04-1.84968E-09 2.54006E-08
 -1       892-1.66248E+02-1.65093E+05-2.17124E+03 4.12912E+04 3.37286E-09-4.95766E-09
 -1       893 5.19330E+01-1.64620E+05-3.07242E+03 2.71892E+04-1.06570E-09 3.86990E-09
 -1       894-1.51614E+03-1.66254E+05-6.35751E+03 4.11379E+04 2.63844E-09-5.11682E-09
 -1       895-1.20544E+03-1.63296E+05-1.11949E+04 2.73371E+04-3.32875E-10 5.00768E-09
 -1       956-3.82514E+05-5.53837E+03-1.36448E+04 3.17574E+04 7.65340E-09-4.91991E-09
 -1       957-3.85189E+05-1.96246E+03-7.00359E+03 3.81569E+04-3.38696E-09-7.84780E-09
 -1       958-3.83742E+05-2.54605E+02-3.15609E+03 3.15867E+04-6.33827E-09-5.38830E-09
 -1       959-3.83939E+05-1.50156E+02-1.61151E+03 3.83572E+04 6.24641E-09-1.98597E-08
 -1       960-3.83862E+05-5.51362E+01-7.85860E+02 3.15690E+04 9.09313E-09 9.65542E-09
 -1       961-3.83858E+05-7.56501E+01-4.16626E+02 3.83781E+04 1.37115E-08 2.52385E-09
 -1       962-3.83891E+05-5.60914E+01-2.38522E+02 3.15660E+04 4.57521E-09-2.29920E-09
 -1       963-3.83859E+05-7.12457E+01-1.91461E+02 3.83819E+04 7.92284E-09 7.28505E-09
 -1       964-3.83896E+05-5.26791E+01-2.32849E+02 3.15653E+04 1.57726E-10 1.20258E-09
 -1       965-3.83871E+05-6.83766E+01-4.02746E+02 3.83811E+04-1.22001E-08-1.62113E-08
 -1       966-3.83879E+05-4.49952E+01-7.56802E+02 3.15668E+04-1.77988E-09-3.23780E-09
 -1       967-3.83961E+05-1.33239E+02-1.55217E+03 3.83662E+04-8.66385E-09 1.90062E-08
 -1       968-3.83773E+05-2.30628E+02-3.03867E+03 3.15799E+04-5.86442E-09-8.70898E-09
 -1       969-3.85178E+05-1.87313E+03-6.74566E+03 3.82126E+04 1.27329E-10-1.49379E-09
 -1       970-3.82599E+05-5.31578E+03-1.31411E+04 3.17106E+04 7.57609E-10 7.84439E-09
 -1       971-3.49414E+05-1.74120E+03-9.35956E+03 1.54692E+04 6.10180E-09-1.12542E-09
 -1       972-3.51665E+05-1.28482E+03-5.09713E+03 2.13731E+04 5.20777E-09-1.07266E-08
 -1       973-3.50456E+05-6.68598E+01-2.28309E+03 1.53482E+04 4.22733E-09-8.87007E-09
 -1       974-3.50590E+05-8.78214E+01-1.18355E+03 2.15107E+04-1.02364E-09-8.27163E-09
 -1       975-3.50539E+05-2.17437E+01-5.92217E+02 1.53358E+04 2.71348E-09 1.85078E-08
 -1       976-3.50528E+05-3.77172E+01-3.42786E+02 2.15266E+04 7.35122E-09 2.05102E-09
 -1       977-3.50555E+05-2.09816E+01-2.50776E+02 1.53323E+04-1.40562E-09 2.71330E-08
 -1       978-3.50534E+05-3.14488E+01-2.96178E+02 2.15315E+04-9.36780E-10 3.08021E-08
 -1       979-3.50555E+05-1.24036E+01-4.78193E+02 1.53308E+04 1.85588E-09 5.63568E-09
 -1       980-3.50570E+05-2.83557E+01-9.24791E+02 2.15325E+04-3.39962E-09-1.09469E-09
 -1       981-3.50526E+05 1.07230E+01-1.79187E+03 1.53314E+04-3.58932E-09 2.55113E-09
 -1       982-3.50816E+05-1.60740E+02-3.70418E+03 2.15259E+04-2.88037E-09-2.15785E-08
 -1       983-3.50300E+05-1.03991E+02-7.19745E+03 1.53374E+04-6.15182E-09-1.94093E-08
 -1       984-3.54278E+05-3.91972E+03-1.61185E+04 2.14399E+04 6.20685E-09 1.98307E-08
 -1       985-3.47041E+05-5.37059E+03-2.95986E+04 1.54076E+04-2.70529E-09 1.09103E-08
 -3
    1PSTEP                        55          28           1          
  100CL  128 6.68559E-01         409                     0   28           1
 -4  DISP        4    1
 -5  D1          1    2    1    0
 -5  D2          1    2    2    0
 -5  D3          1    2    3    0
 -5  ALL         1    2    0    0    1ALL
 -1         1 4.72338E-03 0.00000E+00 0.00000E+00
 -1         2 4.65614E-03 1.07638E-28-5.29396E-23
 -1         3 3.54485E-04-3.89922E-28 0.00000E+00
 -1         5 1.82764E-04-3.35904E-27-3.30872E-24
 -1         8 4.71074E-03-3.35703E-07 0.00000E+00
 -1         9 4.63770E-03-1.43530E-05 0.00000E+00
 -1        10 3.21844E-04-2.87871E-06 6.61744E-24
 -1        12 1.84811E-04 8.23519E-07-4.13590E-25
 -1        15 4.69507E-03-3.65705E-07 0.00000E+00
 -1        16 4.70632E-03-1.68306E-05 0.00000E+00
 -1        17 2.19604E-04-6.71009E-06 0.00000E+00
 -1        18 1.89337E-04 3.71416E-05 0.00000E+00
 -1        19 1.90954E-04 1.64003E-06 0.00000E+00
 -1        20 1.91090E-04-1.21755E-05 0.00000E+00
 -1        21 1.90172E-04-3.02780E-05 0.00000E+00
 -1        24 3.08099E-05-1.07956E-05 0.00000E+00
 -1        25 2.01131E-04 3.73734E-05 0.00000E+00
 -1        26 2.01785E-04 2.26995E-06 0.00000E+00
 -1        27 1.99545E-04-1.57895E-05 0.00000E+00
 -1        28 1.99247E-04-3.09067E-05 0.00000E+00
 -1        32 0.00000E+00 0.00000E+00 0.00000E+00
 -1        33 2.11642E-04 3.03571E-06 0.00000E+00
 -1        34 2.09491E-04-1.58493E-05 0.00000E+00
 -1        35 2.07534E-04-3.12541E-05 0.00000E+00
 -1        51 4.72259E-03-7.30687E-08 3.30872E-24
 -1        52 4.72109E-03-1.27710E-07 0.00000E+00
 -1        53 4.71903E-03-1.79040E-07 0.00000E+00
 -1        54 4.71652E-03-2.29355E-07 0.00000E+00
 -1        55 4.71371E-03-2.80428E-07-2.48154E-24
 -1        56 4.71513E-03 9.82441E-06 5.29396E-23
 -1        57 4.69817E-03 4.10520E-05 5.29396E-23
 -1        58 4.67434E-03 8.86591E-05 1.05879E-22
 -1        59 4.64622E-03 1.46064E-04 5.29396E-23
 -1        60 4.61744E-03 2.04976E-04 0.00000E+00
 -1        61 4.59169E-03 2.56961E-04 0.00000E+00
 -1        62 4.57195E-03 2.94821E-04 0.00000E+00
 -1        63 4.56039E-03 3.12598E-04 0.00000E+00
 -1        64 4.55741E-03 3.08004E-04 1.05879E-22
 -1        65 4.56255E-03 2.80853E-04 0.00000E+00
 -1        66 4.57394E-03 2.35237E-04 1.05879E-22
 -1        67 4.58938E-03 1.77074E-04 5.29396E-23
 -1        68 4.60613E-03 1.14726E-04 0.00000E+00
 -1        69 4.62146E-03 5.69854E-05 0.00000E+00
 -1        70 4.63275E-03 1.17351E-05 5.29396E-23
 -1        86 4.65237E-03-2.38342E-06-5.29396E-23
 -1        87 4.64141E-03-4.81560E-06 0.00000E+00
 -1        88 4.63000E-03-7.25180E-06 0.00000E+00
 -1        89 4.62492E-03-9.62648E-06 0.00000E+00
 -1        90 4.62733E-03-1.19964E-05 0.00000E+00
 -1       121 3.53570E-04-4.61316E-07 1.32349E-23
 -1       122 3.50828E-04-9.25843E-07-6.61744E-24
 -1       123 3.46268E-04-1.39675E-06 0.00000E+00
 -1       124 3.39903E-04-1.87719E-06-6.61744E-24
 -1       125 3.31752E-04-2.37000E-06 0.00000E+00
 -1       191 1.82821E-04 1.37331E-07-8.27181E-25
 -1       192 1.82991E-04 2.74647E-07 4.13590E-25
 -1       193 1.83276E-04 4.11939E-07-3.30872E-24
 -1       194 1.83674E-04 5.49192E-07 4.13590E-25
 -1       195 1.84185E-04 6.86390E-07 8.27181E-25
 -1       251 4.70977E-03 2.54676E-05 0.00000E+00
 -1       252 4.70666E-03 9.69715E-05 0.00000E+00
 -1       253 4.70084E-03 2.01359E-04-1.32349E-23
 -1       254 4.69290E-03 3.25044E-04 6.61744E-24
 -1       255 4.68492E-03 4.48943E-04 0.00000E+00
 -1       256 4.67904E-03 5.53972E-04-6.61744E-24
 -1       257 4.67586E-03 6.26418E-04-1.32349E-23
 -1       258 4.67486E-03 6.53332E-04 6.61744E-24
 -1       259 4.67401E-03 6.33433E-04 0.00000E+00
 -1       260 4.67120E-03 5.66714E-04 0.00000E+00
 -1       261 4.66565E-03 4.65073E-04 0.00000E+00
 -1       262 4.65768E-03 3.41241E-04 0.00000E+00
 -1       263 4.64933E-03 2.14218E-04 0.00000E+00
 -1       264 4.64281E-03 1.03066E-04 6.61744E-24
 -1       265 4.63902E-03 2.22699E-05 0.00000E+00
 -1       266 4.70813E-03-3.45876E-07-1.65436E-24
 -1       267 4.70551E-03-3.50246E-07 0.00000E+00
 -1       268 4.70290E-03-3.54983E-07 0.00000E+00
 -1       269 4.70029E-03-3.58632E-07 0.00000E+00
 -1       270 4.69768E-03-3.62255E-07 0.00000E+00
 -1       271 4.70896E-03 2.75487E-06 0.00000E+00
 -1       272 4.70675E-03 6.91587E-06 6.61744E-24
 -1       273 4.70427E-03 1.18036E-05-1.32349E-23
 -1       274 4.70165E-03 1.70605E-05-6.61744E-24
 -1       275 4.69902E-03 2.23286E-05 1.32349E-23
 -1       276 4.69652E-03 2.72493E-05-6.61744E-24
 -1       277 4.69429E-03 3.14661E-05-1.32349E-23
 -1       278 4.69246E-03 3.46275E-05-6.61744E-24
 -1       279 4.69116E-03 3.63890E-05 0.00000E+00
 -1       280 4.69051E-03 3.64157E-05 0.00000E+00
 -1       281 4.69063E-03 3.43848E-05 0.00000E+00
 -1       282 4.69163E-03 2.99872E-05 6.61744E-24
 -1       283 4.69361E-03 2.29304E-05 0.00000E+00
 -1       284 4.69667E-03 1.29405E-05 6.61744E-24
 -1       285 4.70088E-03-2.36930E-07 1.32349E-23
 -1       301 4.64935E-03-1.47869E-05-1.32349E-23
 -1       302 4.65941E-03-1.51794E-05 0.00000E+00
 -1       303 4.66901E-03-1.55646E-05-2.64698E-23
 -1       304 4.67926E-03-1.59554E-05 0.00000E+00
 -1       305 4.69133E-03-1.63690E-05 2.64698E-23
 -1       306 4.68272E-03-2.21933E-04 0.00000E+00
 -1       307 4.73233E-03-7.75459E-04 0.00000E+00
 -1       308 4.71792E-03-1.58501E-03-1.05879E-22
 -1       309 4.64397E-03-2.51943E-03 0.00000E+00
 -1       310 4.59310E-03-3.40582E-03-1.05879E-22
 -1       311 4.62337E-03-4.07320E-03-5.29396E-23
 -1       312 4.68179E-03-4.40788E-03 2.11758E-22
 -1       313 4.65818E-03-4.37888E-03 5.29396E-23
 -1       314 4.41745E-03-4.01216E-03 2.11758E-22
 -1       315 3.89907E-03-3.43194E-03 5.29396E-23
 -1       316 3.12885E-03-2.74700E-03-1.05879E-22
 -1       317 2.21461E-03-2.03505E-03 2.64698E-23
 -1       318 1.34564E-03-1.33111E-03 0.00000E+00
 -1       319 6.97686E-04-6.86884E-04 5.29396E-23
 -1       320 3.33779E-04-2.08780E-04 0.00000E+00
 -1       336 3.09977E-04-3.44437E-06 1.32349E-23
 -1       337 2.95960E-04-4.03702E-06 0.00000E+00
 -1       338 2.79847E-04-4.65947E-06 0.00000E+00
 -1       339 2.61702E-04-5.31260E-06 0.00000E+00
 -1       340 2.41594E-04-6.00189E-06 0.00000E+00
 -1       406 1.85551E-04 9.60556E-07 0.00000E+00
 -1       407 1.86404E-04 1.09746E-06-4.13590E-25
 -1       408 1.87371E-04 1.23418E-06-3.30872E-24
 -1       409 1.88452E-04 1.37054E-06-8.27181E-25
 -1       410 1.89647E-04 1.50625E-06 1.44757E-24
 -1       521 4.75066E-03-2.37182E-04-2.11758E-22
 -1       522 4.79493E-03-8.10650E-04 0.00000E+00
 -1       523 4.77086E-03-1.64092E-03-1.05879E-22
 -1       524 4.68981E-03-2.58660E-03 0.00000E+00
 -1       525 4.63375E-03-3.48126E-03-2.11758E-22
 -1       526 4.65924E-03-4.16094E-03 0.00000E+00
 -1       527 4.71499E-03-4.50007E-03 2.11758E-22
 -1       528 4.68551E-03-4.46534E-03-1.05879E-22
 -1       529 4.42561E-03-4.08293E-03 2.11758E-22
 -1       530 3.87691E-03-3.48951E-03 1.05879E-22
 -1       531 3.07058E-03-2.79711E-03 0.00000E+00
 -1       532 2.12663E-03-2.08278E-03-5.29396E-23
 -1       533 1.22855E-03-1.37545E-03 0.00000E+00
 -1       534 5.46578E-04-7.20328E-04 0.00000E+00
 -1       535 1.57737E-04-2.26725E-04 2.11758E-22
 -1       536 2.18814E-04 2.94231E-05 0.00000E+00
 -1       537 2.16777E-04 9.18628E-05 0.00000E+00
 -1       538 2.13627E-04 1.71049E-04-3.30872E-24
 -1       539 2.09911E-04 2.57331E-04 1.65436E-24
 -1       540 2.06569E-04 3.38840E-04-3.30872E-24
 -1       541 2.04402E-04 4.03725E-04 0.00000E+00
 -1       542 2.03407E-04 4.45048E-04 0.00000E+00
 -1       543 2.03176E-04 4.56027E-04 0.00000E+00
 -1       544 2.02842E-04 4.37453E-04 0.00000E+00
 -1       545 2.01605E-04 3.90347E-04 1.65436E-24
 -1       546 1.99291E-04 3.23067E-04 0.00000E+00
 -1       547 1.96153E-04 2.44097E-04 0.00000E+00
 -1       548 1.93041E-04 1.65490E-04 0.00000E+00
 -1       549 1.90798E-04 9.93026E-05 1.65436E-24
 -1       550 1.89635E-04 5.38057E-05-1.65436E-24
 -1       551 1.93765E-04-7.22756E-06 0.00000E+00
 -1       552 1.64592E-04-7.83522E-06 0.00000E+00
 -1       553 1.32890E-04-8.51427E-06 6.61744E-24
 -1       554 9.94795E-05-9.24737E-06 3.30872E-24
 -1       555 6.51799E-05-1.00103E-05 1.32349E-23
 -1       556 2.11674E-04 1.35743E-05 0.00000E+00
 -1       557 2.05257E-04 3.00360E-05 0.00000E+00
 -1       558 2.00223E-04 4.29733E-05 0.00000E+00
 -1       559 1.96432E-04 5.27059E-05-2.64698E-23
 -1       560 1.93752E-04 5.95535E-05 0.00000E+00
 -1       561 1.92051E-04 6.38387E-05 0.00000E+00
 -1       562 1.91199E-04 6.58852E-05 0.00000E+00
 -1       563 1.91068E-04 6.60179E-05 0.00000E+00
 -1       564 1.91534E-04 6.45625E-05 0.00000E+00
 -1       565 1.92470E-04 6.18453E-05 0.00000E+00
 -1       566 1.93755E-04 5.81934E-05 0.00000E+00
 -1       567 1.95265E-04 5.39342E-05 0.00000E+00
 -1       568 1.96879E-04 4.93955E-05 0.00000E+00
 -1       569 1.98476E-04 4.49047E-05-8.27181E-25
 -1       570 1.99933E-04 4.07897E-05 0.00000E+00
 -1       571 1.89435E-04 3.48359E-05 8.27181E-25
 -1       572 1.89535E-04 3.24629E-05-4.13590E-25
 -1       573 1.89636E-04 3.00390E-05-3.30872E-24
 -1       574 1.89737E-04 2.75810E-05 0.00000E+00
 -1       575 1.89837E-04 2.51061E-05-3.30872E-24
 -1       576 1.89938E-04 2.26311E-05-1.65436E-24
 -1       577 1.90039E-04 2.01732E-05 0.00000E+00
 -1       578 1.90140E-04 1.77496E-05 3.30872E-24
 -1       579 1.90242E-04 1.53773E-05 0.00000E+00
 -1       580 1.90343E-04 1.30735E-05 0.00000E+00
 -1       581 1.90444E-04 1.08551E-05 0.00000E+00
 -1       582 1.90546E-04 8.73939E-06 0.00000E+00
 -1       583 1.90648E-04 6.74332E-06 6.61744E-24
 -1       584 1.90750E-04 4.88384E-06 0.00000E+00
 -1       585 1.90852E-04 3.17764E-06 0.00000E+00
 -1       586 1.91263E-04 3.71823E-05 1.65436E-24
 -1       587 1.93146E-04 3.72226E-05 0.00000E+00
 -1       588 1.95030E-04 3.72625E-05-8.27181E-25
 -1       589 1.96960E-04 3.73016E-05 0.00000E+00
 -1       590 1.98979E-04 3.73395E-05 0.00000E+00
 -1       591 1.90130E-04 3.49338E-05 0.00000E+00
 -1       592 1.90926E-04 3.27076E-05 0.00000E+00
 -1       593 1.91725E-04 3.04687E-05 0.00000E+00
 -1       594 1.92528E-04 2.82215E-05-4.13590E-25
 -1       595 1.93332E-04 2.59707E-05 0.00000E+00
 -1       596 1.94135E-04 2.37208E-05 0.00000E+00
 -1       597 1.94936E-04 2.14763E-05 8.27181E-25
 -1       598 1.95734E-04 1.92419E-05 0.00000E+00
 -1       599 1.96526E-04 1.70219E-05-8.27181E-25
 -1       600 1.97311E-04 1.48210E-05 0.00000E+00
 -1       601 1.98087E-04 1.26436E-05 0.00000E+00
 -1       602 1.98853E-04 1.04943E-05 0.00000E+00
 -1       603 1.99607E-04 8.37757E-06-8.27181E-25
 -1       604 2.00347E-04 6.29811E-06 1.55096E-25
 -1       605 2.01072E-04 4.26033E-06-4.13590E-25
 -1       606 1.90967E-04 3.40542E-07 0.00000E+00
 -1       607 1.90977E-04-8.75155E-07 0.00000E+00
 -1       608 1.90985E-04-2.01197E-06 0.00000E+00
 -1       609 1.90993E-04-3.07546E-06 0.00000E+00
 -1       610 1.91001E-04-4.07122E-06 0.00000E+00
 -1       611 1.91009E-04-5.00491E-06 0.00000E+00
 -1       612 1.91018E-04-5.88219E-06 0.00000E+00
 -1       613 1.91026E-04-6.70874E-06 0.00000E+00
 -1       614 1.91034E-04-7.49023E-06 0.00000E+00
 -1       615 1.91042E-04-8.23232E-06 8.27181E-25
 -1       616 1.91050E-04-8.94071E-06 0.00000E+00
 -1       617 1.91058E-04-9.62106E-06 0.00000E+00
 -1       618 1.91066E-04-1.02790E-05 0.00000E+00
 -1       619 1.91074E-04-1.09203E-05 0.00000E+00
 -1       620 1.91082E-04-1.15506E-05 0.00000E+00
 -1       621 1.92455E-04 1.74566E-06 1.65436E-24
 -1       622 1.94125E-04 1.85150E-06 0.00000E+00
 -1       623 1.95929E-04 1.95710E-06-1.65436E-24
 -1       624 1.97830E-04 2.06235E-06 0.00000E+00
 -1       625 1.99794E-04 2.16728E-06-1.65436E-24
 -1       626 1.91555E-04 3.77323E-07 3.30872E-24
 -1       627 1.92134E-04-8.24684E-07 3.30872E-24
 -1       628 1.92694E-04-1.97377E-06-6.61744E-24
 -1       629 1.93237E-04-3.07803E-06-1.65436E-24
 -1       630 1.93766E-04-4.14557E-06-3.30872E-24
 -1       631 1.94284E-04-5.18451E-06 1.65436E-24
 -1       632 1.94795E-04-6.20297E-06 3.30872E-24
 -1       633 1.95302E-04-7.20910E-06 0.00000E+00
 -1       634 1.95806E-04-8.21102E-06 0.00000E+00
 -1       635 1.96312E-04-9.21683E-06 0.00000E+00
 -1       636 1.96823E-04-1.02347E-05 0.00000E+00
 -1       637 1.97341E-04-1.12727E-05-1.65436E-24
 -1       638 1.97870E-04-1.23391E-05 1.65436E-24
 -1       639 1.98412E-04-1.34418E-05-8.27181E-25
 -1       640 1.98970E-04-1.45892E-05 1.65436E-24
 -1       656 1.91947E-04-1.27628E-05 0.00000E+00
 -1       657 1.93224E-04-1.33741E-05 0.00000E+00
 -1       658 1.94782E-04-1.39839E-05 0.00000E+00
 -1       659 1.96479E-04-1.45935E-05 0.00000E+00
 -1       660 1.98127E-04-1.52048E-05 0.00000E+00
 -1       661 1.91410E-04-1.28468E-05 0.00000E+00
 -1       662 1.91769E-04-1.36122E-05 0.00000E+00
 -1       663 1.92160E-04-1.44665E-05-1.65436E-24
 -1       664 1.92583E-04-1.54027E-05 0.00000E+00
 -1       665 1.93035E-04-1.64148E-05 0.00000E+00
 -1       666 1.93512E-04-1.74967E-05 8.27181E-25
 -1       667 1.94013E-04-1.86424E-05 0.00000E+00
 -1       668 1.94537E-04-1.98461E-05 8.27181E-25
 -1       669 1.95079E-04-2.11021E-05 0.00000E+00
 -1       670 1.95639E-04-2.24049E-05-8.27181E-25
 -1       671 1.96215E-04-2.37490E-05-1.65436E-24
 -1       672 1.96803E-04-2.51291E-05-8.27181E-25
 -1       673 1.97404E-04-2.65398E-05 1.65436E-24
 -1       674 1.98012E-04-2.79763E-05 4.13590E-25
 -1       675 1.98629E-04-2.94330E-05-2.06795E-25
 -1       676 1.91690E-04-3.03834E-05 3.30872E-24
 -1       677 1.93207E-04-3.04887E-05 0.00000E+00
 -1       678 1.94722E-04-3.05940E-05 3.30872E-24
 -1       679 1.96234E-04-3.06990E-05-1.65436E-24
 -1       680 1.97743E-04-3.08039E-05 0.00000E+00
 -1       771 1.77506E-05 1.86208E-05 0.00000E+00
 -1       772 6.79798E-06 4.27578E-05 5.29396E-23
 -1       773-2.14710E-06 6.18691E-05 0.00000E+00
 -1       774-9.22475E-06 7.62384E-05-1.05879E-22
 -1       775-1.45713E-05 8.61608E-05 5.29396E-23
 -1       776-1.83285E-05 9.19507E-05 0.00000E+00
 -1       777-2.06375E-05 9.39337E-05 0.00000E+00
 -1       778-2.16423E-05 9.24511E-05 0.00000E+00
 -1       779-2.14855E-05 8.78538E-05 0.00000E+00
 -1       780-2.03122E-05 8.05057E-05-5.29396E-23
 -1       781-1.82658E-05 7.07783E-05 0.00000E+00
 -1       782-1.54914E-05 5.90533E-05-5.29396E-23
 -1       783-1.21329E-05 4.57175E-05 0.00000E+00
 -1       784-8.33521E-06 3.11646E-05-7.94093E-23
 -1       785-4.24234E-06 1.57921E-05 0.00000E+00
 -1       786 2.01167E-04 3.49466E-05 2.58494E-26
 -1       787 2.01208E-04 3.25711E-05 4.13590E-25
 -1       788 2.01248E-04 3.02384E-05 8.27181E-25
 -1       789 2.01288E-04 2.79403E-05 4.13590E-25
 -1       790 2.01329E-04 2.56719E-05 1.65436E-24
 -1       791 2.01370E-04 2.34284E-05 8.27181E-25
 -1       792 2.01411E-04 2.12075E-05 0.00000E+00
 -1       793 2.01452E-04 1.90069E-05 0.00000E+00
 -1       794 2.01494E-04 1.68262E-05 0.00000E+00
 -1       795 2.01535E-04 1.46653E-05 0.00000E+00
 -1       796 2.01576E-04 1.25258E-05-1.65436E-24
 -1       797 2.01618E-04 1.04094E-05 0.00000E+00
 -1       798 2.01659E-04 8.32035E-06 1.65436E-24
 -1       799 2.01701E-04 6.26261E-06 0.00000E+00
 -1       800 2.01742E-04 4.24337E-06 1.65436E-24
 -1       801 1.53094E-04 3.36500E-05 0.00000E+00
 -1       802 7.94616E-06 2.09001E-05 0.00000E+00
 -1       803-1.15893E-04 1.04728E-05 5.29396E-23
 -1       804-1.02698E-04 7.31833E-06 2.64698E-23
 -1       805-3.43466E-05 2.84992E-06 5.29396E-23
 -1       806 2.01924E-04 3.48766E-05 1.65436E-24
 -1       807 2.02702E-04 3.24067E-05-1.65436E-24
 -1       808 2.03468E-04 2.99689E-05 0.00000E+00
 -1       809 2.04219E-04 2.75673E-05 1.65436E-24
 -1       810 2.04956E-04 2.52062E-05 0.00000E+00
 -1       811 2.05676E-04 2.28893E-05-1.65436E-24
 -1       812 2.06377E-04 2.06209E-05 3.30872E-24
 -1       813 2.07060E-04 1.84048E-05 0.00000E+00
 -1       814 2.07721E-04 1.62451E-05 0.00000E+00
 -1       815 2.08360E-04 1.41456E-05 0.00000E+00
 -1       816 2.08975E-04 1.21104E-05 3.30872E-24
 -1       817 2.09564E-04 1.01433E-05 8.27181E-25
 -1       818 2.10127E-04 8.24844E-06 1.65436E-24
 -1       819 2.10662E-04 6.42963E-06-1.65436E-24
 -1       820 2.11167E-04 4.69077E-06 1.65436E-24
 -1       821 2.01654E-04-3.75347E-07 0.00000E+00
 -1       822 2.01510E-04-4.40398E-06-1.65436E-24
 -1       823 2.01364E-04-9.31803E-06 0.00000E+00
 -1       824 2.01214E-04-1.46139E-05 0.00000E+00
 -1       825 2.01065E-04-1.96841E-05 0.00000E+00
 -1       826 2.00920E-04-2.39223E-05 0.00000E+00
 -1       827 2.00779E-04-2.69504E-05 3.30872E-24
 -1       828 2.00641E-04-2.83982E-05 1.65436E-24
 -1       829 2.00504E-04-2.83285E-05 0.00000E+00
 -1       830 2.00366E-04-2.68138E-05 0.00000E+00
 -1       831 2.00226E-04-2.43227E-05 0.00000E+00
 -1       832 2.00086E-04-2.13301E-05 0.00000E+00
 -1       833 1.99945E-04-1.84485E-05 0.00000E+00
 -1       834 1.99808E-04-1.62896E-05-1.65436E-24
 -1       835 1.99672E-04-1.52676E-05 0.00000E+00
 -1       836 2.03644E-04 2.39689E-06 0.00000E+00
 -1       837 2.05375E-04 2.52705E-06 0.00000E+00
 -1       838 2.07010E-04 2.65717E-06 0.00000E+00
 -1       839 2.08579E-04 2.78659E-06 0.00000E+00
 -1       840 2.10113E-04 2.91586E-06 0.00000E+00
 -1       856 1.99530E-04-1.70124E-05 0.00000E+00
 -1       857 1.99512E-04-1.80985E-05 0.00000E+00
 -1       858 1.99494E-04-1.90691E-05-2.06795E-25
 -1       859 1.99475E-04-1.99454E-05 0.00000E+00
 -1       860 1.99456E-04-2.07488E-05 4.13590E-25
 -1       861 1.99438E-04-2.15007E-05 0.00000E+00
 -1       862 1.99419E-04-2.22226E-05 0.00000E+00
 -1       863 1.99400E-04-2.29360E-05 2.06795E-25
 -1       864 1.99382E-04-2.36623E-05 0.00000E+00
 -1       865 1.99363E-04-2.44229E-05-2.06795E-25
 -1       866 1.99344E-04-2.52394E-05-8.27181E-25
 -1       867 1.99325E-04-2.61332E-05 0.00000E+00
 -1       868 1.99306E-04-2.71256E-05 8.27181E-25
 -1       869 1.99287E-04-2.82378E-05 0.00000E+00
 -1       870 1.99268E-04-2.94911E-05-8.27181E-25
 -1       871 2.01060E-04-1.57949E-05 0.00000E+00
 -1       872 2.02725E-04-1.58038E-05 0.00000E+00
 -1       873 2.04470E-04-1.58135E-05 0.00000E+00
 -1       874 2.06226E-04-1.58239E-05 7.75482E-26
 -1       875 2.07922E-04-1.58348E-05 0.00000E+00
 -1       876 2.00132E-04-1.69976E-05 3.30872E-24
 -1       877 2.00697E-04-1.81383E-05 0.00000E+00
 -1       878 2.01240E-04-1.92196E-05-3.30872E-24
 -1       879 2.01763E-04-2.02490E-05 0.00000E+00
 -1       880 2.02271E-04-2.12339E-05-3.30872E-24
 -1       881 2.02764E-04-2.21818E-05 0.00000E+00
 -1       882 2.03246E-04-2.31001E-05-3.30872E-24
 -1       883 2.03720E-04-2.39961E-05 0.00000E+00
 -1       884 2.04189E-04-2.48773E-05 0.00000E+00
 -1       885 2.04655E-04-2.57510E-05 0.00000E+00
 -1       886 2.05120E-04-2.66247E-05 0.00000E+00
 -1       887 2.05588E-04-2.75057E-05 0.00000E+00
 -1       888 2.06062E-04-2.84015E-05 0.00000E+00
 -1       889 2.06543E-04-2.93196E-05 0.00000E+00
 -1       890 2.07035E-04-3.02673E-05 1.65436E-24
 -1       891 2.00771E-04-3.09650E-05 1.65436E-24
 -1       892 2.02271E-04-3.10236E-05 8.27181E-25
 -1       893 2.03723E-04-3.10820E-05-8.27181E-25
 -1       894 2.05101E-04-3.11402E-05 0.00000E+00
 -1       895 2.06379E-04-3.11981E-05-4.13590E-25
 -1       956 2.11510E-04 1.55890E-06-3.30872E-24
 -1       957 2.11375E-04 1.75750E-07-1.65436E-24
 -1       958 2.11241E-04-1.12479E-06 3.30872E-24
 -1       959 2.11106E-04-2.35437E-06 0.00000E+00
 -1       960 2.10971E-04-3.52471E-06 3.30872E-24
 -1       961 2.10836E-04-4.64753E-06 0.00000E+00
 -1       962 2.10701E-04-5.73459E-06 0.00000E+00
 -1       963 2.10566E-04-6.79766E-06 0.00000E+00
 -1       964 2.10432E-04-7.84850E-06-3.30872E-24
 -1       965 2.10297E-04-8.89888E-06 0.00000E+00
 -1       966 2.10162E-04-9.96057E-06 3.30872E-24
 -1       967 2.10027E-04-1.10453E-05 1.65436E-24
 -1       968 2.09892E-04-1.21649E-05 0.00000E+00
 -1       969 2.09758E-04-1.33310E-05 0.00000E+00
 -1       970 2.09624E-04-1.45554E-05 0.00000E+00
 -1       971 2.09370E-04-1.71446E-05-3.30872E-24
 -1       972 2.09247E-04-1.83451E-05 1.65436E-24
 -1       973 2.09124E-04-1.94612E-05 0.00000E+00
 -1       974 2.09001E-04-2.05038E-05 1.65436E-24
 -1       975 2.08878E-04-2.14838E-05 0.00000E+00
 -1       976 2.08755E-04-2.24121E-05 0.00000E+00
 -1       977 2.08632E-04-2.32996E-05 0.00000E+00
 -1       978 2.08509E-04-2.41572E-05-1.65436E-24
 -1       979 2.08386E-04-2.49959E-05-3.30872E-24
 -1       980 2.08263E-04-2.58266E-05 0.00000E+00
 -1       981 2.08140E-04-2.66601E-05 3.30872E-24
 -1       982 2.08017E-04-2.75076E-05 0.00000E+00
 -1       983 2.07895E-04-2.83798E-05 0.00000E+00
 -1       984 2.07773E-04-2.92877E-05-1.65436E-24
 -1       985 2.07651E-04-3.02423E-05 3.30872E-24
 -3
    1PSTEP                        56          28           1          
  100CL  128 6.68559E-01         409                     0   28           1
 -4  STRESS      6    1
 -5  SXX         1    4    1    1
 -5  SYY         1    4    2    2
 -5  SZZ         1    4    3    3
 -5  SXY         1    4    1    2
 -5  SYZ         1    4    2    3
 -5  SZX         1    4    3    1
 -1         1-5.19189E+06-1.68533E+06-1.13171E+06-1.48339E+06-4.68572E-09 6.76926E-07
 -1         2-7.21797E+03-6.72450E+06-2.01035E+04-2.14086E+05-8.16499E-10 2.37605E-09
 -1         3-1.55359E+03-1.30803E+06 3.30629E+02-1.89944E+03-5.17389E-10 1.38680E-08
 -1         5-9.23145E+01 3.93323E+05 1.01463E+01-1.53810E+00-5.32283E-10-2.63317E-08
 -1         8-2.36186E+05-6.94908E+04 1.49090E+04-1.02716E+05-7.39419E-10-1.00172E-07
 -1         9 2.08233E+07-1.54572E+06 3.23647E+06-3.39318E+06 4.82542E-08 1.55531E-07
 -1        10-2.36142E+03-1.36297E+06-4.45645E+03-1.28926E+04-1.36824E-08-6.71796E-08
 -1        12-8.83770E+01 3.93345E+05 3.34609E+02-1.03999E+01-6.23267E-10 5.56429E-09
 -1        15 8.57146E+02 4.71045E+02 2.77071E+03 9.68067E-01 2.08402E-10 9.36919E-07
 -1        16 4.11342E+07-9.34078E+05 5.25613E+06-5.08370E+06 1.54056E-08-2.14980E-08
 -1        17 1.39367E+07 1.35077E+07 4.32918E+06 1.19006E+07-1.31899E-08 8.33534E-09
 -1        18 1.54764E+05 3.69690E+04 6.62208E+03-1.22652E+05 1.38953E-08-6.23913E-10
 -1        19 1.24497E+05 1.44052E+05-9.63654E+02 2.21705E+04 1.70567E-09-8.71769E-09
 -1        20-8.52287E+04-5.83008E+05-1.30957E+05 2.44514E+04-2.19658E-09 9.00824E-09
 -1        21-4.55360E+01-2.98510E+05-9.29525E+02 3.10742E+02 1.91553E-08-2.50528E-08
 -1        24 2.38763E+07 2.43165E+07 6.72495E+06 2.21223E+07-2.13952E-07-5.20765E-08
 -1        25 1.52739E+05 3.72552E+05 1.26638E+05-7.02765E+05 5.58975E-10 9.52532E-09
 -1        26-5.70206E+04 9.38696E+04-2.51204E+04 2.10476E+03-5.11864E-10 9.50773E-09
 -1        27-7.54059E+04-3.14603E+05-1.14739E+05 6.99864E+04 4.35709E-09 1.15112E-09
 -1        28 2.23708E+04-8.63188E+04 1.70508E+04 2.03987E+04-3.45719E-09-2.42950E-09
 -1        32-1.69349E+06-3.30528E+06-2.15211E+05 5.51461E+05-4.73228E-08-6.84327E-09
 -1        33-1.81066E+05 9.47176E+04 3.29189E+04-3.84440E+04-3.45400E-09 5.18988E-09
 -1        34-2.26557E+05-2.55772E+04 7.09581E+02 7.71448E+04-6.11887E-09-3.92902E-10
 -1        35-2.30941E+04-3.42288E+04-1.36483E+03 5.19238E+04-4.82826E-09 2.74692E-08
 -1        51 6.06682E+04-1.35619E+05 1.28958E+05-4.54329E+05-2.76486E-10 4.58407E-07
 -1        52 2.05304E+04-1.13244E+05 6.76542E+04-5.29494E+05-6.54836E-11-4.60917E-07
 -1        53 4.18606E+03-1.29165E+05 3.51178E+04-4.52587E+05 8.60382E-10-1.97564E-07
 -1        54 7.64381E+03-1.25273E+05 2.87228E+04-5.31353E+05 3.56522E-10-2.58711E-07
 -1        55 1.63919E+04-1.32557E+05 3.47457E+04-4.52316E+05 6.69388E-10 2.61760E-07
 -1        56-9.86387E+06-1.39880E+06-9.40431E+05-4.10863E+06 1.31549E-08-3.84724E-07
 -1        57-1.08622E+07-9.87255E+05-5.39068E+05-2.89096E+06 9.81890E-08-7.27305E-08
 -1        58-9.58490E+06-1.93211E+06-2.12989E+05-4.36418E+06-1.82044E-08 2.36105E-08
 -1        59-1.12961E+07-2.93038E+05-1.08550E+05-2.73251E+06 8.89486E-09-6.04006E-07
 -1        60-9.56223E+06-1.99168E+06-4.79270E+04-4.38328E+06-9.27139E-08-2.79979E-08
 -1        61-1.08154E+07-5.14295E+05 9.22742E+03-2.88398E+06 5.44424E-08 3.73162E-07
 -1        62-9.96399E+06-1.77816E+06-7.14010E+04-4.12728E+06 3.02680E-08 1.34052E-07
 -1        63-9.81086E+06-1.23790E+06 5.95480E+04-3.48515E+06-9.48785E-09 4.09535E-07
 -1        64-1.04099E+07-1.37776E+06-8.52541E+04-3.66841E+06-2.16678E-08 3.51756E-08
 -1        65-9.25237E+06-1.95988E+06 2.62426E+04-4.43763E+06-4.72646E-08 8.17381E-08
 -1        66-1.06050E+07-1.00074E+06-5.97473E+04-3.24852E+06 1.08776E-08 4.51419E-07
 -1        67-9.22747E+06-2.33955E+06-9.48338E+04-5.06679E+06-8.77917E-08 2.03418E-07
 -1        68-1.06077E+07-8.77113E+05-1.79990E+05-3.15387E+06-1.96599E-08-4.62605E-08
 -1        69-9.39490E+06-2.50838E+06-4.95294E+05-4.77698E+06-3.01329E-08-4.08640E-07
 -1        70-1.03670E+07-8.92582E+05-8.36685E+05-3.48905E+06 1.65246E-08 1.50758E-08
 -1        86 2.19594E+03-6.78768E+06-3.70157E+04 1.07029E+05 1.29648E-08 1.80271E-08
 -1        87-2.47543E+04-6.74335E+06-5.77110E+04-2.26681E+05 2.00562E-08 1.56008E-07
 -1        88 2.38962E+04-6.77178E+06-1.05889E+05 1.19647E+05 8.94943E-09 2.88215E-07
 -1        89-1.88876E+05-6.80965E+06-2.65450E+05-2.47960E+04 7.46877E-09-5.57206E-08
 -1        90 1.61684E+05-6.71943E+06-3.96259E+05-9.48757E+04-1.25729E-08 2.13554E-07
 -1       121-2.11830E+03-1.31309E+06-6.80557E+02 9.39498E+02 1.48417E-09-2.58005E-08
 -1       122-1.39595E+03-1.30809E+06 5.96982E+02-3.80907E+03-5.59962E-09 1.20817E-08
 -1       123-2.13132E+03-1.31320E+06-9.62774E+01 2.80844E+03 4.40514E-09 2.22062E-08
 -1       124-2.46562E+01-1.30775E+06 2.21863E+03-8.06174E+03-1.07866E-08 2.39670E-08
 -1       125-2.79695E+03-1.31394E+06 2.18593E+03 5.14118E+03 6.64295E-09-9.70249E-09
 -1       191-9.72122E+01 3.93338E+05 7.82703E+00 8.07982E-01-6.14577E-10 2.05546E-09
 -1       192-9.33055E+01 3.93323E+05 2.16907E+01-4.85807E+00-8.68626E-10 5.23869E-10
 -1       193-9.98146E+01 3.93337E+05 3.61559E+01 4.28780E+00-1.11915E-09-1.94559E-08
 -1       194-9.64800E+01 3.93327E+05 8.25531E+01-1.10010E+01-7.11815E-10-2.23554E-08
 -1       195-1.04809E+02 3.93335E+05 1.57279E+02 7.20829E+00-1.65432E-09-1.03500E-08
 -1       251-2.55242E+06-1.03768E+05-3.35395E+05-2.08692E+05 7.95990E-09 2.47208E-07
 -1       252-5.06745E+05 1.27348E+05 1.70046E+05 6.27072E+05-1.86628E-09-3.24477E-07
 -1       253-1.68427E+06-3.89441E+04-5.64802E+04-4.06399E+05 1.04919E-08-1.22676E-07
 -1       254-1.47869E+06 1.37682E+05 3.22659E+04 8.13475E+05-6.15626E-08 2.03634E-07
 -1       255-1.67546E+06-3.59974E+04-3.22135E+04-4.07297E+05-4.45580E-08 6.83139E-07
 -1       256-5.30501E+05 1.07554E+05 2.16540E+05 6.31496E+05 1.35278E-08 4.07937E-07
 -1       257-2.53915E+06-8.55777E+04-2.13631E+05-2.12371E+05-1.25656E-08-4.52001E-08
 -1       258 4.94106E+05 7.75789E+04 4.07481E+05 3.37275E+04-1.18544E-08 1.51597E-07
 -1       259-2.59863E+06-8.91272E+04-2.24302E+05 1.83836E+05-3.02789E-08 5.59126E-07
 -1       260-3.88835E+05 1.07611E+05 2.48965E+05-5.91377E+05-2.43526E-08 3.70732E-07
 -1       261-1.74359E+06-4.40181E+04-3.59258E+04 4.03506E+05 1.32510E-07-2.19395E-08
 -1       262-1.46606E+06 1.53625E+05 6.20267E+04-8.08559E+05-9.66520E-09-4.68898E-07
 -1       263-1.62783E+06-4.75738E+04 1.98074E+03 4.14244E+05 1.46538E-08 8.54561E-09
 -1       264-6.12700E+05 2.19996E+05 2.66762E+05-6.61999E+05 1.91081E-07 7.13408E-08
 -1       265-2.51693E+06-1.75942E+05-1.45749E+05 2.45835E+05 7.30070E-08 6.09798E-08
 -1       266-1.55175E+04-7.25691E+03 3.64042E+04-2.07116E+01-7.82165E-11 9.84689E-08
 -1       267 1.79887E+04 8.45670E+03 2.57321E+04 2.38995E+01 9.82254E-11 2.90223E-07
 -1       268-2.41227E+03-1.19778E+03 9.56439E+03-3.04508E+00 1.48248E-10 2.14673E-07
 -1       269 2.84816E+03 1.43340E+03 6.21681E+03 3.54721E+00-3.62888E-10-6.51397E-07
 -1       270-4.27513E+02-2.35523E+02 3.00094E+03-4.81375E-01-1.95655E-10-8.16239E-08
 -1       271-1.39251E+06-1.55517E+05-1.02473E+05-5.15734E+05-3.17268E-08 1.49779E-07
 -1       272-1.53777E+06-1.20831E+05-6.56913E+04-3.92250E+05 8.48422E-08-8.32079E-08
 -1       273-1.40974E+06-1.82637E+05-2.41145E+04-5.13644E+05-2.91775E-08-5.14201E-08
 -1       274-1.51870E+06-8.68248E+04-1.34972E+04-3.96506E+05 7.49469E-09-1.31574E-07
 -1       275-1.41198E+06-1.85723E+05-5.56309E+03-5.13327E+05 1.59971E-08-1.80508E-07
 -1       276-1.51432E+06-8.42118E+04-2.84286E+03-3.97632E+05-4.68717E-08 1.50219E-07
 -1       277-1.41322E+06-1.85449E+05-1.52447E+03-5.12032E+05 3.68891E-09 3.35844E-07
 -1       278-1.50872E+06-8.72555E+04-5.64411E+02-3.99667E+05-6.75045E-08-3.40915E-08
 -1       279-1.41508E+06-1.84201E+05-1.17101E+03-5.09528E+05-4.03124E-08-1.19737E-07
 -1       280-1.50030E+06-9.29062E+04-4.24880E+02-4.03089E+05-3.84607E-08 1.22487E-07
 -1       281-1.41778E+06-1.82227E+05-2.60279E+03-5.05896E+05 2.55131E-08 1.72384E-07
 -1       282-1.48984E+06-1.01367E+05-2.78466E+03-4.08033E+05-6.57928E-09 1.38454E-07
 -1       283-1.42071E+06-1.78874E+05-8.00852E+03-5.01249E+05-7.89441E-09-5.01333E-07
 -1       284-1.48175E+06-1.18851E+05-1.59414E+04-4.14044E+05 1.13359E-08 2.33213E-07
 -1       285-1.42070E+06-1.68914E+05-2.91830E+04-4.96126E+05-2.40107E-08 2.87824E-07
 -1       301-1.43183E+04-9.39466E+05 1.38023E+05-1.37749E+06 3.65253E-09-4.11819E-08
 -1       302-1.69564E+04-8.98820E+05 8.18811E+04-2.01158E+06-4.08909E-09 5.45704E-07
 -1       303-2.71099E+04-9.32308E+05 4.16091E+04-1.37438E+06 3.15049E-09-3.29528E-08
 -1       304-4.09635E+04-8.92703E+05 3.43896E+04-2.00953E+06 1.00408E-09 1.61199E-07
 -1       305-4.79423E+04-9.01658E+05 3.00202E+04-1.37821E+06 2.12458E-09-3.05285E-07
 -1       306-4.87355E+07-8.88529E+06-1.40561E+07 2.59356E+06-2.12342E-07-1.03755E-07
 -1       307 4.52045E+07 1.07177E+07 1.00892E+07-2.42814E+07-6.88306E-07-4.03554E-07
 -1       308-3.93031E+06-3.97920E+06-7.76951E+05 7.90045E+06 1.73488E-07-1.91736E-07
 -1       309-9.49367E+05 2.31783E+07 5.10560E+06-2.76016E+07 5.38981E-07-4.86674E-07
 -1       310-1.74429E+07-6.30139E+06-4.58946E+06 1.05339E+07-7.54488E-07-4.39293E-07
 -1       311 7.41157E+07 3.22465E+06 1.37328E+07-1.29571E+07-1.97324E-07 4.91855E-08
 -1       312-5.29100E+07-9.12512E+06-1.44938E+07-9.05603E+06-4.22588E-08 8.80391E-08
 -1       313 7.40519E+07 3.49560E+07 1.88420E+07 4.46911E+07-5.29399E-08 2.31405E-07
 -1       314-1.98579E+07-3.49993E+07-1.25781E+07-1.98389E+07 3.40224E-07-3.43425E-08
 -1       315-1.07265E+06 5.52150E+07 1.00171E+07 1.16313E+07-2.92115E-07-9.21602E-07
 -1       316 3.61029E+06-1.21050E+07-7.82314E+05 2.25191E+06 2.97441E-07-6.97910E-07
 -1       317-1.14295E+07 3.37069E+07 5.09534E+06-2.05021E+07 1.05982E-07-1.16436E-06
 -1       318 1.58272E+04-2.30174E+07-4.62435E+06-1.50704E+06-1.49808E-06 2.11177E-07
 -1       319 1.49972E+07 6.52134E+07 1.38665E+07 2.76687E+07-1.06587E-06 1.93890E-07
 -1       320-3.29431E+07-3.27893E+07-1.64722E+07-2.28792E+07-4.65661E-07-3.71947E-08
 -1       336-1.09392E+03-1.42134E+06-1.41776E+04 7.56379E+03-2.69229E-08-4.02360E-09
 -1       337-5.89714E+03-1.42040E+06-2.01722E+04-1.86199E+04-5.08771E-08-1.50012E-08
 -1       338 4.63567E+02-1.42034E+06-3.32885E+04 1.07738E+04-3.64071E-08-2.29265E-08
 -1       339-3.63042E+04-1.44084E+06-7.64216E+04-2.50257E+04-6.54181E-08 2.41471E-08
 -1       340 2.37997E+04-1.40288E+06-1.20663E+05 1.37938E+04-4.24698E-08 4.50018E-08
 -1       406-6.70143E+01 3.93320E+05 6.56196E+02 3.93303E+00-2.08485E-09 9.16043E-09
 -1       407 1.42440E+02 3.93461E+05 1.40408E+03 2.56176E+01-7.40201E-10 3.04763E-08
 -1       408 6.31447E+02 3.93218E+05 2.79860E+03-2.97589E+01-2.77828E-09 3.08755E-08
 -1       409 2.95058E+03 3.94354E+05 6.30949E+03 3.20034E+02-4.47358E-10 1.49703E-08
 -1       410 8.63562E+03 3.92410E+05 1.28767E+04-3.09046E+02-3.18505E-09-5.16593E-09
 -1       521-4.71388E+07-1.26214E+07-1.68002E+07 3.25946E+06-1.50409E-07-1.70956E-07
 -1       522 4.27086E+07 1.41104E+07 9.48356E+06-3.12871E+07-7.48521E-07-8.19040E-07
 -1       523-3.79851E+06-4.09625E+06-4.26835E+05 7.85632E+06-3.34694E-08-7.44389E-07
 -1       524-1.12674E+07 3.00689E+07 4.96676E+06-3.09114E+07 1.38101E-06-2.44254E-07
 -1       525-1.64316E+07-7.37880E+06-4.69613E+06 9.94743E+06 9.26084E-07-9.97679E-08
 -1       526 7.84602E+07 2.71626E+06 1.32796E+07-1.84451E+07-1.68278E-07 2.22761E-07
 -1       527-5.20812E+07-1.34370E+07-1.71714E+07-7.74349E+06 1.14087E-08 5.87403E-07
 -1       528 7.85178E+07 3.85829E+07 1.82093E+07 5.11213E+07-5.80971E-07 6.18747E-08
 -1       529-2.06226E+07-3.66213E+07-1.45921E+07-1.68156E+07-3.12575E-07-1.39815E-07
 -1       530-6.50228E+06 6.22175E+07 9.81193E+06 6.29039E+06-7.45058E-09 7.84406E-07
 -1       531 3.31178E+06-1.20670E+07-3.82059E+05 2.59230E+06-1.13889E-06 7.88830E-07
 -1       532-1.25410E+07 3.10439E+07 4.94314E+06-3.05647E+07 4.89468E-07-7.78615E-07
 -1       533-7.07240E+05-2.18385E+07-4.62480E+06-3.08343E+05-6.15277E-07-1.16392E-06
 -1       534 9.39488E+06 7.35045E+07 1.30727E+07 2.61485E+07 5.33182E-08 9.14617E-07
 -1       535-3.33435E+07-3.55178E+07-1.96036E+07-1.98656E+07 1.95112E-07 6.21891E-07
 -1       536-7.17944E+05-3.07899E+04-9.50470E+04-5.72850E+04 5.68161E-09 5.93845E-08
 -1       537-4.47661E+04 2.56541E+04 5.82099E+04 1.28943E+05-1.07688E-07 9.68864E-08
 -1       538-3.93707E+05 6.50346E+03-7.53283E+03-7.48095E+04 5.78759E-08 1.19006E-07
 -1       539-2.63246E+05-2.38376E+02 1.95056E+04 1.44052E+05 1.89121E-07 1.34319E-07
 -1       540-5.05162E+05-1.18918E+02-2.57040E+04-7.29808E+04-3.21597E-09 1.19733E-07
 -1       541 1.80073E+05 1.75894E+04 1.11537E+05 1.02315E+05-5.27307E-08 8.70707E-08
 -1       542-8.25105E+05-2.13018E+04-9.02252E+04-3.21102E+04 9.82841E-08 3.89231E-08
 -1       543 4.54733E+05 2.89342E+04 1.67531E+05-1.38600E+04 4.85309E-08-1.29589E-08
 -1       544-7.72453E+05-1.75843E+04-7.97158E+04 4.24578E+04 8.89941E-10-4.02197E-08
 -1       545 5.53327E+04 1.01804E+04 8.49734E+04-1.18302E+05 2.53704E-09-7.70399E-08
 -1       546-4.36445E+05 6.37806E+03-1.29740E+04 7.19501E+04 3.75169E-08-9.97056E-08
 -1       547-2.80815E+05-4.61152E+03 1.17594E+04-1.46832E+05-1.12012E-07-1.19352E-07
 -1       548-4.45355E+05 4.80154E+03-2.46965E+04 7.17483E+04-1.10857E-07-9.77566E-08
 -1       549 7.50933E+04 1.84435E+04 6.60895E+04-1.16269E+05-5.78912E-08-6.21772E-08
 -1       550-7.82833E+05-2.46591E+04-1.34320E+05 4.06016E+04 8.16544E-09-4.34320E-08
 -1       551 2.67073E+04-5.62961E+05-4.72974E+04-1.06896E+06-1.06375E-07-5.38421E-09
 -1       552 7.45279E+04-6.08257E+05-9.66067E+03-1.52175E+06-7.69942E-08 4.78758E-08
 -1       553 6.08010E+04-6.05111E+05 1.89085E+04-1.06237E+06-1.26412E-07 3.26690E-08
 -1       554 1.16134E+05-6.26212E+05 6.55872E+04-1.52434E+06-7.66595E-08 1.86701E-08
 -1       555 9.18950E+04-6.33142E+05 1.26231E+05-1.06093E+06-1.31200E-07-9.86802E-09
 -1       556 2.35899E+05-4.04884E+05-2.12118E+04-4.11705E+05-1.81026E-08-2.67755E-08
 -1       557 3.61361E+05-5.09741E+05-8.01025E+03-5.41470E+05 5.64614E-09-1.03246E-08
 -1       558 2.13557E+05-3.88637E+05-8.19772E+03-4.22443E+05-2.02854E-08-7.46513E-09
 -1       559 3.40468E+05-5.03434E+05-2.65751E+03-5.63217E+05 1.84227E-08-8.64384E-09
 -1       560 1.96970E+05-3.78263E+05-4.03324E+03-4.34436E+05 7.91624E-09 1.46829E-08
 -1       561 3.20342E+05-4.94992E+05-1.04398E+03-5.77138E+05-2.21189E-09 1.24710E-08
 -1       562 1.84006E+05-3.70281E+05-1.98404E+03-4.43804E+05-7.13044E-09 1.12996E-08
 -1       563 3.05022E+05-4.88293E+05-3.14657E+02-5.87163E+05-1.10012E-08 2.36832E-09
 -1       564 1.74744E+05-3.64530E+05-7.83543E+02-4.50362E+05 2.98314E-09-7.92761E-09
 -1       565 2.94789E+05-4.83834E+05-4.16678E+01-5.93703E+05 1.08703E-08-3.04090E-09
 -1       566 1.69291E+05-3.61086E+05-3.15806E+02-4.54174E+05-8.52742E-09-6.81393E-09
 -1       567 2.89745E+05-4.81640E+05-4.01981E+02-5.96775E+05 1.77806E-08 2.16351E-08
 -1       568 1.67737E+05-3.60133E+05-1.20280E+03-4.55356E+05-9.13496E-09-4.75484E-09
 -1       569 2.88461E+05-4.81552E+05-3.02496E+03-5.95396E+05-1.19981E-08 9.60790E-09
 -1       570 1.71207E+05-3.63467E+05-6.59466E+03-4.54289E+05 3.82715E-09-9.64610E-09
 -1       571 2.95833E+05 1.06976E+04 1.52008E+04-9.86454E+04 1.43818E-08 1.87083E-09
 -1       572 2.98030E+05 4.06380E+03 7.44981E+03-1.08226E+05 2.42826E-08-1.73623E-09
 -1       573 2.96705E+05 1.30710E+03 3.31024E+03-9.84658E+04 9.26229E-09 1.23600E-09
 -1       574 2.96917E+05 7.86127E+02 1.66018E+03-1.08457E+05-2.16255E-09-1.57652E-08
 -1       575 2.96800E+05 4.98224E+02 7.83627E+02-9.84412E+04-3.04345E-08 7.40147E-09
 -1       576 2.96780E+05 5.13779E+02 4.01367E+02-1.08487E+05-6.26369E-08 1.41199E-08
 -1       577 2.96843E+05 4.37756E+02 2.00481E+02-9.84378E+04-3.10674E-08 3.83898E-09
 -1       578 2.96816E+05 4.72766E+02 1.16172E+02-1.08492E+05-3.41970E-09-8.22456E-09
 -1       579 2.96921E+05 3.97337E+02 8.01149E+01-9.84374E+04 2.91038E-09-1.21372E-08
 -1       580 2.96926E+05 4.16967E+02 9.37954E+01-1.08487E+05-1.49012E-08-1.09421E-08
 -1       581 2.97045E+05 3.33264E+02 1.41947E+02-9.84436E+04 1.62199E-08 1.51067E-09
 -1       582 2.97115E+05 3.74355E+02 2.89367E+02-1.08423E+05 2.67482E-08 3.10047E-09
 -1       583 2.97197E+05 3.73058E+02 5.55013E+02-9.85024E+04 1.31877E-08 1.69182E-08
 -1       584 2.97513E+05 8.27995E+02 1.25666E+03-1.07927E+05 4.90945E-09 2.03004E-08
 -1       585 2.97232E+05 1.88133E+03 2.54395E+03-9.89384E+04-8.56744E-10 2.07729E-09
 -1       586-3.48582E+03 1.20892E+05-2.84213E+03-2.54602E+05-5.12910E-09 4.18072E-09
 -1       587-1.42163E+03 1.20666E+05 8.59078E+02-2.80207E+05-7.18865E-09-8.17147E-09
 -1       588 3.38867E+02 1.20447E+05 4.90078E+03-2.54461E+05-5.42059E-09-4.16912E-09
 -1       589 5.12138E+03 1.22988E+05 1.26459E+04-2.79975E+05-8.70386E-09-2.02954E-08
 -1       590 1.69184E+04 1.19084E+05 2.65019E+04-2.54901E+05-5.23005E-09 2.77578E-09
 -1       591-7.75936E+04-1.62482E+04-2.31143E+04-3.27274E+04-3.37786E-09 4.74665E-09
 -1       592-8.18902E+04-1.97972E+04-1.25206E+04-3.63312E+04 6.37020E-09-9.59062E-09
 -1       593-7.99043E+04-1.45720E+04-5.21166E+03-3.44232E+04 2.03200E-09-2.22508E-09
 -1       594-7.87003E+04-1.64039E+04-2.59918E+03-3.64501E+04-2.52615E-09-4.34878E-09
 -1       595-8.00804E+04-1.45666E+04-1.19323E+03-3.45002E+04 1.57578E-09 2.41138E-09
 -1       596-7.84818E+04-1.62487E+04-6.06259E+02-3.64240E+04 1.36515E-08 3.28447E-09
 -1       597-8.01025E+04-1.45824E+04-3.29447E+02-3.45031E+04 3.62536E-09-7.05745E-09
 -1       598-7.84602E+04-1.62425E+04-2.63589E+02-3.64166E+04-2.27232E-09 4.85443E-10
 -1       599-8.01012E+04-1.45830E+04-3.35148E+02-3.45028E+04 2.89197E-09-1.17523E-08
 -1       600-7.84818E+04-1.62491E+04-6.21354E+02-3.64217E+04 4.00223E-09-4.25348E-09
 -1       601-8.00761E+04-1.45681E+04-1.22515E+03-3.44993E+04 3.64707E-09 2.24736E-09
 -1       602-7.87061E+04-1.64072E+04-2.66975E+03-3.64446E+04-3.51929E-09-3.00179E-09
 -1       603-7.98925E+04-1.45766E+04-5.35377E+03-3.44211E+04-1.18735E-09-2.20366E-08
 -1       604-8.20012E+04-1.98728E+04-1.28611E+04-3.62969E+04 1.14760E-08-5.30895E-09
 -1       605-7.74984E+04-1.63168E+04-2.37430E+04-3.26992E+04 1.02102E-08 2.35705E-08
 -1       606 2.62820E+04-1.46251E+04-2.62143E+04 2.34080E+04 5.98175E-09 4.13820E-11
 -1       607 2.18034E+04-4.77865E+03-1.30547E+04 2.63093E+04-6.63658E-09-1.66474E-08
 -1       608 2.43572E+04-8.63946E+02-5.84399E+03 2.32463E+04-7.24140E-09 5.04383E-09
 -1       609 2.38690E+04-2.98831E+02-2.95229E+03 2.65186E+04 3.99814E-09-1.50976E-08
 -1       610 2.41409E+04-4.51842E+01-1.40843E+03 2.32270E+04 7.59610E-09 3.63320E-09
 -1       611 2.40652E+04-4.67246E+01-7.10120E+02 2.65412E+04 1.48611E-08 2.60538E-08
 -1       612 2.40942E+04-3.20637E+01-3.37419E+02 2.32250E+04 4.61387E-09 8.19364E-09
 -1       613 2.40785E+04-4.33558E+01-1.51040E+02 2.65438E+04 2.95267E-09-1.40390E-08
 -1       614 2.40727E+04-3.93249E+01-3.49391E+01 2.32243E+04-1.34605E-10 7.21934E-09
 -1       615 2.40743E+04-4.24647E+01 6.44080E+01 2.65443E+04-8.10360E-10 1.67183E-08
 -1       616 2.40557E+04-3.66546E+01 1.92133E+02 2.32246E+04-1.02318E-10-1.73782E-09
 -1       617 2.40982E+04-2.04223E+00 4.37933E+02 2.65438E+04-1.67802E-09-1.00567E-08
 -1       618 2.40183E+04 8.91931E+01 8.82588E+02 2.32249E+04 3.58341E-10-1.40578E-08
 -1       619 2.44103E+04 6.80048E+02 1.98181E+03 2.65432E+04 4.31282E-09 4.74529E-10
 -1       620 2.37256E+04 2.18174E+03 3.98337E+03 2.32268E+04 1.37584E-09 1.09676E-08
 -1       621 5.37408E+02 3.06943E+05 3.98939E+03 4.38172E+04 1.13414E-09 3.08828E-08
 -1       622 7.19918E+02 3.07856E+05 3.53478E+03 6.36022E+04 1.21645E-09 1.23546E-08
 -1       623 1.63966E+02 3.07137E+05 4.23815E+03 4.36195E+04 1.45087E-09-4.86216E-09
 -1       624 2.20297E+03 3.09088E+05 8.20940E+03 6.37965E+04 1.11407E-09-2.71757E-08
 -1       625 2.14406E+03 3.05506E+05 1.43418E+04 4.36160E+04 1.52295E-09 3.89946E-10
 -1       626 2.65590E+05 6.18147E+04 5.17401E+03 1.28126E+05 2.93494E-09-4.77485E-10
 -1       627 2.63304E+05 6.31695E+04 2.49331E+03 1.32381E+05 6.12954E-09-1.41945E-08
 -1       628 2.65716E+05 5.94515E+04 1.05459E+03 1.29011E+05-1.30576E-08 6.16797E-09
 -1       629 2.62669E+05 6.24768E+04 5.16131E+02 1.32618E+05-2.42399E-08 6.88208E-09
 -1       630 2.65731E+05 5.93369E+04 2.39612E+02 1.29050E+05-2.75299E-08-6.52352E-09
 -1       631 2.62603E+05 6.24498E+04 1.29159E+02 1.32621E+05-3.36092E-08 1.20463E-09
 -1       632 2.65728E+05 5.93404E+04 8.53594E+01 1.29046E+05-7.37577E-09 2.02640E-08
 -1       633 2.62595E+05 6.24512E+04 9.56785E+01 1.32618E+05 6.83099E-09-2.87391E-08
 -1       634 2.65724E+05 5.93371E+04 1.55135E+02 1.29046E+05-2.01265E-09-1.75760E-09
 -1       635 2.62610E+05 6.24492E+04 3.14234E+02 1.32624E+05-1.02698E-08 8.07722E-09
 -1       636 2.65715E+05 5.93309E+04 6.34764E+02 1.29046E+05-1.46279E-08 5.17593E-09
 -1       637 2.62748E+05 6.25478E+04 1.39586E+03 1.32623E+05-2.91498E-08 5.92490E-09
 -1       638 2.65666E+05 5.96391E+04 2.86796E+03 1.28907E+05-1.15788E-08-2.30266E-08
 -1       639 2.64255E+05 6.46431E+04 6.78585E+03 1.32180E+05 5.33782E-09-4.29100E-09
 -1       640 2.65457E+05 6.58971E+04 1.40818E+04 1.26272E+05 5.19958E-09-1.54394E-08
 -1       656 6.75546E+04-1.73015E+06-1.63074E+05-2.81791E+03-7.63976E-10-6.88800E-09
 -1       657-8.93762E+04-1.80384E+06-1.35112E+05 4.80514E+03-1.62072E-09 3.24863E-09
 -1       658 2.15405E+04-1.75107E+06-8.32307E+04-4.94157E+03-4.73392E-10 9.28814E-09
 -1       659-9.66972E+04-1.80732E+06-1.44734E+05 6.59567E+03-8.14907E-10-1.95824E-09
 -1       660 7.48593E+04-1.72668E+06-1.79616E+05-4.60844E+03-3.69619E-09 1.04837E-08
 -1       661 1.55711E+05 1.62281E+04 1.65625E+04 6.08726E+04-1.93131E-09-3.60251E-09
 -1       662 1.65135E+05 2.84343E+04 1.11621E+04 5.70876E+04-2.48065E-10-1.89698E-09
 -1       663 1.58964E+05 2.15417E+04 3.90372E+03 5.99284E+04 7.92852E-10-7.96672E-09
 -1       664 1.61363E+05 2.22207E+04 2.33536E+03 5.82412E+04-4.25405E-09-3.20238E-08
 -1       665 1.59458E+05 2.22672E+04 9.21287E+02 5.97841E+04 2.71274E-09-1.11704E-08
 -1       666 1.60778E+05 2.13913E+04 5.39457E+02 5.84294E+04 6.38516E-09 1.34518E-08
 -1       667 1.59545E+05 2.23495E+04 2.86933E+02 5.97478E+04 2.83856E-09 7.28247E-09
 -1       668 1.60683E+05 2.13323E+04 2.93272E+02 5.84821E+04-9.60897E-09 5.15016E-10
 -1       669 1.59553E+05 2.23245E+04 3.97803E+02 5.97317E+04-1.42262E-09 9.71747E-09
 -1       670 1.60780E+05 2.15485E+04 8.66914E+02 5.84848E+04-1.20856E-08 1.16356E-08
 -1       671 1.59448E+05 2.21380E+04 1.53951E+03 5.97431E+04 1.93639E-09-1.45303E-08
 -1       672 1.61677E+05 2.30460E+04 3.93899E+03 5.82671E+04 7.90102E-09-1.70317E-08
 -1       673 1.58660E+05 2.08649E+04 6.60119E+03 5.99349E+04 2.81398E-09 8.59927E-09
 -1       674 1.67960E+05 3.36516E+04 1.88781E+04 5.64213E+04-3.65242E-09 1.11438E-08
 -1       675 1.53206E+05 1.18294E+04 2.80217E+04 6.14774E+04 2.47383E-10 1.13814E-08
 -1       676 2.42975E+01-2.98432E+05-1.12032E+03-1.55376E+02 1.96002E-09-2.46081E-08
 -1       677-2.96037E+02-2.98703E+05-2.05039E+03 3.10498E+02 1.05173E-08-9.42890E-09
 -1       678 1.98805E+02-2.98239E+05-3.62458E+03-1.55021E+02 2.03408E-09-1.38924E-08
 -1       679-3.62434E+03-3.00892E+05-8.61050E+03 3.09143E+02 8.66885E-09-1.29490E-08
 -1       680 2.16416E+03-2.96245E+05-1.38772E+04-1.52313E+02 6.39375E-10 1.18591E-08
 -1       771-3.06280E+06-7.87070E+05-2.10050E+05-1.49496E+06-4.11237E-08-2.88710E-08
 -1       772-2.98052E+06-8.86240E+05-1.08507E+05-1.60957E+06-3.33239E-08 1.32131E-08
 -1       773-3.10094E+06-7.57623E+05-5.49515E+04-1.51440E+06-1.91503E-08 1.99361E-08
 -1       774-2.96881E+06-8.61551E+05-2.46033E+04-1.63996E+06 2.36032E-08 5.75528E-09
 -1       775-3.12070E+06-7.43933E+05-1.81777E+04-1.52352E+06-1.98488E-08 6.38829E-09
 -1       776-2.98436E+06-8.57264E+05-6.84033E+03-1.66320E+06-2.76195E-08 1.16415E-09
 -1       777-3.13787E+06-7.31633E+05-7.96072E+03-1.53148E+06-5.82077E-10 9.45874E-10
 -1       778-3.00060E+06-8.53354E+05-2.27384E+03-1.68320E+06 1.11759E-08 7.55244E-09
 -1       779-3.15267E+06-7.20834E+05-3.96475E+03-1.53825E+06-9.31323E-09-1.00408E-08
 -1       780-3.01491E+06-8.49662E+05-6.81500E+02-1.69948E+06-9.27685E-09-2.56478E-10
 -1       781-3.16447E+06-7.12105E+05-1.57172E+03-1.54354E+06-2.72848E-08-1.39880E-09
 -1       782-3.02594E+06-8.46563E+05 4.69342E+02-1.71150E+06-4.17422E-08-9.23410E-09
 -1       783-3.17278E+06-7.06023E+05 6.97206E+02-1.54723E+06-6.86850E-09-1.42186E-08
 -1       784-3.03217E+06-8.43680E+05 3.17176E+03-1.71891E+06-1.82663E-08 3.81988E-09
 -1       785-3.17765E+06-7.02437E+05 5.56986E+03-1.54950E+06-4.17276E-08 7.92534E-09
 -1       786 1.19977E+05-9.69000E+03 2.24189E+04-3.36298E+02 7.29533E-09 1.37752E-08
 -1       787 1.29700E+05 1.12190E+04 1.58604E+04-1.46363E+02 9.22346E-09 6.55200E-09
 -1       788 1.23725E+05-1.51837E+03 5.80010E+03-3.00616E+02 5.34774E-09 3.35094E-08
 -1       789 1.25333E+05 1.75760E+03 3.64090E+03-2.00836E+02 1.68076E-09 1.74824E-08
 -1       790 1.24345E+05-2.36318E+02 1.47368E+03-2.81843E+02-2.50251E-09 3.87053E-09
 -1       791 1.24609E+05 2.73437E+02 8.50278E+02-2.32903E+02-6.93590E-09-6.17558E-09
 -1       792 1.24450E+05-3.53161E+01 3.58537E+02-2.68551E+02-5.36309E-09 1.45444E-08
 -1       793 1.24483E+05 3.65662E+01 1.74847E+02-2.57819E+02-2.38689E-09 5.38594E-09
 -1       794 1.24470E+05 4.03697E-01 3.76142E+01-2.56928E+02 2.81833E-09 1.17499E-08
 -1       795 1.24443E+05-3.39042E+01-7.84049E+01-2.81908E+02-5.80446E-09 3.49027E-09
 -1       796 1.24489E+05 3.51147E+01-1.97775E+02-2.44461E+02 3.31907E-09 1.76802E-08
 -1       797 1.24331E+05-2.61266E+02-5.32748E+02-3.10346E+02 5.68243E-09 8.10441E-09
 -1       798 1.24582E+05 2.27595E+02-8.62356E+02-2.28491E+02 2.61919E-09-9.28009E-09
 -1       799 1.23678E+05-1.67756E+03-2.37003E+03-3.49850E+02 7.44489E-09-6.46767E-09
 -1       800 1.25143E+05 1.45026E+03-3.35335E+03-2.04958E+02 1.61512E-10 1.04226E-08
 -1       801-2.09521E+05-1.06041E+07-1.49811E+06 1.56613E+06 9.36561E-08-7.33162E-08
 -1       802 8.38142E+05 6.90803E+06 2.42090E+06-1.95743E+06 2.68978E-07-3.91919E-08
 -1       803-5.91224E+05-1.53069E+07-2.07010E+06 1.00209E+06 8.00646E-08 1.57233E-08
 -1       804 3.20945E+05 2.99550E+06 1.69485E+06 7.17264E+05-1.27118E-07-1.05769E-07
 -1       805 2.02444E+05-6.70446E+06-3.06960E+05-1.10261E+06-5.34419E-08-6.31790E-08
 -1       806-3.13706E+05-6.06461E+04-2.32332E+04-1.24245E+05-5.78348E-09 5.90262E-09
 -1       807-3.15537E+05-5.68508E+04-1.14142E+04-1.29881E+05 1.57440E-08-4.30215E-09
 -1       808-3.14345E+05-5.22720E+04-4.84228E+03-1.28202E+05-6.04132E-09 9.39144E-09
 -1       809-3.13137E+05-5.36432E+04-2.36776E+03-1.30160E+05-1.65719E-08 2.74972E-08
 -1       810-3.14441E+05-5.19806E+04-1.08530E+03-1.28377E+05 7.39419E-09 7.45786E-10
 -1       811-3.12951E+05-5.35144E+04-5.39753E+02-1.30124E+05 8.09268E-09-5.90626E-09
 -1       812-3.14455E+05-5.20058E+04-2.73121E+02-1.28377E+05-1.04546E-08 8.33234E-09
 -1       813-3.12925E+05-5.35166E+04-1.77682E+02-1.30105E+05-7.25413E-09 6.19730E-09
 -1       814-3.14448E+05-5.20157E+04-1.76417E+02-1.28372E+05-3.14503E-09 7.16545E-09
 -1       815-3.12929E+05-5.35190E+04-2.84468E+02-1.30097E+05 4.23506E-09 4.46926E-09
 -1       816-3.14426E+05-5.20150E+04-5.39358E+02-1.28368E+05-6.63022E-10 6.42831E-09
 -1       817-3.13020E+05-5.35704E+04-1.15752E+03-1.30085E+05-2.40616E-08 1.02318E-11
 -1       818-3.14356E+05-5.21785E+04-2.36100E+03-1.28291E+05-8.80209E-09 8.15817E-10
 -1       819-3.14313E+05-5.49968E+04-5.55514E+03-1.29779E+05 5.97356E-09 3.59023E-09
 -1       820-3.13909E+05-5.63756E+04-1.13068E+04-1.26500E+05 1.58616E-09 1.36390E-08
 -1       821-3.82468E+05 2.10545E+04-4.91478E+04 2.43202E+03 1.56272E-08 8.82210E-09
 -1       822-4.01801E+05-2.43977E+04-3.44342E+04-5.19585E+03 6.72583E-09-4.52928E-10
 -1       823-3.89747E+05 3.32577E+03-1.26825E+04 4.04890E+03-1.37893E-08-2.40561E-09
 -1       824-3.92918E+05-3.83155E+03-7.92187E+03-6.39766E+03 1.71692E-09 1.76133E-08
 -1       825-3.91364E+05 5.17315E+02-3.33630E+03 3.63400E+03 2.58066E-08 2.59251E-08
 -1       826-3.90148E+05-5.59705E+02-1.68481E+03-3.78079E+03 3.22229E-08 8.50571E-09
 -1       827-3.92484E+05 3.04444E+01-1.26805E+03 1.43182E+03 1.43596E-08-1.14403E-09
 -1       828-3.89208E+05-1.11545E+02-4.68841E+02 1.18686E+03-6.29271E-10-3.70659E-09
 -1       829-3.92285E+05 5.41279E+01-1.24929E+03-1.33367E+03 3.13469E-09 1.43742E-08
 -1       830-3.90572E+05-6.24584E+02-1.84038E+03 5.72942E+03 5.31722E-09 3.56472E-08
 -1       831-3.91149E+05 5.67823E+02-3.41158E+03-3.11074E+03-4.65132E-09-7.57154E-10
 -1       832-3.92993E+05-4.00840E+03-8.22900E+03 7.30492E+03-4.39591E-09 6.23004E-09
 -1       833-3.89887E+05 3.45273E+03-1.32007E+04-2.90924E+03-3.48749E-09 1.96878E-08
 -1       834-4.01781E+05-2.53255E+04-3.56583E+04 4.99244E+03-2.23934E-09-1.35060E-09
 -1       835-3.82336E+05 2.18454E+04-5.10515E+04-7.98147E+02 5.94551E-09-7.73798E-09
 -1       836-1.44453E+03 3.76796E+05 2.33528E+04-1.56915E+04-7.78437E-09 2.73185E-08
 -1       837 4.97097E+03 3.84114E+05 1.97401E+04-3.21489E+04-8.59171E-09-7.53744E-09
 -1       838-5.71085E+02 3.78851E+05 2.00837E+04-1.56203E+04-7.01175E-09 1.19373E-08
 -1       839 1.26204E+04 3.89812E+05 3.79638E+04-3.22029E+04-7.55972E-09 1.48783E-08
 -1       840-3.90696E+03 3.71039E+05 6.05259E+04-1.56442E+04-6.99220E-09 4.27463E-11
 -1       856-4.86552E+04 7.99587E+03-2.10707E+04-3.95374E+02 5.39262E-09 1.41908E-08
 -1       857-5.73337E+04-9.39667E+03-1.45048E+04 5.67766E+03 8.43957E-09 1.35071E-08
 -1       858-5.20929E+04 1.12145E+03-5.46724E+03-4.19145E+02 3.31579E-09 9.67520E-09
 -1       859-5.33887E+04-1.32104E+03-3.29900E+03 5.71274E+03 1.20076E-09-2.04341E-09
 -1       860-5.26064E+04 1.57165E+02-1.38222E+03-4.30148E+02 1.08344E-10 1.98747E-08
 -1       861-5.27980E+04-1.89220E+02-7.59566E+02 5.72770E+03 5.71467E-09 1.91822E-08
 -1       862-5.26868E+04 2.13456E+01-3.14090E+02-4.34075E+02-2.16623E-10-1.83172E-09
 -1       863-5.26992E+04-2.29999E+01-1.10664E+02 5.73002E+03-9.03727E-09-8.75536E-09
 -1       864-5.27058E+04-5.26407E+00 5.54737E+01-4.32469E+02-3.43732E-10-1.22978E-08
 -1       865-5.26413E+04 6.19626E+01 2.73112E+02 5.72072E+03-4.93309E-09-8.10616E-09
 -1       866-5.27425E+04-6.35744E+01 5.46088E+02-4.24771E+02 3.17198E-09-6.05883E-09
 -1       867-5.23858E+04 5.24611E+02 1.34132E+03 5.69986E+03-8.36792E-10-1.05749E-08
 -1       868-5.29564E+04-4.59397E+02 2.22825E+03-4.11606E+02-8.91760E-10-3.53953E-09
 -1       869-5.07532E+04 3.82361E+03 5.93195E+03 5.66567E+03 1.40551E-09-4.68299E-09
 -1       870-5.43672E+04-3.27273E+03 8.60885E+03-3.90456E+02-5.73243E-09 1.34291E-08
 -1       871-5.57659E+03-2.23759E+04-1.98549E+04 1.32988E+05-4.07999E-09-8.52833E-09
 -1       872-1.96186E+03-2.70070E+04-8.32855E+03 1.72441E+05-1.13869E-08-2.11776E-09
 -1       873 4.55633E+02-2.47595E+04 5.63658E+02 1.32695E+05-5.98448E-09-6.76380E-09
 -1       874 3.40352E+03-2.23356E+04 9.87516E+03 1.72469E+05-1.32186E-08 2.18097E-09
 -1       875 6.96877E+03-2.71128E+04 2.23066E+04 1.32938E+05-5.54428E-09-6.00630E-09
 -1       876 2.97609E+05 5.00727E+04 1.52584E+04 1.19328E+05 1.30240E-09-8.02174E-09
 -1       877 2.98628E+05 5.32764E+04 8.14862E+03 1.23696E+05 9.40531E-09-1.39228E-08
 -1       878 2.99036E+05 4.83822E+04 3.41387E+03 1.20578E+05-2.16687E-09 8.40305E-09
 -1       879 2.96554E+05 5.12063E+04 1.70102E+03 1.23799E+05-6.43468E-11 1.48430E-08
 -1       880 2.99138E+05 4.83648E+04 7.92345E+02 1.20629E+05-8.45603E-09 1.56673E-08
 -1       881 2.96416E+05 5.11177E+04 4.23215E+02 1.23775E+05-1.71957E-08-1.65691E-09
 -1       882 2.99148E+05 4.83782E+04 2.70907E+02 1.20630E+05-2.64390E-09 5.85102E-09
 -1       883 2.96406E+05 5.11131E+04 2.91494E+02 1.23767E+05-3.58528E-09-5.04227E-09
 -1       884 2.99141E+05 4.83754E+04 4.63932E+02 1.20631E+05-4.35057E-09-6.79842E-09
 -1       885 2.96443E+05 5.11195E+04 9.32905E+02 1.23778E+05-2.11045E-09 8.14350E-09
 -1       886 2.99105E+05 4.83482E+04 1.88030E+03 1.20627E+05-6.59053E-09 1.67558E-08
 -1       887 2.96774E+05 5.13362E+04 4.10728E+03 1.23826E+05 4.69083E-09 1.40312E-08
 -1       888 2.98845E+05 4.83939E+04 8.27630E+03 1.20496E+05 8.91788E-10-9.36370E-09
 -1       889 3.01700E+05 5.64604E+04 1.97705E+04 1.23675E+05 1.46414E-09 1.25028E-08
 -1       890 2.95466E+05 5.24074E+04 3.70297E+04 1.17347E+05 3.67982E-09 4.14911E-09
 -1       891-8.30027E+01-1.64613E+05-2.02399E+03 2.71870E+04 6.46423E-10 1.31333E-08
 -1       892-1.66100E+02-1.65152E+05-2.17207E+03 4.12996E+04 3.00179E-09 6.50107E-09
 -1       893 5.20927E+01-1.64679E+05-3.07356E+03 2.71946E+04-4.68845E-10 2.27192E-08
 -1       894-1.51648E+03-1.66313E+05-6.35985E+03 4.11463E+04 2.47655E-09 1.02045E-08
 -1       895-1.20575E+03-1.63354E+05-1.11990E+04 2.73425E+04-2.51578E-09-4.79577E-09
 -1       956-3.82668E+05-5.54093E+03-1.36506E+04 3.17785E+04 9.73705E-09 9.22591E-09
 -1       957-3.85345E+05-1.96353E+03-7.00656E+03 3.81822E+04 3.41743E-09-1.93677E-09
 -1       958-3.83896E+05-2.54912E+02-3.15743E+03 3.16077E+04-4.37467E-09-1.55933E-09
 -1       959-3.84094E+05-1.50449E+02-1.61219E+03 3.83826E+04 5.09317E-10-4.26871E-09
 -1       960-3.84017E+05-5.53447E+01-7.86193E+02 3.15901E+04 5.13046E-09-3.03658E-09
 -1       961-3.84013E+05-7.59005E+01-4.16801E+02 3.84035E+04 1.26511E-08-7.64476E-09
 -1       962-3.84045E+05-5.62928E+01-2.38621E+02 3.15871E+04 6.04268E-09 6.87351E-09
 -1       963-3.84014E+05-7.14896E+01-1.91540E+02 3.84073E+04 7.26902E-09 2.40475E-08
 -1       964-3.84051E+05-5.28777E+01-2.32943E+02 3.15863E+04-1.98496E-09-1.54459E-08
 -1       965-3.84026E+05-6.86211E+01-4.02908E+02 3.84065E+04-4.82669E-09-2.26462E-08
 -1       966-3.84034E+05-4.51953E+01-7.57107E+02 3.15879E+04 5.61431E-09-3.13185E-09
 -1       967-3.84116E+05-1.33517E+02-1.55279E+03 3.83916E+04-6.09134E-10 2.73126E-08
 -1       968-3.83928E+05-2.30914E+02-3.03990E+03 3.16010E+04-1.81262E-09-9.62893E-09
 -1       969-3.85333E+05-1.87412E+03-6.74837E+03 3.82379E+04 3.64071E-09-2.70544E-08
 -1       970-3.82753E+05-5.31812E+03-1.31464E+04 3.17318E+04-1.12777E-10-5.18867E-09
 -1       971-3.49541E+05-1.74174E+03-9.36201E+03 1.54736E+04 8.89122E-09-1.04161E-08
 -1       972-3.51793E+05-1.28528E+03-5.09847E+03 2.13787E+04-2.87946E-09-6.34100E-09
 -1       973-3.50585E+05-6.69619E+01-2.28369E+03 1.53525E+04 2.30830E-09-1.44646E-08
 -1       974-3.50718E+05-8.79611E+01-1.18386E+03 2.15163E+04 1.66074E-09-3.83875E-09
 -1       975-3.50667E+05-2.18323E+01-5.92375E+02 1.53401E+04-8.27640E-10-8.70205E-09
 -1       976-3.50656E+05-3.78423E+01-3.42882E+02 2.15322E+04 5.53155E-09-3.24108E-08
 -1       977-3.50684E+05-2.10687E+01-2.50853E+02 1.53366E+04-6.83667E-09-1.03298E-08
 -1       978-3.50662E+05-3.15713E+01-2.96280E+02 2.15372E+04-2.39625E-08 2.61937E-08
 -1       979-3.50683E+05-1.24870E+01-4.78367E+02 1.53351E+04-9.09210E-09 9.32516E-09
 -1       980-3.50698E+05-2.84769E+01-9.25134E+02 2.15382E+04 3.49064E-09-5.09749E-09
 -1       981-3.50654E+05 1.06482E+01-1.79253E+03 1.53357E+04 7.37089E-09-3.83795E-09
 -1       982-3.50944E+05-1.60911E+02-3.70556E+03 2.15315E+04-3.56806E-09-1.39073E-08
 -1       983-3.50428E+05-1.04108E+02-7.20013E+03 1.53417E+04-6.90943E-09 8.83756E-09
 -1       984-3.54407E+05-3.92129E+03-1.61245E+04 2.14456E+04-6.74299E-09 3.54803E-08
 -1       985-3.47168E+05-5.37267E+03-2.96096E+04 1.54119E+04-5.65342E-09 4.38376E-09
 -3
    1PSTEP                        57          29           1          
  100CL  129 6.68637E-01         409                     0   29           1
 -4  DISP        4    1
 -5  D1          1    2    1    0
 -5  D2          1    2    2    0
 -5  D3          1    2    3    0
 -5  ALL         1    2    0    0    1ALL
 -1         1 4.72715E-03 0.00000E+00 0.00000E+00
 -1         2 4.65921E-03-8.92067E-29-5.29396E-23
 -1         3 3.54594E-04-5.39915E-28 0.00000E+00
 -1         5 1.82807E-04-1.20590E-27-2.48154E-24
 -1         8 4.71453E-03-3.34260E-07 0.00000E+00
 -1         9 4.64061E-03-1.43787E-05 0.00000E+00
 -1        10 3.21942E-04-2.87803E-06 6.61744E-24
 -1        12 1.84856E-04 8.23670E-07-8.27181E-25
 -1        15 4.69889E-03-3.64162E-07 1.03398E-25
 -1        16 4.71016E-03-1.68703E-05 0.00000E+00
 -1        17 2.19669E-04-6.70917E-06 0.00000E+00
 -1        18 1.89386E-04 3.71624E-05 0.00000E+00
 -1        19 1.91004E-04 1.64033E-06 0.00000E+00
 -1        20 1.91139E-04-1.21918E-05 0.00000E+00
 -1        21 1.90221E-04-3.03128E-05-3.30872E-24
 -1        24 3.08147E-05-1.07962E-05 0.00000E+00
 -1        25 2.01188E-04 3.73942E-05 0.00000E+00
 -1        26 2.01841E-04 2.27036E-06 0.00000E+00
 -1        27 1.99601E-04-1.58064E-05 0.00000E+00
 -1        28 1.99303E-04-3.09415E-05 0.00000E+00
 -1        32 0.00000E+00 0.00000E+00 0.00000E+00
 -1        33 2.11706E-04 3.03624E-06 0.00000E+00
 -1        34 2.09555E-04-1.58662E-05 0.00000E+00
 -1        35 2.07597E-04-3.12890E-05 0.00000E+00
 -1        51 4.72636E-03-7.28524E-08 0.00000E+00
 -1        52 4.72487E-03-1.27261E-07 0.00000E+00
 -1        53 4.72281E-03-1.78352E-07 0.00000E+00
 -1        54 4.72031E-03-2.28423E-07 0.00000E+00
 -1        55 4.71750E-03-2.79248E-07-2.48154E-24
 -1        56 4.71880E-03 1.00908E-05 5.29396E-23
 -1        57 4.70151E-03 4.20897E-05 5.29396E-23
 -1        58 4.67718E-03 9.08466E-05 1.05879E-22
 -1        59 4.64845E-03 1.49620E-04 5.29396E-23
 -1        60 4.61905E-03 2.09921E-04 1.05879E-22
 -1        61 4.59277E-03 2.63117E-04 5.29396E-23
 -1        62 4.57265E-03 3.01841E-04 0.00000E+00
 -1        63 4.56094E-03 3.19996E-04 0.00000E+00
 -1        64 4.55802E-03 3.15246E-04 0.00000E+00
 -1        65 4.56338E-03 2.87407E-04 5.29396E-23
 -1        66 4.57514E-03 2.40681E-04 0.00000E+00
 -1        67 4.59100E-03 1.81137E-04 0.00000E+00
 -1        68 4.60819E-03 1.17352E-04 0.00000E+00
 -1        69 4.62393E-03 5.83339E-05 0.00000E+00
 -1        70 4.63551E-03 1.21506E-05 0.00000E+00
 -1        86 4.65539E-03-2.38711E-06-5.29396E-23
 -1        87 4.64430E-03-4.82420E-06 2.64698E-23
 -1        88 4.63276E-03-7.26534E-06 5.29396E-23
 -1        89 4.62764E-03-9.64371E-06 0.00000E+00
 -1        90 4.63010E-03-1.20173E-05-5.29396E-23
 -1       121 3.53678E-04-4.61192E-07 0.00000E+00
 -1       122 3.50936E-04-9.25597E-07-6.61744E-24
 -1       123 3.46373E-04-1.39638E-06-1.32349E-23
 -1       124 3.40006E-04-1.87671E-06 6.61744E-24
 -1       125 3.31854E-04-2.36942E-06 0.00000E+00
 -1       191 1.82864E-04 1.37356E-07-1.65436E-24
 -1       192 1.83035E-04 2.74698E-07-1.24077E-24
 -1       193 1.83319E-04 4.12015E-07 2.48154E-24
 -1       194 1.83718E-04 5.49293E-07 0.00000E+00
 -1       195 1.84230E-04 6.86516E-07-2.48154E-24
 -1       251 4.71356E-03 2.56234E-05-1.32349E-23
 -1       252 4.71042E-03 9.75927E-05 0.00000E+00
 -1       253 4.70453E-03 2.02678E-04-1.32349E-23
 -1       254 4.69648E-03 3.27208E-04 0.00000E+00
 -1       255 4.68841E-03 4.51966E-04 0.00000E+00
 -1       256 4.68245E-03 5.57739E-04 6.61744E-24
 -1       257 4.67923E-03 6.30719E-04 0.00000E+00
 -1       258 4.67822E-03 6.57868E-04 0.00000E+00
 -1       259 4.67736E-03 6.37889E-04 1.32349E-23
 -1       260 4.67453E-03 5.70768E-04 0.00000E+00
 -1       261 4.66891E-03 4.68473E-04 1.32349E-23
 -1       262 4.66084E-03 3.43811E-04 0.00000E+00
 -1       263 4.65238E-03 2.15911E-04 0.00000E+00
 -1       264 4.64578E-03 1.03967E-04 1.32349E-23
 -1       265 4.64194E-03 2.25660E-05-2.64698E-23
 -1       266 4.71193E-03-3.44398E-07 0.00000E+00
 -1       267 4.70932E-03-3.48753E-07 0.00000E+00
 -1       268 4.70671E-03-3.53475E-07-4.13590E-25
 -1       269 4.70410E-03-3.57112E-07 0.00000E+00
 -1       270 4.70150E-03-3.60723E-07 0.00000E+00
 -1       271 4.71275E-03 2.76176E-06 0.00000E+00
 -1       272 4.71054E-03 6.94319E-06 6.61744E-24
 -1       273 4.70805E-03 1.18630E-05 0.00000E+00
 -1       274 4.70542E-03 1.71600E-05 0.00000E+00
 -1       275 4.70277E-03 2.24731E-05-1.32349E-23
 -1       276 4.70026E-03 2.74400E-05 6.61744E-24
 -1       277 4.69801E-03 3.17009E-05 0.00000E+00
 -1       278 4.69617E-03 3.49004E-05-6.61744E-24
 -1       279 4.69486E-03 3.66909E-05-1.32349E-23
 -1       280 4.69421E-03 3.67339E-05 6.61744E-24
 -1       281 4.69433E-03 3.47030E-05 1.32349E-23
 -1       282 4.69534E-03 3.02859E-05 0.00000E+00
 -1       283 4.69734E-03 2.31868E-05 0.00000E+00
 -1       284 4.70042E-03 1.31284E-05 6.61744E-24
 -1       285 4.70467E-03-1.46710E-07-1.32349E-23
 -1       301 4.65243E-03-1.48151E-05 6.61744E-24
 -1       302 4.66266E-03-1.52099E-05-6.61744E-24
 -1       303 4.67240E-03-1.55971E-05 1.32349E-23
 -1       304 4.68281E-03-1.59901E-05 0.00000E+00
 -1       305 4.69502E-03-1.64060E-05 0.00000E+00
 -1       306 4.68567E-03-2.22189E-04-1.05879E-22
 -1       307 4.73523E-03-7.76006E-04 0.00000E+00
 -1       308 4.72070E-03-1.58584E-03 2.11758E-22
 -1       309 4.64662E-03-2.52050E-03 0.00000E+00
 -1       310 4.59568E-03-3.40703E-03 1.05879E-22
 -1       311 4.62594E-03-4.07445E-03 5.29396E-23
 -1       312 4.68434E-03-4.40902E-03 0.00000E+00
 -1       313 4.66064E-03-4.37982E-03-5.29396E-23
 -1       314 4.41968E-03-4.01286E-03-2.11758E-22
 -1       315 3.90094E-03-3.43244E-03 0.00000E+00
 -1       316 3.13026E-03-2.74738E-03 1.05879E-22
 -1       317 2.21556E-03-2.03538E-03-2.64698E-23
 -1       318 1.34618E-03-1.33138E-03 1.05879E-22
 -1       319 6.97941E-04-6.87049E-04 5.29396E-23
 -1       320 3.33889E-04-2.08838E-04 0.00000E+00
 -1       336 3.10071E-04-3.44360E-06 0.00000E+00
 -1       337 2.96050E-04-4.03618E-06 0.00000E+00
 -1       338 2.79932E-04-4.65858E-06 0.00000E+00
 -1       339 2.61781E-04-5.31167E-06 0.00000E+00
 -1       340 2.41666E-04-6.00096E-06-6.61744E-24
 -1       406 1.85596E-04 9.60732E-07-3.30872E-24
 -1       407 1.86450E-04 1.09766E-06 0.00000E+00
 -1       408 1.87418E-04 1.23441E-06 8.27181E-25
 -1       409 1.88500E-04 1.37079E-06 0.00000E+00
 -1       410 1.89696E-04 1.50652E-06-4.13590E-25
 -1       521 4.75453E-03-2.37447E-04-2.11758E-22
 -1       522 4.79874E-03-8.11233E-04 0.00000E+00
 -1       523 4.77453E-03-1.64184E-03 1.05879E-22
 -1       524 4.69331E-03-2.58781E-03 5.29396E-23
 -1       525 4.63714E-03-3.48268E-03 1.05879E-22
 -1       526 4.66261E-03-4.16243E-03-1.05879E-22
 -1       527 4.71835E-03-4.50146E-03 0.00000E+00
 -1       528 4.68875E-03-4.46650E-03 1.05879E-22
 -1       529 4.42855E-03-4.08378E-03 0.00000E+00
 -1       530 3.87936E-03-3.49013E-03 5.29396E-23
 -1       531 3.07243E-03-2.79759E-03 1.05879E-22
 -1       532 2.12785E-03-2.08321E-03-5.29396E-23
 -1       533 1.22923E-03-1.37581E-03 2.11758E-22
 -1       534 5.46855E-04-7.20552E-04 0.00000E+00
 -1       535 1.57807E-04-2.26807E-04-2.11758E-22
 -1       536 2.18878E-04 2.94352E-05 0.00000E+00
 -1       537 2.16840E-04 9.18932E-05 1.65436E-24
 -1       538 2.13689E-04 1.71102E-04 0.00000E+00
 -1       539 2.09971E-04 2.57409E-04 1.65436E-24
 -1       540 2.06627E-04 3.38941E-04-3.30872E-24
 -1       541 2.04459E-04 4.03844E-04 0.00000E+00
 -1       542 2.03463E-04 4.45179E-04 0.00000E+00
 -1       543 2.03232E-04 4.56162E-04-1.65436E-24
 -1       544 2.02898E-04 4.37583E-04 0.00000E+00
 -1       545 2.01661E-04 3.90465E-04 0.00000E+00
 -1       546 1.99346E-04 3.23167E-04 0.00000E+00
 -1       547 1.96206E-04 2.44175E-04 0.00000E+00
 -1       548 1.93092E-04 1.65547E-04 3.30872E-24
 -1       549 1.90848E-04 9.93414E-05 0.00000E+00
 -1       550 1.89685E-04 5.38317E-05 0.00000E+00
 -1       551 1.93821E-04-7.22679E-06 0.00000E+00
 -1       552 1.64640E-04-7.83463E-06 0.00000E+00
 -1       553 1.32928E-04-8.51392E-06 0.00000E+00
 -1       554 9.95070E-05-9.24729E-06 2.89513E-24
 -1       555 6.51962E-05-1.00105E-05 0.00000E+00
 -1       556 2.11736E-04 1.35821E-05 0.00000E+00
 -1       557 2.05317E-04 3.00495E-05 0.00000E+00
 -1       558 2.00281E-04 4.29916E-05 0.00000E+00
 -1       559 1.96489E-04 5.27278E-05 0.00000E+00
 -1       560 1.93808E-04 5.95783E-05 0.00000E+00
 -1       561 1.92106E-04 6.38655E-05 0.00000E+00
 -1       562 1.91253E-04 6.59133E-05 0.00000E+00
 -1       563 1.91122E-04 6.60467E-05 0.00000E+00
 -1       564 1.91588E-04 6.45913E-05 0.00000E+00
 -1       565 1.92524E-04 6.18738E-05 0.00000E+00
 -1       566 1.93809E-04 5.82211E-05 0.00000E+00
 -1       567 1.95320E-04 5.39609E-05 0.00000E+00
 -1       568 1.96934E-04 4.94208E-05 1.65436E-24
 -1       569 1.98531E-04 4.49286E-05 8.27181E-25
 -1       570 1.99989E-04 4.08120E-05 0.00000E+00
 -1       571 1.89484E-04 3.48553E-05 2.48154E-24
 -1       572 1.89584E-04 3.24810E-05 0.00000E+00
 -1       573 1.89685E-04 3.00558E-05-3.30872E-24
 -1       574 1.89786E-04 2.75964E-05 1.65436E-24
 -1       575 1.89887E-04 2.51201E-05 3.30872E-24
 -1       576 1.89988E-04 2.26437E-05 1.65436E-24
 -1       577 1.90089E-04 2.01845E-05-6.61744E-24
 -1       578 1.90190E-04 1.77596E-05 0.00000E+00
 -1       579 1.90291E-04 1.53859E-05 0.00000E+00
 -1       580 1.90392E-04 1.30808E-05 0.00000E+00
 -1       581 1.90494E-04 1.08612E-05 0.00000E+00
 -1       582 1.90595E-04 8.74418E-06 0.00000E+00
 -1       583 1.90697E-04 6.74693E-06 0.00000E+00
 -1       584 1.90799E-04 4.88628E-06 3.30872E-24
 -1       585 1.90902E-04 3.17898E-06 0.00000E+00
 -1       586 1.91313E-04 3.72032E-05 0.00000E+00
 -1       587 1.93198E-04 3.72434E-05-4.13590E-25
 -1       588 1.95083E-04 3.72833E-05-8.27181E-25
 -1       589 1.97014E-04 3.73225E-05 0.00000E+00
 -1       590 1.99035E-04 3.73604E-05 0.00000E+00
 -1       591 1.90180E-04 3.49534E-05 2.06795E-25
 -1       592 1.90976E-04 3.27259E-05 0.00000E+00
 -1       593 1.91776E-04 3.04856E-05 0.00000E+00
 -1       594 1.92579E-04 2.82371E-05-4.13590E-25
 -1       595 1.93383E-04 2.59850E-05 0.00000E+00
 -1       596 1.94187E-04 2.37338E-05 0.00000E+00
 -1       597 1.94989E-04 2.14881E-05 8.27181E-25
 -1       598 1.95787E-04 1.92524E-05 0.00000E+00
 -1       599 1.96579E-04 1.70312E-05-8.27181E-25
 -1       600 1.97365E-04 1.48289E-05 0.00000E+00
 -1       601 1.98141E-04 1.26503E-05 0.00000E+00
 -1       602 1.98908E-04 1.04997E-05 0.00000E+00
 -1       603 1.99662E-04 8.38177E-06 0.00000E+00
 -1       604 2.00403E-04 6.30105E-06 5.16988E-26
 -1       605 2.01129E-04 4.26200E-06 0.00000E+00
 -1       606 1.91017E-04 3.39840E-07 0.00000E+00
 -1       607 1.91026E-04-8.76864E-07-1.65436E-24
 -1       608 1.91035E-04-2.01470E-06 0.00000E+00
 -1       609 1.91043E-04-3.07920E-06-1.65436E-24
 -1       610 1.91051E-04-4.07599E-06 3.30872E-24
 -1       611 1.91059E-04-5.01072E-06 0.00000E+00
 -1       612 1.91067E-04-5.88903E-06 0.00000E+00
 -1       613 1.91075E-04-6.71662E-06 0.00000E+00
 -1       614 1.91083E-04-7.49915E-06-1.65436E-24
 -1       615 1.91091E-04-8.24230E-06 0.00000E+00
 -1       616 1.91099E-04-8.95174E-06 0.00000E+00
 -1       617 1.91108E-04-9.63315E-06 0.00000E+00
 -1       618 1.91116E-04-1.02922E-05 0.00000E+00
 -1       619 1.91124E-04-1.09345E-05 0.00000E+00
 -1       620 1.91132E-04-1.15659E-05-2.06795E-25
 -1       621 1.92506E-04 1.74597E-06 3.30872E-24
 -1       622 1.94177E-04 1.85184E-06 0.00000E+00
 -1       623 1.95982E-04 1.95746E-06 0.00000E+00
 -1       624 1.97884E-04 2.06272E-06-8.27181E-25
 -1       625 1.99850E-04 2.16767E-06-3.30872E-24
 -1       626 1.91605E-04 3.76627E-07 0.00000E+00
 -1       627 1.92185E-04-8.26384E-07 0.00000E+00
 -1       628 1.92744E-04-1.97649E-06-6.61744E-24
 -1       629 1.93288E-04-3.08177E-06 0.00000E+00
 -1       630 1.93817E-04-4.15035E-06-3.30872E-24
 -1       631 1.94336E-04-5.19034E-06 1.65436E-24
 -1       632 1.94848E-04-6.20986E-06 3.30872E-24
 -1       633 1.95354E-04-7.21706E-06 0.00000E+00
 -1       634 1.95859E-04-8.22006E-06-3.30872E-24
 -1       635 1.96366E-04-9.22696E-06 0.00000E+00
 -1       636 1.96877E-04-1.02459E-05 3.30872E-24
 -1       637 1.97396E-04-1.12851E-05 1.65436E-24
 -1       638 1.97925E-04-1.23525E-05-1.65436E-24
 -1       639 1.98467E-04-1.34564E-05 0.00000E+00
 -1       640 1.99026E-04-1.46050E-05-1.65436E-24
 -1       656 1.91997E-04-1.27793E-05 0.00000E+00
 -1       657 1.93275E-04-1.33906E-05 0.00000E+00
 -1       658 1.94835E-04-1.40006E-05 0.00000E+00
 -1       659 1.96532E-04-1.46102E-05 0.00000E+00
 -1       660 1.98182E-04-1.52217E-05 6.61744E-24
 -1       661 1.91460E-04-1.28642E-05 0.00000E+00
 -1       662 1.91819E-04-1.36307E-05 0.00000E+00
 -1       663 1.92211E-04-1.44861E-05 0.00000E+00
 -1       664 1.92634E-04-1.54234E-05 8.27181E-25
 -1       665 1.93086E-04-1.64367E-05 0.00000E+00
 -1       666 1.93564E-04-1.75197E-05-8.27181E-25
 -1       667 1.94066E-04-1.86666E-05 0.00000E+00
 -1       668 1.94589E-04-1.98714E-05 0.00000E+00
 -1       669 1.95132E-04-2.11286E-05-1.65436E-24
 -1       670 1.95693E-04-2.24326E-05-8.27181E-25
 -1       671 1.96269E-04-2.37779E-05 0.00000E+00
 -1       672 1.96858E-04-2.51592E-05 0.00000E+00
 -1       673 1.97459E-04-2.65712E-05 0.00000E+00
 -1       674 1.98068E-04-2.80089E-05 0.00000E+00
 -1       675 1.98685E-04-2.94667E-05-2.06795E-25
 -1       676 1.91740E-04-3.04182E-05 3.30872E-24
 -1       677 1.93258E-04-3.05236E-05-1.65436E-24
 -1       678 1.94775E-04-3.06288E-05 3.30872E-24
 -1       679 1.96288E-04-3.07338E-05-1.65436E-24
 -1       680 1.97798E-04-3.08388E-05 0.00000E+00
 -1       771 1.77509E-05 1.86307E-05 0.00000E+00
 -1       772 6.79465E-06 4.27762E-05 0.00000E+00
 -1       773-2.15333E-06 6.18944E-05-1.05879E-22
 -1       774-9.23318E-06 7.62687E-05 0.00000E+00
 -1       775-1.45812E-05 8.61946E-05 0.00000E+00
 -1       776-1.83394E-05 9.19865E-05 0.00000E+00
 -1       777-2.06488E-05 9.39700E-05 0.00000E+00
 -1       778-2.16535E-05 9.24867E-05 0.00000E+00
 -1       779-2.14963E-05 8.78875E-05-5.29396E-23
 -1       780-2.03222E-05 8.05365E-05 2.64698E-23
 -1       781-1.82746E-05 7.08054E-05 5.29396E-23
 -1       782-1.54988E-05 5.90759E-05 5.29396E-23
 -1       783-1.21385E-05 4.57350E-05 0.00000E+00
 -1       784-8.33909E-06 3.11766E-05 7.94093E-23
 -1       785-4.24431E-06 1.57982E-05 0.00000E+00
 -1       786 2.01224E-04 3.49662E-05 0.00000E+00
 -1       787 2.01264E-04 3.25894E-05 4.13590E-25
 -1       788 2.01304E-04 3.02554E-05 0.00000E+00
 -1       789 2.01345E-04 2.79560E-05 0.00000E+00
 -1       790 2.01386E-04 2.56864E-05 0.00000E+00
 -1       791 2.01427E-04 2.34416E-05 0.00000E+00
 -1       792 2.01468E-04 2.12194E-05 1.65436E-24
 -1       793 2.01509E-04 1.90175E-05 0.00000E+00
 -1       794 2.01550E-04 1.68355E-05 0.00000E+00
 -1       795 2.01592E-04 1.46733E-05 0.00000E+00
 -1       796 2.01633E-04 1.25325E-05 1.65436E-24
 -1       797 2.01674E-04 1.04149E-05-8.27181E-25
 -1       798 2.01716E-04 8.32455E-06 1.65436E-24
 -1       799 2.01757E-04 6.26554E-06 0.00000E+00
 -1       800 2.01799E-04 4.24504E-06 0.00000E+00
 -1       801 1.53134E-04 3.36692E-05-2.64698E-23
 -1       802 7.93648E-06 2.09113E-05 2.64698E-23
 -1       803-1.15944E-04 1.04779E-05 0.00000E+00
 -1       804-1.02740E-04 7.32203E-06 0.00000E+00
 -1       805-3.43610E-05 2.85111E-06 0.00000E+00
 -1       806 2.01981E-04 3.48962E-05 1.65436E-24
 -1       807 2.02760E-04 3.24249E-05 0.00000E+00
 -1       808 2.03526E-04 2.99858E-05 0.00000E+00
 -1       809 2.04278E-04 2.75829E-05 1.65436E-24
 -1       810 2.05015E-04 2.52205E-05 3.30872E-24
 -1       811 2.05735E-04 2.29024E-05 0.00000E+00
 -1       812 2.06437E-04 2.06326E-05 0.00000E+00
 -1       813 2.07120E-04 1.84153E-05-1.65436E-24
 -1       814 2.07782E-04 1.62542E-05 3.30872E-24
 -1       815 2.08421E-04 1.41535E-05 0.00000E+00
 -1       816 2.09037E-04 1.21170E-05 0.00000E+00
 -1       817 2.09627E-04 1.01487E-05 0.00000E+00
 -1       818 2.10190E-04 8.25259E-06-1.65436E-24
 -1       819 2.10725E-04 6.43255E-06 8.27181E-25
 -1       820 2.11230E-04 4.69249E-06 3.30872E-24
 -1       821 2.01710E-04-3.77511E-07 0.00000E+00
 -1       822 2.01567E-04-4.41133E-06 0.00000E+00
 -1       823 2.01420E-04-9.33238E-06 0.00000E+00
 -1       824 2.01271E-04-1.46363E-05-1.65436E-24
 -1       825 2.01122E-04-1.97145E-05 3.30872E-24
 -1       826 2.00976E-04-2.39594E-05-1.65436E-24
 -1       827 2.00835E-04-2.69925E-05-3.30872E-24
 -1       828 2.00697E-04-2.84425E-05 0.00000E+00
 -1       829 2.00560E-04-2.83724E-05 0.00000E+00
 -1       830 2.00422E-04-2.68547E-05 1.65436E-24
 -1       831 2.00283E-04-2.43589E-05 0.00000E+00
 -1       832 2.00142E-04-2.13604E-05-1.65436E-24
 -1       833 2.00002E-04-1.84730E-05 3.30872E-24
 -1       834 1.99865E-04-1.63094E-05 0.00000E+00
 -1       835 1.99729E-04-1.52846E-05 0.00000E+00
 -1       836 2.03702E-04 2.39732E-06-3.30872E-24
 -1       837 2.05434E-04 2.52750E-06 0.00000E+00
 -1       838 2.07070E-04 2.65765E-06 0.00000E+00
 -1       839 2.08640E-04 2.78709E-06 1.65436E-24
 -1       840 2.10175E-04 2.91638E-06 8.27181E-25
 -1       856 1.99586E-04-1.70305E-05 0.00000E+00
 -1       857 1.99568E-04-1.81177E-05-2.58494E-26
 -1       858 1.99550E-04-1.90894E-05-2.06795E-25
 -1       859 1.99531E-04-1.99669E-05 0.00000E+00
 -1       860 1.99513E-04-2.07714E-05-4.13590E-25
 -1       861 1.99494E-04-2.15244E-05 0.00000E+00
 -1       862 1.99475E-04-2.22474E-05-4.13590E-25
 -1       863 1.99457E-04-2.29619E-05 0.00000E+00
 -1       864 1.99438E-04-2.36892E-05-4.13590E-25
 -1       865 1.99419E-04-2.44510E-05-2.06795E-25
 -1       866 1.99401E-04-2.52686E-05 1.65436E-24
 -1       867 1.99382E-04-2.61635E-05 4.13590E-25
 -1       868 1.99363E-04-2.71570E-05 8.27181E-25
 -1       869 1.99343E-04-2.82704E-05 0.00000E+00
 -1       870 1.99324E-04-2.95248E-05 0.00000E+00
 -1       871 2.01118E-04-1.58118E-05 8.27181E-25
 -1       872 2.02783E-04-1.58207E-05 0.00000E+00
 -1       873 2.04530E-04-1.58304E-05 0.00000E+00
 -1       874 2.06287E-04-1.58408E-05-2.58494E-26
 -1       875 2.07985E-04-1.58518E-05 1.24077E-24
 -1       876 2.00189E-04-1.70156E-05-3.30872E-24
 -1       877 2.00754E-04-1.81575E-05 0.00000E+00
 -1       878 2.01297E-04-1.92399E-05 0.00000E+00
 -1       879 2.01822E-04-2.02705E-05 0.00000E+00
 -1       880 2.02329E-04-2.12565E-05 0.00000E+00
 -1       881 2.02823E-04-2.22056E-05 0.00000E+00
 -1       882 2.03306E-04-2.31250E-05 0.00000E+00
 -1       883 2.03780E-04-2.40221E-05 0.00000E+00
 -1       884 2.04249E-04-2.49044E-05 0.00000E+00
 -1       885 2.04715E-04-2.57793E-05 0.00000E+00
 -1       886 2.05181E-04-2.66541E-05 0.00000E+00
 -1       887 2.05650E-04-2.75362E-05 1.65436E-24
 -1       888 2.06124E-04-2.84331E-05-3.30872E-24
 -1       889 2.06605E-04-2.93523E-05-1.65436E-24
 -1       890 2.07098E-04-3.03011E-05-1.65436E-24
 -1       891 2.00828E-04-3.09999E-05-1.65436E-24
 -1       892 2.02330E-04-3.10585E-05 8.27181E-25
 -1       893 2.03783E-04-3.11169E-05-1.65436E-24
 -1       894 2.05162E-04-3.11751E-05-4.13590E-25
 -1       895 2.06441E-04-3.12330E-05-4.13590E-25
 -1       956 2.11574E-04 1.55829E-06 0.00000E+00
 -1       957 2.11439E-04 1.74010E-07 0.00000E+00
 -1       958 2.11305E-04-1.12764E-06 3.30872E-24
 -1       959 2.11170E-04-2.35832E-06 1.65436E-24
 -1       960 2.11035E-04-3.52973E-06-3.30872E-24
 -1       961 2.10900E-04-4.65363E-06 1.65436E-24
 -1       962 2.10765E-04-5.74175E-06 0.00000E+00
 -1       963 2.10630E-04-6.80589E-06 0.00000E+00
 -1       964 2.10495E-04-7.85779E-06 3.30872E-24
 -1       965 2.10361E-04-8.90923E-06 1.65436E-24
 -1       966 2.10226E-04-9.97199E-06 0.00000E+00
 -1       967 2.10091E-04-1.10578E-05 1.65436E-24
 -1       968 2.09956E-04-1.21785E-05-6.61744E-24
 -1       969 2.09822E-04-1.33457E-05 0.00000E+00
 -1       970 2.09687E-04-1.45712E-05 0.00000E+00
 -1       971 2.09433E-04-1.71627E-05-3.30872E-24
 -1       972 2.09310E-04-1.83643E-05 0.00000E+00
 -1       973 2.09187E-04-1.94815E-05 0.00000E+00
 -1       974 2.09064E-04-2.05253E-05-1.65436E-24
 -1       975 2.08941E-04-2.15065E-05 3.30872E-24
 -1       976 2.08818E-04-2.24359E-05-1.65436E-24
 -1       977 2.08695E-04-2.33245E-05 0.00000E+00
 -1       978 2.08572E-04-2.41832E-05 0.00000E+00
 -1       979 2.08449E-04-2.50230E-05 3.30872E-24
 -1       980 2.08326E-04-2.58548E-05 1.65436E-24
 -1       981 2.08204E-04-2.66895E-05-3.30872E-24
 -1       982 2.08081E-04-2.75380E-05 1.65436E-24
 -1       983 2.07958E-04-2.84113E-05 3.30872E-24
 -1       984 2.07836E-04-2.93204E-05 0.00000E+00
 -1       985 2.07714E-04-3.02761E-05-3.30872E-24
 -3
    1PSTEP                        58          29           1          
  100CL  129 6.68637E-01         409                     0   29           1
 -4  STRESS      6    1
 -5  SXX         1    4    1    1
 -5  SYY         1    4    2    2
 -5  SZZ         1    4    3    3
 -5  SXY         1    4    1    2
 -5  SYZ         1    4    2    3
 -5  SZX         1    4    3    1
 -1         1-5.18955E+06-1.67835E+06-1.13089E+06-1.47447E+06-2.00816E-09 9.79344E-08
 -1         2-7.18749E+03-6.73318E+06-1.99277E+04-2.16982E+05-1.09469E-09 6.90218E-07
 -1         3-1.55457E+03-1.30767E+06 3.30608E+02-1.89953E+03-6.08019E-10-4.17567E-08
 -1         5-9.24477E+01 3.93396E+05 1.01482E+01-1.53974E+00-4.63910E-10 4.60277E-08
 -1         8-2.28244E+05-6.70729E+04 1.65969E+04-1.00687E+05 7.49424E-10-4.28190E-09
 -1         9 2.08408E+07-1.54896E+06 3.23885E+06-3.40366E+06 5.23636E-08-3.79514E-08
 -1        10-2.36217E+03-1.36259E+06-4.45650E+03-1.28933E+04-1.35369E-08-8.05926E-10
 -1        12-8.85098E+01 3.93418E+05 3.34678E+02-1.04102E+01-6.90058E-10-3.20142E-09
 -1        15 8.54013E+02 4.69323E+02 2.76058E+03 9.63015E-01-6.44107E-10-1.65393E-07
 -1        16 4.11591E+07-9.35839E+05 5.25853E+06-5.09694E+06 2.95695E-08-2.24138E-07
 -1        17 1.39428E+07 1.35174E+07 4.33151E+06 1.19083E+07-1.33237E-08 8.83592E-09
 -1        18 1.54879E+05 3.70001E+04 6.64443E+03-1.22681E+05 1.51317E-08 2.10839E-08
 -1        19 1.24519E+05 1.44078E+05-9.63787E+02 2.21730E+04 1.73932E-09-1.69322E-08
 -1        20-8.52549E+04-5.83104E+05-1.30980E+05 2.44486E+04-2.89826E-09-4.96099E-09
 -1        21-4.55382E+01-2.98545E+05-9.29619E+02 3.11022E+02 1.87063E-08-1.59583E-08
 -1        24 2.38917E+07 2.43396E+07 6.72981E+06 2.21416E+07-2.20170E-07-5.14362E-08
 -1        25 1.52949E+05 3.73318E+05 1.26834E+05-7.03216E+05-1.25156E-09 1.88944E-08
 -1        26-5.70279E+04 9.38884E+04-2.51235E+04 2.10891E+03-2.97950E-10 2.51971E-08
 -1        27-7.54068E+04-3.14652E+05-1.14755E+05 6.99976E+04 4.46047E-09 1.79534E-09
 -1        28 2.23730E+04-8.63305E+04 1.70529E+04 2.03987E+04-4.00669E-09-4.93036E-09
 -1        32-1.69369E+06-3.30608E+06-2.15311E+05 5.52247E+05-4.82396E-08-9.30254E-09
 -1        33-1.81093E+05 9.47354E+04 3.29245E+04-3.84477E+04-3.34993E-09 9.34657E-09
 -1        34-2.26591E+05-2.55825E+04 7.09748E+02 7.71593E+04-4.75626E-09 6.27551E-11
 -1        35-2.30966E+04-3.42334E+04-1.36502E+03 5.19298E+04-5.90175E-09 9.54363E-10
 -1        51 6.07188E+04-1.34983E+05 1.29056E+05-4.53165E+05-1.30967E-10-5.91681E-08
 -1        52 2.05410E+04-1.12584E+05 6.76949E+04-5.28134E+05 2.51930E-10 2.51166E-08
 -1        53 4.18013E+03-1.28506E+05 3.51206E+04-4.51426E+05 1.94632E-10 3.15238E-07
 -1        54 7.61934E+03-1.24614E+05 2.86890E+04-5.29991E+05-2.69210E-10 4.64424E-08
 -1        55 1.63388E+04-1.31882E+05 3.46620E+04-4.51155E+05 6.18456E-10 4.04114E-07
 -1        56-9.87302E+06-1.40932E+06-9.44852E+05-4.11834E+06-3.41970E-08 2.09548E-09
 -1        57-1.08783E+07-9.65563E+05-5.37443E+05-2.87224E+06 1.16706E-08-3.40224E-08
 -1        58-9.57988E+06-1.94772E+06-2.13622E+05-4.38016E+06 2.74595E-08 1.02445E-08
 -1        59-1.13338E+07-2.61894E+05-1.08041E+05-2.71290E+06-6.78083E-08-2.52141E-07
 -1        60-9.55605E+06-2.00743E+06-4.80439E+04-4.39948E+06-1.18343E-08 1.44792E-08
 -1        61-1.08359E+07-4.90932E+05 1.09991E+04-2.86516E+06-3.16759E-08-2.96175E-07
 -1        62-9.97119E+06-1.78932E+06-7.43194E+04-4.13798E+06 2.48692E-08-3.36091E-07
 -1        63-9.79895E+06-1.23423E+06 6.29219E+04-3.47785E+06-6.67060E-08 6.11493E-07
 -1        64-1.04287E+07-1.37904E+06-8.87320E+04-3.66781E+06 3.35858E-08 3.84687E-07
 -1        65-9.23206E+06-1.97294E+06 2.85657E+04-4.45659E+06-1.48721E-08-6.46661E-07
 -1        66-1.06250E+07-9.92283E+05-6.04638E+04-3.23706E+06 8.60600E-08-4.14246E-07
 -1        67-9.21513E+06-2.35804E+06-9.42515E+04-5.10348E+06-7.09260E-08-1.53883E-07
 -1        68-1.06267E+07-8.67094E+05-1.80059E+05-3.14068E+06-1.17727E-07-2.56681E-07
 -1        69-9.37860E+06-2.52327E+06-4.94072E+05-4.80379E+06-2.45163E-08 4.08909E-09
 -1        70-1.03864E+07-8.90896E+05-8.40247E+05-3.48481E+06-1.31513E-09 1.16648E-07
 -1        86 2.14638E+03-6.79804E+06-3.71905E+04 1.08477E+05 1.24492E-08 2.16083E-07
 -1        87-2.46548E+04-6.75217E+06-5.75934E+04-2.29541E+05 2.10493E-08 2.78522E-07
 -1        88 2.38806E+04-6.78208E+06-1.06168E+05 1.21058E+05 9.51331E-09 3.79009E-07
 -1        89-1.89089E+05-6.81845E+06-2.65658E+05-2.46703E+04 7.04313E-09-4.49621E-07
 -1        90 1.61842E+05-6.72975E+06-3.97042E+05-9.64132E+04-1.31258E-08 2.87554E-07
 -1       121-2.11961E+03-1.31273E+06-6.81252E+02 9.39532E+02 1.46751E-09 6.83212E-09
 -1       122-1.39694E+03-1.30773E+06 5.96845E+02-3.80926E+03-5.67857E-09 4.29645E-09
 -1       123-2.13259E+03-1.31284E+06-9.72208E+01 2.80854E+03 4.48495E-09 1.66910E-08
 -1       124-2.59291E+01-1.30739E+06 2.21781E+03-8.06231E+03-1.02682E-08 3.25908E-08
 -1       125-2.79795E+03-1.31359E+06 2.18395E+03 5.14152E+03 6.66114E-09 1.72913E-08
 -1       191-9.73520E+01 3.93411E+05 7.82259E+00 8.08888E-01-6.46166E-10 2.98533E-08
 -1       192-9.34389E+01 3.93396E+05 2.16950E+01-4.86254E+00-8.71612E-10 3.14740E-08
 -1       193-9.99551E+01 3.93410E+05 3.61574E+01 4.29188E+00-1.06757E-09 1.58216E-08
 -1       194-9.66143E+01 3.93400E+05 8.25701E+01-1.10109E+01-6.15914E-10 2.81270E-08
 -1       195-1.04950E+02 3.93408E+05 1.57306E+02 7.21514E+00-1.77165E-09 1.47011E-08
 -1       251-2.56586E+06-1.05743E+05-3.38691E+05-2.10607E+05-5.94082E-09 1.92740E-07
 -1       252-4.91349E+05 1.29773E+05 1.73350E+05 6.32170E+05 2.13204E-08-4.52481E-07
 -1       253-1.68592E+06-3.96362E+04-5.69927E+04-4.09405E+05-2.74067E-08-9.80435E-08
 -1       254-1.47712E+06 1.39790E+05 3.29462E+04 8.19456E+05 1.51051E-08 1.45893E-07
 -1       255-1.67641E+06-3.65389E+04-3.25249E+04-4.10353E+05 1.32968E-09 4.41105E-11
 -1       256-5.16891E+05 1.09127E+05 2.19404E+05 6.36911E+05 7.56700E-09-2.09737E-07
 -1       257-2.55164E+06-8.67378E+04-2.16426E+05-2.14565E+05 1.99507E-08 9.89853E-08
 -1       258 5.22153E+05 7.86279E+04 4.12977E+05 3.44042E+04-6.20821E-09 4.50163E-08
 -1       259-2.61257E+06-9.03453E+04-2.27402E+05 1.85398E+05-4.56093E-08 4.13403E-08
 -1       260-3.71694E+05 1.09102E+05 2.52492E+05-5.96126E+05-2.76923E-08-2.16656E-07
 -1       261-1.74627E+06-4.47095E+04-3.65968E+04 4.06528E+05 1.00534E-07-2.36267E-07
 -1       262-1.46425E+06 1.55783E+05 6.28127E+04-8.14500E+05-2.41478E-08-7.22654E-08
 -1       263-1.62797E+06-4.81877E+04 1.89897E+03 4.17275E+05 3.77267E-08-6.48633E-08
 -1       264-6.00815E+05 2.22738E+05 2.69675E+05-6.67701E+05 1.90415E-07-1.15709E-07
 -1       265-2.52873E+06-1.78020E+05-1.48311E+05 2.48402E+05 7.18865E-08-1.25667E-07
 -1       266-1.54607E+04-7.23039E+03 3.62711E+04-2.06036E+01 1.45519E-11-1.73037E-07
 -1       267 1.79230E+04 8.42578E+03 2.56381E+04 2.37749E+01 1.16415E-10-7.50965E-07
 -1       268-2.40345E+03-1.19340E+03 9.52943E+03-3.02920E+00-5.86624E-11 2.33988E-07
 -1       269 2.83775E+03 1.42816E+03 6.19409E+03 3.52872E+00-1.21418E-10 4.42494E-07
 -1       270-4.25950E+02-2.34662E+02 2.98997E+03-4.78865E-01 1.94063E-10 3.32978E-07
 -1       271-1.38801E+06-1.54808E+05-1.02147E+05-5.13775E+05-6.39266E-08 2.24045E-07
 -1       272-1.53407E+06-1.18921E+05-6.54740E+04-3.89237E+05 8.39464E-10-4.49654E-09
 -1       273-1.40516E+06-1.81846E+05-2.40365E+04-5.11717E+05 4.08636E-08 3.41164E-07
 -1       274-1.51512E+06-8.49968E+04-1.34520E+04-3.93468E+05-4.84879E-08 4.11359E-07
 -1       275-1.40739E+06-1.84926E+05-5.54365E+03-5.11410E+05 8.38477E-08 1.97871E-07
 -1       276-1.51075E+06-8.23907E+04-2.83152E+03-3.94582E+05-1.68197E-08 4.01766E-07
 -1       277-1.40863E+06-1.84655E+05-1.52060E+03-5.10112E+05 5.71526E-09 2.32386E-07
 -1       278-1.50511E+06-8.54506E+04-5.55985E+02-3.96602E+05-1.25874E-09-2.71048E-08
 -1       279-1.41050E+06-1.83412E+05-1.17242E+03-5.07596E+05 1.09139E-08-7.19501E-09
 -1       280-1.49660E+06-9.11340E+04-4.03988E+02-4.00011E+05-5.63887E-08 4.80431E-07
 -1       281-1.41321E+06-1.81443E+05-2.59599E+03-5.03942E+05-9.80435E-09-1.39245E-07
 -1       282-1.48601E+06-9.96309E+04-2.71185E+03-4.04947E+05-1.81190E-08-5.33137E-08
 -1       283-1.41616E+06-1.78107E+05-7.93334E+03-4.99261E+05-5.23869E-08 1.01736E-08
 -1       284-1.47766E+06-1.17033E+05-1.56311E+04-4.10985E+05 3.96540E-09-5.81058E-08
 -1       285-1.41626E+06-1.68268E+05-2.87837E+04-4.94078E+05-3.80824E-08 1.85922E-07
 -1       301-1.48322E+04-9.40737E+05 1.38073E+05-1.37948E+06 4.72937E-10 2.35108E-07
 -1       302-1.76132E+04-8.99925E+05 8.19063E+04-2.01440E+06-4.32192E-09-3.16359E-08
 -1       303-2.75382E+04-9.33698E+05 4.15897E+04-1.37636E+06 1.45519E-09-1.30669E-07
 -1       304-4.15986E+04-8.93954E+05 3.43047E+04-2.01236E+06 3.05590E-10 2.36847E-07
 -1       305-4.83852E+04-9.03041E+05 2.98446E+04-1.38018E+06 3.54339E-09-3.19065E-07
 -1       306-4.87481E+07-8.88879E+06-1.40606E+07 2.60519E+06-1.88244E-07-1.28668E-07
 -1       307 4.52004E+07 1.07330E+07 1.00911E+07-2.42996E+07-7.85833E-07-2.73343E-07
 -1       308-3.91835E+06-3.98084E+06-7.74578E+05 7.90044E+06 2.21073E-07 5.14847E-07
 -1       309-9.47749E+05 2.31959E+07 5.10895E+06-2.76099E+07 3.62976E-07 3.53553E-07
 -1       310-1.74580E+07-6.30880E+06-4.59536E+06 1.05411E+07-1.25729E-08-2.52097E-07
 -1       311 7.41735E+07 3.22699E+06 1.37424E+07-1.29551E+07-3.80678E-08 1.72935E-07
 -1       312-5.29338E+07-9.13196E+06-1.45022E+07-9.06813E+06 4.97908E-07-1.53101E-07
 -1       313 7.40664E+07 3.49965E+07 1.88506E+07 4.47222E+07 7.83184E-08-7.85803E-08
 -1       314-1.98504E+07-3.50255E+07-1.25833E+07-1.98411E+07 2.41678E-07 2.84519E-07
 -1       315-1.08234E+06 5.52445E+07 1.00203E+07 1.16153E+07-1.83180E-07-6.44650E-07
 -1       316 3.61165E+06-1.21012E+07-7.81262E+05 2.26039E+06 5.73797E-07-1.08167E-06
 -1       317-1.14177E+07 3.37138E+07 5.09861E+06-2.05231E+07 6.22676E-08-1.21866E-06
 -1       318 1.50371E+04-2.30327E+07-4.62874E+06-1.50168E+06-1.50780E-06 2.89467E-07
 -1       319 1.50021E+07 6.52630E+07 1.38751E+07 2.76794E+07-1.06965E-06 1.97149E-07
 -1       320-3.29538E+07-3.28101E+07-1.64812E+07-2.28907E+07-4.82309E-07-1.39698E-09
 -1       336-1.09589E+03-1.42096E+06-1.41776E+04 7.56393E+03-2.69265E-08-1.45810E-08
 -1       337-5.89778E+03-1.42001E+06-2.01723E+04-1.86208E+04-4.96866E-08-9.15315E-09
 -1       338 4.62145E+02-1.41995E+06-3.32911E+04 1.07743E+04-3.53666E-08-3.02316E-09
 -1       339-3.63071E+04-1.44045E+06-7.64265E+04-2.50275E+04-6.51744E-08 1.77406E-08
 -1       340 2.37999E+04-1.40249E+06-1.20672E+05 1.37947E+04-4.34375E-08 4.14148E-08
 -1       406-6.71484E+01 3.93393E+05 6.56327E+02 3.93811E+00-2.14325E-09-9.53150E-10
 -1       407 1.42356E+02 3.93534E+05 1.40437E+03 2.56326E+01-5.25233E-10-4.17540E-08
 -1       408 6.31459E+02 3.93290E+05 2.79917E+03-2.97780E+01-2.56568E-09 2.88128E-09
 -1       409 2.95108E+03 3.94427E+05 6.31079E+03 3.20263E+02-3.44698E-10-1.01099E-08
 -1       410 8.63731E+03 3.92482E+05 1.28794E+04-3.09271E+02-3.53975E-09-7.75071E-09
 -1       521-4.71559E+07-1.26284E+07-1.68088E+07 3.27094E+06-1.38069E-07-5.39003E-08
 -1       522 4.27094E+07 1.41349E+07 9.48733E+06-3.13119E+07-7.02334E-07-4.82250E-07
 -1       523-3.78518E+06-4.09836E+06-4.24311E+05 7.85673E+06 1.59431E-07-1.25030E-07
 -1       524-1.12697E+07 3.00978E+07 4.97127E+06-3.09213E+07 1.03778E-06-5.54952E-07
 -1       525-1.64446E+07-7.38915E+06-4.70347E+06 9.95468E+06 8.98726E-07-4.95813E-07
 -1       526 7.85404E+07 2.71755E+06 1.32909E+07-1.84460E+07 7.92206E-08-1.54891E-07
 -1       527-5.21108E+07-1.34480E+07-1.71848E+07-7.75576E+06-5.79748E-08 2.88259E-07
 -1       528 7.85403E+07 3.86424E+07 1.82203E+07 5.11680E+07 2.65427E-07 3.59723E-07
 -1       529-2.06161E+07-3.66532E+07-1.46006E+07-1.68162E+07 9.05711E-08 5.12227E-08
 -1       530-6.51112E+06 6.22583E+07 9.81667E+06 6.26255E+06-3.36324E-07 1.25077E-06
 -1       531 3.31304E+06-1.20610E+07-3.80512E+05 2.60329E+06-1.16538E-06 6.38713E-07
 -1       532-1.25152E+07 3.10433E+07 4.94749E+06-3.05966E+07 5.90109E-07-8.99061E-07
 -1       533-7.09892E+05-2.18534E+07-4.63066E+06-2.99829E+05-5.66928E-07-1.18627E-06
 -1       534 9.39985E+06 7.35761E+07 1.30832E+07 2.61603E+07 6.92962E-08 9.64268E-07
 -1       535-3.33577E+07-3.55459E+07-1.96183E+07-1.98774E+07 2.08151E-07 6.26547E-07
 -1       536-7.18120E+05-3.07940E+04-9.51281E+04-5.73101E+04-1.98906E-09 6.12272E-08
 -1       537-4.45949E+04 2.56539E+04 5.82198E+04 1.28990E+05-1.13267E-07 1.21251E-07
 -1       538-3.93714E+05 6.50873E+03-7.54453E+03-7.48325E+04 4.92280E-08 1.15376E-07
 -1       539-2.63180E+05-2.39333E+02 1.95124E+04 1.44099E+05 1.76928E-07 9.48896E-08
 -1       540-5.05235E+05-1.19771E+02-2.57211E+04-7.30069E+04-2.68346E-09 1.20281E-07
 -1       541 1.80379E+05 1.75993E+04 1.11597E+05 1.02355E+05 3.34285E-08 8.92851E-08
 -1       542-8.25344E+05-2.13130E+04-9.02740E+04-3.21252E+04 1.05830E-07 4.55577E-08
 -1       543 4.55184E+05 2.89496E+04 1.67621E+05-1.38641E+04 5.50654E-09 3.38014E-09
 -1       544-7.72667E+05-1.75940E+04-7.97590E+04 4.24753E+04 1.22177E-08-3.77918E-08
 -1       545 5.55744E+04 1.01869E+04 8.50216E+04-1.18344E+05-1.01531E-08-6.90743E-08
 -1       546-4.36481E+05 6.38061E+03-1.29806E+04 7.19731E+04 3.79985E-08-7.54189E-08
 -1       547-2.80758E+05-4.61112E+03 1.17703E+04-1.46880E+05-1.07126E-07-1.14785E-07
 -1       548-4.45391E+05 4.80233E+03-2.47039E+04 7.17716E+04-9.56495E-08-9.37148E-08
 -1       549 7.53387E+04 1.84650E+04 6.61403E+04-1.16313E+05-7.57195E-08-8.44921E-08
 -1       550-7.83051E+05-2.46820E+04-1.34369E+05 4.06199E+04-2.64663E-10-4.98803E-08
 -1       551 2.67150E+04-5.62772E+05-4.73324E+04-1.06908E+06-1.06884E-07 9.95351E-09
 -1       552 7.45550E+04-6.08088E+05-9.68088E+03-1.52192E+06-7.33271E-08 6.08852E-08
 -1       553 6.08241E+04-6.04940E+05 1.88931E+04-1.06249E+06-1.25852E-07 4.56057E-08
 -1       554 1.16171E+05-6.26062E+05 6.55677E+04-1.52451E+06-8.03993E-08 2.56259E-08
 -1       555 9.19208E+04-6.32979E+05 1.26200E+05-1.06105E+06-1.29541E-07-1.09630E-08
 -1       556 2.35983E+05-4.05009E+05-2.12702E+04-4.11790E+05-1.75205E-08-3.57977E-09
 -1       557 3.61472E+05-5.09888E+05-8.03882E+03-5.41593E+05 4.30737E-09 1.97833E-08
 -1       558 2.13627E+05-3.88746E+05-8.21272E+03-4.22540E+05-2.16241E-08 1.01863E-09
 -1       559 3.40572E+05-5.03570E+05-2.66411E+03-5.63351E+05 2.33995E-08-2.36178E-08
 -1       560 1.97030E+05-3.78366E+05-4.03806E+03-4.34540E+05 1.72004E-08 1.25947E-08
 -1       561 3.20435E+05-4.95123E+05-1.04578E+03-5.77280E+05-2.76486E-10-1.32422E-09
 -1       562 1.84059E+05-3.70379E+05-1.98591E+03-4.43915E+05 4.22006E-09 7.27596E-12
 -1       563 3.05106E+05-4.88420E+05-3.15179E+02-5.87310E+05 1.32713E-08-6.87305E-09
 -1       564 1.74792E+05-3.64625E+05-7.84278E+02-4.50477E+05 1.63564E-08-3.72893E-11
 -1       565 2.94867E+05-4.83958E+05-4.18060E+01-5.93855E+05 1.51849E-08 4.16549E-10
 -1       566 1.69335E+05-3.61178E+05-3.16094E+02-4.54291E+05-2.25555E-09 1.39880E-09
 -1       567 2.89818E+05-4.81763E+05-4.02208E+02-5.96929E+05 1.93522E-08-6.56291E-09
 -1       568 1.67779E+05-3.60224E+05-1.20339E+03-4.55474E+05-3.65708E-09-8.13452E-09
 -1       569 2.88534E+05-4.81675E+05-3.02644E+03-5.95551E+05-3.48336E-09 7.39237E-09
 -1       570 1.71249E+05-3.63560E+05-6.59780E+03-4.54407E+05 9.48785E-09 1.89693E-08
 -1       571 2.95886E+05 1.06995E+04 1.52030E+04-9.86753E+04 1.32022E-08 1.45269E-08
 -1       572 2.98083E+05 4.06475E+03 7.45090E+03-1.08259E+05 2.30248E-08-5.46243E-09
 -1       573 2.96758E+05 1.30762E+03 3.31073E+03-9.84957E+04 8.84120E-09 5.13228E-09
 -1       574 2.96970E+05 7.86608E+02 1.66043E+03-1.08490E+05 1.24942E-09-6.91671E-09
 -1       575 2.96853E+05 4.98628E+02 7.83743E+02-9.84711E+04-1.79675E-09 1.45574E-08
 -1       576 2.96833E+05 5.14216E+02 4.01427E+02-1.08520E+05-1.02461E-08 1.08921E-08
 -1       577 2.96896E+05 4.38140E+02 2.00512E+02-9.84677E+04-4.25098E-09 2.28292E-08
 -1       578 2.96868E+05 4.73179E+02 1.16191E+02-1.08525E+05-5.86215E-09 3.98359E-10
 -1       579 2.96974E+05 3.97690E+02 8.01292E+01-9.84673E+04 4.66025E-09 6.29188E-09
 -1       580 2.96979E+05 4.17341E+02 9.38161E+01-1.08520E+05-1.20208E-08 2.24663E-08
 -1       581 2.97098E+05 3.33571E+02 1.41977E+02-9.84735E+04-3.53248E-09 1.25310E-08
 -1       582 2.97168E+05 3.74682E+02 2.89435E+02-1.08456E+05-1.57015E-08-5.98448E-09
 -1       583 2.97251E+05 3.73334E+02 5.55137E+02-9.85324E+04-2.43745E-09-1.28407E-08
 -1       584 2.97566E+05 8.28384E+02 1.25695E+03-1.07960E+05 1.02027E-08 1.29967E-09
 -1       585 2.97285E+05 1.88193E+03 2.54453E+03-9.89685E+04-1.56615E-09 3.87081E-09
 -1       586-3.48640E+03 1.20928E+05-2.84167E+03-2.54641E+05-5.48380E-09-5.54996E-09
 -1       587-1.42229E+03 1.20701E+05 8.59776E+02-2.80251E+05-5.92445E-09-1.13965E-08
 -1       588 3.38446E+02 1.20482E+05 4.90204E+03-2.54500E+05-1.12050E-09 2.24554E-08
 -1       589 5.12187E+03 1.23024E+05 1.26486E+04-2.80018E+05-7.40692E-09 2.34104E-08
 -1       590 1.69214E+04 1.19119E+05 2.65075E+04-2.54940E+05-5.54928E-09 1.12577E-08
 -1       591-7.76172E+04-1.62515E+04-2.31198E+04-3.27355E+04-9.11928E-09-7.95262E-09
 -1       592-8.19155E+04-1.98008E+04-1.25236E+04-3.63395E+04-1.18336E-08 2.78328E-09
 -1       593-7.99285E+04-1.45749E+04-5.21290E+03-3.44316E+04-4.43076E-09 4.49290E-09
 -1       594-7.87248E+04-1.64067E+04-2.59980E+03-3.64584E+04-2.57798E-09-6.49152E-09
 -1       595-8.01046E+04-1.45695E+04-1.19351E+03-3.45087E+04-1.56530E-09 1.89799E-08
 -1       596-7.85062E+04-1.62515E+04-6.06402E+02-3.64322E+04 6.04359E-09-1.37530E-08
 -1       597-8.01267E+04-1.45854E+04-3.29524E+02-3.45116E+04 3.10052E-09-1.87953E-09
 -1       598-7.84847E+04-1.62453E+04-2.63649E+02-3.64249E+04-2.39260E-09 4.93208E-09
 -1       599-8.01255E+04-1.45859E+04-3.35220E+02-3.45113E+04 2.44506E-09 3.87695E-09
 -1       600-7.85062E+04-1.62519E+04-6.21487E+02-3.64300E+04 1.91085E-09-1.76223E-08
 -1       601-8.01004E+04-1.45710E+04-1.22541E+03-3.45078E+04 5.25552E-09-3.53725E-09
 -1       602-7.87306E+04-1.64100E+04-2.67032E+03-3.64529E+04-1.17006E-09-2.47155E-09
 -1       603-7.99167E+04-1.45795E+04-5.35490E+03-3.44295E+04-1.76192E-09 2.81352E-09
 -1       604-8.20264E+04-1.98763E+04-1.28638E+04-3.63052E+04-2.49065E-09 6.03904E-10
 -1       605-7.75221E+04-1.63201E+04-2.37480E+04-3.27073E+04 4.73665E-09 2.39961E-08
 -1       606 2.62812E+04-1.46280E+04-2.62194E+04 2.34059E+04 5.76620E-09-1.76451E-08
 -1       607 2.18017E+04-4.77960E+03-1.30573E+04 2.63069E+04-3.80624E-09-1.77961E-08
 -1       608 2.43560E+04-8.64135E+02-5.84513E+03 2.32442E+04-2.16187E-08 1.51272E-09
 -1       609 2.38677E+04-2.98918E+02-2.95286E+03 2.65162E+04-3.44030E-08 1.75021E-08
 -1       610 2.41396E+04-4.52186E+01-1.40870E+03 2.32249E+04-2.00025E-08 7.73298E-09
 -1       611 2.40640E+04-4.67671E+01-7.10259E+02 2.65388E+04-1.28616E-08 1.42577E-08
 -1       612 2.40929E+04-3.21001E+01-3.37484E+02 2.32229E+04-1.43446E-08 9.81004E-09
 -1       613 2.40773E+04-4.34019E+01-1.51069E+02 2.65414E+04 2.41198E-09 9.82436E-09
 -1       614 2.40714E+04-3.93665E+01-3.49435E+01 2.32222E+04 9.20409E-10 2.19416E-09
 -1       615 2.40730E+04-4.25140E+01 6.44251E+01 2.65419E+04-4.39923E-09 2.23290E-08
 -1       616 2.40545E+04-3.66984E+01 1.92179E+02 2.32225E+04-9.69521E-10 3.50519E-09
 -1       617 2.40970E+04-2.08442E+00 4.38037E+02 2.65414E+04 2.05364E-09 5.89603E-09
 -1       618 2.40171E+04 8.91770E+01 8.82796E+02 2.32228E+04-1.05001E-09 2.19170E-08
 -1       619 2.44091E+04 6.80165E+02 1.98228E+03 2.65408E+04-3.46324E-09-4.28099E-09
 -1       620 2.37242E+04 2.18222E+03 3.98431E+03 2.32247E+04-8.62997E-10-2.71757E-09
 -1       621 5.37661E+02 3.07002E+05 3.99058E+03 4.38384E+04 9.62700E-10 1.35515E-10
 -1       622 7.20301E+02 3.07914E+05 3.53573E+03 6.36329E+04 9.20409E-10-1.82081E-08
 -1       623 1.64131E+02 3.07195E+05 4.23915E+03 4.36406E+04 1.41767E-09-1.18234E-10
 -1       624 2.20366E+03 3.09147E+05 8.21121E+03 6.38273E+04 1.66716E-09-1.17975E-08
 -1       625 2.14467E+03 3.05564E+05 1.43449E+04 4.36371E+04 1.66301E-09 1.27864E-08
 -1       626 2.65636E+05 6.18210E+04 5.17450E+03 1.28143E+05 5.06543E-09-1.63309E-08
 -1       627 2.63351E+05 6.31757E+04 2.49354E+03 1.32398E+05 5.80667E-09-2.24137E-08
 -1       628 2.65762E+05 5.94575E+04 1.05469E+03 1.29028E+05-5.21140E-09-1.82416E-08
 -1       629 2.62715E+05 6.24829E+04 5.16180E+02 1.32635E+05-4.42287E-09-5.97227E-09
 -1       630 2.65777E+05 5.93430E+04 2.39636E+02 1.29066E+05 1.57752E-09 1.37706E-08
 -1       631 2.62649E+05 6.24558E+04 1.29172E+02 1.32637E+05 3.95266E-09-1.61479E-08
 -1       632 2.65774E+05 5.93465E+04 8.53699E+01 1.29063E+05 8.79731E-09 1.12323E-10
 -1       633 2.62641E+05 6.24572E+04 9.56928E+01 1.32634E+05 1.93859E-09-1.23500E-08
 -1       634 2.65771E+05 5.93432E+04 1.55160E+02 1.29063E+05 1.02116E-09 1.61504E-09
 -1       635 2.62657E+05 6.24552E+04 3.14287E+02 1.32641E+05 9.98716E-09-7.78482E-09
 -1       636 2.65762E+05 5.93370E+04 6.34871E+02 1.29063E+05 1.39307E-08-1.04674E-08
 -1       637 2.62795E+05 6.25538E+04 1.39610E+03 1.32640E+05 1.54084E-08 2.01308E-08
 -1       638 2.65713E+05 5.96453E+04 2.86845E+03 1.28924E+05 1.25956E-08 7.28915E-09
 -1       639 2.64301E+05 6.46495E+04 6.78700E+03 1.32197E+05 1.04283E-08-5.38603E-09
 -1       640 2.65503E+05 6.59043E+04 1.40842E+04 1.26288E+05 9.35825E-09 9.96533E-09
 -1       656 6.75651E+04-1.73042E+06-1.63099E+05-2.81990E+03-1.52795E-09-1.75065E-08
 -1       657-8.93901E+04-1.80413E+06-1.35133E+05 4.80282E+03-7.61247E-10-5.11086E-09
 -1       658 2.15438E+04-1.75135E+06-8.32438E+04-4.94408E+03-6.97355E-10 6.83167E-09
 -1       659-9.67125E+04-1.80761E+06-1.44757E+05 6.59397E+03-1.21508E-09 2.99546E-08
 -1       660 7.48712E+04-1.72695E+06-1.79644E+05-4.61103E+03-2.24827E-09 2.47385E-08
 -1       661 1.55703E+05 1.62269E+04 1.65626E+04 6.08696E+04-9.56788E-10 7.52152E-10
 -1       662 1.65128E+05 2.84328E+04 1.11622E+04 5.70841E+04 2.31387E-09-8.79811E-09
 -1       663 1.58957E+05 2.15405E+04 3.90375E+03 5.99254E+04-5.22664E-09 1.07832E-08
 -1       664 1.61356E+05 2.22192E+04 2.33537E+03 5.82377E+04-6.76596E-09 5.80735E-09
 -1       665 1.59451E+05 2.22660E+04 9.21294E+02 5.97811E+04-1.65869E-10-7.97834E-09
 -1       666 1.60771E+05 2.13897E+04 5.39462E+02 5.84260E+04 3.03061E-09 8.13600E-09
 -1       667 1.59537E+05 2.23483E+04 2.86937E+02 5.97448E+04 2.28275E-09-2.68641E-09
 -1       668 1.60675E+05 2.13308E+04 2.93279E+02 5.84787E+04-3.87530E-09-4.52513E-09
 -1       669 1.59545E+05 2.23233E+04 3.97815E+02 5.97286E+04-1.22839E-10 1.06542E-08
 -1       670 1.60772E+05 2.15469E+04 8.66942E+02 5.84814E+04-8.79893E-09 1.26087E-08
 -1       671 1.59440E+05 2.21368E+04 1.53956E+03 5.97400E+04 9.64626E-10-2.33331E-08
 -1       672 1.61670E+05 2.30445E+04 3.93912E+03 5.82636E+04 1.02946E-08 6.09356E-09
 -1       673 1.58652E+05 2.08637E+04 6.60141E+03 5.99319E+04 2.33490E-09 1.37725E-08
 -1       674 1.67953E+05 3.36505E+04 1.88787E+04 5.64178E+04-1.99725E-09-1.14230E-08
 -1       675 1.53198E+05 1.18279E+04 2.80226E+04 6.14744E+04-5.29280E-09 2.40107E-10
 -1       676 2.43003E+01-2.98467E+05-1.12044E+03-1.55516E+02 1.20639E-09-1.64275E-08
 -1       677-2.96065E+02-2.98738E+05-2.05060E+03 3.10777E+02 1.43775E-08-1.29437E-08
 -1       678 1.98826E+02-2.98274E+05-3.62495E+03-1.55160E+02 3.43539E-09-1.03084E-08
 -1       679-3.62470E+03-3.00927E+05-8.61138E+03 3.09421E+02 1.00659E-08-6.60947E-09
 -1       680 2.16439E+03-2.96280E+05-1.38786E+04-1.52450E+02-1.01863E-09 1.68474E-09
 -1       771-3.06309E+06-7.87256E+05-2.10157E+05-1.49517E+06-3.83880E-08-2.75904E-08
 -1       772-2.98077E+06-8.86456E+05-1.08561E+05-1.60982E+06-2.63535E-08 1.82481E-08
 -1       773-3.10125E+06-7.57794E+05-5.49811E+04-1.51463E+06-1.69093E-08 1.97178E-08
 -1       774-2.96906E+06-8.61754E+05-2.46160E+04-1.64023E+06 1.77533E-08-1.43336E-09
 -1       775-3.12101E+06-7.44096E+05-1.81887E+04-1.52375E+06-3.89991E-09 7.53789E-09
 -1       776-2.98463E+06-8.57463E+05-6.84419E+03-1.66348E+06-1.46683E-08 1.42827E-08
 -1       777-3.13820E+06-7.31788E+05-7.96604E+03-1.53172E+06-1.92085E-09 5.80621E-09
 -1       778-3.00088E+06-8.53549E+05-2.27528E+03-1.68350E+06 1.06957E-08 1.00699E-08
 -1       779-3.15301E+06-7.20982E+05-3.96757E+03-1.53850E+06-9.28412E-09-7.91988E-09
 -1       780-3.01519E+06-8.49854E+05-6.81984E+02-1.69979E+06-1.54032E-08-1.45519E-09
 -1       781-3.16482E+06-7.12247E+05-1.57292E+03-1.54379E+06-3.16213E-08 2.68483E-09
 -1       782-3.02624E+06-8.46751E+05 4.69583E+02-1.71182E+06-4.81377E-08-1.37657E-08
 -1       783-3.17314E+06-7.06161E+05 6.97494E+02-1.54748E+06-1.11322E-08-1.85219E-08
 -1       784-3.03248E+06-8.43866E+05 3.17356E+03-1.71923E+06-1.84773E-08 5.55974E-09
 -1       785-3.17800E+06-7.02572E+05 5.57297E+03-1.54976E+06-4.07526E-08 1.17398E-08
 -1       786 1.19975E+05-9.69061E+03 2.24203E+04-3.36460E+02 1.99727E-09 1.09740E-08
 -1       787 1.29699E+05 1.12197E+04 1.58614E+04-1.46497E+02 5.16696E-09-2.81943E-10
 -1       788 1.23724E+05-1.51847E+03 5.80047E+03-3.00770E+02 4.30840E-09 6.42171E-09
 -1       789 1.25331E+05 1.75771E+03 3.64113E+03-2.00980E+02 2.71245E-09 2.21230E-08
 -1       790 1.24343E+05-2.36332E+02 1.47377E+03-2.81995E+02-5.68384E-09-2.01470E-09
 -1       791 1.24607E+05 2.73454E+02 8.50326E+02-2.33051E+02-8.44459E-09-1.59497E-08
 -1       792 1.24448E+05-3.53171E+01 3.58550E+02-2.68702E+02-5.62087E-09-8.15741E-09
 -1       793 1.24482E+05 3.65648E+01 1.74837E+02-2.57968E+02-1.85683E-09-6.86439E-09
 -1       794 1.24469E+05 4.08093E-01 3.75783E+01-2.57078E+02 4.74719E-09-1.70125E-09
 -1       795 1.24442E+05-3.39339E+01-7.84981E+01-2.82060E+02-7.19166E-09 1.12340E-08
 -1       796 1.24488E+05 3.51419E+01-1.97939E+02-2.44610E+02 5.04025E-09 4.11886E-09
 -1       797 1.24330E+05-2.61462E+02-5.33157E+02-3.10500E+02 4.78889E-09-1.62092E-09
 -1       798 1.24581E+05 2.27766E+02-8.63008E+02-2.28638E+02 2.84979E-09-3.19130E-09
 -1       799 1.23676E+05-1.67882E+03-2.37181E+03-3.50009E+02 6.63173E-09-2.25540E-08
 -1       800 1.25142E+05 1.45135E+03-3.35587E+03-2.05103E+02 2.33250E-10 6.92921E-09
 -1       801-2.09813E+05-1.06088E+07-1.49892E+06 1.56732E+06 9.68575E-08-5.54282E-08
 -1       802 8.38906E+05 6.91537E+06 2.42275E+06-1.95905E+06 2.72295E-07-3.08564E-08
 -1       803-5.91643E+05-1.53151E+07-2.07151E+06 1.00288E+06 7.99664E-08 2.20462E-08
 -1       804 3.21218E+05 3.00026E+06 1.69611E+06 7.17596E+05-1.26929E-07-1.02067E-07
 -1       805 2.02532E+05-6.70661E+06-3.07145E+05-1.10338E+06-5.32018E-08-6.62330E-08
 -1       806-3.13755E+05-6.06566E+04-2.32372E+04-1.24266E+05-3.50701E-09 1.41245E-08
 -1       807-3.15586E+05-5.68609E+04-1.14162E+04-1.29903E+05 5.43764E-09 4.74193E-09
 -1       808-3.14394E+05-5.22811E+04-4.84311E+03-1.28224E+05-8.07358E-09 7.76186E-09
 -1       809-3.13186E+05-5.36527E+04-2.36816E+03-1.30182E+05-9.97397E-09 6.40193E-09
 -1       810-3.14490E+05-5.19896E+04-1.08549E+03-1.28399E+05 1.17825E-09-1.12348E-08
 -1       811-3.13000E+05-5.35239E+04-5.39846E+02-1.30146E+05-3.49246E-10-3.36286E-08
 -1       812-3.14504E+05-5.20148E+04-2.73168E+02-1.28398E+05-3.92174E-09 5.10408E-09
 -1       813-3.12974E+05-5.35261E+04-1.77713E+02-1.30127E+05-3.93948E-09 2.13370E-08
 -1       814-3.14497E+05-5.20248E+04-1.76448E+02-1.28394E+05-7.14863E-10-9.41827E-09
 -1       815-3.12978E+05-5.35284E+04-2.84519E+02-1.30119E+05 7.14135E-09 1.63550E-09
 -1       816-3.14475E+05-5.20240E+04-5.39455E+02-1.28390E+05-1.67347E-10 5.96901E-09
 -1       817-3.13069E+05-5.35799E+04-1.15772E+03-1.30107E+05-1.57415E-08 1.74859E-08
 -1       818-3.14405E+05-5.21876E+04-2.36142E+03-1.28313E+05-1.33696E-09 7.71797E-09
 -1       819-3.14362E+05-5.50065E+04-5.55613E+03-1.29801E+05 4.34466E-09-1.63379E-08
 -1       820-3.13958E+05-5.63855E+04-1.13088E+04-1.26521E+05 8.59472E-10-1.28198E-08
 -1       821-3.82502E+05 2.10564E+04-4.91538E+04 2.43516E+03 1.57968E-08-1.14451E-08
 -1       822-4.01830E+05-2.44000E+04-3.44371E+04-5.20430E+03 6.55137E-09 1.02455E-08
 -1       823-3.89778E+05 3.32615E+03-1.26839E+04 4.05551E+03-1.48474E-08 1.32195E-08
 -1       824-3.92949E+05-3.83194E+03-7.92254E+03-6.40943E+03 2.28675E-09 3.55172E-08
 -1       825-3.91396E+05 5.17385E+02-3.33681E+03 3.64046E+03 2.43884E-08 4.39604E-09
 -1       826-3.90175E+05-5.59607E+02-1.68406E+03-3.78876E+03 3.06414E-08-1.93675E-08
 -1       827-3.92519E+05 3.02461E+01-1.26898E+03 1.43463E+03 1.36449E-08-1.41867E-08
 -1       828-3.89231E+05-1.11290E+02-4.67393E+02 1.18756E+03-2.21260E-09-4.28910E-09
 -1       829-3.92320E+05 5.39788E+01-1.25013E+03-1.33589E+03 2.98061E-09-1.50180E-10
 -1       830-3.90600E+05-6.24591E+02-1.83981E+03 5.73862E+03 2.51517E-09 8.92646E-09
 -1       831-3.91181E+05 5.67967E+02-3.41200E+03-3.11641E+03-7.62019E-09-8.76935E-09
 -1       832-3.93024E+05-4.00888E+03-8.22969E+03 7.31748E+03 1.24207E-10-9.95124E-09
 -1       833-3.89919E+05 3.45312E+03-1.32022E+04-2.91482E+03-3.82943E-09 6.66751E-09
 -1       834-4.01809E+05-2.53278E+04-3.56610E+04 5.00124E+03-2.65908E-09-9.05220E-09
 -1       835-3.82371E+05 2.18472E+04-5.10576E+04-8.00065E+02 7.91616E-09-3.16504E-10
 -1       836-1.44484E+03 3.76866E+05 2.33573E+04-1.56915E+04-7.66522E-09 1.43600E-08
 -1       837 4.97186E+03 3.84185E+05 1.97438E+04-3.21493E+04-8.59592E-09 2.03083E-08
 -1       838-5.71216E+02 3.78921E+05 2.00872E+04-1.56202E+04-7.03540E-09 9.01719E-09
 -1       839 1.26225E+04 3.89883E+05 3.79703E+04-3.22033E+04-7.65249E-09-2.72507E-10
 -1       840-3.90766E+03 3.71107E+05 6.05363E+04-1.56441E+04-7.02858E-09 5.98777E-09
 -1       856-4.86364E+04 7.99620E+03-2.10716E+04-3.95382E+02 3.70540E-09 1.22272E-08
 -1       857-5.73153E+04-9.39707E+03-1.45054E+04 5.67831E+03 6.24300E-09-7.39124E-09
 -1       858-5.20743E+04 1.12150E+03-5.46747E+03-4.19154E+02 4.09125E-09 2.04911E-08
 -1       859-5.33702E+04-1.32111E+03-3.29914E+03 5.71339E+03-5.18799E-09-3.22348E-09
 -1       860-5.25879E+04 1.57173E+02-1.38227E+03-4.30156E+02 7.92198E-10-1.47814E-08
 -1       861-5.27794E+04-1.89240E+02-7.59591E+02 5.72835E+03 1.74871E-09-2.11557E-08
 -1       862-5.26682E+04 2.13471E+01-3.14090E+02-4.34082E+02-1.62860E-09-6.40711E-09
 -1       863-5.26806E+04-2.30099E+01-1.10641E+02 5.73067E+03-1.16947E-08-1.13158E-08
 -1       864-5.26872E+04-5.26648E+00 5.55269E+01-4.32477E+02-3.70886E-09-6.85434E-09
 -1       865-5.26227E+04 6.19789E+01 2.73236E+02 5.72137E+03-2.06646E-09-2.42181E-08
 -1       866-5.27239E+04-6.35989E+01 5.46313E+02-4.24781E+02 3.15652E-10-1.62003E-08
 -1       867-5.23670E+04 5.24810E+02 1.34185E+03 5.70051E+03 1.20042E-09 2.02459E-09
 -1       868-5.29379E+04-4.59578E+02 2.22914E+03-4.11619E+02-3.91293E-09-1.99987E-08
 -1       869-5.07338E+04 3.82512E+03 5.93431E+03 5.66633E+03 2.74986E-09-3.48791E-09
 -1       870-5.43493E+04-3.27403E+03 8.61227E+03-3.90476E+02-6.91170E-09-6.30371E-09
 -1       871-5.57728E+03-2.23843E+04-1.98584E+04 1.33012E+05-4.68572E-09 7.01584E-09
 -1       872-1.96180E+03-2.70163E+04-8.33014E+03 1.72473E+05-1.07248E-08 1.41986E-08
 -1       873 4.56027E+02-2.47683E+04 5.63518E+02 1.32720E+05-6.25641E-09 1.69102E-08
 -1       874 3.40440E+03-2.23443E+04 9.87638E+03 1.72501E+05-1.38025E-08 2.34761E-08
 -1       875 6.97002E+03-2.71220E+04 2.23095E+04 1.32963E+05-4.74392E-09 1.80262E-09
 -1       876 2.97652E+05 5.00794E+04 1.52604E+04 1.19345E+05 7.77823E-09 3.41970E-09
 -1       877 2.98671E+05 5.32835E+04 8.14968E+03 1.23713E+05 1.30090E-08-1.57504E-08
 -1       878 2.99080E+05 4.83887E+04 3.41432E+03 1.20595E+05-3.24781E-09-5.54837E-09
 -1       879 2.96597E+05 5.12131E+04 1.70125E+03 1.23816E+05-4.43470E-09 1.88664E-08
 -1       880 2.99182E+05 4.83713E+04 7.92449E+02 1.20646E+05-4.15957E-09-2.30159E-10
 -1       881 2.96459E+05 5.11245E+04 4.23271E+02 1.23792E+05-1.80125E-09-7.55321E-09
 -1       882 2.99191E+05 4.83847E+04 2.70944E+02 1.20647E+05-5.16206E-09-1.16433E-08
 -1       883 2.96449E+05 5.11199E+04 2.91534E+02 1.23784E+05-1.43268E-09 5.32984E-09
 -1       884 2.99184E+05 4.83819E+04 4.63997E+02 1.20647E+05 3.22359E-09-3.86251E-10
 -1       885 2.96486E+05 5.11263E+04 9.33036E+02 1.23796E+05-8.47734E-09-2.81727E-09
 -1       886 2.99148E+05 4.83547E+04 1.88056E+03 1.20644E+05-2.11375E-09-2.51430E-09
 -1       887 2.96817E+05 5.13430E+04 4.10786E+03 1.23843E+05 7.98980E-09-3.71789E-08
 -1       888 2.98888E+05 4.84005E+04 8.27746E+03 1.20512E+05-1.03900E-09 5.06225E-09
 -1       889 3.01744E+05 5.64680E+04 1.97733E+04 1.23693E+05-1.72302E-09 2.45354E-08
 -1       890 2.95509E+05 5.24145E+04 3.70349E+04 1.17363E+05-6.22640E-09 7.11589E-09
 -1       891-8.29598E+01-1.64636E+05-2.02429E+03 2.71890E+04-1.10435E-09 1.47429E-08
 -1       892-1.66040E+02-1.65174E+05-2.17238E+03 4.13027E+04 4.66571E-10 2.59242E-08
 -1       893 5.21557E+01-1.64701E+05-3.07400E+03 2.71965E+04-1.32809E-09-1.65392E-09
 -1       894-1.51661E+03-1.66335E+05-6.36074E+03 4.11494E+04 2.69347E-09-4.63842E-09
 -1       895-1.20586E+03-1.63376E+05-1.12006E+04 2.73445E+04-2.49952E-09-3.62888E-10
 -1       956-3.82727E+05-5.54191E+03-1.36528E+04 3.17867E+04 9.67339E-09 1.06550E-08
 -1       957-3.85404E+05-1.96394E+03-7.00769E+03 3.81920E+04-4.49063E-09 1.21272E-08
 -1       958-3.83955E+05-2.55031E+02-3.15794E+03 3.16159E+04-1.07611E-08-8.29459E-09
 -1       959-3.84153E+05-1.50564E+02-1.61245E+03 3.83924E+04 2.61798E-09-5.45697E-10
 -1       960-3.84076E+05-5.54270E+01-7.86320E+02 3.15982E+04 9.09858E-09 3.94539E-09
 -1       961-3.84072E+05-7.59994E+01-4.16868E+02 3.84134E+04 1.11486E-08 1.57174E-08
 -1       962-3.84104E+05-5.63724E+01-2.38659E+02 3.15953E+04 4.09182E-09 4.93787E-09
 -1       963-3.84073E+05-7.15861E+01-1.91570E+02 3.84171E+04 8.96262E-09-5.64455E-09
 -1       964-3.84110E+05-5.29563E+01-2.32979E+02 3.15945E+04 1.72051E-10-5.51745E-09
 -1       965-3.84085E+05-6.87177E+01-4.02970E+02 3.84164E+04-7.09724E-09-2.00168E-08
 -1       966-3.84093E+05-4.52745E+01-7.57223E+02 3.15961E+04 4.76984E-09-2.27465E-09
 -1       967-3.84175E+05-1.33627E+02-1.55303E+03 3.84014E+04-5.75528E-09-2.37135E-08
 -1       968-3.83987E+05-2.31025E+02-3.04036E+03 3.16092E+04-5.81167E-09-1.59311E-08
 -1       969-3.85392E+05-1.87450E+03-6.74941E+03 3.82477E+04-2.20098E-09 1.09116E-08
 -1       970-3.82812E+05-5.31902E+03-1.31484E+04 3.17400E+04-5.68434E-09 2.46109E-09
 -1       971-3.49590E+05-1.74195E+03-9.36292E+03 1.54752E+04 4.21551E-09-3.45850E-10
 -1       972-3.51842E+05-1.28545E+03-5.09897E+03 2.13808E+04 5.29371E-09 1.82749E-08
 -1       973-3.50633E+05-6.70020E+01-2.28391E+03 1.53541E+04 3.24599E-09-8.43806E-09
 -1       974-3.50767E+05-8.80158E+01-1.18397E+03 2.15184E+04 4.06885E-09-1.26256E-08
 -1       975-3.50716E+05-2.18674E+01-5.92434E+02 1.53417E+04-5.65251E-10-5.89841E-09
 -1       976-3.50705E+05-3.78917E+01-3.42918E+02 2.15343E+04 9.09085E-09 1.46983E-08
 -1       977-3.50732E+05-2.11032E+01-2.50883E+02 1.53382E+04-4.47471E-10 1.63990E-08
 -1       978-3.50710E+05-3.16197E+01-2.96319E+02 2.15393E+04-4.33249E-09-1.16229E-08
 -1       979-3.50732E+05-1.25201E+01-4.78433E+02 1.53367E+04 4.91059E-09 9.55265E-09
 -1       980-3.50746E+05-2.85248E+01-9.25264E+02 2.15403E+04 5.42531E-09-3.26929E-09
 -1       981-3.50702E+05 1.06184E+01-1.79279E+03 1.53373E+04 4.18595E-09-1.39539E-08
 -1       982-3.50992E+05-1.60978E+02-3.70608E+03 2.15336E+04-5.82907E-09 1.42568E-08
 -1       983-3.50476E+05-1.04155E+02-7.20115E+03 1.53433E+04-7.25004E-09 8.74002E-09
 -1       984-3.54456E+05-3.92189E+03-1.61268E+04 2.14476E+04-3.77122E-09 1.13730E-08
 -1       985-3.47216E+05-5.37346E+03-2.96138E+04 1.54135E+04-5.26143E-09-5.49699E-09
 -3
    1PSTEP                        59          30           1          
  100CL  130 6.68715E-01         409                     0   30           1
 -4  DISP        4    1
 -5  D1          1    2    1    0
 -5  D2          1    2    2    0
 -5  D3          1    2    3    0
 -5  ALL         1    2    0    0    1ALL
 -1         1 4.73134E-03 0.00000E+00 0.00000E+00
 -1         2 4.66251E-03 7.22484E-29-5.29396E-23
 -1         3 3.54707E-04-4.74303E-28 0.00000E+00
 -1         5 1.82853E-04-2.01617E-27 2.48154E-24
 -1         8 4.71875E-03-3.32494E-07 0.00000E+00
 -1         9 4.64370E-03-1.44087E-05 0.00000E+00
 -1        10 3.22045E-04-2.87725E-06-6.61744E-24
 -1        12 1.84903E-04 8.23824E-07 8.27181E-25
 -1        15 4.70314E-03-3.62277E-07-1.03398E-25
 -1        16 4.71443E-03-1.69181E-05 0.00000E+00
 -1        17 2.19737E-04-6.70806E-06 0.00000E+00
 -1        18 1.89438E-04 3.71843E-05 0.00000E+00
 -1        19 1.91056E-04 1.64064E-06 0.00000E+00
 -1        20 1.91191E-04-1.22092E-05 0.00000E+00
 -1        21 1.90273E-04-3.03497E-05 3.30872E-24
 -1        24 3.08195E-05-1.07965E-05 0.00000E+00
 -1        25 2.01247E-04 3.74162E-05 0.00000E+00
 -1        26 2.01901E-04 2.27077E-06 0.00000E+00
 -1        27 1.99660E-04-1.58243E-05 0.00000E+00
 -1        28 1.99362E-04-3.09785E-05 0.00000E+00
 -1        32 0.00000E+00 0.00000E+00 0.00000E+00
 -1        33 2.11774E-04 3.03679E-06 0.00000E+00
 -1        34 2.09622E-04-1.58842E-05 0.00000E+00
 -1        35 2.07664E-04-3.13260E-05 0.00000E+00
 -1        51 4.73056E-03-7.25863E-08 6.61744E-24
 -1        52 4.72907E-03-1.26710E-07 0.00000E+00
 -1        53 4.72701E-03-1.77510E-07 0.00000E+00
 -1        54 4.72451E-03-2.27283E-07 0.00000E+00
 -1        55 4.72172E-03-2.77803E-07-1.65436E-24
 -1        56 4.72285E-03 1.04226E-05 5.29396E-23
 -1        57 4.70516E-03 4.33820E-05 0.00000E+00
 -1        58 4.68021E-03 9.35705E-05 0.00000E+00
 -1        59 4.65072E-03 1.54048E-04-5.29396E-23
 -1        60 4.62053E-03 2.16078E-04 1.05879E-22
 -1        61 4.59359E-03 2.70783E-04 0.00000E+00
 -1        62 4.57301E-03 3.10584E-04 0.00000E+00
 -1        63 4.56110E-03 3.29214E-04 0.00000E+00
 -1        64 4.55824E-03 3.24271E-04 0.00000E+00
 -1        65 4.56390E-03 2.95577E-04 5.29396E-23
 -1        66 4.57610E-03 2.47468E-04 1.05879E-22
 -1        67 4.59249E-03 1.86207E-04 5.29396E-23
 -1        68 4.61023E-03 1.20631E-04 1.05879E-22
 -1        69 4.62646E-03 6.00200E-05 5.29396E-23
 -1        70 4.63842E-03 1.26726E-05-1.05879E-22
 -1        86 4.65863E-03-2.39137E-06 0.00000E+00
 -1        87 4.64738E-03-4.83427E-06-2.64698E-23
 -1        88 4.63567E-03-7.28128E-06 5.29396E-23
 -1        89 4.63049E-03-9.66392E-06 2.64698E-23
 -1        90 4.63303E-03-1.20417E-05 5.29396E-23
 -1       121 3.53791E-04-4.61050E-07 0.00000E+00
 -1       122 3.51048E-04-9.25315E-07-6.61744E-24
 -1       123 3.46484E-04-1.39597E-06 1.32349E-23
 -1       124 3.40115E-04-1.87617E-06 6.61744E-24
 -1       125 3.31960E-04-2.36876E-06 0.00000E+00
 -1       191 1.82910E-04 1.37382E-07 2.48154E-24
 -1       192 1.83081E-04 2.74749E-07 1.24077E-24
 -1       193 1.83365E-04 4.12092E-07 3.30872E-24
 -1       194 1.83764E-04 5.49396E-07 8.27181E-25
 -1       195 1.84277E-04 6.86645E-07-2.48154E-24
 -1       251 4.71778E-03 2.58198E-05 1.32349E-23
 -1       252 4.71459E-03 9.83752E-05 0.00000E+00
 -1       253 4.70861E-03 2.04338E-04 1.32349E-23
 -1       254 4.70043E-03 3.29931E-04-6.61744E-24
 -1       255 4.69222E-03 4.55773E-04 1.32349E-23
 -1       256 4.68617E-03 5.62482E-04-6.61744E-24
 -1       257 4.68290E-03 6.36134E-04 0.00000E+00
 -1       258 4.68188E-03 6.63580E-04 6.61744E-24
 -1       259 4.68102E-03 6.43500E-04 0.00000E+00
 -1       260 4.67816E-03 5.75874E-04 0.00000E+00
 -1       261 4.67246E-03 4.72757E-04 0.00000E+00
 -1       262 4.66426E-03 3.47050E-04 0.00000E+00
 -1       263 4.65566E-03 2.18047E-04 1.32349E-23
 -1       264 4.64895E-03 1.05106E-04 1.32349E-23
 -1       265 4.64505E-03 2.29415E-05 2.64698E-23
 -1       266 4.71615E-03-3.42589E-07 1.65436E-24
 -1       267 4.71355E-03-3.46927E-07 0.00000E+00
 -1       268 4.71095E-03-3.51630E-07 0.00000E+00
 -1       269 4.70834E-03-3.55253E-07 0.00000E+00
 -1       270 4.70574E-03-3.58851E-07-2.06795E-25
 -1       271 4.71697E-03 2.77073E-06 1.32349E-23
 -1       272 4.71476E-03 6.97825E-06 6.61744E-24
 -1       273 4.71225E-03 1.19388E-05 0.00000E+00
 -1       274 4.70960E-03 1.72869E-05 6.61744E-24
 -1       275 4.70693E-03 2.26571E-05 1.32349E-23
 -1       276 4.70440E-03 2.76825E-05 0.00000E+00
 -1       277 4.70214E-03 3.19991E-05 1.32349E-23
 -1       278 4.70028E-03 3.52471E-05 6.61744E-24
 -1       279 4.69896E-03 3.70743E-05 0.00000E+00
 -1       280 4.69830E-03 3.71379E-05 0.00000E+00
 -1       281 4.69843E-03 3.51072E-05-1.32349E-23
 -1       282 4.69945E-03 3.06655E-05 6.61744E-24
 -1       283 4.70147E-03 2.35129E-05 0.00000E+00
 -1       284 4.70459E-03 1.33681E-05-6.61744E-24
 -1       285 4.70888E-03-3.03995E-08 0.00000E+00
 -1       301 4.65574E-03-1.48485E-05 0.00000E+00
 -1       302 4.66617E-03-1.52460E-05 6.61744E-24
 -1       303 4.67611E-03-1.56359E-05 0.00000E+00
 -1       304 4.68671E-03-1.60315E-05 0.00000E+00
 -1       305 4.69911E-03-1.64504E-05 0.00000E+00
 -1       306 4.68880E-03-2.22496E-04 0.00000E+00
 -1       307 4.73831E-03-7.76648E-04 0.00000E+00
 -1       308 4.72366E-03-1.58680E-03 0.00000E+00
 -1       309 4.64944E-03-2.52170E-03 2.64698E-23
 -1       310 4.59843E-03-3.40838E-03-1.05879E-22
 -1       311 4.62867E-03-4.07582E-03 0.00000E+00
 -1       312 4.68706E-03-4.41026E-03-2.11758E-22
 -1       313 4.66326E-03-4.38082E-03 0.00000E+00
 -1       314 4.42205E-03-4.01359E-03-2.11758E-22
 -1       315 3.90290E-03-3.43297E-03 0.00000E+00
 -1       316 3.13174E-03-2.74779E-03 0.00000E+00
 -1       317 2.21655E-03-2.03573E-03 2.64698E-23
 -1       318 1.34675E-03-1.33167E-03-1.05879E-22
 -1       319 6.98207E-04-6.87221E-04 5.29396E-23
 -1       320 3.34003E-04-2.08898E-04 0.00000E+00
 -1       336 3.10170E-04-3.44271E-06 0.00000E+00
 -1       337 2.96144E-04-4.03520E-06 0.00000E+00
 -1       338 2.80021E-04-4.65753E-06 1.32349E-23
 -1       339 2.61863E-04-5.31057E-06 6.61744E-24
 -1       340 2.41742E-04-5.99984E-06 0.00000E+00
 -1       406 1.85644E-04 9.60912E-07 3.30872E-24
 -1       407 1.86499E-04 1.09787E-06 1.24077E-24
 -1       408 1.87467E-04 1.23464E-06-8.27181E-25
 -1       409 1.88550E-04 1.37104E-06-4.13590E-25
 -1       410 1.89746E-04 1.50680E-06-2.48154E-24
 -1       521 4.75884E-03-2.37766E-04 0.00000E+00
 -1       522 4.80298E-03-8.11922E-04-5.29396E-23
 -1       523 4.77860E-03-1.64291E-03-1.05879E-22
 -1       524 4.69720E-03-2.58921E-03 0.00000E+00
 -1       525 4.64091E-03-3.48430E-03 1.05879E-22
 -1       526 4.66635E-03-4.16412E-03 0.00000E+00
 -1       527 4.72208E-03-4.50302E-03 0.00000E+00
 -1       528 4.69235E-03-4.46778E-03-1.05879E-22
 -1       529 4.43181E-03-4.08472E-03 2.11758E-22
 -1       530 3.88207E-03-3.49080E-03-5.29396E-23
 -1       531 3.07447E-03-2.79812E-03-1.05879E-22
 -1       532 2.12920E-03-2.08368E-03 0.00000E+00
 -1       533 1.22997E-03-1.37620E-03-2.11758E-22
 -1       534 5.47160E-04-7.20798E-04-1.05879E-22
 -1       535 1.57884E-04-2.26896E-04 0.00000E+00
 -1       536 2.18946E-04 2.94481E-05 3.30872E-24
 -1       537 2.16907E-04 9.19252E-05 1.65436E-24
 -1       538 2.13754E-04 1.71158E-04 3.30872E-24
 -1       539 2.10033E-04 2.57491E-04 1.65436E-24
 -1       540 2.06688E-04 3.39046E-04-3.30872E-24
 -1       541 2.04518E-04 4.03969E-04 0.00000E+00
 -1       542 2.03522E-04 4.45317E-04-3.30872E-24
 -1       543 2.03291E-04 4.56303E-04 0.00000E+00
 -1       544 2.02957E-04 4.37720E-04-3.30872E-24
 -1       545 2.01719E-04 3.90589E-04 0.00000E+00
 -1       546 1.99403E-04 3.23272E-04 0.00000E+00
 -1       547 1.96261E-04 2.44258E-04 1.65436E-24
 -1       548 1.93146E-04 1.65607E-04 0.00000E+00
 -1       549 1.90900E-04 9.93822E-05 1.65436E-24
 -1       550 1.89736E-04 5.38590E-05 0.00000E+00
 -1       551 1.93881E-04-7.22581E-06 0.00000E+00
 -1       552 1.64690E-04-7.83385E-06 0.00000E+00
 -1       553 1.32968E-04-8.51337E-06 0.00000E+00
 -1       554 9.95358E-05-9.24701E-06 1.65436E-24
 -1       555 6.52133E-05-1.00105E-05 0.00000E+00
 -1       556 2.11801E-04 1.35904E-05 0.00000E+00
 -1       557 2.05380E-04 3.00638E-05 0.00000E+00
 -1       558 2.00342E-04 4.30108E-05 0.00000E+00
 -1       559 1.96548E-04 5.27509E-05 0.00000E+00
 -1       560 1.93866E-04 5.96043E-05 0.00000E+00
 -1       561 1.92163E-04 6.38937E-05 0.00000E+00
 -1       562 1.91310E-04 6.59429E-05 0.00000E+00
 -1       563 1.91179E-04 6.60769E-05 0.00000E+00
 -1       564 1.91644E-04 6.46217E-05 0.00000E+00
 -1       565 1.92581E-04 6.19037E-05 0.00000E+00
 -1       566 1.93866E-04 5.82502E-05 1.32349E-23
 -1       567 1.95377E-04 5.39889E-05 0.00000E+00
 -1       568 1.96992E-04 4.94474E-05 0.00000E+00
 -1       569 1.98590E-04 4.49537E-05 0.00000E+00
 -1       570 2.00048E-04 4.08356E-05 0.00000E+00
 -1       571 1.89536E-04 3.48759E-05-8.27181E-25
 -1       572 1.89636E-04 3.25001E-05-1.24077E-24
 -1       573 1.89737E-04 3.00734E-05 0.00000E+00
 -1       574 1.89838E-04 2.76126E-05-8.27181E-25
 -1       575 1.89938E-04 2.51348E-05 3.30872E-24
 -1       576 1.90039E-04 2.26570E-05 0.00000E+00
 -1       577 1.90140E-04 2.01964E-05-6.61744E-24
 -1       578 1.90241E-04 1.77700E-05 0.00000E+00
 -1       579 1.90343E-04 1.53950E-05 6.61744E-24
 -1       580 1.90444E-04 1.30885E-05 0.00000E+00
 -1       581 1.90545E-04 1.08675E-05 6.61744E-24
 -1       582 1.90647E-04 8.74924E-06 3.30872E-24
 -1       583 1.90749E-04 6.75071E-06-6.61744E-24
 -1       584 1.90851E-04 4.88886E-06 3.30872E-24
 -1       585 1.90953E-04 3.18039E-06 0.00000E+00
 -1       586 1.91366E-04 3.72251E-05 1.65436E-24
 -1       587 1.93252E-04 3.72654E-05-8.27181E-25
 -1       588 1.95139E-04 3.73053E-05 8.27181E-25
 -1       589 1.97071E-04 3.73445E-05 0.00000E+00
 -1       590 1.99093E-04 3.73824E-05 0.00000E+00
 -1       591 1.90232E-04 3.49739E-05-1.03398E-25
 -1       592 1.91028E-04 3.27450E-05 0.00000E+00
 -1       593 1.91829E-04 3.05034E-05-8.27181E-25
 -1       594 1.92633E-04 2.82536E-05-4.13590E-25
 -1       595 1.93437E-04 2.60001E-05 0.00000E+00
 -1       596 1.94241E-04 2.37476E-05 4.13590E-25
 -1       597 1.95044E-04 2.15005E-05-8.27181E-25
 -1       598 1.95842E-04 1.92635E-05-4.13590E-25
 -1       599 1.96635E-04 1.70409E-05 0.00000E+00
 -1       600 1.97421E-04 1.48374E-05 0.00000E+00
 -1       601 1.98198E-04 1.26574E-05-8.27181E-25
 -1       602 1.98965E-04 1.05055E-05-4.13590E-25
 -1       603 1.99720E-04 8.38618E-06-4.13590E-25
 -1       604 2.00461E-04 6.30413E-06-1.55096E-25
 -1       605 2.01188E-04 4.26375E-06 0.00000E+00
 -1       606 1.91069E-04 3.39087E-07 0.00000E+00
 -1       607 1.91078E-04-8.78681E-07 0.00000E+00
 -1       608 1.91087E-04-2.01759E-06 0.00000E+00
 -1       609 1.91095E-04-3.08317E-06-1.65436E-24
 -1       610 1.91103E-04-4.08105E-06 0.00000E+00
 -1       611 1.91111E-04-5.01687E-06 0.00000E+00
 -1       612 1.91119E-04-5.89628E-06 0.00000E+00
 -1       613 1.91127E-04-6.72498E-06 0.00000E+00
 -1       614 1.91135E-04-7.50863E-06 0.00000E+00
 -1       615 1.91143E-04-8.25289E-06 0.00000E+00
 -1       616 1.91151E-04-8.96345E-06 0.00000E+00
 -1       617 1.91159E-04-9.64597E-06 4.13590E-25
 -1       618 1.91168E-04-1.03061E-05-8.27181E-25
 -1       619 1.91176E-04-1.09496E-05 2.06795E-25
 -1       620 1.91184E-04-1.15821E-05 0.00000E+00
 -1       621 1.92559E-04 1.74630E-06 0.00000E+00
 -1       622 1.94231E-04 1.85218E-06 0.00000E+00
 -1       623 1.96037E-04 1.95782E-06 1.65436E-24
 -1       624 1.97941E-04 2.06310E-06 8.27181E-25
 -1       625 1.99908E-04 2.16806E-06-3.30872E-24
 -1       626 1.91657E-04 3.75881E-07 3.30872E-24
 -1       627 1.92237E-04-8.28191E-07 0.00000E+00
 -1       628 1.92798E-04-1.97937E-06 0.00000E+00
 -1       629 1.93341E-04-3.08574E-06 1.65436E-24
 -1       630 1.93871E-04-4.15541E-06 3.30872E-24
 -1       631 1.94391E-04-5.19652E-06 0.00000E+00
 -1       632 1.94902E-04-6.21716E-06 3.30872E-24
 -1       633 1.95410E-04-7.22550E-06 1.65436E-24
 -1       634 1.95915E-04-8.22964E-06-3.30872E-24
 -1       635 1.96422E-04-9.23770E-06 0.00000E+00
 -1       636 1.96934E-04-1.02578E-05 0.00000E+00
 -1       637 1.97453E-04-1.12982E-05 0.00000E+00
 -1       638 1.97982E-04-1.23668E-05 1.65436E-24
 -1       639 1.98525E-04-1.34719E-05 0.00000E+00
 -1       640 1.99084E-04-1.46217E-05-1.65436E-24
 -1       656 1.92050E-04-1.27967E-05 0.00000E+00
 -1       657 1.93329E-04-1.34081E-05 6.61744E-24
 -1       658 1.94890E-04-1.40182E-05 0.00000E+00
 -1       659 1.96589E-04-1.46279E-05 0.00000E+00
 -1       660 1.98240E-04-1.52395E-05-6.61744E-24
 -1       661 1.91512E-04-1.28826E-05-8.27181E-25
 -1       662 1.91872E-04-1.36504E-05 8.27181E-25
 -1       663 1.92264E-04-1.45069E-05 1.65436E-24
 -1       664 1.92688E-04-1.54454E-05 8.27181E-25
 -1       665 1.93140E-04-1.64599E-05-1.65436E-24
 -1       666 1.93619E-04-1.75441E-05 8.27181E-25
 -1       667 1.94121E-04-1.86922E-05 1.65436E-24
 -1       668 1.94645E-04-1.98984E-05 8.27181E-25
 -1       669 1.95188E-04-2.11568E-05 0.00000E+00
 -1       670 1.95749E-04-2.24621E-05-8.27181E-25
 -1       671 1.96326E-04-2.38086E-05-1.65436E-24
 -1       672 1.96915E-04-2.51912E-05 0.00000E+00
 -1       673 1.97516E-04-2.66044E-05 0.00000E+00
 -1       674 1.98126E-04-2.80433E-05 0.00000E+00
 -1       675 1.98744E-04-2.95024E-05 0.00000E+00
 -1       676 1.91793E-04-3.04551E-05 0.00000E+00
 -1       677 1.93312E-04-3.05605E-05-1.65436E-24
 -1       678 1.94830E-04-3.06658E-05-3.30872E-24
 -1       679 1.96345E-04-3.07708E-05 1.65436E-24
 -1       680 1.97856E-04-3.08758E-05 0.00000E+00
 -1       771 1.77510E-05 1.86414E-05 0.00000E+00
 -1       772 6.79088E-06 4.27961E-05 0.00000E+00
 -1       773-2.16018E-06 6.19215E-05 1.05879E-22
 -1       774-9.24235E-06 7.63012E-05 0.00000E+00
 -1       775-1.45920E-05 8.62308E-05 0.00000E+00
 -1       776-1.83512E-05 9.20247E-05-2.64698E-23
 -1       777-2.06611E-05 9.40088E-05 0.00000E+00
 -1       778-2.16657E-05 9.25247E-05 2.64698E-23
 -1       779-2.15080E-05 8.79236E-05 0.00000E+00
 -1       780-2.03329E-05 8.05695E-05 0.00000E+00
 -1       781-1.82840E-05 7.08344E-05 0.00000E+00
 -1       782-1.55066E-05 5.91001E-05 0.00000E+00
 -1       783-1.21447E-05 4.57536E-05 0.00000E+00
 -1       784-8.34326E-06 3.11893E-05 0.00000E+00
 -1       785-4.24643E-06 1.58046E-05 0.00000E+00
 -1       786 2.01284E-04 3.49868E-05 2.58494E-26
 -1       787 2.01324E-04 3.26086E-05 0.00000E+00
 -1       788 2.01364E-04 3.02733E-05 8.27181E-25
 -1       789 2.01404E-04 2.79726E-05 0.00000E+00
 -1       790 2.01445E-04 2.57015E-05 0.00000E+00
 -1       791 2.01486E-04 2.34554E-05-8.27181E-25
 -1       792 2.01527E-04 2.12319E-05-1.65436E-24
 -1       793 2.01569E-04 1.90286E-05 0.00000E+00
 -1       794 2.01610E-04 1.68453E-05-1.65436E-24
 -1       795 2.01651E-04 1.46817E-05-8.27181E-25
 -1       796 2.01692E-04 1.25396E-05 0.00000E+00
 -1       797 2.01734E-04 1.04207E-05 0.00000E+00
 -1       798 2.01775E-04 8.32897E-06-1.65436E-24
 -1       799 2.01817E-04 6.26862E-06 0.00000E+00
 -1       800 2.01858E-04 4.24679E-06 0.00000E+00
 -1       801 1.53176E-04 3.36893E-05 0.00000E+00
 -1       802 7.92611E-06 2.09231E-05 2.64698E-23
 -1       803-1.15997E-04 1.04832E-05 5.29396E-23
 -1       804-1.02785E-04 7.32594E-06 0.00000E+00
 -1       805-3.43762E-05 2.85236E-06 0.00000E+00
 -1       806 2.02041E-04 3.49168E-05-1.65436E-24
 -1       807 2.02820E-04 3.24441E-05-1.65436E-24
 -1       808 2.03587E-04 3.00036E-05 3.30872E-24
 -1       809 2.04339E-04 2.75994E-05-1.65436E-24
 -1       810 2.05077E-04 2.52356E-05-3.30872E-24
 -1       811 2.05798E-04 2.29161E-05 1.65436E-24
 -1       812 2.06500E-04 2.06450E-05 3.30872E-24
 -1       813 2.07184E-04 1.84263E-05-1.65436E-24
 -1       814 2.07846E-04 1.62639E-05 0.00000E+00
 -1       815 2.08486E-04 1.41618E-05 0.00000E+00
 -1       816 2.09101E-04 1.21240E-05-1.65436E-24
 -1       817 2.09692E-04 1.01544E-05 8.27181E-25
 -1       818 2.10255E-04 8.25695E-06-3.30872E-24
 -1       819 2.10791E-04 6.43563E-06 8.27181E-25
 -1       820 2.11297E-04 4.69429E-06-1.65436E-24
 -1       821 2.01770E-04-3.79762E-07 1.65436E-24
 -1       822 2.01626E-04-4.41891E-06 1.65436E-24
 -1       823 2.01480E-04-9.34715E-06 0.00000E+00
 -1       824 2.01330E-04-1.46593E-05 0.00000E+00
 -1       825 2.01181E-04-1.97457E-05-3.30872E-24
 -1       826 2.01036E-04-2.39976E-05 1.65436E-24
 -1       827 2.00894E-04-2.70357E-05 0.00000E+00
 -1       828 2.00756E-04-2.84880E-05 0.00000E+00
 -1       829 2.00620E-04-2.84176E-05-3.30872E-24
 -1       830 2.00482E-04-2.68969E-05 0.00000E+00
 -1       831 2.00342E-04-2.43962E-05 0.00000E+00
 -1       832 2.00201E-04-2.13918E-05 0.00000E+00
 -1       833 2.00061E-04-1.84986E-05-3.30872E-24
 -1       834 1.99924E-04-1.63303E-05 0.00000E+00
 -1       835 1.99788E-04-1.53027E-05-8.27181E-25
 -1       836 2.03762E-04 2.39775E-06 3.30872E-24
 -1       837 2.05496E-04 2.52796E-06-1.65436E-24
 -1       838 2.07134E-04 2.65813E-06 0.00000E+00
 -1       839 2.08705E-04 2.78759E-06 0.00000E+00
 -1       840 2.10241E-04 2.91690E-06-8.27181E-25
 -1       856 1.99645E-04-1.70496E-05 0.00000E+00
 -1       857 1.99627E-04-1.81381E-05 0.00000E+00
 -1       858 1.99609E-04-1.91110E-05-2.06795E-25
 -1       859 1.99590E-04-1.99896E-05-2.06795E-25
 -1       860 1.99572E-04-2.07953E-05 0.00000E+00
 -1       861 1.99553E-04-2.15495E-05 2.06795E-25
 -1       862 1.99534E-04-2.22737E-05 0.00000E+00
 -1       863 1.99516E-04-2.29893E-05 0.00000E+00
 -1       864 1.99497E-04-2.37179E-05 0.00000E+00
 -1       865 1.99478E-04-2.44808E-05 2.06795E-25
 -1       866 1.99460E-04-2.52996E-05 8.27181E-25
 -1       867 1.99441E-04-2.61956E-05 4.13590E-25
 -1       868 1.99422E-04-2.71903E-05 0.00000E+00
 -1       869 1.99403E-04-2.83049E-05 0.00000E+00
 -1       870 1.99383E-04-2.95606E-05 0.00000E+00
 -1       871 2.01178E-04-1.58297E-05 0.00000E+00
 -1       872 2.02845E-04-1.58387E-05 0.00000E+00
 -1       873 2.04593E-04-1.58483E-05 0.00000E+00
 -1       874 2.06351E-04-1.58587E-05-3.87741E-25
 -1       875 2.08050E-04-1.58697E-05 4.13590E-25
 -1       876 2.00248E-04-1.70348E-05-3.30872E-24
 -1       877 2.00814E-04-1.81778E-05 1.65436E-24
 -1       878 2.01358E-04-1.92615E-05-3.30872E-24
 -1       879 2.01882E-04-2.02933E-05 0.00000E+00
 -1       880 2.02391E-04-2.12805E-05 0.00000E+00
 -1       881 2.02885E-04-2.22307E-05 1.65436E-24
 -1       882 2.03368E-04-2.31513E-05 3.30872E-24
 -1       883 2.03843E-04-2.40497E-05 1.65436E-24
 -1       884 2.04312E-04-2.49331E-05-3.30872E-24
 -1       885 2.04779E-04-2.58092E-05 1.65436E-24
 -1       886 2.05245E-04-2.66852E-05-3.30872E-24
 -1       887 2.05715E-04-2.75685E-05-1.65436E-24
 -1       888 2.06189E-04-2.84665E-05 3.30872E-24
 -1       889 2.06671E-04-2.93869E-05-1.65436E-24
 -1       890 2.07164E-04-3.03370E-05 1.65436E-24
 -1       891 2.00889E-04-3.10369E-05-1.65436E-24
 -1       892 2.02392E-04-3.10955E-05 0.00000E+00
 -1       893 2.03846E-04-3.11539E-05-1.65436E-24
 -1       894 2.05226E-04-3.12121E-05-4.13590E-25
 -1       895 2.06507E-04-3.12700E-05 0.00000E+00
 -1       956 2.11641E-04 1.55762E-06 0.00000E+00
 -1       957 2.11506E-04 1.72151E-07 0.00000E+00
 -1       958 2.11372E-04-1.13067E-06-3.30872E-24
 -1       959 2.11237E-04-2.36251E-06-1.65436E-24
 -1       960 2.11102E-04-3.53507E-06 0.00000E+00
 -1       961 2.10967E-04-4.66010E-06 1.65436E-24
 -1       962 2.10832E-04-5.74936E-06 3.30872E-24
 -1       963 2.10697E-04-6.81462E-06 1.65436E-24
 -1       964 2.10562E-04-7.86765E-06 0.00000E+00
 -1       965 2.10427E-04-8.92021E-06-1.65436E-24
 -1       966 2.10293E-04-9.98410E-06 3.30872E-24
 -1       967 2.10158E-04-1.10711E-05 1.65436E-24
 -1       968 2.10023E-04-1.21929E-05-6.61744E-24
 -1       969 2.09888E-04-1.33613E-05 0.00000E+00
 -1       970 2.09754E-04-1.45880E-05 0.00000E+00
 -1       971 2.09500E-04-1.71818E-05-3.30872E-24
 -1       972 2.09377E-04-1.83847E-05 0.00000E+00
 -1       973 2.09254E-04-1.95031E-05 3.30872E-24
 -1       974 2.09131E-04-2.05481E-05 0.00000E+00
 -1       975 2.09008E-04-2.15304E-05 3.30872E-24
 -1       976 2.08885E-04-2.24610E-05-1.65436E-24
 -1       977 2.08762E-04-2.33508E-05 0.00000E+00
 -1       978 2.08639E-04-2.42108E-05 0.00000E+00
 -1       979 2.08516E-04-2.50517E-05 0.00000E+00
 -1       980 2.08393E-04-2.58847E-05 0.00000E+00
 -1       981 2.08270E-04-2.67205E-05 0.00000E+00
 -1       982 2.08147E-04-2.75703E-05 1.65436E-24
 -1       983 2.08025E-04-2.84448E-05-3.30872E-24
 -1       984 2.07902E-04-2.93550E-05 1.65436E-24
 -1       985 2.07781E-04-3.03119E-05 3.30872E-24
 -3
    1PSTEP                        60          30           1          
  100CL  130 6.68715E-01         409                     0   30           1
 -4  STRESS      6    1
 -5  SXX         1    4    1    1
 -5  SYY         1    4    2    2
 -5  SZZ         1    4    3    3
 -5  SXY         1    4    1    2
 -5  SYZ         1    4    2    3
 -5  SZX         1    4    3    1
 -1         1-5.18591E+06-1.66942E+06-1.12974E+06-1.46316E+06-2.91038E-10 1.17579E-08
 -1         2-7.14590E+03-6.74297E+06-1.96946E+04-2.20622E+05-1.38709E-09-1.90524E-07
 -1         3-1.55560E+03-1.30726E+06 3.30578E+02-1.89956E+03-4.01283E-10-7.02130E-09
 -1         5-9.25885E+01 3.93470E+05 1.01501E+01-1.54146E+00-6.23078E-10 5.74073E-09
 -1         8-2.18234E+05-6.40334E+04 1.87338E+04-9.81586E+04 2.43745E-10-1.02384E-07
 -1         9 2.08605E+07-1.55257E+06 3.24156E+06-3.41616E+06 3.90457E-08-2.00095E-07
 -1        10-2.36293E+03-1.36216E+06-4.45649E+03-1.28936E+04-1.40626E-08-6.55222E-08
 -1        12-8.86503E+01 3.93492E+05 3.34749E+02-1.04211E+01-9.88450E-10 2.65081E-08
 -1        15 8.50189E+02 4.67222E+02 2.74822E+03 9.56935E-01 6.30109E-11 9.20186E-07
 -1        16 4.11855E+07-9.37699E+05 5.26105E+06-5.11259E+06 6.09240E-09-8.17236E-08
 -1        17 1.39493E+07 1.35275E+07 4.33394E+06 1.19162E+07-7.85803E-09 1.87196E-08
 -1        18 1.54999E+05 3.70328E+04 6.66798E+03-1.22712E+05 1.20103E-08 8.23002E-09
 -1        19 1.24540E+05 1.44104E+05-9.63924E+02 2.21755E+04 1.92322E-09-1.80589E-09
 -1        20-8.52822E+04-5.83203E+05-1.31003E+05 2.44454E+04-3.71422E-09 1.54650E-08
 -1        21-4.55402E+01-2.98580E+05-9.29713E+02 3.11315E+02 1.91030E-08-2.24996E-08
 -1        24 2.39087E+07 2.43649E+07 6.73516E+06 2.21629E+07-2.19491E-07-4.89720E-08
 -1        25 1.53170E+05 3.74125E+05 1.27041E+05-7.03690E+05 8.18545E-12 1.17019E-08
 -1        26-5.70359E+04 9.39076E+04-2.51268E+04 2.11340E+03-3.31056E-10 8.73895E-09
 -1        27-7.54073E+04-3.14702E+05-1.14771E+05 7.00089E+04 3.17868E-09 6.55594E-09
 -1        28 2.23752E+04-8.63423E+04 1.70550E+04 2.03985E+04-1.91409E-09-3.93056E-09
 -1        32-1.69390E+06-3.30693E+06-2.15419E+05 5.53077E+05-4.74465E-08-1.28521E-08
 -1        33-1.81121E+05 9.47535E+04 3.29302E+04-3.84513E+04-3.68554E-09-8.18788E-09
 -1        34-2.26624E+05-2.55879E+04 7.09921E+02 7.71742E+04-6.55174E-09 8.30141E-09
 -1        35-2.30991E+04-3.42380E+04-1.36521E+03 5.19358E+04-6.62830E-09 1.65989E-08
 -1        51 6.07770E+04-1.34204E+05 1.29168E+05-4.51761E+05 4.36557E-11 6.82485E-08
 -1        52 2.05529E+04-1.11776E+05 6.77409E+04-5.26495E+05 4.81123E-10 1.27089E-07
 -1        53 4.17284E+03-1.27698E+05 3.51225E+04-4.50026E+05 7.33053E-10 2.20381E-07
 -1        54 7.58971E+03-1.23809E+05 2.86471E+04-5.28348E+05 1.70985E-10 3.71710E-08
 -1        55 1.62744E+04-1.31057E+05 3.45596E+04-4.49754E+05 5.96629E-10 1.27133E-07
 -1        56-9.88396E+06-1.42250E+06-9.50419E+05-4.13019E+06 1.12050E-08-1.03551E-07
 -1        57-1.08973E+07-9.38226E+05-5.35309E+05-2.84862E+06 2.79470E-08 3.84345E-07
 -1        58-9.57292E+06-1.96713E+06-2.14413E+05-4.39974E+06-3.61906E-08-3.39278E-08
 -1        59-1.13802E+07-2.22782E+05-1.07377E+05-2.68845E+06-1.04919E-08-4.00447E-07
 -1        60-9.54763E+06-2.02701E+06-4.81889E+04-4.41935E+06 7.22139E-09-4.11746E-08
 -1        61-1.08605E+07-4.61526E+05 1.32671E+04-2.84142E+06-8.11815E-08-7.91078E-08
 -1        62-9.97963E+06-1.80327E+06-7.80492E+04-4.15110E+06 1.74623E-09-8.92251E-08
 -1        63-9.78275E+06-1.22943E+06 6.72353E+04-3.46821E+06-7.69069E-09 1.22938E-07
 -1        64-1.04516E+07-1.38069E+06-9.31756E+04-3.66686E+06-3.92320E-08-2.38280E-07
 -1        65-9.20571E+06-1.98895E+06 3.15367E+04-4.47983E+06-3.74348E-08-4.20288E-07
 -1        66-1.06491E+07-9.81743E+05-6.13748E+04-3.22252E+06 7.85076E-09-7.09115E-08
 -1        67-9.19926E+06-2.38068E+06-9.34966E+04-5.14904E+06-6.90670E-09-1.67885E-07
 -1        68-1.06496E+07-8.54589E+05-1.80132E+05-3.12395E+06-7.97362E-08-1.41241E-07
 -1        69-9.35741E+06-2.54150E+06-4.92461E+05-4.83698E+06-2.83399E-08-2.33282E-07
 -1        70-1.04102E+07-8.88836E+05-8.44732E+05-3.47925E+06-2.35596E-08-5.37722E-07
 -1        86 2.08157E+03-6.80996E+06-3.74070E+04 1.10296E+05 1.26956E-08 6.69702E-08
 -1        87-2.45200E+04-6.76212E+06-5.74271E+04-2.33150E+05 2.20716E-08 4.26925E-07
 -1        88 2.38548E+04-6.79391E+06-1.06500E+05 1.22848E+05 9.49876E-09 1.30977E-07
 -1        89-1.89314E+05-6.82836E+06-2.65857E+05-2.45498E+04 9.21864E-09-7.62182E-08
 -1        90 1.62004E+05-6.74164E+06-3.97951E+05-9.83241E+04-1.28057E-08 4.24025E-07
 -1       121-2.12097E+03-1.31232E+06-6.81982E+02 9.39539E+02 1.46385E-09 7.49424E-10
 -1       122-1.39798E+03-1.30732E+06 5.96685E+02-3.80936E+03-5.52799E-09-2.66846E-08
 -1       123-2.13391E+03-1.31244E+06-9.82307E+01 2.80857E+03 4.37035E-09-8.18545E-09
 -1       124-2.72951E+01-1.30697E+06 2.21689E+03-8.06267E+03-1.05492E-08 2.21298E-08
 -1       125-2.79897E+03-1.31318E+06 2.18178E+03 5.14175E+03 6.76482E-09-1.51558E-08
 -1       191-9.74998E+01 3.93485E+05 7.81781E+00 8.09836E-01-6.90290E-10 5.06407E-09
 -1       192-9.35800E+01 3.93471E+05 2.16994E+01-4.86723E+00-9.42019E-10 5.23505E-09
 -1       193-1.00104E+02 3.93485E+05 3.61587E+01 4.29616E+00-1.22388E-09 1.39771E-08
 -1       194-9.67562E+01 3.93474E+05 8.25874E+01-1.10212E+01-4.97025E-10 6.17001E-09
 -1       195-1.05100E+02 3.93482E+05 1.57333E+02 7.22232E+00-1.70102E-09 1.89029E-08
 -1       251-2.58291E+06-1.08250E+05-3.42866E+05-2.13036E+05 1.31004E-08 1.64990E-07
 -1       252-4.71819E+05 1.32856E+05 1.77547E+05 6.38618E+05-3.21088E-08 2.47610E-08
 -1       253-1.68802E+06-4.05170E+04-5.76426E+04-4.13198E+05 2.11003E-10-1.52892E-07
 -1       254-1.47512E+06 1.42469E+05 3.38119E+04 8.26999E+05 7.70459E-09-1.75893E-07
 -1       255-1.67762E+06-3.72276E+04-3.29196E+04-4.14207E+05 1.24401E-08-1.00608E-07
 -1       256-4.99641E+05 1.11126E+05 2.23036E+05 6.43756E+05 3.42407E-08 4.91557E-07
 -1       257-2.56749E+06-8.82097E+04-2.19970E+05-2.17346E+05 2.65209E-09 2.99278E-07
 -1       258 5.57716E+05 7.99582E+04 4.19946E+05 3.52627E+04 2.79524E-08 1.32272E-07
 -1       259-2.63026E+06-9.18900E+04-2.31334E+05 1.87377E+05 6.35446E-08 1.26588E-07
 -1       260-3.49942E+05 1.10995E+05 2.56968E+05-6.02132E+05-3.33039E-08-2.81038E-07
 -1       261-1.74969E+06-4.55894E+04-3.74522E+04 4.10345E+05 9.65883E-08 4.85261E-07
 -1       262-1.46196E+06 1.58524E+05 6.38084E+04-8.21993E+05-1.99364E-08 1.43825E-08
 -1       263-1.62813E+06-4.89657E+04 1.79087E+03 4.21097E+05 2.49975E-08-2.14586E-07
 -1       264-5.85768E+05 2.26209E+05 2.73350E+05-6.74908E+05 1.86119E-07-2.14495E-08
 -1       265-2.54369E+06-1.80646E+05-1.51579E+05 2.51655E+05 6.35082E-08 2.70033E-07
 -1       266-1.53915E+04-7.19802E+03 3.61087E+04-2.04735E+01 9.64064E-11-3.77632E-08
 -1       267 1.78427E+04 8.38806E+03 2.55233E+04 2.36248E+01 1.45519E-10-2.22121E-07
 -1       268-2.39269E+03-1.18806E+03 9.48676E+03-3.01007E+00 1.85082E-10-4.12585E-08
 -1       269 2.82504E+03 1.42177E+03 6.16635E+03 3.50643E+00-4.20982E-10-4.02265E-07
 -1       270-4.24043E+02-2.33611E+02 2.97658E+03-4.75841E-01 2.58183E-10 4.12103E-07
 -1       271-1.38258E+06-1.53944E+05-1.01755E+05-5.11395E+05-5.63778E-08 5.03751E-08
 -1       272-1.52966E+06-1.16550E+05-6.52117E+04-3.85524E+05 1.08019E-07 2.55382E-07
 -1       273-1.39964E+06-1.80882E+05-2.39426E+04-5.09377E+05 2.09120E-08 1.07118E-07
 -1       274-1.51085E+06-8.27233E+04-1.33976E+04-3.89724E+05-7.79030E-08-2.47882E-07
 -1       275-1.40185E+06-1.83954E+05-5.52015E+03-5.09082E+05 4.70077E-08-1.74167E-07
 -1       276-1.50649E+06-8.01255E+04-2.81776E+03-3.90823E+05 2.19188E-09-4.82987E-08
 -1       277-1.40309E+06-1.83688E+05-1.51604E+03-5.07783E+05-3.65671E-08-7.87177E-08
 -1       278-1.50080E+06-8.32062E+04-5.45559E+02-3.92826E+05-1.75824E-08 4.50558E-07
 -1       279-1.40496E+06-1.82451E+05-1.17463E+03-5.05250E+05 4.18368E-09-3.02808E-07
 -1       280-1.49218E+06-8.89318E+04-3.78187E+02-3.96217E+05-1.85464E-08 3.89373E-08
 -1       281-1.40768E+06-1.80489E+05-2.58891E+03-5.01568E+05 3.36586E-08-1.41001E-07
 -1       282-1.48141E+06-9.74755E+04-2.62280E+03-4.01144E+05-9.02928E-08-3.65617E-09
 -1       283-1.41068E+06-1.77173E+05-7.84426E+03-4.96844E+05-1.70112E-08-1.23677E-07
 -1       284-1.47275E+06-1.14783E+05-1.52539E+04-4.07216E+05-3.41806E-08-1.96781E-07
 -1       285-1.41091E+06-1.67482E+05-2.83033E+04-4.91585E+05-2.01035E-08 1.97967E-07
 -1       301-1.54807E+04-9.42216E+05 1.38129E+05-1.38185E+06 4.17640E-09-2.33405E-07
 -1       302-1.84445E+04-9.01194E+05 8.19345E+04-2.01774E+06-7.85803E-10-1.84571E-07
 -1       303-2.80793E+04-9.35326E+05 4.15664E+04-1.37870E+06 3.10683E-09-7.27596E-11
 -1       304-4.23981E+04-8.95409E+05 3.42042E+04-2.01571E+06 1.73168E-09-2.04695E-07
 -1       305-4.89383E+04-9.04669E+05 2.96380E+04-1.38252E+06 3.97267E-09-2.29338E-07
 -1       306-4.87596E+07-8.89234E+06-1.40648E+07 2.61871E+06-1.89175E-07 6.33008E-08
 -1       307 4.51914E+07 1.07499E+07 1.00926E+07-2.43193E+07-9.14093E-07-6.83940E-07
 -1       308-3.90432E+06-3.98212E+06-7.71621E+05 7.89993E+06 2.43919E-07 5.49684E-07
 -1       309-9.45572E+05 2.32137E+07 5.11239E+06-2.76182E+07 7.96652E-07-4.92291E-08
 -1       310-1.74753E+07-6.31669E+06-4.60196E+06 1.05488E+07-7.68574E-07-1.34343E-07
 -1       311 7.42363E+07 3.22918E+06 1.37528E+07-1.29516E+07-6.68369E-07 1.18685E-07
 -1       312-5.29583E+07-9.13954E+06-1.45111E+07-9.08176E+06-6.79865E-08-4.20259E-08
 -1       313 7.40793E+07 3.50404E+07 1.88596E+07 4.47552E+07-3.78466E-07 4.07133E-07
 -1       314-1.98414E+07-3.50530E+07-1.25884E+07-1.98428E+07 4.25556E-07-5.01866E-07
 -1       315-1.09333E+06 5.52745E+07 1.00234E+07 1.15970E+07-1.17463E-07-5.22006E-07
 -1       316 3.61316E+06-1.20966E+07-7.79970E+05 2.26946E+06 3.08617E-07-1.05175E-06
 -1       317-1.14051E+07 3.37204E+07 5.10194E+06-2.05449E+07-2.76486E-10-1.40967E-06
 -1       318 1.40474E+04-2.30489E+07-4.63344E+06-1.49617E+06-1.43599E-06 8.87667E-08
 -1       319 1.50075E+07 6.53148E+07 1.38842E+07 2.76909E+07-1.07900E-06 2.13680E-07
 -1       320-3.29648E+07-3.28316E+07-1.64906E+07-2.29026E+07-5.20726E-07-3.73693E-08
 -1       336-1.09799E+03-1.42052E+06-1.41773E+04 7.56384E+03-2.71975E-08 2.02417E-08
 -1       337-5.89838E+03-1.41956E+06-2.01721E+04-1.86212E+04-5.06459E-08-5.60794E-09
 -1       338 4.60616E+02-1.41951E+06-3.32933E+04 1.07746E+04-3.57941E-08-2.78960E-08
 -1       339-3.63096E+04-1.44000E+06-7.64306E+04-2.50287E+04-6.38684E-08 6.93217E-09
 -1       340 2.37998E+04-1.40205E+06-1.20680E+05 1.37953E+04-4.22806E-08 1.00845E-08
 -1       406-6.72903E+01 3.93467E+05 6.56460E+02 3.94342E+00-2.26771E-09 3.03662E-08
 -1       407 1.42265E+02 3.93608E+05 1.40467E+03 2.56485E+01-5.62181E-10 1.66356E-08
 -1       408 6.31468E+02 3.93365E+05 2.79976E+03-2.97983E+01-2.64140E-09 2.19825E-08
 -1       409 2.95160E+03 3.94502E+05 6.31213E+03 3.20504E+02-4.71346E-10 4.66489E-08
 -1       410 8.63904E+03 3.92557E+05 1.28821E+04-3.09510E+02-3.35240E-09 1.94304E-08
 -1       521-4.71735E+07-1.26359E+07-1.68179E+07 3.28433E+06-1.21770E-07-3.36498E-07
 -1       522 4.27071E+07 1.41627E+07 9.49116E+06-3.13396E+07-6.83707E-07-6.88480E-07
 -1       523-3.76969E+06-4.10041E+06-4.21237E+05 7.85693E+06 2.10013E-07-2.26195E-07
 -1       524-1.12717E+07 3.01294E+07 4.97622E+06-3.09320E+07 1.42839E-06-5.04195E-07
 -1       525-1.64598E+07-7.40075E+06-4.71189E+06 9.96269E+06 1.11281E-06-3.31958E-07
 -1       526 7.86306E+07 2.71862E+06 1.33036E+07-1.84459E+07 2.83122E-07-3.59141E-07
 -1       527-5.21434E+07-1.34603E+07-1.71996E+07-7.76990E+06 1.94879E-07-1.67522E-07
 -1       528 7.85634E+07 3.87093E+07 1.82324E+07 5.12200E+07-1.19733E-07 2.41562E-08
 -1       529-2.06083E+07-3.66884E+07-1.46097E+07-1.68164E+07 8.73115E-09-3.40049E-07
 -1       530-6.52130E+06 6.23026E+07 9.82174E+06 6.23070E+06 6.74336E-08 7.34988E-07
 -1       531 3.31449E+06-1.20538E+07-3.78677E+05 2.61551E+06-1.00568E-06 9.13686E-07
 -1       532-1.24865E+07 3.10422E+07 4.95224E+06-3.06316E+07 4.90749E-07-1.17058E-06
 -1       533-7.12949E+05-2.18701E+07-4.63721E+06-2.90474E+05-6.75253E-07-1.12713E-06
 -1       534 9.40556E+06 7.36552E+07 1.30949E+07 2.61736E+07 6.52508E-08 1.04698E-06
 -1       535-3.33733E+07-3.55767E+07-1.96344E+07-1.98904E+07 1.97440E-07 6.18398E-07
 -1       536-7.18304E+05-3.07976E+04-9.52149E+04-5.73363E+04-3.38423E-09 5.95210E-08
 -1       537-4.44154E+04 2.56528E+04 5.82292E+04 1.29039E+05-1.18736E-07 9.19736E-08
 -1       538-3.93720E+05 6.51439E+03-7.55727E+03-7.48566E+04 3.97436E-08 1.13984E-07
 -1       539-2.63111E+05-2.40471E+02 1.95194E+04 1.44149E+05 1.72142E-07 9.52518E-08
 -1       540-5.05312E+05-1.20639E+02-2.57391E+04-7.30344E+04-7.74617E-09 1.00168E-07
 -1       541 1.80699E+05 1.76097E+04 1.11660E+05 1.02397E+05 2.45182E-08 9.89362E-08
 -1       542-8.25596E+05-2.13248E+04-9.03253E+04-3.21409E+04 7.89282E-08 3.60453E-08
 -1       543 4.55657E+05 2.89657E+04 1.67716E+05-1.38685E+04 2.22246E-08-1.55146E-08
 -1       544-7.72893E+05-1.76042E+04-7.98045E+04 4.24937E+04 7.84712E-09-4.71218E-08
 -1       545 5.58282E+04 1.01937E+04 8.50722E+04-1.18389E+05 2.25555E-08-7.69708E-08
 -1       546-4.36519E+05 6.38328E+03-1.29875E+04 7.19973E+04 4.41696E-08-8.97089E-08
 -1       547-2.80697E+05-4.61070E+03 1.17819E+04-1.46930E+05-9.82607E-08-1.09099E-07
 -1       548-4.45428E+05 4.80317E+03-2.47117E+04 7.17961E+04-1.15807E-07-8.73074E-08
 -1       549 7.55962E+04 1.84876E+04 6.61936E+04-1.16359E+05-6.25142E-08-7.44412E-08
 -1       550-7.83281E+05-2.47061E+04-1.34420E+05 4.06391E+04-8.56744E-10-5.28671E-08
 -1       551 2.67221E+04-5.62550E+05-4.73689E+04-1.06919E+06-1.07029E-07 2.02854E-08
 -1       552 7.45818E+04-6.07886E+05-9.70239E+03-1.52207E+06-7.59755E-08 5.09172E-08
 -1       553 6.08472E+04-6.04736E+05 1.88760E+04-1.06259E+06-1.23677E-07 3.01807E-08
 -1       554 1.16208E+05-6.25881E+05 6.55451E+04-1.52466E+06-7.87695E-08 1.40572E-08
 -1       555 9.19464E+04-6.32782E+05 1.26164E+05-1.06115E+06-1.29992E-07-1.03246E-08
 -1       556 2.36071E+05-4.05139E+05-2.13332E+04-4.11878E+05-2.06055E-08-9.02219E-10
 -1       557 3.61588E+05-5.10041E+05-8.06969E+03-5.41721E+05 4.58385E-09-9.62609E-09
 -1       558 2.13700E+05-3.88859E+05-8.22882E+03-4.22642E+05-2.11294E-08-8.15635E-09
 -1       559 3.40681E+05-5.03712E+05-2.67121E+03-5.63491E+05 2.26282E-08 8.13088E-09
 -1       560 1.97093E+05-3.78473E+05-4.04319E+03-4.34649E+05 7.01402E-09-1.26602E-09
 -1       561 3.20532E+05-4.95260E+05-1.04772E+03-5.77427E+05-1.73750E-08-4.01087E-09
 -1       562 1.84114E+05-3.70482E+05-1.98789E+03-4.44029E+05-4.10364E-09 9.45874E-10
 -1       563 3.05193E+05-4.88553E+05-3.15737E+02-5.87464E+05-6.73026E-09-1.17534E-08
 -1       564 1.74841E+05-3.64724E+05-7.85054E+02-4.50596E+05 1.49885E-09-3.46927E-09
 -1       565 2.94948E+05-4.84088E+05-4.19543E+01-5.94014E+05 1.46101E-08 4.23506E-09
 -1       566 1.69380E+05-3.61275E+05-3.16397E+02-4.54413E+05 2.98314E-09 3.03771E-09
 -1       567 2.89895E+05-4.81890E+05-4.02447E+02-5.97090E+05 2.29920E-08 1.19144E-08
 -1       568 1.67822E+05-3.60320E+05-1.20401E+03-4.55597E+05 2.48474E-09 1.74769E-08
 -1       569 2.88609E+05-4.81803E+05-3.02799E+03-5.95712E+05 2.11912E-10 1.57670E-08
 -1       570 1.71293E+05-3.63656E+05-6.60108E+03-4.54529E+05 1.66765E-08 1.46147E-08
 -1       571 2.95940E+05 1.07015E+04 1.52053E+04-9.87064E+04 4.43379E-09 2.03950E-08
 -1       572 2.98137E+05 4.06573E+03 7.45201E+03-1.08293E+05 7.92397E-09-4.31464E-09
 -1       573 2.96812E+05 1.30816E+03 3.31122E+03-9.85268E+04 6.93763E-09-3.54703E-09
 -1       574 2.97024E+05 7.87110E+02 1.66068E+03-1.08524E+05 2.91539E-09-2.17115E-08
 -1       575 2.96907E+05 4.99050E+02 7.83860E+02-9.85021E+04-7.43505E-09-1.20053E-09
 -1       576 2.96887E+05 5.14674E+02 4.01489E+02-1.08555E+05-1.08228E-08 1.45355E-08
 -1       577 2.96950E+05 4.38543E+02 2.00543E+02-9.84988E+04-5.84623E-09 5.56702E-09
 -1       578 2.96923E+05 4.73613E+02 1.16211E+02-1.08559E+05-9.93896E-09-7.26777E-09
 -1       579 2.97028E+05 3.98061E+02 8.01440E+01-9.84984E+04 6.23186E-09 6.60839E-09
 -1       580 2.97033E+05 4.17733E+02 9.38375E+01-1.08554E+05-4.81305E-09-4.88217E-09
 -1       581 2.97152E+05 3.33894E+02 1.42010E+02-9.85046E+04 1.40062E-10 1.09503E-09
 -1       582 2.97222E+05 3.75025E+02 2.89505E+02-1.08490E+05-1.69002E-08 1.05765E-08
 -1       583 2.97305E+05 3.73624E+02 5.55267E+02-9.85635E+04-1.28639E-08 6.72117E-10
 -1       584 2.97621E+05 8.28792E+02 1.25725E+03-1.07994E+05 2.61934E-09-1.84068E-08
 -1       585 2.97340E+05 1.88254E+03 2.54513E+03-9.89997E+04-1.82808E-09-2.92493E-09
 -1       586-3.48699E+03 1.20965E+05-2.84116E+03-2.54682E+05-6.77073E-09-1.11540E-08
 -1       587-1.42297E+03 1.20738E+05 8.60514E+02-2.80295E+05-8.61473E-09-7.50799E-09
 -1       588 3.38000E+02 1.20519E+05 4.90334E+03-2.54540E+05-4.32374E-09 1.77879E-08
 -1       589 5.12236E+03 1.23061E+05 1.26515E+04-2.80062E+05-5.97538E-09 3.83989E-09
 -1       590 1.69245E+04 1.19156E+05 2.65133E+04-2.54980E+05-6.70934E-09 8.88213E-09
 -1       591-7.76418E+04-1.62549E+04-2.31255E+04-3.27437E+04-4.88717E-09 2.00325E-08
 -1       592-8.19417E+04-1.98045E+04-1.25267E+04-3.63480E+04-8.98272E-09 8.00094E-09
 -1       593-7.99536E+04-1.45779E+04-5.21419E+03-3.44403E+04-1.91849E-09 1.02136E-08
 -1       594-7.87502E+04-1.64095E+04-2.60044E+03-3.64669E+04 5.13282E-10 1.07382E-08
 -1       595-8.01298E+04-1.45725E+04-1.19380E+03-3.45174E+04 5.80599E-10 2.69074E-09
 -1       596-7.85316E+04-1.62543E+04-6.06551E+02-3.64407E+04 8.96786E-09-8.55496E-09
 -1       597-8.01519E+04-1.45883E+04-3.29603E+02-3.45203E+04 5.35732E-09-3.57153E-09
 -1       598-7.85100E+04-1.62481E+04-2.63710E+02-3.64334E+04-2.76606E-09-1.34690E-08
 -1       599-8.01506E+04-1.45889E+04-3.35295E+02-3.45200E+04 5.79325E-09-1.78674E-08
 -1       600-7.85316E+04-1.62547E+04-6.21622E+02-3.64385E+04 2.02817E-10-1.68238E-08
 -1       601-8.01255E+04-1.45740E+04-1.22567E+03-3.45165E+04-7.60110E-10 7.85349E-10
 -1       602-7.87560E+04-1.64128E+04-2.67090E+03-3.64614E+04-2.90925E-10 6.02586E-09
 -1       603-7.99418E+04-1.45825E+04-5.35607E+03-3.44382E+04-3.89650E-09-7.60519E-09
 -1       604-8.20525E+04-1.98799E+04-1.28666E+04-3.63137E+04 1.24589E-09-1.47973E-08
 -1       605-7.75467E+04-1.63234E+04-2.37532E+04-3.27156E+04 4.58118E-09 8.75843E-09
 -1       606 2.62801E+04-1.46309E+04-2.62247E+04 2.34034E+04 8.75661E-09-1.19531E-08
 -1       607 2.17997E+04-4.78059E+03-1.30599E+04 2.63042E+04 2.52749E-09 1.27420E-09
 -1       608 2.43545E+04-8.64330E+02-5.84630E+03 2.32418E+04-2.23008E-09-1.14492E-08
 -1       609 2.38661E+04-2.99008E+02-2.95346E+03 2.65134E+04 2.46655E-09-5.49517E-09
 -1       610 2.41381E+04-4.52545E+01-1.40898E+03 2.32224E+04 1.38889E-08 6.30303E-09
 -1       611 2.40625E+04-4.68116E+01-7.10401E+02 2.65360E+04 2.48615E-08 1.08159E-08
 -1       612 2.40914E+04-3.21383E+01-3.37550E+02 2.32204E+04 1.08275E-08 2.58979E-08
 -1       613 2.40757E+04-4.34504E+01-1.51098E+02 2.65387E+04 3.42652E-09 1.17766E-08
 -1       614 2.40699E+04-3.94102E+01-3.49479E+01 2.32198E+04 1.25874E-09 1.40290E-09
 -1       615 2.40715E+04-4.25658E+01 6.44428E+01 2.65391E+04 7.73070E-12 4.01792E-09
 -1       616 2.40530E+04-3.67445E+01 1.92227E+02 2.32200E+04 3.38696E-09 1.20804E-09
 -1       617 2.40955E+04-2.12911E+00 4.38144E+02 2.65386E+04 1.55069E-09-5.84009E-09
 -1       618 2.40156E+04 8.91595E+01 8.83012E+02 2.32203E+04 1.20099E-09-2.36123E-08
 -1       619 2.44077E+04 6.80285E+02 1.98276E+03 2.65381E+04-5.36602E-10-9.16793E-09
 -1       620 2.37226E+04 2.18271E+03 3.98529E+03 2.32223E+04 1.08696E-09 6.76482E-09
 -1       621 5.37924E+02 3.07061E+05 3.99181E+03 4.38607E+04 1.16688E-09-5.09317E-11
 -1       622 7.20701E+02 3.07974E+05 3.53671E+03 6.36652E+04 1.25965E-09 1.68152E-08
 -1       623 1.64305E+02 3.07255E+05 4.24017E+03 4.36628E+04 1.18575E-09 2.06546E-09
 -1       624 2.20437E+03 3.09207E+05 8.21308E+03 6.38597E+04 1.37254E-09-1.58286E-08
 -1       625 2.14530E+03 3.05623E+05 1.43481E+04 4.36593E+04 1.55887E-09-6.77051E-09
 -1       626 2.65683E+05 6.18272E+04 5.17500E+03 1.28160E+05-3.36445E-09-2.62844E-08
 -1       627 2.63398E+05 6.31818E+04 2.49378E+03 1.32415E+05-1.82081E-09 7.52163E-09
 -1       628 2.65809E+05 5.94636E+04 1.05479E+03 1.29045E+05-1.50339E-09-1.13176E-08
 -1       629 2.62762E+05 6.24889E+04 5.16230E+02 1.32652E+05 4.68208E-09 7.63109E-10
 -1       630 2.65825E+05 5.93490E+04 2.39659E+02 1.29084E+05-4.88399E-10-4.13434E-09
 -1       631 2.62696E+05 6.24618E+04 1.29186E+02 1.32654E+05 9.02924E-09-1.74557E-08
 -1       632 2.65822E+05 5.93525E+04 8.53806E+01 1.29080E+05 2.06539E-08-8.88690E-09
 -1       633 2.62689E+05 6.24632E+04 9.57074E+01 1.32651E+05 1.95064E-08-3.89218E-09
 -1       634 2.65818E+05 5.93492E+04 1.55186E+02 1.29080E+05 1.76419E-09-9.66475E-09
 -1       635 2.62704E+05 6.24612E+04 3.14341E+02 1.32658E+05-9.02031E-09 1.71131E-08
 -1       636 2.65809E+05 5.93430E+04 6.34981E+02 1.29080E+05-1.07921E-08-3.39064E-08
 -1       637 2.62842E+05 6.25598E+04 1.39634E+03 1.32657E+05-1.51122E-08-2.08156E-08
 -1       638 2.65760E+05 5.96513E+04 2.86895E+03 1.28941E+05-7.89669E-09 9.33915E-09
 -1       639 2.64349E+05 6.46559E+04 6.78817E+03 1.32214E+05 5.36511E-09 7.71229E-09
 -1       640 2.65550E+05 6.59114E+04 1.40866E+04 1.26305E+05 3.85216E-09 1.09555E-08
 -1       656 6.75758E+04-1.73070E+06-1.63125E+05-2.82198E+03-1.01863E-10-4.80327E-09
 -1       657-8.94043E+04-1.80442E+06-1.35154E+05 4.80034E+03-3.19233E-10-3.79652E-09
 -1       658 2.15473E+04-1.75163E+06-8.32571E+04-4.94669E+03 4.32010E-10 6.88094E-09
 -1       659-9.67282E+04-1.80790E+06-1.44780E+05 6.59212E+03-9.80435E-10-7.64973E-09
 -1       660 7.48833E+04-1.72724E+06-1.79673E+05-4.61374E+03-2.83035E-09 1.40693E-08
 -1       661 1.55694E+05 1.62254E+04 1.65626E+04 6.08659E+04-1.66619E-09 8.22365E-09
 -1       662 1.65119E+05 2.84309E+04 1.11622E+04 5.70800E+04-2.01931E-09-1.85003E-09
 -1       663 1.58947E+05 2.15390E+04 3.90375E+03 5.99217E+04-8.38895E-10-5.25029E-09
 -1       664 1.61346E+05 2.22173E+04 2.33537E+03 5.82335E+04-3.12809E-10 6.61828E-09
 -1       665 1.59441E+05 2.22645E+04 9.21294E+02 5.97774E+04 2.82949E-09 1.03984E-08
 -1       666 1.60762E+05 2.13879E+04 5.39463E+02 5.84218E+04 1.05385E-08 8.19471E-09
 -1       667 1.59528E+05 2.23469E+04 2.86939E+02 5.97411E+04-3.30840E-09-2.60937E-09
 -1       668 1.60666E+05 2.13290E+04 2.93284E+02 5.84745E+04-8.72909E-09-1.01624E-08
 -1       669 1.59536E+05 2.23218E+04 3.97824E+02 5.97249E+04-3.88638E-09 7.48244E-09
 -1       670 1.60763E+05 2.15451E+04 8.66965E+02 5.84772E+04-1.15940E-08 6.36669E-09
 -1       671 1.59431E+05 2.21353E+04 1.53960E+03 5.97363E+04-4.75261E-10-1.09227E-08
 -1       672 1.61661E+05 2.30427E+04 3.93923E+03 5.82594E+04 4.27406E-09-2.77576E-08
 -1       673 1.58643E+05 2.08622E+04 6.60159E+03 5.99282E+04 3.31386E-09-5.86624E-09
 -1       674 1.67944E+05 3.36490E+04 1.88792E+04 5.64136E+04-1.85184E-09-7.17250E-09
 -1       675 1.53188E+05 1.18261E+04 2.80234E+04 6.14708E+04-1.78397E-09-1.50867E-08
 -1       676 2.43031E+01-2.98502E+05-1.12055E+03-1.55663E+02 3.17340E-09-3.60272E-09
 -1       677-2.96092E+02-2.98773E+05-2.05080E+03 3.11070E+02 1.05131E-08-1.83377E-08
 -1       678 1.98846E+02-2.98309E+05-3.62531E+03-1.55307E+02 8.22183E-10-8.26628E-09
 -1       679-3.62507E+03-3.00962E+05-8.61225E+03 3.09713E+02 9.01775E-09-1.18555E-08
 -1       680 2.16460E+03-2.96315E+05-1.38800E+04-1.52594E+02 2.31012E-10 7.93656E-09
 -1       771-3.06337E+06-7.87452E+05-2.10273E+05-1.49540E+06-3.76313E-08-3.15486E-08
 -1       772-2.98101E+06-8.86684E+05-1.08620E+05-1.61008E+06-2.62953E-08 1.57743E-08
 -1       773-3.10155E+06-7.57974E+05-5.50131E+04-1.51487E+06-1.47265E-08 6.63567E-09
 -1       774-2.96931E+06-8.61967E+05-2.46299E+04-1.64051E+06 2.59752E-08-2.08092E-09
 -1       775-3.12133E+06-7.44266E+05-1.82004E+04-1.52400E+06-1.30676E-08 6.00994E-09
 -1       776-2.98488E+06-8.57672E+05-6.84837E+03-1.66378E+06-2.18861E-08 1.57379E-08
 -1       777-3.13852E+06-7.31950E+05-7.97173E+03-1.53197E+06 4.71482E-09 5.48607E-09
 -1       778-3.00115E+06-8.53754E+05-2.27682E+03-1.68381E+06 2.60479E-09 6.89761E-09
 -1       779-3.15334E+06-7.21136E+05-3.97059E+03-1.53876E+06-8.64384E-09-8.52378E-09
 -1       780-3.01548E+06-8.50054E+05-6.82500E+02-1.70012E+06-1.02664E-08-2.12458E-09
 -1       781-3.16516E+06-7.12395E+05-1.57420E+03-1.54406E+06-3.44589E-08 2.16460E-10
 -1       782-3.02653E+06-8.46949E+05 4.69843E+02-1.71215E+06-3.93338E-08-8.16453E-09
 -1       783-3.17349E+06-7.06304E+05 6.97807E+02-1.54775E+06-9.31323E-09-1.74459E-08
 -1       784-3.03277E+06-8.44060E+05 3.17549E+03-1.71957E+06-2.05146E-08 5.67798E-09
 -1       785-3.17836E+06-7.02713E+05 5.57632E+03-1.55003E+06-4.24443E-08 9.10222E-09
 -1       786 1.19972E+05-9.69117E+03 2.24216E+04-3.36626E+02 3.56077E-09 3.31056E-10
 -1       787 1.29697E+05 1.12204E+04 1.58623E+04-1.46635E+02 5.66719E-09 1.04958E-08
 -1       788 1.23721E+05-1.51855E+03 5.80081E+03-3.00929E+02 4.28378E-09 1.53345E-08
 -1       789 1.25328E+05 1.75782E+03 3.64134E+03-2.01128E+02 7.36824E-10 1.21645E-10
 -1       790 1.24340E+05-2.36345E+02 1.47385E+03-2.82152E+02-5.41875E-09-1.13631E-08
 -1       791 1.24604E+05 2.73470E+02 8.50370E+02-2.33202E+02-1.00485E-08-4.26974E-09
 -1       792 1.24445E+05-3.53179E+01 3.58560E+02-2.68857E+02-4.00929E-09 9.80167E-09
 -1       793 1.24478E+05 3.65627E+01 1.74824E+02-2.58122E+02-1.47593E-09 1.36338E-08
 -1       794 1.24466E+05 4.12881E-01 3.75384E+01-2.57233E+02 4.07513E-09-2.44104E-09
 -1       795 1.24439E+05-3.39661E+01-7.85994E+01-2.82215E+02-6.62762E-09 3.09265E-09
 -1       796 1.24485E+05 3.51712E+01-1.98117E+02-2.44763E+02 4.56707E-09 1.73271E-08
 -1       797 1.24327E+05-2.61675E+02-5.33599E+02-3.10657E+02 5.15817E-09 1.28232E-08
 -1       798 1.24578E+05 2.27951E+02-8.63712E+02-2.28791E+02 2.37952E-09 7.89157E-10
 -1       799 1.23672E+05-1.68018E+03-2.37374E+03-3.50170E+02 6.36360E-09-1.43446E-08
 -1       800 1.25140E+05 1.45253E+03-3.35859E+03-2.05252E+02 3.10640E-10 8.19819E-09
 -1       801-2.10120E+05-1.06138E+07-1.49977E+06 1.56857E+06 9.53150E-08-6.88306E-08
 -1       802 8.39712E+05 6.92310E+06 2.42470E+06-1.96076E+06 2.71284E-07-3.41006E-08
 -1       803-5.92085E+05-1.53238E+07-2.07299E+06 1.00372E+06 8.12252E-08 2.14313E-08
 -1       804 3.21506E+05 3.00528E+06 1.69744E+06 7.17945E+05-1.26565E-07-9.38971E-08
 -1       805 2.02627E+05-6.70888E+06-3.07342E+05-1.10418E+06-5.32018E-08-6.48906E-08
 -1       806-3.13805E+05-6.06673E+04-2.32412E+04-1.24287E+05 2.06637E-09 3.02603E-08
 -1       807-3.15636E+05-5.68711E+04-1.14182E+04-1.29925E+05 8.71091E-09-4.24959E-09
 -1       808-3.14444E+05-5.22903E+04-4.84396E+03-1.28245E+05-1.14646E-08 2.05077E-08
 -1       809-3.13236E+05-5.36624E+04-2.36858E+03-1.30204E+05-1.83209E-08 1.16856E-08
 -1       810-3.14540E+05-5.19987E+04-1.08568E+03-1.28420E+05 5.53246E-09 2.02401E-08
 -1       811-3.13050E+05-5.35335E+04-5.39941E+02-1.30168E+05 9.69931E-09-2.13313E-08
 -1       812-3.14554E+05-5.20240E+04-2.73217E+02-1.28420E+05-1.84027E-08-1.26274E-08
 -1       813-3.13024E+05-5.35357E+04-1.77745E+02-1.30149E+05-3.13839E-08-2.09448E-08
 -1       814-3.14547E+05-5.20339E+04-1.76480E+02-1.28415E+05-1.21854E-08 7.25322E-09
 -1       815-3.13028E+05-5.35381E+04-2.84571E+02-1.30141E+05-1.95359E-09-2.01869E-08
 -1       816-3.14525E+05-5.20332E+04-5.39554E+02-1.28411E+05 7.82438E-09-8.42556E-09
 -1       817-3.13119E+05-5.35895E+04-1.15794E+03-1.30129E+05-1.25510E-08 6.60907E-09
 -1       818-3.14455E+05-5.21968E+04-2.36185E+03-1.28334E+05-2.07365E-09-3.48291E-09
 -1       819-3.14411E+05-5.50164E+04-5.55715E+03-1.29823E+05-3.53612E-09-2.39218E-08
 -1       820-3.14009E+05-5.63954E+04-1.13109E+04-1.26542E+05 2.01999E-09 3.11229E-09
 -1       821-3.82536E+05 2.10582E+04-4.91598E+04 2.43839E+03 1.57917E-08 1.82190E-08
 -1       822-4.01860E+05-2.44022E+04-3.44400E+04-5.21291E+03 6.56570E-09 7.92943E-09
 -1       823-3.89810E+05 3.32653E+03-1.26853E+04 4.06228E+03-1.40280E-08 4.20459E-09
 -1       824-3.92980E+05-3.83234E+03-7.92322E+03-6.42142E+03 1.56163E-09 5.73891E-10
 -1       825-3.91429E+05 5.17456E+02-3.33732E+03 3.64707E+03 2.43496E-08-2.70677E-09
 -1       826-3.90202E+05-5.59506E+02-1.68329E+03-3.79688E+03 3.22646E-08 1.82713E-08
 -1       827-3.92555E+05 3.00433E+01-1.26992E+03 1.43752E+03 1.28027E-08-5.94886E-09
 -1       828-3.89256E+05-1.11029E+02-4.65912E+02 1.18830E+03-5.49585E-09 6.08564E-09
 -1       829-3.92356E+05 5.38264E+01-1.25099E+03-1.33813E+03-7.45018E-10 2.02911E-08
 -1       830-3.90628E+05-6.24598E+02-1.83923E+03 5.74802E+03-2.03187E-10 1.98952E-09
 -1       831-3.91214E+05 5.68115E+02-3.41243E+03-3.12219E+03-6.52543E-09 5.65706E-10
 -1       832-3.93055E+05-4.00938E+03-8.23039E+03 7.33032E+03-4.52993E-09-1.17475E-08
 -1       833-3.89952E+05 3.45352E+03-1.32037E+04-2.92050E+03-9.24814E-10-1.46247E-09
 -1       834-4.01837E+05-2.53301E+04-3.56638E+04 5.01024E+03-4.15453E-09 1.78916E-08
 -1       835-3.82406E+05 2.18491E+04-5.10639E+04-8.02003E+02 5.71353E-09 1.43409E-08
 -1       836-1.44516E+03 3.76937E+05 2.33619E+04-1.56912E+04-8.07086E-09-1.60389E-09
 -1       837 4.97278E+03 3.84257E+05 1.97475E+04-3.21493E+04-8.57682E-09-1.84793E-08
 -1       838-5.71351E+02 3.78992E+05 2.00908E+04-1.56199E+04-7.21911E-09-3.18778E-09
 -1       839 1.26247E+04 3.89956E+05 3.79770E+04-3.22034E+04-7.54289E-09 1.87947E-09
 -1       840-3.90836E+03 3.71177E+05 6.05468E+04-1.56438E+04-6.81030E-09-5.45123E-09
 -1       856-4.86160E+04 7.99649E+03-2.10724E+04-3.95388E+02 4.67674E-09 3.01861E-09
 -1       857-5.72951E+04-9.39743E+03-1.45059E+04 5.67896E+03 2.52885E-09 1.68493E-08
 -1       858-5.20539E+04 1.12154E+03-5.46767E+03-4.19161E+02 5.76779E-09 9.47148E-09
 -1       859-5.33499E+04-1.32117E+03-3.29926E+03 5.71404E+03-4.36751E-09 2.34471E-08
 -1       860-5.25675E+04 1.57179E+02-1.38232E+03-4.30161E+02 2.08914E-09 1.92631E-09
 -1       861-5.27591E+04-1.89260E+02-7.59611E+02 5.72899E+03 2.48576E-10-2.29631E-08
 -1       862-5.26479E+04 2.13484E+01-3.14088E+02-4.34086E+02-5.32610E-09 7.70777E-09
 -1       863-5.26603E+04-2.30203E+01-1.10616E+02 5.73131E+03-9.19531E-09 1.13091E-08
 -1       864-5.26669E+04-5.26903E+00 5.55833E+01-4.32482E+02-3.21029E-09 8.87907E-09
 -1       865-5.26024E+04 6.19959E+01 2.73367E+02 5.72201E+03-3.09703E-09 1.60357E-08
 -1       866-5.27036E+04-6.36247E+01 5.46549E+02-4.24788E+02 3.52884E-10-9.02202E-09
 -1       867-5.23466E+04 5.25019E+02 1.34242E+03 5.70117E+03-2.83944E-09-1.79179E-09
 -1       868-5.29177E+04-4.59768E+02 2.23007E+03-4.11630E+02 5.25972E-10-1.22800E-08
 -1       869-5.07127E+04 3.82671E+03 5.93678E+03 5.66700E+03-3.90190E-09-4.28315E-09
 -1       870-5.43296E+04-3.27539E+03 8.61586E+03-3.90494E+02-4.07226E-09 5.26688E-09
 -1       871-5.57797E+03-2.23931E+04-1.98621E+04 1.33038E+05-5.60067E-09 8.04994E-09
 -1       872-1.96172E+03-2.70261E+04-8.33178E+03 1.72505E+05-1.26083E-08 8.41464E-09
 -1       873 4.56440E+02-2.47776E+04 5.63365E+02 1.32745E+05-7.34553E-09-9.90519E-09
 -1       874 3.40532E+03-2.23533E+04 9.87760E+03 1.72533E+05-1.34323E-08 1.06411E-09
 -1       875 6.97129E+03-2.71315E+04 2.23125E+04 1.32988E+05-4.79668E-09-2.64663E-10
 -1       876 2.97696E+05 5.00862E+04 1.52624E+04 1.19362E+05 6.99060E-09 1.08475E-08
 -1       877 2.98715E+05 5.32907E+04 8.15075E+03 1.23730E+05 1.14096E-08-7.95467E-09
 -1       878 2.99124E+05 4.83952E+04 3.41477E+03 1.20612E+05-9.89576E-09 2.36287E-09
 -1       879 2.96640E+05 5.12200E+04 1.70147E+03 1.23833E+05 2.37196E-09 5.30639E-09
 -1       880 2.99226E+05 4.83778E+04 7.92553E+02 1.20663E+05-4.32055E-09-1.13894E-08
 -1       881 2.96503E+05 5.11314E+04 4.23328E+02 1.23809E+05-9.39849E-09-1.32843E-08
 -1       882 2.99235E+05 4.83913E+04 2.70980E+02 1.20664E+05-6.68183E-09-2.86242E-09
 -1       883 2.96493E+05 5.11268E+04 2.91574E+02 1.23802E+05-2.20393E-09 2.71459E-08
 -1       884 2.99228E+05 4.83884E+04 4.64062E+02 1.20665E+05 6.89806E-09 5.14461E-09
 -1       885 2.96530E+05 5.11332E+04 9.33169E+02 1.23813E+05-7.61020E-09 7.58064E-10
 -1       886 2.99192E+05 4.83612E+04 1.88083E+03 1.20661E+05-5.36145E-09 1.10147E-08
 -1       887 2.96860E+05 5.13499E+04 4.10844E+03 1.23861E+05 1.15207E-08 4.02406E-09
 -1       888 2.98932E+05 4.84070E+04 8.27864E+03 1.20529E+05-7.39237E-09 3.97404E-09
 -1       889 3.01788E+05 5.64756E+04 1.97761E+04 1.23710E+05-8.43630E-09 2.42835E-09
 -1       890 2.95553E+05 5.24216E+04 3.70402E+04 1.17380E+05-7.45331E-10 6.65204E-09
 -1       891-8.29141E+01-1.64658E+05-2.02459E+03 2.71908E+04-6.10726E-10 3.41151E-09
 -1       892-1.65976E+02-1.65197E+05-2.17270E+03 4.13056E+04 1.19871E-09 2.19243E-08
 -1       893 5.22220E+01-1.64723E+05-3.07444E+03 2.71984E+04-2.87332E-09 9.13542E-09
 -1       894-1.51673E+03-1.66358E+05-6.36164E+03 4.11523E+04 2.03886E-09 3.45244E-09
 -1       895-1.20597E+03-1.63398E+05-1.12022E+04 2.73464E+04 9.61109E-10-1.20872E-09
 -1       956-3.82786E+05-5.54291E+03-1.36550E+04 3.17952E+04 7.63612E-09-1.18800E-08
 -1       957-3.85464E+05-1.96437E+03-7.00884E+03 3.82022E+04 8.38099E-10 3.61388E-09
 -1       958-3.84015E+05-2.55156E+02-3.15846E+03 3.16244E+04-5.62886E-09 8.53606E-09
 -1       959-3.84212E+05-1.50684E+02-1.61271E+03 3.84026E+04 2.58296E-10 1.09367E-08
 -1       960-3.84136E+05-5.55138E+01-7.86449E+02 3.16067E+04 4.02997E-09 6.44832E-10
 -1       961-3.84132E+05-7.61037E+01-4.16936E+02 3.84236E+04 8.23775E-09 7.90806E-10
 -1       962-3.84164E+05-5.64564E+01-2.38698E+02 3.16037E+04 5.34919E-09 1.15883E-08
 -1       963-3.84132E+05-7.16878E+01-1.91600E+02 3.84273E+04 9.64417E-09-1.12361E-08
 -1       964-3.84170E+05-5.30392E+01-2.33015E+02 3.16030E+04 2.91290E-09 5.17889E-09
 -1       965-3.84145E+05-6.88197E+01-4.03032E+02 3.84266E+04-7.06359E-09-1.79502E-08
 -1       966-3.84153E+05-4.53582E+01-7.57341E+02 3.16045E+04 4.45834E-09-1.45512E-08
 -1       967-3.84235E+05-1.33742E+02-1.55327E+03 3.84116E+04-1.93427E-09-2.90643E-08
 -1       968-3.84046E+05-2.31142E+02-3.04084E+03 3.16176E+04-2.98223E-09 8.38429E-09
 -1       969-3.85452E+05-1.87489E+03-6.75046E+03 3.82579E+04 5.57520E-10 1.24152E-08
 -1       970-3.82872E+05-5.31993E+03-1.31505E+04 3.17485E+04-1.49794E-09 1.44501E-08
 -1       971-3.49639E+05-1.74215E+03-9.36382E+03 1.54768E+04 6.13636E-09 1.32140E-08
 -1       972-3.51891E+05-1.28562E+03-5.09946E+03 2.13828E+04 7.48696E-09-7.98718E-09
 -1       973-3.50682E+05-6.70438E+01-2.28413E+03 1.53557E+04 5.65797E-09 1.19408E-08
 -1       974-3.50816E+05-8.80733E+01-1.18409E+03 2.15204E+04-1.73532E-09 2.63537E-09
 -1       975-3.50765E+05-2.19043E+01-5.92492E+02 1.53432E+04-2.54613E-09-3.44801E-09
 -1       976-3.50754E+05-3.79439E+01-3.42953E+02 2.15364E+04 9.35188E-10 1.43023E-08
 -1       977-3.50781E+05-2.11396E+01-2.50912E+02 1.53398E+04 1.96064E-09 1.71508E-09
 -1       978-3.50760E+05-3.16709E+01-2.96358E+02 2.15413E+04 1.29103E-09-3.08537E-08
 -1       979-3.50781E+05-1.25552E+01-4.78500E+02 1.53383E+04-1.44723E-10-7.38430E-09
 -1       980-3.50795E+05-2.85756E+01-9.25395E+02 2.15423E+04-5.52075E-09 8.64941E-09
 -1       981-3.50751E+05 1.05867E+01-1.79304E+03 1.53389E+04 7.89203E-09 3.04374E-09
 -1       982-3.51042E+05-1.61047E+02-3.70661E+03 2.15357E+04 4.97334E-09 2.03885E-09
 -1       983-3.50525E+05-1.04203E+02-7.20218E+03 1.53449E+04-7.13953E-09-1.50824E-08
 -1       984-3.54506E+05-3.92249E+03-1.61291E+04 2.14497E+04-9.14270E-10-2.52771E-09
 -1       985-3.47265E+05-5.37426E+03-2.96180E+04 1.54151E+04-5.66570E-09 2.60516E-08
 -3
    1PSTEP                        61          31           1          
  100CL  131 6.68833E-01         409                     0   31           1
 -4  DISP        4    1
 -5  D1          1    2    1    0
 -5  D2          1    2    2    0
 -5  D3          1    2    3    0
 -5  ALL         1    2    0    0    1ALL
 -1         1 4.74025E-03 0.00000E+00 0.00000E+00
 -1         2 4.66891E-03 6.66818E-29 0.00000E+00
 -1         3 3.54908E-04-4.52615E-28 0.00000E+00
 -1         5 1.82934E-04-1.54708E-27 0.00000E+00
 -1         8 4.72773E-03-3.27835E-07 0.00000E+00
 -1         9 4.64949E-03-1.44815E-05 0.00000E+00
 -1        10 3.22227E-04-2.87543E-06 0.00000E+00
 -1        12 1.84987E-04 8.24077E-07 8.27181E-25
 -1        15 4.71218E-03-3.57323E-07 0.00000E+00
 -1        16 4.72354E-03-1.70405E-05 0.00000E+00
 -1        17 2.19859E-04-6.70516E-06 0.00000E+00
 -1        18 1.89530E-04 3.72241E-05 0.00000E+00
 -1        19 1.91148E-04 1.64113E-06 0.00000E+00
 -1        20 1.91284E-04-1.22415E-05 0.00000E+00
 -1        21 1.90365E-04-3.04182E-05 0.00000E+00
 -1        24 3.08271E-05-1.07960E-05 0.00000E+00
 -1        25 2.01354E-04 3.74561E-05 0.00000E+00
 -1        26 2.02007E-04 2.27145E-06 0.00000E+00
 -1        27 1.99766E-04-1.58575E-05 0.00000E+00
 -1        28 1.99468E-04-3.10472E-05 0.00000E+00
 -1        32 0.00000E+00 0.00000E+00 0.00000E+00
 -1        33 2.11894E-04 3.03769E-06 0.00000E+00
 -1        34 2.09742E-04-1.59175E-05 0.00000E+00
 -1        35 2.07783E-04-3.13948E-05 0.00000E+00
 -1        51 4.73947E-03-7.18773E-08 0.00000E+00
 -1        52 4.73799E-03-1.25249E-07 0.00000E+00
 -1        53 4.73594E-03-1.75280E-07 0.00000E+00
 -1        54 4.73346E-03-2.24268E-07 0.00000E+00
 -1        55 4.73068E-03-2.73987E-07 2.48154E-24
 -1        56 4.73138E-03 1.13269E-05 0.00000E+00
 -1        57 4.71259E-03 4.69018E-05-5.29396E-23
 -1        58 4.68593E-03 1.00988E-04 0.00000E+00
 -1        59 4.65434E-03 1.66104E-04 0.00000E+00
 -1        60 4.62203E-03 2.32847E-04 0.00000E+00
 -1        61 4.59325E-03 2.91665E-04 0.00000E+00
 -1        62 4.57142E-03 3.34410E-04-1.05879E-22
 -1        63 4.55897E-03 3.54342E-04 0.00000E+00
 -1        64 4.55628E-03 3.48890E-04-1.05879E-22
 -1        65 4.56272E-03 3.17878E-04 5.29396E-23
 -1        66 4.57612E-03 2.66011E-04 1.05879E-22
 -1        67 4.59394E-03 2.00071E-04 0.00000E+00
 -1        68 4.61316E-03 1.29612E-04-1.05879E-22
 -1        69 4.63072E-03 6.46520E-05 0.00000E+00
 -1        70 4.64370E-03 1.41199E-05 5.29396E-23
 -1        86 4.66487E-03-2.40128E-06 5.29396E-23
 -1        87 4.65314E-03-4.85865E-06-2.64698E-23
 -1        88 4.64097E-03-7.32027E-06 0.00000E+00
 -1        89 4.63564E-03-9.71294E-06 2.64698E-23
 -1        90 4.63834E-03-1.21004E-05 5.29396E-23
 -1       121 3.53992E-04-4.60726E-07 0.00000E+00
 -1       122 3.51247E-04-9.24670E-07 0.00000E+00
 -1       123 3.46680E-04-1.39501E-06 0.00000E+00
 -1       124 3.40308E-04-1.87490E-06 0.00000E+00
 -1       125 3.32148E-04-2.36720E-06 0.00000E+00
 -1       191 1.82991E-04 1.37424E-07-2.48154E-24
 -1       192 1.83162E-04 2.74834E-07 1.65436E-24
 -1       193 1.83447E-04 4.12219E-07-8.27181E-25
 -1       194 1.83846E-04 5.49565E-07 1.65436E-24
 -1       195 1.84360E-04 6.86856E-07 0.00000E+00
 -1       251 4.72673E-03 2.63681E-05-1.32349E-23
 -1       252 4.72343E-03 1.00556E-04 6.61744E-24
 -1       253 4.71720E-03 2.08966E-04 0.00000E+00
 -1       254 4.70865E-03 3.37522E-04 6.61744E-24
 -1       255 4.70007E-03 4.66381E-04-1.32349E-23
 -1       256 4.69374E-03 5.75700E-04-6.61744E-24
 -1       257 4.69033E-03 6.51226E-04 1.32349E-23
 -1       258 4.68929E-03 6.79499E-04 0.00000E+00
 -1       259 4.68842E-03 6.59140E-04-1.32349E-23
 -1       260 4.68545E-03 5.90110E-04-6.61744E-24
 -1       261 4.67952E-03 4.84705E-04-1.32349E-23
 -1       262 4.67096E-03 3.56089E-04-6.61744E-24
 -1       263 4.66198E-03 2.24012E-04 0.00000E+00
 -1       264 4.65496E-03 1.08293E-04 0.00000E+00
 -1       265 4.65088E-03 2.40021E-05 2.64698E-23
 -1       266 4.72514E-03-3.37820E-07 0.00000E+00
 -1       267 4.72255E-03-3.42117E-07-4.13590E-25
 -1       268 4.71996E-03-3.46773E-07-4.13590E-25
 -1       269 4.71737E-03-3.50363E-07 0.00000E+00
 -1       270 4.71478E-03-3.53928E-07 0.00000E+00
 -1       271 4.72595E-03 2.79725E-06 0.00000E+00
 -1       272 4.72371E-03 7.07961E-06-6.61744E-24
 -1       273 4.72117E-03 1.21560E-05 1.32349E-23
 -1       274 4.71846E-03 1.76489E-05 6.61744E-24
 -1       275 4.71575E-03 2.31805E-05 0.00000E+00
 -1       276 4.71316E-03 2.83716E-05 0.00000E+00
 -1       277 4.71084E-03 3.28456E-05 0.00000E+00
 -1       278 4.70894E-03 3.62304E-05 0.00000E+00
 -1       279 4.70759E-03 3.81613E-05 0.00000E+00
 -1       280 4.70691E-03 3.82832E-05 0.00000E+00
 -1       281 4.70704E-03 3.62533E-05 0.00000E+00
 -1       282 4.70810E-03 3.17428E-05 0.00000E+00
 -1       283 4.71018E-03 2.44402E-05 1.32349E-23
 -1       284 4.71339E-03 1.40527E-05 6.61744E-24
 -1       285 4.71782E-03 3.07821E-07 0.00000E+00
 -1       301 4.66213E-03-1.49304E-05-6.61744E-24
 -1       302 4.67314E-03-1.53359E-05-6.61744E-24
 -1       303 4.68364E-03-1.57331E-05 1.32349E-23
 -1       304 4.69478E-03-1.61363E-05 2.64698E-23
 -1       305 4.70770E-03-1.65634E-05 0.00000E+00
 -1       306 4.69471E-03-2.23282E-04 1.05879E-22
 -1       307 4.74410E-03-7.78212E-04 0.00000E+00
 -1       308 4.72918E-03-1.58903E-03 0.00000E+00
 -1       309 4.65471E-03-2.52439E-03 0.00000E+00
 -1       310 4.60358E-03-3.41128E-03 0.00000E+00
 -1       311 4.63384E-03-4.07865E-03 0.00000E+00
 -1       312 4.69220E-03-4.41272E-03 0.00000E+00
 -1       313 4.66817E-03-4.38275E-03 0.00000E+00
 -1       314 4.42641E-03-4.01496E-03-2.11758E-22
 -1       315 3.90647E-03-3.43391E-03 0.00000E+00
 -1       316 3.13438E-03-2.74850E-03-1.05879E-22
 -1       317 2.21829E-03-2.03633E-03-2.64698E-23
 -1       318 1.34773E-03-1.33216E-03 0.00000E+00
 -1       319 6.98671E-04-6.87516E-04 5.29396E-23
 -1       320 3.34206E-04-2.09002E-04 0.00000E+00
 -1       336 3.10346E-04-3.44062E-06 0.00000E+00
 -1       337 2.96312E-04-4.03286E-06 0.00000E+00
 -1       338 2.80179E-04-4.65498E-06-1.32349E-23
 -1       339 2.62011E-04-5.30786E-06 0.00000E+00
 -1       340 2.41877E-04-5.99701E-06-6.61744E-24
 -1       406 1.85729E-04 9.61206E-07 2.48154E-24
 -1       407 1.86585E-04 1.09820E-06 4.13590E-25
 -1       408 1.87555E-04 1.23502E-06-1.65436E-24
 -1       409 1.88639E-04 1.37146E-06 1.24077E-24
 -1       410 1.89837E-04 1.50726E-06 1.03398E-24
 -1       521 4.76804E-03-2.38583E-04 2.11758E-22
 -1       522 4.81203E-03-8.13616E-04 0.00000E+00
 -1       523 4.78728E-03-1.64547E-03-1.05879E-22
 -1       524 4.70549E-03-2.59246E-03 5.29396E-23
 -1       525 4.64897E-03-3.48798E-03-1.05879E-22
 -1       526 4.67437E-03-4.16789E-03-1.05879E-22
 -1       527 4.73006E-03-4.50643E-03 0.00000E+00
 -1       528 4.70004E-03-4.47054E-03-1.05879E-22
 -1       529 4.43871E-03-4.08672E-03 2.11758E-22
 -1       530 3.88779E-03-3.49221E-03-1.05879E-22
 -1       531 3.07873E-03-2.79922E-03 0.00000E+00
 -1       532 2.13201E-03-2.08464E-03-5.29396E-23
 -1       533 1.23151E-03-1.37701E-03 0.00000E+00
 -1       534 5.47784E-04-7.21302E-04 0.00000E+00
 -1       535 1.58039E-04-2.27078E-04 2.11758E-22
 -1       536 2.19067E-04 2.94718E-05 0.00000E+00
 -1       537 2.17026E-04 9.19832E-05 0.00000E+00
 -1       538 2.13869E-04 1.71258E-04-3.30872E-24
 -1       539 2.10145E-04 2.57638E-04 0.00000E+00
 -1       540 2.06797E-04 3.39237E-04 3.30872E-24
 -1       541 2.04625E-04 4.04194E-04 0.00000E+00
 -1       542 2.03627E-04 4.45564E-04 0.00000E+00
 -1       543 2.03396E-04 4.56558E-04 0.00000E+00
 -1       544 2.03062E-04 4.37966E-04-3.30872E-24
 -1       545 2.01823E-04 3.90812E-04 1.65436E-24
 -1       546 1.99505E-04 3.23462E-04 0.00000E+00
 -1       547 1.96360E-04 2.44407E-04 1.65436E-24
 -1       548 1.93242E-04 1.65716E-04 0.00000E+00
 -1       549 1.90994E-04 9.94560E-05 1.65436E-24
 -1       550 1.89829E-04 5.39086E-05 1.65436E-24
 -1       551 1.93988E-04-7.22310E-06 0.00000E+00
 -1       552 1.64780E-04-7.83142E-06 0.00000E+00
 -1       553 1.33040E-04-8.51132E-06 0.00000E+00
 -1       554 9.95876E-05-9.24542E-06 4.13590E-25
 -1       555 6.52438E-05-1.00095E-05-1.32349E-23
 -1       556 2.11918E-04 1.36060E-05 0.00000E+00
 -1       557 2.05493E-04 3.00900E-05 0.00000E+00
 -1       558 2.00451E-04 4.30457E-05 0.00000E+00
 -1       559 1.96655E-04 5.27927E-05 0.00000E+00
 -1       560 1.93971E-04 5.96514E-05 0.00000E+00
 -1       561 1.92266E-04 6.39445E-05 0.00000E+00
 -1       562 1.91412E-04 6.59962E-05 0.00000E+00
 -1       563 1.91281E-04 6.61315E-05 0.00000E+00
 -1       564 1.91746E-04 6.46764E-05 0.00000E+00
 -1       565 1.92683E-04 6.19578E-05 0.00000E+00
 -1       566 1.93968E-04 5.83029E-05 0.00000E+00
 -1       567 1.95480E-04 5.40395E-05-6.61744E-24
 -1       568 1.97096E-04 4.94957E-05 0.00000E+00
 -1       569 1.98694E-04 4.49992E-05 0.00000E+00
 -1       570 2.00153E-04 4.08783E-05 0.00000E+00
 -1       571 1.89628E-04 3.49131E-05-8.27181E-25
 -1       572 1.89728E-04 3.25348E-05-8.27181E-25
 -1       573 1.89829E-04 3.01054E-05 0.00000E+00
 -1       574 1.89930E-04 2.76420E-05 1.65436E-24
 -1       575 1.90031E-04 2.51616E-05 0.00000E+00
 -1       576 1.90132E-04 2.26812E-05 1.65436E-24
 -1       577 1.90233E-04 2.02180E-05 6.61744E-24
 -1       578 1.90334E-04 1.77890E-05-6.61744E-24
 -1       579 1.90435E-04 1.54115E-05-6.61744E-24
 -1       580 1.90536E-04 1.31024E-05-6.61744E-24
 -1       581 1.90638E-04 1.08790E-05 0.00000E+00
 -1       582 1.90740E-04 8.75839E-06 0.00000E+00
 -1       583 1.90842E-04 6.75757E-06 0.00000E+00
 -1       584 1.90944E-04 4.89350E-06-3.30872E-24
 -1       585 1.91046E-04 3.18291E-06 0.00000E+00
 -1       586 1.91461E-04 3.72649E-05-1.65436E-24
 -1       587 1.93349E-04 3.73052E-05 0.00000E+00
 -1       588 1.95238E-04 3.73451E-05-8.27181E-25
 -1       589 1.97173E-04 3.73844E-05 0.00000E+00
 -1       590 1.99197E-04 3.74223E-05 0.00000E+00
 -1       591 1.90325E-04 3.50112E-05 0.00000E+00
 -1       592 1.91122E-04 3.27799E-05-2.06795E-25
 -1       593 1.91924E-04 3.05358E-05-8.27181E-25
 -1       594 1.92728E-04 2.82834E-05 4.13590E-25
 -1       595 1.93534E-04 2.60275E-05 8.27181E-25
 -1       596 1.94339E-04 2.37726E-05-4.13590E-25
 -1       597 1.95142E-04 2.15231E-05-8.27181E-25
 -1       598 1.95942E-04 1.92836E-05-4.13590E-25
 -1       599 1.96735E-04 1.70586E-05 0.00000E+00
 -1       600 1.97522E-04 1.48526E-05 4.13590E-25
 -1       601 1.98300E-04 1.26702E-05 0.00000E+00
 -1       602 1.99068E-04 1.05159E-05 4.13590E-25
 -1       603 1.99824E-04 8.39414E-06 4.13590E-25
 -1       604 2.00566E-04 6.30966E-06 2.06795E-25
 -1       605 2.01293E-04 4.26686E-06-4.13590E-25
 -1       606 1.91161E-04 3.37644E-07 0.00000E+00
 -1       607 1.91171E-04-8.82085E-07 0.00000E+00
 -1       608 1.91179E-04-2.02297E-06 0.00000E+00
 -1       609 1.91187E-04-3.09056E-06 0.00000E+00
 -1       610 1.91195E-04-4.09045E-06 0.00000E+00
 -1       611 1.91203E-04-5.02830E-06 0.00000E+00
 -1       612 1.91211E-04-5.90975E-06 0.00000E+00
 -1       613 1.91220E-04-6.74051E-06 0.00000E+00
 -1       614 1.91228E-04-7.52622E-06 0.00000E+00
 -1       615 1.91236E-04-8.27256E-06 0.00000E+00
 -1       616 1.91244E-04-8.98521E-06 0.00000E+00
 -1       617 1.91252E-04-9.66983E-06-4.13590E-25
 -1       618 1.91260E-04-1.03321E-05 0.00000E+00
 -1       619 1.91268E-04-1.09777E-05 0.00000E+00
 -1       620 1.91276E-04-1.16122E-05 0.00000E+00
 -1       621 1.92653E-04 1.74682E-06 1.65436E-24
 -1       622 1.94328E-04 1.85274E-06-8.27181E-25
 -1       623 1.96136E-04 1.95841E-06 0.00000E+00
 -1       624 1.98043E-04 2.06371E-06 0.00000E+00
 -1       625 2.00012E-04 2.16871E-06 1.65436E-24
 -1       626 1.91751E-04 3.74449E-07 0.00000E+00
 -1       627 1.92331E-04-8.31579E-07 0.00000E+00
 -1       628 1.92892E-04-1.98474E-06 6.61744E-24
 -1       629 1.93437E-04-3.09311E-06 1.65436E-24
 -1       630 1.93968E-04-4.16482E-06 0.00000E+00
 -1       631 1.94488E-04-5.20798E-06-1.65436E-24
 -1       632 1.95001E-04-6.23071E-06 0.00000E+00
 -1       633 1.95508E-04-7.24114E-06 0.00000E+00
 -1       634 1.96015E-04-8.24741E-06 0.00000E+00
 -1       635 1.96523E-04-9.25762E-06 1.65436E-24
 -1       636 1.97035E-04-1.02799E-05-3.30872E-24
 -1       637 1.97555E-04-1.13224E-05 0.00000E+00
 -1       638 1.98085E-04-1.23933E-05 0.00000E+00
 -1       639 1.98629E-04-1.35007E-05-1.65436E-24
 -1       640 1.99189E-04-1.46527E-05-3.30872E-24
 -1       656 1.92145E-04-1.28291E-05 0.00000E+00
 -1       657 1.93426E-04-1.34407E-05-6.61744E-24
 -1       658 1.94990E-04-1.40509E-05-1.32349E-23
 -1       659 1.96690E-04-1.46608E-05 6.61744E-24
 -1       660 1.98344E-04-1.52726E-05 0.00000E+00
 -1       661 1.91605E-04-1.29170E-05 0.00000E+00
 -1       662 1.91966E-04-1.36869E-05 0.00000E+00
 -1       663 1.92359E-04-1.45456E-05 0.00000E+00
 -1       664 1.92784E-04-1.54864E-05 8.27181E-25
 -1       665 1.93237E-04-1.65031E-05-1.65436E-24
 -1       666 1.93716E-04-1.75897E-05 0.00000E+00
 -1       667 1.94219E-04-1.87400E-05 1.65436E-24
 -1       668 1.94744E-04-1.99485E-05 8.27181E-25
 -1       669 1.95288E-04-2.12092E-05 0.00000E+00
 -1       670 1.95850E-04-2.25168E-05-8.27181E-25
 -1       671 1.96427E-04-2.38657E-05 0.00000E+00
 -1       672 1.97018E-04-2.52506E-05 0.00000E+00
 -1       673 1.97620E-04-2.66661E-05 1.65436E-24
 -1       674 1.98230E-04-2.81074E-05-4.13590E-25
 -1       675 1.98849E-04-2.95688E-05 0.00000E+00
 -1       676 1.91888E-04-3.05236E-05-3.30872E-24
 -1       677 1.93409E-04-3.06290E-05 1.65436E-24
 -1       678 1.94929E-04-3.07344E-05 0.00000E+00
 -1       679 1.96446E-04-3.08394E-05 0.00000E+00
 -1       680 1.97959E-04-3.09444E-05 3.30872E-24
 -1       771 1.77498E-05 1.86629E-05-5.29396E-23
 -1       772 6.78241E-06 4.28347E-05 0.00000E+00
 -1       773-2.17434E-06 6.19736E-05 0.00000E+00
 -1       774-9.26080E-06 7.63633E-05 0.00000E+00
 -1       775-1.46135E-05 8.62998E-05-5.29396E-23
 -1       776-1.83744E-05 9.20975E-05-2.64698E-23
 -1       777-2.06850E-05 9.40827E-05-5.29396E-23
 -1       778-2.16894E-05 9.25971E-05 0.00000E+00
 -1       779-2.15305E-05 8.79921E-05 5.29396E-23
 -1       780-2.03536E-05 8.06321E-05 2.64698E-23
 -1       781-1.83023E-05 7.08893E-05 0.00000E+00
 -1       782-1.55219E-05 5.91458E-05 2.64698E-23
 -1       783-1.21564E-05 4.57891E-05 0.00000E+00
 -1       784-8.35130E-06 3.12134E-05-2.64698E-23
 -1       785-4.25050E-06 1.58169E-05 5.29396E-23
 -1       786 2.01390E-04 3.50242E-05 0.00000E+00
 -1       787 2.01430E-04 3.26436E-05 4.13590E-25
 -1       788 2.01470E-04 3.03058E-05 0.00000E+00
 -1       789 2.01511E-04 2.80026E-05-4.13590E-25
 -1       790 2.01552E-04 2.57291E-05-1.65436E-24
 -1       791 2.01593E-04 2.34805E-05 0.00000E+00
 -1       792 2.01634E-04 2.12545E-05 1.65436E-24
 -1       793 2.01675E-04 1.90488E-05 0.00000E+00
 -1       794 2.01716E-04 1.68630E-05 0.00000E+00
 -1       795 2.01758E-04 1.46970E-05 0.00000E+00
 -1       796 2.01799E-04 1.25524E-05 0.00000E+00
 -1       797 2.01840E-04 1.04311E-05 0.00000E+00
 -1       798 2.01882E-04 8.33694E-06-1.65436E-24
 -1       799 2.01923E-04 6.27415E-06 0.00000E+00
 -1       800 2.01965E-04 4.24989E-06 0.00000E+00
 -1       801 1.53251E-04 3.37259E-05 2.64698E-23
 -1       802 7.90611E-06 2.09446E-05 0.00000E+00
 -1       803-1.16095E-04 1.04930E-05 0.00000E+00
 -1       804-1.02867E-04 7.33305E-06 2.64698E-23
 -1       805-3.44042E-05 2.85464E-06 5.29396E-23
 -1       806 2.02148E-04 3.49542E-05 1.65436E-24
 -1       807 2.02929E-04 3.24790E-05-1.65436E-24
 -1       808 2.03696E-04 3.00360E-05-3.30872E-24
 -1       809 2.04449E-04 2.76293E-05-1.65436E-24
 -1       810 2.05188E-04 2.52629E-05 0.00000E+00
 -1       811 2.05910E-04 2.29410E-05 0.00000E+00
 -1       812 2.06613E-04 2.06674E-05-3.30872E-24
 -1       813 2.07297E-04 1.84462E-05-1.65436E-24
 -1       814 2.07961E-04 1.62814E-05 0.00000E+00
 -1       815 2.08601E-04 1.41768E-05-8.27181E-25
 -1       816 2.09218E-04 1.21366E-05 1.65436E-24
 -1       817 2.09809E-04 1.01646E-05 1.65436E-24
 -1       818 2.10374E-04 8.26481E-06 1.65436E-24
 -1       819 2.10910E-04 6.44114E-06 1.65436E-24
 -1       820 2.11417E-04 4.69748E-06-1.65436E-24
 -1       821 2.01876E-04-3.83683E-07 0.00000E+00
 -1       822 2.01733E-04-4.43175E-06 1.65436E-24
 -1       823 2.01586E-04-9.37193E-06 3.30872E-24
 -1       824 2.01436E-04-1.46977E-05 0.00000E+00
 -1       825 2.01287E-04-1.97976E-05-3.30872E-24
 -1       826 2.01142E-04-2.40611E-05-1.65436E-24
 -1       827 2.01000E-04-2.71076E-05 3.30872E-24
 -1       828 2.00862E-04-2.85640E-05 0.00000E+00
 -1       829 2.00726E-04-2.84933E-05 0.00000E+00
 -1       830 2.00588E-04-2.69679E-05 0.00000E+00
 -1       831 2.00448E-04-2.44596E-05 0.00000E+00
 -1       832 2.00307E-04-2.14459E-05 0.00000E+00
 -1       833 2.00167E-04-1.85433E-05 0.00000E+00
 -1       834 2.00030E-04-1.63677E-05-1.65436E-24
 -1       835 1.99894E-04-1.53358E-05 0.00000E+00
 -1       836 2.03871E-04 2.39846E-06 3.30872E-24
 -1       837 2.05608E-04 2.52871E-06 0.00000E+00
 -1       838 2.07247E-04 2.65891E-06 0.00000E+00
 -1       839 2.08821E-04 2.78841E-06 1.65436E-24
 -1       840 2.10359E-04 2.91776E-06 0.00000E+00
 -1       856 1.99751E-04-1.70851E-05 0.00000E+00
 -1       857 1.99733E-04-1.81759E-05 0.00000E+00
 -1       858 1.99715E-04-1.91510E-05-2.06795E-25
 -1       859 1.99696E-04-2.00318E-05-2.06795E-25
 -1       860 1.99678E-04-2.08397E-05-4.13590E-25
 -1       861 1.99659E-04-2.15961E-05 2.06795E-25
 -1       862 1.99640E-04-2.23225E-05-4.13590E-25
 -1       863 1.99622E-04-2.30403E-05-2.06795E-25
 -1       864 1.99603E-04-2.37710E-05 0.00000E+00
 -1       865 1.99584E-04-2.45361E-05 0.00000E+00
 -1       866 1.99566E-04-2.53571E-05 0.00000E+00
 -1       867 1.99547E-04-2.62553E-05 0.00000E+00
 -1       868 1.99528E-04-2.72522E-05 0.00000E+00
 -1       869 1.99509E-04-2.83690E-05 0.00000E+00
 -1       870 1.99489E-04-2.96270E-05 8.27181E-25
 -1       871 2.01286E-04-1.58630E-05 8.27181E-25
 -1       872 2.02956E-04-1.58719E-05 0.00000E+00
 -1       873 2.04706E-04-1.58816E-05 0.00000E+00
 -1       874 2.06466E-04-1.58920E-05-7.75482E-26
 -1       875 2.08168E-04-1.59030E-05-2.06795E-25
 -1       876 2.00355E-04-1.70703E-05-3.30872E-24
 -1       877 2.00922E-04-1.82156E-05 1.65436E-24
 -1       878 2.01466E-04-1.93015E-05 3.30872E-24
 -1       879 2.01992E-04-2.03355E-05-1.65436E-24
 -1       880 2.02501E-04-2.13250E-05 0.00000E+00
 -1       881 2.02996E-04-2.22774E-05 1.65436E-24
 -1       882 2.03480E-04-2.32002E-05 0.00000E+00
 -1       883 2.03956E-04-2.41008E-05 1.65436E-24
 -1       884 2.04426E-04-2.49865E-05-3.30872E-24
 -1       885 2.04893E-04-2.58647E-05 0.00000E+00
 -1       886 2.05361E-04-2.67429E-05 0.00000E+00
 -1       887 2.05831E-04-2.76284E-05 0.00000E+00
 -1       888 2.06306E-04-2.85287E-05 3.30872E-24
 -1       889 2.06789E-04-2.94512E-05 0.00000E+00
 -1       890 2.07282E-04-3.04035E-05 1.65436E-24
 -1       891 2.00997E-04-3.11056E-05 0.00000E+00
 -1       892 2.02502E-04-3.11641E-05 0.00000E+00
 -1       893 2.03959E-04-3.12226E-05 8.27181E-25
 -1       894 2.05341E-04-3.12808E-05 8.27181E-25
 -1       895 2.06624E-04-3.13387E-05 4.13590E-25
 -1       956 2.11761E-04 1.55629E-06-3.30872E-24
 -1       957 2.11627E-04 1.68619E-07 8.27181E-25
 -1       958 2.11492E-04-1.13637E-06-3.30872E-24
 -1       959 2.11357E-04-2.37034E-06 1.65436E-24
 -1       960 2.11222E-04-3.54502E-06-3.30872E-24
 -1       961 2.11087E-04-4.67215E-06 0.00000E+00
 -1       962 2.10952E-04-5.76349E-06 0.00000E+00
 -1       963 2.10817E-04-6.83083E-06 0.00000E+00
 -1       964 2.10683E-04-7.88595E-06-3.30872E-24
 -1       965 2.10548E-04-8.94060E-06 0.00000E+00
 -1       966 2.10413E-04-1.00066E-05 0.00000E+00
 -1       967 2.10278E-04-1.10957E-05 1.65436E-24
 -1       968 2.10143E-04-1.22196E-05 0.00000E+00
 -1       969 2.10008E-04-1.33902E-05 0.00000E+00
 -1       970 2.09874E-04-1.46191E-05 0.00000E+00
 -1       971 2.09620E-04-1.72174E-05 0.00000E+00
 -1       972 2.09497E-04-1.84225E-05 0.00000E+00
 -1       973 2.09374E-04-1.95431E-05 0.00000E+00
 -1       974 2.09251E-04-2.05903E-05 0.00000E+00
 -1       975 2.09128E-04-2.15749E-05 0.00000E+00
 -1       976 2.09005E-04-2.25077E-05 1.65436E-24
 -1       977 2.08882E-04-2.33997E-05 0.00000E+00
 -1       978 2.08759E-04-2.42618E-05-1.65436E-24
 -1       979 2.08636E-04-2.51050E-05 0.00000E+00
 -1       980 2.08513E-04-2.59401E-05 0.00000E+00
 -1       981 2.08390E-04-2.67782E-05-3.30872E-24
 -1       982 2.08267E-04-2.76302E-05 1.65436E-24
 -1       983 2.08144E-04-2.85069E-05 3.30872E-24
 -1       984 2.08022E-04-2.94193E-05 1.65436E-24
 -1       985 2.07900E-04-3.03784E-05 0.00000E+00
 -3
    1PSTEP                        62          31           1          
  100CL  131 6.68833E-01         409                     0   31           1
 -4  STRESS      6    1
 -5  SXX         1    4    1    1
 -5  SYY         1    4    2    2
 -5  SZZ         1    4    3    3
 -5  SXY         1    4    1    2
 -5  SYZ         1    4    2    3
 -5  SZX         1    4    3    1
 -1         1-5.17209E+06-1.64381E+06-1.12583E+06-1.43123E+06-5.96629E-10 1.30181E-07
 -1         2-7.01289E+03-6.76445E+06-1.89816E+04-2.30740E+05 4.19845E-10 6.64375E-07
 -1         3-1.55736E+03-1.30632E+06 3.30480E+02-1.89929E+03-4.65207E-10-2.92639E-08
 -1         5-9.28469E+01 3.93592E+05 1.01532E+01-1.54451E+00-5.16340E-10 3.57359E-08
 -1         8-1.90261E+05-5.55772E+04 2.47567E+04-9.12347E+04 5.10227E-10 6.33936E-08
 -1         9 2.09037E+07-1.56026E+06 3.24772E+06-3.44754E+06 4.83706E-08-2.38465E-07
 -1        10-2.36420E+03-1.36118E+06-4.45606E+03-1.28920E+04-1.41608E-08-5.97405E-08
 -1        12-8.89082E+01 3.93614E+05 3.34867E+02-1.04404E+01-7.41936E-10-4.80850E-08
 -1        15 8.40156E+02 4.61708E+02 2.71578E+03 9.41406E-01-5.69273E-10 3.82105E-07
 -1        16 4.12354E+07-9.41112E+05 5.26558E+06-5.15111E+06 2.07219E-08 4.90031E-07
 -1        17 1.39607E+07 1.35450E+07 4.33819E+06 1.19300E+07-1.15833E-08 3.67872E-09
 -1        18 1.55214E+05 3.70914E+04 6.71088E+03-1.22764E+05 1.41881E-08 2.01226E-09
 -1        19 1.24576E+05 1.44147E+05-9.64153E+02 2.21793E+04 1.76315E-09-1.82517E-09
 -1        20-8.53302E+04-5.83363E+05-1.31040E+05 2.44383E+04-1.73304E-09 1.01160E-08
 -1        21-4.55421E+01-2.98633E+05-9.29848E+02 3.11843E+02 1.69248E-08-1.34208E-08
 -1        24 2.39445E+07 2.44174E+07 6.74631E+06 2.22070E+07-2.18715E-07-5.33376E-08
 -1        25 1.53568E+05 3.75590E+05 1.27415E+05-7.04547E+05 3.85899E-10 1.46876E-08
 -1        26-5.70514E+04 9.39385E+04-2.51327E+04 2.12232E+03-5.02041E-10 3.16061E-10
 -1        27-7.54068E+04-3.14783E+05-1.14796E+05 7.00270E+04 3.96100E-09 2.01696E-09
 -1        28 2.23783E+04-8.63606E+04 1.70581E+04 2.03971E+04-5.91743E-09 5.38072E-09
 -1        32-1.69423E+06-3.30847E+06-2.15632E+05 5.54600E+05-4.83269E-08-1.30649E-08
 -1        33-1.81165E+05 9.47834E+04 3.29395E+04-3.84559E+04-3.50387E-09 1.01172E-08
 -1        34-2.26678E+05-2.55969E+04 7.10218E+02 7.71988E+04-5.55931E-09-1.31857E-08
 -1        35-2.31027E+04-3.42453E+04-1.36552E+03 5.19448E+04-6.28661E-09 1.61575E-08
 -1        51 6.09113E+04-1.32142E+05 1.29425E+05-4.48165E+05-1.16415E-10 3.95688E-07
 -1        52 2.05785E+04-1.09646E+05 6.78432E+04-5.22296E+05 6.98492E-10-2.02024E-07
 -1        53 4.15344E+03-1.25567E+05 3.51194E+04-4.46440E+05 8.33097E-10 3.21939E-07
 -1        54 7.51315E+03-1.21683E+05 2.85339E+04-5.24141E+05-1.92813E-10 3.15407E-07
 -1        55 1.61074E+04-1.28880E+05 3.42909E+04-4.46168E+05 5.67525E-10 5.27489E-07
 -1        56-9.91152E+06-1.45886E+06-9.65960E+05-4.16130E+06 8.73115E-09-2.48256E-08
 -1        57-1.09437E+07-8.62008E+05-5.28887E+05-2.78263E+06-2.74886E-08 1.91008E-07
 -1        58-9.55038E+06-2.01987E+06-2.16571E+05-4.45150E+06 1.03100E-07 4.23628E-07
 -1        59-1.15037E+07-1.14443E+05-1.05399E+05-2.62177E+06-3.45572E-08-1.62705E-07
 -1        60-9.52095E+06-2.08015E+06-4.85726E+04-4.47186E+06 2.65645E-08-1.62472E-07
 -1        61-1.09231E+07-3.79711E+05 1.97949E+04-2.77525E+06 1.66910E-08-3.07322E-07
 -1        62-1.00000E+07-1.84158E+06-8.87429E+04-4.18574E+06-5.02187E-08-1.54796E-07
 -1        63-9.73132E+06-1.21513E+06 7.96118E+04-3.43888E+06-4.12110E-08-1.57022E-07
 -1        64-1.05118E+07-1.38558E+06-1.05913E+05-3.66327E+06-3.44298E-08-4.23024E-08
 -1        65-9.12833E+06-2.03114E+06 4.00719E+04-4.54125E+06-6.79065E-08-1.84440E-07
 -1        66-1.07111E+07-9.53048E+05-6.39578E+04-3.18157E+06-3.63070E-09-4.34662E-07
 -1        67-9.15348E+06-2.44027E+06-9.12660E+04-5.27259E+06-6.80848E-08 3.18672E-07
 -1        68-1.07083E+07-8.20394E+05-1.80256E+05-3.07685E+06-1.00044E-08 2.35435E-07
 -1        69-9.29506E+06-2.58953E+06-4.87585E+05-4.92643E+06-5.06325E-08-3.46750E-07
 -1        70-1.04725E+07-8.83471E+05-8.57246E+05-3.46274E+06-3.74639E-08-4.37722E-08
 -1        86 1.88778E+03-6.83769E+06-3.79956E+04 1.15353E+05 1.14833E-08 5.70326E-08
 -1        87-2.40941E+04-6.78412E+06-5.68700E+04-2.43268E+05 2.15641E-08-8.34214E-08
 -1        88 2.37516E+04-6.82136E+06-1.07326E+05 1.27907E+05 8.28004E-09 1.59637E-07
 -1        89-1.89725E+05-6.85011E+06-2.66092E+05-2.44063E+04 7.91624E-09 6.40541E-08
 -1        90 1.62262E+05-6.76938E+06-4.00112E+05-1.03528E+05-1.37079E-08 4.98048E-08
 -1       121-2.12331E+03-1.31139E+06-6.83296E+02 9.39388E+02 1.48505E-09-1.77097E-08
 -1       122-1.39979E+03-1.30638E+06 5.96304E+02-3.80887E+03-5.73377E-09 1.38753E-08
 -1       123-2.13617E+03-1.31150E+06-1.00161E+02 2.80813E+03 4.27679E-09-2.11367E-08
 -1       124-2.99261E+01-1.30604E+06 2.21484E+03-8.06203E+03-1.04383E-08 1.39862E-08
 -1       125-2.80061E+03-1.31224E+06 2.17731E+03 5.14134E+03 6.69206E-09-1.51995E-08
 -1       191-9.77711E+01 3.93607E+05 7.80854E+00 8.11525E-01-6.70936E-10 3.20324E-08
 -1       192-9.38389E+01 3.93593E+05 2.17066E+01-4.87564E+00-8.86535E-10 5.07862E-08
 -1       193-1.00376E+02 3.93607E+05 3.61594E+01 4.30386E+00-1.09235E-09 3.31529E-08
 -1       194-9.70166E+01 3.93596E+05 8.26161E+01-1.10399E+01-6.41102E-10 6.23913E-09
 -1       195-1.05375E+02 3.93605E+05 1.57376E+02 7.23524E+00-1.78814E-09-3.24835E-08
 -1       251-2.63115E+06-1.15357E+05-3.54639E+05-2.19900E+05-1.08812E-08-2.20651E-07
 -1       252-4.16566E+05 1.41616E+05 1.89448E+05 6.56747E+05 2.23845E-08 3.19033E-07
 -1       253-1.69400E+06-4.30171E+04-5.94779E+04-4.23817E+05-4.35230E-08-1.36115E-07
 -1       254-1.46946E+06 1.50098E+05 3.62802E+04 8.48090E+05-2.04580E-08-3.58346E-07
 -1       255-1.68103E+06-3.91775E+04-3.40299E+04-4.24982E+05 6.25187E-09 4.85507E-07
 -1       256-4.50914E+05 1.16812E+05 2.33305E+05 6.62985E+05-4.38986E-08 3.90487E-07
 -1       257-2.61227E+06-9.23745E+04-2.29987E+05-2.25201E+05-6.58838E-09 2.54485E-07
 -1       258 6.58258E+05 8.37208E+04 4.39650E+05 3.76962E+04-2.24900E-08 8.83592E-08
 -1       259-2.68031E+06-9.62575E+04-2.42460E+05 1.92959E+05-5.96629E-09 3.39494E-07
 -1       260-2.88338E+05 1.16366E+05 2.69646E+05-6.19020E+05 4.08181E-09 1.54228E-07
 -1       261-1.75943E+06-4.80889E+04-3.98948E+04 4.21041E+05 4.18349E-08 2.89455E-08
 -1       262-1.45543E+06 1.66313E+05 6.66257E+04-8.42946E+05-6.63802E-08-2.86081E-07
 -1       263-1.62854E+06-5.11546E+04 1.46814E+03 4.31765E+05 3.73811E-08 2.14109E-07
 -1       264-5.43367E+05 2.36008E+05 2.83655E+05-6.95147E+05 2.01988E-07 5.31390E-07
 -1       265-2.58591E+06-1.88033E+05-1.60913E+05 2.60843E+05 7.40729E-08 6.60257E-08
 -1       266-1.52099E+04-7.11310E+03 3.56825E+04-2.01412E+01-9.27685E-11-3.01532E-07
 -1       267 1.76321E+04 8.28907E+03 2.52221E+04 2.32414E+01-2.23736E-10-1.15694E-07
 -1       268-2.36445E+03-1.17404E+03 9.37480E+03-2.96122E+00-1.36879E-10 1.20803E-07
 -1       269 2.79170E+03 1.40499E+03 6.09358E+03 3.44953E+00 8.27640E-11-2.18528E-07
 -1       270-4.19039E+02-2.30854E+02 2.94146E+03-4.68118E-01-2.19870E-10 1.88149E-07
 -1       271-1.36861E+06-1.51677E+05-1.00756E+05-5.05215E+05 4.80723E-08 2.15088E-07
 -1       272-1.51859E+06-1.10111E+05-6.45397E+04-3.75584E+05 9.33778E-09-1.16303E-07
 -1       273-1.38543E+06-1.78360E+05-2.37027E+04-5.03307E+05-2.40971E-08 3.34818E-07
 -1       274-1.50017E+06-7.65250E+04-1.32578E+04-3.79704E+05 1.35186E-08 3.64457E-08
 -1       275-1.38760E+06-1.81415E+05-5.45962E+03-5.03046E+05 4.10819E-09-1.40395E-07
 -1       276-1.49585E+06-7.39482E+04-2.78201E+03-3.80763E+05-9.17225E-08 3.75054E-07
 -1       277-1.38883E+06-1.81160E+05-1.50492E+03-5.01738E+05-1.00135E-08 1.25727E-07
 -1       278-1.49000E+06-7.70900E+04-5.17388E+02-3.82720E+05 1.98670E-08-5.62122E-08
 -1       279-1.39073E+06-1.79938E+05-1.18324E+03-4.99159E+05 7.23594E-09-1.07215E-07
 -1       280-1.48105E+06-8.29388E+04-3.08751E+02-3.86062E+05 4.64734E-08-7.47132E-08
 -1       281-1.39350E+06-1.77997E+05-2.57708E+03-4.95393E+05-1.37043E-08 8.60564E-09
 -1       282-1.46980E+06-9.16242E+04-2.38789E+03-3.90964E+05-2.22572E-08 1.33077E-08
 -1       283-1.39658E+06-1.74734E+05-7.62528E+03-4.90546E+05-3.40442E-08 1.66408E-07
 -1       284-1.46028E+06-1.08709E+05-1.42715E+04-3.97127E+05 1.25383E-08 6.66405E-08
 -1       285-1.39717E+06-1.65425E+05-2.70801E+04-4.85074E+05 2.88856E-08 1.14553E-07
 -1       301-1.72965E+04-9.45732E+05 1.38247E+05-1.38771E+06-2.76486E-10-3.95739E-08
 -1       302-2.07860E+04-9.04119E+05 8.19949E+04-2.02598E+06-4.23461E-09 7.10661E-08
 -1       303-2.95994E+04-9.39249E+05 4.15063E+04-1.38453E+06 6.54836E-10 3.34767E-08
 -1       304-4.46290E+04-8.98849E+05 3.39559E+04-2.02399E+06 1.74623E-10-5.43077E-08
 -1       305-5.04595E+04-9.08628E+05 2.91359E+04-1.38831E+06 3.12866E-10-3.73548E-08
 -1       306-4.87689E+07-8.89795E+06-1.40689E+07 2.65091E+06-1.87196E-07-5.36005E-07
 -1       307 4.51469E+07 1.07856E+07 1.00915E+07-2.43586E+07-7.34653E-07 1.23400E-08
 -1       308-3.87029E+06-3.98186E+06-7.63534E+05 7.89601E+06 2.41911E-07 4.54660E-07
 -1       309-9.38806E+05 2.32412E+07 5.11810E+06-2.76302E+07 2.85530E-07 4.81479E-07
 -1       310-1.75152E+07-6.33157E+06-4.61633E+06 1.05628E+07-5.00004E-07 3.75207E-07
 -1       311 7.43616E+07 3.23152E+06 1.37731E+07-1.29360E+07 1.85129E-07 8.35687E-07
 -1       312-5.29997E+07-9.15559E+06-1.45271E+07-9.11184E+06 3.17115E-07 1.10886E-07
 -1       313 7.40886E+07 3.51275E+07 1.88747E+07 4.48174E+07-4.46395E-07 1.84751E-07
 -1       314-1.98184E+07-3.51022E+07-1.25959E+07-1.98418E+07 6.91856E-07-9.03383E-08
 -1       315-1.11804E+06 5.53223E+07 1.00270E+07 1.15561E+07-6.21367E-08-1.00664E-06
 -1       316 3.61641E+06-1.20837E+07-7.76532E+05 2.28670E+06 4.53674E-07-1.29361E-06
 -1       317-1.13813E+07 3.37284E+07 5.10728E+06-2.05827E+07 2.38477E-07-1.41277E-06
 -1       318 1.13241E+04-2.30786E+07-4.64242E+06-1.48695E+06-1.46894E-06 1.74739E-07
 -1       319 1.50185E+07 6.54070E+07 1.39004E+07 2.77124E+07-9.83942E-07 1.85973E-07
 -1       320-3.29837E+07-3.28684E+07-1.65068E+07-2.29229E+07-4.67175E-07-2.82307E-08
 -1       336-1.10189E+03-1.41951E+06-1.41753E+04 7.56227E+03-2.68992E-08-1.58980E-08
 -1       337-5.89908E+03-1.41854E+06-2.01699E+04-1.86188E+04-4.91814E-08-1.37898E-08
 -1       338 4.57648E+02-1.41850E+06-3.32946E+04 1.07731E+04-3.53648E-08 2.66300E-09
 -1       339-3.63115E+04-1.43899E+06-7.64317E+04-2.50269E+04-6.57237E-08 8.17090E-09
 -1       340 2.37975E+04-1.40104E+06-1.20684E+05 1.37941E+04-4.34266E-08 2.31594E-08
 -1       406-6.75519E+01 3.93590E+05 6.56679E+02 3.95279E+00-2.07507E-09-2.91111E-08
 -1       407 1.42090E+02 3.93731E+05 1.40516E+03 2.56785E+01-4.13721E-10-2.77150E-08
 -1       408 6.31455E+02 3.93487E+05 2.80073E+03-2.98358E+01-2.76009E-09-2.77014E-08
 -1       409 2.95243E+03 3.94625E+05 6.31434E+03 3.20948E+02-3.95630E-10 5.85987E-09
 -1       410 8.64189E+03 3.92679E+05 1.28866E+04-3.09946E+02-3.13776E-09 3.61615E-09
 -1       521-4.72038E+07-1.26508E+07-1.68347E+07 3.31643E+06-8.17236E-08 3.55125E-07
 -1       522 4.26837E+07 1.42258E+07 9.49726E+06-3.13994E+07-6.86501E-07-1.90514E-07
 -1       523-3.73284E+06-4.10306E+06-4.13182E+05 7.85600E+06 2.64845E-08-4.86354E-07
 -1       524-1.12727E+07 3.01927E+07 4.98642E+06-3.09534E+07 1.25576E-06-9.17673E-07
 -1       525-1.64966E+07-7.42593E+06-4.73130E+06 9.97957E+06 8.76316E-07-7.30506E-08
 -1       526 7.88293E+07 2.71890E+06 1.33311E+07-1.84390E+07 7.11414E-07-1.84460E-07
 -1       527-5.22104E+07-1.34878E+07-1.72309E+07-7.80273E+06 2.03960E-07 2.03596E-07
 -1       528 7.86017E+07 3.88562E+07 1.82573E+07 5.13308E+07 1.08033E-07 8.84756E-08
 -1       529-2.05878E+07-3.67618E+07-1.46276E+07-1.68145E+07-7.84057E-08-2.37720E-07
 -1       530-6.54510E+06 6.23910E+07 9.83133E+06 6.15788E+06-7.03440E-08 6.26780E-07
 -1       531 3.31792E+06-1.20363E+07-3.74129E+05 2.64160E+06-1.08637E-06 6.39819E-07
 -1       532-1.24253E+07 3.10380E+07 4.96190E+06-3.07039E+07 3.93862E-07-9.95227E-07
 -1       533-7.20051E+05-2.19056E+07-4.65143E+06-2.71184E+05-6.03912E-07-1.21887E-06
 -1       534 9.41877E+06 7.38207E+07 1.31195E+07 2.62025E+07 7.23521E-08 9.83535E-07
 -1       535-3.34056E+07-3.56403E+07-1.96678E+07-1.99170E+07 1.87429E-07 5.95814E-07
 -1       536-7.18636E+05-3.08000E+04-9.53813E+04-5.73835E+04-5.15865E-09 4.89026E-08
 -1       537-4.40929E+04 2.56460E+04 5.82395E+04 1.29127E+05-1.12135E-07 9.68823E-08
 -1       538-3.93732E+05 6.52520E+03-7.58283E+03-7.49001E+04 3.87452E-08 1.16006E-07
 -1       539-2.62988E+05-2.43318E+02 1.95302E+04 1.44238E+05 1.67710E-07 1.54510E-07
 -1       540-5.05450E+05-1.22031E+02-2.57720E+04-7.30838E+04 4.35193E-10 1.00186E-07
 -1       541 1.81276E+05 1.76282E+04 1.11773E+05 1.02473E+05-5.54314E-09 7.90708E-08
 -1       542-8.26049E+05-2.13459E+04-9.04178E+04-3.21693E+04 2.69497E-08 5.31734E-08
 -1       543 4.56510E+05 2.89947E+04 1.67887E+05-1.38761E+04-7.83325E-09-2.59893E-08
 -1       544-7.73300E+05-1.76225E+04-7.98865E+04 4.25267E+04-2.38047E-08-5.08354E-08
 -1       545 5.62856E+04 1.02060E+04 8.51635E+04-1.18469E+05 6.06224E-09-1.02812E-07
 -1       546-4.36587E+05 6.38807E+03-1.30000E+04 7.20410E+04 6.25469E-08-9.57243E-08
 -1       547-2.80588E+05-4.60989E+03 1.18027E+04-1.47020E+05-1.33102E-07-1.19121E-07
 -1       548-4.45496E+05 4.80466E+03-2.47255E+04 7.18403E+04-1.03689E-07-1.01269E-07
 -1       549 7.60596E+04 1.85285E+04 6.62898E+04-1.16441E+05-6.28135E-08-6.07924E-08
 -1       550-7.83694E+05-2.47495E+04-1.34513E+05 4.06738E+04 9.05584E-09-3.94648E-08
 -1       551 2.67290E+04-5.62004E+05-4.74333E+04-1.06930E+06-1.08295E-07-1.68802E-08
 -1       552 7.46208E+04-6.07372E+05-9.74277E+03-1.52222E+06-7.58737E-08 2.81434E-08
 -1       553 6.08815E+04-6.04222E+05 1.88397E+04-1.06270E+06-1.24441E-07 1.96451E-08
 -1       554 1.16262E+05-6.25410E+05 6.54915E+04-1.52481E+06-7.64849E-08 2.35777E-08
 -1       555 9.19836E+04-6.32282E+05 1.26076E+05-1.06125E+06-1.30764E-07-1.86046E-08
 -1       556 2.36226E+05-4.05369E+05-2.14562E+04-4.12028E+05-1.87720E-08-4.06289E-08
 -1       557 3.61788E+05-5.10309E+05-8.13037E+03-5.41942E+05 8.16362E-09-1.22054E-08
 -1       558 2.13828E+05-3.89057E+05-8.25984E+03-4.22818E+05-2.08674E-08-3.36877E-09
 -1       559 3.40870E+05-5.03960E+05-2.68504E+03-5.63733E+05 2.40398E-08 1.05319E-08
 -1       560 1.97204E+05-3.78660E+05-4.05284E+03-4.34839E+05 3.46336E-09 1.38170E-08
 -1       561 3.20702E+05-4.95498E+05-1.05144E+03-5.77684E+05-3.68163E-09-4.30009E-09
 -1       562 1.84211E+05-3.70661E+05-1.99152E+03-4.44229E+05-3.72529E-09 1.27548E-08
 -1       563 3.05347E+05-4.88784E+05-3.16793E+02-5.87732E+05 3.15049E-09-4.68481E-09
 -1       564 1.74928E+05-3.64896E+05-7.86465E+02-4.50803E+05 6.34464E-09 2.02363E-09
 -1       565 2.95089E+05-4.84314E+05-4.22394E+01-5.94289E+05 1.30967E-08 1.94987E-08
 -1       566 1.69460E+05-3.61443E+05-3.16953E+02-4.54625E+05 2.56841E-09-1.67402E-08
 -1       567 2.90029E+05-4.82113E+05-4.02884E+02-5.97370E+05 2.49911E-08-7.78164E-09
 -1       568 1.67899E+05-3.60486E+05-1.20512E+03-4.55811E+05-1.02318E-09 2.18388E-08
 -1       569 2.88740E+05-4.82025E+05-3.03076E+03-5.95993E+05-4.34011E-09 3.30620E-08
 -1       570 1.71371E+05-3.63823E+05-6.60692E+03-4.54743E+05 1.44064E-09-8.57563E-09
 -1       571 2.96028E+05 1.07046E+04 1.52089E+04-9.87605E+04-8.72660E-09 5.01586E-09
 -1       572 2.98226E+05 4.06739E+03 7.45379E+03-1.08353E+05-1.24546E-08-1.93772E-08
 -1       573 2.96901E+05 1.30910E+03 3.31201E+03-9.85808E+04-6.16365E-09 1.22373E-08
 -1       574 2.97113E+05 7.88002E+02 1.66107E+03-1.08583E+05 2.30534E-09-4.87489E-09
 -1       575 2.96996E+05 4.99805E+02 7.84049E+02-9.85561E+04 2.31464E-09-1.83263E-09
 -1       576 2.96976E+05 5.15492E+02 4.01587E+02-1.08614E+05-5.89921E-09-1.28775E-08
 -1       577 2.97039E+05 4.39262E+02 2.00593E+02-9.85528E+04 5.66160E-09 8.96944E-09
 -1       578 2.97012E+05 4.74388E+02 1.16244E+02-1.08618E+05 1.16333E-08 1.96314E-08
 -1       579 2.97118E+05 3.98725E+02 8.01689E+01-9.85524E+04 1.91449E-08 1.45383E-08
 -1       580 2.97122E+05 4.18435E+02 9.38748E+01-1.08614E+05 2.67755E-09 6.16092E-09
 -1       581 2.97242E+05 3.34473E+02 1.42066E+02-9.85586E+04 4.22006E-09-8.85848E-10
 -1       582 2.97312E+05 3.75642E+02 2.89629E+02-1.08549E+05-1.34751E-08-3.62888E-10
 -1       583 2.97394E+05 3.74147E+02 5.55497E+02-9.86175E+04-2.28465E-09 5.57611E-09
 -1       584 2.97710E+05 8.29524E+02 1.25778E+03-1.08053E+05 8.24366E-09 1.38971E-09
 -1       585 2.97429E+05 1.88365E+03 2.54619E+03-9.90540E+04-8.07631E-10 2.51384E-09
 -1       586-3.48793E+03 1.21028E+05-2.84009E+03-2.54747E+05-4.30009E-09 3.45221E-09
 -1       587-1.42418E+03 1.20802E+05 8.61864E+02-2.80367E+05-3.24144E-09-3.31204E-09
 -1       588 3.37183E+02 1.20583E+05 4.90560E+03-2.54605E+05-2.28465E-09-6.45741E-09
 -1       589 5.12312E+03 1.23126E+05 1.26564E+04-2.80134E+05-7.21775E-09-4.59595E-08
 -1       590 1.69297E+04 1.19219E+05 2.65231E+04-2.55046E+05-3.43653E-09-3.45608E-10
 -1       591-7.76843E+04-1.62605E+04-2.31351E+04-3.27577E+04-4.19641E-09-2.65754E-09
 -1       592-8.19871E+04-1.98104E+04-1.25319E+04-3.63621E+04 1.68829E-08 9.85347E-09
 -1       593-7.99971E+04-1.45828E+04-5.21636E+03-3.44550E+04 6.30651E-09-1.15303E-08
 -1       594-7.87943E+04-1.64140E+04-2.60152E+03-3.64810E+04 6.38833E-09-1.06030E-09
 -1       595-8.01733E+04-1.45773E+04-1.19430E+03-3.45321E+04-2.83185E-09 1.43109E-08
 -1       596-7.85756E+04-1.62586E+04-6.06802E+02-3.64549E+04 5.28993E-09 3.97736E-09
 -1       597-8.01954E+04-1.45932E+04-3.29737E+02-3.45350E+04 5.83202E-09 9.83846E-09
 -1       598-7.85541E+04-1.62525E+04-2.63812E+02-3.64475E+04-4.30487E-09 1.98879E-08
 -1       599-8.01942E+04-1.45938E+04-3.35419E+02-3.45347E+04 3.55919E-09 5.99357E-10
 -1       600-7.85756E+04-1.62591E+04-6.21849E+02-3.64526E+04 5.90126E-09 7.89493E-09
 -1       601-8.01691E+04-1.45789E+04-1.22612E+03-3.45312E+04 4.03475E-09 2.32376E-09
 -1       602-7.88001E+04-1.64173E+04-2.67186E+03-3.64755E+04-7.65681E-10-2.07194E-09
 -1       603-7.99853E+04-1.45874E+04-5.35800E+03-3.44529E+04 5.52745E-09 1.95723E-09
 -1       604-8.20978E+04-1.98856E+04-1.28712E+04-3.63278E+04 4.15548E-09-1.53195E-08
 -1       605-7.75893E+04-1.63289E+04-2.37618E+04-3.27296E+04 5.90728E-09 1.81699E-08
 -1       606 2.62767E+04-1.46358E+04-2.62334E+04 2.33976E+04 6.86305E-09-1.66615E-08
 -1       607 2.17948E+04-4.78222E+03-1.30643E+04 2.62977E+04-3.07136E-09 1.04164E-08
 -1       608 2.43505E+04-8.64654E+02-5.84825E+03 2.32361E+04-6.15728E-09-3.06454E-09
 -1       609 2.38619E+04-2.99160E+02-2.95444E+03 2.65069E+04 4.44743E-10 1.90732E-09
 -1       610 2.41341E+04-4.53171E+01-1.40945E+03 2.32167E+04-1.06520E-08 1.44671E-08
 -1       611 2.40584E+04-4.68907E+01-7.10637E+02 2.65295E+04-2.55609E-08 5.82304E-10
 -1       612 2.40874E+04-3.22066E+01-3.37661E+02 2.32147E+04-1.53959E-08-5.49494E-09
 -1       613 2.40717E+04-4.35376E+01-1.51146E+02 2.65321E+04-7.08951E-10-2.91857E-09
 -1       614 2.40659E+04-3.94891E+01-3.49545E+01 2.32140E+04-6.23913E-09 2.61934E-09
 -1       615 2.40675E+04-4.26600E+01 6.44735E+01 2.65325E+04-4.56157E-09-5.03405E-10
 -1       616 2.40490E+04-3.68285E+01 1.92310E+02 2.32143E+04-8.75116E-09-1.29967E-09
 -1       617 2.40915E+04-2.21185E+00 4.38328E+02 2.65321E+04-1.95093E-08-2.42921E-08
 -1       618 2.40115E+04 8.91239E+01 8.83382E+02 2.32146E+04-1.40089E-08 1.02773E-10
 -1       619 2.44039E+04 6.80484E+02 1.98359E+03 2.65315E+04-4.26280E-09-9.13292E-09
 -1       620 2.37185E+04 2.18355E+03 3.98695E+03 2.32166E+04-6.80757E-10 3.46972E-10
 -1       621 5.38385E+02 3.07159E+05 3.99388E+03 4.39007E+04 1.01181E-09-8.56107E-09
 -1       622 7.21407E+02 3.08072E+05 3.53836E+03 6.37232E+04 1.16825E-09 3.11002E-09
 -1       623 1.64621E+02 3.07353E+05 4.24189E+03 4.37027E+04 1.44632E-09 1.57506E-08
 -1       624 2.20561E+03 3.09306E+05 8.21620E+03 6.39178E+04 1.72992E-09 1.13755E-09
 -1       625 2.14639E+03 3.05720E+05 1.43534E+04 4.36992E+04 1.51886E-09 3.83261E-09
 -1       626 2.65761E+05 6.18363E+04 5.17575E+03 1.28186E+05 1.24523E-08 1.35115E-08
 -1       627 2.63476E+05 6.31904E+04 2.49414E+03 1.32441E+05 3.74939E-09 4.55395E-09
 -1       628 2.65887E+05 5.94723E+04 1.05495E+03 1.29072E+05-4.56839E-09 9.08994E-09
 -1       629 2.62840E+05 6.24974E+04 5.16305E+02 1.32678E+05 3.44153E-09-1.02040E-08
 -1       630 2.65902E+05 5.93577E+04 2.39696E+02 1.29110E+05 3.63207E-09 3.70267E-09
 -1       631 2.62774E+05 6.24703E+04 1.29207E+02 1.32681E+05 9.16134E-09 6.33099E-09
 -1       632 2.65900E+05 5.93612E+04 8.53975E+01 1.29106E+05 7.01903E-10 1.04258E-08
 -1       633 2.62767E+05 6.24717E+04 9.57309E+01 1.32678E+05-1.79921E-08-1.12891E-08
 -1       634 2.65896E+05 5.93579E+04 1.55229E+02 1.29106E+05-8.66450E-09-8.95420E-09
 -1       635 2.62782E+05 6.24697E+04 3.14429E+02 1.32684E+05-1.61708E-09-1.47884E-09
 -1       636 2.65887E+05 5.93517E+04 6.35160E+02 1.29106E+05 5.99766E-09-1.38139E-08
 -1       637 2.62920E+05 6.25683E+04 1.39673E+03 1.32683E+05 1.69248E-08-3.41070E-08
 -1       638 2.65838E+05 5.96601E+04 2.86976E+03 1.28967E+05 1.00699E-08-2.84399E-08
 -1       639 2.64428E+05 6.46650E+04 6.79010E+03 1.32240E+05 6.09452E-09-2.08556E-08
 -1       640 2.65628E+05 6.59220E+04 1.40906E+04 1.26330E+05 5.35647E-09 4.81555E-09
 -1       656 6.75929E+04-1.73116E+06-1.63166E+05-2.82577E+03 7.20320E-10-1.61473E-08
 -1       657-8.94270E+04-1.80490E+06-1.35189E+05 4.79560E+03-2.19643E-09 3.66089E-09
 -1       658 2.15528E+04-1.75209E+06-8.32785E+04-4.95128E+03 8.50378E-11-1.56815E-09
 -1       659-9.67533E+04-1.80838E+06-1.44818E+05 6.58838E+03-8.34916E-10-4.11914E-09
 -1       660 7.49029E+04-1.72769E+06-1.79720E+05-4.61854E+03-1.82627E-09 2.37424E-09
 -1       661 1.55668E+05 1.62219E+04 1.65618E+04 6.08560E+04-3.54248E-10 3.61160E-09
 -1       662 1.65094E+05 2.84261E+04 1.11616E+04 5.70693E+04-1.98020E-09-6.16683E-09
 -1       663 1.58922E+05 2.15353E+04 3.90356E+03 5.99118E+04-7.74776E-10 2.45791E-09
 -1       664 1.61322E+05 2.22128E+04 2.33526E+03 5.82229E+04-3.46492E-09-1.24283E-08
 -1       665 1.59416E+05 2.22607E+04 9.21250E+02 5.97675E+04 1.99640E-09-2.69338E-09
 -1       666 1.60737E+05 2.13834E+04 5.39440E+02 5.84111E+04 1.18703E-08 1.40625E-08
 -1       667 1.59502E+05 2.23431E+04 2.86929E+02 5.97312E+04 2.40055E-09-1.00031E-08
 -1       668 1.60641E+05 2.13245E+04 2.93280E+02 5.84638E+04-4.70608E-09-1.92512E-08
 -1       669 1.59510E+05 2.23180E+04 3.97823E+02 5.97150E+04-7.89925E-10 7.32553E-09
 -1       670 1.60738E+05 2.15406E+04 8.66967E+02 5.84666E+04-7.77136E-09-1.13311E-08
 -1       671 1.59405E+05 2.21315E+04 1.53961E+03 5.97264E+04 2.75646E-09-1.19832E-08
 -1       672 1.61636E+05 2.30382E+04 3.93924E+03 5.82488E+04 1.23688E-08 7.88344E-09
 -1       673 1.58617E+05 2.08583E+04 6.60162E+03 5.99183E+04 2.19950E-09 1.44178E-08
 -1       674 1.67919E+05 3.36445E+04 1.88793E+04 5.64029E+04 7.83075E-10-2.26464E-10
 -1       675 1.53163E+05 1.18223E+04 2.80235E+04 6.14609E+04-2.12412E-09-5.81349E-09
 -1       676 2.43071E+01-2.98554E+05-1.12071E+03-1.55927E+02 2.00913E-09-8.17057E-09
 -1       677-2.96130E+02-2.98826E+05-2.05110E+03 3.11598E+02 1.16983E-08 2.14389E-09
 -1       678 1.98876E+02-2.98361E+05-3.62584E+03-1.55570E+02 2.35855E-09 5.99204E-09
 -1       679-3.62559E+03-3.01015E+05-8.61350E+03 3.10238E+02 1.12824E-08 1.27038E-10
 -1       680 2.16492E+03-2.96367E+05-1.38820E+04-1.52852E+02 1.10049E-10 1.37654E-08
 -1       771-3.06374E+06-7.87801E+05-2.10507E+05-1.49576E+06-4.66534E-08-2.81143E-08
 -1       772-2.98133E+06-8.87097E+05-1.08739E+05-1.61052E+06-3.96976E-08 2.10784E-08
 -1       773-3.10197E+06-7.58292E+05-5.50770E+04-1.51526E+06-1.88302E-08 1.44064E-08
 -1       774-2.96962E+06-8.62349E+05-2.46578E+04-1.64098E+06 3.11557E-08 2.91038E-10
 -1       775-3.12177E+06-7.44568E+05-1.82234E+04-1.52441E+06 5.58794E-09 6.74481E-09
 -1       776-2.98522E+06-8.58046E+05-6.85662E+03-1.66429E+06-2.67755E-09 1.46974E-09
 -1       777-3.13899E+06-7.32235E+05-7.98264E+03-1.53239E+06 1.42609E-09-3.55794E-09
 -1       778-3.00152E+06-8.54120E+05-2.27981E+03-1.68434E+06 8.68749E-09 9.47330E-09
 -1       779-3.15383E+06-7.21407E+05-3.97630E+03-1.53919E+06-1.21945E-08-7.88714E-09
 -1       780-3.01586E+06-8.50413E+05-6.83485E+02-1.70067E+06-8.77480E-09-1.23327E-09
 -1       781-3.16566E+06-7.12654E+05-1.57660E+03-1.54450E+06-2.97732E-08 4.74029E-09
 -1       782-3.02693E+06-8.47301E+05 4.70351E+02-1.71272E+06-3.56231E-08-3.46427E-09
 -1       783-3.17400E+06-7.06555E+05 6.98440E+02-1.54820E+06-1.19762E-08-1.81149E-08
 -1       784-3.03319E+06-8.44407E+05 3.17924E+03-1.72015E+06-2.38215E-08-4.40195E-10
 -1       785-3.17888E+06-7.02958E+05 5.58282E+03-1.55048E+06-4.23825E-08 8.11087E-09
 -1       786 1.19955E+05-9.69167E+03 2.24227E+04-3.36902E+02 1.19993E-09-3.01316E-09
 -1       787 1.29681E+05 1.12209E+04 1.58631E+04-1.46869E+02 4.50947E-09-7.01584E-09
 -1       788 1.23705E+05-1.51863E+03 5.80110E+03-3.01192E+02 3.96570E-09 5.12023E-09
 -1       789 1.25312E+05 1.75791E+03 3.64152E+03-2.01377E+02 2.41900E-09-1.24369E-08
 -1       790 1.24324E+05-2.36356E+02 1.47392E+03-2.82413E+02-5.36958E-09-2.68511E-09
 -1       791 1.24588E+05 2.73484E+02 8.50402E+02-2.33454E+02-7.69142E-09 1.26058E-08
 -1       792 1.24429E+05-3.53172E+01 3.58557E+02-2.69117E+02-4.84030E-09-5.35701E-09
 -1       793 1.24462E+05 3.65559E+01 1.74785E+02-2.58375E+02-3.94101E-10 1.38716E-08
 -1       794 1.24450E+05 4.22518E-01 3.74541E+01-2.57492E+02 5.68039E-09 7.87740E-09
 -1       795 1.24423E+05-3.40300E+01-7.88018E+01-2.82470E+02-5.75176E-09 1.18598E-08
 -1       796 1.24469E+05 3.52289E+01-1.98469E+02-2.45022E+02 3.85393E-09 1.67428E-08
 -1       797 1.24310E+05-2.62093E+02-5.34468E+02-3.10912E+02 3.10610E-09 8.13663E-09
 -1       798 1.24562E+05 2.28315E+02-8.65098E+02-2.29050E+02 2.54456E-09 1.64720E-08
 -1       799 1.23655E+05-1.68286E+03-2.37753E+03-3.50426E+02 6.88383E-09 4.80432E-09
 -1       800 1.25125E+05 1.45484E+03-3.36395E+03-2.05510E+02 2.91479E-10 2.63742E-08
 -1       801-2.10677E+05-1.06228E+07-1.50131E+06 1.57084E+06 9.61008E-08-6.31189E-08
 -1       802 8.41173E+05 6.93713E+06 2.42824E+06-1.96387E+06 2.70207E-07-3.73520E-08
 -1       803-5.92886E+05-1.53395E+07-2.07568E+06 1.00523E+06 8.14798E-08 1.97506E-08
 -1       804 3.22023E+05 3.01440E+06 1.69985E+06 7.18581E+05-1.26594E-07-9.00700E-08
 -1       805 2.02802E+05-6.71297E+06-3.07710E+05-1.10565E+06-5.36093E-08-6.17165E-08
 -1       806-3.13886E+05-6.06845E+04-2.32478E+04-1.24321E+05-1.05383E-08-5.65342E-09
 -1       807-3.15717E+05-5.68875E+04-1.14214E+04-1.29961E+05 1.26156E-08-1.14657E-08
 -1       808-3.14525E+05-5.23051E+04-4.84532E+03-1.28280E+05-2.00953E-09-1.92881E-09
 -1       809-3.13316E+05-5.36779E+04-2.36924E+03-1.30240E+05-7.91624E-09-4.75916E-09
 -1       810-3.14621E+05-5.20135E+04-1.08599E+03-1.28455E+05 5.14228E-09 1.11741E-08
 -1       811-3.13130E+05-5.35490E+04-5.40093E+02-1.30204E+05 4.09818E-09-7.69410E-09
 -1       812-3.14635E+05-5.20387E+04-2.73294E+02-1.28454E+05-3.92538E-09-5.74983E-09
 -1       813-3.13104E+05-5.35512E+04-1.77796E+02-1.30185E+05 4.47608E-09-6.83031E-09
 -1       814-3.14628E+05-5.20487E+04-1.76533E+02-1.28450E+05 2.03272E-09-6.55291E-10
 -1       815-3.13108E+05-5.35535E+04-2.84656E+02-1.30177E+05 5.44696E-09 2.64147E-08
 -1       816-3.14606E+05-5.20479E+04-5.39717E+02-1.28446E+05 2.33376E-09 1.61472E-08
 -1       817-3.13199E+05-5.36050E+04-1.15829E+03-1.30165E+05-1.51717E-08 1.77283E-09
 -1       818-3.14536E+05-5.22116E+04-2.36256E+03-1.28369E+05-2.80124E-09 4.32010E-09
 -1       819-3.14492E+05-5.50323E+04-5.55883E+03-1.29858E+05 2.06865E-09-3.92538E-09
 -1       820-3.14089E+05-5.64115E+04-1.13143E+04-1.26576E+05-7.02130E-10 9.01628E-09
 -1       821-3.82592E+05 2.10612E+04-4.91696E+04 2.44373E+03 1.56498E-08-1.67565E-08
 -1       822-4.01907E+05-2.44058E+04-3.44447E+04-5.22680E+03 6.37800E-09-3.16627E-08
 -1       823-3.89862E+05 3.32715E+03-1.26876E+04 4.07336E+03-1.49500E-08 3.97631E-09
 -1       824-3.93031E+05-3.83298E+03-7.92431E+03-6.44078E+03 2.17405E-09 3.20360E-08
 -1       825-3.91482E+05 5.17569E+02-3.33815E+03 3.65789E+03 2.53581E-08 1.87138E-08
 -1       826-3.90246E+05-5.59340E+02-1.68204E+03-3.80994E+03 3.20521E-08 5.84350E-10
 -1       827-3.92614E+05 2.97123E+01-1.27146E+03 1.44230E+03 1.31775E-08-5.79766E-09
 -1       828-3.89295E+05-1.10604E+02-4.63502E+02 1.18961E+03 1.12313E-09-2.52794E-09
 -1       829-3.92414E+05 5.35794E+01-1.25238E+03-1.34169E+03 1.37837E-09 7.75583E-09
 -1       830-3.90673E+05-6.24612E+02-1.83829E+03 5.76339E+03 3.02072E-09-5.62545E-09
 -1       831-3.91266E+05 5.68357E+02-3.41312E+03-3.13147E+03-4.10576E-09-7.45104E-10
 -1       832-3.93105E+05-4.01018E+03-8.23151E+03 7.35124E+03-4.90600E-09 1.80160E-08
 -1       833-3.90004E+05 3.45416E+03-1.32062E+04-2.92962E+03-7.49139E-10-3.42789E-09
 -1       834-4.01884E+05-2.53338E+04-3.56683E+04 5.02492E+03-2.75251E-09 1.25056E-08
 -1       835-3.82463E+05 2.18522E+04-5.10740E+04-8.05035E+02 5.64577E-09 5.49699E-09
 -1       836-1.44569E+03 3.77053E+05 2.33695E+04-1.56894E+04-7.79346E-09-7.13499E-10
 -1       837 4.97428E+03 3.84376E+05 1.97537E+04-3.21467E+04-8.56107E-09 9.63064E-09
 -1       838-5.71575E+02 3.79109E+05 2.00968E+04-1.56181E+04-7.04267E-09 2.39447E-09
 -1       839 1.26281E+04 3.90076E+05 3.79878E+04-3.22008E+04-7.62520E-09 1.08536E-08
 -1       840-3.90952E+03 3.71292E+05 6.05639E+04-1.56420E+04-6.77028E-09 1.84053E-08
 -1       856-4.85746E+04 7.99667E+03-2.10728E+04-3.95386E+02 5.68798E-09 8.77480E-09
 -1       857-5.72539E+04-9.39766E+03-1.45062E+04 5.67992E+03 6.18348E-09 8.15362E-09
 -1       858-5.20127E+04 1.12156E+03-5.46778E+03-4.19158E+02 4.05760E-09-1.01636E-10
 -1       859-5.33086E+04-1.32123E+03-3.29932E+03 5.71499E+03-6.35896E-09 2.04259E-08
 -1       860-5.25263E+04 1.57185E+02-1.38234E+03-4.30153E+02-1.21673E-10-4.72920E-09
 -1       861-5.27178E+04-1.89288E+02-7.59614E+02 5.72994E+03 1.86861E-09 4.87393E-09
 -1       862-5.26067E+04 2.13500E+01-3.14069E+02-4.34076E+02-1.80758E-09 8.16144E-09
 -1       863-5.26190E+04-2.30384E+01-1.10563E+02 5.73226E+03-6.99809E-09 1.64891E-09
 -1       864-5.26257E+04-5.27366E+00 5.56882E+01-4.32473E+02-4.09376E-09 3.66303E-09
 -1       865-5.25611E+04 6.20260E+01 2.73604E+02 5.72297E+03-4.70840E-09-3.84927E-09
 -1       866-5.26624E+04-6.36708E+01 5.46972E+02-4.24784E+02 1.42984E-09-2.72289E-09
 -1       867-5.23051E+04 5.25394E+02 1.34342E+03 5.70213E+03-2.25009E-09-1.47649E-08
 -1       868-5.28766E+04-4.60109E+02 2.23174E+03-4.11635E+02-1.18058E-09 5.99130E-10
 -1       869-5.06700E+04 3.82954E+03 5.94121E+03 5.66799E+03 1.11345E-09 4.84977E-09
 -1       870-5.42896E+04-3.27783E+03 8.62229E+03-3.90515E+02-4.13002E-09-7.53926E-09
 -1       871-5.57903E+03-2.24087E+04-1.98681E+04 1.33079E+05-4.54384E-09 1.06920E-08
 -1       872-1.96151E+03-2.70433E+04-8.33450E+03 1.72559E+05-1.21263E-08-1.75332E-08
 -1       873 4.57183E+02-2.47938E+04 5.63051E+02 1.32786E+05-5.84487E-09 6.17308E-09
 -1       874 3.40688E+03-2.23693E+04 9.87945E+03 1.72587E+05-1.28803E-08 2.88153E-08
 -1       875 6.97337E+03-2.71482E+04 2.23171E+04 1.33030E+05-4.12547E-09 1.24192E-08
 -1       876 2.97765E+05 5.00968E+04 1.52655E+04 1.19388E+05-5.34328E-10 6.15000E-09
 -1       877 2.98784E+05 5.33018E+04 8.15241E+03 1.23758E+05 8.75843E-09 4.02611E-09
 -1       878 2.99193E+05 4.84055E+04 3.41546E+03 1.20638E+05-7.71797E-09 5.61181E-09
 -1       879 2.96710E+05 5.12307E+04 1.70182E+03 1.23861E+05 1.32968E-09-5.14331E-09
 -1       880 2.99295E+05 4.83880E+04 7.92714E+02 1.20689E+05-4.78076E-09 3.30857E-09
 -1       881 2.96572E+05 5.11420E+04 4.23415E+02 1.23837E+05-1.51558E-08 1.13493E-08
 -1       882 2.99304E+05 4.84015E+04 2.71037E+02 1.20691E+05-5.32805E-09 5.00238E-09
 -1       883 2.96562E+05 5.11374E+04 2.91638E+02 1.23829E+05 2.00475E-09 7.24688E-09
 -1       884 2.99298E+05 4.83987E+04 4.64165E+02 1.20691E+05 1.65767E-09-6.95081E-09
 -1       885 2.96599E+05 5.11438E+04 9.33378E+02 1.23840E+05-3.06230E-09-2.98883E-09
 -1       886 2.99261E+05 4.83714E+04 1.88125E+03 1.20688E+05-2.87104E-09 5.64046E-09
 -1       887 2.96930E+05 5.13606E+04 4.10936E+03 1.23888E+05 1.22002E-08 5.88307E-09
 -1       888 2.99002E+05 4.84172E+04 8.28049E+03 1.20556E+05 6.96900E-11-1.81662E-08
 -1       889 3.01859E+05 5.64875E+04 1.97805E+04 1.23737E+05-4.78219E-09 9.11132E-09
 -1       890 2.95621E+05 5.24328E+04 3.70485E+04 1.17406E+05-2.79897E-09 1.38716E-08
 -1       891-8.28273E+01-1.64693E+05-2.02507E+03 2.71931E+04-3.10160E-09-1.09321E-09
 -1       892-1.65852E+02-1.65232E+05-2.17320E+03 4.13093E+04 6.07542E-10-8.39009E-10
 -1       893 5.23424E+01-1.64758E+05-3.07512E+03 2.72006E+04-1.69689E-09 1.98902E-08
 -1       894-1.51690E+03-1.66393E+05-6.36305E+03 4.11560E+04 8.20364E-10 3.69841E-08
 -1       895-1.20613E+03-1.63433E+05-1.12046E+04 2.73487E+04-2.32058E-09-8.64111E-09
 -1       956-3.82882E+05-5.54453E+03-1.36586E+04 3.18098E+04 7.60883E-09 7.06268E-09
 -1       957-3.85560E+05-1.96507E+03-7.01068E+03 3.82195E+04-4.78758E-09-6.08952E-09
 -1       958-3.84111E+05-2.55376E+02-3.15929E+03 3.16389E+04 5.18412E-11-1.18166E-08
 -1       959-3.84308E+05-1.50901E+02-1.61314E+03 3.84201E+04 1.74095E-08-1.41222E-09
 -1       960-3.84231E+05-5.56719E+01-7.86655E+02 3.16212E+04 6.90579E-09 1.10140E-09
 -1       961-3.84228E+05-7.62936E+01-4.17045E+02 3.84411E+04-1.74168E-09-1.27575E-08
 -1       962-3.84260E+05-5.66097E+01-2.38760E+02 3.16182E+04-1.08093E-09 2.84717E-09
 -1       963-3.84228E+05-7.18736E+01-1.91649E+02 3.84448E+04 2.98553E-09 9.23296E-09
 -1       964-3.84266E+05-5.31909E+01-2.33074E+02 3.16174E+04 1.31209E-09-6.08202E-09
 -1       965-3.84240E+05-6.90062E+01-4.03133E+02 3.84440E+04-5.71379E-09-8.42851E-09
 -1       966-3.84249E+05-4.55115E+01-7.57530E+02 3.16190E+04 3.35149E-09 1.60649E-08
 -1       967-3.84330E+05-1.33951E+02-1.55366E+03 3.84291E+04-1.83718E-10 1.67324E-08
 -1       968-3.84142E+05-2.31350E+02-3.04159E+03 3.16321E+04 5.59339E-09-1.33490E-08
 -1       969-3.85548E+05-1.87555E+03-6.75214E+03 3.82752E+04 4.05998E-09-3.49928E-08
 -1       970-3.82967E+05-5.32142E+03-1.31537E+04 3.17630E+04-2.60025E-09 6.04632E-09
 -1       971-3.49715E+05-1.74245E+03-9.36509E+03 1.54790E+04 3.91537E-09-8.99159E-09
 -1       972-3.51968E+05-1.28588E+03-5.10015E+03 2.13857E+04 1.46065E-09-2.10143E-08
 -1       973-3.50759E+05-6.71180E+01-2.28444E+03 1.53579E+04 4.63660E-09 3.27873E-09
 -1       974-3.50893E+05-8.81758E+01-1.18425E+03 2.15233E+04 1.23146E-09-6.24857E-09
 -1       975-3.50841E+05-2.19718E+01-5.92575E+02 1.53455E+04 1.13596E-09 6.79688E-09
 -1       976-3.50831E+05-3.80391E+01-3.43005E+02 2.15393E+04 8.17613E-09-1.34631E-08
 -1       977-3.50858E+05-2.12064E+01-2.50956E+02 1.53421E+04-2.83603E-09-4.51189E-09
 -1       978-3.50836E+05-3.17649E+01-2.96418E+02 2.15442E+04 1.16324E-09 1.64406E-08
 -1       979-3.50858E+05-1.26199E+01-4.78604E+02 1.53406E+04 1.54591E-09-2.41357E-10
 -1       980-3.50872E+05-2.86688E+01-9.25602E+02 2.15452E+04-2.93369E-09-1.89846E-08
 -1       981-3.50828E+05 1.05272E+01-1.79344E+03 1.53411E+04 8.39418E-09-9.32437E-09
 -1       982-3.51118E+05-1.61170E+02-3.70744E+03 2.15386E+04 9.69249E-09-9.25843E-09
 -1       983-3.50602E+05-1.04288E+02-7.20379E+03 1.53472E+04 5.18867E-10-6.93399E-09
 -1       984-3.54583E+05-3.92346E+03-1.61328E+04 2.14526E+04-2.76668E-09 2.05296E-09
 -1       985-3.47341E+05-5.37553E+03-2.96247E+04 1.54174E+04-4.00723E-09 3.81988E-09
 -3
    1PSTEP                        63          32           1          
  100CL  132 6.68844E-01         409                     0   32           1
 -4  DISP        4    1
 -5  D1          1    2    1    0
 -5  D2          1    2    2    0
 -5  D3          1    2    3    0
 -5  ALL         1    2    0    0    1ALL
 -1         1 4.74257E-03 0.00000E+00 0.00000E+00
 -1         2 4.67034E-03 1.26908E-29-5.29396E-23
 -1         3 3.54944E-04-4.82730E-28-1.32349E-23
 -1         5 1.82949E-04-2.02906E-27 1.65436E-24
 -1         8 4.73008E-03-3.26257E-07 0.00000E+00
 -1         9 4.65069E-03-1.45041E-05 0.00000E+00
 -1        10 3.22260E-04-2.87489E-06 0.00000E+00
 -1        12 1.85003E-04 8.24113E-07 1.24077E-24
 -1        15 4.71455E-03-3.55650E-07 0.00000E+00
 -1        16 4.72593E-03-1.70810E-05 0.00000E+00
 -1        17 2.19881E-04-6.70419E-06 0.00000E+00
 -1        18 1.89547E-04 3.72318E-05 0.00000E+00
 -1        19 1.91165E-04 1.64120E-06 0.00000E+00
 -1        20 1.91301E-04-1.22481E-05 0.00000E+00
 -1        21 1.90382E-04-3.04321E-05-3.30872E-24
 -1        24 3.08280E-05-1.07953E-05 0.00000E+00
 -1        25 2.01374E-04 3.74638E-05 0.00000E+00
 -1        26 2.02027E-04 2.27154E-06 0.00000E+00
 -1        27 1.99786E-04-1.58643E-05 0.00000E+00
 -1        28 1.99488E-04-3.10611E-05 0.00000E+00
 -1        32 0.00000E+00 0.00000E+00 0.00000E+00
 -1        33 2.11917E-04 3.03781E-06 0.00000E+00
 -1        34 2.09764E-04-1.59242E-05 0.00000E+00
 -1        35 2.07806E-04-3.14087E-05 0.00000E+00
 -1        51 4.74179E-03-7.16349E-08 6.61744E-24
 -1        52 4.74032E-03-1.24752E-07 0.00000E+00
 -1        53 4.73827E-03-1.74523E-07 0.00000E+00
 -1        54 4.73580E-03-2.23245E-07 0.00000E+00
 -1        55 4.73302E-03-2.72694E-07-8.27181E-25
 -1        56 4.73358E-03 1.16417E-05 5.29396E-23
 -1        57 4.71440E-03 4.81263E-05 5.29396E-23
 -1        58 4.68714E-03 1.03568E-04-1.05879E-22
 -1        59 4.65482E-03 1.70297E-04 0.00000E+00
 -1        60 4.62176E-03 2.38680E-04 1.05879E-22
 -1        61 4.59234E-03 2.98930E-04 0.00000E+00
 -1        62 4.57007E-03 3.42703E-04 0.00000E+00
 -1        63 4.55743E-03 3.63093E-04 5.29396E-23
 -1        64 4.55480E-03 3.57467E-04 0.00000E+00
 -1        65 4.56150E-03 3.25653E-04 5.29396E-23
 -1        66 4.57532E-03 2.72481E-04 0.00000E+00
 -1        67 4.59364E-03 2.04913E-04-5.29396E-23
 -1        68 4.61336E-03 1.32753E-04 0.00000E+00
 -1        69 4.63139E-03 6.62771E-05-5.29396E-23
 -1        70 4.64472E-03 1.46321E-05-1.05879E-22
 -1        86 4.66624E-03-2.40423E-06 0.00000E+00
 -1        87 4.65434E-03-4.86621E-06-2.64698E-23
 -1        88 4.64200E-03-7.33252E-06 0.00000E+00
 -1        89 4.63660E-03-9.72819E-06 0.00000E+00
 -1        90 4.63936E-03-1.21185E-05-5.29396E-23
 -1       121 3.54028E-04-4.60632E-07 0.00000E+00
 -1       122 3.51283E-04-9.24483E-07-6.61744E-24
 -1       123 3.46716E-04-1.39473E-06 1.32349E-23
 -1       124 3.40343E-04-1.87453E-06 6.61744E-24
 -1       125 3.32182E-04-2.36675E-06 0.00000E+00
 -1       191 1.83006E-04 1.37430E-07 8.27181E-25
 -1       192 1.83177E-04 2.74846E-07-1.24077E-24
 -1       193 1.83462E-04 4.12237E-07-2.48154E-24
 -1       194 1.83862E-04 5.49589E-07 4.13590E-25
 -1       195 1.84375E-04 6.86886E-07-8.27181E-25
 -1       251 4.72907E-03 2.65633E-05-1.32349E-23
 -1       252 4.72572E-03 1.01332E-04 0.00000E+00
 -1       253 4.71940E-03 2.10611E-04 0.00000E+00
 -1       254 4.71073E-03 3.40221E-04 6.61744E-24
 -1       255 4.70201E-03 4.70154E-04 0.00000E+00
 -1       256 4.69558E-03 5.80401E-04-6.61744E-24
 -1       257 4.69212E-03 6.56593E-04 0.00000E+00
 -1       258 4.69107E-03 6.85162E-04 0.00000E+00
 -1       259 4.69020E-03 6.64705E-04-1.32349E-23
 -1       260 4.68720E-03 5.95177E-04 6.61744E-24
 -1       261 4.68118E-03 4.88959E-04 0.00000E+00
 -1       262 4.67249E-03 3.59309E-04 0.00000E+00
 -1       263 4.66337E-03 2.26139E-04 0.00000E+00
 -1       264 4.65623E-03 1.09432E-04-1.32349E-23
 -1       265 4.65210E-03 2.43839E-05-2.64698E-23
 -1       266 4.72749E-03-3.36206E-07-1.65436E-24
 -1       267 4.72490E-03-3.40489E-07 0.00000E+00
 -1       268 4.72232E-03-3.45131E-07 0.00000E+00
 -1       269 4.71973E-03-3.48711E-07-1.03398E-25
 -1       270 4.71714E-03-3.52265E-07 0.00000E+00
 -1       271 4.72830E-03 2.80717E-06 1.32349E-23
 -1       272 4.72605E-03 7.11688E-06 0.00000E+00
 -1       273 4.72349E-03 1.22353E-05 0.00000E+00
 -1       274 4.72077E-03 1.77806E-05 0.00000E+00
 -1       275 4.71803E-03 2.33705E-05-1.32349E-23
 -1       276 4.71542E-03 2.86214E-05 6.61744E-24
 -1       277 4.71309E-03 3.31522E-05-1.32349E-23
 -1       278 4.71117E-03 3.65863E-05 0.00000E+00
 -1       279 4.70980E-03 3.85546E-05 0.00000E+00
 -1       280 4.70913E-03 3.86976E-05 0.00000E+00
 -1       281 4.70926E-03 3.66680E-05 0.00000E+00
 -1       282 4.71032E-03 3.21329E-05-6.61744E-24
 -1       283 4.71243E-03 2.47764E-05 0.00000E+00
 -1       284 4.71568E-03 1.43019E-05-6.61744E-24
 -1       285 4.72015E-03 4.32666E-07 1.32349E-23
 -1       301 4.66355E-03-1.49564E-05-1.32349E-23
 -1       302 4.67476E-03-1.53646E-05 0.00000E+00
 -1       303 4.68546E-03-1.57645E-05 1.32349E-23
 -1       304 4.69679E-03-1.61704E-05 0.00000E+00
 -1       305 4.70990E-03-1.66004E-05 0.00000E+00
 -1       306 4.69594E-03-2.23540E-04 1.05879E-22
 -1       307 4.74530E-03-7.78700E-04 0.00000E+00
 -1       308 4.73031E-03-1.58969E-03-1.05879E-22
 -1       309 4.65579E-03-2.52515E-03 0.00000E+00
 -1       310 4.60466E-03-3.41205E-03 1.05879E-22
 -1       311 4.63493E-03-4.07936E-03-5.29396E-23
 -1       312 4.69328E-03-4.41329E-03-2.11758E-22
 -1       313 4.66918E-03-4.38317E-03-5.29396E-23
 -1       314 4.42728E-03-4.01524E-03-2.11758E-22
 -1       315 3.90715E-03-3.43409E-03-5.29396E-23
 -1       316 3.13487E-03-2.74862E-03 1.05879E-22
 -1       317 2.21860E-03-2.03643E-03 0.00000E+00
 -1       318 1.34791E-03-1.33224E-03-1.05879E-22
 -1       319 6.98751E-04-6.87566E-04 0.00000E+00
 -1       320 3.34242E-04-2.09019E-04 2.11758E-22
 -1       336 3.10378E-04-3.43998E-06-1.32349E-23
 -1       337 2.96343E-04-4.03215E-06 0.00000E+00
 -1       338 2.80208E-04-4.65419E-06 0.00000E+00
 -1       339 2.62038E-04-5.30700E-06 3.30872E-24
 -1       340 2.41902E-04-5.99609E-06 6.61744E-24
 -1       406 1.85745E-04 9.61248E-07-8.27181E-25
 -1       407 1.86601E-04 1.09825E-06 4.13590E-25
 -1       408 1.87571E-04 1.23507E-06 8.27181E-25
 -1       409 1.88655E-04 1.37152E-06 8.27181E-25
 -1       410 1.89854E-04 1.50732E-06 2.06795E-25
 -1       521 4.77047E-03-2.38853E-04 2.11758E-22
 -1       522 4.81441E-03-8.14151E-04-5.29396E-23
 -1       523 4.78956E-03-1.64625E-03 1.05879E-22
 -1       524 4.70766E-03-2.59342E-03 0.00000E+00
 -1       525 4.65109E-03-3.48903E-03-2.11758E-22
 -1       526 4.67649E-03-4.16894E-03 0.00000E+00
 -1       527 4.73216E-03-4.50736E-03-2.11758E-22
 -1       528 4.70205E-03-4.47128E-03 0.00000E+00
 -1       529 4.44051E-03-4.08723E-03 2.11758E-22
 -1       530 3.88926E-03-3.49257E-03 0.00000E+00
 -1       531 3.07982E-03-2.79949E-03 0.00000E+00
 -1       532 2.13271E-03-2.08488E-03 0.00000E+00
 -1       533 1.23190E-03-1.37721E-03-2.11758E-22
 -1       534 5.47938E-04-7.21427E-04-1.05879E-22
 -1       535 1.58076E-04-2.27122E-04-2.11758E-22
 -1       536 2.19090E-04 2.94766E-05 3.30872E-24
 -1       537 2.17048E-04 9.19943E-05 0.00000E+00
 -1       538 2.13891E-04 1.71277E-04 0.00000E+00
 -1       539 2.10166E-04 2.57666E-04-1.65436E-24
 -1       540 2.06817E-04 3.39273E-04 0.00000E+00
 -1       541 2.04644E-04 4.04237E-04 0.00000E+00
 -1       542 2.03647E-04 4.45611E-04-3.30872E-24
 -1       543 2.03416E-04 4.56606E-04 0.00000E+00
 -1       544 2.03081E-04 4.38013E-04 0.00000E+00
 -1       545 2.01842E-04 3.90854E-04 0.00000E+00
 -1       546 1.99524E-04 3.23498E-04-3.30872E-24
 -1       547 1.96378E-04 2.44436E-04 0.00000E+00
 -1       548 1.93259E-04 1.65736E-04 0.00000E+00
 -1       549 1.91011E-04 9.94701E-05-1.65436E-24
 -1       550 1.89846E-04 5.39182E-05 1.65436E-24
 -1       551 1.94008E-04-7.22214E-06 0.00000E+00
 -1       552 1.64797E-04-7.83049E-06 0.00000E+00
 -1       553 1.33054E-04-8.51043E-06 0.00000E+00
 -1       554 9.95974E-05-9.24460E-06 2.06795E-24
 -1       555 6.52493E-05-1.00087E-05 1.32349E-23
 -1       556 2.11940E-04 1.36092E-05 5.29396E-23
 -1       557 2.05514E-04 3.00951E-05 0.00000E+00
 -1       558 2.00471E-04 4.30524E-05 0.00000E+00
 -1       559 1.96675E-04 5.28007E-05-2.64698E-23
 -1       560 1.93990E-04 5.96604E-05 0.00000E+00
 -1       561 1.92286E-04 6.39542E-05 0.00000E+00
 -1       562 1.91431E-04 6.60063E-05 0.00000E+00
 -1       563 1.91300E-04 6.61418E-05 0.00000E+00
 -1       564 1.91765E-04 6.46868E-05 0.00000E+00
 -1       565 1.92702E-04 6.19681E-05 0.00000E+00
 -1       566 1.93987E-04 5.83129E-05 0.00000E+00
 -1       567 1.95499E-04 5.40492E-05 0.00000E+00
 -1       568 1.97115E-04 4.95049E-05 1.65436E-24
 -1       569 1.98714E-04 4.50080E-05 8.27181E-25
 -1       570 2.00173E-04 4.08865E-05 0.00000E+00
 -1       571 1.89645E-04 3.49203E-05 0.00000E+00
 -1       572 1.89745E-04 3.25415E-05 4.13590E-25
 -1       573 1.89846E-04 3.01116E-05-1.65436E-24
 -1       574 1.89947E-04 2.76477E-05 8.27181E-25
 -1       575 1.90048E-04 2.51668E-05 3.30872E-24
 -1       576 1.90149E-04 2.26859E-05 0.00000E+00
 -1       577 1.90250E-04 2.02221E-05 0.00000E+00
 -1       578 1.90351E-04 1.77927E-05 0.00000E+00
 -1       579 1.90452E-04 1.54146E-05 0.00000E+00
 -1       580 1.90554E-04 1.31051E-05 3.30872E-24
 -1       581 1.90655E-04 1.08813E-05 0.00000E+00
 -1       582 1.90757E-04 8.76015E-06 0.00000E+00
 -1       583 1.90859E-04 6.75888E-06-6.61744E-24
 -1       584 1.90961E-04 4.89438E-06 0.00000E+00
 -1       585 1.91063E-04 3.18338E-06 0.00000E+00
 -1       586 1.91478E-04 3.72726E-05 1.65436E-24
 -1       587 1.93367E-04 3.73129E-05-8.27181E-25
 -1       588 1.95257E-04 3.73528E-05 8.27181E-25
 -1       589 1.97192E-04 3.73920E-05 0.00000E+00
 -1       590 1.99217E-04 3.74299E-05 0.00000E+00
 -1       591 1.90342E-04 3.50184E-05-2.06795E-25
 -1       592 1.91140E-04 3.27866E-05 0.00000E+00
 -1       593 1.91942E-04 3.05420E-05 8.27181E-25
 -1       594 1.92746E-04 2.82892E-05 0.00000E+00
 -1       595 1.93552E-04 2.60328E-05 0.00000E+00
 -1       596 1.94357E-04 2.37774E-05 0.00000E+00
 -1       597 1.95161E-04 2.15274E-05 8.27181E-25
 -1       598 1.95960E-04 1.92874E-05 0.00000E+00
 -1       599 1.96754E-04 1.70619E-05 0.00000E+00
 -1       600 1.97541E-04 1.48555E-05 0.00000E+00
 -1       601 1.98319E-04 1.26726E-05 0.00000E+00
 -1       602 1.99087E-04 1.05178E-05-4.13590E-25
 -1       603 1.99843E-04 8.39565E-06-4.13590E-25
 -1       604 2.00586E-04 6.31070E-06 1.55096E-25
 -1       605 2.01313E-04 4.26743E-06 4.13590E-25
 -1       606 1.91178E-04 3.37330E-07 0.00000E+00
 -1       607 1.91188E-04-8.82791E-07 0.00000E+00
 -1       608 1.91196E-04-2.02407E-06 0.00000E+00
 -1       609 1.91204E-04-3.09206E-06 0.00000E+00
 -1       610 1.91212E-04-4.09236E-06 0.00000E+00
 -1       611 1.91221E-04-5.03062E-06 0.00000E+00
 -1       612 1.91229E-04-5.91249E-06 0.00000E+00
 -1       613 1.91237E-04-6.74367E-06 0.00000E+00
 -1       614 1.91245E-04-7.52981E-06 0.00000E+00
 -1       615 1.91253E-04-8.27657E-06 0.00000E+00
 -1       616 1.91261E-04-8.98965E-06 0.00000E+00
 -1       617 1.91269E-04-9.67470E-06-4.13590E-25
 -1       618 1.91277E-04-1.03374E-05 0.00000E+00
 -1       619 1.91285E-04-1.09834E-05-2.06795E-25
 -1       620 1.91293E-04-1.16184E-05-2.06795E-25
 -1       621 1.92671E-04 1.74690E-06 3.30872E-24
 -1       622 1.94346E-04 1.85282E-06 0.00000E+00
 -1       623 1.96155E-04 1.95849E-06-3.30872E-24
 -1       624 1.98062E-04 2.06380E-06-8.27181E-25
 -1       625 2.00031E-04 2.16880E-06 0.00000E+00
 -1       626 1.91768E-04 3.74136E-07 0.00000E+00
 -1       627 1.92349E-04-8.32282E-07-3.30872E-24
 -1       628 1.92910E-04-1.98584E-06 0.00000E+00
 -1       629 1.93455E-04-3.09462E-06 0.00000E+00
 -1       630 1.93986E-04-4.16673E-06-3.30872E-24
 -1       631 1.94506E-04-5.21031E-06 0.00000E+00
 -1       632 1.95019E-04-6.23345E-06 3.30872E-24
 -1       633 1.95527E-04-7.24432E-06 1.65436E-24
 -1       634 1.96033E-04-8.25101E-06 3.30872E-24
 -1       635 1.96541E-04-9.26166E-06 1.65436E-24
 -1       636 1.97054E-04-1.02844E-05 0.00000E+00
 -1       637 1.97574E-04-1.13274E-05 0.00000E+00
 -1       638 1.98105E-04-1.23987E-05-3.30872E-24
 -1       639 1.98648E-04-1.35065E-05 0.00000E+00
 -1       640 1.99209E-04-1.46589E-05 1.65436E-24
 -1       656 1.92163E-04-1.28357E-05 0.00000E+00
 -1       657 1.93444E-04-1.34474E-05 0.00000E+00
 -1       658 1.95008E-04-1.40576E-05 0.00000E+00
 -1       659 1.96709E-04-1.46675E-05 6.61744E-24
 -1       660 1.98363E-04-1.52793E-05-6.61744E-24
 -1       661 1.91623E-04-1.29241E-05 0.00000E+00
 -1       662 1.91983E-04-1.36944E-05 8.27181E-25
 -1       663 1.92377E-04-1.45536E-05 1.65436E-24
 -1       664 1.92801E-04-1.54948E-05-8.27181E-25
 -1       665 1.93255E-04-1.65120E-05 0.00000E+00
 -1       666 1.93734E-04-1.75990E-05 0.00000E+00
 -1       667 1.94237E-04-1.87498E-05 0.00000E+00
 -1       668 1.94762E-04-1.99587E-05 0.00000E+00
 -1       669 1.95307E-04-2.12199E-05-1.65436E-24
 -1       670 1.95869E-04-2.25280E-05 0.00000E+00
 -1       671 1.96446E-04-2.38773E-05-1.65436E-24
 -1       672 1.97037E-04-2.52627E-05-8.27181E-25
 -1       673 1.97639E-04-2.66787E-05-1.65436E-24
 -1       674 1.98250E-04-2.81204E-05 0.00000E+00
 -1       675 1.98868E-04-2.95823E-05 2.06795E-25
 -1       676 1.91905E-04-3.05376E-05 0.00000E+00
 -1       677 1.93427E-04-3.06430E-05 0.00000E+00
 -1       678 1.94947E-04-3.07483E-05 3.30872E-24
 -1       679 1.96465E-04-3.08533E-05 1.65436E-24
 -1       680 1.97979E-04-3.09583E-05 0.00000E+00
 -1       771 1.77489E-05 1.86679E-05-5.29396E-23
 -1       772 6.78002E-06 4.28433E-05 0.00000E+00
 -1       773-2.17789E-06 6.19850E-05 0.00000E+00
 -1       774-9.26519E-06 7.63768E-05 1.05879E-22
 -1       775-1.46184E-05 8.63147E-05 0.00000E+00
 -1       776-1.83797E-05 9.21132E-05 0.00000E+00
 -1       777-2.06904E-05 9.40985E-05 0.00000E+00
 -1       778-2.16947E-05 9.26125E-05 0.00000E+00
 -1       779-2.15356E-05 8.80067E-05 5.29396E-23
 -1       780-2.03582E-05 8.06455E-05 0.00000E+00
 -1       781-1.83063E-05 7.09010E-05 5.29396E-23
 -1       782-1.55252E-05 5.91556E-05-2.64698E-23
 -1       783-1.21590E-05 4.57966E-05 0.00000E+00
 -1       784-8.35307E-06 3.12186E-05 0.00000E+00
 -1       785-4.25140E-06 1.58195E-05 5.29396E-23
 -1       786 2.01410E-04 3.50314E-05 2.58494E-26
 -1       787 2.01450E-04 3.26503E-05 0.00000E+00
 -1       788 2.01490E-04 3.03120E-05 0.00000E+00
 -1       789 2.01531E-04 2.80083E-05 0.00000E+00
 -1       790 2.01572E-04 2.57344E-05 1.65436E-24
 -1       791 2.01613E-04 2.34853E-05 0.00000E+00
 -1       792 2.01654E-04 2.12588E-05 1.65436E-24
 -1       793 2.01695E-04 1.90526E-05 0.00000E+00
 -1       794 2.01736E-04 1.68664E-05-1.65436E-24
 -1       795 2.01777E-04 1.46999E-05 0.00000E+00
 -1       796 2.01819E-04 1.25549E-05 0.00000E+00
 -1       797 2.01860E-04 1.04331E-05 8.27181E-25
 -1       798 2.01902E-04 8.33845E-06 1.65436E-24
 -1       799 2.01943E-04 6.27519E-06 0.00000E+00
 -1       800 2.01985E-04 4.25046E-06 0.00000E+00
 -1       801 1.53264E-04 3.37329E-05 2.64698E-23
 -1       802 7.90169E-06 2.09487E-05-2.64698E-23
 -1       803-1.16114E-04 1.04949E-05-5.29396E-23
 -1       804-1.02884E-04 7.33444E-06-2.64698E-23
 -1       805-3.44098E-05 2.85509E-06-5.29396E-23
 -1       806 2.02168E-04 3.49614E-05 0.00000E+00
 -1       807 2.02949E-04 3.24857E-05 1.65436E-24
 -1       808 2.03716E-04 3.00423E-05 0.00000E+00
 -1       809 2.04470E-04 2.76350E-05-1.65436E-24
 -1       810 2.05209E-04 2.52682E-05-3.30872E-24
 -1       811 2.05931E-04 2.29457E-05-1.65436E-24
 -1       812 2.06634E-04 2.06717E-05-3.30872E-24
 -1       813 2.07319E-04 1.84500E-05 0.00000E+00
 -1       814 2.07982E-04 1.62847E-05 3.30872E-24
 -1       815 2.08623E-04 1.41797E-05-1.65436E-24
 -1       816 2.09240E-04 1.21390E-05 0.00000E+00
 -1       817 2.09831E-04 1.01666E-05 0.00000E+00
 -1       818 2.10396E-04 8.26630E-06 1.65436E-24
 -1       819 2.10932E-04 6.44217E-06 1.65436E-24
 -1       820 2.11439E-04 4.69805E-06-1.65436E-24
 -1       821 2.01896E-04-3.84359E-07-1.65436E-24
 -1       822 2.01753E-04-4.43379E-06-1.65436E-24
 -1       823 2.01606E-04-9.37573E-06 3.30872E-24
 -1       824 2.01456E-04-1.47035E-05 1.65436E-24
 -1       825 2.01307E-04-1.98053E-05 3.30872E-24
 -1       826 2.01161E-04-2.40706E-05-1.65436E-24
 -1       827 2.01020E-04-2.71184E-05-3.30872E-24
 -1       828 2.00882E-04-2.85754E-05 0.00000E+00
 -1       829 2.00745E-04-2.85048E-05 3.30872E-24
 -1       830 2.00607E-04-2.69790E-05 0.00000E+00
 -1       831 2.00468E-04-2.44697E-05 0.00000E+00
 -1       832 2.00327E-04-2.14549E-05-1.65436E-24
 -1       833 2.00186E-04-1.85512E-05 0.00000E+00
 -1       834 2.00049E-04-1.63747E-05 0.00000E+00
 -1       835 1.99913E-04-1.53424E-05-8.27181E-25
 -1       836 2.03892E-04 2.39856E-06 0.00000E+00
 -1       837 2.05629E-04 2.52881E-06 1.65436E-24
 -1       838 2.07269E-04 2.65902E-06-3.30872E-24
 -1       839 2.08843E-04 2.78853E-06-1.65436E-24
 -1       840 2.10382E-04 2.91788E-06-8.27181E-25
 -1       856 1.99771E-04-1.70923E-05-8.27181E-25
 -1       857 1.99752E-04-1.81835E-05 0.00000E+00
 -1       858 1.99734E-04-1.91591E-05-2.06795E-25
 -1       859 1.99716E-04-2.00404E-05 2.06795E-25
 -1       860 1.99697E-04-2.08487E-05 0.00000E+00
 -1       861 1.99679E-04-2.16056E-05 0.00000E+00
 -1       862 1.99660E-04-2.23324E-05 4.13590E-25
 -1       863 1.99642E-04-2.30506E-05-2.06795E-25
 -1       864 1.99623E-04-2.37818E-05 0.00000E+00
 -1       865 1.99604E-04-2.45473E-05 0.00000E+00
 -1       866 1.99585E-04-2.53688E-05-8.27181E-25
 -1       867 1.99567E-04-2.62675E-05 0.00000E+00
 -1       868 1.99548E-04-2.72648E-05-8.27181E-25
 -1       869 1.99528E-04-2.83821E-05-4.13590E-25
 -1       870 1.99509E-04-2.96404E-05-8.27181E-25
 -1       871 2.01306E-04-1.58697E-05 0.00000E+00
 -1       872 2.02976E-04-1.58787E-05 0.00000E+00
 -1       873 2.04727E-04-1.58883E-05 0.00000E+00
 -1       874 2.06488E-04-1.58988E-05-7.75482E-26
 -1       875 2.08190E-04-1.59097E-05-8.27181E-25
 -1       876 2.00375E-04-1.70775E-05 0.00000E+00
 -1       877 2.00942E-04-1.82233E-05 1.65436E-24
 -1       878 2.01486E-04-1.93096E-05 3.30872E-24
 -1       879 2.02012E-04-2.03441E-05 0.00000E+00
 -1       880 2.02521E-04-2.13340E-05 0.00000E+00
 -1       881 2.03017E-04-2.22869E-05 0.00000E+00
 -1       882 2.03501E-04-2.32101E-05 0.00000E+00
 -1       883 2.03977E-04-2.41111E-05-1.65436E-24
 -1       884 2.04447E-04-2.49973E-05 0.00000E+00
 -1       885 2.04915E-04-2.58760E-05-1.65436E-24
 -1       886 2.05382E-04-2.67546E-05 0.00000E+00
 -1       887 2.05853E-04-2.76405E-05 0.00000E+00
 -1       888 2.06328E-04-2.85413E-05-3.30872E-24
 -1       889 2.06811E-04-2.94643E-05-1.65436E-24
 -1       890 2.07305E-04-3.04170E-05 0.00000E+00
 -1       891 2.01017E-04-3.11195E-05-1.65436E-24
 -1       892 2.02523E-04-3.11781E-05-8.27181E-25
 -1       893 2.03980E-04-3.12366E-05 0.00000E+00
 -1       894 2.05362E-04-3.12948E-05-8.27181E-25
 -1       895 2.06646E-04-3.13527E-05 4.13590E-25
 -1       956 2.11784E-04 1.55597E-06 1.65436E-24
 -1       957 2.11650E-04 1.67865E-07 8.27181E-25
 -1       958 2.11515E-04-1.13755E-06-3.30872E-24
 -1       959 2.11380E-04-2.37195E-06 1.65436E-24
 -1       960 2.11245E-04-3.54706E-06 0.00000E+00
 -1       961 2.11110E-04-4.67461E-06 1.65436E-24
 -1       962 2.10975E-04-5.76637E-06-3.30872E-24
 -1       963 2.10840E-04-6.83414E-06 0.00000E+00
 -1       964 2.10705E-04-7.88967E-06 0.00000E+00
 -1       965 2.10570E-04-8.94474E-06-1.65436E-24
 -1       966 2.10435E-04-1.00112E-05 0.00000E+00
 -1       967 2.10301E-04-1.11007E-05 0.00000E+00
 -1       968 2.10166E-04-1.22250E-05 0.00000E+00
 -1       969 2.10031E-04-1.33960E-05 0.00000E+00
 -1       970 2.09897E-04-1.46253E-05 0.00000E+00
 -1       971 2.09643E-04-1.72246E-05-3.30872E-24
 -1       972 2.09520E-04-1.84301E-05 0.00000E+00
 -1       973 2.09397E-04-1.95512E-05-3.30872E-24
 -1       974 2.09273E-04-2.05989E-05 0.00000E+00
 -1       975 2.09150E-04-2.15839E-05 3.30872E-24
 -1       976 2.09027E-04-2.25171E-05 0.00000E+00
 -1       977 2.08904E-04-2.34096E-05 0.00000E+00
 -1       978 2.08781E-04-2.42722E-05-1.65436E-24
 -1       979 2.08658E-04-2.51158E-05 0.00000E+00
 -1       980 2.08535E-04-2.59514E-05-1.65436E-24
 -1       981 2.08412E-04-2.67899E-05 0.00000E+00
 -1       982 2.08290E-04-2.76423E-05-1.65436E-24
 -1       983 2.08167E-04-2.85195E-05 3.30872E-24
 -1       984 2.08045E-04-2.94324E-05 1.65436E-24
 -1       985 2.07923E-04-3.03919E-05 3.30872E-24
 -3
    1PSTEP                        64          32           1          
  100CL  132 6.68844E-01         409                     0   32           1
 -4  STRESS      6    1
 -5  SXX         1    4    1    1
 -5  SYY         1    4    2    2
 -5  SZZ         1    4    3    3
 -5  SXY         1    4    1    2
 -5  SYZ         1    4    2    3
 -5  SZX         1    4    3    1
 -1         1-5.16601E+06-1.63448E+06-1.12423E+06-1.41975E+06-1.74623E-09 5.48316E-07
 -1         2-6.95996E+03-6.77034E+06-1.87067E+04-2.34337E+05-4.40195E-10 9.11212E-07
 -1         3-1.55766E+03-1.30605E+06 3.30441E+02-1.89909E+03-5.56138E-10-5.74219E-08
 -1         5-9.28979E+01 3.93610E+05 1.01536E+01-1.54507E+00-4.17358E-10 4.12692E-08
 -1         8-1.80269E+05-5.25683E+04 2.69240E+04-8.88055E+04-1.18416E-09 4.75387E-07
 -1         9 2.09156E+07-1.56227E+06 3.24949E+06-3.45766E+06 6.78352E-08-6.03963E-08
 -1        10-2.36438E+03-1.36090E+06-4.45578E+03-1.28907E+04-1.42172E-08-2.11804E-08
 -1        12-8.89592E+01 3.93632E+05 3.34884E+02-1.04439E+01-8.48543E-10 7.43967E-10
 -1        15 8.36775E+02 4.59850E+02 2.70486E+03 9.36311E-01-6.08324E-10 2.48571E-07
 -1        16 4.12459E+07-9.41784E+05 5.26643E+06-5.16328E+06 1.53668E-08 2.99187E-07
 -1        17 1.39627E+07 1.35480E+07 4.33893E+06 1.19323E+07-8.57399E-09 1.52504E-08
 -1        18 1.55253E+05 3.71024E+04 6.71922E+03-1.22773E+05 1.59778E-08-6.52335E-09
 -1        19 1.24581E+05 1.44153E+05-9.64188E+02 2.21797E+04 1.87720E-09-2.24463E-09
 -1        20-8.53387E+04-5.83385E+05-1.31046E+05 2.44363E+04-2.19643E-09 3.38878E-09
 -1        21-4.55416E+01-2.98637E+05-9.29857E+02 3.11942E+02 1.51840E-08 2.60720E-08
 -1        24 2.39537E+07 2.44306E+07 6.74914E+06 2.22181E+07-2.24701E-07-5.71405E-08
 -1        25 1.53644E+05 3.75872E+05 1.27487E+05-7.04710E+05-6.71662E-10 1.45612E-08
 -1        26-5.70550E+04 9.39427E+04-2.51337E+04 2.12439E+03-3.43789E-10 1.16601E-08
 -1        27-7.54060E+04-3.14794E+05-1.14799E+05 7.00293E+04 4.48896E-09 5.28568E-09
 -1        28 2.23785E+04-8.63627E+04 1.70584E+04 2.03964E+04-7.35005E-09 8.85785E-09
 -1        32-1.69428E+06-3.30876E+06-2.15681E+05 5.54901E+05-4.75484E-08-1.29417E-08
 -1        33-1.81171E+05 9.47876E+04 3.29408E+04-3.84558E+04-3.36282E-09 4.23036E-09
 -1        34-2.26684E+05-2.55982E+04 7.10268E+02 7.72024E+04-5.99880E-09-5.47637E-09
 -1        35-2.31030E+04-3.42461E+04-1.36556E+03 5.19457E+04-5.04142E-09-6.00752E-09
 -1        51 6.09505E+04-1.31441E+05 1.29500E+05-4.46983E+05-3.63798E-10 5.08291E-07
 -1        52 2.05853E+04-1.08925E+05 6.78716E+04-5.20916E+05 6.18456E-11-9.37871E-08
 -1        53 4.14682E+03-1.24844E+05 3.51157E+04-4.45262E+05 2.18279E-10 2.98664E-07
 -1        54 7.48774E+03-1.20964E+05 2.84947E+04-5.22758E+05-6.54836E-11-2.86935E-07
 -1        55 1.60518E+04-1.28142E+05 3.42002E+04-4.44990E+05 5.96629E-10 2.03876E-07
 -1        56-9.92048E+06-1.47170E+06-9.71510E+05-4.17177E+06-1.90339E-08-1.30385E-07
 -1        57-1.09582E+07-8.34936E+05-5.26462E+05-2.75915E+06 2.55604E-08 7.93370E-08
 -1        58-9.54148E+06-2.03822E+06-2.17343E+05-4.46901E+06 4.24188E-08 3.62008E-07
 -1        59-1.15459E+07-7.62084E+04-1.04675E+05-2.59860E+06-5.15174E-08-1.38702E-07
 -1        60-9.51054E+06-2.09864E+06-4.87202E+04-4.48963E+06-2.20971E-08-3.69597E-07
 -1        61-1.09435E+07-3.50702E+05 2.21729E+04-2.75176E+06 6.54109E-08-8.26840E-08
 -1        62-1.00063E+07-1.85505E+06-9.26503E+04-4.19747E+06-5.66070E-08-3.66708E-08
 -1        63-9.71105E+06-1.20974E+06 8.41332E+04-3.42767E+06 4.32265E-08-8.36189E-08
 -1        64-1.05320E+07-1.38744E+06-1.10565E+05-3.66172E+06-3.51429E-08-3.91694E-07
 -1        65-9.09962E+06-2.04537E+06 4.31857E+04-4.56201E+06-1.52504E-08-7.72911E-07
 -1        66-1.07317E+07-9.43125E+05-6.49079E+04-3.16690E+06 7.88132E-08-4.19110E-07
 -1        67-9.13686E+06-2.46034E+06-9.04523E+04-5.31542E+06-1.25938E-07-2.56372E-07
 -1        68-1.07275E+07-8.08513E+05-1.80292E+05-3.05999E+06-4.34261E-08-8.35571E-08
 -1        69-9.27194E+06-2.60573E+06-4.85741E+05-4.95728E+06-1.31208E-07 2.56186E-08
 -1        70-1.04935E+07-8.81710E+05-8.61715E+05-3.45655E+06 5.01113E-08-3.01283E-07
 -1        86 1.81411E+03-6.84588E+06-3.82017E+04 1.17151E+05 1.42409E-08 1.39987E-07
 -1        87-2.39270E+04-6.79020E+06-5.66419E+04-2.46890E+05 1.99971E-08-1.83601E-07
 -1        88 2.37048E+04-6.82945E+06-1.07592E+05 1.29732E+05 7.69069E-09 1.63508E-07
 -1        89-1.89804E+05-6.85606E+06-2.66076E+05-2.44161E+04 8.69841E-09 1.76302E-07
 -1        90 1.62294E+05-6.77762E+06-4.00769E+05-1.05344E+05-1.23982E-08 4.73816E-07
 -1       121-2.12370E+03-1.31112E+06-6.83544E+02 9.39282E+02 1.45444E-09-2.87109E-08
 -1       122-1.40011E+03-1.30611E+06 5.96187E+02-3.80846E+03-5.39831E-09-3.49683E-08
 -1       123-2.13654E+03-1.31123E+06-1.00577E+02 2.80782E+03 4.23597E-09 6.27188E-09
 -1       124-3.05029E+01-1.30577E+06 2.21428E+03-8.06129E+03-1.04901E-08-1.79771E-08
 -1       125-2.80082E+03-1.31198E+06 2.17621E+03 5.14089E+03 6.76300E-09 7.75981E-09
 -1       191-9.78247E+01 3.93625E+05 7.80649E+00 8.11834E-01-6.03446E-10 3.22907E-08
 -1       192-9.38900E+01 3.93610E+05 2.17076E+01-4.87720E+00-9.40125E-10-8.65839E-09
 -1       193-1.00430E+02 3.93624E+05 3.61588E+01 4.30530E+00-1.20345E-09 4.67844E-09
 -1       194-9.70679E+01 3.93614E+05 8.26203E+01-1.10433E+01-7.01263E-10 2.92857E-08
 -1       195-1.05429E+02 3.93622E+05 1.57382E+02 7.23767E+00-1.66433E-09 1.45264E-08
 -1       251-2.64856E+06-1.17929E+05-3.58879E+05-2.22377E+05-1.32495E-08-1.86701E-07
 -1       252-3.96627E+05 1.44781E+05 1.93749E+05 6.63253E+05-1.11577E-08-1.54407E-07
 -1       253-1.69618E+06-4.39395E+04-6.01465E+04-4.27611E+05-4.99494E-09-2.70629E-07
 -1       254-1.46744E+06 1.52846E+05 3.71685E+04 8.55617E+05-1.89777E-08-3.14588E-07
 -1       255-1.68228E+06-3.99002E+04-3.44358E+04-4.28827E+05 4.65025E-08 3.24062E-07
 -1       256-4.33363E+05 1.18861E+05 2.37005E+05 6.69881E+05-7.30324E-09-2.96868E-08
 -1       257-2.62842E+06-9.38824E+04-2.33601E+05-2.28033E+05 1.50649E-08-5.69339E-08
 -1       258 6.94531E+05 8.50786E+04 4.46760E+05 3.85773E+04 3.56667E-08-3.51174E-07
 -1       259-2.69838E+06-9.78348E+04-2.46477E+05 1.94968E+05 3.39423E-09-1.76826E-08
 -1       260-2.66080E+05 1.18302E+05 2.74225E+05-6.25082E+05 5.90444E-09-3.81078E-07
 -1       261-1.76299E+06-4.90107E+04-4.07907E+04 4.24868E+05 7.94735E-08 2.07836E-07
 -1       262-1.45309E+06 1.69114E+05 6.76344E+04-8.50425E+05-8.01958E-08-4.04702E-09
 -1       263-1.62870E+06-5.19605E+04 1.33935E+03 4.35567E+05-1.16188E-08-2.32376E-09
 -1       264-5.28134E+05 2.39525E+05 2.87339E+05-7.02403E+05 2.12915E-07 1.55968E-07
 -1       265-2.60112E+06-1.90691E+05-1.64312E+05 2.64156E+05 6.59456E-08 2.85527E-07
 -1       266-1.51487E+04-7.08448E+03 3.55389E+04-2.00322E+01 3.31056E-10 1.34805E-07
 -1       267 1.75612E+04 8.25571E+03 2.51206E+04 2.31156E+01 9.09495E-11-1.21209E-07
 -1       268-2.35494E+03-1.16931E+03 9.33708E+03-2.94520E+00 1.64164E-10 1.99869E-07
 -1       269 2.78047E+03 1.39933E+03 6.06907E+03 3.43086E+00-1.56660E-10 4.78927E-07
 -1       270-4.17353E+02-2.29925E+02 2.92962E+03-4.65585E-01 7.54881E-11 3.08587E-07
 -1       271-1.36400E+06-1.50914E+05-1.00429E+05-5.03154E+05 8.26913E-09 3.94954E-07
 -1       272-1.51504E+06-1.07869E+05-6.43186E+04-3.72169E+05-9.37389E-08-1.42928E-07
 -1       273-1.38075E+06-1.77514E+05-2.36241E+04-5.01285E+05 2.13367E-09-3.45260E-07
 -1       274-1.49676E+06-7.43586E+04-1.32118E+04-3.76262E+05-1.05634E-08-9.39690E-09
 -1       275-1.38290E+06-1.80562E+05-5.43963E+03-5.01036E+05 2.63713E-08 2.00922E-07
 -1       276-1.49244E+06-7.17887E+04-2.77010E+03-3.77308E+05 8.13543E-10 1.48262E-07
 -1       277-1.38413E+06-1.80312E+05-1.50147E+03-4.99724E+05-1.41790E-08-1.33984E-07
 -1       278-1.48653E+06-7.49533E+04-5.07625E+02-3.79248E+05-3.07000E-08-2.04704E-07
 -1       279-1.38603E+06-1.79095E+05-1.18710E+03-4.97128E+05-5.80658E-08-2.51786E-07
 -1       280-1.47747E+06-8.08478E+04-2.84748E+02-3.82574E+05 2.06564E-08-9.51404E-08
 -1       281-1.38882E+06-1.77161E+05-2.57542E+03-4.93331E+05-5.32164E-08-1.79123E-07
 -1       282-1.46604E+06-8.95871E+04-2.30828E+03-3.87466E+05-5.42404E-08 6.31871E-07
 -1       283-1.39194E+06-1.73916E+05-7.55657E+03-4.88439E+05-2.51457E-08-1.26065E-07
 -1       284-1.45621E+06-1.06606E+05-1.39429E+04-3.93660E+05-1.31131E-08-2.11647E-07
 -1       285-1.39265E+06-1.64734E+05-2.66807E+04-4.82891E+05 2.74522E-08 3.36856E-07
 -1       301-1.79470E+04-9.46798E+05 1.38277E+05-1.38958E+06 3.79077E-09-7.55463E-08
 -1       302-2.16290E+04-9.04974E+05 8.20105E+04-2.02859E+06-1.70257E-09-4.19181E-07
 -1       303-3.01458E+04-9.40457E+05 4.14861E+04-1.38638E+06 3.66708E-09-3.61593E-07
 -1       304-4.54259E+04-8.99887E+05 3.38769E+04-2.02662E+06-4.22006E-10 1.11577E-07
 -1       305-5.09964E+04-9.09862E+05 2.89795E+04-1.39015E+06-1.45519E-11-1.27300E-07
 -1       306-4.87653E+07-8.89864E+06-1.40680E+07 2.66070E+06-2.23983E-07 1.11293E-07
 -1       307 4.51252E+07 1.07948E+07 1.00896E+07-2.43677E+07-8.80886E-07-4.62867E-07
 -1       308-3.85972E+06-3.98060E+06-7.60702E+05 7.89385E+06 1.49361E-07 2.67115E-07
 -1       309-9.36182E+05 2.32443E+07 5.11895E+06-2.76311E+07 4.16527E-07-4.32730E-07
 -1       310-1.75269E+07-6.33469E+06-4.62021E+06 1.05655E+07-1.96334E-07-1.41095E-07
 -1       311 7.43911E+07 3.23120E+06 1.37777E+07-1.29287E+07 4.97384E-08-5.42495E-08
 -1       312-5.30062E+07-9.15976E+06-1.45301E+07-9.12013E+06-8.39354E-08 3.42116E-08
 -1       313 7.40837E+07 3.51478E+07 1.88771E+07 4.48304E+07-7.46862E-07 2.92639E-07
 -1       314-1.98110E+07-3.51114E+07-1.25965E+07-1.98397E+07 7.28702E-07-3.96976E-07
 -1       315-1.12503E+06 5.53284E+07 1.00269E+07 1.15446E+07 2.64263E-08-4.68630E-07
 -1       316 3.61728E+06-1.20792E+07-7.75358E+05 2.29039E+06 5.96010E-07-9.67470E-07
 -1       317-1.13763E+07 3.37281E+07 5.10799E+06-2.05892E+07 3.89991E-09-1.46801E-06
 -1       318 1.03674E+04-2.30846E+07-4.64436E+06-1.48555E+06-1.41116E-06 1.59838E-07
 -1       319 1.50212E+07 6.54238E+07 1.39035E+07 2.77169E+07-1.02646E-06 2.22586E-07
 -1       320-3.29868E+07-3.28745E+07-1.65095E+07-2.29263E+07-5.14323E-07-3.56231E-08
 -1       336-1.10268E+03-1.41921E+06-1.41742E+04 7.56132E+03-2.78251E-08 6.18456E-10
 -1       337-5.89903E+03-1.41825E+06-2.01686E+04-1.86168E+04-5.04806E-08-2.96550E-08
 -1       338 4.56988E+02-1.41821E+06-3.32935E+04 1.07720E+04-3.54121E-08-1.71494E-08
 -1       339-3.63106E+04-1.43869E+06-7.64290E+04-2.50246E+04-6.45523E-08 2.26519E-08
 -1       340 2.37961E+04-1.40075E+06-1.20680E+05 1.37929E+04-4.27608E-08 3.69728E-08
 -1       406-6.76041E+01 3.93607E+05 6.56710E+02 3.95448E+00-2.17126E-09-2.98678E-09
 -1       407 1.42051E+02 3.93748E+05 1.40523E+03 2.56848E+01-4.50427E-10 4.86034E-09
 -1       408 6.31440E+02 3.93504E+05 2.80087E+03-2.98434E+01-2.63344E-09-3.18323E-10
 -1       409 2.95254E+03 3.94642E+05 6.31467E+03 3.21036E+02-4.05066E-10 1.31904E-08
 -1       410 8.64229E+03 3.92696E+05 1.28873E+04-3.10032E+02-3.33966E-09 9.19499E-09
 -1       521-4.72088E+07-1.26542E+07-1.68380E+07 3.32627E+06-1.43889E-07 1.40572E-07
 -1       522 4.26702E+07 1.42438E+07 9.49804E+06-3.14155E+07-5.68107E-07-2.04891E-07
 -1       523-3.72164E+06-4.10308E+06-4.10470E+05 7.85521E+06 9.76725E-08-3.79980E-07
 -1       524-1.12717E+07 3.02078E+07 4.98897E+06-3.09584E+07 1.22721E-06-6.05374E-07
 -1       525-1.65080E+07-7.43271E+06-4.73698E+06 9.98391E+06 6.15953E-07-3.07802E-07
 -1       526 7.88839E+07 2.71817E+06 1.33385E+07-1.84347E+07 1.30851E-07 1.05007E-07
 -1       527-5.22270E+07-1.34954E+07-1.72390E+07-7.81241E+06 2.39816E-07 1.42682E-07
 -1       528 7.86075E+07 3.88965E+07 1.82634E+07 5.13600E+07-1.73750E-07-1.82015E-07
 -1       529-2.05809E+07-3.67803E+07-1.46316E+07-1.68131E+07-1.05239E-07-3.55183E-07
 -1       530-6.55219E+06 6.24118E+07 9.83338E+06 6.13684E+06-1.43220E-07 1.00298E-06
 -1       531 3.31897E+06-1.20308E+07-3.72682E+05 2.64846E+06-1.07620E-06 7.19796E-07
 -1       532-1.24092E+07 3.10361E+07 4.96423E+06-3.07219E+07 5.68398E-07-7.39616E-07
 -1       533-7.22142E+05-2.19149E+07-4.65526E+06-2.66391E+05-5.95988E-07-1.13191E-06
 -1       534 9.42266E+06 7.38629E+07 1.31258E+07 2.62103E+07 1.12719E-07 9.56235E-07
 -1       535-3.34138E+07-3.56561E+07-1.96762E+07-1.99236E+07 1.98372E-07 6.00470E-07
 -1       536-7.18698E+05-3.07985E+04-9.54174E+04-5.73923E+04-3.60615E-09 4.21296E-08
 -1       537-4.40324E+04 2.56425E+04 5.82384E+04 1.29143E+05-1.22433E-07 8.29484E-08
 -1       538-3.93735E+05 6.52754E+03-7.58889E+03-7.49084E+04 3.98304E-08 1.20594E-07
 -1       539-2.62965E+05-2.44233E+02 1.95314E+04 1.44255E+05 1.58412E-07 1.15957E-07
 -1       540-5.05476E+05-1.22212E+02-2.57784E+04-7.30932E+04-4.56794E-09 9.88895E-08
 -1       541 1.81384E+05 1.76316E+04 1.11794E+05 1.02487E+05-9.89780E-09 7.27287E-08
 -1       542-8.26134E+05-2.13499E+04-9.04353E+04-3.21747E+04 7.82979E-08 4.82387E-08
 -1       543 4.56671E+05 2.90002E+04 1.67920E+05-1.38774E+04-1.74250E-08-1.27761E-08
 -1       544-7.73377E+05-1.76260E+04-7.99020E+04 4.25330E+04 5.04824E-08-2.90677E-08
 -1       545 5.63721E+04 1.02084E+04 8.51808E+04-1.18484E+05 1.71761E-08-6.78911E-08
 -1       546-4.36601E+05 6.38896E+03-1.30023E+04 7.20492E+04-8.16749E-09-8.69974E-08
 -1       547-2.80568E+05-4.60973E+03 1.18066E+04-1.47037E+05-1.36257E-07-1.13349E-07
 -1       548-4.45509E+05 4.80494E+03-2.47280E+04 7.18487E+04-1.13729E-07-9.28162E-08
 -1       549 7.61469E+04 1.85362E+04 6.63080E+04-1.16457E+05-6.68711E-08-7.60519E-08
 -1       550-7.83773E+05-2.47578E+04-1.34530E+05 4.06804E+04 8.26731E-09-4.01888E-08
 -1       551 2.67274E+04-5.61833E+05-4.74448E+04-1.06928E+06-1.08761E-07 5.38421E-09
 -1       552 7.46236E+04-6.07204E+05-9.75119E+03-1.52219E+06-7.66740E-08 2.99187E-08
 -1       553 6.08845E+04-6.04056E+05 1.88302E+04-1.06268E+06-1.24703E-07 4.23461E-08
 -1       554 1.16266E+05-6.25252E+05 6.54753E+04-1.52477E+06-8.09669E-08 2.34177E-08
 -1       555 9.19864E+04-6.32119E+05 1.26048E+05-1.06123E+06-1.34678E-07-1.08575E-08
 -1       556 2.36253E+05-4.05410E+05-2.14840E+04-4.12053E+05-2.37487E-08-9.05129E-09
 -1       557 3.61823E+05-5.10357E+05-8.14423E+03-5.41980E+05 2.32831E-09 1.51958E-08
 -1       558 2.13850E+05-3.89091E+05-8.26665E+03-4.22848E+05-8.49832E-09 1.14233E-08
 -1       559 3.40904E+05-5.04003E+05-2.68815E+03-5.63775E+05 3.81115E-08-1.74623E-09
 -1       560 1.97224E+05-3.78692E+05-4.05485E+03-4.34871E+05 1.10304E-08-2.83762E-10
 -1       561 3.20732E+05-4.95539E+05-1.05224E+03-5.77728E+05-7.68341E-09 2.56114E-09
 -1       562 1.84228E+05-3.70692E+05-1.99224E+03-4.44263E+05-3.60887E-09-1.57706E-08
 -1       563 3.05373E+05-4.88824E+05-3.17018E+02-5.87778E+05-4.19823E-09-2.69392E-09
 -1       564 1.74943E+05-3.64926E+05-7.86739E+02-4.50838E+05-5.00586E-09-2.58224E-08
 -1       565 2.95114E+05-4.84353E+05-4.23018E+01-5.94337E+05 4.54020E-09 8.11542E-09
 -1       566 1.69474E+05-3.61472E+05-3.17062E+02-4.54661E+05-9.45147E-09 2.67391E-09
 -1       567 2.90053E+05-4.82152E+05-4.02970E+02-5.97418E+05 2.19025E-08 6.30462E-09
 -1       568 1.67912E+05-3.60514E+05-1.20533E+03-4.55848E+05 5.10045E-09 2.58369E-08
 -1       569 2.88763E+05-4.82064E+05-3.03128E+03-5.96042E+05-5.65888E-09 1.49448E-08
 -1       570 1.71384E+05-3.63852E+05-6.60799E+03-4.54780E+05 1.25146E-08 7.56972E-09
 -1       571 2.96041E+05 1.07051E+04 1.52094E+04-9.87698E+04 1.23091E-08 2.12817E-08
 -1       572 2.98239E+05 4.06765E+03 7.45402E+03-1.08363E+05 2.56127E-08 1.81826E-08
 -1       573 2.96914E+05 1.30927E+03 3.31211E+03-9.85900E+04 1.03264E-08 1.87065E-08
 -1       574 2.97126E+05 7.88163E+02 1.66113E+03-1.08593E+05 1.38061E-09-1.56033E-08
 -1       575 2.97009E+05 4.99944E+02 7.84074E+02-9.85654E+04-3.49281E-09-1.10867E-09
 -1       576 2.96989E+05 5.15644E+02 4.01600E+02-1.08624E+05-6.05473E-09 1.53059E-08
 -1       577 2.97052E+05 4.39396E+02 2.00600E+02-9.85620E+04-6.73299E-09 8.88394E-09
 -1       578 2.97024E+05 4.74531E+02 1.16249E+02-1.08629E+05-7.59746E-09-1.52777E-08
 -1       579 2.97130E+05 3.98849E+02 8.01728E+01-9.85616E+04 1.61617E-08-1.07320E-10
 -1       580 2.97135E+05 4.18566E+02 9.38811E+01-1.08624E+05 1.33541E-08-1.72222E-08
 -1       581 2.97254E+05 3.34581E+02 1.42076E+02-9.85678E+04 2.05655E-08 1.25883E-08
 -1       582 2.97324E+05 3.75758E+02 2.89651E+02-1.08560E+05 7.69069E-09-3.18414E-09
 -1       583 2.97407E+05 3.74246E+02 5.55538E+02-9.86268E+04 3.73620E-09-3.44448E-09
 -1       584 2.97723E+05 8.29661E+02 1.25787E+03-1.08063E+05 2.95404E-09-2.34722E-08
 -1       585 2.97442E+05 1.88386E+03 2.54638E+03-9.90633E+04-3.27600E-09 1.09358E-08
 -1       586-3.48805E+03 1.21039E+05-2.83982E+03-2.54756E+05-6.62021E-09 5.73800E-09
 -1       587-1.42439E+03 1.20813E+05 8.62129E+02-2.80377E+05-6.16637E-09-3.85535E-09
 -1       588 3.37022E+02 1.20594E+05 4.90598E+03-2.54614E+05-2.94858E-09-1.55978E-09
 -1       589 5.12320E+03 1.23137E+05 1.26572E+04-2.80144E+05-2.64117E-09-1.18089E-08
 -1       590 1.69305E+04 1.19230E+05 2.65247E+04-2.55055E+05-4.80168E-09-3.64889E-09
 -1       591-7.76915E+04-1.62613E+04-2.31366E+04-3.27598E+04-2.60025E-09 1.82263E-09
 -1       592-8.19949E+04-1.98112E+04-1.25327E+04-3.63642E+04-9.80783E-10-7.81256E-10
 -1       593-8.00044E+04-1.45834E+04-5.21670E+03-3.44573E+04 1.30976E-09 1.34082E-09
 -1       594-7.88019E+04-1.64145E+04-2.60169E+03-3.64832E+04-7.58554E-09 1.13899E-08
 -1       595-8.01807E+04-1.45780E+04-1.19438E+03-3.45344E+04-5.44759E-10 3.53717E-09
 -1       596-7.85832E+04-1.62592E+04-6.06841E+02-3.64570E+04 4.42024E-09-4.49424E-09
 -1       597-8.02028E+04-1.45939E+04-3.29758E+02-3.45373E+04 4.83067E-09 1.83979E-09
 -1       598-7.85616E+04-1.62530E+04-2.63828E+02-3.64497E+04-6.97821E-09-1.64322E-08
 -1       599-8.02016E+04-1.45944E+04-3.35438E+02-3.45370E+04 6.60998E-09-5.01745E-09
 -1       600-7.85831E+04-1.62596E+04-6.21882E+02-3.64548E+04 3.83261E-09-6.06065E-10
 -1       601-8.01765E+04-1.45795E+04-1.22618E+03-3.45335E+04 9.92031E-10-1.19974E-08
 -1       602-7.88077E+04-1.64178E+04-2.67201E+03-3.64777E+04-9.55515E-09-1.04554E-08
 -1       603-7.99927E+04-1.45881E+04-5.35829E+03-3.44552E+04 1.62481E-09 3.60433E-08
 -1       604-8.21056E+04-1.98864E+04-1.28719E+04-3.63299E+04 4.96175E-09 3.21315E-08
 -1       605-7.75966E+04-1.63297E+04-2.37631E+04-3.27318E+04 3.57477E-09 9.94623E-09
 -1       606 2.62755E+04-1.46366E+04-2.62347E+04 2.33958E+04 1.65792E-08-1.06168E-08
 -1       607 2.17933E+04-4.78247E+03-1.30649E+04 2.62957E+04 2.09075E-08 7.46149E-09
 -1       608 2.43492E+04-8.64703E+02-5.84854E+03 2.32343E+04-3.02862E-09-2.37537E-09
 -1       609 2.38606E+04-2.99184E+02-2.95459E+03 2.65049E+04-1.71494E-08-1.99775E-08
 -1       610 2.41327E+04-4.53280E+01-1.40952E+03 2.32150E+04-8.92214E-10-8.99990E-09
 -1       611 2.40570E+04-4.69051E+01-7.10673E+02 2.65275E+04 9.10313E-09 1.77436E-08
 -1       612 2.40860E+04-3.22193E+01-3.37677E+02 2.32130E+04 1.03901E-08 6.91603E-09
 -1       613 2.40703E+04-4.35541E+01-1.51153E+02 2.65301E+04 2.31212E-08-1.18725E-08
 -1       614 2.40645E+04-3.95041E+01-3.49551E+01 2.32123E+04 3.55612E-10 5.57156E-09
 -1       615 2.40661E+04-4.26782E+01 6.44787E+01 2.65306E+04-2.30016E-08 1.59491E-08
 -1       616 2.40476E+04-3.68447E+01 1.92324E+02 2.32126E+04-6.27870E-09 1.27325E-08
 -1       617 2.40901E+04-2.22856E+00 4.38358E+02 2.65301E+04 3.55294E-09 2.90349E-08
 -1       618 2.40102E+04 8.91152E+01 8.83442E+02 2.32129E+04 1.17680E-08-5.69298E-09
 -1       619 2.44025E+04 6.80514E+02 1.98373E+03 2.65295E+04 1.54105E-08-3.16049E-11
 -1       620 2.37171E+04 2.18368E+03 3.98722E+03 2.32149E+04 1.01866E-08 1.38762E-08
 -1       621 5.38465E+02 3.07173E+05 3.99420E+03 4.39083E+04 1.10686E-09-1.21145E-09
 -1       622 7.21533E+02 3.08087E+05 3.53862E+03 6.37341E+04 1.34014E-09 9.19090E-09
 -1       623 1.64681E+02 3.07367E+05 4.24215E+03 4.37102E+04 1.46883E-09 1.20999E-08
 -1       624 2.20582E+03 3.09320E+05 8.21668E+03 6.39288E+04 1.56069E-09 2.36469E-10
 -1       625 2.14657E+03 3.05734E+05 1.43543E+04 4.37067E+04 1.70530E-09-5.95742E-09
 -1       626 2.65772E+05 6.18369E+04 5.17582E+03 1.28189E+05 1.31740E-09 4.79577E-09
 -1       627 2.63487E+05 6.31910E+04 2.49418E+03 1.32444E+05-4.92037E-10-2.91800E-09
 -1       628 2.65898E+05 5.94730E+04 1.05496E+03 1.29075E+05-1.85719E-09-1.68548E-08
 -1       629 2.62852E+05 6.24979E+04 5.16312E+02 1.32681E+05 1.77242E-08-1.67314E-08
 -1       630 2.65914E+05 5.93584E+04 2.39699E+02 1.29113E+05 1.17670E-08-1.28700E-08
 -1       631 2.62786E+05 6.24708E+04 1.29210E+02 1.32683E+05 1.00615E-08 3.08876E-09
 -1       632 2.65911E+05 5.93618E+04 8.53996E+01 1.29109E+05 3.10793E-08-1.13944E-08
 -1       633 2.62778E+05 6.24722E+04 9.57341E+01 1.32680E+05 3.40985E-08-1.54187E-08
 -1       634 2.65907E+05 5.93586E+04 1.55234E+02 1.29109E+05 9.26289E-09-2.84444E-10
 -1       635 2.62794E+05 6.24702E+04 3.14442E+02 1.32687E+05-8.09359E-09-9.02401E-09
 -1       636 2.65898E+05 5.93524E+04 6.35185E+02 1.29109E+05-3.05590E-10-1.41526E-08
 -1       637 2.62931E+05 6.25688E+04 1.39679E+03 1.32686E+05 3.73075E-09 1.52704E-08
 -1       638 2.65849E+05 5.96608E+04 2.86987E+03 1.28970E+05 6.50061E-09 1.14460E-09
 -1       639 2.64439E+05 6.46656E+04 6.79037E+03 1.32243E+05 8.86939E-09-6.39011E-09
 -1       640 2.65639E+05 6.59229E+04 1.40912E+04 1.26333E+05 1.00090E-09-1.97565E-09
 -1       656 6.75951E+04-1.73122E+06-1.63171E+05-2.82650E+03-5.16593E-10-1.30137E-08
 -1       657-8.94300E+04-1.80496E+06-1.35193E+05 4.79457E+03-4.72028E-10 1.11501E-08
 -1       658 2.15535E+04-1.75215E+06-8.32814E+04-4.95209E+03 6.79847E-10-1.78274E-08
 -1       659-9.67567E+04-1.80844E+06-1.44822E+05 6.58749E+03-2.22644E-09-1.68137E-08
 -1       660 7.49055E+04-1.72775E+06-1.79726E+05-4.61941E+03-2.00089E-09-3.37977E-09
 -1       661 1.55660E+05 1.62208E+04 1.65613E+04 6.08526E+04-1.71758E-09 6.94126E-09
 -1       662 1.65085E+05 2.84244E+04 1.11613E+04 5.70659E+04-1.93666E-10 1.80546E-09
 -1       663 1.58913E+05 2.15340E+04 3.90343E+03 5.99084E+04-2.10048E-09-5.05156E-09
 -1       664 1.61313E+05 2.22113E+04 2.33519E+03 5.82193E+04-5.19293E-10-3.17150E-08
 -1       665 1.59407E+05 2.22594E+04 9.21221E+02 5.97641E+04-3.05459E-09 6.13284E-09
 -1       666 1.60728E+05 2.13820E+04 5.39423E+02 5.84076E+04 4.75950E-09 2.02470E-08
 -1       667 1.59493E+05 2.23418E+04 2.86921E+02 5.97278E+04-6.90392E-10 1.14487E-08
 -1       668 1.60633E+05 2.13230E+04 2.93273E+02 5.84603E+04-4.11818E-09-1.62076E-08
 -1       669 1.59501E+05 2.23167E+04 3.97815E+02 5.97117E+04-5.74096E-09-1.11037E-08
 -1       670 1.60730E+05 2.15392E+04 8.66949E+02 5.84630E+04-9.72476E-09-1.03256E-08
 -1       671 1.59396E+05 2.21302E+04 1.53958E+03 5.97231E+04 3.77931E-10 8.71506E-09
 -1       672 1.61627E+05 2.30368E+04 3.93916E+03 5.82452E+04 7.69624E-09 2.38515E-08
 -1       673 1.58608E+05 2.08571E+04 6.60149E+03 5.99149E+04 6.38545E-09-4.10682E-09
 -1       674 1.67910E+05 3.36429E+04 1.88789E+04 5.63994E+04-2.73303E-10-1.60398E-08
 -1       675 1.53154E+05 1.18212E+04 2.80230E+04 6.14575E+04-2.54886E-09 6.64113E-09
 -1       676 2.43075E+01-2.98559E+05-1.12072E+03-1.55976E+02 2.16659E-10 5.11739E-09
 -1       677-2.96132E+02-2.98831E+05-2.05112E+03 3.11697E+02 1.05057E-08-1.31563E-08
 -1       678 1.98878E+02-2.98366E+05-3.62587E+03-1.55620E+02 2.83103E-09 7.30600E-09
 -1       679-3.62562E+03-3.01020E+05-8.61358E+03 3.10336E+02 1.48184E-08-8.95653E-09
 -1       680 2.16494E+03-2.96372E+05-1.38821E+04-1.52901E+02 4.03816E-10 1.09063E-09
 -1       771-3.06376E+06-7.87866E+05-2.10562E+05-1.49581E+06-3.61761E-08-3.24799E-08
 -1       772-2.98133E+06-8.87177E+05-1.08768E+05-1.61059E+06-2.38069E-08 1.21436E-08
 -1       773-3.10199E+06-7.58350E+05-5.50920E+04-1.51532E+06-9.08040E-09 1.48284E-08
 -1       774-2.96962E+06-8.62421E+05-2.46644E+04-1.64106E+06 3.39496E-08-3.47063E-09
 -1       775-3.12180E+06-7.44622E+05-1.82285E+04-1.52447E+06-4.77303E-09-2.32103E-09
 -1       776-2.98522E+06-8.58116E+05-6.85852E+03-1.66437E+06-1.31986E-08 1.91721E-09
 -1       777-3.13902E+06-7.32286E+05-7.98501E+03-1.53246E+06 1.48430E-08 1.89902E-09
 -1       778-3.00153E+06-8.54188E+05-2.28047E+03-1.68442E+06 9.83709E-09 1.02955E-09
 -1       779-3.15387E+06-7.21455E+05-3.97752E+03-1.53926E+06-3.87081E-09-8.37827E-09
 -1       780-3.01588E+06-8.50479E+05-6.83696E+02-1.70076E+06 1.57161E-09 1.70985E-10
 -1       781-3.16570E+06-7.12699E+05-1.57710E+03-1.54456E+06-3.10538E-08 2.11730E-09
 -1       782-3.02695E+06-8.47366E+05 4.70466E+02-1.71281E+06-4.77303E-08-1.28248E-08
 -1       783-3.17404E+06-7.06598E+05 6.98592E+02-1.54827E+06-1.07102E-08-1.79757E-08
 -1       784-3.03321E+06-8.44471E+05 3.18007E+03-1.72024E+06-2.07219E-08-2.51475E-09
 -1       785-3.17892E+06-7.03001E+05 5.58426E+03-1.55055E+06-3.97777E-08 8.46921E-09
 -1       786 1.19947E+05-9.69152E+03 2.24224E+04-3.36943E+02 1.53295E-09-2.36405E-08
 -1       787 1.29673E+05 1.12208E+04 1.58629E+04-1.46906E+02 8.48076E-09-1.78254E-08
 -1       788 1.23697E+05-1.51861E+03 5.80101E+03-3.01232E+02 4.55029E-09 1.09965E-08
 -1       789 1.25304E+05 1.75788E+03 3.64146E+03-2.01415E+02-3.87097E-09 2.59419E-08
 -1       790 1.24316E+05-2.36352E+02 1.47390E+03-2.82452E+02-5.58064E-09 3.66876E-08
 -1       791 1.24580E+05 2.73479E+02 8.50386E+02-2.33492E+02-7.28165E-09 2.35554E-08
 -1       792 1.24421E+05-3.53161E+01 3.58546E+02-2.69157E+02-6.88903E-09-1.41059E-08
 -1       793 1.24454E+05 3.65531E+01 1.74771E+02-2.58413E+02 4.42786E-10-2.17840E-08
 -1       794 1.24442E+05 4.24815E-01 3.74323E+01-2.57532E+02 4.86980E-09-5.32126E-09
 -1       795 1.24414E+05-3.40449E+01-7.88495E+01-2.82506E+02-3.56421E-09-1.19443E-09
 -1       796 1.24461E+05 3.52421E+01-1.98551E+02-2.45063E+02 2.84411E-09-8.21544E-09
 -1       797 1.24302E+05-2.62189E+02-5.34668E+02-3.10947E+02 6.43272E-09 8.35384E-09
 -1       798 1.24554E+05 2.28399E+02-8.65415E+02-2.29091E+02 1.78421E-09 4.88171E-10
 -1       799 1.23646E+05-1.68348E+03-2.37840E+03-3.50459E+02 6.65389E-09-1.94907E-08
 -1       800 1.25117E+05 1.45537E+03-3.36517E+03-2.05553E+02 2.37886E-10 1.90287E-08
 -1       801-2.10784E+05-1.06245E+07-1.50161E+06 1.57128E+06 9.87493E-08-5.37366E-08
 -1       802 8.41454E+05 6.93984E+06 2.42892E+06-1.96447E+06 2.74646E-07-3.81706E-08
 -1       803-5.93040E+05-1.53425E+07-2.07620E+06 1.00552E+06 8.13598E-08 1.97106E-08
 -1       804 3.22120E+05 3.01616E+06 1.70031E+06 7.18704E+05-1.27708E-07-1.11637E-07
 -1       805 2.02838E+05-6.71376E+06-3.07785E+05-1.10594E+06-5.38421E-08-8.08996E-08
 -1       806-3.13897E+05-6.06867E+04-2.32486E+04-1.24325E+05-6.49152E-09-2.10048E-09
 -1       807-3.15728E+05-5.68896E+04-1.14218E+04-1.29965E+05 1.28341E-08 2.05623E-08
 -1       808-3.14536E+05-5.23070E+04-4.84550E+03-1.28285E+05-6.38465E-09-5.19401E-09
 -1       809-3.13327E+05-5.36799E+04-2.36933E+03-1.30245E+05-1.10495E-08 2.52012E-08
 -1       810-3.14632E+05-5.20154E+04-1.08603E+03-1.28460E+05-1.84809E-09 2.23304E-09
 -1       811-3.13141E+05-5.35510E+04-5.40113E+02-1.30209E+05-1.17780E-09-1.85019E-08
 -1       812-3.14646E+05-5.20406E+04-2.73304E+02-1.28459E+05-1.47729E-08 1.92417E-08
 -1       813-3.13115E+05-5.35532E+04-1.77803E+02-1.30190E+05-1.58598E-08-2.22831E-08
 -1       814-3.14639E+05-5.20506E+04-1.76540E+02-1.28455E+05-9.50695E-09-9.68839E-09
 -1       815-3.13119E+05-5.35556E+04-2.84668E+02-1.30182E+05 1.71167E-09-7.75981E-09
 -1       816-3.14617E+05-5.20498E+04-5.39740E+02-1.28451E+05 1.61317E-08 6.12090E-09
 -1       817-3.13210E+05-5.36070E+04-1.15833E+03-1.30170E+05 5.29508E-09 1.32356E-08
 -1       818-3.14547E+05-5.22135E+04-2.36267E+03-1.28374E+05 2.70120E-09-1.20508E-10
 -1       819-3.14503E+05-5.50344E+04-5.55906E+03-1.29863E+05 8.95398E-10-3.28305E-09
 -1       820-3.14100E+05-5.64136E+04-1.13148E+04-1.26581E+05 4.67389E-09 1.09790E-08
 -1       821-3.82600E+05 2.10616E+04-4.91709E+04 2.44451E+03 1.60182E-08-2.64481E-09
 -1       822-4.01914E+05-2.44063E+04-3.44453E+04-5.22865E+03 6.31326E-09-8.45557E-09
 -1       823-3.89870E+05 3.32723E+03-1.26879E+04 4.07493E+03-1.54458E-08 2.09629E-08
 -1       824-3.93038E+05-3.83306E+03-7.92446E+03-6.44337E+03 5.74033E-10 1.33672E-08
 -1       825-3.91489E+05 5.17583E+02-3.33827E+03 3.65941E+03 2.38701E-08 6.93103E-09
 -1       826-3.90252E+05-5.59316E+02-1.68186E+03-3.81166E+03 2.91131E-08 1.38076E-08
 -1       827-3.92622E+05 2.96666E+01-1.27167E+03 1.44299E+03 1.26085E-08-6.76891E-09
 -1       828-3.89300E+05-1.10547E+02-4.63172E+02 1.18986E+03-2.46338E-09-1.03343E-08
 -1       829-3.92422E+05 5.35461E+01-1.25257E+03-1.34213E+03-2.58518E-09 1.31532E-08
 -1       830-3.90680E+05-6.24615E+02-1.83816E+03 5.76555E+03 1.16771E-09 5.14308E-09
 -1       831-3.91273E+05 5.68391E+02-3.41321E+03-3.13269E+03-5.22614E-09 4.00178E-11
 -1       832-3.93112E+05-4.01029E+03-8.23166E+03 7.35415E+03-4.74103E-09-8.05176E-09
 -1       833-3.90012E+05 3.45425E+03-1.32065E+04-2.93080E+03-1.18092E-09-1.07411E-08
 -1       834-4.01890E+05-2.53343E+04-3.56689E+04 5.02696E+03-4.97087E-09 1.29767E-08
 -1       835-3.82470E+05 2.18526E+04-5.10754E+04-8.05388E+02 4.85107E-09 1.42063E-08
 -1       836-1.44577E+03 3.77069E+05 2.33707E+04-1.56884E+04-7.81165E-09 2.32717E-08
 -1       837 4.97450E+03 3.84392E+05 1.97546E+04-3.21450E+04-8.39486E-09 4.96948E-09
 -1       838-5.71609E+02 3.79125E+05 2.00976E+04-1.56172E+04-7.13226E-09 1.80405E-08
 -1       839 1.26286E+04 3.90093E+05 3.79893E+04-3.21990E+04-7.74889E-09 2.87267E-08
 -1       840-3.90968E+03 3.71308E+05 6.05663E+04-1.56411E+04-6.73390E-09 6.87982E-09
 -1       856-4.85647E+04 7.99654E+03-2.10725E+04-3.95378E+02 6.60259E-09-7.17591E-10
 -1       857-5.72438E+04-9.39751E+03-1.45060E+04 5.68000E+03 6.49447E-09-5.11022E-09
 -1       858-5.20027E+04 1.12154E+03-5.46769E+03-4.19149E+02 1.44860E-09 1.05470E-08
 -1       859-5.32986E+04-1.32121E+03-3.29927E+03 5.71508E+03-1.03080E-09-2.12088E-09
 -1       860-5.25163E+04 1.57182E+02-1.38232E+03-4.30143E+02 8.78231E-11-1.84488E-08
 -1       861-5.27078E+04-1.89290E+02-7.59599E+02 5.73002E+03-9.84016E-10-5.04677E-09
 -1       862-5.25967E+04 2.13498E+01-3.14058E+02-4.34066E+02-7.49054E-10 1.18670E-08
 -1       863-5.26090E+04-2.30416E+01-1.10549E+02 5.73234E+03-6.01018E-09 1.70894E-08
 -1       864-5.26157E+04-5.27457E+00 5.57096E+01-4.32463E+02-8.19512E-10-5.23826E-09
 -1       865-5.25510E+04 6.20314E+01 2.73649E+02 5.72305E+03-5.37817E-09-3.08501E-09
 -1       866-5.26524E+04-6.36793E+01 5.47052E+02-4.24776E+02 5.00961E-10-7.70802E-09
 -1       867-5.22951E+04 5.25464E+02 1.34361E+03 5.70222E+03 3.73456E-09-4.45448E-09
 -1       868-5.28667E+04-4.60173E+02 2.23205E+03-4.11629E+02-6.03109E-10-3.96426E-09
 -1       869-5.06597E+04 3.83007E+03 5.94204E+03 5.66808E+03 6.30141E-09-3.19369E-08
 -1       870-5.42799E+04-3.27829E+03 8.62349E+03-3.90513E+02-4.76507E-09-2.86855E-09
 -1       871-5.57915E+03-2.24115E+04-1.98690E+04 1.33085E+05-4.92764E-09 9.54424E-09
 -1       872-1.96144E+03-2.70463E+04-8.33490E+03 1.72567E+05-1.21663E-08-2.85509E-08
 -1       873 4.57322E+02-2.47967E+04 5.62973E+02 1.32792E+05-4.45561E-09 7.96979E-09
 -1       874 3.40712E+03-2.23722E+04 9.87964E+03 1.72595E+05-1.15615E-08 7.04540E-09
 -1       875 6.97366E+03-2.71512E+04 2.23176E+04 1.33036E+05-5.57338E-09 1.31786E-09
 -1       876 2.97774E+05 5.00980E+04 1.52659E+04 1.19391E+05 7.73991E-09 5.44060E-09
 -1       877 2.98793E+05 5.33030E+04 8.15259E+03 1.23761E+05 1.11506E-08-4.44061E-10
 -1       878 2.99202E+05 4.84066E+04 3.41554E+03 1.20641E+05-6.42967E-09-2.05318E-10
 -1       879 2.96718E+05 5.12319E+04 1.70185E+03 1.23864E+05 8.58654E-09 1.94901E-08
 -1       880 2.99304E+05 4.83892E+04 7.92732E+02 1.20693E+05 3.10547E-09 1.05205E-08
 -1       881 2.96580E+05 5.11432E+04 4.23424E+02 1.23840E+05 2.35389E-09-7.52381E-09
 -1       882 2.99313E+05 4.84026E+04 2.71044E+02 1.20694E+05-2.15027E-09-1.47266E-09
 -1       883 2.96571E+05 5.11386E+04 2.91645E+02 1.23832E+05-3.05045E-09-1.43799E-08
 -1       884 2.99306E+05 4.83998E+04 4.64178E+02 1.20694E+05-2.74633E-09-1.21919E-08
 -1       885 2.96607E+05 5.11450E+04 9.33403E+02 1.23843E+05-8.60675E-09-1.50616E-08
 -1       886 2.99270E+05 4.83726E+04 1.88130E+03 1.20691E+05-6.44789E-09 1.58270E-08
 -1       887 2.96938E+05 5.13618E+04 4.10947E+03 1.23891E+05 7.83820E-09 3.51497E-08
 -1       888 2.99010E+05 4.84184E+04 8.28071E+03 1.20559E+05-6.57326E-09 8.45830E-11
 -1       889 3.01867E+05 5.64888E+04 1.97810E+04 1.23740E+05 1.34332E-09-1.07575E-08
 -1       890 2.95630E+05 5.24340E+04 3.70495E+04 1.17409E+05 3.69619E-09 1.57888E-09
 -1       891-8.28088E+01-1.64696E+05-2.02513E+03 2.71930E+04-2.87105E-09 2.44190E-08
 -1       892-1.65825E+02-1.65236E+05-2.17326E+03 4.13092E+04 2.06705E-09 4.06997E-08
 -1       893 5.23656E+01-1.64762E+05-3.07521E+03 2.72006E+04-2.41243E-10 1.16424E-08
 -1       894-1.51691E+03-1.66397E+05-6.36322E+03 4.11559E+04 3.78100E-09-7.32507E-09
 -1       895-1.20614E+03-1.63437E+05-1.12049E+04 2.73486E+04 1.62800E-09 5.19321E-09
 -1       956-3.82894E+05-5.54475E+03-1.36591E+04 3.18122E+04 1.05847E-08-1.43843E-08
 -1       957-3.85572E+05-1.96517E+03-7.01092E+03 3.82224E+04 1.21963E-09-1.06847E-08
 -1       958-3.84123E+05-2.55415E+02-3.15940E+03 3.16412E+04-3.68618E-09-5.54883E-09
 -1       959-3.84321E+05-1.50942E+02-1.61319E+03 3.84229E+04 5.08726E-09 3.85603E-08
 -1       960-3.84244E+05-5.57026E+01-7.86682E+02 3.16236E+04 1.12759E-08 2.46700E-10
 -1       961-3.84240E+05-7.63305E+01-4.17059E+02 3.84439E+04 2.18261E-08-2.70841E-08
 -1       962-3.84272E+05-5.66397E+01-2.38768E+02 3.16206E+04 5.03223E-09 1.23482E-08
 -1       963-3.84241E+05-7.19099E+01-1.91655E+02 3.84477E+04 4.49563E-09 1.44746E-09
 -1       964-3.84278E+05-5.32206E+01-2.33081E+02 3.16198E+04-5.60078E-10 2.33058E-09
 -1       965-3.84253E+05-6.90427E+01-4.03146E+02 3.84469E+04-3.83443E-09-1.55080E-08
 -1       966-3.84261E+05-4.55417E+01-7.57554E+02 3.16214E+04-8.69886E-09-1.59971E-08
 -1       967-3.84343E+05-1.33991E+02-1.55371E+03 3.84319E+04-2.85861E-08 1.67367E-08
 -1       968-3.84155E+05-2.31388E+02-3.04169E+03 3.16345E+04-1.59898E-08 6.60998E-09
 -1       969-3.85560E+05-1.87564E+03-6.75236E+03 3.82781E+04 1.29967E-09-1.69466E-08
 -1       970-3.82979E+05-5.32163E+03-1.31542E+04 3.17654E+04-2.44745E-09 7.23503E-09
 -1       971-3.49724E+05-1.74248E+03-9.36516E+03 1.54792E+04 9.36689E-09-8.45130E-09
 -1       972-3.51977E+05-1.28591E+03-5.10019E+03 2.13858E+04 8.74752E-09-8.18272E-09
 -1       973-3.50768E+05-6.71315E+01-2.28446E+03 1.53581E+04-2.54749E-09 1.88413E-08
 -1       974-3.50902E+05-8.81947E+01-1.18426E+03 2.15235E+04-1.00372E-08 2.00948E-08
 -1       975-3.50850E+05-2.19849E+01-5.92580E+02 1.53457E+04-9.31823E-09-1.49760E-09
 -1       976-3.50840E+05-3.80577E+01-3.43008E+02 2.15394E+04 5.55156E-09-7.15511E-09
 -1       977-3.50867E+05-2.12195E+01-2.50960E+02 1.53422E+04-7.06927E-09 1.99032E-09
 -1       978-3.50845E+05-3.17834E+01-2.96424E+02 2.15444E+04-1.22932E-08 5.38432E-09
 -1       979-3.50867E+05-1.26329E+01-4.78617E+02 1.53408E+04-4.65360E-09 7.60815E-09
 -1       980-3.50881E+05-2.86873E+01-9.25626E+02 2.15454E+04-6.63351E-09 2.11840E-08
 -1       981-3.50837E+05 1.05149E+01-1.79349E+03 1.53413E+04 5.65240E-09-2.30392E-09
 -1       982-3.51127E+05-1.61192E+02-3.70754E+03 2.15387E+04-2.42039E-10-5.06877E-09
 -1       983-3.50611E+05-1.04303E+02-7.20399E+03 1.53473E+04-9.05447E-09 6.94899E-09
 -1       984-3.54592E+05-3.92359E+03-1.61332E+04 2.14527E+04-3.57068E-09 2.23426E-08
 -1       985-3.47350E+05-5.37569E+03-2.96255E+04 1.54175E+04-4.83988E-09-2.22644E-09
 -3
    1PSTEP                        65          33           1          
  100CL  133 6.68855E-01         409                     0   33           1
 -4  DISP        4    1
 -5  D1          1    2    1    0
 -5  D2          1    2    2    0
 -5  D3          1    2    3    0
 -5  ALL         1    2    0    0    1ALL
 -1         1 4.74590E-03 0.00000E+00 0.00000E+00
 -1         2 4.67231E-03-3.31188E-28-5.29396E-23
 -1         3 3.54992E-04-5.06710E-28 0.00000E+00
 -1         5 1.82969E-04-2.31552E-27-1.65436E-24
 -1         8 4.73344E-03-3.23964E-07 0.00000E+00
 -1         9 4.65232E-03-1.45374E-05 0.00000E+00
 -1        10 3.22304E-04-2.87409E-06-1.32349E-23
 -1        12 1.85023E-04 8.24157E-07-4.13590E-25
 -1        15 4.71795E-03-3.53224E-07 1.03398E-25
 -1        16 4.72935E-03-1.71412E-05 0.00000E+00
 -1        17 2.19912E-04-6.70275E-06 0.00000E+00
 -1        18 1.89570E-04 3.72421E-05 0.00000E+00
 -1        19 1.91188E-04 1.64129E-06 0.00000E+00
 -1        20 1.91323E-04-1.22570E-05 0.00000E+00
 -1        21 1.90405E-04-3.04510E-05 0.00000E+00
 -1        24 3.08290E-05-1.07943E-05 0.00000E+00
 -1        25 2.01400E-04 3.74741E-05 0.00000E+00
 -1        26 2.02053E-04 2.27166E-06 0.00000E+00
 -1        27 1.99812E-04-1.58734E-05 0.00000E+00
 -1        28 1.99514E-04-3.10800E-05 0.00000E+00
 -1        32 0.00000E+00 0.00000E+00 0.00000E+00
 -1        33 2.11947E-04 3.03796E-06 0.00000E+00
 -1        34 2.09794E-04-1.59333E-05 0.00000E+00
 -1        35 2.07836E-04-3.14277E-05 0.00000E+00
 -1        51 4.74512E-03-7.12814E-08 0.00000E+00
 -1        52 4.74365E-03-1.24027E-07 0.00000E+00
 -1        53 4.74162E-03-1.73420E-07 0.00000E+00
 -1        54 4.73915E-03-2.21757E-07 0.00000E+00
 -1        55 4.73638E-03-2.70814E-07-8.27181E-25
 -1        56 4.73672E-03 1.21061E-05-5.29396E-23
 -1        57 4.71697E-03 4.99329E-05 0.00000E+00
 -1        58 4.68882E-03 1.07375E-04 0.00000E+00
 -1        59 4.65542E-03 1.76484E-04 5.29396E-23
 -1        60 4.62125E-03 2.47286E-04 0.00000E+00
 -1        61 4.59089E-03 3.09651E-04 0.00000E+00
 -1        62 4.56795E-03 3.54941E-04 0.00000E+00
 -1        63 4.55504E-03 3.76009E-04 5.29396E-23
 -1        64 4.55249E-03 3.70131E-04 1.05879E-22
 -1        65 4.55959E-03 3.37136E-04-5.29396E-23
 -1        66 4.57401E-03 2.82039E-04 0.00000E+00
 -1        67 4.59306E-03 2.12070E-04-5.29396E-23
 -1        68 4.61353E-03 1.37399E-04 1.05879E-22
 -1        69 4.63224E-03 6.86825E-05 0.00000E+00
 -1        70 4.64608E-03 1.53918E-05-5.29396E-23
 -1        86 4.66813E-03-2.40853E-06 0.00000E+00
 -1        87 4.65598E-03-4.87735E-06 2.64698E-23
 -1        88 4.64338E-03-7.35060E-06 0.00000E+00
 -1        89 4.63790E-03-9.75066E-06 0.00000E+00
 -1        90 4.64074E-03-1.21452E-05 0.00000E+00
 -1       121 3.54076E-04-4.60495E-07 0.00000E+00
 -1       122 3.51330E-04-9.24210E-07 6.61744E-24
 -1       123 3.46763E-04-1.39432E-06 0.00000E+00
 -1       124 3.40389E-04-1.87400E-06 6.61744E-24
 -1       125 3.32227E-04-2.36608E-06 0.00000E+00
 -1       191 1.83026E-04 1.37437E-07 2.48154E-24
 -1       192 1.83197E-04 2.74861E-07-4.13590E-25
 -1       193 1.83482E-04 4.12259E-07 8.27181E-25
 -1       194 1.83882E-04 5.49619E-07 8.27181E-25
 -1       195 1.84395E-04 6.86923E-07-2.48154E-24
 -1       251 4.73243E-03 2.68544E-05 1.32349E-23
 -1       252 4.72901E-03 1.02488E-04-6.61744E-24
 -1       253 4.72255E-03 2.13062E-04-1.32349E-23
 -1       254 4.71368E-03 3.44241E-04 0.00000E+00
 -1       255 4.70476E-03 4.75772E-04-1.32349E-23
 -1       256 4.69818E-03 5.87401E-04 0.00000E+00
 -1       257 4.69465E-03 6.64586E-04 0.00000E+00
 -1       258 4.69358E-03 6.93594E-04-6.61744E-24
 -1       259 4.69270E-03 6.72991E-04 1.32349E-23
 -1       260 4.68965E-03 6.02722E-04 0.00000E+00
 -1       261 4.68351E-03 4.95294E-04-1.32349E-23
 -1       262 4.67462E-03 3.64105E-04-6.61744E-24
 -1       263 4.66529E-03 2.29309E-04 0.00000E+00
 -1       264 4.65799E-03 1.11130E-04 0.00000E+00
 -1       265 4.65375E-03 2.49538E-05 0.00000E+00
 -1       266 4.73086E-03-3.33861E-07 1.65436E-24
 -1       267 4.72828E-03-3.38126E-07 0.00000E+00
 -1       268 4.72569E-03-3.42747E-07 0.00000E+00
 -1       269 4.72311E-03-3.46312E-07 1.03398E-25
 -1       270 4.72053E-03-3.49852E-07 0.00000E+00
 -1       271 4.73166E-03 2.82231E-06 0.00000E+00
 -1       272 4.72940E-03 7.17322E-06 0.00000E+00
 -1       273 4.72682E-03 1.23548E-05-1.32349E-23
 -1       274 4.72407E-03 1.79787E-05 0.00000E+00
 -1       275 4.72130E-03 2.36559E-05 0.00000E+00
 -1       276 4.71866E-03 2.89964E-05 0.00000E+00
 -1       277 4.71630E-03 3.36122E-05 0.00000E+00
 -1       278 4.71435E-03 3.71201E-05 0.00000E+00
 -1       279 4.71297E-03 3.91444E-05 0.00000E+00
 -1       280 4.71228E-03 3.93188E-05 0.00000E+00
 -1       281 4.71242E-03 3.72896E-05 0.00000E+00
 -1       282 4.71350E-03 3.27175E-05 0.00000E+00
 -1       283 4.71564E-03 2.52803E-05 0.00000E+00
 -1       284 4.71894E-03 1.46753E-05-6.61744E-24
 -1       285 4.72348E-03 6.19948E-07 0.00000E+00
 -1       301 4.66550E-03-1.49946E-05 6.61744E-24
 -1       302 4.67702E-03-1.54072E-05 0.00000E+00
 -1       303 4.68802E-03-1.58111E-05 0.00000E+00
 -1       304 4.69965E-03-1.62210E-05 2.64698E-23
 -1       305 4.71305E-03-1.66555E-05 2.64698E-23
 -1       306 4.69764E-03-2.23922E-04 0.00000E+00
 -1       307 4.74695E-03-7.79418E-04-5.29396E-23
 -1       308 4.73186E-03-1.59066E-03-1.05879E-22
 -1       309 4.65727E-03-2.52623E-03-2.64698E-23
 -1       310 4.60613E-03-3.41314E-03 1.05879E-22
 -1       311 4.63642E-03-4.08036E-03 5.29396E-23
 -1       312 4.69476E-03-4.41410E-03 0.00000E+00
 -1       313 4.67056E-03-4.38376E-03 0.00000E+00
 -1       314 4.42847E-03-4.01561E-03 2.11758E-22
 -1       315 3.90808E-03-3.43432E-03-5.29396E-23
 -1       316 3.13552E-03-2.74879E-03-1.05879E-22
 -1       317 2.21901E-03-2.03657E-03 0.00000E+00
 -1       318 1.34813E-03-1.33235E-03 1.05879E-22
 -1       319 6.98856E-04-6.87630E-04 0.00000E+00
 -1       320 3.34289E-04-2.09041E-04-2.11758E-22
 -1       336 3.10420E-04-3.43906E-06-1.32349E-23
 -1       337 2.96383E-04-4.03110E-06 0.00000E+00
 -1       338 2.80247E-04-4.65303E-06-1.32349E-23
 -1       339 2.62074E-04-5.30573E-06 0.00000E+00
 -1       340 2.41936E-04-5.99473E-06 6.61744E-24
 -1       406 1.85765E-04 9.61299E-07-8.27181E-25
 -1       407 1.86622E-04 1.09831E-06 4.13590E-25
 -1       408 1.87592E-04 1.23513E-06 0.00000E+00
 -1       409 1.88677E-04 1.37159E-06 0.00000E+00
 -1       410 1.89876E-04 1.50740E-06-2.06795E-24
 -1       521 4.77394E-03-2.39253E-04 2.11758E-22
 -1       522 4.81781E-03-8.14940E-04 5.29396E-23
 -1       523 4.79281E-03-1.64739E-03 0.00000E+00
 -1       524 4.71077E-03-2.59481E-03-5.29396E-23
 -1       525 4.65412E-03-3.49057E-03 0.00000E+00
 -1       526 4.67952E-03-4.17047E-03 1.05879E-22
 -1       527 4.73518E-03-4.50870E-03-2.11758E-22
 -1       528 4.70494E-03-4.47233E-03 1.05879E-22
 -1       529 4.44308E-03-4.08797E-03 0.00000E+00
 -1       530 3.89136E-03-3.49308E-03-5.29396E-23
 -1       531 3.08137E-03-2.79988E-03-1.05879E-22
 -1       532 2.13372E-03-2.08522E-03 5.29396E-23
 -1       533 1.23244E-03-1.37750E-03 2.11758E-22
 -1       534 5.48156E-04-7.21603E-04 0.00000E+00
 -1       535 1.58128E-04-2.27184E-04-2.11758E-22
 -1       536 2.19120E-04 2.94831E-05 3.30872E-24
 -1       537 2.17078E-04 9.20092E-05 0.00000E+00
 -1       538 2.13920E-04 1.71303E-04-3.30872E-24
 -1       539 2.10194E-04 2.57703E-04 1.65436E-24
 -1       540 2.06844E-04 3.39321E-04 3.30872E-24
 -1       541 2.04671E-04 4.04294E-04 0.00000E+00
 -1       542 2.03673E-04 4.45674E-04 0.00000E+00
 -1       543 2.03442E-04 4.56670E-04 0.00000E+00
 -1       544 2.03107E-04 4.38075E-04 3.30872E-24
 -1       545 2.01868E-04 3.90911E-04-1.65436E-24
 -1       546 1.99549E-04 3.23546E-04 0.00000E+00
 -1       547 1.96402E-04 2.44473E-04 0.00000E+00
 -1       548 1.93283E-04 1.65764E-04-3.30872E-24
 -1       549 1.91034E-04 9.94890E-05 1.65436E-24
 -1       550 1.89869E-04 5.39309E-05 0.00000E+00
 -1       551 1.94034E-04-7.22070E-06 0.00000E+00
 -1       552 1.64820E-04-7.82908E-06 0.00000E+00
 -1       553 1.33072E-04-8.50908E-06-6.61744E-24
 -1       554 9.96104E-05-9.24332E-06 1.34417E-24
 -1       555 6.52566E-05-1.00075E-05 0.00000E+00
 -1       556 2.11969E-04 1.36137E-05 0.00000E+00
 -1       557 2.05542E-04 3.01021E-05 0.00000E+00
 -1       558 2.00498E-04 4.30614E-05 0.00000E+00
 -1       559 1.96701E-04 5.28114E-05-2.64698E-23
 -1       560 1.94016E-04 5.96723E-05 0.00000E+00
 -1       561 1.92311E-04 6.39671E-05 0.00000E+00
 -1       562 1.91457E-04 6.60198E-05 0.00000E+00
 -1       563 1.91325E-04 6.61556E-05 0.00000E+00
 -1       564 1.91790E-04 6.47007E-05 0.00000E+00
 -1       565 1.92727E-04 6.19818E-05 0.00000E+00
 -1       566 1.94013E-04 5.83264E-05 0.00000E+00
 -1       567 1.95525E-04 5.40622E-05 0.00000E+00
 -1       568 1.97141E-04 4.95173E-05 0.00000E+00
 -1       569 1.98740E-04 4.50197E-05 0.00000E+00
 -1       570 2.00199E-04 4.08975E-05 0.00000E+00
 -1       571 1.89668E-04 3.49299E-05-2.48154E-24
 -1       572 1.89768E-04 3.25504E-05-4.13590E-25
 -1       573 1.89869E-04 3.01199E-05-1.65436E-24
 -1       574 1.89970E-04 2.76553E-05 8.27181E-25
 -1       575 1.90071E-04 2.51737E-05 0.00000E+00
 -1       576 1.90172E-04 2.26921E-05 0.00000E+00
 -1       577 1.90273E-04 2.02277E-05 0.00000E+00
 -1       578 1.90374E-04 1.77976E-05 0.00000E+00
 -1       579 1.90475E-04 1.54189E-05 6.61744E-24
 -1       580 1.90576E-04 1.31087E-05 6.61744E-24
 -1       581 1.90678E-04 1.08842E-05-6.61744E-24
 -1       582 1.90780E-04 8.76250E-06 3.30872E-24
 -1       583 1.90882E-04 6.76064E-06 0.00000E+00
 -1       584 1.90984E-04 4.89556E-06 3.30872E-24
 -1       585 1.91086E-04 3.18400E-06 0.00000E+00
 -1       586 1.91502E-04 3.72829E-05-1.65436E-24
 -1       587 1.93391E-04 3.73232E-05 8.27181E-25
 -1       588 1.95281E-04 3.73631E-05 0.00000E+00
 -1       589 1.97217E-04 3.74023E-05 0.00000E+00
 -1       590 1.99243E-04 3.74402E-05 0.00000E+00
 -1       591 1.90365E-04 3.50280E-05 1.03398E-25
 -1       592 1.91163E-04 3.27955E-05 0.00000E+00
 -1       593 1.91965E-04 3.05503E-05 8.27181E-25
 -1       594 1.92770E-04 2.82969E-05 0.00000E+00
 -1       595 1.93576E-04 2.60399E-05 0.00000E+00
 -1       596 1.94381E-04 2.37838E-05 0.00000E+00
 -1       597 1.95185E-04 2.15332E-05 0.00000E+00
 -1       598 1.95985E-04 1.92926E-05 0.00000E+00
 -1       599 1.96779E-04 1.70665E-05 8.27181E-25
 -1       600 1.97566E-04 1.48594E-05 0.00000E+00
 -1       601 1.98345E-04 1.26759E-05 0.00000E+00
 -1       602 1.99113E-04 1.05205E-05-4.13590E-25
 -1       603 1.99869E-04 8.39767E-06 8.27181E-25
 -1       604 2.00612E-04 6.31209E-06-1.55096E-25
 -1       605 2.01339E-04 4.26818E-06 0.00000E+00
 -1       606 1.91201E-04 3.36896E-07 0.00000E+00
 -1       607 1.91211E-04-8.83752E-07-1.65436E-24
 -1       608 1.91219E-04-2.02557E-06 0.00000E+00
 -1       609 1.91227E-04-3.09410E-06 0.00000E+00
 -1       610 1.91235E-04-4.09495E-06 0.00000E+00
 -1       611 1.91243E-04-5.03377E-06 0.00000E+00
 -1       612 1.91251E-04-5.91621E-06 0.00000E+00
 -1       613 1.91259E-04-6.74796E-06 0.00000E+00
 -1       614 1.91267E-04-7.53467E-06 0.00000E+00
 -1       615 1.91276E-04-8.28201E-06 0.00000E+00
 -1       616 1.91284E-04-8.99567E-06 0.00000E+00
 -1       617 1.91292E-04-9.68131E-06 0.00000E+00
 -1       618 1.91300E-04-1.03446E-05 0.00000E+00
 -1       619 1.91308E-04-1.09912E-05 0.00000E+00
 -1       620 1.91316E-04-1.16268E-05 0.00000E+00
 -1       621 1.92694E-04 1.74699E-06 0.00000E+00
 -1       622 1.94369E-04 1.85291E-06-8.27181E-25
 -1       623 1.96179E-04 1.95859E-06-1.65436E-24
 -1       624 1.98087E-04 2.06391E-06 0.00000E+00
 -1       625 2.00057E-04 2.16891E-06-1.65436E-24
 -1       626 1.91791E-04 3.73704E-07 3.30872E-24
 -1       627 1.92372E-04-8.33241E-07-3.30872E-24
 -1       628 1.92933E-04-1.98733E-06 0.00000E+00
 -1       629 1.93478E-04-3.09666E-06 0.00000E+00
 -1       630 1.94009E-04-4.16933E-06 0.00000E+00
 -1       631 1.94530E-04-5.21346E-06 0.00000E+00
 -1       632 1.95043E-04-6.23718E-06-3.30872E-24
 -1       633 1.95551E-04-7.24862E-06 0.00000E+00
 -1       634 1.96058E-04-8.25590E-06-3.30872E-24
 -1       635 1.96566E-04-9.26714E-06 0.00000E+00
 -1       636 1.97079E-04-1.02905E-05-3.30872E-24
 -1       637 1.97599E-04-1.13340E-05-1.65436E-24
 -1       638 1.98130E-04-1.24060E-05 1.65436E-24
 -1       639 1.98674E-04-1.35144E-05 8.27181E-25
 -1       640 1.99235E-04-1.46674E-05-1.65436E-24
 -1       656 1.92186E-04-1.28447E-05 0.00000E+00
 -1       657 1.93468E-04-1.34564E-05 0.00000E+00
 -1       658 1.95032E-04-1.40667E-05 1.32349E-23
 -1       659 1.96734E-04-1.46766E-05 0.00000E+00
 -1       660 1.98389E-04-1.52884E-05 0.00000E+00
 -1       661 1.91646E-04-1.29336E-05 0.00000E+00
 -1       662 1.92006E-04-1.37046E-05-8.27181E-25
 -1       663 1.92400E-04-1.45644E-05 0.00000E+00
 -1       664 1.92825E-04-1.55062E-05 8.27181E-25
 -1       665 1.93279E-04-1.65240E-05 0.00000E+00
 -1       666 1.93758E-04-1.76116E-05 0.00000E+00
 -1       667 1.94262E-04-1.87631E-05-1.65436E-24
 -1       668 1.94787E-04-1.99726E-05 8.27181E-25
 -1       669 1.95332E-04-2.12345E-05 0.00000E+00
 -1       670 1.95894E-04-2.25431E-05 0.00000E+00
 -1       671 1.96472E-04-2.38931E-05 0.00000E+00
 -1       672 1.97062E-04-2.52791E-05-8.27181E-25
 -1       673 1.97665E-04-2.66957E-05 0.00000E+00
 -1       674 1.98276E-04-2.81381E-05 0.00000E+00
 -1       675 1.98895E-04-2.96006E-05-2.06795E-25
 -1       676 1.91928E-04-3.05565E-05 0.00000E+00
 -1       677 1.93451E-04-3.06619E-05 0.00000E+00
 -1       678 1.94972E-04-3.07672E-05 0.00000E+00
 -1       679 1.96490E-04-3.08722E-05 0.00000E+00
 -1       680 1.98004E-04-3.09772E-05 3.30872E-24
 -1       771 1.77474E-05 1.86749E-05 0.00000E+00
 -1       772 6.77656E-06 4.28552E-05 5.29396E-23
 -1       773-2.18291E-06 6.20007E-05 0.00000E+00
 -1       774-9.27137E-06 7.63954E-05 1.05879E-22
 -1       775-1.46254E-05 8.63352E-05-5.29396E-23
 -1       776-1.83871E-05 9.21347E-05 2.64698E-23
 -1       777-2.06979E-05 9.41203E-05 5.29396E-23
 -1       778-2.17021E-05 9.26338E-05 0.00000E+00
 -1       779-2.15426E-05 8.80268E-05 0.00000E+00
 -1       780-2.03646E-05 8.06638E-05 0.00000E+00
 -1       781-1.83119E-05 7.09171E-05 0.00000E+00
 -1       782-1.55299E-05 5.91690E-05 0.00000E+00
 -1       783-1.21626E-05 4.58069E-05-5.29396E-23
 -1       784-8.35552E-06 3.12256E-05 0.00000E+00
 -1       785-4.25264E-06 1.58230E-05 0.00000E+00
 -1       786 2.01437E-04 3.50411E-05 2.58494E-26
 -1       787 2.01477E-04 3.26593E-05 4.13590E-25
 -1       788 2.01517E-04 3.03204E-05 8.27181E-25
 -1       789 2.01557E-04 2.80160E-05 0.00000E+00
 -1       790 2.01598E-04 2.57415E-05 1.65436E-24
 -1       791 2.01639E-04 2.34918E-05 0.00000E+00
 -1       792 2.01680E-04 2.12646E-05 0.00000E+00
 -1       793 2.01721E-04 1.90578E-05 8.27181E-25
 -1       794 2.01763E-04 1.68710E-05 0.00000E+00
 -1       795 2.01804E-04 1.47038E-05 0.00000E+00
 -1       796 2.01845E-04 1.25582E-05-1.65436E-24
 -1       797 2.01887E-04 1.04357E-05 0.00000E+00
 -1       798 2.01928E-04 8.34047E-06 0.00000E+00
 -1       799 2.01970E-04 6.27658E-06-8.27181E-25
 -1       800 2.02011E-04 4.25121E-06 1.65436E-24
 -1       801 1.53283E-04 3.37424E-05-2.64698E-23
 -1       802 7.89558E-06 2.09543E-05 0.00000E+00
 -1       803-1.16140E-04 1.04974E-05-5.29396E-23
 -1       804-1.02905E-04 7.33630E-06 2.64698E-23
 -1       805-3.44174E-05 2.85568E-06 5.29396E-23
 -1       806 2.02195E-04 3.49710E-05 1.65436E-24
 -1       807 2.02976E-04 3.24947E-05 1.65436E-24
 -1       808 2.03744E-04 3.00506E-05 0.00000E+00
 -1       809 2.04498E-04 2.76427E-05 0.00000E+00
 -1       810 2.05236E-04 2.52753E-05 3.30872E-24
 -1       811 2.05958E-04 2.29522E-05 0.00000E+00
 -1       812 2.06663E-04 2.06775E-05-3.30872E-24
 -1       813 2.07347E-04 1.84552E-05 0.00000E+00
 -1       814 2.08011E-04 1.62892E-05 3.30872E-24
 -1       815 2.08652E-04 1.41836E-05 1.65436E-24
 -1       816 2.09269E-04 1.21423E-05-1.65436E-24
 -1       817 2.09860E-04 1.01692E-05-8.27181E-25
 -1       818 2.10425E-04 8.26829E-06-3.30872E-24
 -1       819 2.10962E-04 6.44354E-06-8.27181E-25
 -1       820 2.11469E-04 4.69881E-06 0.00000E+00
 -1       821 2.01922E-04-3.85239E-07-1.65436E-24
 -1       822 2.01779E-04-4.43638E-06 0.00000E+00
 -1       823 2.01632E-04-9.38052E-06 0.00000E+00
 -1       824 2.01482E-04-1.47108E-05 1.65436E-24
 -1       825 2.01333E-04-1.98151E-05 0.00000E+00
 -1       826 2.01188E-04-2.40824E-05 0.00000E+00
 -1       827 2.01047E-04-2.71318E-05-3.30872E-24
 -1       828 2.00909E-04-2.85898E-05 1.65436E-24
 -1       829 2.00772E-04-2.85193E-05 0.00000E+00
 -1       830 2.00634E-04-2.69929E-05 0.00000E+00
 -1       831 2.00494E-04-2.44827E-05 3.30872E-24
 -1       832 2.00353E-04-2.14665E-05-1.65436E-24
 -1       833 2.00213E-04-1.85615E-05 0.00000E+00
 -1       834 2.00076E-04-1.63840E-05 1.65436E-24
 -1       835 1.99940E-04-1.53513E-05-8.27181E-25
 -1       836 2.03919E-04 2.39868E-06-3.30872E-24
 -1       837 2.05656E-04 2.52894E-06-1.65436E-24
 -1       838 2.07297E-04 2.65915E-06-3.30872E-24
 -1       839 2.08872E-04 2.78867E-06 0.00000E+00
 -1       840 2.10411E-04 2.91803E-06 0.00000E+00
 -1       856 1.99797E-04-1.71021E-05 0.00000E+00
 -1       857 1.99779E-04-1.81939E-05-5.16988E-26
 -1       858 1.99761E-04-1.91701E-05 0.00000E+00
 -1       859 1.99742E-04-2.00520E-05-2.06795E-25
 -1       860 1.99724E-04-2.08609E-05 4.13590E-25
 -1       861 1.99705E-04-2.16184E-05 0.00000E+00
 -1       862 1.99686E-04-2.23458E-05 0.00000E+00
 -1       863 1.99668E-04-2.30647E-05-2.06795E-25
 -1       864 1.99649E-04-2.37964E-05 0.00000E+00
 -1       865 1.99631E-04-2.45626E-05-2.06795E-25
 -1       866 1.99612E-04-2.53846E-05 0.00000E+00
 -1       867 1.99593E-04-2.62839E-05 0.00000E+00
 -1       868 1.99574E-04-2.72819E-05-8.27181E-25
 -1       869 1.99555E-04-2.83998E-05 4.13590E-25
 -1       870 1.99535E-04-2.96588E-05 8.27181E-25
 -1       871 2.01333E-04-1.58789E-05 0.00000E+00
 -1       872 2.03004E-04-1.58878E-05 0.00000E+00
 -1       873 2.04755E-04-1.58975E-05 0.00000E+00
 -1       874 2.06517E-04-1.59079E-05-3.36042E-25
 -1       875 2.08220E-04-1.59189E-05 1.65436E-24
 -1       876 2.00401E-04-1.70872E-05 3.30872E-24
 -1       877 2.00968E-04-1.82336E-05 1.65436E-24
 -1       878 2.01513E-04-1.93206E-05 3.30872E-24
 -1       879 2.02039E-04-2.03557E-05 0.00000E+00
 -1       880 2.02549E-04-2.13462E-05-3.30872E-24
 -1       881 2.03044E-04-2.22997E-05 0.00000E+00
 -1       882 2.03529E-04-2.32236E-05 0.00000E+00
 -1       883 2.04005E-04-2.41252E-05-1.65436E-24
 -1       884 2.04476E-04-2.50119E-05-3.30872E-24
 -1       885 2.04943E-04-2.58912E-05 0.00000E+00
 -1       886 2.05411E-04-2.67705E-05 0.00000E+00
 -1       887 2.05882E-04-2.76570E-05-1.65436E-24
 -1       888 2.06357E-04-2.85584E-05 0.00000E+00
 -1       889 2.06841E-04-2.94820E-05-1.65436E-24
 -1       890 2.07334E-04-3.04353E-05 1.65436E-24
 -1       891 2.01044E-04-3.11384E-05 0.00000E+00
 -1       892 2.02551E-04-3.11970E-05 0.00000E+00
 -1       893 2.04008E-04-3.12555E-05 1.65436E-24
 -1       894 2.05391E-04-3.13137E-05 0.00000E+00
 -1       895 2.06675E-04-3.13716E-05 8.27181E-25
 -1       956 2.11814E-04 1.55552E-06-1.65436E-24
 -1       957 2.11680E-04 1.66829E-07-8.27181E-25
 -1       958 2.11545E-04-1.13917E-06 0.00000E+00
 -1       959 2.11410E-04-2.37415E-06 0.00000E+00
 -1       960 2.11275E-04-3.54983E-06-3.30872E-24
 -1       961 2.11140E-04-4.67796E-06 0.00000E+00
 -1       962 2.11005E-04-5.77029E-06 0.00000E+00
 -1       963 2.10870E-04-6.83862E-06 0.00000E+00
 -1       964 2.10735E-04-7.89472E-06 3.30872E-24
 -1       965 2.10600E-04-8.95037E-06-1.65436E-24
 -1       966 2.10465E-04-1.00174E-05 3.30872E-24
 -1       967 2.10331E-04-1.11074E-05 0.00000E+00
 -1       968 2.10196E-04-1.22324E-05 0.00000E+00
 -1       969 2.10061E-04-1.34040E-05 0.00000E+00
 -1       970 2.09927E-04-1.46339E-05-3.30872E-24
 -1       971 2.09673E-04-1.72343E-05-3.30872E-24
 -1       972 2.09550E-04-1.84405E-05 1.65436E-24
 -1       973 2.09427E-04-1.95622E-05 0.00000E+00
 -1       974 2.09304E-04-2.06105E-05 0.00000E+00
 -1       975 2.09180E-04-2.15961E-05 3.30872E-24
 -1       976 2.09057E-04-2.25300E-05 0.00000E+00
 -1       977 2.08934E-04-2.34230E-05 3.30872E-24
 -1       978 2.08811E-04-2.42862E-05 0.00000E+00
 -1       979 2.08688E-04-2.51304E-05 0.00000E+00
 -1       980 2.08565E-04-2.59667E-05 0.00000E+00
 -1       981 2.08442E-04-2.68058E-05 3.30872E-24
 -1       982 2.08320E-04-2.76588E-05 1.65436E-24
 -1       983 2.08197E-04-2.85366E-05-3.30872E-24
 -1       984 2.08075E-04-2.94501E-05 1.65436E-24
 -1       985 2.07953E-04-3.04102E-05 0.00000E+00
 -3
    1PSTEP                        66          33           1          
  100CL  133 6.68855E-01         409                     0   33           1
 -4  FORC        4    1
 -5  F1          1    2    1    0
 -5  F2          1    2    2    0
 -5  F3          1    2    3    0
 -5  ALL         1    2    0    0    1ALL
 -1         1 3.57089E-04 0.00000E+00 0.00000E+00
 -1         2 0.00000E+00 0.00000E+00 0.00000E+00
 -1         3 0.00000E+00 0.00000E+00 0.00000E+00
 -1         5 0.00000E+00 0.00000E+00 0.00000E+00
 -1         8 6.96006E-06-1.52662E-05 0.00000E+00
 -1         9-1.88903E-03 1.45863E-03 0.00000E+00
 -1        10-1.73955E-10 1.90127E-09 0.00000E+00
 -1        12 0.00000E+00 0.00000E+00 0.00000E+00
 -1        15 0.00000E+00 0.00000E+00 0.00000E+00
 -1        16-1.63948E-04-1.72696E-03 0.00000E+00
 -1        17-6.41895E-07 2.81427E-07 0.00000E+00
 -1        18 1.55493E-08 1.28495E-08 0.00000E+00
 -1        19 4.45372E-09-1.02253E-09 0.00000E+00
 -1        20-7.35122E-09 8.17046E-10 0.00000E+00
 -1        21 0.00000E+00 2.91872E-09 0.00000E+00
 -1        24-1.31322E-05 1.89391E-06 0.00000E+00
 -1        25 8.78659E-09-7.82466E-09 0.00000E+00
 -1        26-4.74796E-09-3.41465E-09 0.00000E+00
 -1        27-2.42423E-09 4.65171E-09 0.00000E+00
 -1        28-2.27448E-09 1.38913E-09 0.00000E+00
 -1        32 0.00000E+00 0.00000E+00 0.00000E+00
 -1        33-3.38986E-10-6.02597E-09 0.00000E+00
 -1        34-1.73131E-09-6.14500E-09 0.00000E+00
 -1        35-1.03172E-08-6.63018E-09 0.00000E+00
 -1        51 0.00000E+00 0.00000E+00 0.00000E+00
 -1        52 0.00000E+00 0.00000E+00 0.00000E+00
 -1        53 0.00000E+00 0.00000E+00 0.00000E+00
 -1        54 0.00000E+00 0.00000E+00 0.00000E+00
 -1        55 0.00000E+00 0.00000E+00 0.00000E+00
 -1        56 0.00000E+00 0.00000E+00 0.00000E+00
 -1        57 0.00000E+00 0.00000E+00 0.00000E+00
 -1        58 0.00000E+00 0.00000E+00 0.00000E+00
 -1        59 0.00000E+00 0.00000E+00 0.00000E+00
 -1        60 0.00000E+00 0.00000E+00 0.00000E+00
 -1        61 0.00000E+00 0.00000E+00 0.00000E+00
 -1        62 0.00000E+00 0.00000E+00 0.00000E+00
 -1        63 0.00000E+00 0.00000E+00 0.00000E+00
 -1        64 0.00000E+00 0.00000E+00 0.00000E+00
 -1        65 0.00000E+00 0.00000E+00 0.00000E+00
 -1        66 0.00000E+00 0.00000E+00 0.00000E+00
 -1        67 0.00000E+00 0.00000E+00 0.00000E+00
 -1        68 0.00000E+00 0.00000E+00 0.00000E+00
 -1        69 0.00000E+00 0.00000E+00 0.00000E+00
 -1        70 0.00000E+00 0.00000E+00 0.00000E+00
 -1        86 0.00000E+00 0.00000E+00 0.00000E+00
 -1        87 0.00000E+00 0.00000E+00 0.00000E+00
 -1        88 0.00000E+00 0.00000E+00 0.00000E+00
 -1        89 0.00000E+00 0.00000E+00 0.00000E+00
 -1        90 0.00000E+00 0.00000E+00 0.00000E+00
 -1       121 0.00000E+00 0.00000E+00 0.00000E+00
 -1       122 0.00000E+00 0.00000E+00 0.00000E+00
 -1       123 0.00000E+00 0.00000E+00 0.00000E+00
 -1       124 0.00000E+00 0.00000E+00 0.00000E+00
 -1       125 0.00000E+00 0.00000E+00 0.00000E+00
 -1       191 0.00000E+00 0.00000E+00 0.00000E+00
 -1       192 0.00000E+00 0.00000E+00 0.00000E+00
 -1       193 0.00000E+00 0.00000E+00 0.00000E+00
 -1       194 0.00000E+00 0.00000E+00 0.00000E+00
 -1       195 0.00000E+00 0.00000E+00 0.00000E+00
 -1       251 0.00000E+00 0.00000E+00 0.00000E+00
 -1       252 0.00000E+00 0.00000E+00 0.00000E+00
 -1       253 0.00000E+00 0.00000E+00 0.00000E+00
 -1       254 0.00000E+00 0.00000E+00 0.00000E+00
 -1       255 0.00000E+00 0.00000E+00 0.00000E+00
 -1       256 0.00000E+00 0.00000E+00 0.00000E+00
 -1       257 0.00000E+00 0.00000E+00 0.00000E+00
 -1       258 0.00000E+00 0.00000E+00 0.00000E+00
 -1       259 0.00000E+00 0.00000E+00 0.00000E+00
 -1       260 0.00000E+00 0.00000E+00 0.00000E+00
 -1       261 0.00000E+00 0.00000E+00 0.00000E+00
 -1       262 0.00000E+00 0.00000E+00 0.00000E+00
 -1       263 0.00000E+00 0.00000E+00 0.00000E+00
 -1       264 0.00000E+00 0.00000E+00 0.00000E+00
 -1       265 0.00000E+00 0.00000E+00 0.00000E+00
 -1       266 0.00000E+00 0.00000E+00 0.00000E+00
 -1       267 0.00000E+00 0.00000E+00 0.00000E+00
 -1       268 0.00000E+00 0.00000E+00 0.00000E+00
 -1       269 0.00000E+00 0.00000E+00 0.00000E+00
 -1       270 0.00000E+00 0.00000E+00 0.00000E+00
 -1       271 0.00000E+00 0.00000E+00 0.00000E+00
 -1       272 0.00000E+00 0.00000E+00 0.00000E+00
 -1       273 0.00000E+00 0.00000E+00 0.00000E+00
 -1       274 0.00000E+00 0.00000E+00 0.00000E+00
 -1       275 0.00000E+00 0.00000E+00 0.00000E+00
 -1       276 0.00000E+00 0.00000E+00 0.00000E+00
 -1       277 0.00000E+00 0.00000E+00 0.00000E+00
 -1       278 0.00000E+00 0.00000E+00 0.00000E+00
 -1       279 0.00000E+00 0.00000E+00 0.00000E+00
 -1       280 0.00000E+00 0.00000E+00 0.00000E+00
 -1       281 0.00000E+00 0.00000E+00 0.00000E+00
 -1       282 0.00000E+00 0.00000E+00 0.00000E+00
 -1       283 0.00000E+00 0.00000E+00 0.00000E+00
 -1       284 0.00000E+00 0.00000E+00 0.00000E+00
 -1       285 0.00000E+00 0.00000E+00 0.00000E+00
 -1       301 0.00000E+00 0.00000E+00 0.00000E+00
 -1       302 0.00000E+00 0.00000E+00 0.00000E+00
 -1       303 0.00000E+00 0.00000E+00 0.00000E+00
 -1       304 0.00000E+00 0.00000E+00 0.00000E+00
 -1       305 0.00000E+00 0.00000E+00 0.00000E+00
 -1       306 0.00000E+00 0.00000E+00 0.00000E+00
 -1       307 0.00000E+00 0.00000E+00 0.00000E+00
 -1       308 0.00000E+00 0.00000E+00 0.00000E+00
 -1       309 0.00000E+00 0.00000E+00 0.00000E+00
 -1       310 0.00000E+00 0.00000E+00 0.00000E+00
 -1       311 0.00000E+00 0.00000E+00 0.00000E+00
 -1       312 0.00000E+00 0.00000E+00 0.00000E+00
 -1       313 0.00000E+00 0.00000E+00 0.00000E+00
 -1       314 0.00000E+00 0.00000E+00 0.00000E+00
 -1       315 0.00000E+00 0.00000E+00 0.00000E+00
 -1       316 0.00000E+00 0.00000E+00 0.00000E+00
 -1       317 0.00000E+00 0.00000E+00 0.00000E+00
 -1       318 0.00000E+00 0.00000E+00 0.00000E+00
 -1       319 0.00000E+00 0.00000E+00 0.00000E+00
 -1       320 0.00000E+00 0.00000E+00 0.00000E+00
 -1       336 0.00000E+00 0.00000E+00 0.00000E+00
 -1       337 0.00000E+00 0.00000E+00 0.00000E+00
 -1       338 0.00000E+00 0.00000E+00 0.00000E+00
 -1       339 0.00000E+00 0.00000E+00 0.00000E+00
 -1       340 0.00000E+00 0.00000E+00 0.00000E+00
 -1       406 0.00000E+00 0.00000E+00 0.00000E+00
 -1       407 0.00000E+00 0.00000E+00 0.00000E+00
 -1       408 0.00000E+00 0.00000E+00 0.00000E+00
 -1       409 0.00000E+00 0.00000E+00 0.00000E+00
 -1       410 0.00000E+00 0.00000E+00 0.00000E+00
 -1       521 0.00000E+00 0.00000E+00 0.00000E+00
 -1       522 0.00000E+00 0.00000E+00 0.00000E+00
 -1       523 0.00000E+00 0.00000E+00 0.00000E+00
 -1       524 0.00000E+00 0.00000E+00 0.00000E+00
 -1       525 0.00000E+00 0.00000E+00 0.00000E+00
 -1       526 0.00000E+00 0.00000E+00 0.00000E+00
 -1       527 0.00000E+00 0.00000E+00 0.00000E+00
 -1       528 0.00000E+00 0.00000E+00 0.00000E+00
 -1       529 0.00000E+00 0.00000E+00 0.00000E+00
 -1       530 0.00000E+00 0.00000E+00 0.00000E+00
 -1       531 0.00000E+00 0.00000E+00 0.00000E+00
 -1       532 0.00000E+00 0.00000E+00 0.00000E+00
 -1       533 0.00000E+00 0.00000E+00 0.00000E+00
 -1       534 0.00000E+00 0.00000E+00 0.00000E+00
 -1       535 0.00000E+00 0.00000E+00 0.00000E+00
 -1       536 0.00000E+00 0.00000E+00 0.00000E+00
 -1       537 0.00000E+00 0.00000E+00 0.00000E+00
 -1       538 0.00000E+00 0.00000E+00 0.00000E+00
 -1       539 0.00000E+00 0.00000E+00 0.00000E+00
 -1       540 0.00000E+00 0.00000E+00 0.00000E+00
 -1       541 0.00000E+00 0.00000E+00 0.00000E+00
 -1       542 0.00000E+00 0.00000E+00 0.00000E+00
 -1       543 0.00000E+00 0.00000E+00 0.00000E+00
 -1       544 0.00000E+00 0.00000E+00 0.00000E+00
 -1       545 0.00000E+00 0.00000E+00 0.00000E+00
 -1       546 0.00000E+00 0.00000E+00 0.00000E+00
 -1       547 0.00000E+00 0.00000E+00 0.00000E+00
 -1       548 0.00000E+00 0.00000E+00 0.00000E+00
 -1       549 0.00000E+00 0.00000E+00 0.00000E+00
 -1       550 0.00000E+00 0.00000E+00 0.00000E+00
 -1       551 0.00000E+00 0.00000E+00 0.00000E+00
 -1       552 0.00000E+00 0.00000E+00 0.00000E+00
 -1       553 0.00000E+00 0.00000E+00 0.00000E+00
 -1       554 0.00000E+00 0.00000E+00 0.00000E+00
 -1       555 0.00000E+00 0.00000E+00 0.00000E+00
 -1       556 0.00000E+00 0.00000E+00 0.00000E+00
 -1       557 0.00000E+00 0.00000E+00 0.00000E+00
 -1       558 0.00000E+00 0.00000E+00 0.00000E+00
 -1       559 0.00000E+00 0.00000E+00 0.00000E+00
 -1       560 0.00000E+00 0.00000E+00 0.00000E+00
 -1       561 0.00000E+00 0.00000E+00 0.00000E+00
 -1       562 0.00000E+00 0.00000E+00 0.00000E+00
 -1       563 0.00000E+00 0.00000E+00 0.00000E+00
 -1       564 0.00000E+00 0.00000E+00 0.00000E+00
 -1       565 0.00000E+00 0.00000E+00 0.00000E+00
 -1       566 0.00000E+00 0.00000E+00 0.00000E+00
 -1       567 0.00000E+00 0.00000E+00 0.00000E+00
 -1       568 0.00000E+00 0.00000E+00 0.00000E+00
 -1       569 0.00000E+00 0.00000E+00 0.00000E+00
 -1       570 0.00000E+00 0.00000E+00 0.00000E+00
 -1       571 0.00000E+00 0.00000E+00 0.00000E+00
 -1       572 0.00000E+00 0.00000E+00 0.00000E+00
 -1       573 0.00000E+00 0.00000E+00 0.00000E+00
 -1       574 0.00000E+00 0.00000E+00 0.00000E+00
 -1       575 0.00000E+00 0.00000E+00 0.00000E+00
 -1       576 0.00000E+00 0.00000E+00 0.00000E+00
 -1       577 0.00000E+00 0.00000E+00 0.00000E+00
 -1       578 0.00000E+00 0.00000E+00 0.00000E+00
 -1       579 0.00000E+00 0.00000E+00 0.00000E+00
 -1       580 0.00000E+00 0.00000E+00 0.00000E+00
 -1       581 0.00000E+00 0.00000E+00 0.00000E+00
 -1       582 0.00000E+00 0.00000E+00 0.00000E+00
 -1       583 0.00000E+00 0.00000E+00 0.00000E+00
 -1       584 0.00000E+00 0.00000E+00 0.00000E+00
 -1       585 0.00000E+00 0.00000E+00 0.00000E+00
 -1       586 0.00000E+00 0.00000E+00 0.00000E+00
 -1       587 0.00000E+00 0.00000E+00 0.00000E+00
 -1       588 0.00000E+00 0.00000E+00 0.00000E+00
 -1       589 0.00000E+00 0.00000E+00 0.00000E+00
 -1       590 0.00000E+00 0.00000E+00 0.00000E+00
 -1       591 0.00000E+00 0.00000E+00 0.00000E+00
 -1       592 0.00000E+00 0.00000E+00 0.00000E+00
 -1       593 0.00000E+00 0.00000E+00 0.00000E+00
 -1       594 0.00000E+00 0.00000E+00 0.00000E+00
 -1       595 0.00000E+00 0.00000E+00 0.00000E+00
 -1       596 0.00000E+00 0.00000E+00 0.00000E+00
 -1       597 0.00000E+00 0.00000E+00 0.00000E+00
 -1       598 0.00000E+00 0.00000E+00 0.00000E+00
 -1       599 0.00000E+00 0.00000E+00 0.00000E+00
 -1       600 0.00000E+00 0.00000E+00 0.00000E+00
 -1       601 0.00000E+00 0.00000E+00 0.00000E+00
 -1       602 0.00000E+00 0.00000E+00 0.00000E+00
 -1       603 0.00000E+00 0.00000E+00 0.00000E+00
 -1       604 0.00000E+00 0.00000E+00 0.00000E+00
 -1       605 0.00000E+00 0.00000E+00 0.00000E+00
 -1       606 0.00000E+00 0.00000E+00 0.00000E+00
 -1       607 0.00000E+00 0.00000E+00 0.00000E+00
 -1       608 0.00000E+00 0.00000E+00 0.00000E+00
 -1       609 0.00000E+00 0.00000E+00 0.00000E+00
 -1       610 0.00000E+00 0.00000E+00 0.00000E+00
 -1       611 0.00000E+00 0.00000E+00 0.00000E+00
 -1       612 0.00000E+00 0.00000E+00 0.00000E+00
 -1       613 0.00000E+00 0.00000E+00 0.00000E+00
 -1       614 0.00000E+00 0.00000E+00 0.00000E+00
 -1       615 0.00000E+00 0.00000E+00 0.00000E+00
 -1       616 0.00000E+00 0.00000E+00 0.00000E+00
 -1       617 0.00000E+00 0.00000E+00 0.00000E+00
 -1       618 0.00000E+00 0.00000E+00 0.00000E+00
 -1       619 0.00000E+00 0.00000E+00 0.00000E+00
 -1       620 0.00000E+00 0.00000E+00 0.00000E+00
 -1       621 0.00000E+00 0.00000E+00 0.00000E+00
 -1       622 0.00000E+00 0.00000E+00 0.00000E+00
 -1       623 0.00000E+00 0.00000E+00 0.00000E+00
 -1       624 0.00000E+00 0.00000E+00 0.00000E+00
 -1       625 0.00000E+00 0.00000E+00 0.00000E+00
 -1       626 0.00000E+00 0.00000E+00 0.00000E+00
 -1       627 0.00000E+00 0.00000E+00 0.00000E+00
 -1       628 0.00000E+00 0.00000E+00 0.00000E+00
 -1       629 0.00000E+00 0.00000E+00 0.00000E+00
 -1       630 0.00000E+00 0.00000E+00 0.00000E+00
 -1       631 0.00000E+00 0.00000E+00 0.00000E+00
 -1       632 0.00000E+00 0.00000E+00 0.00000E+00
 -1       633 0.00000E+00 0.00000E+00 0.00000E+00
 -1       634 0.00000E+00 0.00000E+00 0.00000E+00
 -1       635 0.00000E+00 0.00000E+00 0.00000E+00
 -1       636 0.00000E+00 0.00000E+00 0.00000E+00
 -1       637 0.00000E+00 0.00000E+00 0.00000E+00
 -1       638 0.00000E+00 0.00000E+00 0.00000E+00
 -1       639 0.00000E+00 0.00000E+00 0.00000E+00
 -1       640 0.00000E+00 0.00000E+00 0.00000E+00
 -1       656 0.00000E+00 0.00000E+00 0.00000E+00
 -1       657 0.00000E+00 0.00000E+00 0.00000E+00
 -1       658 0.00000E+00 0.00000E+00 0.00000E+00
 -1       659 0.00000E+00 0.00000E+00 0.00000E+00
 -1       660 0.00000E+00 0.00000E+00 0.00000E+00
 -1       661 0.00000E+00 0.00000E+00 0.00000E+00
 -1       662 0.00000E+00 0.00000E+00 0.00000E+00
 -1       663 0.00000E+00 0.00000E+00 0.00000E+00
 -1       664 0.00000E+00 0.00000E+00 0.00000E+00
 -1       665 0.00000E+00 0.00000E+00 0.00000E+00
 -1       666 0.00000E+00 0.00000E+00 0.00000E+00
 -1       667 0.00000E+00 0.00000E+00 0.00000E+00
 -1       668 0.00000E+00 0.00000E+00 0.00000E+00
 -1       669 0.00000E+00 0.00000E+00 0.00000E+00
 -1       670 0.00000E+00 0.00000E+00 0.00000E+00
 -1       671 0.00000E+00 0.00000E+00 0.00000E+00
 -1       672 0.00000E+00 0.00000E+00 0.00000E+00
 -1       673 0.00000E+00 0.00000E+00 0.00000E+00
 -1       674 0.00000E+00 0.00000E+00 0.00000E+00
 -1       675 0.00000E+00 0.00000E+00 0.00000E+00
 -1       676 0.00000E+00 0.00000E+00 0.00000E+00
 -1       677 0.00000E+00 0.00000E+00 0.00000E+00
 -1       678 0.00000E+00 0.00000E+00 0.00000E+00
 -1       679 0.00000E+00 0.00000E+00 0.00000E+00
 -1       680 0.00000E+00 0.00000E+00 0.00000E+00
 -1       771 0.00000E+00 0.00000E+00 0.00000E+00
 -1       772 0.00000E+00 0.00000E+00 0.00000E+00
 -1       773 0.00000E+00 0.00000E+00 0.00000E+00
 -1       774 0.00000E+00 0.00000E+00 0.00000E+00
 -1       775 0.00000E+00 0.00000E+00 0.00000E+00
 -1       776 0.00000E+00 0.00000E+00 0.00000E+00
 -1       777 0.00000E+00 0.00000E+00 0.00000E+00
 -1       778 0.00000E+00 0.00000E+00 0.00000E+00
 -1       779 0.00000E+00 0.00000E+00 0.00000E+00
 -1       780 0.00000E+00 0.00000E+00 0.00000E+00
 -1       781 0.00000E+00 0.00000E+00 0.00000E+00
 -1       782 0.00000E+00 0.00000E+00 0.00000E+00
 -1       783 0.00000E+00 0.00000E+00 0.00000E+00
 -1       784 0.00000E+00 0.00000E+00 0.00000E+00
 -1       785 0.00000E+00 0.00000E+00 0.00000E+00
 -1       786 0.00000E+00 0.00000E+00 0.00000E+00
 -1       787 0.00000E+00 0.00000E+00 0.00000E+00
 -1       788 0.00000E+00 0.00000E+00 0.00000E+00
 -1       789 0.00000E+00 0.00000E+00 0.00000E+00
 -1       790 0.00000E+00 0.00000E+00 0.00000E+00
 -1       791 0.00000E+00 0.00000E+00 0.00000E+00
 -1       792 0.00000E+00 0.00000E+00 0.00000E+00
 -1       793 0.00000E+00 0.00000E+00 0.00000E+00
 -1       794 0.00000E+00 0.00000E+00 0.00000E+00
 -1       795 0.00000E+00 0.00000E+00 0.00000E+00
 -1       796 0.00000E+00 0.00000E+00 0.00000E+00
 -1       797 0.00000E+00 0.00000E+00 0.00000E+00
 -1       798 0.00000E+00 0.00000E+00 0.00000E+00
 -1       799 0.00000E+00 0.00000E+00 0.00000E+00
 -1       800 0.00000E+00 0.00000E+00 0.00000E+00
 -1       801 0.00000E+00 0.00000E+00 0.00000E+00
 -1       802 0.00000E+00 0.00000E+00 0.00000E+00
 -1       803 0.00000E+00 0.00000E+00 0.00000E+00
 -1       804 0.00000E+00 0.00000E+00 0.00000E+00
 -1       805 0.00000E+00 0.00000E+00 0.00000E+00
 -1       806 0.00000E+00 0.00000E+00 0.00000E+00
 -1       807 0.00000E+00 0.00000E+00 0.00000E+00
 -1       808 0.00000E+00 0.00000E+00 0.00000E+00
 -1       809 0.00000E+00 0.00000E+00 0.00000E+00
 -1       810 0.00000E+00 0.00000E+00 0.00000E+00
 -1       811 0.00000E+00 0.00000E+00 0.00000E+00
 -1       812 0.00000E+00 0.00000E+00 0.00000E+00
 -1       813 0.00000E+00 0.00000E+00 0.00000E+00
 -1       814 0.00000E+00 0.00000E+00 0.00000E+00
 -1       815 0.00000E+00 0.00000E+00 0.00000E+00
 -1       816 0.00000E+00 0.00000E+00 0.00000E+00
 -1       817 0.00000E+00 0.00000E+00 0.00000E+00
 -1       818 0.00000E+00 0.00000E+00 0.00000E+00
 -1       819 0.00000E+00 0.00000E+00 0.00000E+00
 -1       820 0.00000E+00 0.00000E+00 0.00000E+00
 -1       821 0.00000E+00 0.00000E+00 0.00000E+00
 -1       822 0.00000E+00 0.00000E+00 0.00000E+00
 -1       823 0.00000E+00 0.00000E+00 0.00000E+00
 -1       824 0.00000E+00 0.00000E+00 0.00000E+00
 -1       825 0.00000E+00 0.00000E+00 0.00000E+00
 -1       826 0.00000E+00 0.00000E+00 0.00000E+00
 -1       827 0.00000E+00 0.00000E+00 0.00000E+00
 -1       828 0.00000E+00 0.00000E+00 0.00000E+00
 -1       829 0.00000E+00 0.00000E+00 0.00000E+00
 -1       830 0.00000E+00 0.00000E+00 0.00000E+00
 -1       831 0.00000E+00 0.00000E+00 0.00000E+00
 -1       832 0.00000E+00 0.00000E+00 0.00000E+00
 -1       833 0.00000E+00 0.00000E+00 0.00000E+00
 -1       834 0.00000E+00 0.00000E+00 0.00000E+00
 -1       835 0.00000E+00 0.00000E+00 0.00000E+00
 -1       836 0.00000E+00 0.00000E+00 0.00000E+00
 -1       837 0.00000E+00 0.00000E+00 0.00000E+00
 -1       838 0.00000E+00 0.00000E+00 0.00000E+00
 -1       839 0.00000E+00 0.00000E+00 0.00000E+00
 -1       840 0.00000E+00 0.00000E+00 0.00000E+00
 -1       856 0.00000E+00 0.00000E+00 0.00000E+00
 -1       857 0.00000E+00 0.00000E+00 0.00000E+00
 -1       858 0.00000E+00 0.00000E+00 0.00000E+00
 -1       859 0.00000E+00 0.00000E+00 0.00000E+00
 -1       860 0.00000E+00 0.00000E+00 0.00000E+00
 -1       861 0.00000E+00 0.00000E+00 0.00000E+00
 -1       862 0.00000E+00 0.00000E+00 0.00000E+00
 -1       863 0.00000E+00 0.00000E+00 0.00000E+00
 -1       864 0.00000E+00 0.00000E+00 0.00000E+00
 -1       865 0.00000E+00 0.00000E+00 0.00000E+00
 -1       866 0.00000E+00 0.00000E+00 0.00000E+00
 -1       867 0.00000E+00 0.00000E+00 0.00000E+00
 -1       868 0.00000E+00 0.00000E+00 0.00000E+00
 -1       869 0.00000E+00 0.00000E+00 0.00000E+00
 -1       870 0.00000E+00 0.00000E+00 0.00000E+00
 -1       871 0.00000E+00 0.00000E+00 0.00000E+00
 -1       872 0.00000E+00 0.00000E+00 0.00000E+00
 -1       873 0.00000E+00 0.00000E+00 0.00000E+00
 -1       874 0.00000E+00 0.00000E+00 0.00000E+00
 -1       875 0.00000E+00 0.00000E+00 0.00000E+00
 -1       876 0.00000E+00 0.00000E+00 0.00000E+00
 -1       877 0.00000E+00 0.00000E+00 0.00000E+00
 -1       878 0.00000E+00 0.00000E+00 0.00000E+00
 -1       879 0.00000E+00 0.00000E+00 0.00000E+00
 -1       880 0.00000E+00 0.00000E+00 0.00000E+00
 -1       881 0.00000E+00 0.00000E+00 0.00000E+00
 -1       882 0.00000E+00 0.00000E+00 0.00000E+00
 -1       883 0.00000E+00 0.00000E+00 0.00000E+00
 -1       884 0.00000E+00 0.00000E+00 0.00000E+00
 -1       885 0.00000E+00 0.00000E+00 0.00000E+00
 -1       886 0.00000E+00 0.00000E+00 0.00000E+00
 -1       887 0.00000E+00 0.00000E+00 0.00000E+00
 -1       888 0.00000E+00 0.00000E+00 0.00000E+00
 -1       889 0.00000E+00 0.00000E+00 0.00000E+00
 -1       890 0.00000E+00 0.00000E+00 0.00000E+00
 -1       891 0.00000E+00 0.00000E+00 0.00000E+00
 -1       892 0.00000E+00 0.00000E+00 0.00000E+00
 -1       893 0.00000E+00 0.00000E+00 0.00000E+00
 -1       894 0.00000E+00 0.00000E+00 0.00000E+00
 -1       895 0.00000E+00 0.00000E+00 0.00000E+00
 -1       956 0.00000E+00 0.00000E+00 0.00000E+00
 -1       957 0.00000E+00 0.00000E+00 0.00000E+00
 -1       958 0.00000E+00 0.00000E+00 0.00000E+00
 -1       959 0.00000E+00 0.00000E+00 0.00000E+00
 -1       960 0.00000E+00 0.00000E+00 0.00000E+00
 -1       961 0.00000E+00 0.00000E+00 0.00000E+00
 -1       962 0.00000E+00 0.00000E+00 0.00000E+00
 -1       963 0.00000E+00 0.00000E+00 0.00000E+00
 -1       964 0.00000E+00 0.00000E+00 0.00000E+00
 -1       965 0.00000E+00 0.00000E+00 0.00000E+00
 -1       966 0.00000E+00 0.00000E+00 0.00000E+00
 -1       967 0.00000E+00 0.00000E+00 0.00000E+00
 -1       968 0.00000E+00 0.00000E+00 0.00000E+00
 -1       969 0.00000E+00 0.00000E+00 0.00000E+00
 -1       970 0.00000E+00 0.00000E+00 0.00000E+00
 -1       971 0.00000E+00 0.00000E+00 0.00000E+00
 -1       972 0.00000E+00 0.00000E+00 0.00000E+00
 -1       973 0.00000E+00 0.00000E+00 0.00000E+00
 -1       974 0.00000E+00 0.00000E+00 0.00000E+00
 -1       975 0.00000E+00 0.00000E+00 0.00000E+00
 -1       976 0.00000E+00 0.00000E+00 0.00000E+00
 -1       977 0.00000E+00 0.00000E+00 0.00000E+00
 -1       978 0.00000E+00 0.00000E+00 0.00000E+00
 -1       979 0.00000E+00 0.00000E+00 0.00000E+00
 -1       980 0.00000E+00 0.00000E+00 0.00000E+00
 -1       981 0.00000E+00 0.00000E+00 0.00000E+00
 -1       982 0.00000E+00 0.00000E+00 0.00000E+00
 -1       983 0.00000E+00 0.00000E+00 0.00000E+00
 -1       984 0.00000E+00 0.00000E+00 0.00000E+00
 -1       985 0.00000E+00 0.00000E+00 0.00000E+00
 -3
