
 stresses (elem, integ.pnt.,sxx,syy,szz,sxy,sxz,syz) for set ELALL and time  0.1000000E+01

         1   1  2.930550E+06  1.077033E+07  2.780261E+06 -2.008459E+06  1.355495E+05  1.046462E+06
         1   2  2.371277E+06  9.189424E+06  1.883590E+06 -1.845252E+06  4.566531E+05  4.766037E+05
         1   3  1.967040E+06  7.727827E+06  1.394020E+06 -1.932262E+06  5.325554E+05 -9.139623E+04
         1   4  1.171409E+05 -7.076522E+05  1.226009E+05 -1.896997E+06  1.392655E+05  7.972540E+04
         1   5  3.632724E+04 -7.155278E+05  6.516436E+04 -1.772161E+06  4.593687E+05  4.875767E+04
         1   6  1.907573E+04 -6.979581E+05  4.466703E+04 -1.897520E+06  5.325350E+05  1.806930E+04
         1   7 -2.704970E+06 -1.206323E+07 -2.540427E+06 -1.787313E+06  1.426944E+05 -8.695086E+05
         1   8 -2.304070E+06 -1.052573E+07 -1.756625E+06 -1.700026E+06  4.620168E+05 -3.725214E+05
         1   9 -1.932437E+06 -9.053712E+06 -1.306532E+06 -1.863061E+06  5.325261E+05  1.261149E+05
         1  10  2.930242E+06  1.076916E+07  2.778201E+06 -2.008573E+06 -1.100479E-09 -3.790876E-08
         1  11  2.370992E+06  9.189125E+06  1.882774E+06 -1.845426E+06 -5.994787E-09 -8.717317E-09
         1  12  1.966734E+06  7.727742E+06  1.393472E+06 -1.932223E+06 -8.038554E-09  2.458577E-08
         1  13  1.171183E+05 -7.076643E+05  1.225524E+05 -1.897006E+06  3.100563E-09 -4.101318E-11
         1  14  3.610000E+04 -7.155870E+05  6.476319E+04 -1.772179E+06  7.816175E-09 -1.307866E-10
         1  15  1.877118E+04 -6.980346E+05  4.413354E+04 -1.897528E+06  1.812439E-08 -7.877379E-11
         1  16 -2.705199E+06 -1.206406E+07 -2.541912E+06 -1.787213E+06 -1.382473E-09  3.707904E-08
         1  17 -2.304337E+06 -1.052594E+07 -1.757289E+06 -1.699887E+06 -9.436477E-09  8.272602E-09
         1  18 -1.932746E+06 -9.053805E+06 -1.307095E+06 -1.863116E+06 -1.927842E-08 -2.389295E-08
         1  19  2.930550E+06  1.077033E+07  2.780261E+06 -2.008459E+06 -1.355495E+05 -1.046462E+06
         1  20  2.371277E+06  9.189424E+06  1.883590E+06 -1.845252E+06 -4.566531E+05 -4.766037E+05
         1  21  1.967040E+06  7.727827E+06  1.394020E+06 -1.932262E+06 -5.325554E+05  9.139623E+04
         1  22  1.171409E+05 -7.076522E+05  1.226009E+05 -1.896997E+06 -1.392655E+05 -7.972540E+04
         1  23  3.632724E+04 -7.155278E+05  6.516436E+04 -1.772161E+06 -4.593687E+05 -4.875767E+04
         1  24  1.907573E+04 -6.979581E+05  4.466703E+04 -1.897520E+06 -5.325350E+05 -1.806930E+04
         1  25 -2.704970E+06 -1.206323E+07 -2.540427E+06 -1.787313E+06 -1.426944E+05  8.695086E+05
         1  26 -2.304070E+06 -1.052573E+07 -1.756625E+06 -1.700026E+06 -4.620168E+05  3.725214E+05
         1  27 -1.932437E+06 -9.053712E+06 -1.306532E+06 -1.863061E+06 -5.325261E+05 -1.261149E+05
         2   1  1.739958E+06  6.758001E+06  1.204241E+06 -1.940727E+06  4.937257E+05 -1.023409E+05
         2   2  1.380979E+06  5.228939E+06  9.197707E+05 -1.794821E+06  4.274349E+05 -1.875004E+05
         2   3  1.050086E+06  3.719835E+06  6.972928E+05 -1.916934E+06  3.314817E+05 -2.728855E+05
         2   4  2.091117E+04 -6.993698E+05  4.004851E+04 -1.901506E+06  4.934920E+05  1.105005E+04
         2   5  2.262906E+04 -6.996284E+05  4.072426E+04 -1.767385E+06  4.264541E+05 -9.418546E+03
         2   6  4.144510E+04 -6.933194E+05  5.878530E+04 -1.901431E+06  3.296067E+05 -3.030805E+04
         2   7 -1.700851E+06 -8.101598E+06 -1.125428E+06 -1.862602E+06  4.932703E+05  1.231405E+05
         2   8 -1.337349E+06 -6.592967E+06 -8.388599E+05 -1.740111E+06  4.254822E+05  1.670426E+05
         2   9 -9.680569E+05 -5.086764E+06 -5.798169E+05 -1.885976E+06  3.277344E+05  2.106257E+05
         2  10  1.739694E+06  6.757924E+06  1.203764E+06 -1.940687E+06 -1.281453E-08  5.534538E-08
         2  11  1.380774E+06  5.228853E+06  9.193629E+05 -1.794757E+06 -4.223648E-09  1.296035E-08
         2  12  1.049949E+06  3.719726E+06  6.969485E+05 -1.916862E+06 -2.646054E-09 -3.283963E-08
         2  13  2.064970E+04 -6.994352E+05  3.959072E+04 -1.901510E+06  2.019239E-08  1.136008E-10
         2  14  2.243384E+04 -6.996773E+05  4.038252E+04 -1.767381E+06  1.012209E-08  3.940880E-10
         2  15  4.132829E+04 -6.933495E+05  5.857964E+04 -1.901423E+06  2.088094E-09  3.372273E-10
         2  16 -1.701116E+06 -8.101680E+06 -1.125915E+06 -1.862651E+06 -2.082068E-08 -5.449637E-08
         2  17 -1.337551E+06 -6.593046E+06 -8.392538E+05 -1.740168E+06 -6.398158E-09 -1.239341E-08
         2  18 -9.681845E+05 -5.086841E+06 -5.801036E+05 -1.886031E+06 -2.256890E-09  3.313310E-08
         2  19  1.739958E+06  6.758001E+06  1.204241E+06 -1.940727E+06 -4.937257E+05  1.023409E+05
         2  20  1.380979E+06  5.228939E+06  9.197707E+05 -1.794821E+06 -4.274349E+05  1.875004E+05
         2  21  1.050086E+06  3.719835E+06  6.972928E+05 -1.916934E+06 -3.314817E+05  2.728855E+05
         2  22  2.091117E+04 -6.993698E+05  4.004851E+04 -1.901506E+06 -4.934920E+05 -1.105005E+04
         2  23  2.262906E+04 -6.996284E+05  4.072426E+04 -1.767385E+06 -4.264541E+05  9.418546E+03
         2  24  4.144510E+04 -6.933194E+05  5.878530E+04 -1.901431E+06 -3.296067E+05  3.030805E+04
         2  25 -1.700851E+06 -8.101598E+06 -1.125428E+06 -1.862602E+06 -4.932703E+05 -1.231405E+05
         2  26 -1.337349E+06 -6.592967E+06 -8.388599E+05 -1.740111E+06 -4.254822E+05 -1.670426E+05
         2  27 -9.680569E+05 -5.086764E+06 -5.798169E+05 -1.885976E+06 -3.277344E+05 -2.106257E+05
         3   1  8.389422E+05  2.775500E+06  5.686103E+05 -1.920467E+06  2.653596E+05 -2.836981E+05
         3   2  5.437262E+05  1.242679E+06  4.037145E+05 -1.698190E+06  1.528056E+05 -3.546387E+05
         3   3  3.601336E+05 -2.538979E+05  3.119316E+05 -1.745987E+06  3.803693E+04 -4.255717E+05
         3   4  4.848313E+04 -6.860613E+05  7.378959E+04 -1.901936E+06  2.633123E+05 -4.080386E+04
         3   5  1.015607E+05 -7.014851E+05  1.282837E+05 -1.766181E+06  1.506191E+05 -1.071384E+05
         3   6  2.656079E+05 -6.839775E+05  2.525210E+05 -1.900341E+06  3.572769E+04 -1.736120E+05
         3   7 -7.424875E+05 -4.135415E+06 -4.209892E+05 -1.883470E+06  2.612714E+05  2.007988E+05
         3   8 -3.407211E+05 -2.641682E+06 -1.469669E+05 -1.833938E+06  1.483736E+05  1.396219E+05
         3   9  1.711996E+05 -1.113680E+06  1.933602E+05 -2.054584E+06  3.329196E+04  7.818093E+04
         3  10  8.388454E+05  2.775395E+06  5.683285E+05 -1.920407E+06 -1.410003E-09 -5.950895E-08
         3  11  5.436677E+05  1.242538E+06  4.034354E+05 -1.698146E+06 -8.153524E-09  1.959320E-09
         3  12  3.600835E+05 -2.540927E+05  3.115886E+05 -1.745974E+06 -3.844876E-09  6.213067E-08
         3  13  4.840832E+04 -6.860816E+05  7.365637E+04 -1.901927E+06 -1.079307E-09  2.281177E-10
         3  14  1.015334E+05 -7.015034E+05  1.282197E+05 -1.766168E+06 -2.394576E-09 -2.497033E-10
         3  15  2.655984E+05 -6.840102E+05  2.524620E+05 -1.900336E+06 -3.361949E-10 -3.621055E-11
         3  16 -7.425720E+05 -4.135477E+06 -4.211944E+05 -1.883513E+06  2.382009E-09  5.877711E-08
         3  17 -3.407501E+05 -2.641709E+06 -1.470453E+05 -1.833955E+06  1.671527E-09 -2.321787E-09
         3  18  1.711967E+05 -1.113687E+06  1.933466E+05 -2.054586E+06 -2.381652E-09 -6.175588E-08
         3  19  8.389422E+05  2.775500E+06  5.686103E+05 -1.920467E+06 -2.653596E+05  2.836981E+05
         3  20  5.437262E+05  1.242679E+06  4.037145E+05 -1.698190E+06 -1.528056E+05  3.546387E+05
         3  21  3.601336E+05 -2.538979E+05  3.119316E+05 -1.745987E+06 -3.803693E+04  4.255717E+05
         3  22  4.848313E+04 -6.860613E+05  7.378959E+04 -1.901936E+06 -2.633123E+05  4.080386E+04
         3  23  1.015607E+05 -7.014851E+05  1.282837E+05 -1.766181E+06 -1.506191E+05  1.071384E+05
         3  24  2.656079E+05 -6.839775E+05  2.525210E+05 -1.900341E+06 -3.572769E+04  1.736120E+05
         3  25 -7.424875E+05 -4.135415E+06 -4.209892E+05 -1.883470E+06 -2.612714E+05 -2.007988E+05
         3  26 -3.407211E+05 -2.641682E+06 -1.469669E+05 -1.833938E+06 -1.483736E+05 -1.396219E+05
         3  27  1.711996E+05 -1.113680E+06  1.933602E+05 -2.054584E+06 -3.329196E+04 -7.818093E+04
         4   1 -7.635038E+06 -2.093962E+06 -1.445965E+06 -2.640780E+06 -1.130332E+06 -4.328975E+05
         4   2 -7.297894E+06 -5.302403E+05 -3.973404E+05 -3.068177E+06 -7.219524E+05 -2.965319E+05
         4   3 -7.760955E+06 -6.785367E+05 -1.400219E+05 -2.932415E+06 -3.216934E+05 -1.388877E+05
         4   4 -9.049319E+06 -2.457776E+06 -1.803671E+06 -2.846028E+06 -1.133474E+06 -4.344835E+05
         4   5 -8.555359E+06 -9.646350E+05 -7.355989E+05 -3.365537E+06 -7.218106E+05 -2.965487E+05
         4   6 -8.863705E+06 -1.186492E+06 -4.628671E+05 -3.321527E+06 -3.181560E+05 -1.374870E+05
         4   7 -1.046161E+07 -2.821657E+06 -2.161511E+06 -3.050967E+06 -1.136605E+06 -4.360686E+05
         4   8 -9.811289E+06 -1.399004E+06 -1.073995E+06 -3.662377E+06 -7.216676E+05 -2.965652E+05
         4   9 -9.965248E+06 -1.694204E+06 -7.858348E+05 -3.709948E+06 -3.146250E+05 -1.360900E+05
         4  10 -7.636476E+06 -2.094514E+06 -1.448757E+06 -2.641178E+06  1.625074E-09  1.583862E-10
         4  11 -7.298484E+06 -5.304781E+05 -3.985014E+05 -3.068351E+06  1.068434E-08  1.584098E-09
         4  12 -7.761072E+06 -6.785859E+05 -1.402559E+05 -2.932451E+06  1.609686E-10  2.798040E-09
         4  13 -9.050768E+06 -2.458333E+06 -1.806485E+06 -2.846429E+06 -4.158999E-09  5.259166E-10
         4  14 -8.555950E+06 -9.648733E+05 -7.367620E+05 -3.365711E+06  8.144901E-09  1.600496E-09
         4  15 -8.863820E+06 -1.186540E+06 -4.630966E+05 -3.321562E+06 -3.455202E-09  3.001013E-09
         4  16 -1.046307E+07 -2.822219E+06 -2.164348E+06 -3.051371E+06  3.413039E-10  3.397376E-11
         4  17 -9.811880E+06 -1.399243E+06 -1.075160E+06 -3.662551E+06 -2.906918E-09  1.837384E-09
         4  18 -9.965361E+06 -1.694251E+06 -7.860597E+05 -3.709983E+06  5.775536E-09  3.247876E-09
         4  19 -7.635038E+06 -2.093962E+06 -1.445965E+06 -2.640780E+06  1.130332E+06  4.328975E+05
         4  20 -7.297894E+06 -5.302403E+05 -3.973404E+05 -3.068177E+06  7.219524E+05  2.965319E+05
         4  21 -7.760955E+06 -6.785367E+05 -1.400219E+05 -2.932415E+06  3.216934E+05  1.388877E+05
         4  22 -9.049319E+06 -2.457776E+06 -1.803671E+06 -2.846028E+06  1.133474E+06  4.344835E+05
         4  23 -8.555359E+06 -9.646350E+05 -7.355989E+05 -3.365537E+06  7.218106E+05  2.965487E+05
         4  24 -8.863705E+06 -1.186492E+06 -4.628671E+05 -3.321527E+06  3.181560E+05  1.374870E+05
         4  25 -1.046161E+07 -2.821657E+06 -2.161511E+06 -3.050967E+06  1.136605E+06  4.360686E+05
         4  26 -9.811289E+06 -1.399004E+06 -1.073995E+06 -3.662377E+06  7.216676E+05  2.965652E+05
         4  27 -9.965248E+06 -1.694204E+06 -7.858348E+05 -3.709948E+06  3.146250E+05  1.360900E+05
         5   1 -8.315348E+06 -1.190772E+06 -2.417991E+05 -3.050013E+06 -2.515243E+05 -1.058228E+05
         5   2 -8.308998E+06 -1.123036E+06 -7.617380E+04 -3.270867E+06 -1.621891E+05 -6.832727E+04
         5   3 -8.634024E+06 -1.100062E+06 -5.103827E+04 -3.177715E+06 -7.426285E+04 -2.723099E+04
         5   4 -8.839132E+06 -1.366930E+06 -3.817831E+05 -3.169094E+06 -2.511457E+05 -1.056918E+05
         5   5 -8.659282E+06 -1.251556E+06 -1.719779E+05 -3.361306E+06 -1.611713E+05 -6.794068E+04
         5   6 -8.811068E+06 -1.181174E+06 -1.032803E+05 -3.239501E+06 -7.257811E+04 -2.658397E+04
         5   7 -9.362649E+06 -1.543087E+06 -5.217905E+05 -3.288090E+06 -2.507673E+05 -1.055609E+05
         5   8 -9.009447E+06 -1.380070E+06 -2.677929E+05 -3.451700E+06 -1.601541E+05 -6.755430E+04
         5   9 -8.988081E+06 -1.262279E+06 -1.555255E+05 -3.301270E+06 -7.089390E+04 -2.593726E+04
         5  10 -8.315419E+06 -1.190801E+06 -2.419412E+05 -3.050035E+06  1.883113E-09  2.467026E-09
         5  11 -8.309027E+06 -1.123048E+06 -7.623292E+04 -3.270876E+06  1.723704E-09  2.049377E-09
         5  12 -8.634030E+06 -1.100064E+06 -5.105021E+04 -3.177717E+06  4.329108E-09  1.316230E-11
         5  13 -8.839204E+06 -1.366960E+06 -3.819249E+05 -3.169116E+06 -1.129765E-09  3.085970E-09
         5  14 -8.659312E+06 -1.251568E+06 -1.720363E+05 -3.361315E+06  6.731663E-09  1.271478E-09
         5  15 -8.811074E+06 -1.181176E+06 -1.032917E+05 -3.239503E+06 -3.697612E-09  1.141547E-09
         5  16 -9.362721E+06 -1.543116E+06 -5.219320E+05 -3.288111E+06  4.266405E-09  4.164264E-09
         5  17 -9.009476E+06 -1.380082E+06 -2.678507E+05 -3.451708E+06 -4.191554E-09  1.446272E-09
         5  18 -8.988087E+06 -1.262281E+06 -1.555363E+05 -3.301271E+06 -6.835179E-09  4.521060E-09
         5  19 -8.315348E+06 -1.190772E+06 -2.417991E+05 -3.050013E+06  2.515243E+05  1.058228E+05
         5  20 -8.308998E+06 -1.123036E+06 -7.617380E+04 -3.270867E+06  1.621891E+05  6.832727E+04
         5  21 -8.634024E+06 -1.100062E+06 -5.103827E+04 -3.177715E+06  7.426285E+04  2.723099E+04
         5  22 -8.839132E+06 -1.366930E+06 -3.817831E+05 -3.169094E+06  2.511457E+05  1.056918E+05
         5  23 -8.659282E+06 -1.251556E+06 -1.719779E+05 -3.361306E+06  1.611713E+05  6.794068E+04
         5  24 -8.811068E+06 -1.181174E+06 -1.032803E+05 -3.239501E+06  7.257811E+04  2.658397E+04
         5  25 -9.362649E+06 -1.543087E+06 -5.217905E+05 -3.288090E+06  2.507673E+05  1.055609E+05
         5  26 -9.009447E+06 -1.380070E+06 -2.677929E+05 -3.451700E+06  1.601541E+05  6.755430E+04
         5  27 -8.988081E+06 -1.262279E+06 -1.555255E+05 -3.301270E+06  7.089390E+04  2.593726E+04
         6   1 -9.463553E+06 -1.481631E+06 -2.696440E+05 -3.420090E+06 -6.087003E+04 -1.635054E+04
         6   2 -9.498523E+06 -1.587041E+06 -2.634677E+05 -3.564626E+06 -4.184179E+04 -1.953162E+03
         6   3 -9.726154E+06 -1.550960E+06 -2.829906E+05 -3.495843E+06 -2.151344E+04  9.066087E+03
         6   4 -8.792183E+06 -1.219772E+06 -8.212687E+04 -3.231462E+06 -5.934481E+04 -1.576798E+04
         6   5 -8.693883E+06 -1.277736E+06 -4.034499E+04 -3.342949E+06 -4.096947E+04 -1.622260E+03
         6   6 -8.788096E+06 -1.194060E+06 -2.371711E+04 -3.241147E+06 -2.128975E+04  9.149163E+03
         6   7 -8.120372E+06 -9.578824E+05  1.053480E+05 -3.042646E+06 -5.781771E+04 -1.518468E+04
         6   8 -7.888611E+06 -9.683894E+05  1.827176E+05 -3.121007E+06 -4.009585E+04 -1.290859E+03
         6   9 -7.849180E+06 -8.371095E+05  2.354749E+05 -2.986097E+06 -2.106566E+04  9.232388E+03
         6  10 -9.463557E+06 -1.481632E+06 -2.696516E+05 -3.420091E+06  5.021237E-09 -5.106153E-10
         6  11 -9.498525E+06 -1.587041E+06 -2.634710E+05 -3.564626E+06  2.793928E-10  8.785991E-10
         6  12 -9.726154E+06 -1.550960E+06 -2.829916E+05 -3.495843E+06 -4.303892E-09  2.056797E-09
         6  13 -8.792186E+06 -1.219774E+06 -8.213407E+04 -3.231463E+06 -9.102235E-09  7.679759E-10
         6  14 -8.693885E+06 -1.277736E+06 -4.034820E+04 -3.342949E+06 -6.519760E-09  2.149669E-09
         6  15 -8.788096E+06 -1.194060E+06 -2.371813E+04 -3.241146E+06  2.566919E-09  2.542567E-09
         6  16 -8.120376E+06 -9.578836E+05  1.053412E+05 -3.042646E+06 -1.117749E-08 -1.822491E-09
         6  17 -7.888613E+06 -9.683898E+05  1.827145E+05 -3.121007E+06  4.689464E-09  2.898611E-09
         6  18 -7.849181E+06 -8.371098E+05  2.354739E+05 -2.986097E+06 -1.558763E-09  2.976685E-09
         6  19 -9.463553E+06 -1.481631E+06 -2.696440E+05 -3.420090E+06  6.087003E+04  1.635054E+04
         6  20 -9.498523E+06 -1.587041E+06 -2.634677E+05 -3.564626E+06  4.184179E+04  1.953162E+03
         6  21 -9.726154E+06 -1.550960E+06 -2.829906E+05 -3.495843E+06  2.151344E+04 -9.066087E+03
         6  22 -8.792183E+06 -1.219772E+06 -8.212687E+04 -3.231462E+06  5.934481E+04  1.576798E+04
         6  23 -8.693883E+06 -1.277736E+06 -4.034499E+04 -3.342949E+06  4.096947E+04  1.622260E+03
         6  24 -8.788096E+06 -1.194060E+06 -2.371711E+04 -3.241147E+06  2.128975E+04 -9.149163E+03
         6  25 -8.120372E+06 -9.578824E+05  1.053480E+05 -3.042646E+06  5.781771E+04  1.518468E+04
         6  26 -7.888611E+06 -9.683894E+05  1.827176E+05 -3.121007E+06  4.009585E+04  1.290859E+03
         6  27 -7.849180E+06 -8.371095E+05  2.354749E+05 -2.986097E+06  2.106566E+04 -9.232388E+03
         7   1 -1.006240E+07 -1.741855E+06 -3.837759E+05 -3.644054E+06 -1.990289E+04  1.212791E+04
         7   2 -1.006856E+07 -1.734231E+06 -3.763055E+05 -3.642853E+06 -1.403104E+04  1.759629E+04
         7   3 -1.006112E+07 -1.732710E+06 -3.722842E+05 -3.639554E+06 -5.948496E+03  1.717621E+04
         7   4 -8.744140E+06 -1.237930E+06 -1.829115E+04 -3.283981E+06 -1.876836E+04  1.255381E+04
         7   5 -8.750817E+06 -1.233296E+06 -1.193448E+04 -3.285669E+06 -1.405732E+04  1.758294E+04
         7   6 -8.743626E+06 -1.234509E+06 -8.083268E+03 -3.285259E+06 -7.137894E+03  1.672965E+04
         7   7 -7.424192E+06 -7.339036E+05  3.470304E+05 -2.923207E+06 -1.763112E+04  1.298076E+04
         7   8 -7.431380E+06 -7.322623E+05  3.522748E+05 -2.927790E+06 -1.408364E+04  1.756957E+04
         7   9 -7.424441E+06 -7.362129E+05  3.559566E+05 -2.930275E+06 -8.330116E+03  1.628204E+04
         7  10 -1.006240E+07 -1.741855E+06 -3.837769E+05 -3.644054E+06 -1.013120E-08  4.914304E-09
         7  11 -1.006857E+07 -1.734232E+06 -3.763065E+05 -3.642852E+06 -1.959407E-09  1.242409E-09
         7  12 -1.006112E+07 -1.732710E+06 -3.722848E+05 -3.639554E+06 -1.197866E-09  7.175559E-10
         7  13 -8.744141E+06 -1.237930E+06 -1.829211E+04 -3.283981E+06 -4.516370E-09  2.113454E-09
         7  14 -8.750817E+06 -1.233296E+06 -1.193543E+04 -3.285669E+06  9.040073E-09  1.535419E-09
         7  15 -8.743626E+06 -1.234509E+06 -8.083887E+03 -3.285259E+06  4.351043E-09 -6.819299E-11
         7  16 -7.424192E+06 -7.339038E+05  3.470295E+05 -2.923206E+06  7.871001E-09  7.153204E-10
         7  17 -7.431380E+06 -7.322627E+05  3.522738E+05 -2.927790E+06  4.050992E-09  6.142175E-09
         7  18 -7.424442E+06 -7.362132E+05  3.559560E+05 -2.930275E+06  1.593984E-09  4.521518E-09
         7  19 -1.006240E+07 -1.741855E+06 -3.837759E+05 -3.644054E+06  1.990289E+04 -1.212791E+04
         7  20 -1.006856E+07 -1.734231E+06 -3.763055E+05 -3.642853E+06  1.403104E+04 -1.759629E+04
         7  21 -1.006112E+07 -1.732710E+06 -3.722842E+05 -3.639554E+06  5.948496E+03 -1.717621E+04
         7  22 -8.744140E+06 -1.237930E+06 -1.829115E+04 -3.283981E+06  1.876836E+04 -1.255381E+04
         7  23 -8.750817E+06 -1.233296E+06 -1.193448E+04 -3.285669E+06  1.405732E+04 -1.758294E+04
         7  24 -8.743626E+06 -1.234509E+06 -8.083268E+03 -3.285259E+06  7.137894E+03 -1.672965E+04
         7  25 -7.424192E+06 -7.339036E+05  3.470304E+05 -2.923207E+06  1.763112E+04 -1.298076E+04
         7  26 -7.431380E+06 -7.322623E+05  3.522748E+05 -2.927790E+06  1.408364E+04 -1.756957E+04
         7  27 -7.424441E+06 -7.362129E+05  3.559566E+05 -2.930275E+06  8.330116E+03 -1.628204E+04
         8   1 -9.618881E+06 -1.619882E+06 -2.604024E+05 -3.576738E+06 -4.806515E+03  1.508838E+04
         8   2 -9.576315E+06 -1.476480E+06 -2.255353E+05 -3.436105E+06  2.378297E+03  1.433847E+04
         8   3 -9.352364E+06 -1.518938E+06 -1.959238E+05 -3.502091E+06  1.083465E+04  1.010664E+04
         8   4 -8.706166E+06 -1.274965E+06 -8.631506E+03 -3.331328E+06 -5.058647E+03  1.499291E+04
         8   5 -8.797123E+06 -1.183082E+06 -1.070682E+04 -3.227702E+06  1.438977E+03  1.398950E+04
         8   6 -8.706583E+06 -1.276898E+06 -1.748061E+04 -3.330686E+06  9.205886E+03  9.505796E+03
         8   7 -7.792643E+06 -9.300029E+05  2.430619E+05 -3.085587E+06 -5.311195E+03  1.489728E+04
         8   8 -8.017342E+06 -8.896515E+05  2.040655E+05 -3.019060E+06  4.983356E+02  1.364003E+04
         8   9 -8.060398E+06 -1.034838E+06  1.609242E+05 -3.159119E+06  7.575227E+03  8.904253E+03
         8  10 -9.618881E+06 -1.619882E+06 -2.604029E+05 -3.576738E+06  9.092639E-09 -2.546167E-09
         8  11 -9.576315E+06 -1.476480E+06 -2.255357E+05 -3.436105E+06  6.263292E-09  4.823191E-09
         8  12 -9.352364E+06 -1.518938E+06 -1.959243E+05 -3.502091E+06 -9.398057E-09 -1.400437E-09
         8  13 -8.706166E+06 -1.274965E+06 -8.631974E+03 -3.331328E+06  4.423967E-09 -1.812212E-10
         8  14 -8.797123E+06 -1.183082E+06 -1.070719E+04 -3.227702E+06  6.075648E-09  4.257037E-09
         8  15 -8.706583E+06 -1.276899E+06 -1.748094E+04 -3.330686E+06  4.671690E-09  3.138338E-09
         8  16 -7.792643E+06 -9.300032E+05  2.430614E+05 -3.085587E+06 -2.033851E-09  8.777345E-10
         8  17 -8.017342E+06 -8.896517E+05  2.040651E+05 -3.019060E+06 -8.266534E-12  1.653707E-09
         8  18 -8.060398E+06 -1.034838E+06  1.609239E+05 -3.159119E+06  6.701464E-09  6.952804E-09
         8  19 -9.618881E+06 -1.619882E+06 -2.604024E+05 -3.576738E+06  4.806515E+03 -1.508838E+04
         8  20 -9.576315E+06 -1.476480E+06 -2.255353E+05 -3.436105E+06 -2.378297E+03 -1.433847E+04
         8  21 -9.352364E+06 -1.518938E+06 -1.959238E+05 -3.502091E+06 -1.083465E+04 -1.010664E+04
         8  22 -8.706166E+06 -1.274965E+06 -8.631506E+03 -3.331328E+06  5.058647E+03 -1.499291E+04
         8  23 -8.797123E+06 -1.183082E+06 -1.070682E+04 -3.227702E+06 -1.438977E+03 -1.398950E+04
         8  24 -8.706583E+06 -1.276898E+06 -1.748061E+04 -3.330686E+06 -9.205886E+03 -9.505796E+03
         8  25 -7.792643E+06 -9.300029E+05  2.430619E+05 -3.085587E+06  5.311195E+03 -1.489728E+04
         8  26 -8.017342E+06 -8.896515E+05  2.040655E+05 -3.019060E+06 -4.983356E+02 -1.364003E+04
         8  27 -8.060398E+06 -1.034838E+06  1.609242E+05 -3.159119E+06 -7.575227E+03 -8.904253E+03
         9   1 -8.474243E+06 -1.197118E+06  4.063282E+04 -3.283211E+06  1.566436E+04  6.467982E+03
         9   2 -8.417370E+06 -1.023436E+06  6.890761E+04 -3.114018E+06  3.695698E+04  6.978326E+03
         9   3 -8.163074E+06 -1.099400E+06  7.312919E+04 -3.184111E+06  5.756995E+04  9.374273E+03
         9   4 -8.701496E+06 -1.280649E+06 -2.216149E+04 -3.341762E+06  1.417919E+04  5.920988E+03
         9   5 -8.801973E+06 -1.168628E+06 -3.713567E+04 -3.217379E+06  3.583609E+04  6.564097E+03
         9   6 -8.705129E+06 -1.306355E+06 -7.646725E+04 -3.332301E+06  5.680776E+04  9.091294E+03
         9   7 -8.928698E+06 -1.364177E+06 -8.496056E+04 -3.400294E+06  1.269462E+04  5.374205E+03
         9   8 -9.186431E+06 -1.313812E+06 -1.431926E+05 -3.320681E+06  3.471596E+04  6.150154E+03
         9   9 -9.246897E+06 -1.513291E+06 -2.260908E+05 -3.480372E+06  5.604630E+04  8.808591E+03
         9  10 -8.474243E+06 -1.197118E+06  4.063227E+04 -3.283211E+06 -3.637346E-09 -4.436072E-10
         9  11 -8.417372E+06 -1.023436E+06  6.890492E+04 -3.114018E+06  4.582685E-09 -3.067788E-09
         9  12 -8.163078E+06 -1.099401E+06  7.312270E+04 -3.184112E+06  2.964367E-09 -9.680113E-10
         9  13 -8.701496E+06 -1.280649E+06 -2.216194E+04 -3.341762E+06 -4.148002E-09  9.610055E-10
         9  14 -8.801974E+06 -1.168628E+06 -3.713820E+04 -3.217379E+06  6.222833E-09 -1.877894E-09
         9  15 -8.705132E+06 -1.306356E+06 -7.647356E+04 -3.332302E+06 -2.278899E-09  9.724483E-10
         9  16 -8.928699E+06 -1.364178E+06 -8.496092E+04 -3.400294E+06  5.780184E-09  1.767371E-09
         9  17 -9.186433E+06 -1.313812E+06 -1.431949E+05 -3.320681E+06 -4.318234E-09  2.714703E-10
         9  18 -9.246901E+06 -1.513292E+06 -2.260969E+05 -3.480373E+06 -2.310312E-09  2.881868E-09
         9  19 -8.474243E+06 -1.197118E+06  4.063282E+04 -3.283211E+06 -1.566436E+04 -6.467982E+03
         9  20 -8.417370E+06 -1.023436E+06  6.890761E+04 -3.114018E+06 -3.695698E+04 -6.978326E+03
         9  21 -8.163074E+06 -1.099400E+06  7.312919E+04 -3.184111E+06 -5.756995E+04 -9.374273E+03
         9  22 -8.701496E+06 -1.280649E+06 -2.216149E+04 -3.341762E+06 -1.417919E+04 -5.920988E+03
         9  23 -8.801973E+06 -1.168628E+06 -3.713567E+04 -3.217379E+06 -3.583609E+04 -6.564097E+03
         9  24 -8.705129E+06 -1.306355E+06 -7.646725E+04 -3.332301E+06 -5.680776E+04 -9.091294E+03
         9  25 -8.928698E+06 -1.364177E+06 -8.496056E+04 -3.400294E+06 -1.269462E+04 -5.374205E+03
         9  26 -9.186431E+06 -1.313812E+06 -1.431926E+05 -3.320681E+06 -3.471596E+04 -6.150154E+03
         9  27 -9.246897E+06 -1.513291E+06 -2.260908E+05 -3.480372E+06 -5.604630E+04 -8.808591E+03
        10   1 -7.547454E+06 -8.079932E+05  2.322744E+05 -3.004153E+06  7.387813E+04  1.132566E+04
        10   2 -7.509903E+06 -7.003169E+05  1.820876E+05 -2.929435E+06  1.592289E+05  3.779449E+04
        10   3 -7.486738E+06 -9.102300E+05  5.478597E+03 -2.877103E+06  2.420163E+05  7.118260E+04
        10   4 -8.741930E+06 -1.246407E+06 -9.500143E+04 -3.312218E+06  7.217143E+04  1.069213E+04
        10   5 -8.747160E+06 -1.173786E+06 -1.601729E+05 -3.268790E+06  1.587411E+05  3.760756E+04
        10   6 -8.767226E+06 -1.419333E+06 -3.529487E+05 -3.247717E+06  2.427384E+05  7.143995E+04
        10   7 -9.935026E+06 -1.684763E+06 -4.224079E+05 -3.619750E+06  7.046827E+04  1.005982E+04
        10   8 -9.982932E+06 -1.647162E+06 -5.025763E+05 -3.607523E+06  1.582541E+05  3.742094E+04
        10   9 -1.004612E+07 -1.928299E+06 -7.115321E+05 -3.617615E+06  2.434584E+05  7.169640E+04
        10  10 -7.547460E+06 -8.079948E+05  2.322638E+05 -3.004153E+06  7.187941E-09  3.660655E-09
        10  11 -7.509931E+06 -7.003254E+05  1.820366E+05 -2.929440E+06 -4.595708E-09 -6.352055E-09
        10  12 -7.486803E+06 -9.102515E+05  5.357346E+03 -2.877117E+06 -1.776027E-09 -1.023265E-09
        10  13 -8.741936E+06 -1.246408E+06 -9.501159E+04 -3.312218E+06 -1.420199E-09  1.107239E-09
        10  14 -8.747188E+06 -1.173795E+06 -1.602237E+05 -3.268794E+06 -8.452992E-09 -3.118630E-09
        10  15 -8.767291E+06 -1.419354E+06 -3.530710E+05 -3.247731E+06  1.867529E-09  7.601285E-10
        10  16 -9.935031E+06 -1.684765E+06 -4.224176E+05 -3.619751E+06 -6.803777E-09  1.727019E-09
        10  17 -9.982960E+06 -1.647170E+06 -5.026269E+05 -3.607527E+06 -2.612190E-09  1.159629E-10
        10  18 -1.004618E+07 -1.928321E+06 -7.116554E+05 -3.617629E+06  1.580813E-09  1.705574E-09
        10  19 -7.547454E+06 -8.079932E+05  2.322744E+05 -3.004153E+06 -7.387813E+04 -1.132566E+04
        10  20 -7.509903E+06 -7.003169E+05  1.820876E+05 -2.929435E+06 -1.592289E+05 -3.779449E+04
        10  21 -7.486738E+06 -9.102300E+05  5.478597E+03 -2.877103E+06 -2.420163E+05 -7.118260E+04
        10  22 -8.741930E+06 -1.246407E+06 -9.500143E+04 -3.312218E+06 -7.217143E+04 -1.069213E+04
        10  23 -8.747160E+06 -1.173786E+06 -1.601729E+05 -3.268790E+06 -1.587411E+05 -3.760756E+04
        10  24 -8.767226E+06 -1.419333E+06 -3.529487E+05 -3.247717E+06 -2.427384E+05 -7.143995E+04
        10  25 -9.935026E+06 -1.684763E+06 -4.224079E+05 -3.619750E+06 -7.046827E+04 -1.005982E+04
        10  26 -9.982932E+06 -1.647162E+06 -5.025763E+05 -3.607523E+06 -1.582541E+05 -3.742094E+04
        10  27 -1.004612E+07 -1.928299E+06 -7.115321E+05 -3.617615E+06 -2.434584E+05 -7.169640E+04
        11   1 -7.611143E+06 -7.804328E+05 -9.771407E+04 -3.044500E+06  3.083825E+05  9.587582E+04
        11   2 -7.480494E+06 -5.458068E+05 -3.757895E+05 -3.038534E+06  6.817124E+05  2.381613E+05
        11   3 -8.146497E+06 -1.844169E+06 -1.388244E+06 -2.451168E+06  1.049770E+06  3.941932E+05
        11   4 -8.866401E+06 -1.179965E+06 -4.289409E+05 -3.306148E+06  3.068271E+05  9.533476E+04
        11   5 -8.555200E+06 -9.981864E+05 -6.812339E+05 -3.375060E+06  6.822657E+05  2.383111E+05
        11   6 -9.042182E+06 -2.351595E+06 -1.670544E+06 -2.862160E+06  1.052547E+06  3.949046E+05
        11   7 -1.012012E+07 -1.579509E+06 -7.602972E+05 -3.567363E+06  3.052746E+05  9.479438E+04
        11   8 -9.628773E+06 -1.450425E+06 -9.867904E+05 -3.711025E+06  6.828169E+05  2.384599E+05
        11   9 -9.937009E+06 -2.858628E+06 -1.952923E+06 -3.272509E+06  1.055319E+06  3.956115E+05
        11  10 -7.611249E+06 -7.804688E+05 -9.791288E+04 -3.044524E+06  6.536738E-10  1.681445E-09
        11  11 -7.481014E+06 -5.459954E+05 -3.767835E+05 -3.038666E+06  2.188046E-09  5.665615E-10
        11  12 -8.147736E+06 -1.844639E+06 -1.390641E+06 -2.451504E+06  3.216141E-09 -2.443918E-09
        11  13 -8.866506E+06 -1.180000E+06 -4.291381E+05 -3.306172E+06 -3.211553E-11  1.745388E-09
        11  14 -8.555721E+06 -9.983757E+05 -6.822315E+05 -3.375192E+06  2.148120E-09  1.300991E-09
        11  15 -9.043430E+06 -2.352068E+06 -1.672958E+06 -2.862498E+06  1.191955E-09 -1.060950E-09
        11  16 -1.012023E+07 -1.579544E+06 -7.604928E+05 -3.567387E+06 -3.995749E-09  9.541430E-10
        11  17 -9.629296E+06 -1.450615E+06 -9.877914E+05 -3.711158E+06  3.289374E-09  1.521883E-09
        11  18 -9.938265E+06 -2.859104E+06 -1.955353E+06 -3.272849E+06  1.448566E-09 -1.622990E-09
        11  19 -7.611143E+06 -7.804328E+05 -9.771407E+04 -3.044500E+06 -3.083825E+05 -9.587582E+04
        11  20 -7.480494E+06 -5.458068E+05 -3.757895E+05 -3.038534E+06 -6.817124E+05 -2.381613E+05
        11  21 -8.146497E+06 -1.844169E+06 -1.388244E+06 -2.451168E+06 -1.049770E+06 -3.941932E+05
        11  22 -8.866401E+06 -1.179965E+06 -4.289409E+05 -3.306148E+06 -3.068271E+05 -9.533476E+04
        11  23 -8.555200E+06 -9.981864E+05 -6.812339E+05 -3.375060E+06 -6.822657E+05 -2.383111E+05
        11  24 -9.042182E+06 -2.351595E+06 -1.670544E+06 -2.862160E+06 -1.052547E+06 -3.949046E+05
        11  25 -1.012012E+07 -1.579509E+06 -7.602972E+05 -3.567363E+06 -3.052746E+05 -9.479438E+04
        11  26 -9.628773E+06 -1.450425E+06 -9.867904E+05 -3.711025E+06 -6.828169E+05 -2.384599E+05
        11  27 -9.937009E+06 -2.858628E+06 -1.952923E+06 -3.272509E+06 -1.055319E+06 -3.956115E+05
        12   1  9.884980E+03 -2.518399E+06  6.300292E+03 -3.316601E+03  5.687037E+01  3.547927E+02
        12   2  1.081968E+04 -2.518982E+06  5.409922E+03  4.153426E+03  7.663087E+01  2.709368E+03
        12   3  6.888701E+03 -2.520328E+06  1.918376E+03 -3.433363E+03 -1.316638E+00  5.063882E+03
        12   4 -3.656603E+02 -2.559287E+06 -3.949662E+03 -3.345034E+03  5.687084E+01  3.531270E+02
        12   5  8.099937E+02 -2.558909E+06 -4.598783E+03  4.181721E+03  7.663087E+01  2.709907E+03
        12   6 -2.880608E+03 -2.559294E+06 -7.850736E+03 -3.348400E+03 -1.319413E+00  5.066629E+03
        12   7 -1.061643E+04 -2.600174E+06 -1.419974E+04 -3.373465E+03  5.687132E+01  3.514614E+02
        12   8 -9.199815E+03 -2.598834E+06 -1.460761E+04  4.210014E+03  7.663087E+01  2.710445E+03
        12   9 -1.265003E+04 -2.598259E+06 -1.761996E+04 -3.263443E+03 -1.322188E+00  5.069375E+03
        12  10  9.884980E+03 -2.518399E+06  6.300292E+03 -3.316601E+03 -3.900390E-09  3.259094E-10
        12  11  1.081968E+04 -2.518982E+06  5.409908E+03  4.153426E+03 -3.376416E-09  6.284160E-10
        12  12  6.888694E+03 -2.520328E+06  1.918328E+03 -3.433363E+03  4.899816E-09 -3.718808E-10
        12  13 -3.656603E+02 -2.559287E+06 -3.949662E+03 -3.345034E+03 -9.334941E-09 -1.154116E-10
        12  14  8.099917E+02 -2.558909E+06 -4.598797E+03  4.181721E+03 -1.975376E-09 -1.892639E-10
        12  15 -2.880615E+03 -2.559294E+06 -7.850784E+03 -3.348400E+03  3.258066E-09 -3.457970E-10
        12  16 -1.061643E+04 -2.600174E+06 -1.419974E+04 -3.373465E+03  2.541553E-09 -1.839893E-10
        12  17 -9.199817E+03 -2.598834E+06 -1.460762E+04  4.210014E+03  5.170428E-09  3.133928E-10
        12  18 -1.265004E+04 -2.598260E+06 -1.762001E+04 -3.263443E+03  7.055068E-09  6.342324E-11
        12  19  9.884980E+03 -2.518399E+06  6.300292E+03 -3.316601E+03 -5.687037E+01 -3.547927E+02
        12  20  1.081968E+04 -2.518982E+06  5.409922E+03  4.153426E+03 -7.663087E+01 -2.709368E+03
        12  21  6.888701E+03 -2.520328E+06  1.918376E+03 -3.433363E+03  1.316638E+00 -5.063882E+03
        12  22 -3.656603E+02 -2.559287E+06 -3.949662E+03 -3.345034E+03 -5.687084E+01 -3.531270E+02
        12  23  8.099937E+02 -2.558909E+06 -4.598783E+03  4.181721E+03 -7.663087E+01 -2.709907E+03
        12  24 -2.880608E+03 -2.559294E+06 -7.850736E+03 -3.348400E+03  1.319413E+00 -5.066629E+03
        12  25 -1.061643E+04 -2.600174E+06 -1.419974E+04 -3.373465E+03 -5.687132E+01 -3.514614E+02
        12  26 -9.199815E+03 -2.598834E+06 -1.460761E+04  4.210014E+03 -7.663087E+01 -2.710445E+03
        12  27 -1.265003E+04 -2.598259E+06 -1.761996E+04 -3.263443E+03  1.322188E+00 -5.069375E+03
        13   1 -3.332700E+04 -2.694634E+06 -4.305776E+04  4.829250E+03 -1.430230E+02  6.523744E+03
        13   2 -2.986371E+04 -2.694346E+06 -4.883737E+04 -5.901560E+03 -2.556839E+02  1.430753E+04
        13   3 -4.979876E+04 -2.692035E+06 -6.376507E+04  4.084666E+03  4.511863E+00  2.209091E+04
        13   4  7.660592E+02 -2.558660E+06 -8.966604E+03  4.593451E+03 -1.430291E+02  6.531730E+03
        13   5  3.897242E+03 -2.559694E+06 -1.507971E+04 -5.746523E+03 -2.556782E+02  1.430808E+04
        13   6 -1.636503E+04 -2.558702E+06 -3.033400E+04  4.630260E+03  4.504651E+00  2.208400E+04
        13   7  3.485771E+04 -2.422669E+06  2.512315E+04  4.357602E+03 -1.430352E+02  6.539716E+03
        13   8  3.765682E+04 -2.425025E+06  1.867657E+04 -5.591455E+03 -2.556726E+02  1.430863E+04
        13   9  1.706734E+04 -2.425352E+06  3.095731E+03  5.175961E+03  4.497426E+00  2.207709E+04
        13  10 -3.332701E+04 -2.694634E+06 -4.305784E+04  4.829251E+03  3.889434E-09 -3.902022E-10
        13  11 -2.986376E+04 -2.694347E+06 -4.883775E+04 -5.901557E+03  3.967693E-09 -4.919887E-10
        13  12 -4.979889E+04 -2.692036E+06 -6.376599E+04  4.084666E+03 -2.730432E-09  5.436329E-10
        13  13  7.660477E+02 -2.558660E+06 -8.966684E+03  4.593451E+03  8.837043E-09 -3.904793E-10
        13  14  3.897187E+03 -2.559694E+06 -1.508010E+04 -5.746520E+03 -1.841602E-09  2.814712E-10
        13  15 -1.636516E+04 -2.558702E+06 -3.033492E+04  4.630260E+03  2.552066E-09  7.862814E-10
        13  16  3.485770E+04 -2.422669E+06  2.512307E+04  4.357603E+03  7.100597E-09  4.409469E-10
        13  17  3.765676E+04 -2.425026E+06  1.867618E+04 -5.591452E+03  5.562973E-09 -5.702824E-10
        13  18  1.706721E+04 -2.425352E+06  3.094811E+03  5.175960E+03  2.696972E-09 -4.217892E-10
        13  19 -3.332700E+04 -2.694634E+06 -4.305776E+04  4.829250E+03  1.430230E+02 -6.523744E+03
        13  20 -2.986371E+04 -2.694346E+06 -4.883737E+04 -5.901560E+03  2.556839E+02 -1.430753E+04
        13  21 -4.979876E+04 -2.692035E+06 -6.376507E+04  4.084666E+03 -4.511863E+00 -2.209091E+04
        13  22  7.660593E+02 -2.558660E+06 -8.966604E+03  4.593451E+03  1.430291E+02 -6.531730E+03
        13  23  3.897242E+03 -2.559694E+06 -1.507971E+04 -5.746523E+03  2.556782E+02 -1.430808E+04
        13  24 -1.636503E+04 -2.558702E+06 -3.033400E+04  4.630260E+03 -4.504651E+00 -2.208400E+04
        13  25  3.485771E+04 -2.422669E+06  2.512315E+04  4.357602E+03  1.430352E+02 -6.539716E+03
        13  26  3.765682E+04 -2.425025E+06  1.867657E+04 -5.591455E+03  2.556726E+02 -1.430863E+04
        13  27  1.706734E+04 -2.425352E+06  3.095731E+03  5.175961E+03 -4.497426E+00 -2.207709E+04
        14   1  7.478596E+04 -2.277817E+06  3.574774E+04 -6.340959E+03  3.228699E+02  2.772437E+04
        14   2  9.300068E+04 -2.279964E+06  1.192108E+04  8.857354E+03  4.509018E+02  5.857467E+04
        14   3 -2.711912E+04 -2.282452E+06 -5.894110E+04 -1.085678E+04 -2.411171E+02  8.942448E+04
        14   4  4.254509E+03 -2.559172E+06 -3.477703E+04 -7.647436E+03  3.227974E+02  2.770440E+04
        14   5  2.303066E+04 -2.559099E+06 -5.804286E+04  9.575123E+03  4.509743E+02  5.856215E+04
        14   6 -9.656967E+04 -2.559394E+06 -1.283676E+05 -8.115819E+03 -2.408410E+02  8.941951E+04
        14   7 -6.628296E+04 -2.840455E+06 -1.053078E+05 -8.953356E+03  3.227249E+02  2.768443E+04
        14   8 -4.694527E+04 -2.838162E+06 -1.280127E+05  1.029259E+04  4.510468E+02  5.854963E+04
        14   9 -1.660260E+05 -2.836265E+06 -1.978000E+05 -5.375999E+03 -2.405649E+02  8.941454E+04
        14  10  7.478576E+04 -2.277818E+06  3.574629E+04 -6.340966E+03  3.562747E-09  4.019276E-10
        14  11  9.299975E+04 -2.279968E+06  1.191460E+04  8.857333E+03  5.663437E-09  4.948265E-10
        14  12 -2.712128E+04 -2.282461E+06 -5.895618E+04 -1.085676E+04 -5.144979E-09 -3.789628E-10
        14  13  4.254302E+03 -2.559173E+06 -3.477848E+04 -7.647444E+03 -3.557808E-10  4.407594E-10
        14  14  2.302974E+04 -2.559102E+06 -5.804933E+04  9.575102E+03  5.105948E-09 -6.972115E-10
        14  15 -9.657183E+04 -2.559402E+06 -1.283827E+05 -8.115802E+03  1.038336E-09 -1.470687E-09
        14  16 -6.628316E+04 -2.840456E+06 -1.053093E+05 -8.953364E+03  6.676568E-09 -1.172004E-10
        14  17 -4.694619E+04 -2.838166E+06 -1.280192E+05  1.029257E+04 -2.972814E-09  1.193716E-09
        14  18 -1.660282E+05 -2.836274E+06 -1.978151E+05 -5.375981E+03  8.869156E-09 -3.765873E-10
        14  19  7.478596E+04 -2.277817E+06  3.574774E+04 -6.340959E+03 -3.228699E+02 -2.772437E+04
        14  20  9.300068E+04 -2.279964E+06  1.192108E+04  8.857354E+03 -4.509018E+02 -5.857467E+04
        14  21 -2.711912E+04 -2.282452E+06 -5.894110E+04 -1.085678E+04  2.411171E+02 -8.942448E+04
        14  22  4.254509E+03 -2.559172E+06 -3.477703E+04 -7.647436E+03 -3.227974E+02 -2.770440E+04
        14  23  2.303066E+04 -2.559099E+06 -5.804286E+04  9.575123E+03 -4.509743E+02 -5.856215E+04
        14  24 -9.656967E+04 -2.559394E+06 -1.283676E+05 -8.115819E+03  2.408410E+02 -8.941951E+04
        14  25 -6.628296E+04 -2.840455E+06 -1.053078E+05 -8.953356E+03 -3.227249E+02 -2.768443E+04
        14  26 -4.694527E+04 -2.838162E+06 -1.280127E+05  1.029259E+04 -4.510468E+02 -5.854963E+04
        14  27 -1.660260E+05 -2.836265E+06 -1.978000E+05 -5.375999E+03  2.405649E+02 -8.941454E+04
        15   1  2.276363E+05 -5.880601E+05  2.191263E+05 -4.859913E+02  3.142355E+04 -2.561583E+01
        15   2  2.269386E+05 -5.910667E+05  2.185005E+05  4.568386E+01  3.135738E+04 -3.183705E+02
        15   3  2.264837E+05 -5.931881E+05  2.182934E+05 -1.189068E+03  3.111809E+04 -6.114843E+02
        15   4 -1.386757E+02 -1.507162E+06  3.856764E+02 -3.926103E+02  3.142667E+04 -3.678860E+01
        15   5 -1.979067E+02 -1.507595E+06  3.795108E+02  4.907767E+02  3.136042E+04 -2.337510E+02
        15   6 -3.132313E+01 -1.507161E+06  7.255958E+02 -3.924141E+02  3.112095E+04 -4.310722E+02
        15   7 -2.279747E+05 -2.425487E+06 -2.184142E+05 -2.993396E+02  3.142979E+04 -4.794487E+01
        15   8 -2.273951E+05 -2.423352E+06 -2.178004E+05  9.353332E+02  3.136347E+04 -1.492556E+02
        15   9 -2.266068E+05 -2.420365E+06 -2.169008E+05  4.032813E+02  3.112381E+04 -2.509242E+02
        15  10  2.276352E+05 -5.880604E+05  2.191245E+05 -4.859907E+02  9.529051E-09 -1.457634E-09
        15  11  2.269376E+05 -5.910670E+05  2.184987E+05  4.569190E+01  5.703727E-09 -4.811609E-09
        15  12  2.264827E+05 -5.931884E+05  2.182916E+05 -1.189053E+03 -5.457494E-09 -7.408509E-09
        15  13 -1.397355E+02 -1.507162E+06  3.838217E+02 -3.926094E+02 -1.108499E-09 -4.866495E-11
        15  14 -1.989621E+02 -1.507596E+06  3.776638E+02  4.907826E+02 -7.339232E-09 -3.211686E-10
        15  15 -3.236246E+01 -1.507161E+06  7.237767E+02 -3.924033E+02 -3.372444E-09 -7.736082E-11
        15  16 -2.279757E+05 -2.425487E+06 -2.184160E+05 -2.993384E+02  6.522683E-09  1.321982E-09
        15  17 -2.273962E+05 -2.423352E+06 -2.178022E+05  9.353370E+02 -8.251598E-10  3.761393E-09
        15  18 -2.266078E+05 -2.420366E+06 -2.169026E+05  4.032876E+02  9.534224E-09  6.476565E-09
        15  19  2.276363E+05 -5.880601E+05  2.191263E+05 -4.859913E+02 -3.142355E+04  2.561583E+01
        15  20  2.269386E+05 -5.910667E+05  2.185005E+05  4.568386E+01 -3.135738E+04  3.183705E+02
        15  21  2.264837E+05 -5.931881E+05  2.182934E+05 -1.189068E+03 -3.111809E+04  6.114843E+02
        15  22 -1.386757E+02 -1.507162E+06  3.856764E+02 -3.926103E+02 -3.142667E+04  3.678860E+01
        15  23 -1.979067E+02 -1.507595E+06  3.795108E+02  4.907767E+02 -3.136042E+04  2.337510E+02
        15  24 -3.132313E+01 -1.507161E+06  7.255958E+02 -3.924141E+02 -3.112095E+04  4.310722E+02
        15  25 -2.279747E+05 -2.425487E+06 -2.184142E+05 -2.993396E+02 -3.142979E+04  4.794487E+01
        15  26 -2.273951E+05 -2.423352E+06 -2.178004E+05  9.353332E+02 -3.136347E+04  1.492556E+02
        15  27 -2.266068E+05 -2.420365E+06 -2.169008E+05  4.032813E+02 -3.112381E+04  2.509242E+02
        16   1  2.247542E+05 -5.993772E+05  2.168794E+05 -2.293147E+03  3.116058E+04 -4.106122E+02
        16   2  2.227259E+05 -6.076777E+05  2.155533E+05  2.355294E+02  3.080303E+04 -1.852774E+03
        16   3  2.222408E+05 -6.146688E+05  2.157091E+05 -2.497570E+03  2.911671E+04 -3.298769E+03
        16   4 -1.925855E+02 -1.507088E+06  8.929774E+02 -1.170057E+03  3.116387E+04 -5.780741E+02
        16   5 -3.184424E+02 -1.507677E+06  1.366202E+03  1.462389E+03  3.080492E+04 -1.286158E+03
        16   6  9.721011E+02 -1.507084E+06  2.811778E+03 -1.167415E+03  2.911633E+04 -1.998092E+03
        16   7 -2.251989E+05 -2.414041E+06 -2.151512E+05 -4.834596E+01  3.116717E+04 -7.452916E+02
        16   8 -2.234213E+05 -2.406931E+06 -2.128777E+05  2.687819E+03  3.080682E+04 -7.203584E+02
        16   9 -2.203543E+05 -2.398767E+06 -2.101416E+05  1.612602E+02  2.911596E+04 -6.992769E+02
        16  10  2.247532E+05 -5.993775E+05  2.168776E+05 -2.293136E+03 -4.866076E-09 -1.240026E-09
        16  11  2.227248E+05 -6.076779E+05  2.155515E+05  2.355754E+02  3.379078E-09  6.958046E-10
        16  12  2.222399E+05 -6.146690E+05  2.157075E+05 -2.497492E+03  4.716699E-09  7.485387E-10
        16  13 -1.936278E+02 -1.507088E+06  8.911531E+02 -1.170043E+03 -3.448705E-09  6.264728E-11
        16  14 -3.194611E+02 -1.507677E+06  1.364417E+03  1.462421E+03  7.203569E-09 -9.277546E-10
        16  15  9.711904E+02 -1.507084E+06  2.810178E+03 -1.167368E+03  3.145068E-10 -1.939176E-10
        16  16 -2.252000E+05 -2.414042E+06 -2.151530E+05 -4.832723E+01  1.476458E-08  1.726785E-10
        16  17 -2.234223E+05 -2.406932E+06 -2.128795E+05  2.687836E+03  1.496673E-09 -3.755515E-09
        16  18 -2.203552E+05 -2.398767E+06 -2.101432E+05  1.612766E+02 -2.414492E-09 -2.694744E-09
        16  19  2.247542E+05 -5.993772E+05  2.168794E+05 -2.293147E+03 -3.116058E+04  4.106122E+02
        16  20  2.227259E+05 -6.076777E+05  2.155533E+05  2.355294E+02 -3.080303E+04  1.852774E+03
        16  21  2.222408E+05 -6.146688E+05  2.157091E+05 -2.497570E+03 -2.911671E+04  3.298769E+03
        16  22 -1.925855E+02 -1.507088E+06  8.929774E+02 -1.170057E+03 -3.116387E+04  5.780741E+02
        16  23 -3.184424E+02 -1.507677E+06  1.366202E+03  1.462389E+03 -3.080492E+04  1.286158E+03
        16  24  9.721011E+02 -1.507084E+06  2.811778E+03 -1.167415E+03 -2.911633E+04  1.998092E+03
        16  25 -2.251989E+05 -2.414041E+06 -2.151512E+05 -4.834596E+01 -3.116717E+04  7.452916E+02
        16  26 -2.234213E+05 -2.406931E+06 -2.128777E+05  2.687819E+03 -3.080682E+04  7.203584E+02
        16  27 -2.203543E+05 -2.398767E+06 -2.101416E+05  1.612602E+02 -2.911596E+04  6.992769E+02
        17   1  2.173447E+05 -6.262280E+05  2.124173E+05 -5.333437E+03  3.140254E+04  1.737418E+03
        17   2  2.132526E+05 -6.417065E+05  2.116131E+05  1.580732E+03  2.981410E+04 -1.150510E+04
        17   3  2.243713E+05 -6.510226E+05  2.233726E+05 -6.111422E+02  9.525982E+03 -2.481781E+04
        17   4 -7.021457E+02 -1.506371E+06  3.413448E+03 -2.035393E+03  3.141715E+04 -2.521189E+03
        17   5 -1.568126E+03 -1.508550E+06  5.353154E+03  2.538318E+03  2.979750E+04 -5.443060E+03
        17   6  1.099312E+04 -1.506357E+06  1.268723E+04 -1.994996E+03  9.466619E+03 -8.435459E+03
        17   7 -2.188049E+05 -2.385801E+06 -2.056445E+05  1.258430E+03  3.143174E+04 -6.773781E+03
        17   8 -2.164432E+05 -2.374703E+06 -2.009593E+05  3.495106E+03  2.978090E+04  6.105493E+02
        17   9 -2.024395E+05 -2.361025E+06 -1.980512E+05 -3.376327E+03  9.407141E+03  7.924341E+03
        17  10  2.173437E+05 -6.262283E+05  2.124154E+05 -5.333481E+03  7.175607E-10 -2.595961E-09
        17  11  2.132517E+05 -6.417069E+05  2.116111E+05  1.581008E+03 -3.484707E-09 -8.862434E-10
        17  12  2.243711E+05 -6.510233E+05  2.233713E+05 -6.109518E+02  5.701957E-09  1.110226E-09
        17  13 -7.032066E+02 -1.506371E+06  3.411583E+03 -2.035329E+03 -5.127882E-10 -1.163265E-12
        17  14 -1.569087E+03 -1.508551E+06  5.351431E+03  2.538448E+03 -4.302770E-11 -1.758791E-09
        17  15  1.099300E+04 -1.506358E+06  1.268693E+04 -1.994931E+03 -1.670203E-09 -2.470291E-10
        17  16 -2.188059E+05 -2.385801E+06 -2.056464E+05  1.258602E+03 -6.082061E-09  4.481781E-10
        17  17 -2.164441E+05 -2.374703E+06 -2.009609E+05  3.495091E+03 -4.669256E-09 -4.278068E-09
        17  18 -2.024396E+05 -2.361025E+06 -1.980515E+05 -3.376387E+03 -3.035042E-11 -4.103143E-09
        17  19  2.173447E+05 -6.262280E+05  2.124173E+05 -5.333437E+03 -3.140254E+04 -1.737418E+03
        17  20  2.132526E+05 -6.417065E+05  2.116131E+05  1.580732E+03 -2.981410E+04  1.150510E+04
        17  21  2.243713E+05 -6.510226E+05  2.233726E+05 -6.111422E+02 -9.525982E+03  2.481781E+04
        17  22 -7.021457E+02 -1.506371E+06  3.413448E+03 -2.035393E+03 -3.141715E+04  2.521189E+03
        17  23 -1.568126E+03 -1.508550E+06  5.353154E+03  2.538318E+03 -2.979750E+04  5.443060E+03
        17  24  1.099312E+04 -1.506357E+06  1.268723E+04 -1.994996E+03 -9.466619E+03  8.435459E+03
        17  25 -2.188049E+05 -2.385801E+06 -2.056445E+05  1.258430E+03 -3.143174E+04  6.773781E+03
        17  26 -2.164432E+05 -2.374703E+06 -2.009593E+05  3.495106E+03 -2.978090E+04 -6.105493E+02
        17  27 -2.024395E+05 -2.361025E+06 -1.980512E+05 -3.376327E+03 -9.407141E+03 -7.924341E+03
        18   1  8.461784E+04  9.330753E+05  4.753324E+04 -3.628695E+00  2.970250E+04  1.990526E-01
        18   2  8.462265E+04  9.330971E+05  4.754087E+04 -2.118357E+01  2.970363E+04 -5.301275E+00
        18   3  8.462852E+04  9.331275E+05  4.755476E+04 -3.590584E+01  2.970588E+04 -1.080131E+01
        18   4 -2.864282E+01  5.570327E+05  1.460586E+01  6.297282E-01  2.970440E+04 -1.145194E+00
        18   5 -3.006392E+01  5.570281E+05  1.741386E+01 -7.863427E-01  2.970553E+04 -9.357608E+00
        18   6 -2.996099E+01  5.570327E+05  2.837120E+01  6.308404E-01  2.970779E+04 -1.756977E+01
        18   7 -8.468088E+04  1.811351E+05 -4.750447E+04  4.885932E+00  2.970630E+04 -2.488667E+00
        18   8 -8.468853E+04  1.811042E+05 -4.750649E+04  1.960009E+01  2.970743E+04 -1.341161E+01
        18   9 -8.469419E+04  1.810829E+05 -4.749847E+04  3.714814E+01  2.970969E+04 -2.433434E+01
        18  10  8.461690E+04  9.330750E+05  4.753158E+04 -3.628700E+00  1.770843E-08  1.572684E-07
        18  11  8.462170E+04  9.330969E+05  4.753921E+04 -2.118344E+01  5.524314E-09  2.947880E-08
        18  12  8.462757E+04  9.331272E+05  4.755310E+04 -3.590559E+01  5.986625E-09 -1.009621E-07
        18  13 -2.959056E+01  5.570324E+05  1.294731E+01  6.297552E-01  2.731183E-08  3.046841E-11
        18  14 -3.101174E+01  5.570279E+05  1.575519E+01 -7.861190E-01  3.369610E-09 -1.297014E-10
        18  15 -3.090894E+01  5.570324E+05  2.671228E+01  6.312608E-01 -1.233706E-08  1.287469E-10
        18  16 -8.468183E+04  1.811349E+05 -4.750613E+04  4.885992E+00  1.337040E-08 -1.572328E-07
        18  17 -8.468948E+04  1.811040E+05 -4.750815E+04  1.960041E+01  9.732287E-09 -2.952760E-08
        18  18 -8.469514E+04  1.810827E+05 -4.750013E+04  3.714873E+01  1.995884E-09  1.009405E-07
        18  19  8.461784E+04  9.330753E+05  4.753324E+04 -3.628695E+00 -2.970250E+04 -1.990523E-01
        18  20  8.462265E+04  9.330971E+05  4.754087E+04 -2.118357E+01 -2.970363E+04  5.301275E+00
        18  21  8.462852E+04  9.331275E+05  4.755476E+04 -3.590584E+01 -2.970588E+04  1.080131E+01
        18  22 -2.864282E+01  5.570327E+05  1.460586E+01  6.297276E-01 -2.970440E+04  1.145194E+00
        18  23 -3.006392E+01  5.570281E+05  1.741386E+01 -7.863429E-01 -2.970553E+04  9.357608E+00
        18  24 -2.996099E+01  5.570327E+05  2.837120E+01  6.308407E-01 -2.970779E+04  1.756977E+01
        18  25 -8.468088E+04  1.811351E+05 -4.750447E+04  4.885932E+00 -2.970630E+04  2.488666E+00
        18  26 -8.468853E+04  1.811042E+05 -4.750649E+04  1.960009E+01 -2.970743E+04  1.341161E+01
        18  27 -8.469419E+04  1.810829E+05 -4.749847E+04  3.714815E+01 -2.970969E+04  2.433434E+01
        19   1  8.463525E+04  9.331603E+05  4.756778E+04 -4.292634E+01  2.970792E+04 -1.382031E+01
        19   2  8.465023E+04  9.332320E+05  4.760691E+04 -6.813886E+01  2.971131E+04 -4.618940E+01
        19   3  8.466773E+04  9.333163E+05  4.767015E+04 -8.098304E+01  2.971373E+04 -7.855781E+01
        19   4 -3.061913E+01  5.570333E+05  3.655183E+01  2.749998E+00  2.970982E+04 -2.311175E+01
        19   5 -3.402357E+01  5.570273E+05  6.153384E+01 -3.434154E+00  2.971321E+04 -5.312947E+01
        19   6 -3.530845E+01  5.570333E+05  1.090035E+02  2.750458E+00  2.971563E+04 -8.314649E+01
        19   7 -8.470224E+04  1.810515E+05 -4.749513E+04  4.840213E+01  2.971173E+04 -3.239785E+01
        19   8 -8.472403E+04  1.809677E+05 -4.748429E+04  6.123592E+01  2.971512E+04 -6.006554E+01
        19   9 -8.474411E+04  1.808955E+05 -4.745259E+04  8.643890E+01  2.971754E+04 -8.773253E+01
        19  10  8.463430E+04  9.331600E+05  4.756613E+04 -4.292601E+01  4.024354E-09  5.566010E-08
        19  11  8.464928E+04  9.332318E+05  4.760525E+04 -6.813776E+01  6.093229E-09  1.536883E-08
        19  12  8.466678E+04  9.333160E+05  4.766849E+04 -8.098116E+01 -3.951073E-09 -2.188280E-08
        19  13 -3.156722E+01  5.570331E+05  3.489268E+01  2.750551E+00 -1.110257E-08  1.295184E-10
        19  14 -3.497188E+01  5.570270E+05  5.987431E+01 -3.432883E+00 -5.196228E-09 -3.957202E-10
        19  15 -3.625691E+01  5.570331E+05  1.073436E+02  2.752448E+00  2.616370E-09  3.376654E-10
        19  16 -8.470319E+04  1.810512E+05 -4.749679E+04  4.840290E+01  1.880826E-09 -5.585257E-08
        19  17 -8.472498E+04  1.809674E+05 -4.748595E+04  6.123736E+01 -1.037844E-09 -1.553865E-08
        19  18 -8.474506E+04  1.808953E+05 -4.745425E+04  8.644100E+01 -8.204982E-12  2.202724E-08
        19  19  8.463525E+04  9.331603E+05  4.756778E+04 -4.292634E+01 -2.970792E+04  1.382031E+01
        19  20  8.465023E+04  9.332320E+05  4.760691E+04 -6.813886E+01 -2.971131E+04  4.618940E+01
        19  21  8.466773E+04  9.333163E+05  4.767015E+04 -8.098304E+01 -2.971373E+04  7.855781E+01
        19  22 -3.061913E+01  5.570333E+05  3.655183E+01  2.749998E+00 -2.970982E+04  2.311175E+01
        19  23 -3.402357E+01  5.570273E+05  6.153384E+01 -3.434154E+00 -2.971321E+04  5.312947E+01
        19  24 -3.530845E+01  5.570333E+05  1.090035E+02  2.750459E+00 -2.971563E+04  8.314649E+01
        19  25 -8.470224E+04  1.810515E+05 -4.749513E+04  4.840213E+01 -2.971173E+04  3.239785E+01
        19  26 -8.472403E+04  1.809677E+05 -4.748429E+04  6.123592E+01 -2.971512E+04  6.006554E+01
        19  27 -8.474411E+04  1.808955E+05 -4.745259E+04  8.643890E+01 -2.971754E+04  8.773253E+01
        20   1  8.468174E+04  9.333852E+05  4.771837E+04 -9.167039E+01  2.971568E+04 -9.979271E+01
        20   2  8.471068E+04  9.334981E+05  4.786559E+04 -1.253026E+02  2.970977E+04 -2.637026E+02
        20   3  8.476028E+04  9.336451E+05  4.812701E+04 -1.382131E+02  2.968705E+04 -4.276158E+02
        20   4 -3.708242E+01  5.570366E+05  1.438829E+02  4.605752E+00  2.971758E+04 -1.056339E+02
        20   5 -4.162423E+01  5.570230E+05  2.501906E+02 -5.754086E+00  2.971166E+04 -2.290778E+02
        20   6 -3.251213E+01  5.570365E+05  4.426552E+02  4.607812E+00  2.968892E+04 -3.525256E+02
        20   7 -8.476166E+04  1.808333E+05 -4.743105E+04  1.008298E+02  2.971949E+04 -1.114718E+02
        20   8 -8.479970E+04  1.806933E+05 -4.736567E+04  1.137292E+02  2.971355E+04 -1.944729E+02
        20   9 -8.483109E+04  1.805734E+05 -4.724218E+04  1.473503E+02  2.969079E+04 -2.774785E+02
        20  10  8.468079E+04  9.333849E+05  4.771671E+04 -9.166800E+01 -2.402335E-09  2.987935E-08
        20  11  8.470973E+04  9.334979E+05  4.786393E+04 -1.252963E+02  3.017820E-09 -5.039127E-09
        20  12  8.475934E+04  9.336449E+05  4.812535E+04 -1.382028E+02  5.100656E-09 -3.900707E-08
        20  13 -3.803100E+01  5.570364E+05  1.422229E+02  4.608280E+00 -2.968815E-10  1.992427E-10
        20  14 -4.257245E+01  5.570228E+05  2.485311E+02 -5.748606E+00 -6.660197E-09 -6.778667E-10
        20  15 -3.345892E+01  5.570363E+05  4.409981E+02  4.616239E+00 -1.201600E-08  4.478713E-10
        20  16 -8.476261E+04  1.808331E+05 -4.743271E+04  1.008325E+02 -2.397152E-09 -3.023897E-08
        20  17 -8.480064E+04  1.806931E+05 -4.736733E+04  1.137339E+02 -8.989202E-10  4.839220E-09
        20  18 -8.483203E+04  1.805732E+05 -4.724383E+04  1.473570E+02  2.981618E-09  3.922517E-08
        20  19  8.468174E+04  9.333852E+05  4.771837E+04 -9.167039E+01 -2.971568E+04  9.979271E+01
        20  20  8.471068E+04  9.334981E+05  4.786559E+04 -1.253026E+02 -2.970977E+04  2.637026E+02
        20  21  8.476028E+04  9.336451E+05  4.812701E+04 -1.382131E+02 -2.968705E+04  4.276158E+02
        20  22 -3.708242E+01  5.570366E+05  1.438829E+02  4.605752E+00 -2.971758E+04  1.056339E+02
        20  23 -4.162423E+01  5.570230E+05  2.501906E+02 -5.754086E+00 -2.971166E+04  2.290778E+02
        20  24 -3.251213E+01  5.570365E+05  4.426552E+02  4.607812E+00 -2.968892E+04  3.525256E+02
        20  25 -8.476166E+04  1.808333E+05 -4.743105E+04  1.008298E+02 -2.971949E+04  1.114718E+02
        20  26 -8.479970E+04  1.806933E+05 -4.736567E+04  1.137292E+02 -2.971355E+04  1.944729E+02
        20  27 -8.483109E+04  1.805734E+05 -4.724218E+04  1.473503E+02 -2.969079E+04  2.774785E+02
        21   1 -4.851550E+06 -4.959710E+05 -6.285740E+05  1.714462E+04 -3.788552E+05 -1.861018E+03
        21   2 -4.794855E+06  2.476724E+04 -3.161170E+05 -2.510092E+04 -2.489407E+05  1.897845E+02
        21   3 -4.862156E+06 -6.361780E+04 -2.317784E+05  2.736472E+04 -1.190339E+05  5.726870E+02
        21   4 -4.552472E+06 -4.206897E+05 -5.533770E+05  2.551332E+04 -3.789308E+05 -1.865825E+03
        21   5 -4.489913E+06  1.014015E+05 -2.394857E+05 -2.296926E+04 -2.490013E+05  1.889550E+02
        21   6 -4.551261E+06  1.453527E+04 -1.536411E+05  2.325582E+04 -1.190783E+05  5.734700E+02
        21   7 -4.253312E+06 -3.454150E+05 -4.781868E+05  3.388598E+04 -3.790065E+05 -1.870632E+03
        21   8 -4.184885E+06  1.780286E+05 -1.628615E+05 -2.083657E+04 -2.490619E+05  1.881256E+02
        21   9 -4.240278E+06  9.268101E+04 -7.551114E+04  1.914489E+04 -1.191227E+05  5.742533E+02
        21  10 -4.851705E+06 -4.960099E+05 -6.288459E+05  1.714405E+04 -2.355387E-09 -1.704565E-09
        21  11 -4.794922E+06  2.475044E+04 -3.162344E+05 -2.510088E+04  6.194057E-09 -5.955595E-09
        21  12 -4.862172E+06 -6.362165E+04 -2.318052E+05  2.736477E+04  2.667750E-09  5.569856E-09
        21  13 -4.552627E+06 -4.207286E+05 -5.536488E+05  2.551275E+04  4.180707E-09  2.021538E-10
        21  14 -4.489979E+06  1.013847E+05 -2.396031E+05 -2.296922E+04  2.229061E-09  1.127356E-10
        21  15 -4.551277E+06  1.453143E+04 -1.536679E+05  2.325587E+04  4.939887E-10  7.561222E-10
        21  16 -4.253467E+06 -3.454539E+05 -4.784586E+05  3.388541E+04 -1.257791E-09 -2.299042E-10
        21  17 -4.184952E+06  1.780118E+05 -1.629789E+05 -2.083653E+04  3.405494E-09  2.960264E-09
        21  18 -4.240294E+06  9.267717E+04 -7.553799E+04  1.914494E+04  6.974834E-10  3.794407E-09
        21  19 -4.851550E+06 -4.959710E+05 -6.285740E+05  1.714462E+04  3.788552E+05  1.861018E+03
        21  20 -4.794855E+06  2.476724E+04 -3.161170E+05 -2.510092E+04  2.489407E+05 -1.897845E+02
        21  21 -4.862156E+06 -6.361780E+04 -2.317784E+05  2.736472E+04  1.190339E+05 -5.726870E+02
        21  22 -4.552472E+06 -4.206897E+05 -5.533770E+05  2.551332E+04  3.789308E+05  1.865825E+03
        21  23 -4.489913E+06  1.014015E+05 -2.394857E+05 -2.296926E+04  2.490013E+05 -1.889550E+02
        21  24 -4.551261E+06  1.453527E+04 -1.536411E+05  2.325582E+04  1.190783E+05 -5.734700E+02
        21  25 -4.253312E+06 -3.454150E+05 -4.781868E+05  3.388598E+04  3.790065E+05  1.870632E+03
        21  26 -4.184885E+06  1.780286E+05 -1.628615E+05 -2.083657E+04  2.490619E+05 -1.881256E+02
        21  27 -4.240278E+06  9.268101E+04 -7.551114E+04  1.914489E+04  1.191227E+05 -5.742533E+02
        22   1 -4.410779E+06 -3.790370E+04 -9.956137E+04 -6.563716E+03 -9.375727E+04  2.571194E+02
        22   2 -4.397584E+06  4.653310E+04 -3.128945E+04  1.209937E+04 -6.152761E+04 -1.559710E+02
        22   3 -4.406094E+06  3.307819E+04 -7.165761E+03 -4.405104E+03 -2.929686E+04 -1.243805E+02
        22   4 -4.528903E+06 -6.759165E+04 -1.292423E+05 -5.195182E+03 -9.375766E+04  2.569528E+02
        22   5 -4.517937E+06  1.629551E+04 -6.152397E+04  1.248841E+04 -6.152277E+04 -1.560067E+02
        22   6 -4.528682E+06  2.279242E+03 -3.796362E+04 -4.996005E+03 -2.928690E+04 -1.243536E+02
        22   7 -4.647015E+06 -9.728067E+04 -1.589243E+05 -3.826901E+03 -9.375805E+04  2.567862E+02
        22   8 -4.638276E+06 -1.394319E+04 -9.175960E+04  1.287737E+04 -6.151792E+04 -1.560425E+02
        22   9 -4.651256E+06 -2.852086E+04 -6.876263E+04 -5.586788E+03 -2.927694E+04 -1.243268E+02
        22  10 -4.410789E+06 -3.790608E+04 -9.957801E+04 -6.563696E+03 -7.783921E-10  4.434742E-09
        22  11 -4.397588E+06  4.653208E+04 -3.129661E+04  1.209937E+04  3.154537E-09 -6.651054E-09
        22  12 -4.406095E+06  3.307796E+04 -7.167386E+03 -4.405107E+03  3.892399E-09  4.664093E-09
        22  13 -4.528913E+06 -6.759404E+04 -1.292589E+05 -5.195162E+03  1.028069E-10  5.001529E-10
        22  14 -4.517941E+06  1.629449E+04 -6.153113E+04  1.248840E+04  2.308473E-09  1.108682E-09
        22  15 -4.528683E+06  2.279009E+03 -3.796525E+04 -4.996008E+03  3.667819E-09  1.397758E-09
        22  16 -4.647024E+06 -9.728305E+04 -1.589409E+05 -3.826881E+03  8.257551E-11 -2.676096E-10
        22  17 -4.638280E+06 -1.394421E+04 -9.176676E+04  1.287737E+04  2.111095E-09 -1.803347E-09
        22  18 -4.651257E+06 -2.852109E+04 -6.876425E+04 -5.586791E+03 -5.360928E-09  7.939879E-09
        22  19 -4.410779E+06 -3.790370E+04 -9.956137E+04 -6.563716E+03  9.375727E+04 -2.571194E+02
        22  20 -4.397584E+06  4.653310E+04 -3.128945E+04  1.209937E+04  6.152761E+04  1.559710E+02
        22  21 -4.406094E+06  3.307819E+04 -7.165761E+03 -4.405104E+03  2.929686E+04  1.243805E+02
        22  22 -4.528903E+06 -6.759165E+04 -1.292423E+05 -5.195182E+03  9.375766E+04 -2.569528E+02
        22  23 -4.517937E+06  1.629551E+04 -6.152397E+04  1.248841E+04  6.152277E+04  1.560067E+02
        22  24 -4.528682E+06  2.279242E+03 -3.796362E+04 -4.996005E+03  2.928690E+04  1.243536E+02
        22  25 -4.647015E+06 -9.728067E+04 -1.589243E+05 -3.826901E+03  9.375805E+04 -2.567862E+02
        22  26 -4.638276E+06 -1.394319E+04 -9.175960E+04  1.287737E+04  6.151792E+04  1.560425E+02
        22  27 -4.651256E+06 -2.852086E+04 -6.876263E+04 -5.586788E+03  2.927694E+04  1.243268E+02
        23   1 -4.573363E+06 -2.302356E+04 -4.306449E+04  5.480011E+03 -2.311064E+04  1.520647E+01
        23   2 -4.572274E+06 -9.799409E+03 -2.823180E+04 -8.723363E+02 -1.500856E+04  1.028627E+02
        23   3 -4.574975E+06 -1.232552E+04 -2.239527E+04  5.785898E+03 -6.906593E+03  5.482868E+01
        23   4 -4.524749E+06 -1.080848E+04 -3.084972E+04  5.658137E+03 -2.310826E+04  1.520097E+01
        23   5 -4.522833E+06  2.623218E+03 -1.581030E+04 -8.487966E+02 -1.500886E+04  1.028614E+02
        23   6 -4.524705E+06  3.058503E+02 -9.764667E+03  5.654790E+03 -6.909563E+03  5.483223E+01
        23   7 -4.476134E+06  1.406418E+03 -1.863513E+04  5.836276E+03 -2.310588E+04  1.519547E+01
        23   8 -4.473390E+06  1.504566E+04 -3.388980E+03 -8.252548E+02 -1.500916E+04  1.028602E+02
        23   9 -4.474433E+06  1.293703E+04  2.865747E+03  5.523673E+03 -6.912533E+03  5.483579E+01
        23  10 -4.573363E+06 -2.302370E+04 -4.306550E+04  5.480012E+03  6.244349E-09  1.051838E-08
        23  11 -4.572275E+06 -9.799470E+03 -2.823223E+04 -8.723351E+02  7.508301E-09  1.385354E-08
        23  12 -4.574975E+06 -1.232553E+04 -2.239536E+04  5.785898E+03  2.775054E-10 -3.077313E-08
        23  13 -4.524750E+06 -1.080862E+04 -3.085073E+04  5.658137E+03  8.768164E-09  3.224746E-09
        23  14 -4.522834E+06  2.623157E+03 -1.581073E+04 -8.487953E+02 -2.168296E-09  5.641927E-09
        23  15 -4.524705E+06  3.058374E+02 -9.764758E+03  5.654791E+03 -4.246024E-09  2.204326E-09
        23  16 -4.476135E+06  1.406273E+03 -1.863614E+04  5.836276E+03  3.706229E-09 -1.444862E-09
        23  17 -4.473390E+06  1.504560E+04 -3.389406E+03 -8.252535E+02  9.833729E-10 -1.357079E-08
        23  18 -4.474433E+06  1.293701E+04  2.865656E+03  5.523673E+03  1.907703E-10  3.874594E-08
        23  19 -4.573363E+06 -2.302356E+04 -4.306449E+04  5.480011E+03  2.311064E+04 -1.520647E+01
        23  20 -4.572274E+06 -9.799409E+03 -2.823180E+04 -8.723363E+02  1.500856E+04 -1.028627E+02
        23  21 -4.574975E+06 -1.232552E+04 -2.239527E+04  5.785898E+03  6.906593E+03 -5.482868E+01
        23  22 -4.524749E+06 -1.080848E+04 -3.084972E+04  5.658137E+03  2.310826E+04 -1.520097E+01
        23  23 -4.522833E+06  2.623218E+03 -1.581030E+04 -8.487966E+02  1.500886E+04 -1.028614E+02
        23  24 -4.524705E+06  3.058503E+02 -9.764667E+03  5.654790E+03  6.909563E+03 -5.483223E+01
        23  25 -4.476134E+06  1.406418E+03 -1.863513E+04  5.836276E+03  2.310588E+04 -1.519547E+01
        23  26 -4.473390E+06  1.504566E+04 -3.388980E+03 -8.252548E+02  1.500916E+04 -1.028602E+02
        23  27 -4.474433E+06  1.293703E+04  2.865747E+03  5.523673E+03  6.912533E+03 -5.483579E+01
        24   1 -4.499190E+06  4.535981E+03 -1.704285E+03  1.952270E+03 -5.315621E+03 -7.582767E+00
        24   2 -4.498600E+06  6.772722E+03  1.430260E+03  3.703283E+03 -2.863779E+03 -4.844125E+01
        24   3 -4.498743E+06  6.146652E+03  2.305389E+03  2.010643E+03 -4.118463E+02 -2.114397E+01
        24   4 -4.524034E+06 -1.706316E+03 -7.946362E+03  1.997358E+03 -5.317203E+03 -7.581418E+00
        24   5 -4.523664E+06  4.753530E+02 -4.866478E+03  3.719921E+03 -2.863820E+03 -4.844137E+01
        24   6 -4.524027E+06 -2.061307E+02 -4.047149E+03  1.998823E+03 -4.103478E+02 -2.114458E+01
        24   7 -4.548878E+06 -7.948660E+03 -1.418849E+04  2.042445E+03 -5.318784E+03 -7.580070E+00
        24   8 -4.548727E+06 -5.822064E+03 -1.116326E+04  3.736559E+03 -2.863861E+03 -4.844149E+01
        24   9 -4.549311E+06 -6.558962E+03 -1.039974E+04  1.987003E+03 -4.088494E+02 -2.114519E+01
        24  10 -4.499190E+06  4.535973E+03 -1.704338E+03  1.952269E+03 -2.139226E-06 -1.657586E-07
        24  11 -4.498600E+06  6.772720E+03  1.430245E+03  3.703278E+03 -9.521028E-06 -3.575870E-07
        24  12 -4.498743E+06  6.146653E+03  2.305389E+03  2.010635E+03 -1.694496E-05 -3.278631E-07
        24  13 -4.524034E+06 -1.706324E+03 -7.946416E+03  1.997358E+03 -5.384089E-06  4.743391E-08
        24  14 -4.523664E+06  4.753508E+02 -4.866493E+03  3.719921E+03 -2.388021E-05  1.978766E-07
        24  15 -4.524027E+06 -2.061307E+02 -4.047150E+03  1.998823E+03 -4.238131E-05  3.412575E-07
        24  16 -4.548878E+06 -7.948667E+03 -1.418854E+04  2.042446E+03 -2.166312E-06  1.092485E-07
        24  17 -4.548727E+06 -5.822066E+03 -1.116328E+04  3.736564E+03 -9.577900E-06  8.505157E-08
        24  18 -4.549311E+06 -6.558963E+03 -1.039974E+04  1.987012E+03 -1.696444E-05 -1.719724E-07
        24  19 -4.499190E+06  4.535981E+03 -1.704285E+03  1.952268E+03  5.315621E+03  7.582766E+00
        24  20 -4.498600E+06  6.772723E+03  1.430260E+03  3.703273E+03  2.863779E+03  4.844125E+01
        24  21 -4.498743E+06  6.146653E+03  2.305389E+03  2.010627E+03  4.118462E+02  2.114397E+01
        24  22 -4.524034E+06 -1.706316E+03 -7.946362E+03  1.997358E+03  5.317203E+03  7.581418E+00
        24  23 -4.523664E+06  4.753531E+02 -4.866478E+03  3.719921E+03  2.863820E+03  4.844137E+01
        24  24 -4.524027E+06 -2.061307E+02 -4.047149E+03  1.998823E+03  4.103478E+02  2.114458E+01
        24  25 -4.548878E+06 -7.948660E+03 -1.418849E+04  2.042447E+03  5.318784E+03  7.580070E+00
        24  26 -4.548727E+06 -5.822064E+03 -1.116326E+04  3.736568E+03  2.863861E+03  4.844149E+01
        24  27 -4.549311E+06 -6.558963E+03 -1.039974E+04  1.987020E+03  4.088494E+02  2.114519E+01
        25   1 -4.548440E+06 -6.353281E+03 -1.016752E+04  2.112011E+03  3.147612E+02  1.998517E+01
        25   2 -4.547895E+06 -5.624607E+03 -1.086757E+04  3.579575E+03  2.725992E+03  4.689055E+01
        25   3 -4.548079E+06 -7.687285E+03 -1.378650E+04  2.165548E+03  5.137172E+03  7.977072E+00
        25   4 -4.524026E+06 -2.190258E+02 -4.033491E+03  2.123696E+03  3.162188E+02  1.998459E+01
        25   5 -4.523665E+06  4.633836E+02 -4.780191E+03  3.563806E+03  2.725961E+03  4.689043E+01
        25   6 -4.524033E+06 -1.645232E+03 -7.744663E+03  2.122331E+03  5.135653E+03  7.978335E+00
        25   7 -4.499612E+06  5.915184E+03  2.100488E+03  2.135382E+03  3.176766E+02  1.998400E+01
        25   8 -4.499434E+06  6.551329E+03  1.307146E+03  3.548036E+03  2.725931E+03  4.689032E+01
        25   9 -4.499986E+06  4.396778E+03 -1.702870E+03  2.079113E+03  5.134134E+03  7.979597E+00
        25  10 -4.548440E+06 -6.353280E+03 -1.016752E+04  2.112003E+03 -1.696750E-05 -1.676058E-07
        25  11 -4.547895E+06 -5.624609E+03 -1.086759E+04  3.579570E+03 -9.573216E-06  8.048214E-08
        25  12 -4.548079E+06 -7.687292E+03 -1.378655E+04  2.165547E+03 -2.167382E-06  9.758178E-08
        25  13 -4.524026E+06 -2.190259E+02 -4.033491E+03  2.123696E+03 -4.238092E-05  3.374556E-07
        25  14 -4.523665E+06  4.633815E+02 -4.780205E+03  3.563806E+03 -2.387806E-05  1.954881E-07
        25  15 -4.524033E+06 -1.645239E+03 -7.744713E+03  2.122331E+03 -5.376865E-06  4.942792E-08
        25  16 -4.499612E+06  5.915183E+03  2.100488E+03  2.135390E+03 -1.693348E-05 -3.267999E-07
        25  17 -4.499434E+06  6.551327E+03  1.307132E+03  3.548041E+03 -9.527832E-06 -3.535756E-07
        25  18 -4.499986E+06  4.396770E+03 -1.702920E+03  2.079114E+03 -2.140103E-06 -1.570156E-07
        25  19 -4.548440E+06 -6.353280E+03 -1.016752E+04  2.111995E+03 -3.147613E+02 -1.998517E+01
        25  20 -4.547895E+06 -5.624607E+03 -1.086757E+04  3.579566E+03 -2.725992E+03 -4.689055E+01
        25  21 -4.548079E+06 -7.687285E+03 -1.378650E+04  2.165546E+03 -5.137172E+03 -7.977072E+00
        25  22 -4.524026E+06 -2.190258E+02 -4.033491E+03  2.123696E+03 -3.162189E+02 -1.998458E+01
        25  23 -4.523665E+06  4.633835E+02 -4.780190E+03  3.563806E+03 -2.725961E+03 -4.689043E+01
        25  24 -4.524033E+06 -1.645232E+03 -7.744663E+03  2.122331E+03 -5.135653E+03 -7.978334E+00
        25  25 -4.499612E+06  5.915182E+03  2.100488E+03  2.135398E+03 -3.176766E+02 -1.998400E+01
        25  26 -4.499434E+06  6.551329E+03  1.307146E+03  3.548046E+03 -2.725931E+03 -4.689032E+01
        25  27 -4.499986E+06  4.396778E+03 -1.702870E+03  2.079115E+03 -5.134134E+03 -7.979598E+00
        26   1 -4.477783E+06  1.207793E+04  2.278665E+03  5.287308E+03  6.690466E+03 -5.106300E+01
        26   2 -4.476673E+06  1.413579E+04 -3.760627E+03 -5.236196E+02  1.455607E+04 -9.658475E+01
        26   3 -4.479347E+06  9.573833E+02 -1.854356E+04  5.583861E+03  2.242154E+04 -1.566859E+01
        26   4 -4.524705E+06  2.885693E+02 -9.509985E+03  5.412281E+03  6.687694E+03 -5.105971E+01
        26   5 -4.522833E+06  2.538179E+03 -1.535719E+04 -5.457200E+02  1.455581E+04 -9.658588E+01
        26   6 -4.524746E+06 -1.044957E+04 -2.995024E+04  5.414744E+03  2.242379E+04 -1.567388E+01
        26   7 -4.571625E+06 -1.150096E+04 -2.129880E+04  5.537246E+03  6.684923E+03 -5.105641E+01
        26   8 -4.568992E+06 -9.059595E+03 -2.695392E+04 -5.678186E+02  1.455554E+04 -9.658701E+01
        26   9 -4.570144E+06 -2.185669E+04 -4.135708E+04  5.245641E+03  2.242603E+04 -1.567917E+01
        26  10 -4.477783E+06  1.207792E+04  2.278580E+03  5.287308E+03 -9.841320E-10  3.554475E-08
        26  11 -4.476673E+06  1.413573E+04 -3.761028E+03 -5.236184E+02  5.876677E-09 -8.279697E-09
        26  12 -4.479347E+06  9.572471E+02 -1.854451E+04  5.583861E+03  1.328826E-09 -1.603997E-09
        26  13 -4.524705E+06  2.885571E+02 -9.510070E+03  5.412282E+03 -2.728882E-10  1.946165E-09
        26  14 -4.522833E+06  2.538121E+03 -1.535759E+04 -5.457188E+02 -4.302325E-10  1.049273E-09
        26  15 -4.524747E+06 -1.044971E+04 -2.995119E+04  5.414745E+03  4.937748E-09  3.395394E-09
        26  16 -4.571625E+06 -1.150097E+04 -2.129889E+04  5.537246E+03  5.177354E-09 -2.507760E-08
        26  17 -4.568992E+06 -9.059653E+03 -2.695432E+04 -5.678174E+02  1.794714E-09  1.741319E-09
        26  18 -4.570145E+06 -2.185682E+04 -4.135804E+04  5.245641E+03  4.810546E-09  1.803361E-09
        26  19 -4.477783E+06  1.207793E+04  2.278665E+03  5.287308E+03 -6.690466E+03  5.106300E+01
        26  20 -4.476673E+06  1.413579E+04 -3.760627E+03 -5.236196E+02 -1.455607E+04  9.658475E+01
        26  21 -4.479347E+06  9.573833E+02 -1.854356E+04  5.583861E+03 -2.242154E+04  1.566859E+01
        26  22 -4.524705E+06  2.885692E+02 -9.509985E+03  5.412281E+03 -6.687694E+03  5.105971E+01
        26  23 -4.522833E+06  2.538179E+03 -1.535719E+04 -5.457200E+02 -1.455581E+04  9.658588E+01
        26  24 -4.524746E+06 -1.044957E+04 -2.995024E+04  5.414744E+03 -2.242379E+04  1.567388E+01
        26  25 -4.571625E+06 -1.150096E+04 -2.129880E+04  5.537246E+03 -6.684923E+03  5.105641E+01
        26  26 -4.568992E+06 -9.059595E+03 -2.695392E+04 -5.678186E+02 -1.455554E+04  9.658701E+01
        26  27 -4.570144E+06 -2.185669E+04 -4.135708E+04  5.245641E+03 -2.242603E+04  1.567917E+01
        27   1 -4.642291E+06 -2.635808E+04 -6.543853E+04 -4.972596E+03  2.842313E+04  1.138603E+02
        27   2 -4.629413E+06 -1.221734E+04 -8.770846E+04  1.211394E+04  5.971436E+04  1.445133E+02
        27   3 -4.638385E+06 -9.303649E+04 -1.529857E+05 -3.289114E+03  9.100527E+04 -2.340116E+02
        27   4 -4.528712E+06  2.181542E+03 -3.689988E+04 -4.405306E+03  2.843228E+04  1.138852E+02
        27   5 -4.517896E+06  1.580429E+04 -5.968969E+04  1.174821E+04  5.971869E+04  1.444805E+02
        27   6 -4.528924E+06 -6.552235E+04 -1.254779E+05 -4.587522E+03  9.100467E+04 -2.341675E+02
        27   7 -4.415122E+06  3.072018E+04 -8.362216E+03 -3.837912E+03  2.844144E+04  1.139101E+02
        27   8 -4.406368E+06  4.382497E+04 -3.167186E+04  1.138241E+04  5.972302E+04  1.444478E+02
        27   9 -4.419453E+06 -3.800912E+04 -9.797104E+04 -5.886152E+03  9.100406E+04 -2.343233E+02
        27  10 -4.642292E+06 -2.635830E+04 -6.544006E+04 -4.972598E+03 -2.387740E-09  2.054153E-08
        27  11 -4.629417E+06 -1.221831E+04 -8.771521E+04  1.211393E+04  1.214849E-09  3.435015E-10
        27  12 -4.638394E+06 -9.303873E+04 -1.530014E+05 -3.289097E+03 -1.406207E-09  2.149308E-09
        27  13 -4.528713E+06  2.181323E+03 -3.690141E+04 -4.405309E+03  6.091831E-10  6.132315E-09
        27  14 -4.517900E+06  1.580333E+04 -5.969644E+04  1.174820E+04 -8.893860E-09  2.031513E-09
        27  15 -4.528933E+06 -6.552459E+04 -1.254936E+05 -4.587505E+03  7.489112E-10  1.834450E-09
        27  16 -4.415123E+06  3.071996E+04 -8.363747E+03 -3.837915E+03  1.509483E-10  6.346729E-09
        27  17 -4.406372E+06  4.382401E+04 -3.167861E+04  1.138240E+04 -1.036228E-10  9.329066E-09
        27  18 -4.419462E+06 -3.801136E+04 -9.798671E+04 -5.886135E+03  8.018496E-09 -2.747037E-09
        27  19 -4.642291E+06 -2.635808E+04 -6.543853E+04 -4.972596E+03 -2.842313E+04 -1.138603E+02
        27  20 -4.629413E+06 -1.221734E+04 -8.770846E+04  1.211394E+04 -5.971436E+04 -1.445133E+02
        27  21 -4.638385E+06 -9.303649E+04 -1.529857E+05 -3.289114E+03 -9.100527E+04  2.340116E+02
        27  22 -4.528712E+06  2.181541E+03 -3.689988E+04 -4.405306E+03 -2.843228E+04 -1.138852E+02
        27  23 -4.517896E+06  1.580429E+04 -5.968969E+04  1.174821E+04 -5.971869E+04 -1.444805E+02
        27  24 -4.528924E+06 -6.552235E+04 -1.254779E+05 -4.587522E+03 -9.100467E+04  2.341675E+02
        27  25 -4.415122E+06  3.072018E+04 -8.362216E+03 -3.837912E+03 -2.844144E+04 -1.139101E+02
        27  26 -4.406368E+06  4.382497E+04 -3.167186E+04  1.138241E+04 -5.972302E+04 -1.444478E+02
        27  27 -4.419453E+06 -3.800912E+04 -9.797104E+04 -5.886152E+03 -9.100406E+04  2.343233E+02
        28   1 -4.263838E+06  8.627887E+04 -7.711799E+04  1.777417E+04  1.156902E+05 -5.297106E+02
        28   2 -4.207047E+06  1.695390E+05 -1.612481E+05 -1.900074E+04  2.417806E+05 -1.960201E+02
        28   3 -4.275901E+06 -3.392233E+05 -4.679606E+05  3.169733E+04  3.678774E+05  1.657766E+03
        28   4 -4.551676E+06  1.394828E+04 -1.494341E+05  2.171051E+04  1.156500E+05 -5.289806E+02
        28   5 -4.489389E+06  9.861039E+04 -2.321741E+05 -2.102130E+04  2.417261E+05 -1.967875E+02
        28   6 -4.552823E+06 -4.088985E+05 -5.375612E+05  2.372294E+04  3.678099E+05  1.653291E+03
        28   7 -4.839439E+06 -5.838859E+04 -2.217564E+05  2.564505E+04  1.156097E+05 -5.282508E+02
        28   8 -4.771658E+06  2.767572E+04 -3.031062E+05 -2.304096E+04  2.416717E+05 -1.975549E+02
        28   9 -4.829676E+06 -4.785793E+05 -6.071677E+05  1.575204E+04  3.677424E+05  1.648815E+03
        28  10 -4.263852E+06  8.627525E+04 -7.714331E+04  1.777422E+04 -4.661348E-09  9.248075E-09
        28  11 -4.207110E+06  1.695232E+05 -1.613588E+05 -1.900070E+04 -1.083764E-09  8.681508E-09
        28  12 -4.276047E+06 -3.392600E+05 -4.682167E+05  3.169684E+04  1.684118E-09  5.636439E-09
        28  13 -4.551691E+06  1.394466E+04 -1.494594E+05  2.171056E+04 -2.075728E-09  3.480536E-09
        28  14 -4.489452E+06  9.859456E+04 -2.322847E+05 -2.102126E+04 -4.014386E-09  7.762388E-09
        28  15 -4.552969E+06 -4.089351E+05 -5.378173E+05  2.372245E+04 -4.345019E-09  2.909548E-09
        28  16 -4.839454E+06 -5.839221E+04 -2.217817E+05  2.564510E+04  6.550168E-09  7.494214E-09
        28  17 -4.771721E+06  2.765989E+04 -3.032168E+05 -2.304092E+04  6.743587E-09  5.534618E-09
        28  18 -4.829822E+06 -4.786159E+05 -6.074238E+05  1.575155E+04  2.729240E-09  4.614274E-09
        28  19 -4.263838E+06  8.627887E+04 -7.711799E+04  1.777417E+04 -1.156902E+05  5.297106E+02
        28  20 -4.207047E+06  1.695390E+05 -1.612481E+05 -1.900074E+04 -2.417806E+05  1.960201E+02
        28  21 -4.275901E+06 -3.392233E+05 -4.679606E+05  3.169733E+04 -3.678774E+05 -1.657766E+03
        28  22 -4.551676E+06  1.394828E+04 -1.494341E+05  2.171051E+04 -1.156500E+05  5.289806E+02
        28  23 -4.489389E+06  9.861039E+04 -2.321741E+05 -2.102130E+04 -2.417261E+05  1.967875E+02
        28  24 -4.552823E+06 -4.088985E+05 -5.375612E+05  2.372294E+04 -3.678099E+05 -1.653291E+03
        28  25 -4.839439E+06 -5.838859E+04 -2.217564E+05  2.564505E+04 -1.156097E+05  5.282508E+02
        28  26 -4.771658E+06  2.767572E+04 -3.031062E+05 -2.304096E+04 -2.416717E+05  1.975549E+02
        28  27 -4.829676E+06 -4.785793E+05 -6.071677E+05  1.575204E+04 -3.677424E+05 -1.648815E+03
        29   1  2.936190E+05  2.627496E+04  3.847331E+05 -3.188243E+03 -1.717226E+03  2.622986E+05
        29   2 -7.103274E+04 -3.287625E+04  1.639926E+05 -1.486211E+03 -1.128798E+03  1.725760E+05
        29   3 -9.075365E+03  2.633721E+04  1.083575E+05  2.231258E+03 -5.414141E+02  8.284940E+04
        29   4  2.935545E+05  2.633965E+04  3.847332E+05  1.747363E+03 -1.715140E+03  2.622986E+05
        29   5 -7.104886E+04 -3.285991E+04  1.639926E+05 -2.497256E+02 -1.128455E+03  1.725760E+05
        29   6 -9.043112E+03  2.630516E+04  1.083576E+05 -2.311457E+02 -5.417426E+02  8.284940E+04
        29   7  2.934900E+05  2.640438E+04  3.847332E+05  6.682969E+03 -1.713055E+03  2.622986E+05
        29   8 -7.106498E+04 -3.284358E+04  1.639927E+05  9.867592E+02 -1.128111E+03  1.725760E+05
        29   9 -9.010836E+03  2.627313E+04  1.083576E+05 -2.693549E+03 -5.420713E+02  8.284940E+04
        29  10  2.936005E+05  2.620110E+04  3.846038E+05 -3.187880E+03 -4.650686E-06 -1.908109E-06
        29  11 -7.104077E+04 -3.290823E+04  1.639366E+05 -1.486054E+03 -2.063211E-05 -3.676272E-06
        29  12 -9.077278E+03  2.632982E+04  1.083446E+05  2.231294E+03 -3.658979E-05 -3.143735E-06
        29  13  2.935360E+05  2.626579E+04  3.846039E+05  1.747726E+03  5.813252E-06 -2.997914E-07
        29  14 -7.105686E+04 -3.289189E+04  1.639366E+05 -2.495689E+02  2.583851E-05 -1.330315E-06
        29  15 -9.044955E+03  2.629779E+04  1.083447E+05 -2.311094E+02  4.590013E-05 -2.360075E-06
        29  16  2.934715E+05  2.633053E+04  3.846039E+05  6.683331E+03 -4.685877E-06  1.576650E-06
        29  17 -7.107293E+04 -3.287554E+04  1.639367E+05  9.869157E+02 -2.070239E-05  2.206809E-06
        29  18 -9.012608E+03  2.626578E+04  1.083447E+05 -2.693514E+03 -3.662961E-05  5.367182E-07
        29  19  2.936190E+05  2.627496E+04  3.847331E+05 -3.188243E+03  1.717226E+03 -2.622986E+05
        29  20 -7.103282E+04 -3.287627E+04  1.639925E+05 -1.486211E+03  1.128798E+03 -1.725760E+05
        29  21 -9.075506E+03  2.633717E+04  1.083575E+05  2.231258E+03  5.414140E+02 -8.284940E+04
        29  22  2.935545E+05  2.633965E+04  3.847332E+05  1.747364E+03  1.715140E+03 -2.622986E+05
        29  23 -7.104886E+04 -3.285991E+04  1.639926E+05 -2.497258E+02  1.128455E+03 -1.725760E+05
        29  24 -9.043112E+03  2.630516E+04  1.083576E+05 -2.311455E+02  5.417427E+02 -8.284940E+04
        29  25  2.934900E+05  2.640439E+04  3.847332E+05  6.682969E+03  1.713055E+03 -2.622986E+05
        29  26 -7.106490E+04 -3.284356E+04  1.639927E+05  9.867586E+02  1.128111E+03 -1.725760E+05
        29  27 -9.010695E+03  2.627316E+04  1.083577E+05 -2.693550E+03  5.420713E+02 -8.284940E+04
        30   1  4.612677E+04  4.394628E+03  8.992533E+04 -4.721502E+02 -4.237657E+02  6.479513E+04
        30   2 -1.120300E+04 -5.489241E+03  4.305625E+04 -2.118646E+02 -2.756233E+02  4.214960E+04
        30   3 -1.214602E+03  4.408613E+03  2.776331E+04  3.592700E+02 -1.275238E+02  1.950427E+04
        30   4  4.611707E+04  4.404465E+03  8.992536E+04  2.727657E+02 -4.236878E+02  6.479513E+04
        30   5 -1.120524E+04 -5.486866E+03  4.305628E+04 -3.739400E+01 -2.756113E+02  4.214960E+04
        30   6 -1.209389E+03  4.403527E+03  2.776333E+04 -3.670289E+01 -1.275362E+02  1.950427E+04
        30   7  4.610737E+04  4.414303E+03  8.992538E+04  1.017682E+03 -4.236102E+02  6.479513E+04
        30   8 -1.120748E+04 -5.484490E+03  4.305631E+04  1.370767E+02 -2.755996E+02  4.214960E+04
        30   9 -1.204176E+03  4.398440E+03  2.776336E+04 -4.326757E+02 -1.275487E+02  1.950427E+04
        30  10  4.612556E+04  4.390101E+03  8.991742E+04 -4.721280E+02 -3.868518E-05 -5.824224E-07
        30  11 -1.120353E+04 -5.491163E+03  4.305290E+04 -2.118550E+02 -2.987829E-05  4.848046E-07
        30  12 -1.214744E+03  4.408194E+03  2.776258E+04  3.592722E+02 -2.106298E-05  6.199915E-07
        30  13  4.611594E+04  4.399957E+03  8.991747E+04  2.727878E+02  4.851481E-05 -2.507126E-06
        30  14 -1.120572E+04 -5.488774E+03  4.305294E+04 -3.738461E+01  3.738446E-05 -1.983375E-06
        30  15 -1.209491E+03  4.403118E+03  2.776262E+04 -3.670088E+01  2.626099E-05 -1.459478E-06
        30  16  4.610632E+04  4.409813E+03  8.991751E+04  1.017704E+03 -3.867491E-05 -2.182888E-06
        30  17 -1.120790E+04 -5.486384E+03  4.305298E+04  1.370860E+02 -2.983963E-05 -2.657612E-06
        30  18 -1.204238E+03  4.398042E+03  2.776266E+04 -4.326737E+02 -2.103039E-05 -2.200243E-06
        30  19  4.612662E+04  4.394591E+03  8.992529E+04 -4.721499E+02  4.237656E+02 -6.479513E+04
        30  20 -1.120311E+04 -5.489270E+03  4.305623E+04 -2.118641E+02  2.756232E+02 -4.214960E+04
        30  21 -1.214682E+03  4.408593E+03  2.776329E+04  3.592704E+02  1.275238E+02 -1.950427E+04
        30  22  4.611707E+04  4.404465E+03  8.992536E+04  2.727656E+02  4.236879E+02 -6.479513E+04
        30  23 -1.120524E+04 -5.486866E+03  4.305628E+04 -3.739393E+01  2.756114E+02 -4.214960E+04
        30  24 -1.209389E+03  4.403527E+03  2.776333E+04 -3.670287E+01  1.275362E+02 -1.950427E+04
        30  25  4.610752E+04  4.414340E+03  8.992542E+04  1.017681E+03  4.236101E+02 -6.479513E+04
        30  26 -1.120737E+04 -5.484462E+03  4.305634E+04  1.370766E+02  2.755995E+02 -4.214960E+04
        30  27 -1.204095E+03  4.398460E+03  2.776338E+04 -4.326757E+02  1.275486E+02 -1.950427E+04
        31   1  7.189416E+03  8.817292E+02  2.289696E+04 -7.723622E+01 -9.744018E+01  1.490121E+04
        31   2 -2.010975E+03 -1.083894E+03  1.351293E+04 -2.617906E+01 -5.218049E+01  7.979984E+03
        31   3  9.186133E+02  8.846828E+02  1.166772E+04  7.847300E+01 -6.923878E+00  1.058885E+03
        31   4  7.187883E+03  8.833089E+02  2.289697E+04  4.122734E+01 -9.743730E+01  1.490121E+04
        31   5 -2.011223E+03 -1.083601E+03  1.351294E+04 -6.066522E+00 -5.218020E+01  7.979984E+03
        31   6  9.196490E+02  8.836887E+02  1.166773E+04  2.358788E-01 -6.923989E+00  1.058885E+03
        31   7  7.186351E+03  8.848887E+02  2.289698E+04  1.596909E+02 -9.743450E+01  1.490121E+04
        31   8 -2.011472E+03 -1.083308E+03  1.351295E+04  1.404604E+01 -5.217997E+01  7.979984E+03
        31   9  9.206848E+02  8.826946E+02  1.166774E+04 -7.800122E+01 -6.924145E+00  1.058885E+03
        31  10  7.189323E+03  8.814824E+02  2.289653E+04 -7.723491E+01 -1.739354E-05 -5.883993E-08
        31  11 -2.011018E+03 -1.083969E+03  1.351280E+04 -2.617863E+01 -1.370011E-05 -1.402283E-07
        31  12  9.185936E+02  8.846768E+02  1.166771E+04  7.847323E+01 -1.013861E-05  9.025401E-07
        31  13  7.187824E+03  8.830705E+02  2.289655E+04  4.122852E+01  2.171436E-05 -1.239474E-06
        31  14 -2.011240E+03 -1.083669E+03  1.351282E+04 -6.066211E+00  1.718138E-05 -1.007591E-06
        31  15  9.196487E+02  8.836875E+02  1.166773E+04  2.360075E-01  1.253828E-05 -7.765229E-07
        31  16  7.186324E+03  8.846586E+02  2.289657E+04  1.596920E+02 -1.738217E-05 -1.273765E-06
        31  17 -2.011462E+03 -1.083370E+03  1.351283E+04  1.404629E+01 -1.369140E-05 -9.349666E-07
        31  18  9.207038E+02  8.826982E+02  1.166774E+04 -7.800113E+01 -1.010259E-05 -1.721660E-06
        31  19  7.189349E+03  8.817125E+02  2.289694E+04 -7.723594E+01  9.744015E+01 -1.490121E+04
        31  20 -2.011028E+03 -1.083907E+03  1.351292E+04 -2.617888E+01  5.218046E+01 -7.979984E+03
        31  21  9.185746E+02  8.846732E+02  1.166771E+04  7.847344E+01  6.923858E+00 -1.058885E+03
        31  22  7.187883E+03  8.833089E+02  2.289697E+04  4.122736E+01  9.743734E+01 -1.490121E+04
        31  23 -2.011223E+03 -1.083601E+03  1.351294E+04 -6.066570E+00  5.218023E+01 -7.979984E+03
        31  24  9.196490E+02  8.836887E+02  1.166773E+04  2.361243E-01  6.924014E+00 -1.058885E+03
        31  25  7.186417E+03  8.849054E+02  2.289699E+04  1.596908E+02  9.743446E+01 -1.490121E+04
        31  26 -2.011419E+03 -1.083295E+03  1.351296E+04  1.404588E+01  5.217994E+01 -7.979984E+03
        31  27  9.207235E+02  8.827042E+02  1.166775E+04 -7.800105E+01  6.924125E+00 -1.058885E+03
        32   1 -1.013520E+07 -3.155168E+06 -2.058720E+06 -3.521944E+06 -1.100355E+06 -4.064869E+05
        32   2 -9.894507E+06 -1.591471E+06 -1.051004E+06 -3.818646E+06 -7.121667E+05 -2.297281E+05
        32   3 -1.035404E+07 -1.623829E+06 -7.895954E+05 -3.652625E+06 -3.144704E+05 -7.796840E+04
        32   4 -9.141270E+06 -2.465675E+06 -1.721727E+06 -2.938964E+06 -1.087508E+06 -4.022641E+05
        32   5 -8.699416E+06 -1.050330E+06 -7.101502E+05 -3.405171E+06 -7.082816E+05 -2.283742E+05
        32   6 -8.954940E+06 -1.227541E+06 -4.367554E+05 -3.409053E+06 -3.194155E+05 -7.976706E+04
        32   7 -8.146129E+06 -1.775204E+06 -1.384813E+06 -2.354899E+06 -1.074638E+06 -3.980152E+05
        32   8 -7.502899E+06 -5.089205E+05 -3.694349E+05 -2.990901E+06 -7.043869E+05 -2.270150E+05
        32   9 -7.553890E+06 -8.312996E+05 -8.405536E+04 -3.165072E+06 -3.243723E+05 -8.156755E+04
        32  10 -1.013656E+07 -3.155681E+06 -2.061354E+06 -3.522309E+06  4.232737E-09  1.322315E-10
        32  11 -9.895074E+06 -1.591668E+06 -1.052076E+06 -3.818779E+06  3.559585E-09 -5.938761E-10
        32  12 -1.035415E+07 -1.623863E+06 -7.897964E+05 -3.652645E+06  3.209853E-09 -1.550610E-09
        32  13 -9.142601E+06 -2.466175E+06 -1.724296E+06 -2.939321E+06  5.874301E-09 -2.011923E-11
        32  14 -8.699975E+06 -1.050524E+06 -7.112082E+05 -3.405302E+06 -4.952513E-09  3.989533E-12
        32  15 -8.955052E+06 -1.227575E+06 -4.369625E+05 -3.409074E+06  2.241503E-09 -1.299172E-09
        32  16 -8.147426E+06 -1.775691E+06 -1.387317E+06 -2.355246E+06  7.952985E-10 -6.382771E-10
        32  17 -7.503451E+06 -5.091121E+05 -3.704789E+05 -2.991031E+06  4.843083E-09 -1.101993E-09
        32  18 -7.554006E+06 -8.313356E+05 -8.426858E+04 -3.165094E+06 -1.882307E-09 -3.822648E-10
        32  19 -1.013520E+07 -3.155168E+06 -2.058720E+06 -3.521944E+06  1.100355E+06  4.064869E+05
        32  20 -9.894507E+06 -1.591471E+06 -1.051004E+06 -3.818646E+06  7.121667E+05  2.297281E+05
        32  21 -1.035404E+07 -1.623829E+06 -7.895954E+05 -3.652625E+06  3.144704E+05  7.796840E+04
        32  22 -9.141270E+06 -2.465675E+06 -1.721727E+06 -2.938964E+06  1.087508E+06  4.022641E+05
        32  23 -8.699416E+06 -1.050330E+06 -7.101502E+05 -3.405171E+06  7.082816E+05  2.283742E+05
        32  24 -8.954940E+06 -1.227541E+06 -4.367554E+05 -3.409053E+06  3.194155E+05  7.976706E+04
        32  25 -8.146129E+06 -1.775204E+06 -1.384813E+06 -2.354899E+06  1.074638E+06  3.980152E+05
        32  26 -7.502899E+06 -5.089205E+05 -3.694349E+05 -2.990901E+06  7.043869E+05  2.270150E+05
        32  27 -7.553890E+06 -8.312996E+05 -8.405536E+04 -3.165072E+06  3.243723E+05  8.156755E+04
        33   1 -1.015834E+07 -1.949995E+06 -7.101587E+05 -3.700380E+06 -2.563350E+05 -5.949304E+04
        33   2 -1.009727E+07 -1.720915E+06 -5.078823E+05 -3.703713E+06 -1.681907E+05 -2.435333E+04
        33   3 -1.009061E+07 -1.724409E+06 -4.270983E+05 -3.689865E+06 -7.844478E+04  6.569596E+03
        33   4 -8.886559E+06 -1.429501E+06 -3.570895E+05 -3.316606E+06 -2.553365E+05 -5.913825E+04
        33   5 -8.848089E+06 -1.236730E+06 -1.671253E+05 -3.354006E+06 -1.686072E+05 -2.451924E+04
        33   6 -8.863581E+06 -1.275984E+06 -9.732256E+04 -3.374262E+06 -8.028135E+04  5.875859E+03
        33   7 -7.613189E+06 -9.088393E+05 -4.173195E+03 -2.932084E+06 -2.543351E+05 -5.878222E+04
        33   8 -7.597384E+06 -7.524336E+05  1.734891E+05 -3.003645E+06 -1.690243E+05 -2.468538E+04
        33   9 -7.635081E+06 -8.274976E+05  2.323206E+05 -3.058096E+06 -8.212186E+04  5.180778E+03
        33  10 -1.015841E+07 -1.950017E+06 -7.102913E+05 -3.700392E+06 -2.813965E-10 -2.554232E-09
        33  11 -1.009730E+07 -1.720923E+06 -5.079376E+05 -3.703716E+06  2.586933E-09 -2.041762E-09
        33  12 -1.009061E+07 -1.724411E+06 -4.271101E+05 -3.689865E+06 -3.794295E-09  1.983178E-09
        33  13 -8.886631E+06 -1.429523E+06 -3.572207E+05 -3.316619E+06  1.838472E-09 -1.766676E-09
        33  14 -8.848120E+06 -1.236738E+06 -1.671807E+05 -3.354009E+06 -5.623594E-09 -2.099053E-09
        33  15 -8.863588E+06 -1.275986E+06 -9.733489E+04 -3.374262E+06 -8.867517E-09 -1.041069E-09
        33  16 -7.613261E+06 -9.088607E+05 -4.303029E+03 -2.932096E+06 -2.134658E-09 -1.052275E-09
        33  17 -7.597415E+06 -7.524421E+05  1.734335E+05 -3.003648E+06 -4.372113E-09 -1.462232E-10
        33  18 -7.635089E+06 -8.274995E+05  2.323078E+05 -3.058096E+06 -3.305715E-10  3.171159E-09
        33  19 -1.015834E+07 -1.949995E+06 -7.101587E+05 -3.700380E+06  2.563350E+05  5.949304E+04
        33  20 -1.009727E+07 -1.720915E+06 -5.078823E+05 -3.703713E+06  1.681907E+05  2.435333E+04
        33  21 -1.009061E+07 -1.724409E+06 -4.270983E+05 -3.689865E+06  7.844478E+04 -6.569596E+03
        33  22 -8.886559E+06 -1.429501E+06 -3.570895E+05 -3.316606E+06  2.553365E+05  5.913825E+04
        33  23 -8.848089E+06 -1.236730E+06 -1.671253E+05 -3.354006E+06  1.686072E+05  2.451924E+04
        33  24 -8.863581E+06 -1.275984E+06 -9.732256E+04 -3.374262E+06  8.028135E+04 -5.875859E+03
        33  25 -7.613189E+06 -9.088393E+05 -4.173195E+03 -2.932084E+06  2.543351E+05  5.878222E+04
        33  26 -7.597384E+06 -7.524336E+05  1.734891E+05 -3.003645E+06  1.690243E+05  2.468538E+04
        33  27 -7.635081E+06 -8.274976E+05  2.323206E+05 -3.058096E+06  8.212186E+04 -5.180778E+03
        34   1 -9.898759E+06 -1.714344E+06 -3.631268E+05 -3.664223E+06 -6.424003E+04  9.296136E+03
        34   2 -9.821073E+06 -1.604722E+06 -2.942603E+05 -3.589372E+06 -4.246327E+04  1.323326E+04
        34   3 -9.670891E+06 -1.602694E+06 -2.471202E+05 -3.602929E+06 -2.009877E+04  1.557685E+04
        34   4 -8.844410E+06 -1.310760E+06 -7.667954E+04 -3.374165E+06 -6.540699E+04  8.853328E+03
        34   5 -8.879261E+06 -1.247391E+06 -3.888201E+04 -3.333540E+06 -4.419649E+04  1.258070E+04
        34   6 -8.841499E+06 -1.291466E+06 -2.232470E+04 -3.381320E+06 -2.240283E+04  1.471394E+04
        34   7 -7.788973E+06 -9.071055E+05  2.096669E+05 -3.083652E+06 -6.657608E+04  8.409706E+03
        34   8 -7.936582E+06 -8.900082E+05  2.164158E+05 -3.077350E+06 -4.593260E+04  1.192706E+04
        34   9 -8.011436E+06 -9.802011E+05  2.024083E+05 -3.159441E+06 -2.471031E+04  1.384977E+04
        34  10 -9.898763E+06 -1.714345E+06 -3.631349E+05 -3.664223E+06  8.032414E-10  3.070334E-09
        34  11 -9.821075E+06 -1.604722E+06 -2.942640E+05 -3.589371E+06 -4.387428E-10 -2.676622E-10
        34  12 -9.670892E+06 -1.602694E+06 -2.471214E+05 -3.602929E+06 -1.303440E-10 -2.100135E-10
        34  13 -8.844415E+06 -1.310762E+06 -7.668783E+04 -3.374165E+06 -7.384297E-10 -5.504029E-10
        34  14 -8.879263E+06 -1.247392E+06 -3.888601E+04 -3.333539E+06 -3.240013E-10 -2.212453E-09
        34  15 -8.841500E+06 -1.291466E+06 -2.232605E+04 -3.381320E+06 -4.742890E-09  2.087639E-10
        34  16 -7.788978E+06 -9.071067E+05  2.096584E+05 -3.083651E+06 -5.714934E-09 -2.832855E-11
        34  17 -7.936585E+06 -8.900090E+05  2.164116E+05 -3.077350E+06 -8.575141E-10 -1.317776E-09
        34  18 -8.011437E+06 -9.802014E+05  2.024068E+05 -3.159440E+06 -2.451878E-09  2.141707E-09
        34  19 -9.898759E+06 -1.714344E+06 -3.631268E+05 -3.664223E+06  6.424003E+04 -9.296136E+03
        34  20 -9.821073E+06 -1.604722E+06 -2.942603E+05 -3.589372E+06  4.246327E+04 -1.323326E+04
        34  21 -9.670891E+06 -1.602694E+06 -2.471202E+05 -3.602929E+06  2.009877E+04 -1.557685E+04
        34  22 -8.844410E+06 -1.310760E+06 -7.667954E+04 -3.374165E+06  6.540699E+04 -8.853328E+03
        34  23 -8.879261E+06 -1.247391E+06 -3.888201E+04 -3.333540E+06  4.419649E+04 -1.258070E+04
        34  24 -8.841499E+06 -1.291466E+06 -2.232470E+04 -3.381320E+06  2.240283E+04 -1.471394E+04
        34  25 -7.788973E+06 -9.071055E+05  2.096669E+05 -3.083652E+06  6.657608E+04 -8.409706E+03
        34  26 -7.936582E+06 -8.900082E+05  2.164158E+05 -3.077350E+06  4.593260E+04 -1.192706E+04
        34  27 -8.011436E+06 -9.802011E+05  2.024083E+05 -3.159441E+06  2.471031E+04 -1.384977E+04
        35   1 -9.386086E+06 -1.510304E+06 -1.667823E+05 -3.537347E+06 -1.565340E+04  1.324746E+04
        35   2 -9.282887E+06 -1.389870E+06 -1.168105E+05 -3.428919E+06 -7.942618E+03  9.169700E+03
        35   3 -9.067341E+06 -1.387054E+06 -7.182013E+04 -3.451318E+06 -2.088442E+01  4.508857E+03
        35   4 -8.833646E+06 -1.301399E+06 -1.763674E+04 -3.387827E+06 -1.785248E+04  1.242565E+04
        35   5 -8.889642E+06 -1.241438E+06 -1.036147E+04 -3.322841E+06 -1.035695E+04  8.269039E+03
        35   6 -8.833278E+06 -1.299047E+06 -7.890402E+03 -3.388687E+06 -2.652161E+03  3.529043E+03
        35   7 -8.280905E+06 -1.092474E+06  1.314820E+05 -3.238184E+06 -2.005374E+04  1.160303E+04
        35   8 -8.496245E+06 -1.092997E+06  9.607352E+04 -3.216702E+06 -1.277299E+04  7.367744E+03
        35   9 -8.599164E+06 -1.211037E+06  5.603395E+04 -3.326035E+06 -5.284528E+03  2.548826E+03
        35  10 -9.386086E+06 -1.510304E+06 -1.667831E+05 -3.537347E+06  1.409734E-09  7.423201E-10
        35  11 -9.282888E+06 -1.389870E+06 -1.168108E+05 -3.428919E+06  9.287471E-11 -4.087658E-10
        35  12 -9.067341E+06 -1.387054E+06 -7.182016E+04 -3.451318E+06 -9.408239E-10 -8.527699E-10
        35  13 -8.833646E+06 -1.301399E+06 -1.763763E+04 -3.387827E+06  1.265677E-09  4.298799E-10
        35  14 -8.889642E+06 -1.241438E+06 -1.036180E+04 -3.322841E+06 -1.702326E-09 -2.788771E-10
        35  15 -8.833278E+06 -1.299047E+06 -7.890439E+03 -3.388687E+06  3.760977E-09  8.739631E-10
        35  16 -8.280905E+06 -1.092475E+06  1.314810E+05 -3.238184E+06 -3.015202E-09 -9.146957E-10
        35  17 -8.496246E+06 -1.092998E+06  9.607311E+04 -3.216702E+06  2.394293E-09 -2.316725E-09
        35  18 -8.599164E+06 -1.211037E+06  5.603388E+04 -3.326035E+06  1.443407E-09 -1.513688E-09
        35  19 -9.386086E+06 -1.510304E+06 -1.667823E+05 -3.537347E+06  1.565340E+04 -1.324746E+04
        35  20 -9.282887E+06 -1.389870E+06 -1.168105E+05 -3.428919E+06  7.942618E+03 -9.169700E+03
        35  21 -9.067341E+06 -1.387054E+06 -7.182013E+04 -3.451318E+06  2.088442E+01 -4.508857E+03
        35  22 -8.833646E+06 -1.301399E+06 -1.763674E+04 -3.387827E+06  1.785248E+04 -1.242565E+04
        35  23 -8.889642E+06 -1.241438E+06 -1.036147E+04 -3.322841E+06  1.035695E+04 -8.269039E+03
        35  24 -8.833278E+06 -1.299047E+06 -7.890402E+03 -3.388687E+06  2.652161E+03 -3.529043E+03
        35  25 -8.280905E+06 -1.092474E+06  1.314820E+05 -3.238184E+06  2.005374E+04 -1.160303E+04
        35  26 -8.496245E+06 -1.092997E+06  9.607352E+04 -3.216702E+06  1.277299E+04 -7.367744E+03
        35  27 -8.599164E+06 -1.211037E+06  5.603395E+04 -3.326035E+06  5.284528E+03 -2.548826E+03
        36   1 -8.741614E+06 -1.265764E+06  1.749745E+04 -3.365368E+06  2.773111E+03  8.831535E+02
        36   2 -8.635596E+06 -1.144373E+06  5.981562E+04 -3.252995E+06  9.762243E+03 -4.223862E+03
        36   3 -8.413851E+06 -1.143363E+06  9.797154E+04 -3.275449E+06  1.661241E+04 -8.938981E+03
        36   4 -8.832553E+06 -1.299856E+06 -7.699161E+03 -3.389506E+06  1.439222E+02 -9.563617E+01
        36   5 -8.890530E+06 -1.240553E+06 -9.159639E+03 -3.321754E+06  7.278518E+03 -5.149604E+03
        36   6 -8.832831E+06 -1.301666E+06 -1.489781E+04 -3.388843E+06  1.427278E+04 -9.811989E+03
        36   7 -8.923484E+06 -1.333947E+06 -3.289658E+04 -3.413642E+06 -2.484844E+03 -1.074272E+03
        36   8 -9.145401E+06 -1.336730E+06 -7.814107E+04 -3.390487E+06  4.795916E+03 -6.074927E+03
        36   9 -9.251642E+06 -1.459961E+06 -1.277837E+05 -3.502167E+06  1.193490E+04 -1.068435E+04
        36  10 -8.741614E+06 -1.265764E+06  1.749743E+04 -3.365368E+06  4.067639E-10  2.084591E-09
        36  11 -8.635596E+06 -1.144373E+06  5.981541E+04 -3.252995E+06  3.308793E-11 -1.679734E-10
        36  12 -8.413851E+06 -1.143363E+06  9.797087E+04 -3.275449E+06 -3.648573E-09 -2.273076E-09
        36  13 -8.832553E+06 -1.299856E+06 -7.699161E+03 -3.389506E+06 -4.251635E-10  1.073277E-09
        36  14 -8.890530E+06 -1.240553E+06 -9.159789E+03 -3.321754E+06 -8.454536E-09 -3.656677E-10
        36  15 -8.832831E+06 -1.301666E+06 -1.489838E+04 -3.388843E+06 -5.773069E-09 -9.129271E-10
        36  16 -8.923484E+06 -1.333947E+06 -3.289660E+04 -3.413642E+06  7.060742E-10  1.882118E-10
        36  17 -9.145401E+06 -1.336730E+06 -7.814119E+04 -3.390487E+06 -1.417295E-09 -6.802344E-10
        36  18 -9.251642E+06 -1.459961E+06 -1.277842E+05 -3.502167E+06  1.779763E-12 -1.487698E-11
        36  19 -8.741614E+06 -1.265764E+06  1.749745E+04 -3.365368E+06 -2.773111E+03 -8.831535E+02
        36  20 -8.635596E+06 -1.144373E+06  5.981562E+04 -3.252995E+06 -9.762243E+03  4.223862E+03
        36  21 -8.413851E+06 -1.143363E+06  9.797154E+04 -3.275449E+06 -1.661241E+04  8.938981E+03
        36  22 -8.832553E+06 -1.299856E+06 -7.699161E+03 -3.389506E+06 -1.439222E+02  9.563617E+01
        36  23 -8.890530E+06 -1.240553E+06 -9.159639E+03 -3.321754E+06 -7.278518E+03  5.149604E+03
        36  24 -8.832831E+06 -1.301666E+06 -1.489781E+04 -3.388843E+06 -1.427278E+04  9.811989E+03
        36  25 -8.923484E+06 -1.333947E+06 -3.289658E+04 -3.413642E+06  2.484844E+03  1.074272E+03
        36  26 -9.145401E+06 -1.336730E+06 -7.814107E+04 -3.390487E+06 -4.795916E+03  6.074927E+03
        36  27 -9.251642E+06 -1.459961E+06 -1.277837E+05 -3.502167E+06 -1.193490E+04  1.068435E+04
        37   1 -8.126437E+06 -1.026297E+06  1.744171E+05 -3.193099E+06  2.082545E+04 -1.159912E+04
        37   2 -8.043491E+06 -9.278283E+05  1.948550E+05 -3.102966E+06  3.885285E+04 -1.137398E+04
        37   3 -7.877231E+06 -9.414006E+05  1.981081E+05 -3.112875E+06  5.635682E+04 -9.702801E+03
        37   4 -8.839257E+06 -1.293522E+06 -1.867712E+04 -3.383513E+06  1.838565E+04 -1.251114E+04
        37   5 -8.882054E+06 -1.245432E+06 -3.219709E+04 -3.330525E+06  3.693606E+04 -1.209363E+04
        37   6 -8.841665E+06 -1.309518E+06 -6.333919E+04 -3.377591E+06  5.495914E+04 -1.023059E+04
        37   7 -9.551577E+06 -1.560717E+06 -2.118158E+05 -3.573727E+06  1.594898E+04 -1.342202E+04
        37   8 -9.719926E+06 -1.562993E+06 -2.593117E+05 -3.557801E+06  3.502213E+04 -1.281221E+04
        37   9 -9.805189E+06 -1.677576E+06 -3.248703E+05 -3.641929E+06  5.356382E+04 -1.075748E+04
        37  10 -8.126437E+06 -1.026298E+06  1.744160E+05 -3.193099E+06 -1.562316E-09 -4.832421E-09
        37  11 -8.043493E+06 -9.278288E+05  1.948519E+05 -3.102966E+06 -5.716165E-09 -8.361229E-11
        37  12 -7.877234E+06 -9.414016E+05  1.981019E+05 -3.112874E+06 -1.510368E-09 -1.330581E-09
        37  13 -8.839257E+06 -1.293522E+06 -1.867805E+04 -3.383513E+06 -4.132550E-09 -2.341234E-09
        37  14 -8.882055E+06 -1.245433E+06 -3.219995E+04 -3.330525E+06 -8.925999E-09 -6.294205E-09
        37  15 -8.841668E+06 -1.309519E+06 -6.334513E+04 -3.377591E+06 -8.837751E-09 -6.129048E-09
        37  16 -9.551577E+06 -1.560718E+06 -2.118166E+05 -3.573726E+06  1.838344E-09  2.012360E-10
        37  17 -9.719928E+06 -1.562994E+06 -2.593143E+05 -3.557800E+06  3.915790E-09 -2.686811E-09
        37  18 -9.805192E+06 -1.677577E+06 -3.248760E+05 -3.641929E+06 -2.283724E-09  1.125834E-09
        37  19 -8.126437E+06 -1.026297E+06  1.744171E+05 -3.193099E+06 -2.082545E+04  1.159912E+04
        37  20 -8.043491E+06 -9.278283E+05  1.948550E+05 -3.102966E+06 -3.885285E+04  1.137398E+04
        37  21 -7.877231E+06 -9.414006E+05  1.981081E+05 -3.112875E+06 -5.635682E+04  9.702801E+03
        37  22 -8.839257E+06 -1.293522E+06 -1.867712E+04 -3.383513E+06 -1.838565E+04  1.251114E+04
        37  23 -8.882054E+06 -1.245432E+06 -3.219709E+04 -3.330525E+06 -3.693606E+04  1.209363E+04
        37  24 -8.841665E+06 -1.309518E+06 -6.333919E+04 -3.377591E+06 -5.495914E+04  1.023059E+04
        37  25 -9.551577E+06 -1.560717E+06 -2.118158E+05 -3.573727E+06 -1.594898E+04  1.342202E+04
        37  26 -9.719926E+06 -1.562993E+06 -2.593117E+05 -3.557801E+06 -3.502213E+04  1.281221E+04
        37  27 -9.805189E+06 -1.677576E+06 -3.248703E+05 -3.641929E+06 -5.356382E+04  1.075748E+04
        38   1 -7.693487E+06 -8.524500E+05  2.327465E+05 -3.074626E+06  6.963504E+04 -7.799011E+03
        38   2 -7.646654E+06 -7.722211E+05  1.908020E+05 -3.012630E+06  1.414879E+05  1.554696E+04
        38   3 -7.625640E+06 -9.007157E+05  5.113468E+04 -2.956912E+06  2.117516E+05  4.314538E+04
        38   4 -8.858646E+06 -1.279515E+06 -8.031270E+04 -3.376172E+06  6.754402E+04 -8.587173E+03
        38   5 -8.854980E+06 -1.238302E+06 -1.379167E+05 -3.349277E+06  1.408635E+05  1.530431E+04
        38   6 -8.877566E+06 -1.406328E+06 -2.945721E+05 -3.328642E+06  2.125867E+05  4.344361E+04
        38   7 -1.002248E+07 -1.706523E+06 -3.934929E+05 -3.677210E+06  6.545727E+04 -9.373858E+03
        38   8 -1.006188E+07 -1.704282E+06 -4.667686E+05 -3.685319E+06  1.402403E+05  1.506209E+04
        38   9 -1.012796E+07 -1.911791E+06 -6.404252E+05 -3.699663E+06  2.134196E+05  4.374086E+04
        38  10 -7.693492E+06 -8.524513E+05  2.327372E+05 -3.074626E+06 -3.819311E-09  2.576301E-09
        38  11 -7.646676E+06 -7.722268E+05  1.907634E+05 -3.012631E+06 -5.097389E-09  3.662958E-09
        38  12 -7.625689E+06 -9.007299E+05  5.104571E+04 -2.956920E+06  4.348340E-09  2.826520E-09
        38  13 -8.858651E+06 -1.279516E+06 -8.032151E+04 -3.376172E+06 -6.692549E-10 -3.940154E-09
        38  14 -8.855001E+06 -1.238307E+06 -1.379550E+05 -3.349279E+06 -5.674647E-09 -1.999561E-09
        38  15 -8.877615E+06 -1.406343E+06 -2.946620E+05 -3.328649E+06  1.284214E-10 -1.566276E-09
        38  16 -1.002249E+07 -1.706524E+06 -3.935012E+05 -3.677209E+06 -3.134605E-09  1.503033E-09
        38  17 -1.006190E+07 -1.704288E+06 -4.668067E+05 -3.685320E+06 -6.278032E-09  1.024856E-09
        38  18 -1.012801E+07 -1.911805E+06 -6.405160E+05 -3.699670E+06 -6.430762E-09 -2.383506E-09
        38  19 -7.693487E+06 -8.524500E+05  2.327465E+05 -3.074626E+06 -6.963504E+04  7.799011E+03
        38  20 -7.646654E+06 -7.722211E+05  1.908020E+05 -3.012630E+06 -1.414879E+05 -1.554696E+04
        38  21 -7.625640E+06 -9.007157E+05  5.113468E+04 -2.956912E+06 -2.117516E+05 -4.314538E+04
        38  22 -8.858646E+06 -1.279515E+06 -8.031270E+04 -3.376172E+06 -6.754402E+04  8.587173E+03
        38  23 -8.854980E+06 -1.238302E+06 -1.379167E+05 -3.349277E+06 -1.408635E+05 -1.530431E+04
        38  24 -8.877566E+06 -1.406328E+06 -2.945721E+05 -3.328642E+06 -2.125867E+05 -4.344361E+04
        38  25 -1.002248E+07 -1.706523E+06 -3.934929E+05 -3.677210E+06 -6.545727E+04  9.373858E+03
        38  26 -1.006188E+07 -1.704282E+06 -4.667686E+05 -3.685319E+06 -1.402403E+05 -1.506209E+04
        38  27 -1.012796E+07 -1.911791E+06 -6.404252E+05 -3.699663E+06 -2.134196E+05 -4.374086E+04
        39   1 -7.543411E+06 -8.205217E+05 -5.107375E+03 -3.136598E+06  2.713423E+05  6.120537E+04
        39   2 -7.494855E+06 -5.467935E+05 -2.379441E+05 -2.985353E+06  5.830891E+05  1.794116E+05
        39   3 -8.009483E+06 -1.590977E+06 -1.071103E+06 -2.462223E+06  8.847291E+05  3.241656E+05
        39   4 -8.936251E+06 -1.237359E+06 -3.602716E+05 -3.402164E+06  2.659274E+05  5.920740E+04
        39   5 -8.729784E+06 -1.087433E+06 -5.860110E+05 -3.394711E+06  5.870362E+05  1.808255E+05
        39   6 -9.089517E+06 -2.259074E+06 -1.420507E+06 -3.014990E+06  8.981110E+05  3.288154E+05
        39   7 -1.032718E+07 -1.654229E+06 -7.155815E+05 -3.667262E+06  2.605255E+05  5.721192E+04
        39   8 -9.963201E+06 -1.627833E+06 -9.342239E+05 -3.803271E+06  5.909735E+05  1.822343E+05
        39   9 -1.016824E+07 -2.926384E+06 -1.770018E+06 -3.566685E+06  9.114659E+05  3.334405E+05
        39  10 -7.543491E+06 -8.205459E+05 -5.254811E+03 -3.136612E+06  2.804189E-09 -1.767616E-09
        39  11 -7.495233E+06 -5.469214E+05 -2.386534E+05 -2.985438E+06 -5.510045E-09 -4.617102E-10
        39  12 -8.010362E+06 -1.591305E+06 -1.072796E+06 -2.462455E+06  8.600593E-10 -1.322580E-09
        39  13 -8.936329E+06 -1.237382E+06 -3.604133E+05 -3.402176E+06 -4.635823E-09 -3.198098E-10
        39  14 -8.730167E+06 -1.087563E+06 -5.867318E+05 -3.394798E+06 -5.900820E-09 -3.077014E-09
        39  15 -9.090424E+06 -2.259413E+06 -1.422255E+06 -3.015231E+06  1.802916E-09  7.385265E-10
        39  16 -1.032725E+07 -1.654251E+06 -7.157177E+05 -3.667274E+06 -5.510969E-09 -2.687533E-09
        39  17 -9.963590E+06 -1.627965E+06 -9.349562E+05 -3.803359E+06 -1.171343E-10 -1.582028E-09
        39  18 -1.016918E+07 -2.926734E+06 -1.771822E+06 -3.566933E+06 -1.989231E-09  2.635443E-10
        39  19 -7.543411E+06 -8.205217E+05 -5.107375E+03 -3.136598E+06 -2.713423E+05 -6.120537E+04
        39  20 -7.494855E+06 -5.467935E+05 -2.379441E+05 -2.985353E+06 -5.830891E+05 -1.794116E+05
        39  21 -8.009483E+06 -1.590977E+06 -1.071103E+06 -2.462223E+06 -8.847291E+05 -3.241656E+05
        39  22 -8.936251E+06 -1.237359E+06 -3.602716E+05 -3.402164E+06 -2.659274E+05 -5.920740E+04
        39  23 -8.729784E+06 -1.087433E+06 -5.860110E+05 -3.394711E+06 -5.870362E+05 -1.808255E+05
        39  24 -9.089517E+06 -2.259074E+06 -1.420507E+06 -3.014990E+06 -8.981110E+05 -3.288154E+05
        39  25 -1.032718E+07 -1.654229E+06 -7.155815E+05 -3.667262E+06 -2.605255E+05 -5.721192E+04
        39  26 -9.963201E+06 -1.627833E+06 -9.342239E+05 -3.803271E+06 -5.909735E+05 -1.822343E+05
        39  27 -1.016824E+07 -2.926384E+06 -1.770018E+06 -3.566685E+06 -9.114659E+05 -3.334405E+05
        40   1  3.976561E+05  1.467432E+05  4.429487E+05 -2.579911E+05 -2.308204E+02  2.716879E+05
        40   2  8.465629E+04  5.991385E+04  2.285409E+05 -1.311899E+05  3.123524E+03  1.583562E+05
        40   3  1.314527E+04  4.804924E+04  1.482903E+05 -1.638751E+04  2.385339E+03  4.500671E+04
        40   4  3.575165E+05 -1.699897E+03  4.066432E+05 -4.346055E+04 -9.582405E+01  2.648890E+05
        40   5  5.937474E+04 -3.866779E+04  2.075397E+05 -3.855379E+04  3.152262E+03  1.575079E+05
        40   6  1.658739E+03 -1.715531E+03  1.384746E+05 -4.562419E+04  2.351997E+03  5.009936E+04
        40   7  3.175478E+05 -1.500244E+05  3.703609E+05  1.710181E+05  3.449815E+01  2.580918E+05
        40   8  3.412467E+04 -1.372220E+05  1.865425E+05  5.406728E+04  3.180750E+03  1.566597E+05
        40   9 -9.824697E+03 -5.147602E+04  1.286593E+05 -7.485849E+04  2.318173E+03  5.519160E+04
        40  10  3.976363E+05  1.466639E+05  4.428100E+05 -2.579911E+05  2.193052E-09 -8.167911E-09
        40  11  8.464955E+04  5.988693E+04  2.284938E+05 -1.311903E+05  5.467418E-09  1.824585E-09
        40  12  1.314472E+04  4.804706E+04  1.482865E+05 -1.638760E+04 -3.162560E-09  1.195798E-08
        40  13  3.574977E+05 -1.775221E+03  4.065114E+05 -4.346054E+04  1.740483E-09 -1.569047E-09
        40  14  5.936807E+04 -3.869443E+04  2.074931E+05 -3.855419E+04  1.020349E-08 -1.497295E-10
        40  15  1.658059E+03 -1.718228E+03  1.384699E+05 -4.562429E+04  3.862242E-09 -3.229904E-09
        40  16  3.175299E+05 -1.500960E+05  3.702357E+05  1.710181E+05 -1.098093E-09  7.210596E-09
        40  17  3.411807E+04 -1.372483E+05  1.864963E+05  5.406688E+04 -1.450679E-08  1.678248E-09
        40  18 -9.825520E+03 -5.147929E+04  1.286536E+05 -7.485859E+04 -5.430244E-09 -1.083865E-08
        40  19  3.976561E+05  1.467432E+05  4.429487E+05 -2.579911E+05  2.308204E+02 -2.716879E+05
        40  20  8.465629E+04  5.991385E+04  2.285409E+05 -1.311899E+05 -3.123524E+03 -1.583562E+05
        40  21  1.314527E+04  4.804924E+04  1.482903E+05 -1.638751E+04 -2.385339E+03 -4.500671E+04
        40  22  3.575165E+05 -1.699897E+03  4.066432E+05 -4.346055E+04  9.582405E+01 -2.648890E+05
        40  23  5.937474E+04 -3.866779E+04  2.075397E+05 -3.855379E+04 -3.152262E+03 -1.575079E+05
        40  24  1.658739E+03 -1.715531E+03  1.384746E+05 -4.562419E+04 -2.351997E+03 -5.009936E+04
        40  25  3.175478E+05 -1.500244E+05  3.703609E+05  1.710181E+05 -3.449815E+01 -2.580918E+05
        40  26  3.412467E+04 -1.372220E+05  1.865425E+05  5.406728E+04 -3.180750E+03 -1.566597E+05
        40  27 -9.824697E+03 -5.147602E+04  1.286593E+05 -7.485849E+04 -2.318173E+03 -5.519160E+04
        41   1  1.728620E+04  1.012573E+02  1.281858E+05 -5.524789E+04  4.272334E+02  2.501245E+04
        41   2 -4.529014E+03 -5.807877E+04  1.155445E+05 -3.813626E+04 -2.189498E+03 -3.575881E+04
        41   3  3.111852E+03 -1.011709E+05  1.498009E+05 -3.413389E+04 -4.681163E+03 -9.652585E+04
        41   4  1.352723E+04 -1.478373E+04  1.249896E+05 -4.551985E+04  4.002022E+02  2.948199E+04
        41   5  3.957863E+03 -2.234026E+04  1.221851E+05 -3.893398E+04 -2.215664E+03 -3.147713E+04
        41   6  2.387574E+04 -1.478068E+04  1.664073E+05 -4.545632E+04 -4.704430E+03 -9.243676E+04
        41   7  9.768607E+03 -2.966827E+04  1.217935E+05 -3.579204E+04  3.733108E+02  3.395142E+04
        41   8  1.244468E+04  1.339954E+04  1.288257E+05 -3.973175E+04 -2.241840E+03 -2.719521E+04
        41   9  4.463966E+04  7.161702E+04  1.830134E+05 -5.678036E+04 -4.727845E+03 -8.834711E+04
        41  10  1.728603E+04  1.005856E+02  1.281846E+05 -5.524789E+04 -3.563012E-09 -1.153490E-08
        41  11 -4.529363E+03 -5.808015E+04  1.155420E+05 -3.813632E+04  7.557277E-09  2.562993E-09
        41  12  3.109327E+03 -1.011809E+05  1.497834E+05 -3.413426E+04  1.291602E-09  1.529852E-08
        41  13  1.352699E+04 -1.478466E+04  1.249879E+05 -4.551986E+04  6.636382E-09 -1.491841E-09
        41  14  3.957592E+03 -2.234132E+04  1.221832E+05 -3.893404E+04  5.167298E-09 -2.822639E-10
        41  15  2.387342E+04 -1.478986E+04  1.663912E+05 -4.545667E+04  8.800846E-09 -2.976626E-09
        41  16  9.768298E+03 -2.966950E+04  1.217913E+05 -3.579205E+04 -6.249739E-09  1.071765E-08
        41  17  1.244448E+04  1.339874E+04  1.288243E+05 -3.973180E+04 -2.967928E-09  7.789561E-10
        41  18  4.463754E+04  7.160864E+04  1.829987E+05 -5.678069E+04  3.250444E-09 -1.429092E-08
        41  19  1.728620E+04  1.012573E+02  1.281858E+05 -5.524789E+04 -4.272334E+02 -2.501245E+04
        41  20 -4.529014E+03 -5.807877E+04  1.155445E+05 -3.813626E+04  2.189498E+03  3.575881E+04
        41  21  3.111852E+03 -1.011709E+05  1.498009E+05 -3.413389E+04  4.681163E+03  9.652585E+04
        41  22  1.352723E+04 -1.478373E+04  1.249896E+05 -4.551985E+04 -4.002022E+02 -2.948199E+04
        41  23  3.957863E+03 -2.234026E+04  1.221851E+05 -3.893398E+04  2.215664E+03  3.147713E+04
        41  24  2.387574E+04 -1.478068E+04  1.664073E+05 -4.545632E+04  4.704430E+03  9.243676E+04
        41  25  9.768607E+03 -2.966827E+04  1.217935E+05 -3.579204E+04 -3.733108E+02 -3.395142E+04
        41  26  1.244468E+04  1.339954E+04  1.288257E+05 -3.973175E+04  2.241840E+03  2.719521E+04
        41  27  4.463966E+04  7.161702E+04  1.830134E+05 -5.678036E+04  4.727845E+03  8.834711E+04
        42   1 -2.599971E+04 -1.117444E+05  1.794131E+05 -9.797569E+04 -6.547986E+03 -1.255317E+05
        42   2  5.909548E+04 -2.222707E+05  3.054560E+05  1.192658E+05 -6.162345E+03 -2.936512E+05
        42   3  5.557411E+05 -2.080684E+05  6.439362E+05  3.253638E+05 -1.041628E+02 -4.617168E+05
        42   4  2.205952E+03  9.878111E+03  2.026745E+05 -4.566698E+04 -6.589242E+03 -1.205076E+05
        42   5  1.022232E+05 -5.313485E+04  3.407142E+05 -3.823250E+04 -6.066889E+03 -2.971360E+05
        42   6  6.150368E+05  9.913611E+03  6.970393E+05 -4.196016E+04  2.409411E+02 -4.737257E+05
        42   7  3.042115E+04  1.315209E+05  2.259368E+05  6.652204E+03 -6.629646E+03 -1.154826E+05
        42   8  1.454420E+05  1.160810E+05  3.759840E+05 -1.957747E+05 -5.969686E+03 -3.006217E+05
        42   9  6.748352E+05  2.282280E+05  7.502115E+05 -4.094151E+05  6.001646E+02 -4.857389E+05
        42  10 -2.600399E+04 -1.117614E+05  1.793834E+05 -9.797636E+04 -1.138064E-09  2.669188E-08
        42  11  5.907229E+04 -2.223633E+05  3.052938E+05  1.192643E+05  2.477165E-09  3.251394E-09
        42  12  5.556838E+05 -2.082973E+05  6.435355E+05  3.253638E+05  1.246173E-09 -2.220278E-08
        42  13  2.202008E+03  9.862509E+03  2.026471E+05 -4.566762E+04 -7.920407E-11 -1.151844E-09
        42  14  1.021995E+05 -5.322964E+04  3.405482E+05 -3.823396E+04  6.315915E-10  1.699277E-10
        42  15  6.149765E+05  9.672752E+03  6.966176E+05 -4.196007E+04 -4.804625E-09 -3.394927E-09
        42  16  3.041752E+04  1.315066E+05  2.259117E+05  6.651588E+03  1.244554E-09 -2.721955E-08
        42  17  1.454177E+05  1.159840E+05  3.758142E+05 -1.957761E+05  4.620300E-10  6.284432E-10
        42  18  6.747719E+05  2.279749E+05  7.497683E+05 -4.094149E+05 -1.207374E-09  2.314710E-08
        42  19 -2.599971E+04 -1.117444E+05  1.794131E+05 -9.797569E+04  6.547986E+03  1.255317E+05
        42  20  5.909548E+04 -2.222707E+05  3.054560E+05  1.192658E+05  6.162345E+03  2.936512E+05
        42  21  5.557411E+05 -2.080684E+05  6.439362E+05  3.253638E+05  1.041628E+02  4.617168E+05
        42  22  2.205952E+03  9.878111E+03  2.026745E+05 -4.566698E+04  6.589242E+03  1.205076E+05
        42  23  1.022232E+05 -5.313485E+04  3.407142E+05 -3.823250E+04  6.066889E+03  2.971360E+05
        42  24  6.150368E+05  9.913611E+03  6.970393E+05 -4.196016E+04 -2.409411E+02  4.737257E+05
        42  25  3.042115E+04  1.315209E+05  2.259368E+05  6.652204E+03  6.629646E+03  1.154826E+05
        42  26  1.454420E+05  1.160810E+05  3.759840E+05 -1.957747E+05  5.969686E+03  3.006217E+05
        42  27  6.748352E+05  2.282280E+05  7.502115E+05 -4.094151E+05 -6.001646E+02  4.857389E+05
        43   1 -6.462963E+06 -1.965718E+06 -1.200347E+06 -2.233209E+06 -4.817155E+05 -1.652120E+05
        43   2 -6.315065E+06 -1.248161E+06 -7.489938E+05 -2.303876E+06 -3.165192E+05 -6.529575E+04
        43   3 -6.401791E+06 -1.258285E+06 -6.177758E+05 -2.242243E+06 -1.374361E+05 -1.793173E+03
        43   4 -4.830274E+06 -1.211281E+06 -7.244209E+05 -1.652892E+06 -4.634891E+05 -1.583904E+05
        43   5 -4.676201E+06 -5.889577E+05 -2.997730E+05 -1.817806E+06 -3.116719E+05 -6.348770E+04
        43   6 -4.753382E+06 -6.905501E+05 -1.839167E+05 -1.850619E+06 -1.459875E+05 -5.020060E+03
        43   7 -3.194959E+06 -4.563060E+05 -2.487618E+05 -1.071061E+06 -4.452079E+05 -1.515380E+05
        43   8 -3.034723E+06  7.049730E+04  1.491990E+05 -1.330535E+06 -3.068095E+05 -6.167311E+04
        43   9 -3.102335E+06 -1.227652E+05  2.497137E+05 -1.458098E+06 -1.545636E+05 -8.254319E+03
        43  10 -6.463222E+06 -1.965810E+06 -1.200840E+06 -2.233273E+06  2.203427E-09  3.128468E-11
        43  11 -6.315175E+06 -1.248193E+06 -7.491923E+05 -2.303892E+06 -6.353613E-09 -1.315776E-09
        43  12 -6.401811E+06 -1.258290E+06 -6.178117E+05 -2.242243E+06 -9.311329E-10  9.483626E-10
        43  13 -4.830513E+06 -1.211367E+06 -7.248757E+05 -1.652952E+06 -2.750592E-09 -7.034591E-10
        43  14 -4.676307E+06 -5.889884E+05 -2.999647E+05 -1.817822E+06 -8.550844E-10 -3.183509E-09
        43  15 -4.753405E+06 -6.905559E+05 -1.839571E+05 -1.850619E+06 -1.653782E-09  3.026227E-10
        43  16 -3.195179E+06 -4.563844E+05 -2.491798E+05 -1.071115E+06  2.747747E-09  7.791197E-10
        43  17 -3.034826E+06  7.046773E+04  1.490139E+05 -1.330550E+06 -8.701204E-10  3.323396E-10
        43  18 -3.102361E+06 -1.227717E+05  2.496685E+05 -1.458099E+06  4.421384E-09 -7.461994E-10
        43  19 -6.462963E+06 -1.965718E+06 -1.200347E+06 -2.233209E+06  4.817155E+05  1.652120E+05
        43  20 -6.315065E+06 -1.248161E+06 -7.489938E+05 -2.303876E+06  3.165192E+05  6.529575E+04
        43  21 -6.401791E+06 -1.258285E+06 -6.177758E+05 -2.242243E+06  1.374361E+05  1.793173E+03
        43  22 -4.830274E+06 -1.211281E+06 -7.244209E+05 -1.652892E+06  4.634891E+05  1.583904E+05
        43  23 -4.676201E+06 -5.889577E+05 -2.997730E+05 -1.817806E+06  3.116719E+05  6.348770E+04
        43  24 -4.753382E+06 -6.905501E+05 -1.839167E+05 -1.850619E+06  1.459875E+05  5.020060E+03
        43  25 -3.194959E+06 -4.563060E+05 -2.487618E+05 -1.071061E+06  4.452079E+05  1.515380E+05
        43  26 -3.034723E+06  7.049730E+04  1.491990E+05 -1.330535E+06  3.068095E+05  6.167311E+04
        43  27 -3.102335E+06 -1.227652E+05  2.497137E+05 -1.458098E+06  1.545636E+05  8.254319E+03
        44   1 -6.146605E+06 -1.333546E+06 -5.387137E+05 -2.219194E+06 -1.171174E+05 -2.361785E+03
        44   2 -6.061355E+06 -1.166092E+06 -4.276119E+05 -2.155117E+06 -7.822942E+04  1.157937E+04
        44   3 -5.928146E+06 -1.164672E+06 -3.678831E+05 -2.161538E+06 -3.763375E+04  2.096311E+04
        44   4 -4.721982E+06 -7.785686E+05 -1.505102E+05 -1.815208E+06 -1.166653E+05 -2.201529E+03
        44   5 -4.741410E+06 -6.632055E+05 -7.078539E+04 -1.792169E+06 -7.941868E+04  1.112569E+04
        44   6 -4.712489E+06 -7.134189E+05 -4.102821E+04 -1.839637E+06 -4.047342E+04  1.989558E+04
        44   7 -3.295381E+06 -2.234371E+05  2.375096E+05 -1.410364E+06 -1.162118E+05 -2.040693E+03
        44   8 -3.419771E+06 -1.602084E+05  2.858854E+05 -1.428515E+06 -8.061060E+04  1.067100E+04
        44   9 -3.495399E+06 -2.620920E+05  2.856959E+05 -1.517167E+06 -4.331921E+04  1.882586E+04
        44  10 -6.146620E+06 -1.333550E+06 -5.387397E+05 -2.219194E+06  2.094925E-09  1.546507E-09
        44  11 -6.061362E+06 -1.166094E+06 -4.276238E+05 -2.155117E+06  3.756091E-09  5.634493E-10
        44  12 -5.928147E+06 -1.164673E+06 -3.678866E+05 -2.161538E+06  8.877700E-10 -2.242886E-09
        44  13 -4.721996E+06 -7.785723E+05 -1.505360E+05 -1.815208E+06  6.262476E-09  1.054158E-09
        44  14 -4.741417E+06 -6.632073E+05 -7.079755E+04 -1.792168E+06 -4.991828E-09 -2.297764E-10
        44  15 -4.712491E+06 -7.134198E+05 -4.103204E+04 -1.839636E+06 -8.678245E-10 -8.363309E-10
        44  16 -3.295396E+06 -2.234407E+05  2.374841E+05 -1.410364E+06 -1.910633E-09 -5.178549E-10
        44  17 -3.419778E+06 -1.602103E+05  2.858729E+05 -1.428514E+06 -5.569537E-09  5.083664E-10
        44  18 -3.495401E+06 -2.620928E+05  2.856917E+05 -1.517166E+06 -3.254333E-10 -1.132657E-09
        44  19 -6.146605E+06 -1.333546E+06 -5.387137E+05 -2.219194E+06  1.171174E+05  2.361785E+03
        44  20 -6.061355E+06 -1.166092E+06 -4.276119E+05 -2.155117E+06  7.822942E+04 -1.157937E+04
        44  21 -5.928146E+06 -1.164672E+06 -3.678831E+05 -2.161538E+06  3.763375E+04 -2.096311E+04
        44  22 -4.721982E+06 -7.785686E+05 -1.505102E+05 -1.815208E+06  1.166653E+05  2.201529E+03
        44  23 -4.741410E+06 -6.632055E+05 -7.078539E+04 -1.792169E+06  7.941868E+04 -1.112569E+04
        44  24 -4.712489E+06 -7.134189E+05 -4.102821E+04 -1.839637E+06  4.047342E+04 -1.989558E+04
        44  25 -3.295381E+06 -2.234371E+05  2.375096E+05 -1.410364E+06  1.162118E+05  2.040693E+03
        44  26 -3.419771E+06 -1.602084E+05  2.858854E+05 -1.428515E+06  8.061060E+04 -1.067100E+04
        44  27 -3.495399E+06 -2.620920E+05  2.856959E+05 -1.517167E+06  4.331921E+04 -1.882586E+04
        45   1 -5.654208E+06 -1.088972E+06 -2.885470E+05 -2.099897E+06 -3.124740E+04  1.909351E+04
        45   2 -5.555926E+06 -9.677555E+05 -2.323814E+05 -1.998672E+06 -2.040980E+04  1.696016E+04
        45   3 -5.353877E+06 -9.645932E+05 -1.853947E+05 -2.018576E+06 -9.224066E+03  1.385829E+04
        45   4 -4.703759E+06 -7.292941E+05 -3.246090E+04 -1.840887E+06 -3.314514E+04  1.838087E+04
        45   5 -4.755045E+06 -6.660588E+05 -1.656936E+04 -1.781898E+06 -2.266107E+04  1.611826E+04
        45   6 -4.702514E+06 -7.207894E+05 -9.561462E+03 -1.844037E+06 -1.183144E+04  1.288690E+04
        45   7 -3.752436E+06 -3.695621E+05  2.235442E+05 -1.581516E+06 -3.504607E+04  1.766703E+04
        45   8 -3.953541E+06 -3.643252E+05  1.991856E+05 -1.564869E+06 -2.491555E+04  1.527517E+04
        45   9 -4.050739E+06 -4.769622E+05  1.662344E+05 -1.669332E+06 -1.444184E+04  1.191439E+04
        45  10 -5.654209E+06 -1.088973E+06 -2.885496E+05 -2.099896E+06 -2.274543E-09 -7.720113E-10
        45  11 -5.555926E+06 -9.677559E+05 -2.323828E+05 -1.998672E+06  1.688789E-09  2.081851E-09
        45  12 -5.353877E+06 -9.645934E+05 -1.853952E+05 -2.018576E+06  1.853772E-09  3.244744E-09
        45  13 -4.703761E+06 -7.292947E+05 -3.246361E+04 -1.840886E+06 -1.700027E-09 -1.699201E-09
        45  14 -4.755045E+06 -6.660592E+05 -1.657082E+04 -1.781898E+06  3.018544E-09 -1.840491E-09
        45  15 -4.702514E+06 -7.207896E+05 -9.562037E+03 -1.844037E+06  2.516005E-09  3.010020E-09
        45  16 -3.752437E+06 -3.695628E+05  2.235413E+05 -1.581515E+06  3.127447E-09 -5.789449E-10
        45  17 -3.953542E+06 -3.643256E+05  1.991840E+05 -1.564869E+06  3.037728E-09 -1.048894E-09
        45  18 -4.050739E+06 -4.769624E+05  1.662337E+05 -1.669332E+06  9.354843E-10  2.690481E-09
        45  19 -5.654208E+06 -1.088972E+06 -2.885470E+05 -2.099897E+06  3.124740E+04 -1.909351E+04
        45  20 -5.555926E+06 -9.677555E+05 -2.323814E+05 -1.998672E+06  2.040980E+04 -1.696016E+04
        45  21 -5.353877E+06 -9.645932E+05 -1.853947E+05 -2.018576E+06  9.224066E+03 -1.385829E+04
        45  22 -4.703759E+06 -7.292941E+05 -3.246090E+04 -1.840887E+06  3.314514E+04 -1.838087E+04
        45  23 -4.755045E+06 -6.660588E+05 -1.656936E+04 -1.781898E+06  2.266107E+04 -1.611826E+04
        45  24 -4.702514E+06 -7.207894E+05 -9.561462E+03 -1.844037E+06  1.183144E+04 -1.288690E+04
        45  25 -3.752436E+06 -3.695621E+05  2.235442E+05 -1.581516E+06  3.504607E+04 -1.766703E+04
        45  26 -3.953541E+06 -3.643252E+05  1.991856E+05 -1.564869E+06  2.491555E+04 -1.527517E+04
        45  27 -4.050739E+06 -4.769622E+05  1.662344E+05 -1.669332E+06  1.444184E+04 -1.191439E+04
        46   1 -5.037771E+06 -8.518248E+05 -9.812841E+04 -1.937861E+06 -6.465083E+03  1.039227E+04
        46   2 -4.929091E+06 -7.277229E+05 -5.057489E+04 -1.823622E+06 -1.533264E+03  4.642943E+03
        46   3 -4.701976E+06 -7.246847E+05 -5.319587E+03 -1.847292E+06  3.456348E+03 -1.270207E+03
        46   4 -4.699635E+06 -7.247770E+05 -7.680830E+03 -1.846496E+06 -8.963058E+03  9.463112E+03
        46   5 -4.758773E+06 -6.637718E+05 -4.735216E+03 -1.777714E+06 -4.092308E+03  3.691716E+03
        46   6 -4.699493E+06 -7.238161E+05 -4.035832E+03 -1.846849E+06  8.354415E+02 -2.243630E+03
        46   7 -4.361388E+06 -5.977223E+05  8.275683E+04 -1.755086E+06 -1.146254E+04  8.533390E+03
        46   8 -4.588427E+06 -5.998193E+05  4.110174E+04 -1.731795E+06 -6.652118E+03  2.740204E+03
        46   9 -4.697009E+06 -7.229475E+05 -2.752053E+03 -1.846406E+06 -1.785455E+03 -3.217048E+03
        46  10 -5.037771E+06 -8.518250E+05 -9.812869E+04 -1.937861E+06  4.185261E-09  5.516988E-09
        46  11 -4.929091E+06 -7.277229E+05 -5.057493E+04 -1.823622E+06  2.536093E-09  1.412157E-09
        46  12 -4.701976E+06 -7.246847E+05 -5.319612E+03 -1.847292E+06 -1.839044E-09  1.768238E-09
        46  13 -4.699635E+06 -7.247771E+05 -7.681149E+03 -1.846496E+06  2.819183E-09 -3.425860E-10
        46  14 -4.758773E+06 -6.637718E+05 -4.735273E+03 -1.777714E+06  3.936821E-09  1.815529E-09
        46  15 -4.699493E+06 -7.238161E+05 -4.035842E+03 -1.846849E+06 -1.342245E-09  4.531516E-09
        46  16 -4.361388E+06 -5.977224E+05  8.275644E+04 -1.755086E+06 -2.162372E-10  3.744779E-09
        46  17 -4.588427E+06 -5.998193E+05  4.110164E+04 -1.731795E+06  5.462832E-09  3.290758E-09
        46  18 -4.697009E+06 -7.229475E+05 -2.752079E+03 -1.846406E+06  5.424253E-09  1.040624E-09
        46  19 -5.037771E+06 -8.518248E+05 -9.812841E+04 -1.937861E+06  6.465083E+03 -1.039227E+04
        46  20 -4.929091E+06 -7.277229E+05 -5.057489E+04 -1.823622E+06  1.533264E+03 -4.642943E+03
        46  21 -4.701976E+06 -7.246847E+05 -5.319587E+03 -1.847292E+06 -3.456348E+03  1.270207E+03
        46  22 -4.699635E+06 -7.247770E+05 -7.680830E+03 -1.846496E+06  8.963058E+03 -9.463112E+03
        46  23 -4.758773E+06 -6.637718E+05 -4.735216E+03 -1.777714E+06  4.092308E+03 -3.691716E+03
        46  24 -4.699493E+06 -7.238161E+05 -4.035832E+03 -1.846849E+06 -8.354415E+02  2.243630E+03
        46  25 -4.361388E+06 -5.977223E+05  8.275683E+04 -1.755086E+06  1.146254E+04 -8.533390E+03
        46  26 -4.588427E+06 -5.998193E+05  4.110174E+04 -1.731795E+06  6.652118E+03 -2.740204E+03
        46  27 -4.697009E+06 -7.229475E+05 -2.752053E+03 -1.846406E+06  1.785455E+03  3.217048E+03
        47   1 -4.378281E+06 -6.021519E+05  8.311468E+04 -1.759394E+06  5.632507E+03 -5.068345E+03
        47   2 -4.273601E+06 -4.830173E+05  1.247801E+05 -1.648370E+06  1.075817E+04 -1.081092E+04
        47   3 -4.053952E+06 -4.812550E+05  1.640730E+05 -1.670430E+06  1.574339E+04 -1.614535E+04
        47   4 -4.700281E+06 -7.228553E+05 -4.128368E+03 -1.845850E+06  3.003774E+03 -6.045190E+03
        47   5 -4.757853E+06 -6.648986E+05 -5.518462E+03 -1.779023E+06  8.281336E+03 -1.173334E+04
        47   6 -4.700509E+06 -7.243553E+05 -9.401813E+03 -1.845300E+06  1.341761E+04 -1.701336E+04
        47   7 -5.022183E+06 -8.435538E+05 -9.138134E+04 -1.932266E+06  3.765289E+02 -7.021484E+03
        47   8 -5.241881E+06 -8.467678E+05 -1.358387E+05 -1.909585E+06  5.806626E+03 -1.265497E+04
        47   9 -5.346664E+06 -9.674327E+05 -1.829145E+05 -2.020006E+06  1.109449E+04 -1.788039E+04
        47  10 -4.378282E+06 -6.021519E+05  8.311457E+04 -1.759394E+06 -1.301912E-09  2.897457E-09
        47  11 -4.273601E+06 -4.830174E+05  1.247797E+05 -1.648370E+06 -2.050523E-09  4.470178E-09
        47  12 -4.053952E+06 -4.812553E+05  1.640720E+05 -1.670430E+06 -9.085819E-10  4.800355E-10
        47  13 -4.700281E+06 -7.228553E+05 -4.128453E+03 -1.845850E+06 -3.418335E-09 -1.165084E-09
        47  14 -4.757853E+06 -6.648988E+05 -5.518849E+03 -1.779023E+06  3.347565E-09  1.959485E-09
        47  15 -4.700509E+06 -7.243556E+05 -9.402693E+03 -1.845300E+06  2.502870E-09  1.957656E-09
        47  16 -5.022183E+06 -8.435539E+05 -9.138143E+04 -1.932266E+06 -2.846805E-10 -5.388313E-10
        47  17 -5.241882E+06 -8.467680E+05 -1.358391E+05 -1.909585E+06  5.969142E-09  2.872554E-09
        47  18 -5.346664E+06 -9.674331E+05 -1.829153E+05 -2.020006E+06  2.644540E-09  1.129739E-09
        47  19 -4.378281E+06 -6.021519E+05  8.311468E+04 -1.759394E+06 -5.632507E+03  5.068345E+03
        47  20 -4.273601E+06 -4.830173E+05  1.247801E+05 -1.648370E+06 -1.075817E+04  1.081092E+04
        47  21 -4.053952E+06 -4.812550E+05  1.640730E+05 -1.670430E+06 -1.574339E+04  1.614535E+04
        47  22 -4.700281E+06 -7.228553E+05 -4.128368E+03 -1.845850E+06 -3.003774E+03  6.045190E+03
        47  23 -4.757853E+06 -6.648986E+05 -5.518462E+03 -1.779023E+06 -8.281336E+03  1.173334E+04
        47  24 -4.700509E+06 -7.243553E+05 -9.401813E+03 -1.845300E+06 -1.341761E+04  1.701336E+04
        47  25 -5.022183E+06 -8.435538E+05 -9.138134E+04 -1.932266E+06 -3.765289E+02  7.021484E+03
        47  26 -5.241881E+06 -8.467678E+05 -1.358387E+05 -1.909585E+06 -5.806626E+03  1.265497E+04
        47  27 -5.346664E+06 -9.674327E+05 -1.829145E+05 -2.020006E+06 -1.109449E+04  1.788039E+04
        48   1 -3.765837E+06 -3.663716E+05  2.412792E+05 -1.588595E+06  1.896087E+04 -1.913801E+04
        48   2 -3.679469E+06 -2.644326E+05  2.680181E+05 -1.494369E+06  3.132184E+04 -2.117372E+04
        48   3 -3.500413E+06 -2.718019E+05  2.841536E+05 -1.507146E+06  4.326002E+04 -2.202203E+04
        48   4 -4.705025E+06 -7.183583E+05 -1.181770E+04 -1.841145E+06  1.650981E+04 -2.005502E+04
        48   5 -4.752099E+06 -6.689838E+05 -2.082856E+04 -1.785651E+06  2.930254E+04 -2.193331E+04
        48   6 -4.706596E+06 -7.290320E+05 -4.080104E+04 -1.837175E+06  4.166975E+04 -2.262412E+04
        48   7 -5.643352E+06 -1.070294E+06 -2.649909E+05 -2.093347E+06  1.406287E+04 -2.097051E+04
        48   8 -5.823613E+06 -1.073467E+06 -3.097769E+05 -2.076474E+06  2.728708E+04 -2.269146E+04
        48   9 -5.911374E+06 -1.186175E+06 -3.658865E+05 -2.166623E+06  4.008285E+04 -2.322495E+04
        48  10 -3.765837E+06 -3.663721E+05  2.412778E+05 -1.588594E+06  7.163414E-10  3.325455E-09
        48  11 -3.679470E+06 -2.644334E+05  2.680154E+05 -1.494369E+06 -5.451600E-10  3.234403E-09
        48  12 -3.500415E+06 -2.718029E+05  2.841491E+05 -1.507145E+06  1.641885E-09  7.050844E-10
        48  13 -4.705026E+06 -7.183588E+05 -1.181896E+04 -1.841144E+06  1.361820E-09  2.415829E-09
        48  14 -4.752100E+06 -6.689846E+05 -2.083108E+04 -1.785650E+06  1.256748E-09  2.027157E-09
        48  15 -4.706598E+06 -7.290330E+05 -4.080527E+04 -1.837175E+06  4.283809E-09  2.628848E-10
        48  16 -5.643352E+06 -1.070294E+06 -2.649921E+05 -2.093346E+06 -3.577828E-09  2.090154E-09
        48  17 -5.823614E+06 -1.073468E+06 -3.097793E+05 -2.076474E+06 -1.554906E-09  3.176803E-10
        48  18 -5.911376E+06 -1.186176E+06 -3.658905E+05 -2.166622E+06 -2.064161E-09 -1.031261E-10
        48  19 -3.765837E+06 -3.663716E+05  2.412792E+05 -1.588595E+06 -1.896087E+04  1.913801E+04
        48  20 -3.679469E+06 -2.644326E+05  2.680181E+05 -1.494369E+06 -3.132184E+04  2.117372E+04
        48  21 -3.500413E+06 -2.718019E+05  2.841536E+05 -1.507146E+06 -4.326002E+04  2.202203E+04
        48  22 -4.705025E+06 -7.183583E+05 -1.181770E+04 -1.841145E+06 -1.650981E+04  2.005502E+04
        48  23 -4.752099E+06 -6.689838E+05 -2.082856E+04 -1.785651E+06 -2.930254E+04  2.193331E+04
        48  24 -4.706596E+06 -7.290320E+05 -4.080104E+04 -1.837175E+06 -4.166975E+04  2.262412E+04
        48  25 -5.643352E+06 -1.070294E+06 -2.649909E+05 -2.093347E+06 -1.406287E+04  2.097051E+04
        48  26 -5.823613E+06 -1.073467E+06 -3.097769E+05 -2.076474E+06 -2.728708E+04  2.269146E+04
        48  27 -5.911374E+06 -1.186175E+06 -3.658865E+05 -2.166623E+06 -4.008285E+04  2.322495E+04
        49   1 -3.282869E+06 -1.765629E+05  3.334194E+05 -1.454877E+06  5.291098E+04 -2.210439E+04
        49   2 -3.222132E+06 -8.708807E+04  3.195009E+05 -1.379641E+06  9.939341E+04 -9.390803E+03
        49   3 -3.138026E+06 -1.674561E+05  2.441793E+05 -1.349193E+06  1.440832E+05  8.122285E+03
        49   4 -4.717477E+06 -7.093452E+05 -5.165291E+04 -1.835947E+06  5.034758E+04 -2.307429E+04
        49   5 -4.734941E+06 -6.650092E+05 -8.915467E+04 -1.798159E+06  9.854280E+04 -9.721046E+03
        49   6 -4.729490E+06 -7.910437E+05 -1.895463E+05 -1.805153E+06  1.449369E+05  8.432162E+03
        49   7 -6.150093E+06 -1.242024E+06 -4.369071E+05 -2.216226E+06  4.779065E+04 -2.404187E+04
        49   8 -6.245529E+06 -1.242781E+06 -4.980148E+05 -2.215745E+06  9.769426E+04 -1.005051E+04
        49   9 -6.318494E+06 -1.414431E+06 -6.235015E+05 -2.260032E+06  1.457877E+05  8.740871E+03
        49  10 -3.282872E+06 -1.765642E+05  3.334132E+05 -1.454876E+06 -4.953643E-10 -2.600217E-10
        49  11 -3.222143E+06 -8.709082E+04  3.194821E+05 -1.379641E+06 -6.739016E-09 -2.102856E-09
        49  12 -3.138048E+06 -1.674618E+05  2.441400E+05 -1.349194E+06 -4.335715E-09 -1.927195E-09
        49  13 -4.717480E+06 -7.093465E+05 -5.165869E+04 -1.835946E+06 -6.329031E-09  2.556119E-10
        49  14 -4.734951E+06 -6.650119E+05 -8.917322E+04 -1.798158E+06  1.912446E-09 -2.164569E-09
        49  15 -4.729513E+06 -7.910494E+05 -1.895862E+05 -1.805154E+06 -3.879757E-09 -1.507857E-09
        49  16 -6.150096E+06 -1.242025E+06 -4.369125E+05 -2.216225E+06 -3.574836E-09  1.115167E-09
        49  17 -6.245540E+06 -1.242784E+06 -4.980331E+05 -2.215744E+06 -2.156833E-09  2.927285E-09
        49  18 -6.318517E+06 -1.414437E+06 -6.235420E+05 -2.260033E+06  1.808862E-09 -1.820918E-09
        49  19 -3.282869E+06 -1.765629E+05  3.334194E+05 -1.454877E+06 -5.291098E+04  2.210439E+04
        49  20 -3.222132E+06 -8.708807E+04  3.195009E+05 -1.379641E+06 -9.939341E+04  9.390803E+03
        49  21 -3.138026E+06 -1.674561E+05  2.441793E+05 -1.349193E+06 -1.440832E+05 -8.122285E+03
        49  22 -4.717477E+06 -7.093452E+05 -5.165291E+04 -1.835947E+06 -5.034758E+04  2.307429E+04
        49  23 -4.734941E+06 -6.650092E+05 -8.915467E+04 -1.798159E+06 -9.854280E+04  9.721046E+03
        49  24 -4.729490E+06 -7.910437E+05 -1.895463E+05 -1.805153E+06 -1.449369E+05 -8.432162E+03
        49  25 -6.150093E+06 -1.242024E+06 -4.369071E+05 -2.216226E+06 -4.779065E+04  2.404187E+04
        49  26 -6.245529E+06 -1.242781E+06 -4.980148E+05 -2.215745E+06 -9.769426E+04  1.005051E+04
        49  27 -6.318494E+06 -1.414431E+06 -6.235015E+05 -2.260032E+06 -1.457877E+05 -8.740871E+03
        50   1 -2.989384E+06 -7.891091E+04  2.335615E+05 -1.437166E+06  1.892935E+05  1.766170E+04
        50   2 -2.932277E+06  1.322132E+05  9.545036E+04 -1.307242E+06  3.833862E+05  8.873452E+04
        50   3 -3.196849E+06 -5.317680E+05 -4.201900E+05 -9.741463E+05  5.632191E+05  1.971149E+05
        50   4 -4.767719E+06 -6.818801E+05 -2.317128E+05 -1.851674E+06  1.809387E+05  1.450141E+04
        50   5 -4.653923E+06 -5.695769E+05 -3.774371E+05 -1.828360E+06  3.886578E+05  9.070248E+04
        50   6 -4.865480E+06 -1.336639E+06 -9.123894E+05 -1.601604E+06  5.821100E+05  2.041732E+05
        50   7 -6.542995E+06 -1.284808E+06 -6.972508E+05 -2.265174E+06  1.726098E+05  1.134851E+04
        50   8 -6.372681E+06 -1.271060E+06 -8.505977E+05 -2.348117E+06  3.939118E+05  9.266266E+04
        50   9 -6.531328E+06 -2.140812E+06 -1.404863E+06 -2.227357E+06  6.009427E+05  2.111961E+05
        50  10 -2.989423E+06 -7.892093E+04  2.334932E+05 -1.437168E+06 -6.710997E-09 -3.540248E-09
        50  11 -2.932438E+06  1.321650E+05  9.515771E+04 -1.307270E+06 -5.157593E-09  1.437166E-09
        50  12 -3.197202E+06 -5.318956E+05 -4.208629E+05 -9.742361E+05  2.048605E-09  1.572123E-09
        50  13 -4.767755E+06 -6.818892E+05 -2.317753E+05 -1.851676E+06 -9.574273E-09  1.045476E-09
        50  14 -4.654089E+06 -5.696268E+05 -3.777390E+05 -1.828388E+06 -4.235455E-09 -2.347367E-09
        50  15 -4.865858E+06 -1.336776E+06 -9.131108E+05 -1.601700E+06  3.170143E-10  2.214461E-10
        50  16 -6.543028E+06 -1.284816E+06 -6.973077E+05 -2.265176E+06  2.357440E-09 -3.886223E-11
        50  17 -6.372851E+06 -1.271111E+06 -8.509090E+05 -2.348147E+06 -7.652226E-09  4.545998E-09
        50  18 -6.531732E+06 -2.140959E+06 -1.405634E+06 -2.227460E+06 -2.995386E-11 -2.105254E-09
        50  19 -2.989384E+06 -7.891091E+04  2.335615E+05 -1.437166E+06 -1.892935E+05 -1.766170E+04
        50  20 -2.932277E+06  1.322132E+05  9.545036E+04 -1.307242E+06 -3.833862E+05 -8.873452E+04
        50  21 -3.196849E+06 -5.317680E+05 -4.201900E+05 -9.741463E+05 -5.632191E+05 -1.971149E+05
        50  22 -4.767719E+06 -6.818801E+05 -2.317128E+05 -1.851674E+06 -1.809387E+05 -1.450141E+04
        50  23 -4.653923E+06 -5.695769E+05 -3.774371E+05 -1.828360E+06 -3.886578E+05 -9.070248E+04
        50  24 -4.865480E+06 -1.336639E+06 -9.123894E+05 -1.601604E+06 -5.821100E+05 -2.041732E+05
        50  25 -6.542995E+06 -1.284808E+06 -6.972508E+05 -2.265174E+06 -1.726098E+05 -1.134851E+04
        50  26 -6.372681E+06 -1.271060E+06 -8.505977E+05 -2.348117E+06 -3.939118E+05 -9.266266E+04
        50  27 -6.531328E+06 -2.140812E+06 -1.404863E+06 -2.227357E+06 -6.009427E+05 -2.111961E+05
        51   1  2.377789E+05 -6.487028E+05  2.299373E+05 -2.224387E+03  1.023266E+04  7.258371E+03
        51   2  2.452678E+05 -6.687417E+05  2.245618E+05  1.916698E+03  3.158469E+04  2.078634E+03
        51   3  2.379813E+05 -6.908763E+05  2.191176E+05 -8.999068E+03  3.135973E+04 -3.187876E+03
        51   4 -1.260703E+04 -1.651810E+06 -1.777673E+04 -3.381992E+03  1.029833E+04 -8.907106E+03
        51   5  1.763727E+03 -1.649806E+06 -1.064498E+04  4.172250E+03  3.161232E+04 -3.225239E+03
        51   6 -5.426702E+02 -1.651794E+06 -1.114066E+04 -3.331624E+03  3.133414E+04  2.369796E+03
        51   7 -2.630681E+05 -2.654000E+06 -2.655645E+05 -4.536809E+03  1.036410E+04 -2.504646E+04
        51   8 -2.418103E+05 -2.629987E+06 -2.459200E+05  6.425221E+03  3.163994E+04 -8.520754E+03
        51   9 -2.391337E+05 -2.611864E+06 -2.414643E+05  2.328093E+03  3.130863E+04  7.918890E+03
        51  10  2.377788E+05 -6.487029E+05  2.299370E+05 -2.224446E+03  2.276159E-09 -6.065341E-09
        51  11  2.452667E+05 -6.687420E+05  2.245599E+05  1.916645E+03 -1.301280E-09 -7.372516E-09
        51  12  2.379802E+05 -6.908766E+05  2.191157E+05 -8.998988E+03 -3.436797E-09  5.332208E-09
        51  13 -1.260717E+04 -1.651810E+06 -1.777708E+04 -3.381918E+03 -9.340929E-10  1.904391E-09
        51  14  1.762652E+03 -1.649806E+06 -1.064688E+04  4.172333E+03  2.960822E-09 -4.914433E-09
        51  15 -5.437252E+02 -1.651794E+06 -1.114252E+04 -3.331684E+03  1.396563E-09  1.805017E-09
        51  16 -2.630684E+05 -2.654001E+06 -2.655659E+05 -4.536600E+03  2.692083E-09  6.198602E-09
        51  17 -2.418114E+05 -2.629987E+06 -2.459220E+05  6.425439E+03 -6.171594E-09  1.681460E-09
        51  18 -2.391348E+05 -2.611864E+06 -2.414662E+05  2.327893E+03  4.321237E-09 -6.162599E-09
        51  19  2.377789E+05 -6.487028E+05  2.299373E+05 -2.224387E+03 -1.023266E+04 -7.258371E+03
        51  20  2.452678E+05 -6.687417E+05  2.245618E+05  1.916698E+03 -3.158469E+04 -2.078634E+03
        51  21  2.379813E+05 -6.908763E+05  2.191176E+05 -8.999068E+03 -3.135973E+04  3.187876E+03
        51  22 -1.260703E+04 -1.651810E+06 -1.777673E+04 -3.381992E+03 -1.029833E+04  8.907106E+03
        51  23  1.763727E+03 -1.649806E+06 -1.064498E+04  4.172250E+03 -3.161232E+04  3.225239E+03
        51  24 -5.426702E+02 -1.651794E+06 -1.114066E+04 -3.331624E+03 -3.133414E+04 -2.369796E+03
        51  25 -2.630681E+05 -2.654000E+06 -2.655645E+05 -4.536809E+03 -1.036410E+04  2.504646E+04
        51  26 -2.418103E+05 -2.629987E+06 -2.459200E+05  6.425221E+03 -3.163994E+04  8.520754E+03
        51  27 -2.391337E+05 -2.611864E+06 -2.414643E+05  2.328093E+03 -3.130863E+04 -7.918890E+03
        52   1  2.296632E+05 -7.237473E+05  2.108598E+05 -6.460349E+03  2.788350E+04  5.387290E+03
        52   2  2.251958E+05 -7.493020E+05  1.993558E+05  9.408180E+02  2.838175E+04  1.250560E+04
        52   3  2.060801E+05 -7.788439E+05  1.796836E+05 -1.226329E+04  2.600321E+04  1.960433E+04
        52   4 -8.226859E+02 -1.651834E+06 -1.230051E+04 -4.562228E+03  2.789176E+04  4.388188E+03
        52   5  1.628769E+03 -1.649713E+06 -1.671020E+04  5.709183E+03  2.838185E+04  1.294449E+04
        52   6 -1.083052E+04 -1.651837E+06 -3.029677E+04 -4.626690E+03  2.599335E+04  2.148151E+04
        52   7 -2.313715E+05 -2.579130E+06 -2.355222E+05 -2.665874E+03  2.790002E+04  3.390571E+03
        52   8 -2.219973E+05 -2.549379E+06 -2.328338E+05  1.047171E+04  2.838195E+04  1.338274E+04
        52   9 -2.277966E+05 -2.524131E+06 -2.403315E+05  3.000261E+03  2.598353E+04  2.335604E+04
        52  10  2.296624E+05 -7.237476E+05  2.108583E+05 -6.460470E+03 -1.651739E-09  1.132380E-09
        52  11  2.251949E+05 -7.493024E+05  1.993540E+05  9.405322E+02  3.531124E-09 -8.250887E-09
        52  12  2.060792E+05 -7.788445E+05  1.796816E+05 -1.226370E+04  4.280352E-10 -3.170193E-09
        52  13 -8.235259E+02 -1.651834E+06 -1.230201E+04 -4.562326E+03  2.209250E-09  3.312727E-09
        52  14  1.627860E+03 -1.649713E+06 -1.671203E+04  5.708887E+03 -3.614929E-09 -6.482193E-09
        52  15 -1.083137E+04 -1.651838E+06 -3.029891E+04 -4.627140E+03 -5.118211E-09  2.088494E-09
        52  16 -2.313723E+05 -2.579130E+06 -2.355237E+05 -2.665950E+03  2.252895E-09 -1.064847E-09
        52  17 -2.219982E+05 -2.549380E+06 -2.328357E+05  1.047140E+04 -4.557750E-09  1.122713E-09
        52  18 -2.277975E+05 -2.524132E+06 -2.403338E+05  2.999772E+03 -6.989118E-09  1.935563E-09
        52  19  2.296632E+05 -7.237473E+05  2.108598E+05 -6.460349E+03 -2.788350E+04 -5.387290E+03
        52  20  2.251958E+05 -7.493020E+05  1.993558E+05  9.408180E+02 -2.838175E+04 -1.250560E+04
        52  21  2.060801E+05 -7.788439E+05  1.796836E+05 -1.226329E+04 -2.600321E+04 -1.960433E+04
        52  22 -8.226860E+02 -1.651834E+06 -1.230051E+04 -4.562228E+03 -2.789176E+04 -4.388188E+03
        52  23  1.628769E+03 -1.649713E+06 -1.671020E+04  5.709183E+03 -2.838185E+04 -1.294449E+04
        52  24 -1.083052E+04 -1.651837E+06 -3.029677E+04 -4.626690E+03 -2.599335E+04 -2.148151E+04
        52  25 -2.313715E+05 -2.579130E+06 -2.355222E+05 -2.665874E+03 -2.790002E+04 -3.390571E+03
        52  26 -2.219973E+05 -2.549379E+06 -2.328338E+05  1.047171E+04 -2.838195E+04 -1.338274E+04
        52  27 -2.277966E+05 -2.524131E+06 -2.403315E+05  3.000261E+03 -2.598353E+04 -2.335604E+04
        53   1  2.115180E+05 -8.267846E+05  1.625755E+05  3.919150E+03  2.717480E+04  3.033163E+04
        53   2  2.129606E+05 -8.433180E+05  1.334202E+05 -6.753887E+03  2.524750E+04  5.358828E+04
        53   3  8.783354E+04 -8.942905E+05  5.751950E+04 -4.360793E+04  7.473646E+03  7.671758E+04
        53   4  5.227121E+03 -1.658822E+06 -3.669198E+04 -5.565410E+03  2.719814E+04  2.720722E+04
        53   5  1.475799E+04 -1.640932E+06 -5.788459E+04  7.110983E+03  2.521495E+04  5.840866E+04
        53   6 -1.037505E+05 -1.658906E+06 -1.313903E+05 -6.398555E+03  7.377893E+03  8.948320E+04
        53   7 -2.011136E+05 -2.490223E+06 -2.360084E+05 -1.503610E+04  2.722160E+04  2.408697E+04
        53   8 -1.834903E+05 -2.437961E+06 -2.492344E+05  2.095901E+04  2.518259E+04  6.322283E+04
        53   9 -2.953735E+05 -2.422986E+06 -3.203424E+05  3.076589E+04  7.283617E+03  1.022330E+05
        53  10  2.115170E+05 -8.267858E+05  1.625724E+05  3.918486E+03 -6.653940E-09 -5.972910E-09
        53  11  2.129591E+05 -8.433212E+05  1.334136E+05 -6.754977E+03  2.443625E-09 -9.975819E-09
        53  12  8.783190E+04 -8.942968E+05  5.750832E+04 -4.360839E+04 -2.256066E-09  4.692910E-09
        53  13  5.226128E+03 -1.658823E+06 -3.669477E+04 -5.566006E+03 -7.239481E-09  3.590242E-09
        53  14  1.475639E+04 -1.640935E+06 -5.789222E+04  7.109797E+03 -4.347338E-09 -8.063152E-09
        53  15 -1.037527E+05 -1.658914E+06 -1.314055E+05 -6.399088E+03  2.537481E-09  2.525549E-09
        53  16 -2.011145E+05 -2.490224E+06 -2.360109E+05 -1.503662E+04 -5.122015E-10  5.858582E-09
        53  17 -1.834921E+05 -2.437965E+06 -2.492432E+05  2.095772E+04 -9.629836E-09  4.612191E-10
        53  18 -2.953764E+05 -2.422997E+06 -3.203622E+05  3.076529E+04  1.066570E-09 -6.369264E-09
        53  19  2.115180E+05 -8.267846E+05  1.625755E+05  3.919150E+03 -2.717480E+04 -3.033163E+04
        53  20  2.129606E+05 -8.433180E+05  1.334202E+05 -6.753887E+03 -2.524750E+04 -5.358828E+04
        53  21  8.783354E+04 -8.942905E+05  5.751950E+04 -4.360793E+04 -7.473646E+03 -7.671758E+04
        53  22  5.227121E+03 -1.658822E+06 -3.669198E+04 -5.565410E+03 -2.719814E+04 -2.720722E+04
        53  23  1.475799E+04 -1.640932E+06 -5.788459E+04  7.110983E+03 -2.521495E+04 -5.840866E+04
        53  24 -1.037505E+05 -1.658906E+06 -1.313903E+05 -6.398555E+03 -7.377893E+03 -8.948320E+04
        53  25 -2.011136E+05 -2.490223E+06 -2.360084E+05 -1.503610E+04 -2.722160E+04 -2.408697E+04
        53  26 -1.834903E+05 -2.437961E+06 -2.492344E+05  2.095901E+04 -2.518259E+04 -6.322283E+04
        53  27 -2.953735E+05 -2.422986E+06 -3.203424E+05  3.076589E+04 -7.283617E+03 -1.022330E+05
        54   1  8.479390E+04  9.337698E+05  4.831836E+04 -1.671988E+02  2.967292E+04 -5.262902E+02
        54   2  8.491159E+04  9.338692E+05  4.895793E+04 -1.373465E+02  2.957171E+04 -1.358672E+03
        54   3  8.523384E+04  9.341356E+05  5.019237E+04 -9.119663E+01  2.933654E+04 -2.191142E+03
        54   4 -2.981796E+01  5.570552E+05  5.853884E+02  3.612002E+00  2.967478E+04 -4.430702E+02
        54   5  1.739043E+01  5.569995E+05  1.027484E+03 -4.491035E+00  2.957342E+04 -9.532497E+02
        54   6  2.133420E+02  5.570550E+05  1.841081E+03  3.703754E+00  2.933806E+04 -1.463512E+03
        54   7 -8.485932E+04  1.804862E+05 -4.714807E+04  1.743276E+02  2.967665E+04 -3.598980E+02
        54   8 -8.488262E+04  1.802753E+05 -4.690350E+04  1.282951E+02  2.957513E+04 -5.480611E+02
        54   9 -8.481301E+04  1.801198E+05 -4.651085E+04  9.856059E+01  2.933957E+04 -7.363019E+02
        54  10  8.479295E+04  9.337695E+05  4.831670E+04 -1.671862E+02  4.803338E-09  4.745288E-08
        54  11  8.491065E+04  9.338690E+05  4.895629E+04 -1.373142E+02  1.900293E-09  7.421986E-09
        54  12  8.523291E+04  9.341354E+05  5.019074E+04 -9.114488E+01 -3.152018E-10 -2.998621E-08
        54  13 -3.076387E+01  5.570550E+05  5.837328E+02  3.622589E+00 -1.575271E-08  4.378798E-10
        54  14  1.645079E+01  5.569993E+05  1.025838E+03 -4.468335E+00 -1.356276E-08 -9.400641E-10
        54  15  2.124169E+02  5.570547E+05  1.839459E+03  3.738327E+00 -6.011015E-09  5.718914E-10
        54  16 -8.486027E+04  1.804859E+05 -4.714972E+04  1.743362E+02  3.727005E-09 -4.811050E-08
        54  17 -8.488356E+04  1.802751E+05 -4.690515E+04  1.283081E+02 -8.892356E-10 -7.743569E-09
        54  18 -8.481394E+04  1.801196E+05 -4.651247E+04  9.857798E+01 -3.880448E-09  3.016451E-08
        54  19  8.479390E+04  9.337698E+05  4.831836E+04 -1.671988E+02 -2.967292E+04  5.262902E+02
        54  20  8.491159E+04  9.338692E+05  4.895793E+04 -1.373465E+02 -2.957171E+04  1.358672E+03
        54  21  8.523384E+04  9.341356E+05  5.019237E+04 -9.119663E+01 -2.933654E+04  2.191142E+03
        54  22 -2.981796E+01  5.570552E+05  5.853884E+02  3.612002E+00 -2.967478E+04  4.430702E+02
        54  23  1.739043E+01  5.569995E+05  1.027484E+03 -4.491035E+00 -2.957342E+04  9.532497E+02
        54  24  2.133420E+02  5.570550E+05  1.841081E+03  3.703754E+00 -2.933806E+04  1.463512E+03
        54  25 -8.485932E+04  1.804862E+05 -4.714807E+04  1.743276E+02 -2.967665E+04  3.598980E+02
        54  26 -8.488262E+04  1.802753E+05 -4.690350E+04  1.282951E+02 -2.957513E+04  5.480611E+02
        54  27 -8.481301E+04  1.801198E+05 -4.651085E+04  9.856059E+01 -2.933957E+04  7.363019E+02
        55   1  8.543411E+04  9.344613E+05  5.107902E+04 -2.123082E+02  2.918800E+04 -2.627961E+03
        55   2  8.648911E+04  9.341556E+05  5.431348E+04  8.402128E+02  2.835553E+04 -7.221062E+03
        55   3  8.949859E+04  9.349430E+05  6.102571E+04  1.844091E+03  2.652285E+04 -1.181489E+04
        55   4  3.170094E+02  5.571806E+05  2.445232E+03 -1.086680E+01  2.918944E+04 -1.822830E+03
        55   5  1.104056E+03  5.568417E+05  4.366628E+03  1.424015E+01  2.835550E+04 -4.011176E+03
        55   6  3.429118E+03  5.571793E+05  8.098318E+03 -9.303421E+00  2.652105E+04 -6.200229E+03
        55   7 -8.480598E+04  1.800455E+05 -4.618927E+04  1.904643E+02  2.919088E+04 -1.018163E+03
        55   8 -8.428702E+04  1.796729E+05 -4.558125E+04 -8.111881E+02  2.835547E+04 -8.031464E+02
        55   9 -8.264668E+04  1.795602E+05 -4.483081E+04 -1.861501E+03  2.651922E+04 -5.888282E+02
        55  10  8.543319E+04  9.344611E+05  5.107740E+04 -2.122465E+02  4.804639E-09  8.122892E-09
        55  11  8.648823E+04  9.341554E+05  5.431187E+04  8.403776E+02  7.011909E-09 -4.376205E-09
        55  12  8.949780E+04  9.349427E+05  6.102413E+04  1.844343E+03 -2.244431E-10 -1.380912E-08
        55  13  3.160934E+02  5.571803E+05  2.443624E+03 -1.082396E+01 -1.651023E-09  6.354545E-10
        55  14  1.103188E+03  5.568414E+05  4.365087E+03  1.433174E+01  2.780478E-09 -1.053802E-09
        55  15  3.428352E+03  5.571791E+05  8.096923E+03 -9.171015E+00  4.715750E-10  8.562313E-10
        55  16 -8.480690E+04  1.800452E+05 -4.619087E+04  1.904882E+02 -3.932124E-09 -8.916089E-09
        55  17 -8.428789E+04  1.796727E+05 -4.558276E+04 -8.111698E+02 -2.264337E-09  3.996409E-09
        55  18 -8.264744E+04  1.795600E+05 -4.483213E+04 -1.861488E+03 -3.940264E-10  1.403001E-08
        55  19  8.543411E+04  9.344613E+05  5.107902E+04 -2.123082E+02 -2.918800E+04  2.627961E+03
        55  20  8.648911E+04  9.341556E+05  5.431348E+04  8.402128E+02 -2.835553E+04  7.221062E+03
        55  21  8.949859E+04  9.349430E+05  6.102571E+04  1.844091E+03 -2.652285E+04  1.181489E+04
        55  22  3.170094E+02  5.571806E+05  2.445232E+03 -1.086680E+01 -2.918944E+04  1.822830E+03
        55  23  1.104056E+03  5.568417E+05  4.366628E+03  1.424015E+01 -2.835550E+04  4.011176E+03
        55  24  3.429118E+03  5.571793E+05  8.098318E+03 -9.303421E+00 -2.652105E+04  6.200229E+03
        55  25 -8.480598E+04  1.800455E+05 -4.618927E+04  1.904643E+02 -2.919088E+04  1.018163E+03
        55  26 -8.428702E+04  1.796729E+05 -4.558125E+04 -8.111881E+02 -2.835547E+04  8.031464E+02
        55  27 -8.264668E+04  1.795602E+05 -4.483081E+04 -1.861501E+03 -2.651922E+04  5.888282E+02
        56   1  9.133288E+04  9.366255E+05  6.577265E+04  1.139205E+03  2.536473E+04 -1.381875E+04
        56   2  1.018033E+05  9.328604E+05  8.450467E+04  1.352219E+04  1.909857E+04 -4.184737E+04
        56   3  1.305544E+05  9.373151E+05  1.260377E+05  2.531758E+04  5.425591E+03 -6.988258E+04
        56   4  4.727524E+03  5.581704E+05  1.086037E+04 -1.305888E+02  2.536229E+04 -7.614172E+03
        56   5  1.355184E+04  5.555982E+05  2.007094E+04  1.737115E+02  1.908388E+04 -1.784239E+04
        56   6  3.757444E+04  5.581615E+05  3.973526E+04 -1.098235E+02  5.397688E+03 -2.807661E+04
        56   7 -8.188439E+04  1.798596E+05 -4.405412E+04 -1.399555E+03  2.535982E+04 -1.413212E+03
        56   8 -7.470619E+04  1.784774E+05 -4.436525E+04 -1.316639E+04  1.906816E+04  6.148476E+03
        56   9 -5.541204E+04  1.791461E+05 -4.656964E+04 -2.552156E+04  5.366356E+03  1.370408E+04
        56  10  9.133214E+04  9.366252E+05  6.577108E+04  1.139487E+03  1.660163E-10  5.792772E-09
        56  11  1.018024E+05  9.328584E+05  8.450070E+04  1.352284E+04  2.658533E-09 -2.325009E-10
        56  12  1.305530E+05  9.373099E+05  1.260285E+05  2.531789E+04  5.033914E-10 -3.453982E-09
        56  13  4.726818E+03  5.581701E+05  1.085905E+04 -1.304333E+02 -5.443564E-09  7.524662E-10
        56  14  1.355137E+04  5.555978E+05  2.006966E+04  1.739857E+02 -1.250361E-09 -1.427528E-09
        56  15  3.757419E+04  5.581606E+05  3.973372E+04 -1.097015E+02  1.214945E-09  9.538151E-10
        56  16 -8.188508E+04  1.798594E+05 -4.405533E+04 -1.399526E+03 -2.006849E-09 -6.671123E-09
        56  17 -7.470659E+04  1.784773E+05 -4.436601E+04 -1.316648E+04 -1.850560E-09 -1.301946E-10
        56  18 -5.541213E+04  1.791459E+05 -4.657005E+04 -2.552162E+04 -1.064021E-09  3.643890E-09
        56  19  9.133288E+04  9.366255E+05  6.577265E+04  1.139205E+03 -2.536473E+04  1.381875E+04
        56  20  1.018033E+05  9.328604E+05  8.450467E+04  1.352219E+04 -1.909857E+04  4.184737E+04
        56  21  1.305544E+05  9.373151E+05  1.260377E+05  2.531758E+04 -5.425591E+03  6.988258E+04
        56  22  4.727524E+03  5.581704E+05  1.086037E+04 -1.305888E+02 -2.536229E+04  7.614172E+03
        56  23  1.355184E+04  5.555982E+05  2.007094E+04  1.737115E+02 -1.908388E+04  1.784239E+04
        56  24  3.757444E+04  5.581615E+05  3.973526E+04 -1.098235E+02 -5.397688E+03  2.807661E+04
        56  25 -8.188439E+04  1.798596E+05 -4.405412E+04 -1.399555E+03 -2.535982E+04  1.413212E+03
        56  26 -7.470619E+04  1.784774E+05 -4.436525E+04 -1.316639E+04 -1.906816E+04 -6.148476E+03
        56  27 -5.541204E+04  1.791461E+05 -4.656964E+04 -2.552156E+04 -5.366356E+03 -1.370408E+04
        57   1 -1.064772E+07 -3.115100E+06 -1.899435E+06 -3.721091E+06 -9.378029E+05 -3.397180E+05
        57   2 -1.042126E+07 -1.764100E+06 -1.034226E+06 -3.944726E+06 -6.090911E+05 -1.783242E+05
        57   3 -1.075672E+07 -1.790148E+06 -8.029410E+05 -3.808139E+06 -2.674633E+05 -5.085307E+04
        57   4 -9.231378E+06 -2.312111E+06 -1.455002E+06 -3.070666E+06 -9.210623E+05 -3.338295E+05
        57   5 -8.873780E+06 -1.102415E+06 -6.004408E+05 -3.448778E+06 -6.044848E+05 -1.766707E+05
        57   6 -9.074430E+06 -1.265365E+06 -3.689278E+05 -3.467076E+06 -2.749335E+05 -5.362701E+04
        57   7 -7.812884E+06 -1.508133E+06 -1.010765E+06 -2.418627E+06 -9.042769E+05 -3.279051E+05
        57   8 -7.323932E+06 -4.404021E+05 -1.668839E+05 -2.951627E+06 -5.998640E+05 -1.750102E+05
        57   9 -7.389358E+06 -7.406107E+05  6.486196E+04 -3.125263E+06 -2.824255E+05 -5.640575E+04
        57  10 -1.064871E+07 -3.115468E+06 -1.901342E+06 -3.721351E+06  2.294065E-09 -3.531554E-10
        57  11 -1.042167E+07 -1.764236E+06 -1.034998E+06 -3.944815E+06 -1.441089E-09 -3.551352E-09
        57  12 -1.075680E+07 -1.790171E+06 -8.030830E+05 -3.808150E+06 -5.449996E-09 -1.160218E-09
        57  13 -9.232331E+06 -2.312465E+06 -1.456836E+06 -3.070916E+06  2.539997E-09 -2.227160E-09
        57  14 -8.874186E+06 -1.102549E+06 -6.011986E+05 -3.448865E+06 -3.491256E-09 -6.693710E-09
        57  15 -9.074513E+06 -1.265388E+06 -3.690777E+05 -3.467088E+06 -1.568869E-09  4.245686E-10
        57  16 -7.813801E+06 -1.508473E+06 -1.012528E+06 -2.418868E+06 -5.823639E-09 -2.988900E-09
        57  17 -7.324331E+06 -4.405336E+05 -1.676279E+05 -2.951712E+06 -3.245997E-09 -6.867372E-09
        57  18 -7.389446E+06 -7.406360E+05  6.470397E+04 -3.125276E+06 -2.403711E-09  2.220575E-09
        57  19 -1.064772E+07 -3.115100E+06 -1.899435E+06 -3.721091E+06  9.378029E+05  3.397180E+05
        57  20 -1.042126E+07 -1.764100E+06 -1.034226E+06 -3.944726E+06  6.090911E+05  1.783242E+05
        57  21 -1.075672E+07 -1.790148E+06 -8.029410E+05 -3.808139E+06  2.674633E+05  5.085307E+04
        57  22 -9.231378E+06 -2.312111E+06 -1.455002E+06 -3.070666E+06  9.210623E+05  3.338295E+05
        57  23 -8.873780E+06 -1.102415E+06 -6.004408E+05 -3.448778E+06  6.044848E+05  1.766707E+05
        57  24 -9.074430E+06 -1.265365E+06 -3.689278E+05 -3.467076E+06  2.749335E+05  5.362701E+04
        57  25 -7.812884E+06 -1.508133E+06 -1.010765E+06 -2.418627E+06  9.042769E+05  3.279051E+05
        57  26 -7.323932E+06 -4.404021E+05 -1.668839E+05 -2.951627E+06  5.998640E+05  1.750102E+05
        57  27 -7.389358E+06 -7.406107E+05  6.486196E+04 -3.125263E+06  2.824255E+05  5.640575E+04
        58   1 -1.047972E+07 -2.029415E+06 -7.067390E+05 -3.825116E+06 -2.202341E+05 -3.957286E+04
        58   2 -1.038509E+07 -1.784699E+06 -5.171653E+05 -3.780837E+06 -1.445696E+05 -1.111107E+04
        58   3 -1.028586E+07 -1.785769E+06 -4.304685E+05 -3.778288E+06 -6.692759E+04  1.210638E+04
        58   4 -9.011867E+06 -1.441248E+06 -3.017046E+05 -3.394944E+06 -2.196279E+05 -3.936458E+04
        58   5 -9.004734E+06 -1.253510E+06 -1.413150E+05 -3.398418E+06 -1.457662E+05 -1.156981E+04
        58   6 -8.992496E+06 -1.310936E+06 -8.215937E+04 -3.443649E+06 -6.994118E+04  1.097455E+04
        58   7 -7.541893E+06 -8.528832E+05  1.031300E+05 -2.963809E+06 -2.190196E+05 -3.915538E+04
        58   8 -7.622513E+06 -7.221916E+05  2.343623E+05 -3.015209E+06 -1.469655E+05 -1.202956E+04
        58   9 -7.697494E+06 -8.360323E+05  2.660010E+05 -3.108380E+06 -7.296167E+04  9.840336E+03
        58  10 -1.047977E+07 -2.029430E+06 -7.068348E+05 -3.825123E+06  6.042325E-10  1.741981E-09
        58  11 -1.038511E+07 -1.784705E+06 -5.172055E+05 -3.780839E+06 -2.516104E-09 -1.930033E-09
        58  12 -1.028587E+07 -1.785770E+06 -4.304773E+05 -3.778288E+06  1.664124E-10 -1.903369E-09
        58  13 -9.011919E+06 -1.441263E+06 -3.017996E+05 -3.394951E+06 -1.418492E-09  2.139548E-09
        58  14 -9.004757E+06 -1.253515E+06 -1.413557E+05 -3.398419E+06 -4.842070E-09 -2.251011E-09
        58  15 -8.992501E+06 -1.310938E+06 -8.216889E+04 -3.443649E+06 -5.105171E-10 -9.625411E-10
        58  16 -7.541945E+06 -8.528980E+05  1.030357E+05 -2.963816E+06 -2.059416E-09  1.576636E-09
        58  17 -7.622537E+06 -7.221976E+05  2.343209E+05 -3.015211E+06 -3.821461E-09 -1.067368E-09
        58  18 -7.697500E+06 -8.360339E+05  2.659907E+05 -3.108379E+06 -1.094462E-09  3.951978E-11
        58  19 -1.047972E+07 -2.029415E+06 -7.067390E+05 -3.825116E+06  2.202341E+05  3.957286E+04
        58  20 -1.038509E+07 -1.784699E+06 -5.171653E+05 -3.780837E+06  1.445696E+05  1.111107E+04
        58  21 -1.028586E+07 -1.785769E+06 -4.304685E+05 -3.778288E+06  6.692759E+04 -1.210638E+04
        58  22 -9.011867E+06 -1.441248E+06 -3.017046E+05 -3.394944E+06  2.196279E+05  3.936458E+04
        58  23 -9.004734E+06 -1.253510E+06 -1.413150E+05 -3.398418E+06  1.457662E+05  1.156981E+04
        58  24 -8.992496E+06 -1.310936E+06 -8.215937E+04 -3.443649E+06  6.994118E+04 -1.097455E+04
        58  25 -7.541893E+06 -8.528832E+05  1.031300E+05 -2.963809E+06  2.190196E+05  3.915538E+04
        58  26 -7.622513E+06 -7.221916E+05  2.343623E+05 -3.015209E+06  1.469655E+05  1.202956E+04
        58  27 -7.697494E+06 -8.360323E+05  2.660010E+05 -3.108380E+06  7.296167E+04 -9.840336E+03
        59   1 -9.971493E+06 -1.722486E+06 -3.351571E+05 -3.718652E+06 -5.447160E+04  1.218906E+04
        59   2 -9.853114E+06 -1.569949E+06 -2.551046E+05 -3.599785E+06 -3.481362E+04  1.237749E+04
        59   3 -9.615637E+06 -1.566629E+06 -1.935749E+05 -3.623184E+06 -1.460457E+04  1.105393E+04
        59   4 -8.974564E+06 -1.342538E+06 -6.484135E+04 -3.446065E+06 -5.660409E+04  1.138833E+04
        59   5 -9.032912E+06 -1.259706E+06 -3.287323E+04 -3.377990E+06 -3.748819E+04  1.137794E+04
        59   6 -8.972076E+06 -1.325952E+06 -1.896491E+04 -3.452181E+06 -1.782704E+04  9.854423E+03
        59   7 -7.976663E+06 -9.625297E+05  2.053840E+05 -3.173075E+06 -5.874035E+04  1.058618E+04
        59   8 -8.212053E+06 -9.494246E+05  1.892975E+05 -3.155925E+06 -4.016667E+04  1.037693E+04
        59   9 -8.328110E+06 -1.085253E+06  1.556081E+05 -3.281016E+06 -2.105324E+04  8.653555E+03
        59  10 -9.971496E+06 -1.722487E+06 -3.351630E+05 -3.718651E+06  5.689249E-09  3.553867E-10
        59  11 -9.853115E+06 -1.569949E+06 -2.551072E+05 -3.599785E+06  2.605476E-09  5.428602E-10
        59  12 -9.615637E+06 -1.566629E+06 -1.935755E+05 -3.623184E+06 -4.413725E-09  1.336717E-09
        59  13 -8.974567E+06 -1.342539E+06 -6.484768E+04 -3.446065E+06  3.002107E-09 -1.928127E-09
        59  14 -9.032914E+06 -1.259707E+06 -3.287614E+04 -3.377989E+06  8.529239E-10  7.189575E-10
        59  15 -8.972077E+06 -1.325952E+06 -1.896570E+04 -3.452181E+06 -2.636260E-09 -3.086995E-10
        59  16 -7.976667E+06 -9.625308E+05  2.053772E+05 -3.173074E+06 -4.802670E-09  8.004620E-10
        59  17 -8.212054E+06 -9.494251E+05  1.892943E+05 -3.155924E+06 -3.051832E-09  1.699984E-09
        59  18 -8.328111E+06 -1.085253E+06  1.556071E+05 -3.281016E+06 -3.003669E-09  9.962883E-11
        59  19 -9.971493E+06 -1.722486E+06 -3.351571E+05 -3.718652E+06  5.447160E+04 -1.218906E+04
        59  20 -9.853114E+06 -1.569949E+06 -2.551046E+05 -3.599785E+06  3.481362E+04 -1.237749E+04
        59  21 -9.615637E+06 -1.566629E+06 -1.935749E+05 -3.623184E+06  1.460457E+04 -1.105393E+04
        59  22 -8.974564E+06 -1.342538E+06 -6.484135E+04 -3.446065E+06  5.660409E+04 -1.138833E+04
        59  23 -9.032912E+06 -1.259706E+06 -3.287323E+04 -3.377990E+06  3.748819E+04 -1.137794E+04
        59  24 -8.972076E+06 -1.325952E+06 -1.896491E+04 -3.452181E+06  1.782704E+04 -9.854423E+03
        59  25 -7.976663E+06 -9.625297E+05  2.053840E+05 -3.173075E+06  5.874035E+04 -1.058618E+04
        59  26 -8.212053E+06 -9.494246E+05  1.892975E+05 -3.155925E+06  4.016667E+04 -1.037693E+04
        59  27 -8.328110E+06 -1.085253E+06  1.556081E+05 -3.281016E+06  2.105324E+04 -8.653555E+03
        60   1 -9.220790E+06 -1.428917E+06 -8.309482E+04 -3.524895E+06 -1.011834E+04  7.099881E+03
        60   2 -9.085937E+06 -1.273651E+06 -2.143906E+04 -3.383209E+06 -2.460724E+03  5.057205E+02
        60   3 -8.804454E+06 -1.270092E+06  3.588167E+04 -3.412880E+06  5.232555E+03 -6.183081E+03
        60   4 -8.966795E+06 -1.333029E+06 -1.505391E+04 -3.456188E+06 -1.323081E+04  5.943020E+03
        60   5 -9.039961E+06 -1.256310E+06 -8.997167E+03 -3.370819E+06 -5.607725E+03 -6.638238E+02
        60   6 -8.966530E+06 -1.331290E+06 -7.241936E+03 -3.456823E+06  2.049259E+03 -7.365775E+03
        60   7 -8.712736E+06 -1.237137E+06  5.298132E+04 -3.387454E+06 -1.634470E+04  4.785627E+03
        60   8 -8.993982E+06 -1.238968E+06  3.444566E+03 -3.358428E+06 -8.754983E+03 -1.833464E+03
        60   9 -9.128580E+06 -1.392487E+06 -5.036770E+04 -3.500756E+06 -1.133107E+03 -8.548118E+03
        60  10 -9.220790E+06 -1.428917E+06 -8.309511E+04 -3.524895E+06 -5.093785E-10  7.936406E-10
        60  11 -9.085937E+06 -1.273651E+06 -2.143907E+04 -3.383209E+06 -2.137340E-09 -2.287987E-09
        60  12 -8.804454E+06 -1.270092E+06  3.588155E+04 -3.412880E+06  3.386732E-09 -9.707040E-10
        60  13 -8.966795E+06 -1.333029E+06 -1.505431E+04 -3.456188E+06 -8.866813E-10 -1.769647E-09
        60  14 -9.039961E+06 -1.256310E+06 -8.997228E+03 -3.370819E+06  7.894665E-09  8.315999E-10
        60  15 -8.966530E+06 -1.331291E+06 -7.242045E+03 -3.456823E+06 -3.113400E-09 -1.764329E-09
        60  16 -8.712736E+06 -1.237137E+06  5.298077E+04 -3.387454E+06  2.198403E-09  7.123564E-10
        60  17 -8.993982E+06 -1.238968E+06  3.444413E+03 -3.358428E+06  4.450868E-09  3.638002E-09
        60  18 -9.128580E+06 -1.392488E+06 -5.036784E+04 -3.500756E+06 -3.284654E-09 -1.512866E-09
        60  19 -9.220790E+06 -1.428917E+06 -8.309482E+04 -3.524895E+06  1.011834E+04 -7.099881E+03
        60  20 -9.085937E+06 -1.273651E+06 -2.143906E+04 -3.383209E+06  2.460724E+03 -5.057205E+02
        60  21 -8.804454E+06 -1.270092E+06  3.588167E+04 -3.412880E+06 -5.232555E+03  6.183081E+03
        60  22 -8.966795E+06 -1.333029E+06 -1.505391E+04 -3.456188E+06  1.323081E+04 -5.943020E+03
        60  23 -9.039961E+06 -1.256310E+06 -8.997167E+03 -3.370819E+06  5.607725E+03  6.638238E+02
        60  24 -8.966530E+06 -1.331290E+06 -7.241936E+03 -3.456823E+06 -2.049259E+03  7.365775E+03
        60  25 -8.712736E+06 -1.237137E+06  5.298132E+04 -3.387454E+06  1.634470E+04 -4.785627E+03
        60  26 -8.993982E+06 -1.238968E+06  3.444566E+03 -3.358428E+06  8.754983E+03  1.833464E+03
        60  27 -9.128580E+06 -1.392487E+06 -5.036770E+04 -3.500756E+06  1.133107E+03  8.548118E+03
        61   1 -8.413276E+06 -1.118017E+06  1.441531E+05 -3.303156E+06  8.271605E+03 -1.071646E+04
        61   2 -8.294780E+06 -9.817063E+05  1.913472E+05 -3.176517E+06  1.539291E+04 -1.710928E+04
        61   3 -8.044810E+06 -9.801634E+05  2.348743E+05 -3.201305E+06  2.212424E+04 -2.240257E+04
        61   4 -8.969987E+06 -1.327441E+06 -7.151212E+03 -3.452476E+06  5.065649E+03 -1.190903E+04
        61   5 -9.035856E+06 -1.261188E+06 -9.116685E+03 -3.376318E+06  1.259546E+04 -1.815350E+04
        61   6 -8.970363E+06 -1.329803E+06 -1.507786E+04 -3.451615E+06  1.973365E+04 -2.329817E+04
        61   7 -9.526397E+06 -1.536847E+06 -1.584839E+05 -3.601674E+06  1.862885E+03 -1.310042E+04
        61   8 -9.776397E+06 -1.540638E+06 -2.096301E+05 -3.575901E+06  9.801725E+03 -1.919633E+04
        61   9 -9.895078E+06 -1.679393E+06 -2.651069E+05 -3.701583E+06  1.734701E+04 -2.419229E+04
        61  10 -8.413276E+06 -1.118017E+06  1.441528E+05 -3.303156E+06  4.269758E-09  3.739430E-09
        61  11 -8.294780E+06 -9.817067E+05  1.913462E+05 -3.176517E+06  3.929338E-10 -3.649841E-09
        61  12 -8.044811E+06 -9.801641E+05  2.348724E+05 -3.201305E+06 -2.827029E-09 -2.036607E-09
        61  13 -8.969987E+06 -1.327441E+06 -7.151526E+03 -3.452476E+06 -2.551091E-10 -1.657163E-09
        61  14 -9.035856E+06 -1.261188E+06 -9.117599E+03 -3.376318E+06  4.874594E-09  2.006357E-09
        61  15 -8.970363E+06 -1.329804E+06 -1.507961E+04 -3.451615E+06  1.823350E-09 -6.583297E-10
        61  16 -9.526397E+06 -1.536848E+06 -1.584842E+05 -3.601674E+06 -4.775432E-09 -1.934685E-09
        61  17 -9.776397E+06 -1.540638E+06 -2.096310E+05 -3.575901E+06  4.359463E-09  4.648570E-09
        61  18 -9.895079E+06 -1.679394E+06 -2.651086E+05 -3.701583E+06  2.273774E-09  3.257674E-10
        61  19 -8.413276E+06 -1.118017E+06  1.441531E+05 -3.303156E+06 -8.271605E+03  1.071646E+04
        61  20 -8.294780E+06 -9.817063E+05  1.913472E+05 -3.176517E+06 -1.539291E+04  1.710928E+04
        61  21 -8.044810E+06 -9.801634E+05  2.348743E+05 -3.201305E+06 -2.212424E+04  2.240257E+04
        61  22 -8.969987E+06 -1.327441E+06 -7.151212E+03 -3.452476E+06 -5.065649E+03  1.190903E+04
        61  23 -9.035856E+06 -1.261188E+06 -9.116685E+03 -3.376318E+06 -1.259546E+04  1.815350E+04
        61  24 -8.970363E+06 -1.329803E+06 -1.507786E+04 -3.451615E+06 -1.973365E+04  2.329817E+04
        61  25 -9.526397E+06 -1.536847E+06 -1.584839E+05 -3.601674E+06 -1.862885E+03  1.310042E+04
        61  26 -9.776397E+06 -1.540638E+06 -2.096301E+05 -3.575901E+06 -9.801725E+03  1.919633E+04
        61  27 -9.895078E+06 -1.679393E+06 -2.651069E+05 -3.701583E+06 -1.734701E+04  2.419229E+04
        62   1 -7.754714E+06 -8.542633E+05  3.134411E+05 -3.110308E+06  2.642740E+04 -2.513826E+04
        62   2 -7.682131E+06 -7.651339E+05  3.295155E+05 -3.028816E+06  4.455751E+04 -2.466694E+04
        62   3 -7.533287E+06 -7.785618E+05  3.287998E+05 -3.035405E+06  6.188041E+04 -2.198234E+04
        62   4 -8.981904E+06 -1.316061E+06 -1.890107E+04 -3.440096E+06  2.390030E+04 -2.608814E+04
        62   5 -9.021203E+06 -1.272985E+06 -3.314837E+04 -3.392961E+06  4.282982E+04 -2.532200E+04
        62   6 -8.984432E+06 -1.332675E+06 -6.485621E+04 -3.433923E+06  6.094806E+04 -2.234162E+04
        62   7 -1.020762E+07 -1.777775E+06 -3.513781E+05 -3.769287E+06  2.137874E+04 -2.703598E+04
        62   8 -1.035852E+07 -1.780730E+06 -3.959739E+05 -3.756385E+06  4.110621E+04 -2.597553E+04
        62   9 -1.043352E+07 -1.886657E+06 -4.587036E+05 -3.831585E+06  6.001803E+04 -2.270004E+04
        62  10 -7.754715E+06 -8.542642E+05  3.134386E+05 -3.110308E+06 -3.005089E-09 -3.286485E-11
        62  11 -7.682133E+06 -7.651351E+05  3.295106E+05 -3.028815E+06  4.237447E-10 -3.542202E-09
        62  12 -7.533292E+06 -7.785633E+05  3.287916E+05 -3.035404E+06  2.974728E-09 -1.796894E-09
        62  13 -8.981905E+06 -1.316062E+06 -1.890342E+04 -3.440096E+06  1.103723E-09 -6.081169E-10
        62  14 -9.021205E+06 -1.272986E+06 -3.315304E+04 -3.392960E+06  1.449426E-09 -2.506488E-09
        62  15 -8.984436E+06 -1.332677E+06 -6.486418E+04 -3.433922E+06 -3.501950E-10 -4.130427E-09
        62  16 -1.020762E+07 -1.777775E+06 -3.513804E+05 -3.769287E+06  2.969566E-09  6.582401E-10
        62  17 -1.035853E+07 -1.780731E+06 -3.959784E+05 -3.756384E+06  3.225707E-09  2.617866E-10
        62  18 -1.043353E+07 -1.886658E+06 -4.587114E+05 -3.831584E+06 -1.220468E-09  2.040220E-09
        62  19 -7.754714E+06 -8.542633E+05  3.134411E+05 -3.110308E+06 -2.642740E+04  2.513826E+04
        62  20 -7.682131E+06 -7.651339E+05  3.295155E+05 -3.028816E+06 -4.455751E+04  2.466694E+04
        62  21 -7.533287E+06 -7.785618E+05  3.287998E+05 -3.035405E+06 -6.188041E+04  2.198234E+04
        62  22 -8.981904E+06 -1.316061E+06 -1.890107E+04 -3.440096E+06 -2.390030E+04  2.608814E+04
        62  23 -9.021203E+06 -1.272985E+06 -3.314837E+04 -3.392961E+06 -4.282982E+04  2.532200E+04
        62  24 -8.984432E+06 -1.332675E+06 -6.485621E+04 -3.433923E+06 -6.094806E+04  2.234162E+04
        62  25 -1.020762E+07 -1.777775E+06 -3.513781E+05 -3.769287E+06 -2.137874E+04  2.703598E+04
        62  26 -1.035852E+07 -1.780730E+06 -3.959739E+05 -3.756385E+06 -4.110621E+04  2.597553E+04
        62  27 -1.043352E+07 -1.886657E+06 -4.587036E+05 -3.831585E+06 -6.001803E+04  2.270004E+04
        63   1 -7.412245E+06 -7.059426E+05  3.471709E+05 -3.007326E+06  7.519076E+04 -1.921365E+04
        63   2 -7.395348E+06 -6.570444E+05  2.915398E+05 -2.974853E+06  1.481171E+05  6.425408E+03
        63   3 -7.435749E+06 -7.884066E+05  1.364039E+05 -2.910271E+06  2.191605E+05  3.702308E+04
        63   4 -9.006570E+06 -1.297211E+06 -8.228711E+04 -3.427221E+06  7.351321E+04 -1.985419E+04
        63   5 -8.987464E+06 -1.271582E+06 -1.416598E+05 -3.418830E+06  1.481275E+05  6.417892E+03
        63   6 -9.026181E+06 -1.426842E+06 -3.020918E+05 -3.378291E+06  2.208566E+05  3.764768E+04
        63   7 -1.059841E+07 -1.888357E+06 -5.119716E+05 -3.846140E+06  7.184029E+04 -2.049311E+04
        63   8 -1.057710E+07 -1.885946E+06 -5.750896E+05 -3.861755E+06  1.481374E+05  6.410181E+03
        63   9 -1.061413E+07 -2.065046E+06 -7.408221E+05 -3.845181E+06  2.225471E+05  3.826992E+04
        63  10 -7.412251E+06 -7.059445E+05  3.471595E+05 -3.007325E+06  6.292466E-09 -4.061875E-09
        63  11 -7.395372E+06 -6.570504E+05  2.914980E+05 -2.974854E+06 -1.610249E-09 -2.488691E-09
        63  12 -7.435801E+06 -7.884212E+05  1.363098E+05 -2.910278E+06 -3.071942E-09 -6.713962E-10
        63  13 -9.006576E+06 -1.297212E+06 -8.229811E+04 -3.427220E+06 -1.245176E-09 -3.809196E-09
        63  14 -8.987488E+06 -1.271588E+06 -1.417017E+05 -3.418831E+06  6.474003E-09 -3.643074E-09
        63  15 -9.026235E+06 -1.426857E+06 -3.021876E+05 -3.378298E+06  3.051811E-09 -1.664855E-09
        63  16 -1.059842E+07 -1.888359E+06 -5.119822E+05 -3.846139E+06 -2.493590E-09 -2.147236E-10
        63  17 -1.057712E+07 -1.885952E+06 -5.751316E+05 -3.861755E+06 -4.562159E-09  1.190662E-09
        63  18 -1.061419E+07 -2.065061E+06 -7.409197E+05 -3.845188E+06  1.441390E-09 -2.630218E-09
        63  19 -7.412245E+06 -7.059426E+05  3.471709E+05 -3.007326E+06 -7.519076E+04  1.921365E+04
        63  20 -7.395348E+06 -6.570444E+05  2.915398E+05 -2.974853E+06 -1.481171E+05 -6.425408E+03
        63  21 -7.435749E+06 -7.884066E+05  1.364039E+05 -2.910271E+06 -2.191605E+05 -3.702308E+04
        63  22 -9.006570E+06 -1.297211E+06 -8.228711E+04 -3.427221E+06 -7.351321E+04  1.985419E+04
        63  23 -8.987464E+06 -1.271582E+06 -1.416598E+05 -3.418830E+06 -1.481275E+05 -6.417892E+03
        63  24 -9.026181E+06 -1.426842E+06 -3.020918E+05 -3.378291E+06 -2.208566E+05 -3.764768E+04
        63  25 -1.059841E+07 -1.888357E+06 -5.119716E+05 -3.846140E+06 -7.184029E+04  2.049311E+04
        63  26 -1.057710E+07 -1.885946E+06 -5.750896E+05 -3.861755E+06 -1.481374E+05 -6.410181E+03
        63  27 -1.061413E+07 -2.065046E+06 -7.408221E+05 -3.845181E+06 -2.225471E+05 -3.826992E+04
        64   1 -7.463010E+06 -7.459836E+05  4.853193E+04 -3.121225E+06  2.797296E+05  5.710224E+04
        64   2 -7.455074E+06 -5.116759E+05 -2.075292E+05 -3.010267E+06  5.981941E+05  1.816929E+05
        64   3 -8.072733E+06 -1.580289E+06 -1.079129E+06 -2.463422E+06  9.059806E+05  3.339735E+05
        64   4 -9.089187E+06 -1.251118E+06 -3.696054E+05 -3.451086E+06  2.749750E+05  5.534037E+04
        64   5 -8.854537E+06 -1.120421E+06 -6.012800E+05 -3.469484E+06  6.031390E+05  1.834959E+05
        64   6 -9.248712E+06 -2.296602E+06 -1.457324E+06 -3.051526E+06  9.207348E+05  3.391725E+05
        64   7 -1.071277E+07 -1.756280E+06 -7.879503E+05 -3.780251E+06  2.702333E+05  5.358135E+04
        64   8 -1.025206E+07 -1.728871E+06 -9.952180E+05 -3.927688E+06  6.080700E+05  1.852919E+05
        64   9 -1.042315E+07 -3.012038E+06 -1.835647E+06 -3.638390E+06  9.354563E+05  3.443425E+05
        64  10 -7.463095E+06 -7.460085E+05  4.837665E+04 -3.121238E+06  8.351999E-10 -2.602800E-09
        64  11 -7.455471E+06 -5.118096E+05 -2.082741E+05 -3.010356E+06  8.036005E-10  1.467457E-09
        64  12 -8.073655E+06 -1.580634E+06 -1.080906E+06 -2.463668E+06 -6.145993E-10  1.114908E-09
        64  13 -9.089270E+06 -1.251142E+06 -3.697557E+05 -3.451098E+06 -3.733971E-09  3.253917E-09
        64  14 -8.854941E+06 -1.120557E+06 -6.020394E+05 -3.469574E+06 -4.262442E-09 -1.197626E-09
        64  15 -9.249666E+06 -2.296959E+06 -1.459164E+06 -3.051781E+06  2.301948E-09  8.495971E-10
        64  16 -1.071285E+07 -1.756304E+06 -7.880957E+05 -3.780263E+06 -2.455208E-09  8.725881E-10
        64  17 -1.025247E+07 -1.729010E+06 -9.959920E+05 -3.927780E+06 -1.074355E-08  8.749420E-09
        64  18 -1.042414E+07 -3.012408E+06 -1.837550E+06 -3.638653E+06 -2.116817E-09 -4.831566E-10
        64  19 -7.463010E+06 -7.459836E+05  4.853193E+04 -3.121225E+06 -2.797296E+05 -5.710224E+04
        64  20 -7.455074E+06 -5.116759E+05 -2.075292E+05 -3.010267E+06 -5.981941E+05 -1.816929E+05
        64  21 -8.072733E+06 -1.580289E+06 -1.079129E+06 -2.463422E+06 -9.059806E+05 -3.339735E+05
        64  22 -9.089187E+06 -1.251118E+06 -3.696054E+05 -3.451086E+06 -2.749750E+05 -5.534037E+04
        64  23 -8.854537E+06 -1.120421E+06 -6.012800E+05 -3.469484E+06 -6.031390E+05 -1.834959E+05
        64  24 -9.248712E+06 -2.296602E+06 -1.457324E+06 -3.051526E+06 -9.207348E+05 -3.391725E+05
        64  25 -1.071277E+07 -1.756280E+06 -7.879503E+05 -3.780251E+06 -2.702333E+05 -5.358135E+04
        64  26 -1.025206E+07 -1.728871E+06 -9.952180E+05 -3.927688E+06 -6.080700E+05 -1.852919E+05
        64  27 -1.042315E+07 -3.012038E+06 -1.835647E+06 -3.638390E+06 -9.354563E+05 -3.443425E+05
        65   1 -1.687508E+06 -2.553721E+05 -2.079358E+05 -1.640177E+04  1.229770E+05  1.404499E+04
        65   2 -1.640093E+06 -4.215896E+05 -2.972890E+05  3.933723E+02  8.626882E+04  3.948017E+04
        65   3 -1.529176E+06 -3.799795E+05 -3.094584E+05 -6.550344E+04  4.976475E+04  3.521592E+04
        65   4 -3.563806E+04  1.567697E+05  2.022360E+05 -4.433803E+04  1.377989E+05  1.414647E+04
        65   5 -6.825662E+04 -3.014820E+04  8.691266E+04 -2.407798E+03  9.031241E+04  3.949747E+04
        65   6 -3.564603E+04 -7.644733E+03  5.611740E+04 -4.315417E+04  4.303547E+04  3.517921E+04
        65   7  1.618717E+06  5.687108E+05  6.122055E+05 -7.235341E+04  1.526600E+05  1.424649E+04
        65   8  1.505836E+06  3.611106E+05  4.709341E+05 -5.219583E+03  9.436601E+04  3.951472E+04
        65   9  1.459921E+06  3.645263E+05  4.215303E+05 -2.075330E+04  3.628991E+04  3.514206E+04
        65  10 -1.687524E+06 -2.553764E+05 -2.079647E+05 -1.640316E+04 -1.164977E-09  2.790494E-09
        65  11 -1.640102E+06 -4.215933E+05 -2.973060E+05  3.906265E+02  6.446806E-11 -1.635767E-09
        65  12 -1.529179E+06 -3.799815E+05 -3.094654E+05 -6.550485E+04  1.144437E-09 -1.209084E-09
        65  13 -3.565850E+04  1.567644E+05  2.022000E+05 -4.433960E+04  2.162359E-09  1.131865E-09
        65  14 -6.826580E+04 -3.015206E+04  8.689440E+04 -2.410671E+03  1.605791E-09 -8.068247E-09
        65  15 -3.564836E+04 -7.646560E+03  5.611160E+04 -4.315539E+04 -9.366179E-10 -1.232112E-09
        65  16  1.618692E+06  5.687043E+05  6.121614E+05 -7.235516E+04 -3.074321E-09 -8.193080E-10
        65  17  1.505826E+06  3.611066E+05  4.709145E+05 -5.222582E+03 -4.034916E-10 -1.697977E-09
        65  18  1.459919E+06  3.645246E+05  4.215256E+05 -2.075433E+04  1.797071E-10 -3.570229E-09
        65  19 -1.687508E+06 -2.553721E+05 -2.079358E+05 -1.640177E+04 -1.229770E+05 -1.404499E+04
        65  20 -1.640093E+06 -4.215896E+05 -2.972890E+05  3.933723E+02 -8.626882E+04 -3.948017E+04
        65  21 -1.529176E+06 -3.799795E+05 -3.094584E+05 -6.550344E+04 -4.976475E+04 -3.521592E+04
        65  22 -3.563806E+04  1.567697E+05  2.022360E+05 -4.433803E+04 -1.377989E+05 -1.414647E+04
        65  23 -6.825662E+04 -3.014820E+04  8.691266E+04 -2.407798E+03 -9.031241E+04 -3.949747E+04
        65  24 -3.564603E+04 -7.644733E+03  5.611740E+04 -4.315417E+04 -4.303547E+04 -3.517921E+04
        65  25  1.618717E+06  5.687108E+05  6.122055E+05 -7.235341E+04 -1.526600E+05 -1.424649E+04
        65  26  1.505836E+06  3.611106E+05  4.709341E+05 -5.219583E+03 -9.436601E+04 -3.951472E+04
        65  27  1.459921E+06  3.645263E+05  4.215303E+05 -2.075330E+04 -3.628991E+04 -3.514206E+04
        66   1 -1.377447E+06 -3.122692E+05 -2.800279E+05 -4.341244E+04  3.337932E+04  2.899896E+04
        66   2 -1.304409E+06 -3.157934E+05 -2.837613E+05 -4.138983E+03  2.284462E+04  2.908515E+04
        66   3 -1.219360E+06 -2.931758E+05 -2.732496E+05 -4.742724E+04  1.231204E+04  2.605174E+04
        66   4 -4.728609E+04  1.917760E+04  4.602248E+04 -4.354449E+04  3.403603E+04  2.899748E+04
        66   5 -5.337820E+04 -4.136609E+03  2.244922E+04 -2.228743E+03  2.235805E+04  2.907981E+04
        66   6 -4.727883E+04 -1.136537E+03  1.389526E+04 -4.346409E+04  1.068355E+04  2.604527E+04
        66   7  1.284489E+06  3.504932E+05  3.719432E+05 -4.367845E+04  3.469409E+04  2.899600E+04
        66   8  1.199080E+06  3.074043E+05  3.285452E+05 -3.157567E+02  2.187046E+04  2.907448E+04
        66   9  1.126055E+06  2.908009E+05  3.009395E+05 -3.949402E+04  9.051980E+03  2.603879E+04
        66  10 -1.377448E+06 -3.122704E+05 -2.800316E+05 -4.341322E+04  1.069340E-10 -3.064245E-09
        66  11 -1.304410E+06 -3.157944E+05 -2.837639E+05 -4.139519E+03  9.437628E-11  4.196766E-09
        66  12 -1.219360E+06 -2.931766E+05 -2.732511E+05 -4.742750E+04  1.417922E-09 -1.790923E-09
        66  13 -4.728756E+04  1.917639E+04  4.601872E+04 -4.354529E+04  2.159343E-09 -1.527130E-09
        66  14 -5.337897E+04 -4.137651E+03  2.244669E+04 -2.229267E+03 -8.675427E-10  1.909135E-09
        66  15 -4.727913E+04 -1.137296E+03  1.389377E+04 -4.346431E+04  4.795860E-09 -1.747428E-09
        66  16  1.284487E+06  3.504920E+05  3.719393E+05 -4.367926E+04  3.368983E-09  1.310184E-09
        66  17  1.199080E+06  3.074032E+05  3.285428E+05 -3.162683E+02  5.114119E-09 -1.928172E-09
        66  18  1.126055E+06  2.908002E+05  3.009380E+05 -3.949421E+04  1.030822E-09 -6.967640E-10
        66  19 -1.377447E+06 -3.122692E+05 -2.800279E+05 -4.341244E+04 -3.337932E+04 -2.899896E+04
        66  20 -1.304409E+06 -3.157934E+05 -2.837613E+05 -4.138983E+03 -2.284462E+04 -2.908515E+04
        66  21 -1.219360E+06 -2.931758E+05 -2.732496E+05 -4.742724E+04 -1.231204E+04 -2.605174E+04
        66  22 -4.728609E+04  1.917760E+04  4.602248E+04 -4.354449E+04 -3.403603E+04 -2.899748E+04
        66  23 -5.337820E+04 -4.136609E+03  2.244922E+04 -2.228743E+03 -2.235805E+04 -2.907981E+04
        66  24 -4.727883E+04 -1.136537E+03  1.389526E+04 -4.346409E+04 -1.068355E+04 -2.604527E+04
        66  25  1.284489E+06  3.504932E+05  3.719432E+05 -4.367845E+04 -3.469409E+04 -2.899600E+04
        66  26  1.199080E+06  3.074043E+05  3.285452E+05 -3.157567E+02 -2.187046E+04 -2.907448E+04
        66  27  1.126055E+06  2.908009E+05  3.009395E+05 -3.949402E+04 -9.051980E+03 -2.603879E+04
        67   1 -1.056571E+06 -2.488455E+05 -2.355272E+05 -4.433836E+04  9.301378E+03  2.389997E+04
        67   2 -9.788154E+05 -2.318215E+05 -2.215310E+05 -2.590738E+03  6.560638E+03  2.133264E+04
        67   3 -8.978244E+05 -2.115477E+05 -2.045108E+05 -4.380323E+04  3.812704E+03  1.843325E+04
        67   4 -4.915486E+04  2.056480E+03  1.089469E+04 -4.357952E+04  8.448710E+03  2.389617E+04
        67   5 -5.077643E+04 -6.677721E+02  5.622889E+03 -2.101648E+03  5.584358E+03  2.132983E+04
        67   6 -4.914854E+04 -1.223690E+02  3.458011E+03 -4.357623E+04  2.713159E+03  1.843167E+04
        67   7  9.591870E+05  2.528834E+05  2.572424E+05 -4.281977E+04  7.594650E+03  2.389236E+04
        67   8  8.780481E+05  2.304222E+05  2.327138E+05 -1.611976E+03  4.606615E+03  2.132701E+04
        67   9  8.001840E+05  2.112496E+05  2.113740E+05 -4.334889E+04  1.612110E+03  1.843009E+04
        67  10 -1.056571E+06 -2.488462E+05 -2.355285E+05 -4.433854E+04  1.358447E-09 -3.603719E-10
        67  11 -9.788155E+05 -2.318220E+05 -2.215319E+05 -2.590850E+03 -7.972188E-10  4.564419E-10
        67  12 -8.978245E+05 -2.115481E+05 -2.045114E+05 -4.380329E+04 -3.824648E-09 -1.461347E-10
        67  13 -4.915509E+04  2.055847E+03  1.089348E+04 -4.357969E+04  6.464789E-09 -1.328822E-09
        67  14 -5.077659E+04 -6.682691E+02  5.621976E+03 -2.101744E+03  2.995957E-09  2.023304E-10
        67  15 -4.914864E+04 -1.227357E+02  3.457359E+03 -4.357627E+04  8.011199E-10  2.018328E-11
        67  16  9.591867E+05  2.528827E+05  2.572412E+05 -4.281992E+04  2.041887E-10 -2.559980E-09
        67  17  8.780479E+05  2.304217E+05  2.327129E+05 -1.612055E+03  8.699534E-10 -4.107178E-10
        67  18  8.001839E+05  2.112492E+05  2.113734E+05 -4.334892E+04  5.567089E-09 -4.625550E-10
        67  19 -1.056571E+06 -2.488455E+05 -2.355272E+05 -4.433836E+04 -9.301378E+03 -2.389997E+04
        67  20 -9.788154E+05 -2.318215E+05 -2.215310E+05 -2.590738E+03 -6.560638E+03 -2.133264E+04
        67  21 -8.978244E+05 -2.115477E+05 -2.045108E+05 -4.380323E+04 -3.812704E+03 -1.843325E+04
        67  22 -4.915486E+04  2.056480E+03  1.089469E+04 -4.357952E+04 -8.448710E+03 -2.389617E+04
        67  23 -5.077643E+04 -6.677721E+02  5.622889E+03 -2.101648E+03 -5.584358E+03 -2.132983E+04
        67  24 -4.914854E+04 -1.223690E+02  3.458011E+03 -4.357623E+04 -2.713159E+03 -1.843167E+04
        67  25  9.591870E+05  2.528834E+05  2.572424E+05 -4.281977E+04 -7.594650E+03 -2.389236E+04
        67  26  8.780481E+05  2.304222E+05  2.327138E+05 -1.611976E+03 -4.606615E+03 -2.132701E+04
        67  27  8.001840E+05  2.112496E+05  2.113740E+05 -4.334889E+04 -1.612110E+03 -1.843009E+04
        68   1 -7.328745E+05 -1.699590E+05 -1.643860E+05 -4.343095E+04  3.172885E+03  1.670341E+04
        68   2 -6.536337E+05 -1.504435E+05 -1.463943E+05 -1.650711E+03  2.514774E+03  1.384970E+04
        68   3 -5.735500E+05 -1.304091E+05 -1.277166E+05 -4.309102E+04  1.851782E+03  1.095941E+04
        68   4 -4.960576E+04  1.551627E+02  2.595754E+03 -4.363555E+04  2.154484E+03  1.670265E+04
        68   5 -5.002354E+04 -1.263992E+02  1.325142E+03 -2.027736E+03  1.482482E+03  1.384975E+04
        68   6 -4.960155E+04  1.137575E+02  7.500912E+02 -4.363547E+04  8.056823E+02  1.096031E+04
        68   7  6.340889E+05  1.702348E+05  1.695435E+05 -4.384031E+04  1.134962E+03  1.670188E+04
        68   8  5.539189E+05  1.501637E+05  1.490179E+05 -2.405054E+03  4.491864E+02  1.384980E+04
        68   9  4.745970E+05  1.306163E+05  1.291966E+05 -4.418028E+04 -2.412991E+02  1.096121E+04
        68  10 -7.328746E+05 -1.699593E+05 -1.643866E+05 -4.343100E+04 -4.969896E-09 -2.821679E-10
        68  11 -6.536338E+05 -1.504437E+05 -1.463947E+05 -1.650739E+03  2.241638E-09  1.055822E-09
        68  12 -5.735500E+05 -1.304092E+05 -1.277168E+05 -4.309104E+04  3.165331E-09  8.042744E-11
        68  13 -4.960584E+04  1.548619E+02  2.595221E+03 -4.363558E+04 -2.135998E-09 -1.064976E-10
        68  14 -5.002359E+04 -1.266058E+02  1.324778E+03 -2.027752E+03 -5.169291E-09 -8.982512E-10
        68  15 -4.960158E+04  1.136283E+02  7.498642E+02 -4.363547E+04 -5.022444E-10 -6.373599E-10
        68  16  6.340888E+05  1.702345E+05  1.695430E+05 -4.384033E+04  4.213212E-09 -1.338984E-09
        68  17  5.539188E+05  1.501635E+05  1.490176E+05 -2.405059E+03  1.013553E-09 -5.595833E-10
        68  18  4.745970E+05  1.306161E+05  1.291964E+05 -4.418027E+04 -3.321771E-09 -1.173958E-09
        68  19 -7.328745E+05 -1.699590E+05 -1.643860E+05 -4.343095E+04 -3.172885E+03 -1.670341E+04
        68  20 -6.536337E+05 -1.504435E+05 -1.463943E+05 -1.650711E+03 -2.514774E+03 -1.384970E+04
        68  21 -5.735500E+05 -1.304091E+05 -1.277166E+05 -4.309102E+04 -1.851782E+03 -1.095941E+04
        68  22 -4.960576E+04  1.551627E+02  2.595754E+03 -4.363555E+04 -2.154484E+03 -1.670265E+04
        68  23 -5.002354E+04 -1.263992E+02  1.325142E+03 -2.027736E+03 -1.482482E+03 -1.384975E+04
        68  24 -4.960155E+04  1.137575E+02  7.500912E+02 -4.363547E+04 -8.056823E+02 -1.096031E+04
        68  25  6.340889E+05  1.702348E+05  1.695435E+05 -4.384031E+04 -1.134962E+03 -1.670188E+04
        68  26  5.539189E+05  1.501637E+05  1.490179E+05 -2.405054E+03 -4.491864E+02 -1.384980E+04
        68  27  4.745970E+05  1.306163E+05  1.291966E+05 -4.418028E+04  2.412991E+02 -1.096121E+04
        69   1 -4.078504E+05 -8.901614E+04 -8.690831E+04 -4.325797E+04  1.729756E+03  9.268145E+03
        69   2 -3.279386E+05 -6.927038E+04 -6.803280E+04 -1.614483E+03  1.698415E+03  6.378175E+03
        69   3 -2.481765E+05 -4.932640E+04 -4.913223E+04 -4.334091E+04  1.664885E+03  3.499634E+03
        69   4 -4.977747E+04  9.261505E+01  4.614852E+02 -4.366928E+04  6.880122E+02  9.269511E+03
        69   5 -4.969893E+04  6.757887E+00  4.718665E+01 -1.985480E+03  6.606934E+02  6.379904E+03
        69   6 -4.977552E+04  1.192129E+02 -3.441779E+02 -4.366926E+04  6.311901E+02  3.501744E+03
        69   7  3.084125E+05  8.919190E+04  8.782195E+04 -4.408078E+04 -3.543316E+02  9.270877E+03
        69   8  2.286113E+05  6.927817E+04  6.812151E+04 -2.356612E+03 -3.774921E+02  6.381633E+03
        69   9  1.486613E+05  4.956190E+04  4.844098E+04 -4.399770E+04 -4.028345E+02  3.503854E+03
        69  10 -4.078505E+05 -8.901623E+04 -8.690848E+04 -4.325798E+04  1.744235E-09 -4.484210E-10
        69  11 -3.279386E+05 -6.927043E+04 -6.803288E+04 -1.614491E+03 -2.139356E-09 -3.582375E-10
        69  12 -2.481765E+05 -4.932641E+04 -4.913226E+04 -4.334091E+04 -1.178928E-09  1.491594E-10
        69  13 -4.977749E+04  9.252266E+01  4.613228E+02 -4.366929E+04  1.920419E-11  1.440000E-09
        69  14 -4.969895E+04  6.714062E+00  4.710934E+01 -1.985483E+03  5.016632E-10  2.601907E-09
        69  15 -4.977552E+04  1.191996E+02 -3.442017E+02 -4.366926E+04 -4.809377E-09 -3.301952E-09
        69  16  3.084124E+05  8.919181E+04  8.782179E+04 -4.408078E+04  4.103646E-09  1.788625E-10
        69  17  2.286113E+05  6.927812E+04  6.812144E+04 -2.356610E+03 -5.406127E-10  2.262700E-09
        69  18  1.486613E+05  4.956189E+04  4.844096E+04 -4.399770E+04 -9.668153E-10 -1.766669E-09
        69  19 -4.078504E+05 -8.901614E+04 -8.690831E+04 -4.325797E+04 -1.729756E+03 -9.268145E+03
        69  20 -3.279386E+05 -6.927038E+04 -6.803280E+04 -1.614483E+03 -1.698415E+03 -6.378175E+03
        69  21 -2.481765E+05 -4.932640E+04 -4.913223E+04 -4.334091E+04 -1.664885E+03 -3.499634E+03
        69  22 -4.977747E+04  9.261505E+01  4.614852E+02 -4.366928E+04 -6.880122E+02 -9.269511E+03
        69  23 -4.969893E+04  6.757887E+00  4.718665E+01 -1.985480E+03 -6.606934E+02 -6.379904E+03
        69  24 -4.977552E+04  1.192129E+02 -3.441779E+02 -4.366926E+04 -6.311901E+02 -3.501744E+03
        69  25  3.084125E+05  8.919190E+04  8.782195E+04 -4.408078E+04  3.543316E+02 -9.270877E+03
        69  26  2.286113E+05  6.927817E+04  6.812151E+04 -2.356612E+03  3.774921E+02 -6.381633E+03
        69  27  1.486613E+05  4.956190E+04  4.844098E+04 -4.399770E+04  4.028345E+02 -3.503854E+03
        70   1 -8.214259E+04 -7.793481E+03 -8.222742E+03 -4.370323E+04  1.781449E+03  1.789138E+03
        70   2 -1.946358E+03  1.197361E+04  1.049628E+04 -2.030665E+03  2.299724E+03 -1.112536E+03
        70   3  7.765467E+04  3.130426E+04  2.867866E+04 -4.376743E+04  2.818777E+03 -3.851097E+03
        70   4 -4.986534E+04  1.921144E+02 -5.731122E+02 -4.367820E+04  7.079405E+02  1.791458E+03
        70   5 -4.955926E+04  1.218931E+02 -1.147666E+03 -1.973942E+03  1.284813E+03 -1.110417E+03
        70   6 -4.986570E+04 -3.948400E+02 -2.299548E+03 -4.367942E+04  1.862397E+03 -3.849154E+03
        70   7 -1.758712E+04  8.177636E+03  7.076449E+03 -4.365316E+04 -3.656240E+02  1.793778E+03
        70   8 -9.717009E+04 -1.172999E+04 -1.279178E+04 -1.917222E+03  2.699788E+02 -1.108298E+03
        70   9 -1.773712E+05 -3.209514E+04 -3.327893E+04 -4.359141E+04  9.062130E+02 -3.847210E+03
        70  10 -8.214260E+04 -7.793486E+03 -8.222754E+03 -4.370323E+04 -2.759812E-09  2.510844E-09
        70  11 -1.946364E+03  1.197360E+04  1.049627E+04 -2.030663E+03 -4.646838E-09 -5.363427E-10
        70  12  7.765466E+04  3.130424E+04  2.867862E+04 -4.376742E+04 -2.191217E-09 -2.992957E-10
        70  13 -4.986534E+04  1.921108E+02 -5.731192E+02 -4.367820E+04 -1.898107E-11 -2.371012E-09
        70  14 -4.955926E+04  1.218913E+02 -1.147671E+03 -1.973941E+03  8.057746E-09 -2.927595E-09
        70  15 -4.986571E+04 -3.948568E+02 -2.299582E+03 -4.367941E+04  3.034617E-09  1.731693E-11
        70  16 -1.758712E+04  8.177632E+03  7.076443E+03 -4.365316E+04  5.493587E-09  1.011169E-09
        70  17 -9.717009E+04 -1.172999E+04 -1.279178E+04 -1.917222E+03  6.218638E-09 -1.724202E-09
        70  18 -1.773712E+05 -3.209515E+04 -3.327896E+04 -4.359141E+04  1.049672E-09 -2.212899E-09
        70  19 -8.214259E+04 -7.793481E+03 -8.222742E+03 -4.370323E+04 -1.781449E+03 -1.789138E+03
        70  20 -1.946358E+03  1.197361E+04  1.049628E+04 -2.030665E+03 -2.299724E+03  1.112536E+03
        70  21  7.765467E+04  3.130426E+04  2.867866E+04 -4.376743E+04 -2.818777E+03  3.851097E+03
        70  22 -4.986534E+04  1.921144E+02 -5.731122E+02 -4.367820E+04 -7.079405E+02 -1.791458E+03
        70  23 -4.955926E+04  1.218931E+02 -1.147666E+03 -1.973942E+03 -1.284813E+03  1.110417E+03
        70  24 -4.986570E+04 -3.948400E+02 -2.299548E+03 -4.367942E+04 -1.862397E+03  3.849154E+03
        70  25 -1.758712E+04  8.177636E+03  7.076449E+03 -4.365316E+04  3.656240E+02 -1.793778E+03
        70  26 -9.717009E+04 -1.172999E+04 -1.279178E+04 -1.917222E+03 -2.699788E+02  1.108298E+03
        70  27 -1.773712E+05 -3.209514E+04 -3.327893E+04 -4.359141E+04 -9.062130E+02  3.847210E+03
        71   1  2.435226E+05  7.350803E+04  6.914251E+04 -4.458963E+04  3.664513E+03 -5.769735E+03
        71   2  3.242043E+05  9.374159E+04  8.640741E+04 -2.216734E+03  5.635500E+03 -8.723340E+03
        71   3  4.032547E+05  1.085657E+05  1.010281E+05 -4.315443E+04  7.611705E+03 -1.011915E+04
        71   4 -5.013688E+04  3.687126E+02 -2.913616E+03 -4.365501E+04  2.320831E+03 -5.767241E+03
        71   5 -4.927035E+04  7.974341E+02 -4.903138E+03 -2.001381E+03  4.851443E+03 -8.722397E+03
        71   6 -5.013964E+04 -4.281985E+03 -9.926519E+03 -4.366157E+04  7.387022E+03 -1.011933E+04
        71   7 -3.437178E+05 -7.277700E+04 -7.497607E+04 -4.272079E+04  9.777832E+02 -5.764751E+03
        71   8 -4.226180E+05 -9.215704E+04 -9.622387E+04 -1.786105E+03  4.067856E+03 -8.721454E+03
        71   9 -5.033468E+05 -1.171449E+05 -1.208961E+05 -4.416826E+04  7.162501E+03 -1.011952E+04
        71  10  2.435225E+05  7.350800E+04  6.914243E+04 -4.458961E+04 -2.722178E-09 -2.302267E-09
        71  11  3.242043E+05  9.374150E+04  8.640720E+04 -2.216694E+03  1.190932E-09  6.943655E-10
        71  12  4.032546E+05  1.085656E+05  1.010278E+05 -4.315437E+04  4.350222E-09 -7.609108E-10
        71  13 -5.013689E+04  3.686755E+02 -2.913689E+03 -4.365500E+04 -2.154176E-09 -1.469973E-10
        71  14 -4.927040E+04  7.973461E+02 -4.903326E+03 -2.001347E+03  2.572280E-09  8.339083E-10
        71  15 -5.013973E+04 -4.282110E+03 -9.926814E+03 -4.366151E+04 -2.376936E-09 -4.869720E-10
        71  16 -3.437178E+05 -7.277704E+04 -7.497614E+04 -4.272079E+04  2.133891E-09 -1.169492E-10
        71  17 -4.226180E+05 -9.215712E+04 -9.622404E+04 -1.786077E+03 -2.287136E-10  3.341346E-09
        71  18 -5.033469E+05 -1.171450E+05 -1.208964E+05 -4.416820E+04 -3.150638E-09 -1.476460E-09
        71  19  2.435226E+05  7.350803E+04  6.914251E+04 -4.458963E+04 -3.664513E+03  5.769735E+03
        71  20  3.242043E+05  9.374159E+04  8.640741E+04 -2.216734E+03 -5.635500E+03  8.723340E+03
        71  21  4.032547E+05  1.085657E+05  1.010281E+05 -4.315443E+04 -7.611705E+03  1.011915E+04
        71  22 -5.013688E+04  3.687126E+02 -2.913616E+03 -4.365501E+04 -2.320831E+03  5.767241E+03
        71  23 -4.927035E+04  7.974341E+02 -4.903138E+03 -2.001381E+03 -4.851443E+03  8.722397E+03
        71  24 -5.013964E+04 -4.281985E+03 -9.926519E+03 -4.366157E+04 -7.387022E+03  1.011933E+04
        71  25 -3.437178E+05 -7.277700E+04 -7.497607E+04 -4.272079E+04 -9.777832E+02  5.764751E+03
        71  26 -4.226180E+05 -9.215704E+04 -9.622387E+04 -1.786105E+03 -4.067856E+03  8.721454E+03
        71  27 -5.033468E+05 -1.171449E+05 -1.208961E+05 -4.416826E+04 -7.162501E+03  1.011952E+04
        72   1  5.669584E+05  1.557482E+05  1.394744E+05 -4.775276E+04  1.321453E+04 -1.401931E+04
        72   2  6.521198E+05  1.800281E+05  1.515405E+05 -1.704756E+02  1.817598E+04 -1.745609E+04
        72   3  7.266331E+05  1.603352E+05  1.495861E+05 -3.544476E+04  2.314175E+04 -6.084211E+03
        72   4 -5.238459E+04  1.607309E+03 -1.203299E+04 -4.355456E+04  9.303703E+03 -1.401585E+04
        72   5 -4.659117E+04  6.235784E+03 -1.898413E+04 -2.123701E+03  1.959106E+04 -1.745809E+04
        72   6 -5.239012E+04 -3.405964E+04 -4.366637E+04 -4.355582E+04  2.988193E+04 -6.084454E+03
        72   7 -6.713782E+05 -1.525619E+05 -1.635684E+05 -3.936045E+04  5.396761E+03 -1.401245E+04
        72   8 -7.448573E+05 -1.675926E+05 -1.895444E+05 -4.074672E+03  2.100454E+04 -1.746011E+04
        72   9 -8.308625E+05 -2.284997E+05 -2.369639E+05 -5.165670E+04  3.661365E+04 -6.084872E+03
        72  10  5.669581E+05  1.557480E+05  1.394737E+05 -4.775261E+04 -1.752176E-09 -7.413415E-10
        72  11  6.521194E+05  1.800277E+05  1.515394E+05 -1.702202E+02  8.222895E-11  1.073294E-09
        72  12  7.266325E+05  1.603351E+05  1.495850E+05 -3.544464E+04 -7.114409E-10  6.559831E-10
        72  13 -5.238474E+04  1.607075E+03 -1.203352E+04 -4.355446E+04 -2.128516E-09  8.078296E-10
        72  14 -4.659167E+04  6.235353E+03 -1.898542E+04 -2.123426E+03  2.265083E-09  1.436698E-09
        72  15 -5.239109E+04 -3.405992E+04 -4.366812E+04 -4.355567E+04  3.768088E-09  7.797706E-10
        72  16 -6.713782E+05 -1.525621E+05 -1.635688E+05 -3.936039E+04 -2.386454E-10 -1.556668E-09
        72  17 -7.448578E+05 -1.675930E+05 -1.895458E+05 -4.074376E+03  1.064203E-09  2.204467E-09
        72  18 -8.308640E+05 -2.285001E+05 -2.369665E+05 -5.165652E+04 -1.296993E-09  1.144406E-09
        72  19  5.669584E+05  1.557482E+05  1.394744E+05 -4.775276E+04 -1.321453E+04  1.401931E+04
        72  20  6.521198E+05  1.800281E+05  1.515405E+05 -1.704756E+02 -1.817598E+04  1.745609E+04
        72  21  7.266331E+05  1.603352E+05  1.495861E+05 -3.544476E+04 -2.314175E+04  6.084211E+03
        72  22 -5.238459E+04  1.607309E+03 -1.203299E+04 -4.355456E+04 -9.303703E+03  1.401585E+04
        72  23 -4.659117E+04  6.235784E+03 -1.898413E+04 -2.123701E+03 -1.959106E+04  1.745809E+04
        72  24 -5.239012E+04 -3.405964E+04 -4.366637E+04 -4.355582E+04 -2.988193E+04  6.084454E+03
        72  25 -6.713782E+05 -1.525619E+05 -1.635684E+05 -3.936045E+04 -5.396761E+03  1.401245E+04
        72  26 -7.448573E+05 -1.675926E+05 -1.895444E+05 -4.074672E+03 -2.100454E+04  1.746011E+04
        72  27 -8.308625E+05 -2.284997E+05 -2.369639E+05 -5.165670E+04 -3.661365E+04  6.084872E+03
        73   1  1.555755E+06  5.237530E+06  1.489642E+06 -1.390698E+06  6.441976E+04  3.478112E+05
        73   2  1.104659E+06  3.744885E+06  9.646569E+05 -1.174498E+06  2.005837E+05  9.761735E+04
        73   3  7.457163E+05  2.304251E+06  6.241096E+05 -1.329332E+06  1.817424E+05 -1.532618E+05
        73   4  8.487351E+04 -7.085977E+05  7.175417E+04 -1.306376E+06  6.773367E+04  3.690286E+04
        73   5  3.009134E+04 -7.119096E+05  4.463640E+04 -1.121137E+06  2.016206E+05  1.551706E+04
        73   6  2.835968E+04 -7.044563E+05  4.406137E+04 -1.307018E+06  1.800164E+05 -7.162983E+03
        73   7 -1.388493E+06 -6.622243E+06 -1.348258E+06 -1.222747E+06  7.098216E+04 -2.710610E+05
        73   8 -1.045723E+06 -5.149914E+06 -8.764332E+05 -1.068097E+06  2.026479E+05 -6.600690E+04
        73   9 -6.895225E+05 -3.704428E+06 -5.363273E+05 -1.284781E+06  1.782958E+05  1.382459E+05
        73  10  1.555718E+06  5.237400E+06  1.489409E+06 -1.390716E+06  2.476888E-09  3.038205E-09
        73  11  1.104614E+06  3.744864E+06  9.645633E+05 -1.174514E+06 -3.953077E-09 -4.557648E-09
        73  12  7.456746E+05  2.304217E+06  6.240039E+05 -1.329309E+06  3.488187E-09  5.787387E-10
        73  13  8.486822E+04 -7.086004E+05  7.174296E+04 -1.306378E+06  4.270909E-09  9.277866E-09
        73  14  3.004763E+04 -7.119208E+05  4.455956E+04 -1.121140E+06  6.519553E-09 -1.008549E-08
        73  15  2.832488E+04 -7.044650E+05  4.400041E+04 -1.307017E+06  1.955813E-09  6.259906E-09
        73  16 -1.388518E+06 -6.622323E+06 -1.348407E+06 -1.222731E+06  4.548129E-10 -6.623409E-09
        73  17 -1.045768E+06 -5.149930E+06 -8.765184E+05 -1.068086E+06  1.357876E-08 -4.682799E-09
        73  18 -6.895619E+05 -3.704457E+06 -5.364234E+05 -1.284800E+06 -2.820229E-09  1.190332E-10
        73  19  1.555755E+06  5.237530E+06  1.489642E+06 -1.390698E+06 -6.441976E+04 -3.478112E+05
        73  20  1.104659E+06  3.744885E+06  9.646569E+05 -1.174498E+06 -2.005837E+05 -9.761735E+04
        73  21  7.457163E+05  2.304251E+06  6.241096E+05 -1.329332E+06 -1.817424E+05  1.532618E+05
        73  22  8.487351E+04 -7.085977E+05  7.175417E+04 -1.306376E+06 -6.773367E+04 -3.690286E+04
        73  23  3.009134E+04 -7.119096E+05  4.463640E+04 -1.121137E+06 -2.016206E+05 -1.551706E+04
        73  24  2.835968E+04 -7.044563E+05  4.406137E+04 -1.307018E+06 -1.800164E+05  7.162983E+03
        73  25 -1.388493E+06 -6.622243E+06 -1.348258E+06 -1.222747E+06 -7.098216E+04  2.710610E+05
        73  26 -1.045723E+06 -5.149914E+06 -8.764332E+05 -1.068097E+06 -2.026479E+05  6.600690E+04
        73  27 -6.895225E+05 -3.704428E+06 -5.363273E+05 -1.284781E+06 -1.782958E+05 -1.382459E+05
        74   1  5.116088E+05  1.307414E+06  4.370877E+05 -1.331600E+06  1.221198E+05 -1.366244E+05
        74   2  1.579863E+05 -1.578752E+05  1.715028E+05 -1.122536E+06  3.916718E+04 -1.749613E+05
        74   3 -1.704940E+05 -1.619396E+06 -6.545686E+04 -1.293791E+06 -4.569255E+04 -2.132754E+05
        74   4  3.112795E+04 -7.056037E+05  4.870821E+04 -1.308982E+06  1.206252E+05 -1.575523E+04
        74   5  2.792259E+04 -7.059196E+05  6.961277E+04 -1.118719E+06  3.761496E+04 -5.140702E+04
        74   6  4.948843E+04 -7.050612E+05  1.172548E+05 -1.308759E+06 -4.730693E+04 -8.712048E+04
        74   7 -4.495851E+05 -2.714697E+06 -3.398049E+05 -1.286424E+06  1.191364E+05  1.047316E+05
        74   8 -1.021502E+05 -1.253640E+06 -3.223265E+04 -1.114906E+06  3.606344E+04  7.204097E+04
        74   9  2.694285E+05  2.101086E+05  2.999845E+05 -1.323746E+06 -4.892597E+04  3.921692E+04
        74  10  5.115878E+05  1.307390E+06  4.370249E+05 -1.331586E+06  7.057957E-10  8.313288E-09
        74  11  1.579765E+05 -1.579085E+05  1.714425E+05 -1.122530E+06  7.146818E-09  3.455449E-09
        74  12 -1.705086E+05 -1.619446E+06 -6.554658E+04 -1.293799E+06  9.389005E-09  8.873347E-09
        74  13  3.111227E+04 -7.056079E+05  4.868043E+04 -1.308981E+06 -1.955849E-09  1.124377E-08
        74  14  2.792037E+04 -7.059228E+05  6.960515E+04 -1.118718E+06 -1.739060E-08 -1.227844E-08
        74  15  4.948397E+04 -7.050699E+05  1.172363E+05 -1.308762E+06 -1.287331E-08  5.768362E-09
        74  16 -4.496034E+05 -2.714712E+06 -3.398524E+05 -1.286435E+06 -2.274590E-09 -1.385079E-08
        74  17 -1.021530E+05 -1.253646E+06 -3.224488E+04 -1.114908E+06 -2.327358E-09 -1.726537E-08
        74  18  2.694256E+05  2.101063E+05  2.999771E+05 -1.323745E+06  4.954310E-09 -1.007453E-08
        74  19  5.116088E+05  1.307414E+06  4.370877E+05 -1.331600E+06 -1.221198E+05  1.366244E+05
        74  20  1.579863E+05 -1.578752E+05  1.715028E+05 -1.122536E+06 -3.916718E+04  1.749613E+05
        74  21 -1.704940E+05 -1.619396E+06 -6.545686E+04 -1.293791E+06  4.569255E+04  2.132754E+05
        74  22  3.112795E+04 -7.056037E+05  4.870821E+04 -1.308982E+06 -1.206252E+05  1.575523E+04
        74  23  2.792259E+04 -7.059196E+05  6.961277E+04 -1.118719E+06 -3.761496E+04  5.140702E+04
        74  24  4.948843E+04 -7.050612E+05  1.172548E+05 -1.308759E+06  4.730693E+04  8.712048E+04
        74  25 -4.495851E+05 -2.714697E+06 -3.398049E+05 -1.286424E+06 -1.191364E+05 -1.047316E+05
        74  26 -1.021502E+05 -1.253640E+06 -3.223265E+04 -1.114906E+06 -3.606344E+04 -7.204097E+04
        74  27  2.694285E+05  2.101086E+05  2.999845E+05 -1.323746E+06  4.892597E+04 -3.921692E+04
        75   1 -4.246916E+05 -2.590905E+06 -2.237779E+05 -1.333000E+06 -1.050061E+05 -2.540820E+05
        75   2 -7.117085E+05 -4.079871E+06 -4.371524E+05 -9.673114E+05 -1.417296E+05 -2.033962E+05
        75   3 -6.931670E+05 -5.503689E+06 -6.089717E+05 -9.733436E+05 -4.959306E+04 -1.516225E+05
        75   4  3.106401E+04 -6.847584E+05  1.501980E+05 -1.307649E+06 -1.068495E+05 -1.080309E+05
        75   5  1.036203E+05 -7.337668E+05  2.650357E+05 -1.119331E+06 -1.411303E+05 -2.456328E+05
        75   6  5.135224E+05 -6.876715E+05  5.519955E+05 -1.302224E+06 -4.689709E+04 -3.820542E+05
        75   7  4.866158E+05  1.224932E+06  5.240800E+05 -1.282204E+06 -1.086775E+05  3.846083E+04
        75   8  9.183017E+05  2.623013E+06  9.666138E+05 -1.272150E+06 -1.405122E+05 -2.880919E+05
        75   9  1.718906E+06  4.150015E+06  1.711549E+06 -1.633607E+06 -4.396798E+04 -6.142701E+05
        75  10 -4.247209E+05 -2.590978E+06 -2.239207E+05 -1.333022E+06  1.151448E-08 -1.237744E-08
        75  11 -7.117413E+05 -4.079921E+06 -4.372686E+05 -9.673346E+05  1.275666E-08 -1.919576E-08
        75  12 -6.931759E+05 -5.503714E+06 -6.090200E+05 -9.733497E+05  2.905253E-09 -1.187245E-08
        75  13  3.104859E+04 -6.847741E+05  1.501545E+05 -1.307658E+06 -6.049827E-09  1.085227E-08
        75  14  1.035826E+05 -7.338371E+05  2.648844E+05 -1.119359E+06 -1.394498E-08 -1.124374E-08
        75  15  5.134807E+05 -6.878290E+05  5.517165E+05 -1.302239E+06  1.520207E-09  5.766976E-09
        75  16  4.866028E+05  1.224927E+06  5.240551E+05 -1.282200E+06  1.614416E-09  6.503320E-09
        75  17  9.182582E+05  2.622919E+06  9.664209E+05 -1.272182E+06  9.327559E-09  7.231422E-09
        75  18  1.718804E+06  4.149612E+06  1.710841E+06 -1.633629E+06  5.176528E-09  1.165673E-08
        75  19 -4.246916E+05 -2.590905E+06 -2.237779E+05 -1.333000E+06  1.050061E+05  2.540820E+05
        75  20 -7.117085E+05 -4.079871E+06 -4.371524E+05 -9.673114E+05  1.417296E+05  2.033962E+05
        75  21 -6.931670E+05 -5.503689E+06 -6.089717E+05 -9.733436E+05  4.959306E+04  1.516225E+05
        75  22  3.106401E+04 -6.847584E+05  1.501980E+05 -1.307649E+06  1.068495E+05  1.080309E+05
        75  23  1.036203E+05 -7.337668E+05  2.650357E+05 -1.119331E+06  1.411303E+05  2.456328E+05
        75  24  5.135224E+05 -6.876715E+05  5.519955E+05 -1.302224E+06  4.689709E+04  3.820542E+05
        75  25  4.866158E+05  1.224932E+06  5.240800E+05 -1.282204E+06  1.086775E+05 -3.846083E+04
        75  26  9.183017E+05  2.623013E+06  9.666138E+05 -1.272150E+06  1.405122E+05  2.880919E+05
        75  27  1.718906E+06  4.150015E+06  1.711549E+06 -1.633607E+06  4.396798E+04  6.142701E+05
        76   1 -5.427244E+06 -2.146599E+06 -1.254427E+06 -1.834006E+06 -2.967271E+05 -1.877156E+04
        76   2 -5.072652E+06 -2.059304E+06 -1.034640E+06 -1.699088E+06 -2.030593E+05  2.345707E+05
        76   3 -4.646737E+06 -1.991887E+06 -9.240899E+05 -1.662173E+06 -5.257519E+04  3.404802E+05
        76   4 -2.487848E+04 -1.591664E+05  1.468962E+05 -4.040027E+05  6.219430E+04  1.186867E+05
        76   5 -8.826828E+04 -2.267097E+05  6.598474E+04 -3.327894E+05 -4.459832E+04  2.948340E+05
        76   6 -4.053662E+04 -2.744017E+05  3.583672E+04 -3.595433E+05 -9.493019E+04  3.241262E+05
        76   7  5.406117E+06  1.829811E+06  1.546313E+06  1.037177E+06  4.245680E+05  2.573662E+05
        76   8  4.921399E+06  1.607774E+06  1.165184E+06  1.043589E+06  1.152491E+05  3.556097E+05
        76   9  4.587602E+06  1.445066E+06  9.946527E+05  9.521235E+05 -1.376288E+05  3.076408E+05
        76  10 -5.427339E+06 -2.146623E+06 -1.254594E+06 -1.834011E+06  8.921183E-09  4.880311E-10
        76  11 -5.072711E+06 -2.059374E+06 -1.034820E+06 -1.699050E+06  2.933163E-09 -1.185971E-08
        76  12 -4.646771E+06 -1.992012E+06 -9.243130E+05 -1.662158E+06 -7.618060E-09 -6.868469E-09
        76  13 -2.488643E+04 -1.591826E+05  1.468624E+05 -4.040086E+05  5.652230E-10 -1.861951E-09
        76  14 -8.829375E+04 -2.268036E+05  6.581764E+04 -3.327788E+05  2.424662E-09 -1.895005E-08
        76  15 -4.057448E+04 -2.745169E+05  3.562237E+04 -3.595186E+05 -6.551392E-09 -6.066179E-09
        76  16  5.405907E+06  1.829693E+06  1.545854E+06  1.037090E+06 -5.746469E-09 -8.789864E-09
        76  17  4.921351E+06  1.607635E+06  1.164922E+06  1.043556E+06 -1.675967E-09 -8.604166E-09
        76  18  4.587556E+06  1.444959E+06  9.944393E+05  9.521575E+05 -1.566152E-09 -4.391295E-09
        76  19 -5.427244E+06 -2.146599E+06 -1.254427E+06 -1.834006E+06  2.967271E+05  1.877156E+04
        76  20 -5.072652E+06 -2.059304E+06 -1.034640E+06 -1.699088E+06  2.030593E+05 -2.345707E+05
        76  21 -4.646737E+06 -1.991887E+06 -9.240899E+05 -1.662173E+06  5.257519E+04 -3.404802E+05
        76  22 -2.487848E+04 -1.591664E+05  1.468962E+05 -4.040027E+05 -6.219430E+04 -1.186867E+05
        76  23 -8.826828E+04 -2.267097E+05  6.598474E+04 -3.327894E+05  4.459832E+04 -2.948340E+05
        76  24 -4.053662E+04 -2.744017E+05  3.583672E+04 -3.595433E+05  9.493019E+04 -3.241262E+05
        76  25  5.406117E+06  1.829811E+06  1.546313E+06  1.037177E+06 -4.245680E+05 -2.573662E+05
        76  26  4.921399E+06  1.607774E+06  1.165184E+06  1.043589E+06 -1.152491E+05 -3.556097E+05
        76  27  4.587602E+06  1.445066E+06  9.946527E+05  9.521235E+05  1.376288E+05 -3.076408E+05
        77   1 -4.402852E+06 -1.880937E+06 -8.786353E+05 -1.583029E+06 -8.025485E+04  3.098486E+05
        77   2 -4.074548E+06 -1.706900E+06 -8.033471E+05 -1.436507E+06 -6.892609E+04  2.983082E+05
        77   3 -3.668303E+06 -1.605643E+06 -7.312120E+05 -1.374523E+06 -5.406945E+04  2.772102E+05
        77   4 -4.340033E+04 -2.705906E+05  2.734644E+04 -3.654321E+05 -9.243004E+04  3.050042E+05
        77   5 -8.321517E+04 -2.364333E+05  1.407139E+04 -3.225825E+05 -9.413507E+04  2.885717E+05
        77   6 -4.266607E+04 -2.724476E+05  7.990089E+03 -3.642872E+05 -9.232849E+04  2.626139E+05
        77   7  4.335633E+06  1.341417E+06  9.323190E+05  8.601076E+05 -1.046994E+05  3.001252E+05
        77   8  3.924556E+06  1.235432E+06  8.306728E+05  7.979938E+05 -1.195205E+05  2.787694E+05
        77   9  3.596522E+06  1.061893E+06  7.465253E+05  6.514239E+05 -1.308296E+05  2.479267E+05
        77  10 -4.402885E+06 -1.881042E+06 -8.788278E+05 -1.583009E+06 -2.058468E-10 -2.870202E-09
        77  11 -4.074577E+06 -1.706997E+06 -8.035232E+05 -1.436490E+06  1.560336E-08  4.640123E-09
        77  12 -3.668326E+06 -1.605727E+06 -7.313619E+05 -1.374511E+06  2.233813E-08  9.908427E-09
        77  13 -4.343446E+04 -2.706928E+05  2.715558E+04 -3.654094E+05 -7.793129E-09 -8.086861E-09
        77  14 -8.324702E+04 -2.365250E+05  1.389827E+04 -3.225607E+05  2.266516E-09  1.621614E-10
        77  15 -4.269372E+04 -2.725239E+05  7.844485E+03 -3.642677E+05  2.347368E-09  1.097917E-08
        77  16  4.335597E+06  1.341318E+06  9.321291E+05  8.601329E+05 -8.405684E-09 -6.328469E-09
        77  17  3.924519E+06  1.235344E+06  8.305000E+05  7.980206E+05 -6.632039E-09 -9.554812E-09
        77  18  3.596487E+06  1.061823E+06  7.463777E+05  6.514499E+05 -6.414081E-09 -3.406943E-09
        77  19 -4.402852E+06 -1.880937E+06 -8.786353E+05 -1.583029E+06  8.025485E+04 -3.098486E+05
        77  20 -4.074548E+06 -1.706900E+06 -8.033471E+05 -1.436507E+06  6.892609E+04 -2.983082E+05
        77  21 -3.668303E+06 -1.605643E+06 -7.312120E+05 -1.374523E+06  5.406945E+04 -2.772102E+05
        77  22 -4.340033E+04 -2.705906E+05  2.734644E+04 -3.654321E+05  9.243004E+04 -3.050042E+05
        77  23 -8.321517E+04 -2.364333E+05  1.407139E+04 -3.225825E+05  9.413507E+04 -2.885717E+05
        77  24 -4.266607E+04 -2.724476E+05  7.990089E+03 -3.642872E+05  9.232849E+04 -2.626139E+05
        77  25  4.335633E+06  1.341417E+06  9.323190E+05  8.601076E+05  1.046994E+05 -3.001252E+05
        77  26  3.924556E+06  1.235432E+06  8.306728E+05  7.979938E+05  1.195205E+05 -2.787694E+05
        77  27  3.596522E+06  1.061893E+06  7.465253E+05  6.514239E+05  1.308296E+05 -2.479267E+05
        78   1 -3.415854E+06 -1.510144E+06 -6.794296E+05 -1.303123E+06 -5.089377E+04  2.597463E+05
        78   2 -3.085672E+06 -1.334957E+06 -6.073024E+05 -1.156665E+06 -4.127147E+04  2.325092E+05
        78   3 -2.678305E+06 -1.234472E+06 -5.341799E+05 -1.095411E+06 -3.149318E+04  2.046117E+05
        78   4 -4.280479E+04 -2.719806E+05  5.923740E+03 -3.648214E+05 -8.725284E+04  2.459086E+05
        78   5 -8.087452E+04 -2.337106E+05  3.039588E+03 -3.224151E+05 -7.852908E+04  2.183928E+05
        78   6 -4.175675E+04 -2.699601E+05  1.838948E+03 -3.652462E+05 -6.964967E+04  1.902188E+05
        78   7  3.342029E+06  9.671893E+05  6.907199E+05  5.782238E+05 -1.238263E+05  2.319905E+05
        78   8  2.933261E+06  8.683242E+05  6.129385E+05  5.155853E+05 -1.159819E+05  2.042033E+05
        78   9  2.601965E+06  6.951491E+05  5.375148E+05  3.677942E+05 -1.079812E+05  1.757605E+05
        78  10 -3.415875E+06 -1.510217E+06 -6.795612E+05 -1.303113E+06 -8.366011E-09 -3.394541E-09
        78  11 -3.085689E+06 -1.335015E+06 -6.074072E+05 -1.156657E+06 -7.725027E-09 -8.088479E-09
        78  12 -2.678317E+06 -1.234517E+06 -5.342605E+05 -1.095406E+06  1.019974E-09 -4.564549E-09
        78  13 -4.282918E+04 -2.720476E+05  5.795812E+03 -3.648042E+05  6.594280E-09  1.298794E-08
        78  14 -8.089394E+04 -2.337635E+05  2.938384E+03 -3.224013E+05  4.142273E-09  3.373905E-09
        78  15 -4.177166E+04 -2.700003E+05  1.761847E+03 -3.652355E+05  1.573998E-09 -3.792701E-10
        78  16  3.341998E+06  9.671274E+05  6.905900E+05  5.782469E+05  2.087992E-08  1.102065E-08
        78  17  2.933235E+06  8.682758E+05  6.128349E+05  5.156043E+05  6.692045E-09  4.005422E-09
        78  18  2.601944E+06  6.951128E+05  5.374349E+05  3.678094E+05  2.790909E-09  5.397535E-10
        78  19 -3.415854E+06 -1.510144E+06 -6.794296E+05 -1.303123E+06  5.089377E+04 -2.597463E+05
        78  20 -3.085672E+06 -1.334957E+06 -6.073024E+05 -1.156665E+06  4.127147E+04 -2.325092E+05
        78  21 -2.678305E+06 -1.234472E+06 -5.341799E+05 -1.095411E+06  3.149318E+04 -2.046117E+05
        78  22 -4.280479E+04 -2.719806E+05  5.923740E+03 -3.648214E+05  8.725284E+04 -2.459086E+05
        78  23 -8.087452E+04 -2.337106E+05  3.039588E+03 -3.224151E+05  7.852908E+04 -2.183928E+05
        78  24 -4.175675E+04 -2.699601E+05  1.838948E+03 -3.652462E+05  6.964967E+04 -1.902188E+05
        78  25  3.342029E+06  9.671893E+05  6.907199E+05  5.782238E+05  1.238263E+05 -2.319905E+05
        78  26  2.933261E+06  8.683242E+05  6.129385E+05  5.155853E+05  1.159819E+05 -2.042033E+05
        78  27  2.601965E+06  6.951491E+05  5.375148E+05  3.677942E+05  1.079812E+05 -1.757605E+05
        79   1 -2.424213E+06 -1.140260E+06 -4.807918E+05 -1.024817E+06 -2.572603E+04  1.881988E+05
        79   2 -2.091630E+06 -9.662032E+05 -4.072583E+05 -8.788332E+05 -1.545474E+04  1.602097E+05
        79   3 -1.682991E+06 -8.670090E+05 -3.333235E+05 -8.187212E+05 -5.219723E+03  1.321496E+05
        79   4 -4.171560E+04 -2.696884E+05  1.321326E+03 -3.654052E+05 -6.379444E+04  1.738697E+05
        79   5 -7.932392E+04 -2.315459E+05  6.269272E+02 -3.226096E+05 -5.361868E+04  1.458857E+05
        79   6 -4.101582E+04 -2.682486E+05  3.952016E+02 -3.657268E+05 -4.347915E+04  1.178312E+05
        79   7  2.346624E+06  6.013641E+05  4.831536E+05  2.963482E+05 -1.020202E+05  1.594818E+05
        79   8  1.937160E+06  5.034574E+05  4.083163E+05  2.352842E+05 -9.191600E+04  1.315119E+05
        79   9  1.603751E+06  3.307451E+05  3.339882E+05  8.838011E+04 -8.184787E+04  1.034719E+05
        79  10 -2.424224E+06 -1.140298E+06 -4.808597E+05 -1.024814E+06 -3.744482E-09 -3.668878E-09
        79  11 -2.091637E+06 -9.662308E+05 -4.073070E+05 -8.788313E+05  9.783603E-11 -2.185316E-09
        79  12 -1.682995E+06 -8.670278E+05 -3.333564E+05 -8.187207E+05  1.004236E-09  9.137268E-11
        79  13 -4.172808E+04 -2.697220E+05  1.256878E+03 -3.653962E+05  4.345715E-10 -1.555329E-09
        79  14 -7.933272E+04 -2.315695E+05  5.815365E+02 -3.226033E+05 -2.005918E-09 -3.246658E-10
        79  15 -4.102158E+04 -2.682641E+05  3.655621E+02 -3.657227E+05  2.414882E-10  1.855653E-10
        79  16  2.346606E+06  6.013340E+05  4.830863E+05  2.963612E+05  2.201407E-09  9.072899E-10
        79  17  1.937147E+06  5.034366E+05  4.082679E+05  2.352939E+05 -4.741513E-09  1.167033E-09
        79  18  1.603741E+06  3.307318E+05  3.339555E+05  8.838692E+04  2.105494E-09  1.147522E-09
        79  19 -2.424213E+06 -1.140260E+06 -4.807918E+05 -1.024817E+06  2.572603E+04 -1.881988E+05
        79  20 -2.091630E+06 -9.662032E+05 -4.072583E+05 -8.788332E+05  1.545474E+04 -1.602097E+05
        79  21 -1.682991E+06 -8.670090E+05 -3.333235E+05 -8.187212E+05  5.219723E+03 -1.321496E+05
        79  22 -4.171560E+04 -2.696884E+05  1.321326E+03 -3.654052E+05  6.379444E+04 -1.738697E+05
        79  23 -7.932392E+04 -2.315459E+05  6.269272E+02 -3.226096E+05  5.361868E+04 -1.458857E+05
        79  24 -4.101582E+04 -2.682486E+05  3.952016E+02 -3.657268E+05  4.347915E+04 -1.178312E+05
        79  25  2.346624E+06  6.013641E+05  4.831536E+05  2.963482E+05  1.020202E+05 -1.594818E+05
        79  26  1.937160E+06  5.034574E+05  4.083163E+05  2.352842E+05  9.191600E+04 -1.315119E+05
        79  27  1.603751E+06  3.307451E+05  3.339882E+05  8.838011E+04  8.184787E+04 -1.034719E+05
        80   1 -1.427855E+06 -7.732778E+05 -2.795342E+05 -7.484396E+05  8.331453E+02  1.158395E+05
        80   2 -1.093739E+06 -6.000408E+05 -2.055557E+05 -6.026752E+05  1.130640E+04  8.786079E+04
        80   3 -6.842578E+05 -5.017342E+05 -1.315252E+05 -5.431730E+05  2.174832E+04  5.988030E+04
        80   4 -4.097810E+04 -2.680855E+05  2.279048E+02 -3.658100E+05 -3.744754E+04  1.015316E+05
        80   5 -7.840609E+04 -2.302543E+05 -1.607173E+01 -3.227358E+05 -2.698098E+04  7.357096E+04
        80   6 -4.062055E+04 -2.673582E+05 -2.109024E+02 -3.659703E+05 -1.654588E+04  4.560891E+04
        80   7  1.347884E+06  2.372707E+05  2.799014E+05  1.761105E+04 -7.582023E+04  8.718934E+04
        80   8  9.379875E+05  1.396186E+05  2.054773E+05 -4.237361E+04 -6.533554E+04  5.925605E+04
        80   9  6.034403E+05 -3.294864E+04  1.310871E+05 -1.885987E+05 -5.488245E+04  3.132171E+04
        80  10 -1.427859E+06 -7.732922E+05 -2.795594E+05 -7.484397E+05  1.919282E-10 -9.048924E-11
        80  11 -1.093741E+06 -6.000491E+05 -2.055704E+05 -6.026760E+05 -1.630075E-09 -4.724204E-10
        80  12 -6.842593E+05 -5.017381E+05 -1.315328E+05 -5.431740E+05 -1.756555E-09 -2.458556E-09
        80  13 -4.098237E+04 -2.680970E+05  2.059006E+02 -3.658070E+05  5.120260E-09 -4.669418E-10
        80  14 -7.840833E+04 -2.302603E+05 -2.760964E+01 -3.227342E+05 -4.902729E-09 -2.262213E-09
        80  15 -4.062141E+04 -2.673605E+05 -2.153254E+02 -3.659697E+05 -3.296630E-09  3.970018E-12
        80  16  1.347876E+06  2.372610E+05  2.798763E+05  1.761637E+04  5.549682E-10 -1.418108E-09
        80  17  9.379819E+05  1.396136E+05  2.054627E+05 -4.237049E+04 -2.101587E-11 -1.497174E-09
        80  18  6.034368E+05 -3.295050E+04  1.310796E+05 -1.885973E+05  2.561814E-09 -1.726872E-09
        80  19 -1.427855E+06 -7.732778E+05 -2.795342E+05 -7.484396E+05 -8.331453E+02 -1.158395E+05
        80  20 -1.093739E+06 -6.000408E+05 -2.055557E+05 -6.026752E+05 -1.130640E+04 -8.786079E+04
        80  21 -6.842578E+05 -5.017342E+05 -1.315252E+05 -5.431730E+05 -2.174832E+04 -5.988030E+04
        80  22 -4.097810E+04 -2.680855E+05  2.279048E+02 -3.658100E+05  3.744754E+04 -1.015316E+05
        80  23 -7.840609E+04 -2.302543E+05 -1.607173E+01 -3.227358E+05  2.698098E+04 -7.357096E+04
        80  24 -4.062055E+04 -2.673582E+05 -2.109024E+02 -3.659703E+05  1.654588E+04 -4.560891E+04
        80  25  1.347884E+06  2.372707E+05  2.799014E+05  1.761105E+04  7.582023E+04 -8.718934E+04
        80  26  9.379875E+05  1.396186E+05  2.054773E+05 -4.237361E+04  6.533554E+04 -5.925605E+04
        80  27  6.034403E+05 -3.294864E+04  1.310871E+05 -1.885987E+05  5.488245E+04 -3.132171E+04
        81   1 -4.284749E+05 -4.082645E+05 -7.770721E+04 -4.729679E+05  2.793632E+04  4.361880E+04
        81   2 -9.368321E+04 -2.355078E+05 -3.819312E+03 -3.271517E+05  3.837180E+04  1.576922E+04
        81   3  3.162358E+05 -1.376694E+05  7.003903E+04 -2.677172E+05  4.870380E+04 -1.180524E+04
        81   4 -4.062615E+04 -2.673009E+05 -3.745977E+02 -3.660040E+05 -1.042826E+04  2.932751E+04
        81   5 -7.807455E+04 -2.298012E+05 -8.227281E+02 -3.227806E+05  3.723545E+02  1.613976E+03
        81   6 -4.062164E+04 -2.673098E+05 -1.595468E+03 -3.659983E+05  1.106933E+04 -2.582407E+04
        81   7  3.473843E+05 -1.263221E+05  7.695801E+04 -2.589766E+05 -4.881887E+04  1.502649E+04
        81   8 -6.246236E+04 -2.240934E+05  2.180047E+03 -3.184085E+05 -3.762828E+04 -1.254172E+04
        81   9 -3.973450E+05 -3.969383E+05 -7.323014E+04 -4.642265E+05 -2.654195E+04 -3.983425E+04
        81  10 -4.284763E+05 -4.082667E+05 -7.771226E+04 -4.729689E+05  2.249114E-08  9.754598E-09
        81  11 -9.368486E+04 -2.355085E+05 -3.822548E+03 -3.271522E+05  7.662776E-09  9.070835E-10
        81  12  3.162333E+05 -1.376702E+05  7.003431E+04 -2.677168E+05 -2.047098E-08 -9.204670E-09
        81  13 -4.062650E+04 -2.673018E+05 -3.764181E+02 -3.660037E+05  2.237553E-09 -1.577129E-09
        81  14 -7.807455E+04 -2.298012E+05 -8.227333E+02 -3.227806E+05  7.230196E-09  8.005275E-09
        81  15 -4.062195E+04 -2.673105E+05 -1.596951E+03 -3.659981E+05  6.334854E-09 -3.991687E-09
        81  16  3.473817E+05 -1.263229E+05  7.695311E+04 -2.589760E+05 -2.021041E-08 -6.843665E-09
        81  17 -6.246393E+04 -2.240939E+05  2.177089E+03 -3.184089E+05  8.168077E-09  2.152617E-09
        81  18 -3.973462E+05 -3.969402E+05 -7.323445E+04 -4.642273E+05  3.060042E-08  7.199381E-09
        81  19 -4.284749E+05 -4.082645E+05 -7.770721E+04 -4.729679E+05 -2.793632E+04 -4.361880E+04
        81  20 -9.368321E+04 -2.355078E+05 -3.819312E+03 -3.271517E+05 -3.837180E+04 -1.576922E+04
        81  21  3.162358E+05 -1.376694E+05  7.003903E+04 -2.677172E+05 -4.870380E+04  1.180524E+04
        81  22 -4.062615E+04 -2.673009E+05 -3.745977E+02 -3.660040E+05  1.042826E+04 -2.932751E+04
        81  23 -7.807455E+04 -2.298012E+05 -8.227281E+02 -3.227806E+05 -3.723545E+02 -1.613976E+03
        81  24 -4.062164E+04 -2.673098E+05 -1.595468E+03 -3.659983E+05 -1.106933E+04  2.582407E+04
        81  25  3.473843E+05 -1.263221E+05  7.695801E+04 -2.589766E+05  4.881887E+04 -1.502649E+04
        81  26 -6.246236E+04 -2.240934E+05  2.180047E+03 -3.184085E+05  3.762828E+04  1.254172E+04
        81  27 -3.973450E+05 -3.969383E+05 -7.323014E+04 -4.642265E+05  2.654195E+04  3.983425E+04
        82   1  5.724144E+05 -4.426423E+04  1.234638E+05 -1.974545E+05  5.597556E+04 -2.769408E+04
        82   2  9.066549E+05  1.285290E+05  1.976863E+05 -5.121492E+04  6.180540E+04 -5.505802E+04
        82   3  1.316541E+06  2.267295E+05  2.748186E+05  9.157576E+03  6.605348E+04 -7.812474E+04
        82   4 -4.077055E+04 -2.672718E+05 -2.144122E+03 -3.659869E+05  1.745095E+04 -4.205030E+04
        82   5 -7.819817E+04 -2.303354E+05 -4.032867E+03 -3.227187E+05  2.916120E+04 -6.724145E+04
        82   6 -4.127880E+04 -2.691754E+05 -7.662548E+03 -3.653827E+05  3.929064E+04 -8.813052E+04
        82   7 -6.535620E+05 -4.902456E+05 -1.277637E+05 -5.343639E+05 -2.103251E+04 -5.639122E+04
        82   8 -1.062055E+06 -5.891184E+05 -2.057973E+05 -5.938252E+05 -3.427424E+03 -7.940413E+04
        82   9 -1.397225E+06 -7.649324E+05 -2.902422E+05 -7.391721E+05  1.259048E+04 -9.811287E+04
        82  10  5.724108E+05 -4.426589E+04  1.234565E+05 -1.974532E+05 -2.993925E-08 -1.259842E-08
        82  11  9.066500E+05  1.285247E+05  1.976734E+05 -5.121218E+04  6.238677E-09  3.322860E-09
        82  12  1.316534E+06  2.267218E+05  2.747989E+05  9.161729E+03  4.832274E-08  1.737770E-08
        82  13 -4.077135E+04 -2.672738E+05 -2.148016E+03 -3.659863E+05  6.934355E-09 -1.525936E-09
        82  14 -7.820029E+04 -2.303405E+05 -4.042960E+03 -3.227171E+05  9.848234E-09 -6.660655E-09
        82  15 -4.128254E+04 -2.691842E+05 -7.680040E+03 -3.653799E+05  1.160045E-08  3.304502E-09
        82  16 -6.535633E+05 -4.902491E+05 -1.277705E+05 -5.343648E+05  3.030123E-08  9.536863E-09
        82  17 -1.062057E+06 -5.891252E+05 -2.058092E+05 -5.938255E+05 -8.110759E-10 -6.753596E-09
        82  18 -1.397228E+06 -7.649428E+05 -2.902606E+05 -7.391711E+05 -2.897474E-08 -1.475379E-08
        82  19  5.724144E+05 -4.426423E+04  1.234638E+05 -1.974545E+05 -5.597556E+04  2.769408E+04
        82  20  9.066549E+05  1.285290E+05  1.976863E+05 -5.121492E+04 -6.180540E+04  5.505802E+04
        82  21  1.316541E+06  2.267295E+05  2.748186E+05  9.157576E+03 -6.605348E+04  7.812474E+04
        82  22 -4.077055E+04 -2.672718E+05 -2.144122E+03 -3.659869E+05 -1.745095E+04  4.205030E+04
        82  23 -7.819817E+04 -2.303354E+05 -4.032867E+03 -3.227187E+05 -2.916120E+04  6.724145E+04
        82  24 -4.127880E+04 -2.691754E+05 -7.662548E+03 -3.653827E+05 -3.929064E+04  8.813052E+04
        82  25 -6.535620E+05 -4.902456E+05 -1.277637E+05 -5.343639E+05  2.103251E+04  5.639122E+04
        82  26 -1.062055E+06 -5.891184E+05 -2.057973E+05 -5.938252E+05  3.427424E+03  7.940413E+04
        82  27 -1.397225E+06 -7.649324E+05 -2.902422E+05 -7.391721E+05 -1.259048E+04  9.811287E+04
        83   1  1.575914E+06  3.204047E+05  3.265423E+05  7.736423E+04  8.728486E+04 -8.945116E+04
        83   2  1.899097E+06  4.981208E+05  4.219550E+05  2.302820E+05  4.473270E+03 -1.160955E+05
        83   3  2.303276E+06  5.990731E+05  5.760963E+05  3.065360E+05 -1.033323E+05 -7.628810E+04
        83   4 -4.316667E+04 -2.674541E+05 -9.981816E+03 -3.656411E+05  4.674590E+04 -1.046150E+05
        83   5 -7.710836E+04 -2.363297E+05 -1.882804E+04 -3.212831E+05  5.533141E+04 -9.710983E+04
        83   6 -4.824707E+04 -3.000918E+05 -4.122645E+04 -3.536583E+05  3.893869E+04 -2.302261E+04
        83   7 -1.659577E+06 -8.551075E+05 -3.466411E+05 -8.075885E+05  6.320313E+03 -1.197369E+05
        83   8 -2.049351E+06 -9.704481E+05 -4.598385E+05 -8.712269E+05  1.060142E+05 -7.819151E+04
        83   9 -2.394308E+06 -1.198813E+06 -6.589145E+05 -1.011547E+06  1.806162E+05  3.000961E+04
        83  10  1.575904E+06  3.203941E+05  3.265129E+05  7.737051E+04 -6.679370E-09 -2.277253E-09
        83  11  1.899093E+06  4.981063E+05  4.219297E+05  2.302824E+05  6.728842E-09  1.014260E-09
        83  12  2.303263E+06  5.990640E+05  5.760654E+05  3.065296E+05  1.184632E-08  3.465069E-09
        83  13 -4.317195E+04 -2.674664E+05 -1.000648E+04 -3.656371E+05  1.315559E-08  5.722103E-09
        83  14 -7.711417E+04 -2.363407E+05 -1.885151E+04 -3.212788E+05  1.409804E-08  2.218200E-09
        83  15 -4.824884E+04 -3.000928E+05 -4.123029E+04 -3.536576E+05  3.773072E-09  9.842705E-10
        83  16 -1.659581E+06 -8.551229E+05 -3.466681E+05 -8.075879E+05  2.580968E-08  1.078534E-08
        83  17 -2.049365E+06 -9.704577E+05 -4.598711E+05 -8.712202E+05  1.556363E-08  7.465521E-09
        83  18 -2.394343E+06 -1.198823E+06 -6.589777E+05 -1.011552E+06 -8.273904E-09 -1.682335E-09
        83  19  1.575914E+06  3.204047E+05  3.265423E+05  7.736423E+04 -8.728486E+04  8.945116E+04
        83  20  1.899097E+06  4.981208E+05  4.219550E+05  2.302820E+05 -4.473270E+03  1.160955E+05
        83  21  2.303276E+06  5.990731E+05  5.760963E+05  3.065360E+05  1.033323E+05  7.628810E+04
        83  22 -4.316667E+04 -2.674541E+05 -9.981816E+03 -3.656411E+05 -4.674590E+04  1.046150E+05
        83  23 -7.710836E+04 -2.363297E+05 -1.882804E+04 -3.212831E+05 -5.533141E+04  9.710983E+04
        83  24 -4.824707E+04 -3.000918E+05 -4.122645E+04 -3.536583E+05 -3.893869E+04  2.302261E+04
        83  25 -1.659577E+06 -8.551075E+05 -3.466411E+05 -8.075885E+05 -6.320313E+03  1.197369E+05
        83  26 -2.049351E+06 -9.704481E+05 -4.598385E+05 -8.712269E+05 -1.060142E+05  7.819151E+04
        83  27 -2.394308E+06 -1.198813E+06 -6.589145E+05 -1.011547E+06 -1.806162E+05 -3.000961E+04
        84   1 -1.895060E+05 -9.632745E+04 -8.539425E+04 -6.864004E+04 -1.893005E+04  6.713060E+03
        84   2 -1.190314E+05 -1.008446E+05 -6.531971E+04 -7.734457E+04 -3.095441E+03  2.236191E+04
        84   3 -4.739657E+04 -9.258083E+04 -5.235924E+04 -9.651587E+04  1.274582E+04  2.648616E+04
        84   4  3.778463E+05  4.338228E+04  4.593119E+04 -9.817045E+04  3.245458E+04  6.721961E+03
        84   5  3.748859E+05  1.562476E+04  2.320031E+04 -9.293590E+04  2.063480E+04  2.236292E+04
        84   6  3.778766E+05  5.441752E+03  1.255548E+04 -9.816659E+04  8.819643E+03  2.648423E+04
        84   7  9.455036E+05  1.830741E+05  1.772455E+05 -1.277280E+05  8.388582E+04  6.725973E+03
        84   8  8.690427E+05  1.320818E+05  1.117132E+05 -1.085400E+05  4.438338E+04  2.236275E+04
        84   9  8.033307E+05  1.034557E+05  7.746639E+04 -9.981848E+04  4.890877E+03  2.648232E+04
        84  10 -1.895064E+05 -9.632759E+04 -8.539501E+04 -6.863994E+04 -5.225503E-10  8.496806E-10
        84  11 -1.190316E+05 -1.008451E+05 -6.532066E+04 -7.734452E+04  2.393508E-10  2.605788E-09
        84  12 -4.739693E+04 -9.258163E+04 -5.236087E+04 -9.651614E+04 -7.304332E-10  2.600454E-09
        84  13  3.778452E+05  4.338195E+04  4.592913E+04 -9.817062E+04  1.240471E-10  7.389729E-10
        84  14  3.748853E+05  1.562410E+04  2.319857E+04 -9.293627E+04  2.321677E-09  1.990571E-09
        84  15  3.778763E+05  5.440978E+03  1.255402E+04 -9.816678E+04  6.626505E-10  2.491307E-09
        84  16  9.454961E+05  1.830722E+05  1.772322E+05 -1.277285E+05 -1.460471E-10  4.941742E-10
        84  17  8.690405E+05  1.320807E+05  1.117086E+05 -1.085408E+05 -2.354067E-09  1.488852E-09
        84  18  8.033305E+05  1.034549E+05  7.746503E+04 -9.981858E+04  1.641265E-09  2.822872E-09
        84  19 -1.895060E+05 -9.632745E+04 -8.539425E+04 -6.864004E+04  1.893005E+04 -6.713060E+03
        84  20 -1.190314E+05 -1.008446E+05 -6.531971E+04 -7.734457E+04  3.095441E+03 -2.236191E+04
        84  21 -4.739657E+04 -9.258083E+04 -5.235924E+04 -9.651587E+04 -1.274582E+04 -2.648616E+04
        84  22  3.778463E+05  4.338228E+04  4.593119E+04 -9.817045E+04 -3.245458E+04 -6.721961E+03
        84  23  3.748859E+05  1.562476E+04  2.320031E+04 -9.293590E+04 -2.063480E+04 -2.236292E+04
        84  24  3.778766E+05  5.441752E+03  1.255548E+04 -9.816659E+04 -8.819643E+03 -2.648423E+04
        84  25  9.455036E+05  1.830741E+05  1.772455E+05 -1.277280E+05 -8.388582E+04 -6.725973E+03
        84  26  8.690427E+05  1.320818E+05  1.117132E+05 -1.085400E+05 -4.438338E+04 -2.236275E+04
        84  27  8.033307E+05  1.034557E+05  7.746639E+04 -9.981848E+04 -4.890877E+03 -2.648232E+04
        85   1 -3.964394E+03 -8.339166E+04 -4.673029E+04 -9.602955E+04  1.202983E+04  2.499978E+04
        85   2  6.691457E+04 -6.912170E+04 -3.760019E+04 -9.156222E+04  1.323979E+04  2.220108E+04
        85   3  1.379330E+05 -5.372511E+04 -2.897324E+04 -9.841342E+04  1.444951E+04  1.784483E+04
        85   4  3.767344E+05  3.951242E+03  9.362339E+03 -9.835692E+04  7.185393E+03  2.499819E+04
        85   5  3.763508E+05  1.280470E+03  5.049485E+03 -9.269795E+04  4.655654E+03  2.220018E+04
        85   6  3.767503E+05  3.851107E+02  2.829085E+03 -9.835702E+04  2.125549E+03  1.784502E+04
        85   7  7.575790E+05  9.128742E+04  6.545247E+04 -1.006858E+05  2.338104E+03  2.499665E+04
        85   8  6.858845E+05  7.167848E+04  4.769835E+04 -9.383427E+04 -3.932570E+03  2.219931E+04
        85   9  6.156261E+05  5.449298E+04  3.463152E+04 -9.830058E+04 -1.020293E+04  1.784522E+04
        85  10 -3.964717E+03 -8.339237E+04 -4.673174E+04 -9.602980E+04 -8.938193E-09  2.770371E-09
        85  11  6.691425E+04 -6.912228E+04 -3.760145E+04 -9.156245E+04 -3.620484E-09  2.530535E-09
        85  12  1.379327E+05 -5.372551E+04 -2.897423E+04 -9.841363E+04 -2.646686E-09 -9.380621E-11
        85  13  3.767342E+05  3.950557E+03  9.361068E+03 -9.835706E+04 -4.169421E-09  3.029359E-09
        85  14  3.763507E+05  1.279935E+03  5.048518E+03 -9.269804E+04 -1.934072E-09  2.144952E-09
        85  15  3.767502E+05  3.847675E+02  2.828478E+03 -9.835705E+04 -3.902429E-09 -9.467866E-10
        85  16  7.575789E+05  9.128675E+04  6.545129E+04 -1.006858E+05  5.722192E-09  3.083395E-09
        85  17  6.858844E+05  7.167794E+04  4.769740E+04 -9.383420E+04  5.283961E-09  1.653434E-09
        85  18  6.156259E+05  5.449261E+04  3.463072E+04 -9.830043E+04  1.877552E-09 -1.763538E-09
        85  19 -3.964394E+03 -8.339166E+04 -4.673029E+04 -9.602955E+04 -1.202983E+04 -2.499978E+04
        85  20  6.691457E+04 -6.912170E+04 -3.760019E+04 -9.156222E+04 -1.323979E+04 -2.220108E+04
        85  21  1.379330E+05 -5.372511E+04 -2.897324E+04 -9.841342E+04 -1.444951E+04 -1.784483E+04
        85  22  3.767344E+05  3.951242E+03  9.362339E+03 -9.835692E+04 -7.185393E+03 -2.499819E+04
        85  23  3.763508E+05  1.280470E+03  5.049485E+03 -9.269795E+04 -4.655654E+03 -2.220018E+04
        85  24  3.767503E+05  3.851107E+02  2.829085E+03 -9.835702E+04 -2.125549E+03 -1.784502E+04
        85  25  7.575790E+05  9.128742E+04  6.545247E+04 -1.006858E+05 -2.338104E+03 -2.499665E+04
        85  26  6.858845E+05  7.167848E+04  4.769835E+04 -9.383427E+04  3.932570E+03 -2.219931E+04
        85  27  6.156261E+05  5.449298E+04  3.463152E+04 -9.830058E+04  1.020293E+04 -1.784522E+04
        86   1  1.816394E+05 -4.383484E+04 -2.349245E+04 -9.832347E+04  1.415710E+04  1.478461E+04
        86   2  2.525466E+05 -2.796944E+04 -1.496056E+04 -9.266846E+04  1.406928E+04  9.494301E+03
        86   3  3.234936E+05 -1.202262E+04 -6.350108E+03 -9.844455E+04  1.398113E+04  3.994339E+03
        86   4  3.766072E+05  2.711276E+02  2.130697E+03 -9.838215E+04  1.709356E+03  1.478525E+04
        86   5  3.765488E+05  5.254280E+01  1.191399E+03 -9.266670E+04  1.117455E+03  9.495416E+03
        86   6  3.766134E+05  3.198706E+00  6.803420E+02 -9.838219E+04  5.252426E+02  3.995947E+03
        86   7  5.716141E+05  4.437558E+04  2.775417E+04 -9.844085E+04 -1.074211E+04  1.478588E+04
        86   8  5.005670E+05  2.807398E+04  1.734389E+04 -9.266493E+04 -1.183683E+04  9.496530E+03
        86   9  4.297364E+05  1.202900E+04  7.711452E+03 -9.831983E+04 -1.293175E+04  3.997552E+03
        86  10  1.816392E+05 -4.383513E+04 -2.349324E+04 -9.832364E+04 -3.917658E-08  7.251628E-10
        86  11  2.525464E+05 -2.796959E+04 -1.496110E+04 -9.266857E+04  5.038659E-09  5.629574E-09
        86  12  3.234934E+05 -1.202269E+04 -6.350506E+03 -9.844459E+04  4.079158E-08  7.395420E-09
        86  13  3.766071E+05  2.708920E+02  2.130280E+03 -9.838217E+04 -2.277609E-09 -2.717331E-09
        86  14  3.765488E+05  5.244563E+01  1.191227E+03 -9.266671E+04 -3.223875E-09 -5.732944E-09
        86  15  3.766134E+05  3.181482E+00  6.803115E+02 -9.838219E+04  4.573223E-09 -1.051871E-08
        86  16  5.716139E+05  4.437531E+04  2.775354E+04 -9.844072E+04  3.787375E-08 -1.694964E-09
        86  17  5.005668E+05  2.807384E+04  1.734346E+04 -9.266484E+04 -1.747397E-09  2.738149E-09
        86  18  4.297362E+05  1.202893E+04  7.711108E+03 -9.831979E+04 -3.678278E-08  6.362058E-09
        86  19  1.816394E+05 -4.383484E+04 -2.349245E+04 -9.832347E+04 -1.415710E+04 -1.478461E+04
        86  20  2.525466E+05 -2.796944E+04 -1.496056E+04 -9.266846E+04 -1.406928E+04 -9.494301E+03
        86  21  3.234936E+05 -1.202262E+04 -6.350108E+03 -9.844455E+04 -1.398113E+04 -3.994339E+03
        86  22  3.766072E+05  2.711276E+02  2.130697E+03 -9.838215E+04 -1.709356E+03 -1.478525E+04
        86  23  3.765488E+05  5.254280E+01  1.191399E+03 -9.266670E+04 -1.117455E+03 -9.495416E+03
        86  24  3.766134E+05  3.198706E+00  6.803420E+02 -9.838219E+04 -5.252426E+02 -3.995947E+03
        86  25  5.716141E+05  4.437558E+04  2.775417E+04 -9.844085E+04  1.074211E+04 -1.478588E+04
        86  26  5.005670E+05  2.807398E+04  1.734389E+04 -9.266493E+04  1.183683E+04 -9.496530E+03
        86  27  4.297364E+05  1.202900E+04  7.711452E+03 -9.831983E+04  1.293175E+04 -3.997552E+03
        87   1  3.672282E+05 -2.112690E+03 -6.920691E+02 -9.842756E+04  1.389173E+04  7.227430E+02
        87   2  4.381491E+05  1.384308E+04  8.027314E+03 -9.269590E+04  1.380114E+04 -4.899487E+03
        87   3  5.090919E+05  2.980256E+04  1.680772E+04 -9.841026E+04  1.371073E+04 -1.054447E+04
        87   4  3.765921E+05  8.881346E-01  5.156183E+02 -9.838556E+04  4.191731E+02  7.244183E+02
        87   5  3.765781E+05 -1.178311E+01  2.945791E+02 -9.266252E+04  2.730938E+02 -4.898026E+03
        87   6  3.765892E+05 -1.133269E+01  1.722231E+02 -9.838557E+04  1.271955E+02 -1.054323E+04
        87   7  3.859566E+05  2.114560E+03  1.723987E+03 -9.834356E+04 -1.305358E+04  7.260918E+02
        87   8  3.150114E+05 -1.386670E+04 -7.437478E+03 -9.262914E+04 -1.325368E+04 -4.896566E+03
        87   9  2.441049E+05 -2.982583E+04 -1.646262E+04 -9.836088E+04 -1.345358E+04 -1.054200E+04
        87  10  3.672280E+05 -2.112742E+03 -6.924325E+02 -9.842757E+04 -5.719618E-08  6.577444E-09
        87  11  4.381489E+05  1.384300E+04  8.026911E+03 -9.269584E+04 -2.223716E-08  4.557078E-09
        87  12  5.090917E+05  2.980239E+04  1.680716E+04 -9.841014E+04  1.334621E-08  3.559323E-09
        87  13  3.765921E+05  8.875238E-01  5.156170E+02 -9.838556E+04  2.151160E-09 -1.295711E-08
        87  14  3.765781E+05 -1.180890E+01  2.945339E+02 -9.266252E+04 -6.137411E-11 -1.444363E-08
        87  15  3.765891E+05 -1.145209E+01  1.720141E+02 -9.838556E+04  3.100633E-09 -1.534358E-08
        87  16  3.859564E+05  2.114513E+03  1.723666E+03 -9.834355E+04  5.939985E-08  6.921167E-09
        87  17  3.150112E+05 -1.386677E+04 -7.437853E+03 -9.262920E+04  2.527978E-08  5.988054E-09
        87  18  2.441046E+05 -2.982600E+04 -1.646317E+04 -9.836099E+04 -1.113312E-08  5.301536E-09
        87  19  3.672282E+05 -2.112690E+03 -6.920691E+02 -9.842756E+04 -1.389173E+04 -7.227430E+02
        87  20  4.381491E+05  1.384308E+04  8.027314E+03 -9.269590E+04 -1.380114E+04  4.899487E+03
        87  21  5.090919E+05  2.980256E+04  1.680772E+04 -9.841026E+04 -1.371073E+04  1.054447E+04
        87  22  3.765921E+05  8.881346E-01  5.156183E+02 -9.838556E+04 -4.191731E+02 -7.244183E+02
        87  23  3.765781E+05 -1.178311E+01  2.945791E+02 -9.266252E+04 -2.730938E+02  4.898026E+03
        87  24  3.765892E+05 -1.133269E+01  1.722231E+02 -9.838557E+04 -1.271955E+02  1.054323E+04
        87  25  3.859566E+05  2.114560E+03  1.723987E+03 -9.834356E+04  1.305358E+04 -7.260918E+02
        87  26  3.150114E+05 -1.386670E+04 -7.437478E+03 -9.262914E+04  1.325368E+04  4.896566E+03
        87  27  2.441049E+05 -2.982583E+04 -1.646262E+04 -9.836088E+04  1.345358E+04  1.054200E+04
        88   1  5.528424E+05  3.970292E+04  2.255305E+04 -9.840597E+04  1.368296E+04 -1.383878E+04
        88   2  6.237811E+05  5.565644E+04  3.141950E+04 -9.266979E+04  1.354994E+04 -1.947488E+04
        88   3  6.947537E+05  7.162576E+04  4.037860E+04 -9.838098E+04  1.341762E+04 -2.507202E+04
        88   4  3.765839E+05 -1.356671E+01  1.330313E+02 -9.838591E+04  9.943257E+01 -1.383788E+04
        88   5  3.765716E+05 -2.403986E+01  8.118955E+01 -9.266210E+04  5.920768E+01 -1.947488E+04
        88   6  3.765718E+05 -3.473969E+01  5.709761E+01 -9.838591E+04  1.969607E+01 -2.507294E+04
        88   7  2.003576E+05 -3.973123E+04 -2.228641E+04 -9.836585E+04 -1.348043E+04 -1.383698E+04
        88   8  1.294252E+05 -5.570692E+04 -3.125665E+04 -9.265440E+04 -1.342642E+04 -1.947489E+04
        88   9  5.849414E+04 -7.169927E+04 -4.026407E+04 -9.839083E+04 -1.337171E+04 -2.507386E+04
        88  10  5.528421E+05  3.970267E+04  2.255234E+04 -9.840581E+04  1.466738E-08  3.669008E-09
        88  11  6.237808E+05  5.565599E+04  3.141845E+04 -9.266958E+04  1.749418E-08  3.113547E-09
        88  12  6.947533E+05  7.162504E+04  4.037708E+04 -9.838070E+04  1.801258E-08  6.459794E-10
        88  13  3.765838E+05 -1.377238E+01  1.326714E+02 -9.838591E+04  2.683079E-10 -1.351063E-08
        88  14  3.765715E+05 -2.444721E+01  8.047669E+01 -9.266210E+04  3.516535E-09 -7.110390E-09
        88  15  3.765716E+05 -3.541487E+01  5.591604E+01 -9.838591E+04 -1.282742E-09 -1.348292E-09
        88  16  2.003574E+05 -3.973148E+04 -2.228711E+04 -9.836600E+04 -9.402400E-09  4.363993E-09
        88  17  1.294249E+05 -5.570738E+04 -3.125770E+04 -9.265461E+04 -1.588489E-08  2.251010E-09
        88  18  5.849378E+04 -7.170000E+04 -4.026559E+04 -9.839110E+04 -1.690546E-08  1.030511E-09
        88  19  5.528424E+05  3.970292E+04  2.255305E+04 -9.840597E+04 -1.368296E+04  1.383878E+04
        88  20  6.237811E+05  5.565644E+04  3.141950E+04 -9.266979E+04 -1.354994E+04  1.947488E+04
        88  21  6.947537E+05  7.162576E+04  4.037860E+04 -9.838098E+04 -1.341762E+04  2.507202E+04
        88  22  3.765839E+05 -1.356671E+01  1.330313E+02 -9.838591E+04 -9.943257E+01  1.383788E+04
        88  23  3.765716E+05 -2.403986E+01  8.118955E+01 -9.266210E+04 -5.920768E+01  1.947488E+04
        88  24  3.765718E+05 -3.473969E+01  5.709761E+01 -9.838591E+04 -1.969607E+01  2.507294E+04
        88  25  2.003576E+05 -3.973123E+04 -2.228641E+04 -9.836585E+04  1.348043E+04  1.383698E+04
        88  26  1.294252E+05 -5.570692E+04 -3.125665E+04 -9.265440E+04  1.342642E+04  1.947489E+04
        88  27  5.849414E+04 -7.169927E+04 -4.026407E+04 -9.839083E+04  1.337171E+04  2.507386E+04
        89   1  7.385468E+05  8.153999E+04  4.622707E+04 -9.836795E+04  1.338491E+04 -2.832698E+04
        89   2  8.094652E+05  9.754915E+04  5.549472E+04 -9.262754E+04  1.259286E+04 -3.373427E+04
        89   3  8.805422E+05  1.136942E+05  6.531632E+04 -9.831700E+04  1.180185E+04 -3.882192E+04
        89   4  3.765682E+05 -4.309305E+01  5.205349E+01 -9.838207E+04  1.018498E+01 -2.832862E+04
        89   5  3.765470E+05 -6.252968E+01  5.112066E+01 -9.266690E+04 -1.445883E+01 -3.373742E+04
        89   6  3.765471E+05 -7.882063E+01  7.160669E+01 -9.838206E+04 -3.798263E+01 -3.882646E+04
        89   7  1.472431E+04 -8.163146E+04 -4.612282E+04 -9.839617E+04 -1.335713E+04 -2.833027E+04
        89   8 -5.617896E+04 -9.768184E+04 -5.539270E+04 -9.270622E+04 -1.261342E+04 -3.374057E+04
        89   9 -1.271879E+05 -1.138623E+05 -6.517395E+04 -9.844706E+04 -1.186868E+04 -3.883100E+04
        89  10  7.385464E+05  8.153908E+04  4.622523E+04 -9.836764E+04  1.305747E-09  1.929062E-10
        89  11  8.094647E+05  9.754788E+04  5.549228E+04 -9.262720E+04 -1.683979E-09  9.715955E-10
        89  12  8.805417E+05  1.136925E+05  6.531322E+04 -9.831663E+04  5.464771E-09  1.353737E-09
        89  13  3.765680E+05 -4.395496E+01  5.054515E+01 -9.838207E+04 -2.119323E-11  8.027852E-10
        89  14  3.765467E+05 -6.375214E+01  4.898136E+01 -9.266690E+04  2.050436E-09  1.712025E-09
        89  15  3.765467E+05 -8.043971E+01  6.877331E+01 -9.838207E+04  1.291250E-09  1.210845E-09
        89  16  1.472391E+04 -8.163237E+04 -4.612466E+04 -9.839647E+04  1.003101E-09  1.396175E-09
        89  17 -5.617943E+04 -9.768310E+04 -5.539514E+04 -9.270657E+04 -5.105532E-09  2.241523E-09
        89  18 -1.271885E+05 -1.138639E+05 -6.517704E+04 -9.844743E+04 -2.513849E-09  1.392861E-09
        89  19  7.385468E+05  8.153999E+04  4.622707E+04 -9.836795E+04 -1.338491E+04  2.832698E+04
        89  20  8.094652E+05  9.754915E+04  5.549472E+04 -9.262754E+04 -1.259286E+04  3.373427E+04
        89  21  8.805422E+05  1.136942E+05  6.531632E+04 -9.831700E+04 -1.180185E+04  3.882192E+04
        89  22  3.765682E+05 -4.309305E+01  5.205349E+01 -9.838207E+04 -1.018498E+01  2.832862E+04
        89  23  3.765470E+05 -6.252968E+01  5.112066E+01 -9.266690E+04  1.445883E+01  3.373742E+04
        89  24  3.765471E+05 -7.882063E+01  7.160669E+01 -9.838206E+04  3.798263E+01  3.882646E+04
        89  25  1.472431E+04 -8.163146E+04 -4.612282E+04 -9.839617E+04  1.335713E+04  2.833027E+04
        89  26 -5.617896E+04 -9.768184E+04 -5.539270E+04 -9.270622E+04  1.261342E+04  3.374057E+04
        89  27 -1.271879E+05 -1.138623E+05 -6.517395E+04 -9.844706E+04  1.186868E+04  3.883100E+04
        90   1  9.245198E+05  1.237504E+05  7.173542E+04 -9.825330E+04  1.160253E+04 -4.175404E+04
        90   2  9.950638E+05  1.402305E+05  8.369638E+04 -9.260926E+04  5.824895E+03 -4.541697E+04
        90   3  1.066658E+06  1.577526E+05  9.968409E+04 -9.822054E+04  4.665977E+01 -4.670539E+04
        90   4  3.765460E+05 -8.899610E+01  8.989606E+01 -9.834333E+04 -5.063384E+01 -4.175957E+04
        90   5  3.765036E+05 -9.089906E+01  1.472041E+02 -9.271532E+04 -1.217675E+02 -4.542298E+04
        90   6  3.765163E+05 -4.025398E+01  2.723345E+02 -9.834334E+04 -1.927822E+02 -4.671062E+04
        90   7 -1.711208E+05 -1.239410E+05 -7.155701E+04 -9.843327E+04 -1.169401E+04 -4.176510E+04
        90   8 -2.416673E+05 -1.404288E+05 -8.340544E+04 -9.282127E+04 -6.062785E+03 -4.542899E+04
        90   9 -3.131452E+05 -1.578549E+05 -9.914688E+04 -9.846601E+04 -4.319696E+02 -4.671586E+04
        90  10  9.245192E+05  1.237485E+05  7.173189E+04 -9.825291E+04 -6.092530E-08  4.093110E-10
        90  11  9.950632E+05  1.402283E+05  8.369244E+04 -9.260905E+04  8.430373E-09 -1.692872E-09
        90  12  1.066657E+06  1.577503E+05  9.967999E+04 -9.822054E+04  6.814727E-08 -2.777963E-09
        90  13  3.765455E+05 -9.086903E+01  8.661842E+01 -9.834333E+04 -2.161478E-09  4.105525E-10
        90  14  3.765031E+05 -9.311502E+01  1.433262E+02 -9.271532E+04 -5.346458E-09 -9.037112E-10
        90  15  3.765157E+05 -4.259736E+01  2.682335E+02 -9.834335E+04  3.298749E-09 -1.425613E-09
        90  16 -1.711214E+05 -1.239429E+05 -7.156055E+04 -9.843366E+04  6.440098E-08  5.706338E-10
        90  17 -2.416679E+05 -1.404310E+05 -8.340938E+04 -9.282149E+04 -5.460977E-10  8.361301E-10
        90  18 -3.131458E+05 -1.578572E+05 -9.915098E+04 -9.846602E+04 -7.106785E-08  2.097586E-10
        90  19  9.245198E+05  1.237504E+05  7.173542E+04 -9.825330E+04 -1.160253E+04  4.175404E+04
        90  20  9.950638E+05  1.402305E+05  8.369638E+04 -9.260926E+04 -5.824895E+03  4.541697E+04
        90  21  1.066658E+06  1.577526E+05  9.968409E+04 -9.822054E+04 -4.665977E+01  4.670539E+04
        90  22  3.765460E+05 -8.899610E+01  8.989606E+01 -9.834333E+04  5.063384E+01  4.175957E+04
        90  23  3.765036E+05 -9.089906E+01  1.472041E+02 -9.271532E+04  1.217675E+02  4.542298E+04
        90  24  3.765163E+05 -4.025398E+01  2.723345E+02 -9.834334E+04  1.927822E+02  4.671062E+04
        90  25 -1.711208E+05 -1.239410E+05 -7.155701E+04 -9.843327E+04  1.169401E+04  4.176510E+04
        90  26 -2.416673E+05 -1.404288E+05 -8.340544E+04 -9.282127E+04  6.062785E+03  4.542899E+04
        90  27 -3.131452E+05 -1.578549E+05 -9.914688E+04 -9.846601E+04  4.319696E+02  4.671586E+04
        91   1  1.111798E+06  1.688791E+05  1.102098E+05 -9.786899E+04 -1.400443E+03 -4.723793E+04
        91   2  1.179262E+06  1.889365E+05  1.418765E+05 -9.324882E+04 -4.396906E+04 -3.798610E+04
        91   3  1.254280E+06  2.168612E+05  2.032016E+05 -9.857840E+04 -8.655941E+04 -1.116421E+04
        91   4  3.765435E+05 -1.127969E+01  3.655403E+02 -9.805282E+04 -2.406706E+02 -4.724297E+04
        91   5  3.764108E+05  2.718430E+02  6.650090E+02 -9.307859E+04 -5.702526E+02 -3.797022E+04
        91   6  3.765067E+05  1.100800E+03  1.322577E+03 -9.805329E+04 -9.152499E+02 -1.111700E+04
        91   7 -3.581687E+05 -1.689271E+05 -1.094891E+05 -9.823643E+04  9.177859E+02 -4.724801E+04
        91   8 -4.258069E+05 -1.884270E+05 -1.405629E+05 -9.290863E+04  4.277418E+04 -3.795431E+04
        91   9 -5.005392E+05 -2.147094E+05 -2.005799E+05 -9.752898E+04  8.460898E+04 -1.106962E+04
        91  10  1.111797E+06  1.688767E+05  1.102056E+05 -9.786904E+04  3.438705E-09 -2.373936E-09
        91  11  1.179260E+06  1.889345E+05  1.418702E+05 -9.325016E+04  1.603220E-09 -1.544253E-09
        91  12  1.254272E+06  2.168590E+05  2.031873E+05 -9.857917E+04 -4.014782E-10 -1.868194E-10
        91  13  3.765429E+05 -1.367680E+01  3.613452E+02 -9.805283E+04  1.726794E-09 -2.985958E-09
        91  14  3.764104E+05  2.702945E+02  6.622986E+02 -9.307861E+04 -5.971297E-09  8.284334E-10
        91  15  3.765067E+05  1.100667E+03  1.322344E+03 -9.805330E+04 -2.869823E-09 -1.660875E-11
        91  16 -3.581693E+05 -1.689295E+05 -1.094933E+05 -9.823639E+04  9.786816E-10 -4.586833E-10
        91  17 -4.258092E+05 -1.884291E+05 -1.405690E+05 -9.290732E+04 -7.490730E-10  2.300846E-10
        91  18 -5.005469E+05 -2.147115E+05 -2.005936E+05 -9.752822E+04  7.183121E-10 -8.144832E-10
        91  19  1.111798E+06  1.688791E+05  1.102098E+05 -9.786899E+04  1.400443E+03  4.723793E+04
        91  20  1.179262E+06  1.889365E+05  1.418765E+05 -9.324882E+04  4.396906E+04  3.798610E+04
        91  21  1.254280E+06  2.168612E+05  2.032016E+05 -9.857840E+04  8.655941E+04  1.116421E+04
        91  22  3.765435E+05 -1.127969E+01  3.655403E+02 -9.805282E+04  2.406706E+02  4.724297E+04
        91  23  3.764108E+05  2.718430E+02  6.650090E+02 -9.307859E+04  5.702526E+02  3.797022E+04
        91  24  3.765067E+05  1.100800E+03  1.322577E+03 -9.805329E+04  9.152499E+02  1.111700E+04
        91  25 -3.581687E+05 -1.689271E+05 -1.094891E+05 -9.823643E+04 -9.177859E+02  4.724801E+04
        91  26 -4.258069E+05 -1.884270E+05 -1.405629E+05 -9.290863E+04 -4.277418E+04  3.795431E+04
        91  27 -5.005392E+05 -2.147094E+05 -2.005799E+05 -9.752898E+04 -8.460898E+04  1.106962E+04
        92   1  1.889674E+05  9.237075E+05  1.811168E+05 -3.009676E+05  6.711668E+03  4.516878E+04
        92   2  1.257726E+05  6.865972E+05  1.047194E+05 -2.808443E+05  1.910619E+04  7.304495E+03
        92   3  6.956644E+04  4.561919E+05  5.468892E+04 -3.001462E+05  1.471936E+04 -3.055000E+04
        92   4  1.060579E+03  1.638361E+05  9.710633E+02 -2.998920E+05  6.751606E+03 -6.992696E+02
        92   5  6.237185E+02  1.637639E+05  1.551080E+03 -2.801784E+05  1.911551E+04 -1.464156E+03
        92   6  7.469394E+02  1.639169E+05  2.760288E+03 -2.998922E+05  1.469158E+04 -2.233153E+03
        92   7 -1.868866E+05 -5.955010E+05 -1.792069E+05 -2.988175E+05  6.791420E+03 -4.651153E+04
        92   8 -1.245417E+05 -3.588079E+05 -1.016303E+05 -2.795129E+05  1.912482E+04 -1.022558E+04
        92   9 -6.807684E+04 -1.282731E+05 -4.916853E+04 -2.996383E+05  1.466380E+04  2.607075E+04
        92  10  1.889668E+05  9.237053E+05  1.811129E+05 -3.009678E+05 -4.298163E-09  2.109363E-08
        92  11  1.257722E+05  6.865971E+05  1.047186E+05 -2.808444E+05 -3.879282E-10 -4.102462E-09
        92  12  6.956596E+04  4.561909E+05  5.468676E+04 -3.001458E+05  5.907042E-09 -3.091330E-08
        92  13  1.060530E+03  1.638361E+05  9.709768E+02 -2.998920E+05 -3.012804E-09 -4.031829E-10
        92  14  6.233255E+02  1.637638E+05  1.550390E+03 -2.801783E+05 -9.835920E-09 -4.822268E-10
        92  15  7.467063E+02  1.639168E+05  2.759873E+03 -2.998922E+05 -1.057941E-08 -2.365088E-10
        92  16 -1.868872E+05 -5.955033E+05 -1.792111E+05 -2.988172E+05  4.103881E-11 -2.128664E-08
        92  17 -1.245421E+05 -3.588081E+05 -1.016312E+05 -2.795127E+05  2.642584E-09  4.534021E-09
        92  18 -6.807725E+04 -1.282739E+05 -4.917021E+04 -2.996386E+05  3.139936E-09  3.139670E-08
        92  19  1.889674E+05  9.237075E+05  1.811168E+05 -3.009676E+05 -6.711668E+03 -4.516878E+04
        92  20  1.257726E+05  6.865972E+05  1.047194E+05 -2.808443E+05 -1.910619E+04 -7.304495E+03
        92  21  6.956644E+04  4.561919E+05  5.468892E+04 -3.001462E+05 -1.471936E+04  3.055000E+04
        92  22  1.060579E+03  1.638361E+05  9.710633E+02 -2.998920E+05 -6.751606E+03  6.992696E+02
        92  23  6.237185E+02  1.637639E+05  1.551080E+03 -2.801784E+05 -1.911551E+04  1.464156E+03
        92  24  7.469394E+02  1.639169E+05  2.760288E+03 -2.998922E+05 -1.469158E+04  2.233153E+03
        92  25 -1.868866E+05 -5.955010E+05 -1.792069E+05 -2.988175E+05 -6.791420E+03  4.651153E+04
        92  26 -1.245417E+05 -3.588079E+05 -1.016303E+05 -2.795129E+05 -1.912482E+04  1.022558E+04
        92  27 -6.807684E+04 -1.282731E+05 -4.916853E+04 -2.996383E+05 -1.466380E+04 -2.607075E+04
        93   1  3.532517E+04  3.095503E+05  3.075020E+04 -3.004926E+05  6.476377E+03 -3.151173E+04
        93   2 -1.852608E+04  7.557634E+04 -6.403066E+03 -2.788036E+05 -6.304596E+03 -3.377268E+04
        93   3 -7.036286E+04 -1.575835E+05 -4.159517E+04 -2.975987E+05 -1.863588E+04 -3.603199E+04
        93   4  8.209721E+02  1.640856E+05  3.655921E+03 -3.001270E+05  6.447162E+03 -2.782964E+03
        93   5  1.660165E+03  1.636125E+05  6.490476E+03 -2.798837E+05 -6.331968E+03 -6.042651E+03
        93   6  4.688671E+03  1.640712E+05  1.197673E+04 -3.001236E+05 -1.866150E+04 -9.301499E+03
        93   7 -3.368400E+04  1.864318E+04 -2.343616E+04 -2.997615E+05  6.417977E+03  2.593925E+04
        93   8  2.184647E+04  2.516582E+05  1.938678E+04 -2.809640E+05 -6.359433E+03  2.169114E+04
        93   9  7.973522E+04  4.858296E+05  6.554816E+04 -3.026499E+05 -1.868731E+04  1.744239E+04
        93  10  3.532486E+04  3.095492E+05  3.074826E+04 -3.004924E+05  1.342786E-08  7.253994E-08
        93  11 -1.852643E+04  7.557510E+04 -6.405284E+03 -2.788037E+05  9.947198E-09  7.216922E-10
        93  12 -7.036358E+04 -1.575849E+05 -4.159827E+04 -2.975993E+05  6.447147E-09 -7.190941E-08
        93  13  8.209254E+02  1.640856E+05  3.655828E+03 -3.001270E+05 -1.244394E-08 -5.904219E-10
        93  14  1.660112E+03  1.636125E+05  6.490332E+03 -2.798837E+05 -1.377761E-08 -5.588988E-10
        93  15  4.688273E+03  1.640710E+05  1.197591E+04 -3.001238E+05 -1.070470E-08 -2.169703E-10
        93  16 -3.368423E+04  1.864244E+04 -2.343750E+04 -2.997616E+05  3.872244E-09 -7.281385E-08
        93  17  2.184630E+04  2.516576E+05  1.938582E+04 -2.809639E+05  9.332974E-09 -3.719351E-10
        93  18  7.973477E+04  4.858292E+05  6.554693E+04 -3.026496E+05  1.098836E-08  7.242789E-08
        93  19  3.532517E+04  3.095503E+05  3.075020E+04 -3.004926E+05 -6.476377E+03  3.151173E+04
        93  20 -1.852608E+04  7.557634E+04 -6.403066E+03 -2.788036E+05  6.304596E+03  3.377268E+04
        93  21 -7.036286E+04 -1.575835E+05 -4.159517E+04 -2.975987E+05  1.863588E+04  3.603199E+04
        93  22  8.209721E+02  1.640856E+05  3.655921E+03 -3.001270E+05 -6.447162E+03  2.782964E+03
        93  23  1.660165E+03  1.636125E+05  6.490476E+03 -2.798837E+05  6.331968E+03  6.042651E+03
        93  24  4.688671E+03  1.640712E+05  1.197673E+04 -3.001236E+05  1.866150E+04  9.301499E+03
        93  25 -3.368400E+04  1.864318E+04 -2.343616E+04 -2.997615E+05 -6.417977E+03 -2.593925E+04
        93  26  2.184647E+04  2.516582E+05  1.938678E+04 -2.809640E+05  6.359433E+03 -2.169114E+04
        93  27  7.973522E+04  4.858296E+05  6.554816E+04 -3.026499E+05  1.868731E+04 -1.744239E+04
        94   1 -1.035642E+05 -3.029446E+05 -6.306972E+04 -2.987944E+05 -2.645985E+04 -3.757881E+04
        94   2 -1.481464E+05 -5.367045E+05 -1.046797E+05 -2.610279E+05 -2.813016E+04 -7.463738E+03
        94   3 -1.760080E+05 -7.701410E+05 -1.617255E+05 -2.624024E+05 -9.334986E+03  2.264291E+04
        94   4  5.978075E+03  1.656434E+05  1.599743E+04 -2.998246E+05 -2.648323E+04 -1.138630E+04
        94   5  1.840124E+04  1.615367E+05  2.947911E+04 -2.802409E+05 -2.811118E+04 -2.643421E+04
        94   6  5.537546E+04  1.655314E+05  5.888780E+04 -2.997887E+05 -9.286035E+03 -4.147892E+04
        94   7  1.155092E+05  6.344492E+05  9.506016E+04 -3.008556E+05 -2.650668E+04  1.482535E+04
        94   8  1.849216E+05  8.602488E+05  1.636170E+05 -2.994757E+05 -2.809103E+04 -4.542552E+04
        94   9  2.867037E+05  1.102022E+06  2.794570E+05 -3.372315E+05 -9.229411E+03 -1.056969E+05
        94  10 -1.035654E+05 -3.029463E+05 -6.307370E+04 -2.987952E+05  9.209857E-09  4.019544E-08
        94  11 -1.481473E+05 -5.367047E+05 -1.046813E+05 -2.610281E+05  6.418031E-09  5.607826E-09
        94  12 -1.760082E+05 -7.701416E+05 -1.617267E+05 -2.624022E+05  2.606660E-09 -2.931963E-08
        94  13  5.977287E+03  1.656430E+05  1.599587E+04 -2.998249E+05 -1.020902E-08 -5.323315E-10
        94  14  1.840020E+04  1.615357E+05  2.947631E+04 -2.802415E+05 -2.458403E-10 -4.056319E-10
        94  15  5.537490E+04  1.655296E+05  5.888440E+04 -2.997891E+05  1.334234E-09 -1.143445E-10
        94  16  1.155084E+05  6.344488E+05  9.505843E+04 -3.008552E+05  6.626272E-09 -4.038292E-08
        94  17  1.849202E+05  8.602463E+05  1.636117E+05 -2.994767E+05  3.547234E-09 -5.081094E-09
        94  18  2.867006E+05  1.102010E+06  2.794358E+05 -3.372323E+05  1.051442E-09  2.973817E-08
        94  19 -1.035642E+05 -3.029446E+05 -6.306972E+04 -2.987944E+05  2.645985E+04  3.757881E+04
        94  20 -1.481464E+05 -5.367045E+05 -1.046797E+05 -2.610279E+05  2.813016E+04  7.463738E+03
        94  21 -1.760080E+05 -7.701410E+05 -1.617255E+05 -2.624024E+05  9.334986E+03 -2.264291E+04
        94  22  5.978075E+03  1.656434E+05  1.599743E+04 -2.998246E+05  2.648323E+04  1.138630E+04
        94  23  1.840124E+04  1.615367E+05  2.947911E+04 -2.802409E+05  2.811118E+04  2.643421E+04
        94  24  5.537546E+04  1.655314E+05  5.888780E+04 -2.997887E+05  9.286035E+03  4.147892E+04
        94  25  1.155092E+05  6.344492E+05  9.506016E+04 -3.008556E+05  2.650668E+04 -1.482535E+04
        94  26  1.849216E+05  8.602488E+05  1.636170E+05 -2.994757E+05  2.809103E+04  4.542552E+04
        94  27  2.867037E+05  1.102022E+06  2.794570E+05 -3.372315E+05  9.229411E+03  1.056969E+05
        95   1 -3.789331E+05 -2.137282E+05 -1.364520E+05 -1.583199E+05 -6.561457E+04 -2.089403E+04
        95   2 -3.551356E+05 -1.312701E+05 -7.897634E+04 -1.478294E+05 -4.112044E+04 -3.484323E+03
        95   3 -3.471324E+05 -1.004671E+05 -5.438955E+04 -1.320135E+05 -1.428128E+04  7.684448E+03
        95   4 -1.809149E+05 -1.034638E+05 -7.797054E+04 -6.719632E+04 -5.147781E+04 -1.559286E+04
        95   5 -1.695771E+05 -4.805374E+04 -3.543876E+04 -8.127667E+04 -3.553157E+04 -1.388411E+03
        95   6 -1.723345E+05 -4.259870E+04 -1.901606E+04 -9.003434E+04 -1.724152E+04  6.573508E+03
        95   7  1.714279E+04  6.818264E+03 -1.949252E+04  2.395708E+04 -3.733634E+04 -1.028785E+04
        95   8  1.601624E+04  3.517005E+04  8.096449E+03 -1.470424E+04 -2.994092E+04  7.085066E+02
        95   9  2.495624E+03  1.527122E+04  1.635619E+04 -4.804465E+04 -2.020267E+04  5.462300E+03
        95  10 -3.789379E+05 -2.137298E+05 -1.364609E+05 -1.583210E+05  1.849788E-09 -3.574075E-12
        95  11 -3.551374E+05 -1.312706E+05 -7.897954E+04 -1.478296E+05 -1.995938E-09  1.177058E-09
        95  12 -3.471326E+05 -1.004672E+05 -5.439004E+04 -1.320134E+05 -6.156706E-09  1.330247E-09
        95  13 -1.809178E+05 -1.034648E+05 -7.797598E+04 -6.719697E+04 -1.389030E-10  9.034094E-10
        95  14 -1.695785E+05 -4.805409E+04 -3.544113E+04 -8.127671E+04  5.017964E-09  2.039752E-09
        95  15 -1.723348E+05 -4.259883E+04 -1.901670E+04 -9.003424E+04  2.694092E-09  1.952227E-09
        95  16  1.714126E+04  6.817776E+03 -1.949533E+04  2.395677E+04  4.169436E-09  1.126178E-09
        95  17  1.601528E+04  3.516981E+04  8.094764E+03 -1.470422E+04 -1.645868E-10  2.302772E-09
        95  18  2.495178E+03  1.527108E+04  1.635537E+04 -4.804457E+04  3.625765E-09  3.142269E-09
        95  19 -3.789331E+05 -2.137282E+05 -1.364520E+05 -1.583199E+05  6.561457E+04  2.089403E+04
        95  20 -3.551356E+05 -1.312701E+05 -7.897634E+04 -1.478294E+05  4.112044E+04  3.484323E+03
        95  21 -3.471324E+05 -1.004671E+05 -5.438955E+04 -1.320135E+05  1.428128E+04 -7.684448E+03
        95  22 -1.809149E+05 -1.034638E+05 -7.797054E+04 -6.719632E+04  5.147781E+04  1.559286E+04
        95  23 -1.695771E+05 -4.805374E+04 -3.543876E+04 -8.127667E+04  3.553157E+04  1.388411E+03
        95  24 -1.723345E+05 -4.259870E+04 -1.901606E+04 -9.003434E+04  1.724152E+04 -6.573508E+03
        95  25  1.714279E+04  6.818264E+03 -1.949252E+04  2.395708E+04  3.733634E+04  1.028785E+04
        95  26  1.601624E+04  3.517005E+04  8.096449E+03 -1.470424E+04  2.994092E+04 -7.085066E+02
        95  27  2.495624E+03  1.527122E+04  1.635619E+04 -4.804465E+04  2.020267E+04 -5.462300E+03
        96   1 -3.210439E+05 -1.012052E+05 -4.604895E+04 -1.306658E+05 -1.290070E+04  6.799526E+03
        96   2 -2.965949E+05 -8.597534E+04 -3.321794E+04 -1.202676E+05 -7.944636E+03  7.039682E+03
        96   3 -2.680830E+05 -7.824383E+04 -2.422899E+04 -1.157149E+05 -2.837604E+03  6.877420E+03
        96   4 -1.699573E+05 -4.508973E+04 -1.456832E+04 -8.803085E+04 -1.457166E+04  6.172319E+03
        96   5 -1.718749E+05 -4.020731E+04 -7.695454E+03 -8.555311E+04 -1.016611E+04  6.206089E+03
        96   6 -1.696206E+05 -4.271381E+04 -4.227656E+03 -8.892115E+04 -5.609775E+03  5.837405E+03
        96   7 -1.884860E+04  1.102731E+04  1.691077E+04 -4.538659E+04 -1.624304E+04  5.544948E+03
        96   8 -4.713887E+04  5.562078E+03  1.782626E+04 -5.083218E+04 -1.238806E+04  5.372315E+03
        96   9 -7.114756E+04 -7.182730E+03  1.577344E+04 -6.212334E+04 -8.382440E+03  4.797210E+03
        96  10 -3.210441E+05 -1.012052E+05 -4.604935E+04 -1.306657E+05 -6.060599E-09  1.508151E-11
        96  11 -2.965949E+05 -8.597541E+04 -3.321815E+04 -1.202675E+05 -9.900697E-09 -4.192589E-09
        96  12 -2.680830E+05 -7.824388E+04 -2.422909E+04 -1.157148E+05 -1.425788E-08 -6.730446E-09
        96  13 -1.699576E+05 -4.508983E+04 -1.456879E+04 -8.803078E+04  5.872844E-09  1.409101E-09
        96  14 -1.718750E+05 -4.020738E+04 -7.695721E+03 -8.555306E+04  1.205290E-08 -2.112315E-09
        96  15 -1.696207E+05 -4.271385E+04 -4.227779E+03 -8.892112E+04  5.736197E-09 -5.594516E-09
        96  16 -1.884890E+04  1.102720E+04  1.691021E+04 -4.538652E+04  7.244524E-09  4.502639E-09
        96  17 -4.713905E+04  5.562006E+03  1.782591E+04 -5.083212E+04  2.722730E-08  1.077109E-08
        96  18 -7.114765E+04 -7.182774E+03  1.577326E+04 -6.212330E+04  3.507627E-08  1.299153E-08
        96  19 -3.210439E+05 -1.012052E+05 -4.604895E+04 -1.306658E+05  1.290070E+04 -6.799526E+03
        96  20 -2.965949E+05 -8.597534E+04 -3.321794E+04 -1.202676E+05  7.944636E+03 -7.039682E+03
        96  21 -2.680830E+05 -7.824383E+04 -2.422899E+04 -1.157149E+05  2.837604E+03 -6.877420E+03
        96  22 -1.699573E+05 -4.508973E+04 -1.456832E+04 -8.803085E+04  1.457166E+04 -6.172319E+03
        96  23 -1.718749E+05 -4.020731E+04 -7.695454E+03 -8.555311E+04  1.016611E+04 -6.206089E+03
        96  24 -1.696206E+05 -4.271381E+04 -4.227656E+03 -8.892115E+04  5.609775E+03 -5.837405E+03
        96  25 -1.884860E+04  1.102731E+04  1.691077E+04 -4.538659E+04  1.624304E+04 -5.544948E+03
        96  26 -4.713887E+04  5.562078E+03  1.782626E+04 -5.083218E+04  1.238806E+04 -5.372315E+03
        96  27 -7.114756E+04 -7.182730E+03  1.577344E+04 -6.212334E+04  8.382440E+03 -4.797210E+03
        97   1 -2.492635E+05 -7.183147E+04 -1.929991E+04 -1.107856E+05 -1.884781E+03  5.893707E+03
        97   2 -2.250923E+05 -5.930178E+04 -1.248583E+04 -1.002915E+05 -2.348823E+02  4.258945E+03
        97   3 -1.956551E+05 -5.229496E+04 -6.371361E+03 -9.602004E+04  1.424699E+03  2.598069E+03
        97   4 -1.694480E+05 -4.281589E+04 -3.183365E+03 -8.881002E+04 -4.574347E+03  4.884753E+03
        97   5 -1.720804E+05 -4.003401E+04 -1.750821E+03 -8.570742E+04 -2.960137E+03  3.236682E+03
        97   6 -1.694402E+05 -4.276785E+04 -9.894916E+02 -8.882756E+04 -1.336291E+03  1.562488E+03
        97   7 -8.962600E+04 -1.379978E+04  1.293289E+04 -6.683183E+04 -7.264284E+03  3.875662E+03
        97   8 -1.190657E+05 -2.076608E+04  8.984022E+03 -7.112221E+04 -5.685631E+03  2.214331E+03
        97   9 -1.432248E+05 -3.324075E+04  4.392316E+03 -8.163486E+04 -4.097385E+03  5.268683E+02
        97  10 -2.492635E+05 -7.183150E+04 -1.929998E+04 -1.107856E+05  3.050735E-08  1.155090E-08
        97  11 -2.250923E+05 -5.930180E+04 -1.248587E+04 -1.002915E+05  2.265172E-08  8.371457E-09
        97  12 -1.956551E+05 -5.229497E+04 -6.371378E+03 -9.602005E+04  1.118810E-08  2.137268E-09
        97  13 -1.694481E+05 -4.281592E+04 -3.183449E+03 -8.881000E+04  8.533966E-09 -5.915331E-09
        97  14 -1.720804E+05 -4.003402E+04 -1.750857E+03 -8.570741E+04  1.233117E-08 -2.853416E-09
        97  15 -1.694402E+05 -4.276785E+04 -9.894995E+02 -8.882756E+04  4.291119E-09 -4.176723E-10
        97  16 -8.962606E+04 -1.379981E+04  1.293276E+04 -6.683180E+04 -1.438280E-08 -6.025510E-09
        97  17 -1.190657E+05 -2.076609E+04  8.983952E+03 -7.112220E+04 -8.297863E-09 -4.392923E-09
        97  18 -1.432249E+05 -3.324075E+04  4.392284E+03 -8.163486E+04 -3.517067E-09 -8.273933E-10
        97  19 -2.492635E+05 -7.183147E+04 -1.929991E+04 -1.107856E+05  1.884781E+03 -5.893707E+03
        97  20 -2.250923E+05 -5.930178E+04 -1.248583E+04 -1.002915E+05  2.348823E+02 -4.258945E+03
        97  21 -1.956551E+05 -5.229496E+04 -6.371361E+03 -9.602004E+04 -1.424699E+03 -2.598069E+03
        97  22 -1.694480E+05 -4.281589E+04 -3.183365E+03 -8.881002E+04  4.574347E+03 -4.884753E+03
        97  23 -1.720804E+05 -4.003401E+04 -1.750821E+03 -8.570742E+04  2.960137E+03 -3.236682E+03
        97  24 -1.694402E+05 -4.276785E+04 -9.894916E+02 -8.882756E+04  1.336291E+03 -1.562488E+03
        97  25 -8.962600E+04 -1.379978E+04  1.293289E+04 -6.683183E+04  7.264284E+03 -3.875662E+03
        97  26 -1.190657E+05 -2.076608E+04  8.984022E+03 -7.112221E+04  5.685631E+03 -2.214331E+03
        97  27 -1.432248E+05 -3.324075E+04  4.392316E+03 -8.163486E+04  4.097385E+03 -5.268683E+02
        98   1 -1.772148E+05 -4.556419E+04 -2.258317E+03 -9.093946E+04  2.004779E+03  1.478205E+03
        98   2 -1.531169E+05 -3.310203E+04  3.369575E+03 -8.042161E+04  2.999649E+03 -4.432194E+02
        98   3 -1.236326E+05 -2.606626E+04  8.817895E+03 -7.611903E+04  3.995083E+03 -2.366035E+03
        98   4 -1.694183E+05 -4.277103E+04 -7.621761E+02 -8.881734E+04 -7.509974E+02  4.445942E+02
        98   5 -1.721118E+05 -4.006224E+04 -4.787885E+02 -8.570787E+04  2.418737E+02 -1.477616E+03
        98   6 -1.694198E+05 -4.277978E+04 -3.735756E+02 -8.881416E+04  1.235295E+03 -3.401216E+03
        98   7 -1.616216E+05 -3.997783E+04  7.340128E+02 -8.669518E+04 -3.506833E+03 -5.890384E+02
        98   8 -1.911063E+05 -4.702244E+04 -4.327160E+03 -9.099399E+04 -2.515822E+03 -2.511982E+03
        98   9 -2.152048E+05 -5.949312E+04 -9.565119E+03 -1.015084E+05 -1.524275E+03 -4.436315E+03
        98  10 -1.772148E+05 -4.556420E+04 -2.258329E+03 -9.093946E+04  3.057916E-09  5.738636E-10
        98  11 -1.531169E+05 -3.310203E+04  3.369558E+03 -8.042161E+04  6.040259E-09  3.147324E-09
        98  12 -1.236326E+05 -2.606627E+04  8.817854E+03 -7.611902E+04  1.952660E-09  3.492585E-09
        98  13 -1.694183E+05 -4.277103E+04 -7.621776E+02 -8.881734E+04  3.968173E-09  9.751296E-10
        98  14 -1.721118E+05 -4.006224E+04 -4.787927E+02 -8.570787E+04 -4.137333E-09  2.915141E-09
        98  15 -1.694198E+05 -4.277979E+04 -3.736002E+02 -8.881416E+04  1.966630E-09  3.836248E-09
        98  16 -1.616216E+05 -3.997783E+04  7.339890E+02 -8.669518E+04 -3.610750E-09  1.277261E-09
        98  17 -1.911063E+05 -4.702245E+04 -4.327184E+03 -9.099400E+04 -6.354807E-09  2.702281E-09
        98  18 -2.152048E+05 -5.949314E+04 -9.565161E+03 -1.015084E+05 -2.821971E-09  3.889450E-09
        98  19 -1.772148E+05 -4.556419E+04 -2.258317E+03 -9.093946E+04 -2.004779E+03 -1.478205E+03
        98  20 -1.531169E+05 -3.310203E+04  3.369575E+03 -8.042161E+04 -2.999649E+03  4.432194E+02
        98  21 -1.236326E+05 -2.606626E+04  8.817895E+03 -7.611903E+04 -3.995083E+03  2.366035E+03
        98  22 -1.694183E+05 -4.277103E+04 -7.621761E+02 -8.881734E+04  7.509974E+02 -4.445942E+02
        98  23 -1.721118E+05 -4.006224E+04 -4.787885E+02 -8.570787E+04 -2.418737E+02  1.477616E+03
        98  24 -1.694198E+05 -4.277978E+04 -3.735756E+02 -8.881416E+04 -1.235295E+03  3.401216E+03
        98  25 -1.616216E+05 -3.997783E+04  7.340128E+02 -8.669518E+04  3.506833E+03  5.890384E+02
        98  26 -1.911063E+05 -4.702244E+04 -4.327160E+03 -9.099399E+04  2.515822E+03  2.511982E+03
        98  27 -2.152048E+05 -5.949312E+04 -9.565119E+03 -1.015084E+05  1.524275E+03  4.436315E+03
        99   1 -1.052297E+05 -1.932208E+04  1.270434E+04 -7.103524E+04  4.496987E+03 -3.514757E+03
        99   2 -8.113999E+04 -6.856172E+03  1.794760E+04 -6.052039E+04  5.482183E+03 -5.440513E+03
        99   3 -5.166343E+04  1.856556E+02  2.301898E+04 -5.621836E+04  6.466520E+03 -7.363489E+03
        99   4 -1.694205E+05 -4.277996E+04 -3.719772E+02 -8.881365E+04  1.737256E+03 -4.549961E+03
        99   5 -1.721137E+05 -4.006617E+04 -4.700498E+02 -8.570791E+04  2.726123E+03 -6.474471E+03
        99   6 -1.694214E+05 -4.277721E+04 -7.428786E+02 -8.881525E+04  3.714123E+03 -8.396209E+03
        99   7 -2.336065E+05 -6.623729E+04 -1.344833E+04 -1.065902E+05 -1.022145E+03 -5.585042E+03
        99   8 -2.630788E+05 -7.327546E+04 -1.888808E+04 -1.108920E+05 -2.950338E+01 -7.508266E+03
        99   9 -2.871660E+05 -8.573924E+04 -2.450565E+04 -1.214067E+05  9.622662E+02 -9.428728E+03
        99  10 -1.052297E+05 -1.932210E+04  1.270428E+04 -7.103522E+04  5.153280E-09  3.605256E-09
        99  11 -8.114003E+04 -6.856212E+03  1.794749E+04 -6.052036E+04  3.455621E-09  1.643054E-09
        99  12 -5.166349E+04  1.855862E+02  2.301880E+04 -5.621832E+04  1.758991E-09 -4.473699E-10
        99  13 -1.694205E+05 -4.277998E+04 -3.720218E+02 -8.881364E+04 -1.010190E-09  3.025106E-09
        99  14 -1.721137E+05 -4.006622E+04 -4.701425E+02 -8.570790E+04  2.958883E-09  7.787038E-10
        99  15 -1.694214E+05 -4.277729E+04 -7.430369E+02 -8.881522E+04  2.939358E-09 -8.292406E-10
        99  16 -2.336065E+05 -6.623733E+04 -1.344839E+04 -1.065902E+05 -3.881039E-09  2.386120E-09
        99  17 -2.630788E+05 -7.327552E+04 -1.888818E+04 -1.108920E+05 -1.915794E-09  2.296404E-10
        99  18 -2.871660E+05 -8.573933E+04 -2.450582E+04 -1.214067E+05  7.179548E-11 -7.309761E-10
        99  19 -1.052297E+05 -1.932208E+04  1.270434E+04 -7.103524E+04 -4.496987E+03  3.514757E+03
        99  20 -8.113999E+04 -6.856172E+03  1.794760E+04 -6.052039E+04 -5.482183E+03  5.440513E+03
        99  21 -5.166343E+04  1.856556E+02  2.301898E+04 -5.621836E+04 -6.466520E+03  7.363489E+03
        99  22 -1.694205E+05 -4.277996E+04 -3.719772E+02 -8.881365E+04 -1.737256E+03  4.549961E+03
        99  23 -1.721137E+05 -4.006617E+04 -4.700498E+02 -8.570791E+04 -2.726123E+03  6.474471E+03
        99  24 -1.694214E+05 -4.277721E+04 -7.428786E+02 -8.881525E+04 -3.714123E+03  8.396209E+03
        99  25 -2.336065E+05 -6.623729E+04 -1.344833E+04 -1.065902E+05  1.022145E+03  5.585042E+03
        99  26 -2.630788E+05 -7.327546E+04 -1.888808E+04 -1.108920E+05  2.950338E+01  7.508266E+03
        99  27 -2.871660E+05 -8.573924E+04 -2.450565E+04 -1.214067E+05 -9.622662E+02  9.428728E+03
       100   1 -3.327979E+04  6.920409E+03  2.668195E+04 -5.115648E+04  7.055179E+03 -8.479252E+03
       100   2 -9.151854E+03  1.938658E+04  3.129683E+04 -4.064786E+04  8.598865E+03 -1.017461E+04
       100   3  2.026113E+04  2.635463E+04  3.530187E+04 -3.635334E+04  1.012834E+04 -1.183115E+04
       100   4 -1.694443E+05 -4.277445E+04 -9.627970E+02 -8.882412E+04  4.295528E+03 -9.514809E+03
       100   5 -1.720867E+05 -4.004618E+04 -1.701129E+03 -8.570782E+04  5.892069E+03 -1.119057E+04
       100   6 -1.694552E+05 -4.282670E+04 -3.091244E+03 -8.880607E+04  7.474355E+03 -1.282752E+04
       100   7 -3.055897E+05 -9.246772E+04 -2.860843E+04 -1.264841E+05  1.536529E+03 -1.055012E+04
       100   8 -3.349936E+05 -9.947643E+04 -3.470019E+04 -1.307567E+05  3.186047E+03 -1.220624E+04
       100   9 -3.591329E+05 -1.120044E+05 -4.148569E+04 -1.412436E+05  4.821262E+03 -1.382356E+04
       100  10 -3.327987E+04  6.920318E+03  2.668172E+04 -5.115643E+04 -1.793347E-09 -2.011233E-09
       100  11 -9.151961E+03  1.938645E+04  3.129649E+04 -4.064778E+04 -5.044411E-09  6.976959E-10
       100  12  2.026098E+04  2.635445E+04  3.530141E+04 -3.635325E+04 -1.107388E-08  3.356473E-09
       100  13 -1.694444E+05 -4.277455E+04 -9.630018E+02 -8.882409E+04  4.327152E-09 -2.085420E-10
       100  14 -1.720868E+05 -4.004632E+04 -1.701429E+03 -8.570777E+04  7.890354E-09  2.260320E-09
       100  15 -1.694553E+05 -4.282689E+04 -3.091659E+03 -8.880599E+04 -4.477993E-09  4.290303E-09
       100  16 -3.055897E+05 -9.246784E+04 -2.860864E+04 -1.264841E+05  1.975288E-09  1.454890E-09
       100  17 -3.349937E+05 -9.947659E+04 -3.470049E+04 -1.307567E+05  1.065665E-09  3.450628E-09
       100  18 -3.591329E+05 -1.120046E+05 -4.148609E+04 -1.412435E+05  4.898611E-09  5.133422E-09
       100  19 -3.327979E+04  6.920409E+03  2.668195E+04 -5.115648E+04 -7.055179E+03  8.479252E+03
       100  20 -9.151854E+03  1.938658E+04  3.129683E+04 -4.064786E+04 -8.598865E+03  1.017461E+04
       100  21  2.026113E+04  2.635463E+04  3.530187E+04 -3.635334E+04 -1.012834E+04  1.183115E+04
       100  22 -1.694443E+05 -4.277445E+04 -9.627970E+02 -8.882412E+04 -4.295528E+03  9.514809E+03
       100  23 -1.720867E+05 -4.004618E+04 -1.701129E+03 -8.570782E+04 -5.892069E+03  1.119057E+04
       100  24 -1.694552E+05 -4.282670E+04 -3.091244E+03 -8.880607E+04 -7.474355E+03  1.282752E+04
       100  25 -3.055897E+05 -9.246772E+04 -2.860843E+04 -1.264841E+05 -1.536529E+03  1.055012E+04
       100  26 -3.349936E+05 -9.947643E+04 -3.470019E+04 -1.307567E+05 -3.186047E+03  1.220624E+04
       100  27 -3.591329E+05 -1.120044E+05 -4.148569E+04 -1.412436E+05 -4.821262E+03  1.382356E+04
       101   1  3.871742E+04  3.297572E+04  3.816871E+04 -3.162816E+04  1.126833E+04 -1.274464E+04
       101   2  6.266370E+04  4.570148E+04  4.039954E+04 -2.038589E+04  1.486662E+04 -1.336554E+04
       101   3  9.096792E+04  5.127750E+04  3.996950E+04 -1.497365E+04  1.824317E+04 -1.339411E+04
       101   4 -1.696247E+05 -4.272536E+04 -4.104297E+03 -8.890950E+04  8.493016E+03 -1.378671E+04
       101   5 -1.718880E+05 -4.022525E+04 -7.471062E+03 -8.556149E+04  1.290170E+04 -1.410377E+04
       101   6 -1.699555E+05 -4.503652E+04 -1.414180E+04 -8.804430E+04  1.708847E+04 -1.382843E+04
       101   7 -3.779239E+05 -1.184235E+05 -4.637992E+04 -1.461736E+05  5.718683E+03 -1.482842E+04
       101   8 -4.063842E+05 -1.261476E+05 -5.534472E+04 -1.507146E+05  1.093757E+04 -1.484170E+04
       101   9 -4.308092E+05 -1.413446E+05 -6.825673E+04 -1.610866E+05  1.593428E+04 -1.426255E+04
       101  10  3.871724E+04  3.297551E+04  3.816817E+04 -3.162804E+04 -4.299750E-09  4.178928E-09
       101  11  6.266341E+04  4.570123E+04  4.039878E+04 -2.038573E+04 -1.909798E-08 -7.932165E-09
       101  12  9.096752E+04  5.127722E+04  3.996853E+04 -1.497346E+04 -4.329952E-08 -1.732040E-08
       101  13 -1.696248E+05 -4.272558E+04 -4.104789E+03 -8.890940E+04 -3.506334E-09  2.774199E-09
       101  14 -1.718882E+05 -4.022551E+04 -7.471749E+03 -8.556135E+04  9.823625E-09 -6.466485E-09
       101  15 -1.699558E+05 -4.503681E+04 -1.414271E+04 -8.804411E+04 -4.938728E-10 -1.743392E-08
       101  16 -3.779240E+05 -1.184238E+05 -4.638040E+04 -1.461735E+05  2.907927E-09  5.905023E-09
       101  17 -4.063844E+05 -1.261479E+05 -5.534536E+04 -1.507145E+05  3.156208E-08  1.533219E-08
       101  18 -4.308095E+05 -1.413449E+05 -6.825759E+04 -1.610864E+05  4.188350E-08  1.676673E-08
       101  19  3.871742E+04  3.297572E+04  3.816871E+04 -3.162816E+04 -1.126833E+04  1.274464E+04
       101  20  6.266370E+04  4.570148E+04  4.039954E+04 -2.038589E+04 -1.486662E+04  1.336554E+04
       101  21  9.096792E+04  5.127750E+04  3.996950E+04 -1.497365E+04 -1.824317E+04  1.339411E+04
       101  22 -1.696247E+05 -4.272536E+04 -4.104297E+03 -8.890950E+04 -8.493016E+03  1.378671E+04
       101  23 -1.718880E+05 -4.022525E+04 -7.471062E+03 -8.556149E+04 -1.290170E+04  1.410377E+04
       101  24 -1.699555E+05 -4.503652E+04 -1.414180E+04 -8.804430E+04 -1.708847E+04  1.382843E+04
       101  25 -3.779239E+05 -1.184235E+05 -4.637992E+04 -1.461736E+05 -5.718683E+03  1.482842E+04
       101  26 -4.063842E+05 -1.261476E+05 -5.534472E+04 -1.507146E+05 -1.093757E+04  1.484170E+04
       101  27 -4.308092E+05 -1.413446E+05 -6.825673E+04 -1.610866E+05 -1.593428E+04  1.426255E+04
       102   1  1.122863E+05  5.565728E+04  3.954302E+04 -1.733287E+04  2.275549E+04 -1.313215E+04
       102   2  1.257946E+05  7.538912E+04  3.308490E+04  1.504050E+04  2.739048E+04 -8.689173E+03
       102   3  1.281294E+05  4.914629E+04  1.125941E+04  5.258688E+04  2.857691E+04  4.934962E+03
       102   4 -1.722927E+05 -4.258997E+04 -1.845891E+04 -8.995423E+04  1.970345E+04 -1.427882E+04
       102   5 -1.696269E+05 -4.788273E+04 -3.440157E+04 -8.145317E+04  3.691899E+04 -5.112142E+03
       102   6 -1.806358E+05 -1.016571E+05 -7.568573E+04 -6.777829E+04  5.068459E+04  1.323715E+04
       102   7 -4.567885E+05 -1.408326E+05 -7.646479E+04 -1.625458E+05  1.665292E+04 -1.542499E+04
       102   8 -4.649554E+05 -1.711390E+05 -1.018923E+05 -1.779010E+05  4.644251E+04 -1.537551E+03
       102   9 -4.892967E+05 -2.524295E+05 -1.626354E+05 -1.880797E+05  7.277978E+04  2.153152E+04
       102  10  1.122857E+05  5.565696E+04  3.954172E+04 -1.733263E+04  3.893572E-08  1.517015E-08
       102  11  1.257938E+05  7.538884E+04  3.308335E+04  1.504069E+04  3.042600E-08  1.289566E-08
       102  12  1.281285E+05  4.914604E+04  1.125783E+04  5.258676E+04  5.029899E-09  2.959818E-09
       102  13 -1.722932E+05 -4.259029E+04 -1.846002E+04 -8.995401E+04  2.178812E-09 -1.860726E-08
       102  14 -1.696283E+05 -4.788312E+04 -3.440419E+04 -8.145302E+04 -8.121115E-10 -7.342641E-09
       102  15 -1.806386E+05 -1.016580E+05 -7.569089E+04 -6.777883E+04  3.748092E-10 -6.591952E-10
       102  16 -4.567888E+05 -1.408329E+05 -7.646576E+04 -1.625456E+05 -4.618738E-08 -1.538544E-08
       102  17 -4.649577E+05 -1.711396E+05 -1.018963E+05 -1.779010E+05 -2.510824E-08 -8.086206E-09
       102  18 -4.893025E+05 -2.524314E+05 -1.626462E+05 -1.880810E+05 -4.318118E-09 -3.762475E-10
       102  19  1.122863E+05  5.565728E+04  3.954302E+04 -1.733287E+04 -2.275549E+04  1.313215E+04
       102  20  1.257946E+05  7.538912E+04  3.308490E+04  1.504050E+04 -2.739048E+04  8.689173E+03
       102  21  1.281294E+05  4.914629E+04  1.125941E+04  5.258688E+04 -2.857691E+04 -4.934962E+03
       102  22 -1.722927E+05 -4.258997E+04 -1.845891E+04 -8.995423E+04 -1.970345E+04  1.427882E+04
       102  23 -1.696269E+05 -4.788273E+04 -3.440157E+04 -8.145317E+04 -3.691899E+04  5.112142E+03
       102  24 -1.806358E+05 -1.016571E+05 -7.568573E+04 -6.777829E+04 -5.068459E+04 -1.323715E+04
       102  25 -4.567885E+05 -1.408326E+05 -7.646479E+04 -1.625458E+05 -1.665292E+04  1.542499E+04
       102  26 -4.649554E+05 -1.711390E+05 -1.018923E+05 -1.779010E+05 -4.644251E+04  1.537551E+03
       102  27 -4.892967E+05 -2.524295E+05 -1.626354E+05 -1.880797E+05 -7.277978E+04 -2.153152E+04
       103   1  9.050029E+05  1.446036E+05  1.286643E+05  1.449163E+04  3.625132E+04 -1.097251E+04
       103   2  8.668056E+05  1.617079E+05  1.086370E+05  2.847851E+04  1.445196E+04 -3.787041E+04
       103   3  8.271240E+05  1.614024E+05  9.845789E+04  4.817783E+04 -7.356777E+03 -4.784651E+04
       103   4  1.105902E+05 -5.078869E+04 -5.468218E+04  4.768389E+04 -3.844275E+04 -1.103622E+04
       103   5  1.144473E+05 -1.581488E+04 -2.724622E+04  4.480350E+04 -2.446587E+04 -3.791188E+04
       103   6  1.106057E+05 -4.471646E+03 -1.479513E+04  4.763528E+04 -1.050006E+04 -4.785514E+04
       103   7 -6.832251E+05 -2.462181E+05 -2.380491E+05  8.083327E+04 -1.130421E+05 -1.110796E+04
       103   8 -6.373566E+05 -1.933675E+05 -1.631458E+05  6.110804E+04 -6.333789E+04 -3.795543E+04
       103   9 -6.054017E+05 -1.703712E+05 -1.280610E+05  4.709322E+04 -1.363985E+04 -4.786378E+04
       103  10  9.050014E+05  1.446032E+05  1.286616E+05  1.449195E+04  1.273453E-09 -7.964725E-10
       103  11  8.668050E+05  1.617063E+05  1.086340E+05  2.847895E+04  1.880344E-09 -2.676756E-09
       103  12  8.271233E+05  1.614000E+05  9.845349E+04  4.817755E+04 -7.020296E-09 -2.009872E-10
       103  13  1.105886E+05 -5.078922E+04 -5.468519E+04  4.768355E+04  2.198235E-09  5.718818E-10
       103  14  1.144463E+05 -1.581658E+04 -2.725004E+04  4.480276E+04  1.318993E-09 -2.653359E-10
       103  15  1.106050E+05 -4.474135E+03 -1.479964E+04  4.763487E+04 -1.856087E-09  2.884866E-09
       103  16 -6.832389E+05 -2.462216E+05 -2.380733E+05  8.083226E+04  7.834930E-10  6.870139E-10
       103  17 -6.373613E+05 -1.933701E+05 -1.631561E+05  6.110611E+04  7.131499E-10 -6.417897E-10
       103  18 -6.054025E+05 -1.703737E+05 -1.280656E+05  4.709270E+04  7.618947E-09  1.101462E-09
       103  19  9.050029E+05  1.446036E+05  1.286643E+05  1.449163E+04 -3.625132E+04  1.097251E+04
       103  20  8.668056E+05  1.617079E+05  1.086370E+05  2.847851E+04 -1.445196E+04  3.787041E+04
       103  21  8.271240E+05  1.614024E+05  9.845789E+04  4.817783E+04  7.356777E+03  4.784651E+04
       103  22  1.105902E+05 -5.078869E+04 -5.468218E+04  4.768389E+04  3.844275E+04  1.103622E+04
       103  23  1.144473E+05 -1.581488E+04 -2.724622E+04  4.480350E+04  2.446587E+04  3.791188E+04
       103  24  1.106057E+05 -4.471646E+03 -1.479513E+04  4.763528E+04  1.050006E+04  4.785514E+04
       103  25 -6.832251E+05 -2.462181E+05 -2.380491E+05  8.083327E+04  1.130421E+05  1.110796E+04
       103  26 -6.373566E+05 -1.933675E+05 -1.631458E+05  6.110804E+04  6.333789E+04  3.795543E+04
       103  27 -6.054017E+05 -1.703712E+05 -1.280610E+05  4.709322E+04  1.363985E+04  4.786378E+04
       104   1  8.032881E+05  1.559263E+05  9.549575E+04  4.662405E+04 -5.484312E+03 -4.807394E+04
       104   2  7.645765E+05  1.486522E+05  9.014114E+04  4.424352E+04 -6.694078E+03 -4.854208E+04
       104   3  7.257549E+05  1.402664E+05  8.530028E+04  4.878022E+04 -7.906693E+03 -4.700555E+04
       104   4  1.121348E+05 -3.544188E+03 -1.110545E+04  4.790628E+04 -8.583003E+03 -4.808263E+04
       104   5  1.125662E+05 -9.162140E+02 -6.042668E+03  4.444517E+04 -5.556932E+03 -4.854569E+04
       104   6  1.121512E+05 -1.356694E+02 -3.406830E+03  4.790179E+04 -2.533707E+03 -4.700297E+04
       104   7 -5.785415E+05 -1.630379E+05 -1.177174E+05  4.918688E+04 -1.167838E+04 -4.809135E+04
       104   8 -5.390167E+05 -1.505045E+05 -1.022341E+05  4.464646E+04 -4.420928E+03 -4.854930E+04
       104   9 -5.010728E+05 -1.405549E+05 -9.211986E+04  4.702413E+04  2.834198E+03 -4.700041E+04
       104  10  8.032874E+05  1.559239E+05  9.549135E+04  4.662384E+04 -5.543900E-09  4.847757E-10
       104  11  7.645758E+05  1.486497E+05  9.013663E+04  4.424325E+04 -3.952022E-08  3.641929E-09
       104  12  7.257542E+05  1.402640E+05  8.529601E+04  4.877992E+04 -6.396533E-08  2.983070E-09
       104  13  1.121341E+05 -3.546690E+03 -1.110994E+04  4.790595E+04 -2.150083E-09 -3.755449E-10
       104  14  1.125655E+05 -9.187531E+02 -6.047155E+03  4.444495E+04 -4.000771E-09 -7.715653E-09
       104  15  1.121506E+05 -1.380437E+02 -3.410994E+03  4.790169E+04  2.266116E-09 -1.809348E-08
       104  16 -5.785422E+05 -1.630404E+05 -1.177220E+05  4.918643E+04  4.166698E-09  3.717980E-09
       104  17 -5.390174E+05 -1.505070E+05 -1.022386E+05  4.464629E+04  3.834937E-08  2.189825E-09
       104  18 -5.010734E+05 -1.405573E+05 -9.212402E+04  4.702423E+04  6.505533E-08 -3.928423E-10
       104  19  8.032881E+05  1.559263E+05  9.549575E+04  4.662405E+04  5.484312E+03  4.807394E+04
       104  20  7.645765E+05  1.486522E+05  9.014114E+04  4.424352E+04  6.694078E+03  4.854208E+04
       104  21  7.257549E+05  1.402664E+05  8.530028E+04  4.878022E+04  7.906693E+03  4.700555E+04
       104  22  1.121348E+05 -3.544188E+03 -1.110545E+04  4.790628E+04  8.583003E+03  4.808263E+04
       104  23  1.125662E+05 -9.162140E+02 -6.042668E+03  4.444517E+04  5.556932E+03  4.854569E+04
       104  24  1.121512E+05 -1.356694E+02 -3.406830E+03  4.790179E+04  2.533707E+03  4.700297E+04
       104  25 -5.785415E+05 -1.630379E+05 -1.177174E+05  4.918688E+04  1.167838E+04  4.809135E+04
       104  26 -5.390167E+05 -1.505045E+05 -1.022341E+05  4.464646E+04  4.420928E+03  4.854930E+04
       104  27 -5.010728E+05 -1.405549E+05 -9.211986E+04  4.702413E+04 -2.834198E+03  4.700041E+04
       105   1  7.015148E+05  1.346466E+05  8.217285E+04  4.861187E+04 -7.401001E+03 -4.545076E+04
       105   2  6.628069E+05  1.258545E+05  7.726932E+04  4.508886E+04 -7.183348E+03 -4.278903E+04
       105   3  6.240614E+05  1.170343E+05  7.221650E+04  4.861963E+04 -6.966965E+03 -3.989026E+04
       105   4  1.123168E+05 -8.612469E+01 -2.575220E+03  4.793248E+04 -2.023949E+03 -4.544759E+04
       105   5  1.123870E+05  7.626166E+01 -1.452257E+03  4.440525E+04 -1.305941E+03 -4.278420E+04
       105   6  1.123312E+05  1.235359E+02 -8.262459E+02  4.793216E+04 -5.891886E+02 -3.988366E+04
       105   7 -4.765309E+05 -1.348347E+05 -8.732856E+04  4.725363E+04  3.348221E+03 -4.544443E+04
       105   8 -4.377268E+05 -1.257158E+05 -8.017823E+04  4.372215E+04  4.566484E+03 -4.277937E+04
       105   9 -3.991344E+05 -1.167990E+05 -7.387270E+04  4.724517E+04  5.783561E+03 -3.987706E+04
       105  10  7.015142E+05  1.346444E+05  8.216887E+04  4.861159E+04  6.252945E-08  4.155399E-09
       105  11  6.628064E+05  1.258526E+05  7.726578E+04  4.508862E+04  3.493177E-08  4.619043E-09
       105  12  6.240609E+05  1.170325E+05  7.221342E+04  4.861941E+04  8.515036E-09  2.702471E-09
       105  13  1.123163E+05 -8.834387E+01 -2.579109E+03  4.793240E+04 -2.281014E-09 -1.881834E-08
       105  14  1.123866E+05  7.429548E+01 -1.455700E+03  4.440520E+04  1.442657E-09 -6.266207E-09
       105  15  1.123308E+05  1.218276E+02 -8.292359E+02  4.793214E+04 -2.792548E-10  3.056254E-09
       105  16 -4.765314E+05 -1.348369E+05 -8.733246E+04  4.725375E+04 -5.812807E-08  2.823991E-10
       105  17 -4.377273E+05 -1.257177E+05 -8.018171E+04  4.372231E+04 -3.709041E-08  2.615983E-09
       105  18 -3.991348E+05 -1.168008E+05 -7.387575E+04  4.724535E+04 -8.101534E-09  2.497063E-09
       105  19  7.015148E+05  1.346466E+05  8.217285E+04  4.861187E+04  7.401001E+03  4.545076E+04
       105  20  6.628069E+05  1.258545E+05  7.726932E+04  4.508886E+04  7.183348E+03  4.278903E+04
       105  21  6.240614E+05  1.170343E+05  7.221650E+04  4.861963E+04  6.966965E+03  3.989026E+04
       105  22  1.123168E+05 -8.612469E+01 -2.575220E+03  4.793248E+04  2.023949E+03  4.544759E+04
       105  23  1.123870E+05  7.626166E+01 -1.452257E+03  4.440525E+04  1.305941E+03  4.278420E+04
       105  24  1.123312E+05  1.235359E+02 -8.262459E+02  4.793216E+04  5.891886E+02  3.988366E+04
       105  25 -4.765309E+05 -1.348347E+05 -8.732856E+04  4.725363E+04 -3.348221E+03  4.544443E+04
       105  26 -4.377268E+05 -1.257158E+05 -8.017823E+04  4.372215E+04 -4.566484E+03  4.277937E+04
       105  27 -3.991344E+05 -1.167990E+05 -7.387270E+04  4.724517E+04 -5.783561E+03  3.987706E+04
       106   1  5.998080E+05  1.114563E+05  6.878057E+04  4.858116E+04 -6.838764E+03 -3.812534E+04
       106   2  5.611135E+05  1.026169E+05  6.355026E+04  4.500605E+04 -6.727761E+03 -3.509427E+04
       106   3  5.223992E+05  9.380512E+04  5.825062E+04  4.849664E+04 -6.617611E+03 -3.203553E+04
       106   4  1.123567E+05  1.255302E+02 -6.237472E+02  4.793484E+04 -4.613570E+02 -3.811817E+04
       106   5  1.123786E+05  1.249594E+02 -3.496851E+02  4.440183E+04 -2.922181E+02 -3.508615E+04
       106   6  1.123685E+05  1.416991E+02 -1.856696E+02  4.793482E+04 -1.239258E+02 -3.202644E+04
       106   7 -3.748544E+05 -1.112160E+05 -7.003136E+04  4.728894E+04  5.911262E+03 -3.811101E+04
       106   8 -3.361527E+05 -1.023761E+05 -6.425240E+04  4.379798E+04  6.138877E+03 -3.507804E+04
       106   9 -2.974923E+05 -9.352931E+04 -5.862425E+04  4.737331E+04  6.365658E+03 -3.201736E+04
       106  10  5.998075E+05  1.114547E+05  6.877775E+04  4.858095E+04 -5.075897E-08  1.204121E-09
       106  11  5.611131E+05  1.026156E+05  6.354786E+04  4.500586E+04  1.112794E-09  4.141935E-09
       106  12  5.223989E+05  9.380401E+04  5.824861E+04  4.849647E+04  6.235298E-08  5.469177E-09
       106  13  1.123563E+05  1.239698E+02 -6.264782E+02  4.793482E+04 -1.223728E-11  2.170193E-09
       106  14  1.123783E+05  1.236374E+02 -3.519987E+02  4.440182E+04 -4.923487E-09  3.441034E-09
       106  15  1.123682E+05  1.405976E+02 -1.875972E+02  4.793482E+04 -6.284032E-10  2.369190E-09
       106  16 -3.748549E+05 -1.112175E+05 -7.003415E+04  4.728912E+04  4.947092E-08  1.655351E-09
       106  17 -3.361531E+05 -1.023774E+05 -6.425478E+04  4.379816E+04 -1.611505E-09  8.350647E-11
       106  18 -2.974926E+05 -9.353042E+04 -5.862625E+04  4.737348E+04 -6.116625E-08  1.021948E-09
       106  19  5.998080E+05  1.114563E+05  6.878057E+04  4.858116E+04  6.838764E+03  3.812534E+04
       106  20  5.611135E+05  1.026169E+05  6.355026E+04  4.500605E+04  6.727761E+03  3.509427E+04
       106  21  5.223992E+05  9.380512E+04  5.825062E+04  4.849664E+04  6.617611E+03  3.203553E+04
       106  22  1.123567E+05  1.255302E+02 -6.237472E+02  4.793484E+04  4.613570E+02  3.811817E+04
       106  23  1.123786E+05  1.249594E+02 -3.496851E+02  4.440183E+04  2.922181E+02  3.508615E+04
       106  24  1.123685E+05  1.416991E+02 -1.856696E+02  4.793482E+04  1.239258E+02  3.202644E+04
       106  25 -3.748544E+05 -1.112160E+05 -7.003136E+04  4.728894E+04 -5.911262E+03  3.811101E+04
       106  26 -3.361527E+05 -1.023761E+05 -6.425240E+04  4.379798E+04 -6.138877E+03  3.507804E+04
       106  27 -2.974923E+05 -9.352931E+04 -5.862425E+04  4.737331E+04 -6.365658E+03  3.201736E+04
       107   1  4.981519E+05  8.824020E+04  5.470762E+04  4.847038E+04 -6.590819E+03 -3.024636E+04
       107   2  4.594729E+05  7.941039E+04  4.935379E+04  4.489344E+04 -6.580212E+03 -2.717271E+04
       107   3  4.207780E+05  7.060903E+04  4.399327E+04  4.838485E+04 -6.570233E+03 -2.409640E+04
       107   4  1.123753E+05  1.445573E+02 -1.291784E+02  4.793540E+04 -9.787825E+01 -3.023682E+04
       107   5  1.123887E+05  1.370306E+02 -4.206254E+01  4.440111E+04 -8.180353E+01 -2.716249E+04
       107   6  1.123844E+05  1.571983E+02  3.461135E+01  4.793539E+04 -6.635628E+01 -2.408549E+04
       107   7 -2.732508E+05 -8.795779E+04 -5.496795E+04  4.740070E+04  6.391204E+03 -3.022729E+04
       107   8 -2.345736E+05 -7.914175E+04 -4.943950E+04  4.390901E+04  6.413130E+03 -2.715227E+04
       107   9 -1.959129E+05 -7.029892E+04 -4.392527E+04  4.748612E+04  6.434430E+03 -2.407459E+04
       107  10  4.981516E+05  8.823921E+04  5.470582E+04  4.847022E+04  7.776587E-08  3.862871E-09
       107  11  4.594726E+05  7.940959E+04  4.935233E+04  4.489329E+04  2.990538E-09  2.262485E-09
       107  12  4.207777E+05  7.060840E+04  4.399209E+04  4.838472E+04 -7.018138E-08 -2.581800E-10
       107  13  1.123750E+05  1.435754E+02 -1.308966E+02  4.793540E+04  8.610085E-11  7.974233E-09
       107  14  1.123885E+05  1.362383E+02 -4.344909E+01  4.440111E+04  3.776771E-09  4.307724E-09
       107  15  1.123842E+05  1.565753E+02  3.352114E+01  4.793539E+04 -2.216716E-09  7.049016E-10
       107  16 -2.732511E+05 -8.795878E+04 -5.496974E+04  4.740085E+04 -7.140660E-08  4.602630E-09
       107  17 -2.345738E+05 -7.914255E+04 -4.944096E+04  4.390915E+04 -7.461870E-10  2.676552E-09
       107  18 -1.959131E+05 -7.029955E+04 -4.392644E+04  4.748625E+04  6.781518E-08  1.648745E-09
       107  19  4.981519E+05  8.824020E+04  5.470762E+04  4.847038E+04  6.590819E+03  3.024636E+04
       107  20  4.594729E+05  7.941039E+04  4.935379E+04  4.489344E+04  6.580212E+03  2.717271E+04
       107  21  4.207780E+05  7.060903E+04  4.399327E+04  4.838485E+04  6.570233E+03  2.409640E+04
       107  22  1.123753E+05  1.445573E+02 -1.291784E+02  4.793540E+04  9.787825E+01  3.023682E+04
       107  23  1.123887E+05  1.370306E+02 -4.206254E+01  4.440111E+04  8.180353E+01  2.716249E+04
       107  24  1.123844E+05  1.571983E+02  3.461135E+01  4.793539E+04  6.635628E+01  2.408549E+04
       107  25 -2.732508E+05 -8.795779E+04 -5.496795E+04  4.740070E+04 -6.391204E+03  3.022729E+04
       107  26 -2.345736E+05 -7.914175E+04 -4.943950E+04  4.390901E+04 -6.413130E+03  2.715227E+04
       107  27 -1.959129E+05 -7.029892E+04 -4.392527E+04  4.748612E+04 -6.434430E+03  2.407459E+04
       108   1  3.965418E+05  6.504703E+04  4.043906E+04  4.835762E+04 -6.582260E+03 -2.230507E+04
       108   2  3.578700E+05  5.622326E+04  3.510611E+04  4.477236E+04 -6.669921E+03 -1.922879E+04
       108   3  3.191938E+05  4.744508E+04  2.983289E+04  4.825231E+04 -6.758014E+03 -1.615486E+04
       108   4  1.123899E+05  1.600264E+02  7.456074E+01  4.793469E+04 -7.900577E+01 -2.229382E+04
       108   5  1.123957E+05  1.553057E+02  1.762643E+02  4.440197E+04 -1.718070E+02 -1.921707E+04
       108   6  1.123964E+05  1.970968E+02  3.411637E+02  4.793463E+04 -2.650448E+02 -1.614268E+04
       108   7 -1.716802E+05 -6.473060E+04 -4.029093E+04  4.751191E+04  6.421402E+03 -2.228258E+04
       108   8 -1.330176E+05 -5.591535E+04 -3.475429E+04  4.403171E+04  6.323849E+03 -1.920536E+04
       108   9 -9.435767E+04 -4.705280E+04 -2.915103E+04  4.761703E+04  6.225855E+03 -1.613050E+04
       108  10  3.965416E+05  6.504648E+04  4.043805E+04  4.835751E+04  1.143724E-08  2.146604E-09
       108  11  3.578698E+05  5.622285E+04  3.510533E+04  4.477226E+04 -2.338040E-08 -3.577060E-10
       108  12  3.191936E+05  4.744479E+04  2.983231E+04  4.825223E+04 -6.077403E-08  1.753610E-09
       108  13  1.123898E+05  1.594927E+02  7.362669E+01  4.793468E+04  1.075020E-12  1.781745E-09
       108  14  1.123956E+05  1.549092E+02  1.755703E+02  4.440197E+04 -1.659785E-09 -2.032884E-10
       108  15  1.123963E+05  1.968169E+02  3.406738E+02  4.793462E+04  3.665375E-09  2.526836E-09
       108  16 -1.716804E+05 -6.473114E+04 -4.029195E+04  4.751203E+04 -9.252903E-09  3.240445E-09
       108  17 -1.330177E+05 -5.591576E+04 -3.475506E+04  4.403180E+04  2.776707E-08 -4.853202E-09
       108  18 -9.435778E+04 -4.705309E+04 -2.915159E+04  4.761711E+04  5.655268E-08 -1.514200E-09
       108  19  3.965418E+05  6.504703E+04  4.043906E+04  4.835762E+04  6.582260E+03  2.230507E+04
       108  20  3.578700E+05  5.622326E+04  3.510611E+04  4.477236E+04  6.669921E+03  1.922879E+04
       108  21  3.191938E+05  4.744508E+04  2.983289E+04  4.825231E+04  6.758014E+03  1.615486E+04
       108  22  1.123899E+05  1.600264E+02  7.456074E+01  4.793469E+04  7.900577E+01  2.229382E+04
       108  23  1.123957E+05  1.553057E+02  1.762643E+02  4.440197E+04  1.718070E+02  1.921707E+04
       108  24  1.123964E+05  1.970968E+02  3.411637E+02  4.793463E+04  2.650448E+02  1.614268E+04
       108  25 -1.716802E+05 -6.473060E+04 -4.029093E+04  4.751191E+04 -6.421402E+03  2.228258E+04
       108  26 -1.330176E+05 -5.591535E+04 -3.475429E+04  4.403171E+04 -6.323849E+03  1.920536E+04
       108  27 -9.435767E+04 -4.705280E+04 -2.915103E+04  4.761703E+04 -6.225855E+03  1.613050E+04
       109   1  2.949827E+05  4.188901E+04  2.635410E+04  4.824431E+04 -6.829049E+03 -1.436580E+04
       109   2  2.562752E+05  3.316136E+04  2.126807E+04  4.450964E+04 -7.202487E+03 -1.130418E+04
       109   3  2.176550E+05  2.471115E+04  1.648461E+04  4.783659E+04 -7.576118E+03 -8.263660E+03
       109   4  1.124199E+05  2.053394E+02  4.585120E+02  4.793390E+04 -3.365643E+02 -1.435340E+04
       109   5  1.123754E+05  2.989143E+02  8.242890E+02  4.440260E+04 -7.547641E+02 -1.129158E+04
       109   6  1.124237E+05  6.776047E+02  1.523460E+03  4.793299E+04 -1.173176E+03 -8.250884E+03
       109   7 -7.010904E+04 -4.147981E+04 -2.543739E+04  4.762357E+04  6.154094E+03 -1.434100E+04
       109   8 -3.150347E+04 -3.256444E+04 -1.961963E+04  4.429557E+04  5.691530E+03 -1.127899E+04
       109   9  7.203640E+03 -2.335642E+04 -1.343770E+04  4.802937E+04  5.228728E+03 -8.238104E+03
       109  10  2.949826E+05  4.188877E+04  2.635363E+04  4.824423E+04  5.727628E-08  5.159646E-09
       109  11  2.562751E+05  3.316121E+04  2.126773E+04  4.450957E+04  2.084484E-08  1.288132E-09
       109  12  2.176549E+05  2.471106E+04  1.648438E+04  4.783654E+04 -1.303441E-08  2.655611E-09
       109  13  1.124199E+05  2.051181E+02  4.581246E+02  4.793390E+04 -2.183342E-09  2.652148E-09
       109  14  1.123753E+05  2.987772E+02  8.240483E+02  4.440259E+04  5.900528E-09  7.991179E-10
       109  15  1.124237E+05  6.775312E+02  1.523330E+03  4.793298E+04 -1.424122E-09 -1.939199E-10
       109  16 -7.010913E+04 -4.148004E+04 -2.543785E+04  4.762364E+04 -5.190843E-08  6.623852E-10
       109  17 -3.150354E+04 -3.256459E+04 -1.961993E+04  4.429562E+04 -2.027263E-08 -1.890304E-09
       109  18  7.203592E+03 -2.335650E+04 -1.343788E+04  4.802940E+04  1.242641E-08 -5.318987E-09
       109  19  2.949827E+05  4.188901E+04  2.635410E+04  4.824431E+04  6.829049E+03  1.436580E+04
       109  20  2.562752E+05  3.316136E+04  2.126807E+04  4.450964E+04  7.202487E+03  1.130418E+04
       109  21  2.176550E+05  2.471115E+04  1.648461E+04  4.783659E+04  7.576118E+03  8.263660E+03
       109  22  1.124199E+05  2.053394E+02  4.585120E+02  4.793390E+04  3.365643E+02  1.435340E+04
       109  23  1.123754E+05  2.989143E+02  8.242890E+02  4.440260E+04  7.547641E+02  1.129158E+04
       109  24  1.124237E+05  6.776047E+02  1.523460E+03  4.793299E+04  1.173176E+03  8.250884E+03
       109  25 -7.010904E+04 -4.147981E+04 -2.543739E+04  4.762357E+04 -6.154094E+03  1.434100E+04
       109  26 -3.150347E+04 -3.256444E+04 -1.961963E+04  4.429557E+04 -5.691530E+03  1.127899E+04
       109  27  7.203640E+03 -2.335642E+04 -1.343770E+04  4.802937E+04 -5.228728E+03  8.238104E+03
       110   1  1.936251E+05  1.926815E+04  1.336867E+04  4.804943E+04 -7.841826E+03 -6.493773E+03
       110   2  1.544883E+05  1.195788E+04  9.470518E+03  4.214535E+04 -9.388620E+03 -3.554926E+03
       110   3  1.163240E+05  7.866338E+03  7.373359E+03  4.328645E+04 -1.093509E+04 -7.934208E+02
       110   4  1.126342E+05  8.052075E+02  2.031524E+03  4.793037E+04 -1.439675E+03 -6.480889E+03
       110   5  1.121164E+05  2.350451E+03  3.743182E+03  4.440150E+04 -3.361179E+03 -3.542755E+03
       110   6  1.126350E+05  7.179703E+03  7.516053E+03  4.791771E+04 -5.282447E+03 -7.819818E+02
       110   7  3.165011E+04 -1.765801E+04 -9.305549E+03  4.781132E+04  4.961677E+03 -6.468007E+03
       110   8  6.974640E+04 -7.257021E+03 -1.984032E+03  4.665748E+04  2.665870E+03 -3.530540E+03
       110   9  1.089461E+05  6.493165E+03  7.658881E+03  5.254894E+04  3.701680E+02 -7.704584E+02
       110  10  1.936250E+05  1.926809E+04  1.336847E+04  4.804939E+04  4.624226E-10  2.854170E-09
       110  11  1.544882E+05  1.195785E+04  9.470329E+03  4.214532E+04  4.050165E-09 -1.949571E-09
       110  12  1.163239E+05  7.866305E+03  7.373133E+03  4.328645E+04  1.696021E-09 -3.718288E-10
       110  13  1.126342E+05  8.051618E+02  2.031441E+03  4.793036E+04  6.536947E-09  4.468648E-09
       110  14  1.121164E+05  2.350434E+03  3.743137E+03  4.440149E+04  4.758509E-09 -4.088446E-09
       110  15  1.126350E+05  7.179694E+03  7.516000E+03  4.791771E+04  2.520727E-10  3.320648E-09
       110  16  3.165007E+04 -1.765806E+04 -9.305674E+03  4.781135E+04  2.844972E-09 -3.662671E-10
       110  17  6.974639E+04 -7.257036E+03 -1.984069E+03  4.665749E+04 -2.328533E-09  1.958027E-09
       110  18  1.089461E+05  6.493165E+03  7.658880E+03  5.254894E+04 -1.876332E-09 -6.807761E-11
       110  19  1.936251E+05  1.926815E+04  1.336867E+04  4.804943E+04  7.841826E+03  6.493773E+03
       110  20  1.544883E+05  1.195788E+04  9.470518E+03  4.214535E+04  9.388620E+03  3.554926E+03
       110  21  1.163240E+05  7.866338E+03  7.373359E+03  4.328645E+04  1.093509E+04  7.934208E+02
       110  22  1.126342E+05  8.052075E+02  2.031524E+03  4.793037E+04  1.439675E+03  6.480889E+03
       110  23  1.121164E+05  2.350451E+03  3.743182E+03  4.440150E+04  3.361179E+03  3.542755E+03
       110  24  1.126350E+05  7.179703E+03  7.516053E+03  4.791771E+04  5.282447E+03  7.819818E+02
       110  25  3.165011E+04 -1.765801E+04 -9.305549E+03  4.781132E+04 -4.961677E+03  6.468007E+03
       110  26  6.974640E+04 -7.257021E+03 -1.984032E+03  4.665748E+04 -2.665870E+03  3.530540E+03
       110  27  1.089461E+05  6.493165E+03  7.658881E+03  5.254894E+04 -3.701680E+02  7.704584E+02
       111   1  1.417341E+04  4.363498E+05  1.527602E+04 -3.162425E+04 -3.811324E+01  3.858455E+03
       111   2  9.453618E+02  4.054111E+05  5.240447E+03 -2.536937E+04 -7.486577E+02 -9.843603E-01
       111   3 -7.320158E+03  3.762009E+05 -1.046585E+03 -2.689086E+04 -2.378550E+03 -3.860972E+03
       111   4  6.977321E+03  4.076124E+05  8.060109E+03 -2.736528E+04 -3.838524E+01  4.230417E+03
       111   5  1.162363E+03  4.068657E+05  4.889621E+03 -2.347982E+04 -7.500293E+02  1.717599E+03
       111   6  7.644015E+01  4.076135E+05  4.533214E+03 -2.737064E+04 -2.380992E+03 -7.959262E+02
       111   7 -2.187584E+02  3.788758E+05  8.441419E+02 -2.310651E+04 -3.865216E+01  4.602361E+03
       111   8  1.379379E+03  4.083203E+05  4.538809E+03 -2.159026E+04 -7.513905E+02  3.436185E+03
       111   9  7.472990E+03  4.390271E+05  1.011301E+04 -2.785044E+04 -2.383439E+03  2.269270E+03
       111  10  1.417340E+04  4.363497E+05  1.527600E+04 -3.162425E+04  2.064452E-09 -4.802836E-08
       111  11  9.453612E+02  4.054111E+05  5.240446E+03 -2.536937E+04  4.883873E-09  1.671768E-10
       111  12 -7.320168E+03  3.762009E+05 -1.046623E+03 -2.689087E+04  3.862319E-09  5.001154E-08
       111  13  6.977317E+03  4.076124E+05  8.060075E+03 -2.736528E+04  4.350115E-09  8.368782E-10
       111  14  1.162361E+03  4.068657E+05  4.889615E+03 -2.347982E+04 -7.430556E-10 -1.597321E-09
       111  15  7.643389E+01  4.076135E+05  4.533202E+03 -2.737064E+04 -1.266420E-09  8.750436E-10
       111  16 -2.187640E+02  3.788758E+05  8.441021E+02 -2.310651E+04 -1.259824E-09  4.794224E-08
       111  17  1.379375E+03  4.083203E+05  4.538786E+03 -2.159026E+04 -4.353085E-09 -1.071815E-09
       111  18  7.472983E+03  4.390271E+05  1.011299E+04 -2.785044E+04 -4.612735E-09 -5.028160E-08
       111  19  1.417341E+04  4.363498E+05  1.527602E+04 -3.162425E+04  3.811324E+01 -3.858455E+03
       111  20  9.453618E+02  4.054111E+05  5.240447E+03 -2.536937E+04  7.486577E+02  9.843603E-01
       111  21 -7.320158E+03  3.762009E+05 -1.046585E+03 -2.689086E+04  2.378550E+03  3.860972E+03
       111  22  6.977321E+03  4.076124E+05  8.060109E+03 -2.736528E+04  3.838524E+01 -4.230417E+03
       111  23  1.162363E+03  4.068657E+05  4.889621E+03 -2.347982E+04  7.500293E+02 -1.717599E+03
       111  24  7.644015E+01  4.076135E+05  4.533214E+03 -2.737064E+04  2.380992E+03  7.959262E+02
       111  25 -2.187584E+02  3.788758E+05  8.441419E+02 -2.310651E+04  3.865216E+01 -4.602361E+03
       111  26  1.379379E+03  4.083203E+05  4.538809E+03 -2.159026E+04  7.513905E+02 -3.436185E+03
       111  27  7.472990E+03  4.390271E+05  1.011301E+04 -2.785044E+04  2.383439E+03 -2.269270E+03
       112   1 -1.199271E+04  3.557357E+05 -4.523044E+03 -2.783005E+04 -3.627312E+03 -4.545220E+03
       112   2 -1.915518E+04  3.252622E+05 -8.264349E+03 -2.332182E+04 -5.504246E+03 -7.573076E+03
       112   3 -2.471888E+04  2.955700E+05 -9.638968E+03 -2.662996E+04 -7.090636E+03 -1.060047E+04
       112   4  2.424059E+02  4.074707E+05  4.944157E+03 -2.737887E+04 -3.629650E+03 -1.580147E+03
       112   5  2.313362E+02  4.070424E+05  6.920366E+03 -2.347008E+04 -5.506153E+03 -5.033996E+03
       112   6  1.892834E+03  4.074682E+05  1.155866E+04 -2.737756E+04 -7.092127E+03 -8.487521E+03
       112   7  1.247737E+04  4.592083E+05  1.441128E+04 -2.692765E+04 -3.631984E+03  1.385166E+03
       112   8  1.961747E+04  4.888291E+05  2.210482E+04 -2.361836E+04 -5.508061E+03 -2.494591E+03
       112   9  2.850382E+04  5.193786E+05  3.275575E+04 -2.812530E+04 -7.093623E+03 -6.374204E+03
       112  10 -1.199273E+04  3.557357E+05 -4.523107E+03 -2.783006E+04  1.340602E-09  7.733678E-09
       112  11 -1.915523E+04  3.252621E+05 -8.264513E+03 -2.332186E+04 -4.377827E-10  3.569868E-10
       112  12 -2.471896E+04  2.955699E+05 -9.639274E+03 -2.663002E+04 -5.126430E-09 -4.501533E-09
       112  13  2.423911E+02  4.074707E+05  4.944127E+03 -2.737887E+04  3.580448E-09  7.108972E-10
       112  14  2.312968E+02  4.070424E+05  6.920262E+03 -2.347010E+04  2.793645E-09 -1.698580E-09
       112  15  1.892761E+03  4.074682E+05  1.155843E+04 -2.737761E+04 -5.365590E-09  9.388513E-10
       112  16  1.247736E+04  4.592083E+05  1.441125E+04 -2.692764E+04 -4.020315E-09 -7.734364E-09
       112  17  1.961744E+04  4.888291E+05  2.210475E+04 -2.361837E+04 -1.296318E-09 -1.460980E-09
       112  18  2.850375E+04  5.193785E+05  3.275558E+04 -2.812534E+04 -4.681476E-09  4.254708E-09
       112  19 -1.199271E+04  3.557357E+05 -4.523044E+03 -2.783005E+04  3.627312E+03  4.545220E+03
       112  20 -1.915518E+04  3.252622E+05 -8.264349E+03 -2.332182E+04  5.504246E+03  7.573076E+03
       112  21 -2.471888E+04  2.955700E+05 -9.638968E+03 -2.662996E+04  7.090636E+03  1.060047E+04
       112  22  2.424059E+02  4.074707E+05  4.944157E+03 -2.737887E+04  3.629650E+03  1.580147E+03
       112  23  2.313362E+02  4.070424E+05  6.920366E+03 -2.347008E+04  5.506153E+03  5.033996E+03
       112  24  1.892834E+03  4.074682E+05  1.155866E+04 -2.737756E+04  7.092127E+03  8.487521E+03
       112  25  1.247737E+04  4.592083E+05  1.441128E+04 -2.692765E+04  3.631984E+03 -1.385166E+03
       112  26  1.961747E+04  4.888291E+05  2.210482E+04 -2.361836E+04  5.508061E+03  2.494591E+03
       112  27  2.850382E+04  5.193786E+05  3.275575E+04 -2.812530E+04  7.093623E+03  6.374204E+03
       113   1 -3.133741E+04  2.770643E+05 -1.038848E+04 -3.144611E+04 -8.289742E+03 -1.340597E+04
       113   2 -3.098131E+04  2.426432E+05 -6.835422E+03 -1.124201E+04 -7.838279E+03 -1.977737E+04
       113   3  3.885560E+02  2.167981E+05  8.617062E+03  1.441040E+03 -2.469019E+03 -2.614511E+04
       113   4  1.592157E+02  4.094610E+05  1.478535E+04 -2.731761E+04 -8.291884E+03 -1.046166E+04
       113   5  8.003822E+03  4.045440E+05  2.614533E+04 -2.354059E+04 -7.834704E+03 -2.403800E+04
       113   6  4.810687E+04  4.094484E+05  5.440353E+04 -2.728377E+04 -2.459974E+03 -3.761105E+04
       113   7  3.165488E+04  5.418746E+05  3.995843E+04 -2.318820E+04 -8.293987E+03 -7.516736E+03
       113   8  4.698789E+04  5.664700E+05  5.912485E+04 -3.584244E+04 -7.830961E+03 -2.829971E+04
       113   9  9.582567E+04  6.021349E+05  1.001883E+05 -5.601753E+04 -2.449870E+03 -4.908052E+04
       113  10 -3.133753E+04  2.770641E+05 -1.038895E+04 -3.144620E+04 -3.470090E-09  3.215721E-09
       113  11 -3.098148E+04  2.426428E+05 -6.836273E+03 -1.124213E+04  2.383030E-09 -4.392640E-10
       113  12  3.883660E+02  2.167974E+05  8.615767E+03  1.440988E+03  5.973087E-11 -1.433517E-09
       113  13  1.591125E+02  4.094609E+05  1.478501E+04 -2.731768E+04 -1.440662E-09  8.488393E-10
       113  14  8.003601E+03  4.045434E+05  2.614413E+04 -2.354074E+04 -2.863634E-09 -1.227073E-09
       113  15  4.810648E+04  4.094469E+05  5.440086E+04 -2.728385E+04 -2.604844E-10  7.206285E-10
       113  16  3.165479E+04  5.418745E+05  3.995820E+04 -2.318825E+04 -1.878135E-09 -3.071242E-09
       113  17  4.698761E+04  5.664691E+05  5.912323E+04 -3.584261E+04  2.358594E-09 -4.246270E-10
       113  18  9.582502E+04  6.021323E+05  1.001838E+05 -5.601763E+04  7.884022E-10  1.211831E-09
       113  19 -3.133741E+04  2.770643E+05 -1.038848E+04 -3.144611E+04  8.289742E+03  1.340597E+04
       113  20 -3.098131E+04  2.426432E+05 -6.835422E+03 -1.124201E+04  7.838279E+03  1.977737E+04
       113  21  3.885560E+02  2.167981E+05  8.617062E+03  1.441040E+03  2.469019E+03  2.614511E+04
       113  22  1.592157E+02  4.094610E+05  1.478535E+04 -2.731761E+04  8.291884E+03  1.046166E+04
       113  23  8.003822E+03  4.045440E+05  2.614533E+04 -2.354059E+04  7.834704E+03  2.403800E+04
       113  24  4.810687E+04  4.094484E+05  5.440353E+04 -2.728377E+04  2.459974E+03  3.761105E+04
       113  25  3.165488E+04  5.418746E+05  3.995843E+04 -2.318820E+04  8.293987E+03  7.516736E+03
       113  26  4.698789E+04  5.664700E+05  5.912485E+04 -3.584244E+04  7.830961E+03  2.829971E+04
       113  27  9.582567E+04  6.021349E+05  1.001883E+05 -5.601753E+04  2.449870E+03  4.908052E+04
       114   1  1.001105E+06  3.602994E+05  1.831444E+05  3.708208E+05  7.119274E+04  1.492653E+04
       114   2  9.482124E+05  3.288387E+05  1.305780E+05  3.545838E+05  4.615365E+04 -2.267313E+04
       114   3  8.960414E+05  3.109982E+05  1.053274E+05  3.454060E+05  1.473846E+04 -4.328959E+04
       114   4  2.856583E+05  9.179099E+04  1.287319E+03  1.739858E+05  4.733513E+03 -1.006569E+04
       114   5  2.886084E+05  8.784968E+04  6.071539E+02  1.706497E+05  1.371410E+04 -3.487941E+04
       114   6  2.855493E+05  9.080077E+04  3.209419E+02  1.743720E+05  1.631019E+04 -4.270324E+04
       114   7 -4.292491E+05 -1.766681E+05 -1.805836E+05 -2.263315E+04 -6.163917E+04 -3.502517E+04
       114   8 -3.705283E+05 -1.530939E+05 -1.293751E+05 -1.309903E+04 -1.868779E+04 -4.707148E+04
       114   9 -3.245463E+05 -1.293593E+05 -1.046957E+05  3.495358E+03  1.788028E+04 -4.211751E+04
       114  10  1.001100E+06  3.602978E+05  1.831345E+05  3.708200E+05  1.031810E-09 -1.581574E-09
       114  11  9.482100E+05  3.288376E+05  1.305731E+05  3.545847E+05 -3.107180E-08 -1.601106E-08
       114  12  8.960407E+05  3.109961E+05  1.053235E+05  3.454065E+05 -6.632295E-08 -2.299239E-08
       114  13  2.856583E+05  9.179087E+04  1.287087E+03  1.739858E+05  4.175282E-10 -1.528152E-10
       114  14  2.886079E+05  8.784833E+04  6.045138E+02  1.706501E+05 -1.392323E-09 -1.182882E-08
       114  15  2.855485E+05  9.079874E+04  3.170144E+02  1.743726E+05 -1.402794E-08 -1.875864E-08
       114  16 -4.292535E+05 -1.766705E+05 -1.805931E+05 -2.263489E+04 -2.792620E-09  1.494279E-09
       114  17 -3.705292E+05 -1.530964E+05 -1.293799E+05 -1.309974E+04  2.429305E-08  1.348884E-08
       114  18 -3.245471E+05 -1.293613E+05 -1.046997E+05  3.495965E+03  4.256699E-08  1.943948E-08
       114  19  1.001105E+06  3.602994E+05  1.831444E+05  3.708208E+05 -7.119274E+04 -1.492653E+04
       114  20  9.482124E+05  3.288387E+05  1.305780E+05  3.545838E+05 -4.615365E+04  2.267313E+04
       114  21  8.960414E+05  3.109982E+05  1.053274E+05  3.454060E+05 -1.473846E+04  4.328959E+04
       114  22  2.856583E+05  9.179099E+04  1.287319E+03  1.739858E+05 -4.733513E+03  1.006569E+04
       114  23  2.886084E+05  8.784968E+04  6.071539E+02  1.706497E+05 -1.371410E+04  3.487941E+04
       114  24  2.855493E+05  9.080077E+04  3.209419E+02  1.743720E+05 -1.631019E+04  4.270324E+04
       114  25 -4.292491E+05 -1.766681E+05 -1.805836E+05 -2.263315E+04  6.163917E+04  3.502517E+04
       114  26 -3.705283E+05 -1.530939E+05 -1.293751E+05 -1.309903E+04  1.868779E+04  4.707148E+04
       114  27 -3.245463E+05 -1.293593E+05 -1.046957E+05  3.495358E+03 -1.788028E+04  4.211751E+04
       115   1  8.619099E+05  2.986902E+05  9.735345E+04  3.363461E+05  1.524562E+04 -4.199402E+04
       115   2  8.132827E+05  2.756509E+05  8.467488E+04  3.179085E+05  1.114636E+04 -4.213945E+04
       115   3  7.582359E+05  2.605461E+05  7.489313E+04  3.076534E+05  6.373923E+03 -4.049834E+04
       115   4  2.853264E+05  9.099060E+04  2.388434E+02  1.745825E+05  1.590944E+04 -4.174892E+04
       115   5  2.888980E+05  8.736642E+04  1.233297E+02  1.704993E+05  1.538851E+04 -4.054678E+04
       115   6  2.853404E+05  9.096914E+04  7.230864E+01  1.745980E+05  1.419384E+04 -3.755731E+04
       115   7 -2.909106E+05 -1.166783E+05 -9.688634E+04  1.295728E+04  1.657262E+04 -4.150407E+04
       115   8 -2.351954E+05 -1.008909E+05 -8.443473E+04  2.320577E+04  1.962690E+04 -3.895552E+04
       115   9 -1.873149E+05 -7.858451E+04 -7.475241E+04  4.163782E+04  2.200746E+04 -3.461864E+04
       115  10  8.619092E+05  2.986882E+05  9.734970E+04  3.363466E+05  9.932061E-08  4.328497E-08
       115  11  8.132821E+05  2.756490E+05  8.467131E+04  3.179089E+05  3.098199E-08  1.784012E-08
       115  12  7.582354E+05  2.605444E+05  7.488997E+04  3.076536E+05 -5.602053E-08 -1.627861E-08
       115  13  2.853256E+05  9.098866E+04  2.350917E+02  1.745830E+05 -1.480396E-08 -1.964084E-08
       115  14  2.888973E+05  8.736459E+04  1.197946E+02  1.704998E+05  3.345391E-09 -7.080056E-09
       115  15  2.853398E+05  9.096757E+04  6.927881E+01  1.745985E+05  8.757763E-10 -1.687232E-09
       115  16 -2.909113E+05 -1.166802E+05 -9.689009E+04  1.295783E+04 -1.201378E-07 -4.491607E-08
       115  17 -2.351962E+05 -1.008927E+05 -8.443831E+04  2.320639E+04 -2.562625E-08 -1.157668E-08
       115  18 -1.873157E+05 -7.858593E+04 -7.475557E+04  4.163843E+04  5.836819E-08  1.770672E-08
       115  19  8.619099E+05  2.986902E+05  9.735345E+04  3.363461E+05 -1.524562E+04  4.199402E+04
       115  20  8.132827E+05  2.756509E+05  8.467488E+04  3.179085E+05 -1.114636E+04  4.213945E+04
       115  21  7.582359E+05  2.605461E+05  7.489313E+04  3.076534E+05 -6.373923E+03  4.049834E+04
       115  22  2.853264E+05  9.099060E+04  2.388434E+02  1.745825E+05 -1.590944E+04  4.174892E+04
       115  23  2.888980E+05  8.736642E+04  1.233297E+02  1.704993E+05 -1.538851E+04  4.054678E+04
       115  24  2.853404E+05  9.096914E+04  7.230864E+01  1.745980E+05 -1.419384E+04  3.755731E+04
       115  25 -2.909106E+05 -1.166783E+05 -9.688634E+04  1.295728E+04 -1.657262E+04  4.150407E+04
       115  26 -2.351954E+05 -1.008909E+05 -8.443473E+04  2.320577E+04 -1.962690E+04  3.895552E+04
       115  27 -1.873149E+05 -7.858451E+04 -7.475241E+04  4.163782E+04 -2.200746E+04  3.461864E+04
       116   1  7.254150E+05  2.487627E+05  6.928053E+04  2.984896E+05  5.586968E+03 -3.813883E+04
       116   2  6.773137E+05  2.265721E+05  6.084679E+04  2.798247E+05  3.708155E+03 -3.433692E+04
       116   3  6.220432E+05  2.117244E+05  5.272790E+04  2.694393E+05  1.758006E+03 -3.034859E+04
       116   4  2.853215E+05  9.099613E+04  5.605949E+01  1.746150E+05  1.330834E+04 -3.523406E+04
       116   5  2.889556E+05  8.737742E+04  3.795339E+01  1.704733E+05  1.180283E+04 -3.129032E+04
       116   6  2.853426E+05  9.102774E+04  3.845862E+01  1.746104E+05  1.022591E+04 -2.716009E+04
       116   7 -1.545585E+05 -6.674806E+04 -6.917014E+04  5.082436E+04  2.102384E+04 -3.233150E+04
       116   8 -9.924006E+04 -5.180132E+04 -6.077318E+04  6.118610E+04  1.989215E+04 -2.824574E+04
       116   9 -5.123968E+04 -2.965842E+04 -5.265369E+04  7.982886E+04  1.868906E+04 -2.397339E+04
       116  10  7.254146E+05  2.487611E+05  6.927773E+04  2.984898E+05 -5.015954E-09  3.672784E-09
       116  11  6.773134E+05  2.265708E+05  6.084455E+04  2.798248E+05  4.871433E-09  8.725944E-09
       116  12  6.220429E+05  2.117234E+05  5.272616E+04  2.694394E+05  1.400836E-08  2.937087E-09
       116  13  2.853210E+05  9.099475E+04  5.339329E+01  1.746154E+05  5.910933E-09  1.829235E-09
       116  14  2.889552E+05  8.737633E+04  3.585134E+01  1.704736E+05  1.333348E-08  3.940243E-09
       116  15  2.853423E+05  9.102692E+04  3.687561E+01  1.746107E+05  9.430509E-09  1.011844E-09
       116  16 -1.545592E+05 -6.674930E+04 -6.917294E+04  5.082491E+04  9.564838E-09  1.425374E-09
       116  17 -9.924070E+04 -5.180228E+04 -6.077542E+04  6.118655E+04  5.037799E-09 -1.423183E-09
       116  18 -5.124021E+04 -2.965913E+04 -5.265542E+04  7.982922E+04 -1.357244E-09 -3.088955E-09
       116  19  7.254150E+05  2.487627E+05  6.928053E+04  2.984896E+05 -5.586968E+03  3.813883E+04
       116  20  6.773137E+05  2.265721E+05  6.084679E+04  2.798247E+05 -3.708155E+03  3.433692E+04
       116  21  6.220432E+05  2.117244E+05  5.272790E+04  2.694393E+05 -1.758006E+03  3.034859E+04
       116  22  2.853215E+05  9.099613E+04  5.605949E+01  1.746150E+05 -1.330834E+04  3.523406E+04
       116  23  2.889556E+05  8.737742E+04  3.795339E+01  1.704733E+05 -1.180283E+04  3.129032E+04
       116  24  2.853426E+05  9.102774E+04  3.845862E+01  1.746104E+05 -1.022591E+04  2.716009E+04
       116  25 -1.545585E+05 -6.674806E+04 -6.917014E+04  5.082436E+04 -2.102384E+04  3.233150E+04
       116  26 -9.924006E+04 -5.180132E+04 -6.077318E+04  6.118610E+04 -1.989215E+04  2.824574E+04
       116  27 -5.123968E+04 -2.965842E+04 -5.265369E+04  7.982886E+04 -1.868906E+04  2.397339E+04
       117   1  5.893965E+05  1.999967E+05  4.738065E+04  2.602685E+05  8.345588E+02 -2.787937E+04
       117   2  5.414029E+05  1.778937E+05  3.942705E+04  2.415888E+05 -8.255808E+02 -2.367133E+04
       117   3  4.861600E+05  1.630666E+05  3.152563E+04  2.311895E+05 -2.493100E+03 -1.944566E+04
       117   4  2.853438E+05  9.103460E+04  4.171313E+01  1.746092E+05  9.290067E+03 -2.469489E+04
       117   5  2.889792E+05  8.740980E+04  6.153762E+01  1.704679E+05  7.665014E+03 -2.047278E+04
       117   6  2.853553E+05  9.105360E+04  1.052416E+02  1.746059E+05  6.032579E+03 -1.623305E+04
       117   7 -1.860905E+04 -1.791763E+04 -4.729839E+04  8.898931E+04  1.774120E+04 -2.151207E+04
       117   8  3.662598E+04 -3.066677E+03 -3.930428E+04  9.937456E+04  1.615191E+04 -1.727562E+04
       117   9  8.459665E+04  1.904583E+04 -3.131485E+04  1.180402E+05  1.455524E+04 -1.302159E+04
       117  10  5.893963E+05  1.999959E+05  4.737919E+04  2.602686E+05 -4.669936E-08 -1.861732E-08
       117  11  5.414027E+05  1.778931E+05  3.942599E+04  2.415888E+05  2.156306E-08  8.795144E-09
       117  12  4.861599E+05  1.630662E+05  3.152491E+04  2.311895E+05  1.130569E-07  3.994412E-08
       117  13  2.853435E+05  9.103392E+04  4.040471E+01  1.746094E+05  5.694646E-10 -2.805369E-09
       117  14  2.889791E+05  8.740934E+04  6.063941E+01  1.704680E+05 -7.599902E-09  4.055123E-09
       117  15  2.853552E+05  9.105330E+04  1.046779E+02  1.746060E+05  6.873686E-09  1.403822E-08
       117  16 -1.860951E+04 -1.791822E+04 -4.729985E+04  8.898961E+04  4.935120E-08  1.618120E-08
       117  17  3.662562E+04 -3.067068E+03 -3.930533E+04  9.937479E+04 -4.445095E-08 -1.690250E-08
       117  18  8.459638E+04  1.904559E+04 -3.131556E+04  1.180403E+05 -9.864557E-08 -4.491081E-08
       117  19  5.893965E+05  1.999967E+05  4.738065E+04  2.602685E+05 -8.345588E+02  2.787937E+04
       117  20  5.414029E+05  1.778937E+05  3.942705E+04  2.415888E+05  8.255808E+02  2.367133E+04
       117  21  4.861600E+05  1.630666E+05  3.152563E+04  2.311895E+05  2.493100E+03  1.944566E+04
       117  22  2.853438E+05  9.103460E+04  4.171313E+01  1.746092E+05 -9.290067E+03  2.469489E+04
       117  23  2.889792E+05  8.740980E+04  6.153762E+01  1.704679E+05 -7.665014E+03  2.047278E+04
       117  24  2.853553E+05  9.105360E+04  1.052416E+02  1.746059E+05 -6.032579E+03  1.623305E+04
       117  25 -1.860905E+04 -1.791763E+04 -4.729839E+04  8.898931E+04 -1.774120E+04  2.151207E+04
       117  26  3.662598E+04 -3.066677E+03 -3.930428E+04  9.937456E+04 -1.615191E+04  1.727562E+04
       117  27  8.459665E+04  1.904583E+04 -3.131485E+04  1.180402E+05 -1.455524E+04  1.302159E+04
       118   1  4.535532E+05  1.513435E+05  2.623411E+04  2.220232E+05 -3.445963E+03 -1.697270E+04
       118   2  4.055891E+05  1.292463E+05  1.840988E+04  2.033541E+05 -5.155537E+03 -1.275790E+04
       118   3  3.503763E+05  1.144197E+05  1.066532E+04  1.929638E+05 -6.862326E+03 -8.551391E+03
       118   4  2.853618E+05  9.105630E+04  1.385008E+02  1.746066E+05  5.077549E+03 -1.376054E+04
       118   5  2.889873E+05  8.742037E+04  2.470092E+02  1.704679E+05  3.351188E+03 -9.551647E+03
       118   6  2.853657E+05  9.105861E+04  4.485513E+02  1.746073E+05  1.627608E+03 -5.351065E+03
       118   7  1.171990E+05  3.077134E+04 -2.595781E+04  1.272016E+05  1.359872E+04 -1.054926E+04
       118   8  1.723996E+05  4.559567E+04 -1.791597E+04  1.375874E+05  1.185628E+04 -6.346012E+03
       118   9  2.203598E+05  6.769801E+04 -9.767990E+03  1.562527E+05  1.011661E+04 -2.151093E+03
       118  10  4.535532E+05  1.513432E+05  2.623354E+04  2.220231E+05 -6.053388E-08 -2.767663E-08
       118  11  4.055891E+05  1.292461E+05  1.840952E+04  2.033540E+05 -2.544408E-08 -1.400336E-08
       118  12  3.503762E+05  1.144196E+05  1.066509E+04  1.929637E+05  2.875709E-08  1.458005E-08
       118  13  2.853617E+05  9.105609E+04  1.380965E+02  1.746067E+05  9.931675E-09  1.565004E-08
       118  14  2.889873E+05  8.742027E+04  2.468166E+02  1.704680E+05  1.144157E-11 -3.662667E-09
       118  15  2.853657E+05  9.105858E+04  4.484925E+02  1.746073E+05  1.551202E-08 -3.413490E-09
       118  16  1.171988E+05  3.077117E+04 -2.595837E+04  1.272018E+05  8.565181E-08  2.771893E-08
       118  17  1.723995E+05  4.559559E+04 -1.791631E+04  1.375875E+05  2.814053E-08  1.689148E-08
       118  18  2.203596E+05  6.769797E+04 -9.768191E+03  1.562527E+05 -1.128392E-08  5.534813E-09
       118  19  4.535532E+05  1.513435E+05  2.623411E+04  2.220232E+05  3.445963E+03  1.697270E+04
       118  20  4.055891E+05  1.292463E+05  1.840988E+04  2.033541E+05  5.155537E+03  1.275790E+04
       118  21  3.503763E+05  1.144197E+05  1.066532E+04  1.929638E+05  6.862326E+03  8.551391E+03
       118  22  2.853618E+05  9.105630E+04  1.385008E+02  1.746066E+05 -5.077549E+03  1.376054E+04
       118  23  2.889873E+05  8.742037E+04  2.470092E+02  1.704679E+05 -3.351188E+03  9.551647E+03
       118  24  2.853657E+05  9.105861E+04  4.485513E+02  1.746073E+05 -1.627608E+03  5.351065E+03
       118  25  1.171990E+05  3.077134E+04 -2.595781E+04  1.272016E+05 -1.359872E+04  1.054926E+04
       118  26  1.723996E+05  4.559567E+04 -1.791597E+04  1.375874E+05 -1.185628E+04  6.346012E+03
       118  27  2.203598E+05  6.769801E+04 -9.767990E+03  1.562527E+05 -1.011661E+04  2.151093E+03
       119   1  3.177863E+05  1.027040E+05  5.482996E+03  1.838201E+05 -7.884909E+03 -6.112000E+03
       119   2  2.698170E+05  8.059219E+04 -2.039713E+03  1.651355E+05 -9.824710E+03 -2.047693E+03
       119   3  2.146626E+05  6.581510E+04 -9.278247E+03  1.547178E+05 -1.172950E+04  1.924113E+03
       119   4  2.853842E+05  9.105597E+04  5.981156E+02  1.746139E+05  6.093204E+02 -2.909966E+03
       119   5  2.889673E+05  8.742485E+04  1.086525E+03  1.704605E+05 -1.516008E+03  1.084330E+03
       119   6  2.853987E+05  9.116461E+04  2.005698E+03  1.745726E+05 -3.606368E+03  4.986134E+03
       119   7  2.529838E+05  7.940830E+04 -4.286363E+03  1.654084E+05  9.102986E+03  2.918538E+02
       119   8  3.081181E+05  9.425759E+04  4.213051E+03  1.757857E+05  6.792966E+03  4.216453E+03
       119   9  3.561412E+05  1.165150E+05  1.329006E+04  1.944298E+05  4.517835E+03  8.048556E+03
       119  10  3.177863E+05  1.027039E+05  5.482809E+03  1.838200E+05 -2.010888E-08 -2.952986E-09
       119  11  2.698169E+05  8.059216E+04 -2.039902E+03  1.651355E+05 -7.547685E-09  6.270695E-10
       119  12  2.146624E+05  6.581506E+04 -9.278512E+03  1.547178E+05  2.187933E-08  6.057587E-09
       119  13  2.853842E+05  9.105596E+04  5.980990E+02  1.746140E+05  1.463703E-08 -5.561846E-09
       119  14  2.889673E+05  8.742484E+04  1.086518E+03  1.704605E+05 -3.046520E-10 -6.014583E-09
       119  15  2.853987E+05  9.116458E+04  2.005627E+03  1.745726E+05 -1.283305E-09 -3.377211E-09
       119  16  2.529837E+05  7.940828E+04 -4.286519E+03  1.654084E+05  3.442130E-08  2.842509E-08
       119  17  3.081181E+05  9.425756E+04  4.212931E+03  1.757856E+05  5.940508E-09  9.926180E-09
       119  18  3.561412E+05  1.165149E+05  1.328990E+04  1.944297E+05 -2.372805E-08 -9.871491E-09
       119  19  3.177863E+05  1.027040E+05  5.482996E+03  1.838201E+05  7.884909E+03  6.112000E+03
       119  20  2.698170E+05  8.059219E+04 -2.039713E+03  1.651355E+05  9.824710E+03  2.047693E+03
       119  21  2.146626E+05  6.581510E+04 -9.278247E+03  1.547178E+05  1.172950E+04 -1.924113E+03
       119  22  2.853842E+05  9.105597E+04  5.981156E+02  1.746139E+05 -6.093204E+02  2.909966E+03
       119  23  2.889673E+05  8.742485E+04  1.086525E+03  1.704605E+05  1.516008E+03 -1.084330E+03
       119  24  2.853987E+05  9.116461E+04  2.005698E+03  1.745726E+05  3.606368E+03 -4.986134E+03
       119  25  2.529838E+05  7.940830E+04 -4.286363E+03  1.654084E+05 -9.102986E+03 -2.918538E+02
       119  26  3.081181E+05  9.425759E+04  4.213051E+03  1.757857E+05 -6.792966E+03 -4.216453E+03
       119  27  3.561412E+05  1.165150E+05  1.329006E+04  1.944298E+05 -4.517835E+03 -8.048556E+03
       120   1  1.820328E+05  5.419399E+04 -1.405311E+04  1.457296E+05 -1.304573E+04  4.172712E+03
       120   2  1.345018E+05  3.189232E+04 -2.058980E+04  1.261957E+05 -1.515266E+04  7.540447E+03
       120   3  8.031231E+04  1.802516E+04 -2.624845E+04  1.145887E+05 -1.692752E+04  1.002820E+04
       120   4  2.855416E+05  9.117908E+04  2.681522E+03  1.746093E+05 -4.875477E+03  7.252340E+03
       120   5  2.888723E+05  8.803488E+04  4.947046E+03  1.701753E+05 -8.743857E+03  9.955655E+03
       120   6  2.858903E+05  9.367326E+04  9.485674E+03  1.736667E+05 -1.228025E+04  1.177909E+04
       120   7  3.890619E+05  1.281653E+05  1.941621E+04  2.034935E+05  3.296212E+03  1.033250E+04
       120   8  4.432674E+05  1.441797E+05  3.048324E+04  2.141649E+05 -2.333399E+03  1.237150E+04
       120   9  4.915106E+05  1.693250E+05  4.521795E+04  2.327625E+05 -7.631395E+03  1.353061E+04
       120  10  1.820326E+05  5.419392E+04 -1.405347E+04  1.457296E+05  1.363876E-10 -1.001689E-09
       120  11  1.345015E+05  3.189220E+04 -2.059034E+04  1.261958E+05 -6.792204E-09  1.656859E-09
       120  12  8.031198E+04  1.802498E+04 -2.624917E+04  1.145888E+05 -6.301894E-09  1.222377E-09
       120  13  2.855415E+05  9.117901E+04  2.681378E+03  1.746093E+05 -1.968398E-09  1.437860E-09
       120  14  2.888722E+05  8.803476E+04  4.946716E+03  1.701753E+05 -7.009364E-09  9.175315E-10
       120  15  2.858901E+05  9.367307E+04  9.485130E+03  1.736668E+05 -5.859300E-10  2.504862E-09
       120  16  3.890619E+05  1.281652E+05  1.941598E+04  2.034935E+05 -3.418531E-09 -1.714795E-09
       120  17  4.432673E+05  1.441795E+05  3.048294E+04  2.141649E+05 -1.044346E-08 -2.705399E-09
       120  18  4.915105E+05  1.693248E+05  4.521749E+04  2.327626E+05 -6.823310E-10 -4.548488E-09
       120  19  1.820328E+05  5.419399E+04 -1.405311E+04  1.457296E+05  1.304573E+04 -4.172712E+03
       120  20  1.345018E+05  3.189232E+04 -2.058980E+04  1.261957E+05  1.515266E+04 -7.540447E+03
       120  21  8.031231E+04  1.802516E+04 -2.624845E+04  1.145887E+05  1.692752E+04 -1.002820E+04
       120  22  2.855416E+05  9.117908E+04  2.681522E+03  1.746093E+05  4.875477E+03 -7.252340E+03
       120  23  2.888723E+05  8.803488E+04  4.947046E+03  1.701753E+05  8.743857E+03 -9.955655E+03
       120  24  2.858903E+05  9.367326E+04  9.485674E+03  1.736667E+05  1.228025E+04 -1.177909E+04
       120  25  3.890619E+05  1.281653E+05  1.941621E+04  2.034935E+05 -3.296212E+03 -1.033250E+04
       120  26  4.432674E+05  1.441797E+05  3.048324E+04  2.141649E+05  2.333399E+03 -1.237150E+04
       120  27  4.915106E+05  1.693250E+05  4.521795E+04  2.327625E+05  7.631395E+03 -1.353061E+04
       121   1  4.723860E+04  7.877106E+03 -2.957690E+04  1.072545E+05 -1.945890E+04  1.105448E+04
       121   2  8.617884E+03 -1.698110E+04 -3.417207E+04  7.314154E+04 -1.476671E+04  1.095919E+04
       121   3 -3.027932E+04 -1.655691E+04 -3.667484E+04  4.149400E+04 -6.926389E+03  2.504033E+03
       121   4  2.874114E+05  9.419215E+04  1.273488E+04  1.739139E+05 -1.436703E+04  1.297270E+04
       121   5  2.886477E+05  9.932946E+04  2.443894E+04  1.653563E+05 -2.639733E+04  6.575740E+03
       121   6  2.929146E+05  1.330551E+05  5.148336E+04  1.592646E+05 -3.528066E+04 -8.178899E+03
       121   7  5.276492E+05  1.805142E+05  5.504609E+04  2.405983E+05 -9.272969E+03  1.489172E+04
       121   8  5.687587E+05  2.156532E+05  8.304622E+04  2.576116E+05 -3.803353E+04  2.189531E+03
       121   9  6.162072E+05  2.826880E+05  1.396336E+05  2.770939E+05 -6.365038E+04 -1.887091E+04
       121  10  4.723816E+04  7.876874E+03 -2.957784E+04  1.072547E+05 -2.954638E-09  9.798829E-10
       121  11  8.617618E+03 -1.698129E+04 -3.417270E+04  7.314167E+04 -1.841549E-09  4.023809E-09
       121  12 -3.027937E+04 -1.655693E+04 -3.667494E+04  4.149401E+04  3.293037E-09  6.002027E-10
       121  13  2.874111E+05  9.419192E+04  1.273418E+04  1.739140E+05  7.946102E-09 -2.607585E-09
       121  14  2.886469E+05  9.932923E+04  2.443755E+04  1.653564E+05  2.771846E-09  2.578647E-09
       121  15  2.929132E+05  1.330547E+05  5.148090E+04  1.592643E+05  1.848130E-10  1.600182E-09
       121  16  5.276491E+05  1.805139E+05  5.504551E+04  2.405984E+05  6.515721E-09  3.354373E-09
       121  17  5.687571E+05  2.156528E+05  8.304349E+04  2.576117E+05  4.219014E-09  1.761921E-09
       121  18  6.162028E+05  2.826865E+05  1.396253E+05  2.770929E+05 -4.178812E-09 -1.481041E-09
       121  19  4.723860E+04  7.877106E+03 -2.957690E+04  1.072545E+05  1.945890E+04 -1.105448E+04
       121  20  8.617884E+03 -1.698110E+04 -3.417207E+04  7.314154E+04  1.476671E+04 -1.095919E+04
       121  21 -3.027932E+04 -1.655691E+04 -3.667484E+04  4.149400E+04  6.926389E+03 -2.504033E+03
       121  22  2.874114E+05  9.419215E+04  1.273488E+04  1.739139E+05  1.436703E+04 -1.297270E+04
       121  23  2.886477E+05  9.932946E+04  2.443894E+04  1.653563E+05  2.639733E+04 -6.575740E+03
       121  24  2.929146E+05  1.330551E+05  5.148336E+04  1.592646E+05  3.528066E+04  8.178899E+03
       121  25  5.276492E+05  1.805142E+05  5.504609E+04  2.405983E+05  9.272969E+03 -1.489172E+04
       121  26  5.687587E+05  2.156532E+05  8.304622E+04  2.576116E+05  3.803353E+04 -2.189531E+03
       121  27  6.162072E+05  2.826880E+05  1.396336E+05  2.770939E+05  6.365038E+04  1.887091E+04
       122   1 -2.536388E+05 -1.261614E+06 -2.945937E+05  7.375361E+04 -3.170490E+03 -1.250908E+05
       122   2 -6.518269E+04 -1.165108E+06 -1.745065E+05  1.267633E+04 -9.251880E+03 -7.657139E+04
       122   3 -7.133165E+04 -1.123031E+06 -1.345968E+05  2.353513E+04 -6.534516E+03 -2.803254E+04
       122   4 -1.433893E+05 -8.211391E+05 -1.851006E+05  3.892982E+04 -3.170022E+03 -1.214072E+05
       122   5  2.724591E+04 -7.941844E+05 -8.385792E+04  3.090110E+03 -9.251213E+03 -7.602239E+04
       122   6  3.883250E+03 -8.210825E+05 -6.057391E+04  3.918808E+04 -6.532009E+03 -3.062386E+04
       122   7 -3.314976E+04 -3.804856E+05 -7.562135E+04  4.081322E+03 -3.169970E+03 -1.177209E+05
       122   8  1.196646E+05 -4.231355E+05  6.780629E+03 -6.501817E+03 -9.250563E+03 -7.547304E+04
       122   9  7.909232E+04 -5.190502E+05  1.344249E+04  5.484870E+04 -6.529634E+03 -3.321644E+04
       122  10 -2.536431E+05 -1.261630E+06 -2.946232E+05  7.375329E+04 -8.125749E-10 -2.483937E-09
       122  11 -6.518436E+04 -1.165114E+06 -1.745177E+05  1.267576E+04 -1.769384E-09  1.125702E-09
       122  12 -7.133190E+04 -1.123032E+06 -1.345984E+05  2.353498E+04 -4.166261E-10 -1.078449E-09
       122  13 -1.433932E+05 -8.211550E+05 -1.851283E+05  3.892951E+04  2.839430E-09 -4.492876E-09
       122  14  2.724426E+04 -7.941907E+05 -8.386896E+04  3.089544E+03  4.207449E-09  8.887762E-09
       122  15  3.882952E+03 -8.210835E+05 -6.057575E+04  3.918792E+04  9.864179E-13 -1.621750E-10
       122  16 -3.315350E+04 -3.805005E+05 -7.564743E+04  4.081021E+03  2.427100E-09 -9.839326E-10
       122  17  1.196630E+05 -4.231416E+05  6.769757E+03 -6.502379E+03  7.769029E-09  4.454499E-09
       122  18  7.909198E+04 -5.190514E+05  1.344033E+04  5.484852E+04 -1.723266E-09 -2.643645E-10
       122  19 -2.536388E+05 -1.261614E+06 -2.945937E+05  7.375361E+04  3.170490E+03  1.250908E+05
       122  20 -6.518269E+04 -1.165108E+06 -1.745065E+05  1.267633E+04  9.251880E+03  7.657139E+04
       122  21 -7.133165E+04 -1.123031E+06 -1.345968E+05  2.353513E+04  6.534516E+03  2.803254E+04
       122  22 -1.433893E+05 -8.211391E+05 -1.851006E+05  3.892982E+04  3.170022E+03  1.214072E+05
       122  23  2.724591E+04 -7.941844E+05 -8.385792E+04  3.090110E+03  9.251213E+03  7.602239E+04
       122  24  3.883250E+03 -8.210825E+05 -6.057391E+04  3.918808E+04  6.532009E+03  3.062386E+04
       122  25 -3.314976E+04 -3.804856E+05 -7.562135E+04  4.081322E+03  3.169970E+03  1.177209E+05
       122  26  1.196646E+05 -4.231355E+05  6.780629E+03 -6.501817E+03  9.250563E+03  7.547304E+04
       122  27  7.909232E+04 -5.190502E+05  1.344249E+04  5.484870E+04  6.529634E+03  3.321644E+04
       123   1 -5.628880E+04 -9.683907E+05 -9.259615E+04  4.577900E+04 -3.652463E+03 -1.994275E+04
       123   2 -1.418264E+04 -8.902419E+05 -6.289937E+04  2.668660E+03 -1.991365E+03  1.937584E+03
       123   3 -2.225671E+04 -8.272832E+05 -5.996534E+04  3.319652E+04 -1.738192E+01  2.382021E+04
       123   4 -1.742754E+04 -8.124796E+05 -5.443605E+04  3.948055E+04 -3.651623E+03 -2.049509E+04
       123   5  7.081425E+03 -8.048928E+05 -4.200783E+04  2.661862E+03 -1.990679E+03  1.276366E+03
       123   6 -1.856679E+04 -8.124797E+05 -5.626308E+04  3.948146E+04 -1.643777E+01  2.304765E+04
       123   7  2.143207E+04 -6.565463E+05 -1.627771E+04  3.318051E+04 -3.650772E+03 -2.104757E+04
       123   8  2.834495E+04 -7.195371E+05 -2.111682E+04  2.655066E+03 -1.989992E+03  6.150574E+02
       123   9 -1.487673E+04 -7.976759E+05 -5.256081E+04  4.576656E+04 -1.550930E+01  2.227507E+04
       123  10 -5.628892E+04 -9.683911E+05 -9.259692E+04  4.577894E+04 -1.214578E-09 -1.676583E-10
       123  11 -1.418264E+04 -8.902419E+05 -6.289939E+04  2.668663E+03 -4.828509E-09  2.633761E-09
       123  12 -2.225686E+04 -8.272838E+05 -5.996641E+04  3.319652E+04 -8.633934E-10 -8.350513E-10
       123  13 -1.742766E+04 -8.124801E+05 -5.443687E+04  3.948049E+04  5.293268E-09 -3.521217E-09
       123  14  7.081420E+03 -8.048928E+05 -4.200784E+04  2.661864E+03 -3.629293E-09  5.749905E-09
       123  15 -1.856693E+04 -8.124802E+05 -5.626408E+04  3.948146E+04 -6.810034E-09 -1.918007E-09
       123  16  2.143193E+04 -6.565468E+05 -1.627857E+04  3.318045E+04 -3.380875E-09 -3.963912E-09
       123  17  2.834495E+04 -7.195371E+05 -2.111683E+04  2.655067E+03  1.962906E-09  1.596846E-09
       123  18 -1.487687E+04 -7.976764E+05 -5.256174E+04  4.576656E+04 -5.850342E-09 -4.211714E-10
       123  19 -5.628880E+04 -9.683907E+05 -9.259615E+04  4.577900E+04  3.652463E+03  1.994275E+04
       123  20 -1.418264E+04 -8.902419E+05 -6.289937E+04  2.668660E+03  1.991365E+03 -1.937584E+03
       123  21 -2.225671E+04 -8.272832E+05 -5.996534E+04  3.319652E+04  1.738192E+01 -2.382021E+04
       123  22 -1.742754E+04 -8.124796E+05 -5.443605E+04  3.948055E+04  3.651623E+03  2.049509E+04
       123  23  7.081425E+03 -8.048928E+05 -4.200783E+04  2.661862E+03  1.990679E+03 -1.276366E+03
       123  24 -1.856679E+04 -8.124797E+05 -5.626308E+04  3.948146E+04  1.643777E+01 -2.304765E+04
       123  25  2.143207E+04 -6.565463E+05 -1.627771E+04  3.318051E+04  3.650772E+03  2.104757E+04
       123  26  2.834495E+04 -7.195371E+05 -2.111682E+04  2.655066E+03  1.989992E+03 -6.150574E+02
       123  27 -1.487673E+04 -7.976759E+05 -5.256081E+04  4.576656E+04  1.550930E+01 -2.227507E+04
       124   1  3.735713E+04 -6.896101E+05 -3.066388E+04  5.617641E+04  2.493790E+03  3.558615E+04
       124   2  7.929627E+04 -5.909205E+05 -3.910049E+04 -7.118945E+03  5.116797E+03  8.141512E+04
       124   3 -8.394628E+04 -5.491922E+05 -1.286160E+05  2.627067E+03  1.857630E+03  1.272429E+05
       124   4  4.428863E+03 -8.218450E+05 -6.315072E+04  3.941746E+04  2.494757E+03  3.356177E+04
       124   5  2.890570E+04 -7.931961E+05 -8.849403E+04  2.795388E+03  5.118099E+03  8.149148E+04
       124   6 -1.522039E+05 -8.219036E+05 -1.963984E+05  3.921760E+04  1.862362E+03  1.294146E+05
       124   7 -2.849964E+04 -9.540632E+05 -9.563868E+04  2.266209E+04  2.495833E+03  3.153783E+04
       124   8 -2.148753E+04 -9.954341E+05 -1.378905E+05  1.270649E+04  5.119403E+03  8.156780E+04
       124   9 -2.204622E+05 -1.094544E+06 -2.641857E+05  7.579205E+04  1.867352E+03  1.315854E+05
       124  10  3.735679E+04 -6.896115E+05 -3.066627E+04  5.617634E+04 -2.809130E-09 -1.349989E-09
       124  11  7.929446E+04 -5.909276E+05 -3.911301E+04 -7.119281E+03 -8.826185E-11  1.301838E-09
       124  12 -8.395064E+04 -5.492096E+05 -1.286465E+05  2.626876E+03  3.621224E-10 -1.106205E-09
       124  13  4.428554E+03 -8.218462E+05 -6.315285E+04  3.941739E+04 -2.259551E-09 -2.125722E-09
       124  14  2.890389E+04 -7.932032E+05 -8.850657E+04  2.795052E+03  1.196152E-10  6.667670E-09
       124  15 -1.522085E+05 -8.219216E+05 -1.964299E+05  3.921740E+04 -1.281930E-10  1.706493E-10
       124  16 -2.849992E+04 -9.540643E+05 -9.564056E+04  2.266203E+04 -4.008962E-09 -2.079409E-09
       124  17 -2.148934E+04 -9.954413E+05 -1.379031E+05  1.270615E+04  3.567427E-09  2.767001E-09
       124  18 -2.204669E+05 -1.094563E+06 -2.642183E+05  7.579185E+04  8.044058E-10 -5.322193E-11
       124  19  3.735713E+04 -6.896101E+05 -3.066388E+04  5.617641E+04 -2.493790E+03 -3.558615E+04
       124  20  7.929627E+04 -5.909205E+05 -3.910049E+04 -7.118945E+03 -5.116797E+03 -8.141512E+04
       124  21 -8.394628E+04 -5.491922E+05 -1.286160E+05  2.627067E+03 -1.857630E+03 -1.272429E+05
       124  22  4.428863E+03 -8.218450E+05 -6.315072E+04  3.941746E+04 -2.494757E+03 -3.356177E+04
       124  23  2.890570E+04 -7.931961E+05 -8.849403E+04  2.795388E+03 -5.118099E+03 -8.149148E+04
       124  24 -1.522039E+05 -8.219036E+05 -1.963984E+05  3.921760E+04 -1.862362E+03 -1.294146E+05
       124  25 -2.849964E+04 -9.540632E+05 -9.563868E+04  2.266209E+04 -2.495833E+03 -3.153783E+04
       124  26 -2.148753E+04 -9.954341E+05 -1.378905E+05  1.270649E+04 -5.119403E+03 -8.156780E+04
       124  27 -2.204622E+05 -1.094544E+06 -2.641857E+05  7.579205E+04 -1.867352E+03 -1.315854E+05
       125   1  4.401326E+05  1.485096E+05  9.192029E+04  1.621718E+05  4.760651E+04  1.706702E+04
       125   2  4.240453E+05  7.401029E+04  4.633180E+04  1.643982E+05  3.059096E+04  8.953236E+03
       125   3  4.290281E+05  6.904259E+04  3.139613E+04  1.561775E+05  1.286865E+04  2.713799E+03
       125   4  3.808583E+05  1.086446E+05  7.240278E+04  1.280868E+05  4.629793E+04  1.657165E+04
       125   5  3.666273E+05  4.727652E+04  3.038064E+04  1.433870E+05  3.029495E+04  8.841223E+03
       125   6  3.732681E+05  5.524242E+04  1.821145E+04  1.482395E+05  1.358498E+04  2.984271E+03
       125   7  3.215888E+05  6.878327E+04  5.288519E+04  9.400572E+04  4.498950E+04  1.607644E+04
       125   8  3.092127E+05  2.054357E+04  1.442922E+04  1.223778E+05  2.999897E+04  8.729226E+03
       125   9  3.175110E+05  4.144211E+04  5.026527E+03  1.403019E+05  1.430125E+04  3.254739E+03
       125  10  4.401301E+05  1.485087E+05  9.191549E+04  1.621712E+05  1.186092E-09  4.369299E-09
       125  11  4.240443E+05  7.400995E+04  4.632989E+04  1.643980E+05  3.676026E-09  8.360180E-09
       125  12  4.290279E+05  6.904253E+04  3.139580E+04  1.561775E+05  4.835731E-09 -3.993424E-09
       125  13  3.808560E+05  1.086438E+05  7.239824E+04  1.280861E+05  6.967111E-11 -4.410437E-09
       125  14  3.666263E+05  4.727619E+04  3.037877E+04  1.433868E+05  1.375956E-09 -5.939469E-09
       125  15  3.732679E+05  5.524236E+04  1.821108E+04  1.482395E+05 -1.597325E-09 -3.982995E-09
       125  16  3.215866E+05  6.878245E+04  5.288090E+04  9.400514E+04 -7.162289E-11  1.223265E-09
       125  17  3.092118E+05  2.054325E+04  1.442739E+04  1.223776E+05 -4.235435E-09 -6.790718E-09
       125  18  3.175108E+05  4.144204E+04  5.026123E+03  1.403019E+05 -4.048300E-09  1.669554E-09
       125  19  4.401326E+05  1.485096E+05  9.192029E+04  1.621718E+05 -4.760651E+04 -1.706702E+04
       125  20  4.240453E+05  7.401029E+04  4.633180E+04  1.643982E+05 -3.059096E+04 -8.953236E+03
       125  21  4.290281E+05  6.904259E+04  3.139613E+04  1.561775E+05 -1.286865E+04 -2.713799E+03
       125  22  3.808583E+05  1.086446E+05  7.240278E+04  1.280868E+05 -4.629793E+04 -1.657165E+04
       125  23  3.666273E+05  4.727652E+04  3.038064E+04  1.433870E+05 -3.029495E+04 -8.841223E+03
       125  24  3.732681E+05  5.524242E+04  1.821145E+04  1.482395E+05 -1.358498E+04 -2.984271E+03
       125  25  3.215888E+05  6.878327E+04  5.288519E+04  9.400572E+04 -4.498950E+04 -1.607644E+04
       125  26  3.092127E+05  2.054357E+04  1.442922E+04  1.223778E+05 -2.999897E+04 -8.729226E+03
       125  27  3.175110E+05  4.144211E+04  5.026527E+03  1.403019E+05 -1.430125E+04 -3.254739E+03
       126   1  4.070300E+05  7.763737E+04  2.449898E+04  1.555383E+05  1.067883E+04  2.509797E+03
       126   2  3.981346E+05  6.420676E+04  1.412676E+04  1.503937E+05  6.762774E+03  1.435060E+03
       126   3  3.867701E+05  6.265151E+04  8.333225E+03  1.498073E+05  2.798207E+03  4.891306E+02
       126   4  3.709242E+05  6.247811E+04  1.476215E+04  1.440243E+05  1.083410E+04  2.568352E+03
       126   5  3.717876E+05  5.388669E+04  7.172526E+03  1.427496E+05  6.987736E+03  1.519949E+03
       126   6  3.701681E+05  5.715696E+04  4.106596E+03  1.460331E+05  3.092804E+03  6.003160E+02
       126   7  3.348197E+05  4.731904E+04  5.025202E+03  1.325109E+05  1.098936E+04  2.626902E+03
       126   8  3.454413E+05  4.356670E+04  2.182445E+02  1.351059E+05  7.212688E+03  1.604833E+03
       126   9  3.535665E+05  5.166243E+04 -1.200400E+02  1.422590E+05  3.387391E+03  7.114987E+02
       126  10  4.070299E+05  7.763733E+04  2.449875E+04  1.555382E+05 -1.416917E-09 -4.954324E-09
       126  11  3.981346E+05  6.420675E+04  1.412667E+04  1.503937E+05  4.128241E-09  7.863989E-09
       126  12  3.867701E+05  6.265150E+04  8.333210E+03  1.498073E+05  8.544775E-09  1.161035E-08
       126  13  3.709241E+05  6.247808E+04  1.476192E+04  1.440242E+05 -3.044226E-09  5.455896E-11
       126  14  3.717876E+05  5.388668E+04  7.172430E+03  1.427496E+05 -3.798187E-09 -1.035041E-08
       126  15  3.701681E+05  5.715696E+04  4.106578E+03  1.460331E+05  1.536792E-09  6.269199E-09
       126  16  3.348195E+05  4.731900E+04  5.024962E+03  1.325109E+05  5.548014E-10  3.587596E-09
       126  17  3.454412E+05  4.356668E+04  2.181420E+02  1.351059E+05 -6.752080E-09 -1.018464E-08
       126  18  3.535665E+05  5.166243E+04 -1.200625E+02  1.422590E+05 -7.524499E-09 -1.191811E-09
       126  19  4.070300E+05  7.763737E+04  2.449898E+04  1.555383E+05 -1.067883E+04 -2.509797E+03
       126  20  3.981346E+05  6.420676E+04  1.412676E+04  1.503937E+05 -6.762774E+03 -1.435060E+03
       126  21  3.867701E+05  6.265151E+04  8.333225E+03  1.498073E+05 -2.798207E+03 -4.891306E+02
       126  22  3.709242E+05  6.247811E+04  1.476215E+04  1.440243E+05 -1.083410E+04 -2.568352E+03
       126  23  3.717876E+05  5.388669E+04  7.172526E+03  1.427496E+05 -6.987736E+03 -1.519949E+03
       126  24  3.701681E+05  5.715696E+04  4.106596E+03  1.460331E+05 -3.092804E+03 -6.003160E+02
       126  25  3.348197E+05  4.731904E+04  5.025202E+03  1.325109E+05 -1.098936E+04 -2.626902E+03
       126  26  3.454413E+05  4.356670E+04  2.182445E+02  1.351059E+05 -7.212688E+03 -1.604833E+03
       126  27  3.535665E+05  5.166243E+04 -1.200400E+02  1.422590E+05 -3.387391E+03 -7.114987E+02
       127   1  3.726187E+05  5.899672E+04  3.892143E+03  1.464673E+05  2.135253E+03  5.838635E+02
       127   2  3.645897E+05  5.166723E+04 -3.432998E+02  1.405845E+05  1.097719E+03  7.391158E+02
       127   3  3.515292E+05  5.038091E+04 -3.765410E+03  1.406880E+05  5.675050E+01  9.035068E+02
       127   4  3.698857E+05  5.785956E+04  3.193187E+03  1.455972E+05  2.391074E+03  6.804121E+02
       127   5  3.723649E+05  5.457822E+04  1.683730E+03  1.427023E+05  1.358475E+03  8.375257E+02
       127   6  3.698118E+05  5.733916E+04  9.837751E+02  1.457937E+05  3.224278E+02  1.003772E+03
       127   7  3.671527E+05  5.672240E+04  2.494228E+03  1.447272E+05  2.646894E+03  7.769605E+02
       127   8  3.801402E+05  5.748922E+04  3.710758E+03  1.448202E+05  1.619235E+03  9.359370E+02
       127   9  3.880947E+05  6.429744E+04  5.732933E+03  1.508996E+05  5.881137E+02  1.104041E+03
       127  10  3.726187E+05  5.899672E+04  3.892134E+03  1.464673E+05  1.483542E-09  3.152467E-09
       127  11  3.645897E+05  5.166723E+04 -3.433031E+02  1.405845E+05  1.517142E-09 -4.945912E-09
       127  12  3.515292E+05  5.038091E+04 -3.765412E+03  1.406880E+05 -7.920288E-09  2.471998E-10
       127  13  3.698857E+05  5.785956E+04  3.193176E+03  1.455972E+05 -2.179741E-09  2.348636E-09
       127  14  3.723649E+05  5.457822E+04  1.683725E+03  1.427023E+05  4.459549E-09 -3.308096E-09
       127  15  3.698118E+05  5.733916E+04  9.837730E+02  1.457937E+05  2.591617E-10  3.114562E-09
       127  16  3.671527E+05  5.672240E+04  2.494214E+03  1.447272E+05 -2.205649E-10 -1.943339E-09
       127  17  3.801402E+05  5.748922E+04  3.710751E+03  1.448202E+05 -1.955916E-09  3.816748E-09
       127  18  3.880947E+05  6.429744E+04  5.732931E+03  1.508996E+05 -5.263902E-09  1.156909E-08
       127  19  3.726187E+05  5.899672E+04  3.892143E+03  1.464673E+05 -2.135253E+03 -5.838635E+02
       127  20  3.645897E+05  5.166723E+04 -3.432998E+02  1.405845E+05 -1.097719E+03 -7.391158E+02
       127  21  3.515292E+05  5.038091E+04 -3.765410E+03  1.406880E+05 -5.675050E+01 -9.035068E+02
       127  22  3.698857E+05  5.785956E+04  3.193187E+03  1.455972E+05 -2.391074E+03 -6.804121E+02
       127  23  3.723649E+05  5.457822E+04  1.683730E+03  1.427023E+05 -1.358475E+03 -8.375257E+02
       127  24  3.698118E+05  5.733916E+04  9.837751E+02  1.457937E+05 -3.224278E+02 -1.003772E+03
       127  25  3.671527E+05  5.672240E+04  2.494228E+03  1.447272E+05 -2.646894E+03 -7.769605E+02
       127  26  3.801402E+05  5.748922E+04  3.710758E+03  1.448202E+05 -1.619235E+03 -9.359370E+02
       127  27  3.880947E+05  6.429744E+04  5.732933E+03  1.508996E+05 -5.881137E+02 -1.104041E+03
       128   1  3.381805E+05  4.551586E+04 -7.503790E+03  1.370924E+05 -1.937161E+02  1.135218E+03
       128   2  3.302298E+05  3.875678E+04 -1.049766E+04  1.311100E+05 -6.405925E+02  1.525005E+03
       128   3  3.169364E+05  3.748375E+04 -1.327576E+04  1.312663E+05 -1.088082E+03  1.916588E+03
       128   4  3.697701E+05  5.740877E+04  7.825709E+02  1.457546E+05  6.957836E+01  1.234579E+03
       128   5  3.724384E+05  5.464420E+04  5.223071E+02  1.426934E+05 -3.763510E+02  1.624709E+03
       128   6  3.697637E+05  5.736542E+04  4.770812E+02  1.457708E+05 -8.228991E+02  2.016635E+03
       128   7  4.013606E+05  6.930172E+04  9.068821E+03  1.544171E+05  3.328867E+02  1.333944E+03
       128   8  4.146487E+05  7.053174E+04  1.154213E+04  1.542775E+05 -1.120898E+02  1.724421E+03
       128   9  4.225940E+05  7.724734E+04  1.422973E+04  1.602765E+05 -5.576911E+02  2.116691E+03
       128  10  3.381805E+05  4.551585E+04 -7.503793E+03  1.370924E+05  4.781612E-09  3.480853E-09
       128  11  3.302298E+05  3.875678E+04 -1.049767E+04  1.311100E+05 -5.316972E-09 -4.696611E-09
       128  12  3.169364E+05  3.748374E+04 -1.327577E+04  1.312663E+05 -7.395381E-09 -3.947172E-09
       128  13  3.697701E+05  5.740877E+04  7.825681E+02  1.457546E+05 -2.158009E-09  4.329946E-09
       128  14  3.724384E+05  5.464420E+04  5.223019E+02  1.426934E+05 -1.025937E-09  1.000529E-08
       128  15  3.697637E+05  5.736542E+04  4.770723E+02  1.457708E+05 -1.739165E-09 -4.746320E-09
       128  16  4.013606E+05  6.930171E+04  9.068817E+03  1.544171E+05 -9.910417E-09  6.026641E-09
       128  17  4.146487E+05  7.053173E+04  1.154212E+04  1.542775E+05 -1.111934E-08  2.936673E-09
       128  18  4.225940E+05  7.724734E+04  1.422972E+04  1.602765E+05 -7.029927E-10  1.191920E-09
       128  19  3.381805E+05  4.551586E+04 -7.503790E+03  1.370924E+05  1.937161E+02 -1.135218E+03
       128  20  3.302298E+05  3.875678E+04 -1.049766E+04  1.311100E+05  6.405925E+02 -1.525005E+03
       128  21  3.169364E+05  3.748375E+04 -1.327576E+04  1.312663E+05  1.088082E+03 -1.916588E+03
       128  22  3.697701E+05  5.740877E+04  7.825709E+02  1.457546E+05 -6.957836E+01 -1.234579E+03
       128  23  3.724384E+05  5.464420E+04  5.223071E+02  1.426934E+05  3.763510E+02 -1.624709E+03
       128  24  3.697637E+05  5.736542E+04  4.770812E+02  1.457708E+05  8.228991E+02 -2.016635E+03
       128  25  4.013606E+05  6.930172E+04  9.068821E+03  1.544171E+05 -3.328867E+02 -1.333944E+03
       128  26  4.146487E+05  7.053174E+04  1.154213E+04  1.542775E+05  1.120898E+02 -1.724421E+03
       128  27  4.225940E+05  7.724734E+04  1.422973E+04  1.602765E+05  5.576911E+02 -2.116691E+03
       129   1  3.035844E+05  3.247762E+04 -1.679955E+04  1.276496E+05 -1.279045E+03  2.171823E+03
       129   2  2.955543E+05  2.569519E+04 -1.934397E+04  1.215906E+05 -1.830327E+03  2.527391E+03
       129   3  2.821680E+05  2.449067E+04 -2.158359E+04  1.217236E+05 -2.381807E+03  2.883793E+03
       129   4  3.697586E+05  5.737344E+04  5.140903E+02  1.457871E+05 -1.013085E+03  2.272151E+03
       129   5  3.724420E+05  5.462258E+04  7.279875E+02  1.426768E+05 -1.563976E+03  2.627842E+03
       129   6  3.697690E+05  5.744948E+04  1.246333E+03  1.457583E+05 -2.115072E+03  2.984364E+03
       129   7  4.359370E+05  8.226953E+04  1.782736E+04  1.639265E+05 -7.470931E+02  2.372491E+03
       129   8  4.493353E+05  8.355030E+04  2.079941E+04  1.637653E+05 -1.297590E+03  2.728306E+03
       129   9  4.573772E+05  9.040867E+04  2.407553E+04  1.697960E+05 -1.848297E+03  3.084951E+03
       129  10  3.035843E+05  3.247761E+04 -1.679956E+04  1.276496E+05 -2.706883E-09 -3.954733E-09
       129  11  2.955543E+05  2.569518E+04 -1.934398E+04  1.215906E+05  1.437638E-09 -3.259795E-09
       129  12  2.821680E+05  2.449066E+04 -2.158361E+04  1.217236E+05 -2.614934E-09 -1.924272E-09
       129  13  3.697586E+05  5.737343E+04  5.140787E+02  1.457872E+05  3.689754E-10 -1.966405E-10
       129  14  3.724420E+05  5.462257E+04  7.279699E+02  1.426768E+05  2.373083E-09  7.042006E-10
       129  15  3.697690E+05  5.744947E+04  1.246308E+03  1.457583E+05  7.549368E-09  5.226402E-09
       129  16  4.359370E+05  8.226952E+04  1.782735E+04  1.639265E+05 -8.612866E-10 -7.328166E-10
       129  17  4.493353E+05  8.355029E+04  2.079939E+04  1.637653E+05  1.936929E-09 -4.549748E-09
       129  18  4.573772E+05  9.040866E+04  2.407550E+04  1.697960E+05  3.612383E-09 -2.868311E-09
       129  19  3.035844E+05  3.247762E+04 -1.679955E+04  1.276496E+05  1.279045E+03 -2.171823E+03
       129  20  2.955543E+05  2.569519E+04 -1.934397E+04  1.215906E+05  1.830327E+03 -2.527391E+03
       129  21  2.821680E+05  2.449067E+04 -2.158359E+04  1.217236E+05  2.381807E+03 -2.883793E+03
       129  22  3.697586E+05  5.737344E+04  5.140903E+02  1.457871E+05  1.013085E+03 -2.272151E+03
       129  23  3.724420E+05  5.462258E+04  7.279875E+02  1.426768E+05  1.563976E+03 -2.627842E+03
       129  24  3.697690E+05  5.744948E+04  1.246333E+03  1.457583E+05  2.115072E+03 -2.984364E+03
       129  25  4.359370E+05  8.226953E+04  1.782736E+04  1.639265E+05  7.470931E+02 -2.372491E+03
       129  26  4.493353E+05  8.355030E+04  2.079941E+04  1.637653E+05  1.297590E+03 -2.728306E+03
       129  27  4.573772E+05  9.040867E+04  2.407553E+04  1.697960E+05  1.848297E+03 -3.084951E+03
       130   1  2.686172E+05  1.941623E+04 -2.481907E+04  1.182495E+05 -2.734865E+03  3.085167E+03
       130   2  2.603817E+05  1.232882E+04 -2.639328E+04  1.119291E+05 -4.349004E+03  3.046489E+03
       130   3  2.472296E+05  1.189353E+04 -2.660336E+04  1.116767E+05 -5.955596E+03  2.988173E+03
       130   4  3.698192E+05  5.735685E+04  1.613696E+03  1.458555E+05 -2.460408E+03  3.188631E+03
       130   5  3.723389E+05  5.447221E+04  2.838302E+03  1.426546E+05 -4.085410E+03  3.145822E+03
       130   6  3.699441E+05  5.824175E+04  5.435517E+03  1.455215E+05 -5.702891E+03  3.083365E+03
       130   7  4.710315E+05  9.529821E+04  2.804569E+04  1.734657E+05 -2.185901E+03  3.292114E+03
       130   8  4.843084E+05  9.661645E+04  3.206887E+04  1.733850E+05 -3.821764E+03  3.245174E+03
       130   9  4.926732E+05  1.045910E+05  3.747313E+04  1.793723E+05 -5.450130E+03  3.178577E+03
       130  10  2.686172E+05  1.941622E+04 -2.481910E+04  1.182495E+05  6.090487E-09  6.462399E-09
       130  11  2.603816E+05  1.232881E+04 -2.639333E+04  1.119291E+05  3.472858E-09  3.391066E-09
       130  12  2.472295E+05  1.189351E+04 -2.660344E+04  1.116767E+05 -1.500595E-09  1.042302E-08
       130  13  3.698192E+05  5.735684E+04  1.613666E+03  1.458555E+05  3.616341E-09  5.607207E-10
       130  14  3.723388E+05  5.447219E+04  2.838252E+03  1.426546E+05  6.601075E-09  1.053786E-08
       130  15  3.699440E+05  5.824173E+04  5.435438E+03  1.455215E+05 -2.259865E-09 -1.331890E-09
       130  16  4.710315E+05  9.529820E+04  2.804566E+04  1.734657E+05 -2.103825E-09 -2.180775E-09
       130  17  4.843083E+05  9.661644E+04  3.206883E+04  1.733851E+05 -3.484591E-10 -4.281712E-09
       130  18  4.926731E+05  1.045909E+05  3.747305E+04  1.793723E+05  4.915593E-09 -6.424650E-09
       130  19  2.686172E+05  1.941623E+04 -2.481907E+04  1.182495E+05  2.734865E+03 -3.085167E+03
       130  20  2.603817E+05  1.232882E+04 -2.639328E+04  1.119291E+05  4.349004E+03 -3.046489E+03
       130  21  2.472296E+05  1.189353E+04 -2.660336E+04  1.116767E+05  5.955596E+03 -2.988173E+03
       130  22  3.698192E+05  5.735685E+04  1.613696E+03  1.458555E+05  2.460408E+03 -3.188631E+03
       130  23  3.723389E+05  5.447221E+04  2.838302E+03  1.426546E+05  4.085410E+03 -3.145822E+03
       130  24  3.699441E+05  5.824175E+04  5.435517E+03  1.455215E+05  5.702891E+03 -3.083365E+03
       130  25  4.710315E+05  9.529821E+04  2.804569E+04  1.734657E+05  2.185901E+03 -3.292114E+03
       130  26  4.843084E+05  9.661645E+04  3.206887E+04  1.733850E+05  3.821764E+03 -3.245174E+03
       130  27  4.926732E+05  1.045910E+05  3.747313E+04  1.793723E+05  5.450130E+03 -3.178577E+03
       131   1  2.328869E+05  6.630644E+03 -2.868296E+04  1.099265E+05 -7.186798E+03  2.913442E+03
       131   2  2.242077E+05 -2.768098E+03 -2.629883E+04  1.016683E+05 -1.353369E+04  1.083752E+03
       131   3  2.148556E+05  4.496162E+03 -1.632237E+04  9.715511E+04 -1.975638E+04 -1.074889E+03
       131   4  3.704094E+05  5.706306E+04  7.002293E+03  1.462902E+05 -6.833085E+03  3.046695E+03
       131   5  3.713722E+05  5.326045E+04  1.224417E+04  1.427042E+05 -1.335895E+04  1.149475E+03
       131   6  3.716964E+05  6.615433E+04  2.521873E+04  1.428632E+05 -1.976076E+04 -1.076752E+03
       131   7  5.079498E+05  1.074963E+05  4.268586E+04  1.826609E+05 -6.479288E+03  3.179979E+03
       131   8  5.185577E+05  1.092905E+05  5.078532E+04  1.837490E+05 -1.318416E+04  1.215216E+03
       131   9  5.285616E+05  1.278149E+05  6.675783E+04  1.885820E+05 -1.976513E+04 -1.078616E+03
       131  10  2.328868E+05  6.630622E+03 -2.868308E+04  1.099265E+05 -1.312890E-09  7.045871E-09
       131  11  2.242075E+05 -2.768148E+03 -2.629917E+04  1.016683E+05 -1.295534E-09  1.043589E-09
       131  12  2.148552E+05  4.496056E+03 -1.632311E+04  9.715510E+04  3.752168E-09  5.586727E-09
       131  13  3.704094E+05  5.706304E+04  7.002188E+03  1.462902E+05 -2.442933E-09 -1.388331E-09
       131  14  3.713720E+05  5.326040E+04  1.224383E+04  1.427042E+05 -4.392261E-09  4.569378E-09
       131  15  3.716960E+05  6.615423E+04  2.521799E+04  1.428632E+05 -1.685995E-09  2.251264E-09
       131  16  5.079498E+05  1.074962E+05  4.268576E+04  1.826609E+05  1.838247E-09  1.186962E-09
       131  17  5.185575E+05  1.092904E+05  5.078499E+04  1.837490E+05 -3.609397E-09 -1.039773E-09
       131  18  5.285612E+05  1.278147E+05  6.675710E+04  1.885820E+05 -5.359486E-10 -1.127059E-09
       131  19  2.328869E+05  6.630644E+03 -2.868296E+04  1.099265E+05  7.186798E+03 -2.913442E+03
       131  20  2.242077E+05 -2.768098E+03 -2.629883E+04  1.016683E+05  1.353369E+04 -1.083752E+03
       131  21  2.148556E+05  4.496162E+03 -1.632237E+04  9.715511E+04  1.975638E+04  1.074889E+03
       131  22  3.704094E+05  5.706306E+04  7.002293E+03  1.462902E+05  6.833085E+03 -3.046695E+03
       131  23  3.713722E+05  5.326045E+04  1.224417E+04  1.427042E+05  1.335895E+04 -1.149475E+03
       131  24  3.716964E+05  6.615433E+04  2.521873E+04  1.428632E+05  1.976076E+04  1.076752E+03
       131  25  5.079498E+05  1.074963E+05  4.268586E+04  1.826609E+05  6.479288E+03 -3.179979E+03
       131  26  5.185577E+05  1.092905E+05  5.078532E+04  1.837490E+05  1.318416E+04 -1.215216E+03
       131  27  5.285616E+05  1.278149E+05  6.675783E+04  1.885820E+05  1.976513E+04  1.078616E+03
       132   1  1.939604E+05 -2.264916E+03 -1.391256E+04  1.128570E+05 -2.591969E+04 -2.288453E+03
       132   2  1.848764E+05 -3.357342E+04  3.897741E+03  8.613703E+04 -5.170917E+04 -1.169333E+04
       132   3  2.144867E+05  4.960481E+04  7.066649E+04  3.761760E+04 -7.568060E+04 -2.592547E+04
       132   4  3.757026E+05  5.379397E+04  3.111451E+04  1.500672E+05 -2.447665E+04 -1.744471E+03
       132   5  3.625638E+05  4.194918E+04  5.190497E+04  1.437774E+05 -5.287898E+04 -1.213485E+04
       132   6  3.886227E+05  1.450867E+05  1.237126E+05  1.156921E+05 -7.946330E+04 -2.735385E+04
       132   7  5.574773E+05  1.098527E+05  7.613927E+04  1.872861E+05 -2.303314E+04 -1.200384E+03
       132   8  5.402813E+05  1.174759E+05  9.990913E+04  2.014332E+05 -5.404914E+04 -1.257654E+04
       132   9  5.627882E+05  2.405810E+05  1.767554E+05  1.937888E+05 -8.324711E+04 -2.878310E+04
       132  10  1.939597E+05 -2.265102E+03 -1.391383E+04  1.128569E+05 -1.349984E-09  1.570022E-09
       132  11  1.848735E+05 -3.357429E+04  3.892462E+03  8.613655E+04  6.001372E-10 -3.678704E-09
       132  12  2.144803E+05  4.960255E+04  7.065447E+04  3.761602E+04 -1.055675E-10  3.959633E-09
       132  13  3.757020E+05  5.379380E+04  3.111338E+04  1.500672E+05 -2.002750E-09 -3.380869E-09
       132  14  3.625608E+05  4.194828E+04  5.189944E+04  1.437769E+05  6.404234E-10  4.181707E-09
       132  15  3.886157E+05  1.450842E+05  1.236994E+05  1.156903E+05  4.263346E-09  2.609573E-09
       132  16  5.574767E+05  1.098526E+05  7.613827E+04  1.872861E+05  7.311758E-10 -1.132220E-09
       132  17  5.402781E+05  1.174750E+05  9.990335E+04  2.014327E+05 -7.172225E-11 -2.040922E-09
       132  18  5.627806E+05  2.405783E+05  1.767408E+05  1.937869E+05  1.111167E-09  2.551684E-10
       132  19  1.939604E+05 -2.264916E+03 -1.391256E+04  1.128570E+05  2.591969E+04  2.288453E+03
       132  20  1.848764E+05 -3.357342E+04  3.897741E+03  8.613703E+04  5.170917E+04  1.169333E+04
       132  21  2.144867E+05  4.960481E+04  7.066649E+04  3.761760E+04  7.568060E+04  2.592547E+04
       132  22  3.757026E+05  5.379397E+04  3.111451E+04  1.500672E+05  2.447665E+04  1.744471E+03
       132  23  3.625638E+05  4.194918E+04  5.190497E+04  1.437774E+05  5.287898E+04  1.213485E+04
       132  24  3.886227E+05  1.450867E+05  1.237126E+05  1.156921E+05  7.946330E+04  2.735385E+04
       132  25  5.574773E+05  1.098527E+05  7.613927E+04  1.872861E+05  2.303314E+04  1.200384E+03
       132  26  5.402813E+05  1.174759E+05  9.990913E+04  2.014332E+05  5.404914E+04  1.257654E+04
       132  27  5.627882E+05  2.405810E+05  1.767554E+05  1.937888E+05  8.324711E+04  2.878310E+04
       133   1 -2.184267E+02 -5.008822E+05 -2.211372E+03 -1.316267E+02 -4.549395E+01  1.623793E+02
       133   2 -5.118681E+02 -5.022361E+05 -3.023353E+03  2.576302E+02 -8.889815E+01  1.380161E+03
       133   3 -1.392943E+03 -5.038985E+05 -4.776153E+03 -2.995567E+02 -1.542028E+02  2.597930E+03
       133   4 -1.008017E+01 -5.000361E+05 -2.017371E+03 -2.101735E+02 -4.551658E+01  1.809515E+02
       133   5  7.043351E+01 -4.998809E+05 -2.468292E+03  2.627872E+02 -8.893666E+01  1.411869E+03
       133   6 -4.389609E+02 -5.000364E+05 -3.869150E+03 -2.106946E+02 -1.542568E+02  2.642777E+03
       133   7  1.982664E+02 -4.991900E+05 -1.823369E+03 -2.887205E+02 -4.553922E+01  1.995239E+02
       133   8  6.527347E+02 -4.975256E+05 -1.913231E+03  2.679442E+02 -8.897518E+01  1.443577E+03
       133   9  5.150205E+02 -4.961743E+05 -2.962148E+03 -1.218318E+02 -1.543108E+02  2.687625E+03
       133  10 -2.184267E+02 -5.008822E+05 -2.211372E+03 -1.316267E+02 -2.769722E-09  2.302304E-09
       133  11 -5.118686E+02 -5.022361E+05 -3.023357E+03  2.576303E+02 -2.438039E-09 -2.995203E-09
       133  12 -1.392945E+03 -5.038985E+05 -4.776165E+03 -2.995564E+02 -1.439114E-09  9.520002E-10
       133  13 -1.008018E+01 -5.000361E+05 -2.017371E+03 -2.101735E+02  7.853764E-10  3.312409E-09
       133  14  7.043296E+01 -4.998809E+05 -2.468295E+03  2.627873E+02 -3.637919E-09 -2.529391E-10
       133  15 -4.389628E+02 -5.000364E+05 -3.869163E+03 -2.106942E+02  2.543677E-09  2.660493E-09
       133  16  1.982664E+02 -4.991900E+05 -1.823370E+03 -2.887204E+02  7.964939E-09  3.895911E-10
       133  17  6.527342E+02 -4.975256E+05 -1.913235E+03  2.679444E+02  2.327270E-09 -1.024744E-09
       133  18  5.150186E+02 -4.961743E+05 -2.962161E+03 -1.218315E+02  1.745594E-10 -5.413818E-10
       133  19 -2.184267E+02 -5.008822E+05 -2.211372E+03 -1.316267E+02  4.549395E+01 -1.623793E+02
       133  20 -5.118681E+02 -5.022361E+05 -3.023353E+03  2.576302E+02  8.889815E+01 -1.380161E+03
       133  21 -1.392943E+03 -5.038985E+05 -4.776153E+03 -2.995567E+02  1.542028E+02 -2.597930E+03
       133  22 -1.008017E+01 -5.000361E+05 -2.017371E+03 -2.101735E+02  4.551658E+01 -1.809515E+02
       133  23  7.043351E+01 -4.998809E+05 -2.468292E+03  2.627872E+02  8.893666E+01 -1.411869E+03
       133  24 -4.389609E+02 -5.000364E+05 -3.869150E+03 -2.106946E+02  1.542568E+02 -2.642777E+03
       133  25  1.982664E+02 -4.991900E+05 -1.823369E+03 -2.887205E+02  4.553922E+01 -1.995239E+02
       133  26  6.527347E+02 -4.975256E+05 -1.913231E+03  2.679442E+02  8.897518E+01 -1.443577E+03
       133  27  5.150205E+02 -4.961743E+05 -2.962148E+03 -1.218318E+02  1.543108E+02 -2.687625E+03
       134   1 -1.103177E+03 -5.059644E+05 -6.141688E+03  5.711581E+02 -1.997541E+02  3.366355E+03
       134   2 -1.146514E+03 -5.064616E+05 -9.626184E+03 -1.312199E+02 -2.683619E+02  7.431392E+03
       134   3 -7.113104E+03 -5.089724E+05 -1.724016E+04 -1.779772E+03 -3.188316E+02  1.149643E+04
       134   4  2.722336E+02 -5.004142E+05 -4.829306E+03 -2.083420E+02 -1.998112E+02  3.409998E+03
       134   5  5.960748E+02 -4.994093E+05 -7.963681E+03  2.615613E+02 -2.683966E+02  7.464192E+03
       134   6 -5.001417E+03 -5.004162E+05 -1.521996E+04 -2.147104E+02 -3.188286E+02  1.151839E+04
       134   7  1.647644E+03 -4.948639E+05 -3.516926E+03 -9.878490E+02 -1.998683E+02  3.453642E+03
       134   8  2.338661E+03 -4.923570E+05 -6.301181E+03  6.543469E+02 -2.684312E+02  7.496992E+03
       134   9 -2.889726E+03 -4.918600E+05 -1.319977E+04  1.350373E+03 -3.188256E+02  1.154036E+04
       134  10 -1.103180E+03 -5.059644E+05 -6.141709E+03  5.711586E+02  1.384359E-09  2.652917E-10
       134  11 -1.146529E+03 -5.064616E+05 -9.626288E+03 -1.312183E+02  2.727598E-09 -3.799292E-09
       134  12 -7.113140E+03 -5.089725E+05 -1.724041E+04 -1.779769E+03  1.818557E-09 -8.433845E-09
       134  13  2.722305E+02 -5.004142E+05 -4.829328E+03 -2.083414E+02 -9.197436E-10  1.061428E-09
       134  14  5.960597E+02 -4.994094E+05 -7.963786E+03  2.615629E+02 -8.587487E-10 -9.221821E-10
       134  15 -5.001453E+03 -5.004164E+05 -1.522021E+04 -2.147074E+02  5.627296E-10  1.123439E-09
       134  16  1.647641E+03 -4.948639E+05 -3.516949E+03 -9.878484E+02  3.214953E-09 -2.701692E-10
       134  17  2.338646E+03 -4.923571E+05 -6.301287E+03  6.543486E+02 -3.240542E-09  5.592289E-09
       134  18 -2.889762E+03 -4.918602E+05 -1.320002E+04  1.350376E+03 -2.735536E-09  1.165348E-08
       134  19 -1.103177E+03 -5.059644E+05 -6.141688E+03  5.711581E+02  1.997541E+02 -3.366355E+03
       134  20 -1.146514E+03 -5.064616E+05 -9.626184E+03 -1.312199E+02  2.683619E+02 -7.431392E+03
       134  21 -7.113104E+03 -5.089724E+05 -1.724016E+04 -1.779772E+03  3.188316E+02 -1.149643E+04
       134  22  2.722336E+02 -5.004142E+05 -4.829306E+03 -2.083420E+02  1.998112E+02 -3.409998E+03
       134  23  5.960748E+02 -4.994093E+05 -7.963681E+03  2.615613E+02  2.683966E+02 -7.464192E+03
       134  24 -5.001417E+03 -5.004162E+05 -1.521996E+04 -2.147104E+02  3.188286E+02 -1.151839E+04
       134  25  1.647644E+03 -4.948639E+05 -3.516926E+03 -9.878490E+02  1.998683E+02 -3.453642E+03
       134  26  2.338661E+03 -4.923570E+05 -6.301181E+03  6.543469E+02  2.684312E+02 -7.496992E+03
       134  27 -2.889726E+03 -4.918600E+05 -1.319977E+04  1.350373E+03  3.188256E+02 -1.154036E+04
       135   1  4.364960E+02 -5.142231E+05 -2.113616E+04  7.623922E+03 -4.030899E+02  1.424515E+04
       135   2  3.223574E+03 -5.066380E+05 -3.313059E+04 -5.729538E+03 -4.615467E+02  3.075577E+04
       135   3 -5.826389E+04 -5.172789E+05 -7.194914E+04 -2.005989E+04 -2.001306E+02  4.726656E+04
       135   4  2.984739E+03 -5.040089E+05 -1.872727E+04 -1.965534E+02 -4.034123E+02  1.436430E+04
       135   5  6.103659E+03 -4.949196E+05 -3.036869E+04  2.574913E+02 -4.611616E+02  3.068296E+04
       135   6 -5.501867E+04 -5.040229E+05 -6.870057E+04 -2.658165E+02 -1.983058E+02  4.700181E+04
       135   7  5.533204E+03 -4.937945E+05 -1.631835E+04 -8.017158E+03 -4.037377E+02  1.448346E+04
       135   8  8.983869E+03 -4.832009E+05 -2.760677E+04  6.244634E+03 -4.607779E+02  3.061014E+04
       135   9 -5.177200E+04 -4.907658E+05 -6.545180E+04  1.952868E+04 -1.964978E+02  4.673707E+04
       135  10  4.364413E+02 -5.142233E+05 -2.113654E+04  7.623926E+03 -4.621157E-10  5.803780E-09
       135  11  3.223319E+03 -5.066390E+05 -3.313237E+04 -5.729527E+03 -1.459267E-09  8.649881E-09
       135  12 -5.826449E+04 -5.172813E+05 -7.195334E+04 -2.005988E+04  1.804596E-09  2.368978E-09
       135  13  2.984683E+03 -5.040092E+05 -1.872766E+04 -1.965487E+02  3.702665E-09  1.092917E-09
       135  14  6.103405E+03 -4.949206E+05 -3.037046E+04  2.575027E+02  5.986450E-09  1.228306E-09
       135  15 -5.501927E+04 -5.040252E+05 -6.870473E+04 -2.658090E+02 -4.329877E-09  8.565709E-10
       135  16  5.533147E+03 -4.937948E+05 -1.631875E+04 -8.017154E+03 -3.356422E-10 -4.757757E-09
       135  17  8.983617E+03 -4.832019E+05 -2.760853E+04  6.244646E+03  1.678686E-09 -7.466498E-09
       135  18 -5.177258E+04 -4.907682E+05 -6.545591E+04  1.952869E+04  4.151415E-09 -1.815913E-10
       135  19  4.364960E+02 -5.142231E+05 -2.113616E+04  7.623922E+03  4.030899E+02 -1.424515E+04
       135  20  3.223574E+03 -5.066380E+05 -3.313059E+04 -5.729538E+03  4.615467E+02 -3.075577E+04
       135  21 -5.826389E+04 -5.172789E+05 -7.194914E+04 -2.005989E+04  2.001306E+02 -4.726656E+04
       135  22  2.984739E+03 -5.040089E+05 -1.872727E+04 -1.965534E+02  4.034123E+02 -1.436430E+04
       135  23  6.103659E+03 -4.949196E+05 -3.036869E+04  2.574913E+02  4.611616E+02 -3.068296E+04
       135  24 -5.501867E+04 -5.040229E+05 -6.870057E+04 -2.658165E+02  1.983058E+02 -4.700181E+04
       135  25  5.533204E+03 -4.937945E+05 -1.631835E+04 -8.017158E+03  4.037377E+02 -1.448346E+04
       135  26  8.983869E+03 -4.832009E+05 -2.760677E+04  6.244634E+03  4.607779E+02 -3.061014E+04
       135  27 -5.177200E+04 -4.907658E+05 -6.545180E+04  1.952868E+04  1.964978E+02 -4.673707E+04
       136   1 -8.168964E+06 -2.687914E+06 -1.419975E+06 -2.890446E+06 -4.766642E+05 -9.885356E+04
       136   2 -7.948672E+06 -2.365034E+06 -1.067226E+06 -2.810116E+06 -3.204218E+05  1.568289E+05
       136   3 -7.769214E+06 -2.232076E+06 -9.206389E+05 -2.744870E+06 -1.148231E+05  2.849033E+05
       136   4 -3.610470E+06 -8.490339E+05 -2.045920E+05 -1.526912E+06 -1.597153E+05  2.283947E+04
       136   5 -3.595577E+06 -6.928805E+05 -9.349777E+04 -1.549263E+06 -1.758714E+05  2.120149E+05
       136   6 -3.586461E+06 -6.914834E+05 -4.983054E+04 -1.586819E+06 -1.429647E+05  2.739478E+05
       136   7  9.686323E+05  9.919877E+05  1.009372E+06 -1.538973E+05  1.598211E+05  1.456489E+05
       136   8  7.769803E+05  9.811554E+05  8.791204E+05 -2.800514E+05 -3.020804E+04  2.676514E+05
       136   9  6.144938E+05  8.506070E+05  8.200618E+05 -4.214750E+05 -1.713140E+05  2.629160E+05
       136  10 -8.169214E+06 -2.687987E+06 -1.420426E+06 -2.890484E+06  1.413881E-10  4.343260E-09
       136  11 -7.948790E+06 -2.365088E+06 -1.067467E+06 -2.810076E+06 -2.615079E-09 -5.410808E-10
       136  12 -7.769250E+06 -2.232167E+06 -9.208158E+05 -2.744844E+06 -3.682137E-09 -3.422599E-09
       136  13 -3.610497E+06 -8.490413E+05 -2.046412E+05 -1.526909E+06  4.968526E-09 -4.287327E-10
       136  14 -3.595622E+06 -6.929369E+05 -9.364018E+04 -1.549233E+06  6.029951E-09  3.121030E-09
       136  15 -3.586503E+06 -6.915693E+05 -5.000962E+04 -1.586787E+06 -4.611508E-09  2.468439E-09
       136  16  9.685992E+05  9.919581E+05  1.009284E+06 -1.539160E+05 -2.188347E-09  7.789567E-10
       136  17  7.769602E+05  9.810783E+05  8.789843E+05 -2.800449E+05 -1.048961E-09 -2.429046E-09
       136  18  6.144438E+05  8.505251E+05  8.198771E+05 -4.214388E+05  2.702704E-09  7.600493E-09
       136  19 -8.168964E+06 -2.687914E+06 -1.419975E+06 -2.890446E+06  4.766642E+05  9.885356E+04
       136  20 -7.948672E+06 -2.365034E+06 -1.067226E+06 -2.810116E+06  3.204218E+05 -1.568289E+05
       136  21 -7.769214E+06 -2.232076E+06 -9.206389E+05 -2.744870E+06  1.148231E+05 -2.849033E+05
       136  22 -3.610470E+06 -8.490339E+05 -2.045920E+05 -1.526912E+06  1.597153E+05 -2.283947E+04
       136  23 -3.595577E+06 -6.928805E+05 -9.349777E+04 -1.549263E+06  1.758714E+05 -2.120149E+05
       136  24 -3.586461E+06 -6.914834E+05 -4.983054E+04 -1.586819E+06  1.429647E+05 -2.739478E+05
       136  25  9.686323E+05  9.919877E+05  1.009372E+06 -1.538973E+05 -1.598211E+05 -1.456489E+05
       136  26  7.769803E+05  9.811554E+05  8.791204E+05 -2.800514E+05  3.020804E+04 -2.676514E+05
       136  27  6.144938E+05  8.506070E+05  8.200618E+05 -4.214750E+05  1.713140E+05 -2.629160E+05
       137   1 -7.584416E+06 -2.190287E+06 -8.746690E+05 -2.708669E+06 -1.304634E+05  2.657043E+05
       137   2 -7.370913E+06 -2.065673E+06 -7.960364E+05 -2.613491E+06 -1.063495E+05  2.680973E+05
       137   3 -7.111371E+06 -1.996482E+06 -7.348710E+05 -2.571573E+06 -7.904114E+04  2.619735E+05
       137   4 -3.578637E+06 -6.992174E+05 -3.824084E+04 -1.583539E+06 -1.328129E+05  2.646154E+05
       137   5 -3.601900E+06 -6.687875E+05 -2.052787E+04 -1.558241E+06 -1.201571E+05  2.626693E+05
       137   6 -3.576863E+06 -6.914342E+05 -1.105649E+04 -1.586201E+06 -1.043268E+05  2.522310E+05
       137   7  4.437906E+05  7.933006E+05  7.973260E+05 -4.515981E+05 -1.351792E+05  2.635210E+05
       137   8  1.818735E+05  7.293706E+05  7.542430E+05 -4.969864E+05 -1.340565E+05  2.572073E+05
       137   9 -2.938683E+04  6.147108E+05  7.121147E+05 -5.955807E+05 -1.297694E+05  2.424297E+05
       137  10 -7.584453E+06 -2.190367E+06 -8.748333E+05 -2.708641E+06  3.874874E-09  1.616576E-09
       137  11 -7.370945E+06 -2.065753E+06 -7.961924E+05 -2.613468E+06 -1.341351E-09  9.959241E-10
       137  12 -7.111396E+06 -1.996557E+06 -7.350114E+05 -2.571556E+06 -9.334247E-09 -3.796371E-09
       137  13 -3.578675E+06 -6.992972E+05 -3.840524E+04 -1.583510E+06 -4.155726E-09 -2.898227E-09
       137  14 -3.601933E+06 -6.688653E+05 -2.068434E+04 -1.558215E+06  3.271886E-09 -3.032094E-09
       137  15 -3.576891E+06 -6.915053E+05 -1.119621E+04 -1.586180E+06 -1.873772E-09 -7.620658E-10
       137  16  4.437524E+05  7.932213E+05  7.971615E+05 -4.515695E+05 -5.052882E-09  3.088280E-09
       137  17  1.818366E+05  7.292949E+05  7.540852E+05 -4.969587E+05 -4.950834E-10  1.055837E-09
       137  18 -2.942060E+04  6.146433E+05  7.119729E+05 -5.955554E+05  8.394884E-09  5.322498E-09
       137  19 -7.584416E+06 -2.190287E+06 -8.746690E+05 -2.708669E+06  1.304634E+05 -2.657043E+05
       137  20 -7.370913E+06 -2.065673E+06 -7.960364E+05 -2.613491E+06  1.063495E+05 -2.680973E+05
       137  21 -7.111371E+06 -1.996482E+06 -7.348710E+05 -2.571573E+06  7.904114E+04 -2.619735E+05
       137  22 -3.578637E+06 -6.992174E+05 -3.824084E+04 -1.583539E+06  1.328129E+05 -2.646154E+05
       137  23 -3.601900E+06 -6.687875E+05 -2.052787E+04 -1.558241E+06  1.201571E+05 -2.626693E+05
       137  24 -3.576863E+06 -6.914342E+05 -1.105649E+04 -1.586201E+06  1.043268E+05 -2.522310E+05
       137  25  4.437906E+05  7.933006E+05  7.973260E+05 -4.515981E+05  1.351792E+05 -2.635210E+05
       137  26  1.818735E+05  7.293706E+05  7.542430E+05 -4.969864E+05  1.340565E+05 -2.572073E+05
       137  27 -2.938683E+04  6.147108E+05  7.121147E+05 -5.955807E+05  1.297694E+05 -2.424297E+05
       138   1 -6.941916E+06 -1.934178E+06 -6.962400E+05 -2.524827E+06 -7.465868E+04  2.511734E+05
       138   2 -6.719303E+06 -1.814387E+06 -6.414028E+05 -2.425260E+06 -6.429522E+04  2.344503E+05
       138   3 -6.444206E+06 -1.745685E+06 -5.887041E+05 -2.383255E+06 -5.369086E+04  2.169229E+05
       138   4 -3.575822E+06 -6.919935E+05 -8.386309E+03 -1.586655E+06 -9.860859E+04  2.419650E+05
       138   5 -3.601741E+06 -6.657583E+05 -4.828866E+03 -1.558053E+06 -8.931428E+04  2.248795E+05
       138   6 -3.575045E+06 -6.903852E+05 -2.560307E+03 -1.587019E+06 -7.978143E+04  2.069915E+05
       138   7 -1.979104E+05  5.512079E+05  6.789021E+05 -6.437099E+05 -1.227004E+05  2.327034E+05
       138   8 -4.740577E+05  4.837326E+05  6.312587E+05 -6.867643E+05 -1.144704E+05  2.152574E+05
       138   9 -6.973283E+05  3.656336E+05  5.831686E+05 -7.873407E+05 -1.060033E+05  1.970110E+05
       138  10 -6.941939E+06 -1.934247E+06 -6.963688E+05 -2.524812E+06 -6.922192E-08 -2.977728E-08
       138  11 -6.719322E+06 -1.814447E+06 -6.415136E+05 -2.425248E+06 -5.712255E-09 -7.604994E-09
       138  12 -6.444221E+06 -1.745736E+06 -5.887978E+05 -2.383246E+06  6.476524E-08  2.143998E-08
       138  13 -3.575848E+06 -6.920588E+05 -8.514344E+03 -1.586636E+06 -4.952042E-09 -9.830192E-10
       138  14 -3.601763E+06 -6.658146E+05 -4.938667E+03 -1.558036E+06 -5.233210E-09 -7.149048E-09
       138  15 -3.575064E+06 -6.904329E+05 -2.652597E+03 -1.587006E+06 -5.055943E-09 -2.330142E-09
       138  16 -1.979410E+05  5.511458E+05  6.787723E+05 -6.436869E+05  6.213041E-08  2.732513E-08
       138  17 -4.740841E+05  4.836794E+05  6.311472E+05 -6.867445E+05 -8.111060E-09 -7.227723E-09
       138  18 -6.973507E+05  3.655890E+05  5.830747E+05 -7.873239E+05 -6.897259E-08 -2.862694E-08
       138  19 -6.941916E+06 -1.934178E+06 -6.962400E+05 -2.524827E+06  7.465868E+04 -2.511734E+05
       138  20 -6.719303E+06 -1.814387E+06 -6.414028E+05 -2.425260E+06  6.429522E+04 -2.344503E+05
       138  21 -6.444206E+06 -1.745685E+06 -5.887041E+05 -2.383255E+06  5.369086E+04 -2.169229E+05
       138  22 -3.575822E+06 -6.919935E+05 -8.386309E+03 -1.586655E+06  9.860859E+04 -2.419650E+05
       138  23 -3.601741E+06 -6.657583E+05 -4.828866E+03 -1.558053E+06  8.931428E+04 -2.248795E+05
       138  24 -3.575045E+06 -6.903852E+05 -2.560307E+03 -1.587019E+06  7.978143E+04 -2.069915E+05
       138  25 -1.979104E+05  5.512079E+05  6.789021E+05 -6.437099E+05  1.227004E+05 -2.327034E+05
       138  26 -4.740577E+05  4.837326E+05  6.312587E+05 -6.867643E+05  1.144704E+05 -2.152574E+05
       138  27 -6.973283E+05  3.656336E+05  5.831686E+05 -7.873407E+05  1.060033E+05 -1.970110E+05
       139   1 -6.268903E+06 -1.680564E+06 -5.507903E+05 -2.334676E+06 -4.887273E+04  2.058864E+05
       139   2 -6.037407E+06 -1.557905E+06 -4.979017E+05 -2.232199E+06 -4.050039E+04  1.868052E+05
       139   3 -5.752093E+06 -1.487749E+06 -4.454306E+05 -2.189673E+06 -3.208627E+04  1.674725E+05
       139   4 -3.574542E+06 -6.905609E+05 -2.005998E+03 -1.587523E+06 -7.514093E+04  1.959119E+05
       139   5 -3.601149E+06 -6.637518E+05 -1.361369E+03 -1.557670E+06 -6.710135E+04  1.767407E+05
       139   6 -3.573951E+06 -6.893733E+05 -8.772206E+02 -1.587783E+06 -5.902064E+04  1.573182E+05
       139   7 -8.726562E+05  3.000670E+05  5.464095E+05 -8.373422E+05 -1.015329E+05  1.858911E+05
       139   8 -1.158725E+06  2.309158E+05  4.948822E+05 -8.806665E+05 -9.381575E+04  1.666337E+05
       139   9 -1.390868E+06  1.094157E+05  4.434435E+05 -9.839159E+05 -8.605780E+04  1.471255E+05
       139  10 -6.268917E+06 -1.680610E+06 -5.508743E+05 -2.334668E+06  1.914872E-11  7.800591E-10
       139  11 -6.037418E+06 -1.557943E+06 -4.979702E+05 -2.232192E+06 -8.252398E-09 -1.939496E-10
       139  12 -5.752101E+06 -1.487779E+06 -4.454852E+05 -2.189669E+06 -5.088737E-09 -6.429946E-11
       139  13 -3.574559E+06 -6.906035E+05 -2.088568E+03 -1.587511E+06 -2.723345E-09 -8.708321E-10
       139  14 -3.601162E+06 -6.637864E+05 -1.428397E+03 -1.557660E+06 -7.552891E-09 -9.135826E-10
       139  15 -3.573962E+06 -6.894008E+05 -9.301685E+02 -1.587776E+06 -3.949558E-09 -1.110523E-09
       139  16 -8.726765E+05  3.000273E+05  5.463254E+05 -8.373271E+05 -6.931221E-09 -2.967376E-09
       139  17 -1.158742E+06  2.308837E+05  4.948136E+05 -8.806539E+05 -9.859251E-09 -1.030401E-09
       139  18 -1.390881E+06  1.093906E+05  4.433890E+05 -9.839058E+05 -2.263068E-09  5.966862E-10
       139  19 -6.268903E+06 -1.680564E+06 -5.507903E+05 -2.334676E+06  4.887273E+04 -2.058864E+05
       139  20 -6.037407E+06 -1.557905E+06 -4.979017E+05 -2.232199E+06  4.050039E+04 -1.868052E+05
       139  21 -5.752093E+06 -1.487749E+06 -4.454306E+05 -2.189673E+06  3.208627E+04 -1.674725E+05
       139  22 -3.574542E+06 -6.905609E+05 -2.005998E+03 -1.587523E+06  7.514093E+04 -1.959119E+05
       139  23 -3.601149E+06 -6.637518E+05 -1.361369E+03 -1.557670E+06  6.710135E+04 -1.767407E+05
       139  24 -3.573951E+06 -6.893733E+05 -8.772206E+02 -1.587783E+06  5.902064E+04 -1.573182E+05
       139  25 -8.726562E+05  3.000670E+05  5.464095E+05 -8.373422E+05  1.015329E+05 -1.858911E+05
       139  26 -1.158725E+06  2.309158E+05  4.948822E+05 -8.806665E+05  9.381575E+04 -1.666337E+05
       139  27 -1.390868E+06  1.094157E+05  4.434435E+05 -9.839159E+05  8.605780E+04 -1.471255E+05
       140   1 -5.571231E+06 -1.421009E+06 -4.069675E+05 -2.139923E+06 -2.737681E+04  1.560221E+05
       140   2 -5.332835E+06 -1.296063E+06 -3.537323E+05 -2.035328E+06 -1.909570E+04  1.362690E+05
       140   3 -5.039956E+06 -1.224918E+06 -3.008885E+05 -1.992490E+06 -1.079620E+04  1.163635E+05
       140   4 -3.573619E+06 -6.894895E+05 -8.825545E+02 -1.588179E+06 -5.452137E+04  1.458074E+05
       140   5 -3.600617E+06 -6.621634E+05 -1.111058E+03 -1.557390E+06 -4.644296E+04  1.260039E+05
       140   6 -3.573176E+06 -6.885953E+05 -1.576473E+03 -1.588375E+06 -3.834666E+04  1.060484E+05
       140   7 -1.571862E+06  4.237247E+04  4.050052E+05 -1.034776E+06 -8.176065E+04  1.355573E+05
       140   8 -1.865291E+06 -2.801044E+04  3.513602E+05 -1.078210E+06 -7.387281E+04  1.157080E+05
       140   9 -2.104177E+06 -1.520948E+05  2.976264E+05 -1.183373E+06 -6.596739E+04  9.570698E+04
       140  10 -5.571238E+06 -1.421035E+06 -4.070146E+05 -2.139919E+06 -7.831427E-10  3.358583E-10
       140  11 -5.332840E+06 -1.296083E+06 -3.537678E+05 -2.035326E+06  1.191271E-09  1.023582E-09
       140  12 -5.039960E+06 -1.224932E+06 -3.009142E+05 -1.992489E+06 -2.174206E-11 -3.014412E-09
       140  13 -3.573627E+06 -6.895131E+05 -9.280006E+02 -1.588172E+06  1.092461E-10 -1.046606E-09
       140  14 -3.600623E+06 -6.621810E+05 -1.144879E+03 -1.557385E+06 -7.118120E-10 -9.281990E-10
       140  15 -3.573181E+06 -6.886078E+05 -1.600322E+03 -1.588372E+06  7.294878E-10  4.569883E-11
       140  16 -1.571874E+06  4.235100E+04  4.049582E+05 -1.034768E+06  7.773097E-10 -7.418378E-12
       140  17 -1.865300E+06 -2.802625E+04  3.513248E+05 -1.078203E+06 -1.252207E-09  5.332912E-12
       140  18 -2.104184E+06 -1.521058E+05  2.976010E+05 -1.183367E+06 -2.298951E-09 -2.494358E-09
       140  19 -5.571231E+06 -1.421009E+06 -4.069675E+05 -2.139923E+06  2.737681E+04 -1.560221E+05
       140  20 -5.332835E+06 -1.296063E+06 -3.537323E+05 -2.035328E+06  1.909570E+04 -1.362690E+05
       140  21 -5.039956E+06 -1.224918E+06 -3.008885E+05 -1.992490E+06  1.079620E+04 -1.163635E+05
       140  22 -3.573619E+06 -6.894895E+05 -8.825545E+02 -1.588179E+06  5.452137E+04 -1.458074E+05
       140  23 -3.600617E+06 -6.621634E+05 -1.111058E+03 -1.557390E+06  4.644296E+04 -1.260039E+05
       140  24 -3.573176E+06 -6.885953E+05 -1.576473E+03 -1.588375E+06  3.834666E+04 -1.060484E+05
       140  25 -1.571862E+06  4.237247E+04  4.050052E+05 -1.034776E+06  8.176065E+04 -1.355573E+05
       140  26 -1.865291E+06 -2.801044E+04  3.513602E+05 -1.078210E+06  7.387281E+04 -1.157080E+05
       140  27 -2.104177E+06 -1.520948E+05  2.976264E+05 -1.183373E+06  6.596739E+04 -9.570698E+04
       141   1 -4.855040E+06 -1.157050E+06 -2.621141E+05 -1.941905E+06 -5.914433E+03  1.047101E+05
       141   2 -4.611907E+06 -1.030655E+06 -2.093852E+05 -1.835883E+06  3.516485E+03  8.503379E+04
       141   3 -4.314089E+06 -9.591008E+05 -1.580009E+05 -1.792839E+06  1.292562E+04  6.535674E+04
       141   4 -3.573016E+06 -6.886674E+05 -2.068357E+03 -1.588667E+06 -3.362666E+04  9.434684E+04
       141   5 -3.600190E+06 -6.610319E+05 -3.657402E+03 -1.557205E+06 -2.419561E+04  7.468560E+04
       141   6 -3.572770E+06 -6.882415E+05 -6.597507E+03 -1.588745E+06 -1.478724E+04  5.502346E+04
       141   7 -2.289274E+06 -2.201403E+05  2.579016E+05 -1.234745E+06 -6.140105E+04  8.396041E+04
       141   8 -2.587406E+06 -2.913195E+05  2.020234E+05 -1.278101E+06 -5.195667E+04  6.431912E+04
       141   9 -2.830880E+06 -4.173351E+05  1.447813E+05 -1.384424E+06 -4.253590E+04  4.467681E+04
       141  10 -4.855043E+06 -1.157062E+06 -2.621348E+05 -1.941904E+06  1.693546E-09 -5.139434E-10
       141  11 -4.611908E+06 -1.030663E+06 -2.093988E+05 -1.835884E+06  2.462245E-10 -2.196477E-10
       141  12 -4.314091E+06 -9.591055E+05 -1.580092E+05 -1.792840E+06 -3.798725E-10  1.084002E-09
       141  13 -3.573019E+06 -6.886772E+05 -2.087172E+03 -1.588664E+06 -1.006086E-09 -3.136740E-09
       141  14 -3.600192E+06 -6.610380E+05 -3.668961E+03 -1.557203E+06  3.750000E-09  6.191728E-09
       141  15 -3.572771E+06 -6.882448E+05 -6.603596E+03 -1.588745E+06 -7.528282E-11  9.231274E-10
       141  16 -2.289280E+06 -2.201489E+05  2.578813E+05 -1.234741E+06 -6.326444E-11 -2.921718E-10
       141  17 -2.587410E+06 -2.913247E+05  2.020106E+05 -1.278099E+06  2.251716E-09  2.583405E-09
       141  18 -2.830882E+06 -4.173377E+05  1.447741E+05 -1.384422E+06 -6.448006E-11 -2.825597E-09
       141  19 -4.855040E+06 -1.157050E+06 -2.621141E+05 -1.941905E+06  5.914433E+03 -1.047101E+05
       141  20 -4.611907E+06 -1.030655E+06 -2.093852E+05 -1.835883E+06 -3.516485E+03 -8.503379E+04
       141  21 -4.314089E+06 -9.591008E+05 -1.580009E+05 -1.792839E+06 -1.292562E+04 -6.535674E+04
       141  22 -3.573016E+06 -6.886674E+05 -2.068357E+03 -1.588667E+06  3.362666E+04 -9.434684E+04
       141  23 -3.600190E+06 -6.610319E+05 -3.657402E+03 -1.557205E+06  2.419561E+04 -7.468560E+04
       141  24 -3.572770E+06 -6.882415E+05 -6.597507E+03 -1.588745E+06  1.478724E+04 -5.502346E+04
       141  25 -2.289274E+06 -2.201403E+05  2.579016E+05 -1.234745E+06  6.140105E+04 -8.396041E+04
       141  26 -2.587406E+06 -2.913195E+05  2.020234E+05 -1.278101E+06  5.195667E+04 -6.431912E+04
       141  27 -2.830880E+06 -4.173351E+05  1.447813E+05 -1.384424E+06  4.253590E+04 -4.467681E+04
       142   1 -4.126626E+06 -8.907954E+05 -1.204743E+05 -1.742389E+06  1.897855E+04  5.397198E+04
       142   2 -3.881560E+06 -7.632509E+05 -7.242783E+04 -1.634052E+06  3.257307E+04  3.636346E+04
       142   3 -3.583593E+06 -6.944841E+05 -2.999415E+04 -1.588451E+06  4.564660E+04  2.014181E+04
       142   4 -3.573036E+06 -6.880549E+05 -8.784804E+03 -1.589097E+06 -9.097236E+03  4.350944E+04
       142   5 -3.599580E+06 -6.608830E+05 -1.602287E+04 -1.556812E+06  6.384940E+03  2.660809E+04
       142   6 -3.573679E+06 -6.928712E+05 -3.037878E+04 -1.587292E+06  2.134343E+04  1.109231E+04
       142   7 -3.019130E+06 -4.852887E+05  1.028918E+05 -1.435678E+06 -3.719984E+04  3.303678E+04
       142   8 -3.317515E+06 -5.585079E+05  4.038123E+04 -1.479538E+06 -1.981603E+04  1.684797E+04
       142   9 -3.563764E+06 -6.912578E+05 -3.076082E+04 -1.586133E+06 -2.960320E+03  2.042751E+03
       142  10 -4.126627E+06 -8.907986E+05 -1.204805E+05 -1.742389E+06  1.870719E-09  3.643695E-10
       142  11 -3.881562E+06 -7.632526E+05 -7.243233E+04 -1.634053E+06  1.765317E-09  2.379653E-10
       142  12 -3.583595E+06 -6.944851E+05 -2.999886E+04 -1.588452E+06 -1.508709E-09 -4.513980E-09
       142  13 -3.573036E+06 -6.880570E+05 -8.788511E+03 -1.589096E+06  6.077360E-10  1.835103E-10
       142  14 -3.599580E+06 -6.608838E+05 -1.602427E+04 -1.556812E+06 -3.191039E-09 -8.694034E-09
       142  15 -3.573680E+06 -6.928715E+05 -3.037987E+04 -1.587292E+06  2.496331E-10  6.909324E-10
       142  16 -3.019132E+06 -4.852902E+05  1.028872E+05 -1.435677E+06 -2.139387E-09 -5.090513E-10
       142  17 -3.317516E+06 -5.585083E+05  4.037996E+04 -1.479538E+06 -2.184672E-09 -2.261832E-09
       142  18 -3.563764E+06 -6.912578E+05 -3.076084E+04 -1.586133E+06 -4.685019E-12 -1.225557E-09
       142  19 -4.126626E+06 -8.907954E+05 -1.204743E+05 -1.742389E+06 -1.897855E+04 -5.397198E+04
       142  20 -3.881560E+06 -7.632509E+05 -7.242783E+04 -1.634052E+06 -3.257307E+04 -3.636346E+04
       142  21 -3.583593E+06 -6.944841E+05 -2.999415E+04 -1.588451E+06 -4.564660E+04 -2.014181E+04
       142  22 -3.573036E+06 -6.880549E+05 -8.784804E+03 -1.589097E+06  9.097236E+03 -4.350944E+04
       142  23 -3.599580E+06 -6.608830E+05 -1.602287E+04 -1.556812E+06 -6.384940E+03 -2.660809E+04
       142  24 -3.573679E+06 -6.928712E+05 -3.037878E+04 -1.587292E+06 -2.134343E+04 -1.109231E+04
       142  25 -3.019130E+06 -4.852887E+05  1.028918E+05 -1.435678E+06  3.719984E+04 -3.303678E+04
       142  26 -3.317515E+06 -5.585079E+05  4.038123E+04 -1.479538E+06  1.981603E+04 -1.684797E+04
       142  27 -3.563764E+06 -6.912578E+05 -3.076082E+04 -1.586133E+06  2.960320E+03 -2.042751E+03
       143   1 -3.389224E+06 -6.306000E+05  5.794528E+02 -1.552921E+06  5.933872E+04  1.132683E+04
       143   2 -3.166590E+06 -4.884969E+05  3.072154E+04 -1.399275E+06  7.197467E+04  4.525454E+03
       143   3 -2.924029E+06 -4.882748E+05  3.011666E+04 -1.284583E+06  7.638375E+04  1.979236E+04
       143   4 -3.578750E+06 -6.875240E+05 -3.966799E+04 -1.591351E+06  3.047524E+04  5.801615E+02
       143   5 -3.594710E+06 -6.774080E+05 -7.402653E+04 -1.548126E+06  7.320005E+04  4.976471E+03
       143   6 -3.596843E+06 -8.152375E+05 -1.630936E+05 -1.543907E+06  1.076896E+05  3.144531E+04
       143   7 -3.768239E+06 -7.444473E+05 -7.991402E+04 -1.629771E+06  1.621239E+03 -1.016450E+04
       143   8 -4.022636E+06 -8.662793E+05 -1.787862E+05 -1.696873E+06  7.442448E+04  5.426976E+03
       143   9 -4.269176E+06 -1.142063E+06 -3.563357E+05 -1.802936E+06  1.389572E+05  4.307440E+04
       143  10 -3.389228E+06 -6.306011E+05  5.725527E+02 -1.552922E+06  6.582578E-10 -1.035250E-09
       143  11 -3.166596E+06 -4.884983E+05  3.071172E+04 -1.399275E+06  8.919468E-10  5.551293E-11
       143  12 -2.924035E+06 -4.882768E+05  3.010490E+04 -1.284584E+06 -1.292988E-10 -3.571513E-10
       143  13 -3.578751E+06 -6.875242E+05 -3.966975E+04 -1.591351E+06 -1.768106E-10  2.708447E-09
       143  14 -3.594716E+06 -6.774094E+05 -7.403671E+04 -1.548126E+06  1.442937E-09  1.125272E-09
       143  15 -3.596856E+06 -8.152417E+05 -1.631174E+05 -1.543910E+06  1.471543E-10  2.317981E-10
       143  16 -3.768239E+06 -7.444475E+05 -7.991422E+04 -1.629771E+06  3.915941E-10  1.969527E-09
       143  17 -4.022642E+06 -8.662809E+05 -1.787968E+05 -1.696873E+06  1.743828E-09  4.809011E-09
       143  18 -4.269198E+06 -1.142071E+06 -3.563758E+05 -1.802941E+06  4.235380E-10 -3.874592E-10
       143  19 -3.389224E+06 -6.306000E+05  5.794528E+02 -1.552921E+06 -5.933872E+04 -1.132683E+04
       143  20 -3.166590E+06 -4.884969E+05  3.072154E+04 -1.399275E+06 -7.197467E+04 -4.525454E+03
       143  21 -2.924029E+06 -4.882748E+05  3.011666E+04 -1.284583E+06 -7.638375E+04 -1.979236E+04
       143  22 -3.578750E+06 -6.875240E+05 -3.966799E+04 -1.591351E+06 -3.047524E+04 -5.801615E+02
       143  23 -3.594710E+06 -6.774080E+05 -7.402653E+04 -1.548126E+06 -7.320005E+04 -4.976471E+03
       143  24 -3.596843E+06 -8.152375E+05 -1.630936E+05 -1.543907E+06 -1.076896E+05 -3.144531E+04
       143  25 -3.768239E+06 -7.444473E+05 -7.991402E+04 -1.629771E+06 -1.621239E+03  1.016450E+04
       143  26 -4.022636E+06 -8.662793E+05 -1.787862E+05 -1.696873E+06 -7.442448E+04 -5.426976E+03
       143  27 -4.269176E+06 -1.142063E+06 -3.563357E+05 -1.802936E+06 -1.389572E+05 -4.307440E+04
       144   1  2.660378E+05  5.500061E+04  7.515430E+04  1.370916E+04  6.145695E+04  5.078499E+02
       144   2  2.585655E+05 -2.743704E+04  2.529329E+04  4.454051E+03  4.056825E+04  1.431195E+03
       144   3  2.772935E+05 -1.598452E+04  1.250444E+04 -1.064739E+04  1.967914E+04  1.179876E+03
       144   4  3.288444E+05  7.066360E+04  9.073305E+04 -3.022598E+03  6.200746E+04  5.063153E+02
       144   5  3.157143E+05 -1.322311E+04  3.924170E+04 -9.142009E+01  4.069352E+04  1.430912E+03
       144   6  3.288552E+05 -3.151121E+03  2.511497E+04 -3.006495E+03  1.937936E+04  1.180072E+03
       144   7  3.916552E+05  8.632735E+04  1.063117E+05 -1.975605E+04  6.255803E+04  5.047513E+02
       144   8  3.728661E+05  9.906620E+02  5.318989E+04 -4.637310E+03  4.081880E+04  1.430627E+03
       144   9  3.804195E+05  9.682303E+03  3.772533E+04  4.635036E+03  1.907957E+04  1.180261E+03
       144  10  2.660338E+05  5.499960E+04  7.514721E+04  1.370913E+04 -1.798876E-09 -8.413522E-10
       144  11  2.585637E+05 -2.743748E+04  2.529020E+04  4.454004E+03 -3.373456E-09 -1.009161E-09
       144  12  2.772930E+05 -1.598463E+04  1.250371E+04 -1.064741E+04 -2.623207E-09  8.952631E-10
       144  13  3.288403E+05  7.066257E+04  9.072583E+04 -3.022624E+03 -2.028335E-09 -2.595963E-10
       144  14  3.157125E+05 -1.322355E+04  3.923859E+04 -9.146698E+01 -3.215130E-09 -7.195321E-10
       144  15  3.288548E+05 -3.151223E+03  2.511426E+04 -3.006514E+03 -7.578997E-10  6.538207E-10
       144  16  3.916510E+05  8.632630E+04  1.063043E+05 -1.975607E+04  1.800217E-09 -1.002458E-10
       144  17  3.728643E+05  9.902128E+02  5.318675E+04 -4.637357E+03 -1.902500E-10 -3.057957E-10
       144  18  3.804192E+05  9.682204E+03  3.772465E+04  4.635018E+03 -3.355428E-10  9.081062E-10
       144  19  2.660378E+05  5.500061E+04  7.515430E+04  1.370916E+04 -6.145695E+04 -5.078499E+02
       144  20  2.585655E+05 -2.743704E+04  2.529329E+04  4.454051E+03 -4.056825E+04 -1.431195E+03
       144  21  2.772935E+05 -1.598452E+04  1.250444E+04 -1.064739E+04 -1.967914E+04 -1.179876E+03
       144  22  3.288444E+05  7.066360E+04  9.073305E+04 -3.022598E+03 -6.200746E+04 -5.063153E+02
       144  23  3.157143E+05 -1.322311E+04  3.924170E+04 -9.142009E+01 -4.069352E+04 -1.430912E+03
       144  24  3.288552E+05 -3.151121E+03  2.511497E+04 -3.006495E+03 -1.937936E+04 -1.180072E+03
       144  25  3.916552E+05  8.632735E+04  1.063117E+05 -1.975605E+04 -6.255803E+04 -5.047513E+02
       144  26  3.728661E+05  9.906620E+02  5.318989E+04 -4.637310E+03 -4.081880E+04 -1.430627E+03
       144  27  3.804195E+05  9.682303E+03  3.772533E+04  4.635036E+03 -1.907957E+04 -1.180261E+03
       145   1  2.837985E+05 -1.013136E+03  1.084221E+04 -1.019187E+03  1.536305E+04  8.859659E+02
       145   2  2.874698E+05 -1.028378E+04  1.759461E+03  3.648517E+02  1.012384E+04  8.041156E+02
       145   3  2.948109E+05 -7.617078E+03 -9.281862E+02 -3.994654E+03  4.884603E+03  6.001909E+02
       145   4  3.238318E+05  8.949803E+03  2.063974E+04 -2.989210E+03  1.535642E+04  8.859127E+02
       145   5  3.219942E+05 -1.693338E+03  1.019933E+04 -1.169683E+02  1.007293E+04  8.041006E+02
       145   6  3.238338E+05 -3.918304E+02  6.184448E+03 -2.988237E+03  4.789459E+03  6.001922E+02
       145   7  3.638666E+05  1.891264E+04  3.043716E+04 -4.959360E+03  1.534979E+04  8.858596E+02
       145   8  3.565196E+05  6.897021E+03  1.863911E+04 -5.988152E+02  1.002202E+04  8.040857E+02
       145   9  3.528574E+05  6.833358E+03  1.329702E+04 -1.981774E+03  4.694311E+03  6.001931E+02
       145  10  2.837983E+05 -1.013200E+03  1.084176E+04 -1.019198E+03 -1.998944E-09  5.092125E-10
       145  11  2.874697E+05 -1.028381E+04  1.759267E+03  3.648452E+02 -5.141044E-10 -1.380664E-09
       145  12  2.948109E+05 -7.617084E+03 -9.282317E+02 -3.994656E+03  1.916838E-09  1.619949E-09
       145  13  3.238316E+05  8.949739E+03  2.063930E+04 -2.989221E+03 -2.032256E-09  5.732833E-10
       145  14  3.219941E+05 -1.693366E+03  1.019914E+04 -1.169748E+02  3.358385E-09 -1.233900E-09
       145  15  3.238338E+05 -3.918369E+02  6.184404E+03 -2.988240E+03 -4.993282E-09  7.517930E-10
       145  16  3.638663E+05  1.891257E+04  3.043671E+04 -4.959371E+03 -2.565255E-10  4.108372E-10
       145  17  3.565195E+05  6.896994E+03  1.863892E+04 -5.988217E+02 -3.655425E-09 -1.134243E-09
       145  18  3.528574E+05  6.833352E+03  1.329698E+04 -1.981776E+03 -1.134797E-09  3.839856E-11
       145  19  2.837985E+05 -1.013136E+03  1.084221E+04 -1.019187E+03 -1.536305E+04 -8.859659E+02
       145  20  2.874698E+05 -1.028378E+04  1.759461E+03  3.648517E+02 -1.012384E+04 -8.041156E+02
       145  21  2.948109E+05 -7.617078E+03 -9.281862E+02 -3.994654E+03 -4.884603E+03 -6.001909E+02
       145  22  3.238318E+05  8.949803E+03  2.063974E+04 -2.989210E+03 -1.535642E+04 -8.859127E+02
       145  23  3.219942E+05 -1.693338E+03  1.019933E+04 -1.169683E+02 -1.007293E+04 -8.041006E+02
       145  24  3.238338E+05 -3.918304E+02  6.184448E+03 -2.988237E+03 -4.789459E+03 -6.001922E+02
       145  25  3.638666E+05  1.891264E+04  3.043716E+04 -4.959360E+03 -1.534979E+04 -8.858596E+02
       145  26  3.565196E+05  6.897021E+03  1.863911E+04 -5.988152E+02 -1.002202E+04 -8.040857E+02
       145  27  3.528574E+05  6.833358E+03  1.329702E+04 -1.981774E+03 -4.694311E+03 -6.001931E+02
       146   1  3.054892E+05 -3.266303E+03  5.899213E+02 -2.766489E+03  3.865633E+03  4.663458E+02
       146   2  3.106671E+05 -3.252153E+03 -3.769292E+02 -9.416617E+01  2.552190E+03  2.808968E+02
       146   3  3.163941E+05 -1.728498E+03 -1.114680E+02 -3.112236E+03  1.238752E+03  8.303280E+01
       146   4  3.231387E+05  1.122641E+03  4.891464E+03 -2.976754E+03  3.801165E+03  4.663411E+02
       146   5  3.228639E+05 -2.171909E+02  2.605379E+03 -1.315381E+02  2.483216E+03  2.808941E+02
       146   6  3.231391E+05 -4.673531E+01  1.554724E+03 -2.976709E+03  1.165282E+03  8.303158E+01
       146   7  3.407884E+05  5.511563E+03  9.192985E+03 -3.187025E+03  3.736696E+03  4.663364E+02
       146   8  3.350609E+05  2.817761E+03  5.587676E+03 -1.689108E+02  2.414240E+03  2.808914E+02
       146   9  3.298841E+05  1.635024E+03  3.220912E+03 -2.841180E+03  1.091812E+03  8.303033E+01
       146  10  3.054892E+05 -3.266307E+03  5.898929E+02 -2.766490E+03  3.106857E-09  1.875285E-09
       146  11  3.106671E+05 -3.252155E+03 -3.769416E+02 -9.416675E+01 -3.236899E-09 -9.627873E-10
       146  12  3.163941E+05 -1.728498E+03 -1.114709E+02 -3.112236E+03 -2.925255E-09  6.260402E-10
       146  13  3.231386E+05  1.122637E+03  4.891437E+03 -2.976755E+03 -1.207690E-10  1.204922E-09
       146  14  3.228639E+05 -2.171926E+02  2.605367E+03 -1.315387E+02  3.211938E-09 -5.268539E-10
       146  15  3.231391E+05 -4.673568E+01  1.554721E+03 -2.976709E+03  1.361072E-09  7.569159E-11
       146  16  3.407884E+05  5.511559E+03  9.192958E+03 -3.187026E+03 -4.371200E-09  5.600309E-10
       146  17  3.350609E+05  2.817759E+03  5.587665E+03 -1.689114E+02 -3.079093E-09 -1.954355E-10
       146  18  3.298841E+05  1.635023E+03  3.220910E+03 -2.841180E+03 -2.096698E-10 -3.795438E-10
       146  19  3.054892E+05 -3.266303E+03  5.899213E+02 -2.766489E+03 -3.865633E+03 -4.663458E+02
       146  20  3.106671E+05 -3.252153E+03 -3.769292E+02 -9.416617E+01 -2.552190E+03 -2.808968E+02
       146  21  3.163941E+05 -1.728498E+03 -1.114680E+02 -3.112236E+03 -1.238752E+03 -8.303280E+01
       146  22  3.231387E+05  1.122641E+03  4.891464E+03 -2.976754E+03 -3.801165E+03 -4.663411E+02
       146  23  3.228639E+05 -2.171909E+02  2.605379E+03 -1.315381E+02 -2.483216E+03 -2.808941E+02
       146  24  3.231391E+05 -4.673531E+01  1.554724E+03 -2.976709E+03 -1.165282E+03 -8.303158E+01
       146  25  3.407884E+05  5.511563E+03  9.192985E+03 -3.187025E+03 -3.736696E+03 -4.663364E+02
       146  26  3.350609E+05  2.817761E+03  5.587676E+03 -1.689108E+02 -2.414240E+03 -2.808914E+02
       146  27  3.298841E+05  1.635024E+03  3.220912E+03 -2.841180E+03 -1.091812E+03 -8.303033E+01
       147   1  3.276111E+05  1.279129E+03  2.353483E+03 -2.958467E+03  9.861349E+02 -3.360105E+01
       147   2  3.330127E+05  2.464702E+03  3.165804E+03 -1.325378E+02  6.295571E+02 -2.295982E+02
       147   3  3.385108E+05  3.847311E+03  4.259594E+03 -2.994681E+03  2.729764E+02 -4.272063E+02
       147   4  3.230383E+05  1.379032E+02  1.218562E+03 -2.976212E+03  9.158337E+02 -3.360242E+01
       147   5  3.229901E+05 -2.927947E+01  7.148764E+02 -1.321714E+02  5.586768E+02 -2.296005E+02
       147   6  3.230383E+05  6.570511E-01  4.930422E+02 -2.976209E+03  2.015202E+02 -4.272095E+02
       147   7  3.184654E+05 -1.003325E+03  8.363840E+01 -2.993956E+03  8.455329E+02 -3.360380E+01
       147   8  3.129676E+05 -2.523269E+03 -1.736059E+03 -1.318050E+02  4.877976E+02 -2.296028E+02
       147   9  3.075661E+05 -3.846015E+03 -3.273527E+03 -2.957737E+03  1.300657E+02 -4.272127E+02
       147  10  3.276111E+05  1.279129E+03  2.353481E+03 -2.958467E+03  2.310765E-09  1.216610E-09
       147  11  3.330127E+05  2.464702E+03  3.165804E+03 -1.325377E+02 -4.239279E-09 -1.459490E-10
       147  12  3.385108E+05  3.847311E+03  4.259594E+03 -2.994681E+03  1.244100E-09 -2.195597E-10
       147  13  3.230383E+05  1.379030E+02  1.218560E+03 -2.976211E+03 -2.150039E-09  6.436131E-10
       147  14  3.229901E+05 -2.927961E+01  7.148758E+02 -1.321713E+02 -1.149404E-09  1.021476E-10
       147  15  3.230383E+05  6.568442E-01  4.930418E+02 -2.976209E+03 -1.756798E-09 -2.823852E-10
       147  16  3.184654E+05 -1.003325E+03  8.363705E+01 -2.993956E+03 -1.180880E-09  1.199428E-10
       147  17  3.129676E+05 -2.523269E+03 -1.736059E+03 -1.318050E+02  1.953257E-09  4.099566E-10
       147  18  3.075661E+05 -3.846015E+03 -3.273528E+03 -2.957737E+03  1.805189E-09 -4.382731E-10
       147  19  3.276111E+05  1.279129E+03  2.353483E+03 -2.958467E+03 -9.861349E+02  3.360105E+01
       147  20  3.330127E+05  2.464702E+03  3.165804E+03 -1.325378E+02 -6.295571E+02  2.295982E+02
       147  21  3.385108E+05  3.847311E+03  4.259594E+03 -2.994681E+03 -2.729764E+02  4.272063E+02
       147  22  3.230383E+05  1.379032E+02  1.218562E+03 -2.976212E+03 -9.158337E+02  3.360242E+01
       147  23  3.229901E+05 -2.927947E+01  7.148764E+02 -1.321714E+02 -5.586768E+02  2.296005E+02
       147  24  3.230383E+05  6.570511E-01  4.930422E+02 -2.976209E+03 -2.015202E+02  4.272095E+02
       147  25  3.184654E+05 -1.003325E+03  8.363840E+01 -2.993956E+03 -8.455329E+02  3.360380E+01
       147  26  3.129676E+05 -2.523269E+03 -1.736059E+03 -1.318050E+02 -4.877976E+02  2.296028E+02
       147  27  3.075661E+05 -3.846015E+03 -3.273527E+03 -2.957737E+03 -1.300657E+02  4.272127E+02
       148   1  3.498656E+05  6.695183E+03  7.019183E+03 -2.979132E+03  1.888536E+02 -5.428625E+02
       148   2  3.553348E+05  8.030653E+03  8.327370E+03 -1.177709E+02 -2.126652E+01 -7.412987E+02
       148   3  3.608590E+05  9.463065E+03  9.797223E+03 -2.993610E+03 -2.313709E+02 -9.391418E+02
       148   4  3.230290E+05  1.399154E+01  4.397813E+02 -2.987129E+03  1.172794E+02 -5.428673E+02
       148   5  3.230015E+05 -1.487263E+01  4.208383E+02 -1.185219E+02 -9.261847E+01 -7.413066E+02
       148   6  3.230289E+05  5.317201E+01  5.634147E+02 -2.987134E+03 -3.024988E+02 -9.391526E+02
       148   7  2.961930E+05 -6.667254E+03 -6.139673E+03 -2.995125E+03  4.570827E+01 -5.428721E+02
       148   8  2.906691E+05 -8.060476E+03 -7.485769E+03 -1.192728E+02 -1.639667E+02 -7.413145E+02
       148   9  2.852002E+05 -9.356827E+03 -8.670498E+03 -2.980658E+03 -3.736223E+02 -9.391635E+02
       148  10  3.498656E+05  6.695183E+03  7.019182E+03 -2.979132E+03  1.012899E-09 -4.238853E-10
       148  11  3.553348E+05  8.030653E+03  8.327369E+03 -1.177710E+02 -1.308900E-09 -8.472947E-10
       148  12  3.608590E+05  9.463064E+03  9.797221E+03 -2.993610E+03  1.765576E-09  3.064584E-10
       148  13  3.230290E+05  1.399122E+01  4.397807E+02 -2.987129E+03  2.292053E-10 -4.200966E-10
       148  14  3.230015E+05 -1.487322E+01  4.208372E+02 -1.185220E+02 -1.963706E-09 -3.258461E-10
       148  15  3.230289E+05  5.317104E+01  5.634129E+02 -2.987134E+03 -5.157138E-09  7.870781E-10
       148  16  2.961930E+05 -6.667254E+03 -6.139674E+03 -2.995125E+03 -6.410629E-09 -7.691888E-10
       148  17  2.906691E+05 -8.060477E+03 -7.485771E+03 -1.192729E+02 -8.137368E-10 -3.817414E-11
       148  18  2.852002E+05 -9.356828E+03 -8.670500E+03 -2.980658E+03 -1.975248E-09  1.331831E-09
       148  19  3.498656E+05  6.695183E+03  7.019183E+03 -2.979132E+03 -1.888536E+02  5.428625E+02
       148  20  3.553348E+05  8.030653E+03  8.327370E+03 -1.177709E+02  2.126652E+01  7.412987E+02
       148  21  3.608590E+05  9.463065E+03  9.797223E+03 -2.993610E+03  2.313709E+02  9.391418E+02
       148  22  3.230290E+05  1.399154E+01  4.397813E+02 -2.987129E+03 -1.172794E+02  5.428673E+02
       148  23  3.230015E+05 -1.487263E+01  4.208383E+02 -1.185219E+02  9.261847E+01  7.413066E+02
       148  24  3.230289E+05  5.317201E+01  5.634147E+02 -2.987134E+03  3.024988E+02  9.391526E+02
       148  25  2.961930E+05 -6.667254E+03 -6.139673E+03 -2.995125E+03 -4.570827E+01  5.428721E+02
       148  26  2.906691E+05 -8.060476E+03 -7.485769E+03 -1.192728E+02  1.639667E+02  7.413145E+02
       148  27  2.852002E+05 -9.356827E+03 -8.670498E+03 -2.980658E+03  3.736223E+02  9.391635E+02
       149   1  3.724116E+05  1.226382E+04  1.276157E+04 -2.952032E+03 -3.380564E+02 -1.059039E+03
       149   2  3.778893E+05  1.358229E+04  1.450272E+04 -9.870601E+01 -8.856729E+02 -1.261391E+03
       149   3  3.835980E+05  1.550295E+04  1.675264E+04 -3.083961E+03 -1.433260E+03 -1.444744E+03
       149   4  3.230675E+05 -1.779282E+01  6.785359E+02 -3.009634E+03 -4.143092E+02 -1.059053E+03
       149   5  3.229525E+05 -8.741058E+01  1.069504E+03 -9.037429E+01 -9.550407E+02 -1.261410E+03
       149   6  3.230673E+05  4.440116E+02  1.964507E+03 -3.009728E+03 -1.495738E+03 -1.444767E+03
       149   7  2.737256E+05 -1.229958E+04 -1.140467E+04 -3.067231E+03 -4.905560E+02 -1.059068E+03
       149   8  2.680185E+05 -1.375734E+04 -1.236393E+04 -8.204343E+01 -1.024402E+03 -1.261429E+03
       149   9  2.625400E+05 -1.461520E+04 -1.282389E+04 -2.935502E+03 -1.558210E+03 -1.444790E+03
       149  10  3.724116E+05  1.226382E+04  1.276156E+04 -2.952032E+03 -4.030582E-10  4.094922E-10
       149  11  3.778893E+05  1.358229E+04  1.450272E+04 -9.870691E+01 -7.860445E-09 -6.349316E-10
       149  12  3.835980E+05  1.550295E+04  1.675263E+04 -3.083962E+03 -9.646062E-10  1.104674E-09
       149  13  3.230675E+05 -1.779407E+01  6.785335E+02 -3.009634E+03 -4.321176E-09  7.164257E-10
       149  14  3.229525E+05 -8.741254E+01  1.069500E+03 -9.037526E+01 -7.754432E-09 -4.982707E-10
       149  15  3.230673E+05  4.440088E+02  1.964499E+03 -3.009729E+03  1.682384E-09  3.251543E-10
       149  16  2.737256E+05 -1.229958E+04 -1.140468E+04 -3.067231E+03 -4.011843E-09  9.313287E-10
       149  17  2.680185E+05 -1.375734E+04 -1.236394E+04 -8.204447E+01  2.571039E-09 -4.183102E-10
       149  18  2.625400E+05 -1.461520E+04 -1.282390E+04 -2.935504E+03  2.126671E-10 -5.061875E-11
       149  19  3.724116E+05  1.226382E+04  1.276157E+04 -2.952032E+03  3.380564E+02  1.059039E+03
       149  20  3.778893E+05  1.358229E+04  1.450272E+04 -9.870601E+01  8.856729E+02  1.261391E+03
       149  21  3.835980E+05  1.550295E+04  1.675264E+04 -3.083961E+03  1.433260E+03  1.444744E+03
       149  22  3.230675E+05 -1.779282E+01  6.785359E+02 -3.009634E+03  4.143092E+02  1.059053E+03
       149  23  3.229525E+05 -8.741058E+01  1.069504E+03 -9.037429E+01  9.550407E+02  1.261410E+03
       149  24  3.230673E+05  4.440116E+02  1.964507E+03 -3.009728E+03  1.495738E+03  1.444767E+03
       149  25  2.737256E+05 -1.229958E+04 -1.140467E+04 -3.067231E+03  4.905560E+02  1.059068E+03
       149  26  2.680185E+05 -1.375734E+04 -1.236393E+04 -8.204343E+01  1.024402E+03  1.261429E+03
       149  27  2.625400E+05 -1.461520E+04 -1.282389E+04 -2.935502E+03  1.558210E+03  1.444790E+03
       150   1  3.956419E+05  1.783526E+04  2.016773E+04 -2.629862E+03 -1.778565E+03 -1.594866E+03
       150   2  4.006401E+05  1.874137E+04  2.313975E+04 -2.231207E+02 -3.956088E+03 -1.809632E+03
       150   3  4.071294E+05  2.440679E+04  2.872229E+04 -3.804487E+03 -6.133700E+03 -1.822385E+03
       150   4  3.233445E+05 -1.573473E+02  2.474297E+03 -3.042477E+03 -1.891943E+03 -1.594905E+03
       150   5  3.226048E+05 -6.746478E+02  4.062729E+03 -4.908007E+01 -3.996473E+03 -1.809661E+03
       150   6  3.233436E+05  3.555003E+03  8.211224E+03 -3.043824E+03 -6.101069E+03 -1.822397E+03
       150   7  2.510518E+05 -1.815034E+04 -1.521952E+04 -3.455045E+03 -2.005309E+03 -1.594943E+03
       150   8  2.445750E+05 -2.009112E+04 -1.501474E+04  1.249382E+02 -4.036853E+03 -1.809690E+03
       150   9  2.395643E+05 -1.729730E+04 -1.230035E+04 -2.283263E+03 -6.068443E+03 -1.822408E+03
       150  10  3.956419E+05  1.783526E+04  2.016772E+04 -2.629864E+03 -2.932874E-10  8.687693E-10
       150  11  4.006401E+05  1.874136E+04  2.313972E+04 -2.231265E+02 -3.574946E-09 -9.948561E-10
       150  12  4.071293E+05  2.440678E+04  2.872221E+04 -3.804496E+03 -6.002980E-10 -6.813323E-10
       150  13  3.233445E+05 -1.573510E+02  2.474286E+03 -3.042480E+03 -4.316933E-09  1.680715E-10
       150  14  3.226048E+05 -6.746556E+02  4.062693E+03 -4.908590E+01 -5.556695E-09 -1.297814E-09
       150  15  3.233436E+05  3.554989E+03  8.211148E+03 -3.043833E+03 -2.097675E-09 -4.704412E-10
       150  16  2.510518E+05 -1.815035E+04 -1.521953E+04 -3.455047E+03  2.450783E-10 -3.295205E-10
       150  17  2.445750E+05 -2.009113E+04 -1.501477E+04  1.249323E+02  2.117899E-09 -5.873701E-10
       150  18  2.395643E+05 -1.729731E+04 -1.230043E+04 -2.283272E+03 -5.979848E-10 -1.030538E-10
       150  19  3.956419E+05  1.783526E+04  2.016773E+04 -2.629862E+03  1.778565E+03  1.594866E+03
       150  20  4.006401E+05  1.874137E+04  2.313975E+04 -2.231207E+02  3.956088E+03  1.809632E+03
       150  21  4.071294E+05  2.440679E+04  2.872229E+04 -3.804487E+03  6.133700E+03  1.822385E+03
       150  22  3.233445E+05 -1.573473E+02  2.474297E+03 -3.042477E+03  1.891943E+03  1.594905E+03
       150  23  3.226048E+05 -6.746478E+02  4.062729E+03 -4.908007E+01  3.996473E+03  1.809661E+03
       150  24  3.233436E+05  3.555003E+03  8.211224E+03 -3.043824E+03  6.101069E+03  1.822397E+03
       150  25  2.510518E+05 -1.815034E+04 -1.521952E+04 -3.455045E+03  2.005309E+03  1.594943E+03
       150  26  2.445750E+05 -2.009112E+04 -1.501474E+04  1.249382E+02  4.036853E+03  1.809690E+03
       150  27  2.395643E+05 -1.729730E+04 -1.230035E+04 -2.283263E+03  6.068443E+03  1.822408E+03
       151   1  4.212509E+05  2.260948E+04  3.343321E+04 -1.381276E+01 -7.246680E+03 -2.239210E+03
       151   2  4.219190E+05  2.006247E+04  4.045296E+04 -1.770663E+03 -1.642659E+04 -2.530741E+03
       151   3  4.331797E+05  5.499221E+04  6.282172E+04 -9.707066E+03 -2.560768E+04 -8.680157E+02
       151   4  3.253426E+05 -1.255985E+03  9.989727E+03 -3.080220E+03 -7.701380E+03 -2.239388E+03
       151   5  3.201044E+05 -5.260136E+03  1.560170E+04  1.136656E+00 -1.617621E+04 -2.530688E+03
       151   6  3.253379E+05  2.809330E+04  3.607500E+04 -3.097038E+03 -2.465212E+04 -8.677337E+02
       151   7  2.294427E+05 -2.512210E+04 -1.345442E+04 -6.146154E+03 -8.156011E+03 -2.239562E+03
       151   8  2.182991E+05 -3.058350E+04 -9.250316E+03  1.772644E+03 -1.592587E+04 -2.530634E+03
       151   9  2.175068E+05  1.193684E+03  9.327439E+03  3.511840E+03 -2.369672E+04 -8.674315E+02
       151  10  4.212508E+05  2.260946E+04  3.343310E+04 -1.382582E+01 -1.453400E-09 -1.413559E-10
       151  11  4.219187E+05  2.006240E+04  4.045244E+04 -1.770697E+03 -4.612803E-09 -6.320071E-10
       151  12  4.331790E+05  5.499203E+04  6.282049E+04 -9.707084E+03  2.324126E-09 -8.244327E-11
       151  13  3.253425E+05 -1.256006E+03  9.989606E+03 -3.080234E+03  1.809865E-09 -1.346843E-09
       151  14  3.201041E+05 -5.260213E+03  1.560120E+04  1.103690E+00  3.299116E-09  1.730291E-09
       151  15  3.253373E+05  2.809314E+04  3.607386E+04 -3.097055E+03 -3.644435E-10  2.144073E-10
       151  16  2.294426E+05 -2.512212E+04 -1.345456E+04 -6.146169E+03 -1.890019E-09  3.991825E-10
       151  17  2.182988E+05 -3.058357E+04 -9.250805E+03  1.772612E+03  5.515063E-09  1.601114E-09
       151  18  2.175062E+05  1.193532E+03  9.326383E+03  3.511824E+03 -1.833756E-09 -2.664559E-10
       151  19  4.212509E+05  2.260948E+04  3.343321E+04 -1.381276E+01  7.246680E+03  2.239210E+03
       151  20  4.219190E+05  2.006247E+04  4.045296E+04 -1.770663E+03  1.642659E+04  2.530741E+03
       151  21  4.331797E+05  5.499221E+04  6.282172E+04 -9.707066E+03  2.560768E+04  8.680157E+02
       151  22  3.253426E+05 -1.255985E+03  9.989727E+03 -3.080220E+03  7.701380E+03  2.239388E+03
       151  23  3.201044E+05 -5.260136E+03  1.560170E+04  1.136656E+00  1.617621E+04  2.530688E+03
       151  24  3.253379E+05  2.809330E+04  3.607500E+04 -3.097038E+03  2.465212E+04  8.677337E+02
       151  25  2.294427E+05 -2.512210E+04 -1.345442E+04 -6.146154E+03  8.156011E+03  2.239562E+03
       151  26  2.182991E+05 -3.058350E+04 -9.250316E+03  1.772644E+03  1.592587E+04  2.530634E+03
       151  27  2.175068E+05  1.193684E+03  9.327439E+03  3.511840E+03  2.369672E+04  8.674315E+02
       152   1  3.021268E+06  1.226524E+07  3.032845E+06 -1.380598E+06  8.866178E+04  1.422151E+05
       152   2  2.309969E+06  9.747033E+06  2.342163E+06 -1.547686E+05  2.394174E+05  2.908637E+04
       152   3  1.821058E+06  7.430409E+06  1.804692E+06 -1.422046E+06  1.487044E+05 -8.654512E+04
       152   4  6.890252E+04  3.513169E+05  9.769748E+04 -1.315337E+06  8.930260E+04  4.283405E+04
       152   5 -3.721464E+04  2.622375E+05  4.108707E+04 -6.717868E+04  2.397809E+05  1.855330E+04
       152   6  6.428403E+04  3.533362E+05  7.764351E+04 -1.314611E+06  1.471614E+05 -8.691390E+03
       152   7 -2.893974E+06 -1.143519E+07 -2.847896E+06 -1.251017E+06  8.993100E+04 -5.467651E+04
       152   8 -2.390967E+06 -9.141265E+06 -2.266480E+06  1.933689E+04  2.401452E+05  8.177458E+03
       152   9 -1.696156E+06 -6.678420E+06 -1.653029E+06 -1.208109E+06  1.456359E+05  6.828526E+04
       152  10  3.021254E+06  1.226522E+07  3.032793E+06 -1.380608E+06 -5.625797E-09 -7.737892E-09
       152  11  2.309907E+06  9.747017E+06  2.342054E+06 -1.547742E+05 -6.277689E-09 -1.242692E-08
       152  12  1.821032E+06  7.430395E+06  1.804637E+06 -1.422036E+06  7.203118E-09 -1.097833E-08
       152  13  6.889345E+04  3.513127E+05  9.767901E+04 -1.315340E+06 -2.302559E-09 -7.378560E-11
       152  14 -3.727648E+04  2.622217E+05  4.097836E+04 -6.718227E+04 -5.012244E-11 -8.563343E-11
       152  15  6.426076E+04  3.533303E+05  7.760268E+04 -1.314610E+06  5.137223E-09 -3.322542E-08
       152  16 -2.893984E+06 -1.143519E+07 -2.847917E+06 -1.251013E+06 -1.335334E-09  4.227841E-09
       152  17 -2.391029E+06 -9.141281E+06 -2.266589E+06  1.933530E+04  9.751475E-09  1.395289E-08
       152  18 -1.696181E+06 -6.678431E+06 -1.653078E+06 -1.208117E+06 -5.430288E-10  2.996998E-08
       152  19  3.021268E+06  1.226524E+07  3.032845E+06 -1.380598E+06 -8.866178E+04 -1.422151E+05
       152  20  2.309969E+06  9.747033E+06  2.342163E+06 -1.547686E+05 -2.394174E+05 -2.908637E+04
       152  21  1.821058E+06  7.430409E+06  1.804692E+06 -1.422046E+06 -1.487044E+05  8.654512E+04
       152  22  6.890252E+04  3.513169E+05  9.769748E+04 -1.315337E+06 -8.930260E+04 -4.283405E+04
       152  23 -3.721464E+04  2.622375E+05  4.108707E+04 -6.717868E+04 -2.397809E+05 -1.855330E+04
       152  24  6.428403E+04  3.533362E+05  7.764351E+04 -1.314611E+06 -1.471614E+05  8.691390E+03
       152  25 -2.893974E+06 -1.143519E+07 -2.847896E+06 -1.251017E+06 -8.993100E+04  5.467651E+04
       152  26 -2.390967E+06 -9.141265E+06 -2.266480E+06  1.933689E+04 -2.401452E+05 -8.177458E+03
       152  27 -1.696156E+06 -6.678420E+06 -1.653029E+06 -1.208109E+06 -1.456359E+05 -6.828526E+04
       153   1  5.717550E+05  2.408247E+06  5.831466E+05 -1.353616E+06  5.690172E+04 -4.867161E+04
       153   2 -7.878859E+04  6.349290E+04  3.265349E+04 -6.198933E+04 -4.408653E+03 -1.017020E+05
       153   3 -5.477854E+05 -2.355616E+06 -4.663962E+05 -1.253865E+06 -6.448659E+04 -1.544557E+05
       153   4  4.926697E+04  3.095922E+05  7.217977E+04 -1.312619E+06  5.638023E+04 -2.591397E+04
       153   5 -7.317845E+03  3.493885E+05  1.026051E+05 -7.022336E+04 -4.901879E+03 -7.944680E+04
       153   6  1.180610E+05  3.095556E+05  1.850816E+05 -1.311102E+06 -6.496000E+04 -1.329005E+05
       153   7 -4.735421E+05 -1.785053E+06 -4.391046E+05 -1.271734E+06  5.586078E+04 -3.232729E+03
       153   8  6.414727E+04  6.353597E+05  1.725526E+05 -7.846079E+04 -5.395580E+03 -5.718137E+04
       153   9  7.833881E+05  2.981220E+06  8.360428E+05 -1.368543E+06 -6.543634E+04 -1.112516E+05
       153  10  5.717509E+05  2.408243E+06  5.831361E+05 -1.353614E+06  3.109022E-09 -4.217042E-08
       153  11 -7.879139E+04  6.348179E+04  3.263402E+04 -6.198969E+04  4.521886E-09 -2.986155E-08
       153  12 -5.477964E+05 -2.355643E+06 -4.664491E+05 -1.253873E+06 -8.253749E-09 -1.689028E-08
       153  13  4.926338E+04  3.095907E+05  7.217255E+04 -1.312618E+06  4.218114E-10  2.189841E-10
       153  14 -7.319564E+03  3.493817E+05  1.025932E+05 -7.022367E+04  1.237565E-08  2.746122E-11
       153  15  1.180517E+05  3.095355E+05  1.850404E+05 -1.311109E+06  1.738662E-08 -3.634607E-08
       153  16 -4.735454E+05 -1.785054E+06 -4.391105E+05 -1.271733E+06  4.221236E-10  1.949256E-08
       153  17  6.414636E+04  6.353561E+05  1.725464E+05 -7.846104E+04 -1.466363E-08  3.017971E-08
       153  18  7.833801E+05  2.981206E+06  8.360115E+05 -1.368549E+06 -4.481157E-09  3.921473E-08
       153  19  5.717550E+05  2.408247E+06  5.831466E+05 -1.353616E+06 -5.690172E+04  4.867161E+04
       153  20 -7.878859E+04  6.349290E+04  3.265349E+04 -6.198933E+04  4.408653E+03  1.017020E+05
       153  21 -5.477854E+05 -2.355616E+06 -4.663962E+05 -1.253865E+06  6.448659E+04  1.544557E+05
       153  22  4.926697E+04  3.095922E+05  7.217977E+04 -1.312619E+06 -5.638023E+04  2.591397E+04
       153  23 -7.317845E+03  3.493885E+05  1.026051E+05 -7.022336E+04  4.901879E+03  7.944680E+04
       153  24  1.180610E+05  3.095556E+05  1.850816E+05 -1.311102E+06  6.496000E+04  1.329005E+05
       153  25 -4.735421E+05 -1.785053E+06 -4.391046E+05 -1.271734E+06 -5.586078E+04  3.232729E+03
       153  26  6.414727E+04  6.353597E+05  1.725526E+05 -7.846079E+04  5.395580E+03  5.718137E+04
       153  27  7.833881E+05  2.981220E+06  8.360428E+05 -1.368543E+06  6.543634E+04  1.112516E+05
       154   1 -1.870024E+06 -7.196560E+06 -1.632041E+06 -1.262544E+06 -1.553746E+05 -2.518915E+05
       154   2 -2.639373E+06 -9.776213E+06 -2.120745E+06  5.078525E+04 -2.503788E+05 -3.430484E+05
       154   3 -2.494459E+06 -1.195228E+07 -2.289515E+06 -1.136691E+06 -9.279463E+04 -4.311594E+05
       154   4  3.002422E+04  4.030455E+05  2.378339E+05 -1.316593E+06 -1.568631E+05 -1.741721E+05
       154   5 -1.413925E+05  1.959769E+05  3.274218E+05 -6.656857E+04 -2.499313E+05 -3.577374E+05
       154   6  6.118267E+05  4.008993E+05  7.978883E+05 -1.314723E+06 -9.218703E+04 -5.386484E+05
       154   7  1.925776E+06  8.055615E+06  2.103478E+06 -1.370986E+06 -1.583558E+05 -9.548390E+04
       154   8  2.349207E+06  1.025966E+07  2.768285E+06 -1.855780E+05 -2.494835E+05 -3.726275E+05
       154   9  3.706656E+06  1.289423E+07  3.873832E+06 -1.496087E+06 -9.152653E+04 -6.482194E+05
       154  10 -1.870067E+06 -7.196635E+06 -1.632207E+06 -1.262576E+06  5.913245E-10 -3.291722E-08
       154  11 -2.639473E+06 -9.776358E+06 -2.121087E+06  5.071562E+04  1.543841E-09 -1.152917E-08
       154  12 -2.494520E+06 -1.195248E+07 -2.289888E+06 -1.136723E+06  3.123664E-10 -1.679412E-09
       154  13  2.998957E+04  4.030062E+05  2.377304E+05 -1.316615E+06 -1.216662E-08  4.252573E-11
       154  14 -1.414939E+05  1.958228E+05  3.270640E+05 -6.664056E+04  3.056575E-09 -1.170284E-10
       154  15  6.117396E+05  4.005856E+05  7.973270E+05 -1.314763E+06 -1.705355E-09 -2.630421E-09
       154  16  1.925747E+06  8.055598E+06  2.103414E+06 -1.370998E+06  7.265497E-09  1.349046E-08
       154  17  2.349104E+06  1.025949E+07  2.767911E+06 -1.856523E+05 -1.458516E-09  1.086807E-08
       154  18  3.706537E+06  1.289379E+07  3.873042E+06 -1.496135E+06 -3.450806E-09  3.146040E-09
       154  19 -1.870024E+06 -7.196560E+06 -1.632041E+06 -1.262544E+06  1.553746E+05  2.518915E+05
       154  20 -2.639373E+06 -9.776213E+06 -2.120745E+06  5.078525E+04  2.503788E+05  3.430484E+05
       154  21 -2.494459E+06 -1.195228E+07 -2.289515E+06 -1.136691E+06  9.279463E+04  4.311594E+05
       154  22  3.002422E+04  4.030455E+05  2.378339E+05 -1.316593E+06  1.568631E+05  1.741721E+05
       154  23 -1.413925E+05  1.959769E+05  3.274218E+05 -6.656857E+04  2.499313E+05  3.577374E+05
       154  24  6.118267E+05  4.008993E+05  7.978883E+05 -1.314723E+06  9.218703E+04  5.386484E+05
       154  25  1.925776E+06  8.055615E+06  2.103478E+06 -1.370986E+06  1.583558E+05  9.548390E+04
       154  26  2.349207E+06  1.025966E+07  2.768285E+06 -1.855780E+05  2.494835E+05  3.726275E+05
       154  27  3.706656E+06  1.289423E+07  3.873832E+06 -1.496087E+06  9.152653E+04  6.482194E+05
       155   1 -4.640242E+05 -2.056638E+05 -1.001688E+05 -2.112166E+05 -5.114783E+04 -1.681905E+04
       155   2 -4.377589E+05 -1.452941E+05 -5.484788E+04 -1.985249E+05 -3.057745E+04 -3.985880E+03
       155   3 -4.199627E+05 -1.148067E+05 -3.307152E+04 -1.846218E+05 -8.464481E+03  4.741851E+03
       155   4 -3.197097E+05 -1.202752E+05 -5.716889E+04 -1.394733E+05 -3.808318E+04 -1.192038E+04
       155   5 -3.132423E+05 -8.453778E+04 -2.713314E+04 -1.481842E+05 -2.571861E+04 -2.163980E+03
       155   6 -3.136156E+05 -7.705456E+04 -1.413553E+04 -1.556853E+05 -1.181246E+04  3.485730E+03
       155   7 -1.753748E+05 -3.487545E+04 -1.417089E+04 -6.771314E+04 -2.501551E+04 -7.018909E+03
       155   8 -1.887097E+05 -2.377653E+04  5.806485E+02 -9.783318E+04 -2.085876E+04 -3.413981E+02
       155   9 -2.072558E+05 -3.930114E+04  4.800363E+03 -1.267440E+05 -1.516107E+04  2.229379E+03
       155  10 -4.640271E+05 -2.056648E+05 -1.001743E+05 -2.112173E+05  1.113639E-07  4.302215E-08
       155  11 -4.377599E+05 -1.452944E+05 -5.484967E+04 -1.985250E+05  1.586379E-09  3.595992E-09
       155  12 -4.199627E+05 -1.148067E+05 -3.307170E+04 -1.846218E+05 -1.159604E-07 -4.277532E-08
       155  13 -3.197113E+05 -1.202757E+05 -5.717189E+04 -1.394737E+05  3.228560E-10  2.449900E-09
       155  14 -3.132430E+05 -8.453796E+04 -2.713439E+04 -1.481842E+05  1.515551E-08  6.179934E-09
       155  15 -3.136158E+05 -7.705461E+04 -1.413582E+04 -1.556853E+05  6.307172E-09  4.082572E-09
       155  16 -1.753755E+05 -3.487567E+04 -1.417216E+04 -6.771328E+04 -1.061503E-07 -3.861887E-08
       155  17 -1.887102E+05 -2.377664E+04  5.798304E+02 -9.783318E+04  9.059774E-09  8.448729E-09
       155  18 -2.072561E+05 -3.930121E+04  4.799922E+03 -1.267439E+05  1.270559E-07  5.137807E-08
       155  19 -4.640242E+05 -2.056638E+05 -1.001688E+05 -2.112166E+05  5.114783E+04  1.681905E+04
       155  20 -4.377589E+05 -1.452941E+05 -5.484788E+04 -1.985249E+05  3.057745E+04  3.985880E+03
       155  21 -4.199627E+05 -1.148067E+05 -3.307152E+04 -1.846218E+05  8.464481E+03 -4.741851E+03
       155  22 -3.197097E+05 -1.202752E+05 -5.716889E+04 -1.394733E+05  3.808318E+04  1.192038E+04
       155  23 -3.132423E+05 -8.453778E+04 -2.713314E+04 -1.481842E+05  2.571861E+04  2.163980E+03
       155  24 -3.136156E+05 -7.705456E+04 -1.413553E+04 -1.556853E+05  1.181246E+04 -3.485730E+03
       155  25 -1.753748E+05 -3.487545E+04 -1.417089E+04 -6.771314E+04  2.501551E+04  7.018909E+03
       155  26 -1.887097E+05 -2.377653E+04  5.806485E+02 -9.783318E+04  2.085876E+04  3.413981E+02
       155  27 -2.072558E+05 -3.930114E+04  4.800363E+03 -1.267440E+05  1.516107E+04 -2.229379E+03
       156   1 -3.972205E+05 -1.086799E+05 -2.570926E+04 -1.807018E+05 -6.682286E+03  4.157706E+03
       156   2 -3.687528E+05 -9.255379E+04 -1.488047E+04 -1.697225E+05 -2.379373E+03  3.740053E+03
       156   3 -3.372041E+05 -8.258426E+04 -7.259678E+03 -1.632840E+05  2.085863E+03  2.890002E+03
       156   4 -3.119791E+05 -7.641609E+04 -1.052867E+04 -1.553455E+05 -9.810998E+03  2.983897E+03
       156   5 -3.134078E+05 -7.202911E+04 -5.491058E+03 -1.535976E+05 -6.372217E+03  2.242179E+03
       156   6 -3.115848E+05 -7.362737E+04 -2.976221E+03 -1.563909E+05 -2.771258E+03  1.068008E+03
       156   7 -2.267309E+05 -4.415176E+04  4.651459E+03 -1.299862E+05 -1.294013E+04  1.809910E+03
       156   8 -2.580595E+05 -5.150405E+04  3.898344E+03 -1.374713E+05 -1.036544E+04  7.441528E+02
       156   9 -2.859645E+05 -6.467029E+04  1.307401E+03 -1.494974E+05 -7.628648E+03 -7.540826E+02
       156  10 -3.972205E+05 -1.086799E+05 -2.570938E+04 -1.807018E+05 -2.155246E-08 -9.752843E-09
       156  11 -3.687528E+05 -9.255381E+04 -1.488051E+04 -1.697224E+05  5.258788E-10 -4.680895E-10
       156  12 -3.372041E+05 -8.258427E+04 -7.259702E+03 -1.632840E+05  2.944887E-08  1.427599E-08
       156  13 -3.119792E+05 -7.641613E+04 -1.052886E+04 -1.553455E+05  6.790396E-09 -6.166050E-10
       156  14 -3.134078E+05 -7.202912E+04 -5.491143E+03 -1.535975E+05  2.139100E-09 -8.794582E-09
       156  15 -3.115848E+05 -7.362737E+04 -2.976238E+03 -1.563909E+05 -3.126875E-09 -1.365748E-08
       156  16 -2.267311E+05 -4.415181E+04  4.651138E+03 -1.299861E+05  2.474200E-08  1.281527E-08
       156  17 -2.580597E+05 -5.150408E+04  3.898141E+03 -1.374713E+05 -4.134969E-09  2.496069E-09
       156  18 -2.859646E+05 -6.467031E+04  1.307291E+03 -1.494974E+05 -3.376667E-08 -6.568474E-09
       156  19 -3.972205E+05 -1.086799E+05 -2.570926E+04 -1.807018E+05  6.682286E+03 -4.157706E+03
       156  20 -3.687528E+05 -9.255379E+04 -1.488047E+04 -1.697225E+05  2.379373E+03 -3.740053E+03
       156  21 -3.372041E+05 -8.258426E+04 -7.259678E+03 -1.632840E+05 -2.085863E+03 -2.890002E+03
       156  22 -3.119791E+05 -7.641609E+04 -1.052867E+04 -1.553455E+05  9.810998E+03 -2.983897E+03
       156  23 -3.134078E+05 -7.202911E+04 -5.491058E+03 -1.535976E+05  6.372217E+03 -2.242179E+03
       156  24 -3.115848E+05 -7.362737E+04 -2.976221E+03 -1.563909E+05  2.771258E+03 -1.068008E+03
       156  25 -2.267309E+05 -4.415176E+04  4.651459E+03 -1.299862E+05  1.294013E+04 -1.809910E+03
       156  26 -2.580595E+05 -5.150405E+04  3.898344E+03 -1.374713E+05  1.036544E+04 -7.441528E+02
       156  27 -2.859645E+05 -6.467029E+04  1.307401E+03 -1.494974E+05  7.628648E+03  7.540826E+02
       157   1 -3.176415E+05 -7.578173E+04 -3.305989E+03 -1.580125E+05  3.001429E+03  1.605509E+03
       157   2 -2.892603E+05 -6.262905E+04  2.502666E+03 -1.470517E+05  4.612235E+03 -5.745138E+02
       157   3 -2.567456E+05 -5.388675E+04  7.759940E+03 -1.409804E+05  6.240057E+03 -2.799787E+03
       157   4 -3.114313E+05 -7.360361E+04 -2.227236E+03 -1.563443E+05 -1.832746E+03 -2.078649E+02
       157   5 -3.134983E+05 -7.134654E+04 -1.210038E+03 -1.539224E+05 -3.125077E+02 -2.421904E+03
       157   6 -3.114148E+05 -7.348196E+04 -6.724569E+02 -1.563902E+05  1.224705E+03 -4.681204E+03
       157   7 -3.052209E+05 -7.142547E+04 -1.148384E+03 -1.546761E+05 -6.666969E+03 -2.021256E+03
       157   8 -3.377354E+05 -8.006388E+04 -4.922605E+03 -1.607927E+05 -5.237018E+03 -4.269206E+03
       157   9 -3.660800E+05 -9.307657E+04 -9.104608E+03 -1.717986E+05 -3.790121E+03 -6.562422E+03
       157  10 -3.176415E+05 -7.578173E+04 -3.306011E+03 -1.580125E+05 -2.853344E-08 -5.396596E-09
       157  11 -2.892603E+05 -6.262906E+04  2.502626E+03 -1.470517E+05 -6.274274E-09  2.725308E-09
       157  12 -2.567457E+05 -5.388677E+04  7.759852E+03 -1.409804E+05  2.933049E-08  9.641724E-09
       157  13 -3.114313E+05 -7.360361E+04 -2.227242E+03 -1.563443E+05 -8.103007E-09 -1.176045E-08
       157  14 -3.134983E+05 -7.134654E+04 -1.210050E+03 -1.539224E+05 -2.712863E-09 -1.392325E-09
       157  15 -3.114148E+05 -7.348198E+04 -6.725009E+02 -1.563902E+05  8.153037E-10  1.125979E-08
       157  16 -3.052210E+05 -7.142549E+04 -1.148476E+03 -1.546761E+05  2.396077E-08  1.237953E-08
       157  17 -3.377354E+05 -8.006390E+04 -4.922691E+03 -1.607927E+05 -1.812173E-09 -5.804146E-09
       157  18 -3.660800E+05 -9.307662E+04 -9.104716E+03 -1.717986E+05 -1.973143E-08 -1.761897E-08
       157  19 -3.176415E+05 -7.578173E+04 -3.305989E+03 -1.580125E+05 -3.001429E+03 -1.605509E+03
       157  20 -2.892603E+05 -6.262905E+04  2.502666E+03 -1.470517E+05 -4.612235E+03  5.745138E+02
       157  21 -2.567456E+05 -5.388675E+04  7.759940E+03 -1.409804E+05 -6.240057E+03  2.799787E+03
       157  22 -3.114313E+05 -7.360361E+04 -2.227236E+03 -1.563443E+05  1.832746E+03  2.078649E+02
       157  23 -3.134983E+05 -7.134654E+04 -1.210038E+03 -1.539224E+05  3.125077E+02  2.421904E+03
       157  24 -3.114148E+05 -7.348196E+04 -6.724569E+02 -1.563902E+05 -1.224705E+03  4.681204E+03
       157  25 -3.052209E+05 -7.142547E+04 -1.148384E+03 -1.546761E+05  6.666969E+03  2.021256E+03
       157  26 -3.377354E+05 -8.006388E+04 -4.922605E+03 -1.607927E+05  5.237018E+03  4.269206E+03
       157  27 -3.660800E+05 -9.307657E+04 -9.104608E+03 -1.717986E+05  3.790121E+03  6.562422E+03
       158   1 -2.374701E+05 -4.700293E+04  1.106924E+04 -1.356038E+05  6.882685E+03 -4.225746E+03
       158   2 -2.091553E+05 -3.400922E+04  1.596663E+04 -1.246246E+05  7.978536E+03 -6.676359E+03
       158   3 -1.765888E+05 -2.529552E+04  2.074797E+04 -1.185412E+05  9.075687E+03 -9.129916E+03
       158   4 -3.113965E+05 -7.348545E+04 -5.098528E+02 -1.563810E+05  1.870109E+03 -6.106198E+03
       158   5 -3.135243E+05 -7.135224E+04 -2.981264E+02 -1.539309E+05  2.959823E+03 -8.559334E+03
       158   6 -3.114007E+05 -7.349835E+04 -1.978655E+02 -1.563772E+05  4.050824E+03 -1.101541E+04
       158   7 -3.853179E+05 -9.996770E+04 -1.208918E+04 -1.771561E+05 -3.141895E+03 -7.986434E+03
       158   8 -4.178820E+05 -1.086943E+05 -1.656313E+04 -1.832326E+05 -2.058030E+03 -1.044199E+04
       158   9 -4.461929E+05 -1.216993E+05 -2.114390E+04 -1.942055E+05 -9.728868E+02 -1.290048E+04
       158  10 -2.374701E+05 -4.700296E+04  1.106912E+04 -1.356038E+05 -6.121541E-08 -2.601048E-08
       158  11 -2.091554E+05 -3.400928E+04  1.596643E+04 -1.246246E+05 -2.314000E-08 -1.019381E-08
       158  12 -1.765889E+05 -2.529564E+04  2.074766E+04 -1.185411E+05  3.209494E-08  1.492294E-08
       158  13 -3.113965E+05 -7.348549E+04 -5.099294E+02 -1.563810E+05 -2.657577E-09  1.091614E-08
       158  14 -3.135243E+05 -7.135232E+04 -2.982805E+02 -1.539308E+05 -3.908032E-09  1.736041E-09
       158  15 -3.114007E+05 -7.349848E+04 -1.981243E+02 -1.563772E+05  1.359944E-08  3.085268E-09
       158  16 -3.853179E+05 -9.996778E+04 -1.208932E+04 -1.771561E+05  6.538647E-08  1.307533E-08
       158  17 -4.178821E+05 -1.086945E+05 -1.656335E+04 -1.832327E+05  1.094496E-08 -5.083194E-09
       158  18 -4.461930E+05 -1.216994E+05 -2.114422E+04 -1.942055E+05 -2.553860E-08 -1.316355E-08
       158  19 -2.374701E+05 -4.700293E+04  1.106924E+04 -1.356038E+05 -6.882685E+03  4.225746E+03
       158  20 -2.091553E+05 -3.400922E+04  1.596663E+04 -1.246246E+05 -7.978536E+03  6.676359E+03
       158  21 -1.765888E+05 -2.529552E+04  2.074797E+04 -1.185412E+05 -9.075687E+03  9.129916E+03
       158  22 -3.113965E+05 -7.348545E+04 -5.098528E+02 -1.563810E+05 -1.870109E+03  6.106198E+03
       158  23 -3.135243E+05 -7.135224E+04 -2.981264E+02 -1.539309E+05 -2.959823E+03  8.559334E+03
       158  24 -3.114007E+05 -7.349835E+04 -1.978655E+02 -1.563772E+05 -4.050824E+03  1.101541E+04
       158  25 -3.853179E+05 -9.996770E+04 -1.208918E+04 -1.771561E+05  3.141895E+03  7.986434E+03
       158  26 -4.178820E+05 -1.086943E+05 -1.656313E+04 -1.832326E+05  2.058030E+03  1.044199E+04
       158  27 -4.461929E+05 -1.216993E+05 -2.114390E+04 -1.942055E+05  9.728868E+02  1.290048E+04
       159   1 -1.573556E+05 -1.840052E+04  2.391028E+04 -1.131575E+05  9.655625E+03 -1.058150E+04
       159   2 -1.290726E+05 -5.409281E+03  2.859117E+04 -1.021787E+05  1.065919E+04 -1.306415E+04
       159   3 -9.652442E+04  3.314429E+03  3.322662E+04 -9.608975E+04  1.165819E+04 -1.553381E+04
       159   4 -3.114012E+05 -7.350048E+04 -1.763556E+02 -1.563752E+05  4.631199E+03 -1.246699E+04
       159   5 -3.135330E+05 -7.136954E+04 -1.779724E+02 -1.539287E+05  5.660488E+03 -1.494036E+04
       159   6 -3.114055E+05 -7.351119E+04 -2.453516E+02 -1.563724E+05  6.685227E+03 -1.740073E+04
       159   7 -4.654193E+05 -1.285972E+05 -2.426279E+04 -1.995822E+05 -3.918521E+02 -1.435198E+04
       159   8 -4.979566E+05 -1.373262E+05 -2.894757E+04 -2.056643E+05  6.633609E+02 -1.681597E+04
       159   9 -5.262393E+05 -1.503329E+05 -3.371867E+04 -2.166361E+05  1.714024E+03 -1.926700E+04
       159  10 -1.573557E+05 -1.840067E+04  2.390990E+04 -1.131575E+05  9.277185E-09  5.805722E-09
       159  11 -1.290728E+05 -5.409494E+03  2.859064E+04 -1.021786E+05  8.313103E-09  1.142974E-11
       159  12 -9.652463E+04  3.314134E+03  3.322591E+04 -9.608960E+04  4.253149E-09 -3.010098E-09
       159  13 -3.114012E+05 -7.350065E+04 -1.766880E+02 -1.563751E+05  1.581744E-08  4.931374E-09
       159  14 -3.135331E+05 -7.136979E+04 -1.784520E+02 -1.539286E+05  8.476376E-09  3.507308E-09
       159  15 -3.114057E+05 -7.351153E+04 -2.460044E+02 -1.563723E+05 -1.219655E-10  3.126683E-10
       159  16 -4.654193E+05 -1.285975E+05 -2.426318E+04 -1.995822E+05  6.046140E-09  4.234709E-09
       159  17 -4.979566E+05 -1.373265E+05 -2.894811E+04 -2.056642E+05 -3.085552E-09  6.592670E-09
       159  18 -5.262394E+05 -1.503333E+05 -3.371938E+04 -2.166361E+05 -4.373650E-09  3.932662E-09
       159  19 -1.573556E+05 -1.840052E+04  2.391028E+04 -1.131575E+05 -9.655625E+03  1.058150E+04
       159  20 -1.290726E+05 -5.409281E+03  2.859117E+04 -1.021787E+05 -1.065919E+04  1.306415E+04
       159  21 -9.652442E+04  3.314429E+03  3.322662E+04 -9.608975E+04 -1.165819E+04  1.553381E+04
       159  22 -3.114012E+05 -7.350048E+04 -1.763556E+02 -1.563752E+05 -4.631199E+03  1.246699E+04
       159  23 -3.135330E+05 -7.136954E+04 -1.779724E+02 -1.539287E+05 -5.660488E+03  1.494036E+04
       159  24 -3.114055E+05 -7.351119E+04 -2.453516E+02 -1.563724E+05 -6.685227E+03  1.740073E+04
       159  25 -4.654193E+05 -1.285972E+05 -2.426279E+04 -1.995822E+05  3.918521E+02  1.435198E+04
       159  26 -4.979566E+05 -1.373262E+05 -2.894757E+04 -2.056643E+05 -6.633609E+02  1.681597E+04
       159  27 -5.262393E+05 -1.503329E+05 -3.371867E+04 -2.166361E+05 -1.714024E+03  1.926700E+04
       160   1 -7.730788E+04  1.020978E+04  3.631826E+04 -9.071299E+04  1.225414E+04 -1.696737E+04
       160   2 -4.906237E+04  2.320639E+04  4.088220E+04 -7.973808E+04  1.318784E+04 -1.938784E+04
       160   3 -1.655580E+04  3.193992E+04  4.543027E+04 -7.363624E+04  1.407653E+04 -2.168720E+04
       160   4 -3.114170E+05 -7.351116E+04 -3.075027E+02 -1.563730E+05  7.276210E+03 -1.883643E+04
       160   5 -3.135314E+05 -7.138938E+04 -5.276513E+02 -1.539249E+05  8.451764E+03 -2.116663E+04
       160   6 -3.114333E+05 -7.357885E+04 -9.552882E+02 -1.563506E+05  9.582289E+03 -2.337571E+04
       160   7 -5.454669E+05 -1.572263E+05 -3.693405E+04 -2.220097E+05  2.300265E+03 -2.070474E+04
       160   8 -5.779233E+05 -1.659772E+05 -4.193814E+04 -2.280816E+05  3.717847E+03 -2.294462E+04
       160   9 -6.062137E+05 -1.790872E+05 -4.734130E+04 -2.390269E+05  5.090356E+03 -2.506334E+04
       160  10 -7.730812E+04  1.020943E+04  3.631743E+04 -9.071282E+04  5.865906E-09 -3.086842E-09
       160  11 -4.906266E+04  2.320594E+04  4.088116E+04 -7.973788E+04 -1.128233E-08 -4.779749E-09
       160  12 -1.655614E+04  3.193936E+04  4.542902E+04 -7.363600E+04 -8.149124E-09 -1.853003E-09
       160  13 -3.114172E+05 -7.351155E+04 -3.082688E+02 -1.563729E+05 -3.848778E-09 -1.758515E-09
       160  14 -3.135316E+05 -7.138988E+04 -5.286273E+02 -1.539248E+05 -1.386281E-08 -3.974926E-09
       160  15 -3.114336E+05 -7.357947E+04 -9.564874E+02 -1.563504E+05 -1.041204E-08 -2.309447E-09
       160  16 -5.454671E+05 -1.572268E+05 -3.693487E+04 -2.220096E+05 -1.535256E-08 -1.205307E-09
       160  17 -5.779235E+05 -1.659778E+05 -4.193915E+04 -2.280815E+05 -1.155358E-08 -4.079811E-09
       160  18 -6.062139E+05 -1.790879E+05 -4.734253E+04 -2.390268E+05  6.214426E-09 -1.970560E-09
       160  19 -7.730788E+04  1.020978E+04  3.631826E+04 -9.071299E+04 -1.225414E+04  1.696737E+04
       160  20 -4.906237E+04  2.320639E+04  4.088220E+04 -7.973808E+04 -1.318784E+04  1.938784E+04
       160  21 -1.655580E+04  3.193992E+04  4.543027E+04 -7.363624E+04 -1.407653E+04  2.168720E+04
       160  22 -3.114170E+05 -7.351116E+04 -3.075027E+02 -1.563730E+05 -7.276210E+03  1.883643E+04
       160  23 -3.135314E+05 -7.138938E+04 -5.276513E+02 -1.539249E+05 -8.451764E+03  2.116663E+04
       160  24 -3.114333E+05 -7.357885E+04 -9.552882E+02 -1.563506E+05 -9.582289E+03  2.337571E+04
       160  25 -5.454669E+05 -1.572263E+05 -3.693405E+04 -2.220097E+05 -2.300265E+03  2.070474E+04
       160  26 -5.779233E+05 -1.659772E+05 -4.193814E+04 -2.280816E+05 -3.717847E+03  2.294462E+04
       160  27 -6.062137E+05 -1.790872E+05 -4.734130E+04 -2.390269E+05 -5.090356E+03  2.506334E+04
       161   1  2.687539E+03  3.882322E+04  4.841605E+04 -6.831768E+04  1.481905E+04 -2.295968E+04
       161   2  3.059901E+04  5.194965E+04  5.314370E+04 -5.704483E+04  1.436042E+04 -2.507855E+04
       161   3  6.274427E+04  6.059942E+04  5.860727E+04 -5.042895E+04  1.347364E+04 -2.605659E+04
       161   4 -3.115105E+05 -7.357957E+04 -1.271586E+03 -1.563541E+05  1.026584E+04 -2.467065E+04
       161   5 -3.134897E+05 -7.171575E+04 -2.341197E+03 -1.538014E+05  1.208841E+04 -2.593353E+04
       161   6 -3.116885E+05 -7.478138E+04 -4.482847E+03 -1.559067E+05  1.348281E+04 -2.605516E+04
       161   7 -6.256061E+05 -1.859736E+05 -5.096199E+04 -2.443497E+05  5.715004E+03 -2.638074E+04
       161   8 -6.574535E+05 -1.953697E+05 -5.782911E+04 -2.505082E+05  9.817731E+03 -2.678801E+04
       161   9 -6.859720E+05 -2.101479E+05 -6.757664E+04 -2.613247E+05  1.349198E+04 -2.605373E+04
       161  10  2.687162E+03  3.882260E+04  4.841465E+04 -6.831741E+04  6.572833E-10  3.859766E-09
       161  11  3.059862E+04  5.194892E+04  5.314213E+04 -5.704454E+04 -2.730208E-09  3.380217E-09
       161  12  6.274389E+04  6.059865E+04  5.860565E+04 -5.042867E+04 -5.914438E-10  2.551482E-09
       161  13 -3.115107E+05 -7.358025E+04 -1.272927E+03 -1.563539E+05 -2.159226E-09 -7.331460E-10
       161  14 -3.134900E+05 -7.171651E+04 -2.342735E+03 -1.538012E+05 -2.611426E-09  5.176319E-10
       161  15 -3.116888E+05 -7.478216E+04 -4.484464E+03 -1.559064E+05  6.250089E-09  1.399832E-09
       161  16 -6.256063E+05 -1.859743E+05 -5.096336E+04 -2.443496E+05 -2.566327E-10 -3.571773E-09
       161  17 -6.574538E+05 -1.953705E+05 -5.783064E+04 -2.505080E+05  1.019575E-09 -1.462826E-09
       161  18 -6.859724E+05 -2.101487E+05 -6.757826E+04 -2.613244E+05  5.520177E-09  8.704456E-10
       161  19  2.687539E+03  3.882322E+04  4.841605E+04 -6.831768E+04 -1.481905E+04  2.295968E+04
       161  20  3.059901E+04  5.194965E+04  5.314370E+04 -5.704483E+04 -1.436042E+04  2.507855E+04
       161  21  6.274427E+04  6.059942E+04  5.860727E+04 -5.042895E+04 -1.347364E+04  2.605659E+04
       161  22 -3.115105E+05 -7.357957E+04 -1.271586E+03 -1.563541E+05 -1.026584E+04  2.467065E+04
       161  23 -3.134897E+05 -7.171575E+04 -2.341197E+03 -1.538014E+05 -1.208841E+04  2.593353E+04
       161  24 -3.116885E+05 -7.478138E+04 -4.482847E+03 -1.559067E+05 -1.348281E+04  2.605516E+04
       161  25 -6.256061E+05 -1.859736E+05 -5.096199E+04 -2.443497E+05 -5.715004E+03  2.638074E+04
       161  26 -6.574535E+05 -1.953697E+05 -5.782911E+04 -2.505082E+05 -9.817731E+03  2.678801E+04
       161  27 -6.859720E+05 -2.101479E+05 -6.757664E+04 -2.613247E+05 -1.349198E+04  2.605373E+04
       162   1  8.249193E+04  6.714139E+04  6.182525E+04 -4.576270E+04  1.491166E+04 -2.607673E+04
       162   2  1.054213E+05  8.199578E+04  7.177113E+04 -2.853414E+04 -2.680751E+03 -2.683242E+04
       162   3  1.316574E+05  8.722546E+04  9.162449E+04 -1.297008E+04 -2.434264E+04 -1.676632E+04
       162   4 -3.124923E+05 -7.495100E+04 -6.016930E+03 -1.559296E+05  1.434385E+04 -2.629212E+04
       162   5 -3.133044E+05 -7.718239E+04 -1.155069E+04 -1.516485E+05  1.839979E+04 -1.891429E+04
       162   6 -3.151014E+05 -9.333099E+04 -2.433252E+04 -1.490324E+05  1.838602E+04 -7.103031E+02
       162   7 -7.073101E+05 -2.170279E+05 -7.386331E+04 -2.660309E+05  1.377643E+04 -2.650738E+04
       162   8 -7.318399E+05 -2.363377E+05 -9.487683E+04 -2.746821E+05  3.946474E+04 -1.100258E+04
       162   9 -7.616463E+05 -2.738580E+05 -1.402945E+05 -2.849975E+05  6.107974E+04  1.533027E+04
       162  10  8.249151E+04  6.714060E+04  6.182356E+04 -4.576239E+04  1.035787E-08  4.007960E-09
       162  11  1.054211E+05  8.199501E+04  7.176977E+04 -2.853420E+04  8.073591E-09 -2.328127E-09
       162  12  1.316567E+05  8.722500E+04  9.162285E+04 -1.297040E+04 -2.752699E-09 -3.631673E-09
       162  13 -3.124927E+05 -7.495180E+04 -6.018616E+03 -1.559293E+05  9.383514E-09 -2.675979E-10
       162  14 -3.133049E+05 -7.718286E+04 -1.155199E+04 -1.516483E+05  5.300882E-09 -3.197012E-10
       162  15 -3.151018E+05 -9.333108E+04 -2.433316E+04 -1.490324E+05  1.451943E-09 -4.947863E-10
       162  16 -7.073105E+05 -2.170287E+05 -7.386499E+04 -2.660306E+05 -3.008227E-09 -2.327901E-09
       162  17 -7.318416E+05 -2.363382E+05 -9.487999E+04 -2.746818E+05 -1.143440E-09 -5.800739E-10
       162  18 -7.616504E+05 -2.738593E+05 -1.403019E+05 -2.849982E+05  3.535399E-09  1.220228E-09
       162  19  8.249193E+04  6.714139E+04  6.182525E+04 -4.576270E+04 -1.491166E+04  2.607673E+04
       162  20  1.054213E+05  8.199578E+04  7.177113E+04 -2.853414E+04  2.680751E+03  2.683242E+04
       162  21  1.316574E+05  8.722546E+04  9.162449E+04 -1.297008E+04  2.434264E+04  1.676632E+04
       162  22 -3.124923E+05 -7.495100E+04 -6.016930E+03 -1.559296E+05 -1.434385E+04  2.629212E+04
       162  23 -3.133044E+05 -7.718239E+04 -1.155069E+04 -1.516485E+05 -1.839979E+04  1.891429E+04
       162  24 -3.151014E+05 -9.333099E+04 -2.433252E+04 -1.490324E+05 -1.838602E+04  7.103031E+02
       162  25 -7.073101E+05 -2.170279E+05 -7.386331E+04 -2.660309E+05 -1.377643E+04  2.650738E+04
       162  26 -7.318399E+05 -2.363377E+05 -9.487683E+04 -2.746821E+05 -3.946474E+04  1.100258E+04
       162  27 -7.616463E+05 -2.738580E+05 -1.402945E+05 -2.849975E+05 -6.107974E+04 -1.533027E+04
       163   1 -2.504667E+05 -4.759949E+04 -7.424286E+04 -1.773860E+04 -7.998851E+04 -1.498221E+03
       163   2 -2.415756E+05  6.063375E+04 -9.221320E+03 -6.005362E+03 -5.310717E+04 -4.345331E+03
       163   3 -2.670038E+05  4.539670E+04  7.443113E+03  1.429932E+04 -2.622927E+04 -3.902276E+03
       163   4 -4.325632E+05 -9.303804E+04 -1.194391E+05  4.199706E+03 -8.159449E+04 -1.502173E+03
       163   5 -4.152867E+05  1.740456E+04 -5.165467E+04 -1.205844E+02 -5.353683E+04 -4.346273E+03
       163   6 -4.325444E+05  4.153029E+03 -3.305471E+04  4.130758E+03 -2.548218E+04 -3.901195E+03
       163   7 -6.146286E+05 -1.384772E+05 -1.646375E+05  2.613156E+04 -8.320000E+04 -1.506239E+03
       163   8 -5.889703E+05 -2.582672E+04 -9.409020E+04  5.762536E+03 -5.396636E+04 -4.347223E+03
       163   9 -5.980597E+05 -3.709229E+04 -7.355447E+04 -6.035093E+03 -2.473530E+04 -3.900138E+03
       163  10 -2.504735E+05 -4.760121E+04 -7.425490E+04 -1.773870E+04 -4.045630E-09  8.705069E-10
       163  11 -2.415786E+05  6.063297E+04 -9.226657E+03 -6.005548E+03  9.980678E-10  4.913933E-10
       163  12 -2.670046E+05  4.539650E+04  7.441791E+03  1.429924E+04 -5.197201E-09 -1.152935E-09
       163  13 -4.325704E+05 -9.303983E+04 -1.194516E+05  4.199607E+03 -4.457212E-09  8.423539E-10
       163  14 -4.152898E+05  1.740377E+04 -5.166009E+04 -1.207718E+02  1.712633E-09 -4.531106E-10
       163  15 -4.325451E+05  4.152838E+03 -3.305596E+04  4.130678E+03  1.903291E-10 -1.424917E-09
       163  16 -6.146360E+05 -1.384791E+05 -1.646506E+05  2.613146E+04  4.547473E-10  7.463625E-10
       163  17 -5.889734E+05 -2.582752E+04 -9.409571E+04  5.762347E+03  3.460041E-09 -9.240149E-10
       163  18 -5.980603E+05 -3.709247E+04 -7.355565E+04 -6.035171E+03  4.087021E-09 -1.652488E-09
       163  19 -2.504667E+05 -4.759949E+04 -7.424286E+04 -1.773860E+04  7.998851E+04  1.498221E+03
       163  20 -2.415756E+05  6.063375E+04 -9.221320E+03 -6.005362E+03  5.310717E+04  4.345331E+03
       163  21 -2.670038E+05  4.539670E+04  7.443113E+03  1.429932E+04  2.622927E+04  3.902276E+03
       163  22 -4.325632E+05 -9.303804E+04 -1.194391E+05  4.199706E+03  8.159449E+04  1.502173E+03
       163  23 -4.152867E+05  1.740456E+04 -5.165467E+04 -1.205844E+02  5.353683E+04  4.346273E+03
       163  24 -4.325444E+05  4.153029E+03 -3.305471E+04  4.130758E+03  2.548218E+04  3.901195E+03
       163  25 -6.146286E+05 -1.384772E+05 -1.646375E+05  2.613156E+04  8.320000E+04  1.506239E+03
       163  26 -5.889703E+05 -2.582672E+04 -9.409020E+04  5.762536E+03  5.396636E+04  4.347223E+03
       163  27 -5.980597E+05 -3.709229E+04 -7.355447E+04 -6.035093E+03  2.473530E+04  3.900138E+03
       164   1 -2.779974E+05  2.506161E+04  9.080504E+03  1.791182E+03 -2.012368E+04 -3.229203E+03
       164   2 -2.842816E+05  3.689886E+04  2.063874E+04 -7.827108E+02 -1.329411E+04 -3.244262E+03
       164   3 -2.953603E+05  3.305245E+04  2.383202E+04  5.709342E+03 -6.464981E+03 -2.905741E+03
       164   4 -4.259440E+05 -1.178238E+04 -2.716747E+04  4.273368E+03 -2.019202E+04 -3.229407E+03
       164   5 -4.235335E+05  2.225507E+03 -1.343077E+04 -2.662636E+02 -1.323669E+04 -3.244256E+03
       164   6 -4.259404E+05  5.259482E+02 -8.147781E+03  4.260177E+03 -6.281717E+03 -2.905532E+03
       164   7 -5.738705E+05 -4.862796E+04 -6.341704E+04  6.754956E+03 -2.026034E+04 -3.229613E+03
       164   8 -5.627677E+05 -3.244928E+04 -4.750169E+04  2.500624E+02 -1.317929E+04 -3.244250E+03
       164   9 -5.565050E+05 -3.200181E+04 -4.012883E+04  2.811313E+03 -6.098491E+03 -2.905324E+03
       164  10 -2.779978E+05  2.506149E+04  9.079723E+03  1.791130E+03  1.175515E-10 -2.922075E-09
       164  11 -2.842818E+05  3.689880E+04  2.063839E+04 -7.827455E+02  1.275638E-09  8.992472E-10
       164  12 -2.953603E+05  3.305243E+04  2.383193E+04  5.709327E+03  1.633279E-09  3.028070E-09
       164  13 -4.259444E+05 -1.178250E+04 -2.716825E+04  4.273316E+03 -1.065894E-11 -4.309162E-09
       164  14 -4.235337E+05  2.225449E+03 -1.343111E+04 -2.662981E+02  1.533577E-09 -1.979488E-09
       164  15 -4.259405E+05  5.259286E+02 -8.147871E+03  4.260162E+03  2.056123E-09  1.865858E-10
       164  16 -5.738710E+05 -4.862809E+04 -6.341783E+04  6.754903E+03 -3.888049E-09 -7.679954E-10
       164  17 -5.627679E+05 -3.244934E+04 -4.750203E+04  2.500280E+02 -1.306279E-09 -1.500613E-09
       164  18 -5.565051E+05 -3.200183E+04 -4.012891E+04  2.811298E+03 -1.942934E-10  2.186912E-09
       164  19 -2.779974E+05  2.506161E+04  9.080504E+03  1.791182E+03  2.012368E+04  3.229203E+03
       164  20 -2.842816E+05  3.689886E+04  2.063874E+04 -7.827108E+02  1.329411E+04  3.244262E+03
       164  21 -2.953603E+05  3.305245E+04  2.383202E+04  5.709342E+03  6.464981E+03  2.905741E+03
       164  22 -4.259440E+05 -1.178238E+04 -2.716747E+04  4.273368E+03  2.019202E+04  3.229407E+03
       164  23 -4.235335E+05  2.225507E+03 -1.343077E+04 -2.662636E+02  1.323669E+04  3.244256E+03
       164  24 -4.259404E+05  5.259482E+02 -8.147781E+03  4.260177E+03  6.281717E+03  2.905532E+03
       164  25 -5.738705E+05 -4.862796E+04 -6.341704E+04  6.754956E+03  2.026034E+04  3.229613E+03
       164  26 -5.627677E+05 -3.244928E+04 -4.750169E+04  2.500624E+02  1.317929E+04  3.244250E+03
       164  27 -5.565050E+05 -3.200181E+04 -4.012883E+04  2.811313E+03  6.098491E+03  2.905324E+03
       165   1 -3.128978E+05  2.644869E+04  2.096905E+04  4.180867E+03 -5.077318E+03 -2.665511E+03
       165   2 -3.215653E+05  2.595870E+04  2.177178E+04 -3.096732E+02 -3.344184E+03 -2.374322E+03
       165   3 -3.309591E+05  2.350684E+04  2.095315E+04  4.630057E+03 -1.611222E+03 -2.040475E+03
       165   4 -4.250311E+05 -1.470608E+03 -6.452390E+03  4.346985E+03 -4.980440E+03 -2.665415E+03
       165   5 -4.246662E+05  2.839942E+02 -3.458655E+03 -3.692502E+02 -3.232239E+03 -2.374189E+03
       165   6 -4.250304E+05  7.391270E+01 -2.096959E+03  4.344886E+03 -1.484184E+03 -2.040302E+03
       165   7 -5.371529E+05 -2.939083E+04 -3.387475E+04  4.513068E+03 -4.883580E+03 -2.665318E+03
       165   8 -5.277573E+05 -2.539150E+04 -2.868987E+04 -4.288208E+02 -3.120312E+03 -2.374055E+03
       165   9 -5.190936E+05 -2.335967E+04 -2.514772E+04  4.059756E+03 -1.357165E+03 -2.040130E+03
       165  10 -3.128979E+05  2.644867E+04  2.096899E+04  4.180856E+03 -5.654849E-10  4.606292E-09
       165  11 -3.215653E+05  2.595869E+04  2.177175E+04 -3.096796E+02 -4.161951E-09  2.933003E-09
       165  12 -3.309591E+05  2.350683E+04  2.095314E+04  4.630054E+03 -1.912832E-09 -2.279158E-09
       165  13 -4.250312E+05 -1.470622E+03 -6.452450E+03  4.346974E+03 -4.037063E-09  8.146968E-10
       165  14 -4.246662E+05  2.839854E+02 -3.458685E+03 -3.692564E+02  1.387828E-09  2.948251E-09
       165  15 -4.250304E+05  7.390764E+01 -2.096971E+03  4.344884E+03  1.533788E-09  3.000423E-09
       165  16 -5.371530E+05 -2.939085E+04 -3.387481E+04  4.513058E+03  1.022942E-09  4.057574E-09
       165  17 -5.277573E+05 -2.539150E+04 -2.868990E+04 -4.288267E+02  1.493920E-09  2.984786E-09
       165  18 -5.190936E+05 -2.335967E+04 -2.514773E+04  4.059754E+03 -2.571927E-09  2.353485E-09
       165  19 -3.128978E+05  2.644869E+04  2.096905E+04  4.180867E+03  5.077318E+03  2.665511E+03
       165  20 -3.215653E+05  2.595870E+04  2.177178E+04 -3.096732E+02  3.344184E+03  2.374322E+03
       165  21 -3.309591E+05  2.350684E+04  2.095315E+04  4.630057E+03  1.611222E+03  2.040475E+03
       165  22 -4.250311E+05 -1.470608E+03 -6.452390E+03  4.346985E+03  4.980440E+03  2.665415E+03
       165  23 -4.246662E+05  2.839942E+02 -3.458655E+03 -3.692502E+02  3.232239E+03  2.374189E+03
       165  24 -4.250304E+05  7.391270E+01 -2.096959E+03  4.344886E+03  1.484184E+03  2.040302E+03
       165  25 -5.371529E+05 -2.939083E+04 -3.387475E+04  4.513068E+03  4.883580E+03  2.665318E+03
       165  26 -5.277573E+05 -2.539150E+04 -2.868987E+04 -4.288208E+02  3.120312E+03  2.374055E+03
       165  27 -5.190936E+05 -2.335967E+04 -2.514772E+04  4.059756E+03  1.357165E+03  2.040130E+03
       166   1 -3.499039E+05  1.850255E+04  1.665410E+04  4.464011E+03 -1.263319E+03 -1.840891E+03
       166   2 -3.591008E+05  1.640720E+04  1.502173E+04 -3.620472E+02 -7.363409E+02 -1.509825E+03
       166   3 -3.684572E+05  1.406509E+04  1.297832E+04  4.497750E+03 -2.094512E+02 -1.171081E+03
       166   4 -4.249030E+05 -1.691011E+02 -1.672704E+03  4.402562E+03 -1.145770E+03 -1.840723E+03
       166   5 -4.248228E+05  4.016365E+01 -1.062323E+03 -4.405311E+02 -6.160869E+02 -1.509643E+03
       166   6 -4.249028E+05  2.140356E+00 -8.649261E+02  4.402296E+03 -8.648386E+01 -1.170883E+03
       166   7 -4.998970E+05 -1.884117E+04 -1.999992E+04  4.341119E+03 -1.028236E+03 -1.840555E+03
       166   8 -4.905409E+05 -1.632720E+04 -1.714669E+04 -5.190082E+02 -4.958456E+02 -1.509460E+03
       166   9 -4.813455E+05 -1.406105E+04 -1.470840E+04  4.306849E+03  3.647234E+01 -1.170685E+03
       166  10 -3.499039E+05  1.850254E+04  1.665410E+04  4.464010E+03 -1.495595E-09 -2.462738E-09
       166  11 -3.591008E+05  1.640720E+04  1.502172E+04 -3.620481E+02 -4.797867E-10  4.599591E-09
       166  12 -3.684572E+05  1.406509E+04  1.297831E+04  4.497750E+03 -1.564478E-09  3.188634E-09
       166  13 -4.249030E+05 -1.691051E+02 -1.672713E+03  4.402561E+03 -4.273857E-09  2.249244E-10
       166  14 -4.248228E+05  4.016110E+01 -1.062328E+03 -4.405318E+02 -2.242255E-09  3.195253E-09
       166  15 -4.249028E+05  2.138882E+00 -8.649287E+02  4.402296E+03 -1.890234E-09 -5.175311E-10
       166  16 -4.998970E+05 -1.884117E+04 -1.999993E+04  4.341117E+03 -1.238212E-09  2.084630E-09
       166  17 -4.905409E+05 -1.632720E+04 -1.714670E+04 -5.190088E+02 -2.015099E-09 -1.371665E-09
       166  18 -4.813455E+05 -1.406105E+04 -1.470840E+04  4.306849E+03 -2.875251E-10 -2.419853E-09
       166  19 -3.499039E+05  1.850255E+04  1.665410E+04  4.464011E+03  1.263319E+03  1.840891E+03
       166  20 -3.591008E+05  1.640720E+04  1.502173E+04 -3.620472E+02  7.363409E+02  1.509825E+03
       166  21 -3.684572E+05  1.406509E+04  1.297832E+04  4.497750E+03  2.094512E+02  1.171081E+03
       166  22 -4.249030E+05 -1.691011E+02 -1.672704E+03  4.402562E+03  1.145770E+03  1.840723E+03
       166  23 -4.248228E+05  4.016365E+01 -1.062323E+03 -4.405311E+02  6.160869E+02  1.509643E+03
       166  24 -4.249028E+05  2.140356E+00 -8.649261E+02  4.402296E+03  8.648386E+01  1.170883E+03
       166  25 -4.998970E+05 -1.884117E+04 -1.999992E+04  4.341119E+03  1.028236E+03  1.840555E+03
       166  26 -4.905409E+05 -1.632720E+04 -1.714669E+04 -5.190082E+02  4.958456E+02  1.509460E+03
       166  27 -4.813455E+05 -1.406105E+04 -1.470840E+04  4.306849E+03 -3.647234E+01  1.170685E+03
       167   1 -3.879294E+05  9.202600E+03  8.158031E+03  4.457004E+03 -5.328346E+01 -9.722072E+02
       167   2 -3.972574E+05  6.904139E+03  5.703663E+03 -4.446407E+02  4.662429E+02 -6.316089E+02
       167   3 -4.067531E+05  4.367068E+03  2.842806E+03  4.483246E+03  9.857432E+02 -2.909780E+02
       167   4 -4.249039E+05  3.812118E-01 -8.619217E+02  4.434215E+03  6.895098E+01 -9.720048E+02
       167   5 -4.248202E+05  3.988810E+01 -1.041953E+03 -4.804266E+02  5.884678E+02 -6.314021E+02
       167   6 -4.249040E+05 -1.591780E+02 -1.628436E+03  4.434491E+03  1.107966E+03 -2.907668E+02
       167   7 -4.618772E+05 -9.201939E+03 -9.881974E+03  4.411426E+03  1.911782E+02 -9.718023E+02
       167   8 -4.523822E+05 -6.824419E+03 -7.787625E+03 -5.162111E+02  7.106872E+02 -6.311954E+02
       167   9 -4.430546E+05 -4.685448E+03 -6.099701E+03  4.385738E+03  1.230186E+03 -2.905555E+02
       167  10 -3.879294E+05  9.202599E+03  8.158029E+03  4.457004E+03  8.080182E-10  8.573676E-10
       167  11 -3.972574E+05  6.904138E+03  5.703662E+03 -4.446405E+02  2.763700E-10  1.602630E-09
       167  12 -4.067531E+05  4.367067E+03  2.842804E+03  4.483246E+03  5.223320E-10 -2.893027E-09
       167  13 -4.249039E+05  3.801961E-01 -8.619235E+02  4.434215E+03 -2.494751E-09  4.401987E-09
       167  14 -4.248202E+05  3.988758E+01 -1.041955E+03 -4.804263E+02 -1.067115E-09  1.857591E-09
       167  15 -4.249040E+05 -1.591785E+02 -1.628438E+03  4.434491E+03 -2.188791E-09 -3.208412E-09
       167  16 -4.618772E+05 -9.201940E+03 -9.881976E+03  4.411426E+03 -3.766222E-09  1.880136E-09
       167  17 -4.523822E+05 -6.824420E+03 -7.787627E+03 -5.162108E+02 -2.552361E-09  1.053127E-09
       167  18 -4.430546E+05 -4.685449E+03 -6.099704E+03  4.385738E+03 -3.433766E-09 -3.600194E-09
       167  19 -3.879294E+05  9.202600E+03  8.158031E+03  4.457004E+03  5.328346E+01  9.722072E+02
       167  20 -3.972574E+05  6.904139E+03  5.703663E+03 -4.446407E+02 -4.662429E+02  6.316089E+02
       167  21 -4.067531E+05  4.367068E+03  2.842806E+03  4.483246E+03 -9.857432E+02  2.909780E+02
       167  22 -4.249039E+05  3.812117E-01 -8.619217E+02  4.434215E+03 -6.895098E+01  9.720048E+02
       167  23 -4.248202E+05  3.988810E+01 -1.041953E+03 -4.804266E+02 -5.884678E+02  6.314021E+02
       167  24 -4.249040E+05 -1.591780E+02 -1.628436E+03  4.434491E+03 -1.107966E+03  2.907668E+02
       167  25 -4.618772E+05 -9.201939E+03 -9.881974E+03  4.411426E+03 -1.911782E+02  9.718023E+02
       167  26 -4.523822E+05 -6.824419E+03 -7.787625E+03 -5.162111E+02 -7.106872E+02  6.311954E+02
       167  27 -4.430546E+05 -4.685448E+03 -6.099701E+03  4.385738E+03 -1.230186E+03  2.905555E+02
       168   1 -4.265169E+05 -3.022879E+02 -2.431992E+03  4.265113E+03  1.310231E+03 -8.792287E+01
       168   2 -4.355848E+05 -2.442656E+03 -6.026156E+03 -4.529315E+02  3.012682E+03  2.578031E+02
       168   3 -4.453914E+05 -6.481990E+03 -1.121285E+04  4.685139E+03  4.715151E+03  5.828848E+02
       168   4 -4.250305E+05  7.447693E+01 -2.038916E+03  4.439354E+03  1.437292E+03 -8.770173E+01
       168   5 -4.246620E+05  2.773121E+02 -3.353403E+03 -4.874178E+02  3.132342E+03  2.580089E+02
       168   6 -4.250312E+05 -1.417500E+03 -6.255233E+03  4.441918E+03  4.827435E+03  5.830746E+02
       168   7 -4.235441E+05  4.512417E+02 -1.645840E+03  4.613595E+03  1.564353E+03 -8.748051E+01
       168   8 -4.137392E+05  2.997271E+03 -6.806587E+02 -5.219048E+02  3.252004E+03  2.582147E+02
       168   9 -4.046705E+05  3.646960E+03 -1.297649E+03  4.198688E+03  4.939724E+03  5.832643E+02
       168  10 -4.265169E+05 -3.022883E+02 -2.431995E+03  4.265113E+03 -3.735041E-09  2.292939E-10
       168  11 -4.355848E+05 -2.442658E+03 -6.026173E+03 -4.529322E+02 -7.920607E-10  2.552862E-09
       168  12 -4.453914E+05 -6.481996E+03 -1.121289E+04  4.685137E+03  5.562584E-09  1.420962E-09
       168  13 -4.250305E+05  7.447637E+01 -2.038920E+03  4.439354E+03  1.103665E-11 -9.824604E-10
       168  14 -4.246621E+05  2.773094E+02 -3.353421E+03 -4.874185E+02  1.510662E-10  4.174380E-09
       168  15 -4.250312E+05 -1.417507E+03 -6.255277E+03  4.441915E+03 -1.417284E-09  1.673261E-09
       168  16 -4.235441E+05  4.512410E+02 -1.645845E+03  4.613595E+03  4.953566E-09 -6.014251E-10
       168  17 -4.137392E+05  2.997268E+03 -6.806787E+02 -5.219055E+02  1.201308E-09 -2.605341E-09
       168  18 -4.046705E+05  3.646953E+03 -1.297696E+03  4.198686E+03  2.092067E-10 -4.902396E-10
       168  19 -4.265169E+05 -3.022879E+02 -2.431992E+03  4.265113E+03 -1.310231E+03  8.792287E+01
       168  20 -4.355848E+05 -2.442656E+03 -6.026156E+03 -4.529315E+02 -3.012682E+03 -2.578031E+02
       168  21 -4.453914E+05 -6.481990E+03 -1.121285E+04  4.685139E+03 -4.715151E+03 -5.828848E+02
       168  22 -4.250305E+05  7.447693E+01 -2.038916E+03  4.439354E+03 -1.437292E+03  8.770173E+01
       168  23 -4.246620E+05  2.773121E+02 -3.353403E+03 -4.874178E+02 -3.132342E+03 -2.580089E+02
       168  24 -4.250312E+05 -1.417500E+03 -6.255233E+03  4.441918E+03 -4.827435E+03 -5.830746E+02
       168  25 -4.235441E+05  4.512417E+02 -1.645840E+03  4.613595E+03 -1.564353E+03  8.748051E+01
       168  26 -4.137392E+05  2.997271E+03 -6.806587E+02 -5.219048E+02 -3.252004E+03 -2.582147E+02
       168  27 -4.046705E+05  3.646960E+03 -1.297649E+03  4.198688E+03 -4.939724E+03 -5.832643E+02
       169   1 -4.658421E+05 -9.438742E+03 -1.769858E+04  3.083201E+03  5.929177E+03  8.121615E+02
       169   2 -4.728346E+05 -1.010871E+04 -2.506913E+04  9.373265E+01  1.273790E+04  1.170472E+03
       169   3 -4.845566E+05 -2.600430E+04 -4.068864E+04  6.880742E+03  1.954674E+04  1.334740E+03
       169   4 -4.259153E+05  5.158693E+02 -7.898768E+03  4.416120E+03  6.089149E+03  8.124431E+02
       169   5 -4.235584E+05  2.160176E+03 -1.301372E+04 -4.624168E+02  1.282852E+04  1.170604E+03
       169   6 -4.259187E+05 -1.140844E+04 -2.632894E+04  4.435530E+03  1.956812E+04  1.334687E+03
       169   7 -3.859871E+05  1.047037E+04  1.900924E+03  5.749125E+03  6.249130E+03  8.127254E+02
       169   8 -3.742800E+05  1.442888E+04 -9.584801E+02 -1.018611E+03  1.291915E+04  1.170736E+03
       169   9 -3.672777E+05  3.187182E+03 -1.196949E+04  1.990086E+03  1.958949E+04  1.334634E+03
       169  10 -4.658421E+05 -9.438752E+03 -1.769864E+04  3.083197E+03 -3.563266E-10  2.620092E-09
       169  11 -4.728348E+05 -1.010875E+04 -2.506944E+04  9.372064E+01 -9.249816E-10  2.829255E-09
       169  12 -4.845570E+05 -2.600440E+04 -4.068936E+04  6.880721E+03  3.404955E-09  1.623025E-09
       169  13 -4.259154E+05  5.158586E+02 -7.898839E+03  4.416116E+03  2.138460E-09  1.470868E-09
       169  14 -4.235586E+05  2.160131E+03 -1.301403E+04 -4.624289E+02  1.779435E-10  4.492528E-09
       169  15 -4.259191E+05 -1.140855E+04 -2.632966E+04  4.435509E+03  2.223789E-09 -1.591060E-09
       169  16 -3.859872E+05  1.047036E+04  1.900849E+03  5.749121E+03  1.744653E-09  1.242699E-09
       169  17 -3.742802E+05  1.442884E+04 -9.587965E+02 -1.018624E+03 -9.489289E-10  4.207507E-10
       169  18 -3.672781E+05  3.187077E+03 -1.197022E+04  1.990065E+03 -8.287456E-10 -2.571955E-09
       169  19 -4.658421E+05 -9.438742E+03 -1.769858E+04  3.083201E+03 -5.929177E+03 -8.121615E+02
       169  20 -4.728346E+05 -1.010871E+04 -2.506913E+04  9.373265E+01 -1.273790E+04 -1.170472E+03
       169  21 -4.845566E+05 -2.600430E+04 -4.068864E+04  6.880742E+03 -1.954674E+04 -1.334740E+03
       169  22 -4.259153E+05  5.158693E+02 -7.898768E+03  4.416120E+03 -6.089149E+03 -8.124431E+02
       169  23 -4.235584E+05  2.160176E+03 -1.301372E+04 -4.624168E+02 -1.282852E+04 -1.170604E+03
       169  24 -4.259187E+05 -1.140844E+04 -2.632894E+04  4.435530E+03 -1.956812E+04 -1.334687E+03
       169  25 -3.859871E+05  1.047037E+04  1.900924E+03  5.749125E+03 -6.249130E+03 -8.127254E+02
       169  26 -3.742800E+05  1.442888E+04 -9.584801E+02 -1.018611E+03 -1.291915E+04 -1.170736E+03
       169  27 -3.672777E+05  3.187182E+03 -1.196949E+04  1.990086E+03 -1.958949E+04 -1.334634E+03
       170   1 -5.101951E+05 -1.540137E+04 -5.110747E+04 -5.481082E+03  2.422164E+04  1.808386E+03
       170   2 -5.025927E+05 -4.773250E+03 -7.130986E+04  5.301856E+03  5.206023E+04  2.251704E+03
       170   3 -5.286400E+05 -1.141317E+05 -1.396462E+05  2.572448E+04  7.990171E+04  8.723963E+02
       170   4 -4.323178E+05  4.033840E+03 -3.203477E+04  4.346801E+03  2.469538E+04  1.809504E+03
       170   5 -4.155612E+05  1.687203E+04 -5.005391E+04 -4.046522E+02  5.188112E+04  2.250926E+03
       170   6 -4.323363E+05 -9.015470E+04 -1.157485E+05  4.483884E+03  7.907020E+04  8.684409E+02
       170   7 -3.544348E+05  2.346896E+04 -1.296246E+04  1.417592E+04  2.516918E+04  1.810637E+03
       170   8 -3.285227E+05  3.851687E+04 -2.879849E+04 -6.111965E+03  5.170199E+04  2.250152E+03
       170   9 -3.360232E+05 -6.617671E+04 -9.185129E+04 -1.676002E+04  7.823855E+04  8.645429E+02
       170  10 -5.101958E+05 -1.540153E+04 -5.110858E+04 -5.481117E+03 -1.362320E-09 -1.462966E-10
       170  11 -5.025956E+05 -4.773984E+03 -7.131497E+04  5.301762E+03 -2.148606E-09 -7.933215E-10
       170  12 -5.286468E+05 -1.141334E+05 -1.396582E+05  2.572443E+04  9.679989E-10 -4.894185E-10
       170  13 -4.323185E+05  4.033673E+03 -3.203592E+04  4.346765E+03 -2.922318E-10  2.241436E-09
       170  14 -4.155640E+05  1.687130E+04 -5.005898E+04 -4.047463E+02  2.716425E-09 -2.677281E-09
       170  15 -4.323430E+05 -9.015638E+04 -1.157603E+05  4.483829E+03 -3.577121E-09  3.248744E-09
       170  16 -3.544355E+05  2.346879E+04 -1.296366E+04  1.417588E+04 -6.576642E-10  1.416947E-09
       170  17 -3.285255E+05  3.851614E+04 -2.880352E+04 -6.112059E+03 -4.866800E-10  2.853716E-09
       170  18 -3.360298E+05 -6.617836E+04 -9.186280E+04 -1.676007E+04 -6.881475E-10  5.176352E-10
       170  19 -5.101951E+05 -1.540137E+04 -5.110747E+04 -5.481082E+03 -2.422164E+04 -1.808386E+03
       170  20 -5.025927E+05 -4.773250E+03 -7.130986E+04  5.301856E+03 -5.206023E+04 -2.251704E+03
       170  21 -5.286400E+05 -1.141317E+05 -1.396462E+05  2.572448E+04 -7.990171E+04 -8.723963E+02
       170  22 -4.323178E+05  4.033840E+03 -3.203477E+04  4.346801E+03 -2.469538E+04 -1.809504E+03
       170  23 -4.155612E+05  1.687203E+04 -5.005391E+04 -4.046522E+02 -5.188112E+04 -2.250926E+03
       170  24 -4.323363E+05 -9.015470E+04 -1.157485E+05  4.483884E+03 -7.907020E+04 -8.684409E+02
       170  25 -3.544348E+05  2.346896E+04 -1.296246E+04  1.417592E+04 -2.516918E+04 -1.810637E+03
       170  26 -3.285227E+05  3.851687E+04 -2.879849E+04 -6.111965E+03 -5.170199E+04 -2.250152E+03
       170  27 -3.360232E+05 -6.617671E+04 -9.185129E+04 -1.676002E+04 -7.823855E+04 -8.645429E+02
       171   1  1.682971E+05  9.388841E+05  1.794386E+05 -9.204402E+04  4.816439E+03  6.163909E+04
       171   2  7.910195E+04  8.315083E+05  1.111402E+05 -5.224526E+04  1.401197E+04  3.126366E+04
       171   3  5.321636E+04  7.438699E+05  7.841828E+04 -5.337901E+04  1.151497E+04  8.840100E+02
       171   4  6.285703E+04  5.147399E+05  7.629471E+04 -6.213521E+04  4.829844E+03  4.827069E+04
       171   5 -6.652908E+02  5.057876E+05  3.788566E+04 -4.169630E+04  1.401557E+04  2.830139E+04
       171   6 -2.664031E+03  5.147733E+05  2.784748E+04 -6.218805E+04  1.150790E+04  8.322982E+03
       171   7 -4.259286E+04  9.076195E+04 -2.686110E+04 -3.224683E+04  4.841969E+03  3.491138E+04
       171   8 -8.043937E+04  1.801657E+05 -3.537559E+04 -3.115291E+04  1.401907E+04  2.534066E+04
       171   9 -5.854762E+04  2.857260E+05 -2.272631E+04 -7.099379E+04  1.150063E+04  1.575924E+04
       171  10  1.682961E+05  9.388800E+05  1.794315E+05 -9.204426E+04 -4.032790E-10 -1.661120E-09
       171  11  7.910148E+04  8.315072E+05  1.111380E+05 -5.224561E+04 -3.754791E-09 -4.518029E-09
       171  12  5.321622E+04  7.438699E+05  7.841803E+04 -5.337902E+04 -2.559827E-09 -1.339367E-09
       171  13  6.285638E+04  5.147374E+05  7.629029E+04 -6.213540E+04  6.569299E-11 -9.843292E-10
       171  14 -6.657166E+02  5.057867E+05  3.788378E+04 -4.169662E+04  6.408947E-10  9.604205E-10
       171  15 -2.664192E+03  5.147732E+05  2.784710E+04 -6.218813E+04  1.361069E-09  2.439837E-10
       171  16 -4.259321E+04  9.076063E+04 -2.686344E+04 -3.224696E+04 -1.477845E-09  1.689103E-09
       171  17 -8.043976E+04  1.801649E+05 -3.537717E+04 -3.115320E+04  1.532539E-09  1.543395E-09
       171  18 -5.854783E+04  2.857257E+05 -2.272702E+04 -7.099394E+04  2.239000E-09  1.342886E-09
       171  19  1.682971E+05  9.388841E+05  1.794386E+05 -9.204402E+04 -4.816439E+03 -6.163909E+04
       171  20  7.910195E+04  8.315083E+05  1.111402E+05 -5.224526E+04 -1.401197E+04 -3.126366E+04
       171  21  5.321636E+04  7.438699E+05  7.841828E+04 -5.337901E+04 -1.151497E+04 -8.840100E+02
       171  22  6.285703E+04  5.147399E+05  7.629471E+04 -6.213521E+04 -4.829844E+03 -4.827069E+04
       171  23 -6.652908E+02  5.057876E+05  3.788566E+04 -4.169630E+04 -1.401557E+04 -2.830139E+04
       171  24 -2.664031E+03  5.147733E+05  2.784748E+04 -6.218805E+04 -1.150790E+04 -8.322982E+03
       171  25 -4.259286E+04  9.076195E+04 -2.686110E+04 -3.224683E+04 -4.841969E+03 -3.491138E+04
       171  26 -8.043937E+04  1.801657E+05 -3.537559E+04 -3.115291E+04 -1.401907E+04 -2.534066E+04
       171  27 -5.854762E+04  2.857260E+05 -2.272631E+04 -7.099379E+04 -1.150063E+04 -1.575924E+04
       172   1  3.941278E+04  6.598984E+05  5.920448E+04 -6.508736E+04  7.244451E+03 -2.475061E+02
       172   2  1.206618E+04  5.603402E+05  3.827761E+04 -4.129734E+04  2.578972E+03 -1.395800E+04
       172   3 -3.719780E+03  4.653696E+05  2.913891E+04 -5.886977E+04 -2.199699E+03 -2.766693E+04
       172   4  3.244566E+03  5.118048E+05  2.639284E+04 -6.227029E+04  7.240356E+03  3.860028E+03
       172   5 -3.327298E+02  5.095248E+05  2.706422E+04 -4.158695E+04  2.574668E+03 -9.748756E+03
       172   6  7.633923E+03  5.118055E+05  3.945403E+04 -6.226577E+04 -2.204114E+03 -2.335806E+04
       172   7 -3.292509E+04  3.637317E+05 -6.420085E+03 -5.945389E+04  7.236297E+03  7.966595E+03
       172   8 -1.273180E+04  4.587119E+05  1.585074E+04 -4.187653E+04  2.570360E+03 -5.539856E+03
       172   9  1.898753E+04  5.582435E+05  4.976910E+04 -6.566202E+04 -2.208575E+03 -1.904888E+04
       172  10  3.941272E+04  6.598983E+05  5.920438E+04 -6.508736E+04 -2.873228E-09 -1.277363E-09
       172  11  1.206612E+04  5.603400E+05  3.827723E+04 -4.129731E+04 -2.737478E-09 -2.961423E-09
       172  12 -3.719990E+03  4.653687E+05  2.913746E+04 -5.886982E+04 -4.822566E-09  9.560504E-10
       172  13  3.244506E+03  5.118048E+05  2.639272E+04 -6.227031E+04 -2.700976E-09 -1.010843E-09
       172  14 -3.327624E+02  5.095247E+05  2.706403E+04 -4.158693E+04  3.328489E-09  9.333376E-10
       172  15  7.633772E+03  5.118049E+05  3.945300E+04 -6.226581E+04  6.406657E-10  4.040995E-11
       172  16 -3.292516E+04  3.637317E+05 -6.420303E+03 -5.945393E+04  3.718823E-09  1.321987E-09
       172  17 -1.273182E+04  4.587118E+05  1.585067E+04 -4.187652E+04 -3.326245E-09 -7.547292E-10
       172  18  1.898743E+04  5.582432E+05  4.976841E+04 -6.566206E+04 -3.340807E-09 -1.009309E-09
       172  19  3.941278E+04  6.598984E+05  5.920448E+04 -6.508736E+04 -7.244451E+03  2.475061E+02
       172  20  1.206618E+04  5.603402E+05  3.827761E+04 -4.129734E+04 -2.578972E+03  1.395800E+04
       172  21 -3.719780E+03  4.653696E+05  2.913891E+04 -5.886977E+04  2.199699E+03  2.766693E+04
       172  22  3.244566E+03  5.118048E+05  2.639284E+04 -6.227029E+04 -7.240356E+03 -3.860028E+03
       172  23 -3.327298E+02  5.095248E+05  2.706422E+04 -4.158695E+04 -2.574668E+03  9.748756E+03
       172  24  7.633923E+03  5.118055E+05  3.945403E+04 -6.226577E+04  2.204114E+03  2.335806E+04
       172  25 -3.292509E+04  3.637317E+05 -6.420085E+03 -5.945389E+04 -7.236297E+03 -7.966595E+03
       172  26 -1.273180E+04  4.587119E+05  1.585074E+04 -4.187653E+04 -2.570360E+03  5.539856E+03
       172  27  1.898753E+04  5.582435E+05  4.976910E+04 -6.566202E+04  2.208575E+03  1.904888E+04
       173   1 -3.756115E+04  3.919257E+05  1.898444E+04 -8.172012E+04 -6.234190E+03 -3.715235E+04
       173   2 -5.631834E+04  2.761966E+05  2.533069E+04 -1.949110E+04 -9.358929E+03 -6.922441E+04
       173   3  5.555842E+04  1.972507E+05  8.520090E+04  1.768884E+03 -3.371304E+03 -1.012824E+05
       173   4 -6.516123E+03  5.192742E+05  4.716753E+04 -6.221381E+04 -6.242419E+03 -3.030766E+04
       173   5 -1.386139E+03  5.001736E+05  7.586196E+04 -4.166825E+04 -9.355029E+03 -7.049104E+04
       173   6  1.357513E+05  5.192289E+05  1.636927E+05 -6.208545E+04 -3.352446E+03 -1.106656E+05
       173   7  2.452927E+04  6.466388E+05  7.534999E+04 -4.270346E+04 -6.250217E+03 -2.346158E+04
       173   8  5.354445E+04  7.241982E+05  1.263903E+05 -6.385346E+04 -9.351040E+03 -7.175812E+04
       173   9  2.159518E+05  8.413105E+05  2.421795E+05 -1.259730E+05 -3.331667E+03 -1.200537E+05
       173  10 -3.756156E+04  3.919242E+05  1.898177E+04 -8.172031E+04  1.306463E-09  2.465098E-09
       173  11 -5.631972E+04  2.761914E+05  2.532153E+04 -1.949162E+04 -8.895760E-10 -6.623893E-10
       173  12  5.555566E+04  1.972396E+05  8.518161E+04  1.768609E+03 -7.268109E-10  2.038512E-09
       173  13 -6.516412E+03  5.192732E+05  4.716573E+04 -6.221397E+04  1.688955E-09 -8.472931E-10
       173  14 -1.387566E+03  5.001682E+05  7.585246E+04 -4.166878E+04 -1.086569E-09  7.077916E-10
       173  15  1.357480E+05  5.192157E+05  1.636697E+05 -6.208575E+04 -2.985312E-09  1.796802E-10
       173  16  2.452908E+04  6.466382E+05  7.534889E+04 -4.270358E+04 -1.903045E-09 -2.458063E-09
       173  17  5.354298E+04  7.241927E+05  1.263804E+05 -6.385400E+04 -4.962559E-09 -2.786854E-09
       173  18  2.159479E+05  8.412950E+05  2.421524E+05 -1.259733E+05  6.456404E-10 -1.894003E-09
       173  19 -3.756115E+04  3.919257E+05  1.898444E+04 -8.172012E+04  6.234190E+03  3.715235E+04
       173  20 -5.631834E+04  2.761966E+05  2.533069E+04 -1.949110E+04  9.358929E+03  6.922441E+04
       173  21  5.555842E+04  1.972507E+05  8.520090E+04  1.768884E+03  3.371304E+03  1.012824E+05
       173  22 -6.516123E+03  5.192742E+05  4.716753E+04 -6.221381E+04  6.242419E+03  3.030766E+04
       173  23 -1.386139E+03  5.001736E+05  7.586196E+04 -4.166825E+04  9.355029E+03  7.049104E+04
       173  24  1.357513E+05  5.192289E+05  1.636927E+05 -6.208545E+04  3.352446E+03  1.106656E+05
       173  25  2.452927E+04  6.466388E+05  7.534999E+04 -4.270346E+04  6.250217E+03  2.346158E+04
       173  26  5.354445E+04  7.241982E+05  1.263903E+05 -6.385346E+04  9.351040E+03  7.175812E+04
       173  27  2.159518E+05  8.413105E+05  2.421795E+05 -1.259730E+05  3.331667E+03  1.200537E+05
       174   1  4.102183E+04  1.549177E+04 -4.295885E+03 -9.225391E+03 -5.655394E+04 -3.922050E+03
       174   2  2.180197E+04  8.983979E+04  3.672874E+04 -1.232373E+03 -3.942991E+04 -1.163954E+04
       174   3 -2.130180E+04  7.750199E+04  4.494829E+04  2.687286E+04 -2.232001E+04 -1.088737E+04
       174   4 -3.182413E+05 -7.395663E+04 -9.266707E+04  1.621546E+04 -6.342768E+04 -3.934801E+03
       174   5 -3.058612E+05  8.811781E+03 -4.085329E+04  6.097889E+03 -4.143651E+04 -1.164377E+04
       174   6 -3.182256E+05  4.023052E+03 -2.523901E+04  1.609366E+04 -1.945839E+04 -1.088209E+04
       174   7 -6.773854E+05 -1.634121E+05 -1.810472E+05  4.164153E+04 -7.029745E+04 -3.948120E+03
       174   8 -6.334257E+05 -7.222373E+04 -1.184427E+05  1.342422E+04 -4.344205E+04 -1.164804E+04
       174   9 -6.150680E+05 -6.946178E+04 -9.543232E+04  5.319617E+03 -1.659814E+04 -1.087691E+04
       174  10  4.101839E+04  1.549089E+04 -4.301924E+03 -9.225569E+03 -4.477927E-10  1.191736E-09
       174  11  2.180026E+04  8.983923E+04  3.672557E+04 -1.232743E+03 -4.064870E-09  5.941467E-09
       174  12 -2.130236E+04  7.750173E+04  4.494713E+04  2.687266E+04  4.485508E-10  5.370582E-09
       174  13 -3.182456E+05 -7.395772E+04 -9.267467E+04  1.621526E+04  2.211746E-10 -1.393661E-09
       174  14 -3.058631E+05  8.811174E+03 -4.085677E+04  6.097500E+03  2.056783E-09 -3.053855E-09
       174  15 -3.182260E+05  4.022823E+03 -2.523994E+04  1.609349E+04  4.435805E-09  2.474531E-09
       174  16 -6.773907E+05 -1.634135E+05 -1.810566E+05  4.164130E+04  8.461527E-09  2.841057E-10
       174  17 -6.334277E+05 -7.222438E+04 -1.184465E+05  1.342381E+04  5.583461E-11  4.965897E-09
       174  18 -6.150683E+05 -6.946198E+04 -9.543306E+04  5.319471E+03  3.623153E-09  1.653436E-10
       174  19  4.102183E+04  1.549177E+04 -4.295885E+03 -9.225391E+03  5.655394E+04  3.922050E+03
       174  20  2.180197E+04  8.983979E+04  3.672874E+04 -1.232373E+03  3.942991E+04  1.163954E+04
       174  21 -2.130180E+04  7.750199E+04  4.494829E+04  2.687286E+04  2.232001E+04  1.088737E+04
       174  22 -3.182413E+05 -7.395663E+04 -9.266707E+04  1.621546E+04  6.342768E+04  3.934801E+03
       174  23 -3.058612E+05  8.811781E+03 -4.085329E+04  6.097889E+03  4.143651E+04  1.164377E+04
       174  24 -3.182256E+05  4.023052E+03 -2.523901E+04  1.609366E+04  1.945839E+04  1.088209E+04
       174  25 -6.773854E+05 -1.634121E+05 -1.810472E+05  4.164153E+04  7.029745E+04  3.948120E+03
       174  26 -6.334257E+05 -7.222373E+04 -1.184427E+05  1.342422E+04  4.344205E+04  1.164804E+04
       174  27 -6.150680E+05 -6.946178E+04 -9.543232E+04  5.319617E+03  1.659814E+04  1.087691E+04
       175   1 -5.291307E+04  5.750833E+04  4.126883E+04  1.444781E+04 -1.590914E+04 -8.947554E+03
       175   2 -8.285438E+04  5.756630E+04  4.365759E+04  5.786236E+03 -1.082630E+04 -8.153183E+03
       175   3 -1.155710E+05  4.939557E+04  4.066834E+04  1.759358E+04 -5.745372E+03 -6.816857E+03
       175   4 -3.133534E+05 -6.936216E+03 -2.050856E+04  1.622046E+04 -1.560897E+04 -8.947283E+03
       175   5 -3.119350E+05  8.959050E+02 -1.057527E+04  5.978440E+03 -1.021606E+04 -8.152152E+03
       175   6 -3.133485E+05  4.435845E+02 -6.237184E+03  1.620591E+04 -4.824806E+03 -6.815000E+03
       175   7 -5.737314E+05 -7.138563E+04 -8.229067E+04  1.799234E+04 -1.530891E+04 -8.947010E+03
       175   8 -5.409674E+05 -5.577826E+04 -6.481178E+04  6.170547E+03 -9.606032E+03 -8.151121E+03
       175   9 -5.110900E+05 -4.851121E+04 -5.314543E+04  1.481866E+04 -3.904532E+03 -6.813148E+03
       175  10 -5.291336E+04  5.750818E+04  4.126820E+04  1.444769E+04  1.881773E-09 -1.305582E-10
       175  11 -8.285453E+04  5.756620E+04  4.365724E+04  5.786165E+03 -1.972394E-09  2.783839E-10
       175  12 -1.155710E+05  4.939552E+04  4.066819E+04  1.759355E+04 -3.322475E-09  4.156335E-09
       175  13 -3.133537E+05 -6.936368E+03 -2.050917E+04  1.622035E+04  4.078073E-09  6.447286E-09
       175  14 -3.119352E+05  8.958056E+02 -1.057559E+04  5.978373E+03  1.227172E-09 -1.552536E-08
       175  15 -3.133485E+05  4.435284E+02 -6.237315E+03  1.620588E+04 -1.080664E-09  5.665046E-09
       175  16 -5.737317E+05 -7.138578E+04 -8.229126E+04  1.799223E+04  1.149515E-09 -5.269860E-09
       175  17 -5.409676E+05 -5.577835E+04 -6.481208E+04  6.170484E+03  4.986060E-09 -4.032470E-09
       175  18 -5.110901E+05 -4.851127E+04 -5.314554E+04  1.481864E+04  3.019258E-09 -1.526442E-10
       175  19 -5.291307E+04  5.750833E+04  4.126883E+04  1.444781E+04  1.590914E+04  8.947554E+03
       175  20 -8.285438E+04  5.756630E+04  4.365759E+04  5.786236E+03  1.082630E+04  8.153183E+03
       175  21 -1.155710E+05  4.939557E+04  4.066834E+04  1.759358E+04  5.745372E+03  6.816857E+03
       175  22 -3.133534E+05 -6.936216E+03 -2.050856E+04  1.622046E+04  1.560897E+04  8.947283E+03
       175  23 -3.119350E+05  8.959050E+02 -1.057527E+04  5.978440E+03  1.021606E+04  8.152152E+03
       175  24 -3.133485E+05  4.435845E+02 -6.237184E+03  1.620591E+04  4.824806E+03  6.815000E+03
       175  25 -5.737314E+05 -7.138563E+04 -8.229067E+04  1.799234E+04  1.530891E+04  8.947010E+03
       175  26 -5.409674E+05 -5.577826E+04 -6.481178E+04  6.170547E+03  9.606032E+03  8.151121E+03
       175  27 -5.110900E+05 -4.851121E+04 -5.314543E+04  1.481866E+04  3.904532E+03  6.813148E+03
       176   1 -1.517672E+05  3.924965E+04  3.318754E+04  1.638480E+04 -4.607528E+03 -5.945309E+03
       176   2 -1.830517E+05  3.216774E+04  2.798965E+04  6.156208E+03 -3.292010E+03 -4.607529E+03
       176   3 -2.147841E+05  2.438599E+04  2.173791E+04  1.653381E+04 -1.976955E+03 -3.233278E+03
       176   4 -3.128164E+05 -5.776609E+02 -4.859295E+03  1.624187E+04 -3.848668E+03 -5.943730E+03
       176   5 -3.125892E+05  1.190177E+02 -2.678623E+03  5.937864E+03 -2.512479E+03 -4.605817E+03
       176   6 -3.128142E+05  1.123250E+02 -1.566218E+03  1.624031E+04 -1.176687E+03 -3.231427E+03
       176   7 -4.738416E+05 -4.040683E+04 -4.290792E+04  1.609896E+04 -3.090004E+03 -5.942151E+03
       176   8 -4.421113E+05 -3.193090E+04 -3.334806E+04  5.719556E+03 -1.733110E+03 -4.604106E+03
       176   9 -4.108355E+05 -2.416204E+04 -2.487102E+04  1.594687E+04 -3.765437E+02 -3.229577E+03
       176  10 -1.517673E+05  3.924960E+04  3.318743E+04  1.638477E+04  7.044621E-09 -3.122832E-09
       176  11 -1.830517E+05  3.216771E+04  2.798959E+04  6.156196E+03  4.151154E-09 -2.818122E-09
       176  12 -2.147841E+05  2.438598E+04  2.173789E+04  1.653380E+04 -2.905572E-09 -1.924029E-09
       176  13 -3.128164E+05 -5.777028E+02 -4.859389E+03  1.624185E+04 -2.109491E-11 -9.836686E-10
       176  14 -3.125892E+05  1.189933E+02 -2.678674E+03  5.937854E+03 -1.428132E-09 -3.837885E-09
       176  15 -3.128142E+05  1.123134E+02 -1.566240E+03  1.624031E+04 -2.595302E-09 -1.153003E-09
       176  16 -4.738416E+05 -4.040687E+04 -4.290801E+04  1.609895E+04 -7.707456E-09 -4.520471E-09
       176  17 -4.421113E+05 -3.193093E+04 -3.334810E+04  5.719550E+03 -3.099873E-09  3.893077E-09
       176  18 -4.108355E+05 -2.416205E+04 -2.487104E+04  1.594686E+04  2.341193E-09  6.023887E-09
       176  19 -1.517672E+05  3.924965E+04  3.318754E+04  1.638480E+04  4.607528E+03  5.945309E+03
       176  20 -1.830517E+05  3.216774E+04  2.798965E+04  6.156208E+03  3.292010E+03  4.607529E+03
       176  21 -2.147841E+05  2.438599E+04  2.173791E+04  1.653381E+04  1.976955E+03  3.233278E+03
       176  22 -3.128164E+05 -5.776609E+02 -4.859295E+03  1.624187E+04  3.848668E+03  5.943730E+03
       176  23 -3.125892E+05  1.190177E+02 -2.678623E+03  5.937864E+03  2.512479E+03  4.605817E+03
       176  24 -3.128142E+05  1.123250E+02 -1.566218E+03  1.624031E+04  1.176687E+03  3.231427E+03
       176  25 -4.738416E+05 -4.040683E+04 -4.290792E+04  1.609896E+04  3.090004E+03  5.942151E+03
       176  26 -4.421113E+05 -3.193090E+04 -3.334806E+04  5.719556E+03  1.733110E+03  4.604106E+03
       176  27 -4.108355E+05 -2.416204E+04 -2.487102E+04  1.594687E+04  3.765437E+02  3.229577E+03
       177   1 -2.516065E+05  1.513020E+04  1.316986E+04  1.636922E+04 -1.719924E+03 -2.427480E+03
       177   2 -2.831176E+05  7.353062E+03  6.278408E+03  5.985887E+03 -1.368461E+03 -1.052684E+03
       177   3 -3.147907E+05 -4.051819E+02 -8.637551E+02  1.626392E+04 -1.017100E+03  3.246346E+02
       177   4 -3.127484E+05  2.134495E+01 -1.211699E+03  1.625311E+04 -9.294573E+02 -2.425615E+03
       177   5 -3.126666E+05  4.186082E+01 -7.177973E+02  5.922322E+03 -5.765934E+02 -1.050797E+03
       177   6 -3.127480E+05  8.108611E+01 -4.755524E+02  1.625296E+04 -2.238130E+02  3.265470E+02
       177   7 -3.738869E+05 -1.508778E+04 -1.559352E+04  1.613700E+04 -1.390683E+02 -2.423751E+03
       177   8 -3.422148E+05 -7.269403E+03 -7.714061E+03  5.858760E+03  2.152367E+02 -1.048910E+03
       177   9 -3.107052E+05  5.673542E+02 -8.734752E+01  1.624201E+04  5.694762E+02  3.284593E+02
       177  10 -2.516065E+05  1.513019E+04  1.316985E+04  1.636922E+04  7.459257E-10 -3.385154E-09
       177  11 -2.831176E+05  7.353061E+03  6.278402E+03  5.985886E+03 -2.024186E-09  5.542084E-09
       177  12 -3.147907E+05 -4.051822E+02 -8.637572E+02  1.626392E+04 -3.766047E-09  3.230119E-09
       177  13 -3.127484E+05  2.133840E+01 -1.211711E+03  1.625310E+04 -8.585366E-09  1.844255E-09
       177  14 -3.126666E+05  4.185954E+01 -7.178000E+02  5.922322E+03 -2.128215E-10 -2.461200E-10
       177  15 -3.127480E+05  8.108598E+01 -4.755527E+02  1.625296E+04 -1.799429E-09 -2.661963E-09
       177  16 -3.738869E+05 -1.508778E+04 -1.559353E+04  1.613700E+04 -3.955499E-10  3.588118E-09
       177  17 -3.422148E+05 -7.269404E+03 -7.714063E+03  5.858761E+03  6.528907E-10  6.576150E-09
       177  18 -3.107052E+05  5.673540E+02 -8.734833E+01  1.624201E+04  1.880993E-09  1.110369E-09
       177  19 -2.516065E+05  1.513020E+04  1.316986E+04  1.636922E+04  1.719924E+03  2.427480E+03
       177  20 -2.831176E+05  7.353062E+03  6.278408E+03  5.985887E+03  1.368461E+03  1.052684E+03
       177  21 -3.147907E+05 -4.051819E+02 -8.637551E+02  1.626392E+04  1.017100E+03 -3.246346E+02
       177  22 -3.127484E+05  2.134495E+01 -1.211699E+03  1.625311E+04  9.294573E+02  2.425615E+03
       177  23 -3.126666E+05  4.186082E+01 -7.177973E+02  5.922322E+03  5.765934E+02  1.050797E+03
       177  24 -3.127480E+05  8.108611E+01 -4.755524E+02  1.625296E+04  2.238130E+02 -3.265470E+02
       177  25 -3.738869E+05 -1.508778E+04 -1.559352E+04  1.613700E+04  1.390683E+02  2.423751E+03
       177  26 -3.422148E+05 -7.269403E+03 -7.714061E+03  5.858760E+03 -2.152367E+02  1.048910E+03
       177  27 -3.107052E+05  5.673542E+02 -8.734752E+01  1.624201E+04 -5.694762E+02 -3.284593E+02
       178   1 -3.517046E+05 -9.583567E+03 -9.734096E+03  1.617968E+04 -9.388126E+02  1.126899E+03
       178   2 -3.832101E+05 -1.741832E+04 -1.707848E+04  5.802085E+03 -7.528506E+02  2.503287E+03
       178   3 -4.148394E+05 -2.518932E+04 -2.455351E+04  1.607221E+04 -5.667074E+02  3.876151E+03
       178   4 -3.127398E+05  7.677060E+01 -4.126725E+02  1.624992E+04 -1.456157E+02  1.128802E+03
       178   5 -3.126779E+05  3.409669E+01 -3.778642E+02  5.926157E+03  3.830890E+01  2.505134E+03
       178   6 -3.127408E+05  5.548000E+01 -4.723499E+02  1.624996E+04  2.224243E+02  3.877947E+03
       178   7 -2.737736E+05  9.736998E+03  8.908646E+03  1.632016E+04  6.476307E+02  1.130705E+03
       178   8 -2.421412E+05  1.748616E+04  1.632240E+04  6.050241E+03  8.295578E+02  2.506981E+03
       178   9 -2.106327E+05  2.529954E+04  2.360809E+04  1.642775E+04  1.011685E+03  3.879743E+03
       178  10 -3.517046E+05 -9.583568E+03 -9.734100E+03  1.617968E+04 -4.083695E-09  9.641378E-10
       178  11 -3.832101E+05 -1.741833E+04 -1.707849E+04  5.802087E+03 -7.742406E-09 -4.931150E-09
       178  12 -4.148394E+05 -2.518934E+04 -2.455353E+04  1.607221E+04 -3.828186E-09  7.038088E-10
       178  13 -3.127398E+05  7.676923E+01 -4.126749E+02  1.624992E+04  1.916273E-09  4.945573E-09
       178  14 -3.126779E+05  3.408995E+01 -3.778760E+02  5.926157E+03  6.348495E-10 -3.330340E-11
       178  15 -3.127408E+05  5.546384E+01 -4.723783E+02  1.624996E+04 -1.032894E-09 -2.085256E-09
       178  16 -2.737736E+05  9.736997E+03  8.908643E+03  1.632016E+04  3.059919E-09  8.038527E-10
       178  17 -2.421412E+05  1.748615E+04  1.632239E+04  6.050239E+03  1.168904E-09 -8.154152E-09
       178  18 -2.106327E+05  2.529952E+04  2.360806E+04  1.642774E+04  5.390120E-09 -5.570176E-09
       178  19 -3.517046E+05 -9.583567E+03 -9.734096E+03  1.617968E+04  9.388126E+02 -1.126899E+03
       178  20 -3.832101E+05 -1.741832E+04 -1.707848E+04  5.802085E+03  7.528506E+02 -2.503287E+03
       178  21 -4.148394E+05 -2.518932E+04 -2.455351E+04  1.607221E+04  5.667074E+02 -3.876151E+03
       178  22 -3.127398E+05  7.677060E+01 -4.126725E+02  1.624992E+04  1.456157E+02 -1.128802E+03
       178  23 -3.126779E+05  3.409669E+01 -3.778642E+02  5.926157E+03 -3.830890E+01 -2.505134E+03
       178  24 -3.127408E+05  5.548000E+01 -4.723499E+02  1.624996E+04 -2.224243E+02 -3.877947E+03
       178  25 -2.737736E+05  9.736998E+03  8.908646E+03  1.632016E+04 -6.476307E+02 -1.130705E+03
       178  26 -2.421412E+05  1.748616E+04  1.632240E+04  6.050241E+03 -8.295578E+02 -2.506981E+03
       178  27 -2.106327E+05  2.529954E+04  2.360809E+04  1.642775E+04 -1.011685E+03 -3.879743E+03
       179   1 -4.516852E+05 -3.431123E+04 -3.355519E+04  1.595323E+04 -4.862041E+02  4.680996E+03
       179   2 -4.830267E+05 -4.210474E+04 -4.123477E+04  5.673192E+03 -1.947285E+01  6.050758E+03
       179   3 -5.145581E+05 -5.006736E+04 -4.928003E+04  1.595220E+04  4.477720E+02  7.379743E+03
       179   4 -3.127568E+05  8.559706E+01 -5.637005E+02  1.623003E+04  3.134962E+02  4.682759E+03
       179   5 -3.126650E+05  5.184014E+01 -8.940055E+02  5.950934E+03  7.568516E+02  6.052350E+03
       179   6 -3.127593E+05 -1.467249E+02 -1.573492E+03  1.623053E+04  1.200744E+03  7.381173E+03
       179   7 -1.738107E+05  3.448104E+04  3.242645E+04  1.650689E+04  1.113375E+03  4.684524E+03
       179   8 -1.422766E+05  4.220634E+04  3.944474E+04  6.228738E+03  1.533388E+03  6.053943E+03
       179   9 -1.109231E+05  4.977099E+04  4.613022E+04  1.650893E+04  1.953959E+03  7.382603E+03
       179  10 -4.516852E+05 -3.431126E+04 -3.355523E+04  1.595323E+04  2.110002E-09 -3.270623E-10
       179  11 -4.830267E+05 -4.210478E+04 -4.123484E+04  5.673192E+03 -5.647251E-09 -9.758091E-09
       179  12 -5.145581E+05 -5.006742E+04 -4.928013E+04  1.595220E+04 -2.583566E-09 -2.013908E-09
       179  13 -3.127568E+05  8.557349E+01 -5.637419E+02  1.623003E+04  1.529876E-11  1.275648E-09
       179  14 -3.126650E+05  5.180065E+01 -8.940754E+02  5.950930E+03  5.922180E-10  1.259977E-09
       179  15 -3.127593E+05 -1.467838E+02 -1.573598E+03  1.623052E+04 -1.105767E-09  5.316607E-09
       179  16 -1.738107E+05  3.448102E+04  3.242640E+04  1.650689E+04 -2.081886E-09  2.213053E-09
       179  17 -1.422766E+05  4.220630E+04  3.944467E+04  6.228731E+03 -2.844241E-09 -6.130363E-09
       179  18 -1.109231E+05  4.977093E+04  4.613011E+04  1.650892E+04  7.503029E-09  5.361950E-09
       179  19 -4.516852E+05 -3.431123E+04 -3.355519E+04  1.595323E+04  4.862041E+02 -4.680996E+03
       179  20 -4.830267E+05 -4.210474E+04 -4.123477E+04  5.673192E+03  1.947285E+01 -6.050758E+03
       179  21 -5.145581E+05 -5.006736E+04 -4.928003E+04  1.595220E+04 -4.477720E+02 -7.379743E+03
       179  22 -3.127568E+05  8.559706E+01 -5.637005E+02  1.623003E+04 -3.134962E+02 -4.682759E+03
       179  23 -3.126650E+05  5.184014E+01 -8.940055E+02  5.950934E+03 -7.568516E+02 -6.052350E+03
       179  24 -3.127593E+05 -1.467249E+02 -1.573492E+03  1.623053E+04 -1.200744E+03 -7.381173E+03
       179  25 -1.738107E+05  3.448104E+04  3.242645E+04  1.650689E+04 -1.113375E+03 -4.684524E+03
       179  26 -1.422766E+05  4.220634E+04  3.944474E+04  6.228738E+03 -1.533388E+03 -6.053943E+03
       179  27 -1.109231E+05  4.977099E+04  4.613022E+04  1.650893E+04 -1.953959E+03 -7.382603E+03
       180   1 -5.513364E+05 -5.883477E+04 -5.854458E+04  1.548383E+04  5.829928E+02  8.254770E+03
       180   2 -5.820574E+05 -6.642285E+04 -6.723321E+04  5.789247E+03  2.653824E+03  9.576699E+03
       180   3 -6.137437E+05 -7.666238E+04 -7.794163E+04  1.648620E+04  4.726268E+03  1.029961E+04
       180   4 -3.129235E+05  1.814511E+02 -2.006513E+03  1.619161E+04  1.514288E+03  8.256463E+03
       180   5 -3.124727E+05  2.899581E+02 -3.391848E+03  5.998262E+03  3.241008E+03  9.577532E+03
       180   6 -3.129278E+05 -2.192465E+03 -6.557219E+03  1.619593E+04  4.969445E+03  1.029970E+04
       180   7 -7.445839E+04  5.919359E+04  5.452760E+04  1.689963E+04  2.445940E+03  8.258158E+03
       180   8 -4.282112E+04  6.699754E+04  6.044446E+04  6.207337E+03  3.828447E+03  9.578365E+03
       180   9 -1.202876E+04  7.227094E+04  6.482089E+04  1.590548E+04  5.212740E+03  1.029979E+04
       180  10 -5.513364E+05 -5.883485E+04 -5.854471E+04  1.548383E+04  4.069026E-09  5.987117E-10
       180  11 -5.820574E+05 -6.642295E+04 -6.723339E+04  5.789227E+03 -2.611641E-09  4.277069E-09
       180  12 -6.137438E+05 -7.666250E+04 -7.794187E+04  1.648616E+04 -4.670637E-09 -4.199761E-09
       180  13 -3.129235E+05  1.813773E+02 -2.006646E+03  1.619160E+04 -4.078288E-09  2.625213E-10
       180  14 -3.124727E+05  2.898568E+02 -3.392041E+03  5.998237E+03  4.475509E-09  6.105121E-09
       180  15 -3.129279E+05 -2.192585E+03 -6.557465E+03  1.619589E+04  1.928737E-09 -2.514964E-10
       180  16 -7.445841E+04  5.919352E+04  5.452746E+04  1.689961E+04 -5.951750E-09 -1.492625E-09
       180  17 -4.282116E+04  6.699744E+04  6.044426E+04  6.207307E+03  2.887195E-09 -6.976412E-09
       180  18 -1.202882E+04  7.227082E+04  6.482063E+04  1.590544E+04  5.938511E-09 -4.836825E-11
       180  19 -5.513364E+05 -5.883477E+04 -5.854458E+04  1.548383E+04 -5.829928E+02 -8.254770E+03
       180  20 -5.820574E+05 -6.642285E+04 -6.723321E+04  5.789247E+03 -2.653824E+03 -9.576699E+03
       180  21 -6.137437E+05 -7.666238E+04 -7.794163E+04  1.648620E+04 -4.726268E+03 -1.029961E+04
       180  22 -3.129235E+05  1.814511E+02 -2.006513E+03  1.619161E+04 -1.514288E+03 -8.256463E+03
       180  23 -3.124727E+05  2.899581E+02 -3.391848E+03  5.998262E+03 -3.241008E+03 -9.577532E+03
       180  24 -3.129278E+05 -2.192465E+03 -6.557219E+03  1.619593E+04 -4.969445E+03 -1.029970E+04
       180  25 -7.445839E+04  5.919359E+04  5.452760E+04  1.689963E+04 -2.445940E+03 -8.258158E+03
       180  26 -4.282112E+04  6.699754E+04  6.044446E+04  6.207337E+03 -3.828447E+03 -9.578365E+03
       180  27 -1.202876E+04  7.227094E+04  6.482089E+04  1.590548E+04 -5.212740E+03 -1.029979E+04
       181   1 -6.516384E+05 -8.211797E+04 -8.777908E+04  1.234619E+04  3.124159E+03  1.234228E+04
       181   2 -6.782095E+05 -8.817924E+04 -1.001563E+05  8.200362E+03  1.553494E+04  1.301581E+04
       181   3 -7.135679E+05 -1.230906E+05 -1.278233E+05  2.397876E+04  2.795710E+04  4.326290E+03
       181   4 -3.144758E+05  1.308642E+03 -8.064903E+03  1.607865E+04  6.196874E+03  1.234695E+04
       181   5 -3.105562E+05  2.803407E+03 -1.306440E+04  6.133586E+03  1.322300E+04  1.301185E+04
       181   6 -3.144847E+05 -2.360743E+04 -2.960687E+04  1.611247E+04  2.026129E+04  4.315914E+03
       181   7  2.279140E+04  8.472715E+04  7.164144E+04  1.981310E+04  9.271249E+03  1.235167E+04
       181   8  5.722134E+04  9.377637E+04  7.401817E+04  4.065532E+03  1.090969E+04  1.300791E+04
       181   9  8.474391E+04  7.586413E+04  6.859805E+04  8.241068E+03  1.256053E+04  4.305737E+03
       181  10 -6.516384E+05 -8.211813E+04 -8.777939E+04  1.234616E+04 -5.225930E-10 -2.576742E-09
       181  11 -6.782098E+05 -8.817949E+04 -1.001571E+05  8.200199E+03  5.310947E-09 -1.334199E-09
       181  12 -7.135688E+05 -1.230908E+05 -1.278248E+05  2.397867E+04  3.818728E-09  1.460324E-09
       181  13 -3.144759E+05  1.308468E+03 -8.065261E+03  1.607858E+04  2.151774E-09  1.161263E-09
       181  14 -3.105565E+05  2.803178E+03 -1.306504E+04  6.133447E+03  3.834087E-10  3.766598E-09
       181  15 -3.144851E+05 -2.360756E+04 -2.960768E+04  1.611240E+04 -2.724146E-09  1.144766E-09
       181  16  2.279127E+04  8.472696E+04  7.164099E+04  1.981301E+04 -1.238989E-09  4.415738E-09
       181  17  5.722116E+04  9.377615E+04  7.401763E+04  4.065418E+03 -7.220956E-09  7.520008E-09
       181  18  8.474373E+04  7.586406E+04  6.859772E+04  8.241024E+03 -1.257415E-09  2.368986E-09
       181  19 -6.516384E+05 -8.211797E+04 -8.777908E+04  1.234619E+04 -3.124159E+03 -1.234228E+04
       181  20 -6.782095E+05 -8.817924E+04 -1.001563E+05  8.200362E+03 -1.553494E+04 -1.301581E+04
       181  21 -7.135679E+05 -1.230906E+05 -1.278233E+05  2.397876E+04 -2.795710E+04 -4.326290E+03
       181  22 -3.144758E+05  1.308642E+03 -8.064903E+03  1.607865E+04 -6.196874E+03 -1.234695E+04
       181  23 -3.105562E+05  2.803407E+03 -1.306440E+04  6.133586E+03 -1.322300E+04 -1.301185E+04
       181  24 -3.144847E+05 -2.360743E+04 -2.960687E+04  1.611247E+04 -2.026129E+04 -4.315914E+03
       181  25  2.279140E+04  8.472715E+04  7.164144E+04  1.981310E+04 -9.271249E+03 -1.235167E+04
       181  26  5.722134E+04  9.377637E+04  7.401817E+04  4.065532E+03 -1.090969E+04 -1.300791E+04
       181  27  8.474391E+04  7.586413E+04  6.859805E+04  8.241068E+03 -1.256053E+04 -4.305737E+03
       182   1 -2.591141E+05 -9.563014E+05 -2.545210E+05  2.187666E+05 -1.041016E+04 -7.615892E+04
       182   2 -1.719689E+05 -7.324666E+05 -1.583924E+05  1.799565E+05 -3.124795E+04 -3.225346E+04
       182   3 -1.131353E+05 -5.211604E+05 -9.793299E+04  1.954020E+05 -2.845496E+04  1.170125E+04
       182   4 -3.413905E+04 -4.905431E+04 -3.772219E+04  1.980615E+05 -1.045683E+04 -2.771114E+04
       182   5 -6.254363E+03 -4.577581E+04 -1.693367E+04  1.709499E+05 -3.125702E+04 -1.891048E+04
       182   6 -5.615747E+02 -4.895783E+04 -7.400320E+03  1.980948E+05 -2.843672E+04 -1.007747E+04
       182   7  1.907792E+05  8.589541E+05  1.790277E+05  1.773262E+05 -1.050670E+04  2.080723E+04
       182   8  1.594308E+05  6.413633E+05  1.245004E+05  1.619332E+05 -3.126648E+04 -5.552983E+03
       182   9  1.119993E+05  4.234605E+05  8.312393E+04  2.007896E+05 -2.841866E+04 -3.187237E+04
       182  10 -2.591158E+05 -9.563077E+05 -2.545321E+05  2.187659E+05 -4.575428E-10  2.601990E-09
       182  11 -1.719702E+05 -7.324680E+05 -1.583962E+05  1.799557E+05 -2.937139E-09 -1.783470E-09
       182  12 -1.131362E+05 -5.211607E+05 -9.793477E+04  1.954023E+05 -9.426275E-10 -7.052837E-09
       182  13 -3.413938E+04 -4.905516E+04 -3.772384E+04  1.980613E+05 -9.830718E-10  2.417797E-09
       182  14 -6.255508E+03 -4.577645E+04 -1.693618E+04  1.709494E+05  2.071867E-09 -2.390919E-09
       182  15 -5.624701E+02 -4.895816E+04 -7.402030E+03  1.980945E+05 -1.105009E-09 -2.002834E-10
       182  16  1.907790E+05  8.589536E+05  1.790267E+05  1.773263E+05 -4.609461E-10 -1.129172E-09
       182  17  1.594297E+05  6.413630E+05  1.244985E+05  1.619330E+05 -1.752451E-09  2.067298E-09
       182  18  1.119981E+05  4.234592E+05  8.312051E+04  2.007889E+05 -3.958346E-09  7.000136E-09
       182  19 -2.591141E+05 -9.563014E+05 -2.545210E+05  2.187666E+05  1.041016E+04  7.615892E+04
       182  20 -1.719689E+05 -7.324666E+05 -1.583924E+05  1.799565E+05  3.124795E+04  3.225346E+04
       182  21 -1.131353E+05 -5.211604E+05 -9.793299E+04  1.954020E+05  2.845496E+04 -1.170125E+04
       182  22 -3.413905E+04 -4.905431E+04 -3.772219E+04  1.980615E+05  1.045683E+04  2.771114E+04
       182  23 -6.254363E+03 -4.577581E+04 -1.693367E+04  1.709499E+05  3.125702E+04  1.891048E+04
       182  24 -5.615747E+02 -4.895783E+04 -7.400320E+03  1.980948E+05  2.843672E+04  1.007747E+04
       182  25  1.907792E+05  8.589541E+05  1.790277E+05  1.773262E+05  1.050670E+04 -2.080723E+04
       182  26  1.594308E+05  6.413633E+05  1.245004E+05  1.619332E+05  3.126648E+04  5.552983E+03
       182  27  1.119993E+05  4.234605E+05  8.312393E+04  2.007896E+05  2.841866E+04  3.187237E+04
       183   1 -7.926970E+04 -3.726131E+05 -6.635444E+04  1.986304E+05 -1.966838E+04  8.789721E+03
       183   2 -2.573361E+04 -1.553003E+05 -1.749077E+04  1.708747E+05 -7.309335E+03  8.205539E+03
       183   3  2.815456E+04  6.237526E+04  3.187416E+04  1.987546E+05  5.439414E+03  7.620393E+03
       183   4 -1.756762E+03 -4.740606E+04 -4.079806E+03  1.983941E+05 -1.965478E+04 -9.305386E+03
       183   5 -2.218934E+02 -4.760809E+04  2.360340E+03  1.705778E+05 -7.296069E+03 -1.047141E+04
       183   6  1.769025E+03 -4.739059E+04  9.707793E+03  1.983966E+05  5.452196E+03 -1.163820E+04
       183   7  7.575011E+04  2.779036E+05  5.819124E+04  1.981578E+05 -1.964117E+04 -2.740975E+04
       183   8  2.528935E+04  6.009613E+04  2.221228E+04  1.702810E+05 -7.282786E+03 -2.915151E+04
       183   9 -2.461706E+04 -1.571442E+05 -1.245780E+04  1.980386E+05  5.465001E+03 -3.089345E+04
       183  10 -7.927013E+04 -3.726133E+05 -6.635531E+04  1.986305E+05  4.912586E-09  1.534181E-08
       183  11 -2.573369E+04 -1.553004E+05 -1.749099E+04  1.708747E+05 -3.339948E-09 -9.069066E-09
       183  12  2.815451E+04  6.237519E+04  3.187400E+04  1.987546E+05 -2.774531E-09 -3.078823E-08
       183  13 -1.757200E+03 -4.740626E+04 -4.080694E+03  1.983940E+05 -3.423249E-10  1.700822E-09
       183  14 -2.219800E+02 -4.760822E+04  2.360034E+03  1.705778E+05  9.175053E-09 -1.364155E-09
       183  15  1.768956E+03 -4.739074E+04  9.707483E+03  1.983967E+05  1.205127E-08 -7.279053E-10
       183  16  7.574949E+04  2.779027E+05  5.818910E+04  1.981574E+05 -5.718824E-09 -1.395912E-08
       183  17  2.528906E+04  6.009521E+04  2.221058E+04  1.702808E+05 -3.889583E-09  8.406402E-09
       183  18 -2.461735E+04 -1.571452E+05 -1.245965E+04  1.980388E+05 -6.062698E-09  3.116021E-08
       183  19 -7.926970E+04 -3.726131E+05 -6.635444E+04  1.986304E+05  1.966838E+04 -8.789721E+03
       183  20 -2.573361E+04 -1.553003E+05 -1.749077E+04  1.708747E+05  7.309335E+03 -8.205539E+03
       183  21  2.815456E+04  6.237526E+04  3.187416E+04  1.987546E+05 -5.439414E+03 -7.620393E+03
       183  22 -1.756762E+03 -4.740606E+04 -4.079806E+03  1.983941E+05  1.965478E+04  9.305386E+03
       183  23 -2.218934E+02 -4.760809E+04  2.360340E+03  1.705778E+05  7.296069E+03  1.047141E+04
       183  24  1.769025E+03 -4.739059E+04  9.707793E+03  1.983966E+05 -5.452196E+03  1.163820E+04
       183  25  7.575011E+04  2.779036E+05  5.819124E+04  1.981578E+05  1.964117E+04  2.740975E+04
       183  26  2.528935E+04  6.009613E+04  2.221228E+04  1.702810E+05  7.282786E+03  2.915151E+04
       183  27 -2.461706E+04 -1.571442E+05 -1.245780E+04  1.980386E+05 -5.465001E+03  3.089345E+04
       184   1  6.131016E+04  2.114942E+05  6.428050E+04  1.934713E+05  1.430442E+04  8.674389E+03
       184   2  1.227654E+05  4.214996E+05  1.261548E+05  1.839164E+05  1.994715E+04 -3.294886E+04
       184   3  2.234448E+05  6.469523E+05  2.249579E+05  2.290158E+05  7.224915E+03 -7.460877E+04
       184   4 -7.331219E+01 -4.512223E+04  1.399460E+04  1.981684E+05  1.431998E+04 -1.334369E+04
       184   5  8.682607E+03 -5.049183E+04  2.749084E+04  1.708664E+05  1.994475E+04 -2.761933E+04
       184   6  5.193634E+04 -4.518669E+04  5.894259E+04  1.982153E+05  7.200552E+03 -4.191680E+04
       184   7 -6.146041E+04 -3.016745E+05 -3.629264E+04  2.028635E+05  1.433522E+04 -3.535287E+04
       184   8 -1.054138E+05 -5.222722E+05 -7.118525E+04  1.578265E+05  1.994213E+04 -2.229377E+04
       184   9 -1.196027E+05 -7.368828E+05 -1.071022E+05  1.674492E+05  7.172938E+03 -9.261084E+03
       184  10  6.130992E+04  2.114941E+05  6.427997E+04  1.934712E+05 -2.966272E-09  5.856642E-08
       184  11  1.227647E+05  4.214983E+05  1.261520E+05  1.839169E+05 -1.255110E-09  1.512928E-08
       184  12  2.234432E+05  6.469463E+05  2.249474E+05  2.290162E+05 -3.631922E-09 -3.482185E-08
       184  13 -7.358028E+01 -4.512248E+04  1.399388E+04  1.981685E+05  9.248720E-09  1.633580E-09
       184  14  8.681975E+03 -5.049276E+04  2.748866E+04  1.708668E+05  1.797708E-09 -2.900729E-09
       184  15  5.193582E+04 -4.518859E+04  5.893919E+04  1.982155E+05 -1.602992E-09 -5.307790E-10
       184  16 -6.146097E+04 -3.016759E+05 -3.629538E+04  2.028639E+05 -5.038880E-09 -5.717714E-08
       184  17 -1.054144E+05 -5.222729E+05 -7.118693E+04  1.578268E+05 -4.753750E-09 -1.368559E-08
       184  18 -1.196028E+05 -7.368829E+05 -1.071024E+05  1.674493E+05 -3.783002E-09  3.347282E-08
       184  19  6.131016E+04  2.114942E+05  6.428050E+04  1.934713E+05 -1.430442E+04 -8.674389E+03
       184  20  1.227654E+05  4.214996E+05  1.261548E+05  1.839164E+05 -1.994715E+04  3.294886E+04
       184  21  2.234448E+05  6.469523E+05  2.249579E+05  2.290158E+05 -7.224915E+03  7.460877E+04
       184  22 -7.331219E+01 -4.512223E+04  1.399460E+04  1.981684E+05 -1.431998E+04  1.334369E+04
       184  23  8.682607E+03 -5.049183E+04  2.749084E+04  1.708664E+05 -1.994475E+04  2.761933E+04
       184  24  5.193634E+04 -4.518669E+04  5.894259E+04  1.982153E+05 -7.200552E+03  4.191680E+04
       184  25 -6.146041E+04 -3.016745E+05 -3.629264E+04  2.028635E+05 -1.433522E+04  3.535287E+04
       184  26 -1.054138E+05 -5.222722E+05 -7.118525E+04  1.578265E+05 -1.994213E+04  2.229377E+04
       184  27 -1.196027E+05 -7.368828E+05 -1.071022E+05  1.674492E+05 -7.172938E+03  9.261084E+03
       185   1  7.394648E+05  2.679124E+05  1.606445E+05  2.702394E+05  6.704980E+04  2.077901E+04
       185   2  7.163657E+05  1.753433E+05  1.003305E+05  2.652389E+05  4.340376E+04  2.294985E+03
       185   3  7.149935E+05  1.559165E+05  7.809395E+04  2.512293E+05  1.678640E+04 -8.295732E+03
       185   4  4.817799E+05  1.410883E+05  8.618265E+04  1.692451E+05  5.649328E+04  1.679852E+04
       185   5  4.668999E+05  7.213097E+04  3.733904E+04  1.862067E+05  3.960128E+04  8.610237E+02
       185   6  4.724198E+05  7.499356E+04  2.123487E+04  1.941565E+05  1.973642E+04 -7.184081E+03
       185   7  2.241659E+05  1.428556E+04  1.171619E+04  6.829496E+04  4.594171E+04  1.282116E+04
       185   8  2.174969E+05 -3.107253E+04 -2.565702E+04  1.072052E+05  3.580047E+04 -5.721506E+02
       185   9  2.299024E+05 -5.928551E+03 -3.562867E+04  1.371023E+05  2.268521E+04 -6.072782E+03
       185  10  7.394598E+05  2.679107E+05  1.606353E+05  2.702383E+05 -5.294578E-09  2.390827E-10
       185  11  7.163637E+05  1.753428E+05  1.003270E+05  2.652388E+05 -6.351179E-09  2.881093E-09
       185  12  7.149932E+05  1.559163E+05  7.809329E+04  2.512294E+05  2.786917E-09  2.931320E-09
       185  13  4.817764E+05  1.410872E+05  8.617613E+04  1.692444E+05 -4.318226E-11 -4.170616E-09
       185  14  4.668982E+05  7.213055E+04  3.733609E+04  1.862067E+05  2.161085E-09  3.410109E-09
       185  15  4.724194E+05  7.499340E+04  2.123404E+04  1.941566E+05  2.151435E-09 -1.241095E-09
       185  16  2.241636E+05  1.428481E+04  1.171192E+04  6.829449E+04  3.242429E-09  2.142865E-09
       185  17  2.174955E+05 -3.107287E+04 -2.565943E+04  1.072052E+05 -4.119233E-09 -4.268610E-09
       185  18  2.299018E+05 -5.928729E+03 -3.562970E+04  1.371024E+05 -5.384366E-09  3.701884E-09
       185  19  7.394648E+05  2.679124E+05  1.606445E+05  2.702394E+05 -6.704980E+04 -2.077901E+04
       185  20  7.163657E+05  1.753433E+05  1.003305E+05  2.652389E+05 -4.340376E+04 -2.294985E+03
       185  21  7.149935E+05  1.559165E+05  7.809395E+04  2.512293E+05 -1.678640E+04  8.295732E+03
       185  22  4.817799E+05  1.410883E+05  8.618265E+04  1.692451E+05 -5.649328E+04 -1.679852E+04
       185  23  4.668999E+05  7.213097E+04  3.733904E+04  1.862067E+05 -3.960128E+04 -8.610237E+02
       185  24  4.724198E+05  7.499356E+04  2.123487E+04  1.941565E+05 -1.973642E+04  7.184081E+03
       185  25  2.241659E+05  1.428556E+04  1.171619E+04  6.829496E+04 -4.594171E+04 -1.282116E+04
       185  26  2.174969E+05 -3.107253E+04 -2.565702E+04  1.072052E+05 -3.580047E+04  5.721506E+02
       185  27  2.299024E+05 -5.928551E+03 -3.562867E+04  1.371023E+05 -2.268521E+04  6.072782E+03
       186   1  6.858813E+05  1.635572E+05  6.957923E+04  2.511465E+05  1.588181E+04 -6.903094E+03
       186   2  6.673027E+05  1.472869E+05  5.599732E+04  2.416667E+05  1.087668E+04 -7.833768E+03
       186   3  6.439974E+05  1.420911E+05  4.702764E+04  2.391516E+05  5.739396E+03 -8.414175E+03
       186   4  4.696666E+05  8.152210E+04  1.684107E+04  1.901547E+05  1.644466E+04 -6.691313E+03
       186   5  4.717793E+05  7.402767E+04  8.638489E+03  1.874225E+05  1.174042E+04 -7.508407E+03
       186   6  4.691061E+05  7.754890E+04  4.811061E+03  1.916546E+05  6.903843E+03 -7.975257E+03
       186   7  2.534980E+05 -5.092242E+02 -3.590059E+04  1.291824E+05  1.700731E+04 -6.479616E+03
       186   8  2.762943E+05  7.713912E+02 -3.872303E+04  1.331939E+05  1.260386E+04 -7.183159E+03
       186   9  2.942459E+05  1.300906E+04 -3.740752E+04  1.441700E+05  8.067926E+03 -7.536472E+03
       186  10  6.858810E+05  1.635570E+05  6.957867E+04  2.511466E+05 -7.585739E-09 -1.812986E-09
       186  11  6.673025E+05  1.472868E+05  5.599698E+04  2.416668E+05 -5.299504E-09 -4.297688E-09
       186  12  6.439974E+05  1.420910E+05  4.702745E+04  2.391516E+05 -1.035010E-09  1.421315E-09
       186  13  4.696663E+05  8.152198E+04  1.684048E+04  1.901548E+05 -4.772076E-09 -3.875407E-09
       186  14  4.717792E+05  7.402757E+04  8.638124E+03  1.874226E+05 -7.152986E-09  9.488303E-09
       186  15  4.691061E+05  7.754882E+04  4.810852E+03  1.916547E+05 -1.246012E-09  4.690643E-09
       186  16  2.534977E+05 -5.093469E+02 -3.590121E+04  1.291825E+05 -3.299117E-10  8.115948E-09
       186  17  2.762941E+05  7.712932E+02 -3.872343E+04  1.331940E+05 -1.616000E-09 -1.112367E-09
       186  18  2.942458E+05  1.300899E+04 -3.740775E+04  1.441701E+05 -5.224493E-09  2.398346E-09
       186  19  6.858813E+05  1.635572E+05  6.957923E+04  2.511465E+05 -1.588181E+04  6.903094E+03
       186  20  6.673027E+05  1.472869E+05  5.599732E+04  2.416667E+05 -1.087668E+04  7.833768E+03
       186  21  6.439974E+05  1.420911E+05  4.702764E+04  2.391516E+05 -5.739396E+03  8.414175E+03
       186  22  4.696666E+05  8.152210E+04  1.684107E+04  1.901547E+05 -1.644466E+04  6.691313E+03
       186  23  4.717793E+05  7.402767E+04  8.638489E+03  1.874225E+05 -1.174042E+04  7.508407E+03
       186  24  4.691061E+05  7.754890E+04  4.811061E+03  1.916546E+05 -6.903843E+03  7.975257E+03
       186  25  2.534980E+05 -5.092242E+02 -3.590059E+04  1.291824E+05 -1.700731E+04  6.479616E+03
       186  26  2.762943E+05  7.713912E+02 -3.872303E+04  1.331939E+05 -1.260386E+04  7.183159E+03
       186  27  2.942459E+05  1.300906E+04 -3.740752E+04  1.441700E+05 -8.067926E+03  7.536472E+03
       187   1  6.251441E+05  1.361728E+05  4.137370E+04  2.344464E+05  4.879491E+03 -7.858636E+03
       187   2  6.072146E+05  1.245744E+05  3.463716E+04  2.247186E+05  3.399392E+03 -6.998880E+03
       187   3  5.826590E+05  1.201119E+05  2.872403E+04  2.227732E+05  1.914087E+03 -6.126007E+03
       187   4  4.688733E+05  7.791571E+04  3.665635E+03  1.913737E+05  5.934423E+03 -7.460935E+03
       187   5  4.721732E+05  7.424267E+04  2.000010E+03  1.875228E+05  4.465811E+03 -6.596731E+03
       187   6  4.688449E+05  7.770364E+04  1.148987E+03  1.914545E+05  2.991959E+03 -5.719423E+03
       187   7  3.126257E+05  1.966003E+04 -3.404444E+04  1.483105E+05  6.989071E+03 -7.063341E+03
       187   8  3.371495E+05  2.391213E+04 -3.063858E+04  1.503343E+05  5.531981E+03 -6.194678E+03
       187   9  3.550435E+05  3.529625E+04 -2.642702E+04  1.601410E+05  4.069617E+03 -5.312919E+03
       187  10  6.251441E+05  1.361727E+05  4.137354E+04  2.344465E+05  1.687971E-09  4.479091E-09
       187  11  6.072146E+05  1.245743E+05  3.463705E+04  2.247186E+05 -3.070203E-09  4.514504E-09
       187  12  5.826590E+05  1.201119E+05  2.872395E+04  2.227732E+05 -7.376243E-09  1.796457E-09
       187  13  4.688732E+05  7.791564E+04  3.665465E+03  1.913737E+05 -6.032496E-09 -4.765179E-10
       187  14  4.721732E+05  7.424262E+04  1.999891E+03  1.875228E+05 -1.528244E-09 -2.776563E-09
       187  15  4.688449E+05  7.770360E+04  1.148909E+03  1.914545E+05  1.680638E-09  4.905492E-09
       187  16  3.126257E+05  1.965996E+04 -3.404462E+04  1.483106E+05 -4.517197E-09 -6.228391E-09
       187  17  3.371495E+05  2.391208E+04 -3.063871E+04  1.503343E+05 -3.361698E-09  2.994454E-09
       187  18  3.550435E+05  3.529621E+04 -2.642710E+04  1.601410E+05  6.067453E-09  6.031282E-09
       187  19  6.251441E+05  1.361728E+05  4.137370E+04  2.344464E+05 -4.879491E+03  7.858636E+03
       187  20  6.072146E+05  1.245744E+05  3.463716E+04  2.247186E+05 -3.399392E+03  6.998880E+03
       187  21  5.826590E+05  1.201119E+05  2.872403E+04  2.227732E+05 -1.914087E+03  6.126007E+03
       187  22  4.688733E+05  7.791571E+04  3.665635E+03  1.913737E+05 -5.934423E+03  7.460935E+03
       187  23  4.721732E+05  7.424267E+04  2.000010E+03  1.875228E+05 -4.465811E+03  6.596731E+03
       187  24  4.688449E+05  7.770364E+04  1.148987E+03  1.914545E+05 -2.991959E+03  5.719423E+03
       187  25  3.126257E+05  1.966003E+04 -3.404444E+04  1.483105E+05 -6.989071E+03  7.063341E+03
       187  26  3.371495E+05  2.391213E+04 -3.063858E+04  1.503343E+05 -5.531981E+03  6.194678E+03
       187  27  3.550435E+05  3.529625E+04 -2.642702E+04  1.601410E+05 -4.069617E+03  5.312919E+03
       188   1  5.646035E+05  1.134139E+05  2.397583E+04  2.178259E+05  1.474930E+03 -5.454967E+03
       188   2  5.468456E+05  1.021195E+05  1.863880E+04  2.081153E+05  7.045764E+02 -4.313756E+03
       188   3  5.223047E+05  9.767851E+04  1.352777E+04  2.061770E+05 -6.560279E+01 -3.173350E+03
       188   4  4.688216E+05  7.771386E+04  8.996667E+02  1.914252E+05  2.546399E+03 -5.050745E+03
       188   5  4.722135E+05  7.428460E+04  5.985923E+02  1.875403E+05  1.775402E+03 -3.909717E+03
       188   6  4.688221E+05  7.770889E+04  5.240706E+02  1.914276E+05  1.004566E+03 -2.769494E+03
       188   7  3.730492E+05  4.201466E+04 -2.217704E+04  1.650283E+05  3.617683E+03 -4.646592E+03
       188   8  3.975870E+05  4.645006E+04 -1.744202E+04  1.669675E+05  2.846088E+03 -3.505730E+03
       188   9  4.153420E+05  5.773936E+04 -1.247991E+04  1.766793E+05  2.074639E+03 -2.365673E+03
       188  10  5.646035E+05  1.134139E+05  2.397577E+04  2.178259E+05  2.190957E-09  5.406919E-09
       188  11  5.468455E+05  1.021195E+05  1.863876E+04  2.081153E+05 -2.743902E-09 -1.941546E-09
       188  12  5.223046E+05  9.767850E+04  1.352775E+04  2.061770E+05  3.491738E-10 -6.694892E-10
       188  13  4.688216E+05  7.771383E+04  8.996066E+02  1.914252E+05 -1.567427E-09  2.936182E-09
       188  14  4.722135E+05  7.428458E+04  5.985576E+02  1.875403E+05 -1.944141E-09 -4.860819E-09
       188  15  4.688221E+05  7.770888E+04  5.240543E+02  1.914276E+05 -2.717046E-09 -3.558059E-09
       188  16  3.730492E+05  4.201463E+04 -2.217710E+04  1.650283E+05  2.585277E-09  7.622299E-10
       188  17  3.975870E+05  4.645004E+04 -1.744206E+04  1.669675E+05  5.565233E-09  3.714264E-09
       188  18  4.153420E+05  5.773936E+04 -1.247993E+04  1.766793E+05 -3.728577E-09 -4.941532E-10
       188  19  5.646035E+05  1.134139E+05  2.397583E+04  2.178259E+05 -1.474930E+03  5.454967E+03
       188  20  5.468456E+05  1.021195E+05  1.863880E+04  2.081153E+05 -7.045764E+02  4.313756E+03
       188  21  5.223047E+05  9.767851E+04  1.352777E+04  2.061770E+05  6.560279E+01  3.173350E+03
       188  22  4.688216E+05  7.771386E+04  8.996667E+02  1.914252E+05 -2.546399E+03  5.050745E+03
       188  23  4.722135E+05  7.428460E+04  5.985923E+02  1.875403E+05 -1.775402E+03  3.909717E+03
       188  24  4.688221E+05  7.770889E+04  5.240706E+02  1.914276E+05 -1.004566E+03  2.769494E+03
       188  25  3.730492E+05  4.201466E+04 -2.217704E+04  1.650283E+05 -3.617683E+03  4.646592E+03
       188  26  3.975870E+05  4.645006E+04 -1.744202E+04  1.669675E+05 -2.846088E+03  3.505730E+03
       188  27  4.153420E+05  5.773936E+04 -1.247991E+04  1.766793E+05 -2.074639E+03  2.365673E+03
       189   1  5.043684E+05  9.096270E+04  9.074592E+03  2.012423E+05 -4.295351E+02 -2.478395E+03
       189   2  4.866435E+05  7.969616E+04  4.268425E+03  1.915488E+05 -1.286828E+03 -1.372748E+03
       189   3  4.621620E+05  7.527802E+04 -2.449102E+02  1.896124E+05 -2.143845E+03 -2.677984E+02
       189   4  4.688280E+05  7.770602E+04  5.553905E+02  1.914249E+05  6.397967E+02 -2.074829E+03
       189   5  4.722074E+05  7.428784E+04  7.745857E+02  1.875443E+05 -2.181132E+02 -9.694050E+02
       189   6  4.688298E+05  7.771807E+04  1.287079E+03  1.914205E+05 -1.075760E+03  1.353173E+02
       189   7  4.332888E+05  6.444944E+04 -7.963896E+03  1.816081E+05  1.709062E+03 -1.671289E+03
       189   8  4.577715E+05  6.887955E+04 -2.719253E+03  1.835398E+05  8.505721E+02 -5.660734E+02
       189   9  4.754976E+05  8.015812E+04  2.819061E+03  1.932285E+05 -7.667984E+00  5.384355E+02
       189  10  5.043684E+05  9.096269E+04  9.074580E+03  2.012423E+05 -7.209004E-11 -4.254820E-10
       189  11  4.866435E+05  7.969616E+04  4.268418E+03  1.915488E+05  4.948496E-09  4.057249E-09
       189  12  4.621620E+05  7.527802E+04 -2.449189E+02  1.896124E+05 -2.788318E-09 -1.864502E-09
       189  13  4.688280E+05  7.770602E+04  5.553817E+02  1.914249E+05 -2.130931E-09  3.688058E-09
       189  14  4.722074E+05  7.428784E+04  7.745838E+02  1.875443E+05  1.004031E-09 -3.495215E-09
       189  15  4.688298E+05  7.771807E+04  1.287077E+03  1.914205E+05  1.841929E-09  5.162732E-09
       189  16  4.332888E+05  6.444943E+04 -7.963907E+03  1.816081E+05  1.621021E-09 -2.090855E-09
       189  17  4.577715E+05  6.887955E+04 -2.719255E+03  1.835398E+05  4.713835E-09 -1.349419E-09
       189  18  4.754976E+05  8.015812E+04  2.819061E+03  1.932285E+05  2.216585E-09 -1.716109E-09
       189  19  5.043684E+05  9.096270E+04  9.074592E+03  2.012423E+05  4.295351E+02  2.478395E+03
       189  20  4.866435E+05  7.969616E+04  4.268425E+03  1.915488E+05  1.286828E+03  1.372748E+03
       189  21  4.621620E+05  7.527802E+04 -2.449102E+02  1.896124E+05  2.143845E+03  2.677984E+02
       189  22  4.688280E+05  7.770602E+04  5.553905E+02  1.914249E+05 -6.397967E+02  2.074829E+03
       189  23  4.722074E+05  7.428784E+04  7.745857E+02  1.875443E+05  2.181132E+02  9.694050E+02
       189  24  4.688298E+05  7.771807E+04  1.287079E+03  1.914205E+05  1.075760E+03 -1.353173E+02
       189  25  4.332888E+05  6.444944E+04 -7.963896E+03  1.816081E+05 -1.709062E+03  1.671289E+03
       189  26  4.577715E+05  6.887955E+04 -2.719253E+03  1.835398E+05 -8.505721E+02  5.660734E+02
       189  27  4.754976E+05  8.015812E+04  2.819061E+03  1.932285E+05  7.667984E+00 -5.384355E+02
       190   1  4.442332E+05  6.858459E+04 -4.333316E+03  1.847626E+05 -2.667526E+03  3.674920E+02
       190   2  4.264147E+05  5.724377E+04 -8.053794E+03  1.749838E+05 -4.626399E+03  1.055266E+03
       190   3  4.021143E+05  5.313046E+04 -1.056466E+04  1.729246E+05 -6.581358E+03  1.733021E+03
       190   4  4.688756E+05  7.769340E+04  1.680816E+03  1.914533E+05 -1.595952E+03  7.719167E+02
       190   5  4.721384E+05  7.424241E+04  2.990931E+03  1.875315E+05 -3.563530E+03  1.456369E+03
       190   6  4.689211E+05  7.802074E+04  5.517610E+03  1.913293E+05 -5.527246E+03  2.130783E+03
       190   7  4.935187E+05  8.680230E+04  7.694941E+03  1.981444E+05 -5.243250E+02  1.176361E+03
       190   8  5.178643E+05  9.124124E+04  1.403554E+04  2.000802E+05 -2.500572E+03  1.857505E+03
       190   9  5.357323E+05  1.029113E+05  2.159956E+04  2.097358E+05 -4.473009E+03  2.528592E+03
       190  10  4.442332E+05  6.858458E+04 -4.333330E+03  1.847626E+05 -5.029205E-09 -5.608534E-10
       190  11  4.264146E+05  5.724376E+04 -8.053836E+03  1.749838E+05 -1.077346E-08 -2.878942E-09
       190  12  4.021143E+05  5.313044E+04 -1.056474E+04  1.729247E+05 -1.435333E-08 -2.825772E-09
       190  13  4.688756E+05  7.769340E+04  1.680810E+03  1.914533E+05 -1.119447E-09  2.145597E-09
       190  14  4.721384E+05  7.424240E+04  2.990903E+03  1.875316E+05  6.663093E-10 -3.634764E-09
       190  15  4.689211E+05  7.802072E+04  5.517544E+03  1.913293E+05 -3.453884E-09 -8.499763E-09
       190  16  4.935187E+05  8.680230E+04  7.694938E+03  1.981444E+05  6.388451E-09  6.319459E-09
       190  17  5.178643E+05  9.124123E+04  1.403552E+04  2.000802E+05  1.057515E-08  6.945004E-09
       190  18  5.357323E+05  1.029113E+05  2.159951E+04  2.097358E+05  9.247466E-09  3.912075E-09
       190  19  4.442332E+05  6.858459E+04 -4.333316E+03  1.847626E+05  2.667526E+03 -3.674920E+02
       190  20  4.264147E+05  5.724377E+04 -8.053794E+03  1.749838E+05  4.626399E+03 -1.055266E+03
       190  21  4.021143E+05  5.313046E+04 -1.056466E+04  1.729246E+05  6.581358E+03 -1.733021E+03
       190  22  4.688756E+05  7.769340E+04  1.680816E+03  1.914533E+05  1.595952E+03 -7.719167E+02
       190  23  4.721384E+05  7.424241E+04  2.990931E+03  1.875315E+05  3.563530E+03 -1.456369E+03
       190  24  4.689211E+05  7.802074E+04  5.517610E+03  1.913293E+05  5.527246E+03 -2.130783E+03
       190  25  4.935187E+05  8.680230E+04  7.694941E+03  1.981444E+05  5.243250E+02 -1.176361E+03
       190  26  5.178643E+05  9.124124E+04  1.403554E+04  2.000802E+05  2.500572E+03 -1.857505E+03
       190  27  5.357323E+05  1.029113E+05  2.159956E+04  2.097358E+05  4.473009E+03 -2.528592E+03
       191   1  3.837656E+05  4.658683E+04 -1.330914E+04  1.692393E+05 -7.962381E+03  2.072514E+03
       191   2  3.659966E+05  3.403286E+04 -1.260145E+04  1.577514E+05 -1.483149E+04  8.529156E+02
       191   3  3.445256E+05  3.448771E+04 -5.457043E+03  1.526972E+05 -2.160962E+04 -6.066839E+02
       191   4  4.692829E+05  7.745859E+04  7.250537E+03  1.917433E+05 -6.833981E+03  2.498280E+03
       191   5  4.715391E+05  7.393683E+04  1.303577E+04  1.873928E+05 -1.390938E+04  1.200728E+03
       191   6  4.701331E+05  8.346368E+04  2.542018E+04  1.894756E+05 -2.089407E+04 -3.369372E+02
       191   7  5.548070E+05  1.083306E+05  2.780958E+04  2.142501E+05 -5.705418E+03  2.924104E+03
       191   8  5.770925E+05  1.138417E+05  3.867215E+04  2.170389E+05 -1.298710E+04  1.548607E+03
       191   9  5.957568E+05  1.324414E+05  5.629637E+04  2.262611E+05 -2.017835E+04 -6.712353E+01
       191  10  3.837656E+05  4.658681E+04 -1.330927E+04  1.692393E+05  6.171668E-09  3.261696E-09
       191  11  3.659964E+05  3.403280E+04 -1.260186E+04  1.577514E+05  6.517686E-09  3.883521E-09
       191  12  3.445251E+05  3.448758E+04 -5.457921E+03  1.526972E+05  2.297745E-09 -3.592074E-09
       191  13  4.692829E+05  7.745857E+04  7.250437E+03  1.917434E+05 -2.220030E-09 -1.069044E-08
       191  14  4.715389E+05  7.393678E+04  1.303540E+04  1.873929E+05 -6.547126E-09 -1.324007E-09
       191  15  4.701326E+05  8.346357E+04  2.541936E+04  1.894756E+05 -9.057530E-10 -3.962315E-09
       191  16  5.548069E+05  1.083306E+05  2.780950E+04  2.142501E+05 -1.158615E-08 -3.786832E-09
       191  17  5.770923E+05  1.138416E+05  3.867183E+04  2.170389E+05 -5.870243E-09 -3.822371E-09
       191  18  5.957564E+05  1.324413E+05  5.629560E+04  2.262611E+05 -5.158779E-09 -8.993941E-09
       191  19  3.837656E+05  4.658683E+04 -1.330914E+04  1.692393E+05  7.962381E+03 -2.072514E+03
       191  20  3.659966E+05  3.403286E+04 -1.260145E+04  1.577514E+05  1.483149E+04 -8.529156E+02
       191  21  3.445256E+05  3.448771E+04 -5.457043E+03  1.526972E+05  2.160962E+04  6.066839E+02
       191  22  4.692829E+05  7.745859E+04  7.250537E+03  1.917433E+05  6.833981E+03 -2.498280E+03
       191  23  4.715391E+05  7.393683E+04  1.303577E+04  1.873928E+05  1.390938E+04 -1.200728E+03
       191  24  4.701331E+05  8.346368E+04  2.542018E+04  1.894756E+05  2.089407E+04  3.369372E+02
       191  25  5.548070E+05  1.083306E+05  2.780958E+04  2.142501E+05  5.705418E+03 -2.924104E+03
       191  26  5.770925E+05  1.138417E+05  3.867215E+04  2.170389E+05  1.298710E+04 -1.548607E+03
       191  27  5.957568E+05  1.324414E+05  5.629637E+04  2.262611E+05  2.017835E+04  6.712353E+01
       192   1  3.185323E+05  2.988757E+04 -3.030990E+03  1.673536E+05 -2.782223E+04 -1.507582E+03
       192   2  3.090410E+05 -2.166872E+03  1.553569E+04  1.271172E+05 -5.348976E+04 -1.112569E+04
       192   3  3.328725E+05  6.982871E+04  7.986953E+04  6.932545E+04 -7.712236E+04 -2.613676E+04
       192   4  4.742544E+05  7.364373E+04  3.205351E+04  1.955523E+05 -2.547559E+04 -6.218093E+02
       192   5  4.642223E+05  7.104557E+04  5.637093E+04  1.855147E+05 -5.575990E+04 -1.198362E+04
       192   6  4.884137E+05  1.733910E+05  1.301038E+05  1.579249E+05 -8.400951E+04 -2.874066E+04
       192   7  6.300010E+05  1.173997E+05  6.713673E+04  2.237563E+05 -2.312829E+04  2.640720E+02
       192   8  6.194270E+05  1.442636E+05  9.720387E+04  2.439264E+05 -5.803063E+04 -1.284191E+04
       192   9  6.439808E+05  2.769730E+05  1.803354E+05  2.465479E+05 -9.089840E+04 -3.134647E+04
       192  10  3.185315E+05  2.988736E+04 -3.032448E+03  1.673536E+05  3.245914E-09 -7.456110E-09
       192  11  3.090379E+05 -2.167773E+03  1.553009E+04  1.271168E+05  3.678981E-09  1.173873E-09
       192  12  3.328659E+05  6.982638E+04  7.985708E+04  6.932383E+04  4.305566E-09  1.702424E-09
       192  13  4.742537E+05  7.364356E+04  3.205229E+04  1.955523E+05 -2.653335E-09 -6.863305E-09
       192  14  4.642190E+05  7.104458E+04  5.636483E+04  1.855141E+05  2.935001E-09 -6.835459E-10
       192  15  4.884059E+05  1.733882E+05  1.300890E+05  1.579230E+05  1.397970E-09  4.721261E-09
       192  16  6.300004E+05  1.173995E+05  6.713573E+04  2.237563E+05  1.456659E-09  2.735251E-09
       192  17  6.194233E+05  1.442626E+05  9.719724E+04  2.439258E+05  3.467791E-09  4.023822E-09
       192  18  6.439717E+05  2.769697E+05  1.803180E+05  2.465456E+05  9.226514E-10 -1.533563E-10
       192  19  3.185323E+05  2.988757E+04 -3.030990E+03  1.673536E+05  2.782223E+04  1.507582E+03
       192  20  3.090410E+05 -2.166872E+03  1.553569E+04  1.271172E+05  5.348976E+04  1.112569E+04
       192  21  3.328725E+05  6.982871E+04  7.986953E+04  6.932545E+04  7.712236E+04  2.613676E+04
       192  22  4.742544E+05  7.364373E+04  3.205351E+04  1.955523E+05  2.547559E+04  6.218093E+02
       192  23  4.642223E+05  7.104557E+04  5.637093E+04  1.855147E+05  5.575990E+04  1.198362E+04
       192  24  4.884137E+05  1.733910E+05  1.301038E+05  1.579249E+05  8.400951E+04  2.874066E+04
       192  25  6.300010E+05  1.173997E+05  6.713673E+04  2.237563E+05  2.312829E+04 -2.640720E+02
       192  26  6.194270E+05  1.442636E+05  9.720387E+04  2.439264E+05  5.803063E+04  1.284191E+04
       192  27  6.439808E+05  2.769730E+05  1.803354E+05  2.465479E+05  9.089840E+04  3.134647E+04
       193   1 -8.764199E+04 -5.496714E+05 -8.977246E+04  8.204093E+04 -2.680208E+03 -1.798435E+04
       193   2 -4.007743E+04 -4.215161E+05 -4.697869E+04  4.786007E+04 -6.432769E+03 -6.443896E+03
       193   3 -9.393446E+03 -2.988937E+05 -1.589341E+04  7.309381E+04 -1.612269E+03  5.108257E+03
       193   4 -1.508763E+04 -2.585477E+05 -1.834521E+04  7.524581E+04 -2.686500E+03 -1.163364E+04
       193   5  5.699183E+02 -2.563569E+05 -8.991761E+03  4.554677E+04 -6.432197E+03 -6.876620E+03
       193   6  5.286732E+02 -2.585344E+05 -6.630465E+03  7.526228E+04 -1.605697E+03 -2.110350E+03
       193   7  5.746063E+04  3.265338E+04  5.307598E+04  6.844752E+04 -2.692930E+03 -5.279956E+03
       193   8  4.121538E+04 -9.117251E+04  2.899336E+04  4.323284E+04 -6.431622E+03 -7.309458E+03
       193   9  1.045072E+04 -2.181734E+05  2.632569E+03  7.743090E+04 -1.599176E+03 -9.329421E+03
       193  10 -8.764208E+04 -5.496718E+05 -8.977308E+04  8.204089E+04  1.158625E-09  5.384735E-09
       193  11 -4.007748E+04 -4.215162E+05 -4.697884E+04  4.786004E+04  5.180317E-09  5.509559E-09
       193  12 -9.393455E+03 -2.988938E+05 -1.589346E+04  7.309381E+04  4.028864E-09  1.601246E-09
       193  13 -1.508767E+04 -2.585479E+05 -1.834548E+04  7.524579E+04  7.108606E-09  1.119894E-09
       193  14  5.698612E+02 -2.563570E+05 -8.991928E+03  4.554673E+04  4.837763E-09  3.352288E-09
       193  15  5.286693E+02 -2.585344E+05 -6.630478E+03  7.526228E+04  6.223696E-09 -2.570517E-09
       193  16  5.746061E+04  3.265335E+04  5.307591E+04  6.844751E+04  1.157312E-09 -6.639282E-09
       193  17  4.121532E+04 -9.117258E+04  2.899318E+04  4.323280E+04  9.020725E-09 -6.452449E-10
       193  18  1.045070E+04 -2.181735E+05  2.632401E+03  7.743089E+04  4.673498E-10 -2.246124E-09
       193  19 -8.764199E+04 -5.496714E+05 -8.977246E+04  8.204093E+04  2.680208E+03  1.798435E+04
       193  20 -4.007743E+04 -4.215161E+05 -4.697869E+04  4.786007E+04  6.432769E+03  6.443896E+03
       193  21 -9.393446E+03 -2.988937E+05 -1.589341E+04  7.309381E+04  1.612269E+03 -5.108257E+03
       193  22 -1.508763E+04 -2.585477E+05 -1.834521E+04  7.524581E+04  2.686500E+03  1.163364E+04
       193  23  5.699183E+02 -2.563569E+05 -8.991761E+03  4.554677E+04  6.432197E+03  6.876620E+03
       193  24  5.286732E+02 -2.585344E+05 -6.630465E+03  7.526228E+04  1.605697E+03  2.110350E+03
       193  25  5.746063E+04  3.265338E+04  5.307598E+04  6.844752E+04  2.692930E+03  5.279956E+03
       193  26  4.121538E+04 -9.117251E+04  2.899336E+04  4.323284E+04  6.431622E+03  7.309458E+03
       193  27  1.045072E+04 -2.181734E+05  2.632569E+03  7.743090E+04  1.599176E+03  9.329421E+03
       194   1  1.659358E+04 -1.860314E+05  1.002729E+04  7.598699E+04  3.209053E+03  3.819120E+03
       194   2  4.842387E+04 -6.019537E+04  3.830301E+04  4.522008E+04  9.113671E+03  6.631736E+03
       194   3  7.695288E+04  6.465063E+04  6.396100E+04  7.417066E+04  1.456584E+04  9.446108E+03
       194   4 -1.020576E+03 -2.578020E+05 -6.263019E+03  7.532534E+04  3.213496E+03 -1.037771E+03
       194   5  8.568592E+01 -2.572754E+05 -6.272903E+03  4.546531E+04  9.118422E+03  2.132010E+03
       194   6 -2.170987E+03 -2.578160E+05 -9.148529E+03  7.532413E+04  1.457079E+04  5.302995E+03
       194   7 -1.863507E+04 -3.295678E+05 -2.255357E+04  7.466376E+04  3.217949E+03 -5.894105E+03
       194   8 -4.825516E+04 -4.543192E+05 -5.085124E+04  4.571046E+04  9.123170E+03 -2.366301E+03
       194   9 -8.130201E+04 -5.801860E+05 -8.226471E+04  7.647700E+04  1.457572E+04  1.162014E+03
       194  10  1.659357E+04 -1.860314E+05  1.002724E+04  7.598698E+04  9.171107E-10  9.165298E-09
       194  11  4.842377E+04 -6.019544E+04  3.830277E+04  4.522003E+04 -4.537934E-09  3.207002E-10
       194  12  7.695263E+04  6.465048E+04  6.396043E+04  7.417055E+04 -2.121723E-11 -8.183203E-09
       194  13 -1.020587E+03 -2.578020E+05 -6.263041E+03  7.532534E+04 -3.233387E-09 -1.073724E-09
       194  14  8.559543E+01 -2.572754E+05 -6.273068E+03  4.546529E+04  2.216948E-09  1.284138E-09
       194  15 -2.171222E+03 -2.578161E+05 -9.148981E+03  7.532406E+04 -3.208293E-09 -4.660760E-09
       194  16 -1.863509E+04 -3.295678E+05 -2.255366E+04  7.466377E+04 -2.184021E-09 -1.135656E-08
       194  17 -4.825525E+04 -4.543193E+05 -5.085141E+04  4.571048E+04 -2.415964E-09 -2.495687E-10
       194  18 -8.130224E+04 -5.801861E+05 -8.226511E+04  7.647699E+04 -2.722266E-09  7.411468E-09
       194  19  1.659358E+04 -1.860314E+05  1.002729E+04  7.598699E+04 -3.209053E+03 -3.819120E+03
       194  20  4.842387E+04 -6.019537E+04  3.830301E+04  4.522008E+04 -9.113671E+03 -6.631736E+03
       194  21  7.695288E+04  6.465063E+04  6.396100E+04  7.417066E+04 -1.456584E+04 -9.446108E+03
       194  22 -1.020576E+03 -2.578020E+05 -6.263019E+03  7.532534E+04 -3.213496E+03  1.037771E+03
       194  23  8.568592E+01 -2.572754E+05 -6.272903E+03  4.546531E+04 -9.118422E+03 -2.132010E+03
       194  24 -2.170987E+03 -2.578160E+05 -9.148529E+03  7.532413E+04 -1.457079E+04 -5.302995E+03
       194  25 -1.863507E+04 -3.295678E+05 -2.255357E+04  7.466376E+04 -3.217949E+03  5.894105E+03
       194  26 -4.825516E+04 -4.543192E+05 -5.085124E+04  4.571046E+04 -9.123170E+03  2.366301E+03
       194  27 -8.130201E+04 -5.801860E+05 -8.226471E+04  7.647700E+04 -1.457572E+04 -1.162014E+03
       195   1  1.079454E+05  1.751778E+05  8.732513E+04  7.927994E+04  2.036868E+04  1.654989E+04
       195   2  1.384547E+05  3.036167E+05  1.104714E+05  4.065149E+04  2.332633E+04  1.115564E+04
       195   3  1.397047E+05  4.258242E+05  1.298901E+05  6.091943E+04  7.923683E+03  5.731815E+03
       195   4  1.375892E+03 -2.595487E+05 -1.084537E+04  7.515648E+04  2.038060E+04  6.934398E+03
       195   5  1.153178E+03 -2.551813E+05 -1.718951E+04  4.568207E+04  2.332106E+04  1.608134E+04
       195   6 -3.086703E+04 -2.595912E+05 -3.736516E+04  7.510876E+04  7.893704E+03  2.519940E+04
       195   7 -1.052064E+05 -6.940992E+05 -1.090276E+05  7.103598E+04  2.039265E+04 -2.674425E+03
       195   8 -1.361699E+05 -8.136897E+05 -1.448707E+05  5.070818E+04  2.331587E+04  2.100264E+04
       195   9 -2.014725E+05 -9.445772E+05 -2.046531E+05  8.928254E+04  7.864599E+03  4.464554E+04
       195  10  1.079448E+05  1.751774E+05  8.732384E+04  7.927967E+04  8.734307E-10 -1.787388E-09
       195  11  1.384541E+05  3.036164E+05  1.104701E+05  4.065128E+04 -4.817572E-09  7.127867E-09
       195  12  1.397046E+05  4.258241E+05  1.298899E+05  6.091939E+04 -2.381287E-10  9.294630E-09
       195  13  1.375433E+03 -2.595488E+05 -1.084624E+04  7.515637E+04 -5.673835E-09 -1.123837E-09
       195  14  1.152525E+03 -2.551817E+05 -1.719102E+04  4.568177E+04 -3.719607E-09  3.260185E-09
       195  15 -3.086727E+04 -2.595919E+05 -3.736647E+04  7.510860E+04 -1.815312E-09 -8.842715E-09
       195  16 -1.052069E+05 -6.940993E+05 -1.090284E+05  7.103602E+04 -2.382572E-09 -1.107901E-10
       195  17 -1.361706E+05 -8.136904E+05 -1.448726E+05  5.070779E+04 -6.898289E-10 -4.370316E-09
       195  18 -2.014731E+05 -9.445793E+05 -2.046569E+05  8.928226E+04 -5.794012E-10 -8.544138E-09
       195  19  1.079454E+05  1.751778E+05  8.732513E+04  7.927994E+04 -2.036868E+04 -1.654989E+04
       195  20  1.384547E+05  3.036167E+05  1.104714E+05  4.065149E+04 -2.332633E+04 -1.115564E+04
       195  21  1.397047E+05  4.258242E+05  1.298901E+05  6.091943E+04 -7.923683E+03 -5.731815E+03
       195  22  1.375892E+03 -2.595487E+05 -1.084537E+04  7.515648E+04 -2.038060E+04 -6.934398E+03
       195  23  1.153178E+03 -2.551813E+05 -1.718951E+04  4.568207E+04 -2.332106E+04 -1.608134E+04
       195  24 -3.086703E+04 -2.595912E+05 -3.736516E+04  7.510876E+04 -7.893704E+03 -2.519940E+04
       195  25 -1.052064E+05 -6.940992E+05 -1.090276E+05  7.103598E+04 -2.039265E+04  2.674425E+03
       195  26 -1.361699E+05 -8.136897E+05 -1.448707E+05  5.070818E+04 -2.331587E+04 -2.100264E+04
       195  27 -2.014725E+05 -9.445772E+05 -2.046531E+05  8.928254E+04 -7.864599E+03 -4.464554E+04
       196   1  2.146146E+05  1.302670E+05  1.180215E+05  3.160459E+04  2.409278E+04 -9.354392E+03
       196   2  1.627603E+05  1.390361E+05  9.981514E+04  3.850535E+04  6.639556E+03 -3.134469E+04
       196   3  1.092770E+05  1.321133E+05  8.906331E+04  5.592188E+04 -1.082315E+04 -3.747496E+04
       196   4 -4.577682E+05 -3.569183E+04 -3.953852E+04  5.363563E+04 -2.757918E+04 -9.399698E+03
       196   5 -4.545556E+05 -8.236548E+03 -1.926198E+04  4.835978E+04 -1.762059E+04 -3.137107E+04
       196   6 -4.577399E+05 -1.242400E+03 -1.057232E+04  5.360046E+04 -7.673229E+03 -3.747450E+04
       196   7 -1.129728E+06 -2.016796E+05 -1.971191E+05  7.564256E+04 -7.919552E+04 -9.448698E+03
       196   8 -1.071503E+06 -1.555312E+05 -1.383545E+05  5.820410E+04 -4.185716E+04 -3.139823E+04
       196   9 -1.024442E+06 -1.346157E+05 -1.102196E+05  5.128113E+04 -4.526100E+03 -3.747406E+04
       196  10  2.146140E+05  1.302668E+05  1.180202E+05  3.160477E+04 -7.047025E-10 -4.387857E-11
       196  11  1.627600E+05  1.390350E+05  9.981321E+04  3.850551E+04  3.117972E-09 -1.347153E-09
       196  12  1.092765E+05  1.321118E+05  8.906045E+04  5.592155E+04  5.240888E-09 -1.359306E-09
       196  13 -4.577690E+05 -3.569213E+04 -3.954012E+04  5.363542E+04  2.671202E-10  8.343310E-10
       196  14 -4.545562E+05 -8.237688E+03 -1.926441E+04  4.835934E+04 -2.395328E-09 -4.176884E-10
       196  15 -4.577403E+05 -1.243923E+03 -1.057507E+04  5.360023E+04  2.270756E-10 -1.402342E-10
       196  16 -1.129734E+06 -2.016813E+05 -1.971311E+05  7.564196E+04 -5.509606E-10  3.769432E-10
       196  17 -1.071506E+06 -1.555327E+05 -1.383597E+05  5.820304E+04  3.079923E-10 -2.762684E-09
       196  18 -1.024442E+06 -1.346172E+05 -1.102222E+05  5.128100E+04  5.688775E-10 -3.720100E-09
       196  19  2.146146E+05  1.302670E+05  1.180215E+05  3.160459E+04 -2.409278E+04  9.354392E+03
       196  20  1.627603E+05  1.390361E+05  9.981514E+04  3.850535E+04 -6.639556E+03  3.134469E+04
       196  21  1.092770E+05  1.321133E+05  8.906331E+04  5.592188E+04  1.082315E+04  3.747496E+04
       196  22 -4.577682E+05 -3.569183E+04 -3.953852E+04  5.363563E+04  2.757918E+04  9.399698E+03
       196  23 -4.545556E+05 -8.236548E+03 -1.926198E+04  4.835978E+04  1.762059E+04  3.137107E+04
       196  24 -4.577399E+05 -1.242400E+03 -1.057232E+04  5.360046E+04  7.673229E+03  3.747450E+04
       196  25 -1.129728E+06 -2.016796E+05 -1.971191E+05  7.564256E+04  7.919552E+04  9.448698E+03
       196  26 -1.071503E+06 -1.555312E+05 -1.383545E+05  5.820410E+04  4.185716E+04  3.139823E+04
       196  27 -1.024442E+06 -1.346157E+05 -1.102196E+05  5.128113E+04  4.526100E+03  3.747406E+04
       197   1  7.567144E+04  1.233165E+05  8.444612E+04  5.359980E+04 -7.848131E+03 -3.607269E+04
       197   2  2.309681E+04  1.118855E+05  7.667781E+04  4.827434E+04 -8.178238E+03 -3.444582E+04
       197   3 -2.960587E+04  9.980117E+04  6.895962E+04  5.452829E+04 -8.511001E+03 -3.135065E+04
       197   4 -4.564386E+05 -1.621522E+03 -8.036569E+03  5.384105E+04 -6.300686E+03 -3.607367E+04
       197   5 -4.561444E+05 -2.041959E+02 -4.420399E+03  4.804994E+04 -4.094849E+03 -3.444318E+04
       197   6 -4.564210E+05  1.192939E+02 -2.516072E+03  5.383882E+04 -1.891652E+03 -3.134383E+04
       197   7 -9.882709E+05 -1.265749E+05 -1.005292E+05  5.408200E+04 -4.754525E+03 -3.607465E+04
       197   8 -9.351593E+05 -1.123060E+05 -8.552594E+04  4.782564E+04 -1.450914E+01 -3.444055E+04
       197   9 -8.830563E+05 -9.957208E+04 -7.399726E+04  5.314977E+04  4.723297E+03 -3.133701E+04
       197  10  7.567102E+04  1.233151E+05  8.444356E+04  5.359957E+04 -6.885306E-09 -1.676238E-09
       197  11  2.309642E+04  1.118842E+05  7.667546E+04  4.827411E+04 -4.051643E-09  2.380392E-09
       197  12 -2.960621E+04  9.980009E+04  6.895764E+04  5.452808E+04 -1.326050E-09  2.009064E-09
       197  13 -4.564390E+05 -1.622930E+03 -8.039089E+03  5.384087E+04  2.716122E-09 -1.325749E-09
       197  14 -4.561447E+05 -2.054741E+02 -4.422659E+03  4.804983E+04 -2.469235E-09  1.372081E-09
       197  15 -4.564213E+05  1.182382E+02 -2.517924E+03  5.383877E+04  2.893581E-09 -6.422496E-10
       197  16 -9.882713E+05 -1.265763E+05 -1.005317E+05  5.408187E+04  6.518613E-09 -4.835190E-10
       197  17 -9.351597E+05 -1.123073E+05 -8.552817E+04  4.782564E+04  4.573135E-09  2.248155E-09
       197  18 -8.830566E+05 -9.957315E+04 -7.399915E+04  5.314989E+04  1.745068E-09  1.104338E-09
       197  19  7.567144E+04  1.233165E+05  8.444612E+04  5.359980E+04  7.848131E+03  3.607269E+04
       197  20  2.309681E+04  1.118855E+05  7.667781E+04  4.827434E+04  8.178238E+03  3.444582E+04
       197  21 -2.960587E+04  9.980117E+04  6.895962E+04  5.452829E+04  8.511001E+03  3.135065E+04
       197  22 -4.564386E+05 -1.621522E+03 -8.036569E+03  5.384105E+04  6.300686E+03  3.607367E+04
       197  23 -4.561444E+05 -2.041959E+02 -4.420399E+03  4.804994E+04  4.094849E+03  3.444318E+04
       197  24 -4.564210E+05  1.192939E+02 -2.516072E+03  5.383882E+04  1.891652E+03  3.134383E+04
       197  25 -9.882709E+05 -1.265749E+05 -1.005292E+05  5.408200E+04  4.754525E+03  3.607465E+04
       197  26 -9.351593E+05 -1.123060E+05 -8.552594E+04  4.782564E+04  1.450914E+01  3.444055E+04
       197  27 -8.830563E+05 -9.957208E+04 -7.399726E+04  5.314977E+04 -4.723297E+03  3.133701E+04
       198   1 -6.372905E+04  9.172440E+04  6.354936E+04  5.436245E+04 -7.982156E+03 -2.908900E+04
       198   2 -1.164086E+05  7.944664E+04  5.547431E+04  4.845442E+04 -7.681885E+03 -2.527366E+04
       198   3 -1.691482E+05  6.718379E+04  4.719994E+04  5.423888E+04 -7.382764E+03 -2.132097E+04
       198   4 -4.563119E+05  9.256743E+01 -1.911816E+03  5.386422E+04 -1.508254E+03 -2.908181E+04
       198   5 -4.562538E+05  1.418579E+02 -1.093622E+03  4.801773E+04 -9.712329E+02 -2.526535E+04
       198   6 -4.562998E+05  1.649942E+02 -6.394947E+02  5.386411E+04 -4.353378E+02 -2.131150E+04
       198   7 -8.487425E+05 -9.154728E+04 -6.737755E+04  5.336625E+04  4.961691E+03 -2.907463E+04
       198   8 -7.959849E+05 -7.916891E+04 -5.766490E+04  4.758125E+04  5.735868E+03 -2.525705E+04
       198   9 -7.433699E+05 -6.685807E+04 -4.848127E+04  5.348949E+04  6.508981E+03 -2.130204E+04
       198  10 -6.372934E+04  9.172348E+04  6.354765E+04  5.436226E+04 -2.920153E-09  2.554109E-09
       198  11 -1.164088E+05  7.944594E+04  5.547300E+04  4.845426E+04  2.755388E-10  2.131903E-09
       198  12 -1.691484E+05  6.718329E+04  4.719898E+04  5.423876E+04 -2.757151E-09  1.444142E-09
       198  13 -4.563121E+05  9.165882E+01 -1.913409E+03  5.386418E+04  3.159864E-09 -8.498170E-10
       198  14 -4.562540E+05  1.411723E+02 -1.094823E+03  4.801771E+04 -3.601272E-10  3.270902E-09
       198  15 -4.563000E+05  1.645065E+02 -6.403483E+02  5.386410E+04  9.171257E-10  5.161536E-09
       198  16 -8.487427E+05 -9.154819E+04 -6.737918E+04  5.336637E+04  1.792876E-09  1.890473E-09
       198  17 -7.959851E+05 -7.916961E+04 -5.766616E+04  4.758137E+04  2.038055E-09  4.273032E-09
       198  18 -7.433700E+05 -6.685857E+04 -4.848220E+04  5.348960E+04  1.326847E-09  3.285086E-09
       198  19 -6.372905E+04  9.172440E+04  6.354936E+04  5.436245E+04  7.982156E+03  2.908900E+04
       198  20 -1.164086E+05  7.944664E+04  5.547431E+04  4.845442E+04  7.681885E+03  2.527366E+04
       198  21 -1.691482E+05  6.718379E+04  4.719994E+04  5.423888E+04  7.382764E+03  2.132097E+04
       198  22 -4.563119E+05  9.256743E+01 -1.911816E+03  5.386422E+04  1.508254E+03  2.908181E+04
       198  23 -4.562538E+05  1.418579E+02 -1.093622E+03  4.801773E+04  9.712329E+02  2.526535E+04
       198  24 -4.562998E+05  1.649942E+02 -6.394947E+02  5.386411E+04  4.353378E+02  2.131150E+04
       198  25 -8.487425E+05 -9.154728E+04 -6.737755E+04  5.336625E+04 -4.961691E+03  2.907463E+04
       198  26 -7.959849E+05 -7.916891E+04 -5.766490E+04  4.758125E+04 -5.735868E+03  2.525705E+04
       198  27 -7.433699E+05 -6.685807E+04 -4.848127E+04  5.348949E+04 -6.508981E+03  2.130204E+04
       199   1 -2.033391E+05  5.915783E+04  4.142659E+04  5.419319E+04 -7.271803E+03 -1.897724E+04
       199   2 -2.560789E+05  4.685542E+04  3.293672E+04  4.826539E+04 -7.143969E+03 -1.495593E+04
       199   3 -3.088617E+05  3.458939E+04  2.436183E+04  5.405081E+04 -7.016736E+03 -1.092164E+04
       199   4 -4.562843E+05  1.650185E+02 -4.963079E+02  5.386871E+04 -3.360154E+02 -1.896741E+04
       199   5 -4.562556E+05  1.533409E+02 -3.147205E+02  4.801198E+04 -1.861438E+02 -1.494558E+04
       199   6 -4.562773E+05  1.741067E+02 -2.338573E+02  5.386870E+04 -3.686311E+01 -1.091077E+04
       199   7 -7.091662E+05 -5.883108E+04 -4.242094E+04  5.354433E+04  6.597041E+03 -1.895757E+04
       199   8 -6.563925E+05 -4.655079E+04 -3.356719E+04  4.775865E+04  6.769513E+03 -1.493523E+04
       199   9 -6.036712E+05 -3.424229E+04 -2.483003E+04  5.368663E+04  6.941407E+03 -1.089989E+04
       199  10 -2.033392E+05  5.915743E+04  4.142581E+04  5.419308E+04 -1.477136E-08  2.682243E-09
       199  11 -2.560790E+05  4.685516E+04  3.293621E+04  4.826530E+04 -1.288079E-08  9.254963E-09
       199  12 -3.088618E+05  3.458925E+04  2.436151E+04  5.405075E+04 -1.194473E-08  7.039374E-09
       199  13 -4.562844E+05  1.646322E+02 -4.969840E+02  5.386870E+04 -1.410192E-09  1.354248E-09
       199  14 -4.562556E+05  1.531011E+02 -3.151402E+02  4.801198E+04  5.721044E-09 -3.092463E-09
       199  15 -4.562773E+05  1.739788E+02 -2.340809E+02  5.386870E+04  8.701219E-10 -1.315246E-08
       199  16 -7.091664E+05 -5.883148E+04 -4.242170E+04  5.354444E+04  1.479525E-08  2.866578E-09
       199  17 -6.563927E+05 -4.655104E+04 -3.356770E+04  4.775873E+04  1.645867E-08  2.756795E-09
       199  18 -6.036713E+05 -3.424243E+04 -2.483034E+04  5.368669E+04  1.230276E-08  2.642120E-09
       199  19 -2.033391E+05  5.915783E+04  4.142659E+04  5.419319E+04  7.271803E+03  1.897724E+04
       199  20 -2.560789E+05  4.685542E+04  3.293672E+04  4.826539E+04  7.143969E+03  1.495593E+04
       199  21 -3.088617E+05  3.458939E+04  2.436183E+04  5.405081E+04  7.016736E+03  1.092164E+04
       199  22 -4.562843E+05  1.650185E+02 -4.963079E+02  5.386871E+04  3.360154E+02  1.896741E+04
       199  23 -4.562556E+05  1.533409E+02 -3.147205E+02  4.801198E+04  1.861438E+02  1.494558E+04
       199  24 -4.562773E+05  1.741067E+02 -2.338573E+02  5.386870E+04  3.686311E+01  1.091077E+04
       199  25 -7.091662E+05 -5.883108E+04 -4.242094E+04  5.354433E+04 -6.597041E+03  1.895757E+04
       199  26 -6.563925E+05 -4.655079E+04 -3.356719E+04  4.775865E+04 -6.769513E+03  1.493523E+04
       199  27 -6.036712E+05 -3.424229E+04 -2.483003E+04  5.368663E+04 -6.941407E+03  1.089989E+04
       200   1 -3.430848E+05  2.656144E+04  1.846086E+04  5.400776E+04 -6.979316E+03 -8.568999E+03
       200   2 -3.958433E+05  1.425531E+04  9.773526E+03  4.807141E+04 -6.850573E+03 -4.530686E+03
       200   3 -4.486532E+05  1.980859E+03  9.973069E+02  5.385620E+04 -6.722002E+03 -4.986820E+02
       200   4 -4.562758E+05  1.761440E+02 -2.223190E+02  5.387042E+04  9.450741E-01 -8.557933E+03
       200   5 -4.562490E+05  1.633977E+02 -2.507134E+02  4.800982E+04  1.185465E+02 -4.519492E+03
       200   6 -4.562736E+05  1.845789E+02 -3.601416E+02  5.387042E+04  2.359866E+02 -4.873583E+02
       200   7 -5.694539E+05 -2.620979E+04 -1.890569E+04  5.373311E+04  6.979976E+03 -8.546869E+03
       200   8 -5.166510E+05 -1.392867E+04 -1.027488E+04  4.794824E+04  7.087010E+03 -4.508299E+03
       200   9 -4.638940E+05 -1.611679E+03 -1.717410E+03  5.388463E+04  7.193892E+03 -4.760343E+02
       200  10 -3.430849E+05  2.656135E+04  1.846063E+04  5.400771E+04  1.226997E-08  2.864356E-09
       200  11 -3.958434E+05  1.425527E+04  9.773399E+03  4.807139E+04  1.757346E-08  3.653691E-10
       200  12 -4.486532E+05  1.980847E+03  9.972214E+02  5.385620E+04  1.467463E-08 -4.308578E-10
       200  13 -4.562758E+05  1.760653E+02 -2.224566E+02  5.387042E+04  2.646096E-09 -1.085548E-08
       200  14 -4.562490E+05  1.633758E+02 -2.507518E+02  4.800982E+04 -5.867728E-10 -7.512022E-09
       200  15 -4.562736E+05  1.845786E+02 -3.601422E+02  5.387042E+04 -6.649859E-09 -3.264040E-09
       200  16 -5.694540E+05 -2.620988E+04 -1.890592E+04  5.373316E+04 -1.350091E-08  4.672460E-09
       200  17 -5.166510E+05 -1.392871E+04 -1.027501E+04  4.794826E+04 -1.586187E-08  2.877515E-10
       200  18 -4.638940E+05 -1.611693E+03 -1.717508E+03  5.388463E+04 -1.103521E-08 -3.883198E-10
       200  19 -3.430848E+05  2.656144E+04  1.846086E+04  5.400776E+04  6.979316E+03  8.568999E+03
       200  20 -3.958433E+05  1.425531E+04  9.773526E+03  4.807141E+04  6.850573E+03  4.530686E+03
       200  21 -4.486532E+05  1.980859E+03  9.973069E+02  5.385620E+04  6.722002E+03  4.986820E+02
       200  22 -4.562758E+05  1.761440E+02 -2.223190E+02  5.387042E+04 -9.450741E-01  8.557933E+03
       200  23 -4.562490E+05  1.633977E+02 -2.507134E+02  4.800982E+04 -1.185465E+02  4.519492E+03
       200  24 -4.562736E+05  1.845789E+02 -3.601416E+02  5.387042E+04 -2.359866E+02  4.873583E+02
       200  25 -5.694539E+05 -2.620979E+04 -1.890569E+04  5.373311E+04 -6.979976E+03  8.546869E+03
       200  26 -5.166510E+05 -1.392867E+04 -1.027488E+04  4.794824E+04 -7.087010E+03  4.508299E+03
       200  27 -4.638940E+05 -1.611679E+03 -1.717410E+03  5.388463E+04 -7.193892E+03  4.760343E+02
       201   1 -4.828932E+05 -6.049788E+03 -5.015359E+03  5.380080E+04 -6.660447E+03  1.850877E+03
       201   2 -5.356134E+05 -1.836696E+04 -1.402812E+04  4.786528E+04 -6.145270E+03  5.843191E+03
       201   3 -5.884498E+05 -3.071516E+04 -2.339702E+04  5.364496E+04 -5.629787E+03  9.750775E+03
       201   4 -4.562831E+05  1.876245E+02 -4.537210E+02  5.386904E+04  3.056937E+02  1.862200E+03
       201   5 -4.562378E+05  1.716750E+02 -7.576108E+02  4.801153E+04  6.743205E+02  5.854086E+03
       201   6 -4.562860E+05  1.502610E+02 -1.315872E+03  5.386911E+04  1.043295E+03  9.761249E+03
       201   7 -4.296723E+05  6.425025E+03  4.108076E+03  5.393729E+04  7.272124E+03  1.873525E+03
       201   8 -3.768559E+05  1.871001E+04  1.251288E+04  4.815779E+04  7.494754E+03  5.864982E+03
       201   9 -3.241049E+05  3.101480E+04  2.076491E+04  5.409330E+04  7.717751E+03  9.771726E+03
       201  10 -4.828933E+05 -6.049804E+03 -5.015449E+03  5.380081E+04  1.136088E-09  1.891387E-09
       201  11 -5.356135E+05 -1.836701E+04 -1.402826E+04  4.786531E+04  2.273448E-09  1.253748E-09
       201  12 -5.884499E+05 -3.071527E+04 -2.339726E+04  5.364500E+04 -7.311881E-10  2.943651E-10
       201  13 -4.562831E+05  1.876208E+02 -4.537277E+02  5.386904E+04 -1.324430E-09  6.160197E-10
       201  14 -4.562378E+05  1.716381E+02 -7.576760E+02  4.801152E+04  1.740897E-09  2.936729E-09
       201  15 -4.562861E+05  1.501584E+02 -1.316053E+03  5.386910E+04  1.921549E-09  1.563411E-09
       201  16 -4.296723E+05  6.425007E+03  4.107969E+03  5.393728E+04 -2.481695E-09  3.284175E-09
       201  17 -3.768560E+05  1.870995E+04  1.251271E+04  4.815775E+04 -3.770162E-09 -1.136907E-09
       201  18 -3.241050E+05  3.101468E+04  2.076462E+04  5.409324E+04 -3.065496E-09  3.112364E-10
       201  19 -4.828932E+05 -6.049788E+03 -5.015359E+03  5.380080E+04  6.660447E+03 -1.850877E+03
       201  20 -5.356134E+05 -1.836696E+04 -1.402812E+04  4.786528E+04  6.145270E+03 -5.843191E+03
       201  21 -5.884498E+05 -3.071516E+04 -2.339702E+04  5.364496E+04  5.629787E+03 -9.750775E+03
       201  22 -4.562831E+05  1.876245E+02 -4.537210E+02  5.386904E+04 -3.056937E+02 -1.862200E+03
       201  23 -4.562378E+05  1.716750E+02 -7.576108E+02  4.801153E+04 -6.743205E+02 -5.854086E+03
       201  24 -4.562860E+05  1.502610E+02 -1.315872E+03  5.386911E+04 -1.043295E+03 -9.761249E+03
       201  25 -4.296723E+05  6.425025E+03  4.108076E+03  5.393729E+04 -7.272124E+03 -1.873525E+03
       201  26 -3.768559E+05  1.871001E+04  1.251288E+04  4.815779E+04 -7.494754E+03 -5.864982E+03
       201  27 -3.241049E+05  3.101480E+04  2.076491E+04  5.409330E+04 -7.717751E+03 -9.771726E+03
       202   1 -6.227812E+05 -3.874789E+04 -2.979410E+04  5.347451E+04 -5.459021E+03  1.205064E+04
       202   2 -6.751862E+05 -5.135490E+04 -4.036745E+04  4.792727E+04 -2.371765E+03  1.551566E+04
       202   3 -7.282810E+05 -6.497441E+04 -5.321598E+04  5.402985E+04  7.170064E+02  1.806615E+04
       202   4 -4.563603E+05  1.709620E+02 -1.729481E+03  5.385428E+04  1.305125E+03  1.206105E+04
       202   5 -4.561551E+05 -5.328506E+01 -3.033047E+03  4.803040E+04  2.813653E+03  1.552315E+04
       202   6 -4.563685E+05 -1.015597E+03 -5.514547E+03  5.385612E+04  4.323972E+03  1.807087E+04
       202   7 -2.899119E+05  3.908838E+04  2.633442E+04  5.423414E+04  8.071027E+03  1.207147E+04
       202   8 -2.370766E+05  5.124580E+04  3.429988E+04  4.813355E+04  8.000843E+03  1.553063E+04
       202   9 -1.843836E+05  6.293919E+04  4.218427E+04  5.368228E+04  7.932471E+03  1.807559E+04
       202  10 -6.227813E+05 -3.874806E+04 -2.979442E+04  5.347457E+04 -4.207908E-09  1.871709E-09
       202  11 -6.751863E+05 -5.135516E+04 -4.036791E+04  4.792730E+04  5.781050E-09 -1.002648E-09
       202  12 -7.282811E+05 -6.497476E+04 -5.321660E+04  5.402984E+04 -2.366161E-10  3.725543E-09
       202  13 -4.563603E+05  1.708054E+02 -1.729758E+03  5.385427E+04  7.967051E-10  1.465427E-09
       202  14 -4.561551E+05 -5.354588E+01 -3.033515E+03  4.803037E+04 -2.548146E-09  1.987928E-09
       202  15 -4.563686E+05 -1.015952E+03 -5.515196E+03  5.385605E+04 -1.001692E-09  2.004353E-09
       202  16 -2.899120E+05  3.908821E+04  2.633403E+04  5.423406E+04  1.902156E-09  1.755249E-09
       202  17 -2.370767E+05  5.124552E+04  3.429930E+04  4.813345E+04 -9.546590E-10  3.871056E-09
       202  18 -1.843837E+05  6.293882E+04  4.218354E+04  5.368216E+04 -2.159297E-09 -1.940085E-10
       202  19 -6.227812E+05 -3.874789E+04 -2.979410E+04  5.347451E+04  5.459021E+03 -1.205064E+04
       202  20 -6.751862E+05 -5.135490E+04 -4.036745E+04  4.792727E+04  2.371765E+03 -1.551566E+04
       202  21 -7.282810E+05 -6.497441E+04 -5.321598E+04  5.402985E+04 -7.170064E+02 -1.806615E+04
       202  22 -4.563603E+05  1.709620E+02 -1.729481E+03  5.385428E+04 -1.305125E+03 -1.206105E+04
       202  23 -4.561551E+05 -5.328506E+01 -3.033047E+03  4.803040E+04 -2.813653E+03 -1.552315E+04
       202  24 -4.563685E+05 -1.015597E+03 -5.514547E+03  5.385612E+04 -4.323972E+03 -1.807087E+04
       202  25 -2.899119E+05  3.908838E+04  2.633442E+04  5.423414E+04 -8.071027E+03 -1.207147E+04
       202  26 -2.370766E+05  5.124580E+04  3.429988E+04  4.813355E+04 -8.000843E+03 -1.553063E+04
       202  27 -1.843836E+05  6.293919E+04  4.218427E+04  5.368228E+04 -7.932471E+03 -1.807559E+04
       203   1 -7.638532E+05 -7.299977E+04 -6.165081E+04  5.209381E+04  6.596533E+02  1.982942E+04
       203   2 -8.129474E+05 -9.112504E+04 -8.300009E+04  5.492104E+04  2.454169E+04  1.758772E+04
       203   3 -8.694294E+05 -1.262573E+05 -1.241650E+05  6.874335E+04  4.843367E+04  5.460767E+03
       203   4 -4.572614E+05 -7.538265E+02 -7.254390E+03  5.370646E+04  5.264071E+03  1.983534E+04
       203   5 -4.550595E+05 -5.560926E+03 -1.321453E+04  4.822536E+04  1.208497E+04  1.756910E+04
       203   6 -4.572789E+05 -2.440523E+04 -2.712957E+04  5.373977E+04  1.891800E+04  5.419564E+03
       203   7 -1.505776E+05  7.148695E+04  4.713861E+04  5.531990E+04  9.870699E+03  1.984129E+04
       203   8 -9.704818E+04  7.999576E+04  5.656553E+04  4.152568E+04 -3.787838E+02  1.755075E+04
       203   9 -4.496956E+04  7.743605E+04  6.989761E+04  3.872611E+04 -1.061718E+04  5.379805E+03
       203  10 -7.638533E+05 -7.300019E+04 -6.165155E+04  5.209380E+04  5.229098E-10  4.999106E-09
       203  11 -8.129481E+05 -9.112554E+04 -8.300180E+04  5.492069E+04  4.283993E-10  5.807162E-10
       203  12 -8.694319E+05 -1.262580E+05 -1.241695E+05  6.874313E+04 -2.497042E-10 -3.440185E-11
       203  13 -4.572615E+05 -7.542563E+02 -7.255181E+03  5.370638E+04 -1.747262E-09  5.650911E-09
       203  14 -4.550598E+05 -5.561297E+03 -1.321539E+04  4.822519E+04 -4.327282E-09 -5.322295E-10
       203  15 -4.572793E+05 -2.440535E+04 -2.713030E+04  5.373969E+04 -1.011632E-09  1.294327E-09
       203  16 -1.505779E+05  7.148650E+04  4.713769E+04  5.531974E+04  2.065694E-10  2.022260E-09
       203  17 -9.704827E+04  7.999543E+04  5.656495E+04  4.152569E+04 -1.356867E-10  9.965628E-10
       203  18 -4.496969E+04  7.743599E+04  6.989734E+04  3.872616E+04 -9.258064E-10 -2.143606E-10
       203  19 -7.638532E+05 -7.299977E+04 -6.165081E+04  5.209381E+04 -6.596533E+02 -1.982942E+04
       203  20 -8.129474E+05 -9.112504E+04 -8.300009E+04  5.492104E+04 -2.454169E+04 -1.758772E+04
       203  21 -8.694294E+05 -1.262573E+05 -1.241650E+05  6.874335E+04 -4.843367E+04 -5.460767E+03
       203  22 -4.572614E+05 -7.538265E+02 -7.254390E+03  5.370646E+04 -5.264071E+03 -1.983534E+04
       203  23 -4.550595E+05 -5.560926E+03 -1.321453E+04  4.822536E+04 -1.208497E+04 -1.756910E+04
       203  24 -4.572789E+05 -2.440523E+04 -2.712957E+04  5.373977E+04 -1.891800E+04 -5.419564E+03
       203  25 -1.505776E+05  7.148695E+04  4.713861E+04  5.531990E+04 -9.870699E+03 -1.984129E+04
       203  26 -9.704818E+04  7.999576E+04  5.656553E+04  4.152568E+04  3.787838E+02 -1.755075E+04
       203  27 -4.496956E+04  7.743605E+04  6.989761E+04  3.872611E+04  1.061718E+04 -5.379805E+03
       204   1 -8.322127E+04  7.866751E+04  6.749485E+04  3.818158E+03 -1.533299E+04 -6.367662E+03
       204   2 -1.152810E+05  1.083682E+05  7.650118E+04  9.069727E+03 -1.495894E+04 -2.008859E+04
       204   3 -1.565629E+05  1.012908E+05  7.608700E+04  2.893607E+04 -1.460119E+04 -2.126648E+04
       204   4 -5.634161E+05 -4.060748E+04 -4.881377E+04  2.266158E+04 -3.354688E+04 -6.392548E+03
       204   5 -5.577972E+05  1.063134E+02 -2.224876E+04  1.532315E+04 -2.174133E+04 -2.009972E+04
       204   6 -5.633952E+05  2.041653E+03 -1.305311E+04  2.260051E+04 -9.951811E+03 -2.125984E+04
       204   7 -1.043399E+06 -1.598978E+05 -1.651375E+05  4.149030E+04 -5.174672E+04 -6.418549E+03
       204   8 -1.000131E+06 -1.081687E+05 -1.210108E+05  2.157200E+04 -2.851893E+04 -2.011098E+04
       204   9 -9.700723E+05 -9.721840E+04 -1.022032E+05  1.626908E+04 -5.305437E+03 -2.125330E+04
       204  10 -8.322153E+04  7.866740E+04  6.749433E+04  3.818080E+03 -6.002308E-09  3.499894E-10
       204  11 -1.152814E+05  1.083677E+05  7.650000E+04  9.069485E+03 -5.437766E-09  4.919586E-09
       204  12 -1.565633E+05  1.012903E+05  7.608575E+04  2.893582E+04  6.274170E-09  7.780393E-10
       204  13 -5.634174E+05 -4.060783E+04 -4.881596E+04  2.266141E+04 -1.786933E-09 -1.490720E-09
       204  14 -5.577978E+05  1.057527E+02 -2.225041E+04  1.532280E+04  3.153368E-09 -4.715770E-09
       204  15 -5.633954E+05  2.041141E+03 -1.305414E+04  2.260033E+04  8.229111E-10 -9.534043E-10
       204  16 -1.043402E+06 -1.598986E+05 -1.651427E+05  4.149004E+04  7.118115E-09  5.559845E-10
       204  17 -1.000131E+06 -1.081693E+05 -1.210131E+05  2.157154E+04 -2.095171E-10  4.062010E-09
       204  18 -9.700724E+05 -9.721890E+04 -1.022041E+05  1.626899E+04 -4.288264E-09 -2.654771E-09
       204  19 -8.322127E+04  7.866751E+04  6.749485E+04  3.818158E+03  1.533299E+04  6.367662E+03
       204  20 -1.152810E+05  1.083682E+05  7.650118E+04  9.069727E+03  1.495894E+04  2.008859E+04
       204  21 -1.565629E+05  1.012908E+05  7.608700E+04  2.893607E+04  1.460119E+04  2.126648E+04
       204  22 -5.634161E+05 -4.060748E+04 -4.881377E+04  2.266158E+04  3.354688E+04  6.392548E+03
       204  23 -5.577972E+05  1.063134E+02 -2.224876E+04  1.532315E+04  2.174133E+04  2.009972E+04
       204  24 -5.633952E+05  2.041653E+03 -1.305311E+04  2.260051E+04  9.951811E+03  2.125984E+04
       204  25 -1.043399E+06 -1.598978E+05 -1.651375E+05  4.149030E+04  5.174672E+04  6.418549E+03
       204  26 -1.000131E+06 -1.081687E+05 -1.210108E+05  2.157200E+04  2.851893E+04  2.011098E+04
       204  27 -9.700723E+05 -9.721840E+04 -1.022032E+05  1.626908E+04  5.305437E+03  2.125330E+04
       205   1 -1.845391E+05  8.975239E+04  7.256019E+04  2.246528E+04 -9.111221E+03 -1.894786E+04
       205   2 -2.209754E+05  8.296931E+04  6.890978E+04  1.540923E+04 -6.806382E+03 -1.756093E+04
       205   3 -2.582593E+05  7.409821E+04  6.323101E+04  2.361833E+04 -4.503504E+03 -1.560722E+04
       205   4 -5.611080E+05 -2.177129E+03 -1.037870E+04  2.276324E+04 -8.105218E+03 -1.894700E+04
       205   5 -5.606339E+05  1.024896E+02 -5.621547E+03  1.512826E+04 -5.285152E+03 -1.755889E+04
       205   6 -5.610993E+05  2.037657E+02 -3.251837E+03  2.275899E+04 -2.466920E+03 -1.560386E+04
       205   7 -9.375443E+05 -9.411617E+04 -9.332629E+04  2.306096E+04 -7.099818E+03 -1.894615E+04
       205   8 -9.001843E+05 -8.277205E+04 -8.015989E+04  1.484740E+04 -3.764744E+03 -1.755686E+04
       205   9 -8.638534E+05 -7.369682E+04 -6.974026E+04  2.190003E+04 -4.313180E+02 -1.560050E+04
       205  10 -1.845393E+05  8.975198E+04  7.255936E+04  2.246514E+04 -5.801253E-09 -2.030040E-09
       205  11 -2.209756E+05  8.296896E+04  6.890911E+04  1.540914E+04 -1.591586E-09  2.415922E-09
       205  12 -2.582594E+05  7.409794E+04  6.323052E+04  2.361828E+04  6.151816E-10  4.266230E-09
       205  13 -5.611082E+05 -2.177532E+03 -1.037950E+04  2.276312E+04  3.915614E-09  4.574680E-09
       205  14 -5.606340E+05  1.021512E+02 -5.622179E+03  1.512819E+04 -9.335306E-10 -1.007820E-08
       205  15 -5.610993E+05  2.035026E+02 -3.252306E+03  2.275896E+04 -3.825961E-09  5.433085E-09
       205  16 -9.375444E+05 -9.411657E+04 -9.332706E+04  2.306086E+04  3.516129E-09 -5.694034E-09
       205  17 -9.001844E+05 -8.277238E+04 -8.016050E+04  1.484735E+04  1.836052E-09 -2.491609E-09
       205  18 -8.638534E+05 -7.369708E+04 -6.974072E+04  2.190002E+04 -1.751274E-09  2.456815E-09
       205  19 -1.845391E+05  8.975239E+04  7.256019E+04  2.246528E+04  9.111221E+03  1.894786E+04
       205  20 -2.209754E+05  8.296931E+04  6.890978E+04  1.540923E+04  6.806382E+03  1.756093E+04
       205  21 -2.582593E+05  7.409821E+04  6.323101E+04  2.361833E+04  4.503504E+03  1.560722E+04
       205  22 -5.611080E+05 -2.177129E+03 -1.037870E+04  2.276324E+04  8.105218E+03  1.894700E+04
       205  23 -5.606339E+05  1.024896E+02 -5.621547E+03  1.512826E+04  5.285152E+03  1.755889E+04
       205  24 -5.610993E+05  2.037657E+02 -3.251837E+03  2.275899E+04  2.466920E+03  1.560386E+04
       205  25 -9.375443E+05 -9.411617E+04 -9.332629E+04  2.306096E+04  7.099818E+03  1.894615E+04
       205  26 -9.001843E+05 -8.277205E+04 -8.015989E+04  1.484740E+04  3.764744E+03  1.755686E+04
       205  27 -8.638534E+05 -7.369682E+04 -6.974026E+04  2.190003E+04  4.313180E+02  1.560050E+04
       206   1 -2.883280E+05  6.645409E+04  5.717226E+04  2.323045E+04 -3.840097E+03 -1.433442E+04
       206   2 -3.253476E+05  5.752011E+04  5.018215E+04  1.549220E+04 -3.154495E+03 -1.225989E+04
       206   3 -3.625300E+05  4.852338E+04  4.271603E+04  2.315080E+04 -2.469614E+03 -1.015628E+04
       206   4 -5.609240E+05 -2.635911E+01 -2.502141E+03  2.278948E+04 -1.962706E+03 -1.433117E+04
       206   5 -5.608372E+05  7.308357E+01 -1.443681E+03  1.509075E+04 -1.250910E+03 -1.225633E+04
       206   6 -5.609186E+05  1.053764E+02 -8.794335E+02  2.278922E+04 -5.397928E+02 -1.015239E+04
       206   7 -8.334503E+05 -6.651177E+04 -6.218103E+04  2.234868E+04 -8.613010E+01 -1.432792E+04
       206   8 -7.962748E+05 -5.737765E+04 -5.307287E+04  1.468942E+04  6.519620E+02 -1.225277E+04
       206   9 -7.592703E+05 -4.831526E+04 -4.447728E+04  2.242773E+04  1.389419E+03 -1.014851E+04
       206  10 -2.883281E+05  6.645387E+04  5.717184E+04  2.323041E+04 -1.633472E-09 -2.505685E-09
       206  11 -3.253477E+05  5.751995E+04  5.018185E+04  1.549217E+04 -6.210592E-09 -1.533311E-09
       206  12 -3.625300E+05  4.852326E+04  4.271582E+04  2.315078E+04 -1.285434E-08 -1.428124E-09
       206  13 -5.609240E+05 -2.658063E+01 -2.502534E+03  2.278946E+04 -2.169725E-09 -2.462703E-09
       206  14 -5.608372E+05  7.292189E+01 -1.443966E+03  1.509074E+04 -7.333906E-09 -5.194920E-09
       206  15 -5.609186E+05  1.052657E+02 -8.796277E+02  2.278921E+04 -7.001216E-10 -4.169882E-09
       206  16 -8.334504E+05 -6.651199E+04 -6.218142E+04  2.234868E+04 -1.193977E-09 -2.784775E-09
       206  17 -7.962749E+05 -5.737782E+04 -5.307316E+04  1.468943E+04  5.466056E-09  3.892881E-09
       206  18 -7.592703E+05 -4.831537E+04 -4.447748E+04  2.242774E+04  9.760288E-09  5.365219E-09
       206  19 -2.883280E+05  6.645409E+04  5.717226E+04  2.323045E+04  3.840097E+03  1.433442E+04
       206  20 -3.253476E+05  5.752011E+04  5.018215E+04  1.549220E+04  3.154495E+03  1.225989E+04
       206  21 -3.625300E+05  4.852338E+04  4.271603E+04  2.315080E+04  2.469614E+03  1.015628E+04
       206  22 -5.609240E+05 -2.635911E+01 -2.502141E+03  2.278948E+04  1.962706E+03  1.433117E+04
       206  23 -5.608372E+05  7.308357E+01 -1.443681E+03  1.509075E+04  1.250910E+03  1.225633E+04
       206  24 -5.609186E+05  1.053764E+02 -8.794335E+02  2.278922E+04  5.397928E+02  1.015239E+04
       206  25 -8.334503E+05 -6.651177E+04 -6.218103E+04  2.234868E+04  8.613010E+01  1.432792E+04
       206  26 -7.962748E+05 -5.737765E+04 -5.307287E+04  1.468942E+04 -6.519620E+02  1.225277E+04
       206  27 -7.592703E+05 -4.831526E+04 -4.447728E+04  2.242773E+04 -1.389419E+03  1.014851E+04
       207   1 -3.929098E+05  4.105668E+04  3.601231E+04  2.309622E+04 -2.324032E+03 -8.924395E+03
       207   2 -4.301211E+05  3.196580E+04  2.813336E+04  1.529568E+04 -2.071344E+03 -6.810353E+03
       207   3 -4.674279E+05  2.293306E+04  2.008589E+04  2.295779E+04 -1.819031E+03 -4.693022E+03
       207   4 -5.609003E+05  9.524644E+01 -7.117960E+02  2.280389E+04 -3.988871E+02 -8.920393E+03
       207   5 -5.608502E+05  7.312086E+01 -5.260944E+02  1.507245E+04 -1.433119E+02 -6.806200E+03
       207   6 -5.608974E+05  1.087235E+02 -5.108972E+02  2.280386E+04  1.119020E+02 -4.688714E+03
       207   7 -7.288644E+05 -4.086807E+04 -3.743760E+04  2.251162E+04  1.525743E+03 -8.916393E+03
       207   8 -6.915633E+05 -3.182070E+04 -2.918657E+04  1.484926E+04  1.784318E+03 -6.802049E+03
       207   9 -6.543587E+05 -2.271620E+04 -2.110821E+04  2.264995E+04  2.042548E+03 -4.684405E+03
       207  10 -3.929098E+05  4.105659E+04  3.601216E+04  2.309620E+04  1.190143E-08 -4.326365E-09
       207  11 -4.301211E+05  3.196574E+04  2.813326E+04  1.529567E+04  5.691815E-09 -8.686770E-10
       207  12 -4.674280E+05  2.293304E+04  2.008585E+04  2.295778E+04 -4.298316E-09 -1.313317E-10
       207  13 -5.609003E+05  9.516097E+01 -7.119458E+02  2.280388E+04  3.574452E-12 -1.702302E-09
       207  14 -5.608502E+05  7.307112E+01 -5.261814E+02  1.507245E+04 -8.208221E-09 -7.922671E-09
       207  15 -5.608974E+05  1.086999E+02 -5.109386E+02  2.280386E+04 -9.415285E-10 -1.866488E-09
       207  16 -7.288644E+05 -4.086816E+04 -3.743775E+04  2.251163E+04 -9.874183E-09  2.901003E-09
       207  17 -6.915633E+05 -3.182075E+04 -2.918666E+04  1.484927E+04 -5.733425E-09  6.101967E-09
       207  18 -6.543587E+05 -2.271623E+04 -2.110826E+04  2.264996E+04  1.470358E-09  2.209104E-09
       207  19 -3.929098E+05  4.105668E+04  3.601231E+04  2.309622E+04  2.324032E+03  8.924395E+03
       207  20 -4.301211E+05  3.196580E+04  2.813336E+04  1.529568E+04  2.071344E+03  6.810353E+03
       207  21 -4.674279E+05  2.293306E+04  2.008589E+04  2.295779E+04  1.819031E+03  4.693022E+03
       207  22 -5.609003E+05  9.524644E+01 -7.117960E+02  2.280389E+04  3.988871E+02  8.920393E+03
       207  23 -5.608502E+05  7.312086E+01 -5.260944E+02  1.507245E+04  1.433119E+02  6.806200E+03
       207  24 -5.608974E+05  1.087235E+02 -5.108972E+02  2.280386E+04 -1.119020E+02  4.688714E+03
       207  25 -7.288644E+05 -4.086807E+04 -3.743760E+04  2.251162E+04 -1.525743E+03  8.916393E+03
       207  26 -6.915633E+05 -3.182070E+04 -2.918657E+04  1.484926E+04 -1.784318E+03  6.802049E+03
       207  27 -6.543587E+05 -2.271620E+04 -2.110821E+04  2.264995E+04 -2.042548E+03  4.684405E+03
       208   1 -4.979207E+05  1.545374E+04  1.314026E+04  2.290715E+04 -1.725556E+03 -3.459408E+03
       208   2 -5.351838E+05  6.341968E+03  4.820682E+03  1.508079E+04 -1.332603E+03 -1.338987E+03
       208   3 -5.725705E+05 -2.718952E+03 -3.762602E+03  2.274527E+04 -9.397488E+02  7.811665E+02
       208   4 -5.609026E+05  1.090499E+02 -5.628929E+02  2.281009E+04  2.063849E+02 -3.455041E+03
       208   5 -5.608397E+05  8.274727E+01 -8.039943E+02  1.506466E+04  5.990133E+02 -1.334596E+03
       208   6 -5.609022E+05  1.072950E+02 -1.308680E+03  2.281010E+04  9.915665E+02  7.855891E+02
       208   7 -6.238808E+05 -1.523590E+04 -1.426627E+04  2.271303E+04  2.138132E+03 -3.450676E+03
       208   8 -5.864949E+05 -6.176516E+03 -6.428696E+03  1.504852E+04  2.530551E+03 -1.330204E+03
       208   9 -5.492336E+05  2.933535E+03  1.145249E+03  2.287493E+04  2.922918E+03  7.900121E+02
       208  10 -4.979207E+05  1.545373E+04  1.314023E+04  2.290715E+04 -1.701849E-09  1.153842E-09
       208  11 -5.351838E+05  6.341966E+03  4.820675E+03  1.508079E+04 -4.824114E-10 -1.714096E-09
       208  12 -5.725705E+05 -2.718953E+03 -3.762605E+03  2.274527E+04 -7.154721E-09 -1.025285E-09
       208  13 -5.609026E+05  1.090370E+02 -5.629154E+02  2.281009E+04 -3.862111E-10  5.213851E-09
       208  14 -5.608397E+05  8.274526E+01 -8.039983E+02  1.506466E+04 -3.227350E-09 -7.285669E-10
       208  15 -5.609022E+05  1.072940E+02 -1.308683E+03  2.281010E+04 -3.269647E-09 -1.137129E-09
       208  16 -6.238808E+05 -1.523591E+04 -1.426630E+04  2.271303E+04  9.503473E-10  2.232508E-09
       208  17 -5.864949E+05 -6.176519E+03 -6.428712E+03  1.504852E+04  4.398724E-09 -8.443105E-09
       208  18 -5.492337E+05  2.933532E+03  1.145232E+03  2.287493E+04 -2.599442E-10 -4.328084E-09
       208  19 -4.979207E+05  1.545374E+04  1.314026E+04  2.290715E+04  1.725556E+03  3.459408E+03
       208  20 -5.351838E+05  6.341968E+03  4.820682E+03  1.508079E+04  1.332603E+03  1.338987E+03
       208  21 -5.725705E+05 -2.718952E+03 -3.762602E+03  2.274527E+04  9.397488E+02 -7.811665E+02
       208  22 -5.609026E+05  1.090499E+02 -5.628929E+02  2.281009E+04 -2.063849E+02  3.455041E+03
       208  23 -5.608397E+05  8.274727E+01 -8.039943E+02  1.506466E+04 -5.990133E+02  1.334596E+03
       208  24 -5.609022E+05  1.072950E+02 -1.308680E+03  2.281010E+04 -9.915665E+02 -7.855891E+02
       208  25 -6.238808E+05 -1.523590E+04 -1.426627E+04  2.271303E+04 -2.138132E+03  3.450676E+03
       208  26 -5.864949E+05 -6.176516E+03 -6.428696E+03  1.504852E+04 -2.530551E+03  1.330204E+03
       208  27 -5.492336E+05  2.933535E+03  1.145249E+03  2.287493E+04 -2.922918E+03 -7.900121E+02
       209   1 -6.031185E+05 -1.018158E+04 -1.104764E+04  2.264167E+04 -6.762747E+02  2.017347E+03
       209   2 -6.402557E+05 -1.928014E+04 -2.033592E+04  1.484789E+04  7.779218E+02  4.135584E+03
       209   3 -6.777175E+05 -2.858545E+04 -3.064342E+04  2.253427E+04  2.232307E+03  6.235179E+03
       209   4 -5.609463E+05  1.293500E+02 -1.696267E+03  2.280751E+04  1.259645E+03  2.021762E+03
       209   5 -5.607863E+05  1.106179E+02 -2.909373E+03  1.506777E+04  2.696988E+03  4.139868E+03
       209   6 -5.609486E+05 -1.116590E+02 -5.129663E+03  2.280806E+04  4.134605E+03  6.239340E+03
       209   7 -5.187724E+05  1.044016E+04  7.655014E+03  2.297336E+04  3.195694E+03  2.026177E+03
       209   8 -4.813110E+05  1.950095E+04  1.451680E+04  1.528768E+04  4.616297E+03  4.144153E+03
       209   9 -4.441669E+05  2.836122E+04  2.038329E+04  2.308191E+04  6.037256E+03  6.243501E+03
       209  10 -6.031185E+05 -1.018158E+04 -1.104765E+04  2.264167E+04 -7.348899E-09  2.404426E-09
       209  11 -6.402557E+05 -1.928016E+04 -2.033595E+04  1.484789E+04 -3.132639E-09 -3.044172E-09
       209  12 -6.777175E+05 -2.858549E+04 -3.064351E+04  2.253426E+04 -9.769823E-10 -1.796675E-09
       209  13 -5.609463E+05  1.293452E+02 -1.696277E+03  2.280751E+04 -2.148025E-09  1.336305E-09
       209  14 -5.607863E+05  1.105975E+02 -2.909419E+03  1.506777E+04  1.069615E-09  5.922034E-09
       209  15 -5.609486E+05 -1.117054E+02 -5.129768E+03  2.280804E+04 -1.741838E-09  1.300850E-09
       209  16 -5.187725E+05  1.044015E+04  7.654987E+03  2.297336E+04  3.233405E-09  5.643270E-09
       209  17 -4.813110E+05  1.950093E+04  1.451673E+04  1.528767E+04  4.651175E-09 -5.021008E-10
       209  18 -4.441669E+05  2.836117E+04  2.038315E+04  2.308188E+04 -4.040101E-09  5.171515E-09
       209  19 -6.031185E+05 -1.018158E+04 -1.104764E+04  2.264167E+04  6.762747E+02 -2.017347E+03
       209  20 -6.402557E+05 -1.928014E+04 -2.033592E+04  1.484789E+04 -7.779218E+02 -4.135584E+03
       209  21 -6.777175E+05 -2.858545E+04 -3.064342E+04  2.253427E+04 -2.232307E+03 -6.235179E+03
       209  22 -5.609463E+05  1.293500E+02 -1.696267E+03  2.280751E+04 -1.259645E+03 -2.021762E+03
       209  23 -5.607863E+05  1.106179E+02 -2.909373E+03  1.506777E+04 -2.696988E+03 -4.139868E+03
       209  24 -5.609486E+05 -1.116590E+02 -5.129663E+03  2.280806E+04 -4.134605E+03 -6.239340E+03
       209  25 -5.187724E+05  1.044016E+04  7.655014E+03  2.297336E+04 -3.195694E+03 -2.026177E+03
       209  26 -4.813110E+05  1.950095E+04  1.451680E+04  1.528768E+04 -4.616297E+03 -4.144153E+03
       209  27 -4.441669E+05  2.836122E+04  2.038329E+04  2.308191E+04 -6.037256E+03 -6.243501E+03
       210   1 -7.085336E+05 -3.557995E+04 -3.907223E+04  2.167627E+04  3.159224E+03  7.502850E+03
       210   2 -7.447111E+05 -4.479306E+04 -5.207256E+04  1.515599E+04  9.327453E+03  9.529439E+03
       210   3 -7.829178E+05 -5.863019E+04 -7.026479E+04  2.405756E+04  1.549655E+04  1.116572E+04
       210   4 -5.613160E+05  3.661933E+02 -6.690852E+03  2.279200E+04  5.172247E+03  7.507166E+03
       210   5 -5.603354E+05  2.045313E+02 -1.159070E+04  1.508639E+04  1.098637E+04  9.532774E+03
       210   6 -5.613229E+05 -4.518618E+03 -2.143508E+04  2.280241E+04  1.680173E+04  1.116811E+04
       210   7 -4.140781E+05  3.631089E+04  2.568922E+04  2.390799E+04  7.185741E+03  7.511489E+03
       210   8 -3.759279E+05  4.519985E+04  2.888910E+04  1.501675E+04  1.264577E+04  9.536108E+03
       210   9 -3.396819E+05  4.958966E+04  2.739163E+04  2.154677E+04  1.810736E+04  1.117050E+04
       210  10 -7.085336E+05 -3.558001E+04 -3.907236E+04  2.167625E+04 -1.165881E-09 -1.464956E-09
       210  11 -7.447113E+05 -4.479318E+04 -5.207289E+04  1.515592E+04 -7.826105E-10  2.634213E-09
       210  12 -7.829181E+05 -5.863039E+04 -7.026548E+04  2.405742E+04  8.822663E-09 -5.661283E-09
       210  13 -5.613160E+05  3.661256E+02 -6.691008E+03  2.279197E+04 -3.913406E-09 -6.022276E-09
       210  14 -5.603356E+05  2.044013E+02 -1.159110E+04  1.508630E+04 -6.216493E-10  3.762781E-09
       210  15 -5.613232E+05 -4.518828E+03 -2.143584E+04  2.280226E+04 -4.025050E-10 -2.948667E-09
       210  16 -4.140782E+05  3.631081E+04  2.568902E+04  2.390795E+04  3.968587E-09 -3.753749E-09
       210  17 -3.759281E+05  4.519971E+04  2.888862E+04  1.501665E+04 -4.955282E-11 -9.399562E-09
       210  18 -3.396823E+05  4.958944E+04  2.739078E+04  2.154661E+04 -7.992588E-09  6.710402E-10
       210  19 -7.085336E+05 -3.557995E+04 -3.907223E+04  2.167627E+04 -3.159224E+03 -7.502850E+03
       210  20 -7.447111E+05 -4.479306E+04 -5.207256E+04  1.515599E+04 -9.327453E+03 -9.529439E+03
       210  21 -7.829178E+05 -5.863019E+04 -7.026479E+04  2.405756E+04 -1.549655E+04 -1.116572E+04
       210  22 -5.613160E+05  3.661933E+02 -6.690852E+03  2.279200E+04 -5.172247E+03 -7.507166E+03
       210  23 -5.603354E+05  2.045313E+02 -1.159070E+04  1.508639E+04 -1.098637E+04 -9.532774E+03
       210  24 -5.613229E+05 -4.518618E+03 -2.143508E+04  2.280241E+04 -1.680173E+04 -1.116811E+04
       210  25 -4.140781E+05  3.631089E+04  2.568922E+04  2.390799E+04 -7.185741E+03 -7.511489E+03
       210  26 -3.759279E+05  4.519985E+04  2.888910E+04  1.501675E+04 -1.264577E+04 -9.536108E+03
       210  27 -3.396819E+05  4.958966E+04  2.739163E+04  2.154677E+04 -1.810736E+04 -1.117050E+04
       211   1 -8.181094E+05 -5.735926E+04 -8.225353E+04  1.021842E+04  1.680176E+04  1.315122E+04
       211   2 -8.429558E+05 -7.032890E+04 -1.104227E+05  2.873169E+04  4.902552E+04  1.307274E+04
       211   3 -8.924560E+05 -1.649117E+05 -1.800015E+05  6.230229E+04  8.126228E+04  4.338669E+03
       211   4 -5.660569E+05  4.207637E+03 -2.696583E+04  2.267250E+04  2.062012E+04  1.315893E+04
       211   5 -5.544340E+05  2.514105E+02 -4.595192E+04  1.522682E+04  4.496598E+04  1.306335E+04
       211   6 -5.660868E+05 -8.393091E+04 -1.008613E+05  2.284065E+04  6.932733E+04  4.311283E+03
       211   7 -3.139445E+05  6.577086E+04  2.831814E+04  3.513166E+04  2.444000E+04  1.316680E+04
       211   8 -2.658340E+05  7.082677E+04  1.851376E+04  1.715557E+03  4.090457E+04  1.305414E+04
       211   9 -2.396165E+05 -2.951954E+03 -2.172731E+04 -1.664187E+04  5.738611E+04  4.285424E+03
       211  10 -8.181097E+05 -5.735952E+04 -8.225439E+04  1.021825E+04 -8.586570E-10 -5.300542E-09
       211  11 -8.429585E+05 -7.032973E+04 -1.104275E+05  2.873117E+04  2.758542E-09  3.945034E-09
       211  12 -8.924631E+05 -1.649135E+05 -1.800139E+05  6.230200E+04  1.495051E-09  7.280811E-09
       211  13 -5.660574E+05  4.207337E+03 -2.696696E+04  2.267228E+04 -2.140929E-09  1.156298E-09
       211  14 -5.544362E+05  2.506839E+02 -4.595605E+04  1.522634E+04  2.144280E-09  4.213019E-09
       211  15 -5.660920E+05 -8.393223E+04 -1.008703E+05  2.284041E+04 -1.483848E-09  2.532768E-09
       211  16 -3.139452E+05  6.577051E+04  2.831669E+04  3.513140E+04  2.038422E-09  3.430643E-09
       211  17 -2.658359E+05  7.082613E+04  1.851029E+04  1.715127E+03 -4.468140E-09  2.805274E-09
       211  18 -2.396200E+05 -2.952858E+03 -2.173354E+04 -1.664207E+04 -5.811099E-09 -5.741997E-11
       211  19 -8.181094E+05 -5.735926E+04 -8.225353E+04  1.021842E+04 -1.680176E+04 -1.315122E+04
       211  20 -8.429558E+05 -7.032890E+04 -1.104227E+05  2.873169E+04 -4.902552E+04 -1.307274E+04
       211  21 -8.924560E+05 -1.649117E+05 -1.800015E+05  6.230229E+04 -8.126228E+04 -4.338669E+03
       211  22 -5.660569E+05  4.207637E+03 -2.696583E+04  2.267250E+04 -2.062012E+04 -1.315893E+04
       211  23 -5.544340E+05  2.514105E+02 -4.595192E+04  1.522682E+04 -4.496598E+04 -1.306335E+04
       211  24 -5.660868E+05 -8.393091E+04 -1.008613E+05  2.284065E+04 -6.932733E+04 -4.311283E+03
       211  25 -3.139445E+05  6.577086E+04  2.831814E+04  3.513166E+04 -2.444000E+04 -1.316680E+04
       211  26 -2.658340E+05  7.082677E+04  1.851376E+04  1.715557E+03 -4.090457E+04 -1.305414E+04
       211  27 -2.396165E+05 -2.951954E+03 -2.172731E+04 -1.664187E+04 -5.738611E+04 -4.285424E+03
