    1C
    1UUSER                                                              
    1UDATE              11.october.2022                                 
    1UTIME              18:35:46                                        
    1UHOST                                                              
    1UPGM               CalculiX                                        
    1UVERSION           Version 2.20                             
    1UCOMPILETIME       Sun Jul 31 18:08:37 CEST 2022                    
    1UDIR                                                               
    1UDBN                                                               
    1UMAT    1MESH_MATERIAL                                             
    2C                           409                                     1
 -1         1 0.00000E+00 0.00000E+00 0.00000E+00
 -1         2 1.66667E-02 0.00000E+00 0.00000E+00
 -1         3 3.33333E-02 0.00000E+00 0.00000E+00
 -1         5 6.66667E-02 0.00000E+00 0.00000E+00
 -1         8 0.00000E+00 6.25000E-03 0.00000E+00
 -1         9 1.66667E-02 6.25000E-03 0.00000E+00
 -1        10 3.33333E-02 6.25000E-03 0.00000E+00
 -1        12 6.66667E-02 6.25000E-03 0.00000E+00
 -1        15 0.00000E+00 1.25000E-02 0.00000E+00
 -1        16 1.66667E-02 1.25000E-02 0.00000E+00
 -1        17 3.33333E-02 1.25000E-02 0.00000E+00
 -1        18 5.00000E-02 1.25000E-02 0.00000E+00
 -1        19 6.66667E-02 1.25000E-02 0.00000E+00
 -1        20 8.33333E-02 1.25000E-02 0.00000E+00
 -1        21 1.00000E-01 1.25000E-02 0.00000E+00
 -1        24 3.33333E-02 1.87500E-02 0.00000E+00
 -1        25 5.00000E-02 1.87500E-02 0.00000E+00
 -1        26 6.66667E-02 1.87500E-02 0.00000E+00
 -1        27 8.33333E-02 1.87500E-02 0.00000E+00
 -1        28 1.00000E-01 1.87500E-02 0.00000E+00
 -1        32 5.00000E-02 2.50000E-02 0.00000E+00
 -1        33 6.66667E-02 2.50000E-02 0.00000E+00
 -1        34 8.33333E-02 2.50000E-02 0.00000E+00
 -1        35 1.00000E-01 2.50000E-02 0.00000E+00
 -1        51 0.00000E+00 1.04167E-03 0.00000E+00
 -1        52 0.00000E+00 2.08333E-03 0.00000E+00
 -1        53 0.00000E+00 3.12500E-03 0.00000E+00
 -1        54 0.00000E+00 4.16667E-03 0.00000E+00
 -1        55 0.00000E+00 5.20833E-03 0.00000E+00
 -1        56 1.04167E-03 3.90630E-04 0.00000E+00
 -1        57 2.08333E-03 7.81250E-04 0.00000E+00
 -1        58 3.12500E-03 1.17188E-03 0.00000E+00
 -1        59 4.16667E-03 1.56250E-03 0.00000E+00
 -1        60 5.20833E-03 1.95312E-03 0.00000E+00
 -1        61 6.25000E-03 2.34375E-03 0.00000E+00
 -1        62 7.29167E-03 2.73438E-03 0.00000E+00
 -1        63 8.33333E-03 3.12500E-03 0.00000E+00
 -1        64 9.37500E-03 3.51563E-03 0.00000E+00
 -1        65 1.04167E-02 3.90625E-03 0.00000E+00
 -1        66 1.14583E-02 4.29688E-03 0.00000E+00
 -1        67 1.25000E-02 4.68750E-03 0.00000E+00
 -1        68 1.35417E-02 5.07813E-03 0.00000E+00
 -1        69 1.45833E-02 5.46875E-03 0.00000E+00
 -1        70 1.56250E-02 5.85938E-03 0.00000E+00
 -1        86 1.66667E-02 1.04167E-03 0.00000E+00
 -1        87 1.66667E-02 2.08333E-03 0.00000E+00
 -1        88 1.66667E-02 3.12500E-03 0.00000E+00
 -1        89 1.66667E-02 4.16667E-03 0.00000E+00
 -1        90 1.66667E-02 5.20833E-03 0.00000E+00
 -1       121 3.33333E-02 1.04167E-03 0.00000E+00
 -1       122 3.33333E-02 2.08333E-03 0.00000E+00
 -1       123 3.33333E-02 3.12500E-03 0.00000E+00
 -1       124 3.33333E-02 4.16667E-03 0.00000E+00
 -1       125 3.33333E-02 5.20833E-03 0.00000E+00
 -1       191 6.66667E-02 1.04167E-03 0.00000E+00
 -1       192 6.66667E-02 2.08333E-03 0.00000E+00
 -1       193 6.66667E-02 3.12500E-03 0.00000E+00
 -1       194 6.66667E-02 4.16667E-03 0.00000E+00
 -1       195 6.66667E-02 5.20833E-03 0.00000E+00
 -1       251 1.04167E-03 6.25000E-03 0.00000E+00
 -1       252 2.08333E-03 6.25000E-03 0.00000E+00
 -1       253 3.12500E-03 6.25000E-03 0.00000E+00
 -1       254 4.16667E-03 6.25000E-03 0.00000E+00
 -1       255 5.20833E-03 6.25000E-03 0.00000E+00
 -1       256 6.25000E-03 6.25000E-03 0.00000E+00
 -1       257 7.29167E-03 6.25000E-03 0.00000E+00
 -1       258 8.33333E-03 6.25000E-03 0.00000E+00
 -1       259 9.37500E-03 6.25000E-03 0.00000E+00
 -1       260 1.04167E-02 6.25000E-03 0.00000E+00
 -1       261 1.14583E-02 6.25000E-03 0.00000E+00
 -1       262 1.25000E-02 6.25000E-03 0.00000E+00
 -1       263 1.35417E-02 6.25000E-03 0.00000E+00
 -1       264 1.45833E-02 6.25000E-03 0.00000E+00
 -1       265 1.56250E-02 6.25000E-03 0.00000E+00
 -1       266 0.00000E+00 7.29167E-03 0.00000E+00
 -1       267 0.00000E+00 8.33333E-03 0.00000E+00
 -1       268 0.00000E+00 9.37500E-03 0.00000E+00
 -1       269 0.00000E+00 1.04167E-02 0.00000E+00
 -1       270 0.00000E+00 1.14583E-02 0.00000E+00
 -1       271 1.04167E-03 6.64063E-03 0.00000E+00
 -1       272 2.08333E-03 7.03125E-03 0.00000E+00
 -1       273 3.12500E-03 7.42188E-03 0.00000E+00
 -1       274 4.16667E-03 7.81250E-03 0.00000E+00
 -1       275 5.20833E-03 8.20313E-03 0.00000E+00
 -1       276 6.25000E-03 8.59375E-03 0.00000E+00
 -1       277 7.29167E-03 8.98438E-03 0.00000E+00
 -1       278 8.33333E-03 9.37500E-03 0.00000E+00
 -1       279 9.37500E-03 9.76562E-03 0.00000E+00
 -1       280 1.04167E-02 1.01562E-02 0.00000E+00
 -1       281 1.14583E-02 1.05469E-02 0.00000E+00
 -1       282 1.25000E-02 1.09375E-02 0.00000E+00
 -1       283 1.35417E-02 1.13281E-02 0.00000E+00
 -1       284 1.45833E-02 1.17188E-02 0.00000E+00
 -1       285 1.56250E-02 1.21094E-02 0.00000E+00
 -1       301 1.66667E-02 7.29167E-03 0.00000E+00
 -1       302 1.66667E-02 8.33333E-03 0.00000E+00
 -1       303 1.66667E-02 9.37500E-03 0.00000E+00
 -1       304 1.66667E-02 1.04167E-02 0.00000E+00
 -1       305 1.66667E-02 1.14583E-02 0.00000E+00
 -1       306 1.77083E-02 6.64063E-03 0.00000E+00
 -1       307 1.87500E-02 7.03125E-03 0.00000E+00
 -1       308 1.97917E-02 7.42188E-03 0.00000E+00
 -1       309 2.08333E-02 7.81250E-03 0.00000E+00
 -1       310 2.18750E-02 8.20313E-03 0.00000E+00
 -1       311 2.29167E-02 8.59375E-03 0.00000E+00
 -1       312 2.39583E-02 8.98438E-03 0.00000E+00
 -1       313 2.50000E-02 9.37500E-03 0.00000E+00
 -1       314 2.60417E-02 9.76562E-03 0.00000E+00
 -1       315 2.70833E-02 1.01562E-02 0.00000E+00
 -1       316 2.81250E-02 1.05469E-02 0.00000E+00
 -1       317 2.91667E-02 1.09375E-02 0.00000E+00
 -1       318 3.02083E-02 1.13281E-02 0.00000E+00
 -1       319 3.12500E-02 1.17188E-02 0.00000E+00
 -1       320 3.22917E-02 1.21094E-02 0.00000E+00
 -1       336 3.33333E-02 7.29167E-03 0.00000E+00
 -1       337 3.33333E-02 8.33333E-03 0.00000E+00
 -1       338 3.33333E-02 9.37500E-03 0.00000E+00
 -1       339 3.33333E-02 1.04167E-02 0.00000E+00
 -1       340 3.33333E-02 1.14583E-02 0.00000E+00
 -1       406 6.66667E-02 7.29167E-03 0.00000E+00
 -1       407 6.66667E-02 8.33333E-03 0.00000E+00
 -1       408 6.66667E-02 9.37500E-03 0.00000E+00
 -1       409 6.66667E-02 1.04167E-02 0.00000E+00
 -1       410 6.66667E-02 1.14583E-02 0.00000E+00
 -1       521 1.77083E-02 1.28906E-02 0.00000E+00
 -1       522 1.87500E-02 1.32813E-02 0.00000E+00
 -1       523 1.97917E-02 1.36719E-02 0.00000E+00
 -1       524 2.08333E-02 1.40625E-02 0.00000E+00
 -1       525 2.18750E-02 1.44531E-02 0.00000E+00
 -1       526 2.29167E-02 1.48437E-02 0.00000E+00
 -1       527 2.39583E-02 1.52344E-02 0.00000E+00
 -1       528 2.50000E-02 1.56250E-02 0.00000E+00
 -1       529 2.60417E-02 1.60156E-02 0.00000E+00
 -1       530 2.70833E-02 1.64062E-02 0.00000E+00
 -1       531 2.81250E-02 1.67969E-02 0.00000E+00
 -1       532 2.91667E-02 1.71875E-02 0.00000E+00
 -1       533 3.02083E-02 1.75781E-02 0.00000E+00
 -1       534 3.12500E-02 1.79687E-02 0.00000E+00
 -1       535 3.22917E-02 1.83594E-02 0.00000E+00
 -1       536 3.43750E-02 1.25000E-02 0.00000E+00
 -1       537 3.54167E-02 1.25000E-02 0.00000E+00
 -1       538 3.64583E-02 1.25000E-02 0.00000E+00
 -1       539 3.75000E-02 1.25000E-02 0.00000E+00
 -1       540 3.85417E-02 1.25000E-02 0.00000E+00
 -1       541 3.95833E-02 1.25000E-02 0.00000E+00
 -1       542 4.06250E-02 1.25000E-02 0.00000E+00
 -1       543 4.16667E-02 1.25000E-02 0.00000E+00
 -1       544 4.27083E-02 1.25000E-02 0.00000E+00
 -1       545 4.37500E-02 1.25000E-02 0.00000E+00
 -1       546 4.47917E-02 1.25000E-02 0.00000E+00
 -1       547 4.58333E-02 1.25000E-02 0.00000E+00
 -1       548 4.68750E-02 1.25000E-02 0.00000E+00
 -1       549 4.79167E-02 1.25000E-02 0.00000E+00
 -1       550 4.89583E-02 1.25000E-02 0.00000E+00
 -1       551 3.33333E-02 1.35417E-02 0.00000E+00
 -1       552 3.33333E-02 1.45833E-02 0.00000E+00
 -1       553 3.33333E-02 1.56250E-02 0.00000E+00
 -1       554 3.33333E-02 1.66667E-02 0.00000E+00
 -1       555 3.33333E-02 1.77083E-02 0.00000E+00
 -1       556 3.43750E-02 1.28906E-02 0.00000E+00
 -1       557 3.54167E-02 1.32813E-02 0.00000E+00
 -1       558 3.64583E-02 1.36719E-02 0.00000E+00
 -1       559 3.75000E-02 1.40625E-02 0.00000E+00
 -1       560 3.85417E-02 1.44531E-02 0.00000E+00
 -1       561 3.95833E-02 1.48437E-02 0.00000E+00
 -1       562 4.06250E-02 1.52344E-02 0.00000E+00
 -1       563 4.16667E-02 1.56250E-02 0.00000E+00
 -1       564 4.27083E-02 1.60156E-02 0.00000E+00
 -1       565 4.37500E-02 1.64062E-02 0.00000E+00
 -1       566 4.47917E-02 1.67969E-02 0.00000E+00
 -1       567 4.58333E-02 1.71875E-02 0.00000E+00
 -1       568 4.68750E-02 1.75781E-02 0.00000E+00
 -1       569 4.79167E-02 1.79687E-02 0.00000E+00
 -1       570 4.89583E-02 1.83594E-02 0.00000E+00
 -1       571 5.10417E-02 1.25000E-02 0.00000E+00
 -1       572 5.20833E-02 1.25000E-02 0.00000E+00
 -1       573 5.31250E-02 1.25000E-02 0.00000E+00
 -1       574 5.41667E-02 1.25000E-02 0.00000E+00
 -1       575 5.52083E-02 1.25000E-02 0.00000E+00
 -1       576 5.62500E-02 1.25000E-02 0.00000E+00
 -1       577 5.72917E-02 1.25000E-02 0.00000E+00
 -1       578 5.83333E-02 1.25000E-02 0.00000E+00
 -1       579 5.93750E-02 1.25000E-02 0.00000E+00
 -1       580 6.04167E-02 1.25000E-02 0.00000E+00
 -1       581 6.14583E-02 1.25000E-02 0.00000E+00
 -1       582 6.25000E-02 1.25000E-02 0.00000E+00
 -1       583 6.35417E-02 1.25000E-02 0.00000E+00
 -1       584 6.45833E-02 1.25000E-02 0.00000E+00
 -1       585 6.56250E-02 1.25000E-02 0.00000E+00
 -1       586 5.00000E-02 1.35417E-02 0.00000E+00
 -1       587 5.00000E-02 1.45833E-02 0.00000E+00
 -1       588 5.00000E-02 1.56250E-02 0.00000E+00
 -1       589 5.00000E-02 1.66667E-02 0.00000E+00
 -1       590 5.00000E-02 1.77083E-02 0.00000E+00
 -1       591 5.10417E-02 1.28906E-02 0.00000E+00
 -1       592 5.20833E-02 1.32813E-02 0.00000E+00
 -1       593 5.31250E-02 1.36719E-02 0.00000E+00
 -1       594 5.41667E-02 1.40625E-02 0.00000E+00
 -1       595 5.52083E-02 1.44531E-02 0.00000E+00
 -1       596 5.62500E-02 1.48437E-02 0.00000E+00
 -1       597 5.72917E-02 1.52344E-02 0.00000E+00
 -1       598 5.83333E-02 1.56250E-02 0.00000E+00
 -1       599 5.93750E-02 1.60156E-02 0.00000E+00
 -1       600 6.04167E-02 1.64062E-02 0.00000E+00
 -1       601 6.14583E-02 1.67969E-02 0.00000E+00
 -1       602 6.25000E-02 1.71875E-02 0.00000E+00
 -1       603 6.35417E-02 1.75781E-02 0.00000E+00
 -1       604 6.45833E-02 1.79687E-02 0.00000E+00
 -1       605 6.56250E-02 1.83594E-02 0.00000E+00
 -1       606 6.77083E-02 1.25000E-02 0.00000E+00
 -1       607 6.87500E-02 1.25000E-02 0.00000E+00
 -1       608 6.97917E-02 1.25000E-02 0.00000E+00
 -1       609 7.08333E-02 1.25000E-02 0.00000E+00
 -1       610 7.18750E-02 1.25000E-02 0.00000E+00
 -1       611 7.29167E-02 1.25000E-02 0.00000E+00
 -1       612 7.39583E-02 1.25000E-02 0.00000E+00
 -1       613 7.50000E-02 1.25000E-02 0.00000E+00
 -1       614 7.60417E-02 1.25000E-02 0.00000E+00
 -1       615 7.70833E-02 1.25000E-02 0.00000E+00
 -1       616 7.81250E-02 1.25000E-02 0.00000E+00
 -1       617 7.91667E-02 1.25000E-02 0.00000E+00
 -1       618 8.02083E-02 1.25000E-02 0.00000E+00
 -1       619 8.12500E-02 1.25000E-02 0.00000E+00
 -1       620 8.22917E-02 1.25000E-02 0.00000E+00
 -1       621 6.66667E-02 1.35417E-02 0.00000E+00
 -1       622 6.66667E-02 1.45833E-02 0.00000E+00
 -1       623 6.66667E-02 1.56250E-02 0.00000E+00
 -1       624 6.66667E-02 1.66667E-02 0.00000E+00
 -1       625 6.66667E-02 1.77083E-02 0.00000E+00
 -1       626 6.77083E-02 1.28906E-02 0.00000E+00
 -1       627 6.87500E-02 1.32813E-02 0.00000E+00
 -1       628 6.97917E-02 1.36719E-02 0.00000E+00
 -1       629 7.08333E-02 1.40625E-02 0.00000E+00
 -1       630 7.18750E-02 1.44531E-02 0.00000E+00
 -1       631 7.29167E-02 1.48437E-02 0.00000E+00
 -1       632 7.39583E-02 1.52344E-02 0.00000E+00
 -1       633 7.50000E-02 1.56250E-02 0.00000E+00
 -1       634 7.60417E-02 1.60156E-02 0.00000E+00
 -1       635 7.70833E-02 1.64062E-02 0.00000E+00
 -1       636 7.81250E-02 1.67969E-02 0.00000E+00
 -1       637 7.91667E-02 1.71875E-02 0.00000E+00
 -1       638 8.02083E-02 1.75781E-02 0.00000E+00
 -1       639 8.12500E-02 1.79687E-02 0.00000E+00
 -1       640 8.22917E-02 1.83594E-02 0.00000E+00
 -1       656 8.33333E-02 1.35417E-02 0.00000E+00
 -1       657 8.33333E-02 1.45833E-02 0.00000E+00
 -1       658 8.33333E-02 1.56250E-02 0.00000E+00
 -1       659 8.33333E-02 1.66667E-02 0.00000E+00
 -1       660 8.33333E-02 1.77083E-02 0.00000E+00
 -1       661 8.43750E-02 1.28906E-02 0.00000E+00
 -1       662 8.54167E-02 1.32813E-02 0.00000E+00
 -1       663 8.64583E-02 1.36719E-02 0.00000E+00
 -1       664 8.75000E-02 1.40625E-02 0.00000E+00
 -1       665 8.85417E-02 1.44531E-02 0.00000E+00
 -1       666 8.95833E-02 1.48437E-02 0.00000E+00
 -1       667 9.06250E-02 1.52344E-02 0.00000E+00
 -1       668 9.16667E-02 1.56250E-02 0.00000E+00
 -1       669 9.27083E-02 1.60156E-02 0.00000E+00
 -1       670 9.37500E-02 1.64062E-02 0.00000E+00
 -1       671 9.47917E-02 1.67969E-02 0.00000E+00
 -1       672 9.58333E-02 1.71875E-02 0.00000E+00
 -1       673 9.68750E-02 1.75781E-02 0.00000E+00
 -1       674 9.79167E-02 1.79687E-02 0.00000E+00
 -1       675 9.89583E-02 1.83594E-02 0.00000E+00
 -1       676 1.00000E-01 1.35417E-02 0.00000E+00
 -1       677 1.00000E-01 1.45833E-02 0.00000E+00
 -1       678 1.00000E-01 1.56250E-02 0.00000E+00
 -1       679 1.00000E-01 1.66667E-02 0.00000E+00
 -1       680 1.00000E-01 1.77083E-02 0.00000E+00
 -1       771 3.43750E-02 1.91406E-02 0.00000E+00
 -1       772 3.54167E-02 1.95312E-02 0.00000E+00
 -1       773 3.64583E-02 1.99219E-02 0.00000E+00
 -1       774 3.75000E-02 2.03125E-02 0.00000E+00
 -1       775 3.85417E-02 2.07031E-02 0.00000E+00
 -1       776 3.95833E-02 2.10938E-02 0.00000E+00
 -1       777 4.06250E-02 2.14844E-02 0.00000E+00
 -1       778 4.16667E-02 2.18750E-02 0.00000E+00
 -1       779 4.27083E-02 2.22656E-02 0.00000E+00
 -1       780 4.37500E-02 2.26563E-02 0.00000E+00
 -1       781 4.47917E-02 2.30469E-02 0.00000E+00
 -1       782 4.58333E-02 2.34375E-02 0.00000E+00
 -1       783 4.68750E-02 2.38281E-02 0.00000E+00
 -1       784 4.79167E-02 2.42187E-02 0.00000E+00
 -1       785 4.89583E-02 2.46094E-02 0.00000E+00
 -1       786 5.10417E-02 1.87500E-02 0.00000E+00
 -1       787 5.20833E-02 1.87500E-02 0.00000E+00
 -1       788 5.31250E-02 1.87500E-02 0.00000E+00
 -1       789 5.41667E-02 1.87500E-02 0.00000E+00
 -1       790 5.52083E-02 1.87500E-02 0.00000E+00
 -1       791 5.62500E-02 1.87500E-02 0.00000E+00
 -1       792 5.72917E-02 1.87500E-02 0.00000E+00
 -1       793 5.83333E-02 1.87500E-02 0.00000E+00
 -1       794 5.93750E-02 1.87500E-02 0.00000E+00
 -1       795 6.04167E-02 1.87500E-02 0.00000E+00
 -1       796 6.14583E-02 1.87500E-02 0.00000E+00
 -1       797 6.25000E-02 1.87500E-02 0.00000E+00
 -1       798 6.35417E-02 1.87500E-02 0.00000E+00
 -1       799 6.45833E-02 1.87500E-02 0.00000E+00
 -1       800 6.56250E-02 1.87500E-02 0.00000E+00
 -1       801 5.00000E-02 1.97917E-02 0.00000E+00
 -1       802 5.00000E-02 2.08333E-02 0.00000E+00
 -1       803 5.00000E-02 2.18750E-02 0.00000E+00
 -1       804 5.00000E-02 2.29167E-02 0.00000E+00
 -1       805 5.00000E-02 2.39583E-02 0.00000E+00
 -1       806 5.10417E-02 1.91406E-02 0.00000E+00
 -1       807 5.20833E-02 1.95312E-02 0.00000E+00
 -1       808 5.31250E-02 1.99219E-02 0.00000E+00
 -1       809 5.41667E-02 2.03125E-02 0.00000E+00
 -1       810 5.52083E-02 2.07031E-02 0.00000E+00
 -1       811 5.62500E-02 2.10938E-02 0.00000E+00
 -1       812 5.72917E-02 2.14844E-02 0.00000E+00
 -1       813 5.83333E-02 2.18750E-02 0.00000E+00
 -1       814 5.93750E-02 2.22656E-02 0.00000E+00
 -1       815 6.04167E-02 2.26563E-02 0.00000E+00
 -1       816 6.14583E-02 2.30469E-02 0.00000E+00
 -1       817 6.25000E-02 2.34375E-02 0.00000E+00
 -1       818 6.35417E-02 2.38281E-02 0.00000E+00
 -1       819 6.45833E-02 2.42187E-02 0.00000E+00
 -1       820 6.56250E-02 2.46094E-02 0.00000E+00
 -1       821 6.77083E-02 1.87500E-02 0.00000E+00
 -1       822 6.87500E-02 1.87500E-02 0.00000E+00
 -1       823 6.97917E-02 1.87500E-02 0.00000E+00
 -1       824 7.08333E-02 1.87500E-02 0.00000E+00
 -1       825 7.18750E-02 1.87500E-02 0.00000E+00
 -1       826 7.29167E-02 1.87500E-02 0.00000E+00
 -1       827 7.39583E-02 1.87500E-02 0.00000E+00
 -1       828 7.50000E-02 1.87500E-02 0.00000E+00
 -1       829 7.60417E-02 1.87500E-02 0.00000E+00
 -1       830 7.70833E-02 1.87500E-02 0.00000E+00
 -1       831 7.81250E-02 1.87500E-02 0.00000E+00
 -1       832 7.91667E-02 1.87500E-02 0.00000E+00
 -1       833 8.02083E-02 1.87500E-02 0.00000E+00
 -1       834 8.12500E-02 1.87500E-02 0.00000E+00
 -1       835 8.22917E-02 1.87500E-02 0.00000E+00
 -1       836 6.66667E-02 1.97917E-02 0.00000E+00
 -1       837 6.66667E-02 2.08333E-02 0.00000E+00
 -1       838 6.66667E-02 2.18750E-02 0.00000E+00
 -1       839 6.66667E-02 2.29167E-02 0.00000E+00
 -1       840 6.66667E-02 2.39583E-02 0.00000E+00
 -1       856 8.43750E-02 1.87500E-02 0.00000E+00
 -1       857 8.54167E-02 1.87500E-02 0.00000E+00
 -1       858 8.64583E-02 1.87500E-02 0.00000E+00
 -1       859 8.75000E-02 1.87500E-02 0.00000E+00
 -1       860 8.85417E-02 1.87500E-02 0.00000E+00
 -1       861 8.95833E-02 1.87500E-02 0.00000E+00
 -1       862 9.06250E-02 1.87500E-02 0.00000E+00
 -1       863 9.16667E-02 1.87500E-02 0.00000E+00
 -1       864 9.27083E-02 1.87500E-02 0.00000E+00
 -1       865 9.37500E-02 1.87500E-02 0.00000E+00
 -1       866 9.47917E-02 1.87500E-02 0.00000E+00
 -1       867 9.58333E-02 1.87500E-02 0.00000E+00
 -1       868 9.68750E-02 1.87500E-02 0.00000E+00
 -1       869 9.79167E-02 1.87500E-02 0.00000E+00
 -1       870 9.89583E-02 1.87500E-02 0.00000E+00
 -1       871 8.33333E-02 1.97917E-02 0.00000E+00
 -1       872 8.33333E-02 2.08333E-02 0.00000E+00
 -1       873 8.33333E-02 2.18750E-02 0.00000E+00
 -1       874 8.33333E-02 2.29167E-02 0.00000E+00
 -1       875 8.33333E-02 2.39583E-02 0.00000E+00
 -1       876 8.43750E-02 1.91406E-02 0.00000E+00
 -1       877 8.54167E-02 1.95312E-02 0.00000E+00
 -1       878 8.64583E-02 1.99219E-02 0.00000E+00
 -1       879 8.75000E-02 2.03125E-02 0.00000E+00
 -1       880 8.85417E-02 2.07031E-02 0.00000E+00
 -1       881 8.95833E-02 2.10938E-02 0.00000E+00
 -1       882 9.06250E-02 2.14844E-02 0.00000E+00
 -1       883 9.16667E-02 2.18750E-02 0.00000E+00
 -1       884 9.27083E-02 2.22656E-02 0.00000E+00
 -1       885 9.37500E-02 2.26563E-02 0.00000E+00
 -1       886 9.47917E-02 2.30469E-02 0.00000E+00
 -1       887 9.58333E-02 2.34375E-02 0.00000E+00
 -1       888 9.68750E-02 2.38281E-02 0.00000E+00
 -1       889 9.79167E-02 2.42187E-02 0.00000E+00
 -1       890 9.89583E-02 2.46094E-02 0.00000E+00
 -1       891 1.00000E-01 1.97917E-02 0.00000E+00
 -1       892 1.00000E-01 2.08333E-02 0.00000E+00
 -1       893 1.00000E-01 2.18750E-02 0.00000E+00
 -1       894 1.00000E-01 2.29167E-02 0.00000E+00
 -1       895 1.00000E-01 2.39583E-02 0.00000E+00
 -1       956 6.77083E-02 2.50000E-02 0.00000E+00
 -1       957 6.87500E-02 2.50000E-02 0.00000E+00
 -1       958 6.97917E-02 2.50000E-02 0.00000E+00
 -1       959 7.08333E-02 2.50000E-02 0.00000E+00
 -1       960 7.18750E-02 2.50000E-02 0.00000E+00
 -1       961 7.29167E-02 2.50000E-02 0.00000E+00
 -1       962 7.39583E-02 2.50000E-02 0.00000E+00
 -1       963 7.50000E-02 2.50000E-02 0.00000E+00
 -1       964 7.60417E-02 2.50000E-02 0.00000E+00
 -1       965 7.70833E-02 2.50000E-02 0.00000E+00
 -1       966 7.81250E-02 2.50000E-02 0.00000E+00
 -1       967 7.91667E-02 2.50000E-02 0.00000E+00
 -1       968 8.02083E-02 2.50000E-02 0.00000E+00
 -1       969 8.12500E-02 2.50000E-02 0.00000E+00
 -1       970 8.22917E-02 2.50000E-02 0.00000E+00
 -1       971 8.43750E-02 2.50000E-02 0.00000E+00
 -1       972 8.54167E-02 2.50000E-02 0.00000E+00
 -1       973 8.64583E-02 2.50000E-02 0.00000E+00
 -1       974 8.75000E-02 2.50000E-02 0.00000E+00
 -1       975 8.85417E-02 2.50000E-02 0.00000E+00
 -1       976 8.95833E-02 2.50000E-02 0.00000E+00
 -1       977 9.06250E-02 2.50000E-02 0.00000E+00
 -1       978 9.16667E-02 2.50000E-02 0.00000E+00
 -1       979 9.27083E-02 2.50000E-02 0.00000E+00
 -1       980 9.37500E-02 2.50000E-02 0.00000E+00
 -1       981 9.47917E-02 2.50000E-02 0.00000E+00
 -1       982 9.58333E-02 2.50000E-02 0.00000E+00
 -1       983 9.68750E-02 2.50000E-02 0.00000E+00
 -1       984 9.79167E-02 2.50000E-02 0.00000E+00
 -1       985 9.89583E-02 2.50000E-02 0.00000E+00
 -3
    3C                           211                                     1
 -1         1   12    0    1
 -2         1        52        51
 -1         2   12    0    1
 -2        52        54        53
 -1         3   12    0    1
 -2        54         8        55
 -1         4   12    0    1
 -2         1        57        56
 -1         5   12    0    1
 -2        57        59        58
 -1         6   12    0    1
 -2        59        61        60
 -1         7   12    0    1
 -2        61        63        62
 -1         8   12    0    1
 -2        63        65        64
 -1         9   12    0    1
 -2        65        67        66
 -1        10   12    0    1
 -2        67        69        68
 -1        11   12    0    1
 -2        69         9        70
 -1        12   12    0    1
 -2         2        87        86
 -1        13   12    0    1
 -2        87        89        88
 -1        14   12    0    1
 -2        89         9        90
 -1        15   12    0    1
 -2         3       122       121
 -1        16   12    0    1
 -2       122       124       123
 -1        17   12    0    1
 -2       124        10       125
 -1        18   12    0    1
 -2         5       192       191
 -1        19   12    0    1
 -2       192       194       193
 -1        20   12    0    1
 -2       194        12       195
 -1        21   12    0    1
 -2         8       252       251
 -1        22   12    0    1
 -2       252       254       253
 -1        23   12    0    1
 -2       254       256       255
 -1        24   12    0    1
 -2       256       258       257
 -1        25   12    0    1
 -2       258       260       259
 -1        26   12    0    1
 -2       260       262       261
 -1        27   12    0    1
 -2       262       264       263
 -1        28   12    0    1
 -2       264         9       265
 -1        29   12    0    1
 -2         8       267       266
 -1        30   12    0    1
 -2       267       269       268
 -1        31   12    0    1
 -2       269        15       270
 -1        32   12    0    1
 -2         8       272       271
 -1        33   12    0    1
 -2       272       274       273
 -1        34   12    0    1
 -2       274       276       275
 -1        35   12    0    1
 -2       276       278       277
 -1        36   12    0    1
 -2       278       280       279
 -1        37   12    0    1
 -2       280       282       281
 -1        38   12    0    1
 -2       282       284       283
 -1        39   12    0    1
 -2       284        16       285
 -1        40   12    0    1
 -2         9       302       301
 -1        41   12    0    1
 -2       302       304       303
 -1        42   12    0    1
 -2       304        16       305
 -1        43   12    0    1
 -2         9       307       306
 -1        44   12    0    1
 -2       307       309       308
 -1        45   12    0    1
 -2       309       311       310
 -1        46   12    0    1
 -2       311       313       312
 -1        47   12    0    1
 -2       313       315       314
 -1        48   12    0    1
 -2       315       317       316
 -1        49   12    0    1
 -2       317       319       318
 -1        50   12    0    1
 -2       319        17       320
 -1        51   12    0    1
 -2        10       337       336
 -1        52   12    0    1
 -2       337       339       338
 -1        53   12    0    1
 -2       339        17       340
 -1        54   12    0    1
 -2        12       407       406
 -1        55   12    0    1
 -2       407       409       408
 -1        56   12    0    1
 -2       409        19       410
 -1        57   12    0    1
 -2        16       522       521
 -1        58   12    0    1
 -2       522       524       523
 -1        59   12    0    1
 -2       524       526       525
 -1        60   12    0    1
 -2       526       528       527
 -1        61   12    0    1
 -2       528       530       529
 -1        62   12    0    1
 -2       530       532       531
 -1        63   12    0    1
 -2       532       534       533
 -1        64   12    0    1
 -2       534        24       535
 -1        65   12    0    1
 -2        17       537       536
 -1        66   12    0    1
 -2       537       539       538
 -1        67   12    0    1
 -2       539       541       540
 -1        68   12    0    1
 -2       541       543       542
 -1        69   12    0    1
 -2       543       545       544
 -1        70   12    0    1
 -2       545       547       546
 -1        71   12    0    1
 -2       547       549       548
 -1        72   12    0    1
 -2       549        18       550
 -1        73   12    0    1
 -2        17       552       551
 -1        74   12    0    1
 -2       552       554       553
 -1        75   12    0    1
 -2       554        24       555
 -1        76   12    0    1
 -2        17       557       556
 -1        77   12    0    1
 -2       557       559       558
 -1        78   12    0    1
 -2       559       561       560
 -1        79   12    0    1
 -2       561       563       562
 -1        80   12    0    1
 -2       563       565       564
 -1        81   12    0    1
 -2       565       567       566
 -1        82   12    0    1
 -2       567       569       568
 -1        83   12    0    1
 -2       569        25       570
 -1        84   12    0    1
 -2        18       572       571
 -1        85   12    0    1
 -2       572       574       573
 -1        86   12    0    1
 -2       574       576       575
 -1        87   12    0    1
 -2       576       578       577
 -1        88   12    0    1
 -2       578       580       579
 -1        89   12    0    1
 -2       580       582       581
 -1        90   12    0    1
 -2       582       584       583
 -1        91   12    0    1
 -2       584        19       585
 -1        92   12    0    1
 -2        18       587       586
 -1        93   12    0    1
 -2       587       589       588
 -1        94   12    0    1
 -2       589        25       590
 -1        95   12    0    1
 -2        18       592       591
 -1        96   12    0    1
 -2       592       594       593
 -1        97   12    0    1
 -2       594       596       595
 -1        98   12    0    1
 -2       596       598       597
 -1        99   12    0    1
 -2       598       600       599
 -1       100   12    0    1
 -2       600       602       601
 -1       101   12    0    1
 -2       602       604       603
 -1       102   12    0    1
 -2       604        26       605
 -1       103   12    0    1
 -2        19       607       606
 -1       104   12    0    1
 -2       607       609       608
 -1       105   12    0    1
 -2       609       611       610
 -1       106   12    0    1
 -2       611       613       612
 -1       107   12    0    1
 -2       613       615       614
 -1       108   12    0    1
 -2       615       617       616
 -1       109   12    0    1
 -2       617       619       618
 -1       110   12    0    1
 -2       619        20       620
 -1       111   12    0    1
 -2        19       622       621
 -1       112   12    0    1
 -2       622       624       623
 -1       113   12    0    1
 -2       624        26       625
 -1       114   12    0    1
 -2        19       627       626
 -1       115   12    0    1
 -2       627       629       628
 -1       116   12    0    1
 -2       629       631       630
 -1       117   12    0    1
 -2       631       633       632
 -1       118   12    0    1
 -2       633       635       634
 -1       119   12    0    1
 -2       635       637       636
 -1       120   12    0    1
 -2       637       639       638
 -1       121   12    0    1
 -2       639        27       640
 -1       122   12    0    1
 -2        20       657       656
 -1       123   12    0    1
 -2       657       659       658
 -1       124   12    0    1
 -2       659        27       660
 -1       125   12    0    1
 -2        20       662       661
 -1       126   12    0    1
 -2       662       664       663
 -1       127   12    0    1
 -2       664       666       665
 -1       128   12    0    1
 -2       666       668       667
 -1       129   12    0    1
 -2       668       670       669
 -1       130   12    0    1
 -2       670       672       671
 -1       131   12    0    1
 -2       672       674       673
 -1       132   12    0    1
 -2       674        28       675
 -1       133   12    0    1
 -2        21       677       676
 -1       134   12    0    1
 -2       677       679       678
 -1       135   12    0    1
 -2       679        28       680
 -1       136   12    0    1
 -2        24       772       771
 -1       137   12    0    1
 -2       772       774       773
 -1       138   12    0    1
 -2       774       776       775
 -1       139   12    0    1
 -2       776       778       777
 -1       140   12    0    1
 -2       778       780       779
 -1       141   12    0    1
 -2       780       782       781
 -1       142   12    0    1
 -2       782       784       783
 -1       143   12    0    1
 -2       784        32       785
 -1       144   12    0    1
 -2        25       787       786
 -1       145   12    0    1
 -2       787       789       788
 -1       146   12    0    1
 -2       789       791       790
 -1       147   12    0    1
 -2       791       793       792
 -1       148   12    0    1
 -2       793       795       794
 -1       149   12    0    1
 -2       795       797       796
 -1       150   12    0    1
 -2       797       799       798
 -1       151   12    0    1
 -2       799        26       800
 -1       152   12    0    1
 -2        25       802       801
 -1       153   12    0    1
 -2       802       804       803
 -1       154   12    0    1
 -2       804        32       805
 -1       155   12    0    1
 -2        25       807       806
 -1       156   12    0    1
 -2       807       809       808
 -1       157   12    0    1
 -2       809       811       810
 -1       158   12    0    1
 -2       811       813       812
 -1       159   12    0    1
 -2       813       815       814
 -1       160   12    0    1
 -2       815       817       816
 -1       161   12    0    1
 -2       817       819       818
 -1       162   12    0    1
 -2       819        33       820
 -1       163   12    0    1
 -2        26       822       821
 -1       164   12    0    1
 -2       822       824       823
 -1       165   12    0    1
 -2       824       826       825
 -1       166   12    0    1
 -2       826       828       827
 -1       167   12    0    1
 -2       828       830       829
 -1       168   12    0    1
 -2       830       832       831
 -1       169   12    0    1
 -2       832       834       833
 -1       170   12    0    1
 -2       834        27       835
 -1       171   12    0    1
 -2        26       837       836
 -1       172   12    0    1
 -2       837       839       838
 -1       173   12    0    1
 -2       839        33       840
 -1       174   12    0    1
 -2        27       857       856
 -1       175   12    0    1
 -2       857       859       858
 -1       176   12    0    1
 -2       859       861       860
 -1       177   12    0    1
 -2       861       863       862
 -1       178   12    0    1
 -2       863       865       864
 -1       179   12    0    1
 -2       865       867       866
 -1       180   12    0    1
 -2       867       869       868
 -1       181   12    0    1
 -2       869        28       870
 -1       182   12    0    1
 -2        27       872       871
 -1       183   12    0    1
 -2       872       874       873
 -1       184   12    0    1
 -2       874        34       875
 -1       185   12    0    1
 -2        27       877       876
 -1       186   12    0    1
 -2       877       879       878
 -1       187   12    0    1
 -2       879       881       880
 -1       188   12    0    1
 -2       881       883       882
 -1       189   12    0    1
 -2       883       885       884
 -1       190   12    0    1
 -2       885       887       886
 -1       191   12    0    1
 -2       887       889       888
 -1       192   12    0    1
 -2       889        35       890
 -1       193   12    0    1
 -2        28       892       891
 -1       194   12    0    1
 -2       892       894       893
 -1       195   12    0    1
 -2       894        35       895
 -1       196   12    0    1
 -2        33       957       956
 -1       197   12    0    1
 -2       957       959       958
 -1       198   12    0    1
 -2       959       961       960
 -1       199   12    0    1
 -2       961       963       962
 -1       200   12    0    1
 -2       963       965       964
 -1       201   12    0    1
 -2       965       967       966
 -1       202   12    0    1
 -2       967       969       968
 -1       203   12    0    1
 -2       969        34       970
 -1       204   12    0    1
 -2        34       972       971
 -1       205   12    0    1
 -2       972       974       973
 -1       206   12    0    1
 -2       974       976       975
 -1       207   12    0    1
 -2       976       978       977
 -1       208   12    0    1
 -2       978       980       979
 -1       209   12    0    1
 -2       980       982       981
 -1       210   12    0    1
 -2       982       984       983
 -1       211   12    0    1
 -2       984        35       985
 -3
    1PSTEP                         1           1           1          
  100CL  101 1.000000000         409                     0    1           1
 -4  DISP        4    1
 -5  D1          1    2    1    0
 -5  D2          1    2    2    0
 -5  D3          1    2    3    0
 -5  ALL         1    2    0    0    1ALL
 -1         1 1.94999E-04 0.00000E+00 0.00000E+00
 -1         2 1.35795E-04-2.98994E-31 0.00000E+00
 -1         3 1.48703E-04-4.84923E-26-1.32349E-23
 -1         5 1.05613E-04 5.65313E-25 0.00000E+00
 -1         8 1.58499E-04-1.61107E-06 0.00000E+00
 -1         9 1.33228E-04-5.37289E-06 0.00000E+00
 -1        10 1.36634E-04-3.18142E-06-6.61744E-24
 -1        12 1.04431E-04 1.16767E-06 3.30872E-24
 -1        15 1.17633E-04-1.79131E-06 0.00000E+00
 -1        16 9.53146E-05-5.68345E-06 0.00000E+00
 -1        17 9.91495E-05-6.74608E-06 0.00000E+00
 -1        18 9.87857E-05-7.07116E-08 0.00000E+00
 -1        19 1.00882E-04 2.32772E-06 0.00000E+00
 -1        20 1.01497E-04 2.89955E-05 0.00000E+00
 -1        21 9.96509E-05 6.21860E-05 0.00000E+00
 -1        24 3.05656E-05-8.64621E-06 0.00000E+00
 -1        25 9.44498E-05 2.62117E-07 0.00000E+00
 -1        26 9.62398E-05 3.17107E-06 0.00000E+00
 -1        27 9.38738E-05 2.73385E-05 0.00000E+00
 -1        28 9.21051E-05 6.11412E-05 0.00000E+00
 -1        32 0.00000E+00 0.00000E+00 0.00000E+00
 -1        33 9.05272E-05 4.20843E-06 0.00000E+00
 -1        34 8.79693E-05 2.72321E-05 0.00000E+00
 -1        35 8.48177E-05 6.06033E-05 0.00000E+00
 -1        51 1.92392E-04-2.63367E-07 0.00000E+00
 -1        52 1.87898E-04-5.20118E-07 0.00000E+00
 -1        53 1.81879E-04-7.79468E-07 0.00000E+00
 -1        54 1.74718E-04-1.04471E-06 0.00000E+00
 -1        55 1.66797E-04-1.31800E-06 8.27181E-25
 -1        56 1.91096E-04 1.69093E-07 0.00000E+00
 -1        57 1.86027E-04 3.04259E-06-5.29396E-23
 -1        58 1.80258E-04 7.78057E-06 0.00000E+00
 -1        59 1.74169E-04 1.32881E-05-5.29396E-23
 -1        60 1.68288E-04 1.82512E-05 1.05879E-22
 -1        61 1.63092E-04 2.14013E-05 5.29396E-23
 -1        62 1.58849E-04 2.20352E-05 0.00000E+00
 -1        63 1.55717E-04 1.97055E-05-5.29396E-23
 -1        64 1.53512E-04 1.48905E-05 1.05879E-22
 -1        65 1.51955E-04 8.32524E-06-5.29396E-23
 -1        66 1.50571E-04 1.29310E-06-1.05879E-22
 -1        67 1.48872E-04-4.87325E-06 5.29396E-23
 -1        68 1.46458E-04-9.11388E-06 0.00000E+00
 -1        69 1.43025E-04-1.05600E-05 5.29396E-23
 -1        70 1.38539E-04-9.23017E-06 0.00000E+00
 -1        86 1.35449E-04-8.95823E-07 0.00000E+00
 -1        87 1.34424E-04-1.79179E-06-1.32349E-23
 -1        88 1.34221E-04-2.68749E-06 0.00000E+00
 -1        89 1.36306E-04-3.58351E-06 1.32349E-23
 -1        90 1.37138E-04-4.47909E-06 0.00000E+00
 -1       121 1.48363E-04-5.27496E-07-1.32349E-23
 -1       122 1.47345E-04-1.05545E-06-6.61744E-24
 -1       123 1.45655E-04-1.58429E-06-1.32349E-23
 -1       124 1.43298E-04-2.11457E-06 0.00000E+00
 -1       125 1.40286E-04-2.64649E-06 0.00000E+00
 -1       191 1.05580E-04 1.94643E-07 6.61744E-24
 -1       192 1.05482E-04 3.89280E-07 0.00000E+00
 -1       193 1.05318E-04 5.83909E-07 0.00000E+00
 -1       194 1.05088E-04 7.78523E-07 3.30872E-24
 -1       195 1.04792E-04 9.73112E-07 0.00000E+00
 -1       251 1.56948E-04 2.66203E-06 0.00000E+00
 -1       252 1.55368E-04 1.73825E-06-2.64698E-23
 -1       253 1.53788E-04-8.18477E-07-5.29396E-23
 -1       254 1.52204E-04-1.32459E-06 0.00000E+00
 -1       255 1.50621E-04-1.20418E-06 5.29396E-23
 -1       256 1.49035E-04-1.92623E-06 0.00000E+00
 -1       257 1.47449E-04-2.86366E-06 5.29396E-23
 -1       258 1.45864E-04-3.37402E-06-2.64698E-23
 -1       259 1.44278E-04-3.87702E-06 0.00000E+00
 -1       260 1.42692E-04-4.79288E-06-2.64698E-23
 -1       261 1.41107E-04-5.51499E-06 5.29396E-23
 -1       262 1.39523E-04-5.45058E-06 0.00000E+00
 -1       263 1.37939E-04-5.96373E-06 5.29396E-23
 -1       264 1.36359E-04-8.37712E-06 0.00000E+00
 -1       265 1.34779E-04-9.28022E-06 0.00000E+00
 -1       266 1.51688E-04-1.66439E-06 0.00000E+00
 -1       267 1.44877E-04-1.69158E-06 3.30872E-24
 -1       268 1.38066E-04-1.72046E-06 3.30872E-24
 -1       269 1.31255E-04-1.74441E-06 0.00000E+00
 -1       270 1.24444E-04-1.76825E-06 0.00000E+00
 -1       271 1.52778E-04 3.18277E-06-5.29396E-23
 -1       272 1.47505E-04 6.43140E-06 0.00000E+00
 -1       273 1.42823E-04 8.14043E-06-1.05879E-22
 -1       274 1.38686E-04 8.34438E-06 0.00000E+00
 -1       275 1.35055E-04 7.19975E-06-1.05879E-22
 -1       276 1.31841E-04 4.93040E-06 0.00000E+00
 -1       277 1.28932E-04 1.84199E-06 0.00000E+00
 -1       278 1.26198E-04-1.71519E-06 5.29396E-23
 -1       279 1.23496E-04-5.35725E-06 1.05879E-22
 -1       280 1.20680E-04-8.69548E-06 0.00000E+00
 -1       281 1.17615E-04-1.13633E-05 1.05879E-22
 -1       282 1.14179E-04-1.30308E-05 0.00000E+00
 -1       283 1.10272E-04-1.34403E-05 1.05879E-22
 -1       284 1.05836E-04-1.23980E-05 0.00000E+00
 -1       285 1.00816E-04-9.82567E-06 0.00000E+00
 -1       301 1.26916E-04-5.43809E-06 1.32349E-23
 -1       302 1.20575E-04-5.47529E-06 0.00000E+00
 -1       303 1.14226E-04-5.50990E-06 6.61744E-24
 -1       304 1.07887E-04-5.54679E-06-6.61744E-24
 -1       305 1.01576E-04-5.59027E-06-1.32349E-23
 -1       306 1.29416E-04-8.51311E-07 5.29396E-23
 -1       307 1.26301E-04 1.67821E-06-2.64698E-23
 -1       308 1.23867E-04 2.41165E-06 5.29396E-23
 -1       309 1.22014E-04 1.57573E-06 0.00000E+00
 -1       310 1.20637E-04-5.36776E-07 0.00000E+00
 -1       311 1.19613E-04-3.59788E-06 0.00000E+00
 -1       312 1.18806E-04-7.24256E-06 0.00000E+00
 -1       313 1.18074E-04-1.10888E-05 0.00000E+00
 -1       314 1.17271E-04-1.47466E-05 0.00000E+00
 -1       315 1.16256E-04-1.78317E-05 2.64698E-23
 -1       316 1.14892E-04-1.99819E-05 0.00000E+00
 -1       317 1.13056E-04-2.08626E-05-2.64698E-23
 -1       318 1.10636E-04-2.01886E-05 5.29396E-23
 -1       319 1.07549E-04-1.77171E-05 0.00000E+00
 -1       320 1.03713E-04-1.32819E-05 0.00000E+00
 -1       336 1.32260E-04-3.76679E-06-1.32349E-23
 -1       337 1.27092E-04-4.35664E-06-6.61744E-24
 -1       338 1.21160E-04-4.95033E-06 0.00000E+00
 -1       339 1.14498E-04-5.54716E-06 6.61744E-24
 -1       340 1.07147E-04-6.14884E-06 1.32349E-23
 -1       406 1.04004E-04 1.36218E-06 6.61744E-24
 -1       407 1.03511E-04 1.55658E-06-3.30872E-24
 -1       408 1.02952E-04 1.75083E-06 0.00000E+00
 -1       409 1.02328E-04 1.94464E-06 3.30872E-24
 -1       410 1.01638E-04 2.13759E-06 0.00000E+00
 -1       521 8.98360E-05-1.76892E-06-1.05879E-22
 -1       522 8.49787E-05 1.98143E-07-5.29396E-23
 -1       523 8.08186E-05 3.33627E-07 0.00000E+00
 -1       524 7.72630E-05-1.19014E-06-5.29396E-23
 -1       525 7.42130E-05-4.06848E-06-1.05879E-22
 -1       526 7.15249E-05-7.92619E-06 0.00000E+00
 -1       527 6.90342E-05-1.23157E-05-1.05879E-22
 -1       528 6.65634E-05-1.67601E-05 5.29396E-23
 -1       529 6.39341E-05-2.07785E-05 1.05879E-22
 -1       530 6.09764E-05-2.39140E-05-5.29396E-23
 -1       531 5.75422E-05-2.57739E-05 1.05879E-22
 -1       532 5.35119E-05-2.60371E-05 0.00000E+00
 -1       533 4.88033E-05-2.44990E-05-1.05879E-22
 -1       534 4.33894E-05-2.10507E-05 5.29396E-23
 -1       535 3.72574E-05-1.57335E-05 0.00000E+00
 -1       536 9.90890E-05 6.08331E-07 0.00000E+00
 -1       537 9.90536E-05 6.18545E-06-1.65436E-24
 -1       538 9.90251E-05 1.01663E-05 0.00000E+00
 -1       539 9.90035E-05 1.27328E-05-8.27181E-25
 -1       540 9.89844E-05 1.40674E-05 0.00000E+00
 -1       541 9.89666E-05 1.43530E-05 4.13590E-25
 -1       542 9.89489E-05 1.37729E-05-8.27181E-25
 -1       543 9.89307E-05 1.25105E-05 0.00000E+00
 -1       544 9.89118E-05 1.07498E-05 0.00000E+00
 -1       545 9.88924E-05 8.67470E-06 0.00000E+00
 -1       546 9.88728E-05 6.46924E-06 4.13590E-25
 -1       547 9.88534E-05 4.31759E-06 0.00000E+00
 -1       548 9.88344E-05 2.40384E-06-1.03398E-25
 -1       549 9.88167E-05 9.11998E-07 0.00000E+00
 -1       550 9.87995E-05 2.59964E-08 0.00000E+00
 -1       551 8.90190E-05-7.04335E-06-3.30872E-24
 -1       552 7.76390E-05-7.34746E-06 4.13590E-24
 -1       553 6.55526E-05-7.65917E-06 1.32349E-23
 -1       554 5.33114E-05-7.97633E-06 6.61744E-24
 -1       555 4.14673E-05-8.29559E-06 0.00000E+00
 -1       556 9.63160E-05 3.52788E-07 0.00000E+00
 -1       557 9.41249E-05 5.80498E-06 0.00000E+00
 -1       558 9.25048E-05 9.76154E-06 0.00000E+00
 -1       559 9.13908E-05 1.23866E-05 0.00000E+00
 -1       560 9.07181E-05 1.38441E-05 0.00000E+00
 -1       561 9.04231E-05 1.42993E-05 0.00000E+00
 -1       562 9.04424E-05 1.39180E-05 0.00000E+00
 -1       563 9.07130E-05 1.28659E-05 0.00000E+00
 -1       564 9.11724E-05 1.13093E-05-6.61744E-24
 -1       565 9.17581E-05 9.41457E-06 0.00000E+00
 -1       566 9.24080E-05 7.34809E-06 0.00000E+00
 -1       567 9.30599E-05 5.27643E-06 1.24077E-24
 -1       568 9.36517E-05 3.36606E-06 3.30872E-24
 -1       569 9.41214E-05 1.78329E-06-1.65436E-24
 -1       570 9.44069E-05 6.94340E-07 0.00000E+00
 -1       571 9.89123E-05 1.59063E-07 8.27181E-25
 -1       572 9.90422E-05 3.03702E-07-8.27181E-25
 -1       573 9.91730E-05 3.78421E-07 1.65436E-24
 -1       574 9.93044E-05 3.99232E-07 1.65436E-24
 -1       575 9.94358E-05 3.82215E-07 0.00000E+00
 -1       576 9.95674E-05 3.43555E-07 1.65436E-24
 -1       577 9.96989E-05 2.99445E-07 3.30872E-24
 -1       578 9.98305E-05 2.66094E-07 0.00000E+00
 -1       579 9.99621E-05 2.59710E-07-6.61744E-24
 -1       580 1.00094E-04 2.96504E-07 0.00000E+00
 -1       581 1.00225E-04 3.92685E-07 0.00000E+00
 -1       582 1.00357E-04 5.64447E-07 0.00000E+00
 -1       583 1.00488E-04 8.27972E-07 0.00000E+00
 -1       584 1.00620E-04 1.19928E-06 0.00000E+00
 -1       585 1.00751E-04 1.69430E-06-6.61744E-24
 -1       586 9.81167E-05-1.37088E-08 0.00000E+00
 -1       587 9.73503E-05 4.32015E-08 0.00000E+00
 -1       588 9.65430E-05 9.99189E-08 1.65436E-24
 -1       589 9.57523E-05 1.56092E-07-4.13590E-25
 -1       590 9.50358E-05 2.11174E-07 0.00000E+00
 -1       591 9.86058E-05 2.06104E-07 8.27181E-25
 -1       592 9.84445E-05 4.15676E-07 0.00000E+00
 -1       593 9.83025E-05 5.71461E-07 0.00000E+00
 -1       594 9.81755E-05 6.85473E-07-1.65436E-24
 -1       595 9.80595E-05 7.69815E-07 0.00000E+00
 -1       596 9.79500E-05 8.36491E-07-8.27181E-25
 -1       597 9.78425E-05 8.97504E-07-1.65436E-24
 -1       598 9.77327E-05 9.64840E-07 8.27181E-25
 -1       599 9.76159E-05 1.05049E-06 1.65436E-24
 -1       600 9.74879E-05 1.16643E-06 8.27181E-25
 -1       601 9.73440E-05 1.32464E-06 0.00000E+00
 -1       602 9.71799E-05 1.53711E-06-8.27181E-25
 -1       603 9.69911E-05 1.81584E-06 8.27181E-25
 -1       604 9.67735E-05 2.17289E-06-7.23783E-25
 -1       605 9.65229E-05 2.62023E-06 0.00000E+00
 -1       606 1.00927E-04 3.23066E-06 0.00000E+00
 -1       607 1.00968E-04 4.28086E-06 3.30872E-24
 -1       608 1.01007E-04 5.46962E-06 0.00000E+00
 -1       609 1.01046E-04 6.78712E-06 3.30872E-24
 -1       610 1.01084E-04 8.22347E-06 0.00000E+00
 -1       611 1.01123E-04 9.76864E-06 0.00000E+00
 -1       612 1.01161E-04 1.14126E-05-3.30872E-24
 -1       613 1.01199E-04 1.31453E-05 0.00000E+00
 -1       614 1.01236E-04 1.49566E-05-3.30872E-24
 -1       615 1.01274E-04 1.68366E-05 0.00000E+00
 -1       616 1.01311E-04 1.87752E-05 0.00000E+00
 -1       617 1.01349E-04 2.07623E-05 0.00000E+00
 -1       618 1.01386E-04 2.27880E-05 0.00000E+00
 -1       619 1.01423E-04 2.48421E-05 0.00000E+00
 -1       620 1.01460E-04 2.69146E-05 0.00000E+00
 -1       621 1.00070E-04 2.46895E-06-3.30872E-24
 -1       622 9.92578E-05 2.61064E-06 0.00000E+00
 -1       623 9.84574E-05 2.75228E-06 3.30872E-24
 -1       624 9.76802E-05 2.89357E-06-1.65436E-24
 -1       625 9.69373E-05 3.03428E-06-3.30872E-24
 -1       626 1.00668E-04 3.29897E-06 0.00000E+00
 -1       627 1.00396E-04 4.42092E-06 0.00000E+00
 -1       628 1.00073E-04 5.67927E-06-6.61744E-24
 -1       629 9.97052E-05 7.05846E-06 0.00000E+00
 -1       630 9.92974E-05 8.54298E-06-6.61744E-24
 -1       631 9.88559E-05 1.01171E-05 0.00000E+00
 -1       632 9.83865E-05 1.17652E-05 0.00000E+00
 -1       633 9.78951E-05 1.34716E-05 0.00000E+00
 -1       634 9.73877E-05 1.52206E-05 0.00000E+00
 -1       635 9.68702E-05 1.69965E-05 0.00000E+00
 -1       636 9.63483E-05 1.87836E-05 3.30872E-24
 -1       637 9.58281E-05 2.05663E-05 0.00000E+00
 -1       638 9.53152E-05 2.23289E-05 3.30872E-24
 -1       639 9.48154E-05 2.40557E-05-8.27181E-25
 -1       640 9.43340E-05 2.57309E-05-1.65436E-24
 -1       656 9.97161E-05 2.87263E-05 0.00000E+00
 -1       657 9.83549E-05 2.84455E-05 0.00000E+00
 -1       658 9.72526E-05 2.81658E-05 0.00000E+00
 -1       659 9.62469E-05 2.78864E-05 0.00000E+00
 -1       660 9.51748E-05 2.76060E-05 3.30872E-24
 -1       661 1.00859E-04 3.11247E-05 3.30872E-24
 -1       662 1.00208E-04 3.33069E-05-1.65436E-24
 -1       663 9.95423E-05 3.55255E-05 3.30872E-24
 -1       664 9.88692E-05 3.77666E-05 1.65436E-24
 -1       665 9.81932E-05 4.00156E-05 3.30872E-24
 -1       666 9.75198E-05 4.22582E-05 0.00000E+00
 -1       667 9.68542E-05 4.44800E-05-3.30872E-24
 -1       668 9.62019E-05 4.66666E-05 1.65436E-24
 -1       669 9.55683E-05 4.88037E-05 0.00000E+00
 -1       670 9.49589E-05 5.08767E-05 0.00000E+00
 -1       671 9.43790E-05 5.28712E-05 0.00000E+00
 -1       672 9.38341E-05 5.47723E-05 0.00000E+00
 -1       673 9.33297E-05 5.65653E-05-3.30872E-24
 -1       674 9.28704E-05 5.82348E-05 1.65436E-24
 -1       675 9.24633E-05 5.97663E-05 0.00000E+00
 -1       676 9.83839E-05 6.20105E-05 0.00000E+00
 -1       677 9.71186E-05 6.18352E-05 3.30872E-24
 -1       678 9.58564E-05 6.16600E-05 0.00000E+00
 -1       679 9.45991E-05 6.14854E-05-1.65436E-24
 -1       680 9.33481E-05 6.13109E-05 0.00000E+00
 -1       771 2.59478E-05-9.24149E-07-5.29396E-23
 -1       772 2.18774E-05 5.32624E-06 2.64698E-23
 -1       773 1.83289E-05 1.02042E-05 0.00000E+00
 -1       774 1.52607E-05 1.38158E-05 0.00000E+00
 -1       775 1.26311E-05 1.62693E-05-5.29396E-23
 -1       776 1.03968E-05 1.76763E-05 2.64698E-23
 -1       777 8.51421E-06 1.81502E-05 0.00000E+00
 -1       778 6.93882E-06 1.78068E-05-2.64698E-23
 -1       779 5.62605E-06 1.67635E-05 5.29396E-23
 -1       780 4.53075E-06 1.51394E-05 2.64698E-23
 -1       781 3.60775E-06 1.30549E-05 0.00000E+00
 -1       782 2.81157E-06 1.06314E-05 2.64698E-23
 -1       783 2.09676E-06 7.99101E-06 0.00000E+00
 -1       784 1.41838E-06 5.25666E-06-2.64698E-23
 -1       785 7.31042E-07 2.55126E-06-5.29396E-23
 -1       786 9.45551E-05 4.84098E-07 8.27181E-25
 -1       787 9.46668E-05 6.41536E-07 8.27181E-25
 -1       788 9.47782E-05 7.47251E-07-3.30872E-24
 -1       789 9.48906E-05 8.13978E-07-1.65436E-24
 -1       790 9.50032E-05 8.54349E-07-3.30872E-24
 -1       791 9.51160E-05 8.80946E-07 1.65436E-24
 -1       792 9.52288E-05 9.06317E-07 0.00000E+00
 -1       793 9.53416E-05 9.43005E-07-1.65436E-24
 -1       794 9.54545E-05 1.00359E-06-3.30872E-24
 -1       795 9.55673E-05 1.10068E-06-1.65436E-24
 -1       796 9.56802E-05 1.24700E-06 0.00000E+00
 -1       797 9.57929E-05 1.45535E-06 1.65436E-24
 -1       798 9.59056E-05 1.73871E-06 0.00000E+00
 -1       799 9.60178E-05 2.11019E-06 0.00000E+00
 -1       800 9.61301E-05 2.58314E-06 0.00000E+00
 -1       801 8.70569E-05 3.35180E-07 0.00000E+00
 -1       802 6.89972E-05 2.90752E-07 0.00000E+00
 -1       803 4.57693E-05 1.52735E-07 0.00000E+00
 -1       804 2.28647E-05 1.33218E-08 0.00000E+00
 -1       805 5.77383E-06-2.34529E-08 2.64698E-23
 -1       806 9.42430E-05 4.21980E-07 0.00000E+00
 -1       807 9.40437E-05 5.49322E-07 0.00000E+00
 -1       808 9.38517E-05 6.54248E-07-3.30872E-24
 -1       809 9.36641E-05 7.46138E-07 0.00000E+00
 -1       810 9.34776E-05 8.34336E-07-3.30872E-24
 -1       811 9.32890E-05 9.28123E-07-1.65436E-24
 -1       812 9.30948E-05 1.03677E-06 3.30872E-24
 -1       813 9.28915E-05 1.16953E-06 0.00000E+00
 -1       814 9.26757E-05 1.33566E-06 0.00000E+00
 -1       815 9.24439E-05 1.54442E-06 8.27181E-25
 -1       816 9.21926E-05 1.80505E-06 0.00000E+00
 -1       817 9.19185E-05 2.12678E-06-1.65436E-24
 -1       818 9.16179E-05 2.51885E-06 0.00000E+00
 -1       819 9.12878E-05 2.99043E-06 1.24077E-24
 -1       820 9.09248E-05 3.55070E-06-3.30872E-24
 -1       821 9.61009E-05 3.92507E-06 0.00000E+00
 -1       822 9.59535E-05 4.87546E-06-1.65436E-24
 -1       823 9.58063E-05 6.00299E-06 0.00000E+00
 -1       824 9.56575E-05 7.28793E-06 0.00000E+00
 -1       825 9.55084E-05 8.71004E-06 3.30872E-24
 -1       826 9.53589E-05 1.02487E-05-1.65436E-24
 -1       827 9.52092E-05 1.18829E-05-3.30872E-24
 -1       828 9.50593E-05 1.35914E-05 1.65436E-24
 -1       829 9.49093E-05 1.53527E-05-3.30872E-24
 -1       830 9.47593E-05 1.71451E-05 0.00000E+00
 -1       831 9.46094E-05 1.89470E-05 0.00000E+00
 -1       832 9.44597E-05 2.07366E-05 0.00000E+00
 -1       833 9.43102E-05 2.24920E-05 3.30872E-24
 -1       834 9.41622E-05 2.41917E-05 0.00000E+00
 -1       835 9.40139E-05 2.58143E-05-1.65436E-24
 -1       836 9.54517E-05 3.34237E-06 0.00000E+00
 -1       837 9.45137E-05 3.51869E-06-1.65436E-24
 -1       838 9.34889E-05 3.69480E-06 0.00000E+00
 -1       839 9.24406E-05 3.87009E-06 1.65436E-24
 -1       840 9.14324E-05 4.04505E-06-8.27181E-25
 -1       856 9.37712E-05 2.89422E-05 0.00000E+00
 -1       857 9.36616E-05 3.07778E-05-8.27181E-25
 -1       858 9.35517E-05 3.28107E-05 0.00000E+00
 -1       859 9.34406E-05 3.50057E-05 1.65436E-24
 -1       860 9.33290E-05 3.73276E-05 3.30872E-24
 -1       861 9.32170E-05 3.97413E-05 0.00000E+00
 -1       862 9.31048E-05 4.22113E-05 0.00000E+00
 -1       863 9.29926E-05 4.47023E-05 0.00000E+00
 -1       864 9.28803E-05 4.71787E-05 0.00000E+00
 -1       865 9.27682E-05 4.96052E-05 0.00000E+00
 -1       866 9.26563E-05 5.19464E-05 0.00000E+00
 -1       867 9.25448E-05 5.41669E-05 1.65436E-24
 -1       868 9.24335E-05 5.62316E-05-3.30872E-24
 -1       869 9.23230E-05 5.81055E-05-1.65436E-24
 -1       870 9.22128E-05 5.97535E-05-3.30872E-24
 -1       871 9.26816E-05 2.73247E-05 0.00000E+00
 -1       872 9.16792E-05 2.73083E-05 0.00000E+00
 -1       873 9.07871E-05 2.72914E-05 0.00000E+00
 -1       874 8.99250E-05 2.72737E-05-4.13590E-25
 -1       875 8.90123E-05 2.72552E-05-1.65436E-24
 -1       876 9.34740E-05 2.89586E-05 3.30872E-24
 -1       877 9.30295E-05 3.07166E-05-3.30872E-24
 -1       878 9.25401E-05 3.25944E-05 6.61744E-24
 -1       879 9.20124E-05 3.45759E-05 0.00000E+00
 -1       880 9.14519E-05 3.66449E-05 0.00000E+00
 -1       881 9.08646E-05 3.87852E-05 3.30872E-24
 -1       882 9.02565E-05 4.09810E-05 0.00000E+00
 -1       883 8.96335E-05 4.32162E-05 0.00000E+00
 -1       884 8.90017E-05 4.54749E-05 6.61744E-24
 -1       885 8.83669E-05 4.77413E-05-3.30872E-24
 -1       886 8.77351E-05 4.99994E-05 0.00000E+00
 -1       887 8.71123E-05 5.22333E-05 0.00000E+00
 -1       888 8.65044E-05 5.44270E-05 0.00000E+00
 -1       889 8.59164E-05 5.65643E-05 1.65436E-24
 -1       890 8.53553E-05 5.86295E-05 3.30872E-24
 -1       891 9.09890E-05 6.10522E-05 0.00000E+00
 -1       892 8.99581E-05 6.09620E-05 1.65436E-24
 -1       893 8.89190E-05 6.08718E-05 3.30872E-24
 -1       894 8.77782E-05 6.07817E-05-8.27181E-25
 -1       895 8.64421E-05 6.06914E-05 0.00000E+00
 -1       956 9.03713E-05 5.12043E-06 0.00000E+00
 -1       957 9.02123E-05 6.17979E-06 0.00000E+00
 -1       958 9.00527E-05 7.37088E-06 0.00000E+00
 -1       959 8.98926E-05 8.67709E-06 3.30872E-24
 -1       960 8.97323E-05 1.00818E-05-3.30872E-24
 -1       961 8.95718E-05 1.15681E-05 1.65436E-24
 -1       962 8.94112E-05 1.31194E-05 3.30872E-24
 -1       963 8.92505E-05 1.47189E-05-1.65436E-24
 -1       964 8.90897E-05 1.63496E-05-6.61744E-24
 -1       965 8.89290E-05 1.79949E-05 0.00000E+00
 -1       966 8.87682E-05 1.96379E-05-6.61744E-24
 -1       967 8.86076E-05 2.12619E-05 0.00000E+00
 -1       968 8.84470E-05 2.28499E-05 0.00000E+00
 -1       969 8.82868E-05 2.43853E-05 0.00000E+00
 -1       970 8.81270E-05 2.58514E-05 0.00000E+00
 -1       971 8.77767E-05 2.86444E-05 3.30872E-24
 -1       972 8.75802E-05 3.02552E-05 1.65436E-24
 -1       973 8.73832E-05 3.20420E-05 0.00000E+00
 -1       974 8.71856E-05 3.39813E-05 0.00000E+00
 -1       975 8.69876E-05 3.60500E-05-6.61744E-24
 -1       976 8.67893E-05 3.82244E-05 0.00000E+00
 -1       977 8.65908E-05 4.04812E-05 0.00000E+00
 -1       978 8.63922E-05 4.27967E-05 3.30872E-24
 -1       979 8.61935E-05 4.51473E-05 0.00000E+00
 -1       980 8.59948E-05 4.75095E-05-3.30872E-24
 -1       981 8.57962E-05 4.98596E-05 0.00000E+00
 -1       982 8.55978E-05 5.21739E-05 3.30872E-24
 -1       983 8.53998E-05 5.44290E-05 0.00000E+00
 -1       984 8.52029E-05 5.66012E-05 0.00000E+00
 -1       985 8.50065E-05 5.86670E-05 0.00000E+00
 -3
    1PSTEP                         2           1           1          
  100CL  101 1.000000000         409                     0    1           1
 -4  STRESS      6    1
 -5  SXX         1    4    1    1
 -5  SYY         1    4    2    2
 -5  SZZ         1    4    3    3
 -5  SXY         1    4    1    2
 -5  SYZ         1    4    2    3
 -5  SZX         1    4    3    1
 -1         1-4.59797E+06-1.90306E+06-1.06028E+06-2.28514E+06-3.63798E-10 1.63855E-08
 -1         2-1.62190E+03-2.55944E+06-4.24956E+03-8.36347E+03-6.57479E-10 3.27183E-09
 -1         3-1.29259E+02-1.50616E+06 4.05434E+02-9.81483E+02-1.40616E-10 6.08816E-09
 -1         5-3.21036E+01 5.57134E+05 1.60511E+01 1.57423E+00 2.51095E-10 5.95719E-09
 -1         8-3.29452E+06-1.11752E+06-5.14571E+05-1.16122E+06 2.13913E-09-5.74801E-09
 -1         9-3.70206E+06-1.55297E+06-6.67550E+05-8.39036E+05-2.66882E-09-1.01281E-09
 -1        10-1.42964E+03-1.57830E+06-2.77779E+03-6.71355E+03 3.57659E-09 2.01507E-09
 -1        12-2.56401E+01 5.57168E+05 5.21369E+02 1.01908E+01 4.98375E-10 1.40899E-08
 -1        15 4.05085E+03 2.19508E+03 1.25461E+04 1.21371E+01-1.48082E-07-2.25927E-05
 -1        16-5.96459E+06-1.90516E+06-9.18019E+05-1.92329E+06 1.08412E-09-6.45984E-09
 -1        17-1.00238E+06-7.90867E+05-1.58202E+05-6.89466E+05 1.04570E-08 7.45058E-09
 -1        18 3.46870E+04 8.98128E+03-2.34425E+04-1.36985E+05 8.88576E-10 8.31460E-09
 -1        19 1.65363E+05 1.99659E+05-1.09113E+03 1.88810E+04-2.07219E-09-3.02607E-09
 -1        20 9.07995E+04-2.30055E+05-4.33178E+04 7.82597E+04 6.13606E-09-1.12414E-08
 -1        21-1.44309E+02-5.00120E+05-2.06447E+03-5.25577E+02 1.03253E-09 8.13202E-09
 -1        24-4.12755E+06-1.48025E+06-4.68875E+05-1.92970E+06-2.25458E-08-7.92594E-09
 -1        25 3.82964E+04 6.74332E+04 3.71139E+04-5.95596E+05-3.58941E-09-4.26226E-09
 -1        26-2.85577E+04 1.40723E+05-7.48744E+03-3.32896E+04 9.61154E-10 3.95403E-11
 -1        27-4.58439E+04-1.37804E+05-6.31328E+04 1.05152E+05 3.06803E-09-3.41788E-09
 -1        28-5.21208E+03-1.52456E+05 2.58690E+03 5.51589E+04 8.28163E-09-3.68879E-09
 -1        32-1.29996E+06-1.08597E+05 3.98497E+05-1.84995E+06-1.31549E-08 2.77510E-09
 -1        33-1.91557E+05 1.27954E+05 4.11062E+04-5.57075E+04 6.72041E-10-1.36424E-09
 -1        34-3.18191E+05-4.45013E+04-7.01863E+03 1.00463E+05 4.94524E-09 3.16550E-09
 -1        35-3.93440E+04-5.42391E+04-2.86660E+03 8.97323E+04-2.19835E-09-1.30131E-08
 -1        51 3.16953E+04-6.35997E+05 6.26341E+04-1.77307E+06-1.74623E-10-1.99361E-08
 -1        52 2.25910E+04-6.41796E+05 4.35202E+04-1.98605E+06 7.71252E-10-6.76810E-08
 -1        53 2.13478E+04-6.69536E+05 4.04572E+04-1.76762E+06 5.96629E-10-1.89466E-08
 -1        54 5.15584E+04-6.70778E+05 6.93077E+04-1.99146E+06-1.13505E-09 1.29876E-08
 -1        55 1.01473E+05-6.97414E+05 1.28506E+05-1.76615E+06-1.19326E-09 9.70613E-09
 -1        56-8.55397E+06-9.64456E+05-7.34741E+05-3.36513E+06 8.00355E-10 3.49246E-09
 -1        57-9.02807E+06-1.49091E+06-5.01254E+05-3.12806E+06 2.83399E-09-5.65342E-09
 -1        58-8.65958E+06-1.25160E+06-1.71947E+05-3.36142E+06-6.22094E-10-1.11322E-09
 -1        59-8.88673E+06-1.17266E+06-1.04417E+05-3.15181E+06-3.49246E-10-9.32778E-09
 -1        60-8.69379E+06-1.27776E+06-4.03952E+04-3.34289E+06-4.09841E-10-1.69857E-08
 -1        61-8.79420E+06-1.19163E+06-2.22105E+04-3.22670E+06-1.12732E-09-2.90856E-08
 -1        62-8.74985E+06-1.23328E+06-1.20695E+04-3.28525E+06 1.04592E-09-1.05983E-08
 -1        63-8.69085E+06-1.28616E+06-8.27240E+03-3.34195E+06 5.89353E-09 4.45561E-09
 -1        64-8.79706E+06-1.18312E+06-1.07545E+04-3.22766E+06 1.38971E-09 5.19208E-10
 -1        65-8.64017E+06-1.34956E+06-2.13702E+04-3.41099E+06-1.80080E-10 7.49651E-10
 -1        66-8.80228E+06-1.16868E+06-3.71476E+04-3.21749E+06 6.20730E-10 1.05829E-08
 -1        67-8.69050E+06-1.36025E+06-9.63112E+04-3.36948E+06 1.68484E-10-1.50976E-09
 -1        68-8.74634E+06-1.17376E+06-1.60257E+05-3.26843E+06-1.22600E-09 4.13274E-09
 -1        69-8.93970E+06-1.53582E+06-4.63674E+05-3.21071E+06 1.42609E-09 1.35333E-09
 -1        70-8.55422E+06-9.97948E+05-6.80496E+05-3.37464E+06-2.40107E-09 1.22236E-09
 -1        86 8.09887E+02-2.55904E+06-4.59912E+03 4.18178E+03 9.73046E-10-4.63267E-10
 -1        87-4.70445E+03-2.55865E+06-9.09552E+03 1.56288E+03 1.17961E-09-1.12147E-08
 -1        88 3.89610E+03-2.55981E+06-1.50814E+04-5.74658E+03-1.52431E-09 2.31041E-09
 -1        89-2.69308E+04-2.55851E+06-3.66696E+04-3.83754E+03-1.89357E-09-1.29723E-09
 -1        90 2.30263E+04-2.55916E+06-5.80457E+04 9.57500E+03 2.56114E-09 4.42375E-09
 -1       121-2.47804E+02-1.50703E+06 3.31681E+02 4.90333E+02-4.86082E-10 2.32867E-08
 -1       122 3.55047E+01-1.50609E+06 8.67858E+02-1.95390E+03-8.62542E-10 1.48284E-08
 -1       123-3.66594E+02-1.50713E+06 1.32007E+03 1.46120E+03-1.43643E-09 2.04273E-09
 -1       124 1.79627E+03-1.50514E+06 3.59402E+03-4.00186E+03-1.14079E-09 7.99628E-09
 -1       125-1.61318E+03-1.50805E+06 5.31013E+03 2.53763E+03-2.48019E-09 7.00493E-09
 -1       191-3.42282E+01 5.57177E+05 1.81470E+01-7.95502E-01 3.39425E-10 2.24099E-09
 -1       192-3.35996E+01 5.57135E+05 3.40289E+01 4.20591E+00 5.14648E-10 8.36644E-09
 -1       193-3.81917E+01 5.57176E+05 6.22683E+01-3.46391E+00 6.07317E-10 3.12320E-09
 -1       194-3.84075E+01 5.57140E+05 1.28810E+02 9.15161E+00 3.91962E-10-1.46611E-08
 -1       195-4.58035E+01 5.57172E+05 2.50925E+02-5.81215E+00 9.42762E-10 5.12955E-09
 -1       251-4.49001E+06 1.01409E+05-2.39406E+05-2.29685E+04 2.40496E-09 3.60887E-09
 -1       252-4.56406E+06-1.17761E+05-1.64371E+05 1.87732E+04 5.66024E-09-4.83124E-09
 -1       253-4.51815E+06 1.62953E+04-6.15223E+04 1.24886E+04-7.31028E-10-1.08412E-09
 -1       254-4.53077E+06-1.89324E+04-3.81578E+04-3.34711E+03 5.87641E-09-1.20585E-08
 -1       255-4.52306E+06 2.62309E+03-1.58110E+04-8.48707E+02 1.64106E-09-2.11166E-08
 -1       256-4.52494E+06-3.10288E+03-9.48061E+03 5.42007E+03-1.33858E-08-6.38977E-09
 -1       257-4.52389E+06 4.75311E+02-4.86677E+03 3.72007E+03-3.68581E-07 1.64063E-08
 -1       258-4.52409E+06-9.42068E+02-4.23288E+03 1.00716E+03-7.28433E-07 1.11413E-08
 -1       259-4.52389E+06 4.63344E+02-4.78047E+03 3.56396E+03-3.65387E-07-1.91405E-08
 -1       260-4.52494E+06-3.00565E+03-9.23720E+03 5.27305E+03 1.77158E-10-6.52608E-09
 -1       261-4.52306E+06 2.53807E+03-1.53578E+04-5.45627E+02-5.97125E-09-1.13578E-08
 -1       262-4.53080E+06-1.83544E+04-3.70911E+04-2.91032E+03 8.45447E-09-1.04287E-08
 -1       263-4.51811E+06 1.58042E+04-5.96882E+04 1.17484E+04 1.05054E-08-2.48838E-09
 -1       264-4.56461E+06-1.14472E+05-1.59939E+05 1.75648E+04 4.66014E-09-6.54836E-10
 -1       265-4.48950E+06 9.86178E+04-2.32099E+05-2.10206E+04-1.65764E-08 1.45810E-08
 -1       266-7.10414E+04-3.28333E+04 1.64050E+05-2.49851E+02-3.36608E-07-5.16415E-05
 -1       267 8.22852E+04 3.83750E+04 1.16329E+05 2.87139E+02-6.74991E-07-1.03243E-04
 -1       268-1.12047E+04-5.48530E+03 4.30616E+04-3.74006E+01-4.88766E-07-7.46960E-05
 -1       269 1.32433E+04 6.59581E+03 2.81423E+04 4.34710E+01-3.01732E-07-4.61503E-05
 -1       270-2.01118E+03-1.08354E+03 1.35138E+04-6.06664E+00-2.24370E-07-3.42698E-05
 -1       271-8.69814E+06-1.04993E+06-7.09374E+05-3.40456E+06 1.45519E-11-1.21945E-08
 -1       272-9.03225E+06-1.55368E+06-4.65591E+05-3.31236E+06-1.15142E-09-8.94943E-10
 -1       273-8.84723E+06-1.23669E+06-1.67206E+05-3.35362E+06-8.14907E-10 2.08820E-09
 -1       274-8.84799E+06-1.34008E+06-9.57209E+04-3.38921E+06 3.97631E-09-7.25413E-09
 -1       275-8.87898E+06-1.24741E+06-3.89484E+04-3.33341E+06-1.52795E-10-1.38480E-08
 -1       276-8.80581E+06-1.33263E+06-2.11111E+04-3.42128E+06 2.28601E-09-9.55424E-10
 -1       277-8.88995E+06-1.24149E+06-1.03741E+04-3.32295E+06-8.84484E-10 1.36529E-08
 -1       278-8.79451E+06-1.33876E+06-8.07581E+03-3.43335E+06-3.81988E-11 2.53365E-08
 -1       279-8.89091E+06-1.24061E+06-9.16592E+03-3.32190E+06-1.15961E-09 1.41713E-08
 -1       280-8.80213E+06-1.33526E+06-1.77350E+04-3.42547E+06 2.50293E-09-1.07775E-09
 -1       281-8.88192E+06-1.24546E+06-3.22492E+04-3.33045E+06 3.04772E-09 5.87534E-10
 -1       282-8.83817E+06-1.33993E+06-7.90174E+04-3.39713E+06 7.99082E-09-1.58616E-09
 -1       283-8.85422E+06-1.23828E+06-1.38003E+05-3.34894E+06 5.29053E-09-6.46105E-09
 -1       284-8.99406E+06-1.51183E+06-3.84013E+05-3.32853E+06-1.68438E-09-7.45058E-09
 -1       285-8.72860E+06-1.08713E+06-5.85532E+05-3.39414E+06-2.48838E-09-1.80444E-09
 -1       301 5.94314E+04-3.86088E+04 2.07603E+05-3.85716E+04 1.38243E-09-7.68057E-09
 -1       302 2.59249E+04 6.57739E+03 1.38699E+05-4.99092E+04-1.63254E-09-1.26124E-09
 -1       303 3.95924E+03-2.23359E+04 1.22198E+05-3.89363E+04 1.50612E-09-1.36895E-08
 -1       304 4.28946E+04 2.10597E+04 1.95771E+05-4.98577E+04-8.29459E-10-4.64740E-09
 -1       305 1.02385E+05-5.29519E+04 3.40901E+05-3.82764E+04 2.06637E-09 3.17004E-09
 -1       306-4.67417E+06-5.88740E+05-2.99833E+05-1.81687E+06-9.74978E-10 3.78350E-10
 -1       307-4.76112E+06-8.49577E+05-1.95826E+05-1.83448E+06 1.84241E-09 3.61251E-09
 -1       308-4.74023E+06-6.63146E+05-7.09099E+04-1.79167E+06 3.22871E-11-7.25049E-09
 -1       309-4.68102E+06-7.64414E+05-4.03395E+04-1.87329E+06-2.25555E-09-7.39055E-09
 -1       310-4.75476E+06-6.66062E+05-1.66175E+04-1.78177E+06 2.45018E-09-2.89947E-09
 -1       311-4.66357E+06-7.62031E+05-9.09255E+03-1.88849E+06 4.73460E-09 2.48224E-09
 -1       312-4.75898E+06-6.63804E+05-4.73837E+03-1.77779E+06 2.49656E-09 7.66573E-09
 -1       313-4.66076E+06-7.62872E+05-4.22499E+03-1.89151E+06-3.15663E-09 2.35627E-09
 -1       314-4.75789E+06-6.64922E+05-5.53722E+03-1.77903E+06-4.08181E-09 1.36242E-09
 -1       315-4.66738E+06-7.58437E+05-1.11723E+04-1.88321E+06-2.44154E-09 9.58835E-09
 -1       316-4.75140E+06-6.68961E+05-2.09132E+04-1.78536E+06 7.26686E-10 5.05133E-09
 -1       317-4.69042E+06-7.60549E+05-5.07399E+04-1.86317E+06 1.70985E-10-4.73847E-09
 -1       318-4.73332E+06-6.64917E+05-8.93154E+04-1.79747E+06 1.82808E-10-3.69619E-09
 -1       319-4.79025E+06-8.69635E+05-2.46713E+05-1.81702E+06-1.78966E-09 2.91402E-09
 -1       320-4.65160E+06-5.69288E+05-3.77425E+05-1.82728E+06-7.97809E-09 5.47152E-09
 -1       336 1.70535E+03-1.64915E+06-1.07021E+04 4.17019E+03 8.02697E-09-8.13452E-09
 -1       337-4.39474E+03-1.65244E+06-1.27800E+04-9.88685E+03 1.01423E-08-2.42226E-08
 -1       338 1.58003E+03-1.64917E+06-1.67580E+04 5.70462E+03 1.07166E-08-6.50471E-09
 -1       339-1.94695E+04-1.66139E+06-3.82031E+04-1.28335E+04 1.28166E-08 5.21322E-09
 -1       340 1.47208E+04-1.64052E+06-5.79197E+04 7.09785E+03 1.37006E-08 9.96624E-09
 -1       406 1.31704E+01 5.57149E+05 1.02818E+03-4.56395E+00 1.29182E-09 1.16906E-08
 -1       407 3.33304E+02 5.57348E+05 2.18734E+03-9.24472E+00 3.18778E-10 1.67602E-08
 -1       408 1.09964E+03 5.56991E+05 4.36695E+03 1.46352E+01 1.49976E-09 2.40834E-09
 -1       409 4.69920E+03 5.58742E+05 9.83246E+03-1.77545E+02-4.34284E-10-1.68002E-08
 -1       410 1.35476E+04 5.55744E+05 2.00712E+04 1.80561E+02 1.38425E-09 1.62800E-09
 -1       521-8.87188E+06-1.10203E+06-6.00000E+05-3.44786E+06 3.30328E-09-2.24973E-08
 -1       522-9.12288E+06-1.55621E+06-3.93215E+05-3.40250E+06 3.74803E-09-1.15542E-08
 -1       523-9.00360E+06-1.25346E+06-1.41433E+05-3.39793E+06-2.98405E-09-8.90577E-09
 -1       524-8.96014E+06-1.38407E+06-8.08459E+04-3.47806E+06-7.47150E-10-8.14907E-10
 -1       525-9.03280E+06-1.25974E+06-3.29242E+04-3.37793E+06 3.82443E-09 1.14906E-08
 -1       526-8.92445E+06-1.37848E+06-1.79811E+04-3.50665E+06 5.85351E-09 1.62891E-09
 -1       527-9.04040E+06-1.25637E+06-8.99888E+03-3.37098E+06 4.44476E-09-1.71400E-09
 -1       528-8.92142E+06-1.37677E+06-7.44382E+03-3.50838E+06 1.30422E-09-1.87538E-09
 -1       529-9.03585E+06-1.26123E+06-9.15884E+03-3.37630E+06 1.44701E-09 4.25280E-09
 -1       530-8.94008E+06-1.36139E+06-1.78848E+04-3.48564E+06-2.16096E-09-2.36469E-11
 -1       531-9.02019E+06-1.27296E+06-3.32820E+04-3.39253E+06 2.25555E-10 6.34464E-09
 -1       532-8.98893E+06-1.35384E+06-8.08511E+04-3.44210E+06-1.85992E-10 3.13594E-09
 -1       533-8.98583E+06-1.27150E+06-1.41824E+05-3.41812E+06 2.69301E-09-7.49424E-09
 -1       534-9.15943E+06-1.52023E+06-3.93846E+05-3.36126E+06 1.37334E-10-1.41008E-08
 -1       535-8.85298E+06-1.12007E+06-6.00802E+05-3.46874E+06-8.34552E-09-8.73115E-11
 -1       536-6.63701E+04-3.02973E+04 8.67809E+04-2.41771E+03 3.09410E-09-2.18279E-10
 -1       537-2.70460E+04 3.44501E+04 5.92451E+04-7.07767E+04-1.19326E-08-8.88758E-09
 -1       538-5.21883E+04-4.23269E+03 2.23566E+04-2.22713E+03 2.09184E-09-2.75577E-10
 -1       539-4.47386E+04 3.99838E+03 1.35475E+04-7.10950E+04 2.95859E-09-1.35265E-09
 -1       540-5.01223E+04-7.20751E+02 5.57116E+03-2.10201E+03-3.85626E-10-7.07314E-09
 -1       541-4.82477E+04 4.56800E+02 3.21833E+03-7.12991E+04-3.37332E-09-5.12091E-09
 -1       542-4.97472E+04-1.48891E+02 1.30311E+03-2.02889E+03-4.48381E-10-5.19231E-09
 -1       543-4.94257E+04 2.06316E+02 6.38112E+02-7.14153E+04-3.35604E-10-8.58108E-10
 -1       544-4.96407E+04 1.86545E+00 4.23853E+01-1.98652E+03 1.56888E-09-1.55444E-09
 -1       545-4.99363E+04 1.58117E+02-4.84842E+02-7.14687E+04-2.92039E-09-7.21650E-09
 -1       546-4.95581E+04 1.21606E+02-1.14800E+03-1.97488E+03 1.73122E-09-4.67003E-09
 -1       547-5.03570E+04-7.12556E+02-2.82638E+03-7.14531E+04-5.60897E-09-1.42563E-10
 -1       548-4.91650E+04 7.88715E+02-4.91194E+03-2.00237E+03-2.23690E-09 3.39423E-09
 -1       549-5.32630E+04-7.50356E+03-1.26660E+04-7.13058E+04-3.57704E-09 3.90264E-09
 -1       550-4.62208E+04 6.20556E+03-1.90144E+04-2.12258E+03 1.56160E-09-6.76664E-09
 -1       551 2.89850E+04-6.95663E+05 4.37507E+04-1.12149E+06-1.55560E-08 7.74889E-09
 -1       552 3.70678E+04-6.98620E+05 4.81837E+04-1.43328E+06-1.08994E-08 2.19370E-09
 -1       553 2.78811E+04-7.04994E+05 6.96382E+04-1.11879E+06-1.91067E-08 1.29057E-08
 -1       554 6.68345E+04-6.77942E+05 1.42665E+05-1.43360E+06-1.41299E-08 2.62644E-08
 -1       555 1.03075E+05-7.24196E+05 2.64617E+05-1.12018E+06-1.70257E-08 2.49565E-09
 -1       556-6.71732E+04-2.25139E+05 6.48812E+04-3.24401E+05 5.55883E-09-3.17232E-09
 -1       557 6.03846E+03-2.87464E+05 3.38650E+04-3.82665E+05 3.14321E-09 4.48244E-09
 -1       558-6.94566E+04-2.35220E+05 1.34967E+04-3.17051E+05-8.25094E-09 8.76025E-09
 -1       559-6.00158E+03-2.95662E+05 6.91483E+03-3.88513E+05-3.43425E-09 5.16411E-09
 -1       560-7.30358E+04-2.33025E+05 2.73687E+03-3.19296E+05-4.22006E-09 2.21189E-09
 -1       561-1.08462E+04-2.94202E+05 1.49711E+03-3.91713E+05-1.44064E-09 6.67114E-09
 -1       562-7.57927E+04-2.31250E+05 4.92976E+02-3.21220E+05-1.15688E-09-1.23100E-09
 -1       563-1.38699E+04-2.92901E+05 2.92507E+02-3.93712E+05-2.29920E-09 5.20504E-09
 -1       564-7.74756E+04-2.30186E+05-4.75159E+01-3.22382E+05-2.21917E-10 1.28239E-09
 -1       565-1.54173E+04-2.92243E+05-2.83789E+02-3.94714E+05 4.31646E-09 4.18368E-10
 -1       566-7.80262E+04-2.29808E+05-8.18262E+02-3.22778E+05 1.00836E-08 4.22006E-10
 -1       567-1.56454E+04-2.92261E+05-1.90057E+03-3.94698E+05-5.81394E-09-4.12183E-09
 -1       568-7.73237E+04-2.30273E+05-4.06672E+03-3.22387E+05-6.47560E-09-7.03585E-09
 -1       569-1.72063E+04-2.94364E+05-9.57277E+03-3.92723E+05 1.03864E-09 1.08121E-08
 -1       570-7.37702E+04-2.36063E+05-1.90121E+04-3.19930E+05 4.14730E-09 5.37148E-09
 -1       571 3.75106E+05 1.56155E+04 2.31972E+04-9.29516E+04 2.17551E-09 6.95945E-09
 -1       572 3.78548E+05 5.41465E+03 1.13669E+04-1.01888E+05 2.45200E-09 4.72119E-09
 -1       573 3.76453E+05 1.27730E+03 5.04960E+03-9.27032E+04 1.97269E-09 3.19596E-09
 -1       574 3.76853E+05 4.10980E+02 2.53074E+03-1.02157E+05-2.22644E-09 2.25828E-09
 -1       575 3.76583E+05 5.21033E+01 1.19208E+03-9.26714E+04 1.06324E-08 1.08594E-08
 -1       576 3.76612E+05 1.39612E+01 6.05804E+02-1.02193E+05 2.03138E-08-3.33330E-09
 -1       577 3.76602E+05-1.18521E+01 2.95264E+02-9.26673E+04 1.83175E-08-1.40972E-09
 -1       578 3.76597E+05-1.01946E+01 1.54921E+02-1.02198E+05 1.73052E-08-3.05772E-09
 -1       579 3.76645E+05-2.58081E+01 8.21333E+01-9.26668E+04 9.28867E-09-2.09184E-10
 -1       580 3.76658E+05-4.06315E+01 5.69443E+01-1.02193E+05 4.94765E-10 3.11957E-10
 -1       581 3.76728E+05-6.81437E+01 5.23747E+01-9.26716E+04 1.29330E-09 8.84029E-10
 -1       582 3.76779E+05-8.89248E+01 8.52457E+01-1.02140E+05 6.53927E-10-1.23418E-09
 -1       583 3.76849E+05-1.03446E+02 1.46484E+02-9.27200E+04-7.85803E-10 5.15047E-09
 -1       584 3.76988E+05-2.05359E+01 3.29108E+02-1.01728E+05-3.25872E-09 2.37105E-09
 -1       585 3.76959E+05 2.43224E+02 6.53821E+02-9.30836E+04 6.29370E-10-4.89308E-09
 -1       586 6.08230E+02 1.64006E+05 1.53996E+03-2.80193E+05 8.59472E-10 1.62081E-08
 -1       587 9.38108E+02 1.64210E+05 3.28237E+03-3.13317E+05 8.36735E-10 1.29387E-08
 -1       588 1.65951E+03 1.63647E+05 6.49296E+03-2.79898E+05 9.13133E-10 2.20230E-08
 -1       589 6.47309E+03 1.66469E+05 1.45682E+04-3.13231E+05 9.74978E-10 3.07223E-08
 -1       590 1.83783E+04 1.61954E+05 2.94648E+04-2.80276E+05 9.34051E-10 1.60180E-08
 -1       591-1.69555E+05-4.80493E+04-3.54407E+04-8.12639E+04 1.58684E-09 2.32831E-09
 -1       592-1.72170E+05-4.91439E+04-1.81747E+04-9.07059E+04 1.24965E-09-2.06273E-09
 -1       593-1.71870E+05-4.02082E+04-7.69636E+03-8.55520E+04 6.44650E-09 1.63855E-08
 -1       594-1.67923E+05-4.47439E+04-3.79211E+03-9.09344E+04 9.61495E-09 4.28113E-09
 -1       595-1.72086E+05-4.00359E+04-1.75103E+03-8.57108E+04 5.17230E-09 1.01007E-08
 -1       596-1.67646E+05-4.45873E+04-8.86005E+02-9.08936E+04 2.06228E-10 5.58202E-10
 -1       597-1.72120E+05-4.00642E+04-4.78812E+02-8.57120E+04 2.96008E-09-4.26940E-09
 -1       598-1.67616E+05-4.45872E+04-3.76310E+02-9.08805E+04 3.65753E-09-4.63592E-09
 -1       599-1.72115E+05-4.00676E+04-4.70353E+02-8.57094E+04 4.59750E-10 2.48451E-09
 -1       600-1.67636E+05-4.45915E+04-8.63348E+02-9.08837E+04-1.42450E-09-1.11722E-08
 -1       601-1.72072E+05-4.00460E+04-1.70193E+03-8.57029E+04 1.09458E-09 5.50244E-11
 -1       602-1.67898E+05-4.47439E+04-3.68279E+03-9.09102E+04 4.75620E-09 6.57110E-09
 -1       603-1.71850E+05-4.02235E+04-7.47357E+03-8.55471E+04 1.04837E-08 9.14861E-09
 -1       604-1.72050E+05-4.89778E+04-1.76434E+04-9.06331E+04 1.12304E-08-1.29039E-08
 -1       605-1.69557E+05-4.78714E+04-3.44049E+04-8.14186E+04 9.02946E-09-3.93175E-09
 -1       606 1.14916E+05-1.58401E+04-2.72581E+04 4.47888E+04-5.36056E-09-8.28550E-09
 -1       607 1.10354E+05-5.15033E+03-1.35167E+04 4.98730E+04 2.30466E-09-2.88537E-10
 -1       608 1.12929E+05-9.31300E+02-6.04671E+03 4.44473E+04 1.37989E-08 1.10640E-09
 -1       609 1.12372E+05-2.17328E+02-3.04706E+03 5.02443E+04 1.09821E-08 3.91287E-09
 -1       610 1.12648E+05 6.60985E+01-1.45373E+03 4.44080E+04 3.96540E-10-6.69388E-09
 -1       611 1.12523E+05 1.14038E+02-7.31732E+02 5.02854E+04-1.31422E-08-1.12168E-08
 -1       612 1.12555E+05 1.18263E+02-3.50455E+02 4.44044E+04-6.81939E-09-1.41517E-09
 -1       613 1.12492E+05 1.45656E+02-1.58100E+02 5.02892E+04-7.18592E-09 8.86757E-11
 -1       614 1.12497E+05 1.33034E+02-4.24442E+01 4.44036E+04 1.89902E-09-9.45874E-11
 -1       615 1.12452E+05 1.66320E+02 5.56471E+01 5.02890E+04 1.17047E-08 5.97720E-09
 -1       616 1.12453E+05 1.53314E+02 1.76159E+02 4.44044E+04-5.17593E-09 5.85896E-09
 -1       617 1.12450E+05 2.23600E+02 4.07803E+02 5.02870E+04 9.82254E-10 7.83893E-09
 -1       618 1.12399E+05 2.98249E+02 8.24393E+02 4.44049E+04-6.78392E-09 1.13459E-09
 -1       619 1.12720E+05 9.06549E+02 1.85506E+03 5.02818E+04-2.21485E-09 3.13958E-09
 -1       620 1.12124E+05 2.35057E+03 3.74354E+03 4.44037E+04 2.60638E-09-5.19776E-09
 -1       621 1.16247E+03 4.06886E+05 4.88991E+03-2.34811E+04-3.94016E-09 1.06101E-08
 -1       622 6.04129E+02 4.07918E+05 4.91331E+03-2.99729E+04-1.64778E-09 1.55978E-10
 -1       623 2.31058E+02 4.07069E+05 6.92059E+03-2.34713E+04-3.90901E-09-1.03228E-09
 -1       624 3.31191E+03 4.10240E+05 1.40297E+04-2.99040E+04-1.56365E-09-7.72684E-09
 -1       625 8.00410E+03 4.04586E+05 2.61468E+04-2.35448E+04-3.35058E-09 9.45420E-09
 -1       626 2.89013E+05 8.78922E+04 5.99673E+02 1.70813E+05 7.31507E-09-6.08998E-09
 -1       627 2.83536E+05 9.32043E+04 2.91778E+02 1.77159E+05 1.26520E-08-1.01390E-08
 -1       628 2.89156E+05 8.73946E+04 1.19943E+02 1.70604E+05 1.43245E-08 9.15225E-09
 -1       629 2.83112E+05 9.34115E+04 6.72576E+01 1.77419E+05 6.82121E-11-6.21867E-10
 -1       630 2.89107E+05 8.73961E+04 3.75010E+01 1.70536E+05 8.28004E-09-1.97781E-09
 -1       631 2.83003E+05 9.34600E+04 4.04466E+01 1.77398E+05-7.33144E-09-4.56112E-09
 -1       632 2.89053E+05 8.74208E+04 6.18837E+01 1.70500E+05-1.25665E-08-1.65783E-08
 -1       633 2.82959E+05 9.34795E+04 1.23573E+02 1.77370E+05-5.25461E-09 1.25392E-08
 -1       634 2.89014E+05 8.74260E+04 2.47057E+02 1.70482E+05 8.37008E-09-1.97178E-09
 -1       635 2.82964E+05 9.34870E+04 5.31077E+02 1.77364E+05 2.59183E-08 3.18232E-09
 -1       636 2.88983E+05 8.74296E+04 1.08691E+03 1.70470E+05 1.61333E-09 6.56291E-09
 -1       637 2.83196E+05 9.36877E+04 2.40188E+03 1.77350E+05 3.55971E-09 1.18052E-08
 -1       638 2.88908E+05 8.80414E+04 4.94693E+03 1.70193E+05-1.01522E-08-4.26462E-09
 -1       639 2.85762E+05 9.75152E+04 1.17207E+04 1.76529E+05-6.19548E-09 2.45745E-09
 -1       640 2.88731E+05 9.93462E+04 2.44383E+04 1.65399E+05 4.04407E-09-4.13365E-09
 -1       656 2.72392E+04-7.94112E+05-8.38614E+04 3.08545E+03-1.60071E-10 1.68893E-09
 -1       657-3.66699E+04-8.28210E+05-6.57547E+04 6.36191E+04-5.09317E-11-1.89584E-09
 -1       658 7.08084E+03-8.04926E+05-4.20102E+04 2.66251E+03 1.82092E-09 6.01278E-09
 -1       659-3.83799E+04-8.29212E+05-6.83521E+04 6.39129E+04-2.43745E-10 4.40639E-09
 -1       660 2.89052E+04-7.93197E+05-8.84905E+04 2.79265E+03 8.87667E-10 9.23592E-10
 -1       661 3.66650E+05 4.72809E+04 3.03839E+04 1.43396E+05 1.98725E-09-5.74437E-09
 -1       662 3.74650E+05 6.88922E+04 1.90477E+04 1.46465E+05 8.21001E-09 8.06654E-09
 -1       663 3.71807E+05 5.38896E+04 7.17297E+03 1.42757E+05 2.51760E-10-7.56199E-09
 -1       664 3.68710E+05 6.01407E+04 3.92408E+03 1.47699E+05-2.53790E-09-1.31490E-09
 -1       665 3.72384E+05 5.45810E+04 1.68382E+03 1.42710E+05-5.52026E-09-2.01419E-09
 -1       666 3.68042E+05 5.92584E+04 9.15314E+02 1.47802E+05-2.08931E-09-2.68324E-09
 -1       667 3.72458E+05 5.46471E+04 5.22214E+02 1.42701E+05-1.54267E-08-1.41250E-09
 -1       668 3.67965E+05 5.92026E+04 5.06431E+02 1.47833E+05-9.41253E-09-6.12803E-09
 -1       669 3.72465E+05 5.46256E+04 7.27590E+02 1.42686E+05-1.96371E-09 6.96377E-09
 -1       670 3.68066E+05 5.93812E+04 1.48407E+03 1.47870E+05 1.29312E-08 8.98126E-10
 -1       671 3.72368E+05 5.44757E+04 2.83765E+03 1.42666E+05 2.08877E-09-3.26713E-09
 -1       672 3.69165E+05 6.09455E+04 6.68765E+03 1.47766E+05-1.20565E-10 3.67220E-09
 -1       673 3.71408E+05 5.32646E+04 1.22436E+04 1.42719E+05 2.62958E-09-9.14042E-10
 -1       674 3.79289E+05 7.59379E+04 3.25432E+04 1.45710E+05-3.62701E-09 3.00861E-09
 -1       675 3.62610E+05 4.19574E+04 5.19104E+04 1.43798E+05-3.18278E-09-2.32467E-09
 -1       676 7.04314E+01-4.99906E+05-2.46842E+03 2.62791E+02-9.02423E-09-2.37673E-09
 -1       677-8.16085E+02-5.00592E+05-4.57310E+03-5.24531E+02 4.82555E-09 1.19373E-08
 -1       678 5.96058E+02-4.99434E+05-7.96403E+03 2.61568E+02 2.68119E-09 6.72337E-09
 -1       679-8.86566E+03-5.05559E+05-1.92285E+04-5.21721E+02 2.81329E-09 1.49505E-09
 -1       680 6.10388E+03-4.94943E+05-3.03689E+04 2.57596E+02-3.57250E-09-4.73335E-10
 -1       771-3.57952E+06-6.91334E+05-9.43519E+04-1.54237E+06-6.95582E-09-1.03173E-08
 -1       772-3.55908E+06-7.17796E+05-4.79675E+04-1.59488E+06-1.92813E-09-6.92671E-09
 -1       773-3.58974E+06-6.67710E+05-2.10471E+04-1.55332E+06-1.93540E-09-4.00178E-09
 -1       774-3.54898E+06-7.07636E+05-1.01643E+04-1.60085E+06 3.85626E-10-8.60746E-09
 -1       775-3.59345E+06-6.65034E+05-5.16208E+03-1.55473E+06-7.71252E-09-7.59246E-09
 -1       776-3.55023E+06-7.07046E+05-2.45092E+03-1.60413E+06-3.01225E-09 6.16637E-10
 -1       777-3.59616E+06-6.63332E+05-1.56471E+03-1.55568E+06 3.85626E-10-1.01463E-08
 -1       778-3.55183E+06-7.06752E+05-9.57742E+02-1.60672E+06-2.57569E-09-4.64252E-09
 -1       779-3.59818E+06-6.61971E+05-1.21393E+03-1.55643E+06-1.55705E-09-1.36788E-09
 -1       780-3.55317E+06-7.06533E+05-1.86952E+03-1.60863E+06 3.43425E-09 4.66167E-09
 -1       781-3.59945E+06-6.60985E+05-3.68933E+03-1.55692E+06 5.14046E-09 3.99268E-09
 -1       782-3.55453E+06-7.06713E+05-7.87194E+03-1.60983E+06-7.45786E-09-4.80759E-09
 -1       783-3.59966E+06-6.60908E+05-1.60241E+04-1.55685E+06-8.14907E-09-4.86398E-09
 -1       784-3.56378E+06-7.15755E+05-3.79142E+04-1.60956E+06-8.68204E-09-5.00768E-09
 -1       785-3.59470E+06-6.77399E+05-7.40327E+04-1.54810E+06 3.34921E-10-1.66983E-09
 -1       786 3.15734E+05-1.32224E+04 3.92465E+04-9.18545E+01-1.74168E-10-4.84579E-09
 -1       787 3.31324E+05 1.58590E+04 2.64521E+04-4.92794E+03 1.70209E-09-1.26920E-09
 -1       788 3.22011E+05-1.69335E+03 1.02000E+04-1.17054E+02-1.30177E-09 7.35145E-09
 -1       789 3.24178E+05 2.01328E+03 6.00556E+03-4.88797E+03 2.12508E-09-2.59024E-09
 -1       790 3.22880E+05-2.17195E+02 2.60552E+03-1.31602E+02-3.79870E-10-8.88235E-09
 -1       791 3.23183E+05 2.55058E+02 1.44948E+03-4.87279E+03 8.78100E-10-4.03878E-09
 -1       792 3.23006E+05-2.92857E+01 7.14909E+02-1.32235E+02 1.53392E-10 3.66344E-09
 -1       793 3.23046E+05 4.34655E+01 4.78478E+02-4.88580E+03-4.27164E-10-1.67515E-09
 -1       794 3.23018E+05-1.49371E+01 4.20797E+02-1.18585E+02-6.76778E-10 2.58640E-09
 -1       795 3.23084E+05 1.03150E+02 6.47192E+02-4.92760E+03 1.88501E-09 9.72551E-09
 -1       796 3.22971E+05-8.75943E+01 1.06938E+03-9.04374E+01-9.72079E-10-7.48327E-09
 -1       797 3.23481E+05 7.97897E+02 2.40589E+03-4.99703E+03 4.49489E-10 4.04566E-09
 -1       798 3.22626E+05-6.75004E+02 4.06262E+03-4.91590E+01-1.34060E-09-3.70255E-09
 -1       799 3.26328E+05 6.30120E+03 1.05227E+04-5.08850E+03-1.40801E-09-8.04903E-10
 -1       800 3.20129E+05-5.26056E+03 1.56024E+04 8.26441E-01 1.41858E-09 2.19279E-09
 -1       801-4.28507E+04 3.31696E+05 3.55222E+04-6.80557E+04-5.48789E-09-1.85391E-08
 -1       802 1.15123E+05 3.64070E+05 8.82277E+04-2.14388E+06-3.13594E-09-2.10475E-08
 -1       803-7.45498E+03 3.51201E+05 1.02486E+05-7.03039E+04-2.40107E-09 2.86773E-08
 -1       804 2.19562E+05 4.31756E+05 2.49522E+05-2.14412E+06-2.50293E-09 3.16340E-08
 -1       805-1.47666E+05 2.74044E+05 3.21400E+05-6.80166E+04-2.61934E-10 2.57714E-08
 -1       806-3.13244E+05-8.45376E+04-2.71343E+04-1.48183E+05 6.13386E-09 1.26420E-09
 -1       807-3.12960E+05-7.94969E+04-1.30105E+04-1.57165E+05 2.45348E-09 2.22633E-09
 -1       808-3.13420E+05-7.20325E+04-5.49134E+03-1.53604E+05 7.46354E-09 4.92469E-09
 -1       809-3.10234E+05-7.51481E+04-2.66551E+03-1.58006E+05 1.84001E-08 1.27238E-09
 -1       810-3.13513E+05-7.13500E+04-1.20995E+03-1.53930E+05-1.40443E-09-5.56884E-09
 -1       811-3.09988E+05-7.49160E+04-5.99175E+02-1.58013E+05-1.70525E-08 6.09816E-09
 -1       812-3.13530E+05-7.13550E+04-2.98223E+02-1.53935E+05-1.36329E-08-1.29162E-08
 -1       813-3.09951E+05-7.49197E+04-1.88636E+02-1.57994E+05 5.59817E-09 1.25574E-08
 -1       814-3.13518E+05-7.13700E+04-1.78066E+02-1.53924E+05 3.30283E-09 7.55563E-09
 -1       815-3.09943E+05-7.49307E+04-2.80387E+02-1.57978E+05-6.36646E-11 1.78661E-08
 -1       816-3.13482E+05-7.13860E+04-5.27545E+02-1.53907E+05-5.09590E-09-8.71296E-10
 -1       817-3.10033E+05-7.50255E+04-1.14053E+03-1.57933E+05 2.09184E-10 1.38716E-08
 -1       818-3.13401E+05-7.17093E+04-2.34291E+03-1.53768E+05 9.95897E-10 1.55978E-09
 -1       819-3.11303E+05-7.67420E+04-5.53965E+03-1.57384E+05 2.88401E-09-5.55519E-09
 -1       820-3.13161E+05-7.71671E+04-1.15539E+04-1.51589E+05 6.36646E-10-5.47880E-09
 -1       821-4.15282E+05 1.74034E+04-5.16549E+04-1.21896E+02-2.16778E-09 3.78350E-09
 -1       822-4.35766E+05-2.08739E+04-3.48167E+04 7.13896E+03-8.43386E-10-6.93581E-09
 -1       823-4.23540E+05 2.22431E+03-1.34324E+04-2.66274E+02 4.53542E-09 2.24918E-09
 -1       824-4.26382E+05-2.63545E+03-7.91472E+03 7.38557E+03 3.31511E-10-8.40919E-09
 -1       825-4.24679E+05 2.83337E+02-3.45947E+03-3.69166E+02-7.46297E-09-7.08769E-09
 -1       826-4.25092E+05-3.16781E+02-1.96791E+03 7.55955E+03-1.62198E-08 3.33409E-09
 -1       827-4.24841E+05 3.98963E+01-1.06264E+03-4.40450E+02-6.93547E-09 2.94980E-09
 -1       828-4.24939E+05-5.57827E+01-8.85551E+02 7.67069E+03-1.19372E-08 1.13144E-08
 -1       829-4.24841E+05 3.98391E+01-1.04206E+03-4.80351E+02 1.72378E-10-2.65106E-09
 -1       830-4.25101E+05-3.01450E+02-1.91491E+03 7.71759E+03 3.10940E-09 4.75450E-09
 -1       831-4.24683E+05 2.77300E+02-3.35358E+03-4.87345E+02-3.60717E-09-6.41126E-09
 -1       832-4.26364E+05-2.54362E+03-7.67389E+03 7.69983E+03-2.47736E-09-5.80235E-09
 -1       833-4.23578E+05 2.16002E+03-1.30143E+04-4.62381E+02-3.62149E-10-4.38740E-09
 -1       834-4.35472E+05-2.02152E+04-3.37440E+04 7.61927E+03-1.70326E-09-2.87582E-09
 -1       835-4.15574E+05 1.68722E+04-5.00530E+04-4.05293E+02 5.58953E-09-1.02082E-08
 -1       836-6.70018E+02 5.05899E+05 3.78837E+04-4.17043E+04-1.22418E-09-4.33829E-09
 -1       837 7.38014E+03 5.17044E+05 2.93237E+04-7.59441E+04-9.12109E-10-5.42605E-09
 -1       838-3.32897E+02 5.09556E+05 2.70658E+04-4.15896E+04-2.06637E-09-1.21486E-09
 -1       839 1.44524E+04 5.22643E+05 4.75894E+04-7.59636E+04-1.51704E-09-9.52457E-09
 -1       840-1.38315E+03 5.00247E+05 7.58722E+04-4.16795E+04-1.21872E-09-6.12545E-09
 -1       856-3.05792E+05 8.80588E+03-4.08590E+04 6.09495E+03-6.72389E-09-2.53203E-09
 -1       857-3.20313E+05-1.22980E+04-2.59756E+04 2.29156E+04-4.56976E-09-1.64800E-09
 -1       858-3.11910E+05 8.92774E+02-1.05787E+04 5.97888E+03-8.78572E-09-6.81939E-09
 -1       859-3.13593E+05-1.08015E+03-5.86163E+03 2.30687E+04 5.39330E-10 6.74186E-09
 -1       860-3.12592E+05 1.18007E+02-2.67972E+03 5.93840E+03 3.98086E-09 4.31555E-10
 -1       861-3.12867E+05-1.76883E+00-1.42318E+03 2.31241E+04-4.86961E-09 4.45675E-09
 -1       862-3.12681E+05 4.17898E+01-7.17902E+02 5.92283E+03 1.21029E-08-5.42354E-09
 -1       863-3.12779E+05 9.86192E+01-4.49680E+02 2.31357E+04 2.18473E-08-8.50480E-09
 -1       864-3.12689E+05 3.37839E+01-3.78183E+02 5.92667E+03 1.08374E-08-5.19043E-09
 -1       865-3.12777E+05 6.82702E+01-5.29413E+02 2.31072E+04 2.15398E-08 1.20122E-09
 -1       866-3.12658E+05 5.01083E+01-8.95706E+02 5.95149E+03-6.30553E-09 1.42020E-09
 -1       867-3.12974E+05-2.88939E+02-1.88987E+03 2.30354E+04-6.68138E-09-2.78781E-10
 -1       868-3.12432E+05 2.85635E+02-3.39614E+03 5.99882E+03-1.97724E-09-8.61178E-10
 -1       869-3.15070E+05-3.89049E+03-8.30066E+03 2.28550E+04-7.91988E-09 2.14379E-09
 -1       870-3.10468E+05 2.79525E+03-1.30727E+04 6.13298E+03 9.75342E-09-1.65164E-09
 -1       871-6.28072E+03-4.53904E+04-1.69548E+04 1.70949E+05 2.87400E-10-3.03953E-09
 -1       872-2.60052E+03-4.90735E+04-6.26366E+03 2.16557E+05 1.48975E-09-1.43918E-08
 -1       873-2.23060E+02-4.75852E+04 2.36089E+03 1.70587E+05-1.48248E-10-1.57479E-08
 -1       874 3.14604E+03-4.43938E+04 1.27290E+04 2.16650E+05 2.88946E-09-1.42054E-08
 -1       875 8.67120E+03-5.03033E+04 2.74829E+04 1.70886E+05-6.18456E-11-9.84164E-09
 -1       876 4.66977E+05 7.21438E+04 3.73399E+04 1.86242E+05-6.10976E-09-8.01265E-09
 -1       877 4.73029E+05 8.75417E+04 2.13694E+04 1.93525E+05-3.83670E-09-1.68939E-09
 -1       878 4.71835E+05 7.40340E+04 8.63697E+03 1.87445E+05-7.39146E-09 3.17004E-09
 -1       879 4.67052E+05 8.04821E+04 4.40942E+03 1.94077E+05-1.29783E-08 4.50189E-09
 -1       880 4.72212E+05 7.42475E+04 1.99899E+03 1.87538E+05-8.76116E-09-1.22702E-09
 -1       881 4.66586E+05 8.00226E+04 1.04149E+03 1.94034E+05 9.30322E-09 5.07492E-09
 -1       882 4.72242E+05 7.42888E+04 5.98310E+02 1.87552E+05 1.53818E-09 5.01635E-09
 -1       883 4.66551E+05 7.99869E+04 5.45648E+02 1.94008E+05-7.27186E-09 1.31429E-08
 -1       884 4.72231E+05 7.42917E+04 7.74616E+02 1.87554E+05-5.23085E-09 6.74277E-10
 -1       885 4.66625E+05 8.00260E+04 1.50962E+03 1.94017E+05 4.43805E-09-1.14777E-08
 -1       886 4.72164E+05 7.42464E+04 2.99100E+03 1.87542E+05 7.90715E-09-5.89102E-09
 -1       887 4.67339E+05 8.07033E+04 6.64321E+03 1.94045E+05-1.12129E-08 2.54727E-09
 -1       888 4.71572E+05 7.39415E+04 1.30361E+04 1.87406E+05 5.09323E-09 3.23962E-09
 -1       889 4.76318E+05 9.13951E+04 3.22581E+04 1.93230E+05 1.19523E-08-8.12906E-09
 -1       890 4.64269E+05 7.10572E+04 5.63778E+04 1.85536E+05 1.64500E-08 3.75439E-09
 -1       891 5.67837E+02-2.56344E+05-8.99406E+03 4.55488E+04-1.14162E-08-1.07138E-09
 -1       892-2.20248E+03-2.59068E+05-7.02659E+03 9.51484E+04-1.83672E-08-8.11283E-09
 -1       893 8.31587E+01-2.57253E+05-6.27544E+03 4.54681E+04-1.00945E-08-2.83353E-09
 -1       894-4.00267E+03-2.60206E+05-1.10662E+04 9.50132E+04-1.41717E-08 6.19366E-09
 -1       895 1.13460E+03-2.54948E+05-1.72073E+04 4.56807E+04-1.16393E-08-1.44337E-09
 -1       956-4.54271E+05-8.25521E+03-1.92743E+04 4.83537E+04-5.86988E-09 4.51109E-10
 -1       957-4.57985E+05-2.65689E+03-9.82167E+03 5.74015E+04-2.64481E-09-7.48514E-09
 -1       958-4.55978E+05-2.13590E+02-4.42541E+03 4.80526E+04 6.59566E-09-1.28189E-08
 -1       959-4.56323E+05 3.41348E+01-2.25365E+03 5.77285E+04-2.21917E-09-8.38099E-09
 -1       960-4.56180E+05 1.37294E+02-1.09568E+03 4.80204E+04-6.66023E-09-6.71389E-09
 -1       961-4.56240E+05 1.67871E+02-5.73018E+02 5.77655E+04-1.24578E-08-6.44377E-09
 -1       962-4.56244E+05 1.51761E+02-3.15311E+02 4.80146E+04 2.69301E-09 1.59434E-09
 -1       963-4.56262E+05 1.85638E+02-2.29384E+02 5.77733E+04 8.47217E-09-8.00355E-10
 -1       964-4.56268E+05 1.63250E+02-2.50637E+02 4.80123E+04 8.47194E-09-3.55521E-09
 -1       965-4.56285E+05 1.94245E+02-4.09943E+02 5.77737E+04 7.39105E-09 4.23188E-09
 -1       966-4.56254E+05 1.71418E+02-7.57624E+02 4.80141E+04-4.11455E-09-4.34420E-09
 -1       967-4.56373E+05 1.19504E+02-1.54889E+03 5.77537E+04-2.89697E-09-7.84985E-09
 -1       968-4.56138E+05-5.53015E+01-3.03419E+03 4.80330E+04-3.22507E-09-9.93919E-09
 -1       969-4.57535E+05-1.71609E+03-6.73757E+03 5.75521E+04 2.47337E-09-2.17915E-09
 -1       970-4.54978E+05-5.56751E+03-1.32193E+04 4.82244E+04 2.33740E-09-2.09184E-10
 -1       971-5.57672E+05 9.52799E+01-2.22591E+04 1.53201E+04-5.55519E-09 2.83762E-09
 -1       972-5.64135E+05-3.97219E+03-1.29320E+04 2.76600E+04-9.79435E-09 8.90577E-09
 -1       973-5.60571E+05 9.62238E+01-5.62732E+03 1.51293E+04-9.36689E-09-2.55204E-09
 -1       974-5.61110E+05-1.26313E+02-2.96054E+03 2.78839E+04 1.02591E-09-1.13728E-08
 -1       975-5.60822E+05 7.00775E+01-1.44639E+03 1.50918E+04 5.70572E-09-5.61226E-09
 -1       976-5.60906E+05 1.05578E+02-8.04463E+02 2.79391E+04-4.16298E-09 1.09185E-09
 -1       977-5.60864E+05 7.21800E+01-5.26940E+02 1.50734E+04 7.77482E-09-2.17483E-09
 -1       978-5.60910E+05 1.27800E+02-5.40588E+02 2.79651E+04 2.45639E-08 6.25937E-09
 -1       979-5.60867E+05 8.26909E+01-8.04077E+02 1.50656E+04 1.11464E-08-5.17991E-09
 -1       980-5.60976E+05 1.10279E+02-1.51865E+03 2.79698E+04 1.22520E-08-1.38030E-09
 -1       981-5.60809E+05 1.10257E+02-2.90983E+03 1.50687E+04 4.06226E-09 2.38880E-09
 -1       982-5.61478E+05-3.29936E+02-6.07980E+03 2.79490E+04-3.36854E-09 1.39374E-09
 -1       983-5.60336E+05 2.02661E+02-1.15928E+04 1.50873E+04 1.98725E-09-5.74119E-09
 -1       984-5.67830E+05-8.23246E+03-2.67099E+04 2.78090E+04-7.00220E-09 7.82393E-10
 -1       985-5.54394E+05 2.47769E+02-4.59554E+04 1.52221E+04 5.08771E-09-7.94353E-09
 -3
 9999
