    1C
    1UUSER                                                              
    1UDATE              11.october.2022                                 
    1UTIME              19:02:26                                        
    1UHOST                                                              
    1UPGM               CalculiX                                        
    1UVERSION           Version 2.20                             
    1UCOMPILETIME       Sun Jul 31 18:08:37 CEST 2022                    
    1UDIR                                                               
    1UDBN                                                               
    1UMAT    1MESH_MATERIAL                                             
    2C                           409                                     1
 -1         1 0.00000E+00 0.00000E+00 0.00000E+00
 -1         2 1.66667E-02 0.00000E+00 0.00000E+00
 -1         3 3.33333E-02 0.00000E+00 0.00000E+00
 -1         5 6.66667E-02 0.00000E+00 0.00000E+00
 -1         8 0.00000E+00 6.25000E-03 0.00000E+00
 -1         9 1.66667E-02 6.25000E-03 0.00000E+00
 -1        10 3.33333E-02 6.25000E-03 0.00000E+00
 -1        12 6.66667E-02 6.25000E-03 0.00000E+00
 -1        15 0.00000E+00 1.25000E-02 0.00000E+00
 -1        16 1.66667E-02 1.25000E-02 0.00000E+00
 -1        17 3.33333E-02 1.25000E-02 0.00000E+00
 -1        18 5.00000E-02 1.25000E-02 0.00000E+00
 -1        19 6.66667E-02 1.25000E-02 0.00000E+00
 -1        20 8.33333E-02 1.25000E-02 0.00000E+00
 -1        21 1.00000E-01 1.25000E-02 0.00000E+00
 -1        24 3.33333E-02 1.87500E-02 0.00000E+00
 -1        25 5.00000E-02 1.87500E-02 0.00000E+00
 -1        26 6.66667E-02 1.87500E-02 0.00000E+00
 -1        27 8.33333E-02 1.87500E-02 0.00000E+00
 -1        28 1.00000E-01 1.87500E-02 0.00000E+00
 -1        32 5.00000E-02 2.50000E-02 0.00000E+00
 -1        33 6.66667E-02 2.50000E-02 0.00000E+00
 -1        34 8.33333E-02 2.50000E-02 0.00000E+00
 -1        35 1.00000E-01 2.50000E-02 0.00000E+00
 -1        51 0.00000E+00 1.04167E-03 0.00000E+00
 -1        52 0.00000E+00 2.08333E-03 0.00000E+00
 -1        53 0.00000E+00 3.12500E-03 0.00000E+00
 -1        54 0.00000E+00 4.16667E-03 0.00000E+00
 -1        55 0.00000E+00 5.20833E-03 0.00000E+00
 -1        56 1.04167E-03 3.90630E-04 0.00000E+00
 -1        57 2.08333E-03 7.81250E-04 0.00000E+00
 -1        58 3.12500E-03 1.17188E-03 0.00000E+00
 -1        59 4.16667E-03 1.56250E-03 0.00000E+00
 -1        60 5.20833E-03 1.95312E-03 0.00000E+00
 -1        61 6.25000E-03 2.34375E-03 0.00000E+00
 -1        62 7.29167E-03 2.73438E-03 0.00000E+00
 -1        63 8.33333E-03 3.12500E-03 0.00000E+00
 -1        64 9.37500E-03 3.51563E-03 0.00000E+00
 -1        65 1.04167E-02 3.90625E-03 0.00000E+00
 -1        66 1.14583E-02 4.29688E-03 0.00000E+00
 -1        67 1.25000E-02 4.68750E-03 0.00000E+00
 -1        68 1.35417E-02 5.07813E-03 0.00000E+00
 -1        69 1.45833E-02 5.46875E-03 0.00000E+00
 -1        70 1.56250E-02 5.85938E-03 0.00000E+00
 -1        86 1.66667E-02 1.04167E-03 0.00000E+00
 -1        87 1.66667E-02 2.08333E-03 0.00000E+00
 -1        88 1.66667E-02 3.12500E-03 0.00000E+00
 -1        89 1.66667E-02 4.16667E-03 0.00000E+00
 -1        90 1.66667E-02 5.20833E-03 0.00000E+00
 -1       121 3.33333E-02 1.04167E-03 0.00000E+00
 -1       122 3.33333E-02 2.08333E-03 0.00000E+00
 -1       123 3.33333E-02 3.12500E-03 0.00000E+00
 -1       124 3.33333E-02 4.16667E-03 0.00000E+00
 -1       125 3.33333E-02 5.20833E-03 0.00000E+00
 -1       191 6.66667E-02 1.04167E-03 0.00000E+00
 -1       192 6.66667E-02 2.08333E-03 0.00000E+00
 -1       193 6.66667E-02 3.12500E-03 0.00000E+00
 -1       194 6.66667E-02 4.16667E-03 0.00000E+00
 -1       195 6.66667E-02 5.20833E-03 0.00000E+00
 -1       251 1.04167E-03 6.25000E-03 0.00000E+00
 -1       252 2.08333E-03 6.25000E-03 0.00000E+00
 -1       253 3.12500E-03 6.25000E-03 0.00000E+00
 -1       254 4.16667E-03 6.25000E-03 0.00000E+00
 -1       255 5.20833E-03 6.25000E-03 0.00000E+00
 -1       256 6.25000E-03 6.25000E-03 0.00000E+00
 -1       257 7.29167E-03 6.25000E-03 0.00000E+00
 -1       258 8.33333E-03 6.25000E-03 0.00000E+00
 -1       259 9.37500E-03 6.25000E-03 0.00000E+00
 -1       260 1.04167E-02 6.25000E-03 0.00000E+00
 -1       261 1.14583E-02 6.25000E-03 0.00000E+00
 -1       262 1.25000E-02 6.25000E-03 0.00000E+00
 -1       263 1.35417E-02 6.25000E-03 0.00000E+00
 -1       264 1.45833E-02 6.25000E-03 0.00000E+00
 -1       265 1.56250E-02 6.25000E-03 0.00000E+00
 -1       266 0.00000E+00 7.29167E-03 0.00000E+00
 -1       267 0.00000E+00 8.33333E-03 0.00000E+00
 -1       268 0.00000E+00 9.37500E-03 0.00000E+00
 -1       269 0.00000E+00 1.04167E-02 0.00000E+00
 -1       270 0.00000E+00 1.14583E-02 0.00000E+00
 -1       271 1.04167E-03 6.64063E-03 0.00000E+00
 -1       272 2.08333E-03 7.03125E-03 0.00000E+00
 -1       273 3.12500E-03 7.42188E-03 0.00000E+00
 -1       274 4.16667E-03 7.81250E-03 0.00000E+00
 -1       275 5.20833E-03 8.20313E-03 0.00000E+00
 -1       276 6.25000E-03 8.59375E-03 0.00000E+00
 -1       277 7.29167E-03 8.98438E-03 0.00000E+00
 -1       278 8.33333E-03 9.37500E-03 0.00000E+00
 -1       279 9.37500E-03 9.76562E-03 0.00000E+00
 -1       280 1.04167E-02 1.01562E-02 0.00000E+00
 -1       281 1.14583E-02 1.05469E-02 0.00000E+00
 -1       282 1.25000E-02 1.09375E-02 0.00000E+00
 -1       283 1.35417E-02 1.13281E-02 0.00000E+00
 -1       284 1.45833E-02 1.17188E-02 0.00000E+00
 -1       285 1.56250E-02 1.21094E-02 0.00000E+00
 -1       301 1.66667E-02 7.29167E-03 0.00000E+00
 -1       302 1.66667E-02 8.33333E-03 0.00000E+00
 -1       303 1.66667E-02 9.37500E-03 0.00000E+00
 -1       304 1.66667E-02 1.04167E-02 0.00000E+00
 -1       305 1.66667E-02 1.14583E-02 0.00000E+00
 -1       306 1.77083E-02 6.64063E-03 0.00000E+00
 -1       307 1.87500E-02 7.03125E-03 0.00000E+00
 -1       308 1.97917E-02 7.42188E-03 0.00000E+00
 -1       309 2.08333E-02 7.81250E-03 0.00000E+00
 -1       310 2.18750E-02 8.20313E-03 0.00000E+00
 -1       311 2.29167E-02 8.59375E-03 0.00000E+00
 -1       312 2.39583E-02 8.98438E-03 0.00000E+00
 -1       313 2.50000E-02 9.37500E-03 0.00000E+00
 -1       314 2.60417E-02 9.76562E-03 0.00000E+00
 -1       315 2.70833E-02 1.01562E-02 0.00000E+00
 -1       316 2.81250E-02 1.05469E-02 0.00000E+00
 -1       317 2.91667E-02 1.09375E-02 0.00000E+00
 -1       318 3.02083E-02 1.13281E-02 0.00000E+00
 -1       319 3.12500E-02 1.17188E-02 0.00000E+00
 -1       320 3.22917E-02 1.21094E-02 0.00000E+00
 -1       336 3.33333E-02 7.29167E-03 0.00000E+00
 -1       337 3.33333E-02 8.33333E-03 0.00000E+00
 -1       338 3.33333E-02 9.37500E-03 0.00000E+00
 -1       339 3.33333E-02 1.04167E-02 0.00000E+00
 -1       340 3.33333E-02 1.14583E-02 0.00000E+00
 -1       406 6.66667E-02 7.29167E-03 0.00000E+00
 -1       407 6.66667E-02 8.33333E-03 0.00000E+00
 -1       408 6.66667E-02 9.37500E-03 0.00000E+00
 -1       409 6.66667E-02 1.04167E-02 0.00000E+00
 -1       410 6.66667E-02 1.14583E-02 0.00000E+00
 -1       521 1.77083E-02 1.28906E-02 0.00000E+00
 -1       522 1.87500E-02 1.32813E-02 0.00000E+00
 -1       523 1.97917E-02 1.36719E-02 0.00000E+00
 -1       524 2.08333E-02 1.40625E-02 0.00000E+00
 -1       525 2.18750E-02 1.44531E-02 0.00000E+00
 -1       526 2.29167E-02 1.48437E-02 0.00000E+00
 -1       527 2.39583E-02 1.52344E-02 0.00000E+00
 -1       528 2.50000E-02 1.56250E-02 0.00000E+00
 -1       529 2.60417E-02 1.60156E-02 0.00000E+00
 -1       530 2.70833E-02 1.64062E-02 0.00000E+00
 -1       531 2.81250E-02 1.67969E-02 0.00000E+00
 -1       532 2.91667E-02 1.71875E-02 0.00000E+00
 -1       533 3.02083E-02 1.75781E-02 0.00000E+00
 -1       534 3.12500E-02 1.79687E-02 0.00000E+00
 -1       535 3.22917E-02 1.83594E-02 0.00000E+00
 -1       536 3.43750E-02 1.25000E-02 0.00000E+00
 -1       537 3.54167E-02 1.25000E-02 0.00000E+00
 -1       538 3.64583E-02 1.25000E-02 0.00000E+00
 -1       539 3.75000E-02 1.25000E-02 0.00000E+00
 -1       540 3.85417E-02 1.25000E-02 0.00000E+00
 -1       541 3.95833E-02 1.25000E-02 0.00000E+00
 -1       542 4.06250E-02 1.25000E-02 0.00000E+00
 -1       543 4.16667E-02 1.25000E-02 0.00000E+00
 -1       544 4.27083E-02 1.25000E-02 0.00000E+00
 -1       545 4.37500E-02 1.25000E-02 0.00000E+00
 -1       546 4.47917E-02 1.25000E-02 0.00000E+00
 -1       547 4.58333E-02 1.25000E-02 0.00000E+00
 -1       548 4.68750E-02 1.25000E-02 0.00000E+00
 -1       549 4.79167E-02 1.25000E-02 0.00000E+00
 -1       550 4.89583E-02 1.25000E-02 0.00000E+00
 -1       551 3.33333E-02 1.35417E-02 0.00000E+00
 -1       552 3.33333E-02 1.45833E-02 0.00000E+00
 -1       553 3.33333E-02 1.56250E-02 0.00000E+00
 -1       554 3.33333E-02 1.66667E-02 0.00000E+00
 -1       555 3.33333E-02 1.77083E-02 0.00000E+00
 -1       556 3.43750E-02 1.28906E-02 0.00000E+00
 -1       557 3.54167E-02 1.32813E-02 0.00000E+00
 -1       558 3.64583E-02 1.36719E-02 0.00000E+00
 -1       559 3.75000E-02 1.40625E-02 0.00000E+00
 -1       560 3.85417E-02 1.44531E-02 0.00000E+00
 -1       561 3.95833E-02 1.48437E-02 0.00000E+00
 -1       562 4.06250E-02 1.52344E-02 0.00000E+00
 -1       563 4.16667E-02 1.56250E-02 0.00000E+00
 -1       564 4.27083E-02 1.60156E-02 0.00000E+00
 -1       565 4.37500E-02 1.64062E-02 0.00000E+00
 -1       566 4.47917E-02 1.67969E-02 0.00000E+00
 -1       567 4.58333E-02 1.71875E-02 0.00000E+00
 -1       568 4.68750E-02 1.75781E-02 0.00000E+00
 -1       569 4.79167E-02 1.79687E-02 0.00000E+00
 -1       570 4.89583E-02 1.83594E-02 0.00000E+00
 -1       571 5.10417E-02 1.25000E-02 0.00000E+00
 -1       572 5.20833E-02 1.25000E-02 0.00000E+00
 -1       573 5.31250E-02 1.25000E-02 0.00000E+00
 -1       574 5.41667E-02 1.25000E-02 0.00000E+00
 -1       575 5.52083E-02 1.25000E-02 0.00000E+00
 -1       576 5.62500E-02 1.25000E-02 0.00000E+00
 -1       577 5.72917E-02 1.25000E-02 0.00000E+00
 -1       578 5.83333E-02 1.25000E-02 0.00000E+00
 -1       579 5.93750E-02 1.25000E-02 0.00000E+00
 -1       580 6.04167E-02 1.25000E-02 0.00000E+00
 -1       581 6.14583E-02 1.25000E-02 0.00000E+00
 -1       582 6.25000E-02 1.25000E-02 0.00000E+00
 -1       583 6.35417E-02 1.25000E-02 0.00000E+00
 -1       584 6.45833E-02 1.25000E-02 0.00000E+00
 -1       585 6.56250E-02 1.25000E-02 0.00000E+00
 -1       586 5.00000E-02 1.35417E-02 0.00000E+00
 -1       587 5.00000E-02 1.45833E-02 0.00000E+00
 -1       588 5.00000E-02 1.56250E-02 0.00000E+00
 -1       589 5.00000E-02 1.66667E-02 0.00000E+00
 -1       590 5.00000E-02 1.77083E-02 0.00000E+00
 -1       591 5.10417E-02 1.28906E-02 0.00000E+00
 -1       592 5.20833E-02 1.32813E-02 0.00000E+00
 -1       593 5.31250E-02 1.36719E-02 0.00000E+00
 -1       594 5.41667E-02 1.40625E-02 0.00000E+00
 -1       595 5.52083E-02 1.44531E-02 0.00000E+00
 -1       596 5.62500E-02 1.48437E-02 0.00000E+00
 -1       597 5.72917E-02 1.52344E-02 0.00000E+00
 -1       598 5.83333E-02 1.56250E-02 0.00000E+00
 -1       599 5.93750E-02 1.60156E-02 0.00000E+00
 -1       600 6.04167E-02 1.64062E-02 0.00000E+00
 -1       601 6.14583E-02 1.67969E-02 0.00000E+00
 -1       602 6.25000E-02 1.71875E-02 0.00000E+00
 -1       603 6.35417E-02 1.75781E-02 0.00000E+00
 -1       604 6.45833E-02 1.79687E-02 0.00000E+00
 -1       605 6.56250E-02 1.83594E-02 0.00000E+00
 -1       606 6.77083E-02 1.25000E-02 0.00000E+00
 -1       607 6.87500E-02 1.25000E-02 0.00000E+00
 -1       608 6.97917E-02 1.25000E-02 0.00000E+00
 -1       609 7.08333E-02 1.25000E-02 0.00000E+00
 -1       610 7.18750E-02 1.25000E-02 0.00000E+00
 -1       611 7.29167E-02 1.25000E-02 0.00000E+00
 -1       612 7.39583E-02 1.25000E-02 0.00000E+00
 -1       613 7.50000E-02 1.25000E-02 0.00000E+00
 -1       614 7.60417E-02 1.25000E-02 0.00000E+00
 -1       615 7.70833E-02 1.25000E-02 0.00000E+00
 -1       616 7.81250E-02 1.25000E-02 0.00000E+00
 -1       617 7.91667E-02 1.25000E-02 0.00000E+00
 -1       618 8.02083E-02 1.25000E-02 0.00000E+00
 -1       619 8.12500E-02 1.25000E-02 0.00000E+00
 -1       620 8.22917E-02 1.25000E-02 0.00000E+00
 -1       621 6.66667E-02 1.35417E-02 0.00000E+00
 -1       622 6.66667E-02 1.45833E-02 0.00000E+00
 -1       623 6.66667E-02 1.56250E-02 0.00000E+00
 -1       624 6.66667E-02 1.66667E-02 0.00000E+00
 -1       625 6.66667E-02 1.77083E-02 0.00000E+00
 -1       626 6.77083E-02 1.28906E-02 0.00000E+00
 -1       627 6.87500E-02 1.32813E-02 0.00000E+00
 -1       628 6.97917E-02 1.36719E-02 0.00000E+00
 -1       629 7.08333E-02 1.40625E-02 0.00000E+00
 -1       630 7.18750E-02 1.44531E-02 0.00000E+00
 -1       631 7.29167E-02 1.48437E-02 0.00000E+00
 -1       632 7.39583E-02 1.52344E-02 0.00000E+00
 -1       633 7.50000E-02 1.56250E-02 0.00000E+00
 -1       634 7.60417E-02 1.60156E-02 0.00000E+00
 -1       635 7.70833E-02 1.64062E-02 0.00000E+00
 -1       636 7.81250E-02 1.67969E-02 0.00000E+00
 -1       637 7.91667E-02 1.71875E-02 0.00000E+00
 -1       638 8.02083E-02 1.75781E-02 0.00000E+00
 -1       639 8.12500E-02 1.79687E-02 0.00000E+00
 -1       640 8.22917E-02 1.83594E-02 0.00000E+00
 -1       656 8.33333E-02 1.35417E-02 0.00000E+00
 -1       657 8.33333E-02 1.45833E-02 0.00000E+00
 -1       658 8.33333E-02 1.56250E-02 0.00000E+00
 -1       659 8.33333E-02 1.66667E-02 0.00000E+00
 -1       660 8.33333E-02 1.77083E-02 0.00000E+00
 -1       661 8.43750E-02 1.28906E-02 0.00000E+00
 -1       662 8.54167E-02 1.32813E-02 0.00000E+00
 -1       663 8.64583E-02 1.36719E-02 0.00000E+00
 -1       664 8.75000E-02 1.40625E-02 0.00000E+00
 -1       665 8.85417E-02 1.44531E-02 0.00000E+00
 -1       666 8.95833E-02 1.48437E-02 0.00000E+00
 -1       667 9.06250E-02 1.52344E-02 0.00000E+00
 -1       668 9.16667E-02 1.56250E-02 0.00000E+00
 -1       669 9.27083E-02 1.60156E-02 0.00000E+00
 -1       670 9.37500E-02 1.64062E-02 0.00000E+00
 -1       671 9.47917E-02 1.67969E-02 0.00000E+00
 -1       672 9.58333E-02 1.71875E-02 0.00000E+00
 -1       673 9.68750E-02 1.75781E-02 0.00000E+00
 -1       674 9.79167E-02 1.79687E-02 0.00000E+00
 -1       675 9.89583E-02 1.83594E-02 0.00000E+00
 -1       676 1.00000E-01 1.35417E-02 0.00000E+00
 -1       677 1.00000E-01 1.45833E-02 0.00000E+00
 -1       678 1.00000E-01 1.56250E-02 0.00000E+00
 -1       679 1.00000E-01 1.66667E-02 0.00000E+00
 -1       680 1.00000E-01 1.77083E-02 0.00000E+00
 -1       771 3.43750E-02 1.91406E-02 0.00000E+00
 -1       772 3.54167E-02 1.95312E-02 0.00000E+00
 -1       773 3.64583E-02 1.99219E-02 0.00000E+00
 -1       774 3.75000E-02 2.03125E-02 0.00000E+00
 -1       775 3.85417E-02 2.07031E-02 0.00000E+00
 -1       776 3.95833E-02 2.10938E-02 0.00000E+00
 -1       777 4.06250E-02 2.14844E-02 0.00000E+00
 -1       778 4.16667E-02 2.18750E-02 0.00000E+00
 -1       779 4.27083E-02 2.22656E-02 0.00000E+00
 -1       780 4.37500E-02 2.26563E-02 0.00000E+00
 -1       781 4.47917E-02 2.30469E-02 0.00000E+00
 -1       782 4.58333E-02 2.34375E-02 0.00000E+00
 -1       783 4.68750E-02 2.38281E-02 0.00000E+00
 -1       784 4.79167E-02 2.42187E-02 0.00000E+00
 -1       785 4.89583E-02 2.46094E-02 0.00000E+00
 -1       786 5.10417E-02 1.87500E-02 0.00000E+00
 -1       787 5.20833E-02 1.87500E-02 0.00000E+00
 -1       788 5.31250E-02 1.87500E-02 0.00000E+00
 -1       789 5.41667E-02 1.87500E-02 0.00000E+00
 -1       790 5.52083E-02 1.87500E-02 0.00000E+00
 -1       791 5.62500E-02 1.87500E-02 0.00000E+00
 -1       792 5.72917E-02 1.87500E-02 0.00000E+00
 -1       793 5.83333E-02 1.87500E-02 0.00000E+00
 -1       794 5.93750E-02 1.87500E-02 0.00000E+00
 -1       795 6.04167E-02 1.87500E-02 0.00000E+00
 -1       796 6.14583E-02 1.87500E-02 0.00000E+00
 -1       797 6.25000E-02 1.87500E-02 0.00000E+00
 -1       798 6.35417E-02 1.87500E-02 0.00000E+00
 -1       799 6.45833E-02 1.87500E-02 0.00000E+00
 -1       800 6.56250E-02 1.87500E-02 0.00000E+00
 -1       801 5.00000E-02 1.97917E-02 0.00000E+00
 -1       802 5.00000E-02 2.08333E-02 0.00000E+00
 -1       803 5.00000E-02 2.18750E-02 0.00000E+00
 -1       804 5.00000E-02 2.29167E-02 0.00000E+00
 -1       805 5.00000E-02 2.39583E-02 0.00000E+00
 -1       806 5.10417E-02 1.91406E-02 0.00000E+00
 -1       807 5.20833E-02 1.95312E-02 0.00000E+00
 -1       808 5.31250E-02 1.99219E-02 0.00000E+00
 -1       809 5.41667E-02 2.03125E-02 0.00000E+00
 -1       810 5.52083E-02 2.07031E-02 0.00000E+00
 -1       811 5.62500E-02 2.10938E-02 0.00000E+00
 -1       812 5.72917E-02 2.14844E-02 0.00000E+00
 -1       813 5.83333E-02 2.18750E-02 0.00000E+00
 -1       814 5.93750E-02 2.22656E-02 0.00000E+00
 -1       815 6.04167E-02 2.26563E-02 0.00000E+00
 -1       816 6.14583E-02 2.30469E-02 0.00000E+00
 -1       817 6.25000E-02 2.34375E-02 0.00000E+00
 -1       818 6.35417E-02 2.38281E-02 0.00000E+00
 -1       819 6.45833E-02 2.42187E-02 0.00000E+00
 -1       820 6.56250E-02 2.46094E-02 0.00000E+00
 -1       821 6.77083E-02 1.87500E-02 0.00000E+00
 -1       822 6.87500E-02 1.87500E-02 0.00000E+00
 -1       823 6.97917E-02 1.87500E-02 0.00000E+00
 -1       824 7.08333E-02 1.87500E-02 0.00000E+00
 -1       825 7.18750E-02 1.87500E-02 0.00000E+00
 -1       826 7.29167E-02 1.87500E-02 0.00000E+00
 -1       827 7.39583E-02 1.87500E-02 0.00000E+00
 -1       828 7.50000E-02 1.87500E-02 0.00000E+00
 -1       829 7.60417E-02 1.87500E-02 0.00000E+00
 -1       830 7.70833E-02 1.87500E-02 0.00000E+00
 -1       831 7.81250E-02 1.87500E-02 0.00000E+00
 -1       832 7.91667E-02 1.87500E-02 0.00000E+00
 -1       833 8.02083E-02 1.87500E-02 0.00000E+00
 -1       834 8.12500E-02 1.87500E-02 0.00000E+00
 -1       835 8.22917E-02 1.87500E-02 0.00000E+00
 -1       836 6.66667E-02 1.97917E-02 0.00000E+00
 -1       837 6.66667E-02 2.08333E-02 0.00000E+00
 -1       838 6.66667E-02 2.18750E-02 0.00000E+00
 -1       839 6.66667E-02 2.29167E-02 0.00000E+00
 -1       840 6.66667E-02 2.39583E-02 0.00000E+00
 -1       856 8.43750E-02 1.87500E-02 0.00000E+00
 -1       857 8.54167E-02 1.87500E-02 0.00000E+00
 -1       858 8.64583E-02 1.87500E-02 0.00000E+00
 -1       859 8.75000E-02 1.87500E-02 0.00000E+00
 -1       860 8.85417E-02 1.87500E-02 0.00000E+00
 -1       861 8.95833E-02 1.87500E-02 0.00000E+00
 -1       862 9.06250E-02 1.87500E-02 0.00000E+00
 -1       863 9.16667E-02 1.87500E-02 0.00000E+00
 -1       864 9.27083E-02 1.87500E-02 0.00000E+00
 -1       865 9.37500E-02 1.87500E-02 0.00000E+00
 -1       866 9.47917E-02 1.87500E-02 0.00000E+00
 -1       867 9.58333E-02 1.87500E-02 0.00000E+00
 -1       868 9.68750E-02 1.87500E-02 0.00000E+00
 -1       869 9.79167E-02 1.87500E-02 0.00000E+00
 -1       870 9.89583E-02 1.87500E-02 0.00000E+00
 -1       871 8.33333E-02 1.97917E-02 0.00000E+00
 -1       872 8.33333E-02 2.08333E-02 0.00000E+00
 -1       873 8.33333E-02 2.18750E-02 0.00000E+00
 -1       874 8.33333E-02 2.29167E-02 0.00000E+00
 -1       875 8.33333E-02 2.39583E-02 0.00000E+00
 -1       876 8.43750E-02 1.91406E-02 0.00000E+00
 -1       877 8.54167E-02 1.95312E-02 0.00000E+00
 -1       878 8.64583E-02 1.99219E-02 0.00000E+00
 -1       879 8.75000E-02 2.03125E-02 0.00000E+00
 -1       880 8.85417E-02 2.07031E-02 0.00000E+00
 -1       881 8.95833E-02 2.10938E-02 0.00000E+00
 -1       882 9.06250E-02 2.14844E-02 0.00000E+00
 -1       883 9.16667E-02 2.18750E-02 0.00000E+00
 -1       884 9.27083E-02 2.22656E-02 0.00000E+00
 -1       885 9.37500E-02 2.26563E-02 0.00000E+00
 -1       886 9.47917E-02 2.30469E-02 0.00000E+00
 -1       887 9.58333E-02 2.34375E-02 0.00000E+00
 -1       888 9.68750E-02 2.38281E-02 0.00000E+00
 -1       889 9.79167E-02 2.42187E-02 0.00000E+00
 -1       890 9.89583E-02 2.46094E-02 0.00000E+00
 -1       891 1.00000E-01 1.97917E-02 0.00000E+00
 -1       892 1.00000E-01 2.08333E-02 0.00000E+00
 -1       893 1.00000E-01 2.18750E-02 0.00000E+00
 -1       894 1.00000E-01 2.29167E-02 0.00000E+00
 -1       895 1.00000E-01 2.39583E-02 0.00000E+00
 -1       956 6.77083E-02 2.50000E-02 0.00000E+00
 -1       957 6.87500E-02 2.50000E-02 0.00000E+00
 -1       958 6.97917E-02 2.50000E-02 0.00000E+00
 -1       959 7.08333E-02 2.50000E-02 0.00000E+00
 -1       960 7.18750E-02 2.50000E-02 0.00000E+00
 -1       961 7.29167E-02 2.50000E-02 0.00000E+00
 -1       962 7.39583E-02 2.50000E-02 0.00000E+00
 -1       963 7.50000E-02 2.50000E-02 0.00000E+00
 -1       964 7.60417E-02 2.50000E-02 0.00000E+00
 -1       965 7.70833E-02 2.50000E-02 0.00000E+00
 -1       966 7.81250E-02 2.50000E-02 0.00000E+00
 -1       967 7.91667E-02 2.50000E-02 0.00000E+00
 -1       968 8.02083E-02 2.50000E-02 0.00000E+00
 -1       969 8.12500E-02 2.50000E-02 0.00000E+00
 -1       970 8.22917E-02 2.50000E-02 0.00000E+00
 -1       971 8.43750E-02 2.50000E-02 0.00000E+00
 -1       972 8.54167E-02 2.50000E-02 0.00000E+00
 -1       973 8.64583E-02 2.50000E-02 0.00000E+00
 -1       974 8.75000E-02 2.50000E-02 0.00000E+00
 -1       975 8.85417E-02 2.50000E-02 0.00000E+00
 -1       976 8.95833E-02 2.50000E-02 0.00000E+00
 -1       977 9.06250E-02 2.50000E-02 0.00000E+00
 -1       978 9.16667E-02 2.50000E-02 0.00000E+00
 -1       979 9.27083E-02 2.50000E-02 0.00000E+00
 -1       980 9.37500E-02 2.50000E-02 0.00000E+00
 -1       981 9.47917E-02 2.50000E-02 0.00000E+00
 -1       982 9.58333E-02 2.50000E-02 0.00000E+00
 -1       983 9.68750E-02 2.50000E-02 0.00000E+00
 -1       984 9.79167E-02 2.50000E-02 0.00000E+00
 -1       985 9.89583E-02 2.50000E-02 0.00000E+00
 -3
    3C                           211                                     1
 -1         1   12    0    1
 -2         1        52        51
 -1         2   12    0    1
 -2        52        54        53
 -1         3   12    0    1
 -2        54         8        55
 -1         4   12    0    1
 -2         1        57        56
 -1         5   12    0    1
 -2        57        59        58
 -1         6   12    0    1
 -2        59        61        60
 -1         7   12    0    1
 -2        61        63        62
 -1         8   12    0    1
 -2        63        65        64
 -1         9   12    0    1
 -2        65        67        66
 -1        10   12    0    1
 -2        67        69        68
 -1        11   12    0    1
 -2        69         9        70
 -1        12   12    0    1
 -2         2        87        86
 -1        13   12    0    1
 -2        87        89        88
 -1        14   12    0    1
 -2        89         9        90
 -1        15   12    0    1
 -2         3       122       121
 -1        16   12    0    1
 -2       122       124       123
 -1        17   12    0    1
 -2       124        10       125
 -1        18   12    0    1
 -2         5       192       191
 -1        19   12    0    1
 -2       192       194       193
 -1        20   12    0    1
 -2       194        12       195
 -1        21   12    0    1
 -2         8       252       251
 -1        22   12    0    1
 -2       252       254       253
 -1        23   12    0    1
 -2       254       256       255
 -1        24   12    0    1
 -2       256       258       257
 -1        25   12    0    1
 -2       258       260       259
 -1        26   12    0    1
 -2       260       262       261
 -1        27   12    0    1
 -2       262       264       263
 -1        28   12    0    1
 -2       264         9       265
 -1        29   12    0    1
 -2         8       267       266
 -1        30   12    0    1
 -2       267       269       268
 -1        31   12    0    1
 -2       269        15       270
 -1        32   12    0    1
 -2         8       272       271
 -1        33   12    0    1
 -2       272       274       273
 -1        34   12    0    1
 -2       274       276       275
 -1        35   12    0    1
 -2       276       278       277
 -1        36   12    0    1
 -2       278       280       279
 -1        37   12    0    1
 -2       280       282       281
 -1        38   12    0    1
 -2       282       284       283
 -1        39   12    0    1
 -2       284        16       285
 -1        40   12    0    1
 -2         9       302       301
 -1        41   12    0    1
 -2       302       304       303
 -1        42   12    0    1
 -2       304        16       305
 -1        43   12    0    1
 -2         9       307       306
 -1        44   12    0    1
 -2       307       309       308
 -1        45   12    0    1
 -2       309       311       310
 -1        46   12    0    1
 -2       311       313       312
 -1        47   12    0    1
 -2       313       315       314
 -1        48   12    0    1
 -2       315       317       316
 -1        49   12    0    1
 -2       317       319       318
 -1        50   12    0    1
 -2       319        17       320
 -1        51   12    0    1
 -2        10       337       336
 -1        52   12    0    1
 -2       337       339       338
 -1        53   12    0    1
 -2       339        17       340
 -1        54   12    0    1
 -2        12       407       406
 -1        55   12    0    1
 -2       407       409       408
 -1        56   12    0    1
 -2       409        19       410
 -1        57   12    0    1
 -2        16       522       521
 -1        58   12    0    1
 -2       522       524       523
 -1        59   12    0    1
 -2       524       526       525
 -1        60   12    0    1
 -2       526       528       527
 -1        61   12    0    1
 -2       528       530       529
 -1        62   12    0    1
 -2       530       532       531
 -1        63   12    0    1
 -2       532       534       533
 -1        64   12    0    1
 -2       534        24       535
 -1        65   12    0    1
 -2        17       537       536
 -1        66   12    0    1
 -2       537       539       538
 -1        67   12    0    1
 -2       539       541       540
 -1        68   12    0    1
 -2       541       543       542
 -1        69   12    0    1
 -2       543       545       544
 -1        70   12    0    1
 -2       545       547       546
 -1        71   12    0    1
 -2       547       549       548
 -1        72   12    0    1
 -2       549        18       550
 -1        73   12    0    1
 -2        17       552       551
 -1        74   12    0    1
 -2       552       554       553
 -1        75   12    0    1
 -2       554        24       555
 -1        76   12    0    1
 -2        17       557       556
 -1        77   12    0    1
 -2       557       559       558
 -1        78   12    0    1
 -2       559       561       560
 -1        79   12    0    1
 -2       561       563       562
 -1        80   12    0    1
 -2       563       565       564
 -1        81   12    0    1
 -2       565       567       566
 -1        82   12    0    1
 -2       567       569       568
 -1        83   12    0    1
 -2       569        25       570
 -1        84   12    0    1
 -2        18       572       571
 -1        85   12    0    1
 -2       572       574       573
 -1        86   12    0    1
 -2       574       576       575
 -1        87   12    0    1
 -2       576       578       577
 -1        88   12    0    1
 -2       578       580       579
 -1        89   12    0    1
 -2       580       582       581
 -1        90   12    0    1
 -2       582       584       583
 -1        91   12    0    1
 -2       584        19       585
 -1        92   12    0    1
 -2        18       587       586
 -1        93   12    0    1
 -2       587       589       588
 -1        94   12    0    1
 -2       589        25       590
 -1        95   12    0    1
 -2        18       592       591
 -1        96   12    0    1
 -2       592       594       593
 -1        97   12    0    1
 -2       594       596       595
 -1        98   12    0    1
 -2       596       598       597
 -1        99   12    0    1
 -2       598       600       599
 -1       100   12    0    1
 -2       600       602       601
 -1       101   12    0    1
 -2       602       604       603
 -1       102   12    0    1
 -2       604        26       605
 -1       103   12    0    1
 -2        19       607       606
 -1       104   12    0    1
 -2       607       609       608
 -1       105   12    0    1
 -2       609       611       610
 -1       106   12    0    1
 -2       611       613       612
 -1       107   12    0    1
 -2       613       615       614
 -1       108   12    0    1
 -2       615       617       616
 -1       109   12    0    1
 -2       617       619       618
 -1       110   12    0    1
 -2       619        20       620
 -1       111   12    0    1
 -2        19       622       621
 -1       112   12    0    1
 -2       622       624       623
 -1       113   12    0    1
 -2       624        26       625
 -1       114   12    0    1
 -2        19       627       626
 -1       115   12    0    1
 -2       627       629       628
 -1       116   12    0    1
 -2       629       631       630
 -1       117   12    0    1
 -2       631       633       632
 -1       118   12    0    1
 -2       633       635       634
 -1       119   12    0    1
 -2       635       637       636
 -1       120   12    0    1
 -2       637       639       638
 -1       121   12    0    1
 -2       639        27       640
 -1       122   12    0    1
 -2        20       657       656
 -1       123   12    0    1
 -2       657       659       658
 -1       124   12    0    1
 -2       659        27       660
 -1       125   12    0    1
 -2        20       662       661
 -1       126   12    0    1
 -2       662       664       663
 -1       127   12    0    1
 -2       664       666       665
 -1       128   12    0    1
 -2       666       668       667
 -1       129   12    0    1
 -2       668       670       669
 -1       130   12    0    1
 -2       670       672       671
 -1       131   12    0    1
 -2       672       674       673
 -1       132   12    0    1
 -2       674        28       675
 -1       133   12    0    1
 -2        21       677       676
 -1       134   12    0    1
 -2       677       679       678
 -1       135   12    0    1
 -2       679        28       680
 -1       136   12    0    1
 -2        24       772       771
 -1       137   12    0    1
 -2       772       774       773
 -1       138   12    0    1
 -2       774       776       775
 -1       139   12    0    1
 -2       776       778       777
 -1       140   12    0    1
 -2       778       780       779
 -1       141   12    0    1
 -2       780       782       781
 -1       142   12    0    1
 -2       782       784       783
 -1       143   12    0    1
 -2       784        32       785
 -1       144   12    0    1
 -2        25       787       786
 -1       145   12    0    1
 -2       787       789       788
 -1       146   12    0    1
 -2       789       791       790
 -1       147   12    0    1
 -2       791       793       792
 -1       148   12    0    1
 -2       793       795       794
 -1       149   12    0    1
 -2       795       797       796
 -1       150   12    0    1
 -2       797       799       798
 -1       151   12    0    1
 -2       799        26       800
 -1       152   12    0    1
 -2        25       802       801
 -1       153   12    0    1
 -2       802       804       803
 -1       154   12    0    1
 -2       804        32       805
 -1       155   12    0    1
 -2        25       807       806
 -1       156   12    0    1
 -2       807       809       808
 -1       157   12    0    1
 -2       809       811       810
 -1       158   12    0    1
 -2       811       813       812
 -1       159   12    0    1
 -2       813       815       814
 -1       160   12    0    1
 -2       815       817       816
 -1       161   12    0    1
 -2       817       819       818
 -1       162   12    0    1
 -2       819        33       820
 -1       163   12    0    1
 -2        26       822       821
 -1       164   12    0    1
 -2       822       824       823
 -1       165   12    0    1
 -2       824       826       825
 -1       166   12    0    1
 -2       826       828       827
 -1       167   12    0    1
 -2       828       830       829
 -1       168   12    0    1
 -2       830       832       831
 -1       169   12    0    1
 -2       832       834       833
 -1       170   12    0    1
 -2       834        27       835
 -1       171   12    0    1
 -2        26       837       836
 -1       172   12    0    1
 -2       837       839       838
 -1       173   12    0    1
 -2       839        33       840
 -1       174   12    0    1
 -2        27       857       856
 -1       175   12    0    1
 -2       857       859       858
 -1       176   12    0    1
 -2       859       861       860
 -1       177   12    0    1
 -2       861       863       862
 -1       178   12    0    1
 -2       863       865       864
 -1       179   12    0    1
 -2       865       867       866
 -1       180   12    0    1
 -2       867       869       868
 -1       181   12    0    1
 -2       869        28       870
 -1       182   12    0    1
 -2        27       872       871
 -1       183   12    0    1
 -2       872       874       873
 -1       184   12    0    1
 -2       874        34       875
 -1       185   12    0    1
 -2        27       877       876
 -1       186   12    0    1
 -2       877       879       878
 -1       187   12    0    1
 -2       879       881       880
 -1       188   12    0    1
 -2       881       883       882
 -1       189   12    0    1
 -2       883       885       884
 -1       190   12    0    1
 -2       885       887       886
 -1       191   12    0    1
 -2       887       889       888
 -1       192   12    0    1
 -2       889        35       890
 -1       193   12    0    1
 -2        28       892       891
 -1       194   12    0    1
 -2       892       894       893
 -1       195   12    0    1
 -2       894        35       895
 -1       196   12    0    1
 -2        33       957       956
 -1       197   12    0    1
 -2       957       959       958
 -1       198   12    0    1
 -2       959       961       960
 -1       199   12    0    1
 -2       961       963       962
 -1       200   12    0    1
 -2       963       965       964
 -1       201   12    0    1
 -2       965       967       966
 -1       202   12    0    1
 -2       967       969       968
 -1       203   12    0    1
 -2       969        34       970
 -1       204   12    0    1
 -2        34       972       971
 -1       205   12    0    1
 -2       972       974       973
 -1       206   12    0    1
 -2       974       976       975
 -1       207   12    0    1
 -2       976       978       977
 -1       208   12    0    1
 -2       978       980       979
 -1       209   12    0    1
 -2       980       982       981
 -1       210   12    0    1
 -2       982       984       983
 -1       211   12    0    1
 -2       984        35       985
 -3
    1PSTEP                         1           1           1          
  100CL  101 2.50000E-01         409                     0    1           1
 -4  DISP        4    1
 -5  D1          1    2    1    0
 -5  D2          1    2    2    0
 -5  D3          1    2    3    0
 -5  ALL         1    2    0    0    1ALL
 -1         1 6.53969E-05 0.00000E+00 0.00000E+00
 -1         2 6.05156E-05 2.13913E-29 0.00000E+00
 -1         3 5.62686E-05-2.86651E-27 3.30872E-24
 -1         5 4.04150E-05 5.12137E-26 0.00000E+00
 -1         8 5.22059E-05-4.70251E-07 0.00000E+00
 -1         9 5.30961E-05 3.19941E-07 0.00000E+00
 -1        10 5.21115E-05-7.54931E-07 0.00000E+00
 -1        12 4.01228E-05 2.72085E-07-8.27181E-25
 -1        15 3.65142E-05-5.02975E-07 0.00000E+00
 -1        16 3.77559E-05 2.59058E-07 0.00000E+00
 -1        17 3.86758E-05-1.58255E-06 0.00000E+00
 -1        18 3.87202E-05 7.17670E-10 0.00000E+00
 -1        19 3.92465E-05 5.42695E-07 0.00000E+00
 -1        20 3.93185E-05 8.16986E-06 0.00000E+00
 -1        21 3.90480E-05 1.54683E-05-8.27181E-25
 -1        24 9.81725E-06-2.10753E-06 0.00000E+00
 -1        25 3.77757E-05 6.28313E-08 0.00000E+00
 -1        26 3.82725E-05 7.56274E-07 0.00000E+00
 -1        27 3.75206E-05 6.95980E-06 0.00000E+00
 -1        28 3.72764E-05 1.52356E-05 0.00000E+00
 -1        32 0.00000E+00 0.00000E+00 0.00000E+00
 -1        33 3.66471E-05 1.01444E-06 0.00000E+00
 -1        34 3.59195E-05 6.94915E-06 0.00000E+00
 -1        35 3.52282E-05 1.51128E-05 0.00000E+00
 -1        51 6.45386E-05-7.83554E-08 0.00000E+00
 -1        52 6.29480E-05-1.54370E-07 0.00000E+00
 -1        53 6.07695E-05-2.30634E-07 0.00000E+00
 -1        54 5.81528E-05-3.07861E-07 0.00000E+00
 -1        55 5.52481E-05-3.86575E-07-6.20385E-25
 -1        56 6.47972E-05-3.64707E-07 0.00000E+00
 -1        57 6.42582E-05-9.58496E-07 6.61744E-24
 -1        58 6.37814E-05-1.71463E-06 0.00000E+00
 -1        59 6.33391E-05-2.57432E-06 0.00000E+00
 -1        60 6.29109E-05-3.47223E-06 0.00000E+00
 -1        61 6.24721E-05-4.34401E-06-1.32349E-23
 -1        62 6.19996E-05-5.12582E-06-2.64698E-23
 -1        63 6.14700E-05-5.75549E-06 0.00000E+00
 -1        64 6.08619E-05-6.17562E-06-2.64698E-23
 -1        65 6.01550E-05-6.33211E-06 1.32349E-23
 -1        66 5.93321E-05-6.17934E-06 0.00000E+00
 -1        67 5.83784E-05-5.67634E-06-1.32349E-23
 -1        68 5.72821E-05-4.79374E-06 1.32349E-23
 -1        69 5.60374E-05-3.50670E-06-6.61744E-24
 -1        70 5.46356E-05-1.80618E-06-1.32349E-23
 -1        86 6.03182E-05 5.69196E-08 0.00000E+00
 -1        87 5.97258E-05 1.13396E-07 8.27181E-25
 -1        88 5.87258E-05 1.69517E-07-8.27181E-25
 -1        89 5.73050E-05 2.23307E-07 5.16988E-26
 -1        90 5.54374E-05 2.77012E-07 0.00000E+00
 -1       121 5.61529E-05-1.25471E-07-3.30872E-24
 -1       122 5.58057E-05-2.50997E-07 0.00000E+00
 -1       123 5.52273E-05-3.76630E-07 0.00000E+00
 -1       124 5.44184E-05-5.02445E-07 0.00000E+00
 -1       125 5.33794E-05-6.28460E-07 0.00000E+00
 -1       191 4.04069E-05 4.53506E-08-1.65436E-24
 -1       192 4.03825E-05 9.07003E-08 0.00000E+00
 -1       193 4.03420E-05 1.36050E-07 0.00000E+00
 -1       194 4.02851E-05 1.81398E-07 8.27181E-25
 -1       195 4.02121E-05 2.26743E-07 1.65436E-24
 -1       251 5.22505E-05 1.69963E-06 0.00000E+00
 -1       252 5.23063E-05 2.99279E-06 0.00000E+00
 -1       253 5.23622E-05 3.55438E-06 0.00000E+00
 -1       254 5.24200E-05 3.52764E-06 0.00000E+00
 -1       255 5.24778E-05 3.03791E-06-1.65436E-24
 -1       256 5.25357E-05 2.20939E-06 0.00000E+00
 -1       257 5.25934E-05 1.15590E-06-1.65436E-24
 -1       258 5.26511E-05-9.30046E-09-8.27181E-25
 -1       259 5.27089E-05-1.17641E-06 0.00000E+00
 -1       260 5.27666E-05-2.23559E-06 8.27181E-25
 -1       261 5.28245E-05-3.07369E-06 1.65436E-24
 -1       262 5.28823E-05-3.57707E-06 0.00000E+00
 -1       263 5.29401E-05-3.62177E-06 8.27181E-25
 -1       264 5.29959E-05-3.08272E-06 0.00000E+00
 -1       265 5.30517E-05-1.81704E-06-1.65436E-24
 -1       266 4.95906E-05-4.82211E-07 3.30872E-24
 -1       267 4.69754E-05-4.86872E-07 0.00000E+00
 -1       268 4.43601E-05-4.91995E-07 8.27181E-25
 -1       269 4.17448E-05-4.95749E-07 2.06795E-25
 -1       270 3.91295E-05-4.99471E-07 2.06795E-25
 -1       271 5.06181E-05 1.47186E-06-1.32349E-23
 -1       272 4.92730E-05 2.69395E-06 0.00000E+00
 -1       273 4.81641E-05 3.29121E-06 0.00000E+00
 -1       274 4.72516E-05 3.35380E-06 0.00000E+00
 -1       275 4.65023E-05 2.98048E-06 0.00000E+00
 -1       276 4.58775E-05 2.27285E-06 1.32349E-23
 -1       277 4.53383E-05 1.33635E-06 0.00000E+00
 -1       278 4.48443E-05 2.78484E-07 0.00000E+00
 -1       279 4.43551E-05-7.91961E-07-2.64698E-23
 -1       280 4.38298E-05-1.76604E-06 0.00000E+00
 -1       281 4.32282E-05-2.53589E-06 2.64698E-23
 -1       282 4.25109E-05-2.99559E-06 0.00000E+00
 -1       283 4.16390E-05-3.04257E-06 0.00000E+00
 -1       284 4.05778E-05-2.57742E-06 0.00000E+00
 -1       285 3.92886E-05-1.50805E-06 0.00000E+00
 -1       301 5.04989E-05 3.06743E-07 0.00000E+00
 -1       302 4.79019E-05 3.01299E-07 0.00000E+00
 -1       303 4.53172E-05 2.96073E-07 0.00000E+00
 -1       304 4.27566E-05 2.89968E-07 1.65436E-24
 -1       305 4.02322E-05 2.82631E-07 0.00000E+00
 -1       306 5.14681E-05 2.21092E-06 1.32349E-23
 -1       307 5.01034E-05 3.32249E-06-1.32349E-23
 -1       308 4.90155E-05 3.70329E-06 0.00000E+00
 -1       309 4.81763E-05 3.40730E-06-1.32349E-23
 -1       310 4.75489E-05 2.54589E-06-2.64698E-23
 -1       311 4.70858E-05 1.24257E-06 0.00000E+00
 -1       312 4.67284E-05-3.43533E-07 0.00000E+00
 -1       313 4.64145E-05-2.04663E-06 0.00000E+00
 -1       314 4.60788E-05-3.69131E-06-2.64698E-23
 -1       315 4.56565E-05-5.10365E-06 1.32349E-23
 -1       316 4.50893E-05-6.12860E-06 2.64698E-23
 -1       317 4.43236E-05-6.62037E-06 0.00000E+00
 -1       318 4.33193E-05-6.47595E-06 2.64698E-23
 -1       319 4.20484E-05-5.60590E-06 0.00000E+00
 -1       320 4.04915E-05-3.98259E-06-1.32349E-23
 -1       336 5.05852E-05-8.91662E-07 3.30872E-24
 -1       337 4.87709E-05-1.02904E-06 0.00000E+00
 -1       338 4.66704E-05-1.16693E-06 0.00000E+00
 -1       339 4.42860E-05-1.30524E-06 0.00000E+00
 -1       340 4.16201E-05-1.44425E-06-3.30872E-24
 -1       406 4.00173E-05 3.17419E-07 0.00000E+00
 -1       407 3.98955E-05 3.62737E-07-8.27181E-25
 -1       408 3.97575E-05 4.08026E-07 0.00000E+00
 -1       409 3.96033E-05 4.53229E-07 0.00000E+00
 -1       410 3.94329E-05 4.98257E-07-1.65436E-24
 -1       521 3.54794E-05 1.66947E-06 2.64698E-23
 -1       522 3.34928E-05 2.15921E-06-2.64698E-23
 -1       523 3.18315E-05 1.79227E-06 0.00000E+00
 -1       524 3.04523E-05 6.46011E-07-2.64698E-23
 -1       525 2.92991E-05-1.10490E-06-5.29396E-23
 -1       526 2.82962E-05-3.26303E-06 0.00000E+00
 -1       527 2.73535E-05-5.58266E-06-5.29396E-23
 -1       528 2.63766E-05-7.81170E-06 0.00000E+00
 -1       529 2.52756E-05-9.70832E-06 0.00000E+00
 -1       530 2.39656E-05-1.10452E-05-2.64698E-23
 -1       531 2.23853E-05-1.16603E-05 0.00000E+00
 -1       532 2.04866E-05-1.14224E-05-2.64698E-23
 -1       533 1.82553E-05-1.03001E-05 0.00000E+00
 -1       534 1.57014E-05-8.29699E-06-2.64698E-23
 -1       535 1.28535E-05-5.52554E-06 0.00000E+00
 -1       536 3.86709E-05 1.15001E-06 0.00000E+00
 -1       537 3.86719E-05 3.18569E-06 0.00000E+00
 -1       538 3.86736E-05 4.60332E-06 0.00000E+00
 -1       539 3.86767E-05 5.48163E-06 0.00000E+00
 -1       540 3.86801E-05 5.89501E-06 0.00000E+00
 -1       541 3.86838E-05 5.91776E-06 0.00000E+00
 -1       542 3.86875E-05 5.62098E-06 1.03398E-25
 -1       543 3.86911E-05 5.07571E-06 0.00000E+00
 -1       544 3.86946E-05 4.35093E-06 1.03398E-25
 -1       545 3.86980E-05 3.51557E-06-5.16988E-26
 -1       546 3.87014E-05 2.63767E-06 0.00000E+00
 -1       547 3.87048E-05 1.78526E-06-5.16988E-26
 -1       548 3.87083E-05 1.02656E-06 0.00000E+00
 -1       549 3.87120E-05 4.29824E-07-1.03398E-25
 -1       550 3.87158E-05 6.46674E-08-4.13590E-25
 -1       551 3.48089E-05-1.66354E-06-1.65436E-24
 -1       552 3.02115E-05-1.74621E-06 8.27181E-25
 -1       553 2.51468E-05-1.83118E-06-1.65436E-24
 -1       554 1.98819E-05-1.91844E-06 3.30872E-24
 -1       555 1.46837E-05-2.00683E-06 0.00000E+00
 -1       556 3.76564E-05 1.06547E-06 0.00000E+00
 -1       557 3.68793E-05 3.08345E-06 0.00000E+00
 -1       558 3.63182E-05 4.52999E-06 0.00000E+00
 -1       559 3.59489E-05 5.46815E-06 0.00000E+00
 -1       560 3.57473E-05 5.96077E-06 0.00000E+00
 -1       561 3.56893E-05 6.07105E-06 0.00000E+00
 -1       562 3.57510E-05 5.86218E-06 0.00000E+00
 -1       563 3.59087E-05 5.39745E-06-1.65436E-24
 -1       564 3.61385E-05 4.74012E-06 0.00000E+00
 -1       565 3.64167E-05 3.95351E-06 0.00000E+00
 -1       566 3.67196E-05 3.10093E-06 0.00000E+00
 -1       567 3.70235E-05 2.24572E-06 0.00000E+00
 -1       568 3.73047E-05 1.45118E-06 0.00000E+00
 -1       569 3.75395E-05 7.80564E-07 0.00000E+00
 -1       570 3.77042E-05 2.97148E-07 0.00000E+00
 -1       571 3.87521E-05 5.57767E-08-6.20385E-25
 -1       572 3.87848E-05 8.91454E-08-1.03398E-25
 -1       573 3.88176E-05 1.04675E-07 4.13590E-25
 -1       574 3.88506E-05 1.06421E-07 0.00000E+00
 -1       575 3.88835E-05 9.84569E-08 0.00000E+00
 -1       576 3.89165E-05 8.48820E-08 4.13590E-25
 -1       577 3.89496E-05 6.97995E-08-8.27181E-25
 -1       578 3.89826E-05 5.73161E-08-8.27181E-25
 -1       579 3.90156E-05 5.15381E-08 0.00000E+00
 -1       580 3.90486E-05 5.65722E-08 0.00000E+00
 -1       581 3.90816E-05 7.65244E-08 0.00000E+00
 -1       582 3.91146E-05 1.15496E-07 0.00000E+00
 -1       583 3.91476E-05 1.77585E-07 0.00000E+00
 -1       584 3.91806E-05 2.66845E-07-1.65436E-24
 -1       585 3.92136E-05 3.87308E-07 0.00000E+00
 -1       586 3.85516E-05 1.17222E-08-8.27181E-25
 -1       587 3.83692E-05 2.24451E-08 0.00000E+00
 -1       588 3.81865E-05 3.30476E-08 0.00000E+00
 -1       589 3.80175E-05 4.34805E-08 0.00000E+00
 -1       590 3.78761E-05 5.36286E-08 0.00000E+00
 -1       591 3.86844E-05 7.23608E-08-7.75482E-26
 -1       592 3.86540E-05 1.25955E-07 0.00000E+00
 -1       593 3.86290E-05 1.64931E-07 0.00000E+00
 -1       594 3.86082E-05 1.92381E-07 0.00000E+00
 -1       595 3.85906E-05 2.11438E-07 4.13590E-25
 -1       596 3.85748E-05 2.25211E-07-1.03398E-25
 -1       597 3.85599E-05 2.36809E-07 0.00000E+00
 -1       598 3.85447E-05 2.49337E-07 0.00000E+00
 -1       599 3.85279E-05 2.65902E-07 2.06795E-25
 -1       600 3.85084E-05 2.89607E-07-1.03398E-25
 -1       601 3.84851E-05 3.23559E-07 0.00000E+00
 -1       602 3.84569E-05 3.70867E-07-5.16988E-26
 -1       603 3.84225E-05 4.34639E-07-1.29247E-25
 -1       604 3.83809E-05 5.18010E-07 0.00000E+00
 -1       605 3.83309E-05 6.24071E-07 4.13590E-25
 -1       606 3.92526E-05 7.73093E-07 1.65436E-24
 -1       607 3.92576E-05 1.05079E-06 0.00000E+00
 -1       608 3.92622E-05 1.37302E-06 0.00000E+00
 -1       609 3.92667E-05 1.73663E-06 0.00000E+00
 -1       610 3.92712E-05 2.13849E-06 0.00000E+00
 -1       611 3.92756E-05 2.57542E-06 0.00000E+00
 -1       612 3.92800E-05 3.04420E-06 0.00000E+00
 -1       613 3.92843E-05 3.54166E-06 0.00000E+00
 -1       614 3.92887E-05 4.06459E-06 0.00000E+00
 -1       615 3.92930E-05 4.60979E-06 0.00000E+00
 -1       616 3.92973E-05 5.17408E-06 0.00000E+00
 -1       617 3.93017E-05 5.75426E-06 0.00000E+00
 -1       618 3.93059E-05 6.34711E-06 0.00000E+00
 -1       619 3.93102E-05 6.94947E-06 0.00000E+00
 -1       620 3.93145E-05 7.55812E-06 0.00000E+00
 -1       621 3.90621E-05 5.78316E-07 0.00000E+00
 -1       622 3.88900E-05 6.14111E-07 4.13590E-25
 -1       623 3.87277E-05 6.49900E-07-8.27181E-25
 -1       624 3.85724E-05 6.85633E-07 4.13590E-25
 -1       625 3.84216E-05 7.21304E-07 8.27181E-25
 -1       626 3.91982E-05 7.84284E-07-1.65436E-24
 -1       627 3.91355E-05 1.06507E-06 8.27181E-25
 -1       628 3.90595E-05 1.38143E-06 0.00000E+00
 -1       629 3.89717E-05 1.72948E-06 0.00000E+00
 -1       630 3.88734E-05 2.10536E-06 1.65436E-24
 -1       631 3.87661E-05 2.50517E-06 0.00000E+00
 -1       632 3.86514E-05 2.92498E-06 0.00000E+00
 -1       633 3.85306E-05 3.36092E-06 0.00000E+00
 -1       634 3.84052E-05 3.80906E-06 1.65436E-24
 -1       635 3.82766E-05 4.26550E-06 8.27181E-25
 -1       636 3.81465E-05 4.72635E-06 0.00000E+00
 -1       637 3.80161E-05 5.18769E-06 0.00000E+00
 -1       638 3.78870E-05 5.64561E-06 8.27181E-25
 -1       639 3.77605E-05 6.09623E-06-4.13590E-25
 -1       640 3.76381E-05 6.53561E-06 0.00000E+00
 -1       656 3.88096E-05 7.97302E-06 3.30872E-24
 -1       657 3.84787E-05 7.76827E-06-1.65436E-24
 -1       658 3.82563E-05 7.56415E-06 0.00000E+00
 -1       659 3.80720E-05 7.36019E-06 1.65436E-24
 -1       660 3.78515E-05 7.15559E-06 3.30872E-24
 -1       661 3.91301E-05 8.76960E-06 0.00000E+00
 -1       662 3.89527E-05 9.34428E-06 0.00000E+00
 -1       663 3.87844E-05 9.89439E-06-8.27181E-25
 -1       664 3.86252E-05 1.04211E-05 4.13590E-25
 -1       665 3.84744E-05 1.09252E-05 0.00000E+00
 -1       666 3.83318E-05 1.14077E-05 0.00000E+00
 -1       667 3.81970E-05 1.18696E-05 8.27181E-25
 -1       668 3.80696E-05 1.23117E-05 0.00000E+00
 -1       669 3.79493E-05 1.27348E-05 0.00000E+00
 -1       670 3.78357E-05 1.31400E-05 4.13590E-25
 -1       671 3.77287E-05 1.35279E-05 0.00000E+00
 -1       672 3.76277E-05 1.38993E-05 0.00000E+00
 -1       673 3.75325E-05 1.42552E-05 0.00000E+00
 -1       674 3.74426E-05 1.45961E-05 4.13590E-25
 -1       675 3.73581E-05 1.49229E-05 0.00000E+00
 -1       676 3.87523E-05 1.54293E-05-8.27181E-25
 -1       677 3.84567E-05 1.53903E-05 0.00000E+00
 -1       678 3.81613E-05 1.53513E-05-8.27181E-25
 -1       679 3.78660E-05 1.53124E-05 4.13590E-25
 -1       680 3.75710E-05 1.52736E-05 8.27181E-25
 -1       771 7.86488E-06 1.59249E-06 0.00000E+00
 -1       772 6.16451E-06 4.61315E-06 0.00000E+00
 -1       773 4.70518E-06 6.99535E-06 0.00000E+00
 -1       774 3.47025E-06 8.78172E-06 1.32349E-23
 -1       775 2.44349E-06 1.00154E-05 0.00000E+00
 -1       776 1.60813E-06 1.07402E-05 0.00000E+00
 -1       777 9.47269E-07 1.10006E-05 0.00000E+00
 -1       778 4.43818E-07 1.08415E-05-6.61744E-24
 -1       779 8.05936E-08 1.03084E-05 0.00000E+00
 -1       780-1.59757E-07 9.44722E-06 0.00000E+00
 -1       781-2.94615E-07 8.30412E-06 0.00000E+00
 -1       782-3.41496E-07 6.92577E-06 0.00000E+00
 -1       783-3.17930E-07 5.35896E-06 1.32349E-23
 -1       784-2.41504E-07 3.65085E-06 0.00000E+00
 -1       785-1.29862E-07 1.84866E-06 1.32349E-23
 -1       786 3.78050E-05 6.88331E-08 0.00000E+00
 -1       787 3.78360E-05 7.51479E-08 0.00000E+00
 -1       788 3.78668E-05 8.24321E-08 0.00000E+00
 -1       789 3.78980E-05 9.13438E-08 0.00000E+00
 -1       790 3.79292E-05 1.02656E-07-8.27181E-25
 -1       791 3.79605E-05 1.17144E-07 0.00000E+00
 -1       792 3.79918E-05 1.35809E-07 0.00000E+00
 -1       793 3.80230E-05 1.59658E-07 4.13590E-25
 -1       794 3.80543E-05 1.90063E-07 0.00000E+00
 -1       795 3.80856E-05 2.28405E-07 0.00000E+00
 -1       796 3.81169E-05 2.76627E-07 0.00000E+00
 -1       797 3.81482E-05 3.36685E-07 0.00000E+00
 -1       798 3.81794E-05 4.11371E-07-8.27181E-25
 -1       799 3.82106E-05 5.03496E-07-4.13590E-25
 -1       800 3.82418E-05 6.17107E-07 0.00000E+00
 -1       801 3.52215E-05 7.77858E-08 2.06795E-25
 -1       802 2.76364E-05 6.87613E-08 0.00000E+00
 -1       803 1.76711E-05 4.05528E-08-1.65436E-24
 -1       804 7.97429E-06 1.12910E-08-1.65436E-24
 -1       805 1.19835E-06 5.04151E-09 0.00000E+00
 -1       806 3.77349E-05 4.79594E-08 8.27181E-25
 -1       807 3.76926E-05 3.31506E-08 4.13590E-25
 -1       808 3.76489E-05 2.08362E-08 1.65436E-24
 -1       809 3.76034E-05 1.30785E-08 4.13590E-25
 -1       810 3.75554E-05 1.19357E-08 8.27181E-25
 -1       811 3.75041E-05 1.94362E-08 0.00000E+00
 -1       812 3.74488E-05 3.76060E-08 0.00000E+00
 -1       813 3.73887E-05 6.84665E-08-4.13590E-25
 -1       814 3.73231E-05 1.14039E-07 0.00000E+00
 -1       815 3.72512E-05 1.76342E-07 0.00000E+00
 -1       816 3.71723E-05 2.57395E-07 8.27181E-25
 -1       817 3.70856E-05 3.59217E-07-4.13590E-25
 -1       818 3.69904E-05 4.83825E-07-1.65436E-24
 -1       819 3.68860E-05 6.33230E-07 8.27181E-25
 -1       820 3.67716E-05 8.09443E-07 0.00000E+00
 -1       821 3.82282E-05 9.24806E-07-4.13590E-25
 -1       822 3.81812E-05 1.12658E-06 0.00000E+00
 -1       823 3.81343E-05 1.36636E-06 0.00000E+00
 -1       824 3.80869E-05 1.64881E-06 8.27181E-25
 -1       825 3.80395E-05 1.97430E-06 0.00000E+00
 -1       826 3.79919E-05 2.34310E-06 0.00000E+00
 -1       827 3.79443E-05 2.75107E-06-1.65436E-24
 -1       828 3.78967E-05 3.19403E-06-8.27181E-25
 -1       829 3.78491E-05 3.66421E-06 0.00000E+00
 -1       830 3.78015E-05 4.15381E-06-8.27181E-25
 -1       831 3.77539E-05 4.65307E-06 0.00000E+00
 -1       832 3.77064E-05 5.15218E-06 8.27181E-25
 -1       833 3.76589E-05 5.64136E-06 0.00000E+00
 -1       834 3.76120E-05 6.11087E-06 0.00000E+00
 -1       835 3.75649E-05 6.55292E-06 0.00000E+00
 -1       836 3.80735E-05 7.99245E-07-8.27181E-25
 -1       837 3.78178E-05 8.43170E-07 0.00000E+00
 -1       838 3.75263E-05 8.87016E-07 0.00000E+00
 -1       839 3.72200E-05 9.30585E-07 0.00000E+00
 -1       840 3.69199E-05 9.74085E-07 0.00000E+00
 -1       856 3.75070E-05 7.37682E-06 0.00000E+00
 -1       857 3.74919E-05 7.84575E-06 0.00000E+00
 -1       858 3.74768E-05 8.35837E-06 0.00000E+00
 -1       859 3.74615E-05 8.90645E-06-2.06795E-25
 -1       860 3.74461E-05 9.48171E-06 0.00000E+00
 -1       861 3.74307E-05 1.00759E-05 0.00000E+00
 -1       862 3.74153E-05 1.06807E-05 0.00000E+00
 -1       863 3.73998E-05 1.12878E-05 2.06795E-25
 -1       864 3.73844E-05 1.18890E-05-4.13590E-25
 -1       865 3.73689E-05 1.24760E-05 0.00000E+00
 -1       866 3.73535E-05 1.30404E-05 0.00000E+00
 -1       867 3.73381E-05 1.35739E-05 2.06795E-25
 -1       868 3.73227E-05 1.40685E-05 4.13590E-25
 -1       869 3.73073E-05 1.45157E-05-2.06795E-25
 -1       870 3.72919E-05 1.49075E-05 0.00000E+00
 -1       871 3.72010E-05 6.95944E-06 0.00000E+00
 -1       872 3.69311E-05 6.95803E-06 0.00000E+00
 -1       873 3.66897E-05 6.95644E-06 0.00000E+00
 -1       874 3.64550E-05 6.95460E-06 1.03398E-25
 -1       875 3.62054E-05 6.95253E-06-2.06795E-25
 -1       876 3.74095E-05 7.38107E-06 0.00000E+00
 -1       877 3.72900E-05 7.82759E-06-8.27181E-25
 -1       878 3.71623E-05 8.29628E-06-1.65436E-24
 -1       879 3.70275E-05 8.78433E-06 8.27181E-25
 -1       880 3.68865E-05 9.28886E-06 1.65436E-24
 -1       881 3.67403E-05 9.80702E-06-8.27181E-25
 -1       882 3.65902E-05 1.03360E-05 1.65436E-24
 -1       883 3.64370E-05 1.08729E-05 0.00000E+00
 -1       884 3.62819E-05 1.14149E-05 0.00000E+00
 -1       885 3.61260E-05 1.19593E-05 0.00000E+00
 -1       886 3.59702E-05 1.25030E-05-1.65436E-24
 -1       887 3.58157E-05 1.30434E-05-4.13590E-25
 -1       888 3.56635E-05 1.35774E-05-8.27181E-25
 -1       889 3.55144E-05 1.41024E-05 4.13590E-25
 -1       890 3.53696E-05 1.46154E-05 0.00000E+00
 -1       891 3.69916E-05 1.52150E-05 4.13590E-25
 -1       892 3.66979E-05 1.51944E-05 0.00000E+00
 -1       893 3.63850E-05 1.51738E-05-4.13590E-25
 -1       894 3.60425E-05 1.51533E-05 1.03398E-25
 -1       895 3.56603E-05 1.51328E-05 2.06795E-25
 -1       956 3.66024E-05 1.27822E-06 0.00000E+00
 -1       957 3.65571E-05 1.57116E-06-4.13590E-25
 -1       958 3.65116E-05 1.89021E-06-8.27181E-25
 -1       959 3.64660E-05 2.23217E-06 4.13590E-25
 -1       960 3.64204E-05 2.59383E-06 0.00000E+00
 -1       961 3.63747E-05 2.97197E-06-4.13590E-25
 -1       962 3.63291E-05 3.36336E-06 0.00000E+00
 -1       963 3.62834E-05 3.76477E-06 0.00000E+00
 -1       964 3.62378E-05 4.17296E-06-1.65436E-24
 -1       965 3.61921E-05 4.58471E-06 0.00000E+00
 -1       966 3.61465E-05 4.99678E-06-1.65436E-24
 -1       967 3.61008E-05 5.40594E-06 0.00000E+00
 -1       968 3.60552E-05 5.80897E-06 0.00000E+00
 -1       969 3.60097E-05 6.20264E-06 0.00000E+00
 -1       970 3.59643E-05 6.58374E-06 0.00000E+00
 -1       971 3.58769E-05 7.32444E-06 0.00000E+00
 -1       972 3.58336E-05 7.73828E-06 0.00000E+00
 -1       973 3.57903E-05 8.18640E-06-8.27181E-25
 -1       974 3.57468E-05 8.66438E-06 0.00000E+00
 -1       975 3.57034E-05 9.16779E-06-8.27181E-25
 -1       976 3.56599E-05 9.69217E-06 8.27181E-25
 -1       977 3.56165E-05 1.02331E-05 0.00000E+00
 -1       978 3.55730E-05 1.07861E-05 8.27181E-25
 -1       979 3.55295E-05 1.13468E-05-1.65436E-24
 -1       980 3.54860E-05 1.19107E-05-8.27181E-25
 -1       981 3.54425E-05 1.24734E-05 0.00000E+00
 -1       982 3.53991E-05 1.30304E-05 2.48154E-24
 -1       983 3.53557E-05 1.35772E-05-1.65436E-24
 -1       984 3.53126E-05 1.41095E-05-8.27181E-25
 -1       985 3.52696E-05 1.46229E-05 8.27181E-25
 -3
    1PSTEP                         2           1           1          
  100CL  101 2.50000E-01         409                     0    1           1
 -4  STRESS      6    1
 -5  SXX         1    4    1    1
 -5  SYY         1    4    2    2
 -5  SZZ         1    4    3    3
 -5  SXY         1    4    1    2
 -5  SYZ         1    4    2    3
 -5  SZX         1    4    3    1
 -1         1-8.60676E+05-3.97710E+05-1.74455E+05-5.58012E+05 8.73115E-11 1.41881E-09
 -1         2 1.44747E+03 1.64719E+05 4.71636E+03 2.76635E+02-8.22808E-11 1.54833E-09
 -1         3-1.96880E+01-3.58659E+05 8.28412E+01-6.73551E+01-9.70939E-11-5.38694E-09
 -1         5-2.21333E+00 1.29752E+05 3.39703E+00-5.25885E-02 6.15111E-11 2.30693E-09
 -1         8-4.05335E+05-1.77203E+05-1.32743E+04-3.09332E+05 2.63753E-11-1.34605E-09
 -1         9-6.91922E+05-1.80042E+05-6.82399E+04-2.41611E+05 1.69457E-09 2.36032E-09
 -1        10-2.67104E+02-3.73649E+05-4.66498E+02-4.46100E+02-1.73191E-09 5.72219E-09
 -1        12-8.18808E-01 1.29759E+05 1.10116E+02-1.09683E-01 8.73506E-11 9.68384E-10
 -1        15 1.07807E+03 5.92452E+02 3.48483E+03 1.21921E+00-1.34993E-08-5.35026E-06
 -1        16-1.96862E+06-6.34986E+05-3.06121E+05-6.46113E+05 5.76498E-09-4.15215E-09
 -1        17-4.27012E+05-2.65843E+05-8.13980E+04-2.52205E+05-2.61352E-09 2.21335E-09
 -1        18 1.91025E+04 2.32741E+03-5.20356E+03-3.04579E+04 4.05350E-10 3.19847E-09
 -1        19 4.06656E+04 4.85061E+04-2.22426E+02 7.97633E+03-3.43061E-10-3.89882E-09
 -1        20-1.67829E+04-1.92245E+05-4.23811E+04 1.43653E+04 2.01438E-09 7.36994E-10
 -1        21-1.82319E+01-1.11628E+05-3.60626E+02-2.26378E+01-6.73848E-09-4.92694E-09
 -1        24-1.72593E+06-6.04386E+05-2.46888E+05-7.35920E+05-7.88107E-09-3.93144E-09
 -1        25 1.67954E+04 3.83271E+03 1.05713E+04-5.55146E+04 4.25098E-10 2.43599E-09
 -1        26-9.35921E+03 3.31669E+04-6.57107E+03-4.76306E+03 8.72387E-10 7.69484E-10
 -1        27-3.08103E+04-1.05502E+05-3.95823E+04 2.37780E+04 3.07530E-09-5.33115E-10
 -1        28 8.62090E+03-3.08319E+04 6.29940E+03 9.90668E+03 2.19367E-09-2.35658E-09
 -1        32-4.08198E+05-4.60658E+04 1.81246E+05-2.77888E+05-8.13452E-09 6.79649E-09
 -1        33-6.03465E+04 3.10406E+04 1.10045E+04-1.80483E+04 6.58038E-10-6.96370E-10
 -1        34-7.83637E+04-7.79550E+03 1.85757E+02 2.40836E+04 1.76381E-09-2.13815E-09
 -1        35-8.77296E+03-1.22662E+04-4.77647E+02 1.94404E+04 1.05059E-09 8.84029E-10
 -1        51 8.19556E+03-2.05261E+05 1.97651E+04-5.04505E+05 9.45874E-11-1.74623E-09
 -1        52 3.98455E+03-2.03233E+05 1.29973E+04-5.88408E+05 3.31056E-10-2.59024E-09
 -1        53 2.40693E+03-2.08001E+05 1.13458E+04-5.02798E+05 8.73115E-11-5.48607E-09
 -1        54 7.90627E+03-2.05911E+05 1.83167E+04-5.90229E+05 6.91216E-11-3.79805E-09
 -1        55 1.81771E+04-2.12523E+05 3.29722E+04-5.02589E+05 1.67347E-10-1.52795E-09
 -1        56-1.65346E+06-1.87098E+05-1.29027E+05-6.37793E+05 4.45652E-10-2.74304E-09
 -1        57-1.70577E+06-3.03268E+05-8.69585E+04-6.32283E+05 4.15457E-09 4.63479E-09
 -1        58-1.67911E+06-2.28208E+05-3.03790E+04-6.30023E+05 1.28239E-09-1.53705E-09
 -1        59-1.67610E+06-2.55074E+05-1.81358E+04-6.41623E+05 6.33804E-10-1.01088E-08
 -1        60-1.68289E+06-2.33917E+05-7.10213E+03-6.28949E+05 6.92694E-10-7.94898E-09
 -1        61-1.67201E+06-2.48113E+05-4.03973E+03-6.42549E+05-3.02236E-10 1.17939E-09
 -1        62-1.68316E+06-2.34997E+05-1.94704E+03-6.29151E+05 6.46878E-10 4.18915E-09
 -1        63-1.67234E+06-2.46371E+05-1.60578E+03-6.41602E+05 8.88122E-10 2.24009E-09
 -1        64-1.68254E+06-2.35653E+05-1.84138E+03-6.29886E+05 6.96105E-10 3.08455E-09
 -1        65-1.67435E+06-2.45519E+05-3.69612E+03-6.39642E+05 9.26377E-10-3.13628E-09
 -1        66-1.68111E+06-2.35886E+05-6.49349E+03-6.31084E+05-4.98744E-10 9.18590E-11
 -1        67-1.68028E+06-2.49584E+05-1.64908E+04-6.36172E+05-1.33662E-09-2.88514E-09
 -1        68-1.67662E+06-2.31766E+05-2.76702E+04-6.33283E+05 1.15824E-09-1.72076E-09
 -1        69-1.70920E+06-2.91515E+05-7.91140E+04-6.25482E+05 5.37284E-10-1.09558E-08
 -1        70-1.65241E+06-1.95207E+05-1.17444E+05-6.41318E+05 1.00044E-10-2.80852E-09
 -1        86-7.25213E+02 1.63315E+05 5.06295E+03-1.38325E+02 6.57110E-10 2.80272E-09
 -1        87 4.81576E+03 1.66358E+05 1.05490E+04 5.66216E+02 1.09242E-09-2.21814E-09
 -1        88-4.08359E+03 1.61676E+05 1.61656E+04-4.27906E+02 1.61253E-09-1.36816E-09
 -1        89 3.04350E+04 1.78279E+05 4.35739E+04 1.20694E+03 2.51930E-09-5.54355E-09
 -1        90-2.62605E+04 1.51399E+05 6.15713E+04-7.78868E+02 2.80124E-09 5.13944E-09
 -1       121-3.65083E+01-3.58780E+05 8.18364E+01 3.36565E+01 1.85672E-10-1.78989E-09
 -1       122 7.43364E+00-3.58641E+05 1.81360E+02-1.34867E+02-7.38448E-10-8.42192E-10
 -1       123-5.64197E+01-3.58800E+05 2.97228E+02 1.01086E+02 5.66530E-10 8.67658E-10
 -1       124 3.40967E+02-3.58435E+05 7.61731E+02-3.34757E+02-1.25186E-09-3.77213E-10
 -1       125-2.73739E+02-3.58988E+05 1.17253E+03 2.33561E+02 9.57016E-10 1.26784E-09
 -1       191-2.43640E+00 1.29763E+05 4.07282E+00 2.61269E-02 8.81281E-11-1.45837E-09
 -1       192-2.52512E+00 1.29752E+05 7.19243E+00 1.60024E-01 1.27025E-10-3.32102E-09
 -1       193-3.26569E+00 1.29763E+05 1.33885E+01-1.87322E-01 1.39750E-10-6.64841E-10
 -1       194-3.52869E+00 1.29753E+05 2.72057E+01 5.04247E-01 1.16270E-10-6.04814E-11
 -1       195-4.85984E+00 1.29762E+05 5.32294E+01-3.20172E-01 2.28724E-10-4.36830E-09
 -1       251 1.54744E+05-2.58645E+04 6.04720E+04 2.20825E+03 2.23508E-10-4.72937E-11
 -1       252 1.81813E+05 2.99395E+04 4.28241E+04-7.61853E+03-6.86782E-10 1.56160E-09
 -1       253 1.65050E+05-4.00595E+03 1.56554E+04 1.64009E+03 1.17041E-10-1.51886E-09
 -1       254 1.69717E+05 4.63163E+03 9.87220E+03-6.71597E+03-7.93534E-11-1.85901E-09
 -1       255 1.66807E+05-6.19299E+02 4.04493E+03 1.30581E+03-1.24004E-10 3.32875E-09
 -1       256 1.67630E+05 7.33641E+02 2.45345E+03-6.22099E+03 4.20357E-11 2.91209E-10
 -1       257 1.67121E+05-1.08521E+02 1.26355E+03 1.14510E+03-8.64020E-12-7.18359E-10
 -1       258 1.67312E+05 2.26721E+02 1.11817E+03-6.05886E+03-1.62133E-10 6.01510E-09
 -1       259 1.67121E+05-1.10236E+02 1.27977E+03 1.14368E+03 2.47908E-11 3.03800E-10
 -1       260 1.67637E+05 7.48676E+02 2.49963E+03-6.21583E+03-2.38387E-11-1.60028E-09
 -1       261 1.66801E+05-6.32461E+02 4.12922E+03 1.30207E+03 4.99767E-10 2.92630E-10
 -1       262 1.69763E+05 4.73089E+03 1.00804E+04-6.70464E+03 4.28599E-10 1.44996E-09
 -1       263 1.65010E+05-4.09149E+03 1.59910E+04 1.63250E+03-3.16163E-10 5.03587E-09
 -1       264 1.82106E+05 3.05800E+04 4.37362E+04-7.60010E+03-1.27861E-09 2.93539E-09
 -1       265 1.54491E+05-2.64166E+04 6.17693E+04 2.19741E+03-7.46127E-10 4.91127E-09
 -1       266-1.95168E+04-9.12666E+03 4.57889E+04-2.60864E+01-2.10875E-08-8.42852E-06
 -1       267 2.26251E+04 1.06363E+04 3.23644E+04 3.01001E+01-4.17695E-08-1.66522E-05
 -1       268-3.03400E+03-1.50645E+03 1.20296E+04-3.83515E+00-3.34912E-08-1.33563E-05
 -1       269 3.58224E+03 1.80285E+03 7.81914E+03 4.46749E+00-2.52121E-08-1.00664E-05
 -1       270-5.37699E+02-2.96224E+02 3.77441E+03-6.06246E-01-1.86819E-08-7.41619E-06
 -1       271-1.91866E+06-2.38412E+05-1.47562E+05-7.46193E+05-6.34827E-10 4.18368E-09
 -1       272-1.95847E+06-3.59345E+05-9.48890E+04-7.60208E+05-7.23844E-10 3.94266E-09
 -1       273-1.94641E+06-2.75180E+05-3.48534E+04-7.39661E+05 5.54792E-10-1.37152E-09
 -1       274-1.92620E+06-3.14138E+05-1.95282E+04-7.70158E+05-4.39968E-10-1.59571E-09
 -1       275-1.95051E+06-2.78716E+05-8.10760E+03-7.38222E+05 3.66526E-10 5.32054E-10
 -1       276-1.92138E+06-3.09941E+05-4.31677E+03-7.72459E+05-2.48292E-10-4.34738E-09
 -1       277-1.95137E+06-2.78761E+05-2.11074E+03-7.37692E+05 1.75169E-09-2.20876E-09
 -1       278-1.92055E+06-3.09809E+05-1.53645E+03-7.73092E+05 6.11504E-09 7.98099E-09
 -1       279-1.95142E+06-2.78755E+05-1.64761E+03-7.37664E+05 2.25123E-09-1.15665E-09
 -1       280-1.92112E+06-3.09809E+05-3.01894E+03-7.72600E+05-9.75319E-10-2.21507E-09
 -1       281-1.95074E+06-2.78830E+05-5.51374E+03-7.38126E+05-8.95852E-10-2.45063E-09
 -1       282-1.92464E+06-3.12316E+05-1.31758E+04-7.70643E+05-4.43379E-11 1.28421E-09
 -1       283-1.94774E+06-2.76702E+05-2.35014E+04-7.39355E+05-9.95897E-11-1.30240E-09
 -1       284-1.94687E+06-3.42177E+05-6.39101E+04-7.63199E+05 9.86006E-10-1.83263E-09
 -1       285-1.92868E+06-2.52336E+05-9.94448E+04-7.44166E+05 7.00311E-11-1.54250E-09
 -1       301 7.29277E+03-4.61544E+03 5.70636E+04-1.43806E+04-4.76575E-10-3.65708E-09
 -1       302 7.83525E+03 9.87372E+03 4.12975E+04-2.11460E+04 1.00670E-09-8.36167E-10
 -1       303 3.30876E+02 4.97317E+02 3.81538E+04-1.44018E+04-5.81167E-10-1.53432E-09
 -1       304 1.49215E+04 1.64072E+04 6.43305E+04-2.10906E+04 4.50200E-10 1.91699E-09
 -1       305 1.47955E+04-1.11186E+04 1.08028E+05-1.44050E+04-6.03904E-10 1.09821E-09
 -1       306-2.05037E+06-2.34464E+05-1.56163E+05-7.97757E+05 1.66619E-09-2.46655E-09
 -1       307-2.12421E+06-3.73201E+05-1.06494E+05-7.78489E+05 1.38152E-09 2.47383E-10
 -1       308-2.08499E+06-2.83787E+05-3.67366E+04-7.84050E+05 6.69388E-10-9.27685E-11
 -1       309-2.08205E+06-3.17904E+05-2.22831E+04-7.97062E+05-2.95302E-10 1.89175E-10
 -1       310-2.09238E+06-2.88807E+05-8.61920E+03-7.79537E+05 9.70957E-11-4.02861E-09
 -1       311-2.07269E+06-3.12971E+05-5.00895E+03-8.03434E+05 1.08588E-09-1.89289E-09
 -1       312-2.09438E+06-2.88543E+05-2.44635E+03-7.77771E+05 7.57055E-10 1.80478E-09
 -1       313-2.07098E+06-3.12939E+05-2.20641E+03-8.04888E+05-1.49770E-09-8.14453E-10
 -1       314-2.09410E+06-2.88808E+05-2.64826E+03-7.78104E+05-1.65119E-09-7.66522E-09
 -1       315-2.07383E+06-3.12101E+05-5.59281E+03-8.02143E+05-9.63894E-10 2.56932E-10
 -1       316-2.09150E+06-2.89430E+05-9.72547E+03-7.80477E+05 1.31473E-09 1.37970E-09
 -1       317-2.08476E+06-3.17372E+05-2.51823E+04-7.94591E+05 4.89962E-10 2.15550E-09
 -1       318-2.08313E+06-2.83734E+05-4.15358E+04-7.85556E+05-1.33878E-09 3.94175E-09
 -1       319-2.13217E+06-3.80262E+05-1.20438E+05-7.74040E+05-9.73159E-10 2.87218E-09
 -1       320-2.04428E+06-2.27598E+05-1.76566E+05-8.00647E+05 4.69299E-09-1.79716E-09
 -1       336 2.88569E+02-3.88404E+05-2.04051E+03 2.12333E+02-3.54646E-09 3.67072E-09
 -1       337-7.31253E+02-3.88988E+05-2.21590E+03-5.99986E+02-6.49254E-09-7.89441E-10
 -1       338 1.85233E+02-3.88470E+05-2.75786E+03 3.86787E+02-4.78110E-09 1.92722E-09
 -1       339-2.84149E+03-3.90277E+05-6.02363E+03-9.46385E+02-8.50014E-09 4.28827E-09
 -1       340 1.93839E+03-3.87126E+05-9.26896E+03 5.57001E+02-5.72072E-09 4.77212E-09
 -1       406 7.60206E+00 1.29757E+05 2.17415E+02 4.25078E-01 3.24249E-10 3.45744E-09
 -1       407 7.49799E+01 1.29797E+05 4.62075E+02-5.76755E+00 3.91793E-11-2.78078E-09
 -1       408 2.37036E+02 1.29724E+05 9.22896E+02 5.39213E+00 3.24349E-10 6.90761E-10
 -1       409 9.97139E+02 1.30092E+05 2.07777E+03-4.83846E+01 5.33191E-11-4.29395E-09
 -1       410 2.86643E+03 1.29462E+05 4.24175E+03 4.39207E+01 3.86535E-10-4.76189E-09
 -1       521-3.89984E+06-4.49144E+05-2.91830E+05-1.51516E+06 3.24872E-09-2.95404E-09
 -1       522-4.03966E+06-7.02073E+05-1.98369E+05-1.47738E+06-1.30967E-10 5.31145E-10
 -1       523-3.96484E+06-5.39380E+05-6.86119E+04-1.48924E+06 2.18279E-09-2.51748E-09
 -1       524-3.96054E+06-6.00661E+05-4.14140E+04-1.51239E+06 8.94602E-10 2.87991E-09
 -1       525-3.97847E+06-5.48346E+05-1.60352E+04-1.48091E+06 1.36504E-09-4.36557E-11
 -1       526-3.94432E+06-5.90684E+05-9.24966E+03-1.52278E+06 1.28716E-09 1.25419E-09
 -1       527-3.98106E+06-5.48976E+05-4.44021E+03-1.47901E+06 1.70496E-09 2.19188E-10
 -1       528-3.94438E+06-5.87192E+05-3.80773E+03-1.52139E+06-1.21020E-09-1.08673E-09
 -1       529-3.97836E+06-5.51828E+05-4.46173E+03-1.48228E+06-4.01542E-10 1.16643E-09
 -1       530-3.95419E+06-5.80312E+05-9.11840E+03-1.51065E+06 5.68434E-10 1.95269E-09
 -1       531-3.97111E+06-5.55997E+05-1.59996E+04-1.48963E+06 3.03544E-11 2.59388E-09
 -1       532-3.97759E+06-5.83007E+05-4.10661E+04-1.49217E+06-1.43541E-09-2.62980E-09
 -1       533-3.95498E+06-5.49491E+05-6.81506E+04-1.50062E+06 6.25732E-10-2.91766E-09
 -1       534-4.05857E+06-6.81859E+05-1.97003E+05-1.45567E+06 1.50158E-09 2.37924E-09
 -1       535-3.89084E+06-4.59190E+05-2.89719E+05-1.52554E+06-5.40604E-09 3.72529E-09
 -1       536 5.19726E+03-1.14741E+04 2.64452E+04 3.32498E+02-1.12099E-09 1.41699E-09
 -1       537 1.73199E+04 1.32768E+04 1.88212E+04-1.13671E+03-4.07212E-09-3.12320E-09
 -1       538 9.72615E+03-1.79773E+03 6.82683E+03 2.79867E+02-5.29610E-10 2.25327E-09
 -1       539 1.19881E+04 2.07596E+03 4.34368E+03-1.05903E+03 1.17132E-09 8.01606E-10
 -1       540 1.05240E+04-2.79679E+02 1.72809E+03 2.54828E+02-8.69491E-11 3.22814E-09
 -1       541 1.10205E+04 3.20772E+02 1.02524E+03-1.01781E+03-1.35287E-11 2.50370E-09
 -1       542 1.06909E+04-4.18553E+01 4.21147E+02 2.38642E+02-7.55701E-10 3.25304E-09
 -1       543 1.08044E+04 4.27279E+01 2.19173E+02-9.92611E+02-4.31477E-12-3.02832E-09
 -1       544 1.07384E+04-5.85157E-01 5.55386E+01 2.29628E+02 4.99423E-11-3.03046E-09
 -1       545 1.07318E+04-3.25687E+01-6.46704E+01-9.81489E+02-2.39923E-10-1.18481E-09
 -1       546 1.07628E+04 3.39340E+01-1.86013E+02 2.27520E+02 1.89291E-10 9.18106E-10
 -1       547 1.06298E+04-2.52991E+02-5.10552E+02-9.84094E+02-1.15305E-09-1.46804E-09
 -1       548 1.08406E+04 2.19554E+02-8.34827E+02 2.32233E+02-1.13201E-09-1.75021E-10
 -1       549 1.00431E+04-1.61825E+03-2.27932E+03-1.00002E+03-7.02267E-10 2.46723E-09
 -1       550 1.13506E+04 1.39733E+03-3.25135E+03 2.43443E+02 2.57216E-12 1.97247E-09
 -1       551 3.07379E+03-2.05980E+05 1.17837E+04-3.51980E+05-1.54905E-08-2.25555E-09
 -1       552 5.90339E+03-2.05264E+05 1.49441E+04-5.00790E+05-1.15833E-08 3.17959E-09
 -1       553 3.59696E+03-2.07948E+05 2.32092E+04-3.50888E+05-1.87974E-08 3.72165E-09
 -1       554 1.69262E+04-1.97193E+05 4.92081E+04-5.01247E+05-1.18162E-08 4.28372E-09
 -1       555 1.79004E+04-2.17401E+05 8.85217E+04-3.51402E+05-1.85573E-08-1.39516E-09
 -1       556 2.75365E+04-6.58460E+04 2.29594E+04-8.83798E+04-1.82627E-09-3.23780E-10
 -1       557 5.51531E+04-8.89130E+04 1.20416E+04-1.11339E+05 2.45927E-09 5.60613E-09
 -1       558 2.80470E+04-6.89498E+04 4.95759E+03-8.55240E+04 1.25874E-09-5.30963E-09
 -1       559 5.21379E+04-9.22821E+04 2.48707E+03-1.12519E+05 1.09740E-08 2.69165E-09
 -1       560 2.76808E+04-6.86763E+04 1.07676E+03-8.57226E+04 3.98359E-09-1.21418E-09
 -1       561 5.14016E+04-9.21872E+04 5.50105E+02-1.12973E+05 1.60071E-10-1.84082E-09
 -1       562 2.73522E+04-6.84395E+04 2.29517E+02-8.59649E+04 6.54836E-10-2.65288E-09
 -1       563 5.09941E+04-9.20162E+04 1.27391E+02-1.13232E+05 6.27551E-10-4.18936E-09
 -1       564 2.71476E+04-6.83022E+04 4.74832E+01-8.61129E+04-3.86717E-09-7.00038E-09
 -1       565 5.07872E+04-9.19301E+04 1.90434E+01-1.13360E+05-1.63345E-09-4.63842E-11
 -1       566 2.70805E+04-6.82542E+04-2.08496E+01-8.61636E+04 3.91537E-09 3.47609E-09
 -1       567 5.07572E+04-9.19155E+04-7.48344E+01-1.13345E+05 6.82803E-10 8.93124E-10
 -1       568 2.71686E+04-6.83138E+04-1.84515E+02-8.61328E+04 2.86127E-09 1.54341E-09
 -1       569 5.05520E+04-9.18116E+04-4.36637E+02-1.12892E+05 4.98039E-09 3.15413E-09
 -1       570 2.77045E+04-6.88492E+04-8.82354E+02-8.62202E+04 8.54925E-10-1.68711E-09
 -1       571 9.41021E+04 3.40910E+03 5.04869E+03-2.35392E+04-9.69703E-09-2.79147E-09
 -1       572 9.48550E+04 1.18585E+03 2.47328E+03-2.58028E+04-1.97788E-08-3.40015E-09
 -1       573 9.44082E+04 2.82600E+02 1.09871E+03-2.34777E+04-4.50655E-10 1.68234E-09
 -1       574 9.44986E+04 9.09821E+01 5.50320E+02-2.58719E+04 1.79995E-08-5.53655E-10
 -1       575 9.44444E+04 1.14778E+01 2.59326E+02-2.34695E+04 8.39589E-09-1.39471E-09
 -1       576 9.44510E+04 1.90035E+00 1.31899E+02-2.58812E+04-1.42734E-10 4.93401E-11
 -1       577 9.44497E+04-3.13455E+00 6.49156E+01-2.34684E+04 9.11029E-10 2.19893E-09
 -1       578 9.44452E+04-1.98685E+00 3.52679E+01-2.58823E+04 6.27722E-10-8.59018E-10
 -1       579 9.44531E+04-2.80329E+00 2.14968E+01-2.34684E+04 8.61519E-10 1.58479E-09
 -1       580 9.44488E+04-2.78374E+00 1.98448E+01-2.58808E+04 5.93218E-10 8.63565E-10
 -1       581 9.44580E+04-3.54324E+00 2.69280E+01-2.34699E+04 1.40062E-10 5.10227E-10
 -1       582 9.44599E+04 1.75477E+00 5.10222E+01-2.58667E+04 4.93401E-11-1.61776E-09
 -1       583 9.44626E+04 1.63669E+01 9.82531E+01-2.34825E+04-1.19144E-10 2.08274E-10
 -1       584 9.45014E+04 9.43445E+01 2.19916E+02-2.57618E+04-7.78300E-10 3.62661E-10
 -1       585 9.44446E+04 2.89810E+02 4.47260E+02-2.35748E+04-1.50067E-11 6.18456E-11
 -1       586-1.18848E+03 3.05577E+04-1.56255E+03-8.02768E+04 2.64663E-10-2.55909E-10
 -1       587-2.72817E+02 3.03508E+04-1.96533E+02-8.83378E+04 4.66571E-10-6.07656E-10
 -1       588 3.04572E+02 3.03908E+04 1.05930E+03-8.02278E+04 2.63299E-10 2.82921E-09
 -1       589 1.58215E+03 3.09683E+04 3.11508E+03-8.82649E+04 4.06544E-10-1.08002E-09
 -1       590 4.57504E+03 2.99891E+04 6.68347E+03-8.03499E+04 2.07365E-10 2.45109E-10
 -1       591-2.03996E+04-5.87432E+03-6.83044E+03-1.06170E+04 9.62359E-11 1.61617E-09
 -1       592-2.10336E+04-7.55757E+03-3.69965E+03-1.24048E+04 8.00355E-11 1.75760E-09
 -1       593-2.10899E+04-5.37109E+03-1.54018E+03-1.11099E+04-6.73424E-10-1.60230E-09
 -1       594-2.00812E+04-6.56502E+03-7.68186E+02-1.24519E+04-6.59838E-10-5.15669E-09
 -1       595-2.11426E+04-5.36896E+03-3.53033E+02-1.11324E+04-5.70310E-10-1.01647E-09
 -1       596-2.00166E+04-6.51960E+03-1.79976E+02-1.24450E+04 4.92918E-10 2.40277E-10
 -1       597-2.11492E+04-5.37338E+03-9.90825E+01-1.11333E+04-1.96330E-10 9.23393E-10
 -1       598-2.00106E+04-6.51785E+03-8.16300E+01-1.24432E+04-2.93070E-10 1.25550E-09
 -1       599-2.11489E+04-5.37331E+03-1.06708E+02-1.11332E+04-8.48672E-11-5.85260E-10
 -1       600-2.00177E+04-6.52011E+03-2.00228E+02-1.24451E+04-2.97064E-10-2.41721E-09
 -1       601-2.11408E+04-5.36834E+03-3.95964E+02-1.11319E+04-5.44787E-10-2.16266E-09
 -1       602-2.00905E+04-6.57101E+03-8.63626E+02-1.24523E+04 1.10140E-09-3.31966E-11
 -1       603-2.10811E+04-5.37140E+03-1.73211E+03-1.11069E+04 2.12367E-10 3.31431E-09
 -1       604-2.11653E+04-7.68341E+03-4.16104E+03-1.23944E+04 2.44427E-10 3.21404E-09
 -1       605-2.03002E+04-5.94062E+03-7.68211E+03-1.05564E+04-1.19570E-09 1.07730E-09
 -1       606 1.34924E+04-4.52630E+03-8.15579E+03 1.32192E+04 5.54473E-09-3.01861E-09
 -1       607 1.20959E+04-1.45978E+03-4.06137E+03 1.48393E+04 1.70244E-08 3.01429E-09
 -1       608 1.28938E+04-2.45075E+02-1.81814E+03 1.31137E+04-7.06041E-09 4.82601E-10
 -1       609 1.27381E+04-6.58368E+01-9.18537E+02 1.49561E+04-3.62306E-08 1.91676E-10
 -1       610 1.28264E+04 9.72640E+00-4.38332E+02 1.31019E+04-1.84618E-08 2.27953E-09
 -1       611 1.27989E+04 1.27252E+01-2.21240E+02 1.49689E+04-3.86126E-09 1.59162E-09
 -1       612 1.28118E+04 1.39269E+01-1.05610E+02 1.31007E+04-4.19823E-09-1.12937E-09
 -1       613 1.28029E+04 1.39053E+01-4.82728E+01 1.49704E+04-5.00222E-09-1.70405E-09
 -1       614 1.28050E+04 1.18446E+01-1.33958E+01 1.31003E+04-1.39698E-09-6.13909E-12
 -1       615 1.28012E+04 1.42968E+01 1.48693E+01 1.49707E+04 2.17551E-09 4.09045E-10
 -1       616 1.27998E+04 1.27188E+01 4.96015E+01 1.31004E+04-2.20552E-09 2.34263E-09
 -1       617 1.28070E+04 2.51975E+01 1.14941E+02 1.49705E+04-2.36582E-10-2.18722E-09
 -1       618 1.27895E+04 4.61058E+01 2.32439E+02 1.31005E+04-5.92991E-10-1.05206E-09
 -1       619 1.28889E+04 2.05216E+02 5.22399E+02 1.49702E+04-5.00449E-10 1.92927E-09
 -1       620 1.27121E+04 5.97935E+02 1.05018E+03 1.31003E+04 8.90736E-10-6.99629E-10
 -1       621 1.65091E+02 1.02529E+05 1.42136E+03 3.16536E+03-1.87240E-10 4.97835E-10
 -1       622 1.88556E+02 1.02881E+05 1.20438E+03 4.61884E+03-6.28404E-11 6.67683E-10
 -1       623 8.39391E+00 1.02631E+05 1.38254E+03 3.15036E+03-1.32104E-10 1.64903E-09
 -1       624 6.25547E+02 1.03283E+05 2.62319E+03 4.63362E+03-1.03654E-10 1.02375E-10
 -1       625 6.27676E+02 1.02126E+05 4.55927E+03 3.15069E+03-5.02496E-11 1.36100E-09
 -1       626 8.45463E+04 2.34852E+04 1.68977E+03 4.57846E+04-1.75078E-10-9.74978E-10
 -1       627 8.33825E+04 2.43426E+04 8.13863E+02 4.76438E+04-1.63800E-09-1.13323E-09
 -1       628 8.46148E+04 2.26837E+04 3.44069E+02 4.60410E+04 1.03264E-08-1.01238E-09
 -1       629 8.31426E+04 2.41496E+04 1.68457E+02 4.77587E+04 2.79624E-08 1.48571E-08
 -1       630 8.46225E+04 2.26438E+04 7.80589E+01 4.60498E+04 9.96124E-09-2.23670E-09
 -1       631 8.31164E+04 2.41441E+04 4.18644E+01 4.77624E+04-3.32875E-10-2.01855E-09
 -1       632 8.46210E+04 2.26453E+04 2.77056E+01 4.60477E+04-1.23009E-09-1.86350E-09
 -1       633 8.31124E+04 2.41457E+04 3.08474E+01 4.77608E+04-9.24501E-10 3.92032E-09
 -1       634 8.46178E+04 2.26449E+04 4.99967E+01 4.60465E+04 1.25929E-08 6.82689E-10
 -1       635 8.31155E+04 2.41461E+04 1.01374E+02 4.77614E+04 2.18123E-08-1.19624E-08
 -1       636 8.46129E+04 2.26442E+04 2.04844E+02 4.60452E+04 8.23070E-09-3.53486E-09
 -1       637 8.31571E+04 2.41787E+04 4.50261E+02 4.77593E+04 7.37371E-10 1.80626E-09
 -1       638 8.45945E+04 2.27450E+04 9.25526E+02 4.59986E+04 7.87452E-10-3.27054E-09
 -1       639 8.36399E+04 2.48564E+04 2.18959E+03 4.76146E+04-1.04637E-09-2.27374E-11
 -1       640 8.45278E+04 2.47616E+04 4.54423E+03 4.51423E+04 2.67278E-10 1.50453E-09
 -1       656 2.29341E+04-5.80498E+05-5.53794E+04-4.97531E+02-4.47471E-10-3.99650E-09
 -1       657-3.03024E+04-6.05518E+05-4.57977E+04 3.81569E+03-6.23004E-11-5.46283E-09
 -1       658 7.27003E+03-5.87640E+05-2.81055E+04-7.80038E+02 3.70449E-10-3.10158E-09
 -1       659-3.24830E+04-6.06542E+05-4.86615E+04 4.00075E+03 7.58973E-10-3.71960E-09
 -1       660 2.51085E+04-5.79475E+05-6.03120E+04-6.82583E+02 4.76575E-10-3.41763E-09
 -1       661 8.27886E+04 8.98285E+03 7.92976E+03 3.23056E+04 1.96133E-09-3.54248E-10
 -1       662 8.68854E+04 1.52355E+04 5.34330E+03 3.09637E+04 7.12248E-10-4.53656E-09
 -1       663 8.43387E+04 1.15337E+04 1.86914E+03 3.18616E+04-2.34309E-10-5.35010E-10
 -1       664 8.50942E+04 1.22468E+04 1.11739E+03 3.15006E+04 8.52339E-10-1.94666E-09
 -1       665 8.45680E+04 1.18878E+04 4.40830E+02 3.18003E+04-1.62569E-09-5.86169E-10
 -1       666 8.48277E+04 1.18370E+04 2.56965E+02 3.15768E+04-1.97719E-09 1.92835E-09
 -1       667 8.46038E+04 1.19329E+04 1.35520E+02 3.17894E+04-7.62327E-10-7.89182E-11
 -1       668 8.47921E+04 1.17979E+04 1.35616E+02 3.15908E+04 2.76894E-09 2.34950E-09
 -1       669 8.46034E+04 1.19258E+04 1.81758E+02 3.17866E+04 6.34422E-10 2.69515E-09
 -1       670 8.48432E+04 1.18887E+04 3.93856E+02 3.15845E+04 3.31495E-09 3.05664E-09
 -1       671 8.45529E+04 1.18440E+04 6.98820E+02 3.17950E+04-1.33315E-09 1.16407E-09
 -1       672 8.52556E+04 1.25634E+04 1.78741E+03 3.14803E+04-1.71307E-09-2.23918E-09
 -1       673 8.41933E+04 1.12682E+04 2.99529E+03 3.18843E+04-1.40687E-09 1.68711E-09
 -1       674 8.81121E+04 1.73709E+04 8.56628E+03 3.06368E+04 1.22463E-09 2.51805E-09
 -1       675 8.17150E+04 7.17099E+03 1.27146E+04 3.25879E+04 2.39061E-09 1.42791E-10
 -1       676 9.35536E+00-1.11598E+05-4.34643E+02 1.13192E+01-1.62004E-12 1.74080E-09
 -1       677-1.15374E+02-1.11703E+05-7.95406E+02-2.26373E+01-3.34353E-10-5.58002E-09
 -1       678 7.70238E+01-1.11523E+05-1.40605E+03 1.13103E+01 7.46070E-10-3.78366E-09
 -1       679-1.40617E+03-1.12551E+05-3.33988E+03-2.25940E+01-1.27983E-09-1.56482E-09
 -1       680 8.39110E+02-1.10749E+05-5.38283E+03 1.11457E+01-5.75710E-10-3.18540E-09
 -1       771-1.20084E+06-2.08532E+05-2.90166E+04-4.97169E+05-4.84943E-09-3.91447E-09
 -1       772-1.19305E+06-2.25158E+05-1.56189E+04-5.15686E+05-3.34694E-09 1.86128E-09
 -1       773-1.20457E+06-2.05649E+05-6.65316E+03-4.98790E+05-2.13549E-09 1.86992E-09
 -1       774-1.18876E+06-2.21597E+05-3.26339E+03-5.17051E+05 3.56522E-09-5.38421E-10
 -1       775-1.20522E+06-2.05275E+05-1.59163E+03-4.98883E+05-1.40790E-09 4.80213E-10
 -1       776-1.18860E+06-2.21540E+05-7.49498E+02-5.17622E+05-1.31149E-09 1.07184E-09
 -1       777-1.20562E+06-2.05011E+05-4.27970E+02-4.98916E+05 7.60338E-10 8.38554E-10
 -1       778-1.18868E+06-2.21609E+05-2.01776E+02-5.18087E+05 8.73115E-11 2.05546E-09
 -1       779-1.20592E+06-2.04784E+05-1.80265E+02-4.98943E+05-1.27329E-09-1.20326E-09
 -1       780-1.18878E+06-2.21675E+05-1.59395E+02-5.18465E+05-1.07957E-09 7.00311E-11
 -1       781-1.20613E+06-2.04599E+05-2.79623E+02-4.98959E+05-3.86899E-09-5.95719E-10
 -1       782-1.18890E+06-2.21753E+05-5.34251E+02-5.18743E+05-5.52973E-09-1.38709E-09
 -1       783-1.20625E+06-2.04482E+05-1.06662E+03-4.98959E+05-2.08274E-09-1.83525E-09
 -1       784-1.18959E+06-2.22466E+05-2.53710E+03-5.18885E+05-3.02134E-09 1.86446E-11
 -1       785-1.20586E+06-2.04758E+05-4.68851E+03-4.98621E+05-3.34285E-09 1.93450E-09
 -1       786 8.73758E+04-4.66371E+03 1.07888E+04 2.73755E+00 2.03774E-08 2.11912E-10
 -1       787 9.20509E+04 5.39908E+03 7.63305E+03-8.90005E+00 4.02222E-08-1.13948E-09
 -1       788 8.91796E+04-7.31085E+02 2.79238E+03 3.13043E+00 7.60910E-08 7.26345E-10
 -1       789 8.99498E+04 8.45907E+02 1.75449E+03-1.02934E+01 1.12275E-07 4.22173E-09
 -1       790 8.94773E+04-1.14207E+02 7.13895E+02 4.13095E+00 1.80880E-07-4.44578E-09
 -1       791 8.96024E+04 1.32698E+02 4.19184E+02-1.30345E+01 2.49478E-07 5.56916E-10
 -1       792 8.95271E+04-1.84108E+01 1.91380E+02 5.87159E+00 3.90253E-07-1.50118E-09
 -1       793 8.95463E+04 2.58913E+01 1.25554E+02-1.75105E+01 5.31789E-07 3.24374E-09
 -1       794 8.95334E+04-7.47003E+00 9.32290E+01 8.60705E+00 8.31521E-07-8.43631E-09
 -1       795 8.95519E+04 3.86301E+01 1.35180E+02-2.43698E+01 1.12958E-06 9.65220E-09
 -1       796 8.95214E+04-3.11408E+01 2.02693E+02 1.27310E+01 5.64665E-07-4.91921E-09
 -1       797 8.96439E+04 2.28291E+02 4.78079E+02-3.46008E+01 1.79466E-09 1.30137E-09
 -1       798 8.94414E+04-1.96991E+02 7.54724E+02 1.88382E+01 1.15117E-11-1.14869E-09
 -1       799 9.02098E+04 1.45447E+03 2.05750E+03-4.97804E+01-5.12363E-10-3.11246E-09
 -1       800 8.89554E+04-1.25633E+03 2.90656E+03 2.79107E+01-2.29288E-11-2.43688E-09
 -1       801-6.06841E+03 4.52948E+04 1.17195E+04 9.26841E+03 5.16303E-09-1.80137E-09
 -1       802 1.47537E+04 7.82349E+04 2.74978E+04-3.86479E+04 1.38107E-08-3.63536E-09
 -1       803-8.41996E+03 5.58806E+04 3.42340E+04 8.50970E+03 1.08594E-08 8.61392E-09
 -1       804 6.47706E+04 1.04166E+05 9.29573E+04-3.90713E+04 1.28857E-08 1.18633E-08
 -1       805-5.60896E+04 1.94557E+04 1.22729E+05 9.69120E+03 4.54747E-09 1.25835E-08
 -1       806-1.02618E+05-2.20061E+04-8.72600E+03-4.27566E+04-2.37924E-09-9.73159E-10
 -1       807-1.03129E+05-2.07590E+04-4.28685E+03-4.50733E+04-1.08417E-09 8.08313E-10
 -1       808-1.02866E+05-1.88534E+04-1.81855E+03-4.42368E+04-1.68811E-08 6.97617E-09
 -1       809-1.02214E+05-1.95688E+04-8.89058E+02-4.51973E+04-3.11632E-08 1.79300E-08
 -1       810-1.02905E+05-1.87419E+04-4.07076E+02-4.43023E+04-1.63461E-08 8.58904E-09
 -1       811-1.02144E+05-1.95217E+04-2.01891E+02-4.51873E+04-2.12094E-09 1.27602E-09
 -1       812-1.02912E+05-1.87498E+04-1.00689E+02-4.43024E+04-3.67140E-09 3.84580E-09
 -1       813-1.02136E+05-1.95227E+04-6.35234E+01-4.51826E+04-1.88788E-09 2.23412E-09
 -1       814-1.02912E+05-1.87523E+04-5.94550E+01-4.43014E+04-4.21096E-10-2.31205E-09
 -1       815-1.02138E+05-1.95235E+04-9.31619E+01-4.51819E+04 4.36899E-10-2.30807E-09
 -1       816-1.02907E+05-1.87510E+04-1.74438E+02-4.43007E+04 1.83491E-10-1.03114E-09
 -1       817-1.02168E+05-1.95400E+04-3.74274E+02-4.51798E+04 4.97062E-09 6.19559E-09
 -1       818-1.02886E+05-1.88028E+04-7.62620E+02-4.42764E+04 9.27184E-09-3.26759E-09
 -1       819-1.02591E+05-1.99976E+04-1.79531E+03-4.50790E+04 1.44581E-08-7.04131E-09
 -1       820-1.02742E+05-2.01599E+04-3.65352E+03-4.36984E+04 5.46424E-09-1.01483E-08
 -1       821-1.32570E+05 7.36235E+03-1.70291E+04-1.34683E+00-4.86960E-10 2.62480E-09
 -1       822-1.39949E+05-8.52317E+03-1.20498E+04-9.48983E+01-1.37680E-09 1.60844E-09
 -1       823-1.35417E+05 1.15416E+03-4.41060E+03-2.51080E+01 1.00705E-09-2.38401E-09
 -1       824-1.36631E+05-1.33588E+03-2.77574E+03-4.39726E+01-7.78812E-10-1.69575E-09
 -1       825-1.35887E+05 1.80729E+02-1.14016E+03-5.22743E+01-1.48923E-09-7.41238E-11
 -1       826-1.36085E+05-2.13153E+02-6.89829E+02 7.97220E+00-2.62029E-09 2.76607E-09
 -1       827-1.35963E+05 3.22468E+01-3.55717E+02-7.70539E+01-2.79605E-09-2.10599E-09
 -1       828-1.36010E+05-6.51626E+01-3.15957E+02 4.99970E+01 2.99601E-08 3.65339E-09
 -1       829-1.35962E+05 3.28532E+01-3.61039E+02-9.42998E+01 9.59975E-06-3.05931E-09
 -1       830-1.36090E+05-2.18313E+02-7.05739E+02 7.33821E+01 1.91083E-05-2.85301E-09
 -1       831-1.35883E+05 1.85304E+02-1.16813E+03-1.00440E+02-1.08022E-06-2.96677E-09
 -1       832-1.36650E+05-1.36986E+03-2.84637E+03 7.34499E+01-2.12614E-05 8.35576E-09
 -1       833-1.35402E+05 1.18356E+03-4.52270E+03-9.43673E+01-1.06797E-05 9.62268E-09
 -1       834-1.40051E+05-8.74038E+03-1.23571E+04 5.10573E+01-3.55898E-08 4.93310E-09
 -1       835-1.32483E+05 7.55001E+03-1.74633E+04-7.80443E+01 2.22136E-09 6.73936E-10
 -1       836-4.42440E+02 1.25813E+05 7.57202E+03-1.10658E+04 9.70886E-10 3.53975E-09
 -1       837 1.66125E+03 1.28161E+05 6.46154E+03-2.22455E+04 1.38095E-09 3.79850E-09
 -1       838-1.65698E+02 1.26469E+05 6.66044E+03-1.10267E+04 1.19371E-09 7.19496E-09
 -1       839 4.26768E+03 1.30110E+05 1.26757E+04-2.22602E+04 1.55615E-09 1.60524E-09
 -1       840-1.28844E+03 1.23855E+05 2.02439E+04-1.10506E+04 1.16506E-09 2.33058E-10
 -1       856-4.19134E+04 3.56594E+03-9.39596E+03-1.96937E+02-1.84079E-09-6.59838E-10
 -1       857-4.57958E+04-4.18324E+03-6.46932E+03 2.15966E+03-7.63791E-10 3.19233E-10
 -1       858-4.34473E+04 4.99876E+02-2.43848E+03-2.02740E+02-1.88328E-09 1.15199E-09
 -1       859-4.40332E+04-5.82552E+02-1.47300E+03 2.16866E+03 3.19915E-10 4.07141E-10
 -1       860-4.36768E+04 6.96854E+01-6.19356E+02-2.05977E+02 5.54820E-10-3.50025E-09
 -1       861-4.37683E+04-7.86289E+01-3.45175E+02 2.17301E+03-2.85121E-09-1.40143E-09
 -1       862-4.37126E+04 9.39408E+00-1.52340E+02-2.07100E+02 1.29086E-09 1.99564E-09
 -1       863-4.37261E+04-7.61308E+00-7.55934E+01 2.17352E+03 2.28084E-09-1.11845E-09
 -1       864-4.37191E+04 1.92058E-01-2.42302E+01-2.06484E+02 1.74313E-09-2.64122E-09
 -1       865-4.37145E+04 8.54091E+00 1.26757E+01 2.17029E+03 3.13722E-09 1.70962E-09
 -1       866-4.37238E+04-6.75623E+00 4.90368E+01-2.03873E+02 2.44853E-11-1.49421E-09
 -1       867-4.36866E+04 5.73339E+01 1.35134E+02 2.16325E+03 3.85299E-10 4.39371E-10
 -1       868-4.37463E+04-4.79015E+01 2.28775E+02-1.99442E+02 5.20686E-11-2.02587E-09
 -1       869-4.35167E+04 3.98912E+02 6.13458E+02 2.15088E+03-2.37742E-09-5.30144E-09
 -1       870-4.38926E+04-3.39304E+02 8.90750E+02-1.91509E+02-5.38790E-10-2.26765E-09
 -1       871-1.92118E+03-3.99921E+03-6.29453E+03 4.12715E+04 1.28239E-09 2.93312E-10
 -1       872-8.29290E+02-5.40368E+03-2.56290E+03 5.35042E+04 2.23145E-09 2.29841E-09
 -1       873-1.01756E+01-4.73592E+03 3.77452E+02 4.11795E+04 1.03103E-09 2.04659E-09
 -1       874 9.84350E+02-3.81897E+03 3.59724E+03 5.35238E+04 2.56807E-09 2.70256E-09
 -1       875 2.32059E+03-5.59677E+03 7.97243E+03 4.12541E+04 1.40881E-09 4.73619E-10
 -1       876 1.03502E+05 1.78224E+04 5.55222E+03 4.19744E+04-2.82176E-09 4.18822E-09
 -1       877 1.03818E+05 1.90424E+04 2.96490E+03 4.36193E+04-3.43880E-09 1.96019E-09
 -1       878 1.04023E+05 1.72070E+04 1.24224E+03 4.24300E+04-2.04864E-09 3.24678E-09
 -1       879 1.03063E+05 1.82906E+04 6.18737E+02 4.36602E+04-1.35553E-08 9.72022E-11
 -1       880 1.04061E+05 1.71994E+04 2.88096E+02 4.24485E+04 2.77510E-10 1.17851E-09
 -1       881 1.03013E+05 1.82588E+04 1.53368E+02 4.36534E+04 1.25012E-08 5.88382E-09
 -1       882 1.04066E+05 1.72034E+04 9.73830E+01 4.24491E+04 4.35818E-09 1.13049E-09
 -1       883 1.03010E+05 1.82575E+04 1.03453E+02 4.36518E+04 6.53699E-13 4.47876E-09
 -1       884 1.04064E+05 1.72021E+04 1.63493E+02 4.24492E+04-6.16939E-09 3.42058E-09
 -1       885 1.03022E+05 1.82598E+04 3.28045E+02 4.36561E+04-1.17430E-08 7.51466E-09
 -1       886 1.04051E+05 1.71925E+04 6.60888E+02 4.24479E+04-6.15157E-09 2.20160E-09
 -1       887 1.03139E+05 1.83359E+04 1.44357E+03 4.36725E+04-5.55690E-09-4.52007E-09
 -1       888 1.03960E+05 1.72089E+04 2.90892E+03 4.24017E+04-7.76268E-10-8.44693E-10
 -1       889 1.04872E+05 2.01356E+04 6.94952E+03 4.36168E+04 4.98653E-09 2.68187E-10
 -1       890 1.02773E+05 1.86176E+04 1.30155E+04 4.12931E+04 3.93584E-10-4.09227E-09
 -1       891-6.07855E+01-5.88883E+04-6.92144E+02 1.12108E+04 1.36413E-09 2.14203E-09
 -1       892-1.06121E+02-5.90573E+04-7.54427E+02 1.69701E+04 1.41881E-09-1.25340E-10
 -1       893-1.28646E+01-5.89124E+04-1.07902E+03 1.12127E+04 7.44762E-10-1.40608E-09
 -1       894-5.81472E+02-5.94783E+04-2.24199E+03 1.69105E+04-2.00180E-09-6.03109E-10
 -1       895-4.51961E+02-5.84512E+04-3.94999E+03 1.12700E+04-1.78250E-09 1.26920E-09
 -1       956-1.29947E+05-1.87537E+03-4.72064E+03 8.57874E+03-1.75601E-09-3.12110E-09
 -1       957-1.30879E+05-6.34086E+02-2.42360E+03 1.03245E+04-9.11768E-11-3.42425E-10
 -1       958-1.30364E+05-5.17945E+01-1.09171E+03 8.52324E+03 1.93722E-09 1.26226E-09
 -1       959-1.30436E+05-1.18291E+01-5.57731E+02 1.03845E+04-1.45792E-09 2.02863E-09
 -1       960-1.30399E+05 1.28114E+01-2.71753E+02 8.51825E+03-3.83261E-09-2.79113E-09
 -1       961-1.30402E+05 1.03219E+01-1.44144E+02 1.03900E+04-3.99723E-09-1.48793E-09
 -1       962-1.30405E+05 9.86746E+00-8.22605E+01 8.51767E+03-1.15051E-09 1.94416E-09
 -1       963-1.30399E+05 1.01157E+01-6.56780E+01 1.03908E+04-1.73736E-09-1.77977E-09
 -1       964-1.30405E+05 1.02909E+01-7.91955E+01 8.51746E+03 1.79682E-10-2.00771E-10
 -1       965-1.30404E+05 1.13169E+01-1.36406E+02 1.03907E+04 1.13391E-09-5.29769E-09
 -1       966-1.30401E+05 1.40326E+01-2.55723E+02 8.51771E+03-1.62640E-09-7.57609E-10
 -1       967-1.30438E+05-8.46322E+00-5.24321E+02 1.03877E+04 1.18632E-10 8.22354E-10
 -1       968-1.30370E+05-4.57030E+01-1.02586E+03 8.52058E+03-4.35421E-11 7.01448E-11
 -1       969-1.30856E+05-5.92344E+02-2.27767E+03 1.03528E+04 3.36058E-10 7.20206E-10
 -1       970-1.29980E+05-1.75885E+03-4.43615E+03 8.55336E+03 5.75142E-10-1.27784E-10
 -1       971-1.23565E+05-6.54608E+02-3.64008E+03 6.10649E+03-2.50543E-09-1.52838E-09
 -1       972-1.24450E+05-4.71658E+02-1.98273E+03 8.51600E+03-1.14642E-09 3.41117E-09
 -1       973-1.23967E+05-5.75693E+00-8.87438E+02 6.05704E+03-2.17301E-09 1.02045E-09
 -1       974-1.24027E+05-8.34862E+00-4.59891E+02 8.56888E+03 4.27804E-10-2.62236E-09
 -1       975-1.23997E+05 9.63332E+00-2.29131E+02 6.05327E+03 1.34355E-09-5.02666E-10
 -1       976-1.24000E+05 9.23387E+00-1.31269E+02 8.57316E+03-6.63135E-10-1.14937E-09
 -1       977-1.24001E+05 8.44170E+00-9.33504E+01 6.05274E+03 3.25645E-09 5.67184E-10
 -1       978-1.23999E+05 1.04890E+01-1.06772E+02 8.57388E+03 8.64875E-09 1.74180E-09
 -1       979-1.24000E+05 1.08092E+01-1.69296E+02 6.05254E+03 1.24204E-08 4.09005E-09
 -1       980-1.24012E+05 1.13025E+01-3.25477E+02 8.57392E+03 1.86391E-08-3.22262E-09
 -1       981-1.23990E+05 1.89839E+01-6.29533E+02 6.05269E+03 7.15505E-09-2.99590E-09
 -1       982-1.24099E+05-3.47514E+01-1.30075E+03 8.57173E+03 3.62434E-10-1.42505E-09
 -1       983-1.23912E+05-2.06057E+01-2.52694E+03 6.05479E+03 2.78771E-09 1.80376E-09
 -1       984-1.25316E+05-1.35321E+03-5.65853E+03 8.53818E+03 7.31006E-11 2.32114E-09
 -1       985-1.22769E+05-1.86888E+03-1.03908E+04 6.08764E+03 1.82490E-09 1.25283E-09
 -3
    1PSTEP                         3           2           1          
  100CL  102 3.12500E-01         409                     0    2           1
 -4  DISP        4    1
 -5  D1          1    2    1    0
 -5  D2          1    2    2    0
 -5  D3          1    2    3    0
 -5  ALL         1    2    0    0    1ALL
 -1         1 8.18654E-05 0.00000E+00 0.00000E+00
 -1         2 7.56958E-05 1.45477E-29 0.00000E+00
 -1         3 7.06248E-05-1.13352E-27 0.00000E+00
 -1         5 5.06140E-05 2.97278E-26 0.00000E+00
 -1         8 6.53605E-05-5.93331E-07 0.00000E+00
 -1         9 6.64949E-05 4.06295E-07 0.00000E+00
 -1        10 6.53825E-05-9.46277E-07 0.00000E+00
 -1        12 5.02520E-05 3.40344E-07 0.00000E+00
 -1        15 4.57232E-05-6.40466E-07 0.00000E+00
 -1        16 4.72722E-05 3.24590E-07 0.00000E+00
 -1        17 4.84894E-05-1.98791E-06 0.00000E+00
 -1        18 4.85086E-05 4.41028E-08 0.00000E+00
 -1        19 4.91666E-05 6.78827E-07 0.00000E+00
 -1        20 4.92561E-05 1.01749E-05 0.00000E+00
 -1        21 4.89196E-05 1.92585E-05 0.00000E+00
 -1        24 1.22955E-05-2.66515E-06 0.00000E+00
 -1        25 4.73415E-05 1.21923E-07 0.00000E+00
 -1        26 4.79643E-05 9.45952E-07 0.00000E+00
 -1        27 4.70233E-05 8.66184E-06 0.00000E+00
 -1        28 4.67177E-05 1.89674E-05 0.00000E+00
 -1        32 0.00000E+00 0.00000E+00 0.00000E+00
 -1        33 4.59466E-05 1.26871E-06 0.00000E+00
 -1        34 4.50368E-05 8.64842E-06 0.00000E+00
 -1        35 4.41720E-05 1.88139E-05 0.00000E+00
 -1        51 8.07917E-05-9.84053E-08 0.00000E+00
 -1        52 7.88017E-05-1.94024E-07 0.00000E+00
 -1        53 7.60760E-05-2.90174E-07 0.00000E+00
 -1        54 7.28019E-05-3.87763E-07 0.00000E+00
 -1        55 6.91673E-05-4.87394E-07-2.27475E-24
 -1        56 8.11202E-05-4.65667E-07 1.32349E-23
 -1        57 8.04579E-05-1.23672E-06-1.32349E-23
 -1        58 7.98789E-05-2.22559E-06 0.00000E+00
 -1        59 7.93466E-05-3.35351E-06-1.32349E-23
 -1        60 7.88330E-05-4.53216E-06 0.00000E+00
 -1        61 7.83048E-05-5.67421E-06 0.00000E+00
 -1        62 7.77305E-05-6.69338E-06 0.00000E+00
 -1        63 7.70788E-05-7.50610E-06 0.00000E+00
 -1        64 7.63215E-05-8.03697E-06 2.64698E-23
 -1        65 7.54324E-05-8.21608E-06 0.00000E+00
 -1        66 7.43904E-05-7.98764E-06-2.64698E-23
 -1        67 7.31781E-05-7.30362E-06 0.00000E+00
 -1        68 7.17834E-05-6.13459E-06 2.64698E-23
 -1        69 7.02027E-05-4.45888E-06 0.00000E+00
 -1        70 6.84298E-05-2.27859E-06 0.00000E+00
 -1        86 7.54540E-05 7.25104E-08 0.00000E+00
 -1        87 7.47278E-05 1.44428E-07 0.00000E+00
 -1        88 7.34979E-05 2.15817E-07 0.00000E+00
 -1        89 7.17433E-05 2.84145E-07 0.00000E+00
 -1        90 6.94232E-05 3.52142E-07-3.30872E-24
 -1       121 7.04788E-05-1.57173E-07-3.30872E-24
 -1       122 7.00407E-05-3.14431E-07 0.00000E+00
 -1       123 6.93111E-05-4.71860E-07-3.30872E-24
 -1       124 6.82908E-05-6.29568E-07-1.65436E-24
 -1       125 6.69807E-05-7.87594E-07-3.30872E-24
 -1       191 5.06039E-05 5.67283E-08 0.00000E+00
 -1       192 5.05737E-05 1.13456E-07-3.30872E-24
 -1       193 5.05235E-05 1.70182E-07 0.00000E+00
 -1       194 5.04531E-05 2.26907E-07-1.65436E-24
 -1       195 5.03626E-05 2.83628E-07 0.00000E+00
 -1       251 6.54171E-05 2.11700E-06-1.65436E-24
 -1       252 6.54881E-05 3.72095E-06-1.61559E-27
 -1       253 6.55594E-05 4.40822E-06 0.00000E+00
 -1       254 6.56332E-05 4.36551E-06-8.27181E-25
 -1       255 6.57069E-05 3.75105E-06 0.00000E+00
 -1       256 6.57808E-05 2.72129E-06-8.27181E-25
 -1       257 6.58544E-05 1.41637E-06-1.65436E-24
 -1       258 6.59279E-05-2.44176E-08 0.00000E+00
 -1       259 6.60014E-05-1.46716E-06-1.65436E-24
 -1       260 6.60749E-05-2.77792E-06-8.27181E-25
 -1       261 6.61488E-05-3.81755E-06-1.65436E-24
 -1       262 6.62225E-05-4.44612E-06-8.27181E-25
 -1       263 6.62963E-05-4.50752E-06 0.00000E+00
 -1       264 6.63675E-05-3.84386E-06 0.00000E+00
 -1       265 6.64386E-05-2.26895E-06-3.30872E-24
 -1       266 6.20876E-05-6.09321E-07 3.30872E-24
 -1       267 5.88147E-05-6.16185E-07 0.00000E+00
 -1       268 5.55418E-05-6.23628E-07 0.00000E+00
 -1       269 5.22689E-05-6.29358E-07 2.06795E-25
 -1       270 4.89961E-05-6.35048E-07 2.06795E-25
 -1       271 6.33709E-05 1.84170E-06 0.00000E+00
 -1       272 6.16837E-05 3.38053E-06 0.00000E+00
 -1       273 6.02924E-05 4.13706E-06-2.64698E-23
 -1       274 5.91484E-05 4.22079E-06 0.00000E+00
 -1       275 5.82106E-05 3.75380E-06 0.00000E+00
 -1       276 5.74306E-05 2.86310E-06 0.00000E+00
 -1       277 5.67593E-05 1.68171E-06 2.64698E-23
 -1       278 5.61455E-05 3.45984E-07 0.00000E+00
 -1       279 5.55376E-05-1.00569E-06 0.00000E+00
 -1       280 5.48840E-05-2.23467E-06-1.32349E-23
 -1       281 5.41333E-05-3.20405E-06 0.00000E+00
 -1       282 5.32359E-05-3.77999E-06 0.00000E+00
 -1       283 5.21430E-05-3.83396E-06-2.64698E-23
 -1       284 5.08115E-05-3.24274E-06 0.00000E+00
 -1       285 4.91938E-05-1.89398E-06 2.64698E-23
 -1       301 6.32389E-05 3.88850E-07 0.00000E+00
 -1       302 5.99840E-05 3.81082E-07 0.00000E+00
 -1       303 5.67451E-05 3.73597E-07 0.00000E+00
 -1       304 5.35370E-05 3.65030E-07 0.00000E+00
 -1       305 5.03745E-05 3.54948E-07-6.61744E-24
 -1       306 6.44505E-05 2.79584E-06 2.64698E-23
 -1       307 6.27286E-05 4.23051E-06 0.00000E+00
 -1       308 6.13570E-05 4.74067E-06 0.00000E+00
 -1       309 6.03098E-05 4.36927E-06 1.32349E-23
 -1       310 5.95424E-05 3.25071E-06 2.64698E-23
 -1       311 5.89952E-05 1.54012E-06 1.32349E-23
 -1       312 5.85889E-05-5.48301E-07 0.00000E+00
 -1       313 5.82392E-05-2.78910E-06 0.00000E+00
 -1       314 5.78565E-05-4.94139E-06 0.00000E+00
 -1       315 5.73522E-05-6.76704E-06 0.00000E+00
 -1       316 5.66492E-05-8.06072E-06 0.00000E+00
 -1       317 5.56774E-05-8.63310E-06 0.00000E+00
 -1       318 5.43910E-05-8.36653E-06 0.00000E+00
 -1       319 5.27610E-05-7.16657E-06 0.00000E+00
 -1       320 5.07771E-05-5.03592E-06 0.00000E+00
 -1       336 6.34596E-05-1.11793E-06-3.30872E-24
 -1       337 6.11752E-05-1.29054E-06 0.00000E+00
 -1       338 5.85322E-05-1.46396E-06 3.30872E-24
 -1       339 5.55341E-05-1.63811E-06-1.65436E-24
 -1       340 5.21850E-05-1.81335E-06 3.30872E-24
 -1       406 5.01213E-05 3.97051E-07 0.00000E+00
 -1       407 4.99705E-05 4.53737E-07 0.00000E+00
 -1       408 4.97996E-05 5.10385E-07 0.00000E+00
 -1       409 4.96086E-05 5.66925E-07 0.00000E+00
 -1       410 4.93975E-05 6.23246E-07 0.00000E+00
 -1       521 4.44435E-05 2.03467E-06 5.29396E-23
 -1       522 4.20270E-05 2.46156E-06 2.64698E-23
 -1       523 4.00711E-05 1.67385E-06 0.00000E+00
 -1       524 3.85182E-05-2.23612E-07-2.64698E-23
 -1       525 3.72773E-05-2.95758E-06 0.00000E+00
 -1       526 3.62286E-05-6.21369E-06 0.00000E+00
 -1       527 3.52286E-05-9.60096E-06-5.29396E-23
 -1       528 3.41292E-05-1.27221E-05 0.00000E+00
 -1       529 3.27966E-05-1.52180E-05 5.29396E-23
 -1       530 3.11093E-05-1.67635E-05 0.00000E+00
 -1       531 2.89958E-05-1.71711E-05 0.00000E+00
 -1       532 2.64090E-05-1.63144E-05 2.64698E-23
 -1       533 2.33669E-05-1.42502E-05 0.00000E+00
 -1       534 1.99244E-05-1.10963E-05 0.00000E+00
 -1       535 1.61715E-05-7.13580E-06-5.29396E-23
 -1       536 4.84801E-05 1.44369E-06 0.00000E+00
 -1       537 4.84786E-05 4.00809E-06 4.13590E-25
 -1       538 4.84783E-05 5.80073E-06 0.00000E+00
 -1       539 4.84800E-05 6.91701E-06 0.00000E+00
 -1       540 4.84821E-05 7.44864E-06 0.00000E+00
 -1       541 4.84846E-05 7.48728E-06-1.29247E-26
 -1       542 4.84871E-05 7.12178E-06 5.16988E-26
 -1       543 4.84894E-05 6.44095E-06 0.00000E+00
 -1       544 4.84916E-05 5.53180E-06 1.03398E-25
 -1       545 4.84937E-05 4.48131E-06 5.16988E-26
 -1       546 4.84957E-05 3.37565E-06 1.03398E-25
 -1       547 4.84978E-05 2.30100E-06 0.00000E+00
 -1       548 4.85000E-05 1.34368E-06 0.00000E+00
 -1       549 4.85025E-05 5.90054E-07 0.00000E+00
 -1       550 4.85051E-05 1.27676E-07 0.00000E+00
 -1       551 4.36414E-05-2.09148E-06 0.00000E+00
 -1       552 3.78783E-05-2.19799E-06 8.27181E-25
 -1       553 3.15289E-05-2.30800E-06 1.65436E-24
 -1       554 2.49267E-05-2.42118E-06-3.30872E-24
 -1       555 1.84052E-05-2.53568E-06-1.32349E-23
 -1       556 4.72091E-05 1.33457E-06 0.00000E+00
 -1       557 4.62328E-05 3.86795E-06 0.00000E+00
 -1       558 4.55275E-05 5.68549E-06 0.00000E+00
 -1       559 4.50628E-05 6.86607E-06 0.00000E+00
 -1       560 4.48083E-05 7.48833E-06 0.00000E+00
 -1       561 4.47339E-05 7.63131E-06 0.00000E+00
 -1       562 4.48096E-05 7.37412E-06 0.00000E+00
 -1       563 4.50057E-05 6.79594E-06 0.00000E+00
 -1       564 4.52923E-05 5.97600E-06 0.00000E+00
 -1       565 4.56397E-05 4.99351E-06 0.00000E+00
 -1       566 4.60183E-05 3.92776E-06 8.27181E-25
 -1       567 4.63984E-05 2.85802E-06-2.06795E-25
 -1       568 4.67503E-05 1.86355E-06 0.00000E+00
 -1       569 4.70445E-05 1.02352E-06 0.00000E+00
 -1       570 4.72512E-05 4.17153E-07 0.00000E+00
 -1       571 4.85485E-05 1.10337E-07 4.13590E-25
 -1       572 4.85893E-05 1.49390E-07-3.10193E-25
 -1       573 4.86304E-05 1.66088E-07-8.27181E-25
 -1       574 4.86716E-05 1.65512E-07-4.13590E-25
 -1       575 4.87128E-05 1.52766E-07-1.65436E-24
 -1       576 4.87541E-05 1.32987E-07 4.13590E-25
 -1       577 4.87954E-05 1.11317E-07 1.65436E-24
 -1       578 4.88366E-05 9.29016E-08 0.00000E+00
 -1       579 4.88779E-05 8.28853E-08 1.65436E-24
 -1       580 4.89192E-05 8.64145E-08 0.00000E+00
 -1       581 4.89604E-05 1.08634E-07 1.65436E-24
 -1       582 4.90017E-05 1.54683E-07 0.00000E+00
 -1       583 4.90430E-05 2.29697E-07 0.00000E+00
 -1       584 4.90842E-05 3.38756E-07-3.30872E-24
 -1       585 4.91254E-05 4.86912E-07 0.00000E+00
 -1       586 4.83003E-05 5.78865E-08-8.27181E-25
 -1       587 4.80744E-05 7.13192E-08 1.03398E-25
 -1       588 4.78483E-05 8.46019E-08 0.00000E+00
 -1       589 4.76393E-05 9.76732E-08 0.00000E+00
 -1       590 4.74647E-05 1.10389E-07 0.00000E+00
 -1       591 4.84647E-05 1.31127E-07 0.00000E+00
 -1       592 4.84277E-05 1.95548E-07 0.00000E+00
 -1       593 4.83974E-05 2.41659E-07 4.13590E-25
 -1       594 4.83724E-05 2.73331E-07 2.06795E-25
 -1       595 4.83512E-05 2.94485E-07 4.13590E-25
 -1       596 4.83325E-05 3.09012E-07 2.06795E-25
 -1       597 4.83149E-05 3.20805E-07 0.00000E+00
 -1       598 4.82967E-05 3.33750E-07-2.06795E-25
 -1       599 4.82768E-05 3.51735E-07 0.00000E+00
 -1       600 4.82534E-05 3.78647E-07-1.03398E-25
 -1       601 4.82253E-05 4.18372E-07-4.13590E-25
 -1       602 4.81909E-05 4.74802E-07-1.55096E-25
 -1       603 4.81489E-05 5.51829E-07-2.06795E-25
 -1       604 4.80978E-05 6.53374E-07-5.16988E-26
 -1       605 4.80363E-05 7.83309E-07 0.00000E+00
 -1       606 4.91743E-05 9.64609E-07-1.65436E-24
 -1       607 4.91804E-05 1.30949E-06 0.00000E+00
 -1       608 4.91863E-05 1.71000E-06 0.00000E+00
 -1       609 4.91919E-05 2.16222E-06 0.00000E+00
 -1       610 4.91974E-05 2.66223E-06 0.00000E+00
 -1       611 4.92029E-05 3.20604E-06 0.00000E+00
 -1       612 4.92083E-05 3.78966E-06 0.00000E+00
 -1       613 4.92138E-05 4.40910E-06 0.00000E+00
 -1       614 4.92191E-05 5.06038E-06 0.00000E+00
 -1       615 4.92245E-05 5.73947E-06 0.00000E+00
 -1       616 4.92299E-05 6.44242E-06 8.27181E-25
 -1       617 4.92352E-05 7.16521E-06 0.00000E+00
 -1       618 4.92405E-05 7.90384E-06 0.00000E+00
 -1       619 4.92458E-05 8.65434E-06-2.06795E-25
 -1       620 4.92511E-05 9.41271E-06 0.00000E+00
 -1       621 4.89384E-05 7.23377E-07-8.27181E-25
 -1       622 4.87258E-05 7.68146E-07-8.27181E-25
 -1       623 4.85254E-05 8.12908E-07 0.00000E+00
 -1       624 4.83339E-05 8.57600E-07-4.13590E-25
 -1       625 4.81479E-05 9.02214E-07-8.27181E-25
 -1       626 4.91070E-05 9.78599E-07 0.00000E+00
 -1       627 4.90295E-05 1.32733E-06 0.00000E+00
 -1       628 4.89354E-05 1.72050E-06 0.00000E+00
 -1       629 4.88264E-05 2.15325E-06 0.00000E+00
 -1       630 4.87045E-05 2.62076E-06-3.30872E-24
 -1       631 4.85713E-05 3.11815E-06-8.27181E-25
 -1       632 4.84287E-05 3.64052E-06-1.65436E-24
 -1       633 4.82786E-05 4.18302E-06 0.00000E+00
 -1       634 4.81227E-05 4.74076E-06-1.65436E-24
 -1       635 4.79630E-05 5.30886E-06 0.00000E+00
 -1       636 4.78011E-05 5.88245E-06 0.00000E+00
 -1       637 4.76391E-05 6.45665E-06-8.27181E-25
 -1       638 4.74786E-05 7.02658E-06 0.00000E+00
 -1       639 4.73214E-05 7.58735E-06 8.27181E-25
 -1       640 4.71693E-05 8.13409E-06 8.27181E-25
 -1       656 4.86220E-05 9.92878E-06 0.00000E+00
 -1       657 4.82100E-05 9.67276E-06 0.00000E+00
 -1       658 4.79341E-05 9.41752E-06 6.61744E-24
 -1       659 4.77067E-05 9.16250E-06 0.00000E+00
 -1       660 4.74342E-05 8.90666E-06 3.30872E-24
 -1       661 4.90215E-05 1.09221E-05-8.27181E-25
 -1       662 4.88006E-05 1.16378E-05-4.13590E-25
 -1       663 4.85912E-05 1.23227E-05 0.00000E+00
 -1       664 4.83932E-05 1.29783E-05 0.00000E+00
 -1       665 4.82057E-05 1.36057E-05 0.00000E+00
 -1       666 4.80284E-05 1.42062E-05 8.27181E-25
 -1       667 4.78609E-05 1.47809E-05 0.00000E+00
 -1       668 4.77025E-05 1.53309E-05 0.00000E+00
 -1       669 4.75530E-05 1.58574E-05 1.65436E-24
 -1       670 4.74120E-05 1.63615E-05-8.27181E-25
 -1       671 4.72790E-05 1.68440E-05 1.65436E-24
 -1       672 4.71536E-05 1.73061E-05-4.13590E-25
 -1       673 4.70354E-05 1.77487E-05 8.27181E-25
 -1       674 4.69238E-05 1.81726E-05 4.13590E-25
 -1       675 4.68190E-05 1.85789E-05 0.00000E+00
 -1       676 4.85521E-05 1.92097E-05 0.00000E+00
 -1       677 4.81846E-05 1.91609E-05 0.00000E+00
 -1       678 4.78173E-05 1.91121E-05 0.00000E+00
 -1       679 4.74503E-05 1.90635E-05-8.27181E-25
 -1       680 4.70838E-05 1.90149E-05 0.00000E+00
 -1       771 9.84157E-06 1.98777E-06 0.00000E+00
 -1       772 7.70406E-06 5.79004E-06-1.32349E-23
 -1       773 5.86948E-06 8.79168E-06 0.00000E+00
 -1       774 4.31717E-06 1.10452E-05-1.32349E-23
 -1       775 3.02693E-06 1.26037E-05 2.64698E-23
 -1       776 1.97783E-06 1.35219E-05 1.32349E-23
 -1       777 1.14872E-06 1.38549E-05 0.00000E+00
 -1       778 5.18174E-07 1.36589E-05-1.32349E-23
 -1       779 6.46166E-08 1.29907E-05 0.00000E+00
 -1       780-2.33788E-07 1.19081E-05 0.00000E+00
 -1       781-3.98927E-07 1.04693E-05 2.64698E-23
 -1       782-4.52895E-07 8.73286E-06 0.00000E+00
 -1       783-4.17816E-07 6.75804E-06 0.00000E+00
 -1       784-3.15908E-07 4.60437E-06 0.00000E+00
 -1       785-1.69471E-07 2.33161E-06 0.00000E+00
 -1       786 4.73782E-05 1.27478E-07 0.00000E+00
 -1       787 4.74170E-05 1.34072E-07 4.13590E-25
 -1       788 4.74557E-05 1.42272E-07 8.27181E-25
 -1       789 4.74948E-05 1.52652E-07-4.13590E-25
 -1       790 4.75339E-05 1.65975E-07 0.00000E+00
 -1       791 4.75731E-05 1.83013E-07 0.00000E+00
 -1       792 4.76123E-05 2.04868E-07 8.27181E-25
 -1       793 4.76515E-05 2.32649E-07 0.00000E+00
 -1       794 4.76907E-05 2.67995E-07 1.65436E-24
 -1       795 4.77300E-05 3.12556E-07 0.00000E+00
 -1       796 4.77692E-05 3.68804E-07-8.27181E-25
 -1       797 4.78084E-05 4.39233E-07 0.00000E+00
 -1       798 4.78476E-05 5.27597E-07 0.00000E+00
 -1       799 4.78867E-05 6.37682E-07 0.00000E+00
 -1       800 4.79258E-05 7.75211E-07 8.27181E-25
 -1       801 4.41404E-05 1.40076E-07-2.06795E-25
 -1       802 3.46314E-05 1.20450E-07-2.06795E-25
 -1       803 2.21385E-05 7.07470E-08 1.65436E-24
 -1       804 9.98299E-06 2.05565E-08 0.00000E+00
 -1       805 1.49209E-06 6.14018E-09-6.61744E-24
 -1       806 4.72914E-05 1.00985E-07-8.27181E-25
 -1       807 4.72393E-05 8.00361E-08 8.27181E-25
 -1       808 4.71857E-05 6.21246E-08 0.00000E+00
 -1       809 4.71298E-05 4.98393E-08 0.00000E+00
 -1       810 4.70707E-05 4.57635E-08 0.00000E+00
 -1       811 4.70076E-05 5.24430E-08-8.27181E-25
 -1       812 4.69395E-05 7.24205E-08 0.00000E+00
 -1       813 4.68654E-05 1.08233E-07 4.13590E-25
 -1       814 4.67845E-05 1.62416E-07-8.27181E-25
 -1       815 4.66957E-05 2.37505E-07-8.27181E-25
 -1       816 4.65981E-05 3.36031E-07 1.65436E-24
 -1       817 4.64908E-05 4.60528E-07 4.13590E-25
 -1       818 4.63728E-05 6.13527E-07-1.65436E-24
 -1       819 4.62433E-05 7.97549E-07 8.27181E-25
 -1       820 4.61013E-05 1.01512E-06-8.27181E-25
 -1       821 4.79089E-05 1.14906E-06 0.00000E+00
 -1       822 4.78500E-05 1.38388E-06 0.00000E+00
 -1       823 4.77914E-05 1.66078E-06 1.65436E-24
 -1       824 4.77321E-05 1.99001E-06 0.00000E+00
 -1       825 4.76727E-05 2.37527E-06 0.00000E+00
 -1       826 4.76132E-05 2.82009E-06-8.27181E-25
 -1       827 4.75537E-05 3.32052E-06 1.65436E-24
 -1       828 4.74941E-05 3.87246E-06 0.00000E+00
 -1       829 4.74345E-05 4.46535E-06 0.00000E+00
 -1       830 4.73749E-05 5.08850E-06 0.00000E+00
 -1       831 4.73153E-05 5.72744E-06-1.65436E-24
 -1       832 4.72559E-05 6.36763E-06 0.00000E+00
 -1       833 4.71964E-05 6.99439E-06 0.00000E+00
 -1       834 4.71377E-05 7.59309E-06 0.00000E+00
 -1       835 4.70787E-05 8.15258E-06-4.13590E-25
 -1       836 4.77180E-05 9.99678E-07 1.65436E-24
 -1       837 4.74007E-05 1.05459E-06-8.27181E-25
 -1       838 4.70385E-05 1.10941E-06 1.65436E-24
 -1       839 4.66579E-05 1.16388E-06-4.13590E-25
 -1       840 4.62852E-05 1.21826E-06 0.00000E+00
 -1       856 4.70063E-05 9.18063E-06 0.00000E+00
 -1       857 4.69874E-05 9.76429E-06-1.03398E-25
 -1       858 4.69686E-05 1.04026E-05 0.00000E+00
 -1       859 4.69494E-05 1.10852E-05 0.00000E+00
 -1       860 4.69302E-05 1.18018E-05 0.00000E+00
 -1       861 4.69109E-05 1.25421E-05 2.06795E-25
 -1       862 4.68915E-05 1.32957E-05-4.13590E-25
 -1       863 4.68722E-05 1.40522E-05 0.00000E+00
 -1       864 4.68528E-05 1.48013E-05-4.13590E-25
 -1       865 4.68335E-05 1.55325E-05 2.06795E-25
 -1       866 4.68142E-05 1.62356E-05-4.13590E-25
 -1       867 4.67949E-05 1.69001E-05 4.13590E-25
 -1       868 4.67756E-05 1.75158E-05 8.27181E-25
 -1       869 4.67563E-05 1.80724E-05 0.00000E+00
 -1       870 4.67371E-05 1.85597E-05-8.27181E-25
 -1       871 4.66263E-05 8.66136E-06 2.06795E-25
 -1       872 4.62915E-05 8.65959E-06 0.00000E+00
 -1       873 4.59922E-05 8.65759E-06 0.00000E+00
 -1       874 4.57013E-05 8.65527E-06 0.00000E+00
 -1       875 4.53917E-05 8.65266E-06 2.06795E-25
 -1       876 4.68854E-05 9.18596E-06-1.65436E-24
 -1       877 4.67369E-05 9.74164E-06 0.00000E+00
 -1       878 4.65782E-05 1.03250E-05-1.65436E-24
 -1       879 4.64105E-05 1.09326E-05-8.27181E-25
 -1       880 4.62351E-05 1.15608E-05 0.00000E+00
 -1       881 4.60534E-05 1.22061E-05-8.27181E-25
 -1       882 4.58665E-05 1.28648E-05 1.65436E-24
 -1       883 4.56760E-05 1.35335E-05 0.00000E+00
 -1       884 4.54830E-05 1.42086E-05 0.00000E+00
 -1       885 4.52889E-05 1.48866E-05 8.27181E-25
 -1       886 4.50951E-05 1.55638E-05 0.00000E+00
 -1       887 4.49029E-05 1.62368E-05 0.00000E+00
 -1       888 4.47134E-05 1.69020E-05 0.00000E+00
 -1       889 4.45280E-05 1.75557E-05 0.00000E+00
 -1       890 4.43479E-05 1.81945E-05 0.00000E+00
 -1       891 4.63642E-05 1.89417E-05 0.00000E+00
 -1       892 4.59994E-05 1.89159E-05 0.00000E+00
 -1       893 4.56107E-05 1.88902E-05 0.00000E+00
 -1       894 4.51850E-05 1.88645E-05 4.13590E-25
 -1       895 4.47096E-05 1.88388E-05 0.00000E+00
 -1       956 4.58908E-05 1.59586E-06-8.27181E-25
 -1       957 4.58341E-05 1.95948E-06-4.13590E-25
 -1       958 4.57772E-05 2.35579E-06 1.65436E-24
 -1       959 4.57202E-05 2.78077E-06 8.27181E-25
 -1       960 4.56631E-05 3.23041E-06 0.00000E+00
 -1       961 4.56061E-05 3.70067E-06 0.00000E+00
 -1       962 4.55490E-05 4.18750E-06 0.00000E+00
 -1       963 4.54919E-05 4.68688E-06 8.27181E-25
 -1       964 4.54348E-05 5.19476E-06 0.00000E+00
 -1       965 4.53777E-05 5.70708E-06-8.27181E-25
 -1       966 4.53206E-05 6.21982E-06 0.00000E+00
 -1       967 4.52635E-05 6.72892E-06-8.27181E-25
 -1       968 4.52065E-05 7.23035E-06-1.65436E-24
 -1       969 4.51495E-05 7.72007E-06 0.00000E+00
 -1       970 4.50927E-05 8.19406E-06 0.00000E+00
 -1       971 4.49834E-05 9.11511E-06-8.27181E-25
 -1       972 4.49293E-05 9.62997E-06 0.00000E+00
 -1       973 4.48751E-05 1.01877E-05 1.65436E-24
 -1       974 4.48208E-05 1.07827E-05 8.27181E-25
 -1       975 4.47665E-05 1.14095E-05 1.65436E-24
 -1       976 4.47121E-05 1.20625E-05 0.00000E+00
 -1       977 4.46577E-05 1.27362E-05 1.65436E-24
 -1       978 4.46033E-05 1.34251E-05 0.00000E+00
 -1       979 4.45489E-05 1.41235E-05 1.65436E-24
 -1       980 4.44945E-05 1.48259E-05 8.27181E-25
 -1       981 4.44401E-05 1.55268E-05 0.00000E+00
 -1       982 4.43858E-05 1.62206E-05 0.00000E+00
 -1       983 4.43315E-05 1.69017E-05 1.65436E-24
 -1       984 4.42775E-05 1.75647E-05-8.27181E-25
 -1       985 4.42237E-05 1.82038E-05 0.00000E+00
 -3
    1PSTEP                         4           2           1          
  100CL  102 3.12500E-01         409                     0    2           1
 -4  STRESS      6    1
 -5  SXX         1    4    1    1
 -5  SYY         1    4    2    2
 -5  SZZ         1    4    3    3
 -5  SXY         1    4    1    2
 -5  SYZ         1    4    2    3
 -5  SZX         1    4    3    1
 -1         1-1.07493E+06-4.95883E+05-2.18412E+05-6.97552E+05 6.54836E-11 6.98492E-09
 -1         2 1.81356E+03 2.09861E+05 5.92046E+03 4.32073E+02-8.77094E-11-6.72333E-09
 -1         3-3.32334E+01-4.49196E+05 1.04320E+02-1.05601E+02-7.45928E-11 8.79481E-10
 -1         5-3.29513E+00 1.62311E+05 4.25115E+00-2.34355E-02 6.44452E-11-7.77482E-09
 -1         8-5.05979E+05-2.21271E+05-1.64346E+04-3.86598E+05 1.72804E-10-3.52884E-10
 -1         9-8.63894E+05-2.22456E+05-8.48818E+04-3.00080E+05 2.15805E-09 3.79223E-09
 -1        10-3.43042E+02-4.67967E+05-5.87335E+02-7.05268E+02-2.18870E-09 2.52111E-09
 -1        12-1.55058E+00 1.62319E+05 1.37832E+02 1.12815E-01 1.19794E-10 5.47084E-09
 -1        15 1.34779E+03 7.40684E+02 4.35672E+03 1.90755E+00-2.17346E-09-6.79562E-07
 -1        16-2.46410E+06-7.92424E+05-3.83119E+05-8.05462E+05 7.70766E-09-3.64768E-09
 -1        17-5.34919E+05-3.31456E+05-1.02081E+05-3.13676E+05-2.90602E-09-6.18456E-10
 -1        18 2.23258E+04 2.53722E+03-6.89163E+03-3.81284E+04 5.23869E-10-7.64885E-10
 -1        19 5.08506E+04 6.06691E+04-2.79267E+02 9.96687E+03-4.15639E-10 2.21225E-09
 -1        20-2.09998E+04-2.40356E+05-5.29924E+04 1.79133E+04 2.68172E-09 7.19410E-10
 -1        21-2.27779E+01-1.39534E+05-4.50802E+02-3.51817E+01-4.68186E-09-1.01101E-08
 -1        24-2.16322E+06-7.50888E+05-3.09168E+05-9.13549E+05-1.06835E-08-4.81183E-09
 -1        25 2.16707E+04 6.92591E+03 1.37344E+04-6.95879E+04 5.12546E-10-3.91265E-10
 -1        26-1.16663E+04 4.14900E+04-8.20313E+03-5.98106E+03 1.01554E-09 3.08086E-09
 -1        27-3.85342E+04-1.31902E+05-4.94901E+04 2.97261E+04 3.41788E-09-1.44473E-09
 -1        28 1.07850E+04-3.85341E+04 7.87614E+03 1.23837E+04 1.84301E-09-2.49419E-09
 -1        32-5.08570E+05-5.13712E+04 2.28126E+05-3.48139E+05-1.02955E-08 1.01628E-08
 -1        33-7.54234E+04 3.88111E+04 1.37577E+04-2.25935E+04 8.37569E-10-1.16446E-09
 -1        34-9.79660E+04-9.74385E+03 2.31076E+02 3.01013E+04 2.60717E-09 5.00070E-10
 -1        35-1.09724E+04-1.53259E+04-5.97849E+02 2.43022E+04 3.20740E-09 4.17640E-09
 -1        51 9.83846E+03-2.55116E+05 2.42840E+04-6.30965E+05 4.36557E-11 1.14742E-08
 -1        52 5.21612E+03-2.53198E+05 1.61137E+04-7.35906E+05 3.92902E-10 1.68220E-08
 -1        53 3.44416E+03-2.59826E+05 1.41097E+04-6.28815E+05 5.27507E-10 6.05360E-09
 -1        54 1.07812E+04-2.57728E+05 2.29113E+04-7.38186E+05-6.54836E-11-5.82077E-09
 -1        55 2.36016E+04-2.66146E+05 4.12484E+04-6.28528E+05 3.34694E-10-3.75439E-09
 -1        56-2.06479E+06-2.33418E+05-1.61206E+05-7.96237E+05-9.93168E-10 3.20142E-09
 -1        57-2.12938E+06-3.79357E+05-1.08650E+05-7.90212E+05 2.16369E-09 1.34423E-09
 -1        58-2.09705E+06-2.84583E+05-3.79482E+04-7.86276E+05 7.52607E-10-1.85537E-09
 -1        59-2.09205E+06-3.19383E+05-2.26541E+04-8.02189E+05 2.94222E-10-1.21195E-08
 -1        60-2.10181E+06-2.91669E+05-8.86893E+03-7.84877E+05-2.46132E-09 5.74346E-09
 -1        61-2.08701E+06-3.10605E+05-5.04370E+03-8.03255E+05-3.01515E-09-1.39607E-10
 -1        62-2.10202E+06-2.93146E+05-2.43231E+03-7.85274E+05-1.18746E-09-2.31378E-09
 -1        63-2.08780E+06-3.08030E+05-2.00081E+03-8.01601E+05-5.28019E-10-8.03311E-10
 -1        64-2.10098E+06-2.94245E+05-2.30366E+03-7.86510E+05 7.59428E-11 8.49468E-10
 -1        65-2.09094E+06-3.06316E+05-4.60833E+03-7.98395E+05-7.48059E-11-7.39055E-09
 -1        66-2.09883E+06-2.94914E+05-8.11619E+03-7.88437E+05 8.15476E-10-1.07593E-09
 -1        67-2.09912E+06-3.10618E+05-2.05902E+04-7.93166E+05-1.95871E-09 3.24144E-09
 -1        68-2.09281E+06-2.90170E+05-3.45694E+04-7.91646E+05 1.90994E-10-5.75346E-09
 -1        69-2.13605E+06-3.62253E+05-9.88395E+04-7.78950E+05 8.84029E-10-3.82715E-09
 -1        70-2.06220E+06-2.44837E+05-1.46727E+05-8.02097E+05-4.80213E-10-2.47383E-09
 -1        86-9.09435E+02 2.08046E+05 6.34459E+03-2.16048E+02 8.05585E-10-1.70294E-09
 -1        87 6.03633E+03 2.11924E+05 1.32350E+04 8.87995E+02 1.33355E-09 2.52498E-09
 -1        88-5.12024E+03 2.05984E+05 2.02641E+04-6.71975E+02 2.00180E-09 2.83961E-09
 -1        89 3.81587E+04 2.26899E+05 5.46474E+04 1.90906E+03 3.08410E-09 5.92576E-09
 -1        90-3.29278E+04 1.93081E+05 7.71936E+04-1.23684E+03 3.47791E-09 4.06760E-09
 -1       121-5.72120E+01-4.49374E+05 9.73178E+01 5.27582E+01 2.57973E-10-8.59654E-09
 -1       122 9.32413E-01-4.49173E+05 2.27617E+02-2.11337E+02-8.83102E-10-2.96359E-09
 -1       123-8.19619E+01-4.49398E+05 3.66946E+02 1.58329E+02 7.70768E-10-2.41289E-09
 -1       124 4.19231E+02-4.48916E+05 9.54015E+02-5.04043E+02-1.63345E-09-3.69528E-09
 -1       125-3.53796E+02-4.49635E+05 1.46250E+03 3.45436E+02 1.11140E-09-4.63842E-10
 -1       191-3.60020E+00 1.62324E+05 5.07025E+00 1.14195E-02 1.07165E-10-2.52021E-09
 -1       192-3.68560E+00 1.62311E+05 9.00200E+00 2.81406E-01 1.77908E-10-2.56045E-09
 -1       193-4.63860E+00 1.62324E+05 1.67309E+01-2.94871E-01 1.68663E-10-5.40376E-09
 -1       194-4.94232E+00 1.62312E+05 3.40530E+01 7.90816E-01 9.03846E-11-7.86349E-09
 -1       195-6.63453E+00 1.62323E+05 6.66001E+01-5.01440E-01 2.88033E-10-1.26238E-09
 -1       251 1.97661E+05-3.25140E+04 7.59677E+04 3.02069E+03 2.46587E-10 5.12955E-10
 -1       252 2.31984E+05 3.76264E+04 5.38501E+04-9.93006E+03-6.86953E-11-9.38599E-10
 -1       253 2.10691E+05-5.03468E+03 1.96644E+04 2.11287E+03 1.78829E-10-2.77396E-10
 -1       254 2.16660E+05 5.81878E+03 1.24169E+04-8.49516E+03-2.82398E-10-4.85443E-10
 -1       255 2.12931E+05-7.77882E+02 5.08069E+03 1.58595E+03 9.13616E-10 7.70024E-09
 -1       256 2.13989E+05 9.22574E+02 3.08514E+03-7.71721E+03 1.15104E-09 5.74443E-09
 -1       257 2.13338E+05-1.36039E+02 1.58737E+03 1.33490E+03 1.01451E-10-1.18956E-09
 -1       258 2.13575E+05 2.86252E+02 1.40401E+03-7.46431E+03-1.77798E-10-6.02864E-10
 -1       259 2.13337E+05-1.38023E+02 1.60612E+03 1.33304E+03-1.48489E-10 8.58904E-11
 -1       260 2.13996E+05 9.39973E+02 3.13849E+03-7.71039E+03 5.23805E-10-6.99458E-10
 -1       261 2.12925E+05-7.93102E+02 5.17816E+03 1.58099E+03 1.02082E-09-3.30533E-09
 -1       262 2.16712E+05 5.93356E+03 1.26575E+04-8.48012E+03 6.84736E-10 1.12868E-09
 -1       263 2.10645E+05-5.13355E+03 2.00524E+04 2.10279E+03-8.05699E-10 1.00954E-10
 -1       264 2.32320E+05 3.83668E+04 5.49040E+04-9.90546E+03-2.26740E-09 4.14639E-09
 -1       265 1.97369E+05-3.31520E+04 7.74677E+04 3.00615E+03-1.23680E-09 1.66983E-09
 -1       266-2.43995E+04-1.14092E+04 5.72480E+04-4.08158E+01-3.36513E-09-1.06798E-06
 -1       267 2.82858E+04 1.32976E+04 4.04621E+04 4.70933E+01-6.54973E-09-2.10592E-06
 -1       268-3.79307E+03-1.88332E+03 1.50396E+04-6.00050E+00-5.32964E-09-1.69263E-06
 -1       269 4.47850E+03 2.25393E+03 9.77548E+03 6.98968E+00-4.06658E-09-1.27245E-06
 -1       270-6.72229E+02-3.70338E+02 4.71877E+03-9.48547E-01-2.97848E-09-9.36852E-07
 -1       271-2.39960E+06-2.98813E+05-1.84698E+05-9.34095E+05 1.41881E-10 2.76486E-09
 -1       272-2.45071E+06-4.48728E+05-1.18747E+05-9.49899E+05 1.38914E-09-5.13865E-09
 -1       273-2.43470E+06-3.44446E+05-4.36268E+04-9.25487E+05-1.10754E-09 4.35284E-09
 -1       274-2.40974E+06-3.92771E+05-2.44257E+04-9.63152E+05-1.40972E-10-1.58980E-09
 -1       275-2.44012E+06-3.48581E+05-1.01480E+04-9.23379E+05 9.45420E-10 2.32103E-09
 -1       276-2.40336E+06-3.87918E+05-5.39582E+03-9.66554E+05-3.14685E-10-1.70871E-10
 -1       277-2.44134E+06-3.48478E+05-2.63890E+03-9.22553E+05 8.71523E-10 5.11170E-09
 -1       278-2.40220E+06-3.87900E+05-1.91951E+03-9.67540E+05 9.32999E-10-1.40346E-10
 -1       279-2.44140E+06-3.48462E+05-2.05941E+03-9.22509E+05 2.27146E-10-1.93427E-09
 -1       280-2.40301E+06-3.87783E+05-3.77307E+03-9.66769E+05-1.74896E-09-1.79716E-09
 -1       281-2.44042E+06-3.48698E+05-6.90280E+03-9.23233E+05-6.16637E-10 2.79169E-09
 -1       282-2.40773E+06-3.90547E+05-1.64793E+04-9.63833E+05 2.19188E-10-1.85082E-09
 -1       283-2.43641E+06-3.46312E+05-2.94240E+04-9.25061E+05 2.71029E-10-2.26100E-09
 -1       284-2.43611E+06-4.27321E+05-7.99798E+04-9.53747E+05-4.29054E-10 2.34832E-09
 -1       285-2.41220E+06-3.16196E+05-1.24495E+05-9.31500E+05 2.79215E-10-1.52068E-09
 -1       301 9.12359E+03-5.57001E+03 7.12325E+04-1.77680E+04-7.96717E-10 8.97330E-10
 -1       302 9.81153E+03 1.25051E+04 5.15776E+04-2.61450E+04 9.29276E-10 4.13047E-09
 -1       303 4.34459E+02 8.07988E+02 4.76945E+04-1.78050E+04-7.86713E-10-1.83331E-09
 -1       304 1.86968E+04 2.07011E+04 8.04627E+04-2.60734E+04 9.16771E-10 6.16819E-09
 -1       305 1.85332E+04-1.37184E+04 1.35154E+05-1.77909E+04-6.83940E-10 5.64341E-09
 -1       306-2.55761E+06-2.94259E+05-1.94995E+05-9.97636E+05 1.57161E-09 7.20320E-10
 -1       307-2.65397E+06-4.63132E+05-1.32946E+05-9.68506E+05 2.88765E-10 2.75031E-09
 -1       308-2.60204E+06-3.54684E+05-4.58825E+04-9.79166E+05 3.93356E-10-1.81899E-12
 -1       309-2.59905E+06-3.96344E+05-2.77888E+04-9.94313E+05 7.32115E-10-2.58842E-09
 -1       310-2.61232E+06-3.59850E+05-1.07678E+04-9.72263E+05-8.01563E-10-4.53156E-09
 -1       311-2.58581E+06-3.91841E+05-6.24118E+03-1.00423E+06 3.39841E-09-1.84502E-09
 -1       312-2.61535E+06-3.58940E+05-3.05046E+03-9.69391E+05 3.51179E-10-3.07898E-09
 -1       313-2.58333E+06-3.92188E+05-2.74905E+03-1.00651E+06-1.94990E-09 7.05654E-10
 -1       314-2.61483E+06-3.59455E+05-3.30628E+03-9.70019E+05-1.28921E-10-3.28646E-09
 -1       315-2.58784E+06-3.90096E+05-6.96022E+03-1.00183E+06-2.90015E-10 2.46791E-09
 -1       316-2.61076E+06-3.61113E+05-1.21532E+04-9.73994E+05 2.03744E-09-1.04774E-09
 -1       317-2.60349E+06-3.94590E+05-3.13951E+04-9.89967E+05-1.18888E-10-4.26371E-09
 -1       318-2.59912E+06-3.55230E+05-5.18624E+04-9.81740E+05-3.28964E-09 2.57569E-09
 -1       319-2.66506E+06-4.70805E+05-1.50329E+05-9.61690E+05-4.06772E-09-4.51109E-09
 -1       320-2.54947E+06-2.86210E+05-2.20407E+05-1.00182E+06 5.46061E-09-8.58563E-10
 -1       336 3.47142E+02-4.86477E+05-2.56995E+03 3.59324E+02-4.47062E-09 5.69798E-09
 -1       337-9.26297E+02-4.87175E+05-2.78939E+03-9.70279E+02-8.16988E-09 8.21910E-09
 -1       338 2.20726E+02-4.86558E+05-3.48844E+03 6.09318E+02-5.94207E-09 1.90994E-11
 -1       339-3.59519E+03-4.88813E+05-7.61135E+03-1.46574E+03-1.06330E-08 5.12409E-09
 -1       340 2.43799E+03-4.84860E+05-1.17232E+04 8.51997E+02-7.12726E-09 7.82802E-09
 -1       406 8.96463E+00 1.62317E+05 2.72108E+02 3.80521E-01 3.31312E-10 2.27919E-09
 -1       407 9.33296E+01 1.62367E+05 5.78368E+02-6.81406E+00 2.13163E-11-2.35195E-09
 -1       408 2.96152E+02 1.62275E+05 1.15512E+03 6.50958E+00 3.94721E-10 5.58066E-09
 -1       409 1.24760E+03 1.62736E+05 2.60063E+03-5.95049E+01-5.44560E-11 3.26145E-09
 -1       410 3.58734E+03 1.61947E+05 5.30912E+03 5.44331E+01 4.35648E-10-5.60999E-09
 -1       521-4.87548E+06-5.63278E+05-3.65127E+05-1.89678E+06 3.28146E-09-3.30328E-09
 -1       522-5.05209E+06-8.77428E+05-2.48100E+05-1.84661E+06-4.28918E-09 1.49885E-09
 -1       523-4.96056E+06-6.72421E+05-8.58491E+04-1.85995E+06-9.46784E-10-4.14730E-10
 -1       524-4.94711E+06-7.56684E+05-5.17398E+04-1.89771E+06-2.18847E-10-7.01220E-10
 -1       525-4.97986E+06-6.81171E+05-2.00397E+04-1.84668E+06 1.13687E-09 1.18234E-09
 -1       526-4.92496E+06-7.46272E+05-1.15495E+04-1.91324E+06 8.50946E-10 9.19272E-10
 -1       527-4.98276E+06-6.82285E+05-5.54560E+03-1.84468E+06 1.59127E-09-7.63748E-10
 -1       528-4.92817E+06-7.38512E+05-4.70908E+03-1.90746E+06-3.71870E-09-4.35648E-10
 -1       529-4.97648E+06-6.88988E+05-5.63681E+03-1.85235E+06-6.16637E-10-5.03405E-10
 -1       530-4.94752E+06-7.22465E+05-1.12951E+04-1.88529E+06 1.67552E-09 2.20780E-09
 -1       531-4.96310E+06-6.98612E+05-2.00872E+04-1.86659E+06-2.09866E-10 7.63066E-10
 -1       532-4.98481E+06-7.18026E+05-5.12837E+04-1.85335E+06-5.40183E-10-9.34142E-09
 -1       533-4.93933E+06-6.93835E+05-8.52547E+04-1.88417E+06 2.01544E-09-8.33825E-09
 -1       534-5.09066E+06-8.37910E+05-2.46537E+05-1.80359E+06 2.87400E-09 4.62751E-09
 -1       535-4.85846E+06-5.81142E+05-3.62442E+05-1.91582E+06-7.04313E-09 4.83124E-09
 -1       536 5.39609E+02-1.41043E+04 3.24766E+04 3.98820E+02-1.01093E-09 1.91721E-09
 -1       537 1.56372E+04 1.63183E+04 2.31503E+04-1.39151E+03-4.99767E-09 2.08820E-09
 -1       538 6.13239E+03-2.20974E+03 8.37814E+03 3.38887E+02 1.29646E-10 2.31739E-09
 -1       539 9.03495E+03 2.55050E+03 5.35098E+03-1.30860E+03 1.85788E-09 1.21503E-09
 -1       540 7.13417E+03-3.43577E+02 2.11743E+03 3.15919E+02 6.41187E-10 3.98200E-09
 -1       541 7.80830E+03 3.93325E+02 1.26540E+03-1.27139E+03-1.14713E-09 3.21900E-09
 -1       542 7.35459E+03-5.10549E+01 5.12812E+02 3.01659E+02 1.31273E-10 2.78243E-09
 -1       543 7.51750E+03 5.09560E+01 2.66154E+02-1.24918E+03-3.64508E-12-1.13710E-09
 -1       544 7.42223E+03 5.26538E-01 5.78831E+01 2.93712E+02 2.84299E-10 1.07943E-09
 -1       545 7.41364E+03-4.75628E+01-1.02190E+02-1.23935E+03-7.28146E-10 4.05547E-09
 -1       546 7.45724E+03 4.82712E+01-2.68025E+02 2.91831E+02 5.79575E-10 3.40613E-09
 -1       547 7.27114E+03-3.57839E+02-7.24082E+02-1.24157E+03-1.21428E-09-1.95051E-09
 -1       548 7.56501E+03 3.10389E+02-1.18183E+03 2.95935E+02-1.53894E-09 9.02276E-10
 -1       549 6.44975E+03-2.28694E+03-3.22085E+03-1.25507E+03-6.80608E-10 4.14218E-10
 -1       550 8.28045E+03 1.97459E+03-4.59820E+03 3.05329E+02-5.91456E-11 6.57110E-11
 -1       551 4.39213E+03-2.57172E+05 1.45642E+04-4.39345E+05-1.94159E-08-3.48518E-09
 -1       552 8.76355E+03-2.57007E+05 1.86884E+04-6.25196E+05-1.50831E-08 4.51837E-09
 -1       553 5.55874E+03-2.60331E+05 2.90282E+04-4.37959E+05-2.42180E-08 5.57156E-09
 -1       554 2.27940E+04-2.47386E+05 6.15740E+04-6.25769E+05-1.52577E-08 4.00701E-09
 -1       555 2.33954E+04-2.72073E+05 1.10687E+05-4.38573E+05-2.37924E-08-2.28829E-09
 -1       556 3.51945E+04-8.27070E+04 2.85510E+04-1.10194E+05-2.25555E-09-4.21278E-09
 -1       557 6.98201E+04-1.11476E+05 1.50017E+04-1.38921E+05 5.82077E-11 7.51697E-10
 -1       558 3.56398E+04-8.64575E+04 6.13818E+03-1.06749E+05-3.41970E-09 1.26420E-08
 -1       559 6.58091E+04-1.15591E+05 3.09228E+03-1.40558E+05-3.78350E-09 7.30324E-09
 -1       560 3.50289E+04-8.60195E+04 1.31914E+03-1.07106E+05-3.72529E-09 3.19051E-09
 -1       561 6.47044E+04-1.15393E+05 6.82765E+02-1.41245E+05 2.03727E-10-2.93994E-10
 -1       562 3.45073E+04-8.56540E+04 2.76887E+02-1.07487E+05-9.42237E-10 2.16005E-10
 -1       563 6.40708E+04-1.15125E+05 1.59907E+02-1.41649E+05 1.49885E-09 7.76851E-09
 -1       564 3.41842E+04-8.54398E+04 5.85413E+01-1.07719E+05-4.60204E-09-7.14999E-09
 -1       565 6.37486E+04-1.14990E+05 2.68754E+01-1.41850E+05-2.39197E-09-1.46156E-09
 -1       566 3.40766E+04-8.53649E+04-2.38773E+01-1.07799E+05 4.00587E-09 4.33647E-09
 -1       567 6.37086E+04-1.14970E+05-9.06696E+01-1.41833E+05 1.03978E-09 5.82713E-09
 -1       568 3.42066E+04-8.54518E+04-2.31990E+02-1.07747E+05 3.40606E-09 1.88811E-09
 -1       569 6.35124E+04-1.14864E+05-5.46297E+02-1.41230E+05 3.48882E-09 9.56788E-10
 -1       570 3.49366E+04-8.61586E+04-1.11899E+03-1.07814E+05 5.38421E-10-1.30967E-10
 -1       571 1.17663E+05 4.26175E+03 6.31319E+03-2.94968E+04-8.37872E-09 4.26098E-10
 -1       572 1.18604E+05 1.48211E+03 3.09283E+03-3.23332E+04-1.71158E-08 6.38124E-10
 -1       573 1.18044E+05 3.52977E+02 1.37394E+03-2.94196E+04-1.81349E-08 2.98110E-09
 -1       574 1.18157E+05 1.13807E+02 6.88231E+02-3.24198E+04-2.17160E-08 1.09753E-09
 -1       575 1.18088E+05 1.45577E+01 3.24322E+02-2.94093E+04-1.21061E-08 2.40584E-09
 -1       576 1.18096E+05 2.78075E+00 1.64987E+02-3.24314E+04-2.57023E-09 1.14642E-09
 -1       577 1.18095E+05-3.61682E+00 8.12042E+01-2.94080E+04-1.86225E-09 4.99995E-09
 -1       578 1.18090E+05-2.25925E+00 4.41335E+01-3.24327E+04-1.31047E-09 1.68939E-09
 -1       579 1.18100E+05-3.65427E+00 2.68691E+01-2.94080E+04-7.88077E-10-3.48246E-09
 -1       580 1.18095E+05-3.99760E+00 2.47941E+01-3.24309E+04-5.82531E-10 2.15823E-09
 -1       581 1.18108E+05-5.58871E+00 3.35241E+01-2.94098E+04-3.05590E-10 4.01360E-09
 -1       582 1.18112E+05 3.50780E-01 6.35539E+01-3.24133E+04-1.00772E-09 3.87763E-09
 -1       583 1.18116E+05 1.76656E+01 1.22167E+02-2.94256E+04-1.09503E-09-1.21349E-09
 -1       584 1.18167E+05 1.13922E+02 2.73579E+02-3.22820E+04-1.77397E-09 1.63482E-09
 -1       585 1.18097E+05 3.56426E+02 5.56093E+02-2.95412E+04-1.52340E-10 2.84217E-09
 -1       586-1.47140E+03 3.82915E+04-1.94366E+03-1.00448E+05 3.23553E-10-1.18018E-09
 -1       587-3.29173E+02 3.80323E+04-2.40804E+02-1.10534E+05 5.62977E-10-3.76599E-09
 -1       588 3.88554E+02 3.80835E+04 1.32572E+03-1.00386E+05 3.29237E-10 4.23870E-09
 -1       589 1.98393E+03 3.88088E+04 3.89352E+03-1.10443E+05 5.19321E-10-1.68484E-10
 -1       590 5.71911E+03 3.75912E+04 8.35069E+03-1.00539E+05 2.61480E-10 3.26690E-09
 -1       591-2.55891E+04-7.36084E+03-8.54866E+03-1.33100E+04-7.46667E-10 1.14233E-09
 -1       592-2.63824E+04-9.46761E+03-4.63030E+03-1.55476E+04-1.74657E-09-3.40594E-09
 -1       593-2.64533E+04-6.73094E+03-1.92763E+03-1.39270E+04 1.40858E-10 6.13113E-09
 -1       594-2.51907E+04-8.22532E+03-9.61418E+02-1.56067E+04-5.72584E-10 4.85366E-09
 -1       595-2.65193E+04-6.72820E+03-4.41836E+02-1.39552E+04-3.87274E-10 7.08082E-09
 -1       596-2.51099E+04-8.16846E+03-2.25240E+02-1.55982E+04 7.18714E-10 2.48259E-09
 -1       597-2.65276E+04-6.73371E+03-1.23998E+02-1.39563E+04-9.71564E-10 3.14628E-10
 -1       598-2.51023E+04-8.16628E+03-1.02151E+02-1.55959E+04-5.28587E-10 2.82444E-09
 -1       599-2.65271E+04-6.73366E+03-1.33539E+02-1.39561E+04-3.18437E-10-7.91294E-09
 -1       600-2.51111E+04-8.16913E+03-2.50562E+02-1.55982E+04 4.96073E-10-4.05566E-09
 -1       601-2.65168E+04-6.72753E+03-4.95529E+02-1.39546E+04 2.06001E-10-1.17643E-09
 -1       602-2.52021E+04-8.23288E+03-1.08074E+03-1.56070E+04-6.91273E-10-5.15172E-09
 -1       603-2.64420E+04-6.73151E+03-2.16760E+03-1.39231E+04 3.84944E-10-1.81694E-09
 -1       604-2.65468E+04-9.62504E+03-5.20714E+03-1.55343E+04 4.08363E-10 1.17086E-09
 -1       605-2.54646E+04-7.44392E+03-9.61343E+03-1.32340E+04-9.20409E-10-9.72250E-10
 -1       606 1.68745E+04-5.66226E+03-1.02010E+04 1.65181E+04-1.14323E-09-1.18280E-09
 -1       607 1.51277E+04-1.82610E+03-5.07972E+03 1.85425E+04-4.54747E-13-3.64389E-09
 -1       608 1.61237E+04-3.06804E+02-2.27426E+03 1.63863E+04 9.10586E-09 1.57229E-10
 -1       609 1.59280E+04-8.13315E+01-1.14888E+03 1.86882E+04 1.43900E-08-2.29056E-09
 -1       610 1.60371E+04 1.32598E+01-5.48424E+02 1.63716E+04 5.31782E-09 6.02768E-10
 -1       611 1.60017E+04 1.82551E+01-2.76750E+02 1.87042E+04-3.14822E-09 2.08615E-09
 -1       612 1.60168E+04 1.97050E+01-1.32219E+02 1.63701E+04-2.34013E-09-1.54932E-09
 -1       613 1.60047E+04 2.08308E+01-6.03992E+01 1.87061E+04-4.34375E-09-8.63110E-10
 -1       614 1.60068E+04 1.80556E+01-1.68304E+01 1.63696E+04 1.00999E-09 1.88970E-09
 -1       615 1.60010E+04 2.21757E+01 1.85891E+01 1.87065E+04 5.90876E-09 6.01131E-09
 -1       616 1.59992E+04 1.98645E+01 6.19990E+01 1.63697E+04-1.44792E-09-1.57002E-09
 -1       617 1.60072E+04 3.64179E+01 1.43751E+02 1.87062E+04 1.33195E-09-4.83237E-09
 -1       618 1.59856E+04 6.20940E+01 2.90682E+02 1.63698E+04 2.48065E-10-1.40130E-09
 -1       619 1.61090E+04 2.61912E+02 6.53319E+02 1.87058E+04-6.88033E-10-2.51850E-09
 -1       620 1.58884E+04 7.52444E+02 1.31335E+03 1.63694E+04 7.25095E-10-9.83846E-10
 -1       621 2.06377E+02 1.28247E+05 1.78019E+03 3.99186E+03-1.31060E-10 5.25711E-09
 -1       622 2.35661E+02 1.28688E+05 1.50812E+03 5.82708E+03-2.27431E-10 2.14362E-09
 -1       623 1.01820E+01 1.28374E+05 1.73075E+03 3.97301E+03-1.39238E-10 3.64389E-09
 -1       624 7.82533E+02 1.29190E+05 3.28347E+03 5.84558E+03-1.01011E-10 1.28261E-09
 -1       625 7.85392E+02 1.27742E+05 5.70668E+03 3.97353E+03-1.05274E-10 1.07377E-09
 -1       626 1.05699E+05 2.93600E+04 2.10810E+03 5.72414E+04 9.81345E-10-2.14914E-09
 -1       627 1.04244E+05 3.04333E+04 1.01547E+03 5.95636E+04-2.66255E-09-1.08854E-08
 -1       628 1.05783E+05 2.83605E+04 4.29178E+02 5.75602E+04 8.46467E-09-3.95630E-09
 -1       629 1.03943E+05 3.01931E+04 2.10203E+02 5.97058E+04 1.19642E-08-1.06575E-08
 -1       630 1.05791E+05 2.83115E+04 9.73385E+01 5.75704E+04 4.98540E-09-5.01018E-10
 -1       631 1.03909E+05 3.01868E+04 5.22605E+01 5.97094E+04-5.21936E-09 2.19586E-10
 -1       632 1.05788E+05 2.83141E+04 3.45751E+01 5.75670E+04-4.94038E-09 4.54889E-09
 -1       633 1.03903E+05 3.01892E+04 3.85667E+01 5.97067E+04-4.13911E-09 1.59986E-10
 -1       634 1.05784E+05 2.83138E+04 6.25079E+01 5.75651E+04-1.27459E-08 6.65079E-09
 -1       635 1.03906E+05 3.01898E+04 1.26767E+02 5.97071E+04-3.68061E-08-3.37218E-09
 -1       636 1.05777E+05 2.83131E+04 2.56127E+02 5.75634E+04-1.95457E-08 4.45175E-09
 -1       637 1.03958E+05 3.02307E+04 5.62972E+02 5.97044E+04-1.80900E-09-3.51906E-09
 -1       638 1.05754E+05 2.84390E+04 1.15715E+03 5.75052E+04-4.06089E-09-7.75799E-10
 -1       639 1.04562E+05 3.10777E+04 2.73754E+03 5.95238E+04-7.90897E-09-8.20228E-09
 -1       640 1.05672E+05 3.09599E+04 5.68135E+03 5.64347E+04-2.88242E-09-1.71667E-10
 -1       656 2.86762E+04-7.25767E+05-6.92392E+04-5.08400E+02 3.34694E-10-4.02068E-10
 -1       657-3.78898E+04-7.57040E+05-5.72592E+04 4.76036E+03-3.09683E-10-2.58865E-10
 -1       658 9.09053E+03-7.34693E+05-3.51376E+04-9.50909E+02-1.31990E-10-2.76081E-10
 -1       659-4.06162E+04-7.58324E+05-6.08398E+04 5.05127E+03 5.90717E-10-1.95476E-09
 -1       660 3.13951E+04-7.24486E+05-7.54043E+04-7.99301E+02-3.56522E-10 3.37224E-11
 -1       661 1.03468E+05 1.12396E+04 9.91179E+03 4.03930E+04 1.30785E-09 2.31330E-09
 -1       662 1.08600E+05 1.90442E+04 6.67886E+03 3.87037E+04 1.90730E-09 8.24343E-10
 -1       663 1.05407E+05 1.44267E+04 2.33633E+03 3.98365E+04 1.35367E-09 3.47472E-09
 -1       664 1.06358E+05 1.53110E+04 1.39672E+03 3.93775E+04-4.23483E-11-4.75114E-09
 -1       665 1.05694E+05 1.48681E+04 5.51010E+02 3.97586E+04-2.08121E-09 3.09416E-09
 -1       666 1.06023E+05 1.48009E+04 3.21221E+02 3.94752E+04-3.07122E-09 5.99928E-09
 -1       667 1.05740E+05 1.49235E+04 1.69384E+02 3.97439E+04-8.31051E-11 2.58187E-09
 -1       668 1.05977E+05 1.47540E+04 1.69534E+02 3.94948E+04 4.62800E-09 2.65362E-09
 -1       669 1.05741E+05 1.49138E+04 2.27180E+02 3.97394E+04 2.10888E-09 7.01854E-09
 -1       670 1.06039E+05 1.48692E+04 4.92316E+02 3.94888E+04 1.88030E-09 3.50789E-09
 -1       671 1.05678E+05 1.48107E+04 8.73481E+02 3.97489E+04-9.63691E-10-1.42563E-10
 -1       672 1.06553E+05 1.57140E+04 2.23416E+03 3.93604E+04-2.78134E-09-2.54192E-09
 -1       673 1.05230E+05 1.40903E+04 3.74392E+03 3.98597E+04-3.66856E-09-1.02955E-09
 -1       674 1.10122E+05 2.17242E+04 1.07072E+04 3.83076E+04-9.53378E-10-1.04205E-09
 -1       675 1.02132E+05 8.96862E+03 1.58923E+04 4.07385E+04-1.42950E-09-6.66387E-09
 -1       676 1.16972E+01-1.39497E+05-5.43329E+02 1.75913E+01 3.83551E-10-2.21092E-09
 -1       677-1.44219E+02-1.39628E+05-9.94315E+02-3.51769E+01-3.66740E-09-6.51851E-09
 -1       678 9.62934E+01-1.39403E+05-1.75767E+03 1.75735E+01-1.19462E-09-6.63082E-09
 -1       679-1.75787E+03-1.40689E+05-4.17517E+03-3.50978E+01-2.15903E-09-7.97538E-09
 -1       680 1.04902E+03-1.38436E+05-6.72903E+03 1.73100E+01-4.12911E-10-1.83796E-09
 -1       771-1.50039E+06-2.61131E+05-3.63978E+04-6.21432E+05-5.75892E-09-4.84579E-09
 -1       772-1.49084E+06-2.81499E+05-1.95648E+04-6.44122E+05-4.78030E-09 2.54022E-09
 -1       773-1.50519E+06-2.57423E+05-8.38253E+03-6.23467E+05-1.81171E-09 2.04091E-09
 -1       774-1.48552E+06-2.77099E+05-4.09778E+03-6.46032E+05 5.45697E-09-5.56611E-10
 -1       775-1.50613E+06-2.56850E+05-2.03296E+03-6.23591E+05-8.73115E-10 5.38421E-10
 -1       776-1.48535E+06-2.77064E+05-9.47615E+02-6.46930E+05-2.37924E-09 1.30331E-09
 -1       777-1.50674E+06-2.56427E+05-5.63767E+02-6.23641E+05 1.74623E-10 1.11140E-09
 -1       778-1.48549E+06-2.77178E+05-2.58390E+02-6.47668E+05 7.13044E-10 2.39879E-09
 -1       779-1.50721E+06-2.56066E+05-2.42750E+02-6.23683E+05-2.33558E-09-1.57888E-09
 -1       780-1.48565E+06-2.77280E+05-2.02303E+02-6.48265E+05-2.34650E-09 8.59472E-11
 -1       781-1.50756E+06-2.55775E+05-3.58570E+02-6.23712E+05-5.52245E-09-1.06093E-09
 -1       782-1.48582E+06-2.77390E+05-6.69662E+02-6.48705E+05-6.20730E-09-2.15073E-09
 -1       783-1.50776E+06-2.55587E+05-1.33875E+03-6.23717E+05-3.40151E-10-2.93829E-09
 -1       784-1.48671E+06-2.78292E+05-3.17823E+03-6.48937E+05-4.06726E-09-7.36691E-11
 -1       785-1.50729E+06-2.55913E+05-5.87494E+03-6.23297E+05-1.06438E-08-7.93398E-09
 -1       786 1.09547E+05-5.83752E+03 1.35045E+04 2.43105E+00 5.33500E-08 1.60071E-09
 -1       787 1.15399E+05 6.75799E+03 9.55434E+03-7.44685E+00 1.05414E-07 6.04962E-09
 -1       788 1.11805E+05-9.15094E+02 3.49529E+03 3.26276E+00 1.67972E-07-8.97444E-10
 -1       789 1.12769E+05 1.05882E+03 2.19614E+03-9.81752E+00 2.30646E-07 5.70608E-09
 -1       790 1.12178E+05-1.42953E+02 8.93631E+02 4.80178E+00 3.42066E-07-5.37108E-09
 -1       791 1.12334E+05 1.66104E+02 5.24760E+02-1.38734E+01 4.54022E-07 1.25402E-08
 -1       792 1.12240E+05-2.30503E+01 2.39658E+02 7.31870E+00 6.77568E-07-7.01117E-09
 -1       793 1.12264E+05 3.24513E+01 1.57379E+02-2.03472E+01 8.99695E-07 3.66464E-09
 -1       794 1.12248E+05-9.38912E+00 1.17090E+02 1.12757E+01 4.50067E-07-3.35798E-09
 -1       795 1.12271E+05 4.86386E+01 1.70113E+02-3.04201E+01 1.55741E-09 3.34602E-09
 -1       796 1.12233E+05-3.92255E+01 2.55268E+02 1.73918E+01-7.14822E-11-2.89381E-09
 -1       797 1.12387E+05 2.87592E+02 6.02257E+02-4.59260E+01-1.84988E-10-4.13095E-09
 -1       798 1.12132E+05-2.48166E+02 9.50787E+02 2.67818E+01-2.20305E-10-3.09399E-10
 -1       799 1.13100E+05 1.83234E+03 2.59208E+03-6.98425E+01-6.52896E-10 2.21482E-09
 -1       800 1.11520E+05-1.58273E+03 3.66168E+03 4.13085E+01-5.71463E-11 4.84533E-09
 -1       801-8.13659E+03 5.51420E+04 1.40277E+04 1.16644E+04 6.47253E-09-3.78452E-09
 -1       802 1.89088E+04 1.04176E+05 3.53570E+04-4.87991E+04 1.73368E-08-4.32588E-09
 -1       803-1.03523E+04 7.25211E+04 4.29618E+04 1.04184E+04 1.36406E-08 9.61131E-09
 -1       804 8.15265E+04 1.37576E+05 1.17402E+05-4.94725E+04 1.61381E-08 1.40186E-08
 -1       805-7.07741E+04 2.18869E+04 1.52624E+05 1.23367E+04 5.66070E-09 1.59123E-08
 -1       806-1.28252E+05-2.75311E+04-1.09195E+04-5.34654E+04-1.69621E-10-3.11229E-09
 -1       807-1.28889E+05-2.59733E+04-5.36447E+03-5.63675E+04-7.32030E-10-8.78316E-10
 -1       808-1.28562E+05-2.35859E+04-2.27566E+03-5.53175E+04-3.95289E-10 2.14307E-09
 -1       809-1.27744E+05-2.44841E+04-1.11252E+03-5.65227E+04-3.45563E-09-1.11930E-08
 -1       810-1.28611E+05-2.34465E+04-5.09399E+02-5.53994E+04 1.81637E-09 1.00781E-08
 -1       811-1.27656E+05-2.44251E+04-2.52629E+02-5.65101E+04-1.84014E-09-1.47793E-11
 -1       812-1.28620E+05-2.34565E+04-1.26008E+02-5.53994E+04-9.15634E-10-2.46337E-09
 -1       813-1.27645E+05-2.44265E+04-7.94743E+01-5.65038E+04-4.31328E-10-4.87421E-09
 -1       814-1.28619E+05-2.34599E+04-7.43968E+01-5.53980E+04-6.15273E-10-1.05001E-09
 -1       815-1.27647E+05-2.44276E+04-1.16495E+02-5.65026E+04 6.02654E-10 2.13174E-09
 -1       816-1.28612E+05-2.34585E+04-2.18151E+02-5.53969E+04-5.53428E-10 1.27943E-09
 -1       817-1.27685E+05-2.44483E+04-4.67931E+02-5.64995E+04 1.48248E-09 4.49779E-09
 -1       818-1.28585E+05-2.35236E+04-9.53512E+02-5.53663E+04 4.20187E-10-1.45565E-09
 -1       819-1.28213E+05-2.50204E+04-2.24451E+03-5.63728E+04-1.46019E-09-6.12545E-10
 -1       820-1.28405E+05-2.52205E+04-4.56776E+03-5.46434E+04 1.69075E-09 3.51565E-09
 -1       821-1.65822E+05 9.20779E+03-2.12968E+04 8.47838E+00-5.73833E-10-8.07631E-10
 -1       822-1.75050E+05-1.06595E+04-1.50699E+04-1.85924E+02-1.67579E-09 1.57866E-09
 -1       823-1.69383E+05 1.44345E+03-5.51596E+03-2.42977E+01 1.18830E-09-3.05408E-09
 -1       824-1.70901E+05-1.67074E+03-3.47120E+03-1.08904E+02 5.08003E-11 3.78594E-09
 -1       825-1.69971E+05 2.26000E+02-1.42598E+03-6.85448E+01-2.78841E-09 6.58702E-09
 -1       826-1.70218E+05-2.66560E+02-8.62462E+02-2.06644E+01-4.30492E-09 9.94108E-09
 -1       827-1.70066E+05 4.02896E+01-4.44951E+02-1.12539E+02-3.27266E-09-1.32786E-10
 -1       828-1.70124E+05-8.14607E+01-3.94972E+02 5.57578E+01-4.36105E-09 3.62989E-10
 -1       829-1.70065E+05 4.10508E+01-4.51534E+02-1.44968E+02-3.27777E-10 5.94927E-09
 -1       830-1.70224E+05-2.72990E+02-8.82532E+02 1.00731E+02 1.34772E-09 3.65253E-09
 -1       831-1.69966E+05 2.31716E+02-1.46081E+03-1.57513E+02-1.96455E-09 5.89353E-10
 -1       832-1.70925E+05-1.71313E+03-3.55959E+03 1.02976E+02-1.34378E-09 9.67816E-10
 -1       833-1.69364E+05 1.48014E+03-5.65601E+03-1.47213E+02-7.42274E-10-4.68390E-10
 -1       834-1.75177E+05-1.09308E+04-1.54537E+04 6.32361E+01 1.09223E-09 6.12999E-10
 -1       835-1.65714E+05 9.44217E+03-2.18394E+04-1.17768E+02 3.80273E-09 3.32875E-10
 -1       836-5.52920E+02 1.57326E+05 9.46947E+03-1.38758E+04 1.17825E-09 1.39676E-09
 -1       837 2.08094E+03 1.60260E+05 8.08049E+03-2.78853E+04 1.59025E-09-5.18548E-09
 -1       838-2.05293E+02 1.58145E+05 8.32818E+03-1.38276E+04 1.48998E-09-5.04201E-10
 -1       839 5.33965E+03 1.62695E+05 1.58484E+04-2.79031E+04 1.90630E-09 1.06415E-09
 -1       840-1.60900E+03 1.54877E+05 2.53105E+04-1.38573E+04 1.46429E-09 2.20268E-09
 -1       856-5.23362E+04 4.45554E+03-1.17404E+04-2.51560E+02-1.09242E-09-9.89985E-10
 -1       857-5.71870E+04-5.22644E+03-8.08340E+03 2.69005E+03-2.87572E-09-4.23256E-10
 -1       858-5.42526E+04 6.24496E+02-3.04695E+03-2.60125E+02-1.56717E-09-1.98565E-09
 -1       859-5.49852E+04-7.27218E+02-1.84048E+03 2.70350E+03 5.34349E-10 4.62592E-09
 -1       860-5.45394E+04 8.69938E+01-7.73892E+02-2.65065E+02 1.92173E-10 8.39776E-10
 -1       861-5.46544E+04-9.74922E+01-4.31277E+02 2.71019E+03-1.88737E-09-5.20401E-10
 -1       862-5.45840E+04 1.16687E+01-1.90323E+02-2.66827E+02 2.41779E-09 3.13553E-09
 -1       863-5.46017E+04-8.74332E+00-9.44040E+01 2.71097E+03 4.10589E-09 3.77057E-10
 -1       864-5.45922E+04 1.60214E-01-3.01954E+01-2.65855E+02 2.29375E-09-1.58308E-09
 -1       865-5.45870E+04 1.14290E+01 1.60532E+01 2.70597E+03 2.52129E-09-2.64533E-09
 -1       866-5.45981E+04-8.57685E+00 6.15701E+01-2.61827E+02-9.41498E-10 9.77458E-10
 -1       867-5.45516E+04 7.25672E+01 1.69724E+02 2.69508E+03-8.83588E-10 3.30923E-09
 -1       868-5.46265E+04-6.02653E+01 2.87077E+02-2.54963E+02-2.23025E-10-4.48931E-09
 -1       869-5.43376E+04 5.01213E+02 7.70178E+02 2.67642E+03-1.95610E-09-5.20606E-09
 -1       870-5.48103E+04-4.26136E+02 1.11788E+03-2.43165E+02 7.90124E-10 1.73077E-09
 -1       871-2.41131E+03-5.00465E+03-7.87154E+03 5.15968E+04 2.41107E-09-6.20912E-09
 -1       872-1.04507E+03-6.76173E+03-3.20483E+03 6.68904E+04 2.67619E-09 3.81647E-09
 -1       873-1.85277E+01-5.93077E+03 4.71230E+02 5.14822E+04 9.88166E-10 4.65479E-09
 -1       874 1.22307E+03-4.78225E+03 4.49624E+03 6.69148E+04 3.08546E-09 6.43058E-09
 -1       875 2.89308E+03-7.00417E+03 9.96444E+03 5.15759E+04 1.17689E-09 1.59616E-10
 -1       876 1.29374E+05 2.22915E+04 6.94028E+03 5.24842E+04-1.16574E-09-4.56112E-10
 -1       877 1.29767E+05 2.38177E+04 3.70616E+03 5.45412E+04 3.61752E-10 1.69138E-09
 -1       878 1.30024E+05 2.15224E+04 1.55278E+03 5.30538E+04 4.72801E-09 1.43791E-09
 -1       879 1.28823E+05 2.28779E+04 7.73440E+02 5.45918E+04-2.19075E-09-1.47482E-08
 -1       880 1.30072E+05 2.15132E+04 3.60111E+02 5.30770E+04 1.58536E-09-7.13470E-10
 -1       881 1.28761E+05 2.28382E+04 1.91721E+02 5.45830E+04 2.82932E-09 1.13680E-08
 -1       882 1.30077E+05 2.15184E+04 1.21732E+02 5.30777E+04 3.49860E-09 6.78737E-09
 -1       883 1.28756E+05 2.28364E+04 1.29333E+02 5.45808E+04 4.34540E-10 7.56725E-09
 -1       884 1.30074E+05 2.15168E+04 2.04388E+02 5.30778E+04-2.94420E-10-5.81338E-10
 -1       885 1.28773E+05 2.28394E+04 4.10096E+02 5.45861E+04 2.68506E-09-3.35950E-09
 -1       886 1.30059E+05 2.15048E+04 8.26173E+02 5.30762E+04-2.31193E-09-2.82603E-09
 -1       887 1.28918E+05 2.29345E+04 1.80458E+03 5.46067E+04-1.32118E-08-2.23378E-09
 -1       888 1.29944E+05 2.15252E+04 3.63635E+03 5.30185E+04-5.04053E-09 4.12820E-09
 -1       889 1.31085E+05 2.51841E+04 8.68727E+03 5.45372E+04 1.29426E-09 2.14322E-09
 -1       890 1.28462E+05 2.32859E+04 1.62702E+04 5.16322E+04 3.67800E-09-3.44698E-10
 -1       891-7.79759E+01-7.36088E+04-8.65707E+02 1.40233E+04 1.83525E-09 2.13004E-09
 -1       892-1.35868E+02-7.38186E+04-9.43317E+02 2.12248E+04 1.43996E-09 1.23327E-09
 -1       893-1.87252E+01-7.36380E+04-1.34908E+03 1.40257E+04 4.30305E-10 4.51269E-09
 -1       894-7.31124E+02-7.43426E+04-2.80273E+03 2.11500E+04-5.41149E-10 2.93198E-09
 -1       895-5.69026E+02-7.30597E+04-4.93828E+03 1.40974E+04 1.09048E-09 3.89582E-09
 -1       956-1.62447E+05-2.34454E+03-5.90319E+03 1.07198E+04-1.39016E-09-7.67159E-10
 -1       957-1.63612E+05-7.91752E+02-3.03066E+03 1.29034E+04-7.67614E-10 2.74804E-09
 -1       958-1.62968E+05-6.37491E+01-1.36522E+03 1.06502E+04 2.05182E-09-1.19940E-10
 -1       959-1.63060E+05-1.30718E+01-6.97423E+02 1.29787E+04-1.20508E-09 6.19923E-09
 -1       960-1.63013E+05 1.75352E+01-3.39848E+02 1.06438E+04-3.41265E-09 7.06109E-10
 -1       961-1.63017E+05 1.50666E+01-1.80237E+02 1.29858E+04-4.58328E-09-3.13912E-09
 -1       962-1.63020E+05 1.41955E+01-1.02861E+02 1.06430E+04-1.83377E-09-3.30886E-09
 -1       963-1.63014E+05 1.50775E+01-8.20989E+01 1.29869E+04-2.71069E-09-4.35352E-09
 -1       964-1.63022E+05 1.48998E+01-9.89921E+01 1.06427E+04-5.81053E-10-3.09228E-10
 -1       965-1.63020E+05 1.66747E+01-1.70497E+02 1.29869E+04 2.34195E-09 6.84554E-09
 -1       966-1.63017E+05 1.95860E+01-3.19652E+02 1.06430E+04-1.48839E-09-2.02419E-09
 -1       967-1.63063E+05-8.12885E+00-6.55409E+02 1.29830E+04-2.35787E-10 7.09349E-10
 -1       968-1.62977E+05-5.52391E+01-1.28238E+03 1.06467E+04 2.41016E-10-2.53380E-09
 -1       969-1.63585E+05-7.38259E+02-2.84723E+03 1.29393E+04 1.18598E-09 2.63707E-09
 -1       970-1.62490E+05-2.19701E+03-5.54553E+03 1.06879E+04 1.83081E-09 2.67892E-09
 -1       971-1.54465E+05-8.17770E+02-4.55030E+03 7.61329E+03-4.11455E-09 1.26846E-10
 -1       972-1.55571E+05-5.88071E+02-2.47842E+03 1.06232E+04-2.35218E-09-6.98947E-10
 -1       973-1.54968E+05-6.16511E+00-1.10941E+03 7.55113E+03-7.97627E-10-6.64386E-10
 -1       974-1.55044E+05-8.34681E+00-5.74867E+02 1.06898E+04 2.94835E-09-2.04602E-09
 -1       975-1.55005E+05 1.35629E+01-2.86465E+02 7.54617E+03 1.05706E-09 2.23258E-09
 -1       976-1.55010E+05 1.40712E+01-1.64079E+02 1.06955E+04-2.36003E-09 5.48084E-10
 -1       977-1.55011E+05 1.23960E+01-1.16697E+02 7.54536E+03 2.20314E-09-4.54617E-09
 -1       978-1.55010E+05 1.58949E+01-1.33451E+02 1.06967E+04 7.44842E-09-3.72751E-09
 -1       979-1.55011E+05 1.55051E+01-2.11614E+02 7.54504E+03 3.42422E-09-1.19371E-10
 -1       980-1.55026E+05 1.69792E+01-4.06846E+02 1.06968E+04 4.06283E-09-3.72336E-09
 -1       981-1.54998E+05 2.57003E+01-7.86949E+02 7.54524E+03-1.09645E-09 2.47823E-09
 -1       982-1.55134E+05-4.07143E+01-1.62603E+03 1.06939E+04-6.23857E-10-2.67843E-09
 -1       983-1.54900E+05-2.39831E+01-3.15891E+03 7.54797E+03 2.09411E-09 4.48836E-10
 -1       984-1.56655E+05-1.68925E+03-7.07374E+03 1.06518E+04-1.02000E-09 4.26638E-09
 -1       985-1.53471E+05-2.33473E+03-1.29896E+04 7.58956E+03 2.39697E-09 2.57205E-09
 -3
    1PSTEP                         5           3           1          
  100CL  103 3.75000E-01         409                     0    3           1
 -4  DISP        4    1
 -5  D1          1    2    1    0
 -5  D2          1    2    2    0
 -5  D3          1    2    3    0
 -5  ALL         1    2    0    0    1ALL
 -1         1 9.84185E-05 0.00000E+00 0.00000E+00
 -1         2 9.09249E-05 7.14827E-30 3.30872E-24
 -1         3 8.51537E-05 3.57725E-27-6.61744E-24
 -1         5 6.08823E-05 1.68229E-26 0.00000E+00
 -1         8 7.85964E-05-7.18428E-07 0.00000E+00
 -1         9 7.99742E-05 4.94700E-07 0.00000E+00
 -1        10 7.88028E-05-1.13973E-06 3.30872E-24
 -1        12 6.04524E-05 4.08709E-07 0.00000E+00
 -1        15 5.50077E-05-7.82484E-07 2.06795E-25
 -1        16 5.68660E-05 3.89537E-07 0.00000E+00
 -1        17 5.83979E-05-2.39951E-06 0.00000E+00
 -1        18 5.83730E-05 1.09333E-07 0.00000E+00
 -1        19 5.91628E-05 8.15165E-07 0.00000E+00
 -1        20 5.92696E-05 1.21609E-05 0.00000E+00
 -1        21 5.88679E-05 2.30090E-05 1.65436E-24
 -1        24 1.47854E-05-3.23819E-06 0.00000E+00
 -1        25 5.69904E-05 2.02943E-07 0.00000E+00
 -1        26 5.77399E-05 1.13590E-06 0.00000E+00
 -1        27 5.66094E-05 1.03445E-05 0.00000E+00
 -1        28 5.62424E-05 2.26596E-05 0.00000E+00
 -1        32 0.00000E+00 0.00000E+00 0.00000E+00
 -1        33 5.53374E-05 1.52327E-06 0.00000E+00
 -1        34 5.42451E-05 1.03283E-05 0.00000E+00
 -1        35 5.32065E-05 2.24753E-05 0.00000E+00
 -1        51 9.71293E-05-1.18609E-07 0.00000E+00
 -1        52 9.47396E-05-2.34041E-07 0.00000E+00
 -1        53 9.14662E-05-3.50371E-07 0.00000E+00
 -1        54 8.75340E-05-4.68713E-07 0.00000E+00
 -1        55 8.31687E-05-5.89726E-07 7.23783E-25
 -1        56 9.75296E-05-5.71853E-07 2.64698E-23
 -1        57 9.67496E-05-1.53533E-06 0.00000E+00
 -1        58 9.60769E-05-2.77982E-06-2.64698E-23
 -1        59 9.54648E-05-4.20382E-06-1.32349E-23
 -1        60 9.48767E-05-5.69241E-06 0.00000E+00
 -1        61 9.42690E-05-7.13157E-06 0.00000E+00
 -1        62 9.36007E-05-8.40914E-06 0.00000E+00
 -1        63 9.28313E-05-9.41714E-06-1.32349E-23
 -1        64 9.19253E-05-1.00604E-05-2.64698E-23
 -1        65 9.08502E-05-1.02522E-05 0.00000E+00
 -1        66 8.95813E-05-9.92757E-06 0.00000E+00
 -1        67 8.80993E-05-9.03345E-06 0.00000E+00
 -1        68 8.63934E-05-7.54444E-06-2.64698E-23
 -1        69 8.44637E-05-5.44699E-06 0.00000E+00
 -1        70 8.23096E-05-2.76088E-06 0.00000E+00
 -1        86 9.06406E-05 8.85547E-08 0.00000E+00
 -1        87 8.97866E-05 1.76355E-07-8.27181E-25
 -1        88 8.83350E-05 2.63427E-07 0.00000E+00
 -1        89 8.62559E-05 3.46655E-07-2.58494E-26
 -1        90 8.34896E-05 4.29216E-07 0.00000E+00
 -1       121 8.49766E-05-1.89181E-07 0.00000E+00
 -1       122 8.44456E-05-3.78486E-07 0.00000E+00
 -1       123 8.35614E-05-5.68039E-07 0.00000E+00
 -1       124 8.23250E-05-7.57992E-07 0.00000E+00
 -1       125 8.07380E-05-9.48414E-07 0.00000E+00
 -1       191 6.08703E-05 6.81239E-08 0.00000E+00
 -1       192 6.08345E-05 1.36246E-07 0.00000E+00
 -1       193 6.07748E-05 2.04368E-07 3.30872E-24
 -1       194 6.06912E-05 2.72487E-07 0.00000E+00
 -1       195 6.05837E-05 3.40601E-07 0.00000E+00
 -1       251 7.86646E-05 2.53118E-06 0.00000E+00
 -1       252 7.87508E-05 4.44098E-06 0.00000E+00
 -1       253 7.88376E-05 5.24832E-06 0.00000E+00
 -1       254 7.89274E-05 5.18624E-06 0.00000E+00
 -1       255 7.90171E-05 4.44637E-06 3.30872E-24
 -1       256 7.91068E-05 3.21777E-06 0.00000E+00
 -1       257 7.91962E-05 1.66609E-06 0.00000E+00
 -1       258 7.92855E-05-4.42304E-08-1.65436E-24
 -1       259 7.93747E-05-1.75643E-06 0.00000E+00
 -1       260 7.94641E-05-3.31369E-06 1.65436E-24
 -1       261 7.95539E-05-4.55177E-06 0.00000E+00
 -1       262 7.96435E-05-5.30526E-06 0.00000E+00
 -1       263 7.97333E-05-5.38547E-06 0.00000E+00
 -1       264 7.98200E-05-4.60118E-06 0.00000E+00
 -1       265 7.99062E-05-2.72001E-06 0.00000E+00
 -1       266 7.46650E-05-7.38865E-07 0.00000E+00
 -1       267 7.07335E-05-7.48351E-07 8.27181E-25
 -1       268 6.68021E-05-7.58531E-07 0.00000E+00
 -1       269 6.28706E-05-7.66656E-07 0.00000E+00
 -1       270 5.89392E-05-7.74734E-07-4.13590E-25
 -1       271 7.62034E-05 2.21265E-06 0.00000E+00
 -1       272 7.41714E-05 4.07398E-06 1.32349E-23
 -1       273 7.24953E-05 4.99579E-06-2.64698E-23
 -1       274 7.11180E-05 5.10538E-06 0.00000E+00
 -1       275 6.99906E-05 4.54728E-06 0.00000E+00
 -1       276 6.90552E-05 3.47374E-06 0.00000E+00
 -1       277 6.82523E-05 2.04561E-06 0.00000E+00
 -1       278 6.75198E-05 4.28695E-07 1.32349E-23
 -1       279 6.67946E-05-1.20817E-06 0.00000E+00
 -1       280 6.60139E-05-2.69585E-06 0.00000E+00
 -1       281 6.51151E-05-3.86765E-06-2.64698E-23
 -1       282 6.40380E-05-4.56142E-06-1.32349E-23
 -1       283 6.27241E-05-4.62274E-06 0.00000E+00
 -1       284 6.11219E-05-3.90515E-06 0.00000E+00
 -1       285 5.91757E-05-2.27737E-06-2.64698E-23
 -1       301 7.60557E-05 4.72548E-07 0.00000E+00
 -1       302 7.21401E-05 4.61997E-07 1.65436E-24
 -1       303 6.82454E-05 4.51802E-07 0.00000E+00
 -1       304 6.43895E-05 4.40333E-07 0.00000E+00
 -1       305 6.05905E-05 4.27085E-07-6.61744E-24
 -1       306 7.75106E-05 3.39179E-06 2.64698E-23
 -1       307 7.54267E-05 5.16395E-06 1.32349E-23
 -1       308 7.37702E-05 5.80945E-06 0.00000E+00
 -1       309 7.25211E-05 5.34911E-06 0.00000E+00
 -1       310 7.16275E-05 3.93898E-06 0.00000E+00
 -1       311 7.10168E-05 1.76749E-06-1.32349E-23
 -1       312 7.05861E-05-8.86649E-07-2.64698E-23
 -1       313 7.02246E-05-3.72733E-06-2.64698E-23
 -1       314 6.98139E-05-6.43604E-06 0.00000E+00
 -1       315 6.92374E-05-8.69914E-06 0.00000E+00
 -1       316 6.83973E-05-1.02561E-05 0.00000E+00
 -1       317 6.72067E-05-1.08722E-05-1.32349E-23
 -1       318 6.56165E-05-1.04236E-05 0.00000E+00
 -1       319 6.36015E-05-8.82290E-06-1.32349E-23
 -1       320 6.11682E-05-6.12398E-06 0.00000E+00
 -1       336 7.64753E-05-1.34680E-06 6.61744E-24
 -1       337 7.37121E-05-1.55522E-06 3.30872E-24
 -1       338 7.05172E-05-1.76481E-06-6.61744E-24
 -1       339 6.68959E-05-1.97552E-06 0.00000E+00
 -1       340 6.28539E-05-2.18780E-06-6.61744E-24
 -1       406 6.02971E-05 4.76806E-07 0.00000E+00
 -1       407 6.01179E-05 5.44876E-07 1.65436E-24
 -1       408 5.99149E-05 6.12901E-07 0.00000E+00
 -1       409 5.96879E-05 6.80795E-07 0.00000E+00
 -1       410 5.94372E-05 7.48425E-07 0.00000E+00
 -1       521 5.35495E-05 2.22398E-06 0.00000E+00
 -1       522 5.08937E-05 2.07745E-06 0.00000E+00
 -1       523 4.89354E-05 8.37571E-08 5.29396E-23
 -1       524 4.75695E-05-3.53809E-06-2.64698E-23
 -1       525 4.66190E-05-8.27915E-06 0.00000E+00
 -1       526 4.58666E-05-1.35624E-05 0.00000E+00
 -1       527 4.50660E-05-1.87159E-05 0.00000E+00
 -1       528 4.39712E-05-2.30773E-05-2.64698E-23
 -1       529 4.23859E-05-2.61205E-05 0.00000E+00
 -1       530 4.01442E-05-2.74057E-05 0.00000E+00
 -1       531 3.71911E-05-2.67962E-05 0.00000E+00
 -1       532 3.35197E-05-2.42776E-05 0.00000E+00
 -1       533 2.92436E-05-2.01650E-05-5.29396E-23
 -1       534 2.45321E-05-1.48707E-05 2.64698E-23
 -1       535 1.96029E-05-9.02029E-06-5.29396E-23
 -1       536 5.83827E-05 1.74383E-06 0.00000E+00
 -1       537 5.83772E-05 4.85745E-06 0.00000E+00
 -1       538 5.83737E-05 7.04852E-06-4.13590E-25
 -1       539 5.83727E-05 8.42424E-06-1.03398E-25
 -1       540 5.83725E-05 9.09151E-06-1.03398E-25
 -1       541 5.83727E-05 9.15717E-06 0.00000E+00
 -1       542 5.83729E-05 8.72771E-06 2.58494E-26
 -1       543 5.83729E-05 7.90960E-06 1.61559E-27
 -1       544 5.83726E-05 6.80903E-06 6.46235E-27
 -1       545 5.83722E-05 5.53216E-06 0.00000E+00
 -1       546 5.83716E-05 4.18506E-06 0.00000E+00
 -1       547 5.83712E-05 2.87380E-06-2.58494E-26
 -1       548 5.83709E-05 1.70442E-06 1.03398E-25
 -1       549 5.83711E-05 7.83015E-07 1.03398E-25
 -1       550 5.83715E-05 2.15895E-07 4.13590E-25
 -1       551 5.25598E-05-2.52669E-06 0.00000E+00
 -1       552 4.56202E-05-2.65842E-06-8.27181E-25
 -1       553 3.79735E-05-2.79511E-06-4.96308E-24
 -1       554 3.00194E-05-2.93598E-06 3.30872E-24
 -1       555 2.21577E-05-3.07837E-06 0.00000E+00
 -1       556 5.68532E-05 1.60521E-06 0.00000E+00
 -1       557 5.56750E-05 4.66064E-06 0.00000E+00
 -1       558 5.48232E-05 6.85475E-06 0.00000E+00
 -1       559 5.42613E-05 8.28230E-06 0.00000E+00
 -1       560 5.39525E-05 9.03778E-06 0.00000E+00
 -1       561 5.38607E-05 9.21618E-06 0.00000E+00
 -1       562 5.39497E-05 8.91259E-06 0.00000E+00
 -1       563 5.41838E-05 8.22216E-06 0.00000E+00
 -1       564 5.45270E-05 7.24015E-06 0.00000E+00
 -1       565 5.49436E-05 6.06181E-06 0.00000E+00
 -1       566 5.53980E-05 4.78244E-06 0.00000E+00
 -1       567 5.58545E-05 3.49737E-06-2.06795E-25
 -1       568 5.62776E-05 2.30187E-06 0.00000E+00
 -1       569 5.66316E-05 1.29116E-06 0.00000E+00
 -1       570 5.68808E-05 5.60473E-07 0.00000E+00
 -1       571 5.84209E-05 1.85408E-07 2.06795E-25
 -1       572 5.84699E-05 2.28782E-07-6.20385E-25
 -1       573 5.85192E-05 2.45260E-07 1.24077E-24
 -1       574 5.85687E-05 2.40956E-07-4.13590E-25
 -1       575 5.86182E-05 2.22011E-07-1.65436E-24
 -1       576 5.86677E-05 1.94605E-07-8.27181E-25
 -1       577 5.87172E-05 1.64923E-07-1.65436E-24
 -1       578 5.87668E-05 1.39156E-07 0.00000E+00
 -1       579 5.88163E-05 1.23493E-07 0.00000E+00
 -1       580 5.88658E-05 1.24127E-07 0.00000E+00
 -1       581 5.89154E-05 1.47246E-07 0.00000E+00
 -1       582 5.89649E-05 1.99033E-07 0.00000E+00
 -1       583 5.90145E-05 2.85666E-07 0.00000E+00
 -1       584 5.90640E-05 4.13258E-07 0.00000E+00
 -1       585 5.91134E-05 5.87888E-07 0.00000E+00
 -1       586 5.81261E-05 1.25909E-07 0.00000E+00
 -1       587 5.78582E-05 1.42065E-07 2.06795E-25
 -1       588 5.75898E-05 1.58042E-07 4.13590E-25
 -1       589 5.73419E-05 1.73765E-07 0.00000E+00
 -1       590 5.71353E-05 1.89063E-07 0.00000E+00
 -1       591 5.83215E-05 2.10435E-07 5.16988E-26
 -1       592 5.82783E-05 2.84365E-07 4.13590E-25
 -1       593 5.82432E-05 3.36281E-07-4.13590E-25
 -1       594 5.82144E-05 3.70834E-07 0.00000E+00
 -1       595 5.81903E-05 3.92735E-07-4.13590E-25
 -1       596 5.81691E-05 4.06661E-07 0.00000E+00
 -1       597 5.81492E-05 4.17286E-07 0.00000E+00
 -1       598 5.81287E-05 4.29283E-07-2.06795E-25
 -1       599 5.81060E-05 4.47321E-07 0.00000E+00
 -1       600 5.80793E-05 4.76071E-07 1.03398E-25
 -1       601 5.80468E-05 5.20203E-07 0.00000E+00
 -1       602 5.80068E-05 5.84394E-07 0.00000E+00
 -1       603 5.79576E-05 6.73317E-07 0.00000E+00
 -1       604 5.78976E-05 7.91686E-07 0.00000E+00
 -1       605 5.78250E-05 9.44150E-07 0.00000E+00
 -1       606 5.91720E-05 1.15521E-06-1.65436E-24
 -1       607 5.91794E-05 1.56613E-06 0.00000E+00
 -1       608 5.91864E-05 2.04377E-06 0.00000E+00
 -1       609 5.91931E-05 2.58343E-06 0.00000E+00
 -1       610 5.91997E-05 3.18041E-06 0.00000E+00
 -1       611 5.92063E-05 3.82992E-06 0.00000E+00
 -1       612 5.92128E-05 4.52717E-06 0.00000E+00
 -1       613 5.92192E-05 5.26738E-06 0.00000E+00
 -1       614 5.92256E-05 6.04577E-06 0.00000E+00
 -1       615 5.92320E-05 6.85753E-06 0.00000E+00
 -1       616 5.92384E-05 7.69789E-06 0.00000E+00
 -1       617 5.92448E-05 8.56205E-06 0.00000E+00
 -1       618 5.92511E-05 9.44521E-06 8.27181E-25
 -1       619 5.92574E-05 1.03426E-05 0.00000E+00
 -1       620 5.92636E-05 1.12494E-05 0.00000E+00
 -1       621 5.88920E-05 8.68654E-07-1.65436E-24
 -1       622 5.86400E-05 9.22407E-07 0.00000E+00
 -1       623 5.84029E-05 9.76153E-07 0.00000E+00
 -1       624 5.81765E-05 1.02981E-06 8.27181E-25
 -1       625 5.79568E-05 1.08338E-06 1.65436E-24
 -1       626 5.90925E-05 1.17200E-06-3.30872E-24
 -1       627 5.90005E-05 1.58754E-06 0.00000E+00
 -1       628 5.88887E-05 2.05636E-06-3.30872E-24
 -1       629 5.87591E-05 2.57264E-06 0.00000E+00
 -1       630 5.86138E-05 3.13059E-06 3.30872E-24
 -1       631 5.84551E-05 3.72435E-06 0.00000E+00
 -1       632 5.82852E-05 4.34806E-06 0.00000E+00
 -1       633 5.81062E-05 4.99590E-06 1.65436E-24
 -1       634 5.79203E-05 5.66199E-06 0.00000E+00
 -1       635 5.77298E-05 6.34050E-06 8.27181E-25
 -1       636 5.75368E-05 7.02557E-06-1.65436E-24
 -1       637 5.73435E-05 7.71136E-06 8.27181E-25
 -1       638 5.71521E-05 8.39201E-06 1.65436E-24
 -1       639 5.69647E-05 9.06167E-06-4.13590E-25
 -1       640 5.67834E-05 9.71448E-06 1.65436E-24
 -1       656 5.85115E-05 1.18654E-05 0.00000E+00
 -1       657 5.80193E-05 1.15580E-05 3.30872E-24
 -1       658 5.76909E-05 1.12516E-05 6.61744E-24
 -1       659 5.74219E-05 1.09455E-05 0.00000E+00
 -1       660 5.70990E-05 1.06384E-05-3.30872E-24
 -1       661 5.89892E-05 1.30541E-05 0.00000E+00
 -1       662 5.87254E-05 1.39095E-05 0.00000E+00
 -1       663 5.84754E-05 1.47279E-05 1.65436E-24
 -1       664 5.82390E-05 1.55110E-05 0.00000E+00
 -1       665 5.80154E-05 1.62603E-05 0.00000E+00
 -1       666 5.78039E-05 1.69774E-05 8.27181E-25
 -1       667 5.76040E-05 1.76636E-05-1.65436E-24
 -1       668 5.74152E-05 1.83203E-05 0.00000E+00
 -1       669 5.72370E-05 1.89489E-05-1.65436E-24
 -1       670 5.70689E-05 1.95505E-05-8.27181E-25
 -1       671 5.69104E-05 2.01266E-05 1.65436E-24
 -1       672 5.67610E-05 2.06780E-05 8.27181E-25
 -1       673 5.66204E-05 2.12062E-05 0.00000E+00
 -1       674 5.64875E-05 2.17119E-05 0.00000E+00
 -1       675 5.63628E-05 2.21964E-05 0.00000E+00
 -1       676 5.84294E-05 2.29504E-05-1.65436E-24
 -1       677 5.79911E-05 2.28919E-05 8.27181E-25
 -1       678 5.75531E-05 2.28333E-05-1.65436E-24
 -1       679 5.71156E-05 2.27750E-05 8.27181E-25
 -1       680 5.66786E-05 2.27167E-05-1.65436E-24
 -1       771 1.18211E-05 2.38743E-06-2.64698E-23
 -1       772 9.23883E-06 6.98903E-06 0.00000E+00
 -1       773 7.02262E-06 1.06254E-05 2.64698E-23
 -1       774 5.14779E-06 1.33585E-05 0.00000E+00
 -1       775 3.59018E-06 1.52516E-05 0.00000E+00
 -1       776 2.32467E-06 1.63697E-05-1.32349E-23
 -1       777 1.32584E-06 1.67789E-05-2.64698E-23
 -1       778 5.67831E-07 1.65467E-05 1.32349E-23
 -1       779 2.46096E-08 1.57414E-05 2.64698E-23
 -1       780-3.30246E-07 1.44329E-05 0.00000E+00
 -1       781-5.23237E-07 1.26913E-05 0.00000E+00
 -1       782-5.81160E-07 1.05880E-05-1.32349E-23
 -1       783-5.30861E-07 8.19460E-06 2.64698E-23
 -1       784-3.99330E-07 5.58359E-06 0.00000E+00
 -1       785-2.13661E-07 2.82762E-06 0.00000E+00
 -1       786 5.70345E-05 2.06904E-07 0.00000E+00
 -1       787 5.70812E-05 2.12830E-07 4.13590E-25
 -1       788 5.71278E-05 2.21121E-07 0.00000E+00
 -1       789 5.71749E-05 2.32181E-07 0.00000E+00
 -1       790 5.72219E-05 2.46714E-07 0.00000E+00
 -1       791 5.72691E-05 2.65430E-07 0.00000E+00
 -1       792 5.73163E-05 2.89490E-07-1.65436E-24
 -1       793 5.73635E-05 3.20068E-07 0.00000E+00
 -1       794 5.74107E-05 3.59040E-07 1.65436E-24
 -1       795 5.74579E-05 4.08298E-07 0.00000E+00
 -1       796 5.75051E-05 4.70845E-07 0.00000E+00
 -1       797 5.75522E-05 5.49713E-07-8.27181E-25
 -1       798 5.75994E-05 6.49692E-07 0.00000E+00
 -1       799 5.76464E-05 7.75615E-07 0.00000E+00
 -1       800 5.76935E-05 9.35117E-07 0.00000E+00
 -1       801 5.31368E-05 2.23482E-07 2.06795E-25
 -1       802 4.16846E-05 1.89109E-07-4.13590E-25
 -1       803 2.66394E-05 1.11188E-07 0.00000E+00
 -1       804 1.20020E-05 3.37110E-08 1.65436E-24
 -1       805 1.78227E-06 7.74887E-09 0.00000E+00
 -1       806 5.69314E-05 1.74668E-07 1.65436E-24
 -1       807 5.68701E-05 1.46279E-07 0.00000E+00
 -1       808 5.68071E-05 1.21449E-07-1.65436E-24
 -1       809 5.67413E-05 1.03296E-07 0.00000E+00
 -1       810 5.66717E-05 9.49302E-08 0.00000E+00
 -1       811 5.65973E-05 9.94191E-08-8.27181E-25
 -1       812 5.65169E-05 1.19826E-07-1.65436E-24
 -1       813 5.64293E-05 1.59205E-07-8.27181E-25
 -1       814 5.63335E-05 2.20613E-07 0.00000E+00
 -1       815 5.62283E-05 3.07100E-07 0.00000E+00
 -1       816 5.61126E-05 4.21717E-07 1.65436E-24
 -1       817 5.59851E-05 5.67513E-07 0.00000E+00
 -1       818 5.58449E-05 7.47537E-07 0.00000E+00
 -1       819 5.56908E-05 9.64824E-07-4.13590E-25
 -1       820 5.55217E-05 1.22241E-06-8.27181E-25
 -1       821 5.76733E-05 1.36869E-06 0.00000E+00
 -1       822 5.76026E-05 1.62454E-06 8.27181E-25
 -1       823 5.75322E-05 1.92226E-06-1.65436E-24
 -1       824 5.74610E-05 2.28050E-06-8.27181E-25
 -1       825 5.73897E-05 2.70886E-06 0.00000E+00
 -1       826 5.73183E-05 3.21671E-06 8.27181E-25
 -1       827 5.72468E-05 3.80154E-06 0.00000E+00
 -1       828 5.71752E-05 4.46059E-06 0.00000E+00
 -1       829 5.71036E-05 5.17998E-06 0.00000E+00
 -1       830 5.70320E-05 5.94563E-06-8.27181E-25
 -1       831 5.69604E-05 6.73657E-06 0.00000E+00
 -1       832 5.68889E-05 7.53173E-06 0.00000E+00
 -1       833 5.68174E-05 8.30939E-06 0.00000E+00
 -1       834 5.67468E-05 9.04792E-06 0.00000E+00
 -1       835 5.66760E-05 9.73151E-06 0.00000E+00
 -1       836 5.74476E-05 1.20039E-06 0.00000E+00
 -1       837 5.70699E-05 1.26630E-06 0.00000E+00
 -1       838 5.66383E-05 1.33209E-06 0.00000E+00
 -1       839 5.61846E-05 1.39746E-06-4.13590E-25
 -1       840 5.57404E-05 1.46272E-06-2.06795E-25
 -1       856 5.65890E-05 1.09638E-05 0.00000E+00
 -1       857 5.65663E-05 1.16609E-05 1.03398E-25
 -1       858 5.65437E-05 1.24236E-05 0.00000E+00
 -1       859 5.65207E-05 1.32395E-05-4.13590E-25
 -1       860 5.64976E-05 1.40962E-05 8.27181E-25
 -1       861 5.64744E-05 1.49813E-05-4.13590E-25
 -1       862 5.64511E-05 1.58824E-05 0.00000E+00
 -1       863 5.64279E-05 1.67871E-05 0.00000E+00
 -1       864 5.64046E-05 1.76827E-05 0.00000E+00
 -1       865 5.63814E-05 1.85570E-05-4.13590E-25
 -1       866 5.63582E-05 1.93975E-05 0.00000E+00
 -1       867 5.63350E-05 2.01917E-05-4.13590E-25
 -1       868 5.63118E-05 2.09273E-05 0.00000E+00
 -1       869 5.62887E-05 2.15920E-05 0.00000E+00
 -1       870 5.62656E-05 2.21735E-05 0.00000E+00
 -1       871 5.61363E-05 1.03439E-05 4.13590E-25
 -1       872 5.57378E-05 1.03418E-05 0.00000E+00
 -1       873 5.53819E-05 1.03393E-05 0.00000E+00
 -1       874 5.50360E-05 1.03365E-05-1.55096E-25
 -1       875 5.46678E-05 1.03334E-05 6.20385E-25
 -1       876 5.64451E-05 1.09702E-05-1.65436E-24
 -1       877 5.62682E-05 1.16338E-05 0.00000E+00
 -1       878 5.60788E-05 1.23306E-05 1.65436E-24
 -1       879 5.58788E-05 1.30565E-05-8.27181E-25
 -1       880 5.56695E-05 1.38071E-05 0.00000E+00
 -1       881 5.54526E-05 1.45782E-05 0.00000E+00
 -1       882 5.52295E-05 1.53654E-05 1.65436E-24
 -1       883 5.50020E-05 1.61646E-05 0.00000E+00
 -1       884 5.47716E-05 1.69715E-05 0.00000E+00
 -1       885 5.45399E-05 1.77818E-05 0.00000E+00
 -1       886 5.43085E-05 1.85913E-05 0.00000E+00
 -1       887 5.40789E-05 1.93957E-05-8.27181E-25
 -1       888 5.38528E-05 2.01906E-05-1.65436E-24
 -1       889 5.36314E-05 2.09719E-05-8.27181E-25
 -1       890 5.34164E-05 2.17352E-05 0.00000E+00
 -1       891 5.58213E-05 2.26288E-05 0.00000E+00
 -1       892 5.53867E-05 2.25979E-05 4.13590E-25
 -1       893 5.49233E-05 2.25669E-05-4.13590E-25
 -1       894 5.44157E-05 2.25361E-05-4.13590E-25
 -1       895 5.38485E-05 2.25052E-05 2.06795E-25
 -1       956 5.52704E-05 1.91250E-06 0.00000E+00
 -1       957 5.52023E-05 2.34554E-06 0.00000E+00
 -1       958 5.51340E-05 2.81784E-06 0.00000E+00
 -1       959 5.50656E-05 3.32458E-06 0.00000E+00
 -1       960 5.49971E-05 3.86096E-06-1.65436E-24
 -1       961 5.49286E-05 4.42211E-06-8.27181E-25
 -1       962 5.48600E-05 5.00318E-06-1.65436E-24
 -1       963 5.47915E-05 5.59932E-06-8.27181E-25
 -1       964 5.47229E-05 6.20567E-06 0.00000E+00
 -1       965 5.46544E-05 6.81737E-06 0.00000E+00
 -1       966 5.45858E-05 7.42957E-06-1.65436E-24
 -1       967 5.45173E-05 8.03740E-06 8.27181E-25
 -1       968 5.44488E-05 8.63601E-06 0.00000E+00
 -1       969 5.43804E-05 9.22056E-06 8.27181E-25
 -1       970 5.43123E-05 9.78622E-06-1.65436E-24
 -1       971 5.41810E-05 1.08851E-05 0.00000E+00
 -1       972 5.41161E-05 1.14997E-05 0.00000E+00
 -1       973 5.40510E-05 1.21658E-05 0.00000E+00
 -1       974 5.39858E-05 1.28766E-05 8.27181E-25
 -1       975 5.39205E-05 1.36255E-05 0.00000E+00
 -1       976 5.38552E-05 1.44059E-05-8.27181E-25
 -1       977 5.37899E-05 1.52111E-05-1.65436E-24
 -1       978 5.37245E-05 1.60345E-05 8.27181E-25
 -1       979 5.36592E-05 1.68694E-05 0.00000E+00
 -1       980 5.35938E-05 1.77090E-05 0.00000E+00
 -1       981 5.35285E-05 1.85469E-05-1.65436E-24
 -1       982 5.34633E-05 1.93762E-05 8.27181E-25
 -1       983 5.33981E-05 2.01903E-05 1.65436E-24
 -1       984 5.33332E-05 2.09827E-05 8.27181E-25
 -1       985 5.32686E-05 2.17465E-05 0.00000E+00
 -3
    1PSTEP                         6           3           1          
  100CL  103 3.75000E-01         409                     0    3           1
 -4  STRESS      6    1
 -5  SXX         1    4    1    1
 -5  SYY         1    4    2    2
 -5  SZZ         1    4    3    3
 -5  SXY         1    4    1    2
 -5  SYZ         1    4    2    3
 -5  SZX         1    4    3    1
 -1         1-1.28923E+06-5.93685E+05-2.62614E+05-8.37170E+05 8.36735E-11-3.83443E-09
 -1         2 2.18104E+03 2.56322E+05 7.13349E+03 6.20624E+02-1.14397E-10-1.05395E-08
 -1         3-5.06808E+01-5.40570E+05 1.26215E+02-1.53236E+02-9.19513E-11-1.60180E-08
 -1         5-4.55712E+00 1.94922E+05 5.10741E+00 2.17703E-02 7.40883E-11 4.52928E-10
 -1         8-6.06609E+05-2.65251E+05-1.96194E+04-4.63711E+05 2.11003E-10 3.22325E-09
 -1         9-1.03584E+06-2.63901E+05-1.01401E+05-3.57854E+05 2.77068E-09 8.27422E-09
 -1        10-4.22951E+02-5.63157E+05-7.11503E+02-1.02870E+03-2.62526E-09-1.87730E-08
 -1        12-2.46234E+00 1.94932E+05 1.65626E+02 4.29793E-01 8.75211E-11 1.36697E-09
 -1        15 1.61724E+03 8.88763E+02 5.22771E+03 2.74948E+00-3.68232E-10-8.05390E-08
 -1        16-2.95924E+06-9.50531E+05-4.60239E+05-9.65487E+05 8.81361E-09-2.29920E-09
 -1        17-6.43344E+05-3.96733E+05-1.22898E+05-3.74327E+05-4.13929E-09 4.15021E-09
 -1        18 2.47364E+04 2.55170E+03-8.78217E+03-4.58278E+04 6.09361E-10 2.15073E-09
 -1        19 6.10449E+04 7.28478E+04-3.36710E+02 1.19560E+04-5.53882E-10-1.50176E-09
 -1        20-2.52300E+04-2.88494E+05-6.36122E+04 2.14419E+04 3.04423E-09 1.95905E-09
 -1        21-2.73152E+01-1.67441E+05-5.40981E+02-5.03551E+01-8.57455E-09-5.02210E-09
 -1        24-2.60539E+06-8.93412E+05-3.71733E+05-1.08616E+06-1.24783E-08-7.30506E-09
 -1        25 2.67482E+04 1.05514E+04 1.70292E+04-8.37695E+04 6.20003E-10-5.74619E-10
 -1        26-1.39633E+04 4.98254E+04-9.83145E+03-7.20935E+03 1.23564E-09-8.68522E-10
 -1        27-4.62651E+04-1.58316E+05-5.94037E+04 3.56772E+04 4.51428E-09 1.91282E-09
 -1        28 1.29524E+04-4.62345E+04 9.45366E+03 1.48599E+04 2.21240E-09-5.42936E-10
 -1        32-6.08407E+05-5.49753E+04 2.75468E+05-4.18812E+05-1.24492E-08 1.14404E-08
 -1        33-9.04995E+04 4.65864E+04 1.65120E+04-2.71501E+04 9.18836E-10 1.28193E-09
 -1        34-1.17575E+05-1.16925E+04 2.75978E+02 3.61192E+04 3.14026E-09-2.16748E-09
 -1        35-1.31743E+04-1.83830E+04-7.18378E+02 2.91645E+04 4.68053E-09-6.69388E-10
 -1        51 1.13230E+04-3.04285E+05 2.86444E+04-7.57428E+05-2.91038E-11 1.54105E-08
 -1        52 6.54317E+03-3.02724E+05 1.91815E+04-8.83410E+05 5.09317E-10 1.25146E-08
 -1        53 4.65571E+03-3.11482E+05 1.68450E+04-7.54827E+05 5.96629E-10-1.30676E-08
 -1        54 1.40155E+04-3.09582E+05 2.75092E+04-8.86149E+05 2.03727E-10-3.26218E-08
 -1        55 2.93756E+04-3.19869E+05 4.95305E+04-7.54452E+05 5.96629E-10-1.49194E-08
 -1        56-2.47614E+06-2.79624E+05-1.93433E+05-9.54570E+05 4.32919E-10 3.39787E-09
 -1        57-2.55264E+06-4.55772E+05-1.30376E+05-9.48469E+05 9.89530E-10-1.07320E-10
 -1        58-2.51513E+06-3.40743E+05-4.55259E+04-9.42273E+05-1.79170E-10-1.37152E-09
 -1        59-2.50749E+06-3.84136E+05-2.71770E+04-9.63258E+05 8.66748E-10-1.51704E-09
 -1        60-2.52090E+06-3.49184E+05-1.06365E+04-9.40520E+05-1.95382E-09-6.76209E-09
 -1        61-2.50155E+06-3.73487E+05-6.04733E+03-9.64402E+05-1.66898E-09-6.48515E-09
 -1        62-2.52098E+06-3.51136E+05-2.91880E+03-9.41201E+05-8.23320E-10-5.90862E-09
 -1        63-2.50302E+06-3.69845E+05-2.39293E+03-9.61765E+05 5.75824E-10 6.55291E-09
 -1        64-2.51936E+06-3.52838E+05-2.76929E+03-9.43120E+05-1.27739E-09 2.39879E-09
 -1        65-2.50763E+06-3.66916E+05-5.51609E+03-9.56900E+05-2.90038E-09-3.69562E-09
 -1        66-2.51629E+06-3.54142E+05-9.74351E+03-9.46002E+05-1.12050E-09-3.12684E-09
 -1        67-2.51845E+06-3.71076E+05-2.46881E+04-9.49482E+05-1.60753E-09 8.48013E-09
 -1        68-2.50856E+06-3.48952E+05-4.14755E+04-9.50426E+05 1.19053E-09-5.02405E-09
 -1        69-2.56371E+06-4.32138E+05-1.18586E+05-9.31418E+05-7.09861E-10-1.38243E-09
 -1        70-2.47143E+06-2.94938E+05-1.76037E+05-9.63421E+05 2.18279E-11 4.88217E-09
 -1        86-1.09459E+03 2.54078E+05 7.63280E+03-3.10330E+02 9.61109E-10 3.67572E-09
 -1        87 7.26290E+03 2.58817E+05 1.59393E+04 1.28104E+03 1.60253E-09 1.91895E-09
 -1        88-6.16270E+03 2.51586E+05 2.43847E+04-9.70755E+02 2.37105E-09-5.48073E-09
 -1        89 4.59263E+04 2.76882E+05 6.57914E+04 2.77844E+03 3.60887E-09-7.90524E-09
 -1        90-3.96346E+04 2.36029E+05 9.29034E+04-1.80736E+03 4.22733E-09 6.89113E-10
 -1       121-8.31686E+01-5.40818E+05 1.10624E+02 7.65431E+01 3.01561E-10 9.47693E-10
 -1       122-9.26404E+00-5.40543E+05 2.74449E+02-3.06550E+02-1.03231E-09-9.53833E-09
 -1       123-1.12667E+02-5.40847E+05 4.34880E+02 2.29561E+02 8.88235E-10-8.13088E-10
 -1       124 4.94994E+02-5.40236E+05 1.14786E+03-7.10818E+02-1.97349E-09 1.12304E-08
 -1       125-4.39265E+02-5.41132E+05 1.75215E+03 4.80694E+02 1.34696E-09-3.28600E-09
 -1       191-4.95315E+00 1.94938E+05 6.06119E+00-1.13632E-02 1.31065E-10 3.89355E-09
 -1       192-5.02661E+00 1.94922E+05 1.08165E+01 4.33262E-01 1.90345E-10-2.80852E-09
 -1       193-6.20149E+00 1.94938E+05 2.00736E+01-4.25131E-01 2.42718E-10 9.18590E-10
 -1       194-6.53753E+00 1.94924E+05 4.09198E+01 1.13723E+00 1.43006E-10-1.22782E-09
 -1       195-8.60072E+00 1.94937E+05 7.99997E+01-7.20564E-01 3.43356E-10-1.80034E-09
 -1       251 2.40580E+05-3.91657E+04 9.14458E+04 3.93507E+03 3.45267E-10-6.41012E-09
 -1       252 2.82288E+05 4.53112E+04 6.48864E+04-1.23971E+04 7.56017E-10-3.56886E-09
 -1       253 2.56372E+05-6.06289E+03 2.36685E+04 2.60737E+03-3.67777E-11-4.15275E-09
 -1       254 2.63680E+05 7.00450E+03 1.49644E+04-1.03091E+04-7.28278E-10-5.42127E-09
 -1       255 2.59109E+05-9.36107E+02 6.11539E+03 1.84726E+03 4.20016E-10-1.72122E-10
 -1       256 2.60407E+05 1.11154E+03 3.71718E+03-9.19011E+03 7.30623E-10 8.57250E-09
 -1       257 2.59611E+05-1.63370E+02 1.91104E+03 1.48840E+03 4.75069E-10-3.50508E-09
 -1       258 2.59895E+05 3.46223E+02 1.68961E+03-8.82909E+03-5.66739E-10-6.38646E-09
 -1       259 2.59610E+05-1.65606E+02 1.93216E+03 1.48624E+03 2.93028E-11-2.09633E-09
 -1       260 2.60415E+05 1.13114E+03 3.77725E+03-9.18214E+03-2.13788E-10-2.02681E-09
 -1       261 2.59101E+05-9.53251E+02 6.22513E+03 1.84145E+03 1.05925E-09 2.72098E-09
 -1       262 2.63738E+05 7.13376E+03 1.52352E+04-1.02913E+04-5.99215E-10-2.60115E-10
 -1       263 2.56321E+05-6.17422E+03 2.41055E+04 2.59544E+03-6.40398E-10 1.73441E-09
 -1       264 2.82666E+05 4.61448E+04 6.60728E+04-1.23679E+04-2.54533E-09-1.62981E-09
 -1       265 2.40252E+05-3.98838E+04 9.31350E+04 3.91778E+03-1.65596E-09 2.37924E-09
 -1       266-2.92770E+04-1.36890E+04 6.86964E+04-5.88336E+01-5.12955E-10-1.31691E-07
 -1       267 3.39406E+04 1.59562E+04 4.85514E+04 6.78782E+01-8.94033E-10-2.59093E-07
 -1       268-4.55135E+03-2.25977E+03 1.80465E+04-8.64909E+00-6.95763E-10-2.15575E-07
 -1       269 5.37383E+03 2.70454E+03 1.17298E+04 1.00746E+01-5.63091E-10-1.62274E-07
 -1       270-8.06618E+02-4.44374E+02 5.66214E+03-1.36721E+00-3.98586E-10-1.13804E-07
 -1       271-2.88023E+06-3.59433E+05-2.21863E+05-1.12222E+06 1.56797E-09 3.14321E-09
 -1       272-2.94323E+06-5.37707E+05-1.42616E+05-1.13905E+06-1.73372E-09 1.32786E-10
 -1       273-2.92285E+06-4.13786E+05-5.24089E+04-1.11136E+06-1.70485E-09-4.23825E-09
 -1       274-2.89331E+06-4.71247E+05-2.93204E+04-1.15593E+06 1.52158E-09-1.91858E-09
 -1       275-2.92968E+06-4.18396E+05-1.21906E+04-1.10846E+06 7.50333E-10 4.88399E-10
 -1       276-2.88522E+06-4.65909E+05-6.47263E+03-1.16065E+06-1.40881E-09-3.92106E-10
 -1       277-2.93133E+06-4.18076E+05-3.16628E+03-1.10726E+06-1.19394E-09-4.26087E-09
 -1       278-2.88367E+06-4.66072E+05-2.30115E+03-1.16208E+06 1.87981E-09-2.09741E-09
 -1       279-2.93142E+06-4.18044E+05-2.46996E+03-1.10719E+06-5.32737E-10-1.63368E-09
 -1       280-2.88476E+06-4.65789E+05-4.52450E+03-1.16097E+06-4.52928E-10 2.43699E-09
 -1       281-2.93008E+06-4.18501E+05-8.29203E+03-1.10824E+06-1.46429E-10 3.15049E-09
 -1       282-2.89083E+06-4.68655E+05-1.97760E+04-1.15685E+06 6.65750E-10 1.99861E-09
 -1       283-2.92495E+06-4.15973E+05-3.53471E+04-1.11079E+06 5.45697E-11-1.40790E-09
 -1       284-2.92558E+06-5.12093E+05-9.60355E+04-1.14381E+06-1.84173E-09-3.74894E-09
 -1       285-2.89544E+06-3.80260E+05-1.49540E+05-1.11902E+06 1.66347E-09-3.09228E-09
 -1       301 1.09612E+04-6.63112E+03 8.53659E+04-2.15560E+04-3.63798E-10 4.15588E-09
 -1       302 1.17998E+04 1.50150E+04 6.18398E+04-3.17404E+04 1.20463E-09 7.81847E-09
 -1       303 5.49187E+02 1.00802E+03 5.72321E+04-2.16134E+04-1.05229E-09 7.21866E-09
 -1       304 2.24912E+04 2.48832E+04 9.66040E+04-3.16489E+04 4.87489E-10 1.11550E-09
 -1       305 2.22857E+04-1.64281E+04 1.62307E+05-2.15778E+04-1.08412E-09 3.65571E-09
 -1       306-3.06169E+06-3.54484E+05-2.33629E+05-1.19737E+06 9.34961E-10-2.29920E-09
 -1       307-3.18233E+06-5.51388E+05-1.59249E+05-1.15617E+06 5.87988E-10 8.22183E-10
 -1       308-3.11645E+06-4.25436E+05-5.49922E+04-1.17356E+06 1.34969E-09 5.76256E-09
 -1       309-3.11357E+06-4.74281E+05-3.32455E+04-1.19045E+06 5.54337E-10 8.23093E-09
 -1       310-3.13016E+06-4.30155E+05-1.29116E+04-1.16360E+06-3.27987E-10-3.23780E-10
 -1       311-3.09566E+06-4.71084E+05-7.45930E+03-1.20494E+06 3.34080E-09 2.84763E-09
 -1       312-3.13449E+06-4.28297E+05-3.64928E+03-1.15927E+06-6.48782E-10 8.69818E-10
 -1       313-3.09230E+06-4.71936E+05-3.28491E+03-1.20820E+06-1.47931E-09-7.76146E-09
 -1       314-3.13358E+06-4.29234E+05-3.96374E+03-1.16039E+06-1.97463E-09-9.90894E-09
 -1       315-3.09912E+06-4.67872E+05-8.30455E+03-1.20074E+06-1.84792E-09-4.57896E-09
 -1       316-3.12753E+06-4.32491E+05-1.45821E+04-1.16661E+06 1.15574E-09-1.15961E-09
 -1       317-3.12062E+06-4.70385E+05-3.75526E+04-1.18317E+06 1.56820E-09-4.57658E-09
 -1       318-3.11197E+06-4.27074E+05-6.21462E+04-1.17776E+06-3.21415E-09 7.13408E-09
 -1       319-3.19742E+06-5.58847E+05-1.80069E+05-1.14609E+06-1.95541E-09 7.27596E-11
 -1       320-3.05116E+06-3.45574E+05-2.64019E+05-1.20320E+06 6.15910E-09-3.63798E-10
 -1       336 4.00406E+02-5.85470E+05-3.11208E+03 5.46989E+02-5.36033E-09 4.75666E-10
 -1       337-1.12738E+03-5.86272E+05-3.37809E+03-1.43581E+03-1.00050E-08-4.86580E-09
 -1       338 2.52763E+02-5.85566E+05-4.24720E+03 8.86041E+02-7.09713E-09-2.14823E-09
 -1       339-4.37794E+03-5.88277E+05-9.25953E+03-2.10648E+03-1.28625E-08 7.91715E-10
 -1       340 2.95322E+03-5.83500E+05-1.42754E+04 1.21353E+03-8.65657E-09 3.68618E-09
 -1       406 1.01446E+01 1.94929E+05 3.26947E+02 2.78261E-01 4.31839E-10 1.69439E-09
 -1       407 1.11554E+02 1.94990E+05 6.94987E+02-7.70300E+00 7.81597E-11-5.75073E-09
 -1       408 3.55251E+02 1.94879E+05 1.38799E+03 7.53202E+00 5.56838E-10-3.17732E-09
 -1       409 1.49858E+03 1.95433E+05 3.12493E+03-7.01869E+01-4.32010E-11-3.96381E-09
 -1       410 4.31010E+03 1.94484E+05 6.37942E+03 6.47059E+01 6.12090E-10-2.73485E-09
 -1       521-5.85471E+06-6.76298E+05-4.38814E+05-2.27751E+06 3.88536E-09-7.65431E-09
 -1       522-6.05814E+06-1.06002E+06-2.97783E+05-2.22418E+06-6.02995E-10-5.79530E-09
 -1       523-5.96461E+06-7.99354E+05-1.03214E+05-2.22392E+06 1.04774E-09-4.70027E-09
 -1       524-5.92163E+06-9.26354E+05-6.20274E+04-2.29941E+06 4.69390E-09 1.46974E-09
 -1       525-5.99083E+06-8.06214E+05-2.40175E+04-2.20375E+06 7.27596E-10-3.97358E-09
 -1       526-5.89520E+06-9.14018E+05-1.38211E+04-2.31854E+06-1.44558E-09-7.66227E-09
 -1       527-5.99123E+06-8.10919E+05-6.70216E+03-2.20521E+06 3.57977E-09 1.77954E-09
 -1       528-5.90982E+06-8.92755E+05-5.43650E+03-2.29717E+06-1.97815E-09 4.19050E-09
 -1       529-5.97551E+06-8.27878E+05-7.02126E+03-2.22464E+06 3.76531E-10 9.21318E-10
 -1       530-5.95064E+06-8.55215E+05-1.32406E+04-2.24922E+06 5.75710E-10 4.79577E-09
 -1       531-5.94976E+06-8.48996E+05-2.43298E+04-2.25264E+06-1.97406E-09 6.31917E-09
 -1       532-6.01123E+06-8.35278E+05-6.14423E+04-2.19496E+06 8.36224E-10-6.61839E-09
 -1       533-5.91559E+06-8.47982E+05-1.02349E+05-2.27912E+06 2.96131E-09-7.46877E-09
 -1       534-6.14149E+06-9.77546E+05-2.96248E+05-2.13383E+06 5.23869E-10 8.92760E-09
 -1       535-5.82155E+06-7.09303E+05-4.35348E+05-2.31353E+06-8.45466E-09 7.15954E-09
 -1       536-7.22895E+03-1.66123E+04 3.82170E+04 4.29971E+02-1.18450E-09 1.92813E-10
 -1       537 1.07802E+04 1.92181E+04 2.72845E+04-1.58929E+03-5.29718E-09-2.47837E-09
 -1       538-6.19430E+02-2.60292E+03 9.85120E+03 3.79072E+02 6.05596E-10-2.91584E-09
 -1       539 2.95619E+03 3.00288E+03 6.31803E+03-1.53133E+03 2.52632E-09 2.77169E-09
 -1       540 5.84309E+02-4.04631E+02 2.48489E+03 3.72009E+02 3.69724E-10 1.94393E-09
 -1       541 1.46647E+03 4.62258E+02 1.49785E+03-1.52170E+03-5.07494E-10 5.86218E-09
 -1       542 8.63865E+02-5.97018E+01 5.97261E+02 3.69419E+02 1.61705E-10 1.99142E-09
 -1       543 1.08996E+03 5.79936E+01 3.09445E+02-1.51777E+03 7.33294E-10-4.69488E-09
 -1       544 9.56741E+02 2.28186E+00 5.41318E+01 3.68079E+02-5.62856E-10-5.88915E-09
 -1       545 9.46769E+02-6.61503E+01-1.50819E+02-1.51615E+03-9.76282E-10-1.69138E-09
 -1       546 1.00522E+03 6.56880E+01-3.68640E+02 3.67799E+02-4.86793E-11-1.75311E-09
 -1       547 7.55604E+02-4.84507E+02-9.82657E+02-1.51658E+03-1.80154E-09-8.09877E-11
 -1       548 1.14829E+03 4.20066E+02-1.60140E+03 3.68514E+02-1.79683E-09 8.94033E-10
 -1       549-3.46658E+02-3.09416E+03-4.35734E+03-1.51776E+03-8.55279E-10 1.98992E-09
 -1       550 2.11016E+03 2.67143E+03-6.22516E+03 3.68976E+02 2.99423E-11 7.01220E-10
 -1       551 5.92818E+03-3.08330E+05 1.72720E+04-5.26296E+05-2.40834E-08-3.01225E-09
 -1       552 1.21822E+04-3.09012E+05 2.24335E+04-7.49051E+05-1.77970E-08 7.85440E-09
 -1       553 7.95135E+03-3.12971E+05 3.48534E+04-5.24604E+05-2.86382E-08 6.91216E-09
 -1       554 2.93329E+04-2.98048E+05 7.39681E+04-7.49740E+05-1.80589E-08 7.85963E-09
 -1       555 2.93172E+04-3.26991E+05 1.32874E+05-5.25304E+05-2.87982E-08-9.42237E-10
 -1       556 4.32141E+04-9.97747E+04 3.40869E+04-1.31938E+05-2.21917E-09-5.39148E-09
 -1       557 8.49088E+04-1.34233E+05 1.79440E+04-1.66462E+05 4.91855E-09 4.89263E-09
 -1       558 4.35146E+04-1.04119E+05 7.29548E+03-1.27954E+05 9.60426E-10-7.58519E-10
 -1       559 7.98016E+04-1.39057E+05 3.69120E+03-1.68623E+05 3.65253E-09-3.47427E-09
 -1       560 4.25955E+04-1.03477E+05 1.55052E+03-1.28516E+05 2.57569E-09-1.36515E-09
 -1       561 7.82519E+04-1.38722E+05 8.13485E+02-1.69593E+05 1.71713E-09-2.15550E-10
 -1       562 4.18347E+04-1.02954E+05 3.20035E+02-1.29068E+05-2.31375E-09-7.26641E-09
 -1       563 7.73400E+04-1.38335E+05 1.92693E+02-1.70175E+05 1.87356E-09 3.68379E-09
 -1       564 4.13646E+04-1.02645E+05 6.92103E+01-1.29404E+05-8.93124E-10 9.25866E-09
 -1       565 7.68752E+04-1.38138E+05 3.59921E+01-1.70466E+05-1.21508E-09 1.10049E-09
 -1       566 4.12061E+04-1.02537E+05-2.59532E+01-1.29521E+05 8.30278E-09 1.20526E-08
 -1       567 7.68234E+04-1.38113E+05-1.05198E+02-1.70449E+05 6.86668E-11-3.64071E-09
 -1       568 4.13856E+04-1.02656E+05-2.79732E+02-1.29442E+05 3.34694E-09-1.29148E-10
 -1       569 7.66604E+04-1.38013E+05-6.55620E+02-1.69680E+05 4.96311E-09 6.33736E-09
 -1       570 4.23342E+04-1.03549E+05-1.36110E+03-1.29472E+05 9.45874E-10 6.06178E-09
 -1       571 1.41244E+05 5.11506E+03 7.57926E+03-3.54884E+04 7.47605E-09-1.27147E-09
 -1       572 1.42373E+05 1.77852E+03 3.71319E+03-3.89008E+04 1.77670E-08 1.29182E-09
 -1       573 1.41699E+05 4.23370E+02 1.64953E+03-3.53953E+04 1.64937E-09-5.84350E-10
 -1       574 1.41833E+05 1.36780E+02 8.26344E+02-3.90048E+04-1.65219E-08-4.40286E-09
 -1       575 1.41751E+05 1.78205E+01 3.89415E+02-3.53830E+04-7.26345E-09 3.52793E-09
 -1       576 1.41760E+05 3.93278E+00 1.98137E+02-3.90188E+04 5.72641E-10 7.24867E-09
 -1       577 1.41759E+05-3.88097E+00 9.75258E+01-3.53814E+04 4.03247E-10 2.04182E-10
 -1       578 1.41752E+05-2.33582E+00 5.30249E+01-3.90204E+04-7.13953E-10 1.16734E-09
 -1       579 1.41765E+05-4.47419E+00 3.22456E+01-3.53814E+04-3.97449E-10-1.58707E-09
 -1       580 1.41761E+05-5.32268E+00 2.97464E+01-3.90183E+04-5.37511E-10 2.89947E-09
 -1       581 1.41777E+05-8.02009E+00 4.00778E+01-3.53836E+04-8.86757E-10 1.58866E-09
 -1       582 1.41783E+05-1.70802E+00 7.60219E+01-3.89972E+04-1.90994E-10-1.82285E-09
 -1       583 1.41790E+05 1.79168E+01 1.45870E+02-3.54025E+04-7.19410E-10-2.02704E-09
 -1       584 1.41853E+05 1.32005E+02 3.26827E+02-3.88394E+04-1.63845E-09 2.72451E-09
 -1       585 1.41771E+05 4.20898E+02 6.63954E+02-3.55416E+04-1.89175E-10-1.53159E-09
 -1       586-1.74849E+03 4.60683E+04-2.32033E+03-1.20678E+05 3.90173E-10-2.51657E-09
 -1       587-3.80893E+02 4.57569E+04-2.82689E+02-1.32795E+05 6.53017E-10-2.24605E-09
 -1       588 4.75549E+02 4.58194E+04 1.59323E+03-1.20604E+05 3.87445E-10-3.07409E-10
 -1       589 2.38830E+03 4.66943E+04 4.67266E+03-1.32686E+05 6.07542E-10-2.37924E-09
 -1       590 6.86407E+03 4.52405E+04 1.00180E+04-1.20788E+05 3.17414E-10-2.53840E-09
 -1       591-3.08171E+04-8.85455E+03-1.02713E+04-1.60190E+04 2.26407E-10-4.29327E-09
 -1       592-3.17703E+04-1.13858E+04-5.56338E+03-1.87075E+04-1.42933E-09-6.58008E-09
 -1       593-3.18556E+04-8.09764E+03-2.31608E+03-1.67604E+04-5.60021E-10 1.26431E-09
 -1       594-3.03386E+04-9.89311E+03-1.15515E+03-1.87787E+04-6.11578E-10-4.63419E-09
 -1       595-3.19351E+04-8.09425E+03-5.30868E+02-1.67944E+04-3.42880E-10 3.65668E-09
 -1       596-3.02417E+04-9.82476E+03-2.70617E+02-1.87686E+04-1.22952E-10 3.03413E-09
 -1       597-3.19452E+04-8.10084E+03-1.48975E+02-1.67957E+04-6.40306E-11-2.37753E-09
 -1       598-3.02325E+04-9.82214E+03-1.22719E+02-1.87658E+04-7.89100E-10-2.71007E-09
 -1       599-3.19445E+04-8.10083E+03-1.60434E+02-1.67955E+04-1.39084E-09-1.41205E-09
 -1       600-3.02430E+04-9.82560E+03-3.01013E+02-1.87685E+04-9.72307E-10-5.12125E-09
 -1       601-3.19320E+04-8.09357E+03-5.95334E+02-1.67936E+04-2.73303E-10 9.19044E-10
 -1       602-3.03520E+04-9.90226E+03-1.29837E+03-1.87788E+04-1.11868E-10 2.21110E-09
 -1       603-3.18418E+04-8.09854E+03-2.60413E+03-1.67556E+04 6.95536E-10 1.70007E-09
 -1       604-3.19671E+04-1.15749E+04-6.25567E+03-1.86912E+04 5.79348E-10 2.79215E-10
 -1       605-3.06673E+04-8.95451E+03-1.15493E+04-1.59276E+04-4.75211E-11 6.42876E-09
 -1       606 2.02589E+04-6.80028E+03-1.22492E+04 1.98133E+04-3.49610E-09 3.56522E-09
 -1       607 1.81612E+04-2.19311E+03-6.09953E+03 2.22414E+04-1.89721E-09 1.86583E-09
 -1       608 1.93547E+04-3.68772E+02-2.73113E+03 1.96551E+04 1.68075E-09-7.33735E-10
 -1       609 1.91187E+04-9.64924E+01-1.37956E+03 2.24160E+04 2.10002E-09 2.50793E-09
 -1       610 1.92480E+04 1.71919E+01-6.58747E+02 1.96374E+04 8.56744E-10 7.68296E-10
 -1       611 1.92043E+04 2.46727E+01-3.32354E+02 2.24351E+04-6.31962E-09 4.89990E-10
 -1       612 1.92214E+04 2.63556E+01-1.58916E+02 1.96357E+04-4.01906E-09 1.39084E-09
 -1       613 1.92055E+04 2.90802E+01-7.25511E+01 2.24374E+04-5.13955E-09-4.25257E-09
 -1       614 1.92076E+04 2.55170E+01-2.02988E+01 1.96351E+04-2.00180E-09-3.71324E-09
 -1       615 1.91994E+04 3.17177E+01 2.23129E+01 2.24378E+04 3.34853E-09-2.55454E-09
 -1       616 1.91971E+04 2.85444E+01 7.44027E+01 1.96353E+04-3.08728E-09-2.07274E-09
 -1       617 1.92054E+04 4.95470E+01 1.72608E+02 2.24374E+04 1.36424E-09-6.77574E-11
 -1       618 1.91798E+04 7.98175E+01 3.49009E+02 1.96354E+04 6.60521E-10 1.79625E-09
 -1       619 1.93269E+04 3.20728E+02 7.84437E+02 2.24369E+04-6.41194E-10-1.34719E-09
 -1       620 1.90626E+04 9.08986E+02 1.57691E+03 1.96347E+04 1.69359E-09-1.01454E-09
 -1       621 2.47634E+02 1.53999E+05 2.14020E+03 4.83685E+03-2.75847E-10-6.10873E-09
 -1       622 2.82724E+02 1.54530E+05 1.81281E+03 7.06313E+03-2.18677E-10 6.15267E-09
 -1       623 1.18480E+01 1.54153E+05 2.07998E+03 4.81411E+03-2.41499E-10 4.37808E-10
 -1       624 9.39787E+02 1.55133E+05 3.94560E+03 7.08537E+03-1.91477E-10-3.91393E-09
 -1       625 9.43454E+02 1.53393E+05 6.85729E+03 4.81485E+03-9.25411E-11-2.47385E-09
 -1       626 1.26864E+05 3.52360E+04 2.52492E+03 6.87031E+04-2.16323E-09 1.09958E-09
 -1       627 1.25117E+05 3.65256E+04 1.21641E+03 7.14878E+04-3.12866E-10 4.72778E-09
 -1       628 1.26962E+05 3.40395E+04 5.13953E+02 6.90838E+04-1.45801E-08 5.89694E-09
 -1       629 1.24754E+05 3.62389E+04 2.51815E+02 7.16566E+04-3.12903E-08 1.82377E-08
 -1       630 1.26970E+05 3.39818E+04 1.16531E+02 6.90950E+04-1.60508E-08 6.29529E-09
 -1       631 1.24711E+05 3.62319E+04 6.26320E+01 7.16596E+04-6.76437E-10-1.83434E-09
 -1       632 1.26965E+05 3.39855E+04 4.14241E+01 6.90901E+04-5.25370E-09-2.62983E-09
 -1       633 1.24703E+05 3.62352E+04 4.62908E+01 7.16556E+04-4.41150E-09-1.77354E-09
 -1       634 1.26959E+05 3.39857E+04 7.50267E+01 6.90874E+04 9.21341E-09-5.13364E-09
 -1       635 1.24706E+05 3.62362E+04 1.52185E+02 7.16556E+04 1.98572E-08 6.47856E-09
 -1       636 1.26951E+05 3.39850E+04 3.07450E+02 6.90852E+04 4.87466E-09-4.52246E-09
 -1       637 1.24769E+05 3.62853E+04 6.75764E+02 7.16523E+04 1.04697E-09 5.71754E-09
 -1       638 1.26924E+05 3.41360E+04 1.38893E+03 6.90154E+04-8.45398E-09-3.99382E-09
 -1       639 1.25494E+05 3.73018E+04 3.28583E+03 7.14359E+04-1.22282E-08 1.33327E-08
 -1       640 1.26825E+05 3.71612E+04 6.81912E+03 6.77306E+04-9.96715E-09 1.20542E-09
 -1       656 3.44223E+04-8.71115E+05-8.31066E+04-4.74349E+02 5.09317E-10-3.08546E-09
 -1       657-4.54829E+04-9.08642E+05-6.87268E+04 5.69965E+03-2.88765E-10-1.34099E-09
 -1       658 1.09124E+04-8.81823E+05-4.21730E+04-1.11317E+03 1.32275E-09 4.68756E-09
 -1       659-4.87556E+04-9.10186E+05-7.30251E+04 6.12117E+03 5.41149E-10-5.18903E-09
 -1       660 3.76864E+04-8.69573E+05-9.05045E+04-8.95856E+02-5.82077E-10 5.77263E-09
 -1       661 1.24131E+05 1.34997E+04 1.18931E+04 4.84814E+04 9.41100E-10 3.67891E-10
 -1       662 1.30302E+05 2.28511E+04 8.01390E+03 4.64398E+04 4.15184E-10-5.73107E-09
 -1       663 1.26459E+05 1.73221E+04 2.80334E+03 4.78118E+04-1.12254E-09-7.55222E-09
 -1       664 1.27610E+05 1.83748E+04 1.67596E+03 4.72517E+04-1.01456E-09-3.10251E-09
 -1       665 1.26806E+05 1.78504E+04 6.61144E+02 4.77168E+04-2.56193E-09-2.52726E-10
 -1       666 1.27205E+05 1.77653E+04 3.85464E+02 4.73717E+04-5.98470E-09 2.78427E-09
 -1       667 1.26862E+05 1.79157E+04 2.03232E+02 4.76978E+04 1.06807E-09 1.04218E-09
 -1       668 1.27147E+05 1.77113E+04 2.03448E+02 4.73979E+04 5.37801E-09 4.33459E-10
 -1       669 1.26864E+05 1.79030E+04 2.72584E+02 4.76912E+04 1.98298E-09 1.23714E-09
 -1       670 1.27219E+05 1.78515E+04 5.90749E+02 4.73930E+04 3.70341E-09-3.82045E-10
 -1       671 1.26790E+05 1.77783E+04 1.04808E+03 4.77015E+04 2.76529E-10-2.44859E-09
 -1       672 1.27834E+05 1.88670E+04 2.68075E+03 4.72410E+04-1.40135E-09 8.08541E-10
 -1       673 1.26252E+05 1.69131E+04 4.49228E+03 4.78334E+04-3.32699E-09-2.39902E-09
 -1       674 1.32115E+05 2.60799E+04 1.28472E+04 4.59795E+04-4.84658E-09-3.52384E-09
 -1       675 1.22537E+05 1.07672E+04 1.90690E+04 4.88870E+04 1.49021E-09-4.60204E-10
 -1       676 1.40405E+01-1.67395E+05-6.52018E+02 2.51782E+01-8.96890E-10-8.22008E-10
 -1       677-1.73059E+02-1.67553E+05-1.19324E+03-5.03426E+01-4.06362E-09-1.79635E-09
 -1       678 1.15568E+02-1.67283E+05-2.10931E+03 2.51470E+01 2.27715E-10-4.30509E-09
 -1       679-2.10962E+03-1.68826E+05-5.01053E+03-5.02125E+01-4.17742E-10-1.38183E-08
 -1       680 1.25897E+03-1.66123E+05-8.07535E+03 2.47591E+01-7.96263E-10-5.75302E-09
 -1       771-1.79964E+06-3.14001E+05-4.38235E+04-7.45775E+05-1.00772E-08-1.11686E-08
 -1       772-1.78836E+06-3.37966E+05-2.35233E+04-7.72480E+05-4.74756E-09 2.82125E-09
 -1       773-1.80554E+06-3.09425E+05-1.01390E+04-7.48224E+05-1.67347E-09 2.67028E-09
 -1       774-1.78201E+06-3.32754E+05-4.93954E+03-7.75021E+05 6.19548E-09-7.60338E-10
 -1       775-1.80684E+06-3.08610E+05-2.49359E+03-7.48382E+05-2.25555E-10 4.01997E-10
 -1       776-1.78186E+06-3.32759E+05-1.15055E+03-7.76324E+05-1.70257E-09 1.39698E-09
 -1       777-1.80771E+06-3.07988E+05-7.12855E+02-7.48453E+05 1.29512E-09 1.03319E-09
 -1       778-1.78208E+06-3.32928E+05-3.17897E+02-7.77403E+05 2.13913E-09 2.51657E-09
 -1       779-1.80840E+06-3.07459E+05-3.13385E+02-7.48516E+05-2.19370E-09-1.99088E-09
 -1       780-1.78231E+06-3.33073E+05-2.46561E+02-7.78277E+05-1.59343E-09 4.40195E-10
 -1       781-1.80891E+06-3.07034E+05-4.41537E+02-7.48561E+05-6.06815E-09-1.22327E-09
 -1       782-1.78256E+06-3.33220E+05-8.05314E+02-7.78920E+05-4.46744E-09 2.45848E-09
 -1       783-1.80921E+06-3.06758E+05-1.61214E+03-7.48575E+05-2.21189E-09-2.97820E-09
 -1       784-1.78364E+06-3.34313E+05-3.81934E+03-7.79268E+05-5.46061E-09 2.24645E-10
 -1       785-1.80869E+06-3.07124E+05-7.06209E+03-7.48076E+05-6.67114E-09 2.66118E-09
 -1       786 1.31839E+05-7.01442E+03 1.62274E+04 1.62781E+00 1.15719E-07 3.68982E-09
 -1       787 1.38871E+05 8.12049E+03 1.14807E+04-4.89821E+00 2.29892E-07 4.19800E-09
 -1       788 1.34552E+05-1.09959E+03 4.20009E+03 3.11739E+00 3.21824E-07-1.14574E-09
 -1       789 1.35710E+05 1.27229E+03 2.63899E+03-8.57314E+00 4.14003E-07 1.12678E-09
 -1       790 1.35000E+05-1.71776E+02 1.07386E+03 5.30282E+00 5.75142E-07-5.43793E-09
 -1       791 1.35188E+05 1.99601E+02 6.30641E+02-1.41203E+01 7.37070E-07 1.99734E-09
 -1       792 1.35075E+05-2.77042E+01 2.88103E+02 8.66468E+00 1.06294E-06-1.05423E-08
 -1       793 1.35104E+05 3.90448E+01 1.89368E+02-2.27661E+01 1.38607E-06 2.33875E-09
 -1       794 1.35084E+05-1.13263E+01 1.41159E+02 1.39488E+01 6.93114E-07-3.22906E-09
 -1       795 1.35112E+05 5.87762E+01 2.05466E+02-3.64194E+01 2.26709E-09 7.19216E-09
 -1       796 1.35066E+05-4.74212E+01 3.08545E+02 2.23182E+01 4.85816E-11 2.06283E-09
 -1       797 1.35253E+05 3.47714E+02 7.28150E+02-5.80920E+01-4.77076E-10-6.14840E-09
 -1       798 1.34944E+05-3.00051E+02 1.14957E+03 3.56217E+01-2.48468E-10-1.19843E-09
 -1       799 1.36115E+05 2.21546E+03 3.13411E+03-9.27822E+01-7.19199E-10 6.34827E-10
 -1       800 1.34203E+05-1.91366E+03 4.42727E+03 5.70086E+01-2.04610E-11-2.76941E-10
 -1       801-1.03709E+04 6.26317E+04 1.59100E+04 1.41181E+04 7.79960E-09-2.46678E-09
 -1       802 2.31738E+04 1.31025E+05 4.35026E+04-5.92057E+04 2.09584E-08-3.23263E-09
 -1       803-1.21882E+04 8.85433E+04 5.16850E+04 1.22631E+04 1.64364E-08 1.20825E-08
 -1       804 9.84390E+04 1.72336E+05 1.42235E+05-6.01875E+04 1.94341E-08 1.61154E-08
 -1       805-8.56778E+04 2.15321E+04 1.82025E+05 1.50978E+04 6.81030E-09 1.93071E-08
 -1       806-1.53883E+05-3.30646E+04-1.31173E+04-6.41822E+04 3.77099E-09-3.83898E-09
 -1       807-1.54645E+05-3.11962E+04-6.44423E+03-6.76717E+04 7.57672E-09-1.30711E-08
 -1       808-1.54256E+05-2.83252E+04-2.73368E+03-6.64068E+04 5.80724E-09-5.32248E-09
 -1       809-1.53269E+05-2.94074E+04-1.33642E+03-6.78582E+04 1.02267E-09-4.90058E-09
 -1       810-1.54314E+05-2.81578E+04-6.11922E+02-6.65050E+04 4.08704E-09 9.25240E-09
 -1       811-1.53164E+05-2.93367E+04-3.03464E+02-6.78428E+04-5.68434E-10-1.19257E-10
 -1       812-1.54325E+05-2.81700E+04-1.51381E+02-6.65049E+04-6.93944E-10-2.18620E-09
 -1       813-1.53151E+05-2.93384E+04-9.54513E+01-6.78349E+04 7.59087E-10 3.98768E-09
 -1       814-1.54323E+05-2.81744E+04-8.93696E+01-6.65031E+04 7.04858E-11-3.92174E-09
 -1       815-1.53153E+05-2.93399E+04-1.39846E+02-6.78330E+04 8.46512E-10-6.19752E-09
 -1       816-1.54315E+05-2.81731E+04-2.61910E+02-6.65014E+04-1.33377E-09 2.63435E-09
 -1       817-1.53198E+05-2.93648E+04-5.61634E+02-6.78286E+04 1.04114E-09-2.28738E-09
 -1       818-1.54282E+05-2.82516E+04-1.14452E+03-6.64644E+04 1.04910E-09-7.19638E-10
 -1       819-1.53831E+05-3.00515E+04-2.69390E+03-6.76758E+04-1.49043E-09 5.61067E-09
 -1       820-1.54064E+05-3.02885E+04-5.48244E+03-6.55965E+04 1.67620E-09 8.98285E-09
 -1       821-1.99119E+05 1.10552E+04-2.55686E+04 2.61324E+01-6.40782E-10-4.34738E-10
 -1       822-2.10199E+05-1.27982E+04-1.80930E+04-3.15160E+02-1.73882E-09 2.33513E-10
 -1       823-2.03395E+05 1.73306E+03-6.62241E+03-1.27461E+01 9.14882E-10 1.33150E-09
 -1       824-2.05216E+05-2.00597E+03-4.16724E+03-2.09764E+02 2.26091E-10 4.96698E-09
 -1       825-2.04101E+05 2.71302E+02-1.71219E+03-7.92668E+01-2.53325E-09 4.48642E-09
 -1       826-2.04395E+05-3.20005E+02-1.03502E+03-7.01176E+01-5.07331E-09 4.65809E-09
 -1       827-2.04216E+05 4.83011E+01-5.34405E+02-1.52396E+02-3.12036E-09 2.59571E-09
 -1       828-2.04282E+05-9.77385E+01-4.73859E+02 6.03856E+01-3.41615E-09 1.30002E-09
 -1       829-2.04214E+05 4.92252E+01-5.42176E+02-2.09773E+02 1.87521E-11-9.19371E-10
 -1       830-2.04404E+05-3.27691E+02-1.05944E+03 1.41868E+02 2.13546E-09 1.54373E-10
 -1       831-2.04094E+05 2.78154E+02-1.75378E+03-2.33880E+02-2.26531E-09 6.25619E-10
 -1       832-2.05246E+05-2.05673E+03-4.27351E+03 1.49828E+02-1.55467E-09 8.97580E-09
 -1       833-2.03373E+05 1.77701E+03-6.79049E+03-2.17732E+02-7.72403E-10 5.49653E-09
 -1       834-2.10350E+05-1.31235E+04-1.85533E+04 8.36400E+01-1.60502E-09-1.74236E-09
 -1       835-1.98991E+05 1.13363E+04-2.62201E+04-1.67685E+02 3.73961E-09 1.08594E-09
 -1       836-6.63396E+02 1.88863E+05 1.13689E+04-1.67012E+04 1.36970E-09-2.38924E-09
 -1       837 2.50235E+03 1.92384E+05 9.70100E+03-3.35525E+04 2.02090E-09 2.05637E-09
 -1       838-2.44187E+02 1.89845E+05 9.99711E+03-1.66439E+04 1.92631E-09-1.40176E-09
 -1       839 6.41367E+03 1.95304E+05 1.90229E+04-3.35731E+04 2.55022E-09-2.36533E-09
 -1       840-1.92899E+03 1.85923E+05 3.03799E+04-1.66796E+04 1.67711E-09-3.69846E-09
 -1       856-6.27290E+04 5.34422E+03-1.40826E+04-3.08234E+02-2.31694E-09-3.48427E-09
 -1       857-6.85472E+04-6.26840E+03-9.69586E+03 3.21672E+03-2.75952E-09 3.95289E-09
 -1       858-6.50276E+04 7.48950E+02-3.65483E+03-3.20084E+02-8.85535E-10-5.80485E-10
 -1       859-6.59067E+04-8.71477E+02-2.20758E+03 3.23548E+03 1.41942E-09 1.62967E-09
 -1       860-6.53714E+04 1.04252E+02-9.28275E+02-3.27085E+02 1.19721E-09 1.65073E-09
 -1       861-6.55104E+04-1.16043E+02-5.17283E+02 3.24501E+03-5.97238E-09-2.42102E-09
 -1       862-6.54250E+04 1.39111E+01-2.28254E+02-3.29627E+02 4.33065E-09-7.53460E-10
 -1       863-6.54471E+04-9.57212E+00-1.13169E+02 3.24614E+03 1.02017E-08 2.66976E-09
 -1       864-6.54348E+04 9.37166E-02-3.61090E+01-3.28219E+02 6.41833E-09-1.81338E-09
 -1       865-6.54293E+04 1.46150E+01 1.95436E+01 3.23898E+03 1.47580E-09 3.43555E-10
 -1       866-6.54421E+04-1.04573E+01 7.42640E+01-3.22469E+02-3.24488E-09-1.03526E-09
 -1       867-6.53860E+04 8.81970E+01 2.04757E+02 3.22341E+03-2.16905E-09-3.85440E-09
 -1       868-6.54763E+04-7.28259E+01 3.46022E+02-3.12648E+02 3.33841E-10-9.48350E-09
 -1       869-6.51271E+04 6.04871E+02 9.28767E+02 3.19718E+03-6.18087E-10-3.62735E-09
 -1       870-6.56983E+04-5.14059E+02 1.34755E+03-2.96238E+02 2.83370E-09-1.19047E-09
 -1       871-2.90532E+03-6.01356E+03-9.45026E+03 6.19280E+04 1.62163E-09-5.08999E-09
 -1       872-1.26408E+03-8.12397E+03-3.84742E+03 8.02843E+04 2.89037E-09-7.15113E-09
 -1       873-2.90560E+01-7.13123E+03 5.64729E+02 6.17909E+04 1.10163E-09-1.03296E-09
 -1       874 1.45905E+03-5.75024E+03 5.39516E+03 8.03135E+04 3.30010E-09 5.21868E-09
 -1       875 3.46270E+03-8.41611E+03 1.19562E+04 6.19038E+04 1.64528E-09-4.34829E-09
 -1       876 1.55246E+05 2.67661E+04 8.32838E+03 6.30013E+04-1.03256E-08-1.59707E-09
 -1       877 1.55717E+05 2.85991E+04 4.44746E+03 6.54707E+04-5.92900E-09 3.53612E-09
 -1       878 1.56025E+05 2.58436E+04 1.86333E+03 6.36850E+04 3.39537E-09 1.85116E-08
 -1       879 1.54584E+05 2.74712E+04 9.28154E+02 6.55308E+04-1.34305E-08-4.06934E-09
 -1       880 1.56083E+05 2.58328E+04 4.32125E+02 6.37128E+04-7.02607E-09 1.14909E-09
 -1       881 1.54509E+05 2.74235E+04 2.30080E+02 6.55198E+04 1.99952E-09 2.49842E-09
 -1       882 1.56089E+05 2.58393E+04 1.46084E+02 6.37137E+04 3.28282E-09 3.81030E-09
 -1       883 1.54504E+05 2.74213E+04 1.55220E+02 6.55169E+04 7.04290E-10 9.31921E-09
 -1       884 1.56086E+05 2.58374E+04 2.45295E+02 6.37138E+04 6.13909E-11 2.13453E-09
 -1       885 1.54523E+05 2.74248E+04 4.92168E+02 6.55232E+04 2.52626E-09 5.03877E-09
 -1       886 1.56067E+05 2.58230E+04 9.91498E+02 6.37118E+04 5.33340E-09 1.55705E-09
 -1       887 1.54697E+05 2.75390E+04 2.16567E+03 6.55481E+04 8.63420E-09 1.37919E-09
 -1       888 1.55930E+05 2.58474E+04 4.36392E+03 6.36425E+04 5.22056E-09 6.33463E-10
 -1       889 1.57298E+05 3.02387E+04 1.04253E+04 6.54649E+04 2.34132E-09 1.09321E-09
 -1       890 1.54151E+05 2.79599E+04 1.95255E+04 6.19785E+04 5.29235E-09-3.20870E-09
 -1       891-9.59270E+01-8.83296E+04-1.03950E+03 1.68391E+04 1.68939E-09-3.12298E-10
 -1       892-1.66845E+02-8.85797E+04-1.13234E+03 2.54836E+04-7.38510E-10-6.95616E-09
 -1       893-2.56045E+01-8.83636E+04-1.61928E+03 1.68422E+04 2.62162E-10-1.81262E-09
 -1       894-8.82443E+02-8.92058E+04-3.36363E+03 2.53935E+04-2.75122E-09 3.32989E-09
 -1       895-6.87692E+02-8.76674E+04-5.92697E+03 1.69282E+04-1.19087E-09 1.32604E-09
 -1       956-1.94956E+05-2.81392E+03-7.08678E+03 1.28605E+04-2.71211E-09-1.32366E-09
 -1       957-1.96355E+05-9.49127E+02-3.63823E+03 1.54827E+04-2.69210E-10 2.71439E-09
 -1       958-1.95582E+05-7.53397E+01-1.63898E+03 1.27766E+04 9.81345E-10 1.48077E-09
 -1       959-1.95693E+05-1.36655E+01-8.37230E+02 1.55734E+04-1.91540E-09 1.47327E-09
 -1       960-1.95637E+05 2.28376E+01-4.08012E+02 1.27688E+04-2.45882E-09 4.54293E-10
 -1       961-1.95643E+05 2.06430E+01-2.16354E+02 1.55821E+04-4.83544E-09-3.77440E-09
 -1       962-1.95647E+05 1.92401E+01-1.23478E+02 1.27677E+04-1.57729E-09-4.01565E-09
 -1       963-1.95640E+05 2.09800E+01-9.85222E+01 1.55835E+04-1.81723E-09 4.88842E-09
 -1       964-1.95649E+05 2.02963E+01-1.18790E+02 1.27673E+04-3.64025E-10-6.63590E-10
 -1       965-1.95647E+05 2.30120E+01-2.04588E+02 1.55836E+04 2.58638E-09-1.30888E-09
 -1       966-1.95643E+05 2.59307E+01-3.83590E+02 1.27677E+04 1.59298E-09 1.51988E-09
 -1       967-1.95698E+05-6.84752E+00-7.86520E+02 1.55789E+04 6.64318E-09 7.18410E-09
 -1       968-1.95595E+05-6.40496E+01-1.53897E+03 1.27721E+04 2.77009E-09 9.02475E-10
 -1       969-1.96324E+05-8.83363E+02-3.41693E+03 1.55263E+04 2.17563E-09-1.01289E-09
 -1       970-1.95009E+05-2.63466E+03-6.65522E+03 1.28220E+04 1.81149E-09 3.77486E-09
 -1       971-1.85370E+05-9.80755E+02-5.46057E+03 9.11225E+03-1.96042E-09-3.85683E-10
 -1       972-1.86698E+05-7.03915E+02-2.97408E+03 1.27217E+04-4.52019E-10-3.32420E-10
 -1       973-1.85975E+05-6.18854E+00-1.33141E+03 9.03721E+03-3.73666E-09 3.35376E-09
 -1       974-1.86067E+05-7.54724E+00-6.89841E+02 1.28022E+04-1.27716E-09-1.96030E-09
 -1       975-1.86021E+05 1.80724E+01-3.43818E+02 9.03098E+03-1.29830E-10-1.42018E-09
 -1       976-1.86027E+05 1.98819E+01-1.96887E+02 1.28096E+04-1.19837E-09-6.76437E-09
 -1       977-1.86028E+05 1.70591E+01-1.40048E+02 9.02983E+03 1.83695E-09-6.01574E-10
 -1       978-1.86028E+05 2.23762E+01-1.60125E+02 1.28112E+04 7.91175E-09 1.50897E-09
 -1       979-1.86028E+05 2.09697E+01-2.53933E+02 9.02937E+03 5.69975E-09-5.88483E-09
 -1       980-1.86047E+05 2.37584E+01-4.88221E+02 1.28114E+04 5.78336E-09-1.63107E-09
 -1       981-1.86012E+05 3.31763E+01-9.44393E+02 9.02962E+03 8.45489E-10-1.16975E-09
 -1       982-1.86177E+05-4.56262E+01-1.95137E+03 1.28078E+04 8.56289E-10-4.33202E-09
 -1       983-1.85894E+05-2.66802E+01-3.79104E+03 9.03303E+03 1.88379E-09-4.88853E-11
 -1       984-1.88001E+05-2.02446E+03-8.48930E+03 1.27570E+04-1.00238E-09 2.87673E-09
 -1       985-1.84179E+05-2.80009E+03-1.55890E+04 9.08355E+03 2.49111E-09-1.23691E-10
 -3
    1PSTEP                         7           4           1          
  100CL  104 4.68750E-01         409                     0    4           1
 -4  DISP        4    1
 -5  D1          1    2    1    0
 -5  D2          1    2    2    0
 -5  D3          1    2    3    0
 -5  ALL         1    2    0    0    1ALL
 -1         1 1.27967E-04 0.00000E+00 0.00000E+00
 -1         2 1.17425E-04-4.78993E-31 0.00000E+00
 -1         3 1.12320E-04-1.37633E-27 6.61744E-24
 -1         5 7.90281E-05-3.43685E-27 0.00000E+00
 -1         8 1.03554E-04-8.86344E-07 0.00000E+00
 -1         9 1.04263E-04 4.53342E-07 0.00000E+00
 -1        10 1.03805E-04-1.50090E-06-3.30872E-24
 -1        12 7.85339E-05 5.12086E-07 0.00000E+00
 -1        15 7.44814E-05-9.77890E-07 4.13590E-25
 -1        16 7.71219E-05 2.96938E-07 0.00000E+00
 -1        17 7.66001E-05-3.17341E-06 0.00000E+00
 -1        18 7.60605E-05 7.01813E-07 0.00000E+00
 -1        19 7.70516E-05 1.02134E-06 0.00000E+00
 -1        20 7.71834E-05 1.46834E-05 0.00000E+00
 -1        21 7.66828E-05 2.76699E-05-1.65436E-24
 -1        24 1.86556E-05-4.33068E-06 0.00000E+00
 -1        25 7.45495E-05 8.20015E-07 0.00000E+00
 -1        26 7.54780E-05 1.42247E-06 0.00000E+00
 -1        27 7.40603E-05 1.24071E-05 0.00000E+00
 -1        28 7.36066E-05 2.72331E-05 0.00000E+00
 -1        32 0.00000E+00 0.00000E+00 0.00000E+00
 -1        33 7.26909E-05 1.90676E-06 0.00000E+00
 -1        34 7.13220E-05 1.23865E-05 0.00000E+00
 -1        35 7.00211E-05 2.70024E-05 0.00000E+00
 -1        51 1.26380E-04-1.45697E-07 0.00000E+00
 -1        52 1.23438E-04-2.87483E-07 0.00000E+00
 -1        53 1.19407E-04-4.30760E-07 0.00000E+00
 -1        54 1.14564E-04-5.76963E-07-3.30872E-24
 -1        55 1.09187E-04-7.26819E-07-3.10193E-24
 -1        56 1.26825E-04-7.43962E-07 2.64698E-23
 -1        57 1.25828E-04-2.00800E-06-1.32349E-23
 -1        58 1.24974E-04-3.64608E-06 2.64698E-23
 -1        59 1.24200E-04-5.52120E-06 2.64698E-23
 -1        60 1.23456E-04-7.47558E-06 0.00000E+00
 -1        61 1.22681E-04-9.35217E-06 0.00000E+00
 -1        62 1.21819E-04-1.09981E-05 0.00000E+00
 -1        63 1.20817E-04-1.22678E-05 2.64698E-23
 -1        64 1.19628E-04-1.30390E-05 0.00000E+00
 -1        65 1.18212E-04-1.32042E-05 2.64698E-23
 -1        66 1.16542E-04-1.26934E-05-5.29396E-23
 -1        67 1.14600E-04-1.14566E-05 2.64698E-23
 -1        68 1.12383E-04-9.48906E-06 0.00000E+00
 -1        69 1.09902E-04-6.80541E-06 0.00000E+00
 -1        70 1.07172E-04-3.46958E-06-2.64698E-23
 -1        86 1.17082E-04 8.34741E-08 0.00000E+00
 -1        87 1.16052E-04 1.65956E-07 0.00000E+00
 -1        88 1.14303E-04 2.47395E-07 0.00000E+00
 -1        89 1.11800E-04 3.23912E-07 4.13590E-25
 -1        90 1.08477E-04 3.99266E-07 0.00000E+00
 -1       121 1.12082E-04-2.48797E-07-6.61744E-24
 -1       122 1.11370E-04-4.97817E-07 3.30872E-24
 -1       123 1.10183E-04-7.47279E-07 0.00000E+00
 -1       124 1.08525E-04-9.97440E-07-3.30872E-24
 -1       125 1.06398E-04-1.24844E-06 0.00000E+00
 -1       191 7.90143E-05 8.53550E-08-3.30872E-24
 -1       192 7.89732E-05 1.70708E-07 0.00000E+00
 -1       193 7.89045E-05 2.56060E-07 3.30872E-24
 -1       194 7.88085E-05 3.41409E-07-1.65436E-24
 -1       195 7.86849E-05 4.26752E-07 0.00000E+00
 -1       251 1.03578E-04 3.14215E-06-3.30872E-24
 -1       252 1.03622E-04 5.56202E-06 0.00000E+00
 -1       253 1.03667E-04 6.63362E-06 1.03398E-25
 -1       254 1.03716E-04 6.61424E-06 0.00000E+00
 -1       255 1.03765E-04 5.73300E-06 0.00000E+00
 -1       256 1.03814E-04 4.21719E-06 0.00000E+00
 -1       257 1.03862E-04 2.27750E-06 1.65436E-24
 -1       258 1.03909E-04 1.23751E-07 0.00000E+00
 -1       259 1.03957E-04-2.03992E-06 1.65436E-24
 -1       260 1.04005E-04-4.00935E-06 0.00000E+00
 -1       261 1.04053E-04-5.57525E-06 0.00000E+00
 -1       262 1.04102E-04-6.52756E-06 0.00000E+00
 -1       263 1.04151E-04-6.64011E-06 2.58494E-26
 -1       264 1.04196E-04-5.68498E-06 0.00000E+00
 -1       265 1.04241E-04-3.40665E-06 0.00000E+00
 -1       266 9.87085E-05-9.13554E-07 0.00000E+00
 -1       267 9.38631E-05-9.27355E-07-1.65436E-24
 -1       268 8.90177E-05-9.42005E-07 0.00000E+00
 -1       269 8.41722E-05-9.54140E-07 4.13590E-25
 -1       270 7.93268E-05-9.66215E-07-4.13590E-25
 -1       271 1.00604E-04 2.76783E-06 2.64698E-23
 -1       272 9.80800E-05 5.15935E-06 0.00000E+00
 -1       273 9.59821E-05 6.42749E-06 0.00000E+00
 -1       274 9.42466E-05 6.71116E-06 0.00000E+00
 -1       275 9.28188E-05 6.17361E-06 0.00000E+00
 -1       276 9.16316E-05 4.99020E-06 2.64698E-23
 -1       277 9.06152E-05 3.34931E-06-5.29396E-23
 -1       278 8.96963E-05 1.44720E-06 0.00000E+00
 -1       279 8.87997E-05-5.14826E-07 0.00000E+00
 -1       280 8.78500E-05-2.33431E-06 2.64698E-23
 -1       281 8.67726E-05-3.81169E-06 0.00000E+00
 -1       282 8.54955E-05-4.75340E-06 0.00000E+00
 -1       283 8.39494E-05-4.97640E-06 0.00000E+00
 -1       284 8.20741E-05-4.30891E-06 0.00000E+00
 -1       285 7.98048E-05-2.59976E-06 0.00000E+00
 -1       301 9.95541E-05 4.20284E-07 6.61744E-24
 -1       302 9.48674E-05 4.02375E-07 1.65436E-24
 -1       303 9.02421E-05 3.85161E-07 0.00000E+00
 -1       304 8.57170E-05 3.66742E-07-3.30872E-24
 -1       305 8.13309E-05 3.46507E-07 1.32349E-23
 -1       306 1.01232E-04 3.83464E-06 2.64698E-23
 -1       307 9.87013E-05 5.74110E-06 0.00000E+00
 -1       308 9.67466E-05 6.12839E-06 5.29396E-23
 -1       309 9.53505E-05 4.99969E-06-2.64698E-23
 -1       310 9.44328E-05 2.59058E-06 5.29396E-23
 -1       311 9.38812E-05-8.06251E-07-2.64698E-23
 -1       312 9.35327E-05-4.74981E-06 5.29396E-23
 -1       313 9.32137E-05-8.77379E-06 2.64698E-23
 -1       314 9.27467E-05-1.23993E-05 0.00000E+00
 -1       315 9.19605E-05-1.51664E-05 0.00000E+00
 -1       316 9.07305E-05-1.67441E-05-5.29396E-23
 -1       317 8.89538E-05-1.68572E-05-2.64698E-23
 -1       318 8.66048E-05-1.54493E-05-5.29396E-23
 -1       319 8.36968E-05-1.25318E-05 2.64698E-23
 -1       320 8.03041E-05-8.34810E-06 0.00000E+00
 -1       336 1.00690E-04-1.77445E-06 0.00000E+00
 -1       337 9.69963E-05-2.05027E-06 0.00000E+00
 -1       338 9.27306E-05-2.32819E-06-6.61744E-24
 -1       339 8.79023E-05-2.60816E-06 0.00000E+00
 -1       340 8.25216E-05-2.89088E-06-6.61744E-24
 -1       406 7.83554E-05 5.97406E-07 3.30872E-24
 -1       407 7.81495E-05 6.82693E-07-1.65436E-24
 -1       408 7.79161E-05 7.67922E-07 3.30872E-24
 -1       409 7.76552E-05 8.52988E-07-1.65436E-24
 -1       410 7.73670E-05 9.37722E-07 3.30872E-24
 -1       521 7.54683E-05-4.00866E-06 5.29396E-23
 -1       522 7.88880E-05-2.25487E-05 0.00000E+00
 -1       523 8.62161E-05-5.22033E-05 1.05879E-22
 -1       524 9.59427E-05-8.89555E-05 5.29396E-23
 -1       525 1.06191E-04-1.27256E-04 1.05879E-22
 -1       526 1.15043E-04-1.61427E-04 0.00000E+00
 -1       527 1.20817E-04-1.86684E-04 1.05879E-22
 -1       528 1.21982E-04-1.98993E-04 0.00000E+00
 -1       529 1.17874E-04-1.97079E-04 1.05879E-22
 -1       530 1.08228E-04-1.80824E-04 0.00000E+00
 -1       531 9.39986E-05-1.53103E-04-1.05879E-22
 -1       532 7.66035E-05-1.17678E-04-5.29396E-23
 -1       533 5.82272E-05-7.98916E-05-1.05879E-22
 -1       534 4.11828E-05-4.52568E-05 0.00000E+00
 -1       535 2.74214E-05-1.86629E-05 0.00000E+00
 -1       536 7.65466E-05 2.48604E-06-3.30872E-24
 -1       537 7.65048E-05 7.09146E-06 0.00000E+00
 -1       538 7.64668E-05 1.06284E-05 0.00000E+00
 -1       539 7.64332E-05 1.30841E-05 8.27181E-25
 -1       540 7.64016E-05 1.45164E-05 0.00000E+00
 -1       541 7.63710E-05 1.49846E-05-4.13590E-25
 -1       542 7.63406E-05 1.46111E-05-8.27181E-25
 -1       543 7.63097E-05 1.35195E-05 0.00000E+00
 -1       544 7.62782E-05 1.18802E-05-8.27181E-25
 -1       545 7.62460E-05 9.86418E-06 0.00000E+00
 -1       546 7.62134E-05 7.66735E-06 0.00000E+00
 -1       547 7.61810E-05 5.48569E-06 0.00000E+00
 -1       548 7.61490E-05 3.51417E-06 8.27181E-25
 -1       549 7.61182E-05 1.94756E-06 2.06795E-25
 -1       550 7.60879E-05 9.54249E-07-6.46235E-27
 -1       551 6.88836E-05-3.34607E-06-6.61744E-24
 -1       552 5.97130E-05-3.52736E-06 0.00000E+00
 -1       553 4.95932E-05-3.71719E-06 3.30872E-24
 -1       554 3.90362E-05-3.91357E-06 3.30872E-24
 -1       555 2.85542E-05-4.11190E-06 0.00000E+00
 -1       556 7.45433E-05 2.15386E-06 0.00000E+00
 -1       557 7.29690E-05 6.23539E-06 0.00000E+00
 -1       558 7.18246E-05 9.18557E-06 0.00000E+00
 -1       559 7.10621E-05 1.11276E-05 0.00000E+00
 -1       560 7.06336E-05 1.21845E-05 0.00000E+00
 -1       561 7.04916E-05 1.24798E-05 0.00000E+00
 -1       562 7.05890E-05 1.21373E-05 0.00000E+00
 -1       563 7.08790E-05 1.12810E-05-3.30872E-24
 -1       564 7.13148E-05 1.00349E-05 0.00000E+00
 -1       565 7.18500E-05 8.52300E-06-1.65436E-24
 -1       566 7.24381E-05 6.86953E-06 0.00000E+00
 -1       567 7.30326E-05 5.19866E-06-4.13590E-25
 -1       568 7.35874E-05 3.63450E-06 0.00000E+00
 -1       569 7.40559E-05 2.30109E-06 0.00000E+00
 -1       570 7.43917E-05 1.32247E-06 0.00000E+00
 -1       571 7.61207E-05 7.59758E-07-1.65436E-24
 -1       572 7.61822E-05 7.76639E-07 8.27181E-25
 -1       573 7.62440E-05 7.59809E-07-1.65436E-24
 -1       574 7.63061E-05 7.17007E-07-4.13590E-25
 -1       575 7.63682E-05 6.56004E-07 0.00000E+00
 -1       576 7.64303E-05 5.84624E-07-8.27181E-25
 -1       577 7.64925E-05 5.10694E-07-1.65436E-24
 -1       578 7.65546E-05 4.42051E-07 0.00000E+00
 -1       579 7.66168E-05 3.86527E-07-3.30872E-24
 -1       580 7.66790E-05 3.51960E-07 0.00000E+00
 -1       581 7.67411E-05 3.46183E-07 0.00000E+00
 -1       582 7.68033E-05 3.77023E-07 0.00000E+00
 -1       583 7.68654E-05 4.52297E-07 0.00000E+00
 -1       584 7.69276E-05 5.79746E-07 0.00000E+00
 -1       585 7.69896E-05 7.67062E-07 0.00000E+00
 -1       586 7.57865E-05 7.22731E-07 8.27181E-25
 -1       587 7.54863E-05 7.43133E-07 0.00000E+00
 -1       588 7.51861E-05 7.63312E-07 0.00000E+00
 -1       589 7.49124E-05 7.83173E-07 0.00000E+00
 -1       590 7.46916E-05 8.02493E-07 0.00000E+00
 -1       591 7.60097E-05 7.91884E-07-1.55096E-25
 -1       592 7.59690E-05 8.48388E-07 0.00000E+00
 -1       593 7.59384E-05 8.77724E-07-4.13590E-25
 -1       594 7.59154E-05 8.85650E-07 0.00000E+00
 -1       595 7.58983E-05 8.78004E-07 4.13590E-25
 -1       596 7.58848E-05 8.60577E-07-2.06795E-25
 -1       597 7.58727E-05 8.39160E-07-4.13590E-25
 -1       598 7.58600E-05 8.19540E-07 2.06795E-25
 -1       599 7.58445E-05 8.07502E-07-4.13590E-25
 -1       600 7.58239E-05 8.08830E-07 0.00000E+00
 -1       601 7.57962E-05 8.29309E-07-4.13590E-25
 -1       602 7.57591E-05 8.74730E-07 1.03398E-25
 -1       603 7.57106E-05 9.50884E-07-3.10193E-25
 -1       604 7.56487E-05 1.06361E-06-1.03398E-25
 -1       605 7.55711E-05 1.21866E-06 0.00000E+00
 -1       606 7.70630E-05 1.41720E-06 0.00000E+00
 -1       607 7.70722E-05 1.90102E-06 0.00000E+00
 -1       608 7.70809E-05 2.46764E-06-3.30872E-24
 -1       609 7.70892E-05 3.11124E-06 0.00000E+00
 -1       610 7.70974E-05 3.82596E-06 0.00000E+00
 -1       611 7.71055E-05 4.60588E-06 0.00000E+00
 -1       612 7.71135E-05 5.44505E-06 0.00000E+00
 -1       613 7.71214E-05 6.33754E-06 0.00000E+00
 -1       614 7.71294E-05 7.27740E-06-1.65436E-24
 -1       615 7.71373E-05 8.25868E-06 0.00000E+00
 -1       616 7.71451E-05 9.27544E-06 0.00000E+00
 -1       617 7.71529E-05 1.03217E-05 0.00000E+00
 -1       618 7.71607E-05 1.13916E-05-8.27181E-25
 -1       619 7.71684E-05 1.24792E-05 4.13590E-25
 -1       620 7.71760E-05 1.35784E-05 0.00000E+00
 -1       621 7.67435E-05 1.08824E-06 0.00000E+00
 -1       622 7.64610E-05 1.15547E-06 0.00000E+00
 -1       623 7.61987E-05 1.22269E-06 0.00000E+00
 -1       624 7.59511E-05 1.28980E-06 8.27181E-25
 -1       625 7.57127E-05 1.35679E-06 1.65436E-24
 -1       626 7.69748E-05 1.43832E-06 0.00000E+00
 -1       627 7.68712E-05 1.92803E-06-3.30872E-24
 -1       628 7.67430E-05 2.48370E-06-3.30872E-24
 -1       629 7.65928E-05 3.09811E-06 0.00000E+00
 -1       630 7.64233E-05 3.76404E-06 0.00000E+00
 -1       631 7.62372E-05 4.47420E-06 0.00000E+00
 -1       632 7.60371E-05 5.22131E-06 0.00000E+00
 -1       633 7.58260E-05 5.99810E-06 0.00000E+00
 -1       634 7.56064E-05 6.79728E-06 0.00000E+00
 -1       635 7.53811E-05 7.61158E-06 1.65436E-24
 -1       636 7.51529E-05 8.43372E-06 1.65436E-24
 -1       637 7.49244E-05 9.25643E-06 0.00000E+00
 -1       638 7.46984E-05 1.00724E-05 0.00000E+00
 -1       639 7.44775E-05 1.08744E-05-8.27181E-25
 -1       640 7.42643E-05 1.16551E-05 8.27181E-25
 -1       656 7.62687E-05 1.43130E-05-6.61744E-24
 -1       657 7.56848E-05 1.39279E-05 0.00000E+00
 -1       658 7.53063E-05 1.35439E-05 0.00000E+00
 -1       659 7.50047E-05 1.31603E-05 3.30872E-24
 -1       660 7.46368E-05 1.27754E-05 6.61744E-24
 -1       661 7.68454E-05 1.57653E-05 8.27181E-25
 -1       662 7.65284E-05 1.67991E-05-8.27181E-25
 -1       663 7.62288E-05 1.77861E-05 0.00000E+00
 -1       664 7.59464E-05 1.87287E-05-8.27181E-25
 -1       665 7.56800E-05 1.96289E-05 1.65436E-24
 -1       666 7.54289E-05 2.04887E-05 8.27181E-25
 -1       667 7.51923E-05 2.13098E-05-1.65436E-24
 -1       668 7.49695E-05 2.20942E-05-8.27181E-25
 -1       669 7.47599E-05 2.28435E-05 1.65436E-24
 -1       670 7.45629E-05 2.35594E-05 8.27181E-25
 -1       671 7.43778E-05 2.42434E-05 0.00000E+00
 -1       672 7.42039E-05 2.48970E-05 0.00000E+00
 -1       673 7.40410E-05 2.55216E-05-1.65436E-24
 -1       674 7.38877E-05 2.61184E-05 8.27181E-25
 -1       675 7.37445E-05 2.66890E-05-4.13590E-25
 -1       676 7.61688E-05 2.75967E-05-1.65436E-24
 -1       677 7.56551E-05 2.75235E-05 0.00000E+00
 -1       678 7.51418E-05 2.74503E-05 0.00000E+00
 -1       679 7.46291E-05 2.73774E-05 8.27181E-25
 -1       680 7.41173E-05 2.73044E-05-1.65436E-24
 -1       771 1.47060E-05 3.31770E-06 0.00000E+00
 -1       772 1.12763E-05 9.58219E-06 0.00000E+00
 -1       773 8.34483E-06 1.45389E-05-2.64698E-23
 -1       774 5.87864E-06 1.82695E-05 0.00000E+00
 -1       775 3.84521E-06 2.08574E-05 2.64698E-23
 -1       776 2.21058E-06 2.23892E-05-1.32349E-23
 -1       777 9.40402E-07 2.29533E-05 2.64698E-23
 -1       778-4.53279E-10 2.26406E-05 1.32349E-23
 -1       779-6.47370E-07 2.15436E-05 0.00000E+00
 -1       780-1.03638E-06 1.97569E-05 0.00000E+00
 -1       781-1.20363E-06 1.73762E-05 0.00000E+00
 -1       782-1.18578E-06 1.44988E-05 0.00000E+00
 -1       783-1.01955E-06 1.12229E-05-2.64698E-23
 -1       784-7.41939E-07 7.64778E-06 0.00000E+00
 -1       785-3.90064E-07 3.87325E-06-2.64698E-23
 -1       786 7.46042E-05 7.84718E-07 0.00000E+00
 -1       787 7.46621E-05 7.55257E-07-4.13590E-25
 -1       788 7.47197E-05 7.31205E-07 0.00000E+00
 -1       789 7.47780E-05 7.12151E-07 8.27181E-25
 -1       790 7.48363E-05 6.98354E-07-1.65436E-24
 -1       791 7.48948E-05 6.90087E-07 0.00000E+00
 -1       792 7.49532E-05 6.88369E-07-1.65436E-24
 -1       793 7.50117E-05 6.94237E-07 0.00000E+00
 -1       794 7.50702E-05 7.09747E-07 1.65436E-24
 -1       795 7.51287E-05 7.36983E-07-8.27181E-25
 -1       796 7.51871E-05 7.79608E-07 0.00000E+00
 -1       797 7.52456E-05 8.41325E-07-8.27181E-25
 -1       798 7.53040E-05 9.28409E-07 0.00000E+00
 -1       799 7.53623E-05 1.04720E-06 8.27181E-25
 -1       800 7.54206E-05 1.20831E-06 0.00000E+00
 -1       801 6.95098E-05 7.75380E-07 0.00000E+00
 -1       802 5.44372E-05 6.32512E-07 0.00000E+00
 -1       803 3.46522E-05 4.14902E-07-3.30872E-24
 -1       804 1.54820E-05 2.02073E-07 3.30872E-24
 -1       805 2.18053E-06 7.75306E-08 0.00000E+00
 -1       806 7.44910E-05 7.43468E-07 0.00000E+00
 -1       807 7.44292E-05 6.67965E-07 8.27181E-25
 -1       808 7.43647E-05 5.98018E-07 0.00000E+00
 -1       809 7.42964E-05 5.37442E-07 0.00000E+00
 -1       810 7.42231E-05 4.90043E-07 3.30872E-24
 -1       811 7.41433E-05 4.59569E-07 0.00000E+00
 -1       812 7.40558E-05 4.49763E-07-1.65436E-24
 -1       813 7.39592E-05 4.64361E-07 0.00000E+00
 -1       814 7.38519E-05 5.07095E-07 1.65436E-24
 -1       815 7.37328E-05 5.81693E-07-8.27181E-25
 -1       816 7.36002E-05 6.91881E-07 1.65436E-24
 -1       817 7.34530E-05 8.41384E-07 0.00000E+00
 -1       818 7.32896E-05 1.03392E-06-1.65436E-24
 -1       819 7.31089E-05 1.27321E-06 4.13590E-25
 -1       820 7.29094E-05 1.56294E-06-8.27181E-25
 -1       821 7.53946E-05 1.65683E-06 0.00000E+00
 -1       822 7.53060E-05 1.87927E-06-8.27181E-25
 -1       823 7.52178E-05 2.12948E-06-1.65436E-24
 -1       824 7.51286E-05 2.44702E-06 0.00000E+00
 -1       825 7.50393E-05 2.85901E-06 0.00000E+00
 -1       826 7.49497E-05 3.39216E-06 0.00000E+00
 -1       827 7.48601E-05 4.05073E-06 3.30872E-24
 -1       828 7.47704E-05 4.83849E-06 1.65436E-24
 -1       829 7.46805E-05 5.73528E-06 0.00000E+00
 -1       830 7.45907E-05 6.72049E-06 0.00000E+00
 -1       831 7.45007E-05 7.75715E-06 3.30872E-24
 -1       832 7.44110E-05 8.80806E-06 1.65436E-24
 -1       833 7.43213E-05 9.83337E-06-1.65436E-24
 -1       834 7.42327E-05 1.07934E-05 8.27181E-25
 -1       835 7.41439E-05 1.16604E-05 8.27181E-25
 -1       836 7.51493E-05 1.50310E-06-1.65436E-24
 -1       837 7.47143E-05 1.58551E-06 0.00000E+00
 -1       838 7.42118E-05 1.66775E-06 0.00000E+00
 -1       839 7.36810E-05 1.74948E-06 0.00000E+00
 -1       840 7.31610E-05 1.83107E-06-4.13590E-25
 -1       856 7.40352E-05 1.31456E-05 0.00000E+00
 -1       857 7.40072E-05 1.39813E-05 0.00000E+00
 -1       858 7.39792E-05 1.48989E-05 0.00000E+00
 -1       859 7.39507E-05 1.58831E-05 0.00000E+00
 -1       860 7.39222E-05 1.69183E-05 8.27181E-25
 -1       861 7.38934E-05 1.79890E-05 4.13590E-25
 -1       862 7.38647E-05 1.90798E-05-8.27181E-25
 -1       863 7.38359E-05 2.01750E-05-4.13590E-25
 -1       864 7.38071E-05 2.12590E-05 0.00000E+00
 -1       865 7.37784E-05 2.23163E-05 0.00000E+00
 -1       866 7.37497E-05 2.33314E-05 8.27181E-25
 -1       867 7.37210E-05 2.42887E-05 0.00000E+00
 -1       868 7.36924E-05 2.51728E-05-8.27181E-25
 -1       869 7.36638E-05 2.59685E-05-4.13590E-25
 -1       870 7.36353E-05 2.66603E-05 0.00000E+00
 -1       871 7.35050E-05 1.24063E-05 4.13590E-25
 -1       872 7.30432E-05 1.24036E-05 0.00000E+00
 -1       873 7.26348E-05 1.24005E-05 0.00000E+00
 -1       874 7.22389E-05 1.23970E-05-1.55096E-25
 -1       875 7.18147E-05 1.23930E-05-6.20385E-25
 -1       876 7.38684E-05 1.31537E-05 0.00000E+00
 -1       877 7.36606E-05 1.39477E-05-1.65436E-24
 -1       878 7.34374E-05 1.47832E-05-3.30872E-24
 -1       879 7.32008E-05 1.56549E-05 1.65436E-24
 -1       880 7.29526E-05 1.65576E-05 3.30872E-24
 -1       881 7.26948E-05 1.74859E-05 0.00000E+00
 -1       882 7.24295E-05 1.84344E-05 3.30872E-24
 -1       883 7.21585E-05 1.93978E-05 0.00000E+00
 -1       884 7.18839E-05 2.03708E-05-3.30872E-24
 -1       885 7.16077E-05 2.13481E-05-1.65436E-24
 -1       886 7.13318E-05 2.23244E-05 0.00000E+00
 -1       887 7.10583E-05 2.32944E-05 0.00000E+00
 -1       888 7.07889E-05 2.42527E-05-1.65436E-24
 -1       889 7.05256E-05 2.51938E-05-8.27181E-25
 -1       890 7.02702E-05 2.61126E-05 0.00000E+00
 -1       891 7.31149E-05 2.71945E-05 0.00000E+00
 -1       892 7.26064E-05 2.71558E-05-4.13590E-25
 -1       893 7.20620E-05 2.71171E-05-8.27181E-25
 -1       894 7.14624E-05 2.70785E-05 0.00000E+00
 -1       895 7.07884E-05 2.70399E-05-6.20385E-25
 -1       956 7.26069E-05 2.36097E-06-1.65436E-24
 -1       957 7.25216E-05 2.87003E-06 8.27181E-25
 -1       958 7.24360E-05 3.42823E-06 1.65436E-24
 -1       959 7.23503E-05 4.02950E-06 0.00000E+00
 -1       960 7.22644E-05 4.66780E-06-3.30872E-24
 -1       961 7.21786E-05 5.33701E-06 8.27181E-25
 -1       962 7.20927E-05 6.03103E-06-1.65436E-24
 -1       963 7.20067E-05 6.74376E-06-8.27181E-25
 -1       964 7.19208E-05 7.46910E-06-3.30872E-24
 -1       965 7.18349E-05 8.20092E-06-1.65436E-24
 -1       966 7.17490E-05 8.93313E-06-3.30872E-24
 -1       967 7.16631E-05 9.65961E-06 0.00000E+00
 -1       968 7.15772E-05 1.03743E-05 3.30872E-24
 -1       969 7.14916E-05 1.10710E-05 0.00000E+00
 -1       970 7.14061E-05 1.17437E-05 0.00000E+00
 -1       971 7.12417E-05 1.30474E-05 0.00000E+00
 -1       972 7.11604E-05 1.37804E-05-8.27181E-25
 -1       973 7.10789E-05 1.45776E-05-1.65436E-24
 -1       974 7.09972E-05 1.54306E-05 1.65436E-24
 -1       975 7.09155E-05 1.63313E-05-1.65436E-24
 -1       976 7.08337E-05 1.72712E-05 0.00000E+00
 -1       977 7.07519E-05 1.82422E-05 3.30872E-24
 -1       978 7.06700E-05 1.92358E-05-1.65436E-24
 -1       979 7.05881E-05 2.02437E-05 0.00000E+00
 -1       980 7.05063E-05 2.12577E-05 1.65436E-24
 -1       981 7.04245E-05 2.22694E-05 0.00000E+00
 -1       982 7.03427E-05 2.32704E-05 0.00000E+00
 -1       983 7.02611E-05 2.42526E-05 3.30872E-24
 -1       984 7.01798E-05 2.52074E-05 0.00000E+00
 -1       985 7.00989E-05 2.61267E-05-1.65436E-24
 -3
    1PSTEP                         8           4           1          
  100CL  104 4.68750E-01         409                     0    4           1
 -4  STRESS      6    1
 -5  SXX         1    4    1    1
 -5  SYY         1    4    2    2
 -5  SZZ         1    4    3    3
 -5  SXY         1    4    1    2
 -5  SYZ         1    4    2    3
 -5  SZX         1    4    3    1
 -1         1-1.66160E+06-7.53931E+05-3.41643E+05-1.05167E+06 2.47383E-10 1.67347E-09
 -1         2 2.65589E+03 2.42540E+05 8.70435E+03 7.07402E+02-1.21901E-10 9.45062E-09
 -1         3-9.53492E+01-7.10653E+05 1.67119E+02-2.68733E+02-1.18217E-10-4.71118E-09
 -1         5-5.98386E+00 2.44234E+05 6.39769E+00 1.11242E-01 6.65729E-11 4.97857E-09
 -1         8-7.83875E+05-3.32640E+05-3.38838E+04-5.65460E+05 3.01952E-10 9.98261E-09
 -1         9-1.37319E+06-3.62737E+05-1.40217E+05-4.61433E+05 3.65253E-09-2.82889E-09
 -1        10-5.82986E+02-7.40346E+05-9.67928E+02-1.81336E+03-3.67572E-09-1.23633E-08
 -1        12-3.36239E+00 2.44247E+05 2.07469E+02 1.00837E+00 1.60053E-10 1.55273E-09
 -1        15 1.98038E+03 1.08834E+03 6.40156E+03 4.14956E+00 5.11022E-11 6.44404E-09
 -1        16-3.51395E+06-1.21479E+06-5.54839E+05-1.24697E+06 1.12680E-08-9.11920E-10
 -1        17-8.43652E+05-5.13223E+05-1.62212E+05-4.74687E+05-4.89235E-09-1.74332E-09
 -1        18 8.39492E+03-2.28554E+03-1.65765E+04-5.80846E+04 8.14680E-10 3.96039E-09
 -1        19 7.65376E+04 9.11867E+04-4.38405E+02 1.49591E+04-6.71571E-10 1.71167E-09
 -1        20-3.21477E+04-3.61620E+05-7.97816E+04 2.65188E+04 3.74090E-09 2.63511E-09
 -1        21-3.40908E+01-2.09299E+05-6.75759E+02-7.37832E+01-5.87940E-09-8.69496E-09
 -1        24-3.25658E+06-1.01682E+06-4.49360E+05-1.25202E+06-2.10590E-08-1.09382E-08
 -1        25 2.57767E+04-2.32150E+04 1.26244E+04-1.06181E+05 8.06449E-10 8.88085E-09
 -1        26-1.79590E+04 6.22087E+04-1.23868E+04-8.80886E+03 1.45337E-09 2.19648E-09
 -1        27-5.77699E+04-1.98358E+05-7.44023E+04 4.47034E+04 5.46364E-09 7.35175E-10
 -1        28 1.62017E+04-5.78376E+04 1.18245E+04 1.84854E+04 1.26013E-09-6.32511E-09
 -1        32-7.77939E+05-1.56747E+05 3.25134E+05-5.26966E+05-1.65164E-08 1.37806E-08
 -1        33-1.13498E+05 5.82850E+04 2.06667E+04-3.37258E+04 1.10299E-09 4.03861E-09
 -1        34-1.47242E+05-1.46646E+04 3.46026E+02 4.53094E+04 3.93866E-09 9.03886E-10
 -1        35-1.64758E+04-2.29861E+04-9.00872E+02 3.64590E+04 3.52095E-09-4.80698E-09
 -1        51 1.40384E+04-3.67019E+05 3.63441E+04-9.31682E+05 4.36557E-11 8.71660E-09
 -1        52 8.82486E+03-3.65994E+05 2.43150E+04-1.08665E+06 4.94765E-10 6.98492E-09
 -1        53 6.64793E+03-3.78343E+05 2.10109E+04-9.28443E+05 5.31145E-10 2.65281E-08
 -1        54 1.90816E+04-3.77024E+05 3.40802E+04-1.09002E+06 4.51109E-10 7.37055E-09
 -1        55 3.79278E+04-3.90020E+05 6.10708E+04-9.27924E+05 5.82077E-10 1.66619E-08
 -1        56-3.18876E+06-3.59039E+05-2.51043E+05-1.22914E+06-2.87400E-10-5.23869E-09
 -1        57-3.28768E+06-5.88097E+05-1.69221E+05-1.22159E+06 2.43108E-09-7.15227E-09
 -1        58-3.23987E+06-4.37865E+05-5.90654E+04-1.21254E+06-3.27327E-09-6.75209E-09
 -1        59-3.22847E+06-4.95685E+05-3.52578E+04-1.24152E+06 6.82576E-10 3.22279E-09
 -1        60-3.24744E+06-4.48743E+05-1.37909E+04-1.21016E+06 1.51522E-09 3.24007E-09
 -1        61-3.22105E+06-4.81542E+05-7.83379E+03-1.24263E+06 3.29510E-09-4.21886E-09
 -1        62-3.24715E+06-4.51681E+05-3.78082E+03-1.21151E+06 3.62434E-09-3.64537E-10
 -1        63-3.22405E+06-4.75650E+05-3.07085E+03-1.23784E+06-5.01245E-10 1.53159E-09
 -1        64-3.24430E+06-4.54671E+05-3.56744E+03-1.21488E+06-1.10731E-10-1.55405E-08
 -1        65-3.23168E+06-4.70144E+05-7.04900E+03-1.22958E+06-1.27420E-09-1.70166E-08
 -1        66-3.23942E+06-4.57299E+05-1.24920E+04-1.21967E+06-4.80213E-10-3.24781E-09
 -1        67-3.24736E+06-4.73696E+05-3.16106E+04-1.21807E+06-9.60654E-10-1.37047E-08
 -1        68-3.22868E+06-4.51458E+05-5.31278E+04-1.22627E+06 8.79936E-10-3.92902E-09
 -1        69-3.30675E+06-5.50733E+05-1.51961E+05-1.19359E+06 3.91537E-10 2.31375E-09
 -1        70-3.18066E+06-3.82606E+05-2.25532E+05-1.24339E+06-5.27507E-10 9.31323E-10
 -1        86-1.33450E+03 2.39690E+05 9.29145E+03-3.53728E+02 1.12686E-09 9.87427E-10
 -1        87 8.84715E+03 2.45585E+05 1.94335E+04 1.46050E+03 1.88902E-09 6.48834E-09
 -1        88-7.50933E+03 2.36649E+05 2.96995E+04-1.10685E+03 2.87037E-09-1.63055E-09
 -1        89 5.59535E+04 2.67614E+05 8.01732E+04 3.18637E+03 4.36285E-09-5.17127E-09
 -1        90-4.82908E+04 2.17686E+05 1.13182E+05-2.07908E+03 4.96948E-09 4.59966E-09
 -1       121-1.47821E+02-7.11069E+05 1.27233E+02 1.34185E+02 3.83373E-10-6.36646E-11
 -1       122-3.99162E+01-7.10620E+05 3.60922E+02-5.37315E+02-1.41341E-09-9.97716E-10
 -1       123-1.85640E+02-7.11108E+05 5.51326E+02 4.02053E+02 1.13891E-09-1.01463E-08
 -1       124 6.25754E+02-7.10223E+05 1.50349E+03-1.20318E+03-2.80477E-09 6.15910E-09
 -1       125-6.13090E+02-7.11484E+05 2.27300E+03 7.99580E+02 1.80125E-09-7.02312E-09
 -1       191-6.49361E+00 2.44254E+05 7.57841E+00-5.63374E-02 1.46188E-10 2.37560E-09
 -1       192-6.57237E+00 2.44234E+05 1.35493E+01 6.70085E-01 2.25306E-10 1.02227E-09
 -1       193-8.05805E+00 2.44254E+05 2.51314E+01-6.18568E-01 2.49534E-10 1.06138E-09
 -1       194-8.46610E+00 2.44236E+05 5.12585E+01 1.65105E+00 1.50376E-10-2.86923E-09
 -1       195-1.10645E+01 2.44252E+05 1.00197E+02-1.04501E+00 3.77462E-10-4.01542E-10
 -1       251 1.22558E+05-4.13810E+04 9.64550E+04 3.93002E+03-4.45766E-10 5.69707E-09
 -1       252 1.67480E+05 4.78473E+04 6.86002E+04-1.37604E+04-1.00977E-09 2.99042E-09
 -1       253 1.39376E+05-6.40823E+03 2.49449E+04 2.97356E+03 1.65073E-10 1.63709E-09
 -1       254 1.47544E+05 7.39410E+03 1.58473E+04-1.22672E+04 2.02590E-10-1.16415E-09
 -1       255 1.42379E+05-9.89959E+02 6.44668E+03 2.43696E+03 4.53610E-10 2.28670E-09
 -1       256 1.43895E+05 1.17985E+03 3.95006E+03-1.14714E+04 8.85436E-10 1.12432E-08
 -1       257 1.42969E+05-1.73818E+02 2.04104E+03 2.17767E+03 4.03105E-10 4.76587E-09
 -1       258 1.43289E+05 3.84392E+02 1.83885E+03-1.12058E+04-2.27280E-10 8.18404E-09
 -1       259 1.42967E+05-1.84143E+02 2.13900E+03 2.17146E+03-5.44361E-10-7.79494E-10
 -1       260 1.43927E+05 1.27079E+03 4.22702E+03-1.14474E+04-3.40322E-10-2.09275E-08
 -1       261 1.42348E+05-1.06917E+03 6.95542E+03 2.41917E+03 9.66907E-10-6.23277E-09
 -1       262 1.47803E+05 7.99278E+03 1.70989E+04-1.22170E+04-2.90470E-10 5.99039E-09
 -1       263 1.39144E+05-6.92329E+03 2.69682E+04 2.94114E+03-4.41673E-10 8.53288E-09
 -1       264 1.69221E+05 5.17047E+04 7.40898E+04-1.36867E+04-2.65734E-09 1.42463E-08
 -1       265 1.21045E+05-4.47050E+04 1.04273E+05 3.88865E+03-1.20974E-09 6.08998E-09
 -1       266-3.58503E+04-1.67610E+04 8.41274E+04-8.87990E+01 1.81899E-11 1.30354E-08
 -1       267 4.15616E+04 1.95393E+04 5.94537E+04 1.02442E+02 8.64020E-11 2.04300E-09
 -1       268-5.57328E+03-2.76709E+03 2.20990E+04-1.30537E+01-4.54747E-12-2.25391E-10
 -1       269 6.58047E+03 3.31186E+03 1.43637E+04 1.52048E+01 3.56977E-11 9.62581E-09
 -1       270-9.87735E+02-5.44155E+02 6.93356E+03-2.06343E+00 1.81899E-12 1.09979E-08
 -1       271-3.50857E+06-4.38986E+05-2.70029E+05-1.36839E+06-3.85626E-10-1.92085E-09
 -1       272-3.59038E+06-6.50611E+05-1.73556E+05-1.38257E+06-1.78716E-09-9.55879E-09
 -1       273-3.56108E+06-5.04503E+05-6.37935E+04-1.35442E+06-3.77440E-11 4.52565E-09
 -1       274-3.52849E+06-5.70874E+05-3.56569E+04-1.40453E+06 3.03771E-10-6.36919E-09
 -1       275-3.56993E+06-5.09553E+05-1.48425E+04-1.35027E+06-1.65164E-09 9.46784E-10
 -1       276-3.51785E+06-5.65243E+05-7.86188E+03-1.41137E+06 6.32099E-11-6.79825E-09
 -1       277-3.57229E+06-5.08780E+05-3.84860E+03-1.34842E+06 1.28784E-09-2.59411E-09
 -1       278-3.51555E+06-5.65918E+05-2.78669E+03-1.41372E+06 4.12740E-10 3.19380E-09
 -1       279-3.57254E+06-5.08591E+05-2.98304E+03-1.34818E+06-6.84395E-11-2.29511E-09
 -1       280-3.51684E+06-5.65613E+05-5.46388E+03-1.41243E+06 1.44337E-09 4.71300E-09
 -1       281-3.57083E+06-5.09250E+05-1.00152E+04-1.34956E+06 3.24644E-09 3.78895E-09
 -1       282-3.52453E+06-5.68678E+05-2.38860E+04-1.40694E+06-6.96218E-10 3.79123E-09
 -1       283-3.56432E+06-5.06526E+05-4.27129E+04-1.35300E+06 9.36325E-10-1.20781E-08
 -1       284-3.56727E+06-6.20415E+05-1.16053E+05-1.39024E+06 3.61979E-10-2.04454E-09
 -1       285-3.52818E+06-4.63841E+05-1.80732E+05-1.36350E+06 1.30240E-09-5.74801E-10
 -1       301 1.44058E+04-1.82009E+04 1.09986E+05-4.64525E+04-6.80302E-10-3.86876E-09
 -1       302 1.55158E+04 9.60912E+03 7.87166E+04-6.84002E+04 1.42836E-09 6.40284E-09
 -1       303 8.77215E+02-8.19564E+03 7.13820E+04-4.65554E+04-8.16726E-10 7.11771E-09
 -1       304 2.78366E+04 2.10990E+04 1.18909E+05-6.81653E+04 1.29694E-09-7.92215E-09
 -1       305 2.74318E+04-2.94208E+04 1.98947E+05-4.66135E+04-1.00408E-09-8.37645E-10
 -1       306-3.91286E+06-4.56519E+05-2.97049E+05-1.53387E+06 1.78261E-09-1.27184E-08
 -1       307-4.07174E+06-7.00515E+05-2.02350E+05-1.47406E+06 3.36877E-09-1.41590E-08
 -1       308-3.98625E+06-5.43080E+05-6.99698E+04-1.49937E+06 6.39375E-10-6.54836E-11
 -1       309-3.97769E+06-6.09205E+05-4.21612E+04-1.52549E+06 1.13918E-09 1.11158E-08
 -1       310-4.00653E+06-5.45957E+05-1.64230E+04-1.48310E+06-9.45249E-10-5.00222E-11
 -1       311-3.95172E+06-6.08785E+05-9.46207E+03-1.54834E+06 6.74021E-09-9.81754E-09
 -1       312-4.01251E+06-5.42966E+05-4.62247E+03-1.47687E+06 1.32577E-09-4.44049E-09
 -1       313-3.94916E+06-6.08020E+05-4.14503E+03-1.55030E+06-2.47564E-09 4.24302E-09
 -1       314-4.00912E+06-5.46664E+05-5.10789E+03-1.48118E+06-3.09728E-09-9.45647E-09
 -1       315-3.96414E+06-5.95964E+05-1.04663E+04-1.53258E+06-2.91152E-10 7.91806E-09
 -1       316-3.99716E+06-5.55326E+05-1.87370E+04-1.49429E+06 2.74531E-09 3.99541E-09
 -1       317-4.00023E+06-5.90517E+05-4.78164E+04-1.50020E+06-1.93324E-10-2.58296E-09
 -1       318-3.97289E+06-5.52583E+05-7.94310E+04-1.51329E+06-6.86305E-09 1.19981E-08
 -1       319-4.10506E+06-6.97735E+05-2.30059E+05-1.44656E+06-1.56706E-09 2.29920E-09
 -1       320-3.89321E+06-4.49909E+05-3.37211E+05-1.54752E+06 8.52015E-09 9.16771E-10
 -1       336 4.82384E+02-7.69773E+05-4.18170E+03 1.01104E+03-7.14476E-09-1.17889E-08
 -1       337-1.52983E+03-7.70747E+05-4.58478E+03-2.57146E+03-1.32588E-08-1.09321E-08
 -1       338 3.12856E+02-7.69885E+05-5.87096E+03 1.55417E+03-9.33187E-09 2.34650E-09
 -1       339-6.07129E+03-7.73580E+05-1.28261E+04-3.64218E+03-1.73957E-08 1.20408E-08
 -1       340 4.06799E+03-7.67022E+05-1.98200E+04 2.07408E+03-1.12441E-08 1.18198E-08
 -1       406 1.24167E+01 2.44243E+05 4.09526E+02 1.81192E-02 5.33646E-10 3.28464E-09
 -1       407 1.39458E+02 2.44319E+05 8.70543E+02-8.17247E+00 1.06269E-10 2.57933E-09
 -1       408 4.44707E+02 2.44180E+05 1.73856E+03 8.30812E+00 5.66843E-10 5.19140E-09
 -1       409 1.87683E+03 2.44874E+05 3.91418E+03-7.97999E+01 5.66160E-11-3.12230E-09
 -1       410 5.39847E+03 2.43686E+05 7.99059E+03 7.44442E+01 5.90262E-10 2.82444E-09
 -1       521-7.39204E+06-7.72999E+05-5.71263E+05-2.71822E+06-1.96451E-10 1.51340E-09
 -1       522-7.05751E+06-1.60234E+06-3.47873E+05-3.10499E+06-2.57269E-08-3.99086E-09
 -1       523-7.60760E+06-7.63739E+05-1.32233E+05-2.46744E+06-3.44789E-09-2.38579E-08
 -1       524-6.85931E+06-1.57637E+06-7.20185E+04-3.42376E+06 4.04424E-08-3.56449E-08
 -1       525-7.63332E+06-7.62881E+05-2.95804E+04-2.43159E+06 2.77305E-08-1.62117E-08
 -1       526-6.87801E+06-1.44173E+06-2.33058E+03-3.26294E+06 2.02472E-08-1.29739E-08
 -1       527-7.55998E+06-9.18428E+05-2.93857E+04-2.60869E+06 1.78552E-08-1.56615E-09
 -1       528-7.11177E+06-1.09122E+06 2.40119E+04-2.79154E+06-1.63054E-08 1.01645E-08
 -1       529-7.35447E+06-1.14534E+06-3.53047E+04-2.86888E+06 3.49974E-09 1.64073E-09
 -1       530-7.58719E+06-6.82597E+05 5.18448E+03-2.36242E+06-1.00717E-08 1.30558E-08
 -1       531-7.11068E+06-1.30819E+06-3.55696E+04-3.05510E+06-4.23206E-08-4.20368E-09
 -1       532-7.95066E+06-4.81357E+05-7.06885E+04-2.17263E+06 3.32948E-08-3.66499E-08
 -1       533-7.03685E+06-1.31511E+06-1.25164E+05-3.09504E+06 1.17288E-08-5.93864E-08
 -1       534-7.92274E+06-7.82369E+05-3.50905E+05-2.20718E+06-1.55451E-08 4.00141E-08
 -1       535-7.11909E+06-1.02587E+06-5.58238E+05-3.00221E+06-1.10304E-08 2.97150E-08
 -1       536-9.54524E+04-1.80478E+04 4.15304E+04-5.29464E+02-8.33495E-10 2.51202E-09
 -1       537-7.57220E+04 2.08898E+04 2.96815E+04-2.25922E+02-9.16660E-09 3.03316E-10
 -1       538-8.85133E+04-2.83990E+03 1.06575E+04-1.61864E+02 1.12266E-11 7.42330E-09
 -1       539-8.39318E+04 3.27735E+03 6.95479E+03-1.00019E+03 3.93788E-09 4.42230E-09
 -1       540-8.72489E+04-4.48666E+02 2.63891E+03 2.44807E+02 1.49186E-10 5.83123E-09
 -1       541-8.55996E+04 5.07590E+02 1.69219E+03-1.74586E+03-1.85683E-09 8.37488E-09
 -1       542-8.68543E+04-6.62937E+01 5.79059E+02 5.83757E+02-1.02865E-09 1.66742E-09
 -1       543-8.62303E+04 4.77284E+01 2.97534E+02-2.30545E+03-9.21261E-10 2.11976E-10
 -1       544-8.66282E+04 1.81289E+01-9.63572E+01 8.04402E+02-6.66304E-10 9.90866E-10
 -1       545-8.66091E+04-1.80915E+02-4.92184E+02-2.59905E+03-3.93689E-10-6.29049E-09
 -1       546-8.64819E+04 1.66996E+02-9.77294E+02 8.77369E+02 3.42284E-10-1.62652E-09
 -1       547-8.71041E+04-1.21375E+03-2.48599E+03-2.58764E+03-3.30412E-09-4.16776E-10
 -1       548-8.61330E+04 1.05002E+03-4.01856E+03 7.92990E+02-3.21212E-09-4.95493E-09
 -1       549-8.98461E+04-7.73568E+03-1.08985E+04-2.26778E+03-2.28108E-09 3.69448E-09
 -1       550-8.37332E+04 6.67875E+03-1.55688E+04 5.57495E+02-1.00883E-10 2.21189E-09
 -1       551 9.07591E+03-3.99716E+05 2.12123E+04-6.73129E+05-3.12575E-08 4.38740E-09
 -1       552 1.95446E+04-4.02788E+05 2.79949E+04-9.58242E+05-2.37706E-08 1.72731E-08
 -1       553 1.32728E+04-4.07817E+05 4.32713E+04-6.70836E+05-4.00469E-08 6.19548E-09
 -1       554 4.17467E+04-3.91196E+05 9.18055E+04-9.59206E+05-2.42944E-08 2.07729E-09
 -1       555 3.98706E+04-4.25338E+05 1.64647E+05-6.71596E+05-3.73620E-08-4.83487E-09
 -1       556 6.08703E+04-1.30498E+05 4.38001E+04-1.69642E+05-9.88075E-09-2.08092E-09
 -1       557 1.15347E+05-1.75060E+05 2.31403E+04-2.14556E+05-8.88394E-09 6.33872E-09
 -1       558 6.06891E+04-1.35753E+05 9.28997E+03-1.64832E+05-1.38098E-08 2.94676E-09
 -1       559 1.08012E+05-1.81050E+05 4.73995E+03-2.17852E+05-7.00675E-09 1.29712E-08
 -1       560 5.90426E+04-1.34635E+05 1.92819E+03-1.65886E+05-6.86850E-09 1.24937E-08
 -1       561 1.05450E+05-1.80379E+05 1.03962E+03-2.19471E+05-1.21181E-08 4.59113E-09
 -1       562 5.77206E+04-1.33746E+05 3.81989E+02-1.66840E+05-8.40373E-09 1.21283E-08
 -1       563 1.03885E+05-1.79708E+05 2.51455E+02-2.20471E+05-1.44864E-08-9.18192E-09
 -1       564 5.68986E+04-1.33212E+05 8.66296E+01-1.67426E+05-4.23097E-09 1.98406E-09
 -1       565 1.03072E+05-1.79362E+05 5.89477E+01-2.20982E+05-5.31873E-09-2.01362E-09
 -1       566 5.66053E+04-1.33016E+05-1.94178E+01-1.67637E+05 7.99355E-09 6.85031E-09
 -1       567 1.02972E+05-1.79313E+05-1.10076E+02-2.20982E+05 3.72893E-10-3.84171E-09
 -1       568 5.68739E+04-1.33193E+05-3.28218E+02-1.67509E+05 3.58341E-09 2.71029E-09
 -1       569 1.02932E+05-1.79225E+05-7.65174E+02-2.19905E+05 6.05178E-09 8.98581E-09
 -1       570 5.82394E+04-1.34413E+05-1.64140E+03-1.67451E+05 1.37152E-09 1.82627E-09
 -1       571 1.77238E+05 6.44437E+03 9.54854E+03-4.49246E+04 9.88030E-09 8.21956E-10
 -1       572 1.78658E+05 2.24227E+03 4.67819E+03-4.92457E+04 1.90653E-08-1.10613E-08
 -1       573 1.77807E+05 5.35523E+02 2.07823E+03-4.48076E+04 1.07248E-08-3.01361E-09
 -1       574 1.77975E+05 1.75777E+02 1.04124E+03-4.93764E+04 1.31695E-09-3.17914E-09
 -1       575 1.77870E+05 2.59494E+01 4.90724E+02-4.47921E+04 9.70203E-10 7.20502E-09
 -1       576 1.77881E+05 9.16925E+00 2.49787E+02-4.93939E+04 6.92125E-10 7.25504E-09
 -1       577 1.77879E+05-1.29306E+00 1.23019E+02-4.47901E+04 1.21645E-09 5.70572E-09
 -1       578 1.77872E+05 6.92648E-01 6.70512E+01-4.93960E+04-4.00178E-11 1.52841E-09
 -1       579 1.77890E+05-3.28416E+00 4.09251E+01-4.47900E+04 5.95719E-11-2.46473E-09
 -1       580 1.77887E+05-4.99502E+00 3.81172E+01-4.93934E+04 3.23780E-10 7.01857E-09
 -1       581 1.77909E+05-1.02621E+01 5.14899E+01-4.47927E+04-6.54836E-10 1.12323E-10
 -1       582 1.77921E+05-3.32836E+00 9.80808E+01-4.93667E+04 1.10504E-10-3.56522E-09
 -1       583 1.77932E+05 1.97342E+01 1.87872E+02-4.48167E+04 6.74845E-10-2.78260E-09
 -1       584 1.78019E+05 1.65431E+02 4.21362E+02-4.91663E+04-1.38607E-09-1.02508E-08
 -1       585 1.77914E+05 5.36194E+02 8.55359E+02-4.49934E+04 1.06411E-10-4.73483E-09
 -1       586-2.13074E+03 5.81911E+04-2.82669E+03-1.53050E+05 3.98359E-10-1.65367E-08
 -1       587-4.44554E+02 5.78107E+04-3.01734E+02-1.68420E+05 6.73026E-10-2.55350E-08
 -1       588 6.15766E+02 5.78841E+04 2.04338E+03-1.52958E+05 3.61979E-10-5.87670E-09
 -1       589 3.03180E+03 5.90056E+04 5.93240E+03-1.68279E+05 5.60249E-10-3.88354E-09
 -1       590 8.69092E+03 5.71762E+04 1.26949E+04-1.53193E+05 3.12866E-10-2.29102E-09
 -1       591-3.88454E+04-1.10738E+04-1.28680E+04-2.00874E+04-2.88651E-10-1.58343E-09
 -1       592-4.00635E+04-1.42210E+04-6.96983E+03-2.34285E+04-1.60298E-10 4.23643E-09
 -1       593-4.01465E+04-1.01257E+04-2.90161E+03-2.10169E+04-1.70394E-09 3.53634E-09
 -1       594-3.82706E+04-1.23505E+04-1.44716E+03-2.35177E+04-1.60526E-09 2.26716E-09
 -1       595-4.02462E+04-1.01214E+04-6.65058E+02-2.10596E+04-1.23805E-10 9.84060E-09
 -1       596-3.81492E+04-1.22648E+04-3.39000E+02-2.35051E+04 1.46457E-09 2.08692E-09
 -1       597-4.02589E+04-1.01296E+04-1.86596E+02-2.10613E+04-8.21835E-10-1.90050E-09
 -1       598-3.81377E+04-1.22615E+04-1.53669E+02-2.35015E+04-9.07704E-10-7.40272E-10
 -1       599-4.02579E+04-1.01296E+04-2.00874E+02-2.10610E+04-1.09242E-09 7.86372E-10
 -1       600-3.81506E+04-1.22659E+04-3.76837E+02-2.35047E+04-5.58657E-10 1.15983E-09
 -1       601-4.02420E+04-1.01208E+04-7.45336E+02-2.10584E+04 3.29351E-10-3.50144E-09
 -1       602-3.82867E+04-1.23620E+04-1.62541E+03-2.35171E+04 8.03539E-10 2.23281E-10
 -1       603-4.01287E+04-1.01273E+04-3.26017E+03-2.10107E+04-6.98719E-10 3.32011E-09
 -1       604-4.03076E+04-1.44564E+04-7.83140E+03-2.34073E+04-1.04706E-10-5.31827E-10
 -1       605-3.86582E+04-1.11988E+04-1.44584E+04-1.99733E+04 1.48066E-09 5.78848E-09
 -1       606 2.51974E+04-8.53791E+03-1.53737E+04 2.45938E+04-3.50155E-09-3.73620E-09
 -1       607 2.25643E+04-2.75437E+03-7.65517E+03 2.76079E+04-4.10182E-10-2.65015E-09
 -1       608 2.40579E+04-4.64546E+02-3.42818E+03 2.43977E+04 1.46010E-08-4.65911E-09
 -1       609 2.37601E+04-1.20315E+02-1.73147E+03 2.78243E+04 2.00716E-08-5.55247E-10
 -1       610 2.39194E+04 2.26937E+01-8.27128E+02 2.43757E+04 4.07454E-09 2.68142E-09
 -1       611 2.38626E+04 3.44881E+01-4.17177E+02 2.78480E+04-1.05847E-08 1.90653E-09
 -1       612 2.38820E+04 3.66522E+01-1.99677E+02 2.43736E+04-4.54747E-09 5.08135E-09
 -1       613 2.38600E+04 4.22867E+01-9.10334E+01 2.78508E+04-3.01725E-09 6.27847E-09
 -1       614 2.38615E+04 3.75653E+01-2.54994E+01 2.43728E+04-7.22684E-09-1.10140E-09
 -1       615 2.38492E+04 4.73592E+01 2.82580E+01 2.78512E+04-1.46570E-08 1.62345E-09
 -1       616 2.38459E+04 4.28419E+01 9.38321E+01 2.43731E+04-1.25187E-08 3.66185E-09
 -1       617 2.38546E+04 7.10815E+01 2.17733E+02 2.78507E+04 1.36902E-09 3.04226E-09
 -1       618 2.38225E+04 1.08469E+02 4.40158E+02 2.43732E+04-1.00954E-09-3.75485E-09
 -1       619 2.40065E+04 4.13817E+02 9.89319E+02 2.78501E+04-2.31057E-09-2.84103E-09
 -1       620 2.36740E+04 1.15465E+03 1.98871E+03 2.43722E+04 6.79506E-10 1.32491E-09
 -1       621 3.04023E+02 1.92607E+05 2.64429E+03 6.56539E+03-2.26663E-10 7.41534E-09
 -1       622 3.48059E+02 1.93263E+05 2.25086E+03 9.58779E+03-3.37536E-10 5.42877E-09
 -1       623 1.41272E+01 1.92795E+05 2.59697E+03 6.53462E+03-2.96495E-10 4.30327E-09
 -1       624 1.17646E+03 1.94022E+05 4.93885E+03 9.61785E+03-1.89004E-11 7.38467E-09
 -1       625 1.18166E+03 1.91843E+05 8.58944E+03 6.53565E+03-9.68612E-11-3.25758E-09
 -1       626 1.59187E+05 4.40635E+04 3.17305E+03 8.60044E+04-1.64937E-09-2.05728E-09
 -1       627 1.57015E+05 4.56623E+04 1.52894E+03 8.94765E+04-8.18090E-10-3.86171E-09
 -1       628 1.59306E+05 4.25626E+04 6.45753E+02 8.64829E+04 4.36376E-09 6.09430E-09
 -1       629 1.56556E+05 4.53013E+04 3.16535E+02 8.96839E+04 3.80533E-09 2.60133E-09
 -1       630 1.59313E+05 4.24918E+04 1.46340E+02 8.64953E+04 9.52514E-09-6.58463E-09
 -1       631 1.56500E+05 4.52935E+04 7.87418E+01 8.96854E+04 1.65446E-08 3.25630E-09
 -1       632 1.59304E+05 4.24978E+04 5.19873E+01 8.64879E+04 4.10455E-09-6.11010E-09
 -1       633 1.56488E+05 4.52984E+04 5.81441E+01 8.96789E+04-3.59091E-09-4.79213E-09
 -1       634 1.59295E+05 4.24987E+04 9.41474E+01 8.64836E+04 5.78029E-09-7.00311E-11
 -1       635 1.56491E+05 4.53000E+04 1.90952E+02 8.96782E+04 2.13231E-09-6.70912E-09
 -1       636 1.59284E+05 4.24981E+04 3.85685E+02 8.64807E+04-1.56967E-09-3.63343E-10
 -1       637 1.56570E+05 4.53615E+04 8.47680E+02 8.96742E+04-2.19531E-09-7.01652E-09
 -1       638 1.59251E+05 4.26872E+04 1.74215E+03 8.63934E+04 1.03330E-09 5.41058E-09
 -1       639 1.57481E+05 4.66359E+04 4.12140E+03 8.94033E+04-3.16788E-09-1.35378E-09
 -1       640 1.59129E+05 4.64809E+04 8.55297E+03 8.47823E+04-2.62844E-09 7.56540E-09
 -1       656 4.31244E+04-1.09148E+06-1.04105E+05-3.61979E+02 6.58474E-10 1.73117E-10
 -1       657-5.69845E+04-1.13847E+06-8.60950E+04 7.04680E+03-1.13869E-09 1.23611E-08
 -1       658 1.36740E+04-1.10489E+06-5.28328E+04-1.36476E+03-6.43922E-10 2.19561E-09
 -1       659-6.10992E+04-1.14042E+06-9.14995E+04 7.71532E+03 9.56788E-10-2.55377E-09
 -1       660 4.72291E+04-1.08954E+06-1.13402E+05-1.03048E+03-3.92902E-10 2.22566E-09
 -1       661 1.54157E+05 1.67830E+04 1.47960E+04 6.02478E+04 7.33962E-10-3.51247E-09
 -1       662 1.61870E+05 2.83811E+04 9.97004E+03 5.76677E+04-1.97758E-10-4.48824E-09
 -1       663 1.57057E+05 2.15352E+04 3.48760E+03 5.94114E+04 1.38198E-09-3.23598E-09
 -1       664 1.58515E+05 2.28179E+04 2.08513E+03 5.86842E+04 2.10366E-09-1.08354E-08
 -1       665 1.57490E+05 2.21900E+04 8.22519E+02 5.92903E+04-3.25218E-09-5.27837E-09
 -1       666 1.58007E+05 2.20644E+04 4.79649E+02 5.88388E+04-6.56613E-09-2.40524E-10
 -1       667 1.57562E+05 2.22689E+04 2.52881E+02 5.92641E+04-3.75451E-10 2.21799E-10
 -1       668 1.57930E+05 2.20014E+04 2.53306E+02 5.88762E+04 5.59101E-09-4.02092E-09
 -1       669 1.57566E+05 2.22511E+04 3.39388E+02 5.92536E+04 1.48357E-09 4.19854E-09
 -1       670 1.58017E+05 2.21798E+04 7.35670E+02 5.88743E+04 3.80542E-09 1.91719E-10
 -1       671 1.57476E+05 2.20941E+04 1.30514E+03 5.92645E+04-5.69120E-10-1.42165E-10
 -1       672 1.58779E+05 2.34478E+04 3.33829E+03 5.86888E+04-1.64318E-09 7.02738E-09
 -1       673 1.56808E+05 2.10151E+04 5.59412E+03 5.94270E+04-2.40698E-09-5.72300E-10
 -1       674 1.64107E+05 3.24323E+04 1.59981E+04 5.71212E+04-4.32010E-12-1.29694E-09
 -1       675 1.52183E+05 1.33608E+04 2.37460E+04 6.07374E+04 3.29237E-10-3.47154E-09
 -1       676 1.75442E+01-2.09243E+05-8.14463E+02 3.68925E+01-6.84253E-10-4.67480E-09
 -1       677-2.16162E+02-2.09440E+05-1.49055E+03-7.37525E+01-6.57337E-09-1.22045E-08
 -1       678 1.44381E+02-2.09103E+05-2.63489E+03 3.68345E+01-3.34808E-10-4.24548E-10
 -1       679-2.63538E+03-2.11030E+05-6.25914E+03-7.35244E+01-2.29693E-09 6.77712E-09
 -1       680 1.57282E+03-2.07653E+05-1.00877E+04 3.62422E+01-3.34512E-09 1.74907E-10
 -1       771-2.24533E+06-3.99159E+05-5.56671E+04-9.38073E+05-4.27826E-09-1.01572E-08
 -1       772-2.22946E+06-4.30040E+05-2.97711E+04-9.72598E+05 3.77258E-09 6.20639E-09
 -1       773-2.25328E+06-3.92961E+05-1.30342E+04-9.41165E+05 1.18598E-09 5.55156E-09
 -1       774-2.22162E+06-4.23677E+05-6.29453E+03-9.76588E+05 7.98900E-09-7.25777E-10
 -1       775-2.25539E+06-3.91554E+05-3.31963E+03-9.41439E+05 1.51340E-09 5.82804E-09
 -1       776-2.22165E+06-4.23760E+05-1.49303E+03-9.78888E+05-9.13133E-10 1.66619E-09
 -1       777-2.25692E+06-3.90432E+05-1.01682E+03-9.41610E+05 1.38243E-10 2.03363E-09
 -1       778-2.22214E+06-4.24015E+05-4.22411E+02-9.80811E+05 1.56433E-09 3.90173E-09
 -1       779-2.25815E+06-3.89478E+05-4.60352E+02-9.41765E+05 2.35013E-09 2.16642E-09
 -1       780-2.22264E+06-4.24221E+05-3.06078E+02-9.82368E+05-3.57250E-09 1.78261E-10
 -1       781-2.25909E+06-3.88717E+05-5.58623E+02-9.41883E+05-5.51154E-09-2.66209E-09
 -1       782-2.22310E+06-4.24413E+05-9.43134E+02-9.83513E+05-1.54978E-09-6.82121E-10
 -1       783-2.25967E+06-3.88214E+05-1.89459E+03-9.41946E+05 1.65164E-09-5.89694E-09
 -1       784-2.22447E+06-4.25697E+05-4.45542E+03-9.84160E+05-4.96220E-09-5.15911E-10
 -1       785-2.25918E+06-3.88551E+05-8.24586E+03-9.41390E+05-1.15497E-08-2.42198E-09
 -1       786 1.63304E+05-8.74895E+03 2.02408E+04-8.14946E+00 8.50586E-07 1.58134E-08
 -1       787 1.72075E+05 1.01286E+04 1.43200E+04 2.04457E+00 1.69335E-06 9.82618E-09
 -1       788 1.66688E+05-1.37150E+03 5.23885E+03-3.74236E+00 1.80615E-06-2.39402E-09
 -1       789 1.68133E+05 1.58691E+03 3.29161E+03-6.48388E+00 1.91541E-06 1.45646E-08
 -1       790 1.67247E+05-2.14250E+02 1.33936E+03 3.78836E-01 2.14977E-06-5.85806E-09
 -1       791 1.67481E+05 2.48927E+02 7.86378E+02-1.57123E+01 2.38559E-06 1.31017E-08
 -1       792 1.67340E+05-3.45270E+01 3.58901E+02 5.48623E+00 2.95466E-06-1.27375E-08
 -1       793 1.67376E+05 4.84873E+01 2.35180E+02-2.83411E+01 3.51772E-06 1.14054E-08
 -1       794 1.67352E+05-1.39425E+01 1.74206E+02 1.30079E+01 1.76015E-06-1.27241E-08
 -1       795 1.67386E+05 7.19323E+01 2.51982E+02-4.78690E+01 6.27510E-09 7.43262E-09
 -1       796 1.67330E+05-5.79550E+01 3.77439E+02 2.50145E+01 1.72962E-10 6.66530E-09
 -1       797 1.67558E+05 4.24865E+02 8.89958E+02-7.96786E+01-1.11111E-10 1.87462E-09
 -1       798 1.67181E+05-3.66616E+02 1.40473E+03 4.48180E+01-9.45715E-11 1.21844E-09
 -1       799 1.68612E+05 2.70698E+03 3.82960E+03-1.32837E+02-8.91973E-10 9.53196E-09
 -1       800 1.66275E+05-2.33824E+03 5.40948E+03 7.81737E+01-2.76795E-10 3.05636E-09
 -1       801-6.90711E+03-1.29427E+05-1.23646E+03 1.90766E+04 1.01718E-08-2.09252E-09
 -1       802 2.01987E+04-2.49498E+04 4.23979E+04-7.47829E+04 2.75299E-08-1.08446E-09
 -1       803-1.23686E+04-8.50415E+04 5.61362E+04 2.03246E+04 2.16751E-08 1.76725E-08
 -1       804 1.14876E+05 3.00157E+04 1.66919E+05-7.53566E+04 2.54549E-08 2.20835E-08
 -1       805-1.01709E+05-1.84020E+05 2.06524E+05 1.96461E+04 9.05129E-09 2.19713E-08
 -1       806-1.93037E+05-4.12237E+04-1.63558E+04-8.02419E+04-6.58497E-09-4.80486E-09
 -1       807-1.94013E+05-3.88689E+04-8.03527E+03-8.45640E+04-4.30560E-09 7.74725E-09
 -1       808-1.93500E+05-3.53158E+04-3.40855E+03-8.30171E+04-4.14843E-09 1.10116E-08
 -1       809-1.92298E+05-3.66369E+04-1.66635E+03-8.47942E+04-1.07411E-09 5.17946E-09
 -1       810-1.93572E+05-3.51076E+04-7.63017E+02-8.31395E+04 1.32513E-09 8.54618E-09
 -1       811-1.92167E+05-3.65486E+04-3.78420E+02-8.47743E+04-6.99833E-09-1.41313E-08
 -1       812-1.93585E+05-3.51232E+04-1.88894E+02-8.31392E+04 1.04046E-09 1.12050E-08
 -1       813-1.92150E+05-3.65509E+04-1.19192E+02-8.47637E+04 4.32010E-12-1.65210E-09
 -1       814-1.93582E+05-3.51292E+04-1.11864E+02-8.31365E+04-1.49021E-09-4.57248E-10
 -1       815-1.92152E+05-3.65529E+04-1.75095E+02-8.47605E+04-4.99995E-10 6.13204E-09
 -1       816-1.93571E+05-3.51281E+04-3.28123E+02-8.31341E+04 2.25691E-09 1.27832E-08
 -1       817-1.92207E+05-3.65844E+04-7.03385E+02-8.47540E+04 2.45382E-09 1.83786E-09
 -1       818-1.93528E+05-3.52271E+04-1.43355E+03-8.30872E+04-6.45923E-09-4.55566E-09
 -1       819-1.92998E+05-3.74448E+04-3.37378E+03-8.45619E+04-1.13359E-08-5.30326E-09
 -1       820-1.93255E+05-3.77780E+04-6.86631E+03-8.19995E+04-5.81167E-09 3.37616E-09
 -1       821-2.49570E+05 1.38420E+04-3.20121E+04 8.49745E+01-2.94129E-10-1.96633E-09
 -1       822-2.63443E+05-1.60245E+04-2.26532E+04-6.07833E+02-2.40500E-09 3.82693E-09
 -1       823-2.54925E+05 2.17007E+03-8.29123E+03 5.36235E+01 8.08436E-10-1.37652E-09
 -1       824-2.57200E+05-2.51178E+03-5.21682E+03-4.64113E+02-3.50674E-10 3.15231E-09
 -1       825-2.55812E+05 3.39609E+02-2.14429E+03-5.87499E+01-2.66373E-09 1.74646E-09
 -1       826-2.56167E+05-4.00541E+02-1.29428E+03-2.02391E+02-5.05988E-09-8.64659E-10
 -1       827-2.55957E+05 6.02370E+01-6.70137E+02-2.08102E+02-4.18563E-09-2.96056E-09
 -1       828-2.56028E+05-1.22178E+02-5.92132E+02 7.68597E+01-4.83497E-09-1.99284E-09
 -1       829-2.55951E+05 6.15018E+01-6.79830E+02-3.38006E+02-4.10001E-11 2.26245E-09
 -1       830-2.56185E+05-4.10512E+02-1.32727E+03 2.68150E+02 2.80777E-09 4.69626E-10
 -1       831-2.55799E+05 3.48545E+02-2.19796E+03-3.99396E+02-2.14327E-09 6.01267E-09
 -1       832-2.57242E+05-2.57767E+03-5.35596E+03 2.99807E+02-1.50112E-09 2.86661E-09
 -1       833-2.54896E+05 2.22713E+03-8.51095E+03-3.69663E+02-9.28477E-10 2.52385E-10
 -1       834-2.63636E+05-1.64485E+04-2.32531E+04 1.62141E+02 1.42492E-10-6.11226E-09
 -1       835-2.49407E+05 1.42085E+04-3.28636E+04-2.61720E+02 6.64288E-09-2.60115E-10
 -1       836-8.30783E+02 2.36151E+05 1.42278E+04-2.06362E+04 1.67211E-09-4.49199E-09
 -1       837 3.13593E+03 2.40554E+05 1.21420E+04-4.14424E+04 2.41471E-09-4.04953E-09
 -1       838-3.03102E+02 2.37376E+05 1.25132E+04-2.05666E+04 2.17869E-09 4.07522E-09
 -1       839 8.03334E+03 2.44205E+05 2.38110E+04-4.14672E+04 2.81716E-09-8.51443E-10
 -1       840-2.41165E+03 2.32467E+05 3.80269E+04-2.06099E+04 2.02454E-09-1.61504E-09
 -1       856-7.73476E+04 6.65411E+03-1.75352E+04-3.93650E+02-2.24503E-09-1.34605E-09
 -1       857-8.45914E+04-7.80414E+03-1.20727E+04 3.99949E+03-2.84355E-09-6.88851E-09
 -1       858-8.02094E+04 9.32344E+02-4.55091E+03-4.11293E+02-2.88520E-09 1.92472E-09
 -1       859-8.13047E+04-1.08383E+03-2.74864E+03 4.02765E+03-1.98639E-10-1.44058E-09
 -1       860-8.06373E+04 1.29646E+02-1.15575E+03-4.21940E+02-1.44816E-09-2.22104E-09
 -1       861-8.08118E+04-1.43027E+02-6.43838E+02 4.04221E+03-4.80576E-09 5.09203E-09
 -1       862-8.07039E+04 1.71671E+01-2.83746E+02-4.25876E+02 7.47792E-09 4.40126E-09
 -1       863-8.07330E+04-1.03207E+01-1.39931E+02 4.04396E+03 1.34229E-08 4.44265E-09
 -1       864-8.07162E+04-1.47887E-01-4.31588E+01-4.23696E+02 6.49149E-09 4.20314E-10
 -1       865-8.07098E+04 2.04947E+01 2.84253E+01 4.03299E+03 8.89838E-09-3.82909E-09
 -1       866-8.07259E+04-1.40343E+01 9.95858E+01-4.14908E+02 6.32042E-10-5.90568E-09
 -1       867-8.06518E+04 1.17730E+02 2.72230E+02 4.00916E+03 2.76873E-09 1.44618E-09
 -1       868-8.07715E+04-9.67858E+01 4.58937E+02-3.99857E+02 1.66807E-09-6.98719E-10
 -1       869-8.03075E+04 8.02620E+02 1.23191E+03 3.96965E+03-8.25253E-10-5.00040E-09
 -1       870-8.10661E+04-6.82010E+02 1.78653E+03-3.75411E+02 1.71724E-09-2.72439E-09
 -1       871-3.66076E+03-7.63401E+03-1.18603E+04 7.77570E+04 1.53614E-09-5.93900E-09
 -1       872-1.59790E+03-1.02859E+04-4.83104E+03 1.00807E+05 5.20504E-09 4.96584E-09
 -1       873-4.46862E+01-9.04742E+03 7.00031E+02 7.75857E+04 2.97655E-09 7.86133E-09
 -1       874 1.81596E+03-7.31531E+03 6.74980E+03 1.00843E+05 3.71438E-09 9.36461E-09
 -1       875 4.32174E+03-1.06495E+04 1.49621E+04 7.77285E+04 3.34421E-09 3.91492E-09
 -1       876 1.94355E+05 3.35205E+04 1.04140E+04 7.88892E+04-8.17033E-09-3.06136E-09
 -1       877 1.94945E+05 3.58126E+04 5.56130E+03 8.19757E+04-1.71784E-08-9.01400E-09
 -1       878 1.95329E+05 3.23677E+04 2.32993E+03 7.97444E+04-7.43512E-11-5.38876E-11
 -1       879 1.93528E+05 3.44020E+04 1.16063E+03 8.20498E+04 2.87673E-09-1.13744E-10
 -1       880 1.95400E+05 3.23548E+04 5.40334E+02 7.97792E+04-2.00225E-09-3.73865E-09
 -1       881 1.93434E+05 3.43421E+04 2.87753E+02 8.20352E+04 1.98088E-09-3.45869E-09
 -1       882 1.95407E+05 3.23632E+04 1.82738E+02 7.97802E+04 8.76935E-09 3.38753E-09
 -1       883 1.93427E+05 3.43393E+04 1.94263E+02 8.20311E+04 4.27843E-09 2.67785E-09
 -1       884 1.95403E+05 3.23610E+04 3.07050E+02 7.97803E+04-7.98593E-10 2.89833E-09
 -1       885 1.93451E+05 3.43437E+04 6.16107E+02 8.20389E+04 3.08026E-09-5.33748E-09
 -1       886 1.95379E+05 3.23430E+04 1.24117E+03 7.97779E+04 2.88792E-09-8.28663E-10
 -1       887 1.93669E+05 3.44867E+04 2.71097E+03 8.20702E+04-3.43047E-09 5.78427E-09
 -1       888 1.95208E+05 3.23732E+04 5.46265E+03 7.96911E+04-7.09719E-10 2.29511E-09
 -1       889 1.96925E+05 3.78660E+04 1.30499E+04 8.19666E+04 3.44279E-09 1.79762E-09
 -1       890 1.92982E+05 3.50170E+04 2.44414E+04 7.76073E+04 1.80989E-09 5.81167E-10
 -1       891-1.23282E+02-1.10514E+05-1.30314E+03 2.10305E+04-2.85934E-09 3.90901E-09
 -1       892-2.14105E+02-1.10825E+05-1.41835E+03 3.18224E+04-8.89031E-10 2.09093E-09
 -1       893-3.65914E+01-1.10555E+05-2.02751E+03 2.10345E+04-8.96762E-10 1.06529E-08
 -1       894-1.11193E+03-1.11603E+05-4.21040E+03 3.17094E+04-2.42335E-09 1.80780E-08
 -1       895-8.68366E+02-1.09679E+05-7.41966E+03 2.11419E+04-5.36375E-10 6.20230E-09
 -1       956-2.44240E+05-3.52074E+03-8.86818E+03 1.61461E+04-3.40378E-09-5.46879E-09
 -1       957-2.45991E+05-1.18609E+03-4.55262E+03 1.94427E+04-2.60525E-09 3.55931E-09
 -1       958-2.45026E+05-9.28211E+01-2.05104E+03 1.60405E+04 5.67934E-09-3.41197E-09
 -1       959-2.45166E+05-1.42376E+01-1.04764E+03 1.95567E+04 6.31985E-09 3.04408E-09
 -1       960-2.45096E+05 3.11681E+01-5.10627E+02 1.60305E+04-3.21961E-10 4.46266E-09
 -1       961-2.45105E+05 2.96933E+01-2.70728E+02 1.95681E+04-4.92400E-09 9.30072E-10
 -1       962-2.45110E+05 2.74391E+01-1.54557E+02 1.60291E+04-9.97034E-10 1.60298E-10
 -1       963-2.45103E+05 3.07149E+01-1.23333E+02 1.95701E+04-5.55576E-09 7.73116E-09
 -1       964-2.45113E+05 2.91446E+01-1.48789E+02 1.60285E+04-6.37556E-10-6.06519E-10
 -1       965-2.45112E+05 3.34502E+01-2.56317E+02 1.95702E+04 4.00874E-09-7.83280E-09
 -1       966-2.45105E+05 3.61911E+01-4.80668E+02 1.60290E+04-6.57508E-09-2.99815E-09
 -1       967-2.45175E+05-4.18948E+00-9.85619E+02 1.95641E+04-8.64009E-09 4.41946E-09
 -1       968-2.45045E+05-7.69682E+01-1.92865E+03 1.60346E+04-4.62319E-09 9.41270E-10
 -1       969-2.45959E+05-1.10326E+03-4.28217E+03 1.94974E+04-1.41608E-09-9.77053E-10
 -1       970-2.44310E+05-3.29909E+03-8.34063E+03 1.60982E+04-2.52840E-10-1.20963E-10
 -1       971-2.32013E+05-1.22497E+03-6.82281E+03 1.13373E+04-4.15957E-09-7.62896E-10
 -1       972-2.33673E+05-8.77128E+02-3.71579E+03 1.58387E+04-1.22782E-09-1.67461E-09
 -1       973-2.32771E+05-6.15799E+00-1.66371E+03 1.12428E+04-1.86810E-09 2.42505E-09
 -1       974-2.32887E+05-5.79598E+00-8.61904E+02 1.59403E+04 2.47655E-09-1.35856E-09
 -1       975-2.32829E+05 2.52428E+01-4.29711E+02 1.12345E+04-4.04725E-10 6.07122E-09
 -1       976-2.32839E+05 2.94528E+01-2.46041E+02 1.59502E+04-2.83399E-09-4.72437E-09
 -1       977-2.32840E+05 2.46970E+01-1.75130E+02 1.12327E+04 5.32600E-09 1.80228E-09
 -1       978-2.32841E+05 3.31394E+01-2.00304E+02 1.59527E+04 1.01700E-08-4.92821E-09
 -1       979-2.32839E+05 2.99267E+01-3.17791E+02 1.12320E+04 3.98978E-09-1.43643E-09
 -1       980-2.32865E+05 3.50205E+01-6.11088E+02 1.59531E+04 9.72037E-10 4.84749E-09
 -1       981-2.32820E+05 4.51564E+01-1.18217E+03 1.12324E+04 3.51406E-10-8.81857E-09
 -1       982-2.33027E+05-5.21071E+01-2.44276E+03 1.59484E+04 1.62004E-10-7.42816E-09
 -1       983-2.32671E+05-3.01994E+01-4.74583E+03 1.12369E+04 2.18188E-09 1.10037E-09
 -1       984-2.35310E+05-2.53008E+03-1.06275E+04 1.58846E+04-1.48384E-09 5.68753E-09
 -1       985-2.30524E+05-3.50260E+03-1.95155E+04 1.13009E+04 3.67436E-09 6.39557E-09
 -3
    1PSTEP                         9           5           1          
  100CL  105 4.92188E-01         409                     0    5           1
 -4  DISP        4    1
 -5  D1          1    2    1    0
 -5  D2          1    2    2    0
 -5  D3          1    2    3    0
 -5  ALL         1    2    0    0    1ALL
 -1         1 1.45156E-04 0.00000E+00 0.00000E+00
 -1         2 1.31688E-04-7.54822E-31 0.00000E+00
 -1         3 1.29350E-04 6.85869E-28-6.61744E-24
 -1         5 8.86267E-05-1.25434E-27 3.30872E-24
 -1         8 1.20346E-04-8.84673E-07 0.00000E+00
 -1         9 1.18921E-04 1.10735E-07 0.00000E+00
 -1        10 1.19322E-04-1.71863E-06 3.30872E-24
 -1        12 8.81911E-05 5.39175E-07 1.65436E-24
 -1        15 9.07819E-05-9.78702E-07-4.13590E-25
 -1        16 9.41866E-05-6.17328E-08 0.00000E+00
 -1        17 8.73889E-05-3.64597E-06 0.00000E+00
 -1        18 8.58359E-05 1.82675E-06 0.00000E+00
 -1        19 8.68844E-05 1.07542E-06 0.00000E+00
 -1        20 8.70214E-05 1.44058E-05 0.00000E+00
 -1        21 8.64912E-05 2.69100E-05 0.00000E+00
 -1        24 1.98499E-05-5.02209E-06 0.00000E+00
 -1        25 8.46870E-05 1.95258E-06 0.00000E+00
 -1        26 8.56310E-05 1.49628E-06 0.00000E+00
 -1        27 8.41373E-05 1.20047E-05 0.00000E+00
 -1        28 8.36740E-05 2.64516E-05 0.00000E+00
 -1        32 0.00000E+00 0.00000E+00 0.00000E+00
 -1        33 8.31348E-05 2.00467E-06 0.00000E+00
 -1        34 8.16911E-05 1.19827E-05 0.00000E+00
 -1        35 8.03222E-05 2.62090E-05 0.00000E+00
 -1        51 1.43545E-04-1.45940E-07 0.00000E+00
 -1        52 1.40556E-04-2.87324E-07 0.00000E+00
 -1        53 1.36460E-04-4.30129E-07 0.00000E+00
 -1        54 1.31538E-04-5.75882E-07 0.00000E+00
 -1        55 1.26073E-04-7.25360E-07-1.55096E-25
 -1        56 1.43869E-04-7.84082E-07-2.64698E-23
 -1        57 1.42713E-04-2.06684E-06-1.32349E-23
 -1        58 1.41692E-04-3.70260E-06 0.00000E+00
 -1        59 1.40743E-04-5.55676E-06-2.64698E-23
 -1        60 1.39817E-04-7.47284E-06 0.00000E+00
 -1        61 1.38854E-04-9.29578E-06 0.00000E+00
 -1        62 1.37801E-04-1.08762E-05 5.29396E-23
 -1        63 1.36604E-04-1.20733E-05 0.00000E+00
 -1        64 1.35221E-04-1.27726E-05 5.29396E-23
 -1        65 1.33614E-04-1.28760E-05 2.64698E-23
 -1        66 1.31762E-04-1.23265E-05 0.00000E+00
 -1        67 1.29652E-04-1.10885E-05 0.00000E+00
 -1        68 1.27287E-04-9.17414E-06 0.00000E+00
 -1        69 1.24687E-04-6.61521E-06 1.32349E-23
 -1        70 1.21871E-04-3.49350E-06 0.00000E+00
 -1        86 1.31340E-04 2.61040E-08 4.13590E-25
 -1        87 1.30297E-04 5.12072E-08 2.58494E-26
 -1        88 1.28549E-04 7.52849E-08 0.00000E+00
 -1        89 1.26084E-04 9.45422E-08 1.65436E-24
 -1        90 1.22881E-04 1.12930E-07 0.00000E+00
 -1       121 1.29070E-04-2.84588E-07-6.61744E-24
 -1       122 1.28230E-04-5.69483E-07 3.30872E-24
 -1       123 1.26832E-04-8.54988E-07 6.61744E-24
 -1       124 1.24879E-04-1.14145E-06 0.00000E+00
 -1       125 1.22374E-04-1.42908E-06-6.61744E-24
 -1       191 8.86146E-05 8.98690E-08 3.30872E-24
 -1       192 8.85783E-05 1.79736E-07 0.00000E+00
 -1       193 8.85178E-05 2.69603E-07 3.30872E-24
 -1       194 8.84331E-05 3.59467E-07-1.65436E-24
 -1       195 8.83242E-05 4.49325E-07 0.00000E+00
 -1       251 1.20242E-04 3.30389E-06 0.00000E+00
 -1       252 1.20152E-04 6.02529E-06 0.00000E+00
 -1       253 1.20064E-04 7.42344E-06 0.00000E+00
 -1       254 1.19979E-04 7.64661E-06 0.00000E+00
 -1       255 1.19894E-04 6.89428E-06-3.30872E-24
 -1       256 1.19809E-04 5.36927E-06-1.65436E-24
 -1       257 1.19722E-04 3.30793E-06-3.30872E-24
 -1       258 1.19635E-04 9.48461E-07-1.65436E-24
 -1       259 1.19548E-04-1.45808E-06 0.00000E+00
 -1       260 1.19461E-04-3.66041E-06 1.65436E-24
 -1       261 1.19375E-04-5.41608E-06 3.30872E-24
 -1       262 1.19290E-04-6.48427E-06 1.65436E-24
 -1       263 1.19205E-04-6.65393E-06 0.00000E+00
 -1       264 1.19116E-04-5.71707E-06 0.00000E+00
 -1       265 1.19027E-04-3.51401E-06-6.61744E-24
 -1       266 1.15419E-04-9.12384E-07 0.00000E+00
 -1       267 1.10492E-04-9.26588E-07 0.00000E+00
 -1       268 1.05564E-04-9.41647E-07 1.65436E-24
 -1       269 1.00637E-04-9.54172E-07 0.00000E+00
 -1       270 9.57094E-05-9.66639E-07 0.00000E+00
 -1       271 1.17362E-04 2.88181E-06 0.00000E+00
 -1       272 1.14787E-04 5.43105E-06 0.00000E+00
 -1       273 1.12626E-04 6.88871E-06 0.00000E+00
 -1       274 1.10821E-04 7.37964E-06 0.00000E+00
 -1       275 1.09323E-04 7.05244E-06 5.29396E-23
 -1       276 1.08069E-04 6.06779E-06-2.64698E-23
 -1       277 1.06997E-04 4.59946E-06-5.29396E-23
 -1       278 1.06037E-04 2.82956E-06 0.00000E+00
 -1       279 1.05120E-04 9.45981E-07 5.29396E-23
 -1       280 1.04174E-04-8.61283E-07-2.64698E-23
 -1       281 1.03130E-04-2.40385E-06 5.29396E-23
 -1       282 1.01918E-04-3.49792E-06 2.64698E-23
 -1       283 1.00473E-04-3.96849E-06 0.00000E+00
 -1       284 9.87378E-05-3.65004E-06 2.64698E-23
 -1       285 9.66485E-05-2.39563E-06-2.64698E-23
 -1       301 1.14516E-04 7.24760E-08 0.00000E+00
 -1       302 1.10150E-04 5.16981E-08 0.00000E+00
 -1       303 1.05878E-04 3.19516E-08 0.00000E+00
 -1       304 1.01757E-04 1.14193E-08-3.30872E-24
 -1       305 9.78413E-05-1.06490E-08-1.32349E-23
 -1       306 1.15900E-04 2.84386E-06 0.00000E+00
 -1       307 1.13558E-04 3.60897E-06 0.00000E+00
 -1       308 1.11937E-04 2.46366E-06 0.00000E+00
 -1       309 1.10969E-04-4.59141E-07 0.00000E+00
 -1       310 1.10498E-04-4.72066E-06 5.29396E-23
 -1       311 1.10334E-04-9.81403E-06 0.00000E+00
 -1       312 1.10237E-04-1.50913E-05 0.00000E+00
 -1       313 1.09965E-04-1.98955E-05 0.00000E+00
 -1       314 1.09303E-04-2.36484E-05 5.29396E-23
 -1       315 1.08055E-04-2.58289E-05-2.64698E-23
 -1       316 1.06123E-04-2.61808E-05 0.00000E+00
 -1       317 1.03445E-04-2.45454E-05-2.64698E-23
 -1       318 1.00082E-04-2.10980E-05 0.00000E+00
 -1       319 9.61440E-05-1.61058E-05 0.00000E+00
 -1       320 9.18160E-05-1.01031E-05 0.00000E+00
 -1       336 1.15657E-04-2.03265E-06-6.61744E-24
 -1       337 1.11314E-04-2.34969E-06 3.30872E-24
 -1       338 1.06303E-04-2.66964E-06 0.00000E+00
 -1       339 1.00636E-04-2.99249E-06-3.30872E-24
 -1       340 9.43257E-05-3.31907E-06-6.61744E-24
 -1       406 8.80338E-05 6.29011E-07-3.30872E-24
 -1       407 8.78522E-05 7.18814E-07 4.96308E-24
 -1       408 8.76465E-05 8.08558E-07 3.30872E-24
 -1       409 8.74165E-05 8.98132E-07 1.65436E-24
 -1       410 8.71624E-05 9.87361E-07 0.00000E+00
 -1       521 9.49057E-05-1.09981E-05 0.00000E+00
 -1       522 1.04562E-04-4.77253E-05-5.29396E-23
 -1       523 1.20682E-04-1.04131E-04 0.00000E+00
 -1       524 1.40465E-04-1.72404E-04 5.29396E-23
 -1       525 1.60685E-04-2.42108E-04 0.00000E+00
 -1       526 1.78097E-04-3.02682E-04 5.29396E-23
 -1       527 1.89802E-04-3.45593E-04 0.00000E+00
 -1       528 1.93045E-04-3.63857E-04-5.29396E-23
 -1       529 1.86534E-04-3.55824E-04 0.00000E+00
 -1       530 1.69730E-04-3.22022E-04 0.00000E+00
 -1       531 1.44503E-04-2.68334E-04 0.00000E+00
 -1       532 1.13727E-04-2.02142E-04 0.00000E+00
 -1       533 8.17803E-05-1.33352E-04 0.00000E+00
 -1       534 5.32194E-05-7.20399E-05 0.00000E+00
 -1       535 3.16360E-05-2.68113E-05 5.29396E-23
 -1       536 8.72702E-05 3.66804E-06 0.00000E+00
 -1       537 8.71560E-05 1.11119E-05 0.00000E+00
 -1       538 8.70446E-05 1.81026E-05 0.00000E+00
 -1       539 8.69406E-05 2.40592E-05 1.65436E-24
 -1       540 8.68437E-05 2.85863E-05 3.30872E-24
 -1       541 8.67534E-05 3.12940E-05 0.00000E+00
 -1       542 8.66663E-05 3.21190E-05 3.30872E-24
 -1       543 8.65790E-05 3.10054E-05 0.00000E+00
 -1       544 8.64887E-05 2.82452E-05 0.00000E+00
 -1       545 8.63940E-05 2.41368E-05-1.65436E-24
 -1       546 8.62959E-05 1.92207E-05-3.30872E-24
 -1       547 8.61967E-05 1.40407E-05 0.00000E+00
 -1       548 8.60991E-05 9.18760E-06-1.65436E-24
 -1       549 8.60063E-05 5.25140E-06-8.27181E-25
 -1       550 8.59173E-05 2.65770E-06 0.00000E+00
 -1       551 7.83979E-05-3.84980E-06 6.61744E-24
 -1       552 6.77320E-05-4.06561E-06 3.30872E-24
 -1       553 5.59636E-05-4.29273E-06 3.30872E-24
 -1       554 4.36738E-05-4.52797E-06 0.00000E+00
 -1       555 3.14436E-05-4.76526E-06 1.32349E-23
 -1       556 8.49734E-05 2.61097E-06 0.00000E+00
 -1       557 8.31145E-05 7.43461E-06 0.00000E+00
 -1       558 8.17519E-05 1.09546E-05 0.00000E+00
 -1       559 8.08309E-05 1.33109E-05 0.00000E+00
 -1       560 8.02967E-05 1.46430E-05 0.00000E+00
 -1       561 8.00952E-05 1.50914E-05 0.00000E+00
 -1       562 8.01729E-05 1.47966E-05 0.00000E+00
 -1       563 8.04762E-05 1.38995E-05 0.00000E+00
 -1       564 8.09522E-05 1.25408E-05 0.00000E+00
 -1       565 8.15480E-05 1.08617E-05 0.00000E+00
 -1       566 8.22108E-05 9.00314E-06 0.00000E+00
 -1       567 8.28879E-05 7.10625E-06-2.06795E-25
 -1       568 8.35267E-05 5.31210E-06 0.00000E+00
 -1       569 8.40745E-05 3.76162E-06 0.00000E+00
 -1       570 8.44785E-05 2.59579E-06 0.00000E+00
 -1       571 8.58995E-05 1.81443E-06-8.27181E-25
 -1       572 8.59646E-05 1.75896E-06-4.13590E-25
 -1       573 8.60300E-05 1.66823E-06 0.00000E+00
 -1       574 8.60956E-05 1.55051E-06-4.13590E-25
 -1       575 8.61614E-05 1.41412E-06 0.00000E+00
 -1       576 8.62271E-05 1.26743E-06 0.00000E+00
 -1       577 8.62928E-05 1.11881E-06 0.00000E+00
 -1       578 8.63586E-05 9.76644E-07 0.00000E+00
 -1       579 8.64244E-05 8.49318E-07 0.00000E+00
 -1       580 8.64901E-05 7.45212E-07 0.00000E+00
 -1       581 8.65559E-05 6.72710E-07 3.30872E-24
 -1       582 8.66217E-05 6.40183E-07-1.65436E-24
 -1       583 8.66874E-05 6.55995E-07 0.00000E+00
 -1       584 8.67531E-05 7.28427E-07 0.00000E+00
 -1       585 8.68188E-05 8.65707E-07 0.00000E+00
 -1       586 8.56169E-05 1.84901E-06 0.00000E+00
 -1       587 8.53711E-05 1.87074E-06-2.06795E-25
 -1       588 8.51267E-05 1.89224E-06 0.00000E+00
 -1       589 8.49123E-05 1.91339E-06 0.00000E+00
 -1       590 8.47565E-05 1.93396E-06 0.00000E+00
 -1       591 8.58093E-05 1.84980E-06-5.16988E-26
 -1       592 8.57929E-05 1.83882E-06 0.00000E+00
 -1       593 8.57866E-05 1.80036E-06-4.13590E-25
 -1       594 8.57881E-05 1.74033E-06-4.13590E-25
 -1       595 8.57954E-05 1.66470E-06 0.00000E+00
 -1       596 8.58063E-05 1.57937E-06 2.06795E-25
 -1       597 8.58185E-05 1.49028E-06-4.13590E-25
 -1       598 8.58300E-05 1.40335E-06 2.06795E-25
 -1       599 8.58384E-05 1.32448E-06-4.13590E-25
 -1       600 8.58416E-05 1.25959E-06 0.00000E+00
 -1       601 8.58373E-05 1.21461E-06-4.13590E-25
 -1       602 8.58235E-05 1.19544E-06 1.03398E-25
 -1       603 8.57978E-05 1.20802E-06-2.06795E-25
 -1       604 8.57582E-05 1.25831E-06 0.00000E+00
 -1       605 8.57026E-05 1.35220E-06-4.13590E-25
 -1       606 8.68963E-05 1.43465E-06 0.00000E+00
 -1       607 8.69059E-05 1.88490E-06 0.00000E+00
 -1       608 8.69149E-05 2.42083E-06 3.30872E-24
 -1       609 8.69235E-05 3.03640E-06 0.00000E+00
 -1       610 8.69320E-05 3.72558E-06 0.00000E+00
 -1       611 8.69404E-05 4.48221E-06 0.00000E+00
 -1       612 8.69487E-05 5.30015E-06 0.00000E+00
 -1       613 8.69570E-05 6.17325E-06 0.00000E+00
 -1       614 8.69652E-05 7.09538E-06 0.00000E+00
 -1       615 8.69734E-05 8.06035E-06 0.00000E+00
 -1       616 8.69816E-05 9.06204E-06 1.65436E-24
 -1       617 8.69897E-05 1.00943E-05 0.00000E+00
 -1       618 8.69978E-05 1.11509E-05 0.00000E+00
 -1       619 8.70058E-05 1.22259E-05 0.00000E+00
 -1       620 8.70138E-05 1.33129E-05 0.00000E+00
 -1       621 8.66196E-05 1.14563E-06 1.65436E-24
 -1       622 8.63859E-05 1.21616E-06 0.00000E+00
 -1       623 8.61768E-05 1.28668E-06 0.00000E+00
 -1       624 8.59857E-05 1.35709E-06 0.00000E+00
 -1       625 8.58059E-05 1.42738E-06-1.65436E-24
 -1       626 8.68253E-05 1.45712E-06 0.00000E+00
 -1       627 8.67387E-05 1.91383E-06 0.00000E+00
 -1       628 8.66267E-05 2.43851E-06 0.00000E+00
 -1       629 8.64920E-05 3.02362E-06 0.00000E+00
 -1       630 8.63375E-05 3.66165E-06 0.00000E+00
 -1       631 8.61660E-05 4.34501E-06 0.00000E+00
 -1       632 8.59803E-05 5.06611E-06 0.00000E+00
 -1       633 8.57833E-05 5.81740E-06 0.00000E+00
 -1       634 8.55778E-05 6.59129E-06 0.00000E+00
 -1       635 8.53666E-05 7.38020E-06 0.00000E+00
 -1       636 8.51527E-05 8.17656E-06 0.00000E+00
 -1       637 8.49387E-05 8.97280E-06 8.27181E-25
 -1       638 8.47276E-05 9.76131E-06-1.65436E-24
 -1       639 8.45220E-05 1.05345E-05 0.00000E+00
 -1       640 8.43247E-05 1.12849E-05 0.00000E+00
 -1       656 8.61269E-05 1.40151E-05 0.00000E+00
 -1       657 8.55780E-05 1.36088E-05 3.30872E-24
 -1       658 8.52445E-05 1.32038E-05 0.00000E+00
 -1       659 8.49931E-05 1.27992E-05 0.00000E+00
 -1       660 8.46736E-05 1.23932E-05 0.00000E+00
 -1       661 8.66910E-05 1.54739E-05-8.27181E-25
 -1       662 8.63830E-05 1.64906E-05 0.00000E+00
 -1       663 8.60935E-05 1.74572E-05 0.00000E+00
 -1       664 8.58224E-05 1.83766E-05 8.27181E-25
 -1       665 8.55683E-05 1.92508E-05-1.65436E-24
 -1       666 8.53304E-05 2.00821E-05-8.27181E-25
 -1       667 8.51079E-05 2.08725E-05 0.00000E+00
 -1       668 8.49000E-05 2.16241E-05 8.27181E-25
 -1       669 8.47059E-05 2.23389E-05 1.65436E-24
 -1       670 8.45250E-05 2.30185E-05-8.27181E-25
 -1       671 8.43565E-05 2.36649E-05 0.00000E+00
 -1       672 8.41999E-05 2.42797E-05 8.27181E-25
 -1       673 8.40544E-05 2.48644E-05 0.00000E+00
 -1       674 8.39189E-05 2.54204E-05 8.27181E-25
 -1       675 8.37938E-05 2.59496E-05 0.00000E+00
 -1       676 8.60204E-05 2.68332E-05 0.00000E+00
 -1       677 8.55499E-05 2.67563E-05 0.00000E+00
 -1       678 8.50798E-05 2.66795E-05 0.00000E+00
 -1       679 8.46103E-05 2.66030E-05 0.00000E+00
 -1       680 8.41417E-05 2.65264E-05 0.00000E+00
 -1       771 1.53089E-05 4.02065E-06 2.64698E-23
 -1       772 1.13853E-05 1.14295E-05 0.00000E+00
 -1       773 8.05230E-06 1.72930E-05 0.00000E+00
 -1       774 5.27089E-06 2.17066E-05 0.00000E+00
 -1       775 3.00244E-06 2.47683E-05-5.29396E-23
 -1       776 1.20667E-06 2.65799E-05 0.00000E+00
 -1       777-1.57174E-07 2.72454E-05-5.29396E-23
 -1       778-1.13075E-06 2.68720E-05 0.00000E+00
 -1       779-1.75599E-06 2.55690E-05 0.00000E+00
 -1       780-2.07562E-06 2.34482E-05-1.32349E-23
 -1       781-2.13248E-06 2.06227E-05 0.00000E+00
 -1       782-1.97001E-06 1.72080E-05-1.32349E-23
 -1       783-1.63172E-06 1.33203E-05 0.00000E+00
 -1       784-1.16145E-06 9.07731E-06 1.32349E-23
 -1       785-6.03177E-07 4.59744E-06 0.00000E+00
 -1       786 8.47425E-05 1.83276E-06-4.13590E-25
 -1       787 8.48013E-05 1.72447E-06 8.27181E-25
 -1       788 8.48600E-05 1.62611E-06-1.65436E-24
 -1       789 8.49192E-05 1.53610E-06 0.00000E+00
 -1       790 8.49785E-05 1.45399E-06-1.65436E-24
 -1       791 8.50379E-05 1.37937E-06 0.00000E+00
 -1       792 8.50973E-05 1.31284E-06-1.65436E-24
 -1       793 8.51568E-05 1.25503E-06 0.00000E+00
 -1       794 8.52162E-05 1.20777E-06 1.65436E-24
 -1       795 8.52757E-05 1.17290E-06 8.27181E-25
 -1       796 8.53351E-05 1.15397E-06 0.00000E+00
 -1       797 8.53945E-05 1.15459E-06-8.27181E-25
 -1       798 8.54539E-05 1.18101E-06-1.65436E-24
 -1       799 8.55132E-05 1.23959E-06 8.27181E-25
 -1       800 8.55725E-05 1.34106E-06 1.65436E-24
 -1       801 7.89615E-05 1.74815E-06 0.00000E+00
 -1       802 6.16372E-05 1.40787E-06 0.00000E+00
 -1       803 3.89514E-05 9.70612E-07 6.61744E-24
 -1       804 1.71888E-05 5.45951E-07-6.61744E-24
 -1       805 2.25419E-06 2.36472E-07-1.32349E-23
 -1       806 8.46563E-05 1.78881E-06 1.65436E-24
 -1       807 8.46209E-05 1.62933E-06-8.27181E-25
 -1       808 8.45816E-05 1.47863E-06 3.30872E-24
 -1       809 8.45372E-05 1.34048E-06-1.65436E-24
 -1       810 8.44867E-05 1.21862E-06 1.65436E-24
 -1       811 8.44286E-05 1.11675E-06 0.00000E+00
 -1       812 8.43616E-05 1.03854E-06 0.00000E+00
 -1       813 8.42844E-05 9.87683E-07 8.27181E-25
 -1       814 8.41955E-05 9.67833E-07-1.65436E-24
 -1       815 8.40936E-05 9.82660E-07-8.27181E-25
 -1       816 8.39774E-05 1.03583E-06 0.00000E+00
 -1       817 8.38454E-05 1.13100E-06 0.00000E+00
 -1       818 8.36963E-05 1.27184E-06 0.00000E+00
 -1       819 8.35289E-05 1.46198E-06 0.00000E+00
 -1       820 8.33418E-05 1.70507E-06-1.65436E-24
 -1       821 8.55430E-05 1.66427E-06-8.27181E-25
 -1       822 8.54497E-05 1.80486E-06 8.27181E-25
 -1       823 8.53568E-05 1.96594E-06 0.00000E+00
 -1       824 8.52628E-05 2.19526E-06 0.00000E+00
 -1       825 8.51687E-05 2.52734E-06 3.30872E-24
 -1       826 8.50744E-05 2.99620E-06 0.00000E+00
 -1       827 8.49800E-05 3.60929E-06 3.30872E-24
 -1       828 8.48854E-05 4.37343E-06-1.65436E-24
 -1       829 8.47908E-05 5.26605E-06 0.00000E+00
 -1       830 8.46961E-05 6.26402E-06-1.65436E-24
 -1       831 8.46013E-05 7.32376E-06 0.00000E+00
 -1       832 8.45068E-05 8.40138E-06 0.00000E+00
 -1       833 8.44123E-05 9.44950E-06-1.65436E-24
 -1       834 8.43189E-05 1.04209E-05 0.00000E+00
 -1       835 8.42253E-05 1.12833E-05 0.00000E+00
 -1       836 8.53586E-05 1.58092E-06-1.65436E-24
 -1       837 8.49761E-05 1.66743E-06 0.00000E+00
 -1       838 8.45230E-05 1.75378E-06 0.00000E+00
 -1       839 8.40387E-05 1.83957E-06 0.00000E+00
 -1       840 8.35628E-05 1.92523E-06-4.13590E-25
 -1       856 8.41117E-05 1.27100E-05 2.06795E-25
 -1       857 8.40831E-05 1.35172E-05 0.00000E+00
 -1       858 8.40546E-05 1.44103E-05 8.27181E-25
 -1       859 8.40255E-05 1.53732E-05 4.13590E-25
 -1       860 8.39963E-05 1.63897E-05 0.00000E+00
 -1       861 8.39670E-05 1.74435E-05 0.00000E+00
 -1       862 8.39377E-05 1.85183E-05 8.27181E-25
 -1       863 8.39083E-05 1.95978E-05-4.13590E-25
 -1       864 8.38789E-05 2.06657E-05-8.27181E-25
 -1       865 8.38495E-05 2.17057E-05 0.00000E+00
 -1       866 8.38202E-05 2.27015E-05-8.27181E-25
 -1       867 8.37909E-05 2.36368E-05 0.00000E+00
 -1       868 8.37617E-05 2.44955E-05 0.00000E+00
 -1       869 8.37325E-05 2.52615E-05-4.13590E-25
 -1       870 8.37034E-05 2.59188E-05-8.27181E-25
 -1       871 8.36254E-05 1.20038E-05-4.13590E-25
 -1       872 8.32124E-05 1.20009E-05 0.00000E+00
 -1       873 8.28557E-05 1.19976E-05 0.00000E+00
 -1       874 8.25120E-05 1.19938E-05-1.55096E-25
 -1       875 8.21380E-05 1.19895E-05 6.20385E-25
 -1       876 8.39624E-05 1.27187E-05 0.00000E+00
 -1       877 8.37708E-05 1.34822E-05 0.00000E+00
 -1       878 8.35631E-05 1.42894E-05-3.30872E-24
 -1       879 8.33413E-05 1.51347E-05-3.30872E-24
 -1       880 8.31074E-05 1.60123E-05 0.00000E+00
 -1       881 8.28634E-05 1.69167E-05 0.00000E+00
 -1       882 8.26115E-05 1.78425E-05 0.00000E+00
 -1       883 8.23537E-05 1.87838E-05 1.65436E-24
 -1       884 8.20920E-05 1.97353E-05-3.30872E-24
 -1       885 8.18287E-05 2.06914E-05 0.00000E+00
 -1       886 8.15657E-05 2.16464E-05 0.00000E+00
 -1       887 8.13051E-05 2.25948E-05 0.00000E+00
 -1       888 8.10489E-05 2.35310E-05 0.00000E+00
 -1       889 8.07989E-05 2.44494E-05 0.00000E+00
 -1       890 8.05573E-05 2.53443E-05 8.27181E-25
 -1       891 8.32262E-05 2.64110E-05 0.00000E+00
 -1       892 8.27608E-05 2.63703E-05 0.00000E+00
 -1       893 8.22578E-05 2.63295E-05-8.27181E-25
 -1       894 8.16971E-05 2.62889E-05 2.06795E-25
 -1       895 8.10585E-05 2.62484E-05-4.13590E-25
 -1       956 8.30463E-05 2.41969E-06 0.00000E+00
 -1       957 8.29563E-05 2.89231E-06 8.27181E-25
 -1       958 8.28660E-05 3.41646E-06-1.65436E-24
 -1       959 8.27756E-05 3.98572E-06 0.00000E+00
 -1       960 8.26851E-05 4.59366E-06 0.00000E+00
 -1       961 8.25945E-05 5.23382E-06-1.65436E-24
 -1       962 8.25039E-05 5.89971E-06 0.00000E+00
 -1       963 8.24133E-05 6.58487E-06 1.65436E-24
 -1       964 8.23227E-05 7.28282E-06 0.00000E+00
 -1       965 8.22321E-05 7.98707E-06 0.00000E+00
 -1       966 8.21415E-05 8.69115E-06 3.30872E-24
 -1       967 8.20509E-05 9.38858E-06 0.00000E+00
 -1       968 8.19604E-05 1.00729E-05 0.00000E+00
 -1       969 8.18700E-05 1.07376E-05 0.00000E+00
 -1       970 8.17799E-05 1.13763E-05 0.00000E+00
 -1       971 8.16067E-05 1.26073E-05 0.00000E+00
 -1       972 8.15211E-05 1.33074E-05 0.00000E+00
 -1       973 8.14353E-05 1.40747E-05-1.65436E-24
 -1       974 8.13494E-05 1.49005E-05 0.00000E+00
 -1       975 8.12634E-05 1.57761E-05-1.65436E-24
 -1       976 8.11773E-05 1.66929E-05 0.00000E+00
 -1       977 8.10912E-05 1.76422E-05 0.00000E+00
 -1       978 8.10050E-05 1.86152E-05 1.65436E-24
 -1       979 8.09189E-05 1.96032E-05 0.00000E+00
 -1       980 8.08328E-05 2.05976E-05 0.00000E+00
 -1       981 8.07466E-05 2.15896E-05 0.00000E+00
 -1       982 8.06606E-05 2.25704E-05-3.30872E-24
 -1       983 8.05747E-05 2.35315E-05 0.00000E+00
 -1       984 8.04892E-05 2.44640E-05 0.00000E+00
 -1       985 8.04041E-05 2.53593E-05 1.65436E-24
 -3
    1PSTEP                        10           5           1          
  100CL  105 4.92188E-01         409                     0    5           1
 -4  STRESS      6    1
 -5  SXX         1    4    1    1
 -5  SYY         1    4    2    2
 -5  SZZ         1    4    3    3
 -5  SXY         1    4    1    2
 -5  SYZ         1    4    2    3
 -5  SZX         1    4    3    1
 -1         1-1.85141E+06-8.20872E+05-3.84738E+05-1.11443E+06 4.76575E-10-2.13913E-08
 -1         2 2.64822E+03 7.83943E+04 8.66682E+03 2.28414E+02-1.29404E-10 8.94812E-09
 -1         3-1.35103E+02-8.12657E+05 1.92597E+02-3.61315E+02-1.44611E-10-8.14907E-10
 -1         5-4.83209E+00 2.57146E+05 6.71992E+00 1.17971E-01 7.42607E-11-3.28419E-09
 -1         8-8.78139E+05-3.53063E+05-5.54427E+04-5.65264E+05 2.60115E-10 7.16682E-09
 -1         9-1.63217E+06-4.67191E+05-1.81410E+05-5.23662E+05 4.15603E-09 2.66591E-09
 -1        10-6.89056E+02-8.46612E+05-1.12235E+03-2.44193E+03-4.04862E-09-1.26690E-08
 -1        12-2.07758E+00 2.57160E+05 2.17812E+02 1.00851E+00 2.19227E-10 3.05818E-10
 -1        15 1.99474E+03 1.09623E+03 6.44797E+03 4.25037E+00 2.10036E-11 3.38936E-08
 -1        16-3.30975E+06-1.24764E+06-5.29357E+05-1.29629E+06 1.08800E-08-1.24176E-08
 -1        17-9.90097E+05-5.87260E+05-1.92103E+05-5.31720E+05-4.94329E-09 5.11063E-09
 -1        18-3.07947E+04-1.20474E+04-2.72619E+04-6.27375E+04 1.41688E-09 4.29100E-09
 -1        19 8.08107E+04 9.58474E+04-4.95324E+02 1.57650E+04-4.80577E-10-6.40284E-11
 -1        20-3.50795E+04-3.81803E+05-8.43155E+04 2.73889E+04 2.96147E-09 2.13549E-09
 -1        21-3.57560E+01-2.19764E+05-7.08366E+02-7.09565E+01-8.68013E-09 2.53906E-09
 -1        24-3.24686E+06-9.37019E+05-4.23299E+05-1.19971E+06-2.77529E-08-1.51825E-08
 -1        25 6.37183E+03-1.16619E+05-8.77536E+03-1.12821E+05 9.26866E-10 1.49641E-08
 -1        26-2.02635E+04 6.49772E+04-1.33070E+04-8.61573E+03 1.53123E-09 7.43783E-09
 -1        27-6.03991E+04-2.09232E+05-7.84053E+04 4.71629E+04 5.98645E-09 4.18671E-10
 -1        28 1.69968E+04-6.08603E+04 1.24242E+04 1.91992E+04 3.02686E-09 7.29933E-10
 -1        32-8.65561E+05-3.92173E+05 2.90198E+05-5.51665E+05-1.94268E-08 9.93481E-09
 -1        33-1.20099E+05 6.12728E+04 2.17537E+04-3.47365E+04 1.07567E-09-6.21488E-10
 -1        34-1.55188E+05-1.55130E+04 3.71012E+02 4.79632E+04 3.02280E-09-2.24948E-09
 -1        35-1.72895E+04-2.41843E+04-9.48996E+02 3.82826E+04 5.67977E-09 2.30163E-09
 -1        51 1.61741E+04-3.64320E+05 4.09944E+04-9.45918E+05 4.36557E-10 9.13860E-09
 -1        52 9.63539E+03-3.62620E+05 2.67679E+04-1.10323E+06 4.36557E-10 1.81317E-08
 -1        53 6.90330E+03-3.75719E+05 2.22661E+04-9.42616E+05 2.47383E-10 2.93658E-08
 -1        54 1.95652E+04-3.74395E+05 3.50931E+04-1.10666E+06-1.81899E-10 1.04155E-08
 -1        55 3.86990E+04-3.87682E+05 6.22607E+04-9.42081E+05 6.54836E-10 5.77347E-09
 -1        56-3.54815E+06-3.98572E+05-2.82853E+05-1.36865E+06-4.80213E-10-6.24277E-09
 -1        57-3.66330E+06-6.53143E+05-1.90694E+05-1.35598E+06-1.09139E-09 4.63842E-10
 -1        58-3.60558E+06-4.87600E+05-6.65392E+04-1.35013E+06-1.71440E-09 2.31012E-09
 -1        59-3.59682E+06-5.48691E+05-3.97206E+04-1.37808E+06-9.77252E-10-8.72751E-09
 -1        60-3.61398E+06-4.99984E+05-1.55298E+04-1.34759E+06-2.29284E-09 2.45564E-09
 -1        61-3.58863E+06-5.32570E+05-8.81449E+03-1.37913E+06 1.67472E-09-3.30380E-09
 -1        62-3.61360E+06-5.03352E+05-4.23788E+03-1.34917E+06-7.28051E-10 4.40923E-09
 -1        63-3.59205E+06-5.25908E+05-3.42058E+03-1.37373E+06 4.69186E-10-7.16506E-09
 -1        64-3.61043E+06-5.06674E+05-3.92850E+03-1.35291E+06 1.05933E-09-6.84690E-09
 -1        65-3.60042E+06-5.19905E+05-7.75724E+03-1.36476E+06 7.31575E-10-6.45741E-09
 -1        66-3.60515E+06-5.09459E+05-1.36994E+04-1.35806E+06 3.62888E-10 2.99860E-09
 -1        67-3.61731E+06-5.24193E+05-3.47195E+04-1.35260E+06 3.07381E-10-3.70892E-09
 -1        68-3.59364E+06-5.02739E+05-5.82963E+04-1.36496E+06 1.39698E-09-3.72529E-09
 -1        69-3.68171E+06-6.09642E+05-1.66863E+05-1.32669E+06 3.04908E-09 4.08181E-09
 -1        70-3.54147E+06-4.26576E+05-2.47579E+05-1.38315E+06-1.56069E-09-2.76486E-10
 -1        86-1.33099E+03 7.55218E+04 9.24562E+03-1.14231E+02 1.16415E-09 2.36889E-09
 -1        87 8.81407E+03 8.13909E+04 1.93407E+04 4.71695E+02 1.93472E-09-2.08388E-10
 -1        88-7.47828E+03 7.25271E+04 2.95667E+04-3.57526E+02 2.85763E-09 3.27020E-10
 -1        89 5.57087E+04 1.03195E+05 7.97815E+04 1.07219E+03 4.35102E-09 1.15097E-09
 -1        90-4.80686E+04 5.37381E+04 1.12692E+05-7.14218E+02 4.75848E-09 2.59638E-09
 -1       121-2.03973E+02-8.13213E+05 1.29486E+02 1.80362E+02 4.75787E-10-4.98221E-09
 -1       122-7.07198E+01-8.12621E+05 4.13719E+02-7.22269E+02-1.67675E-09-8.03902E-09
 -1       123-2.46264E+02-8.13259E+05 6.13667E+02 5.40147E+02 1.36447E-09-7.21775E-09
 -1       124 6.93333E+02-8.12173E+05 1.71766E+03-1.59396E+03-3.21575E-09 8.27640E-10
 -1       125-7.33220E+02-8.13690E+05 2.57834E+03 1.05114E+03 2.12867E-09-1.07120E-08
 -1       191-5.29584E+00 2.57168E+05 8.03362E+00-5.95214E-02 1.28880E-10 5.29508E-09
 -1       192-5.44954E+00 2.57147E+05 1.42280E+01 6.30701E-01 1.94357E-10 1.09619E-08
 -1       193-6.93751E+00 2.57168E+05 2.64616E+01-5.74874E-01 1.99771E-10-3.27873E-09
 -1       194-7.43655E+00 2.57149E+05 5.38166E+01 1.53539E+00 6.60307E-11-5.58248E-09
 -1       195-1.00925E+01 2.57166E+05 1.05269E+02-9.70578E-01 2.93831E-10-1.94814E-09
 -1       251-2.54590E+05-2.71343E+04 6.31059E+04 6.53730E+02-7.59769E-10-4.13274E-09
 -1       252-2.24410E+05 3.13615E+04 4.50259E+04-8.31704E+03 2.06626E-10-8.51151E-09
 -1       253-2.43652E+05-4.21787E+03 1.62733E+04 1.93241E+03 8.74252E-11 3.16595E-09
 -1       254-2.37532E+05 4.85215E+03 1.04721E+04-1.05932E+04 9.73102E-10 4.69754E-10
 -1       255-2.41558E+05-6.57794E+02 4.20363E+03 2.92981E+03 1.89800E-10 5.86465E-09
 -1       256-2.40210E+05 7.88480E+02 2.65521E+03-1.21428E+04 1.24723E-09 3.86578E-09
 -1       257-2.41040E+05-1.20120E+02 1.39850E+03 3.48199E+03-5.45356E-10 1.72295E-09
 -1       258-2.40761E+05 2.97024E+02 1.35357E+03-1.27431E+04 1.33738E-10 1.44507E-09
 -1       259-2.41035E+05-1.47642E+02 1.66722E+03 3.53015E+03-5.08578E-10-1.75157E-09
 -1       260-2.40167E+05 1.03654E+03 3.39981E+03-1.23324E+04 5.23769E-10-1.18757E-08
 -1       261-2.41615E+05-8.71489E+02 5.59137E+03 3.07133E+03 1.45707E-09 3.13412E-09
 -1       262-2.36867E+05 6.47889E+03 1.38653E+04-1.09551E+04 1.65045E-10 9.76888E-09
 -1       263-2.44273E+05-5.61598E+03 2.17728E+04 2.15276E+03 6.36646E-11-2.45382E-09
 -1       264-2.19632E+05 4.18447E+04 5.99534E+04-8.83532E+03-3.02208E-09 2.53385E-08
 -1       265-2.58754E+05-3.61732E+04 8.43370E+04 9.51528E+02-1.02909E-09 1.18562E-08
 -1       266-3.61102E+04-1.68824E+04 8.47374E+04-9.09568E+01 2.18279E-11 1.12344E-08
 -1       267 4.18628E+04 1.96810E+04 5.98847E+04 1.04931E+02 1.04592E-10 2.26309E-08
 -1       268-5.61367E+03-2.78714E+03 2.22592E+04-1.33709E+01 1.24601E-10 2.30815E-08
 -1       269 6.62817E+03 3.33588E+03 1.44678E+04 1.55742E+01 1.07320E-10 1.07337E-08
 -1       270-9.94887E+02-5.48092E+02 6.98383E+03-2.11356E+00 2.50111E-11 1.42899E-08
 -1       271-3.49075E+06-4.36748E+05-2.67582E+05-1.36099E+06-4.98403E-10-6.40284E-10
 -1       272-3.57543E+06-6.42981E+05-1.72004E+05-1.37104E+06 5.74801E-10-1.53032E-08
 -1       273-3.54269E+06-5.01800E+05-6.32163E+04-1.34725E+06-1.06274E-09-2.79761E-09
 -1       274-3.51409E+06-5.63884E+05-3.53381E+04-1.39263E+06-4.80213E-10 4.94128E-09
 -1       275-3.55146E+06-5.06819E+05-1.47143E+04-1.34313E+06 2.09184E-11-4.31828E-09
 -1       276-3.50341E+06-5.58412E+05-7.78937E+03-1.39950E+06-6.51198E-10-1.89698E-09
 -1       277-3.55391E+06-5.05958E+05-3.81833E+03-1.34118E+06-1.16279E-09 2.22553E-09
 -1       278-3.50088E+06-5.59358E+05-2.75770E+03-1.40218E+06 2.44211E-09 1.72918E-09
 -1       279-3.55434E+06-5.05570E+05-2.94485E+03-1.34074E+06-1.77175E-09-8.85643E-09
 -1       280-3.50179E+06-5.59482E+05-5.39818E+03-1.40146E+06-2.67391E-10 1.61890E-09
 -1       281-3.55291E+06-5.05939E+05-9.86671E+03-1.34182E+06-1.79762E-09-1.69712E-09
 -1       282-3.50893E+06-5.63050E+05-2.35794E+04-1.39677E+06-1.64937E-09 3.71529E-10
 -1       283-3.54680E+06-5.02911E+05-4.21094E+04-1.34487E+06-2.18552E-09-1.92267E-09
 -1       284-3.55054E+06-6.14749E+05-1.14521E+05-1.38110E+06-5.73095E-10-1.11468E-08
 -1       285-3.51150E+06-4.60412E+05-1.78265E+05-1.35484E+06 1.90266E-09-9.73523E-09
 -1       301 1.65749E+04-3.04709E+04 1.24463E+05-6.68516E+04-8.98581E-10 3.85762E-09
 -1       302 1.77086E+04 9.95068E+02 8.66460E+04-9.84036E+04 1.26238E-09 6.60884E-09
 -1       303 1.00634E+03-1.87653E+04 7.47889E+04-6.69695E+04-5.56611E-10 9.45329E-09
 -1       304 2.79996E+04 1.07855E+04 1.20427E+05-9.80538E+04 1.32968E-09 5.20231E-10
 -1       305 2.74030E+04-3.97357E+04 1.99218E+05-6.71729E+04-7.49424E-10 4.58203E-09
 -1       306-4.43748E+06-5.14057E+05-3.35040E+05-1.73322E+06 1.29512E-09-5.80621E-09
 -1       307-4.60147E+06-8.02550E+05-2.27946E+05-1.68095E+06-1.73713E-10 1.65674E-08
 -1       308-4.52398E+06-6.07442E+05-7.89226E+04-1.68945E+06 2.65118E-09 1.35333E-08
 -1       309-4.49175E+06-7.04289E+05-4.75080E+04-1.74492E+06 3.66470E-09 1.80671E-08
 -1       310-4.54706E+06-6.09966E+05-1.84379E+04-1.67022E+06-1.26701E-09-4.33192E-09
 -1       311-4.46583E+06-7.00660E+05-1.06883E+04-1.76723E+06 7.23119E-09-1.54341E-09
 -1       312-4.55028E+06-6.10416E+05-5.22570E+03-1.66759E+06-3.03999E-10 4.30174E-09
 -1       313-4.47229E+06-6.89291E+05-4.52093E+03-1.75675E+06-3.68004E-09 1.30981E-08
 -1       314-4.54024E+06-6.21537E+05-5.98361E+03-1.68046E+06-3.06500E-09-1.04592E-08
 -1       315-4.50193E+06-6.62216E+05-1.15688E+04-1.72092E+06-2.86559E-09-4.38740E-09
 -1       316-4.51997E+06-6.38009E+05-2.14048E+04-1.70291E+06-5.67752E-10 3.31602E-09
 -1       317-4.55366E+06-6.46255E+05-5.40423E+04-1.67366E+06 3.64767E-09 3.31056E-09
 -1       318-4.48872E+06-6.37797E+05-8.99269E+04-1.72766E+06-7.55972E-09 6.67569E-09
 -1       319-4.67429E+06-7.67294E+05-2.60748E+05-1.61314E+06-5.32418E-09 4.91855E-09
 -1       320-4.40084E+06-5.18701E+05-3.81873E+05-1.76332E+06 8.49104E-09-9.13860E-09
 -1       336 5.11323E+02-8.80349E+05-4.83597E+03 1.38612E+03-8.39964E-09-4.38922E-09
 -1       337-1.77853E+03-8.81383E+05-5.31212E+03-3.48296E+03-1.55992E-08-7.79983E-09
 -1       338 3.31915E+02-8.80472E+05-6.86323E+03 2.08704E+03-1.09412E-08-8.27094E-09
 -1       339-7.09677E+03-8.84732E+05-1.49872E+04-4.86182E+03-2.03693E-08 1.40280E-08
 -1       340 4.72917E+03-8.77126E+05-2.31910E+04 2.75439E+03-1.38116E-08 9.42418E-09
 -1       406 1.45596E+01 2.57156E+05 4.30016E+02-5.27720E-02 4.38860E-10-2.55750E-09
 -1       407 1.47853E+02 2.57236E+05 9.13934E+02-7.04569E+00 2.70290E-11-1.57863E-08
 -1       408 4.68375E+02 2.57090E+05 1.82531E+03 7.24382E+00 4.97948E-10-3.25208E-08
 -1       409 1.97170E+03 2.57819E+05 4.10930E+03-7.01425E+01-8.99263E-11-3.78604E-08
 -1       410 5.66876E+03 2.56571E+05 8.38897E+03 6.56347E+01 5.37511E-10-2.11135E-08
 -1       521-7.70057E+06-7.56788E+05-6.41845E+05-2.65464E+06-4.17640E-09 9.05129E-09
 -1       522-6.57942E+06-1.85441E+06-3.05117E+05-3.47957E+06-5.48043E-08-9.32050E-09
 -1       523-7.89140E+06-5.73520E+05-1.40849E+05-2.20386E+06 7.35963E-09-2.61571E-08
 -1       524-6.51695E+06-1.93123E+06-6.14396E+04-4.06064E+06 6.07448E-08-8.27831E-08
 -1       525-7.90471E+06-5.71853E+05-3.30071E+04-2.16788E+06 7.09952E-08-3.42789E-08
 -1       526-6.44213E+06-1.69258E+06 3.79048E+04-3.64238E+06 3.08210E-08-1.13141E-08
 -1       527-7.85036E+06-8.96045E+05-8.50216E+04-2.54779E+06 2.83617E-08-8.54925E-10
 -1       528-6.74342E+06-1.03989E+06 9.88511E+04-2.66412E+06-1.83609E-08 1.50176E-08
 -1       529-7.46460E+06-1.32287E+06-9.63744E+04-3.03679E+06 6.83940E-09 6.10453E-09
 -1       530-7.76967E+06-2.69512E+05 5.23002E+04-1.95477E+06-5.75164E-09 3.25181E-08
 -1       531-6.93286E+06-1.58690E+06-4.43400E+04-3.32713E+06-6.28534E-08-1.28566E-08
 -1       532-8.53943E+06 9.72613E+04-5.88645E+04-1.74642E+06 4.80195E-08-6.85450E-08
 -1       533-6.83350E+06-1.59365E+06-1.26765E+05-3.36357E+06 5.17321E-09-9.90622E-08
 -1       534-8.18395E+06-3.35397E+05-3.09952E+05-1.82155E+06-2.94458E-08 7.26850E-08
 -1       535-7.20090E+06-1.21977E+06-6.15782E+05-3.17284E+06-1.03319E-08 4.93892E-08
 -1       536-2.54401E+05-1.47132E+04 3.40066E+04-3.81378E+03 1.00414E-10 9.23137E-09
 -1       537-2.39252E+05 1.70891E+04 2.41425E+04 6.33490E+03-1.45896E-08 4.71118E-09
 -1       538-2.49208E+05-2.29612E+03 8.70205E+03-3.33762E+03 1.15307E-09 2.28283E-09
 -1       539-2.44213E+05 2.76039E+03 5.92667E+03 4.22263E+03 1.21909E-08 1.64850E-08
 -1       540-2.49378E+05-4.05852E+02 1.89698E+03-1.70124E+03 1.43336E-09 7.71558E-09
 -1       541-2.43968E+05 5.16942E+02 1.91708E+03 4.13957E+02-1.85597E-09 1.03223E-08
 -1       542-2.49456E+05-1.18344E+02 7.69214E+01 4.71328E+02 3.19068E-09 3.05420E-10
 -1       543-2.44940E+05 7.18284E+01 5.63096E+02-3.65785E+03 1.72950E-09-1.41904E-08
 -1       544-2.48451E+05 2.86984E+01-5.26537E+02 2.37057E+03 5.12017E-10-8.30764E-09
 -1       545-2.46978E+05-3.45857E+02-9.17214E+02-6.48543E+03-4.13593E-10-6.67092E-09
 -1       546-2.47435E+05 3.67030E+02-1.93748E+03 3.29931E+03 1.61701E-09-1.08375E-08
 -1       547-2.48430E+05-2.33883E+03-4.80817E+03-7.03962E+03-6.10710E-09-5.57412E-09
 -1       548-2.46988E+05 2.05486E+03-7.85852E+03 2.92502E+03-7.34269E-09-1.30240E-09
 -1       549-2.52743E+05-1.49146E+04-2.09176E+04-5.10057E+03-4.19786E-09 1.06979E-09
 -1       550-2.43113E+05 1.28734E+04-3.04640E+04 1.35981E+03 1.71383E-10-5.38421E-10
 -1       551 1.14323E+04-4.57293E+05 2.24253E+04-7.62904E+05-3.59287E-08-1.08266E-08
 -1       552 2.50527E+04-4.62630E+05 2.93236E+04-1.08622E+06-2.67173E-08 8.42920E-09
 -1       553 1.73514E+04-4.67952E+05 4.45025E+04-7.60212E+05-4.41869E-08 9.41509E-09
 -1       554 4.85824E+04-4.52985E+05 9.40050E+04-1.08736E+06-2.88928E-08 4.20567E-09
 -1       555 4.45879E+04-4.85940E+05 1.68116E+05-7.61015E+05-4.45216E-08-4.14366E-09
 -1       556 7.55397E+04-1.48207E+05 4.99144E+04-1.90048E+05 4.87489E-10-4.19823E-09
 -1       557 1.37706E+05-1.98618E+05 2.64291E+04-2.40938E+05 9.45874E-09-5.68252E-09
 -1       558 7.49544E+04-1.53982E+05 1.05213E+04-1.84781E+05 2.93949E-09 7.35054E-09
 -1       559 1.28810E+05-2.05299E+05 5.39667E+03-2.45045E+05 4.14730E-09-3.93084E-09
 -1       560 7.27555E+04-1.52505E+05 2.14481E+03-1.86217E+05 4.59841E-09-5.59885E-09
 -1       561 1.25484E+05-2.04362E+05 1.17774E+03-2.47153E+05 5.60249E-09-7.60247E-09
 -1       562 7.10003E+04-1.51337E+05 4.08484E+02-1.87483E+05 3.41242E-09-7.59428E-09
 -1       563 1.23406E+05-2.03469E+05 2.87802E+02-2.48481E+05 1.96451E-10-1.79591E-09
 -1       564 6.98929E+04-1.50621E+05 9.51026E+01-1.88270E+05-6.29734E-09-4.99176E-09
 -1       565 1.22297E+05-2.02994E+05 8.02003E+01-2.49179E+05-3.22507E-09-7.87168E-10
 -1       566 6.94678E+04-1.50341E+05-1.49060E+00-1.88575E+05 1.07893E-08 1.87538E-09
 -1       567 1.22116E+05-2.02907E+05-8.19354E+01-2.49225E+05 6.36533E-10 9.43874E-09
 -1       568 6.97600E+04-1.50534E+05-2.95317E+02-1.88436E+05 3.54339E-09 9.19499E-09
 -1       569 1.22175E+05-2.02797E+05-6.90695E+02-2.47995E+05 9.88075E-09 6.87942E-09
 -1       570 7.13390E+04-1.51887E+05-1.54204E+03-1.88341E+05 2.29920E-09-2.34922E-09
 -1       571 1.87513E+05 6.87544E+03 1.01779E+04-4.80740E+04 9.33687E-09 2.91720E-09
 -1       572 1.89025E+05 2.39733E+03 4.98662E+03-5.27019E+04 1.40385E-08 3.66845E-09
 -1       573 1.88118E+05 5.77608E+02 2.21527E+03-4.79511E+04 6.71935E-09 3.89673E-09
 -1       574 1.88296E+05 1.95055E+02 1.10996E+03-5.28398E+04 9.91349E-11 4.10910E-09
 -1       575 1.88185E+05 3.46458E+01 5.23161E+02-4.79349E+04 1.81421E-09 6.79302E-09
 -1       576 1.88196E+05 1.74339E+01 2.66398E+02-5.28582E+04-9.40190E-11-3.06727E-09
 -1       577 1.88195E+05 5.32575E+00 1.31352E+02-4.79327E+04-1.74396E-10 6.84395E-10
 -1       578 1.88188E+05 7.86007E+00 7.19113E+01-5.28604E+04 9.09495E-12 1.72395E-09
 -1       579 1.88208E+05 2.41719E+00 4.44081E+01-4.79326E+04 7.79892E-10-5.94582E-09
 -1       580 1.88205E+05 8.10887E-01 4.22846E+01-5.28576E+04-9.50422E-11 2.84672E-09
 -1       581 1.88230E+05-6.09112E+00 5.80322E+01-4.79355E+04-3.50155E-10 4.04907E-09
 -1       582 1.88245E+05 2.19017E+00 1.11347E+02-5.28289E+04 9.62245E-10 8.26003E-09
 -1       583 1.88257E+05 2.75595E+01 2.13613E+02-4.79614E+04 3.22052E-09-2.10775E-10
 -1       584 1.88357E+05 1.93780E+02 4.79406E+02-5.26124E+04-4.75666E-10-1.41029E-09
 -1       585 1.88238E+05 6.15009E+02 9.73217E+02-4.81523E+04-6.79393E-10 2.43381E-09
 -1       586-2.18927E+03 6.19764E+04-2.86050E+03-1.65009E+05 1.58252E-10 3.42720E-09
 -1       587-4.53665E+02 6.15974E+04-2.29158E+02-1.81589E+05 4.00178E-10 8.09177E-09
 -1       588 6.57832E+02 6.16600E+04 2.25401E+03-1.64914E+05 1.95541E-10 7.85531E-09
 -1       589 3.26066E+03 6.28859E+04 6.44041E+03-1.81429E+05 1.94632E-10 1.28966E-09
 -1       590 9.37946E+03 6.09080E+04 1.37447E+04-1.65172E+05 1.15506E-10-1.10776E-09
 -1       591-4.10386E+04-1.15371E+04-1.35272E+04-2.10172E+04 1.58764E-10-6.33918E-10
 -1       592-4.23786E+04-1.47861E+04-7.32691E+03-2.44620E+04 3.38332E-10-1.10231E-09
 -1       593-4.24055E+04-1.05413E+04-3.05025E+03-2.19952E+04-1.94177E-09-8.38065E-09
 -1       594-4.04948E+04-1.28187E+04-1.52129E+03-2.45545E+04 1.02682E-09 6.50999E-10
 -1       595-4.25103E+04-1.05367E+04-6.99107E+02-2.20401E+04-1.24948E-09 1.37518E-08
 -1       596-4.03672E+04-1.27286E+04-3.56336E+02-2.45412E+04 7.97002E-10-1.65386E-10
 -1       597-4.25236E+04-1.05454E+04-1.96089E+02-2.20419E+04 2.05611E-09 1.48037E-09
 -1       598-4.03551E+04-1.27252E+04-1.61398E+02-2.45374E+04-7.11452E-10 2.02061E-09
 -1       599-4.25225E+04-1.05455E+04-2.10873E+02-2.20416E+04-3.60842E-10-7.79460E-09
 -1       600-4.03686E+04-1.27298E+04-3.95505E+02-2.45407E+04 5.60021E-10 6.51687E-09
 -1       601-4.25058E+04-1.05362E+04-7.82224E+02-2.20388E+04-8.95398E-10-4.01690E-09
 -1       602-4.05114E+04-1.28307E+04-1.70581E+03-2.45538E+04 2.15437E-10-6.92694E-10
 -1       603-4.23869E+04-1.05430E+04-3.42144E+03-2.19887E+04 3.86535E-12 3.37241E-09
 -1       604-4.26314E+04-1.50295E+04-8.21878E+03-2.44394E+04 1.21418E-10-3.03976E-09
 -1       605-4.08443E+04-1.16669E+04-1.51736E+04-2.08993E+04 8.54243E-10 7.45422E-09
 -1       606 2.61198E+04-9.02996E+03-1.62550E+04 2.54487E+04-6.71935E-09-3.63798E-09
 -1       607 2.33361E+04-2.91508E+03-8.09401E+03 2.85683E+04-3.01407E-09-1.20139E-08
 -1       608 2.49146E+04-4.93667E+02-3.62473E+03 2.52462E+04-2.18279E-09 4.18913E-09
 -1       609 2.46000E+04-1.29854E+02-1.83072E+03 2.87922E+04-1.61708E-08 1.79800E-08
 -1       610 2.47678E+04 2.17107E+01-8.74552E+02 2.52236E+04-1.21363E-08 4.98039E-09
 -1       611 2.47080E+04 3.40171E+01-4.41057E+02 2.88167E+04-1.08153E-08 1.16754E-08
 -1       612 2.47280E+04 3.66432E+01-2.11064E+02 2.52214E+04-7.19410E-09 1.90403E-09
 -1       613 2.47050E+04 4.24205E+01-9.60952E+01 2.88196E+04-9.34324E-09-2.47223E-09
 -1       614 2.47061E+04 3.77379E+01-2.66582E+01 2.52206E+04-1.13341E-08 1.68075E-09
 -1       615 2.46933E+04 4.79049E+01 3.05203E+01 2.88200E+04-1.41281E-08-2.76236E-09
 -1       616 2.46894E+04 4.34248E+01 1.00471E+02 2.52208E+04-1.34505E-08-4.21073E-09
 -1       617 2.46991E+04 7.32919E+01 2.32864E+02 2.88195E+04-1.57706E-09-2.32922E-09
 -1       618 2.46644E+04 1.13606E+02 4.70628E+02 2.52210E+04-3.86535E-11 2.79874E-09
 -1       619 2.48615E+04 4.39733E+02 1.05774E+03 2.88188E+04 4.53269E-10-2.52658E-09
 -1       620 2.45056E+04 1.23213E+03 2.12622E+03 2.52199E+04 2.44324E-09 1.33105E-09
 -1       621 3.06204E+02 2.02046E+05 2.68621E+03 7.91603E+03-2.33001E-10-8.20978E-09
 -1       622 3.53141E+02 2.02711E+05 2.31418E+03 1.15514E+04-1.84400E-10-2.11046E-08
 -1       623 1.48364E+01 2.02232E+05 2.70592E+03 7.87883E+03-2.23906E-10-2.07460E-08
 -1       624 1.23590E+03 2.03519E+05 5.17725E+03 1.15881E+04-2.46274E-10-2.08173E-08
 -1       625 1.24181E+03 2.01231E+05 9.01874E+03 7.87959E+03-2.11003E-10-1.05132E-08
 -1       626 1.68486E+05 4.62966E+04 3.39352E+03 9.05490E+04-2.43244E-09-8.25457E-09
 -1       627 1.66233E+05 4.79368E+04 1.63523E+03 9.41829E+04-2.60070E-09-1.40118E-08
 -1       628 1.68609E+05 4.46958E+04 6.90655E+02 9.10655E+04 3.20051E-09 5.26143E-09
 -1       629 1.65747E+05 4.75460E+04 3.38515E+02 9.43993E+04 6.62658E-09 1.12698E-09
 -1       630 1.68616E+05 4.46206E+04 1.56475E+02 9.10792E+04 1.71076E-09-4.13343E-09
 -1       631 1.65687E+05 4.75372E+04 8.41298E+01 9.44004E+04-2.54113E-09-6.61915E-09
 -1       632 1.68607E+05 4.46269E+04 5.53672E+01 9.10715E+04-4.18868E-09-6.20219E-09
 -1       633 1.65675E+05 4.75423E+04 6.16867E+01 9.43935E+04-4.29100E-09 4.68793E-09
 -1       634 1.68597E+05 4.46279E+04 9.96527E+01 9.10670E+04-4.17458E-10 4.59067E-10
 -1       635 1.65678E+05 4.75440E+04 2.01952E+02 9.43928E+04 3.36149E-09-4.46107E-10
 -1       636 1.68586E+05 4.46272E+04 4.07823E+02 9.10639E+04 1.25272E-09-3.07978E-09
 -1       637 1.65762E+05 4.76089E+04 8.96303E+02 9.43887E+04-1.37547E-10-5.36534E-09
 -1       638 1.68551E+05 4.48270E+04 1.84201E+03 9.09719E+04-1.10163E-10-2.27010E-09
 -1       639 1.66726E+05 4.89561E+04 4.35765E+03 9.41023E+04-1.74043E-09-1.36788E-09
 -1       640 1.68422E+05 4.88383E+04 9.04319E+03 8.92690E+04 7.23730E-10-5.76620E-10
 -1       656 4.54655E+04-1.15140E+06-1.09755E+05-3.71084E+02-4.54747E-10-6.03961E-11
 -1       657-6.00827E+04-1.20094E+06-9.07772E+04 7.26749E+03 4.00178E-11-3.22441E-09
 -1       658 1.44216E+04-1.16553E+06-5.57185E+04-1.47957E+03 1.11777E-09 6.34245E-10
 -1       659-6.44561E+04-1.20301E+06-9.65215E+04 8.01536E+03 3.71074E-10 5.44349E-09
 -1       660 4.98284E+04-1.14933E+06-1.19635E+05-1.11894E+03 2.18279E-11-8.38594E-09
 -1       661 1.59596E+05 1.73569E+04 1.53733E+04 6.23828E+04 3.95494E-09-1.57524E-09
 -1       662 1.67645E+05 2.93741E+04 1.03591E+04 5.96639E+04 5.67297E-09-9.48376E-09
 -1       663 1.62610E+05 2.22937E+04 3.62368E+03 6.15127E+04-9.58153E-10-2.10071E-09
 -1       664 1.64157E+05 2.35954E+04 2.16655E+03 6.07218E+04-5.69656E-10-6.04956E-10
 -1       665 1.63061E+05 2.29733E+04 8.54638E+02 6.13861E+04-2.95532E-09 3.93285E-09
 -1       666 1.63627E+05 2.28140E+04 4.98469E+02 6.08841E+04-9.72892E-09 2.69717E-09
 -1       667 1.63137E+05 2.30547E+04 2.62893E+02 6.13582E+04-5.44929E-10-3.44170E-09
 -1       668 1.63547E+05 2.27497E+04 2.63563E+02 6.09241E+04 5.76686E-09-2.58795E-09
 -1       669 1.63142E+05 2.30356E+04 3.53302E+02 6.13467E+04 2.58490E-09 6.56202E-09
 -1       670 1.63636E+05 2.29364E+04 7.66015E+02 6.09232E+04 3.72150E-09 2.35190E-11
 -1       671 1.63048E+05 2.28717E+04 1.35902E+03 6.13576E+04-1.05315E-09-2.14015E-09
 -1       672 1.64429E+05 2.42574E+04 3.47615E+03 6.07307E+04-2.58132E-09-5.04519E-09
 -1       673 1.62353E+05 2.17479E+04 5.82515E+03 6.15265E+04-3.28316E-09-1.17552E-10
 -1       674 1.69976E+05 3.36134E+04 1.66587E+04 5.90991E+04-1.54893E-09-2.91539E-09
 -1       675 1.57537E+05 1.37773E+04 2.47267E+04 6.28907E+04 1.57888E-09-9.62245E-10
 -1       676 1.83904E+01-2.19705E+05-8.53763E+02 3.54791E+01-1.13943E-10 1.41143E-08
 -1       677-2.26618E+02-2.19911E+05-1.56248E+03-7.09239E+01-8.38952E-10 8.87599E-09
 -1       678 1.51352E+02-2.19558E+05-2.76205E+03 3.54203E+01-2.04864E-10 1.49997E-10
 -1       679-2.76263E+03-2.21579E+05-6.56125E+03-7.06950E+01-2.12401E-09-8.38584E-09
 -1       680 1.64877E+03-2.18038E+05-1.05745E+04 3.48450E+01 7.54881E-11 7.79146E-10
 -1       771-2.35208E+06-4.29650E+05-6.05771E+04-9.95366E+05-6.49015E-09-1.22236E-08
 -1       772-2.33176E+06-4.65183E+05-3.22854E+04-1.03527E+06 1.52795E-09 4.68572E-09
 -1       773-2.36116E+06-4.22532E+05-1.43399E+04-9.98755E+05 2.28465E-09 5.67525E-09
 -1       774-2.32356E+06-4.58430E+05-6.86971E+03-1.04029E+06 9.00764E-09-1.09685E-09
 -1       775-2.36388E+06-4.20679E+05-3.76312E+03-9.99196E+05-5.57338E-09-4.14366E-09
 -1       776-2.32394E+06-4.58491E+05-1.65469E+03-1.04332E+06-4.18731E-09 2.10457E-09
 -1       777-2.36592E+06-4.19176E+05-1.21379E+03-9.99521E+05-7.42148E-10 1.97542E-09
 -1       778-2.32478E+06-4.58720E+05-4.72175E+02-1.04587E+06 6.69388E-10 4.16730E-09
 -1       779-2.36759E+06-4.17899E+05-5.50739E+02-9.99807E+05-5.36966E-09-1.51886E-09
 -1       780-2.32558E+06-4.58897E+05-3.01268E+02-1.04792E+06-1.53195E-08-1.77079E-09
 -1       781-2.36886E+06-4.16883E+05-5.55071E+02-1.00003E+06-1.39880E-08-3.33966E-09
 -1       782-2.32627E+06-4.59056E+05-8.36626E+02-1.04944E+06-1.14960E-08-3.20551E-09
 -1       783-2.36968E+06-4.16205E+05-1.68741E+03-1.00017E+06-5.63159E-09-8.06529E-09
 -1       784-2.32765E+06-4.60174E+05-3.92004E+03-1.05031E+06-6.75936E-09-7.02585E-11
 -1       785-2.36940E+06-4.16383E+05-7.26520E+03-9.99723E+05-1.09285E-08 3.40879E-09
 -1       786 1.65931E+05-9.08742E+03 2.10239E+04-2.72939E+01 3.40778E-06 2.42317E-08
 -1       787 1.75041E+05 1.05204E+04 1.48740E+04 7.07806E+00 6.78856E-06 1.95596E-08
 -1       788 1.69446E+05-1.42455E+03 5.44144E+03-1.88357E+01 6.45509E-06-2.95086E-09
 -1       789 1.70947E+05 1.64828E+03 3.41875E+03-7.72001E+00 6.10877E-06 1.62694E-08
 -1       790 1.70026E+05-2.22521E+02 1.39075E+03-1.24966E+01 5.99379E-06-1.29312E-08
 -1       791 1.70270E+05 2.58441E+02 8.15895E+02-2.04805E+01 5.87291E-06 2.08432E-08
 -1       792 1.70123E+05-3.57599E+01 3.71075E+02-6.07510E+00 2.93929E-06-4.93998E-09
 -1       793 1.70160E+05 4.95913E+01 2.40517E+02-3.52638E+01 8.65105E-09-2.28596E-10
 -1       794 1.70136E+05-1.38069E+01 1.74120E+02 2.28692E+00 7.04556E-10 3.97857E-09
 -1       795 1.70169E+05 6.97029E+01 2.46018E+02-5.62725E+01-1.05153E-09-4.08031E-09
 -1       796 1.70115E+05-5.58542E+01 3.64974E+02 1.49340E+01 3.39425E-10-3.23817E-09
 -1       797 1.70334E+05 4.09111E+02 8.57644E+02-8.93933E+01-4.81364E-10-3.34722E-09
 -1       798 1.69971E+05-3.52968E+02 1.35278E+03 3.54083E+01-1.12983E-10 1.55137E-09
 -1       799 1.71348E+05 2.60616E+03 3.68715E+03-1.44158E+02-5.93004E-10 4.09477E-09
 -1       800 1.69100E+05-2.25114E+03 5.20799E+03 6.96998E+01 1.53313E-10 1.02750E-09
 -1       801 8.96158E+03-6.02061E+05-4.66247E+04 2.28615E+04 1.17325E-08 3.18278E-09
 -1       802-7.96794E+02-4.83621E+05 1.29439E+04-7.51211E+04 3.17677E-08-8.30596E-10
 -1       803-7.41910E+03-5.46437E+05 3.88580E+04 3.58842E+04 2.49966E-08 2.13375E-08
 -1       804 9.92724E+04-4.24421E+05 1.44785E+05-7.25381E+04 2.88310E-08 2.60483E-08
 -1       805-9.13500E+04-6.60780E+05 1.72742E+05 2.02730E+04 1.03319E-08 2.35607E-08
 -1       806-2.04406E+05-4.29242E+04-1.70186E+04-8.42009E+04-1.17825E-09 8.00037E-09
 -1       807-2.05492E+05-4.04023E+04-8.36090E+03-8.86160E+04-1.92483E-09-5.83259E-09
 -1       808-2.04883E+05-3.67810E+04-3.54669E+03-8.70926E+04-3.30829E-10 3.01030E-09
 -1       809-2.03713E+05-3.80752E+04-1.73393E+03-8.88498E+04-3.56431E-09 1.65915E-09
 -1       810-2.04958E+05-3.65648E+04-7.94020E+02-8.72202E+04-5.86556E-09 1.15331E-08
 -1       811-2.03576E+05-3.79829E+04-3.93898E+02-8.88283E+04-1.03853E-08 1.08478E-08
 -1       812-2.04970E+05-3.65814E+04-1.96849E+02-8.72198E+04-5.41922E-09-6.47083E-09
 -1       813-2.03558E+05-3.79852E+04-1.24531E+02-8.88169E+04 1.79648E-09 1.56194E-09
 -1       814-2.04968E+05-3.65877E+04-1.17459E+02-8.72170E+04-4.37967E-09-1.38034E-08
 -1       815-2.03560E+05-3.79873E+04-1.84351E+02-8.88134E+04-2.87127E-09-1.38539E-09
 -1       816-2.04955E+05-3.65866E+04-3.45830E+02-8.72145E+04-4.12456E-09 6.99856E-09
 -1       817-2.03619E+05-3.80204E+04-7.41418E+02-8.88066E+04-1.42904E-09 3.06068E-09
 -1       818-2.04911E+05-3.66909E+04-1.51116E+03-8.71651E+04 1.88993E-09 4.39013E-09
 -1       819-2.04452E+05-3.89282E+04-3.55636E+03-8.86052E+04-1.00408E-09 1.47720E-08
 -1       820-2.04624E+05-3.93789E+04-7.23795E+03-8.60177E+04-6.26642E-10 3.40583E-09
 -1       821-2.63007E+05 1.45620E+04-3.36769E+04 1.26361E+02 1.85656E-10-5.77711E-09
 -1       822-2.77602E+05-1.68580E+04-2.38313E+04-7.02082E+02-1.83041E-09 2.44472E-09
 -1       823-2.68640E+05 2.28303E+03-8.72237E+03 1.02306E+02 9.71339E-10 7.34781E-09
 -1       824-2.71032E+05-2.64245E+03-5.48787E+03-5.49115E+02-4.87560E-10 6.83121E-09
 -1       825-2.69575E+05 3.57252E+02-2.25618E+03-2.66107E+01-2.76604E-09-5.40354E-10
 -1       826-2.69943E+05-4.21288E+02-1.36093E+03-2.39217E+02-4.99728E-09-5.34374E-09
 -1       827-2.69728E+05 6.32887E+01-7.05831E+02-2.07597E+02-4.23842E-09-1.66773E-09
 -1       828-2.69796E+05-1.28554E+02-6.22891E+02 1.03067E+02-4.67703E-09 8.38580E-09
 -1       829-2.69721E+05 6.47906E+01-7.16816E+02-3.68901E+02 5.61233E-10 1.07666E-08
 -1       830-2.69965E+05-4.32816E+02-1.39919E+03 3.42000E+02 3.04902E-09 2.41187E-09
 -1       831-2.69560E+05 3.67577E+02-2.31768E+03-4.46536E+02-2.21461E-09-3.58966E-09
 -1       832-2.71080E+05-2.71818E+03-5.64781E+03 3.83397E+02-3.54939E-10 3.18414E-09
 -1       833-2.68607E+05 2.34855E+03-8.97505E+03-4.10298E+02-4.78854E-10 8.57654E-10
 -1       834-2.77821E+05-1.73452E+04-2.45203E+04 2.12750E+02-3.14373E-10-1.56933E-09
 -1       835-2.62821E+05 1.49831E+04-3.46558E+04-2.75877E+02 4.91799E-09-4.30191E-09
 -1       836-8.76180E+02 2.47849E+05 1.49562E+04-2.08612E+04 1.38562E-09 9.07175E-09
 -1       837 3.29085E+03 2.52481E+05 1.27687E+04-4.18988E+04 2.01317E-09 4.61750E-09
 -1       838-3.21779E+02 2.49136E+05 1.31660E+04-2.07899E+04 2.12731E-09 8.69591E-10
 -1       839 8.44976E+03 2.56326E+05 2.50597E+04-4.19258E+04 2.72712E-09-5.71006E-10
 -1       840-2.54037E+03 2.43967E+05 4.00247E+04-2.08326E+04 1.69712E-09 1.50567E-09
 -1       856-7.89874E+04 6.93448E+03-1.82742E+04-4.08197E+02-2.35855E-09 4.72301E-09
 -1       857-8.65358E+04-8.13321E+03-1.25814E+04 4.19337E+03-3.62428E-09-6.12113E-09
 -1       858-8.19698E+04 9.71624E+02-4.74267E+03-4.27196E+02-1.29512E-09 6.92580E-10
 -1       859-8.31109E+04-1.12964E+03-2.86432E+03 4.22366E+03 2.52815E-09 1.14105E-08
 -1       860-8.24156E+04 1.35115E+02-1.20422E+03-4.38616E+02 1.35080E-09 2.47263E-09
 -1       861-8.25974E+04-1.49109E+02-6.70461E+02 4.23929E+03-2.99528E-09-1.01790E-08
 -1       862-8.24850E+04 1.78745E+01-2.94736E+02-4.42848E+02 6.56379E-09-1.90404E-09
 -1       863-8.25152E+04-1.05652E+01-1.43762E+02 4.24119E+03 8.19206E-09 3.08689E-09
 -1       864-8.24980E+04-3.80875E-01-4.11249E+01-4.40525E+02 4.08025E-09 2.80274E-09
 -1       865-8.24898E+04 2.32510E+01 3.82135E+01 4.22948E+03 4.97347E-09-7.39996E-09
 -1       866-8.25090E+04-1.63546E+01 1.19080E+02-4.31133E+02-1.26386E-09-8.02543E-09
 -1       867-8.24226E+04 1.36964E+02 3.20145E+02 4.20399E+03 1.20971E-09-6.99585E-09
 -1       868-8.25623E+04-1.13250E+02 5.38448E+02-4.15034E+02 3.47330E-09 1.45300E-09
 -1       869-8.20197E+04 9.39583E+02 1.44373E+03 4.16181E+03 1.65073E-09-6.31405E-09
 -1       870-8.29074E+04-7.98938E+02 2.09377E+03-3.88951E+02-1.43064E-09 5.39444E-10
 -1       871-3.86619E+03-8.25781E+03-1.25483E+04 8.24204E+04 1.66619E-09-4.30100E-09
 -1       872-1.68033E+03-1.10677E+04-5.11761E+03 1.06853E+05 3.09774E-09-3.32875E-10
 -1       873-3.96830E+01-9.75567E+03 7.24166E+02 8.22391E+04 1.92131E-09 5.79280E-09
 -1       874 1.92244E+03-7.93391E+03 7.10260E+03 1.06891E+05 4.03907E-09 7.28005E-09
 -1       875 4.55782E+03-1.14410E+04 1.57551E+04 8.23905E+04 1.79989E-09 8.02902E-09
 -1       876 2.04788E+05 3.52810E+04 1.09428E+04 8.30796E+04-8.00924E-09-1.72258E-09
 -1       877 2.05413E+05 3.76833E+04 5.84368E+03 8.63158E+04-1.46410E-08-3.46847E-09
 -1       878 2.05810E+05 3.40699E+04 2.44823E+03 8.39782E+04-1.61867E-09 1.08475E-08
 -1       879 2.03924E+05 3.62009E+04 1.21959E+03 8.63933E+04-1.98270E-09-1.78238E-09
 -1       880 2.05885E+05 3.40564E+04 5.67798E+02 8.40148E+04-2.06910E-11-3.81368E-09
 -1       881 2.03826E+05 3.61379E+04 3.02442E+02 8.63778E+04 4.07226E-09 2.42025E-09
 -1       882 2.05892E+05 3.40654E+04 1.92168E+02 8.40159E+04 4.63763E-09-5.72697E-10
 -1       883 2.03818E+05 3.61349E+04 2.04456E+02 8.63733E+04 4.87626E-09 1.42268E-09
 -1       884 2.05888E+05 3.40631E+04 3.23310E+02 8.40160E+04-4.04611E-10 7.78863E-09
 -1       885 2.03844E+05 3.61395E+04 6.48827E+02 8.63815E+04 4.76984E-09 1.47259E-09
 -1       886 2.05863E+05 3.40442E+04 1.30712E+03 8.40134E+04 1.97360E-09 1.98770E-09
 -1       887 2.04074E+05 3.62901E+04 2.85503E+03 8.64145E+04-4.82328E-09-3.11832E-09
 -1       888 2.05683E+05 3.40760E+04 5.75294E+03 8.39220E+04 6.23396E-09-1.60117E-09
 -1       889 2.07502E+05 3.98492E+04 1.37433E+04 8.63058E+04 9.64418E-09-9.21182E-09
 -1       890 2.03339E+05 3.68602E+04 2.57402E+04 8.17274E+04 7.24640E-09-6.42649E-09
 -1       891-1.28142E+02-1.16284E+05-1.37466E+03 2.19941E+04 1.50237E-09 4.17060E-09
 -1       892-2.22953E+02-1.16613E+05-1.49480E+03 3.32828E+04-1.56820E-09 2.84217E-09
 -1       893-3.69139E+01-1.16327E+05-2.13544E+03 2.19983E+04-3.38446E-09 3.07182E-09
 -1       894-1.16844E+03-1.17431E+05-4.43343E+03 3.31643E+04-2.97177E-09 2.90220E-09
 -1       895-9.13319E+02-1.15405E+05-7.81248E+03 2.21109E+04 1.39460E-09-6.93080E-09
 -1       956-2.57668E+05-3.70243E+03-9.32198E+03 1.71304E+04-2.88946E-09-4.70732E-09
 -1       957-2.59509E+05-1.24835E+03-4.78554E+03 2.06287E+04 1.09594E-10-8.91941E-09
 -1       958-2.58495E+05-9.87975E+01-2.15601E+03 1.70196E+04 6.20457E-09-4.08932E-09
 -1       959-2.58642E+05-1.61737E+01-1.10124E+03 2.07487E+04 6.39920E-09 8.15317E-09
 -1       960-2.58569E+05 3.18565E+01-5.36788E+02 1.70090E+04 6.68933E-10 4.08068E-09
 -1       961-2.58579E+05 3.02708E+01-2.84633E+02 2.07607E+04-4.54384E-09 6.91739E-09
 -1       962-2.58584E+05 2.81295E+01-1.62591E+02 1.70074E+04-2.19143E-09-6.32326E-10
 -1       963-2.58576E+05 3.14743E+01-1.29906E+02 2.07629E+04-2.67380E-09 4.18117E-09
 -1       964-2.58587E+05 2.99894E+01-1.56938E+02 1.70068E+04-1.15574E-09 1.10174E-09
 -1       965-2.58586E+05 3.43430E+01-2.70543E+02 2.07630E+04-1.17001E-09-2.08308E-09
 -1       966-2.58579E+05 3.73444E+01-5.07474E+02 1.70074E+04-5.44105E-09-4.68151E-09
 -1       967-2.58653E+05-5.55753E+00-1.04065E+03 2.07564E+04-5.19128E-09 1.35446E-09
 -1       968-2.58515E+05-8.23513E+01-2.03640E+03 1.70135E+04-3.70733E-09 2.22479E-09
 -1       969-2.59479E+05-1.16630E+03-4.52139E+03 2.06845E+04-1.85196E-09 7.61958E-09
 -1       970-2.57738E+05-3.48475E+03-8.80665E+03 1.70818E+04-4.10637E-10-9.04947E-10
 -1       971-2.44277E+05-1.28615E+03-7.15642E+03 1.18723E+04-4.90991E-09-1.02347E-09
 -1       972-2.46018E+05-9.21396E+02-3.89742E+03 1.65836E+04-1.43541E-09-6.71548E-09
 -1       973-2.45072E+05-7.46812E+00-1.74511E+03 1.17734E+04-6.95309E-10 1.67529E-09
 -1       974-2.45194E+05-7.17487E+00-9.04074E+02 1.66903E+04 5.70253E-10-4.83828E-09
 -1       975-2.45134E+05 2.57298E+01-4.50820E+02 1.17645E+04 6.08452E-10 1.41245E-09
 -1       976-2.45144E+05 3.00314E+01-2.58223E+02 1.67010E+04-2.41744E-09 3.42152E-09
 -1       977-2.45145E+05 2.53355E+01-1.84009E+02 1.17626E+04 1.25169E-09 8.79936E-10
 -1       978-2.45147E+05 3.40404E+01-2.10728E+02 1.67037E+04 7.25151E-09 4.77883E-09
 -1       979-2.45145E+05 3.09253E+01-3.34585E+02 1.17617E+04 3.18892E-09-2.61252E-09
 -1       980-2.45171E+05 3.60580E+01-6.43543E+02 1.67041E+04 5.13725E-09-8.01572E-09
 -1       981-2.45124E+05 4.69581E+01-1.24506E+03 1.17621E+04 1.91483E-09 6.02824E-09
 -1       982-2.45342E+05-5.57632E+01-2.57276E+03 1.66992E+04-1.78989E-09 2.42244E-09
 -1       983-2.44968E+05-3.24990E+01-4.99845E+03 1.17669E+04 1.86833E-09 3.79919E-09
 -1       984-2.47746E+05-2.66580E+03-1.11932E+04 1.66322E+04-1.14596E-09 5.08385E-09
 -1       985-2.42705E+05-3.68984E+03-2.05543E+04 1.18339E+04 2.46837E-09-1.96178E-09
 -3
    1PSTEP                        11           6           1          
  100CL  106 5.15625E-01         409                     0    6           1
 -4  DISP        4    1
 -5  D1          1    2    1    0
 -5  D2          1    2    2    0
 -5  D3          1    2    3    0
 -5  ALL         1    2    0    0    1ALL
 -1         1 1.63891E-04 0.00000E+00 0.00000E+00
 -1         2 1.47119E-04-7.82579E-31-1.65436E-24
 -1         3 1.47838E-04 2.19927E-27-1.32349E-23
 -1         5 9.86791E-05 3.58245E-27 0.00000E+00
 -1         8 1.38761E-04-8.78841E-07 0.00000E+00
 -1         9 1.35001E-04-2.61019E-07 0.00000E+00
 -1        10 1.36123E-04-1.95418E-06 0.00000E+00
 -1        12 9.83203E-05 5.65760E-07 1.65436E-24
 -1        15 1.08797E-04-9.74858E-07-4.13590E-25
 -1        16 1.13012E-04-4.45732E-07 0.00000E+00
 -1        17 9.89535E-05-4.16147E-06 0.00000E+00
 -1        18 9.61360E-05 3.18953E-06 0.00000E+00
 -1        19 9.72441E-05 1.12851E-06 0.00000E+00
 -1        20 9.73858E-05 1.38887E-05 0.00000E+00
 -1        21 9.68238E-05 2.56304E-05 0.00000E+00
 -1        24 2.10875E-05-5.79053E-06 0.00000E+00
 -1        25 9.54694E-05 3.32247E-06 0.00000E+00
 -1        26 9.64016E-05 1.56859E-06 0.00000E+00
 -1        27 9.48352E-05 1.13590E-05 0.00000E+00
 -1        28 9.43671E-05 2.51503E-05 0.00000E+00
 -1        32 0.00000E+00 0.00000E+00 0.00000E+00
 -1        33 9.43089E-05 2.10125E-06 0.00000E+00
 -1        34 9.27881E-05 1.13354E-05 0.00000E+00
 -1        35 9.13499E-05 2.48957E-05 0.00000E+00
 -1        51 1.62259E-04-1.45567E-07 0.00000E+00
 -1        52 1.59233E-04-2.85886E-07 0.00000E+00
 -1        53 1.55085E-04-4.27535E-07 0.00000E+00
 -1        54 1.50100E-04-5.72128E-07 0.00000E+00
 -1        55 1.44563E-04-7.20499E-07 5.79026E-24
 -1        56 1.62448E-04-8.19830E-07-2.64698E-23
 -1        57 1.61118E-04-2.10363E-06 0.00000E+00
 -1        58 1.59911E-04-3.70811E-06 0.00000E+00
 -1        59 1.58764E-04-5.50376E-06 0.00000E+00
 -1        60 1.57633E-04-7.33887E-06-5.29396E-23
 -1        61 1.56458E-04-9.06418E-06 2.64698E-23
 -1        62 1.55189E-04-1.05379E-05 5.29396E-23
 -1        63 1.53776E-04-1.16284E-05 2.64698E-23
 -1        64 1.52181E-04-1.22325E-05 0.00000E+00
 -1        65 1.50372E-04-1.22654E-05 2.64698E-23
 -1        66 1.48332E-04-1.16853E-05 0.00000E+00
 -1        67 1.46056E-04-1.04728E-05-2.64698E-23
 -1        68 1.43553E-04-8.65715E-06-5.29396E-23
 -1        69 1.40849E-04-6.28645E-06 0.00000E+00
 -1        70 1.37968E-04-3.45732E-06 0.00000E+00
 -1        86 1.46773E-04-3.62293E-08 1.65436E-24
 -1        87 1.45736E-04-7.34503E-08 0.00000E+00
 -1        88 1.44021E-04-1.11644E-07-3.30872E-24
 -1        89 1.41642E-04-1.54492E-07 0.00000E+00
 -1        90 1.38626E-04-1.97854E-07-6.61744E-24
 -1       121 1.47510E-04-3.23199E-07 1.32349E-23
 -1       122 1.46529E-04-6.46817E-07 6.61744E-24
 -1       123 1.44895E-04-9.71265E-07 6.61744E-24
 -1       124 1.42612E-04-1.29700E-06-3.30872E-24
 -1       125 1.39686E-04-1.62434E-06-6.61744E-24
 -1       191 9.86692E-05 9.42989E-08 3.30872E-24
 -1       192 9.86393E-05 1.88596E-07 0.00000E+00
 -1       193 9.85894E-05 2.82893E-07 3.30872E-24
 -1       194 9.85197E-05 3.77188E-07-1.65436E-24
 -1       195 9.84300E-05 4.71477E-07 0.00000E+00
 -1       251 1.38516E-04 3.51204E-06-6.61744E-24
 -1       252 1.38279E-04 6.68870E-06 0.00000E+00
 -1       253 1.38046E-04 8.62606E-06 0.00000E+00
 -1       254 1.37814E-04 9.31065E-06 3.30872E-24
 -1       255 1.37583E-04 8.87434E-06-6.61744E-24
 -1       256 1.37351E-04 7.45961E-06-3.30872E-24
 -1       257 1.37118E-04 5.32238E-06 0.00000E+00
 -1       258 1.36884E-04 2.72540E-06 3.30872E-24
 -1       259 1.36649E-04-1.53308E-08 0.00000E+00
 -1       260 1.36415E-04-2.58239E-06 0.00000E+00
 -1       261 1.36182E-04-4.67847E-06 0.00000E+00
 -1       262 1.35949E-04-6.01083E-06 0.00000E+00
 -1       263 1.35718E-04-6.37521E-06-6.61744E-24
 -1       264 1.35484E-04-5.57650E-06 0.00000E+00
 -1       265 1.35249E-04-3.55463E-06 1.32349E-23
 -1       266 1.33767E-04-9.06926E-07-6.61744E-24
 -1       267 1.28773E-04-9.21456E-07-1.65436E-24
 -1       268 1.23779E-04-9.36844E-07 0.00000E+00
 -1       269 1.18785E-04-9.49690E-07 4.13590E-25
 -1       270 1.13791E-04-9.62476E-07 4.13590E-25
 -1       271 1.35755E-04 2.98704E-06-2.64698E-23
 -1       272 1.33141E-04 5.68144E-06-1.32349E-23
 -1       273 1.30929E-04 7.31694E-06 5.29396E-23
 -1       274 1.29067E-04 8.00472E-06 2.64698E-23
 -1       275 1.27510E-04 7.87913E-06 0.00000E+00
 -1       276 1.26201E-04 7.08637E-06-2.64698E-23
 -1       277 1.25082E-04 5.78578E-06 0.00000E+00
 -1       278 1.24091E-04 4.14535E-06 0.00000E+00
 -1       279 1.23161E-04 2.33956E-06 0.00000E+00
 -1       280 1.22227E-04 5.45830E-07-2.64698E-23
 -1       281 1.21222E-04-1.05876E-06 0.00000E+00
 -1       282 1.20082E-04-2.30034E-06 0.00000E+00
 -1       283 1.18744E-04-3.01213E-06 0.00000E+00
 -1       284 1.17153E-04-3.03506E-06-1.32349E-23
 -1       285 1.15249E-04-2.22660E-06 2.64698E-23
 -1       301 1.30993E-04-3.03882E-07 0.00000E+00
 -1       302 1.27029E-04-3.26768E-07 3.30872E-24
 -1       303 1.23180E-04-3.48338E-07 0.00000E+00
 -1       304 1.19515E-04-3.70338E-07 0.00000E+00
 -1       305 1.16103E-04-3.93704E-07 1.32349E-23
 -1       306 1.32171E-04 1.27313E-06 5.29396E-23
 -1       307 1.30519E-04-5.23354E-07 0.00000E+00
 -1       308 1.29968E-04-5.26351E-06-5.29396E-23
 -1       309 1.30292E-04-1.24106E-05 0.00000E+00
 -1       310 1.31133E-04-2.09646E-05 0.00000E+00
 -1       311 1.32091E-04-2.98434E-05 2.64698E-23
 -1       312 1.32748E-04-3.79021E-05 5.29396E-23
 -1       313 1.32700E-04-4.40472E-05 0.00000E+00
 -1       314 1.31672E-04-4.75475E-05 5.29396E-23
 -1       315 1.29442E-04-4.78330E-05 0.00000E+00
 -1       316 1.26015E-04-4.49422E-05 0.00000E+00
 -1       317 1.21468E-04-3.91045E-05 2.64698E-23
 -1       318 1.16093E-04-3.11043E-05-5.29396E-23
 -1       319 1.10250E-04-2.18495E-05-2.64698E-23
 -1       320 1.04362E-04-1.24944E-05 0.00000E+00
 -1       336 1.31847E-04-2.31225E-06 6.61744E-24
 -1       337 1.26783E-04-2.67433E-06 0.00000E+00
 -1       338 1.20945E-04-3.04035E-06-6.61744E-24
 -1       339 1.14348E-04-3.41035E-06 0.00000E+00
 -1       340 1.07010E-04-3.78536E-06 6.61744E-24
 -1       406 9.81908E-05 6.60029E-07 0.00000E+00
 -1       407 9.80413E-05 7.54264E-07 0.00000E+00
 -1       408 9.78718E-05 8.48440E-07 0.00000E+00
 -1       409 9.76824E-05 9.42440E-07 0.00000E+00
 -1       410 9.74731E-05 1.03608E-06-3.30872E-24
 -1       521 1.15530E-04-1.64844E-05 0.00000E+00
 -1       522 1.29677E-04-6.69676E-05 5.29396E-23
 -1       523 1.51954E-04-1.43551E-04 1.05879E-22
 -1       524 1.78652E-04-2.35560E-04-5.29396E-23
 -1       525 2.05714E-04-3.28861E-04 1.05879E-22
 -1       526 2.29077E-04-4.09204E-04-5.29396E-23
 -1       527 2.44991E-04-4.65257E-04 0.00000E+00
 -1       528 2.49734E-04-4.87879E-04 5.29396E-23
 -1       529 2.41372E-04-4.75188E-04-1.05879E-22
 -1       530 2.18995E-04-4.28271E-04-5.29396E-23
 -1       531 1.85089E-04-3.55259E-04 0.00000E+00
 -1       532 1.43655E-04-2.66196E-04 5.29396E-23
 -1       533 1.00870E-04-1.74304E-04 1.05879E-22
 -1       534 6.31348E-05-9.29772E-05 0.00000E+00
 -1       535 3.53362E-05-3.35658E-05 0.00000E+00
 -1       536 9.87786E-05 6.01523E-06 0.00000E+00
 -1       537 9.85690E-05 1.97000E-05-1.65436E-24
 -1       538 9.83355E-05 3.51075E-05 0.00000E+00
 -1       539 9.81041E-05 5.04442E-05 1.65436E-24
 -1       540 9.78977E-05 6.39309E-05 0.00000E+00
 -1       541 9.77321E-05 7.37980E-05 1.65436E-24
 -1       542 9.75989E-05 7.91473E-05-3.30872E-24
 -1       543 9.74794E-05 7.91048E-05 1.65436E-24
 -1       544 9.73482E-05 7.40877E-05-3.30872E-24
 -1       545 9.71854E-05 6.45401E-05-1.65436E-24
 -1       546 9.69917E-05 5.19941E-05 3.30872E-24
 -1       547 9.67797E-05 3.79977E-05-1.65436E-24
 -1       548 9.65736E-05 2.44500E-05 0.00000E+00
 -1       549 9.63965E-05 1.32479E-05-1.65436E-24
 -1       550 9.62512E-05 5.72374E-06 1.65436E-24
 -1       551 8.85623E-05-4.40116E-06-6.61744E-24
 -1       552 7.62656E-05-4.65696E-06-1.65436E-24
 -1       553 6.27118E-05-4.92742E-06-3.30872E-24
 -1       554 4.85594E-05-5.20780E-06-6.61744E-24
 -1       555 3.44667E-05-5.49017E-06 0.00000E+00
 -1       556 9.61398E-05 3.12198E-06 2.64698E-23
 -1       557 9.39633E-05 8.76888E-06 1.32349E-23
 -1       558 9.23556E-05 1.29252E-05 0.00000E+00
 -1       559 9.12545E-05 1.57486E-05 0.00000E+00
 -1       560 9.05979E-05 1.73963E-05 0.00000E+00
 -1       561 9.03247E-05 1.80267E-05 0.00000E+00
 -1       562 9.03742E-05 1.77983E-05 0.00000E+00
 -1       563 9.06861E-05 1.68698E-05 0.00000E+00
 -1       564 9.12004E-05 1.54002E-05 0.00000E+00
 -1       565 9.18575E-05 1.35485E-05 0.00000E+00
 -1       566 9.25978E-05 1.14739E-05 0.00000E+00
 -1       567 9.33619E-05 9.33542E-06-3.10193E-25
 -1       568 9.40904E-05 7.29237E-06 0.00000E+00
 -1       569 9.47240E-05 5.50371E-06 0.00000E+00
 -1       570 9.52031E-05 4.12850E-06 0.00000E+00
 -1       571 9.62032E-05 3.08884E-06-4.13590E-25
 -1       572 9.62719E-05 2.94341E-06 0.00000E+00
 -1       573 9.63411E-05 2.76164E-06-1.65436E-24
 -1       574 9.64105E-05 2.55232E-06 8.27181E-25
 -1       575 9.64799E-05 2.32431E-06 1.65436E-24
 -1       576 9.65494E-05 2.08650E-06 0.00000E+00
 -1       577 9.66189E-05 1.84781E-06 0.00000E+00
 -1       578 9.66884E-05 1.61715E-06-1.65436E-24
 -1       579 9.67579E-05 1.40344E-06 0.00000E+00
 -1       580 9.68274E-05 1.21559E-06 0.00000E+00
 -1       581 9.68969E-05 1.06252E-06-3.30872E-24
 -1       582 9.69664E-05 9.53125E-07 0.00000E+00
 -1       583 9.70359E-05 8.96316E-07 0.00000E+00
 -1       584 9.71054E-05 9.00892E-07 0.00000E+00
 -1       585 9.71748E-05 9.75603E-07 0.00000E+00
 -1       586 9.59913E-05 3.21307E-06 8.27181E-25
 -1       587 9.58196E-05 3.23605E-06-1.03398E-25
 -1       588 9.56512E-05 3.25879E-06 0.00000E+00
 -1       589 9.55165E-05 3.28116E-06 0.00000E+00
 -1       590 9.54461E-05 3.30288E-06 0.00000E+00
 -1       591 9.61405E-05 3.12780E-06 0.00000E+00
 -1       592 9.61549E-05 3.03245E-06-4.13590E-25
 -1       593 9.61792E-05 2.91012E-06-4.13590E-25
 -1       594 9.62111E-05 2.76670E-06 4.13590E-25
 -1       595 9.62486E-05 2.60819E-06 0.00000E+00
 -1       596 9.62895E-05 2.44054E-06-4.13590E-25
 -1       597 9.63315E-05 2.26968E-06 0.00000E+00
 -1       598 9.63725E-05 2.10157E-06-2.06795E-25
 -1       599 9.64103E-05 1.94212E-06-4.13590E-25
 -1       600 9.64426E-05 1.79728E-06-2.06795E-25
 -1       601 9.64672E-05 1.67299E-06-4.13590E-25
 -1       602 9.64820E-05 1.57519E-06-1.03398E-25
 -1       603 9.64847E-05 1.50981E-06-2.06795E-25
 -1       604 9.64733E-05 1.48285E-06 0.00000E+00
 -1       605 9.64455E-05 1.50023E-06 0.00000E+00
 -1       606 9.72565E-05 1.43859E-06 0.00000E+00
 -1       607 9.72664E-05 1.84229E-06 0.00000E+00
 -1       608 9.72757E-05 2.33411E-06 0.00000E+00
 -1       609 9.72846E-05 2.90785E-06 0.00000E+00
 -1       610 9.72934E-05 3.55729E-06 0.00000E+00
 -1       611 9.73020E-05 4.27611E-06 1.65436E-24
 -1       612 9.73107E-05 5.05798E-06 0.00000E+00
 -1       613 9.73192E-05 5.89659E-06 0.00000E+00
 -1       614 9.73277E-05 6.78561E-06 0.00000E+00
 -1       615 9.73362E-05 7.71871E-06 0.00000E+00
 -1       616 9.73446E-05 8.68956E-06 0.00000E+00
 -1       617 9.73530E-05 9.69184E-06-4.13590E-25
 -1       618 9.73614E-05 1.07192E-05 0.00000E+00
 -1       619 9.73697E-05 1.17654E-05 0.00000E+00
 -1       620 9.73779E-05 1.28240E-05 0.00000E+00
 -1       621 9.70357E-05 1.20194E-06 1.65436E-24
 -1       622 9.68649E-05 1.27569E-06 0.00000E+00
 -1       623 9.67240E-05 1.34943E-06 0.00000E+00
 -1       624 9.66050E-05 1.42305E-06 0.00000E+00
 -1       625 9.65002E-05 1.49654E-06-1.65436E-24
 -1       626 9.72076E-05 1.46251E-06 0.00000E+00
 -1       627 9.71429E-05 1.87336E-06 0.00000E+00
 -1       628 9.70523E-05 2.35373E-06-3.30872E-24
 -1       629 9.69385E-05 2.89581E-06 0.00000E+00
 -1       630 9.68046E-05 3.49181E-06-3.30872E-24
 -1       631 9.66533E-05 4.13386E-06 0.00000E+00
 -1       632 9.64878E-05 4.81410E-06 6.61744E-24
 -1       633 9.63108E-05 5.52469E-06 0.00000E+00
 -1       634 9.61253E-05 6.25776E-06 3.30872E-24
 -1       635 9.59344E-05 7.00547E-06 1.65436E-24
 -1       636 9.57409E-05 7.75996E-06-3.30872E-24
 -1       637 9.55478E-05 8.51337E-06 0.00000E+00
 -1       638 9.53579E-05 9.25784E-06 0.00000E+00
 -1       639 9.51742E-05 9.98553E-06-8.27181E-25
 -1       640 9.49994E-05 1.06886E-05 0.00000E+00
 -1       656 9.65273E-05 1.34770E-05-6.61744E-24
 -1       657 9.60286E-05 1.30490E-05-3.30872E-24
 -1       658 9.57554E-05 1.26223E-05 1.32349E-23
 -1       659 9.55695E-05 1.21959E-05-3.30872E-24
 -1       660 9.53145E-05 1.17682E-05 6.61744E-24
 -1       661 9.70688E-05 1.49266E-05 8.27181E-25
 -1       662 9.67756E-05 1.59093E-05 0.00000E+00
 -1       663 9.65024E-05 1.68385E-05 0.00000E+00
 -1       664 9.62488E-05 1.77172E-05 0.00000E+00
 -1       665 9.60132E-05 1.85478E-05 0.00000E+00
 -1       666 9.57948E-05 1.93329E-05-8.27181E-25
 -1       667 9.55927E-05 2.00748E-05-1.65436E-24
 -1       668 9.54060E-05 2.07757E-05 8.27181E-25
 -1       669 9.52338E-05 2.14379E-05 0.00000E+00
 -1       670 9.50754E-05 2.20634E-05-8.27181E-25
 -1       671 9.49300E-05 2.26542E-05-1.65436E-24
 -1       672 9.47967E-05 2.32123E-05 8.27181E-25
 -1       673 9.46751E-05 2.37394E-05 1.65436E-24
 -1       674 9.45636E-05 2.42371E-05 8.27181E-25
 -1       675 9.44627E-05 2.47074E-05-4.13590E-25
 -1       676 9.64133E-05 2.55499E-05 0.00000E+00
 -1       677 9.60029E-05 2.54695E-05 0.00000E+00
 -1       678 9.55929E-05 2.53890E-05 0.00000E+00
 -1       679 9.51835E-05 2.53089E-05 0.00000E+00
 -1       680 9.47748E-05 2.52287E-05 1.65436E-24
 -1       771 1.59298E-05 4.70591E-06 0.00000E+00
 -1       772 1.14910E-05 1.33093E-05 0.00000E+00
 -1       773 7.73957E-06 2.01206E-05 0.00000E+00
 -1       774 4.62977E-06 2.52498E-05 0.00000E+00
 -1       775 2.11667E-06 2.88093E-05 0.00000E+00
 -1       776 1.53350E-07 3.09166E-05-2.64698E-23
 -1       777-1.30761E-06 3.16920E-05 0.00000E+00
 -1       778-2.31471E-06 3.12596E-05-2.64698E-23
 -1       779-2.91673E-06 2.97458E-05 0.00000E+00
 -1       780-3.16338E-06 2.72802E-05-1.32349E-23
 -1       781-3.10447E-06 2.39946E-05 2.64698E-23
 -1       782-2.79054E-06 2.00227E-05-1.32349E-23
 -1       783-2.27214E-06 1.54999E-05-2.64698E-23
 -1       784-1.60030E-06 1.05632E-05 0.00000E+00
 -1       785-8.26094E-07 5.35028E-06 0.00000E+00
 -1       786 9.55241E-05 3.09918E-06 0.00000E+00
 -1       787 9.55821E-05 2.89437E-06 4.13590E-25
 -1       788 9.56400E-05 2.70504E-06-1.65436E-24
 -1       789 9.56985E-05 2.52822E-06 8.27181E-25
 -1       790 9.57570E-05 2.36263E-06 0.00000E+00
 -1       791 9.58157E-05 2.20701E-06-8.27181E-25
 -1       792 9.58744E-05 2.06147E-06 1.65436E-24
 -1       793 9.59331E-05 1.92614E-06 0.00000E+00
 -1       794 9.59918E-05 1.80253E-06 0.00000E+00
 -1       795 9.60505E-05 1.69216E-06 8.27181E-25
 -1       796 9.61092E-05 1.59838E-06 0.00000E+00
 -1       797 9.61679E-05 1.52456E-06 0.00000E+00
 -1       798 9.62266E-05 1.47677E-06 0.00000E+00
 -1       799 9.62851E-05 1.46116E-06 8.27181E-25
 -1       800 9.63437E-05 1.48823E-06 0.00000E+00
 -1       801 8.89814E-05 2.92445E-06 0.00000E+00
 -1       802 6.91196E-05 2.34235E-06 0.00000E+00
 -1       803 4.32408E-05 1.63652E-06 1.32349E-23
 -1       804 1.88092E-05 9.58125E-07 6.61744E-24
 -1       805 2.28573E-06 4.27953E-07-2.64698E-23
 -1       806 9.54732E-05 3.05252E-06 0.00000E+00
 -1       807 9.54707E-05 2.79102E-06 0.00000E+00
 -1       808 9.54627E-05 2.54239E-06 1.65436E-24
 -1       809 9.54483E-05 2.31025E-06 0.00000E+00
 -1       810 9.54262E-05 2.09821E-06 1.65436E-24
 -1       811 9.53951E-05 1.90981E-06 1.65436E-24
 -1       812 9.53539E-05 1.74859E-06 1.65436E-24
 -1       813 9.53011E-05 1.61807E-06 0.00000E+00
 -1       814 9.52355E-05 1.52179E-06-1.65436E-24
 -1       815 9.51558E-05 1.46325E-06 8.27181E-25
 -1       816 9.50606E-05 1.44598E-06 1.65436E-24
 -1       817 9.49486E-05 1.47349E-06-1.65436E-24
 -1       818 9.48185E-05 1.54928E-06 1.65436E-24
 -1       819 9.46692E-05 1.67685E-06-8.27181E-25
 -1       820 9.44994E-05 1.85971E-06-1.65436E-24
 -1       821 9.63093E-05 1.65191E-06 0.00000E+00
 -1       822 9.62115E-05 1.68889E-06 0.00000E+00
 -1       823 9.61140E-05 1.73691E-06 0.00000E+00
 -1       824 9.60154E-05 1.85326E-06-1.65436E-24
 -1       825 9.59167E-05 2.08134E-06 0.00000E+00
 -1       826 9.58179E-05 2.46404E-06-1.65436E-24
 -1       827 9.57189E-05 3.01277E-06 0.00000E+00
 -1       828 9.56197E-05 3.73824E-06 0.00000E+00
 -1       829 9.55205E-05 4.61518E-06 3.30872E-24
 -1       830 9.54212E-05 5.61764E-06 1.65436E-24
 -1       831 9.53218E-05 6.69417E-06 0.00000E+00
 -1       832 9.52226E-05 7.79293E-06 0.00000E+00
 -1       833 9.51235E-05 8.85759E-06 0.00000E+00
 -1       834 9.50256E-05 9.83196E-06 0.00000E+00
 -1       835 9.49274E-05 1.06782E-05 0.00000E+00
 -1       836 9.62037E-05 1.65726E-06 0.00000E+00
 -1       837 9.58935E-05 1.74791E-06-8.27181E-25
 -1       838 9.55099E-05 1.83839E-06 0.00000E+00
 -1       839 9.50919E-05 1.92828E-06-8.27181E-25
 -1       840 9.46786E-05 2.01804E-06 0.00000E+00
 -1       856 9.48094E-05 1.20138E-05 2.06795E-25
 -1       857 9.47805E-05 1.27753E-05 2.06795E-25
 -1       858 9.47517E-05 1.36265E-05-8.27181E-25
 -1       859 9.47223E-05 1.45507E-05 0.00000E+00
 -1       860 9.46928E-05 1.55310E-05 8.27181E-25
 -1       861 9.46632E-05 1.65504E-05-4.13590E-25
 -1       862 9.46336E-05 1.75919E-05 0.00000E+00
 -1       863 9.46039E-05 1.86383E-05 4.13590E-25
 -1       864 9.45742E-05 1.96726E-05 0.00000E+00
 -1       865 9.45445E-05 2.06779E-05 0.00000E+00
 -1       866 9.45149E-05 2.16371E-05 0.00000E+00
 -1       867 9.44853E-05 2.25332E-05 0.00000E+00
 -1       868 9.44558E-05 2.33493E-05 0.00000E+00
 -1       869 9.44263E-05 2.40686E-05 0.00000E+00
 -1       870 9.43968E-05 2.46745E-05 8.27181E-25
 -1       871 9.43844E-05 1.13580E-05 4.13590E-25
 -1       872 9.40381E-05 1.13548E-05 0.00000E+00
 -1       873 9.37511E-05 1.13513E-05 0.00000E+00
 -1       874 9.34775E-05 1.13472E-05 2.06795E-25
 -1       875 9.31716E-05 1.13427E-05 8.27181E-25
 -1       876 9.46838E-05 1.20231E-05 0.00000E+00
 -1       877 9.45151E-05 1.27391E-05 0.00000E+00
 -1       878 9.43295E-05 1.35006E-05 3.30872E-24
 -1       879 9.41291E-05 1.43020E-05 0.00000E+00
 -1       880 9.39161E-05 1.51373E-05 0.00000E+00
 -1       881 9.36926E-05 1.60006E-05 0.00000E+00
 -1       882 9.34607E-05 1.68862E-05 3.30872E-24
 -1       883 9.32227E-05 1.77882E-05 0.00000E+00
 -1       884 9.29806E-05 1.87008E-05 0.00000E+00
 -1       885 9.27367E-05 1.96182E-05-1.65436E-24
 -1       886 9.24932E-05 2.05346E-05 3.30872E-24
 -1       887 9.22522E-05 2.14442E-05 0.00000E+00
 -1       888 9.20157E-05 2.23411E-05-1.65436E-24
 -1       889 9.17857E-05 2.32194E-05 0.00000E+00
 -1       890 9.15644E-05 2.40734E-05 0.00000E+00
 -1       891 9.39799E-05 2.51077E-05-1.65436E-24
 -1       892 9.35743E-05 2.50650E-05 0.00000E+00
 -1       893 9.31295E-05 2.50222E-05 8.27181E-25
 -1       894 9.26244E-05 2.49796E-05 2.06795E-25
 -1       895 9.20381E-05 2.49370E-05 6.20385E-25
 -1       956 9.42156E-05 2.46298E-06 0.00000E+00
 -1       957 9.41208E-05 2.88499E-06 0.00000E+00
 -1       958 9.40257E-05 3.36088E-06 0.00000E+00
 -1       959 9.39304E-05 3.88381E-06 0.00000E+00
 -1       960 9.38351E-05 4.44699E-06-1.65436E-24
 -1       961 9.37397E-05 5.04355E-06 8.27181E-25
 -1       962 9.36442E-05 5.66664E-06 3.30872E-24
 -1       963 9.35488E-05 6.30938E-06 1.65436E-24
 -1       964 9.34533E-05 6.96492E-06-3.30872E-24
 -1       965 9.33579E-05 7.62637E-06 1.65436E-24
 -1       966 9.32624E-05 8.28688E-06 0.00000E+00
 -1       967 9.31670E-05 8.93958E-06 1.65436E-24
 -1       968 9.30717E-05 9.57760E-06 0.00000E+00
 -1       969 9.29765E-05 1.01941E-05 0.00000E+00
 -1       970 9.28816E-05 1.07822E-05-3.30872E-24
 -1       971 9.26994E-05 1.19067E-05-1.65436E-24
 -1       972 9.26094E-05 1.25567E-05 0.00000E+00
 -1       973 9.25193E-05 1.32770E-05 0.00000E+00
 -1       974 9.24290E-05 1.40583E-05 0.00000E+00
 -1       975 9.23386E-05 1.48917E-05 0.00000E+00
 -1       976 9.22482E-05 1.57680E-05-1.65436E-24
 -1       977 9.21578E-05 1.66782E-05 0.00000E+00
 -1       978 9.20673E-05 1.76133E-05 0.00000E+00
 -1       979 9.19768E-05 1.85640E-05 0.00000E+00
 -1       980 9.18863E-05 1.95214E-05 0.00000E+00
 -1       981 9.17958E-05 2.04763E-05 0.00000E+00
 -1       982 9.17055E-05 2.14196E-05 0.00000E+00
 -1       983 9.16152E-05 2.23422E-05-3.30872E-24
 -1       984 9.15254E-05 2.32352E-05 1.65436E-24
 -1       985 9.14359E-05 2.40892E-05-1.65436E-24
 -3
    1PSTEP                        12           6           1          
  100CL  106 5.15625E-01         409                     0    6           1
 -4  STRESS      6    1
 -5  SXX         1    4    1    1
 -5  SYY         1    4    2    2
 -5  SZZ         1    4    3    3
 -5  SXY         1    4    1    2
 -5  SYZ         1    4    2    3
 -5  SZX         1    4    3    1
 -1         1-2.05078E+06-8.90494E+05-4.30135E+05-1.17805E+06 5.23869E-10-6.53381E-09
 -1         2 2.63559E+03-9.99447E+04 8.60982E+03-3.00032E+02-1.01295E-10-6.39369E-09
 -1         3-1.87507E+02-9.22622E+05 2.20898E+02-4.78655E+02-1.18611E-10-9.70249E-09
 -1         5-3.53383E+00 2.69818E+05 7.01397E+00 1.13256E-01 8.04601E-11-7.92306E-09
 -1         8-9.77315E+05-3.74048E+05-7.88026E+04-5.62369E+05 2.29193E-10-5.00586E-09
 -1         9-1.91117E+06-5.83262E+05-2.26670E+05-5.92466E+05 4.29864E-09 8.94652E-09
 -1        10-8.09113E+02-9.61176E+05-1.28401E+03-3.23802E+03-5.14956E-09-3.41194E-09
 -1        12-6.57797E-01 2.69832E+05 2.27234E+02 9.27404E-01 9.74190E-11 7.53744E-10
 -1        15 2.00175E+03 1.10008E+03 6.47065E+03 4.32300E+00-1.83860E-10 3.16350E-08
 -1        16-3.07746E+06-1.25237E+06-4.96668E+05-1.31453E+06 1.13505E-08-3.93872E-09
 -1        17-1.13613E+06-6.60383E+05-2.20455E+05-5.91164E+05-4.37285E-09 1.01107E-08
 -1        18-4.68333E+04-1.61340E+04-3.23109E+04-6.81828E+04 2.79988E-09-4.95811E-09
 -1        19 8.52048E+04 1.00429E+05-5.61980E+02 1.66378E+04-5.03314E-10 1.98997E-09
 -1        20-3.84764E+04-4.02693E+05-8.90332E+04 2.81034E+04 2.79806E-09-3.92356E-09
 -1        21-3.74098E+01-2.30229E+05-7.40544E+02-6.48344E+01-6.22617E-09-5.84808E-10
 -1        24-3.18206E+06-8.60461E+05-3.89058E+05-1.15781E+06-3.34694E-08-1.61623E-08
 -1        25-1.87995E+04-2.28583E+05-3.47334E+04-1.17942E+05 9.47875E-10 3.63088E-09
 -1        26-2.34044E+04 6.75362E+04-1.44486E+04-8.09986E+03 1.64437E-09 8.06130E-09
 -1        27-6.27736E+04-2.20384E+05-8.24653E+04 4.97036E+04 5.58301E-09-3.09531E-10
 -1        28 1.77853E+04-6.39311E+04 1.30268E+04 1.98367E+04 2.29159E-09-8.57219E-09
 -1        32-9.64345E+05-6.75225E+05 2.44192E+05-5.69362E+05-2.21116E-08 8.57591E-09
 -1        33-1.27059E+05 6.43148E+04 2.28693E+04-3.53799E+04 9.65372E-10-1.06229E-09
 -1        34-1.63344E+05-1.63991E+04 3.98958E+02 5.07545E+04 3.03389E-09 7.01069E-10
 -1        35-1.80984E+04-2.54016E+04-9.98110E+02 4.01063E+04 2.39062E-09-1.68378E-09
 -1        51 1.84568E+04-3.59913E+05 4.59158E+04-9.57265E+05 2.47383E-10 1.99507E-08
 -1        52 1.04685E+04-3.57454E+05 2.93368E+04-1.11644E+06 2.03727E-10 1.97251E-08
 -1        53 7.13219E+03-3.71284E+05 2.35429E+04-9.53910E+05 7.49424E-10 2.37487E-08
 -1        54 1.99653E+04-3.69934E+05 3.60440E+04-1.11992E+06-2.76486E-10 3.51101E-08
 -1        55 3.93291E+04-3.83472E+05 6.32837E+04-9.53363E+05 1.30967E-10 2.40107E-08
 -1        56-3.92529E+06-4.40080E+05-3.16369E+05-1.51518E+06-1.38243E-10-2.61934E-09
 -1        57-4.05794E+06-7.21180E+05-2.13325E+05-1.49668E+06 2.36469E-10 1.59635E-08
 -1        58-3.98928E+06-5.39972E+05-7.44118E+04-1.49476E+06-5.21140E-10 1.28166E-08
 -1        59-3.98394E+06-6.03875E+05-4.44218E+04-1.52089E+06-8.81300E-10-4.74392E-09
 -1        60-3.99852E+06-5.53998E+05-1.73607E+04-1.49211E+06-1.80535E-10-6.50925E-09
 -1        61-3.97498E+06-5.85622E+05-9.84682E+03-1.52182E+06 7.47264E-10 4.49108E-09
 -1        62-3.99804E+06-5.57811E+05-4.71703E+03-1.49392E+06-8.59472E-10 9.33721E-09
 -1        63-3.97877E+06-5.78237E+05-3.78760E+03-1.51590E+06 8.41396E-10 7.72684E-09
 -1        64-3.99460E+06-5.61400E+05-4.30109E+03-1.49796E+06-5.75255E-10 2.31696E-08
 -1        65-3.98770E+06-5.71937E+05-8.49318E+03-1.50644E+06-5.83918E-09-6.90761E-10
 -1        66-3.98905E+06-5.64203E+05-1.49457E+04-1.50331E+06 2.79795E-09-3.71438E-09
 -1        67-4.00551E+06-5.77326E+05-3.79384E+04-1.49399E+06-2.88958E-09 8.10678E-09
 -1        68-3.97695E+06-5.56380E+05-6.36432E+04-1.51032E+06 9.66793E-10 2.54659E-10
 -1        69-4.07466E+06-6.71898E+05-1.82289E+05-1.46705E+06 6.26642E-10-3.46554E-08
 -1        70-3.92071E+06-4.72438E+05-2.70403E+05-1.52938E+06-3.56522E-10-4.24916E-09
 -1        86-1.32464E+03-1.02812E+05 9.18383E+03 1.49997E+02 1.15006E-09-1.22639E-08
 -1        87 8.76398E+03-9.70033E+04 1.92080E+04-5.83239E+02 1.89902E-09-1.51506E-08
 -1        88-7.43225E+03-1.05753E+05 2.93798E+04 4.33206E+02 2.76486E-09-2.78339E-09
 -1        89 5.53584E+04-7.54474E+04 7.92391E+04-1.04194E+03 4.21187E-09-5.30648E-09
 -1        90-4.77563E+04-1.24350E+05 1.11988E+05 6.09185E+02 4.37285E-09 1.02461E-08
 -1       121-2.77317E+02-9.23360E+05 1.26414E+02 2.38856E+02 5.50884E-10-2.63753E-10
 -1       122-1.12940E+02-9.22584E+05 4.71642E+02-9.56647E+02-2.16363E-09 1.15260E-08
 -1       123-3.23943E+02-9.23413E+05 6.76022E+02 7.14979E+02 1.61140E-09 6.18638E-09
 -1       124 7.58768E+02-9.22086E+05 1.95047E+03-2.08513E+03-3.71756E-09-1.15615E-08
 -1       125-8.74165E+02-9.23905E+05 2.90499E+03 1.36569E+03 2.38015E-09 5.39876E-09
 -1       191-3.94343E+00 2.69841E+05 8.46151E+00-5.69796E-02 1.08866E-10-9.87256E-10
 -1       192-4.17759E+00 2.69818E+05 1.48467E+01 5.51822E-01 1.70697E-10-1.15760E-08
 -1       193-5.65533E+00 2.69841E+05 2.76863E+01-4.97363E-01 1.78861E-10-8.13134E-09
 -1       194-6.24939E+00 2.69820E+05 5.61470E+01 1.32927E+00 5.77085E-11-8.61155E-09
 -1       195-8.94531E+00 2.69839E+05 1.09902E+02-8.39238E-01 2.54374E-10 5.00222E-11
 -1       251-6.66215E+05-1.14029E+04 2.63451E+04-3.54977E+03 1.42791E-10 6.40102E-09
 -1       252-6.52528E+05 1.31731E+04 1.89962E+04-6.53356E+02 6.68706E-10-1.78327E-08
 -1       253-6.61849E+05-1.80212E+03 6.71316E+03-9.17559E+01 2.77737E-10 1.66710E-09
 -1       254-6.57940E+05 2.05064E+03 4.55704E+03-7.26593E+03 8.67658E-10-8.09570E-09
 -1       255-6.60838E+05-2.97600E+02 1.71548E+03 3.06262E+03 7.43512E-11 1.17074E-08
 -1       256-6.59494E+05 3.59324E+02 1.24972E+03-1.24559E+04-7.90948E-10 9.46216E-09
 -1       257-6.60365E+05-6.40692E+01 6.82890E+02 5.09817E+03-2.83649E-11 1.73904E-08
 -1       258-6.60074E+05 2.04808E+02 8.23611E+02-1.48956E+04 8.88498E-10 1.49587E-08
 -1       259-6.60305E+05-1.08103E+02 1.14916E+03 5.50249E+03-5.46251E-10 3.44693E-09
 -1       260-6.59566E+05 7.82512E+02 2.48508E+03-1.39745E+04 2.42338E-10-1.48026E-08
 -1       261-6.60854E+05-6.54453E+02 4.08567E+03 4.17702E+03 2.02175E-09 1.08957E-08
 -1       262-6.56874E+05 4.80745E+03 1.02979E+04-9.92674E+03 6.84054E-10 1.08943E-08
 -1       263-6.62924E+05-4.17126E+03 1.60330E+04 1.45461E+03-9.91690E-10 1.18125E-08
 -1       264-6.44193E+05 3.09508E+04 4.43541E+04-3.82670E+03-1.01693E-09 1.12104E-08
 -1       265-6.73461E+05-2.67492E+04 6.23028E+04-1.92301E+03-1.35219E-09 4.61660E-09
 -1       266-3.62372E+04-1.69418E+04 8.50357E+04-9.25108E+01 1.09139E-11-9.23023E-10
 -1       267 4.20101E+04 1.97502E+04 6.00954E+04 1.06724E+02 5.91172E-11-1.44834E-08
 -1       268-5.63342E+03-2.79695E+03 2.23376E+04-1.35993E+01 4.63842E-11 4.85372E-10
 -1       269 6.65148E+03 3.34761E+03 1.45187E+04 1.58403E+01-3.63798E-12-9.67655E-09
 -1       270-9.98395E+02-5.50028E+02 7.00839E+03-2.14968E+00-3.31966E-11 1.33883E-08
 -1       271-3.45571E+06-4.32394E+05-2.63711E+05-1.34688E+06 4.62023E-10-3.49246E-10
 -1       272-3.54248E+06-6.32446E+05-1.69533E+05-1.35310E+06-4.49973E-10-6.06815E-09
 -1       273-3.50681E+06-4.96629E+05-6.23031E+04-1.33343E+06 8.55835E-10 2.93221E-09
 -1       274-3.48204E+06-5.54407E+05-3.48309E+04-1.37422E+06 1.77306E-09-9.01036E-09
 -1       275-3.51545E+06-5.01594E+05-1.45080E+04-1.32937E+06-5.67525E-10 4.33010E-09
 -1       276-3.47138E+06-5.49111E+05-7.67580E+03-1.38107E+06 1.09503E-09 4.05248E-09
 -1       277-3.51795E+06-5.00656E+05-3.76930E+03-1.32735E+06 1.00817E-09 5.65228E-09
 -1       278-3.46864E+06-5.50310E+05-2.71607E+03-1.38402E+06 4.36739E-09 2.54197E-09
 -1       279-3.51855E+06-5.00085E+05-2.89801E+03-1.32671E+06-2.36088E-09-9.37484E-09
 -1       280-3.46917E+06-5.50845E+05-5.31456E+03-1.38386E+06 2.55795E-11 8.32870E-09
 -1       281-3.51741E+06-5.00174E+05-9.69256E+03-1.32749E+06-2.93130E-09 8.35553E-09
 -1       282-3.47574E+06-5.54893E+05-2.32018E+04-1.37994E+06-2.08342E-09-2.21007E-09
 -1       283-3.51171E+06-4.96859E+05-4.13881E+04-1.33015E+06-3.36513E-11 3.08319E-09
 -1       284-3.51611E+06-6.06391E+05-1.12651E+05-1.36536E+06 9.90497E-11-9.00400E-10
 -1       285-3.47734E+06-4.54677E+05-1.75282E+05-1.33956E+06 2.18279E-10-6.17729E-09
 -1       301 1.88597E+04-4.11300E+04 1.40210E+05-8.30395E+04-6.76664E-10 7.06223E-09
 -1       302 1.99748E+04-5.65515E+03 9.51594E+04-1.22190E+05 1.62891E-09-1.75760E-09
 -1       303 1.06758E+03-2.75683E+04 7.82239E+04-8.31609E+04-5.32964E-10 8.25457E-09
 -1       304 2.79023E+04 2.12217E+03 1.21437E+05-1.21763E+05 1.18052E-09 1.14269E-08
 -1       305 2.71361E+04-4.81368E+04 1.98339E+05-8.34783E+04-5.60249E-10 1.06593E-08
 -1       306-5.03268E+06-5.72617E+05-3.78882E+05-1.94954E+06 3.28873E-09-1.70112E-08
 -1       307-5.17087E+06-9.36752E+05-2.56393E+05-1.93510E+06-4.87489E-09 6.60657E-09
 -1       308-5.14052E+06-6.65294E+05-8.92624E+04-1.88550E+06-1.18325E-09 1.08703E-08
 -1       309-5.03864E+06-8.38622E+05-5.34813E+04-2.02424E+06 1.25559E-09 1.52068E-08
 -1       310-5.16608E+06-6.67104E+05-2.06364E+04-1.86249E+06 2.26441E-09-3.16595E-09
 -1       311-5.01976E+06-8.23545E+05-1.18500E+04-2.03648E+06 7.75231E-09-7.85121E-10
 -1       312-5.15961E+06-6.79774E+05-6.27992E+03-1.87361E+06 3.90173E-10 1.42757E-09
 -1       313-5.05259E+06-7.80480E+05-4.15786E+03-1.98733E+06-1.40426E-09-8.07813E-09
 -1       314-5.13128E+06-7.11497E+05-7.71317E+03-1.91022E+06 1.74259E-09-1.56615E-09
 -1       315-5.12028E+06-7.15193E+05-1.20571E+04-1.90691E+06-5.23414E-10-4.38376E-10
 -1       316-5.09102E+06-7.45763E+05-2.47162E+04-1.95330E+06-7.90078E-09-1.09612E-08
 -1       317-5.20420E+06-6.76673E+05-6.08944E+04-1.83302E+06 1.07647E-08-9.82982E-09
 -1       318-5.04923E+06-7.49217E+05-1.01534E+05-1.98528E+06-1.32259E-08 7.68341E-09
 -1       319-5.33609E+06-8.20117E+05-2.95124E+05-1.77309E+06-8.32370E-09-4.07454E-09
 -1       320-4.96152E+06-6.03829E+05-4.32232E+05-2.01362E+06 1.29658E-08-7.97445E-09
 -1       336 5.28069E+02-9.99590E+05-5.53977E+03 1.86461E+03-9.88757E-09-7.72343E-09
 -1       337-2.04479E+03-1.00066E+06-6.07566E+03-4.63901E+03-1.80771E-08-1.18125E-08
 -1       338 3.37717E+02-9.99728E+05-7.90351E+03 2.75935E+03-1.29960E-08 5.48062E-09
 -1       339-8.15624E+03-1.00455E+06-1.72295E+04-6.39481E+03-2.34472E-08 1.48448E-08
 -1       340 5.40311E+03-9.95885E+05-2.66939E+04 3.60625E+03-1.55960E-08 8.91851E-09
 -1       406 1.67731E+01 2.69829E+05 4.48692E+02-9.89501E-02 3.59535E-10-2.59024E-09
 -1       407 1.55746E+02 2.69911E+05 9.53456E+02-5.67478E+00 6.73026E-11-6.11067E-09
 -1       408 4.90190E+02 2.69760E+05 1.90434E+03 5.90123E+00 3.85853E-10-1.18462E-09
 -1       409 2.05834E+03 2.70519E+05 4.28702E+03-5.76079E+01-8.27640E-11-5.12387E-09
 -1       410 5.91514E+03 2.69218E+05 8.75184E+03 5.40607E+01 3.91083E-10 1.10526E-09
 -1       521-7.94520E+06-7.66904E+05-7.15589E+05-2.59798E+06-3.76895E-09 1.26893E-08
 -1       522-6.10592E+06-2.00140E+06-2.54523E+05-3.74076E+06-7.34399E-08-7.69796E-09
 -1       523-8.05287E+06-4.39730E+05-1.48499E+05-1.98362E+06 1.48466E-08-4.70609E-08
 -1       524-6.24624E+06-2.14023E+06-4.88099E+04-4.54743E+06 1.15417E-07-9.01268E-08
 -1       525-8.05796E+06-4.38279E+05-3.77680E+04-1.94956E+06 8.66203E-08-4.51710E-08
 -1       526-5.99906E+06-1.84212E+06 8.48185E+04-3.89880E+06 1.64873E-08 7.43603E-09
 -1       527-8.07883E+06-8.99189E+05-1.49025E+05-2.49730E+06-6.33008E-09-9.99353E-09
 -1       528-6.26047E+06-9.71125E+05 1.83771E+05-2.49328E+06-3.03189E-08-1.96451E-10
 -1       529-7.55628E+06-1.47836E+06-1.64654E+05-3.16019E+06-9.10950E-09 4.09636E-09
 -1       530-7.79375E+06 8.45028E+04 1.04769E+05-1.61512E+06-3.82715E-08 4.64061E-08
 -1       531-6.75372E+06-1.80237E+06-5.33040E+04-3.50528E+06-8.58490E-08 1.12050E-08
 -1       532-8.95598E+06 5.78035E+05-4.48571E+04-1.45061E+06 8.86589E-08-8.71210E-08
 -1       533-6.63162E+06-1.80890E+06-1.28317E+05-3.53783E+06 1.96378E-08-1.30676E-07
 -1       534-8.27730E+06 5.40369E+04-2.59211E+05-1.50419E+06-3.83479E-08 9.80253E-08
 -1       535-7.26844E+06-1.39501E+06-6.76742E+05-3.29813E+06-1.22236E-08 6.22676E-08
 -1       536-3.50741E+05-1.51457E+04 3.19769E+04-9.07012E+03-2.19819E-09 1.30894E-08
 -1       537-3.25009E+05 1.74961E+04 2.47272E+04 2.00362E+04-2.59570E-08 1.30021E-08
 -1       538-3.38712E+05-1.89537E+03 8.75740E+03-1.17342E+04 4.28727E-09 2.47633E-08
 -1       539-3.31199E+05 2.97314E+03 6.53607E+03 1.98732E+04 3.30111E-08 1.48871E-08
 -1       540-3.44213E+05-3.10037E+02 1.01618E+03-8.90235E+03 3.25775E-09 2.08571E-08
 -1       541-3.17652E+05 1.20212E+03 5.27101E+03 9.89843E+03-7.47909E-09 1.98958E-08
 -1       542-3.52111E+05-6.71420E+02-2.42202E+03-1.75851E+03 1.00233E-08 4.39778E-09
 -1       543-3.14242E+05 7.77316E+02 4.73696E+03-5.17984E+03 7.35099E-10 1.54704E-09
 -1       544-3.47859E+05-2.98828E+02-2.45815E+03 6.16670E+03-2.50475E-09-8.31949E-09
 -1       545-3.28039E+05-1.76582E+02 6.48679E+02-1.77878E+04-5.70398E-09-1.64929E-08
 -1       546-3.38408E+05 8.34144E+02-2.52869E+03 1.08455E+04 4.30191E-09-1.46484E-08
 -1       547-3.36686E+05-2.79464E+03-5.64627E+03-2.17840E+04-1.99045E-08-2.26776E-08
 -1       548-3.39050E+05 2.83865E+03-1.03577E+04 1.01612E+04-2.14098E-08-2.08033E-08
 -1       549-3.32451E+05-1.79059E+04-2.41571E+04-1.52614E+04-1.03648E-08-3.23007E-09
 -1       550-3.42642E+05 1.53940E+04-4.11657E+04 4.32275E+03 1.54193E-09-8.73843E-09
 -1       551 1.44843E+04-5.20054E+05 2.37132E+04-8.63480E+05-4.20841E-08-1.21508E-08
 -1       552 3.20225E+04-5.28309E+05 3.06969E+04-1.22970E+06-3.14685E-08 1.41081E-08
 -1       553 2.25023E+04-5.33811E+05 4.56026E+04-8.60342E+05-4.98621E-08 1.17725E-08
 -1       554 5.69113E+04-5.21065E+05 9.58142E+04-1.23097E+06-3.19851E-08 8.30823E-09
 -1       555 5.01368E+04-5.52029E+05 1.70735E+05-8.61224E+05-5.09899E-08-6.35919E-09
 -1       556 8.90230E+04-1.67711E+05 5.62990E+04-2.12542E+05-1.13505E-09 5.00586E-09
 -1       557 1.59450E+05-2.24299E+05 2.98834E+04-2.69791E+05 1.00117E-08 4.65661E-09
 -1       558 8.78885E+04-1.73955E+05 1.17833E+04-2.06867E+05-3.02680E-09-4.91127E-10
 -1       559 1.48749E+05-2.31659E+05 6.07998E+03-2.74870E+05-2.30648E-09 4.42378E-09
 -1       560 8.50043E+04-1.72036E+05 2.35113E+03-2.08782E+05-3.46336E-09-3.50701E-09
 -1       561 1.44490E+05-2.30388E+05 1.31846E+03-2.77582E+05-4.07817E-09 1.10686E-09
 -1       562 8.27109E+04-1.70522E+05 4.24601E+02-2.10435E+05-5.79894E-09-5.80212E-09
 -1       563 1.41773E+05-2.29218E+05 3.23975E+02-2.79319E+05-5.72254E-09 2.62617E-10
 -1       564 8.12442E+04-1.69579E+05 9.83336E+01-2.11476E+05-2.02635E-09-5.54246E-09
 -1       565 1.40287E+05-2.28579E+05 9.96934E+01-2.80256E+05-4.03452E-09-1.12414E-09
 -1       566 8.06455E+04-1.69187E+05 1.00135E+01-2.11903E+05 5.87170E-09 5.66251E-09
 -1       567 1.39987E+05-2.28438E+05-6.76459E+01-2.80371E+05 4.41673E-11 6.97764E-09
 -1       568 8.09528E+04-1.69390E+05-2.94099E+02-2.11761E+05 4.62387E-09-9.14588E-09
 -1       569 1.40137E+05-2.28329E+05-6.93844E+02-2.78980E+05 1.23237E-08-4.77849E-09
 -1       570 8.27794E+04-1.70919E+05-1.59884E+03-2.11597E+05 3.44880E-09 1.40062E-10
 -1       571 1.98205E+05 7.29777E+03 1.07903E+04-5.11458E+04-8.80982E-09 1.60526E-09
 -1       572 1.99807E+05 2.55138E+03 5.28671E+03-5.60753E+04-1.50899E-08 5.03451E-09
 -1       573 1.98846E+05 6.21422E+02 2.34863E+03-5.10184E+04-5.40467E-09-2.02954E-09
 -1       574 1.99034E+05 2.16873E+02 1.17684E+03-5.62190E+04-1.79625E-09-6.76209E-09
 -1       575 1.98917E+05 4.58009E+01 5.54756E+02-5.10015E+04-1.94609E-09 4.65661E-09
 -1       576 1.98928E+05 2.83285E+01 2.82625E+02-5.62382E+04-2.21541E-09 1.41890E-08
 -1       577 1.98929E+05 1.42175E+01 1.39578E+02-5.09993E+04-1.19790E-08 8.39509E-09
 -1       578 1.98921E+05 1.74093E+01 7.68897E+01-5.62406E+04-2.25448E-08 7.78482E-09
 -1       579 1.98944E+05 1.01071E+01 4.82709E+01-5.09992E+04-1.12550E-08 6.08452E-10
 -1       580 1.98941E+05 8.73018E+00 4.73424E+01-5.62376E+04-2.91402E-09 2.42107E-09
 -1       581 1.98970E+05-1.30331E-01 6.63507E+01-5.10023E+04-8.46740E-10-9.89621E-09
 -1       582 1.98988E+05 1.01320E+01 1.28449E+02-5.62067E+04 6.33463E-10-2.56978E-09
 -1       583 1.99000E+05 3.87612E+01 2.46982E+02-5.10301E+04 1.63163E-09-4.38308E-09
 -1       584 1.99117E+05 2.31906E+02 5.54686E+02-5.59735E+04-1.71349E-09-4.89842E-09
 -1       585 1.98978E+05 7.18845E+02 1.12621E+03-5.12359E+04-2.41016E-10-5.77165E-09
 -1       586-2.31555E+03 6.55438E+04-2.97560E+03-1.76215E+05-7.73070E-11 7.96967E-09
 -1       587-4.91147E+02 6.51562E+04-1.83935E+02-1.93930E+05 4.82032E-10 2.66266E-09
 -1       588 6.93344E+02 6.52127E+04 2.47768E+03-1.76117E+05 3.20142E-10 1.36897E-08
 -1       589 3.51146E+03 6.65563E+04 7.01175E+03-1.93751E+05 1.77351E-10 1.98106E-08
 -1       590 1.01571E+04 6.44079E+04 1.49390E+04-1.76399E+05-1.61890E-10 1.33950E-08
 -1       591-4.28477E+04-1.18599E+04-1.41913E+04-2.16874E+04 7.62952E-10-2.87673E-09
 -1       592-4.43501E+04-1.51721E+04-7.68668E+03-2.51916E+04-1.37771E-09-3.25872E-09
 -1       593-4.42802E+04-1.08167E+04-3.19999E+03-2.27150E+04 3.41049E-09-7.87077E-09
 -1       594-4.23753E+04-1.31065E+04-1.59598E+03-2.52867E+04 1.02174E-08-2.87446E-09
 -1       595-4.43899E+04-1.08121E+04-7.33381E+02-2.27621E+04 2.01885E-09-7.08751E-09
 -1       596-4.22414E+04-1.30119E+04-3.73746E+02-2.52725E+04 1.25112E-09 5.72572E-09
 -1       597-4.44038E+04-1.08212E+04-2.05531E+02-2.27640E+04 1.50487E-09-3.60262E-09
 -1       598-4.22286E+04-1.30083E+04-1.68918E+02-2.52685E+04 1.96849E-10-4.04049E-09
 -1       599-4.44027E+04-1.08214E+04-2.20394E+02-2.27636E+04 2.64208E-10-1.03291E-08
 -1       600-4.22427E+04-1.30131E+04-4.13117E+02-2.52719E+04-2.21439E-09-6.81121E-09
 -1       601-4.43853E+04-1.08117E+04-8.16935E+02-2.27608E+04-5.00222E-12-8.41965E-10
 -1       602-4.23918E+04-1.31185E+04-1.78143E+03-2.52856E+04-8.96193E-10-2.63435E-09
 -1       603-4.42612E+04-1.08187E+04-3.57307E+03-2.27084E+04-1.22327E-10-1.14985E-08
 -1       604-4.46047E+04-1.54159E+04-8.58303E+03-2.51676E+04 2.69131E-09 5.22732E-10
 -1       605-4.26513E+04-1.19914E+04-1.58460E+04-2.15698E+04-4.44743E-10 1.05956E-09
 -1       606 2.69168E+04-9.53519E+03-1.71590E+04 2.61753E+04 8.99126E-09 4.65661E-10
 -1       607 2.39787E+04-3.08059E+03-8.54419E+03 2.93848E+04 1.78406E-08 4.01997E-10
 -1       608 2.56445E+04-5.24099E+02-3.82634E+03 2.59677E+04 7.00311E-09-3.33057E-09
 -1       609 2.53129E+04-1.40433E+02-1.93253E+03 2.96152E+04-1.95723E-09 1.52647E-08
 -1       610 2.54895E+04 1.99828E+01-9.23173E+02 2.59444E+04-1.11686E-09 1.41404E-09
 -1       611 2.54268E+04 3.25841E+01-4.65535E+02 2.96403E+04-5.33191E-09-6.18479E-09
 -1       612 2.54474E+04 3.57728E+01-2.22699E+02 2.59421E+04-1.24419E-09 3.59228E-09
 -1       613 2.54236E+04 4.14761E+01-1.01220E+02 2.96433E+04-4.94992E-09-3.78714E-09
 -1       614 2.54242E+04 3.69360E+01-2.77100E+01 2.59413E+04 9.37143E-09-3.20347E-09
 -1       615 2.54113E+04 4.72800E+01 3.31058E+01 2.96437E+04 2.51457E-08-6.66637E-09
 -1       616 2.54065E+04 4.29603E+01 1.07807E+02 2.59416E+04 6.00721E-09-1.15278E-09
 -1       617 2.54176E+04 7.43913E+01 2.49479E+02 2.96432E+04-9.54969E-10-7.52607E-11
 -1       618 2.53799E+04 1.18055E+02 5.04049E+02 2.59417E+04 1.10958E-09 5.72982E-09
 -1       619 2.55916E+04 4.66762E+02 1.13276E+03 2.96425E+04 5.91172E-11-1.97815E-10
 -1       620 2.52099E+04 1.31585E+03 2.27699E+03 2.59406E+04 3.64844E-09-7.74662E-09
 -1       621 3.03826E+02 2.11235E+05 2.69294E+03 9.49603E+03-2.87855E-10-3.45335E-09
 -1       622 3.53951E+02 2.11900E+05 2.35526E+03 1.38469E+04-1.55751E-10 2.21462E-10
 -1       623 1.58288E+01 2.11415E+05 2.79922E+03 9.45115E+03-1.08116E-10 2.83444E-09
 -1       624 1.29165E+03 2.12757E+05 5.39463E+03 1.38916E+04-2.00714E-10-2.37742E-08
 -1       625 1.29820E+03 2.10368E+05 9.41558E+03 9.45139E+03-6.91216E-11-7.44433E-09
 -1       626 1.78245E+05 4.85505E+04 3.65130E+03 9.51780E+04-3.96494E-09-4.57476E-09
 -1       627 1.75922E+05 5.02145E+04 1.75949E+03 9.89733E+04-1.38425E-09 4.59841E-09
 -1       628 1.78372E+05 4.68341E+04 7.43171E+02 9.57407E+04 1.45337E-09 1.01550E-08
 -1       629 1.75406E+05 4.97872E+04 3.64190E+02 9.91989E+04 4.64433E-09-1.74077E-09
 -1       630 1.78378E+05 4.67535E+04 1.68306E+02 9.57563E+04 4.65661E-10-1.48894E-08
 -1       631 1.75343E+05 4.97770E+04 9.03622E+01 9.91996E+04-1.00681E-09 2.17793E-09
 -1       632 1.78369E+05 4.67602E+04 5.91779E+01 9.57482E+04-4.23506E-09-1.19655E-10
 -1       633 1.75330E+05 4.97823E+04 6.55159E+01 9.91922E+04-5.37602E-09 1.22654E-08
 -1       634 1.78359E+05 4.67613E+04 1.05454E+02 9.57437E+04 6.68160E-09 6.81689E-09
 -1       635 1.75334E+05 4.97839E+04 2.13436E+02 9.91917E+04 1.45053E-09-1.22825E-08
 -1       636 1.78348E+05 4.67603E+04 4.30885E+02 9.57406E+04 2.48997E-09 1.91221E-10
 -1       637 1.75422E+05 4.98523E+04 9.46937E+02 9.91876E+04-2.18031E-09-9.96079E-09
 -1       638 1.78311E+05 4.69712E+04 1.94599E+03 9.56436E+04-1.63755E-09-1.65119E-09
 -1       639 1.76441E+05 5.12751E+04 4.60365E+03 9.88851E+04-2.70506E-09-9.90713E-09
 -1       640 1.78175E+05 5.12092E+04 9.55362E+03 9.38454E+04-9.65429E-10-5.51290E-09
 -1       656 4.78669E+04-1.21309E+06-1.15550E+05-3.93883E+02 1.13505E-09-4.09253E-09
 -1       657-6.32623E+04-1.26525E+06-9.55837E+04 7.44291E+03 2.23372E-09-1.67336E-08
 -1       658 1.51902E+04-1.22795E+06-5.86855E+04-1.61421E+03 1.06786E-09-7.61907E-09
 -1       659-6.79135E+04-1.26745E+06-1.01693E+05 8.27819E+03 1.37334E-10-7.00659E-09
 -1       660 5.25070E+04-1.21089E+06-1.26057E+05-1.22914E+03 3.27418E-10 3.22171E-09
 -1       661 1.64216E+05 1.78333E+04 1.58915E+04 6.41984E+04 4.18913E-09 3.35422E-09
 -1       662 1.72579E+05 3.02130E+04 1.07084E+04 6.13391E+04 1.45246E-09-9.72886E-09
 -1       663 1.67332E+05 2.29356E+04 3.74581E+03 6.32980E+04 1.49078E-09 2.86377E-09
 -1       664 1.68972E+05 2.42413E+04 2.23965E+03 6.24347E+04 2.24679E-09-5.44060E-09
 -1       665 1.67800E+05 2.36373E+04 8.83474E+02 6.31662E+04 1.40227E-09-1.05779E-08
 -1       666 1.68423E+05 2.34349E+04 5.15404E+02 6.26040E+04-5.34440E-09-7.77501E-09
 -1       667 1.67879E+05 2.37208E+04 2.71946E+02 6.31365E+04-7.29017E-10 3.14294E-09
 -1       668 1.68338E+05 2.33698E+04 2.72941E+02 6.26468E+04-3.14253E-09-7.77156E-10
 -1       669 1.67884E+05 2.37005E+04 3.66109E+02 6.31241E+04-4.01707E-09-1.02114E-08
 -1       670 1.68430E+05 2.35642E+04 7.94026E+02 6.26467E+04 4.57234E-11-2.64330E-09
 -1       671 1.67787E+05 2.35303E+04 1.40878E+03 6.31350E+04-2.58900E-10-3.70392E-10
 -1       672 1.69251E+05 2.49342E+04 3.60349E+03 6.24479E+04-1.45837E-09-2.89674E-10
 -1       673 1.67067E+05 2.23650E+04 6.03856E+03 6.33097E+04-3.40867E-09-1.16916E-09
 -1       674 1.75001E+05 3.46335E+04 1.72690E+04 6.07570E+04 1.10447E-10-9.12223E-09
 -1       675 1.62075E+05 1.41022E+04 2.56326E+04 6.47236E+04-1.36106E-09-8.33097E-09
 -1       676 1.92216E+01-2.30167E+05-8.92547E+02 3.24180E+01 1.71838E-10 6.05985E-09
 -1       677-2.36946E+02-2.30382E+05-1.63347E+03-6.48018E+01-1.75046E-09-1.15702E-08
 -1       678 1.58227E+02-2.30013E+05-2.88754E+03 3.23616E+01-1.55978E-10-5.77357E-09
 -1       679-2.88821E+03-2.32125E+05-6.85937E+03-6.45838E+01-3.45949E-09 1.65447E-09
 -1       680 1.72371E+03-2.28424E+05-1.10550E+04 3.18306E+01-8.79481E-10-2.09590E-09
 -1       771-2.45829E+06-4.60944E+05-6.59802E+04-1.05300E+06-1.29075E-08-1.03610E-08
 -1       772-2.43334E+06-5.01174E+05-3.50369E+04-1.09835E+06-6.63567E-09 8.38554E-09
 -1       773-2.46865E+06-4.52803E+05-1.58007E+04-1.05676E+06-5.07862E-09 3.90355E-09
 -1       774-2.42483E+06-4.93973E+05-7.50649E+03-1.10455E+06 1.11104E-08-1.01863E-09
 -1       775-2.47207E+06-4.50431E+05-4.27477E+03-1.05742E+06-3.40515E-09-4.41651E-09
 -1       776-2.42565E+06-4.93985E+05-1.83772E+03-1.10844E+06-4.16912E-09 2.01544E-09
 -1       777-2.47472E+06-4.48477E+05-1.44774E+03-1.05795E+06 2.54659E-10-3.41242E-09
 -1       778-2.42694E+06-4.94161E+05-5.29688E+02-1.11171E+06 1.39698E-09 3.88354E-09
 -1       779-2.47690E+06-4.46816E+05-6.59083E+02-1.05841E+06-3.57977E-09-9.56243E-09
 -1       780-2.42814E+06-4.94284E+05-2.92997E+02-1.11436E+06 5.02405E-09-3.83397E-09
 -1       781-2.47857E+06-4.45496E+05-5.46759E+02-1.05876E+06-7.16682E-09-3.14049E-09
 -1       782-2.42911E+06-4.94387E+05-6.97680E+02-1.11630E+06-1.30840E-08-4.00564E-09
 -1       783-2.47968E+06-4.44610E+05-1.41669E+03-1.05900E+06-1.50249E-09-6.24038E-09
 -1       784-2.43051E+06-4.95282E+05-3.22331E+03-1.11745E+06-6.90397E-09 4.09273E-10
 -1       785-2.47967E+06-4.44590E+05-5.98819E+03-1.05870E+06-1.41408E-08 2.25646E-09
 -1       786 1.63734E+05-9.30100E+03 2.15180E+04-4.99795E+01 1.66764E-09-4.31282E-09
 -1       787 1.73059E+05 1.07677E+04 1.52235E+04 1.30592E+01 1.48304E-09 1.56251E-09
 -1       788 1.67332E+05-1.45803E+03 5.56912E+03-3.67694E+01 5.32176E-10 9.60608E-09
 -1       789 1.68869E+05 1.68699E+03 3.49869E+03-9.08069E+00-7.59138E-10 9.10461E-10
 -1       790 1.67925E+05-2.27719E+02 1.42264E+03-2.78411E+01 1.54827E-10-6.52420E-09
 -1       791 1.68176E+05 2.64296E+02 8.33382E+02-2.59146E+01-2.17859E-10-9.74239E-09
 -1       792 1.68025E+05-3.64070E+01 3.76622E+02-1.99355E+01 2.52367E-10-7.22689E-09
 -1       793 1.68063E+05 4.93221E+01 2.39196E+02-4.29959E+01-4.69485E-10-6.19051E-09
 -1       794 1.68039E+05-1.28851E+01 1.65564E+02-1.07595E+01 7.08588E-10 5.96859E-10
 -1       795 1.68067E+05 6.20495E+01 2.22692E+02-6.51607E+01-3.22803E-10-1.03932E-09
 -1       796 1.68020E+05-4.91231E+01 3.23411E+02 2.22968E+00 5.05330E-10-5.73341E-09
 -1       797 1.68211E+05 3.59092E+02 7.54167E+02-9.85347E+01-3.42858E-10 1.67677E-09
 -1       798 1.67895E+05-3.09711E+02 1.18768E+03 2.26152E+01 2.61254E-10-1.22077E-09
 -1       799 1.69102E+05 2.28666E+03 3.23548E+03-1.52519E+02-6.50639E-10-4.29600E-09
 -1       800 1.67130E+05-1.97515E+03 4.56953E+03 5.62150E+01 9.53424E-11 1.12200E-08
 -1       801 2.79669E+04-1.17492E+06-1.01934E+05 2.77093E+04 1.30749E-08-8.20000E-09
 -1       802-2.61551E+04-1.03598E+06-2.25659E+04-7.13872E+04 3.62097E-08 6.12931E-09
 -1       803-1.54943E+03-1.10412E+06 1.72869E+04 5.79889E+04 2.84999E-08 2.73201E-08
 -1       804 7.89655E+04-9.75233E+05 1.16079E+05-6.28706E+04 3.21015E-08 2.54022E-08
 -1       805-7.75804E+04-1.23508E+06 1.29773E+05 1.91858E+04 1.19107E-08 2.56609E-08
 -1       806-2.16511E+05-4.45068E+04-1.75873E+04-8.82036E+04-3.17823E-09 8.81710E-09
 -1       807-2.17724E+05-4.18098E+04-8.64034E+03-9.26623E+04 1.24896E-09 5.55110E-09
 -1       808-2.16999E+05-3.81634E+04-3.66527E+03-9.11972E+04 1.48248E-10 6.88914E-09
 -1       809-2.15891E+05-3.93991E+04-1.79197E+03-9.28967E+04-6.68479E-10 1.37131E-08
 -1       810-2.17075E+05-3.79406E+04-8.20693E+02-9.13294E+04-5.46288E-09-2.86559E-09
 -1       811-2.15750E+05-3.93032E+04-4.07285E+02-9.28734E+04-1.16952E-08-7.99764E-09
 -1       812-2.17088E+05-3.79580E+04-2.03890E+02-9.13291E+04-3.90673E-09-8.88053E-09
 -1       813-2.15731E+05-3.93053E+04-1.29500E+02-9.28614E+04 3.23621E-09-9.29538E-09
 -1       814-2.17085E+05-3.79646E+04-1.23059E+02-9.13262E+04 3.70801E-09-6.87919E-09
 -1       815-2.15734E+05-3.93073E+04-1.93958E+02-9.28576E+04 1.18953E-08 1.41436E-08
 -1       816-2.17072E+05-3.79634E+04-3.64421E+02-9.13237E+04 3.78895E-09 6.07452E-09
 -1       817-2.15796E+05-3.93422E+04-7.81450E+02-9.28506E+04-5.66615E-09-5.49289E-09
 -1       818-2.17025E+05-3.80731E+04-1.59290E+03-9.12717E+04 1.46701E-09-5.19003E-09
 -1       819-2.16672E+05-4.03006E+04-3.74869E+03-9.26404E+04-1.00772E-09-5.09681E-09
 -1       820-2.16725E+05-4.09049E+04-7.62941E+03-9.00610E+04-2.47746E-09-4.23142E-09
 -1       821-2.75890E+05 1.52628E+04-3.52975E+04 1.78524E+02 5.25112E-10-5.53518E-09
 -1       822-2.91186E+05-1.76692E+04-2.49781E+04-8.06059E+02-1.50032E-09-1.03450E-08
 -1       823-2.81793E+05 2.39300E+03-9.14202E+03 1.65497E+02 6.60219E-10-3.73666E-09
 -1       824-2.84299E+05-2.76962E+03-5.75162E+03-6.45882E+02-2.60727E-10 3.92015E-09
 -1       825-2.82775E+05 3.74409E+02-2.36523E+03 1.83437E+01-2.36174E-09 3.18516E-09
 -1       826-2.83153E+05-4.41429E+02-1.42550E+03-2.80155E+02-4.97220E-09-3.59350E-10
 -1       827-2.82937E+05 6.62120E+01-7.40901E+02-2.00236E+02-4.07603E-09-4.02920E-09
 -1       828-2.83000E+05-1.34741E+02-6.52646E+02 1.37884E+02-5.91561E-09 7.03476E-09
 -1       829-2.82928E+05 6.80097E+01-7.53302E+02-3.99704E+02-2.96136E-11 2.51745E-09
 -1       830-2.83181E+05-4.54780E+02-1.46987E+03 4.34965E+02 2.47891E-09-2.78553E-09
 -1       831-2.82756E+05 3.86354E+02-2.43559E+03-4.97323E+02-3.30807E-09-5.76802E-09
 -1       832-2.84354E+05-2.85659E+03-5.93523E+03 4.88463E+02-1.66475E-09-6.90386E-09
 -1       833-2.81757E+05 2.46816E+03-9.43226E+03-4.53201E+02-1.45662E-09-3.65389E-09
 -1       834-2.91434E+05-1.82284E+04-2.57683E+04 2.77534E+02-6.02501E-10-4.99404E-09
 -1       835-2.75677E+05 1.57460E+04-3.64214E+04-2.86382E+02 5.27372E-09 2.19734E-09
 -1       836-9.22433E+02 2.59625E+05 1.56887E+04-2.05785E+04 1.05501E-09 5.25051E-09
 -1       837 3.44435E+03 2.64489E+05 1.34025E+04-4.13373E+04 1.84468E-09-3.57795E-09
 -1       838-3.42070E+02 2.60975E+05 1.38316E+04-2.05068E+04 1.56570E-09-2.68551E-09
 -1       839 8.87408E+03 2.68535E+05 2.63382E+04-4.13669E+04 2.28829E-09 4.81394E-09
 -1       840-2.67318E+03 2.55540E+05 4.20724E+04-2.05474E+04 1.49339E-09-1.05933E-09
 -1       856-7.98280E+04 7.19630E+03-1.89643E+04-4.20371E+02-3.76906E-09 3.53884E-09
 -1       857-8.76606E+04-8.44067E+03-1.30564E+04 4.38607E+03-1.55754E-09 7.12612E-09
 -1       858-8.29229E+04 1.00831E+03-4.92171E+03-4.40631E+02-4.14718E-09 5.40240E-10
 -1       859-8.41068E+04-1.17256E+03-2.97229E+03 4.41832E+03 1.23822E-09-5.35101E-09
 -1       860-8.33855E+04 1.40232E+02-1.24939E+03-4.52736E+02 2.78845E-10-5.85874E-09
 -1       861-8.35740E+04-1.54926E+02-6.95109E+02 4.43489E+03-5.52948E-09-8.69790E-09
 -1       862-8.34576E+04 1.85350E+01-3.04590E+02-4.57230E+02 8.95156E-10-7.36766E-09
 -1       863-8.34885E+04-1.08291E+01-1.46463E+02 4.43694E+03 5.39521E-09-1.27181E-09
 -1       864-8.34713E+04-6.87051E-01-3.75883E+01-4.54791E+02 4.25534E-09-1.87131E-09
 -1       865-8.34607E+04 2.65216E+01 5.10005E+01 4.42459E+03 5.37815E-09 4.71309E-09
 -1       866-8.34839E+04-1.92451E+01 1.43794E+02-4.44883E+02 8.54158E-10 3.04658E-09
 -1       867-8.33819E+04 1.60902E+02 3.80371E+02 4.39769E+03 2.72701E-09-2.81540E-09
 -1       868-8.35468E+04-1.33873E+02 6.38298E+02-4.27884E+02 1.02790E-09-2.99428E-09
 -1       869-8.29058E+04 1.11126E+03 1.70948E+03 4.35318E+03-4.30600E-09-1.67991E-08
 -1       870-8.39551E+04-9.45591E+02 2.47933E+03-4.00382E+02-2.54431E-10-3.97040E-09
 -1       871-4.07784E+03-8.95436E+03-1.32691E+04 8.73632E+04 2.77214E-09 1.39780E-08
 -1       872-1.76205E+03-1.19310E+04-5.41967E+03 1.13262E+05 2.18461E-09 5.51654E-09
 -1       873-3.10002E+01-1.05408E+04 7.44914E+02 8.71713E+04 1.09526E-09 4.93071E-09
 -1       874 2.03605E+03-8.62858E+03 7.46161E+03 1.13301E+05 2.85149E-09-3.83500E-09
 -1       875 4.80269E+03-1.23110E+04 1.65655E+04 8.73320E+04 1.65073E-09-1.05365E-09
 -1       876 2.15480E+05 3.70693E+04 1.14740E+04 8.73556E+04-7.42028E-09 2.79852E-09
 -1       877 2.16145E+05 3.95795E+04 6.12740E+03 9.07394E+04-8.49673E-09-3.91253E-09
 -1       878 2.16552E+05 3.57996E+04 2.56709E+03 8.82980E+04-1.61617E-09-2.50657E-09
 -1       879 2.14584E+05 3.80249E+04 1.27883E+03 9.08202E+04 8.94488E-10 1.18916E-09
 -1       880 2.16630E+05 3.57856E+04 5.95403E+02 8.83363E+04 2.51930E-09 2.83376E-09
 -1       881 2.14480E+05 3.79589E+04 3.17227E+02 9.08038E+04 3.90344E-09 1.27275E-08
 -1       882 2.16638E+05 3.57951E+04 2.01696E+02 8.83374E+04 3.73439E-09-4.83111E-09
 -1       883 2.14473E+05 3.79557E+04 2.14816E+02 9.07989E+04-4.66116E-10 6.03073E-09
 -1       884 2.16633E+05 3.57927E+04 3.39892E+02 8.83376E+04-5.37443E-09 1.74884E-09
 -1       885 2.14500E+05 3.79605E+04 6.82231E+02 9.08075E+04-6.62510E-09-1.58931E-08
 -1       886 2.16607E+05 3.57728E+04 1.37447E+03 8.83349E+04 5.73246E-09 2.15641E-09
 -1       887 2.14741E+05 3.81189E+04 3.00216E+03 9.08423E+04 7.40533E-09-1.94041E-09
 -1       888 2.16417E+05 3.58062E+04 6.04941E+03 8.82388E+04 3.28390E-09-1.32059E-08
 -1       889 2.18346E+05 4.18616E+04 1.44515E+04 9.07283E+04 4.65266E-09 6.86532E-09
 -1       890 2.13953E+05 3.87339E+04 2.70666E+04 8.59309E+04 4.23984E-09 1.02209E-08
 -1       891-1.32289E+02-1.22144E+05-1.44841E+03 2.29243E+04 1.66847E-09-2.59342E-09
 -1       892-2.30728E+02-1.22491E+05-1.57321E+03 3.46940E+04-1.88493E-10-1.23878E-08
 -1       893-3.63405E+01-1.22189E+05-2.24569E+03 2.29289E+04 2.33808E-09-5.32327E-09
 -1       894-1.22471E+03-1.23350E+05-4.66096E+03 3.45702E+04-4.06544E-10-4.67412E-09
 -1       895-9.58239E+02-1.21218E+05-8.21306E+03 2.30465E+04 5.40638E-10-5.61431E-09
 -1       956-2.71535E+05-3.88441E+03-9.77491E+03 1.81690E+04-2.38697E-09 2.40675E-09
 -1       957-2.73465E+05-1.31120E+03-5.01801E+03 2.18800E+04-5.71163E-10-8.50764E-09
 -1       958-2.72403E+05-1.05336E+02-2.26078E+03 1.80530E+04 6.98674E-09 7.17137E-10
 -1       959-2.72557E+05-1.87812E+01-1.15475E+03 2.20060E+04 7.75071E-09 1.23350E-09
 -1       960-2.72481E+05 3.20039E+01-5.62910E+02 1.80418E+04 7.43512E-10 7.27755E-09
 -1       961-2.72491E+05 3.01927E+01-2.98542E+02 2.20187E+04-6.47105E-09-2.83421E-09
 -1       962-2.72497E+05 2.82873E+01-1.70670E+02 1.80402E+04-1.97565E-09-7.76026E-10
 -1       963-2.72488E+05 3.15728E+01-1.36600E+02 2.20210E+04-3.65480E-09 5.97265E-09
 -1       964-2.72500E+05 3.02887E+01-1.65337E+02 1.80395E+04-1.94996E-09-2.68392E-09
 -1       965-2.72499E+05 3.45455E+01-2.85290E+02 2.20210E+04 2.35002E-09-7.95114E-09
 -1       966-2.72492E+05 3.79211E+01-5.35310E+02 1.80401E+04-5.35238E-09-1.06652E-08
 -1       967-2.72569E+05-7.75898E+00-1.09781E+03 2.20139E+04-1.12241E-08 1.78022E-09
 -1       968-2.72424E+05-8.86273E+01-2.14834E+03 1.80468E+04-4.50609E-09-5.27632E-09
 -1       969-2.73440E+05-1.23264E+03-4.76993E+03 2.19361E+04-6.91216E-11-5.84635E-11
 -1       970-2.71604E+05-3.67839E+03-9.29085E+03 1.81202E+04 1.94450E-09 1.76533E-09
 -1       971-2.56780E+05-1.34744E+03-7.48774E+03 1.24001E+04-3.25190E-09 2.59482E-09
 -1       972-2.58601E+05-9.66067E+02-4.07782E+03 1.73165E+04-1.31149E-09 1.03182E-09
 -1       973-2.57613E+05-9.27394E+00-1.82596E+03 1.22967E+04-1.04819E-09-8.33097E-10
 -1       974-2.57739E+05-9.23698E+00-9.45969E+02 1.74282E+04-3.00179E-09-2.10827E-09
 -1       975-2.57677E+05 2.57258E+01-4.71814E+02 1.22873E+04-2.02908E-09-2.50054E-09
 -1       976-2.57688E+05 2.99282E+01-2.70378E+02 1.74396E+04-3.11866E-09-2.08695E-09
 -1       977-2.57690E+05 2.54954E+01-1.92940E+02 1.22852E+04 1.64619E-09-4.90581E-09
 -1       978-2.57691E+05 3.42686E+01-2.21309E+02 1.74426E+04 4.00894E-09-6.72981E-09
 -1       979-2.57689E+05 3.14569E+01-3.51711E+02 1.22843E+04-9.92088E-10-4.77462E-09
 -1       980-2.57717E+05 3.64273E+01-6.76689E+02 1.74431E+04 5.06323E-09-9.72034E-09
 -1       981-2.57668E+05 4.83119E+01-1.30931E+03 1.22847E+04-8.26049E-10 7.75344E-11
 -1       982-2.57896E+05-6.01889E+01-2.70559E+03 1.74379E+04-2.07592E-10 4.02777E-09
 -1       983-2.57503E+05-3.53351E+01-5.25657E+03 1.22897E+04 4.22642E-09 1.25935E-08
 -1       984-2.60424E+05-2.80517E+03-1.17713E+04 1.73678E+04-3.41970E-09 9.58880E-09
 -1       985-2.55124E+05-3.88164E+03-2.16159E+04 1.23594E+04 2.10457E-09-1.02227E-09
 -3
    1PSTEP                        13           7           1          
  100CL  107 5.50781E-01         409                     0    7           1
 -4  DISP        4    1
 -5  D1          1    2    1    0
 -5  D2          1    2    2    0
 -5  D3          1    2    3    0
 -5  ALL         1    2    0    0    1ALL
 -1         1 2.09211E-04 0.00000E+00 0.00000E+00
 -1         2 1.85653E-04 1.17440E-30 0.00000E+00
 -1         3 1.79591E-04 3.55621E-27 0.00000E+00
 -1         5 1.14773E-04 1.56400E-27 0.00000E+00
 -1         8 1.83885E-04-8.54426E-07 0.00000E+00
 -1         9 1.75884E-04-9.45494E-07 0.00000E+00
 -1        10 1.64803E-04-2.36099E-06 6.61744E-24
 -1        12 1.14580E-04 6.04933E-07-1.65436E-24
 -1        15 1.53652E-04-9.51526E-07 0.00000E+00
 -1        16 1.59275E-04-1.17330E-06 0.00000E+00
 -1        17 1.18174E-04-5.06322E-06 0.00000E+00
 -1        18 1.12797E-04 5.89137E-06 0.00000E+00
 -1        19 1.14001E-04 1.20675E-06 0.00000E+00
 -1        20 1.14148E-04 1.24658E-05 0.00000E+00
 -1        21 1.13533E-04 2.23167E-05 3.30872E-24
 -1        24 2.30564E-05-7.13222E-06 0.00000E+00
 -1        25 1.13166E-04 6.03420E-06 0.00000E+00
 -1        26 1.14022E-04 1.67454E-06 0.00000E+00
 -1        27 1.12352E-04 9.73412E-06 0.00000E+00
 -1        28 1.11888E-04 2.18041E-05 0.00000E+00
 -1        32 0.00000E+00 0.00000E+00 0.00000E+00
 -1        33 1.12830E-04 2.24387E-06 0.00000E+00
 -1        34 1.11188E-04 9.70794E-06 0.00000E+00
 -1        35 1.09643E-04 2.15311E-05 0.00000E+00
 -1        51 2.07568E-04-1.42695E-07 0.00000E+00
 -1        52 2.04519E-04-2.78924E-07 0.00000E+00
 -1        53 2.00340E-04-4.16257E-07 0.00000E+00
 -1        54 1.95316E-04-5.56443E-07-3.30872E-24
 -1        55 1.89735E-04-7.00412E-07-2.89513E-24
 -1        56 2.07495E-04-8.44708E-07 0.00000E+00
 -1        57 2.05833E-04-2.02807E-06-2.64698E-23
 -1        58 2.04254E-04-3.42321E-06 0.00000E+00
 -1        59 2.02702E-04-4.92456E-06 2.64698E-23
 -1        60 2.01143E-04-6.40813E-06 5.29396E-23
 -1        61 1.99531E-04-7.75531E-06 2.64698E-23
 -1        62 1.97828E-04-8.85851E-06 5.29396E-23
 -1        63 1.95996E-04-9.62141E-06 0.00000E+00
 -1        64 1.94012E-04-9.97724E-06 5.29396E-23
 -1        65 1.91857E-04-9.87678E-06 0.00000E+00
 -1        66 1.89527E-04-9.31084E-06 0.00000E+00
 -1        67 1.87027E-04-8.28979E-06 2.64698E-23
 -1        68 1.84375E-04-6.86470E-06 5.29396E-23
 -1        69 1.81606E-04-5.10026E-06 0.00000E+00
 -1        70 1.78743E-04-3.09837E-06 0.00000E+00
 -1        86 1.85348E-04-1.51461E-07 0.00000E+00
 -1        87 1.84437E-04-3.03784E-07-3.30872E-24
 -1        88 1.82967E-04-4.56817E-07 0.00000E+00
 -1        89 1.80990E-04-6.13894E-07 3.30872E-24
 -1        90 1.78598E-04-7.70752E-07 0.00000E+00
 -1       121 1.79177E-04-3.89576E-07 0.00000E+00
 -1       122 1.77937E-04-7.79817E-07 6.61744E-24
 -1       123 1.75872E-04-1.17138E-06 0.00000E+00
 -1       124 1.72990E-04-1.56497E-06 6.61744E-24
 -1       125 1.69297E-04-1.96110E-06-1.32349E-23
 -1       191 1.14767E-04 1.00826E-07 3.30872E-24
 -1       192 1.14751E-04 2.01651E-07 1.65436E-24
 -1       193 1.14725E-04 3.02477E-07 0.00000E+00
 -1       194 1.14687E-04 4.03300E-07 0.00000E+00
 -1       195 1.14639E-04 5.04120E-07 0.00000E+00
 -1       251 1.83386E-04 4.57032E-06 0.00000E+00
 -1       252 1.82878E-04 1.07053E-05-6.61744E-24
 -1       253 1.82370E-04 1.67612E-05-1.32349E-23
 -1       254 1.81866E-04 2.19501E-05 6.61744E-24
 -1       255 1.81367E-04 2.56898E-05 0.00000E+00
 -1       256 1.80874E-04 2.74271E-05 0.00000E+00
 -1       257 1.80382E-04 2.70832E-05-1.32349E-23
 -1       258 1.79887E-04 2.46212E-05 6.61744E-24
 -1       259 1.79388E-04 2.05059E-05 0.00000E+00
 -1       260 1.78882E-04 1.52353E-05 0.00000E+00
 -1       261 1.78375E-04 9.58148E-06 1.32349E-23
 -1       262 1.77870E-04 4.32371E-06 0.00000E+00
 -1       263 1.77370E-04 1.47709E-07 0.00000E+00
 -1       264 1.76874E-04-2.28258E-06 0.00000E+00
 -1       265 1.76382E-04-2.71702E-06-1.32349E-23
 -1       266 1.78846E-04-8.82587E-07-6.61744E-24
 -1       267 1.73807E-04-8.97310E-07 0.00000E+00
 -1       268 1.68768E-04-9.12885E-07 0.00000E+00
 -1       269 1.63730E-04-9.25938E-07-4.13590E-25
 -1       270 1.58691E-04-9.38932E-07 4.13590E-25
 -1       271 1.80886E-04 3.12639E-06 0.00000E+00
 -1       272 1.78248E-04 6.02620E-06 0.00000E+00
 -1       273 1.75987E-04 7.93498E-06 0.00000E+00
 -1       274 1.74059E-04 8.94023E-06 0.00000E+00
 -1       275 1.72429E-04 9.15102E-06 5.29396E-23
 -1       276 1.71051E-04 8.68754E-06 2.64698E-23
 -1       277 1.69876E-04 7.68278E-06 0.00000E+00
 -1       278 1.68850E-04 6.27869E-06 2.64698E-23
 -1       279 1.67917E-04 4.62452E-06 0.00000E+00
 -1       280 1.67021E-04 2.87383E-06 0.00000E+00
 -1       281 1.66103E-04 1.18184E-06 0.00000E+00
 -1       282 1.65106E-04-2.97129E-07 2.64698E-23
 -1       283 1.63973E-04-1.41283E-06 5.29396E-23
 -1       284 1.62655E-04-2.01966E-06 1.32349E-23
 -1       285 1.61095E-04-1.98466E-06-2.64698E-23
 -1       301 1.72831E-04-9.99010E-07 0.00000E+00
 -1       302 1.69743E-04-1.02896E-06 3.30872E-24
 -1       303 1.66731E-04-1.05739E-06 0.00000E+00
 -1       304 1.63909E-04-1.08588E-06 0.00000E+00
 -1       305 1.61387E-04-1.11564E-06-1.32349E-23
 -1       306 1.76596E-04-1.00707E-05 0.00000E+00
 -1       307 1.84904E-04-4.08652E-05 0.00000E+00
 -1       308 1.98749E-04-8.81459E-05 0.00000E+00
 -1       309 2.15803E-04-1.45495E-04-2.64698E-23
 -1       310 2.33290E-04-2.04213E-04 5.29396E-23
 -1       311 2.48412E-04-2.55492E-04 0.00000E+00
 -1       312 2.58726E-04-2.92221E-04 0.00000E+00
 -1       313 2.61900E-04-3.08400E-04 0.00000E+00
 -1       314 2.56930E-04-3.02606E-04 0.00000E+00
 -1       315 2.43357E-04-2.74999E-04 2.64698E-23
 -1       316 2.22752E-04-2.30447E-04 0.00000E+00
 -1       317 1.97412E-04-1.74932E-04 0.00000E+00
 -1       318 1.70903E-04-1.16750E-04-5.29396E-23
 -1       319 1.46948E-04-6.43520E-05-2.64698E-23
 -1       320 1.28543E-04-2.50017E-05 0.00000E+00
 -1       336 1.59416E-04-2.79594E-06 0.00000E+00
 -1       337 1.53044E-04-3.23700E-06 0.00000E+00
 -1       338 1.45708E-04-3.68426E-06 0.00000E+00
 -1       339 1.37432E-04-4.13786E-06-6.61744E-24
 -1       340 1.28244E-04-4.59916E-06 0.00000E+00
 -1       406 1.14510E-04 7.05734E-07 3.30872E-24
 -1       407 1.14430E-04 8.06502E-07 0.00000E+00
 -1       408 1.14338E-04 9.07210E-07 3.30872E-24
 -1       409 1.14236E-04 1.00773E-06-1.65436E-24
 -1       410 1.14124E-04 1.10788E-06 0.00000E+00
 -1       521 1.64914E-04-2.63471E-05 0.00000E+00
 -1       522 1.86596E-04-1.01493E-04 5.29396E-23
 -1       523 2.18878E-04-2.14293E-04-1.05879E-22
 -1       524 2.56558E-04-3.48879E-04-5.29396E-23
 -1       525 2.94460E-04-4.84383E-04 1.05879E-22
 -1       526 3.27413E-04-5.99847E-04 5.29396E-23
 -1       527 3.50243E-04-6.78939E-04 1.05879E-22
 -1       528 3.57382E-04-7.08756E-04 0.00000E+00
 -1       529 3.45385E-04-6.87152E-04 0.00000E+00
 -1       530 3.12357E-04-6.16449E-04 5.29396E-23
 -1       531 2.61790E-04-5.08867E-04 0.00000E+00
 -1       532 1.99834E-04-3.79207E-04 0.00000E+00
 -1       533 1.36255E-04-2.46465E-04 1.05879E-22
 -1       534 8.11179E-05-1.29805E-04 5.29396E-23
 -1       535 4.17476E-05-4.53838E-05 0.00000E+00
 -1       536 1.17932E-04 9.61501E-06 0.00000E+00
 -1       537 1.17546E-04 3.26033E-05 0.00000E+00
 -1       538 1.17044E-04 6.04944E-05 0.00000E+00
 -1       539 1.16502E-04 8.98554E-05 0.00000E+00
 -1       540 1.16022E-04 1.16863E-04 0.00000E+00
 -1       541 1.15684E-04 1.37705E-04 0.00000E+00
 -1       542 1.15477E-04 1.50176E-04-3.30872E-24
 -1       543 1.15343E-04 1.52116E-04 0.00000E+00
 -1       544 1.15180E-04 1.44048E-04-3.30872E-24
 -1       545 1.14902E-04 1.26553E-04-1.65436E-24
 -1       546 1.14499E-04 1.02631E-04 0.00000E+00
 -1       547 1.14013E-04 7.53161E-05 0.00000E+00
 -1       548 1.13541E-04 4.85320E-05 3.30872E-24
 -1       549 1.13175E-04 2.61998E-05 0.00000E+00
 -1       550 1.12935E-04 1.10803E-05 1.65436E-24
 -1       551 1.05350E-04-5.36471E-06 0.00000E+00
 -1       552 9.02921E-05-5.69015E-06 0.00000E+00
 -1       553 7.37607E-05-6.03636E-06 3.30872E-24
 -1       554 5.65297E-05-6.39562E-06-6.61744E-24
 -1       555 3.93722E-05-6.75654E-06 0.00000E+00
 -1       556 1.14640E-04 4.06584E-06 0.00000E+00
 -1       557 1.11886E-04 1.12006E-05 0.00000E+00
 -1       558 1.09830E-04 1.65152E-05 0.00000E+00
 -1       559 1.08395E-04 2.01977E-05 0.00000E+00
 -1       560 1.07508E-04 2.24363E-05 0.00000E+00
 -1       561 1.07094E-04 2.34199E-05 0.00000E+00
 -1       562 1.07081E-04 2.33381E-05 0.00000E+00
 -1       563 1.07396E-04 2.23808E-05 0.00000E+00
 -1       564 1.07968E-04 2.07381E-05 0.00000E+00
 -1       565 1.08725E-04 1.86002E-05 0.00000E+00
 -1       566 1.09595E-04 1.61575E-05 0.00000E+00
 -1       567 1.10508E-04 1.36005E-05-2.06795E-25
 -1       568 1.11392E-04 1.11198E-05 0.00000E+00
 -1       569 1.12177E-04 8.90555E-06 0.00000E+00
 -1       570 1.12792E-04 7.14818E-06 0.00000E+00
 -1       571 1.12870E-04 5.60989E-06 8.27181E-25
 -1       572 1.12945E-04 5.28221E-06 0.00000E+00
 -1       573 1.13020E-04 4.91749E-06-8.27181E-25
 -1       574 1.13095E-04 4.52532E-06 8.27181E-25
 -1       575 1.13171E-04 4.11537E-06 1.65436E-24
 -1       576 1.13246E-04 3.69733E-06 0.00000E+00
 -1       577 1.13322E-04 3.28090E-06 0.00000E+00
 -1       578 1.13397E-04 2.87582E-06-1.65436E-24
 -1       579 1.13473E-04 2.49179E-06 3.30872E-24
 -1       580 1.13548E-04 2.13853E-06 1.65436E-24
 -1       581 1.13624E-04 1.82576E-06 0.00000E+00
 -1       582 1.13699E-04 1.56319E-06-6.61744E-24
 -1       583 1.13775E-04 1.36051E-06 0.00000E+00
 -1       584 1.13850E-04 1.22732E-06 0.00000E+00
 -1       585 1.13925E-04 1.17315E-06 0.00000E+00
 -1       586 1.12814E-04 5.91674E-06-8.27181E-25
 -1       587 1.12804E-04 5.94151E-06 0.00000E+00
 -1       588 1.12802E-04 5.96600E-06 0.00000E+00
 -1       589 1.12839E-04 5.99005E-06 0.00000E+00
 -1       590 1.12950E-04 6.01336E-06 0.00000E+00
 -1       591 1.12867E-04 5.65519E-06 1.93870E-26
 -1       592 1.12945E-04 5.38794E-06 0.00000E+00
 -1       593 1.13032E-04 5.09610E-06 0.00000E+00
 -1       594 1.13125E-04 4.78536E-06 0.00000E+00
 -1       595 1.13224E-04 4.46153E-06 0.00000E+00
 -1       596 1.13325E-04 4.13032E-06 0.00000E+00
 -1       597 1.13427E-04 3.79748E-06-8.27181E-25
 -1       598 1.13527E-04 3.46873E-06 0.00000E+00
 -1       599 1.13624E-04 3.14981E-06 8.27181E-25
 -1       600 1.13715E-04 2.84643E-06 0.00000E+00
 -1       601 1.13798E-04 2.56432E-06 0.00000E+00
 -1       602 1.13871E-04 2.30922E-06 1.03398E-25
 -1       603 1.13931E-04 2.08686E-06 2.06795E-25
 -1       604 1.13978E-04 1.90304E-06 5.16988E-26
 -1       605 1.14008E-04 1.76342E-06 0.00000E+00
 -1       606 1.14014E-04 1.40866E-06 0.00000E+00
 -1       607 1.14024E-04 1.70694E-06 0.00000E+00
 -1       608 1.14033E-04 2.09595E-06 0.00000E+00
 -1       609 1.14043E-04 2.56930E-06 0.00000E+00
 -1       610 1.14052E-04 3.12057E-06 0.00000E+00
 -1       611 1.14061E-04 3.74327E-06 1.65436E-24
 -1       612 1.14070E-04 4.43088E-06 0.00000E+00
 -1       613 1.14079E-04 5.17690E-06 0.00000E+00
 -1       614 1.14088E-04 5.97481E-06 0.00000E+00
 -1       615 1.14096E-04 6.81808E-06 0.00000E+00
 -1       616 1.14105E-04 7.70022E-06 1.65436E-24
 -1       617 1.14114E-04 8.61471E-06 0.00000E+00
 -1       618 1.14123E-04 9.55501E-06 0.00000E+00
 -1       619 1.14131E-04 1.05146E-05 0.00000E+00
 -1       620 1.14140E-04 1.14871E-05 0.00000E+00
 -1       621 1.13912E-04 1.28485E-06 0.00000E+00
 -1       622 1.13875E-04 1.36325E-06-8.27181E-25
 -1       623 1.13877E-04 1.44162E-06-1.65436E-24
 -1       624 1.13909E-04 1.51987E-06 0.00000E+00
 -1       625 1.13961E-04 1.59797E-06-1.65436E-24
 -1       626 1.14011E-04 1.43502E-06-3.30872E-24
 -1       627 1.13993E-04 1.74174E-06 1.65436E-24
 -1       628 1.13949E-04 2.11923E-06 0.00000E+00
 -1       629 1.13881E-04 2.55932E-06 1.65436E-24
 -1       630 1.13793E-04 3.05383E-06-3.30872E-24
 -1       631 1.13687E-04 3.59454E-06 0.00000E+00
 -1       632 1.13567E-04 4.17324E-06 0.00000E+00
 -1       633 1.13436E-04 4.78169E-06 4.96308E-24
 -1       634 1.13297E-04 5.41169E-06 0.00000E+00
 -1       635 1.13153E-04 6.05500E-06-1.65436E-24
 -1       636 1.13007E-04 6.70342E-06-3.30872E-24
 -1       637 1.12862E-04 7.34872E-06 0.00000E+00
 -1       638 1.12721E-04 7.98268E-06 1.65436E-24
 -1       639 1.12587E-04 8.59707E-06-8.27181E-25
 -1       640 1.12464E-04 9.18366E-06 0.00000E+00
 -1       656 1.13386E-04 1.20213E-05 0.00000E+00
 -1       657 1.13004E-04 1.15591E-05-6.61744E-24
 -1       658 1.12862E-04 1.10983E-05 1.32349E-23
 -1       659 1.12816E-04 1.06379E-05 6.61744E-24
 -1       660 1.12701E-04 1.01760E-05 0.00000E+00
 -1       661 1.13867E-04 1.34144E-05 0.00000E+00
 -1       662 1.13612E-04 1.43012E-05 0.00000E+00
 -1       663 1.13379E-04 1.51286E-05 0.00000E+00
 -1       664 1.13168E-04 1.59000E-05-8.27181E-25
 -1       665 1.12977E-04 1.66185E-05 1.65436E-24
 -1       666 1.12805E-04 1.72870E-05 8.27181E-25
 -1       667 1.12650E-04 1.79084E-05 0.00000E+00
 -1       668 1.12512E-04 1.84856E-05 0.00000E+00
 -1       669 1.12390E-04 1.90210E-05 0.00000E+00
 -1       670 1.12282E-04 1.95174E-05 0.00000E+00
 -1       671 1.12189E-04 1.99772E-05 1.65436E-24
 -1       672 1.12107E-04 2.04026E-05 0.00000E+00
 -1       673 1.12038E-04 2.07961E-05 0.00000E+00
 -1       674 1.11979E-04 2.11595E-05-8.27181E-25
 -1       675 1.11931E-04 2.14955E-05 4.13590E-25
 -1       676 1.13258E-04 2.22308E-05-3.30872E-24
 -1       677 1.12983E-04 2.21449E-05 1.65436E-24
 -1       678 1.12709E-04 2.20590E-05 0.00000E+00
 -1       679 1.12435E-04 2.19734E-05 0.00000E+00
 -1       680 1.12161E-04 2.18878E-05 1.65436E-24
 -1       771 1.68790E-05 5.77372E-06 5.29396E-23
 -1       772 1.15898E-05 1.63596E-05 0.00000E+00
 -1       773 7.14854E-06 2.47466E-05 0.00000E+00
 -1       774 3.49882E-06 3.10675E-05 0.00000E+00
 -1       775 5.85008E-07 3.54586E-05 0.00000E+00
 -1       776-1.65090E-06 3.80631E-05-2.64698E-23
 -1       777-3.26746E-06 3.90274E-05 5.29396E-23
 -1       778-4.32457E-06 3.85034E-05-2.64698E-23
 -1       779-4.88242E-06 3.66461E-05-5.29396E-23
 -1       780-5.00232E-06 3.36146E-05-2.64698E-23
 -1       781-4.74567E-06 2.95706E-05 0.00000E+00
 -1       782-4.17476E-06 2.46792E-05 0.00000E+00
 -1       783-3.35187E-06 1.91069E-05 0.00000E+00
 -1       784-2.33990E-06 1.30228E-05 1.32349E-23
 -1       785-1.20168E-06 6.59674E-06-2.64698E-23
 -1       786 1.13216E-04 5.60381E-06-4.13590E-25
 -1       787 1.13269E-04 5.20530E-06 0.00000E+00
 -1       788 1.13322E-04 4.83318E-06 0.00000E+00
 -1       789 1.13376E-04 4.48201E-06 0.00000E+00
 -1       790 1.13430E-04 4.14893E-06-1.65436E-24
 -1       791 1.13484E-04 3.83114E-06 0.00000E+00
 -1       792 1.13538E-04 3.52770E-06-1.65436E-24
 -1       793 1.13591E-04 3.23776E-06 8.27181E-25
 -1       794 1.13645E-04 2.96209E-06 0.00000E+00
 -1       795 1.13699E-04 2.70152E-06 0.00000E+00
 -1       796 1.13753E-04 2.45874E-06 0.00000E+00
 -1       797 1.13807E-04 2.23649E-06-8.27181E-25
 -1       798 1.13861E-04 2.04005E-06-1.65436E-24
 -1       799 1.13915E-04 1.87476E-06 0.00000E+00
 -1       800 1.13969E-04 1.74982E-06-1.65436E-24
 -1       801 1.05132E-04 5.24945E-06 0.00000E+00
 -1       802 8.01134E-05 4.16560E-06 6.61744E-24
 -1       803 4.82932E-05 2.90990E-06 0.00000E+00
 -1       804 2.00977E-05 1.75034E-06 0.00000E+00
 -1       805 1.96776E-06 8.04614E-07-2.64698E-23
 -1       806 1.13241E-04 5.55313E-06 1.65436E-24
 -1       807 1.13305E-04 5.08916E-06-1.65436E-24
 -1       808 1.13362E-04 4.64637E-06 3.30872E-24
 -1       809 1.13408E-04 4.22796E-06 8.27181E-25
 -1       810 1.13444E-04 3.83714E-06-1.65436E-24
 -1       811 1.13469E-04 3.47700E-06-8.27181E-25
 -1       812 1.13481E-04 3.15066E-06-1.65436E-24
 -1       813 1.13479E-04 2.86122E-06 0.00000E+00
 -1       814 1.13462E-04 2.61177E-06 0.00000E+00
 -1       815 1.13429E-04 2.40539E-06-8.27181E-25
 -1       816 1.13379E-04 2.24517E-06 0.00000E+00
 -1       817 1.13310E-04 2.13418E-06-8.27181E-25
 -1       818 1.13222E-04 2.07550E-06-3.30872E-24
 -1       819 1.13113E-04 2.07219E-06 1.65436E-24
 -1       820 1.12983E-04 2.12732E-06 0.00000E+00
 -1       821 1.13924E-04 1.58177E-06 0.00000E+00
 -1       822 1.13820E-04 1.40571E-06 0.00000E+00
 -1       823 1.13715E-04 1.22121E-06-3.30872E-24
 -1       824 1.13610E-04 1.10312E-06 0.00000E+00
 -1       825 1.13505E-04 1.11195E-06 3.30872E-24
 -1       826 1.13400E-04 1.30756E-06 1.65436E-24
 -1       827 1.13294E-04 1.70948E-06 0.00000E+00
 -1       828 1.13188E-04 2.33627E-06 1.65436E-24
 -1       829 1.13083E-04 3.15786E-06 0.00000E+00
 -1       830 1.12977E-04 4.14329E-06-1.65436E-24
 -1       831 1.12871E-04 5.22620E-06 3.30872E-24
 -1       832 1.12765E-04 6.33977E-06 0.00000E+00
 -1       833 1.12659E-04 7.41051E-06 3.30872E-24
 -1       834 1.12555E-04 8.36518E-06 0.00000E+00
 -1       835 1.12450E-04 9.15554E-06-8.27181E-25
 -1       836 1.13984E-04 1.76930E-06-3.30872E-24
 -1       837 1.13834E-04 1.86619E-06 1.65436E-24
 -1       838 1.13608E-04 1.96292E-06-1.65436E-24
 -1       839 1.13341E-04 2.05902E-06-8.27181E-25
 -1       840 1.13070E-04 2.15497E-06 4.13590E-25
 -1       856 1.12327E-04 1.02672E-05 0.00000E+00
 -1       857 1.12298E-04 1.09137E-05 0.00000E+00
 -1       858 1.12270E-04 1.16558E-05 4.13590E-25
 -1       859 1.12240E-04 1.24756E-05-4.13590E-25
 -1       860 1.12211E-04 1.33551E-05-8.27181E-25
 -1       861 1.12182E-04 1.42763E-05 0.00000E+00
 -1       862 1.12152E-04 1.52211E-05 8.27181E-25
 -1       863 1.12123E-04 1.61714E-05-4.13590E-25
 -1       864 1.12094E-04 1.71090E-05 8.27181E-25
 -1       865 1.12064E-04 1.80159E-05 0.00000E+00
 -1       866 1.12035E-04 1.88740E-05 0.00000E+00
 -1       867 1.12006E-04 1.96652E-05 4.13590E-25
 -1       868 1.11976E-04 2.03716E-05 8.27181E-25
 -1       869 1.11947E-04 2.09754E-05 0.00000E+00
 -1       870 1.11918E-04 2.14588E-05 0.00000E+00
 -1       871 1.12040E-04 9.73296E-06 0.00000E+00
 -1       872 1.11841E-04 9.72943E-06 0.00000E+00
 -1       873 1.11707E-04 9.72547E-06 0.00000E+00
 -1       874 1.11587E-04 9.72094E-06 1.55096E-25
 -1       875 1.11430E-04 9.71590E-06 2.06795E-25
 -1       876 1.12254E-04 1.02775E-05 0.00000E+00
 -1       877 1.12137E-04 1.08760E-05-1.65436E-24
 -1       878 1.12002E-04 1.15230E-05-3.30872E-24
 -1       879 1.11851E-04 1.22124E-05 0.00000E+00
 -1       880 1.11687E-04 1.29378E-05-3.30872E-24
 -1       881 1.11512E-04 1.36932E-05 0.00000E+00
 -1       882 1.11328E-04 1.44722E-05 3.30872E-24
 -1       883 1.11137E-04 1.52689E-05 0.00000E+00
 -1       884 1.10942E-04 1.60769E-05 3.30872E-24
 -1       885 1.10745E-04 1.68901E-05-1.65436E-24
 -1       886 1.10549E-04 1.77024E-05 3.30872E-24
 -1       887 1.10355E-04 1.85075E-05 1.65436E-24
 -1       888 1.10165E-04 1.92994E-05 0.00000E+00
 -1       889 1.09983E-04 2.00716E-05-8.27181E-25
 -1       890 1.09810E-04 2.08181E-05-8.27181E-25
 -1       891 1.11637E-04 2.17584E-05 8.27181E-25
 -1       892 1.11366E-04 2.17126E-05 0.00000E+00
 -1       893 1.11053E-04 2.16668E-05 0.00000E+00
 -1       894 1.10676E-04 2.16211E-05 0.00000E+00
 -1       895 1.10214E-04 2.15754E-05-4.13590E-25
 -1       956 1.12730E-04 2.48714E-06-3.30872E-24
 -1       957 1.12627E-04 2.79466E-06-8.27181E-25
 -1       958 1.12525E-04 3.15940E-06-3.30872E-24
 -1       959 1.12422E-04 3.57392E-06 0.00000E+00
 -1       960 1.12319E-04 4.03079E-06 0.00000E+00
 -1       961 1.12216E-04 4.52250E-06 0.00000E+00
 -1       962 1.12113E-04 5.04157E-06-3.30872E-24
 -1       963 1.12010E-04 5.58051E-06 0.00000E+00
 -1       964 1.11906E-04 6.13182E-06 0.00000E+00
 -1       965 1.11803E-04 6.68800E-06 1.65436E-24
 -1       966 1.11700E-04 7.24154E-06 3.30872E-24
 -1       967 1.11597E-04 7.78496E-06 1.65436E-24
 -1       968 1.11494E-04 8.31074E-06-3.30872E-24
 -1       969 1.11392E-04 8.81143E-06 4.96308E-24
 -1       970 1.11289E-04 9.27956E-06 0.00000E+00
 -1       971 1.11093E-04 1.01536E-05-1.65436E-24
 -1       972 1.10996E-04 1.06828E-05 0.00000E+00
 -1       973 1.10899E-04 1.12865E-05 1.65436E-24
 -1       974 1.10802E-04 1.19551E-05 8.27181E-25
 -1       975 1.10705E-04 1.26789E-05 0.00000E+00
 -1       976 1.10608E-04 1.34483E-05-1.65436E-24
 -1       977 1.10511E-04 1.42537E-05-3.30872E-24
 -1       978 1.10414E-04 1.50854E-05-1.65436E-24
 -1       979 1.10317E-04 1.59339E-05 0.00000E+00
 -1       980 1.10219E-04 1.67894E-05 0.00000E+00
 -1       981 1.10122E-04 1.76423E-05-3.30872E-24
 -1       982 1.10025E-04 1.84830E-05 0.00000E+00
 -1       983 1.09928E-04 1.93019E-05-3.30872E-24
 -1       984 1.09832E-04 2.00892E-05 0.00000E+00
 -1       985 1.09736E-04 2.08354E-05 1.65436E-24
 -3
    1PSTEP                        14           7           1          
  100CL  107 5.50781E-01         409                     0    7           1
 -4  STRESS      6    1
 -5  SXX         1    4    1    1
 -5  SYY         1    4    2    2
 -5  SZZ         1    4    3    3
 -5  SXY         1    4    1    2
 -5  SYZ         1    4    2    3
 -5  SZX         1    4    3    1
 -1         1-2.38659E+06-1.00487E+06-5.06970E+05-1.27641E+06 4.51109E-10 2.40834E-08
 -1         2 2.52749E+03-4.29758E+05 8.22066E+03-1.12067E+03-9.05516E-11 2.01867E-08
 -1         3-3.05002E+02-1.11144E+06 2.70059E+02-7.27199E+02-2.13067E-10 1.15779E-08
 -1         5-1.58304E+00 2.88490E+05 7.39992E+00 7.37054E-02 7.31759E-12 6.42740E-09
 -1         8-1.14107E+06-4.06367E+05-1.19675E+05-5.45811E+05-4.54747E-11 5.42786E-09
 -1         9-2.22743E+06-8.04095E+05-2.84235E+05-7.41970E+05 6.97037E-09 3.95812E-09
 -1        10-1.03467E+03-1.15791E+06-1.60875E+03-4.92156E+03-6.20548E-09-2.20140E-08
 -1        12 1.45370E+00 2.88505E+05 2.39581E+02 5.75821E-01 1.14422E-10 9.29685E-09
 -1        15 1.98451E+03 1.09061E+03 6.41492E+03 4.32410E+00-1.21247E-10-6.86073E-09
 -1        16-2.52142E+06-1.23307E+06-4.15073E+05-1.32880E+06 1.13796E-08 1.74623E-10
 -1        17-1.29919E+06-6.92860E+05-2.40540E+05-6.01983E+05-4.90836E-09 6.67642E-09
 -1        18-3.21084E+04-1.27376E+04-3.04761E+04-7.64072E+04 5.80110E-09-6.74527E-09
 -1        19 9.21108E+04 1.07166E+05-6.87182E+02 1.80847E+04-3.50519E-10-9.00036E-10
 -1        20-4.47125E+04-4.35771E+05-9.65633E+04 2.87932E+04 2.73743E-09 3.03044E-09
 -1        21-3.98477E+01-2.45925E+05-7.87755E+02-4.63764E+01-5.76594E-09-9.12226E-09
 -1        24-2.94689E+06-6.73337E+05-3.07763E+05-1.02047E+06-4.54699E-08-1.94608E-08
 -1        25-7.05669E+04-4.45423E+05-8.55819E+04-1.22883E+05 7.68159E-10 2.77105E-09
 -1        26-2.99896E+04 7.09052E+04-1.66447E+04-6.58333E+03 1.72658E-09 5.54359E-09
 -1        27-6.57928E+04-2.37823E+05-8.87162E+04 5.37115E+04 5.40179E-09-6.62718E-10
 -1        28 1.89500E+04-6.86558E+04 1.39373E+04 2.06063E+04 2.13743E-09 9.90261E-09
 -1        32-1.14536E+06-1.24182E+06 1.42230E+05-5.72027E+05-2.64408E-08-2.50395E-11
 -1        33-1.38364E+05 6.89963E+04 2.46080E+04-3.55079E+04 6.84471E-10 1.52119E-08
 -1        34-1.76086E+05-1.78234E+04 4.48094E+02 5.52800E+04 1.92212E-09-2.08001E-09
 -1        35-1.92992E+04-2.72748E+04-1.07417E+03 4.28418E+04 2.58077E-09-1.02506E-08
 -1        51 2.24426E+04-3.46915E+05 5.43333E+04-9.63268E+05 4.36557E-11 7.85803E-09
 -1        52 1.17981E+04-3.42989E+05 3.36318E+04-1.12340E+06 6.91216E-10 7.37782E-09
 -1        53 7.36648E+03-3.57831E+05 2.55401E+04-9.59869E+05 7.85803E-10-2.15368E-09
 -1        54 2.02344E+04-3.56366E+05 3.72322E+04-1.12691E+06 2.83762E-10-1.07138E-08
 -1        55 3.97243E+04-3.70128E+05 6.41794E+04-9.59313E+05 6.11180E-10-1.25510E-09
 -1        56-4.55862E+06-5.10046E+05-3.73136E+05-1.76194E+06 1.29512E-09-3.79805E-09
 -1        57-4.72327E+06-8.33842E+05-2.51676E+05-1.73092E+06-6.54836E-11-1.23982E-08
 -1        58-4.63317E+06-6.28926E+05-8.77417E+04-1.73894E+06 1.09139E-09-6.42831E-09
 -1        59-4.63728E+06-6.93950E+05-5.23834E+04-1.75778E+06 1.17052E-09-9.38326E-09
 -1        60-4.64359E+06-6.45972E+05-2.04600E+04-1.73637E+06-3.94584E-09-1.70712E-09
 -1        61-4.62711E+06-6.72014E+05-1.15969E+04-1.75844E+06-3.81988E-09 3.56488E-09
 -1        62-4.64310E+06-6.50365E+05-5.52504E+03-1.73839E+06 3.08978E-09-6.47117E-09
 -1        63-4.63085E+06-6.64110E+05-4.41997E+03-1.75246E+06-2.20371E-09-1.25118E-08
 -1        64-4.63975E+06-6.53859E+05-4.92894E+03-1.74231E+06 3.42425E-09-1.47713E-08
 -1        65-4.63941E+06-6.58660E+05-9.76733E+03-1.74374E+06-1.09583E-09-1.35556E-08
 -1        66-4.63454E+06-6.55881E+05-1.70785E+04-1.74708E+06-1.36529E-09-1.67111E-08
 -1        67-4.65705E+06-6.67639E+05-4.34814E+04-1.73269E+06-1.34457E-09-6.30234E-09
 -1        68-4.62232E+06-6.45290E+05-7.28409E+04-1.75327E+06 1.70621E-09 6.14455E-09
 -1        69-4.73273E+06-7.79525E+05-2.08840E+05-1.70575E+06-3.35604E-10-1.53086E-08
 -1        70-4.55982E+06-5.47240E+05-3.09696E+05-1.77302E+06 3.85626E-10 4.32192E-09
 -1        86-1.26851E+03-4.32406E+05 8.79268E+03 5.60328E+02 9.86347E-10-5.68082E-09
 -1        87 8.39350E+03-4.26985E+05 1.83534E+04-2.14021E+03 1.63323E-09-2.44862E-08
 -1        88-7.11178E+03-4.35181E+05 2.81245E+04 1.57989E+03 2.37196E-09 1.43882E-09
 -1        89 5.29814E+04-4.06445E+05 7.57807E+04-3.85855E+03 3.55067E-09-9.84858E-09
 -1        90-4.56946E+04-4.52924E+05 1.07187E+05 2.27904E+03 3.34694E-09 1.24492E-08
 -1       121-4.40146E+02-1.11258E+06 1.03028E+02 3.62649E+02 7.22110E-10-5.49517E-09
 -1       122-2.11225E+02-1.11141E+06 5.70078E+02-1.45303E+03-2.49281E-09 1.28584E-08
 -1       123-4.92530E+02-1.11265E+06 7.61843E+02 1.08471E+03 2.01965E-09 4.69845E-09
 -1       124 8.50134E+02-1.11083E+06 2.34081E+03-3.11633E+03-4.67526E-09-2.59752E-09
 -1       125-1.14799E+03-1.11324E+06 3.42977E+03 2.02224E+03 2.93949E-09-8.49832E-09
 -1       191-1.90934E+00 2.88515E+05 9.03563E+00-3.69687E-02 5.41251E-11 5.09567E-09
 -1       192-2.26109E+00 2.88490E+05 1.56582E+01 3.22614E-01 1.00771E-10-5.13671E-09
 -1       193-3.71296E+00 2.88515E+05 2.93049E+01-2.86573E-01 5.92859E-11-9.69112E-09
 -1       194-4.44349E+00 2.88492E+05 5.92019E+01 7.66612E-01 1.22462E-11-2.07274E-09
 -1       195-7.17924E+00 2.88513E+05 1.15986E+02-4.83194E-01 1.14440E-10-4.41332E-10
 -1       251-1.39757E+06 1.70246E+04-4.02830E+04-1.69639E+04-9.24558E-10-7.98900E-09
 -1       252-1.41456E+06-1.95367E+04-2.82798E+04 3.23386E+04-5.01622E-10-1.43928E-09
 -1       253-1.40436E+06 2.56961E+03-1.04615E+04-1.64653E+04-1.21594E-09-6.89215E-09
 -1       254-1.40482E+06-2.85109E+03-6.06131E+03 2.31686E+04 1.35401E-09-3.04290E-08
 -1       255-1.40709E+06 2.44313E+02-3.03503E+03-7.79271E+03-8.46399E-10-1.69484E-08
 -1       256-1.40146E+06-3.20767E+02-6.73841E+02 2.03708E+03-2.13936E-09 2.98189E-09
 -1       257-1.40752E+06-1.12658E+02-1.04043E+03 4.66619E+03 1.14505E-09 1.07056E-09
 -1       258-1.40270E+06 1.40507E+02 3.60923E+02-2.03100E+04 1.03353E-09 1.84613E-08
 -1       259-1.40599E+06-1.02124E+02 5.94372E+01 1.45537E+04-1.01841E-09-8.64202E-09
 -1       260-1.40495E+06 4.72125E+02 8.00596E+02-3.24869E+04-2.36764E-09-4.22231E-09
 -1       261-1.40551E+06-2.58499E+02 1.33627E+03 1.68444E+04 4.53545E-09-1.67933E-09
 -1       262-1.40332E+06 1.82240E+03 3.62054E+03-2.83112E+04 6.44690E-10-7.21110E-09
 -1       263-1.40752E+06-1.52089E+03 5.06423E+03 1.03772E+04-6.78142E-10 9.64474E-09
 -1       264-1.39663E+06 1.05708E+04 1.54611E+04-9.92634E+03 2.96313E-09-3.64344E-09
 -1       265-1.41193E+06-9.17877E+03 2.02794E+04-1.54094E+03-3.10365E-10 4.82214E-09
 -1       266-3.59251E+04-1.67960E+04 8.43030E+04-9.25342E+01 1.30967E-10 1.49558E-08
 -1       267 4.16482E+04 1.95801E+04 5.95778E+04 1.06751E+02 5.72982E-11-2.61005E-08
 -1       268-5.58490E+03-2.77287E+03 2.21452E+04-1.36028E+01 2.72848E-12-4.52143E-09
 -1       269 6.59419E+03 3.31878E+03 1.43936E+04 1.58443E+01 5.63887E-11 2.63158E-09
 -1       270-9.89796E+02-5.45291E+02 6.94803E+03-2.15023E+00-1.70530E-11 1.53662E-08
 -1       271-3.34066E+06-4.17987E+05-2.52759E+05-1.30110E+06-1.00772E-09 8.29459E-09
 -1       272-3.42912E+06-6.04627E+05-1.62520E+05-1.30122E+06-1.63482E-10-2.17478E-08
 -1       273-3.38944E+06-4.79793E+05-5.97175E+04-1.28842E+06 1.00772E-09 2.81580E-09
 -1       274-3.37127E+06-5.29617E+05-3.33916E+04-1.32111E+06-1.31013E-09 1.18516E-08
 -1       275-3.39769E+06-4.84616E+05-1.39151E+04-1.28457E+06 5.35056E-09 3.03316E-09
 -1       276-3.36089E+06-5.24647E+05-7.35352E+03-1.32773E+06 7.03039E-10 1.92199E-09
 -1       277-3.40021E+06-4.83598E+05-3.61996E+03-1.28248E+06-1.03955E-09 3.33284E-09
 -1       278-3.35787E+06-5.26203E+05-2.58944E+03-1.33104E+06 1.65937E-09-9.28037E-09
 -1       279-3.40107E+06-4.82752E+05-2.75483E+03-1.28155E+06-1.61594E-09 2.86434E-09
 -1       280-3.35777E+06-5.27393E+05-5.03746E+03-1.33176E+06 4.39302E-10 9.32368E-09
 -1       281-3.40041E+06-4.82388E+05-9.15791E+03-1.28182E+06-1.99316E-09-5.32418E-09
 -1       282-3.36321E+06-5.32121E+05-2.19643E+04-1.32922E+06 1.41995E-10 7.97172E-09
 -1       283-3.39554E+06-4.78693E+05-3.91160E+04-1.28376E+06 2.01157E-09-4.44197E-09
 -1       284-3.40046E+06-5.81925E+05-1.06589E+05-1.31679E+06-2.27828E-09-2.05964E-08
 -1       285-3.36363E+06-4.38154E+05-1.65748E+05-1.29201E+06 9.82254E-11 1.21800E-08
 -1       301 2.24401E+04-6.99318E+04 1.64431E+05-1.34278E+05-2.76486E-10 6.48919E-09
 -1       302 2.35777E+04-2.83784E+04 1.08022E+05-1.97134E+05 1.05456E-09 6.67205E-09
 -1       303 1.24565E+03-5.35382E+04 8.29235E+04-1.34260E+05-5.54792E-10-2.39561E-09
 -1       304 2.74907E+04-2.39857E+04 1.21592E+05-1.96693E+05 8.18545E-10 5.02041E-10
 -1       305 2.63679E+04-7.30822E+04 1.94395E+05-1.34771E+05-6.03904E-10-9.53150E-10
 -1       306-6.18295E+06-6.05537E+05-5.00955E+05-2.15874E+06-3.94448E-09-5.18048E-09
 -1       307-5.38295E+06-1.46340E+06-2.49475E+05-2.74478E+06-7.32362E-08-1.78989E-08
 -1       308-6.33339E+06-4.88603E+05-1.11607E+05-1.82374E+06-7.72343E-09-5.49335E-09
 -1       309-5.30195E+06-1.51928E+06-5.16635E+04-3.16544E+06 2.45373E-08 2.12458E-09
 -1       310-6.34462E+06-4.87354E+05-2.59828E+04-1.79331E+06 1.43846E-08-1.61945E-08
 -1       311-5.26612E+06-1.33564E+06 2.49752E+04-2.87789E+06 8.02247E-08-1.40553E-08
 -1       312-6.30535E+06-7.18671E+05-5.76613E+04-2.06926E+06 2.11003E-08 3.89209E-08
 -1       313-5.50108E+06-8.50433E+05 7.13062E+04-2.17979E+06-3.14867E-08 2.01399E-08
 -1       314-6.02870E+06-1.03054E+06-6.75152E+04-2.42829E+06 1.75278E-08-1.34569E-08
 -1       315-6.22752E+06-2.95460E+05 3.55774E+04-1.64220E+06-3.39787E-08-5.38967E-09
 -1       316-5.63760E+06-1.23043E+06-3.92823E+04-2.64509E+06-7.43748E-08-3.10429E-08
 -1       317-6.79027E+06-3.34579E+04-6.04736E+04-1.46096E+06 7.29215E-08-4.71191E-08
 -1       318-5.54790E+06-1.23515E+06-1.18864E+05-2.67809E+06-7.12607E-08 9.10586E-09
 -1       319-6.59822E+06-3.77273E+05-3.07983E+05-1.51159E+06-1.49048E-08 1.16088E-08
 -1       320-5.78363E+06-9.22733E+05-5.57913E+05-2.55298E+06 2.78233E-08-1.30094E-08
 -1       336 5.20930E+02-1.20443E+06-6.86315E+03 2.88334E+03-1.21640E-08 9.02401E-09
 -1       337-2.54652E+03-1.20552E+06-7.59325E+03-7.08548E+03-2.31780E-08-4.69754E-09
 -1       338 3.47780E+02-1.20458E+06-1.00844E+04 4.17357E+03-1.60876E-08-7.26322E-09
 -1       339-1.04010E+04-1.21064E+06-2.20093E+04-9.60733E+03-2.90784E-08 9.63337E-09
 -1       340 6.85344E+03-1.19967E+06-3.41875E+04 5.38280E+03-1.92740E-08 1.79953E-08
 -1       406 1.99376E+01 2.88502E+05 4.73182E+02-9.72372E-02 2.50651E-10 9.16657E-09
 -1       407 1.66342E+02 2.88588E+05 1.00525E+03-2.95204E+00-1.31877E-11-1.01245E-08
 -1       408 5.19042E+02 2.88430E+05 2.00792E+03 3.12362E+00 2.29079E-10 8.43761E-09
 -1       409 2.17211E+03 2.89229E+05 4.51994E+03-3.08718E+01-1.17325E-10-7.24629E-09
 -1       410 6.23824E+03 2.87859E+05 9.22742E+03 2.90861E+01 1.09139E-10-6.35794E-09
 -1       521-8.50153E+06-8.40988E+05-8.99351E+05-2.51097E+06-7.31961E-09 6.98492E-09
 -1       522-5.10443E+06-2.19608E+06-1.29945E+05-4.20914E+06-1.08907E-07-2.97841E-08
 -1       523-8.32469E+06-2.28777E+05-1.65961E+05-1.57373E+06 2.17115E-08-7.29997E-08
 -1       524-5.81964E+06-2.40711E+06-1.65654E+04-5.47451E+06 1.43286E-07-1.31454E-07
 -1       525-8.32078E+06-2.30059E+05-5.17492E+04-1.54762E+06 1.37952E-07-6.78301E-08
 -1       526-5.03769E+06-2.04717E+06 2.05145E+05-4.33813E+06 4.04543E-09-4.58385E-09
 -1       527-8.60561E+06-9.59596E+05-3.11932E+05-2.43076E+06 5.06116E-08-1.18525E-08
 -1       528-5.05463E+06-7.90242E+05 3.96776E+05-2.05460E+06 2.80343E-08-2.60115E-09
 -1       529-7.82220E+06-1.82379E+06-3.34214E+05-3.41694E+06 2.89438E-08 1.75787E-08
 -1       530-7.71365E+06 8.17939E+05 2.33824E+05-9.57782E+05-1.29621E-07 9.92441E-08
 -1       531-6.41832E+06-2.21879E+06-7.39430E+04-3.80749E+06-1.45759E-07-8.17818E-09
 -1       532-9.74461E+06 1.53025E+06-1.04067E+04-1.00467E+06 1.32135E-07-1.22454E-07
 -1       533-6.25736E+06-2.22115E+06-1.35973E+05-3.82790E+06 3.91010E-08-1.80432E-07
 -1       534-8.31324E+06 8.49266E+05-1.34089E+05-9.04697E+05-5.16011E-08 1.43843E-07
 -1       535-7.49820E+06-1.77748E+06-8.40071E+05-3.54958E+06-1.10304E-08 8.71951E-08
 -1       536-4.06868E+05-2.22571E+04 3.47486E+04-1.61140E+04-3.82158E-09 2.06928E-08
 -1       537-3.22494E+05 2.46904E+04 3.67101E+04 3.90081E+04-4.56857E-08 2.78960E-08
 -1       538-3.65663E+05-2.12246E+03 1.10154E+04-2.38694E+04 3.64990E-09 3.96840E-08
 -1       539-3.47682E+05 3.34985E+03 9.72645E+03 4.31343E+04 5.23281E-08 4.82357E-08
 -1       540-3.82105E+05-5.96386E+02-6.80482E+02-2.02549E+04 8.85962E-10 3.55445E-08
 -1       541-2.93863E+05 2.71387E+03 1.55995E+04 2.52979E+04-1.70549E-08 1.64905E-08
 -1       542-4.18028E+05-2.66848E+03-1.02895E+04-5.99700E+03 9.70590E-09 7.62674E-09
 -1       543-2.68225E+05 3.32509E+03 1.93516E+04-6.80146E+03-5.87852E-09 1.02266E-09
 -1       544-4.07063E+05-1.75913E+03-9.08606E+03 1.18109E+04-4.00360E-09-2.18122E-08
 -1       545-3.18994E+05 4.37671E+02 7.54538E+03-3.51952E+04-3.72808E-09-2.65801E-08
 -1       546-3.68589E+05 1.29618E+03-3.40537E+03 2.23887E+04 8.61053E-09-3.56299E-08
 -1       547-3.55253E+05-3.54027E+03-4.72497E+03-4.49310E+04-4.00748E-08-4.34766E-08
 -1       548-3.71729E+05 2.96630E+03-1.24159E+04 2.15742E+04-3.86036E-08-4.17772E-08
 -1       549-3.17785E+05-1.59260E+04-1.74925E+04-3.19842E+04-2.05005E-08-1.82108E-08
 -1       550-4.04895E+05 1.27270E+04-5.19766E+04 9.40983E+03 7.05995E-10-5.91535E-09
 -1       551 2.05186E+04-6.16159E+05 2.56210E+04-1.01242E+06-5.17466E-08 2.40107E-09
 -1       552 4.50204E+04-6.29793E+05 3.27940E+04-1.44240E+06-3.67145E-08 1.23400E-08
 -1       553 3.20625E+04-6.35091E+05 4.72172E+04-1.00858E+06-6.13873E-08 2.61207E-08
 -1       554 7.20380E+04-6.26480E+05 9.84038E+04-1.44382E+06-4.01633E-08 1.65516E-08
 -1       555 6.01105E+04-6.53437E+05 1.74318E+05-1.00959E+06-6.31117E-08-1.05138E-09
 -1       556 1.09467E+05-2.02916E+05 6.51104E+04-2.52076E+05-8.73115E-09 1.70257E-09
 -1       557 1.93927E+05-2.69945E+05 3.47408E+04-3.20490E+05-2.73576E-09 7.47968E-09
 -1       558 1.06964E+05-2.09443E+05 1.34223E+04-2.46108E+05-5.61704E-09 8.46921E-09
 -1       559 1.79991E+05-2.78095E+05 7.01416E+03-3.27516E+05 6.98492E-10-1.45974E-08
 -1       560 1.02647E+05-2.06607E+05 2.55168E+03-2.49036E+05 8.64384E-09-1.05174E-08
 -1       561 1.73837E+05-2.76112E+05 1.49938E+03-3.31471E+05 1.72295E-08 6.50380E-09
 -1       562 9.92315E+04-2.04378E+05 4.00134E+02-2.51495E+05 5.78439E-09 3.52338E-09
 -1       563 1.69791E+05-2.74364E+05 3.70014E+02-3.34065E+05-1.74623E-09 1.98952E-09
 -1       564 9.70047E+04-2.02954E+05 8.52692E+01-2.53073E+05-3.82715E-09-5.70162E-09
 -1       565 1.67495E+05-2.73373E+05 1.26385E+02-3.35517E+05-5.81531E-09-1.59707E-09
 -1       566 9.60204E+04-2.02315E+05 1.66660E+01-2.53770E+05 4.20187E-09-2.22826E-09
 -1       567 1.66907E+05-2.73106E+05-6.64473E+01-3.35803E+05 3.21734E-11-9.22228E-10
 -1       568 9.63230E+04-2.02517E+05-3.43400E+02-2.53642E+05 7.97445E-09 6.31917E-09
 -1       569 1.67181E+05-2.73032E+05-8.26215E+02-3.34143E+05 1.02846E-08 1.78989E-09
 -1       570 9.86116E+04-2.04400E+05-1.95000E+03-2.53314E+05 2.52476E-09 1.09776E-08
 -1       571 2.15306E+05 7.93428E+03 1.17023E+04-5.57734E+04-6.13454E-10-8.24684E-10
 -1       572 2.17041E+05 2.78900E+03 5.73360E+03-6.11621E+04-3.81215E-09 1.69957E-08
 -1       573 2.16001E+05 6.94047E+02 2.54725E+03-5.56418E+04-3.34967E-09 9.25411E-09
 -1       574 2.16202E+05 2.57242E+02 1.27646E+03-6.13122E+04-1.65733E-09-1.38975E-08
 -1       575 2.16078E+05 6.93382E+01 6.01884E+02-5.56244E+04 2.38947E-09 7.99491E-09
 -1       576 2.16089E+05 5.18977E+01 3.06932E+02-6.13322E+04 2.56983E-09 3.93356E-09
 -1       577 2.16093E+05 3.37832E+01 1.52086E+02-5.56221E+04-9.36575E-09 1.44928E-09
 -1       578 2.16084E+05 3.82986E+01 8.48483E+01-6.13347E+04-2.18590E-08-4.35693E-09
 -1       579 2.16113E+05 2.71439E+01 5.50510E+01-5.56220E+04-8.13725E-09-5.40922E-09
 -1       580 2.16112E+05 2.64642E+01 5.70568E+01-6.13315E+04-1.29148E-10-3.63252E-09
 -1       581 2.16146E+05 1.37499E+01 8.29784E+01-5.56253E+04 1.57797E-09-3.63616E-09
 -1       582 2.16170E+05 2.85002E+01 1.63036E+02-6.12970E+04 1.49157E-10-4.67162E-09
 -1       583 2.16183E+05 6.40617E+01 3.14758E+02-5.56564E+04 7.09406E-11-7.88145E-09
 -1       584 2.16333E+05 3.12508E+02 7.07662E+02-6.10361E+04 1.29603E-09-7.90351E-09
 -1       585 2.16152E+05 9.33306E+02 1.43733E+03-5.58866E+04-8.45830E-10 3.25599E-10
 -1       586-2.63175E+03 7.06379E+04-3.28712E+03-1.92324E+05-3.08319E-10 1.19437E-08
 -1       587-6.04587E+02 7.02227E+04-1.54080E+02-2.11678E+05 1.47338E-10 1.93086E-08
 -1       588 7.31766E+02 7.02760E+04 2.85697E+03-1.92227E+05-4.18368E-11 1.64709E-08
 -1       589 3.93893E+03 7.18303E+04 8.02746E+03-2.11466E+05-6.40284E-10-2.09893E-08
 -1       590 1.15361E+04 6.93733E+04 1.70811E+04-1.92546E+05-6.24823E-10-1.22927E-08
 -1       591-4.48578E+04-1.20561E+04-1.52005E+04-2.21760E+04-1.39039E-10 3.40424E-09
 -1       592-4.66929E+04-1.53787E+04-8.23342E+03-2.56724E+04-3.96631E-09-4.55020E-09
 -1       593-4.63885E+04-1.09424E+04-3.42751E+03-2.32802E+04-3.56420E-09-4.77485E-12
 -1       594-4.45812E+04-1.31624E+04-1.70946E+03-2.57694E+04-6.34850E-09-8.80817E-10
 -1       595-4.65056E+04-1.09378E+04-7.85402E+02-2.33307E+04-3.81527E-09 3.61658E-09
 -1       596-4.44377E+04-1.30609E+04-4.00089E+02-2.57538E+04 1.68490E-09 1.24009E-08
 -1       597-4.65204E+04-1.09478E+04-2.19630E+02-2.33327E+04 3.74334E-09 1.82621E-09
 -1       598-4.44238E+04-1.30571E+04-1.79805E+02-2.57493E+04 3.22086E-09-1.80875E-08
 -1       599-4.65193E+04-1.09479E+04-2.33738E+02-2.33323E+04 5.07669E-09-8.70955E-09
 -1       600-4.44387E+04-1.30621E+04-4.37449E+02-2.57529E+04 1.36038E-09 5.83429E-09
 -1       601-4.65009E+04-1.09376E+04-8.64694E+02-2.33293E+04 1.71667E-09 1.95632E-09
 -1       602-4.45966E+04-1.31737E+04-1.88538E+03-2.57677E+04-2.19256E-09-7.08121E-09
 -1       603-4.63699E+04-1.09448E+04-3.78146E+03-2.32739E+04-2.83762E-10-1.03435E-08
 -1       604-4.69362E+04-1.56077E+04-9.08363E+03-2.56462E+04 1.64493E-09 3.58864E-09
 -1       605-4.46686E+04-1.21835E+04-1.67701E+04-2.20666E+04 7.33394E-10 1.00035E-08
 -1       606 2.78061E+04-1.03302E+04-1.85796E+04 2.69488E+04-1.76988E-09 4.01087E-09
 -1       607 2.46256E+04-3.34222E+03-9.25162E+03 3.02550E+04-1.47702E-09-1.82108E-08
 -1       608 2.64290E+04-5.73284E+02-4.14306E+03 2.67364E+04 2.90311E-09 2.39334E-09
 -1       609 2.60711E+04-1.59048E+02-2.09250E+03 3.04923E+04-2.98314E-10 4.98085E-09
 -1       610 2.62618E+04 1.54544E+01-9.99498E+02 2.67125E+04-3.67982E-09-4.98449E-09
 -1       611 2.61952E+04 2.79020E+01-5.03951E+02 3.05182E+04-7.40420E-09-1.97815E-09
 -1       612 2.62168E+04 3.21968E+01-2.40868E+02 2.67101E+04-4.10000E-09 6.27142E-09
 -1       613 2.61923E+04 3.71949E+01-1.09119E+02 3.05212E+04-4.48199E-09 4.41105E-09
 -1       614 2.61921E+04 3.31416E+01-2.90473E+01 2.67093E+04 6.27551E-10 3.12366E-09
 -1       615 2.61795E+04 4.32141E+01 3.77666E+01 3.05217E+04 5.07271E-09-4.17504E-09
 -1       616 2.61732E+04 3.94622E+01 1.20517E+02 2.67096E+04-2.16687E-09 1.68802E-09
 -1       617 2.61873E+04 7.30329E+01 2.78041E+02 3.05211E+04 2.47564E-09 2.06637E-09
 -1       618 2.61440E+04 1.22791E+02 5.61427E+02 2.67097E+04-1.82808E-10-1.35378E-09
 -1       619 2.63814E+04 5.09743E+02 1.26150E+03 3.05203E+04 3.16163E-10-1.60048E-09
 -1       620 2.59550E+04 1.45651E+03 2.53570E+03 2.67086E+04 2.89674E-09 1.37425E-09
 -1       621 2.89475E+02 2.24498E+05 2.61821E+03 1.24946E+04-4.67253E-11 4.47289E-09
 -1       622 3.45543E+02 2.25142E+05 2.36479E+03 1.81997E+04 1.36424E-12-7.35417E-09
 -1       623 1.85147E+01 2.24660E+05 2.90497E+03 1.24349E+04-5.05906E-12 1.19735E-09
 -1       624 1.36932E+03 2.26072E+05 5.67832E+03 1.82602E+04-7.43512E-11 3.79600E-10
 -1       625 1.37643E+03 2.23549E+05 9.94775E+03 1.24338E+04 8.59472E-11 2.85127E-09
 -1       626 1.94017E+05 5.19749E+04 4.12143E+03 1.02327E+05-3.49746E-09-5.30417E-09
 -1       627 1.91616E+05 5.36335E+04 1.98609E+03 1.06362E+05 5.21595E-10-5.70958E-09
 -1       628 1.94149E+05 5.00502E+04 8.39000E+02 1.02978E+05 1.00954E-10-8.22092E-09
 -1       629 1.91049E+05 5.31364E+04 4.10976E+02 1.06601E+05 2.33558E-09 1.02627E-08
 -1       630 1.94157E+05 4.99597E+04 1.89860E+02 1.02997E+05-6.31189E-10 4.09796E-09
 -1       631 1.90981E+05 5.31231E+04 1.01610E+02 1.06601E+05-3.14139E-09-1.00540E-08
 -1       632 1.94148E+05 4.99668E+04 6.58741E+01 1.02989E+05 3.83989E-09-6.34509E-09
 -1       633 1.90967E+05 5.31285E+04 7.19298E+01 1.06594E+05 1.03512E-08-2.26443E-08
 -1       634 1.94138E+05 4.99677E+04 1.14871E+02 1.02985E+05 1.31372E-08-8.77299E-09
 -1       635 1.90973E+05 5.31298E+04 2.31857E+02 1.06594E+05 1.99884E-09-6.72321E-09
 -1       636 1.94126E+05 4.99662E+04 4.67782E+02 1.02982E+05 7.18160E-10-1.87788E-09
 -1       637 1.91069E+05 5.32038E+04 1.02791E+03 1.06590E+05-6.30251E-10 9.00036E-09
 -1       638 1.94087E+05 5.01948E+04 2.11222E+03 1.02877E+05 1.08116E-09 1.14710E-08
 -1       639 1.92177E+05 5.47473E+04 4.99695E+03 1.06261E+05 4.31328E-10 5.63523E-09
 -1       640 1.93939E+05 5.47957E+04 1.03697E+04 1.00927E+05 3.91765E-09 1.09821E-08
 -1       656 5.16187E+04-1.31001E+06-1.24606E+05-4.73656E+02 2.98314E-10 3.93925E-10
 -1       657-6.82336E+04-1.36626E+06-1.03102E+05 7.58693E+03 4.25644E-10 6.57158E-09
 -1       658 1.63952E+04-1.32603E+06-6.33372E+04-1.87388E+03 1.69848E-10 7.02524E-09
 -1       659-7.33479E+04-1.36869E+06-1.09820E+05 8.57187E+03-1.41790E-09-6.22419E-10
 -1       660 5.67211E+04-1.30759E+06-1.36158E+05-1.45859E+03-1.06229E-09-1.73048E-09
 -1       661 1.69145E+05 1.83092E+04 1.65245E+04 6.61409E+04-6.76209E-10 6.90125E-09
 -1       662 1.77930E+05 3.10948E+04 1.11351E+04 6.30680E+04 1.13687E-12-1.12798E-08
 -1       663 1.72387E+05 2.36133E+04 3.89499E+03 6.52029E+04 7.25322E-11-7.05995E-10
 -1       664 1.74176E+05 2.48880E+04 2.32900E+03 6.42103E+04-1.73685E-10-1.35786E-08
 -1       665 1.72875E+05 2.43416E+04 9.18728E+02 6.50643E+04-3.95238E-09-9.41287E-09
 -1       666 1.73602E+05 2.40520E+04 5.36212E+02 6.43892E+04-3.39631E-09-7.78331E-09
 -1       667 1.72958E+05 2.44273E+04 2.83194E+02 6.50322E+04-9.57385E-10-3.20141E-09
 -1       668 1.73513E+05 2.39864E+04 2.84867E+02 6.44357E+04 3.66657E-09-6.97017E-09
 -1       669 1.72964E+05 2.44053E+04 3.82621E+02 6.50184E+04 8.12420E-10 5.12929E-09
 -1       670 1.73607E+05 2.41910E+04 8.30343E+02 6.44370E+04 4.75305E-09 5.56554E-10
 -1       671 1.72863E+05 2.42268E+04 1.47337E+03 6.50293E+04-1.44890E-09 2.77225E-10
 -1       672 1.74465E+05 2.56245E+04 3.76884E+03 6.42298E+04 1.13553E-09 3.59529E-09
 -1       673 1.72110E+05 2.30079E+04 6.31567E+03 6.52118E+04-3.26804E-09 1.03660E-09
 -1       674 1.80478E+05 3.57695E+04 1.80614E+04 6.24620E+04-3.33262E-09-1.94996E-09
 -1       675 1.66890E+05 1.43655E+04 2.68090E+04 6.66901E+04-4.09727E-10-6.51198E-10
 -1       676 2.04415E+01-2.45859E+05-9.49449E+02 2.31888E+01-1.26636E-09-1.24310E-08
 -1       677-2.52112E+02-2.46089E+05-1.73762E+03-4.63501E+01-4.86344E-09-1.59409E-08
 -1       678 1.68316E+02-2.45696E+05-3.07165E+03 2.31455E+01-2.24065E-09-1.00716E-08
 -1       679-3.07248E+03-2.47943E+05-7.29680E+03-4.61844E+01-1.00783E-09-8.99287E-09
 -1       680 1.83368E+03-2.44006E+05-1.17600E+04 2.27601E+01-6.43013E-10 1.95515E-09
 -1       771-2.61602E+06-5.10672E+05-7.47832E+04-1.14127E+06-1.62108E-08-1.20635E-08
 -1       772-2.58314E+06-5.58327E+05-3.94622E+04-1.19530E+06-1.06811E-08 1.04301E-08
 -1       773-2.62858E+06-5.00755E+05-1.82676E+04-1.14572E+06-5.10772E-09 5.04951E-09
 -1       774-2.57437E+06-5.50400E+05-8.55699E+03-1.20365E+06 1.58907E-08-2.17915E-09
 -1       775-2.63334E+06-4.97404E+05-5.19366E+03-1.14685E+06 3.27418E-09 5.65342E-09
 -1       776-2.57614E+06-5.50273E+05-2.15414E+03-1.20917E+06-1.81171E-09 2.13549E-09
 -1       777-2.63715E+06-4.94590E+05-1.89098E+03-1.14781E+06-3.02680E-09-6.56291E-09
 -1       778-2.57838E+06-5.50297E+05-6.33096E+02-1.21383E+06 3.60887E-09 4.20550E-09
 -1       779-2.64032E+06-4.92190E+05-8.68004E+02-1.14864E+06 3.78350E-10-5.18412E-09
 -1       780-2.58039E+06-5.50272E+05-2.69581E+02-1.21760E+06 4.04543E-09-4.86671E-09
 -1       781-2.64278E+06-4.90284E+05-5.19349E+02-1.14929E+06-1.11831E-08-2.49565E-09
 -1       782-2.58197E+06-5.50230E+05-3.97761E+02-1.22037E+06-1.88047E-08-4.20096E-09
 -1       783-2.64445E+06-4.88994E+05-8.31532E+02-1.14975E+06-6.29007E-09-1.19032E-08
 -1       784-2.58338E+06-5.50633E+05-1.72470E+03-1.22204E+06-8.70932E-09-3.16504E-10
 -1       785-2.64499E+06-4.88570E+05-3.23967E+03-1.14975E+06-1.37352E-08 7.84621E-09
 -1       786 1.50083E+05-9.35949E+03 2.16531E+04-8.88583E+01 7.80697E-10 5.34146E-09
 -1       787 1.59469E+05 1.08354E+04 1.53190E+04 2.50395E+01 2.31328E-09 6.97128E-09
 -1       788 1.53703E+05-1.46716E+03 5.60356E+03-6.77895E+01 1.48462E-09 5.50517E-09
 -1       789 1.55252E+05 1.69750E+03 3.51965E+03-9.31360E+00 3.19594E-10-1.41217E-08
 -1       790 1.54301E+05-2.29063E+02 1.42955E+03-5.45082E+01-5.96082E-10-4.65661E-09
 -1       791 1.54554E+05 2.65402E+02 8.34357E+02-3.29605E+01-1.00551E-09 1.02929E-08
 -1       792 1.54402E+05-3.61433E+01 3.70977E+02-4.41426E+01-5.67093E-10 8.97018E-10
 -1       793 1.54438E+05 4.60119E+01 2.23109E+02-5.36026E+01-1.01894E-10 2.04523E-10
 -1       794 1.54417E+05-9.81433E+00 1.34700E+02-3.38657E+01 6.99349E-10 9.93165E-10
 -1       795 1.54432E+05 3.90017E+01 1.50669E+02-7.66831E+01-6.27486E-10 1.10209E-08
 -1       796 1.54408E+05-2.91337E+01 1.98969E+02-2.10618E+01 3.60102E-10 1.21766E-10
 -1       797 1.54515E+05 2.10926E+02 4.47054E+02-1.08041E+02 5.48845E-10-3.22925E-09
 -1       798 1.54334E+05-1.81615E+02 6.98518E+02-2.50737E+00 9.71996E-11 1.24502E-08
 -1       799 1.55037E+05 1.34064E+03 1.89797E+03-1.55654E+02 1.95600E-10 3.42229E-09
 -1       800 1.53885E+05-1.15794E+03 2.67911E+03 2.65524E+01 1.93635E-10-4.43856E-09
 -1       801 6.44562E+04-2.32015E+06-2.14070E+05 4.14225E+04 1.63418E-08-3.99268E-10
 -1       802-7.52013E+04-2.11518E+06-9.04919E+04-5.72740E+04 4.56930E-08-3.56022E-09
 -1       803 9.28617E+03-2.21220E+06-2.77702E+04 1.10435E+05 3.48628E-08 3.09208E-08
 -1       804 3.44709E+04-2.07515E+06 5.35166E+04-2.45867E+04 3.57541E-08 2.84060E-08
 -1       805-4.62834E+04-2.35960E+06 4.16294E+04 8.72624E+03 1.35551E-08 2.12290E-08
 -1       806-2.36408E+05-4.65866E+04-1.82347E+04-9.42787E+04-2.60206E-09-9.00172E-09
 -1       807-2.37853E+05-4.36013E+04-8.95844E+03-9.86848E+04 1.60753E-09 5.85345E-10
 -1       808-2.36904E+05-4.00202E+04-3.80034E+03-9.73933E+04 1.74305E-09-3.88150E-09
 -1       809-2.35965E+05-4.10898E+04-1.85815E+03-9.89131E+04 2.47928E-09 4.22756E-09
 -1       810-2.36981E+05-3.97905E+04-8.51242E+02-9.75314E+04 5.61113E-09-6.27142E-09
 -1       811-2.35820E+05-4.09890E+04-4.22798E+02-9.88871E+04 1.02127E-08-2.47439E-09
 -1       812-2.36994E+05-3.98090E+04-2.12468E+02-9.75312E+04 7.48241E-09 4.72278E-09
 -1       813-2.35801E+05-4.09907E+04-1.36151E+02-9.88741E+04-9.55424E-10-1.60015E-08
 -1       814-2.36991E+05-3.98157E+04-1.31480E+02-9.75285E+04 4.21414E-09-9.76002E-09
 -1       815-2.35804E+05-4.09924E+04-2.09140E+02-9.88701E+04 7.37236E-09-1.31422E-09
 -1       816-2.36977E+05-3.98141E+04-3.94246E+02-9.75262E+04 6.84759E-09 1.77724E-08
 -1       817-2.35872E+05-4.10299E+04-8.45878E+02-9.88632E+04 2.71439E-09 6.25914E-09
 -1       818-2.36928E+05-3.99323E+04-1.72455E+03-9.74702E+04 2.36469E-11-8.97217E-10
 -1       819-2.36819E+05-4.20708E+04-4.05851E+03-9.86405E+04-8.42601E-09-6.59566E-09
 -1       820-2.36607E+05-4.29945E+04-8.26004E+03-9.61565E+04-6.46378E-09-8.64395E-09
 -1       821-2.94308E+05 1.62814E+04-3.76538E+04 2.84805E+02 1.49172E-09-3.43061E-09
 -1       822-3.10621E+05-1.88485E+04-2.66450E+04-9.84341E+02-1.31288E-09 4.73210E-09
 -1       823-3.00602E+05 2.55292E+03-9.75208E+03 2.97690E+02-1.51428E-10-2.19143E-09
 -1       824-3.03272E+05-2.95445E+03-6.13484E+03-8.18712E+02 3.57164E-10-2.09980E-10
 -1       825-3.01655E+05 3.99307E+02-2.52415E+03 1.19174E+02-5.13385E-10 9.55538E-10
 -1       826-3.02041E+05-4.70538E+02-1.51848E+03-3.50462E+02-3.17715E-09 8.96978E-09
 -1       827-3.01832E+05 7.03257E+01-7.92810E+02-1.70568E+02-2.67749E-09 9.42467E-09
 -1       828-3.01877E+05-1.43673E+02-6.95315E+02 2.12918E+02-4.68006E-09 5.78991E-09
 -1       829-3.01819E+05 7.27438E+01-8.07685E+02-4.44215E+02 4.10907E-11-1.02307E-09
 -1       830-3.02080E+05-4.87412E+02-1.57437E+03 6.23578E+02 2.18722E-09 1.54796E-09
 -1       831-3.01630E+05 4.14352E+02-2.61068E+03-5.81237E+02-3.27271E-09 1.50067E-11
 -1       832-3.03340E+05-3.06225E+03-6.36203E+03 7.01204E+02-2.92651E-09-1.87072E-09
 -1       833-3.00560E+05 2.64587E+03-1.01116E+04-5.21841E+02-1.40102E-09 4.79258E-09
 -1       834-3.10923E+05-1.95401E+04-2.76215E+04 4.11515E+02-1.26191E-09 8.63474E-09
 -1       835-2.94048E+05 1.68791E+04-3.90448E+04-2.91534E+02 5.18618E-09 1.35151E-09
 -1       836-9.93433E+02 2.77420E+05 1.67984E+04-1.90211E+04 3.83807E-10-1.09230E-08
 -1       837 3.67255E+03 2.82637E+05 1.43705E+04-3.82263E+04 9.56106E-10-1.40190E-08
 -1       838-3.75800E+02 2.78863E+05 1.48596E+04-1.89515E+04 9.95442E-10 7.60883E-09
 -1       839 9.52935E+03 2.87001E+05 2.83238E+04-3.82607E+04 1.57797E-09 2.59648E-09
 -1       840-2.88157E+03 2.73014E+05 4.52579E+04-1.89855E+04 9.71340E-10 1.05649E-09
 -1       856-7.91447E+04 7.54387E+03-1.98805E+04-4.32828E+02-1.33986E-09-6.29097E-09
 -1       857-8.73539E+04-8.84933E+03-1.36869E+04 4.67268E+03-1.74623E-10-5.48607E-09
 -1       858-8.23889E+04 1.05705E+03-5.15936E+03-4.54691E+02-3.03453E-09-2.93380E-09
 -1       859-8.36289E+04-1.23003E+03-3.11548E+03 4.70732E+03 1.87136E-09 3.67618E-09
 -1       860-8.28738E+04 1.47068E+02-1.30908E+03-4.67563E+02 3.91822E-10-9.25240E-10
 -1       861-8.30706E+04-1.63077E+02-7.27270E+02 4.72495E+03-5.62817E-09-1.89971E-10
 -1       862-8.29493E+04 1.94267E+01-3.16603E+02-4.72348E+02 4.31876E-09-7.71929E-09
 -1       863-8.29806E+04-1.13394E+01-1.47760E+02 4.72719E+03 1.21516E-08-1.52564E-08
 -1       864-8.29641E+04-1.30955E+00-2.86213E+01-4.69808E+02 3.93726E-09 7.81657E-09
 -1       865-8.29484E+04 3.26144E+01 7.74839E+01 4.71422E+03 5.29617E-09-2.55251E-09
 -1       866-8.29799E+04-2.49533E+01 1.93574E+02-4.59379E+02-1.70161E-09-4.44595E-09
 -1       867-8.28470E+04 2.08202E+02 5.00679E+02 4.68587E+03 9.45079E-10-6.52796E-09
 -1       868-8.30619E+04-1.74914E+02 8.37588E+02-4.41461E+02 1.09623E-09-1.10276E-11
 -1       869-8.22252E+04 1.45324E+03 2.23943E+03 4.63896E+03 4.91013E-10-1.79369E-08
 -1       870-8.35961E+04-1.23791E+03 3.24837E+03-4.12467E+02 8.28891E-10 4.29509E-10
 -1       871-4.40879E+03-1.01854E+04-1.44310E+04 9.54595E+04 1.36879E-09 5.51154E-10
 -1       872-1.88062E+03-1.34343E+04-5.91081E+03 1.23761E+05 2.35559E-09-2.31375E-09
 -1       873-7.20255E+00-1.19150E+04 7.67555E+02 9.52501E+04 2.24099E-09 4.94219E-09
 -1       874 2.22614E+03-9.86550E+03 8.01500E+03 1.23801E+05 3.43084E-09 1.51776E-08
 -1       875 5.19308E+03-1.38161E+04 1.78231E+04 9.54258E+04 3.55612E-10-9.29504E-09
 -1       876 2.32154E+05 3.98184E+04 1.22772E+04 9.39776E+04-1.06087E-09-6.28461E-10
 -1       877 2.32885E+05 4.24853E+04 6.55637E+03 9.75776E+04-3.77713E-09 2.33968E-09
 -1       878 2.33301E+05 3.84600E+04 2.74680E+03 9.49859E+04 9.96351E-10 3.78668E-09
 -1       879 2.31215E+05 4.08214E+04 1.36842E+03 9.76632E+04-3.70960E-10 1.26124E-09
 -1       880 2.33384E+05 3.84453E+04 6.37172E+02 9.50270E+04 2.28079E-09-1.62481E-09
 -1       881 2.31104E+05 4.07506E+04 3.39648E+02 9.76453E+04 5.47607E-09-1.28431E-08
 -1       882 2.33392E+05 3.84556E+04 2.16238E+02 9.50282E+04 4.93469E-09 8.55136E-09
 -1       883 2.31096E+05 4.07472E+04 2.30769E+02 9.76399E+04 4.15366E-09 1.75373E-08
 -1       884 2.33387E+05 3.84531E+04 3.65557E+02 9.50284E+04-1.87219E-09-8.35144E-09
 -1       885 2.31125E+05 4.07524E+04 7.34013E+02 9.76490E+04 1.19194E-08 7.80517E-09
 -1       886 2.33359E+05 3.84317E+04 1.47892E+03 9.50255E+04 4.52494E-09-4.78019E-09
 -1       887 2.31385E+05 4.09228E+04 3.23034E+03 9.76865E+04-8.94261E-09-2.82762E-09
 -1       888 2.33155E+05 3.84675E+04 6.50919E+03 9.49220E+04-2.98439E-09 1.16415E-10
 -1       889 2.35263E+05 4.49504E+04 1.55498E+04 9.75647E+04 2.66337E-09 1.18416E-09
 -1       890 2.30503E+05 4.16178E+04 2.91237E+04 9.24388E+04 2.06364E-09-1.84991E-09
 -1       891-1.36466E+02-1.31151E+05-1.56441E+03 2.42368E+04 3.63343E-10 7.58973E-09
 -1       892-2.39313E+02-1.31529E+05-1.69558E+03 3.66888E+04 4.50200E-11 1.32095E-08
 -1       893-3.29739E+01-1.31199E+05-2.41673E+03 2.42418E+04-2.10548E-10 9.39053E-09
 -1       894-1.30802E+03-1.32450E+05-5.01322E+03 3.65573E+04-2.93130E-09-3.53975E-09
 -1       895-1.02517E+03-1.30155E+05-8.83290E+03 2.43667E+04-2.47326E-10-3.06409E-09
 -1       956-2.93406E+05-4.15922E+03-1.04544E+04 1.98666E+04-1.89175E-09-3.18323E-11
 -1       957-2.95469E+05-1.40760E+03-5.36676E+03 2.39251E+04-1.37607E-09-4.50109E-09
 -1       958-2.94335E+05-1.16842E+02-2.41795E+03 1.97432E+04 4.88035E-09-1.55108E-08
 -1       959-2.94499E+05-2.47219E+01-1.23502E+03 2.40599E+04 4.40832E-09 3.12070E-09
 -1       960-2.94419E+05 3.05924E+01-6.02119E+02 1.97312E+04 3.16413E-09 1.91403E-09
 -1       961-2.94430E+05 2.80795E+01-3.19473E+02 2.40736E+04-9.28821E-10-5.03405E-09
 -1       962-2.94437E+05 2.68960E+01-1.82930E+02 1.97294E+04-2.14982E-09-2.11685E-09
 -1       963-2.94427E+05 2.96970E+01-1.46946E+02 2.40761E+04-2.73940E-09 3.88081E-09
 -1       964-2.94440E+05 2.90639E+01-1.78548E+02 1.97287E+04 1.49805E-09 7.33235E-09
 -1       965-2.94438E+05 3.27401E+01-3.08673E+02 2.40760E+04 4.80739E-10 5.81213E-09
 -1       966-2.94431E+05 3.70241E+01-5.79564E+02 1.97295E+04 1.45974E-09 1.72486E-09
 -1       967-2.94513E+05-1.35302E+01-1.18874E+03 2.40678E+04 8.81869E-09 6.04882E-09
 -1       968-2.94356E+05-1.00584E+02-2.32645E+03 1.97371E+04 6.81894E-09 1.72793E-09
 -1       969-2.95455E+05-1.34062E+03-5.16536E+03 2.39797E+04 5.47743E-10 2.22164E-09
 -1       970-2.93467E+05-3.98859E+03-1.00612E+04 1.98194E+04 2.13277E-09 1.13587E-08
 -1       971-2.76118E+05-1.43971E+03-7.97887E+03 1.31756E+04-2.25100E-09-2.82151E-09
 -1       972-2.78056E+05-1.03425E+03-4.34522E+03 1.83880E+04-2.37560E-09-8.46217E-09
 -1       973-2.77006E+05-1.33466E+01-1.94582E+03 1.30659E+04 1.55887E-09 4.18459E-09
 -1       974-2.77139E+05-1.42417E+01-1.00810E+03 1.85071E+04 8.00696E-09 5.63284E-09
 -1       975-2.77075E+05 2.43486E+01-5.03003E+02 1.30557E+04 3.80851E-09-1.18234E-09
 -1       976-2.77085E+05 2.78479E+01-2.88534E+02 1.85196E+04-4.83851E-09 6.70468E-09
 -1       977-2.77088E+05 2.43824E+01-2.06454E+02 1.30533E+04 4.55816E-09 8.80971E-09
 -1       978-2.77089E+05 3.26976E+01-2.37554E+02 1.85231E+04 1.23047E-08 6.90329E-09
 -1       979-2.77088E+05 3.09244E+01-3.78204E+02 1.30522E+04 5.19219E-09-3.41583E-09
 -1       980-2.77116E+05 3.50770E+01-7.28090E+02 1.85237E+04 2.70472E-09-8.73342E-09
 -1       981-2.77065E+05 4.90604E+01-1.40900E+03 1.30527E+04 7.90124E-11 7.23503E-10
 -1       982-2.77310E+05-6.89743E+01-2.91174E+03 1.85181E+04-5.09203E-10-9.61319E-09
 -1       983-2.76888E+05-4.10803E+01-5.65720E+03 1.30581E+04 2.86855E-09-5.17275E-09
 -1       984-2.80030E+05-3.02340E+03-1.26685E+04 1.84435E+04 1.42791E-09 2.98087E-10
 -1       985-2.74327E+05-4.18067E+03-2.32635E+04 1.31314E+04 1.48702E-09 9.98625E-10
 -3
    1PSTEP                        15           8           1          
  100CL  108 5.85938E-01         409                     0    8           1
 -4  DISP        4    1
 -5  D1          1    2    1    0
 -5  D2          1    2    2    0
 -5  D3          1    2    3    0
 -5  ALL         1    2    0    0    1ALL
 -1         1 5.29173E-04 0.00000E+00 0.00000E+00
 -1         2 5.22936E-04 9.94042E-29 0.00000E+00
 -1         3 1.29542E-04-8.83637E-29-6.61744E-24
 -1         5 9.54759E-05-2.46937E-25 0.00000E+00
 -1         8 4.97300E-04-1.21374E-06 0.00000E+00
 -1         9 5.01954E-04 6.19867E-07 0.00000E+00
 -1        10 1.20302E-04-1.54679E-06 3.30872E-24
 -1        12 9.47614E-05 6.38972E-07 3.30872E-24
 -1        15 4.59415E-04-1.36022E-06-4.13590E-25
 -1        16 4.61578E-04 6.94377E-07 0.00000E+00
 -1        17 9.07999E-05-3.28152E-06 0.00000E+00
 -1        18 9.13887E-05-3.93358E-07 0.00000E+00
 -1        19 9.26176E-05 1.27426E-06 0.00000E+00
 -1        20 9.27818E-05 1.95407E-05 0.00000E+00
 -1        21 9.21693E-05 3.71073E-05 0.00000E+00
 -1        24 2.30155E-05-4.87556E-06 0.00000E+00
 -1        25 8.89793E-05-2.47391E-07 0.00000E+00
 -1        26 9.01837E-05 1.77673E-06 0.00000E+00
 -1        27 8.84150E-05 1.67075E-05 0.00000E+00
 -1        28 8.78293E-05 3.65608E-05 0.00000E+00
 -1        32 0.00000E+00 0.00000E+00 0.00000E+00
 -1        33 8.61903E-05 2.38266E-06 0.00000E+00
 -1        34 8.44856E-05 1.66817E-05 0.00000E+00
 -1        35 8.28605E-05 3.62723E-05 0.00000E+00
 -1        51 5.27098E-04-1.96623E-07 0.00000E+00
 -1        52 5.23254E-04-3.89745E-07 0.00000E+00
 -1        53 5.17989E-04-5.85972E-07 0.00000E+00
 -1        54 5.11666E-04-7.87150E-07 0.00000E+00
 -1        55 5.04648E-04-9.93912E-07-1.24077E-24
 -1        56 5.27942E-04-1.05825E-06 2.64698E-23
 -1        57 5.27024E-04-3.09783E-06-1.32349E-23
 -1        58 5.26382E-04-5.87157E-06 0.00000E+00
 -1        59 5.25911E-04-9.12937E-06-2.64698E-23
 -1        60 5.25511E-04-1.25803E-05 0.00000E+00
 -1        61 5.25073E-04-1.59302E-05 0.00000E+00
 -1        62 5.24489E-04-1.88913E-05-5.29396E-23
 -1        63 5.23658E-04-2.11898E-05 0.00000E+00
 -1        64 5.22495E-04-2.25987E-05-5.29396E-23
 -1        65 5.20925E-04-2.29213E-05 0.00000E+00
 -1        66 5.18902E-04-2.20378E-05-5.29396E-23
 -1        67 5.16395E-04-1.98694E-05 0.00000E+00
 -1        68 5.13407E-04-1.64284E-05 5.29396E-23
 -1        69 5.09964E-04-1.17676E-05 0.00000E+00
 -1        70 5.06108E-04-6.03153E-06 2.64698E-23
 -1        86 5.22402E-04 1.16831E-07 0.00000E+00
 -1        87 5.20801E-04 2.31946E-07 0.00000E+00
 -1        88 5.18061E-04 3.44581E-07 0.00000E+00
 -1        89 5.14107E-04 4.49424E-07-2.06795E-25
 -1        90 5.08791E-04 5.49477E-07 3.30872E-24
 -1       121 1.29284E-04-2.56216E-07 0.00000E+00
 -1       122 1.28511E-04-5.12693E-07-3.30872E-24
 -1       123 1.27223E-04-7.69690E-07-6.61744E-24
 -1       124 1.25424E-04-1.02751E-06 0.00000E+00
 -1       125 1.23115E-04-1.28632E-06 0.00000E+00
 -1       191 9.54561E-05 1.06508E-07 0.00000E+00
 -1       192 9.53965E-05 2.13013E-07 0.00000E+00
 -1       193 9.52973E-05 3.19516E-07 0.00000E+00
 -1       194 9.51584E-05 4.26012E-07 0.00000E+00
 -1       195 9.49797E-05 5.32499E-07 0.00000E+00
 -1       251 4.97553E-04 3.84430E-06 0.00000E+00
 -1       252 4.97845E-04 6.45761E-06 1.65436E-24
 -1       253 4.98138E-04 7.20991E-06 6.61744E-24
 -1       254 4.98437E-04 6.66106E-06 3.30872E-24
 -1       255 4.98736E-04 5.15727E-06-6.61744E-24
 -1       256 4.99034E-04 3.03283E-06-3.30872E-24
 -1       257 4.99332E-04 5.19526E-07 0.00000E+00
 -1       258 4.99630E-04-2.15567E-06-3.30872E-24
 -1       259 4.99927E-04-4.79264E-06 0.00000E+00
 -1       260 5.00225E-04-7.19069E-06 0.00000E+00
 -1       261 5.00524E-04-9.10965E-06-6.61744E-24
 -1       262 5.00823E-04-1.03035E-05-3.30872E-24
 -1       263 5.01122E-04-1.04062E-05 0.00000E+00
 -1       264 5.01415E-04-9.03846E-06 0.00000E+00
 -1       265 5.01705E-04-5.57901E-06 1.65436E-24
 -1       266 4.90986E-04-1.25397E-06 0.00000E+00
 -1       267 4.84672E-04-1.27645E-06 1.65436E-24
 -1       268 4.78358E-04-1.30006E-06 1.65436E-24
 -1       269 4.72043E-04-1.32035E-06 0.00000E+00
 -1       270 4.65729E-04-1.34055E-06 0.00000E+00
 -1       271 4.93454E-04 3.36913E-06 5.29396E-23
 -1       272 4.90269E-04 6.02163E-06 0.00000E+00
 -1       273 4.87732E-04 6.96717E-06 0.00000E+00
 -1       274 4.85736E-04 6.44311E-06-2.64698E-23
 -1       275 4.84184E-04 4.73194E-06-5.29396E-23
 -1       276 4.82959E-04 2.14145E-06 0.00000E+00
 -1       277 4.81938E-04-9.96991E-07 5.29396E-23
 -1       278 4.80992E-04-4.33912E-06 0.00000E+00
 -1       279 4.79992E-04-7.53539E-06 0.00000E+00
 -1       280 4.78809E-04-1.02397E-05-2.64698E-23
 -1       281 4.77318E-04-1.21189E-05 0.00000E+00
 -1       282 4.75402E-04-1.28597E-05 0.00000E+00
 -1       283 4.72952E-04-1.21785E-05 0.00000E+00
 -1       284 4.69880E-04-9.82374E-06 2.64698E-23
 -1       285 4.66093E-04-5.59240E-06 0.00000E+00
 -1       301 4.94974E-04 6.22156E-07 0.00000E+00
 -1       302 4.88452E-04 6.46366E-07 0.00000E+00
 -1       303 4.82121E-04 6.72462E-07-1.65436E-24
 -1       304 4.75711E-04 6.96281E-07-1.65436E-24
 -1       305 4.68952E-04 7.14989E-07-6.61744E-24
 -1       306 4.73551E-04 6.09707E-05-5.29396E-23
 -1       307 3.94633E-04 2.21015E-04 0.00000E+00
 -1       308 2.72107E-04 4.52169E-04 0.00000E+00
 -1       309 1.21891E-04 7.22473E-04 2.64698E-23
 -1       310-2.85817E-05 9.93122E-04-1.05879E-22
 -1       311-1.51809E-04 1.22530E-03-5.29396E-23
 -1       312-2.31659E-04 1.38691E-03 1.05879E-22
 -1       313-2.60973E-04 1.44916E-03-5.29396E-23
 -1       314-2.48300E-04 1.40251E-03 0.00000E+00
 -1       315-2.06306E-04 1.24794E-03 5.29396E-23
 -1       316-1.49014E-04 1.01123E-03 0.00000E+00
 -1       317-8.60400E-05 7.26743E-04-2.64698E-23
 -1       318-2.29960E-05 4.41676E-04 0.00000E+00
 -1       319 3.45527E-05 2.03267E-04-2.64698E-23
 -1       320 7.71294E-05 4.62050E-05 0.00000E+00
 -1       336 1.16923E-04-1.82922E-06-6.61744E-24
 -1       337 1.12915E-04-2.11431E-06 0.00000E+00
 -1       338 1.08289E-04-2.40192E-06 0.00000E+00
 -1       339 1.03053E-04-2.69229E-06 0.00000E+00
 -1       340 9.72188E-05-2.98585E-06 0.00000E+00
 -1       406 9.45033E-05 7.45423E-07-6.61744E-24
 -1       407 9.42055E-05 8.51829E-07 0.00000E+00
 -1       408 9.38679E-05 9.58157E-07 0.00000E+00
 -1       409 9.34907E-05 1.06427E-06 1.65436E-24
 -1       410 9.30738E-05 1.16997E-06 0.00000E+00
 -1       521 4.31655E-04 6.27168E-05 0.00000E+00
 -1       522 3.49805E-04 2.26469E-04 0.00000E+00
 -1       523 2.22902E-04 4.62935E-04 0.00000E+00
 -1       524 6.76483E-05 7.38971E-04 0.00000E+00
 -1       525-8.77682E-05 1.01522E-03 1.05879E-22
 -1       526-2.15111E-04 1.25231E-03 0.00000E+00
 -1       527-2.97552E-04 1.41701E-03-1.05879E-22
 -1       528-3.28066E-04 1.48018E-03 0.00000E+00
 -1       529-3.15465E-04 1.43143E-03 0.00000E+00
 -1       530-2.73229E-04 1.27243E-03 5.29396E-23
 -1       531-2.15702E-04 1.02939E-03 0.00000E+00
 -1       532-1.52709E-04 7.38157E-04 5.29396E-23
 -1       533-8.96997E-05 4.46848E-04 1.05879E-22
 -1       534-3.21296E-05 2.03587E-04 0.00000E+00
 -1       535 1.02185E-05 4.42568E-05 5.29396E-23
 -1       536 9.08102E-05 2.52060E-06 0.00000E+00
 -1       537 9.08405E-05 6.52709E-06 0.00000E+00
 -1       538 9.08748E-05 9.06628E-06 2.06795E-25
 -1       539 9.09134E-05 1.04638E-05-4.13590E-25
 -1       540 9.09529E-05 1.09418E-05-8.27181E-25
 -1       541 9.09930E-05 1.07210E-05-4.13590E-25
 -1       542 9.10329E-05 9.95820E-06 8.27181E-25
 -1       543 9.10725E-05 8.80910E-06 0.00000E+00
 -1       544 9.11118E-05 7.39419E-06 0.00000E+00
 -1       545 9.11509E-05 5.83339E-06 0.00000E+00
 -1       546 9.11900E-05 4.23331E-06 1.65436E-24
 -1       547 9.12292E-05 2.70050E-06 8.27181E-25
 -1       548 9.12686E-05 1.34760E-06 0.00000E+00
 -1       549 9.13083E-05 2.87641E-07 0.00000E+00
 -1       550 9.13484E-05-3.39543E-07 0.00000E+00
 -1       551 8.17917E-05-3.52136E-06 0.00000E+00
 -1       552 7.07726E-05-3.77597E-06-3.30872E-24
 -1       553 5.85591E-05-4.04279E-06 0.00000E+00
 -1       554 4.59783E-05-4.31633E-06 0.00000E+00
 -1       555 3.38571E-05-4.58806E-06 0.00000E+00
 -1       556 8.85732E-05 2.46344E-06 0.00000E+00
 -1       557 8.68840E-05 6.82572E-06 0.00000E+00
 -1       558 8.56718E-05 9.93418E-06 0.00000E+00
 -1       559 8.48821E-05 1.19279E-05 0.00000E+00
 -1       560 8.44608E-05 1.29457E-05 1.32349E-23
 -1       561 8.43540E-05 1.31273E-05 0.00000E+00
 -1       562 8.45087E-05 1.26123E-05 0.00000E+00
 -1       563 8.48718E-05 1.15408E-05 0.00000E+00
 -1       564 8.53906E-05 1.00528E-05 0.00000E+00
 -1       565 8.60126E-05 8.28868E-06 1.65436E-24
 -1       566 8.66855E-05 6.38853E-06-8.27181E-25
 -1       567 8.73567E-05 4.49268E-06 0.00000E+00
 -1       568 8.79739E-05 2.74138E-06 0.00000E+00
 -1       569 8.84849E-05 1.27470E-06 0.00000E+00
 -1       570 8.88371E-05 2.32787E-07 0.00000E+00
 -1       571 9.14633E-05-2.34871E-07-1.24077E-24
 -1       572 9.15395E-05-1.27841E-07 2.06795E-25
 -1       573 9.16162E-05-6.32405E-08-8.27181E-25
 -1       574 9.16932E-05-3.15654E-08 0.00000E+00
 -1       575 9.17702E-05-2.32679E-08-1.65436E-24
 -1       576 9.18473E-05-2.87358E-08 0.00000E+00
 -1       577 9.19243E-05-3.83522E-08-3.30872E-24
 -1       578 9.20014E-05-4.24914E-08 0.00000E+00
 -1       579 9.20785E-05-3.15270E-08 0.00000E+00
 -1       580 9.21556E-05 4.16752E-09 1.65436E-24
 -1       581 9.22327E-05 7.42175E-08 0.00000E+00
 -1       582 9.23098E-05 1.88239E-07 0.00000E+00
 -1       583 9.23869E-05 3.55839E-07 0.00000E+00
 -1       584 9.24639E-05 5.86526E-07 0.00000E+00
 -1       585 9.25408E-05 8.89758E-07 0.00000E+00
 -1       586 9.09659E-05-3.67523E-07 1.65436E-24
 -1       587 9.05091E-05-3.42351E-07 0.00000E+00
 -1       588 9.00501E-05-3.17458E-07 0.00000E+00
 -1       589 8.96209E-05-2.92951E-07 0.00000E+00
 -1       590 8.92536E-05-2.69091E-07 0.00000E+00
 -1       591 9.12935E-05-1.96653E-07 0.00000E+00
 -1       592 9.12117E-05-4.35399E-08-4.13590E-25
 -1       593 9.11429E-05 7.41878E-08-8.27181E-25
 -1       594 9.10843E-05 1.63943E-07-4.13590E-25
 -1       595 9.10332E-05 2.33235E-07 8.27181E-25
 -1       596 9.09870E-05 2.89520E-07-4.13590E-25
 -1       597 9.09429E-05 3.40251E-07 0.00000E+00
 -1       598 9.08980E-05 3.92873E-07-2.06795E-25
 -1       599 9.08496E-05 4.54835E-07 4.13590E-25
 -1       600 9.07949E-05 5.33581E-07 4.13590E-25
 -1       601 9.07312E-05 6.36557E-07 8.27181E-25
 -1       602 9.06557E-05 7.71215E-07 1.03398E-25
 -1       603 9.05655E-05 9.45008E-07-1.03398E-25
 -1       604 9.04583E-05 1.16544E-06 0.00000E+00
 -1       605 9.03310E-05 1.43994E-06 0.00000E+00
 -1       606 9.26320E-05 1.83490E-06-3.30872E-24
 -1       607 9.26436E-05 2.50712E-06 0.00000E+00
 -1       608 9.26545E-05 3.28438E-06 0.00000E+00
 -1       609 9.26649E-05 4.15927E-06 0.00000E+00
 -1       610 9.26752E-05 5.12440E-06 0.00000E+00
 -1       611 9.26853E-05 6.17222E-06 1.65436E-24
 -1       612 9.26953E-05 7.29520E-06 0.00000E+00
 -1       613 9.27052E-05 8.48583E-06 0.00000E+00
 -1       614 9.27150E-05 9.73654E-06 0.00000E+00
 -1       615 9.27248E-05 1.10398E-05 0.00000E+00
 -1       616 9.27345E-05 1.23881E-05 0.00000E+00
 -1       617 9.27442E-05 1.37738E-05 0.00000E+00
 -1       618 9.27538E-05 1.51895E-05 0.00000E+00
 -1       619 9.27633E-05 1.66275E-05 0.00000E+00
 -1       620 9.27728E-05 1.80804E-05 0.00000E+00
 -1       621 9.21640E-05 1.35804E-06-1.65436E-24
 -1       622 9.17374E-05 1.44225E-06 0.00000E+00
 -1       623 9.13319E-05 1.52645E-06-1.65436E-24
 -1       624 9.09417E-05 1.61052E-06-8.27181E-25
 -1       625 9.05609E-05 1.69445E-06 1.65436E-24
 -1       626 9.24964E-05 1.86093E-06-3.30872E-24
 -1       627 9.23410E-05 2.54012E-06 0.00000E+00
 -1       628 9.21543E-05 3.30333E-06 0.00000E+00
 -1       629 9.19395E-05 4.14144E-06-1.65436E-24
 -1       630 9.16999E-05 5.04535E-06-3.30872E-24
 -1       631 9.14391E-05 6.00588E-06-1.65436E-24
 -1       632 9.11605E-05 7.01385E-06 0.00000E+00
 -1       633 9.08675E-05 8.06011E-06 1.65436E-24
 -1       634 9.05635E-05 9.13548E-06 0.00000E+00
 -1       635 9.02520E-05 1.02308E-05 1.65436E-24
 -1       636 8.99365E-05 1.13368E-05 0.00000E+00
 -1       637 8.96203E-05 1.24445E-05 0.00000E+00
 -1       638 8.93069E-05 1.35446E-05-1.65436E-24
 -1       639 8.89996E-05 1.46279E-05 8.27181E-25
 -1       640 8.87016E-05 1.56853E-05 0.00000E+00
 -1       656 9.15596E-05 1.90795E-05 0.00000E+00
 -1       657 9.07511E-05 1.86001E-05 0.00000E+00
 -1       658 9.02013E-05 1.81223E-05 0.00000E+00
 -1       659 8.97505E-05 1.76449E-05 0.00000E+00
 -1       660 8.92155E-05 1.71659E-05 0.00000E+00
 -1       661 9.23306E-05 2.09723E-05 1.65436E-24
 -1       662 9.19054E-05 2.23447E-05 8.27181E-25
 -1       663 9.15016E-05 2.36594E-05 0.00000E+00
 -1       664 9.11190E-05 2.49196E-05-8.27181E-25
 -1       665 9.07561E-05 2.61275E-05 0.00000E+00
 -1       666 9.04120E-05 2.72855E-05 0.00000E+00
 -1       667 9.00859E-05 2.83961E-05 0.00000E+00
 -1       668 8.97768E-05 2.94612E-05 0.00000E+00
 -1       669 8.94841E-05 3.04829E-05 0.00000E+00
 -1       670 8.92070E-05 3.14630E-05 0.00000E+00
 -1       671 8.89448E-05 3.24035E-05 0.00000E+00
 -1       672 8.86967E-05 3.33057E-05 8.27181E-25
 -1       673 8.84624E-05 3.41715E-05-1.65436E-24
 -1       674 8.82403E-05 3.50018E-05-8.27181E-25
 -1       675 8.80313E-05 3.57985E-05 0.00000E+00
 -1       676 9.14438E-05 3.70157E-05 0.00000E+00
 -1       677 9.07186E-05 3.69241E-05-1.65436E-24
 -1       678 8.99941E-05 3.68325E-05 0.00000E+00
 -1       679 8.92709E-05 3.67413E-05 0.00000E+00
 -1       680 8.85491E-05 3.66500E-05-1.65436E-24
 -1       771 1.88016E-05 2.80089E-06 0.00000E+00
 -1       772 1.50979E-05 9.10314E-06 0.00000E+00
 -1       773 1.18895E-05 1.41050E-05 0.00000E+00
 -1       774 9.14425E-06 1.78847E-05 0.00000E+00
 -1       775 6.83132E-06 2.05229E-05 0.00000E+00
 -1       776 4.91760E-06 2.21041E-05 2.64698E-23
 -1       777 3.36942E-06 2.27149E-05 0.00000E+00
 -1       778 2.15208E-06 2.24452E-05 0.00000E+00
 -1       779 1.23049E-06 2.13867E-05 0.00000E+00
 -1       780 5.68706E-07 1.96335E-05 0.00000E+00
 -1       781 1.30538E-07 1.72816E-05 0.00000E+00
 -1       782-1.20819E-07 1.44287E-05 0.00000E+00
 -1       783-2.22334E-07 1.11735E-05 0.00000E+00
 -1       784-2.11292E-07 7.61620E-06 0.00000E+00
 -1       785-1.25222E-07 3.85769E-06 0.00000E+00
 -1       786 8.90503E-05-1.89417E-07 0.00000E+00
 -1       787 8.91254E-05-1.29765E-07 0.00000E+00
 -1       788 8.92003E-05-6.80869E-08-1.65436E-24
 -1       789 8.92759E-05-4.02849E-09 0.00000E+00
 -1       790 8.93515E-05 6.31844E-08 0.00000E+00
 -1       791 8.94273E-05 1.34339E-07 0.00000E+00
 -1       792 8.95032E-05 2.10919E-07 0.00000E+00
 -1       793 8.95790E-05 2.94426E-07 0.00000E+00
 -1       794 8.96549E-05 3.87591E-07 0.00000E+00
 -1       795 8.97307E-05 4.93175E-07-8.27181E-25
 -1       796 8.98066E-05 6.16141E-07-1.65436E-24
 -1       797 8.98824E-05 7.61510E-07-8.27181E-25
 -1       798 8.99582E-05 9.38272E-07 0.00000E+00
 -1       799 9.00337E-05 1.15552E-06-8.27181E-25
 -1       800 9.01093E-05 1.42952E-06-1.65436E-24
 -1       801 8.29929E-05-8.43554E-08 1.65436E-24
 -1       802 6.53482E-05-4.62721E-08 0.00000E+00
 -1       803 4.21244E-05-1.12697E-07-4.13590E-25
 -1       804 1.93506E-05-1.77492E-07 0.00000E+00
 -1       805 3.22137E-06-1.22120E-07 0.00000E+00
 -1       806 8.88688E-05-2.41320E-07 0.00000E+00
 -1       807 8.87558E-05-2.38652E-07 0.00000E+00
 -1       808 8.86412E-05-2.33391E-07 3.30872E-24
 -1       809 8.85233E-05-2.20395E-07-1.65436E-24
 -1       810 8.84004E-05-1.94531E-07 0.00000E+00
 -1       811 8.82707E-05-1.50735E-07 0.00000E+00
 -1       812 8.81324E-05-8.39502E-08 3.30872E-24
 -1       813 8.79835E-05 1.08690E-08 8.27181E-25
 -1       814 8.78223E-05 1.38767E-07-3.30872E-24
 -1       815 8.76467E-05 3.04779E-07-1.65436E-24
 -1       816 8.74550E-05 5.13939E-07 0.00000E+00
 -1       817 8.72452E-05 7.71280E-07 8.27181E-25
 -1       818 8.70155E-05 1.08183E-06 1.65436E-24
 -1       819 8.67640E-05 1.45059E-06-8.27181E-25
 -1       820 8.64892E-05 1.88257E-06 0.00000E+00
 -1       821 9.00799E-05 2.08713E-06-8.27181E-25
 -1       822 8.99697E-05 2.25219E-06-8.27181E-25
 -1       823 8.98599E-05 2.36549E-06 3.30872E-24
 -1       824 8.97488E-05 2.52084E-06 0.00000E+00
 -1       825 8.96377E-05 2.80246E-06 0.00000E+00
 -1       826 8.95263E-05 3.29393E-06 0.00000E+00
 -1       827 8.94148E-05 4.03114E-06 3.30872E-24
 -1       828 8.93029E-05 5.04878E-06-1.65436E-24
 -1       829 8.91908E-05 6.31778E-06 3.30872E-24
 -1       830 8.90784E-05 7.80784E-06-1.65436E-24
 -1       831 8.89658E-05 9.43847E-06 0.00000E+00
 -1       832 8.88534E-05 1.11284E-05 0.00000E+00
 -1       833 8.87411E-05 1.27829E-05-3.30872E-24
 -1       834 8.86303E-05 1.43075E-05-8.27181E-25
 -1       835 8.85192E-05 1.56371E-05 8.27181E-25
 -1       836 8.96867E-05 1.87763E-06 0.00000E+00
 -1       837 8.90544E-05 1.98074E-06-1.65436E-24
 -1       838 8.83375E-05 2.08363E-06 0.00000E+00
 -1       839 8.75871E-05 2.18586E-06 0.00000E+00
 -1       840 8.68544E-05 2.28794E-06 4.13590E-25
 -1       856 8.83825E-05 1.77131E-05 0.00000E+00
 -1       857 8.83464E-05 1.88403E-05 0.00000E+00
 -1       858 8.83103E-05 2.00701E-05-8.27181E-25
 -1       859 8.82735E-05 2.13833E-05-4.13590E-25
 -1       860 8.82366E-05 2.27604E-05 0.00000E+00
 -1       861 8.81994E-05 2.41821E-05 0.00000E+00
 -1       862 8.81623E-05 2.56288E-05 0.00000E+00
 -1       863 8.81251E-05 2.70810E-05 0.00000E+00
 -1       864 8.80879E-05 2.85191E-05 0.00000E+00
 -1       865 8.80507E-05 2.99236E-05-4.13590E-25
 -1       866 8.80136E-05 3.12751E-05 0.00000E+00
 -1       867 8.79766E-05 3.25540E-05 0.00000E+00
 -1       868 8.79397E-05 3.37412E-05-8.27181E-25
 -1       869 8.79029E-05 3.48173E-05-4.13590E-25
 -1       870 8.78662E-05 3.57635E-05 0.00000E+00
 -1       871 8.76370E-05 1.67064E-05 8.27181E-25
 -1       872 8.69750E-05 1.67030E-05 0.00000E+00
 -1       873 8.63792E-05 1.66992E-05 0.00000E+00
 -1       874 8.57993E-05 1.66947E-05-1.55096E-25
 -1       875 8.51847E-05 1.66898E-05 0.00000E+00
 -1       876 8.81436E-05 1.77231E-05 0.00000E+00
 -1       877 8.78524E-05 1.87980E-05 0.00000E+00
 -1       878 8.75418E-05 1.99249E-05 0.00000E+00
 -1       879 8.72144E-05 2.10973E-05-1.65436E-24
 -1       880 8.68725E-05 2.23084E-05 0.00000E+00
 -1       881 8.65187E-05 2.35514E-05 1.65436E-24
 -1       882 8.61553E-05 2.48198E-05 0.00000E+00
 -1       883 8.57849E-05 2.61068E-05-1.65436E-24
 -1       884 8.54099E-05 2.74058E-05 0.00000E+00
 -1       885 8.50330E-05 2.87102E-05 0.00000E+00
 -1       886 8.46565E-05 3.00132E-05-3.30872E-24
 -1       887 8.42829E-05 3.13081E-05-1.65436E-24
 -1       888 8.39147E-05 3.25885E-05 3.30872E-24
 -1       889 8.35539E-05 3.38473E-05 8.27181E-25
 -1       890 8.32033E-05 3.50780E-05-8.27181E-25
 -1       891 8.71337E-05 3.65125E-05-1.65436E-24
 -1       892 8.64173E-05 3.64642E-05-8.27181E-25
 -1       893 8.56559E-05 3.64158E-05 1.65436E-24
 -1       894 8.48253E-05 3.63675E-05 8.27181E-25
 -1       895 8.39014E-05 3.63192E-05-8.27181E-25
 -1       956 8.60858E-05 3.02175E-06 0.00000E+00
 -1       957 8.59796E-05 3.72958E-06 0.00000E+00
 -1       958 8.58730E-05 4.49906E-06-1.65436E-24
 -1       959 8.57663E-05 5.32270E-06 0.00000E+00
 -1       960 8.56594E-05 6.19300E-06 0.00000E+00
 -1       961 8.55524E-05 7.10239E-06-1.65436E-24
 -1       962 8.54455E-05 8.04331E-06 3.30872E-24
 -1       963 8.53385E-05 9.00819E-06 1.65436E-24
 -1       964 8.52314E-05 9.98946E-06 0.00000E+00
 -1       965 8.51244E-05 1.09795E-05-1.65436E-24
 -1       966 8.50174E-05 1.19709E-05 3.30872E-24
 -1       967 8.49104E-05 1.29559E-05-1.65436E-24
 -1       968 8.48035E-05 1.39270E-05 0.00000E+00
 -1       969 8.46968E-05 1.48766E-05 0.00000E+00
 -1       970 8.45904E-05 1.57973E-05 0.00000E+00
 -1       971 8.43854E-05 1.75895E-05 0.00000E+00
 -1       972 8.42839E-05 1.85877E-05 8.27181E-25
 -1       973 8.41821E-05 1.96664E-05 0.00000E+00
 -1       974 8.40801E-05 2.08151E-05 0.00000E+00
 -1       975 8.39780E-05 2.20235E-05 0.00000E+00
 -1       976 8.38758E-05 2.32811E-05-1.65436E-24
 -1       977 8.37736E-05 2.45775E-05-3.30872E-24
 -1       978 8.36713E-05 2.59024E-05-1.65436E-24
 -1       979 8.35690E-05 2.72453E-05 0.00000E+00
 -1       980 8.34667E-05 2.85956E-05-1.65436E-24
 -1       981 8.33645E-05 2.99431E-05 0.00000E+00
 -1       982 8.32623E-05 3.12773E-05 0.00000E+00
 -1       983 8.31603E-05 3.25877E-05 0.00000E+00
 -1       984 8.30588E-05 3.38639E-05-1.65436E-24
 -1       985 8.29577E-05 3.50955E-05 1.65436E-24
 -3
    1PSTEP                        16           8           1          
  100CL  108 5.85938E-01         409                     0    8           1
 -4  STRESS      6    1
 -5  SXX         1    4    1    1
 -5  SYY         1    4    2    2
 -5  SZZ         1    4    3    3
 -5  SXY         1    4    1    2
 -5  SYZ         1    4    2    3
 -5  SZX         1    4    3    1
 -1         1-1.89592E+06-8.91621E+05-3.85805E+05-1.30041E+06 4.43833E-10 3.63070E-08
 -1         2 3.03798E+03 3.39423E+05 1.01268E+04 1.53772E+03-1.85707E-10 3.86675E-08
 -1         3-1.13943E+02-7.31725E+05 1.84826E+02-3.00182E+02-2.10198E-10-1.55578E-08
 -1         5-1.19518E+01 3.04790E+05 8.00809E+00 3.13895E-01 1.25160E-10-1.17479E-08
 -1         8-8.78956E+05-4.10939E+05-7.67367E+03-7.57478E+05 2.51021E-10 4.94038E-08
 -1         9-1.39308E+05 6.54701E+05 2.09675E+05 6.10272E+05-6.83649E-09-1.95112E-08
 -1        10-5.84078E+02-7.62260E+05-6.09664E+02-2.02654E+03-3.98632E-09-6.18047E-09
 -1        12-8.68097E+00 3.04807E+05 2.59972E+02 2.36748E+00 2.31474E-10 4.39686E-08
 -1        15 2.61996E+03 1.43985E+03 8.46905E+03 7.15382E+00 8.08313E-11 1.10385E-07
 -1        16-1.27480E+06 7.13383E+05 5.55851E+04 9.06086E+05 9.99232E-09 7.06253E-09
 -1        17 1.27595E+06-4.96795E+05 1.73223E+05-6.35645E+05-6.22822E-09-9.09495E-09
 -1        18 6.77997E+04 1.11411E+04-6.50972E+03-7.07025E+04 8.34689E-10 4.41014E-09
 -1        19 9.51630E+04 1.13992E+05-5.05918E+02 1.86210E+04-8.52560E-10-5.31145E-10
 -1        20-3.85513E+04-4.49494E+05-9.90856E+04 3.35508E+04 5.49987E-09 3.48700E-09
 -1        21-4.25478E+01-2.61623E+05-8.46315E+02-1.30198E+02-1.43159E-08-1.13980E-08
 -1        24 1.11145E+06-9.69005E+05 2.37765E+05-1.51106E+06 1.41930E-08-3.00740E-10
 -1        25 6.47520E+04 1.14329E+05 5.00183E+04-1.32128E+05 9.31141E-10 1.14243E-08
 -1        26-2.04985E+04 7.83552E+04-1.50637E+04-1.19746E+04 1.86701E-09-2.39323E-09
 -1        27-7.25375E+04-2.46780E+05-9.26608E+04 5.56336E+04 6.88715E-09 2.27495E-09
 -1        28 2.03092E+04-7.21022E+04 1.47776E+04 2.33815E+04 4.06195E-09-4.28687E-09
 -1        32-8.97206E+05 1.64133E+05 4.86988E+05-6.59248E+05-1.78989E-08 1.97625E-08
 -1        33-1.40623E+05 7.28302E+04 2.57787E+04-4.31596E+04 1.46355E-09 5.61340E-09
 -1        34-1.83342E+05-1.81800E+04 4.17765E+02 5.61197E+04 4.52402E-09 2.37287E-09
 -1        35-2.06345E+04-2.86398E+04-1.12547E+03 4.55797E+04 6.77094E-09-3.61251E-09
 -1        51 1.33219E+04-4.88875E+05 3.88075E+04-1.21913E+06 0.00000E+00 2.63244E-08
 -1        52 1.15436E+04-4.91503E+05 2.77405E+04-1.42200E+06-4.36557E-11 2.14059E-08
 -1        53 1.04843E+04-5.09817E+05 2.55880E+04-1.21484E+06 4.29281E-10-7.82893E-09
 -1        54 2.88190E+04-5.10455E+05 4.38008E+04-1.42637E+06-1.16415E-10-3.85044E-08
 -1        55 5.33498E+04-5.27981E+05 7.95395E+04-1.21404E+06 4.94765E-10 2.50875E-08
 -1        56-3.65058E+06-4.10582E+05-2.81821E+05-1.40298E+06-1.33150E-09 2.41707E-08
 -1        57-3.74549E+06-6.83048E+05-1.89847E+05-1.41230E+06-7.66158E-09 3.00079E-08
 -1        58-3.71025E+06-4.96509E+05-6.62895E+04-1.38145E+06 5.18412E-10 9.11677E-09
 -1        59-3.67620E+06-5.82534E+05-3.95480E+04-1.43860E+06-9.55458E-09-7.79723E-08
 -1        60-3.71945E+06-5.07922E+05-1.54667E+04-1.37788E+06 2.51930E-10-4.50673E-08
 -1        61-3.66811E+06-5.66352E+05-8.77879E+03-1.43945E+06-5.51040E-10-1.02486E-08
 -1        62-3.71813E+06-5.12345E+05-4.29803E+03-1.38067E+06-7.63521E-10-5.83634E-09
 -1        63-3.67478E+06-5.56022E+05-3.42338E+03-1.42949E+06-8.25639E-09 1.90752E-08
 -1        64-3.71239E+06-5.18452E+05-4.21942E+03-1.38759E+06-1.83718E-10-3.56158E-09
 -1        65-3.68925E+06-5.43602E+05-8.04291E+03-1.41270E+06-1.41081E-08-5.32145E-08
 -1        66-3.70329E+06-5.25056E+05-1.46623E+04-1.39717E+06 7.73980E-10 6.73299E-09
 -1        67-3.71454E+06-5.40619E+05-3.66130E+04-1.39121E+06-8.24684E-10 6.82485E-09
 -1        68-3.68713E+06-5.21858E+05-6.19138E+04-1.40891E+06 5.20413E-09-1.81535E-09
 -1        69-3.79059E+06-6.23677E+05-1.76689E+05-1.35558E+06 9.74205E-09-1.36060E-08
 -1        70-3.62821E+06-4.44592E+05-2.62420E+05-1.43205E+06 1.28421E-09-1.26747E-08
 -1        86-1.53896E+03 3.35296E+05 1.06415E+04-7.68934E+02 1.76169E-09-7.41184E-08
 -1        87 1.01602E+04 3.43048E+05 2.25010E+04 3.20012E+03 2.92675E-09-3.11150E-08
 -1        88-8.64955E+03 3.31685E+05 3.41150E+04-2.43153E+03 4.56384E-09-4.29583E-08
 -1        89 6.44141E+04 3.68863E+05 9.25199E+04 7.06750E+03 6.91944E-09-6.62037E-08
 -1        90-5.56458E+04 3.09547E+05 1.30161E+05-4.63581E+03 8.25821E-09 3.08362E-08
 -1       121-1.73453E+02-7.32203E+05 1.35896E+02 1.49860E+02 4.36927E-10-7.27596E-10
 -1       122-5.62882E+01-7.31691E+05 3.97575E+02-6.00210E+02-1.47075E-09 5.27507E-09
 -1       123-2.12365E+02-7.32244E+05 6.05086E+02 4.48970E+02 1.34190E-09-3.61797E-09
 -1       124 6.32656E+02-7.31281E+05 1.64411E+03-1.33956E+03-3.01384E-09-1.81535E-09
 -1       125-6.54316E+02-7.32636E+05 2.51620E+03 8.88512E+02 1.73895E-09-1.50594E-08
 -1       191-1.28101E+01 3.04815E+05 9.26014E+00-1.58889E-01 1.99302E-10-4.83578E-09
 -1       192-1.26914E+01 3.04791E+05 1.69704E+01 1.27319E+00 2.90742E-10 4.41241E-09
 -1       193-1.47746E+01 3.04814E+05 3.12569E+01-1.12690E+00 3.60453E-10-2.88492E-09
 -1       194-1.50706E+01 3.04793E+05 6.42257E+01 2.99547E+00 1.16245E-10-1.17948E-08
 -1       195-1.85490E+01 3.04812E+05 1.25323E+02-1.89900E+00 4.94282E-10 1.12304E-08
 -1       251 8.21770E+05-8.02147E+04 1.86926E+05 1.25011E+04-9.62473E-10 1.07029E-08
 -1       252 9.09483E+05 9.27135E+04 1.33019E+05-3.01569E+04 1.83786E-09-3.08282E-08
 -1       253 8.55164E+05-1.23764E+04 4.84382E+04 5.26984E+03-6.80075E-10-2.77141E-08
 -1       254 8.70126E+05 1.43030E+04 3.06135E+04-1.93769E+04 1.66347E-09-8.48013E-09
 -1       255 8.60873E+05-1.90093E+03 1.25199E+04 1.72178E+03-4.05180E-10 9.47239E-09
 -1       256 8.63365E+05 2.26643E+03 7.56385E+03-1.43920E+04 9.22640E-10 3.48188E-08
 -1       257 8.61860E+05-3.24861E+02 3.85795E+03 2.84870E+02-6.70411E-10 3.43820E-08
 -1       258 8.62371E+05 6.81113E+02 3.32794E+03-1.30964E+04-1.20754E-09 1.86949E-08
 -1       259 8.61855E+05-3.09622E+02 3.72176E+03 4.26234E+02 2.13234E-10 1.23704E-08
 -1       260 8.63380E+05 2.13206E+03 7.19195E+03-1.50094E+04-1.48816E-10-3.59631E-08
 -1       261 8.60871E+05-1.78759E+03 1.18117E+04 2.19783E+03 2.18188E-09 1.27143E-08
 -1       262 8.70023E+05 1.34531E+04 2.89349E+04-2.08333E+04 1.74555E-09 3.47509E-08
 -1       263 8.55300E+05-1.16618E+04 4.56201E+04 6.25021E+03-1.83240E-09 1.52559E-08
 -1       264 9.08062E+05 8.74075E+04 1.25656E+05-3.30014E+04-6.92171E-09 3.72038E-08
 -1       265 8.23149E+05-7.57043E+04 1.76024E+05 1.43659E+04-1.14233E-09 3.12284E-08
 -1       266-4.74272E+04-2.21701E+04 1.11311E+05-1.53109E+02 6.54836E-11 3.30987E-08
 -1       267 5.49841E+04 2.58505E+04 7.86561E+04 1.76608E+02 9.09495E-11 1.66392E-08
 -1       268-7.37314E+03-3.66056E+03 2.92371E+04-2.25057E+01 9.09495E-12 3.26426E-09
 -1       269 8.70568E+03 4.38156E+03 1.90027E+04 2.62128E+01-9.45874E-11-7.92094E-09
 -1       270-1.30673E+03-7.19895E+02 9.17291E+03-3.55739E+00-3.36513E-11 3.80794E-08
 -1       271-4.71326E+06-5.94115E+05-3.65395E+05-1.84443E+06-4.31828E-09 3.03116E-08
 -1       272-4.81180E+06-8.90450E+05-2.34558E+05-1.87500E+06-2.35104E-10-5.51881E-09
 -1       273-4.78698E+06-6.79755E+05-8.63714E+04-1.82249E+06 2.07092E-09-8.65475E-09
 -1       274-4.72474E+06-7.86784E+05-4.81284E+04-1.91039E+06-4.27372E-09 2.18970E-08
 -1       275-4.80062E+06-6.84679E+05-2.00933E+04-1.81504E+06 2.96586E-09-1.14605E-08
 -1       276-4.70902E+06-7.81069E+05-1.06496E+04-1.92247E+06-1.47675E-08-5.75642E-09
 -1       277-4.80422E+06-6.83138E+05-5.28162E+03-1.81209E+06 1.01454E-09-4.79852E-08
 -1       278-4.70650E+06-7.81441E+05-4.00294E+03-1.92501E+06-3.78157E-09 4.12799E-08
 -1       279-4.80357E+06-6.83920E+05-4.58549E+03-1.81284E+06 9.23637E-09 2.57055E-08
 -1       280-4.71078E+06-7.78199E+05-8.53669E+03-1.91912E+06 3.75485E-09-2.20161E-08
 -1       281-4.79886E+06-6.87143E+05-1.60485E+04-1.81719E+06 3.49246E-10-2.71484E-08
 -1       282-4.72658E+06-7.78700E+05-3.78774E+04-1.90446E+06 1.28057E-09 5.42423E-09
 -1       283-4.78580E+06-6.85740E+05-6.82928E+04-1.82561E+06 3.44153E-09-3.68200E-08
 -1       284-4.79959E+06-8.55479E+05-1.84675E+05-1.87076E+06-6.39784E-09-3.32366E-08
 -1       285-4.72515E+06-6.21005E+05-2.88239E+05-1.84578E+06-7.96717E-10-1.75642E-08
 -1       301 1.27740E+04 1.36837E+05 1.35683E+05 3.24020E+05-1.36424E-09 2.05546E-09
 -1       302 1.26324E+04 1.72717E+05 9.59803E+04 4.74151E+05 1.42245E-09 8.95043E-08
 -1       303-3.41134E+03 1.48508E+05 8.49149E+04 3.23086E+05-1.75896E-09 4.40959E-08
 -1       304 2.56481E+04 1.85487E+05 1.39122E+05 4.73957E+05 6.55291E-10 4.86380E-08
 -1       305 2.63493E+04 1.25355E+05 2.31125E+05 3.24442E+05-1.28057E-09 3.48227E-08
 -1       306-8.82806E+06-3.52990E+06-1.99955E+06-4.38931E+06 5.37257E-08-2.09620E-08
 -1       307-4.94931E+06 4.49338E+06 7.96920E+05 2.11763E+06 3.57104E-07-9.32632E-08
 -1       308-4.07071E+06-3.59311E+06-2.79343E+05-4.06829E+06 5.23723E-08-9.03237E-08
 -1       309-1.09963E+07 5.34725E+06 2.20960E+05 1.47427E+04-1.57524E-07 1.01332E-07
 -1       310-4.03821E+06-3.58305E+06-1.58710E+05-4.06413E+06-5.86660E-08 1.80298E-08
 -1       311-5.05934E+06 4.46352E+06 1.05733E+06 2.11500E+06-2.73147E-07 7.77218E-08
 -1       312-8.76924E+06-3.49738E+06-1.35661E+06-4.41344E+06 1.01281E-08-8.26985E-08
 -1       313 3.73801E+06 8.08505E+05 1.86872E+06 1.36697E+06 1.04745E-07-3.89846E-08
 -1       314-1.08062E+07-1.49546E+06-1.36643E+06-2.19901E+06-1.38796E-07-1.25656E-08
 -1       315 1.39010E+06-1.90119E+06 1.06945E+06-4.88945E+06 1.15251E-08 6.89070E-08
 -1       316-7.90767E+06 2.44200E+05-1.71821E+05 1.79334E+05 2.09024E-07 2.24478E-07
 -1       317-3.65482E+06-1.99832E+06 2.15767E+05-8.12941E+06-3.94533E-07 1.44704E-07
 -1       318-7.87065E+06 2.52623E+05-2.76773E+05 1.95934E+05 2.66387E-07 3.72747E-08
 -1       319 1.30336E+06-1.87314E+06 7.58505E+05-4.97621E+06 7.81147E-08 2.03872E-08
 -1       320-1.07969E+07-1.50128E+06-2.02615E+06-2.15219E+06-5.34346E-08-6.98492E-10
 -1       336 4.43356E+02-7.92681E+05-3.56015E+03 1.13435E+03-7.79255E-09-1.24073E-08
 -1       337-1.24944E+03-7.93338E+05-3.03750E+03-2.87741E+03-1.44464E-08-1.06411E-08
 -1       338 4.37892E+01-7.92991E+05-3.01837E+03 1.73538E+03-1.02317E-08-3.61979E-10
 -1       339-2.69532E+03-7.94313E+05-5.72980E+03-4.05549E+03-1.83850E-08 3.65708E-09
 -1       340 1.62689E+03-7.91800E+05-8.66677E+03 2.30841E+03-1.23349E-08 1.74041E-08
 -1       406 1.08733E+01 3.04801E+05 5.12925E+02-5.13658E-01 7.31177E-10 2.54231E-08
 -1       407 1.70309E+02 3.04897E+05 1.09082E+03-1.06128E+01 6.32099E-11 1.03842E-08
 -1       408 5.52623E+02 3.04722E+05 2.17817E+03 1.13897E+01 8.74252E-10-7.40692E-09
 -1       409 2.34757E+03 3.05593E+05 4.90427E+03-1.13846E+02 3.63798E-11-2.77009E-08
 -1       410 6.76048E+03 3.04101E+05 1.00116E+04 1.07788E+02 8.82210E-10-1.47629E-08
 -1       521-1.00280E+07-4.04907E+06-2.20903E+06-4.92087E+06 2.61352E-08-1.51304E-07
 -1       522-6.72918E+06 5.03737E+06 7.72691E+05 2.00586E+06 2.53887E-07-2.54913E-08
 -1       523-5.04106E+06-4.19465E+06-2.97359E+05-4.80037E+06 4.08909E-08 1.25201E-07
 -1       524-1.33454E+07 6.17243E+06 2.39085E+05-4.06590E+05-2.47823E-07 3.07202E-07
 -1       525-5.02081E+06-4.18867E+06-1.66490E+05-4.79949E+06-2.53320E-07 2.30139E-07
 -1       526-6.79938E+06 5.01887E+06 1.07903E+06 2.00889E+06-4.61150E-08 6.82921E-08
 -1       527-9.99118E+06-4.02764E+06-1.49363E+06-4.94214E+06-4.02215E-08 1.72877E-08
 -1       528 3.03764E+06 6.19716E+05 1.88215E+06 1.10935E+06-5.47152E-08-2.68046E-08
 -1       529-1.22315E+07-1.79955E+06-1.49697E+06-2.47711E+06 5.18048E-08-1.60508E-08
 -1       530 5.37056E+05-2.28772E+06 1.08380E+06-6.05843E+06 3.18294E-07-1.02071E-07
 -1       531-9.43174E+06 2.07655E+05-1.69526E+05 6.75528E+04 3.65631E-07 6.85504E-08
 -1       532-4.97943E+06-2.19217E+06 2.41549E+05-9.66769E+06-3.05487E-07 1.96873E-07
 -1       533-9.42682E+06 2.03940E+05-2.89064E+05 7.02309E+04-2.04076E-07 3.41417E-07
 -1       534 5.30612E+05-2.23949E+06 7.80711E+05-6.08170E+06 1.49157E-07-2.33733E-07
 -1       535-1.22380E+07-1.83839E+06-2.18736E+06-2.46273E+06-6.81030E-09-1.50118E-07
 -1       536 9.92513E+04-3.13791E+04 7.19484E+04 2.07801E+03-3.35808E-09 9.01127E-09
 -1       537 1.34461E+05 3.62712E+04 5.15855E+04-4.53379E+03-7.75890E-09 5.41968E-09
 -1       538 1.12306E+05-4.89494E+03 1.85792E+04 1.15644E+03-6.87635E-10 5.97356E-09
 -1       539 1.18983E+05 5.64221E+03 1.19018E+04-3.10870E+03 2.35002E-09 7.86167E-09
 -1       540 1.14692E+05-7.54330E+02 4.71883E+03 6.52826E+02 4.54804E-10 7.94876E-09
 -1       541 1.16089E+05 8.65900E+02 2.81806E+03-2.31317E+03 4.30305E-11 7.23048E-11
 -1       542 1.15186E+05-1.12970E+02 1.18972E+03 3.60870E+02-3.21705E-10-2.56267E-09
 -1       543 1.15472E+05 1.30683E+02 6.77926E+02-1.87829E+03 2.28084E-10-7.11374E-09
 -1       544 1.15304E+05-1.57350E+01 3.05551E+02 2.17948E+02-2.16630E-10-6.56104E-09
 -1       545 1.15337E+05 2.32374E+01 1.74137E+02-1.71426E+03 4.68704E-10-1.79213E-08
 -1       546 1.15320E+05-4.27051E+00 9.80807E+01 1.96843E+02 4.08374E-10-4.46647E-10
 -1       547 1.15367E+05 3.04758E+01 1.02276E+02-1.78987E+03-1.40170E-09 5.64606E-09
 -1       548 1.15274E+05-2.34680E+01 1.00220E+02 2.93560E+02-1.61197E-09-1.22885E-09
 -1       549 1.15597E+05 1.90388E+02 2.96064E+02-2.11926E+03-9.04745E-10-5.70969E-09
 -1       550 1.15094E+05-1.66825E+02 3.14986E+02 5.26232E+02-2.91493E-10 3.06223E-09
 -1       551 1.48360E+04-5.57092E+05 1.86739E+04-1.08636E+06-3.58341E-08-3.24508E-09
 -1       552 3.60832E+04-5.70077E+05 2.94316E+04-1.54742E+06-2.73576E-08 1.14378E-08
 -1       553 2.57710E+04-5.74303E+05 4.68409E+04-1.08294E+06-4.52856E-08 1.25146E-08
 -1       554 6.14909E+04-5.58707E+05 1.00345E+05-1.54813E+06-2.78815E-08 2.46837E-09
 -1       555 5.04684E+04-5.87501E+05 1.78295E+05-1.08495E+06-4.28845E-08-5.43514E-09
 -1       556 6.15255E+04-1.47710E+05 5.53400E+04-1.94615E+05-4.07454E-10 6.63567E-09
 -1       557 1.24415E+05-1.98181E+05 2.92263E+04-2.44704E+05 3.66708E-09 1.57593E-08
 -1       558 6.14872E+04-1.54532E+05 1.17543E+04-1.88722E+05 1.87720E-09 3.89082E-09
 -1       559 1.15015E+05-2.05569E+05 5.99237E+03-2.48626E+05 1.40863E-08 6.02085E-10
 -1       560 5.94488E+04-1.53153E+05 2.45292E+03-1.90044E+05 1.99361E-09-1.46592E-08
 -1       561 1.11822E+05-2.04732E+05 1.31872E+03-2.50626E+05 8.29459E-10 2.27374E-11
 -1       562 5.78196E+04-1.52055E+05 4.95173E+02-1.91220E+05-3.92902E-10 2.20894E-09
 -1       563 1.09906E+05-2.03914E+05 3.19444E+02-2.51852E+05-1.45155E-09 1.50219E-08
 -1       564 5.68278E+04-1.51409E+05 1.13392E+02-1.91925E+05-3.17232E-09 1.06138E-09
 -1       565 1.08952E+05-2.03507E+05 6.79914E+01-2.52452E+05-2.89947E-09 1.62981E-09
 -1       566 5.65103E+04-1.51195E+05-4.08288E+01-1.92155E+05 7.41284E-09 6.82303E-09
 -1       567 1.08906E+05-2.03485E+05-1.76601E+02-2.52405E+05 3.99814E-09 1.36915E-08
 -1       568 5.69096E+04-1.51455E+05-4.96754E+02-1.91946E+05 9.30777E-09-1.76078E-09
 -1       569 1.08958E+05-2.03505E+05-1.14670E+03-2.51046E+05 1.93613E-08-6.37374E-09
 -1       570 5.86719E+04-1.53046E+05-2.43349E+03-1.91736E+05 5.32236E-09-7.86713E-09
 -1       571 2.19837E+05 7.89812E+03 1.17216E+04-5.51870E+04-1.16415E-10 2.80988E-09
 -1       572 2.21578E+05 2.74041E+03 5.74318E+03-6.04896E+04-7.47605E-10 5.09226E-09
 -1       573 2.20530E+05 6.47343E+02 2.55132E+03-5.50398E+04-3.04590E-09 2.71712E-09
 -1       574 2.20734E+05 2.06534E+02 1.27844E+03-6.06526E+04-2.67278E-09 6.05860E-09
 -1       575 2.20603E+05 2.42031E+01 6.02480E+02-5.50205E+04 4.32010E-10 3.37468E-09
 -1       576 2.20616E+05 3.65619E+00 3.06678E+02-6.06744E+04-7.01164E-10-4.26053E-09
 -1       577 2.20613E+05-8.44520E+00 1.50867E+02-5.50180E+04-1.19929E-08 9.39099E-09
 -1       578 2.20605E+05-6.83365E+00 8.19027E+01-6.06770E+04-2.05609E-08 5.35647E-09
 -1       579 2.20628E+05-1.18444E+01 4.92087E+01-5.50179E+04-1.80016E-08 2.51794E-09
 -1       580 2.20626E+05-1.57768E+01 4.46373E+01-6.06739E+04-1.99129E-08 1.25292E-08
 -1       581 2.20655E+05-2.34251E+01 5.86392E+01-5.50211E+04-1.23364E-08 4.48881E-09
 -1       582 2.20674E+05-1.89617E+01 1.10848E+02-6.06417E+04-2.12594E-09 1.20313E-08
 -1       583 2.20692E+05 4.21056E+00 2.10960E+02-5.50501E+04-2.67391E-10 2.06910E-10
 -1       584 2.20798E+05 1.64047E+02 4.73362E+02-6.03986E+04-2.13458E-09-3.46290E-09
 -1       585 2.20685E+05 5.78396E+02 9.59525E+02-5.52647E+04-1.22782E-10-8.38918E-09
 -1       586-2.69445E+03 7.18658E+04-3.67238E+03-1.85307E+05 7.52152E-10-1.23648E-08
 -1       587-5.34865E+02 7.13555E+04-4.92097E+02-2.03902E+05 1.22054E-09-2.77203E-08
 -1       588 7.82420E+02 7.14739E+04 2.40604E+03-1.85188E+05 6.49379E-10-3.50851E-08
 -1       589 3.70673E+03 7.28245E+04 7.12247E+03-2.03742E+05 1.08048E-09-4.81887E-08
 -1       590 1.05154E+04 7.06422E+04 1.52858E+04-1.85466E+05 5.81622E-10-1.92176E-08
 -1       591-4.84917E+04-1.40085E+04-1.61161E+04-2.53106E+04-8.18545E-12-5.26961E-09
 -1       592-4.99452E+04-1.80217E+04-8.72913E+03-2.95764E+04 4.80156E-09 2.06023E-09
 -1       593-5.01229E+04-1.28198E+04-3.63408E+03-2.64741E+04 6.46423E-10 1.36447E-09
 -1       594-4.76993E+04-1.56799E+04-1.81242E+03-2.96902E+04-2.29517E-09-6.05024E-09
 -1       595-5.02483E+04-1.28139E+04-8.32935E+02-2.65278E+04-4.24882E-09 2.80183E-09
 -1       596-4.75478E+04-1.55726E+04-4.24552E+02-2.96749E+04-9.59687E-09-1.72673E-09
 -1       597-5.02643E+04-1.28240E+04-2.33710E+02-2.65300E+04-4.35939E-09-4.24774E-09
 -1       598-4.75333E+04-1.55685E+04-1.92510E+02-2.96704E+04 1.31166E-10-5.51756E-09
 -1       599-5.02629E+04-1.28243E+04-2.51752E+02-2.65295E+04-1.02784E-09-6.43911E-09
 -1       600-4.75490E+04-1.55741E+04-4.72312E+02-2.96739E+04-5.82986E-10-1.26920E-09
 -1       601-5.02424E+04-1.28135E+04-9.34304E+02-2.65260E+04-1.57570E-10-4.96175E-09
 -1       602-4.77188E+04-1.56948E+04-2.03736E+03-2.96887E+04 3.01782E-09-9.51786E-10
 -1       603-5.00995E+04-1.28223E+04-4.08663E+03-2.64657E+04-1.18916E-09 9.68157E-10
 -1       604-5.02516E+04-1.83194E+04-9.81627E+03-2.95488E+04-1.00204E-09 1.38925E-09
 -1       605-4.82547E+04-1.41666E+04-1.81231E+04-2.51655E+04 3.22075E-10 6.25460E-09
 -1       606 3.19736E+04-1.06044E+04-1.90938E+04 3.12052E+04 1.77242E-08-7.75162E-09
 -1       607 2.87023E+04-3.41833E+03-9.50714E+03 3.50285E+04 4.01651E-08-8.52219E-09
 -1       608 3.05494E+04-5.74888E+02-4.25852E+03 3.09558E+04 2.13731E-08 2.02795E-09
 -1       609 3.01756E+04-1.41640E+02-2.15047E+03 3.53025E+04 6.63931E-11 5.57930E-09
 -1       610 3.03682E+04 3.58493E+01-1.02801E+03 3.09279E+04 5.40240E-10 2.86877E-09
 -1       611 3.02930E+04 5.60447E+01-5.18301E+02 3.53323E+04-7.27232E-09 1.00933E-08
 -1       612 3.03139E+04 5.80659E+01-2.48608E+02 3.09252E+04 1.42009E-08 1.94018E-09
 -1       613 3.02818E+04 7.02381E+01-1.13353E+02 3.53358E+04 2.80379E-08-1.15378E-08
 -1       614 3.02821E+04 6.31252E+01-3.23807E+01 3.09243E+04 1.48739E-08 1.11709E-09
 -1       615 3.02619E+04 8.00454E+01 3.42339E+01 3.53363E+04 5.99903E-09 5.89694E-09
 -1       616 3.02581E+04 7.26043E+01 1.14746E+02 3.09246E+04-4.83487E-09 2.91152E-09
 -1       617 3.02640E+04 1.11721E+02 2.66966E+02 3.53356E+04 1.55069E-09-8.72819E-09
 -1       618 3.02261E+04 1.55110E+02 5.39750E+02 3.09247E+04 3.81715E-09-2.49838E-09
 -1       619 3.04474E+04 5.33607E+02 1.21335E+03 3.53347E+04 1.60935E-09-1.69348E-09
 -1       620 3.00423E+04 1.43917E+03 2.43899E+03 3.09230E+04 4.82453E-09 6.94172E-09
 -1       621 3.97867E+02 2.41383E+05 3.44174E+03 6.99556E+03-3.35703E-10-1.82581E-09
 -1       622 4.51975E+02 2.42237E+05 2.89048E+03 1.02367E+04-3.00361E-10 6.33804E-10
 -1       623 1.66514E+01 2.41633E+05 3.28378E+03 6.96318E+03-2.47610E-10 6.24038E-09
 -1       624 1.47192E+03 2.43173E+05 6.20048E+03 1.02676E+04-4.00973E-10 9.18385E-09
 -1       625 1.47850E+03 2.40442E+05 1.07627E+04 6.96531E+03-2.11458E-10-5.19728E-09
 -1       626 1.97302E+05 5.50550E+04 3.87058E+03 1.07229E+05-2.80670E-09 7.01766E-09
 -1       627 1.94548E+05 5.71094E+04 1.86553E+03 1.11578E+05-4.58749E-09 3.06068E-09
 -1       628 1.97445E+05 5.32206E+04 7.87369E+02 1.07803E+05-5.62522E-09 7.35008E-09
 -1       629 1.93974E+05 5.66781E+04 3.86318E+02 1.11833E+05-2.13108E-08-1.21119E-08
 -1       630 1.97448E+05 5.31372E+04 1.78357E+02 1.07813E+05-1.04537E-08-5.62636E-09
 -1       631 1.93899E+05 5.66716E+04 9.62902E+01 1.11831E+05-4.48108E-09-3.55865E-09
 -1       632 1.97433E+05 5.31471E+04 6.37461E+01 1.07801E+05-2.80488E-09 2.84894E-09
 -1       633 1.93880E+05 5.66794E+04 7.18925E+01 1.11820E+05-8.58563E-09-4.21511E-09
 -1       634 1.97418E+05 5.31497E+04 1.16693E+02 1.07794E+05 1.10522E-08-2.98292E-09
 -1       635 1.93882E+05 5.66823E+04 2.36992E+02 1.11817E+05 2.68328E-08 1.25292E-08
 -1       636 1.97404E+05 5.31496E+04 4.78663E+02 1.07790E+05 1.31192E-08 1.60617E-08
 -1       637 1.93979E+05 5.67588E+04 1.05201E+03 1.11812E+05 4.87465E-09-7.26550E-09
 -1       638 1.97363E+05 5.33840E+04 2.16195E+03 1.07682E+05-1.40290E-10-1.35606E-09
 -1       639 1.95111E+05 5.83400E+04 5.11441E+03 1.11477E+05-1.95905E-09 1.51767E-08
 -1       640 1.97214E+05 5.80896E+04 1.06134E+04 1.05682E+05-5.31600E-09-4.20823E-09
 -1       656 5.37005E+04-1.35801E+06-1.29615E+05 2.56300E+01 6.11180E-10-1.02613E-08
 -1       657-7.09564E+04-1.41648E+06-1.07178E+05 8.93053E+03 4.65661E-10-6.37726E-09
 -1       658 1.70219E+04-1.37468E+06-6.57473E+04-1.54609E+03 6.20730E-10 6.03237E-09
 -1       659-7.60339E+04-1.41889E+06-1.13847E+05 9.97362E+03-1.12414E-09-3.30665E-09
 -1       660 5.87668E+04-1.35560E+06-1.41079E+05-1.01745E+03-5.67525E-10-2.52851E-09
 -1       661 1.95567E+05 2.13710E+04 1.87043E+04 7.64974E+04 5.65569E-09-4.06635E-09
 -1       662 2.05321E+05 3.60298E+04 1.26036E+04 7.32340E+04 1.90033E-09-1.06007E-08
 -1       663 1.99238E+05 2.73736E+04 4.40885E+03 7.54347E+04 9.71454E-10-9.66065E-09
 -1       664 2.01071E+05 2.90059E+04 2.63601E+03 7.45286E+04-2.34419E-09-1.32112E-08
 -1       665 1.99790E+05 2.81975E+04 1.03974E+03 7.52774E+04-4.22216E-09-7.85312E-09
 -1       666 2.00421E+05 2.80606E+04 6.06330E+02 7.47322E+04-9.12418E-09 4.29418E-09
 -1       667 1.99884E+05 2.82940E+04 3.19456E+02 7.52405E+04-2.30452E-09 3.00513E-09
 -1       668 2.00318E+05 2.79874E+04 3.19818E+02 7.47867E+04-3.42148E-09-3.49058E-09
 -1       669 1.99892E+05 2.82684E+04 4.28135E+02 7.52237E+04-2.15039E-10-2.23508E-10
 -1       670 2.00421E+05 2.82185E+04 9.27934E+02 7.47914E+04 5.13830E-09 4.17991E-09
 -1       671 1.99782E+05 2.80674E+04 1.64603E+03 7.52340E+04 1.77705E-09 2.06364E-09
 -1       672 2.01376E+05 2.98231E+04 4.21017E+03 7.45639E+04-6.12096E-09-2.44313E-10
 -1       673 1.98942E+05 2.67039E+04 7.05508E+03 7.54357E+04-3.75439E-09-2.48792E-09
 -1       674 2.08090E+05 4.11583E+04 2.01756E+04 7.25925E+04-1.83263E-09 6.44036E-09
 -1       675 1.93111E+05 1.70491E+04 2.99474E+04 7.70858E+04-1.25692E-09 1.40608E-09
 -1       676 2.19931E+01-2.61552E+05-1.02003E+03 6.51006E+01-2.03900E-09-4.72687E-09
 -1       677-2.70601E+02-2.61799E+05-1.86680E+03-1.30116E+02-6.80939E-09 3.38028E-10
 -1       678 1.80867E+02-2.61376E+05-3.30003E+03 6.49708E+01-9.19499E-10 6.96637E-10
 -1       679-3.30073E+03-2.63791E+05-7.83937E+03-1.29633E+02-2.09002E-09-1.34399E-09
 -1       680 1.97011E+03-2.59561E+05-1.26344E+04 6.38729E+01 2.00907E-09 2.75521E-09
 -1       771-2.81226E+06-4.81666E+05-8.72698E+04-1.14973E+06-1.29803E-08-1.30967E-08
 -1       772-2.80583E+06-5.13869E+05-4.68998E+04-1.18499E+06-7.01766E-09 3.62706E-09
 -1       773-2.82335E+06-4.73184E+05-2.01430E+04-1.15501E+06-3.75439E-09 3.93629E-09
 -1       774-2.79326E+06-5.03138E+05-9.83449E+03-1.18939E+06 7.26141E-09-3.99632E-09
 -1       775-2.82580E+06-4.71652E+05-4.93047E+03-1.15520E+06 4.17640E-09 4.85852E-09
 -1       776-2.79269E+06-5.03289E+05-2.28441E+03-1.19193E+06-1.43336E-09 2.99769E-09
 -1       777-2.82747E+06-4.70437E+05-1.39468E+03-1.15522E+06-4.22006E-10 2.06455E-09
 -1       778-2.79291E+06-5.03766E+05-6.23749E+02-1.19410E+06-1.86265E-09 4.87489E-09
 -1       779-2.82881E+06-4.69388E+05-5.93215E+02-1.15526E+06-4.67844E-09-3.19596E-09
 -1       780-2.79323E+06-5.04150E+05-4.48708E+02-1.19586E+06 4.63842E-10-1.90539E-10
 -1       781-2.82983E+06-4.68543E+05-7.87511E+02-1.15529E+06-6.83576E-09-2.15186E-09
 -1       782-2.79361E+06-5.04495E+05-1.41078E+03-1.19717E+06-1.26201E-08-6.67205E-09
 -1       783-2.83044E+06-4.67984E+05-2.82102E+03-1.15529E+06-1.10958E-09-4.19129E-09
 -1       784-2.79548E+06-5.06459E+05-6.67660E+03-1.19789E+06-6.51562E-09-3.98722E-09
 -1       785-2.82958E+06-4.68584E+05-1.23458E+04-1.15441E+06-1.14333E-08-2.61662E-09
 -1       786 2.11982E+05-1.10654E+04 2.56012E+04 1.32200E+01-6.19565E-08 6.41739E-09
 -1       787 2.23075E+05 1.28104E+04 1.81121E+04 7.17320E+00-1.25012E-07 9.66247E-09
 -1       788 2.16263E+05-1.73465E+03 6.62648E+03 1.50068E+01-7.13513E-08 6.49425E-09
 -1       789 2.18090E+05 2.00712E+03 4.16367E+03 2.23480E+00-1.62923E-08 9.55833E-09
 -1       790 2.16969E+05-2.70999E+02 1.69472E+03 1.81590E+01 1.78759E-07-1.58738E-08
 -1       791 2.17266E+05 3.15004E+02 9.95956E+02-6.39874E+00 3.72796E-07 4.58418E-09
 -1       792 2.17087E+05-4.38132E+01 4.56397E+02 2.36406E+01 1.85859E-07-8.41000E-09
 -1       793 2.17133E+05 6.24167E+01 3.02800E+02-2.16528E+01 8.02580E-10-6.52389E-09
 -1       794 2.17102E+05-1.85773E+01 2.30009E+02 3.34133E+01 8.11016E-11-5.69169E-09
 -1       795 2.17149E+05 9.80556E+01 3.40941E+02-4.90230E+01-9.76428E-11 1.23817E-08
 -1       796 2.17071E+05-7.94253E+01 5.15670E+02 5.10113E+01 3.02480E-10 3.24872E-09
 -1       797 2.17385E+05 5.82832E+02 1.22002E+03-9.84404E+01 1.46056E-10-6.56330E-09
 -1       798 2.16866E+05-5.03002E+02 1.92696E+03 8.28315E+01-1.74208E-10-5.63432E-10
 -1       799 2.18832E+05 3.71428E+03 5.25466E+03-1.88423E+02-8.53849E-10-1.02145E-08
 -1       800 2.15623E+05-3.20836E+03 7.42232E+03 1.40994E+02-1.92687E-10 3.57795E-09
 -1       801-3.49357E+04 4.86403E+05 5.85201E+04 2.15681E+04 1.20453E-08-1.07188E-08
 -1       802 5.92630E+04 6.53767E+05 1.03681E+05-1.03671E+05 3.23014E-08-5.42119E-09
 -1       803-2.23601E+04 5.54870E+05 9.94365E+04 5.76654E+03 2.53385E-08 2.14628E-08
 -1       804 1.76736E+05 7.22841E+05 2.58182E+05-1.07995E+05 3.03880E-08 2.55063E-08
 -1       805-1.52491E+05 4.17779E+05 3.15864E+05 2.58842E+04 1.07248E-08 3.11492E-08
 -1       806-2.38993E+05-5.21318E+04-2.07120E+04-1.00492E+05 1.10686E-09 7.50697E-09
 -1       807-2.40121E+05-4.92574E+04-1.01753E+04-1.06088E+05 5.05048E-09 2.30978E-09
 -1       808-2.39585E+05-4.46447E+04-4.31623E+03-1.04000E+05 2.82625E-10-6.68638E-09
 -1       809-2.37944E+05-4.64376E+04-2.10997E+03-1.06387E+05 1.00692E-09 1.72543E-09
 -1       810-2.39677E+05-4.43805E+04-9.66091E+02-1.04154E+05 1.55592E-09-4.27326E-09
 -1       811-2.37776E+05-4.63266E+04-4.78959E+02-1.06362E+05 1.15347E-09-6.68615E-09
 -1       812-2.39692E+05-4.44006E+04-2.38832E+02-1.04153E+05 1.40062E-08 6.19752E-09
 -1       813-2.37754E+05-4.63299E+04-1.50184E+02-1.06348E+05 2.79815E-08-5.05736E-09
 -1       814-2.39688E+05-4.44090E+04-1.40229E+02-1.04149E+05 1.19794E-08-6.58747E-09
 -1       815-2.37754E+05-4.63329E+04-2.18501E+02-1.06343E+05 1.27852E-09 8.20819E-10
 -1       816-2.39671E+05-4.44088E+04-4.09098E+02-1.04145E+05 4.62751E-09 1.72854E-08
 -1       817-2.37822E+05-4.63727E+04-8.76304E+02-1.06332E+05 7.16727E-09 6.07724E-09
 -1       818-2.39616E+05-4.45337E+04-1.78608E+03-1.04086E+05 2.60297E-09-4.14138E-09
 -1       819-2.38806E+05-4.74436E+04-4.20276E+03-1.06089E+05-2.33058E-09-1.84339E-08
 -1       820-2.39273E+05-4.77134E+04-8.55386E+03-1.02731E+05 2.37287E-09 1.33685E-08
 -1       821-3.10654E+05 1.72678E+04-3.99372E+04 2.11471E+02-8.66649E-11-1.01190E-08
 -1       822-3.27943E+05-1.99916E+04-2.82589E+04-1.33252E+03-2.45963E-09-7.94898E-10
 -1       823-3.17322E+05 2.70834E+03-1.03426E+04 2.93512E+02 8.98785E-10-3.42743E-09
 -1       824-3.20153E+05-3.13477E+03-6.50616E+03-1.22748E+03 5.75895E-10-5.44560E-11
 -1       825-3.18443E+05 4.23726E+02-2.67717E+03 1.06429E+02-2.37839E-09-9.01650E-10
 -1       826-3.18833E+05-4.99082E+02-1.60627E+03-6.76141E+02-5.29246E-09 6.50755E-09
 -1       827-3.18639E+05 7.37459E+01-8.41091E+02-2.57836E+02-4.91897E-09 3.09652E-09
 -1       828-3.18653E+05-1.50544E+02-7.28198E+02 6.08296E+01-7.65090E-09 2.80869E-09
 -1       829-3.18623E+05 7.53694E+01-8.49836E+02-6.30554E+02 3.41061E-13 1.74668E-09
 -1       830-3.18877E+05-5.09588E+02-1.64753E+03 6.42091E+02 2.56530E-09 7.08042E-10
 -1       831-3.18416E+05 4.33338E+02-2.73431E+03-8.39110E+02-3.32961E-09-3.68914E-10
 -1       832-3.20206E+05-3.20573E+03-6.66170E+03 7.99547E+02-3.17401E-09-3.37684E-09
 -1       833-3.17296E+05 2.76991E+03-1.05883E+04-7.88011E+02-1.85905E-09 5.57384E-09
 -1       834-3.28136E+05-2.04593E+04-2.89206E+04 4.62713E+02-1.38672E-09 9.71932E-09
 -1       835-3.10487E+05 1.76730E+04-4.08863E+04-5.02256E+02 5.87288E-09 3.19051E-09
 -1       836-1.03278E+03 2.95698E+05 1.77849E+04-2.69863E+04 2.28647E-09 7.07587E-10
 -1       837 3.94278E+03 3.01189E+05 1.51705E+04-5.41499E+04 3.38082E-09-1.06490E-08
 -1       838-3.66059E+02 2.97225E+05 1.56210E+04-2.68993E+04 3.19915E-09-9.94191E-10
 -1       839 1.00473E+04 3.05734E+05 2.97110E+04-5.41769E+04 3.71665E-09-5.70796E-09
 -1       840-2.99777E+03 2.91103E+05 4.74433E+04-2.69567E+04 2.42107E-09 7.71638E-09
 -1       856-9.93427E+04 8.37758E+03-2.20786E+04-5.22034E+02-4.03742E-09-3.08410E-09
 -1       857-1.08463E+05-9.82349E+03-1.52003E+04 4.96621E+03-1.85079E-09-1.35446E-08
 -1       858-1.02945E+05 1.17344E+03-5.73020E+03-5.49097E+02-3.82545E-09-6.31803E-09
 -1       859-1.04326E+05-1.36157E+03-3.46077E+03 5.00990E+03 1.27450E-09-8.52691E-09
 -1       860-1.03484E+05 1.62857E+02-1.45550E+03-5.65939E+02 2.26740E-09-3.23706E-09
 -1       861-1.03707E+05-1.76802E+02-8.11212E+02 5.03302E+03-6.24933E-09 7.82683E-09
 -1       862-1.03568E+05 2.13009E+01-3.58399E+02-5.72269E+02 6.44253E-09-6.29953E-09
 -1       863-1.03608E+05-9.96987E+00-1.78653E+02 5.03579E+03 1.46680E-08-9.02332E-10
 -1       864-1.03583E+05-2.69604E-01-5.90017E+01-5.68717E+02 5.86525E-09-3.88116E-09
 -1       865-1.03579E+05 2.65547E+01 2.55499E+01 5.01818E+03 4.33390E-09-3.70750E-09
 -1       866-1.03594E+05-1.60324E+01 1.06785E+02-5.54658E+02 4.10296E-10-8.89474E-09
 -1       867-1.03513E+05 1.33609E+02 2.99146E+02 4.98002E+03-4.90309E-09-6.46494E-09
 -1       868-1.03645E+05-1.07552E+02 5.04880E+02-5.30550E+02-1.50010E-10-5.48113E-10
 -1       869-1.03129E+05 8.88329E+02 1.35897E+03 4.91785E+03-3.46355E-09-7.50822E-09
 -1       870-1.03971E+05-7.53419E+02 1.96888E+03-4.92494E+02 2.58888E-09-1.10093E-08
 -1       871-4.58838E+03-9.25566E+03-1.47166E+04 9.62215E+04 2.35468E-09 7.17591E-10
 -1       872-2.02954E+03-1.25441E+04-5.98555E+03 1.24745E+05 6.30484E-09 9.75979E-09
 -1       873-8.95564E+01-1.10269E+04 8.86594E+02 9.60109E+04 2.43926E-09 3.89718E-09
 -1       874 2.21872E+03-8.85591E+03 8.41592E+03 1.24791E+05 6.67092E-09-4.45061E-09
 -1       875 5.34391E+03-1.30140E+04 1.86395E+04 9.61890E+04 2.07910E-09-1.19235E-09
 -1       876 2.41998E+05 4.18478E+04 1.30072E+04 9.83610E+04-1.20575E-08-2.37378E-09
 -1       877 2.42721E+05 4.47245E+04 6.94625E+03 1.02228E+05-1.90446E-08-1.16654E-08
 -1       878 2.43212E+05 4.04092E+04 2.91005E+03 9.94296E+04-9.85438E-10-4.21596E-09
 -1       879 2.40950E+05 4.29626E+04 1.44969E+03 1.02319E+05-5.78439E-10 4.19402E-09
 -1       880 2.43299E+05 4.03939E+04 6.74807E+02 9.94730E+04 2.64367E-09 5.37068E-09
 -1       881 2.40833E+05 4.28875E+04 3.59351E+02 1.02300E+05 8.51765E-09-6.74484E-09
 -1       882 2.43308E+05 4.04050E+04 2.28060E+02 9.94742E+04 7.22889E-09 1.29926E-08
 -1       883 2.40824E+05 4.28839E+04 2.42277E+02 1.02294E+05 6.05098E-10 1.06204E-08
 -1       884 2.43303E+05 4.04025E+04 3.82727E+02 9.94744E+04-3.22899E-09 7.42432E-10
 -1       885 2.40854E+05 4.28893E+04 7.67815E+02 1.02304E+05 6.32792E-09 7.20217E-09
 -1       886 2.43273E+05 4.03801E+04 1.54667E+03 9.94713E+04 2.21675E-09-2.68471E-09
 -1       887 2.41126E+05 4.30675E+04 3.37814E+03 1.02343E+05-3.67297E-09-6.55291E-10
 -1       888 2.43060E+05 4.04173E+04 6.80688E+03 9.93631E+04-2.07592E-09-2.98314E-09
 -1       889 2.45183E+05 4.72779E+04 1.62608E+04 1.02214E+05 4.54573E-09 4.92946E-10
 -1       890 2.40288E+05 4.37104E+04 3.04555E+04 9.67650E+04 5.38239E-09 5.09317E-11
 -1       891-1.64335E+02-1.37817E+05-1.62289E+03 2.64438E+04 2.27988E-09-1.01090E-09
 -1       892-2.83809E+02-1.38197E+05-1.76696E+03 3.99993E+04-4.61114E-10-1.14414E-09
 -1       893-5.90182E+01-1.37864E+05-2.52716E+03 2.64491E+04-2.10957E-09-5.44787E-10
 -1       894-1.40706E+03-1.39159E+05-5.24779E+03 3.98567E+04-2.41653E-09-7.09269E-09
 -1       895-1.10093E+03-1.36766E+05-9.24959E+03 2.65839E+04-2.46757E-09-3.54612E-09
 -1       956-3.03774E+05-4.39523E+03-1.10820E+04 1.99404E+04-6.19366E-09-4.14229E-09
 -1       957-3.05964E+05-1.47536E+03-5.68891E+03 2.40197E+04-3.41197E-09-4.04202E-09
 -1       958-3.04759E+05-1.10234E+02-2.56319E+03 1.98071E+04-5.71708E-09 3.72324E-09
 -1       959-3.04936E+05-9.06224E+00-1.30908E+03 2.41632E+04-1.81826E-08-8.65134E-09
 -1       960-3.04849E+05 4.64389E+01-6.38147E+02 1.97941E+04-1.26820E-08 7.24367E-09
 -1       961-3.04864E+05 4.73991E+01-3.38173E+02 2.41780E+04-1.06545E-08 9.33164E-09
 -1       962-3.04868E+05 4.30175E+01-1.92955E+02 1.97920E+04-1.10372E-08 1.68075E-09
 -1       963-3.04862E+05 4.96825E+01-1.53644E+02 2.41809E+04-1.75170E-08-4.80964E-09
 -1       964-3.04873E+05 4.58283E+01-1.85053E+02 1.97912E+04-7.40681E-09-2.07524E-09
 -1       965-3.04874E+05 5.35310E+01-3.18514E+02 2.41812E+04 3.21853E-09 7.15545E-09
 -1       966-3.04864E+05 5.47421E+01-5.97222E+02 1.97917E+04-9.10643E-09-2.75634E-09
 -1       967-3.04953E+05 6.64377E+00-1.22458E+03 2.41738E+04-1.11810E-08 3.90025E-09
 -1       968-3.04789E+05-8.62311E+01-2.39635E+03 1.97988E+04-9.08108E-09 1.37803E-09
 -1       969-3.05925E+05-1.35966E+03-5.32065E+03 2.40923E+04-8.55448E-09-6.34287E-10
 -1       970-3.03874E+05-4.09043E+03-1.03636E+04 1.98775E+04-3.86171E-09-8.49468E-10
 -1       971-2.89190E+05-1.52927E+03-8.53901E+03 1.41286E+04-7.22594E-09 5.59569E-09
 -1       972-2.91269E+05-1.08955E+03-4.65006E+03 1.97667E+04-3.15367E-09 4.48836E-10
 -1       973-2.90141E+05-2.08461E+00-2.08240E+03 1.40088E+04-1.69348E-09 1.26101E-09
 -1       974-2.90290E+05 2.99310E+00-1.07858E+03 1.98958E+04 2.35559E-10 3.45381E-09
 -1       975-2.90216E+05 3.89657E+01-5.37840E+02 1.39975E+04 9.93623E-10 5.95526E-09
 -1       976-2.90233E+05 4.86867E+01-3.07674E+02 1.99096E+04-4.55634E-09-5.64114E-09
 -1       977-2.90231E+05 3.94325E+01-2.18790E+02 1.39948E+04 4.30600E-09 1.79432E-09
 -1       978-2.90237E+05 5.42098E+01-2.49786E+02 1.99135E+04 1.34266E-08-8.05585E-10
 -1       979-2.90231E+05 4.64833E+01-3.96037E+02 1.39936E+04 3.57653E-09 3.79873E-09
 -1       980-2.90267E+05 5.67963E+01-7.61384E+02 1.99141E+04 4.50375E-09-7.68068E-10
 -1       981-2.90207E+05 6.53670E+01-1.47295E+03 1.39941E+04-1.03380E-08 2.48042E-09
 -1       982-2.90468E+05-5.22170E+01-3.04362E+03 1.99079E+04-1.71500E-08-3.15825E-09
 -1       983-2.90021E+05-2.92358E+01-5.91340E+03 1.40001E+04-7.65635E-09-4.61091E-09
 -1       984-2.93311E+05-3.14106E+03-1.32422E+04 1.98271E+04-6.45468E-09-2.39447E-09
 -1       985-2.87343E+05-4.35674E+03-2.43170E+04 1.40828E+04-6.16183E-10 5.59157E-09
 -3
    1PSTEP                        17           9           1          
  100CL  109 6.03516E-01         409                     0    9           1
 -4  DISP        4    1
 -5  D1          1    2    1    0
 -5  D2          1    2    2    0
 -5  D3          1    2    3    0
 -5  ALL         1    2    0    0    1ALL
 -1         1 9.42346E-04 0.00000E+00 0.00000E+00
 -1         2 9.43421E-04-6.78348E-30 0.00000E+00
 -1         3 1.13132E-04 1.04574E-26 0.00000E+00
 -1         5 8.96235E-05-2.88881E-26 0.00000E+00
 -1         8 9.07914E-04-1.35320E-06 0.00000E+00
 -1         9 9.17178E-04 5.77899E-07 0.00000E+00
 -1        10 1.05791E-04-1.18976E-06 0.00000E+00
 -1        12 8.87288E-05 6.55190E-07 0.00000E+00
 -1        15 8.67029E-04-1.52154E-06-4.13590E-25
 -1        16 8.68179E-04 7.11550E-07 0.00000E+00
 -1        17 8.22241E-05-2.51742E-06 0.00000E+00
 -1        18 8.47940E-05-2.48551E-06 0.00000E+00
 -1        19 8.60445E-05 1.30642E-06 0.00000E+00
 -1        20 8.62146E-05 2.20534E-05 0.00000E+00
 -1        21 8.55960E-05 4.22998E-05 3.30872E-24
 -1        24 2.31841E-05-3.96737E-06 0.00000E+00
 -1        25 8.14822E-05-2.33888E-06 0.00000E+00
 -1        26 8.27770E-05 1.82447E-06 0.00000E+00
 -1        27 8.09649E-05 1.91554E-05 0.00000E+00
 -1        28 8.03353E-05 4.17362E-05 0.00000E+00
 -1        32 0.00000E+00 0.00000E+00 0.00000E+00
 -1        33 7.78462E-05 2.44878E-06 0.00000E+00
 -1        34 7.61012E-05 1.91291E-05 0.00000E+00
 -1        35 7.44312E-05 4.14393E-05 0.00000E+00
 -1        51 9.40103E-04-2.17505E-07 0.00000E+00
 -1        52 9.35948E-04-4.32576E-07 0.00000E+00
 -1        53 9.30259E-04-6.51593E-07 0.00000E+00
 -1        54 9.23427E-04-8.76463E-07 0.00000E+00
 -1        55 9.15848E-04-1.10769E-06 3.72231E-24
 -1        56 9.41272E-04-1.14664E-06 0.00000E+00
 -1        57 9.40606E-04-3.51314E-06 0.00000E+00
 -1        58 9.40287E-04-6.80710E-06 0.00000E+00
 -1        59 9.40193E-04-1.07264E-05 0.00000E+00
 -1        60 9.40201E-04-1.49224E-05 0.00000E+00
 -1        61 9.40178E-04-1.90403E-05 0.00000E+00
 -1        62 9.39997E-04-2.27300E-05 5.29396E-23
 -1        63 9.39531E-04-2.56557E-05 0.00000E+00
 -1        64 9.38673E-04-2.75311E-05 5.29396E-23
 -1        65 9.37327E-04-2.81034E-05-2.64698E-23
 -1        66 9.35429E-04-2.72049E-05 0.00000E+00
 -1        67 9.32932E-04-2.47142E-05-2.64698E-23
 -1        68 9.29825E-04-2.06140E-05 0.00000E+00
 -1        69 9.26125E-04-1.49353E-05-1.32349E-23
 -1        70 9.21871E-04-7.81676E-06 2.64698E-23
 -1        86 9.42752E-04 1.13284E-07-3.30872E-24
 -1        87 9.40743E-04 2.24341E-07 0.00000E+00
 -1        88 9.37310E-04 3.31578E-07 0.00000E+00
 -1        89 9.32361E-04 4.29545E-07 0.00000E+00
 -1        90 9.25714E-04 5.19076E-07-3.30872E-24
 -1       121 1.12927E-04-1.97275E-07 0.00000E+00
 -1       122 1.12314E-04-3.94716E-07 0.00000E+00
 -1       123 1.11291E-04-5.92487E-07-6.61744E-24
 -1       124 1.09862E-04-7.90783E-07 3.30872E-24
 -1       125 1.08028E-04-9.89712E-07 0.00000E+00
 -1       191 8.95987E-05 1.09216E-07 0.00000E+00
 -1       192 8.95241E-05 2.18429E-07 0.00000E+00
 -1       193 8.93999E-05 3.27637E-07 0.00000E+00
 -1       194 8.92259E-05 4.36836E-07 0.00000E+00
 -1       195 8.90022E-05 5.46022E-07 0.00000E+00
 -1       251 9.08441E-04 3.94710E-06 1.65436E-24
 -1       252 9.09022E-04 6.33165E-06 0.00000E+00
 -1       253 9.09604E-04 6.66212E-06 0.00000E+00
 -1       254 9.10193E-04 5.74857E-06 0.00000E+00
 -1       255 9.10782E-04 3.97709E-06 1.32349E-23
 -1       256 9.11371E-04 1.71265E-06 0.00000E+00
 -1       257 9.11960E-04-8.48688E-07-1.32349E-23
 -1       258 9.12549E-04-3.51811E-06 6.61744E-24
 -1       259 9.13138E-04-6.14398E-06 0.00000E+00
 -1       260 9.13727E-04-8.57349E-06 0.00000E+00
 -1       261 9.14317E-04-1.05865E-05 0.00000E+00
 -1       262 9.14906E-04-1.19528E-05 0.00000E+00
 -1       263 9.15496E-04-1.22202E-05 0.00000E+00
 -1       264 9.16079E-04-1.09099E-05 6.61744E-24
 -1       265 9.16657E-04-7.00452E-06 0.00000E+00
 -1       266 9.01100E-04-1.39854E-06 0.00000E+00
 -1       267 8.94285E-04-1.42449E-06 1.65436E-24
 -1       268 8.87471E-04-1.45167E-06-1.65436E-24
 -1       269 8.80657E-04-1.47521E-06 0.00000E+00
 -1       270 8.73843E-04-1.49866E-06 0.00000E+00
 -1       271 9.03735E-04 3.47904E-06 5.29396E-23
 -1       272 9.00331E-04 6.06262E-06 2.64698E-23
 -1       273 8.97678E-04 6.66452E-06 0.00000E+00
 -1       274 8.95649E-04 5.57466E-06-2.64698E-23
 -1       275 8.94122E-04 3.13960E-06-5.29396E-23
 -1       276 8.92953E-04-2.61738E-07-2.64698E-23
 -1       277 8.91991E-04-4.22158E-06 0.00000E+00
 -1       278 8.91080E-04-8.31755E-06 0.00000E+00
 -1       279 8.90060E-04-1.21233E-05 0.00000E+00
 -1       280 8.88777E-04-1.52204E-05 2.64698E-23
 -1       281 8.87082E-04-1.72108E-05 0.00000E+00
 -1       282 8.84835E-04-1.77263E-05 2.64698E-23
 -1       283 8.81912E-04-1.64416E-05 0.00000E+00
 -1       284 8.78212E-04-1.30768E-05-2.64698E-23
 -1       285 8.73636E-04-7.41822E-06-5.29396E-23
 -1       301 9.08634E-04 5.91859E-07-6.61744E-24
 -1       302 9.00782E-04 6.27281E-07 0.00000E+00
 -1       303 8.93218E-04 6.65327E-07 8.27181E-25
 -1       304 8.85533E-04 7.00242E-07 4.13590E-25
 -1       305 8.77322E-04 7.27835E-07 6.61744E-24
 -1       306 8.75447E-04 8.74875E-05 0.00000E+00
 -1       307 7.52668E-04 3.16433E-04 2.64698E-23
 -1       308 5.55109E-04 6.45835E-04-1.05879E-22
 -1       309 3.07203E-04 1.03055E-03 5.29396E-23
 -1       310 5.66309E-05 1.41805E-03-1.05879E-22
 -1       311-1.48197E-04 1.75599E-03 0.00000E+00
 -1       312-2.80203E-04 1.99840E-03 0.00000E+00
 -1       313-3.30171E-04 2.10228E-03-5.29396E-23
 -1       314-3.15883E-04 2.04757E-03 0.00000E+00
 -1       315-2.63520E-04 1.83348E-03 0.00000E+00
 -1       316-1.96907E-04 1.49433E-03-1.05879E-22
 -1       317-1.29255E-04 1.07969E-03 5.29396E-23
 -1       318-6.16248E-05 6.60428E-04 0.00000E+00
 -1       319 5.61736E-06 3.07887E-04 0.00000E+00
 -1       320 6.10987E-05 7.42203E-05 0.00000E+00
 -1       336 1.03102E-04-1.40648E-06 0.00000E+00
 -1       337 9.99092E-05-1.62499E-06 0.00000E+00
 -1       338 9.62184E-05-1.84513E-06 0.00000E+00
 -1       339 9.20359E-05-2.06716E-06-3.30872E-24
 -1       340 8.73684E-05-2.29125E-06 0.00000E+00
 -1       406 8.84056E-05 7.64330E-07 0.00000E+00
 -1       407 8.80327E-05 8.73419E-07 0.00000E+00
 -1       408 8.76101E-05 9.82420E-07 0.00000E+00
 -1       409 8.71377E-05 1.09120E-06 0.00000E+00
 -1       410 8.66157E-05 1.19953E-06 3.30872E-24
 -1       521 8.25314E-04 8.83032E-05 5.29396E-23
 -1       522 7.01403E-04 3.17674E-04-5.29396E-23
 -1       523 5.02745E-04 6.47414E-04 0.00000E+00
 -1       524 2.54519E-04 1.03162E-03-5.29396E-23
 -1       525 3.86865E-06 1.41838E-03 0.00000E+00
 -1       526-2.01383E-04 1.75586E-03 0.00000E+00
 -1       527-3.33697E-04 1.99749E-03 1.05879E-22
 -1       528-3.84097E-04 2.10057E-03-5.29396E-23
 -1       529-3.70116E-04 2.04438E-03 0.00000E+00
 -1       530-3.18267E-04 1.82907E-03-5.29396E-23
 -1       531-2.52228E-04 1.48893E-03 1.05879E-22
 -1       532-1.85147E-04 1.07462E-03 0.00000E+00
 -1       533-1.18078E-04 6.56235E-04-1.05879E-22
 -1       534-5.14789E-05 3.04310E-04 0.00000E+00
 -1       535 3.14126E-06 7.17173E-05 1.05879E-22
 -1       536 8.23607E-05 1.88165E-06-8.27181E-25
 -1       537 8.25187E-05 4.34250E-06-8.27181E-25
 -1       538 8.26782E-05 5.44005E-06 3.30872E-24
 -1       539 8.28411E-05 5.73896E-06 0.00000E+00
 -1       540 8.30041E-05 5.47846E-06 0.00000E+00
 -1       541 8.31676E-05 4.89366E-06 3.30872E-24
 -1       542 8.33309E-05 4.08638E-06-6.61744E-24
 -1       543 8.34943E-05 3.15682E-06 0.00000E+00
 -1       544 8.36577E-05 2.15491E-06-6.61744E-24
 -1       545 8.38210E-05 1.13005E-06 0.00000E+00
 -1       546 8.39843E-05 1.22106E-07 0.00000E+00
 -1       547 8.41475E-05-8.28921E-07 0.00000E+00
 -1       548 8.43107E-05-1.65982E-06 3.30872E-24
 -1       549 8.44732E-05-2.30646E-06 0.00000E+00
 -1       550 8.46361E-05-2.62908E-06 0.00000E+00
 -1       551 7.45120E-05-2.73647E-06 0.00000E+00
 -1       552 6.48168E-05-2.96867E-06 3.30872E-24
 -1       553 5.39827E-05-3.21113E-06 0.00000E+00
 -1       554 4.28641E-05-3.45912E-06-6.61744E-24
 -1       555 3.23156E-05-3.70504E-06 2.64698E-23
 -1       556 8.04506E-05 2.04267E-06-1.32349E-23
 -1       557 7.91296E-05 5.43464E-06 0.00000E+00
 -1       558 7.82088E-05 7.77156E-06 0.00000E+00
 -1       559 7.76411E-05 9.17510E-06 6.61744E-24
 -1       560 7.73793E-05 9.76665E-06 0.00000E+00
 -1       561 7.73768E-05 9.66828E-06 0.00000E+00
 -1       562 7.75872E-05 9.00221E-06 0.00000E+00
 -1       563 7.79644E-05 7.89077E-06 0.00000E+00
 -1       564 7.84623E-05 6.45640E-06 0.00000E+00
 -1       565 7.90351E-05 4.82159E-06 0.00000E+00
 -1       566 7.96370E-05 3.10887E-06-4.13590E-25
 -1       567 8.02223E-05 1.44081E-06-4.13590E-25
 -1       568 8.07451E-05-6.00911E-08 0.00000E+00
 -1       569 8.11597E-05-1.27146E-06 0.00000E+00
 -1       570 8.14203E-05-2.07089E-06 0.00000E+00
 -1       571 8.48699E-05-2.18314E-06-8.27181E-25
 -1       572 8.49475E-05-1.93359E-06 2.06795E-25
 -1       573 8.50255E-05-1.72787E-06-8.27181E-25
 -1       574 8.51038E-05-1.55651E-06 8.27181E-25
 -1       575 8.51822E-05-1.40997E-06 1.65436E-24
 -1       576 8.52607E-05-1.27867E-06 8.27181E-25
 -1       577 8.53391E-05-1.15301E-06 0.00000E+00
 -1       578 8.54175E-05-1.02339E-06 1.65436E-24
 -1       579 8.54960E-05-8.80206E-07 0.00000E+00
 -1       580 8.55744E-05-7.13845E-07-1.65436E-24
 -1       581 8.56529E-05-5.14707E-07 0.00000E+00
 -1       582 8.57313E-05-2.73196E-07 0.00000E+00
 -1       583 8.58097E-05 2.02739E-08 0.00000E+00
 -1       584 8.58880E-05 3.75191E-07 0.00000E+00
 -1       585 8.59663E-05 8.00997E-07 0.00000E+00
 -1       586 8.42289E-05-2.45953E-06 1.65436E-24
 -1       587 8.36275E-05-2.43427E-06 0.00000E+00
 -1       588 8.30207E-05-2.40929E-06-4.13590E-25
 -1       589 8.24401E-05-2.38470E-06 0.00000E+00
 -1       590 8.19171E-05-2.36074E-06 0.00000E+00
 -1       591 8.46452E-05-2.14693E-06 1.03398E-25
 -1       592 8.45108E-05-1.85541E-06 4.13590E-25
 -1       593 8.43906E-05-1.60222E-06 0.00000E+00
 -1       594 8.42815E-05-1.37945E-06-4.13590E-25
 -1       595 8.41807E-05-1.17908E-06 8.27181E-25
 -1       596 8.40852E-05-9.93128E-07 0.00000E+00
 -1       597 8.39922E-05-8.13649E-07 0.00000E+00
 -1       598 8.38986E-05-6.32683E-07 0.00000E+00
 -1       599 8.38014E-05-4.42272E-07-8.27181E-25
 -1       600 8.36977E-05-2.34463E-07-2.06795E-25
 -1       601 8.35846E-05-1.30359E-09 8.27181E-25
 -1       602 8.34590E-05 2.65172E-07-1.03398E-25
 -1       603 8.33180E-05 5.72923E-07 0.00000E+00
 -1       604 8.31589E-05 9.29967E-07-1.03398E-25
 -1       605 8.29785E-05 1.34423E-06 0.00000E+00
 -1       606 8.60594E-05 1.99149E-06 0.00000E+00
 -1       607 8.60715E-05 2.79402E-06 0.00000E+00
 -1       608 8.60828E-05 3.70711E-06 0.00000E+00
 -1       609 8.60937E-05 4.72299E-06 0.00000E+00
 -1       610 8.61043E-05 5.83384E-06 0.00000E+00
 -1       611 8.61148E-05 7.03175E-06 0.00000E+00
 -1       612 8.61252E-05 8.30877E-06 0.00000E+00
 -1       613 8.61355E-05 9.65700E-06 0.00000E+00
 -1       614 8.61457E-05 1.10685E-05 0.00000E+00
 -1       615 8.61558E-05 1.25353E-05 0.00000E+00
 -1       616 8.61658E-05 1.40495E-05 0.00000E+00
 -1       617 8.61758E-05 1.56031E-05 0.00000E+00
 -1       618 8.61857E-05 1.71882E-05 0.00000E+00
 -1       619 8.61956E-05 1.87970E-05 0.00000E+00
 -1       620 8.62053E-05 2.04213E-05 0.00000E+00
 -1       621 8.54652E-05 1.39277E-06 0.00000E+00
 -1       622 8.49057E-05 1.47959E-06 0.00000E+00
 -1       623 8.43616E-05 1.56641E-06 0.00000E+00
 -1       624 8.38284E-05 1.65309E-06 8.27181E-25
 -1       625 8.33017E-05 1.73963E-06 0.00000E+00
 -1       626 8.58784E-05 2.01773E-06 0.00000E+00
 -1       627 8.56762E-05 2.82690E-06 0.00000E+00
 -1       628 8.54407E-05 3.72504E-06 0.00000E+00
 -1       629 8.51754E-05 4.70265E-06 0.00000E+00
 -1       630 8.48838E-05 5.75024E-06 3.30872E-24
 -1       631 8.45695E-05 6.85824E-06 0.00000E+00
 -1       632 8.42361E-05 8.01705E-06 0.00000E+00
 -1       633 8.38872E-05 9.21715E-06-1.65436E-24
 -1       634 8.35264E-05 1.04489E-05 0.00000E+00
 -1       635 8.31572E-05 1.17029E-05 1.65436E-24
 -1       636 8.27833E-05 1.29694E-05 0.00000E+00
 -1       637 8.24082E-05 1.42389E-05 0.00000E+00
 -1       638 8.20355E-05 1.55018E-05 1.65436E-24
 -1       639 8.16687E-05 1.67486E-05-8.27181E-25
 -1       640 8.13111E-05 1.79697E-05 1.65436E-24
 -1       656 8.48297E-05 2.15816E-05 0.00000E+00
 -1       657 8.38734E-05 2.10913E-05 0.00000E+00
 -1       658 8.31848E-05 2.06025E-05 0.00000E+00
 -1       659 8.25972E-05 2.01142E-05-6.61744E-24
 -1       660 8.19202E-05 1.96243E-05-6.61744E-24
 -1       661 8.57032E-05 2.36569E-05 0.00000E+00
 -1       662 8.52180E-05 2.52011E-05 8.27181E-25
 -1       663 8.47543E-05 2.66875E-05 0.00000E+00
 -1       664 8.43119E-05 2.81189E-05 0.00000E+00
 -1       665 8.38894E-05 2.94977E-05 3.30872E-24
 -1       666 8.34860E-05 3.08261E-05 1.65436E-24
 -1       667 8.31008E-05 3.21062E-05 3.30872E-24
 -1       668 8.27330E-05 3.33400E-05-1.65436E-24
 -1       669 8.23819E-05 3.45293E-05 3.30872E-24
 -1       670 8.20469E-05 3.56760E-05 0.00000E+00
 -1       671 8.17273E-05 3.67815E-05 0.00000E+00
 -1       672 8.14225E-05 3.78472E-05 8.27181E-25
 -1       673 8.11321E-05 3.88747E-05 0.00000E+00
 -1       674 8.08547E-05 3.98647E-05-8.27181E-25
 -1       675 8.05911E-05 4.08189E-05 0.00000E+00
 -1       676 8.47164E-05 4.22053E-05 0.00000E+00
 -1       677 8.38373E-05 4.21109E-05 0.00000E+00
 -1       678 8.29592E-05 4.20165E-05-3.30872E-24
 -1       679 8.20825E-05 4.19223E-05 1.65436E-24
 -1       680 8.12077E-05 4.18282E-05 0.00000E+00
 -1       771 1.95728E-05 2.05272E-06 0.00000E+00
 -1       772 1.63537E-05 6.99574E-06 2.64698E-23
 -1       773 1.35203E-05 1.09211E-05 5.29396E-23
 -1       774 1.10479E-05 1.38896E-05 0.00000E+00
 -1       775 8.91308E-06 1.59646E-05 0.00000E+00
 -1       776 7.09024E-06 1.72120E-05 2.64698E-23
 -1       777 5.55335E-06 1.76996E-05-5.29396E-23
 -1       778 4.27548E-06 1.74977E-05-2.64698E-23
 -1       779 3.22927E-06 1.66781E-05 0.00000E+00
 -1       780 2.38668E-06 1.53147E-05-2.64698E-23
 -1       781 1.71941E-06 1.34823E-05 0.00000E+00
 -1       782 1.19866E-06 1.12577E-05 0.00000E+00
 -1       783 7.95424E-07 8.71832E-06 0.00000E+00
 -1       784 4.80539E-07 5.94266E-06-1.32349E-23
 -1       785 2.24491E-07 3.00976E-06 0.00000E+00
 -1       786 8.15587E-05-2.11979E-06 0.00000E+00
 -1       787 8.16395E-05-1.90941E-06 0.00000E+00
 -1       788 8.17200E-05-1.70501E-06 0.00000E+00
 -1       789 8.18013E-05-1.50389E-06 8.27181E-25
 -1       790 8.18826E-05-1.30397E-06-3.30872E-24
 -1       791 8.19641E-05-1.10319E-06 0.00000E+00
 -1       792 8.20456E-05-8.99308E-07 0.00000E+00
 -1       793 8.21272E-05-6.90079E-07 0.00000E+00
 -1       794 8.22087E-05-4.72231E-07-3.30872E-24
 -1       795 8.22902E-05-2.42462E-07-1.65436E-24
 -1       796 8.23718E-05 4.80612E-09 0.00000E+00
 -1       797 8.24532E-05 2.75224E-07 0.00000E+00
 -1       798 8.25347E-05 5.78863E-07 0.00000E+00
 -1       799 8.26159E-05 9.25914E-07 0.00000E+00
 -1       800 8.26971E-05 1.33488E-06-1.65436E-24
 -1       801 7.59395E-05-1.85545E-06 6.61744E-24
 -1       802 6.00131E-05-1.45912E-06-3.30872E-24
 -1       803 3.90653E-05-1.14886E-06-6.61744E-24
 -1       804 1.83360E-05-8.42702E-07-1.65436E-24
 -1       805 3.40458E-06-4.38781E-07 0.00000E+00
 -1       806 8.13093E-05-2.17219E-06-1.65436E-24
 -1       807 8.11363E-05-2.01535E-06 0.00000E+00
 -1       808 8.09636E-05-1.86170E-06 0.00000E+00
 -1       809 8.07896E-05-1.70547E-06 1.65436E-24
 -1       810 8.06124E-05-1.54088E-06 0.00000E+00
 -1       811 8.04297E-05-1.36222E-06 0.00000E+00
 -1       812 8.02397E-05-1.16380E-06 3.30872E-24
 -1       813 8.00401E-05-9.39925E-07 0.00000E+00
 -1       814 7.98287E-05-6.84903E-07-1.65436E-24
 -1       815 7.96036E-05-3.93056E-07 0.00000E+00
 -1       816 7.93625E-05-5.87082E-08 0.00000E+00
 -1       817 7.91034E-05 3.23819E-07 8.27181E-25
 -1       818 7.88240E-05 7.60195E-07 1.65436E-24
 -1       819 7.85225E-05 1.25607E-06-8.27181E-25
 -1       820 7.81969E-05 1.81709E-06 1.65436E-24
 -1       821 8.26707E-05 2.26421E-06-8.27181E-25
 -1       822 8.25580E-05 2.52524E-06 8.27181E-25
 -1       823 8.24456E-05 2.71179E-06 0.00000E+00
 -1       824 8.23320E-05 2.92851E-06 0.00000E+00
 -1       825 8.22184E-05 3.27296E-06 3.30872E-24
 -1       826 8.21044E-05 3.84204E-06-1.65436E-24
 -1       827 8.19902E-05 4.68053E-06 0.00000E+00
 -1       828 8.18756E-05 5.83184E-06 0.00000E+00
 -1       829 8.17607E-05 7.26679E-06 0.00000E+00
 -1       830 8.16455E-05 8.95473E-06 0.00000E+00
 -1       831 8.15300E-05 1.08064E-05 3.30872E-24
 -1       832 8.14146E-05 1.27315E-05 0.00000E+00
 -1       833 8.12993E-05 1.46229E-05 0.00000E+00
 -1       834 8.11856E-05 1.63735E-05 8.27181E-25
 -1       835 8.10717E-05 1.79088E-05 0.00000E+00
 -1       836 8.21266E-05 1.92846E-06 0.00000E+00
 -1       837 8.13339E-05 2.03468E-06 0.00000E+00
 -1       838 8.04541E-05 2.14068E-06 0.00000E+00
 -1       839 7.95426E-05 2.24599E-06 8.27181E-25
 -1       840 7.86550E-05 2.35115E-06-4.13590E-25
 -1       856 8.09299E-05 2.03244E-05 2.06795E-25
 -1       857 8.08910E-05 2.16191E-05 2.06795E-25
 -1       858 8.08522E-05 2.30197E-05 0.00000E+00
 -1       859 8.08126E-05 2.45062E-05-4.13590E-25
 -1       860 8.07729E-05 2.60588E-05-8.27181E-25
 -1       861 8.07330E-05 2.76573E-05 4.13590E-25
 -1       862 8.06930E-05 2.92815E-05 0.00000E+00
 -1       863 8.06530E-05 3.09113E-05 0.00000E+00
 -1       864 8.06130E-05 3.25264E-05 8.27181E-25
 -1       865 8.05731E-05 3.41067E-05 8.27181E-25
 -1       866 8.05332E-05 3.56320E-05 0.00000E+00
 -1       867 8.04934E-05 3.70822E-05 8.27181E-25
 -1       868 8.04537E-05 3.84375E-05-1.65436E-24
 -1       869 8.04142E-05 3.96780E-05 0.00000E+00
 -1       870 8.03748E-05 4.07841E-05 1.65436E-24
 -1       871 8.00281E-05 1.91543E-05-8.27181E-25
 -1       872 7.92095E-05 1.91508E-05 0.00000E+00
 -1       873 7.84587E-05 1.91469E-05 0.00000E+00
 -1       874 7.77244E-05 1.91424E-05 0.00000E+00
 -1       875 7.69555E-05 1.91374E-05 0.00000E+00
 -1       876 8.06347E-05 2.03345E-05 0.00000E+00
 -1       877 8.02840E-05 2.15749E-05 0.00000E+00
 -1       878 7.99133E-05 2.28690E-05 3.30872E-24
 -1       879 7.95253E-05 2.42100E-05 1.65436E-24
 -1       880 7.91222E-05 2.55909E-05 0.00000E+00
 -1       881 7.87068E-05 2.70048E-05 1.65436E-24
 -1       882 7.82816E-05 2.84448E-05 0.00000E+00
 -1       883 7.78492E-05 2.99040E-05 0.00000E+00
 -1       884 7.74121E-05 3.13755E-05 3.30872E-24
 -1       885 7.69730E-05 3.28524E-05 1.65436E-24
 -1       886 7.65343E-05 3.43278E-05-3.30872E-24
 -1       887 7.60988E-05 3.57949E-05 1.65436E-24
 -1       888 7.56688E-05 3.72467E-05 0.00000E+00
 -1       889 7.52465E-05 3.86763E-05 8.27181E-25
 -1       890 7.48347E-05 4.00766E-05-8.27181E-25
 -1       891 7.94883E-05 4.16866E-05 0.00000E+00
 -1       892 7.86199E-05 4.16368E-05 4.13590E-25
 -1       893 7.77050E-05 4.15870E-05-1.65436E-24
 -1       894 7.67185E-05 4.15373E-05-6.20385E-25
 -1       895 7.56354E-05 4.14876E-05-4.13590E-25
 -1       956 7.77393E-05 3.22468E-06-1.65436E-24
 -1       957 7.76306E-05 4.07141E-06 0.00000E+00
 -1       958 7.75216E-05 4.98181E-06-1.65436E-24
 -1       959 7.74123E-05 5.94825E-06 1.65436E-24
 -1       960 7.73029E-05 6.96314E-06 0.00000E+00
 -1       961 7.71934E-05 8.01880E-06 0.00000E+00
 -1       962 7.70839E-05 9.10755E-06 0.00000E+00
 -1       963 7.69744E-05 1.02217E-05-1.65436E-24
 -1       964 7.68648E-05 1.13537E-05 3.30872E-24
 -1       965 7.67552E-05 1.24956E-05 0.00000E+00
 -1       966 7.66456E-05 1.36400E-05 0.00000E+00
 -1       967 7.65361E-05 1.47791E-05 0.00000E+00
 -1       968 7.64267E-05 1.59051E-05 0.00000E+00
 -1       969 7.63174E-05 1.70106E-05 0.00000E+00
 -1       970 7.62085E-05 1.80877E-05 0.00000E+00
 -1       971 7.59983E-05 2.01961E-05 0.00000E+00
 -1       972 7.58940E-05 2.13566E-05-1.65436E-24
 -1       973 7.57895E-05 2.26003E-05-1.65436E-24
 -1       974 7.56847E-05 2.39164E-05-1.65436E-24
 -1       975 7.55798E-05 2.52943E-05 3.30872E-24
 -1       976 7.54747E-05 2.67231E-05-1.65436E-24
 -1       977 7.53697E-05 2.81921E-05 3.30872E-24
 -1       978 7.52645E-05 2.96905E-05-1.65436E-24
 -1       979 7.51594E-05 3.12074E-05 3.30872E-24
 -1       980 7.50542E-05 3.27321E-05-1.65436E-24
 -1       981 7.49491E-05 3.42538E-05 0.00000E+00
 -1       982 7.48441E-05 3.57616E-05 1.65436E-24
 -1       983 7.47393E-05 3.72449E-05 0.00000E+00
 -1       984 7.46350E-05 3.86927E-05-1.65436E-24
 -1       985 7.45311E-05 4.00943E-05 0.00000E+00
 -3
    1PSTEP                        18           9           1          
  100CL  109 6.03516E-01         409                     0    9           1
 -4  STRESS      6    1
 -5  SXX         1    4    1    1
 -5  SYY         1    4    2    2
 -5  SZZ         1    4    3    3
 -5  SXY         1    4    1    2
 -5  SYZ         1    4    2    3
 -5  SZX         1    4    3    1
 -1         1-1.74418E+06-8.60877E+05-3.47901E+05-1.32119E+06 3.23780E-10 3.41970E-08
 -1         2 2.45145E+03 3.29571E+05 8.39914E+03 1.86835E+03-2.24446E-10 9.31760E-08
 -1         3-7.01885E+01-5.63573E+05 1.46289E+02-1.84520E+02-7.96128E-11-2.00062E-08
 -1         5-1.82887E+01 3.12566E+05 8.23326E+00 4.17577E-01 1.08996E-10-1.64655E-08
 -1         8-7.87303E+05-4.14095E+05 3.32087E+04-8.37172E+05-5.45697E-11-2.98969E-08
 -1         9 1.99807E+06 1.90753E+06 6.96034E+05 1.85218E+06-8.67876E-09 5.74160E-08
 -1        10-4.22624E+02-5.87074E+05-2.94162E+02-1.24008E+03-3.08364E-09 1.21728E-08
 -1        12-1.49366E+01 3.12583E+05 2.67693E+02 3.10408E+00 2.40732E-10-3.30328E-09
 -1        15 2.86441E+03 1.57420E+03 9.25927E+03 8.44059E+00-1.46116E-10 1.94407E-08
 -1        16 1.69345E+06 2.60719E+06 7.46514E+05 2.89130E+06 1.51534E-08-4.11140E-08
 -1        17 4.01408E+06-1.80702E+05 6.29603E+05-5.04095E+05-2.80634E-09-1.55123E-08
 -1        18 1.59814E+05 3.34009E+04 1.56198E+04-7.00218E+04 1.26965E-09 4.74301E-09
 -1        19 9.71782E+04 1.17225E+05-4.55362E+02 1.90867E+04-1.06229E-09 2.08165E-09
 -1        20-3.72103E+04-4.59026E+05-1.01041E+05 3.53646E+04 4.29842E-09 1.89417E-09
 -1        21-4.37934E+01-2.69471E+05-8.74010E+02-1.62565E+02-1.72804E-08-4.13049E-09
 -1        24 5.46870E+06-6.09305E+05 9.03483E+05-1.30587E+06 3.66538E-08 6.03419E-09
 -1        25 1.09436E+05 3.10384E+05 9.74424E+04-1.32924E+05 6.39557E-10 1.53523E-10
 -1        26-1.85046E+04 8.13752E+04-1.49719E+04-1.35616E+04 1.88265E-09-4.58726E-09
 -1        27-7.51406E+04-2.52361E+05-9.48934E+04 5.68957E+04 6.85698E-09-8.60079E-10
 -1        28 2.09671E+04-7.40028E+04 1.52088E+04 2.44856E+04 3.57886E-10-3.36858E-09
 -1        32-8.21439E+05 6.42460E+05 6.08635E+05-6.78968E+05-1.52650E-08 2.48148E-08
 -1        33-1.43069E+05 7.49041E+04 2.64578E+04-4.57444E+04 1.91085E-09 4.79152E-09
 -1        34-1.87749E+05-1.85015E+04 4.13879E+02 5.70522E+04 4.26658E-09 6.75330E-09
 -1        35-2.12861E+04-2.93922E+04-1.15468E+03 4.69500E+04 7.45746E-09-6.15667E-09
 -1        51 1.00791E+04-5.42093E+05 3.35840E+04-1.31870E+06-4.07454E-10 1.35915E-08
 -1        52 1.17069E+04-5.47360E+05 2.58956E+04-1.53821E+06 7.27596E-10-4.55329E-08
 -1        53 1.19129E+04-5.67423E+05 2.58011E+04-1.31405E+06 1.49885E-09 1.01863E-08
 -1        54 3.25654E+04-5.69087E+05 4.64765E+04-1.54291E+06 5.23869E-10-1.14087E-08
 -1        55 5.90434E+04-5.88153E+05 8.55809E+04-1.31315E+06 1.54250E-09 6.53017E-08
 -1        56-3.37149E+06-3.80250E+05-2.53018E+05-1.29245E+06-1.00408E-09 8.09378E-08
 -1        57-3.44274E+06-6.37846E+05-1.70296E+05-1.31610E+06 3.93948E-09-9.92441E-09
 -1        58-3.42622E+06-4.55926E+05-5.95221E+04-1.27157E+06 3.47154E-09-2.13768E-08
 -1        59-3.37910E+06-5.49532E+05-3.54886E+04-1.34205E+06 1.06185E-08-1.00721E-07
 -1        60-3.43497E+06-4.65589E+05-1.38907E+04-1.26772E+06 4.52928E-10-3.22143E-09
 -1        61-3.37161E+06-5.35260E+05-7.89844E+03-1.34308E+06-1.05999E-08-9.51079E-08
 -1        62-3.43353E+06-4.69889E+05-3.93949E+03-1.27060E+06-2.74758E-09-4.04607E-08
 -1        63-3.37866E+06-5.24601E+05-3.15046E+03-1.33226E+06 1.55142E-08 1.56285E-08
 -1        64-3.42736E+06-4.76560E+05-4.13938E+03-1.27816E+06-6.19002E-09-2.96282E-08
 -1        65-3.39423E+06-5.10659E+05-7.73166E+03-1.31347E+06 4.68935E-09 4.11401E-08
 -1        66-3.41737E+06-4.84273E+05-1.44711E+04-1.28893E+06 1.60871E-08 6.67023E-08
 -1        67-3.42153E+06-5.04916E+05-3.56922E+04-1.28907E+06-5.64614E-09-2.33240E-08
 -1        68-3.39993E+06-4.82815E+05-6.07681E+04-1.30228E+06 1.36540E-08-7.02639E-08
 -1        69-3.49965E+06-5.82556E+05-1.72836E+05-1.25021E+06-1.76551E-08-6.95363E-08
 -1        70-3.34019E+06-4.09141E+05-2.57035E+05-1.32708E+06-1.17361E-08 8.72387E-08
 -1        86-1.26003E+03 3.24982E+05 8.58230E+03-9.34298E+02 2.23417E-09 2.27348E-08
 -1        87 8.24677E+03 3.32651E+05 1.84984E+04 3.88009E+03 3.77077E-09 2.17672E-08
 -1        88-7.05378E+03 3.21924E+05 2.76711E+04-2.94651E+03 5.73709E-09-2.54284E-08
 -1        89 5.24587E+04 3.54142E+05 7.56093E+04 8.50473E+03 8.74479E-09-7.64778E-08
 -1        90-4.53807E+04 3.03580E+05 1.05795E+05-5.55917E+03 1.02373E-08-5.91851E-08
 -1       121-1.10093E+02-5.63886E+05 1.21532E+02 9.21438E+01 3.19460E-10-7.61065E-09
 -1       122-2.64872E+01-5.63544E+05 3.16100E+02-3.69146E+02-1.35058E-09-1.28784E-09
 -1       123-1.40951E+02-5.63918E+05 4.97148E+02 2.76310E+02 1.04870E-09-1.61344E-09
 -1       124 5.02878E+02-5.63222E+05 1.30775E+03-8.50977E+02-2.27351E-09 1.05501E-09
 -1       125-4.83817E+02-5.64220E+05 2.03041E+03 5.73678E+02 1.47838E-09 3.74348E-09
 -1       191-1.94673E+01 3.12590E+05 9.21687E+00-2.12371E-01 2.44077E-10 2.10184E-09
 -1       192-1.90528E+01 3.12566E+05 1.74625E+01 1.64098E+00 3.89739E-10 1.90266E-09
 -1       193-2.14947E+01 3.12589E+05 3.18682E+01-1.45135E+00 4.68042E-10 4.63024E-09
 -1       194-2.15095E+01 3.12569E+05 6.61242E+01 3.84421E+00 3.23168E-10 1.49389E-08
 -1       195-2.53896E+01 3.12587E+05 1.28732E+02-2.44510E+00 7.07871E-10 6.05996E-09
 -1       251 1.63872E+06-1.16171E+05 2.70990E+05 2.15954E+04-1.25692E-09 8.65839E-08
 -1       252 1.76519E+06 1.34292E+05 1.92672E+05-4.49030E+04 3.66344E-09 4.59622E-08
 -1       253 1.68751E+06-1.78860E+04 7.03211E+04 6.02915E+03-3.32261E-09-3.05990E-08
 -1       254 1.70811E+06 2.06970E+04 4.42505E+04-2.30520E+04 6.16132E-09-6.00194E-08
 -1       255 1.69550E+06-2.74374E+03 1.81600E+04-2.53469E+02-1.70189E-10-4.17695E-08
 -1       256 1.69879E+06 3.26090E+03 1.08801E+04-1.46044E+04 1.26445E-09 2.13273E-08
 -1       257 1.69680E+06-4.60720E+02 5.47856E+03-2.41859E+03 2.82446E-09-3.10290E-08
 -1       258 1.69747E+06 9.15231E+02 4.56305E+03-1.27573E+04-5.83589E-09-2.58694E-08
 -1       259 1.69682E+06-3.98641E+02 4.92314E+03-2.10057E+03 9.52028E-10-2.27545E-08
 -1       260 1.69860E+06 2.72310E+03 9.29496E+03-1.61143E+04 1.14915E-09-5.53488E-08
 -1       261 1.69567E+06-2.27528E+03 1.52640E+04 9.38495E+02 9.24615E-10 4.50973E-08
 -1       262 1.70696E+06 1.72101E+04 3.71659E+04-2.71970E+04-3.55823E-09 2.94635E-08
 -1       263 1.68855E+06-1.49106E+04 5.87481E+04 8.98218E+03 2.88821E-09 2.34249E-08
 -1       264 1.75809E+06 1.12338E+05 1.61958E+05-5.48045E+04-6.04604E-09 1.13003E-07
 -1       265 1.64506E+06-9.74432E+04 2.25968E+05 2.85457E+04 2.45655E-09 4.98258E-08
 -1       266-5.18518E+04-2.42370E+04 1.21702E+05-1.80657E+02 1.30967E-10 2.33401E-08
 -1       267 6.01143E+04 2.82627E+04 8.59956E+04 2.08375E+02 6.91216E-11 5.85318E-08
 -1       268-8.06105E+03-4.00203E+03 3.19654E+04-2.65543E+01 6.18456E-11 5.98357E-08
 -1       269 9.51795E+03 4.79043E+03 2.07758E+04 3.09277E+01-2.10093E-10-1.91958E-08
 -1       270-1.42865E+03-7.87068E+02 1.00288E+04-4.19728E+00-8.13998E-11 5.46919E-08
 -1       271-5.23812E+06-6.61435E+05-4.08504E+05-2.05198E+06 1.63345E-09 1.38825E-08
 -1       272-5.34221E+06-9.97552E+05-2.62063E+05-2.09177E+06 1.05338E-08-2.94676E-08
 -1       273-5.32188E+06-7.55612E+05-9.65843E+04-2.02591E+06-6.96127E-09 1.65164E-08
 -1       274-5.24340E+06-8.83709E+05-5.37417E+04-2.13420E+06-4.43833E-09-3.75612E-08
 -1       275-5.33790E+06-7.60203E+05-2.24565E+04-2.01673E+06 3.98359E-09-2.80706E-08
 -1       276-5.22543E+06-8.78037E+05-1.19087E+04-2.14887E+06-1.48357E-08 8.22483E-08
 -1       277-5.34196E+06-7.58410E+05-5.93507E+03-2.01341E+06 9.74524E-10 5.15217E-08
 -1       278-5.22318E+06-8.77785E+05-4.57742E+03-2.15083E+06-4.81305E-09 2.23718E-08
 -1       279-5.34048E+06-7.60109E+05-5.41404E+03-2.01507E+06 4.63297E-09 2.18533E-08
 -1       280-5.22958E+06-8.72225E+05-1.00720E+04-2.14138E+06 4.67116E-09 1.05116E-07
 -1       281-5.33371E+06-7.65247E+05-1.92017E+04-2.02151E+06-3.41606E-09 2.27556E-09
 -1       282-5.25035E+06-8.70362E+05-4.49890E+04-2.12058E+06 6.88033E-09 3.57868E-08
 -1       283-5.31670E+06-7.65166E+05-8.14771E+04-2.03313E+06-4.39286E-09 3.17850E-08
 -1       284-5.33996E+06-9.58805E+05-2.19746E+05-2.07689E+06-4.42014E-10-3.19924E-08
 -1       285-5.24294E+06-6.89676E+05-3.43322E+05-2.05883E+06 2.83762E-10 7.98900E-08
 -1       301 5.88873E+03 2.00083E+05 1.15279E+05 4.89714E+05-1.73895E-09-2.13149E-08
 -1       302 5.15887E+03 2.31636E+05 8.53284E+04 7.16882E+05 2.21189E-09-9.11523E-08
 -1       303-6.68753E+03 2.08358E+05 8.08859E+04 4.88430E+05-1.78989E-09-5.94446E-09
 -1       304 2.09716E+04 2.48004E+05 1.38664E+05 7.16577E+05 1.04228E-09-7.63685E-08
 -1       305 2.21280E+04 1.86613E+05 2.33179E+05 4.90354E+05-8.44011E-10-6.09725E-09
 -1       306-1.21875E+07-6.44245E+06-3.73518E+06-6.22676E+06 4.24916E-08-8.57253E-08
 -1       307-1.90698E+06 9.74238E+06 2.11736E+06 5.50266E+06 5.30476E-07-1.21319E-07
 -1       308-3.02485E+06-5.56894E+06-5.42578E+05-4.51753E+06-5.20668E-08-8.02247E-08
 -1       309-1.35408E+07 9.88198E+06 5.94675E+05-6.36012E+05-2.83904E-07 2.09235E-07
 -1       310-2.65854E+06-5.40184E+06-2.78640E+05-4.39267E+06-8.03266E-08 7.32834E-08
 -1       311-3.16299E+06 9.53619E+06 2.19567E+06 5.16033E+06-4.08101E-07 1.21465E-07
 -1       312-1.15319E+07-6.24815E+06-2.81922E+06-6.33704E+06-2.32831E-10-1.33528E-07
 -1       313 1.44117E+07 3.04768E+06 3.92964E+06 5.81832E+06 1.34576E-07-1.12632E-07
 -1       314-1.55800E+07-2.61614E+06-2.93049E+06-2.55774E+06-2.40863E-07 1.30967E-10
 -1       315 8.94130E+06-1.53734E+06 2.35461E+06-6.03250E+06 2.04498E-07 9.67411E-08
 -1       316-8.74204E+06 1.56073E+05-4.17913E+05 1.56134E+06 2.82860E-07 3.76604E-07
 -1       317-3.25056E+06-4.06479E+05 5.92088E+05-1.16393E+07-4.84402E-07 1.87567E-07
 -1       318-8.29843E+06 2.28692E+05-4.10917E+05 1.67569E+06 3.36673E-07 5.13901E-08
 -1       319 7.96545E+06-1.18028E+06 1.94156E+06-6.82402E+06 1.07393E-07 4.95929E-08
 -1       320-1.55167E+07-2.67590E+06-3.64542E+06-2.10159E+06-7.56118E-08 3.02680E-09
 -1       336 3.56400E+02-6.10475E+05-2.38177E+03 6.64623E+02-6.29666E-09-5.89353E-10
 -1       337-8.00424E+02-6.10910E+05-1.57503E+03-1.73547E+03-1.13555E-08-1.60303E-08
 -1       338-5.83557E+01-6.10799E+05-9.27289E+02 1.06685E+03-8.08255E-09-3.89264E-10
 -1       339-4.55637E+02-6.10752E+05-1.00694E+03-2.52500E+03-1.50801E-08-4.36103E-10
 -1       340 1.16046E+02-6.10679E+05-1.30459E+03 1.45339E+03-1.00381E-08 6.98856E-09
 -1       406 4.90399E+00 3.12575E+05 5.27848E+02-7.36754E-01 9.56220E-10 6.93035E-10
 -1       407 1.69407E+02 3.12676E+05 1.12322E+03-1.31041E+01 2.43091E-10 8.87667E-10
 -1       408 5.62839E+02 3.12494E+05 2.24247E+03 1.41543E+01 1.15574E-09 1.22200E-08
 -1       409 2.41179E+03 3.13392E+05 5.04971E+03-1.42313E+02 9.09495E-11 2.38556E-08
 -1       410 6.95616E+03 3.11854E+05 1.03082E+04 1.35003E+02 1.26965E-09 1.08294E-08
 -1       521-1.29735E+07-6.95379E+06-3.94352E+06-6.46546E+06 3.63216E-08-2.00918E-07
 -1       522-4.00231E+06 1.03826E+07 2.00059E+06 5.25233E+06 3.49508E-07 1.76806E-08
 -1       523-3.81308E+06-6.17525E+06-5.39925E+05-5.15834E+06 2.41271E-08 1.86221E-07
 -1       524-1.61055E+07 1.08554E+07 6.02365E+05-1.38730E+06-3.55114E-07 4.79318E-07
 -1       525-3.48044E+06-6.03437E+06-2.71237E+05-5.06471E+06-2.07772E-07 3.30911E-07
 -1       526-5.20662E+06 1.02337E+07 2.13887E+06 4.91349E+06-3.59796E-07 8.40519E-08
 -1       527-1.23657E+07-6.77604E+06-2.96484E+06-6.58539E+06-2.23052E-07 1.07102E-08
 -1       528 1.35304E+07 2.73683E+06 3.78076E+06 5.54483E+06-4.35393E-08-8.95234E-08
 -1       529-1.64863E+07-3.03432E+06-3.07281E+06-2.66245E+06 6.09434E-08 3.92902E-10
 -1       530 7.87354E+06-1.90668E+06 2.27498E+06-7.40083E+06 2.98518E-07-1.26107E-07
 -1       531-1.00751E+07 1.02957E+05-3.98806E+05 1.51404E+06 4.27681E-07 1.02504E-07
 -1       532-4.90805E+06-3.37796E+05 6.04943E+05-1.33557E+07-4.16688E-07 2.82125E-07
 -1       533-9.71416E+06 1.79203E+05-4.08480E+05 1.62166E+06-2.69181E-07 4.71962E-07
 -1       534 6.97398E+06-1.52246E+06 1.87553E+06-8.15434E+06 2.23081E-07-3.12590E-07
 -1       535-1.64567E+07-3.09875E+06-3.81872E+06-2.25708E+06 8.78936E-09-2.16067E-07
 -1       536 4.48239E+05-4.09661E+04 9.40472E+04 4.70007E+03-5.14649E-09 5.15865E-09
 -1       537 4.93255E+05 4.73675E+04 6.72519E+04-7.91720E+03-5.68662E-09-2.60115E-10
 -1       538 4.65623E+05-6.33711E+03 2.44013E+04 1.55954E+03 2.40576E-10 3.08228E-09
 -1       539 4.73032E+05 7.39858E+03 1.54307E+04-3.54486E+03 1.89516E-10 1.32468E-09
 -1       540 4.68467E+05-9.64739E+02 6.25710E+03 3.27080E+02 1.41114E-10 3.79555E-09
 -1       541 4.69664E+05 1.15162E+03 3.68965E+03-1.82344E+03-2.43395E-10-6.31786E-09
 -1       542 4.68919E+05-1.58078E+02 1.69980E+03-1.60890E+02-4.40021E-11-6.23987E-09
 -1       543 4.69130E+05 2.35103E+02 1.15284E+03-1.17685E+03-3.08917E-11-2.70295E-09
 -1       544 4.68982E+05-6.69570E+01 9.16694E+02-3.19298E+02 2.63760E-10-3.20028E-10
 -1       545 4.69224E+05 4.26353E+02 1.41384E+03-1.05412E+03-1.52885E-10 5.15591E-09
 -1       546 4.68864E+05-3.10413E+02 2.16957E+03-2.83223E+02 5.88570E-10 6.16171E-09
 -1       547 4.70243E+05 2.48425E+03 5.14949E+03-1.35294E+03-6.54441E-10 1.79000E-09
 -1       548 4.67983E+05-2.10227E+03 8.12520E+03-2.01453E+01 8.98055E-11 3.43971E-09
 -1       549 4.76418E+05 1.56727E+04 2.21749E+04-2.33383E+03-8.80386E-10 7.38532E-09
 -1       550 4.62645E+05-1.35317E+04 3.12706E+04 6.97091E+02 2.13291E-10-6.89397E-10
 -1       551 1.16530E+04-5.29195E+05 1.09809E+04-1.12365E+06-3.04572E-08-1.16415E-09
 -1       552 3.23566E+04-5.43456E+05 2.50713E+04-1.60037E+06-2.47674E-08 1.13214E-08
 -1       553 2.36558E+04-5.46985E+05 4.44699E+04-1.12030E+06-3.92902E-08 9.53878E-09
 -1       554 5.75860E+04-5.29809E+05 9.81145E+04-1.60089E+06-2.42435E-08 2.14641E-09
 -1       555 4.65701E+04-5.58060E+05 1.75118E+05-1.12262E+06-3.53612E-08-7.21047E-09
 -1       556 3.99919E+04-1.30488E+05 4.59270E+04-1.75294E+05-5.50062E-09 8.80391E-10
 -1       557 9.41958E+04-1.74748E+05 2.42125E+04-2.19528E+05 3.47063E-09 1.42472E-08
 -1       558 4.01958E+04-1.36268E+05 9.81088E+03-1.70225E+05 1.17143E-09 1.27347E-08
 -1       559 8.68137E+04-1.81014E+05 4.98035E+03-2.22570E+05 4.89308E-09 8.52651E-09
 -1       560 3.87375E+04-1.35268E+05 2.08330E+03-1.71146E+05 2.75031E-09 1.13896E-08
 -1       561 8.44736E+04-1.80452E+05 1.10280E+03-2.24035E+05-7.05040E-09-5.62113E-09
 -1       562 3.75806E+04-1.34478E+05 4.36878E+02-1.71980E+05 1.31695E-09 8.55289E-09
 -1       563 8.31279E+04-1.79882E+05 2.63588E+02-2.24896E+05 3.38878E-09 8.87826E-09
 -1       564 3.69102E+04-1.34037E+05 9.36029E+01-1.72457E+05-2.55022E-09-5.93172E-09
 -1       565 8.25179E+04-1.79624E+05 3.16595E+01-2.25279E+05-2.95495E-09-1.58525E-09
 -1       566 3.67555E+04-1.33928E+05-8.41851E+01-1.72573E+05 3.80373E-09 4.43288E-09
 -1       567 8.25878E+04-1.79658E+05-2.54275E+02-2.25160E+05 8.26276E-10 4.52565E-09
 -1       568 3.71598E+04-1.34190E+05-6.30426E+02-1.72357E+05 1.35697E-09 4.93492E-09
 -1       569 8.25033E+04-1.79752E+05-1.44946E+03-2.23917E+05-4.69845E-09-5.16957E-09
 -1       570 3.87718E+04-1.35747E+05-2.97458E+03-1.72141E+05-2.78305E-09-1.60071E-10
 -1       571 2.23751E+05 7.90343E+03 1.17529E+04-5.50422E+04 1.99179E-10 1.48248E-09
 -1       572 2.25498E+05 2.73064E+03 5.75852E+03-6.03236E+04-1.56433E-10-1.22952E-08
 -1       573 2.24444E+05 6.33644E+02 2.55809E+03-5.48906E+04 5.72072E-10 2.83626E-09
 -1       574 2.24650E+05 1.90488E+02 1.28182E+03-6.04900E+04-1.70598E-09-2.30102E-10
 -1       575 2.24516E+05 9.48490E+00 6.03985E+02-5.48709E+04-2.80352E-09 3.75985E-09
 -1       576 2.24530E+05-1.22299E+01 3.07308E+02-6.05122E+04-6.55461E-10-9.03083E-09
 -1       577 2.24525E+05-2.24982E+01 1.50902E+02-5.48682E+04 1.53864E-09 2.89037E-09
 -1       578 2.24518E+05-2.19447E+01 8.13588E+01-6.05149E+04 6.50402E-10-2.69893E-09
 -1       579 2.24539E+05-2.50649E+01 4.78733E+01-5.48682E+04 9.88621E-10-6.45286E-09
 -1       580 2.24537E+05-3.01438E+01 4.16691E+01-6.05118E+04 4.40195E-10 7.05813E-09
 -1       581 2.24566E+05-3.61658E+01 5.27584E+01-5.48713E+04 7.67704E-09-1.07502E-09
 -1       582 2.24583E+05-3.45558E+01 9.82069E+01-6.04802E+04 1.82104E-08-2.20598E-09
 -1       583 2.24601E+05-1.39946E+01 1.85802E+02-5.48997E+04 9.55515E-09-2.65413E-09
 -1       584 2.24697E+05 1.24014E+02 4.16566E+02-6.02416E+04-1.52158E-09-6.02699E-09
 -1       585 2.24600E+05 4.88681E+02 8.43700E+02-5.51104E+04 8.67658E-10-1.92449E-09
 -1       586-2.88196E+03 7.22458E+04-4.03024E+03-1.81708E+05 1.12937E-09 5.24346E-09
 -1       587-5.70033E+02 7.16715E+04-6.96381E+02-1.99923E+05 1.82627E-09 1.41750E-08
 -1       588 7.93802E+02 7.18275E+04 2.25722E+03-1.81583E+05 1.26420E-09 1.62531E-08
 -1       589 3.67669E+03 7.31274E+04 6.91650E+03-1.99783E+05 1.96269E-09 1.05524E-08
 -1       590 1.03361E+04 7.10006E+04 1.49244E+04-1.81845E+05 9.11314E-10 6.52290E-09
 -1       591-4.93861E+04-1.45799E+04-1.65862E+04-2.61643E+04-4.89433E-09-2.58115E-09
 -1       592-5.07769E+04-1.88149E+04-8.98366E+03-3.06731E+04-1.27244E-08-3.86501E-09
 -1       593-5.10666E+04-1.33549E+04-3.74010E+03-2.73605E+04-4.34738E-10-5.48835E-09
 -1       594-4.84642E+04-1.64066E+04-1.86526E+03-3.07926E+04 6.23777E-09-1.42729E-08
 -1       595-5.11960E+04-1.33486E+04-8.57250E+02-2.74158E+04 2.46746E-09-1.53169E-09
 -1       596-4.83084E+04-1.62961E+04-4.36951E+02-3.07772E+04 1.01392E-09-3.13418E-09
 -1       597-5.12126E+04-1.33590E+04-2.40589E+02-2.74181E+04-4.30461E-10-5.99590E-09
 -1       598-4.82935E+04-1.62919E+04-1.98272E+02-3.07727E+04 1.12689E-09 3.67868E-09
 -1       599-5.12111E+04-1.33592E+04-2.59423E+02-2.74176E+04-1.08071E-09-8.55619E-09
 -1       600-4.83096E+04-1.62977E+04-4.86798E+02-3.07762E+04-1.87447E-09-9.31686E-09
 -1       601-5.11898E+04-1.33483E+04-9.63043E+02-2.74138E+04-7.32143E-10-6.82417E-09
 -1       602-4.84843E+04-1.64222E+04-2.10001E+03-3.07910E+04 1.24317E-09 3.87922E-09
 -1       603-5.10421E+04-1.33577E+04-4.21238E+03-2.73516E+04 2.97632E-10 9.48512E-09
 -1       604-5.10959E+04-1.91263E+04-1.01182E+04-3.06447E+04 1.15631E-09 2.87037E-09
 -1       605-4.91390E+04-1.47446E+04-1.86805E+04-2.60121E+04 1.24373E-09 1.32422E-09
 -1       606 3.35935E+04-1.07995E+04-1.94536E+04 3.28508E+04-3.37059E-09-2.28374E-09
 -1       607 3.02595E+04-3.47620E+03-9.68609E+03 3.68741E+04 1.45519E-11 1.47429E-09
 -1       608 3.21390E+04-5.80024E+02-4.33906E+03 3.25872E+04 2.00998E-09 6.45582E-09
 -1       609 3.17558E+04-1.35693E+02-2.19101E+03 3.71622E+04-3.18687E-09 5.65706E-09
 -1       610 3.19508E+04 4.44021E+01-1.04769E+03 3.25578E+04-7.18501E-09 1.18916E-09
 -1       611 3.18716E+04 6.78422E+01-5.28189E+02 3.71936E+04-1.39662E-08 2.78214E-09
 -1       612 3.18925E+04 6.89496E+01-2.53640E+02 3.25549E+04-7.81438E-09-5.57134E-09
 -1       613 3.18570E+04 8.40734E+01-1.15823E+02 3.71972E+04-8.35871E-09-1.11618E-09
 -1       614 3.18576E+04 7.56565E+01-3.37022E+01 3.25539E+04 3.14412E-09-3.93129E-09
 -1       615 3.18343E+04 9.54450E+01 3.36533E+01 3.71977E+04 1.01754E-08 3.06864E-09
 -1       616 3.18313E+04 8.64562E+01 1.14459E+02 3.25542E+04 3.55431E-09 6.05269E-10
 -1       617 3.18342E+04 1.28286E+02 2.66984E+02 3.71970E+04 1.82108E-08-7.77436E-09
 -1       618 3.17978E+04 1.69909E+02 5.39973E+02 3.25543E+04 1.06857E-08-2.10321E-09
 -1       619 3.20165E+04 5.51106E+02 1.21401E+03 3.71960E+04-2.09184E-10-7.10770E-10
 -1       620 3.16132E+04 1.45514E+03 2.44034E+03 3.25523E+04 2.37833E-09 4.79758E-10
 -1       621 4.35577E+02 2.49046E+05 3.72179E+03 5.24269E+03-4.34170E-10-3.68141E-09
 -1       622 4.90437E+02 2.49971E+05 3.07336E+03 7.70044E+03-3.02293E-10-1.44663E-08
 -1       623 1.77203E+01 2.49325E+05 3.42251E+03 5.21866E+03-3.99780E-10 5.93923E-09
 -1       624 1.51545E+03 2.50913E+05 6.40151E+03 7.72251E+03-4.72028E-10 2.00444E-08
 -1       625 1.52115E+03 2.48101E+05 1.10827E+04 5.22161E+03-5.23414E-10 9.87512E-10
 -1       626 2.00679E+05 5.66641E+04 3.86885E+03 1.09999E+05-1.67802E-09-9.04038E-10
 -1       627 1.97789E+05 5.88548E+04 1.86483E+03 1.14500E+05-6.76209E-09-1.25349E-08
 -1       628 2.00826E+05 5.48231E+04 7.86806E+02 1.10561E+05-8.52560E-09-3.10411E-09
 -1       629 1.97202E+05 5.84341E+04 3.86246E+02 1.14762E+05 2.68119E-09 4.88342E-09
 -1       630 2.00827E+05 5.47406E+04 1.78231E+02 1.10569E+05 2.09729E-09-8.16192E-09
 -1       631 1.97123E+05 5.84295E+04 9.64433E+01 1.14759E+05-2.78305E-09 3.41639E-09
 -1       632 2.00810E+05 5.47516E+04 6.41285E+01 1.10556E+05 2.30557E-09-8.22160E-09
 -1       633 1.97102E+05 5.84382E+04 7.28775E+01 1.14747E+05 1.75005E-08 1.25510E-09
 -1       634 2.00793E+05 5.47549E+04 1.18688E+02 1.10548E+05 2.48942E-08 2.03613E-08
 -1       635 1.97103E+05 5.84417E+04 2.41395E+02 1.14743E+05 8.25048E-09 8.27640E-10
 -1       636 2.00778E+05 5.47554E+04 4.87649E+02 1.10543E+05-2.24077E-09-4.69436E-09
 -1       637 1.97201E+05 5.85199E+04 1.07180E+03 1.14737E+05 4.03587E-09 6.06815E-09
 -1       638 2.00736E+05 5.49943E+04 2.20264E+03 1.10432E+05 4.28770E-09-2.81489E-10
 -1       639 1.98354E+05 6.01312E+04 5.21061E+03 1.14396E+05-3.09319E-09-1.67711E-09
 -1       640 2.00586E+05 5.97873E+04 1.08130E+04 1.08394E+05-3.31966E-10 2.36378E-09
 -1       656 5.49707E+04-1.38874E+06-1.32675E+05 2.26854E+02-5.82077E-11 1.65949E-09
 -1       657-7.26275E+04-1.44858E+06-1.09689E+05 9.45904E+03-2.81943E-11-9.31536E-10
 -1       658 1.74150E+04-1.40581E+06-6.72613E+04-1.43727E+03 1.84264E-09-5.41385E-09
 -1       659-7.77575E+04-1.45102E+06-1.16427E+05 1.05464E+04 1.14233E-09-6.81388E-09
 -1       660 6.00895E+04-1.38631E+06-1.44255E+05-8.60515E+02 9.45874E-11 3.03146E-09
 -1       661 2.05733E+05 2.25430E+04 1.95749E+04 8.04933E+04 3.13639E-09-1.55615E-09
 -1       662 2.15895E+05 3.79291E+04 1.31901E+04 7.71299E+04 4.79048E-09-4.43288E-09
 -1       663 2.09575E+05 2.88242E+04 4.61407E+03 7.93804E+04-1.77124E-09-5.65251E-09
 -1       664 2.11447E+05 3.05794E+04 2.75865E+03 7.84860E+04-7.24441E-10-5.15988E-09
 -1       665 2.10153E+05 2.96861E+04 1.08808E+03 7.92154E+04-4.49688E-09-1.16205E-09
 -1       666 2.10766E+05 2.95908E+04 6.34399E+02 7.86999E+04-1.15775E-08-1.24845E-09
 -1       667 2.10252E+05 2.97867E+04 3.34042E+02 7.91763E+04-7.07416E-11-3.23439E-09
 -1       668 2.10657E+05 2.95149E+04 3.34034E+02 7.87580E+04 6.37310E-09 1.65166E-09
 -1       669 2.10262E+05 2.97595E+04 4.46786E+02 7.91582E+04 3.04587E-09 1.12647E-09
 -1       670 2.10763E+05 2.97571E+04 9.68060E+02 7.87642E+04 9.56820E-09-4.90907E-09
 -1       671 2.10147E+05 2.95492E+04 1.71707E+03 7.91682E+04-2.36248E-09 5.76460E-09
 -1       672 2.11758E+05 3.14324E+04 4.39179E+03 7.85285E+04-8.48826E-09 2.53124E-10
 -1       673 2.09272E+05 2.81262E+04 7.35936E+03 7.93778E+04-9.58380E-10 1.70166E-09
 -1       674 2.18760E+05 4.32574E+04 2.10457E+04 7.64734E+04 3.88411E-09 1.90380E-09
 -1       675 2.03190E+05 1.80547E+04 3.12389E+04 8.10985E+04 4.07454E-10-4.13274E-09
 -1       676 2.27301E+01-2.69398E+05-1.05341E+03 8.12846E+01-1.49421E-09 4.44825E-10
 -1       677-2.79314E+02-2.69653E+05-1.92790E+03-1.62458E+02-6.99706E-09-1.37396E-10
 -1       678 1.86806E+02-2.69216E+05-3.40804E+03 8.11173E+01-2.70904E-09-8.56240E-09
 -1       679-3.40864E+03-2.71710E+05-8.09598E+03-1.61842E+02-4.61546E-09-1.51027E-08
 -1       680 2.03464E+03-2.67342E+05-1.30480E+04 7.97366E+01-2.35013E-09-9.02861E-09
 -1       771-2.90411E+06-4.78178E+05-9.94397E+04-1.16302E+06-6.20639E-09-2.44472E-09
 -1       772-2.90754E+06-5.06072E+05-5.36340E+04-1.19291E+06-2.38288E-09 7.21229E-09
 -1       773-2.91570E+06-4.69450E+05-2.26867E+04-1.16934E+06-2.72121E-09 2.07729E-09
 -1       774-2.89304E+06-4.93162E+05-1.11721E+04-1.19633E+06 7.92716E-09-5.23869E-10
 -1       775-2.91769E+06-4.68353E+05-5.36290E+03-1.16943E+06-4.35102E-09 6.49379E-10
 -1       776-2.89199E+06-4.93209E+05-2.55059E+03-1.19813E+06-4.14002E-09 9.97534E-09
 -1       777-2.91888E+06-4.67523E+05-1.40450E+03-1.16931E+06-2.73576E-09 3.15595E-09
 -1       778-2.89186E+06-4.93701E+05-6.83000E+02-1.19968E+06-1.02045E-09 5.76983E-09
 -1       779-2.91981E+06-4.66792E+05-5.75729E+02-1.16923E+06-3.32875E-09-2.10457E-09
 -1       780-2.89188E+06-4.94109E+05-5.31046E+02-1.20096E+06-1.56251E-09 5.77529E-10
 -1       781-2.92050E+06-4.66196E+05-9.16157E+02-1.16916E+06-8.11633E-09-1.11595E-09
 -1       782-2.89207E+06-4.94498E+05-1.77241E+03-1.20191E+06-9.69521E-09 3.95937E-09
 -1       783-2.92086E+06-4.65806E+05-3.53397E+03-1.16908E+06-8.54925E-11-3.25178E-09
 -1       784-2.89424E+06-4.96956E+05-8.42468E+03-1.20240E+06-3.15140E-09-1.09499E-08
 -1       785-2.91957E+06-4.66720E+05-1.55647E+04-1.16792E+06-8.03175E-09-7.68796E-09
 -1       786 2.28094E+05-1.15494E+04 2.67212E+04 6.11699E+01 1.98617E-06-1.04374E-08
 -1       787 2.39671E+05 1.33707E+04 1.89045E+04 5.23436E+00 3.95330E-06-1.43275E-08
 -1       788 2.32562E+05-1.81051E+03 6.91659E+03 5.34451E+01 2.32950E-06 6.70252E-09
 -1       789 2.34468E+05 2.09493E+03 4.34623E+03 1.44345E+01 6.94811E-07 4.57163E-09
 -1       790 2.33299E+05-2.82869E+02 1.76964E+03 5.19719E+01-6.16204E-07-2.63822E-09
 -1       791 2.33608E+05 3.28987E+02 1.04113E+03 1.25572E+01-1.92525E-06 1.05429E-09
 -1       792 2.33422E+05-4.58973E+01 4.79364E+02 5.53228E+01-2.61385E-06-1.23506E-08
 -1       793 2.33470E+05 6.64960E+01 3.22624E+02-1.69747E-01-3.29671E-06 1.80697E-09
 -1       794 2.33437E+05-2.05528E+01 2.51995E+02 6.46991E+01-1.65401E-06-1.54505E-08
 -1       795 2.33491E+05 1.11089E+02 3.83291E+02-2.86036E+01-4.39744E-09 1.33894E-08
 -1       796 2.33401E+05-9.04605E+01 5.85486E+02 8.37571E+01-3.33918E-10 4.82322E-09
 -1       797 2.33760E+05 6.64490E+02 1.38992E+03-8.39042E+01-7.64914E-10-3.13040E-09
 -1       798 2.33168E+05-5.73551E+02 2.19679E+03 1.20001E+02-1.01058E-09-2.42881E-09
 -1       799 2.35411E+05 4.23549E+03 5.99187E+03-1.88609E+02-9.95600E-10-4.58658E-09
 -1       800 2.31750E+05-3.65859E+03 8.46388E+03 1.88461E+02-2.15708E-10-2.08729E-10
 -1       801-7.03589E+04 1.43561E+06 1.49654E+05 1.80447E+04 1.09503E-08-3.36104E-09
 -1       802 1.06915E+05 1.61585E+06 1.73669E+05-1.15069E+05 2.92148E-08-1.81467E-09
 -1       803-3.40704E+04 1.50092E+06 1.43360E+05-1.88813E+04 2.22135E-08 2.07984E-08
 -1       804 2.26307E+05 1.68296E+06 3.30363E+05-1.22041E+05 2.74122E-08 2.19681E-08
 -1       805-1.89716E+05 1.36883E+06 4.12609E+05 2.50091E+04 9.45874E-09 3.33212E-08
 -1       806-2.42906E+05-5.44415E+04-2.16488E+04-1.03672E+05 2.73485E-09 5.74528E-09
 -1       807-2.43945E+05-5.15776E+04-1.06355E+04-1.09681E+05-8.75403E-10 4.50945E-09
 -1       808-2.43533E+05-4.66080E+04-4.51138E+03-1.07331E+05-4.77837E-09-1.14364E-08
 -1       809-2.41660E+05-4.86392E+04-2.20525E+03-1.10005E+05-3.80567E-10-1.04131E-08
 -1       810-2.43630E+05-4.63308E+04-1.00962E+03-1.07492E+05 3.21711E-09 1.10140E-09
 -1       811-2.41485E+05-4.85240E+04-5.00327E+02-1.09981E+05 1.96997E-09 3.84807E-09
 -1       812-2.43646E+05-4.63514E+04-2.49078E+02-1.07491E+05 3.38287E-09-2.97268E-09
 -1       813-2.41461E+05-4.85277E+04-1.56000E+02-1.09967E+05 1.05310E-08-1.03717E-09
 -1       814-2.43642E+05-4.63602E+04-1.44591E+02-1.07486E+05 4.10091E-09 1.05706E-08
 -1       815-2.41461E+05-4.85311E+04-2.24261E+02-1.09961E+05-8.88576E-10 4.14275E-09
 -1       816-2.43625E+05-4.63604E+04-4.19262E+02-1.07482E+05-5.20959E-09-4.48472E-09
 -1       817-2.41530E+05-4.85721E+04-8.97748E+02-1.09949E+05 3.88536E-09 2.95404E-09
 -1       818-2.43567E+05-4.64890E+04-1.82971E+03-1.07420E+05 2.41016E-10 6.65023E-09
 -1       819-2.42539E+05-4.96677E+04-4.30527E+03-1.09697E+05-2.64981E-09-2.53272E-09
 -1       820-2.43212E+05-4.97484E+04-8.76262E+03-1.06033E+05-3.84716E-10-7.93079E-10
 -1       821-3.17778E+05 1.77215E+04-4.09882E+04 1.97390E+02-8.78760E-10 2.91948E-09
 -1       822-3.35512E+05-2.05174E+04-2.90010E+04-1.50527E+03-2.33690E-09 7.68659E-09
 -1       823-3.24615E+05 2.77992E+03-1.06143E+04 3.17412E+02 9.07063E-10-2.50884E-09
 -1       824-3.27519E+05-3.21785E+03-6.67685E+03-1.43183E+03 5.15916E-10 5.80121E-09
 -1       825-3.25769E+05 4.35002E+02-2.74784E+03 1.23946E+02-3.24858E-09 1.41461E-09
 -1       826-3.26156E+05-5.12213E+02-1.64600E+03-8.29853E+02-7.07176E-09-9.23364E-10
 -1       827-3.25976E+05 7.52056E+01-8.64188E+02-2.84576E+02-4.87601E-09-2.93511E-10
 -1       828-3.25967E+05-1.53673E+02-7.42823E+02 8.87309E+00-7.29694E-09 4.51012E-09
 -1       829-3.25957E+05 7.65578E+01-8.70780E+02-7.14795E+02-2.12065E-10 2.63447E-09
 -1       830-3.26204E+05-5.20485E+02-1.68314E+03 6.87519E+02 2.92202E-09 1.03396E-08
 -1       831-3.25740E+05 4.42747E+02-2.79548E+03-9.63237E+02-5.27756E-09 1.94882E-09
 -1       832-3.27568E+05-3.27673E+03-6.80989E+03 8.86436E+02-2.11835E-09 6.62249E-09
 -1       833-3.24595E+05 2.83128E+03-1.08243E+04-9.13715E+02-1.15999E-09-3.01907E-09
 -1       834-3.35668E+05-2.09140E+04-2.95631E+04 5.14730E+02-4.00634E-10 3.41242E-09
 -1       835-3.17641E+05 1.80657E+04-4.17985E+04-5.91506E+02 6.29517E-09-2.83217E-09
 -1       836-1.05351E+03 3.04935E+05 1.82923E+04-2.93126E+04 3.24962E-09 1.15351E-08
 -1       837 4.07736E+03 3.10572E+05 1.55944E+04-5.87882E+04 4.41105E-09 9.42396E-09
 -1       838-3.64536E+02 3.06506E+05 1.60440E+04-2.92206E+04 3.73166E-09 1.04422E-08
 -1       839 1.03360E+04 3.15231E+05 3.05020E+04-5.88130E+04 4.74211E-09-1.61208E-09
 -1       840-3.06795E+03 3.00224E+05 4.86996E+04-2.92845E+04 3.53793E-09 3.37468E-09
 -1       856-1.06458E+05 8.72495E+03-2.29946E+04-5.61072E+02-7.97405E-09 1.85719E-09
 -1       857-1.15958E+05-1.02295E+04-1.58310E+04 5.10555E+03-6.20992E-09-1.68302E-09
 -1       858-1.10211E+05 1.22192E+03-5.96803E+03-5.90321E+02-4.03645E-09 1.74941E-09
 -1       859-1.11650E+05-1.41647E+03-3.60454E+03 5.15301E+03-1.49186E-09-4.24279E-09
 -1       860-1.10771E+05 1.69420E+02-1.51632E+03-6.08811E+02 3.22274E-10-6.46878E-11
 -1       861-1.11005E+05-1.82566E+02-8.45787E+02 5.17842E+03-7.87696E-09-5.77971E-09
 -1       862-1.10858E+05 2.20455E+01-3.75044E+02-6.15780E+02 5.84406E-09-8.28061E-09
 -1       863-1.10902E+05-9.25138E+00-1.89875E+02 5.18141E+03 1.60882E-08-2.53164E-09
 -1       864-1.10874E+05-3.89031E-02-6.85797E+01-6.11811E+02 7.48179E-09-2.43821E-09
 -1       865-1.10874E+05 2.55522E+01 1.07692E+01 5.16188E+03 1.08914E-08-1.07821E-08
 -1       866-1.10884E+05-1.37100E+01 8.28640E+01-5.96251E+02-8.21331E-10 4.13939E-09
 -1       867-1.10817E+05 1.13976E+02 2.44283E+02 5.11967E+03 3.71074E-10 5.10130E-09
 -1       868-1.10927E+05-8.93810E+01 4.14387E+02-5.69587E+02 1.47827E-09 1.08514E-09
 -1       869-1.10498E+05 7.35464E+02 1.11988E+03 5.05122E+03-6.31564E-09 3.19176E-09
 -1       870-1.11197E+05-6.22004E+02 1.62126E+03-5.27810E+02-1.76442E-10 4.46136E-09
 -1       871-4.70279E+03-9.07174E+03-1.49823E+04 9.76419E+04 2.70302E-09-4.82942E-10
 -1       872-2.10401E+03-1.24117E+04-6.08103E+03 1.26586E+05 7.49151E-09 1.39835E-09
 -1       873-1.19097E+02-1.08782E+04 9.33148E+02 9.74286E+04 4.36694E-09 9.67248E-09
 -1       874 2.23878E+03-8.64305E+03 8.63900E+03 1.26634E+05 7.46695E-09 1.60429E-08
 -1       875 5.45030E+03-1.29148E+04 1.91119E+04 9.76098E+04 3.24235E-09 3.95448E-09
 -1       876 2.47882E+05 4.29680E+04 1.33817E+04 1.00873E+05-3.77111E-09-1.47493E-08
 -1       877 2.48612E+05 4.59417E+04 7.14624E+03 1.04866E+05-5.43332E-09 1.31149E-09
 -1       878 2.49131E+05 4.14882E+04 2.99380E+03 1.01973E+05 4.15685E-09 3.90901E-09
 -1       879 2.46791E+05 4.41292E+04 1.49140E+03 1.04960E+05 7.18273E-10-1.16563E-09
 -1       880 2.49221E+05 4.14726E+04 6.94163E+02 1.02017E+05 5.53791E-09-2.02840E-09
 -1       881 2.46669E+05 4.40520E+04 3.69565E+02 1.04940E+05 1.44514E-08 4.26166E-09
 -1       882 2.49230E+05 4.14841E+04 2.34345E+02 1.02018E+05 1.03496E-08-1.38301E-08
 -1       883 2.46661E+05 4.40483E+04 2.48656E+02 1.04933E+05 1.43877E-08-2.75735E-09
 -1       884 2.49224E+05 4.14816E+04 3.92513E+02 1.02019E+05 1.75663E-09-7.08604E-09
 -1       885 2.46692E+05 4.40538E+04 7.87262E+02 1.04943E+05-3.41865E-09 5.46481E-09
 -1       886 2.49194E+05 4.14586E+04 1.58574E+03 1.02015E+05-1.15139E-09 1.76374E-09
 -1       887 2.46970E+05 4.42365E+04 3.46343E+03 1.04984E+05-6.96173E-09-1.04637E-09
 -1       888 2.48976E+05 4.14967E+04 6.97869E+03 1.01905E+05 1.06672E-09 5.52518E-10
 -1       889 2.51130E+05 4.85528E+04 1.66712E+04 1.04851E+05 1.63584E-09 5.27962E-09
 -1       890 2.46135E+05 4.48723E+04 3.12242E+04 9.92402E+04 3.95835E-09 6.97764E-09
 -1       891-1.76518E+02-1.41480E+05-1.66057E+03 2.74270E+04 2.31103E-09 1.30906E-08
 -1       892-3.03400E+02-1.41863E+05-1.81002E+03 4.14761E+04-5.67888E-09 7.21957E-09
 -1       893-6.95029E+01-1.41527E+05-2.59101E+03 2.74324E+04 6.82348E-10 9.54969E-09
 -1       894-1.45681E+03-1.42848E+05-5.38171E+03 4.13284E+04-2.78715E-09-5.37511E-09
 -1       895-1.13930E+03-1.40399E+05-9.48663E+03 2.75717E+04-8.42078E-10-1.00190E-08
 -1       956-3.10591E+05-4.51549E+03-1.13967E+04 2.01843E+04-5.25051E-09-1.87038E-09
 -1       957-3.12844E+05-1.51165E+03-5.85040E+03 2.43169E+04-1.79807E-09-3.52429E-09
 -1       958-3.11604E+05-1.08799E+02-2.63599E+03 2.00465E+04 2.88674E-09-3.01452E-09
 -1       959-3.11788E+05-3.49513E+00-1.34623E+03 2.44646E+04-3.16732E-09 2.51839E-09
 -1       960-3.11697E+05 5.25311E+01-6.56246E+02 2.00331E+04-4.93128E-09 2.26146E-09
 -1       961-3.11714E+05 5.47976E+01-3.47654E+02 2.44799E+04-9.23433E-09-5.23983E-09
 -1       962-3.11717E+05 4.92230E+01-1.98199E+02 2.00308E+04-1.78261E-10-4.07522E-09
 -1       963-3.11712E+05 5.73624E+01-1.57470E+02 2.44831E+04 1.22100E-09-3.94357E-09
 -1       964-3.11723E+05 5.22972E+01-1.89248E+02 2.00299E+04 3.26611E-09-5.29690E-09
 -1       965-3.11725E+05 6.15178E+01-3.25366E+02 2.44835E+04 6.63698E-09 6.58883E-09
 -1       966-3.11714E+05 6.16075E+01-6.09862E+02 2.00304E+04 7.51811E-10-2.44927E-09
 -1       967-3.11806E+05 1.38517E+01-1.25040E+03 2.44762E+04 7.50470E-09 5.34146E-09
 -1       968-3.11637E+05-8.21415E+01-2.44681E+03 2.00374E+04 4.59499E-09-5.95747E-10
 -1       969-3.12799E+05-1.38108E+03-5.43273E+03 2.43956E+04-4.43833E-10-3.10462E-09
 -1       970-3.10703E+05-4.17053E+03-1.05818E+04 2.01161E+04 2.87082E-09 4.92946E-10
 -1       971-2.96616E+05-1.57385E+03-8.81014E+03 1.45744E+04-5.99994E-09-5.60328E-09
 -1       972-2.98764E+05-1.11802E+03-4.79762E+03 2.04075E+04-4.07681E-09-1.44246E-09
 -1       973-2.97598E+05 2.14864E+00-2.14853E+03 1.44499E+04-4.29918E-09 4.25985E-09
 -1       974-2.97754E+05 9.62491E+00-1.11274E+03 2.05412E+04-1.19690E-09-5.52632E-09
 -1       975-2.97676E+05 4.48287E+01-5.54796E+02 1.44382E+04 3.91537E-10 1.20685E-08
 -1       976-2.97696E+05 5.70677E+01-3.17130E+02 2.05557E+04-1.27602E-08 3.09046E-09
 -1       977-2.97692E+05 4.55158E+01-2.25138E+02 1.44353E+04 1.26606E-08 7.10213E-09
 -1       978-2.97701E+05 6.29270E+01-2.56476E+02 2.05598E+04 3.95921E-08 4.14298E-09
 -1       979-2.97693E+05 5.28439E+01-4.06185E+02 1.44340E+04 1.61248E-08 3.83579E-10
 -1       980-2.97731E+05 6.56248E+01-7.80601E+02 2.05605E+04 1.00009E-08-1.40483E-09
 -1       981-2.97668E+05 7.21748E+01-1.51000E+03 1.44345E+04-3.71642E-10-1.35412E-09
 -1       982-2.97938E+05-4.62319E+01-3.12010E+03 2.05540E+04-5.00404E-09 5.03137E-09
 -1       983-2.97477E+05-2.49645E+01-6.06200E+03 1.44409E+04 3.36468E-09 1.72258E-09
 -1       984-3.00851E+05-3.21297E+03-1.35749E+04 2.04702E+04-2.03886E-09-4.62705E-10
 -1       985-2.94731E+05-4.46140E+03-2.49280E+04 1.45276E+04 8.07950E-09 6.91216E-11
 -3
    1PSTEP                        19          10           1          
  100CL  110 6.21094E-01         409                     0   10           1
 -4  DISP        4    1
 -5  D1          1    2    1    0
 -5  D2          1    2    2    0
 -5  D3          1    2    3    0
 -5  ALL         1    2    0    0    1ALL
 -1         1 1.34607E-03 0.00000E+00 0.00000E+00
 -1         2 1.35367E-03-7.57281E-29 0.00000E+00
 -1         3 1.01275E-04 2.31473E-27 0.00000E+00
 -1         5 8.56890E-05-4.94660E-27 0.00000E+00
 -1         8 1.30944E-03-1.47128E-06 0.00000E+00
 -1         9 1.32237E-03 3.05434E-07 0.00000E+00
 -1        10 9.53280E-05-8.86353E-07 0.00000E+00
 -1        12 8.46514E-05 6.72034E-07 0.00000E+00
 -1        15 1.26599E-03-1.65946E-06 0.00000E+00
 -1        16 1.26643E-03 4.65001E-07 0.00000E+00
 -1        17 7.61475E-05-1.87383E-06 0.00000E+00
 -1        18 8.02631E-05-4.08861E-06 0.00000E+00
 -1        19 8.15386E-05 1.33983E-06 0.00000E+00
 -1        20 8.17141E-05 2.41118E-05 0.00000E+00
 -1        21 8.10867E-05 4.65296E-05 0.00000E+00
 -1        24 2.34507E-05-3.22145E-06 0.00000E+00
 -1        25 7.62458E-05-3.94058E-06 0.00000E+00
 -1        26 7.76166E-05 1.87323E-06 0.00000E+00
 -1        27 7.57589E-05 2.11440E-05 0.00000E+00
 -1        28 7.50913E-05 4.59490E-05 0.00000E+00
 -1        32 0.00000E+00 0.00000E+00 0.00000E+00
 -1        33 7.19420E-05 2.51575E-06 0.00000E+00
 -1        34 7.01537E-05 2.11171E-05 0.00000E+00
 -1        35 6.84374E-05 4.56434E-05 0.00000E+00
 -1        51 1.34368E-03-2.35180E-07 0.00000E+00
 -1        52 1.33926E-03-4.68770E-07 0.00000E+00
 -1        53 1.33321E-03-7.07045E-07 0.00000E+00
 -1        54 1.32594E-03-9.51978E-07 0.00000E+00
 -1        55 1.31788E-03-1.20396E-06 1.15805E-23
 -1        56 1.34510E-03-1.22157E-06 2.64698E-23
 -1        57 1.34463E-03-3.85236E-06 0.00000E+00
 -1        58 1.34455E-03-7.56377E-06 2.64698E-23
 -1        59 1.34474E-03-1.20128E-05 1.32349E-23
 -1        60 1.34506E-03-1.68055E-05 5.29396E-23
 -1        61 1.34536E-03-2.15405E-05 0.00000E+00
 -1        62 1.34548E-03-2.58193E-05 5.29396E-23
 -1        63 1.34530E-03-2.92577E-05-2.64698E-23
 -1        64 1.34467E-03-3.15230E-05 0.00000E+00
 -1        65 1.34350E-03-3.23181E-05 2.64698E-23
 -1        66 1.34170E-03-3.14363E-05 0.00000E+00
 -1        67 1.33920E-03-2.87208E-05 0.00000E+00
 -1        68 1.33600E-03-2.41282E-05-2.64698E-23
 -1        69 1.33209E-03-1.76680E-05 0.00000E+00
 -1        70 1.32751E-03-9.46992E-06 0.00000E+00
 -1        86 1.35285E-03 7.15782E-08 0.00000E+00
 -1        87 1.35037E-03 1.40187E-07 8.27181E-25
 -1        88 1.34619E-03 2.03247E-07 0.00000E+00
 -1        89 1.34022E-03 2.55324E-07 5.16988E-26
 -1        90 1.33233E-03 2.95345E-07-3.30872E-24
 -1       121 1.01109E-04-1.47047E-07 3.30872E-24
 -1       122 1.00612E-04-2.94202E-07 1.65436E-24
 -1       123 9.97846E-05-4.41576E-07 0.00000E+00
 -1       124 9.86272E-05-5.89300E-07 0.00000E+00
 -1       125 9.71411E-05-7.37441E-07 3.30872E-24
 -1       191 8.56602E-05 1.12028E-07 0.00000E+00
 -1       192 8.55737E-05 2.24052E-07 0.00000E+00
 -1       193 8.54297E-05 3.36070E-07 0.00000E+00
 -1       194 8.52279E-05 4.48077E-07 0.00000E+00
 -1       195 8.49685E-05 5.60066E-07 0.00000E+00
 -1       251 1.31019E-03 4.05503E-06-6.61744E-24
 -1       252 1.31100E-03 6.29926E-06 0.00000E+00
 -1       253 1.31181E-03 6.34016E-06 0.00000E+00
 -1       254 1.31263E-03 5.17939E-06 0.00000E+00
 -1       255 1.31345E-03 3.22316E-06 0.00000E+00
 -1       256 1.31427E-03 8.50410E-07 0.00000E+00
 -1       257 1.31509E-03-1.76749E-06 0.00000E+00
 -1       258 1.31591E-03-4.46750E-06-1.32349E-23
 -1       259 1.31673E-03-7.12767E-06 0.00000E+00
 -1       260 1.31755E-03-9.62458E-06-1.32349E-23
 -1       261 1.31838E-03-1.17534E-05-2.64698E-23
 -1       262 1.31920E-03-1.32968E-05 0.00000E+00
 -1       263 1.32002E-03-1.37454E-05 0.00000E+00
 -1       264 1.32083E-03-1.25526E-05 0.00000E+00
 -1       265 1.32164E-03-8.35745E-06 0.00000E+00
 -1       266 1.30220E-03-1.52118E-06-6.61744E-24
 -1       267 1.29496E-03-1.55028E-06 0.00000E+00
 -1       268 1.28772E-03-1.58070E-06 0.00000E+00
 -1       269 1.28047E-03-1.60722E-06 0.00000E+00
 -1       270 1.27323E-03-1.63365E-06-8.27181E-25
 -1       271 1.30498E-03 3.57915E-06-5.29396E-23
 -1       272 1.30139E-03 6.11150E-06 0.00000E+00
 -1       273 1.29864E-03 6.42704E-06-5.29396E-23
 -1       274 1.29659E-03 4.85879E-06-2.64698E-23
 -1       275 1.29508E-03 1.80726E-06-5.29396E-23
 -1       276 1.29397E-03-2.28791E-06-2.64698E-23
 -1       277 1.29306E-03-6.95330E-06 0.00000E+00
 -1       278 1.29218E-03-1.16993E-05 0.00000E+00
 -1       279 1.29115E-03-1.60339E-05 0.00000E+00
 -1       280 1.28979E-03-1.94767E-05 2.64698E-23
 -1       281 1.28793E-03-2.15760E-05 0.00000E+00
 -1       282 1.28541E-03-2.19186E-05-2.64698E-23
 -1       283 1.28210E-03-2.01473E-05-5.29396E-23
 -1       284 1.27788E-03-1.59628E-05 0.00000E+00
 -1       285 1.27266E-03-9.14836E-06 5.29396E-23
 -1       301 1.31258E-03 3.25020E-07 6.61744E-24
 -1       302 1.30366E-03 3.66060E-07 0.00000E+00
 -1       303 1.29510E-03 4.10493E-07-1.03398E-24
 -1       304 1.28638E-03 4.51022E-07 8.27181E-25
 -1       305 1.27700E-03 4.82066E-07-3.30872E-24
 -1       306 1.27008E-03 1.06596E-04-5.29396E-23
 -1       307 1.11195E-03 3.83601E-04 2.64698E-23
 -1       308 8.51874E-04 7.80087E-04 5.29396E-23
 -1       309 5.20705E-04 1.24155E-03 5.29396E-23
 -1       310 1.83812E-04 1.70793E-03 0.00000E+00
 -1       311-9.17840E-05 2.11977E-03-5.29396E-23
 -1       312-2.69321E-04 2.42179E-03 0.00000E+00
 -1       313-3.38316E-04 2.56036E-03-5.29396E-23
 -1       314-3.24725E-04 2.50480E-03-1.05879E-22
 -1       315-2.67770E-04 2.25263E-03 0.00000E+00
 -1       316-2.00370E-04 1.84267E-03 1.05879E-22
 -1       317-1.38766E-04 1.33548E-03 0.00000E+00
 -1       318-7.79220E-05 8.19561E-04-1.05879E-22
 -1       319-1.10534E-05 3.84297E-04 2.64698E-23
 -1       320 5.02007E-05 9.50055E-05 0.00000E+00
 -1       336 9.31461E-05-1.04761E-06 3.30872E-24
 -1       337 9.05536E-05-1.21011E-06-3.30872E-24
 -1       338 8.75534E-05-1.37371E-06-6.61744E-24
 -1       339 8.41494E-05-1.53872E-06 3.30872E-24
 -1       340 8.03458E-05-1.70511E-06-3.30872E-24
 -1       406 8.42767E-05 7.83969E-07 0.00000E+00
 -1       407 8.38442E-05 8.95844E-07 0.00000E+00
 -1       408 8.33541E-05 1.00763E-06 0.00000E+00
 -1       409 8.28063E-05 1.11917E-06 3.30872E-24
 -1       410 8.22009E-05 1.23025E-06 3.30872E-24
 -1       521 1.21310E-03 1.07134E-04 5.29396E-23
 -1       522 1.05460E-03 3.83425E-04-5.29396E-23
 -1       523 7.95153E-04 7.78433E-04 0.00000E+00
 -1       524 4.66587E-04 1.23700E-03 5.29396E-23
 -1       525 1.32720E-04 1.70015E-03 0.00000E+00
 -1       526-1.41084E-04 2.10944E-03 5.29396E-23
 -1       527-3.17613E-04 2.40905E-03 0.00000E+00
 -1       528-3.86567E-04 2.54592E-03-5.29396E-23
 -1       529-3.73303E-04 2.48884E-03 0.00000E+00
 -1       530-3.17043E-04 2.23641E-03 0.00000E+00
 -1       531-2.50238E-04 1.82749E-03 0.00000E+00
 -1       532-1.88825E-04 1.32380E-03 0.00000E+00
 -1       533-1.28085E-04 8.11977E-04 0.00000E+00
 -1       534-6.17169E-05 3.79550E-04 0.00000E+00
 -1       535-1.38616E-06 9.25203E-05 1.05879E-22
 -1       536 7.63814E-05 1.59675E-06 1.65436E-24
 -1       537 7.66375E-05 3.24762E-06 0.00000E+00
 -1       538 7.68937E-05 3.70482E-06-6.61744E-24
 -1       539 7.71535E-05 3.58009E-06 0.00000E+00
 -1       540 7.74132E-05 3.07446E-06 6.61744E-24
 -1       541 7.76735E-05 2.38450E-06-3.30872E-24
 -1       542 7.79338E-05 1.57595E-06 0.00000E+00
 -1       543 7.81942E-05 7.13167E-07-3.30872E-24
 -1       544 7.84545E-05-1.77996E-07 0.00000E+00
 -1       545 7.87149E-05-1.07205E-06 3.30872E-24
 -1       546 7.89752E-05-1.94551E-06 0.00000E+00
 -1       547 7.92352E-05-2.77467E-06 3.30872E-24
 -1       548 7.94953E-05-3.50439E-06 6.61744E-24
 -1       549 7.97537E-05-4.07834E-06-3.30872E-24
 -1       550 8.00128E-05-4.32990E-06 0.00000E+00
 -1       551 6.93816E-05-2.07770E-06 0.00000E+00
 -1       552 6.06407E-05-2.29379E-06-1.65436E-24
 -1       553 5.07963E-05-2.51886E-06-6.61744E-24
 -1       554 4.07300E-05-2.74876E-06 0.00000E+00
 -1       555 3.13236E-05-2.97654E-06 0.00000E+00
 -1       556 7.47106E-05 1.80335E-06 0.00000E+00
 -1       557 7.36640E-05 4.46921E-06 0.00000E+00
 -1       558 7.29618E-05 6.22555E-06 1.32349E-23
 -1       559 7.25619E-05 7.18145E-06 6.61744E-24
 -1       560 7.24222E-05 7.44579E-06 0.00000E+00
 -1       561 7.25011E-05 7.12802E-06 0.00000E+00
 -1       562 7.27571E-05 6.33765E-06-6.61744E-24
 -1       563 7.31489E-05 5.18435E-06 0.00000E+00
 -1       564 7.36354E-05 3.77785E-06 0.00000E+00
 -1       565 7.41755E-05 2.22788E-06 0.00000E+00
 -1       566 7.47282E-05 6.44247E-07-3.10193E-25
 -1       567 7.52525E-05-8.63235E-07 0.00000E+00
 -1       568 7.57073E-05-2.18482E-06 0.00000E+00
 -1       569 7.60517E-05-3.21088E-06 0.00000E+00
 -1       570 7.62444E-05-3.83178E-06 0.00000E+00
 -1       571 8.03406E-05-3.67520E-06-4.13590E-25
 -1       572 8.04197E-05-3.31599E-06 0.00000E+00
 -1       573 8.04993E-05-3.00195E-06 8.27181E-25
 -1       574 8.05792E-05-2.72357E-06 0.00000E+00
 -1       575 8.06591E-05-2.47127E-06-1.65436E-24
 -1       576 8.07391E-05-2.23541E-06 8.27181E-25
 -1       577 8.08191E-05-2.00634E-06 0.00000E+00
 -1       578 8.08992E-05-1.77442E-06 0.00000E+00
 -1       579 8.09792E-05-1.52998E-06 0.00000E+00
 -1       580 8.10592E-05-1.26338E-06 0.00000E+00
 -1       581 8.11392E-05-9.64970E-07-3.30872E-24
 -1       582 8.12192E-05-6.25095E-07 0.00000E+00
 -1       583 8.12991E-05-2.34126E-07 0.00000E+00
 -1       584 8.13790E-05 2.17475E-07 0.00000E+00
 -1       585 8.14589E-05 7.39200E-07-3.30872E-24
 -1       586 7.95865E-05-4.06236E-06 0.00000E+00
 -1       587 7.88715E-05-4.03687E-06-4.13590E-25
 -1       588 7.81488E-05-4.01168E-06 4.13590E-25
 -1       589 7.74496E-05-3.98688E-06 0.00000E+00
 -1       590 7.68052E-05-3.96270E-06 0.00000E+00
 -1       591 8.00726E-05-3.64026E-06 1.03398E-25
 -1       592 7.98975E-05-3.24190E-06 0.00000E+00
 -1       593 7.97376E-05-2.88434E-06-8.27181E-25
 -1       594 7.95894E-05-2.55924E-06 4.13590E-25
 -1       595 7.94502E-05-2.25812E-06 0.00000E+00
 -1       596 7.93168E-05-1.97259E-06-4.13590E-25
 -1       597 7.91860E-05-1.69425E-06-8.27181E-25
 -1       598 7.90548E-05-1.41471E-06-4.13590E-25
 -1       599 7.89200E-05-1.12557E-06 0.00000E+00
 -1       600 7.87784E-05-8.18445E-07-2.06795E-25
 -1       601 7.86270E-05-4.84945E-07 8.27181E-25
 -1       602 7.84625E-05-1.16665E-07 0.00000E+00
 -1       603 7.82820E-05 2.94788E-07-3.61892E-25
 -1       604 7.80825E-05 7.57871E-07 0.00000E+00
 -1       605 7.78607E-05 1.28094E-06 0.00000E+00
 -1       606 8.15540E-05 2.12402E-06 0.00000E+00
 -1       607 8.15665E-05 3.03094E-06 0.00000E+00
 -1       608 8.15782E-05 4.05337E-06 0.00000E+00
 -1       609 8.15895E-05 5.18320E-06 0.00000E+00
 -1       610 8.16005E-05 6.41227E-06 0.00000E+00
 -1       611 8.16113E-05 7.73230E-06 0.00000E+00
 -1       612 8.16221E-05 9.13499E-06 0.00000E+00
 -1       613 8.16327E-05 1.06121E-05 0.00000E+00
 -1       614 8.16432E-05 1.21553E-05 0.00000E+00
 -1       615 8.16536E-05 1.37563E-05 0.00000E+00
 -1       616 8.16639E-05 1.54068E-05 0.00000E+00
 -1       617 8.16742E-05 1.70985E-05 0.00000E+00
 -1       618 8.16844E-05 1.88231E-05 0.00000E+00
 -1       619 8.16945E-05 2.05725E-05 0.00000E+00
 -1       620 8.17045E-05 2.23381E-05 0.00000E+00
 -1       621 8.08600E-05 1.42872E-06 3.30872E-24
 -1       622 8.01959E-05 1.51812E-06 1.65436E-24
 -1       623 7.95429E-05 1.60751E-06-3.30872E-24
 -1       624 7.88976E-05 1.69676E-06 1.65436E-24
 -1       625 7.82567E-05 1.78587E-06-1.65436E-24
 -1       626 8.13373E-05 2.15061E-06 0.00000E+00
 -1       627 8.10982E-05 3.06395E-06-3.30872E-24
 -1       628 8.08241E-05 4.07064E-06-6.61744E-24
 -1       629 8.05187E-05 5.16082E-06 0.00000E+00
 -1       630 8.01856E-05 6.32462E-06 6.61744E-24
 -1       631 7.98286E-05 7.55211E-06 1.65436E-24
 -1       632 7.94514E-05 8.83334E-06 3.30872E-24
 -1       633 7.90577E-05 1.01584E-05 0.00000E+00
 -1       634 7.86512E-05 1.15173E-05 0.00000E+00
 -1       635 7.82357E-05 1.29002E-05-1.65436E-24
 -1       636 7.78149E-05 1.42971E-05 0.00000E+00
 -1       637 7.73926E-05 1.56981E-05 0.00000E+00
 -1       638 7.69723E-05 1.70932E-05-1.65436E-24
 -1       639 7.65578E-05 1.84726E-05 0.00000E+00
 -1       640 7.61526E-05 1.98262E-05 0.00000E+00
 -1       656 8.01961E-05 2.36286E-05 0.00000E+00
 -1       657 7.91211E-05 2.31264E-05 0.00000E+00
 -1       658 7.83223E-05 2.26260E-05 0.00000E+00
 -1       659 7.76271E-05 2.21259E-05 6.61744E-24
 -1       660 7.68379E-05 2.16242E-05 6.61744E-24
 -1       661 8.11535E-05 2.58567E-05 0.00000E+00
 -1       662 8.06193E-05 2.75419E-05 0.00000E+00
 -1       663 8.01070E-05 2.91686E-05-3.30872E-24
 -1       664 7.96163E-05 3.07398E-05-1.65436E-24
 -1       665 7.91457E-05 3.22576E-05 0.00000E+00
 -1       666 7.86945E-05 3.37242E-05-1.65436E-24
 -1       667 7.82618E-05 3.51416E-05 0.00000E+00
 -1       668 7.78469E-05 3.65118E-05 0.00000E+00
 -1       669 7.74492E-05 3.78365E-05 0.00000E+00
 -1       670 7.70680E-05 3.91172E-05-1.65436E-24
 -1       671 7.67027E-05 4.03555E-05 0.00000E+00
 -1       672 7.63527E-05 4.15525E-05 0.00000E+00
 -1       673 7.60177E-05 4.27097E-05 0.00000E+00
 -1       674 7.56964E-05 4.38277E-05-8.27181E-25
 -1       675 7.53896E-05 4.49079E-05-8.27181E-25
 -1       676 8.00842E-05 4.64322E-05 3.30872E-24
 -1       677 7.90823E-05 4.63349E-05-1.65436E-24
 -1       678 7.80814E-05 4.62377E-05-3.30872E-24
 -1       679 7.70823E-05 4.61407E-05-1.65436E-24
 -1       680 7.60854E-05 4.60438E-05-1.65436E-24
 -1       771 2.02792E-05 1.55856E-06 0.00000E+00
 -1       772 1.74120E-05 5.48307E-06 0.00000E+00
 -1       773 1.48493E-05 8.60081E-06 0.00000E+00
 -1       774 1.25716E-05 1.09598E-05 0.00000E+00
 -1       775 1.05610E-05 1.26103E-05 0.00000E+00
 -1       776 8.79753E-06 1.36043E-05 0.00000E+00
 -1       777 7.26067E-06 1.39958E-05 0.00000E+00
 -1       778 5.92923E-06 1.38402E-05 2.64698E-23
 -1       779 4.78160E-06 1.31947E-05-5.29396E-23
 -1       780 3.79560E-06 1.21177E-05 0.00000E+00
 -1       781 2.94881E-06 1.06689E-05 0.00000E+00
 -1       782 2.21837E-06 8.90889E-06 0.00000E+00
 -1       783 1.58128E-06 6.89930E-06 0.00000E+00
 -1       784 1.01440E-06 4.70256E-06-1.32349E-23
 -1       785 4.94247E-07 2.38140E-06 0.00000E+00
 -1       786 7.63269E-05-3.59802E-06 8.27181E-25
 -1       787 7.64124E-05-3.27219E-06 0.00000E+00
 -1       788 7.64976E-05-2.95844E-06 0.00000E+00
 -1       789 7.65837E-05-2.65218E-06 0.00000E+00
 -1       790 7.66698E-05-2.35032E-06 0.00000E+00
 -1       791 7.67561E-05-2.04981E-06 0.00000E+00
 -1       792 7.68424E-05-1.74784E-06 0.00000E+00
 -1       793 7.69288E-05-1.44163E-06-1.65436E-24
 -1       794 7.70151E-05-1.12750E-06 3.30872E-24
 -1       795 7.71014E-05-8.01761E-07-1.65436E-24
 -1       796 7.71877E-05-4.58372E-07 0.00000E+00
 -1       797 7.72740E-05-9.12004E-08 1.65436E-24
 -1       798 7.73602E-05 3.10705E-07 0.00000E+00
 -1       799 7.74462E-05 7.58431E-07 0.00000E+00
 -1       800 7.75322E-05 1.27239E-06-1.65436E-24
 -1       801 7.09946E-05-3.20940E-06 0.00000E+00
 -1       802 5.62317E-05-2.53990E-06 0.00000E+00
 -1       803 3.68540E-05-1.94469E-06 0.00000E+00
 -1       804 1.75909E-05-1.35603E-06 0.00000E+00
 -1       805 3.54090E-06-6.83727E-07 0.00000E+00
 -1       806 7.60244E-05-3.65110E-06 0.00000E+00
 -1       807 7.58045E-05-3.37638E-06-1.65436E-24
 -1       808 7.55868E-05-3.10925E-06 3.30872E-24
 -1       809 7.53690E-05-2.84340E-06-1.65436E-24
 -1       810 7.51492E-05-2.57253E-06 3.30872E-24
 -1       811 7.49252E-05-2.29042E-06-1.65436E-24
 -1       812 7.46946E-05-1.99083E-06 0.00000E+00
 -1       813 7.44550E-05-1.66756E-06 0.00000E+00
 -1       814 7.42042E-05-1.31438E-06 0.00000E+00
 -1       815 7.39399E-05-9.25093E-07 0.00000E+00
 -1       816 7.36597E-05-4.93496E-07 1.65436E-24
 -1       817 7.33613E-05-1.33829E-08-8.27181E-25
 -1       818 7.30424E-05 5.21438E-07 1.65436E-24
 -1       819 7.27008E-05 1.11714E-06 1.65436E-24
 -1       820 7.23343E-05 1.77990E-06 0.00000E+00
 -1       821 7.75078E-05 2.40663E-06 0.00000E+00
 -1       822 7.73923E-05 2.72007E-06 0.00000E+00
 -1       823 7.72773E-05 2.93118E-06 0.00000E+00
 -1       824 7.71610E-05 3.15811E-06 1.65436E-24
 -1       825 7.70447E-05 3.51522E-06 0.00000E+00
 -1       826 7.69280E-05 4.11613E-06 0.00000E+00
 -1       827 7.68110E-05 5.01668E-06 0.00000E+00
 -1       828 7.66936E-05 6.27113E-06-1.65436E-24
 -1       829 7.65758E-05 7.84983E-06-3.30872E-24
 -1       830 7.64575E-05 9.72141E-06-1.65436E-24
 -1       831 7.63389E-05 1.17851E-05-3.30872E-24
 -1       832 7.62204E-05 1.39391E-05 0.00000E+00
 -1       833 7.61020E-05 1.60602E-05 0.00000E+00
 -1       834 7.59852E-05 1.80252E-05-8.27181E-25
 -1       835 7.58684E-05 1.97482E-05 0.00000E+00
 -1       836 7.68455E-05 1.98026E-06 0.00000E+00
 -1       837 7.59259E-05 2.08958E-06 0.00000E+00
 -1       838 7.49168E-05 2.19865E-06 3.30872E-24
 -1       839 7.38771E-05 2.30702E-06 0.00000E+00
 -1       840 7.28658E-05 2.41524E-06 4.13590E-25
 -1       856 7.57217E-05 2.24451E-05 2.06795E-25
 -1       857 7.56804E-05 2.38756E-05 2.06795E-25
 -1       858 7.56393E-05 2.54153E-05 0.00000E+00
 -1       859 7.55973E-05 2.70436E-05 0.00000E+00
 -1       860 7.55552E-05 2.87399E-05 0.00000E+00
 -1       861 7.55128E-05 3.04835E-05 0.00000E+00
 -1       862 7.54704E-05 3.22536E-05-1.65436E-24
 -1       863 7.54280E-05 3.40293E-05 8.27181E-25
 -1       864 7.53855E-05 3.57898E-05 1.65436E-24
 -1       865 7.53432E-05 3.75143E-05-8.27181E-25
 -1       866 7.53009E-05 3.91820E-05-1.65436E-24
 -1       867 7.52587E-05 4.07721E-05-8.27181E-25
 -1       868 7.52167E-05 4.22643E-05 1.65436E-24
 -1       869 7.51748E-05 4.36379E-05-8.27181E-25
 -1       870 7.51330E-05 4.48728E-05 0.00000E+00
 -1       871 7.46953E-05 2.11428E-05 8.27181E-25
 -1       872 7.37524E-05 2.11393E-05 0.00000E+00
 -1       873 7.28789E-05 2.11353E-05 0.00000E+00
 -1       874 7.20226E-05 2.11307E-05 1.03398E-25
 -1       875 7.11314E-05 2.11255E-05 0.00000E+00
 -1       876 7.53818E-05 2.24553E-05 3.30872E-24
 -1       877 7.49836E-05 2.38296E-05 0.00000E+00
 -1       878 7.45647E-05 2.52594E-05 3.30872E-24
 -1       879 7.41280E-05 2.67375E-05 0.00000E+00
 -1       880 7.36758E-05 2.82567E-05 0.00000E+00
 -1       881 7.32109E-05 2.98099E-05 0.00000E+00
 -1       882 7.27358E-05 3.13900E-05 0.00000E+00
 -1       883 7.22534E-05 3.29898E-05 1.65436E-24
 -1       884 7.17662E-05 3.46022E-05 0.00000E+00
 -1       885 7.12768E-05 3.62202E-05 0.00000E+00
 -1       886 7.07880E-05 3.78366E-05 0.00000E+00
 -1       887 7.03024E-05 3.94443E-05-1.65436E-24
 -1       888 6.98226E-05 4.10362E-05 0.00000E+00
 -1       889 6.93508E-05 4.26050E-05-8.27181E-25
 -1       890 6.88898E-05 4.41437E-05 0.00000E+00
 -1       891 7.41237E-05 4.58979E-05 0.00000E+00
 -1       892 7.31341E-05 4.58467E-05 0.00000E+00
 -1       893 7.20965E-05 4.57955E-05 0.00000E+00
 -1       894 7.09850E-05 4.57443E-05-6.20385E-25
 -1       895 6.97738E-05 4.56932E-05 0.00000E+00
 -1       956 7.18324E-05 3.40077E-06 3.30872E-24
 -1       957 7.17211E-05 4.35870E-06-1.65436E-24
 -1       958 7.16094E-05 5.38225E-06-3.30872E-24
 -1       959 7.14974E-05 6.46368E-06-1.65436E-24
 -1       960 7.13853E-05 7.59525E-06-3.30872E-24
 -1       961 7.12731E-05 8.76915E-06 1.65436E-24
 -1       962 7.11609E-05 9.97755E-06 0.00000E+00
 -1       963 7.10486E-05 1.12127E-05 1.65436E-24
 -1       964 7.09363E-05 1.24667E-05-3.30872E-24
 -1       965 7.08240E-05 1.37317E-05 0.00000E+00
 -1       966 7.07117E-05 1.50000E-05 3.30872E-24
 -1       967 7.05994E-05 1.62638E-05 0.00000E+00
 -1       968 7.04873E-05 1.75151E-05 0.00000E+00
 -1       969 7.03753E-05 1.87463E-05 0.00000E+00
 -1       970 7.02636E-05 1.99494E-05-6.61744E-24
 -1       971 7.00480E-05 2.23121E-05 1.65436E-24
 -1       972 6.99409E-05 2.36036E-05-8.27181E-25
 -1       973 6.98334E-05 2.49810E-05 0.00000E+00
 -1       974 6.97257E-05 2.64332E-05 0.00000E+00
 -1       975 6.96179E-05 2.79491E-05 0.00000E+00
 -1       976 6.95100E-05 2.95176E-05 0.00000E+00
 -1       977 6.94020E-05 3.11276E-05 3.30872E-24
 -1       978 6.92939E-05 3.27678E-05 0.00000E+00
 -1       979 6.91859E-05 3.44272E-05 0.00000E+00
 -1       980 6.90778E-05 3.60946E-05-1.65436E-24
 -1       981 6.89698E-05 3.77589E-05-3.30872E-24
 -1       982 6.88619E-05 3.94089E-05 0.00000E+00
 -1       983 6.87541E-05 4.10335E-05 3.30872E-24
 -1       984 6.86469E-05 4.26214E-05 0.00000E+00
 -1       985 6.85401E-05 4.41617E-05 1.65436E-24
 -3
    1PSTEP                        20          10           1          
  100CL  110 6.21094E-01         409                     0   10           1
 -4  STRESS      6    1
 -5  SXX         1    4    1    1
 -5  SYY         1    4    2    2
 -5  SZZ         1    4    3    3
 -5  SXY         1    4    1    2
 -5  SYZ         1    4    2    3
 -5  SZX         1    4    3    1
 -1         1-1.64032E+06-8.43094E+05-3.21505E+05-1.34619E+06 4.03816E-10-5.28235E-09
 -1         2 1.75000E+03 2.10769E+05 6.31106E+03 1.45569E+03-2.91124E-10 1.03562E-07
 -1         3-4.51930E+01-4.20165E+05 1.14342E+02-1.12296E+02-1.11637E-10-3.96722E-09
 -1         5-2.43211E+01 3.20638E+05 8.45762E+00 5.13773E-01 2.90704E-10 4.32719E-08
 -1         8-7.19267E+05-4.18655E+05 6.54789E+04-9.04284E+05-6.18456E-10-7.25413E-09
 -1         9 3.90370E+06 3.13722E+06 1.14384E+06 3.07177E+06-1.17056E-08-4.95231E-08
 -1        10-2.94456E+02-4.37668E+05-2.49897E+01-7.48487E+02-2.65754E-09-2.37369E-08
 -1        12-2.08885E+01 3.20655E+05 2.75364E+02 3.76843E+00 4.48864E-10-1.86119E-08
 -1        15 3.07118E+03 1.68785E+03 9.92769E+03 9.61873E+00-1.81899E-12 2.15705E-07
 -1        16 4.45274E+06 4.53796E+06 1.40522E+06 4.87200E+06 1.15736E-08-7.51655E-08
 -1        17 6.57723E+06 5.04917E+04 1.04120E+06-4.65507E+05-3.44226E-09-2.24973E-08
 -1        18 2.32318E+05 5.08989E+04 3.28984E+04-7.00747E+04 1.82740E-09-1.48157E-09
 -1        19 9.93922E+04 1.20495E+05-4.20959E+02 1.95786E+04-1.10485E-09-2.15368E-09
 -1        20-3.64677E+04-4.69502E+05-1.03240E+05 3.69819E+04 7.45968E-09 9.91531E-09
 -1        21-4.50122E+01-2.77320E+05-9.01164E+02-1.90684E+02-8.18335E-09-6.52195E-09
 -1        24 9.60336E+06-3.57108E+05 1.51201E+06-1.23774E+06 4.76430E-08 1.16221E-08
 -1        25 1.44415E+05 4.63175E+05 1.34520E+05-1.33306E+05 1.04519E-09-5.98920E-09
 -1        26-1.71442E+04 8.42294E+04-1.50148E+04-1.48559E+04 2.30830E-09-2.13961E-09
 -1        27-7.76184E+04-2.58370E+05-9.72515E+04 5.82606E+04 8.19894E-09-3.28752E-09
 -1        28 2.16165E+04-7.59641E+04 1.56436E+04 2.54937E+04 4.97550E-09-1.40065E-09
 -1        32-7.68913E+05 1.01413E+06 7.06135E+05-6.94454E+05-1.34460E-08 3.23001E-08
 -1        33-1.45943E+05 7.70034E+04 2.71597E+04-4.80131E+04 2.14266E-09-8.84029E-10
 -1        34-1.92421E+05-1.88751E+04 4.13770E+02 5.81619E+04 5.45462E-09 7.78573E-09
 -1        35-2.19319E+04-3.01684E+04-1.18510E+03 4.83202E+04 1.20934E-08-6.68782E-09
 -1        51 7.54443E+03-5.86213E+05 2.96926E+04-1.40382E+06 2.32831E-10-3.26836E-08
 -1        52 1.19957E+04-5.93738E+05 2.46236E+04-1.63757E+06 6.40284E-10 2.32249E-08
 -1        53 1.32342E+04-6.15493E+05 2.61177E+04-1.39887E+06 5.38421E-10 5.68398E-08
 -1        54 3.59502E+04-6.18122E+05 4.88420E+04-1.64255E+06 5.52973E-10-2.31630E-07
 -1        55 6.40863E+04-6.38540E+05 9.07871E+04-1.39787E+06 1.28057E-09-4.97312E-08
 -1        56-3.18151E+06-3.59751E+05-2.32789E+05-1.21698E+06 8.17090E-09 1.50656E-07
 -1        57-3.23516E+06-6.07700E+05-1.56539E+05-1.25166E+06-3.82215E-09 5.81349E-09
 -1        58-3.23273E+06-4.28214E+05-5.47692E+04-1.19656E+06 1.32136E-08-5.39403E-08
 -1        59-3.17558E+06-5.27949E+05-3.26321E+04-1.27740E+06-1.80372E-08-7.00547E-08
 -1        60-3.24114E+06-4.36639E+05-1.27830E+04-1.19251E+06 1.86535E-08-1.39748E-07
 -1        61-3.16850E+06-5.15039E+05-7.28239E+03-1.27859E+06 1.13232E-08 8.35189E-09
 -1        62-3.23965E+06-4.40838E+05-3.69757E+03-1.19543E+06-1.96096E-08 4.63280E-08
 -1        63-3.17572E+06-5.04206E+05-2.96983E+03-1.26719E+06 1.49998E-08 1.11603E-08
 -1        64-3.23322E+06-4.47883E+05-4.13454E+03-1.20342E+06 1.07048E-09 8.80436E-08
 -1        65-3.19190E+06-4.89288E+05-7.58318E+03-1.24700E+06 3.49701E-10 1.79105E-08
 -1        66-3.22265E+06-4.56341E+05-1.45349E+04-1.21501E+06-1.69603E-08 4.31073E-08
 -1        67-3.22056E+06-4.81814E+05-3.54460E+04-1.22050E+06-8.76298E-09-7.43685E-08
 -1        68-3.20426E+06-4.55974E+05-6.07411E+04-1.22950E+06-1.26494E-08 7.08824E-08
 -1        69-3.30085E+06-5.56777E+05-1.72195E+05-1.17909E+06 3.21415E-09 1.33368E-08
 -1        70-3.14328E+06-3.83876E+05-2.56432E+05-1.25569E+06-2.53131E-08 8.49686E-08
 -1        86-9.29582E+02 2.05425E+05 6.04870E+03-7.28046E+02 2.68778E-09-1.75356E-08
 -1        87 5.93248E+03 2.13050E+05 1.36044E+04 2.98994E+03 4.47540E-09-1.24126E-08
 -1        88-5.11472E+03 2.03166E+05 1.97977E+04-2.26313E+03 7.03949E-09 1.11146E-07
 -1        89 3.78605E+04 2.28722E+05 5.48243E+04 6.42190E+03 1.07611E-08 3.04265E-08
 -1        90-3.28026E+04 1.89832E+05 7.60845E+04-4.16104E+03 1.16343E-08-8.29041E-08
 -1       121-7.25728E+01-4.20377E+05 1.01982E+02 5.60863E+01 2.62947E-10 4.59113E-09
 -1       122-1.28704E+01-4.20143E+05 2.47554E+02-2.24812E+02-1.02015E-09-9.40872E-10
 -1       123-9.60745E+01-4.20400E+05 3.98066E+02 1.68357E+02 7.80318E-10 3.87445E-09
 -1       124 3.81935E+02-4.19898E+05 1.02193E+03-5.42163E+02-1.93813E-09 1.58834E-08
 -1       125-3.53537E+02-4.20627E+05 1.60983E+03 3.73300E+02 1.16233E-09-4.16549E-10
 -1       191-2.58050E+01 3.20661E+05 9.18798E+00-2.62314E-01 3.00582E-10-1.45883E-09
 -1       192-2.51094E+01 3.20638E+05 1.79520E+01 1.95944E+00 4.17610E-10-4.21805E-08
 -1       193-2.78950E+01 3.20661E+05 3.24897E+01-1.73120E+00 4.82503E-10-2.34631E-08
 -1       194-2.76433E+01 3.20641E+05 6.80112E+01 4.57079E+00 1.81462E-10 1.48339E-09
 -1       195-3.19096E+01 3.20658E+05 1.32133E+02-2.91581E+00 8.26873E-10-6.31735E-09
 -1       251 2.28941E+06-1.45010E+05 3.38454E+05 2.92833E+04 3.13412E-09-5.41768E-08
 -1       252 2.44722E+06 1.67640E+05 2.40569E+05-5.70357E+04-7.67233E-09-3.41970E-09
 -1       253 2.35067E+06-2.22984E+04 8.78959E+04 6.06455E+03 3.64776E-09 5.43660E-08
 -1       254 2.37583E+06 2.58191E+04 5.52050E+04-2.56910E+04-1.08608E-09-3.31638E-08
 -1       255 2.36047E+06-3.41977E+03 2.26876E+04-2.05739E+03 3.31960E-09 7.39656E-08
 -1       256 2.36446E+06 4.05901E+03 1.35483E+04-1.50758E+04-5.76870E-09 5.81449E-08
 -1       257 2.36204E+06-5.68979E+02 6.77831E+03-4.55083E+03 4.21991E-09 7.76661E-08
 -1       258 2.36285E+06 1.10295E+03 5.54958E+03-1.29883E+04-1.11317E-08 2.14277E-08
 -1       259 2.36210E+06-4.67917E+02 5.87616E+03-4.14493E+03 4.41764E-09 1.03038E-07
 -1       260 2.36408E+06 3.18466E+03 1.09547E+04-1.71406E+04-5.34527E-09 6.51308E-08
 -1       261 2.36082E+06-2.65392E+03 1.79855E+04-3.98496E+02 1.32718E-09 1.21760E-07
 -1       262 2.37374E+06 2.01287E+04 4.36310E+04-3.20612E+04 1.68313E-10 1.17925E-07
 -1       263 2.35250E+06-1.74301E+04 6.90974E+04 1.07758E+04-5.01484E-09 1.33405E-08
 -1       264 2.43609E+06 1.31931E+05 1.90679E+05-7.46640E+04-4.28713E-10 6.60038E-08
 -1       265 2.29919E+06-1.14582E+05 2.65077E+05 4.22037E+04-3.66526E-10 4.91418E-08
 -1       266-5.55943E+04-2.59852E+04 1.30493E+05-2.05882E+02-2.11003E-10 7.41483E-08
 -1       267 6.44537E+04 3.03033E+04 9.22038E+04 2.37459E+02 1.74623E-10-4.12773E-08
 -1       268-8.64292E+03-4.29086E+03 3.42733E+04-3.02613E+01-1.27329E-10-1.03891E-07
 -1       269 1.02050E+04 5.13628E+03 2.22756E+04 3.52446E+01-1.88038E-10-4.33693E-08
 -1       270-1.53178E+03-8.43886E+02 1.07528E+04-4.78316E+00-2.47383E-10 1.00963E-07
 -1       271-5.67767E+06-7.17882E+05-4.44574E+05-2.22577E+06 1.77970E-08 5.18630E-08
 -1       272-5.78679E+06-1.08664E+06-2.85043E+05-2.27258E+06 2.29329E-09-3.80969E-08
 -1       273-5.77008E+06-8.18921E+05-1.05137E+05-2.19598E+06 7.10406E-09 1.50823E-07
 -1       274-5.67787E+06-9.64668E+05-5.84241E+04-2.32144E+06-1.80535E-09 1.99587E-07
 -1       275-5.78825E+06-8.23047E+05-2.44319E+04-2.18518E+06 2.09111E-08-1.98816E-08
 -1       276-5.65792E+06-9.59192E+05-1.29569E+04-2.33853E+06 1.36897E-08-3.52718E-08
 -1       277-5.79270E+06-8.21016E+05-6.48080E+03-2.18152E+06-1.57879E-08 7.34457E-08
 -1       278-5.65596E+06-9.58337E+05-5.05530E+03-2.33987E+06 4.04884E-09 2.26923E-08
 -1       279-5.79041E+06-8.23623E+05-6.12874E+03-2.18406E+06-1.05556E-08 1.07957E-08
 -1       280-5.66433E+06-9.50528E+05-1.13635E+04-2.32695E+06-3.97995E-09 1.16019E-07
 -1       281-5.78168E+06-8.30628E+05-2.19142E+04-2.19250E+06 2.98314E-09 3.40569E-08
 -1       282-5.68968E+06-9.46216E+05-5.10179E+04-2.30036E+06-4.26371E-09-1.77261E-08
 -1       283-5.76106E+06-8.31940E+05-9.27275E+04-2.20711E+06-1.02227E-08-9.53150E-10
 -1       284-5.79394E+06-1.04408E+06-2.49562E+05-2.24763E+06-1.07934E-08-1.41190E-08
 -1       285-5.67593E+06-7.47507E+05-3.90187E+05-2.23779E+06-1.79243E-08 5.40167E-08
 -1       301-5.56932E+02 2.45733E+05 9.77748E+04 6.21099E+05-2.48838E-09 4.45943E-08
 -1       302-1.79458E+03 2.73618E+05 7.60871E+04 9.09428E+05 2.60479E-09-4.00250E-08
 -1       303-9.89217E+03 2.50898E+05 7.70649E+04 6.19570E+05-1.32422E-09-3.86608E-08
 -1       304 1.60864E+04 2.93034E+05 1.37378E+05 9.09026E+05 1.10595E-09 1.20854E-08
 -1       305 1.75375E+04 2.31008E+05 2.33161E+05 6.21925E+05-1.64437E-09-5.90298E-08
 -1       306-1.52632E+07-9.30868E+06-5.39774E+06-7.98976E+06 9.15024E-08-2.07758E-07
 -1       307 8.56605E+05 1.50858E+07 3.40023E+06 8.60891E+06 6.32921E-07-2.14204E-07
 -1       308-2.28956E+06-7.39508E+06-8.50481E+05-4.66971E+06 3.99887E-08-8.55944E-08
 -1       309-1.52848E+07 1.37738E+07 9.96138E+05-2.06686E+06-2.31521E-07 1.63720E-07
 -1       310-1.50959E+06-6.91249E+06-3.80291E+05-4.31727E+06-1.83471E-07 9.08913E-08
 -1       311-1.83716E+06 1.46363E+07 3.24038E+06 7.57660E+06-7.39703E-07 2.47965E-07
 -1       312-1.38386E+07-9.02498E+06-4.18142E+06-8.14056E+06 2.52039E-08-1.01165E-07
 -1       313 2.40610E+07 5.45906E+06 5.84184E+06 1.02223E+07 2.91242E-07-1.43438E-07
 -1       314-2.01014E+07-3.67956E+06-4.42812E+06-2.94417E+06-9.48785E-08-1.42390E-08
 -1       315 1.62348E+07-1.06252E+06 3.60579E+06-7.09825E+06 4.41680E-07 1.15266E-07
 -1       316-9.48335E+06-1.98615E+05-7.12294E+05 2.68028E+06 3.97995E-07 4.50484E-07
 -1       317-3.25930E+06 1.75866E+06 9.96156E+05-1.44510E+07-6.79012E-07 2.23459E-07
 -1       318-8.39776E+06-3.71771E+04-5.24847E+05 2.84516E+06 5.17088E-07 7.83402E-08
 -1       319 1.38056E+07-2.52785E+05 3.02463E+06-8.72190E+06 1.42056E-07 9.25538E-08
 -1       320-1.98725E+07-3.75560E+06-5.15842E+06-1.94853E+06-8.70787E-08-3.25963E-09
 -1       336 2.63009E+02-4.55123E+05-1.38758E+03 3.74259E+02-5.02223E-09-7.52334E-09
 -1       337-4.23850E+02-4.55328E+05-3.28208E+02-1.02329E+03-9.36234E-09-4.81714E-09
 -1       338-1.62005E+02-4.55462E+05 8.44095E+02 6.46871E+02-6.68558E-09-5.18321E-09
 -1       339 1.45124E+03-4.54218E+05 3.01305E+03-1.55849E+03-1.21511E-08 1.33823E-08
 -1       340-1.18363E+03-4.56255E+05 4.95177E+03 9.10538E+02-8.25548E-09 1.44755E-08
 -1       406-7.50741E-01 3.20646E+05 5.42690E+02-9.66245E-01 1.06854E-09-5.41331E-09
 -1       407 1.68773E+02 3.20751E+05 1.15542E+03-1.49723E+01 1.49441E-10-1.60944E-08
 -1       408 5.73261E+02 3.20562E+05 2.30639E+03 1.62848E+01 1.37470E-09-7.28141E-09
 -1       409 2.47583E+03 3.21487E+05 5.19423E+03-1.64741E+02-1.07320E-10-1.42109E-09
 -1       410 7.15081E+03 3.19904E+05 1.06030E+04 1.56589E+02 1.26965E-09-9.95897E-10
 -1       521-1.57432E+07-9.80030E+06-5.63095E+06-7.94053E+06 4.71482E-08-8.20728E-08
 -1       522-1.46693E+06 1.57962E+07 3.19884E+06 8.22205E+06 5.24538E-07 5.69562E-08
 -1       523-2.93061E+06-7.95431E+06-8.24403E+05-5.20732E+06 1.14524E-07 2.28290E-07
 -1       524-1.79931E+07 1.47824E+07 9.86738E+05-3.17320E+06-2.97994E-07 5.42233E-07
 -1       525-2.20820E+06-7.54215E+06-3.56400E+05-4.93006E+06-2.38273E-07 3.90050E-07
 -1       526-4.09251E+06 1.54545E+07 3.12095E+06 7.18120E+06-1.07961E-07 6.68224E-08
 -1       527-1.44057E+07-9.51851E+06-4.35179E+06-8.11409E+06-2.19210E-07 1.74623E-08
 -1       528 2.31488E+07 5.04379E+06 5.56194E+06 9.98487E+06-1.11118E-07-4.53147E-08
 -1       529-2.05578E+07-4.23719E+06-4.60228E+06-2.90896E+06-1.66823E-07 1.48721E-08
 -1       530 1.50101E+07-1.40814E+06 3.44280E+06-8.62727E+06 2.91853E-07-1.57976E-07
 -1       531-1.06117E+07-2.68052E+05-6.73398E+05 2.66021E+06 5.49218E-07 1.38854E-07
 -1       532-5.28244E+06 2.08408E+06 9.90326E+05-1.62731E+07-3.49165E-07 3.14409E-07
 -1       533-9.68209E+06-8.49683E+04-5.05833E+05 2.83287E+06-2.71772E-07 5.35088E-07
 -1       534 1.26317E+07-5.33748E+05 2.88706E+06-1.02346E+07 3.37139E-07-3.76484E-07
 -1       535-2.03756E+07-4.29423E+06-5.36156E+06-2.00374E+06 7.79983E-09-2.53785E-07
 -1       536 7.22693E+05-4.81821E+04 1.10847E+05 5.60256E+03-7.14215E-09 1.02445E-08
 -1       537 7.74344E+05 5.57068E+04 7.90196E+04-8.94264E+03-3.82852E-09-2.52021E-09
 -1       538 7.42778E+05-7.49622E+03 2.87626E+04 1.27578E+03-9.21133E-10-5.69707E-09
 -1       539 7.51034E+05 8.66829E+03 1.81158E+04-3.28181E+03-6.33332E-10-4.53292E-09
 -1       540 7.45981E+05-1.16598E+03 7.38568E+03-5.81325E+01 3.14888E-10-2.30830E-09
 -1       541 7.47314E+05 1.36176E+03 4.37750E+03-1.53444E+03-6.02691E-10-7.63697E-09
 -1       542 7.46502E+05-1.93294E+02 2.08054E+03-4.71615E+02-7.80769E-10-3.99893E-10
 -1       543 7.46749E+05 3.13078E+02 1.52861E+03-1.02201E+03-2.82242E-10-6.21546E-09
 -1       544 7.46547E+05-1.17775E+02 1.38690E+03-5.70574E+02 8.18148E-10-6.12826E-09
 -1       545 7.46946E+05 7.09823E+02 2.37171E+03-9.94663E+02-4.26460E-10 3.36286E-10
 -1       546 7.46304E+05-5.89748E+02 3.77505E+03-4.98962E+02 8.82628E-10 5.66115E-09
 -1       547 7.48726E+05 4.35265E+03 9.08200E+03-1.41271E+03 2.08149E-09 1.05240E-09
 -1       548 7.44764E+05-3.75796E+03 1.43924E+04-1.52517E+02 1.56771E-09 2.61934E-10
 -1       549 7.59646E+05 2.77774E+04 3.93058E+04-2.89863E+03-1.72560E-09 2.99087E-09
 -1       550 7.35374E+05-2.39961E+04 5.54853E+04 9.86961E+02-3.71486E-10-8.98581E-10
 -1       551 9.09548E+03-5.05970E+05 4.32491E+03-1.16030E+06-2.72557E-08-1.44064E-09
 -1       552 2.96144E+04-5.21550E+05 2.13899E+04-1.65244E+06-2.33413E-08 9.53150E-09
 -1       553 2.21777E+04-5.24479E+05 4.25755E+04-1.15697E+06-3.46918E-08 1.20963E-08
 -1       554 5.48413E+04-5.06000E+05 9.65477E+04-1.65282E+06-2.11658E-08 1.22236E-08
 -1       555 4.36298E+04-5.33752E+05 1.72997E+05-1.15954E+06-3.08937E-08-9.31323E-10
 -1       556 2.41000E+04-1.18566E+05 3.77209E+04-1.61353E+05-8.36735E-10 4.80213E-10
 -1       557 7.18082E+04-1.58270E+05 1.98695E+04-2.01527E+05 4.38376E-09-1.31927E-08
 -1       558 2.43143E+04-1.23314E+05 8.08536E+03-1.57077E+05-4.80213E-10-2.01362E-09
 -1       559 6.59572E+04-1.63514E+05 4.09566E+03-2.03997E+05-1.45519E-10-5.93263E-09
 -1       560 2.32095E+04-1.22549E+05 1.73568E+03-1.57757E+05-7.34872E-10-5.38239E-09
 -1       561 6.41716E+04-1.63114E+05 9.10891E+02-2.05119E+05 2.14641E-09 4.43833E-10
 -1       562 2.23480E+04-1.21955E+05 3.72397E+02-1.58377E+05-4.01997E-09 4.94379E-09
 -1       563 6.31860E+04-1.62698E+05 2.14563E+02-2.05752E+05-7.91988E-09 6.21003E-09
 -1       564 2.18783E+04-1.21643E+05 7.24922E+01-1.58712E+05-1.83354E-09-2.60115E-09
 -1       565 6.27900E+04-1.62533E+05 2.86866E+00-2.05999E+05 2.18824E-09-5.00586E-09
 -1       566 2.18236E+04-1.21599E+05-1.19135E+02-1.58758E+05 4.43811E-09-1.46083E-08
 -1       567 6.29277E+04-1.62600E+05-3.14977E+02-2.05837E+05 2.29193E-10-1.75532E-09
 -1       568 2.22281E+04-1.21860E+05-7.37426E+02-1.58538E+05 4.16003E-09 4.93310E-09
 -1       569 6.27408E+04-1.62754E+05-1.69164E+03-2.04673E+05 3.90719E-09 1.99398E-08
 -1       570 2.37464E+04-1.23409E+05-3.41380E+03-1.58309E+05-2.53567E-09 4.92582E-09
 -1       571 2.28301E+05 7.96089E+03 1.18565E+04-5.53008E+04-1.72804E-11-4.42424E-09
 -1       572 2.30064E+05 2.74153E+03 5.80933E+03-6.06017E+04-1.40290E-09 4.64388E-09
 -1       573 2.29000E+05 6.27342E+02 2.58062E+03-5.51449E+04-1.10322E-09-9.64064E-11
 -1       574 2.29208E+05 1.79427E+02 1.29311E+03-6.07717E+04-1.51363E-09-3.81533E-10
 -1       575 2.29072E+05-1.76531E+00 6.09239E+02-5.51247E+04 3.63798E-12 6.87578E-10
 -1       576 2.29086E+05-2.45058E+01 3.09884E+02-6.07943E+04 1.13261E-09 7.19410E-10
 -1       577 2.29080E+05-3.34500E+01 1.51962E+02-5.51220E+04 9.20124E-10 3.05772E-09
 -1       578 2.29073E+05-3.37192E+01 8.15140E+01-6.07971E+04-4.77485E-10 4.04725E-11
 -1       579 2.29093E+05-3.54543E+01 4.72048E+01-5.51219E+04-5.89353E-10-1.00445E-08
 -1       580 2.29091E+05-4.14925E+01 3.97424E+01-6.07941E+04 5.14774E-10 6.37101E-09
 -1       581 2.29119E+05-4.63761E+01 4.87248E+01-5.51250E+04-1.79534E-09 1.27011E-09
 -1       582 2.29135E+05-4.69857E+01 8.94416E+01-6.07627E+04-6.92580E-10-3.78304E-09
 -1       583 2.29154E+05-2.82942E+01 1.68269E+02-5.51532E+04 4.20187E-10-2.57569E-09
 -1       584 2.29243E+05 9.42403E+01 3.76980E+02-6.05258E+04-4.60568E-09-2.32149E-10
 -1       585 2.29158E+05 4.24244E+02 7.62898E+02-5.53623E+04-1.07320E-09 6.04632E-09
 -1       586-3.04896E+03 7.30136E+04-4.33685E+03-1.80163E+05 1.49680E-09-9.62564E-09
 -1       587-6.02276E+02 7.23857E+04-8.59892E+02-1.98209E+05 1.93540E-09-2.64329E-08
 -1       588 8.07292E+02 7.25722E+04 2.15782E+03-1.80033E+05 1.44428E-09-4.94038E-09
 -1       589 3.67832E+03 7.38429E+04 6.80606E+03-1.98082E+05 2.22281E-09-1.74896E-09
 -1       590 1.02690E+04 7.17445E+04 1.47504E+04-1.80285E+05 1.10958E-09-7.46695E-10
 -1       591-5.03808E+04-1.51079E+04-1.70587E+04-2.69790E+04-5.00415E-09-4.04179E-09
 -1       592-5.17352E+04-1.95391E+04-9.23956E+03-3.17017E+04-1.39412E-08 5.25529E-09
 -1       593-5.21103E+04-1.38468E+04-3.84668E+03-2.82084E+04 5.22277E-10 3.40788E-09
 -1       594-4.93558E+04-1.70633E+04-1.91838E+03-3.18263E+04 9.57652E-09 2.83080E-10
 -1       595-5.22437E+04-1.38401E+04-8.81688E+02-2.82654E+04 1.91744E-09-9.66168E-10
 -1       596-4.91957E+04-1.69496E+04-4.49408E+02-3.18107E+04 1.73549E-09 1.35230E-10
 -1       597-5.22608E+04-1.38507E+04-2.47482E+02-2.82678E+04-4.70351E-10-3.51685E-09
 -1       598-4.91805E+04-1.69453E+04-2.04014E+02-3.18061E+04-2.00350E-09-7.76242E-09
 -1       599-5.22593E+04-1.38510E+04-2.67027E+02-2.82672E+04 1.16609E-09-4.93196E-09
 -1       600-4.91969E+04-1.69514E+04-5.01129E+02-3.18095E+04-2.00816E-09-7.38453E-10
 -1       601-5.22371E+04-1.38399E+04-9.91456E+02-2.82632E+04-5.75255E-10 3.12798E-09
 -1       602-4.93765E+04-1.70796E+04-2.16195E+03-3.18246E+04 1.84900E-09-4.10091E-09
 -1       603-5.20848E+04-1.38498E+04-4.33667E+03-2.81991E+04-1.11640E-10-5.08862E-10
 -1       604-5.20656E+04-1.98625E+04-1.04166E+04-3.16723E+04 8.86757E-11 3.51884E-09
 -1       605-5.01245E+04-1.52785E+04-1.92316E+04-2.68206E+04 1.64619E-09 1.57524E-09
 -1       606 3.50575E+04-1.10231E+04-1.98633E+04 3.43273E+04-1.75642E-08-9.26684E-09
 -1       607 3.16524E+04-3.54403E+03-9.88991E+03 3.85302E+04-2.28574E-08-4.99767E-09
 -1       608 3.35694E+04-5.87560E+02-4.43071E+03 3.40511E+04-6.48834E-09-2.04636E-11
 -1       609 3.31761E+04-1.31354E+02-2.23717E+03 3.88310E+04-3.33785E-09-5.84214E-09
 -1       610 3.33740E+04 5.19301E+01-1.07002E+03 3.40203E+04-1.73222E-08 1.13578E-08
 -1       611 3.32909E+04 7.83320E+01-5.39409E+02 3.88638E+04-3.22252E-08 7.71206E-09
 -1       612 3.33118E+04 7.86724E+01-2.59265E+02 3.40173E+04-1.60871E-08 1.09912E-09
 -1       613 3.32732E+04 9.64575E+01-1.18512E+02 3.88675E+04-7.43921E-09-7.25049E-09
 -1       614 3.32740E+04 8.68796E+01-3.49522E+01 3.40163E+04-1.59980E-09 5.94719E-09
 -1       615 3.32479E+04 1.09278E+02 3.34586E+01 3.88680E+04 8.02765E-09 4.90536E-09
 -1       616 3.32456E+04 9.89095E+01 1.15059E+02 3.40166E+04-5.55610E-09 6.34827E-10
 -1       617 3.32460E+04 1.43368E+02 2.68917E+02 3.88673E+04-2.62776E-09-4.87944E-09
 -1       618 3.32106E+04 1.83780E+02 5.44017E+02 3.40167E+04-2.15095E-10 6.26551E-09
 -1       619 3.34286E+04 5.70007E+02 1.22324E+03 3.88662E+04-2.24327E-09-2.35946E-09
 -1       620 3.30239E+04 1.47918E+03 2.45889E+03 3.40145E+04 2.02908E-09-1.62436E-09
 -1       621 4.67415E+02 2.56589E+05 3.95854E+03 3.94924E+03-5.81963E-10-4.53463E-09
 -1       622 5.23568E+02 2.57574E+05 3.23246E+03 5.83077E+03-4.58670E-10-7.63015E-09
 -1       623 1.91835E+01 2.56891E+05 3.55079E+03 3.93134E+03-4.40764E-10-2.60383E-09
 -1       624 1.55963E+03 2.58526E+05 6.59743E+03 5.84632E+03-6.67342E-10 1.64171E-09
 -1       625 1.56446E+03 2.55634E+05 1.14008E+04 3.93494E+03-4.13365E-10-1.12568E-08
 -1       626 2.04663E+05 5.82868E+04 3.89627E+03 1.12878E+05-8.09905E-10 2.04454E-09
 -1       627 2.01648E+05 6.05959E+04 1.87819E+03 1.17526E+05 8.09450E-11-5.96629E-10
 -1       628 2.04814E+05 5.64272E+04 7.92206E+02 1.13436E+05 3.06318E-09-4.15366E-09
 -1       629 2.01048E+05 6.01800E+04 3.89066E+02 1.17796E+05 7.83893E-09 8.62940E-09
 -1       630 2.04812E+05 5.63449E+04 1.79443E+02 1.13442E+05 9.65792E-09 1.54953E-08
 -1       631 2.00965E+05 6.01770E+04 9.72740E+01 1.17792E+05-3.53248E-09-7.77041E-09
 -1       632 2.04793E+05 5.63570E+04 6.48780E+01 1.13427E+05-1.07093E-08-1.20328E-08
 -1       633 2.00942E+05 6.01866E+04 7.41497E+01 1.17778E+05-8.03448E-09 6.31030E-09
 -1       634 2.04775E+05 5.63610E+04 1.21043E+02 1.13418E+05 3.74939E-09-1.35537E-09
 -1       635 2.00942E+05 6.01906E+04 2.46447E+02 1.17774E+05 3.81124E-09-4.84170E-09
 -1       636 2.04759E+05 5.63618E+04 4.97916E+02 1.13413E+05-4.74711E-09-3.98268E-09
 -1       637 2.01042E+05 6.02707E+04 1.09439E+03 1.17768E+05-2.34240E-09-1.05365E-09
 -1       638 2.04716E+05 5.66059E+04 2.24908E+03 1.13300E+05-2.47189E-09-7.47013E-09
 -1       639 2.02218E+05 6.19161E+04 5.32042E+03 1.17420E+05-7.80710E-09-2.09002E-09
 -1       640 2.04563E+05 6.14990E+04 1.10408E+04 1.11217E+05-1.75851E-09-9.08585E-10
 -1       656 5.63228E+04-1.42187E+06-1.35933E+05 4.06456E+02 8.80391E-10 5.51984E-09
 -1       657-7.44091E+04-1.48317E+06-1.12369E+05 9.93162E+03-7.24867E-10-4.91849E-09
 -1       658 1.78364E+04-1.43936E+06-6.88849E+04-1.35381E+03 3.97199E-09 1.53923E-09
 -1       659-7.96155E+04-1.48564E+06-1.19207E+05 1.10694E+04-9.23137E-10 2.02031E-09
 -1       660 6.15182E+04-1.41940E+06-1.47685E+05-7.31350E+02-1.18598E-09-2.78209E-09
 -1       661 2.14869E+05 2.35920E+04 2.03715E+04 8.40873E+04 4.51291E-09 5.66615E-09
 -1       662 2.25413E+05 3.96349E+04 1.37268E+04 8.06224E+04 4.86017E-09-9.08585E-10
 -1       663 2.18868E+05 3.01281E+04 4.80185E+03 8.29284E+04 1.52590E-09-6.37783E-09
 -1       664 2.20783E+05 3.19872E+04 2.87089E+03 8.20349E+04 3.84489E-09-2.21689E-09
 -1       665 2.19470E+05 3.10247E+04 1.13233E+03 8.27562E+04-2.61667E-09-8.31398E-09
 -1       666 2.20073E+05 3.09593E+04 6.60111E+02 8.22585E+04-9.96233E-09 6.34334E-09
 -1       667 2.19573E+05 3.11289E+04 3.47431E+02 8.27150E+04-3.62570E-09-3.33181E-09
 -1       668 2.19959E+05 3.08812E+04 3.47148E+02 8.23200E+04 7.99020E-09-1.17604E-08
 -1       669 2.19583E+05 3.11002E+04 4.64048E+02 8.26956E+04 5.05966E-09-2.32373E-09
 -1       670 2.20068E+05 3.11338E+04 1.00525E+03 8.23278E+04 1.35302E-08 4.55252E-09
 -1       671 2.19465E+05 3.08812E+04 1.78293E+03 8.27053E+04-3.89846E-10-2.50543E-09
 -1       672 2.21100E+05 3.28746E+04 4.56018E+03 8.20846E+04-8.74580E-09-8.49013E-10
 -1       673 2.18557E+05 2.94030E+04 7.64149E+03 8.29221E+04-2.37958E-09-2.00544E-09
 -1       674 2.28369E+05 4.51539E+04 2.18524E+04 7.99519E+04 1.37561E-11-1.15181E-08
 -1       675 2.12242E+05 1.89450E+04 3.24364E+04 8.47083E+04 4.91309E-09-6.29370E-09
 -1       676 2.34534E+01-2.77244E+05-1.08614E+03 9.53445E+01-2.97547E-09 7.31767E-10
 -1       677-2.87855E+02-2.77507E+05-1.98780E+03-1.90552E+02-1.60237E-08 6.91914E-09
 -1       678 1.92630E+02-2.77057E+05-3.51393E+03 9.51421E+01-2.99019E-09 3.21809E-09
 -1       679-3.51446E+03-2.79629E+05-8.34758E+03-1.89814E+02-4.72664E-09 8.34613E-09
 -1       680 2.09791E+03-2.75124E+05-1.34534E+04 9.35111E+01-4.25189E-09 4.61916E-09
 -1       771-2.99390E+06-4.78991E+05-1.10770E+05-1.18074E+06-9.82618E-09-1.04119E-08
 -1       772-3.00508E+06-5.03817E+05-5.98562E+04-1.20676E+06-3.82715E-09 3.14321E-09
 -1       773-3.00614E+06-4.69878E+05-2.51216E+04-1.18803E+06-4.86034E-09 4.69299E-09
 -1       774-2.98896E+06-4.88920E+05-1.24261E+04-1.20952E+06-3.53975E-09-3.95084E-09
 -1       775-3.00786E+06-4.69064E+05-5.82976E+03-1.18812E+06-1.97542E-09 1.93540E-09
 -1       776-2.98763E+06-4.88831E+05-2.81147E+03-1.21083E+06-1.18962E-09 4.46744E-09
 -1       777-3.00875E+06-4.68484E+05-1.45992E+03-1.18794E+06-1.31695E-09-8.15817E-09
 -1       778-2.98732E+06-4.89293E+05-7.45095E+02-1.21198E+06 9.82982E-09 2.72166E-09
 -1       779-3.00942E+06-4.67957E+05-5.83948E+02-1.18780E+06 2.12094E-09-8.69568E-09
 -1       780-2.98721E+06-4.89684E+05-6.01593E+02-1.21293E+06-4.65661E-10 1.66892E-10
 -1       781-3.00990E+06-4.67520E+05-1.02866E+03-1.18769E+06-5.12955E-10-3.90401E-09
 -1       782-2.98731E+06-4.90082E+05-2.06202E+03-1.21365E+06 3.56886E-09-4.66366E-09
 -1       783-3.01011E+06-4.67239E+05-4.10610E+03-1.18757E+06 4.57840E-09-3.95221E-09
 -1       784-2.98977E+06-4.92918E+05-9.81991E+03-1.21399E+06-3.14867E-09-3.19687E-10
 -1       785-3.00849E+06-4.68389E+05-1.81354E+04-1.18621E+06-7.59701E-09-3.61433E-09
 -1       786 2.41676E+05-1.19877E+04 2.77357E+04 1.02356E+02 7.16270E-06-2.23736E-08
 -1       787 2.53692E+05 1.38782E+04 1.96223E+04 5.55538E+00 1.42631E-05-7.06086E-09
 -1       788 2.46313E+05-1.87921E+03 7.17934E+03 8.64110E+01 9.87360E-06 2.22840E-08
 -1       789 2.48291E+05 2.17446E+03 4.51154E+03 2.68424E+01 5.44536E-06-6.43661E-09
 -1       790 2.47078E+05-2.93610E+02 1.83737E+03 8.10721E+01 1.83460E-06 2.30034E-09
 -1       791 2.47399E+05 3.41620E+02 1.08180E+03 3.05441E+01-1.77140E-06 8.53470E-09
 -1       792 2.47206E+05-4.77519E+01 4.99683E+02 8.27099E+01-4.04391E-06-4.36407E-09
 -1       793 2.47256E+05 6.99752E+01 3.39516E+02 1.97908E+01-6.30210E-06 1.17418E-08
 -1       794 2.47221E+05-2.21453E+01 2.69979E+02 9.18257E+01-3.16018E-06-6.26331E-09
 -1       795 2.47281E+05 1.21479E+02 4.17206E+02-9.69235E+00-1.00747E-08 3.02691E-09
 -1       796 2.47181E+05-9.92217E+01 6.41064E+02 1.12194E+02-5.52965E-10-6.95024E-10
 -1       797 2.47576E+05 7.29345E+02 1.52491E+03-7.02216E+01-6.76636E-10 1.02541E-08
 -1       798 2.46925E+05-6.29569E+02 2.41112E+03 1.52356E+02-1.06474E-09 9.69749E-11
 -1       799 2.49388E+05 4.64941E+03 6.57738E+03-1.88130E+02-1.50465E-09 3.44983E-09
 -1       800 2.45369E+05-4.01614E+03 9.29106E+03 2.30102E+02-3.46180E-10-3.05545E-09
 -1       801-9.80948E+04 2.16999E+06 2.20038E+05 1.55197E+04 1.05720E-08-8.53890E-09
 -1       802 1.44200E+05 2.36469E+06 2.28743E+05-1.22111E+05 2.70184E-08-8.09023E-09
 -1       803-4.33648E+04 2.23515E+06 1.77957E+05-3.47242E+04 2.02926E-08 1.09510E-08
 -1       804 2.65787E+05 2.43031E+06 3.88088E+05-1.29830E+05 2.55532E-08 2.06729E-08
 -1       805-2.19582E+05 2.10461E+06 4.89190E+05 2.32303E+04 8.44011E-09 3.72002E-08
 -1       806-2.47607E+05-5.65768E+04-2.25153E+04-1.06814E+05 1.79489E-09-3.03407E-09
 -1       807-2.48587E+05-5.36991E+04-1.10611E+04-1.13179E+05-6.41293E-10-1.10823E-08
 -1       808-2.48265E+05-4.84242E+04-4.69189E+03-1.10614E+05-2.42537E-10-6.51858E-09
 -1       809-2.46205E+05-5.06494E+04-2.29338E+03-1.13525E+05 5.32538E-10 1.08957E-09
 -1       810-2.48367E+05-4.81350E+04-1.04991E+03-1.10781E+05-2.68983E-10 4.84852E-09
 -1       811-2.46023E+05-5.05301E+04-5.20133E+02-1.13500E+05-1.35697E-09-1.60651E-09
 -1       812-2.48384E+05-4.81561E+04-2.58644E+02-1.10780E+05 8.44466E-10-7.50788E-10
 -1       813-2.45998E+05-5.05342E+04-1.61530E+02-1.13486E+05-5.25233E-11-1.25692E-09
 -1       814-2.48380E+05-4.81654E+04-1.48938E+02-1.10776E+05 3.34921E-09 7.44058E-09
 -1       815-2.45997E+05-5.05378E+04-2.30229E+02-1.13479E+05 4.84920E-09-1.00572E-08
 -1       816-2.48361E+05-4.81659E+04-4.29965E+02-1.10771E+05 1.82172E-09-4.31828E-09
 -1       817-2.46067E+05-5.05801E+04-9.20409E+02-1.13467E+05 4.36739E-09 7.43307E-09
 -1       818-2.48301E+05-4.82984E+04-1.87585E+03-1.10707E+05-6.55746E-10-2.62025E-09
 -1       819-2.47101E+05-5.17023E+04-4.41370E+03-1.13205E+05-3.83807E-09-9.35256E-09
 -1       820-2.47935E+05-5.16414E+04-8.98344E+03-1.09285E+05-3.06136E-09-6.63772E-09
 -1       821-3.25313E+05 1.81857E+04-4.20652E+04 2.00382E+02-1.24212E-09 4.16549E-10
 -1       822-3.43497E+05-2.10556E+04-2.97604E+04-1.70188E+03-2.33846E-09 1.40062E-10
 -1       823-3.32321E+05 2.85334E+03-1.08926E+04 3.68103E+02 5.75408E-10 1.32786E-09
 -1       824-3.35298E+05-3.30305E+03-6.85150E+03-1.66784E+03 8.14531E-11-4.79429E-09
 -1       825-3.33508E+05 4.46607E+02-2.82047E+03 1.66341E+02-2.80109E-09-2.29147E-09
 -1       826-3.33887E+05-5.25595E+02-1.68584E+03-1.00095E+03-5.62459E-09 3.33466E-09
 -1       827-3.33729E+05 7.65571E+01-8.88772E+02-2.98801E+02-5.42001E-09-4.53804E-09
 -1       828-3.33686E+05-1.56728E+02-7.56839E+02-3.23352E+01-9.21490E-09 1.12921E-09
 -1       829-3.33708E+05 7.77063E+01-8.93550E+02-8.02285E+02-9.01856E-10 1.34162E-09
 -1       830-3.33941E+05-5.32046E+02-1.72062E+03 7.69616E+02 2.48299E-09 3.50292E-09
 -1       831-3.33476E+05 4.52864E+02-2.86100E+03-1.10077E+03-5.23016E-09 1.16790E-09
 -1       832-3.35345E+05-3.35275E+03-6.96849E+03 1.01886E+03-2.66538E-09-6.12056E-09
 -1       833-3.32306E+05 2.89703E+03-1.10773E+04-1.05153E+03-1.76087E-09-6.10726E-10
 -1       834-3.43624E+05-2.14009E+04-3.02507E+04 5.98534E+02-9.59746E-10-2.28329E-09
 -1       835-3.25198E+05 1.84862E+04-4.27765E+04-6.80414E+02 9.21949E-09-2.11003E-10
 -1       836-1.07558E+03 3.14084E+05 1.88051E+04-3.12639E+04 3.72802E-09 1.14460E-09
 -1       837 4.21056E+03 3.19868E+05 1.60256E+04-6.26770E+04 4.94038E-09-4.84329E-09
 -1       838-3.64644E+02 3.15698E+05 1.64778E+04-3.11677E+04 4.18640E-09 2.56159E-09
 -1       839 1.06304E+04 3.24648E+05 3.13173E+04-6.27003E+04 5.18185E-09 7.94125E-09
 -1       840-3.14177E+03 3.09252E+05 4.99963E+04-3.12368E+04 3.77986E-09 2.90220E-09
 -1       856-1.12570E+05 9.04886E+03-2.38487E+04-5.97133E+02-4.13149E-09-3.29055E-09
 -1       857-1.22423E+05-1.06082E+04-1.64190E+04 5.24365E+03-4.82532E-09 4.14730E-10
 -1       858-1.16461E+05 1.26713E+03-6.18979E+03-6.28476E+02-5.20612E-09-2.09229E-09
 -1       859-1.17955E+05-1.46775E+03-3.73856E+03 5.29472E+03 1.90767E-09 3.22893E-09
 -1       860-1.17043E+05 1.75542E+02-1.57295E+03-6.48519E+02 1.62186E-09 3.14139E-09
 -1       861-1.17286E+05-1.88010E+02-8.77864E+02 5.32228E+03-1.03773E-08-1.28760E-09
 -1       862-1.17133E+05 2.27326E+01-3.90254E+02-6.56091E+02 6.08478E-09 1.26931E-10
 -1       863-1.17180E+05-8.57281E+00-1.99673E+02 5.32548E+03 1.51815E-08-7.61420E-09
 -1       864-1.17149E+05 1.01821E-01-7.62655E+01-6.51734E+02 8.86325E-09-4.93924E-09
 -1       865-1.17152E+05 2.51812E+01-2.40202E-01 5.30416E+03 1.43716E-08 7.08326E-10
 -1       866-1.17158E+05-1.21013E+01 6.55063E+01-6.34769E+02 5.53922E-09-4.05070E-09
 -1       867-1.17101E+05 1.00243E+02 2.04895E+02 5.25815E+03 3.80066E-09-5.29283E-11
 -1       868-1.17195E+05-7.64325E+01 3.49462E+02-6.05714E+02-9.40133E-10-2.27757E-10
 -1       869-1.16828E+05 6.26227E+02 9.48602E+02 5.18384E+03 2.59615E-09-6.99529E-10
 -1       870-1.17425E+05-5.27943E+02 1.37209E+03-5.60457E+02 3.30851E-09-2.29750E-09
 -1       871-4.82514E+03-8.99525E+03-1.52903E+04 9.94143E+04 2.73394E-09 3.43425E-09
 -1       872-2.17772E+03-1.23979E+04-6.19671E+03 1.28883E+05 4.80486E-09-3.07409E-10
 -1       873-1.44045E+02-1.08420E+04 9.74930E+02 9.91974E+04 2.26828E-09 7.80983E-09
 -1       874 2.26765E+03-8.54177E+03 8.86921E+03 1.28933E+05 9.50331E-09 1.42190E-08
 -1       875 5.56759E+03-1.29302E+04 1.96051E+04 9.93824E+04 4.97857E-09 8.04084E-09
 -1       876 2.54094E+05 4.41237E+04 1.37597E+04 1.03494E+05-8.33791E-09-6.13272E-09
 -1       877 2.54834E+05 4.71921E+04 7.34814E+03 1.07610E+05-9.50058E-09-3.48223E-10
 -1       878 2.55378E+05 4.26024E+04 3.07836E+03 1.04624E+05 1.84627E-09-1.13232E-09
 -1       879 2.52960E+05 4.53285E+04 1.53352E+03 1.07706E+05-9.54742E-10 6.83372E-10
 -1       880 2.55470E+05 4.25865E+04 7.13720E+02 1.04670E+05 4.68390E-10 5.84816E-09
 -1       881 2.52836E+05 4.52492E+04 3.79911E+02 1.07685E+05 3.49064E-09-1.06367E-09
 -1       882 2.55478E+05 4.25984E+04 2.40762E+02 1.04671E+05-1.87151E-09 5.87263E-09
 -1       883 2.52827E+05 4.52453E+04 2.55249E+02 1.07679E+05-2.22985E-08 7.49367E-09
 -1       884 2.55473E+05 4.25959E+04 4.02708E+02 1.04672E+05-1.15564E-08 4.23768E-09
 -1       885 2.52858E+05 4.52510E+04 8.07573E+02 1.07689E+05-1.30268E-09-2.95120E-09
 -1       886 2.55442E+05 4.25723E+04 1.62657E+03 1.04668E+05 1.24029E-09 1.96496E-09
 -1       887 2.53144E+05 4.54384E+04 3.55257E+03 1.07730E+05-3.32196E-09-1.20338E-08
 -1       888 2.55218E+05 4.26113E+04 7.15828E+03 1.04555E+05-5.02575E-09 4.06044E-09
 -1       889 2.57412E+05 4.98654E+04 1.71002E+04 1.07595E+05-8.42567E-09 5.11136E-09
 -1       890 2.52304E+05 4.60733E+04 3.20276E+04 1.01821E+05-2.34172E-09-9.89530E-10
 -1       891-1.87772E+02-1.45254E+05-1.70106E+03 2.83682E+04 1.75874E-09 5.60067E-09
 -1       892-3.21589E+02-1.45643E+05-1.85555E+03 4.28910E+04-3.52384E-09 7.93625E-09
 -1       893-7.88111E+01-1.45302E+05-2.65778E+03 2.83738E+04-3.12571E-09 9.85347E-09
 -1       894-1.50617E+03-1.46652E+05-5.52127E+03 4.27383E+04-5.82259E-09-5.40422E-09
 -1       895-1.17755E+03-1.44143E+05-9.73343E+03 2.85174E+04 1.23157E-09-5.46333E-09
 -1       956-3.17960E+05-4.63818E+03-1.17153E+04 2.05083E+04-5.74983E-09 5.11591E-10
 -1       957-3.20277E+05-1.54945E+03-6.01393E+03 2.47104E+04-1.67438E-09 5.45515E-09
 -1       958-3.19002E+05-1.08200E+02-2.70972E+03 2.03660E+04 5.48062E-09 1.64391E-10
 -1       959-3.19192E+05 1.11399E+00-1.38384E+03 2.48623E+04-3.51611E-09 3.63616E-09
 -1       960-3.19098E+05 5.78682E+01-6.74584E+02 2.03521E+04-8.49013E-09-7.05768E-10
 -1       961-3.19116E+05 6.12712E+01-3.57284E+02 2.48782E+04-9.96215E-09 3.00929E-09
 -1       962-3.19119E+05 5.46755E+01-2.03571E+02 2.03497E+04-9.13451E-09 8.13998E-09
 -1       963-3.19115E+05 6.41105E+01-1.61481E+02 2.48815E+04-1.65193E-08 1.19151E-08
 -1       964-3.19124E+05 5.80014E+01-1.93768E+02 2.03487E+04-5.64864E-09 2.26237E-09
 -1       965-3.19128E+05 6.85476E+01-3.32865E+02 2.48821E+04 3.34026E-09-1.34514E-09
 -1       966-3.19116E+05 6.76857E+01-6.23770E+02 2.03492E+04-5.35022E-09-5.65149E-09
 -1       967-3.19211E+05 1.99488E+01-1.27885E+03 2.48748E+04-3.19869E-09 1.76908E-09
 -1       968-3.19037E+05-7.92023E+01-2.50244E+03 2.03562E+04-1.38743E-09-3.35064E-10
 -1       969-3.20226E+05-1.40661E+03-5.55626E+03 2.47944E+04 1.19030E-09-6.11965E-09
 -1       970-3.18083E+05-4.26046E+03-1.08224E+04 2.04356E+04 4.32556E-09 7.10224E-09
 -1       971-3.04344E+05-1.61846E+03-9.07784E+03 1.50101E+04-6.47742E-09 2.32095E-09
 -1       972-3.06558E+05-1.14695E+03-4.94332E+03 2.10317E+04-5.72345E-09-9.39144E-09
 -1       973-3.05356E+05 5.74361E+00-2.21383E+03 1.48811E+04-7.10315E-09-7.84894E-10
 -1       974-3.05518E+05 1.53575E+01-1.14648E+03 2.11700E+04 1.78898E-09 1.63936E-09
 -1       975-3.05437E+05 5.00422E+01-5.71571E+02 1.48689E+04-9.54969E-10 4.59079E-09
 -1       976-3.05459E+05 6.45353E+01-3.26534E+02 2.11851E+04-8.69773E-09-3.39594E-09
 -1       977-3.05454E+05 5.09552E+01-2.31542E+02 1.48658E+04 8.76526E-10 1.28728E-09
 -1       978-3.05464E+05 7.07339E+01-2.63357E+02 2.11895E+04 1.20228E-08 4.05248E-09
 -1       979-3.05454E+05 5.85705E+01-4.16747E+02 1.48645E+04 5.79621E-09 1.66244E-09
 -1       980-3.05495E+05 7.35465E+01-8.00685E+02 2.11902E+04 6.68379E-09-2.58387E-09
 -1       981-3.05429E+05 7.83729E+01-1.54876E+03 1.48650E+04-9.15406E-10 1.40216E-09
 -1       982-3.05707E+05-4.12779E+01-3.20015E+03 2.11834E+04-2.42710E-09-5.34661E-09
 -1       983-3.05233E+05-2.14089E+01-6.21754E+03 1.48716E+04 5.35829E-09-2.38197E-09
 -1       984-3.08695E+05-3.28953E+03-1.39232E+04 2.10969E+04 5.99357E-09 5.67070E-09
 -1       985-3.02416E+05-4.57184E+03-2.55676E+04 1.49621E+04 6.64249E-09 4.62751E-09
 -3
    1PSTEP                        21          11           1          
  100CL  111 6.38672E-01         409                     0   11           1
 -4  DISP        4    1
 -5  D1          1    2    1    0
 -5  D2          1    2    2    0
 -5  D3          1    2    3    0
 -5  ALL         1    2    0    0    1ALL
 -1         1 1.75195E-03 0.00000E+00 0.00000E+00
 -1         2 1.76649E-03-5.44159E-29 1.29247E-26
 -1         3 9.11947E-05-1.76787E-27 3.30872E-24
 -1         5 8.25024E-05 1.03133E-26 6.61744E-24
 -1         8 1.71328E-03-1.58135E-06 0.00000E+00
 -1         9 1.72953E-03-1.32246E-07 0.00000E+00
 -1        10 8.64419E-05-5.93409E-07 0.00000E+00
 -1        12 8.13368E-05 6.89102E-07 0.00000E+00
 -1        15 1.66743E-03-1.78899E-06 4.13590E-25
 -1        16 1.66732E-03 3.42577E-08 0.00000E+00
 -1        17 7.10425E-05-1.25615E-06 0.00000E+00
 -1        18 7.65381E-05-5.49760E-06 0.00000E+00
 -1        19 7.78399E-05 1.37368E-06 0.00000E+00
 -1        20 7.80204E-05 2.59895E-05 0.00000E+00
 -1        21 7.73834E-05 5.03760E-05 0.00000E+00
 -1        24 2.37486E-05-2.51603E-06 0.00000E+00
 -1        25 7.18939E-05-5.34794E-06 0.00000E+00
 -1        26 7.33346E-05 1.92229E-06 0.00000E+00
 -1        27 7.14303E-05 2.29499E-05 0.00000E+00
 -1        28 7.07270E-05 4.97784E-05 0.00000E+00
 -1        32 0.00000E+00 0.00000E+00 0.00000E+00
 -1        33 6.69933E-05 2.58292E-06 0.00000E+00
 -1        34 6.51605E-05 2.29222E-05 0.00000E+00
 -1        35 6.33973E-05 4.94641E-05 0.00000E+00
 -1        51 1.74943E-03-2.51632E-07 0.00000E+00
 -1        52 1.74476E-03-5.02438E-07 0.00000E+00
 -1        53 1.73837E-03-7.58644E-07 0.00000E+00
 -1        54 1.73070E-03-1.02229E-06 6.61744E-24
 -1        55 1.72219E-03-1.29365E-06 1.32349E-23
 -1        56 1.75109E-03-1.29170E-06-2.64698E-23
 -1        57 1.75077E-03-4.16343E-06-1.32349E-23
 -1        58 1.75091E-03-8.25388E-06-2.64698E-23
 -1        59 1.75135E-03-1.31834E-05-1.32349E-23
 -1        60 1.75194E-03-1.85181E-05-2.64698E-23
 -1        61 1.75251E-03-2.38152E-05 1.32349E-23
 -1        62 1.75291E-03-2.86334E-05 0.00000E+00
 -1        63 1.75297E-03-3.25457E-05 1.32349E-23
 -1        64 1.75256E-03-3.51781E-05-2.64698E-23
 -1        65 1.75154E-03-3.61934E-05 1.32349E-23
 -1        66 1.74983E-03-3.53491E-05 2.64698E-23
 -1        67 1.74734E-03-3.24556E-05-1.32349E-23
 -1        68 1.74405E-03-2.74436E-05 2.64698E-23
 -1        69 1.73995E-03-2.03012E-05-1.32349E-23
 -1        70 1.73508E-03-1.11461E-05 0.00000E+00
 -1        86 1.76547E-03 3.40617E-09 5.16988E-26
 -1        87 1.76240E-03 2.58940E-09-1.03398E-25
 -1        88 1.75728E-03-6.32398E-09 4.13590E-25
 -1        89 1.75010E-03-2.86461E-08 4.13590E-25
 -1        90 1.74085E-03-6.68205E-08 3.30872E-24
 -1       121 9.10625E-05-9.84618E-08-3.30872E-24
 -1       122 9.06657E-05-1.96994E-07 1.65436E-24
 -1       123 9.00047E-05-2.95665E-07 3.30872E-24
 -1       124 8.90800E-05-3.94564E-07 0.00000E+00
 -1       125 8.78920E-05-4.93732E-07-3.30872E-24
 -1       191 8.24700E-05 1.14878E-07 0.00000E+00
 -1       192 8.23729E-05 2.29751E-07 0.00000E+00
 -1       193 8.22110E-05 3.44616E-07 6.61744E-24
 -1       194 8.19844E-05 4.59467E-07 0.00000E+00
 -1       195 8.16930E-05 5.74298E-07 0.00000E+00
 -1       251 1.71423E-03 4.16095E-06 0.00000E+00
 -1       252 1.71525E-03 6.29106E-06 0.00000E+00
 -1       253 1.71626E-03 6.08434E-06 0.00000E+00
 -1       254 1.71729E-03 4.71336E-06 0.00000E+00
 -1       255 1.71832E-03 2.59648E-06 2.64698E-23
 -1       256 1.71935E-03 1.19849E-07 0.00000E+00
 -1       257 1.72038E-03-2.56483E-06-2.64698E-23
 -1       258 1.72141E-03-5.31479E-06 0.00000E+00
 -1       259 1.72244E-03-8.02994E-06-2.64698E-23
 -1       260 1.72347E-03-1.06086E-05 0.00000E+00
 -1       261 1.72451E-03-1.28601E-05 0.00000E+00
 -1       262 1.72554E-03-1.45798E-05 0.00000E+00
 -1       263 1.72657E-03-1.52161E-05-2.64698E-23
 -1       264 1.72759E-03-1.41707E-05 0.00000E+00
 -1       265 1.72860E-03-9.75478E-06 1.32349E-23
 -1       266 1.70564E-03-1.63565E-06 0.00000E+00
 -1       267 1.69800E-03-1.66786E-06 0.00000E+00
 -1       268 1.69036E-03-1.70146E-06 0.00000E+00
 -1       269 1.68272E-03-1.73092E-06 0.00000E+00
 -1       270 1.67507E-03-1.76028E-06 8.27181E-25
 -1       271 1.70856E-03 3.67339E-06 5.29396E-23
 -1       272 1.70480E-03 6.15721E-06 0.00000E+00
 -1       273 1.70196E-03 6.20165E-06 0.00000E+00
 -1       274 1.69988E-03 4.17938E-06-2.64698E-23
 -1       275 1.69841E-03 5.41487E-07 0.00000E+00
 -1       276 1.69735E-03-4.21473E-06 2.64698E-23
 -1       277 1.69650E-03-9.55326E-06 0.00000E+00
 -1       278 1.69566E-03-1.49203E-05-2.64698E-23
 -1       279 1.69463E-03-1.97613E-05-5.29396E-23
 -1       280 1.69320E-03-2.35377E-05-2.64698E-23
 -1       281 1.69119E-03-2.57475E-05 0.00000E+00
 -1       282 1.68843E-03-2.59373E-05-2.64698E-23
 -1       283 1.68476E-03-2.37221E-05 0.00000E+00
 -1       284 1.68006E-03-1.87884E-05-2.64698E-23
 -1       285 1.67424E-03-1.09214E-05 0.00000E+00
 -1       301 1.71860E-03-1.10507E-07 0.00000E+00
 -1       302 1.70871E-03-6.69718E-08 0.00000E+00
 -1       303 1.69926E-03-1.91972E-08-8.27181E-25
 -1       304 1.68961E-03 2.39169E-08-1.65436E-24
 -1       305 1.67917E-03 5.52989E-08 7.44463E-24
 -1       306 1.66779E-03 1.22467E-04-1.05879E-22
 -1       307 1.47784E-03 4.38285E-04 2.64698E-23
 -1       308 1.16022E-03 8.87655E-04 0.00000E+00
 -1       309 7.51294E-04 1.40814E-03 0.00000E+00
 -1       310 3.32999E-04 1.93537E-03 1.05879E-22
 -1       311-9.92499E-06 2.40632E-03 5.29396E-23
 -1       312-2.31277E-04 2.75855E-03 1.05879E-22
 -1       313-3.19450E-04 2.92929E-03 5.29396E-23
 -1       314-3.07798E-04 2.87677E-03 1.05879E-22
 -1       315-2.48568E-04 2.59669E-03 0.00000E+00
 -1       316-1.83847E-04 2.13047E-03 1.05879E-22
 -1       317-1.33014E-04 1.54793E-03 0.00000E+00
 -1       318-8.42027E-05 9.52396E-04 5.29396E-23
 -1       319-2.23597E-05 4.48438E-04 2.64698E-23
 -1       320 4.14397E-05 1.12744E-04-5.29396E-23
 -1       336 8.46955E-05-7.01346E-07-3.30872E-24
 -1       337 8.26186E-05-8.10121E-07 0.00000E+00
 -1       338 8.02126E-05-9.19645E-07 0.00000E+00
 -1       339 7.74797E-05-1.03028E-06 0.00000E+00
 -1       340 7.44221E-05-1.14179E-06-3.30872E-24
 -1       406 8.09158E-05 8.03869E-07-6.61744E-24
 -1       407 8.04300E-05 9.18569E-07 0.00000E+00
 -1       408 7.98794E-05 1.03317E-06 0.00000E+00
 -1       409 7.92640E-05 1.14751E-06 0.00000E+00
 -1       410 7.85840E-05 1.26138E-06-6.61744E-24
 -1       521 1.60453E-03 1.22886E-04-1.05879E-22
 -1       522 1.41466E-03 4.37442E-04 0.00000E+00
 -1       523 1.09891E-03 8.84412E-04 0.00000E+00
 -1       524 6.94968E-04 1.40077E-03 5.29396E-23
 -1       525 2.82288E-04 1.92351E-03 0.00000E+00
 -1       526-5.70608E-05 2.39077E-03 5.29396E-23
 -1       527-2.76363E-04 2.73965E-03-2.11758E-22
 -1       528-3.64086E-04 2.90802E-03 0.00000E+00
 -1       529-3.52722E-04 2.85372E-03 0.00000E+00
 -1       530-2.94248E-04 2.57368E-03 0.00000E+00
 -1       531-2.29993E-04 2.10956E-03 1.05879E-22
 -1       532-1.78743E-04 1.53252E-03-5.29396E-23
 -1       533-1.29337E-04 9.43137E-04 0.00000E+00
 -1       534-6.76818E-05 4.43289E-04 5.29396E-23
 -1       535-4.75185E-06 1.10423E-04 0.00000E+00
 -1       536 7.13625E-05 1.45134E-06 0.00000E+00
 -1       537 7.17057E-05 2.52232E-06-3.30872E-24
 -1       538 7.20482E-05 2.56949E-06 0.00000E+00
 -1       539 7.23944E-05 2.18921E-06 0.00000E+00
 -1       540 7.27406E-05 1.54192E-06 0.00000E+00
 -1       541 7.30875E-05 7.83890E-07 0.00000E+00
 -1       542 7.34345E-05-4.22388E-08 0.00000E+00
 -1       543 7.37816E-05-8.94856E-07 0.00000E+00
 -1       544 7.41287E-05-1.75954E-06-1.32349E-23
 -1       545 7.44757E-05-2.62210E-06 0.00000E+00
 -1       546 7.48227E-05-3.46610E-06 1.32349E-23
 -1       547 7.51692E-05-4.27483E-06 0.00000E+00
 -1       548 7.55158E-05-4.99542E-06 6.61744E-24
 -1       549 7.58601E-05-5.57358E-06 3.30872E-24
 -1       550 7.62053E-05-5.80942E-06 0.00000E+00
 -1       551 6.50871E-05-1.44671E-06 0.00000E+00
 -1       552 5.71567E-05-1.64879E-06 1.65436E-24
 -1       553 4.81496E-05-1.85885E-06-6.61744E-24
 -1       554 3.89747E-05-2.07325E-06 0.00000E+00
 -1       555 3.05410E-05-2.28564E-06 0.00000E+00
 -1       556 6.98970E-05 1.65453E-06 0.00000E+00
 -1       557 6.90887E-05 3.68817E-06 6.61744E-24
 -1       558 6.85771E-05 4.93700E-06 0.00000E+00
 -1       559 6.83242E-05 5.49950E-06 0.00000E+00
 -1       560 6.82925E-05 5.47390E-06 0.00000E+00
 -1       561 6.84442E-05 4.95895E-06 0.00000E+00
 -1       562 6.87423E-05 4.05344E-06 0.00000E+00
 -1       563 6.91495E-05 2.85626E-06 0.00000E+00
 -1       564 6.96288E-05 1.46639E-06 0.00000E+00
 -1       565 7.01431E-05-1.72226E-08-4.13590E-25
 -1       566 7.06554E-05-1.49557E-06-2.06795E-25
 -1       567 7.11288E-05-2.86964E-06 0.00000E+00
 -1       568 7.15263E-05-4.04049E-06 0.00000E+00
 -1       569 7.18108E-05-4.90929E-06 0.00000E+00
 -1       570 7.19452E-05-5.37720E-06 0.00000E+00
 -1       571 7.66172E-05-4.98623E-06 4.13590E-25
 -1       572 7.66980E-05-4.53044E-06-4.13590E-25
 -1       573 7.67792E-05-4.12113E-06 1.65436E-24
 -1       574 7.68607E-05-3.74872E-06-1.65436E-24
 -1       575 7.69423E-05-3.40354E-06 3.30872E-24
 -1       576 7.70240E-05-3.07590E-06 0.00000E+00
 -1       577 7.71056E-05-2.75607E-06-3.30872E-24
 -1       578 7.71873E-05-2.43432E-06-1.65436E-24
 -1       579 7.72690E-05-2.10093E-06-3.30872E-24
 -1       580 7.73506E-05-1.74616E-06 0.00000E+00
 -1       581 7.74323E-05-1.36029E-06 0.00000E+00
 -1       582 7.75139E-05-9.33604E-07 0.00000E+00
 -1       583 7.75955E-05-4.56385E-07 0.00000E+00
 -1       584 7.76770E-05 8.09752E-08 0.00000E+00
 -1       585 7.77585E-05 6.88047E-07 3.30872E-24
 -1       586 7.57622E-05-5.47103E-06 0.00000E+00
 -1       587 7.49460E-05-5.44528E-06 4.13590E-25
 -1       588 7.41201E-05-5.41983E-06-4.13590E-25
 -1       589 7.33156E-05-5.39478E-06 0.00000E+00
 -1       590 7.25634E-05-5.37034E-06 0.00000E+00
 -1       591 7.63107E-05-4.95228E-06-2.06795E-25
 -1       592 7.60996E-05-4.45964E-06 0.00000E+00
 -1       593 7.59045E-05-4.01007E-06-8.27181E-25
 -1       594 7.57219E-05-3.59481E-06 0.00000E+00
 -1       595 7.55488E-05-3.20500E-06 0.00000E+00
 -1       596 7.53818E-05-2.83183E-06 0.00000E+00
 -1       597 7.52178E-05-2.46648E-06-8.27181E-25
 -1       598 7.50534E-05-2.10017E-06 0.00000E+00
 -1       599 7.48853E-05-1.72409E-06 0.00000E+00
 -1       600 7.47103E-05-1.32944E-06 2.06795E-25
 -1       601 7.45250E-05-9.07438E-07-4.13590E-25
 -1       602 7.43262E-05-4.49261E-07 0.00000E+00
 -1       603 7.41106E-05 5.38869E-08-2.06795E-25
 -1       604 7.38752E-05 6.10871E-07 0.00000E+00
 -1       605 7.36166E-05 1.23045E-06 0.00000E+00
 -1       606 7.78558E-05 2.24694E-06 3.30872E-24
 -1       607 7.78687E-05 3.24794E-06 0.00000E+00
 -1       608 7.78808E-05 4.36919E-06 0.00000E+00
 -1       609 7.78924E-05 5.60223E-06 0.00000E+00
 -1       610 7.79038E-05 6.93858E-06 0.00000E+00
 -1       611 7.79150E-05 8.36962E-06 0.00000E+00
 -1       612 7.79260E-05 9.88670E-06 3.30872E-24
 -1       613 7.79369E-05 1.14812E-05-1.65436E-24
 -1       614 7.79477E-05 1.31446E-05 0.00000E+00
 -1       615 7.79584E-05 1.48681E-05 0.00000E+00
 -1       616 7.79690E-05 1.66431E-05 0.00000E+00
 -1       617 7.79795E-05 1.84611E-05 0.00000E+00
 -1       618 7.79900E-05 2.03133E-05 0.00000E+00
 -1       619 7.80003E-05 2.21912E-05 0.00000E+00
 -1       620 7.80106E-05 2.40862E-05 0.00000E+00
 -1       621 7.70725E-05 1.46510E-06 3.30872E-24
 -1       622 7.63150E-05 1.55704E-06 1.65436E-24
 -1       623 7.55650E-05 1.64898E-06-3.30872E-24
 -1       624 7.48199E-05 1.74079E-06 0.00000E+00
 -1       625 7.40773E-05 1.83244E-06-1.65436E-24
 -1       626 7.76073E-05 2.27393E-06 6.61744E-24
 -1       627 7.73351E-05 3.28120E-06 0.00000E+00
 -1       628 7.70265E-05 4.38596E-06 0.00000E+00
 -1       629 7.66851E-05 5.57799E-06-3.30872E-24
 -1       630 7.63147E-05 6.84709E-06 0.00000E+00
 -1       631 7.59193E-05 8.18296E-06-1.65436E-24
 -1       632 7.55025E-05 9.57529E-06-3.30872E-24
 -1       633 7.50684E-05 1.10138E-05 0.00000E+00
 -1       634 7.46208E-05 1.24882E-05 3.30872E-24
 -1       635 7.41635E-05 1.39883E-05 0.00000E+00
 -1       636 7.37005E-05 1.55036E-05 0.00000E+00
 -1       637 7.32355E-05 1.70240E-05 0.00000E+00
 -1       638 7.27724E-05 1.85391E-05 1.65436E-24
 -1       639 7.23149E-05 2.00387E-05 8.27181E-25
 -1       640 7.18668E-05 2.15124E-05 0.00000E+00
 -1       656 7.63812E-05 2.54946E-05 6.61744E-24
 -1       657 7.51990E-05 2.49802E-05 0.00000E+00
 -1       658 7.43015E-05 2.44677E-05 0.00000E+00
 -1       659 7.35104E-05 2.39556E-05-6.61744E-24
 -1       660 7.26209E-05 2.34418E-05 0.00000E+00
 -1       661 7.74150E-05 2.78637E-05-1.65436E-24
 -1       662 7.68364E-05 2.96776E-05 0.00000E+00
 -1       663 7.62799E-05 3.14322E-05 0.00000E+00
 -1       664 7.57453E-05 3.31305E-05 0.00000E+00
 -1       665 7.52312E-05 3.47746E-05 0.00000E+00
 -1       666 7.47368E-05 3.63666E-05 0.00000E+00
 -1       667 7.42613E-05 3.79086E-05 0.00000E+00
 -1       668 7.38040E-05 3.94023E-05 0.00000E+00
 -1       669 7.33642E-05 4.08493E-05 0.00000E+00
 -1       670 7.29414E-05 4.22512E-05 0.00000E+00
 -1       671 7.25351E-05 4.36093E-05-3.30872E-24
 -1       672 7.21446E-05 4.49249E-05-1.65436E-24
 -1       673 7.17696E-05 4.61990E-05 0.00000E+00
 -1       674 7.14089E-05 4.74322E-05 8.27181E-25
 -1       675 7.10635E-05 4.86259E-05 8.27181E-25
 -1       676 7.62703E-05 5.02758E-05 3.30872E-24
 -1       677 7.51578E-05 5.01757E-05 0.00000E+00
 -1       678 7.40466E-05 5.00756E-05 0.00000E+00
 -1       679 7.29373E-05 4.99758E-05-1.65436E-24
 -1       680 7.18306E-05 4.98760E-05 1.65436E-24
 -1       771 2.09524E-05 1.18782E-06 0.00000E+00
 -1       772 1.83848E-05 4.22756E-06 0.00000E+00
 -1       773 1.60519E-05 6.64283E-06 0.00000E+00
 -1       774 1.39385E-05 8.47061E-06 0.00000E+00
 -1       775 1.20314E-05 9.74976E-06 0.00000E+00
 -1       776 1.03153E-05 1.05207E-05 0.00000E+00
 -1       777 8.77461E-06 1.08249E-05 5.29396E-23
 -1       778 7.39297E-06 1.07056E-05-2.64698E-23
 -1       779 6.15371E-06 1.02068E-05 0.00000E+00
 -1       780 5.03968E-06 9.37391E-06-2.64698E-23
 -1       781 4.03353E-06 8.25301E-06 0.00000E+00
 -1       782 3.11757E-06 6.89131E-06-2.64698E-23
 -1       783 2.27395E-06 5.33646E-06 5.29396E-23
 -1       784 1.48483E-06 3.63694E-06 0.00000E+00
 -1       785 7.31903E-07 1.84140E-06-2.64698E-23
 -1       786 7.19792E-05-4.89692E-06 8.27181E-25
 -1       787 7.20691E-05-4.46975E-06-8.27181E-25
 -1       788 7.21587E-05-4.06000E-06-1.65436E-24
 -1       789 7.22491E-05-3.66133E-06-1.65436E-24
 -1       790 7.23397E-05-3.26978E-06 3.30872E-24
 -1       791 7.24303E-05-2.88139E-06 0.00000E+00
 -1       792 7.25210E-05-2.49290E-06 0.00000E+00
 -1       793 7.26118E-05-2.10105E-06 0.00000E+00
 -1       794 7.27025E-05-1.70185E-06 0.00000E+00
 -1       795 7.27933E-05-1.29128E-06 1.65436E-24
 -1       796 7.28840E-05-8.62888E-07 0.00000E+00
 -1       797 7.29746E-05-4.10143E-07 0.00000E+00
 -1       798 7.30653E-05 7.87050E-08-3.30872E-24
 -1       799 7.31556E-05 6.15550E-07 0.00000E+00
 -1       800 7.32459E-05 1.22259E-06 1.65436E-24
 -1       801 6.68763E-05-4.39774E-06 0.00000E+00
 -1       802 5.30621E-05-3.48871E-06 0.00000E+00
 -1       803 3.49784E-05-2.64494E-06 2.64698E-23
 -1       804 1.69517E-05-1.80904E-06 0.00000E+00
 -1       805 3.65723E-06-9.00258E-07 0.00000E+00
 -1       806 7.16295E-05-4.95075E-06 0.00000E+00
 -1       807 7.13682E-05-4.57262E-06 1.65436E-24
 -1       808 7.11103E-05-4.20590E-06 3.30872E-24
 -1       809 7.08538E-05-3.84380E-06 0.00000E+00
 -1       810 7.05962E-05-3.47957E-06 0.00000E+00
 -1       811 7.03353E-05-3.10647E-06 0.00000E+00
 -1       812 7.00685E-05-2.71781E-06 3.30872E-24
 -1       813 6.97934E-05-2.30690E-06 0.00000E+00
 -1       814 6.95073E-05-1.86705E-06 1.65436E-24
 -1       815 6.92079E-05-1.39157E-06-8.27181E-25
 -1       816 6.88926E-05-8.73787E-07 0.00000E+00
 -1       817 6.85590E-05-3.07022E-07 1.65436E-24
 -1       818 6.82044E-05 3.15399E-07 0.00000E+00
 -1       819 6.78267E-05 1.00012E-06 0.00000E+00
 -1       820 6.74233E-05 1.75379E-06 3.30872E-24
 -1       821 7.32232E-05 2.53182E-06 8.27181E-25
 -1       822 7.31050E-05 2.87033E-06-8.27181E-25
 -1       823 7.29873E-05 3.07187E-06 3.30872E-24
 -1       824 7.28683E-05 3.27123E-06 0.00000E+00
 -1       825 7.27492E-05 3.60361E-06 3.30872E-24
 -1       826 7.26298E-05 4.20353E-06 0.00000E+00
 -1       827 7.25100E-05 5.14064E-06 0.00000E+00
 -1       828 7.23898E-05 6.48284E-06 0.00000E+00
 -1       829 7.22690E-05 8.19985E-06-3.30872E-24
 -1       830 7.21476E-05 1.02594E-05 0.00000E+00
 -1       831 7.20258E-05 1.25463E-05 0.00000E+00
 -1       832 7.19040E-05 1.49441E-05 0.00000E+00
 -1       833 7.17824E-05 1.73093E-05 0.00000E+00
 -1       834 7.16624E-05 1.94990E-05 8.27181E-25
 -1       835 7.15425E-05 2.14122E-05 0.00000E+00
 -1       836 7.24558E-05 2.03235E-06 3.30872E-24
 -1       837 7.14228E-05 2.14475E-06 0.00000E+00
 -1       838 7.02976E-05 2.25688E-06 3.30872E-24
 -1       839 6.91428E-05 2.36829E-06 0.00000E+00
 -1       840 6.80206E-05 2.47956E-06 8.27181E-25
 -1       856 7.13910E-05 2.43704E-05 0.00000E+00
 -1       857 7.13476E-05 2.59243E-05-2.06795E-25
 -1       858 7.13042E-05 2.75905E-05 0.00000E+00
 -1       859 7.12600E-05 2.93479E-05 4.13590E-25
 -1       860 7.12156E-05 3.11754E-05 1.65436E-24
 -1       861 7.11710E-05 3.30515E-05 0.00000E+00
 -1       862 7.11263E-05 3.49548E-05-1.65436E-24
 -1       863 7.10816E-05 3.68638E-05-8.27181E-25
 -1       864 7.10368E-05 3.87571E-05 1.65436E-24
 -1       865 7.09922E-05 4.06132E-05 8.27181E-25
 -1       866 7.09476E-05 4.24108E-05 1.65436E-24
 -1       867 7.09032E-05 4.41283E-05 8.27181E-25
 -1       868 7.08590E-05 4.57448E-05 0.00000E+00
 -1       869 7.08148E-05 4.72391E-05 0.00000E+00
 -1       870 7.07709E-05 4.85905E-05 0.00000E+00
 -1       871 7.02526E-05 2.29487E-05-8.27181E-25
 -1       872 6.91983E-05 2.29450E-05 0.00000E+00
 -1       873 6.82151E-05 2.29409E-05 0.00000E+00
 -1       874 6.72497E-05 2.29362E-05-2.06795E-25
 -1       875 6.62490E-05 2.29309E-05 4.13590E-25
 -1       876 7.10111E-05 2.43807E-05-3.30872E-24
 -1       877 7.05701E-05 2.58766E-05 0.00000E+00
 -1       878 7.01079E-05 2.74295E-05-3.30872E-24
 -1       879 6.96272E-05 2.90321E-05 1.65436E-24
 -1       880 6.91306E-05 3.06771E-05 0.00000E+00
 -1       881 6.86210E-05 3.23570E-05-1.65436E-24
 -1       882 6.81009E-05 3.40646E-05-3.30872E-24
 -1       883 6.75732E-05 3.57924E-05-1.65436E-24
 -1       884 6.70406E-05 3.75332E-05-3.30872E-24
 -1       885 6.65058E-05 3.92797E-05-1.65436E-24
 -1       886 6.59717E-05 4.10245E-05 0.00000E+00
 -1       887 6.54408E-05 4.27603E-05-1.65436E-24
 -1       888 6.49159E-05 4.44797E-05 0.00000E+00
 -1       889 6.43993E-05 4.61754E-05 0.00000E+00
 -1       890 6.38939E-05 4.78398E-05 1.65436E-24
 -1       891 6.96511E-05 4.97259E-05 1.65436E-24
 -1       892 6.85525E-05 4.96733E-05-4.13590E-25
 -1       893 6.74045E-05 4.96206E-05-8.27181E-25
 -1       894 6.61804E-05 4.95680E-05 4.13590E-25
 -1       895 6.48534E-05 4.95154E-05 8.27181E-25
 -1       956 6.68811E-05 3.56607E-06-1.65436E-24
 -1       957 6.67670E-05 4.62420E-06-8.27181E-25
 -1       958 6.66525E-05 5.74990E-06 1.65436E-24
 -1       959 6.65377E-05 6.93526E-06 8.27181E-25
 -1       960 6.64228E-05 8.17242E-06 0.00000E+00
 -1       961 6.63079E-05 9.45340E-06 0.00000E+00
 -1       962 6.61928E-05 1.07702E-05 0.00000E+00
 -1       963 6.60778E-05 1.21150E-05 0.00000E+00
 -1       964 6.59627E-05 1.34797E-05 3.30872E-24
 -1       965 6.58475E-05 1.48564E-05 0.00000E+00
 -1       966 6.57324E-05 1.62371E-05 0.00000E+00
 -1       967 6.56174E-05 1.76138E-05 0.00000E+00
 -1       968 6.55024E-05 1.89786E-05 0.00000E+00
 -1       969 6.53876E-05 2.03235E-05 1.65436E-24
 -1       970 6.52732E-05 2.16406E-05 0.00000E+00
 -1       971 6.50520E-05 2.42328E-05 1.65436E-24
 -1       972 6.49419E-05 2.56429E-05 0.00000E+00
 -1       973 6.48316E-05 2.71415E-05 3.30872E-24
 -1       974 6.47210E-05 2.87173E-05 0.00000E+00
 -1       975 6.46102E-05 3.03587E-05-3.30872E-24
 -1       976 6.44993E-05 3.20543E-05 0.00000E+00
 -1       977 6.43884E-05 3.37926E-05-3.30872E-24
 -1       978 6.42773E-05 3.55622E-05 0.00000E+00
 -1       979 6.41663E-05 3.73515E-05 3.30872E-24
 -1       980 6.40553E-05 3.91491E-05 1.65436E-24
 -1       981 6.39443E-05 4.09434E-05 3.30872E-24
 -1       982 6.38334E-05 4.27229E-05-1.65436E-24
 -1       983 6.37227E-05 4.44762E-05-3.30872E-24
 -1       984 6.36125E-05 4.61918E-05-1.65436E-24
 -1       985 6.35028E-05 4.78582E-05 0.00000E+00
 -3
    1PSTEP                        22          11           1          
  100CL  111 6.38672E-01         409                     0   11           1
 -4  STRESS      6    1
 -5  SXX         1    4    1    1
 -5  SYY         1    4    2    2
 -5  SZZ         1    4    3    3
 -5  SXY         1    4    1    2
 -5  SYZ         1    4    2    3
 -5  SZX         1    4    3    1
 -1         1-1.55554E+06-8.30440E+05-2.99724E+05-1.37289E+06 5.63887E-10-6.82121E-08
 -1         2 9.57655E+02 1.69525E+04 3.96821E+03 9.97391E+01-3.50767E-10 8.55778E-08
 -1         3-2.86141E+01-2.81374E+05 8.43415E+01-6.10612E+01-7.32125E-11 1.72349E-09
 -1         5-3.04839E+01 3.28818E+05 8.68042E+00 6.10776E-01 3.00421E-10 2.82525E-08
 -1         8-6.59593E+05-4.23546E+05 9.45709E+04-9.66564E+05 6.22094E-10-2.61207E-08
 -1         9 5.67888E+06 4.39562E+06 1.57392E+06 4.31328E+06-1.50641E-08 1.17533E-07
 -1        10-1.75739E+02-2.93071E+05 2.47091E+02-3.99751E+02-2.04477E-09-1.23376E-08
 -1        12-2.69727E+01 3.28836E+05 2.82994E+02 4.42543E+00 4.33715E-10 1.88129E-08
 -1        15 3.26305E+03 1.79331E+03 1.05480E+04 1.07836E+01 1.20679E-09 4.20042E-07
 -1        16 7.07468E+06 6.55736E+06 2.04951E+06 6.90633E+06 1.29415E-08-1.28988E-07
 -1        17 9.07652E+06 2.21571E+05 1.42876E+06-5.06097E+05 5.32600E-10-2.58937E-08
 -1        18 2.97317E+05 6.65629E+04 4.83093E+04-7.04316E+04 1.34469E-09 3.32511E-09
 -1        19 1.01685E+05 1.23776E+05-3.93212E+02 2.00821E+04-1.23655E-09-1.27693E-09
 -1        20-3.59664E+04-4.80358E+05-1.05537E+05 3.85202E+04 6.34827E-09-2.56235E-09
 -1        21-4.62098E+01-2.85169E+05-9.28101E+02-2.17715E+02-1.64496E-08-5.90593E-09
 -1        24 1.36643E+07-1.92261E+05 2.08760E+06-1.29215E+06 5.99224E-08 1.49836E-08
 -1        25 1.75524E+05 5.98866E+05 1.67499E+05-1.33318E+05 4.88581E-10 2.96750E-09
 -1        26-1.60365E+04 8.70148E+04-1.51118E+04-1.60327E+04 2.15150E-09-1.39698E-10
 -1        27-8.00343E+04-2.64548E+05-9.96573E+04 5.96695E+04 1.01788E-08-1.83991E-09
 -1        28 2.22631E+04-7.79494E+04 1.60799E+04 2.64631E+04 8.33728E-09-6.37123E-09
 -1        32-7.25554E+05 1.34382E+06 7.94127E+05-7.07680E+05-1.16706E-08 3.45140E-08
 -1        33-1.48990E+05 7.91116E+04 2.78705E+04-5.01511E+04 2.29041E-09 5.66160E-09
 -1        34-1.97199E+05-1.92692E+04 4.15180E+02 5.93425E+04 4.77762E-09-4.88247E-10
 -1        35-2.25757E+04-3.09538E+04-1.21602E+03 4.96907E+04 1.12073E-08-4.98888E-09
 -1        51 5.26483E+03-6.26672E+05 2.63031E+04-1.48319E+06 8.73115E-11 2.14495E-08
 -1        52 1.23527E+04-6.36345E+05 2.35708E+04-1.73021E+06 9.89530E-10-2.45200E-08
 -1        53 1.45448E+04-6.59818E+05 2.64703E+04-1.47795E+06 1.74623E-10-2.00525E-08
 -1        54 3.92550E+04-6.63423E+05 5.10843E+04-1.73545E+06-3.49246E-10-7.19447E-08
 -1        55 6.89314E+04-6.85128E+05 9.56612E+04-1.47685E+06 1.45519E-11 1.30080E-07
 -1        56-3.02702E+06-3.43175E+05-2.15981E+05-1.15548E+06 3.31784E-09 4.33502E-08
 -1        57-3.06545E+06-5.83576E+05-1.45089E+05-1.19991E+06-3.08546E-09 2.21620E-07
 -1        58-3.07528E+06-4.05645E+05-5.08203E+04-1.13546E+06 2.88628E-09 1.02023E-07
 -1        59-3.00932E+06-5.10925E+05-3.02543E+04-1.22548E+06-3.56406E-08-1.18154E-07
 -1        60-3.08340E+06-4.13039E+05-1.18615E+04-1.13123E+06-2.12840E-08 3.96494E-09
 -1        61-3.00259E+06-4.99159E+05-6.77130E+03-1.22682E+06 4.61114E-09-8.83647E-08
 -1        62-3.08188E+06-4.17139E+05-3.50134E+03-1.13417E+06-2.28401E-08-1.52957E-07
 -1        63-3.00986E+06-4.88236E+05-2.82363E+03-1.21498E+06-1.14419E-08 1.33638E-07
 -1        64-3.07529E+06-4.24468E+05-4.15815E+03-1.14250E+06-7.69705E-09-6.93699E-08
 -1        65-3.02639E+06-4.72596E+05-7.48943E+03-1.19365E+06-5.56429E-09-7.79437E-08
 -1        66-3.06430E+06-4.33511E+05-1.46922E+04-1.15472E+06 6.01813E-09-6.13982E-08
 -1        67-3.05608E+06-4.63834E+05-3.54297E+04-1.16543E+06 1.85155E-08-9.15452E-08
 -1        68-3.04512E+06-4.33968E+05-6.11150E+04-1.17015E+06-7.79573E-09-1.00612E-07
 -1        69-3.13845E+06-5.37168E+05-1.72671E+05-1.12178E+06-4.88149E-09 4.09636E-08
 -1        70-2.98281E+06-3.62702E+05-2.57521E+05-1.19759E+06-2.31557E-08 2.99624E-08
 -1        86-5.65837E+02 1.01394E+04 3.06652E+03-5.02127E+01 3.34944E-09 5.27266E-08
 -1        87 3.28171E+03 1.80973E+04 7.96873E+03 2.13680E+02 5.58919E-09 1.65477E-07
 -1        88-2.88380E+03 8.99689E+03 1.06586E+04-1.65519E+02 8.55471E-09 1.52017E-07
 -1        89 2.09621E+04 2.63618E+04 3.06249E+04 5.51692E+02 1.31331E-08-2.94041E-07
 -1        90-1.81910E+04 1.88342E+03 4.16998E+04-3.89713E+02 1.30185E-08-6.84847E-08
 -1       121-4.64673E+01-2.81512E+05 7.89798E+01 3.04993E+01 2.21682E-10-9.21318E-09
 -1       122-7.01059E+00-2.81359E+05 1.82539E+02-1.22378E+02-7.96085E-10-1.42745E-09
 -1       123-6.25915E+01-2.81528E+05 2.99213E+02 9.16903E+01 6.42700E-10 3.58432E-09
 -1       124 2.58499E+02-2.81191E+05 7.48824E+02-3.19536E+02-1.54068E-09 8.46649E-09
 -1       125-2.36992E+02-2.81682E+05 1.20440E+03 2.27589E+02 9.38826E-10-5.02132E-09
 -1       191-3.22793E+01 3.28840E+05 9.15057E+00-3.12943E-01 3.72567E-10 3.22470E-08
 -1       192-3.12965E+01 3.28818E+05 1.84385E+01 2.26546E+00 5.20932E-10 5.97165E-08
 -1       193-3.44319E+01 3.28840E+05 3.30992E+01-1.99962E+00 6.04205E-10 1.88957E-08
 -1       194-3.39076E+01 3.28821E+05 6.98876E+01 5.26314E+00 2.51834E-10-8.88303E-09
 -1       195-3.85662E+01 3.28838E+05 1.35507E+02-3.36705E+00 9.44119E-10 6.88851E-09
 -1       251 2.87856E+06-1.71191E+05 3.99728E+05 3.66343E+04 1.74714E-09 5.18339E-08
 -1       252 3.06504E+06 1.97914E+05 2.84092E+05-6.84847E+04-2.35946E-09-2.60188E-08
 -1       253 2.95125E+06-2.62982E+04 1.03869E+05 5.71375E+03-1.92529E-09-8.20582E-08
 -1       254 2.98057E+06 3.04636E+04 6.51610E+04-2.79841E+04 1.46952E-08-2.29323E-07
 -1       255 2.96270E+06-4.03273E+03 2.68031E+04-3.86027E+03-7.26772E-09-5.04242E-08
 -1       256 2.96734E+06 4.78384E+03 1.59767E+04-1.57497E+04 9.21398E-09 4.43647E-08
 -1       257 2.96453E+06-6.66564E+02 7.96109E+03-6.52084E+03-2.37815E-09-7.36102E-08
 -1       258 2.96545E+06 1.27406E+03 6.44755E+03-1.35352E+04-1.21857E-08-4.74258E-08
 -1       259 2.96460E+06-5.29843E+02 6.74354E+03-6.07491E+03 4.71498E-09 8.46373E-08
 -1       260 2.96678E+06 3.60085E+03 1.24645E+04-1.81679E+04-8.00803E-09-5.53746E-08
 -1       261 2.96320E+06-2.99391E+03 2.04609E+04-1.88803E+03 6.14577E-09-2.44832E-07
 -1       262 2.97757E+06 2.27501E+04 4.94943E+04-3.62580E+04 4.22551E-09 9.26048E-08
 -1       263 2.95385E+06-1.96895E+04 7.85175E+04 1.20153E+04-1.33855E-09 2.12956E-07
 -1       264 3.05081E+06 1.49715E+05 2.16894E+05-9.44211E+04-2.05762E-09 5.56247E-08
 -1       265 2.89092E+06-1.30177E+05 3.00468E+05 5.62741E+04-3.92674E-09 6.99074E-08
 -1       266-5.90671E+04-2.76072E+04 1.38651E+05-2.30824E+02 8.73115E-10 2.70564E-08
 -1       267 6.84804E+04 3.21968E+04 9.79648E+04 2.66215E+02 2.22644E-09 3.02131E-07
 -1       268-9.18286E+03-4.55887E+03 3.64149E+04-3.39266E+01 1.14051E-09 6.11769E-08
 -1       269 1.08426E+04 5.45722E+03 2.36674E+04 3.95128E+01 1.14051E-09 1.16874E-08
 -1       270-1.62748E+03-8.96607E+02 1.14246E+04-5.36244E+00 9.82254E-11 1.58247E-07
 -1       271-6.08407E+06-7.70118E+05-4.77940E+05-2.38644E+06 1.63564E-08 6.64440E-08
 -1       272-6.19804E+06-1.16865E+06-3.06272E+05-2.43929E+06-1.45028E-08-8.77080E-08
 -1       273-6.18468E+06-8.77265E+05-1.13055E+05-2.35297E+06 1.11486E-08 7.95771E-08
 -1       274-6.07955E+06-1.03948E+06-6.27432E+04-2.49455E+06-1.95987E-08 5.40149E-09
 -1       275-6.20496E+06-8.80805E+05-2.62573E+04-2.34053E+06 7.27596E-09 4.78394E-08
 -1       276-6.05769E+06-1.03431E+06-1.39213E+04-2.51411E+06-6.36428E-08-6.42090E-08
 -1       277-6.20981E+06-8.78533E+05-6.98328E+03-2.33652E+06-2.12118E-08-1.40034E-08
 -1       278-6.05604E+06-1.03282E+06-5.49201E+03-2.51474E+06 2.48833E-08-4.46653E-09
 -1       279-6.20666E+06-8.82107E+05-6.80334E+03-2.34000E+06 2.68483E-09-2.30639E-08
 -1       280-6.06642E+06-1.02265E+06-1.25511E+04-2.49818E+06-7.85440E-09-1.49879E-07
 -1       281-6.19590E+06-8.91075E+05-2.44631E+04-2.35052E+06 1.09758E-08-1.52377E-08
 -1       282-6.09637E+06-1.01565E+06-5.66022E+04-2.46564E+06 1.58561E-08 1.18143E-08
 -1       283-6.17169E+06-8.93934E+05-1.03214E+05-2.36818E+06 1.28784E-08-2.03072E-08
 -1       284-6.21476E+06-1.12179E+06-2.77255E+05-2.40405E+06-1.82085E-08-9.26375E-08
 -1       285-6.07577E+06-8.01379E+05-4.33741E+05-2.40372E+06 9.93168E-10-1.14989E-07
 -1       301-7.03601E+03 2.83123E+05 8.15193E+04 7.39192E+05-2.20098E-09-7.47968E-08
 -1       302-8.75847E+03 3.07652E+05 6.74771E+04 1.08254E+06 4.05998E-09-9.02110E-08
 -1       303-1.32299E+04 2.85219E+05 7.33565E+04 7.37468E+05-2.11003E-09-4.03561E-08
 -1       304 1.08603E+04 3.29931E+05 1.35778E+05 1.08205E+06 1.60253E-09-8.05085E-08
 -1       305 1.25269E+04 2.67514E+05 2.32286E+05 7.40189E+05-1.57161E-09 6.84449E-08
 -1       306-1.81521E+07-1.22349E+07-7.04525E+06-9.75127E+06 8.64966E-08-3.34549E-08
 -1       307 3.34023E+06 2.07754E+07 4.68440E+06 1.16044E+07 7.69622E-07-2.96190E-07
 -1       308-1.70875E+06-9.22792E+06-1.20540E+06-4.64774E+06 3.82424E-08-1.19559E-07
 -1       309-1.65075E+07 1.73423E+07 1.43201E+06-4.01829E+06-1.81841E-07 2.56568E-07
 -1       310-4.72419E+05-8.24676E+06-4.68232E+05-3.97940E+06-1.48379E-07 1.55705E-08
 -1       311-1.00042E+06 1.99632E+07 4.23702E+06 9.54278E+06-6.66434E-07 1.94210E-07
 -1       312-1.57886E+07-1.19429E+07-5.50008E+06-9.88946E+06 1.46683E-08-1.37137E-07
 -1       313 3.30575E+07 8.14240E+06 7.68026E+06 1.47251E+07 2.64845E-07-1.16313E-07
 -1       314-2.45369E+07-4.70478E+06-5.90928E+06-3.36186E+06-3.59723E-08-1.93104E-08
 -1       315 2.35684E+07-5.46976E+05 4.85961E+06-8.21378E+06 4.67960E-07 1.55167E-07
 -1       316-1.02317E+07-7.16450E+05-1.05559E+06 3.71004E+06 5.15633E-07 5.24160E-07
 -1       317-3.45197E+06 4.30577E+06 1.43438E+06-1.69392E+07-7.36860E-07 2.36010E-07
 -1       318-8.29620E+06-4.33137E+05-6.24080E+05 3.86324E+06 5.12635E-07 7.68596E-08
 -1       319 1.91881E+07 8.43124E+05 4.05548E+06-1.07757E+07 9.38453E-08 1.14313E-07
 -1       320-2.40590E+07-4.77542E+06-6.62750E+06-1.68584E+06-1.28930E-07-3.37604E-09
 -1       336 1.59742E+02-3.04800E+05-4.09610E+02 1.71682E+02-4.04384E-09 1.55705E-09
 -1       337-5.39879E+01-3.04746E+05 9.28217E+02-5.20287E+02-7.52561E-09-1.54432E-09
 -1       338-2.80409E+02-3.05159E+05 2.64126E+03 3.47533E+02-5.49028E-09-1.25783E-09
 -1       339 3.39946E+03-3.02667E+05 7.12091E+03-8.64940E+02-9.74063E-09 3.08000E-09
 -1       340-2.52412E+03-3.06888E+05 1.13419E+04 5.18591E+02-6.53381E-09 6.32645E-09
 -1       406-6.54763E+00 3.28825E+05 5.57442E+02-1.21289E+00 1.22827E-09 1.87174E-09
 -1       407 1.67977E+02 3.28934E+05 1.18744E+03-1.65647E+01 2.49088E-10-1.20062E-08
 -1       408 5.83455E+02 3.28739E+05 2.36994E+03 1.81465E+01 1.45769E-09-2.99588E-09
 -1       409 2.53937E+03 3.29691E+05 5.33794E+03-1.84734E+02 1.79625E-10-2.57114E-09
 -1       410 7.34425E+03 3.28062E+05 1.08961E+04 1.75940E+02 1.48611E-09 2.83126E-09
 -1       521-1.83881E+07-1.26898E+07-7.31753E+06-9.40966E+06 4.30737E-08-3.43687E-07
 -1       522 8.43766E+05 2.15251E+07 4.39937E+06 1.10785E+07 4.77405E-07-2.49129E-08
 -1       523-2.23415E+06-9.68548E+06-1.15260E+06-5.07341E+06 1.52184E-07 2.86818E-07
 -1       524-1.92831E+07 1.82757E+07 1.39949E+06-5.49278E+06-3.10945E-07 7.09533E-07
 -1       525-1.07529E+06-8.84488E+06-4.26128E+05-4.53655E+06-2.93716E-07 4.64846E-07
 -1       526-3.40790E+06 2.08749E+07 4.06200E+06 8.98502E+06-2.31790E-07 1.30851E-07
 -1       527-1.61661E+07-1.23640E+07-5.70313E+06-9.58628E+06-8.99890E-08-1.42027E-08
 -1       528 3.21947E+07 7.62973E+06 7.28338E+06 1.45567E+07 2.93599E-07-7.79983E-08
 -1       529-2.45737E+07-5.41666E+06-6.12702E+06-3.20035E+06-5.80912E-08-3.28000E-08
 -1       530 2.22156E+07-8.69516E+05 4.61562E+06-9.87777E+06 9.42382E-08-1.43598E-07
 -1       531-1.11373E+07-7.99507E+05-9.93843E+05 3.68150E+06 4.22006E-07 1.69704E-07
 -1       532-5.86376E+06 4.87968E+06 1.40446E+06-1.87977E+07-7.07665E-07 3.44909E-07
 -1       533-9.45207E+06-4.74684E+05-5.86489E+05 3.86712E+06-4.83415E-07 5.89145E-07
 -1       534 1.78428E+07 6.47812E+05 3.85429E+06-1.24410E+07 3.77331E-07-4.26444E-07
 -1       535-2.41513E+07-5.44642E+06-6.86952E+06-1.67580E+06 5.40167E-08-2.95928E-07
 -1       536 9.68395E+05-5.45164E+04 1.25662E+05 5.75491E+03-8.62690E-09 4.64934E-09
 -1       537 1.02570E+06 6.30560E+04 8.93690E+04-9.14626E+03-2.09090E-09-4.04725E-10
 -1       538 9.90703E+05-8.49688E+03 3.26014E+04 8.33465E+02-4.75282E-11 5.86624E-09
 -1       539 9.99845E+05 9.83061E+03 2.05111E+04-2.97893E+03-9.14326E-10 6.85168E-09
 -1       540 9.94250E+05-1.32519E+03 8.38352E+03-4.12193E+02 1.23188E-09 1.11972E-08
 -1       541 9.95729E+05 1.55171E+03 4.99023E+03-1.41683E+03 8.34728E-10 1.87799E-09
 -1       542 9.94829E+05-2.23463E+02 2.41691E+03-7.28665E+02-7.26752E-12 1.72383E-09
 -1       543 9.95114E+05 3.82703E+02 1.86320E+03-1.04421E+03 7.71257E-10 3.70157E-09
 -1       544 9.94868E+05-1.56893E+02 1.80880E+03-7.84822E+02 7.08200E-10-5.94969E-09
 -1       545 9.95415E+05 9.78277E+02 3.23322E+03-1.07411E+03-3.55907E-10-3.32938E-09
 -1       546 9.94526E+05-8.18620E+02 5.21763E+03-6.98757E+02 3.70307E-10 5.28416E-10
 -1       547 9.97886E+05 6.04649E+03 1.26055E+04-1.56963E+03 3.55413E-10 2.67914E-09
 -1       548 9.92391E+05-5.22129E+03 1.99968E+04-2.89292E+02 1.32238E-09 3.71983E-10
 -1       549 1.01304E+06 3.85938E+04 5.46119E+04-3.59568E+03-1.29575E-09 4.78485E-09
 -1       550 9.79353E+05-3.33394E+04 7.71115E+04 1.32727E+03-7.04617E-10-1.16052E-09
 -1       551 6.76025E+03-4.83151E+05-1.70850E+03-1.19672E+06-2.33013E-08-5.76256E-09
 -1       552 2.72137E+04-4.99993E+05 1.81260E+04-1.70424E+06-2.09402E-08 4.83487E-09
 -1       553 2.08942E+04-5.02415E+05 4.09969E+04-1.19341E+06-3.08792E-08 2.09002E-09
 -1       554 5.25118E+04-4.82647E+05 9.54484E+04-1.70448E+06-1.91649E-08-4.83487E-09
 -1       555 4.10409E+04-5.10016E+05 1.71628E+05-1.19620E+06-2.67246E-08-6.34464E-09
 -1       556 1.04408E+04-1.08735E+05 3.00432E+04-1.49515E+05-5.76256E-09-1.88957E-08
 -1       557 5.25319E+04-1.44529E+05 1.58196E+04-1.86325E+05-5.67525E-10-8.50605E-09
 -1       558 1.05690E+04-1.12459E+05 6.45531E+03-1.46016E+05-3.41242E-09-6.08270E-09
 -1       559 4.80016E+04-1.48795E+05 3.26654E+03-1.88349E+05-2.13186E-09-1.12846E-08
 -1       560 9.72187E+03-1.11867E+05 1.39760E+03-1.46523E+05 4.36557E-10 1.13323E-09
 -1       561 4.66433E+04-1.48507E+05 7.29309E+02-1.89211E+05-8.73115E-10 1.17916E-08
 -1       562 9.08015E+03-1.11422E+05 3.04900E+02-1.46984E+05 2.63390E-09-3.49701E-10
 -1       563 4.59273E+04-1.48207E+05 1.68281E+02-1.89672E+05 1.06811E-08 5.50017E-09
 -1       564 8.75911E+03-1.11206E+05 5.03711E+01-1.47213E+05 7.64339E-09-7.65522E-09
 -1       565 4.56885E+04-1.48109E+05-2.29528E+01-1.89818E+05 3.12775E-09-1.57997E-08
 -1       566 8.77643E+03-1.11208E+05-1.50965E+02-1.47209E+05 8.31005E-09-2.20643E-09
 -1       567 4.58715E+04-1.48200E+05-3.68925E+02-1.89628E+05-4.72937E-11 1.88538E-09
 -1       568 9.17749E+03-1.11467E+05-8.33901E+02-1.46990E+05-7.56700E-10 5.94991E-09
 -1       569 4.55943E+04-1.48405E+05-1.90983E+03-1.88528E+05-8.54925E-09-1.96815E-09
 -1       570 1.06240E+04-1.13017E+05-3.81282E+03-1.46745E+05-5.02769E-09-4.29645E-09
 -1       571 2.33106E+05 8.03870E+03 1.19886E+04-5.57136E+04-7.63976E-10 3.77531E-09
 -1       572 2.34889E+05 2.76038E+03 5.87406E+03-6.10497E+04-2.37424E-09-1.54432E-09
 -1       573 2.33812E+05 6.23807E+02 2.60935E+03-5.55535E+04 8.36735E-11 3.18323E-09
 -1       574 2.34022E+05 1.70176E+02 1.30751E+03-6.12233E+04-9.57471E-10 1.25920E-08
 -1       575 2.33883E+05-1.17876E+01 6.15966E+02-5.55327E+04-6.23459E-10 2.85036E-09
 -1       576 2.33898E+05-3.55091E+01 3.13226E+02-6.12464E+04 8.83574E-10-1.01227E-09
 -1       577 2.33891E+05-4.33139E+01 1.53428E+02-5.55300E+04 2.27828E-10 3.18460E-09
 -1       578 2.33884E+05-4.43242E+01 8.19480E+01-6.12492E+04 7.93534E-10 2.68483E-09
 -1       579 2.33903E+05-4.48575E+01 4.68059E+01-5.55299E+04 1.67711E-09 7.99901E-10
 -1       580 2.33901E+05-5.17916E+01 3.82406E+01-6.12462E+04 3.77986E-09 1.13187E-09
 -1       581 2.33929E+05-5.57119E+01 4.54481E+01-5.55330E+04-2.18279E-09 3.10274E-09
 -1       582 2.33945E+05-5.82929E+01 8.22644E+01-6.12149E+04-1.76442E-10-1.04637E-09
 -1       583 2.33965E+05-4.11415E+01 1.53862E+02-5.55611E+04-5.53882E-10 4.40082E-09
 -1       584 2.34048E+05 6.85124E+01 3.44451E+02-6.09788E+04-4.60932E-09-2.83148E-09
 -1       585 2.33973E+05 3.70032E+02 6.96459E+02-5.57696E+04-9.39508E-10-1.94996E-09
 -1       586-3.20862E+03 7.39259E+04-4.62462E+03-1.79423E+05 1.60662E-09-1.18052E-09
 -1       587-6.33486E+02 7.32482E+04-1.00798E+03-1.97382E+05 2.34286E-09 1.81197E-09
 -1       588 8.21737E+02 7.34625E+04 2.07768E+03-1.79287E+05 1.18598E-09 1.98679E-09
 -1       589 3.69269E+03 7.47122E+04 6.73326E+03-1.97266E+05 1.89266E-09-2.55022E-09
 -1       590 1.02466E+04 7.26317E+04 1.46504E+04-1.79532E+05 1.53341E-09 3.10138E-09
 -1       591-5.14042E+04-1.56159E+04-1.75314E+04-2.77726E+04-1.28404E-09 3.10138E-10
 -1       592-5.27332E+04-2.02326E+04-9.49553E+03-3.26968E+04 3.88127E-10 4.11808E-09
 -1       593-5.31827E+04-1.43190E+04-3.95329E+03-2.90354E+04 3.06045E-10-3.75758E-09
 -1       594-5.02872E+04-1.76891E+04-1.97152E+03-3.28264E+04 1.72213E-09 7.51425E-09
 -1       595-5.33200E+04-1.43119E+04-9.06130E+02-2.90940E+04 1.53818E-10-1.57235E-09
 -1       596-5.01228E+04-1.75723E+04-4.61864E+02-3.28105E+04 1.34423E-09 1.08282E-09
 -1       597-5.33377E+04-1.43227E+04-2.54367E+02-2.90966E+04 5.07669E-10 2.96933E-09
 -1       598-5.01072E+04-1.75679E+04-2.09734E+02-3.28058E+04-4.40536E-10-3.83989E-09
 -1       599-5.33360E+04-1.43230E+04-2.74587E+02-2.90960E+04-1.44303E-09-1.10222E-08
 -1       600-5.01239E+04-1.75742E+04-5.15363E+02-3.28093E+04-1.29103E-09-8.11951E-09
 -1       601-5.33131E+04-1.43116E+04-1.01967E+03-2.90918E+04 1.50067E-10-3.54134E-09
 -1       602-5.03084E+04-1.77061E+04-2.22345E+03-3.28244E+04-3.00133E-10-5.39239E-09
 -1       603-5.31561E+04-1.43221E+04-4.46010E+03-2.90256E+04-1.36924E-09-2.17960E-09
 -1       604-5.30745E+04-2.05674E+04-1.07129E+04-3.26665E+04-1.66892E-09-1.56183E-09
 -1       605-5.11391E+04-1.57922E+04-1.97787E+04-2.76083E+04-1.30603E-09 1.24055E-09
 -1       606 3.64589E+04-1.12579E+04-2.02926E+04 3.57360E+04-1.65201E-08-4.66662E-09
 -1       607 3.29794E+04-3.61564E+03-1.01035E+04 4.01102E+04-2.16314E-08 5.69321E-09
 -1       608 3.49357E+04-5.95908E+02-4.52673E+03 3.54478E+04-2.94676E-09 2.94358E-09
 -1       609 3.45321E+04-1.27449E+02-2.28554E+03 4.04232E+04-2.68483E-09 3.05613E-09
 -1       610 3.47331E+04 5.92379E+01-1.09340E+03 3.54157E+04-1.06047E-08 4.06772E-09
 -1       611 3.46462E+04 8.85548E+01-5.51154E+02 4.04573E+04-1.76005E-08-3.37423E-09
 -1       612 3.46670E+04 8.81636E+01-2.65128E+02 3.54125E+04-7.65067E-09 4.18822E-10
 -1       613 3.46254E+04 1.08557E+02-1.21288E+02 4.04612E+04-1.04474E-08 1.90175E-09
 -1       614 3.46263E+04 9.78472E+01-3.61745E+01 3.54115E+04-1.97360E-10 3.54066E-09
 -1       615 3.45974E+04 1.22812E+02 3.34201E+01 4.04617E+04 9.71340E-09 1.21736E-09
 -1       616 3.45958E+04 1.11097E+02 1.16016E+02 3.54118E+04-7.52334E-09 6.80757E-10
 -1       617 3.45938E+04 1.58206E+02 2.71621E+02 4.04608E+04-3.66344E-09-5.50244E-10
 -1       618 3.45592E+04 1.97593E+02 5.49601E+02 3.54119E+04-3.99268E-10-4.68390E-11
 -1       619 3.47773E+04 5.89841E+02 1.23591E+03 4.04598E+04-8.11497E-10-6.01699E-09
 -1       620 3.43700E+04 1.50679E+03 2.48436E+03 3.54095E+04 5.54337E-10-9.35279E-09
 -1       621 4.96904E+02 2.64073E+05 4.17724E+03 2.83769E+03-6.32326E-10 1.42268E-09
 -1       622 5.54622E+02 2.65113E+05 3.38156E+03 4.22531E+03-6.98378E-10 5.26427E-09
 -1       623 2.09101E+01 2.64397E+05 3.67448E+03 2.82503E+03-5.03292E-10 8.54999E-09
 -1       624 1.60410E+03 2.66078E+05 6.79067E+03 4.23531E+03-5.87931E-10 1.39344E-08
 -1       625 1.60802E+03 2.63107E+05 1.17171E+04 2.82921E+03-6.75755E-10 5.10989E-09
 -1       626 2.08890E+05 5.99159E+04 3.93587E+03 1.15803E+05-2.18552E-09-4.01451E-09
 -1       627 2.05757E+05 6.23362E+04 1.89741E+03 1.20595E+05-1.78534E-09-7.44035E-09
 -1       628 2.09045E+05 5.80329E+04 8.00090E+02 1.16359E+05 3.83443E-09-4.03816E-10
 -1       629 2.05142E+05 6.19229E+04 3.93094E+02 1.20873E+05 8.34825E-09 7.86531E-09
 -1       630 2.09042E+05 5.79505E+04 1.81210E+02 1.16363E+05-1.11686E-09-1.35942E-08
 -1       631 2.05055E+05 6.19213E+04 9.83869E+01 1.20867E+05-6.71389E-09-3.93631E-09
 -1       632 2.09020E+05 5.79636E+04 6.57778E+01 1.16347E+05-9.41600E-09-7.50930E-09
 -1       633 2.05030E+05 6.19318E+04 7.55399E+01 1.20852E+05-5.02177E-09-5.39444E-10
 -1       634 2.09001E+05 5.79683E+04 1.23543E+02 1.16337E+05 1.36879E-08 1.16552E-08
 -1       635 2.05029E+05 6.19363E+04 2.51760E+02 1.20847E+05 5.36420E-09 1.21554E-09
 -1       636 2.08984E+05 5.79695E+04 5.08696E+02 1.16331E+05-5.74983E-09 2.73758E-10
 -1       637 2.05130E+05 6.20183E+04 1.11811E+03 1.20840E+05-2.18648E-09-3.93266E-09
 -1       638 2.08939E+05 5.82190E+04 2.29782E+03 1.16215E+05-4.22619E-09-1.03660E-08
 -1       639 2.06332E+05 6.36996E+04 5.43567E+03 1.20485E+05-6.30871E-09-7.51015E-09
 -1       640 2.08785E+05 6.32173E+04 1.12799E+04 1.14087E+05-4.32783E-09 4.82623E-09
 -1       656 5.77078E+04-1.45596E+06-1.39272E+05 5.82441E+02 9.24047E-10-7.90067E-09
 -1       657-7.62351E+04-1.51875E+06-1.15117E+05 1.03845E+04 2.36832E-09-7.73795E-10
 -1       658 1.82693E+04-1.47388E+06-7.05526E+04-1.27714E+03 1.49203E-09 6.12623E-10
 -1       659-8.15277E+04-1.52127E+06-1.22068E+05 1.15761E+04-8.32188E-10-2.11840E-09
 -1       660 6.29895E+04-1.45345E+06-1.51216E+05-6.09160E+02 8.87667E-10-5.63620E-09
 -1       661 2.23588E+05 2.45923E+04 2.11382E+04 8.75202E+04 4.23279E-09 1.81899E-09
 -1       662 2.34505E+05 4.12631E+04 1.42434E+04 8.39528E+04 3.54714E-09-2.10525E-09
 -1       663 2.27738E+05 3.13736E+04 4.98259E+03 8.63168E+04 2.73621E-09 8.15567E-09
 -1       664 2.29699E+05 3.33289E+04 2.97892E+03 8.54198E+04-3.06272E-10 2.00404E-09
 -1       665 2.28363E+05 3.23035E+04 1.17492E+03 8.61377E+04-3.83574E-09 3.83187E-09
 -1       666 2.28962E+05 3.22632E+04 6.84871E+02 8.56528E+04-1.16976E-08 3.62283E-09
 -1       667 2.28471E+05 3.24112E+04 3.60338E+02 8.60945E+04-3.10433E-09-5.55170E-09
 -1       668 2.28842E+05 3.21831E+04 3.59818E+02 8.57178E+04 1.14429E-08-3.95496E-09
 -1       669 2.28482E+05 3.23809E+04 4.80751E+02 8.60736E+04-3.38325E-09 6.73180E-09
 -1       670 2.28954E+05 3.24459E+04 1.04126E+03 8.57272E+04 3.68819E-09 2.65801E-09
 -1       671 2.28360E+05 3.21535E+04 1.84670E+03 8.60830E+04-1.56097E-09-3.50065E-09
 -1       672 2.30021E+05 3.42501E+04 4.72323E+03 8.54768E+04 1.67688E-10-7.05683E-09
 -1       673 2.27420E+05 3.06217E+04 7.91468E+03 8.63068E+04-2.63719E-09-3.25190E-09
 -1       674 2.37550E+05 4.69694E+04 2.26335E+04 8.32691E+04-1.70803E-09-2.83308E-09
 -1       675 2.20880E+05 1.97896E+04 3.35960E+04 8.81563E+04 1.32377E-09-3.95266E-09
 -1       676 2.41730E+01-2.85090E+05-1.11861E+03 1.08861E+02-3.35604E-09-3.03935E-11
 -1       677-2.96317E+02-2.85362E+05-2.04723E+03-2.17558E+02-1.07324E-08-6.96762E-09
 -1       678 1.98410E+02-2.84898E+05-3.61899E+03 1.08623E+02 1.42768E-09 4.42932E-09
 -1       679-3.61942E+03-2.87546E+05-8.59718E+03-2.16697E+02-6.92478E-09 2.79162E-09
 -1       680 2.16069E+03-2.82907E+05-1.38557E+04 1.06747E+02-4.94219E-09 4.13515E-09
 -1       771-3.08284E+06-4.81533E+05-1.21601E+05-1.20020E+06-6.74027E-09 1.69530E-09
 -1       772-3.10085E+06-5.03787E+05-6.57813E+04-1.22296E+06-5.88807E-09 1.09303E-08
 -1       773-3.09579E+06-4.71988E+05-2.74805E+04-1.20845E+06-9.70613E-09 4.70754E-09
 -1       774-3.08328E+06-4.86995E+05-1.36287E+04-1.22520E+06-7.75617E-09-2.54477E-09
 -1       775-3.09733E+06-4.71391E+05-6.30641E+03-1.20857E+06-9.84437E-09-2.64117E-09
 -1       776-3.08177E+06-4.86746E+05-3.06704E+03-1.22612E+06 5.74801E-10 1.85901E-09
 -1       777-3.09800E+06-4.71003E+05-1.53492E+03-1.20838E+06 5.31873E-09-2.13913E-09
 -1       778-3.08138E+06-4.87150E+05-8.08064E+02-1.22695E+06 4.11637E-09-3.94812E-09
 -1       779-3.09847E+06-4.70633E+05-6.04044E+02-1.20822E+06 1.79716E-09-4.46198E-09
 -1       780-3.08120E+06-4.87501E+05-6.67597E+02-1.22765E+06 4.08545E-09 3.41265E-09
 -1       781-3.09880E+06-4.70316E+05-1.13575E+03-1.20810E+06-6.93035E-10-3.14958E-09
 -1       782-3.08127E+06-4.87887E+05-2.32316E+03-1.22819E+06-3.80442E-09-3.55033E-09
 -1       783-3.09889E+06-4.70117E+05-4.62288E+03-1.20796E+06-2.40470E-09-6.99288E-09
 -1       784-3.08402E+06-4.91051E+05-1.10757E+04-1.22840E+06-3.04271E-09-4.31555E-10
 -1       785-3.09699E+06-4.71472E+05-2.04501E+04-1.20642E+06-4.71209E-09-6.02085E-10
 -1       786 2.54180E+05-1.24054E+04 2.87025E+04 1.41935E+02 2.80093E-09 1.57888E-09
 -1       787 2.66615E+05 1.43618E+04 2.03062E+04 7.25356E+00 2.12014E-08 1.14960E-09
 -1       788 2.58979E+05-1.94468E+03 7.42971E+03 1.18049E+02 6.24474E-06 4.26644E-09
 -1       789 2.61026E+05 2.25025E+03 4.66904E+03 4.01176E+01 1.24511E-05-2.00890E-09
 -1       790 2.59771E+05-3.03837E+02 1.90186E+03 1.09075E+02 6.04806E-06 5.06236E-09
 -1       791 2.60103E+05 3.53646E+02 1.12043E+03 4.90194E+01-3.84325E-07-6.76579E-11
 -1       792 2.59903E+05-4.95010E+01 5.18826E+02 1.09147E+02-4.48046E-06-2.69668E-09
 -1       793 2.59956E+05 7.31950E+01 3.55131E+02 4.00447E+01-8.54696E-06 8.06813E-09
 -1       794 2.59919E+05-2.35720E+01 2.86243E+02 1.18051E+02-4.28706E-06-8.52587E-10
 -1       795 2.59983E+05 1.30741E+02 4.47512E+02 9.52264E+00-1.34213E-08 6.46230E-09
 -1       796 2.59876E+05-1.07009E+02 6.90561E+02 1.39670E+02-7.70665E-10-7.72104E-10
 -1       797 2.60303E+05 7.87025E+02 1.64501E+03-5.60121E+01-8.20507E-10 5.98448E-10
 -1       798 2.59599E+05-6.79379E+02 2.60175E+03 1.83586E+02-1.19614E-09 1.83024E-09
 -1       799 2.62258E+05 5.01753E+03 7.09812E+03-1.86728E+02-1.16125E-09 5.65592E-09
 -1       800 2.57919E+05-4.33411E+03 1.00267E+04 2.70385E+02-5.35783E-10-2.11458E-09
 -1       801-1.22783E+05 2.81948E+06 2.82218E+05 1.33194E+04 9.89530E-09-2.48258E-09
 -1       802 1.77370E+05 3.02923E+06 2.77917E+05-1.26981E+05 2.55677E-08 4.56694E-10
 -1       803-5.17074E+04 2.88569E+06 2.08874E+05-4.66082E+04 1.88411E-08 1.39398E-08
 -1       804 3.01283E+05 3.09375E+06 4.40134E+05-1.34611E+05 2.38178E-08 1.96241E-08
 -1       805-2.46550E+05 2.75513E+06 5.57762E+05 2.09409E+04 7.47968E-09 3.96513E-08
 -1       806-2.52629E+05-5.86411E+04-2.33538E+04-1.09941E+05-7.37828E-10-1.63709E-09
 -1       807-2.53563E+05-5.57394E+04-1.14730E+04-1.16637E+05-5.03678E-09-8.21456E-09
 -1       808-2.53317E+05-5.01804E+04-4.86658E+03-1.13878E+05-7.57012E-10-1.44701E-09
 -1       809-2.51088E+05-5.25813E+04-2.37868E+03-1.17003E+05 2.15175E-09 5.41752E-09
 -1       810-2.53424E+05-4.98797E+04-1.08892E+03-1.14051E+05-3.72893E-11 7.75867E-09
 -1       811-2.50899E+05-5.24580E+04-5.39319E+02-1.16979E+05-2.08274E-09 6.94945E-09
 -1       812-2.53442E+05-4.99012E+04-2.67942E+02-1.14050E+05-1.20735E-10 7.63339E-09
 -1       813-2.50873E+05-5.24623E+04-1.66945E+02-1.16963E+05 4.14843E-09 3.38059E-09
 -1       814-2.53437E+05-4.99109E+04-1.53278E+02-1.14045E+05 2.58797E-09-6.71889E-09
 -1       815-2.50872E+05-5.24662E+04-2.36281E+02-1.16957E+05 9.15861E-09-4.03679E-09
 -1       816-2.53418E+05-4.99117E+04-4.40888E+02-1.14040E+05 3.51520E-09-6.02540E-10
 -1       817-2.50943E+05-5.25098E+04-9.43566E+02-1.16944E+05 5.14910E-09 2.06842E-09
 -1       818-2.53356E+05-5.00480E+04-1.92301E+03-1.13975E+05 1.93904E-09-9.94532E-10
 -1       819-2.52003E+05-5.36594E+04-4.52456E+03-1.16673E+05-3.87263E-09 2.91857E-09
 -1       820-2.52979E+05-5.34763E+04-9.20918E+03-1.12517E+05-8.92214E-10-4.74301E-10
 -1       821-3.32960E+05 1.86518E+04-4.31483E+04 2.15761E+02-1.51480E-09 3.91810E-09
 -1       822-3.51588E+05-2.15963E+04-3.05227E+04-1.93076E+03-2.07088E-09 1.04592E-11
 -1       823-3.40136E+05 2.92727E+03-1.11722E+04 4.44143E+02 7.19049E-11-6.39056E-09
 -1       824-3.43186E+05-3.38886E+03-7.02678E+03-1.94814E+03-1.68036E-10-7.99560E-10
 -1       825-3.41360E+05 4.58371E+02-2.89374E+03 2.33141E+02-2.62187E-09 2.26464E-10
 -1       826-3.41720E+05-5.38965E+02-1.72455E+03-1.20137E+03-6.94581E-09-1.33002E-09
 -1       827-3.41598E+05 7.76814E+01-9.14649E+02-3.02638E+02-6.19863E-09-5.24778E-10
 -1       828-3.41506E+05-1.59474E+02-7.69038E+02-6.99079E+01-9.44286E-09 7.84796E-09
 -1       829-3.41573E+05 7.86425E+01-9.17641E+02-8.98337E+02 1.27361E-09-2.43281E-09
 -1       830-3.41783E+05-5.43640E+02-1.75791E+03 8.87240E+02 4.19859E-09 4.11615E-09
 -1       831-3.41323E+05 4.63205E+02-2.92803E+03-1.25981E+03-5.41280E-09 6.12351E-09
 -1       832-3.43232E+05-3.43031E+03-7.13035E+03 1.19924E+03-3.97294E-09-6.08452E-10
 -1       833-3.40127E+05 2.96416E+03-1.13360E+04-1.21035E+03-1.23432E-09 1.40426E-09
 -1       834-3.51690E+05-2.18979E+04-3.09521E+04 7.15816E+02-3.06403E-09 4.49245E-09
 -1       835-3.32867E+05 1.89153E+04-4.37769E+04-7.76346E+02 6.09099E-09-2.13549E-09
 -1       836-1.09790E+03 3.23192E+05 1.93196E+04-3.30597E+04 4.22369E-09 1.45519E-11
 -1       837 4.34370E+03 3.29125E+05 1.64592E+04-6.62540E+04 5.42332E-09-5.75255E-11
 -1       838-3.65103E+02 3.24849E+05 1.69159E+04-3.29596E+04 4.63479E-09 3.13094E-10
 -1       839 1.09278E+04 3.34026E+05 3.21422E+04-6.62760E+04 6.01358E-09-1.81763E-09
 -1       840-3.21679E+03 3.18236E+05 5.13089E+04-3.30334E+04 4.42560E-09 5.15229E-10
 -1       856-1.18272E+05 9.36319E+03-2.46776E+04-6.32571E+02-5.69469E-09-4.91855E-09
 -1       857-1.28468E+05-1.09758E+04-1.69896E+04 5.38052E+03-4.73793E-09-5.52950E-09
 -1       858-1.22298E+05 1.31100E+03-6.40500E+03-6.66005E+02-5.12756E-09-4.12410E-09
 -1       859-1.23846E+05-1.51751E+03-3.86861E+03 5.43518E+03 2.74787E-09 3.57261E-10
 -1       860-1.22900E+05 1.81476E+02-1.62789E+03-6.87591E+02-4.90274E-11-1.20747E-09
 -1       861-1.23154E+05-1.93283E+02-9.08922E+02 5.46487E+03-1.08415E-08-1.25360E-09
 -1       862-1.22993E+05 2.33892E+01-4.04878E+02-6.95762E+02 8.01269E-09 4.09898E-10
 -1       863-1.23044E+05-7.86910E+00-2.08890E+02 5.46829E+03 1.43790E-08-9.05985E-09
 -1       864-1.23010E+05 1.98676E-01-8.31815E+01-6.91020E+02 7.21545E-09-5.08028E-09
 -1       865-1.23016E+05 2.51065E+01-9.71541E+00 5.44519E+03 6.39646E-09-1.94020E-09
 -1       866-1.23019E+05-1.07901E+01 5.08164E+01-6.72663E+02-2.87923E-09-6.07642E-10
 -1       867-1.22970E+05 8.89456E+01 1.71799E+02 5.39542E+03-2.59459E-09-7.09591E-09
 -1       868-1.23051E+05-6.56147E+01 2.94929E+02-6.41238E+02 1.96565E-09-4.39253E-09
 -1       869-1.22735E+05 5.34757E+02 8.04887E+02 5.31530E+03-2.21939E-09-1.09844E-09
 -1       870-1.23246E+05-4.49075E+02 1.16295E+03-5.92538E+02 8.18466E-09-2.72280E-09
 -1       871-4.95123E+03-8.96080E+03-1.56154E+04 1.01329E+05 4.41469E-09 8.73115E-10
 -1       872-2.25180E+03-1.24305E+04-6.32052E+03 1.31365E+05 7.99650E-09 4.24507E-09
 -1       873-1.67639E+02-1.08499E+04 1.01481E+03 1.01108E+05 3.09865E-09-8.19523E-09
 -1       874 2.29944E+03-8.48409E+03 9.10235E+03 1.31417E+05 1.02245E-08-1.73417E-08
 -1       875 5.68879E+03-1.29906E+04 2.01069E+04 1.01297E+05 7.24685E-09-6.40284E-09
 -1       876 2.60436E+05 4.52944E+04 1.41392E+04 1.06159E+05-6.09941E-09-6.87578E-10
 -1       877 2.61188E+05 4.84566E+04 7.55079E+03 1.10398E+05-1.01395E-08-4.38490E-10
 -1       878 2.61755E+05 4.37314E+04 3.16323E+03 1.07321E+05 5.52427E-09 3.89809E-09
 -1       879 2.59263E+05 4.65417E+04 1.57580E+03 1.10496E+05-2.10457E-09 9.63695E-09
 -1       880 2.61850E+05 4.37152E+04 7.33356E+02 1.07368E+05-6.03904E-10 7.06223E-10
 -1       881 2.59135E+05 4.64601E+04 3.90311E+02 1.10474E+05 5.62250E-09-1.14369E-10
 -1       882 2.61859E+05 4.37276E+04 2.47232E+02 1.07369E+05 5.99402E-09 6.31603E-09
 -1       883 2.59125E+05 4.64561E+04 2.61929E+02 1.10468E+05-2.86332E-09 1.32286E-08
 -1       884 2.61853E+05 4.37251E+04 4.13068E+02 1.07369E+05-5.85123E-09 8.03709E-10
 -1       885 2.59158E+05 4.64619E+04 8.28234E+02 1.10478E+05 3.52114E-09 1.13007E-08
 -1       886 2.61821E+05 4.37008E+04 1.66812E+03 1.07366E+05-1.38661E-09-5.06179E-09
 -1       887 2.59451E+05 4.66541E+04 3.64327E+03 1.10520E+05-2.17852E-08-1.16911E-08
 -1       888 2.61592E+05 4.37408E+04 7.34100E+03 1.07249E+05-1.59292E-09 2.63617E-09
 -1       889 2.63827E+05 5.11939E+04 1.75366E+04 1.10381E+05-3.10578E-10-3.61979E-10
 -1       890 2.58604E+05 4.72906E+04 3.28451E+04 1.04445E+05 5.44719E-09-1.60435E-09
 -1       891-1.98847E+02-1.49074E+05-1.74272E+03 2.92933E+04 2.10366E-09-9.82573E-09
 -1       892-3.39510E+02-1.49468E+05-1.90209E+03 4.42818E+04-4.89786E-09-9.72341E-09
 -1       893-8.78503E+01-1.49121E+05-2.72573E+03 2.92990E+04 6.10908E-09 1.40062E-10
 -1       894-1.55568E+03-1.50502E+05-5.66311E+03 4.41243E+04 3.81101E-09-3.50747E-09
 -1       895-1.21599E+03-1.47931E+05-9.98418E+03 2.94470E+04 2.36764E-09 2.45564E-11
 -1       956-3.25552E+05-4.76170E+03-1.20354E+04 2.08631E+04-6.59566E-09-4.35284E-09
 -1       957-3.27934E+05-1.58774E+03-6.17820E+03 2.51411E+04-1.32286E-09 3.18323E-10
 -1       958-3.26623E+05-1.07854E+02-2.78378E+03 2.07162E+04 5.16411E-09 4.05862E-10
 -1       959-3.26819E+05 5.44405E+00-1.42163E+03 2.52972E+04-3.12912E-09 3.34921E-10
 -1       960-3.26722E+05 6.29880E+01-6.93011E+02 2.07019E+04-7.06950E-09 7.79141E-09
 -1       961-3.26741E+05 6.74850E+01-3.66971E+02 2.53136E+04-1.16052E-08 6.17570E-09
 -1       962-3.26744E+05 5.99174E+01-2.08995E+02 2.06994E+04-6.24186E-09-1.01977E-09
 -1       963-3.26741E+05 7.06017E+01-1.65566E+02 2.53171E+04-9.78491E-09-2.81034E-09
 -1       964-3.26750E+05 6.34949E+01-1.98419E+02 2.06983E+04-2.36400E-09-5.23528E-09
 -1       965-3.26755E+05 7.53142E+01-3.40627E+02 2.53178E+04 5.22331E-09-5.44605E-09
 -1       966-3.26741E+05 7.35473E+01-6.38193E+02 2.06987E+04-1.52744E-09-4.97903E-09
 -1       967-3.26840E+05 2.57227E+01-1.30836E+03 2.53106E+04-1.07354E-09-1.35458E-09
 -1       968-3.26661E+05-7.66253E+01-2.56015E+03 2.07058E+04 3.62979E-09-5.06020E-09
 -1       969-3.27879E+05-1.43369E+03-5.68444E+03 2.52299E+04 9.48557E-09 1.70982E-09
 -1       970-3.25685E+05-4.35427E+03-1.10721E+04 2.07861E+04 6.80529E-09 4.25644E-09
 -1       971-3.12193E+05-1.66301E+03-9.34420E+03 1.54407E+04-6.31917E-09-3.62064E-10
 -1       972-3.14474E+05-1.17594E+03-5.08828E+03 2.16482E+04-3.74166E-09 9.63564E-09
 -1       973-3.13236E+05 9.17453E+00-2.27881E+03 1.53073E+04-8.32733E-09 6.40171E-09
 -1       974-3.13404E+05 2.08756E+01-1.18006E+03 2.17911E+04-7.18410E-09-2.46905E-09
 -1       975-3.13319E+05 5.50979E+01-5.88277E+02 1.52945E+04 1.68075E-09 2.93426E-09
 -1       976-3.13344E+05 7.17927E+01-3.35918E+02 2.18069E+04-2.22462E-09-1.80705E-09
 -1       977-3.13337E+05 5.62463E+01-2.37968E+02 1.52913E+04 7.79846E-09 1.67074E-09
 -1       978-3.13350E+05 7.83375E+01-2.70315E+02 2.18114E+04 2.10606E-08-2.69176E-09
 -1       979-3.13338E+05 6.41559E+01-4.27476E+02 1.52899E+04 1.33255E-08 1.14323E-09
 -1       980-3.13382E+05 8.12677E+01-8.21120E+02 2.18122E+04 7.51957E-09 1.43200E-09
 -1       981-3.13311E+05 8.44392E+01-1.58822E+03 1.52904E+04-2.39879E-09 4.15832E-09
 -1       982-3.13599E+05-3.65775E+01-3.28164E+03 2.18052E+04-5.35442E-09 3.19164E-09
 -1       983-3.13110E+05-1.80325E+01-6.37588E+03 1.52974E+04 5.20959E-09 4.30668E-09
 -1       984-3.16662E+05-3.36781E+03-1.42778E+04 2.17158E+04 7.27732E-09 1.86992E-09
 -1       985-3.10222E+05-4.68453E+03-2.62188E+04 1.53916E+04 1.22855E-08 5.67525E-10
 -3
    1PSTEP                        23          12           1          
  100CL  112 6.56250E-01         409                     0   12           1
 -4  DISP        4    1
 -5  D1          1    2    1    0
 -5  D2          1    2    2    0
 -5  D3          1    2    3    0
 -5  ALL         1    2    0    0    1ALL
 -1         1 2.16225E-03 0.00000E+00 0.00000E+00
 -1         2 2.18492E-03-1.02171E-28 0.00000E+00
 -1         3 8.20701E-05-3.71232E-28 0.00000E+00
 -1         5 7.97127E-05 2.46018E-27-6.61744E-24
 -1         8 2.12162E-03-1.68744E-06 0.00000E+00
 -1         9 2.14102E-03-7.25644E-07 0.00000E+00
 -1        10 7.83996E-05-2.97331E-07 8.27181E-25
 -1        12 7.84273E-05 7.06274E-07 0.00000E+00
 -1        15 2.07347E-03-1.91461E-06-4.13590E-25
 -1        16 2.07288E-03-5.67154E-07 0.00000E+00
 -1        17 6.64526E-05-6.34707E-07 0.00000E+00
 -1        18 7.32423E-05-6.79894E-06 0.00000E+00
 -1        19 7.45710E-05 1.40774E-06 0.00000E+00
 -1        20 7.47564E-05 2.77666E-05 0.00000E+00
 -1        21 7.41093E-05 5.40089E-05 3.30872E-24
 -1        24 2.40575E-05-1.81323E-06 0.00000E+00
 -1        25 6.80152E-05-6.64755E-06 0.00000E+00
 -1        26 6.95221E-05 1.97144E-06 0.00000E+00
 -1        27 6.75706E-05 2.46540E-05 0.00000E+00
 -1        28 6.68330E-05 5.33942E-05 0.00000E+00
 -1        32 0.00000E+00 0.00000E+00 0.00000E+00
 -1        33 6.25572E-05 2.65010E-06 0.00000E+00
 -1        34 6.06791E-05 2.46255E-05 0.00000E+00
 -1        35 5.88687E-05 5.30711E-05 0.00000E+00
 -1        51 2.15960E-03-2.67458E-07 0.00000E+00
 -1        52 2.15469E-03-5.34817E-07 0.00000E+00
 -1        53 2.14798E-03-8.08287E-07 0.00000E+00
 -1        54 2.13992E-03-1.08998E-06 0.00000E+00
 -1        55 2.13098E-03-1.38006E-06 4.96308E-24
 -1        56 2.16147E-03-1.35965E-06 2.64698E-23
 -1        57 2.16130E-03-4.46079E-06-1.32349E-23
 -1        58 2.16163E-03-8.91118E-06 0.00000E+00
 -1        59 2.16231E-03-1.42969E-05 0.00000E+00
 -1        60 2.16315E-03-2.01470E-05 2.64698E-23
 -1        61 2.16399E-03-2.59802E-05 1.32349E-23
 -1        62 2.16464E-03-3.13155E-05 2.64698E-23
 -1        63 2.16494E-03-3.56862E-05-1.32349E-23
 -1        64 2.16472E-03-3.86794E-05 0.00000E+00
 -1        65 2.16385E-03-3.99204E-05 0.00000E+00
 -1        66 2.16222E-03-3.91322E-05 0.00000E+00
 -1        67 2.15974E-03-3.60934E-05-1.32349E-23
 -1        68 2.15637E-03-3.07085E-05 0.00000E+00
 -1        69 2.15210E-03-2.29431E-05 1.32349E-23
 -1        70 2.14695E-03-1.29007E-05-2.64698E-23
 -1        86 2.18362E-03-8.85977E-08 0.00000E+00
 -1        87 2.17971E-03-1.83722E-07 0.00000E+00
 -1        88 2.17333E-03-2.91038E-07 0.00000E+00
 -1        89 2.16459E-03-4.15525E-07 0.00000E+00
 -1        90 2.15374E-03-5.59738E-07 3.30872E-24
 -1       121 8.19680E-05-4.92917E-08 0.00000E+00
 -1       122 8.16619E-05-9.86253E-08 0.00000E+00
 -1       123 8.11518E-05-1.48043E-07 0.00000E+00
 -1       124 8.04378E-05-1.97596E-07 0.00000E+00
 -1       125 7.95203E-05-2.47314E-07-1.65436E-24
 -1       191 7.96770E-05 1.17745E-07 6.61744E-24
 -1       192 7.95699E-05 2.35484E-07-6.61744E-24
 -1       193 7.93914E-05 3.53213E-07-6.61744E-24
 -1       194 7.91415E-05 4.70926E-07 0.00000E+00
 -1       195 7.88201E-05 5.88615E-07 0.00000E+00
 -1       251 2.12275E-03 4.26310E-06 0.00000E+00
 -1       252 2.12397E-03 6.28806E-06 1.32349E-23
 -1       253 2.12518E-03 5.85061E-06 0.00000E+00
 -1       254 2.12641E-03 4.28456E-06 1.32349E-23
 -1       255 2.12764E-03 2.01539E-06 0.00000E+00
 -1       256 2.12887E-03-5.67634E-07-1.32349E-23
 -1       257 2.13010E-03-3.32949E-06 0.00000E+00
 -1       258 2.13132E-03-6.14433E-06 0.00000E+00
 -1       259 2.13255E-03-8.92938E-06-2.64698E-23
 -1       260 2.13378E-03-1.16002E-05 0.00000E+00
 -1       261 2.13501E-03-1.39799E-05 2.64698E-23
 -1       262 2.13624E-03-1.58766E-05-1.32349E-23
 -1       263 2.13747E-03-1.67066E-05 2.64698E-23
 -1       264 2.13869E-03-1.58320E-05 0.00000E+00
 -1       265 2.13990E-03-1.12402E-05 0.00000E+00
 -1       266 2.11360E-03-1.74611E-06 0.00000E+00
 -1       267 2.10557E-03-1.78143E-06 0.00000E+00
 -1       268 2.09754E-03-1.81824E-06 1.65436E-24
 -1       269 2.08952E-03-1.85066E-06-4.13590E-25
 -1       270 2.08149E-03-1.88299E-06 0.00000E+00
 -1       271 2.11665E-03 3.76263E-06 0.00000E+00
 -1       272 2.11272E-03 6.19543E-06 0.00000E+00
 -1       273 2.10980E-03 5.97043E-06 5.29396E-23
 -1       274 2.10771E-03 3.49824E-06-5.29396E-23
 -1       275 2.10627E-03-7.20601E-07 0.00000E+00
 -1       276 2.10527E-03-6.13198E-06 5.29396E-23
 -1       277 2.10449E-03-1.21379E-05 0.00000E+00
 -1       278 2.10369E-03-1.81209E-05 0.00000E+00
 -1       279 2.10267E-03-2.34647E-05-1.05879E-22
 -1       280 2.10118E-03-2.75738E-05-5.29396E-23
 -1       281 2.09903E-03-2.98977E-05-1.05879E-22
 -1       282 2.09603E-03-2.99450E-05 5.29396E-23
 -1       283 2.09201E-03-2.73063E-05-5.29396E-23
 -1       284 2.08687E-03-2.16575E-05-2.64698E-23
 -1       285 2.08048E-03-1.27900E-05-5.29396E-23
 -1       301 2.12902E-03-7.04501E-07 0.00000E+00
 -1       302 2.11822E-03-6.60887E-07 0.00000E+00
 -1       303 2.10791E-03-6.12099E-07 0.00000E+00
 -1       304 2.09739E-03-5.68731E-07-1.65436E-24
 -1       305 2.08595E-03-5.39467E-07 1.65436E-24
 -1       306 2.07042E-03 1.36357E-04-1.05879E-22
 -1       307 1.85071E-03 4.85315E-04-5.29396E-23
 -1       308 1.47832E-03 9.78576E-04 1.05879E-22
 -1       309 9.94648E-04 1.54644E-03 0.00000E+00
 -1       310 4.97420E-04 2.12253E-03 0.00000E+00
 -1       311 8.84914E-05 2.64292E-03 0.00000E+00
 -1       312-1.76437E-04 3.03954E-03-2.11758E-22
 -1       313-2.84519E-04 3.24124E-03-5.29396E-23
 -1       314-2.75763E-04 3.19459E-03-2.11758E-22
 -1       315-2.15508E-04 2.89333E-03 0.00000E+00
 -1       316-1.55296E-04 2.38017E-03 0.00000E+00
 -1       317-1.17943E-04 1.73332E-03 0.00000E+00
 -1       318-8.43580E-05 1.06902E-03-1.05879E-22
 -1       319-3.04353E-05 5.05136E-04 0.00000E+00
 -1       320 3.39109E-05 1.28695E-04 1.05879E-22
 -1       336 7.70489E-05-3.51545E-07 0.00000E+00
 -1       337 7.54412E-05-4.06296E-07-8.27181E-25
 -1       338 7.35768E-05-4.61544E-07 1.65436E-24
 -1       339 7.14566E-05-5.17733E-07 0.00000E+00
 -1       340 6.90815E-05-5.74441E-07 1.65436E-24
 -1       406 7.79631E-05 8.23888E-07 6.61744E-24
 -1       407 7.74274E-05 9.41429E-07 0.00000E+00
 -1       408 7.68202E-05 1.05886E-06 0.00000E+00
 -1       409 7.61416E-05 1.17602E-06 0.00000E+00
 -1       410 7.53916E-05 1.29268E-06 0.00000E+00
 -1       521 2.00122E-03 1.36713E-04 1.05879E-22
 -1       522 1.78187E-03 4.84107E-04 0.00000E+00
 -1       523 1.41235E-03 9.74447E-04 0.00000E+00
 -1       524 9.35793E-04 1.53755E-03 5.29396E-23
 -1       525 4.46530E-04 2.10852E-03 0.00000E+00
 -1       526 4.27725E-05 2.62458E-03 0.00000E+00
 -1       527-2.19175E-04 3.01719E-03 0.00000E+00
 -1       528-3.26407E-04 3.21596E-03 0.00000E+00
 -1       529-3.17863E-04 3.16718E-03 0.00000E+00
 -1       530-2.58393E-04 2.86595E-03 0.00000E+00
 -1       531-1.98488E-04 2.35549E-03 1.05879E-22
 -1       532-1.60031E-04 1.71554E-03 0.00000E+00
 -1       533-1.25058E-04 1.05888E-03 1.05879E-22
 -1       534-7.09596E-05 4.99935E-04 5.29396E-23
 -1       535-7.39822E-06 1.26601E-04 0.00000E+00
 -1       536 6.68531E-05 1.39507E-06 0.00000E+00
 -1       537 6.72775E-05 2.00059E-06 0.00000E+00
 -1       538 6.77008E-05 1.74710E-06 0.00000E+00
 -1       539 6.81283E-05 1.18284E-06 6.61744E-24
 -1       540 6.85557E-05 4.31364E-07-1.32349E-23
 -1       541 6.89839E-05-3.87401E-07 6.61744E-24
 -1       542 6.94122E-05-1.24610E-06 1.32349E-23
 -1       543 6.98406E-05-2.11811E-06 0.00000E+00
 -1       544 7.02690E-05-2.99516E-06 0.00000E+00
 -1       545 7.06974E-05-3.86908E-06-6.61744E-24
 -1       546 7.11257E-05-4.72737E-06 0.00000E+00
 -1       547 7.15534E-05-5.55723E-06-6.61744E-24
 -1       548 7.19811E-05-6.30679E-06-1.32349E-23
 -1       549 7.24059E-05-6.92259E-06-6.61744E-24
 -1       550 7.28319E-05-7.16795E-06 6.61744E-24
 -1       551 6.12357E-05-8.12713E-07 0.00000E+00
 -1       552 5.40389E-05-1.00163E-06 0.00000E+00
 -1       553 4.57875E-05-1.19767E-06 0.00000E+00
 -1       554 3.74176E-05-1.39768E-06 0.00000E+00
 -1       555 2.98653E-05-1.59591E-06 0.00000E+00
 -1       556 6.55744E-05 1.57109E-06 0.00000E+00
 -1       557 6.49854E-05 3.02196E-06 0.00000E+00
 -1       558 6.46496E-05 3.80156E-06 0.00000E+00
 -1       559 6.45331E-05 3.99874E-06 0.00000E+00
 -1       560 6.46019E-05 3.70217E-06-6.61744E-24
 -1       561 6.48224E-05 3.00092E-06 3.30872E-24
 -1       562 6.51611E-05 1.98411E-06 0.00000E+00
 -1       563 6.55845E-05 7.40939E-07 0.00000E+00
 -1       564 6.60591E-05-6.39345E-07 0.00000E+00
 -1       565 6.65516E-05-2.06751E-06-4.13590E-25
 -1       566 6.70287E-05-3.45428E-06 0.00000E+00
 -1       567 6.74569E-05-4.71038E-06 0.00000E+00
 -1       568 6.78030E-05-5.74661E-06 0.00000E+00
 -1       569 6.80334E-05-6.47388E-06 0.00000E+00
 -1       570 6.81149E-05-6.80308E-06 0.00000E+00
 -1       571 7.33230E-05-6.19691E-06 8.27181E-25
 -1       572 7.34054E-05-5.65182E-06-4.13590E-25
 -1       573 7.34884E-05-5.15450E-06-3.30872E-24
 -1       574 7.35716E-05-4.69526E-06 8.27181E-25
 -1       575 7.36549E-05-4.26438E-06 0.00000E+00
 -1       576 7.37382E-05-3.85206E-06 8.27181E-25
 -1       577 7.38216E-05-3.44847E-06 3.30872E-24
 -1       578 7.39049E-05-3.04382E-06 0.00000E+00
 -1       579 7.39883E-05-2.62827E-06 0.00000E+00
 -1       580 7.40717E-05-2.19201E-06 0.00000E+00
 -1       581 7.41550E-05-1.72524E-06 3.30872E-24
 -1       582 7.42383E-05-1.21813E-06 0.00000E+00
 -1       583 7.43216E-05-6.60887E-07 0.00000E+00
 -1       584 7.44049E-05-4.38163E-08-6.61744E-24
 -1       585 7.44880E-05 6.42745E-07 0.00000E+00
 -1       586 7.23740E-05-6.77204E-06 0.00000E+00
 -1       587 7.14636E-05-6.74599E-06 0.00000E+00
 -1       588 7.05416E-05-6.72028E-06-4.13590E-25
 -1       589 6.96390E-05-6.69495E-06 0.00000E+00
 -1       590 6.87868E-05-6.67023E-06 0.00000E+00
 -1       591 7.29806E-05-6.16378E-06 1.03398E-25
 -1       592 7.27362E-05-5.58386E-06 0.00000E+00
 -1       593 7.25085E-05-5.04915E-06-8.27181E-25
 -1       594 7.22940E-05-4.55052E-06 4.13590E-25
 -1       595 7.20894E-05-4.07870E-06 8.27181E-25
 -1       596 7.18914E-05-3.62449E-06-4.13590E-25
 -1       597 7.16966E-05-3.17871E-06 0.00000E+00
 -1       598 7.15014E-05-2.73216E-06 4.13590E-25
 -1       599 7.13026E-05-2.27566E-06-8.27181E-25
 -1       600 7.10965E-05-1.80003E-06 4.13590E-25
 -1       601 7.08798E-05-1.29607E-06 0.00000E+00
 -1       602 7.06491E-05-7.54595E-07 4.13590E-25
 -1       603 7.04010E-05-1.66408E-07 0.00000E+00
 -1       604 7.01323E-05 4.77741E-07 0.00000E+00
 -1       605 6.98394E-05 1.18700E-06 0.00000E+00
 -1       606 7.45875E-05 2.36447E-06 3.30872E-24
 -1       607 7.46008E-05 3.45384E-06 0.00000E+00
 -1       608 7.46133E-05 4.66806E-06 0.00000E+00
 -1       609 7.46252E-05 5.99835E-06 0.00000E+00
 -1       610 7.46369E-05 7.43589E-06 0.00000E+00
 -1       611 7.46484E-05 8.97175E-06 0.00000E+00
 -1       612 7.46597E-05 1.05969E-05 0.00000E+00
 -1       613 7.46709E-05 1.23026E-05 0.00000E+00
 -1       614 7.46820E-05 1.40796E-05 0.00000E+00
 -1       615 7.46929E-05 1.59191E-05 0.00000E+00
 -1       616 7.47038E-05 1.78122E-05 0.00000E+00
 -1       617 7.47146E-05 1.97498E-05 0.00000E+00
 -1       618 7.47253E-05 2.17230E-05-1.65436E-24
 -1       619 7.47358E-05 2.37228E-05 0.00000E+00
 -1       620 7.47463E-05 2.57403E-05 0.00000E+00
 -1       621 7.37206E-05 1.50166E-06 0.00000E+00
 -1       622 7.28760E-05 1.59614E-06 1.65436E-24
 -1       623 7.20356E-05 1.69061E-06 3.30872E-24
 -1       624 7.11976E-05 1.78494E-06-1.65436E-24
 -1       625 7.03603E-05 1.87911E-06 0.00000E+00
 -1       626 7.43093E-05 2.39190E-06 0.00000E+00
 -1       627 7.40063E-05 3.48740E-06 0.00000E+00
 -1       628 7.36654E-05 4.68440E-06 0.00000E+00
 -1       629 7.32903E-05 5.97234E-06 0.00000E+00
 -1       630 7.28849E-05 7.34067E-06 0.00000E+00
 -1       631 7.24534E-05 8.77873E-06 3.30872E-24
 -1       632 7.19995E-05 1.02759E-05-6.61744E-24
 -1       633 7.15275E-05 1.18215E-05 0.00000E+00
 -1       634 7.10412E-05 1.34049E-05 0.00000E+00
 -1       635 7.05446E-05 1.50155E-05-1.65436E-24
 -1       636 7.00418E-05 1.66426E-05 3.30872E-24
 -1       637 6.95368E-05 1.82757E-05-1.65436E-24
 -1       638 6.90334E-05 1.99040E-05-3.30872E-24
 -1       639 6.85357E-05 2.15169E-05 0.00000E+00
 -1       640 6.80472E-05 2.31039E-05 0.00000E+00
 -1       656 7.30025E-05 2.72597E-05 0.00000E+00
 -1       657 7.17194E-05 2.67330E-05 0.00000E+00
 -1       658 7.07296E-05 2.62082E-05 0.00000E+00
 -1       659 6.98491E-05 2.56838E-05 0.00000E+00
 -1       660 6.88659E-05 2.51577E-05-6.61744E-24
 -1       661 7.41085E-05 2.97633E-05-1.65436E-24
 -1       662 7.34879E-05 3.16990E-05 8.27181E-25
 -1       663 7.28897E-05 3.35745E-05-3.30872E-24
 -1       664 7.23138E-05 3.53930E-05 0.00000E+00
 -1       665 7.17587E-05 3.71563E-05 3.30872E-24
 -1       666 7.12237E-05 3.88666E-05 0.00000E+00
 -1       667 7.07080E-05 4.05259E-05 0.00000E+00
 -1       668 7.02108E-05 4.21359E-05-1.65436E-24
 -1       669 6.97316E-05 4.36980E-05 3.30872E-24
 -1       670 6.92699E-05 4.52139E-05 0.00000E+00
 -1       671 6.88250E-05 4.66848E-05 3.30872E-24
 -1       672 6.83966E-05 4.81117E-05-1.65436E-24
 -1       673 6.79842E-05 4.94956E-05 0.00000E+00
 -1       674 6.75867E-05 5.08370E-05-8.27181E-25
 -1       675 6.72051E-05 5.21372E-05-8.27181E-25
 -1       676 7.28924E-05 5.39058E-05 3.30872E-24
 -1       677 7.16762E-05 5.38028E-05 0.00000E+00
 -1       678 7.04614E-05 5.36998E-05 0.00000E+00
 -1       679 6.92489E-05 5.35972E-05 1.65436E-24
 -1       680 6.80391E-05 5.34945E-05 0.00000E+00
 -1       771 2.16015E-05 9.02543E-07-2.64698E-23
 -1       772 1.93053E-05 3.12904E-06 0.00000E+00
 -1       773 1.71802E-05 4.89769E-06-5.29396E-23
 -1       774 1.52150E-05 6.23545E-06 0.00000E+00
 -1       775 1.34006E-05 7.17092E-06 0.00000E+00
 -1       776 1.17260E-05 7.73373E-06-2.64698E-23
 -1       777 1.01799E-05 7.95433E-06 5.29396E-23
 -1       778 8.75037E-06 7.86437E-06 2.64698E-23
 -1       779 7.42526E-06 7.49614E-06-5.29396E-23
 -1       780 6.19200E-06 6.88298E-06 2.64698E-23
 -1       781 5.03787E-06 6.05875E-06-5.29396E-23
 -1       782 3.94991E-06 5.05810E-06 0.00000E+00
 -1       783 2.91500E-06 3.91606E-06-5.29396E-23
 -1       784 1.92012E-06 2.66827E-06 0.00000E+00
 -1       785 9.51790E-07 1.35048E-06 0.00000E+00
 -1       786 6.81045E-05-6.09649E-06 0.00000E+00
 -1       787 6.81985E-05-5.57588E-06 8.27181E-25
 -1       788 6.82922E-05-5.07759E-06 0.00000E+00
 -1       789 6.83869E-05-4.59361E-06 0.00000E+00
 -1       790 6.84815E-05-4.11916E-06 0.00000E+00
 -1       791 6.85764E-05-3.64947E-06 1.65436E-24
 -1       792 6.86713E-05-3.18085E-06-3.30872E-24
 -1       793 6.87662E-05-2.70963E-06-1.65436E-24
 -1       794 6.88611E-05-2.23153E-06 3.30872E-24
 -1       795 6.89560E-05-1.74225E-06-1.65436E-24
 -1       796 6.90509E-05-1.23498E-06 0.00000E+00
 -1       797 6.91457E-05-7.02824E-07 1.65436E-24
 -1       798 6.92405E-05-1.33293E-07 3.30872E-24
 -1       799 6.93349E-05 4.86264E-07 0.00000E+00
 -1       800 6.94294E-05 1.17977E-06-1.65436E-24
 -1       801 6.32009E-05-5.49422E-06 1.32349E-23
 -1       802 5.02206E-05-4.36427E-06 0.00000E+00
 -1       803 3.32820E-05-3.29212E-06 0.00000E+00
 -1       804 1.63673E-05-2.22864E-06 6.61744E-24
 -1       805 3.76101E-06-1.10108E-06 0.00000E+00
 -1       806 6.77110E-05-6.15108E-06 0.00000E+00
 -1       807 6.74112E-05-5.67762E-06 1.65436E-24
 -1       808 6.71161E-05-5.21906E-06 3.30872E-24
 -1       809 6.68234E-05-4.76816E-06 1.65436E-24
 -1       810 6.65307E-05-4.31772E-06 0.00000E+00
 -1       811 6.62355E-05-3.86056E-06 1.65436E-24
 -1       812 6.59350E-05-3.38953E-06 3.30872E-24
 -1       813 6.56266E-05-2.89750E-06-1.65436E-24
 -1       814 6.53076E-05-2.37733E-06 0.00000E+00
 -1       815 6.49754E-05-1.82188E-06 1.65436E-24
 -1       816 6.46272E-05-1.22404E-06 0.00000E+00
 -1       817 6.42605E-05-5.76663E-07 1.65436E-24
 -1       818 6.38726E-05 1.27360E-07 1.65436E-24
 -1       819 6.34608E-05 8.95120E-07 0.00000E+00
 -1       820 6.30228E-05 1.73372E-06-1.65436E-24
 -1       821 6.94081E-05 2.64354E-06-8.27181E-25
 -1       822 6.92872E-05 2.98055E-06 0.00000E+00
 -1       823 6.91668E-05 3.13683E-06 3.30872E-24
 -1       824 6.90451E-05 3.26777E-06 0.00000E+00
 -1       825 6.89233E-05 3.53487E-06 0.00000E+00
 -1       826 6.88011E-05 4.09889E-06 0.00000E+00
 -1       827 6.86786E-05 5.04711E-06 3.30872E-24
 -1       828 6.85555E-05 6.46475E-06 0.00000E+00
 -1       829 6.84317E-05 8.32089E-06-3.30872E-24
 -1       830 6.83072E-05 1.05822E-05 1.65436E-24
 -1       831 6.81821E-05 1.31151E-05-3.30872E-24
 -1       832 6.80569E-05 1.57847E-05 0.00000E+00
 -1       833 6.79319E-05 1.84220E-05 3.30872E-24
 -1       834 6.78087E-05 2.08585E-05 1.65436E-24
 -1       835 6.76857E-05 2.29749E-05 0.00000E+00
 -1       836 6.85429E-05 2.08452E-06-3.30872E-24
 -1       837 6.74039E-05 2.19998E-06-1.65436E-24
 -1       838 6.61702E-05 2.31516E-06-3.30872E-24
 -1       839 6.49076E-05 2.42960E-06 8.27181E-25
 -1       840 6.36815E-05 2.54390E-06-4.13590E-25
 -1       856 6.75294E-05 2.61870E-05 0.00000E+00
 -1       857 6.74839E-05 2.78572E-05 0.00000E+00
 -1       858 6.74384E-05 2.96428E-05-8.27181E-25
 -1       859 6.73920E-05 3.15224E-05-8.27181E-25
 -1       860 6.73454E-05 3.34739E-05-1.65436E-24
 -1       861 6.72986E-05 3.54755E-05 8.27181E-25
 -1       862 6.72517E-05 3.75050E-05-1.65436E-24
 -1       863 6.72047E-05 3.95403E-05 8.27181E-25
 -1       864 6.71578E-05 4.15594E-05-1.65436E-24
 -1       865 6.71110E-05 4.35401E-05 0.00000E+00
 -1       866 6.70642E-05 4.54604E-05-1.65436E-24
 -1       867 6.70176E-05 4.72984E-05 8.27181E-25
 -1       868 6.69712E-05 4.90323E-05 1.65436E-24
 -1       869 6.69250E-05 5.06405E-05-8.27181E-25
 -1       870 6.68790E-05 5.21015E-05 0.00000E+00
 -1       871 6.62860E-05 2.46527E-05 0.00000E+00
 -1       872 6.51275E-05 2.46489E-05 0.00000E+00
 -1       873 6.40417E-05 2.46447E-05 0.00000E+00
 -1       874 6.29744E-05 2.46399E-05 2.06795E-25
 -1       875 6.18714E-05 2.46344E-05 0.00000E+00
 -1       876 6.71120E-05 2.61975E-05 0.00000E+00
 -1       877 6.66309E-05 2.78078E-05-1.65436E-24
 -1       878 6.61279E-05 2.94768E-05-3.30872E-24
 -1       879 6.56060E-05 3.11970E-05-1.65436E-24
 -1       880 6.50677E-05 3.29607E-05 0.00000E+00
 -1       881 6.45159E-05 3.47603E-05-1.65436E-24
 -1       882 6.39535E-05 3.65884E-05 3.30872E-24
 -1       883 6.33832E-05 3.84373E-05-1.65436E-24
 -1       884 6.28079E-05 4.02994E-05 3.30872E-24
 -1       885 6.22303E-05 4.21674E-05-1.65436E-24
 -1       886 6.16534E-05 4.40336E-05 0.00000E+00
 -1       887 6.10800E-05 4.58905E-05 0.00000E+00
 -1       888 6.05126E-05 4.77304E-05 0.00000E+00
 -1       889 5.99539E-05 4.95459E-05 8.27181E-25
 -1       890 5.94067E-05 5.13292E-05 1.65436E-24
 -1       891 6.56556E-05 5.33403E-05 1.65436E-24
 -1       892 6.44549E-05 5.32862E-05 4.13590E-25
 -1       893 6.32033E-05 5.32320E-05 1.65436E-24
 -1       894 6.18734E-05 5.31779E-05-4.13590E-25
 -1       895 6.04375E-05 5.31238E-05 8.27181E-25
 -1       956 6.24422E-05 3.72528E-06 0.00000E+00
 -1       957 6.23254E-05 4.87751E-06 8.27181E-25
 -1       958 6.22081E-05 6.09923E-06 1.65436E-24
 -1       959 6.20905E-05 7.38240E-06 0.00000E+00
 -1       960 6.19728E-05 8.71898E-06 0.00000E+00
 -1       961 6.18550E-05 1.01009E-05 0.00000E+00
 -1       962 6.17371E-05 1.15199E-05-3.30872E-24
 -1       963 6.16192E-05 1.29680E-05 0.00000E+00
 -1       964 6.15012E-05 1.44371E-05-3.30872E-24
 -1       965 6.13832E-05 1.59190E-05-1.65436E-24
 -1       966 6.12653E-05 1.74057E-05 3.30872E-24
 -1       967 6.11474E-05 1.88889E-05 1.65436E-24
 -1       968 6.10295E-05 2.03605E-05 3.30872E-24
 -1       969 6.09119E-05 2.18125E-05 0.00000E+00
 -1       970 6.07946E-05 2.32368E-05-3.30872E-24
 -1       971 6.05678E-05 2.60448E-05 1.65436E-24
 -1       972 6.04548E-05 2.75665E-05 0.00000E+00
 -1       973 6.03415E-05 2.91794E-05 0.00000E+00
 -1       974 6.02279E-05 3.08717E-05 0.00000E+00
 -1       975 6.01142E-05 3.26316E-05 3.30872E-24
 -1       976 6.00003E-05 3.44473E-05 1.65436E-24
 -1       977 5.98864E-05 3.63070E-05-3.30872E-24
 -1       978 5.97724E-05 3.81989E-05 1.65436E-24
 -1       979 5.96583E-05 4.01111E-05-3.30872E-24
 -1       980 5.95443E-05 4.20317E-05 1.65436E-24
 -1       981 5.94303E-05 4.39490E-05 0.00000E+00
 -1       982 5.93164E-05 4.58511E-05 0.00000E+00
 -1       983 5.92027E-05 4.77262E-05 3.30872E-24
 -1       984 5.90896E-05 4.95624E-05 1.65436E-24
 -1       985 5.89770E-05 5.13478E-05 3.30872E-24
 -3
    1PSTEP                        24          12           1          
  100CL  112 6.56250E-01         409                     0   12           1
 -4  STRESS      6    1
 -5  SXX         1    4    1    1
 -5  SYY         1    4    2    2
 -5  SZZ         1    4    3    3
 -5  SXY         1    4    1    2
 -5  SYZ         1    4    2    3
 -5  SZX         1    4    3    1
 -1         1-1.48121E+06-8.20582E+05-2.80495E+05-1.40053E+06 1.08776E-09-8.40373E-08
 -1         2 9.78989E+01-2.43472E+05 1.48242E+03-2.80497E+03-5.32452E-10-1.09148E-07
 -1         3-1.74485E+01-1.40850E+05 5.48649E+01-2.47702E+01-6.50422E-11 5.66251E-09
 -1         5-3.68973E+01 3.37048E+05 8.90134E+00 7.10834E-01 2.39461E-10-7.93625E-09
 -1         8-6.03584E+05-4.28419E+05 1.22144E+05-1.02634E+06 9.56788E-10 1.53828E-07
 -1         9 7.35208E+06 5.69353E+06 1.99151E+06 5.58362E+06-1.51223E-08 2.63099E-09
 -1        10-5.92401E+01-1.46665E+05 5.38406E+02-1.53190E+02-1.59685E-09-2.43510E-08
 -1        12-3.33102E+01 3.37067E+05 2.90579E+02 5.09295E+00 5.67347E-10-1.45628E-08
 -1        15 3.44685E+03 1.89434E+03 1.11421E+04 1.19630E+01-7.37828E-11 7.21022E-08
 -1        16 9.57463E+06 8.67350E+06 2.68267E+06 9.00126E+06 1.94802E-08 2.89098E-08
 -1        17 1.15352E+07 3.42942E+05 1.79740E+06-6.18756E+05 4.90472E-09-3.04208E-08
 -1        18 3.58426E+05 8.12735E+04 6.27497E+04-7.09690E+04 1.33264E-09-3.58932E-09
 -1        19 1.04022E+05 1.27059E+05-3.69358E+02 2.05933E+04-1.39007E-09 8.04721E-10
 -1        20-3.56025E+04-4.91428E+05-1.07890E+05 4.00138E+04 6.68418E-09-2.40410E-09
 -1        21-4.73892E+01-2.93017E+05-9.54917E+02-2.44562E+02-2.68510E-08 6.37725E-09
 -1        24 1.76790E+07-1.04666E+05 2.63558E+06-1.46108E+06 6.61263E-08 1.75496E-08
 -1        25 2.04471E+05 7.25137E+05 1.98214E+05-1.32967E+05 1.42081E-09 7.40511E-09
 -1        26-1.50662E+04 8.97606E+04-1.52387E+04-1.71434E+04 2.51239E-09 4.21644E-09
 -1        27-8.24012E+04-2.70817E+05-1.02087E+05 6.11063E+04 7.91367E-09-1.32756E-09
 -1        28 2.29088E+04-7.99481E+04 1.65172E+04 2.74105E+04 7.79352E-09 2.03413E-09
 -1        32-6.87251E+05 1.65049E+06 8.76899E+05-7.19180E+05-1.03028E-08 3.64345E-08
 -1        33-1.52138E+05 8.12238E+04 2.85864E+04-5.22118E+04 2.33043E-09 1.05744E-09
 -1        34-2.02040E+05-1.96747E+04 4.17453E+02 6.05631E+04 3.99935E-09 3.03711E-09
 -1        35-2.32187E+04-3.17443E+04-1.24725E+03 5.10614E+04 9.43243E-09-1.56312E-09
 -1        51 3.10576E+03-6.65108E+05 2.31683E+04-1.55940E+06-5.82077E-10 1.46625E-07
 -1        52 1.27604E+04-6.76903E+05 2.26320E+04-1.81917E+06 9.74978E-10-1.19559E-07
 -1        53 1.58727E+04-7.02140E+05 2.68391E+04-1.55388E+06 1.36788E-09-2.29396E-07
 -1        54 4.25624E+04-7.06755E+05 5.32591E+04-1.82465E+06 3.92902E-10-2.39030E-07
 -1        55 7.37125E+04-7.29717E+05 1.00353E+05-1.55268E+06 1.14960E-09-2.19734E-09
 -1        56-2.89201E+06-3.28760E+05-2.01055E+05-1.10166E+06 2.07183E-08-4.26808E-08
 -1        57-2.91650E+06-5.62777E+05-1.34903E+05-1.15514E+06-2.74604E-08 2.72994E-07
 -1        58-2.93762E+06-3.85914E+05-4.73136E+04-1.08200E+06-8.43352E-09-5.14101E-08
 -1        59-2.86352E+06-4.96409E+05-2.81386E+04-1.18056E+06-2.63626E-08-9.98152E-08
 -1        60-2.94547E+06-3.92392E+05-1.10422E+04-1.07763E+06-1.13230E-08-1.86689E-07
 -1        61-2.85709E+06-4.85670E+05-6.31757E+03-1.18206E+06 2.81208E-08 5.22636E-08
 -1        62-2.94394E+06-3.96390E+05-3.32941E+03-1.08057E+06-1.30972E-08-1.34320E-07
 -1        63-2.86432E+06-4.74720E+05-2.69440E+03-1.16986E+06-1.55442E-08 1.06986E-07
 -1        64-2.93725E+06-4.03943E+05-4.19553E+03-1.08915E+06-2.30266E-08 1.56720E-07
 -1        65-2.88103E+06-4.58527E+05-7.41684E+03-1.14757E+06-2.47292E-08-7.01548E-08
 -1        66-2.92594E+06-4.13467E+05-1.48923E+04-1.10190E+06 1.45465E-08 4.79922E-08
 -1        67-2.91150E+06-4.48748E+05-3.55038E+04-1.11786E+06-1.47211E-08 2.17031E-07
 -1        68-2.90609E+06-4.14595E+05-6.16647E+04-1.11814E+06 1.22345E-08 1.53523E-09
 -1        69-2.99578E+06-5.20984E+05-1.73605E+05-1.07220E+06-6.60953E-09 4.28772E-08
 -1        70-2.84246E+06-3.43810E+05-2.59334E+05-1.14671E+06-1.58943E-08 1.70650E-07
 -1        86-1.92934E+02-2.53272E+05-4.16538E+02 1.40182E+03 4.34811E-09-2.91202E-08
 -1        87 3.29026E+02-2.44060E+05 1.66043E+03-5.46526E+03 7.04722E-09 2.27168E-08
 -1        88-3.78171E+02-2.52746E+05 2.61033E+02 4.05991E+03 9.71397E-09-1.11049E-07
 -1        89 1.83331E+03-2.45196E+05 3.03098E+03-1.03722E+04 1.46010E-08-1.34205E-07
 -1        90-1.57387E+03-2.52299E+05 2.71451E+03 6.30796E+03 1.55057E-08 9.94942E-09
 -1       121-2.75751E+01-1.40929E+05 5.29471E+01 1.23704E+01 1.69717E-10 6.23777E-09
 -1       122-6.51255E+00-1.40841E+05 1.18160E+02-4.97796E+01-6.22425E-10 3.05681E-09
 -1       123-3.60869E+01-1.40938E+05 1.97809E+02 3.73203E+01 5.04883E-10-6.72617E-09
 -1       124 1.28726E+02-1.40752E+05 4.76693E+02-1.57832E+02-1.18672E-09 8.59222E-09
 -1       125-1.26224E+02-1.41019E+05 7.98564E+02 1.20377E+02 7.73753E-10-2.81671E-09
 -1       191-3.90168E+01 3.37070E+05 9.09816E+00-3.65423E-01 3.69181E-10 1.86810E-09
 -1       192-3.77343E+01 3.37049E+05 1.89216E+01 2.56946E+00 5.47438E-10 5.75528E-09
 -1       193-4.12321E+01 3.37070E+05 3.36899E+01-2.26610E+00 6.78591E-10 1.22254E-08
 -1       194-4.04231E+01 3.37052E+05 7.17526E+01 5.94625E+00 3.80339E-10 1.27693E-08
 -1       195-4.54864E+01 3.37068E+05 1.38846E+02-3.81486E+00 1.06228E-09-8.51105E-09
 -1       251 3.43810E+06-1.96071E+05 4.57980E+05 4.39644E+04 7.81574E-09-1.10769E-07
 -1       252 3.65203E+06 2.26682E+05 3.25488E+05-7.98325E+04 4.53656E-09-1.93129E-07
 -1       253 3.52176E+06-3.00932E+04 1.19066E+05 5.05358E+03-7.43478E-09-4.18731E-08
 -1       254 3.55503E+06 3.48720E+04 7.46314E+04-3.01293E+04 7.96743E-09-1.65596E-07
 -1       255 3.53477E+06-4.61415E+03 3.07197E+04-5.73020E+03-9.86788E-10-4.72173E-08
 -1       256 3.54003E+06 5.47290E+03 1.82899E+04-1.66129E+04 1.12331E-08-1.14473E-07
 -1       257 3.53684E+06-7.58589E+02 9.08922E+03-8.46308E+03 5.18787E-10 5.28537E-08
 -1       258 3.53788E+06 1.43781E+03 7.30631E+03-1.43366E+04-9.90170E-10 1.69783E-07
 -1       259 3.53694E+06-5.88194E+02 7.57605E+03-8.00671E+03 6.45295E-09 4.10698E-08
 -1       260 3.53930E+06 3.99797E+03 1.39161E+04-1.92463E+04-1.57924E-08-1.45636E-07
 -1       261 3.53542E+06-3.31712E+03 2.28422E+04-3.55320E+03 1.07423E-08-1.11530E-07
 -1       262 3.55115E+06 2.52428E+04 5.51209E+04-4.00557E+04-2.29188E-08-5.70826E-08
 -1       263 3.52511E+06-2.18347E+04 8.75888E+04 1.28029E+04 4.78781E-09 8.41683E-08
 -1       264 3.63544E+06 1.66796E+05 2.42197E+05-1.14663E+05 2.02112E-09 2.20207E-08
 -1       265 3.45232E+06-1.45186E+05 3.34374E+05 7.10522E+04 6.58474E-10 6.30971E-08
 -1       266-6.23937E+04-2.91608E+04 1.46466E+05-2.56079E+02-3.27418E-10 2.18934E-07
 -1       267 7.23378E+04 3.40108E+04 1.03484E+05 2.95332E+02 5.54792E-10-8.91853E-08
 -1       268-9.70009E+03-4.81561E+03 3.84665E+04-3.76378E+01-3.45608E-11-7.08734E-09
 -1       269 1.14533E+04 5.76466E+03 2.50006E+04 4.38344E+01-2.10548E-10-7.35073E-09
 -1       270-1.71915E+03-9.47118E+02 1.20682E+04-5.94897E+00-1.55524E-10-7.77533E-10
 -1       271-6.47301E+06-8.20143E+05-5.09910E+05-2.54018E+06 1.76988E-08 7.73871E-08
 -1       272-6.59174E+06-1.24687E+06-3.26583E+05-2.59848E+06 1.95864E-08 2.46255E-08
 -1       273-6.58167E+06-9.32917E+05-1.20650E+05-2.50296E+06 1.22291E-08 3.79587E-08
 -1       274-6.46387E+06-1.11111E+06-6.68695E+04-2.66032E+06-9.66429E-09 2.10213E-07
 -1       275-6.60411E+06-9.35747E+05-2.80043E+04-2.48881E+06 1.22764E-08 1.57092E-07
 -1       276-6.44012E+06-1.10636E+06-1.48400E+04-2.68242E+06-1.73495E-08 3.58546E-07
 -1       277-6.60933E+06-9.33228E+05-7.46175E+03-2.48447E+06 2.55778E-08 1.27219E-07
 -1       278-6.43881E+06-1.10417E+06-5.90364E+03-2.68224E+06-1.38211E-08-1.75506E-07
 -1       279-6.60526E+06-9.37857E+05-7.46022E+03-2.48896E+06 1.97542E-09-1.26402E-07
 -1       280-6.45129E+06-1.09147E+06-1.36749E+04-2.66178E+06-4.15312E-08 9.86229E-08
 -1       281-6.59237E+06-9.48932E+05-2.69307E+04-2.50169E+06 1.88011E-08-1.31873E-07
 -1       282-6.48599E+06-1.08147E+06-6.19265E+04-2.62300E+06-1.93140E-08 5.58794E-08
 -1       283-6.56447E+06-9.53522E+05-1.13276E+05-2.52252E+06 1.84336E-08-7.33489E-08
 -1       284-6.61843E+06-1.19506E+06-3.03732E+05-2.55246E+06 6.51198E-09-3.27505E-07
 -1       285-6.45801E+06-8.53380E+05-4.75408E+05-2.56296E+06-7.09406E-10-2.41562E-09
 -1       301-1.36866E+04 3.14939E+05 6.60653E+04 8.50304E+05-1.84491E-09 1.77002E-07
 -1       302-1.58866E+04 3.36334E+05 5.92968E+04 1.24546E+06 4.15457E-09 2.57569E-08
 -1       303-1.67628E+04 3.13940E+05 6.97557E+04 8.48416E+05-2.30648E-09-4.15057E-08
 -1       304 5.25948E+03 3.61400E+05 1.34052E+05 1.24488E+06 6.83940E-10-6.03504E-08
 -1       305 7.08592E+03 2.98705E+05 2.30969E+05 8.51463E+05-1.99361E-09-3.17523E-08
 -1       306-2.08799E+07-1.52445E+07-8.69212E+06-1.15238E+07 5.82077E-08 9.26084E-08
 -1       307 5.53599E+06 2.68709E+07 5.97753E+06 1.44971E+07 7.61749E-07-1.21450E-07
 -1       308-1.23902E+06-1.11082E+07-1.60726E+06-4.48164E+06 7.21484E-08 4.29864E-08
 -1       309-1.72679E+07 2.06368E+07 1.90027E+06-6.39822E+06-1.00357E-07 2.77432E-07
 -1       310 4.69558E+05-9.42081E+06-5.42275E+05-3.42626E+06-6.32135E-08 1.99652E-08
 -1       311-6.01727E+05 2.55254E+07 5.19548E+06 1.10585E+07-7.60934E-07 3.36557E-07
 -1       312-1.74042E+07-1.50334E+07-6.78898E+06-1.15782E+07-2.42493E-07-1.60479E-07
 -1       313 4.14610E+07 1.11501E+07 9.46256E+06 1.93569E+07 2.56347E-07-1.62981E-07
 -1       314-2.89224E+07-5.69887E+06-7.38563E+06-3.82601E+06-3.19676E-07-5.22996E-08
 -1       315 3.10028E+07-7.94953E+03 6.12289E+06-9.39245E+06 5.65720E-07 1.67784E-07
 -1       316-1.10148E+07-1.36447E+06-1.44681E+06 4.70272E+06 4.00410E-07 5.67728E-07
 -1       317-3.75783E+06 7.15423E+06 1.90477E+06-1.92118E+07-1.03679E-06 2.18686E-07
 -1       318-8.03453E+06-9.17659E+05-7.08416E+05 4.76942E+06 5.99190E-07 9.21191E-08
 -1       319 2.41906E+07 2.09338E+06 5.04450E+06-1.29884E+07 1.74419E-07 1.59271E-07
 -1       320-2.81184E+07-5.74856E+06-8.06738E+06-1.31766E+06-1.28639E-07-3.60887E-09
 -1       336 4.49100E+01-1.52618E+05 6.06427E+02 3.25559E+01-3.10979E-09-2.47928E-09
 -1       337 3.30153E+02-1.52270E+05 2.26877E+03-1.67816E+02-5.83827E-09 7.40965E-09
 -1       338-4.18866E+02-1.53005E+05 4.57916E+03 1.34817E+02-4.26326E-09 2.43199E-09
 -1       339 5.51380E+03-1.49135E+05 1.15813E+04-3.67114E+02-7.67727E-09 1.58889E-09
 -1       340-3.99068E+03-1.55754E+05 1.82806E+04 2.34774E+02-5.15593E-09-9.19499E-10
 -1       406-1.26140E+01 3.37055E+05 5.72093E+02-1.47930E+00 1.24720E-09-1.11049E-08
 -1       407 1.66898E+02 3.37168E+05 1.21927E+03-1.79848E+01 1.34378E-10 2.46837E-09
 -1       408 5.93289E+02 3.36966E+05 2.43310E+03 1.98470E+01 1.59389E-09-3.01225E-09
 -1       409 2.60227E+03 3.37945E+05 5.48080E+03-2.03351E+02 7.68523E-11-8.80391E-10
 -1       410 7.53631E+03 3.36270E+05 1.11874E+04 1.94053E+02 1.84264E-09 2.21007E-10
 -1       521-2.09172E+07-1.56443E+07-9.01311E+06-1.08847E+07 6.36792E-08-2.04775E-07
 -1       522 2.90761E+06 2.76304E+07 5.60763E+06 1.38340E+07 5.67772E-07-1.19209E-07
 -1       523-1.67838E+06-1.14123E+07-1.52480E+06-4.79509E+06 2.08762E-07 3.04659E-07
 -1       524-2.00391E+07 2.13965E+07 1.83965E+06-8.23507E+06-4.12372E-07 7.97555E-07
 -1       525-5.85109E+04-9.96493E+06-4.80500E+05-3.93638E+06-4.22246E-07 5.65313E-07
 -1       526-3.11418E+06 2.65041E+07 4.96946E+06 1.03285E+07-5.57164E-07 1.44646E-07
 -1       527-1.76551E+07-1.53420E+07-7.02962E+06-1.09991E+07-2.54018E-07 6.66478E-08
 -1       528 4.07009E+07 1.05444E+07 8.95692E+06 1.92843E+07 5.57047E-08-1.20490E-07
 -1       529-2.85587E+07-6.57378E+06-7.65539E+06-3.54239E+06-5.70435E-08 7.42148E-10
 -1       530 2.95453E+07-3.14313E+05 5.79776E+06-1.11744E+07 4.51808E-07-1.35769E-07
 -1       531-1.16836E+07-1.45499E+06-1.35969E+06 4.63368E+06 5.12926E-07 2.19850E-07
 -1       532-6.56696E+06 7.96123E+06 1.84635E+06-2.10477E+07-5.07365E-07 3.79747E-07
 -1       533-9.06777E+06-9.45524E+05-6.50661E+05 4.76960E+06-4.80097E-07 6.30776E-07
 -1       534 2.26814E+07 2.00071E+06 4.78526E+06-1.47843E+07 4.61790E-07-4.64686E-07
 -1       535-2.78167E+07-6.56201E+06-8.35423E+06-1.26945E+06 7.68341E-08-3.24391E-07
 -1       536 1.19911E+06-6.04267E+04 1.39502E+05 5.41122E+03-9.48256E-09 5.37693E-09
 -1       537 1.26167E+06 6.99159E+04 9.90322E+04-8.88732E+03-1.66710E-09 1.48611E-09
 -1       538 1.22344E+06-9.43388E+03 3.61805E+04 3.28554E+02 2.22826E-11 4.58749E-09
 -1       539 1.23347E+06 1.09178E+04 2.27557E+04-2.72676E+03-1.03150E-09 2.88901E-09
 -1       540 1.22733E+06-1.47348E+03 9.31469E+03-7.49082E+02 1.86211E-09-1.96997E-09
 -1       541 1.22896E+06 1.72857E+03 5.56397E+03-1.42011E+03 2.02339E-08-5.65001E-09
 -1       542 1.22797E+06-2.51377E+02 2.73151E+03-9.78118E+02 5.19000E-06 8.60132E-09
 -1       543 1.22829E+06 4.47682E+02 2.17669E+03-1.16214E+03 1.03495E-05 4.41059E-09
 -1       544 1.22800E+06-1.93430E+02 2.20453E+03-1.00707E+03 5.19189E-06 6.13716E-09
 -1       545 1.22869E+06 1.22994E+03 4.04138E+03-1.22266E+03 1.98433E-08-3.68027E-09
 -1       546 1.22757E+06-1.03309E+03 6.57106E+03-9.17592E+02 2.40574E-09 2.55068E-09
 -1       547 1.23180E+06 7.63436E+03 1.59105E+04-1.77276E+03 2.48390E-09-5.10386E-09
 -1       548 1.22487E+06-6.59294E+03 2.52537E+04-4.56953E+02 2.51186E-09 2.54659E-09
 -1       549 1.25094E+06 4.87361E+04 6.89683E+04-4.39696E+03-9.78888E-10 5.84259E-09
 -1       550 1.20840E+06-4.21003E+04 9.73921E+04 1.70657E+03-1.78495E-09 6.33008E-10
 -1       551 4.53452E+03-4.59352E+05-7.21736E+03-1.23306E+06-2.02344E-08 2.77942E-09
 -1       552 2.49696E+04-4.77364E+05 1.52187E+04-1.75591E+06-1.83791E-08 1.20453E-08
 -1       553 1.96758E+04-4.79371E+05 3.97005E+04-1.22975E+06-2.80270E-08 1.17916E-08
 -1       554 5.03827E+04-4.58244E+05 9.47806E+04-1.75604E+06-1.69384E-08 3.66344E-09
 -1       555 3.86293E+04-4.85374E+05 1.70956E+05-1.23274E+06-2.27701E-08-2.47383E-09
 -1       556-1.99668E+03-1.00051E+05 2.27002E+04-1.38816E+05-2.89583E-09-7.75981E-09
 -1       557 3.49722E+04-1.32285E+05 1.19549E+04-1.72631E+05 2.85218E-09 1.15617E-08
 -1       558-2.01078E+03-1.02760E+05 4.88592E+03-1.36084E+05-4.29281E-10-1.39516E-09
 -1       559 3.16318E+04-1.35600E+05 2.47251E+03-1.74285E+05 8.94943E-10 1.74941E-09
 -1       560-2.65841E+03-1.02304E+05 1.06556E+03-1.36460E+05-4.81305E-09-1.47302E-08
 -1       561 3.06231E+04-1.35394E+05 5.54164E+02-1.74937E+05-1.47884E-09 8.28226E-09
 -1       562-3.12638E+03-1.01978E+05 2.35325E+02-1.36794E+05-7.96717E-10 7.59269E-09
 -1       563 3.01209E+04-1.35185E+05 1.23564E+02-1.75261E+05 7.27596E-10 1.18162E-08
 -1       564-3.33095E+03-1.01837E+05 2.73156E+01-1.36941E+05-5.53155E-09-4.90127E-09
 -1       565 3.00038E+04-1.35139E+05-4.71505E+01-1.75330E+05-4.00640E-09 3.71074E-09
 -1       566-3.25945E+03-1.01875E+05-1.81258E+02-1.36899E+05 2.32649E-09 1.83900E-09
 -1       567 3.02171E+04-1.35246E+05-4.19170E+02-1.75119E+05-2.33013E-09 2.82307E-09
 -1       568-2.86525E+03-1.02129E+05-9.24711E+02-1.36683E+05-2.47019E-09 5.28053E-09
 -1       569 2.98546E+04-1.35499E+05-2.11504E+03-1.74076E+05-1.89721E-09-3.87081E-09
 -1       570-1.47860E+03-1.03685E+05-4.19030E+03-1.36422E+05-6.12636E-09-5.80440E-09
 -1       571 2.38053E+05 8.12745E+03 1.21361E+04-5.62065E+04-1.00044E-11 3.73211E-09
 -1       572 2.39859E+05 2.78345E+03 5.94635E+03-6.15858E+04-1.45155E-09-1.30035E-09
 -1       573 2.38767E+05 6.21690E+02 2.64143E+03-5.60421E+04-1.04501E-09 2.11412E-09
 -1       574 2.38980E+05 1.61816E+02 1.32359E+03-6.17631E+04-7.76708E-10 1.03951E-08
 -1       575 2.38839E+05-2.12248E+01 6.23492E+02-5.60209E+04 2.58842E-09 9.38053E-09
 -1       576 2.38854E+05-4.59101E+01 3.16983E+02-6.17868E+04 2.67073E-09 5.05997E-09
 -1       577 2.38845E+05-5.26672E+01 1.55114E+02-5.60181E+04 1.10441E-08 7.29233E-09
 -1       578 2.38839E+05-5.43814E+01 8.25361E+01-6.17896E+04 1.89972E-08-4.85943E-09
 -1       579 2.38857E+05-5.38040E+01 4.65602E+01-5.60180E+04 7.38873E-09-5.10772E-09
 -1       580 2.38856E+05-6.16059E+01 3.69843E+01-6.17866E+04 1.89539E-09-2.46155E-09
 -1       581 2.38883E+05-6.46479E+01 4.26121E+01-5.60211E+04 3.80169E-10-6.48242E-09
 -1       582 2.38898E+05-6.90632E+01 7.60138E+01-6.17554E+04 6.67114E-10-8.75707E-09
 -1       583 2.38919E+05-5.32416E+01 1.41282E+02-5.60492E+04-4.59295E-10-7.28755E-09
 -1       584 2.38998E+05 4.50396E+01 3.16043E+02-6.15194E+04-4.14366E-09-3.32761E-09
 -1       585 2.38932E+05 3.21701E+02 6.38413E+02-5.62575E+04-5.82077E-11 1.91903E-09
 -1       586-3.36511E+03 7.49093E+04-4.90344E+03-1.79116E+05 1.89107E-09-6.24368E-09
 -1       587-6.64361E+02 7.41837E+04-1.14824E+03-1.97033E+05 3.11229E-09 1.54438E-09
 -1       588 8.36733E+02 7.44244E+04 2.00788E+03-1.78975E+05 2.14095E-09-1.35765E-08
 -1       589 3.71422E+03 7.56579E+04 6.68117E+03-1.96927E+05 3.08864E-09-3.97135E-08
 -1       590 1.02490E+04 7.35891E+04 1.45915E+04-1.79213E+05 2.17278E-09-2.12831E-08
 -1       591-5.24329E+04-1.61102E+04-1.80034E+04-2.85490E+04 1.68041E-09-5.38967E-09
 -1       592-5.37429E+04-2.09058E+04-9.75114E+03-3.36673E+04 3.69710E-10 2.41789E-09
 -1       593-5.42602E+04-1.47775E+04-4.05975E+03-2.98453E+04-2.70802E-10-6.73845E-09
 -1       594-5.12304E+04-1.82947E+04-2.02459E+03-3.38017E+04 2.19984E-10-3.93791E-09
 -1       595-5.44015E+04-1.47701E+04-9.30535E+02-2.99056E+04 9.21432E-10 3.82323E-09
 -1       596-5.10618E+04-1.81747E+04-4.74299E+02-3.37856E+04 2.97001E-09 6.10737E-09
 -1       597-5.44197E+04-1.47811E+04-2.61236E+02-2.99083E+04-4.66258E-11-1.15506E-10
 -1       598-5.10458E+04-1.81702E+04-2.15433E+02-3.37808E+04 1.17777E-09-3.33898E-09
 -1       599-5.44180E+04-1.47815E+04-2.82108E+02-2.99076E+04-1.65301E-09-3.26611E-09
 -1       600-5.10628E+04-1.81767E+04-5.29514E+02-3.37843E+04-5.49733E-09-4.93037E-09
 -1       601-5.43943E+04-1.47699E+04-1.04772E+03-2.99032E+04-6.92353E-10-3.43266E-09
 -1       602-5.12522E+04-1.83123E+04-2.28457E+03-3.37996E+04 2.61844E-09-5.11807E-09
 -1       603-5.42327E+04-1.47809E+04-4.58278E+03-2.98351E+04-4.21778E-10 3.81215E-09
 -1       604-5.40946E+04-2.12516E+04-1.10074E+04-3.36361E+04-2.21848E-09 1.08832E-08
 -1       605-5.21594E+04-1.62921E+04-2.03226E+04-2.83791E+04 1.35060E-10 5.53246E-09
 -1       606 3.78249E+04-1.14986E+04-2.07328E+04 3.71064E+04-1.70203E-08-1.08594E-09
 -1       607 3.42690E+04-3.68920E+03-1.03225E+04 4.16473E+04-2.05664E-08-1.18030E-09
 -1       608 3.62658E+04-6.04608E+02-4.62516E+03 3.68065E+04-6.37010E-09 2.70302E-09
 -1       609 3.58516E+04-1.23641E+02-2.33512E+03 4.19721E+04-6.73663E-09-1.80080E-09
 -1       610 3.60558E+04 6.65521E+01-1.11736E+03 3.67731E+04-8.68204E-09-2.83171E-09
 -1       611 3.59649E+04 9.88043E+01-5.63188E+02 4.20074E+04-1.38853E-08 3.91265E-09
 -1       612 3.59857E+04 9.76851E+01-2.71125E+02 3.67699E+04-5.86624E-09 1.05456E-08
 -1       613 3.59411E+04 1.20702E+02-1.24111E+02 4.20114E+04-9.22591E-09-3.25144E-10
 -1       614 3.59421E+04 1.08856E+02-3.73821E+01 3.67688E+04-2.30648E-09 1.03228E-09
 -1       615 3.59105E+04 1.36403E+02 3.34704E+01 4.20119E+04 8.25230E-09-1.83036E-09
 -1       616 3.59094E+04 1.23339E+02 1.17174E+02 3.67691E+04 2.09093E-09 8.87667E-10
 -1       617 3.59051E+04 1.73149E+02 2.74765E+02 4.20111E+04 2.14363E-08-6.09771E-09
 -1       618 3.58712E+04 2.11590E+02 5.56059E+02 3.67692E+04 1.24978E-08-6.78938E-10
 -1       619 3.60898E+04 6.10458E+02 1.25054E+03 4.20099E+04 4.36398E-09 7.22457E-09
 -1       620 3.56792E+04 1.53665E+03 2.51376E+03 3.67666E+04 6.45764E-09 1.03637E-09
 -1       621 5.25058E+02 2.71516E+05 4.38518E+03 1.82695E+03-6.88715E-10 4.83169E-13
 -1       622 5.84535E+02 2.72607E+05 3.52461E+03 2.76646E+03-6.70141E-10-1.25030E-08
 -1       623 2.28571E+01 2.71859E+05 3.79521E+03 1.81901E+03-8.36280E-10-3.99200E-09
 -1       624 1.64872E+03 2.73587E+05 6.98181E+03 2.77143E+03-7.12930E-10-1.31498E-08
 -1       625 1.65166E+03 2.70536E+05 1.20314E+04 1.82374E+03-4.47926E-10-1.29571E-08
 -1       626 2.13255E+05 6.15494E+04 3.98274E+03 1.18753E+05-6.82121E-10 9.78980E-09
 -1       627 2.10007E+05 6.40768E+04 1.92014E+03 1.23689E+05-3.58796E-09-8.82210E-10
 -1       628 2.13414E+05 5.96400E+04 8.09457E+02 1.19309E+05 5.98266E-09 6.39193E-09
 -1       629 2.09376E+05 6.36648E+04 3.97845E+02 1.23974E+05 9.02401E-09-5.27848E-10
 -1       630 2.13408E+05 5.95574E+04 1.83305E+02 1.19311E+05-1.18234E-10-9.88177E-09
 -1       631 2.09285E+05 6.36645E+04 9.96678E+01 1.23967E+05-6.38374E-09-6.00001E-09
 -1       632 2.13385E+05 5.95717E+04 6.67646E+01 1.19294E+05-1.12905E-08-3.27026E-09
 -1       633 2.09259E+05 6.36759E+04 7.69979E+01 1.23951E+05-3.64207E-09-3.67174E-09
 -1       634 2.13364E+05 5.95770E+04 1.26123E+02 1.19283E+05 1.07120E-08 5.73345E-09
 -1       635 2.09257E+05 6.36809E+04 2.57219E+02 1.23945E+05 6.90557E-09 7.44421E-10
 -1       636 2.13346E+05 5.95787E+04 5.19763E+02 1.19276E+05 5.00222E-09 6.80757E-09
 -1       637 2.09359E+05 6.37649E+04 1.14245E+03 1.23938E+05 1.82485E-08-3.85307E-09
 -1       638 2.13300E+05 5.98336E+04 2.34785E+03 1.19158E+05 1.35378E-09-1.96223E-08
 -1       639 2.10588E+05 6.54829E+04 5.55396E+03 1.23575E+05-3.78759E-09-6.85077E-10
 -1       640 2.13143E+05 6.49400E+04 1.15254E+04 1.16983E+05-2.80716E-09 2.01408E-09
 -1       656 5.91115E+04-1.49059E+06-1.42655E+05 7.59956E+02 1.52795E-09-8.05386E-10
 -1       657-7.80862E+04-1.55490E+06-1.17903E+05 1.08280E+04 8.09450E-11-3.52691E-09
 -1       658 1.87086E+04-1.50895E+06-7.22451E+04-1.20197E+03 8.68340E-10-3.18784E-09
 -1       659-8.34706E+04-1.55746E+06-1.24974E+05 1.20760E+04 1.90357E-09-9.15729E-09
 -1       660 6.44849E+04-1.48803E+06-1.54805E+05-4.88019E+02-8.22183E-10-3.41700E-09
 -1       661 2.32069E+05 2.55654E+04 2.18878E+04 9.08617E+04 5.18821E-09-2.54840E-09
 -1       662 2.43353E+05 4.28474E+04 1.47484E+04 8.71910E+04 4.63365E-09-1.63345E-09
 -1       663 2.36367E+05 3.25864E+04 5.15931E+03 8.96149E+04 3.13025E-09 3.17800E-09
 -1       664 2.38375E+05 3.46331E+04 3.08455E+03 8.87115E+04-3.37650E-11 7.01971E-09
 -1       665 2.37015E+05 3.35487E+04 1.21656E+03 8.94288E+04-4.88353E-09 3.31539E-09
 -1       666 2.37611E+05 3.35306E+04 7.09088E+02 8.89539E+04-1.19678E-08 5.68642E-09
 -1       667 2.37127E+05 3.36598E+04 3.72968E+02 8.93835E+04-3.43348E-09 7.04302E-10
 -1       668 2.37486E+05 3.34487E+04 3.72234E+02 8.90223E+04 9.07828E-09-6.73573E-10
 -1       669 2.37139E+05 3.36279E+04 4.97132E+02 8.93614E+04 4.17378E-09-2.64350E-09
 -1       670 2.37600E+05 3.37215E+04 1.07659E+03 8.90334E+04 1.12281E-08 7.78755E-10
 -1       671 2.37013E+05 3.33921E+04 1.90927E+03 8.93703E+04-1.54829E-09-1.32059E-09
 -1       672 2.38703E+05 3.55882E+04 4.88324E+03 8.87760E+04-4.61910E-09 6.50289E-11
 -1       673 2.36042E+05 3.18078E+04 8.18277E+03 8.96009E+04-2.31216E-09-1.92631E-09
 -1       674 2.46485E+05 4.87392E+04 2.34001E+04 8.64948E+04 5.38080E-10-2.50566E-09
 -1       675 2.29282E+05 2.06085E+04 3.47339E+04 9.15125E+04 7.62930E-09-3.38696E-09
 -1       676 2.48896E+01-2.92936E+05-1.15093E+03 1.22285E+02-3.45594E-09-3.01149E-09
 -1       677-3.04728E+02-2.93216E+05-2.10639E+03-2.44378E+02-4.73256E-09-1.03415E-08
 -1       678 2.04164E+02-2.92738E+05-3.72358E+03 1.22010E+02-4.53224E-09 1.08464E-09
 -1       679-3.72390E+03-2.95464E+05-8.84566E+03-2.43389E+02-8.21717E-09-7.40055E-09
 -1       680 2.22319E+03-2.90690E+05-1.42562E+04 1.19888E+02 2.04636E-10 3.87672E-11
 -1       771-3.17132E+06-4.85034E+05-1.32010E+05-1.22060E+06 2.38265E-09 1.81899E-09
 -1       772-3.19558E+06-5.04982E+05-7.14611E+04-1.24043E+06 1.85537E-09-3.51247E-09
 -1       773-3.18499E+06-4.75035E+05-2.97683E+04-1.22979E+06-2.87400E-10 6.16092E-09
 -1       774-3.17667E+06-4.86360E+05-1.47871E+04-1.24223E+06-9.73159E-10 8.11269E-10
 -1       775-3.18640E+06-4.74616E+05-6.78455E+03-1.22998E+06 3.56522E-10 5.50608E-09
 -1       776-3.17508E+06-4.85930E+05-3.31680E+03-1.24282E+06-2.99042E-09 1.53250E-10
 -1       777-3.18689E+06-4.74385E+05-1.62162E+03-1.22980E+06-6.78665E-09-1.01682E-09
 -1       778-3.17467E+06-4.86253E+05-8.71221E+02-1.24339E+06-3.25417E-09 1.17075E-08
 -1       779-3.18721E+06-4.74141E+05-6.31912E+02-1.22965E+06-3.51793E-09-1.90448E-09
 -1       780-3.17447E+06-4.86544E+05-7.31172E+02-1.24388E+06 9.36780E-11 4.04202E-09
 -1       781-3.18742E+06-4.73922E+05-1.24057E+03-1.22954E+06-2.09184E-09-2.25941E-09
 -1       782-3.17454E+06-4.86903E+05-2.56864E+03-1.24426E+06-4.90991E-09-6.33635E-09
 -1       783-3.18741E+06-4.73789E+05-5.10940E+03-1.22939E+06-3.18232E-09-6.53222E-09
 -1       784-3.17758E+06-4.90364E+05-1.22546E+04-1.24437E+06-2.59979E-09-1.04592E-09
 -1       785-3.18526E+06-4.75330E+05-2.26237E+04-1.22769E+06-4.55839E-09-4.73574E-09
 -1       786 2.66020E+05-1.28094E+04 2.96374E+04 1.81329E+02 3.67638E-09 1.05501E-09
 -1       787 2.78860E+05 1.48295E+04 2.09677E+04 1.00706E+01 3.53465E-08-1.41936E-08
 -1       788 2.70975E+05-2.00798E+03 7.67183E+03 1.49506E+02 1.05883E-05 2.07410E-09
 -1       789 2.73089E+05 2.32355E+03 4.82134E+03 5.44174E+01 2.11151E-05-8.94744E-09
 -1       790 2.71793E+05-3.13723E+02 1.96419E+03 1.36988E+02 1.14822E-05 9.10859E-10
 -1       791 2.72135E+05 3.65268E+02 1.15772E+03 6.83564E+01 1.80512E-06 1.92358E-10
 -1       792 2.71930E+05-5.11812E+01 5.37203E+02 1.35567E+02-4.29331E-06-7.46471E-09
 -1       793 2.71984E+05 7.62490E+01 3.69934E+02 6.10626E+01-1.03493E-05 8.25862E-09
 -1       794 2.71945E+05-2.48952E+01 3.01428E+02 1.44282E+02-5.19252E-06-2.23633E-09
 -1       795 2.72014E+05 1.39301E+02 4.75570E+02 2.95116E+01-1.69591E-08 9.84025E-09
 -1       796 2.71899E+05-1.14191E+02 7.36276E+02 1.67119E+02-4.57478E-10-6.06059E-09
 -1       797 2.72356E+05 8.40245E+02 1.75585E+03-4.09215E+01-1.53024E-09-7.78027E-09
 -1       798 2.71604E+05-7.25331E+02 2.77765E+03 2.14716E+02-1.31307E-09-1.20303E-09
 -1       799 2.74444E+05 5.35717E+03 7.57861E+03-1.84347E+02-1.86113E-09 1.89289E-09
 -1       800 2.69810E+05-4.62749E+03 1.07055E+04 3.10543E+02-2.73626E-10-6.31189E-10
 -1       801-1.45788E+05 3.42214E+06 3.39869E+05 1.12574E+04 9.09495E-09-4.55049E-09
 -1       802 2.08259E+05 3.64732E+06 3.23839E+05-1.30301E+05 2.41653E-08-2.62327E-09
 -1       803-5.95289E+04 3.49010E+06 2.37766E+05-5.59392E+04 1.72004E-08 1.28737E-08
 -1       804 3.34581E+05 3.71105E+06 4.89072E+05-1.37302E+05 2.20534E-08 1.45598E-08
 -1       805-2.71928E+05 3.35852E+06 6.21896E+05 1.82493E+04 6.46105E-09 3.69914E-08
 -1       806-2.57838E+05-6.06645E+04-2.41766E+04-1.13058E+05 1.65892E-09 3.26690E-09
 -1       807-2.58733E+05-5.77325E+04-1.18772E+04-1.20072E+05-8.38213E-10-3.78668E-09
 -1       808-2.58554E+05-5.19017E+04-5.03803E+03-1.17130E+05 1.54358E-09 9.01082E-09
 -1       809-2.56167E+05-5.44677E+04-2.46240E+03-1.20457E+05 2.57268E-09 3.89332E-09
 -1       810-2.58667E+05-5.15897E+04-1.12720E+03-1.17310E+05-5.99186E-09-4.33147E-10
 -1       811-2.55971E+05-5.43404E+04-5.58158E+02-1.20433E+05-1.06603E-08-8.69068E-09
 -1       812-2.58686E+05-5.16117E+04-2.77088E+02-1.17309E+05-4.42924E-10-6.44832E-10
 -1       813-2.55944E+05-5.43449E+04-1.72297E+02-1.20417E+05 2.51453E-09-4.16094E-09
 -1       814-2.58681E+05-5.16218E+04-1.57617E+02-1.17304E+05 5.88170E-09-1.78079E-09
 -1       815-2.55943E+05-5.43490E+04-2.42383E+02-1.20410E+05 4.71573E-09-1.13723E-08
 -1       816-2.58661E+05-5.16229E+04-4.51940E+02-1.17298E+05-4.17458E-10-1.18566E-08
 -1       817-2.56015E+05-5.43940E+04-9.67014E+02-1.20396E+05 6.05860E-09 2.11412E-09
 -1       818-2.58596E+05-5.17631E+04-1.97077E+03-1.17230E+05 2.22826E-10-8.62201E-09
 -1       819-2.57102E+05-5.55714E+04-4.63682E+03-1.20117E+05-1.98133E-09 4.01815E-09
 -1       820-2.58208E+05-5.52775E+04-9.43780E+03-1.15737E+05-5.74801E-10-2.15800E-09
 -1       821-3.40610E+05 1.91160E+04-4.42300E+04 2.44718E+02-1.21857E-09 1.14414E-09
 -1       822-3.59667E+05-2.21349E+04-3.12815E+04-2.20290E+03-2.22972E-09 9.06039E-09
 -1       823-3.47947E+05 3.00124E+03-1.14511E+04 5.51339E+02 9.79043E-10 1.41790E-09
 -1       824-3.51066E+05-3.47473E+03-7.20123E+03-2.28863E+03-1.05935E-10 7.73070E-10
 -1       825-3.49208E+05 4.70261E+02-2.96720E+03 3.30441E+02-2.85967E-09-1.27807E-09
 -1       826-3.49538E+05-5.52175E+02-1.76110E+03-1.44323E+03-7.13854E-09-3.50536E-09
 -1       827-3.49471E+05 7.84296E+01-9.42200E+02-2.94076E+02-7.03432E-09-4.76450E-09
 -1       828-3.49304E+05-1.61667E+02-7.78095E+02-1.05834E+02-1.09989E-08 6.13454E-09
 -1       829-3.49440E+05 7.91982E+01-9.43300E+02-1.00697E+03 4.92335E-10-2.07308E-10
 -1       830-3.49612E+05-5.54962E+02-1.79383E+03 1.04884E+03 4.94656E-09-5.39558E-10
 -1       831-3.49166E+05 4.73617E+02-2.99561E+03-1.44877E+03-5.63078E-09-6.80188E-10
 -1       832-3.51112E+05-3.50818E+03-7.29287E+03 1.44067E+03-3.07005E-09 5.03223E-09
 -1       833-3.47943E+05 3.03162E+03-1.15966E+04-1.39881E+03-1.44260E-09-2.74667E-10
 -1       834-3.59742E+05-2.23969E+04-3.16560E+04 8.75795E+02-5.73024E-10 5.77575E-09
 -1       835-3.40536E+05 1.93461E+04-4.47852E+04-8.83860E+02 9.35216E-09 5.43878E-09
 -1       836-1.12016E+03 3.32273E+05 1.98345E+04-3.47630E+04 4.47653E-09 1.56160E-09
 -1       837 4.47710E+03 3.38354E+05 1.68940E+04-6.96446E+04 5.84487E-09-1.79080E-09
 -1       838-3.65560E+02 3.33972E+05 1.73562E+04-3.46592E+04 5.43787E-09 2.52646E-09
 -1       839 1.12271E+04 3.43379E+05 3.29724E+04-6.96655E+04 6.66114E-09-3.24599E-09
 -1       840-3.29231E+03 3.27192E+05 5.26306E+04-3.47373E+04 4.60932E-09-1.47065E-09
 -1       856-1.23738E+05 9.67198E+03-2.54920E+04-6.68049E+02-3.98904E-09 8.74934E-10
 -1       857-1.34271E+05-1.13368E+04-1.75502E+04 5.51616E+03-5.57284E-09-2.67210E-09
 -1       858-1.27897E+05 1.35408E+03-6.61641E+03-7.03595E+02-8.99047E-09 4.79758E-10
 -1       859-1.29497E+05-1.56637E+03-3.99635E+03 5.57444E+03 3.84661E-09-4.57840E-09
 -1       860-1.28519E+05 1.87294E+02-1.68183E+03-7.26737E+02 4.29520E-09-5.53155E-09
 -1       861-1.28782E+05-1.98430E+02-9.39392E+02 5.60628E+03-4.32493E-09-8.96222E-09
 -1       862-1.28615E+05 2.40207E+01-4.19164E+02-7.35512E+02 9.98095E-09-5.90097E-09
 -1       863-1.28669E+05-7.12459E+00-2.17772E+02 5.60992E+03 1.37857E-08-6.84890E-09
 -1       864-1.28632E+05 2.62936E-01-8.96544E+01-7.30383E+02 1.16379E-08-8.71708E-10
 -1       865-1.28641E+05 2.52276E+01-1.83065E+01 5.58503E+03 1.31872E-08 3.38054E-09
 -1       866-1.28640E+05-9.65783E+00 3.76628E+01-7.10623E+02-3.23644E-09-5.22702E-09
 -1       867-1.28599E+05 7.90744E+01 1.42330E+02 5.53148E+03-3.52009E-09 5.54653E-09
 -1       868-1.28668E+05-5.60323E+01 2.46384E+02-6.76810E+02 9.23706E-11-7.58234E-10
 -1       869-1.28398E+05 4.53549E+02 6.77062E+02 5.44551E+03-3.84520E-09-4.69004E-09
 -1       870-1.28833E+05-3.78973E+02 9.76874E+02-6.24647E+02 4.17629E-09-1.18769E-09
 -1       871-5.07984E+03-8.94926E+03-1.59504E+04 1.03325E+05 4.19095E-09-4.59204E-09
 -1       872-2.32654E+03-1.24884E+04-6.44896E+03 1.33953E+05 7.83984E-09-5.31145E-10
 -1       873-1.90813E+02-1.08820E+04 1.05362E+03 1.03101E+05 4.01496E-09-5.95901E-09
 -1       874 2.33246E+03-8.45018E+03 9.33721E+03 1.34007E+05 1.02496E-08-1.55010E-08
 -1       875 5.81188E+03-1.30755E+04 2.06136E+04 1.03294E+05 4.22915E-09-5.31418E-09
 -1       876 2.66854E+05 4.64741E+04 1.45193E+04 1.08849E+05-8.56573E-09-1.12504E-09
 -1       877 2.67618E+05 4.97295E+04 7.75384E+03 1.13210E+05-1.10174E-08-3.94834E-10
 -1       878 2.68208E+05 4.48694E+04 3.24826E+03 1.10043E+05 4.58158E-09 1.61663E-09
 -1       879 2.65640E+05 4.77632E+04 1.61816E+03 1.13311E+05 1.38448E-09-4.63149E-09
 -1       880 2.68305E+05 4.48529E+04 7.53034E+02 1.10091E+05 3.97699E-09-3.99848E-09
 -1       881 2.65509E+05 4.76794E+04 4.00738E+02 1.13289E+05 3.09592E-09 7.43239E-09
 -1       882 2.68314E+05 4.48657E+04 2.53731E+02 1.10093E+05 4.97062E-09-2.20173E-09
 -1       883 2.65499E+05 4.76753E+04 2.68658E+02 1.13282E+05-2.08820E-09 1.99004E-08
 -1       884 2.68308E+05 4.48632E+04 4.23522E+02 1.10093E+05-3.58932E-09 9.52110E-09
 -1       885 2.65532E+05 4.76813E+04 8.49094E+02 1.13292E+05 1.92665E-08 1.13286E-08
 -1       886 2.68275E+05 4.48383E+04 1.71007E+03 1.10089E+05 9.65429E-10-1.32600E-08
 -1       887 2.65833E+05 4.78783E+04 3.73487E+03 1.13336E+05-1.27573E-08-6.80836E-09
 -1       888 2.68040E+05 4.48792E+04 7.52553E+03 1.09970E+05 2.97916E-09 6.82439E-09
 -1       889 2.70320E+05 5.25319E+04 1.79774E+04 1.13193E+05 3.85307E-09 3.59069E-09
 -1       890 2.64978E+05 4.85177E+04 3.36706E+04 1.07095E+05 1.11854E-08 4.66207E-09
 -1       891-2.09956E+02-1.52918E+05-1.78507E+03 3.02097E+04 3.12821E-09 8.87735E-09
 -1       892-3.57487E+02-1.53319E+05-1.94923E+03 4.56597E+04-3.79714E-09 2.14072E-09
 -1       893-9.68811E+01-1.52966E+05-2.79438E+03 3.02155E+04 4.19413E-09-5.23869E-10
 -1       894-1.60551E+03-1.54377E+05-5.80626E+03 4.54973E+04 2.03045E-10-1.34241E-09
 -1       895-1.25470E+03-1.51745E+05-1.02372E+04 3.03679E+04 4.58192E-09 8.31187E-09
 -1       956-3.33273E+05-4.88559E+03-1.23561E+04 2.12342E+04-6.84486E-09 1.45496E-09
 -1       957-3.35719E+05-1.62623E+03-6.34282E+03 2.55915E+04-2.82580E-09 4.19323E-09
 -1       958-3.34373E+05-1.07598E+02-2.85800E+03 2.10828E+04 3.26509E-09 1.19030E-09
 -1       959-3.34575E+05 9.68825E+00-1.45951E+03 2.57519E+04-4.40605E-09 3.27191E-09
 -1       960-3.34474E+05 6.80432E+01-7.11482E+02 2.10680E+04-6.67751E-09 5.89125E-10
 -1       961-3.34496E+05 7.36282E+01-3.76687E+02 2.57689E+04-1.23118E-08-9.06539E-10
 -1       962-3.34497E+05 6.51028E+01-2.14446E+02 2.10654E+04-5.92581E-09 3.41925E-09
 -1       963-3.34495E+05 7.70275E+01-1.69693E+02 2.57726E+04-1.08656E-08 8.18022E-09
 -1       964-3.34504E+05 6.89346E+01-2.03146E+02 2.10642E+04-8.89781E-09-8.52879E-10
 -1       965-3.34510E+05 8.20145E+01-3.48541E+02 2.57734E+04-1.66204E-09 2.10798E-09
 -1       966-3.34495E+05 7.93538E+01-6.52913E+02 2.10646E+04-8.84734E-09-1.31513E-09
 -1       967-3.34597E+05 3.13972E+01-1.33849E+03 2.57661E+04-1.66881E-09 6.24607E-09
 -1       968-3.34414E+05-7.41865E+01-2.61908E+03 2.10718E+04-5.48016E-09 2.37287E-09
 -1       969-3.35660E+05-1.46157E+03-5.81530E+03 2.56851E+04-5.58339E-09 2.38373E-10
 -1       970-3.33415E+05-4.45026E+03-1.13270E+04 2.11532E+04-1.61253E-09 3.11593E-09
 -1       971-3.20113E+05-1.70747E+03-9.60983E+03 1.58677E+04-9.00127E-09 1.93799E-09
 -1       972-3.22460E+05-1.20487E+03-5.23285E+03 2.22597E+04-7.20729E-09-1.09549E-09
 -1       973-3.21185E+05 1.25741E+01-2.34362E+03 1.57300E+04-8.96671E-09-1.05979E-09
 -1       974-3.21361E+05 2.63716E+01-1.21356E+03 2.24070E+04-1.02063E-08-3.43357E-09
 -1       975-3.21272E+05 6.01338E+01-6.04947E+02 1.57166E+04 2.20280E-09 3.43107E-10
 -1       976-3.21299E+05 7.90378E+01-3.45292E+02 2.24235E+04 5.76847E-10-4.83919E-09
 -1       977-3.21290E+05 6.15278E+01-2.44409E+02 1.57132E+04 1.04994E-08 6.24414E-09
 -1       978-3.21305E+05 8.59369E+01-2.77318E+02 2.24283E+04 2.41455E-08 9.47716E-09
 -1       979-3.21291E+05 6.97383E+01-4.38301E+02 1.57117E+04 1.79444E-08 1.18189E-09
 -1       980-3.21338E+05 8.89874E+01-8.41756E+02 2.24292E+04 1.37640E-08-8.77537E-09
 -1       981-3.21264E+05 9.05074E+01-1.62807E+03 1.57123E+04 2.29420E-10 1.40449E-09
 -1       982-3.21560E+05-3.19112E+01-3.36395E+03 2.24218E+04-2.29409E-09 1.06159E-09
 -1       983-3.21058E+05-1.46844E+01-6.53583E+03 1.57195E+04 7.05677E-09 4.03816E-09
 -1       984-3.24700E+05-3.44697E+03-1.46359E+04 2.23297E+04-7.11429E-09-1.35196E-09
 -1       985-3.18097E+05-4.79842E+03-2.68766E+04 1.58174E+04 4.16730E-09 2.14641E-10
 -3
    1PSTEP                        25          13           1          
  100CL  113 6.82617E-01         409                     0   13           1
 -4  DISP        4    1
 -5  D1          1    2    1    0
 -5  D2          1    2    2    0
 -5  D3          1    2    3    0
 -5  ALL         1    2    0    0    1ALL
 -1         1 2.78847E-03 0.00000E+00 0.00000E+00
 -1         2 2.82826E-03-9.10996E-29 6.61744E-24
 -1         3 6.93657E-05 3.24483E-28 0.00000E+00
 -1         5 7.59230E-05 7.42765E-27 0.00000E+00
 -1         8 2.74498E-03-1.84310E-06 0.00000E+00
 -1         9 2.76897E-03-1.94390E-06 0.00000E+00
 -1        10 6.71955E-05 1.68724E-07 0.00000E+00
 -1        12 7.44671E-05 7.32098E-07 0.00000E+00
 -1        15 2.69348E-03-2.10021E-06 4.13590E-25
 -1        16 2.69233E-03-1.82241E-06 0.00000E+00
 -1        17 6.00809E-05 3.39121E-07 0.00000E+00
 -1        18 6.87290E-05-8.63257E-06 0.00000E+00
 -1        19 7.00990E-05 1.45895E-06 0.00000E+00
 -1        20 7.02912E-05 3.03208E-05 0.00000E+00
 -1        21 6.96284E-05 5.92209E-05 0.00000E+00
 -1        24 2.45192E-05-7.20715E-07 0.00000E+00
 -1        25 6.26771E-05-8.47853E-06 0.00000E+00
 -1        26 6.42782E-05 2.04511E-06 0.00000E+00
 -1        27 6.22555E-05 2.70974E-05 0.00000E+00
 -1        28 6.14677E-05 5.85806E-05 0.00000E+00
 -1        32 0.00000E+00 0.00000E+00 0.00000E+00
 -1        33 5.64262E-05 2.75067E-06 0.00000E+00
 -1        34 5.44792E-05 2.70676E-05 0.00000E+00
 -1        35 5.25971E-05 5.82443E-05 0.00000E+00
 -1        51 2.78563E-03-2.90622E-07 0.00000E+00
 -1        52 2.78038E-03-5.82208E-07 0.00000E+00
 -1        53 2.77319E-03-8.80988E-07 0.00000E+00
 -1        54 2.76456E-03-1.18918E-06-6.61744E-24
 -1        55 2.75499E-03-1.50677E-06-1.15805E-23
 -1        56 2.78780E-03-1.46046E-06 2.64698E-23
 -1        57 2.78784E-03-4.89684E-06 1.32349E-23
 -1        58 2.78846E-03-9.87222E-06 2.64698E-23
 -1        59 2.78946E-03-1.59236E-05 0.00000E+00
 -1        60 2.79067E-03-2.25274E-05 2.64698E-23
 -1        61 2.79188E-03-2.91477E-05-1.32349E-23
 -1        62 2.79290E-03-3.52476E-05 0.00000E+00
 -1        63 2.79354E-03-4.03036E-05 0.00000E+00
 -1        64 2.79361E-03-4.38473E-05 0.00000E+00
 -1        65 2.79296E-03-4.54494E-05-1.32349E-23
 -1        66 2.79146E-03-4.47824E-05 0.00000E+00
 -1        67 2.78901E-03-4.15769E-05 0.00000E+00
 -1        68 2.78553E-03-3.56967E-05 0.00000E+00
 -1        69 2.78102E-03-2.70715E-05-1.32349E-23
 -1        70 2.77546E-03-1.57790E-05 0.00000E+00
 -1        86 2.82624E-03-2.71865E-07 0.00000E+00
 -1        87 2.82019E-03-5.59031E-07-3.30872E-24
 -1        88 2.81068E-03-8.71577E-07-6.61744E-24
 -1        89 2.79832E-03-1.21226E-06-3.30872E-24
 -1        90 2.78408E-03-1.57712E-06 0.00000E+00
 -1       121 6.93055E-05 2.82033E-08-8.27181E-25
 -1       122 6.91247E-05 5.63922E-08 0.00000E+00
 -1       123 6.88234E-05 8.45520E-08 0.00000E+00
 -1       124 6.84014E-05 1.12670E-07 0.00000E+00
 -1       125 6.78588E-05 1.40722E-07 0.00000E+00
 -1       191 7.58826E-05 1.22058E-07 0.00000E+00
 -1       192 7.57613E-05 2.44107E-07 0.00000E+00
 -1       193 7.55591E-05 3.66145E-07 0.00000E+00
 -1       194 7.52760E-05 4.88162E-07 0.00000E+00
 -1       195 7.49120E-05 6.10149E-07 0.00000E+00
 -1       251 2.74638E-03 4.40687E-06 0.00000E+00
 -1       252 2.74789E-03 6.27290E-06 1.32349E-23
 -1       253 2.74939E-03 5.49541E-06 5.29396E-23
 -1       254 2.75091E-03 3.64268E-06-2.64698E-23
 -1       255 2.75243E-03 1.14421E-06-5.29396E-23
 -1       256 2.75395E-03-1.61170E-06 0.00000E+00
 -1       257 2.75546E-03-4.51144E-06-5.29396E-23
 -1       258 2.75698E-03-7.45050E-06 0.00000E+00
 -1       259 2.75850E-03-1.03665E-05 5.29396E-23
 -1       260 2.76002E-03-1.31957E-05 0.00000E+00
 -1       261 2.76154E-03-1.57811E-05 0.00000E+00
 -1       262 2.76306E-03-1.79507E-05-2.64698E-23
 -1       263 2.76458E-03-1.90881E-05 5.29396E-23
 -1       264 2.76609E-03-1.85114E-05 0.00000E+00
 -1       265 2.76759E-03-1.37207E-05 0.00000E+00
 -1       266 2.73640E-03-1.90837E-06-6.61744E-24
 -1       267 2.72781E-03-1.94849E-06-1.65436E-24
 -1       268 2.71923E-03-1.99020E-06 3.30872E-24
 -1       269 2.71065E-03-2.02720E-06 0.00000E+00
 -1       270 2.70206E-03-2.06408E-06-8.27181E-25
 -1       271 2.73964E-03 3.88701E-06-5.29396E-23
 -1       272 2.73549E-03 6.23136E-06-2.64698E-23
 -1       273 2.73246E-03 5.58856E-06 0.00000E+00
 -1       274 2.73036E-03 2.42492E-06 0.00000E+00
 -1       275 2.72898E-03-2.68470E-06 1.05879E-22
 -1       276 2.72809E-03-9.09989E-06 0.00000E+00
 -1       277 2.72742E-03-1.61280E-05-1.05879E-22
 -1       278 2.72671E-03-2.30545E-05 0.00000E+00
 -1       279 2.72570E-03-2.91691E-05 1.05879E-22
 -1       280 2.72414E-03-3.37908E-05 5.29396E-23
 -1       281 2.72179E-03-3.62973E-05-1.05879E-22
 -1       282 2.71844E-03-3.61428E-05-5.29396E-23
 -1       283 2.71392E-03-3.28859E-05 0.00000E+00
 -1       284 2.70811E-03-2.61925E-05 2.64698E-23
 -1       285 2.70090E-03-1.58714E-05-5.29396E-23
 -1       301 2.75544E-03-1.92825E-06 0.00000E+00
 -1       302 2.74332E-03-1.88850E-06 0.00000E+00
 -1       303 2.73179E-03-1.84199E-06 0.00000E+00
 -1       304 2.72001E-03-1.80207E-06 0.00000E+00
 -1       305 2.70714E-03-1.78009E-06 0.00000E+00
 -1       306 2.68574E-03 1.54693E-04 0.00000E+00
 -1       307 2.42366E-03 5.46299E-04-5.29396E-23
 -1       308 1.97208E-03 1.09371E-03 0.00000E+00
 -1       309 1.37953E-03 1.71681E-03-5.29396E-23
 -1       310 7.66152E-04 2.34964E-03 1.05879E-22
 -1       311 2.58518E-04 2.93102E-03-5.29396E-23
 -1       312-7.29798E-05 3.38669E-03-2.11758E-22
 -1       313-2.13083E-04 3.63389E-03 1.05879E-22
 -1       314-2.10295E-04 3.60049E-03 0.00000E+00
 -1       315-1.49829E-04 3.27678E-03 5.29396E-23
 -1       316-9.81384E-05 2.70557E-03-1.05879E-22
 -1       317-8.39412E-05 1.97679E-03 0.00000E+00
 -1       318-7.70129E-05 1.22357E-03 0.00000E+00
 -1       319-3.86081E-05 5.81033E-04-2.64698E-23
 -1       320 2.40328E-05 1.50518E-04 0.00000E+00
 -1       336 6.63951E-05 1.98817E-07-8.27181E-25
 -1       337 6.54409E-05 2.28699E-07 4.13590E-25
 -1       338 6.43327E-05 2.58313E-07 8.27181E-25
 -1       339 6.30702E-05 2.87037E-07-1.03398E-25
 -1       340 6.16530E-05 3.15616E-07 8.27181E-25
 -1       406 7.39413E-05 8.53995E-07 0.00000E+00
 -1       407 7.33345E-05 9.75807E-07 0.00000E+00
 -1       408 7.26467E-05 1.09749E-06 0.00000E+00
 -1       409 7.18780E-05 1.21889E-06-3.30872E-24
 -1       410 7.10285E-05 1.33976E-06 0.00000E+00
 -1       521 2.60795E-03 1.54975E-04 1.05879E-22
 -1       522 2.34653E-03 5.44764E-04 0.00000E+00
 -1       523 1.89911E-03 1.08886E-03 1.05879E-22
 -1       524 1.31661E-03 1.70695E-03 5.29396E-23
 -1       525 7.14479E-04 2.33448E-03 0.00000E+00
 -1       526 2.14264E-04 2.91108E-03 5.29396E-23
 -1       527-1.12913E-04 3.36209E-03 0.00000E+00
 -1       528-2.51524E-04 3.60559E-03-1.05879E-22
 -1       529-2.48783E-04 3.56942E-03-2.11758E-22
 -1       530-1.89133E-04 3.24539E-03 0.00000E+00
 -1       531-1.37528E-04 2.67731E-03 1.05879E-22
 -1       532-1.21164E-04 1.95692E-03 5.29396E-23
 -1       533-1.11595E-04 1.21292E-03 1.05879E-22
 -1       534-7.24533E-05 5.76093E-04 0.00000E+00
 -1       535-1.04669E-05 1.48828E-04 1.05879E-22
 -1       536 6.05960E-05 1.43975E-06 0.00000E+00
 -1       537 6.11371E-05 1.46594E-06-6.61744E-24
 -1       538 6.16764E-05 8.71666E-07 0.00000E+00
 -1       539 6.22205E-05 9.52828E-08 6.61744E-24
 -1       540 6.27646E-05-7.86169E-07 0.00000E+00
 -1       541 6.33096E-05-1.69824E-06-6.61744E-24
 -1       542 6.38548E-05-2.62772E-06 0.00000E+00
 -1       543 6.44001E-05-3.56179E-06 6.61744E-24
 -1       544 6.49454E-05-4.49683E-06 1.32349E-23
 -1       545 6.54906E-05-5.42924E-06 0.00000E+00
 -1       546 6.60358E-05-6.35018E-06 1.32349E-23
 -1       547 6.65801E-05-7.25049E-06 6.61744E-24
 -1       548 6.71245E-05-8.07986E-06 0.00000E+00
 -1       549 6.76651E-05-8.78618E-06 0.00000E+00
 -1       550 6.82071E-05-9.07281E-06 6.61744E-24
 -1       551 5.58987E-05 1.79732E-07 0.00000E+00
 -1       552 4.97241E-05 1.03362E-08 1.65436E-24
 -1       553 4.25231E-05-1.65048E-07 0.00000E+00
 -1       554 3.52724E-05-3.44066E-07 0.00000E+00
 -1       555 2.89488E-05-5.21839E-07 0.00000E+00
 -1       556 5.95792E-05 1.54923E-06 0.00000E+00
 -1       557 5.92998E-05 2.17492E-06 0.00000E+00
 -1       558 5.92131E-05 2.28801E-06 0.00000E+00
 -1       559 5.92906E-05 1.96398E-06-3.30872E-24
 -1       560 5.95037E-05 1.27826E-06-3.30872E-24
 -1       561 5.98239E-05 3.06532E-07 0.00000E+00
 -1       562 6.02228E-05-8.75511E-07 0.00000E+00
 -1       563 6.06719E-05-2.19210E-06 0.00000E+00
 -1       564 6.11431E-05-3.56743E-06 0.00000E+00
 -1       565 6.16078E-05-4.92574E-06 2.90806E-25
 -1       566 6.20379E-05-6.19124E-06 0.00000E+00
 -1       567 6.24050E-05-7.28813E-06 0.00000E+00
 -1       568 6.26807E-05-8.14069E-06 0.00000E+00
 -1       569 6.28367E-05-8.67331E-06 0.00000E+00
 -1       570 6.28445E-05-8.81038E-06 0.00000E+00
 -1       571 6.88122E-05-7.90266E-06-1.24077E-24
 -1       572 6.88972E-05-7.23170E-06-2.06795E-25
 -1       573 6.89827E-05-6.61038E-06 8.27181E-25
 -1       574 6.90685E-05-6.02889E-06 0.00000E+00
 -1       575 6.91543E-05-5.47735E-06 3.30872E-24
 -1       576 6.92403E-05-4.94580E-06-1.65436E-24
 -1       577 6.93262E-05-4.42429E-06-3.30872E-24
 -1       578 6.94122E-05-3.90287E-06 0.00000E+00
 -1       579 6.94982E-05-3.37156E-06 3.30872E-24
 -1       580 6.95841E-05-2.82040E-06 0.00000E+00
 -1       581 6.96701E-05-2.23944E-06-3.30872E-24
 -1       582 6.97560E-05-1.61870E-06 0.00000E+00
 -1       583 6.98418E-05-9.48255E-07 0.00000E+00
 -1       584 6.99276E-05-2.18250E-07-6.61744E-24
 -1       585 7.00134E-05 5.81121E-07 0.00000E+00
 -1       586 6.77298E-05-8.60517E-06 0.00000E+00
 -1       587 6.66858E-05-8.57867E-06 0.00000E+00
 -1       588 6.56277E-05-8.55253E-06-5.16988E-25
 -1       589 6.45863E-05-8.52679E-06 0.00000E+00
 -1       590 6.35928E-05-8.50165E-06 0.00000E+00
 -1       591 6.84188E-05-7.87060E-06 2.06795E-25
 -1       592 6.81273E-05-7.16750E-06 0.00000E+00
 -1       593 6.78536E-05-6.51269E-06 8.27181E-25
 -1       594 6.75940E-05-5.89645E-06 0.00000E+00
 -1       595 6.73451E-05-5.30897E-06 0.00000E+00
 -1       596 6.71033E-05-4.74049E-06 0.00000E+00
 -1       597 6.68649E-05-4.18125E-06 0.00000E+00
 -1       598 6.66264E-05-3.62153E-06 0.00000E+00
 -1       599 6.63840E-05-3.05155E-06 0.00000E+00
 -1       600 6.61341E-05-2.46159E-06 4.13590E-25
 -1       601 6.58730E-05-1.84189E-06-8.27181E-25
 -1       602 6.55972E-05-1.18270E-06 1.03398E-25
 -1       603 6.53030E-05-4.74276E-07 2.58494E-25
 -1       604 6.49871E-05 2.93205E-07 0.00000E+00
 -1       605 6.46456E-05 1.12945E-06 0.00000E+00
 -1       606 7.01161E-05 2.53475E-06-3.30872E-24
 -1       607 7.01300E-05 3.75036E-06 0.00000E+00
 -1       608 7.01430E-05 5.09757E-06 0.00000E+00
 -1       609 7.01555E-05 6.56713E-06 0.00000E+00
 -1       610 7.01676E-05 8.14975E-06 0.00000E+00
 -1       611 7.01795E-05 9.83600E-06 0.00000E+00
 -1       612 7.01913E-05 1.16164E-05 0.00000E+00
 -1       613 7.02029E-05 1.34816E-05 0.00000E+00
 -1       614 7.02144E-05 1.54221E-05 0.00000E+00
 -1       615 7.02257E-05 1.74284E-05 0.00000E+00
 -1       616 7.02369E-05 1.94912E-05 0.00000E+00
 -1       617 7.02480E-05 2.16010E-05 0.00000E+00
 -1       618 7.02590E-05 2.37482E-05 0.00000E+00
 -1       619 7.02700E-05 2.59236E-05 0.00000E+00
 -1       620 7.02808E-05 2.81176E-05 0.00000E+00
 -1       621 6.91304E-05 1.55660E-06 0.00000E+00
 -1       622 6.81620E-05 1.65484E-06 1.65436E-24
 -1       623 6.71932E-05 1.75308E-06 3.30872E-24
 -1       624 6.62233E-05 1.85117E-06 1.65436E-24
 -1       625 6.52519E-05 1.94910E-06 0.00000E+00
 -1       626 6.97958E-05 2.56286E-06-6.61744E-24
 -1       627 6.94490E-05 3.78444E-06 0.00000E+00
 -1       628 6.90620E-05 5.11338E-06 0.00000E+00
 -1       629 6.86389E-05 6.53861E-06 0.00000E+00
 -1       630 6.81837E-05 8.04907E-06 0.00000E+00
 -1       631 6.77006E-05 9.63358E-06 0.00000E+00
 -1       632 6.71938E-05 1.12810E-05-3.30872E-24
 -1       633 6.66675E-05 1.29801E-05 0.00000E+00
 -1       634 6.61260E-05 1.47199E-05 3.30872E-24
 -1       635 6.55733E-05 1.64890E-05 0.00000E+00
 -1       636 6.50137E-05 1.82765E-05-3.30872E-24
 -1       637 6.44515E-05 2.00710E-05-1.65436E-24
 -1       638 6.38906E-05 2.18616E-05-3.30872E-24
 -1       639 6.33352E-05 2.36370E-05 8.27181E-25
 -1       640 6.27893E-05 2.53860E-05 0.00000E+00
 -1       656 6.83725E-05 2.97958E-05 0.00000E+00
 -1       657 6.69453E-05 2.92503E-05 6.61744E-24
 -1       658 6.58241E-05 2.87068E-05 0.00000E+00
 -1       659 6.48164E-05 2.81639E-05 6.61744E-24
 -1       660 6.37002E-05 2.76191E-05-6.61744E-24
 -1       661 6.95823E-05 3.24939E-05-1.65436E-24
 -1       662 6.89014E-05 3.46045E-05 0.00000E+00
 -1       663 6.82435E-05 3.66538E-05 3.30872E-24
 -1       664 6.76084E-05 3.86446E-05 1.65436E-24
 -1       665 6.69946E-05 4.05788E-05 0.00000E+00
 -1       666 6.64015E-05 4.24587E-05-1.65436E-24
 -1       667 6.58283E-05 4.42859E-05-3.30872E-24
 -1       668 6.52742E-05 4.60623E-05-1.65436E-24
 -1       669 6.47388E-05 4.77892E-05 0.00000E+00
 -1       670 6.42214E-05 4.94680E-05-1.65436E-24
 -1       671 6.37217E-05 5.10999E-05 0.00000E+00
 -1       672 6.32392E-05 5.26858E-05 1.65436E-24
 -1       673 6.27735E-05 5.42265E-05-3.30872E-24
 -1       674 6.23236E-05 5.57224E-05 8.27181E-25
 -1       675 6.18905E-05 5.71745E-05 8.27181E-25
 -1       676 6.82634E-05 5.91135E-05-3.30872E-24
 -1       677 6.68993E-05 5.90062E-05 1.65436E-24
 -1       678 6.55368E-05 5.88990E-05-3.30872E-24
 -1       679 6.41768E-05 5.87921E-05 1.65436E-24
 -1       680 6.28202E-05 5.86852E-05 0.00000E+00
 -1       771 2.25372E-05 6.02733E-07 0.00000E+00
 -1       772 2.06193E-05 1.68159E-06 0.00000E+00
 -1       773 1.87837E-05 2.53600E-06-5.29396E-23
 -1       774 1.70248E-05 3.17896E-06 2.64698E-23
 -1       775 1.53391E-05 3.62490E-06 5.29396E-23
 -1       776 1.37216E-05 3.88837E-06 0.00000E+00
 -1       777 1.21667E-05 3.98439E-06 0.00000E+00
 -1       778 1.06688E-05 3.92849E-06 0.00000E+00
 -1       779 9.22193E-06 3.73658E-06 0.00000E+00
 -1       780 7.81995E-06 3.42504E-06 2.64698E-23
 -1       781 6.45661E-06 3.01055E-06 0.00000E+00
 -1       782 5.12559E-06 2.51017E-06 2.64698E-23
 -1       783 3.82044E-06 1.94115E-06 0.00000E+00
 -1       784 2.53493E-06 1.32113E-06 2.64698E-23
 -1       785 1.26234E-06 6.67670E-07 5.29396E-23
 -1       786 6.27721E-05-7.78682E-06 0.00000E+00
 -1       787 6.28720E-05-7.13488E-06 8.27181E-25
 -1       788 6.29716E-05-6.51210E-06-3.30872E-24
 -1       789 6.30721E-05-5.90805E-06 1.65436E-24
 -1       790 6.31727E-05-5.31676E-06 0.00000E+00
 -1       791 6.32735E-05-4.73233E-06-1.65436E-24
 -1       792 6.33743E-05-4.15050E-06-3.30872E-24
 -1       793 6.34752E-05-3.56703E-06 0.00000E+00
 -1       794 6.35760E-05-2.97728E-06 3.30872E-24
 -1       795 6.36769E-05-2.37659E-06 0.00000E+00
 -1       796 6.37777E-05-1.75767E-06-3.30872E-24
 -1       797 6.38784E-05-1.11311E-06 0.00000E+00
 -1       798 6.39791E-05-4.29398E-07 3.30872E-24
 -1       799 6.40794E-05 3.07192E-07 0.00000E+00
 -1       800 6.41798E-05 1.12310E-06 0.00000E+00
 -1       801 5.81382E-05-7.03784E-06 0.00000E+00
 -1       802 4.62904E-05-5.59693E-06 0.00000E+00
 -1       803 3.09142E-05-4.20451E-06 0.00000E+00
 -1       804 1.55394E-05-2.82143E-06 0.00000E+00
 -1       805 3.89940E-06-1.38515E-06 0.00000E+00
 -1       806 6.23166E-05-7.84257E-06 0.00000E+00
 -1       807 6.19623E-05-7.23511E-06 0.00000E+00
 -1       808 6.16145E-05-6.64738E-06 0.00000E+00
 -1       809 6.12706E-05-6.07153E-06 1.65436E-24
 -1       810 6.09281E-05-5.49969E-06 3.30872E-24
 -1       811 6.05842E-05-4.92406E-06 1.65436E-24
 -1       812 6.02358E-05-4.33685E-06 0.00000E+00
 -1       813 5.98801E-05-3.73029E-06 0.00000E+00
 -1       814 5.95143E-05-3.09660E-06 3.30872E-24
 -1       815 5.91353E-05-2.42800E-06-8.27181E-25
 -1       816 5.87403E-05-1.71675E-06 1.65436E-24
 -1       817 5.83264E-05-9.55063E-07-8.27181E-25
 -1       818 5.78907E-05-1.35192E-07 1.65436E-24
 -1       819 5.74303E-05 7.50590E-07 8.27181E-25
 -1       820 5.69426E-05 1.71002E-06-3.30872E-24
 -1       821 6.41604E-05 2.78558E-06 8.27181E-25
 -1       822 6.40356E-05 3.05964E-06 0.00000E+00
 -1       823 6.39112E-05 3.06250E-06-3.30872E-24
 -1       824 6.37855E-05 2.99098E-06 0.00000E+00
 -1       825 6.36597E-05 3.06063E-06-3.30872E-24
 -1       826 6.35335E-05 3.48621E-06-1.65436E-24
 -1       827 6.34070E-05 4.39175E-06 0.00000E+00
 -1       828 6.32797E-05 5.89858E-06-1.65436E-24
 -1       829 6.31515E-05 7.97477E-06 0.00000E+00
 -1       830 6.30221E-05 1.05852E-05-1.65436E-24
 -1       831 6.28918E-05 1.35585E-05-3.30872E-24
 -1       832 6.27612E-05 1.67215E-05 0.00000E+00
 -1       833 6.26308E-05 1.98523E-05 0.00000E+00
 -1       834 6.25024E-05 2.27296E-05 0.00000E+00
 -1       835 6.23747E-05 2.51962E-05 8.27181E-25
 -1       836 6.31566E-05 2.16269E-06 0.00000E+00
 -1       837 6.18669E-05 2.28272E-06 0.00000E+00
 -1       838 6.04789E-05 2.40245E-06-3.30872E-24
 -1       839 5.90628E-05 2.52140E-06 0.00000E+00
 -1       840 5.76886E-05 2.64022E-06 0.00000E+00
 -1       856 6.22114E-05 2.87914E-05 1.03398E-25
 -1       857 6.21628E-05 3.06282E-05 0.00000E+00
 -1       858 6.21142E-05 3.25852E-05 0.00000E+00
 -1       859 6.20646E-05 3.46401E-05 0.00000E+00
 -1       860 6.20148E-05 3.67699E-05-1.65436E-24
 -1       861 6.19648E-05 3.89518E-05 8.27181E-25
 -1       862 6.19147E-05 4.11628E-05-1.65436E-24
 -1       863 6.18645E-05 4.33797E-05-8.27181E-25
 -1       864 6.18144E-05 4.55796E-05 1.65436E-24
 -1       865 6.17644E-05 4.77394E-05-8.27181E-25
 -1       866 6.17144E-05 4.98362E-05 0.00000E+00
 -1       867 6.16647E-05 5.18471E-05 0.00000E+00
 -1       868 6.16151E-05 5.37493E-05 0.00000E+00
 -1       869 6.15658E-05 5.55205E-05 0.00000E+00
 -1       870 6.15167E-05 5.71382E-05 1.65436E-24
 -1       871 6.08184E-05 2.70960E-05-8.27181E-25
 -1       872 5.95116E-05 2.70920E-05 0.00000E+00
 -1       873 5.82800E-05 2.70876E-05 0.00000E+00
 -1       874 5.70679E-05 2.70825E-05 1.03398E-25
 -1       875 5.58193E-05 2.70769E-05 4.13590E-25
 -1       876 6.17406E-05 2.88021E-05 3.30872E-24
 -1       877 6.12022E-05 3.05763E-05 1.65436E-24
 -1       878 6.06411E-05 3.24118E-05 0.00000E+00
 -1       879 6.00603E-05 3.43005E-05 0.00000E+00
 -1       880 5.94624E-05 3.62344E-05 0.00000E+00
 -1       881 5.88504E-05 3.82058E-05-1.65436E-24
 -1       882 5.82274E-05 4.02068E-05 0.00000E+00
 -1       883 5.75961E-05 4.22294E-05 0.00000E+00
 -1       884 5.69597E-05 4.42658E-05 0.00000E+00
 -1       885 5.63210E-05 4.63082E-05 0.00000E+00
 -1       886 5.56829E-05 4.83487E-05 0.00000E+00
 -1       887 5.50485E-05 5.03794E-05 1.65436E-24
 -1       888 5.44204E-05 5.23924E-05 3.30872E-24
 -1       889 5.38014E-05 5.43798E-05-8.27181E-25
 -1       890 5.31944E-05 5.63336E-05 1.65436E-24
 -1       891 6.01456E-05 5.85245E-05-1.65436E-24
 -1       892 5.87993E-05 5.84682E-05 8.27181E-25
 -1       893 5.74000E-05 5.84118E-05 1.65436E-24
 -1       894 5.59190E-05 5.83555E-05 4.13590E-25
 -1       895 5.43274E-05 5.82992E-05-4.13590E-25
 -1       956 5.63071E-05 3.95720E-06 1.65436E-24
 -1       957 5.61859E-05 5.24386E-06 8.27181E-25
 -1       958 5.60644E-05 6.60289E-06 0.00000E+00
 -1       959 5.59425E-05 8.02599E-06-1.65436E-24
 -1       960 5.58205E-05 9.50491E-06 0.00000E+00
 -1       961 5.56983E-05 1.10313E-05 0.00000E+00
 -1       962 5.55761E-05 1.25968E-05 0.00000E+00
 -1       963 5.54539E-05 1.41930E-05 0.00000E+00
 -1       964 5.53316E-05 1.58117E-05 3.30872E-24
 -1       965 5.52093E-05 1.74444E-05-1.65436E-24
 -1       966 5.50870E-05 1.90827E-05 0.00000E+00
 -1       967 5.49647E-05 2.07184E-05 1.65436E-24
 -1       968 5.48425E-05 2.23430E-05 0.00000E+00
 -1       969 5.47206E-05 2.39483E-05 0.00000E+00
 -1       970 5.45990E-05 2.55258E-05 0.00000E+00
 -1       971 5.43635E-05 2.86421E-05-1.65436E-24
 -1       972 5.42461E-05 3.03236E-05 0.00000E+00
 -1       973 5.41284E-05 3.21001E-05 0.00000E+00
 -1       974 5.40103E-05 3.39595E-05 1.65436E-24
 -1       975 5.38921E-05 3.58894E-05-3.30872E-24
 -1       976 5.37737E-05 3.78774E-05 1.65436E-24
 -1       977 5.36553E-05 3.99114E-05-3.30872E-24
 -1       978 5.35367E-05 4.19789E-05 0.00000E+00
 -1       979 5.34181E-05 4.40676E-05 0.00000E+00
 -1       980 5.32996E-05 4.61651E-05-1.65436E-24
 -1       981 5.31810E-05 4.82591E-05 0.00000E+00
 -1       982 5.30626E-05 5.03372E-05 0.00000E+00
 -1       983 5.29444E-05 5.23871E-05 0.00000E+00
 -1       984 5.28268E-05 5.43964E-05 0.00000E+00
 -1       985 5.27097E-05 5.63528E-05 0.00000E+00
 -3
    1PSTEP                        26          13           1          
  100CL  113 6.82617E-01         409                     0   13           1
 -4  STRESS      6    1
 -5  SXX         1    4    1    1
 -5  SYY         1    4    2    2
 -5  SZZ         1    4    3    3
 -5  SXY         1    4    1    2
 -5  SYZ         1    4    2    3
 -5  SZX         1    4    3    1
 -1         1-1.38097E+06-8.08805E+05-2.54429E+05-1.44306E+06 1.02227E-09-1.61694E-07
 -1         2-1.18409E+03-7.55435E+05-1.89015E+03-1.33649E+04-9.22199E-10 1.98958E-07
 -1         3-8.08956E+00 8.07322E+04 1.00326E+01 6.16902E+00-3.94333E-11-9.61109E-09
 -1         5-4.71112E+01 3.49431E+05 9.22869E+00 8.68716E-01 2.86046E-10-4.47289E-09
 -1         8-5.21228E+05-4.35224E+05 1.62429E+05-1.11367E+06-1.81535E-09 1.39407E-07
 -1         9 9.70326E+06 7.72606E+06 2.60028E+06 7.54799E+06-1.36206E-08 2.38232E-07
 -1        10 1.19345E+02 8.41974E+04 1.03169E+03 5.48605E+01-9.21546E-10 1.76464E-09
 -1        12-4.34151E+01 3.49450E+05 3.01864E+02 6.13040E+00 6.12886E-10-2.65300E-08
 -1        15 3.71417E+03 2.04127E+03 1.20063E+04 1.37874E+01 1.07207E-10 1.46723E-07
 -1        16 1.31163E+07 1.20397E+07 3.61561E+06 1.22615E+07 2.34771E-08-1.27358E-07
 -1        17 1.51673E+07 4.45845E+05 2.31988E+06-9.13158E+05 9.17134E-09-3.38507E-08
 -1        18 4.46392E+05 1.02429E+05 8.34838E+04-7.19954E+04 2.75600E-09 1.56797E-09
 -1        19 1.07575E+05 1.31981E+05-3.38255E+02 2.13711E+04-1.55924E-09 2.45927E-10
 -1        20-3.52154E+04-5.08276E+05-1.11483E+05 4.22027E+04 5.92505E-09-6.01600E-09
 -1        21-4.91210E+01-3.04790E+05-9.95003E+02-2.85347E+02-2.17296E-08-1.55459E-08
 -1        24 2.36363E+07-1.02782E+05 3.41068E+06-1.91772E+06 7.59513E-08 2.19685E-08
 -1        25 2.45487E+05 9.04333E+05 2.41819E+05-1.31729E+05 9.68430E-10 7.18210E-09
 -1        26-1.37384E+04 9.38373E+04-1.54575E+04-1.87369E+04 2.42653E-09 2.12663E-10
 -1        27-8.58524E+04-2.80314E+05-1.05748E+05 6.33006E+04 1.04998E-08-4.32131E-09
 -1        28 2.38770E+04-8.29614E+04 1.71746E+04 2.88059E+04 5.35186E-09-2.42803E-09
 -1        32-6.35305E+05 2.08574E+06 9.95418E+05-7.33585E+05-8.35280E-09 4.54216E-08
 -1        33-1.56980E+05 8.43952E+04 2.96660E+04-5.52082E+04 2.43654E-09 1.81929E-09
 -1        34-2.09372E+05-2.02954E+04 4.21867E+02 6.24399E+04 8.26048E-09 3.69346E-09
 -1        35-2.41828E+04-3.29355E+04-1.29445E+03 5.31179E+04 8.35083E-09-5.98569E-09
 -1        51-3.78474E+01-7.20621E+05 1.87026E+04-1.67032E+06-1.74623E-10 2.88128E-08
 -1        52 1.34505E+04-7.35625E+05 2.13345E+04-1.94865E+06 2.61934E-10-5.38421E-10
 -1        53 1.79253E+04-7.63620E+05 2.74027E+04-1.66439E+06 1.26602E-09 3.18396E-08
 -1        54 4.76098E+04-7.69830E+05 5.64491E+04-1.95448E+06 5.38421E-10-2.15157E-07
 -1        55 8.08946E+04-7.94658E+05 1.07196E+05-1.66304E+06 2.02272E-09-1.12341E-08
 -1        56-2.71050E+06-3.09477E+05-1.80691E+05-1.02919E+06-2.37251E-08 2.16824E-09
 -1        57-2.71534E+06-5.35206E+05-1.20978E+05-1.09557E+06 1.94198E-08-9.86583E-08
 -1        58-2.75239E+06-3.59398E+05-4.25303E+04-1.01008E+06 5.43287E-09 2.20989E-07
 -1        59-2.66679E+06-4.77359E+05-2.52454E+04-1.12077E+06-1.51357E-08 8.39209E-08
 -1        60-2.75985E+06-3.64627E+05-9.92223E+03-1.00551E+06 3.77088E-09-9.69417E-08
 -1        61-2.66079E+06-4.68040E+05-5.69804E+03-1.12251E+06 4.13563E-08-1.44109E-07
 -1        62-2.75834E+06-3.68457E+05-3.09597E+03-1.00842E+06-1.00836E-08-9.72623E-08
 -1        63-2.66783E+06-4.57153E+05-2.51525E+03-1.10991E+06-1.71676E-08 1.98522E-07
 -1        64-2.75161E+06-3.76261E+05-4.26282E+03-1.01728E+06-6.35737E-10 2.78965E-07
 -1        65-2.68452E+06-4.40370E+05-7.31412E+03-1.08643E+06 3.45431E-08-3.43740E-07
 -1        66-2.73998E+06-3.86370E+05-1.52228E+04-1.03067E+06 1.13296E-08 1.01656E-07
 -1        67-2.71574E+06-4.29415E+05-3.56452E+04-1.05480E+06-5.96374E-08 2.95205E-07
 -1        68-2.71933E+06-3.88326E+05-6.25977E+04-1.04792E+06 2.11508E-08 2.53240E-07
 -1        69-2.80249E+06-5.00494E+05-1.75209E+05-1.00643E+06 1.81672E-08 8.35644E-09
 -1        70-2.65386E+06-3.17993E+05-2.62454E+05-1.07803E+06-1.09139E-11-1.32175E-07
 -1        86 2.38841E+02-7.77530E+05-6.98436E+03 6.68001E+03 6.93535E-09 1.43289E-07
 -1        87-4.51893E+03-7.61539E+05-8.82290E+03-2.47784E+04 1.09485E-08-3.06654E-08
 -1        88 3.87446E+03-7.71842E+05-1.78571E+04 1.80894E+04 1.44928E-08-1.34083E-07
 -1        89-3.10374E+04-7.82494E+05-4.51369E+04-4.24988E+04 2.11389E-08 1.04166E-08
 -1        90 2.72703E+04-7.57382E+05-6.49848E+04 2.44077E+04 1.92922E-08 9.80812E-08
 -1       121-8.84822E+00 8.07185E+04 8.27483E+00-3.08762E+00 9.57963E-11 2.86173E-09
 -1       122-1.37438E+01 8.07295E+04 1.94759E+01 1.21856E+01-3.65690E-10 1.01891E-08
 -1       123-5.19481E+00 8.07211E+04 3.72721E+01-9.11825E+00 2.79641E-10 2.38833E-09
 -1       124-8.30288E+01 8.06935E+04 5.67230E+01-1.04277E+01-7.30267E-10-2.31375E-09
 -1       125 3.76156E+01 8.07546E+04 1.70608E+02 1.94862E+01 4.52587E-10-3.19187E-09
 -1       191-4.97459E+01 3.49452E+05 8.98450E+00-4.48711E-01 4.12283E-10-2.04636E-09
 -1       192-4.79851E+01 3.49431E+05 1.96392E+01 3.03145E+00 6.17484E-10-1.89902E-09
 -1       193-5.20555E+01 3.49451E+05 3.45333E+01-2.67129E+00 7.69879E-10 3.87627E-09
 -1       194-5.07909E+01 3.49434E+05 7.45267E+01 6.97717E+00 3.18150E-10 1.61417E-08
 -1       195-5.64902E+01 3.49449E+05 1.43780E+02-4.49547E+00 1.07786E-09-2.11367E-09
 -1       251 4.25585E+06-2.32386E+05 5.43041E+05 5.52593E+04 9.54969E-12 2.19239E-07
 -1       252 4.51022E+06 2.68670E+05 3.85973E+05-9.73262E+04-7.43421E-09 2.92493E-08
 -1       253 4.35572E+06-3.56209E+04 1.41276E+05 3.50408E+03 2.86980E-09 7.21702E-08
 -1       254 4.39476E+06 4.12966E+04 8.84690E+04-3.32833E+04 1.34492E-09 2.67089E-07
 -1       255 4.37100E+06-5.46022E+03 3.64472E+04-8.77033E+03-5.67908E-10 1.12577E-07
 -1       256 4.37719E+06 6.47923E+03 2.16763E+04-1.82854E+04 1.12752E-08 3.39518E-07
 -1       257 4.37345E+06-8.91391E+02 1.07454E+04-1.14942E+04-2.01004E-09 1.81234E-07
 -1       258 4.37466E+06 1.67983E+03 8.57413E+03-1.59992E+04 3.40301E-09 6.42947E-08
 -1       259 4.37358E+06-6.72864E+02 8.81490E+03-1.10568E+04-6.46607E-09 7.16091E-09
 -1       260 4.37622E+06 4.58664E+03 1.60853E+04-2.10568E+04 1.72292E-08 4.09400E-08
 -1       261 4.37187E+06-3.79386E+03 2.64052E+04-6.43641E+03-1.06914E-09 3.33875E-07
 -1       262 4.38958E+06 2.89224E+04 6.35175E+04-4.52987E+04-8.05579E-09 2.94749E-08
 -1       263 4.36019E+06-2.49958E+04 1.01181E+05 1.31853E+04 3.50565E-09-2.96932E-08
 -1       264 4.49136E+06 1.92313E+05 2.80202E+05-1.46687E+05-1.18646E-08 5.90924E-07
 -1       265 4.27167E+06-1.67654E+05 3.84889E+05 9.49490E+04-2.93767E-09 1.99041E-07
 -1       266-6.72318E+04-3.14201E+04 1.57833E+05-2.95146E+02 1.28057E-09 3.27139E-07
 -1       267 7.79477E+04 3.66490E+04 1.11510E+05 3.40367E+02 9.74978E-10 1.39411E-07
 -1       268-1.04523E+04-5.18898E+03 4.14503E+04-4.33784E+01 1.63345E-09 4.30216E-07
 -1       269 1.23416E+04 6.21182E+03 2.69396E+04 5.05189E+01-1.23691E-10 4.13544E-08
 -1       270-1.85248E+03-1.02057E+03 1.30042E+04-6.85620E+00 7.23048E-10 2.40876E-07
 -1       271-7.03952E+06-8.93041E+05-5.56571E+05-2.76403E+06-7.54517E-09 2.29222E-07
 -1       272-7.16527E+06-1.36040E+06-3.56172E+05-2.82976E+06 1.46429E-08-3.81260E-08
 -1       273-7.16028E+06-1.01361E+06-1.31749E+05-2.72093E+06-2.90147E-08 7.20465E-08
 -1       274-7.02332E+06-1.21559E+06-7.28689E+04-2.90202E+06-4.40868E-08 2.25096E-07
 -1       275-7.18608E+06-1.01512E+06-3.05499E+04-2.70404E+06 5.15138E-09-2.95604E-08
 -1       276-6.99671E+06-1.21165E+06-1.61699E+04-2.92822E+06-8.30323E-09 2.50469E-07
 -1       277-7.19188E+06-1.01222E+06-8.15360E+03-2.69919E+06 2.06659E-08-1.41953E-07
 -1       278-6.99600E+06-1.20829E+06-6.48935E+03-2.92659E+06 4.54747E-11-1.16642E-07
 -1       279-7.18625E+06-1.01863E+06-8.43659E+03-2.70537E+06-1.98688E-08-1.58207E-07
 -1       280-7.01187E+06-1.19138E+06-1.52797E+04-2.89962E+06-4.44616E-08-1.12759E-08
 -1       281-7.16987E+06-1.03321E+06-3.05650E+04-2.72173E+06 3.39205E-08 9.60608E-08
 -1       282-7.05415E+06-1.17621E+06-6.96077E+04-2.85072E+06-3.15467E-08-3.43352E-08
 -1       283-7.13618E+06-1.04079E+06-1.27915E+05-2.74768E+06-9.43692E-09 1.20359E-07
 -1       284-7.20796E+06-1.29967E+06-3.42068E+05-2.76633E+06-6.73026E-09-2.01515E-07
 -1       285-7.01404E+06-9.29993E+05-5.35780E+05-2.79565E+06-2.33013E-08-4.66243E-08
 -1       301-2.41467E+04 3.54540E+05 4.39379E+04 1.01023E+06-2.27010E-09-9.48276E-08
 -1       302-2.70631E+04 3.71554E+05 4.76302E+04 1.48000E+06 4.28554E-09-3.66024E-07
 -1       303-2.25051E+04 3.48762E+05 6.45485E+04 1.00814E+06-1.16415E-09 1.16996E-07
 -1       304-3.90431E+03 4.00775E+05 1.31409E+05 1.47928E+06 4.43833E-10 3.74384E-07
 -1       305-1.92361E+03 3.37754E+05 2.28562E+05 1.01162E+06 2.91038E-11 1.80517E-07
 -1       306-2.47012E+07-1.99430E+07-1.11797E+07-1.42122E+07 1.18394E-07-8.39937E-08
 -1       307 8.29519E+06 3.68366E+07 7.94360E+06 1.85986E+07 8.58025E-07-3.47267E-07
 -1       308-7.04519E+05-1.40446E+07-2.29667E+06-3.97616E+06 4.98840E-08-1.31142E-07
 -1       309-1.75425E+07 2.50504E+07 2.66025E+06-1.06635E+07-3.50803E-07 1.38223E-07
 -1       310 1.69835E+06-1.08535E+07-6.21747E+05-2.24921E+06-1.76080E-07 1.29919E-07
 -1       311-7.09138E+05 3.42504E+07 6.57152E+06 1.24103E+07-4.90101E-07 4.21482E-07
 -1       312-1.92142E+07-2.00313E+07-8.68007E+06-1.39546E+07 8.73115E-09-2.06986E-07
 -1       313 5.29674E+07 1.63825E+07 1.20500E+07 2.65687E+07 2.03028E-07-1.91620E-07
 -1       314-3.54420E+07-7.14749E+06-9.60582E+06-4.65123E+06-2.07103E-07-3.07919E-08
 -1       315 4.24089E+07 8.30623E+05 8.04308E+06-1.12483E+07 2.09635E-07 1.96480E-07
 -1       316-1.22787E+07-2.54480E+06-2.12158E+06 6.17399E+06 5.20202E-07 6.76955E-07
 -1       317-4.35215E+06 1.18929E+07 2.66637E+06-2.23212E+07-9.62547E-07 2.34810E-07
 -1       318-7.37948E+06-1.75406E+06-8.02158E+05 5.94772E+06 7.07631E-07 1.23422E-07
 -1       319 3.10404E+07 4.25448E+06 6.45914E+06-1.65738E+07 1.87196E-07 2.10217E-07
 -1       320-3.40046E+07-7.14003E+06-1.01868E+07-5.78038E+05-1.21538E-07-1.15833E-08
 -1       336-1.52205E+02 8.73152E+04 2.26717E+03-7.44630E+01-1.82484E-09-2.58433E-09
 -1       337 9.58219E+02 8.81849E+04 4.52926E+03 1.20557E+02-3.36854E-09 1.27329E-09
 -1       338-6.71776E+02 8.68659E+04 7.89172E+03-4.60936E+01-2.49292E-09 7.06223E-10
 -1       339 9.15147E+03 9.31461E+04 1.92616E+04 6.73617E+01-4.65661E-09 1.10958E-09
 -1       340-6.53334E+03 8.23550E+04 3.02314E+04-1.83294E+01-3.09956E-09 3.14549E-09
 -1       406-2.23492E+01 3.49436E+05 5.93856E+02-1.91835E+00 1.41841E-09-1.29257E-08
 -1       407 1.64620E+02 3.49555E+05 1.26663E+03-1.98925E+01 2.59433E-10-8.73115E-11
 -1       408 6.07220E+02 3.49344E+05 2.52704E+03 2.21995E+01 1.86174E-09-2.65572E-09
 -1       409 2.69524E+03 3.50362E+05 5.69334E+03-2.29718E+02 2.79670E-10-3.64435E-09
 -1       410 7.82149E+03 3.48619E+05 1.16209E+04 2.19859E+02 2.25737E-09 9.89530E-10
 -1       521-2.45068E+07-2.02227E+07-1.15866E+07-1.31170E+07 6.15837E-08-3.89642E-07
 -1       522 5.52751E+06 3.75609E+07 7.44157E+06 1.77424E+07 7.16216E-07-1.92347E-07
 -1       523-1.06678E+06-1.40291E+07-2.16551E+06-4.13794E+06 2.76486E-07 2.28465E-07
 -1       524-2.01869E+07 2.53909E+07 2.55014E+06-1.29997E+07-6.04239E-07 8.51343E-07
 -1       525 1.25509E+06-1.12894E+07-5.28640E+05-2.71351E+06-4.91731E-07 7.01286E-07
 -1       526-3.30463E+06 3.52827E+07 6.27538E+06 1.14117E+07-3.17916E-07 1.42492E-07
 -1       527-1.93805E+07-2.00915E+07-8.98293E+06-1.29721E+07-4.24217E-07 1.14320E-07
 -1       528 5.24283E+07 1.56440E+07 1.13898E+07 2.66855E+07-6.10715E-07-9.13278E-08
 -1       529-3.45022E+07-8.27510E+06-9.96557E+06-4.17810E+06-3.23169E-07-8.22183E-09
 -1       530 4.08362E+07 5.26476E+05 7.59339E+06-1.31891E+07 6.29516E-07-1.32481E-07
 -1       531-1.25746E+07-2.63075E+06-1.99312E+06 5.99088E+06 3.78583E-07 2.03960E-07
 -1       532-7.75085E+06 1.30117E+07 2.55905E+06-2.40337E+07-8.23577E-07 3.68396E-07
 -1       533-8.24601E+06-1.74433E+06-7.12223E+05 5.91526E+06-5.55418E-07 6.77632E-07
 -1       534 2.92980E+07 4.33929E+06 6.12138E+06-1.85365E+07 5.17437E-07-4.98927E-07
 -1       535-3.31345E+07-8.17802E+06-1.05487E+07-5.13674E+05 5.70435E-08-3.63973E-07
 -1       536 1.53082E+06-6.89372E+04 1.59427E+05 4.17354E+03-1.17697E-08 4.08909E-09
 -1       537 1.60104E+06 7.97935E+04 1.12960E+05-7.91806E+03 1.23323E-09-5.27325E-09
 -1       538 1.55805E+06-1.07840E+04 4.13297E+04-4.84974E+02-1.27427E-10 3.36513E-10
 -1       539 1.56944E+06 1.24834E+04 2.59954E+04-2.49058E+03-2.16689E-09 7.72616E-10
 -1       540 1.56247E+06-1.68612E+03 1.06557E+04-1.25370E+03 1.66951E-09 1.91494E-09
 -1       541 1.56432E+06 1.98233E+03 6.39095E+03-1.59502E+03 8.43615E-09-1.17063E-09
 -1       542 1.56320E+06-2.91195E+02 3.18468E+03-1.38057E+03 2.35332E-06 4.66684E-09
 -1       543 1.56357E+06 5.40974E+02 2.62783E+03-1.46107E+03 4.69085E-06 5.50607E-09
 -1       544 1.56322E+06-2.45739E+02 2.77375E+03-1.38765E+03 2.35546E-06 1.55069E-09
 -1       545 1.56411E+06 1.59141E+03 5.20316E+03-1.53759E+03 9.05281E-09 2.61423E-10
 -1       546 1.56265E+06-1.34089E+03 8.51657E+03-1.30404E+03 1.70298E-09 5.71481E-09
 -1       547 1.56816E+06 9.91446E+03 2.06598E+04-2.13930E+03-7.22587E-10 3.40606E-09
 -1       548 1.55916E+06-8.56226E+03 3.28082E+04-7.85920E+02 1.58744E-09-4.42014E-10
 -1       549 1.59303E+06 6.33045E+04 8.95971E+04-5.78537E+03-6.94982E-10 2.64481E-09
 -1       550 1.53773E+06-5.46846E+04 1.26527E+05 2.34194E+03-1.48009E-09-1.21508E-09
 -1       551 1.29199E+03-4.20070E+05-1.45778E+04-1.28749E+06-1.58980E-08-2.43017E-09
 -1       552 2.17155E+04-4.39622E+05 1.14785E+04-1.83334E+06-1.66183E-08 2.88856E-09
 -1       553 1.78407E+04-4.41182E+05 3.82643E+04-1.28419E+06-2.31958E-08 2.05455E-09
 -1       554 4.73541E+04-4.17793E+05 9.45740E+04-1.83330E+06-1.31404E-08 2.20462E-09
 -1       555 3.51757E+04-4.44873E+05 1.71243E+05-1.28747E+06-1.74259E-08-2.47383E-10
 -1       556-1.93440E+04-8.82660E+04 1.20972E+04-1.23957E+05 9.45874E-11 8.20728E-09
 -1       557 1.04911E+04-1.15524E+05 6.38595E+03-1.53659E+05 2.37560E-09 8.55948E-09
 -1       558-1.96427E+04-8.94613E+04 2.60517E+03-1.22366E+05 1.52431E-09-5.00222E-10
 -1       559 8.76751E+03-1.17441E+05 1.32428E+03-1.54851E+05-6.49379E-10-5.09692E-09
 -1       560-2.00655E+04-8.91614E+04 5.73693E+02-1.22598E+05-1.38607E-09-8.71614E-09
 -1       561 8.18306E+03-1.17321E+05 2.98973E+02-1.55251E+05 3.12866E-09 9.36029E-09
 -1       562-2.03323E+04-8.89768E+04 1.27423E+02-1.22786E+05-1.93722E-09-3.57841E-09
 -1       563 7.92901E+03-1.17216E+05 5.80887E+01-1.55417E+05-2.86946E-10-8.42192E-09
 -1       564-2.04043E+04-8.89232E+04-9.12521E+00-1.22839E+05-7.56700E-10-5.63341E-09
 -1       565 7.94737E+03-1.17227E+05-8.17458E+01-1.55398E+05-1.39926E-09-3.93266E-09
 -1       566-2.02758E+04-8.89987E+04-2.25401E+02-1.22758E+05 5.46606E-09 6.85759E-10
 -1       567 8.18423E+03-1.17349E+05-4.90573E+02-1.55171E+05 2.16096E-09-8.83119E-10
 -1       568-1.98982E+04-8.92409E+04-1.05509E+03-1.22552E+05 1.42245E-09-1.06211E-08
 -1       569 7.69740E+03-1.17667E+05-2.40941E+03-1.54208E+05 7.23230E-09-6.17001E-09
 -1       570-1.85886E+04-9.08134E+04-4.73464E+03-1.22265E+05 3.07773E-09-8.46921E-09
 -1       571 2.45635E+05 8.27189E+03 1.23733E+04-5.70225E+04-1.34787E-09 1.24510E-09
 -1       572 2.47477E+05 2.82235E+03 6.06265E+03-6.24748E+04-2.24509E-09-5.28553E-09
 -1       573 2.46361E+05 6.19887E+02 2.69305E+03-5.68519E+04-5.94810E-10-1.94859E-09
 -1       574 2.46580E+05 1.50088E+02 1.34947E+03-6.26576E+04-3.52884E-10-3.59250E-10
 -1       575 2.46433E+05-3.48784E+01 6.35614E+02-5.68299E+04 2.58751E-10 4.21323E-09
 -1       576 2.46450E+05-6.10025E+01 3.23056E+02-6.26819E+04 1.56717E-09 1.64528E-09
 -1       577 2.46439E+05-6.62730E+01 1.57877E+02-5.68270E+04-8.42037E-09 6.39375E-10
 -1       578 2.46433E+05-6.90152E+01 8.35890E+01-6.26849E+04-1.81058E-08 1.96269E-09
 -1       579 2.46450E+05-6.68563E+01 4.63690E+01-5.68269E+04-9.97716E-09-1.38198E-09
 -1       580 2.46449E+05-7.59404E+01 3.53920E+01-6.26818E+04 1.91585E-09 7.80301E-09
 -1       581 2.46476E+05-7.77404E+01 3.88882E+01-5.68300E+04 5.91353E-09 3.99268E-10
 -1       582 2.46491E+05-8.47533E+01 6.77530E+01-6.26505E+04 1.77351E-08-5.62841E-09
 -1       583 2.46513E+05-7.06444E+01 1.24614E+02-5.68581E+04 9.29595E-09 3.36445E-09
 -1       584 2.46585E+05 1.23835E+01 2.78398E+02-6.24141E+04-4.14821E-09 1.89812E-09
 -1       585 2.46531E+05 2.56148E+02 5.61457E+02-5.70668E+04 1.65801E-09-5.76438E-09
 -1       586-3.59841E+03 7.64439E+04-5.31502E+03-1.79105E+05 2.54556E-09-1.77624E-09
 -1       587-7.10945E+02 7.56482E+04-1.35161E+03-1.97004E+05 2.80852E-09-6.07861E-09
 -1       588 8.59755E+02 7.59273E+04 1.91387E+03-1.78955E+05 2.12094E-09-3.01452E-09
 -1       589 3.75444E+03 7.71413E+04 6.62544E+03-1.96912E+05 3.14685E-09-1.66619E-09
 -1       590 1.02801E+04 7.50838E+04 1.45480E+04-1.79185E+05 1.86037E-09 2.17824E-09
 -1       591-5.39582E+04-1.68309E+04-1.87089E+04-2.96829E+04-1.20087E-09-3.67345E-09
 -1       592-5.52470E+04-2.18865E+04-1.01332E+04-3.50825E+04-3.70164E-09-1.36629E-09
 -1       593-5.58583E+04-1.54449E+04-4.21887E+03-3.10294E+04-1.17016E-08 7.99901E-10
 -1       594-5.26355E+04-1.91741E+04-2.10390E+03-3.52240E+04-1.43315E-08 1.13709E-08
 -1       595-5.60054E+04-1.54369E+04-9.67012E+02-3.10921E+04-9.58778E-09-7.52593E-10
 -1       596-5.24605E+04-1.90493E+04-4.92882E+02-3.52075E+04-6.99629E-10 1.13106E-09
 -1       597-5.60245E+04-1.54483E+04-2.71494E+02-3.10950E+04-1.66506E-09 3.78179E-10
 -1       598-5.24439E+04-1.90446E+04-2.23933E+02-3.52026E+04 1.52977E-09-4.46812E-09
 -1       599-5.60226E+04-1.54487E+04-2.93312E+02-3.10942E+04-2.50793E-10 1.99657E-09
 -1       600-5.24615E+04-1.90515E+04-5.50583E+02-3.52060E+04-3.42652E-09-3.07978E-10
 -1       601-5.59977E+04-1.54368E+04-1.08948E+03-3.10895E+04-1.01090E-09-3.96540E-09
 -1       602-5.26579E+04-1.91926E+04-2.37558E+03-3.52215E+04 2.34763E-09-2.18063E-09
 -1       603-5.58292E+04-1.54486E+04-4.76542E+03-3.10185E+04 1.67802E-10 1.34560E-09
 -1       604-5.56139E+04-2.22481E+04-1.14459E+04-3.50498E+04-2.08126E-09 1.40244E-09
 -1       605-5.36723E+04-1.70208E+04-2.11322E+04-2.95048E+04-1.48248E-10 8.92214E-10
 -1       606 3.98328E+04-1.18661E+04-2.14045E+04 3.91184E+04-1.48248E-08-2.56205E-09
 -1       607 3.61605E+04-3.80145E+03-1.06567E+04 4.39040E+04-1.69048E-08-8.79209E-09
 -1       608 3.82188E+04-6.17867E+02-4.77539E+03 3.88013E+04 5.50062E-09-4.91355E-10
 -1       609 3.77885E+04-1.17785E+02-2.41079E+03 4.42460E+04 1.25438E-08 2.11367E-09
 -1       610 3.79976E+04 7.77581E+01-1.15393E+03 3.87660E+04-2.44472E-09 1.56706E-09
 -1       611 3.79006E+04 1.14515E+02-5.81548E+02 4.42832E+04-1.84209E-08-7.51606E-09
 -1       612 3.79213E+04 1.12280E+02-2.80266E+02 3.87626E+04-8.30732E-09-2.54431E-09
 -1       613 3.78721E+04 1.39323E+02-1.28394E+02 4.42874E+04-1.25328E-08-1.57752E-09
 -1       614 3.78733E+04 1.25735E+02-3.91760E+01 3.87614E+04-3.66435E-09-2.49838E-09
 -1       615 3.78374E+04 1.57247E+02 3.36504E+01 4.42878E+04 1.16015E-08 9.86438E-09
 -1       616 3.78373E+04 1.42113E+02 1.19144E+02 3.87618E+04-1.63782E-08 6.41194E-09
 -1       617 3.78295E+04 1.96101E+02 2.79988E+02 4.42869E+04-2.01758E-08-9.04038E-10
 -1       618 3.77966E+04 2.33165E+02 5.66755E+02 3.87619E+04-7.41375E-09-1.37788E-09
 -1       619 3.80162E+04 6.42716E+02 1.27474E+03 4.42857E+04 1.76806E-09 5.56611E-10
 -1       620 3.75999E+04 1.58442E+03 2.56240E+03 3.87589E+04 1.05410E-09 6.75163E-09
 -1       621 5.65748E+02 2.82614E+05 4.68376E+03 4.22208E+02-7.14294E-10 3.18367E-10
 -1       622 6.28148E+02 2.83780E+05 3.73151E+03 7.40495E+02-9.08884E-10-4.14810E-09
 -1       623 2.61592E+01 2.82986E+05 3.97221E+03 4.20768E+02-5.69457E-10-2.59444E-09
 -1       624 1.71571E+03 2.84781E+05 7.26485E+03 7.38539E+02-6.06633E-10-2.56367E-09
 -1       625 1.71706E+03 2.81613E+05 1.24984E+04 4.26274E+02-5.77984E-10-3.23030E-09
 -1       626 2.19959E+05 6.40065E+04 4.06216E+03 1.23209E+05-5.68798E-09-8.80209E-09
 -1       627 2.16541E+05 6.66896E+04 1.95864E+03 1.28360E+05-4.28918E-09 3.31966E-11
 -1       628 2.20123E+05 6.20537E+04 8.25357E+02 1.23767E+05 5.52609E-09 8.35689E-09
 -1       629 2.15886E+05 6.62777E+04 4.05876E+02 1.28656E+05 9.41145E-09-2.99758E-09
 -1       630 2.20115E+05 6.19707E+04 1.86855E+02 1.23766E+05 1.75896E-09-4.20414E-09
 -1       631 2.15790E+05 6.62794E+04 1.01799E+02 1.28647E+05-6.69206E-09-3.07331E-09
 -1       632 2.20089E+05 6.19867E+04 6.83503E+01 1.23747E+05-1.17989E-08-4.98972E-09
 -1       633 2.15760E+05 6.62921E+04 7.92663E+01 1.28629E+05-7.96490E-09 2.54630E-09
 -1       634 2.20066E+05 6.19930E+04 1.30084E+02 1.23735E+05 8.56744E-09 1.30944E-09
 -1       635 2.15757E+05 6.62979E+04 2.65572E+02 1.28622E+05 6.91989E-09-2.05750E-09
 -1       636 2.20045E+05 6.19952E+04 5.36679E+02 1.23727E+05-3.79805E-09-1.19508E-09
 -1       637 2.15862E+05 6.63849E+04 1.17965E+03 1.28614E+05 1.96223E-09 9.44965E-10
 -1       638 2.19998E+05 6.22586E+04 2.42430E+03 1.23604E+05-1.62004E-10-5.66797E-09
 -1       639 2.17130E+05 6.81590E+04 5.73475E+03 1.28239E+05-8.64441E-09-4.47471E-10
 -1       640 2.19837E+05 6.75300E+04 1.19004E+04 1.21358E+05-7.56427E-09 4.06476E-09
 -1       656 6.12380E+04-1.54315E+06-1.47781E+05 1.03402E+03 1.75351E-09-5.81920E-09
 -1       657-8.08916E+04-1.60976E+06-1.22125E+05 1.14859E+04 3.45608E-10 7.29621E-10
 -1       658 1.93749E+04-1.56217E+06-7.48121E+04-1.08696E+03 1.13255E-09 2.24292E-09
 -1       659-8.64201E+04-1.61239E+06-1.29385E+05 1.28225E+04-2.25100E-09 1.55075E-09
 -1       660 6.67556E+04-1.54053E+06-1.60253E+05-3.02634E+02 1.09867E-09 6.29484E-10
 -1       661 2.44512E+05 2.69943E+04 2.29923E+04 9.57686E+04 7.38009E-09-1.23509E-09
 -1       662 2.56340E+05 4.51733E+04 1.54926E+04 9.19418E+04 6.71855E-09 6.45468E-09
 -1       663 2.49028E+05 3.43683E+04 5.41968E+03 9.44576E+04 3.33273E-09 4.68435E-09
 -1       664 2.51109E+05 3.65466E+04 3.24019E+03 9.35413E+04 1.88331E-09 4.53198E-09
 -1       665 2.49709E+05 3.53783E+04 1.27792E+03 9.42613E+04-1.99543E-09-5.94252E-09
 -1       666 2.50305E+05 3.53901E+04 7.44778E+02 9.37977E+04-1.26093E-08 1.43302E-08
 -1       667 2.49828E+05 3.54942E+04 3.91591E+02 9.42128E+04-3.36939E-10 5.47992E-09
 -1       668 2.50172E+05 3.53056E+04 3.90563E+02 9.38714E+04 1.04526E-08-1.83731E-09
 -1       669 2.49842E+05 3.54599E+04 5.21331E+02 9.41886E+04 6.89505E-09 2.44677E-09
 -1       670 2.50290E+05 3.55934E+04 1.12880E+03 9.38851E+04 7.21057E-09 1.61322E-09
 -1       671 2.49711E+05 3.52118E+04 2.00175E+03 9.41969E+04-4.95895E-10-1.22134E-09
 -1       672 2.51444E+05 3.75524E+04 5.11969E+03 9.36175E+04-7.34973E-09-5.57122E-10
 -1       673 2.48694E+05 3.35498E+04 8.57894E+03 9.44374E+04-1.84400E-09-4.06908E-09
 -1       674 2.59601E+05 5.13416E+04 2.45328E+04 9.12278E+04 1.15870E-09-1.09685E-09
 -1       675 2.41606E+05 2.18077E+04 3.64155E+04 9.64408E+04 2.38288E-09 8.00355E-10
 -1       676 2.59654E+01-3.04706E+05-1.19924E+03 1.42678E+02-2.31066E-09-6.57369E-09
 -1       677-3.17271E+02-3.04997E+05-2.19483E+03-2.85119E+02-1.37222E-08 6.24652E-10
 -1       678 2.12771E+02-3.04499E+05-3.87991E+03 1.42343E+02-2.03136E-09 3.24958E-09
 -1       679-3.88006E+03-3.07339E+05-9.21711E+03-2.83927E+02-1.29534E-08 9.85324E-10
 -1       680 2.31662E+03-3.02365E+05-1.48548E+04 1.39842E+02 1.79898E-09-3.38262E-09
 -1       771-3.30351E+06-4.91321E+05-1.46912E+05-1.25217E+06 3.61979E-10 3.57250E-09
 -1       772-3.33639E+06-5.08084E+05-7.95730E+04-1.26797E+06-2.13140E-09-8.47649E-10
 -1       773-3.31828E+06-4.80629E+05-3.30728E+04-1.26273E+06 2.30102E-10 3.49428E-09
 -1       774-3.31572E+06-4.86814E+05-1.64495E+04-1.26919E+06 2.61389E-09 1.30967E-10
 -1       775-3.31955E+06-4.80428E+05-7.49739E+03-1.26307E+06 3.17777E-09 3.62797E-09
 -1       776-3.31409E+06-4.86074E+05-3.68034E+03-1.26936E+06 2.37924E-09 6.04700E-09
 -1       777-3.31985E+06-4.80389E+05-1.76655E+03-1.26296E+06 4.81123E-10 2.03454E-09
 -1       778-3.31374E+06-4.86237E+05-9.65795E+02-1.26959E+06 5.78439E-10 2.95961E-09
 -1       779-3.32000E+06-4.80297E+05-6.84662E+02-1.26287E+06-2.12822E-10-3.35763E-09
 -1       780-3.31360E+06-4.86405E+05-8.24066E+02-1.26981E+06 4.03816E-10-4.14161E-09
 -1       781-3.32007E+06-4.80194E+05-1.39673E+03-1.26279E+06 1.16324E-09-3.74837E-09
 -1       782-3.31374E+06-4.86696E+05-2.91978E+03-1.27000E+06-3.07955E-09-2.59206E-09
 -1       783-3.31995E+06-4.80140E+05-5.80668E+03-1.26266E+06-9.99580E-09-1.50458E-08
 -1       784-3.31723E+06-4.90567E+05-1.39392E+04-1.26998E+06-2.67323E-09-4.61569E-10
 -1       785-3.31745E+06-4.81938E+05-2.57310E+04-1.26074E+06-1.25692E-09-5.69071E-09
 -1       786 2.82909E+05-1.33955E+04 3.09939E+04 2.41367E+02 2.58419E-09-1.05683E-09
 -1       787 2.96337E+05 1.55081E+04 2.19275E+04 1.61729E+01 1.88415E-09 5.30326E-09
 -1       788 2.88091E+05-2.09981E+03 8.02312E+03 1.97410E+02-2.35265E-10 5.44787E-09
 -1       789 2.90302E+05 2.42988E+03 5.04230E+03 7.79287E+01 1.10930E-08 1.06024E-09
 -1       790 2.88947E+05-3.28055E+02 2.05459E+03 1.79619E+02 3.12874E-06-1.09492E-09
 -1       791 2.89304E+05 3.82124E+02 1.21174E+03 9.93059E+01 6.21895E-06 6.69030E-09
 -1       792 2.89089E+05-5.35994E+01 5.63692E+02 1.76034E+02-3.14451E-06-1.08273E-09
 -1       793 2.89146E+05 8.06075E+01 3.91026E+02 9.44368E+01-1.25002E-05 3.37833E-09
 -1       794 2.89105E+05-2.67373E+01 3.22763E+02 1.84488E+02-6.27541E-06-4.61771E-09
 -1       795 2.89181E+05 1.51212E+02 5.14674E+02 6.13610E+01-1.93656E-08 5.74253E-09
 -1       796 2.89055E+05-1.24158E+02 7.99836E+02 2.09110E+02-1.43681E-09-2.84160E-09
 -1       797 2.89552E+05 9.14170E+02 1.90983E+03-1.63165E+01-1.98734E-09 3.96176E-09
 -1       798 2.88733E+05-7.89142E+02 3.02199E+03 2.62167E+02-1.85601E-09 5.09340E-09
 -1       799 2.91825E+05 5.82892E+03 8.24602E+03-1.78873E+02-2.06820E-09 1.14210E-08
 -1       800 2.86781E+05-5.03496E+03 1.16482E+04 3.71665E+02-6.21604E-10 6.17547E-10
 -1       801-1.78463E+05 4.27515E+06 4.21405E+05 8.25380E+03 8.78936E-09-4.47636E-09
 -1       802 2.52101E+05 4.52406E+06 3.89197E+05-1.32893E+05 2.24663E-08-1.74934E-09
 -1       803-7.06990E+04 4.34661E+06 2.78906E+05-6.64233E+04 1.53923E-08 4.09409E-09
 -1       804 3.82138E+05 4.58708E+06 5.59141E+05-1.38189E+05 1.95214E-08 1.14350E-08
 -1       805-3.08277E+05 4.21216E+06 7.13226E+05 1.35409E+04 5.41331E-09 4.38017E-08
 -1       806-2.65875E+05-6.36511E+04-2.53934E+04-1.17722E+05 1.39994E-09 9.45874E-11
 -1       807-2.66721E+05-6.06662E+04-1.24748E+04-1.25196E+05 6.87123E-10-1.20497E-09
 -1       808-2.66633E+05-5.44422E+04-5.29154E+03-1.21995E+05 2.02658E-09 4.34557E-09
 -1       809-2.64020E+05-5.72430E+04-2.58619E+03-1.25609E+05 3.41288E-10-4.43379E-09
 -1       810-2.66753E+05-5.41135E+04-1.18382E+03-1.22183E+05-3.36134E-09-1.90516E-09
 -1       811-2.63815E+05-5.71097E+04-5.86026E+02-1.25585E+05-4.24518E-09-7.31507E-09
 -1       812-2.66773E+05-5.41362E+04-2.90640E+02-1.22182E+05-2.89310E-09-1.08421E-08
 -1       813-2.63787E+05-5.71145E+04-1.80254E+02-1.25569E+05-1.80989E-10-2.21416E-09
 -1       814-2.66768E+05-5.41468E+04-1.64124E+02-1.22177E+05-7.25049E-09-6.38465E-10
 -1       815-2.63785E+05-5.71189E+04-2.51596E+02-1.25561E+05-1.17052E-08 2.10412E-09
 -1       816-2.66747E+05-5.41484E+04-4.68674E+02-1.22171E+05-5.57793E-09 1.02909E-09
 -1       817-2.63859E+05-5.71659E+04-1.00253E+03-1.25546E+05 6.14182E-09 6.88124E-09
 -1       818-2.66678E+05-5.42944E+04-2.04315E+03-1.22100E+05 5.24233E-09 1.29494E-08
 -1       819-2.64986E+05-5.83857E+04-4.80693E+03-1.25254E+05-6.80575E-09-3.27418E-09
 -1       820-2.66274E+05-5.79393E+04-9.78422E+03-1.20551E+05-4.59477E-09-2.07592E-09
 -1       821-3.51898E+05 1.98004E+04-4.58360E+04 3.22153E+02-1.38962E-09-4.27099E-09
 -1       822-3.71541E+05-2.29304E+04-3.23994E+04-2.72776E+03-2.03917E-09-5.23414E-10
 -1       823-3.59451E+05 3.11142E+03-1.18641E+04 7.94290E+02-2.05727E-10 1.56570E-09
 -1       824-3.62665E+05-3.60272E+03-7.45829E+03-2.96328E+03 4.23116E-10 1.51215E-09
 -1       825-3.60772E+05 4.88395E+02-3.07711E+03 5.57669E+02-2.20844E-09 2.06910E-11
 -1       826-3.61017E+05-5.71263E+02-1.80852E+03-1.92066E+03-5.45117E-09-2.41872E-09
 -1       827-3.61092E+05 7.82923E+01-9.88662E+02-2.48343E+02-6.48384E-09-2.46851E-09
 -1       828-3.60735E+05-1.63036E+02-7.80915E+02-1.58395E+02-1.13993E-08-1.72254E-09
 -1       829-3.61052E+05 7.87263E+01-9.86457E+02-1.20461E+03 7.28150E-10-5.90146E-09
 -1       830-3.61115E+05-5.70700E+02-1.84189E+03 1.40750E+03 6.00702E-09 3.89184E-09
 -1       831-3.60718E+05 4.89189E+02-3.09676E+03-1.81427E+03-5.95290E-09 5.05008E-09
 -1       832-3.62713E+05-3.62362E+03-7.53372E+03 1.96615E+03-4.40250E-09 1.10140E-09
 -1       833-3.59458E+05 3.13183E+03-1.19853E+04-1.76329E+03-3.21236E-11 1.65437E-09
 -1       834-3.71575E+05-2.31369E+04-3.26977E+04 1.23032E+03 2.90755E-09 3.24508E-09
 -1       835-3.51855E+05 1.99846E+04-4.62921E+04-1.07838E+03 1.09070E-08 5.13137E-09
 -1       836-1.15312E+03 3.45855E+05 2.06064E+04-3.72031E+04 5.09044E-09 2.46473E-10
 -1       837 4.67791E+03 3.52159E+05 1.75469E+04-7.44982E+04 6.95672E-09 2.66391E-09
 -1       838-3.65910E+02 3.47619E+05 1.80190E+04-3.70940E+04 5.92081E-09 3.17482E-09
 -1       839 1.16791E+04 3.57371E+05 3.42235E+04-7.45177E+04 7.10861E-09-6.42422E-09
 -1       840-3.40590E+03 3.40585E+05 5.46231E+04-3.71782E+04 5.33510E-09 4.38831E-10
 -1       856-1.31657E+05 1.01286E+04-2.66961E+04-7.21964E+02-5.85385E-09-2.37196E-09
 -1       857-1.42689E+05-1.18707E+04-1.83792E+04 5.71731E+03-5.37960E-09-2.25464E-09
 -1       858-1.36013E+05 1.41776E+03-6.92904E+03-7.60740E+02-4.84772E-09-3.65117E-09
 -1       859-1.37689E+05-1.63854E+03-4.18523E+03 5.78114E+03-1.60068E-09-1.95683E-09
 -1       860-1.36663E+05 1.95877E+02-1.76158E+03-7.86261E+02 2.82981E-09 4.95106E-09
 -1       861-1.36941E+05-2.05954E+02-9.84396E+02 5.81627E+03-8.55059E-09 4.02673E-09
 -1       862-1.36764E+05 2.49315E+01-4.40192E+02-7.95961E+02 1.07175E-08-4.35287E-09
 -1       863-1.36823E+05-5.91123E+00-2.30700E+02 5.82024E+03 1.47238E-08-7.46505E-09
 -1       864-1.36782E+05 3.13856E-01-9.88390E+01-7.90238E+02 6.03799E-09-2.05534E-09
 -1       865-1.36795E+05 2.56873E+01-3.01468E+01 5.79262E+03 8.07528E-09-2.25952E-09
 -1       866-1.36790E+05-8.17770E+00 1.97475E+01-7.68332E+02 4.82868E-09-3.49885E-10
 -1       867-1.36759E+05 6.59953E+01 1.02415E+02 5.73327E+03-1.78201E-09-1.98700E-10
 -1       868-1.36811E+05-4.31254E+01 1.80637E+02-7.30867E+02-1.43444E-09-7.62228E-10
 -1       869-1.36604E+05 3.43895E+02 5.04098E+02 5.63837E+03-6.44246E-09-3.98001E-09
 -1       870-1.36936E+05-2.84181E+02 7.24996E+02-6.73420E+02 4.35693E-09-1.75120E-09
 -1       871-5.27632E+03-8.95662E+03-1.64641E+04 1.06416E+05 5.54974E-09-8.80391E-10
 -1       872-2.44020E+03-1.26027E+04-6.64699E+03 1.37960E+05 1.18398E-08 7.46877E-09
 -1       873-2.25667E+02-1.09562E+04 1.11065E+03 1.06185E+05 3.35967E-09 3.38969E-09
 -1       874 2.38267E+03-8.42481E+03 9.69158E+03 1.38016E+05 1.04201E-08 1.75896E-09
 -1       875 5.99817E+03-1.32297E+04 2.13795E+04 1.06385E+05 6.03904E-09-2.48383E-09
 -1       876 2.76566E+05 4.82549E+04 1.50904E+04 1.12917E+05-2.43631E-09-5.92081E-09
 -1       877 2.77350E+05 5.16494E+04 8.05883E+03 1.17459E+05 3.23507E-09-1.20906E-09
 -1       878 2.77973E+05 4.65875E+04 3.37599E+03 1.14157E+05 1.60794E-08 6.38784E-09
 -1       879 2.75294E+05 4.96059E+04 1.68180E+03 1.17564E+05 9.44283E-10 8.48138E-09
 -1       880 2.78074E+05 4.65706E+04 7.82595E+02 1.14208E+05 5.48334E-09-4.63569E-09
 -1       881 2.75157E+05 4.95188E+04 4.16412E+02 1.17540E+05 1.50666E-08-1.29096E-08
 -1       882 2.78083E+05 4.65841E+04 2.63513E+02 1.14209E+05 1.44448E-08 4.16641E-10
 -1       883 2.75147E+05 4.95144E+04 2.78809E+02 1.17533E+05 5.40854E-09 7.38834E-09
 -1       884 2.78076E+05 4.65815E+04 4.39314E+02 1.14209E+05 1.57775E-09-1.08838E-09
 -1       885 2.75182E+05 4.95207E+04 8.80619E+02 1.17544E+05 9.50985E-09-1.20179E-08
 -1       886 2.78043E+05 4.65557E+04 1.77348E+03 1.14205E+05 1.14048E-08-1.86969E-09
 -1       887 2.75493E+05 4.97250E+04 3.87331E+03 1.17589E+05-8.20449E-09 2.90765E-09
 -1       888 2.77799E+05 4.65980E+04 7.80443E+03 1.14081E+05 7.20320E-10 1.51886E-10
 -1       889 2.80147E+05 5.45508E+04 1.86436E+04 1.17441E+05 4.24025E-09 5.02405E-09
 -1       890 2.74624E+05 5.03706E+04 3.49184E+04 1.11099E+05 4.41082E-09-2.91038E-11
 -1       891-2.26885E+02-1.58715E+05-1.84945E+03 3.15752E+04 7.61725E-09 1.54487E-08
 -1       892-3.84862E+02-1.59124E+05-2.02066E+03 4.77124E+04 1.75396E-09 1.43571E-08
 -1       893-1.10654E+02-1.58764E+05-2.89815E+03 3.15812E+04 2.90811E-09 9.13406E-09
 -1       894-1.68097E+03-1.60220E+05-6.02250E+03 4.75428E+04-2.05819E-09 1.18143E-08
 -1       895-1.31336E+03-1.57495E+05-1.06193E+04 3.17400E+04 3.83295E-09 5.34237E-09
 -1       956-3.45005E+05-5.07167E+03-1.28378E+04 2.18077E+04-7.73798E-09-1.35174E-09
 -1       957-3.47547E+05-1.68403E+03-6.59004E+03 2.62880E+04-3.74712E-09-1.32741E-09
 -1       958-3.46148E+05-1.07217E+02-2.96946E+03 2.16496E+04 3.70801E-09-3.31784E-09
 -1       959-3.46360E+05 1.60818E+01-1.51638E+03 2.64548E+04-3.14412E-09 7.89328E-09
 -1       960-3.46254E+05 7.56543E+01-7.39227E+02 2.16341E+04-8.40919E-09-1.09071E-09
 -1       961-3.46278E+05 8.28945E+01-3.91287E+02 2.64726E+04-1.53816E-08-2.46428E-09
 -1       962-3.46279E+05 7.29250E+01-2.22652E+02 2.16313E+04-5.80621E-09-2.12663E-09
 -1       963-3.46278E+05 8.67299E+01-1.75930E+02 2.64766E+04-9.04311E-09 9.75433E-10
 -1       964-3.46286E+05 7.71467E+01-2.10326E+02 2.16300E+04-6.45605E-09 2.37651E-09
 -1       965-3.46294E+05 9.21314E+01-3.60590E+02 2.64775E+04-4.23216E-09 1.37265E-09
 -1       966-3.46277E+05 8.81173E+01-6.75344E+02 2.16303E+04-8.24048E-09-2.35377E-09
 -1       967-3.46384E+05 3.99387E+01-1.38440E+03 2.64702E+04 5.12557E-10 3.48496E-09
 -1       968-3.46193E+05-7.05712E+01-2.70890E+03 2.16376E+04-5.77052E-09-6.49777E-10
 -1       969-3.47484E+05-1.50419E+03-6.01477E+03 2.63884E+04-9.54060E-09 1.12132E-09
 -1       970-3.45160E+05-4.59669E+03-1.17155E+04 2.17209E+04-5.77029E-09 1.35151E-09
 -1       971-3.32074E+05-1.77399E+03-1.00075E+04 1.65030E+04-6.94035E-09-1.48813E-09
 -1       972-3.34520E+05-1.24806E+03-5.44926E+03 2.31699E+04-6.79438E-09-1.26192E-09
 -1       973-3.33192E+05 1.77461E+01-2.44064E+03 1.63586E+04-3.07227E-09 3.04567E-09
 -1       974-3.33377E+05 3.47628E+01-1.26370E+03 2.33240E+04 5.20049E-09 4.40423E-10
 -1       975-3.33283E+05 6.77863E+01-6.29913E+02 1.63445E+04 3.90810E-09 1.12618E-09
 -1       976-3.33314E+05 9.00758E+01-3.59343E+02 2.33415E+04-1.40344E-08 3.35308E-09
 -1       977-3.33303E+05 6.95694E+01-2.54086E+02 1.63408E+04 2.06205E-09 4.78121E-09
 -1       978-3.33321E+05 9.75225E+01-2.87873E+02 2.33467E+04 1.45887E-08-6.44491E-09
 -1       979-3.33304E+05 7.82425E+01-4.54652E+02 1.63392E+04 9.67236E-09 2.94142E-09
 -1       980-3.33355E+05 1.00758E+02-8.72945E+02 2.33476E+04 8.28135E-09-1.62504E-09
 -1       981-3.33276E+05 9.97454E+01-1.68832E+03 1.63398E+04 1.84809E-09 1.90198E-09
 -1       982-3.33585E+05-2.47616E+01-3.48840E+03 2.33399E+04-8.07631E-10 2.62753E-09
 -1       983-3.33062E+05-9.56695E+00-6.77766E+03 1.63475E+04 4.95174E-09 1.91062E-09
 -1       984-3.36840E+05-3.56658E+03-1.51775E+04 2.32435E+04-1.03155E-08 4.07840E-09
 -1       985-3.29990E+05-4.97056E+03-2.78710E+04 1.64510E+04 3.21825E-09 5.95173E-09
 -3
    1PSTEP                        27          14           1          
  100CL  114 7.22168E-01         409                     0   14           1
 -4  DISP        4    1
 -5  D1          1    2    1    0
 -5  D2          1    2    2    0
 -5  D3          1    2    3    0
 -5  ALL         1    2    0    0    1ALL
 -1         1 3.75853E-03 0.00000E+00 0.00000E+00
 -1         2 3.86713E-03 3.70623E-28 0.00000E+00
 -1         3 5.12849E-05-1.70330E-27 6.61744E-24
 -1         5 7.05807E-05-7.92597E-27 0.00000E+00
 -1         8 3.71089E-03-2.07498E-06 0.00000E+00
 -1         9 3.74197E-03-5.29711E-06 0.00000E+00
 -1        10 5.12122E-05 9.53253E-07-3.30872E-24
 -1        12 6.88800E-05 7.70776E-07 0.00000E+00
 -1        15 3.65453E-03-2.37871E-06 0.00000E+00
 -1        16 3.65303E-03-5.28548E-06 0.00000E+00
 -1        17 5.09710E-05 1.97007E-06 0.00000E+00
 -1        18 6.23445E-05-1.12388E-05 0.00000E+00
 -1        19 6.37773E-05 1.53559E-06 0.00000E+00
 -1        20 6.39789E-05 3.40140E-05 0.00000E+00
 -1        21 6.32924E-05 6.67431E-05 0.00000E+00
 -1        24 2.51657E-05 1.09612E-06 0.00000E+00
 -1        25 5.51192E-05-1.10810E-05 0.00000E+00
 -1        26 5.68530E-05 2.15503E-06 0.00000E+00
 -1        27 5.47225E-05 3.06227E-05 0.00000E+00
 -1        28 5.38612E-05 6.60643E-05 0.00000E+00
 -1        32 0.00000E+00 0.00000E+00 0.00000E+00
 -1        33 4.77311E-05 2.90065E-06 0.00000E+00
 -1        34 4.56792E-05 3.05906E-05 0.00000E+00
 -1        35 4.36884E-05 6.57077E-05 0.00000E+00
 -1        51 3.75542E-03-3.25040E-07 0.00000E+00
 -1        52 3.74966E-03-6.52618E-07 0.00000E+00
 -1        53 3.74178E-03-9.89067E-07 0.00000E+00
 -1        54 3.73233E-03-1.33677E-06 6.61744E-24
 -1        55 3.72185E-03-1.69544E-06 3.30872E-24
 -1        56 3.75803E-03-1.62202E-06 2.64698E-23
 -1        57 3.75838E-03-5.58316E-06 0.00000E+00
 -1        58 3.75941E-03-1.13795E-05 0.00000E+00
 -1        59 3.76091E-03-1.84753E-05 0.00000E+00
 -1        60 3.76267E-03-2.62689E-05 2.64698E-23
 -1        61 3.76446E-03-3.41441E-05 1.32349E-23
 -1        62 3.76605E-03-4.14802E-05 0.00000E+00
 -1        63 3.76721E-03-4.76698E-05 1.32349E-23
 -1        64 3.76775E-03-5.21603E-05 2.64698E-23
 -1        65 3.76747E-03-5.44393E-05 1.32349E-23
 -1        66 3.76621E-03-5.41002E-05-2.64698E-23
 -1        67 3.76383E-03-5.07977E-05 0.00000E+00
 -1        68 3.76024E-03-4.43284E-05 2.64698E-23
 -1        69 3.75540E-03-3.45598E-05 1.32349E-23
 -1        70 3.74928E-03-2.15213E-05-1.32349E-23
 -1        86 3.86140E-03-6.71783E-07 2.64698E-23
 -1        87 3.84434E-03-1.46673E-06 0.00000E+00
 -1        88 3.81958E-03-2.41068E-06 0.00000E+00
 -1        89 3.79092E-03-3.44907E-06 0.00000E+00
 -1        90 3.76339E-03-4.45991E-06 6.61744E-24
 -1       121 5.12829E-05 1.58828E-07-6.61744E-24
 -1       122 5.12769E-05 3.17659E-07 0.00000E+00
 -1       123 5.12668E-05 4.76492E-07 0.00000E+00
 -1       124 5.12527E-05 6.35353E-07-3.30872E-24
 -1       125 5.12345E-05 7.94192E-07-6.61744E-24
 -1       191 7.05335E-05 1.28517E-07 6.61744E-24
 -1       192 7.03918E-05 2.57025E-07 3.30872E-24
 -1       193 7.01556E-05 3.85515E-07-6.61744E-24
 -1       194 6.98249E-05 5.13978E-07 0.00000E+00
 -1       195 6.93998E-05 6.42402E-07 0.00000E+00
 -1       251 3.71272E-03 4.57791E-06 2.64698E-23
 -1       252 3.71467E-03 6.13555E-06 0.00000E+00
 -1       253 3.71661E-03 4.77473E-06-5.29396E-23
 -1       254 3.71858E-03 2.42504E-06 0.00000E+00
 -1       255 3.72054E-03-4.90047E-07 5.29396E-23
 -1       256 3.72251E-03-3.59402E-06 2.64698E-23
 -1       257 3.72448E-03-6.80060E-06 5.29396E-23
 -1       258 3.72644E-03-1.00320E-05 0.00000E+00
 -1       259 3.72841E-03-1.32488E-05 0.00000E+00
 -1       260 3.73038E-03-1.64102E-05 0.00000E+00
 -1       261 3.73235E-03-1.93903E-05 5.29396E-23
 -1       262 3.73431E-03-2.20481E-05 2.64698E-23
 -1       263 3.73628E-03-2.37470E-05-5.29396E-23
 -1       264 3.73823E-03-2.37712E-05 2.64698E-23
 -1       265 3.74018E-03-1.88497E-05 0.00000E+00
 -1       266 3.70150E-03-2.15038E-06 0.00000E+00
 -1       267 3.69211E-03-2.19798E-06 3.30872E-24
 -1       268 3.68271E-03-2.24735E-06 0.00000E+00
 -1       269 3.67332E-03-2.29149E-06 8.27181E-25
 -1       270 3.66393E-03-2.33552E-06-8.27181E-25
 -1       271 3.70503E-03 4.03863E-06 0.00000E+00
 -1       272 3.70055E-03 6.18735E-06-5.29396E-23
 -1       273 3.69741E-03 4.82488E-06 0.00000E+00
 -1       274 3.69534E-03 5.02390E-07 5.29396E-23
 -1       275 3.69412E-03-6.08833E-06 0.00000E+00
 -1       276 3.69344E-03-1.41688E-05-5.29396E-23
 -1       277 3.69300E-03-2.28939E-05-1.05879E-22
 -1       278 3.69248E-03-3.13926E-05 0.00000E+00
 -1       279 3.69155E-03-3.88042E-05-1.05879E-22
 -1       280 3.68993E-03-4.43120E-05 0.00000E+00
 -1       281 3.68732E-03-4.71833E-05 1.05879E-22
 -1       282 3.68349E-03-4.67921E-05 0.00000E+00
 -1       283 3.67825E-03-4.26558E-05 0.00000E+00
 -1       284 3.67145E-03-3.44377E-05 5.29396E-23
 -1       285 3.66302E-03-2.19891E-05 5.29396E-23
 -1       301 3.72619E-03-5.29977E-06 0.00000E+00
 -1       302 3.71217E-03-5.27446E-06 0.00000E+00
 -1       303 3.69889E-03-5.23948E-06 0.00000E+00
 -1       304 3.68529E-03-5.21291E-06 0.00000E+00
 -1       305 3.67035E-03-5.21079E-06-6.61744E-24
 -1       306 3.64037E-03 1.77695E-04-1.05879E-22
 -1       307 3.31741E-03 6.22818E-04 5.29396E-23
 -1       308 2.74997E-03 1.23284E-03 0.00000E+00
 -1       309 1.99765E-03 1.91198E-03 0.00000E+00
 -1       310 1.21136E-03 2.60104E-03 0.00000E+00
 -1       311 5.52470E-04 3.25114E-03-5.29396E-23
 -1       312 1.14950E-04 3.78345E-03-2.11758E-22
 -1       313-8.01649E-05 4.09905E-03-1.05879E-22
 -1       314-9.02850E-05 4.09488E-03-2.11758E-22
 -1       315-3.10930E-05 3.75411E-03 5.29396E-23
 -1       316 6.58110E-06 3.11628E-03 0.00000E+00
 -1       317-1.69038E-05 2.28840E-03 5.29396E-23
 -1       318-5.49211E-05 1.42468E-03 0.00000E+00
 -1       319-4.51854E-05 6.81595E-04 0.00000E+00
 -1       320 1.10355E-05 1.80442E-04 0.00000E+00
 -1       336 5.11853E-05 1.12480E-06 0.00000E+00
 -1       337 5.11531E-05 1.29640E-06 3.30872E-24
 -1       338 5.11157E-05 1.46779E-06 0.00000E+00
 -1       339 5.10729E-05 1.63797E-06-1.65436E-24
 -1       340 5.10247E-05 1.80825E-06-1.65436E-24
 -1       406 6.82658E-05 8.99083E-07 0.00000E+00
 -1       407 6.75569E-05 1.02729E-06 0.00000E+00
 -1       408 6.67535E-05 1.15534E-06 0.00000E+00
 -1       409 6.58555E-05 1.28308E-06 0.00000E+00
 -1       410 6.48632E-05 1.41023E-06-6.61744E-24
 -1       521 3.55015E-03 1.77814E-04 0.00000E+00
 -1       522 3.22818E-03 6.20890E-04 5.29396E-23
 -1       523 2.66670E-03 1.22745E-03 0.00000E+00
 -1       524 1.92843E-03 1.90229E-03 0.00000E+00
 -1       525 1.15798E-03 2.58705E-03 0.00000E+00
 -1       526 5.09811E-04 3.23255E-03 0.00000E+00
 -1       527 7.87354E-05 3.75963E-03-2.11758E-22
 -1       528-1.13712E-04 4.07043E-03 0.00000E+00
 -1       529-1.23490E-04 4.06229E-03 2.11758E-22
 -1       530-6.51680E-05 3.72021E-03 1.05879E-22
 -1       531-2.73693E-05 3.08553E-03 0.00000E+00
 -1       532-4.71896E-05 2.26731E-03-5.29396E-23
 -1       533-8.07192E-05 1.41424E-03-1.05879E-22
 -1       534-6.94512E-05 6.77458E-04 0.00000E+00
 -1       535-1.37293E-05 1.79445E-04 0.00000E+00
 -1       536 5.16529E-05 1.76968E-06 0.00000E+00
 -1       537 5.23646E-05 1.06950E-06-6.61744E-24
 -1       538 5.30742E-05 9.50483E-08 2.64698E-23
 -1       539 5.37895E-05-9.37303E-07 0.00000E+00
 -1       540 5.45049E-05-2.00140E-06 0.00000E+00
 -1       541 5.52214E-05-3.07213E-06 0.00000E+00
 -1       542 5.59381E-05-4.14643E-06 0.00000E+00
 -1       543 5.66550E-05-5.22134E-06 0.00000E+00
 -1       544 5.73718E-05-6.29588E-06 2.64698E-23
 -1       545 5.80885E-05-7.36913E-06 1.32349E-23
 -1       546 5.88051E-05-8.43575E-06 2.64698E-23
 -1       547 5.95207E-05-9.49018E-06-1.32349E-23
 -1       548 6.02362E-05-1.04865E-05-2.64698E-23
 -1       549 6.09467E-05-1.13770E-05 6.61744E-24
 -1       550 6.16591E-05-1.17654E-05 0.00000E+00
 -1       551 4.82726E-05 1.84037E-06 0.00000E+00
 -1       552 4.35575E-05 1.70221E-06-1.65436E-24
 -1       553 3.78524E-05 1.55957E-06 6.61744E-24
 -1       554 3.21953E-05 1.41349E-06 0.00000E+00
 -1       555 2.76241E-05 1.26738E-06 0.00000E+00
 -1       556 5.10109E-05 1.74221E-06 0.00000E+00
 -1       557 5.11782E-05 1.17260E-06 0.00000E+00
 -1       558 5.14528E-05 3.16282E-07-3.30872E-24
 -1       559 5.18133E-05-7.70033E-07 0.00000E+00
 -1       560 5.22386E-05-2.02966E-06-3.30872E-24
 -1       561 5.27075E-05-3.40578E-06 0.00000E+00
 -1       562 5.31986E-05-4.84161E-06-1.65436E-24
 -1       563 5.36909E-05-6.28032E-06 4.13590E-25
 -1       564 5.41629E-05-7.66507E-06 7.23783E-25
 -1       565 5.45936E-05-8.93907E-06-8.27181E-25
 -1       566 5.49617E-05-1.00455E-05 0.00000E+00
 -1       567 5.52458E-05-1.09276E-05-8.27181E-25
 -1       568 5.54248E-05-1.15286E-05 0.00000E+00
 -1       569 5.54773E-05-1.17919E-05 0.00000E+00
 -1       570 5.53821E-05-1.16609E-05 0.00000E+00
 -1       571 6.24316E-05-1.03273E-05-1.24077E-24
 -1       572 6.25204E-05-9.47754E-06 2.06795E-25
 -1       573 6.26099E-05-8.68016E-06 0.00000E+00
 -1       574 6.26996E-05-7.92509E-06-8.27181E-25
 -1       575 6.27894E-05-7.20223E-06-3.30872E-24
 -1       576 6.28793E-05-6.50139E-06 0.00000E+00
 -1       577 6.29692E-05-5.81238E-06 0.00000E+00
 -1       578 6.30591E-05-5.12503E-06 0.00000E+00
 -1       579 6.31490E-05-4.42912E-06 3.30872E-24
 -1       580 6.32389E-05-3.71447E-06 0.00000E+00
 -1       581 6.33288E-05-2.97088E-06-3.30872E-24
 -1       582 6.34186E-05-2.18816E-06-6.61744E-24
 -1       583 6.35084E-05-1.35614E-06 6.61744E-24
 -1       584 6.35982E-05-4.64752E-07 0.00000E+00
 -1       585 6.36878E-05 4.96055E-07 0.00000E+00
 -1       586 6.11588E-05-1.12107E-05-1.65436E-24
 -1       587 5.99247E-05-1.11835E-05 0.00000E+00
 -1       588 5.86726E-05-1.11568E-05-2.06795E-25
 -1       589 5.74338E-05-1.11304E-05 0.00000E+00
 -1       590 5.62393E-05-1.11047E-05 0.00000E+00
 -1       591 6.19656E-05-1.02966E-05-1.03398E-25
 -1       592 6.16070E-05-9.41835E-06 0.00000E+00
 -1       593 6.12678E-05-8.59275E-06 0.00000E+00
 -1       594 6.09441E-05-7.80926E-06 0.00000E+00
 -1       595 6.06321E-05-7.05727E-06 8.27181E-25
 -1       596 6.03279E-05-6.32620E-06 0.00000E+00
 -1       597 6.00276E-05-5.60552E-06 0.00000E+00
 -1       598 5.97272E-05-4.88468E-06 0.00000E+00
 -1       599 5.94228E-05-4.15312E-06 0.00000E+00
 -1       600 5.91104E-05-3.40030E-06-2.06795E-25
 -1       601 5.87861E-05-2.61568E-06-4.13590E-25
 -1       602 5.84459E-05-1.78870E-06 2.06795E-25
 -1       603 5.80860E-05-9.08813E-07 4.13590E-25
 -1       604 5.77026E-05 3.46001E-08 0.00000E+00
 -1       605 5.72917E-05 1.05205E-06 0.00000E+00
 -1       606 6.37955E-05 2.78248E-06 0.00000E+00
 -1       607 6.38102E-05 4.17972E-06 0.00000E+00
 -1       608 6.38239E-05 5.71851E-06 6.61744E-24
 -1       609 6.38371E-05 7.38886E-06 0.00000E+00
 -1       610 6.38499E-05 9.18081E-06 0.00000E+00
 -1       611 6.38625E-05 1.10842E-05 0.00000E+00
 -1       612 6.38748E-05 1.30889E-05 0.00000E+00
 -1       613 6.38870E-05 1.51847E-05 0.00000E+00
 -1       614 6.38990E-05 1.73616E-05-3.30872E-24
 -1       615 6.39108E-05 1.96092E-05 1.65436E-24
 -1       616 6.39225E-05 2.19176E-05 0.00000E+00
 -1       617 6.39341E-05 2.42765E-05 0.00000E+00
 -1       618 6.39456E-05 2.66757E-05 0.00000E+00
 -1       619 6.39569E-05 2.91051E-05 4.13590E-25
 -1       620 6.39681E-05 3.15546E-05 0.00000E+00
 -1       621 6.26394E-05 1.63878E-06 0.00000E+00
 -1       622 6.14938E-05 1.74261E-06 0.00000E+00
 -1       623 6.03413E-05 1.84642E-06 3.30872E-24
 -1       624 5.91830E-05 1.95008E-06-1.65436E-24
 -1       625 5.80199E-05 2.05357E-06 0.00000E+00
 -1       626 6.34148E-05 2.81166E-06 0.00000E+00
 -1       627 6.30053E-05 4.21469E-06 0.00000E+00
 -1       628 6.25523E-05 5.73367E-06 0.00000E+00
 -1       629 6.20601E-05 7.35677E-06 0.00000E+00
 -1       630 6.15332E-05 9.07217E-06 0.00000E+00
 -1       631 6.09761E-05 1.08679E-05 0.00000E+00
 -1       632 6.03931E-05 1.27321E-05 0.00000E+00
 -1       633 5.97889E-05 1.46528E-05 1.65436E-24
 -1       634 5.91678E-05 1.66181E-05 0.00000E+00
 -1       635 5.85344E-05 1.86161E-05 0.00000E+00
 -1       636 5.78932E-05 2.06349E-05 0.00000E+00
 -1       637 5.72486E-05 2.26624E-05 1.65436E-24
 -1       638 5.66050E-05 2.46870E-05 0.00000E+00
 -1       639 5.59669E-05 2.66965E-05 0.00000E+00
 -1       640 5.53385E-05 2.86791E-05 1.65436E-24
 -1       656 6.18221E-05 3.34616E-05 0.00000E+00
 -1       657 6.01874E-05 3.28877E-05 0.00000E+00
 -1       658 5.88778E-05 3.23159E-05 0.00000E+00
 -1       659 5.76885E-05 3.17447E-05 6.61744E-24
 -1       660 5.63817E-05 3.11716E-05 0.00000E+00
 -1       661 6.31819E-05 3.64423E-05 0.00000E+00
 -1       662 6.24140E-05 3.88059E-05 0.00000E+00
 -1       663 6.16699E-05 4.11061E-05-3.30872E-24
 -1       664 6.09495E-05 4.33455E-05 0.00000E+00
 -1       665 6.02512E-05 4.55262E-05 3.30872E-24
 -1       666 5.95745E-05 4.76503E-05-1.65436E-24
 -1       667 5.89186E-05 4.97194E-05-3.30872E-24
 -1       668 5.82827E-05 5.17352E-05-1.65436E-24
 -1       669 5.76664E-05 5.36991E-05-3.30872E-24
 -1       670 5.70693E-05 5.56123E-05-1.65436E-24
 -1       671 5.64909E-05 5.74757E-05 0.00000E+00
 -1       672 5.59307E-05 5.92901E-05 1.65436E-24
 -1       673 5.53886E-05 6.10561E-05 0.00000E+00
 -1       674 5.48635E-05 6.27739E-05 8.27181E-25
 -1       675 5.43567E-05 6.44441E-05 0.00000E+00
 -1       676 6.17146E-05 6.66293E-05 0.00000E+00
 -1       677 6.01378E-05 6.65155E-05 1.65436E-24
 -1       678 5.85630E-05 6.64018E-05 0.00000E+00
 -1       679 5.69913E-05 6.62884E-05 1.65436E-24
 -1       680 5.54237E-05 6.61751E-05 3.30872E-24
 -1       771 2.38580E-05 4.16423E-07-2.64698E-23
 -1       772 2.24793E-05-1.59787E-07 0.00000E+00
 -1       773 2.10577E-05-6.28048E-07 0.00000E+00
 -1       774 1.95946E-05-9.94868E-07 0.00000E+00
 -1       775 1.80947E-05-1.26580E-06 0.00000E+00
 -1       776 1.65606E-05-1.44750E-06 0.00000E+00
 -1       777 1.49954E-05-1.54686E-06-5.29396E-23
 -1       778 1.34019E-05-1.57116E-06 2.64698E-23
 -1       779 1.17829E-05-1.52787E-06 0.00000E+00
 -1       780 1.01415E-05-1.42474E-06-2.64698E-23
 -1       781 8.48061E-06-1.26967E-06 5.29396E-23
 -1       782 6.80334E-06-1.07075E-06 2.64698E-23
 -1       783 5.11281E-06-8.36176E-07 5.29396E-23
 -1       784 3.41260E-06-5.74162E-07 0.00000E+00
 -1       785 1.70570E-06-2.93189E-07-5.29396E-23
 -1       786 5.52221E-05-1.01902E-05-1.65436E-24
 -1       787 5.53303E-05-9.35241E-06 8.27181E-25
 -1       788 5.54382E-05-8.55332E-06 0.00000E+00
 -1       789 5.55471E-05-7.77890E-06 0.00000E+00
 -1       790 5.56560E-05-7.02156E-06 0.00000E+00
 -1       791 5.57652E-05-6.27375E-06 1.65436E-24
 -1       792 5.58743E-05-5.53049E-06 3.30872E-24
 -1       793 5.59835E-05-4.78680E-06 1.65436E-24
 -1       794 5.60928E-05-4.03755E-06 3.30872E-24
 -1       795 5.62020E-05-3.27764E-06 0.00000E+00
 -1       796 5.63111E-05-2.49912E-06 0.00000E+00
 -1       797 5.64202E-05-1.69398E-06 0.00000E+00
 -1       798 5.65293E-05-8.47210E-07 0.00000E+00
 -1       799 5.66378E-05 5.63942E-08 0.00000E+00
 -1       800 5.67465E-05 1.04696E-06 0.00000E+00
 -1       801 5.09680E-05-9.22996E-06 0.00000E+00
 -1       802 4.06990E-05-7.34740E-06 0.00000E+00
 -1       803 2.75064E-05-5.50207E-06 0.00000E+00
 -1       804 1.43166E-05-3.66652E-06 1.32349E-23
 -1       805 4.07443E-06-1.79074E-06 6.61744E-24
 -1       806 5.46786E-05-1.02477E-05 0.00000E+00
 -1       807 5.42466E-05-9.45051E-06 0.00000E+00
 -1       808 5.38236E-05-8.67977E-06 3.30872E-24
 -1       809 5.34067E-05-7.92668E-06 0.00000E+00
 -1       810 5.29930E-05-7.18249E-06-3.30872E-24
 -1       811 5.25793E-05-6.43848E-06 0.00000E+00
 -1       812 5.21623E-05-5.68596E-06 3.30872E-24
 -1       813 5.17389E-05-4.91626E-06 0.00000E+00
 -1       814 5.13057E-05-4.12067E-06-3.30872E-24
 -1       815 5.08596E-05-3.29053E-06 0.00000E+00
 -1       816 5.03972E-05-2.41718E-06 0.00000E+00
 -1       817 4.99154E-05-1.49194E-06 1.65436E-24
 -1       818 4.94108E-05-5.06150E-07 0.00000E+00
 -1       819 4.88804E-05 5.48818E-07-8.27181E-25
 -1       820 4.83210E-05 1.68160E-06-3.30872E-24
 -1       821 5.67300E-05 2.92219E-06 8.27181E-25
 -1       822 5.65996E-05 2.89393E-06 1.65436E-24
 -1       823 5.64697E-05 2.36529E-06 3.30872E-24
 -1       824 5.63381E-05 1.63435E-06 0.00000E+00
 -1       825 5.62066E-05 1.05243E-06-3.30872E-24
 -1       826 5.60750E-05 9.70039E-07-1.65436E-24
 -1       827 5.59431E-05 1.60516E-06 0.00000E+00
 -1       828 5.58101E-05 3.17158E-06 0.00000E+00
 -1       829 5.56755E-05 5.63616E-06 0.00000E+00
 -1       830 5.55385E-05 8.96048E-06-1.65436E-24
 -1       831 5.53995E-05 1.28783E-05 0.00000E+00
 -1       832 5.52595E-05 1.71196E-05 0.00000E+00
 -1       833 5.51197E-05 2.13289E-05 0.00000E+00
 -1       834 5.49829E-05 2.51506E-05 0.00000E+00
 -1       835 5.48477E-05 2.83316E-05 0.00000E+00
 -1       836 5.55278E-05 2.27932E-06-3.30872E-24
 -1       837 5.40228E-05 2.40616E-06 0.00000E+00
 -1       838 5.24141E-05 2.53266E-06 0.00000E+00
 -1       839 5.07783E-05 2.65835E-06-8.27181E-25
 -1       840 4.91919E-05 2.78390E-06 0.00000E+00
 -1       856 5.46742E-05 3.25484E-05 0.00000E+00
 -1       857 5.46211E-05 3.46253E-05 0.00000E+00
 -1       858 5.45679E-05 3.68297E-05 0.00000E+00
 -1       859 5.45137E-05 3.91377E-05 0.00000E+00
 -1       860 5.44592E-05 4.15251E-05 0.00000E+00
 -1       861 5.44045E-05 4.39676E-05 0.00000E+00
 -1       862 5.43497E-05 4.64409E-05 0.00000E+00
 -1       863 5.42948E-05 4.89204E-05 8.27181E-25
 -1       864 5.42400E-05 5.13817E-05 0.00000E+00
 -1       865 5.41852E-05 5.38004E-05 8.27181E-25
 -1       866 5.41306E-05 5.61521E-05 0.00000E+00
 -1       867 5.40762E-05 5.84124E-05-8.27181E-25
 -1       868 5.40221E-05 6.05576E-05-1.65436E-24
 -1       869 5.39682E-05 6.25636E-05-8.27181E-25
 -1       870 5.39146E-05 6.44069E-05 0.00000E+00
 -1       871 5.30666E-05 3.06210E-05-4.13590E-25
 -1       872 5.15473E-05 3.06167E-05 0.00000E+00
 -1       873 5.01072E-05 3.06120E-05 0.00000E+00
 -1       874 4.86879E-05 3.06066E-05-3.10193E-25
 -1       875 4.72312E-05 3.06005E-05-4.13590E-25
 -1       876 5.41268E-05 3.25594E-05 0.00000E+00
 -1       877 5.35063E-05 3.45699E-05-1.65436E-24
 -1       878 5.28617E-05 3.66451E-05 0.00000E+00
 -1       879 5.21961E-05 3.87768E-05-1.65436E-24
 -1       880 5.15124E-05 4.09564E-05 3.30872E-24
 -1       881 5.08139E-05 4.31756E-05 1.65436E-24
 -1       882 5.01036E-05 4.54261E-05 0.00000E+00
 -1       883 4.93847E-05 4.76996E-05 0.00000E+00
 -1       884 4.86603E-05 4.99875E-05 0.00000E+00
 -1       885 4.79335E-05 5.22817E-05 0.00000E+00
 -1       886 4.72074E-05 5.45738E-05 0.00000E+00
 -1       887 4.64852E-05 5.68555E-05 0.00000E+00
 -1       888 4.57698E-05 5.91183E-05-3.30872E-24
 -1       889 4.50640E-05 6.13538E-05-1.65436E-24
 -1       890 4.43711E-05 6.35537E-05 1.65436E-24
 -1       891 5.23315E-05 6.60048E-05 1.65436E-24
 -1       892 5.07763E-05 6.59452E-05 0.00000E+00
 -1       893 4.91649E-05 6.58854E-05-8.27181E-25
 -1       894 4.74668E-05 6.58257E-05 4.13590E-25
 -1       895 4.56513E-05 6.57660E-05 4.13590E-25
 -1       956 4.76056E-05 4.29607E-06 3.30872E-24
 -1       957 4.74780E-05 5.77621E-06-8.27181E-25
 -1       958 4.73500E-05 7.33297E-06-1.65436E-24
 -1       959 4.72215E-05 8.95771E-06 1.65436E-24
 -1       960 4.70930E-05 1.06418E-05-3.30872E-24
 -1       961 4.69642E-05 1.23765E-05 0.00000E+00
 -1       962 4.68355E-05 1.41532E-05 0.00000E+00
 -1       963 4.67066E-05 1.59630E-05-1.65436E-24
 -1       964 4.65777E-05 1.77974E-05 3.30872E-24
 -1       965 4.64488E-05 1.96475E-05-1.65436E-24
 -1       966 4.63199E-05 2.15046E-05 0.00000E+00
 -1       967 4.61910E-05 2.33600E-05 0.00000E+00
 -1       968 4.60622E-05 2.52050E-05 0.00000E+00
 -1       969 4.59336E-05 2.70308E-05-1.65436E-24
 -1       970 4.58055E-05 2.88289E-05 3.30872E-24
 -1       971 4.55569E-05 3.23884E-05 0.00000E+00
 -1       972 4.54328E-05 3.42998E-05 0.00000E+00
 -1       973 4.53083E-05 3.63120E-05 3.30872E-24
 -1       974 4.51835E-05 3.84122E-05 0.00000E+00
 -1       975 4.50584E-05 4.05873E-05-3.30872E-24
 -1       976 4.49332E-05 4.28242E-05-1.65436E-24
 -1       977 4.48079E-05 4.51098E-05-3.30872E-24
 -1       978 4.46825E-05 4.74309E-05 0.00000E+00
 -1       979 4.45570E-05 4.97745E-05 0.00000E+00
 -1       980 4.44316E-05 5.21275E-05 0.00000E+00
 -1       981 4.43062E-05 5.44767E-05-3.30872E-24
 -1       982 4.41809E-05 5.68091E-05-1.65436E-24
 -1       983 4.40558E-05 5.91114E-05-3.30872E-24
 -1       984 4.39314E-05 6.13706E-05 0.00000E+00
 -1       985 4.38076E-05 6.35736E-05 0.00000E+00
 -3
    1PSTEP                        28          14           1          
  100CL  114 7.22168E-01         409                     0   14           1
 -4  STRESS      6    1
 -5  SXX         1    4    1    1
 -5  SYY         1    4    2    2
 -5  SZZ         1    4    3    3
 -5  SXY         1    4    1    2
 -5  SYZ         1    4    2    3
 -5  SZX         1    4    3    1
 -1         1-1.24685E+06-7.96069E+05-2.19339E+05-1.50864E+06 2.15005E-09-2.40172E-07
 -1         2 6.72400E+02-1.73713E+06 1.00372E+04-9.20247E+04-1.66187E-09 2.58849E-07
 -1         3-7.04182E+00 4.54469E+05-6.19335E+01 1.37763E+00-5.63640E-11-6.65732E-09
 -1         5-6.39829E+01 3.67986E+05 9.70912E+00 1.12597E+00 4.22490E-10 4.02906E-09
 -1         8-3.85294E+05-4.41665E+05 2.25038E+05-1.24321E+06-2.03727E-10 9.57225E-08
 -1         9 1.29393E+07 1.10067E+07 3.48811E+06 1.06289E+07-1.25729E-08 1.41654E-07
 -1        10 4.11173E+02 4.73604E+05 1.94707E+03 1.00966E+01-2.43290E-11 1.45891E-09
 -1        12-6.01363E+01 3.68007E+05 3.18551E+02 7.79056E+00 7.14707E-10 1.33150E-09
 -1        15 4.10537E+03 2.25631E+03 1.32709E+04 1.66763E+01-8.33325E-10-2.91439E-07
 -1        16 1.80084E+07 1.75622E+07 4.98808E+06 1.74317E+07 2.65427E-08-2.72489E-07
 -1        17 2.05172E+07 4.49397E+05 3.04219E+06-1.62098E+06 1.79472E-08-4.19022E-08
 -1        18 5.75719E+05 1.33502E+05 1.13912E+05-7.38633E+04 2.21962E-09 1.86446E-10
 -1        19 1.12962E+05 1.39339E+05-2.98467E+02 2.25609E+04-1.89393E-09 2.88346E-09
 -1        20-3.48552E+04-5.33864E+05-1.16956E+05 4.54146E+04 7.88077E-09 1.01318E-09
 -1        21-5.16335E+01-3.22449E+05-1.05494E+03-3.48944E+02-1.48837E-08 3.55789E-09
 -1        24 3.24540E+07-3.60653E+05 4.47377E+06-3.04201E+06 1.09141E-07 2.83714E-08
 -1        25 3.04002E+05 1.16116E+06 3.04300E+05-1.28107E+05 3.19415E-10 6.51053E-09
 -1        26-1.17021E+04 9.99371E+04-1.57777E+04-2.10447E+04 2.66737E-09 9.58676E-10
 -1        27-9.06615E+04-2.94617E+05-1.11204E+05 6.66761E+04 1.08800E-08-1.07320E-10
 -1        28 2.53307E+04-8.75018E+04 1.81629E+04 3.08623E+04 9.73822E-09-3.47813E-09
 -1        32-5.63949E+05 2.71006E+06 1.16664E+06-7.48961E+05-5.55883E-09 5.47681E-08
 -1        33-1.64420E+05 8.91533E+04 3.12934E+04-5.95582E+04 3.27255E-09 8.04600E-10
 -1        34-2.20478E+05-2.12423E+04 4.29943E+02 6.53197E+04 6.53610E-09-3.52338E-09
 -1        35-2.56292E+04-3.47295E+04-1.36582E+03 5.62039E+04 8.68730E-09-4.90278E-09
 -1        51-4.67183E+03-8.01832E+05 1.22785E+04-1.83171E+06 8.73115E-11 2.21393E-07
 -1        52 1.46431E+04-8.21788E+05 1.95254E+04-2.13707E+06 2.76486E-10-4.90400E-09
 -1        53 2.11649E+04-8.54175E+05 2.82496E+04-1.82518E+06 2.44472E-09-1.19879E-07
 -1        54 5.54448E+04-8.62973E+05 6.11252E+04-2.14340E+06 9.31323E-10-3.80758E-07
 -1        55 9.18106E+04-8.90583E+05 1.17167E+05-1.82358E+06 9.31323E-10-2.82889E-07
 -1        56-2.46913E+06-2.83993E+05-1.53062E+05-9.32568E+05 3.68709E-08 1.59635E-08
 -1        57-2.44570E+06-4.99518E+05-1.02003E+05-1.01780E+06-4.09896E-08 3.37061E-07
 -1        58-2.50588E+06-3.24054E+05-3.60440E+04-9.14192E+05 3.80460E-08 3.35369E-07
 -1        59-2.40341E+06-4.53256E+05-2.12995E+04-1.04281E+06-6.45961E-08-2.67757E-07
 -1        60-2.51278E+06-3.27540E+05-8.39696E+03-9.09319E+05 7.53266E-09 2.49830E-07
 -1        61-2.39798E+06-4.45961E+05-4.85547E+03-1.04505E+06 2.56500E-09-8.30364E-08
 -1        62-2.51137E+06-3.31066E+05-2.77712E+03-9.12097E+05 9.44692E-09-6.72917E-08
 -1        63-2.40447E+06-4.35365E+05-2.26122E+03-1.03207E+06-3.77731E-08 3.58136E-07
 -1        64-2.50474E+06-3.39113E+05-4.37864E+03-9.21218E+05-5.63068E-09 9.59490E-08
 -1        65-2.42061E+06-4.18070E+05-7.13820E+03-1.00713E+06-1.05756E-07 1.02398E-07
 -1        66-2.49291E+06-3.49916E+05-1.57547E+04-9.35336E+05 5.76565E-08 1.80444E-07
 -1        67-2.45220E+06-4.05825E+05-3.57949E+04-9.72967E+05-1.19298E-07 1.95978E-07
 -1        68-2.47138E+06-3.52911E+05-6.40750E+04-9.53857E+05 3.86190E-08-2.77840E-07
 -1        69-2.54183E+06-4.75646E+05-1.77509E+05-9.20921E+05-6.25876E-08-2.96295E-07
 -1        70-2.40348E+06-2.83084E+05-2.67274E+05-9.86010E+05-2.28101E-08-2.36236E-07
 -1        86-3.15917E+03-1.91722E+06-2.88581E+04 4.59553E+04 1.79471E-08-2.56147E-07
 -1        87-7.73533E+03-1.80478E+06-1.94764E+04-1.52662E+05 2.89342E-08-4.40876E-07
 -1        88 1.10040E+04-1.85528E+06-5.09076E+04 1.06620E+05 3.37495E-08 7.09729E-08
 -1        89-8.33287E+04-1.89121E+06-1.30558E+05-2.04722E+05 4.89272E-08-7.98094E-08
 -1        90 7.63786E+04-1.83591E+06-1.95039E+05 9.81556E+04 2.59752E-08-1.68614E-07
 -1       121 2.96518E+00 4.54520E+05-7.26846E+01-6.88817E-01-1.08695E-11-1.24980E-09
 -1       122-4.04403E+01 4.54447E+05-1.40415E+02 2.75233E+00 2.01368E-11 6.93641E-09
 -1       123 2.72074E+01 4.54542E+05-2.31920E+02-2.06368E+00-4.10125E-11-3.68900E-10
 -1       124-4.53443E+02 4.54200E+05-6.29542E+02 4.33260E+00-1.87832E-10 1.80222E-10
 -1       125 2.93788E+02 4.54768E+05-8.56242E+02-2.27242E+00-4.57021E-11-4.51848E-10
 -1       191-6.74667E+01 3.68005E+05 8.72244E+00-5.85574E-01 5.41084E-10-2.31739E-09
 -1       192-6.49127E+01 3.67987E+05 2.06968E+01 3.75177E+00 7.31927E-10-8.33097E-10
 -1       193-6.99185E+01 3.68005E+05 3.56867E+01-3.30483E+00 9.31484E-10-6.35737E-09
 -1       194-6.78955E+01 3.67990E+05 7.86260E+01 8.57119E+00 5.98111E-10-2.62735E-08
 -1       195-7.46250E+01 3.68002E+05 1.50982E+02-5.55907E+00 1.35270E-09-9.80071E-09
 -1       251 5.51872E+06-2.88022E+05 6.73417E+05 7.37740E+04 5.81622E-10-7.46513E-08
 -1       252 5.83592E+06 3.32995E+05 4.78781E+05-1.26873E+05-1.94996E-09-2.28589E-07
 -1       253 5.64390E+06-4.40577E+04 1.75367E+05-5.09621E+02-3.78753E-09-3.69204E-07
 -1       254 5.69176E+06 5.11163E+04 1.09700E+05-3.85962E+04-1.35207E-08-3.41710E-07
 -1       255 5.66265E+06-6.74720E+03 4.52499E+04-1.44803E+04 5.63485E-09-3.58032E-08
 -1       256 5.67028E+06 8.02448E+03 2.68905E+04-2.21006E+04-1.22941E-09 9.31450E-08
 -1       257 5.66567E+06-1.08914E+03 1.33128E+04-1.70060E+04 1.25973E-09-2.83738E-07
 -1       258 5.66715E+06 2.06286E+03 1.05667E+04-1.99372E+04-1.13238E-08-6.84981E-08
 -1       259 5.66585E+06-8.01641E+02 1.07995E+04-1.66440E+04 3.30230E-09-2.12985E-07
 -1       260 5.66897E+06 5.53317E+03 1.95960E+04-2.47704E+04 7.09861E-10-1.48332E-07
 -1       261 5.66382E+06-4.55174E+03 3.21906E+04-1.21726E+04 7.27566E-09 2.84155E-07
 -1       262 5.68464E+06 3.47968E+04 7.71099E+04-5.29487E+04-8.61434E-09 1.34216E-07
 -1       263 5.65005E+06-3.00265E+04 1.23305E+05 1.15346E+04 1.14414E-09-9.40781E-09
 -1       264 5.81662E+06 2.33689E+05 3.42204E+05-2.01345E+05-1.40462E-08-2.78582E-07
 -1       265 5.53413E+06-2.04157E+05 4.66546E+05 1.36217E+05 2.65391E-09 4.21860E-07
 -1       266-7.43119E+04-3.47259E+04 1.74471E+05-3.57017E+02 2.13186E-09 2.28348E-08
 -1       267 8.61576E+04 4.05102E+04 1.23256E+05 4.11684E+02 1.69530E-09-4.64819E-07
 -1       268-1.15532E+04-5.73538E+03 4.58172E+04-5.24692E+01 2.41562E-09 1.70609E-07
 -1       269 1.36414E+04 6.86623E+03 2.97773E+04 6.11041E+01 8.14907E-10 3.62448E-07
 -1       270-2.04759E+03-1.12808E+03 1.43740E+04-8.29288E+00-2.72848E-10-2.94279E-07
 -1       271-7.87711E+06-1.00072E+06-6.25926E+05-3.09457E+06 1.51340E-08 1.07102E-07
 -1       272-8.01311E+06-1.52747E+06-3.99997E+05-3.17044E+06 1.41044E-08-6.05069E-08
 -1       273-8.01676E+06-1.13180E+06-1.48293E+05-3.04171E+06-2.68883E-08 3.25424E-07
 -1       274-7.84934E+06-1.37063E+06-8.17244E+04-3.26026E+06 2.17751E-08 2.27228E-07
 -1       275-8.04812E+06-1.13064E+06-3.43258E+04-3.02008E+06 7.95626E-09-1.15224E-07
 -1       276-7.81822E+06-1.36845E+06-1.81174E+04-3.29354E+06-9.24792E-08-1.65182E-07
 -1       277-8.05484E+06-1.12707E+06-9.16378E+03-3.01440E+06 4.98715E-08 2.94010E-07
 -1       278-7.81860E+06-1.36298E+06-7.31782E+03-3.28914E+06-5.68170E-08 1.84646E-07
 -1       279-8.04642E+06-1.13674E+06-9.92814E+03-3.02363E+06 2.15005E-08-1.12575E-07
 -1       280-7.84023E+06-1.33858E+06-1.75598E+04-3.25053E+06 5.53118E-08-2.26977E-07
 -1       281-8.02397E+06-1.15758E+06-3.60236E+04-3.04637E+06 5.90007E-08 1.62043E-07
 -1       282-7.89532E+06-1.31380E+06-8.07247E+04-3.18415E+06 7.24394E-08 2.17811E-07
 -1       283-7.98064E+06-1.17071E+06-1.49422E+05-3.08109E+06-1.18052E-08-1.54774E-07
 -1       284-8.08292E+06-1.44936E+06-3.97903E+05-3.07740E+06 2.65863E-08 2.20098E-08
 -1       285-7.83465E+06-1.04520E+06-6.23825E+05-3.14116E+06 2.42362E-08 1.76486E-07
 -1       301-4.12898E+04 3.97853E+05 1.23195E+04 1.24531E+06-5.03860E-09 8.05594E-08
 -1       302-4.52709E+04 4.08831E+05 3.11263E+04 1.82482E+06 2.02272E-09-1.88084E-08
 -1       303-3.22759E+04 3.84385E+05 5.71241E+04 1.24301E+06-2.21189E-09 1.13809E-07
 -1       304-1.95330E+04 4.44376E+05 1.27545E+05 1.82388E+06 1.09867E-09 1.87829E-08
 -1       305-1.75077E+04 3.80923E+05 2.24489E+05 1.24703E+06-2.37196E-09-2.47455E-07
 -1       306-2.98879E+07-2.74826E+07-1.49968E+07-1.83262E+07 1.70432E-07-1.99070E-07
 -1       307 1.12851E+07 5.37515E+07 1.09741E+07 2.40097E+07 1.06150E-06-2.93017E-07
 -1       308-2.76326E+05-1.87255E+07-3.53151E+06-2.61524E+06 5.14847E-08-7.24103E-08
 -1       309-1.58363E+07 3.02420E+07 3.91519E+06-1.83847E+07-2.11301E-07 3.91745E-07
 -1       310 3.03911E+06-1.21044E+07-6.50640E+05 1.64843E+05-4.28699E-08 1.28523E-07
 -1       311-2.07568E+06 4.78573E+07 8.50643E+06 1.20236E+07-8.04386E-07 4.94707E-07
 -1       312-2.05430E+07-2.84341E+07-1.14433E+07-1.69641E+07-4.99422E-07-2.25147E-07
 -1       313 6.75942E+07 2.62614E+07 1.57729E+07 3.79792E+07-4.16127E-07-1.86410E-07
 -1       314-4.51469E+07-9.28860E+06-1.29865E+07-6.33829E+06-5.37839E-07-1.74769E-08
 -1       315 6.02690E+07 2.11668E+06 1.09987E+07-1.40299E+07 4.09607E-07 2.35857E-07
 -1       316-1.44370E+07-4.72487E+06-3.33533E+06 8.42105E+06 3.55940E-07 7.61764E-07
 -1       317-5.40260E+06 1.98267E+07 3.91934E+06-2.64810E+07-1.29853E-06 2.01457E-07
 -1       318-5.86378E+06-3.12981E+06-8.50549E+05 7.32619E+06 8.07049E-07 1.48328E-07
 -1       319 3.98884E+07 8.13939E+06 8.43568E+06-2.24278E+07 1.72993E-07 2.79600E-07
 -1       320-4.24211E+07-9.11765E+06-1.32986E+07 9.28495E+05-1.76253E-07-2.54367E-08
 -1       336-5.16167E+02 4.91953E+05 5.21677E+03-7.83086E+00-6.69615E-11 1.68993E-09
 -1       337 2.07282E+03 4.93829E+05 8.70243E+03 1.66094E+01 3.45608E-11-7.61794E-10
 -1       338-1.17710E+03 4.91356E+05 1.41144E+04-8.77038E+00 1.00044E-11 4.80287E-09
 -1       339 1.60293E+04 5.02279E+05 3.38068E+04 1.86938E+01-4.27008E-10 2.14824E-09
 -1       340-1.13828E+04 4.83497E+05 5.28759E+04-9.73876E+00-3.27418E-10-1.47899E-09
 -1       406-3.86126E+01 3.67988E+05 6.25945E+02-2.66943E+00 1.86111E-09-2.98314E-10
 -1       407 1.59478E+02 3.68117E+05 1.33667E+03-2.24032E+01 3.05363E-10-6.03904E-10
 -1       408 6.25975E+02 3.67891E+05 2.66582E+03 2.54342E+01 2.18688E-09 2.00089E-10
 -1       409 2.83106E+03 3.68969E+05 6.00755E+03-2.67263E+02-2.68301E-11-1.28784E-09
 -1       410 8.24166E+03 3.67125E+05 1.22616E+04 2.56904E+02 2.35741E-09 4.52928E-10
 -1       521-2.94667E+07-2.74889E+07-1.55536E+07-1.65234E+07 4.14439E-08-6.61821E-07
 -1       522 8.40380E+06 5.43328E+07 1.02590E+07 2.29193E+07 8.32631E-07-4.16010E-07
 -1       523-6.25362E+05-1.80576E+07-3.32190E+06-2.63311E+06 2.53756E-07 3.05707E-07
 -1       524-1.80691E+07 2.96838E+07 3.72066E+06-2.12957E+07-4.47733E-07 1.08140E-06
 -1       525 2.69675E+06-1.23638E+07-5.09064E+05-3.00438E+05-2.59242E-07 8.21427E-07
 -1       526-4.65053E+06 4.88765E+07 8.11784E+06 1.06207E+07-3.08006E-07 2.60770E-07
 -1       527-2.08049E+07-2.79299E+07-1.18472E+07-1.54353E+07-3.50585E-07 1.76253E-07
 -1       528 6.74766E+07 2.53431E+07 1.48882E+07 3.84841E+07 1.44588E-07-1.29745E-07
 -1       529-4.33824E+07-1.07943E+07-1.35023E+07-5.52980E+06-1.00001E-07-7.90751E-08
 -1       530 5.86266E+07 1.74662E+06 1.03515E+07-1.62008E+07 5.54312E-07-9.92441E-08
 -1       531-1.41494E+07-4.76487E+06-3.14168E+06 7.96350E+06 7.24918E-07 3.18745E-07
 -1       532-9.62620E+06 2.13220E+07 3.73108E+06-2.78630E+07-9.28136E-07 3.79572E-07
 -1       533-6.53291E+06-3.02355E+06-7.10943E+05 7.20955E+06-7.99890E-07 6.96833E-07
 -1       534 3.78253E+07 8.53415E+06 7.99794E+06-2.45999E+07 7.13422E-07-5.27129E-07
 -1       535-4.07353E+07-1.05028E+07-1.37850E+07 9.41711E+05 4.65661E-08-4.11063E-07
 -1       536 2.01780E+06-8.15647E+04 1.88930E+05 9.03490E+02-1.56591E-08 3.92902E-09
 -1       537 2.09979E+06 9.44416E+04 1.33655E+05-5.48733E+03 3.30092E-10-4.08909E-09
 -1       538 2.04951E+06-1.27816E+04 4.89615E+04-1.78086E+03-8.27209E-10 1.17507E-09
 -1       539 2.06296E+06 1.47990E+04 3.08051E+04-2.50114E+03-4.08061E-10 2.14413E-09
 -1       540 2.05473E+06-1.99933E+03 1.26451E+04-2.08264E+03 1.26251E-09-2.02908E-09
 -1       541 2.05691E+06 2.35677E+03 7.61696E+03-2.16581E+03-5.41017E-09 2.73519E-09
 -1       542 2.05559E+06-3.49436E+02 3.85569E+03-2.11623E+03-2.39111E-06-3.95210E-09
 -1       543 2.05604E+06 6.78411E+02 3.29345E+03-2.13560E+03-4.76560E-06-5.85378E-09
 -1       544 2.05561E+06-3.22121E+02 3.61158E+03-2.11286E+03-2.39035E-06-1.02912E-08
 -1       545 2.05678E+06 2.12194E+03 6.91046E+03-2.20224E+03-2.75421E-09-7.07587E-10
 -1       546 2.05484E+06-1.79196E+03 1.13748E+04-2.04958E+03 2.48780E-09 1.00044E-09
 -1       547 2.06220E+06 1.32587E+04 2.76331E+04-2.82277E+03-2.97579E-10 8.14907E-10
 -1       548 2.05016E+06-1.14499E+04 4.39015E+04-1.49229E+03 2.13702E-09 7.14863E-10
 -1       549 2.09553E+06 8.46832E+04 1.19884E+05-8.31535E+03 9.41910E-10 2.48838E-09
 -1       550 2.02143E+06-7.31516E+04 1.69290E+05 3.44278E+03-1.78272E-09-4.40195E-09
 -1       551-3.52680E+03-3.48806E+05-2.36415E+04-1.36919E+06-9.67702E-09 1.13505E-09
 -1       552 1.67950E+04-3.70099E+05 7.24339E+03-1.94958E+06-1.26893E-08 4.33647E-09
 -1       553 1.48557E+04-3.71401E+05 3.72732E+04-1.36589E+06-1.67929E-08 3.27236E-09
 -1       554 4.28556E+04-3.43942E+05 9.61230E+04-1.94929E+06-9.00764E-09-1.87720E-09
 -1       555 3.01085E+04-3.71745E+05 1.74714E+05-1.36957E+06-9.66247E-09-9.74978E-10
 -1       556-4.38897E+04-7.20525E+04-3.31452E+03-1.02914E+05 1.03682E-09 2.67028E-09
 -1       557-2.41012E+04-9.22248E+04-1.68805E+03-1.26842E+05 5.85715E-10-6.05144E-09
 -1       558-4.47374E+04-7.09695E+04-7.36897E+02-1.03043E+05 1.21508E-09 6.74390E-10
 -1       559-2.36589E+04-9.20628E+04-3.48134E+02-1.27481E+05-2.77578E-09-1.38117E-08
 -1       560-4.49449E+04-7.08272E+04-1.64592E+02-1.03147E+05 3.93811E-09 4.22688E-09
 -1       561-2.37700E+04-9.20045E+04-7.65600E+01-1.27607E+05-1.49248E-09 5.83805E-09
 -1       562-4.50080E+04-7.07919E+04-4.38872E+01-1.03186E+05-2.82284E-09 5.37511E-10
 -1       563-2.37725E+04-9.20040E+04-3.92527E+01-1.27611E+05-9.75433E-11 3.56886E-09
 -1       564-4.49522E+04-7.08240E+04-6.88041E+01-1.03149E+05-2.42653E-09-3.45972E-09
 -1       565-2.36323E+04-9.20652E+04-1.31995E+02-1.27511E+05-3.98359E-10 1.09139E-09
 -1       566-4.47812E+04-7.09291E+04-2.91309E+02-1.03040E+05 2.26646E-09-3.15958E-09
 -1       567-2.34016E+04-9.21895E+04-5.93300E+02-1.27285E+05 8.71296E-10-3.91356E-09
 -1       568-4.44436E+04-7.11451E+04-1.24496E+03-1.02859E+05-2.70666E-09-5.09317E-11
 -1       569-2.40780E+04-9.25972E+04-2.83738E+03-1.26436E+05-9.97716E-09-2.20098E-09
 -1       570-4.32350E+04-7.27488E+04-5.53075E+03-1.02533E+05-5.76256E-09 4.11455E-09
 -1       571 2.57209E+05 8.49990E+03 1.27457E+04-5.83048E+04 2.50111E-10 1.02000E-09
 -1       572 2.59107E+05 2.88487E+03 6.24516E+03-6.38732E+04-1.07002E-09-1.41017E-09
 -1       573 2.57955E+05 6.18380E+02 2.77407E+03-5.81249E+04 4.57476E-10-1.98588E-09
 -1       574 2.58181E+05 1.33097E+02 1.39009E+03-6.40639E+04-7.63066E-10-1.06729E-09
 -1       575 2.58028E+05-5.50566E+01 6.54654E+02-5.81019E+04 2.35013E-09 3.37423E-09
 -1       576 2.58045E+05-8.33575E+01 3.32617E+02-6.40893E+04 2.12526E-09 4.13411E-09
 -1       577 2.58032E+05-8.64687E+01 1.62277E+02-5.80989E+04-7.50561E-10 7.48969E-10
 -1       578 2.58026E+05-9.07503E+01 8.53720E+01-6.40924E+04-1.37550E-09 3.48336E-09
 -1       579 2.58042E+05-8.62889E+01 4.63211E+01-5.80988E+04-3.18960E-09 2.68756E-10
 -1       580 2.58042E+05-9.72969E+01 3.34234E+01-6.40893E+04 5.94810E-10 2.40607E-09
 -1       581 2.58068E+05-9.72829E+01 3.40830E+01-5.81019E+04-3.44335E-09 4.15412E-09
 -1       582 2.58083E+05-1.07985E+02 5.70118E+01-6.40579E+04-4.72937E-10 7.29415E-10
 -1       583 2.58107E+05-9.59582E+01 1.02878E+02-5.81301E+04 4.31100E-10 2.59547E-09
 -1       584 2.58171E+05-3.31473E+01 2.29299E+02-6.38202E+04-5.06407E-09-1.03637E-09
 -1       585 2.58132E+05 1.67849E+02 4.61043E+02-5.83399E+04 7.71252E-10 1.13687E-09
 -1       586-3.95360E+03 7.87576E+04-5.93465E+03-1.79546E+05 3.75405E-09-3.35967E-09
 -1       587-7.83601E+02 7.78571E+04-1.65314E+03-1.97466E+05 5.09317E-09-9.44510E-10
 -1       588 8.94339E+02 7.81933E+04 1.78365E+03-1.79385E+05 2.52840E-09 4.81464E-09
 -1       589 3.82426E+03 7.93839E+04 6.56816E+03-1.97392E+05 3.54703E-09 1.51158E-09
 -1       590 1.03603E+04 7.73355E+04 1.45371E+04-1.79604E+05 2.76668E-09 7.44058E-09
 -1       591-5.61374E+04-1.78662E+04-1.97575E+04-3.13033E+04 4.76984E-09 2.72212E-09
 -1       592-5.74057E+04-2.32973E+04-1.07011E+04-3.71087E+04 8.40487E-10-5.61295E-09
 -1       593-5.81456E+04-1.64012E+04-4.45537E+03-3.27247E+04-3.56295E-10-2.17460E-09
 -1       594-5.46471E+04-2.04342E+04-2.22179E+03-3.72604E+04 1.48941E-09-4.39712E-10
 -1       595-5.83014E+04-1.63924E+04-1.02122E+03-3.27912E+04 5.79803E-11 1.30373E-09
 -1       596-5.44626E+04-2.03024E+04-5.20496E+02-3.72434E+04 2.79175E-09 8.63579E-09
 -1       597-5.83217E+04-1.64042E+04-2.86729E+02-3.27943E+04-1.49055E-09-1.11459E-09
 -1       598-5.44452E+04-2.02974E+04-2.36540E+02-3.72383E+04 2.31893E-09 5.60613E-09
 -1       599-5.83196E+04-1.64047E+04-3.09914E+02-3.27935E+04-9.68612E-10-3.39378E-09
 -1       600-5.44635E+04-2.03048E+04-5.81792E+02-3.72417E+04-2.41664E-09-2.01294E-09
 -1       601-5.82930E+04-1.63924E+04-1.15133E+03-3.27882E+04 1.82627E-09 9.68635E-09
 -1       602-5.46705E+04-2.04540E+04-2.51035E+03-3.72575E+04 2.30716E-09 4.89456E-09
 -1       603-5.81143E+04-1.64053E+04-5.03591E+03-3.27129E+04-2.73940E-09 2.14459E-09
 -1       604-5.77944E+04-2.36819E+04-1.20953E+04-3.70737E+04-8.88122E-10 6.18502E-09
 -1       605-5.58334E+04-1.80679E+04-2.23314E+04-3.11134E+04-1.78625E-09-3.66163E-09
 -1       606 4.27865E+04-1.24240E+04-2.24252E+04 4.20785E+04-2.73121E-08-1.60071E-09
 -1       607 3.89373E+04-3.97149E+03-1.11645E+04 4.72238E+04-3.80678E-08-4.80304E-09
 -1       608 4.10890E+04-6.37553E+02-5.00367E+03 4.17360E+04-2.39743E-09-4.76962E-09
 -1       609 4.06339E+04-1.08190E+02-2.52576E+03 4.75913E+04 1.51558E-08 7.59792E-09
 -1       610 4.08503E+04 9.54228E+01-1.20952E+03 4.16979E+04-1.49339E-09-1.46156E-09
 -1       611 4.07440E+04 1.39257E+02-6.09440E+02 4.76312E+04-2.05728E-08-2.01226E-09
 -1       612 4.07645E+04 1.35250E+02-2.94154E+02 4.16942E+04-8.79663E-09 1.58707E-09
 -1       613 4.07081E+04 1.68632E+02-1.34868E+02 4.76356E+04-9.32778E-09-3.67936E-09
 -1       614 4.07095E+04 1.52300E+02-4.18409E+01 4.16930E+04-1.12232E-09 2.77259E-09
 -1       615 4.06670E+04 1.90045E+02 3.40674E+01 4.76360E+04 9.78389E-09-1.13641E-09
 -1       616 4.06683E+04 1.71650E+02 1.22416E+02 4.16934E+04 2.74940E-09 3.47382E-09
 -1       617 4.06549E+04 2.32229E+02 2.88518E+02 4.76350E+04 1.62759E-08-6.28688E-09
 -1       618 4.06236E+04 2.67185E+02 5.84181E+02 4.16935E+04 3.67982E-09-7.32143E-11
 -1       619 4.08451E+04 6.93932E+02 1.31414E+03 4.76336E+04-1.83718E-09 1.63436E-09
 -1       620 4.04195E+04 1.66103E+03 2.64158E+03 4.16900E+04 6.51039E-09 4.10228E-09
 -1       621 6.24621E+02 2.99119E+05 5.11071E+03-1.54296E+03-9.51104E-10 1.48822E-09
 -1       622 6.91930E+02 3.00390E+05 4.02916E+03-2.09079E+03-8.52395E-10 5.17821E-09
 -1       623 3.19239E+01 2.99531E+05 4.22964E+03-1.53543E+03-6.97128E-10 9.42299E-09
 -1       624 1.81570E+03 3.01424E+05 7.67984E+03-2.10228E+03-7.68182E-10-1.80864E-09
 -1       625 1.81434E+03 2.98084E+05 1.31849E+04-1.52881E+03-8.16726E-10 1.24908E-09
 -1       626 2.30216E+05 6.77050E+04 4.19551E+03 1.29935E+05-6.06087E-09-6.73754E-09
 -1       627 2.26547E+05 7.06152E+04 2.02328E+03 1.35409E+05-3.30328E-09-2.25100E-10
 -1       628 2.30388E+05 6.56813E+04 8.52090E+02 1.30500E+05 6.75027E-09 6.72799E-09
 -1       629 2.25855E+05 7.02011E+04 4.19339E+02 1.35720E+05 1.23109E-08 1.24073E-08
 -1       630 2.30375E+05 6.55976E+04 1.92809E+02 1.30495E+05 4.11092E-10-5.16206E-09
 -1       631 2.25749E+05 7.02057E+04 1.05318E+02 1.35708E+05-7.10952E-09 1.86958E-09
 -1       632 2.30344E+05 6.56162E+04 7.08818E+01 1.30472E+05-7.19319E-09 3.49053E-09
 -1       633 2.25715E+05 7.02205E+04 8.27800E+01 1.35687E+05-5.58930E-09-1.14092E-08
 -1       634 2.30317E+05 6.56242E+04 1.36136E+02 1.30457E+05 7.60065E-09-7.71320E-09
 -1       635 2.25709E+05 7.02275E+04 2.78287E+02 1.35678E+05 6.74822E-09 4.75734E-09
 -1       636 2.30294E+05 6.56273E+04 5.62404E+02 1.30448E+05-9.54356E-09-1.27739E-08
 -1       637 2.25818E+05 7.03191E+04 1.23622E+03 1.35669E+05 4.74870E-10-1.68939E-09
 -1       638 2.30245E+05 6.59035E+04 2.54053E+03 1.30320E+05-1.61481E-09-1.54341E-09
 -1       639 2.27147E+05 7.21783E+04 6.00959E+03 1.35277E+05-1.14527E-08-2.63390E-09
 -1       640 2.30078E+05 7.14260E+04 1.24706E+04 1.27964E+05-5.51609E-09-2.98678E-09
 -1       656 6.44543E+04-1.62279E+06-1.55535E+05 1.46991E+03 7.56700E-10-8.38810E-10
 -1       657-8.51365E+04-1.69286E+06-1.28514E+05 1.24697E+04 2.16914E-09 5.23380E-09
 -1       658 2.03839E+04-1.64280E+06-7.86989E+04-9.01863E+02-1.00931E-09-2.25492E-09
 -1       659-9.08905E+04-1.69561E+06-1.36070E+05 1.39477E+04-2.76304E-09 1.38038E-09
 -1       660 7.01976E+04-1.62005E+06-1.68511E+05-8.04715E+00-1.65892E-09-1.17424E-09
 -1       661 2.62776E+05 2.90957E+04 2.46202E+04 1.02981E+05 7.88123E-09-1.95178E-09
 -1       662 2.75412E+05 4.85910E+04 1.65894E+04 9.89170E+04 1.03107E-08-6.58565E-09
 -1       663 2.67614E+05 3.69897E+04 5.80343E+03 1.01575E+05 5.98004E-09 1.28330E-09
 -1       664 2.69808E+05 3.93570E+04 3.46959E+03 1.00633E+05-2.03727E-10-8.28095E-10
 -1       665 2.68345E+05 3.80699E+04 1.36836E+03 1.01363E+05-6.82758E-09 3.19949E-09
 -1       666 2.68944E+05 3.81212E+04 7.97397E+02 1.00911E+05-1.22708E-08-2.02533E-10
 -1       667 2.68474E+05 3.81928E+04 4.19060E+02 1.01310E+05-3.64574E-09-5.33730E-09
 -1       668 2.68799E+05 3.80332E+04 4.17632E+02 1.00993E+05 4.53167E-09 4.17226E-09
 -1       669 2.68489E+05 3.81548E+04 5.57093E+02 1.01282E+05 1.20332E-09 5.26185E-09
 -1       670 2.68922E+05 3.83436E+04 1.20598E+03 1.01011E+05 1.03014E-08-2.84854E-09
 -1       671 2.68351E+05 3.78882E+04 2.13846E+03 1.01289E+05-2.65162E-09 7.20775E-10
 -1       672 2.70152E+05 4.04394E+04 5.46928E+03 1.00728E+05-1.12840E-08 1.06320E-09
 -1       673 2.67266E+05 3.61111E+04 9.16465E+03 1.01544E+05-6.75982E-09-4.87398E-09
 -1       674 2.78863E+05 5.51723E+04 2.62075E+04 9.81786E+04 5.13319E-09-1.55478E-09
 -1       675 2.59696E+05 2.35666E+04 3.89016E+04 1.03683E+05 8.00173E-09-2.16460E-09
 -1       676 2.75831E+01-3.22359E+05-1.27148E+03 1.74478E+02 3.96130E-09 2.41103E-09
 -1       677-3.35949E+02-3.22669E+05-2.32706E+03-3.48641E+02-1.38509E-08-2.33423E-09
 -1       678 2.25650E+02-3.22140E+05-4.11367E+03 1.74044E+02-4.85807E-09 9.62858E-09
 -1       679-4.11348E+03-3.25152E+05-9.77252E+03-3.47114E+02-6.52790E-09 2.19815E-09
 -1       680 2.45634E+03-3.19877E+05-1.57499E+04 1.70937E+02 6.73026E-11 1.00975E-08
 -1       771-3.50118E+06-5.01937E+05-1.67803E+05-1.30045E+06-2.09911E-09-2.70666E-09
 -1       772-3.54579E+06-5.14193E+05-9.09072E+04-1.31057E+06 1.10140E-09 4.90218E-10
 -1       773-3.51756E+06-4.90216E+05-3.77595E+04-1.31302E+06-2.99406E-09-7.84712E-09
 -1       774-3.52290E+06-4.89118E+05-1.87872E+04-1.31104E+06 6.93490E-10-3.78350E-10
 -1       775-3.51873E+06-4.90264E+05-8.54985E+03-1.31367E+06 6.57292E-09 6.41808E-09
 -1       776-3.52145E+06-4.87830E+05-4.20142E+03-1.31069E+06 1.94223E-09 1.51724E-09
 -1       777-3.51884E+06-4.90441E+05-2.00927E+03-1.31377E+06-4.07272E-09-4.58147E-09
 -1       778-3.52139E+06-4.87664E+05-1.10708E+03-1.31050E+06-7.38510E-10 4.96220E-09
 -1       779-3.51882E+06-4.90516E+05-7.84409E+02-1.31383E+06-3.85626E-10-1.93791E-09
 -1       780-3.52149E+06-4.87574E+05-9.61211E+02-1.31039E+06 1.03751E-09 4.22767E-09
 -1       781-3.51876E+06-4.90541E+05-1.63396E+03-1.31388E+06-1.25965E-10-3.13355E-09
 -1       782-3.52184E+06-4.87709E+05-3.42639E+03-1.31035E+06 9.40872E-10-3.11957E-09
 -1       783-3.51851E+06-4.90572E+05-6.81550E+03-1.31381E+06 5.77552E-09 5.46788E-09
 -1       784-3.52606E+06-4.92132E+05-1.63669E+04-1.31017E+06 1.93452E-10-9.64292E-10
 -1       785-3.51554E+06-4.92724E+05-3.02112E+04-1.31160E+06-6.31644E-10-1.65346E-09
 -1       786 3.06753E+05-1.42362E+04 3.29398E+04 3.35218E+02 1.93196E-09-5.29326E-09
 -1       787 3.21025E+05 1.64815E+04 2.33043E+04 2.93512E+01-6.59206E-11-2.67755E-09
 -1       788 3.12261E+05-2.23152E+03 8.52705E+03 2.72288E+02-1.02500E-09 5.97083E-10
 -1       789 3.14610E+05 2.58243E+03 5.35924E+03 1.18032E+02 2.54286E-08-2.18165E-10
 -1       790 3.13170E+05-3.48589E+02 2.18420E+03 2.46549E+02 7.49594E-06-2.81568E-09
 -1       791 3.13550E+05 4.06295E+02 1.28907E+03 1.50515E+02 1.49236E-05-1.27610E-08
 -1       792 3.13322E+05-5.70309E+01 6.01400E+02 2.39806E+02-5.56736E-09-4.41031E-09
 -1       793 3.13383E+05 8.67422E+01 4.20640E+02 1.49167E+02-1.49374E-05 1.58515E-08
 -1       794 3.13338E+05-2.92449E+01 3.52199E+02 2.47897E+02-7.50422E-06 9.06205E-10
 -1       795 3.13422E+05 1.67453E+02 5.68076E+02 1.13852E+02-2.29084E-08 4.31223E-09
 -1       796 3.13282E+05-1.37688E+02 8.86377E+02 2.75122E+02-9.05080E-10-5.82889E-09
 -1       797 3.13835E+05 1.01470E+03 2.11929E+03 2.54423E+01-1.72884E-09-4.17003E-10
 -1       798 3.12925E+05-8.75878E+02 3.35428E+03 3.36307E+02-2.05159E-09 6.63704E-10
 -1       799 3.16359E+05 6.47041E+03 9.15365E+03-1.66193E+02-3.00845E-09 9.47580E-10
 -1       800 3.10757E+05-5.58902E+03 1.29302E+04 4.66754E+02-7.65116E-10-2.12822E-10
 -1       801-2.25312E+05 5.49409E+06 5.37800E+05 3.71410E+03 8.35280E-09-6.63439E-09
 -1       802 3.14879E+05 5.77987E+06 4.83112E+05-1.31859E+05 2.03072E-08-3.12508E-09
 -1       803-8.68001E+04 5.57217E+06 3.38035E+05-7.58238E+04 1.21290E-08 5.17048E-09
 -1       804 4.50639E+05 5.84272E+06 6.60414E+05-1.33189E+05 1.61817E-08 4.28281E-09
 -1       805-3.60800E+05 5.43117E+06 8.44325E+05 5.03677E+03 3.66708E-09 4.90946E-08
 -1       806-2.78264E+05-6.80621E+04-2.71961E+04-1.24701E+05 3.21234E-09-2.41562E-09
 -1       807-2.79051E+05-6.49855E+04-1.33603E+04-1.32842E+05 9.93509E-10 4.93560E-09
 -1       808-2.79084E+05-5.81930E+04-5.66715E+03-1.29273E+05 3.66958E-09 4.86284E-09
 -1       809-2.76152E+05-6.13268E+04-2.76959E+03-1.33295E+05 5.90967E-09 8.38781E-10
 -1       810-2.79214E+05-5.78395E+04-1.26773E+03-1.29475E+05-2.28795E-09-2.30057E-09
 -1       811-2.75932E+05-6.11844E+04-6.27328E+02-1.33271E+05-2.48829E-09 4.50973E-09
 -1       812-2.79236E+05-5.78632E+04-3.10753E+02-1.29474E+05 9.25866E-10-2.00362E-09
 -1       813-2.75903E+05-6.11896E+04-1.92102E+02-1.33255E+05 1.40199E-09-3.92538E-09
 -1       814-2.79232E+05-5.78746E+04-1.73894E+02-1.29468E+05-2.41516E-09-1.95100E-08
 -1       815-2.75900E+05-6.11945E+04-2.65512E+02-1.33246E+05-1.29262E-09-2.04773E-09
 -1       816-2.79208E+05-5.78767E+04-4.94016E+02-1.29461E+05-3.65344E-09 4.33283E-09
 -1       817-2.75976E+05-6.12445E+04-1.05636E+03-1.33229E+05 7.61793E-09-2.79920E-09
 -1       818-2.79134E+05-5.80316E+04-2.15283E+03-1.29385E+05-4.06544E-10-1.26415E-08
 -1       819-2.77163E+05-6.25288E+04-5.06473E+03-1.32918E+05-4.52701E-09-6.77210E-09
 -1       820-2.78704E+05-6.18740E+04-1.03092E+04-1.27754E+05-6.86668E-10 4.03838E-09
 -1       821-3.67567E+05 2.07588E+04-4.81458E+04 5.62599E+02-1.01389E-09-4.35830E-09
 -1       822-3.87771E+05-2.40499E+04-3.39583E+04-3.94731E+03-1.07882E-09-4.92946E-09
 -1       823-3.75307E+05 3.27102E+03-1.24527E+04 1.46512E+03-2.31537E-09 1.64982E-09
 -1       824-3.78606E+05-3.78843E+03-7.81722E+03-4.58881E+03 1.42641E-09 7.09633E-09
 -1       825-3.76733E+05 5.16898E+02-3.23880E+03 1.20411E+03 3.64089E-10-2.03465E-09
 -1       826-3.76649E+05-5.95541E+02-1.84112E+03-3.06951E+03 6.18989E-10-4.68813E-09
 -1       827-3.77251E+05 7.14266E+01-1.08442E+03-5.42010E+01-7.51571E-09-3.51542E-09
 -1       828-3.76193E+05-1.54787E+02-7.27978E+02-2.35914E+02-1.36549E-08 4.68990E-09
 -1       829-3.77182E+05 7.11028E+01-1.07516E+03-1.62949E+03-2.16474E-10-2.51393E-09
 -1       830-3.76809E+05-5.87509E+02-1.88054E+03 2.37955E+03-6.68701E-08 9.77707E-11
 -1       831-3.76647E+05 5.12153E+02-3.24386E+03-2.66973E+03-2.28395E-05 9.35846E-08
 -1       832-3.78663E+05-3.78613E+03-7.87040E+03 3.36728E+03-4.54853E-05 1.99080E-07
 -1       833-3.75337E+05 3.27384E+03-1.25430E+04-2.61729E+03-2.28367E-05 9.41009E-08
 -1       834-3.87726E+05-2.41744E+04-3.41464E+04 2.19338E+03-7.26902E-08 1.08148E-08
 -1       835-3.67578E+05 2.08775E+04-4.84680E+04-1.49572E+03 7.20820E-09-3.09592E-09
 -1       836-1.20111E+03 3.66163E+05 2.17599E+04-4.06843E+04 6.15910E-09 5.34965E-09
 -1       837 4.98077E+03 3.72798E+05 1.85251E+04-8.14139E+04 7.58337E-09 1.91085E-09
 -1       838-3.65236E+02 3.68023E+05 1.90155E+04-4.05677E+04 6.74027E-09 3.56033E-09
 -1       839 1.23623E+04 3.78293E+05 3.61082E+04-8.14313E+04 8.20182E-09 4.39013E-09
 -1       840-3.57608E+03 3.60607E+05 5.76261E+04-4.06603E+04 6.22094E-09 5.11818E-09
 -1       856-1.43125E+05 1.08038E+04-2.84769E+04-8.05276E+02-6.67774E-09 6.58656E-09
 -1       857-1.54895E+05-1.26599E+04-1.96050E+04 6.01378E+03-9.97238E-09-2.27305E-09
 -1       858-1.47771E+05 1.51189E+03-7.39135E+03-8.49054E+02-1.03742E-08 4.39286E-10
 -1       859-1.49562E+05-1.74507E+03-4.46453E+03 6.08621E+03-1.92654E-09 5.70901E-09
 -1       860-1.48465E+05 2.08516E+02-1.87947E+03-8.78276E+02 2.18381E-09-3.38105E-09
 -1       861-1.48764E+05-2.16851E+02-1.05087E+03 6.12646E+03-9.00570E-09-2.09343E-09
 -1       862-1.48572E+05 2.62207E+01-4.71144E+02-8.89414E+02 1.14273E-08 9.05800E-11
 -1       863-1.48638E+05-3.85036E+00-2.49509E+02 6.13094E+03 1.67386E-08-6.70644E-09
 -1       864-1.48591E+05 3.00297E-01-1.11849E+02-8.82766E+02 1.41741E-08-8.00846E-09
 -1       865-1.48610E+05 2.68781E+01-4.63769E+01 6.09905E+03 1.51648E-08-8.85289E-09
 -1       866-1.48598E+05-6.30009E+00-4.47557E+00-8.57518E+02-3.37644E-09 1.06647E-09
 -1       867-1.48582E+05 4.89883E+01 4.88104E+01 6.03068E+03 1.85412E-09 2.43663E-09
 -1       868-1.48612E+05-2.59323E+01 9.23460E+01-8.14371E+02 9.00087E-09-5.60439E-09
 -1       869-1.48488E+05 1.97259E+02 2.72093E+02 5.92192E+03-1.53034E-09-6.52325E-09
 -1       870-1.48682E+05-1.57161E+02 3.86974E+02-7.48732E+02 9.30117E-09-2.43195E-09
 -1       871-5.57762E+03-8.99713E+03-1.72509E+04 1.11192E+05 6.51198E-09 1.26784E-09
 -1       872-2.61471E+03-1.28070E+04-6.95157E+03 1.44151E+05 1.11477E-08 2.99133E-09
 -1       873-2.79465E+02-1.10995E+04 1.19463E+03 1.10952E+05 8.63656E-09 3.87695E-09
 -1       874 2.45727E+03-8.41714E+03 1.02264E+04 1.44212E+05 1.27395E-08 4.52565E-09
 -1       875 6.27871E+03-1.34936E+04 2.25374E+04 1.11162E+05 7.85622E-09 3.96540E-10
 -1       876 2.91259E+05 5.09435E+04 1.59479E+04 1.19063E+05-1.16215E-08-3.56067E-09
 -1       877 2.92072E+05 5.45458E+04 8.51684E+03 1.23878E+05-1.19289E-08-4.39195E-09
 -1       878 2.92745E+05 4.91822E+04 3.56780E+03 1.20375E+05 9.28594E-09 1.39169E-08
 -1       879 2.89899E+05 5.23864E+04 1.77736E+03 1.23988E+05-6.34554E-09 6.96707E-09
 -1       880 2.92850E+05 4.91647E+04 8.26993E+02 1.20428E+05-9.66520E-09-4.06521E-09
 -1       881 2.89755E+05 5.22942E+04 4.39965E+02 1.23962E+05-5.47243E-09 5.29332E-09
 -1       882 2.92860E+05 4.91792E+04 2.78232E+02 1.20429E+05 1.62936E-09 8.80556E-09
 -1       883 2.89744E+05 5.22896E+04 2.94118E+02 1.23954E+05 6.84338E-10 1.46663E-08
 -1       884 2.92853E+05 4.91766E+04 4.63161E+02 1.20429E+05-7.08951E-10 7.63742E-09
 -1       885 2.89780E+05 5.22961E+04 9.28245E+02 1.23965E+05 1.29207E-08-2.95120E-09
 -1       886 2.92817E+05 4.91494E+04 1.86929E+03 1.20426E+05 1.13189E-08-3.61274E-09
 -1       887 2.90109E+05 5.25115E+04 4.08247E+03 1.24014E+05-9.35356E-09-1.44472E-08
 -1       888 2.92560E+05 4.91937E+04 8.22581E+03 1.20295E+05 3.96352E-09-3.69801E-09
 -1       889 2.95014E+05 5.75973E+04 1.96501E+04 1.23857E+05 1.42528E-08-4.48381E-09
 -1       890 2.89216E+05 5.31688E+04 3.68036E+04 1.17151E+05 1.64496E-08-4.27463E-10
 -1       891-2.53179E+02-1.67452E+05-1.94737E+03 3.36124E+04 1.20713E-09-1.16552E-09
 -1       892-4.27303E+02-1.67874E+05-2.12887E+03 5.07741E+04 3.14958E-09-7.67545E-09
 -1       893-1.32188E+02-1.67501E+05-3.05501E+03 3.36188E+04 4.24825E-09-7.59428E-10
 -1       894-1.79604E+03-1.69026E+05-6.34904E+03 5.05936E+04-3.25167E-09-9.43328E-09
 -1       895-1.40283E+03-1.66160E+05-1.11963E+04 3.37871E+04-1.33980E-09-8.53015E-09
 -1       956-3.62824E+05-5.35074E+03-1.35607E+04 2.26864E+04-7.99719E-09-1.91926E-09
 -1       957-3.65510E+05-1.77051E+03-6.96105E+03 2.73560E+04-2.74440E-09 4.57158E-09
 -1       958-3.64032E+05-1.06425E+02-3.13675E+03 2.25182E+04 3.47427E-09 1.79443E-09
 -1       959-3.64258E+05 2.60041E+01-1.60174E+03 2.75322E+04-6.13318E-09 5.22277E-09
 -1       960-3.64145E+05 8.73487E+01-7.80874E+02 2.25016E+04-1.19962E-08 2.54886E-10
 -1       961-3.64172E+05 9.71739E+01-4.13212E+02 2.75513E+04-1.71167E-08 3.42402E-09
 -1       962-3.64172E+05 8.49720E+01-2.35000E+02 2.24986E+04-9.85847E-09 4.36671E-09
 -1       963-3.64173E+05 1.01692E+02-1.85353E+02 2.75558E+04-2.10177E-08 3.04112E-09
 -1       964-3.64180E+05 8.97998E+01-2.21226E+02 2.24970E+04-8.06858E-09 3.57318E-09
 -1       965-3.64190E+05 1.07728E+02-3.78928E+02 2.75569E+04 8.54283E-09-2.32353E-09
 -1       966-3.64171E+05 1.01606E+02-7.09514E+02 2.24973E+04-6.92597E-09-2.27215E-09
 -1       967-3.64286E+05 5.31216E+01-1.45436E+03 2.75496E+04-2.50452E-09 7.79937E-09
 -1       968-3.64083E+05-6.49466E+01-2.84577E+03 2.25048E+04-2.26464E-10 1.15176E-09
 -1       969-3.65441E+05-1.56899E+03-6.31871E+03 2.74663E+04-9.73159E-10-2.31870E-09
 -1       970-3.62998E+05-4.81972E+03-1.23075E+04 2.25912E+04 1.56297E-09-3.66890E-09
 -1       971-3.50137E+05-1.87330E+03-1.06030E+04 1.74460E+04-6.98310E-09-1.32673E-10
 -1       972-3.52732E+05-1.31219E+03-5.77333E+03 2.45229E+04-6.53017E-10 2.61662E-09
 -1       973-3.51323E+05 2.58500E+01-2.58594E+03 1.72918E+04-3.33239E-09 2.95699E-09
 -1       974-3.51522E+05 4.79465E+01-1.33879E+03 2.46872E+04 1.13487E-08-5.22687E-09
 -1       975-3.51420E+05 7.96766E+01-6.67319E+02 1.72765E+04 2.01044E-09 1.47475E-09
 -1       976-3.51457E+05 1.07289E+02-3.80409E+02 2.47063E+04-1.51731E-08-3.61774E-09
 -1       977-3.51441E+05 8.20910E+01-2.68631E+02 1.72723E+04 9.24365E-09-3.45608E-11
 -1       978-3.51465E+05 1.15595E+02-3.03782E+02 2.47121E+04 2.73211E-08-4.16208E-10
 -1       979-3.51443E+05 9.14829E+01-4.79341E+02 1.72705E+04 7.93636E-09 4.44038E-09
 -1       980-3.51501E+05 1.19120E+02-9.20070E+02 2.47132E+04 1.55900E-08 4.36671E-10
 -1       981-3.51413E+05 1.14092E+02-1.77937E+03 1.72712E+04-8.10951E-09 4.51791E-09
 -1       982-3.51743E+05-1.33993E+01-3.67647E+03 2.47048E+04-1.33441E-08-8.28749E-10
 -1       983-3.51187E+05-1.47035E+00-7.14314E+03 1.72796E+04 1.58934E-09 3.98654E-09
 -1       984-3.55173E+05-3.74683E+03-1.59959E+04 2.46022E+04-1.12777E-08 7.58791E-09
 -1       985-3.47950E+05-5.23040E+03-2.93741E+04 1.73914E+04 3.41061E-09 9.09495E-10
 -3
    1PSTEP                        29          15           1          
  100CL  115 7.61719E-01         409                     0   15           1
 -4  DISP        4    1
 -5  D1          1    2    1    0
 -5  D2          1    2    2    0
 -5  D3          1    2    3    0
 -5  ALL         1    2    0    0    1ALL
 -1         1 4.82024E-03 0.00000E+00 0.00000E+00
 -1         2 5.54064E-03-1.50323E-27 0.00000E+00
 -1         3 3.21236E-05-3.04529E-28 0.00000E+00
 -1         5 6.45841E-05-8.44622E-27 0.00000E+00
 -1         8 4.77111E-03-2.28782E-06 0.00000E+00
 -1         9 4.82030E-03-5.69675E-05 0.00000E+00
 -1        10 3.41621E-05 2.00592E-06-6.61744E-24
 -1        12 6.26392E-05 8.08803E-07 0.00000E+00
 -1        15 4.71324E-03-2.60867E-06 0.00000E+00
 -1        16 4.72575E-03-5.70646E-05 0.00000E+00
 -1        17 4.10345E-05 4.14873E-06 0.00000E+00
 -1        18 5.53080E-05-1.38402E-05 0.00000E+00
 -1        19 5.68034E-05 1.61087E-06 0.00000E+00
 -1        20 5.70134E-05 3.76916E-05 0.00000E+00
 -1        21 5.63030E-05 7.42228E-05 3.30872E-24
 -1        24 2.56012E-05 3.52157E-06 0.00000E+00
 -1        25 4.69266E-05-1.36792E-05 0.00000E+00
 -1        26 4.87807E-05 2.26279E-06 0.00000E+00
 -1        27 4.65426E-05 3.41316E-05 0.00000E+00
 -1        28 4.56087E-05 7.35052E-05 0.00000E+00
 -1        32 0.00000E+00 0.00000E+00 0.00000E+00
 -1        33 3.84017E-05 3.04803E-06 0.00000E+00
 -1        34 3.62433E-05 3.40970E-05 0.00000E+00
 -1        35 3.41425E-05 7.31281E-05 0.00000E+00
 -1        51 4.81702E-03-3.59731E-07 0.00000E+00
 -1        52 4.81107E-03-7.21892E-07 0.00000E+00
 -1        53 4.80293E-03-1.09339E-06 0.00000E+00
 -1        54 4.79318E-03-1.47671E-06 6.61744E-24
 -1        55 4.78238E-03-1.87148E-06 0.00000E+00
 -1        56 4.81986E-03-2.32387E-06-2.64698E-23
 -1        57 4.82079E-03-8.26866E-06-1.32349E-23
 -1        58 4.82282E-03-1.72101E-05-2.64698E-23
 -1        59 4.82569E-03-2.84560E-05 0.00000E+00
 -1        60 4.82910E-03-4.11851E-05 2.64698E-23
 -1        61 4.83273E-03-5.45384E-05 0.00000E+00
 -1        62 4.83626E-03-6.76222E-05-2.64698E-23
 -1        63 4.83937E-03-7.95502E-05 0.00000E+00
 -1        64 4.84177E-03-8.94998E-05 2.64698E-23
 -1        65 4.84316E-03-9.67007E-05 0.00000E+00
 -1        66 4.84330E-03-1.00533E-04-2.64698E-23
 -1        67 4.84199E-03-1.00465E-04-1.32349E-23
 -1        68 4.83909E-03-9.61791E-05 2.64698E-23
 -1        69 4.83450E-03-8.74635E-05 1.32349E-23
 -1        70 4.82820E-03-7.43519E-05-1.32349E-23
 -1        86 5.49759E-03-2.27389E-06-2.64698E-23
 -1        87 5.37091E-03-1.14021E-05 0.00000E+00
 -1        88 5.19874E-03-2.67780E-05 0.00000E+00
 -1        89 5.02118E-03-4.30721E-05 1.32349E-23
 -1        90 4.88119E-03-5.38628E-05 0.00000E+00
 -1       121 3.21798E-05 3.34281E-07-1.32349E-23
 -1       122 3.23487E-05 6.68556E-07-6.61744E-24
 -1       123 3.26307E-05 1.00281E-06 0.00000E+00
 -1       124 3.30263E-05 1.33710E-06-6.61744E-24
 -1       125 3.35364E-05 1.67130E-06 0.00000E+00
 -1       191 6.45301E-05 1.34871E-07 0.00000E+00
 -1       192 6.43681E-05 2.69729E-07 6.61744E-24
 -1       193 6.40980E-05 4.04565E-07 0.00000E+00
 -1       194 6.37198E-05 5.39365E-07 0.00000E+00
 -1       195 6.32336E-05 6.74116E-07 6.61744E-24
 -1       251 4.77403E-03 3.37447E-06 0.00000E+00
 -1       252 4.77712E-03 1.81505E-06-2.64698E-23
 -1       253 4.78020E-03-3.48595E-06 0.00000E+00
 -1       254 4.78330E-03-9.55653E-06 0.00000E+00
 -1       255 4.78639E-03-1.60258E-05 0.00000E+00
 -1       256 4.78950E-03-2.25762E-05 0.00000E+00
 -1       257 4.79260E-03-2.91679E-05 0.00000E+00
 -1       258 4.79570E-03-3.57665E-05 0.00000E+00
 -1       259 4.79881E-03-4.23625E-05 0.00000E+00
 -1       260 4.80191E-03-4.89454E-05 5.29396E-23
 -1       261 4.80502E-03-5.54600E-05 1.05879E-22
 -1       262 4.80812E-03-6.18423E-05 5.29396E-23
 -1       263 4.81122E-03-6.75732E-05 0.00000E+00
 -1       264 4.81431E-03-7.20470E-05 0.00000E+00
 -1       265 4.81740E-03-7.04056E-05 0.00000E+00
 -1       266 4.76146E-03-2.36775E-06 0.00000E+00
 -1       267 4.75182E-03-2.41800E-06 0.00000E+00
 -1       268 4.74217E-03-2.47013E-06 0.00000E+00
 -1       269 4.73253E-03-2.51670E-06 0.00000E+00
 -1       270 4.72288E-03-2.56313E-06 0.00000E+00
 -1       271 4.76504E-03 3.33343E-06-5.29396E-23
 -1       272 4.76081E-03 3.75110E-06 0.00000E+00
 -1       273 4.75834E-03-5.23141E-07 0.00000E+00
 -1       274 4.75734E-03-8.81502E-06 0.00000E+00
 -1       275 4.75749E-03-2.02429E-05 1.05879E-22
 -1       276 4.75840E-03-3.37892E-05 5.29396E-23
 -1       277 4.75967E-03-4.83312E-05 1.05879E-22
 -1       278 4.76087E-03-6.27016E-05 5.29396E-23
 -1       279 4.76160E-03-7.57415E-05 0.00000E+00
 -1       280 4.76144E-03-8.63525E-05 5.29396E-23
 -1       281 4.76003E-03-9.35553E-05 0.00000E+00
 -1       282 4.75706E-03-9.65246E-05-5.29396E-23
 -1       283 4.75226E-03-9.46416E-05 1.05879E-22
 -1       284 4.74548E-03-8.75000E-05 0.00000E+00
 -1       285 4.73660E-03-7.49582E-05 0.00000E+00
 -1       301 4.80328E-03-5.69891E-05 0.00000E+00
 -1       302 4.78842E-03-5.69794E-05 0.00000E+00
 -1       303 4.77448E-03-5.69567E-05 0.00000E+00
 -1       304 4.76021E-03-5.69436E-05 0.00000E+00
 -1       305 4.74438E-03-5.69602E-05-6.61744E-24
 -1       306 4.70017E-03 1.50312E-04-1.05879E-22
 -1       307 4.31561E-03 6.41698E-04 5.29396E-23
 -1       308 3.62794E-03 1.29910E-03 1.05879E-22
 -1       309 2.70933E-03 2.00907E-03 0.00000E+00
 -1       310 1.73811E-03 2.72586E-03 0.00000E+00
 -1       311 9.08084E-04 3.42370E-03 0.00000E+00
 -1       312 3.41192E-04 4.02689E-03-2.11758E-22
 -1       313 7.04505E-05 4.42155E-03 1.05879E-22
 -1       314 3.70251E-05 4.46819E-03-2.11758E-22
 -1       315 9.32710E-05 4.13705E-03 0.00000E+00
 -1       316 1.19552E-04 3.45830E-03 0.00000E+00
 -1       317 6.00703E-05 2.55635E-03-5.29396E-23
 -1       318-2.48265E-05 1.60346E-03 0.00000E+00
 -1       319-4.80832E-05 7.74117E-04 0.00000E+00
 -1       320-1.72081E-06 2.09456E-04-1.05879E-22
 -1       336 3.49206E-05 2.36675E-06 0.00000E+00
 -1       337 3.58300E-05 2.72768E-06 6.61744E-24
 -1       338 3.68928E-05 3.08814E-06-1.32349E-23
 -1       339 3.81121E-05 3.44643E-06-3.30872E-24
 -1       340 3.94914E-05 3.80468E-06 0.00000E+00
 -1       406 6.19367E-05 9.43406E-07 0.00000E+00
 -1       407 6.11260E-05 1.07789E-06 0.00000E+00
 -1       408 6.02072E-05 1.21219E-06 0.00000E+00
 -1       409 5.91802E-05 1.34614E-06 0.00000E+00
 -1       410 5.80453E-05 1.47946E-06 0.00000E+00
 -1       521 4.60425E-03 1.50147E-04 0.00000E+00
 -1       522 4.22084E-03 6.39405E-04 0.00000E+00
 -1       523 3.54034E-03 1.29378E-03 1.05879E-22
 -1       524 2.63856E-03 2.00141E-03-5.29396E-23
 -1       525 1.68644E-03 2.71645E-03 0.00000E+00
 -1       526 8.69658E-04 3.41111E-03 1.05879E-22
 -1       527 3.11034E-04 4.00933E-03 2.11758E-22
 -1       528 4.41729E-05 4.39858E-03 0.00000E+00
 -1       529 1.16455E-05 4.44002E-03 0.00000E+00
 -1       530 6.69750E-05 4.10613E-03 0.00000E+00
 -1       531 9.32721E-05 3.42966E-03 0.00000E+00
 -1       532 3.83530E-05 2.53732E-03 0.00000E+00
 -1       533-4.07549E-05 1.59513E-03 0.00000E+00
 -1       534-6.20152E-05 7.71712E-04 5.29396E-23
 -1       535-1.61302E-05 2.09479E-04 0.00000E+00
 -1       536 4.18923E-05 2.60500E-06-1.32349E-23
 -1       537 4.27853E-05 1.22487E-06 0.00000E+00
 -1       538 4.36762E-05-6.92245E-08-2.64698E-23
 -1       539 4.45738E-05-1.35136E-06 0.00000E+00
 -1       540 4.54716E-05-2.62719E-06 2.64698E-23
 -1       541 4.63708E-05-3.90215E-06 0.00000E+00
 -1       542 4.72701E-05-5.17664E-06-2.64698E-23
 -1       543 4.81696E-05-6.45105E-06 0.00000E+00
 -1       544 4.90691E-05-7.72518E-06 0.00000E+00
 -1       545 4.99684E-05-8.99888E-06 0.00000E+00
 -1       546 5.08675E-05-1.02694E-05 0.00000E+00
 -1       547 5.17654E-05-1.15339E-05-1.32349E-23
 -1       548 5.26631E-05-1.27548E-05 2.64698E-23
 -1       549 5.35544E-05-1.38926E-05 0.00000E+00
 -1       550 5.44484E-05-1.44338E-05 1.32349E-23
 -1       551 3.99120E-05 4.05908E-06 0.00000E+00
 -1       552 3.67524E-05 3.96316E-06-1.65436E-24
 -1       553 3.26436E-05 3.86426E-06 0.00000E+00
 -1       554 2.86847E-05 3.76176E-06 0.00000E+00
 -1       555 2.59748E-05 3.65722E-06-2.64698E-23
 -1       556 4.16453E-05 2.39756E-06 0.00000E+00
 -1       557 4.22858E-05 5.56794E-07 8.27181E-25
 -1       558 4.29452E-05-1.33576E-06 0.00000E+00
 -1       559 4.36096E-05-3.24280E-06-4.13590E-25
 -1       560 4.42653E-05-5.12695E-06 0.00000E+00
 -1       561 4.48985E-05-6.95085E-06-5.68687E-25
 -1       562 4.54953E-05-8.67721E-06 8.27181E-25
 -1       563 4.60418E-05-1.02687E-05 4.13590E-25
 -1       564 4.65239E-05-1.16881E-05-1.65436E-24
 -1       565 4.69278E-05-1.28980E-05 0.00000E+00
 -1       566 4.72395E-05-1.38614E-05-1.65436E-24
 -1       567 4.74449E-05-1.45408E-05 0.00000E+00
 -1       568 4.75302E-05-1.48992E-05 0.00000E+00
 -1       569 4.74813E-05-1.48994E-05 0.00000E+00
 -1       570 4.72842E-05-1.45045E-05 0.00000E+00
 -1       571 5.53989E-05-1.27485E-05 4.13590E-25
 -1       572 5.54916E-05-1.17214E-05 4.13590E-25
 -1       573 5.55849E-05-1.07490E-05 3.30872E-24
 -1       574 5.56785E-05-9.82117E-06-8.27181E-25
 -1       575 5.57723E-05-8.92761E-06 1.65436E-24
 -1       576 5.58661E-05-8.05791E-06 0.00000E+00
 -1       577 5.59599E-05-7.20169E-06 3.30872E-24
 -1       578 5.60538E-05-6.34857E-06 0.00000E+00
 -1       579 5.61476E-05-5.48812E-06 0.00000E+00
 -1       580 5.62415E-05-4.60996E-06 1.65436E-24
 -1       581 5.63353E-05-3.70369E-06 3.30872E-24
 -1       582 5.64290E-05-2.75892E-06-3.30872E-24
 -1       583 5.65228E-05-1.76527E-06 0.00000E+00
 -1       584 5.66164E-05-7.12463E-07 0.00000E+00
 -1       585 5.67100E-05 4.09744E-07 0.00000E+00
 -1       586 5.39381E-05-1.38114E-05-1.65436E-24
 -1       587 5.25164E-05-1.37837E-05 0.00000E+00
 -1       588 5.10734E-05-1.37565E-05 4.13590E-25
 -1       589 4.96402E-05-1.37296E-05 0.00000E+00
 -1       590 4.82478E-05-1.37034E-05 0.00000E+00
 -1       591 5.48610E-05-1.27192E-05-2.06795E-25
 -1       592 5.44359E-05-1.16671E-05 0.00000E+00
 -1       593 5.40318E-05-1.06716E-05 0.00000E+00
 -1       594 5.36443E-05-9.72143E-06 4.13590E-25
 -1       595 5.32695E-05-8.80529E-06 0.00000E+00
 -1       596 5.29032E-05-7.91184E-06-4.13590E-25
 -1       597 5.25411E-05-7.02976E-06-8.27181E-25
 -1       598 5.21790E-05-6.14776E-06 0.00000E+00
 -1       599 5.18127E-05-5.25454E-06 8.27181E-25
 -1       600 5.14380E-05-4.33879E-06-2.06795E-25
 -1       601 5.10505E-05-3.38924E-06 0.00000E+00
 -1       602 5.06462E-05-2.39455E-06-1.03398E-25
 -1       603 5.02208E-05-1.34343E-06-1.55096E-25
 -1       604 4.97703E-05-2.24516E-07 0.00000E+00
 -1       605 4.92905E-05 9.73462E-07 8.27181E-25
 -1       606 5.68225E-05 3.02845E-06 0.00000E+00
 -1       607 5.68380E-05 4.60685E-06 0.00000E+00
 -1       608 5.68525E-05 6.33662E-06 0.00000E+00
 -1       609 5.68663E-05 8.20712E-06 0.00000E+00
 -1       610 5.68797E-05 1.02077E-05 0.00000E+00
 -1       611 5.68928E-05 1.23274E-05 0.00000E+00
 -1       612 5.69057E-05 1.45555E-05 0.00000E+00
 -1       613 5.69183E-05 1.68810E-05 0.00000E+00
 -1       614 5.69308E-05 1.92932E-05 0.00000E+00
 -1       615 5.69431E-05 2.17812E-05-1.65436E-24
 -1       616 5.69552E-05 2.43340E-05 0.00000E+00
 -1       617 5.69672E-05 2.69409E-05 0.00000E+00
 -1       618 5.69790E-05 2.95910E-05 0.00000E+00
 -1       619 5.69907E-05 3.22734E-05 0.00000E+00
 -1       620 5.70023E-05 3.49772E-05 0.00000E+00
 -1       621 5.54966E-05 1.71946E-06 0.00000E+00
 -1       622 5.41744E-05 1.82874E-06-1.65436E-24
 -1       623 5.28391E-05 1.93800E-06 0.00000E+00
 -1       624 5.14934E-05 2.04710E-06 0.00000E+00
 -1       625 5.01398E-05 2.15600E-06-3.30872E-24
 -1       626 5.63817E-05 3.05874E-06 0.00000E+00
 -1       627 5.59096E-05 4.64277E-06 0.00000E+00
 -1       628 5.53907E-05 6.35128E-06 0.00000E+00
 -1       629 5.48298E-05 8.17165E-06 0.00000E+00
 -1       630 5.42315E-05 1.00913E-05 0.00000E+00
 -1       631 5.36005E-05 1.20976E-05 0.00000E+00
 -1       632 5.29417E-05 1.41777E-05 0.00000E+00
 -1       633 5.22598E-05 1.63191E-05 0.00000E+00
 -1       634 5.15596E-05 1.85090E-05 3.30872E-24
 -1       635 5.08458E-05 2.07347E-05 0.00000E+00
 -1       636 5.01233E-05 2.29836E-05 3.30872E-24
 -1       637 4.93968E-05 2.52430E-05 0.00000E+00
 -1       638 4.86710E-05 2.75002E-05 3.30872E-24
 -1       639 4.79507E-05 2.97425E-05-8.27181E-25
 -1       640 4.72401E-05 3.19572E-05-3.30872E-24
 -1       656 5.46195E-05 3.71116E-05 0.00000E+00
 -1       657 5.27781E-05 3.65091E-05 6.61744E-24
 -1       658 5.12808E-05 3.59090E-05-1.32349E-23
 -1       659 4.99109E-05 3.53094E-05 0.00000E+00
 -1       660 4.84149E-05 3.47078E-05 0.00000E+00
 -1       661 5.61285E-05 4.03737E-05 0.00000E+00
 -1       662 5.52740E-05 4.29890E-05 0.00000E+00
 -1       663 5.44440E-05 4.55383E-05 0.00000E+00
 -1       664 5.36387E-05 4.80248E-05-1.65436E-24
 -1       665 5.28565E-05 5.04502E-05 3.30872E-24
 -1       666 5.20967E-05 5.28166E-05 0.00000E+00
 -1       667 5.13585E-05 5.51258E-05 0.00000E+00
 -1       668 5.06414E-05 5.73793E-05 1.65436E-24
 -1       669 4.99448E-05 5.95782E-05 0.00000E+00
 -1       670 4.92684E-05 6.17239E-05-1.65436E-24
 -1       671 4.86117E-05 6.38169E-05 0.00000E+00
 -1       672 4.79744E-05 6.58580E-05 0.00000E+00
 -1       673 4.73564E-05 6.78477E-05-3.30872E-24
 -1       674 4.67566E-05 6.97856E-05 0.00000E+00
 -1       675 4.61765E-05 7.16724E-05 0.00000E+00
 -1       676 5.45135E-05 7.41025E-05 3.30872E-24
 -1       677 5.27252E-05 7.39822E-05 1.65436E-24
 -1       678 5.09393E-05 7.38620E-05 0.00000E+00
 -1       679 4.91571E-05 7.37422E-05 1.65436E-24
 -1       680 4.73799E-05 7.36223E-05 0.00000E+00
 -1       771 2.50045E-05 7.27030E-07 2.64698E-23
 -1       772 2.41991E-05-1.60372E-06-2.64698E-23
 -1       773 2.32221E-05-3.48204E-06-5.29396E-23
 -1       774 2.20821E-05-4.93426E-06 0.00000E+00
 -1       775 2.07912E-05-5.98625E-06-5.29396E-23
 -1       776 1.93604E-05-6.66646E-06 0.00000E+00
 -1       777 1.78009E-05-7.00425E-06 0.00000E+00
 -1       778 1.61244E-05-7.03050E-06 0.00000E+00
 -1       779 1.43427E-05-6.77684E-06 0.00000E+00
 -1       780 1.24680E-05-6.27611E-06 0.00000E+00
 -1       781 1.05131E-05-5.56175E-06 0.00000E+00
 -1       782 8.49073E-06-4.66807E-06 2.64698E-23
 -1       783 6.41411E-06-3.62982E-06 0.00000E+00
 -1       784 4.29701E-06-2.48221E-06 0.00000E+00
 -1       785 2.15266E-06-1.26096E-06 0.00000E+00
 -1       786 4.70366E-05-1.25919E-05-1.65436E-24
 -1       787 4.71523E-05-1.15703E-05-1.65436E-24
 -1       788 4.72677E-05-1.05964E-05 3.30872E-24
 -1       789 4.73842E-05-9.65254E-06 0.00000E+00
 -1       790 4.75007E-05-8.72965E-06 0.00000E+00
 -1       791 4.76175E-05-7.81863E-06 0.00000E+00
 -1       792 4.77342E-05-6.91381E-06 3.30872E-24
 -1       793 4.78510E-05-6.00956E-06 0.00000E+00
 -1       794 4.79678E-05-5.10034E-06 3.30872E-24
 -1       795 4.80846E-05-4.18065E-06 1.65436E-24
 -1       796 4.82014E-05-3.24202E-06 0.00000E+00
 -1       797 4.83181E-05-2.27584E-06-1.65436E-24
 -1       798 4.84347E-05-1.26575E-06 0.00000E+00
 -1       799 4.85508E-05-1.95161E-07 0.00000E+00
 -1       800 4.86670E-05 9.69628E-07 3.30872E-24
 -1       801 4.32079E-05-1.14172E-05 0.00000E+00
 -1       802 3.46199E-05-9.09392E-06 2.64698E-23
 -1       803 2.37414E-05-6.79813E-06-5.29396E-23
 -1       804 1.28945E-05-4.51229E-06-2.64698E-23
 -1       805 4.19413E-06-2.19711E-06 0.00000E+00
 -1       806 4.64065E-05-1.26511E-05 3.30872E-24
 -1       807 4.58975E-05-1.16662E-05-1.65436E-24
 -1       808 4.53997E-05-1.07140E-05 0.00000E+00
 -1       809 4.49101E-05-9.78486E-06 1.65436E-24
 -1       810 4.44254E-05-8.86913E-06 0.00000E+00
 -1       811 4.39420E-05-7.95723E-06 0.00000E+00
 -1       812 4.34564E-05-7.03963E-06-3.30872E-24
 -1       813 4.29651E-05-6.10680E-06 0.00000E+00
 -1       814 4.24645E-05-5.14917E-06 0.00000E+00
 -1       815 4.19509E-05-4.15722E-06 0.00000E+00
 -1       816 4.14209E-05-3.12144E-06 0.00000E+00
 -1       817 4.08708E-05-2.03227E-06-1.65436E-24
 -1       818 4.02971E-05-8.80202E-07-1.65436E-24
 -1       819 3.96964E-05 3.44237E-07 1.65436E-24
 -1       820 3.90652E-05 1.65055E-06 1.65436E-24
 -1       821 4.86541E-05 2.94619E-06 0.00000E+00
 -1       822 4.85194E-05 2.28741E-06 1.65436E-24
 -1       823 4.83845E-05 7.44260E-07 3.30872E-24
 -1       824 4.82472E-05-1.21994E-06 0.00000E+00
 -1       825 4.81103E-05-3.02771E-06 0.00000E+00
 -1       826 4.79740E-05-4.10248E-06 0.00000E+00
 -1       827 4.78382E-05-4.06757E-06 0.00000E+00
 -1       828 4.77012E-05-2.55310E-06-1.65436E-24
 -1       829 4.75611E-05 4.07602E-07 0.00000E+00
 -1       830 4.74162E-05 4.77240E-06-1.65436E-24
 -1       831 4.72667E-05 1.01166E-05-3.30872E-24
 -1       832 4.71147E-05 1.60093E-05 1.65436E-24
 -1       833 4.69628E-05 2.18702E-05 0.00000E+00
 -1       834 4.68157E-05 2.71192E-05 0.00000E+00
 -1       835 4.66727E-05 3.13421E-05 0.00000E+00
 -1       836 4.72540E-05 2.39372E-06 0.00000E+00
 -1       837 4.55362E-05 2.52730E-06 0.00000E+00
 -1       838 4.37095E-05 2.66049E-06 0.00000E+00
 -1       839 4.18565E-05 2.79282E-06-1.65436E-24
 -1       840 4.00599E-05 2.92504E-06 4.13590E-25
 -1       856 4.64901E-05 3.62874E-05 1.03398E-25
 -1       857 4.64325E-05 3.86028E-05 0.00000E+00
 -1       858 4.63749E-05 4.10529E-05-1.65436E-24
 -1       859 4.63161E-05 4.36123E-05 0.00000E+00
 -1       860 4.62570E-05 4.62556E-05 0.00000E+00
 -1       861 4.61976E-05 4.89571E-05 8.27181E-25
 -1       862 4.61381E-05 5.16909E-05 0.00000E+00
 -1       863 4.60786E-05 5.44313E-05 0.00000E+00
 -1       864 4.60191E-05 5.71523E-05 0.00000E+00
 -1       865 4.59597E-05 5.98281E-05-8.27181E-25
 -1       866 4.59005E-05 6.24329E-05 0.00000E+00
 -1       867 4.58415E-05 6.49412E-05 0.00000E+00
 -1       868 4.57828E-05 6.73276E-05 0.00000E+00
 -1       869 4.57244E-05 6.95669E-05 0.00000E+00
 -1       870 4.56664E-05 7.16342E-05-1.65436E-24
 -1       871 4.46695E-05 3.41296E-05 4.13590E-25
 -1       872 4.29397E-05 3.41250E-05 0.00000E+00
 -1       873 4.12929E-05 3.41199E-05-4.13590E-25
 -1       874 3.96684E-05 3.41141E-05-1.03398E-25
 -1       875 3.80053E-05 3.41076E-05-4.13590E-25
 -1       876 4.58667E-05 3.62987E-05 3.30872E-24
 -1       877 4.51646E-05 3.85438E-05-1.65436E-24
 -1       878 4.44370E-05 4.08573E-05-3.30872E-24
 -1       879 4.36873E-05 4.32303E-05 0.00000E+00
 -1       880 4.29185E-05 4.56539E-05-3.30872E-24
 -1       881 4.21341E-05 4.81193E-05 1.65436E-24
 -1       882 4.13372E-05 5.06176E-05 0.00000E+00
 -1       883 4.05312E-05 5.31401E-05-1.65436E-24
 -1       884 3.97194E-05 5.56779E-05 0.00000E+00
 -1       885 3.89051E-05 5.82222E-05 0.00000E+00
 -1       886 3.80916E-05 6.07643E-05-3.30872E-24
 -1       887 3.72822E-05 6.32951E-05 0.00000E+00
 -1       888 3.64801E-05 6.58061E-05 0.00000E+00
 -1       889 3.56882E-05 6.82881E-05 1.65436E-24
 -1       890 3.49099E-05 7.07324E-05 0.00000E+00
 -1       891 4.38728E-05 7.34423E-05 0.00000E+00
 -1       892 4.21100E-05 7.33793E-05 0.00000E+00
 -1       893 4.02880E-05 7.33161E-05 0.00000E+00
 -1       894 3.83742E-05 7.32530E-05 4.13590E-25
 -1       895 3.63363E-05 7.31898E-05 4.13590E-25
 -1       956 3.82698E-05 4.63213E-06 0.00000E+00
 -1       957 3.81357E-05 6.30546E-06 1.65436E-24
 -1       958 3.80010E-05 8.05959E-06 3.30872E-24
 -1       959 3.78659E-05 9.88550E-06 1.65436E-24
 -1       960 3.77307E-05 1.17742E-05-3.30872E-24
 -1       961 3.75953E-05 1.37167E-05 1.65436E-24
 -1       962 3.74598E-05 1.57037E-05 3.30872E-24
 -1       963 3.73242E-05 1.77264E-05-1.65436E-24
 -1       964 3.71886E-05 1.97755E-05 0.00000E+00
 -1       965 3.70530E-05 2.18420E-05-1.65436E-24
 -1       966 3.69174E-05 2.39168E-05 0.00000E+00
 -1       967 3.67818E-05 2.59907E-05 1.65436E-24
 -1       968 3.66462E-05 2.80548E-05 3.30872E-24
 -1       969 3.65110E-05 3.00998E-05-1.65436E-24
 -1       970 3.63762E-05 3.21168E-05 0.00000E+00
 -1       971 3.61144E-05 3.61165E-05 0.00000E+00
 -1       972 3.59835E-05 3.82560E-05 0.00000E+00
 -1       973 3.58522E-05 4.05024E-05-3.30872E-24
 -1       974 3.57204E-05 4.28418E-05 1.65436E-24
 -1       975 3.55885E-05 4.52604E-05 0.00000E+00
 -1       976 3.54563E-05 4.77443E-05 0.00000E+00
 -1       977 3.53241E-05 5.02798E-05 3.30872E-24
 -1       978 3.51917E-05 5.28530E-05 0.00000E+00
 -1       979 3.50593E-05 5.54499E-05 3.30872E-24
 -1       980 3.49268E-05 5.80567E-05 0.00000E+00
 -1       981 3.47945E-05 6.06595E-05 3.30872E-24
 -1       982 3.46622E-05 6.32444E-05 0.00000E+00
 -1       983 3.45302E-05 6.57975E-05-3.30872E-24
 -1       984 3.43989E-05 6.83050E-05 1.65436E-24
 -1       985 3.42682E-05 7.07530E-05 3.30872E-24
 -3
    1PSTEP                        30          15           1          
  100CL  115 7.61719E-01         409                     0   15           1
 -4  STRESS      6    1
 -5  SXX         1    4    1    1
 -5  SYY         1    4    2    2
 -5  SZZ         1    4    3    3
 -5  SXY         1    4    1    2
 -5  SYZ         1    4    2    3
 -5  SZX         1    4    3    1
 -1         1-1.40766E+06-8.96588E+05-2.49037E+05-1.60693E+06 1.30240E-09 1.56819E-07
 -1         2 3.32402E+05 3.79411E+06 1.31952E+06-1.60921E+06-1.90048E-08-4.72683E-07
 -1         3-2.08176E+01 9.56848E+05-1.53279E+02-8.24951E+01 5.09894E-11-5.68389E-09
 -1         5-8.34181E+01 3.86247E+05 1.01652E+01 1.41277E+00 5.57991E-10-4.56021E-09
 -1         8 2.64492E+05-3.24221E+05 4.03255E+05-1.37919E+06-7.93079E-10-2.15790E-07
 -1         9 1.66484E+07 1.60752E+07 4.76048E+06 1.36856E+07-4.33065E-09 1.30711E-07
 -1        10 7.93649E+02 9.97078E+05 3.31586E+03-5.96812E+02 7.65340E-10 8.47403E-09
 -1        12-7.94440E+01 3.86269E+05 3.34620E+02 9.61080E+00 6.49237E-10-5.38239E-09
 -1        15 4.38284E+03 2.40882E+03 1.41679E+04 1.82790E+01-1.56723E-09-2.44043E-08
 -1        16 2.27986E+07 2.39712E+07 6.42445E+06 2.32191E+07 2.66203E-08 1.89990E-07
 -1        17 2.58701E+07 2.76919E+05 3.69966E+06-2.69354E+06 1.78557E-08-4.64112E-08
 -1        18 7.13537E+05 1.66603E+05 1.46400E+05-7.59083E+04 3.27532E-09 9.18135E-10
 -1        19 1.18343E+05 1.46596E+05-2.64076E+02 2.37924E+04-2.05146E-09 1.31477E-09
 -1        20-3.46247E+04-5.59565E+05-1.22463E+05 4.85854E+04 7.48575E-09-2.38348E-09
 -1        21-5.40246E+01-3.40109E+05-1.11475E+03-4.17432E+02-3.01734E-08-4.80261E-09
 -1        24 4.13645E+07-9.70315E+05 5.42524E+06-4.79466E+06 1.12894E-07 3.18347E-08
 -1        25 3.61968E+05 1.41927E+06 3.66949E+05-1.21094E+05 6.83394E-10 1.03231E-08
 -1        26-9.01893E+03 1.06134E+05-1.59640E+04-2.33020E+04 2.60188E-09 4.52724E-09
 -1        27-9.45452E+04-3.08738E+05-1.16458E+05 7.01551E+04 1.10825E-08 8.59776E-10
 -1        28 2.67893E+04-9.20545E+04 1.91536E+04 3.28930E+04 7.40184E-09-1.59445E-09
 -1        32-4.92409E+05 3.33907E+06 1.33867E+06-7.53859E+05-2.73576E-09 6.37683E-08
 -1        33-1.72011E+05 9.38978E+04 3.29254E+04-6.37566E+04 3.80510E-09 1.88538E-09
 -1        34-2.31664E+05-2.21938E+04 4.39142E+02 6.82402E+04 1.04947E-08-8.08238E-10
 -1        35-2.70775E+04-3.65275E+04-1.43764E+03 5.92917E+04 1.31660E-08-1.75472E-09
 -1        51-4.01044E+03-8.91862E+05 1.45980E+04-1.90122E+06-1.77533E-09 3.36004E-07
 -1        52 1.61416E+04-9.13057E+05 2.12867E+04-2.21833E+06 4.94765E-10 1.63825E-07
 -1        53 2.28175E+04-9.47681E+05 2.97281E+04-1.89443E+06 2.76486E-09 1.56346E-07
 -1        54 5.88782E+04-9.57414E+05 6.35998E+04-2.22483E+06-2.03727E-10-1.46218E-07
 -1        55 9.63710E+04-9.86027E+05 1.21479E+05-1.89277E+06-3.49246E-10 5.04326E-07
 -1        56-2.80140E+06-3.19522E+05-1.75960E+05-1.05340E+06-3.60887E-08 3.70223E-07
 -1        57-2.75892E+06-5.72345E+05-1.15719E+05-1.15973E+06 8.64745E-08 3.08421E-07
 -1        58-2.84799E+06-3.58844E+05-4.16395E+04-1.02535E+06-1.62745E-08-2.11870E-07
 -1        59-2.70512E+06-5.28924E+05-2.40522E+04-1.20164E+06-4.83469E-08 1.20107E-07
 -1        60-2.85880E+06-3.58505E+05-9.61288E+03-1.01493E+06-1.60298E-10 3.65538E-07
 -1        61-2.69587E+06-5.25666E+05-5.57428E+03-1.21148E+06 7.20798E-08-1.69358E-07
 -1        62-2.85843E+06-3.61042E+05-3.16807E+03-1.01645E+06-3.78586E-08-5.25898E-07
 -1        63-2.70211E+06-5.13895E+05-2.61472E+03-1.19619E+06-8.70150E-08 1.13649E-07
 -1        64-2.85027E+06-3.71737E+05-5.54463E+03-1.02864E+06-3.58887E-09 4.42597E-08
 -1        65-2.72210E+06-4.89885E+05-8.35465E+03-1.16012E+06-1.09948E-07 1.28620E-07
 -1        66-2.83408E+06-3.87952E+05-2.00551E+04-1.04939E+06-2.50020E-08 1.05792E-08
 -1        67-2.76452E+06-4.68720E+05-4.34328E+04-1.10885E+06-4.06426E-08-1.87189E-07
 -1        68-2.80421E+06-3.95775E+05-8.00883E+04-1.07694E+06-1.58007E-08 3.03116E-08
 -1        69-2.88273E+06-5.46729E+05-2.18557E+05-1.03462E+06-7.23421E-08 3.55503E-08
 -1        70-2.71574E+06-3.13867E+05-3.31319E+05-1.12155E+06-2.88492E-08 2.78727E-07
 -1        86-3.40726E+05-6.16241E+06-7.51058E+05 7.79858E+05 1.46333E-07-9.08040E-08
 -1        87 4.51038E+05-1.91622E+05 5.64233E+05-1.91388E+06 2.18799E-07 2.28471E-07
 -1        88-4.64594E+04-2.61867E+06-2.87745E+04 1.11849E+06 1.85828E-07-3.47747E-07
 -1        89 5.35078E+05-6.05905E+05 3.68681E+05-2.02051E+06 3.23073E-07-2.35865E-07
 -1        90-3.73931E+05-5.79841E+06-1.01779E+06 8.94752E+05 9.32487E-08 4.30598E-07
 -1       121-1.53647E+00 9.56939E+05-1.85303E+02 4.12500E+01-1.46848E-10-2.83580E-09
 -1       122-9.15985E+01 9.56802E+05-3.45108E+02-1.65157E+02 2.59458E-10-6.50471E-09
 -1       123 5.00217E+01 9.56986E+05-5.85800E+02 1.23930E+02-3.81732E-10-5.52882E-09
 -1       124-9.65920E+02 9.56273E+05-1.51588E+03-2.97927E+02 5.00791E-10-4.02019E-09
 -1       125 6.15612E+02 9.57470E+05-2.17788E+03 1.74231E+02-3.15822E-10 7.82165E-11
 -1       191-8.78770E+01 3.86264E+05 8.30058E+00-7.39879E-01 5.92483E-10-1.26183E-08
 -1       192-8.44040E+01 3.86248E+05 2.17090E+01 4.52533E+00 8.29138E-10-1.98261E-08
 -1       193-9.04700E+01 3.86263E+05 3.66285E+01-3.99027E+00 9.82325E-10 1.35333E-09
 -1       194-8.75641E+01 3.86251E+05 8.25688E+01 1.02713E+01 5.16266E-10 1.54014E-08
 -1       195-9.54464E+01 3.86261E+05 1.57750E+02-6.70929E+00 1.56700E-09 7.98173E-09
 -1       251 8.77384E+06-4.18487E+05 9.77072E+05 1.12935E+05 2.03436E-08-8.53906E-08
 -1       252 9.24647E+06 4.84036E+05 6.96514E+05-2.44296E+05 1.35608E-08 1.09780E-07
 -1       253 8.96273E+06-6.32759E+04 2.55264E+05-3.93412E+04-1.33037E-08-4.68121E-07
 -1       254 9.03088E+06 7.40447E+04 1.59358E+05-7.62548E+04-4.28727E-09-5.63974E-07
 -1       255 8.98949E+06-9.45624E+03 6.59858E+04-5.50455E+04 1.28807E-08 5.44009E-07
 -1       256 9.00048E+06 1.18649E+04 3.92686E+04-5.89428E+04-2.13285E-08 3.15504E-07
 -1       257 8.99388E+06-1.30007E+03 1.96302E+04-5.66584E+04 5.30211E-09-1.07469E-07
 -1       258 8.99604E+06 3.32279E+03 1.58478E+04-5.74430E+04-2.28014E-08 1.81451E-07
 -1       259 8.99410E+06-9.38508E+02 1.65515E+04-5.65465E+04 1.78277E-08 2.43541E-07
 -1       260 8.99881E+06 8.73231E+03 3.03021E+04-6.02398E+04-1.39432E-08 9.38894E-08
 -1       261 8.99101E+06-6.69448E+03 5.00213E+04-5.38607E+04-6.44390E-09-2.41034E-08
 -1       262 9.02112E+06 5.34478E+04 1.19158E+05-8.86954E+04-7.68841E-09-5.94591E-08
 -1       263 8.97126E+06-4.55300E+04 1.91897E+05-2.80877E+04 1.89600E-08 4.16505E-07
 -1       264 9.23680E+06 3.63235E+05 5.32393E+05-3.61860E+05-3.76804E-08 4.91491E-08
 -1       265 8.77878E+06-3.17315E+05 7.21092E+05 2.19249E+05 1.15306E-08 5.54399E-07
 -1       266-7.93333E+04-3.70698E+04 1.86273E+05-3.91350E+02-6.76664E-10-2.77641E-07
 -1       267 9.19805E+04 4.32485E+04 1.31588E+05 4.51246E+02-2.93949E-09-3.97256E-07
 -1       268-1.23339E+04-6.12285E+03 4.89144E+04-5.75130E+01-3.40333E-09-4.64554E-07
 -1       269 1.45634E+04 7.33035E+03 3.17899E+04 6.69763E+01-3.23644E-09 2.81174E-07
 -1       270-2.18597E+03-1.20431E+03 1.53456E+04-9.08991E+00-2.88537E-09 5.01397E-08
 -1       271-8.74724E+06-1.10398E+06-7.04292E+05-3.42507E+06 4.92582E-09-1.27446E-07
 -1       272-8.88644E+06-1.69469E+06-4.48011E+05-3.51181E+06-7.88350E-09 4.39104E-08
 -1       273-8.91348E+06-1.24012E+06-1.67592E+05-3.35482E+06 5.17612E-08-1.15826E-07
 -1       274-8.69250E+06-1.53405E+06-9.11925E+04-3.63602E+06-5.00295E-08-3.18349E-07
 -1       275-8.95566E+06-1.23031E+06-3.87860E+04-3.32268E+06 3.67872E-08 4.76170E-07
 -1       276-8.65336E+06-1.54001E+06-2.01101E+04-3.68826E+06-3.59705E-09 4.96048E-07
 -1       277-8.96605E+06-1.22275E+06-1.01510E+04-3.31311E+06 6.10873E-09-2.14195E-07
 -1       278-8.65292E+06-1.53486E+06-8.07401E+03-3.68451E+06-5.51590E-08-3.45082E-07
 -1       279-8.95473E+06-1.23608E+06-1.15476E+04-3.32559E+06-9.45874E-09-3.42756E-07
 -1       280-8.67986E+06-1.50097E+06-1.96186E+04-3.62851E+06-7.10788E-08 4.25716E-08
 -1       281-8.92337E+06-1.26697E+06-4.22767E+04-3.35801E+06 4.87635E-08-2.55459E-07
 -1       282-8.75091E+06-1.45999E+06-9.15384E+04-3.53234E+06-7.53025E-08 3.61018E-07
 -1       283-8.86544E+06-1.29146E+06-1.72512E+05-3.40718E+06 1.90630E-08-2.63040E-07
 -1       284-8.98122E+06-1.59741E+06-4.53978E+05-3.38884E+06-6.67260E-08-7.57376E-07
 -1       285-8.68945E+06-1.15708E+06-7.14571E+05-3.48625E+06-3.81224E-08-3.10276E-07
 -1       301-5.95934E+04 4.04683E+05-2.66039E+04 1.49244E+06-5.29690E-09-2.24827E-07
 -1       302-6.28426E+04 4.06313E+05 1.07213E+04 2.18700E+06 5.38421E-09 2.45549E-07
 -1       303-4.07798E+04 3.80757E+05 4.76041E+04 1.49001E+06-1.98634E-09 5.28536E-07
 -1       304-3.36033E+04 4.48126E+05 1.21800E+05 2.18592E+06-1.60071E-10 3.82410E-07
 -1       305-3.30127E+04 3.86243E+05 2.17660E+05 1.49444E+06 2.91038E-10 3.63492E-07
 -1       306-3.47383E+07-3.60436E+07-1.91671E+07-2.27454E+07 1.83587E-07 9.23756E-08
 -1       307 1.32880E+07 7.41406E+07 1.43158E+07 2.84727E+07 1.28738E-06-6.28061E-07
 -1       308-4.93183E+05-2.41213E+07-5.17749E+06-3.70883E+05 7.02712E-08-1.38418E-07
 -1       309-1.07547E+07 3.31365E+07 5.34488E+06-2.76672E+07-2.06812E-07 5.12518E-07
 -1       310 3.64402E+06-1.16872E+07-4.52182E+05 3.32921E+06-2.38069E-08 1.71305E-07
 -1       311-4.49283E+06 6.15124E+07 1.02681E+07 7.27409E+06-7.93865E-07 6.90576E-07
 -1       312-1.97507E+07-3.85363E+07-1.41638E+07-1.86936E+07-1.64146E-07-3.14554E-07
 -1       313 7.79436E+07 4.06721E+07 1.94436E+07 5.06341E+07 3.13157E-08-3.22063E-07
 -1       314-5.50311E+07-1.17968E+07-1.66358E+07-9.35403E+06-1.62399E-07-4.03670E-08
 -1       315 8.06470E+07 3.20353E+06 1.42447E+07-1.57985E+07 4.96861E-07 2.38884E-07
 -1       316-1.74887E+07-7.37038E+06-4.94873E+06 1.08619E+07 7.92090E-07 8.40169E-07
 -1       317-6.08306E+06 2.84329E+07 5.34127E+06-3.04950E+07-1.10417E-06 1.97440E-07
 -1       318-3.55401E+06-4.39106E+06-6.81077E+05 8.19946E+06 8.39180E-07 1.82699E-07
 -1       319 4.68383E+07 1.28702E+07 1.02273E+07-2.88365E+07 1.26107E-07 3.46976E-07
 -1       320-5.04658E+07-1.10372E+07-1.63950E+07 2.96006E+06-1.51806E-07-2.72994E-08
 -1       336-1.04384E+03 1.03582E+06 9.43541E+03 4.23031E+02 1.74600E-09 2.02272E-09
 -1       337 3.66383E+03 1.03923E+06 1.49097E+04-9.48225E+02 3.34853E-09-4.02451E-10
 -1       338-1.97571E+03 1.03495E+06 2.35403E+04 5.24880E+02 2.38833E-09 1.65301E-09
 -1       339 2.64977E+04 1.05306E+06 5.59981E+04-1.16434E+03 4.40559E-09-5.83304E-09
 -1       340-1.88214E+04 1.02197E+06 8.74487E+04 6.30763E+02 3.02316E-09-2.83535E-09
 -1       406-5.76389E+01 3.86246E+05 6.56679E+02-3.54273E+00 2.14931E-09 8.08177E-09
 -1       407 1.51334E+02 3.86385E+05 1.40411E+03-2.46922E+01 4.43379E-10 2.10930E-08
 -1       408 6.40713E+02 3.86144E+05 2.79925E+03 2.85167E+01 2.68892E-09 9.33687E-09
 -1       409 2.95889E+03 3.87279E+05 6.31000E+03-3.04454E+02 2.61025E-10-4.70936E-09
 -1       410 8.64351E+03 3.85337E+05 1.28782E+04 2.93868E+02 2.54295E-09 3.03407E-09
 -1       521-3.42568E+07-3.56879E+07-1.99300E+07-2.02009E+07-7.79983E-08 1.97906E-08
 -1       522 1.03996E+07 7.46412E+07 1.33779E+07 2.73068E+07 8.91800E-07-5.80796E-07
 -1       523-9.38999E+05-2.26294E+07-4.90222E+06-3.93129E+05 4.22093E-07 3.74392E-07
 -1       524-1.23079E+07 3.14588E+07 5.07103E+06-3.09355E+07-4.34004E-07 1.24017E-06
 -1       525 3.44265E+06-1.18453E+07-2.59938E+05 2.79344E+06-3.00264E-07 8.05652E-07
 -1       526-6.87983E+06 6.24842E+07 9.81788E+06 5.39090E+06 8.85630E-08 2.01631E-07
 -1       527-2.04034E+07-3.72217E+07-1.46884E+07-1.67802E+07-5.21191E-07 1.67056E-07
 -1       528 7.83278E+07 3.97500E+07 1.83463E+07 5.17903E+07-5.35976E-07-2.54891E-07
 -1       529-5.25455E+07-1.36614E+07-1.73658E+07-8.05576E+06 5.54137E-08-8.20437E-08
 -1       530 7.92828E+07 2.61119E+06 1.33911E+07-1.82518E+07 4.58444E-07-7.03731E-08
 -1       531-1.65629E+07-7.35925E+06-4.70411E+06 1.00234E+07 5.87374E-07 3.28699E-07
 -1       532-1.10420E+07 3.02830E+07 5.07946E+06-3.14888E+07-1.25050E-06 3.69764E-07
 -1       533-4.09976E+06-4.15279E+06-4.92187E+05 7.99827E+06-9.47039E-07 7.52130E-07
 -1       534 4.45164E+07 1.36876E+07 9.72793E+06-3.12614E+07 7.35483E-07-5.74160E-07
 -1       535-4.80246E+07-1.27870E+07-1.70358E+07 2.85690E+06 1.55298E-07-4.54893E-07
 -1       536 2.53645E+06-9.50742E+04 2.20376E+05-4.37173E+03-1.89758E-08-2.06637E-09
 -1       537 2.63180E+06 1.10097E+05 1.55845E+05-1.84472E+03 4.02629E-09-4.71300E-09
 -1       538 2.57331E+06-1.49042E+04 5.71186E+04-3.24642E+03-9.87413E-10-2.98314E-09
 -1       539 2.58899E+06 1.72605E+04 3.59453E+04-3.05504E+03-1.45394E-08 1.35969E-09
 -1       540 2.57941E+06-2.33109E+03 1.47729E+04-3.16181E+03-3.11334E-06 2.66027E-09
 -1       541 2.58194E+06 2.75494E+03 8.92733E+03-3.14658E+03-6.23312E-06 9.16316E-10
 -1       542 2.58041E+06-4.10595E+02 4.57344E+03-3.15496E+03-9.13284E-06-1.30735E-08
 -1       543 2.58095E+06 8.25272E+02 4.00472E+03-3.15663E+03-1.20082E-05-1.11158E-08
 -1       544 2.58042E+06-4.02763E+02 4.50663E+03-3.15179E+03-6.02121E-06-9.61438E-09
 -1       545 2.58190E+06 2.68768E+03 8.73288E+03-3.19707E+03-2.22322E-08 1.65539E-09
 -1       546 2.57944E+06-2.27170E+03 1.44257E+04-3.11450E+03 1.73484E-09 5.82077E-11
 -1       547 2.58877E+06 1.68211E+04 3.50714E+04-3.75821E+03 5.77791E-09-6.85759E-10
 -1       548 2.57350E+06-1.45246E+04 5.57364E+04-2.59057E+03 4.98119E-09-1.76806E-09
 -1       549 2.63117E+06 1.07473E+05 1.52190E+05-1.16630E+04-4.46661E-10-2.17551E-09
 -1       550 2.53691E+06-9.28378E+04 2.14884E+05 4.78987E+03-4.15531E-09 1.13505E-09
 -1       551-8.59043E+03-2.40283E+05-2.97495E+04-1.45099E+06-3.46699E-09 1.84809E-09
 -1       552 1.12321E+04-2.62234E+05 5.12113E+03-2.06602E+06-9.38599E-09 6.78119E-09
 -1       553 1.10780E+04-2.63940E+05 3.81970E+04-1.44772E+06-9.93896E-09 3.33239E-09
 -1       554 3.78191E+04-2.30989E+05 1.00872E+05-2.06547E+06-5.25324E-09-3.60524E-09
 -1       555 2.47954E+04-2.61066E+05 1.83509E+05-1.45178E+06-1.76078E-09-9.16771E-10
 -1       556-6.90141E+04-5.58126E+04-1.97933E+04-8.09981E+04-3.41197E-09-2.60843E-09
 -1       557-5.95702E+04-6.85902E+04-1.02962E+04-9.90017E+04-3.45676E-09 7.08269E-10
 -1       558-7.06153E+04-5.21960E+04-4.34366E+03-8.30387E+04-1.27329E-10 3.81237E-09
 -1       559-5.70355E+04-6.61475E+04-2.14075E+03-9.91961E+04-2.99397E-09 8.08541E-10
 -1       560-7.07287E+04-5.21364E+04-9.82962E+02-8.31018E+04-6.50471E-09-9.80162E-09
 -1       561-5.68157E+04-6.60806E+04-4.83920E+02-9.91394E+04-4.03315E-09 4.92309E-09
 -1       562-7.06828E+04-5.21927E+04-2.45139E+02-8.30598E+04-4.25644E-09 5.65706E-10
 -1       563-5.66835E+04-6.61318E+04-1.46035E+02-9.90524E+04 4.79304E-10 1.02364E-08
 -1       564-7.05702E+04-5.22662E+04-1.40870E+02-8.29840E+04 4.01451E-09 3.26963E-09
 -1       565-5.65061E+04-6.62051E+04-1.85145E+02-9.89236E+04 3.59250E-10 5.55883E-09
 -1       566-7.04050E+04-5.23709E+04-3.62677E+02-8.28811E+04-3.79077E-09-9.05675E-09
 -1       567-5.63337E+04-6.63092E+04-6.98840E+02-9.87301E+04 1.61344E-09-3.00679E-09
 -1       568-7.01318E+04-5.25453E+04-1.44204E+03-8.27437E+04 1.17143E-09-1.17871E-08
 -1       569-5.72230E+04-6.68004E+04-3.28031E+03-9.80066E+04 5.36966E-09-4.81668E-09
 -1       570-6.90232E+04-5.41849E+04-6.35896E+03-8.23771E+04 5.56247E-09 4.93310E-09
 -1       571 2.68829E+05 8.71891E+03 1.31051E+04-5.94279E+04-2.78487E-09-4.27644E-09
 -1       572 2.70782E+05 2.94396E+03 6.42136E+03-6.50983E+04-2.36878E-09-6.40057E-09
 -1       573 2.69595E+05 6.15735E+02 2.85229E+03-5.92395E+04-1.10331E-08-7.19410E-10
 -1       574 2.69828E+05 1.15344E+02 1.42930E+03-6.52961E+04-2.31175E-08-1.96178E-09
 -1       575 2.69668E+05-7.57811E+01 6.73042E+02-5.92155E+04-8.27504E-09-1.10276E-09
 -1       576 2.69686E+05-1.06328E+02 3.41863E+02-6.53224E+04 4.13638E-09 1.46429E-09
 -1       577 2.69671E+05-1.07234E+02 1.66553E+02-5.92123E+04 3.98103E-09 4.26280E-09
 -1       578 2.69666E+05-1.13132E+02 8.71567E+01-6.53256E+04 4.52496E-09 7.31052E-09
 -1       579 2.69680E+05-1.06312E+02 4.64008E+01-5.92123E+04-2.46473E-10 5.21641E-09
 -1       580 2.69680E+05-1.19282E+02 3.17868E+01-6.53225E+04 3.91537E-09 4.43015E-09
 -1       581 2.69705E+05-1.17343E+02 2.99687E+01-5.92154E+04-1.30785E-09-4.36103E-10
 -1       582 2.69721E+05-1.31542E+02 4.77584E+01-6.52910E+04-1.75123E-09 6.98128E-09
 -1       583 2.69746E+05-1.20967E+02 8.41317E+01-5.92437E+04 6.16001E-09 3.59455E-09
 -1       584 2.69804E+05-7.59187E+01 1.86932E+02-6.50523E+04 1.13905E-08-9.71795E-09
 -1       585 2.69778E+05 8.84740E+01 3.74391E+02-5.94543E+04 1.03510E-08 2.05546E-10
 -1       586-4.34243E+03 8.07994E+04-6.60147E+03-1.79601E+05 3.30601E-09-7.71706E-10
 -1       587-8.69373E+02 7.97876E+04-1.97733E+03-1.97505E+05 4.59477E-09-5.79803E-12
 -1       588 9.24572E+02 8.01850E+04 1.64436E+03-1.79430E+05 2.80852E-09 3.83716E-09
 -1       589 3.89227E+03 8.13521E+04 6.50857E+03-1.97448E+05 5.92809E-09-2.14231E-09
 -1       590 1.04420E+04 7.93121E+04 1.45298E+04-1.79637E+05 3.53862E-09-3.23962E-09
 -1       591-5.79360E+04-1.88090E+04-2.07776E+04-3.27328E+04 2.87525E-09 1.81353E-09
 -1       592-5.91933E+04-2.45966E+04-1.12535E+04-3.89222E+04-7.38964E-11-4.82260E-10
 -1       593-6.00491E+04-1.72673E+04-4.68543E+03-3.42273E+04-3.23098E-10-2.71712E-10
 -1       594-5.62918E+04-2.15866E+04-2.33647E+03-3.90837E+04 5.16138E-10-2.95535E-09
 -1       595-6.02134E+04-1.72577E+04-1.07396E+03-3.42975E+04-6.71434E-10 2.67138E-09
 -1       596-5.60982E+04-2.14480E+04-5.47351E+02-3.90663E+04-6.05496E-10 1.81694E-09
 -1       597-6.02350E+04-1.72701E+04-3.01536E+02-3.43008E+04-1.12294E-10 1.67881E-09
 -1       598-5.60799E+04-2.14427E+04-2.48778E+02-3.90609E+04 4.49120E-10-2.08797E-09
 -1       599-6.02327E+04-1.72707E+04-3.26014E+02-3.42999E+04-1.97520E-09-3.98131E-10
 -1       600-5.60988E+04-2.14506E+04-6.12039E+02-3.90643E+04-4.47722E-09-5.69185E-09
 -1       601-6.02042E+04-1.72580E+04-1.21127E+03-3.42942E+04 1.91790E-09 7.71456E-09
 -1       602-5.63160E+04-2.16078E+04-2.64096E+03-3.90803E+04 5.29326E-10 1.79125E-09
 -1       603-6.00156E+04-1.72720E+04-5.29805E+03-3.42146E+04-2.52430E-09-2.12003E-09
 -1       604-5.96026E+04-2.50028E+04-1.27246E+04-3.88849E+04-3.90992E-09-4.70800E-09
 -1       605-5.76149E+04-1.90220E+04-2.34934E+04-3.25318E+04-4.49973E-10-4.65661E-10
 -1       606 4.56997E+04-1.29785E+04-2.34417E+04 4.50130E+04 9.92986E-09 1.88084E-09
 -1       607 4.16741E+04-4.13933E+03-1.16702E+04 5.05148E+04 3.61470E-08-8.58108E-10
 -1       608 4.39183E+04-6.55849E+02-5.23109E+03 4.46452E+04 2.68883E-08-3.03726E-09
 -1       609 4.34382E+04-9.67493E+01-2.64027E+03 5.09073E+04-8.18545E-10-4.13365E-10
 -1       610 4.36616E+04 1.14728E+02-1.26492E+03 4.46044E+04-7.21229E-09 2.58433E-09
 -1       611 4.35455E+04 1.66174E+02-6.37222E+02 5.09498E+04-1.87028E-08-2.78487E-09
 -1       612 4.35658E+04 1.60188E+02-3.08010E+02 4.46004E+04 1.22964E-09 2.23781E-09
 -1       613 4.35016E+04 2.00419E+02-1.41296E+02 5.09545E+04 6.91216E-09-2.81125E-09
 -1       614 4.35034E+04 1.81095E+02-4.44667E+01 4.45991E+04 8.45466E-09-2.15186E-09
 -1       615 4.34537E+04 2.25555E+02 3.45835E+01 5.09549E+04 1.23473E-08 4.52792E-09
 -1       616 4.34566E+04 2.03616E+02 1.25867E+02 4.45995E+04 1.91540E-09 3.73393E-09
 -1       617 4.34373E+04 2.71270E+02 2.97436E+02 5.09537E+04 1.50408E-08 2.59206E-11
 -1       618 4.34077E+04 3.03870E+02 6.02367E+02 4.45995E+04-1.96633E-09-8.33552E-10
 -1       619 4.36310E+04 7.48742E+02 1.35525E+03 5.09522E+04-2.00307E-08-5.05224E-10
 -1       620 4.31958E+04 1.74217E+03 2.72417E+03 4.45956E+04-8.21274E-09-4.59295E-11
 -1       621 6.81589E+02 3.15331E+05 5.51514E+03-3.47763E+03-9.19272E-10 3.12070E-09
 -1       622 7.54358E+02 3.16702E+05 4.31108E+03-4.87557E+03-1.21381E-09 5.04571E-09
 -1       623 3.87916E+01 3.15780E+05 4.47335E+03-3.46144E+03-1.17677E-09 9.43476E-09
 -1       624 1.91252E+03 3.17766E+05 8.07261E+03-4.89621E+03-8.90395E-10 7.55446E-09
 -1       625 1.90794E+03 3.14264E+05 1.38346E+04-3.45376E+03-1.02318E-09 1.35122E-09
 -1       626 2.40543E+05 7.14238E+04 4.34494E+03 1.36686E+05-5.40786E-09-6.63567E-09
 -1       627 2.36624E+05 7.45567E+04 2.09570E+03 1.42485E+05-4.24916E-09 2.76350E-09
 -1       628 2.40721E+05 6.93225E+04 8.82070E+02 1.37260E+05 8.90941E-09 9.47102E-09
 -1       629 2.35893E+05 7.41380E+04 4.34401E+02 1.42811E+05 8.16817E-09-4.01837E-09
 -1       630 2.40704E+05 6.92380E+04 1.99460E+02 1.37251E+05 1.78916E-08-1.15997E-08
 -1       631 2.35777E+05 7.41456E+04 1.09191E+02 1.42797E+05 2.66409E-08-1.40301E-08
 -1       632 2.40667E+05 6.92595E+04 7.35589E+01 1.37225E+05 2.96222E-09-1.21171E-08
 -1       633 2.35738E+05 7.41625E+04 8.63680E+01 1.42772E+05-1.37970E-08-3.38468E-09
 -1       634 2.40636E+05 6.92691E+04 1.42203E+02 1.37208E+05 6.58565E-09 1.35801E-08
 -1       635 2.35730E+05 7.41709E+04 2.90986E+02 1.42761E+05 2.08274E-09 2.26973E-08
 -1       636 2.40611E+05 6.92733E+04 5.88059E+02 1.37198E+05-1.09535E-08-2.80124E-10
 -1       637 2.35843E+05 7.42671E+04 1.29263E+03 1.42750E+05 9.88143E-09 1.67856E-08
 -1       638 2.40559E+05 6.95623E+04 2.65639E+03 1.37062E+05-1.16557E-09 4.07454E-10
 -1       639 2.37232E+05 7.62111E+04 6.28357E+03 1.42341E+05-1.11118E-08-2.98405E-09
 -1       640 2.40386E+05 7.53349E+04 1.30390E+04 1.34598E+05-4.40150E-09-2.31375E-09
 -1       656 6.76776E+04-1.70267E+06-1.63306E+05 1.94750E+03 1.81899E-09-7.86372E-10
 -1       657-8.93924E+04-1.77622E+06-1.34918E+05 1.34684E+04-4.43197E-09-1.00621E-09
 -1       658 2.13961E+04-1.72368E+06-8.25973E+04-6.89387E+02 5.10681E-10-4.10736E-10
 -1       659-9.53785E+04-1.77908E+06-1.42778E+05 1.50966E+04 9.89530E-10 9.03908E-10
 -1       660 7.36532E+04-1.69981E+06-1.76801E+05 3.19310E+02 1.12050E-09-1.42214E-09
 -1       661 2.80756E+05 3.11717E+04 2.62269E+04 1.10092E+05 4.48017E-09-1.57524E-09
 -1       662 2.94194E+05 5.19610E+04 1.76720E+04 1.05789E+05 6.02313E-09-1.92358E-09
 -1       663 2.85912E+05 3.95786E+04 6.18220E+03 1.08592E+05 1.92608E-09 1.74714E-09
 -1       664 2.88221E+05 4.21282E+04 3.69602E+03 1.07622E+05-1.73509E-09-4.00433E-09
 -1       665 2.86692E+05 4.07279E+04 1.45763E+03 1.08365E+05-4.82970E-09-3.48450E-09
 -1       666 2.87298E+05 4.08145E+04 8.49346E+02 1.07920E+05-1.43453E-08 4.75198E-09
 -1       667 2.86830E+05 4.08574E+04 4.46190E+02 1.08307E+05 4.12967E-11-4.05846E-09
 -1       668 2.87141E+05 4.07235E+04 4.44397E+02 1.08011E+05 7.45379E-09-1.40983E-09
 -1       669 2.86848E+05 4.08156E+04 5.92473E+02 1.08276E+05-8.14936E-10 3.53347E-09
 -1       670 2.87268E+05 4.10565E+04 1.28237E+03 1.08033E+05 1.61801E-08 1.27079E-09
 -1       671 2.86703E+05 4.05305E+04 2.27376E+03 1.08282E+05 3.84219E-10-1.40460E-09
 -1       672 2.88572E+05 4.32881E+04 5.81526E+03 1.07737E+05-7.75442E-09-3.45824E-09
 -1       673 2.85551E+05 3.86394E+04 9.74432E+03 1.08551E+05-5.23391E-09-4.84124E-09
 -1       674 2.97831E+05 5.89552E+04 2.78649E+04 1.05029E+05 1.78761E-09-4.14866E-09
 -1       675 2.77503E+05 2.53007E+04 4.13620E+04 1.10824E+05 1.55160E-09-5.05679E-10
 -1       676 2.92112E+01-3.40013E+05-1.34357E+03 2.08723E+02-5.03300E-09 1.85298E-09
 -1       677-3.54475E+02-3.40341E+05-2.45902E+03-4.17039E+02-1.81900E-08 3.38495E-09
 -1       678 2.38516E+02-3.39782E+05-4.34696E+03 2.08175E+02-5.22436E-09-7.26644E-10
 -1       679-4.34633E+03-3.42965E+05-1.03268E+04-4.15129E+02-1.38607E-08-1.12425E-09
 -1       680 2.59580E+03-3.37390E+05-1.66432E+04 2.04401E+02 2.67119E-09 1.63305E-09
 -1       771-3.69885E+06-5.12142E+05-1.87286E+05-1.34752E+06-2.14641E-09-3.36149E-09
 -1       772-3.75451E+06-5.19622E+05-1.01432E+05-1.35174E+06 3.29965E-09-2.76486E-09
 -1       773-3.71680E+06-4.99428E+05-4.21981E+04-1.36210E+06 6.15182E-09-2.84672E-09
 -1       774-3.72992E+06-4.90821E+05-2.09772E+04-1.35151E+06-2.26464E-09-2.09047E-09
 -1       775-3.71797E+06-4.99659E+05-9.59841E+03-1.36320E+06-5.44242E-09-4.83760E-09
 -1       776-3.72895E+06-4.88841E+05-4.70230E+03-1.35069E+06 1.00408E-09 1.89175E-10
 -1       777-3.71799E+06-4.99989E+05-2.28601E+03-1.36363E+06 5.13137E-09 4.14047E-09
 -1       778-3.72943E+06-4.88210E+05-1.25102E+03-1.35015E+06-1.06411E-09-7.11452E-10
 -1       779-3.71789E+06-5.00177E+05-9.11939E+02-1.36397E+06 2.51021E-10 1.14187E-09
 -1       780-3.72998E+06-4.87749E+05-1.10195E+03-1.34978E+06-7.27596E-11 1.50749E-09
 -1       781-3.71777E+06-5.00283E+05-1.88650E+03-1.36422E+06 2.31375E-09-2.31466E-09
 -1       782-3.73071E+06-4.87643E+05-3.93474E+03-1.34955E+06 3.14503E-09-3.27941E-09
 -1       783-3.71745E+06-5.00368E+05-7.83150E+03-1.36428E+06 7.56972E-09 9.49603E-09
 -1       784-3.73574E+06-4.92569E+05-1.88001E+04-1.34924E+06 1.84787E-09-2.31739E-09
 -1       785-3.71402E+06-5.02857E+05-3.47043E+04-1.36181E+06 1.77351E-09-2.80124E-09
 -1       786 3.28515E+05-1.50086E+04 3.47276E+04 4.35530E+02 2.44848E-09-8.34916E-10
 -1       787 3.43563E+05 1.73759E+04 2.45694E+04 4.82431E+01-5.40568E-10 4.13638E-09
 -1       788 3.34323E+05-2.35249E+03 8.99004E+03 3.52669E+02 1.30846E-09 3.02452E-09
 -1       789 3.36799E+05 2.72259E+03 5.65041E+03 1.64898E+02 4.24348E-08 7.95808E-10
 -1       790 3.35281E+05-3.67417E+02 2.30320E+03 3.18890E+02 1.29646E-05-1.01720E-08
 -1       791 3.35681E+05 4.28499E+02 1.35993E+03 2.08513E+02 2.58249E-05-2.26294E-08
 -1       792 3.35441E+05-6.01301E+01 6.35677E+02 3.09055E+02 4.48392E-06-3.89576E-09
 -1       793 3.35505E+05 9.22341E+01 4.47034E+02 2.10619E+02-1.68681E-05 1.61848E-08
 -1       794 3.35458E+05-3.13716E+01 3.77766E+02 3.16785E+02-8.48137E-06 5.50563E-09
 -1       795 3.35549E+05 1.81306E+02 6.13735E+02 1.73177E+02-2.59208E-08 5.10943E-09
 -1       796 3.35397E+05-1.49143E+02 9.60023E+02 3.46498E+02-1.12657E-09-1.47963E-09
 -1       797 3.35997E+05 1.10009E+03 2.29727E+03 7.43171E+01-3.26026E-09 1.97775E-09
 -1       798 3.35010E+05-9.49489E+02 3.63654E+03 4.15646E+02-1.97764E-09 2.46928E-10
 -1       799 3.38734E+05 7.01521E+03 9.92457E+03-1.46428E+02-3.40562E-09 2.94949E-09
 -1       800 3.32659E+05-6.05952E+03 1.40189E+04 5.67238E+02-8.52136E-10 9.59517E-10
 -1       801-2.72353E+05 6.71597E+06 6.54340E+05-1.23479E+03 5.99539E-09-3.34956E-09
 -1       802 3.77768E+05 7.04099E+06 5.77519E+05-1.23183E+05 1.67092E-08-2.74702E-09
 -1       803-1.03021E+05 6.80202E+06 3.97383E+05-7.75450E+04 9.49512E-09-4.22688E-10
 -1       804 5.19301E+05 7.10461E+06 7.62349E+05-1.18734E+05 1.24492E-08 1.14596E-09
 -1       805-4.13574E+05 6.65220E+06 9.75343E+05-5.68979E+03 1.92085E-09 5.11102E-08
 -1       806-2.90947E+05-7.24171E+04-2.89905E+04-1.31664E+05 4.75302E-09 6.72298E-09
 -1       807-2.91688E+05-6.92348E+04-1.42417E+04-1.40452E+05-6.16114E-09-1.09874E-08
 -1       808-2.91827E+05-6.18916E+04-6.04105E+03-1.36533E+05-1.59162E-12-1.33241E-09
 -1       809-2.88592E+05-6.53411E+04-2.95216E+03-1.40944E+05 2.51100E-09-1.49669E-09
 -1       810-2.91967E+05-6.15134E+04-1.35126E+03-1.36749E+05-4.93742E-09 1.40938E-09
 -1       811-2.88359E+05-6.51894E+04-6.68448E+02-1.40920E+05-2.46881E-09 2.98633E-09
 -1       812-2.91992E+05-6.15380E+04-3.30796E+02-1.36748E+05 2.04864E-10 4.10887E-09
 -1       813-2.88328E+05-6.51949E+04-2.03932E+02-1.40903E+05 5.06611E-09 5.83395E-09
 -1       814-2.91987E+05-6.15502E+04-1.83699E+02-1.36742E+05-2.32058E-09 1.08048E-09
 -1       815-2.88325E+05-6.52004E+04-2.79535E+02-1.40894E+05-1.28343E-08-7.80801E-09
 -1       816-2.91962E+05-6.15530E+04-5.19595E+02-1.36734E+05-4.74120E-09 1.24464E-09
 -1       817-2.88404E+05-6.52534E+04-1.11070E+03-1.40875E+05 1.82804E-08 3.04135E-09
 -1       818-2.91882E+05-6.17168E+04-2.26360E+03-1.36654E+05 8.21456E-09 4.31055E-09
 -1       819-2.89650E+05-6.66032E+04-5.32508E+03-1.40545E+05-4.16730E-09 5.87534E-10
 -1       820-2.91428E+05-6.57582E+04-1.08395E+04-1.34937E+05-1.48793E-09 7.70342E-10
 -1       821-3.79409E+05 2.15162E+04-5.01627E+04 1.00682E+03 5.75653E-10 2.45564E-09
 -1       822-3.99233E+05-2.49502E+04-3.51681E+04-5.87106E+03 5.89012E-10 7.76708E-10
 -1       823-3.86943E+05 3.41174E+03-1.29522E+04 2.64337E+03-4.40065E-09 3.32329E-09
 -1       824-3.90161E+05-3.95282E+03-8.09821E+03-7.22475E+03 2.13870E-10 1.51283E-09
 -1       825-3.88495E+05 5.48583E+02-3.38858E+03 2.36056E+03 7.96094E-09 4.74279E-09
 -1       826-3.87545E+05-6.06449E+02-1.76773E+03-4.93535E+03 3.05469E-09 6.02989E-09
 -1       827-3.89531E+05 4.57045E+01-1.25193E+03 3.53932E+02 5.03007E-10 1.04720E-09
 -1       828-3.86607E+05-1.17205E+02-5.13328E+02-3.12338E+02-1.81195E-08 6.16026E-09
 -1       829-3.89413E+05 4.39265E+01-1.23181E+03-2.26239E+03 3.86683E-09-2.95495E-09
 -1       830-3.87812E+05-5.85759E+02-1.82113E+03 4.07225E+03 1.20483E-07 6.25425E-09
 -1       831-3.88352E+05 5.34638E+02-3.37537E+03-4.03079E+03 3.41118E-05-1.91709E-07
 -1       832-3.90237E+05-3.91728E+03-8.12953E+03 5.78811E+03 6.79341E-05-3.97454E-07
 -1       833-3.87011E+05 3.39057E+03-1.30160E+04-3.97843E+03 3.41329E-05-1.94691E-07
 -1       834-3.99079E+05-2.49848E+04-3.52400E+04 3.87704E+03 1.10650E-07 3.56522E-10
 -1       835-3.79490E+05 2.15670E+04-5.03574E+04-2.11947E+03 1.70527E-08 9.27685E-10
 -1       836-1.24612E+03 3.86368E+05 2.28970E+04-4.39629E+04 7.01220E-09 2.37287E-09
 -1       837 5.28412E+03 3.93326E+05 1.94944E+04-8.79136E+04 8.91168E-09 3.14822E-09
 -1       838-3.62569E+02 3.88321E+05 2.00099E+04-4.38395E+04 7.62793E-09 7.11600E-09
 -1       839 1.30508E+04 3.99109E+05 3.79954E+04-8.79292E+04 9.89621E-09-3.57522E-09
 -1       840-3.74494E+03 3.80522E+05 6.06361E+04-4.39395E+04 7.33417E-09 6.15728E-10
 -1       856-1.54285E+05 1.14717E+04-3.02388E+04-8.92878E+02-1.18536E-08-3.30147E-09
 -1       857-1.66784E+05-1.34405E+04-2.08179E+04 6.30288E+03-6.71116E-09-6.84008E-09
 -1       858-1.59218E+05 1.60493E+03-7.84875E+03-9.41844E+02-9.23490E-09-3.62297E-09
 -1       859-1.61123E+05-1.85014E+03-4.74084E+03 6.38425E+03 2.25026E-09 5.20328E-09
 -1       860-1.59955E+05 2.20943E+02-1.99609E+03-9.74937E+02 1.27525E-09-4.68162E-10
 -1       861-1.60276E+05-2.27284E+02-1.11658E+03 6.42986E+03-1.38456E-08-4.41992E-09
 -1       862-1.60069E+05 2.74152E+01-5.01658E+02-9.87580E+02 6.94895E-09-3.51136E-09
 -1       863-1.60143E+05-1.43516E+00-2.67885E+02 6.43486E+03 2.34244E-08-1.55487E-09
 -1       864-1.60089E+05 1.82474E-01-1.24291E+02-9.79956E+02 1.29144E-08-1.89925E-09
 -1       865-1.60113E+05 2.86107E+01-6.14693E+01 6.39850E+03 1.05376E-08-5.18325E-09
 -1       866-1.60095E+05-4.71394E+00-2.67346E+01-9.51198E+02-4.80100E-10-4.13224E-09
 -1       867-1.60093E+05 3.40782E+01-1.36569E-01 6.32066E+03 3.53489E-09 4.12810E-09
 -1       868-1.60102E+05-1.03841E+01 1.17128E+01-9.02089E+02-1.84252E-09-4.85961E-10
 -1       869-1.60054E+05 6.40119E+01 6.04614E+01 6.19738E+03-1.45944E-08-7.29104E-09
 -1       870-1.60122E+05-4.14333E+01 7.84706E+01-8.27886E+02 1.10045E-08-4.04214E-10
 -1       871-5.88614E+03-9.03661E+03-1.80479E+04 1.16074E+05 9.16771E-09-8.50014E-09
 -1       872-2.79546E+03-1.30117E+04-7.26068E+03 1.50480E+05 1.51049E-08-7.61611E-09
 -1       873-3.37011E+02-1.12435E+04 1.27820E+03 1.15824E+05 7.54017E-09-5.07043E-09
 -1       874 2.52812E+03-8.40825E+03 1.07647E+04 1.50545E+05 1.34025E-08 1.46088E-09
 -1       875 6.55778E+03-1.37590E+04 2.37034E+04 1.16045E+05 4.92037E-09-1.41245E-09
 -1       876 3.06038E+05 5.36466E+04 1.68055E+04 1.25244E+05-1.34554E-08-1.31513E-09
 -1       877 3.06882E+05 5.74554E+04 8.97489E+03 1.30329E+05-1.67211E-08-1.17416E-09
 -1       878 3.07602E+05 5.17914E+04 3.75962E+03 1.26627E+05 5.40331E-09 1.07834E-08
 -1       879 3.04592E+05 5.51798E+04 1.87294E+03 1.30445E+05-8.07995E-09 4.18481E-09
 -1       880 3.07713E+05 5.17734E+04 8.71399E+02 1.26683E+05 1.19007E-09 9.50308E-10
 -1       881 3.04440E+05 5.50826E+04 4.63534E+02 1.30417E+05 2.63826E-08 2.08203E-09
 -1       882 3.07723E+05 5.17888E+04 2.92978E+02 1.26685E+05 1.41713E-08-7.88347E-10
 -1       883 3.04428E+05 5.50777E+04 3.09484E+02 1.30408E+05 6.43468E-11 3.19055E-09
 -1       884 3.07715E+05 5.17862E+04 4.87123E+02 1.26685E+05-1.68984E-09-2.29647E-10
 -1       885 3.04466E+05 5.50846E+04 9.76115E+02 1.30420E+05 1.43795E-08 2.73246E-09
 -1       886 3.07678E+05 5.17576E+04 1.96559E+03 1.26681E+05 1.09160E-08 5.85715E-10
 -1       887 3.04812E+05 5.53111E+04 4.29273E+03 1.30471E+05-1.36210E-08-1.00815E-08
 -1       888 3.07408E+05 5.18039E+04 8.64939E+03 1.26543E+05 4.94202E-09-9.39963E-10
 -1       889 3.09970E+05 6.06584E+04 2.06618E+04 1.30306E+05 5.66098E-09-1.96133E-09
 -1       890 3.03893E+05 5.59824E+04 3.86986E+04 1.23235E+05 9.97170E-09 1.22964E-09
 -1       891-2.81090E+02-1.76217E+05-2.04641E+03 3.56458E+04 8.37304E-09-7.93534E-11
 -1       892-4.72202E+02-1.76652E+05-2.23795E+03 5.38281E+04-2.11912E-09-1.08223E-08
 -1       893-1.55345E+02-1.76267E+05-3.21274E+03 3.56525E+04-2.64936E-09-1.35060E-09
 -1       894-1.91396E+03-1.77860E+05-6.67710E+03 5.36369E+04-1.21963E-09 3.93629E-09
 -1       895-1.49446E+03-1.74853E+05-1.17759E+04 3.58303E+04-5.71697E-09 2.82398E-09
 -1       956-3.80807E+05-5.62830E+03-1.42813E+04 2.35594E+04-1.16006E-08-1.33150E-09
 -1       957-3.83638E+05-1.85593E+03-7.33085E+03 2.84187E+04-2.92721E-09-1.52340E-09
 -1       958-3.82081E+05-1.04995E+02-3.30349E+03 2.33812E+04 3.88991E-09-1.25078E-09
 -1       959-3.82320E+05 3.67333E+01-1.68682E+03 2.86044E+04-8.40009E-09 2.08388E-09
 -1       960-3.82201E+05 9.96929E+01-8.22399E+02 2.33634E+04-1.16006E-08 1.95791E-09
 -1       961-3.82231E+05 1.12291E+02-4.35082E+02 2.86248E+04-2.05673E-08 4.25212E-09
 -1       962-3.82229E+05 9.77035E+01-2.47344E+02 2.33601E+04-9.66338E-10 8.46285E-10
 -1       963-3.82233E+05 1.17521E+02-1.94813E+02 2.86297E+04 6.49629E-09-2.00180E-09
 -1       964-3.82239E+05 1.03159E+02-2.32225E+02 2.33584E+04 4.04930E-09-2.07388E-09
 -1       965-3.82252E+05 1.24205E+02-3.97480E+02 2.86311E+04 6.65068E-09 2.74667E-10
 -1       966-3.82230E+05 1.15812E+02-7.44111E+02 2.33586E+04-1.16101E-08-8.58108E-10
 -1       967-3.82353E+05 6.71485E+01-1.52522E+03 2.86236E+04-7.82711E-09 2.81466E-09
 -1       968-3.82138E+05-5.87150E+01-2.98438E+03 2.33663E+04-5.70503E-09-7.75628E-10
 -1       969-3.83564E+05-1.63396E+03-6.62654E+03 2.85387E+04 1.21395E-09 1.34295E-09
 -1       970-3.81000E+05-5.04509E+03-1.29071E+04 2.34561E+04 2.99588E-09 4.67480E-10
 -1       971-3.68288E+05-1.97197E+03-1.11983E+04 1.83790E+04-1.78716E-08 2.17335E-09
 -1       972-3.71031E+05-1.37528E+03-6.09730E+03 2.58648E+04-1.81658E-08-1.03591E-09
 -1       973-3.69542E+05 3.46606E+01-2.73123E+03 1.82148E+04-1.16615E-08 1.24351E-09
 -1       974-3.69756E+05 6.22707E+01-1.41386E+03 2.60393E+04 2.34058E-09 1.31899E-09
 -1       975-3.69646E+05 9.23617E+01-7.04731E+02 1.81982E+04 4.56430E-09 3.63730E-09
 -1       976-3.69689E+05 1.25725E+02-4.01483E+02 2.60600E+04-6.96264E-09-4.30009E-09
 -1       977-3.69669E+05 9.54670E+01-2.83205E+02 1.81935E+04 1.25046E-08-6.73253E-10
 -1       978-3.69698E+05 1.34938E+02-3.19749E+02 2.60665E+04 3.47136E-08-5.83782E-10
 -1       979-3.69671E+05 1.05608E+02-5.04149E+02 1.81915E+04 1.83109E-08 2.43097E-09
 -1       980-3.69736E+05 1.38765E+02-9.67443E+02 2.60677E+04 1.56746E-08 3.21961E-10
 -1       981-3.69640E+05 1.29326E+02-1.87091E+03 1.81923E+04 4.90218E-09 2.89219E-09
 -1       982-3.69990E+05-8.12099E-01-3.86557E+03 2.60586E+04 1.71326E-09 1.70348E-09
 -1       983-3.69402E+05 7.44754E+00-7.51064E+03 1.82013E+04 1.48589E-08-7.73070E-11
 -1       984-3.73595E+05-3.92697E+03-1.68188E+04 2.59498E+04-1.12459E-09-2.54772E-09
 -1       985-3.65997E+05-5.49092E+03-3.08854E+04 1.83218E+04 1.15806E-08 2.35013E-09
 -3
    1PSTEP                        31          16           1          
  100CL  116 8.01270E-01         409                     0   16           1
 -4  DISP        4    1
 -5  D1          1    2    1    0
 -5  D2          1    2    2    0
 -5  D3          1    2    3    0
 -5  ALL         1    2    0    0    1ALL
 -1         1 6.28785E-03 0.00000E+00 0.00000E+00
 -1         2 8.02349E-03 5.59798E-26 5.29396E-23
 -1         3 4.17314E-06 4.32505E-28 0.00000E+00
 -1         5 5.41467E-05 2.41933E-27-1.32349E-23
 -1         8 6.24710E-03-2.44524E-06 0.00000E+00
 -1         9 6.35414E-03-2.92412E-04 0.00000E+00
 -1        10 8.91909E-06 4.07037E-06-2.64698E-23
 -1        12 5.19197E-05 8.43885E-07 0.00000E+00
 -1        15 6.20021E-03-2.67246E-06-8.27181E-25
 -1        16 6.27887E-03-2.92542E-04 0.00000E+00
 -1        17 2.54225E-05 8.40909E-06 0.00000E+00
 -1        18 4.36826E-05-1.69424E-05 0.00000E+00
 -1        19 4.52372E-05 1.68010E-06 0.00000E+00
 -1        20 4.54540E-05 4.17926E-05 0.00000E+00
 -1        21 4.47212E-05 8.25695E-05 0.00000E+00
 -1        24 2.51680E-05 8.29539E-06 0.00000E+00
 -1        25 3.39986E-05-1.67815E-05 0.00000E+00
 -1        26 3.59432E-05 2.36223E-06 0.00000E+00
 -1        27 3.36051E-05 3.80661E-05 0.00000E+00
 -1        28 3.25957E-05 8.18125E-05 0.00000E+00
 -1        32 0.00000E+00 0.00000E+00 0.00000E+00
 -1        33 2.41496E-05 3.18578E-06 0.00000E+00
 -1        34 2.18838E-05 3.80287E-05 0.00000E+00
 -1        35 1.96712E-05 8.14143E-05 0.00000E+00
 -1        51 6.28512E-03-3.98111E-07 0.00000E+00
 -1        52 6.28014E-03-7.92258E-07 0.00000E+00
 -1        53 6.27336E-03-1.19161E-06 0.00000E+00
 -1        54 6.26526E-03-1.59853E-06 6.61744E-24
 -1        55 6.25635E-03-2.01336E-06-6.61744E-24
 -1        56 6.28730E-03-4.80651E-06-5.29396E-23
 -1        57 6.28968E-03-1.77796E-05 0.00000E+00
 -1        58 6.29481E-03-3.84426E-05 5.29396E-23
 -1        59 6.30232E-03-6.59603E-05 0.00000E+00
 -1        60 6.31166E-03-9.87998E-05 0.00000E+00
 -1        61 6.32220E-03-1.35164E-04 0.00000E+00
 -1        62 6.33319E-03-1.72894E-04 5.29396E-23
 -1        63 6.34390E-03-2.09766E-04 0.00000E+00
 -1        64 6.35359E-03-2.43640E-04 0.00000E+00
 -1        65 6.36157E-03-2.72530E-04 2.64698E-23
 -1        66 6.36731E-03-2.94955E-04 0.00000E+00
 -1        67 6.37034E-03-3.09760E-04-2.64698E-23
 -1        68 6.37045E-03-3.16555E-04 0.00000E+00
 -1        69 6.36759E-03-3.15342E-04-2.64698E-23
 -1        70 6.36199E-03-3.06925E-04 0.00000E+00
 -1        86 7.91756E-03-8.86685E-06 0.00000E+00
 -1        87 7.61457E-03-5.74858E-05 0.00000E+00
 -1        88 7.20747E-03-1.41793E-04-2.64698E-23
 -1        89 6.79444E-03-2.28659E-04 0.00000E+00
 -1        90 6.47722E-03-2.81585E-04 0.00000E+00
 -1       121 4.30324E-06 6.78556E-07 0.00000E+00
 -1       122 4.69417E-06 1.35706E-06-1.32349E-23
 -1       123 5.34765E-06 2.03545E-06-2.64698E-23
 -1       124 6.26670E-06 2.71377E-06 0.00000E+00
 -1       125 7.45543E-06 3.39174E-06 2.64698E-23
 -1       191 5.40849E-05 1.40738E-07 0.00000E+00
 -1       192 5.38993E-05 2.81461E-07 0.00000E+00
 -1       193 5.35901E-05 4.22154E-07 0.00000E+00
 -1       194 5.31570E-05 5.62801E-07 0.00000E+00
 -1       195 5.26003E-05 7.03384E-07 0.00000E+00
 -1       251 6.25367E-03-3.51510E-06-1.05879E-22
 -1       252 6.26042E-03-1.95753E-05 1.05879E-22
 -1       253 6.26705E-03-4.19793E-05-2.11758E-22
 -1       254 6.27375E-03-6.40745E-05 1.05879E-22
 -1       255 6.28045E-03-8.60381E-05 0.00000E+00
 -1       256 6.28716E-03-1.08009E-04-1.05879E-22
 -1       257 6.29387E-03-1.29983E-04 0.00000E+00
 -1       258 6.30058E-03-1.51957E-04 0.00000E+00
 -1       259 6.30730E-03-1.73931E-04 0.00000E+00
 -1       260 6.31401E-03-1.95905E-04 0.00000E+00
 -1       261 6.32072E-03-2.17874E-04 0.00000E+00
 -1       262 6.32742E-03-2.39835E-04 0.00000E+00
 -1       263 6.33412E-03-2.61971E-04-2.11758E-22
 -1       264 6.34076E-03-2.84521E-04-1.05879E-22
 -1       265 6.34755E-03-2.98538E-04-1.05879E-22
 -1       266 6.23928E-03-2.50876E-06 0.00000E+00
 -1       267 6.23147E-03-2.54351E-06 0.00000E+00
 -1       268 6.22366E-03-2.58007E-06 0.00000E+00
 -1       269 6.21584E-03-2.61124E-06 8.27181E-25
 -1       270 6.20803E-03-2.64228E-06 0.00000E+00
 -1       271 6.24199E-03-5.34376E-07 1.05879E-22
 -1       272 6.24004E-03-7.47929E-06-5.29396E-23
 -1       273 6.24113E-03-2.27584E-05 0.00000E+00
 -1       274 6.24485E-03-4.54812E-05-5.29396E-23
 -1       275 6.25071E-03-7.43406E-05 0.00000E+00
 -1       276 6.25813E-03-1.07724E-04-5.29396E-23
 -1       277 6.26644E-03-1.43769E-04 1.05879E-22
 -1       278 6.27498E-03-1.80476E-04 0.00000E+00
 -1       279 6.28305E-03-2.15811E-04-1.05879E-22
 -1       280 6.28999E-03-2.47808E-04-5.29396E-23
 -1       281 6.29516E-03-2.74687E-04 0.00000E+00
 -1       282 6.29800E-03-2.94928E-04 0.00000E+00
 -1       283 6.29805E-03-3.07375E-04 0.00000E+00
 -1       284 6.29496E-03-3.11260E-04 0.00000E+00
 -1       285 6.28853E-03-3.06285E-04 0.00000E+00
 -1       301 6.33971E-03-2.92435E-04 0.00000E+00
 -1       302 6.32802E-03-2.92435E-04 0.00000E+00
 -1       303 6.31758E-03-2.92420E-04 0.00000E+00
 -1       304 6.30691E-03-2.92414E-04 0.00000E+00
 -1       305 6.29450E-03-2.92436E-04 0.00000E+00
 -1       306 6.21239E-03-5.98978E-05 0.00000E+00
 -1       307 5.75227E-03 4.78909E-04 5.29396E-23
 -1       308 4.90940E-03 1.17440E-03 0.00000E+00
 -1       309 3.77455E-03 1.88581E-03 0.00000E+00
 -1       310 2.55013E-03 2.59028E-03 0.00000E+00
 -1       311 1.46120E-03 3.30790E-03 0.00000E+00
 -1       312 6.71441E-04 3.98760E-03 0.00000E+00
 -1       313 2.46736E-04 4.50541E-03 1.05879E-22
 -1       314 1.49111E-04 4.67023E-03-4.23516E-22
 -1       315 1.94627E-04 4.41805E-03 1.05879E-22
 -1       316 2.21509E-04 3.74960E-03-2.11758E-22
 -1       317 1.38845E-04 2.80840E-03-5.29396E-23
 -1       318 1.00015E-05 1.78569E-03-1.05879E-22
 -1       319-5.15375E-05 8.75607E-04 5.29396E-23
 -1       320-1.96665E-05 2.44276E-04 1.05879E-22
 -1       336 1.07024E-05 4.80186E-06-2.64698E-23
 -1       337 1.28537E-05 5.53319E-06 1.32349E-23
 -1       338 1.53857E-05 6.26303E-06 2.64698E-23
 -1       339 1.83130E-05 6.98815E-06 6.61744E-24
 -1       340 2.16522E-05 7.71233E-06 0.00000E+00
 -1       406 5.11153E-05 9.84281E-07 0.00000E+00
 -1       407 5.01870E-05 1.12453E-06 0.00000E+00
 -1       408 4.91348E-05 1.26457E-06 0.00000E+00
 -1       409 4.79588E-05 1.40421E-06 0.00000E+00
 -1       410 4.66593E-05 1.54317E-06 0.00000E+00
 -1       521 6.13569E-03-6.05537E-05 0.00000E+00
 -1       522 5.67627E-03 4.76306E-04 5.29396E-23
 -1       523 4.83993E-03 1.16994E-03-2.11758E-22
 -1       524 3.72130E-03 1.88234E-03 5.29396E-23
 -1       525 2.51537E-03 2.58942E-03 0.00000E+00
 -1       526 1.43930E-03 3.30705E-03 1.05879E-22
 -1       527 6.57817E-04 3.98383E-03 4.23516E-22
 -1       528 2.37295E-04 4.49719E-03-2.11758E-22
 -1       529 1.41183E-04 4.65639E-03-4.23516E-22
 -1       530 1.85907E-04 4.39976E-03-1.05879E-22
 -1       531 2.12129E-04 3.73137E-03 0.00000E+00
 -1       532 1.33381E-04 2.79767E-03 0.00000E+00
 -1       533 1.00529E-05 1.78352E-03 1.05879E-22
 -1       534-4.99623E-05 8.77245E-04 0.00000E+00
 -1       535-1.89154E-05 2.46376E-04 0.00000E+00
 -1       536 2.65197E-05 5.00591E-06 0.00000E+00
 -1       537 2.76617E-05 2.75109E-06 0.00000E+00
 -1       538 2.88022E-05 1.07215E-06 0.00000E+00
 -1       539 2.99507E-05-5.72875E-07 0.00000E+00
 -1       540 3.10994E-05-2.20089E-06 0.00000E+00
 -1       541 3.22497E-05-3.82792E-06 1.32349E-23
 -1       542 3.34002E-05-5.45447E-06 2.64698E-23
 -1       543 3.45510E-05-7.08100E-06 0.00000E+00
 -1       544 3.57017E-05-8.70748E-06 2.64698E-23
 -1       545 3.68522E-05-1.03339E-05-1.32349E-23
 -1       546 3.80025E-05-1.19598E-05 2.64698E-23
 -1       547 3.91511E-05-1.35843E-05 1.32349E-23
 -1       548 4.02994E-05-1.51873E-05 0.00000E+00
 -1       549 4.14395E-05-1.67469E-05 0.00000E+00
 -1       550 4.25831E-05-1.75746E-05 0.00000E+00
 -1       551 2.65784E-05 8.40370E-06 0.00000E+00
 -1       552 2.57153E-05 8.39640E-06 0.00000E+00
 -1       553 2.39832E-05 8.38811E-06 6.61744E-24
 -1       554 2.25427E-05 8.37537E-06-6.61744E-24
 -1       555 2.25549E-05 8.35656E-06 2.64698E-23
 -1       556 2.68348E-05 4.50849E-06 0.00000E+00
 -1       557 2.81431E-05 8.65828E-07 0.00000E+00
 -1       558 2.93495E-05-2.50474E-06 0.00000E+00
 -1       559 3.04500E-05-5.59270E-06 0.00000E+00
 -1       560 3.14411E-05-8.38724E-06 0.00000E+00
 -1       561 3.23190E-05-1.08778E-05 0.00000E+00
 -1       562 3.30797E-05-1.30540E-05 0.00000E+00
 -1       563 3.37193E-05-1.49054E-05 0.00000E+00
 -1       564 3.42337E-05-1.64214E-05 0.00000E+00
 -1       565 3.46190E-05-1.75919E-05 0.00000E+00
 -1       566 3.48712E-05-1.84064E-05 0.00000E+00
 -1       567 3.49863E-05-1.88546E-05 0.00000E+00
 -1       568 3.49604E-05-1.89262E-05 0.00000E+00
 -1       569 3.47894E-05-1.86111E-05 0.00000E+00
 -1       570 3.44696E-05-1.78991E-05 0.00000E+00
 -1       571 4.37770E-05-1.56416E-05 4.13590E-25
 -1       572 4.38734E-05-1.44069E-05-1.65436E-24
 -1       573 4.39704E-05-1.32286E-05 0.00000E+00
 -1       574 4.40678E-05-1.20963E-05 1.65436E-24
 -1       575 4.41652E-05-1.09998E-05 0.00000E+00
 -1       576 4.42627E-05-9.92865E-06 8.27181E-25
 -1       577 4.43603E-05-8.87243E-06 3.30872E-24
 -1       578 4.44579E-05-7.82072E-06 0.00000E+00
 -1       579 4.45555E-05-6.76307E-06 3.30872E-24
 -1       580 4.46530E-05-5.68907E-06 0.00000E+00
 -1       581 4.47505E-05-4.58829E-06-3.30872E-24
 -1       582 4.48480E-05-3.45030E-06 6.61744E-24
 -1       583 4.49455E-05-2.26468E-06 0.00000E+00
 -1       584 4.50428E-05-1.02115E-06 0.00000E+00
 -1       585 4.51401E-05 2.90593E-07 0.00000E+00
 -1       586 4.21045E-05-1.69135E-05 0.00000E+00
 -1       587 4.04720E-05-1.68858E-05 0.00000E+00
 -1       588 3.88147E-05-1.68586E-05 4.13590E-25
 -1       589 3.71632E-05-1.68319E-05 0.00000E+00
 -1       590 3.55479E-05-1.68057E-05 0.00000E+00
 -1       591 4.31573E-05-1.56144E-05-2.06795E-25
 -1       592 4.26554E-05-1.43593E-05 0.00000E+00
 -1       593 4.21757E-05-1.31642E-05 0.00000E+00
 -1       594 4.17136E-05-1.20171E-05-4.13590E-25
 -1       595 4.12650E-05-1.09060E-05 0.00000E+00
 -1       596 4.08253E-05-9.81900E-06-4.13590E-25
 -1       597 4.03902E-05-8.74404E-06 8.27181E-25
 -1       598 3.99551E-05-7.66920E-06 0.00000E+00
 -1       599 3.95155E-05-6.58250E-06 0.00000E+00
 -1       600 3.90670E-05-5.47199E-06 2.06795E-25
 -1       601 3.86051E-05-4.32573E-06 4.13590E-25
 -1       602 3.81253E-05-3.13172E-06 0.00000E+00
 -1       603 3.76231E-05-1.87802E-06 2.84343E-25
 -1       604 3.70945E-05-5.52586E-07 0.00000E+00
 -1       605 3.65347E-05 8.56502E-07 0.00000E+00
 -1       606 4.52572E-05 3.29381E-06 0.00000E+00
 -1       607 4.52734E-05 5.07906E-06 3.30872E-24
 -1       608 4.52885E-05 7.02578E-06 0.00000E+00
 -1       609 4.53029E-05 9.12260E-06 0.00000E+00
 -1       610 4.53168E-05 1.13581E-05 0.00000E+00
 -1       611 4.53304E-05 1.37208E-05 0.00000E+00
 -1       612 4.53437E-05 1.61991E-05 0.00000E+00
 -1       613 4.53568E-05 1.87813E-05 0.00000E+00
 -1       614 4.53696E-05 2.14560E-05 0.00000E+00
 -1       615 4.53822E-05 2.42114E-05 0.00000E+00
 -1       616 4.53946E-05 2.70361E-05 0.00000E+00
 -1       617 4.54068E-05 2.99185E-05 0.00000E+00
 -1       618 4.54189E-05 3.28469E-05 0.00000E+00
 -1       619 4.54309E-05 3.58097E-05 0.00000E+00
 -1       620 4.54427E-05 3.87955E-05 0.00000E+00
 -1       621 4.37351E-05 1.79373E-06-3.30872E-24
 -1       622 4.22084E-05 1.90808E-06 1.65436E-24
 -1       623 4.06614E-05 2.02241E-06-3.30872E-24
 -1       624 3.90985E-05 2.13655E-06 1.65436E-24
 -1       625 3.75243E-05 2.25050E-06 0.00000E+00
 -1       626 4.47466E-05 3.32517E-06 0.00000E+00
 -1       627 4.42021E-05 5.11592E-06-6.61744E-24
 -1       628 4.36074E-05 7.03995E-06 0.00000E+00
 -1       629 4.29677E-05 9.08386E-06 0.00000E+00
 -1       630 4.22878E-05 1.12343E-05 0.00000E+00
 -1       631 4.15728E-05 1.34778E-05 0.00000E+00
 -1       632 4.08278E-05 1.58008E-05 0.00000E+00
 -1       633 4.00578E-05 1.81900E-05 0.00000E+00
 -1       634 3.92680E-05 2.06318E-05-3.30872E-24
 -1       635 3.84634E-05 2.31127E-05 0.00000E+00
 -1       636 3.76491E-05 2.56193E-05-3.30872E-24
 -1       637 3.68301E-05 2.81381E-05 0.00000E+00
 -1       638 3.60115E-05 3.06557E-05 3.30872E-24
 -1       639 3.51981E-05 3.31586E-05 1.65436E-24
 -1       640 3.43949E-05 3.56333E-05 0.00000E+00
 -1       656 4.27956E-05 4.11853E-05 0.00000E+00
 -1       657 4.07202E-05 4.05546E-05 0.00000E+00
 -1       658 3.90082E-05 3.99265E-05 0.00000E+00
 -1       659 3.74306E-05 3.92990E-05 0.00000E+00
 -1       660 3.57181E-05 3.86694E-05 0.00000E+00
 -1       661 4.44708E-05 4.47561E-05 0.00000E+00
 -1       662 4.35192E-05 4.76505E-05-1.65436E-24
 -1       663 4.25931E-05 5.04768E-05 0.00000E+00
 -1       664 4.16925E-05 5.32378E-05 1.65436E-24
 -1       665 4.08158E-05 5.59356E-05-3.30872E-24
 -1       666 3.99625E-05 5.85721E-05 0.00000E+00
 -1       667 3.91317E-05 6.11491E-05 0.00000E+00
 -1       668 3.83229E-05 6.36679E-05-1.65436E-24
 -1       669 3.75356E-05 6.61297E-05 0.00000E+00
 -1       670 3.67694E-05 6.85356E-05 1.65436E-24
 -1       671 3.60241E-05 7.08861E-05-3.30872E-24
 -1       672 3.52992E-05 7.31817E-05 0.00000E+00
 -1       673 3.45949E-05 7.54226E-05 0.00000E+00
 -1       674 3.39099E-05 7.76085E-05 1.65436E-24
 -1       675 3.32461E-05 7.97395E-05 0.00000E+00
 -1       676 4.26917E-05 8.24426E-05-3.30872E-24
 -1       677 4.06637E-05 8.23157E-05 0.00000E+00
 -1       678 3.86387E-05 8.21889E-05-3.30872E-24
 -1       679 3.66180E-05 8.20625E-05 0.00000E+00
 -1       680 3.46032E-05 8.19361E-05 0.00000E+00
 -1       771 2.55946E-05 2.53125E-06 0.00000E+00
 -1       772 2.56293E-05-2.27991E-06 0.00000E+00
 -1       773 2.53199E-05-6.17086E-06 0.00000E+00
 -1       774 2.46837E-05-9.19436E-06 0.00000E+00
 -1       775 2.37430E-05-1.14036E-05 5.29396E-23
 -1       776 2.25189E-05-1.28563E-05 0.00000E+00
 -1       777 2.10338E-05-1.36123E-05 0.00000E+00
 -1       778 1.93108E-05-1.37343E-05 0.00000E+00
 -1       779 1.73737E-05-1.32868E-05-5.29396E-23
 -1       780 1.52475E-05-1.23368E-05 2.64698E-23
 -1       781 1.29578E-05-1.09524E-05 0.00000E+00
 -1       782 1.05307E-05-9.20388E-06-2.64698E-23
 -1       783 7.99317E-06-7.16208E-06 0.00000E+00
 -1       784 5.37290E-06-4.89916E-06-2.64698E-23
 -1       785 2.69717E-06-2.48809E-06 0.00000E+00
 -1       786 3.41141E-05-1.54667E-05 0.00000E+00
 -1       787 3.42354E-05-1.42303E-05 0.00000E+00
 -1       788 3.43564E-05-1.30507E-05 0.00000E+00
 -1       789 3.44786E-05-1.19066E-05 0.00000E+00
 -1       790 3.46008E-05-1.07873E-05 0.00000E+00
 -1       791 3.47232E-05-9.68216E-06 0.00000E+00
 -1       792 3.48457E-05-8.58479E-06 3.30872E-24
 -1       793 3.49682E-05-7.48889E-06 1.65436E-24
 -1       794 3.50907E-05-6.38853E-06 0.00000E+00
 -1       795 3.52132E-05-5.27781E-06-1.65436E-24
 -1       796 3.53357E-05-4.14771E-06-3.30872E-24
 -1       797 3.54581E-05-2.98911E-06 0.00000E+00
 -1       798 3.55803E-05-1.78437E-06-3.30872E-24
 -1       799 3.57021E-05-5.15642E-07 1.65436E-24
 -1       800 3.58239E-05 8.54060E-07-3.30872E-24
 -1       801 3.10176E-05-1.40285E-05 0.00000E+00
 -1       802 2.50232E-05-1.11790E-05-2.64698E-23
 -1       803 1.76623E-05-8.34654E-06-5.29396E-23
 -1       804 1.03945E-05-5.52409E-06-2.64698E-23
 -1       805 4.14954E-06-2.68352E-06 0.00000E+00
 -1       806 3.33873E-05-1.55273E-05 0.00000E+00
 -1       807 3.27893E-05-1.43233E-05-1.65436E-24
 -1       808 3.22049E-05-1.31581E-05 3.30872E-24
 -1       809 3.16306E-05-1.20212E-05 0.00000E+00
 -1       810 3.10628E-05-1.09023E-05 0.00000E+00
 -1       811 3.04978E-05-9.79093E-06-1.65436E-24
 -1       812 2.99317E-05-8.67670E-06-3.30872E-24
 -1       813 2.93606E-05-7.54930E-06 0.00000E+00
 -1       814 2.87806E-05-6.39834E-06 3.30872E-24
 -1       815 2.81879E-05-5.21349E-06-1.65436E-24
 -1       816 2.75785E-05-3.98441E-06 0.00000E+00
 -1       817 2.69486E-05-2.70075E-06 8.27181E-25
 -1       818 2.62943E-05-1.35217E-06-1.65436E-24
 -1       819 2.56120E-05 7.16015E-08 0.00000E+00
 -1       820 2.48978E-05 1.58089E-06 1.65436E-24
 -1       821 3.58147E-05 2.96672E-06 0.00000E+00
 -1       822 3.56773E-05 1.63306E-06 0.00000E+00
 -1       823 3.55381E-05-1.00495E-06 3.30872E-24
 -1       824 3.53955E-05-4.30522E-06 1.65436E-24
 -1       825 3.52533E-05-7.44355E-06 3.30872E-24
 -1       826 3.51133E-05-9.59659E-06 0.00000E+00
 -1       827 3.49751E-05-1.02135E-05-3.30872E-24
 -1       828 3.48361E-05-8.75308E-06 0.00000E+00
 -1       829 3.46922E-05-5.24780E-06 3.30872E-24
 -1       830 3.45397E-05 2.57162E-07 0.00000E+00
 -1       831 3.43790E-05 7.16433E-06 0.00000E+00
 -1       832 3.42130E-05 1.48674E-05 0.00000E+00
 -1       833 3.40474E-05 2.25400E-05-3.30872E-24
 -1       834 3.38892E-05 2.93560E-05 0.00000E+00
 -1       835 3.37388E-05 3.47251E-05 0.00000E+00
 -1       836 3.41869E-05 2.49960E-06-3.30872E-24
 -1       837 3.22302E-05 2.63969E-06 0.00000E+00
 -1       838 3.01603E-05 2.77935E-06 3.30872E-24
 -1       839 2.80651E-05 2.91811E-06-8.27181E-25
 -1       840 2.60324E-05 3.05677E-06-4.13590E-25
 -1       856 3.35484E-05 4.04798E-05 0.00000E+00
 -1       857 3.34861E-05 4.30616E-05 0.00000E+00
 -1       858 3.34238E-05 4.57849E-05 0.00000E+00
 -1       859 3.33602E-05 4.86235E-05 0.00000E+00
 -1       860 3.32963E-05 5.15502E-05 1.65436E-24
 -1       861 3.32321E-05 5.45381E-05 8.27181E-25
 -1       862 3.31677E-05 5.75601E-05 0.00000E+00
 -1       863 3.31033E-05 6.05888E-05-8.27181E-25
 -1       864 3.30389E-05 6.35969E-05 0.00000E+00
 -1       865 3.29747E-05 6.65573E-05 0.00000E+00
 -1       866 3.29106E-05 6.94428E-05 1.65436E-24
 -1       867 3.28469E-05 7.22264E-05 0.00000E+00
 -1       868 3.27835E-05 7.48815E-05 0.00000E+00
 -1       869 3.27204E-05 7.73815E-05 0.00000E+00
 -1       870 3.26578E-05 7.97004E-05 1.65436E-24
 -1       871 3.14871E-05 3.80639E-05 0.00000E+00
 -1       872 2.95187E-05 3.80588E-05 0.00000E+00
 -1       873 2.76376E-05 3.80532E-05 0.00000E+00
 -1       874 2.57802E-05 3.80470E-05 1.03398E-25
 -1       875 2.38831E-05 3.80400E-05 4.13590E-25
 -1       876 3.28385E-05 4.04915E-05 0.00000E+00
 -1       877 3.20443E-05 4.29989E-05 0.00000E+00
 -1       878 3.12232E-05 4.55782E-05-3.30872E-24
 -1       879 3.03788E-05 4.82201E-05-1.65436E-24
 -1       880 2.95144E-05 5.09153E-05-3.30872E-24
 -1       881 2.86335E-05 5.36544E-05 0.00000E+00
 -1       882 2.77395E-05 5.64281E-05 0.00000E+00
 -1       883 2.68360E-05 5.92271E-05 0.00000E+00
 -1       884 2.59263E-05 6.20421E-05 0.00000E+00
 -1       885 2.50141E-05 6.48640E-05 1.65436E-24
 -1       886 2.41027E-05 6.76834E-05 0.00000E+00
 -1       887 2.31957E-05 7.04909E-05 1.65436E-24
 -1       888 2.22964E-05 7.32774E-05 3.30872E-24
 -1       889 2.14079E-05 7.60333E-05-1.65436E-24
 -1       890 2.05337E-05 7.87494E-05 0.00000E+00
 -1       891 3.06260E-05 8.17462E-05 0.00000E+00
 -1       892 2.86283E-05 8.16796E-05-8.27181E-25
 -1       893 2.65681E-05 8.16130E-05 1.65436E-24
 -1       894 2.44112E-05 8.15463E-05 4.13590E-25
 -1       895 2.21235E-05 8.14795E-05-4.13590E-25
 -1       956 2.40113E-05 4.98701E-06 3.30872E-24
 -1       957 2.38705E-05 6.88166E-06-8.27181E-25
 -1       958 2.37291E-05 8.86099E-06 0.00000E+00
 -1       959 2.35874E-05 1.09157E-05 0.00000E+00
 -1       960 2.34454E-05 1.30364E-05 0.00000E+00
 -1       961 2.33033E-05 1.52137E-05-1.65436E-24
 -1       962 2.31611E-05 1.74382E-05-3.30872E-24
 -1       963 2.30188E-05 1.97006E-05-1.65436E-24
 -1       964 2.28764E-05 2.19913E-05 3.30872E-24
 -1       965 2.27339E-05 2.43009E-05 0.00000E+00
 -1       966 2.25915E-05 2.66200E-05 0.00000E+00
 -1       967 2.24491E-05 2.89392E-05 0.00000E+00
 -1       968 2.23068E-05 3.12491E-05 0.00000E+00
 -1       969 2.21648E-05 3.35402E-05-1.65436E-24
 -1       970 2.20232E-05 3.58031E-05 0.00000E+00
 -1       971 2.17481E-05 4.02971E-05 0.00000E+00
 -1       972 2.16103E-05 4.26922E-05-1.65436E-24
 -1       973 2.14720E-05 4.52000E-05 0.00000E+00
 -1       974 2.13333E-05 4.78061E-05 0.00000E+00
 -1       975 2.11944E-05 5.04957E-05 0.00000E+00
 -1       976 2.10552E-05 5.32543E-05-1.65436E-24
 -1       977 2.09159E-05 5.60673E-05-3.30872E-24
 -1       978 2.07764E-05 5.89200E-05 0.00000E+00
 -1       979 2.06369E-05 6.17978E-05-3.30872E-24
 -1       980 2.04974E-05 6.46861E-05 0.00000E+00
 -1       981 2.03579E-05 6.75701E-05-3.30872E-24
 -1       982 2.02186E-05 7.04352E-05-1.65436E-24
 -1       983 2.00796E-05 7.32668E-05 0.00000E+00
 -1       984 1.99412E-05 7.60502E-05 0.00000E+00
 -1       985 1.98036E-05 7.87708E-05 0.00000E+00
 -3
    1PSTEP                        32          16           1          
  100CL  116 8.01270E-01         409                     0   16           1
 -4  STRESS      6    1
 -5  SXX         1    4    1    1
 -5  SYY         1    4    2    2
 -5  SZZ         1    4    3    3
 -5  SXY         1    4    1    2
 -5  SYZ         1    4    2    3
 -5  SZX         1    4    3    1
 -1         1-2.70193E+06-1.35838E+06-5.14571E+05-1.75407E+06 3.53612E-09-2.28334E-07
 -1         2 2.40795E+06 3.36236E+07 7.52681E+06-1.08245E+07-1.72877E-08-2.17318E-07
 -1         3-6.22531E+01 1.94365E+06-3.24151E+02-3.90613E+02-1.51569E-10 5.10227E-09
 -1         5-1.09081E+02 4.03143E+05 1.05381E+01 1.74994E+00 5.90496E-10 2.76341E-08
 -1         8 2.88728E+06 2.67625E+05 1.02425E+06-1.64792E+06-2.72121E-09-1.51194E-08
 -1         9 2.35458E+07 2.79434E+07 7.75727E+06 1.60654E+07 1.83005E-08 2.77720E-07
 -1        10 1.52972E+03 2.02539E+06 6.24358E+03-2.84315E+03 1.32843E-09 1.11540E-09
 -1        12-1.05037E+02 4.03166E+05 3.48419E+02 1.17255E+01 9.00727E-10 1.25146E-09
 -1        15 4.24981E+03 2.33562E+03 1.37377E+04 1.43609E+01 6.70184E-11-7.94497E-08
 -1        16 2.90597E+07 3.30678E+07 8.35827E+06 3.12512E+07 6.72881E-08 1.37525E-07
 -1        17 3.19517E+07-1.87672E+05 4.32555E+06-4.52779E+06 3.68801E-08-5.31666E-08
 -1        18 9.02773E+05 2.12120E+05 1.91497E+05-7.76369E+04 3.81169E-09 2.08274E-09
 -1        19 1.23539E+05 1.53460E+05-2.31254E+02 2.51243E+04-2.30793E-09-3.70055E-09
 -1        20-3.41949E+04-5.84763E+05-1.27851E+05 5.18296E+04 1.05714E-08-3.66223E-10
 -1        21-5.62050E+01-3.57768E+05-1.17472E+03-4.97966E+02-2.92089E-08-1.13428E-08
 -1        24 5.16505E+07-2.31390E+06 6.27916E+06-7.91516E+06 1.40878E-07 3.64550E-08
 -1        25 4.28488E+05 1.72866E+06 4.41413E+05-1.03444E+05-1.61526E-10 8.03557E-09
 -1        26-5.89195E+03 1.12236E+05-1.61098E+04-2.54306E+04 2.63462E-09 3.40033E-09
 -1        27-9.73239E+04-3.22321E+05-1.21379E+05 7.36434E+04 1.13775E-08-1.86083E-09
 -1        28 2.82628E+04-9.65868E+04 2.01461E+04 3.49451E+04 9.70209E-09-3.90058E-09
 -1        32-3.95147E+05 4.09851E+06 1.53942E+06-7.28924E+05 6.98492E-10 7.13169E-08
 -1        33-1.79653E+05 9.85489E+04 3.45427E+04-6.76900E+04 4.13430E-09 4.27766E-10
 -1        34-2.42799E+05-2.31029E+04 4.47753E+02 7.10911E+04 9.38006E-09 3.14382E-10
 -1        35-2.85333E+04-3.83170E+04-1.50930E+03 6.23833E+04 1.57112E-08-2.08820E-09
 -1        51 1.62870E+04-1.02421E+06 4.93547E+04-1.62843E+06 1.30967E-09 2.26282E-07
 -1        52 1.82887E+04-1.03232E+06 3.61886E+04-1.90029E+06-2.35741E-09-1.39160E-07
 -1        53 1.79849E+04-1.06068E+06 3.34344E+04-1.62271E+06-8.73115E-11 2.08704E-07
 -1        54 4.49980E+04-1.06485E+06 5.76719E+04-1.90574E+06-5.38421E-10 6.22997E-07
 -1        55 7.63735E+04-1.08786E+06 1.04405E+05-1.62168E+06 1.78989E-09 3.73591E-07
 -1        56-5.25807E+06-5.83090E+05-3.88291E+05-1.97594E+06 1.08350E-07-4.50847E-07
 -1        57-5.28370E+06-9.55712E+05-2.45890E+05-2.00087E+06-7.42239E-08 2.65503E-07
 -1        58-5.39610E+06-6.29683E+05-9.54200E+04-1.86716E+06 5.49444E-08 2.22935E-08
 -1        59-5.11486E+06-9.29315E+05-4.85888E+04-2.18853E+06-8.01083E-08-1.02478E-07
 -1        60-5.44338E+06-5.93779E+05-2.21207E+04-1.80189E+06 9.58971E-09-2.56448E-07
 -1        61-5.07265E+06-9.65873E+05-1.12331E+04-2.28058E+06-1.82335E-08-8.94534E-08
 -1        62-5.45330E+06-5.82312E+05-5.90067E+03-1.78524E+06-2.60470E-08 1.02994E-07
 -1        63-5.07777E+06-9.50185E+05-4.56552E+03-2.25891E+06 1.74039E-07-3.50203E-07
 -1        64-5.43413E+06-6.12192E+05-1.17459E+04-1.82091E+06-2.31703E-08-6.38098E-07
 -1        65-5.12879E+06-8.73373E+05-1.26510E+04-2.13486E+06-1.43991E-08-2.16504E-07
 -1        66-5.38350E+06-6.71912E+05-4.17127E+04-1.89665E+06 4.90400E-09 2.51774E-07
 -1        67-5.25752E+06-7.74510E+05-7.70356E+04-1.95512E+06-4.86034E-09-4.28918E-07
 -1        68-5.29307E+06-7.20298E+05-1.53979E+05-1.99102E+06 6.53326E-08 3.71976E-07
 -1        69-5.55647E+06-8.59432E+05-4.07804E+05-1.74971E+06-7.51152E-09-1.25947E-07
 -1        70-5.09333E+06-5.88491E+05-6.21326E+05-2.10411E+06-2.70156E-08-2.97121E-07
 -1        86-2.46217E+06-2.15484E+07-4.18340E+06 5.03062E+06 3.07617E-07-6.68937E-07
 -1        87 4.07600E+06 1.01820E+07 3.38914E+06-8.43762E+06 4.66651E-07-8.29123E-07
 -1        88-8.54729E+05-1.16930E+06 2.67386E+05 3.30065E+06 5.24109E-07-1.89923E-07
 -1        89 5.24441E+06 9.71704E+06 3.33758E+06-8.73994E+06 6.21105E-07-7.04757E-07
 -1        90-3.47374E+06-2.11989E+07-4.81347E+06 5.39433E+06 1.59926E-07-4.48112E-07
 -1       121-2.97080E+01 1.94377E+06-4.05915E+02 1.95336E+02-2.39460E-10 2.25555E-09
 -1       122-2.07546E+02 1.94356E+06-7.30062E+02-7.84096E+02 8.57344E-10 6.80302E-10
 -1       123 7.38307E+01 1.94387E+06-1.26001E+03 5.88983E+02-8.93465E-10 1.46429E-09
 -1       124-1.98902E+03 1.94249E+06-3.19363E+03-1.50051E+03 1.19229E-09 5.70253E-09
 -1       125 1.22085E+03 1.94486E+06-4.66422E+03 9.12894E+02-1.21372E-09 3.22962E-09
 -1       191-1.14820E+02 4.03156E+05 7.46106E+00-9.24888E-01 6.94865E-10 1.07320E-09
 -1       192-1.10121E+02 4.03144E+05 2.25605E+01 5.42290E+00 9.97602E-10-2.24099E-08
 -1       193-1.17545E+02 4.03155E+05 3.69619E+01-4.80231E+00 1.14132E-09-1.16997E-08
 -1       194-1.13449E+02 4.03148E+05 8.59415E+01 1.22431E+01 4.82923E-10-3.61797E-09
 -1       195-1.22772E+02 4.03153E+05 1.63092E+02-8.07174E+00 1.72206E-09-1.65892E-09
 -1       251 1.96307E+07-8.37905E+05 1.93700E+06 1.62543E+05 2.05682E-09-6.69388E-08
 -1       252 2.06627E+07 9.80497E+05 1.39764E+06-9.93060E+05 1.72104E-08-9.07457E-08
 -1       253 2.00547E+07-1.12510E+05 5.12033E+05-4.34773E+05-2.76709E-08 3.54776E-08
 -1       254 2.01879E+07 1.49557E+05 3.17643E+05-4.08557E+05 1.20707E-08 4.92328E-08
 -1       255 2.01079E+07-1.00214E+04 1.33135E+05-4.21585E+05 1.25125E-08-3.18687E-08
 -1       256 2.01294E+07 3.09820E+04 7.93384E+04-4.21700E+05-1.18968E-08 6.68435E-07
 -1       257 2.01167E+07 5.61174E+03 4.06288E+04-4.21713E+05 1.15418E-08-1.72236E-07
 -1       258 2.01210E+07 1.48217E+04 3.38797E+04-4.21591E+05-3.11191E-08 2.17496E-07
 -1       259 2.01170E+07 6.09008E+03 3.69278E+04-4.21712E+05-1.22756E-09 5.58242E-07
 -1       260 2.01272E+07 2.68393E+04 6.84463E+04-4.21831E+05 2.07504E-08 4.90675E-07
 -1       261 2.01099E+07-6.37027E+03 1.14050E+05-4.21461E+05 5.49541E-08 3.29906E-07
 -1       262 2.01750E+07 1.21938E+05 2.68654E+05-4.04963E+05-2.36292E-08-1.22058E-07
 -1       263 2.00663E+07-8.86560E+04 4.36994E+05-4.38507E+05 8.92078E-09-4.54311E-08
 -1       264 2.06887E+07 8.40112E+05 1.20971E+06-1.19079E+06 7.75597E-08-2.22441E-07
 -1       265 1.96003E+07-7.23229E+05 1.62271E+06 3.63881E+05 4.78394E-09 5.22705E-07
 -1       266-7.69261E+04-3.59446E+04 1.80612E+05-3.07457E+02 3.70346E-09 6.12152E-07
 -1       267 8.91891E+04 4.19339E+04 1.27592E+05 3.54524E+02 7.21047E-09 1.10203E-06
 -1       268-1.19596E+04-5.93686E+03 4.74289E+04-4.51848E+01 3.67436E-09 2.88074E-07
 -1       269 1.41214E+04 7.10756E+03 3.08246E+04 5.26202E+01 3.35331E-09 1.85370E-07
 -1       270-2.11963E+03-1.16773E+03 1.48796E+04-7.14149E+00 1.57206E-09-4.87490E-08
 -1       271-9.77535E+06-1.19135E+06-8.21808E+05-3.75586E+06 5.41231E-08-1.75787E-08
 -1       272-9.88913E+06-1.84523E+06-5.11986E+05-3.83476E+06 2.83944E-08-9.90338E-07
 -1       273-9.99763E+06-1.31189E+06-2.00550E+05-3.63759E+06-1.33972E-07 2.89016E-07
 -1       274-9.63772E+06-1.71143E+06-1.02357E+05-4.06532E+06 4.78904E-08 5.81707E-07
 -1       275-1.00715E+07-1.26770E+06-4.73167E+04-3.57044E+06 1.73895E-08 4.18549E-07
 -1       276-9.58584E+06-1.74910E+06-2.18807E+04-4.19356E+06-2.40421E-07-1.39705E-07
 -1       277-1.00978E+07-1.23961E+06-1.10529E+04-3.54261E+06-8.62965E-08 4.10393E-07
 -1       278-9.58020E+06-1.75546E+06-8.42396E+03-4.21262E+06 1.22810E-07 4.43045E-07
 -1       279-1.00855E+07-1.25563E+06-1.34658E+04-3.55679E+06 3.69982E-09 6.90659E-07
 -1       280-9.60263E+06-1.71009E+06-2.07560E+04-4.11924E+06-6.93835E-08 7.43070E-07
 -1       281-1.00363E+07-1.31074E+06-5.28241E+04-3.61037E+06-1.62545E-08 8.36008E-09
 -1       282-9.68805E+06-1.63434E+06-1.01589E+05-3.94072E+06-4.13274E-09 1.94610E-07
 -1       283-9.94567E+06-1.36961E+06-2.05974E+05-3.69618E+06-2.56623E-08-4.20434E-07
 -1       284-9.98805E+06-1.73923E+06-5.15244E+05-3.69652E+06-2.74595E-08-6.18573E-07
 -1       285-9.71456E+06-1.24819E+06-8.27255E+05-3.82286E+06 8.98472E-08-2.11585E-07
 -1       301-7.45829E+04 2.76307E+05-1.01553E+05 1.79986E+06 7.23230E-09-2.25016E-07
 -1       302-6.83065E+04 2.51559E+05-2.99596E+04 2.63614E+06-1.64873E-08-1.79345E-07
 -1       303-3.70709E+04 2.32468E+05 2.67415E+04 1.79720E+06-1.59635E-08-2.00904E-07
 -1       304-3.11906E+04 2.99007E+05 1.04956E+05 2.63517E+06 3.60887E-09 2.57212E-07
 -1       305-3.92140E+04 2.49675E+05 1.95541E+05 1.80202E+06 1.78843E-08-6.55156E-07
 -1       306-4.03980E+07-4.79917E+07-2.48971E+07-2.86640E+07 2.01631E-07-1.66474E-07
 -1       307 1.50243E+07 1.04929E+08 1.90451E+07 3.20329E+07 1.30909E-06-5.99073E-07
 -1       308-2.36854E+06-3.24050E+07-8.17192E+06 3.95649E+06 1.13709E-07-2.63797E-07
 -1       309 1.94081E+06 3.16807E+07 7.29218E+06-3.95632E+07-5.93136E-08 3.87197E-07
 -1       310 2.84175E+06-7.00275E+06 4.62491E+05 7.44275E+06 3.89700E-08 6.88015E-08
 -1       311-5.98669E+06 7.28322E+07 1.18297E+07-8.33412E+06-9.55188E-07 1.32469E-06
 -1       312-1.48845E+07-5.30342E+07-1.70891E+07-1.60206E+07-6.61734E-07-2.85450E-07
 -1       313 7.80097E+07 7.03052E+07 2.36986E+07 6.60812E+07 9.05711E-08-4.05184E-07
 -1       314-6.58066E+07-1.71453E+07-2.15794E+07-1.72701E+07-3.19676E-07-3.96394E-08
 -1       315 1.11133E+08 3.70495E+06 1.88062E+07-1.17391E+07 1.89524E-07 2.28931E-07
 -1       316-2.43942E+07-1.06332E+07-7.85737E+06 1.41068E+07 3.36673E-07 8.83942E-07
 -1       317-3.89754E+06 3.74007E+07 7.27824E+06-3.63107E+07-1.33723E-06 1.76136E-07
 -1       318 6.49149E+05-4.85828E+06 1.48792E+05 8.34134E+06 1.13691E-06 2.41474E-07
 -1       319 5.09967E+07 1.92220E+07 1.18379E+07-3.66601E+07 1.77140E-07 4.25382E-07
 -1       320-5.88427E+07-1.31571E+07-1.98404E+07 6.05378E+06-1.46218E-07-4.31901E-08
 -1       336-2.13129E+03 2.10406E+06 1.81660E+04 1.93301E+03 4.35330E-09 2.07547E-09
 -1       337 6.93458E+03 2.11079E+06 2.81302E+04-4.48230E+03 9.03333E-09 2.45200E-09
 -1       338-3.74028E+03 2.10256E+06 4.38865E+04 2.54895E+03 5.98811E-09-1.82808E-10
 -1       339 4.91117E+04 2.13641E+06 1.04112E+05-5.79930E+03 9.08221E-09-3.85853E-09
 -1       340-3.49948E+04 2.07844E+06 1.62457E+05 3.21217E+03 6.65750E-09-3.65162E-09
 -1       406-8.34363E+01 4.03137E+05 6.82608E+02-4.59898E+00 2.21485E-09 2.87400E-09
 -1       407 1.35374E+02 4.03287E+05 1.46205E+03-2.73197E+01 3.48678E-10 5.27689E-09
 -1       408 6.44044E+02 4.03030E+05 2.91328E+03 3.20148E+01 2.69392E-09 3.76895E-09
 -1       409 3.06039E+03 4.04217E+05 6.56946E+03-3.47390E+02 1.71440E-10-1.55705E-09
 -1       410 8.98097E+03 4.02188E+05 1.34067E+04 3.36472E+02 3.04499E-09 1.53705E-09
 -1       521-4.01381E+07-4.71773E+07-2.60637E+07-2.52293E+07 7.21775E-08-4.20376E-07
 -1       522 1.21906E+07 1.05982E+08 1.78566E+07 3.11335E+07 1.15376E-06-9.46049E-07
 -1       523-3.10105E+06-2.98072E+07-7.91198E+06 3.65479E+06 5.93427E-07-1.58674E-07
 -1       524 1.75412E+06 2.85355E+07 6.98192E+06-4.29604E+07-4.84986E-07 1.47021E-06
 -1       525 2.94912E+06-7.30135E+06 7.19069E+05 6.85662E+06-2.19210E-07 1.12585E-06
 -1       526-7.65239E+06 7.35495E+07 1.13974E+07-1.12334E+07-1.66474E-07 3.63274E-07
 -1       527-1.64004E+07-5.04537E+07-1.77803E+07-1.41723E+07-6.03177E-07 3.70201E-07
 -1       528 7.85880E+07 7.03704E+07 2.23865E+07 6.85568E+07-4.82134E-07-3.14321E-07
 -1       529-6.29310E+07-1.92161E+07-2.27197E+07-1.49727E+07-2.43075E-07-1.78989E-07
 -1       530 1.11279E+08 2.36377E+06 1.77135E+07-1.45191E+07 4.31901E-07-6.56582E-08
 -1       531-2.25279E+07-1.07702E+07-7.64072E+06 1.27505E+07 4.97210E-07 3.45870E-07
 -1       532-9.51873E+06 3.98938E+07 6.98579E+06-3.71131E+07-1.22690E-06 4.03437E-07
 -1       533 1.28900E+05-4.46808E+06 3.92779E+05 8.10895E+06-8.48842E-07 7.84727E-07
 -1       534 4.84215E+07 2.08608E+07 1.13655E+07-3.95871E+07 7.36807E-07-6.01169E-07
 -1       535-5.56449E+07-1.53404E+07-2.07086E+07 5.78370E+06 1.38767E-07-4.90283E-07
 -1       536 3.25050E+06-1.12906E+05 2.61646E+05-1.47210E+04-2.14416E-08-1.94996E-09
 -1       537 3.36507E+06 1.30732E+05 1.85243E+05 4.70522E+03 6.67617E-09-6.73026E-09
 -1       538 3.29499E+06-1.76731E+04 6.78786E+04-5.44062E+03-9.74865E-12-2.19006E-09
 -1       539 3.31357E+06 2.04758E+04 4.27155E+04-4.85472E+03-2.12866E-09 2.42835E-10
 -1       540 3.30223E+06-2.76220E+03 1.75842E+04-5.16272E+03 1.42920E-09-6.66660E-10
 -1       541 3.30522E+06 3.27758E+03 1.06615E+04-5.14208E+03-2.83875E-08 3.04874E-09
 -1       542 3.30342E+06-4.89247E+02 5.53365E+03-5.15341E+03-8.86736E-06-1.37917E-08
 -1       543 3.30406E+06 1.02536E+03 4.97062E+03-5.15190E+03-1.76781E-05-2.90349E-08
 -1       544 3.30340E+06-5.11569E+02 5.73744E+03-5.15293E+03-8.86479E-06-1.88618E-08
 -1       545 3.30532E+06 3.46953E+03 1.12497E+04-5.16025E+03-3.27838E-08 5.03519E-10
 -1       546 3.30214E+06-2.93169E+03 1.86447E+04-5.14502E+03 2.00323E-10-2.56659E-09
 -1       547 3.31419E+06 2.17382E+04 4.53538E+04-5.49425E+03 5.17440E-09 1.68529E-09
 -1       548 3.29445E+06-1.87647E+04 7.21013E+04-4.81877E+03 5.00232E-09 3.15049E-09
 -1       549 3.36922E+06 1.38960E+05 1.96853E+05-1.74521E+04-6.48765E-09 7.27596E-10
 -1       550 3.24689E+06-1.20035E+05 2.77884E+05 6.81196E+03-1.65599E-09-2.66300E-09
 -1       551-1.50992E+04 7.14748E+03-2.98959E+04-1.53380E+06 6.61748E-09 1.23691E-09
 -1       552 2.65732E+03-1.25830E+04 7.47973E+03-2.18407E+06-4.42378E-09 1.41154E-09
 -1       553 4.38919E+03-1.62097E+04 4.36150E+04-1.53066E+06 5.82077E-10 4.82760E-09
 -1       554 3.00319E+04 2.63497E+04 1.13595E+05-2.18316E+06 2.76486E-09 1.03537E-08
 -1       555 1.79006E+04-1.03563E+04 2.05853E+05-1.53514E+06 1.04192E-08 1.04337E-08
 -1       556-1.02168E+05-3.43292E+04-4.46378E+04-4.99368E+04 7.98536E-10-2.26373E-09
 -1       557-1.07201E+05-3.67144E+04-2.32318E+04-5.99452E+04-2.77214E-09-6.97469E-10
 -1       558-1.05215E+05-2.67014E+04-9.83677E+03-5.49559E+04 4.25280E-09-4.93856E-10
 -1       559-1.01879E+05-3.07513E+04-4.85018E+03-5.97399E+04 4.18368E-11-3.27100E-09
 -1       560-1.05424E+05-2.66157E+04-2.26399E+03-5.51230E+04 2.21553E-09 1.15697E-08
 -1       561-1.01461E+05-3.05427E+04-1.10694E+03-5.95977E+04-4.75848E-09 1.00772E-09
 -1       562-1.05401E+05-2.66922E+04-5.76742E+02-5.50909E+04-3.13958E-09-4.69299E-10
 -1       563-1.01354E+05-3.05703E+04-3.09802E+02-5.95172E+04-1.30240E-09-5.05679E-10
 -1       564-1.05340E+05-2.67423E+04-2.59736E+02-5.50528E+04-4.39468E-09-6.65568E-09
 -1       565-1.01278E+05-3.05922E+04-2.59855E+02-5.94428E+04 4.65661E-10 2.16369E-09
 -1       566-1.05269E+05-2.67926E+04-4.62570E+02-5.50197E+04 8.34916E-09 3.15413E-09
 -1       567-1.01278E+05-3.06273E+04-8.34233E+02-5.93509E+04 5.32054E-09 1.76988E-09
 -1       568-1.05129E+05-2.68823E+04-1.69573E+03-5.49735E+04-2.21917E-09-2.11730E-09
 -1       569-1.02482E+05-3.12089E+04-3.84750E+03-5.88190E+04-3.67618E-09 1.07684E-09
 -1       570-1.04164E+05-2.85574E+04-7.42320E+03-5.45618E+04-2.39379E-09-4.35830E-09
 -1       571 2.80023E+05 8.85881E+03 1.33494E+04-5.95509E+04 9.17225E-09 2.51293E-09
 -1       572 2.82014E+05 2.97416E+03 6.54106E+03-6.52288E+04 1.78661E-08-3.60387E-09
 -1       573 2.80803E+05 6.04795E+02 2.90542E+03-5.93566E+04 8.62201E-09 6.51198E-10
 -1       574 2.81042E+05 9.31124E+01 1.45593E+03-6.54304E+04-1.26511E-09 3.38378E-09
 -1       575 2.80876E+05-9.91018E+01 6.85508E+02-5.93319E+04 1.75851E-09-1.69211E-09
 -1       576 2.80897E+05-1.32101E+02 3.48107E+02-6.54572E+04 4.17845E-09 2.48110E-09
 -1       577 2.80878E+05-1.30459E+02 1.69405E+02-5.93288E+04 3.36331E-09 3.48518E-09
 -1       578 2.80874E+05-1.38265E+02 8.82725E+01-6.54605E+04 2.52788E-09 6.77574E-11
 -1       579 2.80886E+05-1.28685E+02 4.62954E+01-5.93287E+04-4.62660E-09-1.45519E-09
 -1       580 2.80887E+05-1.43688E+02 3.03381E+01-6.54574E+04 2.11753E-09 3.49792E-09
 -1       581 2.80911E+05-1.39208E+02 2.65577E+01-5.93318E+04-3.95630E-09 2.80397E-09
 -1       582 2.80926E+05-1.56549E+02 4.01211E+01-6.54263E+04-1.28421E-09 5.01586E-10
 -1       583 2.80950E+05-1.46095E+02 6.87952E+01-5.93597E+04-5.63887E-11 2.17665E-09
 -1       584 2.81003E+05-1.15806E+02 1.52212E+02-6.51906E+04-6.15091E-09 2.75168E-09
 -1       585 2.80986E+05 1.95146E+01 3.03540E+02-5.95676E+04 8.49468E-10 5.52973E-10
 -1       586-4.87916E+03 8.15049E+04-7.48893E+03-1.76039E+05 3.95244E-09-1.19098E-09
 -1       587-1.01298E+03 8.03492E+04-2.42453E+03-1.93562E+05 7.10770E-09-2.53931E-09
 -1       588 9.29280E+02 8.08300E+04 1.42087E+03-1.75859E+05 3.70528E-09 2.36605E-09
 -1       589 3.91134E+03 8.19519E+04 6.33999E+03-1.93526E+05 6.35373E-09 3.94493E-10
 -1       590 1.04020E+04 7.99464E+04 1.43368E+04-1.76049E+05 3.37241E-09 8.27640E-11
 -1       591-5.84955E+04-1.95011E+04-2.17190E+04-3.36064E+04 1.71846E-09-2.71575E-09
 -1       592-5.97536E+04-2.56068E+04-1.17633E+04-4.01367E+04 4.95675E-11-2.84024E-09
 -1       593-6.07049E+04-1.78892E+04-4.89775E+03-3.51689E+04-9.08813E-10 3.84716E-10
 -1       594-5.67205E+04-2.24611E+04-2.44229E+03-4.03068E+04 3.20938E-10 1.00584E-10
 -1       595-6.08770E+04-1.78789E+04-1.12260E+03-3.52425E+04 1.19235E-09 1.74595E-09
 -1       596-5.65184E+04-2.23161E+04-5.72092E+02-4.02889E+04-1.15892E-09 2.61272E-09
 -1       597-6.08996E+04-1.78918E+04-3.15111E+02-3.52460E+04-1.96962E-11 1.09025E-08
 -1       598-5.64993E+04-2.23105E+04-2.59878E+02-4.02833E+04 1.54500E-09 2.56443E-09
 -1       599-6.08971E+04-1.78924E+04-3.40475E+02-3.52450E+04-2.65891E-09-2.21235E-09
 -1       600-5.65188E+04-2.23189E+04-6.39089E+02-4.02865E+04-2.84763E-09-1.89766E-09
 -1       601-6.08671E+04-1.78794E+04-1.26482E+03-3.52388E+04 1.14005E-09 4.37512E-09
 -1       602-5.67449E+04-2.24833E+04-2.75760E+03-4.03027E+04 2.90538E-09 3.01043E-10
 -1       603-6.06696E+04-1.78945E+04-5.53215E+03-3.51553E+04-2.79488E-09-2.48838E-09
 -1       604-6.01766E+04-2.60275E+04-1.32865E+04-4.00968E+04-1.19780E-09 1.92995E-09
 -1       605-5.81619E+04-1.97225E+04-2.45310E+04-3.33979E+04-2.63708E-09-4.38740E-09
 -1       606 4.86473E+04-1.34940E+04-2.43938E+04 4.80262E+04-2.13495E-08-2.36287E-09
 -1       607 4.44558E+04-4.29160E+03-1.21437E+04 5.38933E+04-1.96069E-08-4.02542E-09
 -1       608 4.67858E+04-6.68655E+02-5.44423E+03 4.76321E+04 6.80302E-10 7.82165E-10
 -1       609 4.62809E+04-8.01084E+01-2.74752E+03 5.43114E+04-4.36012E-09-1.96724E-09
 -1       610 4.65105E+04 1.38154E+02-1.31694E+03 4.75883E+04-1.40972E-08-2.17051E-09
 -1       611 4.63838E+04 1.98301E+02-6.63266E+02 5.43567E+04-2.40543E-08 8.24912E-10
 -1       612 4.64039E+04 1.89778E+02-3.21084E+02 4.75841E+04-1.22072E-08 2.37378E-09
 -1       613 4.63310E+04 2.37927E+02-1.47339E+02 5.43616E+04-1.86137E-08-1.09321E-09
 -1       614 4.63334E+04 2.15011E+02-4.69958E+01 4.75826E+04-3.04863E-09-7.00311E-10
 -1       615 4.62756E+04 2.67189E+02 3.50327E+01 5.43619E+04 1.55487E-08 3.26827E-09
 -1       616 4.62805E+04 2.41035E+02 1.29015E+02 4.75831E+04-1.65246E-08 2.88992E-09
 -1       617 4.62543E+04 3.16655E+02 3.05667E+02 5.43606E+04-2.22080E-08-2.29602E-09
 -1       618 4.62271E+04 3.46029E+02 6.19142E+02 4.75831E+04-1.47420E-08-2.73394E-09
 -1       619 4.64508E+04 8.08974E+02 1.39318E+03 5.43589E+04-5.74232E-09-1.49385E-09
 -1       620 4.60078E+04 1.82554E+03 2.80038E+03 4.75786E+04 3.76326E-09-7.11225E-10
 -1       621 7.36793E+02 3.30656E+05 5.88411E+03-5.85614E+03-1.31377E-09-5.01586E-10
 -1       622 8.16048E+02 3.32115E+05 4.56406E+03-8.30161E+03-1.35537E-09-1.47293E-09
 -1       623 4.82417E+01 3.31139E+05 4.68511E+03-5.82966E+03-1.12914E-09-4.65650E-09
 -1       624 1.99952E+03 3.33201E+05 8.40596E+03-8.33275E+03-1.05126E-09-1.71508E-09
 -1       625 1.99038E+03 3.29564E+05 1.43815E+04-5.82111E+03-1.16597E-09-1.21713E-09
 -1       626 2.50601E+05 7.51936E+04 4.52797E+03 1.43422E+05-4.29463E-09-3.41242E-09
 -1       627 2.46428E+05 7.85472E+04 2.18436E+03 1.49560E+05-6.47378E-09-5.54746E-09
 -1       628 2.50786E+05 7.29996E+04 9.18837E+02 1.44011E+05 1.09521E-08 1.38048E-08
 -1       629 2.45654E+05 7.81195E+04 4.52795E+02 1.49902E+05 9.60426E-09-1.34423E-09
 -1       630 2.50763E+05 7.29139E+04 2.07564E+02 1.43997E+05 4.35830E-09 6.20003E-09
 -1       631 2.45527E+05 7.81301E+04 1.13773E+02 1.49884E+05-9.17953E-09-5.53044E-09
 -1       632 2.50721E+05 7.29385E+04 7.65058E+01 1.43967E+05-1.48138E-08-6.60475E-09
 -1       633 2.45482E+05 7.81495E+04 9.00249E+01 1.49855E+05-9.17498E-09-9.56561E-10
 -1       634 2.50686E+05 7.29501E+04 1.48135E+02 1.43948E+05 1.89193E-08 8.00264E-09
 -1       635 2.45471E+05 7.81593E+04 3.03290E+02 1.49842E+05 1.36361E-08-1.00317E-09
 -1       636 2.50658E+05 7.29554E+04 6.12832E+02 1.43936E+05-2.94222E-10 1.00899E-08
 -1       637 2.45588E+05 7.82600E+04 1.34706E+03 1.49830E+05 1.96405E-09 5.69253E-09
 -1       638 2.50602E+05 7.32568E+04 2.76817E+03 1.43795E+05-1.99293E-10 3.30419E-09
 -1       639 2.47036E+05 8.02856E+04 6.54787E+03 1.49403E+05-1.18448E-08-1.25856E-08
 -1       640 2.50424E+05 7.92706E+04 1.35873E+04 1.41226E+05-6.88078E-09-9.00400E-10
 -1       656 7.08510E+04-1.78118E+06-1.70957E+05 2.50944E+03 4.66389E-09-2.32191E-09
 -1       657-9.35844E+04-1.85815E+06-1.41223E+05 1.45418E+04 5.94446E-09-4.21323E-10
 -1       658 2.23925E+04-1.80318E+06-8.64347E+04-4.06066E+02 3.41538E-09 1.72270E-09
 -1       659-9.97978E+04-1.86113E+06-1.49381E+05 1.63258E+04 9.16771E-10-2.48516E-10
 -1       660 7.70542E+04-1.77822E+06-1.84960E+05 7.25451E+02-2.09548E-09-4.92184E-09
 -1       661 2.98953E+05 3.32890E+04 2.78476E+04 1.17308E+05 8.78572E-09-1.93359E-09
 -1       662 3.13201E+05 5.53825E+04 1.87639E+04 1.12762E+05 4.34443E-09-5.58725E-09
 -1       663 3.04429E+05 4.22129E+04 6.56426E+03 1.15713E+05 3.59228E-09 2.43972E-10
 -1       664 3.06855E+05 4.49461E+04 3.92441E+03 1.14712E+05-5.23215E-10-2.94170E-09
 -1       665 3.05259E+05 4.34317E+04 1.54768E+03 1.15470E+05-9.82675E-09-2.95904E-09
 -1       666 3.05872E+05 4.35542E+04 9.01748E+02 1.15033E+05-1.93047E-08 1.14431E-09
 -1       667 3.05407E+05 4.35677E+04 4.73554E+02 1.15406E+05-1.35157E-09-1.90889E-09
 -1       668 3.05702E+05 4.34605E+04 4.71390E+02 1.15132E+05 1.01150E-08-2.70880E-09
 -1       669 3.05428E+05 4.35219E+04 6.28149E+02 1.15372E+05 1.03018E-08 2.01763E-09
 -1       670 3.05834E+05 4.38167E+04 1.35940E+03 1.15160E+05 1.99691E-08 6.92691E-09
 -1       671 3.05276E+05 4.32180E+04 2.41018E+03 1.15376E+05 8.92953E-10 3.67208E-10
 -1       672 3.07213E+05 4.61856E+04 6.16410E+03 1.14849E+05-1.52329E-08-6.42967E-09
 -1       673 3.04057E+05 4.12117E+04 1.03288E+04 1.15660E+05-6.28211E-09-1.24919E-09
 -1       674 3.17024E+05 6.27948E+04 2.95360E+04 1.11982E+05-3.64992E-09 4.37922E-10
 -1       675 2.95528E+05 2.70722E+04 4.38428E+04 1.18067E+05 7.42148E-09-2.99224E-09
 -1       676 3.08693E+01-3.57667E+05-1.41586E+03 2.48993E+02 9.23137E-11 4.60280E-09
 -1       677-3.72837E+02-3.58012E+05-2.59134E+03-4.97463E+02-3.47794E-09 4.00237E-09
 -1       678 2.51442E+02-3.57423E+05-4.58088E+03 2.48303E+02-7.16159E-09 6.45825E-09
 -1       679-4.57961E+03-3.60778E+05-1.08826E+04-4.95083E+02-1.70007E-08 9.78178E-09
 -1       680 2.73567E+03-3.54903E+05-1.75389E+04 2.43733E+02-1.16243E-08 2.20084E-09
 -1       771-3.89860E+06-5.16222E+05-2.06707E+05-1.38512E+06 9.80071E-09 7.45422E-09
 -1       772-3.96663E+06-5.16637E+05-1.11837E+05-1.38091E+06 1.53377E-08-2.14459E-09
 -1       773-3.91815E+06-5.02519E+05-4.67575E+04-1.40205E+06 1.19326E-08 3.35604E-09
 -1       774-3.94120E+06-4.83681E+05-2.31815E+04-1.37984E+06-2.95768E-09-6.39420E-09
 -1       775-3.91947E+06-5.02867E+05-1.07772E+04-1.40394E+06 5.10045E-09 2.51657E-09
 -1       776-3.94135E+06-4.80608E+05-5.23216E+03-1.37856E+06 5.34055E-09 2.19006E-09
 -1       777-3.91955E+06-5.03273E+05-2.66255E+03-1.40500E+06 2.84490E-09 5.36511E-09
 -1       778-3.94295E+06-4.79163E+05-1.42008E+03-1.37770E+06 1.77533E-09 4.30782E-09
 -1       779-3.91951E+06-5.03502E+05-1.10929E+03-1.40587E+06-4.14730E-10-2.54204E-09
 -1       780-3.94442E+06-4.78043E+05-1.27129E+03-1.37709E+06 2.60661E-09 2.55386E-09
 -1       781-3.91944E+06-5.03632E+05-2.20721E+03-1.40654E+06 5.97356E-09-4.49927E-09
 -1       782-3.94589E+06-4.77488E+05-4.52715E+03-1.37671E+06 5.47789E-09-1.73532E-09
 -1       783-3.91913E+06-5.03727E+05-9.02234E+03-1.40687E+06-6.51198E-10-1.56069E-09
 -1       784-3.95206E+06-4.82896E+05-2.16301E+04-1.37629E+06 2.47428E-09-1.59525E-09
 -1       785-3.91523E+06-5.06579E+05-3.99350E+04-1.40414E+06 6.07122E-09-4.15457E-09
 -1       786 3.45127E+05-1.55688E+04 3.60244E+04 5.48875E+02 3.72235E-09 1.35879E-09
 -1       787 3.60738E+05 1.80246E+04 2.54871E+04 7.77165E+01-2.47687E-09 1.83718E-10
 -1       788 3.51152E+05-2.44013E+03 9.32582E+03 4.45267E+02-1.20918E-09 1.57524E-09
 -1       789 3.53721E+05 2.82427E+03 5.86154E+03 2.23333E+02 6.85636E-08-7.65795E-10
 -1       790 3.52147E+05-3.80984E+02 2.38934E+03 4.03277E+02 2.03655E-05-1.75306E-08
 -1       791 3.52561E+05 4.44595E+02 1.41094E+03 2.78291E+02 4.05802E-05-4.30691E-08
 -1       792 3.52312E+05-6.22583E+01 6.59802E+02 3.90311E+02 1.08253E-05-1.08897E-08
 -1       793 3.52379E+05 9.59309E+01 4.64551E+02 2.83972E+02-1.89557E-05 1.88961E-08
 -1       794 3.52330E+05-3.25472E+01 3.93359E+02 3.97597E+02-9.54089E-06 7.70560E-09
 -1       795 3.52425E+05 1.89223E+02 6.40057E+02 2.44768E+02-2.95829E-08 2.58640E-09
 -1       796 3.52266E+05-1.55489E+02 1.00173E+03 4.29515E+02-1.99557E-10-2.50395E-09
 -1       797 3.52892E+05 1.14810E+03 2.39750E+03 1.36491E+02-4.13371E-09 2.94290E-09
 -1       798 3.51862E+05-9.90738E+02 3.79529E+03 5.05875E+02-2.28608E-09 2.88765E-10
 -1       799 3.55750E+05 7.32144E+03 1.03581E+04-1.10854E+02-4.40685E-09 5.79917E-10
 -1       800 3.49407E+05-6.32388E+03 1.46309E+04 6.76855E+02-5.67777E-10-4.81123E-10
 -1       801-3.28539E+05 8.17646E+06 7.93314E+05-7.86471E+03 4.59841E-09-3.76940E-09
 -1       802 4.52421E+05 8.54999E+06 6.89932E+05-9.39724E+04 1.14524E-08 2.31245E-09
 -1       803-1.22265E+05 8.27326E+06 4.67430E+05-6.34469E+04 3.95812E-09-1.79409E-09
 -1       804 5.99410E+05 8.61557E+06 8.82034E+05-7.97730E+04 7.31234E-09-8.74070E-09
 -1       805-4.75171E+05 8.11065E+06 1.12764E+06-2.20626E+04-5.82077E-10 5.62120E-08
 -1       806-3.03802E+05-7.67334E+04-3.08267E+04-1.38574E+05 2.19256E-09-2.35923E-09
 -1       807-3.04519E+05-7.34203E+04-1.51436E+04-1.47997E+05-1.45042E-09-4.22369E-09
 -1       808-3.04742E+05-6.55371E+04-6.42368E+03-1.43750E+05 4.09227E-09 4.21346E-09
 -1       809-3.01223E+05-6.92855E+04-3.13898E+03-1.48529E+05 6.47503E-09 5.28007E-09
 -1       810-3.04894E+05-6.51336E+04-1.43674E+03-1.43979E+05-3.28487E-09-1.54421E-09
 -1       811-3.00976E+05-6.91243E+04-7.10519E+02-1.48506E+05-1.38675E-09 1.58252E-10
 -1       812-3.04922E+05-6.51591E+04-3.51291E+02-1.43979E+05 2.45291E-09 7.84439E-10
 -1       813-3.00944E+05-6.91301E+04-2.15996E+02-1.48488E+05 4.43811E-09 9.39872E-09
 -1       814-3.04917E+05-6.51719E+04-1.93646E+02-1.43973E+05-8.77253E-09-1.17498E-08
 -1       815-3.00940E+05-6.91360E+04-2.93704E+02-1.48478E+05-9.28412E-09 3.19460E-09
 -1       816-3.04889E+05-6.51752E+04-5.45403E+02-1.43964E+05-1.91121E-08 2.39470E-09
 -1       817-3.01021E+05-6.91921E+04-1.16553E+03-1.48457E+05-4.25280E-09 1.48320E-08
 -1       818-3.04804E+05-6.53479E+04-2.37535E+03-1.43879E+05-3.04044E-09 7.36691E-09
 -1       819-3.02328E+05-7.06087E+04-5.58776E+03-1.48109E+05-4.76075E-09 6.80302E-10
 -1       820-3.04326E+05-6.95893E+04-1.13745E+04-1.42076E+05-2.62571E-09 2.37605E-09
 -1       821-3.85964E+05 2.20163E+04-5.17641E+04 1.48615E+03 2.27590E-09 2.69574E-09
 -1       822-4.04367E+05-2.55655E+04-3.59337E+04-7.94666E+03 2.89180E-09-4.32738E-09
 -1       823-3.92873E+05 3.52345E+03-1.33323E+04 3.93166E+03-8.55336E-09 4.28918E-09
 -1       824-3.95820E+05-4.08456E+03-8.28029E+03-1.00945E+04 1.63939E-09 2.56568E-09
 -1       825-3.94544E+05 5.82191E+02-3.51597E+03 3.63416E+03 1.34021E-08 3.98063E-09
 -1       826-3.92218E+05-6.02219E+02-1.58647E+03-6.97688E+03 1.46669E-08 3.34444E-09
 -1       827-3.96422E+05 9.13027E-01-1.48733E+03 8.13876E+02-5.14035E-10-2.04921E-10
 -1       828-3.90472E+05-4.95635E+01-1.33976E+02-3.97746E+02-2.15572E-08 3.91536E-09
 -1       829-3.96249E+05-3.44514E+00-1.45516E+03-2.94473E+03 2.99283E-09-2.70808E-09
 -1       830-3.92606E+05-5.64184E+02-1.65528E+03 5.92842E+03 9.24589E-09 5.07362E-09
 -1       831-3.94338E+05 5.55699E+02-3.48251E+03-5.51247E+03-1.70286E-08-3.78145E-09
 -1       832-3.95922E+05-4.00744E+03-8.28713E+03 8.44643E+03-8.67799E-09 4.64695E-09
 -1       833-3.92979E+05 3.47328E+03-1.33665E+04-5.46319E+03 3.77213E-10-9.74069E-10
 -1       834-4.04097E+05-2.54967E+04-3.58762E+04 5.73269E+03-3.51802E-09 3.91674E-09
 -1       835-3.86120E+05 2.19905E+04-5.18163E+04-2.79817E+03 1.37322E-08-2.35377E-09
 -1       836-1.28396E+03 4.06206E+05 2.39843E+04-4.68326E+04 8.14271E-09-1.34423E-09
 -1       837 5.58365E+03 4.13470E+05 2.04312E+04-9.35714E+04 1.01986E-08-2.76486E-09
 -1       838-3.56124E+02 4.08246E+05 2.09850E+04-4.67036E+04 8.75752E-09-2.00123E-09
 -1       839 1.37392E+04 4.19543E+05 3.98596E+04-9.35850E+04 1.08012E-08-5.69071E-09
 -1       840-3.90845E+03 4.00067E+05 6.36157E+04-4.68098E+04 8.20000E-09-3.39651E-09
 -1       856-1.65600E+05 1.21438E+04-3.20118E+04-9.90646E+02-1.27841E-08-6.18456E-11
 -1       857-1.78834E+05-1.42255E+04-2.20384E+04 6.57942E+03-6.31735E-09 1.90880E-09
 -1       858-1.70822E+05 1.69844E+03-8.30906E+03-1.04497E+03-1.20910E-08-4.33147E-09
 -1       859-1.72841E+05-1.95526E+03-5.01890E+03 6.67013E+03-1.88265E-10-2.76884E-10
 -1       860-1.71602E+05 2.33316E+02-2.11346E+03-1.08217E+03 5.54422E-10-1.73259E-10
 -1       861-1.71946E+05-2.37152E+02-1.18274E+03 6.72142E+03-1.07555E-08-6.07858E-09
 -1       862-1.71723E+05 2.84851E+01-5.32423E+02-1.09641E+03 1.44730E-08-2.28633E-09
 -1       863-1.71805E+05 1.61325E+00-2.86506E+02 6.72696E+03 1.84699E-08-1.73270E-09
 -1       864-1.71743E+05-5.49599E-02-1.37052E+02-1.08773E+03 9.68672E-09-4.39832E-09
 -1       865-1.71775E+05 3.08481E+01-7.71854E+01 6.68576E+03 1.53246E-08-2.99103E-09
 -1       866-1.71749E+05-3.14171E+00-5.00936E+01-1.05520E+03 3.88656E-09-4.89707E-09
 -1       867-1.71762E+05 1.87619E+01-5.16455E+01 6.59778E+03 9.62649E-09-4.76613E-09
 -1       868-1.71748E+05 5.90364E+00-7.31931E+01-9.99704E+02 8.24912E-09-4.83861E-10
 -1       869-1.71782E+05-7.59650E+01-1.62433E+02 6.45901E+03-1.38031E-08-6.80838E-09
 -1       870-1.71717E+05 8.03839E+01-2.46458E+02-9.16378E+02 6.18797E-09-2.56190E-09
 -1       871-6.20093E+03-8.95100E+03-1.88301E+04 1.20886E+05 5.19503E-09 4.30100E-09
 -1       872-2.98756E+03-1.30853E+04-7.56172E+03 1.56720E+05 1.38425E-08 1.49812E-08
 -1       873-4.04524E+02-1.12616E+04 1.36574E+03 1.20628E+05 8.84256E-09 5.38080E-09
 -1       874 2.58632E+03-8.27000E+03 1.13058E+04 1.56788E+05 1.74232E-08 4.77030E-10
 -1       875 6.82745E+03-1.38986E+04 2.48722E+04 1.20859E+05 8.61837E-09-1.92631E-09
 -1       876 3.20739E+05 5.63482E+04 1.76588E+04 1.31409E+05-1.01822E-08-1.59162E-09
 -1       877 3.21616E+05 6.03622E+04 9.43062E+03 1.36761E+05-1.56670E-08 6.65750E-10
 -1       878 3.22382E+05 5.43998E+04 3.95047E+03 1.32862E+05 1.54469E-08 6.73617E-09
 -1       879 3.19209E+05 5.79712E+04 1.96804E+03 1.36882E+05 5.38307E-09-5.96941E-09
 -1       880 3.22498E+05 5.43813E+04 9.15580E+02 1.32921E+05 6.52017E-09-1.19667E-09
 -1       881 3.19048E+05 5.78689E+04 4.86987E+02 1.36852E+05 1.54741E-08 1.10347E-09
 -1       882 3.22508E+05 5.43978E+04 3.07656E+02 1.32923E+05 1.84405E-08 6.88389E-09
 -1       883 3.19036E+05 5.78637E+04 3.24787E+02 1.36842E+05 2.38606E-09 1.02377E-08
 -1       884 3.22500E+05 5.43952E+04 5.10992E+02 1.32923E+05-3.82556E-09 5.06679E-09
 -1       885 3.19076E+05 5.78709E+04 1.02380E+03 1.36854E+05 7.58473E-09 1.70553E-09
 -1       886 3.22461E+05 5.43651E+04 2.06152E+03 1.32919E+05 3.72083E-09-2.86809E-09
 -1       887 3.19439E+05 5.81085E+04 4.50218E+03 1.36908E+05-2.19654E-08-9.94226E-09
 -1       888 3.22178E+05 5.44135E+04 9.07134E+03 1.32774E+05-6.53012E-09 6.21185E-09
 -1       889 3.24848E+05 6.37163E+04 2.16696E+04 1.36736E+05-3.53774E-09 1.46792E-09
 -1       890 3.18494E+05 5.87942E+04 4.05864E+04 1.29303E+05 1.68761E-08 4.23825E-09
 -1       891-3.12677E+02-1.84955E+05-2.14553E+03 3.77023E+04 5.17775E-09-5.91217E-09
 -1       892-5.22661E+02-1.85400E+05-2.34684E+03 5.69128E+04-4.48836E-10-1.16756E-08
 -1       893-1.82288E+02-1.85005E+05-3.36995E+03 3.77093E+04 2.41380E-09-6.58110E-09
 -1       894-2.03730E+03-1.86662E+05-7.00387E+03 5.67108E+04-6.69343E-09-2.23736E-09
 -1       895-1.58992E+03-1.83517E+05-1.23533E+04 3.78964E+04 2.22281E-09-1.48793E-09
 -1       956-3.98688E+05-5.89688E+03-1.49837E+04 2.43294E+04-1.27657E-08-1.59457E-09
 -1       957-4.01660E+05-1.93683E+03-7.69133E+03 2.93607E+04-2.72848E-09-1.08685E-10
 -1       958-4.00025E+05-1.01672E+02-3.46604E+03 2.41413E+04 9.69249E-09-1.01591E-09
 -1       959-4.00279E+05 4.95589E+01-1.76977E+03 2.95552E+04-3.41424E-09 1.83400E-09
 -1       960-4.00152E+05 1.13643E+02-8.62892E+02 2.41225E+04-1.30012E-08 2.84922E-09
 -1       961-4.00186E+05 1.29392E+02-4.56428E+02 2.95768E+04-2.13004E-08 4.94515E-09
 -1       962-4.00182E+05 1.12033E+02-2.59428E+02 2.41189E+04-7.91260E-09 2.04045E-09
 -1       963-4.00189E+05 1.35323E+02-2.04136E+02 2.95822E+04-1.25656E-08 2.45245E-09
 -1       964-4.00193E+05 1.18116E+02-2.43146E+02 2.41170E+04-1.15733E-09-2.49338E-09
 -1       965-4.00209E+05 1.42659E+02-4.15966E+02 2.95838E+04 1.13591E-08 1.43586E-09
 -1       966-4.00184E+05 1.31625E+02-7.78627E+02 2.41172E+04-5.06710E-09-1.02523E-09
 -1       967-4.00315E+05 8.31760E+01-1.59592E+03 2.95763E+04-9.17680E-10 7.21229E-10
 -1       968-4.00088E+05-5.08339E+01-3.12272E+03 2.41251E+04-2.37810E-09-3.62320E-10
 -1       969-4.01583E+05-1.69675E+03-6.93378E+03 2.94901E+04 2.49952E-09 2.79761E-09
 -1       970-3.98897E+05-5.26831E+03-1.35056E+04 2.42182E+04 3.25826E-09-1.04046E-09
 -1       971-3.86384E+05-2.06966E+03-1.17976E+04 1.93040E+04-1.21872E-08 9.71681E-10
 -1       972-3.89278E+05-1.43630E+03-6.42338E+03 2.72024E+04-9.06130E-09-3.81169E-09
 -1       973-3.87706E+05 4.52525E+01-2.87748E+03 1.91295E+04-1.03855E-08 2.60593E-09
 -1       974-3.87937E+05 7.92999E+01-1.48942E+03 2.73873E+04 9.94987E-10-3.44926E-10
 -1       975-3.87817E+05 1.06951E+02-7.42385E+02 1.91116E+04 7.54517E-09 3.37104E-09
 -1       976-3.87867E+05 1.46985E+02-4.22664E+02 2.74098E+04-7.68819E-09-2.09957E-09
 -1       977-3.87842E+05 1.10817E+02-2.97818E+02 1.91064E+04 1.09576E-08 1.68347E-09
 -1       978-3.87877E+05 1.57165E+02-3.35698E+02 2.74170E+04 3.12452E-08-1.15574E-09
 -1       979-3.87845E+05 1.21737E+02-5.28885E+02 1.91042E+04 1.10819E-08 2.08922E-09
 -1       980-3.87918E+05 1.61310E+02-1.01465E+03 2.74183E+04 1.14778E-08-3.17243E-09
 -1       981-3.87812E+05 1.46556E+02-1.96212E+03 1.91050E+04-1.15285E-08 2.53112E-09
 -1       982-3.88184E+05 1.46707E+01-4.05398E+03 2.74085E+04-1.43666E-08 6.32028E-10
 -1       983-3.87562E+05 1.83399E+01-7.87678E+03 1.91148E+04 5.42059E-10 2.63617E-09
 -1       984-3.91964E+05-4.10360E+03-1.76388E+04 2.72934E+04 5.18230E-09-1.56660E-09
 -1       985-3.83990E+05-5.74853E+03-3.23911E+04 1.92444E+04 1.17470E-08 2.86673E-09
 -3
    1PSTEP                        33          17           1          
  100CL  117 8.03741E-01         409                     0   17           1
 -4  DISP        4    1
 -5  D1          1    2    1    0
 -5  D2          1    2    2    0
 -5  D3          1    2    3    0
 -5  ALL         1    2    0    0    1ALL
 -1         1 6.42901E-03 0.00000E+00 0.00000E+00
 -1         2 8.25640E-03-9.87036E-27-5.29396E-23
 -1         3 1.33253E-06-3.08636E-28 0.00000E+00
 -1         5 5.29505E-05 6.14740E-27 0.00000E+00
 -1         8 6.38960E-03-2.45527E-06 0.00000E+00
 -1         9 6.50351E-03-3.23013E-04 0.00000E+00
 -1        10 6.32541E-06 4.31161E-06 0.00000E+00
 -1        12 5.07005E-05 8.45742E-07 0.00000E+00
 -1        15 6.34443E-03-2.66941E-06 0.00000E+00
 -1        16 6.43146E-03-3.23152E-04 0.00000E+00
 -1        17 2.37499E-05 8.90643E-06 0.00000E+00
 -1        18 4.23913E-05-1.72062E-05 0.00000E+00
 -1        19 4.39492E-05 1.68374E-06 0.00000E+00
 -1        20 4.41664E-05 4.21092E-05 0.00000E+00
 -1        21 4.34323E-05 8.32159E-05 0.00000E+00
 -1        24 2.50435E-05 8.85463E-06 0.00000E+00
 -1        25 3.26038E-05-1.70457E-05 0.00000E+00
 -1        26 3.45512E-05 2.36753E-06 0.00000E+00
 -1        27 3.22080E-05 3.83727E-05 0.00000E+00
 -1        28 3.11933E-05 8.24563E-05 0.00000E+00
 -1        32 0.00000E+00 0.00000E+00 0.00000E+00
 -1        33 2.26461E-05 3.19333E-06 0.00000E+00
 -1        34 2.03735E-05 3.83352E-05 0.00000E+00
 -1        35 1.81539E-05 8.20568E-05 0.00000E+00
 -1        51 6.42637E-03-4.01468E-07 0.00000E+00
 -1        52 6.42154E-03-7.98102E-07 0.00000E+00
 -1        53 6.41497E-03-1.19936E-06 0.00000E+00
 -1        54 6.40715E-03-1.60760E-06 3.30872E-24
 -1        55 6.39853E-03-2.02325E-06 1.32349E-23
 -1        56 6.42843E-03-5.08588E-06 5.29396E-23
 -1        57 6.43095E-03-1.88810E-05 2.64698E-23
 -1        58 6.43644E-03-4.09951E-05-5.29396E-23
 -1        59 6.44453E-03-7.06244E-05 2.64698E-23
 -1        60 6.45464E-03-1.06156E-04-5.29396E-23
 -1        61 6.46608E-03-1.45663E-04 0.00000E+00
 -1        62 6.47806E-03-1.86790E-04 0.00000E+00
 -1        63 6.48977E-03-2.27094E-04 0.00000E+00
 -1        64 6.50041E-03-2.64222E-04 0.00000E+00
 -1        65 6.50923E-03-2.95992E-04 2.64698E-23
 -1        66 6.51565E-03-3.20796E-04 5.29396E-23
 -1        67 6.51918E-03-3.37402E-04 2.64698E-23
 -1        68 6.51960E-03-3.45450E-04 0.00000E+00
 -1        69 6.51689E-03-3.45023E-04-2.64698E-23
 -1        70 6.51133E-03-3.37104E-04 0.00000E+00
 -1        86 8.14460E-03-9.75825E-06 0.00000E+00
 -1        87 7.82600E-03-6.35519E-05 2.64698E-23
 -1        88 7.39833E-03-1.56907E-04 2.64698E-23
 -1        89 6.96483E-03-2.52930E-04 0.00000E+00
 -1        90 6.63217E-03-3.11213E-04-5.29396E-23
 -1       121 1.46928E-06 7.18790E-07 0.00000E+00
 -1       122 1.88027E-06 1.43752E-06 0.00000E+00
 -1       123 2.56740E-06 2.15612E-06 0.00000E+00
 -1       124 3.53403E-06 2.87464E-06 0.00000E+00
 -1       125 4.78475E-06 3.59279E-06 0.00000E+00
 -1       191 5.28880E-05 1.41050E-07 0.00000E+00
 -1       192 5.27006E-05 2.82083E-07 0.00000E+00
 -1       193 5.23881E-05 4.23086E-07 0.00000E+00
 -1       194 5.19506E-05 5.64042E-07 0.00000E+00
 -1       195 5.13881E-05 7.04933E-07 0.00000E+00
 -1       251 6.39661E-03-4.46891E-06 0.00000E+00
 -1       252 6.40380E-03-2.24530E-05 1.05879E-22
 -1       253 6.41085E-03-4.70710E-05 2.11758E-22
 -1       254 6.41797E-03-7.12241E-05 1.05879E-22
 -1       255 6.42509E-03-9.51829E-05 0.00000E+00
 -1       256 6.43223E-03-1.19157E-04 0.00000E+00
 -1       257 6.43937E-03-1.43136E-04 0.00000E+00
 -1       258 6.44651E-03-1.67116E-04 1.05879E-22
 -1       259 6.45365E-03-1.91095E-04 0.00000E+00
 -1       260 6.46079E-03-2.15075E-04-1.05879E-22
 -1       261 6.46793E-03-2.39047E-04 0.00000E+00
 -1       262 6.47506E-03-2.62999E-04 0.00000E+00
 -1       263 6.48218E-03-2.87208E-04 2.11758E-22
 -1       264 6.48924E-03-3.12029E-04 0.00000E+00
 -1       265 6.49646E-03-3.28074E-04 1.05879E-22
 -1       266 6.38207E-03-2.51638E-06 1.32349E-23
 -1       267 6.37454E-03-2.54897E-06 0.00000E+00
 -1       268 6.36701E-03-2.58337E-06 0.00000E+00
 -1       269 6.35948E-03-2.61242E-06 0.00000E+00
 -1       270 6.35195E-03-2.64134E-06 0.00000E+00
 -1       271 6.38464E-03-1.04525E-06-1.05879E-22
 -1       272 6.38300E-03-8.92784E-06 0.00000E+00
 -1       273 6.38455E-03-2.55885E-05 0.00000E+00
 -1       274 6.38886E-03-5.01173E-05 0.00000E+00
 -1       275 6.39544E-03-8.11613E-05 1.05879E-22
 -1       276 6.40366E-03-1.17040E-04-5.29396E-23
 -1       277 6.41285E-03-1.55802E-04 0.00000E+00
 -1       278 6.42231E-03-1.95349E-04-5.29396E-23
 -1       279 6.43130E-03-2.33538E-04 0.00000E+00
 -1       280 6.43914E-03-2.68297E-04 5.29396E-23
 -1       281 6.44516E-03-2.97742E-04-1.05879E-22
 -1       282 6.44878E-03-3.20268E-04 5.29396E-23
 -1       283 6.44948E-03-3.34648E-04 1.05879E-22
 -1       284 6.44693E-03-3.40065E-04 0.00000E+00
 -1       285 6.44088E-03-3.36201E-04-5.29396E-23
 -1       301 6.48953E-03-3.23037E-04 0.00000E+00
 -1       302 6.47836E-03-3.23039E-04 0.00000E+00
 -1       303 6.46849E-03-3.23026E-04 0.00000E+00
 -1       304 6.45839E-03-3.23023E-04 0.00000E+00
 -1       305 6.44655E-03-3.23046E-04 0.00000E+00
 -1       306 6.35992E-03-8.85201E-05 2.11758E-22
 -1       307 5.89315E-03 4.54009E-04 0.00000E+00
 -1       308 5.03615E-03 1.15176E-03 1.05879E-22
 -1       309 3.88163E-03 1.86116E-03-5.29396E-23
 -1       310 2.63339E-03 2.56146E-03 0.00000E+00
 -1       311 1.51848E-03 3.27773E-03-1.05879E-22
 -1       312 7.04489E-04 3.96272E-03 0.00000E+00
 -1       313 2.61454E-04 4.49248E-03 0.00000E+00
 -1       314 1.55053E-04 4.67128E-03 0.00000E+00
 -1       315 1.98684E-04 4.43064E-03 0.00000E+00
 -1       316 2.26636E-04 3.76726E-03 0.00000E+00
 -1       317 1.43732E-04 2.82600E-03 5.29396E-23
 -1       318 1.23998E-05 1.79959E-03 0.00000E+00
 -1       319-5.20588E-05 8.83899E-04 5.29396E-23
 -1       320-2.15002E-05 2.47331E-04 1.05879E-22
 -1       336 8.20364E-06 5.08639E-06 2.64698E-23
 -1       337 1.04712E-05 5.86097E-06 0.00000E+00
 -1       338 1.31420E-05 6.63392E-06-2.64698E-23
 -1       339 1.62325E-05 7.40182E-06 0.00000E+00
 -1       340 1.97613E-05 8.16865E-06 0.00000E+00
 -1       406 4.98878E-05 9.86442E-07 0.00000E+00
 -1       407 4.89500E-05 1.12699E-06 0.00000E+00
 -1       408 4.78870E-05 1.26733E-06 0.00000E+00
 -1       409 4.66989E-05 1.40727E-06-3.30872E-24
 -1       410 4.53859E-05 1.54652E-06 0.00000E+00
 -1       521 6.28645E-03-8.92525E-05 2.11758E-22
 -1       522 5.82032E-03 4.51341E-04 0.00000E+00
 -1       523 4.96970E-03 1.14734E-03 2.11758E-22
 -1       524 3.83111E-03 1.85799E-03 5.29396E-23
 -1       525 2.60105E-03 2.56127E-03 0.00000E+00
 -1       526 1.49877E-03 3.27785E-03 0.00000E+00
 -1       527 6.92896E-04 3.96014E-03-4.23516E-22
 -1       528 2.53960E-04 4.48564E-03 0.00000E+00
 -1       529 1.49097E-04 4.65888E-03-4.23516E-22
 -1       530 1.91962E-04 4.41371E-03 0.00000E+00
 -1       531 2.19188E-04 3.75018E-03 2.11758E-22
 -1       532 1.40063E-04 2.81616E-03 5.29396E-23
 -1       533 1.41293E-05 1.79806E-03 1.05879E-22
 -1       534-4.88903E-05 8.85954E-04 0.00000E+00
 -1       535-1.92017E-05 2.49654E-04-1.05879E-22
 -1       536 2.48699E-05 5.32102E-06-2.64698E-23
 -1       537 2.60357E-05 2.98325E-06 0.00000E+00
 -1       538 2.72001E-05 1.26866E-06 2.64698E-23
 -1       539 2.83726E-05-4.13485E-07 1.32349E-23
 -1       540 2.95454E-05-2.07941E-06 0.00000E+00
 -1       541 3.07197E-05-3.74450E-06 0.00000E+00
 -1       542 3.18943E-05-5.40920E-06 0.00000E+00
 -1       543 3.30690E-05-7.07388E-06 0.00000E+00
 -1       544 3.42438E-05-8.73853E-06 0.00000E+00
 -1       545 3.54183E-05-1.04032E-05-1.32349E-23
 -1       546 3.65926E-05-1.20673E-05 2.64698E-23
 -1       547 3.77652E-05-1.37304E-05-1.32349E-23
 -1       548 3.89376E-05-1.53742E-05-2.64698E-23
 -1       549 4.01014E-05-1.69789E-05-1.32349E-23
 -1       550 4.12689E-05-1.78385E-05 0.00000E+00
 -1       551 2.51361E-05 8.91124E-06 0.00000E+00
 -1       552 2.45090E-05 8.91465E-06 0.00000E+00
 -1       553 2.30227E-05 8.91725E-06 0.00000E+00
 -1       554 2.18418E-05 8.91527E-06 0.00000E+00
 -1       555 2.21313E-05 8.90676E-06 0.00000E+00
 -1       556 2.52413E-05 4.79341E-06 3.30872E-24
 -1       557 2.66155E-05 9.72332E-07 0.00000E+00
 -1       558 2.78761E-05-2.54496E-06 0.00000E+00
 -1       559 2.90200E-05-5.75060E-06 0.00000E+00
 -1       560 3.00448E-05-8.63639E-06 0.00000E+00
 -1       561 3.09474E-05-1.11944E-05 0.00000E+00
 -1       562 3.17251E-05-1.34169E-05 0.00000E+00
 -1       563 3.23746E-05-1.52961E-05 0.00000E+00
 -1       564 3.28932E-05-1.68241E-05 0.00000E+00
 -1       565 3.32777E-05-1.79933E-05 0.00000E+00
 -1       566 3.35251E-05-1.87959E-05 0.00000E+00
 -1       567 3.36325E-05-1.92243E-05 0.00000E+00
 -1       568 3.35968E-05-1.92709E-05 0.00000E+00
 -1       569 3.34151E-05-1.89281E-05 0.00000E+00
 -1       570 3.30845E-05-1.81884E-05 0.00000E+00
 -1       571 4.24860E-05-1.58882E-05-8.27181E-25
 -1       572 4.25826E-05-1.46362E-05-1.44757E-24
 -1       573 4.26798E-05-1.34405E-05-1.65436E-24
 -1       574 4.27773E-05-1.22910E-05 8.27181E-25
 -1       575 4.28750E-05-1.11773E-05 0.00000E+00
 -1       576 4.29727E-05-1.00890E-05 1.65436E-24
 -1       577 4.30705E-05-9.01570E-06 3.30872E-24
 -1       578 4.31683E-05-7.94702E-06-1.65436E-24
 -1       579 4.32661E-05-6.87252E-06 0.00000E+00
 -1       580 4.33638E-05-5.78180E-06-1.65436E-24
 -1       581 4.34616E-05-4.66445E-06 0.00000E+00
 -1       582 4.35593E-05-3.51007E-06 0.00000E+00
 -1       583 4.36569E-05-2.30827E-06 0.00000E+00
 -1       584 4.37544E-05-1.04876E-06 0.00000E+00
 -1       585 4.38519E-05 2.78733E-07-6.61744E-24
 -1       586 4.07967E-05-1.71774E-05 0.00000E+00
 -1       587 3.91475E-05-1.71498E-05 0.00000E+00
 -1       588 3.74733E-05-1.71226E-05 0.00000E+00
 -1       589 3.58045E-05-1.70959E-05 0.00000E+00
 -1       590 3.41715E-05-1.70698E-05 0.00000E+00
 -1       591 4.18597E-05-1.58612E-05-1.03398E-25
 -1       592 4.13515E-05-1.45893E-05 0.00000E+00
 -1       593 4.08655E-05-1.33774E-05 0.00000E+00
 -1       594 4.03973E-05-1.22138E-05 0.00000E+00
 -1       595 3.99425E-05-1.10862E-05 0.00000E+00
 -1       596 3.94967E-05-9.98276E-06 0.00000E+00
 -1       597 3.90554E-05-8.89137E-06-8.27181E-25
 -1       598 3.86141E-05-7.80009E-06 0.00000E+00
 -1       599 3.81683E-05-6.69690E-06 8.27181E-25
 -1       600 3.77136E-05-5.56982E-06 2.06795E-25
 -1       601 3.72454E-05-4.40687E-06-4.13590E-25
 -1       602 3.67593E-05-3.19601E-06-1.03398E-25
 -1       603 3.62508E-05-1.92528E-06-1.55096E-25
 -1       604 3.57157E-05-5.82592E-07 0.00000E+00
 -1       605 3.51493E-05 8.44002E-07 0.00000E+00
 -1       606 4.39693E-05 3.31327E-06 0.00000E+00
 -1       607 4.39855E-05 5.11506E-06 3.30872E-24
 -1       608 4.40007E-05 7.07899E-06 0.00000E+00
 -1       609 4.40151E-05 9.19366E-06 0.00000E+00
 -1       610 4.40290E-05 1.14476E-05 0.00000E+00
 -1       611 4.40427E-05 1.38293E-05 0.00000E+00
 -1       612 4.40560E-05 1.63270E-05 0.00000E+00
 -1       613 4.40690E-05 1.89291E-05 0.00000E+00
 -1       614 4.40819E-05 2.16240E-05 0.00000E+00
 -1       615 4.40945E-05 2.44001E-05 0.00000E+00
 -1       616 4.41069E-05 2.72456E-05 0.00000E+00
 -1       617 4.41191E-05 3.01491E-05 8.27181E-25
 -1       618 4.41312E-05 3.30988E-05 1.65436E-24
 -1       619 4.41432E-05 3.60832E-05 0.00000E+00
 -1       620 4.41550E-05 3.90905E-05 0.00000E+00
 -1       621 4.24312E-05 1.79764E-06 3.30872E-24
 -1       622 4.08877E-05 1.91228E-06 0.00000E+00
 -1       623 3.93234E-05 2.02688E-06 0.00000E+00
 -1       624 3.77428E-05 2.14130E-06 0.00000E+00
 -1       625 3.61505E-05 2.25552E-06-3.30872E-24
 -1       626 4.34530E-05 3.34469E-06-6.61744E-24
 -1       627 4.29025E-05 5.15197E-06-6.61744E-24
 -1       628 4.23018E-05 7.09312E-06 0.00000E+00
 -1       629 4.16557E-05 9.15470E-06 0.00000E+00
 -1       630 4.09693E-05 1.13233E-05 6.61744E-24
 -1       631 4.02476E-05 1.35854E-05 0.00000E+00
 -1       632 3.94957E-05 1.59275E-05 6.61744E-24
 -1       633 3.87188E-05 1.83359E-05 0.00000E+00
 -1       634 3.79219E-05 2.07973E-05 3.30872E-24
 -1       635 3.71101E-05 2.32981E-05 0.00000E+00
 -1       636 3.62885E-05 2.58247E-05 0.00000E+00
 -1       637 3.54622E-05 2.83638E-05-1.65436E-24
 -1       638 3.46363E-05 3.09016E-05 3.30872E-24
 -1       639 3.38156E-05 3.34247E-05 0.00000E+00
 -1       640 3.30051E-05 3.59197E-05 1.65436E-24
 -1       656 4.14875E-05 4.15003E-05 6.61744E-24
 -1       657 3.93936E-05 4.08679E-05 6.61744E-24
 -1       658 3.76643E-05 4.02381E-05-1.32349E-23
 -1       659 3.60699E-05 3.96089E-05 0.00000E+00
 -1       660 3.43400E-05 3.89776E-05 0.00000E+00
 -1       661 4.31756E-05 4.50942E-05 0.00000E+00
 -1       662 4.22164E-05 4.80101E-05 0.00000E+00
 -1       663 4.12827E-05 5.08576E-05 0.00000E+00
 -1       664 4.03747E-05 5.36399E-05-1.65436E-24
 -1       665 3.94907E-05 5.63587E-05 0.00000E+00
 -1       666 3.86300E-05 5.90161E-05 1.65436E-24
 -1       667 3.77919E-05 6.16139E-05-3.30872E-24
 -1       668 3.69759E-05 6.41533E-05-1.65436E-24
 -1       669 3.61814E-05 6.66356E-05 0.00000E+00
 -1       670 3.54081E-05 6.90618E-05 0.00000E+00
 -1       671 3.46557E-05 7.14324E-05 3.30872E-24
 -1       672 3.39239E-05 7.37480E-05 1.65436E-24
 -1       673 3.32127E-05 7.60087E-05-3.30872E-24
 -1       674 3.25209E-05 7.82140E-05 1.65436E-24
 -1       675 3.18504E-05 8.03644E-05 8.27181E-25
 -1       676 4.13838E-05 8.30885E-05-3.30872E-24
 -1       677 3.93369E-05 8.29612E-05-1.65436E-24
 -1       678 3.72928E-05 8.28340E-05 0.00000E+00
 -1       679 3.52532E-05 8.27071E-05 1.65436E-24
 -1       680 3.32196E-05 8.25803E-05 0.00000E+00
 -1       771 2.55731E-05 2.79867E-06 0.00000E+00
 -1       772 2.56935E-05-2.25726E-06-1.32349E-23
 -1       773 2.54533E-05-6.34799E-06 2.64698E-23
 -1       774 2.48707E-05-9.52883E-06 0.00000E+00
 -1       775 2.39688E-05-1.18556E-05 5.29396E-23
 -1       776 2.27699E-05-1.33888E-05 0.00000E+00
 -1       777 2.12972E-05-1.41912E-05-5.29396E-23
 -1       778 1.95750E-05-1.43287E-05 2.64698E-23
 -1       779 1.76283E-05-1.38688E-05 5.29396E-23
 -1       780 1.54832E-05-1.28819E-05 2.64698E-23
 -1       781 1.31665E-05-1.14394E-05-5.29396E-23
 -1       782 1.07059E-05-9.61487E-06-2.64698E-23
 -1       783 8.12926E-06-7.48284E-06 0.00000E+00
 -1       784 5.46586E-06-5.11896E-06 0.00000E+00
 -1       785 2.74429E-06-2.59978E-06 0.00000E+00
 -1       786 3.27195E-05-1.57121E-05-1.65436E-24
 -1       787 3.28409E-05-1.44578E-05 0.00000E+00
 -1       788 3.29621E-05-1.32609E-05-3.30872E-24
 -1       789 3.30845E-05-1.20999E-05 0.00000E+00
 -1       790 3.32068E-05-1.09640E-05 0.00000E+00
 -1       791 3.33295E-05-9.84244E-06-1.65436E-24
 -1       792 3.34521E-05-8.72875E-06 0.00000E+00
 -1       793 3.35748E-05-7.61660E-06-1.65436E-24
 -1       794 3.36975E-05-6.50002E-06 3.30872E-24
 -1       795 3.38202E-05-5.37308E-06 0.00000E+00
 -1       796 3.39428E-05-4.22673E-06 0.00000E+00
 -1       797 3.40654E-05-3.05179E-06 1.65436E-24
 -1       798 3.41878E-05-1.83058E-06 0.00000E+00
 -1       799 3.43098E-05-5.45143E-07 0.00000E+00
 -1       800 3.44317E-05 8.41667E-07-3.30872E-24
 -1       801 2.97063E-05-1.42509E-05 0.00000E+00
 -1       802 2.39884E-05-1.13566E-05 0.00000E+00
 -1       803 1.69989E-05-8.47846E-06 5.29396E-23
 -1       804 1.01088E-05-5.61040E-06 0.00000E+00
 -1       805 4.12927E-06-2.72506E-06 2.64698E-23
 -1       806 3.19851E-05-1.57727E-05 3.30872E-24
 -1       807 3.13798E-05-1.45504E-05 0.00000E+00
 -1       808 3.07883E-05-1.33674E-05 3.30872E-24
 -1       809 3.02070E-05-1.22131E-05-1.65436E-24
 -1       810 2.96323E-05-1.10770E-05 0.00000E+00
 -1       811 2.90606E-05-9.94867E-06 0.00000E+00
 -1       812 2.84877E-05-8.81776E-06-3.30872E-24
 -1       813 2.79100E-05-7.67384E-06 0.00000E+00
 -1       814 2.73234E-05-6.50648E-06-3.30872E-24
 -1       815 2.67242E-05-5.30529E-06 1.65436E-24
 -1       816 2.61082E-05-4.05990E-06 0.00000E+00
 -1       817 2.54718E-05-2.75989E-06-1.65436E-24
 -1       818 2.48110E-05-1.39489E-06 0.00000E+00
 -1       819 2.41220E-05 4.54437E-08 0.00000E+00
 -1       820 2.34010E-05 1.57148E-06 1.65436E-24
 -1       821 3.44226E-05 2.97555E-06 0.00000E+00
 -1       822 3.42851E-05 1.61663E-06-1.65436E-24
 -1       823 3.41458E-05-1.06696E-06 0.00000E+00
 -1       824 3.40029E-05-4.42453E-06 0.00000E+00
 -1       825 3.38604E-05-7.61996E-06-3.30872E-24
 -1       826 3.37202E-05-9.81801E-06-1.65436E-24
 -1       827 3.35820E-05-1.04594E-05 0.00000E+00
 -1       828 3.34429E-05-8.99457E-06-1.65436E-24
 -1       829 3.32988E-05-5.45597E-06 0.00000E+00
 -1       830 3.31459E-05 1.11133E-07 0.00000E+00
 -1       831 3.29846E-05 7.10095E-06 0.00000E+00
 -1       832 3.28179E-05 1.48988E-05 0.00000E+00
 -1       833 3.26514E-05 2.26662E-05 0.00000E+00
 -1       834 3.24926E-05 2.95654E-05 0.00000E+00
 -1       835 3.23419E-05 3.49974E-05 8.27181E-25
 -1       836 3.27765E-05 2.50527E-06 3.30872E-24
 -1       837 3.08009E-05 2.64575E-06 1.65436E-24
 -1       838 2.87120E-05 2.78579E-06 3.30872E-24
 -1       839 2.65980E-05 2.92493E-06 0.00000E+00
 -1       840 2.45467E-05 3.06397E-06 0.00000E+00
 -1       856 3.21510E-05 4.08066E-05 0.00000E+00
 -1       857 3.20884E-05 4.34090E-05-4.13590E-25
 -1       858 3.20257E-05 4.61534E-05 1.65436E-24
 -1       859 3.19618E-05 4.90134E-05-8.27181E-25
 -1       860 3.18976E-05 5.19619E-05 1.65436E-24
 -1       861 3.18330E-05 5.49717E-05-8.27181E-25
 -1       862 3.17683E-05 5.80157E-05-1.65436E-24
 -1       863 3.17035E-05 6.10664E-05 0.00000E+00
 -1       864 3.16388E-05 6.40965E-05 1.65436E-24
 -1       865 3.15743E-05 6.70787E-05 0.00000E+00
 -1       866 3.15099E-05 6.99857E-05 0.00000E+00
 -1       867 3.14458E-05 7.27905E-05-8.27181E-25
 -1       868 3.13820E-05 7.54663E-05-1.65436E-24
 -1       869 3.13187E-05 7.79866E-05 8.27181E-25
 -1       870 3.12558E-05 8.03252E-05-1.65436E-24
 -1       871 3.00706E-05 3.83704E-05 0.00000E+00
 -1       872 2.80833E-05 3.83653E-05 0.00000E+00
 -1       873 2.61834E-05 3.83598E-05 0.00000E+00
 -1       874 2.43074E-05 3.83535E-05 1.03398E-25
 -1       875 2.23917E-05 3.83464E-05-4.13590E-25
 -1       876 3.14342E-05 4.08183E-05 3.30872E-24
 -1       877 3.06327E-05 4.33461E-05 1.65436E-24
 -1       878 2.98042E-05 4.59460E-05 3.30872E-24
 -1       879 2.89524E-05 4.86087E-05-1.65436E-24
 -1       880 2.80805E-05 5.13248E-05 3.30872E-24
 -1       881 2.71921E-05 5.40850E-05 0.00000E+00
 -1       882 2.62905E-05 5.68799E-05 3.30872E-24
 -1       883 2.53793E-05 5.97002E-05 0.00000E+00
 -1       884 2.44620E-05 6.25366E-05 3.30872E-24
 -1       885 2.35421E-05 6.53798E-05-1.65436E-24
 -1       886 2.26232E-05 6.82205E-05 0.00000E+00
 -1       887 2.17085E-05 7.10493E-05 1.65436E-24
 -1       888 2.08016E-05 7.38570E-05 3.30872E-24
 -1       889 1.99056E-05 7.66340E-05-1.65436E-24
 -1       890 1.90239E-05 7.93711E-05 0.00000E+00
 -1       891 2.92051E-05 8.23898E-05 0.00000E+00
 -1       892 2.71887E-05 8.23230E-05-8.27181E-25
 -1       893 2.51096E-05 8.22561E-05-8.27181E-25
 -1       894 2.29336E-05 8.21893E-05-4.13590E-25
 -1       895 2.06263E-05 8.21223E-05 4.13590E-25
 -1       956 2.25073E-05 5.01209E-06-1.65436E-24
 -1       957 2.23661E-05 6.92449E-06 0.00000E+00
 -1       958 2.22244E-05 8.92179E-06 0.00000E+00
 -1       959 2.20822E-05 1.09946E-05-1.65436E-24
 -1       960 2.19398E-05 1.31337E-05-3.30872E-24
 -1       961 2.17973E-05 1.53295E-05 0.00000E+00
 -1       962 2.16546E-05 1.75727E-05-3.30872E-24
 -1       963 2.15119E-05 1.98538E-05 1.65436E-24
 -1       964 2.13691E-05 2.21634E-05 0.00000E+00
 -1       965 2.12262E-05 2.44920E-05-1.65436E-24
 -1       966 2.10834E-05 2.68303E-05 0.00000E+00
 -1       967 2.09406E-05 2.91687E-05 1.65436E-24
 -1       968 2.07979E-05 3.14977E-05 0.00000E+00
 -1       969 2.06554E-05 3.38080E-05-1.65436E-24
 -1       970 2.05134E-05 3.60903E-05 3.30872E-24
 -1       971 2.02374E-05 4.06230E-05 0.00000E+00
 -1       972 2.00992E-05 4.30381E-05 0.00000E+00
 -1       973 1.99605E-05 4.55662E-05 3.30872E-24
 -1       974 1.98214E-05 4.81929E-05 0.00000E+00
 -1       975 1.96820E-05 5.09034E-05 0.00000E+00
 -1       976 1.95423E-05 5.36832E-05 1.65436E-24
 -1       977 1.94025E-05 5.65176E-05 0.00000E+00
 -1       978 1.92626E-05 5.93918E-05 0.00000E+00
 -1       979 1.91227E-05 6.22911E-05-3.30872E-24
 -1       980 1.89827E-05 6.52010E-05-1.65436E-24
 -1       981 1.88428E-05 6.81066E-05 0.00000E+00
 -1       982 1.87030E-05 7.09932E-05 0.00000E+00
 -1       983 1.85636E-05 7.38462E-05 3.30872E-24
 -1       984 1.84248E-05 7.66508E-05 0.00000E+00
 -1       985 1.82867E-05 7.93925E-05 0.00000E+00
 -3
    1PSTEP                        34          17           1          
  100CL  117 8.03741E-01         409                     0   17           1
 -4  STRESS      6    1
 -5  SXX         1    4    1    1
 -5  SYY         1    4    2    2
 -5  SZZ         1    4    3    3
 -5  SXY         1    4    1    2
 -5  SYZ         1    4    2    3
 -5  SZX         1    4    3    1
 -1         1-2.87955E+06-1.40983E+06-5.49907E+05-1.75914E+06 1.13505E-09 1.98401E-07
 -1         2 2.73515E+06 3.73250E+07 8.30834E+06-1.23264E+07-2.54367E-08 1.04708E-06
 -1         3-6.74274E+01 2.05906E+06-3.43814E+02-4.35183E+02 1.27027E-10 1.38152E-09
 -1         5-1.11318E+02 4.04043E+05 1.05524E+01 1.77504E+00 6.02283E-10 4.50382E-09
 -1         8 3.22419E+06 3.45649E+05 1.10193E+06-1.68705E+06 6.94854E-09 3.81246E-07
 -1         9 2.42946E+07 2.92592E+07 8.09442E+06 1.61354E+07 2.24449E-08-2.20723E-08
 -1        10 1.61457E+03 2.14566E+06 6.59507E+03-3.17170E+03 1.73713E-09 1.07038E-09
 -1        12-1.07274E+02 4.04066E+05 3.49033E+02 1.18824E+01 7.71308E-10 1.89357E-09
 -1        15 4.21088E+03 2.31426E+03 1.36115E+04 1.37072E+01 2.62264E-08 4.38628E-06
 -1        16 2.96457E+07 3.39313E+07 8.53987E+06 3.20081E+07 2.31278E-08 1.51029E-07
 -1        17 3.24443E+07-2.41433E+05 4.36788E+06-4.71603E+06 2.92584E-08-5.17000E-08
 -1        18 9.20836E+05 2.16472E+05 1.95847E+05-7.76894E+04 3.94425E-09 2.31785E-09
 -1        19 1.23840E+05 1.53846E+05-2.28834E+02 2.52166E+04-2.37233E-09 3.13594E-09
 -1        20-3.41256E+04-5.86258E+05-1.28167E+05 5.20474E+04 1.40099E-08-5.83774E-09
 -1        21-5.63244E+01-3.58872E+05-1.17851E+03-5.04185E+02-1.82093E-08-4.01255E-09
 -1        24 5.24871E+07-2.46611E+06 6.33118E+06-8.24163E+06 1.44303E-07 3.85092E-08
 -1        25 4.33916E+05 1.75509E+06 4.47715E+05-1.01151E+05-2.33558E-10 9.51331E-09
 -1        26-5.74781E+03 1.12584E+05-1.61376E+04-2.55552E+04 2.73212E-09-6.79700E-10
 -1        27-9.74795E+04-3.23125E+05-1.21670E+05 7.38536E+04 1.45530E-08-2.50778E-09
 -1        28 2.83566E+04-9.68657E+04 2.02081E+04 3.50794E+04 1.26392E-08-2.97039E-09
 -1        32-3.85451E+05 4.16388E+06 1.55594E+06-7.24121E+05 1.51340E-09 7.29628E-08
 -1        33-1.80121E+05 9.88280E+04 3.46411E+04-6.79152E+04 4.01027E-09-4.94159E-10
 -1        34-2.43479E+05-2.31533E+04 4.48074E+02 7.12546E+04 1.31077E-08 2.15702E-09
 -1        35-2.86251E+04-3.84271E+04-1.51371E+03 6.25769E+04 1.73164E-08-2.98921E-09
 -1        51 1.90234E+04-1.03717E+06 5.40263E+04-1.58349E+06-2.03727E-10 6.04836E-07
 -1        52 1.84970E+04-1.04342E+06 3.81323E+04-1.84788E+06 2.19734E-09-2.14277E-07
 -1        53 1.72280E+04-1.07086E+06 3.38108E+04-1.57794E+06 1.14960E-09 6.02304E-08
 -1        54 4.28968E+04-1.07427E+06 5.65967E+04-1.85315E+06 1.45519E-11-5.15662E-07
 -1        55 7.32940E+04-1.09644E+06 1.01566E+05-1.57700E+06 4.11819E-09-4.68353E-07
 -1        56-5.58304E+06-6.18363E+05-4.17028E+05-2.09828E+06-6.14546E-08-9.50036E-07
 -1        57-5.62602E+06-9.94687E+05-2.62903E+05-2.09680E+06 1.16632E-07-5.77696E-07
 -1        58-5.73666E+06-6.63461E+05-1.03181E+05-1.97507E+06-2.09693E-08 9.84292E-08
 -1        59-5.43653E+06-9.75958E+05-5.14405E+04-2.31179E+06-4.25262E-08-2.36805E-08
 -1        60-5.79081E+06-6.19748E+05-2.40099E+04-1.89837E+06-2.09857E-08-6.00923E-07
 -1        61-5.38866E+06-1.02136E+06-1.18416E+04-2.42162E+06-7.01152E-08-3.65268E-07
 -1        62-5.80273E+06-6.04949E+05-6.20804E+03-1.87741E+06 6.99242E-08-2.81254E-07
 -1        63-5.39340E+06-1.00549E+06-4.68408E+03-2.39956E+06-6.05805E-08-4.55017E-07
 -1        64-5.78175E+06-6.38476E+05-1.27341E+04-1.91769E+06-5.24997E-08 4.26808E-08
 -1        65-5.44949E+06-9.18693E+05-1.27802E+04-2.25787E+06-3.24071E-08 2.48931E-07
 -1        66-5.72474E+06-7.06739E+05-4.49675E+04-2.00448E+06 4.20914E-08 1.76184E-07
 -1        67-5.59447E+06-8.04377E+05-8.08215E+04-2.05376E+06-4.20041E-08-1.20977E-07
 -1        68-5.62320E+06-7.62977E+05-1.63563E+05-2.11118E+06-3.28146E-09-9.37653E-08
 -1        69-5.92371E+06-8.85685E+05-4.31591E+05-1.82777E+06 3.43675E-08-8.26585E-07
 -1        70-5.40716E+06-6.25446E+05-6.57553E+05-2.23422E+06-7.42439E-08 2.00525E-08
 -1        86-2.79507E+06-2.34267E+07-4.62354E+06 5.71282E+06 3.37364E-07 5.21541E-08
 -1        87 4.69922E+06 1.13319E+07 3.74589E+06-9.33835E+06 5.92132E-07 5.19953E-07
 -1        88-1.01236E+06-8.90173E+05 3.12142E+05 3.51616E+06 4.78634E-07 7.61116E-07
 -1        89 6.01098E+06 1.08778E+07 3.71741E+06-9.66386E+06 7.98580E-07-5.78408E-07
 -1        90-3.94109E+06-2.30925E+07-5.30443E+06 6.10769E+06 2.13709E-07 1.16095E-07
 -1       121-3.34458E+01 2.05918E+06-4.31551E+02 2.17626E+02-2.47439E-10 2.34741E-09
 -1       122-2.21537E+02 2.05896E+06-7.74416E+02-8.73813E+02 9.24061E-10 3.75167E-10
 -1       123 7.60349E+01 2.05929E+06-1.33791E+03 6.56446E+02-8.19398E-10 3.50428E-09
 -1       124-2.10927E+03 2.05783E+06-3.38728E+03-1.67787E+03 1.86813E-09 5.96447E-09
 -1       125 1.29060E+03 2.06034E+06-4.95052E+03 1.02298E+03-8.98126E-10 2.68392E-09
 -1       191-1.17168E+02 4.04055E+05 7.36547E+00-9.38967E-01 7.19711E-10 7.56700E-09
 -1       192-1.12360E+02 4.04043E+05 2.25962E+01 5.49084E+00 9.36566E-10 1.90630E-08
 -1       193-1.19899E+02 4.04054E+05 3.69187E+01-4.86544E+00 1.10827E-09 7.45058E-09
 -1       194-1.15697E+02 4.04047E+05 8.60899E+01 1.23933E+01 5.71181E-10-7.88714E-09
 -1       195-1.25139E+02 4.04052E+05 1.63273E+02-8.17767E+00 1.80854E-09-4.76211E-09
 -1       251 2.09758E+07-8.89750E+05 2.05423E+06 1.59050E+05 3.38182E-08 5.73811E-07
 -1       252 2.20821E+07 1.04402E+06 1.48456E+06-1.12235E+06-2.75504E-08-2.14000E-07
 -1       253 2.14312E+07-1.16517E+05 5.43824E+05-5.11610E+05 2.35559E-10-2.44559E-07
 -1       254 2.15729E+07 1.59467E+05 3.37091E+05-4.71707E+05 4.90672E-10-1.30649E-06
 -1       255 2.14880E+07-8.67745E+03 1.41499E+05-4.91163E+05 5.51745E-09-5.01961E-07
 -1       256 2.15107E+07 3.46294E+04 8.43089E+04-4.91828E+05 1.06379E-08-1.37610E-07
 -1       257 2.14973E+07 7.83491E+03 4.32713E+04-4.91593E+05-1.76452E-08-3.00897E-08
 -1       258 2.15019E+07 1.75751E+04 3.61536E+04-4.91417E+05-3.49685E-08 4.94691E-07
 -1       259 2.14976E+07 8.32507E+03 3.95234E+04-4.91595E+05-2.36412E-09-3.26909E-08
 -1       260 2.15085E+07 3.03908E+04 7.32640E+04-4.92053E+05-5.79018E-09-5.94659E-07
 -1       261 2.14901E+07-4.94273E+03 1.22185E+05-4.90941E+05-1.50790E-08-1.05341E-07
 -1       262 2.15598E+07 1.31103E+05 2.87426E+05-4.66342E+05 4.50531E-08-6.79604E-07
 -1       263 2.14429E+07-9.20075E+04 4.67947E+05-5.17216E+05-1.14724E-08 2.05036E-07
 -1       264 2.21119E+07 9.02497E+05 1.29516E+06-1.32688E+06 3.95630E-08 3.12575E-07
 -1       265 2.09419E+07-7.74505E+05 1.73542E+06 3.69044E+05 3.13230E-08-1.53435E-07
 -1       266-7.62195E+04-3.56144E+04 1.78951E+05-2.93500E+02 3.69910E-08 5.02202E-06
 -1       267 8.83699E+04 4.15485E+04 1.26419E+05 3.38432E+02 7.06714E-08 8.96487E-06
 -1       268-1.18497E+04-5.88220E+03 4.69931E+04-4.31333E+01 6.09161E-08 8.78641E-06
 -1       269 1.39918E+04 7.04233E+03 3.05414E+04 5.02302E+01 4.56275E-08 6.67631E-06
 -1       270-2.10005E+03-1.15688E+03 1.47429E+04-6.81672E+00 3.43166E-08 4.57115E-06
 -1       271-9.86142E+06-1.19654E+06-8.33433E+05-3.77906E+06-5.22050E-08 8.42847E-08
 -1       272-9.97046E+06-1.85353E+06-5.17646E+05-3.85441E+06-1.08619E-07-1.67835E-07
 -1       273-1.00899E+07-1.31436E+06-2.04199E+05-3.65484E+06 5.48607E-08 1.26427E-07
 -1       274-9.71331E+06-1.72395E+06-1.03192E+05-4.09874E+06 7.80565E-08 2.90293E-08
 -1       275-1.01677E+07-1.26553E+06-4.83681E+04-3.58313E+06-1.34460E-08 2.69716E-07
 -1       276-9.66118E+06-1.76539E+06-2.19383E+04-4.23766E+06-7.22048E-08 6.94733E-07
 -1       277-1.01961E+07-1.23447E+06-1.11126E+04-3.55276E+06 1.51043E-07 9.27557E-08
 -1       278-9.65539E+06-1.77331E+06-8.39030E+03-4.26057E+06 5.43478E-08-6.70581E-07
 -1       279-1.01838E+07-1.25054E+06-1.36092E+04-3.56690E+06-1.37978E-07-2.63408E-07
 -1       280-9.67627E+06-1.72720E+06-2.07296E+04-4.16286E+06 8.66166E-08 4.09485E-07
 -1       281-1.01327E+07-1.30859E+06-5.39987E+04-3.62292E+06-7.63248E-09 1.32415E-07
 -1       282-9.76154E+06-1.64793E+06-1.02187E+05-3.97373E+06-7.42875E-09 6.07335E-07
 -1       283-1.00385E+07-1.37185E+06-2.09400E+05-3.71318E+06 3.36586E-08-2.22033E-07
 -1       284-1.00680E+07-1.74801E+06-5.19976E+05-3.71666E+06 2.35887E-08-3.33617E-07
 -1       285-9.80149E+06-1.25309E+06-8.37349E+05-3.84563E+06 4.56039E-08 3.81959E-07
 -1       301-7.52632E+04 2.54767E+05-1.09620E+05 1.82760E+06 4.07454E-10 1.82554E-07
 -1       302-6.74927E+04 2.26722E+05-3.44051E+04 2.67660E+06 3.25235E-08-1.36260E-07
 -1       303-3.56657E+04 2.08685E+05 2.43434E+04 1.82491E+06 1.98197E-08 1.87461E-07
 -1       304-2.94606E+04 2.74362E+05 1.02782E+05 2.67566E+06-1.97906E-09 2.76428E-07
 -1       305-3.87374E+04 2.26922E+05 1.92557E+05 1.82976E+06-8.25094E-09 2.81929E-07
 -1       306-4.08812E+07-4.91215E+07-2.54370E+07-2.92148E+07 1.99769E-07 1.20723E-07
 -1       307 1.51566E+07 1.07978E+08 1.95001E+07 3.21956E+07 1.20979E-06-1.84518E-08
 -1       308-2.65251E+06-3.32401E+07-8.50303E+06 4.44736E+06-1.54541E-08 4.51342E-07
 -1       309 3.44814E+06 3.12468E+07 7.47228E+06-4.05208E+07-9.70322E-08 5.00811E-07
 -1       310 2.67210E+06-6.31222E+06 5.89038E+05 7.73965E+06-6.71716E-08 1.50176E-08
 -1       311-5.75512E+06 7.31736E+07 1.19252E+07-1.02991E+07-1.13674E-06 1.11386E-06
 -1       312-1.42953E+07-5.43271E+07-1.73098E+07-1.53577E+07-5.10365E-07-3.92785E-07
 -1       313 7.70524E+07 7.38036E+07 2.40537E+07 6.71862E+07 5.58328E-07-5.22530E-07
 -1       314-6.65433E+07-1.78810E+07-2.20432E+07-1.82829E+07-3.27243E-07 2.33995E-08
 -1       315 1.14115E+08 3.75176E+06 1.92442E+07-1.07706E+07 3.35043E-07 1.63913E-07
 -1       316-2.52657E+07-1.08771E+07-8.17874E+06 1.43924E+07 5.72065E-07 8.10134E-07
 -1       317-3.39990E+06 3.79720E+07 7.45817E+06-3.69258E+07-1.42670E-06 2.30211E-07
 -1       318 1.09485E+06-4.80879E+06 2.64372E+05 8.30428E+06 1.03994E-06 2.26413E-07
 -1       319 5.10877E+07 1.97817E+07 1.19396E+07-3.73221E+07 1.76602E-07 4.06697E-07
 -1       320-5.94643E+07-1.33253E+07-2.01120E+07 6.35047E+06-1.76602E-07-4.71482E-08
 -1       336-2.26044E+03 2.22899E+06 1.92036E+04 2.15186E+03 4.26235E-09 2.56841E-09
 -1       337 7.32049E+03 2.23613E+06 2.97149E+04-5.00165E+03 8.52742E-09 3.13776E-09
 -1       338-3.95449E+03 2.22741E+06 4.63344E+04 2.84954E+03 5.76983E-09-3.09137E-09
 -1       339 5.18278E+04 2.26317E+06 1.09906E+05-6.49581E+03 1.07830E-08-5.84714E-09
 -1       340-3.69442E+04 2.20196E+06 1.71492E+05 3.60378E+03 6.87578E-09-2.46109E-09
 -1       406-8.57370E+01 4.04036E+05 6.83705E+02-4.67817E+00 2.57819E-09 3.16140E-09
 -1       407 1.33571E+02 4.04187E+05 1.46462E+03-2.75531E+01 7.34303E-10-2.25373E-09
 -1       408 6.43055E+02 4.03929E+05 2.91829E+03 3.23063E+01 2.93721E-09 1.38607E-09
 -1       409 3.06390E+03 4.05119E+05 6.58097E+03-3.50905E+02 2.37833E-10-1.03319E-09
 -1       410 8.99506E+03 4.03085E+05 1.34301E+04 3.39925E+02 3.09956E-09 1.20781E-09
 -1       521-4.06568E+07-4.82652E+07-2.66486E+07-2.57040E+07 7.31088E-08-4.79631E-07
 -1       522 1.23236E+07 1.09133E+08 1.82904E+07 3.13375E+07 1.17221E-06-3.14903E-07
 -1       523-3.41961E+06-3.05463E+07-8.25316E+06 4.10239E+06 5.73084E-07 5.46686E-07
 -1       524 3.41540E+06 2.79767E+07 7.16359E+06-4.39070E+07-4.66651E-07 1.80265E-06
 -1       525 2.81309E+06-6.63868E+06 8.51338E+05 7.15845E+06-7.84639E-08 1.19652E-06
 -1       526-7.30248E+06 7.38240E+07 1.15001E+07-1.33155E+07-8.58563E-08 2.47499E-07
 -1       527-1.58988E+07-5.16237E+07-1.80138E+07-1.35574E+07-6.23317E-07 4.81261E-07
 -1       528 7.75802E+07 7.40452E+07 2.27241E+07 6.97867E+07-2.59315E-07-3.70841E-07
 -1       529-6.36742E+07-1.99411E+07-2.32280E+07-1.58719E+07-2.61702E-07-1.60711E-07
 -1       530 1.14475E+08 2.30781E+06 1.81304E+07-1.35562E+07 9.11998E-07-7.91624E-09
 -1       531-2.33027E+07-1.10493E+07-7.97242E+06 1.29944E+07 7.52858E-07 3.35509E-07
 -1       532-9.05816E+06 4.05369E+07 7.16745E+06-3.77443E+07-1.10321E-06 3.88827E-07
 -1       533 5.69110E+05-4.40720E+06 5.12792E+05 8.07423E+06-9.12696E-07 7.96907E-07
 -1       534 4.84856E+07 2.15101E+07 1.14754E+07-4.03013E+07 7.68036E-07-6.01402E-07
 -1       535-5.62048E+07-1.55429E+07-2.09991E+07 6.06550E+06 1.66707E-07-5.05534E-07
 -1       536 3.31888E+06-1.14522E+05 2.65369E+05-1.59133E+04-2.26150E-08-6.30098E-09
 -1       537 3.43532E+06 1.32601E+05 1.87916E+05 5.42733E+03 6.95811E-09-6.34827E-09
 -1       538 3.36412E+06-1.79216E+04 6.88536E+04-5.66422E+03 1.09876E-09-2.29556E-09
 -1       539 3.38296E+06 2.07648E+04 4.33282E+04-5.09482E+03-2.46445E-09 6.83940E-10
 -1       540 3.37147E+06-2.80074E+03 1.78393E+04-5.39295E+03 3.44349E-09-3.59978E-09
 -1       541 3.37449E+06 3.32480E+03 1.08194E+04-5.37451E+03-3.24505E-08-2.90709E-09
 -1       542 3.37267E+06-4.96222E+02 5.62218E+03-5.38469E+03-9.02762E-06-1.70044E-08
 -1       543 3.37332E+06 1.04424E+03 5.06140E+03-5.38314E+03-1.79975E-05-2.91986E-08
 -1       544 3.37265E+06-5.21792E+02 5.85488E+03-5.38434E+03-9.02614E-06-1.96919E-08
 -1       545 3.37461E+06 3.54466E+03 1.14912E+04-5.38937E+03-2.92858E-08 2.03386E-09
 -1       546 3.37136E+06-2.99487E+03 1.90502E+04-5.37843E+03 2.60183E-09-4.88399E-10
 -1       547 3.38368E+06 2.22102E+04 4.63418E+04-5.69238E+03 5.37746E-09 4.44379E-09
 -1       548 3.36350E+06-1.91715E+04 7.36741E+04-5.08117E+03 6.42899E-09 3.15413E-09
 -1       549 3.43992E+06 1.41985E+05 2.01145E+05-1.80817E+04-5.24716E-10 1.21872E-09
 -1       550 3.31488E+06-1.22648E+05 2.83936E+05 7.00990E+03-1.11154E-09 2.51748E-09
 -1       551-1.56899E+04 3.79169E+04-2.94088E+04-1.53915E+06 7.29233E-09 2.06637E-09
 -1       552 1.76295E+03 1.86069E+04 8.01446E+03-2.19172E+06-2.19734E-09-1.01863E-10
 -1       553 3.64656E+03 1.47181E+04 4.43666E+04-1.53602E+06 1.73168E-09 4.76211E-09
 -1       554 2.92129E+04 5.82984E+04 1.15148E+05-2.19077E+06 2.96859E-09 9.82254E-09
 -1       555 1.72685E+04 2.07411E+04 2.08550E+05-1.54053E+06 1.18307E-08 9.15315E-09
 -1       556-1.05273E+05-3.22685E+04-4.72536E+04-4.67976E+04 2.82671E-09 6.07679E-09
 -1       557-1.11753E+05-3.36158E+04-2.45914E+04-5.60326E+04-6.57747E-09-8.34450E-09
 -1       558-1.08491E+05-2.42064E+04-1.04182E+04-5.21349E+04 3.76531E-09-1.10686E-09
 -1       559-1.06158E+05-2.72779E+04-5.13579E+03-5.58015E+04 2.01544E-09 7.87577E-09
 -1       560-1.08724E+05-2.41091E+04-2.40142E+03-5.23222E+04 1.71713E-09 1.30631E-08
 -1       561-1.05736E+05-2.70470E+04-1.17298E+03-5.56613E+04-7.78527E-09-6.09543E-09
 -1       562-1.08714E+05-2.41810E+04-6.13109E+02-5.22988E+04-3.25235E-09 2.43381E-09
 -1       563-1.05646E+05-2.70663E+04-3.27111E+02-5.55896E+04 2.41016E-09 4.24825E-09
 -1       564-1.08666E+05-2.42237E+04-2.72632E+02-5.22701E+04 4.62751E-09 1.35497E-08
 -1       565-1.05589E+05-2.70789E+04-2.67216E+02-5.55264E+04-4.73483E-09 4.06817E-09
 -1       566-1.08610E+05-2.42653E+04-4.72233E+02-5.22477E+04-4.76211E-09-4.83487E-09
 -1       567-1.05611E+05-2.71046E+04-8.46462E+02-5.54482E+04-1.02773E-09 5.81895E-09
 -1       568-1.08485E+05-2.43448E+04-1.71859E+03-5.22124E+04-1.93540E-09-2.83580E-09
 -1       569-1.06847E+05-2.76932E+04-3.89844E+03-5.49367E+04-7.85803E-10-9.03128E-10
 -1       570-1.07536E+05-2.60216E+04-7.51888E+03-5.17972E+04-3.94357E-09-7.56336E-09
 -1       571 2.80660E+05 8.85762E+03 1.33501E+04-5.94372E+04-1.10495E-08 2.90129E-09
 -1       572 2.82652E+05 2.97245E+03 6.54142E+03-6.51040E+04-2.30502E-08 2.16232E-09
 -1       573 2.81440E+05 6.03100E+02 2.90558E+03-5.92429E+04-1.17570E-08 1.03228E-09
 -1       574 2.81679E+05 9.11992E+01 1.45600E+03-6.53055E+04-2.32103E-09-2.43472E-09
 -1       575 2.81513E+05-1.00848E+02 6.85540E+02-5.92182E+04 4.04270E-10 2.42835E-10
 -1       576 2.81534E+05-1.34019E+02 3.48118E+02-6.53323E+04 3.54157E-09-2.67028E-09
 -1       577 2.81515E+05-1.32178E+02 1.69400E+02-5.92150E+04 1.41222E-09-3.95630E-10
 -1       578 2.81511E+05-1.40133E+02 8.82499E+01-6.53355E+04 1.70473E-10 3.18960E-09
 -1       579 2.81523E+05-1.30332E+02 4.62497E+01-5.92150E+04-3.89991E-09-1.81899E-09
 -1       580 2.81524E+05-1.45468E+02 3.02381E+01-6.53324E+04 4.05271E-09-8.04994E-09
 -1       581 2.81547E+05-1.40757E+02 2.63678E+01-5.92180E+04-3.44517E-09-3.45881E-09
 -1       582 2.81562E+05-1.58264E+02 3.97081E+01-6.53014E+04-1.28148E-09-5.36147E-10
 -1       583 2.81587E+05-1.47704E+02 6.79883E+01-5.92458E+04-7.18501E-11 1.87811E-10
 -1       584 2.81639E+05-1.18183E+02 1.50379E+02-6.50665E+04-6.53381E-09-1.28944E-09
 -1       585 2.81623E+05 1.57002E+01 2.99824E+02-5.94530E+04-8.18545E-11-7.71252E-10
 -1       586-4.92967E+03 8.13940E+04-7.56988E+03-1.75353E+05 3.96051E-09-8.13998E-11
 -1       587-1.02867E+03 8.02255E+04-2.46713E+03-1.92806E+05 4.79486E-09-4.24097E-09
 -1       588 9.26372E+02 8.07141E+04 1.39611E+03-1.75173E+05 3.27600E-09 7.65112E-10
 -1       589 3.90572E+03 8.18302E+04 6.31437E+03-1.92772E+05 5.94082E-09 2.23736E-09
 -1       590 1.03820E+04 7.98306E+04 1.42981E+04-1.75361E+05 3.33648E-09 3.56158E-09
 -1       591-5.84040E+04-1.95203E+04-2.17705E+04-3.36062E+04 1.38084E-09-7.11771E-09
 -1       592-5.96629E+04-2.56427E+04-1.17912E+04-4.01542E+04 1.61845E-09-2.67937E-09
 -1       593-6.06186E+04-1.79046E+04-4.90937E+03-3.51725E+04-8.72433E-10-3.71142E-09
 -1       594-5.66227E+04-2.24896E+04-2.44809E+03-4.03248E+04 1.34276E-09-3.32145E-09
 -1       595-6.07912E+04-1.78943E+04-1.12526E+03-3.52462E+04 1.86583E-09 4.82399E-09
 -1       596-5.64201E+04-2.23442E+04-5.73441E+02-4.03068E+04-9.54969E-11 5.42968E-09
 -1       597-6.08139E+04-1.79072E+04-3.15841E+02-3.52498E+04-5.85885E-10-4.69663E-09
 -1       598-5.64009E+04-2.23386E+04-2.60457E+02-4.03012E+04 1.22574E-09-5.86056E-09
 -1       599-6.08114E+04-1.79079E+04-3.41208E+02-3.52488E+04-2.76896E-09-3.14049E-09
 -1       600-5.64204E+04-2.23470E+04-6.40444E+02-4.03044E+04-3.44914E-09-3.48928E-09
 -1       601-6.07812E+04-1.78949E+04-1.26750E+03-3.52426E+04-5.19367E-09-7.58200E-09
 -1       602-5.66470E+04-2.25118E+04-2.76342E+03-4.03206E+04 1.68620E-09 1.45792E-09
 -1       603-6.05833E+04-1.79100E+04-5.54382E+03-3.51589E+04-7.69887E-10-2.46064E-09
 -1       604-6.00860E+04-2.60634E+04-1.33145E+04-4.01142E+04 2.80124E-10 6.96309E-09
 -1       605-5.80702E+04-1.97418E+04-2.45827E+04-3.33977E+04-2.45132E-09-5.63614E-09
 -1       606 4.88412E+04-1.35212E+04-2.44449E+04 4.82281E+04-3.24690E-09-3.49246E-10
 -1       607 4.46406E+04-4.29919E+03-1.21691E+04 5.41197E+04 1.29385E-08-7.33235E-09
 -1       608 4.69752E+04-6.68830E+02-5.45568E+03 4.78322E+04 2.61534E-08-7.07132E-10
 -1       609 4.64688E+04-7.85249E+01-2.75327E+03 5.45395E+04 1.49957E-08 1.37106E-09
 -1       610 4.66987E+04 1.40032E+02-1.31975E+03 4.77883E+04-2.51021E-09 6.66205E-10
 -1       611 4.65713E+04 2.00822E+02-6.64667E+02 5.45850E+04-2.10639E-08-4.80441E-09
 -1       612 4.65914E+04 1.92083E+02-3.21797E+02 4.77840E+04-6.07179E-09 9.24956E-10
 -1       613 4.65179E+04 2.40825E+02-1.47669E+02 5.45898E+04-1.36324E-08 9.66793E-10
 -1       614 4.65203E+04 2.17624E+02-4.71451E+01 4.77825E+04-3.40151E-10 1.74578E-09
 -1       615 4.64619E+04 2.70377E+02 3.50404E+01 5.45902E+04 1.72577E-08 2.81489E-10
 -1       616 4.64671E+04 2.43894E+02 1.29149E+02 4.77830E+04-1.20963E-10-5.60476E-09
 -1       617 4.64403E+04 3.20088E+02 3.06043E+02 5.45889E+04 1.31531E-08-8.21365E-09
 -1       618 4.64133E+04 3.49162E+02 6.19911E+02 4.77830E+04 1.02536E-08-1.17871E-09
 -1       619 4.66368E+04 8.13132E+02 1.39493E+03 5.45872E+04 3.20438E-09-2.00862E-09
 -1       620 4.61936E+04 1.83059E+03 2.80388E+03 4.77784E+04 4.68413E-09 1.94223E-09
 -1       621 7.40236E+02 3.31523E+05 5.90473E+03-6.07113E+03-1.24305E-09 6.66068E-09
 -1       622 8.20006E+02 3.32988E+05 4.57763E+03-8.61184E+03-1.02551E-09 9.52696E-10
 -1       623 4.91084E+01 3.32008E+05 4.69553E+03-6.04374E+03-1.11368E-09-5.82304E-10
 -1       624 2.00406E+03 3.34074E+05 8.42124E+03-8.64386E+03-1.33730E-09-1.31968E-09
 -1       625 1.99450E+03 3.30431E+05 1.44060E+04-6.03517E+03-1.14051E-09-2.45177E-09
 -1       626 2.51187E+05 7.54340E+04 4.54240E+03 1.43838E+05-1.09176E-08-1.18853E-08
 -1       627 2.46998E+05 7.88016E+04 2.19135E+03 1.49999E+05-7.08769E-09-3.76644E-09
 -1       628 2.51373E+05 7.32329E+04 9.21740E+02 1.44428E+05 7.45604E-09-4.82532E-09
 -1       629 2.46220E+05 7.83730E+04 4.54241E+02 1.50343E+05 1.31549E-08-7.39772E-09
 -1       630 2.51349E+05 7.31470E+04 2.08199E+02 1.44415E+05 9.45874E-11-1.05995E-08
 -1       631 2.46093E+05 7.83838E+04 1.14122E+02 1.50324E+05-1.45228E-08-1.29093E-08
 -1       632 2.51307E+05 7.31719E+04 7.67128E+01 1.44384E+05-1.69748E-08-4.32607E-09
 -1       633 2.46047E+05 7.84034E+04 9.02567E+01 1.50295E+05-1.04760E-08 1.19604E-09
 -1       634 2.51271E+05 7.31836E+04 1.48487E+02 1.44365E+05 6.39193E-09-6.18638E-09
 -1       635 2.46036E+05 7.84132E+04 3.04012E+02 1.50282E+05 8.80391E-09-5.80940E-10
 -1       636 2.51243E+05 7.31891E+04 6.14278E+02 1.44353E+05-3.12502E-09-2.26191E-09
 -1       637 2.46153E+05 7.85142E+04 1.35023E+03 1.50270E+05 4.55816E-09 4.07772E-09
 -1       638 2.51187E+05 7.34912E+04 2.77468E+03 1.44211E+05 2.48295E-09-3.99905E-09
 -1       639 2.47604E+05 8.05446E+04 6.56326E+03 1.49842E+05-7.91397E-09-8.96216E-09
 -1       640 2.51009E+05 7.95190E+04 1.36192E+04 1.41636E+05-1.17079E-08-1.39935E-08
 -1       656 7.10420E+04-1.78588E+06-1.71418E+05 2.55198E+03 2.98314E-10-2.39032E-09
 -1       657-9.38366E+04-1.86306E+06-1.41602E+05 1.46179E+04 6.08725E-09 1.91078E-09
 -1       658 2.24524E+04-1.80793E+06-8.66651E+04-3.81308E+02 3.27213E-09 1.31250E-09
 -1       659-1.00063E+05-1.86604E+06-1.49776E+05 1.64114E+04 1.82627E-09-4.37697E-10
 -1       660 7.72579E+04-1.78291E+06-1.85448E+05 7.58463E+02 2.60479E-09 6.97156E-10
 -1       661 3.00154E+05 3.34302E+04 2.79534E+04 1.17785E+05 6.12408E-09 8.93124E-10
 -1       662 3.14454E+05 5.56092E+04 1.88351E+04 1.13225E+05 5.90830E-10-1.93245E-09
 -1       663 3.05651E+05 4.23879E+04 6.58919E+03 1.16184E+05 1.12220E-09-4.56021E-09
 -1       664 3.08084E+05 4.51335E+04 3.93932E+03 1.15182E+05-4.13365E-10-3.78276E-09
 -1       665 3.06484E+05 4.36112E+04 1.55355E+03 1.15940E+05-9.41498E-10-4.03020E-09
 -1       666 3.07097E+05 4.37365E+04 9.05166E+02 1.15504E+05-1.60508E-08 5.64029E-09
 -1       667 3.06633E+05 4.37476E+04 4.75337E+02 1.15876E+05-2.95728E-10-5.77344E-10
 -1       668 3.06926E+05 4.36426E+04 4.73145E+02 1.15604E+05 1.74579E-08-5.14802E-10
 -1       669 3.06654E+05 4.37015E+04 6.30465E+02 1.15842E+05 1.28828E-08 9.61705E-10
 -1       670 3.07059E+05 4.40003E+04 1.36439E+03 1.15632E+05 2.34929E-08 4.79247E-09
 -1       671 3.06502E+05 4.33964E+04 2.41903E+03 1.15846E+05-1.03059E-09 2.35593E-09
 -1       672 3.08442E+05 4.63781E+04 6.18673E+03 1.15321E+05-1.41130E-08 1.38562E-09
 -1       673 3.05278E+05 4.13827E+04 1.03667E+04 1.16130E+05-6.26096E-09-2.49656E-10
 -1       674 3.18290E+05 6.30485E+04 2.96444E+04 1.12443E+05-8.70614E-10 2.47519E-09
 -1       675 2.96718E+05 2.71912E+04 4.40037E+04 1.18547E+05 4.58840E-09-4.03634E-09
 -1       676 3.09762E+01-3.58770E+05-1.42042E+03 2.52102E+02-7.13175E-09-4.63530E-10
 -1       677-3.73978E+02-3.59117E+05-2.59969E+03-5.03673E+02-1.57750E-08-1.93439E-09
 -1       678 2.52260E+02-3.58525E+05-4.59565E+03 2.51401E+02-7.29528E-09 8.50008E-10
 -1       679-4.59432E+03-3.61891E+05-1.09177E+04-5.01258E+02-2.06745E-08 3.51338E-09
 -1       680 2.74450E+03-3.55997E+05-1.75955E+04 2.46771E+02-8.49013E-09 9.52383E-10
 -1       771-3.91135E+06-5.15691E+05-2.08078E+05-1.38628E+06 1.02518E-08 8.10542E-09
 -1       772-3.98041E+06-5.15376E+05-1.12564E+05-1.38121E+06 1.89466E-08 2.25464E-09
 -1       773-3.93101E+06-5.01919E+05-4.70914E+04-1.40341E+06 1.28057E-08 7.00811E-09
 -1       774-3.95498E+06-4.82087E+05-2.33391E+04-1.38007E+06-8.75298E-09-6.51653E-09
 -1       775-3.93236E+06-5.02269E+05-1.08722E+04-1.40539E+06-3.84171E-09-4.55657E-09
 -1       776-3.95527E+06-4.78903E+05-5.27229E+03-1.37876E+06 4.31828E-09 1.64437E-09
 -1       777-3.93246E+06-5.02673E+05-2.69797E+03-1.40651E+06 2.42289E-09 1.35969E-09
 -1       778-3.95700E+06-4.77371E+05-1.43424E+03-1.37788E+06 1.24055E-09 3.43152E-09
 -1       779-3.93243E+06-5.02898E+05-1.12932E+03-1.40744E+06 1.29148E-09-3.90810E-09
 -1       780-3.95858E+06-4.76180E+05-1.28565E+03-1.37726E+06 5.42423E-09 6.67842E-09
 -1       781-3.93238E+06-5.03024E+05-2.23560E+03-1.40816E+06 6.58474E-09-4.53156E-09
 -1       782-3.96013E+06-4.75574E+05-4.57583E+03-1.37688E+06 5.79075E-09-1.73782E-09
 -1       783-3.93208E+06-5.03117E+05-9.12069E+03-1.40851E+06 5.45697E-11-2.34104E-09
 -1       784-3.96641E+06-4.81014E+05-2.18622E+04-1.37645E+06 2.79942E-09-9.94760E-10
 -1       785-3.92814E+06-5.05996E+05-4.03642E+04-1.40577E+06 6.57360E-09-3.96176E-09
 -1       786 3.45673E+05-1.55814E+04 3.60537E+04 5.57213E+02 3.46147E-09 6.76664E-10
 -1       787 3.61297E+05 1.80393E+04 2.55078E+04 8.04077E+01 1.09724E-09 1.03182E-09
 -1       788 3.51703E+05-2.44210E+03 9.33341E+03 4.52253E+02-3.42553E-11-1.42290E-09
 -1       789 3.54274E+05 2.82657E+03 5.86630E+03 2.27920E+02 6.87663E-08-5.77529E-09
 -1       790 3.52699E+05-3.81279E+02 2.39127E+03 4.09720E+02 2.10154E-05-2.12704E-08
 -1       791 3.53114E+05 4.44958E+02 1.41205E+03 2.83636E+02 4.18758E-05-4.35964E-08
 -1       792 3.52865E+05-6.22911E+01 6.60261E+02 3.96539E+02 1.13815E-05-1.18595E-08
 -1       793 3.52931E+05 9.59814E+01 4.64757E+02 2.89573E+02-1.91427E-05 2.00879E-08
 -1       794 3.52882E+05-3.25295E+01 3.93367E+02 4.03783E+02-9.63476E-06 7.91542E-09
 -1       795 3.52976E+05 1.89153E+02 6.39858E+02 2.50299E+02-2.91108E-08 5.86493E-09
 -1       796 3.52819E+05-1.55402E+02 1.00131E+03 4.35814E+02-8.78905E-10-9.40986E-10
 -1       797 3.53444E+05 1.14756E+03 2.39640E+03 1.41537E+02-4.46452E-09 1.75555E-09
 -1       798 3.52414E+05-9.90251E+02 3.79351E+03 5.12546E+02-2.04616E-09 1.84923E-09
 -1       799 3.56300E+05 7.31797E+03 1.03533E+04-1.07152E+02-4.68112E-09-2.56148E-09
 -1       800 3.49960E+05-6.32088E+03 1.46240E+04 6.84497E+02-7.70040E-10 2.90947E-09
 -1       801-3.33320E+05 8.30085E+06 8.05117E+05-8.47142E+03 4.42378E-09-5.00836E-09
 -1       802 4.58731E+05 8.67862E+06 6.99447E+05-8.99438E+04 1.21654E-08-1.21798E-08
 -1       803-1.23876E+05 8.39865E+06 4.73288E+05-6.09977E+04 3.77622E-09-4.30134E-09
 -1       804 6.06014E+05 8.74441E+06 8.91957E+05-7.47343E+04 6.98492E-09 1.33468E-10
 -1       805-4.80243E+05 8.23482E+06 1.14013E+06-2.36784E+04-9.89530E-10 5.52859E-08
 -1       806-3.04596E+05-7.70041E+04-3.09485E+04-1.39000E+05 2.89947E-09 7.80346E-10
 -1       807-3.05313E+05-7.36809E+04-1.52034E+04-1.48463E+05-3.73598E-09 7.03949E-09
 -1       808-3.05540E+05-6.57634E+04-6.44907E+03-1.44196E+05 2.87673E-09 2.21735E-09
 -1       809-3.02004E+05-6.95300E+04-3.15137E+03-1.48998E+05 9.91531E-09 1.15005E-08
 -1       810-3.05693E+05-6.53582E+04-1.44241E+03-1.44427E+05-1.68257E-10 3.89048E-09
 -1       811-3.01756E+05-6.93682E+04-7.13308E+02-1.48975E+05-2.58808E-10-5.81804E-09
 -1       812-3.05721E+05-6.53837E+04-3.52646E+02-1.44427E+05 5.22732E-09-7.72616E-10
 -1       813-3.01723E+05-6.93740E+04-2.16787E+02-1.48958E+05 5.01132E-09-2.41107E-09
 -1       814-3.05716E+05-6.53965E+04-1.94284E+02-1.44420E+05 3.36331E-09-7.13635E-09
 -1       815-3.01719E+05-6.93800E+04-2.94598E+02-1.48947E+05 2.07410E-09-1.08048E-08
 -1       816-3.05688E+05-6.53999E+04-5.47021E+02-1.44411E+05-1.21872E-10-8.25503E-09
 -1       817-3.01801E+05-6.94362E+04-1.16897E+03-1.48926E+05 2.07783E-08-9.28594E-10
 -1       818-3.05603E+05-6.55731E+04-2.38234E+03-1.44326E+05 8.49468E-09-4.25916E-09
 -1       819-3.03112E+05-7.08571E+04-5.60422E+03-1.48577E+05-2.52294E-09 5.13774E-09
 -1       820-3.05123E+05-6.98270E+04-1.14080E+04-1.42517E+05-9.19499E-10 2.20098E-09
 -1       821-3.86199E+05 2.20418E+04-5.18487E+04 1.50637E+03 2.25327E-09 1.28421E-09
 -1       822-4.04517E+05-2.55972E+04-3.59723E+04-8.04910E+03 3.01858E-09-1.74668E-09
 -1       823-3.93071E+05 3.52935E+03-1.33523E+04 3.99115E+03-8.51973E-09 5.52973E-10
 -1       824-3.96002E+05-4.09161E+03-8.28956E+03-1.02357E+04 2.17629E-09-1.18325E-09
 -1       825-3.94748E+05 5.84090E+02-3.52270E+03 3.69315E+03 1.27590E-08 3.11911E-09
 -1       826-3.92344E+05-6.01977E+02-1.57599E+03-7.07843E+03 1.31495E-08 1.30390E-09
 -1       827-3.96674E+05-1.63282E+00-1.50054E+03 8.33705E+02-1.69331E-09 2.36022E-09
 -1       828-3.90552E+05-4.56783E+01-1.12195E+02-4.04865E+02-2.02982E-08 2.64664E-09
 -1       829-3.96498E+05-6.21022E+00-1.46776E+03-2.98015E+03 2.97553E-09-4.48398E-09
 -1       830-3.92739E+05-5.62768E+02-1.64533E+03 6.01526E+03 1.02025E-08 2.03841E-09
 -1       831-3.94539E+05 5.56742E+02-3.48800E+03-5.58661E+03-1.73669E-08-3.44335E-09
 -1       832-3.96105E+05-4.01175E+03-8.29451E+03 8.57235E+03-1.08492E-08 5.47288E-10
 -1       833-3.93179E+05 3.47730E+03-1.33839E+04-5.53771E+03 1.74111E-10-2.16187E-09
 -1       834-4.04240E+05-2.55210E+04-3.59056E+04 5.82035E+03-2.90117E-09 4.43379E-09
 -1       835-3.86359E+05 2.20104E+04-5.18896E+04-2.83403E+03 1.06496E-08-7.78527E-10
 -1       836-1.28564E+03 4.07406E+05 2.40474E+04-4.69767E+04 7.96626E-09 7.57609E-10
 -1       837 5.60192E+03 4.14687E+05 2.04863E+04-9.38523E+04 1.02991E-08-9.86347E-10
 -1       838-3.55380E+02 4.09451E+05 2.10435E+04-4.68475E+04 8.70295E-09 3.68459E-10
 -1       839 1.37817E+04 4.20778E+05 3.99726E+04-9.38657E+04 1.04264E-08 8.82210E-10
 -1       840-3.91803E+03 4.01249E+05 6.37968E+04-4.69540E+04 7.99992E-09 2.92175E-09
 -1       856-1.66365E+05 1.21872E+04-3.21264E+04-9.97781E+02-8.97455E-09-2.33558E-09
 -1       857-1.79647E+05-1.42762E+04-2.21173E+04 6.59570E+03-7.07814E-09-3.89764E-09
 -1       858-1.71606E+05 1.70448E+03-8.33881E+03-1.05245E+03-3.34660E-09-4.63797E-09
 -1       859-1.73632E+05-1.96200E+03-5.03687E+03 6.68701E+03 2.65118E-09-4.08681E-09
 -1       860-1.72388E+05 2.34105E+02-2.12105E+03-1.08992E+03 4.51823E-09-4.48983E-09
 -1       861-1.72734E+05-2.37739E+02-1.18703E+03 6.73868E+03-7.29381E-09-2.30511E-09
 -1       862-1.72509E+05 2.85447E+01-5.34432E+02-1.10427E+03 1.56410E-08-1.17117E-09
 -1       863-1.72592E+05 1.85578E+00-2.87754E+02 6.74425E+03 3.22110E-08-2.94602E-09
 -1       864-1.72530E+05-7.53291E-02-1.37960E+02-1.09551E+03 2.09398E-08-3.30074E-09
 -1       865-1.72562E+05 3.09999E+01-7.83876E+01 6.70273E+03 1.33016E-08-5.85118E-09
 -1       866-1.72535E+05-3.01235E+00-5.19367E+01-1.06273E+03-5.91098E-09-3.39188E-09
 -1       867-1.72550E+05 1.75073E+01-5.57665E+01 6.61406E+03 1.06487E-08-6.17655E-09
 -1       868-1.72534E+05 7.21611E+00-7.99914E+01-1.00680E+03 5.28325E-09-2.87197E-09
 -1       869-1.72574E+05-8.72137E+01-1.80316E+02 6.47424E+03-7.83689E-09-4.30020E-09
 -1       870-1.72499E+05 9.01664E+01-2.72509E+02-9.22862E+02 1.11970E-08-2.47994E-09
 -1       871-6.22067E+03-8.92823E+03-1.88757E+04 1.21165E+05 9.86802E-09-7.19228E-09
 -1       872-3.00046E+03-1.30715E+04-7.57888E+03 1.57081E+05 1.15897E-08-3.95448E-09
 -1       873-4.09734E+02-1.12450E+04 1.37181E+03 1.20906E+05 7.15727E-09-2.95267E-09
 -1       874 2.58858E+03-8.24336E+03 1.13396E+04 1.57150E+05 1.84782E-08 1.94086E-09
 -1       875 6.84312E+03-1.38896E+04 2.49447E+04 1.21138E+05 6.73208E-09-6.46651E-10
 -1       876 3.21637E+05 5.65153E+04 1.77115E+04 1.31788E+05-1.46160E-08-4.75302E-09
 -1       877 3.22515E+05 6.05421E+04 9.45877E+03 1.37156E+05-2.25391E-08-6.69297E-09
 -1       878 3.23285E+05 5.45611E+04 3.96225E+03 1.33246E+05 1.11977E-08 1.31126E-09
 -1       879 3.20101E+05 5.81440E+04 1.97391E+03 1.37277E+05 3.90537E-09-5.75972E-09
 -1       880 3.23401E+05 5.45426E+04 9.18308E+02 1.33305E+05 9.87484E-09-2.46234E-09
 -1       881 3.19940E+05 5.80414E+04 4.88435E+02 1.37248E+05 3.18933E-08-2.59593E-09
 -1       882 3.23411E+05 5.45591E+04 3.08561E+02 1.33306E+05 2.35698E-08 8.93851E-09
 -1       883 3.19928E+05 5.80362E+04 3.25728E+02 1.37238E+05 4.65707E-09 1.04606E-08
 -1       884 3.23403E+05 5.45565E+04 5.12458E+02 1.33306E+05 1.94484E-09 6.65193E-09
 -1       885 3.19968E+05 5.80434E+04 1.02673E+03 1.37250E+05 2.16160E-08 8.25821E-10
 -1       886 3.23364E+05 5.45263E+04 2.06741E+03 1.33302E+05 1.57961E-08-3.62115E-09
 -1       887 3.20332E+05 5.82816E+04 4.51503E+03 1.37304E+05-1.08303E-08-7.10952E-09
 -1       888 3.23080E+05 5.45749E+04 9.09723E+03 1.33157E+05-3.90230E-10 3.38787E-10
 -1       889 3.25757E+05 6.39054E+04 2.17314E+04 1.37131E+05 6.40694E-09 1.93677E-09
 -1       890 3.19386E+05 5.89680E+04 4.07022E+04 1.29676E+05 1.23207E-08 1.45883E-09
 -1       891-3.15001E+02-1.85493E+05-2.15161E+03 3.78346E+04-2.16664E-09-5.68502E-09
 -1       892-5.26343E+02-1.85940E+05-2.35352E+03 5.71109E+04-4.07408E-09-1.87911E-08
 -1       893-1.84338E+02-1.85544E+05-3.37961E+03 3.78416E+04 1.85855E-09-5.79075E-09
 -1       894-2.04547E+03-1.87205E+05-7.02394E+03 5.69082E+04-3.11229E-09-1.47747E-09
 -1       895-1.59619E+03-1.84051E+05-1.23888E+04 3.80293E+04 6.02074E-09-8.01265E-10
 -1       956-3.99772E+05-5.91256E+03-1.50252E+04 2.43637E+04-1.18043E-08 3.55840E-10
 -1       957-4.02752E+05-1.94136E+03-7.71266E+03 2.94032E+04-2.37924E-09 2.11912E-09
 -1       958-4.01112E+05-1.01270E+02-3.47566E+03 2.41750E+04 8.33461E-09-1.55978E-10
 -1       959-4.01367E+05 5.05648E+01-1.77468E+03 2.95981E+04-4.04361E-09 1.94382E-09
 -1       960-4.01240E+05 1.14668E+02-8.65289E+02 2.41562E+04-1.20344E-08 5.30690E-10
 -1       961-4.01274E+05 1.30646E+02-4.57693E+02 2.96198E+04-2.21794E-08 5.77938E-09
 -1       962-4.01270E+05 1.13076E+02-2.60147E+02 2.41525E+04-9.27866E-09 2.33285E-09
 -1       963-4.01277E+05 1.36616E+02-2.04695E+02 2.96252E+04-1.61374E-08 6.55314E-09
 -1       964-4.01281E+05 1.19197E+02-2.43806E+02 2.41506E+04-4.90718E-09-8.56744E-10
 -1       965-4.01298E+05 1.43993E+02-4.17087E+02 2.96268E+04 9.75342E-09 5.03633E-10
 -1       966-4.01272E+05 1.32759E+02-7.80722E+02 2.41508E+04-5.41564E-09-1.34378E-10
 -1       967-4.01403E+05 8.43661E+01-1.60021E+03 2.96193E+04 3.25656E-10 8.96989E-10
 -1       968-4.01176E+05-5.01755E+01-3.13112E+03 2.41587E+04-3.74871E-09 7.50987E-10
 -1       969-4.02675E+05-1.70034E+03-6.95244E+03 2.95331E+04-9.60063E-09 2.97211E-09
 -1       970-3.99982E+05-5.28167E+03-1.35419E+04 2.42520E+04-4.12911E-10 1.79170E-10
 -1       971-3.87497E+05-2.07570E+03-1.18356E+04 1.93618E+04-1.33932E-08 2.56443E-09
 -1       972-3.90400E+05-1.43994E+03-6.44407E+03 2.72866E+04-1.02996E-08-2.09184E-10
 -1       973-3.88823E+05 4.60928E+01-2.88676E+03 1.91865E+04-7.16864E-09 2.71461E-09
 -1       974-3.89055E+05 8.06276E+01-1.49422E+03 2.74722E+04 4.32556E-09-6.55973E-10
 -1       975-3.88935E+05 1.08049E+02-7.44772E+02 1.91686E+04 5.12046E-10 2.60638E-09
 -1       976-3.88985E+05 1.48585E+02-4.24002E+02 2.74948E+04-1.00281E-08-1.51977E-09
 -1       977-3.88960E+05 1.11966E+02-2.98734E+02 1.91634E+04 1.14969E-08-5.97538E-10
 -1       978-3.88996E+05 1.58828E+02-3.36686E+02 2.75020E+04 4.29936E-08-4.47176E-09
 -1       979-3.88963E+05 1.22936E+02-5.30407E+02 1.91611E+04 2.03116E-08 2.54988E-09
 -1       980-3.89036E+05 1.62994E+02-1.01754E+03 2.75033E+04 1.31222E-08-1.78034E-10
 -1       981-3.88930E+05 1.47822E+02-1.96771E+03 1.91619E+04-4.15025E-09 2.29761E-09
 -1       982-3.89303E+05 1.59199E+01-4.06554E+03 2.74935E+04-3.33694E-09-4.77894E-09
 -1       983-3.88679E+05 1.92142E+01-7.89924E+03 1.91718E+04 5.91353E-09 1.35901E-09
 -1       984-3.93094E+05-4.11414E+03-1.76891E+04 2.73780E+04 2.88219E-09-1.03819E-09
 -1       985-3.85097E+05-5.76413E+03-3.24835E+04 1.93021E+04 8.93579E-09 1.82081E-09
 -3
    1PSTEP                        35          18           1          
  100CL  118 8.06213E-01         409                     0   18           1
 -4  DISP        4    1
 -5  D1          1    2    1    0
 -5  D2          1    2    2    0
 -5  D3          1    2    3    0
 -5  ALL         1    2    0    0    1ALL
 -1         1 6.59385E-03 0.00000E+00 0.00000E+00
 -1         2 8.52882E-03 2.59401E-27 0.00000E+00
 -1         3-2.03910E-06 5.27274E-28-2.64698E-23
 -1         5 5.14920E-05-6.50931E-28 0.00000E+00
 -1         8 6.55614E-03-2.46608E-06 0.00000E+00
 -1         9 6.67838E-03-3.60926E-04 0.00000E+00
 -1        10 3.23941E-06 4.60498E-06 1.32349E-23
 -1        12 4.92165E-05 8.47440E-07 0.00000E+00
 -1        15 6.51315E-03-2.66421E-06 0.00000E+00
 -1        16 6.61047E-03-3.61076E-04 0.00000E+00
 -1        17 2.17412E-05 9.51117E-06 0.00000E+00
 -1        18 4.08275E-05-1.75051E-05 0.00000E+00
 -1        19 4.23883E-05 1.68705E-06 0.00000E+00
 -1        20 4.26058E-05 4.24562E-05 0.00000E+00
 -1        21 4.18706E-05 8.39253E-05 0.00000E+00
 -1        24 2.48736E-05 9.53522E-06 0.00000E+00
 -1        25 3.09250E-05-1.73451E-05 0.00000E+00
 -1        26 3.28739E-05 2.37240E-06 0.00000E+00
 -1        27 3.05262E-05 3.87099E-05 0.00000E+00
 -1        28 2.95059E-05 8.31631E-05 0.00000E+00
 -1        32 0.00000E+00 0.00000E+00 0.00000E+00
 -1        33 2.08455E-05 3.20040E-06 0.00000E+00
 -1        34 1.85663E-05 3.86721E-05 0.00000E+00
 -1        35 1.63395E-05 8.27622E-05 0.00000E+00
 -1        51 6.59132E-03-4.05349E-07 0.00000E+00
 -1        52 6.58668E-03-8.04786E-07 0.00000E+00
 -1        53 6.58039E-03-1.20814E-06 1.32349E-23
 -1        54 6.57290E-03-1.61774E-06-3.30872E-24
 -1        55 6.56467E-03-2.03415E-06-6.61744E-24
 -1        56 6.59322E-03-5.42052E-06-5.29396E-23
 -1        57 6.59591E-03-2.02127E-05 0.00000E+00
 -1        58 6.60185E-03-4.41155E-05 5.29396E-23
 -1        59 6.61066E-03-7.63806E-05-2.64698E-23
 -1        60 6.62172E-03-1.15297E-04 0.00000E+00
 -1        61 6.63429E-03-1.58776E-04 0.00000E+00
 -1        62 6.64750E-03-2.04199E-04 0.00000E+00
 -1        63 6.66046E-03-2.48838E-04 0.00000E+00
 -1        64 6.67228E-03-2.90055E-04-5.29396E-23
 -1        65 6.68214E-03-3.25408E-04 2.64698E-23
 -1        66 6.68939E-03-3.53133E-04 5.29396E-23
 -1        67 6.69350E-03-3.71903E-04 2.64698E-23
 -1        68 6.69427E-03-3.81412E-04 5.29396E-23
 -1        69 6.69172E-03-3.81866E-04 2.64698E-23
 -1        70 6.68618E-03-3.74500E-04 2.64698E-23
 -1        86 8.41009E-03-1.08735E-05 5.29396E-23
 -1        87 8.07323E-03-7.10875E-05 0.00000E+00
 -1        88 7.62157E-03-1.75676E-04 0.00000E+00
 -1        89 7.16424E-03-2.83034E-04-1.32349E-23
 -1        90 6.81359E-03-3.47923E-04-5.29396E-23
 -1       121-1.89466E-06 7.67720E-07 0.00000E+00
 -1       122-1.46053E-06 1.53537E-06 0.00000E+00
 -1       123-7.34539E-07 2.30288E-06 0.00000E+00
 -1       124 2.87087E-07 3.07029E-06 0.00000E+00
 -1       125 1.60953E-06 3.83729E-06-2.64698E-23
 -1       191 5.14288E-05 1.41335E-07 1.32349E-23
 -1       192 5.12392E-05 2.82652E-07 1.32349E-23
 -1       193 5.09232E-05 4.23940E-07-1.32349E-23
 -1       194 5.04808E-05 5.65179E-07 0.00000E+00
 -1       195 4.99119E-05 7.06352E-07 0.00000E+00
 -1       251 6.56370E-03-5.66491E-06 0.00000E+00
 -1       252 6.57142E-03-2.60402E-05-1.05879E-22
 -1       253 6.57897E-03-5.33968E-05 2.11758E-22
 -1       254 6.58660E-03-8.00934E-05 1.05879E-22
 -1       255 6.59425E-03-1.06520E-04 2.11758E-22
 -1       256 6.60190E-03-1.32974E-04 1.05879E-22
 -1       257 6.60956E-03-1.59439E-04 0.00000E+00
 -1       258 6.61722E-03-1.85903E-04-1.05879E-22
 -1       259 6.62488E-03-2.12367E-04 0.00000E+00
 -1       260 6.63253E-03-2.38833E-04 0.00000E+00
 -1       261 6.64019E-03-2.65284E-04 0.00000E+00
 -1       262 6.64784E-03-2.91700E-04 1.05879E-22
 -1       263 6.65547E-03-3.18465E-04 2.11758E-22
 -1       264 6.66303E-03-3.46084E-04 0.00000E+00
 -1       265 6.67078E-03-3.64641E-04 1.05879E-22
 -1       266 6.54898E-03-2.52421E-06 0.00000E+00
 -1       267 6.54181E-03-2.55417E-06 0.00000E+00
 -1       268 6.53464E-03-2.58591E-06 0.00000E+00
 -1       269 6.52748E-03-2.61237E-06-8.27181E-25
 -1       270 6.52031E-03-2.63871E-06 0.00000E+00
 -1       271 6.55138E-03-1.68001E-06 1.05879E-22
 -1       272 6.55012E-03-1.07195E-05 0.00000E+00
 -1       273 6.55223E-03-2.90802E-05-1.05879E-22
 -1       274 6.55728E-03-5.58303E-05 0.00000E+00
 -1       275 6.56473E-03-8.95621E-05 1.05879E-22
 -1       276 6.57394E-03-1.28513E-04 0.00000E+00
 -1       277 6.58421E-03-1.70624E-04-1.05879E-22
 -1       278 6.59479E-03-2.13675E-04 0.00000E+00
 -1       279 6.60492E-03-2.55390E-04 0.00000E+00
 -1       280 6.61387E-03-2.93565E-04 0.00000E+00
 -1       281 6.62094E-03-3.26194E-04 0.00000E+00
 -1       282 6.62550E-03-3.51560E-04 5.29396E-23
 -1       283 6.62703E-03-3.68350E-04 0.00000E+00
 -1       284 6.62515E-03-3.75690E-04 0.00000E+00
 -1       285 6.61959E-03-3.73233E-04 0.00000E+00
 -1       301 6.66501E-03-3.60951E-04 0.00000E+00
 -1       302 6.65450E-03-3.60955E-04 0.00000E+00
 -1       303 6.64534E-03-3.60946E-04 0.00000E+00
 -1       304 6.63598E-03-3.60945E-04 0.00000E+00
 -1       305 6.62487E-03-3.60970E-04 0.00000E+00
 -1       306 6.53273E-03-1.24239E-04 0.00000E+00
 -1       307 6.05837E-03 4.22450E-04 0.00000E+00
 -1       308 5.18511E-03 1.12255E-03 0.00000E+00
 -1       309 4.00791E-03 1.82918E-03 5.29396E-23
 -1       310 2.73204E-03 2.52398E-03 0.00000E+00
 -1       311 1.58655E-03 3.23789E-03 0.00000E+00
 -1       312 7.43542E-04 3.92846E-03 0.00000E+00
 -1       313 2.78148E-04 4.47214E-03 0.00000E+00
 -1       314 1.60729E-04 4.66789E-03-4.23516E-22
 -1       315 2.01846E-04 4.44175E-03 0.00000E+00
 -1       316 2.31271E-04 3.78535E-03-2.11758E-22
 -1       317 1.48619E-04 2.84495E-03 5.29396E-23
 -1       318 1.48761E-05 1.81495E-03-1.05879E-22
 -1       319-5.27551E-05 8.93235E-04-5.29396E-23
 -1       320-2.36871E-05 2.50829E-04-2.11758E-22
 -1       336 5.22785E-06 5.43241E-06 2.64698E-23
 -1       337 7.63053E-06 6.25958E-06 0.00000E+00
 -1       338 1.04633E-05 7.08495E-06 0.00000E+00
 -1       339 1.37447E-05 7.90487E-06 1.32349E-23
 -1       340 1.74959E-05 8.72355E-06 0.00000E+00
 -1       406 4.83945E-05 9.88418E-07 0.00000E+00
 -1       407 4.74460E-05 1.12924E-06 6.61744E-24
 -1       408 4.63709E-05 1.26986E-06 0.00000E+00
 -1       409 4.51693E-05 1.41007E-06-6.61744E-24
 -1       410 4.38414E-05 1.54958E-06 0.00000E+00
 -1       521 6.46341E-03-1.25071E-04 0.00000E+00
 -1       522 5.98963E-03 4.19693E-04 1.05879E-22
 -1       523 5.12252E-03 1.11817E-03-2.11758E-22
 -1       524 3.96090E-03 1.82633E-03-5.29396E-23
 -1       525 2.70276E-03 2.52450E-03 0.00000E+00
 -1       526 1.56956E-03 3.23906E-03 1.05879E-22
 -1       527 7.34448E-04 3.92721E-03 4.23516E-22
 -1       528 2.73012E-04 4.46685E-03 2.11758E-22
 -1       529 1.57141E-04 4.65715E-03 0.00000E+00
 -1       530 1.97523E-04 4.42640E-03 1.05879E-22
 -1       531 2.26149E-04 3.76962E-03 0.00000E+00
 -1       532 1.47102E-04 2.83617E-03 5.29396E-23
 -1       533 1.86038E-05 1.81418E-03-1.05879E-22
 -1       534-4.76937E-05 8.95783E-04 0.00000E+00
 -1       535-1.95506E-05 2.53417E-04 0.00000E+00
 -1       536 2.28878E-05 5.71135E-06 0.00000E+00
 -1       537 2.40813E-05 3.27644E-06 1.32349E-23
 -1       538 2.52736E-05 1.52021E-06-2.64698E-23
 -1       539 2.64741E-05-2.05966E-07 0.00000E+00
 -1       540 2.76749E-05-1.91719E-06 0.00000E+00
 -1       541 2.88773E-05-3.62777E-06-1.32349E-23
 -1       542 3.00798E-05-5.33804E-06 0.00000E+00
 -1       543 3.12827E-05-7.04830E-06 0.00000E+00
 -1       544 3.24855E-05-8.75853E-06-2.64698E-23
 -1       545 3.36880E-05-1.04688E-05-1.32349E-23
 -1       546 3.48904E-05-1.21786E-05 0.00000E+00
 -1       547 3.60909E-05-1.38878E-05 0.00000E+00
 -1       548 3.72913E-05-1.55801E-05 0.00000E+00
 -1       549 3.84829E-05-1.72386E-05 0.00000E+00
 -1       550 3.96782E-05-1.81366E-05 0.00000E+00
 -1       551 2.34002E-05 9.52850E-06 0.00000E+00
 -1       552 2.30540E-05 9.54502E-06 0.00000E+00
 -1       553 2.18606E-05 9.56095E-06 0.00000E+00
 -1       554 2.09888E-05 9.57214E-06-6.61744E-24
 -1       555 2.16077E-05 9.57624E-06 0.00000E+00
 -1       556 2.33256E-05 5.14792E-06 0.00000E+00
 -1       557 2.47776E-05 1.11664E-06 0.00000E+00
 -1       558 2.61020E-05-2.57359E-06 0.00000E+00
 -1       559 2.72971E-05-5.91798E-06 0.00000E+00
 -1       560 2.83615E-05-8.91145E-06 0.00000E+00
 -1       561 2.92934E-05-1.15492E-05 0.00000E+00
 -1       562 3.00911E-05-1.38265E-05 0.00000E+00
 -1       563 3.07527E-05-1.57388E-05 0.00000E+00
 -1       564 3.12762E-05-1.72813E-05 0.00000E+00
 -1       565 3.16600E-05-1.84495E-05 0.00000E+00
 -1       566 3.19020E-05-1.92387E-05 0.00000E+00
 -1       567 3.20005E-05-1.96445E-05 0.00000E+00
 -1       568 3.19537E-05-1.96623E-05 0.00000E+00
 -1       569 3.17597E-05-1.92877E-05 0.00000E+00
 -1       570 3.14168E-05-1.85163E-05 0.00000E+00
 -1       571 4.09223E-05-1.61676E-05 2.48154E-24
 -1       572 4.10191E-05-1.48962E-05 4.13590E-25
 -1       573 4.11165E-05-1.36810E-05-8.27181E-25
 -1       574 4.12142E-05-1.25120E-05-8.27181E-25
 -1       575 4.13121E-05-1.13788E-05-1.65436E-24
 -1       576 4.14100E-05-1.02710E-05-8.27181E-25
 -1       577 4.15080E-05-9.17838E-06 3.30872E-24
 -1       578 4.16059E-05-8.09044E-06 0.00000E+00
 -1       579 4.17039E-05-6.99682E-06-6.61744E-24
 -1       580 4.18018E-05-5.88714E-06 0.00000E+00
 -1       581 4.18998E-05-4.75103E-06 3.30872E-24
 -1       582 4.19976E-05-3.57811E-06 0.00000E+00
 -1       583 4.20955E-05-2.35802E-06-6.61744E-24
 -1       584 4.21932E-05-1.08050E-06 0.00000E+00
 -1       585 4.22909E-05 2.64686E-07 0.00000E+00
 -1       586 3.92144E-05-1.74763E-05 0.00000E+00
 -1       587 3.75467E-05-1.74488E-05-8.27181E-25
 -1       588 3.58538E-05-1.74217E-05-8.27181E-25
 -1       589 3.41659E-05-1.73951E-05 2.06795E-25
 -1       590 3.25131E-05-1.73691E-05 0.00000E+00
 -1       591 4.02887E-05-1.61410E-05-2.06795E-25
 -1       592 3.97734E-05-1.48501E-05 0.00000E+00
 -1       593 3.92804E-05-1.36194E-05 0.00000E+00
 -1       594 3.88052E-05-1.24371E-05 0.00000E+00
 -1       595 3.83434E-05-1.12909E-05 0.00000E+00
 -1       596 3.78907E-05-1.01688E-05 4.13590E-25
 -1       597 3.74424E-05-9.05880E-06 0.00000E+00
 -1       598 3.69942E-05-7.94889E-06 0.00000E+00
 -1       599 3.65415E-05-6.82701E-06 8.27181E-25
 -1       600 3.60798E-05-5.68115E-06-2.06795E-25
 -1       601 3.56045E-05-4.49931E-06-8.27181E-25
 -1       602 3.51113E-05-3.26941E-06 3.10193E-25
 -1       603 3.45956E-05-1.97946E-06 1.03398E-25
 -1       604 3.40532E-05-6.17341E-07 0.00000E+00
 -1       605 3.34795E-05 8.28926E-07 0.00000E+00
 -1       606 4.24085E-05 3.33419E-06 0.00000E+00
 -1       607 4.24248E-05 5.15433E-06 0.00000E+00
 -1       608 4.24399E-05 7.13732E-06 0.00000E+00
 -1       609 4.24544E-05 9.27168E-06 0.00000E+00
 -1       610 4.24684E-05 1.15460E-05 0.00000E+00
 -1       611 4.24820E-05 1.39485E-05 0.00000E+00
 -1       612 4.24953E-05 1.64675E-05 0.00000E+00
 -1       613 4.25084E-05 1.90914E-05 0.00000E+00
 -1       614 4.25212E-05 2.18086E-05 0.00000E+00
 -1       615 4.25339E-05 2.46072E-05 0.00000E+00
 -1       616 4.25463E-05 2.74756E-05 0.00000E+00
 -1       617 4.25585E-05 3.04022E-05 0.00000E+00
 -1       618 4.25706E-05 3.33752E-05-1.65436E-24
 -1       619 4.25826E-05 3.63830E-05 0.00000E+00
 -1       620 4.25944E-05 3.94139E-05 0.00000E+00
 -1       621 4.08525E-05 1.80122E-06 0.00000E+00
 -1       622 3.92904E-05 1.91611E-06 0.00000E+00
 -1       623 3.77066E-05 2.03098E-06 0.00000E+00
 -1       624 3.61061E-05 2.14566E-06 1.65436E-24
 -1       625 3.44936E-05 2.26013E-06 3.30872E-24
 -1       626 4.18858E-05 3.36567E-06 0.00000E+00
 -1       627 4.13288E-05 5.19128E-06 0.00000E+00
 -1       628 4.07212E-05 7.15139E-06 0.00000E+00
 -1       629 4.00680E-05 9.23250E-06 0.00000E+00
 -1       630 3.93743E-05 1.14212E-05-6.61744E-24
 -1       631 3.86452E-05 1.37038E-05 0.00000E+00
 -1       632 3.78858E-05 1.60667E-05 0.00000E+00
 -1       633 3.71012E-05 1.84965E-05 0.00000E+00
 -1       634 3.62964E-05 2.09795E-05-3.30872E-24
 -1       635 3.54767E-05 2.35021E-05 1.65436E-24
 -1       636 3.46471E-05 2.60507E-05 0.00000E+00
 -1       637 3.38128E-05 2.86119E-05-1.65436E-24
 -1       638 3.29787E-05 3.11720E-05 0.00000E+00
 -1       639 3.21500E-05 3.37175E-05 0.00000E+00
 -1       640 3.13314E-05 3.62347E-05 1.65436E-24
 -1       656 3.99045E-05 4.18457E-05-6.61744E-24
 -1       657 3.77901E-05 4.12116E-05 0.00000E+00
 -1       658 3.60417E-05 4.05802E-05 0.00000E+00
 -1       659 3.44285E-05 3.99494E-05 0.00000E+00
 -1       660 3.26792E-05 3.93164E-05-6.61744E-24
 -1       661 4.16066E-05 4.54648E-05-1.65436E-24
 -1       662 4.06392E-05 4.84041E-05-1.65436E-24
 -1       663 3.96973E-05 5.12749E-05-3.30872E-24
 -1       664 3.87810E-05 5.40804E-05 1.65436E-24
 -1       665 3.78889E-05 5.68223E-05-3.30872E-24
 -1       666 3.70201E-05 5.95027E-05-1.65436E-24
 -1       667 3.61740E-05 6.21233E-05 0.00000E+00
 -1       668 3.53499E-05 6.46854E-05 0.00000E+00
 -1       669 3.45475E-05 6.71902E-05-3.30872E-24
 -1       670 3.37663E-05 6.96388E-05 0.00000E+00
 -1       671 3.30062E-05 7.20316E-05 0.00000E+00
 -1       672 3.22666E-05 7.43691E-05-1.65436E-24
 -1       673 3.15477E-05 7.66516E-05 3.30872E-24
 -1       674 3.08484E-05 7.88785E-05 1.65436E-24
 -1       675 3.01704E-05 8.10502E-05 0.00000E+00
 -1       676 3.98011E-05 8.37975E-05 3.30872E-24
 -1       677 3.77331E-05 8.36697E-05 0.00000E+00
 -1       678 3.56680E-05 8.35421E-05 0.00000E+00
 -1       679 3.36075E-05 8.34148E-05 0.00000E+00
 -1       680 3.15530E-05 8.32876E-05 3.30872E-24
 -1       771 2.55251E-05 3.13597E-06 2.64698E-23
 -1       772 2.57472E-05-2.20811E-06-1.32349E-23
 -1       773 2.55895E-05-6.53432E-06 2.64698E-23
 -1       774 2.50711E-05-9.90095E-06 0.00000E+00
 -1       775 2.42163E-05-1.23669E-05 0.00000E+00
 -1       776 2.30483E-05-1.39960E-05 2.64698E-23
 -1       777 2.15916E-05-1.48544E-05 5.29396E-23
 -1       778 1.98719E-05-1.50115E-05-2.64698E-23
 -1       779 1.79155E-05-1.45388E-05 0.00000E+00
 -1       780 1.57499E-05-1.35102E-05-2.64698E-23
 -1       781 1.34032E-05-1.20012E-05 0.00000E+00
 -1       782 1.09047E-05-1.00894E-05 0.00000E+00
 -1       783 8.28393E-06-7.85339E-06 0.00000E+00
 -1       784 5.57159E-06-5.37296E-06 2.64698E-23
 -1       785 2.79790E-06-2.72886E-06-5.29396E-23
 -1       786 3.10407E-05-1.59903E-05 1.65436E-24
 -1       787 3.11623E-05-1.47158E-05 0.00000E+00
 -1       788 3.12836E-05-1.34995E-05 0.00000E+00
 -1       789 3.14060E-05-1.23194E-05-1.65436E-24
 -1       790 3.15285E-05-1.11647E-05 0.00000E+00
 -1       791 3.16512E-05-1.00246E-05 1.65436E-24
 -1       792 3.17740E-05-8.89244E-06 0.00000E+00
 -1       793 3.18968E-05-7.76190E-06-1.65436E-24
 -1       794 3.20196E-05-6.62697E-06-3.30872E-24
 -1       795 3.21423E-05-5.48168E-06 0.00000E+00
 -1       796 3.22651E-05-4.31694E-06 0.00000E+00
 -1       797 3.23877E-05-3.12352E-06 0.00000E+00
 -1       798 3.25103E-05-1.88367E-06 0.00000E+00
 -1       799 3.26323E-05-5.79367E-07-1.65436E-24
 -1       800 3.27544E-05 8.26707E-07-3.30872E-24
 -1       801 2.81288E-05-1.45028E-05-5.29396E-23
 -1       802 2.27432E-05-1.15578E-05-2.64698E-23
 -1       803 1.61985E-05-8.62800E-06 5.29396E-23
 -1       804 9.76113E-06-5.70826E-06 0.00000E+00
 -1       805 4.10098E-06-2.77217E-06-2.64698E-23
 -1       806 3.02980E-05-1.60510E-05 3.30872E-24
 -1       807 2.96846E-05-1.48081E-05 0.00000E+00
 -1       808 2.90851E-05-1.36049E-05 0.00000E+00
 -1       809 2.84959E-05-1.24308E-05-1.65436E-24
 -1       810 2.79136E-05-1.12753E-05 0.00000E+00
 -1       811 2.73342E-05-1.01279E-05 1.65436E-24
 -1       812 2.67538E-05-8.97811E-06 3.30872E-24
 -1       813 2.61687E-05-7.81549E-06 1.65436E-24
 -1       814 2.55747E-05-6.62957E-06 3.30872E-24
 -1       815 2.49681E-05-5.40992E-06 0.00000E+00
 -1       816 2.43448E-05-4.14611E-06 0.00000E+00
 -1       817 2.37010E-05-2.82766E-06-1.65436E-24
 -1       818 2.30328E-05-1.44417E-06 1.65436E-24
 -1       819 2.23364E-05 1.47696E-08-1.65436E-24
 -1       820 2.16080E-05 1.55957E-06 3.30872E-24
 -1       821 3.27453E-05 2.98810E-06 8.27181E-25
 -1       822 3.26077E-05 1.61209E-06 0.00000E+00
 -1       823 3.24682E-05-1.10610E-06 0.00000E+00
 -1       824 3.23251E-05-4.50839E-06-1.65436E-24
 -1       825 3.21825E-05-7.74842E-06 0.00000E+00
 -1       826 3.20422E-05-9.98068E-06 0.00000E+00
 -1       827 3.19039E-05-1.06387E-05 0.00000E+00
 -1       828 3.17647E-05-9.16563E-06 0.00000E+00
 -1       829 3.16204E-05-5.59393E-06 0.00000E+00
 -1       830 3.14671E-05 3.10691E-08 1.65436E-24
 -1       831 3.13053E-05 7.09648E-06-3.30872E-24
 -1       832 3.11378E-05 1.49803E-05 1.65436E-24
 -1       833 3.09707E-05 2.28340E-05 3.30872E-24
 -1       834 3.08113E-05 2.98095E-05 0.00000E+00
 -1       835 3.06602E-05 3.53004E-05-8.27181E-25
 -1       836 3.10788E-05 2.51051E-06 0.00000E+00
 -1       837 2.90824E-05 2.65136E-06 0.00000E+00
 -1       838 2.69726E-05 2.79178E-06-3.30872E-24
 -1       839 2.48377E-05 2.93128E-06-1.65436E-24
 -1       840 2.27660E-05 3.07069E-06-8.27181E-25
 -1       856 3.04688E-05 4.11659E-05 1.03398E-25
 -1       857 3.04059E-05 4.37910E-05 0.00000E+00
 -1       858 3.03429E-05 4.65586E-05 0.00000E+00
 -1       859 3.02786E-05 4.94421E-05 0.00000E+00
 -1       860 3.02140E-05 5.24143E-05 0.00000E+00
 -1       861 3.01491E-05 5.54481E-05 0.00000E+00
 -1       862 3.00841E-05 5.85161E-05 1.65436E-24
 -1       863 3.00189E-05 6.15909E-05-8.27181E-25
 -1       864 2.99539E-05 6.46449E-05 0.00000E+00
 -1       865 2.98889E-05 6.76509E-05-8.27181E-25
 -1       866 2.98242E-05 7.05815E-05 1.65436E-24
 -1       867 2.97598E-05 7.34095E-05 8.27181E-25
 -1       868 2.96957E-05 7.61081E-05 0.00000E+00
 -1       869 2.96320E-05 7.86507E-05-8.27181E-25
 -1       870 2.95687E-05 8.10110E-05 0.00000E+00
 -1       871 2.83674E-05 3.87076E-05 0.00000E+00
 -1       872 2.63590E-05 3.87024E-05 0.00000E+00
 -1       873 2.44384E-05 3.86969E-05-4.13590E-25
 -1       874 2.25417E-05 3.86906E-05 1.03398E-25
 -1       875 2.06054E-05 3.86835E-05-1.24077E-24
 -1       876 2.97444E-05 4.11776E-05 0.00000E+00
 -1       877 2.89349E-05 4.37279E-05-1.65436E-24
 -1       878 2.80983E-05 4.63504E-05-3.30872E-24
 -1       879 2.72382E-05 4.90360E-05 1.65436E-24
 -1       880 2.63581E-05 5.17751E-05 3.30872E-24
 -1       881 2.54613E-05 5.45584E-05 0.00000E+00
 -1       882 2.45513E-05 5.73766E-05 3.30872E-24
 -1       883 2.36317E-05 6.02202E-05 0.00000E+00
 -1       884 2.27060E-05 6.30799E-05 3.30872E-24
 -1       885 2.17778E-05 6.59464E-05 0.00000E+00
 -1       886 2.08504E-05 6.88105E-05 3.30872E-24
 -1       887 1.99274E-05 7.16626E-05-1.65436E-24
 -1       888 1.90121E-05 7.44935E-05-3.30872E-24
 -1       889 1.81077E-05 7.72936E-05 0.00000E+00
 -1       890 1.72178E-05 8.00537E-05-1.65436E-24
 -1       891 2.74972E-05 8.30964E-05 0.00000E+00
 -1       892 2.54601E-05 8.30294E-05-8.27181E-25
 -1       893 2.33602E-05 8.29623E-05 0.00000E+00
 -1       894 2.11630E-05 8.28952E-05-4.13590E-25
 -1       895 1.88341E-05 8.28279E-05 1.24077E-24
 -1       956 2.07063E-05 5.03866E-06 0.00000E+00
 -1       957 2.05648E-05 6.97078E-06 8.27181E-25
 -1       958 2.04226E-05 8.98799E-06 0.00000E+00
 -1       959 2.02800E-05 1.10809E-05 0.00000E+00
 -1       960 2.01372E-05 1.32403E-05 3.30872E-24
 -1       961 1.99943E-05 1.54565E-05 0.00000E+00
 -1       962 1.98512E-05 1.77203E-05 0.00000E+00
 -1       963 1.97080E-05 2.00221E-05-1.65436E-24
 -1       964 1.95648E-05 2.23526E-05-3.30872E-24
 -1       965 1.94215E-05 2.47021E-05 0.00000E+00
 -1       966 1.92783E-05 2.70614E-05 0.00000E+00
 -1       967 1.91350E-05 2.94208E-05 0.00000E+00
 -1       968 1.89919E-05 3.17710E-05-3.30872E-24
 -1       969 1.88490E-05 3.41026E-05 1.65436E-24
 -1       970 1.87066E-05 3.64060E-05 0.00000E+00
 -1       971 1.84298E-05 4.09815E-05-3.30872E-24
 -1       972 1.82911E-05 4.34185E-05 0.00000E+00
 -1       973 1.81520E-05 4.59690E-05 0.00000E+00
 -1       974 1.80124E-05 4.86183E-05-1.65436E-24
 -1       975 1.78725E-05 5.13518E-05-3.30872E-24
 -1       976 1.77325E-05 5.41548E-05 0.00000E+00
 -1       977 1.75922E-05 5.70125E-05 0.00000E+00
 -1       978 1.74519E-05 5.99102E-05 1.65436E-24
 -1       979 1.73114E-05 6.28332E-05 3.30872E-24
 -1       980 1.71710E-05 6.57667E-05 1.65436E-24
 -1       981 1.70307E-05 6.86959E-05 3.30872E-24
 -1       982 1.68905E-05 7.16061E-05 0.00000E+00
 -1       983 1.67505E-05 7.44825E-05 0.00000E+00
 -1       984 1.66113E-05 7.73104E-05-1.65436E-24
 -1       985 1.64728E-05 8.00751E-05-3.30872E-24
 -3
    1PSTEP                        36          18           1          
  100CL  118 8.06213E-01         409                     0   18           1
 -4  STRESS      6    1
 -5  SXX         1    4    1    1
 -5  SYY         1    4    2    2
 -5  SZZ         1    4    3    3
 -5  SXY         1    4    1    2
 -5  SYZ         1    4    2    3
 -5  SZX         1    4    3    1
 -1         1-3.10166E+06-1.47058E+06-5.93688E+05-1.76127E+06 6.54836E-11 4.03481E-07
 -1         2 3.15949E+06 4.18497E+07 9.26797E+06-1.42674E+07-6.25150E-08 1.30790E-06
 -1         3-7.37227E+01 2.19943E+06-3.67680E+02-4.91204E+02-4.26326E-11 4.20278E-09
 -1         5-1.13839E+02 4.04869E+05 1.05625E+01 1.80178E+00 5.99279E-10-1.22964E-08
 -1         8 3.64051E+06 4.42432E+05 1.19745E+06-1.73745E+06-5.66797E-09 1.63083E-07
 -1         9 2.51944E+07 3.08330E+07 8.50019E+06 1.61685E+07 2.16532E-08 4.48991E-07
 -1        10 1.71746E+03 2.29194E+06 7.02405E+03-3.58593E+03 1.65801E-09-1.11635E-08
 -1        12-1.09799E+02 4.04892E+05 3.49532E+02 1.20497E+01 8.86416E-10 2.43017E-09
 -1        15 4.15814E+03 2.28521E+03 1.34413E+04 1.28845E+01 2.70745E-09 8.18117E-07
 -1        16 3.03305E+07 3.49295E+07 8.75100E+06 3.28841E+07 2.87158E-08-1.30230E-07
 -1        17 3.29950E+07-3.05729E+05 4.41287E+06-4.93691E+06 3.70306E-08-5.43672E-08
 -1        18 9.41891E+05 2.21548E+05 2.00931E+05-7.77119E+04 4.03429E-09 1.87811E-10
 -1        19 1.24128E+05 1.54212E+05-2.26147E+02 2.53127E+04-2.42871E-09-1.06229E-10
 -1        20-3.40333E+04-5.87710E+05-1.28473E+05 5.22733E+04 1.11719E-08-3.70468E-09
 -1        21-5.64372E+01-3.59976E+05-1.18232E+03-5.10935E+02-3.02219E-08-1.24933E-08
 -1        24 5.34224E+07-2.64843E+06 6.38439E+06-8.62622E+06 1.44357E-07 3.71583E-08
 -1        25 4.39991E+05 1.78507E+06 4.54841E+05-9.83059E+04-2.19734E-10 9.14733E-09
 -1        26-5.63568E+03 1.12914E+05-1.61761E+04-2.56776E+04 2.60334E-09-9.23933E-10
 -1        27-9.76374E+04-3.23908E+05-1.21956E+05 7.40595E+04 1.14666E-08-3.71650E-09
 -1        28 2.84511E+04-9.71422E+04 2.02701E+04 3.52171E+04 8.71646E-09-2.60565E-09
 -1        32-3.73940E+05 4.23817E+06 1.57444E+06-7.17824E+05 2.09548E-09 7.23503E-08
 -1        33-1.80581E+05 9.91015E+04 3.47383E+04-6.81325E+04 4.32400E-09-1.26450E-09
 -1        34-2.44149E+05-2.32003E+04 4.48269E+02 7.14102E+04 1.33295E-08 2.81943E-09
 -1        35-2.87173E+04-3.85363E+04-1.51808E+03 6.27706E+04 1.87358E-08-4.63115E-09
 -1        51 2.23999E+04-1.05236E+06 5.98044E+04-1.52590E+06-1.71713E-09 3.10247E-07
 -1        52 1.87457E+04-1.05632E+06 4.05250E+04-1.78073E+06-7.27596E-10-4.03379E-07
 -1        53 1.62821E+04-1.08262E+06 3.42469E+04-1.52058E+06 2.57569E-09-4.55097E-07
 -1        54 4.02760E+04-1.08512E+06 5.52000E+04-1.78577E+06 1.54250E-09-2.04280E-07
 -1        55 6.94240E+04-1.10623E+06 9.79213E+04-1.51975E+06 1.68802E-09 2.59344E-07
 -1        56-5.98544E+06-6.62211E+05-4.52769E+05-2.24992E+06-8.71296E-09 2.54280E-07
 -1        57-6.05236E+06-1.03919E+06-2.83844E+05-2.21053E+06 1.93659E-08 3.54859E-07
 -1        58-6.15971E+06-7.04641E+05-1.13050E+05-2.10747E+06-1.08121E-07-1.22753E-07
 -1        59-5.83520E+06-1.03198E+06-5.47978E+04-2.46235E+06 7.41366E-08-5.06759E-07
 -1        60-6.22311E+06-6.50101E+05-2.64598E+04-2.01499E+06-1.17047E-07 9.16280E-08
 -1        61-5.78004E+06-1.08960E+06-1.25414E+04-2.59691E+06-2.67896E-08 3.74774E-07
 -1        62-6.23766E+06-6.30652E+05-6.57712E+03-1.98798E+06-3.52447E-08-3.91125E-07
 -1        63-5.78429E+06-1.07351E+06-4.77177E+03-2.57432E+06 9.88075E-09-3.88829E-07
 -1        64-6.21428E+06-6.69242E+05-1.40693E+04-2.03471E+06-3.62561E-08 5.22123E-08
 -1        65-5.84697E+06-9.73031E+05-1.27477E+04-2.40804E+06-1.98916E-07 3.26432E-07
 -1        66-6.14858E+06-7.49250E+05-4.92195E+04-2.13683E+06 1.27664E-07-4.62838E-07
 -1        67-6.01423E+06-8.37484E+05-8.52902E+04-2.17078E+06-2.37778E-07 2.81760E-07
 -1        68-6.03197E+06-8.16073E+05-1.75432E+05-2.26014E+06 6.90088E-08-2.50926E-07
 -1        69-6.38356E+06-9.12885E+05-4.60819E+05-1.91844E+06-5.57970E-08-5.38421E-08
 -1        70-5.79529E+06-6.71442E+05-7.01934E+05-2.39557E+06-1.93468E-08-1.95781E-07
 -1        86-3.22575E+06-2.57157E+07-5.16669E+06 6.59158E+06 4.18753E-07 2.43395E-07
 -1        87 5.51483E+06 1.26942E+07 4.18401E+06-1.04659E+07 5.67874E-07-1.24971E-06
 -1        88-1.22220E+06-5.21980E+05 3.68974E+05 3.76565E+06 5.36063E-07-9.10073E-07
 -1        89 7.00270E+06 1.22536E+07 4.18392E+06-1.08177E+07 8.29488E-07-5.92378E-07
 -1        90-4.53840E+06-2.53996E+07-5.91057E+06 7.02267E+06 1.95170E-07-1.73663E-07
 -1       121-3.79949E+01 2.19956E+06-4.62673E+02 2.45643E+02-3.10777E-10-2.23554E-09
 -1       122-2.38582E+02 2.19932E+06-8.28255E+02-9.86641E+02 7.02428E-10-1.62527E-09
 -1       123 7.86758E+01 2.19967E+06-1.43248E+03 7.41301E+02-7.94842E-10-1.35333E-09
 -1       124-2.25562E+03 2.19812E+06-3.62238E+03-1.90155E+03 1.49436E-09-4.78576E-09
 -1       125 1.37529E+03 2.20079E+06-5.29795E+03 1.16202E+03-1.38698E-09-3.96631E-09
 -1       191-1.19814E+02 4.04880E+05 7.25034E+00-9.54084E-01 6.86970E-10-1.97542E-09
 -1       192-1.14885E+02 4.04869E+05 2.26238E+01 5.56406E+00 9.49255E-10 3.67436E-09
 -1       193-1.22552E+02 4.04880E+05 3.68463E+01-4.93409E+00 1.12578E-09-5.31145E-09
 -1       194-1.18230E+02 4.04873E+05 8.62095E+01 1.25558E+01 6.23975E-10-1.11468E-08
 -1       195-1.27804E+02 4.04877E+05 1.63382E+02-8.29289E+00 1.78548E-09-5.23505E-09
 -1       251 2.26267E+07-9.53368E+05 2.19771E+06 1.51466E+05 2.19686E-08 2.47965E-07
 -1       252 2.38257E+07 1.12290E+06 1.59130E+06-1.29221E+06-8.84802E-09-3.17697E-07
 -1       253 2.31213E+07-1.20609E+05 5.82861E+05-6.14464E+05-1.84255E-08 1.24215E-07
 -1       254 2.32735E+07 1.71908E+05 3.60922E+05-5.56162E+05 1.69047E-08-4.46438E-07
 -1       255 2.31826E+07-6.45360E+03 1.51780E+05-5.84067E+05-2.94442E-08 2.41023E-07
 -1       256 2.32067E+07 3.96472E+04 9.04099E+04-5.85717E+05 1.83675E-09 1.58887E-07
 -1       257 2.31926E+07 1.11290E+04 4.65243E+04-5.85042E+05-2.13586E-08 3.93557E-08
 -1       258 2.31974E+07 2.15051E+04 3.89523E+04-5.84759E+05 1.06510E-08 3.47674E-07
 -1       259 2.31929E+07 1.16331E+04 4.27253E+04-5.85051E+05 1.26251E-08-1.82472E-07
 -1       260 2.32045E+07 3.52999E+04 7.91959E+04-5.86087E+05-5.36792E-09-7.37622E-07
 -1       261 2.31847E+07-2.62470E+03 1.32219E+05-5.83694E+05 3.76397E-08-1.14749E-07
 -1       262 2.32603E+07 1.42668E+05 3.10514E+05-5.48750E+05 1.10563E-08 1.10016E-07
 -1       263 2.31331E+07-9.53224E+04 5.06080E+05-6.22273E+05 2.87164E-08 2.35828E-07
 -1       264 2.38598E+07 9.80233E+05 1.40038E+06-1.50418E+06-1.15442E-08-1.85522E-07
 -1       265 2.25888E+07-8.37642E+05 1.87395E+06 3.71076E+05 4.86707E-08 4.23635E-07
 -1       266-7.52670E+04-3.51697E+04 1.76712E+05-2.75844E+02 6.36646E-09 9.70463E-07
 -1       267 8.72652E+04 4.10287E+04 1.24839E+05 3.18077E+02 1.31258E-08 9.36088E-07
 -1       268-1.17017E+04-5.80877E+03 4.64054E+04-4.05393E+01 9.43692E-09 1.03266E-06
 -1       269 1.38168E+04 6.95415E+03 3.01596E+04 4.72106E+01 5.13683E-09 8.76085E-07
 -1       270-2.07390E+03-1.14252E+03 1.45586E+04-6.40727E+00 3.97677E-09 9.89809E-07
 -1       271-9.95810E+06-1.20174E+06-8.47086E+05-3.80368E+06-1.12595E-08 4.27244E-08
 -1       272-1.00608E+07-1.86155E+06-5.24087E+05-3.87408E+06 5.52682E-08-6.50602E-07
 -1       273-1.01941E+07-1.31609E+06-2.08611E+05-3.67218E+06-1.47702E-09-3.64817E-08
 -1       274-9.79696E+06-1.73727E+06-1.04090E+05-4.13546E+06 1.11002E-07 1.55906E-07
 -1       275-1.02766E+07-1.26150E+06-4.96794E+04-3.59483E+06 2.04454E-08 3.95736E-07
 -1       276-9.74496E+06-1.78325E+06-2.19737E+04-4.28779E+06-3.89264E-09 6.22616E-07
 -1       277-1.03076E+07-1.22670E+06-1.11838E+04-3.56128E+06 1.47702E-08 3.22783E-07
 -1       278-9.73920E+06-1.79306E+06-8.33703E+03-4.31570E+06 8.01665E-08 1.53497E-07
 -1       279-1.02955E+07-1.24275E+06-1.37683E+04-3.57530E+06-8.07631E-09 2.44818E-07
 -1       280-9.75791E+06-1.74625E+06-2.06657E+04-4.21278E+06-1.10122E-08 4.18324E-07
 -1       281-1.02422E+07-1.30437E+06-5.54233E+04-3.63425E+06 2.38651E-08 1.95629E-07
 -1       282-9.84241E+06-1.66292E+06-1.02783E+05-4.01055E+06-1.17812E-07 8.36535E-07
 -1       283-1.01434E+07-1.37305E+06-2.13479E+05-3.72993E+06-1.96160E-08-1.17798E-07
 -1       284-1.01561E+07-1.75703E+06-5.25176E+05-3.73757E+06-9.03419E-08-2.13011E-07
 -1       285-9.89950E+06-1.25774E+06-8.48963E+05-3.86943E+06 2.48820E-08 3.55940E-07
 -1       301-7.58304E+04 2.27136E+05-1.19272E+05 1.85950E+06 1.17725E-08-4.01924E-07
 -1       302-6.61458E+04 1.95023E+05-3.97433E+04 2.72309E+06 6.49015E-09-5.76372E-07
 -1       303-3.37147E+04 1.78338E+05 2.14303E+04 1.85674E+06 7.37782E-09-2.78746E-07
 -1       304-2.69924E+04 2.42763E+05 1.00078E+05 2.72221E+06 1.24419E-08 1.62618E-07
 -1       305-3.78496E+04 1.97729E+05 1.88818E+05 1.86165E+06-1.74332E-08 1.58208E-07
 -1       306-4.14338E+07-5.04280E+07-2.60625E+07-2.98522E+07 2.92901E-07-5.67874E-07
 -1       307 1.53119E+07 1.11542E+08 2.00304E+07 3.23485E+07 1.27451E-06-1.35513E-06
 -1       308-3.00935E+06-3.42261E+07-8.90048E+06 5.03532E+06-1.07684E-08 9.87202E-08
 -1       309 5.25510E+06 3.06886E+07 7.68005E+06-4.15781E+07-2.72703E-07 4.46948E-07
 -1       310 2.45818E+06-5.45749E+06 7.45513E+05 8.05263E+06-1.37079E-07 5.06581E-07
 -1       311-5.36134E+06 7.33519E+07 1.20228E+07-1.26766E+07-1.17469E-06 1.06677E-06
 -1       312-1.36014E+07-5.57851E+07-1.75510E+07-1.44783E+07-5.91826E-08-4.36441E-07
 -1       313 7.56979E+07 7.80401E+07 2.44546E+07 6.83379E+07 1.69035E-07-4.71016E-07
 -1       314-6.73067E+07-1.88161E+07-2.25810E+07-1.95243E+07-3.71132E-07 1.01922E-07
 -1       315 1.17586E+08 3.82485E+06 1.97548E+07-9.46871E+06 2.84694E-07 1.82074E-07
 -1       316-2.63426E+07-1.11365E+07-8.56429E+06 1.47126E+07 1.97906E-07 7.78469E-07
 -1       317-2.72851E+06 3.85471E+07 7.66624E+06-3.76616E+07-1.21910E-06 2.18395E-07
 -1       318 1.62221E+06-4.72702E+06 4.07513E+05 8.25221E+06 1.24774E-06 2.61018E-07
 -1       319 5.11233E+07 2.04159E+07 1.20455E+07-3.80719E+07 1.33528E-07 4.31610E-07
 -1       320-6.01425E+07-1.35117E+07-2.04129E+07 6.69335E+06-1.80211E-07-4.31319E-08
 -1       336-2.41783E+03 2.38095E+06 2.04682E+04 2.42754E+03 4.75893E-09 1.92176E-09
 -1       337 7.79000E+03 2.38858E+06 3.16484E+04-5.65763E+03 8.69341E-09 2.84354E-09
 -1       338-4.21640E+03 2.37927E+06 4.93224E+04 3.22996E+03 6.71389E-09 3.21961E-10
 -1       339 5.51415E+04 2.41737E+06 1.16981E+05-7.37952E+03 1.18889E-08-3.88764E-09
 -1       340-3.93244E+04 2.35218E+06 1.82524E+05 4.10161E+03 7.87259E-09-5.86078E-09
 -1       406-8.83487E+01 4.04862E+05 6.84560E+02-4.76239E+00 2.33786E-09 6.51198E-10
 -1       407 1.31403E+02 4.05013E+05 1.46672E+03-2.78237E+01 3.16618E-10-3.02680E-09
 -1       408 6.41521E+02 4.04754E+05 2.92232E+03 3.26361E+01 2.90856E-09 1.96815E-09
 -1       409 3.06610E+03 4.05946E+05 6.59031E+03-3.54841E+02 1.21872E-10 1.89902E-09
 -1       410 9.00592E+03 4.03909E+05 1.34491E+04 3.43774E+02 3.08864E-09-7.31234E-10
 -1       521-4.12537E+07-4.95247E+07-2.73281E+07-2.62555E+07-5.56465E-08-3.60538E-07
 -1       522 1.24786E+07 1.12830E+08 1.87972E+07 3.15418E+07 1.18953E-06-4.13740E-07
 -1       523-3.81854E+06-3.14244E+07-8.66496E+06 4.63704E+06 6.33299E-07 1.37952E-07
 -1       524 5.40775E+06 2.72783E+07 7.37454E+06-4.49472E+07-5.37024E-07 1.69867E-06
 -1       525 2.63838E+06-5.81884E+06 1.01441E+06 7.48047E+06-2.86265E-07 1.23325E-06
 -1       526-6.75494E+06 7.39090E+07 1.16073E+07-1.58333E+07-6.47269E-08 2.33413E-07
 -1       527-1.53057E+07-5.29400E+07-1.82689E+07-1.27438E+07-4.12983E-07 3.54368E-07
 -1       528 7.61454E+07 7.85113E+07 2.31053E+07 7.10777E+07 1.43598E-07-3.77186E-07
 -1       529-6.44577E+07-2.08549E+07-2.38190E+07-1.69781E+07 4.40981E-07-2.57744E-07
 -1       530 1.18215E+08 2.25377E+06 1.86172E+07-1.22491E+07 5.75557E-07-3.23635E-08
 -1       531-2.42651E+07-1.13562E+07-8.37230E+06 1.32698E+07 7.96048E-07 3.19909E-07
 -1       532-8.42207E+06 4.11981E+07 7.37878E+06-3.85100E+07-1.48159E-06 3.78757E-07
 -1       533 1.08842E+06-4.31305E+06 6.60932E+05 8.02609E+06-1.08988E-06 7.76054E-07
 -1       534 4.84888E+07 2.22509E+07 1.15920E+07-4.11129E+07 8.27131E-07-5.97909E-07
 -1       535-5.68134E+07-1.57674E+07-2.13208E+07 6.39163E+06 1.78348E-07-5.02216E-07
 -1       536 3.39866E+06-1.16376E+05 2.69634E+05-1.73537E+04-2.40304E-08-4.90400E-09
 -1       537 3.51728E+06 1.34742E+05 1.90984E+05 6.29318E+03 5.95335E-09-6.03177E-09
 -1       538 3.44479E+06-1.82058E+04 6.99716E+04-5.92890E+03 4.87923E-10-3.56522E-10
 -1       539 3.46393E+06 2.10954E+04 4.40304E+04-5.39104E+03 1.54633E-09 8.33097E-10
 -1       540 3.45225E+06-2.84478E+03 1.81321E+04-5.67146E+03 1.82227E-09 4.06544E-10
 -1       541 3.45533E+06 3.37891E+03 1.10006E+04-5.65564E+03-2.91020E-08 2.63447E-09
 -1       542 3.45348E+06-5.04182E+02 5.72427E+03-5.66446E+03-9.19379E-06-1.66522E-08
 -1       543 3.45414E+06 1.06616E+03 5.16668E+03-5.66288E+03-1.83296E-05-3.01755E-08
 -1       544 3.45346E+06-5.33665E+02 5.99171E+03-5.66425E+03-9.18782E-06-2.19839E-08
 -1       545 3.45546E+06 3.63240E+03 1.17730E+04-5.66689E+03-3.32967E-08 1.34264E-09
 -1       546 3.45213E+06-3.06860E+03 1.95236E+04-5.66042E+03-4.35270E-10-3.86899E-09
 -1       547 3.46475E+06 2.27614E+04 4.74957E+04-5.93167E+03 8.96823E-09 1.05047E-09
 -1       548 3.44408E+06-1.96464E+04 7.55111E+04-5.39929E+03 1.29744E-08-1.00044E-09
 -1       549 3.52242E+06 1.45517E+05 2.06158E+05-1.88337E+04 8.67816E-10 9.49512E-10
 -1       550 3.39422E+06-1.25699E+05 2.91004E+05 7.24054E+03-5.01822E-09-2.47383E-10
 -1       551-1.63695E+04 7.57886E+04-2.87193E+04-1.54458E+06 8.71478E-09 1.04774E-09
 -1       552 6.98643E+02 5.70233E+04 8.71023E+03-2.19950E+06-2.21189E-09 7.85803E-10
 -1       553 2.75335E+03 5.28113E+04 4.52952E+04-1.54147E+06 3.20142E-09 6.65386E-09
 -1       554 2.82354E+04 9.76013E+04 1.17030E+05-2.19851E+06 3.55067E-09 8.67294E-09
 -1       555 1.65387E+04 5.89979E+04 2.11814E+05-1.54602E+06 1.26092E-08 6.53381E-09
 -1       556-1.08883E+05-2.98500E+04-5.03873E+04-4.30697E+04 4.29281E-09 2.69756E-09
 -1       557-1.17079E+05-2.99690E+04-2.62196E+04-5.13965E+04-9.84073E-10-5.22732E-09
 -1       558-1.12310E+05-2.12648E+04-1.11153E+04-4.87891E+04 6.90125E-09-3.78714E-09
 -1       559-1.11160E+05-2.31814E+04-5.47801E+03-5.11382E+04-4.40195E-10-1.13723E-08
 -1       560-1.12574E+05-2.11518E+04-2.56656E+03-4.90026E+04-3.49246E-10-1.67802E-09
 -1       561-1.10738E+05-2.29222E+04-1.25217E+03-5.10026E+04-1.32422E-09 8.12179E-09
 -1       562-1.12583E+05-2.12166E+04-6.56933E+02-4.89910E+04 4.00178E-10 5.36784E-09
 -1       563-1.10669E+05-2.29304E+04-3.47834E+02-5.09432E+04-1.16415E-10-2.69847E-09
 -1       564-1.12552E+05-2.12495E+04-2.88103E+02-4.89747E+04-1.88811E-09-8.45284E-09
 -1       565-1.10638E+05-2.29311E+04-2.75878E+02-5.08947E+04 1.97178E-09 1.54523E-09
 -1       566-1.12515E+05-2.12800E+04-4.83525E+02-4.89658E+04-7.89441E-10-5.03314E-09
 -1       567-1.10688E+05-2.29450E+04-8.60521E+02-5.08334E+04-4.33465E-09-2.84945E-09
 -1       568-1.12409E+05-2.13471E+04-1.74483E+03-4.89439E+04-9.00036E-09-1.03828E-08
 -1       569-1.11961E+05-2.35414E+04-3.95688E+03-5.03462E+04-2.29920E-09 1.68620E-09
 -1       570-1.11478E+05-2.30254E+04-7.62865E+03-4.85248E+04-8.00355E-11 8.21365E-09
 -1       571 2.81265E+05 8.85157E+03 1.33438E+04-5.92653E+04 9.47512E-09 4.68572E-09
 -1       572 2.83255E+05 2.96898E+03 6.53831E+03-6.49154E+04 1.67984E-08-8.83119E-10
 -1       573 2.82044E+05 6.00912E+02 2.90419E+03-5.90710E+04 8.24457E-09 2.04636E-11
 -1       574 2.82283E+05 8.90325E+01 1.45531E+03-6.51166E+04-2.51748E-09 1.26511E-09
 -1       575 2.82117E+05-1.02732E+02 6.85207E+02-5.90463E+04 3.49564E-09 1.17689E-09
 -1       576 2.82138E+05-1.36084E+02 3.47942E+02-6.51434E+04 6.08816E-09 1.57434E-09
 -1       577 2.82120E+05-1.34023E+02 1.69305E+02-5.90431E+04 5.16002E-09 3.13412E-09
 -1       578 2.82115E+05-1.42142E+02 8.81808E+01-6.51466E+04 3.15458E-09 4.96084E-09
 -1       579 2.82127E+05-1.32096E+02 4.61822E+01-5.90431E+04-2.45518E-09 1.38198E-09
 -1       580 2.82128E+05-1.47366E+02 3.01279E+01-6.51435E+04 3.75508E-09 2.60525E-09
 -1       581 2.82151E+05-1.42391E+02 2.61785E+01-5.90461E+04-3.13867E-09-1.63163E-09
 -1       582 2.82166E+05-1.60054E+02 3.93034E+01-6.51126E+04 3.77440E-10-2.54522E-09
 -1       583 2.82190E+05-1.49338E+02 6.72092E+01-5.90738E+04 1.56251E-09-4.80622E-09
 -1       584 2.82242E+05-1.20550E+02 1.48606E+02-6.48787E+04-6.47196E-09-4.38149E-09
 -1       585 2.82226E+05 1.19872E+01 2.96242E+02-5.92802E+04-1.01954E-09-1.09503E-09
 -1       586-4.98815E+03 8.12097E+04-7.66288E+03-1.74442E+05 3.88002E-09 1.84959E-08
 -1       587-1.04753E+03 8.00266E+04-2.51671E+03-1.91802E+05 5.15593E-09 3.39780E-08
 -1       588 9.21924E+02 8.05242E+04 1.36608E+03-1.74262E+05 3.61251E-09 1.98513E-08
 -1       589 3.89670E+03 8.16330E+04 6.28121E+03-1.91770E+05 5.02041E-09 1.30331E-09
 -1       590 1.03533E+04 7.96412E+04 1.42461E+04-1.74448E+05 4.48131E-09 3.12139E-09
 -1       591-5.82549E+04-1.95289E+04-2.18188E+04-3.35814E+04 6.21043E-10-2.56114E-09
 -1       592-5.95148E+04-2.56667E+04-1.18174E+04-4.01457E+04-2.78078E-09-1.30376E-09
 -1       593-6.04744E+04-1.79096E+04-4.92026E+03-3.51513E+04-1.23850E-09-6.14818E-10
 -1       594-5.64678E+04-2.25065E+04-2.45351E+03-4.03167E+04-5.67866E-10-1.04035E-09
 -1       595-6.06473E+04-1.78993E+04-1.12775E+03-3.52252E+04 2.43745E-10 4.53633E-09
 -1       596-5.62648E+04-2.23608E+04-5.74701E+02-4.02987E+04-6.82974E-10 7.30404E-09
 -1       597-6.06701E+04-1.79122E+04-3.16518E+02-3.52288E+04-4.52189E-11 5.27223E-09
 -1       598-5.62456E+04-2.23552E+04-2.60985E+02-4.02931E+04 2.51146E-09-3.49667E-09
 -1       599-6.06675E+04-1.79129E+04-3.41864E+02-3.52278E+04 1.03819E-09 3.60887E-09
 -1       600-5.62651E+04-2.23637E+04-6.41646E+02-4.02963E+04-4.39877E-09-8.17863E-10
 -1       601-6.06374E+04-1.78999E+04-1.26986E+03-3.52215E+04-5.00631E-09-7.86463E-09
 -1       602-5.64921E+04-2.25287E+04-2.76856E+03-4.03125E+04 3.53793E-09-9.32232E-10
 -1       603-6.04390E+04-1.79151E+04-5.55414E+03-3.51376E+04-4.54293E-10-2.94813E-09
 -1       604-5.99374E+04-2.60869E+04-1.33393E+04-4.01055E+04-1.04433E-09 5.54792E-09
 -1       605-5.79212E+04-1.97503E+04-2.46284E+04-3.33731E+04-1.02864E-09 4.60204E-10
 -1       606 4.90405E+04-1.35460E+04-2.44919E+04 4.84373E+04-2.35977E-08 5.31145E-10
 -1       607 4.48316E+04-4.30584E+03-1.21925E+04 5.43541E+04-2.34122E-08-9.04720E-10
 -1       608 4.71703E+04-6.68710E+02-5.46621E+03 4.80395E+04-1.91139E-08 2.78123E-09
 -1       609 4.66625E+04-7.66928E+01-2.75856E+03 5.47757E+04-3.93120E-08 4.20596E-09
 -1       610 4.68926E+04 1.42098E+02-1.32233E+03 4.79954E+04-3.11011E-08 1.27284E-09
 -1       611 4.67645E+04 2.03573E+02-6.65956E+02 5.48214E+04-2.79588E-08-5.72345E-09
 -1       612 4.67845E+04 1.94591E+02-3.22460E+02 4.79911E+04-2.09639E-08 4.02315E-09
 -1       613 4.67104E+04 2.43969E+02-1.47976E+02 5.48262E+04-2.35750E-08 8.73570E-10
 -1       614 4.67129E+04 2.20458E+02-4.72909E+01 4.79896E+04-6.24823E-09-2.06091E-09
 -1       615 4.66539E+04 2.73825E+02 3.50363E+01 5.48266E+04 1.38461E-08 1.22145E-09
 -1       616 4.66592E+04 2.46984E+02 1.29250E+02 4.79900E+04-1.41818E-08-1.12686E-09
 -1       617 4.66318E+04 3.23784E+02 3.06344E+02 5.48253E+04-1.61622E-08-2.52021E-09
 -1       618 4.66052E+04 3.52512E+02 6.20527E+02 4.79900E+04-1.22327E-08-2.17824E-10
 -1       619 4.68283E+04 8.17441E+02 1.39633E+03 5.48236E+04-1.94518E-09-6.59929E-09
 -1       620 4.63851E+04 1.83550E+03 2.80670E+03 4.79854E+04 1.91017E-09-2.31012E-09
 -1       621 7.43711E+02 3.32351E+05 5.92449E+03-6.31968E+03-1.25215E-09 1.50385E-09
 -1       622 8.24043E+02 3.33819E+05 4.59032E+03-8.97072E+03-1.18951E-09 2.27442E-09
 -1       623 5.01015E+01 3.32838E+05 4.70474E+03-6.29125E+03-1.29194E-09 2.55397E-09
 -1       624 2.00822E+03 3.34906E+05 8.43407E+03-9.00375E+03-1.38994E-09 1.25690E-08
 -1       625 1.99815E+03 3.31258E+05 1.44260E+04-6.28266E+03-1.24237E-09 7.35787E-09
 -1       626 2.51750E+05 7.56766E+04 4.55807E+03 1.44252E+05-7.79073E-09-1.00517E-08
 -1       627 2.47544E+05 7.90582E+04 2.19893E+03 1.50436E+05-7.05404E-09-7.35326E-10
 -1       628 2.51936E+05 7.34678E+04 9.24891E+02 1.44844E+05 1.08739E-08 1.22982E-08
 -1       629 2.46763E+05 7.86286E+04 4.55809E+02 1.50781E+05 1.35906E-08 2.16335E-09
 -1       630 2.51912E+05 7.33817E+04 2.08888E+02 1.44830E+05-1.21690E-09-9.91804E-09
 -1       631 2.46635E+05 7.86396E+04 1.14496E+02 1.50762E+05-1.48239E-08-7.76404E-09
 -1       632 2.51869E+05 7.34068E+04 7.69286E+01 1.44799E+05-1.85391E-08-5.15485E-09
 -1       633 2.46589E+05 7.86593E+04 9.04886E+01 1.50733E+05-8.79527E-09 1.73810E-09
 -1       634 2.51833E+05 7.34187E+04 1.48831E+02 1.44779E+05 8.52469E-09-1.07038E-08
 -1       635 2.46577E+05 7.86693E+04 3.04710E+02 1.50719E+05 1.41615E-08 2.51021E-09
 -1       636 2.51805E+05 7.34242E+04 6.15672E+02 1.44767E+05 6.07997E-10 1.38516E-08
 -1       637 2.46694E+05 7.87706E+04 1.35329E+03 1.50707E+05-2.29443E-09-5.44333E-10
 -1       638 2.51749E+05 7.37270E+04 2.78096E+03 1.44625E+05-9.25610E-10-1.79625E-10
 -1       639 2.48149E+05 8.08055E+04 6.57810E+03 1.50278E+05-1.12859E-08-6.78392E-09
 -1       640 2.51571E+05 7.97684E+04 1.36500E+04 1.42044E+05-3.65571E-09 2.14768E-08
 -1       656 7.12290E+04-1.79047E+06-1.71869E+05 2.59768E+03 4.80213E-10-7.05484E-10
 -1       657-9.40838E+04-1.86785E+06-1.41973E+05 1.46983E+04-3.02862E-10 4.94286E-09
 -1       658 2.25109E+04-1.81258E+06-8.68905E+04-3.53381E+02-1.46906E-09 3.51274E-09
 -1       659-1.00322E+05-1.87083E+06-1.50163E+05 1.65011E+04 1.97724E-09 2.45806E-09
 -1       660 7.74570E+04-1.78749E+06-1.85926E+05 7.94869E+02-1.04046E-09-1.19823E-09
 -1       661 3.01391E+05 3.35763E+04 2.80617E+04 1.18278E+05 5.77893E-09-2.86127E-09
 -1       662 3.15745E+05 5.58432E+04 1.89081E+04 1.13701E+05 2.10366E-09-2.62276E-09
 -1       663 3.06910E+05 4.25685E+04 6.61473E+03 1.16670E+05-2.84581E-09-2.38833E-09
 -1       664 3.09350E+05 4.53271E+04 3.95458E+03 1.15667E+05 1.33082E-09 1.90357E-09
 -1       665 3.07746E+05 4.37964E+04 1.55957E+03 1.16425E+05-9.19755E-09-3.11093E-09
 -1       666 3.08359E+05 4.39249E+04 9.08666E+02 1.15990E+05-1.85606E-08 5.25490E-09
 -1       667 3.07896E+05 4.39333E+04 4.77162E+02 1.16361E+05-3.27199E-09-6.60613E-10
 -1       668 3.08187E+05 4.38308E+04 4.74939E+02 1.16091E+05 1.34974E-08-3.16561E-10
 -1       669 3.07917E+05 4.38869E+04 6.32830E+02 1.16326E+05 6.93845E-09 1.35356E-09
 -1       670 3.08320E+05 4.41901E+04 1.36949E+03 1.16119E+05 3.46399E-08 3.08225E-09
 -1       671 3.07764E+05 4.35806E+04 2.42807E+03 1.16330E+05 6.06923E-09-2.92675E-09
 -1       672 3.09708E+05 4.65770E+04 6.20983E+03 1.15807E+05-6.84285E-09-3.77167E-09
 -1       673 3.06536E+05 4.15592E+04 1.04054E+04 1.16615E+05-7.36702E-09-2.06455E-09
 -1       674 3.19592E+05 6.33098E+04 2.97550E+04 1.12919E+05-1.20216E-08 1.00226E-09
 -1       675 2.97944E+05 2.73147E+04 4.41679E+04 1.19041E+05 2.53294E-09-2.54295E-09
 -1       676 3.10843E+01-3.59873E+05-1.42501E+03 2.55478E+02-8.66669E-09-4.46832E-10
 -1       677-3.75118E+02-3.60221E+05-2.60809E+03-5.10414E+02-2.42095E-08 3.81476E-10
 -1       678 2.53084E+02-3.59628E+05-4.61050E+03 2.54765E+02-2.65118E-09-4.08856E-09
 -1       679-4.60910E+03-3.63005E+05-1.09530E+04-5.07960E+02-1.07904E-08-5.07040E-09
 -1       680 2.75339E+03-3.57092E+05-1.76523E+04 2.50068E+02-5.09317E-10-1.82848E-09
 -1       771-3.92423E+06-5.14776E+05-2.09553E+05-1.38686E+06 1.19035E-08 6.49743E-09
 -1       772-3.99445E+06-5.13589E+05-1.13344E+05-1.38078E+06 1.38316E-08-8.31642E-09
 -1       773-3.94402E+06-5.00929E+05-4.74545E+04-1.40421E+06 1.92304E-08 5.98902E-09
 -1       774-3.96906E+06-4.79930E+05-2.35092E+04-1.37956E+06 3.45608E-10-8.44739E-09
 -1       775-3.94540E+06-5.01278E+05-1.09782E+04-1.40629E+06 2.83762E-10-9.52241E-09
 -1       776-3.96952E+06-4.76614E+05-5.31634E+03-1.37822E+06 6.32645E-09 1.10958E-09
 -1       777-3.94552E+06-5.01678E+05-2.73901E+03-1.40750E+06 2.24099E-09 9.09495E-11
 -1       778-3.97140E+06-4.74978E+05-1.45020E+03-1.37732E+06-3.07409E-10 2.54659E-10
 -1       779-3.94552E+06-5.01897E+05-1.15288E+03-1.40849E+06 9.27685E-10-2.39106E-09
 -1       780-3.97311E+06-4.73702E+05-1.30187E+03-1.37668E+06 3.12866E-09 1.74896E-09
 -1       781-3.94549E+06-5.02018E+05-2.26799E+03-1.40927E+06 6.51926E-09-2.99679E-10
 -1       782-3.97475E+06-4.73037E+05-4.63033E+03-1.37629E+06 6.75209E-09-3.93857E-09
 -1       783-3.94519E+06-5.02105E+05-9.23095E+03-1.40967E+06 7.28505E-09 7.27823E-09
 -1       784-3.98116E+06-4.78511E+05-2.21218E+04-1.37586E+06 4.50564E-09-1.37516E-09
 -1       785-3.94121E+06-5.05014E+05-4.08446E+04-1.40690E+06 5.64205E-09-3.83989E-09
 -1       786 3.46005E+05-1.55839E+04 3.60596E+04 5.66132E+02 3.71796E-09 2.00089E-10
 -1       787 3.61632E+05 1.80422E+04 2.55120E+04 8.34432E+01-1.07380E-09-3.28737E-09
 -1       788 3.52037E+05-2.44248E+03 9.33493E+03 4.59793E+02-1.39738E-09 7.27141E-10
 -1       789 3.54608E+05 2.82703E+03 5.86725E+03 2.32899E+02 7.21385E-08-1.55489E-09
 -1       790 3.53033E+05-3.81324E+02 2.39163E+03 4.16696E+02 2.17603E-05-2.05647E-08
 -1       791 3.53448E+05 4.45030E+02 1.41221E+03 2.89405E+02 4.33608E-05-4.61650E-08
 -1       792 3.53198E+05-6.22791E+01 6.60249E+02 4.03289E+02 1.20204E-05-1.01284E-08
 -1       793 3.53264E+05 9.59514E+01 4.64568E+02 2.95617E+02-1.93502E-05 2.32165E-08
 -1       794 3.53216E+05-3.24724E+01 3.92951E+02 4.10484E+02-9.74107E-06 6.98192E-09
 -1       795 3.53310E+05 1.88838E+02 6.38857E+02 2.56291E+02-2.95850E-08 3.33223E-09
 -1       796 3.53153E+05-1.55104E+02 9.99567E+02 4.42616E+02 1.87414E-10-1.80648E-09
 -1       797 3.53777E+05 1.14549E+03 2.39209E+03 1.47091E+02-3.80527E-09 9.35074E-12
 -1       798 3.52749E+05-9.88433E+02 3.78665E+03 5.19685E+02-1.99717E-09-9.57016E-10
 -1       799 3.56628E+05 7.30470E+03 1.03345E+04-1.02797E+02-4.19951E-09 1.82331E-09
 -1       800 3.50300E+05-6.30939E+03 1.45974E+04 6.92497E+02-2.09461E-10-1.28875E-09
 -1       801-3.38737E+05 8.44179E+06 8.18479E+05-9.16983E+03 3.89991E-09-3.47393E-09
 -1       802 4.65864E+05 8.82438E+06 7.10206E+05-8.49113E+04 1.17252E-08-9.71625E-09
 -1       803-1.25689E+05 8.54075E+06 4.79886E+05-5.78588E+04 3.62343E-09-8.49812E-09
 -1       804 6.13418E+05 8.89043E+06 9.03098E+05-6.85114E+04 5.73345E-09-5.37318E-09
 -1       805-4.85926E+05 8.37551E+06 1.15411E+06-2.55662E+04-8.73115E-10 5.70824E-08
 -1       806-3.05381E+05-7.72762E+04-3.10741E+04-1.39424E+05 1.05865E-09-6.25732E-09
 -1       807-3.06099E+05-7.39420E+04-1.52651E+04-1.48928E+05-3.84352E-09-1.77488E-09
 -1       808-3.06330E+05-6.59897E+04-6.47523E+03-1.44641E+05 3.02680E-09 3.61592E-09
 -1       809-3.02776E+05-6.97748E+04-3.16415E+03-1.49465E+05 3.12730E-09 3.54751E-09
 -1       810-3.06483E+05-6.55827E+04-1.44826E+03-1.44872E+05 1.11027E-09 1.23044E-08
 -1       811-3.02527E+05-6.96123E+04-7.16181E+02-1.49442E+05-2.92695E-09-5.89171E-09
 -1       812-3.06511E+05-6.56083E+04-3.54039E+02-1.44872E+05 3.19346E-09-2.06683E-10
 -1       813-3.02494E+05-6.96181E+04-2.17595E+02-1.49425E+05 6.95877E-09 4.55748E-09
 -1       814-3.06506E+05-6.56212E+04-1.94929E+02-1.44866E+05 2.93721E-09-7.43194E-09
 -1       815-3.02490E+05-6.96240E+04-2.95496E+02-1.49415E+05 8.06995E-09-2.78351E-09
 -1       816-3.06478E+05-6.56246E+04-5.48639E+02-1.44857E+05-5.21504E-09 1.35969E-10
 -1       817-3.02572E+05-6.96805E+04-1.17240E+03-1.49393E+05 5.53882E-10 3.37468E-09
 -1       818-3.06393E+05-6.57983E+04-2.38934E+03-1.44771E+05-4.04543E-09-7.78891E-09
 -1       819-3.03886E+05-7.11056E+04-5.62067E+03-1.49043E+05-8.16408E-09-1.39776E-08
 -1       820-3.05912E+05-7.00646E+04-1.14415E+04-1.42957E+05-2.10184E-09 1.95814E-09
 -1       821-3.86393E+05 2.20669E+04-5.19290E+04 1.52188E+03 2.00305E-09-5.05679E-10
 -1       822-4.04639E+05-2.56282E+04-3.60106E+04-8.13871E+03 3.36973E-09-6.44286E-09
 -1       823-3.93234E+05 3.53497E+03-1.33714E+04 4.04053E+03-9.52541E-09 6.61203E-10
 -1       824-3.96151E+05-4.09837E+03-8.29871E+03-1.03589E+04 7.03745E-10-4.16776E-10
 -1       825-3.94916E+05 5.85846E+02-3.52900E+03 3.74219E+03 1.24527E-08 1.45292E-09
 -1       826-3.92445E+05-6.01920E+02-1.56714E+03-7.16761E+03 1.47700E-08 2.68460E-09
 -1       827-3.96884E+05-3.82842E+00-1.51217E+03 8.49138E+02-1.85651E-10-2.99769E-09
 -1       828-3.90612E+05-4.23177E+01-9.33129E+01-4.12937E+02-2.15369E-08 5.31566E-09
 -1       829-3.96706E+05-8.64118E+00-1.47884E+03-3.01222E+03 2.56426E-09-3.35592E-09
 -1       830-3.92844E+05-5.61528E+02-1.63681E+03 6.08803E+03 1.05736E-08-5.11875E-11
 -1       831-3.94704E+05 5.57639E+02-3.49306E+03-5.65201E+03-1.71284E-08-4.96607E-09
 -1       832-3.96255E+05-4.01574E+03-8.30158E+03 8.67890E+03-1.27475E-08 1.37970E-09
 -1       833-3.93343E+05 3.48102E+03-1.34001E+04-5.60358E+03 4.29225E-10-3.38514E-09
 -1       834-4.04357E+05-2.55440E+04-3.59340E+04 5.89433E+03-1.51491E-09 1.97633E-09
 -1       835-3.86557E+05 2.20294E+04-5.19574E+04-2.86684E+03 1.23690E-08-3.37604E-09
 -1       836-1.28701E+03 4.08587E+05 2.41084E+04-4.71065E+04 8.20091E-09 3.63798E-12
 -1       837 5.61998E+03 4.15885E+05 2.05399E+04-9.41035E+04 1.04669E-08-9.15861E-10
 -1       838-3.54484E+02 4.10637E+05 2.11009E+04-4.69771E+04 8.94033E-09 1.80444E-09
 -1       839 1.38238E+04 4.21994E+05 4.00838E+04-9.41167E+04 1.09667E-08-4.23552E-09
 -1       840-3.92731E+03 4.02412E+05 6.39752E+04-4.70838E+04 7.95990E-09-1.83445E-09
 -1       856-1.67163E+05 1.22314E+04-3.22431E+04-1.00538E+03-1.25029E-08-1.63891E-09
 -1       857-1.80493E+05-1.43278E+04-2.21976E+04 6.61156E+03-1.72484E-08-1.55978E-09
 -1       858-1.72423E+05 1.71062E+03-8.36912E+03-1.06039E+03-1.58137E-08-1.89948E-09
 -1       859-1.74457E+05-1.96885E+03-5.05519E+03 6.70348E+03 2.08092E-09-1.93722E-09
 -1       860-1.73208E+05 2.34906E+02-2.12879E+03-1.09814E+03 3.45437E-10-2.02192E-09
 -1       861-1.73555E+05-2.38317E+02-1.19140E+03 6.75554E+03-1.79757E-08-2.27547E-09
 -1       862-1.73329E+05 2.86015E+01-5.36491E+02-1.11260E+03 1.14333E-08-2.48014E-09
 -1       863-1.73413E+05 2.11964E+00-2.89051E+02 6.76114E+03 2.40320E-08-5.34781E-09
 -1       864-1.73350E+05-9.72920E-02-1.38932E+02-1.10377E+03 1.23789E-08-1.08813E-09
 -1       865-1.73383E+05 3.11503E+01-7.97164E+01 6.71928E+03 1.70978E-08-3.37465E-09
 -1       866-1.73356E+05-2.86354E+00-5.40001E+01-1.07072E+03 5.04070E-09-6.14125E-09
 -1       867-1.73371E+05 1.60739E+01-6.04064E+01 6.62990E+03-7.12632E-09-6.69038E-09
 -1       868-1.73354E+05 8.69947E+00-8.76474E+01-1.01435E+03-2.45154E-09-4.12824E-09
 -1       869-1.73401E+05-9.99074E+01-2.00474E+02 6.48902E+03-1.22623E-08-7.26086E-09
 -1       870-1.73313E+05 1.01198E+02-3.01863E+02-9.29779E+02 1.14699E-09-4.17654E-09
 -1       871-6.24035E+03-8.89680E+03-1.89196E+04 1.21431E+05 7.10861E-09 1.55524E-09
 -1       872-3.01374E+03-1.30484E+04-7.59515E+03 1.57425E+05 1.25510E-08 1.04310E-08
 -1       873-4.15390E+02-1.12195E+04 1.37818E+03 1.21171E+05 7.68068E-09 1.92751E-08
 -1       874 2.59020E+03-8.20777E+03 1.13733E+04 1.57495E+05 1.73213E-08 2.35032E-08
 -1       875 6.85821E+03-1.38716E+04 2.50168E+04 1.21404E+05 7.87441E-09 1.05692E-08
 -1       876 3.22523E+05 5.66812E+04 1.77638E+04 1.32163E+05-1.45052E-08 2.05546E-09
 -1       877 3.23403E+05 6.07209E+04 9.48674E+03 1.37548E+05-1.72276E-08-1.19587E-09
 -1       878 3.24176E+05 5.47214E+04 3.97397E+03 1.33625E+05 6.60430E-09 2.98860E-09
 -1       879 3.20982E+05 5.83157E+04 1.97975E+03 1.37669E+05-5.78257E-09 8.31506E-09
 -1       880 3.24292E+05 5.47028E+04 9.21019E+02 1.33684E+05-2.57069E-09-1.78704E-09
 -1       881 3.20820E+05 5.82128E+04 4.89873E+02 1.37640E+05 1.14680E-08 2.11335E-09
 -1       882 3.24302E+05 5.47194E+04 3.09459E+02 1.33686E+05 1.78354E-08 9.33061E-09
 -1       883 3.20808E+05 5.82075E+04 3.26660E+02 1.37630E+05 5.98607E-09 5.09976E-09
 -1       884 3.24294E+05 5.47168E+04 5.13908E+02 1.33686E+05 6.60998E-09 4.85659E-09
 -1       885 3.20848E+05 5.82148E+04 1.02963E+03 1.37642E+05 1.30546E-08 6.58542E-09
 -1       886 3.24255E+05 5.46865E+04 2.07323E+03 1.33682E+05 1.71226E-08-6.20116E-09
 -1       887 3.21213E+05 5.84537E+04 4.52774E+03 1.37696E+05 6.36919E-09-6.13579E-09
 -1       888 3.23971E+05 5.47352E+04 9.12284E+03 1.33536E+05 4.28378E-09 3.59341E-09
 -1       889 3.26653E+05 6.40933E+04 2.17926E+04 1.37523E+05 4.27309E-09 5.68298E-09
 -1       890 3.20265E+05 5.91405E+04 4.08168E+04 1.30046E+05 1.33996E-08-9.91349E-10
 -1       891-3.17481E+02-1.86028E+05-2.15761E+03 3.79689E+04 6.86600E-09-5.91581E-09
 -1       892-5.30260E+02-1.86475E+05-2.36013E+03 5.73117E+04 6.91307E-09-1.61453E-08
 -1       893-1.86551E+02-1.86078E+05-3.38916E+03 3.79759E+04 7.27778E-09-9.56152E-09
 -1       894-2.05384E+03-1.87743E+05-7.04380E+03 5.71084E+04-5.22050E-10-5.24733E-09
 -1       895-1.60260E+03-1.84582E+05-1.24239E+04 3.81642E+04-1.09821E-10 4.51109E-10
 -1       956-4.00836E+05-5.92771E+03-1.50657E+04 2.43911E+04-1.14005E-08-9.16771E-10
 -1       957-4.03825E+05-1.94566E+03-7.73342E+03 2.94376E+04-2.05364E-09 1.77761E-09
 -1       958-4.02180E+05-1.00780E+02-3.48502E+03 2.42019E+04 8.06904E-09-1.13937E-09
 -1       959-4.02436E+05 5.16618E+01-1.77945E+03 2.96329E+04-6.02449E-09 1.73600E-09
 -1       960-4.02308E+05 1.15760E+02-8.67622E+02 2.41830E+04-1.41108E-08-6.48697E-10
 -1       961-4.02343E+05 1.31981E+02-4.58925E+02 2.96547E+04-2.04109E-08 4.80895E-09
 -1       962-4.02339E+05 1.14185E+02-2.60848E+02 2.41793E+04-7.67886E-09 3.45608E-11
 -1       963-4.02346E+05 1.37989E+02-2.05241E+02 2.96601E+04-1.21217E-08 5.41036E-09
 -1       964-4.02349E+05 1.20341E+02-2.44453E+02 2.41774E+04-9.20409E-10-3.79714E-10
 -1       965-4.02366E+05 1.45405E+02-4.18188E+02 2.96618E+04 1.13735E-08 3.18323E-10
 -1       966-4.02341E+05 1.33958E+02-7.82780E+02 2.41775E+04-6.58613E-09 9.32232E-12
 -1       967-4.02472E+05 8.56393E+01-1.60443E+03 2.96543E+04-1.02904E-09 2.49292E-09
 -1       968-4.02244E+05-4.94420E+01-3.13937E+03 2.41854E+04-6.00267E-10-2.12941E-09
 -1       969-4.03747E+05-1.70375E+03-6.97076E+03 2.95681E+04 6.73026E-10 1.06857E-09
 -1       970-4.01047E+05-5.29471E+03-1.35776E+04 2.42789E+04 3.29783E-09-4.54747E-11
 -1       971-3.88600E+05-2.08170E+03-1.18740E+04 1.94196E+04-1.13005E-08 3.11104E-10
 -1       972-3.91512E+05-1.44349E+03-6.46492E+03 2.73712E+04-7.20092E-09-2.61934E-09
 -1       973-3.89930E+05 4.70136E+01-2.89611E+03 1.92437E+04-1.58552E-08 1.37948E-09
 -1       974-3.90163E+05 8.20728E+01-1.49904E+03 2.75575E+04-1.20926E-08-4.62933E-10
 -1       975-3.90042E+05 1.09231E+02-7.47175E+02 1.92256E+04 2.29920E-09 1.06797E-09
 -1       976-3.90093E+05 1.50305E+02-4.25347E+02 2.75802E+04-1.03264E-08-9.61109E-10
 -1       977-3.90068E+05 1.13199E+02-2.99650E+02 1.92204E+04 1.09658E-08 2.13117E-09
 -1       978-3.90104E+05 1.60613E+02-3.37668E+02 2.75874E+04 3.21897E-08-1.06775E-09
 -1       979-3.90070E+05 1.24220E+02-5.31915E+02 1.92182E+04 2.05449E-08 4.13991E-09
 -1       980-3.90144E+05 1.64800E+02-1.02041E+03 2.75888E+04 2.87677E-08-1.97508E-09
 -1       981-3.90037E+05 1.49172E+02-1.97325E+03 1.92190E+04 7.86463E-09 1.39130E-09
 -1       982-3.90412E+05 1.72946E+01-4.07697E+03 2.75789E+04 2.96723E-11-9.46144E-10
 -1       983-3.89785E+05 2.01750E+01-7.92146E+03 1.92289E+04 1.78629E-08 9.74524E-10
 -1       984-3.94213E+05-4.12443E+03-1.77388E+04 2.74630E+04 1.30433E-08-1.95200E-09
 -1       985-3.86194E+05-5.77947E+03-3.25749E+04 1.93598E+04 1.33164E-08 2.15732E-09
 -3
    1PSTEP                        37          19           1          
  100CL  119 8.09921E-01         409                     0   19           1
 -4  DISP        4    1
 -5  D1          1    2    1    0
 -5  D2          1    2    2    0
 -5  D3          1    2    3    0
 -5  ALL         1    2    0    0    1ALL
 -1         1 6.95455E-03 0.00000E+00 0.00000E+00
 -1         2 9.12679E-03 2.28183E-26 0.00000E+00
 -1         3-9.62462E-06-3.07369E-28 0.00000E+00
 -1         5 4.80564E-05 2.53021E-27-1.32349E-23
 -1         8 6.92112E-03-2.48749E-06 0.00000E+00
 -1         9 7.06271E-03-4.52456E-04 0.00000E+00
 -1        10-3.73309E-06 5.29220E-06-1.32349E-23
 -1        12 4.57297E-05 8.49237E-07 0.00000E+00
 -1        15 6.88359E-03-2.64870E-06 0.00000E+00
 -1        16 7.00541E-03-4.52645E-04 0.00000E+00
 -1        17 1.71285E-05 1.09275E-05 0.00000E+00
 -1        18 3.71840E-05-1.81208E-05 0.00000E+00
 -1        19 3.87484E-05 1.69049E-06 0.00000E+00
 -1        20 3.89660E-05 4.31220E-05 0.00000E+00
 -1        21 3.82297E-05 8.52905E-05 3.30872E-24
 -1        24 2.44028E-05 1.11315E-05 0.00000E+00
 -1        25 2.70549E-05-1.79623E-05 0.00000E+00
 -1        26 2.90002E-05 2.37768E-06 0.00000E+00
 -1        27 2.66483E-05 3.93619E-05 0.00000E+00
 -1        28 2.56184E-05 8.45244E-05 0.00000E+00
 -1        32 0.00000E+00 0.00000E+00 0.00000E+00
 -1        33 1.67306E-05 3.20868E-06 0.00000E+00
 -1        34 1.44416E-05 3.93238E-05 0.00000E+00
 -1        35 1.22040E-05 8.41214E-05 0.00000E+00
 -1        51 6.95228E-03-4.13825E-07 0.00000E+00
 -1        52 6.94814E-03-8.19178E-07 0.00000E+00
 -1        53 6.94255E-03-1.22679E-06 1.32349E-23
 -1        54 6.93590E-03-1.63895E-06 6.61744E-24
 -1        55 6.92862E-03-2.05648E-06 6.61744E-24
 -1        56 6.95377E-03-6.19144E-06 0.00000E+00
 -1        57 6.95687E-03-2.33403E-05-2.64698E-23
 -1        58 6.96388E-03-5.15954E-05 0.00000E+00
 -1        59 6.97446E-03-9.04124E-05 0.00000E+00
 -1        60 6.98788E-03-1.37844E-04 1.05879E-22
 -1        61 7.00327E-03-1.91373E-04 5.29396E-23
 -1        62 7.01954E-03-2.47666E-04-1.05879E-22
 -1        63 7.03557E-03-3.03200E-04 5.29396E-23
 -1        64 7.05027E-03-3.54560E-04 1.05879E-22
 -1        65 7.06258E-03-3.98606E-04 0.00000E+00
 -1        66 7.07173E-03-4.33180E-04 0.00000E+00
 -1        67 7.07709E-03-4.56751E-04 5.29396E-23
 -1        68 7.07850E-03-4.69238E-04 5.29396E-23
 -1        69 7.07609E-03-4.71274E-04-2.64698E-23
 -1        70 7.07048E-03-4.64856E-04 0.00000E+00
 -1        86 8.99251E-03-1.36152E-05 1.05879E-22
 -1        87 8.61555E-03-8.93670E-05 2.64698E-23
 -1        88 8.11149E-03-2.21165E-04 0.00000E+00
 -1        89 7.60227E-03-3.55858E-04 0.00000E+00
 -1        90 7.21239E-03-4.36561E-04 0.00000E+00
 -1       121-9.46377E-06 8.82338E-07-2.64698E-23
 -1       122-8.98016E-06 1.76459E-06 0.00000E+00
 -1       123-8.17104E-06 2.64666E-06 0.00000E+00
 -1       124-7.03156E-06 3.52860E-06 1.32349E-23
 -1       125-5.55509E-06 4.41002E-06-2.64698E-23
 -1       191 4.79917E-05 1.41638E-07-1.32349E-23
 -1       192 4.77979E-05 2.83259E-07 0.00000E+00
 -1       193 4.74748E-05 4.24848E-07 0.00000E+00
 -1       194 4.70224E-05 5.66386E-07 0.00000E+00
 -1       195 4.64407E-05 7.07856E-07 0.00000E+00
 -1       251 6.92996E-03-8.61036E-06 0.00000E+00
 -1       252 6.93891E-03-3.47872E-05-1.05879E-22
 -1       253 6.94762E-03-6.87349E-05 0.00000E+00
 -1       254 6.95645E-03-1.01548E-04 1.05879E-22
 -1       255 6.96529E-03-1.33920E-04 0.00000E+00
 -1       256 6.97415E-03-1.66359E-04 1.05879E-22
 -1       257 6.98300E-03-1.98824E-04 0.00000E+00
 -1       258 6.99186E-03-2.31284E-04 1.05879E-22
 -1       259 7.00072E-03-2.63746E-04 2.11758E-22
 -1       260 7.00958E-03-2.96212E-04-1.05879E-22
 -1       261 7.01844E-03-3.28646E-04 0.00000E+00
 -1       262 7.02728E-03-3.60996E-04 0.00000E+00
 -1       263 7.03611E-03-3.93896E-04-2.11758E-22
 -1       264 7.04483E-03-4.28207E-04 0.00000E+00
 -1       265 7.05381E-03-4.52824E-04 0.00000E+00
 -1       266 6.91487E-03-2.53860E-06-1.32349E-23
 -1       267 6.90861E-03-2.56252E-06 3.30872E-24
 -1       268 6.90236E-03-2.58815E-06-3.30872E-24
 -1       269 6.89610E-03-2.60869E-06 0.00000E+00
 -1       270 6.88985E-03-2.62910E-06 0.00000E+00
 -1       271 6.91685E-03-3.21817E-06 0.00000E+00
 -1       272 6.91651E-03-1.50291E-05-5.29396E-23
 -1       273 6.91998E-03-3.74473E-05 0.00000E+00
 -1       274 6.92676E-03-6.94951E-05 0.00000E+00
 -1       275 6.93629E-03-1.09641E-04 0.00000E+00
 -1       276 6.94785E-03-1.55931E-04-5.29396E-23
 -1       277 6.96065E-03-2.06058E-04 1.05879E-22
 -1       278 6.97388E-03-2.57510E-04-5.29396E-23
 -1       279 6.98671E-03-3.07702E-04 0.00000E+00
 -1       280 6.99830E-03-3.54112E-04-5.29396E-23
 -1       281 7.00788E-03-3.94438E-04-1.05879E-22
 -1       282 7.01474E-03-4.26701E-04-5.29396E-23
 -1       283 7.01828E-03-4.49381E-04 0.00000E+00
 -1       284 7.01804E-03-4.61456E-04 0.00000E+00
 -1       285 7.01372E-03-4.62511E-04 0.00000E+00
 -1       301 7.05088E-03-4.52484E-04 0.00000E+00
 -1       302 7.04208E-03-4.52497E-04 0.00000E+00
 -1       303 7.03473E-03-4.52498E-04 0.00000E+00
 -1       304 7.02724E-03-4.52507E-04 0.00000E+00
 -1       305 7.01799E-03-4.52538E-04 0.00000E+00
 -1       306 6.91285E-03-2.11426E-04-2.11758E-22
 -1       307 6.42262E-03 3.43662E-04 5.29396E-23
 -1       308 5.51473E-03 1.04792E-03 0.00000E+00
 -1       309 4.28921E-03 1.74700E-03 0.00000E+00
 -1       310 2.95360E-03 2.42738E-03 0.00000E+00
 -1       311 1.74039E-03 3.13303E-03-1.05879E-22
 -1       312 8.31169E-04 3.83342E-03 4.23516E-22
 -1       313 3.13070E-04 4.40716E-03-1.05879E-22
 -1       314 1.68345E-04 4.64234E-03 0.00000E+00
 -1       315 2.02534E-04 4.45186E-03 0.00000E+00
 -1       316 2.35966E-04 3.81496E-03 2.11758E-22
 -1       317 1.55947E-04 2.88016E-03 5.29396E-23
 -1       318 1.89300E-05 1.84521E-03-1.05879E-22
 -1       319-5.46568E-05 9.12304E-04-5.29396E-23
 -1       320-2.86564E-05 2.58205E-04 1.05879E-22
 -1       336-1.50652E-06 6.24296E-06 0.00000E+00
 -1       337 1.18943E-06 7.19331E-06-1.32349E-23
 -1       338 4.37515E-06 8.14146E-06 0.00000E+00
 -1       339 8.07455E-06 9.08319E-06 0.00000E+00
 -1       340 1.23152E-05 1.00232E-05-1.32349E-23
 -1       406 4.48894E-05 9.90504E-07-1.32349E-23
 -1       407 4.39196E-05 1.13161E-06-1.32349E-23
 -1       408 4.28204E-05 1.27250E-06 0.00000E+00
 -1       409 4.15918E-05 1.41299E-06 0.00000E+00
 -1       410 4.02341E-05 1.55276E-06 0.00000E+00
 -1       521 6.85418E-03-2.12527E-04 2.11758E-22
 -1       522 6.36439E-03 3.40654E-04 0.00000E+00
 -1       523 5.46207E-03 1.04352E-03-2.11758E-22
 -1       524 4.25108E-03 1.74466E-03-5.29396E-23
 -1       525 2.93200E-03 2.42914E-03 0.00000E+00
 -1       526 1.73011E-03 3.13607E-03 0.00000E+00
 -1       527 8.28057E-04 3.83464E-03-4.23516E-22
 -1       528 3.13410E-04 4.40492E-03-2.11758E-22
 -1       529 1.70155E-04 4.63503E-03 0.00000E+00
 -1       530 2.03670E-04 4.43992E-03-1.05879E-22
 -1       531 2.36164E-04 3.80218E-03 0.00000E+00
 -1       532 1.59333E-04 2.87371E-03-5.29396E-23
 -1       533 2.71657E-05 1.84608E-03-1.05879E-22
 -1       534-4.53339E-05 9.15935E-04 0.00000E+00
 -1       535-2.03806E-05 2.61391E-04 0.00000E+00
 -1       536 1.83328E-05 6.65269E-06 0.00000E+00
 -1       537 1.95869E-05 4.00417E-06 0.00000E+00
 -1       538 2.08399E-05 2.15662E-06 2.64698E-23
 -1       539 2.21015E-05 3.31419E-07 0.00000E+00
 -1       540 2.33633E-05-1.48277E-06-2.64698E-23
 -1       541 2.46268E-05-3.29666E-06-2.64698E-23
 -1       542 2.58904E-05-5.11042E-06-5.29396E-23
 -1       543 2.71544E-05-6.92418E-06 0.00000E+00
 -1       544 2.84183E-05-8.73792E-06 0.00000E+00
 -1       545 2.96820E-05-1.05517E-05 0.00000E+00
 -1       546 3.09454E-05-1.23653E-05 0.00000E+00
 -1       547 3.22069E-05-1.41786E-05-1.32349E-23
 -1       548 3.34683E-05-1.59809E-05-2.64698E-23
 -1       549 3.47203E-05-1.77609E-05 1.32349E-23
 -1       550 3.59764E-05-1.87469E-05 0.00000E+00
 -1       551 1.93994E-05 1.09746E-05 0.00000E+00
 -1       552 1.96879E-05 1.10222E-05 0.00000E+00
 -1       553 1.91585E-05 1.10697E-05 0.00000E+00
 -1       554 1.89863E-05 1.11120E-05-6.61744E-24
 -1       555 2.03469E-05 1.11460E-05 0.00000E+00
 -1       556 1.89192E-05 6.00890E-06-6.61744E-24
 -1       557 2.05435E-05 1.51094E-06 0.00000E+00
 -1       558 2.20098E-05-2.56337E-06 0.00000E+00
 -1       559 2.33186E-05-6.21619E-06 0.00000E+00
 -1       560 2.44713E-05-9.44928E-06 0.00000E+00
 -1       561 2.54686E-05-1.22648E-05 0.00000E+00
 -1       562 2.63112E-05-1.46650E-05 0.00000E+00
 -1       563 2.69999E-05-1.66521E-05 0.00000E+00
 -1       564 2.75353E-05-1.82284E-05 0.00000E+00
 -1       565 2.79181E-05-1.93962E-05 0.00000E+00
 -1       566 2.81491E-05-2.01580E-05 0.00000E+00
 -1       567 2.82290E-05-2.05161E-05 0.00000E+00
 -1       568 2.81584E-05-2.04729E-05 0.00000E+00
 -1       569 2.79385E-05-2.00310E-05 0.00000E+00
 -1       570 2.75697E-05-1.91928E-05 0.00000E+00
 -1       571 3.72791E-05-1.67440E-05 2.48154E-24
 -1       572 3.73761E-05-1.54329E-05 6.20385E-25
 -1       573 3.74737E-05-1.41779E-05 8.27181E-25
 -1       574 3.75717E-05-1.29689E-05 0.00000E+00
 -1       575 3.76697E-05-1.17956E-05-1.65436E-24
 -1       576 3.77679E-05-1.06477E-05 0.00000E+00
 -1       577 3.78661E-05-9.51506E-06-3.30872E-24
 -1       578 3.79642E-05-8.38733E-06-1.65436E-24
 -1       579 3.80624E-05-7.25420E-06-3.30872E-24
 -1       580 3.81606E-05-6.10539E-06-1.65436E-24
 -1       581 3.82587E-05-4.93063E-06 0.00000E+00
 -1       582 3.83568E-05-3.71962E-06 0.00000E+00
 -1       583 3.84549E-05-2.46209E-06 0.00000E+00
 -1       584 3.85528E-05-1.14787E-06-6.61744E-24
 -1       585 3.86507E-05 2.33179E-07 0.00000E+00
 -1       586 3.55347E-05-1.80922E-05 0.00000E+00
 -1       587 3.38306E-05-1.80649E-05-1.65436E-24
 -1       588 3.21009E-05-1.80382E-05 0.00000E+00
 -1       589 3.03753E-05-1.80118E-05 2.06795E-25
 -1       590 2.86836E-05-1.79861E-05 0.00000E+00
 -1       591 3.66310E-05-1.67181E-05 3.10193E-25
 -1       592 3.61014E-05-1.53887E-05 0.00000E+00
 -1       593 3.55942E-05-1.41197E-05 8.27181E-25
 -1       594 3.51048E-05-1.28991E-05 0.00000E+00
 -1       595 3.46288E-05-1.17146E-05 0.00000E+00
 -1       596 3.41619E-05-1.05542E-05-4.13590E-25
 -1       597 3.36994E-05-9.40588E-06 8.27181E-25
 -1       598 3.32370E-05-8.25756E-06 0.00000E+00
 -1       599 3.27700E-05-7.09716E-06-8.27181E-25
 -1       600 3.22939E-05-5.91264E-06 2.06795E-25
 -1       601 3.18043E-05-4.69195E-06-4.13590E-25
 -1       602 3.12965E-05-3.42301E-06 1.03398E-25
 -1       603 3.07663E-05-2.09377E-06 0.00000E+00
 -1       604 3.02092E-05-6.92104E-07 0.00000E+00
 -1       605 2.96207E-05 7.94017E-07 0.00000E+00
 -1       606 3.87686E-05 3.37258E-06 0.00000E+00
 -1       607 3.87849E-05 5.22891E-06 0.00000E+00
 -1       608 3.88001E-05 7.24925E-06 6.61744E-24
 -1       609 3.88146E-05 9.42205E-06 0.00000E+00
 -1       610 3.88286E-05 1.17358E-05 0.00000E+00
 -1       611 3.88423E-05 1.41786E-05 0.00000E+00
 -1       612 3.88556E-05 1.67388E-05 0.00000E+00
 -1       613 3.88687E-05 1.94047E-05 0.00000E+00
 -1       614 3.88815E-05 2.21645E-05 0.00000E+00
 -1       615 3.88942E-05 2.50062E-05 0.00000E+00
 -1       616 3.89066E-05 2.79184E-05 0.00000E+00
 -1       617 3.89188E-05 3.08891E-05 0.00000E+00
 -1       618 3.89309E-05 3.39065E-05 0.00000E+00
 -1       619 3.89428E-05 3.69590E-05 0.00000E+00
 -1       620 3.89546E-05 4.00348E-05 0.00000E+00
 -1       621 3.71770E-05 1.80497E-06 0.00000E+00
 -1       622 3.55773E-05 1.92018E-06 0.00000E+00
 -1       623 3.39546E-05 2.03535E-06 0.00000E+00
 -1       624 3.23140E-05 2.15033E-06 0.00000E+00
 -1       625 3.06608E-05 2.26511E-06 0.00000E+00
 -1       626 3.82331E-05 3.40412E-06 6.61744E-24
 -1       627 3.76629E-05 5.26588E-06 0.00000E+00
 -1       628 3.70417E-05 7.26319E-06 0.00000E+00
 -1       629 3.63746E-05 9.38248E-06 0.00000E+00
 -1       630 3.56666E-05 1.16102E-05-6.61744E-24
 -1       631 3.49229E-05 1.39327E-05 0.00000E+00
 -1       632 3.41485E-05 1.63362E-05 0.00000E+00
 -1       633 3.33488E-05 1.88071E-05 0.00000E+00
 -1       634 3.25287E-05 2.13318E-05 6.61744E-24
 -1       635 3.16935E-05 2.38966E-05 0.00000E+00
 -1       636 3.08483E-05 2.64878E-05 0.00000E+00
 -1       637 2.99982E-05 2.90918E-05-1.65436E-24
 -1       638 2.91484E-05 3.16948E-05 3.30872E-24
 -1       639 2.83038E-05 3.42834E-05 0.00000E+00
 -1       640 2.74693E-05 3.68437E-05-1.65436E-24
 -1       656 3.62216E-05 4.25092E-05 0.00000E+00
 -1       657 3.40674E-05 4.18728E-05 0.00000E+00
 -1       658 3.22810E-05 4.12391E-05 0.00000E+00
 -1       659 3.06303E-05 4.06060E-05-6.61744E-24
 -1       660 2.88425E-05 3.99707E-05 0.00000E+00
 -1       661 3.79508E-05 4.61755E-05 0.00000E+00
 -1       662 3.69673E-05 4.91595E-05 1.65436E-24
 -1       663 3.60095E-05 5.20750E-05 0.00000E+00
 -1       664 3.50774E-05 5.49250E-05 0.00000E+00
 -1       665 3.41694E-05 5.77112E-05 0.00000E+00
 -1       666 3.32849E-05 6.04359E-05-1.65436E-24
 -1       667 3.24230E-05 6.31005E-05 0.00000E+00
 -1       668 3.15834E-05 6.57065E-05 1.65436E-24
 -1       669 3.07654E-05 6.82549E-05 3.30872E-24
 -1       670 2.99688E-05 7.07468E-05 1.65436E-24
 -1       671 2.91933E-05 7.31828E-05 0.00000E+00
 -1       672 2.84385E-05 7.55631E-05 0.00000E+00
 -1       673 2.77046E-05 7.78880E-05-3.30872E-24
 -1       674 2.69903E-05 8.01570E-05-1.65436E-24
 -1       675 2.62975E-05 8.23703E-05 0.00000E+00
 -1       676 3.61189E-05 8.51620E-05 0.00000E+00
 -1       677 3.40096E-05 8.50336E-05 0.00000E+00
 -1       678 3.19033E-05 8.49053E-05 0.00000E+00
 -1       679 2.98017E-05 8.47774E-05 1.65436E-24
 -1       680 2.77063E-05 8.46495E-05 0.00000E+00
 -1       771 2.53277E-05 3.97231E-06 0.00000E+00
 -1       772 2.57788E-05-2.01055E-06-2.64698E-23
 -1       773 2.58080E-05-6.85984E-06-2.64698E-23
 -1       774 2.54366E-05-1.06404E-05 0.00000E+00
 -1       775 2.46909E-05-1.34180E-05 5.29396E-23
 -1       776 2.35969E-05-1.52637E-05 2.64698E-23
 -1       777 2.21817E-05-1.62512E-05 5.29396E-23
 -1       778 2.04736E-05-1.64579E-05 2.64698E-23
 -1       779 1.85020E-05-1.59631E-05 0.00000E+00
 -1       780 1.62975E-05-1.48495E-05 0.00000E+00
 -1       781 1.38913E-05-1.32011E-05 0.00000E+00
 -1       782 1.13160E-05-1.11043E-05 0.00000E+00
 -1       783 8.60457E-06-8.64666E-06 0.00000E+00
 -1       784 5.79109E-06-5.91706E-06 0.00000E+00
 -1       785 2.90930E-06-3.00547E-06-5.29396E-23
 -1       786 2.71704E-05-1.65647E-05 0.00000E+00
 -1       787 2.72918E-05-1.52491E-05-1.65436E-24
 -1       788 2.74128E-05-1.39928E-05-3.30872E-24
 -1       789 2.75350E-05-1.27737E-05 0.00000E+00
 -1       790 2.76573E-05-1.15805E-05 0.00000E+00
 -1       791 2.77798E-05-1.04022E-05 1.65436E-24
 -1       792 2.79023E-05-9.23212E-06 3.30872E-24
 -1       793 2.80249E-05-8.06382E-06 0.00000E+00
 -1       794 2.81474E-05-6.89119E-06-3.30872E-24
 -1       795 2.82700E-05-5.70819E-06 1.65436E-24
 -1       796 2.83925E-05-4.50564E-06 0.00000E+00
 -1       797 2.85149E-05-3.27426E-06 0.00000E+00
 -1       798 2.86372E-05-1.99617E-06 0.00000E+00
 -1       799 2.87591E-05-6.53248E-07 0.00000E+00
 -1       800 2.88809E-05 7.92022E-07 0.00000E+00
 -1       801 2.44963E-05-1.50223E-05 5.29396E-23
 -1       802 1.98734E-05-1.19727E-05 0.00000E+00
 -1       803 1.43470E-05-8.93638E-06 0.00000E+00
 -1       804 8.94474E-06-5.91020E-06 2.64698E-23
 -1       805 4.02066E-06-2.86944E-06 2.64698E-23
 -1       806 2.64112E-05-1.66254E-05 0.00000E+00
 -1       807 2.57814E-05-1.53405E-05 1.65436E-24
 -1       808 2.51658E-05-1.40961E-05-3.30872E-24
 -1       809 2.45608E-05-1.28815E-05 0.00000E+00
 -1       810 2.39629E-05-1.16861E-05-3.30872E-24
 -1       811 2.33681E-05-1.04994E-05-1.65436E-24
 -1       812 2.27726E-05-9.31073E-06-3.30872E-24
 -1       813 2.21723E-05-8.10966E-06 1.65436E-24
 -1       814 2.15634E-05-6.88562E-06 3.30872E-24
 -1       815 2.09420E-05-5.62809E-06-1.65436E-24
 -1       816 2.03039E-05-4.32656E-06 0.00000E+00
 -1       817 1.96454E-05-2.97050E-06-1.65436E-24
 -1       818 1.89624E-05-1.54939E-06 0.00000E+00
 -1       819 1.82512E-05-5.27832E-08 0.00000E+00
 -1       820 1.75080E-05 1.52982E-06 1.65436E-24
 -1       821 2.88715E-05 3.02447E-06 0.00000E+00
 -1       822 2.87339E-05 1.66106E-06 0.00000E+00
 -1       823 2.85944E-05-1.05766E-06 3.30872E-24
 -1       824 2.84513E-05-4.46820E-06 0.00000E+00
 -1       825 2.83085E-05-7.71661E-06 0.00000E+00
 -1       826 2.81682E-05-9.94979E-06 1.65436E-24
 -1       827 2.80299E-05-1.05958E-05-3.30872E-24
 -1       828 2.78906E-05-9.09241E-06-1.65436E-24
 -1       829 2.77461E-05-5.47192E-06-3.30872E-24
 -1       830 2.75925E-05 2.20435E-07 0.00000E+00
 -1       831 2.74300E-05 7.36658E-06 0.00000E+00
 -1       832 2.72619E-05 1.53393E-05-1.65436E-24
 -1       833 2.70940E-05 2.32823E-05-3.30872E-24
 -1       834 2.69341E-05 3.03401E-05 1.65436E-24
 -1       835 2.67825E-05 3.59008E-05-8.27181E-25
 -1       836 2.71645E-05 2.51630E-06 3.30872E-24
 -1       837 2.51273E-05 2.65766E-06 0.00000E+00
 -1       838 2.29769E-05 2.79859E-06 0.00000E+00
 -1       839 2.08017E-05 2.93859E-06 0.00000E+00
 -1       840 1.86902E-05 3.07850E-06 0.00000E+00
 -1       856 2.65904E-05 4.18610E-05 0.00000E+00
 -1       857 2.65269E-05 4.45298E-05 4.13590E-25
 -1       858 2.64633E-05 4.73418E-05-1.65436E-24
 -1       859 2.63984E-05 5.02702E-05 0.00000E+00
 -1       860 2.63332E-05 5.32878E-05 0.00000E+00
 -1       861 2.62677E-05 5.63672E-05 8.27181E-25
 -1       862 2.62020E-05 5.94809E-05 0.00000E+00
 -1       863 2.61362E-05 6.26015E-05-8.27181E-25
 -1       864 2.60706E-05 6.57012E-05 0.00000E+00
 -1       865 2.60050E-05 6.87525E-05 0.00000E+00
 -1       866 2.59397E-05 7.17281E-05 0.00000E+00
 -1       867 2.58746E-05 7.46006E-05-8.27181E-25
 -1       868 2.58099E-05 7.73430E-05 0.00000E+00
 -1       869 2.57456E-05 7.99286E-05 0.00000E+00
 -1       870 2.56818E-05 8.23311E-05-1.65436E-24
 -1       871 2.44476E-05 3.93596E-05 0.00000E+00
 -1       872 2.23979E-05 3.93544E-05 0.00000E+00
 -1       873 2.04362E-05 3.93488E-05 0.00000E+00
 -1       874 1.84987E-05 3.93424E-05 2.06795E-25
 -1       875 1.65216E-05 3.93353E-05-4.13590E-25
 -1       876 2.58509E-05 4.18727E-05-3.30872E-24
 -1       877 2.50256E-05 4.44662E-05 1.65436E-24
 -1       878 2.41731E-05 4.71325E-05-3.30872E-24
 -1       879 2.32971E-05 4.98620E-05-1.65436E-24
 -1       880 2.24008E-05 5.26453E-05 0.00000E+00
 -1       881 2.14878E-05 5.54730E-05-1.65436E-24
 -1       882 2.05616E-05 5.83356E-05-3.30872E-24
 -1       883 1.96258E-05 6.12238E-05 0.00000E+00
 -1       884 1.86838E-05 6.41282E-05-3.30872E-24
 -1       885 1.77393E-05 6.70395E-05 1.65436E-24
 -1       886 1.67956E-05 6.99482E-05 0.00000E+00
 -1       887 1.58563E-05 7.28449E-05 0.00000E+00
 -1       888 1.49248E-05 7.57203E-05-3.30872E-24
 -1       889 1.40043E-05 7.85648E-05 1.65436E-24
 -1       890 1.30982E-05 8.13690E-05 0.00000E+00
 -1       891 2.35692E-05 8.44573E-05-1.65436E-24
 -1       892 2.14916E-05 8.43900E-05 0.00000E+00
 -1       893 1.93508E-05 8.43225E-05-8.27181E-25
 -1       894 1.71123E-05 8.42550E-05 0.00000E+00
 -1       895 1.47414E-05 8.41874E-05 4.13590E-25
 -1       956 1.65908E-05 5.08566E-06 1.65436E-24
 -1       957 1.64486E-05 7.05674E-06 0.00000E+00
 -1       958 1.63059E-05 9.11315E-06-3.30872E-24
 -1       959 1.61627E-05 1.12455E-05 1.65436E-24
 -1       960 1.60193E-05 1.34445E-05 0.00000E+00
 -1       961 1.58757E-05 1.57006E-05-1.65436E-24
 -1       962 1.57320E-05 1.80044E-05 0.00000E+00
 -1       963 1.55882E-05 2.03465E-05 0.00000E+00
 -1       964 1.54444E-05 2.27173E-05 0.00000E+00
 -1       965 1.53005E-05 2.51074E-05 0.00000E+00
 -1       966 1.51566E-05 2.75074E-05-3.30872E-24
 -1       967 1.50128E-05 2.99078E-05-1.65436E-24
 -1       968 1.48690E-05 3.22990E-05 0.00000E+00
 -1       969 1.47255E-05 3.46716E-05 0.00000E+00
 -1       970 1.45825E-05 3.70163E-05 0.00000E+00
 -1       971 1.43044E-05 4.16751E-05 3.30872E-24
 -1       972 1.41651E-05 4.41546E-05-1.65436E-24
 -1       973 1.40253E-05 4.67482E-05 0.00000E+00
 -1       974 1.38850E-05 4.94412E-05 0.00000E+00
 -1       975 1.37445E-05 5.22188E-05 0.00000E+00
 -1       976 1.36037E-05 5.50662E-05 0.00000E+00
 -1       977 1.34628E-05 5.79687E-05 0.00000E+00
 -1       978 1.33218E-05 6.09114E-05 0.00000E+00
 -1       979 1.31807E-05 6.38794E-05 0.00000E+00
 -1       980 1.30396E-05 6.68581E-05 0.00000E+00
 -1       981 1.28985E-05 6.98324E-05 0.00000E+00
 -1       982 1.27576E-05 7.27876E-05 0.00000E+00
 -1       983 1.26170E-05 7.57089E-05 3.30872E-24
 -1       984 1.24771E-05 7.85814E-05-1.65436E-24
 -1       985 1.23379E-05 8.13904E-05 3.30872E-24
 -3
    1PSTEP                        38          19           1          
  100CL  119 8.09921E-01         409                     0   19           1
 -4  STRESS      6    1
 -5  SXX         1    4    1    1
 -5  SYY         1    4    2    2
 -5  SZZ         1    4    3    3
 -5  SXY         1    4    1    2
 -5  SYZ         1    4    2    3
 -5  SZX         1    4    3    1
 -1         1-3.64479E+06-1.60309E+06-6.98824E+05-1.74813E+06 3.68163E-09-1.48721E-08
 -1         2 4.27221E+06 5.24873E+07 1.15447E+07-1.92917E+07-5.01750E-08 5.74524E-07
 -1         3-8.83846E+01 2.52835E+06-4.23433E+02-6.29393E+02-1.87939E-11-2.46564E-09
 -1         5-1.18955E+02 4.05758E+05 1.05582E+01 1.84935E+00 5.48846E-10-5.38421E-09
 -1         8 4.64019E+06 6.76160E+05 1.42502E+06-1.86884E+06-2.67028E-09-8.87667E-08
 -1         9 2.72654E+07 3.44064E+07 9.43262E+06 1.60397E+07 1.13621E-08 2.28081E-07
 -1        10 1.95726E+03 2.63471E+06 8.03423E+03-4.61372E+03 1.91335E-09 8.85731E-09
 -1        12-1.14931E+02 4.05781E+05 3.49739E+02 1.23483E+01 8.52978E-10 2.26464E-09
 -1        15 4.01611E+03 2.20712E+03 1.29821E+04 1.08628E+01 2.74122E-09 4.98156E-07
 -1        16 3.18366E+07 3.70641E+07 9.20939E+06 3.47639E+07 4.06678E-08-3.23014E-07
 -1        17 3.41006E+07-4.51290E+05 4.49397E+06-5.42117E+06 3.21000E-08-5.47105E-08
 -1        18 9.87704E+05 2.32604E+05 2.12054E+05-7.76003E+04 5.54769E-09 2.41198E-09
 -1        19 1.24502E+05 1.54666E+05-2.20789E+02 2.54751E+04-2.22753E-09-1.62036E-09
 -1        20-3.37832E+04-5.89687E+05-1.28882E+05 5.26513E+04 1.22876E-08-1.11080E-09
 -1        21-5.65761E+01-3.61631E+05-1.18813E+03-5.23531E+02-2.40690E-08-1.24349E-08
 -1        24 5.53000E+07-3.06324E+06 6.47137E+06-9.47535E+06 1.51582E-07 4.09612E-08
 -1        25 4.52202E+05 1.84695E+06 4.69472E+05-9.14286E+04 1.12777E-11 8.42192E-09
 -1        26-5.62339E+03 1.13325E+05-1.62851E+04-2.58523E+04 2.72557E-09 1.00414E-09
 -1        27-9.78906E+04-3.24984E+05-1.22360E+05 7.43475E+04 1.40453E-08-4.44288E-09
 -1        28 2.85964E+04-9.75454E+04 2.03629E+04 3.54401E+04 1.72122E-08-3.95485E-09
 -1        32-3.47998E+05 4.39222E+06 1.61165E+06-7.01340E+05 2.32831E-09 7.54349E-08
 -1        33-1.81235E+05 9.94853E+04 3.48774E+04-6.84220E+04 4.32275E-09 1.25298E-09
 -1        34-2.45109E+05-2.32551E+04 4.47959E+02 7.16056E+04 1.10103E-08 1.14596E-09
 -1        35-2.88576E+04-3.86956E+04-1.52442E+03 6.30618E+04 1.19240E-08-3.96418E-09
 -1        51 3.04111E+04-1.08592E+06 7.36034E+04-1.38016E+06-1.16415E-09 1.80837E-07
 -1        52 1.93240E+04-1.08446E+06 4.61980E+04-1.61078E+06-1.69530E-09-2.25962E-07
 -1        53 1.40173E+04-1.10812E+06 3.51667E+04-1.37542E+06-2.54659E-10-3.57832E-08
 -1        54 3.39987E+04-1.10855E+06 5.15907E+04-1.61525E+06-1.45519E-10-8.02320E-08
 -1        55 5.99996E+04-1.12710E+06 8.86660E+04-1.37484E+06 1.04774E-09 8.32468E-07
 -1        56-6.95213E+06-7.68336E+05-5.39325E+05-2.61469E+06 3.32584E-08-6.71338E-07
 -1        57-7.08583E+06-1.12937E+06-3.33359E+05-2.46062E+06 2.87400E-09 2.41176E-07
 -1        58-7.18283E+06-8.00276E+05-1.38137E+05-2.41920E+06 3.20688E-08 7.36036E-08
 -1        59-6.79171E+06-1.15985E+06-6.18733E+04-2.81619E+06 6.84431E-08-8.39882E-08
 -1        60-7.27182E+06-7.13868E+05-3.28760E+04-2.28038E+06-3.73693E-08 3.06864E-08
 -1        61-6.71870E+06-1.25253E+06-1.38661E+04-3.02376E+06 9.70695E-08 2.43132E-08
 -1        62-7.29304E+06-6.80896E+05-7.33056E+03-2.23554E+06-8.91578E-09 2.21225E-07
 -1        63-6.72192E+06-1.23506E+06-4.53092E+03-2.99829E+06-3.99741E-08 2.84483E-07
 -1        64-7.26300E+06-7.35117E+05-1.79595E+04-2.30245E+06 7.74307E-08 8.40828E-08
 -1        65-6.80215E+06-1.09443E+06-1.15013E+04-2.75713E+06-1.81108E-07-2.42042E-07
 -1        66-7.17218E+06-8.49737E+05-6.07472E+04-2.45049E+06-8.58563E-10 7.62338E-08
 -1        67-7.03522E+06-8.96844E+05-9.49157E+04-2.42487E+06-7.57900E-08 7.05331E-08
 -1        68-7.01219E+06-9.46079E+05-2.04001E+05-2.62034E+06 6.17802E-08 3.00453E-07
 -1        69-7.51435E+06-9.51610E+05-5.30243E+05-2.10629E+06-1.12657E-07 3.13696E-07
 -1        70-6.72427E+06-7.83464E+05-8.06597E+05-2.78500E+06 4.72937E-09-7.59028E-08
 -1        86-4.34732E+06-3.10679E+07-6.46741E+06 8.85254E+06 4.61805E-07 3.21932E-07
 -1        87 7.67639E+06 1.57099E+07 5.22563E+06-1.32226E+07 7.20611E-07 9.19987E-07
 -1        88-1.78258E+06 4.61400E+05 5.13882E+05 4.28754E+06 6.78825E-07 1.03286E-06
 -1        89 9.57918E+06 1.53013E+07 5.29186E+06-1.36252E+07 8.76389E-07 2.05284E-07
 -1        90-6.05938E+06-3.07911E+07-7.36315E+06 9.35799E+06 2.24536E-07-1.45315E-07
 -1       121-4.85380E+01 2.52848E+06-5.35336E+02 3.14753E+02-4.13010E-10 3.12320E-09
 -1       122-2.78542E+02 2.52823E+06-9.54030E+02-1.26522E+03 1.02608E-09 1.27739E-09
 -1       123 8.48364E+01 2.52861E+06-1.65334E+03 9.50884E+02-1.14937E-09 1.06138E-09
 -1       124-2.59874E+03 2.52685E+06-4.17168E+03-2.45635E+03 1.24766E-09 8.56289E-10
 -1       125 1.57322E+03 2.52990E+06-6.10919E+03 1.50782E+03-1.31695E-09-1.36424E-11
 -1       191-1.25182E+02 4.05769E+05 6.98605E+00-9.81464E-01 6.84622E-10 4.31828E-09
 -1       192-1.20004E+02 4.05759E+05 2.26271E+01 5.69835E+00 9.64819E-10 1.74623E-09
 -1       193-1.27926E+02 4.05768E+05 3.66005E+01-5.06272E+00 1.19966E-09 1.38971E-09
 -1       194-1.23358E+02 4.05762E+05 8.62530E+01 1.28564E+01 6.18929E-10-6.58292E-09
 -1       195-1.33191E+02 4.05766E+05 1.63215E+02-8.50887E+00 1.93563E-09-2.21917E-10
 -1       251 2.65484E+07-1.10438E+06 2.53684E+06 1.18232E+05 2.18827E-08-1.00466E-07
 -1       252 2.79729E+07 1.31500E+06 1.84532E+06-1.74541E+06-4.84470E-08-4.00119E-07
 -1       253 2.71379E+07-1.26145E+05 6.75727E+05-8.96832E+05-1.83627E-09 1.54047E-07
 -1       254 2.73161E+07 2.03028E+05 4.17380E+05-7.88080E+05 4.56587E-08 3.72638E-07
 -1       255 2.72107E+07 1.78215E+03 1.76304E+05-8.38389E+05-5.23369E-09 2.56834E-07
 -1       256 2.72381E+07 5.43879E+04 1.04925E+05-8.43707E+05-1.77934E-08 1.36628E-07
 -1       257 2.72221E+07 2.18798E+04 5.43146E+04-8.41426E+05 1.47289E-08-8.08068E-08
 -1       258 2.72277E+07 3.36917E+04 4.56515E+04-8.40672E+05-1.76481E-08 2.74010E-07
 -1       259 2.72224E+07 2.24149E+04 5.04172E+04-8.41467E+05 1.80012E-08-5.97907E-07
 -1       260 2.72357E+07 4.98215E+04 9.33790E+04-8.44493E+05-8.45108E-09-2.95557E-07
 -1       261 2.72130E+07 5.79798E+03 1.56274E+05-8.37569E+05 3.35394E-08 1.68387E-07
 -1       262 2.73028E+07 1.71874E+05 3.65543E+05-7.76413E+05 3.78814E-08 2.90835E-07
 -1       263 2.71499E+07-9.91430E+04 5.97258E+05-9.09352E+05-2.03172E-08 2.49100E-07
 -1       264 2.80154E+07 1.17057E+06 1.65168E+06-1.97104E+06 6.69916E-08 9.57953E-07
 -1       265 2.65028E+07-9.88264E+05 2.20364E+06 3.56158E+05 4.10728E-09 9.22242E-07
 -1       266-7.26966E+04-3.39693E+04 1.70671E+05-2.32554E+02 3.38332E-09 1.06476E-06
 -1       267 8.42845E+04 3.96265E+04 1.20574E+05 2.68168E+02 6.08270E-09 4.04804E-07
 -1       268-1.13020E+04-5.61036E+03 4.48199E+04-3.41778E+01 5.28780E-09 9.56096E-07
 -1       269 1.33449E+04 6.71650E+03 2.91292E+04 3.98028E+01 3.93766E-09 1.09392E-06
 -1       270-2.00307E+03-1.10349E+03 1.40612E+04-5.40190E+00 3.16413E-09 2.39217E-07
 -1       271-1.01546E+07-1.20995E+06-8.77307E+05-3.84785E+06 2.67028E-09 5.12227E-07
 -1       272-1.02396E+07-1.87252E+06-5.37477E+05-3.90416E+06 9.65447E-08-2.15274E-07
 -1       273-1.04076E+07-1.31558E+06-2.18917E+05-3.69908E+06 1.08266E-08 1.21232E-07
 -1       274-9.96158E+06-1.76126E+06-1.05714E+05-4.20660E+06 1.45803E-07 1.59343E-08
 -1       275-1.05012E+07-1.24702E+06-5.28988E+04-3.60817E+06-3.01152E-08 2.91613E-07
 -1       276-9.91187E+06-1.81745E+06-2.18867E+04-4.39213E+06-3.91956E-08-3.09727E-07
 -1       277-1.05385E+07-1.20289E+06-1.13245E+04-3.56681E+06 2.83035E-08 8.55591E-07
 -1       278-9.90722E+06-1.83164E+06-8.12911E+03-4.43311E+06 6.85695E-08 7.57336E-09
 -1       279-1.05270E+07-1.21855E+06-1.40456E+04-3.58027E+06-1.43169E-07-4.26859E-07
 -1       280-9.91970E+06-1.78393E+06-2.03622E+04-4.31825E+06 2.55750E-08-8.67294E-09
 -1       281-1.04686E+07-1.28857E+06-5.87364E+04-3.64597E+06-6.77828E-08-3.63645E-07
 -1       282-9.99980E+06-1.69219E+06-1.03657E+05-4.08448E+06-9.70686E-08-2.05022E-07
 -1       283-1.03599E+07-1.37019E+06-2.22758E+05-3.75437E+06 3.33384E-08-1.67405E-07
 -1       284-1.03280E+07-1.77202E+06-5.35264E+05-3.77309E+06 8.75152E-08-3.16722E-07
 -1       285-1.01003E+07-1.26386E+06-8.73813E+05-3.91047E+06-5.92263E-08-3.57919E-07
 -1       301-7.61514E+04 1.57124E+05-1.41286E+05 1.92754E+06 8.14907E-09 8.74279E-08
 -1       302-6.15746E+04 1.15237E+05-5.19898E+04 2.82224E+06-1.97178E-08 3.09446E-08
 -1       303-2.81730E+04 1.01970E+05 1.46174E+04 1.92462E+06-8.59291E-09-1.06392E-07
 -1       304-1.97399E+04 1.62644E+05 9.35120E+04 2.82147E+06-5.85569E-08-5.35380E-07
 -1       305-3.45263E+04 1.23666E+05 1.79629E+05 1.92962E+06-9.90985E-09 2.53320E-07
 -1       306-4.26015E+07-5.32262E+07-2.74081E+07-3.12226E+07 1.79745E-07-1.87487E-07
 -1       307 1.56651E+07 1.19331E+08 2.11852E+07 3.25497E+07 1.40863E-06-1.49227E-06
 -1       308-3.88415E+06-3.64241E+07-9.81050E+06 6.37392E+06 8.14616E-08 1.99769E-07
 -1       309 9.35130E+06 2.93115E+07 8.12511E+06-4.36401E+07 1.18074E-07 7.55354E-07
 -1       310 1.94469E+06-3.42080E+06 1.12000E+06 8.59436E+06 5.83241E-08 3.81027E-07
 -1       311-3.97100E+06 7.28434E+07 1.21841E+07-1.81320E+07-6.95058E-07 1.13994E-06
 -1       312-1.21031E+07-5.87169E+07-1.80107E+07-1.21470E+07-4.88042E-07-3.74741E-07
 -1       313 7.18379E+07 8.78630E+07 2.52771E+07 7.02337E+07 5.09899E-08-5.94882E-07
 -1       314-6.85562E+07-2.11920E+07-2.37389E+07-2.24497E+07 2.37487E-08-8.73115E-09
 -1       315 1.25074E+08 4.10566E+06 2.08672E+07-5.91671E+06 3.99014E-07 1.98605E-07
 -1       316-2.89393E+07-1.15925E+07-9.44711E+06 1.53457E+07 7.11414E-07 8.57748E-07
 -1       317-8.75887E+05 3.94162E+07 8.11338E+06-3.93355E+07-1.58779E-06 1.45286E-07
 -1       318 2.79538E+06-4.45738E+06 7.50065E+05 8.11104E+06 7.45174E-07 2.17115E-07
 -1       319 5.09373E+07 2.17199E+07 1.22278E+07-3.96230E+07 6.33154E-08 4.28816E-07
 -1       320-6.14378E+07-1.38791E+07-2.10050E+07 7.42443E+06-1.99303E-07-5.48316E-08
 -1       336-2.78762E+03 2.73702E+06 2.34403E+04 3.11078E+03 5.61931E-09-6.70298E-10
 -1       337 8.88977E+03 2.74581E+06 3.61996E+04-7.29093E+03 1.02154E-08-2.61025E-09
 -1       338-4.83471E+03 2.73511E+06 5.63601E+04 4.18039E+03 7.91260E-09-4.90400E-09
 -1       339 6.29376E+04 2.77871E+06 1.33645E+05-9.59719E+03 1.25165E-08-9.01764E-09
 -1       340-4.49316E+04 2.70416E+06 2.08509E+05 5.35519E+03 9.19681E-09-9.73159E-09
 -1       406-9.37182E+01 4.05750E+05 6.84704E+02-4.91103E+00 2.50247E-09-4.69663E-09
 -1       407 1.26442E+02 4.05903E+05 1.46760E+03-2.84109E+01 4.32749E-10-6.28643E-09
 -1       408 6.36660E+02 4.05643E+05 2.92373E+03 3.33161E+01 2.89083E-09-4.44925E-09
 -1       409 3.06327E+03 4.06836E+05 6.59405E+03-3.62758E+02 3.94721E-10-3.70619E-09
 -1       410 9.00696E+03 4.04796E+05 1.34565E+04 3.51440E+02 3.44880E-09 3.47427E-10
 -1       521-4.25302E+07-5.22279E+07-2.87983E+07-2.74505E+07 1.95578E-07-8.02451E-07
 -1       522 1.28264E+07 1.20969E+08 1.99048E+07 3.18664E+07 1.20458E-06-1.01002E-06
 -1       523-4.79232E+06-3.34043E+07-9.61731E+06 5.85034E+06 7.15052E-07-3.22005E-07
 -1       524 9.93164E+06 2.56173E+07 7.83199E+06-4.69576E+07-4.65574E-07 1.28837E-06
 -1       525 2.20876E+06-3.86443E+06 1.40320E+06 8.05508E+06-1.05239E-07 1.18499E-06
 -1       526-4.96129E+06 7.31287E+07 1.17945E+07-2.16035E+07-6.16070E-07 1.83471E-07
 -1       527-1.40168E+07-5.55727E+07-1.87535E+07-1.05924E+07-8.85157E-07 3.46452E-07
 -1       528 7.20218E+07 8.89310E+07 2.38884E+07 7.32393E+07-2.71015E-07-4.50644E-07
 -1       529-6.58007E+07-2.31491E+07-2.50982E+07-1.96019E+07 4.09316E-07-3.28757E-07
 -1       530 1.26357E+08 2.23221E+06 1.96803E+07-8.62850E+06 2.97441E-07-2.21189E-09
 -1       531-2.66067E+07-1.19421E+07-9.29607E+06 1.38223E+07 7.41216E-07 3.69037E-07
 -1       532-6.61141E+06 4.22615E+07 7.83790E+06-4.02970E+07-1.82260E-06 3.10363E-07
 -1       533 2.23813E+06-4.01974E+06 1.01383E+06 7.89774E+06-1.03971E-06 7.88394E-07
 -1       534 4.82260E+07 2.37934E+07 1.18024E+07-4.28013E+07 1.00295E-06-6.14964E-07
 -1       535-5.79647E+07-1.62092E+07-2.19534E+07 7.08878E+06 1.86032E-07-5.05359E-07
 -1       536 3.57261E+06-1.20277E+05 2.78592E+05-2.06842E+04-2.45670E-08-5.48607E-09
 -1       537 3.69594E+06 1.39249E+05 1.97453E+05 8.27010E+03 5.27328E-09-4.96584E-09
 -1       538 3.62067E+06-1.88011E+04 7.23249E+04-6.52127E+03 6.64741E-10-1.38971E-09
 -1       539 3.64043E+06 2.17885E+04 4.55077E+04-6.09883E+03-2.61708E-09 1.80989E-09
 -1       540 3.62838E+06-2.93685E+03 1.87489E+04-6.31768E+03 6.92477E-10 6.83940E-10
 -1       541 3.63155E+06 3.49272E+03 1.13832E+04-6.30705E+03-3.16264E-08 1.16836E-09
 -1       542 3.62964E+06-5.20780E+02 5.94156E+03-6.31324E+03-9.44223E-06-1.84054E-08
 -1       543 3.63033E+06 1.11349E+03 5.39350E+03-6.31156E+03-1.88305E-05-3.52465E-08
 -1       544 3.62962E+06-5.59312E+02 6.28919E+03-6.31320E+03-9.43999E-06-1.83336E-08
 -1       545 3.63173E+06 3.82399E+03 1.23879E+04-6.31178E+03-2.70728E-08 5.01086E-09
 -1       546 3.62822E+06-3.22934E+03 2.05573E+04-6.31298E+03-3.20838E-10 1.31058E-09
 -1       547 3.64151E+06 2.39648E+04 5.00154E+04-6.48542E+03 2.68856E-09 1.52795E-09
 -1       548 3.61974E+06-2.06828E+04 7.95226E+04-6.13936E+03 5.91319E-09 1.63709E-09
 -1       549 3.70229E+06 1.53230E+05 2.17106E+05-2.05398E+04 4.19520E-09 1.16415E-10
 -1       550 3.56716E+06-1.32361E+05 3.06437E+05 7.74024E+03-1.56766E-09 3.04135E-09
 -1       551-1.78090E+04 1.66276E+05-2.67510E+04-1.55312E+06 1.08203E-08-1.16415E-10
 -1       552-1.69879E+03 1.48907E+05 1.05008E+04-2.21181E+06 3.20142E-10 2.04091E-09
 -1       553 7.05936E+02 1.43926E+05 4.75143E+04-1.55008E+06 5.50062E-09 1.40426E-09
 -1       554 2.60235E+04 1.91416E+05 1.21397E+05-2.21073E+06 6.06815E-09-1.16415E-09
 -1       555 1.49849E+04 1.50329E+05 2.19372E+05-1.55469E+06 1.55924E-08 2.59024E-09
 -1       556-1.16707E+05-2.45146E+04-5.75658E+04-3.46699E+04-1.40062E-09-9.11223E-09
 -1       557-1.28753E+05-2.18836E+04-2.99477E+04-4.09920E+04-2.87582E-09-1.40244E-09
 -1       558-1.20630E+05-1.47205E+04-1.27146E+04-4.12669E+04 4.63842E-09-1.26056E-09
 -1       559-1.22110E+05-1.40632E+04-6.26214E+03-4.06855E+04-3.75803E-09-5.42332E-09
 -1       560-1.20977E+05-1.45643E+04-2.94662E+03-4.15476E+04 6.87578E-10 5.20049E-09
 -1       561-1.21700E+05-1.37337E+04-1.43381E+03-4.05694E+04-5.08044E-09-6.09361E-11
 -1       562-1.21035E+05-1.46077E+04-7.58209E+02-4.15691E+04 9.34961E-10 5.27507E-09
 -1       563-1.21690E+05-1.37117E+04-3.95220E+02-4.05444E+04 2.47383E-10-5.78439E-10
 -1       564-1.21051E+05-1.46143E+04-3.23547E+02-4.15853E+04-2.32103E-09-3.58887E-09
 -1       565-1.21724E+05-1.36821E+04-2.95070E+02-4.05337E+04-1.67347E-10-1.30603E-09
 -1       566-1.21060E+05-1.46170E+04-5.08194E+02-4.16099E+04 1.22964E-09-1.45701E-09
 -1       567-1.21841E+05-1.36679E+04-8.90333E+02-4.05131E+04-9.31323E-10-1.89084E-09
 -1       568-1.21000E+05-1.46552E+04-1.80029E+03-4.16195E+04-6.53017E-09 2.24827E-09
 -1       569-1.23197E+05-1.42797E+04-4.08028E+03-4.00816E+04-1.28748E-08-2.53840E-09
 -1       570-1.20110E+05-1.63340E+04-7.86041E+03-4.11925E+04-8.57835E-09-3.78895E-09
 -1       571 2.82017E+05 8.81940E+03 1.33005E+04-5.87305E+04-1.02236E-08-3.53066E-09
 -1       572 2.84002E+05 2.95540E+03 6.51708E+03-6.43292E+04-2.35068E-08-2.85831E-09
 -1       573 2.82795E+05 5.95295E+02 2.89477E+03-5.85369E+04-4.45743E-09-4.68390E-10
 -1       574 2.83033E+05 8.45884E+01 1.45057E+03-6.45291E+04 1.15979E-08 3.59250E-11
 -1       575 2.82868E+05-1.06203E+02 6.82970E+02-5.85124E+04 6.38966E-09 2.33649E-09
 -1       576 2.82889E+05-1.39866E+02 3.46793E+02-6.45557E+04 4.62001E-09 1.99816E-09
 -1       577 2.82870E+05-1.37380E+02 1.68733E+02-5.85092E+04-1.45408E-08 3.81715E-09
 -1       578 2.82866E+05-1.45811E+02 8.78556E+01-6.45589E+04-3.51351E-08 5.11591E-10
 -1       579 2.82877E+05-1.35289E+02 4.59762E+01-5.85092E+04-2.04859E-08-9.89075E-10
 -1       580 2.82878E+05-1.50768E+02 2.99120E+01-6.45559E+04 5.02428E-09 3.16504E-10
 -1       581 2.82901E+05-1.45235E+02 2.58917E+01-5.85122E+04-4.34738E-09-7.67159E-10
 -1       582 2.82915E+05-1.63079E+02 3.87244E+01-6.45253E+04-1.66074E-09 1.28193E-09
 -1       583 2.82939E+05-1.51913E+02 6.61500E+01-5.85396E+04 5.36602E-10-1.16052E-09
 -1       584 2.82990E+05-1.24066E+02 1.46183E+02-6.42941E+04-7.51106E-09 5.97765E-10
 -1       585 2.82974E+05 6.83680E+00 2.91407E+02-5.87436E+04-1.54887E-09-1.40062E-10
 -1       586-5.11374E+03 8.05850E+04-7.85953E+03-1.72000E+05 3.65395E-09-3.82897E-10
 -1       587-1.09086E+03 7.93714E+04-2.62430E+03-1.89111E+05 6.12272E-09-3.81806E-09
 -1       588 9.07910E+02 7.98885E+04 1.29593E+03-1.71819E+05 4.74756E-09-4.54634E-10
 -1       589 3.86694E+03 8.09791E+04 6.19549E+03-1.89084E+05 7.19228E-09 2.52999E-09
 -1       590 1.02681E+04 7.90080E+04 1.41040E+04-1.72000E+05 4.44652E-09 8.64020E-11
 -1       591-5.77585E+04-1.94916E+04-2.18760E+04-3.34283E+04 4.26746E-09 6.45741E-10
 -1       592-5.90209E+04-2.56464E+04-1.18483E+04-4.00102E+04-3.51974E-10-8.43363E-09
 -1       593-5.99837E+04-1.78682E+04-4.93316E+03-3.50025E+04-8.64702E-10-1.11163E-09
 -1       594-5.59660E+04-2.24779E+04-2.45994E+03-4.01816E+04 2.31466E-09 8.19142E-10
 -1       595-6.01571E+04-1.78579E+04-1.13069E+03-3.50767E+04 3.74507E-09 1.38607E-09
 -1       596-5.57625E+04-2.23318E+04-5.76176E+02-4.01635E+04-1.46770E-09 1.31092E-09
 -1       597-6.01799E+04-1.78709E+04-3.17284E+02-3.50802E+04-1.18871E-09 2.16403E-09
 -1       598-5.57432E+04-2.23262E+04-2.61532E+02-4.01578E+04 1.13371E-09 3.24894E-09
 -1       599-6.01773E+04-1.78716E+04-3.42482E+02-3.50792E+04-1.89380E-09-1.03910E-10
 -1       600-5.57626E+04-2.23347E+04-6.42725E+02-4.01610E+04-3.35945E-09-4.99767E-10
 -1       601-6.01471E+04-1.78585E+04-1.27196E+03-3.50729E+04-3.97904E-10 2.42517E-09
 -1       602-5.59899E+04-2.25000E+04-2.77310E+03-4.01772E+04 4.10364E-09-1.77988E-09
 -1       603-5.99483E+04-1.78738E+04-5.56325E+03-3.49889E+04-8.17636E-10-1.45610E-09
 -1       604-5.94410E+04-2.60639E+04-1.33611E+04-3.99698E+04-2.10844E-09 4.70891E-09
 -1       605-5.74264E+04-1.97121E+04-2.46688E+04-3.32214E+04-1.08571E-09 1.89175E-10
 -1       606 4.93656E+04-1.35713E+04-2.45425E+04 4.87856E+04-1.06684E-08-3.65617E-10
 -1       607 4.51476E+04-4.31137E+03-1.22176E+04 5.47444E+04-2.11003E-09-2.79579E-09
 -1       608 4.74904E+04-6.67138E+02-5.47761E+03 4.83846E+04 8.26549E-09 1.34696E-09
 -1       609 4.69807E+04-7.27804E+01-2.76427E+03 5.51690E+04-5.38239E-09-1.27329E-09
 -1       610 4.72110E+04 1.46067E+02-1.32516E+03 4.83402E+04-1.50649E-08-1.13323E-09
 -1       611 4.70816E+04 2.08769E+02-6.67357E+02 5.52150E+04-2.69429E-08 2.44927E-09
 -1       612 4.71017E+04 1.99301E+02-3.23208E+02 4.83358E+04-1.11522E-08-9.56788E-10
 -1       613 4.70263E+04 2.49833E+02-1.48325E+02 5.52199E+04-1.81399E-08-1.19007E-09
 -1       614 4.70291E+04 2.25729E+02-4.74923E+01 4.83344E+04-2.33740E-09-7.93079E-10
 -1       615 4.69689E+04 2.80205E+02 3.49734E+01 5.52202E+04 1.64691E-08 5.18867E-10
 -1       616 4.69747E+04 2.52689E+02 1.29239E+02 4.83348E+04-8.37736E-09 7.70342E-10
 -1       617 4.69462E+04 3.30545E+02 3.06432E+02 5.52189E+04-1.46201E-09-2.49793E-09
 -1       618 4.69201E+04 3.58538E+02 6.20722E+02 4.83348E+04 1.33150E-09-1.39607E-09
 -1       619 4.71424E+04 8.24587E+02 1.39680E+03 5.52171E+04 6.07997E-10 2.29738E-09
 -1       620 4.66998E+04 1.84217E+03 2.80763E+03 4.83301E+04 4.01656E-09 5.45242E-10
 -1       621 7.49089E+02 3.33401E+05 5.95021E+03-6.85293E+03-1.31945E-09-1.21190E-10
 -1       622 8.30493E+02 3.34875E+05 4.60531E+03-9.74163E+03-1.29376E-09-2.91038E-10
 -1       623 5.21836E+01 3.33890E+05 4.71292E+03-6.82229E+03-1.46031E-09 2.71541E-09
 -1       624 2.01259E+03 3.35959E+05 8.44177E+03-9.77674E+03-1.12607E-09 2.20348E-09
 -1       625 2.00145E+03 3.32310E+05 1.44357E+04-6.81373E+03-1.32422E-09-5.30633E-10
 -1       626 2.52486E+05 7.60503E+04 4.58735E+03 1.44859E+05-9.94987E-09 1.18125E-08
 -1       627 2.48253E+05 7.94539E+04 2.21310E+03 1.51082E+05-1.62781E-08 2.53731E-08
 -1       628 2.52673E+05 7.38272E+04 9.30785E+02 1.45454E+05-7.09406E-11 6.14227E-09
 -1       629 2.47466E+05 7.90220E+04 4.58732E+02 1.51430E+05 1.20599E-08 4.57817E-09
 -1       630 2.52648E+05 7.37409E+04 2.10170E+02 1.45440E+05-1.13087E-08-1.18962E-09
 -1       631 2.47336E+05 7.90333E+04 1.15175E+02 1.51410E+05-3.04490E-08-2.83887E-09
 -1       632 2.52605E+05 7.37664E+04 7.72937E+01 1.45409E+05-3.14485E-08-1.26648E-08
 -1       633 2.47290E+05 7.90534E+04 9.08372E+01 1.51381E+05-1.13560E-08-2.50304E-09
 -1       634 2.52568E+05 7.37785E+04 1.49301E+02 1.45388E+05 1.58716E-08 2.74304E-09
 -1       635 2.47278E+05 7.90635E+04 3.05644E+02 1.51367E+05 1.00445E-08-2.94676E-10
 -1       636 2.52540E+05 7.37842E+04 6.17518E+02 1.45376E+05-5.08317E-09 9.10450E-09
 -1       637 2.47395E+05 7.91652E+04 1.35733E+03 1.51354E+05 5.00336E-09 1.65983E-09
 -1       638 2.52484E+05 7.40880E+04 2.78926E+03 1.45234E+05 6.35026E-09-1.42613E-08
 -1       639 2.48854E+05 8.12062E+04 6.59770E+03 1.50924E+05 8.43283E-09-1.08366E-08
 -1       640 2.52305E+05 8.01471E+04 1.36907E+04 1.42645E+05 2.91902E-09-5.62704E-09
 -1       656 7.14912E+04-1.79682E+06-1.72501E+05 2.68083E+03 1.83354E-09-1.56666E-09
 -1       657-9.44303E+04-1.87449E+06-1.42493E+05 1.48393E+04 4.58385E-10-4.25715E-10
 -1       658 2.25926E+04-1.81902E+06-8.72049E+04-2.96727E+02 3.20711E-09 2.22471E-10
 -1       659-1.00683E+05-1.87748E+06-1.50701E+05 1.66549E+04 6.49015E-09 9.42602E-10
 -1       660 7.77333E+04-1.79384E+06-1.86590E+05 8.65256E+02-1.01863E-10-3.01975E-09
 -1       661 3.03422E+05 3.38186E+04 2.82365E+04 1.19087E+05 6.34327E-09-1.12595E-09
 -1       662 3.17860E+05 5.62289E+04 1.90259E+04 1.14488E+05 3.37695E-09-8.59177E-09
 -1       663 3.08975E+05 4.28665E+04 6.65594E+03 1.17469E+05-3.76872E-10-2.43176E-09
 -1       664 3.11424E+05 4.56477E+04 3.97921E+03 1.16466E+05 1.31490E-09-3.77543E-09
 -1       665 3.09817E+05 4.41020E+04 1.56928E+03 1.17223E+05-2.73315E-09-4.40474E-09
 -1       666 3.10427E+05 4.42370E+04 9.14309E+02 1.16792E+05-2.19550E-08 2.79314E-11
 -1       667 3.09967E+05 4.42397E+04 4.80099E+02 1.17158E+05-6.24243E-09 4.87272E-11
 -1       668 3.10254E+05 4.41425E+04 4.77815E+02 1.16893E+05 1.91743E-08-3.39895E-10
 -1       669 3.09989E+05 4.41928E+04 6.36613E+02 1.17122E+05 1.20543E-08-2.27070E-09
 -1       670 3.10387E+05 4.45043E+04 1.37765E+03 1.16922E+05 3.03508E-08 3.32159E-09
 -1       671 3.09835E+05 4.38845E+04 2.44250E+03 1.17126E+05 4.13023E-09 7.07132E-10
 -1       672 3.11784E+05 4.69057E+04 6.24672E+03 1.16608E+05-3.36455E-09-2.61605E-09
 -1       673 3.08600E+05 4.18509E+04 1.04672E+04 1.17413E+05-3.04897E-09-2.43563E-09
 -1       674 3.21726E+05 6.37381E+04 2.99317E+04 1.13703E+05 6.47231E-09-1.79170E-09
 -1       675 2.99957E+05 2.75217E+04 4.44303E+04 1.19853E+05 2.83580E-09-1.77897E-09
 -1       676 3.12534E+01-3.61528E+05-1.43201E+03 2.61776E+02-2.11975E-09 1.34614E-09
 -1       677-3.76824E+02-3.61878E+05-2.62091E+03-5.22994E+02-1.50142E-08-2.44924E-09
 -1       678 2.54344E+02-3.61282E+05-4.63316E+03 2.61042E+02-2.50907E-09 5.46592E-10
 -1       679-4.63163E+03-3.64675E+05-1.10068E+04-5.20470E+02-1.94740E-08-3.78820E-09
 -1       680 2.76694E+03-3.58733E+05-1.77391E+04 2.56223E+02-1.74532E-09-9.96721E-10
 -1       771-3.94416E+06-5.11569E+05-2.12284E+05-1.38498E+06 4.50382E-09 1.15724E-08
 -1       772-4.01678E+06-5.08406E+05-1.14775E+05-1.37661E+06 4.00178E-09 6.71389E-09
 -1       773-3.96420E+06-4.97585E+05-4.81432E+04-1.40278E+06 1.41154E-09 1.86628E-09
 -1       774-3.99157E+06-4.74006E+05-2.38268E+04-1.37522E+06-9.91349E-09-4.83124E-09
 -1       775-3.96566E+06-4.97924E+05-1.11911E+04-1.40508E+06 5.89353E-10-7.23958E-10
 -1       776-3.99242E+06-4.70398E+05-5.40165E+03-1.37382E+06 3.96176E-09 4.34011E-09
 -1       777-3.96584E+06-4.98305E+05-2.82728E+03-1.40648E+06 4.22006E-10 9.60426E-10
 -1       778-3.99465E+06-4.68528E+05-1.48282E+03-1.37289E+06 7.71252E-10-1.26056E-09
 -1       779-3.96590E+06-4.98503E+05-1.20491E+03-1.40764E+06 1.38243E-09-1.92995E-09
 -1       780-3.99666E+06-4.67062E+05-1.33506E+03-1.37224E+06 1.45519E-10 6.39830E-10
 -1       781-3.96592E+06-4.98605E+05-2.33558E+03-1.40855E+06 7.00675E-09-3.91083E-10
 -1       782-3.99853E+06-4.66263E+05-4.73990E+03-1.37184E+06 7.95262E-09-2.72007E-09
 -1       783-3.96565E+06-4.98677E+05-9.45320E+03-1.40903E+06 7.28869E-09 8.11860E-09
 -1       784-4.00521E+06-4.71795E+05-2.26430E+04-1.37140E+06 4.22915E-09-8.77890E-10
 -1       785-3.96160E+06-5.01644E+05-4.18093E+04-1.40624E+06 5.81804E-09-3.94175E-09
 -1       786 3.45501E+05-1.55399E+04 3.59577E+04 5.82211E+02 5.04295E-09-2.49565E-09
 -1       787 3.61084E+05 1.79913E+04 2.54400E+04 8.95603E+01-1.13189E-09-1.92813E-09
 -1       788 3.51516E+05-2.43555E+03 9.30854E+03 4.73670E+02 6.68097E-10 1.06820E-09
 -1       789 3.54080E+05 2.81905E+03 5.85064E+03 2.42157E+02 7.69972E-08 1.15563E-09
 -1       790 3.52509E+05-3.80210E+02 2.38478E+03 4.29634E+02 2.32827E-05-2.38813E-08
 -1       791 3.52923E+05 4.43764E+02 1.40802E+03 2.99997E+02 4.63965E-05-5.27637E-08
 -1       792 3.52674E+05-6.20490E+01 6.58007E+02 4.15831E+02 1.33107E-05-1.44309E-08
 -1       793 3.52740E+05 9.55274E+01 4.62424E+02 3.06716E+02-1.98091E-05 2.29435E-08
 -1       794 3.52692E+05-3.22002E+01 3.90334E+02 4.22916E+02-9.97332E-06 8.74497E-09
 -1       795 3.52785E+05 1.87211E+02 6.33584E+02 2.67400E+02-3.02553E-08 1.07235E-09
 -1       796 3.52629E+05-1.53672E+02 9.90767E+02 4.55148E+02-6.64748E-10-1.55921E-10
 -1       797 3.53248E+05 1.13515E+03 2.37061E+03 1.57755E+02-4.66527E-09 1.85170E-09
 -1       798 3.52229E+05-9.79456E+02 3.75248E+03 5.32562E+02-2.39357E-09-2.52248E-09
 -1       799 3.56073E+05 7.23870E+03 1.02412E+04-9.32413E+01-4.65236E-09-3.09319E-09
 -1       800 3.49802E+05-6.25234E+03 1.44655E+04 7.06138E+02-6.07791E-10-7.96717E-10
 -1       801-3.49896E+05 8.73230E+06 8.45971E+05-1.06512E+04 4.24916E-09-2.81375E-09
 -1       802 4.80501E+05 9.12491E+06 7.32284E+05-7.26348E+04 8.83301E-09-3.89616E-09
 -1       803-1.29375E+05 8.83372E+06 4.93314E+05-4.99238E+04 1.40426E-09-5.33910E-09
 -1       804 6.28344E+05 9.19150E+06 9.25624E+05-5.36051E+04 5.33328E-09-9.33653E-09
 -1       805-4.97367E+05 8.66547E+06 1.18221E+06-2.96749E+04-1.45519E-09 5.42238E-08
 -1       806-3.06512E+05-7.76917E+04-3.12802E+04-1.40048E+05 3.82533E-09-1.18234E-10
 -1       807-3.07233E+05-7.43374E+04-1.53664E+04-1.49616E+05-6.00267E-10 5.71367E-09
 -1       808-3.07468E+05-6.63299E+04-6.51819E+03-1.45299E+05-4.22779E-09-1.36274E-08
 -1       809-3.03888E+05-7.01431E+04-3.18512E+03-1.50158E+05 5.78348E-09 4.00487E-09
 -1       810-3.07623E+05-6.59201E+04-1.45785E+03-1.45532E+05-1.57343E-09 2.73144E-09
 -1       811-3.03637E+05-6.99796E+04-7.20893E+02-1.50135E+05-7.32030E-10 9.02310E-09
 -1       812-3.07651E+05-6.59457E+04-3.56314E+02-1.45532E+05-1.48339E-09-3.74712E-09
 -1       813-3.03604E+05-6.99854E+04-2.18898E+02-1.50118E+05 5.49858E-09 6.78210E-09
 -1       814-3.07646E+05-6.59586E+04-1.95935E+02-1.45526E+05 5.94628E-09 9.03219E-09
 -1       815-3.03600E+05-6.99914E+04-2.96855E+02-1.50108E+05 1.13778E-09-1.15351E-08
 -1       816-3.07618E+05-6.59620E+04-5.51061E+02-1.45516E+05-1.29230E-08 4.82942E-09
 -1       817-3.03683E+05-7.00481E+04-1.17753E+03-1.50086E+05-9.92759E-09 1.52686E-08
 -1       818-3.07532E+05-6.61366E+04-2.39978E+03-1.45430E+05-4.83487E-09 7.82893E-09
 -1       819-3.05002E+05-7.14798E+04-5.64524E+03-1.49735E+05-4.98403E-10 3.63070E-09
 -1       820-3.07049E+05-7.04212E+04-1.14915E+04-1.43608E+05 6.84850E-10 8.22774E-09
 -1       821-3.86507E+05 2.21038E+04-5.20308E+04 1.52316E+03 2.04778E-09 1.38243E-10
 -1       822-4.04716E+05-2.56726E+04-3.60687E+04-8.21355E+03 3.07666E-09 1.99998E-09
 -1       823-3.93332E+05 3.54219E+03-1.33965E+04 4.06743E+03-8.68465E-09 3.07136E-09
 -1       824-3.96241E+05-4.10719E+03-8.31235E+03-1.04595E+04 2.45612E-09-4.30691E-09
 -1       825-3.95019E+05 5.87803E+02-3.53643E+03 3.76928E+03 1.39664E-08 2.77100E-09
 -1       826-3.92498E+05-6.02766E+02-1.56224E+03-7.24394E+03 1.46243E-08 2.91385E-09
 -1       827-3.97018E+05-5.33736E+00-1.52164E+03 8.51708E+02-3.26565E-10-3.58028E-09
 -1       828-3.90634E+05-3.99512E+01-7.97582E+01-4.29626E+02-2.15522E-08 4.13078E-09
 -1       829-3.96839E+05-1.05737E+01-1.48782E+03-3.04475E+03 2.34053E-09-4.46616E-09
 -1       830-3.92900E+05-5.60610E+02-1.63139E+03 6.13148E+03 1.03350E-08 1.14716E-09
 -1       831-3.94805E+05 5.58295E+02-3.49869E+03-5.70959E+03-1.78370E-08-5.15229E-09
 -1       832-3.96346E+05-4.02038E+03-8.31117E+03 8.74846E+03-9.49277E-09 4.72119E-09
 -1       833-3.93442E+05 3.48535E+03-1.34190E+04-5.66223E+03 3.59961E-10-1.28694E-09
 -1       834-4.04428E+05-2.55742E+04-3.59740E+04 5.94139E+03-2.62531E-09 4.07135E-09
 -1       835-3.86677E+05 2.20548E+04-5.20344E+04-2.90191E+03 1.05321E-08-2.32103E-09
 -1       836-1.28763E+03 4.10273E+05 2.41895E+04-4.72343E+04 8.52469E-09 1.77806E-09
 -1       837 5.64604E+03 4.17592E+05 2.06129E+04-9.43420E+04 1.07725E-08 1.49475E-09
 -1       838-3.52431E+02 4.12330E+05 2.11814E+04-4.71048E+04 9.29504E-09 5.16877E-09
 -1       839 1.38855E+04 4.23728E+05 4.02421E+04-9.43548E+04 1.12777E-08-2.67289E-09
 -1       840-3.93981E+03 4.04072E+05 6.42302E+04-4.72117E+04 8.46194E-09 1.01682E-09
 -1       856-1.68521E+05 1.23017E+04-3.24287E+04-1.01895E+03-5.00188E-09 6.27551E-10
 -1       857-1.81929E+05-1.44097E+04-2.23254E+04 6.63345E+03-3.99154E-09-2.05955E-09
 -1       858-1.73811E+05 1.72037E+03-8.41730E+03-1.07448E+03-9.30430E-09-4.11183E-09
 -1       859-1.75858E+05-1.97965E+03-5.08430E+03 6.72633E+03 4.12820E-09-3.16334E-09
 -1       860-1.74601E+05 2.36161E+02-2.14110E+03-1.11268E+03 1.01392E-09-3.06636E-09
 -1       861-1.74950E+05-2.39147E+02-1.19838E+03 6.77900E+03-1.95234E-08-5.00040E-09
 -1       862-1.74723E+05 2.86764E+01-5.39819E+02-1.12731E+03 1.43192E-08-4.76834E-09
 -1       863-1.74808E+05 2.61418E+00-2.91230E+02 6.78465E+03 3.17180E-08-5.18926E-09
 -1       864-1.74744E+05-1.35582E-01-1.40700E+02-1.11835E+03 1.45723E-08-3.83123E-09
 -1       865-1.74778E+05 3.13644E+01-8.23226E+01 6.74223E+03 1.44564E-08-5.10298E-09
 -1       866-1.74749E+05-2.54380E+00-5.81618E+01-1.08487E+03-4.90763E-09-3.05637E-09
 -1       867-1.74767E+05 1.30538E+01-6.98787E+01 6.65169E+03 2.53127E-09-1.95051E-09
 -1       868-1.74746E+05 1.17544E+01-1.03284E+02-1.02777E+03 6.11112E-09-2.59949E-09
 -1       869-1.74808E+05-1.25949E+02-2.41721E+02 6.50905E+03-9.72500E-09-4.59266E-09
 -1       870-1.74696E+05 1.23795E+02-3.61885E+02-9.42180E+02 1.01579E-09-3.66069E-09
 -1       871-6.26947E+03-8.80835E+03-1.89768E+04 1.21769E+05 3.60342E-09-1.04019E-08
 -1       872-3.03531E+03-1.29700E+04-7.61528E+03 1.57863E+05 1.57452E-08-1.17834E-08
 -1       873-4.25944E+02-1.11390E+04 1.38921E+03 1.21508E+05 4.57885E-09-6.07497E-09
 -1       874 2.58964E+03-8.11170E+03 1.14237E+04 1.57933E+05 1.48520E-08-2.48451E-09
 -1       875 6.87815E+03-1.38022E+04 2.51229E+04 1.21742E+05 7.62702E-09-4.16276E-09
 -1       876 3.23795E+05 5.69248E+04 1.78409E+04 1.32708E+05-6.40944E-09 1.53341E-09
 -1       877 3.24677E+05 6.09837E+04 9.52790E+03 1.38118E+05-1.91399E-08-3.57545E-09
 -1       878 3.25455E+05 5.49566E+04 3.99120E+03 1.34177E+05 1.24473E-08 4.82396E-09
 -1       879 3.22246E+05 5.85681E+04 1.98834E+03 1.38240E+05 1.35879E-09-5.36380E-09
 -1       880 3.25572E+05 5.49379E+04 9.25007E+02 1.34236E+05 7.81210E-09-1.86469E-09
 -1       881 3.22083E+05 5.84647E+04 4.91985E+02 1.38210E+05 1.42463E-08-1.89922E-09
 -1       882 3.25582E+05 5.49546E+04 3.10773E+02 1.34237E+05 1.66888E-08 1.22225E-09
 -1       883 3.22071E+05 5.84595E+04 3.28017E+02 1.38200E+05 7.10543E-09-4.90559E-10
 -1       884 3.25574E+05 5.49521E+04 5.16012E+02 1.34237E+05 3.57488E-09 4.46937E-09
 -1       885 3.22111E+05 5.84667E+04 1.03382E+03 1.38212E+05 8.53677E-09 2.55847E-09
 -1       886 3.25534E+05 5.49216E+04 2.08167E+03 1.34233E+05 1.01395E-08-2.51384E-09
 -1       887 3.22477E+05 5.87066E+04 4.54616E+03 1.38266E+05-2.51802E-08-6.09157E-09
 -1       888 3.25249E+05 5.49705E+04 9.15993E+03 1.34087E+05-2.31915E-09 1.16734E-09
 -1       889 3.27940E+05 6.43691E+04 2.18812E+04 1.38092E+05 9.49333E-09 6.92307E-09
 -1       890 3.21529E+05 5.93935E+04 4.09827E+04 1.30582E+05 4.19823E-09 3.44880E-09
 -1       891-3.21922E+02-1.86810E+05-2.16624E+03 3.81796E+04 4.00519E-09 1.09490E-08
 -1       892-5.37219E+02-1.87257E+05-2.36967E+03 5.76263E+04-5.35056E-09 1.40499E-08
 -1       893-1.90627E+02-1.86861E+05-3.40300E+03 3.81867E+04 1.37970E-09 3.52793E-09
 -1       894-2.06729E+03-1.88530E+05-7.07261E+03 5.74219E+04-1.56888E-09-1.26784E-09
 -1       895-1.61281E+03-1.85357E+05-1.24748E+04 3.83759E+04 1.50499E-09 5.76529E-09
 -1       956-4.02339E+05-5.94795E+03-1.51210E+04 2.43997E+04-1.16606E-08-5.09772E-10
 -1       957-4.05339E+05-1.95094E+03-7.76183E+03 2.94506E+04-2.29556E-09 6.82121E-12
 -1       958-4.03688E+05-9.96310E+01-3.49783E+03 2.42097E+04 9.20591E-09-1.47838E-09
 -1       959-4.03945E+05 5.37318E+01-1.78599E+03 2.96464E+04-2.12276E-09 2.51862E-09
 -1       960-4.03816E+05 1.17712E+02-8.70816E+02 2.41908E+04-1.15415E-08 1.48248E-10
 -1       961-4.03852E+05 1.34362E+02-4.60614E+02 2.96682E+04-2.28265E-08 3.84739E-09
 -1       962-4.03847E+05 1.16148E+02-2.61814E+02 2.41871E+04-1.04183E-08 1.30149E-09
 -1       963-4.03855E+05 1.40415E+02-2.06001E+02 2.96737E+04-1.29351E-08 4.87989E-09
 -1       964-4.03858E+05 1.22352E+02-2.45362E+02 2.41851E+04-2.38242E-09 2.03272E-10
 -1       965-4.03875E+05 1.47887E+02-4.19741E+02 2.96754E+04 8.15578E-09 2.96154E-09
 -1       966-4.03849E+05 1.36051E+02-7.85686E+02 2.41853E+04-3.47061E-09-2.87400E-10
 -1       967-4.03982E+05 8.79358E+01-1.61039E+03 2.96679E+04 1.04148E-08 2.65550E-09
 -1       968-4.03752E+05-4.79909E+01-3.15103E+03 2.41932E+04 3.69255E-09-5.13523E-10
 -1       969-4.05262E+05-1.70807E+03-6.99665E+03 2.95819E+04-1.97815E-11 1.12422E-09
 -1       970-4.02551E+05-5.31269E+03-1.36280E+04 2.42868E+04 3.69619E-09-4.62933E-10
 -1       971-3.90203E+05-2.09058E+03-1.19328E+04 1.95071E+04-1.95387E-08 2.56858E-09
 -1       972-3.93131E+05-1.44846E+03-6.49694E+03 2.75004E+04-2.14241E-08-1.72531E-09
 -1       973-3.91541E+05 4.87703E+01-2.91047E+03 1.93300E+04-1.87765E-08 2.96177E-09
 -1       974-3.91776E+05 8.47879E+01-1.50646E+03 2.76877E+04-7.54335E-09-1.94655E-09
 -1       975-3.91653E+05 1.11391E+02-7.50859E+02 1.93118E+04-2.69665E-09 5.33646E-10
 -1       976-3.91705E+05 1.53447E+02-4.27397E+02 2.77105E+04-1.32368E-08-2.48019E-09
 -1       977-3.91679E+05 1.15441E+02-3.01027E+02 1.93066E+04 5.27461E-09 2.46359E-09
 -1       978-3.91716E+05 1.63856E+02-3.39115E+02 2.77179E+04 3.05545E-08-3.05704E-09
 -1       979-3.91682E+05 1.26538E+02-5.34110E+02 1.93043E+04 1.58873E-08 1.96178E-09
 -1       980-3.91757E+05 1.68074E+02-1.02457E+03 2.77192E+04 1.84519E-08-2.19211E-09
 -1       981-3.91649E+05 1.51584E+02-1.98127E+03 1.93051E+04 1.69825E-09 1.96212E-09
 -1       982-3.92025E+05 1.99412E+01-4.09351E+03 2.77093E+04-6.34918E-09-1.04433E-09
 -1       983-3.91396E+05 2.20197E+01-7.95362E+03 1.93151E+04 3.62525E-09 7.00766E-10
 -1       984-3.95842E+05-4.13867E+03-1.78108E+04 2.75927E+04-5.04133E-09-6.72912E-10
 -1       985-3.87789E+05-5.80122E+03-3.27071E+04 1.94471E+04 9.44783E-09 1.69166E-09
 -3
    1PSTEP                        39          20           1          
  100CL  120 8.10848E-01         409                     0   20           1
 -4  DISP        4    1
 -5  D1          1    2    1    0
 -5  D2          1    2    2    0
 -5  D3          1    2    3    0
 -5  ALL         1    2    0    0    1ALL
 -1         1 7.17150E-03 0.00000E+00 0.00000E+00
 -1         2 9.48860E-03-6.02633E-27 5.29396E-23
 -1         3-1.43475E-05-1.21859E-28 2.64698E-23
 -1         5 4.58040E-05 1.41734E-27-1.32349E-23
 -1         8 7.14104E-03-2.49970E-06 0.00000E+00
 -1         9 7.29502E-03-5.13868E-04 0.00000E+00
 -1        10-8.09539E-06 5.73810E-06-1.32349E-23
 -1        12 4.34503E-05 8.48853E-07 0.00000E+00
 -1        15 7.10730E-03-2.63805E-06 0.00000E+00
 -1        16 7.24527E-03-5.14092E-04 0.00000E+00
 -1        17 1.41890E-05 1.18463E-05 0.00000E+00
 -1        18 3.48239E-05-1.84628E-05 0.00000E+00
 -1        19 3.63879E-05 1.68965E-06 0.00000E+00
 -1        20 3.66053E-05 4.34519E-05 0.00000E+00
 -1        21 3.58693E-05 8.59709E-05 0.00000E+00
 -1        24 2.40455E-05 1.21687E-05 0.00000E+00
 -1        25 2.45768E-05-1.83056E-05 0.00000E+00
 -1        26 2.65148E-05 2.37676E-06 0.00000E+00
 -1        27 2.41648E-05 3.96895E-05 0.00000E+00
 -1        28 2.31310E-05 8.52037E-05 0.00000E+00
 -1        32 0.00000E+00 0.00000E+00 0.00000E+00
 -1        33 1.41214E-05 3.20820E-06 0.00000E+00
 -1        34 1.18302E-05 3.96513E-05 0.00000E+00
 -1        35 9.58975E-06 8.48000E-05 0.00000E+00
 -1        51 7.16941E-03-4.19018E-07 1.32349E-23
 -1        52 7.16562E-03-8.27893E-07 0.00000E+00
 -1        53 7.16051E-03-1.23798E-06 0.00000E+00
 -1        54 7.15445E-03-1.65153E-06-3.72231E-24
 -1        55 7.14784E-03-2.06956E-06 1.32349E-23
 -1        56 7.17062E-03-6.70560E-06-5.29396E-23
 -1        57 7.17400E-03-2.54736E-05 5.29396E-23
 -1        58 7.18177E-03-5.67982E-05 0.00000E+00
 -1        59 7.19362E-03-1.00315E-04-5.29396E-23
 -1        60 7.20873E-03-1.53898E-04-1.05879E-22
 -1        61 7.22612E-03-2.14695E-04 0.00000E+00
 -1        62 7.24454E-03-2.78796E-04-1.05879E-22
 -1        63 7.26269E-03-3.42050E-04 0.00000E+00
 -1        64 7.27932E-03-4.00431E-04 0.00000E+00
 -1        65 7.29324E-03-4.50270E-04 0.00000E+00
 -1        66 7.30354E-03-4.89143E-04-1.05879E-22
 -1        67 7.30955E-03-5.15424E-04 5.29396E-23
 -1        68 7.31116E-03-5.29291E-04 0.00000E+00
 -1        69 7.30863E-03-5.31792E-04-2.64698E-23
 -1        70 7.30280E-03-5.25588E-04 0.00000E+00
 -1        86 9.34462E-03-1.54934E-05-1.05879E-22
 -1        87 8.94327E-03-1.01697E-04 2.64698E-23
 -1        88 8.40757E-03-2.51819E-04 0.00000E+00
 -1        89 7.86713E-03-4.04825E-04 1.32349E-23
 -1        90 7.45357E-03-4.96039E-04 5.29396E-23
 -1       121-1.41771E-05 9.56705E-07 2.64698E-23
 -1       122-1.36645E-05 1.91331E-06 1.32349E-23
 -1       123-1.28067E-05 2.86972E-06 2.64698E-23
 -1       124-1.15980E-05 3.82596E-06 1.32349E-23
 -1       125-1.00309E-05 4.78164E-06-2.64698E-23
 -1       191 4.57386E-05 1.41576E-07 0.00000E+00
 -1       192 4.55425E-05 2.83135E-07 0.00000E+00
 -1       193 4.52157E-05 4.24661E-07 0.00000E+00
 -1       194 4.47580E-05 5.66135E-07 0.00000E+00
 -1       195 4.41696E-05 7.07539E-07 0.00000E+00
 -1       251 7.15072E-03-1.06270E-05 0.00000E+00
 -1       252 7.16045E-03-4.07143E-05-1.05879E-22
 -1       253 7.16991E-03-7.90677E-05 0.00000E+00
 -1       254 7.17949E-03-1.15969E-04 0.00000E+00
 -1       255 7.18910E-03-1.52321E-04 4.23516E-22
 -1       256 7.19873E-03-1.88773E-04 2.11758E-22
 -1       257 7.20835E-03-2.25263E-04 0.00000E+00
 -1       258 7.21797E-03-2.61745E-04 0.00000E+00
 -1       259 7.22760E-03-2.98228E-04 0.00000E+00
 -1       260 7.23723E-03-3.34720E-04 0.00000E+00
 -1       261 7.24685E-03-3.71166E-04 0.00000E+00
 -1       262 7.25646E-03-4.07490E-04-1.05879E-22
 -1       263 7.26605E-03-4.44483E-04 0.00000E+00
 -1       264 7.27550E-03-4.83240E-04 0.00000E+00
 -1       265 7.28527E-03-5.11922E-04 2.11758E-22
 -1       266 7.13542E-03-2.54638E-06-1.32349E-23
 -1       267 7.12980E-03-2.56656E-06-3.30872E-24
 -1       268 7.12417E-03-2.58841E-06 0.00000E+00
 -1       269 7.11855E-03-2.60530E-06 0.00000E+00
 -1       270 7.11293E-03-2.62207E-06-8.27181E-25
 -1       271 7.13711E-03-4.25250E-06-2.11758E-22
 -1       272 7.13739E-03-1.79052E-05 0.00000E+00
 -1       273 7.14175E-03-4.30100E-05 0.00000E+00
 -1       274 7.14969E-03-7.85635E-05 0.00000E+00
 -1       275 7.16058E-03-1.22957E-04 0.00000E+00
 -1       276 7.17366E-03-1.74114E-04 5.29396E-23
 -1       277 7.18813E-03-2.29567E-04 1.05879E-22
 -1       278 7.20310E-03-2.86614E-04-5.29396E-23
 -1       279 7.21769E-03-3.42465E-04 0.00000E+00
 -1       280 7.23103E-03-3.94391E-04-5.29396E-23
 -1       281 7.24228E-03-4.39892E-04 0.00000E+00
 -1       282 7.25067E-03-4.76815E-04 5.29396E-23
 -1       283 7.25556E-03-5.03499E-04 0.00000E+00
 -1       284 7.25645E-03-5.18823E-04 5.29396E-23
 -1       285 7.25300E-03-5.22321E-04-1.05879E-22
 -1       301 7.28429E-03-5.13900E-04 0.00000E+00
 -1       302 7.27670E-03-5.13920E-04 0.00000E+00
 -1       303 7.27063E-03-5.13930E-04 0.00000E+00
 -1       304 7.26446E-03-5.13946E-04 0.00000E+00
 -1       305 7.25655E-03-5.13984E-04 0.00000E+00
 -1       306 7.14286E-03-2.70567E-04-2.11758E-22
 -1       307 6.64365E-03 2.89092E-04 0.00000E+00
 -1       308 5.71569E-03 9.95213E-04-2.11758E-22
 -1       309 4.46206E-03 1.68885E-03 5.29396E-23
 -1       310 3.09111E-03 2.35903E-03-1.05879E-22
 -1       311 1.83667E-03 3.05758E-03 1.05879E-22
 -1       312 8.85733E-04 3.76211E-03 0.00000E+00
 -1       313 3.33214E-04 4.35351E-03 0.00000E+00
 -1       314 1.69655E-04 4.61398E-03 0.00000E+00
 -1       315 1.98506E-04 4.44774E-03 0.00000E+00
 -1       316 2.34811E-04 3.82562E-03-2.11758E-22
 -1       317 1.57842E-04 2.89690E-03-5.29396E-23
 -1       318 2.03189E-05 1.86103E-03 0.00000E+00
 -1       319-5.61077E-05 9.22814E-04 5.29396E-23
 -1       320-3.17924E-05 2.62441E-04 0.00000E+00
 -1       336-5.72759E-06 6.76887E-06 0.00000E+00
 -1       337-2.85682E-06 7.79914E-06 1.32349E-23
 -1       338 5.40412E-07 8.82695E-06 2.64698E-23
 -1       339 4.49176E-06 9.84769E-06-1.32349E-23
 -1       340 9.02912E-06 1.08665E-05 1.32349E-23
 -1       406 4.26002E-05 9.90051E-07 0.00000E+00
 -1       407 4.16192E-05 1.13109E-06 0.00000E+00
 -1       408 4.05072E-05 1.27190E-06 0.00000E+00
 -1       409 3.92643E-05 1.41231E-06 3.30872E-24
 -1       410 3.78909E-05 1.55200E-06 6.61744E-24
 -1       521 7.09180E-03-2.71873E-04 2.11758E-22
 -1       522 6.59293E-03 2.85882E-04 0.00000E+00
 -1       523 5.67011E-03 9.90728E-04 0.00000E+00
 -1       524 4.43024E-03 1.68666E-03-5.29396E-23
 -1       525 3.07489E-03 2.36127E-03 1.05879E-22
 -1       526 1.83100E-03 3.06141E-03 1.05879E-22
 -1       527 8.86626E-04 3.76444E-03 0.00000E+00
 -1       528 3.37085E-04 4.35280E-03 0.00000E+00
 -1       529 1.74854E-04 4.60854E-03 0.00000E+00
 -1       530 2.03049E-04 4.43779E-03-1.05879E-22
 -1       531 2.38352E-04 3.81462E-03 0.00000E+00
 -1       532 1.64306E-04 2.89185E-03 5.29396E-23
 -1       533 3.13609E-05 1.86289E-03 1.05879E-22
 -1       534-4.41328E-05 9.27098E-04-5.29396E-23
 -1       535-2.09371E-05 2.65998E-04-2.11758E-22
 -1       536 1.54278E-05 7.28121E-06 0.00000E+00
 -1       537 1.67179E-05 4.50308E-06 0.00000E+00
 -1       538 1.80074E-05 2.60025E-06 0.00000E+00
 -1       539 1.93054E-05 7.13570E-07-1.32349E-23
 -1       540 2.06037E-05-1.16518E-06-5.29396E-23
 -1       541 2.19037E-05-3.04379E-06 2.64698E-23
 -1       542 2.32039E-05-4.92234E-06-5.29396E-23
 -1       543 2.45044E-05-6.80090E-06 2.64698E-23
 -1       544 2.58049E-05-8.67944E-06 0.00000E+00
 -1       545 2.71050E-05-1.05580E-05 0.00000E+00
 -1       546 2.84050E-05-1.24365E-05-5.29396E-23
 -1       547 2.97030E-05-1.43148E-05 0.00000E+00
 -1       548 3.10007E-05-1.61857E-05 2.64698E-23
 -1       549 3.22890E-05-1.80414E-05 0.00000E+00
 -1       550 3.35814E-05-1.90830E-05 2.64698E-23
 -1       551 1.68396E-05 1.19130E-05 0.00000E+00
 -1       552 1.75253E-05 1.19811E-05 3.30872E-24
 -1       553 1.74127E-05 1.20493E-05 0.00000E+00
 -1       554 1.76792E-05 1.21121E-05 0.00000E+00
 -1       555 1.95019E-05 1.21657E-05 0.00000E+00
 -1       556 1.61060E-05 6.58773E-06-6.61744E-24
 -1       557 1.78358E-05 1.80402E-06 0.00000E+00
 -1       558 1.93888E-05-2.50554E-06 0.00000E+00
 -1       559 2.07674E-05-6.34737E-06 0.00000E+00
 -1       560 2.19742E-05-9.72747E-06 0.00000E+00
 -1       561 2.30117E-05-1.26522E-05 0.00000E+00
 -1       562 2.38821E-05-1.51282E-05 0.00000E+00
 -1       563 2.45877E-05-1.71619E-05 0.00000E+00
 -1       564 2.51307E-05-1.87598E-05 0.00000E+00
 -1       565 2.55135E-05-1.99287E-05 0.00000E+00
 -1       566 2.57383E-05-2.06750E-05 0.00000E+00
 -1       567 2.58074E-05-2.10055E-05 0.00000E+00
 -1       568 2.57232E-05-2.09269E-05 0.00000E+00
 -1       569 2.54881E-05-2.04460E-05 0.00000E+00
 -1       570 2.51046E-05-1.95695E-05 0.00000E+00
 -1       571 3.49190E-05-1.70648E-05-2.06795E-24
 -1       572 3.50159E-05-1.57321E-05 1.24077E-24
 -1       573 3.51135E-05-1.44552E-05-1.65436E-24
 -1       574 3.52114E-05-1.32240E-05 0.00000E+00
 -1       575 3.53095E-05-1.20284E-05 0.00000E+00
 -1       576 3.54076E-05-1.08583E-05 0.00000E+00
 -1       577 3.55058E-05-9.70333E-06 0.00000E+00
 -1       578 3.56039E-05-8.55339E-06 0.00000E+00
 -1       579 3.57021E-05-7.39822E-06 0.00000E+00
 -1       580 3.58003E-05-6.22762E-06-1.65436E-24
 -1       581 3.58984E-05-5.03139E-06 0.00000E+00
 -1       582 3.59965E-05-3.79930E-06 3.30872E-24
 -1       583 3.60945E-05-2.52116E-06 0.00000E+00
 -1       584 3.61924E-05-1.18689E-06 0.00000E+00
 -1       585 3.62902E-05 2.13593E-07 6.61744E-24
 -1       586 3.31556E-05-1.84344E-05-3.30872E-24
 -1       587 3.14327E-05-1.84074E-05 0.00000E+00
 -1       588 2.96840E-05-1.83808E-05 8.27181E-25
 -1       589 2.79389E-05-1.83547E-05-2.06795E-25
 -1       590 2.62270E-05-1.83292E-05 0.00000E+00
 -1       591 3.42632E-05-1.70393E-05-2.06795E-25
 -1       592 3.37260E-05-1.56891E-05-4.13590E-25
 -1       593 3.32111E-05-1.43991E-05 0.00000E+00
 -1       594 3.27139E-05-1.31574E-05 0.00000E+00
 -1       595 3.22302E-05-1.19517E-05-8.27181E-25
 -1       596 3.17554E-05-1.07701E-05 0.00000E+00
 -1       597 3.12852E-05-9.60046E-06 0.00000E+00
 -1       598 3.08149E-05-8.43077E-06 0.00000E+00
 -1       599 3.03400E-05-7.24895E-06 8.27181E-25
 -1       600 2.98560E-05-6.04296E-06 2.06795E-25
 -1       601 2.93585E-05-4.80077E-06-8.27181E-25
 -1       602 2.88429E-05-3.51029E-06 0.00000E+00
 -1       603 2.83047E-05-2.15948E-06-5.16988E-26
 -1       604 2.77397E-05-7.36227E-07 0.00000E+00
 -1       605 2.71432E-05 7.71493E-07 0.00000E+00
 -1       606 3.64081E-05 3.39008E-06 0.00000E+00
 -1       607 3.64245E-05 5.26519E-06 0.00000E+00
 -1       608 3.64397E-05 7.30474E-06 0.00000E+00
 -1       609 3.64541E-05 9.49714E-06-3.30872E-24
 -1       610 3.64682E-05 1.18308E-05 0.00000E+00
 -1       611 3.64818E-05 1.42940E-05 0.00000E+00
 -1       612 3.64951E-05 1.68748E-05 0.00000E+00
 -1       613 3.65082E-05 1.95615E-05 0.00000E+00
 -1       614 3.65210E-05 2.23424E-05 0.00000E+00
 -1       615 3.65336E-05 2.52055E-05 0.00000E+00
 -1       616 3.65460E-05 2.81391E-05 0.00000E+00
 -1       617 3.65582E-05 3.11315E-05 0.00000E+00
 -1       618 3.65703E-05 3.41707E-05 0.00000E+00
 -1       619 3.65822E-05 3.72451E-05 0.00000E+00
 -1       620 3.65940E-05 4.03428E-05 0.00000E+00
 -1       621 3.47976E-05 1.80412E-06 0.00000E+00
 -1       622 3.31779E-05 1.91931E-06 1.65436E-24
 -1       623 3.15343E-05 2.03447E-06-3.30872E-24
 -1       624 2.98722E-05 2.14944E-06 0.00000E+00
 -1       625 2.81972E-05 2.26420E-06 0.00000E+00
 -1       626 3.58658E-05 3.42160E-06 0.00000E+00
 -1       627 3.52885E-05 5.30212E-06 0.00000E+00
 -1       628 3.46602E-05 7.31859E-06 0.00000E+00
 -1       629 3.39858E-05 9.45741E-06 0.00000E+00
 -1       630 3.32703E-05 1.17050E-05 0.00000E+00
 -1       631 3.25191E-05 1.40477E-05 0.00000E+00
 -1       632 3.17371E-05 1.64717E-05-6.61744E-24
 -1       633 3.09295E-05 1.89633E-05 0.00000E+00
 -1       634 3.01016E-05 2.15090E-05 6.61744E-24
 -1       635 2.92585E-05 2.40949E-05 0.00000E+00
 -1       636 2.84053E-05 2.67074E-05 0.00000E+00
 -1       637 2.75472E-05 2.93328E-05-1.65436E-24
 -1       638 2.66893E-05 3.19575E-05-3.30872E-24
 -1       639 2.58366E-05 3.45676E-05 0.00000E+00
 -1       640 2.49940E-05 3.71496E-05 0.00000E+00
 -1       656 3.38396E-05 4.28387E-05-6.61744E-24
 -1       657 3.16650E-05 4.22020E-05-6.61744E-24
 -1       658 2.98586E-05 4.15678E-05 1.32349E-23
 -1       659 2.81882E-05 4.09343E-05-6.61744E-24
 -1       660 2.63802E-05 4.02986E-05-6.61744E-24
 -1       661 3.55821E-05 4.65273E-05 0.00000E+00
 -1       662 3.45907E-05 4.95334E-05 0.00000E+00
 -1       663 3.36248E-05 5.24709E-05-3.30872E-24
 -1       664 3.26847E-05 5.53430E-05 0.00000E+00
 -1       665 3.17687E-05 5.81513E-05-3.30872E-24
 -1       666 3.08761E-05 6.08980E-05 1.65436E-24
 -1       667 3.00063E-05 6.35846E-05 3.30872E-24
 -1       668 2.91587E-05 6.62127E-05 1.65436E-24
 -1       669 2.83327E-05 6.87831E-05 3.30872E-24
 -1       670 2.75282E-05 7.12969E-05 0.00000E+00
 -1       671 2.67448E-05 7.37547E-05 3.30872E-24
 -1       672 2.59821E-05 7.61568E-05 1.65436E-24
 -1       673 2.52404E-05 7.85033E-05 3.30872E-24
 -1       674 2.45183E-05 8.07938E-05 0.00000E+00
 -1       675 2.38178E-05 8.30284E-05 8.27181E-25
 -1       676 3.37372E-05 8.58422E-05-3.30872E-24
 -1       677 3.16067E-05 8.57136E-05 1.65436E-24
 -1       678 2.94792E-05 8.55851E-05-3.30872E-24
 -1       679 2.73564E-05 8.54570E-05 0.00000E+00
 -1       680 2.52399E-05 8.53289E-05-3.30872E-24
 -1       771 2.51398E-05 4.54576E-06 0.00000E+00
 -1       772 2.57337E-05-1.82752E-06-2.64698E-23
 -1       773 2.58802E-05-6.99728E-06 5.29396E-23
 -1       774 2.56019E-05-1.10324E-05-2.64698E-23
 -1       775 2.49267E-05-1.40026E-05 0.00000E+00
 -1       776 2.38820E-05-1.59835E-05 2.64698E-23
 -1       777 2.24963E-05-1.70534E-05 0.00000E+00
 -1       778 2.07999E-05-1.72944E-05 0.00000E+00
 -1       779 1.88237E-05-1.67909E-05 5.29396E-23
 -1       780 1.66002E-05-1.56305E-05 2.64698E-23
 -1       781 1.41628E-05-1.39024E-05 5.29396E-23
 -1       782 1.15458E-05-1.16985E-05 0.00000E+00
 -1       783 8.78422E-06-9.11162E-06-5.29396E-23
 -1       784 5.91433E-06-6.23623E-06 0.00000E+00
 -1       785 2.97191E-06-3.16779E-06-5.29396E-23
 -1       786 2.46919E-05-1.68847E-05 0.00000E+00
 -1       787 2.48128E-05-1.55466E-05 0.00000E+00
 -1       788 2.49334E-05-1.42683E-05 3.30872E-24
 -1       789 2.50551E-05-1.30276E-05 0.00000E+00
 -1       790 2.51769E-05-1.18132E-05 0.00000E+00
 -1       791 2.52989E-05-1.06138E-05 1.65436E-24
 -1       792 2.54210E-05-9.42279E-06 0.00000E+00
 -1       793 2.55431E-05-8.23362E-06 0.00000E+00
 -1       794 2.56652E-05-7.04014E-06 3.30872E-24
 -1       795 2.57873E-05-5.83626E-06-1.65436E-24
 -1       796 2.59094E-05-4.61280E-06 0.00000E+00
 -1       797 2.60313E-05-3.36041E-06 0.00000E+00
 -1       798 2.61532E-05-2.06121E-06 0.00000E+00
 -1       799 2.62745E-05-6.97036E-07 0.00000E+00
 -1       800 2.63959E-05 7.69610E-07-3.30872E-24
 -1       801 2.21729E-05-1.53113E-05 0.00000E+00
 -1       802 1.80366E-05-1.22034E-05 0.00000E+00
 -1       803 1.31569E-05-9.10798E-06 5.29396E-23
 -1       804 8.41171E-06-6.02267E-06 2.64698E-23
 -1       805 3.95866E-06-2.92368E-06 0.00000E+00
 -1       806 2.39242E-05-1.69453E-05 0.00000E+00
 -1       807 2.32856E-05-1.56375E-05 1.65436E-24
 -1       808 2.26614E-05-1.43704E-05 0.00000E+00
 -1       809 2.20479E-05-1.31334E-05-1.65436E-24
 -1       810 2.14415E-05-1.19160E-05 0.00000E+00
 -1       811 2.08384E-05-1.07075E-05 0.00000E+00
 -1       812 2.02346E-05-9.49729E-06 0.00000E+00
 -1       813 1.96262E-05-8.27493E-06 0.00000E+00
 -1       814 1.90093E-05-7.02979E-06 0.00000E+00
 -1       815 1.83798E-05-5.75136E-06 0.00000E+00
 -1       816 1.77338E-05-4.42909E-06 0.00000E+00
 -1       817 1.70674E-05-3.05242E-06-1.65436E-24
 -1       818 1.63766E-05-1.61083E-06-3.30872E-24
 -1       819 1.56576E-05-9.38365E-08 8.27181E-25
 -1       820 1.49066E-05 1.50908E-06 0.00000E+00
 -1       821 2.63861E-05 3.05313E-06 0.00000E+00
 -1       822 2.62487E-05 1.73534E-06 0.00000E+00
 -1       823 2.61093E-05-9.26558E-07 0.00000E+00
 -1       824 2.59664E-05-4.27397E-06 1.65436E-24
 -1       825 2.58239E-05-7.45963E-06 0.00000E+00
 -1       826 2.56838E-05-9.63715E-06 0.00000E+00
 -1       827 2.55455E-05-1.02392E-05 3.30872E-24
 -1       828 2.54062E-05-8.70820E-06 0.00000E+00
 -1       829 2.52618E-05-5.07627E-06-3.30872E-24
 -1       830 2.51082E-05 6.11562E-07-1.65436E-24
 -1       831 2.49459E-05 7.74199E-06 0.00000E+00
 -1       832 2.47780E-05 1.56926E-05 0.00000E+00
 -1       833 2.46103E-05 2.36141E-05-3.30872E-24
 -1       834 2.44505E-05 3.06572E-05-1.65436E-24
 -1       835 2.42991E-05 3.62150E-05-8.27181E-25
 -1       836 2.46578E-05 2.51546E-06 0.00000E+00
 -1       837 2.25998E-05 2.65689E-06 0.00000E+00
 -1       838 2.04287E-05 2.79789E-06 0.00000E+00
 -1       839 1.82331E-05 2.93796E-06-8.27181E-25
 -1       840 1.61013E-05 3.07794E-06 0.00000E+00
 -1       856 2.41067E-05 4.22102E-05 0.00000E+00
 -1       857 2.40429E-05 4.49010E-05-4.13590E-25
 -1       858 2.39791E-05 4.77350E-05 1.65436E-24
 -1       859 2.39139E-05 5.06856E-05 0.00000E+00
 -1       860 2.38485E-05 5.37254E-05 1.65436E-24
 -1       861 2.37827E-05 5.68271E-05 0.00000E+00
 -1       862 2.37168E-05 5.99633E-05 0.00000E+00
 -1       863 2.36508E-05 6.31062E-05 0.00000E+00
 -1       864 2.35848E-05 6.62282E-05 1.65436E-24
 -1       865 2.35190E-05 6.93018E-05 8.27181E-25
 -1       866 2.34534E-05 7.22995E-05 0.00000E+00
 -1       867 2.33881E-05 7.51939E-05-8.27181E-25
 -1       868 2.33232E-05 7.79582E-05-1.65436E-24
 -1       869 2.32587E-05 8.05654E-05 0.00000E+00
 -1       870 2.31946E-05 8.29892E-05 0.00000E+00
 -1       871 2.19426E-05 3.96872E-05 8.27181E-25
 -1       872 1.98714E-05 3.96819E-05 0.00000E+00
 -1       873 1.78884E-05 3.96763E-05 0.00000E+00
 -1       874 1.59297E-05 3.96699E-05 3.10193E-25
 -1       875 1.39314E-05 3.96628E-05 1.24077E-24
 -1       876 2.33593E-05 4.22219E-05-3.30872E-24
 -1       877 2.25259E-05 4.48372E-05 0.00000E+00
 -1       878 2.16653E-05 4.75253E-05 3.30872E-24
 -1       879 2.07811E-05 5.02767E-05 0.00000E+00
 -1       880 1.98767E-05 5.30820E-05 0.00000E+00
 -1       881 1.89555E-05 5.59317E-05-1.65436E-24
 -1       882 1.80211E-05 5.88163E-05 0.00000E+00
 -1       883 1.70771E-05 6.17266E-05 1.65436E-24
 -1       884 1.61269E-05 6.46531E-05 0.00000E+00
 -1       885 1.51741E-05 6.75864E-05 0.00000E+00
 -1       886 1.42222E-05 7.05171E-05 0.00000E+00
 -1       887 1.32747E-05 7.34359E-05 1.65436E-24
 -1       888 1.23351E-05 7.63332E-05 3.30872E-24
 -1       889 1.14063E-05 7.91997E-05 0.00000E+00
 -1       890 1.04921E-05 8.20257E-05 0.00000E+00
 -1       891 2.10609E-05 8.51365E-05-1.65436E-24
 -1       892 1.89623E-05 8.50690E-05-8.27181E-25
 -1       893 1.68006E-05 8.50014E-05 8.27181E-25
 -1       894 1.45410E-05 8.49338E-05 0.00000E+00
 -1       895 1.21487E-05 8.48661E-05-8.27181E-25
 -1       956 1.39816E-05 5.10548E-06 0.00000E+00
 -1       957 1.38392E-05 7.09685E-06 8.27181E-25
 -1       958 1.36963E-05 9.17353E-06 0.00000E+00
 -1       959 1.35530E-05 1.13262E-05 0.00000E+00
 -1       960 1.34095E-05 1.35454E-05 0.00000E+00
 -1       961 1.32658E-05 1.58218E-05-1.65436E-24
 -1       962 1.31219E-05 1.81460E-05 3.30872E-24
 -1       963 1.29780E-05 2.05084E-05-1.65436E-24
 -1       964 1.28340E-05 2.28997E-05 3.30872E-24
 -1       965 1.26900E-05 2.53103E-05 0.00000E+00
 -1       966 1.25460E-05 2.77308E-05 3.30872E-24
 -1       967 1.24020E-05 3.01518E-05 0.00000E+00
 -1       968 1.22581E-05 3.25637E-05 3.30872E-24
 -1       969 1.21145E-05 3.49572E-05-1.65436E-24
 -1       970 1.19713E-05 3.73228E-05 3.30872E-24
 -1       971 1.16929E-05 4.20238E-05 3.30872E-24
 -1       972 1.15534E-05 4.45248E-05 0.00000E+00
 -1       973 1.14134E-05 4.71400E-05 0.00000E+00
 -1       974 1.12730E-05 4.98547E-05 1.65436E-24
 -1       975 1.11323E-05 5.26542E-05 3.30872E-24
 -1       976 1.09913E-05 5.55237E-05-1.65436E-24
 -1       977 1.08502E-05 5.84483E-05 0.00000E+00
 -1       978 1.07090E-05 6.14131E-05 0.00000E+00
 -1       979 1.05677E-05 6.44034E-05-3.30872E-24
 -1       980 1.04264E-05 6.74042E-05-1.65436E-24
 -1       981 1.02852E-05 7.04008E-05-3.30872E-24
 -1       982 1.01441E-05 7.33782E-05 0.00000E+00
 -1       983 1.00033E-05 7.63216E-05-3.30872E-24
 -1       984 9.86318E-06 7.92162E-05 0.00000E+00
 -1       985 9.72381E-06 8.20471E-05 3.30872E-24
 -3
    1PSTEP                        40          20           1          
  100CL  120 8.10848E-01         409                     0   20           1
 -4  STRESS      6    1
 -5  SXX         1    4    1    1
 -5  SYY         1    4    2    2
 -5  SZZ         1    4    3    3
 -5  SXY         1    4    1    2
 -5  SYZ         1    4    2    3
 -5  SZX         1    4    3    1
 -1         1-4.01195E+06-1.68039E+06-7.68380E+05-1.72528E+06 1.49885E-09 2.77563E-07
 -1         2 5.09030E+06 5.93968E+07 1.30406E+07-2.29076E+07-3.15486E-08-2.45185E-07
 -1         3-9.77714E+01 2.74183E+06-4.59530E+02-7.23601E+02-3.46887E-10 1.12441E-08
 -1         5-1.21706E+02 4.05592E+05 1.05354E+01 1.86935E+00 7.10214E-10-8.87667E-10
 -1         8 5.30538E+06 8.32561E+05 1.57522E+06-1.96501E+06-1.54832E-08-2.02330E-07
 -1         9 2.85883E+07 3.66398E+07 1.00247E+07 1.58085E+07 3.12924E-08-9.85339E-08
 -1        10 2.11199E+03 2.85720E+06 8.69262E+03-5.31920E+03 3.24326E-09 7.46599E-09
 -1        12-1.17699E+02 4.05615E+05 3.49190E+02 1.24750E+01 6.76920E-10 2.36469E-09
 -1        15 3.91164E+03 2.14969E+03 1.26444E+04 9.51238E+00-1.84457E-09 1.19189E-06
 -1        16 3.27540E+07 3.83016E+07 9.48264E+06 3.58623E+07 3.16650E-08-1.46994E-07
 -1        17 3.46934E+07-5.41520E+05 4.53051E+06-5.71077E+06 3.77438E-08-5.70475E-08
 -1        18 1.01503E+06 2.39208E+05 2.18736E+05-7.74068E+04 3.06636E-09-5.67525E-10
 -1        19 1.24530E+05 1.54675E+05-2.17880E+02 2.55357E+04-2.36687E-09-4.00178E-10
 -1        20-3.35937E+04-5.89952E+05-1.28926E+05 5.27902E+04 1.01609E-08-5.10530E-09
 -1        21-5.65782E+01-3.62045E+05-1.18969E+03-5.29411E+02-2.46930E-08-1.17298E-08
 -1        24 5.63056E+07-3.32268E+06 6.50290E+06-9.98740E+06 1.61657E-07 4.47932E-08
 -1        25 4.58750E+05 1.88145E+06 4.77561E+05-8.68167E+04 1.31113E-09 9.45656E-09
 -1        26-5.79101E+03 1.13335E+05-1.63688E+04-2.58879E+04 2.75759E-09-3.52316E-10
 -1        27-9.79743E+04-3.25143E+05-1.22432E+05 7.43958E+04 1.05607E-08-3.68709E-09
 -1        28 2.86367E+04-9.76332E+04 2.03858E+04 3.55146E+04 5.68204E-09-5.46198E-09
 -1        32-3.31753E+05 4.47860E+06 1.63159E+06-6.89429E+05 3.37604E-09 7.74658E-08
 -1        33-1.81356E+05 9.95521E+04 3.49049E+04-6.84560E+04 4.73256E-09-9.00400E-11
 -1        34-2.45298E+05-2.32511E+04 4.47191E+02 7.16112E+04 1.43954E-08 2.12367E-09
 -1        35-2.88948E+04-3.87303E+04-1.52577E+03 6.31353E+04 1.85012E-08-3.81988E-09
 -1        51 3.56182E+04-1.10636E+06 8.26620E+04-1.27832E+06-2.35741E-09-1.40935E-07
 -1        52 1.97066E+04-1.10140E+06 4.98952E+04-1.49203E+06 1.00408E-09-4.47966E-07
 -1        53 1.25486E+04-1.12345E+06 3.56790E+04-1.27398E+06 1.49885E-09-1.36512E-07
 -1        54 2.99112E+04-1.12265E+06 4.90162E+04-1.49607E+06-1.73168E-09-1.11526E-07
 -1        55 5.37206E+04-1.13949E+06 8.21728E+04-1.27357E+06 2.76486E-10 4.62402E-07
 -1        56-7.59417E+06-8.39332E+05-5.97463E+05-2.85683E+06-1.42609E-09 4.26429E-07
 -1        57-7.77597E+06-1.17691E+06-3.65303E+05-2.60882E+06 1.25001E-08 4.09855E-08
 -1        58-7.86867E+06-8.60455E+05-1.56161E+05-2.61961E+06 1.00736E-08-1.40135E-07
 -1        59-7.42202E+06-1.24139E+06-6.55968E+04-3.04768E+06 1.24364E-08-2.61574E-07
 -1        60-7.97711E+06-7.47698E+05-3.76052E+04-2.44235E+06 3.03226E-08-3.18401E-07
 -1        61-7.33845E+06-1.36147E+06-1.44185E+04-3.31554E+06 9.68575E-08-1.56655E-07
 -1        62-8.00244E+06-7.04255E+05-7.70890E+03-2.38344E+06-2.65873E-08 2.48292E-07
 -1        63-7.34133E+06-1.34113E+06-3.83122E+03-3.28420E+06-1.10285E-08-1.88124E-07
 -1        64-7.96695E+06-7.73010E+05-2.14275E+04-2.46935E+06 3.43607E-08 1.98090E-07
 -1        65-7.43499E+06-1.16608E+06-9.38552E+03-2.97634E+06-4.46780E-08 3.87759E-07
 -1        66-7.85494E+06-9.16967E+05-6.98449E+04-2.65708E+06-1.67638E-08 3.15631E-07
 -1        67-7.72513E+06-9.16521E+05-1.00284E+05-2.56694E+06 1.23327E-09 7.29797E-07
 -1        68-7.65897E+06-1.03615E+06-2.22968E+05-2.86353E+06 9.94987E-09 2.83253E-07
 -1        69-8.28952E+06-9.52724E+05-5.75868E+05-2.20370E+06-5.94264E-09 2.07227E-07
 -1        70-7.33672E+06-8.59761E+05-8.74620E+05-3.04587E+06 2.22499E-08-4.65661E-07
 -1        86-5.16456E+06-3.45217E+07-7.33173E+06 1.04687E+07 3.96765E-07-3.49435E-07
 -1        87 9.26977E+06 1.75258E+07 5.91165E+06-1.50844E+07 7.54604E-07 4.14075E-08
 -1        88-2.19499E+06 1.18734E+06 6.16690E+05 4.57262E+06 6.02013E-07 1.33419E-07
 -1        89 1.14401E+07 1.71381E+07 6.02001E+06-1.55100E+07 1.01048E-06-4.92189E-07
 -1        90-7.13980E+06-3.42677E+07-8.32888E+06 1.10119E+07 1.86541E-07 3.08064E-07
 -1       121-5.52095E+01 2.74198E+06-5.82302E+02 3.61868E+02-3.70548E-10 6.97310E-09
 -1       122-3.04424E+02 2.74171E+06-1.03545E+03-1.45535E+03 1.02735E-09 1.68802E-09
 -1       123 8.89041E+01 2.74212E+06-1.79624E+03 1.09397E+03-9.91236E-10 8.71296E-10
 -1       124-2.82153E+03 2.74021E+06-4.52727E+03-2.83674E+03 1.71912E-09-9.56788E-10
 -1       125 1.70142E+03 2.74352E+06-6.63402E+03 1.74553E+03-1.26238E-09 5.66615E-10
 -1       191-1.28069E+02 4.05602E+05 6.81879E+00-9.93429E-01 7.50421E-10-3.57613E-09
 -1       192-1.22755E+02 4.05593E+05 2.25858E+01 5.75895E+00 1.02677E-09 1.61526E-09
 -1       193-1.30811E+02 4.05602E+05 3.63875E+01-5.12322E+00 1.29430E-09 7.04313E-09
 -1       194-1.26109E+02 4.05596E+05 8.61134E+01 1.29946E+01 7.20664E-10 3.83625E-09
 -1       195-1.36073E+02 4.05599E+05 1.62805E+02-8.61051E+00 1.95642E-09 4.67844E-09
 -1       251 2.91284E+07-1.20364E+06 2.75875E+06 8.40750E+04-1.93759E-08-9.30158E-08
 -1       252 3.07054E+07 1.44567E+06 2.01287E+06-2.08257E+06-4.97348E-08 7.77218E-07
 -1       253 2.97819E+07-1.26115E+05 7.36963E+05-1.11233E+06-3.36513E-09 4.82949E-07
 -1       254 2.99779E+07 2.24980E+05 4.54415E+05-9.65447E+05-4.92832E-09-1.66365E-07
 -1       255 2.98628E+07 9.82543E+03 1.92521E+05-1.03219E+06-1.80630E-08 2.70280E-07
 -1       256 2.98921E+07 6.66206E+04 1.14491E+05-1.04091E+06 1.05751E-08 5.75747E-07
 -1       257 2.98751E+07 3.15664E+04 5.94871E+04-1.03717E+06 8.29505E-09 2.63823E-07
 -1       258 2.98811E+07 4.42574E+04 5.00949E+04-1.03592E+06-8.85243E-08 4.34222E-07
 -1       259 2.98754E+07 3.21202E+04 5.55397E+04-1.03724E+06 6.74635E-09 2.49596E-07
 -1       260 2.98897E+07 6.19409E+04 1.02773E+05-1.04198E+06 3.76758E-09-3.84105E-07
 -1       261 2.98652E+07 1.39352E+04 1.72259E+05-1.03105E+06-3.28282E-09 1.65310E-08
 -1       262 2.99647E+07 1.92718E+05 4.01858E+05-9.51492E+05-5.28780E-09-2.21888E-07
 -1       263 2.97937E+07-9.81042E+04 6.57672E+05-1.12747E+06-3.41061E-09-2.94909E-07
 -1       264 3.07518E+07 1.30065E+06 1.81793E+06-2.31393E+06 8.06804E-08-2.52970E-07
 -1       265 2.90793E+07-1.08769E+06 2.42093E+06 3.30317E+05 1.43737E-08 2.99769E-07
 -1       266-7.08059E+04-3.30864E+04 1.66228E+05-2.03640E+02 7.27596E-11 4.34352E-07
 -1       267 8.20922E+04 3.85952E+04 1.17437E+05 2.34831E+02 1.09867E-09 1.77181E-07
 -1       268-1.10080E+04-5.46443E+03 4.36537E+04-2.99287E+01 4.20187E-10-5.20901E-07
 -1       269 1.29977E+04 6.54172E+03 2.83714E+04 3.48547E+01 3.53339E-10-1.53050E-07
 -1       270-1.95096E+03-1.07478E+03 1.36954E+04-4.73036E+00-4.85215E-10 2.66973E-07
 -1       271-1.02618E+07-1.21269E+06-8.95759E+05-3.86737E+06 7.42220E-08 1.94879E-07
 -1       272-1.03332E+07-1.87442E+06-5.44989E+05-3.91276E+06-5.20376E-08 5.56465E-08
 -1       273-1.05254E+07-1.31230E+06-2.25632E+05-3.70727E+06 1.83354E-08 1.26020E-07
 -1       274-1.00469E+07-1.77196E+06-1.06427E+05-4.24263E+06-3.82715E-08 8.32195E-07
 -1       275-1.06262E+07-1.23437E+06-5.51233E+04-3.60732E+06-2.05182E-09 1.09794E-08
 -1       276-1.00003E+07-1.83437E+06-2.17078E+04-4.45098E+06 1.21345E-07-1.63447E-07
 -1       277-1.06676E+07-1.18378E+06-1.14092E+04-3.56063E+06 7.72525E-08 3.01507E-08
 -1       278-9.99728E+06-1.85129E+06-7.93855E+03-4.50145E+06 5.37834E-08-3.73848E-07
 -1       279-1.06568E+07-1.19893E+06-1.41580E+04-3.57352E+06-5.53046E-08-7.64867E-07
 -1       280-1.00049E+07-1.80358E+06-2.00629E+04-4.37913E+06-6.56291E-09-1.23820E-06
 -1       281-1.05954E+07-1.27439E+06-6.08780E+04-3.64348E+06 8.67876E-08-1.35304E-07
 -1       282-1.00801E+07-1.70729E+06-1.03868E+05-4.12436E+06-1.12952E-07 7.15547E-07
 -1       283-1.04803E+07-1.36457E+06-2.28633E+05-3.76011E+06-1.56331E-07 2.66853E-07
 -1       284-1.04157E+07-1.77784E+06-5.40402E+05-3.78721E+06-7.23230E-09-5.57484E-07
 -1       285-1.02112E+07-1.26463E+06-8.88443E+05-3.92703E+06 2.12385E-08-3.04135E-07
 -1       301-7.56552E+04 1.08245E+05-1.55198E+05 1.96734E+06 3.57977E-09-1.86512E-07
 -1       302-5.75858E+04 5.98083E+04-5.97777E+04 2.88020E+06 1.23546E-08 4.98927E-07
 -1       303-2.38642E+04 4.89282E+04 1.01921E+04 1.96429E+06-1.68802E-08 1.18231E-07
 -1       304-1.39432E+04 1.06552E+05 8.90783E+04 2.87954E+06 4.51109E-09-1.79833E-07
 -1       305-3.14460E+04 7.18114E+04 1.73357E+05 1.96936E+06-5.09317E-09-3.62314E-07
 -1       306-4.32794E+07-5.48538E+07-2.81972E+07-3.20277E+07 1.21305E-07-1.54600E-07
 -1       307 1.58966E+07 1.23985E+08 2.18741E+07 3.25923E+07 1.39535E-06-1.28476E-06
 -1       308-4.47290E+06-3.77778E+07-1.03859E+07 7.20927E+06 1.74623E-09-1.11642E-07
 -1       309 1.18781E+07 2.84118E+07 8.38592E+06-4.46974E+07-2.50468E-07 7.87026E-07
 -1       310 1.61522E+06-2.09978E+06 1.36546E+06 8.81508E+06-6.15255E-08 2.45054E-07
 -1       311-2.73959E+06 7.18815E+07 1.22447E+07-2.15342E+07-1.11311E-06 1.28488E-06
 -1       312-1.12500E+07-6.02598E+07-1.82370E+07-1.04677E+07-5.09215E-07-4.51575E-07
 -1       313 6.89128E+07 9.41210E+07 2.57325E+07 7.08749E+07 1.31084E-07-5.92205E-07
 -1       314-6.89801E+07-2.28802E+07-2.44201E+07-2.43363E+07-1.25729E-07-6.77537E-08
 -1       315 1.29450E+08 4.40158E+06 2.15316E+07-3.26114E+06 3.72529E-07 1.63622E-07
 -1       316-3.06772E+07-1.17794E+07-1.00052E+07 1.56643E+07 5.43077E-07 8.76957E-07
 -1       317 5.34608E+05 3.96412E+07 8.37661E+06-4.03816E+07-1.48591E-06 1.55356E-07
 -1       318 3.50882E+06-4.23415E+06 9.74576E+05 8.01254E+06 1.14372E-06 2.15659E-07
 -1       319 5.06490E+07 2.24393E+07 1.23037E+07-4.04959E+07-1.11177E-08 4.48141E-07
 -1       320-6.20814E+07-1.40696E+07-2.13124E+07 7.84672E+06-2.17697E-07-4.67990E-08
 -1       336-3.02816E+03 2.96813E+06 2.53741E+04 3.57945E+03 6.50698E-09 2.03909E-09
 -1       337 9.60256E+03 2.97768E+06 3.91646E+04-8.41682E+03 1.13691E-08 3.82352E-09
 -1       338-5.23870E+03 2.96607E+06 6.09472E+04 4.83794E+03 8.18909E-09 1.13687E-09
 -1       339 6.80122E+04 3.01327E+06 1.44506E+05-1.11389E+04 1.35187E-08-4.95311E-09
 -1       340-4.85869E+04 2.93261E+06 2.25447E+05 6.22989E+03 8.68749E-09-5.91717E-09
 -1       406-9.66646E+01 4.05584E+05 6.83479E+02-4.97208E+00 2.40300E-09-8.25821E-10
 -1       407 1.23313E+02 4.05736E+05 1.46531E+03-2.87631E+01 2.82398E-10-3.71256E-09
 -1       408 6.32615E+02 4.05476E+05 2.91897E+03 3.36959E+01 2.93539E-09-1.52795E-09
 -1       409 3.05577E+03 4.06668E+05 6.58364E+03-3.67002E+02 7.45786E-11-5.04042E-09
 -1       410 8.99037E+03 4.04630E+05 1.34351E+04 3.55486E+02 3.22325E-09 1.31695E-09
 -1       521-4.32815E+07-5.38056E+07-2.96670E+07-2.81598E+07 1.80444E-07-8.92789E-07
 -1       522 1.30525E+07 1.25877E+08 2.05689E+07 3.19906E+07 1.30897E-06-5.19096E-07
 -1       523-5.44619E+06-3.46412E+07-1.02266E+07 6.60650E+06 6.08969E-07 1.28057E-09
 -1       524 1.27318E+07 2.45647E+07 8.10416E+06-4.79763E+07-3.41650E-07 1.35810E-06
 -1       525 1.92678E+06-2.59466E+06 1.65728E+06 8.30470E+06-1.30793E-07 1.27166E-06
 -1       526-3.43572E+06 7.19487E+07 1.18738E+07-2.51964E+07-2.39350E-07 5.65604E-07
 -1       527-1.32789E+07-5.69456E+07-1.89906E+07-9.04425E+06-7.89340E-07 5.60656E-07
 -1       528 6.88735E+07 9.56165E+07 2.43228E+07 7.40010E+07-5.35219E-07-4.56464E-07
 -1       529-6.63161E+07-2.47639E+07-2.58557E+07-2.13071E+07 5.47152E-08-2.75089E-07
 -1       530 1.31172E+08 2.33345E+06 2.03174E+07-5.88159E+06 6.75325E-07 2.20025E-08
 -1       531-2.81893E+07-1.22261E+07-9.88614E+06 1.41074E+07 4.83706E-07 3.42843E-07
 -1       532-5.19710E+06 4.26047E+07 8.11184E+06-4.14476E+07-1.06261E-06 3.49886E-07
 -1       533 2.93393E+06-3.78446E+06 1.24426E+06 7.80947E+06-9.05769E-07 7.72357E-07
 -1       534 4.78866E+07 2.46587E+07 1.18982E+07-4.37580E+07 8.39485E-07-6.43427E-07
 -1       535-5.85271E+07-1.64380E+07-2.22810E+07 7.49288E+06 1.70199E-07-5.20202E-07
 -1       536 3.67664E+06-1.22500E+05 2.83681E+05-2.28093E+04-2.44854E-08-5.18048E-09
 -1       537 3.80277E+06 1.41814E+05 2.01146E+05 9.51587E+03 8.17148E-09-6.92307E-09
 -1       538 3.72585E+06-1.91382E+04 7.36655E+04-6.88681E+03-1.36438E-09-3.34330E-09
 -1       539 3.74598E+06 2.21813E+04 4.63486E+04-6.56456E+03-4.20506E-10 3.34694E-10
 -1       540 3.73371E+06-2.98882E+03 1.91008E+04-6.73156E+03 5.22232E-09-1.83991E-09
 -1       541 3.73693E+06 3.55749E+03 1.16021E+04-6.72326E+03-3.25490E-08-3.32420E-10
 -1       542 3.73499E+06-5.30121E+02 6.06732E+03-6.72830E+03-9.51497E-06-1.94220E-08
 -1       543 3.73569E+06 1.14143E+03 5.52698E+03-6.72655E+03-1.89812E-05-3.56448E-08
 -1       544 3.73496E+06-5.74476E+02 6.46639E+03-6.72832E+03-9.51428E-06-2.28908E-08
 -1       545 3.73714E+06 3.93880E+03 1.27558E+04-6.72521E+03-2.72742E-08-1.61344E-09
 -1       546 3.73352E+06-3.32550E+03 2.11767E+04-6.72959E+03 3.43325E-09-3.91992E-09
 -1       547 3.74721E+06 2.46857E+04 5.15253E+04-6.83921E+03 8.63112E-09 6.90306E-10
 -1       548 3.72479E+06-2.13035E+04 8.19268E+04-6.61410E+03 8.37914E-09-1.67347E-10
 -1       549 3.80986E+06 1.57852E+05 2.23666E+05-2.16053E+04 7.29681E-09-4.36921E-09
 -1       550 3.67058E+06-1.36353E+05 3.15685E+05 8.03518E+03-4.25217E-10-1.62981E-09
 -1       551-1.86372E+04 2.26245E+05-2.52513E+04-1.55571E+06 1.25174E-08 2.35741E-09
 -1       552-3.18765E+03 2.09861E+05 1.17581E+04-2.21560E+06 1.45519E-09 1.03682E-09
 -1       553-5.88780E+02 2.04376E+05 4.89706E+04-1.55270E+06 7.24685E-09 5.96629E-10
 -1       554 2.46418E+04 2.53516E+05 1.24177E+05-2.21447E+06 5.23869E-09-3.37604E-09
 -1       555 1.40847E+04 2.10805E+05 2.24178E+05-1.55735E+06 1.72040E-08 3.30328E-09
 -1       556-1.21360E+05-2.12632E+04-6.21329E+04-2.94233E+04 3.29601E-09 4.04179E-09
 -1       557-1.35800E+05-1.69279E+04-3.23184E+04-3.45241E+04-5.34419E-09-3.45608E-09
 -1       558-1.25609E+05-1.06926E+04-1.37334E+04-3.65800E+04 4.39832E-09-2.53840E-09
 -1       559-1.28706E+05-8.44908E+03-6.76113E+03-3.41964E+04 9.45874E-11 4.17458E-10
 -1       560-1.26016E+05-1.05042E+04-3.18952E+03-3.69081E+04-1.99725E-09-2.33194E-09
 -1       561-1.28312E+05-8.07095E+03-1.54952E+03-3.40983E+04-4.83124E-09-4.43833E-10
 -1       562-1.26112E+05-1.05304E+04-8.23147E+02-3.69544E+04-1.85537E-09 5.84805E-09
 -1       563-1.28348E+05-8.02695E+03-4.25275E+02-3.40994E+04-5.98448E-10-2.83035E-09
 -1       564-1.26161E+05-1.05178E+04-3.46015E+02-3.69941E+04 3.73620E-09 4.90945E-09
 -1       565-1.28426E+05-7.97627E+03-3.06792E+02-3.41154E+04 2.55932E-09 2.21826E-09
 -1       566-1.26201E+05-1.05015E+04-5.22971E+02-3.70414E+04 9.09495E-10-1.54250E-09
 -1       567-1.28588E+05-7.94322E+03-9.07536E+02-3.41220E+04-1.60799E-09 4.93219E-09
 -1       568-1.26171E+05-1.05209E+04-1.83213E+03-3.70714E+04-6.00267E-10 4.67480E-09
 -1       569-1.29994E+05-8.56307E+03-4.15108E+03-3.37259E+04-1.96451E-09-3.58432E-09
 -1       570-1.25307E+05-1.21982E+04-7.99331E+03-3.66403E+04-2.51021E-10-3.52884E-10
 -1       571 2.82031E+05 8.78547E+03 1.32519E+04-5.82880E+04-1.94814E-09 2.36469E-09
 -1       572 2.84008E+05 2.94264E+03 6.49323E+03-6.38444E+04-2.75941E-09 1.19098E-09
 -1       573 2.82806E+05 5.91271E+02 2.88417E+03-5.80954E+04-1.13187E-08 3.70937E-09
 -1       574 2.83043E+05 8.21382E+01 1.44525E+03-6.40431E+04-2.19111E-08 4.43742E-09
 -1       575 2.82879E+05-1.07795E+02 6.80463E+02-5.80709E+04-1.02368E-08 5.76483E-09
 -1       576 2.82900E+05-1.41576E+02 3.45514E+02-6.40696E+04 1.79193E-09 4.57658E-09
 -1       577 2.82881E+05-1.38878E+02 1.68108E+02-5.80678E+04-7.50799E-09-2.91038E-11
 -1       578 2.82877E+05-1.47460E+02 8.75247E+01-6.40727E+04-1.55514E-08-2.68119E-09
 -1       579 2.82888E+05-1.36696E+02 4.58046E+01-5.80678E+04-1.11368E-08-1.61799E-09
 -1       580 2.82889E+05-1.52237E+02 2.97955E+01-6.40697E+04 3.32420E-09 2.50748E-09
 -1       581 2.82911E+05-1.46387E+02 2.58056E+01-5.80708E+04-6.83758E-09 1.52977E-09
 -1       582 2.82925E+05-1.64220E+02 3.85872E+01-6.40395E+04-3.84534E-09 2.00089E-10
 -1       583 2.82949E+05-1.52707E+02 6.59599E+01-5.80979E+04-1.60890E-09-9.13587E-10
 -1       584 2.82999E+05-1.24960E+02 1.45733E+02-6.38103E+04-8.12361E-09-2.58729E-09
 -1       585 2.82983E+05 5.86662E+00 2.90579E+02-5.83001E+04 2.95586E-10 1.60799E-09
 -1       586-5.18721E+03 8.00411E+04-7.97227E+03-1.70186E+05 3.54555E-09-1.26965E-09
 -1       587-1.11839E+03 7.88104E+04-2.68820E+03-1.87114E+05 5.92445E-09-3.72120E-09
 -1       588 8.96227E+02 7.93390E+04 1.25028E+03-1.70006E+05 3.25235E-09 1.59008E-09
 -1       589 3.84129E+03 8.04170E+04 6.13363E+03-1.87089E+05 6.06087E-09 2.37742E-09
 -1       590 1.01995E+04 7.84613E+04 1.39964E+04-1.70183E+05 5.34465E-09-2.05546E-10
 -1       591-5.73324E+04-1.94270E+04-2.18734E+04-3.32621E+04 2.64788E-09-1.09867E-09
 -1       592-5.85962E+04-2.55796E+04-1.18470E+04-3.98409E+04 2.06001E-09-1.01761E-09
 -1       593-5.95571E+04-1.78040E+04-4.93258E+03-3.48362E+04-4.33147E-10 4.85898E-10
 -1       594-5.55417E+04-2.24114E+04-2.45965E+03-4.00122E+04-1.73145E-09-3.62874E-09
 -1       595-5.97305E+04-1.77938E+04-1.13054E+03-3.49104E+04-2.33922E-09-4.30330E-09
 -1       596-5.53382E+04-2.22653E+04-5.76087E+02-3.99941E+04-1.17461E-09 1.67353E-09
 -1       597-5.97532E+04-1.78067E+04-3.17199E+02-3.49139E+04-1.96613E-09-3.37855E-09
 -1       598-5.53189E+04-2.22597E+04-2.61400E+02-3.99884E+04 8.57909E-10 6.87464E-10
 -1       599-5.97507E+04-1.78074E+04-3.42232E+02-3.49129E+04-3.34626E-09-5.12614E-09
 -1       600-5.53384E+04-2.22682E+04-6.42197E+02-3.99916E+04-3.13412E-09-1.78261E-10
 -1       601-5.97205E+04-1.77944E+04-1.27088E+03-3.49066E+04-3.26327E-09-5.31668E-09
 -1       602-5.55654E+04-2.24334E+04-2.77073E+03-4.00078E+04 3.27941E-09-2.12390E-09
 -1       603-5.95219E+04-1.78096E+04-5.55849E+03-3.48226E+04-1.31331E-09-2.08456E-09
 -1       604-5.90136E+04-2.59941E+04-1.33497E+04-3.98004E+04-2.04000E-09 4.73574E-09
 -1       605-5.70022E+04-1.96463E+04-2.46476E+04-3.30566E+04-9.58153E-10-1.49521E-09
 -1       606 4.94768E+04-1.35645E+04-2.45330E+04 4.89121E+04-1.26474E-08-3.36149E-09
 -1       607 4.52602E+04-4.30778E+03-1.22129E+04 5.48860E+04-3.85626E-09-3.19255E-09
 -1       608 4.76018E+04-6.65196E+02-5.47554E+03 4.85098E+04 8.37099E-09-3.81533E-10
 -1       609 4.70918E+04-7.05120E+01-2.76320E+03 5.53116E+04-4.61296E-09-2.51021E-10
 -1       610 4.73220E+04 1.48023E+02-1.32469E+03 4.84652E+04-1.38825E-08-3.42880E-09
 -1       611 4.71921E+04 2.11250E+02-6.67109E+02 5.53577E+04-2.52066E-08-4.86898E-09
 -1       612 4.72122E+04 2.01525E+02-3.23121E+02 4.84609E+04-1.05756E-08 4.47289E-09
 -1       613 4.71364E+04 2.52565E+02-1.48289E+02 5.53626E+04-1.78061E-08 2.68847E-09
 -1       614 4.71393E+04 2.28176E+02-4.75239E+01 4.84594E+04-3.01043E-09 1.08002E-09
 -1       615 4.70786E+04 2.83133E+02 3.48926E+01 5.53629E+04 1.40208E-08 3.30238E-09
 -1       616 4.70846E+04 2.55298E+02 1.29051E+02 4.84599E+04-8.35644E-09-1.65483E-09
 -1       617 4.70556E+04 3.33580E+02 3.06042E+02 5.53616E+04-2.22190E-09-2.53203E-09
 -1       618 4.70299E+04 3.61147E+02 6.19940E+02 4.84599E+04 1.39153E-09 1.88129E-09
 -1       619 4.72514E+04 8.27105E+02 1.39505E+03 5.53599E+04 4.72937E-11-2.18370E-09
 -1       620 4.68097E+04 1.84299E+03 2.80412E+03 4.84551E+04 5.58316E-09-7.64430E-10
 -1       621 7.50654E+02 3.33453E+05 5.95256E+03-7.16654E+03-1.19076E-09 1.12436E-09
 -1       622 8.32577E+02 3.34927E+05 4.60472E+03-1.01958E+04-1.35270E-09-2.42198E-09
 -1       623 5.33590E+01 3.33943E+05 4.70879E+03-7.13463E+03-1.26272E-09-2.84103E-10
 -1       624 2.01163E+03 3.36008E+05 8.43096E+03-1.02321E+04-1.33275E-09-5.19663E-10
 -1       625 1.99987E+03 3.32365E+05 1.44155E+04-7.12612E+03-1.29512E-09-1.62669E-09
 -1       626 2.52546E+05 7.61546E+04 4.60089E+03 1.44996E+05 5.39603E-09-5.67888E-09
 -1       627 2.48305E+05 7.95645E+04 2.21964E+03 1.51233E+05 2.22244E-08 9.38235E-09
 -1       628 2.52733E+05 7.39250E+04 9.33512E+02 1.45593E+05 9.85165E-09 2.38015E-09
 -1       629 2.47515E+05 7.91314E+04 4.60078E+02 1.51581E+05-7.13771E-09 5.73505E-09
 -1       630 2.52708E+05 7.38385E+04 2.10758E+02 1.45578E+05-9.50786E-09 9.46102E-09
 -1       631 2.47385E+05 7.91428E+04 1.15472E+02 1.51561E+05-2.84990E-08-1.03438E-08
 -1       632 2.52665E+05 7.38641E+04 7.74286E+01 1.45547E+05-2.84435E-08-8.97307E-09
 -1       633 2.47338E+05 7.91630E+04 9.09234E+01 1.51531E+05-1.56147E-08-2.51083E-09
 -1       634 2.52628E+05 7.38764E+04 1.49366E+02 1.45526E+05 1.53914E-08 2.27442E-09
 -1       635 2.47326E+05 7.91733E+04 3.05747E+02 1.51517E+05 1.78045E-08-1.21136E-08
 -1       636 2.52599E+05 7.38822E+04 6.17702E+02 1.45514E+05 9.86802E-10-1.78534E-09
 -1       637 2.47443E+05 7.92750E+04 1.35772E+03 1.51505E+05 5.02428E-09 1.17689E-09
 -1       638 2.52543E+05 7.41860E+04 2.79005E+03 1.45372E+05-2.60815E-09-1.90812E-09
 -1       639 2.48902E+05 8.13165E+04 6.59958E+03 1.51074E+05-1.12664E-08 6.25732E-10
 -1       640 2.52364E+05 8.02468E+04 1.36946E+04 1.42782E+05-9.56788E-09-2.64072E-09
 -1       656 7.15359E+04-1.79782E+06-1.72609E+05 2.71764E+03-1.06957E-09 6.37556E-10
 -1       657-9.44895E+04-1.87553E+06-1.42580E+05 1.48973E+04 2.83126E-09 5.74430E-09
 -1       658 2.26061E+04-1.82003E+06-8.72567E+04-2.66249E+02 4.35421E-10 2.25695E-09
 -1       659-1.00741E+05-1.87852E+06-1.50788E+05 1.67147E+04-2.21917E-10-2.98843E-09
 -1       660 7.77771E+04-1.79484E+06-1.86695E+05 9.00272E+02-6.47560E-10-1.04245E-09
 -1       661 3.04129E+05 3.39056E+04 2.82943E+04 1.19371E+05 8.86939E-09 4.18368E-10
 -1       662 3.18594E+05 5.63648E+04 1.90648E+04 1.14765E+05-8.86871E-10 1.02068E-09
 -1       663 3.09694E+05 4.29720E+04 6.66956E+03 1.17749E+05 5.65137E-10 2.07524E-09
 -1       664 3.12145E+05 4.57620E+04 3.98735E+03 1.16748E+05 7.41829E-09 2.50816E-09
 -1       665 3.10537E+05 4.42100E+04 1.57249E+03 1.17502E+05-1.05555E-08-3.27913E-09
 -1       666 3.11145E+05 4.43485E+04 9.16169E+02 1.17074E+05-2.19190E-08 3.01062E-09
 -1       667 3.10688E+05 4.43479E+04 4.81063E+02 1.17437E+05-5.77367E-09 8.63420E-10
 -1       668 3.10972E+05 4.42539E+04 4.78747E+02 1.17176E+05 1.51758E-08-2.80259E-09
 -1       669 3.10710E+05 4.43009E+04 6.37828E+02 1.17402E+05-3.00332E-10 2.29059E-09
 -1       670 3.11105E+05 4.46164E+04 1.38025E+03 1.17205E+05 4.27707E-09 3.08066E-09
 -1       671 3.10555E+05 4.39919E+04 2.44711E+03 1.17406E+05-1.29411E-08 4.16094E-10
 -1       672 3.12504E+05 4.70225E+04 6.25852E+03 1.16891E+05-1.07100E-08-8.06074E-09
 -1       673 3.09318E+05 4.19544E+04 1.04870E+04 1.17693E+05-5.20345E-09-3.37695E-09
 -1       674 3.22465E+05 6.38867E+04 2.99882E+04 1.13980E+05-7.35895E-10 2.86536E-09
 -1       675 3.00658E+05 2.75982E+04 4.45142E+04 1.20137E+05 4.17458E-09-3.95630E-09
 -1       676 3.13031E+01-3.61942E+05-1.43390E+03 2.64717E+02-5.34482E-09 4.29587E-09
 -1       677-3.77249E+02-3.62293E+05-2.62436E+03-5.28868E+02-1.85022E-08-5.87043E-10
 -1       678 2.54687E+02-3.61695E+05-4.63927E+03 2.63974E+02-1.01556E-08 1.74389E-09
 -1       679-4.63767E+03-3.65093E+05-1.10213E+04-5.26313E+02-1.89937E-08 3.78697E-09
 -1       680 2.77060E+03-3.59143E+05-1.77625E+04 2.59098E+02-7.10952E-09 2.71513E-09
 -1       771-3.94984E+06-5.08715E+05-2.13571E+05-1.38142E+06 8.84756E-09 8.00901E-09
 -1       772-4.02381E+06-5.04307E+05-1.15442E+05-1.37163E+06 6.57747E-09-5.48789E-09
 -1       773-3.97000E+06-4.94668E+05-4.84819E+04-1.39948E+06 7.34144E-09 2.70120E-09
 -1       774-3.99877E+06-4.69513E+05-2.39788E+04-1.37015E+06-6.34100E-09 1.74259E-09
 -1       775-3.97150E+06-4.94993E+05-1.13051E+04-1.40192E+06 3.04135E-09-2.23008E-09
 -1       776-3.99986E+06-4.65728E+05-5.44499E+03-1.36872E+06 3.99814E-09 2.51021E-09
 -1       777-3.97174E+06-4.95356E+05-2.87911E+03-1.40344E+06-6.91944E-09-8.75843E-09
 -1       778-4.00232E+06-4.63714E+05-1.50073E+03-1.36778E+06-9.82254E-10 9.60790E-09
 -1       779-3.97184E+06-4.95535E+05-1.23638E+03-1.40470E+06 2.53931E-09-2.55386E-09
 -1       780-4.00451E+06-4.62130E+05-1.35328E+03-1.36713E+06 2.71393E-09-1.29512E-09
 -1       781-3.97189E+06-4.95622E+05-2.37367E+03-1.40569E+06 1.14596E-08-4.06908E-09
 -1       782-4.00652E+06-4.61248E+05-4.79856E+03-1.36673E+06 7.41420E-09-3.71074E-09
 -1       783-3.97165E+06-4.95683E+05-9.57261E+03-1.40622E+06-1.34060E-09 9.44056E-10
 -1       784-4.01336E+06-4.66803E+05-2.29214E+04-1.36629E+06 4.20914E-09 3.02953E-09
 -1       785-3.96756E+06-4.98678E+05-4.23251E+04-1.40342E+06 5.90762E-09-9.83164E-09
 -1       786 3.44280E+05-1.54762E+04 3.58103E+04 5.89259E+02 4.74144E-09-1.56251E-09
 -1       787 3.59800E+05 1.79176E+04 2.53358E+04 9.27781E+01-4.98389E-10-1.16779E-09
 -1       788 3.50270E+05-2.42554E+03 9.27037E+03 4.80005E+02 2.46125E-10-6.65750E-10
 -1       789 3.52824E+05 2.80750E+03 5.82662E+03 2.46432E+02 7.96967E-08-9.85779E-10
 -1       790 3.51259E+05-3.78630E+02 2.37493E+03 4.35625E+02 2.41202E-05-2.68692E-08
 -1       791 3.51671E+05 4.41933E+02 1.40209E+03 3.04784E+02 4.80647E-05-5.19972E-08
 -1       792 3.51424E+05-6.17583E+01 6.54999E+02 4.21655E+02 1.40114E-05-1.52568E-08
 -1       793 3.51490E+05 9.50053E+01 4.59846E+02 3.11738E+02-2.00793E-05 2.17453E-08
 -1       794 3.51442E+05-3.19283E+01 3.87497E+02 4.28671E+02-1.01099E-05 8.94086E-09
 -1       795 3.51534E+05 1.85543E+02 6.28142E+02 2.72524E+02-3.19334E-08 1.89979E-09
 -1       796 3.51380E+05-1.52237E+02 9.81804E+02 4.60870E+02 1.94255E-10-2.63543E-09
 -1       797 3.51992E+05 1.12467E+03 2.34881E+03 1.63001E+02-4.12046E-09 8.25679E-10
 -1       798 3.50983E+05-9.70382E+02 3.71786E+03 5.38195E+02-1.28529E-09 1.47611E-09
 -1       799 3.54792E+05 7.17183E+03 1.01467E+04-8.75267E+01-4.04258E-09 2.50157E-09
 -1       800 3.48578E+05-6.19456E+03 1.43318E+04 7.11391E+02-6.00874E-10 4.15639E-10
 -1       801-3.56098E+05 8.89382E+06 8.61216E+05-1.15060E+04 4.07454E-09-5.20197E-09
 -1       802 4.88587E+05 9.29207E+06 7.44479E+05-6.43447E+04 9.12769E-09-1.34298E-09
 -1       803-1.31381E+05 8.99668E+06 5.00640E+05-4.44020E+04 1.89539E-09-8.40501E-09
 -1       804 6.36372E+05 9.35896E+06 9.37791E+05-4.37258E+04 4.56930E-09-1.14451E-08
 -1       805-5.03506E+05 8.82668E+06 1.19724E+06-3.21173E+04-2.15368E-09 5.85396E-08
 -1       806-3.06740E+05-7.78047E+04-3.13520E+04-1.40190E+05 3.30033E-09-8.91305E-11
 -1       807-3.07463E+05-7.44415E+04-1.54016E+04-1.49779E+05 1.63254E-09 1.54439E-08
 -1       808-3.07698E+05-6.64168E+04-6.53315E+03-1.45454E+05 5.57020E-09 3.32352E-09
 -1       809-3.04110E+05-7.02379E+04-3.19242E+03-1.50323E+05 6.30394E-09 4.93941E-09
 -1       810-3.07853E+05-6.60060E+04-1.46119E+03-1.45687E+05-2.34036E-09-3.11968E-09
 -1       811-3.03859E+05-7.00740E+04-7.22528E+02-1.50300E+05 7.61702E-10 1.07207E-09
 -1       812-3.07881E+05-6.60316E+04-3.57093E+02-1.45688E+05 9.32005E-10-6.32440E-09
 -1       813-3.03826E+05-7.00798E+04-2.19325E+02-1.50283E+05 4.33738E-09-4.46335E-09
 -1       814-3.07877E+05-6.60444E+04-1.96227E+02-1.45681E+05 5.75574E-09-1.27557E-09
 -1       815-3.03822E+05-7.00858E+04-2.97208E+02-1.50273E+05 3.71119E-09-6.37920E-09
 -1       816-3.07849E+05-6.60478E+04-5.51658E+02-1.45672E+05 2.11548E-09-3.58477E-09
 -1       817-3.03905E+05-7.01426E+04-1.17879E+03-1.50251E+05 1.79798E-08-5.91535E-09
 -1       818-3.07763E+05-6.62225E+04-2.40232E+03-1.45586E+05 5.04406E-09-2.69756E-09
 -1       819-3.05225E+05-7.15759E+04-5.65124E+03-1.49900E+05-1.53432E-09 9.10677E-09
 -1       820-3.07280E+05-7.05115E+04-1.15037E+04-1.43761E+05-3.14049E-09-8.13520E-09
 -1       821-3.86345E+05 2.21124E+04-5.20359E+04 1.49910E+03 1.89016E-09 1.68438E-09
 -1       822-4.04626E+05-2.56817E+04-3.60844E+04-8.16648E+03 3.62320E-09-3.66344E-09
 -1       823-3.93200E+05 3.54266E+03-1.33990E+04 4.02195E+03-8.42672E-09 1.98179E-09
 -1       824-3.96122E+05-4.10797E+03-8.31579E+03-1.03919E+04 1.58832E-09-9.81345E-10
 -1       825-3.94885E+05 5.87524E+02-3.53608E+03 3.72465E+03 1.41110E-08 1.79466E-09
 -1       826-3.92409E+05-6.04029E+02-1.57050E+03-7.19962E+03 1.53625E-08 3.25542E-09
 -1       827-3.96856E+05-3.70465E+00-1.51504E+03 8.29553E+02 3.29123E-11 4.32408E-10
 -1       828-3.90571E+05-4.23803E+01-9.30487E+01-4.38960E+02-2.07644E-08 5.87599E-09
 -1       829-3.96679E+05-9.11628E+00-1.48145E+03-3.03573E+03 2.47530E-09-5.01487E-09
 -1       830-3.92807E+05-5.61464E+02-1.63838E+03 6.06965E+03 1.07885E-08 1.96326E-09
 -1       831-3.94673E+05 5.57696E+02-3.49792E+03-5.67925E+03-1.77032E-08-5.22618E-09
 -1       832-3.96226E+05-4.02007E+03-8.31254E+03 8.66601E+03-1.03947E-08 3.48246E-09
 -1       833-3.93308E+05 3.48505E+03-1.34178E+04-5.63259E+03-8.14651E-10-6.20275E-09
 -1       834-4.04338E+05-2.55771E+04-3.59816E+04 5.88248E+03-1.95391E-09 6.60748E-10
 -1       835-3.86515E+05 2.20581E+04-5.20264E+04-2.89511E+03 1.35676E-08-2.48838E-09
 -1       836-1.28618E+03 4.10600E+05 2.41984E+04-4.71945E+04 8.18363E-09-5.03860E-10
 -1       837 5.65144E+03 4.17920E+05 2.06230E+04-9.42530E+04 1.06124E-08-1.62800E-09
 -1       838-3.51128E+02 4.12657E+05 2.11954E+04-4.70652E+04 9.07130E-09 4.79736E-09
 -1       839 1.38991E+04 4.24063E+05 4.02722E+04-9.42657E+04 1.09458E-08 1.15415E-09
 -1       840-3.94134E+03 4.04393E+05 6.42798E+04-4.71720E+04 8.61837E-09 7.95353E-10
 -1       856-1.69045E+05 1.23238E+04-3.24870E+04-1.02475E+03-1.29623E-08-3.83989E-09
 -1       857-1.82477E+05-1.44354E+04-2.23655E+04 6.63684E+03-1.17332E-08-2.97041E-09
 -1       858-1.74345E+05 1.72342E+03-8.43245E+03-1.08041E+03-6.53023E-09-1.68711E-09
 -1       859-1.76395E+05-1.98295E+03-5.09346E+03 6.72999E+03 2.05409E-09-2.60297E-09
 -1       860-1.75136E+05 2.36539E+02-2.14498E+03-1.11876E+03-1.30171E-10-3.63650E-09
 -1       861-1.75486E+05-2.39317E+02-1.20061E+03 6.78287E+03-1.65114E-08-3.96810E-09
 -1       862-1.75258E+05 2.86843E+01-5.40925E+02-1.13344E+03 1.64467E-08-1.17120E-09
 -1       863-1.75344E+05 2.84554E+00-2.92044E+02 6.78853E+03 2.66843E-08-5.15772E-09
 -1       864-1.75279E+05-1.50255E-01-1.41496E+02-1.12444E+03 1.34529E-08-4.05655E-09
 -1       865-1.75314E+05 3.13997E+01-8.36759E+01 6.74591E+03 1.08711E-08-2.63586E-09
 -1       866-1.75284E+05-2.35235E+00-6.04233E+01-1.09081E+03 1.49328E-09-3.18094E-09
 -1       867-1.75304E+05 1.12977E+01-7.51235E+01 6.65497E+03 1.09568E-08-1.30037E-09
 -1       868-1.75280E+05 1.34692E+01-1.11949E+02-1.03346E+03 1.33947E-08-2.52398E-09
 -1       869-1.75351E+05-1.40481E+02-2.64639E+02 6.51175E+03-2.93437E-09-4.46007E-09
 -1       870-1.75225E+05 1.36372E+02-3.95200E+02-9.47525E+02 5.87988E-09-2.72848E-09
 -1       871-6.27624E+03-8.73993E+03-1.89813E+04 1.21783E+05 6.70479E-09 1.23509E-09
 -1       872-3.04252E+03-1.29011E+04-7.61545E+03 1.57882E+05 1.90748E-08 4.32010E-09
 -1       873-4.30874E+02-1.10715E+04 1.39362E+03 1.21523E+05 9.12314E-09 1.21190E-10
 -1       874 2.58618E+03-8.03984E+03 1.14359E+04 1.57952E+05 1.91776E-08 6.62908E-09
 -1       875 6.88010E+03-1.37373E+04 2.51471E+04 1.21757E+05 1.17507E-08 4.60750E-09
 -1       876 3.24048E+05 5.69795E+04 1.78585E+04 1.32823E+05-1.93382E-08-3.20506E-09
 -1       877 3.24930E+05 6.10433E+04 9.53729E+03 1.38239E+05-2.36212E-08 4.57658E-09
 -1       878 3.25709E+05 5.50094E+04 3.99513E+03 1.34294E+05-5.00677E-10 7.38396E-09
 -1       879 3.22496E+05 5.86253E+04 1.99030E+03 1.38361E+05-1.10804E-08 1.19676E-08
 -1       880 3.25827E+05 5.49907E+04 9.25914E+02 1.34353E+05 1.47065E-09 6.75709E-09
 -1       881 3.22334E+05 5.85218E+04 4.92463E+02 1.38331E+05 9.85574E-09-3.29283E-09
 -1       882 3.25836E+05 5.50074E+04 3.11064E+02 1.34355E+05 1.73607E-08 5.92237E-10
 -1       883 3.22321E+05 5.85166E+04 3.28309E+02 1.38321E+05 1.62272E-08 7.75481E-09
 -1       884 3.25828E+05 5.50049E+04 5.16456E+02 1.34355E+05 1.65231E-08 1.01015E-08
 -1       885 3.22362E+05 5.85238E+04 1.03470E+03 1.38334E+05 1.80786E-08-1.01903E-09
 -1       886 3.25789E+05 5.49744E+04 2.08343E+03 1.34351E+05-2.21249E-09-7.84462E-09
 -1       887 3.22728E+05 5.87639E+04 4.55001E+03 1.38388E+05-2.19613E-08-4.18129E-09
 -1       888 3.25503E+05 5.50233E+04 9.16769E+03 1.34205E+05 4.84022E-10 5.12227E-09
 -1       889 3.28196E+05 6.44312E+04 2.18997E+04 1.38214E+05 5.22056E-09 6.24823E-09
 -1       890 3.21780E+05 5.94499E+04 4.10174E+04 1.30696E+05 6.90125E-09 8.42738E-09
 -1       891-3.23827E+02-1.86983E+05-2.16798E+03 3.82429E+04 2.52726E-09-2.58865E-09
 -1       892-5.40155E+02-1.87430E+05-2.37163E+03 5.77199E+04-7.76345E-09-5.69503E-09
 -1       893-1.92482E+02-1.87034E+05-3.40591E+03 3.82500E+04-7.06223E-10-1.68802E-09
 -1       894-2.07163E+03-1.88704E+05-7.07869E+03 5.75152E+04-1.58252E-10-3.86717E-09
 -1       895-1.61600E+03-1.85529E+05-1.24856E+04 3.84393E+04 6.64306E-09-1.54341E-09
 -1       956-4.02608E+05-5.95023E+03-1.51290E+04 2.43654E+04-1.18853E-08 3.52657E-10
 -1       957-4.05609E+05-1.95098E+03-7.76590E+03 2.94106E+04-4.26189E-09-6.49379E-10
 -1       958-4.03957E+05-9.88869E+01-3.49966E+03 2.41754E+04 2.06819E-09-2.52135E-09
 -1       959-4.04214E+05 5.47184E+01-1.78693E+03 2.96064E+04-1.48257E-08 3.36877E-09
 -1       960-4.04086E+05 1.18547E+02-8.71275E+02 2.41564E+04-1.76460E-08 4.30191E-10
 -1       961-4.04121E+05 1.35375E+02-4.60861E+02 2.96282E+04-2.29220E-08 4.23529E-09
 -1       962-4.04117E+05 1.16971E+02-2.61960E+02 2.41527E+04-1.33832E-08 2.34877E-10
 -1       963-4.04124E+05 1.41426E+02-2.06124E+02 2.96337E+04-2.15152E-08 3.54930E-09
 -1       964-4.04127E+05 1.23180E+02-2.45519E+02 2.41508E+04-6.71889E-09-9.46102E-10
 -1       965-4.04145E+05 1.48910E+02-4.20016E+02 2.96354E+04 9.44306E-09 1.68825E-09
 -1       966-4.04119E+05 1.36900E+02-7.86205E+02 2.41509E+04-2.41334E-09-4.04725E-10
 -1       967-4.04252E+05 8.89375E+01-1.61145E+03 2.96279E+04 1.06521E-08 2.83308E-09
 -1       968-4.04022E+05-4.72386E+01-3.15311E+03 2.41588E+04 4.64752E-09-7.31035E-10
 -1       969-4.05532E+05-1.70823E+03-7.00128E+03 2.95422E+04 4.25189E-11 2.74304E-09
 -1       970-4.02820E+05-5.31539E+03-1.36370E+04 2.42523E+04 4.74392E-09-2.34650E-10
 -1       971-3.90547E+05-2.09267E+03-1.19490E+04 1.95297E+04-9.39417E-09 2.84820E-09
 -1       972-3.93479E+05-1.44930E+03-6.50577E+03 2.75353E+04-5.91899E-09-1.87720E-09
 -1       973-3.91886E+05 4.96251E+01-2.91443E+03 1.93524E+04-3.28328E-09 2.78419E-09
 -1       974-3.92122E+05 8.60716E+01-1.50850E+03 2.77229E+04 9.40372E-09-9.38371E-10
 -1       975-3.91999E+05 1.12361E+02-7.51868E+02 1.93341E+04 6.84304E-09 2.06978E-09
 -1       976-3.92052E+05 1.54852E+02-4.27946E+02 2.77458E+04-1.00777E-08-1.20417E-09
 -1       977-3.92025E+05 1.16434E+02-3.01374E+02 1.93288E+04 1.02259E-08 1.20622E-09
 -1       978-3.92062E+05 1.65290E+02-3.39446E+02 2.77531E+04 3.01125E-08-6.51880E-10
 -1       979-3.92028E+05 1.27551E+02-5.34581E+02 1.93266E+04 1.16351E-08 1.99350E-09
 -1       980-3.92103E+05 1.69517E+02-1.02544E+03 2.77545E+04 1.68552E-08-2.49906E-09
 -1       981-3.91994E+05 1.52616E+02-1.98294E+03 1.93274E+04-1.42836E-09 3.16732E-09
 -1       982-3.92372E+05 2.12491E+01-4.09696E+03 2.77445E+04-8.38577E-09-1.02574E-09
 -1       983-3.91741E+05 2.29272E+01-7.96032E+03 1.93374E+04 1.81899E-10 1.54432E-09
 -1       984-3.96191E+05-4.14090E+03-1.78258E+04 2.76278E+04-3.16686E-09-2.52567E-09
 -1       985-3.88131E+05-5.80523E+03-3.27347E+04 1.94697E+04 1.89007E-08 1.11504E-09
 -3
    1PSTEP                        41          21           1          
  100CL  121 8.10906E-01         409                     0   21           1
 -4  DISP        4    1
 -5  D1          1    2    1    0
 -5  D2          1    2    2    0
 -5  D3          1    2    3    0
 -5  ALL         1    2    0    0    1ALL
 -1         1 7.22290E-03 0.00000E+00 0.00000E+00
 -1         2 9.57464E-03 1.47719E-27 0.00000E+00
 -1         3-1.54859E-05-1.99415E-28-2.64698E-23
 -1         5 4.52477E-05 3.25082E-27 0.00000E+00
 -1         8 7.19319E-03-2.50264E-06 0.00000E+00
 -1         9 7.35018E-03-5.29193E-04 0.00000E+00
 -1        10-9.14929E-06 5.84755E-06 1.32349E-23
 -1        12 4.28881E-05 8.48581E-07 0.00000E+00
 -1        15 7.16040E-03-2.63557E-06 8.27181E-25
 -1        16 7.30237E-03-5.29426E-04 0.00000E+00
 -1        17 1.34726E-05 1.20719E-05 0.00000E+00
 -1        18 3.42442E-05-1.85403E-05 0.00000E+00
 -1        19 3.58078E-05 1.68909E-06 0.00000E+00
 -1        20 3.60251E-05 4.35214E-05 0.00000E+00
 -1        21 3.52893E-05 8.61147E-05-3.30872E-24
 -1        24 2.39519E-05 1.24235E-05 0.00000E+00
 -1        25 2.39714E-05-1.83835E-05 0.00000E+00
 -1        26 2.59070E-05 2.37603E-06 0.00000E+00
 -1        27 2.35580E-05 3.97592E-05 0.00000E+00
 -1        28 2.25235E-05 8.53474E-05 0.00000E+00
 -1        32 0.00000E+00 0.00000E+00 0.00000E+00
 -1        33 1.34870E-05 3.20740E-06 0.00000E+00
 -1        34 1.11957E-05 3.97209E-05 0.00000E+00
 -1        35 8.95497E-06 8.49436E-05 0.00000E+00
 -1        51 7.22085E-03-4.20272E-07 1.32349E-23
 -1        52 7.21715E-03-8.29993E-07 6.61744E-24
 -1        53 7.21216E-03-1.24067E-06 6.61744E-24
 -1        54 7.20625E-03-1.65456E-06-2.48154E-24
 -1        55 7.19980E-03-2.07272E-06-1.32349E-23
 -1        56 7.22200E-03-6.83860E-06 0.00000E+00
 -1        57 7.22545E-03-2.60304E-05 5.29396E-23
 -1        58 7.23343E-03-5.81625E-05-1.05879E-22
 -1        59 7.24561E-03-1.02918E-04 0.00000E+00
 -1        60 7.26117E-03-1.58121E-04-1.05879E-22
 -1        61 7.27907E-03-2.20824E-04 0.00000E+00
 -1        62 7.29804E-03-2.86958E-04 0.00000E+00
 -1        63 7.31674E-03-3.52199E-04 0.00000E+00
 -1        64 7.33385E-03-4.12356E-04-1.05879E-22
 -1        65 7.34815E-03-4.63620E-04 5.29396E-23
 -1        66 7.35871E-03-5.03505E-04 0.00000E+00
 -1        67 7.36485E-03-5.30368E-04 0.00000E+00
 -1        68 7.36648E-03-5.44471E-04-1.05879E-22
 -1        69 7.36388E-03-5.46986E-04-2.64698E-23
 -1        70 7.35798E-03-5.40763E-04 0.00000E+00
 -1        86 9.42831E-03-1.59669E-05 0.00000E+00
 -1        87 9.02113E-03-1.04782E-04-2.64698E-23
 -1        88 8.47790E-03-2.59483E-04 0.00000E+00
 -1        89 7.93005E-03-4.17057E-04 0.00000E+00
 -1        90 7.51085E-03-5.10881E-04-5.29396E-23
 -1       121-1.53132E-05 9.74961E-07 0.00000E+00
 -1       122-1.47939E-05 1.94982E-06 0.00000E+00
 -1       123-1.39247E-05 2.92448E-06 0.00000E+00
 -1       124-1.26998E-05 3.89896E-06 0.00000E+00
 -1       125-1.11114E-05 4.87286E-06 2.64698E-23
 -1       191 4.51821E-05 1.41532E-07 0.00000E+00
 -1       192 4.49855E-05 2.83045E-07 0.00000E+00
 -1       193 4.46579E-05 4.24526E-07-1.32349E-23
 -1       194 4.41991E-05 5.65955E-07 0.00000E+00
 -1       195 4.36092E-05 7.07313E-07 0.00000E+00
 -1       251 7.20308E-03-1.11347E-05 0.00000E+00
 -1       252 7.21300E-03-4.21995E-05 0.00000E+00
 -1       253 7.22263E-03-8.16502E-05-2.11758E-22
 -1       254 7.23240E-03-1.19570E-04-1.05879E-22
 -1       255 7.24220E-03-1.56914E-04 0.00000E+00
 -1       256 7.25200E-03-1.94368E-04-2.11758E-22
 -1       257 7.26181E-03-2.31862E-04 4.23516E-22
 -1       258 7.27163E-03-2.69347E-04 2.11758E-22
 -1       259 7.28144E-03-3.06834E-04-4.23516E-22
 -1       260 7.29125E-03-3.44330E-04 0.00000E+00
 -1       261 7.30106E-03-3.81777E-04-4.23516E-22
 -1       262 7.31086E-03-4.19092E-04-1.05879E-22
 -1       263 7.32063E-03-4.57103E-04 0.00000E+00
 -1       264 7.33026E-03-4.96966E-04 0.00000E+00
 -1       265 7.34022E-03-5.26661E-04-2.11758E-22
 -1       266 7.18773E-03-2.54824E-06-1.32349E-23
 -1       267 7.18226E-03-2.56754E-06 0.00000E+00
 -1       268 7.17680E-03-2.58850E-06 0.00000E+00
 -1       269 7.17133E-03-2.60453E-06 8.27181E-25
 -1       270 7.16587E-03-2.62045E-06 8.27181E-25
 -1       271 7.18934E-03-4.51050E-06 0.00000E+00
 -1       272 7.18978E-03-1.86203E-05 0.00000E+00
 -1       273 7.19436E-03-4.43909E-05-1.05879E-22
 -1       274 7.20258E-03-8.08132E-05 0.00000E+00
 -1       275 7.21380E-03-1.26259E-04-1.05879E-22
 -1       276 7.22727E-03-1.78624E-04 0.00000E+00
 -1       277 7.24214E-03-2.35400E-04 0.00000E+00
 -1       278 7.25754E-03-2.93838E-04-5.29396E-23
 -1       279 7.27257E-03-3.51098E-04 1.05879E-22
 -1       280 7.28634E-03-4.04400E-04 0.00000E+00
 -1       281 7.29800E-03-4.51194E-04 0.00000E+00
 -1       282 7.30678E-03-4.89283E-04-5.29396E-23
 -1       283 7.31200E-03-5.16973E-04-1.05879E-22
 -1       284 7.31318E-03-5.33117E-04 0.00000E+00
 -1       285 7.30995E-03-5.37235E-04-5.29396E-23
 -1       301 7.33973E-03-5.29225E-04 0.00000E+00
 -1       302 7.33245E-03-5.29248E-04 0.00000E+00
 -1       303 7.32671E-03-5.29260E-04 4.13590E-25
 -1       304 7.32088E-03-5.29279E-04 0.00000E+00
 -1       305 7.31331E-03-5.29318E-04 1.32349E-23
 -1       306 7.19750E-03-2.85396E-04 2.11758E-22
 -1       307 6.69624E-03 2.75291E-04 5.29396E-23
 -1       308 5.76362E-03 9.81788E-04-2.11758E-22
 -1       309 4.50345E-03 1.67405E-03 0.00000E+00
 -1       310 3.12420E-03 2.34165E-03 0.00000E+00
 -1       311 1.85994E-03 3.03827E-03 0.00000E+00
 -1       312 8.98911E-04 3.74356E-03 0.00000E+00
 -1       313 3.37917E-04 4.33909E-03 0.00000E+00
 -1       314 1.69600E-04 4.60572E-03 0.00000E+00
 -1       315 1.97033E-04 4.44556E-03 1.05879E-22
 -1       316 2.34062E-04 3.82731E-03 0.00000E+00
 -1       317 1.57986E-04 2.90035E-03 0.00000E+00
 -1       318 2.05176E-05 1.86450E-03 0.00000E+00
 -1       319-5.64908E-05 9.25191E-04 5.29396E-23
 -1       320-3.25538E-05 2.63421E-04 0.00000E+00
 -1       336-6.74826E-06 6.89797E-06 2.64698E-23
 -1       337-3.83627E-06 7.94786E-06-1.32349E-23
 -1       338-3.89017E-07 8.99521E-06 0.00000E+00
 -1       339 3.62208E-06 1.00354E-05 0.00000E+00
 -1       340 8.23001E-06 1.10734E-05 1.32349E-23
 -1       406 4.20358E-05 9.89732E-07 0.00000E+00
 -1       407 4.10523E-05 1.13072E-06 0.00000E+00
 -1       408 3.99375E-05 1.27149E-06 0.00000E+00
 -1       409 3.86915E-05 1.41184E-06 3.30872E-24
 -1       410 3.73145E-05 1.55149E-06 0.00000E+00
 -1       521 7.14840E-03-2.86756E-04 0.00000E+00
 -1       522 6.64745E-03 2.72026E-04-1.05879E-22
 -1       523 5.71986E-03 9.77273E-04 0.00000E+00
 -1       524 4.47324E-03 1.67187E-03 5.29396E-23
 -1       525 3.10936E-03 2.34396E-03 1.05879E-22
 -1       526 1.85545E-03 3.04223E-03 0.00000E+00
 -1       527 9.00807E-04 3.74611E-03 0.00000E+00
 -1       528 3.42655E-04 4.33869E-03 0.00000E+00
 -1       529 1.75618E-04 4.60069E-03 0.00000E+00
 -1       530 2.02395E-04 4.43606E-03 0.00000E+00
 -1       531 2.38410E-04 3.81672E-03 0.00000E+00
 -1       532 1.65192E-04 2.89562E-03 0.00000E+00
 -1       533 3.22351E-05 1.86659E-03 1.05879E-22
 -1       534-4.38771E-05 9.29629E-04 0.00000E+00
 -1       535-2.10765E-05 2.67067E-04-2.11758E-22
 -1       536 1.47195E-05 7.43742E-06 0.00000E+00
 -1       537 1.60182E-05 4.62842E-06-1.32349E-23
 -1       538 1.73162E-05 2.71244E-06-2.64698E-23
 -1       539 1.86228E-05 8.10979E-07 0.00000E+00
 -1       540 1.99297E-05-1.08336E-06 0.00000E+00
 -1       541 2.12384E-05-2.97758E-06 0.00000E+00
 -1       542 2.25472E-05-4.87177E-06 0.00000E+00
 -1       543 2.38563E-05-6.76596E-06-2.64698E-23
 -1       544 2.51654E-05-8.66013E-06 5.29396E-23
 -1       545 2.64741E-05-1.05543E-05 2.64698E-23
 -1       546 2.77827E-05-1.24485E-05 0.00000E+00
 -1       547 2.90893E-05-1.43425E-05 0.00000E+00
 -1       548 3.03957E-05-1.62299E-05 0.00000E+00
 -1       549 3.16924E-05-1.81038E-05-1.32349E-23
 -1       550 3.29934E-05-1.91589E-05 0.00000E+00
 -1       551 1.62145E-05 1.21434E-05 0.00000E+00
 -1       552 1.69962E-05 1.22165E-05 0.00000E+00
 -1       553 1.69845E-05 1.22898E-05 0.00000E+00
 -1       554 1.73570E-05 1.23577E-05 0.00000E+00
 -1       555 1.92912E-05 1.24162E-05 0.00000E+00
 -1       556 1.54197E-05 6.73201E-06 0.00000E+00
 -1       557 1.71747E-05 1.88002E-06 0.00000E+00
 -1       558 1.87485E-05-2.48576E-06 0.00000E+00
 -1       559 2.01437E-05-6.37277E-06 0.00000E+00
 -1       560 2.13635E-05-9.78802E-06 0.00000E+00
 -1       561 2.24106E-05-1.27389E-05 0.00000E+00
 -1       562 2.32877E-05-1.52331E-05 0.00000E+00
 -1       563 2.39973E-05-1.72779E-05 0.00000E+00
 -1       564 2.45423E-05-1.88811E-05 0.00000E+00
 -1       565 2.49250E-05-2.00503E-05 0.00000E+00
 -1       566 2.51484E-05-2.07931E-05 0.00000E+00
 -1       567 2.52150E-05-2.11172E-05 0.00000E+00
 -1       568 2.51276E-05-2.10304E-05 0.00000E+00
 -1       569 2.48891E-05-2.05404E-05 0.00000E+00
 -1       570 2.45022E-05-1.96551E-05 0.00000E+00
 -1       571 3.43392E-05-1.71376E-05-2.06795E-24
 -1       572 3.44362E-05-1.58001E-05 1.24077E-24
 -1       573 3.45337E-05-1.45182E-05-8.27181E-25
 -1       574 3.46316E-05-1.32820E-05 1.65436E-24
 -1       575 3.47296E-05-1.20814E-05 0.00000E+00
 -1       576 3.48277E-05-1.09062E-05 1.65436E-24
 -1       577 3.49259E-05-9.74619E-06 0.00000E+00
 -1       578 3.50240E-05-8.59120E-06-1.65436E-24
 -1       579 3.51222E-05-7.43102E-06 3.30872E-24
 -1       580 3.52203E-05-6.25547E-06 0.00000E+00
 -1       581 3.53184E-05-5.05437E-06 0.00000E+00
 -1       582 3.54164E-05-3.81751E-06 0.00000E+00
 -1       583 3.55144E-05-2.53473E-06 0.00000E+00
 -1       584 3.56123E-05-1.19595E-06 0.00000E+00
 -1       585 3.57101E-05 2.08873E-07 0.00000E+00
 -1       586 3.25717E-05-1.85120E-05 0.00000E+00
 -1       587 3.08447E-05-1.84851E-05-1.65436E-24
 -1       588 2.90919E-05-1.84586E-05 0.00000E+00
 -1       589 2.73426E-05-1.84325E-05-2.06795E-25
 -1       590 2.56262E-05-1.84070E-05 0.00000E+00
 -1       591 3.36818E-05-1.71122E-05-3.10193E-25
 -1       592 3.31429E-05-1.57574E-05 0.00000E+00
 -1       593 3.26262E-05-1.44627E-05-8.27181E-25
 -1       594 3.21273E-05-1.32161E-05 0.00000E+00
 -1       595 3.16419E-05-1.20057E-05 0.00000E+00
 -1       596 3.11654E-05-1.08193E-05 0.00000E+00
 -1       597 3.06933E-05-9.64483E-06 0.00000E+00
 -1       598 3.02212E-05-8.47029E-06 4.13590E-25
 -1       599 2.97446E-05-7.28360E-06 8.27181E-25
 -1       600 2.92589E-05-6.07275E-06-2.06795E-25
 -1       601 2.87595E-05-4.82569E-06 0.00000E+00
 -1       602 2.82421E-05-3.53034E-06-3.10193E-25
 -1       603 2.77022E-05-2.17468E-06-3.61892E-25
 -1       604 2.71354E-05-7.46580E-07 0.00000E+00
 -1       605 2.65372E-05 7.65966E-07 0.00000E+00
 -1       606 3.58280E-05 3.39353E-06 0.00000E+00
 -1       607 3.58444E-05 5.27273E-06-3.30872E-24
 -1       608 3.58596E-05 7.31643E-06 0.00000E+00
 -1       609 3.58740E-05 9.51304E-06 0.00000E+00
 -1       610 3.58880E-05 1.18510E-05 0.00000E+00
 -1       611 3.59017E-05 1.43184E-05 0.00000E+00
 -1       612 3.59150E-05 1.69036E-05 0.00000E+00
 -1       613 3.59281E-05 1.95948E-05 0.00000E+00
 -1       614 3.59409E-05 2.23801E-05 0.00000E+00
 -1       615 3.59535E-05 2.52477E-05 0.00000E+00
 -1       616 3.59658E-05 2.81858E-05-3.30872E-24
 -1       617 3.59781E-05 3.11827E-05 0.00000E+00
 -1       618 3.59901E-05 3.42265E-05 0.00000E+00
 -1       619 3.60020E-05 3.73054E-05 0.00000E+00
 -1       620 3.60138E-05 4.04077E-05-8.27181E-25
 -1       621 3.42133E-05 1.80353E-06 0.00000E+00
 -1       622 3.25892E-05 1.91870E-06-1.65436E-24
 -1       623 3.09410E-05 2.03383E-06 3.30872E-24
 -1       624 2.92741E-05 2.14877E-06-1.65436E-24
 -1       625 2.75943E-05 2.26351E-06-3.30872E-24
 -1       626 3.52842E-05 3.42505E-06 0.00000E+00
 -1       627 3.47053E-05 5.30964E-06 0.00000E+00
 -1       628 3.40754E-05 7.33026E-06 0.00000E+00
 -1       629 3.33994E-05 9.47328E-06 0.00000E+00
 -1       630 3.26824E-05 1.17251E-05-6.61744E-24
 -1       631 3.19295E-05 1.40721E-05-3.30872E-24
 -1       632 3.11458E-05 1.65005E-05 0.00000E+00
 -1       633 3.03366E-05 1.89966E-05 0.00000E+00
 -1       634 2.95070E-05 2.15467E-05 0.00000E+00
 -1       635 2.86622E-05 2.41371E-05 0.00000E+00
 -1       636 2.78072E-05 2.67541E-05 0.00000E+00
 -1       637 2.69474E-05 2.93841E-05-1.65436E-24
 -1       638 2.60877E-05 3.20133E-05 0.00000E+00
 -1       639 2.52333E-05 3.46280E-05-1.65436E-24
 -1       640 2.43889E-05 3.72146E-05 0.00000E+00
 -1       656 3.32549E-05 4.29082E-05 0.00000E+00
 -1       657 3.10759E-05 4.22715E-05-6.61744E-24
 -1       658 2.92652E-05 4.16374E-05 0.00000E+00
 -1       659 2.75904E-05 4.10039E-05 0.00000E+00
 -1       660 2.57779E-05 4.03683E-05 0.00000E+00
 -1       661 3.50002E-05 4.66014E-05 0.00000E+00
 -1       662 3.40071E-05 4.96121E-05 1.65436E-24
 -1       663 3.30395E-05 5.25542E-05 0.00000E+00
 -1       664 3.20977E-05 5.54309E-05-1.65436E-24
 -1       665 3.11800E-05 5.82439E-05-3.30872E-24
 -1       666 3.02857E-05 6.09953E-05 0.00000E+00
 -1       667 2.94142E-05 6.36866E-05 0.00000E+00
 -1       668 2.85648E-05 6.63193E-05 1.65436E-24
 -1       669 2.77372E-05 6.88944E-05 3.30872E-24
 -1       670 2.69309E-05 7.14129E-05 0.00000E+00
 -1       671 2.61458E-05 7.38754E-05 3.30872E-24
 -1       672 2.53814E-05 7.62821E-05 0.00000E+00
 -1       673 2.46379E-05 7.86333E-05 0.00000E+00
 -1       674 2.39142E-05 8.09283E-05 0.00000E+00
 -1       675 2.32120E-05 8.31676E-05-8.27181E-25
 -1       676 3.31526E-05 8.59860E-05 3.30872E-24
 -1       677 3.10175E-05 8.58574E-05 1.65436E-24
 -1       678 2.88854E-05 8.57289E-05 0.00000E+00
 -1       679 2.67580E-05 8.56007E-05 0.00000E+00
 -1       680 2.46369E-05 8.54726E-05 0.00000E+00
 -1       771 2.50869E-05 4.68991E-06 2.64698E-23
 -1       772 2.57152E-05-1.77660E-06-1.32349E-23
 -1       773 2.58901E-05-7.02295E-06 0.00000E+00
 -1       774 2.56345E-05-1.11190E-05 0.00000E+00
 -1       775 2.49765E-05-1.41354E-05 5.29396E-23
 -1       776 2.39440E-05-1.61490E-05-2.64698E-23
 -1       777 2.25659E-05-1.72390E-05 0.00000E+00
 -1       778 2.08728E-05-1.74886E-05 2.64698E-23
 -1       779 1.88961E-05-1.69836E-05 5.29396E-23
 -1       780 1.66687E-05-1.58126E-05 0.00000E+00
 -1       781 1.42244E-05-1.40661E-05 0.00000E+00
 -1       782 1.15981E-05-1.18373E-05 0.00000E+00
 -1       783 8.82516E-06-9.22032E-06 5.29396E-23
 -1       784 5.94245E-06-6.31086E-06 0.00000E+00
 -1       785 2.98620E-06-3.20576E-06-5.29396E-23
 -1       786 2.40863E-05-1.69574E-05-1.65436E-24
 -1       787 2.42071E-05-1.56142E-05 1.65436E-24
 -1       788 2.43275E-05-1.43310E-05 0.00000E+00
 -1       789 2.44491E-05-1.30855E-05 0.00000E+00
 -1       790 2.45708E-05-1.18662E-05 0.00000E+00
 -1       791 2.46926E-05-1.06620E-05 0.00000E+00
 -1       792 2.48146E-05-9.46630E-06-3.30872E-24
 -1       793 2.49365E-05-8.27240E-06 1.65436E-24
 -1       794 2.50585E-05-7.07420E-06 0.00000E+00
 -1       795 2.51804E-05-5.86560E-06-1.65436E-24
 -1       796 2.53023E-05-4.63741E-06 3.30872E-24
 -1       797 2.54241E-05-3.38027E-06-1.65436E-24
 -1       798 2.55458E-05-2.07630E-06 0.00000E+00
 -1       799 2.56670E-05-7.07334E-07 0.00000E+00
 -1       800 2.57883E-05 7.64106E-07 0.00000E+00
 -1       801 2.16056E-05-1.53768E-05 5.29396E-23
 -1       802 1.75879E-05-1.22558E-05 0.00000E+00
 -1       803 1.28657E-05-9.14693E-06 0.00000E+00
 -1       804 8.28034E-06-6.04822E-06-2.64698E-23
 -1       805 3.94232E-06-2.93601E-06 0.00000E+00
 -1       806 2.33168E-05-1.70180E-05 0.00000E+00
 -1       807 2.26763E-05-1.57050E-05-1.65436E-24
 -1       808 2.20501E-05-1.44328E-05-3.30872E-24
 -1       809 2.14347E-05-1.31908E-05 0.00000E+00
 -1       810 2.08264E-05-1.19683E-05-3.30872E-24
 -1       811 2.02215E-05-1.07549E-05 0.00000E+00
 -1       812 1.96159E-05-9.53984E-06 0.00000E+00
 -1       813 1.90057E-05-8.31265E-06 0.00000E+00
 -1       814 1.83869E-05-7.06275E-06 0.00000E+00
 -1       815 1.77557E-05-5.77959E-06 0.00000E+00
 -1       816 1.71079E-05-4.45264E-06 0.00000E+00
 -1       817 1.64398E-05-3.07134E-06 8.27181E-25
 -1       818 1.57472E-05-1.62516E-06 0.00000E+00
 -1       819 1.50265E-05-1.03617E-07 8.27181E-25
 -1       820 1.42738E-05 1.50381E-06 0.00000E+00
 -1       821 2.57784E-05 3.06077E-06 0.00000E+00
 -1       822 2.56409E-05 1.75849E-06 1.65436E-24
 -1       823 2.55017E-05-8.82862E-07 0.00000E+00
 -1       824 2.53588E-05-4.20689E-06 1.65436E-24
 -1       825 2.52165E-05-7.36929E-06 0.00000E+00
 -1       826 2.50764E-05-9.52666E-06 0.00000E+00
 -1       827 2.49381E-05-1.01137E-05 3.30872E-24
 -1       828 2.47989E-05-8.57504E-06-1.65436E-24
 -1       829 2.46544E-05-4.94260E-06 0.00000E+00
 -1       830 2.45009E-05 7.38576E-07 1.65436E-24
 -1       831 2.43387E-05 7.85732E-06 0.00000E+00
 -1       832 2.41709E-05 1.57934E-05 0.00000E+00
 -1       833 2.40034E-05 2.37004E-05-3.30872E-24
 -1       834 2.38437E-05 3.07321E-05 1.65436E-24
 -1       835 2.36923E-05 3.62836E-05-8.27181E-25
 -1       836 2.40453E-05 2.51472E-06 0.00000E+00
 -1       837 2.19828E-05 2.65615E-06-1.65436E-24
 -1       838 1.98074E-05 2.79713E-06-3.30872E-24
 -1       839 1.76074E-05 2.93719E-06 1.65436E-24
 -1       840 1.54713E-05 3.07716E-06-4.13590E-25
 -1       856 2.34999E-05 4.22845E-05 0.00000E+00
 -1       857 2.34361E-05 4.49799E-05-4.13590E-25
 -1       858 2.33722E-05 4.78186E-05 1.65436E-24
 -1       859 2.33070E-05 5.07738E-05 8.27181E-25
 -1       860 2.32415E-05 5.38183E-05 0.00000E+00
 -1       861 2.31757E-05 5.69247E-05-8.27181E-25
 -1       862 2.31097E-05 6.00655E-05 0.00000E+00
 -1       863 2.30436E-05 6.32130E-05 0.00000E+00
 -1       864 2.29777E-05 6.63397E-05 0.00000E+00
 -1       865 2.29118E-05 6.94179E-05 8.27181E-25
 -1       866 2.28462E-05 7.24203E-05 1.65436E-24
 -1       867 2.27808E-05 7.53193E-05 0.00000E+00
 -1       868 2.27158E-05 7.80882E-05 1.65436E-24
 -1       869 2.26513E-05 8.07000E-05 0.00000E+00
 -1       870 2.25871E-05 8.31284E-05-1.65436E-24
 -1       871 2.13312E-05 3.97568E-05 8.27181E-25
 -1       872 1.92554E-05 3.97516E-05 0.00000E+00
 -1       873 1.72677E-05 3.97459E-05 0.00000E+00
 -1       874 1.53043E-05 3.97396E-05-2.06795E-25
 -1       875 1.33014E-05 3.97324E-05 0.00000E+00
 -1       876 2.27508E-05 4.22962E-05 0.00000E+00
 -1       877 2.19156E-05 4.49161E-05 1.65436E-24
 -1       878 2.10533E-05 4.76088E-05 0.00000E+00
 -1       879 2.01674E-05 5.03649E-05 1.65436E-24
 -1       880 1.92611E-05 5.31748E-05 3.30872E-24
 -1       881 1.83382E-05 5.60291E-05-1.65436E-24
 -1       882 1.74021E-05 5.89184E-05 3.30872E-24
 -1       883 1.64563E-05 6.18333E-05 0.00000E+00
 -1       884 1.55043E-05 6.47644E-05 0.00000E+00
 -1       885 1.45498E-05 6.77023E-05 1.65436E-24
 -1       886 1.35962E-05 7.06377E-05 0.00000E+00
 -1       887 1.26469E-05 7.35611E-05 1.65436E-24
 -1       888 1.17055E-05 7.64631E-05 3.30872E-24
 -1       889 1.07751E-05 7.93341E-05-1.65436E-24
 -1       890 9.85910E-06 8.21648E-05 1.65436E-24
 -1       891 2.04489E-05 8.52802E-05-1.65436E-24
 -1       892 1.83458E-05 8.52127E-05 0.00000E+00
 -1       893 1.61795E-05 8.51451E-05-1.65436E-24
 -1       894 1.39153E-05 8.50775E-05-4.13590E-25
 -1       895 1.15185E-05 8.50098E-05-1.24077E-24
 -1       956 1.33471E-05 5.10913E-06-3.30872E-24
 -1       957 1.32047E-05 7.10492E-06 8.27181E-25
 -1       958 1.30618E-05 9.18600E-06 0.00000E+00
 -1       959 1.29185E-05 1.13430E-05 1.65436E-24
 -1       960 1.27750E-05 1.35666E-05 0.00000E+00
 -1       961 1.26313E-05 1.58474E-05 1.65436E-24
 -1       962 1.24874E-05 1.81759E-05-3.30872E-24
 -1       963 1.23435E-05 2.05427E-05-1.65436E-24
 -1       964 1.21995E-05 2.29383E-05 0.00000E+00
 -1       965 1.20555E-05 2.53533E-05-1.65436E-24
 -1       966 1.19114E-05 2.77782E-05 0.00000E+00
 -1       967 1.17674E-05 3.02036E-05 1.65436E-24
 -1       968 1.16235E-05 3.26199E-05 0.00000E+00
 -1       969 1.14799E-05 3.50178E-05-1.65436E-24
 -1       970 1.13367E-05 3.73879E-05 3.30872E-24
 -1       971 1.10583E-05 4.20980E-05 0.00000E+00
 -1       972 1.09188E-05 4.46035E-05 1.65436E-24
 -1       973 1.07788E-05 4.72233E-05-3.30872E-24
 -1       974 1.06384E-05 4.99427E-05 0.00000E+00
 -1       975 1.04977E-05 5.27468E-05 0.00000E+00
 -1       976 1.03567E-05 5.56209E-05 0.00000E+00
 -1       977 1.02156E-05 5.85501E-05 0.00000E+00
 -1       978 1.00743E-05 6.15196E-05 0.00000E+00
 -1       979 9.93303E-06 6.45145E-05 0.00000E+00
 -1       980 9.79172E-06 6.75201E-05 0.00000E+00
 -1       981 9.65047E-06 7.05213E-05-3.30872E-24
 -1       982 9.50938E-06 7.35033E-05 1.65436E-24
 -1       983 9.36856E-06 7.64514E-05 0.00000E+00
 -1       984 9.22843E-06 7.93506E-05 0.00000E+00
 -1       985 9.08905E-06 8.21862E-05 0.00000E+00
 -3
    1PSTEP                        42          21           1          
  100CL  121 8.10906E-01         409                     0   21           1
 -4  STRESS      6    1
 -5  SXX         1    4    1    1
 -5  SYY         1    4    2    2
 -5  SZZ         1    4    3    3
 -5  SXY         1    4    1    2
 -5  SYZ         1    4    2    3
 -5  SZX         1    4    3    1
 -1         1-4.10341E+06-1.69819E+06-7.85526E+05-1.71790E+06 3.49974E-09-1.28668E-07
 -1         2 5.30357E+06 6.10924E+07 1.34099E+07-2.38383E+07-5.45988E-08 2.11905E-07
 -1         3-1.00055E+02 2.79425E+06-4.68385E+02-7.47209E+02 2.17572E-10 6.89943E-09
 -1         5-1.22316E+02 4.05466E+05 1.05275E+01 1.87300E+00 4.83251E-10 4.49654E-08
 -1         8 5.47044E+06 8.71472E+05 1.61236E+06-1.99004E+06-4.35030E-08 5.96920E-08
 -1         9 2.89111E+07 3.71780E+07 1.01686E+07 1.57346E+07 6.31437E-08 3.17208E-07
 -1        10 2.14987E+03 2.91182E+06 8.85451E+03-5.49659E+03 2.09070E-09 1.05973E-09
 -1        12-1.18313E+02 4.05489E+05 3.48978E+02 1.24984E+01 7.54568E-10 7.49424E-10
 -1        15 3.88474E+03 2.13492E+03 1.25574E+04 9.17930E+00-4.38774E-10 2.75043E-07
 -1        16 3.29734E+07 3.85881E+07 9.54708E+06 3.61181E+07 3.41485E-08-6.19640E-07
 -1        17 3.48251E+07-5.63136E+05 4.53774E+06-5.77895E+06 3.52582E-08-5.64927E-08
 -1        18 1.02147E+06 2.40766E+05 2.20316E+05-7.73450E+04 1.93222E-09-2.55568E-09
 -1        19 1.24512E+05 1.54645E+05-2.17223E+02 2.55454E+04-2.35013E-09 3.43425E-10
 -1        20-3.35438E+04-5.89900E+05-1.28912E+05 5.28122E+04 7.12407E-09-6.47439E-09
 -1        21-5.65687E+01-3.62071E+05-1.18982E+03-5.30591E+02-3.30837E-08-3.51204E-09
 -1        24 5.65289E+07-3.38519E+06 6.50794E+06-1.01085E+07 1.57217E-07 4.50988E-08
 -1        25 4.60204E+05 1.88928E+06 4.79390E+05-8.56678E+04-4.57294E-10 8.39282E-09
 -1        26-5.85183E+03 1.13308E+05-1.63907E+04-2.58879E+04 2.97659E-09-9.68907E-10
 -1        27-9.79855E+04-3.25120E+05-1.22428E+05 7.43917E+04 1.32093E-08-4.91733E-09
 -1        28 2.86404E+04-9.76348E+04 2.03872E+04 3.55249E+04 4.19837E-09-4.78827E-09
 -1        32-3.27822E+05 4.49829E+06 1.63602E+06-6.86368E+05 2.73576E-09 7.44585E-08
 -1        33-1.81350E+05 9.95475E+04 3.49045E+04-6.84469E+04 4.36796E-09-1.77897E-09
 -1        34-2.45294E+05-2.32455E+04 4.46935E+02 7.15987E+04 1.02963E-08 3.79562E-10
 -1        35-2.88978E+04-3.87310E+04-1.52578E+03 6.31401E+04 1.53139E-08-3.29722E-09
 -1        51 3.68899E+04-1.11125E+06 8.48872E+04-1.25255E+06-2.32831E-10 1.46581E-07
 -1        52 1.98024E+04-1.10543E+06 5.08004E+04-1.46197E+06-1.47702E-09-1.33055E-07
 -1        53 1.21921E+04-1.12710E+06 3.57936E+04-1.24831E+06 8.29459E-10-5.03962E-07
 -1        54 2.89156E+04-1.12602E+06 4.83587E+04-1.46591E+06-1.46974E-09 3.56260E-07
 -1        55 5.21709E+04-1.14243E+06 8.05262E+04-1.24793E+06 4.07454E-10 5.47363E-07
 -1        56-7.75322E+06-8.56948E+05-6.11975E+05-2.91666E+06 6.92526E-08-1.33528E-07
 -1        57-7.94665E+06-1.18735E+06-3.73039E+05-2.64344E+06 1.69475E-08 3.39642E-08
 -1        58-8.03948E+06-8.74775E+05-1.60839E+05-2.66809E+06-6.51926E-08-4.29776E-07
 -1        59-7.57681E+06-1.26153E+06-6.63680E+04-3.10513E+06-8.96398E-09-3.61857E-07
 -1        60-8.15298E+06-7.54763E+05-3.88323E+04-2.48022E+06-8.13743E-08-1.98699E-07
 -1        61-7.49108E+06-1.38879E+06-1.45070E+04-3.38946E+06 6.73899E-08-8.51685E-08
 -1        62-8.17918E+06-7.08637E+05-7.78297E+03-2.41766E+06-4.20468E-08 5.48221E-08
 -1        63-7.49393E+06-1.36724E+06-3.55400E+03-3.35564E+06-4.70918E-08 4.17333E-07
 -1        64-8.14217E+06-7.81765E+05-2.24576E+04-2.50932E+06 2.41926E-09 4.32290E-07
 -1        65-7.59125E+06-1.18236E+06-8.63750E+03-3.02841E+06-2.07670E-07-5.53537E-08
 -1        66-8.02414E+06-9.33984E+05-7.23398E+04-2.70833E+06 1.91547E-07-6.74336E-08
 -1        67-7.89783E+06-9.18260E+05-1.01463E+05-2.59790E+06-1.64033E-07-4.14439E-07
 -1        68-7.81814E+06-1.05922E+06-2.27648E+05-2.92460E+06-3.86644E-08-2.96364E-07
 -1        69-8.48509E+06-9.49320E+05-5.87120E+05-2.22382E+06 6.72881E-08 2.62313E-07
 -1        70-7.48754E+06-8.79015E+05-8.91281E+05-3.11088E+06-3.46918E-08 2.54542E-07
 -1        86-5.37654E+06-3.53664E+07-7.54635E+06 1.08833E+07 4.58422E-07 9.86911E-08
 -1        87 9.68441E+06 1.79542E+07 6.08127E+06-1.55491E+07 5.19998E-07-1.15805E-06
 -1        88-2.30163E+06 1.37597E+06 6.43049E+05 4.63545E+06 7.04167E-07 6.05673E-07
 -1        89 1.19199E+07 1.75716E+07 6.19980E+06-1.59790E+07 8.73464E-07 2.29920E-08
 -1        90-7.41660E+06-3.51178E+07-8.56873E+06 1.14343E+07 2.12603E-07 6.94534E-07
 -1       121-5.68196E+01 2.79439E+06-5.93809E+02 3.73675E+02-4.03645E-10-4.57021E-09
 -1       122-3.10766E+02 2.79412E+06-1.05542E+03-1.50302E+03 8.67146E-10-2.52294E-09
 -1       123 8.99191E+01 2.79453E+06-1.83128E+03 1.12986E+03-9.99194E-10-3.87172E-09
 -1       124-2.87623E+03 2.79259E+06-4.61448E+03-2.93231E+03 1.64897E-09-5.27962E-09
 -1       125 1.73287E+03 2.79596E+06-6.76271E+03 1.80532E+03-1.34787E-09-2.16005E-09
 -1       191-1.28708E+02 4.05476E+05 6.77825E+00-9.95693E-01 7.01653E-10 2.69101E-08
 -1       192-1.23364E+02 4.05467E+05 2.25707E+01 5.77077E+00 9.90267E-10 4.98767E-09
 -1       193-1.31450E+02 4.05476E+05 3.63291E+01-5.13543E+00 1.30628E-09 1.68802E-09
 -1       194-1.26717E+02 4.05470E+05 8.60599E+01 1.30219E+01 7.53261E-10 2.03727E-10
 -1       195-1.36709E+02 4.05473E+05 1.62670E+02-8.63103E+00 1.90784E-09 4.18368E-09
 -1       251 2.97654E+07-1.22813E+06 2.81340E+06 7.40775E+04-6.57355E-08-5.25150E-07
 -1       252 3.13805E+07 1.47853E+06 2.05431E+06-2.17071E+06-2.60834E-08-4.63799E-07
 -1       253 3.04348E+07-1.25604E+05 7.52104E+05-1.16925E+06 8.91305E-09-8.63802E-08
 -1       254 3.06354E+07 2.30614E+05 4.63547E+05-1.01237E+06 1.15772E-08-6.07142E-07
 -1       255 3.05178E+07 1.21755E+04 1.96537E+05-1.08337E+06-4.47712E-08 1.88200E-07
 -1       256 3.05476E+07 6.99950E+04 1.16856E+05-1.09304E+06 7.34181E-08 7.02799E-07
 -1       257 3.05303E+07 3.43219E+04 6.07706E+04-1.08890E+06-4.14170E-08-4.24534E-08
 -1       258 3.05365E+07 4.72210E+04 5.11968E+04-1.08750E+06 2.46759E-08 2.06832E-07
 -1       259 3.05306E+07 3.48800E+04 5.68123E+04-1.08898E+06-2.10998E-08 4.48726E-07
 -1       260 3.05452E+07 6.52912E+04 1.05100E+05-1.09419E+06 3.24695E-08-2.02415E-07
 -1       261 3.05203E+07 1.63049E+04 1.76225E+05-1.08216E+06 3.16261E-08-9.16960E-07
 -1       262 3.06222E+07 1.98099E+05 4.10835E+05-9.97915E+05 1.07034E-08-5.30126E-08
 -1       263 3.04467E+07-9.73610E+04 6.72639E+05-1.18496E+06 1.61181E-08 1.20423E-06
 -1       264 3.14277E+07 1.33342E+06 1.85909E+06-2.40305E+06-1.83145E-08 4.19794E-07
 -1       265 2.97157E+07-1.11227E+06 2.47462E+06 3.21880E+05 4.59108E-08-4.03961E-08
 -1       266-7.03187E+04-3.28589E+04 1.65083E+05-1.96508E+02 2.60479E-09-1.15582E-07
 -1       267 8.15272E+04 3.83295E+04 1.16628E+05 2.26608E+02 2.49929E-09-4.60662E-07
 -1       268-1.09322E+04-5.42680E+03 4.33532E+04-2.88807E+01 3.05772E-09 1.15621E-06
 -1       269 1.29083E+04 6.49671E+03 2.81761E+04 3.36343E+01 3.40606E-10 8.28722E-07
 -1       270-1.93751E+03-1.06735E+03 1.36011E+04-4.56472E+00 8.84484E-10 7.80421E-07
 -1       271-1.02860E+07-1.21310E+06-9.00170E+05-3.87118E+06-1.82226E-08 3.64089E-07
 -1       272-1.03538E+07-1.87433E+06-5.46704E+05-3.91367E+06-1.10304E-08-2.43308E-07
 -1       273-1.05522E+07-1.31119E+06-2.27290E+05-3.70828E+06 3.79368E-08 2.09257E-07
 -1       274-1.00656E+07-1.77406E+06-1.06562E+05-4.25038E+06 1.40411E-07-3.23478E-07
 -1       275-1.06547E+07-1.23093E+06-5.56879E+04-3.60609E+06 4.07745E-08 6.51296E-07
 -1       276-1.00199E+07-1.83794E+06-2.16486E+04-4.46448E+06-8.31023E-08 1.07809E-06
 -1       277-1.06971E+07-1.17870E+06-1.14294E+04-3.55806E+06 2.40652E-08 5.33692E-07
 -1       278-1.00174E+07-1.85550E+06-7.88443E+03-4.51740E+06 1.07830E-08-2.40230E-07
 -1       279-1.06865E+07-1.19369E+06-1.41765E+04-3.57077E+06 4.61150E-08-4.46638E-07
 -1       280-1.00237E+07-1.80787E+06-1.99774E+04-4.39330E+06-5.75783E-08-2.08103E-07
 -1       281-1.06243E+07-1.27048E+06-6.14029E+04-3.64177E+06 2.95113E-08-2.23285E-07
 -1       282-1.00974E+07-1.71059E+06-1.03880E+05-4.13332E+06-3.37604E-09 3.07540E-07
 -1       283-1.05078E+07-1.36278E+06-2.30065E+05-3.76042E+06 4.53147E-08 3.20491E-07
 -1       284-1.04346E+07-1.77887E+06-5.41512E+05-3.78973E+06-2.14495E-08-3.10334E-07
 -1       285-1.02363E+07-1.26447E+06-8.91887E+05-3.92999E+06 2.62226E-08-8.64035E-07
 -1       301-7.54540E+04 9.58893E+04-1.58578E+05 1.97667E+06-1.22673E-08 1.21712E-07
 -1       302-5.64857E+04 4.58157E+04-6.16743E+04 2.89380E+06-3.06463E-08 9.96311E-07
 -1       303-2.27204E+04 3.55388E+04 9.10408E+03 1.97359E+06 1.81244E-08 5.02064E-07
 -1       304-1.23868E+04 9.23385E+04 8.79703E+04 2.89315E+06 4.30737E-09 1.12363E-07
 -1       305-3.05774E+04 5.86752E+04 1.71783E+05 1.97867E+06 5.51518E-09-6.54836E-09
 -1       306-4.34377E+07-5.52316E+07-2.83813E+07-3.22160E+07 2.90340E-07-5.39876E-07
 -1       307 1.59546E+07 1.25082E+08 2.20365E+07 3.25949E+07 1.37667E-06-1.42981E-06
 -1       308-4.61916E+06-3.81026E+07-1.05254E+07 7.41000E+06-1.55414E-08-3.54252E-07
 -1       309 1.24804E+07 2.81944E+07 8.44694E+06-4.49263E+07-2.72063E-07 5.26736E-07
 -1       310 1.53596E+06-1.77777E+06 1.42572E+06 8.85493E+06 3.03844E-08 1.17638E-07
 -1       311-2.40001E+06 7.15757E+07 1.22549E+07-2.23483E+07-1.24454E-06 1.05903E-06
 -1       312-1.10566E+07-6.05957E+07-1.82845E+07-1.00390E+07-3.59170E-07-4.47966E-07
 -1       313 6.81531E+07 9.56396E+07 2.58358E+07 7.09628E+07 1.00903E-07-7.69331E-07
 -1       314-6.90392E+07-2.33128E+07-2.45793E+07-2.47956E+07-7.28760E-08 2.38651E-09
 -1       315 1.30466E+08 4.49116E+06 2.16883E+07-2.56966E+06 7.61356E-07 1.56346E-07
 -1       316-3.11099E+07-1.18128E+07-1.01404E+07 1.57309E+07 3.16766E-07 7.71135E-07
 -1       317 9.05878E+05 3.96575E+07 8.43833E+06-4.06330E+07-1.79197E-06 1.21072E-07
 -1       318 3.67811E+06-4.17452E+06 1.02966E+06 7.98819E+06 1.04844E-06 2.30670E-07
 -1       319 5.05611E+07 2.26017E+07 1.23179E+07-4.06960E+07-6.31553E-09 4.31610E-07
 -1       320-6.22178E+07-1.41110E+07-2.13793E+07 7.94434E+06-2.18628E-07-5.20376E-08
 -1       336-3.08726E+03 3.02487E+06 2.58492E+04 3.69728E+03 6.10817E-09 1.84991E-09
 -1       337 9.77739E+03 3.03461E+06 3.98935E+04-8.70054E+03 1.10158E-08 3.76849E-09
 -1       338-5.33813E+03 3.02278E+06 6.20750E+04 5.00391E+03 8.38918E-09 3.55067E-09
 -1       339 6.92591E+04 3.07086E+06 1.47177E+05-1.15289E+04 1.42354E-08 3.63798E-10
 -1       340-4.94856E+04 2.98869E+06 2.29612E+05 6.45157E+03 9.44419E-09-3.86535E-09
 -1       406-9.73255E+01 4.05458E+05 6.83028E+02-4.98294E+00 2.51362E-09 2.26646E-09
 -1       407 1.22556E+02 4.05610E+05 1.46442E+03-2.88467E+01 5.22277E-10-3.27418E-10
 -1       408 6.31521E+02 4.05350E+05 2.91715E+03 3.37824E+01 2.99269E-09-4.87853E-09
 -1       409 3.05328E+03 4.06542E+05 6.57961E+03-3.67944E+02-5.82077E-11-7.31052E-09
 -1       410 8.98432E+03 4.04505E+05 1.34269E+04 3.56375E+02 3.26690E-09-9.20409E-10
 -1       521-4.34581E+07-5.41725E+07-2.98707E+07-2.83267E+07 1.17114E-07-1.21433E-06
 -1       522 1.31090E+07 1.27039E+08 2.07259E+07 3.20135E+07 1.25371E-06-6.07222E-07
 -1       523-5.60864E+06-3.49400E+07-1.03752E+07 6.78827E+06 5.64731E-07 4.42495E-07
 -1       524 1.34008E+07 2.43133E+07 8.16834E+06-4.81955E+07-3.75090E-07 1.15064E-06
 -1       525 1.85829E+06-2.28474E+06 1.71961E+06 8.35240E+06-1.00583E-07 1.02911E-06
 -1       526-3.01998E+06 7.15843E+07 1.18888E+07-2.60553E+07-4.81668E-07 4.16243E-07
 -1       527-1.31114E+07-5.72425E+07-1.90402E+07-8.64899E+06-5.03103E-07 4.99422E-07
 -1       528 6.80532E+07 9.72445E+07 2.44214E+07 7.41117E+07-6.04661E-07-5.34696E-07
 -1       529-6.64010E+07-2.51764E+07-2.60335E+07-2.17239E+07 3.36440E-07-2.64321E-07
 -1       530 1.32297E+08 2.37598E+06 2.04680E+07-5.16156E+06 1.42120E-06 3.95812E-09
 -1       531-2.85853E+07-1.22847E+07-1.00299E+07 1.41681E+07 8.49250E-07 3.11527E-07
 -1       532-4.82102E+06 4.26489E+07 8.17650E+06-4.17283E+07-1.53692E-06 3.61993E-07
 -1       533 3.09868E+06-3.72220E+06 1.30073E+06 7.78779E+06-9.25735E-07 7.96463E-07
 -1       534 4.77859E+07 2.48558E+07 1.19173E+07-4.39782E+07 9.33011E-07-6.25383E-07
 -1       535-5.86449E+07-1.64877E+07-2.23522E+07 7.58649E+06 1.69501E-07-5.22065E-07
 -1       536 3.70120E+06-1.23010E+05 2.84848E+05-2.33263E+04-2.61650E-08-5.70435E-09
 -1       537 3.82798E+06 1.42403E+05 2.01996E+05 9.81734E+03 5.61829E-09-4.52928E-09
 -1       538 3.75068E+06-1.92153E+04 7.39734E+04-6.97444E+03-4.74778E-09-3.38332E-09
 -1       539 3.77088E+06 2.22713E+04 4.65416E+04-6.67931E+03 2.54219E-09 2.32831E-10
 -1       540 3.75856E+06-3.00070E+03 1.91817E+04-6.83243E+03-3.64857E-10-5.55701E-10
 -1       541 3.76180E+06 3.57236E+03 1.16525E+04-6.82456E+03-2.82709E-08-1.03682E-10
 -1       542 3.75985E+06-5.32252E+02 6.09646E+03-6.82939E+03-9.52644E-06-2.09091E-08
 -1       543 3.76056E+06 1.14797E+03 5.55820E+03-6.82762E+03-1.89942E-05-3.53080E-08
 -1       544 3.75983E+06-5.78033E+02 6.50812E+03-6.82941E+03-9.52354E-06-2.10773E-08
 -1       545 3.76202E+06 3.96593E+03 1.28426E+04-6.82600E+03-2.87053E-08 8.78117E-10
 -1       546 3.75838E+06-3.34819E+03 2.13230E+04-6.83097E+03-3.00387E-09-1.77715E-09
 -1       547 3.77216E+06 2.48560E+04 5.18820E+04-6.92535E+03 6.49690E-10 5.45697E-10
 -1       548 3.74958E+06-2.14501E+04 8.24949E+04-6.72983E+03 8.52861E-09-1.25146E-09
 -1       549 3.83525E+06 1.58944E+05 2.25217E+05-2.18618E+04 6.24224E-09 2.32831E-10
 -1       550 3.69498E+06-1.37296E+05 3.17870E+05 8.10416E+03-7.54710E-10-1.70257E-09
 -1       551-1.88285E+04 2.41110E+05-2.48600E+04-1.55601E+06 1.23900E-08 2.53203E-09
 -1       552-3.54539E+03 2.24977E+05 1.20761E+04-2.21605E+06 8.87667E-10-7.96717E-10
 -1       553-9.02417E+02 2.19368E+05 4.93287E+04-1.55301E+06 7.45058E-09 5.09317E-10
 -1       554 2.43089E+04 2.68901E+05 1.24852E+05-2.21491E+06 6.98492E-09-2.67755E-09
 -1       555 1.38761E+04 2.25790E+05 2.25344E+05-1.55766E+06 1.84082E-08 1.81899E-09
 -1       556-1.22456E+05-2.04873E+04-6.32457E+04-2.81561E+04 7.17409E-09 1.21654E-08
 -1       557-1.37473E+05-1.57420E+04-3.28959E+04-3.29656E+04-3.75076E-09-1.85923E-09
 -1       558-1.26785E+05-9.72665E+03-1.39818E+04-3.54493E+04 7.42148E-09 5.24778E-09
 -1       559-1.30270E+05-7.10263E+03-6.88273E+03-3.26339E+04 1.69894E-09 5.97356E-09
 -1       560-1.27208E+05-9.52988E+03-3.24881E+03-3.57895E+04-8.00355E-10 4.38740E-09
 -1       561-1.29881E+05-6.71227E+03-1.57772E+03-3.25407E+04-5.28962E-09 4.50382E-09
 -1       562-1.27313E+05-9.55160E+03-8.39017E+02-3.58422E+04-5.78075E-09-1.04774E-09
 -1       563-1.29928E+05-6.66259E+03-4.32584E+02-3.25486E+04 4.67480E-10 6.30735E-09
 -1       564-1.27370E+05-9.53399E+03-3.51472E+02-3.58879E+04 2.09911E-09 8.03811E-09
 -1       565-1.30018E+05-6.60658E+03-3.09589E+02-3.25715E+04 1.57161E-09 4.49381E-09
 -1       566-1.27418E+05-9.51292E+03-5.26460E+02-3.59409E+04 3.16504E-10-1.26056E-09
 -1       567-1.30190E+05-6.56885E+03-9.11519E+02-3.25848E+04 2.31012E-10-4.54747E-09
 -1       568-1.27396E+05-9.52768E+03-1.83948E+03-3.59760E+04-2.35377E-09-1.13323E-09
 -1       569-1.31609E+05-7.19049E+03-4.16741E+03-3.21972E+04-3.28873E-09-2.45655E-09
 -1       570-1.26538E+05-1.12044E+04-8.02398E+03-3.55439E+04-5.60249E-10-5.75710E-10
 -1       571 2.81979E+05 8.77562E+03 1.32375E+04-5.81683E+04-2.86491E-09-5.15683E-10
 -1       572 2.83955E+05 2.93904E+03 6.48621E+03-6.37132E+04-4.11637E-09-2.24691E-09
 -1       573 2.82754E+05 5.90238E+02 2.88105E+03-5.79760E+04-1.38571E-08 4.97948E-10
 -1       574 2.82991E+05 8.15853E+01 1.44368E+03-6.39117E+04-2.24900E-08-1.00226E-09
 -1       575 2.82827E+05-1.08110E+02 6.79725E+02-5.79515E+04-8.29004E-09-2.38560E-09
 -1       576 2.82848E+05-1.41911E+02 3.45138E+02-6.39381E+04 3.81374E-09 3.66526E-10
 -1       577 2.82829E+05-1.39169E+02 1.67925E+02-5.79484E+04-7.19683E-09 3.24553E-09
 -1       578 2.82825E+05-1.47782E+02 8.74294E+01-6.39412E+04-1.74998E-08 7.32143E-11
 -1       579 2.82836E+05-1.36965E+02 4.57579E+01-5.79484E+04-1.44437E-08-8.15817E-10
 -1       580 2.82837E+05-1.52514E+02 2.97691E+01-6.39382E+04 2.65209E-09 6.59838E-10
 -1       581 2.82859E+05-1.46591E+02 2.57951E+01-5.79514E+04-5.31418E-09-6.82576E-10
 -1       582 2.82873E+05-1.64407E+02 3.85790E+01-6.39080E+04-3.19142E-09-1.57479E-09
 -1       583 2.82896E+05-1.52803E+02 6.59664E+01-5.79784E+04-1.59162E-09-4.64593E-09
 -1       584 2.82946E+05-1.25025E+02 1.45743E+02-6.36794E+04-6.96673E-09-4.68572E-09
 -1       585 2.82930E+05 5.88824E+00 2.90623E+02-5.81802E+04 1.25783E-09-2.42835E-09
 -1       586-5.20433E+03 7.98917E+04-7.99826E+03-1.69713E+05 2.84939E-09-2.71575E-09
 -1       587-1.12508E+03 7.86570E+04-2.70323E+03-1.86594E+05 5.82077E-09-5.92991E-10
 -1       588 8.93060E+02 7.91883E+04 1.23904E+03-1.69533E+05 5.01859E-09 2.61502E-09
 -1       589 3.83425E+03 8.02631E+04 6.11768E+03-1.86569E+05 7.35417E-09-2.40016E-09
 -1       590 1.01810E+04 7.83114E+04 1.39682E+04-1.69710E+05 3.12730E-09-1.83172E-09
 -1       591-5.72158E+04-1.94066E+04-2.18683E+04-3.32136E+04 3.21623E-09-3.88900E-09
 -1       592-5.84800E+04-2.55571E+04-1.18442E+04-3.97901E+04 6.43013E-10 4.87489E-10
 -1       593-5.94400E+04-1.77840E+04-4.93142E+03-3.47875E+04 1.78716E-09-9.00400E-10
 -1       594-5.54263E+04-2.23896E+04-2.45907E+03-3.99613E+04 1.12544E-08 2.61292E-09
 -1       595-5.96133E+04-1.77738E+04-1.13027E+03-3.48616E+04 3.70665E-09-1.06951E-09
 -1       596-5.52228E+04-2.22435E+04-5.75945E+02-3.99432E+04-1.66892E-09 5.45469E-10
 -1       597-5.96361E+04-1.77867E+04-3.17112E+02-3.48651E+04 5.40325E-10 2.96188E-09
 -1       598-5.52035E+04-2.22379E+04-2.61311E+02-3.99375E+04 1.81123E-09-9.96351E-10
 -1       599-5.96335E+04-1.77874E+04-3.42097E+02-3.48641E+04-1.07457E-09 4.93856E-10
 -1       600-5.52229E+04-2.22464E+04-6.41926E+02-3.99407E+04-2.48963E-09-2.43631E-09
 -1       601-5.96033E+04-1.77744E+04-1.27034E+03-3.48578E+04-6.90306E-10 3.67254E-09
 -1       602-5.54499E+04-2.24115E+04-2.76954E+03-3.99569E+04 2.96291E-09-1.31786E-09
 -1       603-5.94048E+04-1.77896E+04-5.55610E+03-3.47739E+04 3.24690E-10-2.74667E-10
 -1       604-5.88966E+04-2.59708E+04-1.33439E+04-3.97496E+04-1.13687E-11 6.89033E-09
 -1       605-5.68862E+04-1.96255E+04-2.46370E+04-3.30086E+04-1.03410E-09-3.00133E-10
 -1       606 4.94927E+04-1.35602E+04-2.45258E+04 4.89317E+04-1.27220E-08-4.32374E-09
 -1       607 4.52773E+04-4.30607E+03-1.22093E+04 5.49080E+04-3.41242E-09-4.20732E-09
 -1       608 4.76182E+04-6.64613E+02-5.47394E+03 4.85293E+04 8.82937E-09 1.41654E-09
 -1       609 4.71082E+04-6.99863E+01-2.76238E+03 5.53338E+04-5.80621E-09-2.77078E-09
 -1       610 4.73383E+04 1.48432E+02-1.32431E+03 4.84847E+04-1.30276E-08-1.76442E-09
 -1       611 4.72084E+04 2.11757E+02-6.66915E+02 5.53799E+04-2.36105E-08 1.74623E-09
 -1       612 4.72285E+04 2.01975E+02-3.23034E+02 4.84804E+04-1.09449E-08-1.31877E-10
 -1       613 4.71526E+04 2.53113E+02-1.48250E+02 5.53848E+04-1.63591E-08-3.59842E-09
 -1       614 4.71555E+04 2.28664E+02-4.75204E+01 4.84789E+04-2.20825E-09-2.06637E-09
 -1       615 4.70947E+04 2.83713E+02 3.48680E+01 5.53851E+04 1.51522E-08-3.40469E-09
 -1       616 4.71008E+04 2.55813E+02 1.28983E+02 4.84793E+04-7.39601E-09-1.38471E-09
 -1       617 4.70717E+04 3.34169E+02 3.05894E+02 5.53838E+04 2.05182E-09-4.93401E-10
 -1       618 4.70461E+04 3.61638E+02 6.19642E+02 4.84793E+04 2.00089E-09-1.81444E-10
 -1       619 4.72673E+04 8.27479E+02 1.39438E+03 5.53820E+04-2.85763E-09-9.04947E-10
 -1       620 4.68260E+04 1.84278E+03 2.80277E+03 4.84746E+04 3.06909E-09 1.19280E-09
 -1       621 7.50820E+02 3.33394E+05 5.95152E+03-7.23999E+03-1.50317E-09-2.02840E-09
 -1       622 8.32850E+02 3.34868E+05 4.60340E+03-1.03022E+04-1.25175E-09-4.92173E-09
 -1       623 5.36271E+01 3.33884E+05 4.70670E+03-7.20778E+03-1.31718E-09 2.41471E-10
 -1       624 2.01096E+03 3.35948E+05 8.42650E+03-1.03388E+04-1.21463E-09 6.64613E-10
 -1       625 1.99906E+03 3.32307E+05 1.44075E+04-7.19929E+03-1.19962E-09-2.22400E-09
 -1       626 2.52512E+05 7.61643E+04 4.60357E+03 1.45000E+05-1.52932E-08 3.88536E-09
 -1       627 2.48270E+05 7.95749E+04 2.22093E+03 1.51239E+05-2.13031E-08 9.91940E-09
 -1       628 2.52700E+05 7.39335E+04 9.34053E+02 1.45597E+05-6.02813E-09 1.21540E-08
 -1       629 2.47480E+05 7.91416E+04 4.60343E+02 1.51587E+05-5.74619E-09-6.37738E-09
 -1       630 2.52675E+05 7.38469E+04 2.10873E+02 1.45582E+05 8.80027E-09 9.22046E-09
 -1       631 2.47349E+05 7.91530E+04 1.15528E+02 1.51568E+05 1.04155E-08-1.86103E-09
 -1       632 2.52631E+05 7.38726E+04 7.74498E+01 1.45551E+05-1.08939E-08-7.28437E-09
 -1       633 2.47303E+05 7.91732E+04 9.09283E+01 1.51538E+05-1.36170E-08-1.98793E-09
 -1       634 2.52594E+05 7.38849E+04 1.49354E+02 1.45531E+05 2.16414E-08 9.92031E-10
 -1       635 2.47291E+05 7.91835E+04 3.05715E+02 1.51523E+05 2.44800E-08-2.06064E-08
 -1       636 2.52566E+05 7.38907E+04 6.17630E+02 1.45518E+05 1.45646E-08 1.04674E-08
 -1       637 2.47407E+05 7.92852E+04 1.35756E+03 1.51511E+05 9.15679E-09-4.47426E-09
 -1       638 2.52510E+05 7.41945E+04 2.78972E+03 1.45376E+05 5.55065E-09-1.11690E-08
 -1       639 2.48867E+05 8.13265E+04 6.59879E+03 1.51080E+05-2.39368E-09-2.87346E-08
 -1       640 2.52331E+05 8.02545E+04 1.36929E+04 1.42786E+05-1.61526E-09-1.08757E-08
 -1       656 7.15325E+04-1.79771E+06-1.72601E+05 2.72469E+03 4.07454E-10 2.09127E-10
 -1       657-9.44849E+04-1.87541E+06-1.42573E+05 1.49077E+04 6.18456E-10 5.32694E-11
 -1       658 2.26049E+04-1.81991E+06-8.72519E+04-2.59493E+02 7.75344E-10-4.44743E-10
 -1       659-1.00735E+05-1.87840E+06-1.50779E+05 1.67248E+04-1.72258E-09 2.37424E-09
 -1       660 7.77723E+04-1.79472E+06-1.86684E+05 9.07639E+02-8.00355E-11-2.13838E-09
 -1       661 3.04233E+05 3.39189E+04 2.83021E+04 1.19413E+05 8.90986E-09 1.31513E-09
 -1       662 3.18701E+05 5.63851E+04 1.90701E+04 1.14807E+05 1.09249E-08-1.42040E-09
 -1       663 3.09799E+05 4.29878E+04 6.67141E+03 1.17791E+05 3.26236E-09 9.47693E-10
 -1       664 3.12250E+05 4.57794E+04 3.98845E+03 1.16790E+05-3.22376E-09 6.99174E-10
 -1       665 3.10643E+05 4.42262E+04 1.57293E+03 1.17544E+05-4.07817E-09-2.78675E-09
 -1       666 3.11251E+05 4.43655E+04 9.16420E+02 1.17116E+05-1.94934E-08 3.82234E-09
 -1       667 3.10794E+05 4.43641E+04 4.81192E+02 1.17479E+05-9.87569E-10-5.85366E-10
 -1       668 3.11077E+05 4.42709E+04 4.78869E+02 1.17218E+05 1.15360E-08 3.82016E-10
 -1       669 3.10815E+05 4.43172E+04 6.37985E+02 1.17443E+05 1.51818E-08-2.03983E-10
 -1       670 3.11210E+05 4.46335E+04 1.38059E+03 1.17247E+05 1.57851E-08-2.11031E-10
 -1       671 3.10661E+05 4.40081E+04 2.44770E+03 1.17447E+05 1.58127E-09-2.14413E-10
 -1       672 3.12609E+05 4.70402E+04 6.26003E+03 1.16933E+05-9.95988E-09-1.32366E-09
 -1       673 3.09424E+05 4.19700E+04 1.04895E+04 1.17734E+05-1.07764E-09-3.16822E-09
 -1       674 3.22573E+05 6.39085E+04 2.99954E+04 1.14022E+05 1.40972E-11 2.45382E-09
 -1       675 3.00762E+05 2.76104E+04 4.45249E+04 1.20179E+05 5.75619E-09-4.06180E-09
 -1       676 3.13084E+01-3.61968E+05-1.43406E+03 2.65307E+02 2.30929E-09 1.70526E-09
 -1       677-3.77275E+02-3.62318E+05-2.62465E+03-5.30046E+02-1.06224E-08 1.19158E-11
 -1       678 2.54717E+02-3.61721E+05-4.63978E+03 2.64562E+02-7.06655E-09 1.66865E-09
 -1       679-4.63817E+03-3.65120E+05-1.10225E+04-5.27486E+02-8.20023E-09-1.06945E-09
 -1       680 2.77091E+03-3.59169E+05-1.77644E+04 2.59676E+02-7.16682E-10-5.94866E-10
 -1       771-3.95040E+06-5.07924E+05-2.13834E+05-1.38028E+06 8.91305E-09 9.97716E-09
 -1       772-4.02468E+06-5.03214E+05-1.15576E+05-1.37014E+06 7.91624E-09 2.00089E-10
 -1       773-3.97058E+06-4.93864E+05-4.85532E+04-1.39839E+06 5.58066E-09-7.31234E-10
 -1       774-3.99969E+06-4.68333E+05-2.40102E+04-1.36864E+06-5.99175E-09-4.80577E-09
 -1       775-3.97210E+06-4.94185E+05-1.13304E+04-1.40087E+06 1.44792E-09-2.87400E-09
 -1       776-4.00084E+06-4.64506E+05-5.45432E+03-1.36721E+06 5.80621E-09 3.91992E-10
 -1       777-3.97235E+06-4.94543E+05-2.89122E+03-1.40242E+06 3.56522E-10 2.67391E-10
 -1       778-4.00335E+06-4.62457E+05-1.50476E+03-1.36627E+06 2.73576E-09 6.89761E-09
 -1       779-3.97246E+06-4.94718E+05-1.24384E+03-1.40370E+06 2.43745E-09-1.06229E-09
 -1       780-4.00559E+06-4.60845E+05-1.35738E+03-1.36562E+06 1.53523E-09 9.26775E-10
 -1       781-3.97253E+06-4.94800E+05-2.38237E+03-1.40471E+06 6.23913E-09-3.81442E-09
 -1       782-4.00764E+06-4.59943E+05-4.81156E+03-1.36522E+06 7.56700E-09-3.12843E-09
 -1       783-3.97229E+06-4.94858E+05-9.59915E+03-1.40526E+06 4.21824E-09 3.47609E-09
 -1       784-4.01451E+06-4.65503E+05-2.29831E+04-1.36478E+06 3.41061E-09-1.35697E-09
 -1       785-3.96819E+06-4.97859E+05-4.24393E+04-1.40245E+06 6.21799E-09-8.01083E-09
 -1       786 3.43880E+05-1.54566E+04 3.57649E+04 5.90604E+02 2.77921E-09-3.36877E-09
 -1       787 3.59380E+05 1.78949E+04 2.53036E+04 9.34778E+01 1.81485E-09-8.78117E-10
 -1       788 3.49862E+05-2.42246E+03 9.25860E+03 4.81255E+02 1.35751E-09 6.35282E-10
 -1       789 3.52413E+05 2.80394E+03 5.81922E+03 2.47281E+02 8.03829E-08-2.62298E-09
 -1       790 3.50850E+05-3.78144E+02 2.37189E+03 4.36820E+02 2.43065E-05-2.82826E-08
 -1       791 3.51261E+05 4.41368E+02 1.40026E+03 3.05719E+02 4.84378E-05-5.73157E-08
 -1       792 3.51014E+05-6.16709E+01 6.54084E+02 4.22820E+02 1.41647E-05-1.62615E-08
 -1       793 3.51080E+05 9.48491E+01 4.59079E+02 3.12721E+02-2.01455E-05 2.54504E-08
 -1       794 3.51032E+05-3.18509E+01 3.86673E+02 4.29819E+02-1.01431E-05 9.67647E-09
 -1       795 3.51124E+05 1.85065E+02 6.26579E+02 2.73543E+02-3.16880E-08 2.92181E-09
 -1       796 3.50970E+05-1.51827E+02 9.79239E+02 4.61999E+02-5.02218E-10-8.02629E-10
 -1       797 3.51581E+05 1.12168E+03 2.34258E+03 1.64095E+02-4.43230E-09 1.02168E-09
 -1       798 3.50575E+05-9.67790E+02 3.70796E+03 5.39266E+02-1.90545E-09-1.66210E-10
 -1       799 3.54373E+05 7.15272E+03 1.01197E+04-8.61823E+01-5.71972E-09 1.19155E-09
 -1       800 3.48176E+05-6.17805E+03 1.42937E+04 7.12270E+02-8.45450E-10 5.81167E-10
 -1       801-3.57504E+05 8.93047E+06 8.64670E+05-1.17039E+04 4.30737E-09-3.83534E-09
 -1       802 4.90415E+05 9.33001E+06 7.47236E+05-6.22750E+04 9.83709E-09-2.03170E-09
 -1       803-1.31830E+05 9.03366E+06 5.02284E+05-4.30077E+04 1.85537E-09-8.83941E-09
 -1       804 6.38158E+05 9.39697E+06 9.40503E+05-4.12800E+04 3.22325E-09 3.06449E-09
 -1       805-5.04869E+05 8.86325E+06 1.20057E+06-3.26910E+04-2.67755E-09 5.68562E-08
 -1       806-3.06737E+05-7.78146E+04-3.13626E+04-1.40196E+05 1.24433E-08-2.92312E-09
 -1       807-3.07461E+05-7.44497E+04-1.54068E+04-1.49787E+05 1.30885E-08-1.03803E-08
 -1       808-3.07695E+05-6.64228E+04-6.53535E+03-1.45461E+05 1.38521E-08-9.54515E-10
 -1       809-3.04107E+05-7.02448E+04-3.19349E+03-1.50331E+05 1.36401E-08 6.47685E-09
 -1       810-3.07851E+05-6.60119E+04-1.46168E+03-1.45694E+05 4.01542E-10-4.37853E-09
 -1       811-3.03856E+05-7.00808E+04-7.22766E+02-1.50308E+05 9.97602E-10 2.01635E-09
 -1       812-3.07879E+05-6.60374E+04-3.57205E+02-1.45695E+05 8.25025E-10-5.97061E-09
 -1       813-3.03823E+05-7.00866E+04-2.19381E+02-1.50291E+05 6.88499E-09 3.18914E-09
 -1       814-3.07874E+05-6.60503E+04-1.96257E+02-1.45688E+05 6.58792E-09-7.98082E-10
 -1       815-3.03819E+05-7.00925E+04-2.97234E+02-1.50281E+05 5.92490E-09-7.72661E-09
 -1       816-3.07847E+05-6.60537E+04-5.51693E+02-1.45679E+05-3.20142E-09-8.52106E-09
 -1       817-3.03902E+05-7.01493E+04-1.17886E+03-1.50259E+05 9.65701E-09-2.35832E-09
 -1       818-3.07761E+05-6.62284E+04-2.40246E+03-1.45593E+05-8.44375E-09-4.26189E-09
 -1       819-3.05222E+05-7.15828E+04-5.65157E+03-1.49908E+05-2.15214E-08 8.85711E-09
 -1       820-3.07277E+05-7.05175E+04-1.15044E+04-1.43768E+05-1.04528E-08 5.54678E-09
 -1       821-3.86277E+05 2.21127E+04-5.20301E+04 1.49033E+03 1.89766E-09 5.56611E-10
 -1       822-4.04586E+05-2.56816E+04-3.60857E+04-8.14393E+03 3.27676E-09 6.68479E-11
 -1       823-3.93145E+05 3.54229E+03-1.33980E+04 4.00355E+03-8.59072E-09 2.36469E-09
 -1       824-3.96071E+05-4.10758E+03-8.31600E+03-1.03600E+04 1.51155E-09-1.02318E-10
 -1       825-3.94828E+05 5.87278E+02-3.53540E+03 3.70654E+03 1.34147E-08 1.65528E-10
 -1       826-3.92372E+05-6.04417E+02-1.57382E+03-7.17795E+03 1.36401E-08 2.66070E-09
 -1       827-3.96787E+05-3.00748E+00-1.51197E+03 8.21373E+02-1.55302E-09 9.57471E-10
 -1       828-3.90546E+05-4.34267E+01-9.88194E+01-4.41085E+02-2.14353E-08 1.95221E-09
 -1       829-3.96611E+05-8.45010E+00-1.47850E+03-3.03005E+03 3.39986E-09-5.27751E-09
 -1       830-3.92769E+05-5.61838E+02-1.64128E+03 6.04411E+03 1.08760E-08 3.56636E-09
 -1       831-3.94617E+05 5.57433E+02-3.49722E+03-5.66401E+03-1.76577E-08-7.88282E-09
 -1       832-3.96176E+05-4.01961E+03-8.31230E+03 8.63109E+03-1.08403E-08 3.29396E-09
 -1       833-3.93252E+05 3.48462E+03-1.34159E+04-5.61752E+03 8.24144E-10-1.85628E-09
 -1       834-4.04300E+05-2.55758E+04-3.59812E+04 5.85772E+03-3.62303E-09 9.33142E-10
 -1       835-3.86447E+05 2.20573E+04-5.20178E+04-2.89005E+03 1.07759E-08-3.83807E-09
 -1       836-1.28562E+03 4.10593E+05 2.41955E+04-4.71708E+04 8.48195E-09-1.38152E-09
 -1       837 5.65145E+03 4.17911E+05 2.06212E+04-9.42037E+04 1.07016E-08-6.26119E-09
 -1       838-3.50811E+02 4.12649E+05 2.11944E+04-4.70417E+04 9.23774E-09-1.82774E-09
 -1       839 1.38994E+04 4.24054E+05 4.02712E+04-9.42162E+04 1.08703E-08-3.82045E-09
 -1       840-3.94096E+03 4.04385E+05 6.42786E+04-4.71483E+04 8.55653E-09-1.19326E-09
 -1       856-1.69133E+05 1.23265E+04-3.24943E+04-1.02582E+03-1.02592E-08-1.53887E-09
 -1       857-1.82568E+05-1.44386E+04-2.23705E+04 6.63644E+03-1.25508E-08-5.05679E-10
 -1       858-1.74434E+05 1.72379E+03-8.43433E+03-1.08150E+03-1.54599E-08-2.50066E-09
 -1       859-1.76485E+05-1.98334E+03-5.09460E+03 6.72961E+03 6.98537E-09-3.50315E-09
 -1       860-1.75225E+05 2.36582E+02-2.14547E+03-1.11987E+03 1.79605E-09-2.12310E-09
 -1       861-1.75576E+05-2.39317E+02-1.20089E+03 6.78252E+03-1.60226E-08-3.88638E-09
 -1       862-1.75348E+05 2.86816E+01-5.41077E+02-1.13456E+03 1.14213E-08-2.98130E-09
 -1       863-1.75433E+05 2.89197E+00-2.92176E+02 6.78818E+03 2.83057E-08-7.12615E-09
 -1       864-1.75369E+05-1.52593E-01-1.41652E+02-1.12555E+03 1.92916E-08-3.39691E-09
 -1       865-1.75403E+05 3.13961E+01-8.39711E+01 6.74553E+03 2.01240E-08-2.03678E-09
 -1       866-1.75374E+05-2.30682E+00-6.09311E+01-1.09190E+03-1.29319E-10-2.33833E-09
 -1       867-1.75394E+05 1.08872E+01-7.63146E+01 6.65454E+03-3.91620E-09-2.36881E-09
 -1       868-1.75370E+05 1.38618E+01-1.13917E+02-1.03451E+03 3.28328E-09-4.42781E-09
 -1       869-1.75442E+05-1.43796E+02-2.69854E+02 6.51123E+03-1.01464E-08-4.45004E-09
 -1       870-1.75313E+05 1.39237E+02-4.02777E+02-9.48527E+02 1.03751E-09-2.83302E-09
 -1       871-6.27650E+03-8.72183E+03-1.89787E+04 1.21763E+05 8.72569E-09-1.11941E-08
 -1       872-3.04350E+03-1.28821E+04-7.61400E+03 1.57856E+05 1.52995E-08-1.50003E-08
 -1       873-4.31864E+02-1.10532E+04 1.39439E+03 1.21503E+05 6.90034E-09-1.19348E-08
 -1       874 2.58497E+03-8.02106E+03 1.14366E+04 1.57927E+05 1.72222E-08-8.35189E-09
 -1       875 6.87932E+03-1.37190E+04 2.51479E+04 1.21737E+05 1.01900E-08-7.56063E-09
 -1       876 3.24045E+05 5.69810E+04 1.78591E+04 1.32824E+05-1.21156E-08-1.95723E-09
 -1       877 3.24926E+05 6.10452E+04 9.53760E+03 1.38241E+05-1.83079E-08-4.96573E-09
 -1       878 3.25706E+05 5.50109E+04 3.99527E+03 1.34295E+05 5.36147E-09-7.34235E-09
 -1       879 3.22492E+05 5.86271E+04 1.99036E+03 1.38363E+05 2.50975E-09 4.38547E-09
 -1       880 3.25823E+05 5.49922E+04 9.25945E+02 1.34354E+05 6.76164E-09-7.36122E-09
 -1       881 3.22330E+05 5.85236E+04 4.92478E+02 1.38333E+05 1.77847E-08-5.07740E-09
 -1       882 3.25833E+05 5.50089E+04 3.11072E+02 1.34356E+05 1.67518E-08 5.43805E-09
 -1       883 3.22317E+05 5.85184E+04 3.28314E+02 1.38323E+05 5.71799E-09 1.08286E-08
 -1       884 3.25825E+05 5.50064E+04 5.16459E+02 1.34356E+05-5.26802E-09 3.74837E-09
 -1       885 3.22358E+05 5.85256E+04 1.03470E+03 1.38335E+05 9.10146E-09 3.71347E-09
 -1       886 3.25785E+05 5.49759E+04 2.08344E+03 1.34352E+05 5.71919E-09 1.70257E-09
 -1       887 3.22724E+05 5.87657E+04 4.55002E+03 1.38389E+05-2.17335E-08 8.09337E-10
 -1       888 3.25500E+05 5.50248E+04 9.16772E+03 1.34206E+05-2.21570E-09 5.66615E-09
 -1       889 3.28192E+05 6.44330E+04 2.18998E+04 1.38215E+05 3.66225E-09 3.84762E-09
 -1       890 3.21777E+05 5.94514E+04 4.10175E+04 1.30697E+05 1.14444E-08 4.24370E-09
 -1       891-3.24182E+02-1.86988E+05-2.16795E+03 3.82500E+04 9.81049E-09 3.64707E-10
 -1       892-5.40694E+02-1.87433E+05-2.37163E+03 5.77303E+04 1.67347E-09-6.76846E-09
 -1       893-1.92847E+02-1.87038E+05-3.40593E+03 3.82571E+04 5.37420E-09 3.94448E-09
 -1       894-2.07220E+03-1.88708E+05-7.07874E+03 5.75255E+04-2.41926E-09 9.88803E-09
 -1       895-1.61640E+03-1.85533E+05-1.24857E+04 3.84465E+04 7.76981E-09 6.83303E-09
 -1       956-4.02592E+05-5.94955E+03-1.51277E+04 2.43524E+04-1.25701E-08-2.20552E-10
 -1       957-4.05594E+05-1.95061E+03-7.76525E+03 2.93952E+04-4.06544E-09 8.94943E-10
 -1       958-4.03942E+05-9.87045E+01-3.49937E+03 2.41624E+04 3.66617E-09-1.63141E-09
 -1       959-4.04199E+05 5.49196E+01-1.78678E+03 2.95910E+04-1.24292E-08 1.83718E-09
 -1       960-4.04070E+05 1.18702E+02-8.71203E+02 2.41434E+04-1.57697E-08-2.11912E-10
 -1       961-4.04106E+05 1.35562E+02-4.60824E+02 2.96128E+04-2.40889E-08 3.24189E-09
 -1       962-4.04101E+05 1.17122E+02-2.61940E+02 2.41397E+04-1.64609E-08 7.21911E-10
 -1       963-4.04109E+05 1.41609E+02-2.06112E+02 2.96183E+04-2.60004E-08 4.75370E-09
 -1       964-4.04112E+05 1.23328E+02-2.45508E+02 2.41378E+04-8.67203E-09-1.12800E-09
 -1       965-4.04129E+05 1.49093E+02-4.20000E+02 2.96199E+04 9.09176E-09 1.18462E-09
 -1       966-4.04103E+05 1.37051E+02-7.86175E+02 2.41379E+04-3.08364E-09-2.18051E-10
 -1       967-4.04236E+05 8.91275E+01-1.61139E+03 2.96125E+04 9.62802E-09 2.53044E-09
 -1       968-4.04006E+05-4.70755E+01-3.15299E+03 2.41458E+04 5.44583E-09-5.53030E-10
 -1       969-4.05517E+05-1.70796E+03-7.00101E+03 2.95268E+04 4.95243E-09 2.18233E-09
 -1       970-4.02804E+05-5.31502E+03-1.36365E+04 2.42393E+04 6.18093E-09-4.02906E-10
 -1       971-3.90551E+05-2.09276E+03-1.19505E+04 1.95314E+04-1.35342E-08 1.70616E-09
 -1       972-3.93484E+05-1.44924E+03-6.50657E+03 2.75383E+04-8.01128E-09-1.68666E-09
 -1       973-3.91891E+05 4.98022E+01-2.91479E+03 1.93540E+04-5.87079E-09 2.04454E-09
 -1       974-3.92126E+05 8.63317E+01-1.50868E+03 2.77259E+04 8.82665E-09-6.99856E-10
 -1       975-3.92003E+05 1.12549E+02-7.51958E+02 1.93357E+04 1.02964E-08 2.65641E-09
 -1       976-3.92056E+05 1.55124E+02-4.27992E+02 2.77488E+04-6.47924E-09-1.75078E-09
 -1       977-3.92029E+05 1.16625E+02-3.01396E+02 1.93305E+04 1.25797E-08 1.66369E-09
 -1       978-3.92067E+05 1.65565E+02-3.39458E+02 2.77562E+04 3.10426E-08-8.45603E-10
 -1       979-3.92032E+05 1.27743E+02-5.34588E+02 1.93282E+04 1.38970E-08 2.50054E-09
 -1       980-3.92108E+05 1.69793E+02-1.02544E+03 2.77575E+04 1.59744E-08-2.56284E-09
 -1       981-3.91999E+05 1.52808E+02-1.98294E+03 1.93290E+04 4.64752E-10 2.20945E-09
 -1       982-3.92376E+05 2.15231E+01-4.09697E+03 2.77476E+04-6.98492E-09-2.03025E-09
 -1       983-3.91746E+05 2.31167E+01-7.96034E+03 1.93390E+04 8.03129E-09 2.06410E-09
 -1       984-3.96196E+05-4.14064E+03-1.78259E+04 2.76308E+04 8.98467E-09-1.12595E-09
 -1       985-3.88136E+05-5.80506E+03-3.27347E+04 1.94714E+04 1.79130E-08 2.25191E-09
 -3
    1PSTEP                        43          22           1          
  100CL  122 8.10921E-01         409                     0   22           1
 -4  DISP        4    1
 -5  D1          1    2    1    0
 -5  D2          1    2    2    0
 -5  D3          1    2    3    0
 -5  ALL         1    2    0    0    1ALL
 -1         1 7.29629E-03 0.00000E+00 0.00000E+00
 -1         2 9.69724E-03-1.61503E-27 0.00000E+00
 -1         3-1.71087E-05 1.28795E-28 0.00000E+00
 -1         5 4.44484E-05 3.94371E-27 1.32349E-23
 -1         8 7.26767E-03-2.50707E-06 0.00000E+00
 -1         9 7.42898E-03-5.51397E-04 0.00000E+00
 -1        10-1.06530E-05 6.00523E-06-1.32349E-23
 -1        12 4.20806E-05 8.48117E-07 0.00000E+00
 -1        15 7.23627E-03-2.63243E-06 0.00000E+00
 -1        16 7.38400E-03-5.51646E-04 0.00000E+00
 -1        17 1.24472E-05 1.23967E-05 0.00000E+00
 -1        18 3.34127E-05-1.86486E-05 0.00000E+00
 -1        19 3.49757E-05 1.68814E-06 0.00000E+00
 -1        20 3.51928E-05 4.36159E-05 0.00000E+00
 -1        21 3.44574E-05 8.63106E-05-3.30872E-24
 -1        24 2.38146E-05 1.27906E-05 0.00000E+00
 -1        25 2.31046E-05-1.84922E-05 0.00000E+00
 -1        26 2.50365E-05 2.37479E-06 0.00000E+00
 -1        27 2.26893E-05 3.98543E-05 0.00000E+00
 -1        28 2.16539E-05 8.55432E-05 0.00000E+00
 -1        32 0.00000E+00 0.00000E+00 0.00000E+00
 -1        33 1.25799E-05 3.20599E-06 0.00000E+00
 -1        34 1.02888E-05 3.98160E-05 0.00000E+00
 -1        35 8.04792E-06 8.51394E-05 0.00000E+00
 -1        51 7.29431E-03-4.22100E-07 0.00000E+00
 -1        52 7.29073E-03-8.33066E-07 0.00000E+00
 -1        53 7.28592E-03-1.24463E-06 6.61744E-24
 -1        54 7.28023E-03-1.65905E-06-5.99706E-24
 -1        55 7.27403E-03-2.07742E-06 0.00000E+00
 -1        56 7.29536E-03-7.03837E-06 5.29396E-23
 -1        57 7.29894E-03-2.68691E-05-5.29396E-23
 -1        58 7.30722E-03-6.02168E-05 0.00000E+00
 -1        59 7.31990E-03-1.06834E-04-5.29396E-23
 -1        60 7.33613E-03-1.64463E-04 1.05879E-22
 -1        61 7.35481E-03-2.30008E-04-5.29396E-23
 -1        62 7.37459E-03-2.99160E-04-1.05879E-22
 -1        63 7.39408E-03-3.67327E-04-5.29396E-23
 -1        64 7.41189E-03-4.30073E-04 1.05879E-22
 -1        65 7.42674E-03-4.83379E-04 0.00000E+00
 -1        66 7.43767E-03-5.24670E-04 1.05879E-22
 -1        67 7.44396E-03-5.52291E-04 5.29396E-23
 -1        68 7.44557E-03-5.66638E-04-1.05879E-22
 -1        69 7.44284E-03-5.69085E-04 2.64698E-23
 -1        70 7.43680E-03-5.62772E-04 0.00000E+00
 -1        86 9.54756E-03-1.66564E-05 0.00000E+00
 -1        87 9.13212E-03-1.09257E-04 0.00000E+00
 -1        88 8.57822E-03-2.70598E-04 0.00000E+00
 -1        89 8.01986E-03-4.34786E-04-1.32349E-23
 -1        90 7.59268E-03-5.32386E-04 0.00000E+00
 -1       121-1.69328E-05 1.00126E-06 0.00000E+00
 -1       122-1.64040E-05 2.00241E-06 0.00000E+00
 -1       123-1.55188E-05 3.00335E-06 2.64698E-23
 -1       124-1.42711E-05 4.00411E-06 0.00000E+00
 -1       125-1.26527E-05 5.00426E-06 2.64698E-23
 -1       191 4.43827E-05 1.41455E-07 0.00000E+00
 -1       192 4.41854E-05 2.82892E-07 0.00000E+00
 -1       193 4.38566E-05 4.24296E-07 0.00000E+00
 -1       194 4.33962E-05 5.65648E-07-6.61744E-24
 -1       195 4.28042E-05 7.06928E-07 0.00000E+00
 -1       251 7.27785E-03-1.18727E-05-2.11758E-22
 -1       252 7.28805E-03-4.43552E-05 0.00000E+00
 -1       253 7.29793E-03-8.53945E-05 2.11758E-22
 -1       254 7.30797E-03-1.24789E-04 2.11758E-22
 -1       255 7.31803E-03-1.63571E-04 4.23516E-22
 -1       256 7.32811E-03-2.02475E-04 2.11758E-22
 -1       257 7.33819E-03-2.41424E-04-4.23516E-22
 -1       258 7.34827E-03-2.80363E-04-2.11758E-22
 -1       259 7.35834E-03-3.19303E-04 0.00000E+00
 -1       260 7.36842E-03-3.58255E-04 0.00000E+00
 -1       261 7.37850E-03-3.97152E-04 0.00000E+00
 -1       262 7.38856E-03-4.35903E-04-2.11758E-22
 -1       263 7.39860E-03-4.75389E-04 0.00000E+00
 -1       264 7.40849E-03-5.16850E-04-1.05879E-22
 -1       265 7.41872E-03-5.48014E-04 0.00000E+00
 -1       266 7.26244E-03-2.55118E-06-1.32349E-23
 -1       267 7.25720E-03-2.56924E-06 0.00000E+00
 -1       268 7.25197E-03-2.58895E-06-3.30872E-24
 -1       269 7.24674E-03-2.60378E-06 0.00000E+00
 -1       270 7.24150E-03-2.61849E-06-8.27181E-25
 -1       271 7.26395E-03-4.88362E-06 1.05879E-22
 -1       272 7.26460E-03-1.96535E-05 5.29396E-23
 -1       273 7.26951E-03-4.63859E-05 0.00000E+00
 -1       274 7.27813E-03-8.40637E-05-5.29396E-23
 -1       275 7.28984E-03-1.31032E-04 1.05879E-22
 -1       276 7.30385E-03-1.85144E-04 0.00000E+00
 -1       277 7.31932E-03-2.43833E-04 1.05879E-22
 -1       278 7.33533E-03-3.04286E-04 0.00000E+00
 -1       279 7.35099E-03-3.63587E-04 0.00000E+00
 -1       280 7.36538E-03-4.18881E-04-5.29396E-23
 -1       281 7.37763E-03-4.67550E-04 1.05879E-22
 -1       282 7.38696E-03-5.07332E-04-5.29396E-23
 -1       283 7.39268E-03-5.36482E-04-1.05879E-22
 -1       284 7.39426E-03-5.53818E-04 0.00000E+00
 -1       285 7.39136E-03-5.58840E-04-1.05879E-22
 -1       301 7.41894E-03-5.51431E-04 0.00000E+00
 -1       302 7.41211E-03-5.51457E-04 0.00000E+00
 -1       303 7.40686E-03-5.51472E-04 0.00000E+00
 -1       304 7.40152E-03-5.51495E-04 0.00000E+00
 -1       305 7.39444E-03-5.51536E-04 0.00000E+00
 -1       306 7.27558E-03-3.06909E-04 0.00000E+00
 -1       307 6.77141E-03 2.55219E-04 1.05879E-22
 -1       308 5.83219E-03 9.62212E-04-2.11758E-22
 -1       309 4.56275E-03 1.65245E-03 0.00000E+00
 -1       310 3.17171E-03 2.31626E-03 0.00000E+00
 -1       311 1.89344E-03 3.00997E-03 1.05879E-22
 -1       312 9.17892E-04 3.71621E-03-4.23516E-22
 -1       313 3.44627E-04 4.31755E-03 1.05879E-22
 -1       314 1.69344E-04 4.59306E-03-4.23516E-22
 -1       315 1.94651E-04 4.44173E-03 0.00000E+00
 -1       316 2.32731E-04 3.82921E-03 2.11758E-22
 -1       317 1.58022E-04 2.90495E-03 0.00000E+00
 -1       318 2.07327E-05 1.86928E-03 1.05879E-22
 -1       319-5.70521E-05 9.28510E-04-5.29396E-23
 -1       320-3.36420E-05 2.64801E-04 2.11758E-22
 -1       336-8.20510E-06 7.08394E-06 0.00000E+00
 -1       337-5.23483E-06 8.16209E-06-1.32349E-23
 -1       338-1.71679E-06 9.23761E-06 2.64698E-23
 -1       339 2.37899E-06 1.03057E-05 1.32349E-23
 -1       340 7.08710E-06 1.13716E-05 2.64698E-23
 -1       406 4.12254E-05 9.89190E-07 0.00000E+00
 -1       407 4.02384E-05 1.13010E-06 0.00000E+00
 -1       408 3.91197E-05 1.27079E-06 0.00000E+00
 -1       409 3.78694E-05 1.41106E-06 0.00000E+00
 -1       410 3.64877E-05 1.55062E-06 0.00000E+00
 -1       521 7.22934E-03-3.08350E-04 0.00000E+00
 -1       522 6.72545E-03 2.51869E-04 0.00000E+00
 -1       523 5.79109E-03 9.57647E-04-2.11758E-22
 -1       524 4.53491E-03 1.65028E-03 0.00000E+00
 -1       525 3.15888E-03 2.31866E-03 1.05879E-22
 -1       526 1.89065E-03 3.01411E-03-1.05879E-22
 -1       527 9.21241E-04 3.71903E-03-4.23516E-22
 -1       528 3.50611E-04 4.31757E-03 0.00000E+00
 -1       529 1.76528E-04 4.58859E-03 4.23516E-22
 -1       530 2.01179E-04 4.43287E-03-1.05879E-22
 -1       531 2.38228E-04 3.81920E-03-2.11758E-22
 -1       532 1.66286E-04 2.90068E-03 0.00000E+00
 -1       533 3.34123E-05 1.87170E-03 0.00000E+00
 -1       534-4.35280E-05 9.33166E-04 0.00000E+00
 -1       535-2.12778E-05 2.68574E-04 2.11758E-22
 -1       536 1.37056E-05 7.66369E-06 0.00000E+00
 -1       537 1.50164E-05 4.81084E-06-1.32349E-23
 -1       538 1.63266E-05 2.87613E-06 0.00000E+00
 -1       539 1.76454E-05 9.53532E-07 0.00000E+00
 -1       540 1.89646E-05-9.63145E-07 5.29396E-23
 -1       541 2.02854E-05-2.87974E-06 0.00000E+00
 -1       542 2.16065E-05-4.79632E-06 0.00000E+00
 -1       543 2.29278E-05-6.71290E-06-2.64698E-23
 -1       544 2.42491E-05-8.62946E-06 0.00000E+00
 -1       545 2.55701E-05-1.05460E-05 0.00000E+00
 -1       546 2.68909E-05-1.24626E-05 0.00000E+00
 -1       547 2.82097E-05-1.43791E-05 0.00000E+00
 -1       548 2.95283E-05-1.62901E-05 0.00000E+00
 -1       549 3.08371E-05-1.81900E-05 1.32349E-23
 -1       550 3.21503E-05-1.92645E-05 0.00000E+00
 -1       551 1.53192E-05 1.24753E-05 0.00000E+00
 -1       552 1.62379E-05 1.25557E-05 0.00000E+00
 -1       553 1.63703E-05 1.26364E-05 0.00000E+00
 -1       554 1.68942E-05 1.27115E-05 0.00000E+00
 -1       555 1.89872E-05 1.27770E-05 0.00000E+00
 -1       556 1.44372E-05 6.94130E-06 0.00000E+00
 -1       557 1.62281E-05 1.99213E-06 0.00000E+00
 -1       558 1.78314E-05-2.45368E-06 0.00000E+00
 -1       559 1.92503E-05-6.40503E-06 0.00000E+00
 -1       560 2.04886E-05-9.87036E-06 0.00000E+00
 -1       561 2.15494E-05-1.28586E-05 0.00000E+00
 -1       562 2.24360E-05-1.53786E-05 0.00000E+00
 -1       563 2.31515E-05-1.74396E-05 0.00000E+00
 -1       564 2.36991E-05-1.90504E-05 0.00000E+00
 -1       565 2.40820E-05-2.02202E-05 0.00000E+00
 -1       566 2.43034E-05-2.09582E-05 0.00000E+00
 -1       567 2.43666E-05-2.12733E-05 0.00000E+00
 -1       568 2.42747E-05-2.11749E-05 0.00000E+00
 -1       569 2.40313E-05-2.06722E-05 0.00000E+00
 -1       570 2.36395E-05-1.97745E-05 0.00000E+00
 -1       571 3.35077E-05-1.72393E-05-2.48154E-24
 -1       572 3.36046E-05-1.58950E-05-4.13590E-25
 -1       573 3.37021E-05-1.46062E-05 1.65436E-24
 -1       574 3.38000E-05-1.33631E-05 0.00000E+00
 -1       575 3.38980E-05-1.21555E-05-3.30872E-24
 -1       576 3.39960E-05-1.09732E-05 0.00000E+00
 -1       577 3.40941E-05-9.80607E-06-3.30872E-24
 -1       578 3.41922E-05-8.64403E-06 1.65436E-24
 -1       579 3.42903E-05-7.47686E-06-3.30872E-24
 -1       580 3.43884E-05-6.29440E-06 4.96308E-24
 -1       581 3.44865E-05-5.08650E-06 0.00000E+00
 -1       582 3.45845E-05-3.84299E-06 0.00000E+00
 -1       583 3.46824E-05-2.55374E-06 0.00000E+00
 -1       584 3.47803E-05-1.20870E-06 0.00000E+00
 -1       585 3.48781E-05 2.02160E-07 0.00000E+00
 -1       586 3.17346E-05-1.86203E-05 3.30872E-24
 -1       587 3.00020E-05-1.85934E-05 8.27181E-25
 -1       588 2.82435E-05-1.85670E-05-8.27181E-25
 -1       589 2.64884E-05-1.85411E-05 2.06795E-25
 -1       590 2.47660E-05-1.85157E-05 0.00000E+00
 -1       591 3.28480E-05-1.72140E-05-4.13590E-25
 -1       592 3.23067E-05-1.58527E-05-4.13590E-25
 -1       593 3.17877E-05-1.45514E-05 0.00000E+00
 -1       594 3.12864E-05-1.32983E-05 4.13590E-25
 -1       595 3.07985E-05-1.20812E-05-8.27181E-25
 -1       596 3.03195E-05-1.08880E-05-4.13590E-25
 -1       597 2.98450E-05-9.70683E-06-8.27181E-25
 -1       598 2.93705E-05-8.52552E-06 0.00000E+00
 -1       599 2.88914E-05-7.33206E-06-8.27181E-25
 -1       600 2.84032E-05-6.11441E-06 2.06795E-25
 -1       601 2.79014E-05-4.86056E-06 4.13590E-25
 -1       602 2.73815E-05-3.55844E-06 2.06795E-25
 -1       603 2.68390E-05-2.19601E-06 1.03398E-25
 -1       604 2.62698E-05-7.61180E-07 0.00000E+00
 -1       605 2.56692E-05 7.58066E-07-8.27181E-25
 -1       606 3.49959E-05 3.39812E-06-6.61744E-24
 -1       607 3.50122E-05 5.28294E-06 0.00000E+00
 -1       608 3.50274E-05 7.33233E-06 0.00000E+00
 -1       609 3.50419E-05 9.53471E-06-3.30872E-24
 -1       610 3.50559E-05 1.18785E-05 0.00000E+00
 -1       611 3.50695E-05 1.43519E-05 0.00000E+00
 -1       612 3.50828E-05 1.69430E-05 0.00000E+00
 -1       613 3.50959E-05 1.96401E-05 0.00000E+00
 -1       614 3.51087E-05 2.24315E-05 0.00000E+00
 -1       615 3.51213E-05 2.53052E-05 0.00000E+00
 -1       616 3.51336E-05 2.82494E-05 0.00000E+00
 -1       617 3.51458E-05 3.12524E-05 0.00000E+00
 -1       618 3.51579E-05 3.43024E-05-1.65436E-24
 -1       619 3.51698E-05 3.73875E-05 0.00000E+00
 -1       620 3.51815E-05 4.04960E-05 0.00000E+00
 -1       621 3.33754E-05 1.80253E-06 0.00000E+00
 -1       622 3.17452E-05 1.91765E-06 0.00000E+00
 -1       623 3.00905E-05 2.03273E-06 0.00000E+00
 -1       624 2.84171E-05 2.14763E-06 0.00000E+00
 -1       625 2.67306E-05 2.26231E-06 0.00000E+00
 -1       626 3.44499E-05 3.42962E-06 6.61744E-24
 -1       627 3.38690E-05 5.31983E-06-3.30872E-24
 -1       628 3.32369E-05 7.34613E-06 0.00000E+00
 -1       629 3.25587E-05 9.49492E-06 0.00000E+00
 -1       630 3.18394E-05 1.17526E-05 0.00000E+00
 -1       631 3.10842E-05 1.41055E-05 3.30872E-24
 -1       632 3.02983E-05 1.65398E-05 0.00000E+00
 -1       633 2.94868E-05 1.90420E-05 3.30872E-24
 -1       634 2.86549E-05 2.15981E-05-6.61744E-24
 -1       635 2.78077E-05 2.41947E-05 1.65436E-24
 -1       636 2.69504E-05 2.68179E-05 0.00000E+00
 -1       637 2.60882E-05 2.94541E-05 0.00000E+00
 -1       638 2.52262E-05 3.20895E-05 3.30872E-24
 -1       639 2.43693E-05 3.47105E-05 1.65436E-24
 -1       640 2.35226E-05 3.73034E-05-1.65436E-24
 -1       656 3.24165E-05 4.30028E-05-6.61744E-24
 -1       657 3.02315E-05 4.23662E-05-6.61744E-24
 -1       658 2.84148E-05 4.17322E-05 0.00000E+00
 -1       659 2.67340E-05 4.10988E-05 0.00000E+00
 -1       660 2.49154E-05 4.04633E-05 0.00000E+00
 -1       661 3.41656E-05 4.67021E-05-1.65436E-24
 -1       662 3.31702E-05 4.97190E-05 0.00000E+00
 -1       663 3.22003E-05 5.26675E-05 0.00000E+00
 -1       664 3.12562E-05 5.55505E-05 0.00000E+00
 -1       665 3.03361E-05 5.83699E-05 3.30872E-24
 -1       666 2.94395E-05 6.11276E-05 1.65436E-24
 -1       667 2.85656E-05 6.38253E-05 0.00000E+00
 -1       668 2.77139E-05 6.64644E-05 0.00000E+00
 -1       669 2.68839E-05 6.90459E-05 3.30872E-24
 -1       670 2.60753E-05 7.15708E-05 0.00000E+00
 -1       671 2.52878E-05 7.40396E-05 0.00000E+00
 -1       672 2.45210E-05 7.64527E-05 0.00000E+00
 -1       673 2.37752E-05 7.88102E-05 0.00000E+00
 -1       674 2.30492E-05 8.11116E-05 0.00000E+00
 -1       675 2.23446E-05 8.33572E-05 0.00000E+00
 -1       676 3.23143E-05 8.61819E-05 3.30872E-24
 -1       677 3.01729E-05 8.60533E-05 0.00000E+00
 -1       678 2.80346E-05 8.59248E-05 3.30872E-24
 -1       679 2.59009E-05 8.57966E-05 0.00000E+00
 -1       680 2.37735E-05 8.56685E-05-3.30872E-24
 -1       771 2.50076E-05 4.89968E-06 0.00000E+00
 -1       772 2.56850E-05-1.69941E-06-2.64698E-23
 -1       773 2.59004E-05-7.05476E-06 0.00000E+00
 -1       774 2.56772E-05-1.12375E-05-1.32349E-23
 -1       775 2.50440E-05-1.43199E-05 5.29396E-23
 -1       776 2.40291E-05-1.63801E-05 0.00000E+00
 -1       777 2.26621E-05-1.74989E-05 5.29396E-23
 -1       778 2.09739E-05-1.77612E-05 2.64698E-23
 -1       779 1.89968E-05-1.72543E-05 0.00000E+00
 -1       780 1.67641E-05-1.60686E-05 0.00000E+00
 -1       781 1.43104E-05-1.42965E-05 0.00000E+00
 -1       782 1.16711E-05-1.20328E-05-2.64698E-23
 -1       783 8.88237E-06-9.37339E-06 5.29396E-23
 -1       784 5.98175E-06-6.41600E-06 0.00000E+00
 -1       785 3.00619E-06-3.25925E-06 0.00000E+00
 -1       786 2.32193E-05-1.70589E-05 0.00000E+00
 -1       787 2.33399E-05-1.57087E-05 1.65436E-24
 -1       788 2.34601E-05-1.44186E-05 3.30872E-24
 -1       789 2.35814E-05-1.31662E-05 0.00000E+00
 -1       790 2.37028E-05-1.19403E-05 3.30872E-24
 -1       791 2.38245E-05-1.07294E-05 0.00000E+00
 -1       792 2.39462E-05-9.52712E-06 0.00000E+00
 -1       793 2.40679E-05-8.32664E-06 1.65436E-24
 -1       794 2.41896E-05-7.12187E-06 3.30872E-24
 -1       795 2.43114E-05-5.90668E-06 1.65436E-24
 -1       796 2.44330E-05-4.67189E-06 0.00000E+00
 -1       797 2.45546E-05-3.40812E-06 1.65436E-24
 -1       798 2.46761E-05-2.09750E-06-3.30872E-24
 -1       799 2.47971E-05-7.21867E-07 0.00000E+00
 -1       800 2.49180E-05 7.56238E-07 3.30872E-24
 -1       801 2.07935E-05-1.54683E-05 0.00000E+00
 -1       802 1.69455E-05-1.23288E-05 0.00000E+00
 -1       803 1.24485E-05-9.20130E-06 5.29396E-23
 -1       804 8.09165E-06-6.08388E-06 2.64698E-23
 -1       805 3.91831E-06-2.95322E-06 2.64698E-23
 -1       806 2.24473E-05-1.71194E-05 0.00000E+00
 -1       807 2.18041E-05-1.57992E-05 0.00000E+00
 -1       808 2.11752E-05-1.45199E-05 0.00000E+00
 -1       809 2.05572E-05-1.32709E-05 1.65436E-24
 -1       810 1.99463E-05-1.20415E-05 0.00000E+00
 -1       811 1.93388E-05-1.08212E-05 0.00000E+00
 -1       812 1.87306E-05-9.59933E-06 3.30872E-24
 -1       813 1.81179E-05-8.36541E-06 1.65436E-24
 -1       814 1.74967E-05-7.10885E-06 0.00000E+00
 -1       815 1.68630E-05-5.81911E-06 0.00000E+00
 -1       816 1.62128E-05-4.48565E-06-3.30872E-24
 -1       817 1.55422E-05-3.09790E-06 0.00000E+00
 -1       818 1.48472E-05-1.64534E-06 0.00000E+00
 -1       819 1.41242E-05-1.17481E-07 0.00000E+00
 -1       820 1.33691E-05 1.49620E-06 0.00000E+00
 -1       821 2.49079E-05 3.07195E-06-8.27181E-25
 -1       822 2.47706E-05 1.79370E-06-1.65436E-24
 -1       823 2.46314E-05-8.15474E-07-3.30872E-24
 -1       824 2.44888E-05-4.10269E-06 0.00000E+00
 -1       825 2.43465E-05-7.22848E-06 3.30872E-24
 -1       826 2.42065E-05-9.35427E-06 1.65436E-24
 -1       827 2.40683E-05-9.91819E-06 3.30872E-24
 -1       828 2.39291E-05-8.36805E-06 0.00000E+00
 -1       829 2.37847E-05-4.73588E-06 3.30872E-24
 -1       830 2.36312E-05 9.33436E-07 1.65436E-24
 -1       831 2.34692E-05 8.03215E-06 3.30872E-24
 -1       832 2.33016E-05 1.59435E-05-1.65436E-24
 -1       833 2.31343E-05 2.38259E-05 0.00000E+00
 -1       834 2.29748E-05 3.08380E-05 0.00000E+00
 -1       835 2.28235E-05 3.63783E-05 0.00000E+00
 -1       836 2.31685E-05 2.51345E-06-3.30872E-24
 -1       837 2.10998E-05 2.65485E-06-1.65436E-24
 -1       838 1.89183E-05 2.79580E-06 3.30872E-24
 -1       839 1.67124E-05 2.93584E-06-8.27181E-25
 -1       840 1.45703E-05 3.07578E-06-8.27181E-25
 -1       856 2.26310E-05 4.23859E-05 1.03398E-25
 -1       857 2.25672E-05 4.50876E-05 0.00000E+00
 -1       858 2.25032E-05 4.79326E-05-1.65436E-24
 -1       859 2.24380E-05 5.08942E-05-8.27181E-25
 -1       860 2.23724E-05 5.39450E-05 1.65436E-24
 -1       861 2.23065E-05 5.70577E-05 0.00000E+00
 -1       862 2.22405E-05 6.02048E-05 0.00000E+00
 -1       863 2.21744E-05 6.33587E-05 0.00000E+00
 -1       864 2.21084E-05 6.64916E-05-1.65436E-24
 -1       865 2.20425E-05 6.95762E-05 0.00000E+00
 -1       866 2.19768E-05 7.25848E-05 0.00000E+00
 -1       867 2.19114E-05 7.54902E-05 0.00000E+00
 -1       868 2.18463E-05 7.82653E-05-1.65436E-24
 -1       869 2.17817E-05 8.08834E-05-8.27181E-25
 -1       870 2.17175E-05 8.33180E-05-1.65436E-24
 -1       871 2.04560E-05 3.98519E-05-8.27181E-25
 -1       872 1.83738E-05 3.98467E-05 0.00000E+00
 -1       873 1.63798E-05 3.98410E-05 4.13590E-25
 -1       874 1.44100E-05 3.98346E-05-3.10193E-25
 -1       875 1.24007E-05 3.98275E-05-1.65436E-24
 -1       876 2.18796E-05 4.23976E-05-3.30872E-24
 -1       877 2.10421E-05 4.50238E-05 0.00000E+00
 -1       878 2.01773E-05 4.77228E-05 0.00000E+00
 -1       879 1.92890E-05 5.04852E-05 0.00000E+00
 -1       880 1.83804E-05 5.33014E-05-3.30872E-24
 -1       881 1.74551E-05 5.61620E-05 0.00000E+00
 -1       882 1.65165E-05 5.90576E-05-3.30872E-24
 -1       883 1.55684E-05 6.19788E-05 0.00000E+00
 -1       884 1.46140E-05 6.49162E-05 0.00000E+00
 -1       885 1.36571E-05 6.78604E-05 0.00000E+00
 -1       886 1.27010E-05 7.08021E-05-3.30872E-24
 -1       887 1.17494E-05 7.37317E-05 0.00000E+00
 -1       888 1.08056E-05 7.66400E-05 3.30872E-24
 -1       889 9.87277E-06 7.95173E-05-1.65436E-24
 -1       890 8.95442E-06 8.23543E-05-1.65436E-24
 -1       891 1.95730E-05 8.54760E-05 0.00000E+00
 -1       892 1.74637E-05 8.54085E-05 0.00000E+00
 -1       893 1.52912E-05 8.53409E-05 1.65436E-24
 -1       894 1.30208E-05 8.52734E-05 8.27181E-25
 -1       895 1.06177E-05 8.52056E-05-8.27181E-25
 -1       956 1.24401E-05 5.11385E-06 0.00000E+00
 -1       957 1.22977E-05 7.11572E-06 0.00000E+00
 -1       958 1.21548E-05 9.20285E-06-3.30872E-24
 -1       959 1.20115E-05 1.13659E-05-1.65436E-24
 -1       960 1.18680E-05 1.35955E-05 0.00000E+00
 -1       961 1.17243E-05 1.58823E-05 0.00000E+00
 -1       962 1.15805E-05 1.82167E-05 3.30872E-24
 -1       963 1.14365E-05 2.05894E-05 0.00000E+00
 -1       964 1.12925E-05 2.29910E-05 0.00000E+00
 -1       965 1.11485E-05 2.54120E-05 1.65436E-24
 -1       966 1.10045E-05 2.78429E-05 0.00000E+00
 -1       967 1.08605E-05 3.02742E-05-1.65436E-24
 -1       968 1.07166E-05 3.26966E-05-3.30872E-24
 -1       969 1.05730E-05 3.51006E-05 1.65436E-24
 -1       970 1.04298E-05 3.74768E-05-3.30872E-24
 -1       971 1.01514E-05 4.21993E-05 3.30872E-24
 -1       972 1.00119E-05 4.47111E-05 0.00000E+00
 -1       973 9.87189E-06 4.73371E-05 3.30872E-24
 -1       974 9.73144E-06 5.00628E-05 0.00000E+00
 -1       975 9.59070E-06 5.28732E-05 0.00000E+00
 -1       976 9.44973E-06 5.57536E-05 1.65436E-24
 -1       977 9.30860E-06 5.86891E-05 0.00000E+00
 -1       978 9.16735E-06 6.16649E-05-1.65436E-24
 -1       979 9.02604E-06 6.46662E-05 3.30872E-24
 -1       980 8.88472E-06 6.76780E-05-1.65436E-24
 -1       981 8.74345E-06 7.06855E-05 0.00000E+00
 -1       982 8.60235E-06 7.36739E-05 1.65436E-24
 -1       983 8.46152E-06 7.66283E-05 0.00000E+00
 -1       984 8.32139E-06 7.95338E-05 0.00000E+00
 -1       985 8.18200E-06 8.23757E-05 0.00000E+00
 -3
    1PSTEP                        44          22           1          
  100CL  122 8.10921E-01         409                     0   22           1
 -4  FORC        4    1
 -5  F1          1    2    1    0
 -5  F2          1    2    2    0
 -5  F3          1    2    3    0
 -5  ALL         1    2    0    0    1ALL
 -1         1 2.17696E-06 0.00000E+00 0.00000E+00
 -1         2 0.00000E+00 0.00000E+00 0.00000E+00
 -1         3 0.00000E+00 0.00000E+00 0.00000E+00
 -1         5 0.00000E+00 0.00000E+00 0.00000E+00
 -1         8 8.24758E-05-8.45291E-05 0.00000E+00
 -1         9-2.50422E-04-1.72363E-04 0.00000E+00
 -1        10 6.14436E-08 2.33420E-07 0.00000E+00
 -1        12 0.00000E+00 0.00000E+00 0.00000E+00
 -1        15 0.00000E+00 0.00000E+00 0.00000E+00
 -1        16 2.78971E-05-4.35016E-04 0.00000E+00
 -1        17-9.73460E-05-3.98387E-05 0.00000E+00
 -1        18 9.78403E-08 7.65802E-08 0.00000E+00
 -1        19 3.19938E-08-7.99265E-09 0.00000E+00
 -1        20-5.03800E-08 5.42510E-09 0.00000E+00
 -1        21 0.00000E+00 1.99012E-08 0.00000E+00
 -1        24-1.29578E-04-8.49525E-05 0.00000E+00
 -1        25-9.19359E-09-7.43562E-08 0.00000E+00
 -1        26-3.34732E-08-2.64569E-08 0.00000E+00
 -1        27-1.52421E-08 3.08751E-08 0.00000E+00
 -1        28-1.54663E-08 9.39182E-09 0.00000E+00
 -1        32 0.00000E+00 0.00000E+00 0.00000E+00
 -1        33-2.19365E-09-4.10221E-08 0.00000E+00
 -1        34-1.17653E-08-4.12752E-08 0.00000E+00
 -1        35-6.92300E-08-4.49137E-08 0.00000E+00
 -1        51 0.00000E+00 0.00000E+00 0.00000E+00
 -1        52 0.00000E+00 0.00000E+00 0.00000E+00
 -1        53 0.00000E+00 0.00000E+00 0.00000E+00
 -1        54 0.00000E+00 0.00000E+00 0.00000E+00
 -1        55 0.00000E+00 0.00000E+00 0.00000E+00
 -1        56 0.00000E+00 0.00000E+00 0.00000E+00
 -1        57 0.00000E+00 0.00000E+00 0.00000E+00
 -1        58 0.00000E+00 0.00000E+00 0.00000E+00
 -1        59 0.00000E+00 0.00000E+00 0.00000E+00
 -1        60 0.00000E+00 0.00000E+00 0.00000E+00
 -1        61 0.00000E+00 0.00000E+00 0.00000E+00
 -1        62 0.00000E+00 0.00000E+00 0.00000E+00
 -1        63 0.00000E+00 0.00000E+00 0.00000E+00
 -1        64 0.00000E+00 0.00000E+00 0.00000E+00
 -1        65 0.00000E+00 0.00000E+00 0.00000E+00
 -1        66 0.00000E+00 0.00000E+00 0.00000E+00
 -1        67 0.00000E+00 0.00000E+00 0.00000E+00
 -1        68 0.00000E+00 0.00000E+00 0.00000E+00
 -1        69 0.00000E+00 0.00000E+00 0.00000E+00
 -1        70 0.00000E+00 0.00000E+00 0.00000E+00
 -1        86 0.00000E+00 0.00000E+00 0.00000E+00
 -1        87 0.00000E+00 0.00000E+00 0.00000E+00
 -1        88 0.00000E+00 0.00000E+00 0.00000E+00
 -1        89 0.00000E+00 0.00000E+00 0.00000E+00
 -1        90 0.00000E+00 0.00000E+00 0.00000E+00
 -1       121 0.00000E+00 0.00000E+00 0.00000E+00
 -1       122 0.00000E+00 0.00000E+00 0.00000E+00
 -1       123 0.00000E+00 0.00000E+00 0.00000E+00
 -1       124 0.00000E+00 0.00000E+00 0.00000E+00
 -1       125 0.00000E+00 0.00000E+00 0.00000E+00
 -1       191 0.00000E+00 0.00000E+00 0.00000E+00
 -1       192 0.00000E+00 0.00000E+00 0.00000E+00
 -1       193 0.00000E+00 0.00000E+00 0.00000E+00
 -1       194 0.00000E+00 0.00000E+00 0.00000E+00
 -1       195 0.00000E+00 0.00000E+00 0.00000E+00
 -1       251 0.00000E+00 0.00000E+00 0.00000E+00
 -1       252 0.00000E+00 0.00000E+00 0.00000E+00
 -1       253 0.00000E+00 0.00000E+00 0.00000E+00
 -1       254 0.00000E+00 0.00000E+00 0.00000E+00
 -1       255 0.00000E+00 0.00000E+00 0.00000E+00
 -1       256 0.00000E+00 0.00000E+00 0.00000E+00
 -1       257 0.00000E+00 0.00000E+00 0.00000E+00
 -1       258 0.00000E+00 0.00000E+00 0.00000E+00
 -1       259 0.00000E+00 0.00000E+00 0.00000E+00
 -1       260 0.00000E+00 0.00000E+00 0.00000E+00
 -1       261 0.00000E+00 0.00000E+00 0.00000E+00
 -1       262 0.00000E+00 0.00000E+00 0.00000E+00
 -1       263 0.00000E+00 0.00000E+00 0.00000E+00
 -1       264 0.00000E+00 0.00000E+00 0.00000E+00
 -1       265 0.00000E+00 0.00000E+00 0.00000E+00
 -1       266 0.00000E+00 0.00000E+00 0.00000E+00
 -1       267 0.00000E+00 0.00000E+00 0.00000E+00
 -1       268 0.00000E+00 0.00000E+00 0.00000E+00
 -1       269 0.00000E+00 0.00000E+00 0.00000E+00
 -1       270 0.00000E+00 0.00000E+00 0.00000E+00
 -1       271 0.00000E+00 0.00000E+00 0.00000E+00
 -1       272 0.00000E+00 0.00000E+00 0.00000E+00
 -1       273 0.00000E+00 0.00000E+00 0.00000E+00
 -1       274 0.00000E+00 0.00000E+00 0.00000E+00
 -1       275 0.00000E+00 0.00000E+00 0.00000E+00
 -1       276 0.00000E+00 0.00000E+00 0.00000E+00
 -1       277 0.00000E+00 0.00000E+00 0.00000E+00
 -1       278 0.00000E+00 0.00000E+00 0.00000E+00
 -1       279 0.00000E+00 0.00000E+00 0.00000E+00
 -1       280 0.00000E+00 0.00000E+00 0.00000E+00
 -1       281 0.00000E+00 0.00000E+00 0.00000E+00
 -1       282 0.00000E+00 0.00000E+00 0.00000E+00
 -1       283 0.00000E+00 0.00000E+00 0.00000E+00
 -1       284 0.00000E+00 0.00000E+00 0.00000E+00
 -1       285 0.00000E+00 0.00000E+00 0.00000E+00
 -1       301 0.00000E+00 0.00000E+00 0.00000E+00
 -1       302 0.00000E+00 0.00000E+00 0.00000E+00
 -1       303 0.00000E+00 0.00000E+00 0.00000E+00
 -1       304 0.00000E+00 0.00000E+00 0.00000E+00
 -1       305 0.00000E+00 0.00000E+00 0.00000E+00
 -1       306 0.00000E+00 0.00000E+00 0.00000E+00
 -1       307 0.00000E+00 0.00000E+00 0.00000E+00
 -1       308 0.00000E+00 0.00000E+00 0.00000E+00
 -1       309 0.00000E+00 0.00000E+00 0.00000E+00
 -1       310 0.00000E+00 0.00000E+00 0.00000E+00
 -1       311 0.00000E+00 0.00000E+00 0.00000E+00
 -1       312 0.00000E+00 0.00000E+00 0.00000E+00
 -1       313 0.00000E+00 0.00000E+00 0.00000E+00
 -1       314 0.00000E+00 0.00000E+00 0.00000E+00
 -1       315 0.00000E+00 0.00000E+00 0.00000E+00
 -1       316 0.00000E+00 0.00000E+00 0.00000E+00
 -1       317 0.00000E+00 0.00000E+00 0.00000E+00
 -1       318 0.00000E+00 0.00000E+00 0.00000E+00
 -1       319 0.00000E+00 0.00000E+00 0.00000E+00
 -1       320 0.00000E+00 0.00000E+00 0.00000E+00
 -1       336 0.00000E+00 0.00000E+00 0.00000E+00
 -1       337 0.00000E+00 0.00000E+00 0.00000E+00
 -1       338 0.00000E+00 0.00000E+00 0.00000E+00
 -1       339 0.00000E+00 0.00000E+00 0.00000E+00
 -1       340 0.00000E+00 0.00000E+00 0.00000E+00
 -1       406 0.00000E+00 0.00000E+00 0.00000E+00
 -1       407 0.00000E+00 0.00000E+00 0.00000E+00
 -1       408 0.00000E+00 0.00000E+00 0.00000E+00
 -1       409 0.00000E+00 0.00000E+00 0.00000E+00
 -1       410 0.00000E+00 0.00000E+00 0.00000E+00
 -1       521 0.00000E+00 0.00000E+00 0.00000E+00
 -1       522 0.00000E+00 0.00000E+00 0.00000E+00
 -1       523 0.00000E+00 0.00000E+00 0.00000E+00
 -1       524 0.00000E+00 0.00000E+00 0.00000E+00
 -1       525 0.00000E+00 0.00000E+00 0.00000E+00
 -1       526 0.00000E+00 0.00000E+00 0.00000E+00
 -1       527 0.00000E+00 0.00000E+00 0.00000E+00
 -1       528 0.00000E+00 0.00000E+00 0.00000E+00
 -1       529 0.00000E+00 0.00000E+00 0.00000E+00
 -1       530 0.00000E+00 0.00000E+00 0.00000E+00
 -1       531 0.00000E+00 0.00000E+00 0.00000E+00
 -1       532 0.00000E+00 0.00000E+00 0.00000E+00
 -1       533 0.00000E+00 0.00000E+00 0.00000E+00
 -1       534 0.00000E+00 0.00000E+00 0.00000E+00
 -1       535 0.00000E+00 0.00000E+00 0.00000E+00
 -1       536 0.00000E+00 0.00000E+00 0.00000E+00
 -1       537 0.00000E+00 0.00000E+00 0.00000E+00
 -1       538 0.00000E+00 0.00000E+00 0.00000E+00
 -1       539 0.00000E+00 0.00000E+00 0.00000E+00
 -1       540 0.00000E+00 0.00000E+00 0.00000E+00
 -1       541 0.00000E+00 0.00000E+00 0.00000E+00
 -1       542 0.00000E+00 0.00000E+00 0.00000E+00
 -1       543 0.00000E+00 0.00000E+00 0.00000E+00
 -1       544 0.00000E+00 0.00000E+00 0.00000E+00
 -1       545 0.00000E+00 0.00000E+00 0.00000E+00
 -1       546 0.00000E+00 0.00000E+00 0.00000E+00
 -1       547 0.00000E+00 0.00000E+00 0.00000E+00
 -1       548 0.00000E+00 0.00000E+00 0.00000E+00
 -1       549 0.00000E+00 0.00000E+00 0.00000E+00
 -1       550 0.00000E+00 0.00000E+00 0.00000E+00
 -1       551 0.00000E+00 0.00000E+00 0.00000E+00
 -1       552 0.00000E+00 0.00000E+00 0.00000E+00
 -1       553 0.00000E+00 0.00000E+00 0.00000E+00
 -1       554 0.00000E+00 0.00000E+00 0.00000E+00
 -1       555 0.00000E+00 0.00000E+00 0.00000E+00
 -1       556 0.00000E+00 0.00000E+00 0.00000E+00
 -1       557 0.00000E+00 0.00000E+00 0.00000E+00
 -1       558 0.00000E+00 0.00000E+00 0.00000E+00
 -1       559 0.00000E+00 0.00000E+00 0.00000E+00
 -1       560 0.00000E+00 0.00000E+00 0.00000E+00
 -1       561 0.00000E+00 0.00000E+00 0.00000E+00
 -1       562 0.00000E+00 0.00000E+00 0.00000E+00
 -1       563 0.00000E+00 0.00000E+00 0.00000E+00
 -1       564 0.00000E+00 0.00000E+00 0.00000E+00
 -1       565 0.00000E+00 0.00000E+00 0.00000E+00
 -1       566 0.00000E+00 0.00000E+00 0.00000E+00
 -1       567 0.00000E+00 0.00000E+00 0.00000E+00
 -1       568 0.00000E+00 0.00000E+00 0.00000E+00
 -1       569 0.00000E+00 0.00000E+00 0.00000E+00
 -1       570 0.00000E+00 0.00000E+00 0.00000E+00
 -1       571 0.00000E+00 0.00000E+00 0.00000E+00
 -1       572 0.00000E+00 0.00000E+00 0.00000E+00
 -1       573 0.00000E+00 0.00000E+00 0.00000E+00
 -1       574 0.00000E+00 0.00000E+00 0.00000E+00
 -1       575 0.00000E+00 0.00000E+00 0.00000E+00
 -1       576 0.00000E+00 0.00000E+00 0.00000E+00
 -1       577 0.00000E+00 0.00000E+00 0.00000E+00
 -1       578 0.00000E+00 0.00000E+00 0.00000E+00
 -1       579 0.00000E+00 0.00000E+00 0.00000E+00
 -1       580 0.00000E+00 0.00000E+00 0.00000E+00
 -1       581 0.00000E+00 0.00000E+00 0.00000E+00
 -1       582 0.00000E+00 0.00000E+00 0.00000E+00
 -1       583 0.00000E+00 0.00000E+00 0.00000E+00
 -1       584 0.00000E+00 0.00000E+00 0.00000E+00
 -1       585 0.00000E+00 0.00000E+00 0.00000E+00
 -1       586 0.00000E+00 0.00000E+00 0.00000E+00
 -1       587 0.00000E+00 0.00000E+00 0.00000E+00
 -1       588 0.00000E+00 0.00000E+00 0.00000E+00
 -1       589 0.00000E+00 0.00000E+00 0.00000E+00
 -1       590 0.00000E+00 0.00000E+00 0.00000E+00
 -1       591 0.00000E+00 0.00000E+00 0.00000E+00
 -1       592 0.00000E+00 0.00000E+00 0.00000E+00
 -1       593 0.00000E+00 0.00000E+00 0.00000E+00
 -1       594 0.00000E+00 0.00000E+00 0.00000E+00
 -1       595 0.00000E+00 0.00000E+00 0.00000E+00
 -1       596 0.00000E+00 0.00000E+00 0.00000E+00
 -1       597 0.00000E+00 0.00000E+00 0.00000E+00
 -1       598 0.00000E+00 0.00000E+00 0.00000E+00
 -1       599 0.00000E+00 0.00000E+00 0.00000E+00
 -1       600 0.00000E+00 0.00000E+00 0.00000E+00
 -1       601 0.00000E+00 0.00000E+00 0.00000E+00
 -1       602 0.00000E+00 0.00000E+00 0.00000E+00
 -1       603 0.00000E+00 0.00000E+00 0.00000E+00
 -1       604 0.00000E+00 0.00000E+00 0.00000E+00
 -1       605 0.00000E+00 0.00000E+00 0.00000E+00
 -1       606 0.00000E+00 0.00000E+00 0.00000E+00
 -1       607 0.00000E+00 0.00000E+00 0.00000E+00
 -1       608 0.00000E+00 0.00000E+00 0.00000E+00
 -1       609 0.00000E+00 0.00000E+00 0.00000E+00
 -1       610 0.00000E+00 0.00000E+00 0.00000E+00
 -1       611 0.00000E+00 0.00000E+00 0.00000E+00
 -1       612 0.00000E+00 0.00000E+00 0.00000E+00
 -1       613 0.00000E+00 0.00000E+00 0.00000E+00
 -1       614 0.00000E+00 0.00000E+00 0.00000E+00
 -1       615 0.00000E+00 0.00000E+00 0.00000E+00
 -1       616 0.00000E+00 0.00000E+00 0.00000E+00
 -1       617 0.00000E+00 0.00000E+00 0.00000E+00
 -1       618 0.00000E+00 0.00000E+00 0.00000E+00
 -1       619 0.00000E+00 0.00000E+00 0.00000E+00
 -1       620 0.00000E+00 0.00000E+00 0.00000E+00
 -1       621 0.00000E+00 0.00000E+00 0.00000E+00
 -1       622 0.00000E+00 0.00000E+00 0.00000E+00
 -1       623 0.00000E+00 0.00000E+00 0.00000E+00
 -1       624 0.00000E+00 0.00000E+00 0.00000E+00
 -1       625 0.00000E+00 0.00000E+00 0.00000E+00
 -1       626 0.00000E+00 0.00000E+00 0.00000E+00
 -1       627 0.00000E+00 0.00000E+00 0.00000E+00
 -1       628 0.00000E+00 0.00000E+00 0.00000E+00
 -1       629 0.00000E+00 0.00000E+00 0.00000E+00
 -1       630 0.00000E+00 0.00000E+00 0.00000E+00
 -1       631 0.00000E+00 0.00000E+00 0.00000E+00
 -1       632 0.00000E+00 0.00000E+00 0.00000E+00
 -1       633 0.00000E+00 0.00000E+00 0.00000E+00
 -1       634 0.00000E+00 0.00000E+00 0.00000E+00
 -1       635 0.00000E+00 0.00000E+00 0.00000E+00
 -1       636 0.00000E+00 0.00000E+00 0.00000E+00
 -1       637 0.00000E+00 0.00000E+00 0.00000E+00
 -1       638 0.00000E+00 0.00000E+00 0.00000E+00
 -1       639 0.00000E+00 0.00000E+00 0.00000E+00
 -1       640 0.00000E+00 0.00000E+00 0.00000E+00
 -1       656 0.00000E+00 0.00000E+00 0.00000E+00
 -1       657 0.00000E+00 0.00000E+00 0.00000E+00
 -1       658 0.00000E+00 0.00000E+00 0.00000E+00
 -1       659 0.00000E+00 0.00000E+00 0.00000E+00
 -1       660 0.00000E+00 0.00000E+00 0.00000E+00
 -1       661 0.00000E+00 0.00000E+00 0.00000E+00
 -1       662 0.00000E+00 0.00000E+00 0.00000E+00
 -1       663 0.00000E+00 0.00000E+00 0.00000E+00
 -1       664 0.00000E+00 0.00000E+00 0.00000E+00
 -1       665 0.00000E+00 0.00000E+00 0.00000E+00
 -1       666 0.00000E+00 0.00000E+00 0.00000E+00
 -1       667 0.00000E+00 0.00000E+00 0.00000E+00
 -1       668 0.00000E+00 0.00000E+00 0.00000E+00
 -1       669 0.00000E+00 0.00000E+00 0.00000E+00
 -1       670 0.00000E+00 0.00000E+00 0.00000E+00
 -1       671 0.00000E+00 0.00000E+00 0.00000E+00
 -1       672 0.00000E+00 0.00000E+00 0.00000E+00
 -1       673 0.00000E+00 0.00000E+00 0.00000E+00
 -1       674 0.00000E+00 0.00000E+00 0.00000E+00
 -1       675 0.00000E+00 0.00000E+00 0.00000E+00
 -1       676 0.00000E+00 0.00000E+00 0.00000E+00
 -1       677 0.00000E+00 0.00000E+00 0.00000E+00
 -1       678 0.00000E+00 0.00000E+00 0.00000E+00
 -1       679 0.00000E+00 0.00000E+00 0.00000E+00
 -1       680 0.00000E+00 0.00000E+00 0.00000E+00
 -1       771 0.00000E+00 0.00000E+00 0.00000E+00
 -1       772 0.00000E+00 0.00000E+00 0.00000E+00
 -1       773 0.00000E+00 0.00000E+00 0.00000E+00
 -1       774 0.00000E+00 0.00000E+00 0.00000E+00
 -1       775 0.00000E+00 0.00000E+00 0.00000E+00
 -1       776 0.00000E+00 0.00000E+00 0.00000E+00
 -1       777 0.00000E+00 0.00000E+00 0.00000E+00
 -1       778 0.00000E+00 0.00000E+00 0.00000E+00
 -1       779 0.00000E+00 0.00000E+00 0.00000E+00
 -1       780 0.00000E+00 0.00000E+00 0.00000E+00
 -1       781 0.00000E+00 0.00000E+00 0.00000E+00
 -1       782 0.00000E+00 0.00000E+00 0.00000E+00
 -1       783 0.00000E+00 0.00000E+00 0.00000E+00
 -1       784 0.00000E+00 0.00000E+00 0.00000E+00
 -1       785 0.00000E+00 0.00000E+00 0.00000E+00
 -1       786 0.00000E+00 0.00000E+00 0.00000E+00
 -1       787 0.00000E+00 0.00000E+00 0.00000E+00
 -1       788 0.00000E+00 0.00000E+00 0.00000E+00
 -1       789 0.00000E+00 0.00000E+00 0.00000E+00
 -1       790 0.00000E+00 0.00000E+00 0.00000E+00
 -1       791 0.00000E+00 0.00000E+00 0.00000E+00
 -1       792 0.00000E+00 0.00000E+00 0.00000E+00
 -1       793 0.00000E+00 0.00000E+00 0.00000E+00
 -1       794 0.00000E+00 0.00000E+00 0.00000E+00
 -1       795 0.00000E+00 0.00000E+00 0.00000E+00
 -1       796 0.00000E+00 0.00000E+00 0.00000E+00
 -1       797 0.00000E+00 0.00000E+00 0.00000E+00
 -1       798 0.00000E+00 0.00000E+00 0.00000E+00
 -1       799 0.00000E+00 0.00000E+00 0.00000E+00
 -1       800 0.00000E+00 0.00000E+00 0.00000E+00
 -1       801 0.00000E+00 0.00000E+00 0.00000E+00
 -1       802 0.00000E+00 0.00000E+00 0.00000E+00
 -1       803 0.00000E+00 0.00000E+00 0.00000E+00
 -1       804 0.00000E+00 0.00000E+00 0.00000E+00
 -1       805 0.00000E+00 0.00000E+00 0.00000E+00
 -1       806 0.00000E+00 0.00000E+00 0.00000E+00
 -1       807 0.00000E+00 0.00000E+00 0.00000E+00
 -1       808 0.00000E+00 0.00000E+00 0.00000E+00
 -1       809 0.00000E+00 0.00000E+00 0.00000E+00
 -1       810 0.00000E+00 0.00000E+00 0.00000E+00
 -1       811 0.00000E+00 0.00000E+00 0.00000E+00
 -1       812 0.00000E+00 0.00000E+00 0.00000E+00
 -1       813 0.00000E+00 0.00000E+00 0.00000E+00
 -1       814 0.00000E+00 0.00000E+00 0.00000E+00
 -1       815 0.00000E+00 0.00000E+00 0.00000E+00
 -1       816 0.00000E+00 0.00000E+00 0.00000E+00
 -1       817 0.00000E+00 0.00000E+00 0.00000E+00
 -1       818 0.00000E+00 0.00000E+00 0.00000E+00
 -1       819 0.00000E+00 0.00000E+00 0.00000E+00
 -1       820 0.00000E+00 0.00000E+00 0.00000E+00
 -1       821 0.00000E+00 0.00000E+00 0.00000E+00
 -1       822 0.00000E+00 0.00000E+00 0.00000E+00
 -1       823 0.00000E+00 0.00000E+00 0.00000E+00
 -1       824 0.00000E+00 0.00000E+00 0.00000E+00
 -1       825 0.00000E+00 0.00000E+00 0.00000E+00
 -1       826 0.00000E+00 0.00000E+00 0.00000E+00
 -1       827 0.00000E+00 0.00000E+00 0.00000E+00
 -1       828 0.00000E+00 0.00000E+00 0.00000E+00
 -1       829 0.00000E+00 0.00000E+00 0.00000E+00
 -1       830 0.00000E+00 0.00000E+00 0.00000E+00
 -1       831 0.00000E+00 0.00000E+00 0.00000E+00
 -1       832 0.00000E+00 0.00000E+00 0.00000E+00
 -1       833 0.00000E+00 0.00000E+00 0.00000E+00
 -1       834 0.00000E+00 0.00000E+00 0.00000E+00
 -1       835 0.00000E+00 0.00000E+00 0.00000E+00
 -1       836 0.00000E+00 0.00000E+00 0.00000E+00
 -1       837 0.00000E+00 0.00000E+00 0.00000E+00
 -1       838 0.00000E+00 0.00000E+00 0.00000E+00
 -1       839 0.00000E+00 0.00000E+00 0.00000E+00
 -1       840 0.00000E+00 0.00000E+00 0.00000E+00
 -1       856 0.00000E+00 0.00000E+00 0.00000E+00
 -1       857 0.00000E+00 0.00000E+00 0.00000E+00
 -1       858 0.00000E+00 0.00000E+00 0.00000E+00
 -1       859 0.00000E+00 0.00000E+00 0.00000E+00
 -1       860 0.00000E+00 0.00000E+00 0.00000E+00
 -1       861 0.00000E+00 0.00000E+00 0.00000E+00
 -1       862 0.00000E+00 0.00000E+00 0.00000E+00
 -1       863 0.00000E+00 0.00000E+00 0.00000E+00
 -1       864 0.00000E+00 0.00000E+00 0.00000E+00
 -1       865 0.00000E+00 0.00000E+00 0.00000E+00
 -1       866 0.00000E+00 0.00000E+00 0.00000E+00
 -1       867 0.00000E+00 0.00000E+00 0.00000E+00
 -1       868 0.00000E+00 0.00000E+00 0.00000E+00
 -1       869 0.00000E+00 0.00000E+00 0.00000E+00
 -1       870 0.00000E+00 0.00000E+00 0.00000E+00
 -1       871 0.00000E+00 0.00000E+00 0.00000E+00
 -1       872 0.00000E+00 0.00000E+00 0.00000E+00
 -1       873 0.00000E+00 0.00000E+00 0.00000E+00
 -1       874 0.00000E+00 0.00000E+00 0.00000E+00
 -1       875 0.00000E+00 0.00000E+00 0.00000E+00
 -1       876 0.00000E+00 0.00000E+00 0.00000E+00
 -1       877 0.00000E+00 0.00000E+00 0.00000E+00
 -1       878 0.00000E+00 0.00000E+00 0.00000E+00
 -1       879 0.00000E+00 0.00000E+00 0.00000E+00
 -1       880 0.00000E+00 0.00000E+00 0.00000E+00
 -1       881 0.00000E+00 0.00000E+00 0.00000E+00
 -1       882 0.00000E+00 0.00000E+00 0.00000E+00
 -1       883 0.00000E+00 0.00000E+00 0.00000E+00
 -1       884 0.00000E+00 0.00000E+00 0.00000E+00
 -1       885 0.00000E+00 0.00000E+00 0.00000E+00
 -1       886 0.00000E+00 0.00000E+00 0.00000E+00
 -1       887 0.00000E+00 0.00000E+00 0.00000E+00
 -1       888 0.00000E+00 0.00000E+00 0.00000E+00
 -1       889 0.00000E+00 0.00000E+00 0.00000E+00
 -1       890 0.00000E+00 0.00000E+00 0.00000E+00
 -1       891 0.00000E+00 0.00000E+00 0.00000E+00
 -1       892 0.00000E+00 0.00000E+00 0.00000E+00
 -1       893 0.00000E+00 0.00000E+00 0.00000E+00
 -1       894 0.00000E+00 0.00000E+00 0.00000E+00
 -1       895 0.00000E+00 0.00000E+00 0.00000E+00
 -1       956 0.00000E+00 0.00000E+00 0.00000E+00
 -1       957 0.00000E+00 0.00000E+00 0.00000E+00
 -1       958 0.00000E+00 0.00000E+00 0.00000E+00
 -1       959 0.00000E+00 0.00000E+00 0.00000E+00
 -1       960 0.00000E+00 0.00000E+00 0.00000E+00
 -1       961 0.00000E+00 0.00000E+00 0.00000E+00
 -1       962 0.00000E+00 0.00000E+00 0.00000E+00
 -1       963 0.00000E+00 0.00000E+00 0.00000E+00
 -1       964 0.00000E+00 0.00000E+00 0.00000E+00
 -1       965 0.00000E+00 0.00000E+00 0.00000E+00
 -1       966 0.00000E+00 0.00000E+00 0.00000E+00
 -1       967 0.00000E+00 0.00000E+00 0.00000E+00
 -1       968 0.00000E+00 0.00000E+00 0.00000E+00
 -1       969 0.00000E+00 0.00000E+00 0.00000E+00
 -1       970 0.00000E+00 0.00000E+00 0.00000E+00
 -1       971 0.00000E+00 0.00000E+00 0.00000E+00
 -1       972 0.00000E+00 0.00000E+00 0.00000E+00
 -1       973 0.00000E+00 0.00000E+00 0.00000E+00
 -1       974 0.00000E+00 0.00000E+00 0.00000E+00
 -1       975 0.00000E+00 0.00000E+00 0.00000E+00
 -1       976 0.00000E+00 0.00000E+00 0.00000E+00
 -1       977 0.00000E+00 0.00000E+00 0.00000E+00
 -1       978 0.00000E+00 0.00000E+00 0.00000E+00
 -1       979 0.00000E+00 0.00000E+00 0.00000E+00
 -1       980 0.00000E+00 0.00000E+00 0.00000E+00
 -1       981 0.00000E+00 0.00000E+00 0.00000E+00
 -1       982 0.00000E+00 0.00000E+00 0.00000E+00
 -1       983 0.00000E+00 0.00000E+00 0.00000E+00
 -1       984 0.00000E+00 0.00000E+00 0.00000E+00
 -1       985 0.00000E+00 0.00000E+00 0.00000E+00
 -3
